# vtk DataFile Version 2.0
Calculation  at time 1.000000000000e+01 
ASCII
DATASET UNSTRUCTURED_GRID
Field FieldData 1
Time 1 1 double
1.000000000000e+01

POINTS 1047 float
0.0 0.0 0.0 
5.000000000000e+01 -1.000000000000e+01 0.0 
0.0 -2.000000000000e+01 0.0 
5.000000000000e+01 -2.000000000000e+01 0.0 
0.0 -9.999999999991e-01 0.0 
0.0 -1.999999999998e+00 0.0 
0.0 -2.999999999997e+00 0.0 
0.0 -3.999999999994e+00 0.0 
0.0 -4.999999999991e+00 0.0 
0.0 -5.999999999988e+00 0.0 
0.0 -6.999999999985e+00 0.0 
0.0 -7.999999999982e+00 0.0 
0.0 -8.999999999983e+00 0.0 
0.0 -9.999999999985e+00 0.0 
0.0 -1.099999999999e+01 0.0 
0.0 -1.199999999999e+01 0.0 
0.0 -1.299999999999e+01 0.0 
0.0 -1.399999999999e+01 0.0 
0.0 -1.499999999999e+01 0.0 
0.0 -1.599999999999e+01 0.0 
0.0 -1.700000000000e+01 0.0 
0.0 -1.800000000000e+01 0.0 
0.0 -1.900000000000e+01 0.0 
4.900000000001e+01 -2.000000000000e+01 0.0 
4.800000000001e+01 -2.000000000000e+01 0.0 
4.700000000002e+01 -2.000000000000e+01 0.0 
4.600000000003e+01 -2.000000000000e+01 0.0 
4.500000000004e+01 -2.000000000000e+01 0.0 
4.400000000004e+01 -2.000000000000e+01 0.0 
4.300000000005e+01 -2.000000000000e+01 0.0 
4.200000000006e+01 -2.000000000000e+01 0.0 
4.100000000006e+01 -2.000000000000e+01 0.0 
4.000000000007e+01 -2.000000000000e+01 0.0 
3.900000000008e+01 -2.000000000000e+01 0.0 
3.800000000009e+01 -2.000000000000e+01 0.0 
3.700000000009e+01 -2.000000000000e+01 0.0 
3.600000000010e+01 -2.000000000000e+01 0.0 
3.500000000011e+01 -2.000000000000e+01 0.0 
3.400000000011e+01 -2.000000000000e+01 0.0 
3.300000000012e+01 -2.000000000000e+01 0.0 
3.200000000013e+01 -2.000000000000e+01 0.0 
3.100000000013e+01 -2.000000000000e+01 0.0 
3.000000000013e+01 -2.000000000000e+01 0.0 
2.900000000013e+01 -2.000000000000e+01 0.0 
2.800000000013e+01 -2.000000000000e+01 0.0 
2.700000000013e+01 -2.000000000000e+01 0.0 
2.600000000013e+01 -2.000000000000e+01 0.0 
2.500000000013e+01 -2.000000000000e+01 0.0 
2.400000000013e+01 -2.000000000000e+01 0.0 
2.300000000013e+01 -2.000000000000e+01 0.0 
2.200000000013e+01 -2.000000000000e+01 0.0 
2.100000000013e+01 -2.000000000000e+01 0.0 
2.000000000013e+01 -2.000000000000e+01 0.0 
1.900000000013e+01 -2.000000000000e+01 0.0 
1.800000000013e+01 -2.000000000000e+01 0.0 
1.700000000012e+01 -2.000000000000e+01 0.0 
1.600000000011e+01 -2.000000000000e+01 0.0 
1.500000000011e+01 -2.000000000000e+01 0.0 
1.400000000010e+01 -2.000000000000e+01 0.0 
1.300000000009e+01 -2.000000000000e+01 0.0 
1.200000000009e+01 -2.000000000000e+01 0.0 
1.100000000008e+01 -2.000000000000e+01 0.0 
1.000000000007e+01 -2.000000000000e+01 0.0 
9.000000000064e+00 -2.000000000000e+01 0.0 
8.000000000057e+00 -2.000000000000e+01 0.0 
7.000000000050e+00 -2.000000000000e+01 0.0 
6.000000000043e+00 -2.000000000000e+01 0.0 
5.000000000036e+00 -2.000000000000e+01 0.0 
4.000000000028e+00 -2.000000000000e+01 0.0 
3.000000000021e+00 -2.000000000000e+01 0.0 
2.000000000014e+00 -2.000000000000e+01 0.0 
1.000000000007e+00 -2.000000000000e+01 0.0 
5.000000000000e+01 -1.100000000000e+01 0.0 
5.000000000000e+01 -1.200000000000e+01 0.0 
5.000000000000e+01 -1.300000000000e+01 0.0 
5.000000000000e+01 -1.400000000000e+01 0.0 
5.000000000000e+01 -1.500000000000e+01 0.0 
5.000000000000e+01 -1.600000000000e+01 0.0 
5.000000000000e+01 -1.700000000000e+01 0.0 
5.000000000000e+01 -1.800000000000e+01 0.0 
5.000000000000e+01 -1.900000000000e+01 0.0 
2.000000000000e+01 0.0 0.0 
3.500000000000e+01 -1.000000000000e+01 0.0 
2.150000000000e+01 -1.000000000000e+00 0.0 
2.300000000000e+01 -2.000000000000e+00 0.0 
2.450000000000e+01 -3.000000000000e+00 0.0 
2.600000000000e+01 -4.000000000000e+00 0.0 
2.750000000000e+01 -5.000000000000e+00 0.0 
2.900000000000e+01 -6.000000000000e+00 0.0 
3.050000000000e+01 -7.000000000000e+00 0.0 
3.200000000000e+01 -8.000000000000e+00 0.0 
3.350000000000e+01 -9.000000000000e+00 0.0 
5.000000000000e+01 -9.000000000000e+00 0.0 
4.900000000000e+01 -1.000000000000e+01 0.0 
4.800000000000e+01 -1.000000000000e+01 0.0 
4.700000000000e+01 -1.000000000000e+01 0.0 
4.600000000000e+01 -1.000000000000e+01 0.0 
4.500000000000e+01 -1.000000000000e+01 0.0 
4.400000000000e+01 -1.000000000000e+01 0.0 
4.300000000000e+01 -1.000000000000e+01 0.0 
4.200000000000e+01 -1.000000000000e+01 0.0 
4.100000000000e+01 -1.000000000000e+01 0.0 
4.000000000000e+01 -1.000000000000e+01 0.0 
3.900000000000e+01 -1.000000000000e+01 0.0 
3.800000000000e+01 -1.000000000000e+01 0.0 
3.700000000000e+01 -1.000000000000e+01 0.0 
3.600000000000e+01 -1.000000000000e+01 0.0 
1.900000000000e+01 0.0 0.0 
1.800000000000e+01 0.0 0.0 
1.700000000000e+01 0.0 0.0 
1.600000000000e+01 0.0 0.0 
1.500000000000e+01 0.0 0.0 
1.400000000000e+01 0.0 0.0 
1.300000000000e+01 0.0 0.0 
1.200000000000e+01 0.0 0.0 
1.100000000000e+01 0.0 0.0 
1.000000000000e+01 0.0 0.0 
9.000000000000e+00 0.0 0.0 
8.000000000000e+00 0.0 0.0 
7.000000000000e+00 0.0 0.0 
6.000000000000e+00 0.0 0.0 
5.000000000000e+00 0.0 0.0 
4.000000000000e+00 0.0 0.0 
3.000000000000e+00 0.0 0.0 
2.000000000000e+00 0.0 0.0 
1.000000000000e+00 0.0 0.0 
3.447058823527e+01 -9.000000000000e+00 0.0 
3.544117647055e+01 -9.000000000000e+00 0.0 
3.641176470582e+01 -9.000000000000e+00 0.0 
3.738235294109e+01 -9.000000000000e+00 0.0 
3.835294117637e+01 -9.000000000000e+00 0.0 
3.932352941164e+01 -9.000000000000e+00 0.0 
4.029411764691e+01 -9.000000000000e+00 0.0 
4.126470588219e+01 -9.000000000000e+00 0.0 
4.223529411748e+01 -9.000000000000e+00 0.0 
4.320588235279e+01 -9.000000000000e+00 0.0 
4.417647058811e+01 -9.000000000000e+00 0.0 
4.514705882342e+01 -9.000000000000e+00 0.0 
4.611764705874e+01 -9.000000000000e+00 0.0 
4.708823529405e+01 -9.000000000000e+00 0.0 
4.805882352937e+01 -9.000000000000e+00 0.0 
4.902941176468e+01 -9.000000000000e+00 0.0 
2.075000000000e+01 -5.000000000006e-01 0.0 
2.225000000000e+01 -1.500000000000e+00 0.0 
2.375000000000e+01 -2.500000000000e+00 0.0 
2.525000000000e+01 -3.500000000000e+00 0.0 
2.675000000000e+01 -4.500000000000e+00 0.0 
2.825000000000e+01 -5.500000000000e+00 0.0 
2.975000000000e+01 -6.500000000000e+00 0.0 
3.125000000000e+01 -7.500000000000e+00 0.0 
3.275000000000e+01 -8.500000000000e+00 0.0 
3.425000000000e+01 -9.500000000000e+00 0.0 
2.226951693683e+01 -2.403913980114e+00 0.0 
1.650149491944e+01 -1.913490915758e+01 0.0 
1.050042386896e+01 -8.504605092970e-01 0.0 
1.553146524712e+01 -8.281255032105e-01 0.0 
1.150000000008e+01 -1.913397459621e+01 0.0 
2.530060260647e+01 -4.428336431260e+00 0.0 
8.651114563942e-01 -1.052096295641e+01 0.0 
2.050000000013e+01 -1.913397459622e+01 0.0 
2.819198729811e+01 -6.399519052838e+00 0.0 
2.445670302931e+01 -1.915649188023e+01 0.0 
3.117591465718e+01 -8.394293040695e+00 0.0 
7.465053044742e+00 -1.920411160581e+01 0.0 
6.398295709691e+00 -8.230098819370e-01 0.0 
2.849659607461e+01 -1.914296187762e+01 0.0 
3.418732642882e+01 -1.040265792588e+01 0.0 
8.386450935063e-01 -6.533605142809e+00 0.0 
9.178661865596e-01 -1.329769195597e+01 0.0 
3.149448624493e+01 -1.910466733764e+01 0.0 
3.552916747426e+01 -1.914628590759e+01 0.0 
4.449210346537e+01 -1.914359085008e+01 0.0 
4.140975975145e+01 -1.906941860733e+01 0.0 
3.847475958753e+01 -1.916622382724e+01 0.0 
3.653774794640e+01 -1.088712800241e+01 0.0 
4.047886341787e+01 -1.090139014048e+01 0.0 
4.348006339825e+01 -1.092792621489e+01 0.0 
4.919519968029e+01 -1.451526755068e+01 0.0 
4.500000000032e+00 -1.913397459621e+01 0.0 
1.856136921614e+01 -8.212235170404e-01 0.0 
3.499895312306e+00 -8.661165539723e-01 0.0 
9.076088696565e-01 -1.642306201891e+01 0.0 
4.655174095477e+01 -1.086183387525e+01 0.0 
9.430688970604e-01 -3.496112672958e+00 0.0 
3.353992337063e+01 -1.901202090820e+01 0.0 
2.249746016977e+01 -1.921262287282e+01 0.0 
2.650122741777e+01 -1.916123026018e+01 0.0 
1.863571384842e+01 -1.908325534840e+01 0.0 
1.450089971693e+01 -1.917691901860e+01 0.0 
1.350044695317e+01 -8.659695299584e-01 0.0 
3.849987469880e+01 -1.084154983397e+01 0.0 
9.454419857884e+00 -1.900818879936e+01 0.0 
4.917398660523e+01 -1.645692866081e+01 0.0 
8.500000000000e+00 -8.660254037844e-01 0.0 
8.660319230785e-01 -8.500111697188e+00 0.0 
4.649022621545e+01 -1.930506220113e+01 0.0 
2.667688107845e+01 -5.420288124331e+00 0.0 
2.379251615665e+01 -3.412225477429e+00 0.0 
2.966631491830e+01 -7.389030232731e+00 0.0 
3.267915035995e+01 -9.396934932445e+00 0.0 
2.074836922338e+01 -1.320054020319e+00 0.0 
4.915985743621e+01 -1.261973384855e+01 0.0 
2.527129768623e+00 -1.931592414663e+01 0.0 
1.538676247410e+00 -8.436956619311e-01 0.0 
4.908096641539e+01 -1.842484004551e+01 0.0 
3.478612492673e+01 -1.090889364140e+01 0.0 
3.409757055860e+01 -1.131991530427e+01 0.0 
3.501895309466e+01 -1.177687842717e+01 0.0 
3.407758073088e+01 -1.224293381580e+01 0.0 
3.484541875390e+01 -1.277051428430e+01 0.0 
3.400322025842e+01 -1.319022775640e+01 0.0 
3.321672625034e+01 -1.266779191233e+01 0.0 
3.315244139236e+01 -1.360984106532e+01 0.0 
3.236335186892e+01 -1.308463225210e+01 0.0 
3.478337442841e+01 -1.372341158982e+01 0.0 
3.230105923633e+01 -1.403023731610e+01 0.0 
3.150954055289e+01 -1.350301767700e+01 0.0 
3.144604792090e+01 -1.444931742516e+01 0.0 
3.065653897123e+01 -1.392357262981e+01 0.0 
3.071897610812e+01 -1.297447031198e+01 0.0 
2.986790411740e+01 -1.339226181535e+01 0.0 
2.993181466745e+01 -1.244703272398e+01 0.0 
2.908023061869e+01 -1.286254537734e+01 0.0 
2.901619051372e+01 -1.380881655279e+01 0.0 
2.822986160390e+01 -1.327695262116e+01 0.0 
2.829453476870e+01 -1.233265343811e+01 0.0 
2.744542905518e+01 -1.274510491105e+01 0.0 
2.751120089246e+01 -1.180368086886e+01 0.0 
2.666218649885e+01 -1.221619339205e+01 0.0 
2.672371209234e+01 -1.127125228527e+01 0.0 
2.587763216302e+01 -1.168539979114e+01 0.0 
2.581165585299e+01 -1.262994410089e+01 0.0 
2.502890882577e+01 -1.209827323619e+01 0.0 
2.509631327757e+01 -1.115492410304e+01 0.0 
2.424662989877e+01 -1.156630981079e+01 0.0 
2.431704046904e+01 -1.062389179334e+01 0.0 
2.346445438728e+01 -1.103427680694e+01 0.0 
2.339382552877e+01 -1.197964871788e+01 0.0 
2.260936050780e+01 -1.144513277642e+01 0.0 
2.268075012022e+01 -1.049911928216e+01 0.0 
2.182525737661e+01 -1.090920811464e+01 0.0 
2.189682319817e+01 -9.961716944568e+00 0.0 
2.104174127792e+01 -1.037266986667e+01 0.0 
2.111304367575e+01 -9.424179358711e+00 0.0 
2.025306185381e+01 -9.832727364719e+00 0.0 
2.018141124247e+01 -1.079140628871e+01 0.0 
1.938594498257e+01 -1.025147354112e+01 0.0 
1.946106490453e+01 -9.288010758448e+00 0.0 
1.858929958352e+01 -9.706319802516e+00 0.0 
1.851540991219e+01 -1.067205988724e+01 0.0 
1.771485303178e+01 -1.012504443115e+01 0.0 
1.764134552256e+01 -1.109360378538e+01 0.0 
1.683745148095e+01 -1.054496365337e+01 0.0 
1.691852964353e+01 -9.582555261178e+00 0.0 
1.603603813062e+01 -1.000160132379e+01 0.0 
1.595824239350e+01 -1.096750698862e+01 0.0 
1.515080624291e+01 -1.041639501931e+01 0.0 
1.523171602559e+01 -9.451711491453e+00 0.0 
1.434621060709e+01 -9.871956467464e+00 0.0 
1.426777178765e+01 -1.083749501371e+01 0.0 
1.345775282374e+01 -1.028803175500e+01 0.0 
1.354103873368e+01 -9.324918457162e+00 0.0 
1.265072018622e+01 -9.742612837270e+00 0.0 
1.257285762070e+01 -1.071557782384e+01 0.0 
1.175874815690e+01 -1.015972324288e+01 0.0 
1.184203019714e+01 -9.193604071377e+00 0.0 
1.094927709905e+01 -9.612103238656e+00 0.0 
1.086938022910e+01 -1.058685085646e+01 0.0 
1.005424098961e+01 -1.002939116380e+01 0.0 
9.977974613295e+00 -1.101324897989e+01 0.0 
1.012915646404e+01 -9.051815821181e+00 0.0 
9.237127782494e+00 -9.471239055559e+00 0.0 
9.308426593771e+00 -8.483376461131e+00 0.0 
8.418806073345e+00 -8.910712374517e+00 0.0 
2.253688464062e+01 -1.239459402279e+01 0.0 
8.495126726666e+00 -7.921646665254e+00 0.0 
9.389727383206e+00 -7.512103628377e+00 0.0 
7.601560812974e+00 -8.349460349344e+00 0.0 
7.525680547759e+00 -9.339736686940e+00 0.0 
7.677888324502e+00 -7.359727833346e+00 0.0 
6.782001206724e+00 -7.788454494773e+00 0.0 
6.858778622885e+00 -6.797338062822e+00 0.0 
2.196596590865e+01 -8.979025665442e+00 0.0 
2.816540108272e+01 -1.422634142353e+01 0.0 
5.961601194403e+00 -7.226824010712e+00 0.0 
6.038171749656e+00 -6.234825887079e+00 0.0 
6.936257279557e+00 -5.805287640737e+00 0.0 
6.115068918323e+00 -5.242109758768e+00 0.0 
3.564391741903e+01 -1.329240553876e+01 0.0 
3.558115605778e+01 -1.425902892003e+01 0.0 
3.645445282201e+01 -1.381970786460e+01 0.0 
3.639744204358e+01 -1.479198128612e+01 0.0 
3.727266909778e+01 -1.435399586226e+01 0.0 
5.216667013081e+00 -5.671788584287e+00 0.0 
3.220697293295e+01 -1.499594545107e+01 0.0 
3.551112158269e+01 -1.523479869250e+01 0.0 
2.836056961467e+01 -1.139032434851e+01 0.0 
2.516730388602e+01 -1.021382726837e+01 0.0 
1.844436907403e+01 -1.164097215196e+01 0.0 
5.885434318740e+00 -8.218694781467e+00 0.0 
5.064071066867e+00 -7.656614643901e+00 0.0 
4.988089103470e+00 -8.649722082718e+00 0.0 
1.079421050408e+01 -1.157014985435e+01 0.0 
9.902420005256e+00 -1.199903342656e+01 0.0 
1.071994252214e+01 -1.255727909771e+01 0.0 
9.826974788171e+00 -1.298659581767e+01 0.0 
1.064607883789e+01 -1.354595476388e+01 0.0 
9.751541265343e+00 -1.397556905071e+01 0.0 
8.932296185869e+00 -1.341553353988e+01 0.0 
8.856399248106e+00 -1.440570715508e+01 0.0 
8.036186803543e+00 -1.384470558472e+01 0.0 
1.057112875118e+01 -1.453516759081e+01 0.0 
1.146582585687e+01 -1.410539926903e+01 0.0 
7.959894480382e+00 -1.483563350928e+01 0.0 
7.138792279156e+00 -1.427465094140e+01 0.0 
7.062506792418e+00 -1.526615385482e+01 0.0 
6.240693558277e+00 -1.470508863040e+01 0.0 
6.316957575451e+00 -1.371212581281e+01 0.0 
5.418183007107e+00 -1.414253605022e+01 0.0 
5.494748364428e+00 -1.314886770603e+01 0.0 
1.756825565873e+01 -1.206433872514e+01 0.0 
1.837565773345e+01 -1.261356468266e+01 0.0 
1.749574831391e+01 -1.303769280014e+01 0.0 
1.830539187332e+01 -1.358828364284e+01 0.0 
1.742278925170e+01 -1.401367746928e+01 0.0 
1.823303007798e+01 -1.456432294258e+01 0.0 
1.734941694138e+01 -1.499213734361e+01 0.0 
1.653760041637e+01 -1.443920312098e+01 0.0 
3.056237977307e+01 -1.487132260174e+01 0.0 
1.866469084762e+01 -8.742953000418e+00 0.0 
1.953669694916e+01 -8.326038909849e+00 0.0 
1.874194303780e+01 -7.780688158966e+00 0.0 
1.961032016741e+01 -7.366854697285e+00 0.0 
1.881715755159e+01 -6.821102209649e+00 0.0 
1.968369797150e+01 -6.407747217358e+00 0.0 
1.889237123259e+01 -5.858375520026e+00 0.0 
1.802038875366e+01 -6.276202618170e+00 0.0 
1.809793837984e+01 -5.307629520489e+00 0.0 
1.721985207997e+01 -5.728242054488e+00 0.0 
1.729850893523e+01 -4.756990819347e+00 0.0 
1.641745664240e+01 -5.174636548624e+00 0.0 
2.495978509456e+01 -1.304406404294e+01 0.0 
1.911567814831e+01 -1.413854250293e+01 0.0 
1.904387332608e+01 -1.511463127723e+01 0.0 
1.992115934240e+01 -1.468788025898e+01 0.0 
7.013706899628e+00 -4.812582868662e+00 0.0 
5.342091874585e+00 -1.513658157269e+01 0.0 
1.139098043784e+01 -1.509488509480e+01 0.0 
1.228151810610e+01 -1.465617481983e+01 0.0 
1.646373110164e+01 -1.541993323337e+01 0.0 
5.293328636712e+00 -4.678385108584e+00 0.0 
1.975965862987e+01 -5.448124345648e+00 0.0 
2.054318374236e+01 -5.992561293251e+00 0.0 
3.721453439063e+01 -1.533216152738e+01 0.0 
3.809302733893e+01 -1.489235527381e+01 0.0 
1.220852788900e+01 -1.565304565230e+01 0.0 
4.394120899730e+00 -5.108397613210e+00 0.0 
8.779354620288e+00 -1.539524721159e+01 0.0 
1.817791047702e+01 -4.338570146253e+00 0.0 
4.518860013839e+00 -1.457343189307e+01 0.0 
4.442712140414e+00 -1.556841391069e+01 0.0 
8.115343466391e+00 -1.285760324283e+01 0.0 
1.985334703171e+01 -1.566478400426e+01 0.0 
2.071953850276e+01 -1.522074243119e+01 0.0 
1.634012953883e+01 -6.154777738301e+00 0.0 
1.553479994708e+01 -5.593730508879e+00 0.0 
1.561265946942e+01 -4.617761762647e+00 0.0 
1.470674212978e+01 -5.064576488228e+00 0.0 
1.464498299883e+01 -6.026514471420e+00 0.0 
1.383271561817e+01 -5.467796261169e+00 0.0 
1.389241253067e+01 -4.504338666645e+00 0.0 
1.301868735463e+01 -4.907185188626e+00 0.0 
1.294514184846e+01 -5.888160903592e+00 0.0 
1.212955968622e+01 -5.328262335277e+00 0.0 
1.220721122383e+01 -4.341264976687e+00 0.0 
1.131324345897e+01 -4.766773516508e+00 0.0 
5.266597955397e+00 -1.613148974258e+01 0.0 
1.737805990867e+01 -3.786677807525e+00 0.0 
3.078438094513e+01 -1.203225297748e+01 0.0 
1.131569882285e+01 -1.608511932110e+01 0.0 
1.728478341782e+01 -1.596017432313e+01 0.0 
3.803465906019e+01 -1.587509751228e+01 0.0 
3.891681276677e+01 -1.543395196905e+01 0.0 
3.897340985302e+01 -1.444710288980e+01 0.0 
3.980095968193e+01 -1.499059496613e+01 0.0 
3.974334598189e+01 -1.597921884150e+01 0.0 
4.062964983717e+01 -1.553518690417e+01 0.0 
4.068729602479e+01 -1.454434445295e+01 0.0 
4.151772679790e+01 -1.508974196007e+01 0.0 
4.157505195739e+01 -1.409694289912e+01 0.0 
4.240699932656e+01 -1.464347955968e+01 0.0 
4.234898051011e+01 -1.563721375790e+01 0.0 
4.323934606035e+01 -1.519082036405e+01 0.0 
4.329740528208e+01 -1.419587509788e+01 0.0 
4.413056841369e+01 -1.474359631875e+01 0.0 
4.418850110108e+01 -1.374786684042e+01 0.0 
4.502219770667e+01 -1.429605103525e+01 0.0 
4.496411937907e+01 -1.529215882720e+01 0.0 
4.490027319897e+00 -4.154167794594e+00 0.0 
1.565080385988e+01 -1.486411982419e+01 0.0 
1.557610691279e+01 -1.584855627870e+01 0.0 
4.195350646612e+00 -8.089117689096e+00 0.0 
4.124027797830e+00 -9.082831955007e+00 0.0 
4.917944318925e+00 -9.643530901533e+00 0.0 
4.020105689502e+00 -1.007439673661e+01 0.0 
4.587185899277e+01 -1.484039992728e+01 0.0 
4.580078661551e+01 -1.584043391042e+01 0.0 
2.061956522375e+01 -5.046701343981e+00 0.0 
2.139572955529e+01 -5.579553449826e+00 0.0 
3.715344357292e+01 -1.631485124583e+01 0.0 
3.618886196443e+00 -1.500471207167e+01 0.0 
3.695606940204e+00 -1.400939692294e+01 0.0 
2.438890661143e+01 -9.686110599723e+00 0.0 
2.523267572778e+01 -9.276766000622e+00 0.0 
2.446094171539e+01 -8.751904591412e+00 0.0 
2.529089822738e+01 -8.321495612547e+00 0.0 
2.606882688827e+01 -8.864724051119e+00 0.0 
2.452116646430e+01 -7.792756462004e+00 0.0 
1.235543269617e+01 -1.365845617339e+01 0.0 
4.318116874181e+01 -1.618567469992e+01 0.0 
7.835066111909e+00 -5.376366223896e+00 0.0 
7.905687335704e+00 -4.382539065697e+00 0.0 
3.542640009567e+00 -1.600035116542e+01 0.0 
1.572431503071e+01 -1.388358386695e+01 0.0 
2.574684696680e+01 -1.357896141127e+01 0.0 
2.488842657651e+01 -1.399674354505e+01 0.0 
2.568301775611e+01 -1.453552048595e+01 0.0 
2.481535572009e+01 -1.495542756508e+01 0.0 
2.561729699688e+01 -1.549784648532e+01 0.0 
2.474623061296e+01 -1.592058894178e+01 0.0 
2.394234041695e+01 -1.537572575827e+01 0.0 
2.065825452567e+01 -1.621899055217e+01 0.0 
2.387180528935e+01 -1.634552264687e+01 0.0 
4.585364400844e+01 -1.383912334080e+01 0.0 
1.998744432052e+01 -1.370317155541e+01 0.0 
1.205356951443e+01 -6.313580285498e+00 0.0 
5.396543905849e+00 -3.731818611283e+00 0.0 
1.139652573295e+01 -3.745819399350e+00 0.0 
3.574124306703e+00 -4.551456826011e+00 0.0 
3.494140761930e+00 -5.539787055649e+00 0.0 
1.213651452413e+01 -1.664505033022e+01 0.0 
2.555045568519e+01 -1.646529356744e+01 0.0 
2.641671114986e+01 -1.603899382371e+01 0.0 
2.612920721894e+01 -7.906435260873e+00 0.0 
2.690339829698e+01 -8.456969591431e+00 0.0 
1.978024383368e+01 -1.664410216353e+01 0.0 
3.732829979082e+01 -1.336926601859e+01 0.0 
4.074336584605e+01 -1.355133328401e+01 0.0 
4.163204691081e+01 -1.310280943992e+01 0.0 
3.773826114429e+00 -3.493444309145e+00 0.0 
1.228783001032e+01 -3.374822835872e+00 0.0 
4.057110462520e+01 -1.652588478000e+01 0.0 
2.132535497898e+01 -6.523623360525e+00 0.0 
2.216932532211e+01 -6.110044769206e+00 0.0 
1.825781152128e+01 -3.370146817147e+00 0.0 
1.745679445888e+01 -2.812942552063e+00 0.0 
4.666517057280e+01 -1.539981381543e+01 0.0 
4.660575894464e+01 -1.639014410186e+01 0.0 
4.838230979954e+00 -1.063643436446e+01 0.0 
3.938942630206e+00 -1.106778981745e+01 0.0 
1.302967218620e+01 -1.621373452436e+01 0.0 
1.049548003190e+01 -4.204825123240e+00 0.0 
4.573571907195e+01 -1.683820511148e+01 0.0 
1.483686335807e+01 -1.430849689310e+01 0.0 
1.490982658890e+01 -1.332679386284e+01 0.0 
3.190805600162e+00 -9.510968358545e+00 0.0 
2.146625721848e+01 -4.642437303115e+00 0.0 
2.069866208266e+01 -4.111852942193e+00 0.0 
1.286859345584e+01 -6.873252723348e+00 0.0 
1.041794493184e+01 -5.194814260291e+00 0.0 
2.671081808965e+00 -4.976806516331e+00 0.0 
1.295786792925e+01 -1.720506531799e+01 0.0 
3.968438206511e+01 -1.696869067241e+01 0.0 
2.308550456051e+01 -1.579963151273e+01 0.0 
2.315593682844e+01 -1.482967445235e+01 0.0 
2.299471449450e+01 -1.677069968132e+01 0.0 
1.057344714696e+01 -3.214252277840e+00 0.0 
1.124057603753e+01 -1.707713739755e+01 0.0 
2.718402535754e+00 -1.543629882103e+01 0.0 
2.638549692805e+01 -1.696744916809e+01 0.0 
2.723416349007e+01 -1.658104204545e+01 0.0 
2.210193351704e+01 -7.046769643417e+00 0.0 
2.295180925161e+01 -6.657397605239e+00 0.0 
2.301355235833e+01 -5.709111896800e+00 0.0 
2.379052718281e+01 -6.254965406962e+00 0.0 
3.243528601237e+01 -1.214181853533e+01 0.0 
2.287977995457e+01 -7.583722368300e+00 0.0 
2.999876029544e+01 -1.150837653096e+01 0.0 
3.084435366963e+01 -1.109693775882e+01 0.0 
3.006650579669e+01 -1.057778994262e+01 0.0 
2.683802665066e+01 -9.386863216633e+00 0.0 
2.768641973621e+01 -8.988883915666e+00 0.0 
2.040296980397e+01 -7.903629133404e+00 0.0 
1.925235024054e+01 -1.218872783130e+01 0.0 
5.735667000424e+00 -1.020577277283e+01 0.0 
6.396559909872e+00 -1.272326295703e+01 0.0 
1.161199420714e+01 -1.212812778229e+01 0.0 
4.229046132615e+01 -1.663084237572e+01 0.0 
4.312275399692e+01 -1.718087491556e+01 0.0 
4.335502068163e+01 -1.320039231514e+01 0.0 
4.424630298089e+01 -1.275160688731e+01 0.0 
7.090116643816e+00 -3.818998061530e+00 0.0 
7.989472176569e+00 -3.389238711200e+00 0.0 
9.085824861778e+00 -1.144036167408e+01 0.0 
1.041972423731e+01 -1.651614080893e+01 0.0 
3.797525112640e+01 -1.686052038746e+01 0.0 
3.709114253394e+01 -1.730125999865e+01 0.0 
3.626966748340e+01 -1.675477052919e+01 0.0 
1.385164591440e+01 -1.677597757552e+01 0.0 
1.787152588784e+01 -8.198993896093e+00 0.0 
1.668849729812e+01 -1.248560611628e+01 0.0 
1.659546177905e+01 -3.232482605530e+00 0.0 
2.332214717345e+01 -1.292598167641e+01 0.0 
7.168238450786e+00 -2.824711686516e+00 0.0 
2.894878403906e+01 -1.475427524446e+01 0.0 
2.646763248247e+00 -1.643270107952e+01 0.0 
3.467431944285e+00 -1.699648837348e+01 0.0 
2.059475877282e+01 -1.719473628526e+01 0.0 
3.333868355437e+01 -1.080596971682e+01 0.0 
2.246451062637e+01 -1.334557761546e+01 0.0 
2.167821896388e+01 -1.280847834858e+01 0.0 
3.089653185767e+01 -1.017198487212e+01 0.0 
3.012604365669e+01 -9.657298805968e+00 0.0 
2.929627299435e+01 -1.006100135274e+01 0.0 
2.936201435219e+01 -9.136748899251e+00 0.0 
1.198219052702e+01 -7.291887238230e+00 0.0 
1.116702076035e+01 -6.731976101053e+00 0.0 
2.551388807505e+01 -1.746927036981e+01 0.0 
2.378639090370e+01 -1.728678807149e+01 0.0 
2.718543627188e+01 -1.748668016909e+01 0.0 
2.804681050301e+01 -1.712626668293e+01 0.0 
1.970737034667e+01 -1.762317646822e+01 0.0 
1.889535776135e+01 -1.707158098231e+01 0.0 
2.593777711283e+00 -5.971157087874e+00 0.0 
2.773468281110e+01 -8.067164273938e+00 0.0 
4.051205884347e+01 -1.751819982458e+01 0.0 
3.166903145421e+01 -1.068032992414e+01 0.0 
1.033042452886e+01 -1.748285844336e+01 0.0 
9.519274604626e+00 -1.694349240233e+01 0.0 
1.668308673328e+01 -2.255861778986e+00 0.0 
1.570531902832e+01 -2.676795860126e+00 0.0 
4.655826903379e+01 -1.736656245706e+01 0.0 
2.384148070773e+01 -5.328744256413e+00 0.0 
2.460255123641e+01 -5.852182672816e+00 0.0 
2.306638135119e+01 -4.798935440613e+00 0.0 
8.467720450578e-01 -1.849576263072e+01 0.0 
4.849657322345e+01 -1.084860705506e+01 0.0 
2.565860899507e+00 -1.742859793981e+01 0.0 
2.764418872564e+01 -9.927142821799e+00 0.0 
4.565165880064e+01 -1.785336695404e+01 0.0 
2.162231831329e+01 -1.376528337468e+01 0.0 
2.360646352969e+01 -9.136041963102e+00 0.0 
1.392738739903e+01 -1.578285505772e+01 0.0 
4.756405947478e+01 -1.683706841809e+01 0.0 
4.740895034054e+01 -1.793766756892e+01 0.0 
4.080779328826e+01 -1.257387192544e+01 0.0 
4.168907939671e+01 -1.210739129181e+01 0.0 
3.991197722154e+01 -1.300815793917e+01 0.0 
1.905536506762e+01 -3.940076697685e+00 0.0 
1.923879596617e+01 -2.875000734166e+00 0.0 
4.401386745746e+01 -1.673483229438e+01 0.0 
4.247233362525e+00 -7.094581653070e+00 0.0 
3.286051630211e+00 -7.635300020553e+00 0.0 
9.609533347623e+00 -4.594311677967e+00 0.0 
9.523554636369e+00 -5.595597029530e+00 0.0 
5.660336628893e+00 -1.119290329628e+01 0.0 
6.558070063295e+00 -1.076385809362e+01 0.0 
2.809866407414e+01 -1.518037766799e+01 0.0 
2.888868674504e+01 -1.570360690070e+01 0.0 
2.654431550819e+01 -1.411217777162e+01 0.0 
1.402158265969e+01 -1.375404617952e+01 0.0 
1.409592494026e+01 -1.277071998942e+01 0.0 
1.499355196178e+01 -1.235270737023e+01 0.0 
4.221535326155e+01 -1.759335617494e+01 0.0 
4.305583287033e+01 -1.822663146802e+01 0.0 
1.280748808359e+01 -7.834332838285e+00 0.0 
1.368988389326e+01 -7.420529606172e+00 0.0 
1.110091796060e+01 -7.683966794328e+00 0.0 
3.963446145980e+01 -1.794331310122e+01 0.0 
3.423932362213e+00 -1.796415590455e+01 0.0 
4.280814572302e+00 -1.752272834860e+01 0.0 
8.050136380041e+00 -2.421582378631e+00 0.0 
8.888674091650e+00 -2.984264211327e+00 0.0 
2.152839430898e+01 -3.732609965436e+00 0.0 
2.077799585292e+01 -3.183896021866e+00 0.0 
3.618719395821e+01 -1.770276572576e+01 0.0 
3.538165138340e+01 -1.718709995539e+01 0.0 
3.702925326420e+01 -1.828844288807e+01 0.0 
1.756739438711e+00 -5.353284859169e+00 0.0 
2.233710191104e+01 -1.527265621324e+01 0.0 
1.389483555057e+01 -1.771797164730e+01 0.0 
1.475634224300e+01 -1.728357428390e+01 0.0 
1.298797563052e+01 -1.825968924755e+01 0.0 
2.145331271866e+01 -1.673705379077e+01 0.0 
2.133282821169e+01 -1.769400773673e+01 0.0 
2.292139194136e+01 -1.774915400288e+01 0.0 
1.750750053243e+01 -1.861475593469e+00 0.0 
4.830478841772e+01 -1.752611802221e+01 0.0 
4.341203507805e+01 -1.220326745522e+01 0.0 
1.685254151866e+01 -1.443085301632e+00 0.0 
4.431538535165e+01 -1.171841387375e+01 0.0 
4.511308610496e+01 -1.229557320599e+01 0.0 
4.510133242889e+01 -1.123680627466e+01 0.0 
1.846818030617e+00 -4.410877617069e+00 0.0 
3.995468694584e+01 -1.186571542989e+01 0.0 
3.901387459804e+01 -1.242507616755e+01 0.0 
8.966735877533e+00 -1.837818700423e+00 0.0 
4.049310011091e+01 -1.848269508791e+01 0.0 
7.278862053803e+00 -1.918523922691e+00 0.0 
6.429715522129e+00 -2.316676521184e+00 0.0 
9.443505505022e+00 -1.792198868094e+01 0.0 
8.620386951051e+00 -1.737590365556e+01 0.0 
8.571868171503e+00 -1.834436667826e+01 0.0 
7.758629848526e+00 -1.775677907213e+01 0.0 
7.806648388584e+00 -1.680761266021e+01 0.0 
6.908555145436e+00 -1.723746463044e+01 0.0 
4.251709122090e+01 -1.156937480156e+01 0.0 
6.931136405615e+00 -1.832465719263e+01 0.0 
6.015545461353e+00 -1.768865355295e+01 0.0 
5.960535926343e+00 -1.872011001764e+01 0.0 
3.023253444786e+01 -8.761960642196e+00 0.0 
2.454622702599e+01 -6.749421992767e+00 0.0 
2.537499741604e+01 -6.347634963783e+00 0.0 
2.544077378460e+01 -5.431358513649e+00 0.0 
2.801367161747e+01 -1.820907270221e+01 0.0 
2.884507806914e+01 -1.762032095326e+01 0.0 
1.821474531936e+00 -1.588901260460e+01 0.0 
1.821006262604e+00 -1.489370287756e+01 0.0 
4.599962488908e+01 -1.176478780598e+01 0.0 
4.705457470007e+01 -1.172182804229e+01 0.0 
4.667668314802e+01 -1.263464558483e+01 0.0 
4.759648056504e+01 -1.252380987933e+01 0.0 
4.728041618103e+01 -1.341928568376e+01 0.0 
4.825209352360e+01 -1.330491640804e+01 0.0 
4.778118233428e+01 -1.420151961695e+01 0.0 
2.388192727579e+01 -1.826934810142e+01 0.0 
2.381714684947e+01 -4.385917965223e+00 0.0 
3.172733219247e+01 -9.758744265248e+00 0.0 
1.882012070658e+01 -1.805540597212e+01 0.0 
1.805667505243e+01 -1.742221226236e+01 0.0 
2.852599958080e+01 -8.597196079481e+00 0.0 
2.856486123437e+01 -7.661382718527e+00 0.0 
1.111792842875e+01 -1.818223852980e+01 0.0 
2.203322722466e+01 -7.986646678802e+00 0.0 
3.955703676900e+01 -1.903246763601e+01 0.0 
1.944842206513e+01 -8.038750575182e-01 0.0 
1.909882767783e+01 -1.746322740933e+00 0.0 
2.281147422941e+01 -8.525912918334e+00 0.0 
2.850633001468e+01 -9.533271335986e+00 0.0 
2.532883344309e+01 -7.308951659710e+00 0.0 
2.620475466461e+01 -6.979208585400e+00 0.0 
1.396278270396e+01 -1.475095389807e+01 0.0 
9.791001166724e+00 -2.554159793552e+00 0.0 
2.229293380421e+01 -4.269762271052e+00 0.0 
4.677238984118e+01 -1.430071795514e+01 0.0 
2.228658385918e+01 -3.344747535984e+00 0.0 
8.940223674553e-01 -1.543595733415e+01 0.0 
2.118566862474e+01 -8.435876987696e+00 0.0 
2.678325936437e+01 -1.032621195706e+01 0.0 
2.223400220487e+01 -5.179046761770e+00 0.0 
2.375370625384e+01 -7.251580562134e+00 0.0 
3.156971327386e+01 -1.255534750737e+01 0.0 
3.328226391312e+01 -1.172914813316e+01 0.0 
3.250948774219e+01 -1.120157009348e+01 0.0 
2.032993445717e+01 -8.867880112202e+00 0.0 
2.697226974856e+01 -7.536633082045e+00 0.0 
2.707377810386e+01 -6.590835263295e+00 0.0 
2.914099246827e+01 -1.191678458549e+01 0.0 
3.544824072239e+01 -1.621126558525e+01 0.0 
3.456511855436e+01 -1.665054783843e+01 0.0 
3.448395810225e+01 -1.759117813016e+01 0.0 
3.368378673938e+01 -1.708037781328e+01 0.0 
3.375560452567e+01 -1.610973066913e+01 0.0 
3.288001547988e+01 -1.654324255651e+01 0.0 
3.282475929147e+01 -1.749725654692e+01 0.0 
3.199880906313e+01 -1.697294088625e+01 0.0 
3.197001272932e+01 -1.811667776864e+01 0.0 
3.111884713021e+01 -1.742166785755e+01 0.0 
3.120418962865e+01 -1.642155709385e+01 0.0 
3.034666704371e+01 -1.683123833816e+01 0.0 
3.026224379976e+01 -1.772592851714e+01 0.0 
3.046632362943e+01 -1.582232843075e+01 0.0 
1.961344017324e+01 -1.857459447985e+01 0.0 
2.274975894774e+01 -9.532738811922e+00 0.0 
1.833923246887e+01 -2.396746883672e+00 0.0 
1.988859500848e+01 -2.249244376594e+00 0.0 
2.758045562861e+01 -1.086434261689e+01 0.0 
3.247300178163e+01 -1.909930104252e+01 0.0 
3.461947482503e+01 -1.911879848019e+01 0.0 
2.047161538662e+01 -6.941478180358e+00 0.0 
2.750230940214e+01 -1.915490590764e+01 0.0 
3.165081350803e+01 -1.161860780120e+01 0.0 
1.897456727641e+01 -4.889634688522e+00 0.0 
2.549338539756e+01 -1.914858252089e+01 0.0 
3.462873135081e+01 -1.567482276144e+01 0.0 
3.384432415243e+01 -1.512280684518e+01 0.0 
3.471433767690e+01 -1.469086942990e+01 0.0 
3.651470373046e+01 -1.918207952149e+01 0.0 
3.901742690249e+01 -1.345028556517e+01 0.0 
2.153224102692e+01 -1.920169709333e+01 0.0 
1.918382939341e+01 -1.316226275662e+01 0.0 
2.005389162382e+01 -1.271962165174e+01 0.0 
2.011472087878e+01 -1.175029352900e+01 0.0 
3.210679478412e+01 -1.598038618242e+01 0.0 
1.752175226543e+01 -1.914713022656e+01 0.0 
1.696897240059e+01 -1.832772588765e+01 0.0 
1.599682523337e+01 -1.832599992024e+01 0.0 
1.644507199462e+01 -1.743697981535e+01 0.0 
1.549987712903e+01 -1.915192375101e+01 0.0 
3.050250861901e+01 -1.918943550234e+01 0.0 
2.949944061527e+01 -1.922950455235e+01 0.0 
1.375892575273e+01 -6.447160534926e+00 0.0 
1.457223670180e+01 -7.006709243857e+00 0.0 
1.450818793236e+01 -7.965943451779e+00 0.0 
1.538804712402e+01 -7.553409623699e+00 0.0 
1.545817644768e+01 -6.580929593419e+00 0.0 
1.626506893751e+01 -7.129032608911e+00 0.0 
1.619833811522e+01 -8.086588580887e+00 0.0 
1.714448609609e+01 -6.697429609777e+00 0.0 
2.887616543568e+01 -1.668015232137e+01 0.0 
1.349814589130e+01 -1.918225301544e+01 0.0 
1.153887772210e+01 -1.311384581217e+01 0.0 
1.242708159886e+01 -1.267046795531e+01 0.0 
1.249799674267e+01 -1.169005616014e+01 0.0 
6.631723893693e+00 -9.774184881867e+00 0.0 
7.451471631867e+00 -1.033148796006e+01 0.0 
7.377795355458e+00 -1.132196345268e+01 0.0 
5.810931797536e+00 -9.211654212252e+00 0.0 
2.402683899133e+01 -1.441378562320e+01 0.0 
1.249768692036e+01 -1.917388426624e+01 0.0 
1.580373499437e+01 -1.290751860664e+01 0.0 
8.344650507834e+00 -9.898403995170e+00 0.0 
3.750622115305e+01 -1.086526401533e+01 0.0 
3.699391251667e+01 -1.171695900794e+01 0.0 
3.606517829518e+01 -1.173717504500e+01 0.0 
3.650257641795e+01 -1.270047380221e+01 0.0 
3.808951488918e+01 -1.183518714175e+01 0.0 
4.760380962420e+00 -1.162484888315e+01 0.0 
3.861210370848e+00 -1.205657631736e+01 0.0 
3.038284309476e+00 -1.149851280664e+01 0.0 
2.961598794889e+00 -1.248856794980e+01 0.0 
2.138953225512e+00 -1.193212674534e+01 0.0 
2.227383593457e+00 -1.096258903918e+01 0.0 
2.043265419276e+00 -1.292158472959e+01 0.0 
1.252449446028e+00 -1.225502002753e+01 0.0 
3.949985210740e+01 -1.086594001795e+01 0.0 
1.453499444792e+01 -8.768805922472e-01 0.0 
1.403518950933e+01 -1.749965556633e+00 0.0 
1.300715031023e+01 -1.714737233040e+00 0.0 
1.350929389899e+01 -2.527443911291e+00 0.0 
1.449600910711e+01 -2.595486162864e+00 0.0 
1.395693872901e+01 -3.484211041558e+00 0.0 
1.495105865208e+01 -3.364609636216e+00 0.0 
1.508822528740e+01 -1.766586020494e+00 0.0 
1.250223858430e+01 -8.634590186802e-01 0.0 
1.200279523409e+01 -1.709044504992e+00 0.0 
1.150086239419e+01 -8.592789190668e-01 0.0 
1.101482754194e+01 -1.677730591922e+00 0.0 
1.148018564526e+01 -2.659323866909e+00 0.0 
8.800552119754e+00 -3.989875954728e+00 0.0 
3.452790439430e+00 -1.901136170646e+01 0.0 
8.658451825200e-01 -9.503462241795e+00 0.0 
1.694787786797e+00 -9.000589234502e+00 0.0 
1.703436717094e+00 -8.038819004041e+00 0.0 
2.594197971110e+00 -8.563955242845e+00 0.0 
1.630513735412e+00 -9.907244747511e+00 0.0 
8.566859292791e-01 -7.512203837972e+00 0.0 
1.685461277022e+00 -7.164280248030e+00 0.0 
2.506394468801e+00 -8.623386730818e-01 0.0 
2.007475081581e+00 -1.727729545205e+00 0.0 
9.211534699767e-01 -1.628791366312e+00 0.0 
1.500000000020e+00 -2.598063549486e+00 0.0 
2.482078929963e+00 -2.553580088725e+00 0.0 
2.999795253092e+00 -1.732169015019e+00 0.0 
3.999712607169e+00 -1.728832897453e+00 0.0 
4.499752199340e+00 -8.656478679175e-01 0.0 
4.964377774841e+00 -1.730129617941e+00 0.0 
4.425017908337e+00 -2.597541756243e+00 0.0 
5.446573195014e+00 -8.410144840023e-01 0.0 
4.915722346614e+01 -1.550640962770e+01 0.0 
4.826794919243e+01 -1.600000000000e+01 0.0 
1.053139533193e+01 -1.911782884365e+01 0.0 
4.156049861949e+01 -1.095160998589e+01 0.0 
9.494526624416e+00 -8.650570090219e-01 0.0 
4.555762166964e+01 -1.897098103585e+01 0.0 
4.250656411371e+01 -1.914387356218e+01 0.0 
4.350906466345e+01 -1.917234727395e+01 0.0 
8.759665722424e-01 -1.746422130609e+01 0.0 
1.698936011838e+00 -1.795012186674e+01 0.0 
4.742476811029e+01 -1.900090177972e+01 0.0 
7.749196752349e+00 -6.368049313489e+00 0.0 
3.361572113416e+01 -1.798765193915e+01 0.0 
4.484660149212e+01 -1.728661231383e+01 0.0 
1.984038172228e+01 -4.502575320116e+00 0.0 
1.035080352627e+01 -6.166639575753e+00 0.0 
2.753558010652e+00 -1.444909521181e+01 0.0 
7.217069543032e+00 -1.328635391078e+01 0.0 
4.364336727739e+00 -1.655585677381e+01 0.0 
4.595208426108e+00 -1.357919665443e+01 0.0 
6.164967006980e+00 -1.569873454630e+01 0.0 
1.487855768353e+01 -1.826523774028e+01 0.0 
2.791876456372e+00 -4.019632415181e+00 0.0 
4.246464893515e+01 -1.364898659620e+01 0.0 
4.503855590351e+01 -1.329552780944e+01 0.0 
4.407239109604e+01 -1.573900004093e+01 0.0 
5.141054449252e+00 -6.664290382472e+00 0.0 
3.141083947149e+00 -1.055790764912e+01 0.0 
6.196463198741e+00 -4.256497932609e+00 0.0 
2.599618716181e+01 -1.836893455464e+01 0.0 
2.923057372337e+01 -1.098461757645e+01 0.0 
1.168343877486e+01 -1.114079645041e+01 0.0 
6.706222096238e+00 -8.780364234441e+00 0.0 
8.567858614669e+00 -6.943121440850e+00 0.0 
1.123755132901e+01 -5.753525820030e+00 0.0 
2.353456234423e+01 -1.008536320953e+01 0.0 
9.162073319168e+00 -1.045593739109e+01 0.0 
9.676343469685e+00 -1.496493008366e+01 0.0 
4.490637882905e+01 -1.628778970202e+01 0.0 
7.398129387772e+00 -9.639977982323e-01 0.0 
1.049641705805e+01 -1.552503975272e+01 0.0 
9.010356286268e+00 -1.242805042052e+01 0.0 
3.985573925497e+01 -1.399863651620e+01 0.0 
1.816196318262e+01 -1.554066497931e+01 0.0 
1.306332244168e+01 -3.963646550326e+00 0.0 
4.145850903932e+01 -1.608094559275e+01 0.0 
3.794664933633e+01 -1.779020121986e+01 0.0 
3.819614412903e+01 -1.290749321016e+01 0.0 
6.270014188119e+00 -3.255093186826e+00 0.0 
4.251165370388e+01 -1.263870364997e+01 0.0 
1.207347709171e+01 -1.763942826023e+01 0.0 
3.633240829927e+01 -1.577330481104e+01 0.0 
4.319052668832e+00 -6.101812561904e+00 0.0 
1.676492415806e+01 -1.151547901392e+01 0.0 
2.594059220037e+01 -1.074225223009e+01 0.0 
3.340750911501e+01 -9.898764354137e+00 0.0 
4.397619591281e+01 -1.769773736461e+01 0.0 
2.175611595028e+01 -1.185718747128e+01 0.0 
1.641818733106e+01 -1.640685203215e+01 0.0 
1.661211421753e+01 -1.346121366338e+01 0.0 
3.428853504935e+00 -6.551993389271e+00 0.0 
8.700728832502e+00 -1.638460872825e+01 0.0 
1.931369795309e+01 -1.121629383702e+01 0.0 
4.139798872363e+01 -1.706922153459e+01 0.0 
2.647837478700e+01 -1.507353829290e+01 0.0 
1.779469616424e+01 -9.161615782908e+00 0.0 
3.885879219319e+01 -1.642026488918e+01 0.0 
1.338194936770e+01 -1.125916521471e+01 0.0 
1.897071181111e+01 -1.609204322578e+01 0.0 
2.844308548793e+01 -1.046221003096e+01 0.0 
2.659854702194e+01 -1.316109415760e+01 0.0 
2.979604503271e+01 -1.433296157755e+01 0.0 
2.417694041347e+01 -1.251231397779e+01 0.0 
1.807401327411e+00 -1.388891148480e+01 0.0 
9.599810618782e+00 -1.595439365034e+01 0.0 
1.652144692160e+01 -4.205392788472e+00 0.0 
2.367839450246e+01 -8.188385218643e+00 0.0 
3.814894930468e+01 -1.390748338767e+01 0.0 
2.466448215774e+01 -1.685878545680e+01 0.0 
4.134044524611e+01 -1.806610045954e+01 0.0 
2.600511411958e+01 -9.801774120648e+00 0.0 
7.882158050716e+00 -1.582364037353e+01 0.0 
3.881607873422e+01 -1.737970515013e+01 0.0 
8.270182347708e+00 -1.088622154920e+01 0.0 
8.672520392520e-01 -4.532984309881e+00 0.0 
1.993447205337e+01 -3.579061902667e+00 0.0 
1.794616079549e+01 -7.238038888498e+00 0.0 
2.097277068165e+01 -1.132450168636e+01 0.0 
8.194803300681e+00 -1.187214224265e+01 0.0 
3.522279404911e+01 -1.823342818178e+01 0.0 
6.984481050295e+00 -1.625271465557e+01 0.0 
1.309433007797e+01 -1.521718594215e+01 0.0 
2.150246167611e+01 -1.885399038185e+00 0.0 
3.250689370209e+01 -1.028789870535e+01 0.0 
6.085886272238e+00 -1.668342132851e+01 0.0 
1.588455661727e+01 -1.193498985921e+01 0.0 
1.809323400821e+01 -1.651110084195e+01 0.0 
1.348885082381e+00 -1.136065576512e+01 0.0 
2.497670221995e+01 -1.834631276173e+01 0.0 
2.937062818424e+01 -8.233711194470e+00 0.0 
5.185823744469e+00 -1.711566910207e+01 0.0 
1.477497877209e+01 -1.530177014512e+01 0.0 
2.125346158933e+01 -7.473003997367e+00 0.0 
4.751561118290e+01 -1.084897772632e+01 0.0 
5.056026576843e+00 -1.825750475525e+01 0.0 
1.473948554523e+01 -1.634577436309e+01 0.0 
2.410566630936e+01 -1.345970002612e+01 0.0 
1.507337507513e+01 -1.138527895328e+01 0.0 
3.189857338687e+01 -8.887781229006e+00 0.0 
7.298712468334e+00 -1.230231046246e+01 0.0 
2.738235495295e+01 -1.368931690364e+01 0.0 
3.750141041969e+01 -1.920449893070e+01 0.0 
1.557271965640e+01 -1.683317951731e+01 0.0 
3.393731848929e+01 -1.413034777044e+01 0.0 
6.482156824153e+00 -1.174575135362e+01 0.0 
2.077971718439e+01 -1.421279621836e+01 0.0 
3.455084320178e+00 -2.562590040585e+00 0.0 
3.099056096250e+01 -9.270280416035e+00 0.0 
5.580176125418e+00 -1.217387969259e+01 0.0 
1.707247630389e+01 -7.660651981710e+00 0.0 
1.418658814174e+01 -1.180390575393e+01 0.0 
2.049103025389e+01 -1.811296706038e+01 0.0 
4.680386172316e+00 -1.260396879301e+01 0.0 
1.699679896554e+01 -8.624561788199e+00 0.0 
3.779470168555e+00 -1.303424899720e+01 0.0 
3.036589870126e+01 -7.879832518349e+00 0.0 
3.306993001774e+01 -1.457671062095e+01 0.0 
2.840150110165e+00 -1.346530088269e+01 0.0 
2.732011135052e+01 -1.464591214560e+01 0.0 
5.423639259568e+00 -2.659711955016e+00 0.0 
2.324455961696e+01 -1.387269388211e+01 0.0 
1.752768355571e+00 -1.693128613594e+01 0.0 
1.020244783051e+01 -8.076834012808e+00 0.0 
1.330873875224e+01 -1.222417528206e+01 0.0 
3.297727364880e+01 -1.555480372087e+01 0.0 
2.890929955439e+01 -6.868664170731e+00 0.0 
1.323294664622e+01 -1.320754260334e+01 0.0 
2.726532861246e+01 -1.560593120806e+01 0.0 
2.240020643398e+01 -1.429299177247e+01 0.0 
2.090445823633e+01 -1.228128621332e+01 0.0 
1.315809881502e+01 -1.420739326938e+01 0.0 
2.781328038068e+01 -7.181956082300e+00 0.0 
8.614200829057e+00 -5.936933226306e+00 0.0 
8.714765730069e+00 -4.979270529687e+00 0.0 
1.611881701099e+01 -9.041973294003e+00 0.0 
2.806830314340e+01 -1.614622947108e+01 0.0 
2.084435391396e+00 -3.385085422913e+00 0.0 
3.133211811152e+01 -1.542347619750e+01 0.0 
9.693114650768e+00 -3.590281506442e+00 0.0 
1.531883592202e+01 -8.504584946143e+00 0.0 
2.151589117094e+01 -1.578915763018e+01 0.0 
4.918943882696e+01 -1.355538828056e+01 0.0 
1.443236615188e+01 -8.918701794549e+00 0.0 
8.276250966452e-01 -5.537685192197e+00 0.0 
1.362790867918e+01 -8.374718262212e+00 0.0 
2.083767477370e+01 -1.324843956035e+01 0.0 
1.273834678703e+01 -8.790890389337e+00 0.0 
1.192275845670e+01 -8.242261327467e+00 0.0 
4.477236023583e+01 -1.824312396664e+01 0.0 
1.102989384254e+01 -8.649855800911e+00 0.0 
4.849096516045e+01 -1.917293752213e+01 0.0 
1.588996752238e+00 -1.910230934687e+01 0.0 
4.904245197583e+01 -1.159839008158e+01 0.0 
2.753852929608e+01 -5.782128488093e+00 0.0 
1.756133602833e+01 -8.306130313187e-01 0.0 
2.615423700951e+01 -6.153865090092e+00 0.0 
1.028818761294e+01 -7.122020845892e+00 0.0 
2.970818901196e+01 -1.527821347593e+01 0.0 
4.801461623449e+01 -1.164472570985e+01 0.0 
9.455722100419e+00 -6.546069291118e+00 0.0 
3.089099236677e+01 -1.835339328261e+01 0.0 
2.350000000013e+01 -1.920825896750e+01 0.0 
4.830620531887e+01 -1.506626155470e+01 0.0 
1.725381944701e+01 -1.688794487850e+01 0.0 
2.156246225273e+01 -1.475893794002e+01 0.0 
4.919319648787e+01 -1.742767505896e+01 0.0 
4.437935623576e+01 -1.077662927266e+01 0.0 
1.001520521978e+01 -1.652692675208e+00 0.0 
9.067160240050e-01 -1.441937727541e+01 0.0 
2.603365149390e+01 -4.755996613848e+00 0.0 
2.458344439002e+01 -4.873645517696e+00 0.0 
2.304312390142e+01 -3.836552768096e+00 0.0 
2.546923202198e+00 -6.902480355749e+00 0.0 
1.251534969393e+01 -2.490989965776e+00 0.0 
2.454061833377e+01 -3.933354231935e+00 0.0 
1.788186558740e+01 -1.827424884923e+01 0.0 
4.090785243552e+01 -1.166553231904e+01 0.0 
2.230128851568e+01 -1.623015738726e+01 0.0 
2.302362347568e+01 -2.916239960270e+00 0.0 
3.878119254461e+01 -1.830091164002e+01 0.0 
2.210081359958e+01 -1.829238229150e+01 0.0 
8.443704882233e+00 -1.921993252862e+01 0.0 
2.218405824691e+01 -1.724557581508e+01 0.0 
2.151157503963e+01 -2.790636689331e+00 0.0 
3.741658958955e+01 -1.250400191722e+01 0.0 
2.697247663737e+01 -1.838290202309e+01 0.0 
4.743362342862e+01 -1.585850773010e+01 0.0 
6.671345075358e+00 -1.924977576322e+01 0.0 
3.900825404537e+01 -1.157220003875e+01 0.0 
4.649692961375e+01 -1.836335837481e+01 0.0 
1.578831424832e+01 -3.678284023361e+00 0.0 
4.814208768888e+01 -1.841249298770e+01 0.0 
2.964123298315e+01 -1.625739458193e+01 0.0 
4.580760351902e+01 -1.284294554687e+01 0.0 
3.561520879615e+01 -1.245548941949e+01 0.0 
2.555418095658e+00 -1.841101588290e+01 0.0 
3.288468366144e+01 -1.834258164109e+01 0.0 
2.065894391445e+01 -2.240688571739e+00 0.0 
4.739171429915e+01 -1.496536413446e+01 0.0 
3.478086729185e+00 -8.576434653209e+00 0.0 
1.606010630246e+01 -1.588421807951e+00 0.0 
1.018329200594e+01 -1.834320874317e+01 0.0 
2.957213339430e+01 -1.720496954591e+01 0.0 
4.142712790164e+00 -1.837794506222e+01 0.0 
6.698721532573e-01 -2.499999999997e+00 0.0 
8.037039123140e+00 -1.571229354954e+00 0.0 
1.203541361428e+01 -1.847784298001e+01 0.0 
2.899968332038e+01 -1.848264722179e+01 0.0 
1.469229460948e+01 -4.219485753730e+00 0.0 
4.049590781957e+01 -1.932812501995e+01 0.0 
1.996211678340e+01 -1.506329754720e+00 0.0 
4.250588298353e+01 -1.067383247529e+01 0.0 
5.831497011152e+00 -1.635396227234e+00 0.0 
5.317606125670e+00 -1.923927974868e+01 0.0 
4.208546426993e+01 -1.842830665025e+01 0.0 
2.327553405011e+00 -9.459409929662e+00 0.0 
3.568351902251e+01 -1.096637218582e+01 0.0 
1.682104374890e+00 -6.231413350963e+00 0.0 
2.451812238018e+01 -1.766524914339e+01 0.0 
1.058003429638e+01 -2.391839617098e+00 0.0 
4.399988753123e+01 -1.851998776342e+01 0.0 
1.400000000010e+01 -1.852293523028e+01 0.0 
3.604719565984e+01 -1.850662876800e+01 0.0 
1.951297136734e+01 -1.938092349694e+01 0.0 
1.821365318472e+01 -1.531276353287e+00 0.0 
2.298031859732e+01 -1.854635324722e+01 0.0 
1.552168066204e+01 -1.764280741977e+01 0.0 
4.572957713638e+01 -1.073347898229e+01 0.0 
3.429637429624e+01 -1.838861552790e+01 0.0 
2.427434426052e+00 -7.705577451869e+00 0.0 
4.662792031485e+00 -3.359424455416e+00 0.0 
4.926794919243e+01 -1.926794919243e+01 0.0 
7.320508075690e-01 -7.320508075688e-01 0.0 
4.926794919243e+01 -1.073205080757e+01 0.0 
7.320508075705e-01 -1.926794919243e+01 0.0 
2.917460242467e+00 -3.202866455310e+00 0.0 
4.838200575963e+01 -1.232674147454e+01 0.0 
2.998445708009e+01 -1.854403752148e+01 0.0 
5.949940090766e-01 -1.152762038165e+01 0.0 
4.844763495759e+01 -1.678092548787e+01 0.0 
1.301685480160e+01 -3.170056592566e+00 0.0 
1.650046335855e+01 -6.731535384067e-01 0.0 
4.854881540991e+01 -1.405224059779e+01 0.0 
2.119545114693e+01 -1.846813384545e+01 0.0 
3.797852849897e+01 -1.857978513215e+01 0.0 
4.649823708745e+01 -1.338351810816e+01 0.0 
2.012685900976e+01 -2.889659035009e+00 0.0 
2.953271913273e+01 -1.791558075192e+01 0.0 
2.408509097292e+00 -1.021949208421e+01 0.0 
2.642589566221e+01 -1.773216561448e+01 0.0 
1.730010270775e+01 -1.763165076721e+01 0.0 
2.017406551304e+01 -8.513536440582e-01 0.0 
5.254761581934e-01 -1.249999999999e+01 0.0 
6.640448215642e+00 -1.545337834885e+00 0.0 
7.843361506349e+00 -1.852719839527e+01 0.0 
1.588442191088e+00 -1.066158564320e+01 0.0 
3.480610198624e+01 -9.413633635267e+00 0.0 
4.951470588234e+01 -9.500000000000e+00 0.0 

CELLS 1956 7824 
3 196 666 942 
3 666 196 944 
3 676 169 687 
3 789 554 978 
3 556 616 782 
3 646 559 685 
3 176 598 600 
3 196 623 944 
3 598 176 616 
3 549 784 978 
3 168 743 744 
3 623 196 958 
3 788 940 984 
3 605 736 826 
3 940 202 984 
3 195 789 978 
3 604 175 745 
3 559 646 684 
3 183 603 925 
3 603 183 863 
3 784 549 937 
3 914 160 920 
3 641 914 920 
3 591 590 800 
3 290 446 735 
3 743 168 852 
3 106 82 1005 
3 635 161 877 
3 288 290 735 
3 800 590 1010 
3 540 750 752 
3 193 606 783 
3 676 687 985 
3 19 181 656 
3 191 610 612 
3 619 66 976 
3 66 619 1002 
3 638 187 682 
3 602 97 955 
3 97 602 1016 
3 878 620 904 
3 156 642 781 
3 959 157 963 
3 82 205 1005 
3 597 204 954 
3 636 959 963 
3 750 540 753 
3 204 597 980 
3 746 747 753 
3 736 605 977 
3 198 641 878 
3 588 603 863 
3 366 979 997 
3 198 878 904 
3 688 170 868 
3 961 533 1006 
3 588 863 932 
3 181 626 656 
3 449 777 895 
3 784 195 978 
3 155 989 1030 
3 969 595 971 
3 415 443 649 
3 979 752 997 
3 760 579 984 
3 641 198 914 
3 989 599 1030 
3 169 676 949 
3 476 437 758 
3 165 624 690 
3 852 795 906 
3 33 32 644 
3 635 877 1007 
3 4 5 770 
3 767 961 1006 
3 607 172 858 
3 688 868 1017 
3 655 960 967 
3 777 449 1019 
3 960 197 967 
3 437 450 758 
3 175 604 965 
3 160 666 920 
3 666 160 942 
3 616 556 828 
3 598 616 828 
3 627 852 957 
3 18 19 656 
3 681 678 926 
3 556 782 965 
3 783 606 956 
3 207 734 1005 
3 780 951 975 
3 975 951 987 
3 173 33 644 
3 682 187 1012 
3 604 745 977 
3 781 642 990 
3 201 633 930 
3 649 443 650 
3 782 616 1000 
3 202 760 984 
3 363 929 953 
3 594 969 971 
3 484 482 660 
3 747 750 753 
3 787 788 910 
3 553 780 975 
3 155 746 753 
3 883 178 1002 
3 328 681 926 
3 4 770 1021 
3 551 647 683 
3 518 834 872 
3 562 764 988 
3 622 649 650 
3 417 415 649 
3 191 612 970 
3 633 201 1025 
3 621 417 649 
3 652 582 927 
3 205 207 1005 
3 780 553 1028 
3 417 621 660 
3 972 871 986 
3 637 887 896 
3 764 562 1018 
3 887 162 896 
3 172 607 998 
3 584 972 986 
3 743 852 906 
3 554 789 980 
3 491 548 648 
3 162 620 896 
3 610 191 990 
3 788 545 940 
3 627 795 852 
3 648 548 848 
3 592 720 1010 
3 524 640 648 
3 574 785 786 
3 624 165 996 
3 826 736 973 
3 433 405 654 
3 640 491 648 
3 620 162 904 
3 548 686 848 
3 660 486 855 
3 176 600 955 
3 647 282 683 
3 606 193 994 
3 941 947 1025 
3 771 183 925 
3 199 637 872 
3 720 592 729 
3 621 484 660 
3 656 627 957 
3 623 157 959 
3 929 589 953 
3 182 628 629 
3 643 282 647 
3 626 181 910 
3 476 652 927 
3 788 547 910 
3 663 536 691 
3 178 883 992 
3 941 546 947 
3 482 486 660 
3 834 199 872 
3 168 744 1041 
3 157 623 958 
3 282 643 657 
3 405 456 654 
3 628 182 1016 
3 486 647 855 
3 637 199 887 
3 530 719 924 
3 764 465 988 
3 161 635 950 
3 690 624 974 
3 622 650 944 
3 465 764 1004 
3 707 837 891 
3 640 524 878 
3 623 622 944 
3 663 518 872 
3 647 551 855 
3 171 784 937 
3 294 703 913 
3 181 787 910 
3 636 197 960 
3 492 657 881 
3 678 703 926 
3 81 107 645 
3 524 620 878 
3 880 552 884 
3 776 908 1001 
3 791 184 1017 
3 289 214 696 
3 911 270 938 
3 400 880 884 
3 734 207 983 
3 735 446 973 
3 590 592 1010 
3 921 812 948 
3 658 229 686 
3 488 378 691 
3 295 289 696 
3 485 663 691 
3 536 663 872 
3 434 894 934 
3 719 568 924 
3 645 179 646 
3 650 666 944 
3 650 443 665 
3 548 658 686 
3 703 673 913 
3 559 558 864 
3 552 651 870 
3 602 628 1016 
3 657 643 881 
3 348 870 919 
3 608 818 1042 
3 694 295 696 
3 818 164 1042 
3 776 777 908 
3 197 636 963 
3 921 564 922 
3 668 295 694 
3 564 563 922 
3 544 653 659 
3 370 751 823 
3 582 759 927 
3 837 400 891 
3 536 488 691 
3 579 760 992 
3 107 179 645 
3 453 483 659 
3 243 282 657 
3 641 640 878 
3 651 552 880 
3 619 883 1002 
3 905 294 913 
3 352 334 689 
3 400 884 891 
3 852 168 957 
3 686 296 848 
3 695 696 892 
3 595 969 1014 
3 243 657 664 
3 483 544 659 
3 213 485 661 
3 644 32 998 
3 229 658 833 
3 702 245 841 
3 629 628 630 
3 758 450 962 
3 485 662 663 
3 452 352 689 
3 558 692 793 
3 540 752 979 
3 295 668 830 
3 378 661 691 
3 417 660 855 
3 668 507 830 
3 703 294 926 
3 296 667 809 
3 163 617 976 
3 493 702 841 
3 221 487 667 
3 551 683 814 
3 493 701 702 
3 335 351 692 
3 733 174 734 
3 247 244 664 
3 364 715 716 
3 695 905 913 
3 107 108 179 
3 485 211 662 
3 334 332 689 
3 408 453 659 
3 337 335 692 
3 216 213 661 
3 606 652 956 
3 444 534 665 
3 493 700 701 
3 661 485 691 
3 733 734 735 
3 454 559 684 
3 364 716 718 
3 365 368 715 
3 650 665 666 
3 695 892 905 
3 443 444 665 
3 330 247 664 
3 657 492 664 
3 454 558 559 
3 683 239 814 
3 583 653 655 
3 37 170 688 
3 39 184 687 
3 230 229 833 
3 351 334 352 
3 407 408 466 
3 222 221 667 
3 351 352 407 
3 364 365 715 
3 296 809 848 
3 785 574 1003 
3 689 492 881 
3 894 550 934 
3 583 466 653 
3 188 57 708 
3 407 352 408 
3 227 296 686 
3 454 358 558 
3 730 423 838 
3 244 243 664 
3 368 712 715 
3 487 378 488 
3 42 709 710 
3 332 330 492 
3 493 321 700 
3 467 466 583 
3 698 383 821 
3 870 651 919 
3 483 484 542 
3 557 698 821 
3 186 45 690 
3 460 552 870 
3 41 169 709 
3 826 446 856 
3 681 328 946 
3 544 542 636 
3 489 488 521 
3 221 378 487 
3 221 219 378 
3 297 833 859 
3 161 47 693 
3 288 735 983 
3 662 518 663 
3 492 330 664 
3 563 759 922 
3 521 536 637 
3 483 482 484 
3 182 629 882 
3 368 711 712 
3 332 492 689 
3 672 694 695 
3 453 482 483 
3 487 488 489 
3 321 323 700 
3 496 723 810 
3 50 185 699 
3 524 522 620 
3 336 338 718 
3 577 911 938 
3 543 622 623 
3 542 484 543 
3 678 675 703 
3 227 225 296 
3 534 640 641 
3 489 521 522 
3 54 187 704 
3 187 638 964 
3 675 673 703 
3 695 694 696 
3 723 263 810 
3 415 416 443 
3 335 334 351 
3 333 332 334 
3 229 227 686 
3 510 730 838 
3 278 724 725 
3 671 669 672 
3 338 364 718 
3 412 297 413 
3 667 487 809 
3 414 413 415 
3 169 40 687 
3 184 38 688 
3 184 791 985 
3 496 722 723 
3 507 409 830 
3 483 542 544 
3 331 330 332 
3 558 358 692 
3 444 491 534 
3 732 733 736 
3 698 826 856 
3 708 706 800 
3 679 678 681 
3 213 211 485 
3 220 219 221 
3 358 337 692 
3 755 757 758 
3 282 241 683 
3 235 233 297 
3 241 239 683 
3 152 871 972 
3 629 630 631 
3 759 563 927 
3 408 452 453 
3 57 56 708 
3 342 344 434 
3 206 518 662 
3 183 771 993 
3 833 658 859 
3 243 241 282 
3 219 216 661 
3 165 43 710 
3 521 488 536 
3 225 222 667 
3 278 725 731 
3 669 668 694 
3 496 721 722 
3 44 165 690 
3 41 40 169 
3 37 36 170 
3 39 38 184 
3 218 216 219 
3 672 669 694 
3 677 675 678 
3 415 413 416 
3 443 416 444 
3 727 724 811 
3 671 672 673 
3 46 186 693 
3 586 507 668 
3 700 434 701 
3 586 668 669 
3 427 425 728 
3 235 297 412 
3 534 491 640 
3 407 466 467 
3 173 644 968 
3 414 415 417 
3 808 527 877 
3 724 278 811 
3 369 372 711 
3 188 708 800 
3 453 481 482 
3 42 41 709 
3 184 688 1017 
3 226 225 227 
3 755 756 757 
3 44 43 165 
3 153 704 705 
3 368 369 711 
3 323 342 700 
3 159 51 699 
3 115 154 756 
3 412 413 414 
3 224 222 225 
3 228 227 229 
3 296 225 667 
3 466 408 659 
3 46 45 186 
3 329 247 330 
3 455 454 684 
3 617 163 1043 
3 756 154 757 
3 523 522 524 
3 750 751 752 
3 637 536 872 
3 153 55 704 
3 48 47 161 
3 378 219 661 
3 747 749 750 
3 596 455 684 
3 750 749 751 
3 840 538 853 
3 732 174 733 
3 208 206 662 
3 50 49 185 
3 190 732 736 
3 170 36 697 
3 430 427 728 
3 557 605 698 
3 543 621 622 
3 342 434 700 
3 558 793 864 
3 52 51 159 
3 40 39 687 
3 38 37 688 
3 496 304 721 
3 299 301 727 
3 235 412 814 
3 304 306 721 
3 54 53 187 
3 408 352 452 
3 715 714 716 
3 712 713 714 
3 447 557 821 
3 58 188 720 
3 747 748 749 
3 56 55 153 
3 711 576 712 
3 43 42 710 
3 677 678 679 
3 114 115 756 
3 412 551 814 
3 506 409 507 
3 45 44 690 
3 218 219 220 
3 473 430 474 
3 467 583 584 
3 706 705 707 
3 468 575 576 
3 712 576 713 
3 746 189 747 
3 47 46 693 
3 692 351 793 
3 460 508 552 
3 557 604 605 
3 794 526 813 
3 712 714 715 
3 220 221 222 
3 51 50 699 
3 301 403 727 
3 312 348 418 
3 232 230 233 
3 571 464 572 
3 716 714 717 
3 721 418 722 
3 233 230 833 
3 569 426 843 
3 342 343 344 
3 234 233 235 
3 271 273 731 
3 453 452 481 
3 299 727 811 
3 474 430 728 
3 298 321 493 
3 56 153 708 
3 585 507 586 
3 469 794 813 
3 55 54 704 
3 153 705 706 
3 240 239 241 
3 747 189 748 
3 59 720 729 
3 670 669 671 
3 372 468 711 
3 58 57 188 
3 306 312 721 
3 444 490 491 
3 211 208 662 
3 298 493 841 
3 302 496 810 
3 464 423 730 
3 696 214 892 
3 523 648 848 
3 344 362 363 
3 631 630 632 
3 273 278 731 
3 323 325 342 
3 468 525 575 
3 495 317 796 
3 113 114 754 
3 482 481 486 
3 468 576 711 
3 724 566 725 
3 238 236 239 
3 312 418 721 
3 447 555 557 
3 372 435 468 
3 59 58 720 
3 224 225 226 
3 494 565 566 
3 226 227 228 
3 494 566 724 
3 754 114 756 
3 210 208 211 
3 763 762 764 
3 164 120 778 
3 403 458 494 
3 312 347 348 
3 792 462 817 
3 572 730 874 
3 572 464 730 
3 206 166 518 
3 190 104 732 
3 587 697 890 
3 228 229 230 
3 120 121 778 
3 582 502 759 
3 748 754 755 
3 564 921 948 
3 480 530 924 
3 560 792 817 
3 357 840 853 
3 281 279 790 
3 319 317 495 
3 460 471 508 
3 377 358 454 
3 194 762 763 
3 167 766 767 
3 156 60 729 
3 60 59 729 
3 762 761 765 
3 494 458 565 
3 302 304 496 
3 508 590 591 
3 502 421 759 
3 355 440 460 
3 776 774 777 
3 403 494 727 
3 725 566 726 
3 180 773 774 
3 194 761 762 
3 506 507 585 
3 121 122 775 
3 105 174 732 
3 105 106 174 
3 423 327 838 
3 167 10 766 
3 468 435 525 
3 653 466 659 
3 613 611 614 
3 693 186 808 
3 497 391 824 
3 543 484 621 
3 606 582 652 
3 489 522 523 
3 101 175 782 
3 100 101 782 
3 121 775 778 
3 775 774 776 
3 769 771 772 
3 345 286 420 
3 180 768 773 
3 761 158 765 
3 155 111 746 
3 286 281 790 
3 634 632 654 
3 103 104 190 
3 530 625 719 
3 306 311 312 
3 631 632 633 
3 10 11 766 
3 769 772 773 
3 30 29 785 
3 172 30 785 
3 557 555 604 
3 175 102 745 
3 766 763 767 
3 28 171 786 
3 420 286 790 
3 104 105 732 
3 103 190 745 
3 521 637 896 
3 36 35 697 
3 785 29 786 
3 180 774 775 
3 122 180 775 
3 581 502 582 
3 725 726 862 
3 787 545 788 
3 110 111 155 
3 192 779 780 
3 112 189 746 
3 463 423 464 
3 112 113 189 
3 111 112 746 
3 570 464 571 
3 516 579 580 
3 633 632 634 
3 809 523 848 
3 768 769 773 
3 318 319 798 
3 25 24 789 
3 195 25 789 
3 102 103 745 
3 399 327 423 
3 29 28 786 
3 473 474 589 
3 769 770 771 
3 768 203 769 
3 769 203 770 
3 11 12 194 
3 202 69 760 
3 80 79 204 
3 124 203 768 
3 13 158 761 
3 70 69 202 
3 68 178 760 
3 61 156 781 
3 76 177 779 
3 78 77 192 
3 69 68 760 
3 68 67 178 
3 192 77 779 
3 124 125 203 
3 98 99 176 
3 101 102 175 
3 180 123 768 
3 65 64 163 
3 191 62 781 
3 63 62 191 
3 123 124 768 
3 122 123 180 
3 61 60 156 
3 62 61 781 
3 76 75 177 
3 95 96 182 
3 77 76 779 
3 74 73 201 
3 93 94 546 
3 119 120 164 
3 117 118 193 
3 116 117 783 
3 115 116 154 
3 13 14 158 
3 12 13 761 
3 117 193 783 
3 16 17 168 
3 154 116 783 
3 34 33 173 
3 28 27 171 
3 31 30 172 
3 6 7 183 
3 9 10 167 
3 27 26 784 
3 19 20 181 
3 26 25 195 
3 20 21 787 
3 21 22 545 
3 194 12 761 
3 171 27 784 
3 26 195 784 
3 181 20 787 
3 21 545 787 
3 410 411 795 
3 189 113 754 
3 301 402 403 
3 775 776 778 
3 613 614 615 
3 494 724 727 
3 376 360 797 
3 345 420 421 
3 908 609 1001 
3 516 580 797 
3 403 404 458 
3 194 763 766 
3 360 422 797 
3 553 554 597 
3 11 194 766 
3 348 347 355 
3 310 308 361 
3 410 359 411 
3 478 410 795 
3 329 330 331 
3 523 524 648 
3 239 236 814 
3 318 317 319 
3 422 515 516 
3 626 478 627 
3 469 563 564 
3 541 462 549 
3 457 406 462 
3 602 601 628 
3 316 314 317 
3 359 318 798 
3 553 541 554 
3 457 541 553 
3 361 308 820 
3 516 547 579 
3 419 391 497 
3 626 627 656 
3 617 615 618 
3 549 462 792 
3 396 394 397 
3 312 311 347 
3 356 438 439 
3 375 461 469 
3 581 582 606 
3 748 189 754 
3 457 462 541 
3 516 515 547 
3 755 754 756 
3 674 673 675 
3 600 500 601 
3 346 360 376 
3 422 478 515 
3 525 526 577 
3 515 478 626 
3 600 601 602 
3 342 325 343 
3 617 618 619 
3 588 470 603 
3 612 611 613 
3 405 397 406 
3 439 470 533 
3 469 564 794 
3 741 739 742 
3 393 395 499 
3 280 284 299 
3 456 406 457 
3 396 405 433 
3 565 458 737 
3 627 478 795 
3 422 410 478 
3 405 406 456 
3 398 350 436 
3 458 404 459 
3 431 517 593 
3 397 804 817 
3 403 402 404 
3 310 361 796 
3 610 538 611 
3 396 397 405 
3 539 455 596 
3 513 608 609 
3 339 337 358 
3 422 516 797 
3 395 394 396 
3 743 741 744 
3 499 500 598 
3 460 440 471 
3 737 459 738 
3 360 410 422 
3 439 438 470 
3 613 615 617 
3 458 459 737 
3 533 470 588 
3 459 404 806 
3 299 300 301 
3 285 281 286 
3 740 741 743 
3 119 164 818 
3 193 118 818 
3 411 359 798 
3 356 398 438 
3 316 317 318 
3 317 314 796 
3 273 277 278 
3 372 373 435 
3 419 497 498 
3 685 559 1035 
3 301 401 402 
3 508 471 590 
3 438 398 449 
3 499 395 500 
3 598 500 600 
3 501 421 502 
3 537 504 538 
3 390 388 391 
3 356 350 398 
3 573 497 842 
3 498 497 573 
3 293 350 356 
3 622 621 649 
3 287 286 345 
3 360 359 410 
3 738 739 740 
3 586 669 670 
3 419 498 560 
3 346 318 359 
3 316 318 346 
3 345 421 501 
3 346 359 360 
3 390 391 392 
3 740 739 741 
3 393 394 395 
3 392 391 419 
3 245 246 841 
3 804 560 817 
3 404 465 806 
3 738 459 739 
3 401 300 561 
3 275 272 276 
3 393 392 394 
3 267 269 302 
3 285 287 293 
3 513 502 581 
3 390 392 393 
3 285 286 287 
3 610 611 612 
3 397 394 804 
3 346 376 799 
3 153 706 708 
3 404 402 465 
3 293 287 350 
3 501 502 513 
3 315 314 316 
3 396 433 803 
3 513 581 608 
3 299 284 300 
3 603 470 801 
3 393 499 802 
3 301 300 401 
3 314 310 796 
3 401 561 562 
3 462 406 817 
3 284 281 285 
3 309 313 357 
3 469 461 563 
3 313 310 314 
3 742 739 806 
3 315 316 799 
3 716 717 898 
3 470 438 801 
3 601 500 803 
3 463 464 570 
3 413 297 859 
3 395 396 803 
3 375 469 813 
3 387 389 447 
3 438 449 801 
3 614 611 840 
3 399 423 463 
3 344 343 362 
3 498 573 574 
3 302 303 304 
3 436 350 807 
3 307 305 308 
3 537 538 610 
3 525 435 526 
3 316 346 799 
3 394 392 804 
3 369 371 372 
3 309 308 310 
3 555 448 556 
3 439 533 839 
3 280 281 284 
3 232 233 234 
3 313 314 315 
3 444 416 490 
3 234 235 236 
3 389 388 390 
3 500 395 803 
3 447 448 555 
3 739 459 806 
3 477 379 504 
3 304 305 306 
3 499 598 828 
3 676 675 677 
3 363 362 431 
3 309 310 313 
3 392 419 804 
3 273 275 277 
3 277 279 280 
3 345 501 807 
3 306 307 311 
3 280 299 811 
3 389 390 802 
3 447 389 448 
3 249 251 298 
3 790 279 812 
3 331 332 333 
3 280 279 281 
3 277 275 279 
3 287 345 807 
3 355 379 440 
3 268 266 270 
3 419 560 804 
3 264 266 267 
3 306 305 307 
3 302 269 303 
3 238 239 240 
3 350 287 807 
3 477 504 537 
3 477 537 642 
3 424 426 569 
3 273 272 275 
3 304 303 305 
3 390 393 802 
3 278 277 811 
3 412 414 551 
3 284 285 805 
3 435 373 813 
3 271 272 273 
3 285 293 805 
3 356 439 831 
3 303 269 503 
3 307 308 309 
3 442 479 480 
3 118 119 818 
3 260 258 261 
3 264 262 265 
3 271 270 272 
3 448 389 802 
3 267 268 269 
3 300 284 805 
3 268 270 271 
3 406 397 817 
3 561 300 805 
3 513 609 827 
3 807 501 827 
3 526 435 813 
3 275 276 812 
3 260 262 263 
3 267 266 268 
3 375 437 461 
3 436 807 827 
3 698 605 826 
3 805 293 831 
3 355 347 379 
3 428 441 442 
3 212 211 213 
3 451 385 472 
3 480 529 530 
3 246 249 841 
3 426 428 843 
3 373 374 375 
3 271 731 815 
3 242 241 243 
3 365 367 368 
3 437 374 450 
3 277 280 811 
3 264 265 266 
3 263 262 264 
3 561 805 831 
3 267 302 810 
3 260 261 262 
3 256 258 259 
3 279 275 812 
3 326 324 327 
3 387 388 389 
3 256 254 257 
3 440 379 477 
3 372 371 373 
3 590 471 592 
3 263 264 810 
3 530 624 625 
3 223 222 224 
3 373 375 813 
3 215 213 216 
3 505 409 506 
3 263 723 846 
3 486 643 647 
3 217 216 218 
3 297 233 833 
3 375 374 437 
3 607 578 644 
3 461 437 476 
3 638 532 639 
3 792 560 835 
3 349 327 399 
3 802 499 828 
3 386 385 451 
3 259 258 260 
3 298 320 321 
3 535 472 578 
3 309 357 816 
3 384 386 387 
3 463 570 651 
3 373 371 374 
3 384 382 385 
3 693 808 877 
3 477 642 829 
3 268 271 815 
3 448 802 828 
3 556 448 828 
3 264 267 810 
3 311 307 816 
3 347 311 819 
3 501 513 827 
3 333 334 335 
3 252 254 255 
3 256 257 258 
3 236 235 814 
3 535 578 607 
3 671 673 674 
3 560 498 835 
3 491 490 548 
3 381 353 409 
3 307 309 816 
3 573 842 858 
3 354 382 383 
3 269 268 815 
3 252 250 253 
3 384 385 386 
3 451 472 535 
3 391 388 824 
3 387 386 388 
3 538 504 853 
3 531 445 532 
3 504 379 819 
3 308 305 820 
3 620 522 896 
3 326 349 380 
3 291 289 295 
3 293 356 831 
3 255 254 256 
3 572 874 886 
3 321 322 323 
3 338 340 364 
3 252 253 254 
3 323 324 325 
3 489 523 809 
3 503 269 815 
3 383 698 856 
3 616 176 1000 
3 84 143 152 
3 305 303 820 
3 349 399 400 
3 670 671 791 
3 298 251 320 
3 303 503 820 
3 387 447 821 
3 85 144 197 
3 326 327 349 
3 322 320 510 
3 487 489 809 
3 311 816 819 
3 368 367 369 
3 379 347 819 
3 471 440 829 
3 325 324 326 
3 388 386 824 
3 432 430 473 
3 440 477 829 
3 86 145 157 
3 383 384 821 
3 593 517 594 
3 386 451 824 
3 323 322 324 
3 251 250 252 
3 893 565 897 
3 377 454 455 
3 497 824 842 
3 831 439 839 
3 87 146 196 
3 429 427 430 
3 498 574 835 
3 369 370 371 
3 231 230 232 
3 383 382 384 
3 862 726 867 
3 364 340 365 
3 486 481 643 
3 450 374 823 
3 369 367 370 
3 371 370 823 
3 321 320 322 
3 697 35 890 
3 88 147 160 
3 611 538 840 
3 248 247 329 
3 292 354 856 
3 339 358 377 
3 592 471 829 
3 374 371 823 
3 562 561 839 
3 343 325 822 
3 260 263 846 
3 431 445 517 
3 414 417 855 
3 291 295 830 
3 531 532 638 
3 384 387 821 
3 671 674 791 
3 382 381 845 
3 381 409 505 
3 351 407 793 
3 614 840 860 
3 354 381 382 
3 245 702 866 
3 89 148 198 
3 531 638 682 
3 336 335 337 
3 561 831 839 
3 431 362 445 
3 183 7 863 
3 237 236 238 
3 326 380 822 
3 505 506 825 
3 506 585 587 
3 325 326 822 
3 472 385 845 
3 246 244 247 
3 428 442 843 
3 90 149 162 
3 677 679 680 
3 91 150 199 
3 151 91 834 
3 249 298 841 
3 82 151 166 
3 519 274 520 
3 240 241 242 
3 252 255 832 
3 365 340 366 
3 249 250 251 
3 451 535 842 
3 674 675 676 
3 357 313 860 
3 517 445 531 
3 259 260 846 
3 381 505 845 
3 251 252 832 
3 615 614 869 
3 385 382 845 
3 409 353 830 
3 327 324 838 
3 246 248 249 
3 442 441 479 
3 220 222 223 
3 365 366 367 
3 336 337 338 
3 551 414 855 
3 228 230 231 
3 618 615 873 
3 354 353 381 
3 249 248 250 
3 424 569 849 
3 380 349 837 
3 824 451 842 
3 480 479 529 
3 446 292 856 
3 552 508 884 
3 320 251 832 
3 349 400 837 
3 234 236 237 
3 578 472 861 
3 530 529 624 
3 322 510 838 
3 338 337 339 
3 432 473 475 
3 237 274 512 
3 246 247 248 
3 324 322 838 
3 355 460 870 
3 338 339 340 
3 510 320 832 
3 215 216 217 
3 618 873 879 
3 217 218 328 
3 429 430 432 
3 212 213 215 
3 209 208 210 
3 223 224 283 
3 532 445 847 
3 840 357 860 
3 292 353 354 
3 506 587 825 
3 210 211 212 
3 329 331 509 
3 432 475 528 
3 842 535 858 
3 238 240 836 
3 237 238 274 
3 248 329 844 
3 353 291 830 
3 490 416 859 
3 519 520 550 
3 416 413 859 
3 362 343 847 
3 528 595 635 
3 253 250 844 
3 377 455 511 
3 585 586 868 
3 548 490 658 
3 886 259 899 
3 528 475 595 
3 292 291 353 
3 816 357 853 
3 242 243 244 
3 511 455 539 
3 879 580 883 
3 231 232 341 
3 344 363 894 
3 479 441 527 
3 539 596 599 
3 819 816 853 
3 452 689 881 
3 290 292 446 
3 361 867 888 
3 250 248 844 
3 615 869 873 
3 512 274 519 
3 329 509 844 
3 231 341 424 
3 511 539 540 
3 426 427 428 
3 343 822 847 
3 625 624 996 
3 428 429 441 
3 336 718 865 
3 313 315 860 
3 535 607 858 
3 682 159 900 
3 445 362 847 
3 245 244 246 
3 424 425 426 
3 797 580 879 
3 741 742 876 
3 428 427 429 
3 354 383 856 
3 614 860 869 
3 504 819 853 
3 95 182 882 
3 546 94 882 
3 215 217 294 
3 426 425 427 
3 495 796 888 
3 223 283 514 
3 520 274 836 
3 707 891 1015 
3 242 244 245 
3 34 173 890 
3 207 206 208 
3 274 238 836 
3 361 820 867 
3 333 335 336 
3 503 815 862 
3 424 341 425 
3 226 228 849 
3 290 291 292 
3 514 283 567 
3 514 567 568 
3 772 771 925 
3 815 731 862 
3 658 490 859 
3 218 220 850 
3 328 218 850 
3 639 532 875 
3 7 8 863 
3 366 340 854 
3 232 234 851 
3 731 725 862 
3 91 199 834 
3 166 151 834 
3 290 289 291 
3 407 467 793 
3 867 726 888 
3 400 399 880 
3 340 339 854 
3 161 693 877 
3 845 505 861 
3 566 565 893 
3 860 315 869 
3 777 774 895 
3 463 651 880 
3 341 232 851 
3 773 772 895 
3 472 845 861 
3 339 377 854 
3 220 223 850 
3 228 231 849 
3 256 259 886 
3 722 418 915 
3 505 825 861 
3 418 348 919 
3 237 512 851 
3 234 237 851 
3 143 83 871 
3 377 511 854 
3 429 432 857 
3 209 210 214 
3 432 528 857 
3 481 452 881 
3 673 672 913 
3 527 441 857 
3 518 166 834 
3 441 429 857 
3 315 799 869 
3 728 425 885 
3 503 862 867 
3 820 503 867 
3 586 670 868 
3 723 722 912 
3 231 424 849 
3 702 701 918 
3 348 355 870 
3 836 240 866 
3 865 718 898 
3 730 510 874 
3 509 331 865 
3 223 514 850 
3 509 865 898 
3 283 224 889 
3 532 847 875 
3 847 822 875 
3 240 242 866 
3 288 289 290 
3 869 799 873 
3 799 376 873 
3 467 584 864 
3 283 889 907 
3 618 879 883 
3 534 641 920 
3 495 893 897 
3 152 143 871 
3 873 376 879 
3 333 336 865 
3 744 741 876 
3 894 363 953 
3 288 214 289 
3 209 214 288 
3 341 851 885 
3 90 162 887 
3 199 150 887 
3 376 797 879 
3 915 418 919 
3 572 886 899 
3 399 463 880 
3 832 255 874 
3 331 333 865 
3 150 90 887 
3 207 208 209 
3 94 95 882 
3 822 380 875 
3 242 245 866 
3 531 682 900 
3 515 626 910 
3 510 832 874 
3 619 618 883 
3 898 717 902 
3 594 517 900 
3 851 512 885 
3 474 728 909 
3 508 591 884 
3 272 270 911 
3 849 569 889 
3 874 255 886 
3 226 849 889 
3 643 481 881 
3 589 474 917 
3 255 256 886 
3 796 361 888 
3 224 226 889 
3 986 200 999 
3 701 434 934 
3 655 152 972 
3 436 827 908 
3 495 888 893 
3 442 480 916 
3 214 210 892 
3 89 198 904 
3 35 34 890 
3 83 142 200 
3 162 149 904 
3 571 572 899 
3 565 737 897 
3 522 521 896 
3 928 713 931 
3 912 722 915 
3 425 341 885 
3 434 344 894 
3 679 981 991 
3 793 467 864 
3 726 566 893 
3 897 737 901 
3 790 812 921 
3 205 166 206 
3 210 212 892 
3 18 656 957 
3 774 773 895 
3 599 596 943 
3 759 421 922 
3 737 738 901 
3 253 902 923 
3 714 713 928 
3 718 716 898 
3 319 495 897 
3 215 294 905 
3 901 738 903 
3 253 844 902 
3 889 569 907 
3 605 604 977 
3 363 431 929 
3 738 740 903 
3 319 897 901 
3 88 160 914 
3 257 254 923 
3 903 740 906 
3 177 75 930 
3 74 201 930 
3 198 148 914 
3 798 319 901 
3 576 575 933 
3 655 653 960 
3 517 531 900 
3 563 461 927 
3 933 575 935 
3 918 701 934 
3 149 89 904 
3 740 743 906 
3 9 167 932 
3 205 206 207 
3 798 901 903 
3 259 846 899 
3 888 726 893 
3 646 685 999 
3 954 192 1028 
3 261 258 931 
3 837 707 952 
3 474 909 917 
3 411 798 903 
3 411 903 906 
3 902 717 923 
3 476 758 1008 
3 685 986 999 
3 795 411 906 
3 884 591 891 
3 525 577 936 
3 569 843 907 
3 666 665 920 
3 567 283 907 
3 642 156 995 
3 108 109 943 
3 24 23 939 
3 71 70 940 
3 73 72 941 
3 265 262 935 
3 728 885 909 
3 844 509 902 
3 827 609 908 
3 83 200 871 
3 792 835 937 
3 212 215 905 
3 82 166 205 
3 48 161 950 
3 863 8 932 
3 185 49 950 
3 892 212 905 
3 270 266 938 
3 885 512 909 
3 265 935 936 
3 544 636 960 
3 936 577 938 
3 294 217 926 
3 547 515 910 
3 261 931 933 
3 567 907 916 
3 943 109 1030 
3 257 923 928 
3 672 695 913 
3 276 272 911 
3 577 526 945 
3 512 519 909 
3 751 370 997 
3 87 196 942 
3 160 147 942 
3 276 945 948 
3 571 899 912 
3 836 866 918 
3 907 843 916 
3 676 677 949 
3 148 88 914 
3 779 177 951 
3 624 529 974 
3 509 898 902 
3 152 655 967 
3 665 534 920 
3 846 723 912 
3 514 568 946 
3 899 846 912 
3 559 864 1035 
3 570 571 915 
3 636 542 959 
3 866 702 918 
3 571 912 915 
3 909 519 917 
3 433 654 1034 
3 812 276 948 
3 583 655 972 
3 570 915 919 
3 543 623 959 
3 943 596 1013 
3 204 79 954 
3 78 192 954 
3 757 154 956 
3 651 570 919 
3 420 921 922 
3 420 790 921 
3 916 480 924 
3 519 550 917 
3 843 442 916 
3 257 928 931 
3 97 98 955 
3 191 781 990 
3 421 420 922 
3 380 837 952 
3 520 836 918 
3 603 801 925 
3 328 850 946 
3 254 253 923 
3 755 758 962 
3 717 714 928 
3 17 18 957 
3 217 328 926 
3 461 476 927 
3 744 876 1027 
3 568 567 924 
3 431 593 929 
3 911 577 945 
3 932 167 1006 
3 520 918 934 
3 75 74 930 
3 749 748 962 
3 808 186 974 
3 687 184 985 
3 201 941 1025 
3 644 578 968 
3 709 169 949 
3 258 257 931 
3 261 933 935 
3 705 704 964 
3 179 108 943 
3 8 9 932 
3 744 1027 1041 
3 276 911 945 
3 713 576 933 
3 86 157 958 
3 196 146 958 
3 604 555 965 
3 923 717 928 
3 839 533 961 
3 473 589 966 
3 163 64 970 
3 63 191 970 
3 262 261 935 
3 190 736 977 
3 599 943 1030 
3 85 197 963 
3 752 751 997 
3 157 145 963 
3 550 520 934 
3 575 525 936 
3 931 713 933 
3 753 540 989 
3 597 954 1028 
3 935 575 936 
3 549 792 937 
3 457 553 975 
3 789 24 939 
3 70 202 940 
3 201 73 941 
3 265 936 938 
3 147 87 942 
3 266 265 938 
3 66 65 976 
3 84 152 967 
3 197 144 967 
3 639 875 952 
3 782 175 965 
3 554 541 978 
3 567 916 924 
3 593 594 971 
3 679 681 981 
3 630 628 982 
3 945 794 948 
3 526 794 945 
3 951 177 1031 
3 966 593 971 
3 174 106 1005 
3 546 882 947 
3 629 631 947 
3 628 601 982 
3 511 540 979 
3 794 564 948 
3 574 786 1009 
3 803 433 982 
3 159 682 1012 
3 677 680 949 
3 850 514 946 
3 861 825 968 
3 465 402 988 
3 401 562 988 
3 642 537 990 
3 155 753 989 
3 588 932 1006 
3 49 48 950 
3 6 183 993 
3 882 629 947 
3 706 707 1015 
3 581 606 994 
3 164 778 1001 
3 31 172 998 
3 100 782 1000 
3 858 172 1003 
3 705 964 1039 
3 176 99 1000 
3 179 943 1013 
3 789 939 980 
3 436 908 1019 
3 574 573 1003 
3 67 66 1002 
3 674 676 985 
3 366 854 979 
3 736 733 973 
3 764 762 1004 
3 589 929 966 
3 52 159 1012 
3 780 779 951 
3 187 53 1012 
3 540 539 989 
3 617 619 976 
3 367 366 997 
3 772 925 1024 
3 188 800 1010 
3 697 587 1011 
3 607 644 998 
3 600 602 955 
3 207 209 983 
3 653 544 960 
3 709 949 1026 
3 767 763 1018 
3 584 986 1035 
3 929 593 966 
3 96 97 1016 
3 587 585 1011 
3 3 80 1020 
3 23 3 1020 
3 125 0 1021 
3 0 4 1021 
3 72 1 1022 
3 1 93 1022 
3 2 71 1023 
3 22 2 1023 
3 770 203 1021 
3 110 155 1030 
3 883 580 992 
3 528 635 1007 
3 449 398 1019 
3 613 617 1043 
3 16 168 1041 
3 158 14 1027 
3 654 632 1034 
3 823 751 1029 
3 589 917 953 
3 908 777 1019 
3 806 465 1037 
3 949 680 1026 
3 79 78 954 
3 876 158 1027 
3 631 633 1025 
3 527 808 1038 
3 981 719 991 
3 946 568 981 
3 98 176 955 
3 550 894 953 
3 868 670 1017 
3 533 588 1006 
3 154 783 956 
3 479 527 1038 
3 875 380 952 
3 751 749 1029 
3 634 951 1031 
3 760 178 992 
3 527 857 1007 
3 877 527 1007 
3 168 17 957 
3 645 646 999 
3 146 86 958 
3 542 543 959 
3 733 735 973 
3 917 550 953 
3 835 574 1009 
3 704 187 964 
3 748 755 962 
3 757 956 1008 
3 145 85 963 
3 654 456 987 
3 562 839 961 
3 825 587 1033 
3 925 801 1024 
3 638 639 964 
3 555 556 965 
3 699 185 969 
3 475 473 966 
3 735 734 983 
3 729 592 995 
3 587 890 1033 
3 939 204 980 
3 144 84 967 
3 578 861 968 
3 186 690 974 
3 964 639 1039 
3 475 966 971 
3 64 63 970 
3 681 946 981 
3 81 645 1040 
3 584 583 972 
3 680 679 991 
3 446 826 973 
3 547 788 984 
3 595 475 971 
3 163 970 1043 
3 456 457 975 
3 159 699 1032 
3 829 642 995 
3 592 829 995 
3 961 767 1018 
3 65 163 976 
3 745 190 977 
3 541 549 978 
3 758 757 1008 
3 553 597 1028 
3 634 654 987 
3 770 5 993 
3 854 511 979 
3 568 719 981 
3 172 785 1003 
3 597 554 980 
3 900 159 1032 
3 601 803 982 
3 193 818 994 
3 684 646 1013 
3 818 608 994 
3 652 476 1008 
3 142 81 1040 
3 465 1004 1037 
3 579 547 984 
3 791 674 985 
3 209 288 983 
3 402 401 988 
3 537 610 990 
3 591 800 1015 
3 969 185 1014 
3 808 974 1038 
3 719 625 991 
3 956 652 1008 
3 539 599 989 
3 580 579 992 
3 771 770 993 
3 5 6 993 
3 871 200 986 
3 608 581 994 
3 156 729 995 
3 165 710 996 
3 937 835 1009 
3 185 950 1014 
3 891 591 1015 
3 982 433 1034 
3 32 31 998 
3 370 367 997 
3 99 100 1000 
3 749 962 1029 
3 778 776 1001 
3 178 67 1002 
3 734 174 1005 
3 895 772 1024 
3 762 765 1004 
3 996 710 1026 
3 573 858 1003 
3 170 697 1011 
3 167 767 1006 
3 596 684 1013 
3 970 612 1043 
3 939 23 1020 
3 71 940 1023 
3 941 72 1022 
3 800 706 1015 
3 449 895 1024 
3 968 825 1033 
3 164 1001 1042 
3 720 188 1010 
3 868 170 1011 
3 646 179 1013 
3 857 528 1007 
3 456 975 987 
3 786 171 1009 
3 53 52 1012 
3 177 930 1031 
3 710 709 1026 
3 585 868 1011 
3 951 634 987 
3 996 1026 1036 
3 763 764 1018 
3 182 96 1016 
3 635 595 1014 
3 80 204 1020 
3 203 125 1021 
3 93 546 1022 
3 545 22 1023 
3 398 436 1019 
3 707 705 1039 
3 670 791 1017 
3 171 937 1009 
3 801 449 1024 
3 986 685 1035 
3 14 15 1027 
3 192 780 1028 
3 109 110 1030 
3 890 173 1033 
3 633 634 1031 
3 450 823 1029 
3 632 630 1034 
3 950 635 1014 
3 1027 15 1041 
3 200 142 1040 
3 562 961 1018 
3 742 806 1037 
3 15 16 1041 
3 594 900 1032 
3 765 158 1044 
3 876 742 1044 
3 609 608 1042 
3 612 613 1043 
3 529 479 1038 
3 864 584 1035 
3 204 939 1020 
3 940 545 1023 
3 546 941 1022 
3 930 633 1031 
3 1037 765 1044 
3 742 1037 1044 
3 158 876 1044 
3 639 952 1039 
3 962 450 1029 
3 974 529 1038 
3 947 631 1025 
3 173 968 1033 
3 952 707 1039 
3 630 982 1034 
3 680 991 1036 
3 969 594 1032 
3 699 969 1032 
3 999 200 1040 
3 991 625 1036 
3 625 996 1036 
3 1001 609 1042 
3 1004 765 1037 
3 645 999 1040 
3 1026 680 1036 
3 140 141 93 
3 140 93 94 
3 139 140 94 
3 139 94 95 
3 138 139 95 
3 138 95 96 
3 137 138 96 
3 137 96 97 
3 136 137 97 
3 136 97 98 
3 135 136 98 
3 135 98 99 
3 127 82 1045 
3 134 135 99 
3 106 82 127 
3 134 99 100 
3 133 134 100 
3 101 133 100 
3 132 133 101 
3 102 132 101 
3 131 132 102 
3 131 102 103 
3 126 127 1045 
3 131 103 130 
3 103 104 130 
3 104 129 130 
3 104 105 129 
3 105 106 128 
3 129 105 128 
3 128 106 127 
3 82 151 1045 
3 151 126 1045 
3 92 1 1046 
3 93 141 1046 
3 1 93 1046 
3 141 92 1046 
3 151 91 126 

CELL_TYPES 1956
5
5
5
5
5
5
5
5
5
5
5
5
5
5
5
5
5
5
5
5
5
5
5
5
5
5
5
5
5
5
5
5
5
5
5
5
5
5
5
5
5
5
5
5
5
5
5
5
5
5
5
5
5
5
5
5
5
5
5
5
5
5
5
5
5
5
5
5
5
5
5
5
5
5
5
5
5
5
5
5
5
5
5
5
5
5
5
5
5
5
5
5
5
5
5
5
5
5
5
5
5
5
5
5
5
5
5
5
5
5
5
5
5
5
5
5
5
5
5
5
5
5
5
5
5
5
5
5
5
5
5
5
5
5
5
5
5
5
5
5
5
5
5
5
5
5
5
5
5
5
5
5
5
5
5
5
5
5
5
5
5
5
5
5
5
5
5
5
5
5
5
5
5
5
5
5
5
5
5
5
5
5
5
5
5
5
5
5
5
5
5
5
5
5
5
5
5
5
5
5
5
5
5
5
5
5
5
5
5
5
5
5
5
5
5
5
5
5
5
5
5
5
5
5
5
5
5
5
5
5
5
5
5
5
5
5
5
5
5
5
5
5
5
5
5
5
5
5
5
5
5
5
5
5
5
5
5
5
5
5
5
5
5
5
5
5
5
5
5
5
5
5
5
5
5
5
5
5
5
5
5
5
5
5
5
5
5
5
5
5
5
5
5
5
5
5
5
5
5
5
5
5
5
5
5
5
5
5
5
5
5
5
5
5
5
5
5
5
5
5
5
5
5
5
5
5
5
5
5
5
5
5
5
5
5
5
5
5
5
5
5
5
5
5
5
5
5
5
5
5
5
5
5
5
5
5
5
5
5
5
5
5
5
5
5
5
5
5
5
5
5
5
5
5
5
5
5
5
5
5
5
5
5
5
5
5
5
5
5
5
5
5
5
5
5
5
5
5
5
5
5
5
5
5
5
5
5
5
5
5
5
5
5
5
5
5
5
5
5
5
5
5
5
5
5
5
5
5
5
5
5
5
5
5
5
5
5
5
5
5
5
5
5
5
5
5
5
5
5
5
5
5
5
5
5
5
5
5
5
5
5
5
5
5
5
5
5
5
5
5
5
5
5
5
5
5
5
5
5
5
5
5
5
5
5
5
5
5
5
5
5
5
5
5
5
5
5
5
5
5
5
5
5
5
5
5
5
5
5
5
5
5
5
5
5
5
5
5
5
5
5
5
5
5
5
5
5
5
5
5
5
5
5
5
5
5
5
5
5
5
5
5
5
5
5
5
5
5
5
5
5
5
5
5
5
5
5
5
5
5
5
5
5
5
5
5
5
5
5
5
5
5
5
5
5
5
5
5
5
5
5
5
5
5
5
5
5
5
5
5
5
5
5
5
5
5
5
5
5
5
5
5
5
5
5
5
5
5
5
5
5
5
5
5
5
5
5
5
5
5
5
5
5
5
5
5
5
5
5
5
5
5
5
5
5
5
5
5
5
5
5
5
5
5
5
5
5
5
5
5
5
5
5
5
5
5
5
5
5
5
5
5
5
5
5
5
5
5
5
5
5
5
5
5
5
5
5
5
5
5
5
5
5
5
5
5
5
5
5
5
5
5
5
5
5
5
5
5
5
5
5
5
5
5
5
5
5
5
5
5
5
5
5
5
5
5
5
5
5
5
5
5
5
5
5
5
5
5
5
5
5
5
5
5
5
5
5
5
5
5
5
5
5
5
5
5
5
5
5
5
5
5
5
5
5
5
5
5
5
5
5
5
5
5
5
5
5
5
5
5
5
5
5
5
5
5
5
5
5
5
5
5
5
5
5
5
5
5
5
5
5
5
5
5
5
5
5
5
5
5
5
5
5
5
5
5
5
5
5
5
5
5
5
5
5
5
5
5
5
5
5
5
5
5
5
5
5
5
5
5
5
5
5
5
5
5
5
5
5
5
5
5
5
5
5
5
5
5
5
5
5
5
5
5
5
5
5
5
5
5
5
5
5
5
5
5
5
5
5
5
5
5
5
5
5
5
5
5
5
5
5
5
5
5
5
5
5
5
5
5
5
5
5
5
5
5
5
5
5
5
5
5
5
5
5
5
5
5
5
5
5
5
5
5
5
5
5
5
5
5
5
5
5
5
5
5
5
5
5
5
5
5
5
5
5
5
5
5
5
5
5
5
5
5
5
5
5
5
5
5
5
5
5
5
5
5
5
5
5
5
5
5
5
5
5
5
5
5
5
5
5
5
5
5
5
5
5
5
5
5
5
5
5
5
5
5
5
5
5
5
5
5
5
5
5
5
5
5
5
5
5
5
5
5
5
5
5
5
5
5
5
5
5
5
5
5
5
5
5
5
5
5
5
5
5
5
5
5
5
5
5
5
5
5
5
5
5
5
5
5
5
5
5
5
5
5
5
5
5
5
5
5
5
5
5
5
5
5
5
5
5
5
5
5
5
5
5
5
5
5
5
5
5
5
5
5
5
5
5
5
5
5
5
5
5
5
5
5
5
5
5
5
5
5
5
5
5
5
5
5
5
5
5
5
5
5
5
5
5
5
5
5
5
5
5
5
5
5
5
5
5
5
5
5
5
5
5
5
5
5
5
5
5
5
5
5
5
5
5
5
5
5
5
5
5
5
5
5
5
5
5
5
5
5
5
5
5
5
5
5
5
5
5
5
5
5
5
5
5
5
5
5
5
5
5
5
5
5
5
5
5
5
5
5
5
5
5
5
5
5
5
5
5
5
5
5
5
5
5
5
5
5
5
5
5
5
5
5
5
5
5
5
5
5
5
5
5
5
5
5
5
5
5
5
5
5
5
5
5
5
5
5
5
5
5
5
5
5
5
5
5
5
5
5
5
5
5
5
5
5
5
5
5
5
5
5
5
5
5
5
5
5
5
5
5
5
5
5
5
5
5
5
5
5
5
5
5
5
5
5
5
5
5
5
5
5
5
5
5
5
5
5
5
5
5
5
5
5
5
5
5
5
5
5
5
5
5
5
5
5
5
5
5
5
5
5
5
5
5
5
5
5
5
5
5
5
5
5
5
5
5
5
5
5
5
5
5
5
5
5
5
5
5
5
5
5
5
5
5
5
5
5
5
5
5
5
5
5
5
5
5
5
5
5
5
5
5
5
5
5
5
5
5
5
5
5
5
5
5
5
5
5
5
5
5
5
5
5
5
5
5
5
5
5
5
5
5
5
5
5
5
5
5
5
5
5
5
5
5
5
5
5
5
5
5
5
5
5
5
5
5
5
5
5
5
5
5
5
5
5
5
5
5
5
5
5
5
5
5
5
5
5
5
5
5
5
5
5
5
5
5
5
5
5
5
5
5
5
5
5
5
5
5
5
5
5
5
5
5
5
5
5
5
5
5
5
5
5
5
5
5
5
5
5
5
5
5
5
5
5
5
5
5
5
5
5
5
5
5
5
5
5
5
5
5
5
5
5
5
5
5
5
5
5
5
5
5
5
5
5
5
5
5
5
5
5
5
5
5
5
5
5
5
5
5
5
5
5
5
5
5
5
5
5
5
5
5
5
5
5
5
5
5
5
5
5
5
5
5
5
5
5
5
5
5
5
5
5
5
5
5
5
5
5
5
5
5
5
5
5
5
5
5
5
5
5
5
5
5
5
5
5
5
5
5
5
5
5
5
5
5
5
5
5
5
5
5
5
5
5
5
5
5
5
5
5
5
5
5
5
5
5
5
5
5
5
5
5
5
5
5
5
5
5
5
5
5
5
5
5
5
5
5
5
5
5
5
5
5
5
5
5
5
5
5
5
5
5
5
5
5
5
5
5
5
5
5
5
5
5
5
5
5
5
5
5
5
5
5
5
5
5
5
5
5
5
5
5
5
5
5
5
5
5
5
5
5
5
5
5
5
5
5
5
5
5
5
5
5
5
5
5
5
5
5
5
5
5
5
5
5
5
5
5
5
5
5
5
5
5
5
5
5
5
5
5
5
5
5
5
5
5
5
5
5
5
5
5
5
5
5
5
5
5
5
5
5
5
5
5
5
5
5
5
5
5
5
5
5
5
5
5
5
5
5
5
5
5
5
5
5
5
5
5
5
5
5
5
5
5
5
5
5
5
5
5
5
5
5
5
5
5
5
5
5
5
5
5
5
5
5
5
5
5
5
5
5
5
5
5
5
5
5
5
5
5
5
5
5
5
5
5
5
5
5
5
5
5
5
5
5
5
5
5
5
5
5
5
5
5
5
5
5
5
5
5
5
5
5
5
5
5
5
5
5
5
5
5
5
5
5
5
5
5
5
5
5
5
5
5
5
5
5
5
5
5
5
5
5
5
5
5
5
5
5
5
5
5
5
5
5
5
5
5
5
5
5
5
5
5
5
5
5
5
5
5
5
5
5
5
5
5
5
5
5
5
5
5
5
5
5
5
5
5
5
5
5
5
5
5
5
5
5
5
5
5
5
5
5
5
5
5
5
5
5
5

POINT_DATA 1047

VECTORS coord float
0.0 0.0 0.0 
5.000000000000e+01 -1.000000000000e+01 0.0 
0.0 -2.000000000000e+01 0.0 
5.000000000000e+01 -2.000000000000e+01 0.0 
0.0 -9.999999999991e-01 0.0 
0.0 -1.999999999998e+00 0.0 
0.0 -2.999999999997e+00 0.0 
0.0 -3.999999999994e+00 0.0 
0.0 -4.999999999991e+00 0.0 
0.0 -5.999999999988e+00 0.0 
0.0 -6.999999999985e+00 0.0 
0.0 -7.999999999982e+00 0.0 
0.0 -8.999999999983e+00 0.0 
0.0 -9.999999999985e+00 0.0 
0.0 -1.099999999999e+01 0.0 
0.0 -1.199999999999e+01 0.0 
0.0 -1.299999999999e+01 0.0 
0.0 -1.399999999999e+01 0.0 
0.0 -1.499999999999e+01 0.0 
0.0 -1.599999999999e+01 0.0 
0.0 -1.700000000000e+01 0.0 
0.0 -1.800000000000e+01 0.0 
0.0 -1.900000000000e+01 0.0 
4.900000000001e+01 -2.000000000000e+01 0.0 
4.800000000001e+01 -2.000000000000e+01 0.0 
4.700000000002e+01 -2.000000000000e+01 0.0 
4.600000000003e+01 -2.000000000000e+01 0.0 
4.500000000004e+01 -2.000000000000e+01 0.0 
4.400000000004e+01 -2.000000000000e+01 0.0 
4.300000000005e+01 -2.000000000000e+01 0.0 
4.200000000006e+01 -2.000000000000e+01 0.0 
4.100000000006e+01 -2.000000000000e+01 0.0 
4.000000000007e+01 -2.000000000000e+01 0.0 
3.900000000008e+01 -2.000000000000e+01 0.0 
3.800000000009e+01 -2.000000000000e+01 0.0 
3.700000000009e+01 -2.000000000000e+01 0.0 
3.600000000010e+01 -2.000000000000e+01 0.0 
3.500000000011e+01 -2.000000000000e+01 0.0 
3.400000000011e+01 -2.000000000000e+01 0.0 
3.300000000012e+01 -2.000000000000e+01 0.0 
3.200000000013e+01 -2.000000000000e+01 0.0 
3.100000000013e+01 -2.000000000000e+01 0.0 
3.000000000013e+01 -2.000000000000e+01 0.0 
2.900000000013e+01 -2.000000000000e+01 0.0 
2.800000000013e+01 -2.000000000000e+01 0.0 
2.700000000013e+01 -2.000000000000e+01 0.0 
2.600000000013e+01 -2.000000000000e+01 0.0 
2.500000000013e+01 -2.000000000000e+01 0.0 
2.400000000013e+01 -2.000000000000e+01 0.0 
2.300000000013e+01 -2.000000000000e+01 0.0 
2.200000000013e+01 -2.000000000000e+01 0.0 
2.100000000013e+01 -2.000000000000e+01 0.0 
2.000000000013e+01 -2.000000000000e+01 0.0 
1.900000000013e+01 -2.000000000000e+01 0.0 
1.800000000013e+01 -2.000000000000e+01 0.0 
1.700000000012e+01 -2.000000000000e+01 0.0 
1.600000000011e+01 -2.000000000000e+01 0.0 
1.500000000011e+01 -2.000000000000e+01 0.0 
1.400000000010e+01 -2.000000000000e+01 0.0 
1.300000000009e+01 -2.000000000000e+01 0.0 
1.200000000009e+01 -2.000000000000e+01 0.0 
1.100000000008e+01 -2.000000000000e+01 0.0 
1.000000000007e+01 -2.000000000000e+01 0.0 
9.000000000064e+00 -2.000000000000e+01 0.0 
8.000000000057e+00 -2.000000000000e+01 0.0 
7.000000000050e+00 -2.000000000000e+01 0.0 
6.000000000043e+00 -2.000000000000e+01 0.0 
5.000000000036e+00 -2.000000000000e+01 0.0 
4.000000000028e+00 -2.000000000000e+01 0.0 
3.000000000021e+00 -2.000000000000e+01 0.0 
2.000000000014e+00 -2.000000000000e+01 0.0 
1.000000000007e+00 -2.000000000000e+01 0.0 
5.000000000000e+01 -1.100000000000e+01 0.0 
5.000000000000e+01 -1.200000000000e+01 0.0 
5.000000000000e+01 -1.300000000000e+01 0.0 
5.000000000000e+01 -1.400000000000e+01 0.0 
5.000000000000e+01 -1.500000000000e+01 0.0 
5.000000000000e+01 -1.600000000000e+01 0.0 
5.000000000000e+01 -1.700000000000e+01 0.0 
5.000000000000e+01 -1.800000000000e+01 0.0 
5.000000000000e+01 -1.900000000000e+01 0.0 
2.000000000000e+01 0.0 0.0 
3.500000000000e+01 -1.000000000000e+01 0.0 
2.150000000000e+01 -1.000000000000e+00 0.0 
2.300000000000e+01 -2.000000000000e+00 0.0 
2.450000000000e+01 -3.000000000000e+00 0.0 
2.600000000000e+01 -4.000000000000e+00 0.0 
2.750000000000e+01 -5.000000000000e+00 0.0 
2.900000000000e+01 -6.000000000000e+00 0.0 
3.050000000000e+01 -7.000000000000e+00 0.0 
3.200000000000e+01 -8.000000000000e+00 0.0 
3.350000000000e+01 -9.000000000000e+00 0.0 
5.000000000000e+01 -9.000000000000e+00 0.0 
4.900000000000e+01 -1.000000000000e+01 0.0 
4.800000000000e+01 -1.000000000000e+01 0.0 
4.700000000000e+01 -1.000000000000e+01 0.0 
4.600000000000e+01 -1.000000000000e+01 0.0 
4.500000000000e+01 -1.000000000000e+01 0.0 
4.400000000000e+01 -1.000000000000e+01 0.0 
4.300000000000e+01 -1.000000000000e+01 0.0 
4.200000000000e+01 -1.000000000000e+01 0.0 
4.100000000000e+01 -1.000000000000e+01 0.0 
4.000000000000e+01 -1.000000000000e+01 0.0 
3.900000000000e+01 -1.000000000000e+01 0.0 
3.800000000000e+01 -1.000000000000e+01 0.0 
3.700000000000e+01 -1.000000000000e+01 0.0 
3.600000000000e+01 -1.000000000000e+01 0.0 
1.900000000000e+01 0.0 0.0 
1.800000000000e+01 0.0 0.0 
1.700000000000e+01 0.0 0.0 
1.600000000000e+01 0.0 0.0 
1.500000000000e+01 0.0 0.0 
1.400000000000e+01 0.0 0.0 
1.300000000000e+01 0.0 0.0 
1.200000000000e+01 0.0 0.0 
1.100000000000e+01 0.0 0.0 
1.000000000000e+01 0.0 0.0 
9.000000000000e+00 0.0 0.0 
8.000000000000e+00 0.0 0.0 
7.000000000000e+00 0.0 0.0 
6.000000000000e+00 0.0 0.0 
5.000000000000e+00 0.0 0.0 
4.000000000000e+00 0.0 0.0 
3.000000000000e+00 0.0 0.0 
2.000000000000e+00 0.0 0.0 
1.000000000000e+00 0.0 0.0 
3.447058823527e+01 -9.000000000000e+00 0.0 
3.544117647055e+01 -9.000000000000e+00 0.0 
3.641176470582e+01 -9.000000000000e+00 0.0 
3.738235294109e+01 -9.000000000000e+00 0.0 
3.835294117637e+01 -9.000000000000e+00 0.0 
3.932352941164e+01 -9.000000000000e+00 0.0 
4.029411764691e+01 -9.000000000000e+00 0.0 
4.126470588219e+01 -9.000000000000e+00 0.0 
4.223529411748e+01 -9.000000000000e+00 0.0 
4.320588235279e+01 -9.000000000000e+00 0.0 
4.417647058811e+01 -9.000000000000e+00 0.0 
4.514705882342e+01 -9.000000000000e+00 0.0 
4.611764705874e+01 -9.000000000000e+00 0.0 
4.708823529405e+01 -9.000000000000e+00 0.0 
4.805882352937e+01 -9.000000000000e+00 0.0 
4.902941176468e+01 -9.000000000000e+00 0.0 
2.075000000000e+01 -5.000000000006e-01 0.0 
2.225000000000e+01 -1.500000000000e+00 0.0 
2.375000000000e+01 -2.500000000000e+00 0.0 
2.525000000000e+01 -3.500000000000e+00 0.0 
2.675000000000e+01 -4.500000000000e+00 0.0 
2.825000000000e+01 -5.500000000000e+00 0.0 
2.975000000000e+01 -6.500000000000e+00 0.0 
3.125000000000e+01 -7.500000000000e+00 0.0 
3.275000000000e+01 -8.500000000000e+00 0.0 
3.425000000000e+01 -9.500000000000e+00 0.0 
2.226951693683e+01 -2.403913980114e+00 0.0 
1.650149491944e+01 -1.913490915758e+01 0.0 
1.050042386896e+01 -8.504605092970e-01 0.0 
1.553146524712e+01 -8.281255032105e-01 0.0 
1.150000000008e+01 -1.913397459621e+01 0.0 
2.530060260647e+01 -4.428336431260e+00 0.0 
8.651114563942e-01 -1.052096295641e+01 0.0 
2.050000000013e+01 -1.913397459622e+01 0.0 
2.819198729811e+01 -6.399519052838e+00 0.0 
2.445670302931e+01 -1.915649188023e+01 0.0 
3.117591465718e+01 -8.394293040695e+00 0.0 
7.465053044742e+00 -1.920411160581e+01 0.0 
6.398295709691e+00 -8.230098819370e-01 0.0 
2.849659607461e+01 -1.914296187762e+01 0.0 
3.418732642882e+01 -1.040265792588e+01 0.0 
8.386450935063e-01 -6.533605142809e+00 0.0 
9.178661865596e-01 -1.329769195597e+01 0.0 
3.149448624493e+01 -1.910466733764e+01 0.0 
3.552916747426e+01 -1.914628590759e+01 0.0 
4.449210346537e+01 -1.914359085008e+01 0.0 
4.140975975145e+01 -1.906941860733e+01 0.0 
3.847475958753e+01 -1.916622382724e+01 0.0 
3.653774794640e+01 -1.088712800241e+01 0.0 
4.047886341787e+01 -1.090139014048e+01 0.0 
4.348006339825e+01 -1.092792621489e+01 0.0 
4.919519968029e+01 -1.451526755068e+01 0.0 
4.500000000032e+00 -1.913397459621e+01 0.0 
1.856136921614e+01 -8.212235170404e-01 0.0 
3.499895312306e+00 -8.661165539723e-01 0.0 
9.076088696565e-01 -1.642306201891e+01 0.0 
4.655174095477e+01 -1.086183387525e+01 0.0 
9.430688970604e-01 -3.496112672958e+00 0.0 
3.353992337063e+01 -1.901202090820e+01 0.0 
2.249746016977e+01 -1.921262287282e+01 0.0 
2.650122741777e+01 -1.916123026018e+01 0.0 
1.863571384842e+01 -1.908325534840e+01 0.0 
1.450089971693e+01 -1.917691901860e+01 0.0 
1.350044695317e+01 -8.659695299584e-01 0.0 
3.849987469880e+01 -1.084154983397e+01 0.0 
9.454419857884e+00 -1.900818879936e+01 0.0 
4.917398660523e+01 -1.645692866081e+01 0.0 
8.500000000000e+00 -8.660254037844e-01 0.0 
8.660319230785e-01 -8.500111697188e+00 0.0 
4.649022621545e+01 -1.930506220113e+01 0.0 
2.667688107845e+01 -5.420288124331e+00 0.0 
2.379251615665e+01 -3.412225477429e+00 0.0 
2.966631491830e+01 -7.389030232731e+00 0.0 
3.267915035995e+01 -9.396934932445e+00 0.0 
2.074836922338e+01 -1.320054020319e+00 0.0 
4.915985743621e+01 -1.261973384855e+01 0.0 
2.527129768623e+00 -1.931592414663e+01 0.0 
1.538676247410e+00 -8.436956619311e-01 0.0 
4.908096641539e+01 -1.842484004551e+01 0.0 
3.478612492673e+01 -1.090889364140e+01 0.0 
3.409757055860e+01 -1.131991530427e+01 0.0 
3.501895309466e+01 -1.177687842717e+01 0.0 
3.407758073088e+01 -1.224293381580e+01 0.0 
3.484541875390e+01 -1.277051428430e+01 0.0 
3.400322025842e+01 -1.319022775640e+01 0.0 
3.321672625034e+01 -1.266779191233e+01 0.0 
3.315244139236e+01 -1.360984106532e+01 0.0 
3.236335186892e+01 -1.308463225210e+01 0.0 
3.478337442841e+01 -1.372341158982e+01 0.0 
3.230105923633e+01 -1.403023731610e+01 0.0 
3.150954055289e+01 -1.350301767700e+01 0.0 
3.144604792090e+01 -1.444931742516e+01 0.0 
3.065653897123e+01 -1.392357262981e+01 0.0 
3.071897610812e+01 -1.297447031198e+01 0.0 
2.986790411740e+01 -1.339226181535e+01 0.0 
2.993181466745e+01 -1.244703272398e+01 0.0 
2.908023061869e+01 -1.286254537734e+01 0.0 
2.901619051372e+01 -1.380881655279e+01 0.0 
2.822986160390e+01 -1.327695262116e+01 0.0 
2.829453476870e+01 -1.233265343811e+01 0.0 
2.744542905518e+01 -1.274510491105e+01 0.0 
2.751120089246e+01 -1.180368086886e+01 0.0 
2.666218649885e+01 -1.221619339205e+01 0.0 
2.672371209234e+01 -1.127125228527e+01 0.0 
2.587763216302e+01 -1.168539979114e+01 0.0 
2.581165585299e+01 -1.262994410089e+01 0.0 
2.502890882577e+01 -1.209827323619e+01 0.0 
2.509631327757e+01 -1.115492410304e+01 0.0 
2.424662989877e+01 -1.156630981079e+01 0.0 
2.431704046904e+01 -1.062389179334e+01 0.0 
2.346445438728e+01 -1.103427680694e+01 0.0 
2.339382552877e+01 -1.197964871788e+01 0.0 
2.260936050780e+01 -1.144513277642e+01 0.0 
2.268075012022e+01 -1.049911928216e+01 0.0 
2.182525737661e+01 -1.090920811464e+01 0.0 
2.189682319817e+01 -9.961716944568e+00 0.0 
2.104174127792e+01 -1.037266986667e+01 0.0 
2.111304367575e+01 -9.424179358711e+00 0.0 
2.025306185381e+01 -9.832727364719e+00 0.0 
2.018141124247e+01 -1.079140628871e+01 0.0 
1.938594498257e+01 -1.025147354112e+01 0.0 
1.946106490453e+01 -9.288010758448e+00 0.0 
1.858929958352e+01 -9.706319802516e+00 0.0 
1.851540991219e+01 -1.067205988724e+01 0.0 
1.771485303178e+01 -1.012504443115e+01 0.0 
1.764134552256e+01 -1.109360378538e+01 0.0 
1.683745148095e+01 -1.054496365337e+01 0.0 
1.691852964353e+01 -9.582555261178e+00 0.0 
1.603603813062e+01 -1.000160132379e+01 0.0 
1.595824239350e+01 -1.096750698862e+01 0.0 
1.515080624291e+01 -1.041639501931e+01 0.0 
1.523171602559e+01 -9.451711491453e+00 0.0 
1.434621060709e+01 -9.871956467464e+00 0.0 
1.426777178765e+01 -1.083749501371e+01 0.0 
1.345775282374e+01 -1.028803175500e+01 0.0 
1.354103873368e+01 -9.324918457162e+00 0.0 
1.265072018622e+01 -9.742612837270e+00 0.0 
1.257285762070e+01 -1.071557782384e+01 0.0 
1.175874815690e+01 -1.015972324288e+01 0.0 
1.184203019714e+01 -9.193604071377e+00 0.0 
1.094927709905e+01 -9.612103238656e+00 0.0 
1.086938022910e+01 -1.058685085646e+01 0.0 
1.005424098961e+01 -1.002939116380e+01 0.0 
9.977974613295e+00 -1.101324897989e+01 0.0 
1.012915646404e+01 -9.051815821181e+00 0.0 
9.237127782494e+00 -9.471239055559e+00 0.0 
9.308426593771e+00 -8.483376461131e+00 0.0 
8.418806073345e+00 -8.910712374517e+00 0.0 
2.253688464062e+01 -1.239459402279e+01 0.0 
8.495126726666e+00 -7.921646665254e+00 0.0 
9.389727383206e+00 -7.512103628377e+00 0.0 
7.601560812974e+00 -8.349460349344e+00 0.0 
7.525680547759e+00 -9.339736686940e+00 0.0 
7.677888324502e+00 -7.359727833346e+00 0.0 
6.782001206724e+00 -7.788454494773e+00 0.0 
6.858778622885e+00 -6.797338062822e+00 0.0 
2.196596590865e+01 -8.979025665442e+00 0.0 
2.816540108272e+01 -1.422634142353e+01 0.0 
5.961601194403e+00 -7.226824010712e+00 0.0 
6.038171749656e+00 -6.234825887079e+00 0.0 
6.936257279557e+00 -5.805287640737e+00 0.0 
6.115068918323e+00 -5.242109758768e+00 0.0 
3.564391741903e+01 -1.329240553876e+01 0.0 
3.558115605778e+01 -1.425902892003e+01 0.0 
3.645445282201e+01 -1.381970786460e+01 0.0 
3.639744204358e+01 -1.479198128612e+01 0.0 
3.727266909778e+01 -1.435399586226e+01 0.0 
5.216667013081e+00 -5.671788584287e+00 0.0 
3.220697293295e+01 -1.499594545107e+01 0.0 
3.551112158269e+01 -1.523479869250e+01 0.0 
2.836056961467e+01 -1.139032434851e+01 0.0 
2.516730388602e+01 -1.021382726837e+01 0.0 
1.844436907403e+01 -1.164097215196e+01 0.0 
5.885434318740e+00 -8.218694781467e+00 0.0 
5.064071066867e+00 -7.656614643901e+00 0.0 
4.988089103470e+00 -8.649722082718e+00 0.0 
1.079421050408e+01 -1.157014985435e+01 0.0 
9.902420005256e+00 -1.199903342656e+01 0.0 
1.071994252214e+01 -1.255727909771e+01 0.0 
9.826974788171e+00 -1.298659581767e+01 0.0 
1.064607883789e+01 -1.354595476388e+01 0.0 
9.751541265343e+00 -1.397556905071e+01 0.0 
8.932296185869e+00 -1.341553353988e+01 0.0 
8.856399248106e+00 -1.440570715508e+01 0.0 
8.036186803543e+00 -1.384470558472e+01 0.0 
1.057112875118e+01 -1.453516759081e+01 0.0 
1.146582585687e+01 -1.410539926903e+01 0.0 
7.959894480382e+00 -1.483563350928e+01 0.0 
7.138792279156e+00 -1.427465094140e+01 0.0 
7.062506792418e+00 -1.526615385482e+01 0.0 
6.240693558277e+00 -1.470508863040e+01 0.0 
6.316957575451e+00 -1.371212581281e+01 0.0 
5.418183007107e+00 -1.414253605022e+01 0.0 
5.494748364428e+00 -1.314886770603e+01 0.0 
1.756825565873e+01 -1.206433872514e+01 0.0 
1.837565773345e+01 -1.261356468266e+01 0.0 
1.749574831391e+01 -1.303769280014e+01 0.0 
1.830539187332e+01 -1.358828364284e+01 0.0 
1.742278925170e+01 -1.401367746928e+01 0.0 
1.823303007798e+01 -1.456432294258e+01 0.0 
1.734941694138e+01 -1.499213734361e+01 0.0 
1.653760041637e+01 -1.443920312098e+01 0.0 
3.056237977307e+01 -1.487132260174e+01 0.0 
1.866469084762e+01 -8.742953000418e+00 0.0 
1.953669694916e+01 -8.326038909849e+00 0.0 
1.874194303780e+01 -7.780688158966e+00 0.0 
1.961032016741e+01 -7.366854697285e+00 0.0 
1.881715755159e+01 -6.821102209649e+00 0.0 
1.968369797150e+01 -6.407747217358e+00 0.0 
1.889237123259e+01 -5.858375520026e+00 0.0 
1.802038875366e+01 -6.276202618170e+00 0.0 
1.809793837984e+01 -5.307629520489e+00 0.0 
1.721985207997e+01 -5.728242054488e+00 0.0 
1.729850893523e+01 -4.756990819347e+00 0.0 
1.641745664240e+01 -5.174636548624e+00 0.0 
2.495978509456e+01 -1.304406404294e+01 0.0 
1.911567814831e+01 -1.413854250293e+01 0.0 
1.904387332608e+01 -1.511463127723e+01 0.0 
1.992115934240e+01 -1.468788025898e+01 0.0 
7.013706899628e+00 -4.812582868662e+00 0.0 
5.342091874585e+00 -1.513658157269e+01 0.0 
1.139098043784e+01 -1.509488509480e+01 0.0 
1.228151810610e+01 -1.465617481983e+01 0.0 
1.646373110164e+01 -1.541993323337e+01 0.0 
5.293328636712e+00 -4.678385108584e+00 0.0 
1.975965862987e+01 -5.448124345648e+00 0.0 
2.054318374236e+01 -5.992561293251e+00 0.0 
3.721453439063e+01 -1.533216152738e+01 0.0 
3.809302733893e+01 -1.489235527381e+01 0.0 
1.220852788900e+01 -1.565304565230e+01 0.0 
4.394120899730e+00 -5.108397613210e+00 0.0 
8.779354620288e+00 -1.539524721159e+01 0.0 
1.817791047702e+01 -4.338570146253e+00 0.0 
4.518860013839e+00 -1.457343189307e+01 0.0 
4.442712140414e+00 -1.556841391069e+01 0.0 
8.115343466391e+00 -1.285760324283e+01 0.0 
1.985334703171e+01 -1.566478400426e+01 0.0 
2.071953850276e+01 -1.522074243119e+01 0.0 
1.634012953883e+01 -6.154777738301e+00 0.0 
1.553479994708e+01 -5.593730508879e+00 0.0 
1.561265946942e+01 -4.617761762647e+00 0.0 
1.470674212978e+01 -5.064576488228e+00 0.0 
1.464498299883e+01 -6.026514471420e+00 0.0 
1.383271561817e+01 -5.467796261169e+00 0.0 
1.389241253067e+01 -4.504338666645e+00 0.0 
1.301868735463e+01 -4.907185188626e+00 0.0 
1.294514184846e+01 -5.888160903592e+00 0.0 
1.212955968622e+01 -5.328262335277e+00 0.0 
1.220721122383e+01 -4.341264976687e+00 0.0 
1.131324345897e+01 -4.766773516508e+00 0.0 
5.266597955397e+00 -1.613148974258e+01 0.0 
1.737805990867e+01 -3.786677807525e+00 0.0 
3.078438094513e+01 -1.203225297748e+01 0.0 
1.131569882285e+01 -1.608511932110e+01 0.0 
1.728478341782e+01 -1.596017432313e+01 0.0 
3.803465906019e+01 -1.587509751228e+01 0.0 
3.891681276677e+01 -1.543395196905e+01 0.0 
3.897340985302e+01 -1.444710288980e+01 0.0 
3.980095968193e+01 -1.499059496613e+01 0.0 
3.974334598189e+01 -1.597921884150e+01 0.0 
4.062964983717e+01 -1.553518690417e+01 0.0 
4.068729602479e+01 -1.454434445295e+01 0.0 
4.151772679790e+01 -1.508974196007e+01 0.0 
4.157505195739e+01 -1.409694289912e+01 0.0 
4.240699932656e+01 -1.464347955968e+01 0.0 
4.234898051011e+01 -1.563721375790e+01 0.0 
4.323934606035e+01 -1.519082036405e+01 0.0 
4.329740528208e+01 -1.419587509788e+01 0.0 
4.413056841369e+01 -1.474359631875e+01 0.0 
4.418850110108e+01 -1.374786684042e+01 0.0 
4.502219770667e+01 -1.429605103525e+01 0.0 
4.496411937907e+01 -1.529215882720e+01 0.0 
4.490027319897e+00 -4.154167794594e+00 0.0 
1.565080385988e+01 -1.486411982419e+01 0.0 
1.557610691279e+01 -1.584855627870e+01 0.0 
4.195350646612e+00 -8.089117689096e+00 0.0 
4.124027797830e+00 -9.082831955007e+00 0.0 
4.917944318925e+00 -9.643530901533e+00 0.0 
4.020105689502e+00 -1.007439673661e+01 0.0 
4.587185899277e+01 -1.484039992728e+01 0.0 
4.580078661551e+01 -1.584043391042e+01 0.0 
2.061956522375e+01 -5.046701343981e+00 0.0 
2.139572955529e+01 -5.579553449826e+00 0.0 
3.715344357292e+01 -1.631485124583e+01 0.0 
3.618886196443e+00 -1.500471207167e+01 0.0 
3.695606940204e+00 -1.400939692294e+01 0.0 
2.438890661143e+01 -9.686110599723e+00 0.0 
2.523267572778e+01 -9.276766000622e+00 0.0 
2.446094171539e+01 -8.751904591412e+00 0.0 
2.529089822738e+01 -8.321495612547e+00 0.0 
2.606882688827e+01 -8.864724051119e+00 0.0 
2.452116646430e+01 -7.792756462004e+00 0.0 
1.235543269617e+01 -1.365845617339e+01 0.0 
4.318116874181e+01 -1.618567469992e+01 0.0 
7.835066111909e+00 -5.376366223896e+00 0.0 
7.905687335704e+00 -4.382539065697e+00 0.0 
3.542640009567e+00 -1.600035116542e+01 0.0 
1.572431503071e+01 -1.388358386695e+01 0.0 
2.574684696680e+01 -1.357896141127e+01 0.0 
2.488842657651e+01 -1.399674354505e+01 0.0 
2.568301775611e+01 -1.453552048595e+01 0.0 
2.481535572009e+01 -1.495542756508e+01 0.0 
2.561729699688e+01 -1.549784648532e+01 0.0 
2.474623061296e+01 -1.592058894178e+01 0.0 
2.394234041695e+01 -1.537572575827e+01 0.0 
2.065825452567e+01 -1.621899055217e+01 0.0 
2.387180528935e+01 -1.634552264687e+01 0.0 
4.585364400844e+01 -1.383912334080e+01 0.0 
1.998744432052e+01 -1.370317155541e+01 0.0 
1.205356951443e+01 -6.313580285498e+00 0.0 
5.396543905849e+00 -3.731818611283e+00 0.0 
1.139652573295e+01 -3.745819399350e+00 0.0 
3.574124306703e+00 -4.551456826011e+00 0.0 
3.494140761930e+00 -5.539787055649e+00 0.0 
1.213651452413e+01 -1.664505033022e+01 0.0 
2.555045568519e+01 -1.646529356744e+01 0.0 
2.641671114986e+01 -1.603899382371e+01 0.0 
2.612920721894e+01 -7.906435260873e+00 0.0 
2.690339829698e+01 -8.456969591431e+00 0.0 
1.978024383368e+01 -1.664410216353e+01 0.0 
3.732829979082e+01 -1.336926601859e+01 0.0 
4.074336584605e+01 -1.355133328401e+01 0.0 
4.163204691081e+01 -1.310280943992e+01 0.0 
3.773826114429e+00 -3.493444309145e+00 0.0 
1.228783001032e+01 -3.374822835872e+00 0.0 
4.057110462520e+01 -1.652588478000e+01 0.0 
2.132535497898e+01 -6.523623360525e+00 0.0 
2.216932532211e+01 -6.110044769206e+00 0.0 
1.825781152128e+01 -3.370146817147e+00 0.0 
1.745679445888e+01 -2.812942552063e+00 0.0 
4.666517057280e+01 -1.539981381543e+01 0.0 
4.660575894464e+01 -1.639014410186e+01 0.0 
4.838230979954e+00 -1.063643436446e+01 0.0 
3.938942630206e+00 -1.106778981745e+01 0.0 
1.302967218620e+01 -1.621373452436e+01 0.0 
1.049548003190e+01 -4.204825123240e+00 0.0 
4.573571907195e+01 -1.683820511148e+01 0.0 
1.483686335807e+01 -1.430849689310e+01 0.0 
1.490982658890e+01 -1.332679386284e+01 0.0 
3.190805600162e+00 -9.510968358545e+00 0.0 
2.146625721848e+01 -4.642437303115e+00 0.0 
2.069866208266e+01 -4.111852942193e+00 0.0 
1.286859345584e+01 -6.873252723348e+00 0.0 
1.041794493184e+01 -5.194814260291e+00 0.0 
2.671081808965e+00 -4.976806516331e+00 0.0 
1.295786792925e+01 -1.720506531799e+01 0.0 
3.968438206511e+01 -1.696869067241e+01 0.0 
2.308550456051e+01 -1.579963151273e+01 0.0 
2.315593682844e+01 -1.482967445235e+01 0.0 
2.299471449450e+01 -1.677069968132e+01 0.0 
1.057344714696e+01 -3.214252277840e+00 0.0 
1.124057603753e+01 -1.707713739755e+01 0.0 
2.718402535754e+00 -1.543629882103e+01 0.0 
2.638549692805e+01 -1.696744916809e+01 0.0 
2.723416349007e+01 -1.658104204545e+01 0.0 
2.210193351704e+01 -7.046769643417e+00 0.0 
2.295180925161e+01 -6.657397605239e+00 0.0 
2.301355235833e+01 -5.709111896800e+00 0.0 
2.379052718281e+01 -6.254965406962e+00 0.0 
3.243528601237e+01 -1.214181853533e+01 0.0 
2.287977995457e+01 -7.583722368300e+00 0.0 
2.999876029544e+01 -1.150837653096e+01 0.0 
3.084435366963e+01 -1.109693775882e+01 0.0 
3.006650579669e+01 -1.057778994262e+01 0.0 
2.683802665066e+01 -9.386863216633e+00 0.0 
2.768641973621e+01 -8.988883915666e+00 0.0 
2.040296980397e+01 -7.903629133404e+00 0.0 
1.925235024054e+01 -1.218872783130e+01 0.0 
5.735667000424e+00 -1.020577277283e+01 0.0 
6.396559909872e+00 -1.272326295703e+01 0.0 
1.161199420714e+01 -1.212812778229e+01 0.0 
4.229046132615e+01 -1.663084237572e+01 0.0 
4.312275399692e+01 -1.718087491556e+01 0.0 
4.335502068163e+01 -1.320039231514e+01 0.0 
4.424630298089e+01 -1.275160688731e+01 0.0 
7.090116643816e+00 -3.818998061530e+00 0.0 
7.989472176569e+00 -3.389238711200e+00 0.0 
9.085824861778e+00 -1.144036167408e+01 0.0 
1.041972423731e+01 -1.651614080893e+01 0.0 
3.797525112640e+01 -1.686052038746e+01 0.0 
3.709114253394e+01 -1.730125999865e+01 0.0 
3.626966748340e+01 -1.675477052919e+01 0.0 
1.385164591440e+01 -1.677597757552e+01 0.0 
1.787152588784e+01 -8.198993896093e+00 0.0 
1.668849729812e+01 -1.248560611628e+01 0.0 
1.659546177905e+01 -3.232482605530e+00 0.0 
2.332214717345e+01 -1.292598167641e+01 0.0 
7.168238450786e+00 -2.824711686516e+00 0.0 
2.894878403906e+01 -1.475427524446e+01 0.0 
2.646763248247e+00 -1.643270107952e+01 0.0 
3.467431944285e+00 -1.699648837348e+01 0.0 
2.059475877282e+01 -1.719473628526e+01 0.0 
3.333868355437e+01 -1.080596971682e+01 0.0 
2.246451062637e+01 -1.334557761546e+01 0.0 
2.167821896388e+01 -1.280847834858e+01 0.0 
3.089653185767e+01 -1.017198487212e+01 0.0 
3.012604365669e+01 -9.657298805968e+00 0.0 
2.929627299435e+01 -1.006100135274e+01 0.0 
2.936201435219e+01 -9.136748899251e+00 0.0 
1.198219052702e+01 -7.291887238230e+00 0.0 
1.116702076035e+01 -6.731976101053e+00 0.0 
2.551388807505e+01 -1.746927036981e+01 0.0 
2.378639090370e+01 -1.728678807149e+01 0.0 
2.718543627188e+01 -1.748668016909e+01 0.0 
2.804681050301e+01 -1.712626668293e+01 0.0 
1.970737034667e+01 -1.762317646822e+01 0.0 
1.889535776135e+01 -1.707158098231e+01 0.0 
2.593777711283e+00 -5.971157087874e+00 0.0 
2.773468281110e+01 -8.067164273938e+00 0.0 
4.051205884347e+01 -1.751819982458e+01 0.0 
3.166903145421e+01 -1.068032992414e+01 0.0 
1.033042452886e+01 -1.748285844336e+01 0.0 
9.519274604626e+00 -1.694349240233e+01 0.0 
1.668308673328e+01 -2.255861778986e+00 0.0 
1.570531902832e+01 -2.676795860126e+00 0.0 
4.655826903379e+01 -1.736656245706e+01 0.0 
2.384148070773e+01 -5.328744256413e+00 0.0 
2.460255123641e+01 -5.852182672816e+00 0.0 
2.306638135119e+01 -4.798935440613e+00 0.0 
8.467720450578e-01 -1.849576263072e+01 0.0 
4.849657322345e+01 -1.084860705506e+01 0.0 
2.565860899507e+00 -1.742859793981e+01 0.0 
2.764418872564e+01 -9.927142821799e+00 0.0 
4.565165880064e+01 -1.785336695404e+01 0.0 
2.162231831329e+01 -1.376528337468e+01 0.0 
2.360646352969e+01 -9.136041963102e+00 0.0 
1.392738739903e+01 -1.578285505772e+01 0.0 
4.756405947478e+01 -1.683706841809e+01 0.0 
4.740895034054e+01 -1.793766756892e+01 0.0 
4.080779328826e+01 -1.257387192544e+01 0.0 
4.168907939671e+01 -1.210739129181e+01 0.0 
3.991197722154e+01 -1.300815793917e+01 0.0 
1.905536506762e+01 -3.940076697685e+00 0.0 
1.923879596617e+01 -2.875000734166e+00 0.0 
4.401386745746e+01 -1.673483229438e+01 0.0 
4.247233362525e+00 -7.094581653070e+00 0.0 
3.286051630211e+00 -7.635300020553e+00 0.0 
9.609533347623e+00 -4.594311677967e+00 0.0 
9.523554636369e+00 -5.595597029530e+00 0.0 
5.660336628893e+00 -1.119290329628e+01 0.0 
6.558070063295e+00 -1.076385809362e+01 0.0 
2.809866407414e+01 -1.518037766799e+01 0.0 
2.888868674504e+01 -1.570360690070e+01 0.0 
2.654431550819e+01 -1.411217777162e+01 0.0 
1.402158265969e+01 -1.375404617952e+01 0.0 
1.409592494026e+01 -1.277071998942e+01 0.0 
1.499355196178e+01 -1.235270737023e+01 0.0 
4.221535326155e+01 -1.759335617494e+01 0.0 
4.305583287033e+01 -1.822663146802e+01 0.0 
1.280748808359e+01 -7.834332838285e+00 0.0 
1.368988389326e+01 -7.420529606172e+00 0.0 
1.110091796060e+01 -7.683966794328e+00 0.0 
3.963446145980e+01 -1.794331310122e+01 0.0 
3.423932362213e+00 -1.796415590455e+01 0.0 
4.280814572302e+00 -1.752272834860e+01 0.0 
8.050136380041e+00 -2.421582378631e+00 0.0 
8.888674091650e+00 -2.984264211327e+00 0.0 
2.152839430898e+01 -3.732609965436e+00 0.0 
2.077799585292e+01 -3.183896021866e+00 0.0 
3.618719395821e+01 -1.770276572576e+01 0.0 
3.538165138340e+01 -1.718709995539e+01 0.0 
3.702925326420e+01 -1.828844288807e+01 0.0 
1.756739438711e+00 -5.353284859169e+00 0.0 
2.233710191104e+01 -1.527265621324e+01 0.0 
1.389483555057e+01 -1.771797164730e+01 0.0 
1.475634224300e+01 -1.728357428390e+01 0.0 
1.298797563052e+01 -1.825968924755e+01 0.0 
2.145331271866e+01 -1.673705379077e+01 0.0 
2.133282821169e+01 -1.769400773673e+01 0.0 
2.292139194136e+01 -1.774915400288e+01 0.0 
1.750750053243e+01 -1.861475593469e+00 0.0 
4.830478841772e+01 -1.752611802221e+01 0.0 
4.341203507805e+01 -1.220326745522e+01 0.0 
1.685254151866e+01 -1.443085301632e+00 0.0 
4.431538535165e+01 -1.171841387375e+01 0.0 
4.511308610496e+01 -1.229557320599e+01 0.0 
4.510133242889e+01 -1.123680627466e+01 0.0 
1.846818030617e+00 -4.410877617069e+00 0.0 
3.995468694584e+01 -1.186571542989e+01 0.0 
3.901387459804e+01 -1.242507616755e+01 0.0 
8.966735877533e+00 -1.837818700423e+00 0.0 
4.049310011091e+01 -1.848269508791e+01 0.0 
7.278862053803e+00 -1.918523922691e+00 0.0 
6.429715522129e+00 -2.316676521184e+00 0.0 
9.443505505022e+00 -1.792198868094e+01 0.0 
8.620386951051e+00 -1.737590365556e+01 0.0 
8.571868171503e+00 -1.834436667826e+01 0.0 
7.758629848526e+00 -1.775677907213e+01 0.0 
7.806648388584e+00 -1.680761266021e+01 0.0 
6.908555145436e+00 -1.723746463044e+01 0.0 
4.251709122090e+01 -1.156937480156e+01 0.0 
6.931136405615e+00 -1.832465719263e+01 0.0 
6.015545461353e+00 -1.768865355295e+01 0.0 
5.960535926343e+00 -1.872011001764e+01 0.0 
3.023253444786e+01 -8.761960642196e+00 0.0 
2.454622702599e+01 -6.749421992767e+00 0.0 
2.537499741604e+01 -6.347634963783e+00 0.0 
2.544077378460e+01 -5.431358513649e+00 0.0 
2.801367161747e+01 -1.820907270221e+01 0.0 
2.884507806914e+01 -1.762032095326e+01 0.0 
1.821474531936e+00 -1.588901260460e+01 0.0 
1.821006262604e+00 -1.489370287756e+01 0.0 
4.599962488908e+01 -1.176478780598e+01 0.0 
4.705457470007e+01 -1.172182804229e+01 0.0 
4.667668314802e+01 -1.263464558483e+01 0.0 
4.759648056504e+01 -1.252380987933e+01 0.0 
4.728041618103e+01 -1.341928568376e+01 0.0 
4.825209352360e+01 -1.330491640804e+01 0.0 
4.778118233428e+01 -1.420151961695e+01 0.0 
2.388192727579e+01 -1.826934810142e+01 0.0 
2.381714684947e+01 -4.385917965223e+00 0.0 
3.172733219247e+01 -9.758744265248e+00 0.0 
1.882012070658e+01 -1.805540597212e+01 0.0 
1.805667505243e+01 -1.742221226236e+01 0.0 
2.852599958080e+01 -8.597196079481e+00 0.0 
2.856486123437e+01 -7.661382718527e+00 0.0 
1.111792842875e+01 -1.818223852980e+01 0.0 
2.203322722466e+01 -7.986646678802e+00 0.0 
3.955703676900e+01 -1.903246763601e+01 0.0 
1.944842206513e+01 -8.038750575182e-01 0.0 
1.909882767783e+01 -1.746322740933e+00 0.0 
2.281147422941e+01 -8.525912918334e+00 0.0 
2.850633001468e+01 -9.533271335986e+00 0.0 
2.532883344309e+01 -7.308951659710e+00 0.0 
2.620475466461e+01 -6.979208585400e+00 0.0 
1.396278270396e+01 -1.475095389807e+01 0.0 
9.791001166724e+00 -2.554159793552e+00 0.0 
2.229293380421e+01 -4.269762271052e+00 0.0 
4.677238984118e+01 -1.430071795514e+01 0.0 
2.228658385918e+01 -3.344747535984e+00 0.0 
8.940223674553e-01 -1.543595733415e+01 0.0 
2.118566862474e+01 -8.435876987696e+00 0.0 
2.678325936437e+01 -1.032621195706e+01 0.0 
2.223400220487e+01 -5.179046761770e+00 0.0 
2.375370625384e+01 -7.251580562134e+00 0.0 
3.156971327386e+01 -1.255534750737e+01 0.0 
3.328226391312e+01 -1.172914813316e+01 0.0 
3.250948774219e+01 -1.120157009348e+01 0.0 
2.032993445717e+01 -8.867880112202e+00 0.0 
2.697226974856e+01 -7.536633082045e+00 0.0 
2.707377810386e+01 -6.590835263295e+00 0.0 
2.914099246827e+01 -1.191678458549e+01 0.0 
3.544824072239e+01 -1.621126558525e+01 0.0 
3.456511855436e+01 -1.665054783843e+01 0.0 
3.448395810225e+01 -1.759117813016e+01 0.0 
3.368378673938e+01 -1.708037781328e+01 0.0 
3.375560452567e+01 -1.610973066913e+01 0.0 
3.288001547988e+01 -1.654324255651e+01 0.0 
3.282475929147e+01 -1.749725654692e+01 0.0 
3.199880906313e+01 -1.697294088625e+01 0.0 
3.197001272932e+01 -1.811667776864e+01 0.0 
3.111884713021e+01 -1.742166785755e+01 0.0 
3.120418962865e+01 -1.642155709385e+01 0.0 
3.034666704371e+01 -1.683123833816e+01 0.0 
3.026224379976e+01 -1.772592851714e+01 0.0 
3.046632362943e+01 -1.582232843075e+01 0.0 
1.961344017324e+01 -1.857459447985e+01 0.0 
2.274975894774e+01 -9.532738811922e+00 0.0 
1.833923246887e+01 -2.396746883672e+00 0.0 
1.988859500848e+01 -2.249244376594e+00 0.0 
2.758045562861e+01 -1.086434261689e+01 0.0 
3.247300178163e+01 -1.909930104252e+01 0.0 
3.461947482503e+01 -1.911879848019e+01 0.0 
2.047161538662e+01 -6.941478180358e+00 0.0 
2.750230940214e+01 -1.915490590764e+01 0.0 
3.165081350803e+01 -1.161860780120e+01 0.0 
1.897456727641e+01 -4.889634688522e+00 0.0 
2.549338539756e+01 -1.914858252089e+01 0.0 
3.462873135081e+01 -1.567482276144e+01 0.0 
3.384432415243e+01 -1.512280684518e+01 0.0 
3.471433767690e+01 -1.469086942990e+01 0.0 
3.651470373046e+01 -1.918207952149e+01 0.0 
3.901742690249e+01 -1.345028556517e+01 0.0 
2.153224102692e+01 -1.920169709333e+01 0.0 
1.918382939341e+01 -1.316226275662e+01 0.0 
2.005389162382e+01 -1.271962165174e+01 0.0 
2.011472087878e+01 -1.175029352900e+01 0.0 
3.210679478412e+01 -1.598038618242e+01 0.0 
1.752175226543e+01 -1.914713022656e+01 0.0 
1.696897240059e+01 -1.832772588765e+01 0.0 
1.599682523337e+01 -1.832599992024e+01 0.0 
1.644507199462e+01 -1.743697981535e+01 0.0 
1.549987712903e+01 -1.915192375101e+01 0.0 
3.050250861901e+01 -1.918943550234e+01 0.0 
2.949944061527e+01 -1.922950455235e+01 0.0 
1.375892575273e+01 -6.447160534926e+00 0.0 
1.457223670180e+01 -7.006709243857e+00 0.0 
1.450818793236e+01 -7.965943451779e+00 0.0 
1.538804712402e+01 -7.553409623699e+00 0.0 
1.545817644768e+01 -6.580929593419e+00 0.0 
1.626506893751e+01 -7.129032608911e+00 0.0 
1.619833811522e+01 -8.086588580887e+00 0.0 
1.714448609609e+01 -6.697429609777e+00 0.0 
2.887616543568e+01 -1.668015232137e+01 0.0 
1.349814589130e+01 -1.918225301544e+01 0.0 
1.153887772210e+01 -1.311384581217e+01 0.0 
1.242708159886e+01 -1.267046795531e+01 0.0 
1.249799674267e+01 -1.169005616014e+01 0.0 
6.631723893693e+00 -9.774184881867e+00 0.0 
7.451471631867e+00 -1.033148796006e+01 0.0 
7.377795355458e+00 -1.132196345268e+01 0.0 
5.810931797536e+00 -9.211654212252e+00 0.0 
2.402683899133e+01 -1.441378562320e+01 0.0 
1.249768692036e+01 -1.917388426624e+01 0.0 
1.580373499437e+01 -1.290751860664e+01 0.0 
8.344650507834e+00 -9.898403995170e+00 0.0 
3.750622115305e+01 -1.086526401533e+01 0.0 
3.699391251667e+01 -1.171695900794e+01 0.0 
3.606517829518e+01 -1.173717504500e+01 0.0 
3.650257641795e+01 -1.270047380221e+01 0.0 
3.808951488918e+01 -1.183518714175e+01 0.0 
4.760380962420e+00 -1.162484888315e+01 0.0 
3.861210370848e+00 -1.205657631736e+01 0.0 
3.038284309476e+00 -1.149851280664e+01 0.0 
2.961598794889e+00 -1.248856794980e+01 0.0 
2.138953225512e+00 -1.193212674534e+01 0.0 
2.227383593457e+00 -1.096258903918e+01 0.0 
2.043265419276e+00 -1.292158472959e+01 0.0 
1.252449446028e+00 -1.225502002753e+01 0.0 
3.949985210740e+01 -1.086594001795e+01 0.0 
1.453499444792e+01 -8.768805922472e-01 0.0 
1.403518950933e+01 -1.749965556633e+00 0.0 
1.300715031023e+01 -1.714737233040e+00 0.0 
1.350929389899e+01 -2.527443911291e+00 0.0 
1.449600910711e+01 -2.595486162864e+00 0.0 
1.395693872901e+01 -3.484211041558e+00 0.0 
1.495105865208e+01 -3.364609636216e+00 0.0 
1.508822528740e+01 -1.766586020494e+00 0.0 
1.250223858430e+01 -8.634590186802e-01 0.0 
1.200279523409e+01 -1.709044504992e+00 0.0 
1.150086239419e+01 -8.592789190668e-01 0.0 
1.101482754194e+01 -1.677730591922e+00 0.0 
1.148018564526e+01 -2.659323866909e+00 0.0 
8.800552119754e+00 -3.989875954728e+00 0.0 
3.452790439430e+00 -1.901136170646e+01 0.0 
8.658451825200e-01 -9.503462241795e+00 0.0 
1.694787786797e+00 -9.000589234502e+00 0.0 
1.703436717094e+00 -8.038819004041e+00 0.0 
2.594197971110e+00 -8.563955242845e+00 0.0 
1.630513735412e+00 -9.907244747511e+00 0.0 
8.566859292791e-01 -7.512203837972e+00 0.0 
1.685461277022e+00 -7.164280248030e+00 0.0 
2.506394468801e+00 -8.623386730818e-01 0.0 
2.007475081581e+00 -1.727729545205e+00 0.0 
9.211534699767e-01 -1.628791366312e+00 0.0 
1.500000000020e+00 -2.598063549486e+00 0.0 
2.482078929963e+00 -2.553580088725e+00 0.0 
2.999795253092e+00 -1.732169015019e+00 0.0 
3.999712607169e+00 -1.728832897453e+00 0.0 
4.499752199340e+00 -8.656478679175e-01 0.0 
4.964377774841e+00 -1.730129617941e+00 0.0 
4.425017908337e+00 -2.597541756243e+00 0.0 
5.446573195014e+00 -8.410144840023e-01 0.0 
4.915722346614e+01 -1.550640962770e+01 0.0 
4.826794919243e+01 -1.600000000000e+01 0.0 
1.053139533193e+01 -1.911782884365e+01 0.0 
4.156049861949e+01 -1.095160998589e+01 0.0 
9.494526624416e+00 -8.650570090219e-01 0.0 
4.555762166964e+01 -1.897098103585e+01 0.0 
4.250656411371e+01 -1.914387356218e+01 0.0 
4.350906466345e+01 -1.917234727395e+01 0.0 
8.759665722424e-01 -1.746422130609e+01 0.0 
1.698936011838e+00 -1.795012186674e+01 0.0 
4.742476811029e+01 -1.900090177972e+01 0.0 
7.749196752349e+00 -6.368049313489e+00 0.0 
3.361572113416e+01 -1.798765193915e+01 0.0 
4.484660149212e+01 -1.728661231383e+01 0.0 
1.984038172228e+01 -4.502575320116e+00 0.0 
1.035080352627e+01 -6.166639575753e+00 0.0 
2.753558010652e+00 -1.444909521181e+01 0.0 
7.217069543032e+00 -1.328635391078e+01 0.0 
4.364336727739e+00 -1.655585677381e+01 0.0 
4.595208426108e+00 -1.357919665443e+01 0.0 
6.164967006980e+00 -1.569873454630e+01 0.0 
1.487855768353e+01 -1.826523774028e+01 0.0 
2.791876456372e+00 -4.019632415181e+00 0.0 
4.246464893515e+01 -1.364898659620e+01 0.0 
4.503855590351e+01 -1.329552780944e+01 0.0 
4.407239109604e+01 -1.573900004093e+01 0.0 
5.141054449252e+00 -6.664290382472e+00 0.0 
3.141083947149e+00 -1.055790764912e+01 0.0 
6.196463198741e+00 -4.256497932609e+00 0.0 
2.599618716181e+01 -1.836893455464e+01 0.0 
2.923057372337e+01 -1.098461757645e+01 0.0 
1.168343877486e+01 -1.114079645041e+01 0.0 
6.706222096238e+00 -8.780364234441e+00 0.0 
8.567858614669e+00 -6.943121440850e+00 0.0 
1.123755132901e+01 -5.753525820030e+00 0.0 
2.353456234423e+01 -1.008536320953e+01 0.0 
9.162073319168e+00 -1.045593739109e+01 0.0 
9.676343469685e+00 -1.496493008366e+01 0.0 
4.490637882905e+01 -1.628778970202e+01 0.0 
7.398129387772e+00 -9.639977982323e-01 0.0 
1.049641705805e+01 -1.552503975272e+01 0.0 
9.010356286268e+00 -1.242805042052e+01 0.0 
3.985573925497e+01 -1.399863651620e+01 0.0 
1.816196318262e+01 -1.554066497931e+01 0.0 
1.306332244168e+01 -3.963646550326e+00 0.0 
4.145850903932e+01 -1.608094559275e+01 0.0 
3.794664933633e+01 -1.779020121986e+01 0.0 
3.819614412903e+01 -1.290749321016e+01 0.0 
6.270014188119e+00 -3.255093186826e+00 0.0 
4.251165370388e+01 -1.263870364997e+01 0.0 
1.207347709171e+01 -1.763942826023e+01 0.0 
3.633240829927e+01 -1.577330481104e+01 0.0 
4.319052668832e+00 -6.101812561904e+00 0.0 
1.676492415806e+01 -1.151547901392e+01 0.0 
2.594059220037e+01 -1.074225223009e+01 0.0 
3.340750911501e+01 -9.898764354137e+00 0.0 
4.397619591281e+01 -1.769773736461e+01 0.0 
2.175611595028e+01 -1.185718747128e+01 0.0 
1.641818733106e+01 -1.640685203215e+01 0.0 
1.661211421753e+01 -1.346121366338e+01 0.0 
3.428853504935e+00 -6.551993389271e+00 0.0 
8.700728832502e+00 -1.638460872825e+01 0.0 
1.931369795309e+01 -1.121629383702e+01 0.0 
4.139798872363e+01 -1.706922153459e+01 0.0 
2.647837478700e+01 -1.507353829290e+01 0.0 
1.779469616424e+01 -9.161615782908e+00 0.0 
3.885879219319e+01 -1.642026488918e+01 0.0 
1.338194936770e+01 -1.125916521471e+01 0.0 
1.897071181111e+01 -1.609204322578e+01 0.0 
2.844308548793e+01 -1.046221003096e+01 0.0 
2.659854702194e+01 -1.316109415760e+01 0.0 
2.979604503271e+01 -1.433296157755e+01 0.0 
2.417694041347e+01 -1.251231397779e+01 0.0 
1.807401327411e+00 -1.388891148480e+01 0.0 
9.599810618782e+00 -1.595439365034e+01 0.0 
1.652144692160e+01 -4.205392788472e+00 0.0 
2.367839450246e+01 -8.188385218643e+00 0.0 
3.814894930468e+01 -1.390748338767e+01 0.0 
2.466448215774e+01 -1.685878545680e+01 0.0 
4.134044524611e+01 -1.806610045954e+01 0.0 
2.600511411958e+01 -9.801774120648e+00 0.0 
7.882158050716e+00 -1.582364037353e+01 0.0 
3.881607873422e+01 -1.737970515013e+01 0.0 
8.270182347708e+00 -1.088622154920e+01 0.0 
8.672520392520e-01 -4.532984309881e+00 0.0 
1.993447205337e+01 -3.579061902667e+00 0.0 
1.794616079549e+01 -7.238038888498e+00 0.0 
2.097277068165e+01 -1.132450168636e+01 0.0 
8.194803300681e+00 -1.187214224265e+01 0.0 
3.522279404911e+01 -1.823342818178e+01 0.0 
6.984481050295e+00 -1.625271465557e+01 0.0 
1.309433007797e+01 -1.521718594215e+01 0.0 
2.150246167611e+01 -1.885399038185e+00 0.0 
3.250689370209e+01 -1.028789870535e+01 0.0 
6.085886272238e+00 -1.668342132851e+01 0.0 
1.588455661727e+01 -1.193498985921e+01 0.0 
1.809323400821e+01 -1.651110084195e+01 0.0 
1.348885082381e+00 -1.136065576512e+01 0.0 
2.497670221995e+01 -1.834631276173e+01 0.0 
2.937062818424e+01 -8.233711194470e+00 0.0 
5.185823744469e+00 -1.711566910207e+01 0.0 
1.477497877209e+01 -1.530177014512e+01 0.0 
2.125346158933e+01 -7.473003997367e+00 0.0 
4.751561118290e+01 -1.084897772632e+01 0.0 
5.056026576843e+00 -1.825750475525e+01 0.0 
1.473948554523e+01 -1.634577436309e+01 0.0 
2.410566630936e+01 -1.345970002612e+01 0.0 
1.507337507513e+01 -1.138527895328e+01 0.0 
3.189857338687e+01 -8.887781229006e+00 0.0 
7.298712468334e+00 -1.230231046246e+01 0.0 
2.738235495295e+01 -1.368931690364e+01 0.0 
3.750141041969e+01 -1.920449893070e+01 0.0 
1.557271965640e+01 -1.683317951731e+01 0.0 
3.393731848929e+01 -1.413034777044e+01 0.0 
6.482156824153e+00 -1.174575135362e+01 0.0 
2.077971718439e+01 -1.421279621836e+01 0.0 
3.455084320178e+00 -2.562590040585e+00 0.0 
3.099056096250e+01 -9.270280416035e+00 0.0 
5.580176125418e+00 -1.217387969259e+01 0.0 
1.707247630389e+01 -7.660651981710e+00 0.0 
1.418658814174e+01 -1.180390575393e+01 0.0 
2.049103025389e+01 -1.811296706038e+01 0.0 
4.680386172316e+00 -1.260396879301e+01 0.0 
1.699679896554e+01 -8.624561788199e+00 0.0 
3.779470168555e+00 -1.303424899720e+01 0.0 
3.036589870126e+01 -7.879832518349e+00 0.0 
3.306993001774e+01 -1.457671062095e+01 0.0 
2.840150110165e+00 -1.346530088269e+01 0.0 
2.732011135052e+01 -1.464591214560e+01 0.0 
5.423639259568e+00 -2.659711955016e+00 0.0 
2.324455961696e+01 -1.387269388211e+01 0.0 
1.752768355571e+00 -1.693128613594e+01 0.0 
1.020244783051e+01 -8.076834012808e+00 0.0 
1.330873875224e+01 -1.222417528206e+01 0.0 
3.297727364880e+01 -1.555480372087e+01 0.0 
2.890929955439e+01 -6.868664170731e+00 0.0 
1.323294664622e+01 -1.320754260334e+01 0.0 
2.726532861246e+01 -1.560593120806e+01 0.0 
2.240020643398e+01 -1.429299177247e+01 0.0 
2.090445823633e+01 -1.228128621332e+01 0.0 
1.315809881502e+01 -1.420739326938e+01 0.0 
2.781328038068e+01 -7.181956082300e+00 0.0 
8.614200829057e+00 -5.936933226306e+00 0.0 
8.714765730069e+00 -4.979270529687e+00 0.0 
1.611881701099e+01 -9.041973294003e+00 0.0 
2.806830314340e+01 -1.614622947108e+01 0.0 
2.084435391396e+00 -3.385085422913e+00 0.0 
3.133211811152e+01 -1.542347619750e+01 0.0 
9.693114650768e+00 -3.590281506442e+00 0.0 
1.531883592202e+01 -8.504584946143e+00 0.0 
2.151589117094e+01 -1.578915763018e+01 0.0 
4.918943882696e+01 -1.355538828056e+01 0.0 
1.443236615188e+01 -8.918701794549e+00 0.0 
8.276250966452e-01 -5.537685192197e+00 0.0 
1.362790867918e+01 -8.374718262212e+00 0.0 
2.083767477370e+01 -1.324843956035e+01 0.0 
1.273834678703e+01 -8.790890389337e+00 0.0 
1.192275845670e+01 -8.242261327467e+00 0.0 
4.477236023583e+01 -1.824312396664e+01 0.0 
1.102989384254e+01 -8.649855800911e+00 0.0 
4.849096516045e+01 -1.917293752213e+01 0.0 
1.588996752238e+00 -1.910230934687e+01 0.0 
4.904245197583e+01 -1.159839008158e+01 0.0 
2.753852929608e+01 -5.782128488093e+00 0.0 
1.756133602833e+01 -8.306130313187e-01 0.0 
2.615423700951e+01 -6.153865090092e+00 0.0 
1.028818761294e+01 -7.122020845892e+00 0.0 
2.970818901196e+01 -1.527821347593e+01 0.0 
4.801461623449e+01 -1.164472570985e+01 0.0 
9.455722100419e+00 -6.546069291118e+00 0.0 
3.089099236677e+01 -1.835339328261e+01 0.0 
2.350000000013e+01 -1.920825896750e+01 0.0 
4.830620531887e+01 -1.506626155470e+01 0.0 
1.725381944701e+01 -1.688794487850e+01 0.0 
2.156246225273e+01 -1.475893794002e+01 0.0 
4.919319648787e+01 -1.742767505896e+01 0.0 
4.437935623576e+01 -1.077662927266e+01 0.0 
1.001520521978e+01 -1.652692675208e+00 0.0 
9.067160240050e-01 -1.441937727541e+01 0.0 
2.603365149390e+01 -4.755996613848e+00 0.0 
2.458344439002e+01 -4.873645517696e+00 0.0 
2.304312390142e+01 -3.836552768096e+00 0.0 
2.546923202198e+00 -6.902480355749e+00 0.0 
1.251534969393e+01 -2.490989965776e+00 0.0 
2.454061833377e+01 -3.933354231935e+00 0.0 
1.788186558740e+01 -1.827424884923e+01 0.0 
4.090785243552e+01 -1.166553231904e+01 0.0 
2.230128851568e+01 -1.623015738726e+01 0.0 
2.302362347568e+01 -2.916239960270e+00 0.0 
3.878119254461e+01 -1.830091164002e+01 0.0 
2.210081359958e+01 -1.829238229150e+01 0.0 
8.443704882233e+00 -1.921993252862e+01 0.0 
2.218405824691e+01 -1.724557581508e+01 0.0 
2.151157503963e+01 -2.790636689331e+00 0.0 
3.741658958955e+01 -1.250400191722e+01 0.0 
2.697247663737e+01 -1.838290202309e+01 0.0 
4.743362342862e+01 -1.585850773010e+01 0.0 
6.671345075358e+00 -1.924977576322e+01 0.0 
3.900825404537e+01 -1.157220003875e+01 0.0 
4.649692961375e+01 -1.836335837481e+01 0.0 
1.578831424832e+01 -3.678284023361e+00 0.0 
4.814208768888e+01 -1.841249298770e+01 0.0 
2.964123298315e+01 -1.625739458193e+01 0.0 
4.580760351902e+01 -1.284294554687e+01 0.0 
3.561520879615e+01 -1.245548941949e+01 0.0 
2.555418095658e+00 -1.841101588290e+01 0.0 
3.288468366144e+01 -1.834258164109e+01 0.0 
2.065894391445e+01 -2.240688571739e+00 0.0 
4.739171429915e+01 -1.496536413446e+01 0.0 
3.478086729185e+00 -8.576434653209e+00 0.0 
1.606010630246e+01 -1.588421807951e+00 0.0 
1.018329200594e+01 -1.834320874317e+01 0.0 
2.957213339430e+01 -1.720496954591e+01 0.0 
4.142712790164e+00 -1.837794506222e+01 0.0 
6.698721532573e-01 -2.499999999997e+00 0.0 
8.037039123140e+00 -1.571229354954e+00 0.0 
1.203541361428e+01 -1.847784298001e+01 0.0 
2.899968332038e+01 -1.848264722179e+01 0.0 
1.469229460948e+01 -4.219485753730e+00 0.0 
4.049590781957e+01 -1.932812501995e+01 0.0 
1.996211678340e+01 -1.506329754720e+00 0.0 
4.250588298353e+01 -1.067383247529e+01 0.0 
5.831497011152e+00 -1.635396227234e+00 0.0 
5.317606125670e+00 -1.923927974868e+01 0.0 
4.208546426993e+01 -1.842830665025e+01 0.0 
2.327553405011e+00 -9.459409929662e+00 0.0 
3.568351902251e+01 -1.096637218582e+01 0.0 
1.682104374890e+00 -6.231413350963e+00 0.0 
2.451812238018e+01 -1.766524914339e+01 0.0 
1.058003429638e+01 -2.391839617098e+00 0.0 
4.399988753123e+01 -1.851998776342e+01 0.0 
1.400000000010e+01 -1.852293523028e+01 0.0 
3.604719565984e+01 -1.850662876800e+01 0.0 
1.951297136734e+01 -1.938092349694e+01 0.0 
1.821365318472e+01 -1.531276353287e+00 0.0 
2.298031859732e+01 -1.854635324722e+01 0.0 
1.552168066204e+01 -1.764280741977e+01 0.0 
4.572957713638e+01 -1.073347898229e+01 0.0 
3.429637429624e+01 -1.838861552790e+01 0.0 
2.427434426052e+00 -7.705577451869e+00 0.0 
4.662792031485e+00 -3.359424455416e+00 0.0 
4.926794919243e+01 -1.926794919243e+01 0.0 
7.320508075690e-01 -7.320508075688e-01 0.0 
4.926794919243e+01 -1.073205080757e+01 0.0 
7.320508075705e-01 -1.926794919243e+01 0.0 
2.917460242467e+00 -3.202866455310e+00 0.0 
4.838200575963e+01 -1.232674147454e+01 0.0 
2.998445708009e+01 -1.854403752148e+01 0.0 
5.949940090766e-01 -1.152762038165e+01 0.0 
4.844763495759e+01 -1.678092548787e+01 0.0 
1.301685480160e+01 -3.170056592566e+00 0.0 
1.650046335855e+01 -6.731535384067e-01 0.0 
4.854881540991e+01 -1.405224059779e+01 0.0 
2.119545114693e+01 -1.846813384545e+01 0.0 
3.797852849897e+01 -1.857978513215e+01 0.0 
4.649823708745e+01 -1.338351810816e+01 0.0 
2.012685900976e+01 -2.889659035009e+00 0.0 
2.953271913273e+01 -1.791558075192e+01 0.0 
2.408509097292e+00 -1.021949208421e+01 0.0 
2.642589566221e+01 -1.773216561448e+01 0.0 
1.730010270775e+01 -1.763165076721e+01 0.0 
2.017406551304e+01 -8.513536440582e-01 0.0 
5.254761581934e-01 -1.249999999999e+01 0.0 
6.640448215642e+00 -1.545337834885e+00 0.0 
7.843361506349e+00 -1.852719839527e+01 0.0 
1.588442191088e+00 -1.066158564320e+01 0.0 
3.480610198624e+01 -9.413633635267e+00 0.0 
4.951470588234e+01 -9.500000000000e+00 0.0 

SCALARS node_number int
LOOKUP_TABLE default
1
2
3
4
5
6
7
8
9
10
11
12
13
14
15
16
17
18
19
20
21
22
23
24
25
26
27
28
29
30
31
32
33
34
35
36
37
38
39
40
41
42
43
44
45
46
47
48
49
50
51
52
53
54
55
56
57
58
59
60
61
62
63
64
65
66
67
68
69
70
71
72
73
74
75
76
77
78
79
80
81
82
84
85
86
87
88
89
90
91
92
93
102
104
105
106
107
108
109
110
111
112
113
114
115
116
117
118
119
120
121
122
123
124
125
126
127
128
129
130
131
132
133
134
135
136
346
347
348
349
350
351
352
353
354
355
356
357
358
359
360
361
362
363
364
365
366
367
368
369
370
371
372
373
374
375
376
377
378
379
380
381
382
383
384
385
386
387
388
389
390
391
392
393
394
395
396
397
398
399
400
401
402
403
404
405
406
407
408
409
410
411
412
413
414
415
416
417
418
419
420
421
422
423
424
425
426
427
428
429
430
431
432
433
434
435
436
437
438
439
440
441
442
443
444
445
446
447
448
449
450
451
452
453
454
455
456
457
458
459
460
461
462
463
464
465
466
467
468
469
470
471
472
473
474
475
476
477
478
479
480
481
482
483
484
485
486
487
488
489
490
491
492
493
494
495
496
497
498
499
500
501
502
503
504
505
506
507
508
509
510
511
512
513
514
515
516
517
518
519
520
521
522
523
524
525
526
527
528
529
530
531
532
533
534
535
536
537
538
539
540
541
542
543
544
545
546
547
548
549
550
551
552
553
554
555
556
557
558
559
560
561
562
563
564
565
566
567
568
569
570
571
572
573
574
575
576
577
578
579
580
581
582
583
584
585
586
587
588
589
590
591
592
593
594
595
596
597
598
599
600
601
602
603
604
605
606
607
608
609
610
611
612
613
614
615
616
617
618
619
620
621
622
623
624
625
626
627
628
629
630
631
632
633
634
635
636
637
638
639
640
641
642
643
644
645
646
647
648
649
650
651
652
653
654
655
656
657
658
659
660
661
662
663
664
665
666
667
668
669
670
671
672
673
674
675
676
677
678
679
680
681
682
683
684
685
686
687
688
689
690
691
692
693
694
695
696
697
698
699
700
701
702
703
704
705
706
707
708
709
710
711
712
713
714
715
716
717
718
719
720
721
722
723
724
725
726
727
728
729
730
731
732
733
734
735
736
737
738
739
740
741
742
743
744
745
746
747
748
749
750
751
752
753
754
755
756
757
758
759
760
761
762
763
764
765
766
767
768
769
770
771
772
773
774
775
776
777
778
779
780
781
782
783
784
785
786
787
788
789
790
791
792
793
794
795
796
797
798
799
800
801
802
803
804
805
806
807
808
809
810
811
812
813
814
815
816
817
818
819
820
821
822
823
824
825
826
827
828
829
830
831
832
833
834
835
836
837
838
839
840
841
842
843
844
845
846
847
848
849
850
851
852
853
854
855
856
857
858
859
860
861
862
863
864
865
866
867
868
869
870
871
872
873
874
875
876
877
878
879
880
881
882
883
884
885
886
887
888
889
890
891
892
893
894
895
896
897
898
899
900
901
902
903
904
905
906
907
908
909
910
911
912
913
914
915
916
917
918
919
920
921
922
923
924
925
926
927
928
929
930
931
932
933
934
935
936
937
938
939
940
941
942
943
944
945
946
947
948
949
950
951
952
953
954
955
956
957
958
959
960
961
962
963
964
965
966
967
968
969
970
971
972
973
974
975
976
977
978
979
980
981
982
983
984
985
986
987
988
989
990
991
992
993
994
995
996
997
998
999
1000
1001
1002
1003
1004
1005
1006
1007
1008
1009
1010
1011
1012
1013
1014
1015
1016
1017
1018
1019
1020
1021
1022
1023
1024
1025
1026
1027
1028
1029
1030
1031
1032
1033
1034
1035
1036
1037
1038
1039
1040
1041
1042
1043
1044
1045
1046
1047
1048
1049
1050
1051
1052
1053
1054
1055
1056
1057
1058
1059
1060
1061
1062
1063
1064
1065
1066
1067
1068
1069
1070
1071
1072
1073
1074
1075
1076
1077
1078
1079
1080
1081
1082
1083
1084
1085
1086
1087
1088
1089
1090
1091
1092
1093
1094
1095
1096
1097
1098
1099
1100
1101
1102
1103
1104
1105
1106
1107
1108
1109
1110
1111
1112
1113
1114
1115
1116
1117
1118
1119
1120
1121
1122
1123
1124
1125
1126
1127
1128
1129
1130
1131
1132
1133
1134
1135
1136
1137
1138
1139
1140
1141
1142
1143
1144
1145
1146
1147
1148
1149
1150
1151
1152
1153
1154
1155
1156
1157
1158
1159
1160
1161
1162
1163
1164
1165
1166
1167
1168
1169
1170
1171
1172
1173
1174
1175
1176
1177
1178
1179
1180
1181
1182
1183
1184
1185
1186
1187
1188
1189
1190
1191
1192
1193
1194
1195
1196
1197
1198
1199
1200
1201
1202
1203
1204
1205
1206
1207
1208
1209
1210
1211
1212
1213
1214
1215
1216
1217
1218
1219
1220
1221
1222
1223
1224
1225
1226
1227
1228
1229
1230
1231
1232
1233
1234
1235
1236
1237
1238
1239
1240
1241
1242
1243
1244
1245
1246
1247
1248
1249
1250
1251
1252
1253
1254
1255
1256
1257
1258
1259
1260
1261
1262
1263
1264
1283
1284

VECTORS node_mesh_deformation float
0.0 1.158532889425e-02 0.0 
0.000000000000e+00 2.278190914467e-02 0.0 
0.0 0.000000000000e+00 0.0 
0.000000000000e+00 0.000000000000e+00 0.0 
0.0 1.157453206544e-02 0.0 
0.0 1.150768357942e-02 0.0 
0.0 1.138545367134e-02 0.0 
0.0 1.120775314811e-02 0.0 
0.0 1.097305617363e-02 0.0 
0.0 1.068245553622e-02 0.0 
0.0 1.033578184202e-02 0.0 
0.0 9.931988957375e-03 0.0 
0.0 9.470232207521e-03 0.0 
0.0 8.948803835619e-03 0.0 
0.0 8.364914582870e-03 0.0 
0.0 7.716572942298e-03 0.0 
0.0 7.002861624013e-03 0.0 
0.0 6.225456639100e-03 0.0 
0.0 5.376064671848e-03 0.0 
0.0 4.454080126067e-03 0.0 
0.0 3.458010799516e-03 0.0 
0.0 2.384150773178e-03 0.0 
0.0 1.229937642808e-03 0.0 
0.000000000000e+00 0.000000000000e+00 0.0 
0.000000000000e+00 0.000000000000e+00 0.0 
0.000000000000e+00 0.000000000000e+00 0.0 
0.000000000000e+00 0.000000000000e+00 0.0 
0.000000000000e+00 0.000000000000e+00 0.0 
0.000000000000e+00 0.000000000000e+00 0.0 
0.000000000000e+00 0.000000000000e+00 0.0 
0.000000000000e+00 0.000000000000e+00 0.0 
0.000000000000e+00 0.000000000000e+00 0.0 
0.000000000000e+00 0.000000000000e+00 0.0 
0.000000000000e+00 0.000000000000e+00 0.0 
0.000000000000e+00 0.000000000000e+00 0.0 
0.000000000000e+00 0.000000000000e+00 0.0 
0.000000000000e+00 0.000000000000e+00 0.0 
0.000000000000e+00 0.000000000000e+00 0.0 
0.000000000000e+00 0.000000000000e+00 0.0 
0.000000000000e+00 0.000000000000e+00 0.0 
0.000000000000e+00 0.000000000000e+00 0.0 
0.000000000000e+00 0.000000000000e+00 0.0 
0.000000000000e+00 0.000000000000e+00 0.0 
0.000000000000e+00 0.000000000000e+00 0.0 
0.000000000000e+00 0.000000000000e+00 0.0 
0.000000000000e+00 0.000000000000e+00 0.0 
0.000000000000e+00 0.000000000000e+00 0.0 
0.000000000000e+00 0.000000000000e+00 0.0 
0.000000000000e+00 0.000000000000e+00 0.0 
0.000000000000e+00 0.000000000000e+00 0.0 
0.000000000000e+00 0.000000000000e+00 0.0 
0.000000000000e+00 0.000000000000e+00 0.0 
0.000000000000e+00 0.000000000000e+00 0.0 
0.000000000000e+00 0.000000000000e+00 0.0 
0.000000000000e+00 0.000000000000e+00 0.0 
0.000000000000e+00 0.000000000000e+00 0.0 
0.000000000000e+00 0.000000000000e+00 0.0 
0.000000000000e+00 0.000000000000e+00 0.0 
0.000000000000e+00 0.000000000000e+00 0.0 
0.000000000000e+00 0.000000000000e+00 0.0 
0.000000000000e+00 0.000000000000e+00 0.0 
0.000000000000e+00 0.000000000000e+00 0.0 
0.000000000000e+00 0.000000000000e+00 0.0 
0.000000000000e+00 0.000000000000e+00 0.0 
0.000000000000e+00 0.000000000000e+00 0.0 
0.000000000000e+00 0.000000000000e+00 0.0 
0.000000000000e+00 0.000000000000e+00 0.0 
0.000000000000e+00 0.000000000000e+00 0.0 
0.000000000000e+00 0.000000000000e+00 0.0 
0.000000000000e+00 0.000000000000e+00 0.0 
0.000000000000e+00 0.000000000000e+00 0.0 
0.000000000000e+00 0.000000000000e+00 0.0 
0.000000000000e+00 2.076246393271e-02 0.0 
0.000000000000e+00 1.868015941118e-02 0.0 
0.000000000000e+00 1.653580506504e-02 0.0 
0.000000000000e+00 1.433263344151e-02 0.0 
0.000000000000e+00 1.207162082681e-02 0.0 
0.000000000000e+00 9.756199816348e-03 0.0 
0.000000000000e+00 7.388716838932e-03 0.0 
0.000000000000e+00 4.971859364328e-03 0.0 
0.000000000000e+00 2.508709301075e-03 0.0 
-1.549539381831e-03 1.529658110794e-02 0.0 
2.301874021690e-03 2.170429322567e-02 0.0 
-1.110560256727e-03 1.656606287939e-02 0.0 
-6.683072586711e-04 1.796392254510e-02 0.0 
-1.712437858821e-04 1.934942977334e-02 0.0 
3.607112421840e-04 2.061676925646e-02 0.0 
9.001882272877e-04 2.169169518149e-02 0.0 
1.419674653093e-03 2.251406092009e-02 0.0 
1.880179868625e-03 2.301491614648e-02 0.0 
2.226904598253e-03 2.313120243690e-02 0.0 
2.315071365956e-03 2.276400380926e-02 0.0 
0.000000000000e+00 2.474115513393e-02 0.0 
1.431669082450e-04 2.278550361644e-02 0.0 
2.844473259813e-04 2.279132161615e-02 0.0 
4.253949590733e-04 2.279736883071e-02 0.0 
5.664109393493e-04 2.280328992687e-02 0.0 
7.071123297706e-04 2.280929929006e-02 0.0 
8.482358338568e-04 2.281087873584e-02 0.0 
9.906108193647e-04 2.280792520490e-02 0.0 
1.132104785682e-03 2.279390516943e-02 0.0 
1.277023055444e-03 2.276698666298e-02 0.0 
1.424551906517e-03 2.271794506856e-02 0.0 
1.575413103780e-03 2.263783189698e-02 0.0 
1.733018618026e-03 2.251564333817e-02 0.0 
1.901396685525e-03 2.233511478586e-02 0.0 
2.087107737403e-03 2.207393109778e-02 0.0 
-1.404964378963e-03 1.459541000194e-02 0.0 
-1.220398056777e-03 1.401054719989e-02 0.0 
-1.029802028320e-03 1.352648530179e-02 0.0 
-8.483356082181e-04 1.313076386491e-02 0.0 
-6.864933509174e-04 1.280957191625e-02 0.0 
-5.420206322810e-04 1.254667938152e-02 0.0 
-4.154343181710e-04 1.233270011171e-02 0.0 
-3.079597672215e-04 1.215971207710e-02 0.0 
-2.179990390072e-04 1.202133149330e-02 0.0 
-1.444503467241e-04 1.191279459689e-02 0.0 
-8.769195666325e-05 1.182554938522e-02 0.0 
-4.205792983392e-05 1.176083661747e-02 0.0 
-7.203027126756e-06 1.170791451620e-02 0.0 
1.343838532541e-05 1.166697040940e-02 0.0 
2.367623873933e-05 1.163776396905e-02 0.0 
2.796184871334e-05 1.161687615973e-02 0.0 
2.713905349871e-05 1.160182336345e-02 0.0 
2.214386160815e-05 1.159203310441e-02 0.0 
1.087849970505e-05 1.158552767932e-02 0.0 
2.031810696266e-03 2.343167129484e-02 0.0 
1.897843582668e-03 2.385228020522e-02 0.0 
1.769809819798e-03 2.415270010106e-02 0.0 
1.656419836515e-03 2.436802842760e-02 0.0 
1.546409198866e-03 2.451904674927e-02 0.0 
1.435277915427e-03 2.462220358873e-02 0.0 
1.320526687792e-03 2.468919046903e-02 0.0 
1.200755232631e-03 2.473032487631e-02 0.0 
1.077063275801e-03 2.475413669000e-02 0.0 
9.501820232529e-04 2.476511886426e-02 0.0 
8.201568957773e-04 2.476726666298e-02 0.0 
6.876958997353e-04 2.476488585235e-02 0.0 
5.539578081581e-04 2.475986773981e-02 0.0 
4.196050579495e-04 2.475337952859e-02 0.0 
2.852568035863e-04 2.474775722163e-02 0.0 
1.468670689277e-04 2.474007206074e-02 0.0 
-1.319547584277e-03 1.590312155705e-02 0.0 
-8.936493245528e-04 1.725851115070e-02 0.0 
-4.217376198881e-04 1.866654839997e-02 0.0 
9.621952831296e-05 2.000330973538e-02 0.0 
6.372595125619e-04 2.118845113826e-02 0.0 
1.170664209482e-03 2.214649475171e-02 0.0 
1.664162083394e-03 2.280818726471e-02 0.0 
2.075425543499e-03 2.312518432378e-02 0.0 
2.325958314607e-03 2.301677028155e-02 0.0 
2.327278221074e-03 2.230127982708e-02 0.0 
-2.605212182729e-04 1.699040811007e-02 0.0 
4.587122580979e-04 1.215667273065e-03 0.0 
-7.236317807013e-05 1.192645488404e-02 0.0 
-4.865935357596e-04 1.291052914400e-02 0.0 
2.857999682053e-04 1.128958124305e-03 0.0 
8.281674029220e-04 1.938916267383e-02 0.0 
9.214151360259e-05 8.654471191539e-03 0.0 
6.051119361388e-04 1.337373943795e-03 0.0 
1.859832122872e-03 2.104564058852e-02 0.0 
6.971777864955e-04 1.461213424047e-03 0.0 
2.591595535307e-03 2.165262007390e-02 0.0 
1.569349419190e-04 1.007923076287e-03 0.0 
4.680468603091e-05 1.166255484110e-02 0.0 
7.397236936875e-04 1.684212969998e-03 0.0 
2.609160182558e-03 2.048326643440e-02 0.0 
6.434112860898e-05 1.050522996685e-02 0.0 
9.623469008524e-05 6.782805024590e-03 0.0 
7.191134265980e-04 1.917932491203e-03 0.0 
5.293903374550e-04 1.997388544204e-03 0.0 
1.477128846261e-04 2.141921060641e-03 0.0 
2.791429741080e-04 2.305324645675e-03 0.0 
3.784790368471e-04 2.026109250835e-03 0.0 
2.137164851831e-03 2.042510961772e-02 0.0 
1.394263617620e-03 2.091944839871e-02 0.0 
9.268194028493e-04 2.093753013004e-02 0.0 
9.354611977130e-05 1.317518584178e-02 0.0 
9.347580359087e-05 1.079727572350e-03 0.0 
-8.593725572261e-04 1.425530573676e-02 0.0 
4.602606280590e-05 1.159524373719e-02 0.0 
6.653908643639e-05 4.042912245183e-03 0.0 
4.823479419258e-04 2.106304458411e-02 0.0 
3.838470821382e-05 1.130686827787e-02 0.0 
7.092371718684e-04 2.222744127959e-03 0.0 
6.084931949388e-04 1.285871724342e-03 0.0 
7.208174535940e-04 1.547231518529e-03 0.0 
5.689432655700e-04 1.348703498095e-03 0.0 
3.666992552755e-04 1.116404754143e-03 0.0 
-2.743721623109e-04 1.237894698551e-02 0.0 
1.736331572069e-03 2.087733411906e-02 0.0 
2.556261601168e-04 1.265498084624e-03 0.0 
7.146775082134e-05 8.680411330182e-03 0.0 
5.772351073574e-06 1.176075163146e-02 0.0 
8.298446439836e-05 9.709061063482e-03 0.0 
7.276284429736e-05 1.744454264653e-03 0.0 
1.379059042936e-03 2.023212132300e-02 0.0 
2.706016244289e-04 1.824127143502e-02 0.0 
2.285783410560e-03 2.151126485681e-02 0.0 
2.689076180339e-03 2.134109891568e-02 0.0 
-7.983250596197e-04 1.578990439294e-02 0.0 
1.114236887858e-04 1.736022341432e-02 0.0 
4.280364090681e-05 8.514647858995e-04 0.0 
2.081072130600e-05 1.158092620253e-02 0.0 
3.951398088020e-05 3.930662032126e-03 0.0 
2.552187698058e-03 1.976475506334e-02 0.0 
2.779413687485e-03 1.861399032441e-02 0.0 
2.592960034200e-03 1.809298084179e-02 0.0 
2.829302027777e-03 1.674925577054e-02 0.0 
2.642094267337e-03 1.596795692240e-02 0.0 
2.801525091606e-03 1.479111709845e-02 0.0 
3.004030171887e-03 1.550903913415e-02 0.0 
2.920526879244e-03 1.360840500834e-02 0.0 
3.129014465721e-03 1.429578937278e-02 0.0 
2.573115330129e-03 1.394683145238e-02 0.0 
2.991741048149e-03 1.243758413276e-02 0.0 
3.203322379957e-03 1.310403213228e-02 0.0 
3.014215084210e-03 1.129474562486e-02 0.0 
3.226585507477e-03 1.194554975744e-02 0.0 
3.375148322132e-03 1.367146881206e-02 0.0 
3.398590026215e-03 1.250978267353e-02 0.0 
3.501519777995e-03 1.413669841257e-02 0.0 
3.524723195543e-03 1.297595267081e-02 0.0 
3.374052380892e-03 1.139999950896e-02 0.0 
3.500486059462e-03 1.187497551803e-02 0.0 
3.602941850133e-03 1.335145839305e-02 0.0 
3.578943245426e-03 1.226423955965e-02 0.0 
3.632235160747e-03 1.363951657776e-02 0.0 
3.609174203735e-03 1.256842448659e-02 0.0 
3.613764909851e-03 1.384808948370e-02 0.0 
3.592919236127e-03 1.280003272472e-02 0.0 
3.543959022672e-03 1.156201816481e-02 0.0 
3.530885549118e-03 1.182100218878e-02 0.0 
3.532472972335e-03 1.296454426668e-02 0.0 
3.474470979754e-03 1.201673190242e-02 0.0 
3.430876188041e-03 1.306931066416e-02 0.0 
3.377804713267e-03 1.215564993429e-02 0.0 
3.380618503869e-03 1.113231153075e-02 0.0 
3.290008626148e-03 1.130846912368e-02 0.0 
3.244143814904e-03 1.224696427417e-02 0.0 
3.163793184566e-03 1.144023067019e-02 0.0 
3.077594256151e-03 1.229761578340e-02 0.0 
3.006204604784e-03 1.153356039776e-02 0.0 
2.882984883307e-03 1.231282286004e-02 0.0 
2.820600364206e-03 1.159486181918e-02 0.0 
2.907419074191e-03 1.082207321382e-02 0.0 
2.732102618918e-03 1.092638638800e-02 0.0 
2.611659634351e-03 1.163206699871e-02 0.0 
2.534918943400e-03 1.100995461901e-02 0.0 
2.620720113889e-03 1.030860996967e-02 0.0 
2.436137914305e-03 1.043758105005e-02 0.0 
2.490206039763e-03 9.735190977846e-03 0.0 
2.319177206406e-03 9.906981856007e-03 0.0 
2.237578147497e-03 1.054709020531e-02 0.0 
2.134400977344e-03 1.005844483313e-02 0.0 
2.187887968198e-03 9.410550157428e-03 0.0 
2.016640310103e-03 9.605518048451e-03 0.0 
1.938897079665e-03 1.020011641165e-02 0.0 
1.836900091339e-03 9.783150192110e-03 0.0 
1.888974611761e-03 9.176273891249e-03 0.0 
1.723230323009e-03 9.392228575434e-03 0.0 
1.652126718483e-03 9.951782209423e-03 0.0 
1.553254633579e-03 9.594718271060e-03 0.0 
1.602542679981e-03 9.013323381426e-03 0.0 
1.445469167336e-03 9.253613867212e-03 0.0 
1.381668110943e-03 9.789559927210e-03 0.0 
1.287856526686e-03 9.478543434138e-03 0.0 
1.332003521295e-03 8.918059483024e-03 0.0 
1.186470490426e-03 9.176717227703e-03 0.0 
1.213297294340e-03 8.589560565174e-03 0.0 
1.129479260891e-03 9.699284501199e-03 0.0 
1.041296960993e-03 9.423841459890e-03 0.0 
9.749488087465e-04 9.914111823145e-03 0.0 
8.993048332400e-04 9.660870219193e-03 0.0 
3.255235078463e-03 1.030666753694e-02 0.0 
8.292694442034e-04 1.011654181195e-02 0.0 
8.873427434075e-04 1.034007171734e-02 0.0 
7.634462654673e-04 9.887144081782e-03 0.0 
8.159268073005e-04 9.407119791794e-03 0.0 
6.924224890001e-04 1.030905249575e-02 0.0 
6.353165109552e-04 1.010186556774e-02 0.0 
5.663174243393e-04 1.049140643829e-02 0.0 
2.905519310403e-03 1.312218544530e-02 0.0 
3.303639228537e-03 1.034353104367e-02 0.0 
5.166017680267e-04 1.030507307461e-02 0.0 
4.525167248879e-04 1.066293119657e-02 0.0 
4.851261327676e-04 1.082598369649e-02 0.0 
3.793710358817e-04 1.096609421993e-02 0.0 
2.424041176646e-03 1.511158032963e-02 0.0 
2.324283088811e-03 1.301390528321e-02 0.0 
2.193280222244e-03 1.416618378182e-02 0.0 
2.060839807498e-03 1.201321564386e-02 0.0 
1.949949974637e-03 1.313425492306e-02 0.0 
3.514852593289e-04 1.082281915341e-02 0.0 
2.764043607975e-03 1.049857946602e-02 0.0 
2.139907040167e-03 1.086586110977e-02 0.0 
3.609380471360e-03 1.477937612104e-02 0.0 
3.444638207647e-03 1.405409779235e-02 0.0 
2.641273693914e-03 9.541596583849e-03 0.0 
5.693852534412e-04 9.891314638448e-03 0.0 
4.573118893454e-04 1.011449492615e-02 0.0 
4.959685441506e-04 9.675719197766e-03 0.0 
1.342906593640e-03 8.290503241792e-03 0.0 
1.208453624372e-03 7.937603306580e-03 0.0 
1.318167594260e-03 7.595098877992e-03 0.0 
1.170866104498e-03 7.218296710162e-03 0.0 
1.256835620781e-03 6.830635129369e-03 0.0 
1.100098157941e-03 6.429286079621e-03 0.0 
1.025887880639e-03 6.842283073546e-03 0.0 
9.486227164608e-04 6.026740871329e-03 0.0 
8.848416508833e-04 6.464122419777e-03 0.0 
1.158734799075e-03 5.995227370546e-03 0.0 
1.327604531516e-03 6.421943690018e-03 0.0 
8.039340009454e-04 5.621251577484e-03 0.0 
7.491875999861e-04 6.081073587826e-03 0.0 
6.673780216619e-04 5.209860214395e-03 0.0 
6.203350335117e-04 5.691502035647e-03 0.0 
6.812287704099e-04 6.520965555540e-03 0.0 
5.595084201389e-04 6.152711718503e-03 0.0 
6.030329474545e-04 6.941337432515e-03 0.0 
2.481642140246e-03 8.966001573441e-03 0.0 
2.595194149695e-03 8.705788508315e-03 0.0 
2.409140905904e-03 8.127722847192e-03 0.0 
2.480496783104e-03 7.799472788449e-03 0.0 
2.271520152796e-03 7.217959341943e-03 0.0 
2.296508471904e-03 6.821420102730e-03 0.0 
2.067908547811e-03 6.234745978075e-03 0.0 
2.056754153923e-03 6.663264157387e-03 0.0 
2.988903052369e-03 1.017247256432e-02 0.0 
2.385153849211e-03 1.164796741059e-02 0.0 
2.423962511315e-03 1.227569603153e-02 0.0 
2.173042213673e-03 1.222546843848e-02 0.0 
2.170814605758e-03 1.285701135644e-02 0.0 
1.900731921257e-03 1.274172714129e-02 0.0 
1.854015346549e-03 1.338006541045e-02 0.0 
1.569433382262e-03 1.320204241814e-02 0.0 
1.629395326653e-03 1.262135301690e-02 0.0 
1.288643845836e-03 1.302493013870e-02 0.0 
1.361599885438e-03 1.250369544195e-02 0.0 
1.018516113298e-03 1.285406029790e-02 0.0 
1.102649217160e-03 1.239502461802e-02 0.0 
3.440605796968e-03 1.061861252572e-02 0.0 
2.518760404836e-03 7.435291534057e-03 0.0 
2.284297595029e-03 6.385107094779e-03 0.0 
2.518792429640e-03 7.029388923518e-03 0.0 
3.947481144833e-04 1.110649022429e-02 0.0 
4.993667129467e-04 5.293527391995e-03 0.0 
1.197897386092e-03 5.537313140501e-03 0.0 
1.379631613593e-03 5.997387450355e-03 0.0 
1.837175173605e-03 5.670695130178e-03 0.0 
2.882458699727e-04 1.109484700664e-02 0.0 
1.476145988232e-03 1.384838126986e-02 0.0 
1.768887425015e-03 1.409071037713e-02 0.0 
1.791391821172e-03 1.092905059474e-02 0.0 
1.702582665018e-03 1.203381233862e-02 0.0 
1.213444314974e-03 5.054349167898e-03 0.0 
2.635464016372e-04 1.096993759431e-02 0.0 
8.420834011424e-04 5.139851872638e-03 0.0 
8.990933192514e-04 1.337460476624e-02 0.0 
4.441932919175e-04 5.775972111454e-03 0.0 
3.872792396429e-04 4.886614269463e-03 0.0 
9.397917158669e-04 7.234046930716e-03 0.0 
2.230419277804e-03 5.903856432255e-03 0.0 
2.481532475134e-03 6.594494925919e-03 0.0 
1.406264431310e-03 1.203603813683e-02 0.0 
1.158908852634e-03 1.198499183183e-02 0.0 
8.591983970856e-04 1.229750147082e-02 0.0 
9.352811112926e-04 1.192525879840e-02 0.0 
1.191623851758e-03 1.160936535450e-02 0.0 
9.736657735626e-04 1.161161805722e-02 0.0 
7.248499027828e-04 1.189002816480e-02 0.0 
7.743022151292e-04 1.161900793179e-02 0.0 
9.929369097978e-04 1.131802241089e-02 0.0 
8.047712633932e-04 1.136506402940e-02 0.0 
5.959875745116e-04 1.163351865257e-02 0.0 
6.363952763628e-04 1.141406198344e-02 0.0 
4.233990605096e-04 4.360903288383e-03 0.0 
6.335799610611e-04 1.315126412775e-02 0.0 
3.428005612989e-03 1.534988386208e-02 0.0 
1.028551845552e-03 4.577396841462e-03 0.0 
1.802527746413e-03 5.191155596284e-03 0.0 
1.521703173019e-03 9.782307568679e-03 0.0 
1.455586755966e-03 1.087639008662e-02 0.0 
1.591495670212e-03 1.313104080089e-02 0.0 
1.367209181176e-03 1.195856444660e-02 0.0 
1.213829632988e-03 9.669759308768e-03 0.0 
1.148033171852e-03 1.074793554819e-02 0.0 
1.263519036854e-03 1.302627174965e-02 0.0 
1.065350518196e-03 1.181158710199e-02 0.0 
1.150114625233e-03 1.407362384615e-02 0.0 
9.708546568632e-04 1.285767064008e-02 0.0 
8.750678659624e-04 1.056581483166e-02 0.0 
7.983154379829e-04 1.161689795290e-02 0.0 
8.685575914171e-04 1.388734858142e-02 0.0 
7.112162730962e-04 1.265288156072e-02 0.0 
7.611077161727e-04 1.489884618739e-02 0.0 
6.163321935944e-04 1.367304789260e-02 0.0 
5.629225584087e-04 1.139807904361e-02 0.0 
2.146122193309e-04 1.120237036746e-02 0.0 
1.840236237021e-03 6.130888753326e-03 0.0 
1.607770769219e-03 5.124069004408e-03 0.0 
3.925299276917e-04 9.917274047725e-03 0.0 
4.204531472913e-04 9.452833360466e-03 0.0 
5.230317033922e-04 9.177749198193e-03 0.0 
4.317003030492e-04 8.930460211563e-03 0.0 
4.780767959929e-04 1.243896226585e-02 0.0 
4.261168211954e-04 1.012717271329e-02 0.0 
1.345878921970e-03 1.456886077536e-02 0.0 
1.641244623070e-03 1.488133655470e-02 0.0 
1.558340766984e-03 8.680193100744e-03 0.0 
3.361946046407e-04 5.389572955592e-03 0.0 
3.776148432912e-04 6.237647874624e-03 0.0 
3.300713639309e-03 1.406402163294e-02 0.0 
3.265386035512e-03 1.508383453559e-02 0.0 
3.083233005267e-03 1.500370729794e-02 0.0 
2.985815381898e-03 1.607606581862e-02 0.0 
3.179622628259e-03 1.618446334517e-02 0.0 
2.766293217686e-03 1.590620011835e-02 0.0 
1.502049733460e-03 6.865993256373e-03 0.0 
6.964569171899e-04 9.295697029884e-03 0.0 
5.052686855587e-04 1.098754885418e-02 0.0 
3.955819548658e-04 1.124615823951e-02 0.0 
2.852985488482e-04 4.469007987689e-03 0.0 
2.013318116783e-03 7.059896370128e-03 0.0 
3.404139249216e-03 1.026465430279e-02 0.0 
3.260965907380e-03 9.350175452207e-03 0.0 
3.172234136301e-03 8.901528142635e-03 0.0 
2.990480720523e-03 8.015640864025e-03 0.0 
2.846319027256e-03 7.472617808510e-03 0.0 
2.626795181143e-03 6.614513756723e-03 0.0 
2.779702677110e-03 7.179085304816e-03 0.0 
2.129425233285e-03 5.366512099766e-03 0.0 
2.380922512792e-03 5.797134955714e-03 0.0 
5.240484831361e-04 1.469812222681e-02 0.0 
2.731507464482e-03 8.091325684035e-03 0.0 
9.927169086232e-04 1.104476766685e-02 0.0 
2.266293550166e-04 1.130453769813e-02 0.0 
4.365341958970e-04 1.165719767109e-02 0.0 
1.892139504349e-04 1.110188793049e-02 0.0 
2.279023293283e-04 1.083890828497e-02 0.0 
1.004872570851e-03 4.039260300878e-03 0.0 
2.423728248250e-03 5.977339604510e-03 0.0 
2.652868273511e-03 6.856471671753e-03 0.0 
2.836079819637e-03 1.723272351791e-02 0.0 
3.039804022571e-03 1.736471440195e-02 0.0 
1.862550418231e-03 4.701775551890e-03 0.0 
2.034094154006e-03 1.531818683698e-02 0.0 
1.332175548029e-03 1.526038145080e-02 0.0 
1.195929791820e-03 1.628525700009e-02 0.0 
1.501710905933e-04 1.132539904710e-02 0.0 
3.775098191596e-04 1.184813385032e-02 0.0 
9.827956269319e-04 8.425776451904e-03 0.0 
2.053428672223e-03 1.433389354865e-02 0.0 
1.931934580355e-03 1.518573477790e-02 0.0 
4.667066512418e-04 1.366961567004e-02 0.0 
2.117692438901e-04 1.339592177985e-02 0.0 
3.559019733501e-04 1.115364158541e-02 0.0 
3.068264322295e-04 8.836959377895e-03 0.0 
5.350909531705e-04 8.620276600700e-03 0.0 
4.355135568774e-04 8.345817668372e-03 0.0 
1.201024697838e-03 4.539631686939e-03 0.0 
4.896787220261e-04 1.146262967676e-02 0.0 
3.546988328154e-04 7.769556249350e-03 0.0 
1.810825119946e-03 6.556447529313e-03 0.0 
1.941885635972e-03 7.427079533318e-03 0.0 
3.309672796936e-04 9.226109758114e-03 0.0 
1.167618432220e-03 1.537392684744e-02 0.0 
8.706488899470e-04 1.499278165000e-02 0.0 
1.185410506142e-03 1.096125220832e-02 0.0 
6.562417033642e-04 1.120797056294e-02 0.0 
1.553620388317e-04 1.098793100161e-02 0.0 
9.484241956681e-04 3.468309608330e-03 0.0 
1.003644867225e-03 7.339494655724e-03 0.0 
2.545957623251e-03 6.389086530096e-03 0.0 
2.885207571367e-03 7.683677009933e-03 0.0 
2.115235376483e-03 5.022859453998e-03 0.0 
3.157498654005e-04 1.166641248352e-02 0.0 
8.202709480809e-04 3.538516607129e-03 0.0 
2.371715947529e-04 4.992618672786e-03 0.0 
2.192991367821e-03 5.341970160210e-03 0.0 
2.410608918986e-03 6.165674352022e-03 0.0 
2.326058458273e-03 1.456569362863e-02 0.0 
2.221488710127e-03 1.546954813470e-02 0.0 
1.764974681141e-03 1.612730220277e-02 0.0 
2.058945719337e-03 1.646773285980e-02 0.0 
3.173024591035e-03 1.612489415868e-02 0.0 
2.590002614831e-03 1.476850802313e-02 0.0 
3.507776945018e-03 1.571481057765e-02 0.0 
3.383400329611e-03 1.697877453811e-02 0.0 
3.412526497453e-03 1.724334707712e-02 0.0 
3.331681702868e-03 1.624423630760e-02 0.0 
3.200435640590e-03 1.745292767468e-02 0.0 
2.431129865887e-03 1.296808242338e-02 0.0 
2.768419295375e-03 9.321266313354e-03 0.0 
6.327558797290e-04 8.886946214368e-03 0.0 
7.224973645776e-04 7.278015096166e-03 0.0 
1.466023092782e-03 7.975330486399e-03 0.0 
7.411563699549e-04 8.226363496501e-03 0.0 
5.613302714451e-04 6.927039334773e-03 0.0 
9.107102119543e-04 1.610378663677e-02 0.0 
7.892231346673e-04 1.708854901061e-02 0.0 
2.991414781883e-04 1.133385871962e-02 0.0 
2.828278677578e-04 1.145239992991e-02 0.0 
1.091474606985e-03 8.263919653992e-03 0.0 
8.541817901566e-04 4.101392182562e-03 0.0 
1.271073425841e-03 7.489938660978e-03 0.0 
1.248818890147e-03 6.392026742098e-03 0.0 
1.558238990029e-03 7.572688633886e-03 0.0 
1.155629364243e-03 3.990555041870e-03 0.0 
2.148045137243e-03 1.165091007998e-02 0.0 
2.309777192508e-03 8.426476540228e-03 0.0 
3.904286782053e-04 1.295418198754e-02 0.0 
3.300208485967e-03 1.004926476893e-02 0.0 
2.040376738952e-04 1.150822762969e-02 0.0 
3.130755948469e-03 9.779943455229e-03 0.0 
1.949400790160e-04 4.040408714342e-03 0.0 
2.254990115418e-04 3.473496532113e-03 0.0 
1.701583366621e-03 4.092272641838e-03 0.0 
2.891516687022e-03 1.919691405667e-02 0.0 
3.139673243233e-03 9.242771640881e-03 0.0 
3.103374968585e-03 9.538851489854e-03 0.0 
3.235212687247e-03 1.854913889894e-02 0.0 
3.212615577961e-03 1.871362010170e-02 0.0 
3.391674193018e-03 1.740823455211e-02 0.0 
3.136582999065e-03 1.878876607331e-02 0.0 
1.154473346505e-03 1.067335630455e-02 0.0 
9.741126831404e-04 1.079142357668e-02 0.0 
1.884030983675e-03 4.368851108485e-03 0.0 
1.903815507255e-03 4.391404046665e-03 0.0 
1.905761474472e-03 4.601290565404e-03 0.0 
2.119382451482e-03 5.385508120121e-03 0.0 
1.416982566660e-03 3.425456612767e-03 0.0 
1.591529871607e-03 4.059234458833e-03 0.0 
1.820295588892e-04 1.070004568815e-02 0.0 
2.847903427206e-03 1.860671492125e-02 0.0 
7.661247819826e-04 6.059987617210e-03 0.0 
3.207115731602e-03 1.828509759511e-02 0.0 
6.548643580224e-04 3.065099692972e-03 0.0 
6.930050405511e-04 3.624646380853e-03 0.0 
-1.291909292078e-05 1.315801379437e-02 0.0 
1.787018683164e-04 1.274184475647e-02 0.0 
2.431197215103e-04 6.504779933810e-03 0.0 
1.549552393371e-03 1.714599331555e-02 0.0 
1.833954946928e-03 1.754417736683e-02 0.0 
1.253464344224e-03 1.670805316650e-02 0.0 
2.933358369128e-05 1.824731756898e-03 0.0 
2.092693576969e-04 2.107826861494e-02 0.0 
1.460616489037e-04 3.013549055876e-03 0.0 
3.447486089481e-03 1.624032988374e-02 0.0 
2.632695131695e-04 5.322280210297e-03 0.0 
2.958010311552e-03 8.492889763092e-03 0.0 
3.117427915534e-03 1.404037378487e-02 0.0 
1.407070971393e-03 5.044586696554e-03 0.0 
1.964541451542e-04 7.778314328256e-03 0.0 
1.463030444313e-04 5.122377612516e-03 0.0 
1.355795705202e-03 1.740691484392e-02 0.0 
1.209534994366e-03 1.844067422335e-02 0.0 
1.512990273106e-03 1.640981965513e-02 0.0 
7.505017740392e-04 1.396234842229e-02 0.0 
2.140233824477e-04 1.434971183308e-02 0.0 
5.329934381635e-04 8.004149290283e-03 0.0 
3.560501873672e-04 1.032459402189e-02 0.0 
2.918209867029e-04 1.010155827859e-02 0.0 
5.105892855983e-04 1.129742731591e-02 0.0 
6.538697628198e-04 1.102068420428e-02 0.0 
6.401216840306e-04 8.297497859530e-03 0.0 
7.454828283855e-04 8.583428225361e-03 0.0 
3.011980947438e-03 8.755917363512e-03 0.0 
2.792810161587e-03 8.112212075016e-03 0.0 
3.321387496594e-03 9.845682636460e-03 0.0 
1.753466789207e-03 6.951799784344e-03 0.0 
1.847272675585e-03 7.768011485853e-03 0.0 
2.020161997379e-03 8.222882908981e-03 0.0 
5.750211156013e-04 5.918354492156e-03 0.0 
3.841328580947e-04 4.392554273636e-03 0.0 
1.344507915087e-03 1.056102926849e-02 0.0 
1.389157197313e-03 1.088331761418e-02 0.0 
1.105980394897e-03 1.041260039918e-02 0.0 
7.400855876156e-04 5.010098999637e-03 0.0 
1.615382827045e-04 2.433269894563e-03 0.0 
2.404222927899e-04 2.924045758402e-03 0.0 
1.741958940684e-04 1.160257429233e-02 0.0 
2.516608121113e-04 1.157118369533e-02 0.0 
6.509482456281e-04 1.579953557305e-02 0.0 
3.474460824009e-04 1.536492690421e-02 0.0 
1.201226775045e-03 5.384870120391e-03 0.0 
1.518602256162e-03 6.486522811961e-03 0.0 
8.629446538890e-04 4.074071225418e-03 0.0 
1.101281043736e-04 1.088113613111e-02 0.0 
2.659052934643e-03 6.901208548044e-03 0.0 
8.782954143545e-04 2.922749796294e-03 0.0 
1.098492445932e-03 3.472141120817e-03 0.0 
6.373551379255e-04 2.243887469007e-03 0.0 
1.994495119032e-03 4.821788112039e-03 0.0 
1.510509740363e-03 3.491302333448e-03 0.0 
1.587069627568e-03 3.584519955041e-03 0.0 
-2.301282736923e-04 1.357542662578e-02 0.0 
1.096774131071e-04 6.121877633394e-03 0.0 
9.285656911544e-04 1.826471970243e-02 0.0 
-3.719900862187e-04 1.333615237324e-02 0.0 
7.975422717337e-04 1.929484868202e-02 0.0 
6.720471724435e-04 1.807021651742e-02 0.0 
6.874111974327e-04 2.029741833817e-02 0.0 
9.447787877814e-05 1.112270903631e-02 0.0 
1.514868469854e-03 1.887729230826e-02 0.0 
1.699605433259e-03 1.760073118607e-02 0.0 
1.027493985042e-04 1.172397763876e-02 0.0 
5.023125514043e-04 3.726953668497e-03 0.0 
1.203911013290e-04 1.162334442175e-02 0.0 
1.483606143955e-04 1.154921608126e-02 0.0 
5.000179821870e-04 2.548042426994e-03 0.0 
5.453521998309e-04 3.139226467617e-03 0.0 
3.620373621764e-04 2.048910983444e-03 0.0 
4.220141231794e-04 2.706814856626e-03 0.0 
5.681321757534e-04 3.726016313937e-03 0.0 
4.407702827987e-04 3.257761550461e-03 0.0 
1.074404226991e-03 1.959651542380e-02 0.0 
2.884424527112e-04 2.052978190882e-03 0.0 
3.256025324454e-04 2.758135297608e-03 0.0 
1.893564951008e-04 1.580037176002e-03 0.0 
2.898501205856e-03 2.015721409933e-02 0.0 
2.312539187926e-03 1.679417511987e-02 0.0 
2.088830874740e-03 1.794100600699e-02 0.0 
1.525982856101e-03 1.877009347877e-02 0.0 
1.443209727842e-03 3.415195770817e-03 0.0 
1.815478456674e-03 4.619783796411e-03 0.0 
1.476529614879e-04 4.564135076935e-03 0.0 
1.692204611572e-04 5.474741282933e-03 0.0 
5.526275475773e-04 1.919342284791e-02 0.0 
4.042086506928e-04 1.927732554451e-02 0.0 
4.442330655934e-04 1.733802540546e-02 0.0 
3.203050896516e-04 1.757277671476e-02 0.0 
3.469632412987e-04 1.562678230964e-02 0.0 
2.229665873301e-04 1.587485435600e-02 0.0 
2.665518134179e-04 1.388583727628e-02 0.0 
1.314521255640e-03 2.881098432461e-03 0.0 
9.557661686337e-04 1.771233935011e-02 0.0 
2.998426144522e-03 1.991886257853e-02 0.0 
1.130457077434e-03 2.776125843560e-03 0.0 
1.358522245276e-03 3.541605923207e-03 0.0 
3.014025258757e-03 1.872771318322e-02 0.0 
2.583146388659e-03 1.995417975888e-02 0.0 
5.433367650713e-04 2.286991636161e-03 0.0 
2.647472534207e-03 1.389064272698e-02 0.0 
3.811725495666e-04 2.369913691489e-03 0.0 
-9.721821430446e-04 1.483485439976e-02 0.0 
-3.921770133744e-04 1.447864676936e-02 0.0 
2.885502710711e-03 1.400850806384e-02 0.0 
3.320738189146e-03 1.747714250573e-02 0.0 
2.579719201435e-03 1.705279237997e-02 0.0 
2.400347274733e-03 1.822159984048e-02 0.0 
1.609021452744e-03 6.052952444028e-03 0.0 
1.978622817163e-04 1.169987096309e-02 0.0 
9.536914970454e-04 1.625198776412e-02 0.0 
3.888543169595e-04 1.366400933800e-02 0.0 
3.736205538623e-04 1.665198476799e-02 0.0 
7.745865229725e-05 4.984301798491e-03 0.0 
2.676229342839e-03 1.306130781205e-02 0.0 
3.522200474798e-03 1.507578906784e-02 0.0 
1.469883746484e-03 1.575027982334e-02 0.0 
2.516189627134e-03 1.570327894615e-02 0.0 
3.301363374234e-03 1.488059660079e-02 0.0 
2.996464012021e-03 1.738090613273e-02 0.0 
3.118226670665e-03 1.792484245011e-02 0.0 
2.661670941233e-03 1.231290477569e-02 0.0 
2.645631682977e-03 1.843791376339e-02 0.0 
2.125005102535e-03 1.953998687526e-02 0.0 
3.580600591238e-03 1.450526919607e-02 0.0 
1.870855561194e-03 8.689550119005e-03 0.0 
1.846381994341e-03 7.573649757408e-03 0.0 
1.443375308511e-03 5.473147000227e-03 0.0 
1.776111687469e-03 6.495303305019e-03 0.0 
2.169577018684e-03 8.602737313765e-03 0.0 
2.112222165174e-03 7.503261204377e-03 0.0 
1.659317825634e-03 5.469310033163e-03 0.0 
2.006509776781e-03 6.439571366656e-03 0.0 
1.373947766115e-03 4.048598911755e-03 0.0 
1.836618437309e-03 5.371188921320e-03 0.0 
2.339232275940e-03 7.389560431111e-03 0.0 
2.202251735742e-03 6.397335998781e-03 0.0 
1.702923927269e-03 4.629073966441e-03 0.0 
2.657672382568e-03 8.360230876077e-03 0.0 
9.057590606503e-04 2.112304345420e-03 0.0 
3.113282724328e-03 1.314369386225e-02 0.0 
-8.369253475138e-06 1.391585150180e-02 0.0 
-1.611011866167e-04 1.492758000304e-02 0.0 
3.589851115883e-03 1.496617221504e-02 0.0 
6.890640694763e-04 1.979120190182e-03 0.0 
5.902424562194e-04 2.026505212992e-03 0.0 
2.130855380667e-03 1.356039455101e-02 0.0 
7.319817187934e-04 1.609568430418e-03 0.0 
3.299739908549e-03 1.661728503913e-02 0.0 
1.181143813117e-03 1.361249266708e-02 0.0 
7.200196230457e-04 1.521775708770e-03 0.0 
2.177984770640e-03 9.723158991408e-03 0.0 
2.473209841227e-03 1.072170927720e-02 0.0 
2.419567727394e-03 1.186797373340e-02 0.0 
4.644943475967e-04 1.941776041047e-03 0.0 
1.670385176681e-03 1.536265682501e-02 0.0 
5.876372755118e-04 1.267249084041e-03 0.0 
2.679859425534e-03 8.414041427358e-03 0.0 
2.866223885022e-03 9.081498033604e-03 0.0 
2.923032710388e-03 9.988075362200e-03 0.0 
2.436142954828e-03 8.492446619835e-03 0.0 
4.893751998445e-04 1.221882244277e-03 0.0 
8.721022863902e-04 2.309370923957e-03 0.0 
8.051813060490e-04 2.266324381189e-03 0.0 
1.205725453637e-03 3.401765578928e-03 0.0 
4.146617523570e-04 1.171871828284e-03 0.0 
6.761500675587e-04 1.690509893919e-03 0.0 
6.592860363028e-04 1.561648913430e-03 0.0 
1.198149544289e-03 1.127338673671e-02 0.0 
1.417396235599e-03 1.123030307459e-02 0.0 
1.601239949654e-03 1.080523358707e-02 0.0 
1.643880304568e-03 1.119432074515e-02 0.0 
1.423839748455e-03 1.161444430666e-02 0.0 
1.664037924183e-03 1.162328195128e-02 0.0 
1.872007509736e-03 1.116285368924e-02 0.0 
1.659063404666e-03 1.209915434888e-02 0.0 
2.344463145455e-03 6.360494693062e-03 0.0 
3.340770480627e-04 1.095252614196e-03 0.0 
1.417156294282e-03 7.235784226777e-03 0.0 
1.578799488426e-03 7.654371193345e-03 0.0 
1.611539940830e-03 8.368404262193e-03 0.0 
7.267809914238e-04 9.148446521996e-03 0.0 
8.480903500692e-04 8.866487871328e-03 0.0 
8.582290093999e-04 8.264629841557e-03 0.0 
6.087391654690e-04 9.419284799835e-03 0.0 
3.086548572998e-03 8.491563276142e-03 0.0 
3.019920251930e-04 1.090473224874e-03 0.0 
2.128900753959e-03 7.914636660745e-03 0.0 
9.470856071445e-04 9.147041659796e-03 0.0 
1.931168210589e-03 2.068032330044e-02 0.0 
2.113481499066e-03 1.880248652800e-02 0.0 
2.331470998350e-03 1.852970193959e-02 0.0 
2.253192419204e-03 1.660156461719e-02 0.0 
1.882247593912e-03 1.875010548678e-02 0.0 
5.337993693812e-04 8.003332217738e-03 0.0 
4.278290710573e-04 7.701621356029e-03 0.0 
3.346567508933e-04 8.063597792839e-03 0.0 
3.231920638305e-04 7.391013776065e-03 0.0 
2.338402005955e-04 7.770054183601e-03 0.0 
2.423091530432e-04 8.393811819278e-03 0.0 
2.187696329718e-04 7.070338427440e-03 0.0 
1.352395715490e-04 7.546273600409e-03 0.0 
1.560048565906e-03 2.092967936725e-02 0.0 
-3.674231614674e-04 1.261940617832e-02 0.0 
-7.218842292112e-05 1.241445293349e-02 0.0 
-3.072180891728e-05 1.220758820650e-02 0.0 
1.658484552038e-04 1.220064483156e-02 0.0 
1.702047846521e-04 1.241213939358e-02 0.0 
4.393490637451e-04 1.213029484873e-02 0.0 
4.189119180644e-04 1.239903833994e-02 0.0 
-1.244551890611e-04 1.268492416855e-02 0.0 
-1.942665662753e-04 1.219316239456e-02 0.0 
1.083754842668e-05 1.204507369503e-02 0.0 
-1.267967740510e-04 1.204361658866e-02 0.0 
3.695763836298e-05 1.192041445419e-02 0.0 
2.163806891726e-04 1.185718471710e-02 0.0 
3.857883689076e-04 1.138024577954e-02 0.0 
8.289949143059e-05 1.225888581278e-03 0.0 
8.894268205228e-05 9.216265748726e-03 0.0 
1.694686786022e-04 9.472513783669e-03 0.0 
1.561181349214e-04 9.918289047198e-03 0.0 
2.508379409720e-04 9.688297213216e-03 0.0 
1.700749692883e-04 9.001389727780e-03 0.0 
7.437069026239e-05 1.013694080820e-02 0.0 
1.410250521370e-04 1.027638068174e-02 0.0 
3.521813832297e-05 1.158489702824e-02 0.0 
4.177117485060e-05 1.153708180167e-02 0.0 
1.739837999892e-05 1.153994430788e-02 0.0 
4.489048243861e-05 1.144676847502e-02 0.0 
7.235361505664e-05 1.145515701854e-02 0.0 
6.204459532411e-05 1.154309806716e-02 0.0 
7.914002876719e-05 1.155533353582e-02 0.0 
5.225564572875e-05 1.161156323961e-02 0.0 
9.269080659635e-05 1.157279169241e-02 0.0 
1.267253085189e-04 1.147089397063e-02 0.0 
5.306661559334e-05 1.163357069023e-02 0.0 
8.626639566245e-05 1.090608995071e-02 0.0 
1.652243778594e-04 9.756489919290e-03 0.0 
2.575873581083e-04 1.137448838552e-03 0.0 
1.222326479692e-03 2.086009511515e-02 0.0 
-2.539505013210e-05 1.183378263819e-02 0.0 
1.382988884586e-04 2.575003295252e-03 0.0 
2.163360822109e-04 2.130360355125e-03 0.0 
1.732443086482e-04 2.066637631632e-03 0.0 
4.849161583564e-05 2.970098589092e-03 0.0 
7.870066567506e-05 2.442751357410e-03 0.0 
7.398724144991e-05 2.504762728311e-03 0.0 
6.045460748325e-04 1.067534201757e-02 0.0 
1.322982882748e-03 4.501386660216e-03 0.0 
3.873961671843e-04 6.689117102020e-03 0.0 
1.047777238650e-03 1.425994957545e-02 0.0 
8.067794796354e-04 1.090770974344e-02 0.0 
2.687534874277e-04 5.863944199833e-03 0.0 
8.084060087814e-04 6.878906501504e-03 0.0 
3.184360909794e-04 3.931457057405e-03 0.0 
4.877974627666e-04 6.593784541181e-03 0.0 
5.401393530704e-04 4.789599500121e-03 0.0 
7.587369761151e-04 2.300305549760e-03 0.0 
1.300871931513e-04 1.121295444703e-02 0.0 
1.031448270922e-03 1.509892256863e-02 0.0 
6.564141759000e-04 1.590199325712e-02 0.0 
6.360223962503e-04 1.035395163523e-02 0.0 
4.089407501500e-04 1.049646873555e-02 0.0 
3.407017481027e-04 8.644312813090e-03 0.0 
3.014379364856e-04 1.121385705177e-02 0.0 
1.310243774427e-03 2.915268071327e-03 0.0 
3.536149801032e-03 1.599066933864e-02 0.0 
1.474801409435e-03 8.648642358846e-03 0.0 
6.894586569990e-04 9.655043218457e-03 0.0 
7.397978561894e-04 1.051103614744e-02 0.0 
8.155352356631e-04 1.112753346074e-02 0.0 
3.290454937407e-03 1.312514707630e-02 0.0 
1.080420783859e-03 8.874857509042e-03 0.0 
9.964008878196e-04 5.568872430596e-03 0.0 
4.870328908595e-04 9.071743996579e-03 0.0 
4.074906564888e-05 1.169888101575e-02 0.0 
1.024378129225e-03 5.086498896185e-03 0.0 
1.073659827757e-03 7.586505910922e-03 0.0 
1.466172112281e-03 1.421049002024e-02 0.0 
2.043253571767e-03 5.771575371687e-03 0.0 
5.431574834542e-04 1.185503384474e-02 0.0 
9.384111706723e-04 9.504826452748e-03 0.0 
9.670651033602e-04 5.300127435078e-03 0.0 
1.865535992152e-03 1.645929005259e-02 0.0 
2.197391916869e-04 1.141160556320e-02 0.0 
1.063633329046e-03 1.731712052223e-02 0.0 
7.538125805819e-04 2.942847008374e-03 0.0 
1.849818038657e-03 9.807861514949e-03 0.0 
3.125329602458e-04 1.067473727613e-02 0.0 
2.344641867673e-03 9.199971367714e-03 0.0 
3.550041855522e-03 1.398150720440e-02 0.0 
2.676414565535e-03 2.097580655744e-02 0.0 
4.046373869571e-04 5.688418499417e-03 0.0 
3.173002844264e-03 1.052359024817e-02 0.0 
1.557244460592e-03 4.599345533492e-03 0.0 
2.214009743334e-03 7.580786764846e-03 0.0 
2.648667720768e-04 1.051369861883e-02 0.0 
7.073288552721e-04 4.178863585331e-03 0.0 
2.784333146177e-03 1.015774269398e-02 0.0 
7.675983398485e-04 7.161452570688e-03 0.0 
3.035437285195e-03 8.381245861813e-03 0.0 
2.322149336241e-03 1.107552883631e-02 0.0 
1.256989453957e-03 8.583721785158e-03 0.0 
1.752874090649e-03 8.767325557622e-03 0.0 
1.975702994688e-03 5.260821812804e-03 0.0 
3.516815488119e-03 1.615568656721e-02 0.0 
3.511495839042e-03 1.123576121110e-02 0.0 
3.203965607703e-03 1.084663105145e-02 0.0 
3.431815916738e-03 1.090459175622e-02 0.0 
1.833108803759e-04 6.321628014447e-03 0.0 
8.602626213019e-04 4.634759983265e-03 0.0 
7.663936742013e-04 1.270479702185e-02 0.0 
2.858254892537e-03 1.490022870734e-02 0.0 
1.815590732598e-03 1.425218045756e-02 0.0 
2.182698234758e-03 5.191611879908e-03 0.0 
5.493563454309e-04 4.758164372422e-03 0.0 
3.413282523674e-03 1.510964986077e-02 0.0 
6.977312005150e-04 4.708617227868e-03 0.0 
1.001543801031e-03 6.320546776994e-03 0.0 
9.705634939579e-04 8.572187157977e-03 0.0 
4.551999535252e-05 1.109082197571e-02 0.0 
5.804207456492e-04 1.462171799595e-02 0.0 
1.916361892349e-03 1.216504112140e-02 0.0 
3.055862304134e-03 1.069210766346e-02 0.0 
9.684760394126e-04 7.935516145984e-03 0.0 
1.053389112570e-03 4.088174135596e-03 0.0 
5.640534650651e-04 4.270211684936e-03 0.0 
1.406546800776e-03 5.537452000159e-03 0.0 
-5.190820110137e-04 1.636867328665e-02 0.0 
2.977509833194e-03 1.959797380784e-02 0.0 
4.422308941150e-04 3.822482075925e-03 0.0 
2.187218368233e-03 8.698284456489e-03 0.0 
1.722055822363e-03 4.655339147440e-03 0.0 
1.467881224713e-04 8.141154634597e-03 0.0 
1.298797942429e-03 2.856198060979e-03 0.0 
2.777414263587e-03 2.005022406021e-02 0.0 
3.330767401746e-04 3.364462354448e-03 0.0 
1.624546996847e-03 5.602595594228e-03 0.0 
2.398691256801e-03 1.372879207303e-02 0.0 
3.467591447688e-04 2.108204260374e-02 0.0 
2.102231928180e-04 2.114521914610e-03 0.0 
1.372290560672e-03 4.519081295914e-03 0.0 
3.303185981991e-03 9.732789169147e-03 0.0 
2.044570000876e-03 8.946255491686e-03 0.0 
2.676508362203e-03 2.154918340740e-02 0.0 
8.449424935568e-04 7.605666105915e-03 0.0 
3.432300163556e-03 1.083714804256e-02 0.0 
4.046077879067e-04 1.914020408289e-03 0.0 
1.325642233605e-03 4.045853313755e-03 0.0 
2.683801582549e-03 1.282746862704e-02 0.0 
7.443867722747e-04 7.961066425029e-03 0.0 
2.751086920583e-03 7.758073117529e-03 0.0 
9.981718786012e-05 1.146239795269e-02 0.0 
2.976891622026e-03 2.008672674936e-02 0.0 
6.302736860908e-04 7.649273685503e-03 0.0 
1.905721732662e-03 1.164105620275e-02 0.0 
1.893159824451e-03 8.505380676219e-03 0.0 
1.222350588936e-03 2.820494229134e-03 0.0 
5.180477958131e-04 7.329368943481e-03 0.0 
2.099709363932e-03 1.112272294194e-02 0.0 
4.084427908708e-04 7.001153887215e-03 0.0 
2.461365942789e-03 2.158822685931e-02 0.0 
2.745919015837e-03 1.162474132968e-02 0.0 
2.983791767965e-04 6.662942898442e-03 0.0 
3.190229673766e-03 9.340792737337e-03 0.0 
1.538031351362e-04 1.148212766608e-02 0.0 
3.136247021928e-03 8.904503652797e-03 0.0 
1.144055762279e-04 3.531778902339e-03 0.0 
1.044276270532e-03 1.016202808692e-02 0.0 
1.738274884564e-03 8.083024373258e-03 0.0 
2.478387435623e-03 9.588886643851e-03 0.0 
2.072142001790e-03 2.132613491278e-02 0.0 
1.676759220386e-03 7.318367897044e-03 0.0 
2.852415654854e-03 7.789878920510e-03 0.0 
2.945166664926e-03 8.123632616508e-03 0.0 
3.030810599753e-03 9.783959924652e-03 0.0 
1.566245054015e-03 6.469440660126e-03 0.0 
2.399449451115e-03 1.971482213160e-02 0.0 
6.282095332075e-04 1.085864727951e-02 0.0 
5.138649660630e-04 1.114102691091e-02 0.0 
2.028891966393e-03 1.064192386259e-02 0.0 
2.619488414265e-03 7.110178365533e-03 0.0 
8.059539018657e-05 1.132941103101e-02 0.0 
2.730897813180e-03 9.382480241433e-03 0.0 
3.580006240664e-04 1.152188045124e-02 0.0 
1.815859629419e-03 1.072681565871e-02 0.0 
2.388480703111e-03 6.065294734604e-03 0.0 
1.012398477371e-04 1.532001639097e-02 0.0 
1.741606005760e-03 1.032409636560e-02 0.0 
5.366426584263e-05 1.082454860936e-02 0.0 
1.541814310201e-03 1.044678619978e-02 0.0 
2.928924793007e-03 8.801704610066e-03 0.0 
1.468611679355e-03 1.010620296504e-02 0.0 
1.284797557794e-03 1.026028555628e-02 0.0 
2.707939952771e-04 4.365077664691e-03 0.0 
1.212615193880e-03 9.973397182897e-03 0.0 
3.627362035985e-05 2.076453200505e-03 0.0 
3.443781823065e-05 1.114629804629e-03 0.0 
1.308848494830e-04 1.952631916229e-02 0.0 
1.513665396317e-03 2.093479229987e-02 0.0 
-7.291438162689e-04 1.371463176171e-02 0.0 
1.927095745675e-03 1.894729612896e-02 0.0 
9.375208523181e-04 1.056186710527e-02 0.0 
2.917452916392e-03 9.130991194604e-03 0.0 
2.720682310411e-04 1.943302532095e-02 0.0 
7.777249136236e-04 1.070874880631e-02 0.0 
1.272199310609e-03 3.440977285724e-03 0.0 
6.348616149801e-04 1.330728549007e-03 0.0 
1.852488172318e-04 1.192255222006e-02 0.0 
1.489637082646e-03 4.123868070863e-03 0.0 
2.722435855766e-03 7.336637755927e-03 0.0 
5.416449268836e-05 6.360412622122e-03 0.0 
7.942069488465e-04 2.124393087664e-02 0.0 
6.059141625769e-05 1.182097416990e-02 0.0 
8.816968091552e-05 5.879295301394e-03 0.0 
9.716626537504e-04 2.003736379138e-02 0.0 
1.223318851448e-03 1.823441917353e-02 0.0 
6.449155845409e-04 1.719380522858e-02 0.0 
2.057917648277e-04 1.038019121029e-02 0.0 
1.720052025469e-04 1.202618715060e-02 0.0 
5.605208923534e-04 1.881681229206e-02 0.0 
9.565198489518e-04 2.427207577803e-03 0.0 
1.341164265440e-03 1.934879385655e-02 0.0 
2.298156392950e-03 5.644713850955e-03 0.0 
9.140913849848e-06 1.760809205079e-02 0.0 
6.994359025825e-04 4.119754337150e-03 0.0 
1.215861558023e-03 2.691468743375e-03 0.0 
1.782876818890e-04 9.919089829715e-04 0.0 
1.813207707940e-03 4.226200217708e-03 0.0 
6.830738459840e-05 1.611676767722e-02 0.0 
2.040266845967e-03 1.720935114492e-02 0.0 
1.313377522539e-03 2.984590492112e-03 0.0 
2.530928202731e-04 1.008844068202e-02 0.0 
1.271753175098e-04 9.461135409268e-04 0.0 
1.684431510583e-03 1.941385764114e-02 0.0 
1.630835428088e-04 4.077501127536e-03 0.0 
5.462155245457e-04 1.257873934847e-02 0.0 
8.179825858434e-05 3.958906733285e-03 0.0 
2.520315660970e-03 7.321069492349e-03 0.0 
5.606912182117e-04 1.688930901656e-02 0.0 
2.462908055691e-03 1.687889205590e-02 0.0 
9.513342042489e-05 1.925951501725e-03 0.0 
1.168206438351e-03 3.653285125139e-03 0.0 
-2.147411088238e-04 1.552433750409e-02 0.0 
2.907746575360e-04 1.215306676569e-02 0.0 
3.384459818729e-04 9.688329430979e-03 0.0 
-2.496848091091e-04 1.301498759314e-02 0.0 
4.483572665031e-04 2.074285303767e-03 0.0 
2.038512140107e-03 5.526566513115e-03 0.0 
1.596435898188e-04 1.968742737056e-03 0.0 
1.911186967851e-05 1.145394601801e-02 0.0 
8.316288954191e-05 1.169068633898e-02 0.0 
5.102534471124e-04 1.950060305834e-03 0.0 
1.233945951096e-03 2.999007402327e-03 0.0 
6.837396789674e-04 1.214352729065e-02 0.0 
2.343519246750e-04 1.658552555629e-03 0.0 
-6.022001328745e-04 1.511886188330e-02 0.0 
1.071420037938e-03 2.144447104655e-02 0.0 
9.652089784584e-05 1.160066944962e-02 0.0 
1.010755501420e-04 9.537963794060e-04 0.0 
4.055890341945e-04 3.886119331902e-03 0.0 
2.387548168903e-04 9.242878560999e-03 0.0 
2.343688663984e-03 2.000698498516e-02 0.0 
1.230238546310e-04 1.061100063035e-02 0.0 
1.720541061591e-03 3.910171507620e-03 0.0 
1.702257819076e-04 1.179244984250e-02 0.0 
2.722345771744e-04 3.680185867008e-03 0.0 
6.045642390280e-04 1.945475333635e-03 0.0 
8.408781451337e-04 3.509563128052e-03 0.0 
4.106511715385e-04 9.358518559708e-04 0.0 
-4.443068385349e-04 1.397994899173e-02 0.0 
1.087777638304e-03 2.364965760144e-03 0.0 
1.042720850810e-03 3.092096035722e-03 0.0 
6.005138139855e-04 2.132801478401e-02 0.0 
1.040140642509e-03 3.666253374686e-03 0.0 
2.165650993162e-04 1.006300602060e-02 0.0 
1.759404262147e-04 1.135875115511e-02 0.0 
1.556206278508e-05 1.840081474040e-03 0.0 
8.805201726414e-06 1.157823411471e-02 0.0 
1.018011760436e-04 2.131064564392e-02 0.0 
1.370586891969e-05 9.089279461598e-04 0.0 
1.060561193973e-04 1.136453157232e-02 0.0 
2.165495951445e-04 1.798958461257e-02 0.0 
1.168848462513e-03 2.967456553840e-03 0.0 
6.368196887108e-05 8.032650198690e-03 0.0 
1.256546568840e-04 7.910366596207e-03 0.0 
3.385409165038e-04 1.200338029373e-02 0.0 
-6.623194193054e-04 1.326415536482e-02 0.0 
1.757114693106e-04 1.421770429006e-02 0.0 
1.054469816001e-03 2.360282917948e-03 0.0 
6.551143692661e-04 3.422756828105e-03 0.0 
4.517248516223e-04 1.570605797708e-02 0.0 
1.949416885481e-04 1.495105661972e-02 0.0 
1.607447295623e-03 4.155339265793e-03 0.0 
2.559532597242e-04 8.832545556281e-03 0.0 
1.739648951958e-03 4.060305031434e-03 0.0 
1.199658091529e-03 3.217358215355e-03 0.0 
-1.024589318064e-03 1.537710071635e-02 0.0 
5.720197932524e-05 7.369192084072e-03 0.0 
9.252305785079e-05 1.163074921808e-02 0.0 
2.940684010451e-04 1.823315707867e-03 0.0 
1.698225904592e-04 8.570541735075e-03 0.0 
2.151030903690e-03 2.277879183913e-02 0.0 
7.213563468866e-05 2.376923682832e-02 0.0 

VECTORS node_bounda_dof_materi_velocity_x float
1.000000000000e+00 0.0 0.0 
1.000000000000e+00 0.0 0.0 
1.000000000000e+00 0.0 0.0 
1.000000000000e+00 0.0 0.0 
1.000000000000e+00 0.0 0.0 
1.000000000000e+00 0.0 0.0 
1.000000000000e+00 0.0 0.0 
1.000000000000e+00 0.0 0.0 
1.000000000000e+00 0.0 0.0 
1.000000000000e+00 0.0 0.0 
1.000000000000e+00 0.0 0.0 
1.000000000000e+00 0.0 0.0 
1.000000000000e+00 0.0 0.0 
1.000000000000e+00 0.0 0.0 
1.000000000000e+00 0.0 0.0 
1.000000000000e+00 0.0 0.0 
1.000000000000e+00 0.0 0.0 
1.000000000000e+00 0.0 0.0 
1.000000000000e+00 0.0 0.0 
1.000000000000e+00 0.0 0.0 
1.000000000000e+00 0.0 0.0 
1.000000000000e+00 0.0 0.0 
1.000000000000e+00 0.0 0.0 
1.000000000000e+00 0.0 0.0 
1.000000000000e+00 0.0 0.0 
1.000000000000e+00 0.0 0.0 
1.000000000000e+00 0.0 0.0 
1.000000000000e+00 0.0 0.0 
1.000000000000e+00 0.0 0.0 
1.000000000000e+00 0.0 0.0 
1.000000000000e+00 0.0 0.0 
1.000000000000e+00 0.0 0.0 
1.000000000000e+00 0.0 0.0 
1.000000000000e+00 0.0 0.0 
1.000000000000e+00 0.0 0.0 
1.000000000000e+00 0.0 0.0 
1.000000000000e+00 0.0 0.0 
1.000000000000e+00 0.0 0.0 
1.000000000000e+00 0.0 0.0 
1.000000000000e+00 0.0 0.0 
1.000000000000e+00 0.0 0.0 
1.000000000000e+00 0.0 0.0 
1.000000000000e+00 0.0 0.0 
1.000000000000e+00 0.0 0.0 
1.000000000000e+00 0.0 0.0 
1.000000000000e+00 0.0 0.0 
1.000000000000e+00 0.0 0.0 
1.000000000000e+00 0.0 0.0 
1.000000000000e+00 0.0 0.0 
1.000000000000e+00 0.0 0.0 
1.000000000000e+00 0.0 0.0 
1.000000000000e+00 0.0 0.0 
1.000000000000e+00 0.0 0.0 
1.000000000000e+00 0.0 0.0 
1.000000000000e+00 0.0 0.0 
1.000000000000e+00 0.0 0.0 
1.000000000000e+00 0.0 0.0 
1.000000000000e+00 0.0 0.0 
1.000000000000e+00 0.0 0.0 
1.000000000000e+00 0.0 0.0 
1.000000000000e+00 0.0 0.0 
1.000000000000e+00 0.0 0.0 
1.000000000000e+00 0.0 0.0 
1.000000000000e+00 0.0 0.0 
1.000000000000e+00 0.0 0.0 
1.000000000000e+00 0.0 0.0 
1.000000000000e+00 0.0 0.0 
1.000000000000e+00 0.0 0.0 
1.000000000000e+00 0.0 0.0 
1.000000000000e+00 0.0 0.0 
1.000000000000e+00 0.0 0.0 
1.000000000000e+00 0.0 0.0 
1.000000000000e+00 0.0 0.0 
1.000000000000e+00 0.0 0.0 
1.000000000000e+00 0.0 0.0 
1.000000000000e+00 0.0 0.0 
1.000000000000e+00 0.0 0.0 
1.000000000000e+00 0.0 0.0 
1.000000000000e+00 0.0 0.0 
1.000000000000e+00 0.0 0.0 
1.000000000000e+00 0.0 0.0 
0.0 0.0 0.0 
0.0 0.0 0.0 
0.0 0.0 0.0 
0.0 0.0 0.0 
0.0 0.0 0.0 
0.0 0.0 0.0 
0.0 0.0 0.0 
0.0 0.0 0.0 
0.0 0.0 0.0 
0.0 0.0 0.0 
0.0 0.0 0.0 
1.000000000000e+00 0.0 0.0 
0.0 0.0 0.0 
0.0 0.0 0.0 
0.0 0.0 0.0 
0.0 0.0 0.0 
0.0 0.0 0.0 
0.0 0.0 0.0 
0.0 0.0 0.0 
0.0 0.0 0.0 
0.0 0.0 0.0 
0.0 0.0 0.0 
0.0 0.0 0.0 
0.0 0.0 0.0 
0.0 0.0 0.0 
0.0 0.0 0.0 
0.0 0.0 0.0 
0.0 0.0 0.0 
0.0 0.0 0.0 
0.0 0.0 0.0 
0.0 0.0 0.0 
0.0 0.0 0.0 
0.0 0.0 0.0 
0.0 0.0 0.0 
0.0 0.0 0.0 
0.0 0.0 0.0 
0.0 0.0 0.0 
0.0 0.0 0.0 
0.0 0.0 0.0 
0.0 0.0 0.0 
0.0 0.0 0.0 
0.0 0.0 0.0 
0.0 0.0 0.0 
0.0 0.0 0.0 
0.0 0.0 0.0 
0.0 0.0 0.0 
0.0 0.0 0.0 
0.0 0.0 0.0 
0.0 0.0 0.0 
0.0 0.0 0.0 
0.0 0.0 0.0 
0.0 0.0 0.0 
0.0 0.0 0.0 
0.0 0.0 0.0 
0.0 0.0 0.0 
0.0 0.0 0.0 
0.0 0.0 0.0 
0.0 0.0 0.0 
0.0 0.0 0.0 
0.0 0.0 0.0 
0.0 0.0 0.0 
0.0 0.0 0.0 
0.0 0.0 0.0 
0.0 0.0 0.0 
0.0 0.0 0.0 
0.0 0.0 0.0 
0.0 0.0 0.0 
0.0 0.0 0.0 
0.0 0.0 0.0 
0.0 0.0 0.0 
0.0 0.0 0.0 
0.0 0.0 0.0 
0.0 0.0 0.0 
0.0 0.0 0.0 
0.0 0.0 0.0 
0.0 0.0 0.0 
0.0 0.0 0.0 
0.0 0.0 0.0 
0.0 0.0 0.0 
0.0 0.0 0.0 
0.0 0.0 0.0 
0.0 0.0 0.0 
0.0 0.0 0.0 
0.0 0.0 0.0 
0.0 0.0 0.0 
0.0 0.0 0.0 
0.0 0.0 0.0 
0.0 0.0 0.0 
0.0 0.0 0.0 
0.0 0.0 0.0 
0.0 0.0 0.0 
0.0 0.0 0.0 
0.0 0.0 0.0 
0.0 0.0 0.0 
0.0 0.0 0.0 
0.0 0.0 0.0 
0.0 0.0 0.0 
0.0 0.0 0.0 
0.0 0.0 0.0 
0.0 0.0 0.0 
0.0 0.0 0.0 
0.0 0.0 0.0 
0.0 0.0 0.0 
0.0 0.0 0.0 
0.0 0.0 0.0 
0.0 0.0 0.0 
0.0 0.0 0.0 
0.0 0.0 0.0 
0.0 0.0 0.0 
0.0 0.0 0.0 
0.0 0.0 0.0 
0.0 0.0 0.0 
0.0 0.0 0.0 
0.0 0.0 0.0 
0.0 0.0 0.0 
0.0 0.0 0.0 
0.0 0.0 0.0 
0.0 0.0 0.0 
0.0 0.0 0.0 
0.0 0.0 0.0 
0.0 0.0 0.0 
0.0 0.0 0.0 
0.0 0.0 0.0 
0.0 0.0 0.0 
0.0 0.0 0.0 
0.0 0.0 0.0 
0.0 0.0 0.0 
0.0 0.0 0.0 
0.0 0.0 0.0 
0.0 0.0 0.0 
0.0 0.0 0.0 
0.0 0.0 0.0 
0.0 0.0 0.0 
0.0 0.0 0.0 
0.0 0.0 0.0 
0.0 0.0 0.0 
0.0 0.0 0.0 
0.0 0.0 0.0 
0.0 0.0 0.0 
0.0 0.0 0.0 
0.0 0.0 0.0 
0.0 0.0 0.0 
0.0 0.0 0.0 
0.0 0.0 0.0 
0.0 0.0 0.0 
0.0 0.0 0.0 
0.0 0.0 0.0 
0.0 0.0 0.0 
0.0 0.0 0.0 
0.0 0.0 0.0 
0.0 0.0 0.0 
0.0 0.0 0.0 
0.0 0.0 0.0 
0.0 0.0 0.0 
0.0 0.0 0.0 
0.0 0.0 0.0 
0.0 0.0 0.0 
0.0 0.0 0.0 
0.0 0.0 0.0 
0.0 0.0 0.0 
0.0 0.0 0.0 
0.0 0.0 0.0 
0.0 0.0 0.0 
0.0 0.0 0.0 
0.0 0.0 0.0 
0.0 0.0 0.0 
0.0 0.0 0.0 
0.0 0.0 0.0 
0.0 0.0 0.0 
0.0 0.0 0.0 
0.0 0.0 0.0 
0.0 0.0 0.0 
0.0 0.0 0.0 
0.0 0.0 0.0 
0.0 0.0 0.0 
0.0 0.0 0.0 
0.0 0.0 0.0 
0.0 0.0 0.0 
0.0 0.0 0.0 
0.0 0.0 0.0 
0.0 0.0 0.0 
0.0 0.0 0.0 
0.0 0.0 0.0 
0.0 0.0 0.0 
0.0 0.0 0.0 
0.0 0.0 0.0 
0.0 0.0 0.0 
0.0 0.0 0.0 
0.0 0.0 0.0 
0.0 0.0 0.0 
0.0 0.0 0.0 
0.0 0.0 0.0 
0.0 0.0 0.0 
0.0 0.0 0.0 
0.0 0.0 0.0 
0.0 0.0 0.0 
0.0 0.0 0.0 
0.0 0.0 0.0 
0.0 0.0 0.0 
0.0 0.0 0.0 
0.0 0.0 0.0 
0.0 0.0 0.0 
0.0 0.0 0.0 
0.0 0.0 0.0 
0.0 0.0 0.0 
0.0 0.0 0.0 
0.0 0.0 0.0 
0.0 0.0 0.0 
0.0 0.0 0.0 
0.0 0.0 0.0 
0.0 0.0 0.0 
0.0 0.0 0.0 
0.0 0.0 0.0 
0.0 0.0 0.0 
0.0 0.0 0.0 
0.0 0.0 0.0 
0.0 0.0 0.0 
0.0 0.0 0.0 
0.0 0.0 0.0 
0.0 0.0 0.0 
0.0 0.0 0.0 
0.0 0.0 0.0 
0.0 0.0 0.0 
0.0 0.0 0.0 
0.0 0.0 0.0 
0.0 0.0 0.0 
0.0 0.0 0.0 
0.0 0.0 0.0 
0.0 0.0 0.0 
0.0 0.0 0.0 
0.0 0.0 0.0 
0.0 0.0 0.0 
0.0 0.0 0.0 
0.0 0.0 0.0 
0.0 0.0 0.0 
0.0 0.0 0.0 
0.0 0.0 0.0 
0.0 0.0 0.0 
0.0 0.0 0.0 
0.0 0.0 0.0 
0.0 0.0 0.0 
0.0 0.0 0.0 
0.0 0.0 0.0 
0.0 0.0 0.0 
0.0 0.0 0.0 
0.0 0.0 0.0 
0.0 0.0 0.0 
0.0 0.0 0.0 
0.0 0.0 0.0 
0.0 0.0 0.0 
0.0 0.0 0.0 
0.0 0.0 0.0 
0.0 0.0 0.0 
0.0 0.0 0.0 
0.0 0.0 0.0 
0.0 0.0 0.0 
0.0 0.0 0.0 
0.0 0.0 0.0 
0.0 0.0 0.0 
0.0 0.0 0.0 
0.0 0.0 0.0 
0.0 0.0 0.0 
0.0 0.0 0.0 
0.0 0.0 0.0 
0.0 0.0 0.0 
0.0 0.0 0.0 
0.0 0.0 0.0 
0.0 0.0 0.0 
0.0 0.0 0.0 
0.0 0.0 0.0 
0.0 0.0 0.0 
0.0 0.0 0.0 
0.0 0.0 0.0 
0.0 0.0 0.0 
0.0 0.0 0.0 
0.0 0.0 0.0 
0.0 0.0 0.0 
0.0 0.0 0.0 
0.0 0.0 0.0 
0.0 0.0 0.0 
0.0 0.0 0.0 
0.0 0.0 0.0 
0.0 0.0 0.0 
0.0 0.0 0.0 
0.0 0.0 0.0 
0.0 0.0 0.0 
0.0 0.0 0.0 
0.0 0.0 0.0 
0.0 0.0 0.0 
0.0 0.0 0.0 
0.0 0.0 0.0 
0.0 0.0 0.0 
0.0 0.0 0.0 
0.0 0.0 0.0 
0.0 0.0 0.0 
0.0 0.0 0.0 
0.0 0.0 0.0 
0.0 0.0 0.0 
0.0 0.0 0.0 
0.0 0.0 0.0 
0.0 0.0 0.0 
0.0 0.0 0.0 
0.0 0.0 0.0 
0.0 0.0 0.0 
0.0 0.0 0.0 
0.0 0.0 0.0 
0.0 0.0 0.0 
0.0 0.0 0.0 
0.0 0.0 0.0 
0.0 0.0 0.0 
0.0 0.0 0.0 
0.0 0.0 0.0 
0.0 0.0 0.0 
0.0 0.0 0.0 
0.0 0.0 0.0 
0.0 0.0 0.0 
0.0 0.0 0.0 
0.0 0.0 0.0 
0.0 0.0 0.0 
0.0 0.0 0.0 
0.0 0.0 0.0 
0.0 0.0 0.0 
0.0 0.0 0.0 
0.0 0.0 0.0 
0.0 0.0 0.0 
0.0 0.0 0.0 
0.0 0.0 0.0 
0.0 0.0 0.0 
0.0 0.0 0.0 
0.0 0.0 0.0 
0.0 0.0 0.0 
0.0 0.0 0.0 
0.0 0.0 0.0 
0.0 0.0 0.0 
0.0 0.0 0.0 
0.0 0.0 0.0 
0.0 0.0 0.0 
0.0 0.0 0.0 
0.0 0.0 0.0 
0.0 0.0 0.0 
0.0 0.0 0.0 
0.0 0.0 0.0 
0.0 0.0 0.0 
0.0 0.0 0.0 
0.0 0.0 0.0 
0.0 0.0 0.0 
0.0 0.0 0.0 
0.0 0.0 0.0 
0.0 0.0 0.0 
0.0 0.0 0.0 
0.0 0.0 0.0 
0.0 0.0 0.0 
0.0 0.0 0.0 
0.0 0.0 0.0 
0.0 0.0 0.0 
0.0 0.0 0.0 
0.0 0.0 0.0 
0.0 0.0 0.0 
0.0 0.0 0.0 
0.0 0.0 0.0 
0.0 0.0 0.0 
0.0 0.0 0.0 
0.0 0.0 0.0 
0.0 0.0 0.0 
0.0 0.0 0.0 
0.0 0.0 0.0 
0.0 0.0 0.0 
0.0 0.0 0.0 
0.0 0.0 0.0 
0.0 0.0 0.0 
0.0 0.0 0.0 
0.0 0.0 0.0 
0.0 0.0 0.0 
0.0 0.0 0.0 
0.0 0.0 0.0 
0.0 0.0 0.0 
0.0 0.0 0.0 
0.0 0.0 0.0 
0.0 0.0 0.0 
0.0 0.0 0.0 
0.0 0.0 0.0 
0.0 0.0 0.0 
0.0 0.0 0.0 
0.0 0.0 0.0 
0.0 0.0 0.0 
0.0 0.0 0.0 
0.0 0.0 0.0 
0.0 0.0 0.0 
0.0 0.0 0.0 
0.0 0.0 0.0 
0.0 0.0 0.0 
0.0 0.0 0.0 
0.0 0.0 0.0 
0.0 0.0 0.0 
0.0 0.0 0.0 
0.0 0.0 0.0 
0.0 0.0 0.0 
0.0 0.0 0.0 
0.0 0.0 0.0 
0.0 0.0 0.0 
0.0 0.0 0.0 
0.0 0.0 0.0 
0.0 0.0 0.0 
0.0 0.0 0.0 
0.0 0.0 0.0 
0.0 0.0 0.0 
0.0 0.0 0.0 
0.0 0.0 0.0 
0.0 0.0 0.0 
0.0 0.0 0.0 
0.0 0.0 0.0 
0.0 0.0 0.0 
0.0 0.0 0.0 
0.0 0.0 0.0 
0.0 0.0 0.0 
0.0 0.0 0.0 
0.0 0.0 0.0 
0.0 0.0 0.0 
0.0 0.0 0.0 
0.0 0.0 0.0 
0.0 0.0 0.0 
0.0 0.0 0.0 
0.0 0.0 0.0 
0.0 0.0 0.0 
0.0 0.0 0.0 
0.0 0.0 0.0 
0.0 0.0 0.0 
0.0 0.0 0.0 
0.0 0.0 0.0 
0.0 0.0 0.0 
0.0 0.0 0.0 
0.0 0.0 0.0 
0.0 0.0 0.0 
0.0 0.0 0.0 
0.0 0.0 0.0 
0.0 0.0 0.0 
0.0 0.0 0.0 
0.0 0.0 0.0 
0.0 0.0 0.0 
0.0 0.0 0.0 
0.0 0.0 0.0 
0.0 0.0 0.0 
0.0 0.0 0.0 
0.0 0.0 0.0 
0.0 0.0 0.0 
0.0 0.0 0.0 
0.0 0.0 0.0 
0.0 0.0 0.0 
0.0 0.0 0.0 
0.0 0.0 0.0 
0.0 0.0 0.0 
0.0 0.0 0.0 
0.0 0.0 0.0 
0.0 0.0 0.0 
0.0 0.0 0.0 
0.0 0.0 0.0 
0.0 0.0 0.0 
0.0 0.0 0.0 
0.0 0.0 0.0 
0.0 0.0 0.0 
0.0 0.0 0.0 
0.0 0.0 0.0 
0.0 0.0 0.0 
0.0 0.0 0.0 
0.0 0.0 0.0 
0.0 0.0 0.0 
0.0 0.0 0.0 
0.0 0.0 0.0 
0.0 0.0 0.0 
0.0 0.0 0.0 
0.0 0.0 0.0 
0.0 0.0 0.0 
0.0 0.0 0.0 
0.0 0.0 0.0 
0.0 0.0 0.0 
0.0 0.0 0.0 
0.0 0.0 0.0 
0.0 0.0 0.0 
0.0 0.0 0.0 
0.0 0.0 0.0 
0.0 0.0 0.0 
0.0 0.0 0.0 
0.0 0.0 0.0 
0.0 0.0 0.0 
0.0 0.0 0.0 
0.0 0.0 0.0 
0.0 0.0 0.0 
0.0 0.0 0.0 
0.0 0.0 0.0 
0.0 0.0 0.0 
0.0 0.0 0.0 
0.0 0.0 0.0 
0.0 0.0 0.0 
0.0 0.0 0.0 
0.0 0.0 0.0 
0.0 0.0 0.0 
0.0 0.0 0.0 
0.0 0.0 0.0 
0.0 0.0 0.0 
0.0 0.0 0.0 
0.0 0.0 0.0 
0.0 0.0 0.0 
0.0 0.0 0.0 
0.0 0.0 0.0 
0.0 0.0 0.0 
0.0 0.0 0.0 
0.0 0.0 0.0 
0.0 0.0 0.0 
0.0 0.0 0.0 
0.0 0.0 0.0 
0.0 0.0 0.0 
0.0 0.0 0.0 
0.0 0.0 0.0 
0.0 0.0 0.0 
0.0 0.0 0.0 
0.0 0.0 0.0 
0.0 0.0 0.0 
0.0 0.0 0.0 
0.0 0.0 0.0 
0.0 0.0 0.0 
0.0 0.0 0.0 
0.0 0.0 0.0 
0.0 0.0 0.0 
0.0 0.0 0.0 
0.0 0.0 0.0 
0.0 0.0 0.0 
0.0 0.0 0.0 
0.0 0.0 0.0 
0.0 0.0 0.0 
0.0 0.0 0.0 
0.0 0.0 0.0 
0.0 0.0 0.0 
0.0 0.0 0.0 
0.0 0.0 0.0 
0.0 0.0 0.0 
0.0 0.0 0.0 
0.0 0.0 0.0 
0.0 0.0 0.0 
0.0 0.0 0.0 
0.0 0.0 0.0 
0.0 0.0 0.0 
0.0 0.0 0.0 
0.0 0.0 0.0 
0.0 0.0 0.0 
0.0 0.0 0.0 
0.0 0.0 0.0 
0.0 0.0 0.0 
0.0 0.0 0.0 
0.0 0.0 0.0 
0.0 0.0 0.0 
0.0 0.0 0.0 
0.0 0.0 0.0 
0.0 0.0 0.0 
0.0 0.0 0.0 
0.0 0.0 0.0 
0.0 0.0 0.0 
0.0 0.0 0.0 
0.0 0.0 0.0 
0.0 0.0 0.0 
0.0 0.0 0.0 
0.0 0.0 0.0 
0.0 0.0 0.0 
0.0 0.0 0.0 
0.0 0.0 0.0 
0.0 0.0 0.0 
0.0 0.0 0.0 
0.0 0.0 0.0 
0.0 0.0 0.0 
0.0 0.0 0.0 
0.0 0.0 0.0 
0.0 0.0 0.0 
0.0 0.0 0.0 
0.0 0.0 0.0 
0.0 0.0 0.0 
0.0 0.0 0.0 
0.0 0.0 0.0 
0.0 0.0 0.0 
0.0 0.0 0.0 
0.0 0.0 0.0 
0.0 0.0 0.0 
0.0 0.0 0.0 
0.0 0.0 0.0 
0.0 0.0 0.0 
0.0 0.0 0.0 
0.0 0.0 0.0 
0.0 0.0 0.0 
0.0 0.0 0.0 
0.0 0.0 0.0 
0.0 0.0 0.0 
0.0 0.0 0.0 
0.0 0.0 0.0 
0.0 0.0 0.0 
0.0 0.0 0.0 
0.0 0.0 0.0 
0.0 0.0 0.0 
0.0 0.0 0.0 
0.0 0.0 0.0 
0.0 0.0 0.0 
0.0 0.0 0.0 
0.0 0.0 0.0 
0.0 0.0 0.0 
0.0 0.0 0.0 
0.0 0.0 0.0 
0.0 0.0 0.0 
0.0 0.0 0.0 
0.0 0.0 0.0 
0.0 0.0 0.0 
0.0 0.0 0.0 
0.0 0.0 0.0 
0.0 0.0 0.0 
0.0 0.0 0.0 
0.0 0.0 0.0 
0.0 0.0 0.0 
0.0 0.0 0.0 
0.0 0.0 0.0 
0.0 0.0 0.0 
0.0 0.0 0.0 
0.0 0.0 0.0 
0.0 0.0 0.0 
0.0 0.0 0.0 
0.0 0.0 0.0 
0.0 0.0 0.0 
0.0 0.0 0.0 
0.0 0.0 0.0 
0.0 0.0 0.0 
0.0 0.0 0.0 
0.0 0.0 0.0 
0.0 0.0 0.0 
0.0 0.0 0.0 
0.0 0.0 0.0 
0.0 0.0 0.0 
0.0 0.0 0.0 
0.0 0.0 0.0 
0.0 0.0 0.0 
0.0 0.0 0.0 
0.0 0.0 0.0 
0.0 0.0 0.0 
0.0 0.0 0.0 
0.0 0.0 0.0 
0.0 0.0 0.0 
0.0 0.0 0.0 
0.0 0.0 0.0 
0.0 0.0 0.0 
0.0 0.0 0.0 
0.0 0.0 0.0 
0.0 0.0 0.0 
0.0 0.0 0.0 
0.0 0.0 0.0 
0.0 0.0 0.0 
0.0 0.0 0.0 
0.0 0.0 0.0 
0.0 0.0 0.0 
0.0 0.0 0.0 
0.0 0.0 0.0 
0.0 0.0 0.0 
0.0 0.0 0.0 
0.0 0.0 0.0 
0.0 0.0 0.0 
0.0 0.0 0.0 
0.0 0.0 0.0 
0.0 0.0 0.0 
0.0 0.0 0.0 
0.0 0.0 0.0 
0.0 0.0 0.0 
0.0 0.0 0.0 
0.0 0.0 0.0 
0.0 0.0 0.0 
0.0 0.0 0.0 
0.0 0.0 0.0 
0.0 0.0 0.0 
0.0 0.0 0.0 
0.0 0.0 0.0 
0.0 0.0 0.0 
0.0 0.0 0.0 
0.0 0.0 0.0 
0.0 0.0 0.0 
0.0 0.0 0.0 
0.0 0.0 0.0 
0.0 0.0 0.0 
0.0 0.0 0.0 
0.0 0.0 0.0 
0.0 0.0 0.0 
0.0 0.0 0.0 
0.0 0.0 0.0 
0.0 0.0 0.0 
0.0 0.0 0.0 
0.0 0.0 0.0 
0.0 0.0 0.0 
0.0 0.0 0.0 
0.0 0.0 0.0 
0.0 0.0 0.0 
0.0 0.0 0.0 
0.0 0.0 0.0 
0.0 0.0 0.0 
0.0 0.0 0.0 
0.0 0.0 0.0 
0.0 0.0 0.0 
0.0 0.0 0.0 
0.0 0.0 0.0 
0.0 0.0 0.0 
0.0 0.0 0.0 
0.0 0.0 0.0 
0.0 0.0 0.0 
0.0 0.0 0.0 
0.0 0.0 0.0 
0.0 0.0 0.0 
0.0 0.0 0.0 
0.0 0.0 0.0 
0.0 0.0 0.0 
0.0 0.0 0.0 
0.0 0.0 0.0 
0.0 0.0 0.0 
0.0 0.0 0.0 
0.0 0.0 0.0 
0.0 0.0 0.0 
0.0 0.0 0.0 
0.0 0.0 0.0 
0.0 0.0 0.0 
0.0 0.0 0.0 
0.0 0.0 0.0 
0.0 0.0 0.0 
0.0 0.0 0.0 
0.0 0.0 0.0 
0.0 0.0 0.0 
0.0 0.0 0.0 
0.0 0.0 0.0 
0.0 0.0 0.0 
0.0 0.0 0.0 
0.0 0.0 0.0 
0.0 0.0 0.0 
0.0 0.0 0.0 
0.0 0.0 0.0 
0.0 0.0 0.0 
0.0 0.0 0.0 
0.0 0.0 0.0 
0.0 0.0 0.0 
0.0 0.0 0.0 
0.0 0.0 0.0 
0.0 0.0 0.0 
0.0 0.0 0.0 
0.0 0.0 0.0 
0.0 0.0 0.0 
0.0 0.0 0.0 
0.0 0.0 0.0 
0.0 0.0 0.0 
0.0 0.0 0.0 
0.0 0.0 0.0 
0.0 0.0 0.0 
0.0 0.0 0.0 
0.0 0.0 0.0 
0.0 0.0 0.0 
0.0 0.0 0.0 
0.0 0.0 0.0 
0.0 0.0 0.0 
0.0 0.0 0.0 
0.0 0.0 0.0 
0.0 0.0 0.0 
0.0 0.0 0.0 
0.0 0.0 0.0 
0.0 0.0 0.0 
0.0 0.0 0.0 
0.0 0.0 0.0 
0.0 0.0 0.0 
0.0 0.0 0.0 
0.0 0.0 0.0 
0.0 0.0 0.0 
0.0 0.0 0.0 
0.0 0.0 0.0 
0.0 0.0 0.0 
0.0 0.0 0.0 
0.0 0.0 0.0 
0.0 0.0 0.0 
0.0 0.0 0.0 
0.0 0.0 0.0 
0.0 0.0 0.0 
0.0 0.0 0.0 
0.0 0.0 0.0 
0.0 0.0 0.0 
0.0 0.0 0.0 
0.0 0.0 0.0 
0.0 0.0 0.0 
0.0 0.0 0.0 
0.0 0.0 0.0 
0.0 0.0 0.0 
0.0 0.0 0.0 
0.0 0.0 0.0 
0.0 0.0 0.0 
0.0 0.0 0.0 
0.0 0.0 0.0 
0.0 0.0 0.0 
0.0 0.0 0.0 
0.0 0.0 0.0 
0.0 0.0 0.0 
0.0 0.0 0.0 
0.0 0.0 0.0 
0.0 0.0 0.0 
0.0 0.0 0.0 
0.0 0.0 0.0 
0.0 0.0 0.0 
0.0 0.0 0.0 
0.0 0.0 0.0 
0.0 0.0 0.0 
0.0 0.0 0.0 
0.0 0.0 0.0 
0.0 0.0 0.0 
0.0 0.0 0.0 
0.0 0.0 0.0 
0.0 0.0 0.0 
0.0 0.0 0.0 
0.0 0.0 0.0 
0.0 0.0 0.0 
0.0 0.0 0.0 
0.0 0.0 0.0 
0.0 0.0 0.0 
0.0 0.0 0.0 
0.0 0.0 0.0 
0.0 0.0 0.0 
0.0 0.0 0.0 
0.0 0.0 0.0 
0.0 0.0 0.0 
0.0 0.0 0.0 
0.0 0.0 0.0 
0.0 0.0 0.0 
0.0 0.0 0.0 
0.0 0.0 0.0 
0.0 0.0 0.0 
0.0 0.0 0.0 
0.0 0.0 0.0 
0.0 0.0 0.0 
0.0 0.0 0.0 
0.0 0.0 0.0 
0.0 0.0 0.0 
0.0 0.0 0.0 
0.0 0.0 0.0 
0.0 0.0 0.0 
0.0 0.0 0.0 
0.0 0.0 0.0 
0.0 0.0 0.0 
0.0 0.0 0.0 
0.0 0.0 0.0 
0.0 0.0 0.0 
0.0 0.0 0.0 
0.0 0.0 0.0 
0.0 0.0 0.0 
0.0 0.0 0.0 
0.0 0.0 0.0 
0.0 0.0 0.0 
0.0 0.0 0.0 
0.0 0.0 0.0 
0.0 0.0 0.0 
0.0 0.0 0.0 
0.0 0.0 0.0 
0.0 0.0 0.0 
0.0 0.0 0.0 
0.0 0.0 0.0 
0.0 0.0 0.0 
0.0 0.0 0.0 
0.0 0.0 0.0 
0.0 0.0 0.0 
0.0 0.0 0.0 
0.0 0.0 0.0 
0.0 0.0 0.0 
0.0 0.0 0.0 
0.0 0.0 0.0 
0.0 0.0 0.0 
0.0 0.0 0.0 
0.0 0.0 0.0 
0.0 0.0 0.0 
0.0 0.0 0.0 
0.0 0.0 0.0 
0.0 0.0 0.0 
0.0 0.0 0.0 
0.0 0.0 0.0 
0.0 0.0 0.0 
0.0 0.0 0.0 
0.0 0.0 0.0 
0.0 0.0 0.0 
0.0 0.0 0.0 
0.0 0.0 0.0 
0.0 0.0 0.0 
0.0 0.0 0.0 
0.0 0.0 0.0 
0.0 0.0 0.0 
0.0 0.0 0.0 
0.0 0.0 0.0 
0.0 0.0 0.0 
0.0 0.0 0.0 
0.0 0.0 0.0 
0.0 0.0 0.0 
0.0 0.0 0.0 
0.0 0.0 0.0 
0.0 0.0 0.0 
0.0 0.0 0.0 
0.0 0.0 0.0 
0.0 0.0 0.0 
0.0 0.0 0.0 
0.0 0.0 0.0 
0.0 0.0 0.0 
0.0 0.0 0.0 
0.0 0.0 0.0 
0.0 0.0 0.0 
0.0 0.0 0.0 
0.0 0.0 0.0 
0.0 0.0 0.0 
0.0 0.0 0.0 
0.0 0.0 0.0 
0.0 0.0 0.0 
0.0 0.0 0.0 
0.0 0.0 0.0 
0.0 0.0 0.0 
0.0 0.0 0.0 
0.0 0.0 0.0 
0.0 0.0 0.0 
0.0 0.0 0.0 
0.0 0.0 0.0 
0.0 0.0 0.0 
0.0 0.0 0.0 
0.0 0.0 0.0 
0.0 0.0 0.0 
0.0 0.0 0.0 
0.0 0.0 0.0 
0.0 0.0 0.0 
0.0 0.0 0.0 
0.0 0.0 0.0 
0.0 0.0 0.0 
0.0 0.0 0.0 
0.0 0.0 0.0 
0.0 0.0 0.0 
0.0 0.0 0.0 
0.0 0.0 0.0 
0.0 0.0 0.0 
0.0 0.0 0.0 
0.0 0.0 0.0 
0.0 0.0 0.0 
0.0 0.0 0.0 
0.0 0.0 0.0 
0.0 0.0 0.0 
0.0 0.0 0.0 
0.0 0.0 0.0 
0.0 0.0 0.0 
0.0 0.0 0.0 
0.0 0.0 0.0 
0.0 0.0 0.0 
0.0 0.0 0.0 
0.0 0.0 0.0 
0.0 0.0 0.0 
0.0 0.0 0.0 
0.0 0.0 0.0 
0.0 0.0 0.0 
0.0 0.0 0.0 
0.0 0.0 0.0 
0.0 0.0 0.0 
0.0 0.0 0.0 
0.0 0.0 0.0 
0.0 0.0 0.0 
0.0 0.0 0.0 
0.0 0.0 0.0 
0.0 0.0 0.0 
0.0 0.0 0.0 
0.0 0.0 0.0 
0.0 0.0 0.0 
0.0 0.0 0.0 
0.0 0.0 0.0 
0.0 0.0 0.0 
0.0 0.0 0.0 
0.0 0.0 0.0 

VECTORS node_bounda_dof_materi_velocity_y float
0.0 0.0 0.0 
0.0 0.0 0.0 
0.0 1.000000000000e+00 0.0 
0.0 1.000000000000e+00 0.0 
0.0 0.0 0.0 
0.0 0.0 0.0 
0.0 0.0 0.0 
0.0 0.0 0.0 
0.0 0.0 0.0 
0.0 0.0 0.0 
0.0 0.0 0.0 
0.0 0.0 0.0 
0.0 0.0 0.0 
0.0 0.0 0.0 
0.0 0.0 0.0 
0.0 0.0 0.0 
0.0 0.0 0.0 
0.0 0.0 0.0 
0.0 0.0 0.0 
0.0 0.0 0.0 
0.0 0.0 0.0 
0.0 0.0 0.0 
0.0 0.0 0.0 
0.0 1.000000000000e+00 0.0 
0.0 1.000000000000e+00 0.0 
0.0 1.000000000000e+00 0.0 
0.0 1.000000000000e+00 0.0 
0.0 1.000000000000e+00 0.0 
0.0 1.000000000000e+00 0.0 
0.0 1.000000000000e+00 0.0 
0.0 1.000000000000e+00 0.0 
0.0 1.000000000000e+00 0.0 
0.0 1.000000000000e+00 0.0 
0.0 1.000000000000e+00 0.0 
0.0 1.000000000000e+00 0.0 
0.0 1.000000000000e+00 0.0 
0.0 1.000000000000e+00 0.0 
0.0 1.000000000000e+00 0.0 
0.0 1.000000000000e+00 0.0 
0.0 1.000000000000e+00 0.0 
0.0 1.000000000000e+00 0.0 
0.0 1.000000000000e+00 0.0 
0.0 1.000000000000e+00 0.0 
0.0 1.000000000000e+00 0.0 
0.0 1.000000000000e+00 0.0 
0.0 1.000000000000e+00 0.0 
0.0 1.000000000000e+00 0.0 
0.0 1.000000000000e+00 0.0 
0.0 1.000000000000e+00 0.0 
0.0 1.000000000000e+00 0.0 
0.0 1.000000000000e+00 0.0 
0.0 1.000000000000e+00 0.0 
0.0 1.000000000000e+00 0.0 
0.0 1.000000000000e+00 0.0 
0.0 1.000000000000e+00 0.0 
0.0 1.000000000000e+00 0.0 
0.0 1.000000000000e+00 0.0 
0.0 1.000000000000e+00 0.0 
0.0 1.000000000000e+00 0.0 
0.0 1.000000000000e+00 0.0 
0.0 1.000000000000e+00 0.0 
0.0 1.000000000000e+00 0.0 
0.0 1.000000000000e+00 0.0 
0.0 1.000000000000e+00 0.0 
0.0 1.000000000000e+00 0.0 
0.0 1.000000000000e+00 0.0 
0.0 1.000000000000e+00 0.0 
0.0 1.000000000000e+00 0.0 
0.0 1.000000000000e+00 0.0 
0.0 1.000000000000e+00 0.0 
0.0 1.000000000000e+00 0.0 
0.0 1.000000000000e+00 0.0 
0.0 0.0 0.0 
0.0 0.0 0.0 
0.0 0.0 0.0 
0.0 0.0 0.0 
0.0 0.0 0.0 
0.0 0.0 0.0 
0.0 0.0 0.0 
0.0 0.0 0.0 
0.0 0.0 0.0 
0.0 0.0 0.0 
0.0 0.0 0.0 
0.0 0.0 0.0 
0.0 0.0 0.0 
0.0 0.0 0.0 
0.0 0.0 0.0 
0.0 0.0 0.0 
0.0 0.0 0.0 
0.0 0.0 0.0 
0.0 0.0 0.0 
0.0 0.0 0.0 
0.0 0.0 0.0 
0.0 0.0 0.0 
0.0 0.0 0.0 
0.0 0.0 0.0 
0.0 0.0 0.0 
0.0 0.0 0.0 
0.0 0.0 0.0 
0.0 0.0 0.0 
0.0 0.0 0.0 
0.0 0.0 0.0 
0.0 0.0 0.0 
0.0 0.0 0.0 
0.0 0.0 0.0 
0.0 0.0 0.0 
0.0 0.0 0.0 
0.0 0.0 0.0 
0.0 0.0 0.0 
0.0 0.0 0.0 
0.0 0.0 0.0 
0.0 0.0 0.0 
0.0 0.0 0.0 
0.0 0.0 0.0 
0.0 0.0 0.0 
0.0 0.0 0.0 
0.0 0.0 0.0 
0.0 0.0 0.0 
0.0 0.0 0.0 
0.0 0.0 0.0 
0.0 0.0 0.0 
0.0 0.0 0.0 
0.0 0.0 0.0 
0.0 0.0 0.0 
0.0 0.0 0.0 
0.0 0.0 0.0 
0.0 0.0 0.0 
0.0 0.0 0.0 
0.0 0.0 0.0 
0.0 0.0 0.0 
0.0 0.0 0.0 
0.0 0.0 0.0 
0.0 0.0 0.0 
0.0 0.0 0.0 
0.0 0.0 0.0 
0.0 0.0 0.0 
0.0 0.0 0.0 
0.0 0.0 0.0 
0.0 0.0 0.0 
0.0 0.0 0.0 
0.0 0.0 0.0 
0.0 0.0 0.0 
0.0 0.0 0.0 
0.0 0.0 0.0 
0.0 0.0 0.0 
0.0 0.0 0.0 
0.0 0.0 0.0 
0.0 0.0 0.0 
0.0 0.0 0.0 
0.0 0.0 0.0 
0.0 0.0 0.0 
0.0 0.0 0.0 
0.0 0.0 0.0 
0.0 0.0 0.0 
0.0 0.0 0.0 
0.0 0.0 0.0 
0.0 0.0 0.0 
0.0 0.0 0.0 
0.0 0.0 0.0 
0.0 0.0 0.0 
0.0 0.0 0.0 
0.0 0.0 0.0 
0.0 0.0 0.0 
0.0 0.0 0.0 
0.0 0.0 0.0 
0.0 0.0 0.0 
0.0 0.0 0.0 
0.0 0.0 0.0 
0.0 0.0 0.0 
0.0 0.0 0.0 
0.0 0.0 0.0 
0.0 0.0 0.0 
0.0 0.0 0.0 
0.0 0.0 0.0 
0.0 0.0 0.0 
0.0 0.0 0.0 
0.0 0.0 0.0 
0.0 0.0 0.0 
0.0 0.0 0.0 
0.0 0.0 0.0 
0.0 0.0 0.0 
0.0 0.0 0.0 
0.0 0.0 0.0 
0.0 0.0 0.0 
0.0 0.0 0.0 
0.0 0.0 0.0 
0.0 0.0 0.0 
0.0 0.0 0.0 
0.0 0.0 0.0 
0.0 0.0 0.0 
0.0 0.0 0.0 
0.0 0.0 0.0 
0.0 0.0 0.0 
0.0 0.0 0.0 
0.0 0.0 0.0 
0.0 0.0 0.0 
0.0 0.0 0.0 
0.0 0.0 0.0 
0.0 0.0 0.0 
0.0 0.0 0.0 
0.0 0.0 0.0 
0.0 0.0 0.0 
0.0 0.0 0.0 
0.0 0.0 0.0 
0.0 0.0 0.0 
0.0 0.0 0.0 
0.0 0.0 0.0 
0.0 0.0 0.0 
0.0 0.0 0.0 
0.0 0.0 0.0 
0.0 0.0 0.0 
0.0 0.0 0.0 
0.0 0.0 0.0 
0.0 0.0 0.0 
0.0 0.0 0.0 
0.0 0.0 0.0 
0.0 0.0 0.0 
0.0 0.0 0.0 
0.0 0.0 0.0 
0.0 0.0 0.0 
0.0 0.0 0.0 
0.0 0.0 0.0 
0.0 0.0 0.0 
0.0 0.0 0.0 
0.0 0.0 0.0 
0.0 0.0 0.0 
0.0 0.0 0.0 
0.0 0.0 0.0 
0.0 0.0 0.0 
0.0 0.0 0.0 
0.0 0.0 0.0 
0.0 0.0 0.0 
0.0 0.0 0.0 
0.0 0.0 0.0 
0.0 0.0 0.0 
0.0 0.0 0.0 
0.0 0.0 0.0 
0.0 0.0 0.0 
0.0 0.0 0.0 
0.0 0.0 0.0 
0.0 0.0 0.0 
0.0 0.0 0.0 
0.0 0.0 0.0 
0.0 0.0 0.0 
0.0 0.0 0.0 
0.0 0.0 0.0 
0.0 0.0 0.0 
0.0 0.0 0.0 
0.0 0.0 0.0 
0.0 0.0 0.0 
0.0 0.0 0.0 
0.0 0.0 0.0 
0.0 0.0 0.0 
0.0 0.0 0.0 
0.0 0.0 0.0 
0.0 0.0 0.0 
0.0 0.0 0.0 
0.0 0.0 0.0 
0.0 0.0 0.0 
0.0 0.0 0.0 
0.0 0.0 0.0 
0.0 0.0 0.0 
0.0 0.0 0.0 
0.0 0.0 0.0 
0.0 0.0 0.0 
0.0 0.0 0.0 
0.0 0.0 0.0 
0.0 0.0 0.0 
0.0 0.0 0.0 
0.0 0.0 0.0 
0.0 0.0 0.0 
0.0 0.0 0.0 
0.0 0.0 0.0 
0.0 0.0 0.0 
0.0 0.0 0.0 
0.0 0.0 0.0 
0.0 0.0 0.0 
0.0 0.0 0.0 
0.0 0.0 0.0 
0.0 0.0 0.0 
0.0 0.0 0.0 
0.0 0.0 0.0 
0.0 0.0 0.0 
0.0 0.0 0.0 
0.0 0.0 0.0 
0.0 0.0 0.0 
0.0 0.0 0.0 
0.0 0.0 0.0 
0.0 0.0 0.0 
0.0 0.0 0.0 
0.0 0.0 0.0 
0.0 0.0 0.0 
0.0 0.0 0.0 
0.0 0.0 0.0 
0.0 0.0 0.0 
0.0 0.0 0.0 
0.0 0.0 0.0 
0.0 0.0 0.0 
0.0 0.0 0.0 
0.0 0.0 0.0 
0.0 0.0 0.0 
0.0 0.0 0.0 
0.0 0.0 0.0 
0.0 0.0 0.0 
0.0 0.0 0.0 
0.0 0.0 0.0 
0.0 0.0 0.0 
0.0 0.0 0.0 
0.0 0.0 0.0 
0.0 0.0 0.0 
0.0 0.0 0.0 
0.0 0.0 0.0 
0.0 0.0 0.0 
0.0 0.0 0.0 
0.0 0.0 0.0 
0.0 0.0 0.0 
0.0 0.0 0.0 
0.0 0.0 0.0 
0.0 0.0 0.0 
0.0 0.0 0.0 
0.0 0.0 0.0 
0.0 0.0 0.0 
0.0 0.0 0.0 
0.0 0.0 0.0 
0.0 0.0 0.0 
0.0 0.0 0.0 
0.0 0.0 0.0 
0.0 0.0 0.0 
0.0 0.0 0.0 
0.0 0.0 0.0 
0.0 0.0 0.0 
0.0 0.0 0.0 
0.0 0.0 0.0 
0.0 0.0 0.0 
0.0 0.0 0.0 
0.0 0.0 0.0 
0.0 0.0 0.0 
0.0 0.0 0.0 
0.0 0.0 0.0 
0.0 0.0 0.0 
0.0 0.0 0.0 
0.0 0.0 0.0 
0.0 0.0 0.0 
0.0 0.0 0.0 
0.0 0.0 0.0 
0.0 0.0 0.0 
0.0 0.0 0.0 
0.0 0.0 0.0 
0.0 0.0 0.0 
0.0 0.0 0.0 
0.0 0.0 0.0 
0.0 0.0 0.0 
0.0 0.0 0.0 
0.0 0.0 0.0 
0.0 0.0 0.0 
0.0 0.0 0.0 
0.0 0.0 0.0 
0.0 0.0 0.0 
0.0 0.0 0.0 
0.0 0.0 0.0 
0.0 0.0 0.0 
0.0 0.0 0.0 
0.0 0.0 0.0 
0.0 0.0 0.0 
0.0 0.0 0.0 
0.0 0.0 0.0 
0.0 0.0 0.0 
0.0 0.0 0.0 
0.0 0.0 0.0 
0.0 0.0 0.0 
0.0 0.0 0.0 
0.0 0.0 0.0 
0.0 0.0 0.0 
0.0 0.0 0.0 
0.0 0.0 0.0 
0.0 0.0 0.0 
0.0 0.0 0.0 
0.0 0.0 0.0 
0.0 0.0 0.0 
0.0 0.0 0.0 
0.0 0.0 0.0 
0.0 0.0 0.0 
0.0 0.0 0.0 
0.0 0.0 0.0 
0.0 0.0 0.0 
0.0 0.0 0.0 
0.0 0.0 0.0 
0.0 0.0 0.0 
0.0 0.0 0.0 
0.0 0.0 0.0 
0.0 0.0 0.0 
0.0 0.0 0.0 
0.0 0.0 0.0 
0.0 0.0 0.0 
0.0 0.0 0.0 
0.0 0.0 0.0 
0.0 0.0 0.0 
0.0 0.0 0.0 
0.0 0.0 0.0 
0.0 0.0 0.0 
0.0 0.0 0.0 
0.0 0.0 0.0 
0.0 0.0 0.0 
0.0 0.0 0.0 
0.0 0.0 0.0 
0.0 0.0 0.0 
0.0 0.0 0.0 
0.0 0.0 0.0 
0.0 0.0 0.0 
0.0 0.0 0.0 
0.0 0.0 0.0 
0.0 0.0 0.0 
0.0 0.0 0.0 
0.0 0.0 0.0 
0.0 0.0 0.0 
0.0 0.0 0.0 
0.0 0.0 0.0 
0.0 0.0 0.0 
0.0 0.0 0.0 
0.0 0.0 0.0 
0.0 0.0 0.0 
0.0 0.0 0.0 
0.0 0.0 0.0 
0.0 0.0 0.0 
0.0 0.0 0.0 
0.0 0.0 0.0 
0.0 0.0 0.0 
0.0 0.0 0.0 
0.0 0.0 0.0 
0.0 0.0 0.0 
0.0 0.0 0.0 
0.0 0.0 0.0 
0.0 0.0 0.0 
0.0 0.0 0.0 
0.0 0.0 0.0 
0.0 0.0 0.0 
0.0 0.0 0.0 
0.0 0.0 0.0 
0.0 0.0 0.0 
0.0 0.0 0.0 
0.0 0.0 0.0 
0.0 0.0 0.0 
0.0 0.0 0.0 
0.0 0.0 0.0 
0.0 0.0 0.0 
0.0 0.0 0.0 
0.0 0.0 0.0 
0.0 0.0 0.0 
0.0 0.0 0.0 
0.0 0.0 0.0 
0.0 0.0 0.0 
0.0 0.0 0.0 
0.0 0.0 0.0 
0.0 0.0 0.0 
0.0 0.0 0.0 
0.0 0.0 0.0 
0.0 0.0 0.0 
0.0 0.0 0.0 
0.0 0.0 0.0 
0.0 0.0 0.0 
0.0 0.0 0.0 
0.0 0.0 0.0 
0.0 0.0 0.0 
0.0 0.0 0.0 
0.0 0.0 0.0 
0.0 0.0 0.0 
0.0 0.0 0.0 
0.0 0.0 0.0 
0.0 0.0 0.0 
0.0 0.0 0.0 
0.0 0.0 0.0 
0.0 0.0 0.0 
0.0 0.0 0.0 
0.0 0.0 0.0 
0.0 0.0 0.0 
0.0 0.0 0.0 
0.0 0.0 0.0 
0.0 0.0 0.0 
0.0 0.0 0.0 
0.0 0.0 0.0 
0.0 0.0 0.0 
0.0 0.0 0.0 
0.0 0.0 0.0 
0.0 0.0 0.0 
0.0 0.0 0.0 
0.0 0.0 0.0 
0.0 0.0 0.0 
0.0 0.0 0.0 
0.0 0.0 0.0 
0.0 0.0 0.0 
0.0 0.0 0.0 
0.0 0.0 0.0 
0.0 0.0 0.0 
0.0 0.0 0.0 
0.0 0.0 0.0 
0.0 0.0 0.0 
0.0 0.0 0.0 
0.0 0.0 0.0 
0.0 0.0 0.0 
0.0 0.0 0.0 
0.0 0.0 0.0 
0.0 0.0 0.0 
0.0 0.0 0.0 
0.0 0.0 0.0 
0.0 0.0 0.0 
0.0 0.0 0.0 
0.0 0.0 0.0 
0.0 0.0 0.0 
0.0 0.0 0.0 
0.0 0.0 0.0 
0.0 0.0 0.0 
0.0 0.0 0.0 
0.0 0.0 0.0 
0.0 0.0 0.0 
0.0 0.0 0.0 
0.0 0.0 0.0 
0.0 0.0 0.0 
0.0 0.0 0.0 
0.0 0.0 0.0 
0.0 0.0 0.0 
0.0 0.0 0.0 
0.0 0.0 0.0 
0.0 0.0 0.0 
0.0 0.0 0.0 
0.0 0.0 0.0 
0.0 0.0 0.0 
0.0 0.0 0.0 
0.0 0.0 0.0 
0.0 0.0 0.0 
0.0 0.0 0.0 
0.0 0.0 0.0 
0.0 0.0 0.0 
0.0 0.0 0.0 
0.0 0.0 0.0 
0.0 0.0 0.0 
0.0 0.0 0.0 
0.0 0.0 0.0 
0.0 0.0 0.0 
0.0 0.0 0.0 
0.0 0.0 0.0 
0.0 0.0 0.0 
0.0 0.0 0.0 
0.0 0.0 0.0 
0.0 0.0 0.0 
0.0 0.0 0.0 
0.0 0.0 0.0 
0.0 0.0 0.0 
0.0 0.0 0.0 
0.0 0.0 0.0 
0.0 0.0 0.0 
0.0 0.0 0.0 
0.0 0.0 0.0 
0.0 0.0 0.0 
0.0 0.0 0.0 
0.0 0.0 0.0 
0.0 0.0 0.0 
0.0 0.0 0.0 
0.0 0.0 0.0 
0.0 0.0 0.0 
0.0 0.0 0.0 
0.0 0.0 0.0 
0.0 0.0 0.0 
0.0 0.0 0.0 
0.0 0.0 0.0 
0.0 0.0 0.0 
0.0 0.0 0.0 
0.0 0.0 0.0 
0.0 0.0 0.0 
0.0 0.0 0.0 
0.0 0.0 0.0 
0.0 0.0 0.0 
0.0 0.0 0.0 
0.0 0.0 0.0 
0.0 0.0 0.0 
0.0 0.0 0.0 
0.0 0.0 0.0 
0.0 0.0 0.0 
0.0 0.0 0.0 
0.0 0.0 0.0 
0.0 0.0 0.0 
0.0 0.0 0.0 
0.0 0.0 0.0 
0.0 0.0 0.0 
0.0 0.0 0.0 
0.0 0.0 0.0 
0.0 0.0 0.0 
0.0 0.0 0.0 
0.0 0.0 0.0 
0.0 0.0 0.0 
0.0 0.0 0.0 
0.0 0.0 0.0 
0.0 0.0 0.0 
0.0 0.0 0.0 
0.0 0.0 0.0 
0.0 0.0 0.0 
0.0 0.0 0.0 
0.0 0.0 0.0 
0.0 0.0 0.0 
0.0 0.0 0.0 
0.0 0.0 0.0 
0.0 0.0 0.0 
0.0 0.0 0.0 
0.0 0.0 0.0 
0.0 0.0 0.0 
0.0 0.0 0.0 
0.0 0.0 0.0 
0.0 0.0 0.0 
0.0 0.0 0.0 
0.0 0.0 0.0 
0.0 0.0 0.0 
0.0 0.0 0.0 
0.0 0.0 0.0 
0.0 0.0 0.0 
0.0 0.0 0.0 
0.0 0.0 0.0 
0.0 0.0 0.0 
0.0 0.0 0.0 
0.0 0.0 0.0 
0.0 0.0 0.0 
0.0 0.0 0.0 
0.0 0.0 0.0 
0.0 0.0 0.0 
0.0 0.0 0.0 
0.0 0.0 0.0 
0.0 0.0 0.0 
0.0 0.0 0.0 
0.0 0.0 0.0 
0.0 0.0 0.0 
0.0 0.0 0.0 
0.0 0.0 0.0 
0.0 0.0 0.0 
0.0 0.0 0.0 
0.0 0.0 0.0 
0.0 0.0 0.0 
0.0 0.0 0.0 
0.0 0.0 0.0 
0.0 0.0 0.0 
0.0 0.0 0.0 
0.0 0.0 0.0 
0.0 0.0 0.0 
0.0 0.0 0.0 
0.0 0.0 0.0 
0.0 0.0 0.0 
0.0 0.0 0.0 
0.0 0.0 0.0 
0.0 0.0 0.0 
0.0 0.0 0.0 
0.0 0.0 0.0 
0.0 0.0 0.0 
0.0 0.0 0.0 
0.0 0.0 0.0 
0.0 0.0 0.0 
0.0 0.0 0.0 
0.0 0.0 0.0 
0.0 0.0 0.0 
0.0 0.0 0.0 
0.0 0.0 0.0 
0.0 0.0 0.0 
0.0 0.0 0.0 
0.0 0.0 0.0 
0.0 0.0 0.0 
0.0 0.0 0.0 
0.0 0.0 0.0 
0.0 0.0 0.0 
0.0 0.0 0.0 
0.0 0.0 0.0 
0.0 0.0 0.0 
0.0 0.0 0.0 
0.0 0.0 0.0 
0.0 0.0 0.0 
0.0 0.0 0.0 
0.0 0.0 0.0 
0.0 0.0 0.0 
0.0 0.0 0.0 
0.0 0.0 0.0 
0.0 0.0 0.0 
0.0 0.0 0.0 
0.0 0.0 0.0 
0.0 0.0 0.0 
0.0 0.0 0.0 
0.0 0.0 0.0 
0.0 0.0 0.0 
0.0 0.0 0.0 
0.0 0.0 0.0 
0.0 0.0 0.0 
0.0 0.0 0.0 
0.0 0.0 0.0 
0.0 0.0 0.0 
0.0 0.0 0.0 
0.0 0.0 0.0 
0.0 0.0 0.0 
0.0 0.0 0.0 
0.0 0.0 0.0 
0.0 0.0 0.0 
0.0 0.0 0.0 
0.0 0.0 0.0 
0.0 0.0 0.0 
0.0 0.0 0.0 
0.0 0.0 0.0 
0.0 0.0 0.0 
0.0 0.0 0.0 
0.0 0.0 0.0 
0.0 0.0 0.0 
0.0 0.0 0.0 
0.0 0.0 0.0 
0.0 0.0 0.0 
0.0 0.0 0.0 
0.0 0.0 0.0 
0.0 0.0 0.0 
0.0 0.0 0.0 
0.0 0.0 0.0 
0.0 0.0 0.0 
0.0 0.0 0.0 
0.0 0.0 0.0 
0.0 0.0 0.0 
0.0 0.0 0.0 
0.0 0.0 0.0 
0.0 0.0 0.0 
0.0 0.0 0.0 
0.0 0.0 0.0 
0.0 0.0 0.0 
0.0 0.0 0.0 
0.0 0.0 0.0 
0.0 0.0 0.0 
0.0 0.0 0.0 
0.0 0.0 0.0 
0.0 0.0 0.0 
0.0 0.0 0.0 
0.0 0.0 0.0 
0.0 0.0 0.0 
0.0 0.0 0.0 
0.0 0.0 0.0 
0.0 0.0 0.0 
0.0 0.0 0.0 
0.0 0.0 0.0 
0.0 0.0 0.0 
0.0 0.0 0.0 
0.0 0.0 0.0 
0.0 0.0 0.0 
0.0 0.0 0.0 
0.0 0.0 0.0 
0.0 0.0 0.0 
0.0 0.0 0.0 
0.0 0.0 0.0 
0.0 0.0 0.0 
0.0 0.0 0.0 
0.0 0.0 0.0 
0.0 0.0 0.0 
0.0 0.0 0.0 
0.0 0.0 0.0 
0.0 0.0 0.0 
0.0 0.0 0.0 
0.0 0.0 0.0 
0.0 0.0 0.0 
0.0 0.0 0.0 
0.0 0.0 0.0 
0.0 0.0 0.0 
0.0 0.0 0.0 
0.0 0.0 0.0 
0.0 0.0 0.0 
0.0 0.0 0.0 
0.0 0.0 0.0 
0.0 0.0 0.0 
0.0 0.0 0.0 
0.0 0.0 0.0 
0.0 0.0 0.0 
0.0 0.0 0.0 
0.0 0.0 0.0 
0.0 0.0 0.0 
0.0 0.0 0.0 
0.0 0.0 0.0 
0.0 0.0 0.0 
0.0 0.0 0.0 
0.0 0.0 0.0 
0.0 0.0 0.0 
0.0 0.0 0.0 
0.0 0.0 0.0 
0.0 0.0 0.0 
0.0 0.0 0.0 
0.0 0.0 0.0 
0.0 0.0 0.0 
0.0 0.0 0.0 
0.0 0.0 0.0 
0.0 0.0 0.0 
0.0 0.0 0.0 
0.0 0.0 0.0 
0.0 0.0 0.0 
0.0 0.0 0.0 
0.0 0.0 0.0 
0.0 0.0 0.0 
0.0 0.0 0.0 
0.0 0.0 0.0 
0.0 0.0 0.0 
0.0 0.0 0.0 
0.0 0.0 0.0 
0.0 0.0 0.0 
0.0 0.0 0.0 
0.0 0.0 0.0 
0.0 0.0 0.0 
0.0 0.0 0.0 
0.0 0.0 0.0 
0.0 0.0 0.0 
0.0 0.0 0.0 
0.0 0.0 0.0 
0.0 0.0 0.0 
0.0 0.0 0.0 
0.0 0.0 0.0 
0.0 0.0 0.0 
0.0 0.0 0.0 
0.0 0.0 0.0 
0.0 0.0 0.0 
0.0 0.0 0.0 
0.0 0.0 0.0 
0.0 0.0 0.0 
0.0 0.0 0.0 
0.0 0.0 0.0 
0.0 0.0 0.0 
0.0 0.0 0.0 
0.0 0.0 0.0 
0.0 0.0 0.0 
0.0 0.0 0.0 
0.0 0.0 0.0 
0.0 0.0 0.0 
0.0 0.0 0.0 
0.0 0.0 0.0 
0.0 0.0 0.0 
0.0 0.0 0.0 
0.0 0.0 0.0 
0.0 0.0 0.0 
0.0 0.0 0.0 
0.0 0.0 0.0 
0.0 0.0 0.0 
0.0 0.0 0.0 
0.0 0.0 0.0 
0.0 0.0 0.0 
0.0 0.0 0.0 
0.0 0.0 0.0 
0.0 0.0 0.0 
0.0 0.0 0.0 
0.0 0.0 0.0 
0.0 0.0 0.0 
0.0 0.0 0.0 
0.0 0.0 0.0 
0.0 0.0 0.0 
0.0 0.0 0.0 
0.0 0.0 0.0 
0.0 0.0 0.0 
0.0 0.0 0.0 
0.0 0.0 0.0 
0.0 0.0 0.0 
0.0 0.0 0.0 
0.0 0.0 0.0 
0.0 0.0 0.0 
0.0 0.0 0.0 
0.0 0.0 0.0 
0.0 0.0 0.0 
0.0 0.0 0.0 
0.0 0.0 0.0 
0.0 0.0 0.0 
0.0 0.0 0.0 
0.0 0.0 0.0 
0.0 0.0 0.0 
0.0 0.0 0.0 
0.0 0.0 0.0 
0.0 0.0 0.0 
0.0 0.0 0.0 
0.0 0.0 0.0 
0.0 0.0 0.0 
0.0 0.0 0.0 
0.0 0.0 0.0 
0.0 0.0 0.0 
0.0 0.0 0.0 
0.0 0.0 0.0 
0.0 0.0 0.0 
0.0 0.0 0.0 
0.0 0.0 0.0 
0.0 0.0 0.0 
0.0 0.0 0.0 
0.0 0.0 0.0 
0.0 0.0 0.0 
0.0 0.0 0.0 
0.0 0.0 0.0 
0.0 0.0 0.0 
0.0 0.0 0.0 
0.0 0.0 0.0 
0.0 0.0 0.0 
0.0 0.0 0.0 
0.0 0.0 0.0 
0.0 0.0 0.0 
0.0 0.0 0.0 
0.0 0.0 0.0 
0.0 0.0 0.0 
0.0 0.0 0.0 
0.0 0.0 0.0 
0.0 0.0 0.0 
0.0 0.0 0.0 
0.0 0.0 0.0 
0.0 0.0 0.0 
0.0 0.0 0.0 
0.0 0.0 0.0 
0.0 0.0 0.0 
0.0 0.0 0.0 
0.0 0.0 0.0 
0.0 0.0 0.0 
0.0 0.0 0.0 
0.0 0.0 0.0 
0.0 0.0 0.0 
0.0 0.0 0.0 
0.0 0.0 0.0 
0.0 0.0 0.0 
0.0 0.0 0.0 
0.0 0.0 0.0 
0.0 0.0 0.0 
0.0 0.0 0.0 
0.0 0.0 0.0 
0.0 0.0 0.0 
0.0 0.0 0.0 
0.0 0.0 0.0 
0.0 0.0 0.0 
0.0 0.0 0.0 
0.0 0.0 0.0 
0.0 0.0 0.0 
0.0 0.0 0.0 
0.0 0.0 0.0 
0.0 0.0 0.0 
0.0 0.0 0.0 
0.0 0.0 0.0 
0.0 0.0 0.0 
0.0 0.0 0.0 
0.0 0.0 0.0 
0.0 0.0 0.0 
0.0 0.0 0.0 
0.0 0.0 0.0 
0.0 0.0 0.0 
0.0 0.0 0.0 
0.0 0.0 0.0 
0.0 0.0 0.0 
0.0 0.0 0.0 
0.0 0.0 0.0 
0.0 0.0 0.0 
0.0 0.0 0.0 
0.0 0.0 0.0 
0.0 0.0 0.0 
0.0 0.0 0.0 
0.0 0.0 0.0 
0.0 0.0 0.0 
0.0 0.0 0.0 
0.0 0.0 0.0 
0.0 0.0 0.0 
0.0 0.0 0.0 
0.0 0.0 0.0 
0.0 0.0 0.0 
0.0 0.0 0.0 
0.0 0.0 0.0 
0.0 0.0 0.0 
0.0 0.0 0.0 
0.0 0.0 0.0 
0.0 0.0 0.0 
0.0 0.0 0.0 
0.0 0.0 0.0 
0.0 0.0 0.0 
0.0 0.0 0.0 
0.0 0.0 0.0 
0.0 0.0 0.0 
0.0 0.0 0.0 
0.0 0.0 0.0 
0.0 0.0 0.0 
0.0 0.0 0.0 
0.0 0.0 0.0 
0.0 0.0 0.0 
0.0 0.0 0.0 
0.0 0.0 0.0 
0.0 0.0 0.0 
0.0 0.0 0.0 
0.0 0.0 0.0 
0.0 0.0 0.0 
0.0 0.0 0.0 
0.0 0.0 0.0 
0.0 0.0 0.0 
0.0 0.0 0.0 
0.0 0.0 0.0 
0.0 0.0 0.0 
0.0 0.0 0.0 
0.0 0.0 0.0 
0.0 0.0 0.0 
0.0 0.0 0.0 
0.0 0.0 0.0 
0.0 0.0 0.0 
0.0 0.0 0.0 
0.0 0.0 0.0 
0.0 0.0 0.0 
0.0 0.0 0.0 
0.0 0.0 0.0 
0.0 0.0 0.0 
0.0 0.0 0.0 
0.0 0.0 0.0 
0.0 0.0 0.0 
0.0 0.0 0.0 
0.0 0.0 0.0 
0.0 0.0 0.0 
0.0 0.0 0.0 
0.0 0.0 0.0 
0.0 0.0 0.0 
0.0 0.0 0.0 
0.0 0.0 0.0 
0.0 0.0 0.0 
0.0 0.0 0.0 
0.0 0.0 0.0 
0.0 0.0 0.0 
0.0 0.0 0.0 
0.0 0.0 0.0 
0.0 0.0 0.0 
0.0 0.0 0.0 
0.0 0.0 0.0 
0.0 0.0 0.0 
0.0 0.0 0.0 
0.0 0.0 0.0 
0.0 0.0 0.0 
0.0 0.0 0.0 
0.0 0.0 0.0 
0.0 0.0 0.0 
0.0 0.0 0.0 
0.0 0.0 0.0 
0.0 0.0 0.0 
0.0 0.0 0.0 
0.0 0.0 0.0 
0.0 0.0 0.0 
0.0 0.0 0.0 
0.0 0.0 0.0 
0.0 0.0 0.0 
0.0 0.0 0.0 
0.0 0.0 0.0 
0.0 0.0 0.0 
0.0 0.0 0.0 
0.0 0.0 0.0 
0.0 0.0 0.0 
0.0 0.0 0.0 
0.0 0.0 0.0 
0.0 0.0 0.0 
0.0 0.0 0.0 
0.0 0.0 0.0 
0.0 0.0 0.0 
0.0 0.0 0.0 
0.0 0.0 0.0 
0.0 0.0 0.0 
0.0 0.0 0.0 
0.0 0.0 0.0 

SCALARS node_boundary float
LOOKUP_TABLE default
1.000000000000e+00 
1.000000000000e+00 
1.000000000000e+00 
1.000000000000e+00 
1.000000000000e+00 
1.000000000000e+00 
1.000000000000e+00 
1.000000000000e+00 
1.000000000000e+00 
1.000000000000e+00 
1.000000000000e+00 
1.000000000000e+00 
1.000000000000e+00 
1.000000000000e+00 
1.000000000000e+00 
1.000000000000e+00 
1.000000000000e+00 
1.000000000000e+00 
1.000000000000e+00 
1.000000000000e+00 
1.000000000000e+00 
1.000000000000e+00 
1.000000000000e+00 
1.000000000000e+00 
1.000000000000e+00 
1.000000000000e+00 
1.000000000000e+00 
1.000000000000e+00 
1.000000000000e+00 
1.000000000000e+00 
1.000000000000e+00 
1.000000000000e+00 
1.000000000000e+00 
1.000000000000e+00 
1.000000000000e+00 
1.000000000000e+00 
1.000000000000e+00 
1.000000000000e+00 
1.000000000000e+00 
1.000000000000e+00 
1.000000000000e+00 
1.000000000000e+00 
1.000000000000e+00 
1.000000000000e+00 
1.000000000000e+00 
1.000000000000e+00 
1.000000000000e+00 
1.000000000000e+00 
1.000000000000e+00 
1.000000000000e+00 
1.000000000000e+00 
1.000000000000e+00 
1.000000000000e+00 
1.000000000000e+00 
1.000000000000e+00 
1.000000000000e+00 
1.000000000000e+00 
1.000000000000e+00 
1.000000000000e+00 
1.000000000000e+00 
1.000000000000e+00 
1.000000000000e+00 
1.000000000000e+00 
1.000000000000e+00 
1.000000000000e+00 
1.000000000000e+00 
1.000000000000e+00 
1.000000000000e+00 
1.000000000000e+00 
1.000000000000e+00 
1.000000000000e+00 
1.000000000000e+00 
1.000000000000e+00 
1.000000000000e+00 
1.000000000000e+00 
1.000000000000e+00 
1.000000000000e+00 
1.000000000000e+00 
1.000000000000e+00 
1.000000000000e+00 
1.000000000000e+00 
1.000000000000e+00 
0.0
1.000000000000e+00 
1.000000000000e+00 
1.000000000000e+00 
1.000000000000e+00 
1.000000000000e+00 
1.000000000000e+00 
1.000000000000e+00 
1.000000000000e+00 
1.000000000000e+00 
1.000000000000e+00 
0.0
0.0
0.0
0.0
0.0
0.0
0.0
0.0
0.0
0.0
0.0
0.0
0.0
0.0
1.000000000000e+00 
1.000000000000e+00 
1.000000000000e+00 
1.000000000000e+00 
1.000000000000e+00 
1.000000000000e+00 
1.000000000000e+00 
1.000000000000e+00 
1.000000000000e+00 
1.000000000000e+00 
1.000000000000e+00 
1.000000000000e+00 
1.000000000000e+00 
1.000000000000e+00 
1.000000000000e+00 
1.000000000000e+00 
1.000000000000e+00 
1.000000000000e+00 
1.000000000000e+00 
1.000000000000e+00 
1.000000000000e+00 
1.000000000000e+00 
1.000000000000e+00 
1.000000000000e+00 
1.000000000000e+00 
1.000000000000e+00 
1.000000000000e+00 
1.000000000000e+00 
1.000000000000e+00 
1.000000000000e+00 
1.000000000000e+00 
1.000000000000e+00 
1.000000000000e+00 
1.000000000000e+00 
1.000000000000e+00 
1.000000000000e+00 
1.000000000000e+00 
1.000000000000e+00 
1.000000000000e+00 
1.000000000000e+00 
1.000000000000e+00 
1.000000000000e+00 
1.000000000000e+00 
1.000000000000e+00 
0.0
0.0
0.0
0.0
0.0
0.0
0.0
0.0
0.0
0.0
0.0
0.0
0.0
0.0
0.0
0.0
0.0
0.0
0.0
0.0
0.0
0.0
0.0
0.0
0.0
0.0
0.0
0.0
0.0
0.0
0.0
0.0
0.0
0.0
0.0
0.0
0.0
0.0
0.0
0.0
0.0
0.0
0.0
0.0
0.0
0.0
0.0
0.0
0.0
0.0
0.0
0.0
0.0
0.0
0.0
0.0
0.0
0.0
0.0
0.0
0.0
0.0
0.0
0.0
0.0
0.0
0.0
0.0
0.0
0.0
0.0
0.0
0.0
0.0
0.0
0.0
0.0
0.0
0.0
0.0
0.0
0.0
0.0
0.0
0.0
0.0
0.0
0.0
0.0
0.0
0.0
0.0
0.0
0.0
0.0
0.0
0.0
0.0
0.0
0.0
0.0
0.0
0.0
0.0
0.0
0.0
0.0
0.0
0.0
0.0
0.0
0.0
0.0
0.0
0.0
0.0
0.0
0.0
0.0
0.0
0.0
0.0
0.0
0.0
0.0
0.0
0.0
0.0
0.0
0.0
0.0
0.0
0.0
0.0
0.0
0.0
0.0
0.0
0.0
0.0
0.0
0.0
0.0
0.0
0.0
0.0
0.0
0.0
0.0
0.0
0.0
0.0
0.0
0.0
0.0
0.0
0.0
0.0
0.0
0.0
0.0
0.0
0.0
0.0
0.0
0.0
0.0
0.0
0.0
0.0
0.0
0.0
0.0
0.0
0.0
0.0
0.0
0.0
0.0
0.0
0.0
0.0
0.0
0.0
0.0
0.0
0.0
0.0
0.0
0.0
0.0
0.0
0.0
0.0
0.0
0.0
0.0
0.0
0.0
0.0
0.0
0.0
0.0
0.0
0.0
0.0
0.0
0.0
0.0
0.0
0.0
0.0
0.0
0.0
0.0
0.0
0.0
0.0
0.0
0.0
0.0
0.0
0.0
0.0
0.0
0.0
0.0
0.0
0.0
0.0
0.0
0.0
0.0
0.0
0.0
0.0
0.0
0.0
0.0
0.0
0.0
0.0
0.0
0.0
0.0
0.0
0.0
0.0
0.0
0.0
0.0
0.0
0.0
0.0
0.0
0.0
0.0
0.0
0.0
0.0
0.0
0.0
0.0
0.0
0.0
0.0
0.0
0.0
0.0
0.0
0.0
0.0
0.0
0.0
0.0
0.0
0.0
0.0
0.0
0.0
0.0
0.0
0.0
0.0
0.0
0.0
0.0
0.0
0.0
0.0
0.0
0.0
0.0
0.0
0.0
0.0
0.0
0.0
0.0
0.0
0.0
0.0
0.0
0.0
0.0
0.0
0.0
0.0
0.0
0.0
0.0
0.0
0.0
0.0
0.0
0.0
0.0
0.0
0.0
0.0
0.0
0.0
0.0
0.0
0.0
0.0
0.0
0.0
0.0
0.0
0.0
0.0
0.0
0.0
0.0
0.0
0.0
0.0
0.0
0.0
0.0
0.0
0.0
0.0
0.0
0.0
0.0
0.0
0.0
0.0
0.0
0.0
0.0
0.0
0.0
0.0
0.0
0.0
0.0
0.0
0.0
0.0
0.0
0.0
0.0
0.0
0.0
0.0
0.0
0.0
0.0
0.0
0.0
0.0
0.0
0.0
0.0
0.0
0.0
0.0
0.0
0.0
0.0
0.0
0.0
0.0
0.0
0.0
0.0
0.0
0.0
0.0
0.0
0.0
0.0
0.0
0.0
0.0
0.0
0.0
0.0
0.0
0.0
0.0
0.0
0.0
0.0
0.0
0.0
0.0
0.0
0.0
0.0
0.0
0.0
0.0
0.0
0.0
0.0
0.0
0.0
0.0
0.0
0.0
0.0
0.0
0.0
0.0
0.0
0.0
0.0
0.0
0.0
0.0
0.0
0.0
0.0
0.0
0.0
0.0
0.0
0.0
0.0
0.0
0.0
0.0
0.0
0.0
0.0
0.0
0.0
0.0
0.0
0.0
0.0
0.0
0.0
0.0
0.0
0.0
0.0
0.0
0.0
0.0
0.0
0.0
0.0
0.0
0.0
0.0
0.0
0.0
0.0
0.0
0.0
0.0
0.0
0.0
0.0
0.0
0.0
0.0
0.0
0.0
0.0
0.0
0.0
0.0
0.0
0.0
0.0
0.0
0.0
0.0
0.0
0.0
0.0
0.0
0.0
0.0
0.0
0.0
0.0
0.0
0.0
0.0
0.0
0.0
0.0
0.0
0.0
0.0
0.0
0.0
0.0
0.0
0.0
0.0
0.0
0.0
0.0
0.0
0.0
0.0
0.0
0.0
0.0
0.0
0.0
0.0
0.0
0.0
0.0
0.0
0.0
0.0
0.0
0.0
0.0
0.0
0.0
0.0
0.0
0.0
0.0
0.0
0.0
0.0
0.0
0.0
0.0
0.0
0.0
0.0
0.0
0.0
0.0
0.0
0.0
0.0
0.0
0.0
0.0
0.0
0.0
0.0
0.0
0.0
0.0
0.0
0.0
0.0
0.0
0.0
0.0
0.0
0.0
0.0
0.0
0.0
0.0
0.0
0.0
0.0
0.0
0.0
0.0
0.0
0.0
0.0
0.0
0.0
0.0
0.0
0.0
0.0
0.0
0.0
0.0
0.0
0.0
0.0
0.0
0.0
0.0
0.0
0.0
0.0
0.0
0.0
0.0
0.0
0.0
0.0
0.0
0.0
0.0
0.0
0.0
0.0
0.0
0.0
0.0
0.0
0.0
0.0
0.0
0.0
0.0
0.0
0.0
0.0
0.0
0.0
0.0
0.0
0.0
0.0
0.0
0.0
0.0
0.0
0.0
0.0
0.0
0.0
0.0
0.0
0.0
0.0
0.0
0.0
0.0
0.0
0.0
0.0
0.0
0.0
0.0
0.0
0.0
0.0
0.0
0.0
0.0
0.0
0.0
0.0
0.0
0.0
0.0
0.0
0.0
0.0
0.0
0.0
0.0
0.0
0.0
0.0
0.0
0.0
0.0
0.0
0.0
0.0
0.0
0.0
0.0
0.0
0.0
0.0
0.0
0.0
0.0
0.0
0.0
0.0
0.0
0.0
0.0
0.0
0.0
0.0
0.0
0.0
0.0
0.0
0.0
0.0
0.0
0.0
0.0
0.0
0.0
0.0
0.0
0.0
0.0
0.0
0.0
0.0
0.0
0.0
0.0
0.0
0.0
0.0
0.0
0.0
0.0
0.0
0.0
0.0
0.0
0.0
0.0
0.0
0.0
0.0
0.0
0.0
0.0
0.0
0.0
0.0
0.0
0.0
0.0
0.0
0.0
0.0
0.0
0.0
0.0
0.0
0.0
0.0
0.0
0.0
0.0
0.0
0.0
0.0
0.0
0.0
0.0
0.0
0.0
0.0
0.0
0.0
0.0
0.0
0.0
0.0
0.0
0.0
0.0
0.0
0.0
0.0
0.0
0.0
0.0
0.0
0.0
0.0
0.0
0.0
0.0
0.0
0.0
0.0
0.0
0.0
0.0
0.0
0.0
0.0
0.0
0.0
0.0
0.0
0.0
0.0
0.0
0.0
0.0
0.0
0.0
0.0
0.0
0.0
0.0
0.0
0.0
0.0
0.0
0.0
0.0
0.0
0.0
0.0
0.0
0.0
0.0
0.0
0.0
0.0
0.0
0.0
0.0
0.0
0.0
0.0
0.0
0.0
0.0
0.0
0.0
0.0
0.0
0.0
0.0
0.0
0.0
0.0
0.0
0.0
0.0
0.0
0.0
0.0
0.0
0.0
0.0
0.0
0.0
0.0
0.0
0.0
0.0
0.0
0.0
0.0
0.0
0.0
0.0
0.0
0.0
0.0
0.0
0.0
0.0
0.0
0.0
0.0
0.0
0.0
0.0
0.0
0.0
0.0
0.0
0.0
0.0
0.0
0.0
0.0
0.0
0.0
0.0
0.0
0.0
0.0

VECTORS node_force_gravity float
0.0 -1.962000000000e+01 0.0 
0.0 -1.962000000000e+01 0.0 
0.0 -1.962000000000e+01 0.0 
0.0 -1.962000000000e+01 0.0 
0.0 -1.962000000000e+01 0.0 
0.0 -1.962000000000e+01 0.0 
0.0 -1.962000000000e+01 0.0 
0.0 -1.962000000000e+01 0.0 
0.0 -1.962000000000e+01 0.0 
0.0 -1.962000000000e+01 0.0 
0.0 -1.962000000000e+01 0.0 
0.0 -1.962000000000e+01 0.0 
0.0 -1.962000000000e+01 0.0 
0.0 -1.962000000000e+01 0.0 
0.0 -1.962000000000e+01 0.0 
0.0 -1.962000000000e+01 0.0 
0.0 -1.962000000000e+01 0.0 
0.0 -1.962000000000e+01 0.0 
0.0 -1.962000000000e+01 0.0 
0.0 -1.962000000000e+01 0.0 
0.0 -1.962000000000e+01 0.0 
0.0 -1.962000000000e+01 0.0 
0.0 -1.962000000000e+01 0.0 
0.0 -1.962000000000e+01 0.0 
0.0 -1.962000000000e+01 0.0 
0.0 -1.962000000000e+01 0.0 
0.0 -1.962000000000e+01 0.0 
0.0 -1.962000000000e+01 0.0 
0.0 -1.962000000000e+01 0.0 
0.0 -1.962000000000e+01 0.0 
0.0 -1.962000000000e+01 0.0 
0.0 -1.962000000000e+01 0.0 
0.0 -1.962000000000e+01 0.0 
0.0 -1.962000000000e+01 0.0 
0.0 -1.962000000000e+01 0.0 
0.0 -1.962000000000e+01 0.0 
0.0 -1.962000000000e+01 0.0 
0.0 -1.962000000000e+01 0.0 
0.0 -1.962000000000e+01 0.0 
0.0 -1.962000000000e+01 0.0 
0.0 -1.962000000000e+01 0.0 
0.0 -1.962000000000e+01 0.0 
0.0 -1.962000000000e+01 0.0 
0.0 -1.962000000000e+01 0.0 
0.0 -1.962000000000e+01 0.0 
0.0 -1.962000000000e+01 0.0 
0.0 -1.962000000000e+01 0.0 
0.0 -1.962000000000e+01 0.0 
0.0 -1.962000000000e+01 0.0 
0.0 -1.962000000000e+01 0.0 
0.0 -1.962000000000e+01 0.0 
0.0 -1.962000000000e+01 0.0 
0.0 -1.962000000000e+01 0.0 
0.0 -1.962000000000e+01 0.0 
0.0 -1.962000000000e+01 0.0 
0.0 -1.962000000000e+01 0.0 
0.0 -1.962000000000e+01 0.0 
0.0 -1.962000000000e+01 0.0 
0.0 -1.962000000000e+01 0.0 
0.0 -1.962000000000e+01 0.0 
0.0 -1.962000000000e+01 0.0 
0.0 -1.962000000000e+01 0.0 
0.0 -1.962000000000e+01 0.0 
0.0 -1.962000000000e+01 0.0 
0.0 -1.962000000000e+01 0.0 
0.0 -1.962000000000e+01 0.0 
0.0 -1.962000000000e+01 0.0 
0.0 -1.962000000000e+01 0.0 
0.0 -1.962000000000e+01 0.0 
0.0 -1.962000000000e+01 0.0 
0.0 -1.962000000000e+01 0.0 
0.0 -1.962000000000e+01 0.0 
0.0 -1.962000000000e+01 0.0 
0.0 -1.962000000000e+01 0.0 
0.0 -1.962000000000e+01 0.0 
0.0 -1.962000000000e+01 0.0 
0.0 -1.962000000000e+01 0.0 
0.0 -1.962000000000e+01 0.0 
0.0 -1.962000000000e+01 0.0 
0.0 -1.962000000000e+01 0.0 
0.0 -1.962000000000e+01 0.0 
0.0 -1.962000000000e+01 0.0 
0.0 -1.962000000000e+01 0.0 
0.0 -1.962000000000e+01 0.0 
0.0 -1.962000000000e+01 0.0 
0.0 -1.962000000000e+01 0.0 
0.0 -1.962000000000e+01 0.0 
0.0 -1.962000000000e+01 0.0 
0.0 -1.962000000000e+01 0.0 
0.0 -1.962000000000e+01 0.0 
0.0 -1.962000000000e+01 0.0 
0.0 -1.962000000000e+01 0.0 
0.0 -1.962000000000e+01 0.0 
0.0 -1.962000000000e+01 0.0 
0.0 -1.962000000000e+01 0.0 
0.0 -1.962000000000e+01 0.0 
0.0 -1.962000000000e+01 0.0 
0.0 -1.962000000000e+01 0.0 
0.0 -1.962000000000e+01 0.0 
0.0 -1.962000000000e+01 0.0 
0.0 -1.962000000000e+01 0.0 
0.0 -1.962000000000e+01 0.0 
0.0 -1.962000000000e+01 0.0 
0.0 -1.962000000000e+01 0.0 
0.0 -1.962000000000e+01 0.0 
0.0 -1.962000000000e+01 0.0 
0.0 -1.962000000000e+01 0.0 
0.0 -1.962000000000e+01 0.0 
0.0 -1.962000000000e+01 0.0 
0.0 -1.962000000000e+01 0.0 
0.0 -1.962000000000e+01 0.0 
0.0 -1.962000000000e+01 0.0 
0.0 -1.962000000000e+01 0.0 
0.0 -1.962000000000e+01 0.0 
0.0 -1.962000000000e+01 0.0 
0.0 -1.962000000000e+01 0.0 
0.0 -1.962000000000e+01 0.0 
0.0 -1.962000000000e+01 0.0 
0.0 -1.962000000000e+01 0.0 
0.0 -1.962000000000e+01 0.0 
0.0 -1.962000000000e+01 0.0 
0.0 -1.962000000000e+01 0.0 
0.0 -1.962000000000e+01 0.0 
0.0 -1.962000000000e+01 0.0 
0.0 -1.962000000000e+01 0.0 
0.0 -1.962000000000e+01 0.0 
0.0 -1.962000000000e+01 0.0 
0.0 -1.962000000000e+01 0.0 
0.0 -1.962000000000e+01 0.0 
0.0 -1.962000000000e+01 0.0 
0.0 -1.962000000000e+01 0.0 
0.0 -1.962000000000e+01 0.0 
0.0 -1.962000000000e+01 0.0 
0.0 -1.962000000000e+01 0.0 
0.0 -1.962000000000e+01 0.0 
0.0 -1.962000000000e+01 0.0 
0.0 -1.962000000000e+01 0.0 
0.0 -1.962000000000e+01 0.0 
0.0 -1.962000000000e+01 0.0 
0.0 -1.962000000000e+01 0.0 
0.0 -1.962000000000e+01 0.0 
0.0 -1.962000000000e+01 0.0 
0.0 -1.962000000000e+01 0.0 
0.0 -1.962000000000e+01 0.0 
0.0 -1.962000000000e+01 0.0 
0.0 -1.962000000000e+01 0.0 
0.0 -1.962000000000e+01 0.0 
0.0 -1.962000000000e+01 0.0 
0.0 -1.962000000000e+01 0.0 
0.0 -1.962000000000e+01 0.0 
0.0 -1.962000000000e+01 0.0 
0.0 -1.962000000000e+01 0.0 
0.0 -1.962000000000e+01 0.0 
0.0 -1.962000000000e+01 0.0 
0.0 -1.962000000000e+01 0.0 
0.0 -1.962000000000e+01 0.0 
0.0 -1.962000000000e+01 0.0 
0.0 -1.962000000000e+01 0.0 
0.0 -1.962000000000e+01 0.0 
0.0 -1.962000000000e+01 0.0 
0.0 -1.962000000000e+01 0.0 
0.0 -1.962000000000e+01 0.0 
0.0 -1.962000000000e+01 0.0 
0.0 -1.962000000000e+01 0.0 
0.0 -1.962000000000e+01 0.0 
0.0 -1.962000000000e+01 0.0 
0.0 -1.962000000000e+01 0.0 
0.0 -1.962000000000e+01 0.0 
0.0 -1.962000000000e+01 0.0 
0.0 -1.962000000000e+01 0.0 
0.0 -1.962000000000e+01 0.0 
0.0 -1.962000000000e+01 0.0 
0.0 -1.962000000000e+01 0.0 
0.0 -1.962000000000e+01 0.0 
0.0 -1.962000000000e+01 0.0 
0.0 -1.962000000000e+01 0.0 
0.0 -1.962000000000e+01 0.0 
0.0 -1.962000000000e+01 0.0 
0.0 -1.962000000000e+01 0.0 
0.0 -1.962000000000e+01 0.0 
0.0 -1.962000000000e+01 0.0 
0.0 -1.962000000000e+01 0.0 
0.0 -1.962000000000e+01 0.0 
0.0 -1.962000000000e+01 0.0 
0.0 -1.962000000000e+01 0.0 
0.0 -1.962000000000e+01 0.0 
0.0 -1.962000000000e+01 0.0 
0.0 -1.962000000000e+01 0.0 
0.0 -1.962000000000e+01 0.0 
0.0 -1.962000000000e+01 0.0 
0.0 -1.962000000000e+01 0.0 
0.0 -1.962000000000e+01 0.0 
0.0 -1.962000000000e+01 0.0 
0.0 -1.962000000000e+01 0.0 
0.0 -1.962000000000e+01 0.0 
0.0 -1.962000000000e+01 0.0 
0.0 -1.962000000000e+01 0.0 
0.0 -1.962000000000e+01 0.0 
0.0 -1.962000000000e+01 0.0 
0.0 -1.962000000000e+01 0.0 
0.0 -1.962000000000e+01 0.0 
0.0 -1.962000000000e+01 0.0 
0.0 -1.962000000000e+01 0.0 
0.0 -1.962000000000e+01 0.0 
0.0 -1.962000000000e+01 0.0 
0.0 -1.962000000000e+01 0.0 
0.0 -1.962000000000e+01 0.0 
0.0 -1.962000000000e+01 0.0 
0.0 -1.962000000000e+01 0.0 
0.0 -1.962000000000e+01 0.0 
0.0 -1.962000000000e+01 0.0 
0.0 -1.962000000000e+01 0.0 
0.0 -1.962000000000e+01 0.0 
0.0 -1.962000000000e+01 0.0 
0.0 -1.962000000000e+01 0.0 
0.0 -1.962000000000e+01 0.0 
0.0 -1.962000000000e+01 0.0 
0.0 -1.962000000000e+01 0.0 
0.0 -1.962000000000e+01 0.0 
0.0 -1.962000000000e+01 0.0 
0.0 -1.962000000000e+01 0.0 
0.0 -1.962000000000e+01 0.0 
0.0 -1.962000000000e+01 0.0 
0.0 -1.962000000000e+01 0.0 
0.0 -1.962000000000e+01 0.0 
0.0 -1.962000000000e+01 0.0 
0.0 -1.962000000000e+01 0.0 
0.0 -1.962000000000e+01 0.0 
0.0 -1.962000000000e+01 0.0 
0.0 -1.962000000000e+01 0.0 
0.0 -1.962000000000e+01 0.0 
0.0 -1.962000000000e+01 0.0 
0.0 -1.962000000000e+01 0.0 
0.0 -1.962000000000e+01 0.0 
0.0 -1.962000000000e+01 0.0 
0.0 -1.962000000000e+01 0.0 
0.0 -1.962000000000e+01 0.0 
0.0 -1.962000000000e+01 0.0 
0.0 -1.962000000000e+01 0.0 
0.0 -1.962000000000e+01 0.0 
0.0 -1.962000000000e+01 0.0 
0.0 -1.962000000000e+01 0.0 
0.0 -1.962000000000e+01 0.0 
0.0 -1.962000000000e+01 0.0 
0.0 -1.962000000000e+01 0.0 
0.0 -1.962000000000e+01 0.0 
0.0 -1.962000000000e+01 0.0 
0.0 -1.962000000000e+01 0.0 
0.0 -1.962000000000e+01 0.0 
0.0 -1.962000000000e+01 0.0 
0.0 -1.962000000000e+01 0.0 
0.0 -1.962000000000e+01 0.0 
0.0 -1.962000000000e+01 0.0 
0.0 -1.962000000000e+01 0.0 
0.0 -1.962000000000e+01 0.0 
0.0 -1.962000000000e+01 0.0 
0.0 -1.962000000000e+01 0.0 
0.0 -1.962000000000e+01 0.0 
0.0 -1.962000000000e+01 0.0 
0.0 -1.962000000000e+01 0.0 
0.0 -1.962000000000e+01 0.0 
0.0 -1.962000000000e+01 0.0 
0.0 -1.962000000000e+01 0.0 
0.0 -1.962000000000e+01 0.0 
0.0 -1.962000000000e+01 0.0 
0.0 -1.962000000000e+01 0.0 
0.0 -1.962000000000e+01 0.0 
0.0 -1.962000000000e+01 0.0 
0.0 -1.962000000000e+01 0.0 
0.0 -1.962000000000e+01 0.0 
0.0 -1.962000000000e+01 0.0 
0.0 -1.962000000000e+01 0.0 
0.0 -1.962000000000e+01 0.0 
0.0 -1.962000000000e+01 0.0 
0.0 -1.962000000000e+01 0.0 
0.0 -1.962000000000e+01 0.0 
0.0 -1.962000000000e+01 0.0 
0.0 -1.962000000000e+01 0.0 
0.0 -1.962000000000e+01 0.0 
0.0 -1.962000000000e+01 0.0 
0.0 -1.962000000000e+01 0.0 
0.0 -1.962000000000e+01 0.0 
0.0 -1.962000000000e+01 0.0 
0.0 -1.962000000000e+01 0.0 
0.0 -1.962000000000e+01 0.0 
0.0 -1.962000000000e+01 0.0 
0.0 -1.962000000000e+01 0.0 
0.0 -1.962000000000e+01 0.0 
0.0 -1.962000000000e+01 0.0 
0.0 -1.962000000000e+01 0.0 
0.0 -1.962000000000e+01 0.0 
0.0 -1.962000000000e+01 0.0 
0.0 -1.962000000000e+01 0.0 
0.0 -1.962000000000e+01 0.0 
0.0 -1.962000000000e+01 0.0 
0.0 -1.962000000000e+01 0.0 
0.0 -1.962000000000e+01 0.0 
0.0 -1.962000000000e+01 0.0 
0.0 -1.962000000000e+01 0.0 
0.0 -1.962000000000e+01 0.0 
0.0 -1.962000000000e+01 0.0 
0.0 -1.962000000000e+01 0.0 
0.0 -1.962000000000e+01 0.0 
0.0 -1.962000000000e+01 0.0 
0.0 -1.962000000000e+01 0.0 
0.0 -1.962000000000e+01 0.0 
0.0 -1.962000000000e+01 0.0 
0.0 -1.962000000000e+01 0.0 
0.0 -1.962000000000e+01 0.0 
0.0 -1.962000000000e+01 0.0 
0.0 -1.962000000000e+01 0.0 
0.0 -1.962000000000e+01 0.0 
0.0 -1.962000000000e+01 0.0 
0.0 -1.962000000000e+01 0.0 
0.0 -1.962000000000e+01 0.0 
0.0 -1.962000000000e+01 0.0 
0.0 -1.962000000000e+01 0.0 
0.0 -1.962000000000e+01 0.0 
0.0 -1.962000000000e+01 0.0 
0.0 -1.962000000000e+01 0.0 
0.0 -1.962000000000e+01 0.0 
0.0 -1.962000000000e+01 0.0 
0.0 -1.962000000000e+01 0.0 
0.0 -1.962000000000e+01 0.0 
0.0 -1.962000000000e+01 0.0 
0.0 -1.962000000000e+01 0.0 
0.0 -1.962000000000e+01 0.0 
0.0 -1.962000000000e+01 0.0 
0.0 -1.962000000000e+01 0.0 
0.0 -1.962000000000e+01 0.0 
0.0 -1.962000000000e+01 0.0 
0.0 -1.962000000000e+01 0.0 
0.0 -1.962000000000e+01 0.0 
0.0 -1.962000000000e+01 0.0 
0.0 -1.962000000000e+01 0.0 
0.0 -1.962000000000e+01 0.0 
0.0 -1.962000000000e+01 0.0 
0.0 -1.962000000000e+01 0.0 
0.0 -1.962000000000e+01 0.0 
0.0 -1.962000000000e+01 0.0 
0.0 -1.962000000000e+01 0.0 
0.0 -1.962000000000e+01 0.0 
0.0 -1.962000000000e+01 0.0 
0.0 -1.962000000000e+01 0.0 
0.0 -1.962000000000e+01 0.0 
0.0 -1.962000000000e+01 0.0 
0.0 -1.962000000000e+01 0.0 
0.0 -1.962000000000e+01 0.0 
0.0 -1.962000000000e+01 0.0 
0.0 -1.962000000000e+01 0.0 
0.0 -1.962000000000e+01 0.0 
0.0 -1.962000000000e+01 0.0 
0.0 -1.962000000000e+01 0.0 
0.0 -1.962000000000e+01 0.0 
0.0 -1.962000000000e+01 0.0 
0.0 -1.962000000000e+01 0.0 
0.0 -1.962000000000e+01 0.0 
0.0 -1.962000000000e+01 0.0 
0.0 -1.962000000000e+01 0.0 
0.0 -1.962000000000e+01 0.0 
0.0 -1.962000000000e+01 0.0 
0.0 -1.962000000000e+01 0.0 
0.0 -1.962000000000e+01 0.0 
0.0 -1.962000000000e+01 0.0 
0.0 -1.962000000000e+01 0.0 
0.0 -1.962000000000e+01 0.0 
0.0 -1.962000000000e+01 0.0 
0.0 -1.962000000000e+01 0.0 
0.0 -1.962000000000e+01 0.0 
0.0 -1.962000000000e+01 0.0 
0.0 -1.962000000000e+01 0.0 
0.0 -1.962000000000e+01 0.0 
0.0 -1.962000000000e+01 0.0 
0.0 -1.962000000000e+01 0.0 
0.0 -1.962000000000e+01 0.0 
0.0 -1.962000000000e+01 0.0 
0.0 -1.962000000000e+01 0.0 
0.0 -1.962000000000e+01 0.0 
0.0 -1.962000000000e+01 0.0 
0.0 -1.962000000000e+01 0.0 
0.0 -1.962000000000e+01 0.0 
0.0 -1.962000000000e+01 0.0 
0.0 -1.962000000000e+01 0.0 
0.0 -1.962000000000e+01 0.0 
0.0 -1.962000000000e+01 0.0 
0.0 -1.962000000000e+01 0.0 
0.0 -1.962000000000e+01 0.0 
0.0 -1.962000000000e+01 0.0 
0.0 -1.962000000000e+01 0.0 
0.0 -1.962000000000e+01 0.0 
0.0 -1.962000000000e+01 0.0 
0.0 -1.962000000000e+01 0.0 
0.0 -1.962000000000e+01 0.0 
0.0 -1.962000000000e+01 0.0 
0.0 -1.962000000000e+01 0.0 
0.0 -1.962000000000e+01 0.0 
0.0 -1.962000000000e+01 0.0 
0.0 -1.962000000000e+01 0.0 
0.0 -1.962000000000e+01 0.0 
0.0 -1.962000000000e+01 0.0 
0.0 -1.962000000000e+01 0.0 
0.0 -1.962000000000e+01 0.0 
0.0 -1.962000000000e+01 0.0 
0.0 -1.962000000000e+01 0.0 
0.0 -1.962000000000e+01 0.0 
0.0 -1.962000000000e+01 0.0 
0.0 -1.962000000000e+01 0.0 
0.0 -1.962000000000e+01 0.0 
0.0 -1.962000000000e+01 0.0 
0.0 -1.962000000000e+01 0.0 
0.0 -1.962000000000e+01 0.0 
0.0 -1.962000000000e+01 0.0 
0.0 -1.962000000000e+01 0.0 
0.0 -1.962000000000e+01 0.0 
0.0 -1.962000000000e+01 0.0 
0.0 -1.962000000000e+01 0.0 
0.0 -1.962000000000e+01 0.0 
0.0 -1.962000000000e+01 0.0 
0.0 -1.962000000000e+01 0.0 
0.0 -1.962000000000e+01 0.0 
0.0 -1.962000000000e+01 0.0 
0.0 -1.962000000000e+01 0.0 
0.0 -1.962000000000e+01 0.0 
0.0 -1.962000000000e+01 0.0 
0.0 -1.962000000000e+01 0.0 
0.0 -1.962000000000e+01 0.0 
0.0 -1.962000000000e+01 0.0 
0.0 -1.962000000000e+01 0.0 
0.0 -1.962000000000e+01 0.0 
0.0 -1.962000000000e+01 0.0 
0.0 -1.962000000000e+01 0.0 
0.0 -1.962000000000e+01 0.0 
0.0 -1.962000000000e+01 0.0 
0.0 -1.962000000000e+01 0.0 
0.0 -1.962000000000e+01 0.0 
0.0 -1.962000000000e+01 0.0 
0.0 -1.962000000000e+01 0.0 
0.0 -1.962000000000e+01 0.0 
0.0 -1.962000000000e+01 0.0 
0.0 -1.962000000000e+01 0.0 
0.0 -1.962000000000e+01 0.0 
0.0 -1.962000000000e+01 0.0 
0.0 -1.962000000000e+01 0.0 
0.0 -1.962000000000e+01 0.0 
0.0 -1.962000000000e+01 0.0 
0.0 -1.962000000000e+01 0.0 
0.0 -1.962000000000e+01 0.0 
0.0 -1.962000000000e+01 0.0 
0.0 -1.962000000000e+01 0.0 
0.0 -1.962000000000e+01 0.0 
0.0 -1.962000000000e+01 0.0 
0.0 -1.962000000000e+01 0.0 
0.0 -1.962000000000e+01 0.0 
0.0 -1.962000000000e+01 0.0 
0.0 -1.962000000000e+01 0.0 
0.0 -1.962000000000e+01 0.0 
0.0 -1.962000000000e+01 0.0 
0.0 -1.962000000000e+01 0.0 
0.0 -1.962000000000e+01 0.0 
0.0 -1.962000000000e+01 0.0 
0.0 -1.962000000000e+01 0.0 
0.0 -1.962000000000e+01 0.0 
0.0 -1.962000000000e+01 0.0 
0.0 -1.962000000000e+01 0.0 
0.0 -1.962000000000e+01 0.0 
0.0 -1.962000000000e+01 0.0 
0.0 -1.962000000000e+01 0.0 
0.0 -1.962000000000e+01 0.0 
0.0 -1.962000000000e+01 0.0 
0.0 -1.962000000000e+01 0.0 
0.0 -1.962000000000e+01 0.0 
0.0 -1.962000000000e+01 0.0 
0.0 -1.962000000000e+01 0.0 
0.0 -1.962000000000e+01 0.0 
0.0 -1.962000000000e+01 0.0 
0.0 -1.962000000000e+01 0.0 
0.0 -1.962000000000e+01 0.0 
0.0 -1.962000000000e+01 0.0 
0.0 -1.962000000000e+01 0.0 
0.0 -1.962000000000e+01 0.0 
0.0 -1.962000000000e+01 0.0 
0.0 -1.962000000000e+01 0.0 
0.0 -1.962000000000e+01 0.0 
0.0 -1.962000000000e+01 0.0 
0.0 -1.962000000000e+01 0.0 
0.0 -1.962000000000e+01 0.0 
0.0 -1.962000000000e+01 0.0 
0.0 -1.962000000000e+01 0.0 
0.0 -1.962000000000e+01 0.0 
0.0 -1.962000000000e+01 0.0 
0.0 -1.962000000000e+01 0.0 
0.0 -1.962000000000e+01 0.0 
0.0 -1.962000000000e+01 0.0 
0.0 -1.962000000000e+01 0.0 
0.0 -1.962000000000e+01 0.0 
0.0 -1.962000000000e+01 0.0 
0.0 -1.962000000000e+01 0.0 
0.0 -1.962000000000e+01 0.0 
0.0 -1.962000000000e+01 0.0 
0.0 -1.962000000000e+01 0.0 
0.0 -1.962000000000e+01 0.0 
0.0 -1.962000000000e+01 0.0 
0.0 -1.962000000000e+01 0.0 
0.0 -1.962000000000e+01 0.0 
0.0 -1.962000000000e+01 0.0 
0.0 -1.962000000000e+01 0.0 
0.0 -1.962000000000e+01 0.0 
0.0 -1.962000000000e+01 0.0 
0.0 -1.962000000000e+01 0.0 
0.0 -1.962000000000e+01 0.0 
0.0 -1.962000000000e+01 0.0 
0.0 -1.962000000000e+01 0.0 
0.0 -1.962000000000e+01 0.0 
0.0 -1.962000000000e+01 0.0 
0.0 -1.962000000000e+01 0.0 
0.0 -1.962000000000e+01 0.0 
0.0 -1.962000000000e+01 0.0 
0.0 -1.962000000000e+01 0.0 
0.0 -1.962000000000e+01 0.0 
0.0 -1.962000000000e+01 0.0 
0.0 -1.962000000000e+01 0.0 
0.0 -1.962000000000e+01 0.0 
0.0 -1.962000000000e+01 0.0 
0.0 -1.962000000000e+01 0.0 
0.0 -1.962000000000e+01 0.0 
0.0 -1.962000000000e+01 0.0 
0.0 -1.962000000000e+01 0.0 
0.0 -1.962000000000e+01 0.0 
0.0 -1.962000000000e+01 0.0 
0.0 -1.962000000000e+01 0.0 
0.0 -1.962000000000e+01 0.0 
0.0 -1.962000000000e+01 0.0 
0.0 -1.962000000000e+01 0.0 
0.0 -1.962000000000e+01 0.0 
0.0 -1.962000000000e+01 0.0 
0.0 -1.962000000000e+01 0.0 
0.0 -1.962000000000e+01 0.0 
0.0 -1.962000000000e+01 0.0 
0.0 -1.962000000000e+01 0.0 
0.0 -1.962000000000e+01 0.0 
0.0 -1.962000000000e+01 0.0 
0.0 -1.962000000000e+01 0.0 
0.0 -1.962000000000e+01 0.0 
0.0 -1.962000000000e+01 0.0 
0.0 -1.962000000000e+01 0.0 
0.0 -1.962000000000e+01 0.0 
0.0 -1.962000000000e+01 0.0 
0.0 -1.962000000000e+01 0.0 
0.0 -1.962000000000e+01 0.0 
0.0 -1.962000000000e+01 0.0 
0.0 -1.962000000000e+01 0.0 
0.0 -1.962000000000e+01 0.0 
0.0 -1.962000000000e+01 0.0 
0.0 -1.962000000000e+01 0.0 
0.0 -1.962000000000e+01 0.0 
0.0 -1.962000000000e+01 0.0 
0.0 -1.962000000000e+01 0.0 
0.0 -1.962000000000e+01 0.0 
0.0 -1.962000000000e+01 0.0 
0.0 -1.962000000000e+01 0.0 
0.0 -1.962000000000e+01 0.0 
0.0 -1.962000000000e+01 0.0 
0.0 -1.962000000000e+01 0.0 
0.0 -1.962000000000e+01 0.0 
0.0 -1.962000000000e+01 0.0 
0.0 -1.962000000000e+01 0.0 
0.0 -1.962000000000e+01 0.0 
0.0 -1.962000000000e+01 0.0 
0.0 -1.962000000000e+01 0.0 
0.0 -1.962000000000e+01 0.0 
0.0 -1.962000000000e+01 0.0 
0.0 -1.962000000000e+01 0.0 
0.0 -1.962000000000e+01 0.0 
0.0 -1.962000000000e+01 0.0 
0.0 -1.962000000000e+01 0.0 
0.0 -1.962000000000e+01 0.0 
0.0 -1.962000000000e+01 0.0 
0.0 -1.962000000000e+01 0.0 
0.0 -1.962000000000e+01 0.0 
0.0 -1.962000000000e+01 0.0 
0.0 -1.962000000000e+01 0.0 
0.0 -1.962000000000e+01 0.0 
0.0 -1.962000000000e+01 0.0 
0.0 -1.962000000000e+01 0.0 
0.0 -1.962000000000e+01 0.0 
0.0 -1.962000000000e+01 0.0 
0.0 -1.962000000000e+01 0.0 
0.0 -1.962000000000e+01 0.0 
0.0 -1.962000000000e+01 0.0 
0.0 -1.962000000000e+01 0.0 
0.0 -1.962000000000e+01 0.0 
0.0 -1.962000000000e+01 0.0 
0.0 -1.962000000000e+01 0.0 
0.0 -1.962000000000e+01 0.0 
0.0 -1.962000000000e+01 0.0 
0.0 -1.962000000000e+01 0.0 
0.0 -1.962000000000e+01 0.0 
0.0 -1.962000000000e+01 0.0 
0.0 -1.962000000000e+01 0.0 
0.0 -1.962000000000e+01 0.0 
0.0 -1.962000000000e+01 0.0 
0.0 -1.962000000000e+01 0.0 
0.0 -1.962000000000e+01 0.0 
0.0 -1.962000000000e+01 0.0 
0.0 -1.962000000000e+01 0.0 
0.0 -1.962000000000e+01 0.0 
0.0 -1.962000000000e+01 0.0 
0.0 -1.962000000000e+01 0.0 
0.0 -1.962000000000e+01 0.0 
0.0 -1.962000000000e+01 0.0 
0.0 -1.962000000000e+01 0.0 
0.0 -1.962000000000e+01 0.0 
0.0 -1.962000000000e+01 0.0 
0.0 -1.962000000000e+01 0.0 
0.0 -1.962000000000e+01 0.0 
0.0 -1.962000000000e+01 0.0 
0.0 -1.962000000000e+01 0.0 
0.0 -1.962000000000e+01 0.0 
0.0 -1.962000000000e+01 0.0 
0.0 -1.962000000000e+01 0.0 
0.0 -1.962000000000e+01 0.0 
0.0 -1.962000000000e+01 0.0 
0.0 -1.962000000000e+01 0.0 
0.0 -1.962000000000e+01 0.0 
0.0 -1.962000000000e+01 0.0 
0.0 -1.962000000000e+01 0.0 
0.0 -1.962000000000e+01 0.0 
0.0 -1.962000000000e+01 0.0 
0.0 -1.962000000000e+01 0.0 
0.0 -1.962000000000e+01 0.0 
0.0 -1.962000000000e+01 0.0 
0.0 -1.962000000000e+01 0.0 
0.0 -1.962000000000e+01 0.0 
0.0 -1.962000000000e+01 0.0 
0.0 -1.962000000000e+01 0.0 
0.0 -1.962000000000e+01 0.0 
0.0 -1.962000000000e+01 0.0 
0.0 -1.962000000000e+01 0.0 
0.0 -1.962000000000e+01 0.0 
0.0 -1.962000000000e+01 0.0 
0.0 -1.962000000000e+01 0.0 
0.0 -1.962000000000e+01 0.0 
0.0 -1.962000000000e+01 0.0 
0.0 -1.962000000000e+01 0.0 
0.0 -1.962000000000e+01 0.0 
0.0 -1.962000000000e+01 0.0 
0.0 -1.962000000000e+01 0.0 
0.0 -1.962000000000e+01 0.0 
0.0 -1.962000000000e+01 0.0 
0.0 -1.962000000000e+01 0.0 
0.0 -1.962000000000e+01 0.0 
0.0 -1.962000000000e+01 0.0 
0.0 -1.962000000000e+01 0.0 
0.0 -1.962000000000e+01 0.0 
0.0 -1.962000000000e+01 0.0 
0.0 -1.962000000000e+01 0.0 
0.0 -1.962000000000e+01 0.0 
0.0 -1.962000000000e+01 0.0 
0.0 -1.962000000000e+01 0.0 
0.0 -1.962000000000e+01 0.0 
0.0 -1.962000000000e+01 0.0 
0.0 -1.962000000000e+01 0.0 
0.0 -1.962000000000e+01 0.0 
0.0 -1.962000000000e+01 0.0 
0.0 -1.962000000000e+01 0.0 
0.0 -1.962000000000e+01 0.0 
0.0 -1.962000000000e+01 0.0 
0.0 -1.962000000000e+01 0.0 
0.0 -1.962000000000e+01 0.0 
0.0 -1.962000000000e+01 0.0 
0.0 -1.962000000000e+01 0.0 
0.0 -1.962000000000e+01 0.0 
0.0 -1.962000000000e+01 0.0 
0.0 -1.962000000000e+01 0.0 
0.0 -1.962000000000e+01 0.0 
0.0 -1.962000000000e+01 0.0 
0.0 -1.962000000000e+01 0.0 
0.0 -1.962000000000e+01 0.0 
0.0 -1.962000000000e+01 0.0 
0.0 -1.962000000000e+01 0.0 
0.0 -1.962000000000e+01 0.0 
0.0 -1.962000000000e+01 0.0 
0.0 -1.962000000000e+01 0.0 
0.0 -1.962000000000e+01 0.0 
0.0 -1.962000000000e+01 0.0 
0.0 -1.962000000000e+01 0.0 
0.0 -1.962000000000e+01 0.0 
0.0 -1.962000000000e+01 0.0 
0.0 -1.962000000000e+01 0.0 
0.0 -1.962000000000e+01 0.0 
0.0 -1.962000000000e+01 0.0 
0.0 -1.962000000000e+01 0.0 
0.0 -1.962000000000e+01 0.0 
0.0 -1.962000000000e+01 0.0 
0.0 -1.962000000000e+01 0.0 
0.0 -1.962000000000e+01 0.0 
0.0 -1.962000000000e+01 0.0 
0.0 -1.962000000000e+01 0.0 
0.0 -1.962000000000e+01 0.0 
0.0 -1.962000000000e+01 0.0 
0.0 -1.962000000000e+01 0.0 
0.0 -1.962000000000e+01 0.0 
0.0 -1.962000000000e+01 0.0 
0.0 -1.962000000000e+01 0.0 
0.0 -1.962000000000e+01 0.0 
0.0 -1.962000000000e+01 0.0 
0.0 -1.962000000000e+01 0.0 
0.0 -1.962000000000e+01 0.0 
0.0 -1.962000000000e+01 0.0 
0.0 -1.962000000000e+01 0.0 
0.0 -1.962000000000e+01 0.0 
0.0 -1.962000000000e+01 0.0 
0.0 -1.962000000000e+01 0.0 
0.0 -1.962000000000e+01 0.0 
0.0 -1.962000000000e+01 0.0 
0.0 -1.962000000000e+01 0.0 
0.0 -1.962000000000e+01 0.0 
0.0 -1.962000000000e+01 0.0 
0.0 -1.962000000000e+01 0.0 
0.0 -1.962000000000e+01 0.0 
0.0 -1.962000000000e+01 0.0 
0.0 -1.962000000000e+01 0.0 
0.0 -1.962000000000e+01 0.0 
0.0 -1.962000000000e+01 0.0 
0.0 -1.962000000000e+01 0.0 
0.0 -1.962000000000e+01 0.0 
0.0 -1.962000000000e+01 0.0 
0.0 -1.962000000000e+01 0.0 
0.0 -1.962000000000e+01 0.0 
0.0 -1.962000000000e+01 0.0 
0.0 -1.962000000000e+01 0.0 
0.0 -1.962000000000e+01 0.0 
0.0 -1.962000000000e+01 0.0 
0.0 -1.962000000000e+01 0.0 
0.0 -1.962000000000e+01 0.0 
0.0 -1.962000000000e+01 0.0 
0.0 -1.962000000000e+01 0.0 
0.0 -1.962000000000e+01 0.0 
0.0 -1.962000000000e+01 0.0 
0.0 -1.962000000000e+01 0.0 
0.0 -1.962000000000e+01 0.0 
0.0 -1.962000000000e+01 0.0 
0.0 -1.962000000000e+01 0.0 
0.0 -1.962000000000e+01 0.0 
0.0 -1.962000000000e+01 0.0 
0.0 -1.962000000000e+01 0.0 
0.0 -1.962000000000e+01 0.0 
0.0 -1.962000000000e+01 0.0 
0.0 -1.962000000000e+01 0.0 
0.0 -1.962000000000e+01 0.0 
0.0 -1.962000000000e+01 0.0 
0.0 -1.962000000000e+01 0.0 
0.0 -1.962000000000e+01 0.0 
0.0 -1.962000000000e+01 0.0 
0.0 -1.962000000000e+01 0.0 
0.0 -1.962000000000e+01 0.0 
0.0 -1.962000000000e+01 0.0 
0.0 -1.962000000000e+01 0.0 
0.0 -1.962000000000e+01 0.0 
0.0 -1.962000000000e+01 0.0 
0.0 -1.962000000000e+01 0.0 
0.0 -1.962000000000e+01 0.0 
0.0 -1.962000000000e+01 0.0 
0.0 -1.962000000000e+01 0.0 
0.0 -1.962000000000e+01 0.0 
0.0 -1.962000000000e+01 0.0 
0.0 -1.962000000000e+01 0.0 
0.0 -1.962000000000e+01 0.0 
0.0 -1.962000000000e+01 0.0 
0.0 -1.962000000000e+01 0.0 
0.0 -1.962000000000e+01 0.0 
0.0 -1.962000000000e+01 0.0 
0.0 -1.962000000000e+01 0.0 
0.0 -1.962000000000e+01 0.0 
0.0 -1.962000000000e+01 0.0 
0.0 -1.962000000000e+01 0.0 
0.0 -1.962000000000e+01 0.0 
0.0 -1.962000000000e+01 0.0 
0.0 -1.962000000000e+01 0.0 
0.0 -1.962000000000e+01 0.0 
0.0 -1.962000000000e+01 0.0 
0.0 -1.962000000000e+01 0.0 
0.0 -1.962000000000e+01 0.0 
0.0 -1.962000000000e+01 0.0 
0.0 -1.962000000000e+01 0.0 
0.0 -1.962000000000e+01 0.0 
0.0 -1.962000000000e+01 0.0 
0.0 -1.962000000000e+01 0.0 
0.0 -1.962000000000e+01 0.0 
0.0 -1.962000000000e+01 0.0 
0.0 -1.962000000000e+01 0.0 
0.0 -1.962000000000e+01 0.0 
0.0 -1.962000000000e+01 0.0 
0.0 -1.962000000000e+01 0.0 
0.0 -1.962000000000e+01 0.0 
0.0 -1.962000000000e+01 0.0 
0.0 -1.962000000000e+01 0.0 
0.0 -1.962000000000e+01 0.0 
0.0 -1.962000000000e+01 0.0 
0.0 -1.962000000000e+01 0.0 
0.0 -1.962000000000e+01 0.0 
0.0 -1.962000000000e+01 0.0 
0.0 -1.962000000000e+01 0.0 
0.0 -1.962000000000e+01 0.0 
0.0 -1.962000000000e+01 0.0 
0.0 -1.962000000000e+01 0.0 
0.0 -1.962000000000e+01 0.0 
0.0 -1.962000000000e+01 0.0 
0.0 -1.962000000000e+01 0.0 
0.0 -1.962000000000e+01 0.0 
0.0 -1.962000000000e+01 0.0 
0.0 -1.962000000000e+01 0.0 
0.0 -1.962000000000e+01 0.0 
0.0 -1.962000000000e+01 0.0 
0.0 -1.962000000000e+01 0.0 
0.0 -1.962000000000e+01 0.0 
0.0 -1.962000000000e+01 0.0 
0.0 -1.962000000000e+01 0.0 
0.0 -1.962000000000e+01 0.0 
0.0 -1.962000000000e+01 0.0 
0.0 -1.962000000000e+01 0.0 
0.0 -1.962000000000e+01 0.0 
0.0 -1.962000000000e+01 0.0 
0.0 -1.962000000000e+01 0.0 
0.0 -1.962000000000e+01 0.0 
0.0 -1.962000000000e+01 0.0 
0.0 -1.962000000000e+01 0.0 
0.0 -1.962000000000e+01 0.0 
0.0 -1.962000000000e+01 0.0 
0.0 -1.962000000000e+01 0.0 
0.0 -1.962000000000e+01 0.0 
0.0 -1.962000000000e+01 0.0 
0.0 -1.962000000000e+01 0.0 
0.0 -1.962000000000e+01 0.0 
0.0 -1.962000000000e+01 0.0 
0.0 -1.962000000000e+01 0.0 
0.0 -1.962000000000e+01 0.0 
0.0 -1.962000000000e+01 0.0 
0.0 -1.962000000000e+01 0.0 
0.0 -1.962000000000e+01 0.0 
0.0 -1.962000000000e+01 0.0 
0.0 -1.962000000000e+01 0.0 
0.0 -1.962000000000e+01 0.0 
0.0 -1.962000000000e+01 0.0 
0.0 -1.962000000000e+01 0.0 
0.0 -1.962000000000e+01 0.0 
0.0 -1.962000000000e+01 0.0 
0.0 -1.962000000000e+01 0.0 
0.0 -1.962000000000e+01 0.0 
0.0 -1.962000000000e+01 0.0 
0.0 -1.962000000000e+01 0.0 
0.0 -1.962000000000e+01 0.0 
0.0 -1.962000000000e+01 0.0 
0.0 -1.962000000000e+01 0.0 
0.0 -1.962000000000e+01 0.0 
0.0 -1.962000000000e+01 0.0 
0.0 -1.962000000000e+01 0.0 
0.0 -1.962000000000e+01 0.0 
0.0 -1.962000000000e+01 0.0 
0.0 -1.962000000000e+01 0.0 
0.0 -1.962000000000e+01 0.0 
0.0 -1.962000000000e+01 0.0 
0.0 -1.962000000000e+01 0.0 
0.0 -1.962000000000e+01 0.0 
0.0 -1.962000000000e+01 0.0 
0.0 -1.962000000000e+01 0.0 
0.0 -1.962000000000e+01 0.0 
0.0 -1.962000000000e+01 0.0 
0.0 -1.962000000000e+01 0.0 
0.0 -1.962000000000e+01 0.0 
0.0 -1.962000000000e+01 0.0 
0.0 -1.962000000000e+01 0.0 
0.0 -1.962000000000e+01 0.0 
0.0 -1.962000000000e+01 0.0 
0.0 -1.962000000000e+01 0.0 
0.0 -1.962000000000e+01 0.0 
0.0 -1.962000000000e+01 0.0 
0.0 -1.962000000000e+01 0.0 
0.0 -1.962000000000e+01 0.0 
0.0 -1.962000000000e+01 0.0 
0.0 -1.962000000000e+01 0.0 
0.0 -1.962000000000e+01 0.0 
0.0 -1.962000000000e+01 0.0 
0.0 -1.962000000000e+01 0.0 
0.0 -1.962000000000e+01 0.0 
0.0 -1.962000000000e+01 0.0 
0.0 -1.962000000000e+01 0.0 
0.0 -1.962000000000e+01 0.0 
0.0 -1.962000000000e+01 0.0 
0.0 -1.962000000000e+01 0.0 
0.0 -1.962000000000e+01 0.0 
0.0 -1.962000000000e+01 0.0 
0.0 -1.962000000000e+01 0.0 
0.0 -1.962000000000e+01 0.0 
0.0 -1.962000000000e+01 0.0 
0.0 -1.962000000000e+01 0.0 
0.0 -1.962000000000e+01 0.0 
0.0 -1.962000000000e+01 0.0 
0.0 -1.962000000000e+01 0.0 
0.0 -1.962000000000e+01 0.0 
0.0 -1.962000000000e+01 0.0 
0.0 -1.962000000000e+01 0.0 
0.0 -1.962000000000e+01 0.0 
0.0 -1.962000000000e+01 0.0 
0.0 -1.962000000000e+01 0.0 
0.0 -1.962000000000e+01 0.0 
0.0 -1.962000000000e+01 0.0 
0.0 -1.962000000000e+01 0.0 
0.0 -1.962000000000e+01 0.0 
0.0 -1.962000000000e+01 0.0 
0.0 -1.962000000000e+01 0.0 
0.0 -1.962000000000e+01 0.0 
0.0 -1.962000000000e+01 0.0 
0.0 -1.962000000000e+01 0.0 
0.0 -1.962000000000e+01 0.0 
0.0 -1.962000000000e+01 0.0 
0.0 -1.962000000000e+01 0.0 
0.0 -1.962000000000e+01 0.0 
0.0 -1.962000000000e+01 0.0 
0.0 -1.962000000000e+01 0.0 
0.0 -1.962000000000e+01 0.0 
0.0 -1.962000000000e+01 0.0 
0.0 -1.962000000000e+01 0.0 
0.0 -1.962000000000e+01 0.0 
0.0 -1.962000000000e+01 0.0 
0.0 -1.962000000000e+01 0.0 
0.0 -1.962000000000e+01 0.0 
0.0 -1.962000000000e+01 0.0 
0.0 -1.962000000000e+01 0.0 
0.0 -1.962000000000e+01 0.0 
0.0 -1.962000000000e+01 0.0 
0.0 -1.962000000000e+01 0.0 
0.0 -1.962000000000e+01 0.0 
0.0 -1.962000000000e+01 0.0 
0.0 -1.962000000000e+01 0.0 
0.0 -1.962000000000e+01 0.0 
0.0 -1.962000000000e+01 0.0 
0.0 -1.962000000000e+01 0.0 
0.0 -1.962000000000e+01 0.0 
0.0 -1.962000000000e+01 0.0 
0.0 -1.962000000000e+01 0.0 
0.0 -1.962000000000e+01 0.0 
0.0 -1.962000000000e+01 0.0 
0.0 -1.962000000000e+01 0.0 
0.0 -1.962000000000e+01 0.0 
0.0 -1.962000000000e+01 0.0 
0.0 -1.962000000000e+01 0.0 
0.0 -1.962000000000e+01 0.0 
0.0 -1.962000000000e+01 0.0 
0.0 -1.962000000000e+01 0.0 
0.0 -1.962000000000e+01 0.0 
0.0 -1.962000000000e+01 0.0 
0.0 -1.962000000000e+01 0.0 
0.0 -1.962000000000e+01 0.0 
0.0 -1.962000000000e+01 0.0 
0.0 -1.962000000000e+01 0.0 
0.0 -1.962000000000e+01 0.0 
0.0 -1.962000000000e+01 0.0 
0.0 -1.962000000000e+01 0.0 
0.0 -1.962000000000e+01 0.0 
0.0 -1.962000000000e+01 0.0 
0.0 -1.962000000000e+01 0.0 
0.0 -1.962000000000e+01 0.0 
0.0 -1.962000000000e+01 0.0 
0.0 -1.962000000000e+01 0.0 
0.0 -1.962000000000e+01 0.0 
0.0 -1.962000000000e+01 0.0 
0.0 -1.962000000000e+01 0.0 
0.0 -1.962000000000e+01 0.0 
0.0 -1.962000000000e+01 0.0 
0.0 -1.962000000000e+01 0.0 
0.0 -1.962000000000e+01 0.0 
0.0 -1.962000000000e+01 0.0 
0.0 -1.962000000000e+01 0.0 
0.0 -1.962000000000e+01 0.0 
0.0 -1.962000000000e+01 0.0 
0.0 -1.962000000000e+01 0.0 
0.0 -1.962000000000e+01 0.0 
0.0 -1.962000000000e+01 0.0 
0.0 -1.962000000000e+01 0.0 
0.0 -1.962000000000e+01 0.0 
0.0 -1.962000000000e+01 0.0 
0.0 -1.962000000000e+01 0.0 
0.0 -1.962000000000e+01 0.0 
0.0 -1.962000000000e+01 0.0 
0.0 -1.962000000000e+01 0.0 
0.0 -1.962000000000e+01 0.0 
0.0 -1.962000000000e+01 0.0 
0.0 -1.962000000000e+01 0.0 
0.0 -1.962000000000e+01 0.0 
0.0 -1.962000000000e+01 0.0 
0.0 -1.962000000000e+01 0.0 
0.0 -1.962000000000e+01 0.0 
0.0 -1.962000000000e+01 0.0 
0.0 -1.962000000000e+01 0.0 
0.0 -1.962000000000e+01 0.0 
0.0 -1.962000000000e+01 0.0 
0.0 -1.962000000000e+01 0.0 
0.0 -1.962000000000e+01 0.0 
0.0 -1.962000000000e+01 0.0 
0.0 -1.962000000000e+01 0.0 
0.0 -1.962000000000e+01 0.0 
0.0 -1.962000000000e+01 0.0 
0.0 -1.962000000000e+01 0.0 
0.0 -1.962000000000e+01 0.0 
0.0 -1.962000000000e+01 0.0 
0.0 -1.962000000000e+01 0.0 
0.0 -1.962000000000e+01 0.0 
0.0 -1.962000000000e+01 0.0 
0.0 -1.962000000000e+01 0.0 
0.0 -1.962000000000e+01 0.0 
0.0 -1.962000000000e+01 0.0 
0.0 -1.962000000000e+01 0.0 
0.0 -1.962000000000e+01 0.0 
0.0 -1.962000000000e+01 0.0 
0.0 -1.962000000000e+01 0.0 
0.0 -1.962000000000e+01 0.0 
0.0 -1.962000000000e+01 0.0 
0.0 -1.962000000000e+01 0.0 
0.0 -1.962000000000e+01 0.0 
0.0 -1.962000000000e+01 0.0 
0.0 -1.962000000000e+01 0.0 
0.0 -1.962000000000e+01 0.0 
0.0 -1.962000000000e+01 0.0 
0.0 -1.962000000000e+01 0.0 
0.0 -1.962000000000e+01 0.0 
0.0 -1.962000000000e+01 0.0 
0.0 -1.962000000000e+01 0.0 
0.0 -1.962000000000e+01 0.0 
0.0 -1.962000000000e+01 0.0 
0.0 -1.962000000000e+01 0.0 
0.0 -1.962000000000e+01 0.0 
0.0 -1.962000000000e+01 0.0 
0.0 -1.962000000000e+01 0.0 
0.0 -1.962000000000e+01 0.0 
0.0 -1.962000000000e+01 0.0 
0.0 -1.962000000000e+01 0.0 
0.0 -1.962000000000e+01 0.0 
0.0 -1.962000000000e+01 0.0 
0.0 -1.962000000000e+01 0.0 
0.0 -1.962000000000e+01 0.0 
0.0 -1.962000000000e+01 0.0 
0.0 -1.962000000000e+01 0.0 
0.0 -1.962000000000e+01 0.0 
0.0 -1.962000000000e+01 0.0 
0.0 -1.962000000000e+01 0.0 
0.0 -1.962000000000e+01 0.0 

VECTORS node_rhside_materi_fixed float
-9.539988462290e-01 0.0 0.0 
2.347318940927e+01 0.0 0.0 
-8.161414292521e+01 -1.952779865750e+02 0.0 
4.591672540035e+01 -1.108103179143e+02 0.0 
-6.114227339345e+00 0.0 0.0 
-1.406928179094e+01 0.0 0.0 
-2.045036546944e+01 0.0 0.0 
-2.858839374784e+01 0.0 0.0 
-3.560016797813e+01 0.0 0.0 
-4.292244454759e+01 0.0 0.0 
-5.029410435334e+01 0.0 0.0 
-5.772824132281e+01 0.0 0.0 
-6.529696592787e+01 0.0 0.0 
-7.297129133721e+01 0.0 0.0 
-8.131723263575e+01 0.0 0.0 
-8.978262579064e+01 0.0 0.0 
-9.798313690025e+01 0.0 0.0 
-1.071062073728e+02 0.0 0.0 
-1.163063975047e+02 0.0 0.0 
-1.258126884369e+02 0.0 0.0 
-1.356256393622e+02 0.0 0.0 
-1.457062299590e+02 0.0 0.0 
-1.563415816975e+02 0.0 0.0 
9.731533844314e-01 -2.203900744584e+02 0.0 
1.677243664984e+00 -2.218289256006e+02 0.0 
4.701710483463e+00 -2.211086085322e+02 0.0 
3.659204205734e+00 -2.214843574526e+02 0.0 
6.582917595655e+00 -2.228022255353e+02 0.0 
7.741444542158e+00 -2.226429622991e+02 0.0 
9.052297257247e+00 -2.242129620794e+02 0.0 
1.084399645922e+01 -2.258331687769e+02 0.0 
1.408792003088e+01 -2.266086082052e+02 0.0 
1.371300748540e+01 -2.286535689833e+02 0.0 
1.773497623707e+01 -2.322789944503e+02 0.0 
1.977289745616e+01 -2.343043574727e+02 0.0 
2.185175509547e+01 -2.389357025911e+02 0.0 
2.404241800268e+01 -2.428361470561e+02 0.0 
2.652789028189e+01 -2.478785510544e+02 0.0 
2.837091120825e+01 -2.541082456542e+02 0.0 
3.135798770335e+01 -2.603464238415e+02 0.0 
3.268962425055e+01 -2.673272435703e+02 0.0 
3.406158317564e+01 -2.746383274270e+02 0.0 
3.491676371700e+01 -2.818893852496e+02 0.0 
3.514921783193e+01 -2.895417976584e+02 0.0 
3.580179289006e+01 -2.977215132510e+02 0.0 
3.550940746103e+01 -3.052678381501e+02 0.0 
3.516405239157e+01 -3.127694211585e+02 0.0 
3.450412469806e+01 -3.202672241175e+02 0.0 
3.336354156831e+01 -3.272033143978e+02 0.0 
3.216455059362e+01 -3.337356654790e+02 0.0 
3.076209151896e+01 -3.400481232746e+02 0.0 
2.937097138718e+01 -3.460700949805e+02 0.0 
2.760128792729e+01 -3.513487209203e+02 0.0 
2.593527450243e+01 -3.560433168082e+02 0.0 
2.415368557527e+01 -3.611217916772e+02 0.0 
2.243432003136e+01 -3.648926904533e+02 0.0 
2.071863212074e+01 -3.687297737002e+02 0.0 
1.887589361154e+01 -3.719778726836e+02 0.0 
1.725815074147e+01 -3.748796557421e+02 0.0 
1.563554254876e+01 -3.774858175344e+02 0.0 
1.399616164700e+01 -3.797586319338e+02 0.0 
1.254387431130e+01 -3.816669329737e+02 0.0 
1.118877700091e+01 -3.836849918331e+02 0.0 
9.751147076801e+00 -3.849543573590e+02 0.0 
8.504934659272e+00 -3.860634429825e+02 0.0 
7.228671604058e+00 -3.869173393053e+02 0.0 
6.242881562564e+00 -3.885277597803e+02 0.0 
4.896577388273e+00 -3.884285125613e+02 0.0 
3.888460024667e+00 -3.895984019602e+02 0.0 
3.059969291732e+00 -3.895523437957e+02 0.0 
1.974811259847e+00 -3.899964922818e+02 0.0 
8.782394624301e-01 -3.900640164671e+02 0.0 
3.103097787669e+01 0.0 0.0 
3.944241429993e+01 0.0 0.0 
4.729228094858e+01 0.0 0.0 
5.476440969379e+01 0.0 0.0 
6.208169909854e+01 0.0 0.0 
6.947694613528e+01 0.0 0.0 
7.608397648061e+01 0.0 0.0 
8.198346916998e+01 0.0 0.0 
8.910115689394e+01 0.0 0.0 
0.0 0.0 0.0 
0.0 0.0 0.0 
0.0 0.0 0.0 
0.0 0.0 0.0 
0.0 0.0 0.0 
0.0 0.0 0.0 
0.0 0.0 0.0 
0.0 0.0 0.0 
0.0 0.0 0.0 
0.0 0.0 0.0 
0.0 0.0 0.0 
9.021374913043e+00 0.0 0.0 
0.0 0.0 0.0 
0.0 0.0 0.0 
0.0 0.0 0.0 
0.0 0.0 0.0 
0.0 0.0 0.0 
0.0 0.0 0.0 
0.0 0.0 0.0 
0.0 0.0 0.0 
0.0 0.0 0.0 
0.0 0.0 0.0 
0.0 0.0 0.0 
0.0 0.0 0.0 
0.0 0.0 0.0 
0.0 0.0 0.0 
0.0 0.0 0.0 
0.0 0.0 0.0 
0.0 0.0 0.0 
0.0 0.0 0.0 
0.0 0.0 0.0 
0.0 0.0 0.0 
0.0 0.0 0.0 
0.0 0.0 0.0 
0.0 0.0 0.0 
0.0 0.0 0.0 
0.0 0.0 0.0 
0.0 0.0 0.0 
0.0 0.0 0.0 
0.0 0.0 0.0 
0.0 0.0 0.0 
0.0 0.0 0.0 
0.0 0.0 0.0 
0.0 0.0 0.0 
0.0 0.0 0.0 
0.0 0.0 0.0 
0.0 0.0 0.0 
0.0 0.0 0.0 
0.0 0.0 0.0 
0.0 0.0 0.0 
0.0 0.0 0.0 
0.0 0.0 0.0 
0.0 0.0 0.0 
0.0 0.0 0.0 
0.0 0.0 0.0 
0.0 0.0 0.0 
0.0 0.0 0.0 
0.0 0.0 0.0 
0.0 0.0 0.0 
0.0 0.0 0.0 
0.0 0.0 0.0 
0.0 0.0 0.0 
0.0 0.0 0.0 
0.0 0.0 0.0 
0.0 0.0 0.0 
0.0 0.0 0.0 
0.0 0.0 0.0 
0.0 0.0 0.0 
0.0 0.0 0.0 
0.0 0.0 0.0 
0.0 0.0 0.0 
0.0 0.0 0.0 
0.0 0.0 0.0 
0.0 0.0 0.0 
0.0 0.0 0.0 
0.0 0.0 0.0 
0.0 0.0 0.0 
0.0 0.0 0.0 
0.0 0.0 0.0 
0.0 0.0 0.0 
0.0 0.0 0.0 
0.0 0.0 0.0 
0.0 0.0 0.0 
0.0 0.0 0.0 
0.0 0.0 0.0 
0.0 0.0 0.0 
0.0 0.0 0.0 
0.0 0.0 0.0 
0.0 0.0 0.0 
0.0 0.0 0.0 
0.0 0.0 0.0 
0.0 0.0 0.0 
0.0 0.0 0.0 
0.0 0.0 0.0 
0.0 0.0 0.0 
0.0 0.0 0.0 
0.0 0.0 0.0 
0.0 0.0 0.0 
0.0 0.0 0.0 
0.0 0.0 0.0 
0.0 0.0 0.0 
0.0 0.0 0.0 
0.0 0.0 0.0 
0.0 0.0 0.0 
0.0 0.0 0.0 
0.0 0.0 0.0 
0.0 0.0 0.0 
0.0 0.0 0.0 
0.0 0.0 0.0 
0.0 0.0 0.0 
0.0 0.0 0.0 
0.0 0.0 0.0 
0.0 0.0 0.0 
0.0 0.0 0.0 
0.0 0.0 0.0 
0.0 0.0 0.0 
0.0 0.0 0.0 
0.0 0.0 0.0 
0.0 0.0 0.0 
0.0 0.0 0.0 
0.0 0.0 0.0 
0.0 0.0 0.0 
0.0 0.0 0.0 
0.0 0.0 0.0 
0.0 0.0 0.0 
0.0 0.0 0.0 
0.0 0.0 0.0 
0.0 0.0 0.0 
0.0 0.0 0.0 
0.0 0.0 0.0 
0.0 0.0 0.0 
0.0 0.0 0.0 
0.0 0.0 0.0 
0.0 0.0 0.0 
0.0 0.0 0.0 
0.0 0.0 0.0 
0.0 0.0 0.0 
0.0 0.0 0.0 
0.0 0.0 0.0 
0.0 0.0 0.0 
0.0 0.0 0.0 
0.0 0.0 0.0 
0.0 0.0 0.0 
0.0 0.0 0.0 
0.0 0.0 0.0 
0.0 0.0 0.0 
0.0 0.0 0.0 
0.0 0.0 0.0 
0.0 0.0 0.0 
0.0 0.0 0.0 
0.0 0.0 0.0 
0.0 0.0 0.0 
0.0 0.0 0.0 
0.0 0.0 0.0 
0.0 0.0 0.0 
0.0 0.0 0.0 
0.0 0.0 0.0 
0.0 0.0 0.0 
0.0 0.0 0.0 
0.0 0.0 0.0 
0.0 0.0 0.0 
0.0 0.0 0.0 
0.0 0.0 0.0 
0.0 0.0 0.0 
0.0 0.0 0.0 
0.0 0.0 0.0 
0.0 0.0 0.0 
0.0 0.0 0.0 
0.0 0.0 0.0 
0.0 0.0 0.0 
0.0 0.0 0.0 
0.0 0.0 0.0 
0.0 0.0 0.0 
0.0 0.0 0.0 
0.0 0.0 0.0 
0.0 0.0 0.0 
0.0 0.0 0.0 
0.0 0.0 0.0 
0.0 0.0 0.0 
0.0 0.0 0.0 
0.0 0.0 0.0 
0.0 0.0 0.0 
0.0 0.0 0.0 
0.0 0.0 0.0 
0.0 0.0 0.0 
0.0 0.0 0.0 
0.0 0.0 0.0 
0.0 0.0 0.0 
0.0 0.0 0.0 
0.0 0.0 0.0 
0.0 0.0 0.0 
0.0 0.0 0.0 
0.0 0.0 0.0 
0.0 0.0 0.0 
0.0 0.0 0.0 
0.0 0.0 0.0 
0.0 0.0 0.0 
0.0 0.0 0.0 
0.0 0.0 0.0 
0.0 0.0 0.0 
0.0 0.0 0.0 
0.0 0.0 0.0 
0.0 0.0 0.0 
0.0 0.0 0.0 
0.0 0.0 0.0 
0.0 0.0 0.0 
0.0 0.0 0.0 
0.0 0.0 0.0 
0.0 0.0 0.0 
0.0 0.0 0.0 
0.0 0.0 0.0 
0.0 0.0 0.0 
0.0 0.0 0.0 
0.0 0.0 0.0 
0.0 0.0 0.0 
0.0 0.0 0.0 
0.0 0.0 0.0 
0.0 0.0 0.0 
0.0 0.0 0.0 
0.0 0.0 0.0 
0.0 0.0 0.0 
0.0 0.0 0.0 
0.0 0.0 0.0 
0.0 0.0 0.0 
0.0 0.0 0.0 
0.0 0.0 0.0 
0.0 0.0 0.0 
0.0 0.0 0.0 
0.0 0.0 0.0 
0.0 0.0 0.0 
0.0 0.0 0.0 
0.0 0.0 0.0 
0.0 0.0 0.0 
0.0 0.0 0.0 
0.0 0.0 0.0 
0.0 0.0 0.0 
0.0 0.0 0.0 
0.0 0.0 0.0 
0.0 0.0 0.0 
0.0 0.0 0.0 
0.0 0.0 0.0 
0.0 0.0 0.0 
0.0 0.0 0.0 
0.0 0.0 0.0 
0.0 0.0 0.0 
0.0 0.0 0.0 
0.0 0.0 0.0 
0.0 0.0 0.0 
0.0 0.0 0.0 
0.0 0.0 0.0 
0.0 0.0 0.0 
0.0 0.0 0.0 
0.0 0.0 0.0 
0.0 0.0 0.0 
0.0 0.0 0.0 
0.0 0.0 0.0 
0.0 0.0 0.0 
0.0 0.0 0.0 
0.0 0.0 0.0 
0.0 0.0 0.0 
0.0 0.0 0.0 
0.0 0.0 0.0 
0.0 0.0 0.0 
0.0 0.0 0.0 
0.0 0.0 0.0 
0.0 0.0 0.0 
0.0 0.0 0.0 
0.0 0.0 0.0 
0.0 0.0 0.0 
0.0 0.0 0.0 
0.0 0.0 0.0 
0.0 0.0 0.0 
0.0 0.0 0.0 
0.0 0.0 0.0 
0.0 0.0 0.0 
0.0 0.0 0.0 
0.0 0.0 0.0 
0.0 0.0 0.0 
0.0 0.0 0.0 
0.0 0.0 0.0 
0.0 0.0 0.0 
0.0 0.0 0.0 
0.0 0.0 0.0 
0.0 0.0 0.0 
0.0 0.0 0.0 
0.0 0.0 0.0 
0.0 0.0 0.0 
0.0 0.0 0.0 
0.0 0.0 0.0 
0.0 0.0 0.0 
0.0 0.0 0.0 
0.0 0.0 0.0 
0.0 0.0 0.0 
0.0 0.0 0.0 
0.0 0.0 0.0 
0.0 0.0 0.0 
0.0 0.0 0.0 
0.0 0.0 0.0 
0.0 0.0 0.0 
0.0 0.0 0.0 
0.0 0.0 0.0 
0.0 0.0 0.0 
0.0 0.0 0.0 
0.0 0.0 0.0 
0.0 0.0 0.0 
0.0 0.0 0.0 
0.0 0.0 0.0 
0.0 0.0 0.0 
0.0 0.0 0.0 
0.0 0.0 0.0 
0.0 0.0 0.0 
0.0 0.0 0.0 
0.0 0.0 0.0 
0.0 0.0 0.0 
0.0 0.0 0.0 
0.0 0.0 0.0 
0.0 0.0 0.0 
0.0 0.0 0.0 
0.0 0.0 0.0 
0.0 0.0 0.0 
0.0 0.0 0.0 
0.0 0.0 0.0 
0.0 0.0 0.0 
0.0 0.0 0.0 
0.0 0.0 0.0 
0.0 0.0 0.0 
0.0 0.0 0.0 
0.0 0.0 0.0 
0.0 0.0 0.0 
0.0 0.0 0.0 
0.0 0.0 0.0 
0.0 0.0 0.0 
0.0 0.0 0.0 
0.0 0.0 0.0 
0.0 0.0 0.0 
0.0 0.0 0.0 
0.0 0.0 0.0 
0.0 0.0 0.0 
0.0 0.0 0.0 
0.0 0.0 0.0 
0.0 0.0 0.0 
0.0 0.0 0.0 
0.0 0.0 0.0 
0.0 0.0 0.0 
0.0 0.0 0.0 
0.0 0.0 0.0 
0.0 0.0 0.0 
0.0 0.0 0.0 
0.0 0.0 0.0 
0.0 0.0 0.0 
0.0 0.0 0.0 
0.0 0.0 0.0 
0.0 0.0 0.0 
0.0 0.0 0.0 
0.0 0.0 0.0 
0.0 0.0 0.0 
0.0 0.0 0.0 
0.0 0.0 0.0 
0.0 0.0 0.0 
0.0 0.0 0.0 
0.0 0.0 0.0 
0.0 0.0 0.0 
0.0 0.0 0.0 
0.0 0.0 0.0 
0.0 0.0 0.0 
0.0 0.0 0.0 
0.0 0.0 0.0 
0.0 0.0 0.0 
0.0 0.0 0.0 
0.0 0.0 0.0 
0.0 0.0 0.0 
0.0 0.0 0.0 
0.0 0.0 0.0 
0.0 0.0 0.0 
0.0 0.0 0.0 
0.0 0.0 0.0 
0.0 0.0 0.0 
0.0 0.0 0.0 
0.0 0.0 0.0 
0.0 0.0 0.0 
0.0 0.0 0.0 
0.0 0.0 0.0 
0.0 0.0 0.0 
0.0 0.0 0.0 
0.0 0.0 0.0 
0.0 0.0 0.0 
0.0 0.0 0.0 
0.0 0.0 0.0 
0.0 0.0 0.0 
0.0 0.0 0.0 
0.0 0.0 0.0 
0.0 0.0 0.0 
0.0 0.0 0.0 
0.0 0.0 0.0 
0.0 0.0 0.0 
0.0 0.0 0.0 
0.0 0.0 0.0 
0.0 0.0 0.0 
0.0 0.0 0.0 
0.0 0.0 0.0 
0.0 0.0 0.0 
0.0 0.0 0.0 
0.0 0.0 0.0 
0.0 0.0 0.0 
0.0 0.0 0.0 
0.0 0.0 0.0 
0.0 0.0 0.0 
0.0 0.0 0.0 
0.0 0.0 0.0 
0.0 0.0 0.0 
0.0 0.0 0.0 
0.0 0.0 0.0 
0.0 0.0 0.0 
0.0 0.0 0.0 
0.0 0.0 0.0 
0.0 0.0 0.0 
0.0 0.0 0.0 
0.0 0.0 0.0 
0.0 0.0 0.0 
0.0 0.0 0.0 
0.0 0.0 0.0 
0.0 0.0 0.0 
0.0 0.0 0.0 
0.0 0.0 0.0 
0.0 0.0 0.0 
0.0 0.0 0.0 
0.0 0.0 0.0 
0.0 0.0 0.0 
0.0 0.0 0.0 
0.0 0.0 0.0 
0.0 0.0 0.0 
0.0 0.0 0.0 
0.0 0.0 0.0 
0.0 0.0 0.0 
0.0 0.0 0.0 
0.0 0.0 0.0 
0.0 0.0 0.0 
0.0 0.0 0.0 
0.0 0.0 0.0 
0.0 0.0 0.0 
0.0 0.0 0.0 
0.0 0.0 0.0 
0.0 0.0 0.0 
0.0 0.0 0.0 
0.0 0.0 0.0 
0.0 0.0 0.0 
0.0 0.0 0.0 
0.0 0.0 0.0 
0.0 0.0 0.0 
0.0 0.0 0.0 
0.0 0.0 0.0 
0.0 0.0 0.0 
0.0 0.0 0.0 
0.0 0.0 0.0 
0.0 0.0 0.0 
0.0 0.0 0.0 
0.0 0.0 0.0 
0.0 0.0 0.0 
0.0 0.0 0.0 
0.0 0.0 0.0 
0.0 0.0 0.0 
0.0 0.0 0.0 
0.0 0.0 0.0 
0.0 0.0 0.0 
0.0 0.0 0.0 
0.0 0.0 0.0 
0.0 0.0 0.0 
0.0 0.0 0.0 
0.0 0.0 0.0 
0.0 0.0 0.0 
0.0 0.0 0.0 
0.0 0.0 0.0 
0.0 0.0 0.0 
0.0 0.0 0.0 
0.0 0.0 0.0 
0.0 0.0 0.0 
0.0 0.0 0.0 
0.0 0.0 0.0 
0.0 0.0 0.0 
0.0 0.0 0.0 
0.0 0.0 0.0 
0.0 0.0 0.0 
0.0 0.0 0.0 
0.0 0.0 0.0 
0.0 0.0 0.0 
0.0 0.0 0.0 
0.0 0.0 0.0 
0.0 0.0 0.0 
0.0 0.0 0.0 
0.0 0.0 0.0 
0.0 0.0 0.0 
0.0 0.0 0.0 
0.0 0.0 0.0 
0.0 0.0 0.0 
0.0 0.0 0.0 
0.0 0.0 0.0 
0.0 0.0 0.0 
0.0 0.0 0.0 
0.0 0.0 0.0 
0.0 0.0 0.0 
0.0 0.0 0.0 
0.0 0.0 0.0 
0.0 0.0 0.0 
0.0 0.0 0.0 
0.0 0.0 0.0 
0.0 0.0 0.0 
0.0 0.0 0.0 
0.0 0.0 0.0 
0.0 0.0 0.0 
0.0 0.0 0.0 
0.0 0.0 0.0 
0.0 0.0 0.0 
0.0 0.0 0.0 
0.0 0.0 0.0 
0.0 0.0 0.0 
0.0 0.0 0.0 
0.0 0.0 0.0 
0.0 0.0 0.0 
0.0 0.0 0.0 
0.0 0.0 0.0 
0.0 0.0 0.0 
0.0 0.0 0.0 
0.0 0.0 0.0 
0.0 0.0 0.0 
0.0 0.0 0.0 
0.0 0.0 0.0 
0.0 0.0 0.0 
0.0 0.0 0.0 
0.0 0.0 0.0 
0.0 0.0 0.0 
0.0 0.0 0.0 
0.0 0.0 0.0 
0.0 0.0 0.0 
0.0 0.0 0.0 
0.0 0.0 0.0 
0.0 0.0 0.0 
0.0 0.0 0.0 
0.0 0.0 0.0 
0.0 0.0 0.0 
0.0 0.0 0.0 
0.0 0.0 0.0 
0.0 0.0 0.0 
0.0 0.0 0.0 
0.0 0.0 0.0 
0.0 0.0 0.0 
0.0 0.0 0.0 
0.0 0.0 0.0 
0.0 0.0 0.0 
0.0 0.0 0.0 
0.0 0.0 0.0 
0.0 0.0 0.0 
0.0 0.0 0.0 
0.0 0.0 0.0 
0.0 0.0 0.0 
0.0 0.0 0.0 
0.0 0.0 0.0 
0.0 0.0 0.0 
0.0 0.0 0.0 
0.0 0.0 0.0 
0.0 0.0 0.0 
0.0 0.0 0.0 
0.0 0.0 0.0 
0.0 0.0 0.0 
0.0 0.0 0.0 
0.0 0.0 0.0 
0.0 0.0 0.0 
0.0 0.0 0.0 
0.0 0.0 0.0 
0.0 0.0 0.0 
0.0 0.0 0.0 
0.0 0.0 0.0 
0.0 0.0 0.0 
0.0 0.0 0.0 
0.0 0.0 0.0 
0.0 0.0 0.0 
0.0 0.0 0.0 
0.0 0.0 0.0 
0.0 0.0 0.0 
0.0 0.0 0.0 
0.0 0.0 0.0 
0.0 0.0 0.0 
0.0 0.0 0.0 
0.0 0.0 0.0 
0.0 0.0 0.0 
0.0 0.0 0.0 
0.0 0.0 0.0 
0.0 0.0 0.0 
0.0 0.0 0.0 
0.0 0.0 0.0 
0.0 0.0 0.0 
0.0 0.0 0.0 
0.0 0.0 0.0 
0.0 0.0 0.0 
0.0 0.0 0.0 
0.0 0.0 0.0 
0.0 0.0 0.0 
0.0 0.0 0.0 
0.0 0.0 0.0 
0.0 0.0 0.0 
0.0 0.0 0.0 
0.0 0.0 0.0 
0.0 0.0 0.0 
0.0 0.0 0.0 
0.0 0.0 0.0 
0.0 0.0 0.0 
0.0 0.0 0.0 
0.0 0.0 0.0 
0.0 0.0 0.0 
0.0 0.0 0.0 
0.0 0.0 0.0 
0.0 0.0 0.0 
0.0 0.0 0.0 
0.0 0.0 0.0 
0.0 0.0 0.0 
0.0 0.0 0.0 
0.0 0.0 0.0 
0.0 0.0 0.0 
0.0 0.0 0.0 
0.0 0.0 0.0 
0.0 0.0 0.0 
0.0 0.0 0.0 
0.0 0.0 0.0 
0.0 0.0 0.0 
0.0 0.0 0.0 
0.0 0.0 0.0 
0.0 0.0 0.0 
0.0 0.0 0.0 
0.0 0.0 0.0 
0.0 0.0 0.0 
0.0 0.0 0.0 
0.0 0.0 0.0 
0.0 0.0 0.0 
0.0 0.0 0.0 
0.0 0.0 0.0 
0.0 0.0 0.0 
0.0 0.0 0.0 
0.0 0.0 0.0 
0.0 0.0 0.0 
0.0 0.0 0.0 
0.0 0.0 0.0 
0.0 0.0 0.0 
0.0 0.0 0.0 
0.0 0.0 0.0 
0.0 0.0 0.0 
0.0 0.0 0.0 
0.0 0.0 0.0 
0.0 0.0 0.0 
0.0 0.0 0.0 
0.0 0.0 0.0 
0.0 0.0 0.0 
0.0 0.0 0.0 
0.0 0.0 0.0 
0.0 0.0 0.0 
0.0 0.0 0.0 
0.0 0.0 0.0 
0.0 0.0 0.0 
0.0 0.0 0.0 
0.0 0.0 0.0 
0.0 0.0 0.0 
0.0 0.0 0.0 
0.0 0.0 0.0 
0.0 0.0 0.0 
0.0 0.0 0.0 
0.0 0.0 0.0 
0.0 0.0 0.0 
0.0 0.0 0.0 
0.0 0.0 0.0 
0.0 0.0 0.0 
0.0 0.0 0.0 
0.0 0.0 0.0 
0.0 0.0 0.0 
0.0 0.0 0.0 
0.0 0.0 0.0 
0.0 0.0 0.0 
0.0 0.0 0.0 
0.0 0.0 0.0 
0.0 0.0 0.0 
0.0 0.0 0.0 
0.0 0.0 0.0 
0.0 0.0 0.0 
0.0 0.0 0.0 
0.0 0.0 0.0 
0.0 0.0 0.0 
0.0 0.0 0.0 
0.0 0.0 0.0 
0.0 0.0 0.0 
0.0 0.0 0.0 
0.0 0.0 0.0 
0.0 0.0 0.0 
0.0 0.0 0.0 
0.0 0.0 0.0 
0.0 0.0 0.0 
0.0 0.0 0.0 
0.0 0.0 0.0 
0.0 0.0 0.0 
0.0 0.0 0.0 
0.0 0.0 0.0 
0.0 0.0 0.0 
0.0 0.0 0.0 
0.0 0.0 0.0 
0.0 0.0 0.0 
0.0 0.0 0.0 
0.0 0.0 0.0 
0.0 0.0 0.0 
0.0 0.0 0.0 
0.0 0.0 0.0 
0.0 0.0 0.0 
0.0 0.0 0.0 
0.0 0.0 0.0 
0.0 0.0 0.0 
0.0 0.0 0.0 
0.0 0.0 0.0 
0.0 0.0 0.0 
0.0 0.0 0.0 
0.0 0.0 0.0 
0.0 0.0 0.0 
0.0 0.0 0.0 
0.0 0.0 0.0 
0.0 0.0 0.0 
0.0 0.0 0.0 
0.0 0.0 0.0 
0.0 0.0 0.0 
0.0 0.0 0.0 
0.0 0.0 0.0 
0.0 0.0 0.0 
0.0 0.0 0.0 
0.0 0.0 0.0 
0.0 0.0 0.0 
0.0 0.0 0.0 
0.0 0.0 0.0 
0.0 0.0 0.0 
0.0 0.0 0.0 
0.0 0.0 0.0 
0.0 0.0 0.0 
0.0 0.0 0.0 
0.0 0.0 0.0 
0.0 0.0 0.0 
0.0 0.0 0.0 
0.0 0.0 0.0 
0.0 0.0 0.0 
0.0 0.0 0.0 
0.0 0.0 0.0 
0.0 0.0 0.0 
0.0 0.0 0.0 
0.0 0.0 0.0 
0.0 0.0 0.0 
0.0 0.0 0.0 
0.0 0.0 0.0 
0.0 0.0 0.0 
0.0 0.0 0.0 
0.0 0.0 0.0 
0.0 0.0 0.0 
0.0 0.0 0.0 
0.0 0.0 0.0 
0.0 0.0 0.0 
0.0 0.0 0.0 
0.0 0.0 0.0 
0.0 0.0 0.0 
0.0 0.0 0.0 
0.0 0.0 0.0 
0.0 0.0 0.0 
0.0 0.0 0.0 
0.0 0.0 0.0 
0.0 0.0 0.0 
0.0 0.0 0.0 
0.0 0.0 0.0 
0.0 0.0 0.0 
0.0 0.0 0.0 
0.0 0.0 0.0 
0.0 0.0 0.0 
0.0 0.0 0.0 
0.0 0.0 0.0 
0.0 0.0 0.0 
0.0 0.0 0.0 
0.0 0.0 0.0 
0.0 0.0 0.0 
0.0 0.0 0.0 
0.0 0.0 0.0 
0.0 0.0 0.0 
0.0 0.0 0.0 
0.0 0.0 0.0 
0.0 0.0 0.0 
0.0 0.0 0.0 
0.0 0.0 0.0 
0.0 0.0 0.0 
0.0 0.0 0.0 
0.0 0.0 0.0 
0.0 0.0 0.0 
0.0 0.0 0.0 
0.0 0.0 0.0 
0.0 0.0 0.0 
0.0 0.0 0.0 
0.0 0.0 0.0 
0.0 0.0 0.0 
0.0 0.0 0.0 
0.0 0.0 0.0 
0.0 0.0 0.0 
0.0 0.0 0.0 
0.0 0.0 0.0 
0.0 0.0 0.0 
0.0 0.0 0.0 
0.0 0.0 0.0 
0.0 0.0 0.0 
0.0 0.0 0.0 
0.0 0.0 0.0 
0.0 0.0 0.0 
0.0 0.0 0.0 
0.0 0.0 0.0 
0.0 0.0 0.0 
0.0 0.0 0.0 
0.0 0.0 0.0 
0.0 0.0 0.0 
0.0 0.0 0.0 
0.0 0.0 0.0 
0.0 0.0 0.0 
0.0 0.0 0.0 
0.0 0.0 0.0 
0.0 0.0 0.0 
0.0 0.0 0.0 
0.0 0.0 0.0 
0.0 0.0 0.0 
0.0 0.0 0.0 
0.0 0.0 0.0 
0.0 0.0 0.0 
0.0 0.0 0.0 
0.0 0.0 0.0 
0.0 0.0 0.0 
0.0 0.0 0.0 
0.0 0.0 0.0 
0.0 0.0 0.0 
0.0 0.0 0.0 
0.0 0.0 0.0 
0.0 0.0 0.0 
0.0 0.0 0.0 
0.0 0.0 0.0 
0.0 0.0 0.0 
0.0 0.0 0.0 
0.0 0.0 0.0 
0.0 0.0 0.0 
0.0 0.0 0.0 
0.0 0.0 0.0 
0.0 0.0 0.0 
0.0 0.0 0.0 
0.0 0.0 0.0 
0.0 0.0 0.0 
0.0 0.0 0.0 
0.0 0.0 0.0 
0.0 0.0 0.0 
0.0 0.0 0.0 
0.0 0.0 0.0 
0.0 0.0 0.0 
0.0 0.0 0.0 
0.0 0.0 0.0 
0.0 0.0 0.0 
0.0 0.0 0.0 
0.0 0.0 0.0 
0.0 0.0 0.0 
0.0 0.0 0.0 
0.0 0.0 0.0 
0.0 0.0 0.0 
0.0 0.0 0.0 
0.0 0.0 0.0 
0.0 0.0 0.0 
0.0 0.0 0.0 
0.0 0.0 0.0 
0.0 0.0 0.0 
0.0 0.0 0.0 
0.0 0.0 0.0 
0.0 0.0 0.0 
0.0 0.0 0.0 
0.0 0.0 0.0 
0.0 0.0 0.0 
0.0 0.0 0.0 
0.0 0.0 0.0 
0.0 0.0 0.0 
0.0 0.0 0.0 
0.0 0.0 0.0 
0.0 0.0 0.0 
0.0 0.0 0.0 
0.0 0.0 0.0 
0.0 0.0 0.0 
0.0 0.0 0.0 
0.0 0.0 0.0 
0.0 0.0 0.0 
0.0 0.0 0.0 
0.0 0.0 0.0 
0.0 0.0 0.0 
0.0 0.0 0.0 
0.0 0.0 0.0 
0.0 0.0 0.0 
0.0 0.0 0.0 
0.0 0.0 0.0 
0.0 0.0 0.0 
0.0 0.0 0.0 
0.0 0.0 0.0 
0.0 0.0 0.0 
0.0 0.0 0.0 
0.0 0.0 0.0 
0.0 0.0 0.0 
0.0 0.0 0.0 
0.0 0.0 0.0 
0.0 0.0 0.0 
0.0 0.0 0.0 
0.0 0.0 0.0 
0.0 0.0 0.0 
0.0 0.0 0.0 
0.0 0.0 0.0 
0.0 0.0 0.0 
0.0 0.0 0.0 
0.0 0.0 0.0 
0.0 0.0 0.0 
0.0 0.0 0.0 
0.0 0.0 0.0 
0.0 0.0 0.0 
0.0 0.0 0.0 
0.0 0.0 0.0 
0.0 0.0 0.0 
0.0 0.0 0.0 
0.0 0.0 0.0 
0.0 0.0 0.0 
0.0 0.0 0.0 
0.0 0.0 0.0 
0.0 0.0 0.0 
0.0 0.0 0.0 
0.0 0.0 0.0 
0.0 0.0 0.0 
0.0 0.0 0.0 
0.0 0.0 0.0 
0.0 0.0 0.0 
0.0 0.0 0.0 
0.0 0.0 0.0 
0.0 0.0 0.0 
0.0 0.0 0.0 
0.0 0.0 0.0 
0.0 0.0 0.0 
0.0 0.0 0.0 
0.0 0.0 0.0 
0.0 0.0 0.0 
0.0 0.0 0.0 
0.0 0.0 0.0 
0.0 0.0 0.0 
0.0 0.0 0.0 
0.0 0.0 0.0 
0.0 0.0 0.0 
0.0 0.0 0.0 
0.0 0.0 0.0 
0.0 0.0 0.0 
0.0 0.0 0.0 
0.0 0.0 0.0 
0.0 0.0 0.0 
0.0 0.0 0.0 
0.0 0.0 0.0 
0.0 0.0 0.0 
0.0 0.0 0.0 
0.0 0.0 0.0 
0.0 0.0 0.0 
0.0 0.0 0.0 
0.0 0.0 0.0 
0.0 0.0 0.0 
0.0 0.0 0.0 
0.0 0.0 0.0 
0.0 0.0 0.0 
0.0 0.0 0.0 
0.0 0.0 0.0 
0.0 0.0 0.0 
0.0 0.0 0.0 

VECTORS node_materi_velocity float
0.0 -3.374726183739e-05 0.0 
0.0 1.499400862206e-03 0.0 
0.0 0.0 0.0 
0.0 0.0 0.0 
0.0 -3.221325984791e-05 0.0 
0.0 -3.068047442404e-05 0.0 
0.0 -2.910189282159e-05 0.0 
0.0 -2.744935030482e-05 0.0 
0.0 -2.568236871169e-05 0.0 
0.0 -2.379082412674e-05 0.0 
0.0 -2.177159946304e-05 0.0 
0.0 -1.962908413775e-05 0.0 
0.0 -1.738639345657e-05 0.0 
0.0 -1.507530924092e-05 0.0 
0.0 -1.274342448609e-05 0.0 
0.0 -1.045029137543e-05 0.0 
0.0 -8.243904264218e-06 0.0 
0.0 -6.145471521257e-06 0.0 
0.0 -4.268492859269e-06 0.0 
0.0 -2.663494957123e-06 0.0 
0.0 -1.379024617263e-06 0.0 
0.0 -4.887560635298e-07 0.0 
0.0 -5.001832029975e-08 0.0 
0.0 0.0 0.0 
0.0 0.0 0.0 
0.0 0.0 0.0 
0.0 0.0 0.0 
0.0 0.0 0.0 
0.0 0.0 0.0 
0.0 0.0 0.0 
0.0 0.0 0.0 
0.0 0.0 0.0 
0.0 0.0 0.0 
0.0 0.0 0.0 
0.0 0.0 0.0 
0.0 0.0 0.0 
0.0 0.0 0.0 
0.0 0.0 0.0 
0.0 0.0 0.0 
0.0 0.0 0.0 
0.0 0.0 0.0 
0.0 0.0 0.0 
0.0 0.0 0.0 
0.0 0.0 0.0 
0.0 0.0 0.0 
0.0 0.0 0.0 
0.0 0.0 0.0 
0.0 0.0 0.0 
0.0 0.0 0.0 
0.0 0.0 0.0 
0.0 0.0 0.0 
0.0 0.0 0.0 
0.0 0.0 0.0 
0.0 0.0 0.0 
0.0 0.0 0.0 
0.0 0.0 0.0 
0.0 0.0 0.0 
0.0 0.0 0.0 
0.0 0.0 0.0 
0.0 0.0 0.0 
0.0 0.0 0.0 
0.0 0.0 0.0 
0.0 0.0 0.0 
0.0 0.0 0.0 
0.0 0.0 0.0 
0.0 0.0 0.0 
0.0 0.0 0.0 
0.0 0.0 0.0 
0.0 0.0 0.0 
0.0 0.0 0.0 
0.0 0.0 0.0 
0.0 0.0 0.0 
0.0 1.346849015971e-03 0.0 
0.0 1.194069079435e-03 0.0 
0.0 1.041249390034e-03 0.0 
0.0 8.885432762185e-04 0.0 
0.0 7.363731269396e-04 0.0 
0.0 5.851288977821e-04 0.0 
0.0 4.353291005492e-04 0.0 
0.0 2.875608888753e-04 0.0 
0.0 1.423942785613e-04 0.0 
2.102765123617e-05 -2.124670778449e-05 0.0 
2.253742121652e-04 1.136603226417e-03 0.0 
2.282792871484e-05 -1.124266760971e-05 0.0 
2.306633945383e-05 3.570103286379e-06 0.0 
2.288305552754e-05 2.573807512024e-05 0.0 
2.334165604576e-05 5.941602377945e-05 0.0 
2.582739068993e-05 1.101440879012e-04 0.0 
3.521345467340e-05 1.879472828464e-04 0.0 
6.690171683928e-05 3.111203114060e-04 0.0 
1.956882233862e-04 5.199316128942e-04 0.0 
1.848529185564e-04 9.443050226676e-04 0.0 
0.0 1.654708050249e-03 0.0 
1.975110828287e-05 1.501215812353e-03 0.0 
3.851477928474e-05 1.502323765591e-03 0.0 
5.586572218643e-05 1.503013619427e-03 0.0 
7.265481498365e-05 1.503840484555e-03 0.0 
8.862277430588e-05 1.503682895618e-03 0.0 
1.037727036989e-04 1.502823735700e-03 0.0 
1.178493639997e-04 1.500132217691e-03 0.0 
1.304016266759e-04 1.494565245914e-03 0.0 
1.415526701203e-04 1.484357997625e-03 0.0 
1.512891091514e-04 1.468769245707e-03 0.0 
1.599783349629e-04 1.443653735312e-03 0.0 
1.685765599290e-04 1.404981298597e-03 0.0 
1.794167056049e-04 1.347597744495e-03 0.0 
1.962522530655e-04 1.262678977754e-03 0.0 
2.273425108514e-05 -2.715640674324e-05 0.0 
2.498747824731e-05 -3.231246251705e-05 0.0 
2.723511239602e-05 -3.631888368178e-05 0.0 
2.926479458489e-05 -3.919817332586e-05 0.0 
3.074531193574e-05 -4.115994856970e-05 0.0 
3.167744091537e-05 -4.227276577770e-05 0.0 
3.203684454706e-05 -4.267454496314e-05 0.0 
3.182056584567e-05 -4.255940273145e-05 0.0 
3.106519365528e-05 -4.204412822451e-05 0.0 
2.980176192345e-05 -4.123745058904e-05 0.0 
2.806924696424e-05 -4.028016608939e-05 0.0 
2.594428032164e-05 -3.920499939579e-05 0.0 
2.344561977093e-05 -3.812716750121e-05 0.0 
2.064714099198e-05 -3.708516320809e-05 0.0 
1.759125984286e-05 -3.615155924760e-05 0.0 
1.432460397250e-05 -3.533428026065e-05 0.0 
1.088606198124e-05 -3.466414657426e-05 0.0 
7.324611748659e-06 -3.417399199000e-05 0.0 
3.685768195227e-06 -3.387450409056e-05 0.0 
7.517834959446e-05 1.218876142447e-03 0.0 
8.608065526367e-05 1.352339715334e-03 0.0 
9.582984070415e-05 1.450347859623e-03 0.0 
1.096188062692e-04 1.518513551370e-03 0.0 
1.211288228500e-04 1.566505953218e-03 0.0 
1.287619608126e-04 1.599892816750e-03 0.0 
1.314297651137e-04 1.621631870777e-03 0.0 
1.286738595850e-04 1.635984408618e-03 0.0 
1.225100560120e-04 1.646253441024e-03 0.0 
1.132019573828e-04 1.651489647336e-03 0.0 
1.014323212479e-04 1.654378395321e-03 0.0 
8.740563972162e-05 1.655633204064e-03 0.0 
7.277804673496e-05 1.656202946748e-03 0.0 
5.764732805571e-05 1.655135082687e-03 0.0 
4.293144620292e-05 1.654950040945e-03 0.0 
2.588048380506e-05 1.655785977150e-03 0.0 
2.228457717148e-05 -1.668915558683e-05 0.0 
2.305622574819e-05 -4.575863089115e-06 0.0 
2.300709712620e-05 1.355265114204e-05 0.0 
2.292522612267e-05 4.068477447806e-05 0.0 
2.380508610470e-05 8.188171760112e-05 0.0 
2.905059888711e-05 1.451566752070e-04 0.0 
4.641157652676e-05 2.423060227146e-04 0.0 
1.072225490967e-04 3.996219985596e-04 0.0 
2.200566452346e-04 7.351508744676e-04 0.0 
2.025332514944e-04 1.066455408332e-03 0.0 
2.775116283343e-05 -4.889718438437e-06 0.0 
1.849524343053e-05 1.803109708572e-06 0.0 
3.024433762656e-05 -4.115988117123e-05 0.0 
3.204047665806e-05 -4.066794156717e-05 0.0 
9.282855243904e-06 4.283993278198e-07 0.0 
3.350481470217e-05 4.097705305537e-05 0.0 
3.286611413859e-06 -1.392212283742e-05 0.0 
3.148635195058e-05 5.039400267259e-06 0.0 
5.880390202399e-05 1.405379099556e-04 0.0 
4.989685534414e-05 1.221681783727e-05 0.0 
1.901117575466e-04 4.064235241479e-04 0.0 
4.568344265600e-06 1.400833731793e-07 0.0 
2.119516466601e-05 -3.648571216532e-05 0.0 
7.564476647664e-05 2.919925597067e-05 0.0 
2.963999453028e-04 9.290755108491e-04 0.0 
3.098404026508e-06 -2.281165437616e-05 0.0 
3.064024937026e-06 -7.615652483957e-06 0.0 
9.313129306364e-05 5.273435490158e-05 0.0 
8.479885827840e-05 8.457590381100e-05 0.0 
2.428619408748e-05 1.198921913527e-04 0.0 
4.751088767731e-05 1.249192247119e-04 0.0 
6.429528914301e-05 1.015040179771e-04 0.0 
2.469810721461e-04 1.174624675944e-03 0.0 
1.636081925559e-04 1.340546720390e-03 0.0 
1.149158305056e-04 1.360740021145e-03 0.0 
1.316646016291e-05 8.101314380217e-04 0.0 
2.635108773687e-06 4.747595707933e-08 0.0 
2.773360125726e-05 -3.033476297019e-05 0.0 
1.217777850001e-05 -3.371304023426e-05 0.0 
1.941248822610e-06 -2.085706910307e-06 0.0 
6.258309413803e-05 1.371731355286e-03 0.0 
3.270240201231e-06 -2.840169858332e-05 0.0 
1.041242792996e-04 7.853042453797e-05 0.0 
3.700852817772e-05 7.331069594166e-06 0.0 
6.169044364504e-05 1.878382928548e-05 0.0 
2.598455652976e-05 3.357751065283e-06 0.0 
1.337458163181e-05 9.591544412380e-07 0.0 
3.280702758564e-05 -4.258464050068e-05 0.0 
1.973901059069e-04 1.297863717764e-03 0.0 
7.818614243402e-06 2.246807186347e-07 0.0 
1.078408627996e-05 5.164054837362e-04 0.0 
2.647828004227e-05 -3.894482711862e-05 0.0 
3.314643450766e-06 -1.859680531765e-05 0.0 
1.188229262051e-05 9.804069687622e-05 0.0 
4.195529668660e-05 7.784005643252e-05 0.0 
2.971126130437e-05 1.356073345844e-05 0.0 
9.827154627236e-05 2.356304660383e-04 0.0 
2.575466353424e-04 6.746566349137e-04 0.0 
2.584696278497e-05 -1.714474057894e-05 0.0 
1.485180214589e-05 1.099624057676e-03 0.0 
1.164803889997e-06 2.416940526385e-08 0.0 
5.442651477184e-06 -3.271374388719e-05 0.0 
6.246854691901e-06 2.251928848067e-04 0.0 
3.084770997523e-04 9.649617926194e-04 0.0 
3.485261920906e-04 8.085144004958e-04 0.0 
3.397492245059e-04 8.813901234840e-04 0.0 
3.716687679648e-04 7.072702680623e-04 0.0 
3.622761133932e-04 7.392031920841e-04 0.0 
3.779605622390e-04 6.055902203043e-04 0.0 
3.837098972658e-04 5.624170147222e-04 0.0 
3.806313217649e-04 4.842003569816e-04 0.0 
3.816643076736e-04 4.399118020579e-04 0.0 
3.617109244349e-04 6.246467112152e-04 0.0 
3.723136704501e-04 3.798992339245e-04 0.0 
3.698550681508e-04 3.396293248223e-04 0.0 
3.555748372613e-04 2.936455149512e-04 0.0 
3.513606180929e-04 2.596842422253e-04 0.0 
3.565955741955e-04 2.920574549605e-04 0.0 
3.380477031495e-04 2.210424604915e-04 0.0 
3.343580675241e-04 2.420323801560e-04 0.0 
3.173976118248e-04 1.811076962514e-04 0.0 
3.161656118251e-04 1.657827280923e-04 0.0 
2.977909778358e-04 1.343541884778e-04 0.0 
2.917839007420e-04 1.428711047955e-04 0.0 
2.752734003797e-04 1.043391851921e-04 0.0 
2.636448282340e-04 1.082052259839e-04 0.0 
2.506039583643e-04 7.709135078453e-05 0.0 
2.347962412410e-04 7.788166305299e-05 0.0 
2.253046776924e-04 5.328058608787e-05 0.0 
2.356010891599e-04 5.374953629993e-05 0.0 
2.136594533835e-04 3.495759421984e-05 0.0 
2.007674373549e-04 3.326426345848e-05 0.0 
1.921360015182e-04 1.901325128834e-05 0.0 
1.778512167648e-04 1.686097138077e-05 0.0 
1.717845116469e-04 5.852667065145e-06 0.0 
1.816737314140e-04 8.833802117093e-06 0.0 
1.637787211621e-04 -1.806041956501e-06 0.0 
1.529919337214e-04 -4.802159271031e-06 0.0 
1.470630498045e-04 -1.049032795465e-05 0.0 
1.359883136621e-04 -1.331292380126e-05 0.0 
1.317442997973e-04 -1.746158599085e-05 0.0 
1.208297173991e-04 -2.002103656010e-05 0.0 
1.178119485396e-04 -2.300846524526e-05 0.0 
1.259664360761e-04 -1.975245608429e-05 0.0 
1.133054438513e-04 -2.441068619446e-05 0.0 
1.052691458126e-04 -2.737458621716e-05 0.0 
1.017714309961e-04 -2.809234193904e-05 0.0 
1.075420484953e-04 -2.458094772206e-05 0.0 
9.705949405756e-05 -2.774491270992e-05 0.0 
1.008047704406e-04 -2.382958749566e-05 0.0 
9.140182874002e-05 -2.660193432655e-05 0.0 
8.754420958242e-05 -3.020864190916e-05 0.0 
8.273706937536e-05 -2.877365741994e-05 0.0 
8.506348055749e-05 -2.488945998883e-05 0.0 
7.723854383262e-05 -2.686822972179e-05 0.0 
7.471389033755e-05 -3.048373083748e-05 0.0 
6.997359697078e-05 -2.839854907108e-05 0.0 
7.132479307106e-05 -2.463284664246e-05 0.0 
6.475801621721e-05 -2.605798045500e-05 0.0 
6.322212623390e-05 -2.957180620254e-05 0.0 
5.860908485189e-05 -2.715244260816e-05 0.0 
5.929814728193e-05 -2.354804844658e-05 0.0 
5.370190917826e-05 -2.462808112855e-05 0.0 
5.283491549489e-05 -2.798371098216e-05 0.0 
4.842849639440e-05 -2.544149978626e-05 0.0 
4.865670810812e-05 -2.206344391873e-05 0.0 
4.383985969242e-05 -2.290631661019e-05 0.0 
4.354031050408e-05 -1.956102980687e-05 0.0 
4.337943164443e-05 -2.607283370484e-05 0.0 
3.922020028983e-05 -2.357054252294e-05 0.0 
3.861448778323e-05 -2.655488380909e-05 0.0 
3.480975316772e-05 -2.409609091589e-05 0.0 
1.697778070653e-04 1.836886201227e-06 0.0 
3.418662273806e-05 -2.688954878927e-05 0.0 
3.759597180976e-05 -2.928179155218e-05 0.0 
3.062651694284e-05 -2.451466476263e-05 0.0 
3.087805652146e-05 -2.172588255665e-05 0.0 
3.001800102407e-05 -2.712326027302e-05 0.0 
2.664984698150e-05 -2.485521124801e-05 0.0 
2.610193411181e-05 -2.729428033430e-05 0.0 
1.213721416140e-04 -1.514592414064e-05 0.0 
2.919063578144e-04 1.233785356228e-04 0.0 
2.287640457419e-05 -2.515639505790e-05 0.0 
2.242255097098e-05 -2.743725672464e-05 0.0 
2.539657008782e-05 -2.952783408635e-05 0.0 
2.188941476424e-05 -2.952267347621e-05 0.0 
3.432545915719e-04 7.484707267852e-04 0.0 
3.379075708123e-04 6.238280326554e-04 0.0 
3.190654471586e-04 7.382596821472e-04 0.0 
3.082961521860e-04 6.066368911897e-04 0.0 
2.904886399844e-04 7.096915460719e-04 0.0 
1.895850039320e-05 -2.758924858543e-05 0.0 
3.488778229220e-04 3.161273988513e-04 0.0 
3.173606614876e-04 5.045803781642e-04 0.0 
2.742972062840e-04 1.492538708258e-04 0.0 
1.815547526201e-04 3.208916342658e-05 0.0 
1.108589340642e-04 -2.038352434409e-05 0.0 
2.316013746841e-05 -2.270060764017e-05 0.0 
1.953081951854e-05 -2.314590686895e-05 0.0 
1.959678885069e-05 -2.069195032319e-05 0.0 
4.798795625252e-05 -1.852122672938e-05 0.0 
4.237852565749e-05 -1.614004027792e-05 0.0 
4.627690047281e-05 -1.493020997775e-05 0.0 
4.027182393798e-05 -1.274750388794e-05 0.0 
4.344261905281e-05 -1.142061813937e-05 0.0 
3.717721961855e-05 -9.503301622210e-06 0.0 
3.455863878976e-05 -1.075116418384e-05 0.0 
3.134075421704e-05 -7.784516467902e-06 0.0 
2.919095995297e-05 -8.952911866836e-06 0.0 
3.945722093366e-05 -8.130752691284e-06 0.0 
4.634195787164e-05 -9.928164137970e-06 0.0 
2.596909542699e-05 -6.268715272186e-06 0.0 
2.420749062536e-05 -7.358624818031e-06 0.0 
2.108505736060e-05 -4.958138441994e-06 0.0 
1.963918349113e-05 -5.966141903287e-06 0.0 
2.209646733185e-05 -8.402799055836e-06 0.0 
1.780579427583e-05 -6.958880923654e-06 0.0 
1.970522821101e-05 -9.407763865953e-06 0.0 
1.021117224273e-04 -1.939617559547e-05 0.0 
1.112217544174e-04 -1.572125704691e-05 0.0 
1.005924668804e-04 -1.467133242259e-05 0.0 
1.081746607360e-04 -1.089303229590e-05 0.0 
9.594758670475e-05 -9.934861460299e-06 0.0 
1.014545760991e-04 -6.237274446472e-06 0.0 
8.799543712390e-05 -5.491597286383e-06 0.0 
8.406231235219e-05 -8.695194378784e-06 0.0 
3.322063668882e-04 2.225744322202e-04 0.0 
9.409742828288e-05 -3.076638432933e-05 0.0 
9.545187493087e-05 -2.936218089879e-05 0.0 
8.510804171998e-05 -3.252339965771e-05 0.0 
8.455751831828e-05 -3.033937440699e-05 0.0 
7.540203474253e-05 -3.336583505670e-05 0.0 
7.326151209983e-05 -3.034952590140e-05 0.0 
6.551171583056e-05 -3.336144153661e-05 0.0 
6.750847966027e-05 -3.575088312793e-05 0.0 
5.888952724277e-05 -3.580149009590e-05 0.0 
6.064449414139e-05 -3.763279756699e-05 0.0 
5.320448484606e-05 -3.778372396095e-05 0.0 
5.464040016534e-05 -3.909811302427e-05 0.0 
2.190737714721e-04 3.653334896424e-05 0.0 
1.154440210074e-04 -6.546803291462e-06 0.0 
1.061102648849e-04 -2.172832500608e-06 0.0 
1.219732079619e-04 -1.675887054726e-06 0.0 
2.464113382856e-05 -3.153942911575e-05 0.0 
1.550034697447e-05 -4.762127601474e-06 0.0 
4.127725733903e-05 -6.641480412461e-06 0.0 
4.886600744701e-05 -8.296368441707e-06 0.0 
7.526175611927e-05 -4.578885050683e-06 0.0 
1.860602753231e-05 -2.954430869928e-05 0.0 
6.220884459923e-05 -2.951440645211e-05 0.0 
6.952008105362e-05 -2.569629970117e-05 0.0 
2.746865283503e-04 5.729812977623e-04 0.0 
2.590271061602e-04 6.667190910027e-04 0.0 
4.248845822602e-05 -5.053805354801e-06 0.0 
1.568067861214e-05 -2.778269579148e-05 0.0 
2.728934537102e-05 -5.138001561300e-06 0.0 
5.069444828283e-05 -3.523918635065e-05 0.0 
1.388030464598e-05 -5.700594574894e-06 0.0 
1.179899171342e-05 -3.729862682689e-06 0.0 
3.169741591543e-05 -1.187509214696e-05 0.0 
1.094644941004e-04 2.195296093884e-06 0.0 
1.275151824830e-04 3.560736805945e-06 0.0 
6.129717257495e-05 -3.829775491417e-05 0.0 
5.510576807432e-05 -3.939216297211e-05 0.0 
4.939413688881e-05 -4.020965991572e-05 0.0 
4.979241853725e-05 -4.017356004459e-05 0.0 
5.468878035273e-05 -3.882703837689e-05 0.0 
4.919194483364e-05 -3.932581992426e-05 0.0 
4.500959715177e-05 -4.060973105197e-05 0.0 
4.432967249027e-05 -3.958426032426e-05 0.0 
4.793178729338e-05 -3.789827526571e-05 0.0 
4.305607149956e-05 -3.800479108673e-05 0.0 
4.004810380202e-05 -3.960290804297e-05 0.0 
3.871970605606e-05 -3.792435356385e-05 0.0 
1.282269205179e-05 -2.895325720774e-06 0.0 
4.623268849836e-05 -3.741971136848e-05 0.0 
3.477293203111e-04 3.208150219240e-04 0.0 
3.493428656646e-05 -3.816823033453e-06 0.0 
7.692312674708e-05 -1.705694433611e-06 0.0 
2.384070901338e-04 5.265438478965e-04 0.0 
2.256162785520e-04 6.125535051915e-04 0.0 
2.378576473891e-04 7.597095911763e-04 0.0 
2.080893935886e-04 6.976941913438e-04 0.0 
1.912618372791e-04 5.499112661724e-04 0.0 
1.775421697516e-04 6.292874858140e-04 0.0 
1.877958611726e-04 7.806200227952e-04 0.0 
1.610454121269e-04 7.070926788710e-04 0.0 
1.664512710828e-04 8.603793679753e-04 0.0 
1.431561986490e-04 7.827480724370e-04 0.0 
1.341913906428e-04 6.300922989442e-04 0.0 
1.195725393090e-04 7.029138086212e-04 0.0 
1.249028994789e-04 8.563339785965e-04 0.0 
1.040593973940e-04 7.743444272935e-04 0.0 
1.069299478366e-04 9.279393607670e-04 0.0 
8.821210771706e-05 8.444891178172e-04 0.0 
8.354211262818e-05 6.916015853167e-04 0.0 
1.558802339791e-05 -2.957947065733e-05 0.0 
7.272904141563e-05 -7.341980349365e-06 0.0 
6.339002261686e-05 -3.607061935489e-06 0.0 
1.622638720129e-05 -2.130961523321e-05 0.0 
1.613162678055e-05 -1.886443907724e-05 0.0 
1.944714932330e-05 -1.812770950995e-05 0.0 
1.570725760290e-05 -1.633494884176e-05 0.0 
6.941862688897e-05 7.613995771039e-04 0.0 
6.405230123392e-05 6.088441970995e-04 0.0 
5.762198039646e-05 -2.404841590690e-05 0.0 
6.419742704984e-05 -1.916708907083e-05 0.0 
2.446578778907e-04 4.415952816979e-04 0.0 
1.033138383375e-05 -4.620001592110e-06 0.0 
1.190734115781e-05 -6.664284400513e-06 0.0 
1.587146200496e-04 1.562339666321e-05 0.0 
1.574376290268e-04 3.176540478336e-05 0.0 
1.361976723305e-04 1.563804804922e-05 0.0 
1.296985227063e-04 3.261649286245e-05 0.0 
1.526766314394e-04 5.285697012072e-05 0.0 
1.112564473212e-04 1.688934146715e-05 0.0 
5.373683608753e-05 -1.196669339496e-05 0.0 
1.080605795406e-04 5.510821677941e-04 0.0 
2.817062840184e-05 -3.168157789722e-05 0.0 
2.715141991247e-05 -3.358646185923e-05 0.0 
8.537584685086e-06 -2.869127084486e-06 0.0 
7.946101340591e-05 -1.159911235326e-05 0.0 
2.371530717295e-04 5.354539492252e-05 0.0 
2.162351701067e-04 3.749081753880e-05 0.0 
2.293125439546e-04 5.216825768056e-05 0.0 
2.046061578787e-04 3.736096825455e-05 0.0 
2.115708411281e-04 4.910712746692e-05 0.0 
1.839693351967e-04 3.574667494984e-05 0.0 
1.799335815142e-04 2.664249940783e-05 0.0 
1.108847376761e-04 6.671510409846e-06 0.0 
1.570483050051e-04 2.593768841075e-05 0.0 
7.351713543358e-05 9.150322378273e-04 0.0 
1.296938963120e-04 -6.268580690662e-06 0.0 
4.605780606774e-05 -3.601894347321e-05 0.0 
1.842996312638e-05 -3.127148362789e-05 0.0 
3.623492723313e-05 -3.948428176961e-05 0.0 
1.257363792872e-05 -2.803187256321e-05 0.0 
1.262986439130e-05 -2.614415926654e-05 0.0 
3.470954930070e-05 -2.409056515148e-06 0.0 
1.838439672802e-04 4.391651660412e-05 0.0 
2.141732259394e-04 6.017893168926e-05 0.0 
1.201131301202e-04 5.481723647084e-05 0.0 
1.442614517833e-04 8.013908038645e-05 0.0 
9.203507414060e-05 4.948303755774e-06 0.0 
2.910504302750e-04 8.536438310172e-04 0.0 
1.885923725649e-04 9.345974420207e-04 0.0 
1.643438326696e-04 1.015079692122e-03 0.0 
1.296499601010e-05 -2.999288272410e-05 0.0 
3.730260671612e-05 -4.081160788023e-05 0.0 
1.570658914749e-04 4.812964486100e-04 0.0 
7.807679781720e-05 -2.090558813793e-05 0.0 
7.217787309520e-05 -1.312744069292e-05 0.0 
4.327637681213e-05 -3.425665985535e-05 0.0 
3.996053065260e-05 -3.671190831864e-05 0.0 
5.249222341028e-05 6.761134088908e-04 0.0 
4.662406101184e-05 5.260660057088e-04 0.0 
1.898362073209e-05 -1.549986451042e-05 0.0 
1.514141359043e-05 -1.378834380548e-05 0.0 
4.291183952119e-05 -3.399551318222e-06 0.0 
3.487155614294e-05 -3.770135682354e-05 0.0 
5.488214653056e-05 4.582532852358e-04 0.0 
6.939040423946e-05 -9.894881285546e-06 0.0 
7.443949440552e-05 -1.416766942025e-05 0.0 
1.239250990811e-05 -1.718596466574e-05 0.0 
5.172187417164e-05 -1.684635384699e-05 0.0 
4.708133949362e-05 -2.192662943861e-05 0.0 
5.141180227184e-05 -3.577219034463e-05 0.0 
3.690033516114e-05 -3.595131205396e-05 0.0 
9.512451996858e-06 -2.659716660550e-05 0.0 
3.343803998682e-05 -1.075471425387e-06 0.0 
1.628131335548e-04 4.063461569922e-04 0.0 
1.561208364631e-04 1.920435216121e-05 0.0 
1.731357427077e-04 1.767348137715e-05 0.0 
1.313632899923e-04 1.892269280320e-05 0.0 
3.305788536864e-05 -3.913772626261e-05 0.0 
2.740044576720e-05 -1.606272056416e-06 0.0 
7.168370839089e-06 -3.694239619942e-06 0.0 
1.803751072938e-04 5.135725716647e-05 0.0 
2.115178830486e-04 6.968439180646e-05 0.0 
8.819575463706e-05 -1.490536246503e-05 0.0 
8.226958259357e-05 -5.461017825734e-06 0.0 
6.462868367391e-05 -2.790512387460e-06 0.0 
7.386709865333e-05 6.974067804084e-06 0.0 
3.769069723366e-04 4.999153752765e-04 0.0 
1.006555315113e-04 -7.249885554486e-06 0.0 
3.171104651036e-04 2.595560657510e-04 0.0 
3.237807454639e-04 3.448397088277e-04 0.0 
2.864915739070e-04 2.736006842011e-04 0.0 
1.793345837576e-04 7.847621250541e-05 0.0 
1.735008397002e-04 1.132699236311e-04 0.0 
9.508323447961e-05 -2.645808006775e-05 0.0 
1.215567426263e-04 -1.613553201268e-05 0.0 
2.291362511598e-05 -1.739717402295e-05 0.0 
2.405232665584e-05 -1.105468734154e-05 0.0 
5.250137041945e-05 -1.726727028075e-05 0.0 
1.175068692220e-04 4.797447709294e-04 0.0 
8.977167903711e-05 4.016934215639e-04 0.0 
1.251311495212e-04 1.010489531114e-03 0.0 
1.061977504437e-04 1.081840929578e-03 0.0 
2.395950258449e-05 -3.332997886536e-05 0.0 
2.631616884770e-05 -3.526644162406e-05 0.0 
3.845426291632e-05 -1.717685306531e-05 0.0 
2.815084118453e-05 -2.753068317278e-06 0.0 
2.041503001315e-04 3.914440991037e-04 0.0 
2.002638962775e-04 3.154909059782e-04 0.0 
2.429263499989e-04 3.597056144347e-04 0.0 
4.230353670127e-05 -1.723099093307e-06 0.0 
8.423310374666e-05 -3.337623266391e-05 0.0 
9.297651688830e-05 -1.790479586886e-05 0.0 
4.241296487183e-05 -3.917353604281e-05 0.0 
1.856905360499e-04 1.213709001757e-05 0.0 
2.349013797354e-05 -3.490858152595e-05 0.0 
3.022842301308e-04 1.474644996938e-04 0.0 
5.730792023998e-06 -2.147922569477e-06 0.0 
6.563569613252e-06 -1.478472779388e-06 0.0 
8.906856585403e-05 8.200454806491e-06 0.0 
3.385805006341e-04 7.270140763069e-04 0.0 
1.702129558438e-04 5.710000581214e-06 0.0 
1.568662271577e-04 -2.708393146059e-06 0.0 
2.853893700399e-04 3.630869014823e-04 0.0 
2.450644980906e-04 2.834540639974e-04 0.0 
2.480946348333e-04 2.116031030116e-04 0.0 
2.038564940544e-04 2.163270600978e-04 0.0 
4.884014251569e-05 -3.365494430904e-05 0.0 
4.366194100096e-05 -3.387119078676e-05 0.0 
1.453022834449e-04 3.626992307297e-05 0.0 
1.268907838922e-04 2.306330989374e-05 0.0 
1.696116552108e-04 5.554803268782e-05 0.0 
2.017575585649e-04 7.569496338486e-05 0.0 
7.006552285110e-05 6.114624791586e-06 0.0 
7.464134714690e-05 3.768985882068e-06 0.0 
9.479183616937e-06 -2.465782498235e-05 0.0 
1.323392739088e-04 1.149912701669e-04 0.0 
1.259039158950e-04 3.371580996747e-04 0.0 
3.238567327204e-04 4.532135451310e-04 0.0 
2.116015145140e-05 -9.697272371450e-07 0.0 
2.216715028409e-05 -1.926647304759e-06 0.0 
3.712583712178e-05 -3.872490196742e-05 0.0 
3.912589106182e-05 -4.076098909780e-05 0.0 
3.778518626295e-05 3.799839362703e-04 0.0 
5.581552679804e-05 1.012014230937e-05 0.0 
6.341182687228e-05 2.224785075358e-05 0.0 
4.981314448836e-05 9.915434949891e-08 0.0 
8.166721250083e-07 -1.764609703755e-07 0.0 
2.768879466441e-05 1.371465911225e-03 0.0 
4.175478724460e-06 -9.750701970408e-07 0.0 
2.116797867577e-04 1.127427900774e-04 0.0 
4.187074650643e-05 3.074166532658e-04 0.0 
1.545536762477e-04 1.652876353543e-06 0.0 
1.382212820867e-04 2.543704081450e-06 0.0 
5.203072370995e-05 -4.510100471093e-06 0.0 
3.000109281032e-05 4.591980879136e-04 0.0 
2.291131879221e-05 2.960942315427e-04 0.0 
1.809861685395e-04 1.087464380375e-03 0.0 
1.566552323238e-04 1.169889042554e-03 0.0 
2.086839330074e-04 1.003636397690e-03 0.0 
4.729558663187e-05 -3.132494520969e-05 0.0 
3.866502604371e-05 -2.908303611081e-05 0.0 
8.347729214450e-05 4.709494194456e-04 0.0 
1.606430715197e-05 -2.360834846213e-05 0.0 
1.252618068954e-05 -2.162911356149e-05 0.0 
3.296442250331e-05 -3.578744596508e-05 0.0 
3.461170504855e-05 -3.383371240548e-05 0.0 
2.226417321697e-05 -1.467299612459e-05 0.0 
2.643848822193e-05 -1.664582329655e-05 0.0 
2.739230008369e-04 1.097557085954e-04 0.0 
2.760490466293e-04 1.267733203727e-04 0.0 
2.535508599377e-04 7.236258390584e-05 0.0 
6.549221741210e-05 -1.217649501885e-05 0.0 
6.920418109833e-05 -1.638566910666e-05 0.0 
7.737422149332e-05 -1.855134057629e-05 0.0 
9.366652855785e-05 3.370757433681e-04 0.0 
6.314486839463e-05 2.483052803395e-04 0.0 
5.452396873961e-05 -3.328728816977e-05 0.0 
5.733579436806e-05 -3.531926165948e-05 0.0 
4.576824892425e-05 -3.139679030946e-05 0.0 
1.232262759476e-04 2.697955649211e-04 0.0 
4.566910865535e-06 -5.331505455261e-07 0.0 
6.945474266392e-06 -9.090865854451e-07 0.0 
2.572539234355e-05 -3.665179951157e-05 0.0 
2.841648394772e-05 -3.710084134581e-05 0.0 
4.134177262943e-05 -1.443492775409e-05 0.0 
3.813150991874e-05 -1.962614038829e-05 0.0 
1.906031265893e-04 2.480514223657e-04 0.0 
2.328757671101e-04 2.841402076602e-04 0.0 
1.412817743556e-04 1.948521654160e-04 0.0 
6.315406520940e-06 -2.541153369554e-05 0.0 
1.523801156679e-04 1.247201400977e-05 0.0 
3.187914955725e-05 1.594141584638e-07 0.0 
4.152770198788e-05 -2.271692838739e-07 0.0 
2.215982281407e-05 4.519077233893e-07 0.0 
1.103764685848e-04 1.088335511716e-05 0.0 
8.356217907303e-05 1.065828213225e-05 0.0 
9.914782600436e-05 1.673751153554e-05 0.0 
3.448871402273e-05 -3.587394999175e-05 0.0 
1.686862593024e-05 3.568897998763e-04 0.0 
1.216722059259e-04 1.164720974013e-03 0.0 
3.314277546324e-05 -3.779534013533e-05 0.0 
1.029773149742e-04 1.241016156373e-03 0.0 
8.892180330970e-05 1.152628531409e-03 0.0 
8.804254520436e-05 1.315054669769e-03 0.0 
6.499952195847e-06 -2.715840283158e-05 0.0 
1.924213554019e-04 1.182338932528e-03 0.0 
2.264657527049e-04 1.070368105991e-03 0.0 
2.764425156482e-05 -3.855461875763e-05 0.0 
8.455126329984e-05 2.017632320137e-04 0.0 
2.344176621071e-05 -3.623080330855e-05 0.0 
2.112962662872e-05 -3.464726533451e-05 0.0 
1.565888556461e-05 -5.506793619027e-07 0.0 
1.694746944701e-05 -1.245841767321e-06 0.0 
1.103583148491e-05 -1.804100224373e-07 0.0 
1.278025859798e-05 -7.283316783813e-07 0.0 
1.757800127948e-05 -2.055219814265e-06 0.0 
1.329823201620e-05 -1.379193048744e-06 0.0 
1.356187204530e-04 1.258887187429e-03 0.0 
8.480586827361e-06 -2.491489108314e-07 0.0 
9.583956379988e-06 -8.261678162848e-07 0.0 
5.444147430670e-06 -1.003905141017e-07 0.0 
1.961272845891e-04 2.936493569020e-04 0.0 
8.445666398304e-05 1.895408987435e-05 0.0 
7.281069074370e-05 3.789449570693e-05 0.0 
5.064321771821e-05 4.169091082404e-05 0.0 
1.396306202289e-04 5.132640779606e-05 0.0 
1.865821517214e-04 7.866390679211e-05 0.0 
4.388933602184e-06 -2.884988514721e-06 0.0 
5.165276722033e-06 -4.545231538846e-06 0.0 
7.229658910761e-05 1.233873023221e-03 0.0 
5.321355744191e-05 1.239406141237e-03 0.0 
5.965866769803e-05 1.099758055817e-03 0.0 
4.292273873865e-05 1.115713822723e-03 0.0 
4.778941560513e-05 9.787187819043e-04 0.0 
3.056907738767e-05 9.953879990698e-04 0.0 
3.753691149667e-05 8.585919900516e-04 0.0 
8.926720486672e-05 1.850917618698e-05 0.0 
4.096422182677e-05 1.211646267252e-05 0.0 
2.772292992380e-04 4.797954018882e-04 0.0 
5.275394786661e-05 4.603174088619e-06 0.0 
6.063579869660e-05 3.088533944464e-06 0.0 
1.635794469318e-04 1.575631688458e-04 0.0 
1.147688242115e-04 1.591670812996e-04 0.0 
1.772298722676e-05 -3.242386999852e-08 0.0 
1.046747349885e-04 -1.566312602293e-05 0.0 
6.514292403916e-05 1.230244427692e-04 0.0 
2.595812093606e-05 -2.522073961236e-05 0.0 
3.165354531461e-05 -2.838238017908e-05 0.0 
1.193338181905e-04 -7.821146435456e-06 0.0 
2.096930868603e-04 1.580267149872e-04 0.0 
9.958809067334e-05 3.456366055395e-05 0.0 
8.916542972265e-05 5.872725808639e-05 0.0 
5.985615720467e-05 -8.168036938225e-06 0.0 
3.019157483744e-05 -3.885058120341e-05 0.0 
4.516675739966e-05 -7.964778036316e-06 0.0 
5.517735059775e-05 8.440052605609e-04 0.0 
3.518203662460e-05 -6.105523874451e-06 0.0 
2.323341254939e-06 -3.548581312784e-06 0.0 
1.071888143879e-04 -2.151588648506e-05 0.0 
2.105094816562e-04 7.817360148903e-05 0.0 
5.752193683177e-05 -1.064560025795e-05 0.0 
9.588439567207e-05 4.567063610113e-06 0.0 
3.702936490430e-04 3.827768837720e-04 0.0 
3.714273910356e-04 6.439790045861e-04 0.0 
3.550374832344e-04 5.588528100502e-04 0.0 
1.072441482059e-04 -2.528084593662e-05 0.0 
1.083182797427e-04 8.337660580286e-05 0.0 
7.320693564702e-05 8.900561238806e-05 0.0 
3.057631099123e-04 1.932309082728e-04 0.0 
2.822674983709e-04 3.917990730030e-04 0.0 
2.721745388803e-04 3.103901261518e-04 0.0 
2.156610746028e-04 2.183040191672e-04 0.0 
2.534650519772e-04 2.392481773771e-04 0.0 
3.056270192136e-04 3.241935349976e-04 0.0 
2.859517951316e-04 2.501178932387e-04 0.0 
2.276020998256e-04 1.797976709116e-04 0.0 
2.590113433097e-04 1.881504782505e-04 0.0 
1.807812816686e-04 1.181099852825e-04 0.0 
2.249416848662e-04 1.370520795955e-04 0.0 
2.829181808895e-04 1.886332971748e-04 0.0 
2.516844527519e-04 1.409475950053e-04 0.0 
1.965772290454e-04 1.025604907840e-04 0.0 
3.000862089880e-04 1.838230207736e-04 0.0 
4.438782791107e-05 5.489583888259e-06 0.0 
1.379718166623e-04 -6.881643057500e-06 0.0 
3.671451198340e-05 -3.292703308982e-05 0.0 
3.325309936874e-05 -2.426252212812e-05 0.0 
2.421629668221e-04 1.109625523608e-04 0.0 
9.546646338041e-05 6.183672112555e-05 0.0 
9.124186946775e-05 7.939718659723e-05 0.0 
8.217839573360e-05 -2.656482409034e-05 0.0 
6.840939417550e-05 2.345690485954e-05 0.0 
3.559946971608e-04 4.242075535309e-04 0.0 
5.593423226043e-05 -3.260592459788e-05 0.0 
5.639248580776e-05 1.543335798682e-05 0.0 
3.164011656921e-04 4.093109502467e-04 0.0 
3.441043352879e-04 4.149917802096e-04 0.0 
3.463747460258e-04 5.152820098297e-04 0.0 
7.659612487993e-05 8.782985257248e-05 0.0 
2.378495361767e-04 9.121316024146e-04 0.0 
3.295643744916e-05 5.844657796349e-06 0.0 
1.205085712955e-04 -1.134462628599e-05 0.0 
1.325995102509e-04 -1.109057632966e-05 0.0 
1.310876040408e-04 -1.570537827959e-05 0.0 
3.111961293164e-04 2.519152007230e-04 0.0 
2.090290913980e-05 2.227788966692e-06 0.0 
3.644716057497e-05 2.561171385849e-06 0.0 
3.196136691553e-05 1.762090889024e-06 0.0 
4.926664282137e-05 1.322097090559e-06 0.0 
1.586088578834e-05 1.385365151876e-06 0.0 
8.140344205515e-05 4.023830062756e-05 0.0 
7.334304709789e-05 3.191230423565e-05 0.0 
5.339466964151e-05 -3.755635308878e-05 0.0 
5.952080144790e-05 -3.694595449287e-05 0.0 
6.387762142398e-05 -3.458787767318e-05 0.0 
6.631782864334e-05 -3.604242120728e-05 0.0 
6.088506173940e-05 -3.800418577211e-05 0.0 
6.781229477876e-05 -3.687328981049e-05 0.0 
7.380123459718e-05 -3.481463314435e-05 0.0 
6.822195664830e-05 -3.685516446741e-05 0.0 
2.370677643171e-04 1.040654193092e-04 0.0 
1.167606024820e-05 7.966599705480e-07 0.0 
5.008637850291e-05 -1.353267206770e-05 0.0 
5.702087810636e-05 -1.583447236398e-05 0.0 
5.882083399198e-05 -1.974045643600e-05 0.0 
2.689684874648e-05 -1.947697996185e-05 0.0 
3.068614619972e-05 -1.880634810325e-05 0.0 
2.996963433533e-05 -1.582775147355e-05 0.0 
2.319820653146e-05 -2.010100812453e-05 0.0 
1.947832065028e-04 2.590490086448e-05 0.0 
1.015128824086e-05 5.517781891233e-07 0.0 
8.369082919386e-05 -1.610356876767e-05 0.0 
3.496708421296e-05 -2.113126998784e-05 0.0 
2.200233954085e-04 1.246383295684e-03 0.0 
2.700583888956e-04 1.081310417357e-03 0.0 
3.017683478162e-04 1.002673873665e-03 0.0 
3.122767154261e-04 8.980633576675e-04 0.0 
2.406653671285e-04 1.126403983839e-03 0.0 
1.821230965573e-05 -1.288208989063e-05 0.0 
1.432706043545e-05 -1.128246465530e-05 0.0 
1.141120028593e-05 -1.226222812110e-05 0.0 
1.062942364496e-05 -9.866535571376e-06 0.0 
7.831261142777e-06 -1.090782684175e-05 0.0 
8.437654007045e-06 -1.323726085923e-05 0.0 
7.071363306480e-06 -8.610918542268e-06 0.0 
4.486533480809e-06 -9.960007033483e-06 0.0 
1.798408785304e-04 1.326143641384e-03 0.0 
3.274201954669e-05 -4.202956146389e-05 0.0 
3.489213273782e-05 -4.232299668874e-05 0.0 
3.411698471063e-05 -4.236982055675e-05 0.0 
3.673371566933e-05 -4.210338664656e-05 0.0 
3.800919061015e-05 -4.188376609490e-05 0.0 
4.081824228468e-05 -4.158226821084e-05 0.0 
4.174110136920e-05 -4.130132053071e-05 0.0 
3.523631824165e-05 -4.154164984082e-05 0.0 
3.240980249133e-05 -4.251026622198e-05 0.0 
3.303663162584e-05 -4.189217831376e-05 0.0 
3.154173137510e-05 -4.200182646680e-05 0.0 
3.154855455855e-05 -4.108813629598e-05 0.0 
3.390935402979e-05 -4.076945546447e-05 0.0 
2.945297528037e-05 -3.555133074096e-05 0.0 
2.297716380138e-06 2.214240192492e-08 0.0 
3.326965419055e-06 -1.630198729855e-05 0.0 
6.521140062049e-06 -1.767672536527e-05 0.0 
6.498979990810e-06 -1.986053581880e-05 0.0 
9.987927997732e-06 -1.908152918714e-05 0.0 
6.264628749988e-06 -1.554543436566e-05 0.0 
3.233627018180e-06 -2.077109987384e-05 0.0 
6.322034086876e-06 -2.175238416588e-05 0.0 
8.806837827788e-06 -3.309747337783e-05 0.0 
6.935457503302e-06 -3.155307360289e-05 0.0 
3.201502106408e-06 -3.134052094952e-05 0.0 
5.168232895770e-06 -3.002239746066e-05 0.0 
8.516105815469e-06 -3.052774380082e-05 0.0 
1.029541526784e-05 -3.209528662426e-05 0.0 
1.359373315839e-05 -3.286368761773e-05 0.0 
1.544767502638e-05 -3.452327964969e-05 0.0 
1.666891124993e-05 -3.377061158677e-05 0.0 
1.495951765505e-05 -3.197443997336e-05 0.0 
1.840599242175e-05 -3.545547203874e-05 0.0 
1.265015810051e-05 6.596271873705e-04 0.0 
2.458756728125e-05 5.850129048394e-04 0.0 
8.122146099895e-06 2.905895554562e-07 0.0 
1.469422223680e-04 1.346666514603e-03 0.0 
2.854116560243e-05 -4.008559943324e-05 0.0 
2.254341238436e-05 1.448581972321e-04 0.0 
3.661867240337e-05 1.171207604684e-04 0.0 
2.882901994881e-05 1.147548343282e-04 0.0 
1.383665984006e-06 -9.161931355920e-07 0.0 
2.219071702996e-06 -5.255142448366e-07 0.0 
1.200587210882e-05 1.415634976419e-04 0.0 
2.913287058157e-05 -2.951311758184e-05 0.0 
1.909173077410e-04 1.625062238858e-04 0.0 
6.114120844357e-05 3.901155740157e-04 0.0 
5.206996642072e-05 -2.802504106711e-05 0.0 
3.894214954522e-05 -3.392641519548e-05 0.0 
8.343538492122e-06 -5.526082447641e-06 0.0 
2.673525652076e-05 -1.003367027377e-05 0.0 
9.456904518669e-06 -2.111069018988e-06 0.0 
1.565162667655e-05 -7.943729419909e-06 0.0 
1.670040367874e-05 -3.838042866237e-06 0.0 
2.857978599800e-05 1.156249672148e-06 0.0 
9.724499587119e-06 -2.836085844725e-05 0.0 
1.452949652768e-04 9.368700416490e-04 0.0 
9.033512217252e-05 9.985976383832e-04 0.0 
9.650484681728e-05 6.217706954545e-04 0.0 
1.929543011944e-05 -2.545420096429e-05 0.0 
1.209577202590e-05 -1.460639378029e-05 0.0 
2.139394996349e-05 -3.139722213305e-05 0.0 
1.067275969412e-04 2.977666170144e-05 0.0 
2.826484932663e-04 2.044083131784e-04 0.0 
5.365885507556e-05 -2.101527058315e-05 0.0 
2.694308763758e-05 -2.223683757781e-05 0.0 
3.320056376583e-05 -2.942885544389e-05 0.0 
4.123838564212e-05 -3.606684830046e-05 0.0 
1.568780767835e-04 3.620189128540e-06 0.0 
3.919361316432e-05 -2.042140464276e-05 0.0 
3.309820756223e-05 -6.533815025155e-06 0.0 
7.469776954133e-05 5.400786033478e-04 0.0 
2.379873552599e-05 -3.749122124219e-05 0.0 
3.434392926151e-05 -5.197650546915e-06 0.0 
3.693051561567e-05 -1.391678079037e-05 0.0 
2.136530553327e-04 8.495164223583e-04 0.0 
9.098177241754e-05 -2.108174223027e-06 0.0 
4.090200583955e-05 -4.080870159422e-05 0.0 
1.471229247615e-04 5.563177281229e-04 0.0 
1.587310224105e-04 2.695578762489e-04 0.0 
2.585983355965e-04 9.653472409763e-04 0.0 
2.100500299775e-05 -3.309924615283e-05 0.0 
1.421890261827e-04 1.093692976341e-03 0.0 
2.559949681494e-05 -5.010997280918e-07 0.0 
2.828706844924e-04 4.801312114289e-04 0.0 
1.588919256377e-05 -2.577446783363e-05 0.0 
9.338244954581e-05 -2.242703456260e-05 0.0 
2.070480244299e-04 5.253345723808e-05 0.0 
2.827243675607e-04 8.191952445721e-04 0.0 
6.502370736385e-05 3.276967212603e-04 0.0 
1.543310280674e-04 -6.821412909028e-06 0.0 
6.374883112980e-05 -1.168218532063e-06 0.0 
8.993246316155e-05 -1.323469063967e-05 0.0 
1.274861089636e-05 -2.406903511896e-05 0.0 
2.246246406377e-05 -2.924190854171e-06 0.0 
1.188979912949e-04 -2.060789780075e-05 0.0 
1.240794291244e-04 4.092089806132e-04 0.0 
2.392410726619e-04 6.729640214336e-05 0.0 
9.140124059455e-05 -3.095445042048e-05 0.0 
2.006456757569e-04 4.701834619223e-04 0.0 
6.512368522596e-05 -2.222494254802e-05 0.0 
9.247258181621e-05 1.402969924644e-06 0.0 
2.468501494887e-04 1.548617209021e-04 0.0 
2.569810332970e-04 7.529660137576e-05 0.0 
3.283381948772e-04 1.963946446375e-04 0.0 
2.003147233243e-04 2.159888883418e-05 0.0 
5.761980556253e-06 -6.487510375828e-06 0.0 
2.806685985307e-05 -3.965284213165e-06 0.0 
4.833338348904e-05 -3.933459011634e-05 0.0 
1.173086602340e-04 2.850036407297e-06 0.0 
2.658741088027e-04 8.125889614215e-04 0.0 
1.550406070507e-04 3.211349372060e-05 0.0 
9.106004773823e-05 2.649139893468e-04 0.0 
1.821986441655e-04 5.220319661855e-05 0.0 
2.206806737584e-05 -3.938825825418e-06 0.0 
1.639453413545e-04 3.368139056488e-04 0.0 
3.454980961732e-05 -1.805192113320e-05 0.0 
3.064272643136e-06 -2.661440443794e-05 0.0 
4.329893706749e-05 -2.610767444831e-05 0.0 
7.610135381684e-05 -3.496626532477e-05 0.0 
1.396836399514e-04 -1.394989620101e-05 0.0 
3.348219724784e-05 -1.493946585927e-05 0.0 
1.639469515282e-04 1.721269754228e-04 0.0 
1.742315587297e-05 -2.940145234172e-06 0.0 
5.077347197299e-05 -6.476383537951e-06 0.0 
2.694012670451e-05 -1.169987647491e-05 0.0 
3.150564414244e-04 6.014572372471e-04 0.0 
1.335212903370e-05 -2.116242676848e-06 0.0 
8.551307774664e-05 -2.060943543482e-05 0.0 
7.687476102122e-05 1.120601263051e-06 0.0 
5.019682582993e-06 -1.204650319781e-05 0.0 
9.661075869448e-05 2.347671022777e-05 0.0 
1.503227072300e-04 2.142067341048e-04 0.0 
9.841574440748e-06 -1.445743592825e-06 0.0 
6.209023211476e-05 -5.957866580943e-06 0.0 
9.264172345011e-05 -2.177545041242e-05 0.0 
4.555794528359e-05 1.372696522252e-03 0.0 
6.021457591236e-06 -3.143659915200e-07 0.0 
5.217193390525e-05 -2.497262048369e-06 0.0 
2.014467868397e-04 2.407860271135e-05 0.0 
7.823064386289e-05 -2.283526940600e-05 0.0 
2.323524070988e-04 5.192998268469e-04 0.0 
2.866069276217e-05 -1.288741765402e-05 0.0 
2.762862937080e-04 9.887047397825e-05 0.0 
6.801263746514e-05 9.156503443223e-05 0.0 
5.209410765339e-05 -6.470252398374e-07 0.0 
3.683843828662e-04 5.112523516374e-04 0.0 
2.551050250835e-05 -1.381864398644e-05 0.0 
1.384872435503e-04 -6.385347617806e-07 0.0 
1.177156633039e-05 -3.117870784642e-05 0.0 
2.397333504328e-04 3.819861230572e-04 0.0 
2.119838211110e-05 -1.198633176381e-05 0.0 
7.551845403196e-05 -3.537068214738e-05 0.0 
7.115374470699e-05 -2.057936166692e-05 0.0 
6.382437698777e-05 7.664074898466e-06 0.0 
1.710567937932e-05 -1.034554005408e-05 0.0 
8.212418336374e-05 -3.314460830121e-05 0.0 
1.324578096973e-05 -8.892448967556e-06 0.0 
1.337742737047e-04 3.014001160902e-04 0.0 
3.631883981872e-04 4.047704296283e-04 0.0 
9.508982767845e-06 -7.606215386661e-06 0.0 
2.661227367905e-04 9.131522092123e-05 0.0 
1.813913617573e-05 -3.294474828897e-05 0.0 
1.830607093330e-04 1.524034825372e-05 0.0 
3.305286467025e-06 -1.487500253245e-06 0.0 
4.228968321422e-05 -2.900538881940e-05 0.0 
6.408783094917e-05 -1.824427439319e-05 0.0 
3.317710979262e-04 3.266129098630e-04 0.0 
7.333855677808e-05 1.810875998871e-04 0.0 
6.142676897527e-05 -1.416385786361e-05 0.0 
2.446207184674e-04 8.164857711835e-05 0.0 
1.647091896701e-04 9.392273900164e-06 0.0 
1.438609107567e-04 -9.751726565289e-06 0.0 
5.699561567262e-05 -1.016585205571e-05 0.0 
9.316475826079e-05 1.196552708413e-04 0.0 
3.184330489840e-05 -3.173683138086e-05 0.0 
3.067583531325e-05 -3.376182914306e-05 0.0 
7.888231609957e-05 -3.210731273174e-05 0.0 
2.442527862812e-04 9.437943813378e-05 0.0 
7.211084005608e-06 -2.899844340491e-05 0.0 
3.266597966594e-04 2.420315713047e-04 0.0 
3.142495600564e-05 -3.743308657366e-05 0.0 
7.103910639481e-05 -3.354065138554e-05 0.0 
1.308427587696e-04 9.156877772423e-06 0.0 
1.399608672512e-05 9.565672370616e-04 0.0 
6.745102667220e-05 -3.173056910036e-05 0.0 
2.988819133739e-06 -2.476394076234e-05 0.0 
6.073021453440e-05 -3.266933384485e-05 0.0 
1.436002123775e-04 -5.176407408445e-06 0.0 
5.701842393803e-05 -3.040184541904e-05 0.0 
5.118469188829e-05 -3.100398342491e-05 0.0 
4.388281285121e-05 2.492133487178e-04 0.0 
4.743701190726e-05 -2.856098475421e-05 0.0 
5.973822724463e-06 1.171305242164e-04 0.0 
9.325539867129e-07 4.579500993848e-08 0.0 
1.721720261381e-05 1.255920459728e-03 0.0 
4.451335577829e-05 1.111540363388e-04 0.0 
2.949502866936e-05 -3.494571367176e-05 0.0 
6.477616326222e-05 5.975661954248e-05 0.0 
4.082174974250e-05 -3.163086776862e-05 0.0 
3.054750349009e-04 1.683191274590e-04 0.0 
3.584754510350e-05 1.250018497026e-03 0.0 
3.617761381489e-05 -3.171476458874e-05 0.0 
1.556806113986e-04 8.555076220274e-05 0.0 
4.177256593798e-05 9.098030752962e-06 0.0 
2.676249318911e-05 7.264161238520e-04 0.0 
6.354292508351e-05 1.052013287084e-06 0.0 
1.460683175959e-04 5.773088684881e-06 0.0 
8.336650741581e-06 3.717626417819e-04 0.0 
9.955313663556e-05 1.385038642170e-03 0.0 
2.976213805565e-05 -4.001940833519e-05 0.0 
2.720285576763e-06 -5.356369121205e-06 0.0 
3.388368089547e-05 5.980484689759e-05 0.0 
4.474425698310e-05 2.456176513555e-05 0.0 
3.743021705085e-05 2.013139086950e-06 0.0 
9.519753372936e-06 -2.272694355985e-05 0.0 
3.531509392967e-05 -4.172853253372e-05 0.0 
3.148913714017e-05 2.573535291714e-05 0.0 
4.209308113558e-05 3.468618434846e-06 0.0 
1.681650934327e-04 1.229420854043e-03 0.0 
1.342150384077e-04 1.439122962722e-05 0.0 
2.872517930173e-05 3.301373367616e-06 0.0 
1.171299614352e-04 2.136092229755e-04 0.0 
7.148016670098e-05 1.168305789964e-05 0.0 
5.285564504667e-06 1.459585605243e-07 0.0 
1.065241165232e-04 1.421309695862e-05 0.0 
3.293190037063e-05 -1.283540212229e-05 0.0 
2.767298496862e-04 9.876600137010e-04 0.0 
1.163859976020e-04 3.684591411088e-05 0.0 
3.757133716365e-05 6.064937260472e-04 0.0 
3.678716894740e-06 9.662505977017e-08 0.0 
2.085773539112e-04 1.202576144761e-03 0.0 
2.597697164084e-05 2.333200541157e-04 0.0 
4.431462296230e-05 -4.051221422558e-05 0.0 
1.300417649837e-05 2.268987973380e-04 0.0 
2.689480148568e-04 1.380542916823e-04 0.0 
7.578120661074e-05 1.068301167023e-03 0.0 
3.364767758985e-04 8.557507651753e-04 0.0 
2.649004897008e-06 -2.188526355738e-07 0.0 
1.629629620722e-04 1.204508460925e-04 0.0 
3.135421528314e-05 -1.895770805600e-05 0.0 
4.204877897231e-05 7.422441938903e-04 0.0 
1.346897807777e-05 -1.960235124218e-05 0.0 
3.434790201052e-05 -3.989115831539e-05 0.0 
1.419851421952e-05 -6.618327673577e-08 0.0 
2.206817481758e-04 1.064217325616e-04 0.0 
4.509957850595e-06 -2.541543857681e-07 0.0 
2.310790351341e-06 -2.995544447204e-05 0.0 
2.536642845567e-05 -3.760687382154e-05 0.0 
1.711414337396e-05 2.940788746302e-07 0.0 
1.302588044667e-04 5.470571777568e-05 0.0 
4.545543042796e-05 -4.097754109449e-05 0.0 
4.019075380919e-05 8.784981482433e-05 0.0 
2.864259716135e-05 -2.280505753541e-05 0.0 
1.291448631562e-04 1.395567474319e-03 0.0 
1.932848443865e-05 -3.483020724809e-05 0.0 
2.850466155997e-06 7.744513545291e-08 0.0 
6.739082757156e-05 2.165326730641e-04 0.0 
8.994227831754e-06 -1.686422172553e-05 0.0 
2.798556390558e-04 1.076973480551e-03 0.0 
6.177327846954e-06 -2.367651353889e-05 0.0 
1.223648193483e-04 2.639569666893e-05 0.0 
3.169992689222e-05 -3.998540890653e-05 0.0 
4.461239800873e-05 2.082775102253e-04 0.0 
2.185439480311e-05 8.832846510925e-07 0.0 
1.348397393763e-04 1.570113329086e-04 0.0 
1.991583988671e-05 2.927409486689e-06 0.0 
3.190289896195e-05 -3.266584253445e-05 0.0 
6.871426397686e-05 1.305634453616e-05 0.0 
4.069725902004e-05 8.821697832547e-07 0.0 
7.692969210317e-05 1.391947938125e-03 0.0 
1.561591968483e-04 1.414300631327e-04 0.0 
9.227635439867e-06 -2.092053815713e-05 0.0 
1.588996725303e-05 -3.105283051169e-05 0.0 
2.516380946083e-06 1.038155004442e-04 0.0 
2.603870842723e-06 -3.268639355397e-05 0.0 
1.347385763988e-05 1.388312341957e-03 0.0 
3.606841224724e-07 2.392144098443e-08 0.0 
1.003574595688e-05 -2.978751918181e-05 0.0 
2.885922369372e-05 1.145085675141e-03 0.0 
1.337132355576e-04 6.399651969905e-05 0.0 
2.194627227862e-06 -1.155005649202e-05 0.0 
1.896184093477e-05 4.678598044641e-04 0.0 
3.808661733332e-05 -4.148715522715e-05 0.0 
3.047262788562e-05 -3.839008147134e-05 0.0 
2.458460411691e-05 8.809747347401e-04 0.0 
5.796333744078e-05 8.581285894622e-06 0.0 
1.093208567821e-04 1.706908261035e-04 0.0 
6.217203008580e-05 9.848798518696e-04 0.0 
3.724782464457e-05 -2.367238245535e-05 0.0 
1.756181356659e-04 8.143742552598e-05 0.0 
9.253340188288e-06 -1.509217908189e-05 0.0 
1.456642060016e-04 4.243676017654e-05 0.0 
5.130313726704e-05 2.366150081305e-06 0.0 
2.483689664771e-05 -2.066771456951e-05 0.0 
1.856157622513e-06 -9.339521620367e-06 0.0 
2.167387546213e-05 -3.590044884062e-05 0.0 
8.782380874568e-06 -1.230345225890e-07 0.0 
6.031465158282e-06 -1.375853283156e-05 0.0 
1.517081258909e-04 1.202913750346e-03 0.0 
1.133646120780e-05 1.576810427843e-03 0.0 

VECTORS node_materi_displacement float
0.0 1.158532889425e-02 0.0 
0.0 2.278190914467e-02 0.0 
0.0 0.0 0.0 
0.0 0.0 0.0 
0.0 1.157453206544e-02 0.0 
0.0 1.150768357942e-02 0.0 
0.0 1.138545367134e-02 0.0 
0.0 1.120775314811e-02 0.0 
0.0 1.097305617363e-02 0.0 
0.0 1.068245553622e-02 0.0 
0.0 1.033578184202e-02 0.0 
0.0 9.931988957375e-03 0.0 
0.0 9.470232207521e-03 0.0 
0.0 8.948803835619e-03 0.0 
0.0 8.364914582871e-03 0.0 
0.0 7.716572942298e-03 0.0 
0.0 7.002861624013e-03 0.0 
0.0 6.225456639100e-03 0.0 
0.0 5.376064671849e-03 0.0 
0.0 4.454080126067e-03 0.0 
0.0 3.458010799518e-03 0.0 
0.0 2.384150773178e-03 0.0 
0.0 1.229937642809e-03 0.0 
0.0 0.0 0.0 
0.0 0.0 0.0 
0.0 0.0 0.0 
0.0 0.0 0.0 
0.0 0.0 0.0 
0.0 0.0 0.0 
0.0 0.0 0.0 
0.0 0.0 0.0 
0.0 0.0 0.0 
0.0 0.0 0.0 
0.0 0.0 0.0 
0.0 0.0 0.0 
0.0 0.0 0.0 
0.0 0.0 0.0 
0.0 0.0 0.0 
0.0 0.0 0.0 
0.0 0.0 0.0 
0.0 0.0 0.0 
0.0 0.0 0.0 
0.0 0.0 0.0 
0.0 0.0 0.0 
0.0 0.0 0.0 
0.0 0.0 0.0 
0.0 0.0 0.0 
0.0 0.0 0.0 
0.0 0.0 0.0 
0.0 0.0 0.0 
0.0 0.0 0.0 
0.0 0.0 0.0 
0.0 0.0 0.0 
0.0 0.0 0.0 
0.0 0.0 0.0 
0.0 0.0 0.0 
0.0 0.0 0.0 
0.0 0.0 0.0 
0.0 0.0 0.0 
0.0 0.0 0.0 
0.0 0.0 0.0 
0.0 0.0 0.0 
0.0 0.0 0.0 
0.0 0.0 0.0 
0.0 0.0 0.0 
0.0 0.0 0.0 
0.0 0.0 0.0 
0.0 0.0 0.0 
0.0 0.0 0.0 
0.0 0.0 0.0 
0.0 0.0 0.0 
0.0 0.0 0.0 
0.0 2.076246393271e-02 0.0 
0.0 1.868015941118e-02 0.0 
0.0 1.653580506504e-02 0.0 
0.0 1.433263344150e-02 0.0 
0.0 1.207162082681e-02 0.0 
0.0 9.756199816348e-03 0.0 
0.0 7.388716838932e-03 0.0 
0.0 4.971859364328e-03 0.0 
0.0 2.508709301076e-03 0.0 
-1.549539381832e-03 1.529658110794e-02 0.0 
2.301874021692e-03 2.170429322567e-02 0.0 
-1.110560256727e-03 1.656606287939e-02 0.0 
-6.683072586716e-04 1.796392254510e-02 0.0 
-1.712437858838e-04 1.934942977334e-02 0.0 
3.607112421831e-04 2.061676925646e-02 0.0 
9.001882272872e-04 2.169169518149e-02 0.0 
1.419674653093e-03 2.251406092009e-02 0.0 
1.880179868626e-03 2.301491614648e-02 0.0 
2.226904598251e-03 2.313120243690e-02 0.0 
2.315071365958e-03 2.276400380926e-02 0.0 
0.0 2.474115513393e-02 0.0 
1.431669082468e-04 2.278550361644e-02 0.0 
2.844473259834e-04 2.279132161615e-02 0.0 
4.253949590762e-04 2.279736883071e-02 0.0 
5.664109393494e-04 2.280328992687e-02 0.0 
7.071123297726e-04 2.280929929006e-02 0.0 
8.482358338566e-04 2.281087873584e-02 0.0 
9.906108193655e-04 2.280792520490e-02 0.0 
1.132104785682e-03 2.279390516943e-02 0.0 
1.277023055441e-03 2.276698666298e-02 0.0 
1.424551906519e-03 2.271794506856e-02 0.0 
1.575413103777e-03 2.263783189698e-02 0.0 
1.733018618027e-03 2.251564333817e-02 0.0 
1.901396685523e-03 2.233511478586e-02 0.0 
2.087107737400e-03 2.207393109778e-02 0.0 
-1.404964378964e-03 1.459541000194e-02 0.0 
-1.220398056778e-03 1.401054719989e-02 0.0 
-1.029802028319e-03 1.352648530179e-02 0.0 
-8.483356082175e-04 1.313076386491e-02 0.0 
-6.864933509181e-04 1.280957191625e-02 0.0 
-5.420206322814e-04 1.254667938152e-02 0.0 
-4.154343181702e-04 1.233270011171e-02 0.0 
-3.079597672212e-04 1.215971207710e-02 0.0 
-2.179990390067e-04 1.202133149330e-02 0.0 
-1.444503467246e-04 1.191279459689e-02 0.0 
-8.769195666290e-05 1.182554938522e-02 0.0 
-4.205792983431e-05 1.176083661747e-02 0.0 
-7.203027126827e-06 1.170791451620e-02 0.0 
1.343838532526e-05 1.166697040940e-02 0.0 
2.367623873976e-05 1.163776396905e-02 0.0 
2.796184871357e-05 1.161687615973e-02 0.0 
2.713905349865e-05 1.160182336345e-02 0.0 
2.214386160820e-05 1.159203310441e-02 0.0 
1.087849970502e-05 1.158552767932e-02 0.0 
2.031810696270e-03 2.343167129484e-02 0.0 
1.897843582671e-03 2.385228020522e-02 0.0 
1.769809819802e-03 2.415270010106e-02 0.0 
1.656419836512e-03 2.436802842760e-02 0.0 
1.546409198865e-03 2.451904674927e-02 0.0 
1.435277915424e-03 2.462220358873e-02 0.0 
1.320526687789e-03 2.468919046903e-02 0.0 
1.200755232629e-03 2.473032487631e-02 0.0 
1.077063275801e-03 2.475413669000e-02 0.0 
9.501820232542e-04 2.476511886426e-02 0.0 
8.201568957791e-04 2.476726666298e-02 0.0 
6.876958997371e-04 2.476488585235e-02 0.0 
5.539578081553e-04 2.475986773981e-02 0.0 
4.196050579528e-04 2.475337952859e-02 0.0 
2.852568035869e-04 2.474775722163e-02 0.0 
1.468670689264e-04 2.474007206074e-02 0.0 
-1.319547584277e-03 1.590312155705e-02 0.0 
-8.936493245527e-04 1.725851115070e-02 0.0 
-4.217376198883e-04 1.866654839997e-02 0.0 
9.621952831175e-05 2.000330973538e-02 0.0 
6.372595125634e-04 2.118845113826e-02 0.0 
1.170664209481e-03 2.214649475171e-02 0.0 
1.664162083395e-03 2.280818726471e-02 0.0 
2.075425543500e-03 2.312518432378e-02 0.0 
2.325958314607e-03 2.301677028155e-02 0.0 
2.327278221075e-03 2.230127982709e-02 0.0 
-2.605212182730e-04 1.699040811007e-02 0.0 
4.587122580992e-04 1.215667273064e-03 0.0 
-7.236317806954e-05 1.192645488404e-02 0.0 
-4.865935357594e-04 1.291052914400e-02 0.0 
2.857999682057e-04 1.128958124305e-03 0.0 
8.281674029206e-04 1.938916267383e-02 0.0 
9.214151360261e-05 8.654471191538e-03 0.0 
6.051119361387e-04 1.337373943795e-03 0.0 
1.859832122873e-03 2.104564058852e-02 0.0 
6.971777864953e-04 1.461213424049e-03 0.0 
2.591595535306e-03 2.165262007390e-02 0.0 
1.569349419193e-04 1.007923076286e-03 0.0 
4.680468603114e-05 1.166255484110e-02 0.0 
7.397236936887e-04 1.684212969996e-03 0.0 
2.609160182558e-03 2.048326643440e-02 0.0 
6.434112860895e-05 1.050522996685e-02 0.0 
9.623469008526e-05 6.782805024591e-03 0.0 
7.191134265982e-04 1.917932491203e-03 0.0 
5.293903374537e-04 1.997388544205e-03 0.0 
1.477128846282e-04 2.141921060639e-03 0.0 
2.791429741045e-04 2.305324645675e-03 0.0 
3.784790368466e-04 2.026109250833e-03 0.0 
2.137164851828e-03 2.042510961772e-02 0.0 
1.394263617622e-03 2.091944839871e-02 0.0 
9.268194028497e-04 2.093753013004e-02 0.0 
9.354611977403e-05 1.317518584178e-02 0.0 
9.347580359078e-05 1.079727572351e-03 0.0 
-8.593725572251e-04 1.425530573676e-02 0.0 
4.602606280578e-05 1.159524373719e-02 0.0 
6.653908643634e-05 4.042912245183e-03 0.0 
4.823479419224e-04 2.106304458411e-02 0.0 
3.838470821386e-05 1.130686827787e-02 0.0 
7.092371718659e-04 2.222744127961e-03 0.0 
6.084931949379e-04 1.285871724342e-03 0.0 
7.208174535923e-04 1.547231518530e-03 0.0 
5.689432655697e-04 1.348703498095e-03 0.0 
3.666992552758e-04 1.116404754142e-03 0.0 
-2.743721623116e-04 1.237894698551e-02 0.0 
1.736331572072e-03 2.087733411906e-02 0.0 
2.556261601172e-04 1.265498084626e-03 0.0 
7.146775082236e-05 8.680411330181e-03 0.0 
5.772351073829e-06 1.176075163146e-02 0.0 
8.298446439834e-05 9.709061063483e-03 0.0 
7.276284429419e-05 1.744454264653e-03 0.0 
1.379059042935e-03 2.023212132300e-02 0.0 
2.706016244282e-04 1.824127143502e-02 0.0 
2.285783410560e-03 2.151126485681e-02 0.0 
2.689076180336e-03 2.134109891568e-02 0.0 
-7.983250596180e-04 1.578990439294e-02 0.0 
1.114236887869e-04 1.736022341432e-02 0.0 
4.280364090661e-05 8.514647859009e-04 0.0 
2.081072130597e-05 1.158092620253e-02 0.0 
3.951398087816e-05 3.930662032126e-03 0.0 
2.552187698059e-03 1.976475506334e-02 0.0 
2.779413687485e-03 1.861399032441e-02 0.0 
2.592960034200e-03 1.809298084179e-02 0.0 
2.829302027776e-03 1.674925577054e-02 0.0 
2.642094267335e-03 1.596795692240e-02 0.0 
2.801525091606e-03 1.479111709845e-02 0.0 
3.004030171888e-03 1.550903913415e-02 0.0 
2.920526879243e-03 1.360840500834e-02 0.0 
3.129014465718e-03 1.429578937278e-02 0.0 
2.573115330131e-03 1.394683145238e-02 0.0 
2.991741048147e-03 1.243758413276e-02 0.0 
3.203322379958e-03 1.310403213228e-02 0.0 
3.014215084212e-03 1.129474562486e-02 0.0 
3.226585507477e-03 1.194554975744e-02 0.0 
3.375148322131e-03 1.367146881206e-02 0.0 
3.398590026215e-03 1.250978267353e-02 0.0 
3.501519777995e-03 1.413669841257e-02 0.0 
3.524723195543e-03 1.297595267081e-02 0.0 
3.374052380893e-03 1.139999950896e-02 0.0 
3.500486059460e-03 1.187497551803e-02 0.0 
3.602941850132e-03 1.335145839305e-02 0.0 
3.578943245425e-03 1.226423955965e-02 0.0 
3.632235160747e-03 1.363951657776e-02 0.0 
3.609174203734e-03 1.256842448659e-02 0.0 
3.613764909850e-03 1.384808948370e-02 0.0 
3.592919236127e-03 1.280003272473e-02 0.0 
3.543959022671e-03 1.156201816481e-02 0.0 
3.530885549120e-03 1.182100218878e-02 0.0 
3.532472972334e-03 1.296454426668e-02 0.0 
3.474470979752e-03 1.201673190242e-02 0.0 
3.430876188042e-03 1.306931066416e-02 0.0 
3.377804713266e-03 1.215564993429e-02 0.0 
3.380618503867e-03 1.113231153075e-02 0.0 
3.290008626147e-03 1.130846912368e-02 0.0 
3.244143814903e-03 1.224696427417e-02 0.0 
3.163793184564e-03 1.144023067019e-02 0.0 
3.077594256151e-03 1.229761578340e-02 0.0 
3.006204604784e-03 1.153356039776e-02 0.0 
2.882984883307e-03 1.231282286004e-02 0.0 
2.820600364205e-03 1.159486181918e-02 0.0 
2.907419074191e-03 1.082207321382e-02 0.0 
2.732102618916e-03 1.092638638800e-02 0.0 
2.611659634351e-03 1.163206699871e-02 0.0 
2.534918943402e-03 1.100995461901e-02 0.0 
2.620720113890e-03 1.030860996967e-02 0.0 
2.436137914306e-03 1.043758105005e-02 0.0 
2.490206039764e-03 9.735190977846e-03 0.0 
2.319177206407e-03 9.906981856007e-03 0.0 
2.237578147496e-03 1.054709020531e-02 0.0 
2.134400977345e-03 1.005844483313e-02 0.0 
2.187887968198e-03 9.410550157428e-03 0.0 
2.016640310103e-03 9.605518048451e-03 0.0 
1.938897079665e-03 1.020011641165e-02 0.0 
1.836900091339e-03 9.783150192111e-03 0.0 
1.888974611762e-03 9.176273891250e-03 0.0 
1.723230323009e-03 9.392228575435e-03 0.0 
1.652126718483e-03 9.951782209424e-03 0.0 
1.553254633579e-03 9.594718271061e-03 0.0 
1.602542679980e-03 9.013323381426e-03 0.0 
1.445469167336e-03 9.253613867213e-03 0.0 
1.381668110943e-03 9.789559927209e-03 0.0 
1.287856526685e-03 9.478543434138e-03 0.0 
1.332003521295e-03 8.918059483024e-03 0.0 
1.186470490426e-03 9.176717227704e-03 0.0 
1.213297294340e-03 8.589560565174e-03 0.0 
1.129479260892e-03 9.699284501199e-03 0.0 
1.041296960993e-03 9.423841459891e-03 0.0 
9.749488087467e-04 9.914111823144e-03 0.0 
8.993048332393e-04 9.660870219194e-03 0.0 
3.255235078464e-03 1.030666753694e-02 0.0 
8.292694442029e-04 1.011654181195e-02 0.0 
8.873427434082e-04 1.034007171734e-02 0.0 
7.634462654669e-04 9.887144081783e-03 0.0 
8.159268073003e-04 9.407119791793e-03 0.0 
6.924224889998e-04 1.030905249575e-02 0.0 
6.353165109554e-04 1.010186556774e-02 0.0 
5.663174243396e-04 1.049140643829e-02 0.0 
2.905519310402e-03 1.312218544530e-02 0.0 
3.303639228537e-03 1.034353104367e-02 0.0 
5.166017680264e-04 1.030507307461e-02 0.0 
4.525167248879e-04 1.066293119657e-02 0.0 
4.851261327678e-04 1.082598369649e-02 0.0 
3.793710358815e-04 1.096609421993e-02 0.0 
2.424041176647e-03 1.511158032963e-02 0.0 
2.324283088809e-03 1.301390528321e-02 0.0 
2.193280222243e-03 1.416618378182e-02 0.0 
2.060839807502e-03 1.201321564386e-02 0.0 
1.949949974640e-03 1.313425492306e-02 0.0 
3.514852593288e-04 1.082281915341e-02 0.0 
2.764043607972e-03 1.049857946602e-02 0.0 
2.139907040165e-03 1.086586110977e-02 0.0 
3.609380471359e-03 1.477937612104e-02 0.0 
3.444638207647e-03 1.405409779235e-02 0.0 
2.641273693914e-03 9.541596583850e-03 0.0 
5.693852534411e-04 9.891314638448e-03 0.0 
4.573118893453e-04 1.011449492615e-02 0.0 
4.959685441502e-04 9.675719197766e-03 0.0 
1.342906593641e-03 8.290503241792e-03 0.0 
1.208453624371e-03 7.937603306581e-03 0.0 
1.318167594260e-03 7.595098877992e-03 0.0 
1.170866104498e-03 7.218296710161e-03 0.0 
1.256835620782e-03 6.830635129368e-03 0.0 
1.100098157942e-03 6.429286079621e-03 0.0 
1.025887880638e-03 6.842283073546e-03 0.0 
9.486227164612e-04 6.026740871330e-03 0.0 
8.848416508841e-04 6.464122419777e-03 0.0 
1.158734799075e-03 5.995227370546e-03 0.0 
1.327604531515e-03 6.421943690019e-03 0.0 
8.039340009457e-04 5.621251577483e-03 0.0 
7.491875999857e-04 6.081073587825e-03 0.0 
6.673780216623e-04 5.209860214395e-03 0.0 
6.203350335120e-04 5.691502035648e-03 0.0 
6.812287704101e-04 6.520965555540e-03 0.0 
5.595084201390e-04 6.152711718503e-03 0.0 
6.030329474544e-04 6.941337432516e-03 0.0 
2.481642140245e-03 8.966001573441e-03 0.0 
2.595194149694e-03 8.705788508315e-03 0.0 
2.409140905906e-03 8.127722847192e-03 0.0 
2.480496783104e-03 7.799472788448e-03 0.0 
2.271520152797e-03 7.217959341943e-03 0.0 
2.296508471903e-03 6.821420102730e-03 0.0 
2.067908547811e-03 6.234745978076e-03 0.0 
2.056754153923e-03 6.663264157388e-03 0.0 
2.988903052371e-03 1.017247256432e-02 0.0 
2.385153849210e-03 1.164796741059e-02 0.0 
2.423962511315e-03 1.227569603153e-02 0.0 
2.173042213674e-03 1.222546843848e-02 0.0 
2.170814605759e-03 1.285701135644e-02 0.0 
1.900731921259e-03 1.274172714129e-02 0.0 
1.854015346547e-03 1.338006541045e-02 0.0 
1.569433382263e-03 1.320204241814e-02 0.0 
1.629395326653e-03 1.262135301690e-02 0.0 
1.288643845836e-03 1.302493013870e-02 0.0 
1.361599885437e-03 1.250369544195e-02 0.0 
1.018516113297e-03 1.285406029790e-02 0.0 
1.102649217158e-03 1.239502461802e-02 0.0 
3.440605796968e-03 1.061861252572e-02 0.0 
2.518760404837e-03 7.435291534056e-03 0.0 
2.284297595027e-03 6.385107094779e-03 0.0 
2.518792429639e-03 7.029388923519e-03 0.0 
3.947481144832e-04 1.110649022429e-02 0.0 
4.993667129467e-04 5.293527391994e-03 0.0 
1.197897386093e-03 5.537313140500e-03 0.0 
1.379631613594e-03 5.997387450354e-03 0.0 
1.837175173606e-03 5.670695130177e-03 0.0 
2.882458699723e-04 1.109484700664e-02 0.0 
1.476145988233e-03 1.384838126986e-02 0.0 
1.768887425016e-03 1.409071037713e-02 0.0 
1.791391821174e-03 1.092905059474e-02 0.0 
1.702582665021e-03 1.203381233862e-02 0.0 
1.213444314974e-03 5.054349167898e-03 0.0 
2.635464016376e-04 1.096993759431e-02 0.0 
8.420834011417e-04 5.139851872638e-03 0.0 
8.990933192517e-04 1.337460476624e-02 0.0 
4.441932919179e-04 5.775972111454e-03 0.0 
3.872792396429e-04 4.886614269462e-03 0.0 
9.397917158664e-04 7.234046930716e-03 0.0 
2.230419277804e-03 5.903856432256e-03 0.0 
2.481532475134e-03 6.594494925919e-03 0.0 
1.406264431309e-03 1.203603813683e-02 0.0 
1.158908852635e-03 1.198499183183e-02 0.0 
8.591983970856e-04 1.229750147082e-02 0.0 
9.352811112934e-04 1.192525879840e-02 0.0 
1.191623851758e-03 1.160936535450e-02 0.0 
9.736657735635e-04 1.161161805722e-02 0.0 
7.248499027820e-04 1.189002816480e-02 0.0 
7.743022151297e-04 1.161900793179e-02 0.0 
9.929369097981e-04 1.131802241089e-02 0.0 
8.047712633935e-04 1.136506402940e-02 0.0 
5.959875745108e-04 1.163351865257e-02 0.0 
6.363952763631e-04 1.141406198344e-02 0.0 
4.233990605093e-04 4.360903288382e-03 0.0 
6.335799610596e-04 1.315126412775e-02 0.0 
3.428005612987e-03 1.534988386208e-02 0.0 
1.028551845552e-03 4.577396841463e-03 0.0 
1.802527746413e-03 5.191155596285e-03 0.0 
1.521703173016e-03 9.782307568680e-03 0.0 
1.455586755969e-03 1.087639008662e-02 0.0 
1.591495670211e-03 1.313104080089e-02 0.0 
1.367209181175e-03 1.195856444661e-02 0.0 
1.213829632990e-03 9.669759308768e-03 0.0 
1.148033171852e-03 1.074793554819e-02 0.0 
1.263519036853e-03 1.302627174965e-02 0.0 
1.065350518196e-03 1.181158710199e-02 0.0 
1.150114625231e-03 1.407362384615e-02 0.0 
9.708546568666e-04 1.285767064008e-02 0.0 
8.750678659616e-04 1.056581483167e-02 0.0 
7.983154379831e-04 1.161689795290e-02 0.0 
8.685575914152e-04 1.388734858142e-02 0.0 
7.112162730984e-04 1.265288156072e-02 0.0 
7.611077161704e-04 1.489884618739e-02 0.0 
6.163321935972e-04 1.367304789260e-02 0.0 
5.629225584116e-04 1.139807904361e-02 0.0 
2.146122193310e-04 1.120237036746e-02 0.0 
1.840236237021e-03 6.130888753327e-03 0.0 
1.607770769218e-03 5.124069004407e-03 0.0 
3.925299276913e-04 9.917274047725e-03 0.0 
4.204531472912e-04 9.452833360466e-03 0.0 
5.230317033925e-04 9.177749198193e-03 0.0 
4.317003030494e-04 8.930460211563e-03 0.0 
4.780767959926e-04 1.243896226585e-02 0.0 
4.261168211988e-04 1.012717271329e-02 0.0 
1.345878921972e-03 1.456886077536e-02 0.0 
1.641244623068e-03 1.488133655470e-02 0.0 
1.558340766982e-03 8.680193100744e-03 0.0 
3.361946046405e-04 5.389572955591e-03 0.0 
3.776148432913e-04 6.237647874623e-03 0.0 
3.300713639310e-03 1.406402163294e-02 0.0 
3.265386035511e-03 1.508383453559e-02 0.0 
3.083233005267e-03 1.500370729794e-02 0.0 
2.985815381898e-03 1.607606581862e-02 0.0 
3.179622628259e-03 1.618446334517e-02 0.0 
2.766293217686e-03 1.590620011835e-02 0.0 
1.502049733460e-03 6.865993256372e-03 0.0 
6.964569171919e-04 9.295697029883e-03 0.0 
5.052686855590e-04 1.098754885418e-02 0.0 
3.955819548658e-04 1.124615823951e-02 0.0 
2.852985488483e-04 4.469007987689e-03 0.0 
2.013318116783e-03 7.059896370128e-03 0.0 
3.404139249218e-03 1.026465430278e-02 0.0 
3.260965907379e-03 9.350175452207e-03 0.0 
3.172234136302e-03 8.901528142635e-03 0.0 
2.990480720524e-03 8.015640864026e-03 0.0 
2.846319027256e-03 7.472617808510e-03 0.0 
2.626795181142e-03 6.614513756723e-03 0.0 
2.779702677109e-03 7.179085304816e-03 0.0 
2.129425233283e-03 5.366512099765e-03 0.0 
2.380922512791e-03 5.797134955714e-03 0.0 
5.240484831331e-04 1.469812222681e-02 0.0 
2.731507464481e-03 8.091325684035e-03 0.0 
9.927169086225e-04 1.104476766685e-02 0.0 
2.266293550165e-04 1.130453769813e-02 0.0 
4.365341958969e-04 1.165719767109e-02 0.0 
1.892139504350e-04 1.110188793049e-02 0.0 
2.279023293282e-04 1.083890828497e-02 0.0 
1.004872570851e-03 4.039260300879e-03 0.0 
2.423728248249e-03 5.977339604510e-03 0.0 
2.652868273511e-03 6.856471671752e-03 0.0 
2.836079819637e-03 1.723272351791e-02 0.0 
3.039804022570e-03 1.736471440195e-02 0.0 
1.862550418231e-03 4.701775551892e-03 0.0 
2.034094154008e-03 1.531818683698e-02 0.0 
1.332175548028e-03 1.526038145080e-02 0.0 
1.195929791818e-03 1.628525700009e-02 0.0 
1.501710905934e-04 1.132539904711e-02 0.0 
3.775098191601e-04 1.184813385032e-02 0.0 
9.827956269299e-04 8.425776451904e-03 0.0 
2.053428672223e-03 1.433389354865e-02 0.0 
1.931934580355e-03 1.518573477790e-02 0.0 
4.667066512415e-04 1.366961567004e-02 0.0 
2.117692438904e-04 1.339592177985e-02 0.0 
3.559019733487e-04 1.115364158541e-02 0.0 
3.068264322264e-04 8.836959377897e-03 0.0 
5.350909531703e-04 8.620276600700e-03 0.0 
4.355135568774e-04 8.345817668373e-03 0.0 
1.201024697839e-03 4.539631686940e-03 0.0 
4.896787220254e-04 1.146262967676e-02 0.0 
3.546988328146e-04 7.769556249350e-03 0.0 
1.810825119947e-03 6.556447529314e-03 0.0 
1.941885635972e-03 7.427079533319e-03 0.0 
3.309672796934e-04 9.226109758113e-03 0.0 
1.167618432218e-03 1.537392684744e-02 0.0 
8.706488899472e-04 1.499278165000e-02 0.0 
1.185410506142e-03 1.096125220832e-02 0.0 
6.562417033644e-04 1.120797056294e-02 0.0 
1.553620388319e-04 1.098793100161e-02 0.0 
9.484241956674e-04 3.468309608331e-03 0.0 
1.003644867224e-03 7.339494655725e-03 0.0 
2.545957623253e-03 6.389086530096e-03 0.0 
2.885207571367e-03 7.683677009933e-03 0.0 
2.115235376484e-03 5.022859453999e-03 0.0 
3.157498654008e-04 1.166641248352e-02 0.0 
8.202709480805e-04 3.538516607130e-03 0.0 
2.371715947531e-04 4.992618672786e-03 0.0 
2.192991367822e-03 5.341970160211e-03 0.0 
2.410608918987e-03 6.165674352021e-03 0.0 
2.326058458274e-03 1.456569362863e-02 0.0 
2.221488710128e-03 1.546954813470e-02 0.0 
1.764974681139e-03 1.612730220277e-02 0.0 
2.058945719337e-03 1.646773285980e-02 0.0 
3.173024591036e-03 1.612489415868e-02 0.0 
2.590002614830e-03 1.476850802313e-02 0.0 
3.507776945019e-03 1.571481057765e-02 0.0 
3.383400329611e-03 1.697877453811e-02 0.0 
3.412526497453e-03 1.724334707712e-02 0.0 
3.331681702869e-03 1.624423630760e-02 0.0 
3.200435640589e-03 1.745292767468e-02 0.0 
2.431129865886e-03 1.296808242338e-02 0.0 
2.768419295375e-03 9.321266313353e-03 0.0 
6.327558797290e-04 8.886946214368e-03 0.0 
7.224973645776e-04 7.278015096165e-03 0.0 
1.466023092782e-03 7.975330486399e-03 0.0 
7.411563699552e-04 8.226363496501e-03 0.0 
5.613302714470e-04 6.927039334774e-03 0.0 
9.107102119547e-04 1.610378663677e-02 0.0 
7.892231346683e-04 1.708854901061e-02 0.0 
2.991414781886e-04 1.133385871962e-02 0.0 
2.828278677581e-04 1.145239992991e-02 0.0 
1.091474606986e-03 8.263919653991e-03 0.0 
8.541817901569e-04 4.101392182564e-03 0.0 
1.271073425839e-03 7.489938660979e-03 0.0 
1.248818890151e-03 6.392026742100e-03 0.0 
1.558238990031e-03 7.572688633887e-03 0.0 
1.155629364242e-03 3.990555041871e-03 0.0 
2.148045137243e-03 1.165091007998e-02 0.0 
2.309777192509e-03 8.426476540228e-03 0.0 
3.904286782056e-04 1.295418198754e-02 0.0 
3.300208485966e-03 1.004926476893e-02 0.0 
2.040376738950e-04 1.150822762969e-02 0.0 
3.130755948469e-03 9.779943455229e-03 0.0 
1.949400790162e-04 4.040408714341e-03 0.0 
2.254990115416e-04 3.473496532113e-03 0.0 
1.701583366620e-03 4.092272641838e-03 0.0 
2.891516687021e-03 1.919691405667e-02 0.0 
3.139673243232e-03 9.242771640882e-03 0.0 
3.103374968585e-03 9.538851489854e-03 0.0 
3.235212687247e-03 1.854913889894e-02 0.0 
3.212615577961e-03 1.871362010170e-02 0.0 
3.391674193017e-03 1.740823455211e-02 0.0 
3.136582999065e-03 1.878876607331e-02 0.0 
1.154473346504e-03 1.067335630455e-02 0.0 
9.741126831407e-04 1.079142357668e-02 0.0 
1.884030983675e-03 4.368851108484e-03 0.0 
1.903815507256e-03 4.391404046663e-03 0.0 
1.905761474470e-03 4.601290565405e-03 0.0 
2.119382451482e-03 5.385508120120e-03 0.0 
1.416982566661e-03 3.425456612768e-03 0.0 
1.591529871609e-03 4.059234458834e-03 0.0 
1.820295588891e-04 1.070004568815e-02 0.0 
2.847903427207e-03 1.860671492125e-02 0.0 
7.661247819833e-04 6.059987617211e-03 0.0 
3.207115731602e-03 1.828509759511e-02 0.0 
6.548643580219e-04 3.065099692973e-03 0.0 
6.930050405506e-04 3.624646380852e-03 0.0 
-1.291909292162e-05 1.315801379437e-02 0.0 
1.787018683156e-04 1.274184475647e-02 0.0 
2.431197215077e-04 6.504779933808e-03 0.0 
1.549552393369e-03 1.714599331555e-02 0.0 
1.833954946929e-03 1.754417736683e-02 0.0 
1.253464344222e-03 1.670805316650e-02 0.0 
2.933358369124e-05 1.824731756897e-03 0.0 
2.092693576983e-04 2.107826861494e-02 0.0 
1.460616489036e-04 3.013549055875e-03 0.0 
3.447486089480e-03 1.624032988374e-02 0.0 
2.632695131675e-04 5.322280210298e-03 0.0 
2.958010311551e-03 8.492889763092e-03 0.0 
3.117427915535e-03 1.404037378487e-02 0.0 
1.407070971393e-03 5.044586696554e-03 0.0 
1.964541451538e-04 7.778314328256e-03 0.0 
1.463030444310e-04 5.122377612517e-03 0.0 
1.355795705204e-03 1.740691484392e-02 0.0 
1.209534994366e-03 1.844067422335e-02 0.0 
1.512990273107e-03 1.640981965513e-02 0.0 
7.505017740400e-04 1.396234842229e-02 0.0 
2.140233824467e-04 1.434971183308e-02 0.0 
5.329934381659e-04 8.004149290283e-03 0.0 
3.560501873672e-04 1.032459402189e-02 0.0 
2.918209867027e-04 1.010155827859e-02 0.0 
5.105892855982e-04 1.129742731591e-02 0.0 
6.538697628192e-04 1.102068420428e-02 0.0 
6.401216840310e-04 8.297497859529e-03 0.0 
7.454828283852e-04 8.583428225361e-03 0.0 
3.011980947437e-03 8.755917363513e-03 0.0 
2.792810161588e-03 8.112212075016e-03 0.0 
3.321387496595e-03 9.845682636460e-03 0.0 
1.753466789208e-03 6.951799784345e-03 0.0 
1.847272675586e-03 7.768011485852e-03 0.0 
2.020161997379e-03 8.222882908982e-03 0.0 
5.750211156031e-04 5.918354492157e-03 0.0 
3.841328580929e-04 4.392554273635e-03 0.0 
1.344507915087e-03 1.056102926849e-02 0.0 
1.389157197312e-03 1.088331761418e-02 0.0 
1.105980394897e-03 1.041260039918e-02 0.0 
7.400855876153e-04 5.010098999639e-03 0.0 
1.615382827043e-04 2.433269894563e-03 0.0 
2.404222927897e-04 2.924045758400e-03 0.0 
1.741958940682e-04 1.160257429233e-02 0.0 
2.516608121121e-04 1.157118369533e-02 0.0 
6.509482456271e-04 1.579953557305e-02 0.0 
3.474460823993e-04 1.536492690421e-02 0.0 
1.201226775048e-03 5.384870120392e-03 0.0 
1.518602256164e-03 6.486522811963e-03 0.0 
8.629446538875e-04 4.074071225418e-03 0.0 
1.101281043737e-04 1.088113613111e-02 0.0 
2.659052934643e-03 6.901208548043e-03 0.0 
8.782954143540e-04 2.922749796294e-03 0.0 
1.098492445932e-03 3.472141120818e-03 0.0 
6.373551379256e-04 2.243887469008e-03 0.0 
1.994495119032e-03 4.821788112039e-03 0.0 
1.510509740362e-03 3.491302333448e-03 0.0 
1.587069627569e-03 3.584519955041e-03 0.0 
-2.301282736924e-04 1.357542662578e-02 0.0 
1.096774131045e-04 6.121877633395e-03 0.0 
9.285656911533e-04 1.826471970243e-02 0.0 
-3.719900862196e-04 1.333615237324e-02 0.0 
7.975422717322e-04 1.929484868202e-02 0.0 
6.720471724431e-04 1.807021651742e-02 0.0 
6.874111974342e-04 2.029741833816e-02 0.0 
9.447787877824e-05 1.112270903631e-02 0.0 
1.514868469857e-03 1.887729230826e-02 0.0 
1.699605433258e-03 1.760073118607e-02 0.0 
1.027493985036e-04 1.172397763876e-02 0.0 
5.023125514037e-04 3.726953668496e-03 0.0 
1.203911013290e-04 1.162334442175e-02 0.0 
1.483606143951e-04 1.154921608126e-02 0.0 
5.000179821861e-04 2.548042426994e-03 0.0 
5.453521998305e-04 3.139226467618e-03 0.0 
3.620373621760e-04 2.048910983444e-03 0.0 
4.220141231791e-04 2.706814856625e-03 0.0 
5.681321757535e-04 3.726016313938e-03 0.0 
4.407702827983e-04 3.257761550460e-03 0.0 
1.074404226988e-03 1.959651542380e-02 0.0 
2.884424527110e-04 2.052978190881e-03 0.0 
3.256025324451e-04 2.758135297607e-03 0.0 
1.893564951005e-04 1.580037176002e-03 0.0 
2.898501205857e-03 2.015721409933e-02 0.0 
2.312539187926e-03 1.679417511986e-02 0.0 
2.088830874740e-03 1.794100600699e-02 0.0 
1.525982856103e-03 1.877009347877e-02 0.0 
1.443209727841e-03 3.415195770817e-03 0.0 
1.815478456675e-03 4.619783796410e-03 0.0 
1.476529614879e-04 4.564135076934e-03 0.0 
1.692204611572e-04 5.474741282933e-03 0.0 
5.526275475807e-04 1.919342284791e-02 0.0 
4.042086506931e-04 1.927732554452e-02 0.0 
4.442330655948e-04 1.733802540546e-02 0.0 
3.203050896542e-04 1.757277671476e-02 0.0 
3.469632412970e-04 1.562678230964e-02 0.0 
2.229665873327e-04 1.587485435600e-02 0.0 
2.665518134203e-04 1.388583727628e-02 0.0 
1.314521255639e-03 2.881098432460e-03 0.0 
9.557661686343e-04 1.771233935011e-02 0.0 
2.998426144522e-03 1.991886257853e-02 0.0 
1.130457077435e-03 2.776125843559e-03 0.0 
1.358522245276e-03 3.541605923207e-03 0.0 
3.014025258756e-03 1.872771318323e-02 0.0 
2.583146388660e-03 1.995417975888e-02 0.0 
5.433367650715e-04 2.286991636160e-03 0.0 
2.647472534206e-03 1.389064272698e-02 0.0 
3.811725495653e-04 2.369913691490e-03 0.0 
-9.721821430455e-04 1.483485439976e-02 0.0 
-3.921770133760e-04 1.447864676936e-02 0.0 
2.885502710710e-03 1.400850806384e-02 0.0 
3.320738189145e-03 1.747714250573e-02 0.0 
2.579719201436e-03 1.705279237997e-02 0.0 
2.400347274733e-03 1.822159984048e-02 0.0 
1.609021452744e-03 6.052952444028e-03 0.0 
1.978622817159e-04 1.169987096309e-02 0.0 
9.536914970459e-04 1.625198776412e-02 0.0 
3.888543169581e-04 1.366400933800e-02 0.0 
3.736205538612e-04 1.665198476799e-02 0.0 
7.745865229728e-05 4.984301798491e-03 0.0 
2.676229342839e-03 1.306130781205e-02 0.0 
3.522200474798e-03 1.507578906784e-02 0.0 
1.469883746483e-03 1.575027982334e-02 0.0 
2.516189627134e-03 1.570327894615e-02 0.0 
3.301363374235e-03 1.488059660079e-02 0.0 
2.996464012023e-03 1.738090613273e-02 0.0 
3.118226670665e-03 1.792484245011e-02 0.0 
2.661670941233e-03 1.231290477569e-02 0.0 
2.645631682977e-03 1.843791376339e-02 0.0 
2.125005102534e-03 1.953998687526e-02 0.0 
3.580600591240e-03 1.450526919607e-02 0.0 
1.870855561195e-03 8.689550119006e-03 0.0 
1.846381994343e-03 7.573649757409e-03 0.0 
1.443375308514e-03 5.473147000229e-03 0.0 
1.776111687469e-03 6.495303305021e-03 0.0 
2.169577018687e-03 8.602737313765e-03 0.0 
2.112222165174e-03 7.503261204378e-03 0.0 
1.659317825633e-03 5.469310033165e-03 0.0 
2.006509776783e-03 6.439571366655e-03 0.0 
1.373947766115e-03 4.048598911754e-03 0.0 
1.836618437308e-03 5.371188921320e-03 0.0 
2.339232275940e-03 7.389560431113e-03 0.0 
2.202251735742e-03 6.397335998781e-03 0.0 
1.702923927270e-03 4.629073966442e-03 0.0 
2.657672382567e-03 8.360230876077e-03 0.0 
9.057590606499e-04 2.112304345420e-03 0.0 
3.113282724328e-03 1.314369386225e-02 0.0 
-8.369253474328e-06 1.391585150180e-02 0.0 
-1.611011866160e-04 1.492758000304e-02 0.0 
3.589851115882e-03 1.496617221504e-02 0.0 
6.890640694783e-04 1.979120190180e-03 0.0 
5.902424562196e-04 2.026505212993e-03 0.0 
2.130855380666e-03 1.356039455101e-02 0.0 
7.319817187923e-04 1.609568430419e-03 0.0 
3.299739908550e-03 1.661728503913e-02 0.0 
1.181143813118e-03 1.361249266708e-02 0.0 
7.200196230453e-04 1.521775708770e-03 0.0 
2.177984770642e-03 9.723158991408e-03 0.0 
2.473209841227e-03 1.072170927720e-02 0.0 
2.419567727395e-03 1.186797373340e-02 0.0 
4.644943476001e-04 1.941776041048e-03 0.0 
1.670385176680e-03 1.536265682501e-02 0.0 
5.876372755115e-04 1.267249084042e-03 0.0 
2.679859425534e-03 8.414041427357e-03 0.0 
2.866223885023e-03 9.081498033603e-03 0.0 
2.923032710390e-03 9.988075362200e-03 0.0 
2.436142954829e-03 8.492446619834e-03 0.0 
4.893751998439e-04 1.221882244276e-03 0.0 
8.721022863906e-04 2.309370923958e-03 0.0 
8.051813060496e-04 2.266324381188e-03 0.0 
1.205725453637e-03 3.401765578928e-03 0.0 
4.146617523563e-04 1.171871828283e-03 0.0 
6.761500675578e-04 1.690509893920e-03 0.0 
6.592860363011e-04 1.561648913431e-03 0.0 
1.198149544289e-03 1.127338673671e-02 0.0 
1.417396235598e-03 1.123030307459e-02 0.0 
1.601239949655e-03 1.080523358707e-02 0.0 
1.643880304568e-03 1.119432074515e-02 0.0 
1.423839748455e-03 1.161444430666e-02 0.0 
1.664037924183e-03 1.162328195128e-02 0.0 
1.872007509736e-03 1.116285368924e-02 0.0 
1.659063404665e-03 1.209915434888e-02 0.0 
2.344463145457e-03 6.360494693062e-03 0.0 
3.340770480631e-04 1.095252614194e-03 0.0 
1.417156294283e-03 7.235784226778e-03 0.0 
1.578799488426e-03 7.654371193344e-03 0.0 
1.611539940830e-03 8.368404262193e-03 0.0 
7.267809914241e-04 9.148446521995e-03 0.0 
8.480903500693e-04 8.866487871329e-03 0.0 
8.582290094000e-04 8.264629841557e-03 0.0 
6.087391654689e-04 9.419284799834e-03 0.0 
3.086548572997e-03 8.491563276142e-03 0.0 
3.019920251938e-04 1.090473224872e-03 0.0 
2.128900753959e-03 7.914636660746e-03 0.0 
9.470856071447e-04 9.147041659795e-03 0.0 
1.931168210587e-03 2.068032330044e-02 0.0 
2.113481499069e-03 1.880248652800e-02 0.0 
2.331470998351e-03 1.852970193959e-02 0.0 
2.253192419201e-03 1.660156461719e-02 0.0 
1.882247593914e-03 1.875010548679e-02 0.0 
5.337993693815e-04 8.003332217738e-03 0.0 
4.278290710572e-04 7.701621356029e-03 0.0 
3.346567508932e-04 8.063597792840e-03 0.0 
3.231920638304e-04 7.391013776065e-03 0.0 
2.338402005953e-04 7.770054183601e-03 0.0 
2.423091530430e-04 8.393811819278e-03 0.0 
2.187696329720e-04 7.070338427440e-03 0.0 
1.352395715490e-04 7.546273600410e-03 0.0 
1.560048565908e-03 2.092967936725e-02 0.0 
-3.674231614667e-04 1.261940617832e-02 0.0 
-7.218842292070e-05 1.241445293349e-02 0.0 
-3.072180891739e-05 1.220758820650e-02 0.0 
1.658484552041e-04 1.220064483156e-02 0.0 
1.702047846518e-04 1.241213939358e-02 0.0 
4.393490637443e-04 1.213029484873e-02 0.0 
4.189119180643e-04 1.239903833994e-02 0.0 
-1.244551890610e-04 1.268492416855e-02 0.0 
-1.942665662751e-04 1.219316239456e-02 0.0 
1.083754842683e-05 1.204507369503e-02 0.0 
-1.267967740504e-04 1.204361658866e-02 0.0 
3.695763836266e-05 1.192041445419e-02 0.0 
2.163806891734e-04 1.185718471710e-02 0.0 
3.857883689084e-04 1.138024577954e-02 0.0 
8.289949143079e-05 1.225888581278e-03 0.0 
8.894268205223e-05 9.216265748727e-03 0.0 
1.694686786022e-04 9.472513783669e-03 0.0 
1.561181349216e-04 9.918289047198e-03 0.0 
2.508379409722e-04 9.688297213216e-03 0.0 
1.700749692884e-04 9.001389727780e-03 0.0 
7.437069026236e-05 1.013694080820e-02 0.0 
1.410250521370e-04 1.027638068174e-02 0.0 
3.521813832310e-05 1.158489702824e-02 0.0 
4.177117485063e-05 1.153708180167e-02 0.0 
1.739837999893e-05 1.153994430788e-02 0.0 
4.489048243859e-05 1.144676847502e-02 0.0 
7.235361505665e-05 1.145515701854e-02 0.0 
6.204459532405e-05 1.154309806716e-02 0.0 
7.914002876697e-05 1.155533353582e-02 0.0 
5.225564572833e-05 1.161156323961e-02 0.0 
9.269080659670e-05 1.157279169241e-02 0.0 
1.267253085186e-04 1.147089397063e-02 0.0 
5.306661559375e-05 1.163357069023e-02 0.0 
8.626639566235e-05 1.090608995071e-02 0.0 
1.652243778595e-04 9.756489919291e-03 0.0 
2.575873581082e-04 1.137448838551e-03 0.0 
1.222326479689e-03 2.086009511515e-02 0.0 
-2.539505013233e-05 1.183378263819e-02 0.0 
1.382988884619e-04 2.575003295253e-03 0.0 
2.163360822140e-04 2.130360355126e-03 0.0 
1.732443086498e-04 2.066637631631e-03 0.0 
4.849161583565e-05 2.970098589092e-03 0.0 
7.870066567504e-05 2.442751357409e-03 0.0 
7.398724145112e-05 2.504762728311e-03 0.0 
6.045460748325e-04 1.067534201757e-02 0.0 
1.322982882746e-03 4.501386660215e-03 0.0 
3.873961671870e-04 6.689117102020e-03 0.0 
1.047777238650e-03 1.425994957545e-02 0.0 
8.067794796355e-04 1.090770974344e-02 0.0 
2.687534874278e-04 5.863944199833e-03 0.0 
8.084060087813e-04 6.878906501503e-03 0.0 
3.184360909797e-04 3.931457057404e-03 0.0 
4.877974627670e-04 6.593784541180e-03 0.0 
5.401393530701e-04 4.789599500121e-03 0.0 
7.587369761147e-04 2.300305549761e-03 0.0 
1.300871931511e-04 1.121295444703e-02 0.0 
1.031448270922e-03 1.509892256863e-02 0.0 
6.564141759031e-04 1.590199325712e-02 0.0 
6.360223962487e-04 1.035395163523e-02 0.0 
4.089407501496e-04 1.049646873555e-02 0.0 
3.407017481028e-04 8.644312813089e-03 0.0 
3.014379364853e-04 1.121385705177e-02 0.0 
1.310243774425e-03 2.915268071326e-03 0.0 
3.536149801033e-03 1.599066933864e-02 0.0 
1.474801409434e-03 8.648642358846e-03 0.0 
6.894586569985e-04 9.655043218456e-03 0.0 
7.397978561886e-04 1.051103614744e-02 0.0 
8.155352356626e-04 1.112753346074e-02 0.0 
3.290454937405e-03 1.312514707630e-02 0.0 
1.080420783859e-03 8.874857509043e-03 0.0 
9.964008878199e-04 5.568872430595e-03 0.0 
4.870328908618e-04 9.071743996578e-03 0.0 
4.074906564876e-05 1.169888101575e-02 0.0 
1.024378129225e-03 5.086498896185e-03 0.0 
1.073659827756e-03 7.586505910922e-03 0.0 
1.466172112284e-03 1.421049002024e-02 0.0 
2.043253571765e-03 5.771575371687e-03 0.0 
5.431574834548e-04 1.185503384474e-02 0.0 
9.384111706710e-04 9.504826452746e-03 0.0 
9.670651033610e-04 5.300127435077e-03 0.0 
1.865535992150e-03 1.645929005259e-02 0.0 
2.197391916871e-04 1.141160556320e-02 0.0 
1.063633329049e-03 1.731712052223e-02 0.0 
7.538125805811e-04 2.942847008374e-03 0.0 
1.849818038657e-03 9.807861514948e-03 0.0 
3.125329602459e-04 1.067473727613e-02 0.0 
2.344641867674e-03 9.199971367714e-03 0.0 
3.550041855521e-03 1.398150720440e-02 0.0 
2.676414565533e-03 2.097580655744e-02 0.0 
4.046373869601e-04 5.688418499418e-03 0.0 
3.173002844264e-03 1.052359024817e-02 0.0 
1.557244460594e-03 4.599345533493e-03 0.0 
2.214009743332e-03 7.580786764846e-03 0.0 
2.648667720770e-04 1.051369861883e-02 0.0 
7.073288552717e-04 4.178863585330e-03 0.0 
2.784333146178e-03 1.015774269398e-02 0.0 
7.675983398502e-04 7.161452570688e-03 0.0 
3.035437285196e-03 8.381245861813e-03 0.0 
2.322149336242e-03 1.107552883631e-02 0.0 
1.256989453954e-03 8.583721785158e-03 0.0 
1.752874090649e-03 8.767325557622e-03 0.0 
1.975702994688e-03 5.260821812803e-03 0.0 
3.516815488118e-03 1.615568656722e-02 0.0 
3.511495839041e-03 1.123576121110e-02 0.0 
3.203965607702e-03 1.084663105145e-02 0.0 
3.431815916738e-03 1.090459175622e-02 0.0 
1.833108803760e-04 6.321628014447e-03 0.0 
8.602626213027e-04 4.634759983264e-03 0.0 
7.663936742015e-04 1.270479702185e-02 0.0 
2.858254892538e-03 1.490022870734e-02 0.0 
1.815590732599e-03 1.425218045756e-02 0.0 
2.182698234758e-03 5.191611879910e-03 0.0 
5.493563454317e-04 4.758164372421e-03 0.0 
3.413282523674e-03 1.510964986077e-02 0.0 
6.977312005147e-04 4.708617227868e-03 0.0 
1.001543801028e-03 6.320546776993e-03 0.0 
9.705634939581e-04 8.572187157978e-03 0.0 
4.551999535248e-05 1.109082197571e-02 0.0 
5.804207456501e-04 1.462171799595e-02 0.0 
1.916361892350e-03 1.216504112140e-02 0.0 
3.055862304134e-03 1.069210766346e-02 0.0 
9.684760394132e-04 7.935516145984e-03 0.0 
1.053389112569e-03 4.088174135594e-03 0.0 
5.640534650652e-04 4.270211684935e-03 0.0 
1.406546800776e-03 5.537452000159e-03 0.0 
-5.190820110135e-04 1.636867328665e-02 0.0 
2.977509833194e-03 1.959797380784e-02 0.0 
4.422308941153e-04 3.822482075926e-03 0.0 
2.187218368233e-03 8.698284456490e-03 0.0 
1.722055822361e-03 4.655339147441e-03 0.0 
1.467881224713e-04 8.141154634597e-03 0.0 
1.298797942429e-03 2.856198060979e-03 0.0 
2.777414263587e-03 2.005022406021e-02 0.0 
3.330767401742e-04 3.364462354448e-03 0.0 
1.624546996848e-03 5.602595594228e-03 0.0 
2.398691256800e-03 1.372879207303e-02 0.0 
3.467591447659e-04 2.108204260374e-02 0.0 
2.102231928180e-04 2.114521914609e-03 0.0 
1.372290560672e-03 4.519081295916e-03 0.0 
3.303185981990e-03 9.732789169147e-03 0.0 
2.044570000876e-03 8.946255491687e-03 0.0 
2.676508362204e-03 2.154918340740e-02 0.0 
8.449424935567e-04 7.605666105916e-03 0.0 
3.432300163558e-03 1.083714804256e-02 0.0 
4.046077879056e-04 1.914020408290e-03 0.0 
1.325642233604e-03 4.045853313757e-03 0.0 
2.683801582551e-03 1.282746862704e-02 0.0 
7.443867722749e-04 7.961066425029e-03 0.0 
2.751086920584e-03 7.758073117529e-03 0.0 
9.981718785992e-05 1.146239795269e-02 0.0 
2.976891622028e-03 2.008672674936e-02 0.0 
6.302736860909e-04 7.649273685503e-03 0.0 
1.905721732662e-03 1.164105620275e-02 0.0 
1.893159824451e-03 8.505380676218e-03 0.0 
1.222350588935e-03 2.820494229135e-03 0.0 
5.180477958135e-04 7.329368943481e-03 0.0 
2.099709363932e-03 1.112272294194e-02 0.0 
4.084427908709e-04 7.001153887215e-03 0.0 
2.461365942791e-03 2.158822685931e-02 0.0 
2.745919015833e-03 1.162474132968e-02 0.0 
2.983791767965e-04 6.662942898442e-03 0.0 
3.190229673766e-03 9.340792737336e-03 0.0 
1.538031351364e-04 1.148212766608e-02 0.0 
3.136247021927e-03 8.904503652797e-03 0.0 
1.144055762279e-04 3.531778902337e-03 0.0 
1.044276270531e-03 1.016202808692e-02 0.0 
1.738274884565e-03 8.083024373258e-03 0.0 
2.478387435625e-03 9.588886643851e-03 0.0 
2.072142001790e-03 2.132613491278e-02 0.0 
1.676759220386e-03 7.318367897043e-03 0.0 
2.852415654853e-03 7.789878920510e-03 0.0 
2.945166664925e-03 8.123632616508e-03 0.0 
3.030810599754e-03 9.783959924652e-03 0.0 
1.566245054015e-03 6.469440660127e-03 0.0 
2.399449451114e-03 1.971482213160e-02 0.0 
6.282095332079e-04 1.085864727951e-02 0.0 
5.138649660632e-04 1.114102691091e-02 0.0 
2.028891966393e-03 1.064192386259e-02 0.0 
2.619488414264e-03 7.110178365532e-03 0.0 
8.059539018676e-05 1.132941103101e-02 0.0 
2.730897813179e-03 9.382480241434e-03 0.0 
3.580006240658e-04 1.152188045123e-02 0.0 
1.815859629419e-03 1.072681565871e-02 0.0 
2.388480703111e-03 6.065294734605e-03 0.0 
1.012398477342e-04 1.532001639097e-02 0.0 
1.741606005761e-03 1.032409636560e-02 0.0 
5.366426584267e-05 1.082454860936e-02 0.0 
1.541814310200e-03 1.044678619978e-02 0.0 
2.928924793008e-03 8.801704610067e-03 0.0 
1.468611679356e-03 1.010620296504e-02 0.0 
1.284797557794e-03 1.026028555628e-02 0.0 
2.707939952801e-04 4.365077664692e-03 0.0 
1.212615193880e-03 9.973397182897e-03 0.0 
3.627362035868e-05 2.076453200506e-03 0.0 
3.443781823064e-05 1.114629804630e-03 0.0 
1.308848494833e-04 1.952631916229e-02 0.0 
1.513665396317e-03 2.093479229987e-02 0.0 
-7.291438162702e-04 1.371463176171e-02 0.0 
1.927095745676e-03 1.894729612896e-02 0.0 
9.375208523181e-04 1.056186710527e-02 0.0 
2.917452916393e-03 9.130991194605e-03 0.0 
2.720682310402e-04 1.943302532095e-02 0.0 
7.777249136232e-04 1.070874880631e-02 0.0 
1.272199310610e-03 3.440977285725e-03 0.0 
6.348616149799e-04 1.330728549007e-03 0.0 
1.852488172331e-04 1.192255222006e-02 0.0 
1.489637082646e-03 4.123868070864e-03 0.0 
2.722435855767e-03 7.336637755927e-03 0.0 
5.416449268640e-05 6.360412622121e-03 0.0 
7.942069488475e-04 2.124393087664e-02 0.0 
6.059141625826e-05 1.182097416990e-02 0.0 
8.816968091552e-05 5.879295301394e-03 0.0 
9.716626537507e-04 2.003736379138e-02 0.0 
1.223318851449e-03 1.823441917353e-02 0.0 
6.449155845426e-04 1.719380522858e-02 0.0 
2.057917648276e-04 1.038019121029e-02 0.0 
1.720052025474e-04 1.202618715060e-02 0.0 
5.605208923526e-04 1.881681229206e-02 0.0 
9.565198489518e-04 2.427207577804e-03 0.0 
1.341164265443e-03 1.934879385655e-02 0.0 
2.298156392949e-03 5.644713850957e-03 0.0 
9.140913850156e-06 1.760809205079e-02 0.0 
6.994359025822e-04 4.119754337150e-03 0.0 
1.215861558024e-03 2.691468743376e-03 0.0 
1.782876818891e-04 9.919089829722e-04 0.0 
1.813207707939e-03 4.226200217709e-03 0.0 
6.830738459745e-05 1.611676767722e-02 0.0 
2.040266845970e-03 1.720935114492e-02 0.0 
1.313377522538e-03 2.984590492113e-03 0.0 
2.530928202751e-04 1.008844068202e-02 0.0 
1.271753175102e-04 9.461135409282e-04 0.0 
1.684431510581e-03 1.941385764114e-02 0.0 
1.630835428123e-04 4.077501127536e-03 0.0 
5.462155245460e-04 1.257873934847e-02 0.0 
8.179825858677e-05 3.958906733285e-03 0.0 
2.520315660968e-03 7.321069492350e-03 0.0 
5.606912182089e-04 1.688930901656e-02 0.0 
2.462908055689e-03 1.687889205590e-02 0.0 
9.513342042507e-05 1.925951501726e-03 0.0 
1.168206438351e-03 3.653285125138e-03 0.0 
-2.147411088237e-04 1.552433750409e-02 0.0 
2.907746575394e-04 1.215306676569e-02 0.0 
3.384459818728e-04 9.688329430979e-03 0.0 
-2.496848091083e-04 1.301498759314e-02 0.0 
4.483572665032e-04 2.074285303765e-03 0.0 
2.038512140105e-03 5.526566513114e-03 0.0 
1.596435898189e-04 1.968742737056e-03 0.0 
1.911186967846e-05 1.145394601801e-02 0.0 
8.316288954262e-05 1.169068633898e-02 0.0 
5.102534471125e-04 1.950060305835e-03 0.0 
1.233945951096e-03 2.999007402328e-03 0.0 
6.837396789676e-04 1.214352729065e-02 0.0 
2.343519246771e-04 1.658552555630e-03 0.0 
-6.022001328744e-04 1.511886188330e-02 0.0 
1.071420037938e-03 2.144447104655e-02 0.0 
9.652089784600e-05 1.160066944962e-02 0.0 
1.010755501424e-04 9.537963794062e-04 0.0 
4.055890341931e-04 3.886119331901e-03 0.0 
2.387548168901e-04 9.242878560998e-03 0.0 
2.343688663988e-03 2.000698498516e-02 0.0 
1.230238546309e-04 1.061100063035e-02 0.0 
1.720541061593e-03 3.910171507618e-03 0.0 
1.702257819068e-04 1.179244984250e-02 0.0 
2.722345771727e-04 3.680185867007e-03 0.0 
6.045642390278e-04 1.945475333634e-03 0.0 
8.408781451337e-04 3.509563128052e-03 0.0 
4.106511715383e-04 9.358518559725e-04 0.0 
-4.443068385347e-04 1.397994899173e-02 0.0 
1.087777638305e-03 2.364965760142e-03 0.0 
1.042720850810e-03 3.092096035722e-03 0.0 
6.005138139848e-04 2.132801478401e-02 0.0 
1.040140642509e-03 3.666253374685e-03 0.0 
2.165650993164e-04 1.006300602060e-02 0.0 
1.759404262145e-04 1.135875115511e-02 0.0 
1.556206278436e-05 1.840081474039e-03 0.0 
8.805201726447e-06 1.157823411471e-02 0.0 
1.018011760431e-04 2.131064564392e-02 0.0 
1.370586891968e-05 9.089279461610e-04 0.0 
1.060561193972e-04 1.136453157232e-02 0.0 
2.165495951452e-04 1.798958461257e-02 0.0 
1.168848462512e-03 2.967456553842e-03 0.0 
6.368196887106e-05 8.032650198690e-03 0.0 
1.256546568822e-04 7.910366596207e-03 0.0 
3.385409165041e-04 1.200338029373e-02 0.0 
-6.623194193057e-04 1.326415536482e-02 0.0 
1.757114693099e-04 1.421770429006e-02 0.0 
1.054469816002e-03 2.360282917946e-03 0.0 
6.551143692653e-04 3.422756828106e-03 0.0 
4.517248516251e-04 1.570605797708e-02 0.0 
1.949416885487e-04 1.495105661972e-02 0.0 
1.607447295621e-03 4.155339265795e-03 0.0 
2.559532597242e-04 8.832545556281e-03 0.0 
1.739648951957e-03 4.060305031434e-03 0.0 
1.199658091528e-03 3.217358215355e-03 0.0 
-1.024589318065e-03 1.537710071635e-02 0.0 
5.720197932525e-05 7.369192084073e-03 0.0 
9.252305785099e-05 1.163074921808e-02 0.0 
2.940684010451e-04 1.823315707867e-03 0.0 
1.698225904592e-04 8.570541735076e-03 0.0 
2.151030903688e-03 2.277879183913e-02 0.0 
7.213563468792e-05 2.376923682832e-02 0.0 

TENSORS node_materi_stress float
-2.540412298073e+00 1.547801507235e-02 0.0 
1.547801507235e-02 -8.544137001062e+00 0.0 
0.0 0.0 -3.243618064820e+00 
-2.351416882890e+01 4.234466460907e-01 0.0 
4.234466460907e-01 -2.030458002089e+01 0.0 
0.0 0.0 -1.274562465494e+01 
-1.622179435776e+02 2.258189477764e-02 0.0 
2.258189477764e-02 -3.820152940586e+02 0.0 
0.0 0.0 -1.628699712909e+02 
-9.134702374774e+01 8.754909990771e-01 0.0 
8.754909990771e-01 -2.115934898953e+02 0.0 
0.0 0.0 -9.048215409293e+01 
-7.022154596738e+00 -2.982805860563e-01 0.0 
-2.982805860563e-01 -2.078634190716e+01 0.0 
0.0 0.0 -8.154717801221e+00 
-1.408385869261e+01 -6.630529370106e-01 0.0 
-6.630529370106e-01 -4.044735510644e+01 0.0 
0.0 0.0 -1.595936413972e+01 
-2.071025497326e+01 -5.370695079208e-01 0.0 
-5.370695079208e-01 -5.873962882890e+01 0.0 
0.0 0.0 -2.343496514065e+01 
-2.842958207812e+01 -5.090961029425e-01 0.0 
-5.090961029425e-01 -7.971279684086e+01 0.0 
0.0 0.0 -3.204271367569e+01 
-3.561952804806e+01 -3.860126852774e-01 0.0 
-3.860126852774e-01 -9.984149705285e+01 0.0 
0.0 0.0 -4.023830753027e+01 
-4.300344536094e+01 -3.632252892976e-01 0.0 
-3.632252892976e-01 -1.196847095049e+02 0.0 
0.0 0.0 -4.840644645976e+01 
-5.034607192157e+01 -3.862237725651e-01 0.0 
-3.862237725651e-01 -1.395083479971e+02 0.0 
0.0 0.0 -5.655632597561e+01 
-5.772613540536e+01 -3.322676487856e-01 0.0 
-3.322676487856e-01 -1.592811355424e+02 0.0 
0.0 0.0 -6.470218128434e+01 
-6.531392444815e+01 -3.052799069896e-01 0.0 
-3.052799069896e-01 -1.790026234274e+02 0.0 
0.0 0.0 -7.289496436268e+01 
-7.306833786646e+01 -3.468632641874e-01 0.0 
-3.468632641874e-01 -1.988481033247e+02 0.0 
0.0 0.0 -8.117493235734e+01 
-8.120974947528e+01 -4.792748579983e-01 0.0 
-4.792748579983e-01 -2.190991084268e+02 0.0 
0.0 0.0 -8.969265737063e+01 
-8.971213158729e+01 -4.791207870886e-01 0.0 
-4.791207870886e-01 -2.386082549630e+02 0.0 
0.0 0.0 -9.809611596509e+01 
-9.775020486158e+01 -5.886543558590e-01 0.0 
-5.886543558590e-01 -2.563247049714e+02 0.0 
0.0 0.0 -1.058224729499e+02 
-1.065612029635e+02 -1.280633505159e-01 0.0 
-1.280633505159e-01 -2.756990128009e+02 0.0 
0.0 0.0 -1.142780647293e+02 
-1.160273334198e+02 -7.605813690219e-02 0.0 
-7.605813690219e-02 -2.954594683350e+02 0.0 
0.0 0.0 -1.230460405264e+02 
-1.255390956392e+02 -4.484084570035e-02 0.0 
-4.484084570035e-02 -3.145275788345e+02 0.0 
0.0 0.0 -1.316200023421e+02 
-1.353850968656e+02 7.265492070241e-03 0.0 
7.265492070241e-03 -3.336308618499e+02 0.0 
0.0 0.0 -1.403047876147e+02 
-1.456209310128e+02 1.976984448084e-04 0.0 
1.976984448084e-04 -3.527838962236e+02 0.0 
0.0 0.0 -1.491214481709e+02 
-1.556172480127e+02 -6.188938463709e-02 0.0 
-6.188938463709e-02 -3.709565586391e+02 0.0 
0.0 0.0 -1.575721419955e+02 
-9.162877600884e+01 1.291288314050e+00 0.0 
1.291288314050e+00 -2.128255384952e+02 0.0 
0.0 0.0 -9.093629435121e+01 
-9.112547828174e+01 2.327718876705e+00 0.0 
2.327718876705e+00 -2.118503164897e+02 0.0 
0.0 0.0 -9.049273843142e+01 
-9.135296710018e+01 3.718879734500e+00 0.0 
3.718879734500e+00 -2.122765984547e+02 0.0 
0.0 0.0 -9.068886966646e+01 
-9.140149883320e+01 4.559095646053e+00 0.0 
4.559095646053e+00 -2.125515029390e+02 0.0 
0.0 0.0 -9.078590053165e+01 
-9.157494027255e+01 5.954066328788e+00 0.0 
5.954066328788e+00 -2.123357675577e+02 0.0 
0.0 0.0 -9.077321234909e+01 
-9.209858796327e+01 7.376939590622e+00 0.0 
7.376939590622e+00 -2.135453818830e+02 0.0 
0.0 0.0 -9.129319095388e+01 
-9.296231182677e+01 8.969520087432e+00 0.0 
8.969520087432e+00 -2.147645727330e+02 0.0 
0.0 0.0 -9.191806536792e+01 
-9.317882113278e+01 1.078828641220e+01 0.0 
1.078828641220e+01 -2.156014991300e+02 0.0 
0.0 0.0 -9.223409607883e+01 
-9.435721995890e+01 1.273684341015e+01 0.0 
1.273684341015e+01 -2.179350274343e+02 0.0 
0.0 0.0 -9.328767421797e+01 
-9.497598195758e+01 1.439844318370e+01 0.0 
1.439844318370e+01 -2.197964010447e+02 0.0 
0.0 0.0 -9.403171490068e+01 
-9.615761741954e+01 1.653445100634e+01 0.0 
1.653445100634e+01 -2.215584206198e+02 0.0 
0.0 0.0 -9.491481141181e+01 
-9.756805596501e+01 1.877866859808e+01 0.0 
1.877866859808e+01 -2.251716999491e+02 0.0 
0.0 0.0 -9.642192677422e+01 
-9.973170363711e+01 2.104978605208e+01 0.0 
2.104978605208e+01 -2.295627928127e+02 0.0 
0.0 0.0 -9.838834893493e+01 
-1.010317713578e+02 2.325802209046e+01 0.0 
2.325802209046e+01 -2.334250872439e+02 0.0 
0.0 0.0 -9.993705758051e+01 
-1.033180552400e+02 2.541046678384e+01 0.0 
2.541046678384e+01 -2.381802321888e+02 0.0 
0.0 0.0 -1.020494862286e+02 
-1.050483018992e+02 2.723885894952e+01 0.0 
2.723885894952e+01 -2.431638434101e+02 0.0 
0.0 0.0 -1.040636435928e+02 
-1.077919208540e+02 2.911623314510e+01 0.0 
2.911623314510e+01 -2.495564173542e+02 0.0 
0.0 0.0 -1.068045014625e+02 
-1.112193147273e+02 3.078868488201e+01 0.0 
3.078868488201e+01 -2.576121287898e+02 0.0 
0.0 0.0 -1.102494330551e+02 
-1.141867212995e+02 3.212343827775e+01 0.0 
3.212343827775e+01 -2.654912634159e+02 0.0 
0.0 0.0 -1.135033954146e+02 
-1.173073669221e+02 3.311609693014e+01 0.0 
3.311609693014e+01 -2.736132474873e+02 0.0 
0.0 0.0 -1.168761843228e+02 
-1.202467768563e+02 3.359789345825e+01 0.0 
3.359789345825e+01 -2.814455187491e+02 0.0 
0.0 0.0 -1.201076886816e+02 
-1.235456411712e+02 3.392567626649e+01 0.0 
3.392567626649e+01 -2.892723316119e+02 0.0 
0.0 0.0 -1.234453918349e+02 
-1.265694541980e+02 3.381114109491e+01 0.0 
3.381114109491e+01 -2.971620669178e+02 0.0 
0.0 0.0 -1.267194563347e+02 
-1.296349226218e+02 3.341454480813e+01 0.0 
3.341454480813e+01 -3.048232927222e+02 0.0 
0.0 0.0 -1.299374646032e+02 
-1.327507118562e+02 3.274815137451e+01 0.0 
3.274815137451e+01 -3.124784514746e+02 0.0 
0.0 0.0 -1.331687489992e+02 
-1.358294798874e+02 3.191857661420e+01 0.0 
3.191857661420e+01 -3.198667548577e+02 0.0 
0.0 0.0 -1.363088704235e+02 
-1.385338817282e+02 3.079771960085e+01 0.0 
3.079771960085e+01 -3.267094825688e+02 0.0 
0.0 0.0 -1.391730092891e+02 
-1.411628132535e+02 2.951579688470e+01 0.0 
2.951579688470e+01 -3.330482169297e+02 0.0 
0.0 0.0 -1.418633090550e+02 
-1.434459226533e+02 2.805431941292e+01 0.0 
2.805431941292e+01 -3.387370021485e+02 0.0 
0.0 0.0 -1.442548774406e+02 
-1.462307616659e+02 2.674100015269e+01 0.0 
2.674100015269e+01 -3.447024597964e+02 0.0 
0.0 0.0 -1.468799664387e+02 
-1.478870349143e+02 2.481926603528e+01 0.0 
2.481926603528e+01 -3.495283551448e+02 0.0 
0.0 0.0 -1.488246170177e+02 
-1.493976649117e+02 2.326821583999e+01 0.0 
2.326821583999e+01 -3.531437242899e+02 0.0 
0.0 0.0 -1.503624167605e+02 
-1.513027699269e+02 2.151951558357e+01 0.0 
2.151951558357e+01 -3.574569316220e+02 0.0 
0.0 0.0 -1.522279104646e+02 
-1.529987791063e+02 1.990689155225e+01 0.0 
1.990689155225e+01 -3.613312038080e+02 0.0 
0.0 0.0 -1.538989948743e+02 
-1.544908137769e+02 1.825804215154e+01 0.0 
1.825804215154e+01 -3.647762644187e+02 0.0 
0.0 0.0 -1.553801234587e+02 
-1.558497605530e+02 1.666487548150e+01 0.0 
1.666487548150e+01 -3.677683589638e+02 0.0 
0.0 0.0 -1.566854358551e+02 
-1.569629210062e+02 1.510194732569e+01 0.0 
1.510194732569e+01 -3.703676362073e+02 0.0 
0.0 0.0 -1.577991671641e+02 
-1.578521622764e+02 1.355195181950e+01 0.0 
1.355195181950e+01 -3.723909895906e+02 0.0 
0.0 0.0 -1.586729455601e+02 
-1.585675230585e+02 1.215493366991e+01 0.0 
1.215493366991e+01 -3.740326467340e+02 0.0 
0.0 0.0 -1.593800509378e+02 
-1.590944997341e+02 1.070035077804e+01 0.0 
1.070035077804e+01 -3.753290472985e+02 0.0 
0.0 0.0 -1.599270641098e+02 
-1.600025627692e+02 9.527654320049e+00 0.0 
9.527654320049e+00 -3.770645309787e+02 0.0 
0.0 0.0 -1.607201281244e+02 
-1.610298046708e+02 8.195510398448e+00 0.0 
8.195510398448e+00 -3.790849110534e+02 0.0 
0.0 0.0 -1.616344147173e+02 
-1.615758069046e+02 7.154480604910e+00 0.0 
7.154480604910e+00 -3.802428393419e+02 0.0 
0.0 0.0 -1.621455938739e+02 
-1.605441632504e+02 5.890497793297e+00 0.0 
5.890497793297e+00 -3.787760872584e+02 0.0 
0.0 0.0 -1.613960751526e+02 
-1.621103008724e+02 4.725462846725e+00 0.0 
4.725462846725e+00 -3.813798270456e+02 0.0 
0.0 0.0 -1.626470383754e+02 
-1.618788900181e+02 3.758308312011e+00 0.0 
3.758308312011e+00 -3.811087142227e+02 0.0 
0.0 0.0 -1.624962812722e+02 
-1.624086510354e+02 3.024939514547e+00 0.0 
3.024939514547e+00 -3.820085363843e+02 0.0 
0.0 0.0 -1.629251562259e+02 
-1.628037974731e+02 1.836915320748e+00 0.0 
1.836915320748e+00 -3.828715903413e+02 0.0 
0.0 0.0 -1.633026163443e+02 
-1.627894339719e+02 1.067424257741e+00 0.0 
1.067424257741e+00 -3.829227151508e+02 0.0 
0.0 0.0 -1.633136447368e+02 
-3.177480662213e+01 2.866656512766e-01 0.0 
2.866656512766e-01 -4.007818788020e+01 0.0 
0.0 0.0 -2.115589835070e+01 
-3.965000504428e+01 3.671450339682e-01 0.0 
3.671450339682e-01 -5.977778181589e+01 0.0 
0.0 0.0 -2.942833605805e+01 
-4.749449213867e+01 3.986723810234e-01 0.0 
3.986723810234e-01 -7.940032705536e+01 0.0 
0.0 0.0 -3.766844575821e+01 
-5.488539021112e+01 4.784046997499e-01 0.0 
4.784046997499e-01 -9.873227667367e+01 0.0 
0.0 0.0 -4.568530006544e+01 
-6.216209696501e+01 4.855268268793e-01 0.0 
4.855268268793e-01 -1.186352243870e+02 0.0 
0.0 0.0 -5.383919640560e+01 
-6.941442412753e+01 5.833715723751e-01 0.0 
5.833715723751e-01 -1.387911427684e+02 0.0 
0.0 0.0 -6.206167006879e+01 
-7.598585221429e+01 5.868180844628e-01 0.0 
5.868180844628e-01 -1.588376115983e+02 0.0 
0.0 0.0 -7.004703914379e+01 
-8.211840833016e+01 7.217475975264e-01 0.0 
7.217475975264e-01 -1.788151994847e+02 0.0 
0.0 0.0 -7.788008234447e+01 
-8.856249777241e+01 7.955328136743e-01 0.0 
7.955328136743e-01 -1.996516138292e+02 0.0 
0.0 0.0 -8.606423348048e+01 
-1.705134614725e+01 5.138232337855e+00 0.0 
5.138232337855e+00 -6.947200298278e+00 0.0 
0.0 0.0 -7.182018833603e+00 
-3.526871637864e+01 6.781285010292e+00 0.0 
6.781285010292e+00 -2.392820161665e+01 0.0 
0.0 0.0 -1.735907539859e+01 
-2.164349398649e+01 1.274469723111e+01 0.0 
1.274469723111e+01 -1.470836118046e+01 0.0 
0.0 0.0 -1.054141588889e+01 
-2.511479556321e+01 1.606417102167e+01 0.0 
1.606417102167e+01 -1.879197990522e+01 0.0 
0.0 0.0 -1.277203264053e+01 
-2.674292442477e+01 1.760496107711e+01 0.0 
1.760496107711e+01 -2.025703067229e+01 0.0 
0.0 0.0 -1.369998652912e+01 
-2.684992596862e+01 1.807894858928e+01 0.0 
1.807894858928e+01 -2.000314916854e+01 0.0 
0.0 0.0 -1.365592254115e+01 
-2.712406736111e+01 1.828931747664e+01 0.0 
1.828931747664e+01 -2.072156512479e+01 0.0 
0.0 0.0 -1.395368974577e+01 
-2.738413480776e+01 1.843233813234e+01 0.0 
1.843233813234e+01 -2.123240943188e+01 0.0 
0.0 0.0 -1.418496327189e+01 
-2.774562193830e+01 1.854465407008e+01 0.0 
1.854465407008e+01 -2.166029576943e+01 0.0 
0.0 0.0 -1.442177531232e+01 
-2.973563139845e+01 1.866066602158e+01 0.0 
1.866066602158e+01 -2.173455887744e+01 0.0 
0.0 0.0 -1.504105708276e+01 
-3.703638080621e+01 1.361992729767e+01 0.0 
1.361992729767e+01 -1.869161749831e+01 0.0 
0.0 0.0 -1.631839949135e+01 
-1.854759151921e+01 5.201399262377e-01 0.0 
5.201399262377e-01 -7.075901742165e+00 0.0 
0.0 0.0 -7.287047978413e+00 
-2.255818927861e+01 -1.594868584258e-01 0.0 
-1.594868584258e-01 -1.758294196693e+01 0.0 
0.0 0.0 -1.164233937366e+01 
-2.295796410036e+01 4.013228819632e-02 0.0 
4.013228819632e-02 -1.871297025325e+01 0.0 
0.0 0.0 -1.210128030608e+01 
-2.287394251600e+01 -1.992830814730e-02 0.0 
-1.992830814730e-02 -1.876391770757e+01 0.0 
0.0 0.0 -1.209135806707e+01 
-2.282169124746e+01 -1.630935579848e-02 0.0 
-1.630935579848e-02 -1.853375543438e+01 0.0 
0.0 0.0 -1.200663400455e+01 
-2.412457725720e+01 -7.879919880109e-02 0.0 
-7.879919880109e-02 -2.118058334871e+01 0.0 
0.0 0.0 -1.319154818177e+01 
-2.306741529763e+01 -1.539871181713e-01 0.0 
-1.539871181713e-01 -1.884474400880e+01 0.0 
0.0 0.0 -1.217364779193e+01 
-2.315506881018e+01 -1.266471629772e-01 0.0 
-1.266471629772e-01 -1.865755973194e+01 0.0 
0.0 0.0 -1.214378856263e+01 
-2.324650627126e+01 -2.117650556910e-01 0.0 
-2.117650556910e-01 -1.885460079544e+01 0.0 
0.0 0.0 -1.223033212001e+01 
-2.358225578607e+01 -1.320830884040e-01 0.0 
-1.320830884040e-01 -1.932789068674e+01 0.0 
0.0 0.0 -1.247304394184e+01 
-2.383895027265e+01 -8.870831306531e-02 0.0 
-8.870831306531e-02 -1.928592636316e+01 0.0 
0.0 0.0 -1.253746299074e+01 
-2.440426120821e+01 1.851469287053e-01 0.0 
1.851469287053e-01 -1.930729552708e+01 0.0 
0.0 0.0 -1.271346702059e+01 
-2.530451137581e+01 6.425378000215e-01 0.0 
6.425378000215e-01 -1.945736453574e+01 0.0 
0.0 0.0 -1.302856277346e+01 
-2.699690614620e+01 1.464113365293e+00 0.0 
1.464113365293e+00 -1.997328751625e+01 0.0 
0.0 0.0 -1.369105809874e+01 
-2.964942397302e+01 3.095666653033e+00 0.0 
3.095666653033e+00 -2.100867737029e+01 0.0 
0.0 0.0 -1.479743040299e+01 
-1.893782877501e+01 2.021869360214e+00 0.0 
2.021869360214e+00 -6.331860195651e+00 0.0 
0.0 0.0 -7.494806532815e+00 
-2.122307345080e+01 3.744888654603e-01 0.0 
3.744888654603e-01 -7.194717155338e+00 0.0 
0.0 0.0 -8.442207909438e+00 
-2.144477936665e+01 -5.175669647241e-01 0.0 
-5.175669647241e-01 -6.975713233061e+00 0.0 
0.0 0.0 -8.426566287660e+00 
-2.023670544901e+01 -5.535243010355e-01 0.0 
-5.535243010355e-01 -7.027970373953e+00 0.0 
0.0 0.0 -8.079544862623e+00 
-1.832895454627e+01 -6.914283234610e-01 0.0 
-6.914283234610e-01 -8.037004309755e+00 0.0 
0.0 0.0 -7.832566111858e+00 
-1.666005315434e+01 -8.493640662317e-01 0.0 
-8.493640662317e-01 -8.457593138277e+00 0.0 
0.0 0.0 -7.462277234696e+00 
-1.489984906964e+01 -8.569361518167e-01 0.0 
-8.569361518167e-01 -8.399926720085e+00 0.0 
0.0 0.0 -6.915424797878e+00 
-1.314754609875e+01 -8.015996656020e-01 0.0 
-8.015996656020e-01 -8.300141054736e+00 0.0 
0.0 0.0 -6.359054805795e+00 
-1.146152518167e+01 -7.575333690902e-01 0.0 
-7.575333690902e-01 -8.281151452922e+00 0.0 
0.0 0.0 -5.846107371307e+00 
-9.942181724996e+00 -6.778700456322e-01 0.0 
-6.778700456322e-01 -8.304201623158e+00 0.0 
0.0 0.0 -5.397861395370e+00 
-8.454494979716e+00 -5.543600747310e-01 0.0 
-5.543600747310e-01 -8.406721348054e+00 0.0 
0.0 0.0 -4.984040721976e+00 
-7.469078256295e+00 -5.991930561669e-01 0.0 
-5.991930561669e-01 -8.980309648357e+00 0.0 
0.0 0.0 -4.871485616064e+00 
-6.079444217530e+00 -6.338486846339e-01 0.0 
-6.338486846339e-01 -8.668706250165e+00 0.0 
0.0 0.0 -4.356334882550e+00 
-4.803779952932e+00 -4.896637759772e-01 0.0 
-4.896637759772e-01 -7.919899057292e+00 0.0 
0.0 0.0 -3.735328632616e+00 
-3.870523420961e+00 -3.855157446049e-01 0.0 
-3.855157446049e-01 -8.048838255498e+00 0.0 
0.0 0.0 -3.498770986484e+00 
-3.181791617193e+00 -3.179916370677e-01 0.0 
-3.179916370677e-01 -8.322095388118e+00 0.0 
0.0 0.0 -3.376917704026e+00 
-2.604973537568e+00 -2.096374025110e-01 0.0 
-2.096374025110e-01 -8.356097236795e+00 0.0 
0.0 0.0 -3.213705146426e+00 
-2.152771759800e+00 -1.933179018027e-01 0.0 
-1.933179018027e-01 -7.941380772901e+00 0.0 
0.0 0.0 -2.951138463701e+00 
-1.911983319997e+00 1.105394403657e-02 0.0 
1.105394403657e-02 -7.336577665517e+00 0.0 
0.0 0.0 -2.682984570043e+00 
-2.714274086201e+01 4.141368819686e+00 0.0 
4.141368819686e+00 -5.243569877498e+00 0.0 
0.0 0.0 -9.297767746331e+00 
-2.213727023920e+01 2.312461667547e+00 0.0 
2.312461667547e+00 -1.019294308900e+01 0.0 
0.0 0.0 -9.299063998460e+00 
-1.963343436817e+01 9.675102081854e-01 0.0 
9.675102081854e-01 -1.024792453510e+01 0.0 
0.0 0.0 -8.564407670981e+00 
-1.825689037192e+01 2.951665386599e-01 0.0 
2.951665386599e-01 -9.904553838821e+00 0.0 
0.0 0.0 -8.048433263223e+00 
-1.771068212071e+01 2.383321212182e-02 0.0 
2.383321212182e-02 -9.821657700909e+00 0.0 
0.0 0.0 -7.859701946486e+00 
-1.764003584024e+01 -1.560964335490e-01 0.0 
-1.560964335490e-01 -9.826780336151e+00 0.0 
0.0 0.0 -7.840044852918e+00 
-1.782023416784e+01 -2.451704086152e-01 0.0 
-2.451704086152e-01 -9.775890518331e+00 0.0 
0.0 0.0 -7.878837405853e+00 
-1.806648423707e+01 -1.689111964561e-01 0.0 
-1.689111964561e-01 -9.768171284110e+00 0.0 
0.0 0.0 -7.950396656354e+00 
-1.842847993600e+01 -1.850601582200e-01 0.0 
-1.850601582200e-01 -9.836566218192e+00 0.0 
0.0 0.0 -8.079513846258e+00 
-1.858732072933e+01 -1.466425016895e-01 0.0 
-1.466425016895e-01 -9.840947753902e+00 0.0 
0.0 0.0 -8.128480544971e+00 
-1.877907156696e+01 -1.351232872434e-01 0.0 
-1.351232872434e-01 -9.843195066913e+00 0.0 
0.0 0.0 -8.186679990163e+00 
-1.892549432629e+01 -3.393115912350e-02 0.0 
-3.393115912350e-02 -9.851615735934e+00 0.0 
0.0 0.0 -8.233133018668e+00 
-1.893822971737e+01 -2.772946622298e-02 0.0 
-2.772946622298e-02 -9.873107909418e+00 0.0 
0.0 0.0 -8.243401288038e+00 
-1.891203661147e+01 9.224074774158e-02 0.0 
9.224074774158e-02 -9.722647389742e+00 0.0 
0.0 0.0 -8.190405200363e+00 
-1.887078318721e+01 3.411385727504e-01 0.0 
3.411385727504e-01 -9.231076922587e+00 0.0 
0.0 0.0 -8.030558032938e+00 
-1.858035643783e+01 -3.388362629645e-01 0.0 
-3.388362629645e-01 -7.041342791637e+00 0.0 
0.0 0.0 -7.286509768841e+00 
-1.850400050566e+01 9.575581661489e+00 0.0 
9.575581661489e+00 -1.045331733487e+01 0.0 
0.0 0.0 -8.379594398949e+00 
-2.370115436522e+01 1.474413548180e+01 0.0 
1.474413548180e+01 -1.733756640018e+01 0.0 
0.0 0.0 -1.191161622962e+01 
-2.602781560459e+01 1.694524136337e+01 0.0 
1.694524136337e+01 -1.963484402570e+01 0.0 
0.0 0.0 -1.329879788909e+01 
-2.709985494564e+01 1.794296193037e+01 0.0 
1.794296193037e+01 -2.064371857413e+01 0.0 
0.0 0.0 -1.392307205593e+01 
-2.780576634791e+01 1.877084300381e+01 0.0 
1.877084300381e+01 -2.079215609903e+01 0.0 
0.0 0.0 -1.417937673408e+01 
-2.766961022676e+01 1.886988050312e+01 0.0 
1.886988050312e+01 -2.112839843953e+01 0.0 
0.0 0.0 -1.423940259989e+01 
-2.745326585580e+01 1.848819367542e+01 0.0 
1.848819367542e+01 -2.149798924920e+01 0.0 
0.0 0.0 -1.428537653150e+01 
-2.812713586798e+01 1.850008952630e+01 0.0 
1.850008952630e+01 -2.165713690344e+01 0.0 
0.0 0.0 -1.453528183143e+01 
-3.421444767920e+01 1.858981015491e+01 0.0 
1.858981015491e+01 -2.176549672144e+01 0.0 
0.0 0.0 -1.639398332019e+01 
-3.499495176832e+01 8.496766948760e+00 0.0 
8.496766948760e+00 -1.598901053400e+01 0.0 
0.0 0.0 -1.488612595294e+01 
-2.365054576380e+01 1.391596873439e+01 0.0 
1.391596873439e+01 -2.482233919902e+01 0.0 
0.0 0.0 -1.414186548884e+01 
-1.462729638986e+02 2.020390621817e+01 0.0 
2.020390621817e+01 -3.515810146918e+02 0.0 
0.0 0.0 -1.489561935771e+02 
-1.273197224712e+01 -1.248653784633e+00 0.0 
-1.248653784633e+00 -1.683309608192e+01 0.0 
0.0 0.0 -8.856820523570e+00 
-1.920694854291e+01 -1.015363266028e+00 0.0 
-1.015363266028e+00 -1.600442846846e+01 0.0 
0.0 0.0 -1.055032083398e+01 
-1.525731986575e+02 1.245907504161e+01 0.0 
1.245907504161e+01 -3.652749375063e+02 0.0 
0.0 0.0 -1.549544408491e+02 
-2.728722152771e+01 1.779216038728e+01 0.0 
1.779216038728e+01 -2.880555149410e+01 0.0 
0.0 0.0 -1.642783190654e+01 
-7.740068361043e+01 1.501035636427e-02 0.0 
1.501035636427e-02 -2.097118704388e+02 0.0 
0.0 0.0 -8.573376621476e+01 
-1.383445746223e+02 2.640617275351e+01 0.0 
2.640617275351e+01 -3.327524830412e+02 0.0 
0.0 0.0 -1.409291172991e+02 
-2.892531754913e+01 1.925914818913e+01 0.0 
1.925914818913e+01 -3.040732977374e+01 0.0 
0.0 0.0 -1.739979419686e+01 
-1.294624618919e+02 3.151133806434e+01 0.0 
3.151133806434e+01 -3.082770977781e+02 0.0 
0.0 0.0 -1.309218679010e+02 
-3.234524744505e+01 2.013835149895e+01 0.0 
2.013835149895e+01 -3.227681018483e+01 0.0 
0.0 0.0 -1.898661728896e+01 
-1.564116313301e+02 7.368850456888e+00 0.0 
7.368850456888e+00 -3.722296308993e+02 0.0 
0.0 0.0 -1.581923786688e+02 
-8.109220209793e+00 -8.276879373687e-01 0.0 
-8.276879373687e-01 -1.621039626382e+01 0.0 
0.0 0.0 -7.305568569235e+00 
-1.187531556901e+02 3.303781025236e+01 0.0 
3.303781025236e+01 -2.772230600598e+02 0.0 
0.0 0.0 -1.183928647250e+02 
-4.377171109139e+01 1.264408264270e+01 0.0 
1.264408264270e+01 -3.967798945346e+01 0.0 
0.0 0.0 -2.463491016346e+01 
-4.701616821190e+01 -3.213437903325e-01 0.0 
-3.213437903325e-01 -1.305332202281e+02 0.0 
0.0 0.0 -5.286481653200e+01 
-1.006177172942e+02 2.318387417211e-01 0.0 
2.318387417211e-01 -2.630018530359e+02 0.0 
0.0 0.0 -1.086858710990e+02 
-1.110121677092e+02 3.081592749022e+01 0.0 
3.081592749022e+01 -2.528098401304e+02 0.0 
0.0 0.0 -1.087466023519e+02 
-1.016692416182e+02 2.357541900003e+01 0.0 
2.357541900003e+01 -2.272779954512e+02 0.0 
0.0 0.0 -9.828417112082e+01 
-9.061660011945e+01 6.575394489602e+00 0.0 
6.575394489602e+00 -2.050346998802e+02 0.0 
0.0 0.0 -8.829538999991e+01 
-9.263262209531e+01 1.121155696673e+01 0.0 
1.121155696673e+01 -2.064820227636e+02 0.0 
0.0 0.0 -8.933439345767e+01 
-9.667593602827e+01 1.734875122190e+01 0.0 
1.734875122190e+01 -2.156257312131e+02 0.0 
0.0 0.0 -9.329050017241e+01 
-4.033518624207e+01 4.663751327392e+00 0.0 
4.663751327392e+00 -4.005251641375e+01 0.0 
0.0 0.0 -2.371631079675e+01 
-3.348548483477e+01 5.278627654281e-01 0.0 
5.278627654281e-01 -3.729918724234e+01 0.0 
0.0 0.0 -2.083540162313e+01 
-3.233864569151e+01 2.448311808665e-01 0.0 
2.448311808665e-01 -3.837505947880e+01 0.0 
0.0 0.0 -2.081411155109e+01 
-5.869220179939e+01 4.954069652710e-01 0.0 
4.954069652710e-01 -1.087698741167e+02 0.0 
0.0 0.0 -4.983862277483e+01 
-1.569931295582e+02 4.307146111392e+00 0.0 
4.307146111392e+00 -3.732729874664e+02 0.0 
0.0 0.0 -1.586798351074e+02 
-1.991438299010e+01 1.497832058367e+00 0.0 
1.497832058367e+00 -1.460912642035e+01 0.0 
0.0 0.0 -1.035731669685e+01 
-6.295754760700e+00 -4.707020360062e-01 0.0 
-4.707020360062e-01 -1.723847309631e+01 0.0 
0.0 0.0 -7.049268643673e+00 
-1.300715050026e+02 6.016980253574e-01 0.0 
6.016980253574e-01 -3.233998704606e+02 0.0 
0.0 0.0 -1.356414126390e+02 
-3.027837795462e+01 -2.482715559117e-02 0.0 
-2.482715559117e-02 -3.602985446442e+01 0.0 
0.0 0.0 -1.949246972571e+01 
-2.449647790507e+01 -3.599871298696e-01 0.0 
-3.599871298696e-01 -6.918266255747e+01 0.0 
0.0 0.0 -2.770374213876e+01 
-1.049860733100e+02 2.719580724304e+01 0.0 
2.719580724304e+01 -2.351149370953e+02 0.0 
0.0 0.0 -1.016303031216e+02 
-1.347812945966e+02 2.941305592144e+01 0.0 
2.941305592144e+01 -3.225017364332e+02 0.0 
0.0 0.0 -1.367849093089e+02 
-1.241397351734e+02 3.284658928742e+01 0.0 
3.284658928742e+01 -2.931034565077e+02 0.0 
0.0 0.0 -1.247729575043e+02 
-1.415006323184e+02 2.347501681521e+01 0.0 
2.347501681521e+01 -3.413596716806e+02 0.0 
0.0 0.0 -1.444580911997e+02 
-1.496157426340e+02 1.706454541945e+01 0.0 
1.706454541945e+01 -3.587223833543e+02 0.0 
0.0 0.0 -1.521014377965e+02 
-1.685102035994e+01 -1.472972099532e+00 0.0 
-1.472972099532e+00 -1.716420609001e+01 0.0 
0.0 0.0 -1.019376955921e+01 
-3.555303397432e+01 1.606750017381e+00 0.0 
1.606750017381e+00 -3.727359573674e+01 0.0 
0.0 0.0 -2.144798891332e+01 
-1.526612854824e+02 9.632594970929e+00 0.0 
9.632594970929e+00 -3.658853347498e+02 0.0 
0.0 0.0 -1.551639860697e+02 
-7.248633497673e+01 7.551370924829e-01 0.0 
7.551370924829e-01 -1.483217340786e+02 0.0 
0.0 0.0 -6.584242071661e+01 
-1.037394778577e+01 -1.102841782275e+00 0.0 
-1.102841782275e+00 -1.709458021286e+01 0.0 
0.0 0.0 -8.241427199094e+00 
-6.149187886512e+01 -1.633039881986e-01 0.0 
-1.633039881986e-01 -1.692651851126e+02 0.0 
0.0 0.0 -6.882711919331e+01 
-9.066443174313e+01 4.012323690764e+00 0.0 
4.012323690764e+00 -2.071149605072e+02 0.0 
0.0 0.0 -8.893381767509e+01 
-2.838627956657e+01 1.870716334098e+01 0.0 
1.870716334098e+01 -3.156397124407e+01 0.0 
0.0 0.0 -1.758507524319e+01 
-2.592900044988e+01 1.640046348843e+01 0.0 
1.640046348843e+01 -2.765928155192e+01 0.0 
0.0 0.0 -1.567648460054e+01 
-3.007514861489e+01 1.966301421117e+01 0.0 
1.966301421117e+01 -3.194296176376e+01 0.0 
0.0 0.0 -1.820543311359e+01 
-3.928060548863e+01 1.891809693714e+01 0.0 
1.891809693714e+01 -3.287115206000e+01 0.0 
0.0 0.0 -2.124552726459e+01 
-1.994046262119e+01 9.613901784156e+00 0.0 
9.613901784156e+00 -1.780535043222e+01 0.0 
0.0 0.0 -1.097301194971e+01 
-4.436592322444e+01 1.609551007228e-01 0.0 
1.609551007228e-01 -7.112536288357e+01 0.0 
0.0 0.0 -3.424738583240e+01 
-1.591122781079e+02 2.394635935776e+00 0.0 
2.394635935776e+00 -3.770951067238e+02 0.0 
0.0 0.0 -1.604622154495e+02 
-5.413265302507e+00 -2.756902222681e-01 0.0 
-2.756902222681e-01 -1.639191399268e+01 0.0 
0.0 0.0 -6.497419530034e+00 
-8.491594039640e+01 9.631735656757e-01 0.0 
9.631735656757e-01 -1.880055157419e+02 0.0 
0.0 0.0 -8.147643684149e+01 
-4.687320420313e+01 1.084495042920e+01 0.0 
1.084495042920e+01 -4.631805493704e+01 0.0 
0.0 0.0 -2.755737774205e+01 
-5.187760740876e+01 1.500541218289e+01 0.0 
1.500541218289e+01 -6.110060135624e+01 0.0 
0.0 0.0 -3.349346262950e+01 
-5.456784228719e+01 1.233525181946e+01 0.0 
1.233525181946e+01 -6.624608546899e+01 0.0 
0.0 0.0 -3.584417832685e+01 
-6.016356926581e+01 1.688575315662e+01 0.0 
1.688575315662e+01 -8.378700760613e+01 0.0 
0.0 0.0 -4.278517306158e+01 
-6.338825393015e+01 1.491817217689e+01 0.0 
1.491817217689e+01 -9.004618922239e+01 0.0 
0.0 0.0 -4.563033294576e+01 
-6.789111624400e+01 1.827179277537e+01 0.0 
1.827179277537e+01 -1.057965976152e+02 0.0 
0.0 0.0 -5.170631415777e+01 
-6.461591877708e+01 2.001487082717e+01 0.0 
2.001487082717e+01 -1.007347495951e+02 0.0 
0.0 0.0 -4.920520051165e+01 
-7.207177031164e+01 2.098821042825e+01 0.0 
2.098821042825e+01 -1.222702245280e+02 0.0 
0.0 0.0 -5.790259845190e+01 
-6.851085368671e+01 2.233026154818e+01 0.0 
2.233026154818e+01 -1.179759128320e+02 0.0 
0.0 0.0 -5.554602995561e+01 
-7.129522297735e+01 1.669899759760e+01 0.0 
1.669899759760e+01 -1.124003808083e+02 0.0 
0.0 0.0 -5.470868113571e+01 
-7.589939263271e+01 2.306944221356e+01 0.0 
2.306944221356e+01 -1.390489660606e+02 0.0 
0.0 0.0 -6.408450760799e+01 
-7.224434094091e+01 2.397849224229e+01 0.0 
2.397849224229e+01 -1.352436562838e+02 0.0 
0.0 0.0 -6.184639916743e+01 
-7.960164456283e+01 2.461525509384e+01 0.0 
2.461525509384e+01 -1.559292061516e+02 0.0 
0.0 0.0 -7.025925521434e+01 
-7.593691876097e+01 2.515502491654e+01 0.0 
2.515502491654e+01 -1.523987689780e+02 0.0 
0.0 0.0 -6.810070632169e+01 
-6.847989022626e+01 2.462449801198e+01 0.0 
2.462449801198e+01 -1.323164278898e+02 0.0 
0.0 0.0 -5.983889543482e+01 
-7.215944033523e+01 2.540599263181e+01 0.0 
2.540599263181e+01 -1.495339635495e+02 0.0 
0.0 0.0 -6.610802116542e+01 
-6.468958226079e+01 2.492504269730e+01 0.0 
2.492504269730e+01 -1.299168304024e+02 0.0 
0.0 0.0 -5.798192379895e+01 
-6.837396483779e+01 2.534471974915e+01 0.0 
2.534471974915e+01 -1.471199550101e+02 0.0 
0.0 0.0 -6.424817595437e+01 
-7.589452914611e+01 2.585018888811e+01 0.0 
2.585018888811e+01 -1.664006627835e+02 0.0 
0.0 0.0 -7.228855757888e+01 
-7.212936525597e+01 2.547440862203e+01 0.0 
2.547440862203e+01 -1.638996945861e+02 0.0 
0.0 0.0 -7.040871795261e+01 
-6.460587713396e+01 2.495847132491e+01 0.0 
2.495847132491e+01 -1.449801833919e+02 0.0 
0.0 0.0 -6.247581815777e+01 
-6.836323993519e+01 2.481227169362e+01 0.0 
2.481227169362e+01 -1.615228651143e+02 0.0 
0.0 0.0 -6.856583151485e+01 
-6.097305978181e+01 2.425194692945e+01 0.0 
2.425194692945e+01 -1.429712620041e+02 0.0 
0.0 0.0 -6.078329653576e+01 
-6.473079604083e+01 2.386422066686e+01 0.0 
2.386422066686e+01 -1.592176944960e+02 0.0 
0.0 0.0 -6.678454716105e+01 
-5.751791067959e+01 2.324863034815e+01 0.0 
2.324863034815e+01 -1.409374440593e+02 0.0 
0.0 0.0 -5.913660642168e+01 
-6.124385230867e+01 2.267103697180e+01 0.0 
2.267103697180e+01 -1.568318556194e+02 0.0 
0.0 0.0 -6.502271237843e+01 
-6.862907397061e+01 2.334165793687e+01 0.0 
2.334165793687e+01 -1.749478510812e+02 0.0 
0.0 0.0 -7.267307751554e+01 
-6.509729963328e+01 2.199161456334e+01 0.0 
2.199161456334e+01 -1.721566677944e+02 0.0 
0.0 0.0 -7.077619022830e+01 
-5.791461383411e+01 2.128311293083e+01 0.0 
2.128311293083e+01 -1.542659448859e+02 0.0 
0.0 0.0 -6.325416761600e+01 
-6.171918599119e+01 2.046062399139e+01 0.0 
2.046062399139e+01 -1.691574957725e+02 0.0 
0.0 0.0 -6.886300452911e+01 
-5.477427031505e+01 1.971284173175e+01 0.0 
1.971284173175e+01 -1.514628209691e+02 0.0 
0.0 0.0 -6.147112738525e+01 
-5.850928476328e+01 1.875845380908e+01 0.0 
1.875845380908e+01 -1.658604177432e+02 0.0 
0.0 0.0 -6.691091075194e+01 
-6.570474101596e+01 1.959564654600e+01 0.0 
1.959564654600e+01 -1.835043535569e+02 0.0 
0.0 0.0 -7.436272837186e+01 
-6.243745846859e+01 1.780520003754e+01 0.0 
1.780520003754e+01 -1.797188201402e+02 0.0 
0.0 0.0 -7.224688358264e+01 
-5.544498288722e+01 1.691593484700e+01 0.0 
1.691593484700e+01 -1.621542509284e+02 0.0 
0.0 0.0 -6.487977014470e+01 
-5.931714116207e+01 1.589816139752e+01 0.0 
1.589816139752e+01 -1.755466258813e+02 0.0 
0.0 0.0 -7.005913011301e+01 
-5.253694213450e+01 1.496683041386e+01 0.0 
1.496683041386e+01 -1.580270523688e+02 0.0 
0.0 0.0 -6.276919835100e+01 
-5.637351936633e+01 1.389802288682e+01 0.0 
1.389802288682e+01 -1.709773617462e+02 0.0 
0.0 0.0 -6.780526433375e+01 
-4.982436575197e+01 1.293240849349e+01 0.0 
1.293240849349e+01 -1.534510103765e+02 0.0 
0.0 0.0 -6.058261283853e+01 
-5.358223847467e+01 1.182982817839e+01 0.0 
1.182982817839e+01 -1.658805154398e+02 0.0 
0.0 0.0 -6.543882617433e+01 
-6.042484447783e+01 1.290352280027e+01 0.0 
1.290352280027e+01 -1.834096592469e+02 0.0 
0.0 0.0 -7.275035111742e+01 
-5.757233551108e+01 1.085318283919e+01 0.0 
1.085318283919e+01 -1.778576605611e+02 0.0 
0.0 0.0 -7.022899882165e+01 
-5.096197893420e+01 9.759305384543e+00 0.0 
9.759305384543e+00 -1.602675628034e+02 0.0 
0.0 0.0 -6.296886252129e+01 
-5.485440794769e+01 8.808096822613e+00 0.0 
8.808096822613e+00 -1.717276656048e+02 0.0 
0.0 0.0 -6.757462206575e+01 
-6.176206998942e+01 9.991107850399e+00 0.0 
9.991107850399e+00 -1.894344388973e+02 0.0 
0.0 0.0 -7.495895266601e+01 
-5.893568019434e+01 8.001231183164e+00 0.0 
8.001231183164e+00 -1.828079930791e+02 0.0 
0.0 0.0 -7.212310198204e+01 
-6.613214724573e+01 9.251105132496e+00 0.0 
9.251105132496e+00 -2.006373798258e+02 0.0 
0.0 0.0 -7.963085812147e+01 
-6.319265487733e+01 7.327176852791e+00 0.0 
7.327176852791e+00 -1.935651008395e+02 0.0 
0.0 0.0 -7.662732671506e+01 
-5.626275847388e+01 6.093934020439e+00 0.0 
6.093934020439e+00 -1.757369180960e+02 0.0 
0.0 0.0 -6.919990297096e+01 
-6.038900152696e+01 5.500070079828e+00 0.0 
5.500070079828e+00 -1.860524848235e+02 0.0 
0.0 0.0 -7.353244590514e+01 
-6.759405233883e+01 6.770491337327e+00 0.0 
6.770491337327e+00 -2.040090660086e+02 0.0 
0.0 0.0 -8.108093550423e+01 
-6.463807178824e+01 5.029200168470e+00 0.0 
5.029200168470e+00 -1.960707408279e+02 0.0 
0.0 0.0 -7.781264378485e+01 
-5.768833164196e+01 3.799792275947e+00 0.0 
3.799792275947e+00 -1.780914118001e+02 0.0 
0.0 0.0 -7.033392303263e+01 
-6.180037856559e+01 3.426889566846e+00 0.0 
3.426889566846e+00 -1.877674131494e+02 0.0 
0.0 0.0 -7.447033751450e+01 
-6.901703922307e+01 4.667559981684e+00 0.0 
4.667559981684e+00 -2.058972785934e+02 0.0 
0.0 0.0 -8.207429534495e+01 
-6.602152826018e+01 3.160766225504e+00 0.0 
3.160766225504e+00 -1.972584631324e+02 0.0 
0.0 0.0 -7.858399741777e+01 
-5.902480647300e+01 1.983933004110e+00 0.0 
1.983933004110e+00 -1.790656992272e+02 0.0 
0.0 0.0 -7.102715171005e+01 
-6.308686469270e+01 1.821792340013e+00 0.0 
1.821792340013e+00 -1.882845426862e+02 0.0 
0.0 0.0 -7.501142221366e+01 
-7.037615461373e+01 2.989693005673e+00 0.0 
2.989693005673e+00 -2.067000353927e+02 0.0 
0.0 0.0 -8.272285700192e+01 
-6.723878037013e+01 1.743040932352e+00 0.0 
1.743040932352e+00 -1.973956808757e+02 0.0 
0.0 0.0 -7.899033837376e+01 
-6.015676646404e+01 6.584578834253e-01 0.0 
6.584578834253e-01 -1.789140581394e+02 0.0 
0.0 0.0 -7.132124738104e+01 
-6.412383672756e+01 6.664447362150e-01 0.0 
6.664447362150e-01 -1.877752873715e+02 0.0 
0.0 0.0 -7.516973722972e+01 
-7.149405001706e+01 1.724600973896e+00 0.0 
1.724600973896e+00 -2.064939192130e+02 0.0 
0.0 0.0 -8.299639076901e+01 
-6.817044176866e+01 7.289146872287e-01 0.0 
7.289146872287e-01 -1.966005486390e+02 0.0 
0.0 0.0 -7.903129712230e+01 
-7.580992657868e+01 1.746373271097e+00 0.0 
1.746373271097e+00 -2.155089945432e+02 0.0 
0.0 0.0 -8.699567633656e+01 
-6.093888769273e+01 -2.320710994014e-01 0.0 
-2.320710994014e-01 -1.777046330200e+02 0.0 
0.0 0.0 -7.119305621381e+01 
-6.481004873646e+01 -8.717198846633e-02 0.0 
-8.717198846633e-02 -1.863902886294e+02 0.0 
0.0 0.0 -7.496010120977e+01 
-5.768536361370e+01 -9.410150829039e-01 0.0 
-9.410150829039e-01 -1.672757078544e+02 0.0 
0.0 0.0 -6.708832144042e+01 
-6.141837602600e+01 -7.191346122691e-01 0.0 
-7.191346122691e-01 -1.759339225297e+02 0.0 
0.0 0.0 -7.080568956672e+01 
-6.989637536699e+01 1.873618582666e+01 0.0 
1.873618582666e+01 -1.973389702069e+02 0.0 
0.0 0.0 -7.977060367218e+01 
-5.437887248544e+01 -1.446984811991e+00 0.0 
-1.446984811991e+00 -1.566388438054e+02 0.0 
0.0 0.0 -6.290531488724e+01 
-5.095840369312e+01 -1.689980578478e+00 0.0 
-1.689980578478e+00 -1.482624739510e+02 0.0 
0.0 0.0 -5.936626329325e+01 
-5.797339616041e+01 -1.166762552082e+00 0.0 
-1.166762552082e+00 -1.652908128643e+02 0.0 
0.0 0.0 -6.657926270743e+01 
-6.525846963010e+01 -4.834820276846e-01 0.0 
-4.834820276846e-01 -1.847116339711e+02 0.0 
0.0 0.0 -7.459103108036e+01 
-5.097522374652e+01 -1.766033132254e+00 0.0 
-1.766033132254e+00 -1.458218382262e+02 0.0 
0.0 0.0 -5.863911859181e+01 
-5.445382946520e+01 -1.453416925464e+00 0.0 
-1.453416925464e+00 -1.544853288127e+02 0.0 
0.0 0.0 -6.228174748338e+01 
-4.747880035893e+01 -1.931638927771e+00 0.0 
-1.931638927771e+00 -1.348864103337e+02 0.0 
0.0 0.0 -5.430956320779e+01 
-4.618564468249e+01 1.409230091178e+01 0.0 
1.409230091178e+01 -1.402071464698e+02 0.0 
0.0 0.0 -5.551783734570e+01 
-7.978129558795e+01 2.605581197072e+01 0.0 
2.605581197072e+01 -1.829309978089e+02 0.0 
0.0 0.0 -7.841368801905e+01 
-5.084791914947e+01 -1.598930879979e+00 0.0 
-1.598930879979e+00 -1.435619924937e+02 0.0 
0.0 0.0 -5.792297349295e+01 
-4.385901233755e+01 -1.931163033935e+00 0.0 
-1.931163033935e+00 -1.238459523074e+02 0.0 
0.0 0.0 -4.991148939349e+01 
-4.070364152078e+01 -2.270481847217e+00 0.0 
-2.270481847217e+00 -1.151967037821e+02 0.0 
0.0 0.0 -4.637010359088e+01 
-3.708084086310e+01 -2.151573875707e+00 0.0 
-2.151573875707e+00 -1.040889679222e+02 0.0 
0.0 0.0 -4.195094263560e+01 
-6.675439269123e+01 1.360168422386e+01 0.0 
1.360168422386e+01 -9.798212700125e+01 0.0 
0.0 0.0 -4.902095590774e+01 
-7.397259961789e+01 1.527095231954e+01 0.0 
1.527095231954e+01 -1.198148422035e+02 0.0 
0.0 0.0 -5.773623254643e+01 
-6.895638437845e+01 1.215514254773e+01 0.0 
1.215514254773e+01 -1.054358447502e+02 0.0 
0.0 0.0 -5.191766873860e+01 
-7.639266215231e+01 1.417477103308e+01 0.0 
1.417477103308e+01 -1.277319827197e+02 0.0 
0.0 0.0 -6.083739346159e+01 
-7.159667922996e+01 1.126525890408e+01 0.0 
1.126525890408e+01 -1.146332098774e+02 0.0 
0.0 0.0 -5.546896673221e+01 
-4.014650169886e+01 -1.788675760636e+00 0.0 
-1.788675760636e+00 -1.127016639017e+02 0.0 
0.0 0.0 -4.545444968018e+01 
-8.308763936192e+01 2.386345958497e+01 0.0 
2.386345958497e+01 -1.603673278344e+02 0.0 
0.0 0.0 -7.263649015890e+01 
-8.087393505424e+01 1.700670478992e+01 0.0 
1.700670478992e+01 -1.417098161556e+02 0.0 
0.0 0.0 -6.637512536295e+01 
-5.730419845428e+01 2.443602064162e+01 0.0 
2.443602064162e+01 -1.261414041191e+02 0.0 
0.0 0.0 -5.463368077201e+01 
-5.121068583110e+01 2.059787059128e+01 0.0 
2.059787059128e+01 -1.364709839959e+02 0.0 
0.0 0.0 -5.590450094808e+01 
-6.921191615723e+01 1.123911663612e+01 0.0 
1.123911663612e+01 -2.072472118903e+02 0.0 
0.0 0.0 -8.253773841427e+01 
-5.801247546789e+01 -1.131821191788e+00 0.0 
-1.131821191788e+00 -1.631724971073e+02 0.0 
0.0 0.0 -6.595549177255e+01 
-5.430599466581e+01 -1.271637631445e+00 0.0 
-1.271637631445e+00 -1.522769375112e+02 0.0 
0.0 0.0 -6.157487965309e+01 
-6.158897333127e+01 -8.116544689894e-01 0.0 
-8.116544689894e-01 -1.719035146459e+02 0.0 
0.0 0.0 -6.964774639316e+01 
-7.932253650594e+01 2.838263661599e+00 0.0 
2.838263661599e+00 -2.252900104439e+02 0.0 
0.0 0.0 -9.098376408494e+01 
-8.386395267462e+01 2.801611234777e+00 0.0 
2.801611234777e+00 -2.344002207741e+02 0.0 
0.0 0.0 -9.507925203461e+01 
-8.759223528486e+01 3.978094590709e+00 0.0 
3.978094590709e+00 -2.440792021913e+02 0.0 
0.0 0.0 -9.910143124285e+01 
-9.233537860369e+01 3.871872999166e+00 0.0 
3.871872999166e+00 -2.532412915803e+02 0.0 
0.0 0.0 -1.032730010552e+02 
-9.630232776633e+01 5.123286720689e+00 0.0 
5.123286720689e+00 -2.628292559490e+02 0.0 
0.0 0.0 -1.073394751146e+02 
-1.012244939147e+02 4.933387246113e+00 0.0 
4.933387246113e+00 -2.720226736598e+02 0.0 
0.0 0.0 -1.115741502723e+02 
-9.708025088070e+01 3.758922662025e+00 0.0 
3.758922662025e+00 -2.622734534210e+02 0.0 
0.0 0.0 -1.074061112905e+02 
-1.061365011918e+02 4.730409228548e+00 0.0 
4.730409228548e+00 -2.810799445666e+02 0.0 
0.0 0.0 -1.157649337275e+02 
-1.018182735048e+02 3.625585194621e+00 0.0 
3.625585194621e+00 -2.711953946597e+02 0.0 
0.0 0.0 -1.115041004494e+02 
-1.054439309061e+02 6.248541358490e+00 0.0 
6.248541358490e+00 -2.815200851745e+02 0.0 
0.0 0.0 -1.156892048242e+02 
-1.003199945107e+02 6.516524982237e+00 0.0 
6.516524982237e+00 -2.721058872502e+02 0.0 
0.0 0.0 -1.113277645283e+02 
-1.110295206543e+02 4.499431995135e+00 0.0 
4.499431995135e+00 -2.900115170491e+02 0.0 
0.0 0.0 -1.199123113110e+02 
-1.065396958618e+02 3.454874741251e+00 0.0 
3.454874741251e+00 -2.800107691938e+02 0.0 
0.0 0.0 -1.155651395167e+02 
-1.159006916048e+02 4.225168675506e+00 0.0 
4.225168675506e+00 -2.988296222210e+02 0.0 
0.0 0.0 -1.240190941477e+02 
-1.112397109498e+02 3.238394650085e+00 0.0 
3.238394650085e+00 -2.887310701203e+02 0.0 
0.0 0.0 -1.195912343210e+02 
-1.020859503696e+02 2.542991023702e+00 0.0 
2.542991023702e+00 -2.697890582476e+02 0.0 
0.0 0.0 -1.111625025852e+02 
-1.066057416232e+02 2.378119915834e+00 0.0 
2.378119915834e+00 -2.784221733876e+02 0.0 
0.0 0.0 -1.151083745032e+02 
-9.768627971173e+01 1.778751122981e+00 0.0 
1.778751122981e+00 -2.594550657697e+02 0.0 
0.0 0.0 -1.067424036444e+02 
-7.385097193829e+01 1.055628912773e+01 0.0 
1.055628912773e+01 -2.185569375739e+02 0.0 
0.0 0.0 -8.732237285365e+01 
-7.717978181966e+01 1.254019258305e+01 0.0 
1.254019258305e+01 -2.251687170201e+02 0.0 
0.0 0.0 -9.030454965192e+01 
-8.207764583410e+01 1.190207097718e+01 0.0 
1.190207097718e+01 -2.365620366061e+02 0.0 
0.0 0.0 -9.519190473206e+01 
-8.565571634788e+01 1.388521149455e+01 0.0 
1.388521149455e+01 -2.431851495437e+02 0.0 
0.0 0.0 -9.825225976748e+01 
-9.081344412171e+01 1.328856198916e+01 0.0 
1.328856198916e+01 -2.546446135899e+02 0.0 
0.0 0.0 -1.032374173135e+02 
-9.462338481570e+01 1.527349328514e+01 0.0 
1.527349328514e+01 -2.612624354978e+02 0.0 
0.0 0.0 -1.063657460941e+02 
-1.000352639718e+02 1.470923961193e+01 0.0 
1.470923961193e+01 -2.727450836847e+02 0.0 
0.0 0.0 -1.114341042969e+02 
-9.610258557147e+01 1.274507918502e+01 0.0 
1.274507918502e+01 -2.657441595290e+02 0.0 
0.0 0.0 -1.081540235301e+02 
-8.328280892606e+01 2.578617520779e+01 0.0 
2.578617520779e+01 -1.727086454451e+02 0.0 
0.0 0.0 -7.639743631135e+01 
-4.848264557000e+01 7.698193399535e+00 0.0 
7.698193399535e+00 -1.541126221957e+02 0.0 
0.0 0.0 -6.037858032972e+01 
-4.489766561100e+01 8.748991455813e+00 0.0 
8.748991455813e+00 -1.427585014631e+02 0.0 
0.0 0.0 -5.589685012222e+01 
-4.266958173044e+01 6.670429168367e+00 0.0 
6.670429168367e+00 -1.366032908255e+02 0.0 
0.0 0.0 -5.338186176678e+01 
-3.942897204463e+01 7.828179042007e+00 0.0 
7.828179042007e+00 -1.253822670205e+02 0.0 
0.0 0.0 -4.904337171954e+01 
-3.744070446490e+01 5.744029827405e+00 0.0 
5.744029827405e+00 -1.191926722680e+02 0.0 
0.0 0.0 -4.659001301988e+01 
-3.459482119606e+01 7.030422718485e+00 0.0 
7.030422718485e+00 -1.081341358731e+02 0.0 
0.0 0.0 -4.241868712076e+01 
-3.282030164300e+01 4.956863891119e+00 0.0 
4.956863891119e+00 -1.018290314601e+02 0.0 
0.0 0.0 -3.999479993093e+01 
-3.556903590724e+01 3.754190606816e+00 0.0 
3.754190606816e+00 -1.123457591795e+02 0.0 
0.0 0.0 -4.397443852601e+01 
-3.116412831980e+01 3.001272744492e+00 0.0 
3.001272744492e+00 -9.481942124819e+01 0.0 
0.0 0.0 -3.739506487040e+01 
-3.378722468777e+01 1.912941829763e+00 0.0 
1.912941829763e+00 -1.048095617973e+02 0.0 
0.0 0.0 -4.117903594552e+01 
-2.955636567505e+01 1.213933217816e+00 0.0 
1.213933217816e+00 -8.707243722279e+01 0.0 
0.0 0.0 -3.458864086935e+01 
-3.202221053817e+01 2.804564957139e-01 0.0 
2.804564957139e-01 -9.653133499171e+01 0.0 
0.0 0.0 -3.816606365897e+01 
-7.269432612005e+01 2.274689280282e+01 0.0 
2.274689280282e+01 -1.901720309891e+02 0.0 
0.0 0.0 -7.845990713273e+01 
-8.934908018947e+01 1.588814362605e+01 0.0 
1.588814362605e+01 -2.493784278830e+02 0.0 
0.0 0.0 -1.012182524217e+02 
-9.856354620940e+01 1.727622923725e+01 0.0 
1.727622923725e+01 -2.674999589818e+02 0.0 
0.0 0.0 -1.094190515574e+02 
-9.312964851710e+01 1.787364487720e+01 0.0 
1.787364487720e+01 -2.551090964483e+02 0.0 
0.0 0.0 -1.040716234896e+02 
-3.409066259108e+01 -2.443273555775e+00 0.0 
-2.443273555775e+00 -9.547249274261e+01 0.0 
0.0 0.0 -3.846894660011e+01 
-1.159139220122e+02 2.964968936464e+00 0.0 
2.964968936464e+00 -2.973775869280e+02 0.0 
0.0 0.0 -1.235874526821e+02 
-1.097423162056e+02 7.703355726881e+00 0.0 
7.703355726881e+00 -2.907281448118e+02 0.0 
0.0 0.0 -1.197411383052e+02 
-1.044043250214e+02 8.035429746944e+00 0.0 
8.035429746944e+00 -2.810297026546e+02 0.0 
0.0 0.0 -1.152302083028e+02 
-1.055883112932e+02 1.417337726612e+01 0.0 
1.417337726612e+01 -2.838965798717e+02 0.0 
0.0 0.0 -1.164454673495e+02 
-3.336957999283e+01 -1.914631910285e+00 0.0 
-1.914631910285e+00 -9.307037013281e+01 0.0 
0.0 0.0 -3.753198503769e+01 
-3.044299619305e+01 6.418155313064e+00 0.0 
6.418155313064e+00 -9.103548403360e+01 0.0 
0.0 0.0 -3.604354406799e+01 
-3.206613529994e+01 8.532412375311e+00 0.0 
8.532412375311e+00 -9.655767969180e+01 0.0 
0.0 0.0 -3.818714449752e+01 
-7.863342153108e+01 1.328272456174e+01 0.0 
1.328272456174e+01 -1.362537085033e+02 0.0 
0.0 0.0 -6.406613901030e+01 
-7.391636506935e+01 1.059622800233e+01 0.0 
1.059622800233e+01 -1.238078320299e+02 0.0 
0.0 0.0 -5.891725912977e+01 
-1.141582157980e+02 9.275325587430e+00 0.0 
9.275325587430e+00 -2.996552055146e+02 0.0 
0.0 0.0 -1.237440263938e+02 
-3.640075666490e+01 -1.593327257814e+00 0.0 
-1.593327257814e+00 -1.016627041933e+02 0.0 
0.0 0.0 -4.101903825745e+01 
-1.155891614480e+02 5.672329801820e+00 0.0 
5.672329801820e+00 -2.998011265471e+02 0.0 
0.0 0.0 -1.242170863985e+02 
-2.740536326804e+01 2.413549028567e+00 0.0 
2.413549028567e+00 -7.739340173486e+01 0.0 
0.0 0.0 -3.103962950087e+01 
-1.111114055007e+02 2.151613375533e+00 0.0 
2.151613375533e+00 -2.870012078947e+02 0.0 
0.0 0.0 -1.190337840186e+02 
-1.205353818327e+02 2.631575669561e+00 0.0 
2.631575669561e+00 -3.059457691326e+02 0.0 
0.0 0.0 -1.275443452896e+02 
-9.300334989061e+01 2.731867635070e+00 0.0 
2.731867635070e+00 -2.523194910475e+02 0.0 
0.0 0.0 -1.031968522814e+02 
-1.026017337818e+02 1.928081727021e+01 0.0 
1.928081727021e+01 -2.733744418732e+02 0.0 
0.0 0.0 -1.123928526965e+02 
-9.700632247802e+01 1.980182072869e+01 0.0 
1.980182072869e+01 -2.604494982501e+02 0.0 
0.0 0.0 -1.068367462184e+02 
-3.671005747860e+01 1.106725832851e+00 0.0 
1.106725832851e+00 -1.146156035680e+02 0.0 
0.0 0.0 -4.499769831398e+01 
-3.474355002158e+01 -2.999918579436e-01 0.0 
-2.999918579436e-01 -1.059369985585e+02 0.0 
0.0 0.0 -4.180416457402e+01 
-3.027809069621e+01 -9.998370276163e-01 0.0 
-9.998370276163e-01 -8.796949367605e+01 0.0 
0.0 0.0 -3.507427531168e+01 
-3.313091868587e+01 -1.473482671557e+00 0.0 
-1.473482671557e+00 -9.746805777231e+01 0.0 
0.0 0.0 -3.877969293745e+01 
-3.773279465076e+01 -7.695344407030e-01 0.0 
-7.695344407030e-01 -1.154214394635e+02 0.0 
0.0 0.0 -4.554627023428e+01 
-3.555937882290e+01 -1.868367319569e+00 0.0 
-1.868367319569e+00 -1.058064952015e+02 0.0 
0.0 0.0 -4.200976220733e+01 
-3.080851290540e+01 -2.489673318869e+00 0.0 
-2.489673318869e+00 -8.740026227495e+01 0.0 
0.0 0.0 -3.506263255411e+01 
-3.324157863829e+01 -2.596543410360e+00 0.0 
-2.596543410360e+00 -9.577925402204e+01 0.0 
0.0 0.0 -3.830624979810e+01 
-3.841257608350e+01 -2.011615679926e+00 0.0 
-2.011615679926e+00 -1.145693325835e+02 0.0 
0.0 0.0 -4.549457260010e+01 
-3.587096488177e+01 -2.651306390103e+00 0.0 
-2.651306390103e+00 -1.043165917023e+02 0.0 
0.0 0.0 -4.165626697523e+01 
-3.073357100265e+01 -3.031253310952e+00 0.0 
-3.031253310952e+00 -8.520537751739e+01 0.0 
0.0 0.0 -3.438168455601e+01 
-3.309304664671e+01 -2.985375707312e+00 0.0 
-2.985375707312e+00 -9.363500229685e+01 0.0 
0.0 0.0 -3.761841468307e+01 
-1.255182224891e+02 3.504291528729e+00 0.0 
3.504291528729e+00 -3.161782166866e+02 0.0 
0.0 0.0 -1.321089317527e+02 
-2.601513567192e+01 7.003433346337e-01 0.0 
7.003433346337e-01 -6.938430773440e+01 0.0 
0.0 0.0 -2.821983302190e+01 
-6.100510736273e+01 2.412464991034e+01 0.0 
2.412464991034e+01 -1.122502919142e+02 0.0 
0.0 0.0 -5.157661978307e+01 
-1.196001910741e+02 8.843952622131e+00 0.0 
8.843952622131e+00 -3.092609097222e+02 0.0 
0.0 0.0 -1.282583302389e+02 
-1.096863469764e+02 1.614978865063e+01 0.0 
1.614978865063e+01 -2.906667046023e+02 0.0 
0.0 0.0 -1.197059154736e+02 
-8.070162717657e+01 1.256912379222e+01 0.0 
1.256912379222e+01 -1.452487265889e+02 0.0 
0.0 0.0 -6.738510612965e+01 
-7.613010307525e+01 1.008228681946e+01 0.0 
1.008228681946e+01 -1.333964291621e+02 0.0 
0.0 0.0 -6.245795967121e+01 
-6.884571818878e+01 8.053917441633e+00 0.0 
8.053917441633e+00 -1.121490346685e+02 0.0 
0.0 0.0 -5.389842585718e+01 
-7.133646851493e+01 7.782356612121e+00 0.0 
7.782356612121e+00 -1.223042175557e+02 0.0 
0.0 0.0 -5.769220582119e+01 
-7.823936738423e+01 9.673910861182e+00 0.0 
9.673910861182e+00 -1.433777098827e+02 0.0 
0.0 0.0 -6.608512318009e+01 
-7.373327079398e+01 7.553511809566e+00 0.0 
7.553511809566e+00 -1.326088335860e+02 0.0 
0.0 0.0 -6.150263131399e+01 
-6.641595151202e+01 5.802647203271e+00 0.0 
5.802647203271e+00 -1.118065536341e+02 0.0 
0.0 0.0 -5.306675154384e+01 
-6.914811755649e+01 5.719961720125e+00 0.0 
5.719961720125e+00 -1.223136277023e+02 0.0 
0.0 0.0 -5.703852357763e+01 
-6.151369350139e+01 4.159491072850e+00 0.0 
4.159491072850e+00 -1.017708127735e+02 0.0 
0.0 0.0 -4.858535188247e+01 
-6.455086731878e+01 4.193359082934e+00 0.0 
4.193359082934e+00 -1.124422248970e+02 0.0 
0.0 0.0 -5.269792766472e+01 
-7.181728378004e+01 5.610236678586e+00 0.0 
5.610236678586e+00 -1.329290905145e+02 0.0 
0.0 0.0 -6.102391228837e+01 
-6.752029607607e+01 4.194101144004e+00 0.0 
4.194101144004e+00 -1.232374011187e+02 0.0 
0.0 0.0 -5.682730915844e+01 
-5.999295157031e+01 2.961445751256e+00 0.0 
2.961445751256e+00 -1.029617195585e+02 0.0 
0.0 0.0 -4.848640133864e+01 
-6.325082642255e+01 3.036380149804e+00 0.0 
3.036380149804e+00 -1.137976633414e+02 0.0 
0.0 0.0 -5.271454692917e+01 
-5.553229766836e+01 2.025842787199e+00 0.0 
2.025842787199e+00 -9.367063202001e+01 0.0 
0.0 0.0 -4.436087890651e+01 
-5.907330162717e+01 2.137530491870e+00 0.0 
2.137530491870e+00 -1.044596247493e+02 0.0 
0.0 0.0 -4.865987791293e+01 
-6.646817236086e+01 2.970613886489e+00 0.0 
2.970613886489e+00 -1.247226341883e+02 0.0 
0.0 0.0 -5.695724196473e+01 
-2.986810716647e+01 -1.627255135869e+00 0.0 
-1.627255135869e+00 -8.254940619284e+01 0.0 
0.0 0.0 -3.332525400779e+01 
-1.015133083834e+02 1.224030757305e+01 0.0 
1.224030757305e+01 -2.765416654473e+02 0.0 
0.0 0.0 -1.130164921492e+02 
-1.113078360701e+02 1.364997979612e+01 0.0 
1.364997979612e+01 -2.948527287934e+02 0.0 
0.0 0.0 -1.214481694591e+02 
-5.791838284364e+01 -8.460310452371e-01 0.0 
-8.460310452371e-01 -1.615562589181e+02 0.0 
0.0 0.0 -6.544239252854e+01 
-6.508716825807e+01 -4.880181288972e-01 0.0 
-4.880181288972e-01 -1.803687376531e+02 0.0 
0.0 0.0 -7.323677177334e+01 
-6.910443305111e+01 -4.060217470857e-01 0.0 
-4.060217470857e-01 -1.913869912890e+02 0.0 
0.0 0.0 -7.774742730202e+01 
-7.299270912595e+01 -1.797009489972e-01 0.0 
-1.797009489972e-01 -2.002081678046e+02 0.0 
0.0 0.0 -8.156026307916e+01 
-6.249821120554e+01 2.082892825327e+00 0.0 
2.082892825327e+00 -1.152965515584e+02 0.0 
0.0 0.0 -5.293842882917e+01 
-6.957579293843e+01 2.770692369638e+00 0.0 
2.770692369638e+00 -1.357066917803e+02 0.0 
0.0 0.0 -6.118474541561e+01 
-2.842141445726e+01 8.134130203267e+00 0.0 
8.134130203267e+00 -7.975886311764e+01 0.0 
0.0 0.0 -3.205408327247e+01 
-2.992641611847e+01 1.020958093069e+01 0.0 
1.020958093069e+01 -8.444062847083e+01 0.0 
0.0 0.0 -3.391011337679e+01 
-8.500751838941e+01 1.517203455175e+01 0.0 
1.517203455175e+01 -1.578626874027e+02 0.0 
0.0 0.0 -7.246106173764e+01 
-1.155879373150e+02 1.875622058395e+00 0.0 
1.875622058395e+00 -2.955682650778e+02 0.0 
0.0 0.0 -1.229468607178e+02 
-1.063785958715e+02 1.466533727717e+00 0.0 
1.466533727717e+00 -2.765610349073e+02 0.0 
0.0 0.0 -1.144818892336e+02 
-4.835570287154e+01 1.899839809759e+01 0.0 
1.899839809759e+01 -1.338557945514e+02 0.0 
0.0 0.0 -5.426344922687e+01 
-4.507826325825e+01 1.990395255525e+01 0.0 
1.990395255525e+01 -1.187111914131e+02 0.0 
0.0 0.0 -4.873683640140e+01 
-4.255618212217e+01 1.832988050473e+01 0.0 
1.832988050473e+01 -1.162336180619e+02 0.0 
0.0 0.0 -4.723694005522e+01 
-3.957177282417e+01 1.919302347013e+01 0.0 
1.919302347013e+01 -1.006464123937e+02 0.0 
0.0 0.0 -4.166545556536e+01 
-4.194019426480e+01 2.061873216221e+01 0.0 
2.061873216221e+01 -1.028493758110e+02 0.0 
0.0 0.0 -4.303687102273e+01 
-3.740810239640e+01 1.769842640028e+01 0.0 
1.769842640028e+01 -9.823289992882e+01 0.0 
0.0 0.0 -4.029230069757e+01 
-9.511521350403e+01 6.757407537728e+00 0.0 
6.757407537728e+00 -2.623348293331e+02 0.0 
0.0 0.0 -1.068350128511e+02 
-7.445711972626e+01 5.451897836606e+00 0.0 
5.451897836606e+00 -1.437360201127e+02 0.0 
0.0 0.0 -6.505794195170e+01 
-3.767648243053e+01 -2.586995034075e+00 0.0 
-2.586995034075e+00 -1.066361707523e+02 0.0 
0.0 0.0 -4.289379595485e+01 
-3.134367944634e+01 -2.698617505179e+00 0.0 
-2.698617505179e+00 -8.699759286637e+01 0.0 
0.0 0.0 -3.510238169381e+01 
-1.250902896803e+02 2.244609157743e+00 0.0 
2.244609157743e+00 -3.144912894691e+02 0.0 
0.0 0.0 -1.314744737448e+02 
-9.224686106956e+01 1.082864843650e+01 0.0 
1.082864843650e+01 -2.582996347175e+02 0.0 
0.0 0.0 -1.047639487361e+02 
-7.636762389611e+01 2.407036153992e+01 0.0 
2.407036153992e+01 -1.931924564799e+02 0.0 
0.0 0.0 -8.046802411281e+01 
-8.066857424860e+01 2.358145365118e+01 0.0 
2.358145365118e+01 -2.083634343042e+02 0.0 
0.0 0.0 -8.630960256583e+01 
-8.444001104997e+01 2.490642426562e+01 0.0 
2.490642426562e+01 -2.116528380064e+02 0.0 
0.0 0.0 -8.842785471690e+01 
-8.900906857002e+01 2.453658895157e+01 0.0 
2.453658895157e+01 -2.267806252140e+02 0.0 
0.0 0.0 -9.433690813520e+01 
-9.280100549187e+01 2.589367897988e+01 0.0 
2.589367897988e+01 -2.302949332894e+02 0.0 
0.0 0.0 -9.652878163438e+01 
-9.764254858028e+01 2.566718413236e+01 0.0 
2.566718413236e+01 -2.452822068208e+02 0.0 
0.0 0.0 -1.024774266203e+02 
-9.383291092871e+01 2.414739592376e+01 0.0 
2.414739592376e+01 -2.414546353264e+02 0.0 
0.0 0.0 -1.001862638765e+02 
-1.067052765557e+02 2.127447901529e+01 0.0 
2.127447901529e+01 -2.788630880133e+02 0.0 
0.0 0.0 -1.152705093707e+02 
-1.027869832357e+02 2.545212771180e+01 0.0 
2.545212771180e+01 -2.598463799715e+02 0.0 
0.0 0.0 -1.083900089622e+02 
-5.498400956186e+01 1.356284413299e+00 0.0 
1.356284413299e+00 -9.493734597900e+01 0.0 
0.0 0.0 -4.457640666226e+01 
-8.412841080937e+01 1.651730101077e+01 0.0 
1.651730101077e+01 -2.369020585110e+02 0.0 
0.0 0.0 -9.590914079611e+01 
-4.145022901945e+01 -2.041494125200e+00 0.0 
-2.041494125200e+00 -1.233758445822e+02 0.0 
0.0 0.0 -4.904782208049e+01 
-2.664285806637e+01 -1.820021461260e+00 0.0 
-1.820021461260e+00 -7.368727574309e+01 0.0 
0.0 0.0 -2.969904014284e+01 
-2.760000933796e+01 -3.145602906737e+00 0.0 
-3.145602906737e+00 -7.384059234863e+01 0.0 
0.0 0.0 -3.003218050598e+01 
-3.240858704707e+01 -1.366176150107e+00 0.0 
-1.366176150107e+00 -9.031871813494e+01 0.0 
0.0 0.0 -3.641819155460e+01 
-3.947513661757e+01 -1.289333451611e+00 0.0 
-1.289333451611e+00 -1.102141602463e+02 0.0 
0.0 0.0 -4.450678905916e+01 
-1.243438310266e+02 1.047733823983e+01 0.0 
1.047733823983e+01 -3.181625629341e+02 0.0 
0.0 0.0 -1.323519181882e+02 
-1.013717356901e+02 2.709492878079e+01 0.0 
2.709492878079e+01 -2.489566133931e+02 0.0 
0.0 0.0 -1.046985047249e+02 
-9.645760460356e+01 2.706872812098e+01 0.0 
2.706872812098e+01 -2.335825089254e+02 0.0 
0.0 0.0 -9.861203405869e+01 
-3.680715603189e+01 1.988483880335e+01 0.0 
1.988483880335e+01 -8.465323757383e+01 0.0 
0.0 0.0 -3.603811808172e+01 
-3.894679590106e+01 2.109275089997e+01 0.0 
2.109275089997e+01 -8.644948452478e+01 0.0 
0.0 0.0 -3.721888412775e+01 
-1.126066471189e+02 2.079580321094e+01 0.0 
2.079580321094e+01 -2.916026545572e+02 0.0 
0.0 0.0 -1.208627905028e+02 
-6.374439688719e+01 9.077408996998e+00 0.0 
9.077408996998e+00 -9.292841796891e+01 0.0 
0.0 0.0 -4.660184445683e+01 
-5.840442959664e+01 4.084735513018e+00 0.0 
4.084735513018e+00 -9.124873530566e+01 0.0 
0.0 0.0 -4.449594947069e+01 
-5.315176301157e+01 2.677454736110e+00 0.0 
2.677454736110e+00 -8.141141398046e+01 0.0 
0.0 0.0 -3.996895309761e+01 
-2.496299881749e+01 -1.256749754442e+00 0.0 
-1.256749754442e+00 -6.890617157677e+01 0.0 
0.0 0.0 -2.776075111828e+01 
-2.590816877589e+01 -3.154137554783e+00 0.0 
-3.154137554783e+00 -6.623749252093e+01 0.0 
0.0 0.0 -2.724369838904e+01 
-8.032107765484e+01 9.270250368291e+00 0.0 
9.270250368291e+00 -1.535976768161e+02 0.0 
0.0 0.0 -6.977562634128e+01 
-3.379289474153e+01 1.062786938277e+01 0.0 
1.062786938277e+01 -1.012671781906e+02 0.0 
0.0 0.0 -4.011802187963e+01 
-3.155935459555e+01 1.224657971903e+01 0.0 
1.224657971903e+01 -8.841937779935e+01 0.0 
0.0 0.0 -3.559361971847e+01 
-2.430054294208e+01 2.082755176091e+00 0.0 
2.082755176091e+00 -5.984115549554e+01 0.0 
0.0 0.0 -2.484250953129e+01 
-2.303664025847e+01 3.911163017481e-01 0.0 
3.911163017481e-01 -5.156861975065e+01 0.0 
0.0 0.0 -2.198157800274e+01 
-6.588840456366e+01 1.819405276990e+00 0.0 
1.819405276990e+00 -1.259843000559e+02 0.0 
0.0 0.0 -5.716181138588e+01 
-7.274476508369e+01 2.425410337629e+00 0.0 
2.425410337629e+00 -1.463054855037e+02 0.0 
0.0 0.0 -6.531507517621e+01 
-7.702379785666e+01 1.128215988770e-01 0.0 
1.128215988770e-01 -2.108645399753e+02 0.0 
0.0 0.0 -8.596650134958e+01 
-8.093830762960e+01 2.787806936187e-01 0.0 
2.787806936187e-01 -2.195902979732e+02 0.0 
0.0 0.0 -8.975858168084e+01 
-1.187200336239e+02 1.096535461462e+01 0.0 
1.096535461462e+01 -3.083169753243e+02 0.0 
0.0 0.0 -1.277111026845e+02 
-3.013704016791e+01 -3.095157752307e+00 0.0 
-3.095157752307e+00 -8.277662910306e+01 0.0 
0.0 0.0 -3.347410078129e+01 
-7.636090658484e+01 3.532174012048e+00 0.0 
3.532174012048e+00 -1.561980955535e+02 0.0 
0.0 0.0 -6.936770064152e+01 
-9.751449415728e+01 1.037869518053e+01 0.0 
1.037869518053e+01 -2.687810844396e+02 0.0 
0.0 0.0 -1.094886735791e+02 
-8.850784272500e+01 8.994431647096e+00 0.0 
8.994431647096e+00 -2.504581378250e+02 0.0 
0.0 0.0 -1.012897941650e+02 
-6.892826577857e+01 -4.013136388488e-01 0.0 
-4.013136388488e-01 -1.890894104779e+02 0.0 
0.0 0.0 -7.700530287696e+01 
-2.685213075267e+01 1.005723126215e+01 0.0 
1.005723126215e+01 -6.798159487228e+01 0.0 
0.0 0.0 -2.805011768748e+01 
-2.545410469029e+01 7.981853851865e+00 0.0 
7.981853851865e+00 -6.333480800807e+01 0.0 
0.0 0.0 -2.623667380951e+01 
-4.401394601300e+01 -1.239725208584e+00 0.0 
-1.239725208584e+00 -1.333548753535e+02 0.0 
0.0 0.0 -5.281064640996e+01 
-3.580793423896e+01 -2.902056467059e+00 0.0 
-2.902056467059e+00 -1.022718585880e+02 0.0 
0.0 0.0 -4.102393784807e+01 
-3.548543890948e+01 -1.002755170407e+00 0.0 
-1.002755170407e+00 -9.890270150360e+01 0.0 
0.0 0.0 -3.991644212392e+01 
-1.291420448366e+02 1.221581044373e+01 0.0 
1.221581044373e+01 -3.266663599352e+02 0.0 
0.0 0.0 -1.363425214315e+02 
-8.439804098622e+01 1.142529610553e+01 0.0 
1.142529610553e+01 -1.644857506004e+02 0.0 
0.0 0.0 -7.426513747599e+01 
-9.899136013606e+01 2.381096556254e+01 0.0 
2.381096556254e+01 -2.556822190771e+02 0.0 
0.0 0.0 -1.060020737640e+02 
-8.994274541789e+01 2.254331150071e+01 0.0 
2.254331150071e+01 -2.373160541848e+02 0.0 
0.0 0.0 -9.777763988081e+01 
-1.084569295524e+02 2.522207628238e+01 0.0 
2.522207628238e+01 -2.741677624558e+02 0.0 
0.0 0.0 -1.143874076025e+02 
-2.496492784784e+01 -3.011309503724e+00 0.0 
-3.011309503724e+00 -6.331131501798e+01 0.0 
0.0 0.0 -2.608287285975e+01 
-1.300199031283e+02 9.955890477654e+00 0.0 
9.955890477654e+00 -3.279823411801e+02 0.0 
0.0 0.0 -1.370006732925e+02 
-1.200162888266e+02 1.530004208804e+00 0.0 
1.530004208804e+00 -3.041441879174e+02 0.0 
0.0 0.0 -1.268481430232e+02 
-1.045485636002e+02 2.827469168869e+01 0.0 
2.827469168869e+01 -2.516400570579e+02 0.0 
0.0 0.0 -1.064565861974e+02 
-9.996688087806e+01 2.805977929256e+01 0.0 
2.805977929256e+01 -2.368894535700e+02 0.0 
0.0 0.0 -1.006569003344e+02 
-3.561669702742e+01 1.265872750453e+01 0.0 
1.265872750453e+01 -1.053000306827e+02 0.0 
0.0 0.0 -4.187501831303e+01 
-3.332901242454e+01 1.418505435590e+01 0.0 
1.418505435590e+01 -9.197562629495e+01 0.0 
0.0 0.0 -3.719139161585e+01 
-2.978023519863e+01 1.392346128400e+01 0.0 
1.392346128400e+01 -7.498304646891e+01 0.0 
0.0 0.0 -3.102898450026e+01 
-3.136830649793e+01 1.561064545400e+01 0.0 
1.561064545400e+01 -7.784687444280e+01 0.0 
0.0 0.0 -3.236455428222e+01 
-6.085284783835e+01 2.161589055250e+01 0.0 
2.161589055250e+01 -9.678857484826e+01 0.0 
0.0 0.0 -4.689242680598e+01 
-3.768331963374e+01 1.464345603214e+01 0.0 
1.464345603214e+01 -1.090985149750e+02 0.0 
0.0 0.0 -4.363455038263e+01 
-5.724823377453e+01 2.442969431657e+01 0.0 
2.442969431657e+01 -1.102768992031e+02 0.0 
0.0 0.0 -4.985753989330e+01 
-5.351176801896e+01 2.354158484410e+01 0.0 
2.354158484410e+01 -9.217823022690e+01 0.0 
0.0 0.0 -4.330699947376e+01 
-5.003425177186e+01 2.381300174267e+01 0.0 
2.381300174267e+01 -9.083791957400e+01 0.0 
0.0 0.0 -4.186165140376e+01 
-4.448055239786e+01 2.188420463964e+01 0.0 
2.188420463964e+01 -1.045470605706e+02 0.0 
0.0 0.0 -4.430828389053e+01 
-4.125104463288e+01 2.215589970267e+01 0.0 
2.215589970267e+01 -8.769231537375e+01 0.0 
0.0 0.0 -3.828300800199e+01 
-4.151048260378e+01 9.946029705889e+00 0.0 
9.946029705889e+00 -1.308477270031e+02 0.0 
0.0 0.0 -5.130746288207e+01 
-7.241172092344e+01 1.325570993965e+01 0.0 
1.325570993965e+01 -2.133440199362e+02 0.0 
0.0 0.0 -8.532672225790e+01 
-7.305236061887e+01 -6.669346466643e-02 0.0 
-6.669346466643e-02 -2.021920530862e+02 0.0 
0.0 0.0 -8.217332411154e+01 
-9.333637760091e+01 1.839361054051e+00 0.0 
1.839361054051e+00 -2.508448991370e+02 0.0 
0.0 0.0 -1.028543830214e+02 
-8.285524466134e+01 4.088390575768e+00 0.0 
4.088390575768e+00 -2.347371470888e+02 0.0 
0.0 0.0 -9.487771752504e+01 
-7.838245673759e+01 7.025277541724e+00 0.0 
7.025277541724e+00 -1.534992282881e+02 0.0 
0.0 0.0 -6.916450550770e+01 
-8.076680635969e+01 6.685702207107e+00 0.0 
6.685702207107e+00 -1.644316781710e+02 0.0 
0.0 0.0 -7.315954535920e+01 
-5.193435109227e+01 1.840231096388e+00 0.0 
1.840231096388e+00 -8.287537765760e+01 0.0 
0.0 0.0 -4.004291862496e+01 
-4.747362518300e+01 1.154078869989e+00 0.0 
1.154078869989e+00 -7.364498184131e+01 0.0 
0.0 0.0 -3.593558210729e+01 
-2.765468719537e+01 -2.415054361438e+00 0.0 
-2.415054361438e+00 -7.572096380891e+01 0.0 
0.0 0.0 -3.061269530128e+01 
-2.511101385526e+01 -2.605298373167e+00 0.0 
-2.605298373167e+00 -6.730437650941e+01 0.0 
0.0 0.0 -2.732461710940e+01 
-8.017468519934e+01 1.788984756756e+00 0.0 
1.788984756756e+00 -2.244712844301e+02 0.0 
0.0 0.0 -9.099379088884e+01 
-1.249780776621e+02 8.375316435209e+00 0.0 
8.375316435209e+00 -3.186281768200e+02 0.0 
0.0 0.0 -1.326818763446e+02 
-8.659660615127e+01 1.437537608300e+01 0.0 
1.437537608300e+01 -1.664531789454e+02 0.0 
0.0 0.0 -7.551493552901e+01 
-9.055566935196e+01 1.699360169425e+01 0.0 
1.699360169425e+01 -1.792293557586e+02 0.0 
0.0 0.0 -8.053550753315e+01 
-8.904621472969e+01 1.781967409042e+01 0.0 
1.781967409042e+01 -1.710572660547e+02 0.0 
0.0 0.0 -7.763104423532e+01 
-1.232569634054e+02 1.275840515961e+01 0.0 
1.275840515961e+01 -3.164010801329e+02 0.0 
0.0 0.0 -1.314974130615e+02 
-4.615374358365e+01 5.701257477252e+00 0.0 
5.701257477252e+00 -1.474436710009e+02 0.0 
0.0 0.0 -5.767922437535e+01 
-7.862353439393e+01 9.963742320611e+00 0.0 
9.963742320611e+00 -2.295025295438e+02 0.0 
0.0 0.0 -9.203781918133e+01 
-2.463318424654e+01 -6.248919227806e-01 0.0 
-6.248919227806e-01 -6.073885551586e+01 0.0 
0.0 0.0 -2.521161192872e+01 
-7.335605642508e+01 2.048485686655e+01 0.0 
2.048485686655e+01 -2.012564567935e+02 0.0 
0.0 0.0 -8.198375396557e+01 
-2.136115072715e+01 -2.174853680818e+00 0.0 
-2.174853680818e+00 -5.615630689304e+01 0.0 
0.0 0.0 -2.285523728606e+01 
-8.344089793247e+01 2.645519956708e+01 0.0 
2.645519956708e+01 -1.857765502922e+02 0.0 
0.0 0.0 -8.036523446741e+01 
-1.297311942292e+02 1.779264361007e+00 0.0 
1.779264361007e+00 -3.230869407451e+02 0.0 
0.0 0.0 -1.354454404923e+02 
-1.348901118864e+02 2.563720878332e+00 0.0 
2.563720878332e+00 -3.332022086492e+02 0.0 
0.0 0.0 -1.400276961607e+02 
-1.167779221870e+02 2.284202290957e+01 0.0 
2.284202290957e+01 -2.970024841326e+02 0.0 
0.0 0.0 -1.237341218959e+02 
-4.891099058824e+01 1.753678617456e+01 0.0 
1.753678617456e+01 -5.722651023626e+01 0.0 
0.0 0.0 -3.144125024735e+01 
-7.780443029888e+01 1.974247632426e+01 0.0 
1.974247632426e+01 -2.150586614478e+02 0.0 
0.0 0.0 -8.745892752402e+01 
-7.431349425606e+01 1.790092896347e+01 0.0 
1.790092896347e+01 -2.107092785545e+02 0.0 
0.0 0.0 -8.510683184317e+01 
-4.629883264860e+01 2.279856674258e+01 0.0 
2.279856674258e+01 -7.243168120968e+01 0.0 
0.0 0.0 -3.521915415748e+01 
-4.305787032223e+01 2.299260969560e+01 0.0 
2.299260969560e+01 -7.149788680255e+01 0.0 
0.0 0.0 -3.396672713743e+01 
-4.674867856067e+01 2.360203303459e+01 0.0 
2.360203303459e+01 -8.970349004054e+01 0.0 
0.0 0.0 -4.053565058036e+01 
-4.037366079655e+01 2.268613698606e+01 0.0 
2.268613698606e+01 -7.089739393417e+01 0.0 
0.0 0.0 -3.298131641921e+01 
-4.734411350575e+01 -1.258013049948e+00 0.0 
-1.258013049948e+00 -1.421316173652e+02 0.0 
0.0 0.0 -5.644271926128e+01 
-4.457071620768e+01 -1.968852896684e+00 0.0 
-1.968852896684e+00 -1.319434671379e+02 0.0 
0.0 0.0 -5.255425500368e+01 
-1.108346919396e+02 2.877550292572e+01 0.0 
2.877550292572e+01 -2.688786185095e+02 0.0 
0.0 0.0 -1.135139931347e+02 
-1.119225981012e+02 2.693929507064e+01 0.0 
2.693929507064e+01 -2.780194915507e+02 0.0 
0.0 0.0 -1.165826268956e+02 
-1.079031455884e+02 2.956021233872e+01 0.0 
2.956021233872e+01 -2.554761985231e+02 0.0 
0.0 0.0 -1.086138032334e+02 
-1.036000765044e+02 2.903733316918e+01 0.0 
2.903733316918e+01 -2.407822545305e+02 0.0 
0.0 0.0 -1.029146993105e+02 
-1.230445296374e+02 2.240758412921e+01 0.0 
2.240758412921e+01 -3.096778393755e+02 0.0 
0.0 0.0 -1.294167107039e+02 
-1.184852614742e+02 2.027881064599e+01 0.0 
2.027881064599e+01 -3.036728646513e+02 0.0 
0.0 0.0 -1.262474378376e+02 
-4.231946043597e+01 -8.976379208727e-01 0.0 
-8.976379208727e-01 -1.182480020110e+02 0.0 
0.0 0.0 -4.777023873408e+01 
-3.614652998820e+01 2.124771366295e+01 0.0 
2.124771366295e+01 -6.952686365658e+01 0.0 
0.0 0.0 -3.130201809343e+01 
-8.629328973572e+01 1.088916059132e+01 0.0 
1.088916059132e+01 -1.745827441797e+02 0.0 
0.0 0.0 -7.786281017463e+01 
-4.962469384713e+01 2.201187805129e+01 0.0 
2.201187805129e+01 -7.362877901331e+01 0.0 
0.0 0.0 -3.657604185813e+01 
-1.353710177706e+02 9.345049297605e+00 0.0 
9.345049297605e+00 -3.368666273300e+02 0.0 
0.0 0.0 -1.412712935302e+02 
-1.303495872857e+02 7.893801520460e+00 0.0 
7.893801520460e+00 -3.278459702970e+02 0.0 
0.0 0.0 -1.370586672748e+02 
-2.211534935191e+01 -7.566075382029e-01 0.0 
-7.566075382029e-01 -4.261395645409e+01 0.0 
0.0 0.0 -1.901879174180e+01 
-2.308558875692e+01 -1.722876571156e+00 0.0 
-1.722876571156e+00 -5.081019095970e+01 0.0 
0.0 0.0 -2.176873391499e+01 
-7.935416580960e+01 3.049082082669e+00 0.0 
3.049082082669e+00 -1.671358607068e+02 0.0 
0.0 0.0 -7.354700795492e+01 
-2.857451190860e+01 1.549866259584e+01 0.0 
1.549866259584e+01 -6.074550719884e+01 0.0 
0.0 0.0 -2.639600573223e+01 
-2.977713471782e+01 1.680958582382e+01 0.0 
1.680958582382e+01 -6.249776788446e+01 0.0 
0.0 0.0 -2.728247078068e+01 
-2.718331389525e+01 1.393611957278e+01 0.0 
1.393611957278e+01 -5.843095993476e+01 0.0 
0.0 0.0 -2.528428214900e+01 
-1.505897809706e+02 7.150565208548e-01 0.0 
7.150565208548e-01 -3.615796517655e+02 0.0 
0.0 0.0 -1.532508298208e+02 
-3.003525933051e+01 1.698102980025e-02 0.0 
1.698102980025e-02 -3.558201426509e+01 0.0 
0.0 0.0 -1.928518207868e+01 
-1.397754555303e+02 1.996376031880e+00 0.0 
1.996376031880e+00 -3.419140915904e+02 0.0 
0.0 0.0 -1.441068641362e+02 
-4.729002125747e+01 2.297656867078e+01 0.0 
2.297656867078e+01 -1.060204932584e+02 0.0 
0.0 0.0 -4.559315435475e+01 
-8.287120314314e+01 4.240890083678e+00 0.0 
4.240890083678e+00 -1.772148787634e+02 0.0 
0.0 0.0 -7.762582457196e+01 
-8.255882099805e+01 1.904658767750e+01 0.0 
1.904658767750e+01 -2.285582484971e+02 0.0 
0.0 0.0 -9.293512084854e+01 
-4.557163914507e+01 1.721514514334e+01 0.0 
1.721514514334e+01 -1.305835197746e+02 0.0 
0.0 0.0 -5.244654767589e+01 
-1.130191573507e+02 1.143169527130e+01 0.0 
1.143169527130e+01 -2.981198679270e+02 0.0 
0.0 0.0 -1.229417075833e+02 
-7.558377293709e+01 2.000473795747e+00 0.0 
2.000473795747e+00 -1.561090314182e+02 0.0 
0.0 0.0 -6.910784130658e+01 
-8.237475668104e+01 2.380675558968e+00 0.0 
2.380675558968e+00 -1.785857520579e+02 0.0 
0.0 0.0 -7.788815262170e+01 
-4.959824180256e+01 2.464732352117e+00 0.0 
2.464732352117e+00 -7.086150430737e+01 0.0 
0.0 0.0 -3.573792383298e+01 
-4.400946461928e+01 1.486980080035e+00 0.0 
1.486980080035e+00 -6.078336669801e+01 0.0 
0.0 0.0 -3.103784939519e+01 
-5.488730993102e+01 3.973949650102e+00 0.0 
3.973949650102e+00 -8.023691625575e+01 0.0 
0.0 0.0 -4.013726785603e+01 
-2.550445512132e+01 3.955933126374e+00 0.0 
3.955933126374e+00 -6.727475652083e+01 0.0 
0.0 0.0 -2.743376349265e+01 
-2.250199707999e+01 4.047824216803e+00 0.0 
4.047824216803e+00 -4.836592433921e+01 0.0 
0.0 0.0 -2.086037642576e+01 
-7.701904868982e+01 5.151523668356e+00 0.0 
5.151523668356e+00 -1.545406897940e+02 0.0 
0.0 0.0 -6.906792154515e+01 
-5.045405068706e+01 -1.233891618451e+00 0.0 
-1.233891618451e+00 -1.413316850796e+02 0.0 
0.0 0.0 -5.713572073000e+01 
-5.444701473637e+01 -9.331402315709e-01 0.0 
-9.331402315709e-01 -1.520433437887e+02 0.0 
0.0 0.0 -6.154710755751e+01 
-3.249152601230e+01 -2.987941415149e+00 0.0 
-2.987941415149e+00 -9.079868326889e+01 0.0 
0.0 0.0 -3.658706278436e+01 
-3.846003177762e+01 -2.740721842593e+00 0.0 
-2.740721842593e+00 -1.102222041636e+02 0.0 
0.0 0.0 -4.420467078238e+01 
-8.100943030555e+01 5.493194636817e-01 0.0 
5.493194636817e-01 -2.214731408420e+02 0.0 
0.0 0.0 -9.034477134426e+01 
-7.692221140120e+01 4.207728009568e-01 0.0 
4.207728009568e-01 -2.127973732026e+02 0.0 
0.0 0.0 -8.651587538115e+01 
-8.755163314764e+01 2.677771926329e+01 0.0 
2.677771926329e+01 -2.021032142763e+02 0.0 
0.0 0.0 -8.649645422718e+01 
-9.106806088471e+01 2.725438981012e+01 0.0 
2.725438981012e+01 -2.052790333403e+02 0.0 
0.0 0.0 -8.850412826749e+01 
-8.009852692533e+01 2.520522696314e+01 0.0 
2.520522696314e+01 -1.961000531719e+02 0.0 
0.0 0.0 -8.245957402917e+01 
-9.365808804947e+01 8.618499635049e+00 0.0 
8.618499635049e+00 -2.606771646796e+02 0.0 
0.0 0.0 -1.059005758187e+02 
-8.490861208658e+01 7.272801359322e+00 0.0 
7.272801359322e+00 -2.422810653230e+02 0.0 
0.0 0.0 -9.775690322288e+01 
-8.005106044926e+01 7.646357233852e+00 0.0 
7.646357233852e+00 -2.322573692796e+02 0.0 
0.0 0.0 -9.329252891865e+01 
-8.405131607086e+01 8.346471291767e+00 0.0 
8.346471291767e+00 -1.738709729447e+02 0.0 
0.0 0.0 -7.697668670467e+01 
-8.700675577016e+01 7.824346826872e+00 0.0 
7.824346826872e+00 -1.872166777253e+02 0.0 
0.0 0.0 -8.186703004863e+01 
-4.997273155321e+01 -2.994104751520e-01 0.0 
-2.994104751520e-01 -1.518183613616e+02 0.0 
0.0 0.0 -6.013732787443e+01 
-4.645603142566e+01 -1.698762698036e-01 0.0 
-1.698762698036e-01 -1.428385668213e+02 0.0 
0.0 0.0 -5.638837947408e+01 
-5.070265453146e+01 -1.205808707584e+00 0.0 
-1.205808707584e+00 -1.505806730929e+02 0.0 
0.0 0.0 -5.998499828730e+01 
-8.992229357806e+01 1.308889596877e+01 0.0 
1.308889596877e+01 -1.857028809191e+02 0.0 
0.0 0.0 -8.228755234914e+01 
-1.448164591049e+02 2.800468725649e+00 0.0 
2.800468725649e+00 -3.516292530326e+02 0.0 
0.0 0.0 -1.485337136412e+02 
-1.400970075415e+02 3.473450218599e+00 0.0 
3.473450218599e+00 -3.431487898524e+02 0.0 
0.0 0.0 -1.445737392182e+02 
-1.920087653827e+01 -2.200863586775e+00 0.0 
-2.200863586775e+00 -4.794157843837e+01 0.0 
0.0 0.0 -1.974273649299e+01 
-2.263860564460e+01 -2.631469032547e+00 0.0 
-2.631469032547e+00 -5.871439858587e+01 0.0 
0.0 0.0 -2.400590126914e+01 
-2.453259391562e+01 1.024472544924e+01 0.0 
1.024472544924e+01 -5.205444396666e+01 0.0 
0.0 0.0 -2.257611136469e+01 
-2.323980523704e+01 8.187186561587e+00 0.0 
8.187186561587e+00 -4.784032390522e+01 0.0 
0.0 0.0 -2.092403874268e+01 
-9.404528771862e+01 1.955057875228e+01 0.0 
1.955057875228e+01 -1.921250751189e+02 0.0 
0.0 0.0 -8.545110885126e+01 
-9.302688695679e+01 2.047651770815e+01 0.0 
2.047651770815e+01 -1.852630130645e+02 0.0 
0.0 0.0 -8.308697000639e+01 
-9.586315908294e+01 1.891252362336e+01 0.0 
1.891252362336e+01 -2.021853227222e+02 0.0 
0.0 0.0 -8.901454454155e+01 
-3.793803878131e+01 -7.118169369046e-01 0.0 
-7.118169369046e-01 -1.056926932695e+02 0.0 
0.0 0.0 -4.268921961524e+01 
-9.508875559314e+01 2.204706777545e+01 0.0 
2.204706777545e+01 -2.512226771654e+02 0.0 
0.0 0.0 -1.034934298276e+02 
-1.335577001023e+02 1.407981113493e+01 0.0 
1.407981113493e+01 -3.337446392090e+02 0.0 
0.0 0.0 -1.397907017934e+02 
-1.273601364160e+02 1.467488788955e+01 0.0 
1.467488788955e+01 -3.234170294665e+02 0.0 
0.0 0.0 -1.348331497648e+02 
-1.409184322812e+02 1.360197516022e+01 0.0 
1.360197516022e+01 -3.462172468040e+02 0.0 
0.0 0.0 -1.457407037256e+02 
-1.106436511833e+02 2.324641999577e+01 0.0 
2.324641999577e+01 -2.837777991437e+02 0.0 
0.0 0.0 -1.179264350981e+02 
-1.206330628658e+02 2.473210712970e+01 0.0 
2.473210712970e+01 -3.016303479871e+02 0.0 
0.0 0.0 -1.262790232559e+02 
-1.182061809794e+02 2.675572199319e+01 0.0 
2.675572199319e+01 -2.922492573612e+02 0.0 
0.0 0.0 -1.227366315022e+02 
-2.073927473829e+01 2.185043923943e-01 0.0 
2.185043923943e-01 -3.423637392206e+01 0.0 
0.0 0.0 -1.609269459811e+01 
-7.991244392917e+01 1.585449022413e+00 0.0 
1.585449022413e+00 -1.712635527470e+02 0.0 
0.0 0.0 -7.495279900285e+01 
-4.302229672459e+01 9.266395143750e-01 0.0 
9.266395143750e-01 -6.199813551993e+01 0.0 
0.0 0.0 -3.110612967336e+01 
-2.082151378049e+01 -5.141111533620e-01 0.0 
-5.141111533620e-01 -2.726122185877e+01 0.0 
0.0 0.0 -1.416521148273e+01 
-3.859316376606e+01 4.802966055277e-01 0.0 
4.802966055277e-01 -5.307392423273e+01 0.0 
0.0 0.0 -2.710012639964e+01 
-4.300007066353e+01 6.753251895656e-01 0.0 
6.753251895656e-01 -6.441160823701e+01 0.0 
0.0 0.0 -3.182350367016e+01 
-3.382312318633e+01 2.249262425055e-01 0.0 
2.249262425055e-01 -4.302093630898e+01 0.0 
0.0 0.0 -2.265321784859e+01 
-3.094424337031e+01 -7.245487227846e-01 0.0 
-7.245487227846e-01 -8.621168260475e+01 0.0 
0.0 0.0 -3.474677779252e+01 
-4.409948951651e+01 2.160084436493e+00 0.0 
2.160084436493e+00 -5.673563755773e+01 0.0 
0.0 0.0 -2.985053812227e+01 
-5.149711516298e+01 4.129087457477e+00 0.0 
4.129087457477e+00 -6.979883577073e+01 0.0 
0.0 0.0 -3.598878528011e+01 
-1.623445447268e+01 -2.105014200321e+00 0.0 
-2.105014200321e+00 -3.622636757563e+01 0.0 
0.0 0.0 -1.544885987327e+01 
-9.099717465716e+01 1.219251319014e+01 0.0 
1.219251319014e+01 -1.952482541326e+02 0.0 
0.0 0.0 -8.547362863692e+01 
-1.532899448574e+01 -1.707789692879e+00 0.0 
-1.707789692879e+00 -3.767098609903e+01 0.0 
0.0 0.0 -1.549856331829e+01 
-1.769731160319e+01 -1.649847361046e+00 0.0 
-1.649847361046e+00 -4.563515581460e+01 0.0 
0.0 0.0 -1.859974022534e+01 
-1.408329495189e+02 8.725617321768e+00 0.0 
8.725617321768e+00 -3.461893515212e+02 0.0 
0.0 0.0 -1.457066903120e+02 
-1.355886868719e+02 7.350508647176e+00 0.0 
7.350508647176e+00 -3.367910758042e+02 0.0 
0.0 0.0 -1.413139288028e+02 
-1.457930809126e+02 8.095797940540e+00 0.0 
8.095797940540e+00 -3.545467570113e+02 0.0 
0.0 0.0 -1.497019513772e+02 
-1.404844022638e+02 6.740164522799e+00 0.0 
6.740164522799e+00 -3.449803333030e+02 0.0 
0.0 0.0 -1.452394206700e+02 
-1.305108306767e+02 6.108328963302e+00 0.0 
6.108328963302e+00 -3.271607301835e+02 0.0 
0.0 0.0 -1.369014682580e+02 
-1.357137863689e+02 5.602824771136e+00 0.0 
5.602824771136e+00 -3.362133210741e+02 0.0 
0.0 0.0 -1.411781322329e+02 
-3.857362199744e+01 7.493833701275e-01 0.0 
7.493833701275e-01 -5.086861217119e+01 0.0 
0.0 0.0 -2.643267025059e+01 
-1.472096937848e+02 6.317509639209e+00 0.0 
6.317509639209e+00 -3.564787763618e+02 0.0 
0.0 0.0 -1.507065410440e+02 
-1.411001102642e+02 5.025894445953e+00 0.0 
5.025894445953e+00 -3.454013468303e+02 0.0 
0.0 0.0 -1.455504371284e+02 
-1.523222229944e+02 5.586790466647e+00 0.0 
5.586790466647e+00 -3.657285889712e+02 0.0 
0.0 0.0 -1.550152435897e+02 
-3.662619697715e+01 2.176680581679e+01 0.0 
2.176680581679e+01 -5.223713136305e+01 0.0 
0.0 0.0 -2.625899850206e+01 
-3.297146306783e+01 1.720604477318e+01 0.0 
1.720604477318e+01 -8.005567198692e+01 0.0 
0.0 0.0 -3.350814051643e+01 
-3.104576053378e+01 1.800236434320e+01 0.0 
1.800236434320e+01 -6.426447475921e+01 0.0 
0.0 0.0 -2.819307058790e+01 
-2.858909881390e+01 1.783204819102e+01 0.0 
1.783204819102e+01 -4.527267346857e+01 0.0 
0.0 0.0 -2.175853168474e+01 
-1.122919625308e+02 3.092216687068e+01 0.0 
3.092216687068e+01 -2.622414545196e+02 0.0 
0.0 0.0 -1.119600251151e+02 
-1.060304610290e+02 2.960599975941e+01 0.0 
2.960599975941e+01 -2.433782975152e+02 0.0 
0.0 0.0 -1.044226275633e+02 
-1.247654708859e+02 1.099435196689e+00 0.0 
1.099435196689e+00 -3.132391638617e+02 0.0 
0.0 0.0 -1.310013904243e+02 
-1.152223871331e+02 8.894407205435e-01 0.0 
8.894407205435e-01 -2.941058613856e+02 0.0 
0.0 0.0 -1.223984745556e+02 
-3.819624535733e+01 2.939133136996e-01 0.0 
2.939133136996e-01 -5.418877214862e+01 0.0 
0.0 0.0 -2.731550525179e+01 
-3.747223589120e+01 2.365078036207e-01 0.0 
2.365078036207e-01 -5.314442629942e+01 0.0 
0.0 0.0 -2.678499865718e+01 
-4.491202537715e+01 3.882677808330e-01 0.0 
3.882677808330e-01 -7.102766598787e+01 0.0 
0.0 0.0 -3.438190740951e+01 
-4.361529728512e+01 3.593607208876e-01 0.0 
3.593607208876e-01 -6.861632701323e+01 0.0 
0.0 0.0 -3.326948728950e+01 
-5.084814216372e+01 5.592299551350e-01 0.0 
5.592299551350e-01 -8.665288228245e+01 0.0 
0.0 0.0 -4.085030733385e+01 
-4.958698319451e+01 4.730566712862e-01 0.0 
4.730566712862e-01 -8.393147839611e+01 0.0 
0.0 0.0 -3.965553847719e+01 
-5.680805996383e+01 9.276765558039e-01 0.0 
9.276765558039e-01 -1.024148701073e+02 0.0 
0.0 0.0 -4.736687902134e+01 
-1.217292492584e+02 2.886323013213e+01 0.0 
2.886323013213e+01 -2.960955950800e+02 0.0 
0.0 0.0 -1.249474533015e+02 
-2.665413893782e+01 1.567458289483e+01 0.0 
1.567458289483e+01 -4.403886570342e+01 0.0 
0.0 0.0 -2.080790139237e+01 
-4.256546842799e+01 2.114378803656e+01 0.0 
2.114378803656e+01 -5.327781726697e+01 0.0 
0.0 0.0 -2.835298570849e+01 
-1.291412565020e+02 2.186824206460e+01 0.0 
2.186824206460e+01 -3.216197302424e+02 0.0 
0.0 0.0 -1.348282960233e+02 
-1.236894692945e+02 1.961198258871e+01 0.0 
1.961198258871e+01 -3.139994596651e+02 0.0 
0.0 0.0 -1.309066786879e+02 
-3.800012032356e+01 2.199582899016e+01 0.0 
2.199582899016e+01 -7.014649137088e+01 0.0 
0.0 0.0 -3.204398350833e+01 
-3.320461864165e+01 2.078118243487e+01 0.0 
2.078118243487e+01 -5.141484285460e+01 0.0 
0.0 0.0 -2.498583844887e+01 
-1.420151765377e+02 1.098905618250e+01 0.0 
1.098905618250e+01 -3.484267959639e+02 0.0 
0.0 0.0 -1.467325917505e+02 
-4.047359510193e+01 1.330643892511e+01 0.0 
1.330643892511e+01 -1.224779038359e+02 0.0 
0.0 0.0 -4.848544968136e+01 
-9.474851464868e+01 1.478311445665e+01 0.0 
1.478311445665e+01 -2.095977796080e+02 0.0 
0.0 0.0 -9.090388827699e+01 
-1.837359364183e+01 3.836748312558e+00 0.0 
3.836748312558e+00 -1.345903285205e+01 0.0 
0.0 0.0 -9.511493527265e+00 
-2.038159091960e+01 3.373532989566e+00 0.0 
3.373532989566e+00 -2.953355998762e+01 0.0 
0.0 0.0 -1.468683992700e+01 
-4.285210997722e+01 1.528712380190e+01 0.0 
1.528712380190e+01 -1.265145641989e+02 0.0 
0.0 0.0 -5.041000225284e+01 
-4.387836899792e+01 2.303087760604e+01 0.0 
2.303087760604e+01 -8.874240028166e+01 0.0 
0.0 0.0 -3.938623078388e+01 
-3.476678635364e+01 1.855421490200e+01 0.0 
1.855421490200e+01 -8.215799647910e+01 0.0 
0.0 0.0 -3.467743484982e+01 
-3.285374107930e+01 1.933669876887e+01 0.0 
1.933669876887e+01 -6.668658619789e+01 0.0 
0.0 0.0 -2.946209818316e+01 
-1.029961226747e+02 1.001185519882e+01 0.0 
1.001185519882e+01 -2.793070651163e+02 0.0 
0.0 0.0 -1.142909563373e+02 
-2.096505230571e+01 -2.722581039568e+00 0.0 
-2.722581039568e+00 -5.098561062511e+01 0.0 
0.0 0.0 -2.118519887924e+01 
-2.592898249650e+01 1.221565910102e+01 0.0 
1.221565910102e+01 -5.569789340264e+01 0.0 
0.0 0.0 -2.408806276974e+01 
-5.817004541258e+01 1.151166797383e+00 0.0 
1.151166797383e+00 -1.046934562701e+02 0.0 
0.0 0.0 -4.845905050480e+01 
-2.432433962867e+01 1.273084255560e+01 0.0 
1.273084255560e+01 -3.992873308703e+01 0.0 
0.0 0.0 -1.887592181471e+01 
-1.203471111159e+02 4.908929103111e-01 0.0 
4.908929103111e-01 -3.042255107429e+02 0.0 
0.0 0.0 -1.269717865577e+02 
-4.377279687920e+01 1.206189962203e+01 0.0 
1.206189962203e+01 -1.357700360227e+02 0.0 
0.0 0.0 -5.346284987057e+01 
-5.072685791579e+01 2.260164948802e+01 0.0 
2.260164948802e+01 -1.226962511444e+02 0.0 
0.0 0.0 -5.162693271805e+01 
-2.828237276115e+01 1.206087692014e+01 0.0 
1.206087692014e+01 -7.180610202848e+01 0.0 
0.0 0.0 -2.962654243689e+01 
-3.534930331081e+01 1.605142216444e+01 0.0 
1.605142216444e+01 -9.543435354839e+01 0.0 
0.0 0.0 -3.883509705776e+01 
-6.474462103225e+01 2.341515042430e+01 0.0 
2.341515042430e+01 -1.147141301156e+02 0.0 
0.0 0.0 -5.343762534436e+01 
-5.663838600658e+01 1.897478545137e+01 0.0 
1.897478545137e+01 -7.881520176086e+01 0.0 
0.0 0.0 -4.023607633023e+01 
-5.320218953052e+01 2.077474345729e+01 0.0 
2.077474345729e+01 -7.575432577973e+01 0.0 
0.0 0.0 -3.828695459307e+01 
-4.727342290792e+01 1.085426000917e+01 0.0 
1.085426000917e+01 -1.483366238297e+02 0.0 
0.0 0.0 -5.828301402127e+01 
-3.431116736012e+01 2.028804241335e+01 0.0 
2.028804241335e+01 -6.819411552874e+01 0.0 
0.0 0.0 -3.035158486666e+01 
-3.050213379578e+01 1.946407129486e+01 0.0 
1.946407129486e+01 -4.770407884699e+01 0.0 
0.0 0.0 -2.306186379283e+01 
-6.090427262947e+01 2.485833747568e+01 0.0 
2.485833747568e+01 -1.278778556587e+02 0.0 
0.0 0.0 -5.623463848645e+01 
-8.721552675760e+01 1.867543799502e+01 0.0 
1.867543799502e+01 -1.635012966667e+02 0.0 
0.0 0.0 -7.481504702729e+01 
-9.105929837479e+01 2.120354603557e+01 0.0 
2.120354603557e+01 -1.780570475319e+02 0.0 
0.0 0.0 -8.033490377201e+01 
-9.649544886637e+01 2.287145258358e+01 0.0 
2.287145258358e+01 -1.990580977708e+02 0.0 
0.0 0.0 -8.826606399116e+01 
-9.494067704368e+01 2.356749595256e+01 0.0 
2.356749595256e+01 -1.931792538502e+02 0.0 
0.0 0.0 -8.603597926816e+01 
-8.893760874470e+01 2.210966031917e+01 0.0 
2.210966031917e+01 -1.717947542156e+02 0.0 
0.0 0.0 -7.781970888808e+01 
-9.279113680903e+01 2.428510028417e+01 0.0 
2.428510028417e+01 -1.874078021285e+02 0.0 
0.0 0.0 -8.365968168126e+01 
-9.859737843926e+01 2.563145908464e+01 0.0 
2.563145908464e+01 -2.083595172911e+02 0.0 
0.0 0.0 -9.168706871910e+01 
-9.692548302235e+01 2.619280624250e+01 0.0 
2.619280624250e+01 -2.039523557038e+02 0.0 
0.0 0.0 -8.986335161783e+01 
-1.039670719255e+02 2.810991110687e+01 0.0 
2.810991110687e+01 -2.280764808237e+02 0.0 
0.0 0.0 -9.921306582474e+01 
-1.008744076613e+02 2.793846266149e+01 0.0 
2.793846266149e+01 -2.200445862002e+02 0.0 
0.0 0.0 -9.587569815844e+01 
-9.387505277659e+01 2.644991705627e+01 0.0 
2.644991705627e+01 -1.984829841581e+02 0.0 
0.0 0.0 -8.730741108040e+01 
-9.763353982018e+01 2.770924338841e+01 0.0 
2.770924338841e+01 -2.140844740114e+02 0.0 
0.0 0.0 -9.311540414948e+01 
-1.044364366197e+02 2.927611259914e+01 0.0 
2.927611259914e+01 -2.339607923046e+02 0.0 
0.0 0.0 -1.011191686773e+02 
-9.058322681194e+01 2.664414982556e+01 0.0 
2.664414982556e+01 -1.934255897081e+02 0.0 
0.0 0.0 -8.480264495600e+01 
-1.338957386263e+02 2.400175223630e+01 0.0 
2.400175223630e+01 -3.273490954150e+02 0.0 
0.0 0.0 -1.379734502124e+02 
-4.886548777042e+01 1.604929006026e+01 0.0 
1.604929006026e+01 -1.443840292133e+02 0.0 
0.0 0.0 -5.757485509511e+01 
-2.196220193411e+01 1.725914517576e+00 0.0 
1.725914517576e+00 -4.235670571603e+01 0.0 
0.0 0.0 -1.889567229504e+01 
-2.125013282472e+01 5.524869760701e+00 0.0 
5.524869760701e+00 -3.615507335835e+01 0.0 
0.0 0.0 -1.682156185492e+01 
-5.389367455045e+01 2.366293088696e+01 0.0 
2.366293088696e+01 -1.244577710183e+02 0.0 
0.0 0.0 -5.310543367062e+01 
-1.081553438847e+02 2.937230815322e+01 0.0 
2.937230815322e+01 -2.450905018241e+02 0.0 
0.0 0.0 -1.055737537126e+02 
-1.037267217799e+02 2.552655740740e+01 0.0 
2.552655740740e+01 -2.318032570644e+02 0.0 
0.0 0.0 -1.002589936533e+02 
-3.643795126401e+01 9.152488340814e+00 0.0 
9.152488340814e+00 -1.135934787460e+02 0.0 
0.0 0.0 -4.460942900301e+01 
-1.214244990473e+02 3.312125408189e+01 0.0 
3.312125408189e+01 -2.849207244965e+02 0.0 
0.0 0.0 -1.215035670631e+02 
-5.720875231726e+01 2.279778699609e+01 0.0 
2.279778699609e+01 -9.412471849817e+01 0.0 
0.0 0.0 -4.500004124463e+01 
-2.887081593266e+01 4.361256509454e+00 0.0 
4.361256509454e+00 -8.457238136380e+01 0.0 
0.0 0.0 -3.363295918894e+01 
-1.268640172792e+02 3.235115241016e+01 0.0 
3.235115241016e+01 -3.007626682662e+02 0.0 
0.0 0.0 -1.278880056636e+02 
-8.503235640125e+01 1.966293180532e+01 0.0 
1.966293180532e+01 -1.564336708871e+02 0.0 
0.0 0.0 -7.203980818650e+01 
-8.238970156521e+01 2.077293562161e+01 0.0 
2.077293562161e+01 -1.498200222933e+02 0.0 
0.0 0.0 -6.926291715756e+01 
-7.836165175428e+01 1.816927236527e+01 0.0 
1.816927236527e+01 -1.344205969673e+02 0.0 
0.0 0.0 -6.343467461648e+01 
-1.002523476966e+02 2.161600940866e+01 0.0 
2.161600940866e+01 -2.231903736269e+02 0.0 
0.0 0.0 -9.663281639707e+01 
-6.054568348459e+01 5.984935925917e+00 0.0 
5.984935925917e+00 -9.088637518468e+01 0.0 
0.0 0.0 -4.502961760078e+01 
-1.369869945856e+02 2.822839048660e+01 0.0 
2.822839048660e+01 -3.280386111249e+02 0.0 
0.0 0.0 -1.391076817132e+02 
-8.062155186784e+01 1.454626200635e+01 0.0 
1.454626200635e+01 -2.313081381831e+02 0.0 
0.0 0.0 -9.317890701528e+01 
-7.569469819832e+01 1.524243863084e+01 0.0 
1.524243863084e+01 -2.188705858111e+02 0.0 
0.0 0.0 -8.796958520281e+01 
-6.778560332314e+01 1.403867758985e+01 0.0 
1.403867758985e+01 -2.010356012697e+02 0.0 
0.0 0.0 -8.024636137786e+01 
-9.004690635758e+01 2.486485455730e+01 0.0 
2.486485455730e+01 -1.819990639075e+02 0.0 
0.0 0.0 -8.121379107952e+01 
-1.444147099713e+02 2.176130863933e+01 0.0 
2.176130863933e+01 -3.475383933189e+02 0.0 
0.0 0.0 -1.471859309871e+02 
-1.357584518502e+02 1.954510881437e+01 0.0 
1.954510881437e+01 -3.351137866104e+02 0.0 
0.0 0.0 -1.408616715382e+02 
-1.374420972141e+02 1.814687184570e+01 0.0 
1.814687184570e+01 -3.386060769844e+02 0.0 
0.0 0.0 -1.424144522595e+02 
-1.266285048482e+02 1.735800143311e+01 0.0 
1.735800143311e+01 -3.209141630048e+02 0.0 
0.0 0.0 -1.338628003559e+02 
-1.478333396332e+02 1.853824721077e+01 0.0 
1.853824721077e+01 -3.551674788479e+02 0.0 
0.0 0.0 -1.505002455443e+02 
-1.138207969606e+02 3.199116277324e+01 0.0 
3.199116277324e+01 -2.619414791899e+02 0.0 
0.0 0.0 -1.123286828452e+02 
-1.165232735945e+02 3.278632897415e+01 0.0 
3.278632897415e+01 -2.702696125041e+02 0.0 
0.0 0.0 -1.156378658296e+02 
-4.077809236904e+01 -1.102031901420e+00 0.0 
-1.102031901420e+00 -1.243949505763e+02 0.0 
0.0 0.0 -4.915191288360e+01 
-4.307669378021e+01 1.165112831080e-01 0.0 
1.165112831080e-01 -1.337360340806e+02 0.0 
0.0 0.0 -5.264381835825e+01 
-4.888001902159e+01 1.146040200293e+00 0.0 
1.146040200293e+00 -1.518467243647e+02 0.0 
0.0 0.0 -5.981802301590e+01 
-4.532336513035e+01 1.544780920707e+00 0.0 
1.544780920707e+00 -1.423958170891e+02 0.0 
0.0 0.0 -5.591575466583e+01 
-3.979107637376e+01 5.496850507355e-01 0.0 
5.496850507355e-01 -1.242639739314e+02 0.0 
0.0 0.0 -4.881651509155e+01 
-4.189315532290e+01 2.075301434373e+00 0.0 
2.075301434373e+00 -1.326334996391e+02 0.0 
0.0 0.0 -5.195799648861e+01 
-4.756550617480e+01 3.155894266223e+00 0.0 
3.155894266223e+00 -1.504654595402e+02 0.0 
0.0 0.0 -5.900928971449e+01 
-3.860949471512e+01 2.795170029113e+00 0.0 
2.795170029113e+00 -1.225823314655e+02 0.0 
0.0 0.0 -4.795754785420e+01 
-9.876932821584e+01 2.830839224616e+01 0.0 
2.830839224616e+01 -2.247285304210e+02 0.0 
0.0 0.0 -9.664935759105e+01 
-1.508440381651e+02 1.542513726007e+01 0.0 
1.542513726007e+01 -3.615325169021e+02 0.0 
0.0 0.0 -1.533129665202e+02 
-9.135199410461e+01 5.303448758524e+00 0.0 
5.303448758524e+00 -2.534254246871e+02 0.0 
0.0 0.0 -1.030332256375e+02 
-8.636575688923e+01 5.479319389550e+00 0.0 
5.479319389550e+00 -2.437074190533e+02 0.0 
0.0 0.0 -9.862195278276e+01 
-7.813259835213e+01 4.213660831470e+00 0.0 
4.213660831470e+00 -2.251839979566e+02 0.0 
0.0 0.0 -9.059497889263e+01 
-6.914798954707e+01 -2.542327470728e-01 0.0 
-2.542327470728e-01 -1.934990259836e+02 0.0 
0.0 0.0 -7.839410465918e+01 
-7.285243033109e+01 2.647876716020e-01 0.0 
2.647876716020e-01 -2.040400127065e+02 0.0 
0.0 0.0 -8.266773291126e+01 
-8.076056825923e+01 1.051100714525e+00 0.0 
1.051100714525e+00 -2.232090790826e+02 0.0 
0.0 0.0 -9.079089420254e+01 
-6.538438671998e+01 -6.147086444107e-01 0.0 
-6.147086444107e-01 -1.827738902420e+02 0.0 
0.0 0.0 -7.404748308860e+01 
-8.517615313738e+01 2.305291458465e+01 0.0 
2.305291458465e+01 -2.230656596583e+02 0.0 
0.0 0.0 -9.207254383869e+01 
-1.519264448220e+02 1.403320746334e+01 0.0 
1.403320746334e+01 -3.637021169717e+02 0.0 
0.0 0.0 -1.542885685381e+02 
-8.351371823313e+01 9.447188196607e+00 0.0 
9.447188196607e+00 -2.401217528845e+02 0.0 
0.0 0.0 -9.669064133529e+01 
-6.879815212016e+01 8.615909160675e-02 0.0 
8.615909160675e-02 -1.951980162283e+02 0.0 
0.0 0.0 -7.879885050453e+01 
-3.775441873154e+01 2.897218573501e+00 0.0 
2.897218573501e+00 -3.840582178143e+01 0.0 
0.0 0.0 -2.244807215389e+01 
-4.871589250154e+01 5.908378504902e+00 0.0 
5.908378504902e+00 -5.773256602521e+01 0.0 
0.0 0.0 -3.153453755802e+01 
-5.176131227462e+01 8.821933231520e+00 0.0 
8.821933231520e+00 -6.058471889975e+01 0.0 
0.0 0.0 -3.330380935231e+01 
-5.959801778562e+01 9.767297047237e+00 0.0 
9.767297047237e+00 -8.022261976190e+01 0.0 
0.0 0.0 -4.154619126426e+01 
-4.736044785341e+01 4.337648672074e+00 0.0 
4.337648672074e+00 -5.803345221883e+01 0.0 
0.0 0.0 -3.121817002167e+01 
-8.507001713231e+01 6.424144032211e-01 0.0 
6.424144032211e-01 -2.301239878781e+02 0.0 
0.0 0.0 -9.415820150313e+01 
-8.910900211103e+01 6.745276166528e-01 0.0 
6.745276166528e-01 -2.387180226222e+02 0.0 
0.0 0.0 -9.794810741997e+01 
-8.486666214685e+01 3.060981806874e-01 0.0 
3.060981806874e-01 -2.282599964005e+02 0.0 
0.0 0.0 -9.353799756421e+01 
-9.316018152128e+01 6.411198182481e-01 0.0 
6.411198182481e-01 -2.472457457622e+02 0.0 
0.0 0.0 -1.017217781851e+02 
-8.861119803740e+01 3.453901728506e-01 0.0 
3.453901728506e-01 -2.363550792794e+02 0.0 
0.0 0.0 -9.708988319503e+01 
-8.109546443990e+01 1.324375191135e-01 0.0 
1.324375191135e-01 -2.186689800384e+02 0.0 
0.0 0.0 -8.952933334351e+01 
-9.707100517590e+01 5.460713625910e-01 0.0 
5.460713625910e-01 -2.553726507651e+02 0.0 
0.0 0.0 -1.053330967823e+02 
-9.173213898562e+01 1.878159608186e-01 0.0 
1.878159608186e-01 -2.431798984063e+02 0.0 
0.0 0.0 -1.000736112176e+02 
-3.444751198551e+01 1.069150127164e+00 0.0 
1.069150127164e+00 -3.706154029883e+01 0.0 
0.0 0.0 -2.105271568530e+01 
-1.810907609641e+01 -1.342347002154e+00 0.0 
-1.342347002154e+00 -1.713953983968e+01 0.0 
0.0 0.0 -1.056444458703e+01 
-1.986886903719e+01 -2.310088817836e+00 0.0 
-2.310088817836e+00 -3.379734730893e+01 0.0 
0.0 0.0 -1.582780772933e+01 
-1.915640642130e+01 -2.341555670328e+00 0.0 
-2.341555670328e+00 -3.348076125565e+01 0.0 
0.0 0.0 -1.551969976627e+01 
-2.241512995755e+01 -2.812084621320e+00 0.0 
-2.812084621320e+00 -4.931997055693e+01 0.0 
0.0 0.0 -2.112053015434e+01 
-2.276853048480e+01 -2.478372935628e+00 0.0 
-2.478372935628e+00 -5.028383307905e+01 0.0 
0.0 0.0 -2.151570906916e+01 
-2.619109261297e+01 -2.680026183747e+00 0.0 
-2.680026183747e+00 -6.725276734602e+01 0.0 
0.0 0.0 -2.763315798770e+01 
-2.568413612233e+01 -2.079512084760e+00 0.0 
-2.079512084760e+00 -6.442684618815e+01 0.0 
0.0 0.0 -2.663329469314e+01 
-2.046367000855e+01 -1.940507452963e+00 0.0 
-1.940507452963e+00 -3.366204056630e+01 0.0 
0.0 0.0 -1.597813952284e+01 
-1.545841324721e+01 -1.446019922011e+00 0.0 
-1.446019922011e+00 -1.700105200374e+01 0.0 
0.0 0.0 -9.728545478539e+00 
-1.815607469905e+01 -2.369911665980e+00 0.0 
-2.369911665980e+00 -3.351942095932e+01 0.0 
0.0 0.0 -1.523940904521e+01 
-1.399262064328e+01 -1.401259238847e+00 0.0 
-1.401259238847e+00 -1.684775179229e+01 0.0 
0.0 0.0 -9.247313055814e+00 
-1.714338098464e+01 -2.330605718051e+00 0.0 
-2.330605718051e+00 -3.308894253406e+01 0.0 
0.0 0.0 -1.480454649934e+01 
-2.206052173288e+01 -2.948543127009e+00 0.0 
-2.948543127009e+00 -5.199835436932e+01 0.0 
0.0 0.0 -2.181766283066e+01 
-2.886201080454e+01 -2.854108312955e+00 0.0 
-2.854108312955e+00 -7.891790808827e+01 0.0 
0.0 0.0 -3.193397566784e+01 
-1.559037759902e+02 3.108131656780e+00 0.0 
3.108131656780e+00 -3.714033444570e+02 0.0 
0.0 0.0 -1.577921361342e+02 
-6.905248476740e+01 -1.326874650305e-01 0.0 
-1.326874650305e-01 -1.887880790506e+02 0.0 
0.0 0.0 -7.695216914539e+01 
-6.517626396876e+01 -3.739343352253e-01 0.0 
-3.739343352253e-01 -1.792944351863e+02 0.0 
0.0 0.0 -7.294120974652e+01 
-5.802568479021e+01 -5.040667840299e-01 0.0 
-5.040667840299e-01 -1.603179217050e+02 0.0 
0.0 0.0 -6.510308194858e+01 
-6.174323066202e+01 -5.192244689604e-01 0.0 
-5.192244689604e-01 -1.705500918353e+02 0.0 
0.0 0.0 -6.928799674921e+01 
-7.194779706129e+01 -2.347692838018e-01 0.0 
-2.347692838018e-01 -1.965524335458e+02 0.0 
0.0 0.0 -8.015006918214e+01 
-5.413566939194e+01 -3.106679349498e-01 0.0 
-3.106679349498e-01 -1.498444760162e+02 0.0 
0.0 0.0 -6.079404362244e+01 
-5.149960844750e+01 -6.221965559439e-01 0.0 
-6.221965559439e-01 -1.427910643838e+02 0.0 
0.0 0.0 -5.788720184940e+01 
-5.858572985081e+00 -2.926321320951e-01 0.0 
-2.926321320951e-01 -1.721339306445e+01 0.0 
0.0 0.0 -6.909477144613e+00 
-1.172181536264e+01 -4.190571389039e-01 0.0 
-4.190571389039e-01 -3.384409124470e+01 0.0 
0.0 0.0 -1.337373225529e+01 
-1.104827291969e+01 -3.557158219619e-01 0.0 
-3.557158219619e-01 -3.218790011047e+01 0.0 
0.0 0.0 -1.260531869676e+01 
-1.770107717584e+01 -5.015869652473e-01 0.0 
-5.015869652473e-01 -5.068093419570e+01 0.0 
0.0 0.0 -2.011460341146e+01 
-1.796222569809e+01 -7.281002088225e-01 0.0 
-7.281002088225e-01 -5.033488017457e+01 0.0 
0.0 0.0 -2.008913176180e+01 
-1.222746849500e+01 -6.970946170447e-01 0.0 
-6.970946170447e-01 -3.415550990370e+01 0.0 
0.0 0.0 -1.364207506866e+01 
-1.251247362924e+01 -9.568031792590e-01 0.0 
-9.568031792590e-01 -3.415063114034e+01 0.0 
0.0 0.0 -1.373258552083e+01 
-6.779170950692e+00 -5.799217786075e-01 0.0 
-5.799217786075e-01 -1.707597708385e+01 0.0 
0.0 0.0 -7.151123015012e+00 
-1.285038365780e+01 -1.096030545409e+00 0.0 
-1.096030545409e+00 -3.400816626054e+01 0.0 
0.0 0.0 -1.381892985057e+01 
-1.869012574922e+01 -1.350815787568e+00 0.0 
-1.350815787568e+00 -5.113258574047e+01 0.0 
0.0 0.0 -2.054681344691e+01 
-7.282387583484e+00 -6.831756373310e-01 0.0 
-6.831756373310e-01 -1.649040375818e+01 0.0 
0.0 0.0 -7.143574422460e+00 
-6.594503111453e+01 6.199283495825e-01 0.0 
6.199283495825e-01 -1.288799186664e+02 0.0 
0.0 0.0 -5.804748493429e+01 
-6.969341139179e+01 1.239921923203e+00 0.0 
1.239921923203e+00 -1.398160127044e+02 0.0 
0.0 0.0 -6.245282722887e+01 
-1.531191846370e+02 1.123314064273e+01 0.0 
1.123314064273e+01 -3.664579724738e+02 0.0 
0.0 0.0 -1.554731471332e+02 
-3.356934509670e+01 5.342738592484e-01 0.0 
5.342738592484e-01 -3.884960196293e+01 0.0 
0.0 0.0 -2.132568411789e+01 
-1.152746719520e+01 -1.189939373495e+00 0.0 
-1.189939373495e+00 -1.713548017713e+01 0.0 
0.0 0.0 -8.583047855537e+00 
-8.929301637410e+01 4.988079937285e+00 0.0 
4.988079937285e+00 -2.011497346230e+02 0.0 
0.0 0.0 -8.673282529914e+01 
-9.218902963155e+01 9.493182703736e+00 0.0 
9.493182703736e+00 -2.068520409874e+02 0.0 
0.0 0.0 -8.931232118569e+01 
-9.146900861598e+01 7.894539997148e+00 0.0 
7.894539997148e+00 -2.061866500683e+02 0.0 
0.0 0.0 -8.889669760527e+01 
-1.402344192645e+02 6.415701282012e-01 0.0 
6.415701282012e-01 -3.427252256477e+02 0.0 
0.0 0.0 -1.444878934736e+02 
-1.452433272859e+02 1.376849164893e+00 0.0 
1.376849164893e+00 -3.520001172591e+02 0.0 
0.0 0.0 -1.487730333635e+02 
-8.870331258928e+01 2.744261337040e+00 0.0 
2.744261337040e+00 -2.010986181475e+02 0.0 
0.0 0.0 -8.654057922105e+01 
-4.420414389068e+01 -2.246993168301e+00 0.0 
-2.246993168301e+00 -1.262267935274e+02 0.0 
0.0 0.0 -5.072928122544e+01 
-1.006972049597e+02 2.527320071178e+01 0.0 
2.527320071178e+01 -2.139676611561e+02 0.0 
0.0 0.0 -9.399945983473e+01 
-7.964024874941e+01 4.737601343631e+00 0.0 
4.737601343631e+00 -1.654947841699e+02 0.0 
0.0 0.0 -7.314050987579e+01 
-2.702760556151e+01 6.021124533741e+00 0.0 
6.021124533741e+00 -7.422648711728e+01 0.0 
0.0 0.0 -2.997622780364e+01 
-4.165267197215e+01 -2.456356106586e+00 0.0 
-2.456356106586e+00 -1.213695554115e+02 0.0 
0.0 0.0 -4.850666821510e+01 
-1.107298694957e+02 1.221943412237e+00 0.0 
1.221943412237e+00 -2.851714800146e+02 0.0 
0.0 0.0 -1.183704048531e+02 
-9.756078359275e+01 2.658177096492e+00 0.0 
2.658177096492e+00 -2.611148961921e+02 0.0 
0.0 0.0 -1.072027039354e+02 
-1.301727914710e+02 3.055480255027e+00 0.0 
3.055480255027e+00 -3.246733660248e+02 0.0 
0.0 0.0 -1.360538472487e+02 
-1.020341135663e+02 1.659050303838e+00 0.0 
1.659050303838e+00 -2.680378474657e+02 0.0 
0.0 0.0 -1.106215883096e+02 
-1.207436382879e+02 3.896913207680e+00 0.0 
3.896913207680e+00 -3.075562933816e+02 0.0 
0.0 0.0 -1.280899795009e+02 
-1.382360019241e+02 1.625761872571e+01 0.0 
1.625761872571e+01 -3.410338937558e+02 0.0 
0.0 0.0 -1.433809687040e+02 
-2.872859854719e+01 -9.946360013411e-01 0.0 
-9.946360013411e-01 -7.959475592101e+01 0.0 
0.0 0.0 -3.209700634046e+01 
-5.663380842413e+01 2.828419460200e+00 0.0 
2.828419460200e+00 -9.209423493129e+01 0.0 
0.0 0.0 -4.421841300663e+01 
-5.126925503308e+01 1.292168213870e+00 0.0 
1.292168213870e+00 -8.443247497906e+01 0.0 
0.0 0.0 -4.031051900364e+01 
-7.044324563819e+01 4.094543443380e+00 0.0 
4.094543443380e+00 -1.341191465084e+02 0.0 
0.0 0.0 -6.096871764399e+01 
-4.707428361704e+01 -1.572445828788e+00 0.0 
-1.572445828788e+00 -1.325016143383e+02 0.0 
0.0 0.0 -5.347276938661e+01 
-7.709718421278e+01 3.686737748393e-02 0.0 
3.686737748393e-02 -2.096771007837e+02 0.0 
0.0 0.0 -8.563228549894e+01 
-3.036771488448e+01 -2.190600463019e+00 0.0 
-2.190600463019e+00 -8.441735192111e+01 0.0 
0.0 0.0 -3.403552004168e+01 
-1.181362534664e+02 3.071462280929e+01 0.0 
3.071462280929e+01 -2.820173406206e+02 0.0 
0.0 0.0 -1.196460782261e+02 
-5.367488700389e+01 2.431174364511e+01 0.0 
2.431174364511e+01 -1.087068959933e+02 0.0 
0.0 0.0 -4.831453489916e+01 
-7.481413988808e+01 2.891771373415e+00 0.0 
2.891771373415e+00 -2.160450437744e+02 0.0 
0.0 0.0 -8.685775509875e+01 
-6.166536367007e+01 -8.845229825132e-01 0.0 
-8.845229825132e-01 -1.740309200334e+02 0.0 
0.0 0.0 -7.030888511105e+01 
-4.763791756151e+01 -2.059668029526e+00 0.0 
-2.059668029526e+00 -1.372980169021e+02 0.0 
0.0 0.0 -5.508078033908e+01 
-3.871201217045e+01 -2.581931657390e+00 0.0 
-2.581931657390e+00 -1.129814963321e+02 0.0 
0.0 0.0 -4.510805255077e+01 
-5.178337646809e+01 1.795790657021e+01 0.0 
1.795790657021e+01 -1.482435941534e+02 0.0 
0.0 0.0 -5.960809118646e+01 
-7.230689922314e+01 8.304089209902e-01 0.0 
8.304089209902e-01 -2.054666603268e+02 0.0 
0.0 0.0 -8.293206786497e+01 
-1.105265245253e+02 5.970920612153e+00 0.0 
5.970920612153e+00 -2.907317434302e+02 0.0 
0.0 0.0 -1.199774803867e+02 
-7.331926150828e+01 3.887199755408e+00 0.0 
3.887199755408e+00 -1.450816830762e+02 0.0 
0.0 0.0 -6.512028337534e+01 
-9.941538654748e+00 -1.135691277379e+00 0.0 
-1.135691277379e+00 -1.908469854753e+01 0.0 
0.0 0.0 -8.593169991808e+00 
-1.150123967960e+02 7.339839580909e+00 0.0 
7.339839580909e+00 -3.001364560951e+02 0.0 
0.0 0.0 -1.241446558673e+02 
-8.842883273997e+01 2.772964071567e+00 0.0 
2.772964071567e+00 -2.434051917699e+02 0.0 
0.0 0.0 -9.915020735296e+01 
-6.358950136137e+01 5.862745184557e+00 0.0 
5.862745184557e+00 -1.013858947073e+02 0.0 
0.0 0.0 -4.909261882061e+01 
-1.040691167010e+02 1.670459014673e+01 0.0 
1.670459014673e+01 -2.793439629398e+02 0.0 
0.0 0.0 -1.146239238923e+02 
-2.881153199621e+01 -2.901283576891e+00 0.0 
-2.901283576891e+00 -7.746916801580e+01 0.0 
0.0 0.0 -3.148421000361e+01 
-7.610299355291e+01 7.287759240970e+00 0.0 
7.287759240970e+00 -1.430466721300e+02 0.0 
0.0 0.0 -6.534489970487e+01 
-9.143195430727e+01 1.599485523781e+01 0.0 
1.599485523781e+01 -1.868428477018e+02 0.0 
0.0 0.0 -8.308244060272e+01 
-5.750613227501e+01 6.405823443860e+00 0.0 
6.405823443860e+00 -8.059813508057e+01 0.0 
0.0 0.0 -4.103128020668e+01 
-2.388481681870e+01 -2.054081719442e+00 0.0 
-2.054081719442e+00 -6.476703482290e+01 0.0 
0.0 0.0 -2.619555549248e+01 
-4.796226260302e+01 1.621038031197e+00 0.0 
1.621038031197e+00 -7.170645110385e+01 0.0 
0.0 0.0 -3.550061411206e+01 
-1.350337226031e+02 1.157983226334e+01 0.0 
1.157983226334e+01 -3.364403706843e+02 0.0 
0.0 0.0 -1.410422279862e+02 
-8.305070356399e+01 1.601007439069e+01 0.0 
1.601007439069e+01 -1.494850928549e+02 0.0 
0.0 0.0 -6.936073892566e+01 
-4.333275691722e+01 -1.433343579355e+00 0.0 
-1.433343579355e+00 -1.213846172715e+02 0.0 
0.0 0.0 -4.901521225662e+01 
-7.065489326472e+01 8.624971976873e+00 0.0 
8.624971976873e+00 -2.114963367215e+02 0.0 
0.0 0.0 -8.424536899585e+01 
-5.426345210097e+01 2.201650017222e+01 0.0 
2.201650017222e+01 -1.387971593628e+02 0.0 
0.0 0.0 -5.751818343912e+01 
-4.101786436487e+01 1.549482842532e+01 0.0 
1.549482842532e+01 -3.408378006688e+01 0.0 
0.0 0.0 -2.213049332952e+01 
-8.277063145917e+01 6.026223834808e+00 0.0 
6.026223834808e+00 -1.746371114530e+02 0.0 
0.0 0.0 -7.682232287366e+01 
-6.657706379155e+01 1.687347137499e+01 0.0 
1.687347137499e+01 -1.930566553440e+02 0.0 
0.0 0.0 -7.749011574065e+01 
-1.155514444723e+02 1.564441760957e+01 0.0 
1.564441760957e+01 -3.019862988780e+02 0.0 
0.0 0.0 -1.248613230051e+02 
-8.710574249132e+01 1.133624449920e+01 0.0 
1.133624449920e+01 -2.475926441418e+02 0.0 
0.0 0.0 -1.000095159899e+02 
-4.661725114714e+01 -1.107558439168e+00 0.0 
-1.107558439168e+00 -1.302096382982e+02 0.0 
0.0 0.0 -5.264806683359e+01 
-1.254330329915e+02 6.562760839911e+00 0.0 
6.562760839911e+00 -3.184211171188e+02 0.0 
0.0 0.0 -1.327562450331e+02 
-6.472440812456e+01 1.202022169670e+01 0.0 
1.202022169670e+01 -1.955347105013e+02 0.0 
0.0 0.0 -7.767773558775e+01 
-8.240812485904e+01 8.825353564008e+00 0.0 
8.825353564008e+00 -1.639422439675e+02 0.0 
0.0 0.0 -7.350511064795e+01 
-8.819153856319e+01 2.604468722352e+01 0.0 
2.604468722352e+01 -2.148427041250e+02 0.0 
0.0 0.0 -9.051027280647e+01 
-5.227796400147e+01 6.817833124118e+00 0.0 
6.817833124118e+00 -1.650847729140e+02 0.0 
0.0 0.0 -6.480882107463e+01 
-8.252240827665e+01 1.196668471000e+01 0.0 
1.196668471000e+01 -1.545670892846e+02 0.0 
0.0 0.0 -7.072684926837e+01 
-7.350297645809e+01 4.399296264469e+00 0.0 
4.399296264469e+00 -2.155462137412e+02 0.0 
0.0 0.0 -8.631475705978e+01 
-1.082662622224e+02 1.872849224175e+01 0.0 
1.872849224175e+01 -2.856421724143e+02 0.0 
0.0 0.0 -1.177725303910e+02 
-5.034186226023e+01 2.381055951178e+01 0.0 
2.381055951178e+01 -1.073668447642e+02 0.0 
0.0 0.0 -4.691261210734e+01 
-7.226192817105e+01 2.449522367018e+01 0.0 
2.449522367018e+01 -1.775735173091e+02 0.0 
0.0 0.0 -7.455063364406e+01 
-7.962124893053e+01 2.595040804642e+01 0.0 
2.595040804642e+01 -1.692413516341e+02 0.0 
0.0 0.0 -7.425878016938e+01 
-6.912516273624e+01 2.124950073930e+01 0.0 
2.124950073930e+01 -1.869581644341e+02 0.0 
0.0 0.0 -7.642499815110e+01 
-1.059761810990e+02 6.356722241678e-01 0.0 
6.356722241678e-01 -2.747941683936e+02 0.0 
0.0 0.0 -1.138311048478e+02 
-1.202391895421e+02 6.968471545412e+00 0.0 
6.968471545412e+00 -3.093625143665e+02 0.0 
0.0 0.0 -1.284805111726e+02 
-2.792253278177e+01 -2.791244349370e-01 0.0 
-2.791244349370e-01 -7.869492347952e+01 0.0 
0.0 0.0 -3.158523687839e+01 
-4.009485796459e+01 1.658741697740e+01 0.0 
1.658741697740e+01 -1.130352012012e+02 0.0 
0.0 0.0 -4.553901774974e+01 
-6.622083040086e+01 8.468983346358e+00 0.0 
8.468983346358e+00 -1.022782849205e+02 0.0 
0.0 0.0 -5.014973459641e+01 
-1.063443374042e+02 2.698382043125e+01 0.0 
2.698382043125e+01 -2.634285968980e+02 0.0 
0.0 0.0 -1.105318802907e+02 
-8.803962160626e+01 1.015289482684e+01 0.0 
1.015289482684e+01 -1.847554127718e+02 0.0 
0.0 0.0 -8.143851031343e+01 
-4.778827697151e+01 2.134754455811e+01 0.0 
2.134754455811e+01 -1.208383909802e+02 0.0 
0.0 0.0 -5.018800038550e+01 
-1.206147009010e+02 5.337151421704e+00 0.0 
5.337151421704e+00 -3.087066054002e+02 0.0 
0.0 0.0 -1.283963918904e+02 
-8.794614321121e+01 1.366268993537e+01 0.0 
1.366268993537e+01 -1.753486350238e+02 0.0 
0.0 0.0 -7.858843347049e+01 
-7.651613556159e+01 9.423792940004e-01 0.0 
9.423792940004e-01 -2.143556728953e+02 0.0 
0.0 0.0 -8.686154253707e+01 
-3.260148220394e+01 -3.531732712243e-01 0.0 
-3.531732712243e-01 -9.132415970763e+01 0.0 
0.0 0.0 -3.677769257347e+01 
-2.443980942197e+01 6.037026407073e+00 0.0 
6.037026407073e+00 -5.800649462466e+01 0.0 
0.0 0.0 -2.433389121399e+01 
-4.058028838264e+01 4.671084911124e+00 0.0 
4.671084911124e+00 -1.298770971476e+02 0.0 
0.0 0.0 -5.073721565907e+01 
-6.341612359386e+01 1.492342648909e+01 0.0 
1.492342648909e+01 -1.884396680428e+02 0.0 
0.0 0.0 -7.515673749101e+01 
-8.457936302200e+01 1.833447799143e+00 0.0 
1.833447799143e+00 -2.333894386231e+02 0.0 
0.0 0.0 -9.499064049352e+01 
-9.858427179841e+01 2.255950078869e+01 0.0 
2.255950078869e+01 -2.091692099274e+02 0.0 
0.0 0.0 -9.192604451774e+01 
-1.256103038185e+02 4.949446432441e+00 0.0 
4.949446432441e+00 -3.174881013616e+02 0.0 
0.0 0.0 -1.325295215540e+02 
-1.086397573967e+02 9.676956335854e+00 0.0 
9.676956335854e+00 -2.897090850830e+02 0.0 
0.0 0.0 -1.191046527439e+02 
-2.196570600638e+01 1.197354489085e+01 0.0 
1.197354489085e+01 -2.215456604688e+01 0.0 
0.0 0.0 -1.283608161598e+01 
-4.566534474630e+01 1.970287417894e+01 0.0 
1.970287417894e+01 -5.462017155365e+01 0.0 
0.0 0.0 -2.968565488998e+01 
-1.305812773731e+02 4.505719992668e+00 0.0 
4.505719992668e+00 -3.262471554715e+02 0.0 
0.0 0.0 -1.366485298534e+02 
-7.530124230487e+01 8.094654694057e+00 0.0 
8.094654694057e+00 -2.220289110602e+02 0.0 
0.0 0.0 -8.879904600954e+01 
-1.138587704662e+02 1.814599431632e+01 0.0 
1.814599431632e+01 -2.971189157316e+02 0.0 
0.0 0.0 -1.228933058593e+02 
-8.390310612322e+01 1.042029069628e-01 0.0 
1.042029069628e-01 -2.249103621700e+02 0.0 
0.0 0.0 -9.224404048798e+01 
-1.202198212289e+02 3.008674260429e+01 0.0 
3.008674260429e+01 -2.891900252232e+02 0.0 
0.0 0.0 -1.224229539356e+02 
-3.464718072683e+01 2.130959069673e+01 0.0 
2.130959069673e+01 -5.191943378326e+01 0.0 
0.0 0.0 -2.556998435303e+01 
-1.355546618609e+02 3.990379686307e+00 0.0 
3.990379686307e+00 -3.352208562080e+02 0.0 
0.0 0.0 -1.408326554207e+02 
-1.071416416309e+02 1.180719713404e+01 0.0 
1.180719713404e+01 -2.873645786049e+02 0.0 
0.0 0.0 -1.179518660708e+02 
-3.838434157468e+01 1.125404100462e+01 0.0 
1.125404100462e+01 -1.183270214884e+02 0.0 
0.0 0.0 -4.661340891892e+01 
-3.032632015859e+01 2.944524973401e-02 0.0 
2.944524973401e-02 -3.615016461308e+01 0.0 
0.0 0.0 -1.954294543150e+01 
-1.472888139037e+02 4.395676071948e+00 0.0 
4.395676071948e+00 -3.564172780026e+02 0.0 
0.0 0.0 -1.507118275719e+02 
-1.173190030924e+02 1.324065489613e+01 0.0 
1.324065489613e+01 -3.058659605832e+02 0.0 
0.0 0.0 -1.265554891027e+02 
-7.695323470846e+01 2.210643630104e+01 0.0 
2.210643630104e+01 -2.049050354068e+02 0.0 
0.0 0.0 -8.415748103459e+01 
-7.210315965627e+01 6.318500747641e+00 0.0 
6.318500747641e+00 -2.141478342750e+02 0.0 
0.0 0.0 -8.547529817939e+01 
-3.494566309484e+01 2.009169485554e+01 0.0 
2.009169485554e+01 -3.201813236829e+01 0.0 
0.0 0.0 -1.968913863894e+01 
-8.898238897296e+01 1.855376806721e+00 0.0 
1.855376806721e+00 -2.422015962460e+02 0.0 
0.0 0.0 -9.895519556567e+01 
-7.600480107402e+01 2.541110523018e+01 0.0 
2.541110523018e+01 -1.801939243917e+02 0.0 
0.0 0.0 -7.645961763972e+01 
-9.844141882993e+01 1.944250495593e+01 0.0 
1.944250495593e+01 -2.194814380432e+02 0.0 
0.0 0.0 -9.497685706194e+01 
-1.214224029525e+02 1.511075854711e+01 0.0 
1.511075854711e+01 -3.126036855946e+02 0.0 
0.0 0.0 -1.298078265642e+02 
-7.540037130392e+01 1.953963310578e+01 0.0 
1.953963310578e+01 -1.277024022996e+02 0.0 
0.0 0.0 -6.053083208104e+01 
-8.497939405686e+01 1.127877317987e+00 0.0 
1.127877317987e+00 -2.318989883666e+02 0.0 
0.0 0.0 -9.466351472703e+01 
-8.769674334077e+01 1.843793071406e+01 0.0 
1.843793071406e+01 -2.419658973018e+02 0.0 
0.0 0.0 -9.849879219277e+01 
-1.829812585349e+01 -1.035790058711e+00 0.0 
-1.035790058711e+00 -5.045680915578e+01 0.0 
0.0 0.0 -2.022648050278e+01 
-3.913820060743e+01 2.183600113528e+01 0.0 
2.183600113528e+01 -5.238667418279e+01 0.0 
0.0 0.0 -2.705746243707e+01 
-8.918353361887e+01 1.168364439340e+00 0.0 
1.168364439340e+00 -2.405311157087e+02 0.0 
0.0 0.0 -9.851439479827e+01 
-4.397425309168e+01 3.816647597101e+00 0.0 
3.816647597101e+00 -1.403042684674e+02 0.0 
0.0 0.0 -5.488355646772e+01 
-7.671761010058e+01 5.959242683364e+00 0.0 
5.959242683364e+00 -2.240605376797e+02 0.0 
0.0 0.0 -8.983344433409e+01 
-1.269597323221e+02 2.447726857661e+01 0.0 
2.447726857661e+01 -3.146404744290e+02 0.0 
0.0 0.0 -1.320800620253e+02 
-9.338485361627e+01 1.154558428055e+00 0.0 
1.154558428055e+00 -2.491406876843e+02 0.0 
0.0 0.0 -1.023576623902e+02 
-4.986047551500e+01 4.921335579839e+00 0.0 
4.921335579839e+00 -1.580038803521e+02 0.0 
0.0 0.0 -6.195930676014e+01 
-9.757097841552e+01 1.076878015942e+00 0.0 
1.076878015942e+00 -2.576795969095e+02 0.0 
0.0 0.0 -1.061751725975e+02 
-3.094066986807e+01 1.988109060964e+01 0.0 
1.988109060964e+01 -3.217187603285e+01 0.0 
0.0 0.0 -1.853376377027e+01 
-7.934466503442e+01 2.196802550381e+01 0.0 
2.196802550381e+01 -1.439420444716e+02 0.0 
0.0 0.0 -6.658601285182e+01 
-1.017653658245e+02 9.339394666741e-01 0.0 
9.339394666741e-01 -2.661368501841e+02 0.0 
0.0 0.0 -1.099706648026e+02 
-8.385683649867e+01 2.610190595535e+01 0.0 
2.610190595535e+01 -1.990506279136e+02 0.0 
0.0 0.0 -8.447223932369e+01 
-1.959457876240e+01 -1.534210547374e+00 0.0 
-1.534210547374e+00 -5.280507676811e+01 0.0 
0.0 0.0 -2.131989665915e+01 
-8.143258040491e+01 2.147062962167e+01 0.0 
2.147062962167e+01 -2.191540287165e+02 0.0 
0.0 0.0 -8.977598273643e+01 
-1.347781695624e+02 1.231727699217e+00 0.0 
1.231727699217e+00 -3.324814281231e+02 0.0 
0.0 0.0 -1.397778793056e+02 
-5.411918667902e+01 -1.099240819295e+00 0.0 
-1.099240819295e+00 -1.588630233157e+02 0.0 
0.0 0.0 -6.349466299840e+01 
-8.144599633190e+01 5.677240174416e+00 0.0 
5.677240174416e+00 -2.338485543509e+02 0.0 
0.0 0.0 -9.418836520483e+01 
-8.624349264389e+01 2.303701441877e+01 0.0 
2.303701441877e+01 -1.658015622523e+02 0.0 
0.0 0.0 -7.521351646885e+01 
-2.938182072053e+01 1.931998851287e+01 0.0 
1.931998851287e+01 -3.133358140871e+01 0.0 
0.0 0.0 -1.781462063877e+01 
-8.992946823006e+01 6.986224297145e+00 0.0 
6.986224297145e+00 -2.522978977344e+02 0.0 
0.0 0.0 -1.022682097893e+02 
-9.188274418681e+01 2.697217122639e+01 0.0 
2.697217122639e+01 -2.180492026878e+02 0.0 
0.0 0.0 -9.257958406238e+01 
-8.618165240276e+01 2.085107960880e+01 0.0 
2.085107960880e+01 -2.329860523990e+02 0.0 
0.0 0.0 -9.535031144054e+01 
-7.097972837732e+01 1.601137678265e+01 0.0 
1.601137678265e+01 -2.060665740722e+02 0.0 
0.0 0.0 -8.271389073487e+01 
-9.898846637621e+01 8.324042083739e+00 0.0 
8.324042083739e+00 -2.709523649187e+02 0.0 
0.0 0.0 -1.105822493885e+02 
-3.206287189283e+01 2.027111761983e+01 0.0 
2.027111761983e+01 -5.076697447384e+01 0.0 
0.0 0.0 -2.444895391000e+01 
-4.116348253890e+01 -2.541093963141e+00 0.0 
-2.541093963141e+00 -1.179144145430e+02 0.0 
0.0 0.0 -4.732336912457e+01 
-3.495037977655e+01 -2.799004740709e+00 0.0 
-2.799004740709e+00 -9.856055562846e+01 0.0 
0.0 0.0 -3.965328062150e+01 
-5.371579291866e+01 4.295501829091e+00 0.0 
4.295501829091e+00 -1.682176264018e+02 0.0 
0.0 0.0 -6.618002579615e+01 
-9.547283423251e+01 2.771478791544e+01 0.0 
2.771478791544e+01 -2.213242832531e+02 0.0 
0.0 0.0 -9.463913524569e+01 
-2.391187429112e+01 -6.272592268725e-01 0.0 
-6.272592268725e-01 -6.708466322991e+01 0.0 
0.0 0.0 -2.689896125631e+01 
-8.685638449551e+01 2.543217060925e+01 0.0 
2.543217060925e+01 -1.770488692206e+02 0.0 
0.0 0.0 -7.877157611484e+01 
-2.665067783343e+01 -2.960769054971e+00 0.0 
-2.960769054971e+00 -7.093468597147e+01 0.0 
0.0 0.0 -2.887560914147e+01 
-5.127344574104e+01 2.640335830864e+00 0.0 
2.640335830864e+00 -1.602614601973e+02 0.0 
0.0 0.0 -6.306047178149e+01 
-1.008839316327e+02 2.169782435359e+01 0.0 
2.169782435359e+01 -2.654230779457e+02 0.0 
0.0 0.0 -1.094921028735e+02 
-5.186080556200e+01 4.310726296842e-01 0.0 
4.310726296842e-01 -9.024238277406e+01 0.0 
0.0 0.0 -4.223095650082e+01 
-5.509828420535e+01 2.252115220426e+00 0.0 
2.252115220426e+00 -1.697785020127e+02 0.0 
0.0 0.0 -6.706303586541e+01 
-3.981447371785e+01 -3.565610400336e-01 0.0 
-3.565610400336e-01 -1.110403630843e+02 0.0 
0.0 0.0 -4.485645104065e+01 
-5.252557189047e+01 8.754021136651e-01 0.0 
8.754021136651e-01 -1.609979189744e+02 0.0 
0.0 0.0 -6.365704725946e+01 
-7.905172494421e+01 1.716002211270e+01 0.0 
1.716002211270e+01 -2.238702215338e+02 0.0 
0.0 0.0 -9.047658394339e+01 
-5.630093977190e+01 7.261132243059e-01 0.0 
7.261132243059e-01 -1.700400801841e+02 0.0 
0.0 0.0 -6.750230598679e+01 
-5.355290497597e+01 -3.428224176977e-01 0.0 
-3.428224176977e-01 -1.605609099658e+02 0.0 
0.0 0.0 -6.383414448254e+01 
-8.553990903802e+01 5.581232509670e+00 0.0 
5.581232509670e+00 -1.860036836107e+02 0.0 
0.0 0.0 -8.106307779463e+01 
-5.720297823406e+01 -3.204421984813e-01 0.0 
-3.204421984813e-01 -1.691497020507e+02 0.0 
0.0 0.0 -6.750580408544e+01 
-8.990506815906e+01 1.662073551781e+00 0.0 
1.662073551781e+00 -2.045283904152e+02 0.0 
0.0 0.0 -8.793003757227e+01 
-1.568562895370e+02 1.471887239689e+00 0.0 
1.471887239689e+00 -3.729940366180e+02 0.0 
0.0 0.0 -1.585550978465e+02 
-3.637716468799e+01 1.819311322945e-01 0.0 
1.819311322945e-01 -5.119360250605e+01 0.0 
0.0 0.0 -2.587123015821e+01 
-2.808112556355e+01 1.902156188072e+01 0.0 
1.902156188072e+01 -2.752153966081e+01 0.0 
0.0 0.0 -1.628079956731e+01 
-2.058964677940e+01 6.082093194709e-02 0.0 
6.082093194709e-02 -1.663352753432e+01 0.0 
0.0 0.0 -1.103150482355e+01 
-3.026888706630e+01 1.864334421130e+01 0.0 
1.864334421130e+01 -5.135367357789e+01 0.0 
0.0 0.0 -2.408676819326e+01 
-4.771740030460e+01 -1.855949454486e+00 0.0 
-1.855949454486e+00 -1.401490867438e+02 0.0 
0.0 0.0 -5.595994611451e+01 
-8.703736787981e+01 2.664083588514e+01 0.0 
2.664083588514e+01 -1.891429457873e+02 0.0 
0.0 0.0 -8.245409410013e+01 
-3.682184936939e+01 8.407729884875e-02 0.0 
8.407729884875e-02 -5.187905800624e+01 0.0 
0.0 0.0 -2.621027221269e+01 
-4.458945846126e+01 -2.313911079197e+00 0.0 
-2.313911079197e+00 -1.292971780679e+02 0.0 
0.0 0.0 -5.176599095873e+01 
-1.075262866230e+02 2.977627278736e+01 0.0 
2.977627278736e+01 -2.415943248451e+02 0.0 
0.0 0.0 -1.043361834404e+02 
-1.324180022902e+02 3.068758420835e+01 0.0 
3.068758420835e+01 -3.157713411653e+02 0.0 
0.0 0.0 -1.340568030366e+02 
-6.261396390184e+01 9.165199985267e-01 0.0 
9.165199985267e-01 -1.190486974549e+02 0.0 
0.0 0.0 -5.409879840703e+01 
-1.194296064971e+02 1.753243246667e+01 0.0 
1.753243246667e+01 -3.076847144387e+02 0.0 
0.0 0.0 -1.277342962807e+02 
-9.144807538058e+01 2.031293640569e+01 0.0 
2.031293640569e+01 -2.469017553727e+02 0.0 
0.0 0.0 -1.011049492260e+02 
-7.829105490508e+01 8.329263230010e-01 0.0 
8.329263230010e-01 -1.668336302564e+02 0.0 
0.0 0.0 -7.313740554844e+01 
-3.037301404703e+01 3.020173255537e-01 0.0 
3.020173255537e-01 -3.478316541268e+01 0.0 
0.0 0.0 -1.914685383791e+01 
-1.631864013027e+01 -2.170153861734e+00 0.0 
-2.170153861734e+00 -3.304359960841e+01 0.0 
0.0 0.0 -1.453169909709e+01 
-1.108082302055e+02 3.562691650900e-01 0.0 
3.562691650900e-01 -2.846993256890e+02 0.0 
0.0 0.0 -1.182522667684e+02 
-2.737012131723e+01 1.834354738285e+01 0.0 
1.834354738285e+01 -2.642513388004e+01 0.0 
0.0 0.0 -1.573857655918e+01 
-2.772077857311e+01 1.677672138253e+01 0.0 
1.677672138253e+01 -4.530809532509e+01 0.0 
0.0 0.0 -2.150866216946e+01 
-2.555340589344e+01 1.436219837650e+01 0.0 
1.436219837650e+01 -4.220483460573e+01 0.0 
0.0 0.0 -1.992747214975e+01 
-4.912209363465e+01 -8.255263641572e-01 0.0 
-8.255263641572e-01 -1.371906930321e+02 0.0 
0.0 0.0 -5.549383600002e+01 
-2.199071049861e+01 -2.914303386111e+00 0.0 
-2.914303386111e+00 -4.909558504616e+01 0.0 
0.0 0.0 -2.092588866343e+01 
-2.669525030509e+01 1.714418751243e+01 0.0 
1.714418751243e+01 -2.855522918215e+01 0.0 
0.0 0.0 -1.617514384617e+01 
-1.336116023575e+02 2.088455472543e+01 0.0 
2.088455472543e+01 -3.302623101281e+02 0.0 
0.0 0.0 -1.387621737457e+02 
-4.115924239944e+01 1.505879793475e+00 0.0 
1.505879793475e+00 -5.282646260729e+01 0.0 
0.0 0.0 -2.779571150202e+01 
-1.045302012047e+02 2.350229520145e+01 0.0 
2.350229520145e+01 -2.696108595896e+02 0.0 
0.0 0.0 -1.118423182383e+02 
-2.486851268227e+01 1.529479313055e+01 0.0 
1.529479313055e+01 -2.644465998629e+01 0.0 
0.0 0.0 -1.499395180057e+01 
-9.275821621252e+01 1.540502724271e+01 0.0 
1.540502724271e+01 -1.960593131557e+02 0.0 
0.0 0.0 -8.624525881045e+01 
-1.257787651105e+02 2.696286460969e+01 0.0 
2.696286460969e+01 -3.084828329744e+02 0.0 
0.0 0.0 -1.298784794255e+02 
-1.555497395072e+02 8.578319329175e+00 0.0 
8.578319329175e+00 -3.708748937918e+02 0.0 
0.0 0.0 -1.575273899897e+02 
-1.145035311114e+02 2.503404983362e+01 0.0 
2.503404983362e+01 -2.883503206604e+02 0.0 
0.0 0.0 -1.204561555316e+02 
-2.301158309782e+01 1.080697472827e+01 0.0 
1.080697472827e+01 -3.671489805922e+01 0.0 
0.0 0.0 -1.751794434711e+01 
-5.573623564602e+01 7.185406210385e+00 0.0 
7.185406210385e+00 -7.347860380114e+01 0.0 
0.0 0.0 -3.836445183415e+01 
-1.158284960757e+02 3.114473840087e+01 0.0 
3.114473840087e+01 -2.740756607166e+02 0.0 
0.0 0.0 -1.165712470377e+02 
-6.869289151712e+01 1.592980205135e+00 0.0 
1.592980205135e+00 -1.349958555176e+02 0.0 
0.0 0.0 -6.070662411043e+01 
-1.572398799108e+02 6.377489313816e+00 0.0 
6.377489313816e+00 -3.736536561175e+02 0.0 
0.0 0.0 -1.588680608085e+02 
-4.277089629436e+01 2.440820866426e+00 0.0 
2.440820866426e+00 -5.117328699993e+01 0.0 
0.0 0.0 -2.778325498829e+01 
-8.528541312059e+01 3.526963319811e+00 0.0 
3.526963319811e+00 -1.880233175924e+02 0.0 
0.0 0.0 -8.159261921391e+01 
-2.630226685435e+01 -1.425553046617e+00 0.0 
-1.425553046617e+00 -7.030213250325e+01 0.0 
0.0 0.0 -2.858131980728e+01 
-8.485878360054e+01 1.740449815725e+00 0.0 
1.740449815725e+00 -1.879512324585e+02 0.0 
0.0 0.0 -8.144300481770e+01 
-9.451483621651e+01 2.759696799727e+01 0.0 
2.759696799727e+01 -2.092952275455e+02 0.0 
0.0 0.0 -9.074301912860e+01 
-4.742430356043e+01 7.016789806887e-01 0.0 
7.016789806887e-01 -7.592118385958e+01 0.0 
0.0 0.0 -3.660364622600e+01 
-5.954439328213e+01 1.179350629870e+01 0.0 
1.179350629870e+01 -7.847255285379e+01 0.0 
0.0 0.0 -4.100508384077e+01 
-1.500669679674e+02 2.166991991377e+00 0.0 
2.166991991377e+00 -3.606485446582e+02 0.0 
0.0 0.0 -1.528146537877e+02 
-1.033500283597e+02 2.722832436157e+01 0.0 
2.722832436157e+01 -2.260466059738e+02 0.0 
0.0 0.0 -9.841899030006e+01 
-2.144600364675e+01 8.183343645351e+00 0.0 
8.183343645351e+00 -3.272983503043e+01 0.0 
0.0 0.0 -1.585275160315e+01 
-6.278771010412e+01 1.126109830960e+00 0.0 
1.126109830960e+00 -1.179942515879e+02 0.0 
0.0 0.0 -5.383458850760e+01 
-6.152146285349e+01 -5.811659660323e-01 0.0 
-5.811659660323e-01 -1.707267162257e+02 0.0 
0.0 0.0 -6.927445372375e+01 
-2.075984267126e+01 -1.298502100061e+00 0.0 
-1.298502100061e+00 -3.057645723801e+01 0.0 
0.0 0.0 -1.519332974374e+01 
-1.446935469122e+02 9.879993308909e+00 0.0 
9.879993308909e+00 -3.528037408363e+02 0.0 
0.0 0.0 -1.488491863245e+02 
-1.013817569535e+02 2.869297078082e+01 0.0 
2.869297078082e+01 -2.283121690480e+02 0.0 
0.0 0.0 -9.850817780047e+01 
-1.488245661546e+02 3.514012332002e+00 0.0 
3.514012332002e+00 -3.589476659483e+02 0.0 
0.0 0.0 -1.519316696309e+02 
-1.752143549814e+01 -3.769509902138e-01 0.0 
-3.769509902138e-01 -4.998955827692e+01 0.0 
0.0 0.0 -1.985329813252e+01 
-1.407092462314e+01 -1.843332781270e+00 0.0 
-1.843332781270e+00 -3.119149842362e+01 0.0 
0.0 0.0 -1.326064540387e+01 
-1.443557034426e+02 1.253933202029e+01 0.0 
1.253933202029e+01 -3.521634130968e+02 0.0 
0.0 0.0 -1.485557349618e+02 
-1.121671285427e+02 3.119723454340e+01 0.0 
3.119723454340e+01 -2.587394117427e+02 0.0 
0.0 0.0 -1.108719620856e+02 
-2.909606223694e+01 -1.992791538988e+00 0.0 
-1.992791538988e+00 -8.000669974550e+01 0.0 
0.0 0.0 -3.233082859473e+01 
-9.497401263207e+01 1.332129870172e+01 0.0 
1.332129870172e+01 -2.139320752263e+02 0.0 
0.0 0.0 -9.227182635751e+01 
-1.946514148604e+01 6.169111025490e+00 0.0 
6.169111025490e+00 -2.330684782593e+01 0.0 
0.0 0.0 -1.251340077864e+01 
-3.019415975306e+01 7.101532061047e-02 0.0 
7.101532061047e-02 -3.274394111665e+01 0.0 
0.0 0.0 -1.848143026091e+01 
-1.296638227935e+01 -1.180042276218e+00 0.0 
-1.180042276218e+00 -3.239417326825e+01 0.0 
0.0 0.0 -1.338393626895e+01 
-1.576464325498e+02 5.237238300342e+00 0.0 
5.237238300342e+00 -3.742770138471e+02 0.0 
0.0 0.0 -1.591770339191e+02 
-8.869160855306e+01 9.276749065595e+00 0.0 
9.276749065595e+00 -1.917743702651e+02 0.0 
0.0 0.0 -8.373979364546e+01 
-6.850725192582e+01 -4.485880569548e-01 0.0 
-4.485880569548e-01 -1.878868464969e+02 0.0 
0.0 0.0 -7.651822952683e+01 
-4.370236753221e+01 7.440552921202e+00 0.0 
7.440552921202e+00 -4.302510405024e+01 0.0 
0.0 0.0 -2.561824147473e+01 
-4.469511887618e+01 -6.798521099470e-01 0.0 
-6.798521099470e-01 -1.244717428168e+02 0.0 
0.0 0.0 -5.035005850788e+01 
-1.141503291738e+02 2.819484572366e+01 0.0 
2.819484572366e+01 -2.795939934824e+02 0.0 
0.0 0.0 -1.177232967969e+02 
-2.027974218236e+01 -2.782040791640e+00 0.0 
-2.782040791640e+00 -4.629079199794e+01 0.0 
0.0 0.0 -1.957116025409e+01 
-8.768077069661e+01 6.825485068191e+00 0.0 
6.825485068191e+00 -1.922297843212e+02 0.0 
0.0 0.0 -8.357316650535e+01 
-1.424772011640e+02 1.538974014223e+01 0.0 
1.538974014223e+01 -3.483975761591e+02 0.0 
0.0 0.0 -1.468624331969e+02 
-9.833886104616e+01 2.124348561384e+01 0.0 
2.124348561384e+01 -2.108059851029e+02 0.0 
0.0 0.0 -9.234345384472e+01 
-1.432078344643e+02 2.556366999059e+01 0.0 
2.556366999059e+01 -3.423847079424e+02 0.0 
0.0 0.0 -1.452777627220e+02 
-2.063994467699e+01 1.178977538751e+00 0.0 
1.178977538751e+00 -2.764546665705e+01 0.0 
0.0 0.0 -1.418747770714e+01 
-1.266127696199e+02 2.866207996993e+01 0.0 
2.866207996993e+01 -3.074404470591e+02 0.0 
0.0 0.0 -1.298159650037e+02 
-1.301725671144e+02 1.623229188384e+01 0.0 
1.623229188384e+01 -3.276102595413e+02 0.0 
0.0 0.0 -1.369348479967e+02 
-2.988586170264e+01 -1.277284060684e-01 0.0 
-1.277284060684e-01 -3.457371989929e+01 0.0 
0.0 0.0 -1.893787448058e+01 
-1.007919715034e+02 2.437594120216e+01 0.0 
2.437594120216e+01 -2.175029401144e+02 0.0 
0.0 0.0 -9.508847348535e+01 
-5.514017373612e+01 -7.723455937428e-01 0.0 
-7.723455937428e-01 -1.529906072037e+02 0.0 
0.0 0.0 -6.203923428196e+01 
-2.417631322279e+01 -1.405477141327e+00 0.0 
-1.405477141327e+00 -6.611472946786e+01 0.0 
0.0 0.0 -2.668731280720e+01 
-9.031642260775e+01 9.168452876582e-01 0.0 
9.168452876582e-01 -2.065197903875e+02 0.0 
0.0 0.0 -8.865086389857e+01 
-4.660844104499e+00 -6.288089188325e-02 0.0 
-6.288089188325e-02 -1.415760220229e+01 0.0 
0.0 0.0 -5.557884966701e+00 
-2.910309791945e+01 6.876154665472e-02 0.0 
6.876154665472e-02 -3.359199236976e+01 0.0 
0.0 0.0 -1.840852708676e+01 
-1.592627378780e+02 5.065630748937e-01 0.0 
5.065630748937e-01 -3.771897993884e+02 0.0 
0.0 0.0 -1.605357611799e+02 
-2.286472525320e+01 -9.854020800260e-01 0.0 
-9.854020800260e-01 -6.316969234470e+01 0.0 
0.0 0.0 -2.541032527937e+01 
-4.234281951393e+01 2.996448936404e-01 0.0 
2.996448936404e-01 -6.554051093559e+01 0.0 
0.0 0.0 -3.196499913486e+01 
-1.105310616253e+02 3.086401430140e+01 0.0 
3.086401430140e+01 -2.520784900230e+02 0.0 
0.0 0.0 -1.083828654945e+02 
-8.599638067309e+01 2.218760796439e-02 0.0 
2.218760796439e-02 -2.299139068878e+02 0.0 
0.0 0.0 -9.437308626827e+01 
-7.471511193054e+01 1.488165946952e+00 0.0 
1.488165946952e+00 -1.552172726920e+02 0.0 
0.0 0.0 -6.857971538678e+01 
-2.497874324950e+01 -3.045788625988e+00 0.0 
-3.045788625988e+00 -6.152543136284e+01 0.0 
0.0 0.0 -2.555125238370e+01 
-2.021372541864e+01 -6.741888084982e-01 0.0 
-6.741888084982e-01 -1.434103293841e+01 0.0 
0.0 0.0 -1.038370014465e+01 
-5.590695414135e+01 7.100298101457e-01 0.0 
7.100298101457e-01 -1.006176161777e+02 0.0 
0.0 0.0 -4.655737109572e+01 
-1.295241770425e+02 2.603592268275e+01 0.0 
2.603592268275e+01 -3.173360881686e+02 0.0 
0.0 0.0 -1.336580795633e+02 
-9.534961805882e+01 1.749017720313e+01 0.0 
1.749017720313e+01 -2.043398988647e+02 0.0 
0.0 0.0 -8.950685507705e+01 
-5.144728175463e+01 7.421746383460e-01 0.0 
7.421746383460e-01 -8.680161850324e+01 0.0 
0.0 0.0 -4.107467007736e+01 
-2.269969457311e+01 6.367833720673e+00 0.0 
6.367833720673e+00 -4.488581361179e+01 0.0 
0.0 0.0 -1.987565245547e+01 
-1.071495312618e+02 2.995898532332e+01 0.0 
2.995898532332e+01 -2.439739411665e+02 0.0 
0.0 0.0 -1.049370417285e+02 
-7.462774402078e+01 -1.137830155565e-01 0.0 
-1.137830155565e-01 -2.027161317586e+02 0.0 
0.0 0.0 -8.280316273382e+01 
-1.114654551839e+02 2.984620704507e+01 0.0 
2.984620704507e+01 -2.664411726208e+02 0.0 
0.0 0.0 -1.129719883414e+02 
-1.276081147489e+02 1.898918152405e+01 0.0 
1.898918152405e+01 -3.215138990418e+02 0.0 
0.0 0.0 -1.343366041372e+02 
-1.799476490971e+01 6.937048903217e+00 0.0 
6.937048903217e+00 -1.257988013876e+01 0.0 
0.0 0.0 -9.039472491645e+00 
-9.330583875535e+01 4.508582968117e-02 0.0 
4.508582968117e-02 -2.467641631614e+02 0.0 
0.0 0.0 -1.016210005750e+02 
-1.288467426323e+01 -1.231111789418e+00 0.0 
-1.231111789418e+00 -3.034394815701e+01 0.0 
0.0 0.0 -1.267013827558e+01 
-1.489344530669e+02 7.498116745786e+00 0.0 
7.498116745786e+00 -3.597313340026e+02 0.0 
0.0 0.0 -1.521997361208e+02 
-7.802978885890e+01 3.250714572821e-02 0.0 
3.250714572821e-02 -2.111665134339e+02 0.0 
0.0 0.0 -8.635889068784e+01 
-2.623323207131e+01 3.890205995919e+00 0.0 
3.890205995919e+00 -8.051193306608e+00 0.0 
0.0 0.0 -9.871733506735e+00 
-1.937786979331e+01 -1.143477781095e-01 0.0 
-1.143477781095e-01 -9.311776945678e+00 0.0 
0.0 0.0 -8.206894021696e+00 

TENSORS node_materi_strain_total float
1.145331447439e-05 3.858381363483e-08 0.0 
3.858381363483e-08 1.034363148167e-05 0.0 
0.0 0.0 0.0 
-1.435099837810e-04 -2.913512317702e-06 0.0 
-2.913512317702e-06 1.990808901496e-03 0.0 
0.0 0.0 0.0 
9.361282562570e-06 7.600896745871e-06 0.0 
7.600896745871e-06 1.235778153736e-03 0.0 
0.0 0.0 0.0 
-1.062908654936e-05 4.092358902113e-06 0.0 
4.092358902113e-06 2.511153669821e-03 0.0 
0.0 0.0 0.0 
1.511271573810e-05 -1.194507611644e-06 0.0 
-1.194507611644e-06 3.942485865697e-05 0.0 
0.0 0.0 0.0 
2.322890395952e-05 8.873844469173e-07 0.0 
8.873844469173e-07 9.644744567653e-05 0.0 
0.0 0.0 0.0 
3.496754356758e-05 8.318494540278e-07 0.0 
8.318494540278e-07 1.485898436819e-04 0.0 
0.0 0.0 0.0 
4.645754050348e-05 4.693756656752e-07 0.0 
4.693756656752e-07 2.070784211966e-04 0.0 
0.0 0.0 0.0 
5.847180127505e-05 2.152395162823e-07 0.0 
2.152395162823e-07 2.635347323591e-04 0.0 
0.0 0.0 0.0 
7.065211330515e-05 2.166193733940e-07 0.0 
2.166193733940e-07 3.192731984098e-04 0.0 
0.0 0.0 0.0 
8.170534121299e-05 4.427236836606e-07 0.0 
4.427236836606e-07 3.755592523979e-04 0.0 
0.0 0.0 0.0 
9.130621040036e-05 5.606911934172e-07 0.0 
5.606911934172e-07 4.328657543082e-04 0.0 
0.0 0.0 0.0 
9.926829052631e-05 9.057240231263e-07 0.0 
9.057240231263e-07 4.914454185589e-04 0.0 
0.0 0.0 0.0 
1.046004892422e-04 1.719111677395e-06 0.0 
1.719111677395e-06 5.524850185947e-04 0.0 
0.0 0.0 0.0 
1.067488384062e-04 3.150173403235e-06 0.0 
3.150173403235e-06 6.174174528305e-04 0.0 
0.0 0.0 0.0 
1.079160033464e-04 3.729779844879e-06 0.0 
3.729779844879e-06 6.817166870077e-04 0.0 
0.0 0.0 0.0 
1.065231098799e-04 5.329854827303e-06 0.0 
5.329854827303e-06 7.418139393138e-04 0.0 
0.0 0.0 0.0 
1.007309252230e-04 3.416412914818e-06 0.0 
3.416412914818e-06 8.107937283069e-04 0.0 
0.0 0.0 0.0 
9.170145409524e-05 3.840049361329e-06 0.0 
3.840049361329e-06 8.839611069812e-04 0.0 
0.0 0.0 0.0 
7.964291516993e-05 4.379127372216e-06 0.0 
4.379127372216e-06 9.572080068882e-04 0.0 
0.0 0.0 0.0 
6.406377843919e-05 4.668863850627e-06 0.0 
4.668863850627e-06 1.033553122208e-03 0.0 
0.0 0.0 0.0 
4.492426887278e-05 5.685904498688e-06 0.0 
5.685904498688e-06 1.112904180981e-03 0.0 
0.0 0.0 0.0 
2.604894759443e-05 6.528540299449e-06 0.0 
6.528540299449e-06 1.190253107798e-03 0.0 
0.0 0.0 0.0 
-7.675407563597e-06 1.630338781170e-05 0.0 
1.630338781170e-05 2.512242690634e-03 0.0 
0.0 0.0 0.0 
-8.607335159468e-06 3.003150026657e-05 0.0 
3.003150026657e-05 2.508820774833e-03 0.0 
0.0 0.0 0.0 
-8.817343249423e-06 4.354838038514e-05 0.0 
4.354838038514e-05 2.508484878535e-03 0.0 
0.0 0.0 0.0 
-8.718383658124e-06 6.152777533569e-05 0.0 
6.152777533569e-05 2.505991441292e-03 0.0 
0.0 0.0 0.0 
-1.118421201681e-05 7.677295228212e-05 0.0 
7.677295228212e-05 2.501727754764e-03 0.0 
0.0 0.0 0.0 
-1.051589578556e-05 9.598085327577e-05 0.0 
9.598085327577e-05 2.499028366068e-03 0.0 
0.0 0.0 0.0 
-1.213436253130e-05 1.168255547005e-04 0.0 
1.168255547005e-04 2.492632154829e-03 0.0 
0.0 0.0 0.0 
-1.285369050241e-05 1.395334465571e-04 0.0 
1.395334465571e-04 2.482897210212e-03 0.0 
0.0 0.0 0.0 
-1.367280535391e-05 1.623578930665e-04 0.0 
1.623578930665e-04 2.473298931714e-03 0.0 
0.0 0.0 0.0 
-1.258741417376e-05 1.892357048915e-04 0.0 
1.892357048915e-04 2.458246229154e-03 0.0 
0.0 0.0 0.0 
-1.657981411914e-05 2.144315029187e-04 0.0 
2.144315029187e-04 2.439885936570e-03 0.0 
0.0 0.0 0.0 
-1.523930413846e-05 2.437616033392e-04 0.0 
2.437616033392e-04 2.418239715969e-03 0.0 
0.0 0.0 0.0 
-1.614767085093e-05 2.736392673817e-04 0.0 
2.736392673817e-04 2.389886992031e-03 0.0 
0.0 0.0 0.0 
-1.473751186850e-05 3.021410704080e-04 0.0 
3.021410704080e-04 2.356465376714e-03 0.0 
0.0 0.0 0.0 
-1.575686182779e-05 3.295496208702e-04 0.0 
3.295496208702e-04 2.318486282095e-03 0.0 
0.0 0.0 0.0 
-1.370541835018e-05 3.548526463556e-04 0.0 
3.548526463556e-04 2.273058323498e-03 0.0 
0.0 0.0 0.0 
-1.389370883746e-05 3.783191446495e-04 0.0 
3.783191446495e-04 2.223850660895e-03 0.0 
0.0 0.0 0.0 
-1.166849027157e-05 4.003758477683e-04 0.0 
4.003758477683e-04 2.170063493134e-03 0.0 
0.0 0.0 0.0 
-8.859427358991e-06 4.172845896649e-04 0.0 
4.172845896649e-04 2.114367259553e-03 0.0 
0.0 0.0 0.0 
-5.643011064908e-06 4.301341830591e-04 0.0 
4.301341830591e-04 2.056432830102e-03 0.0 
0.0 0.0 0.0 
-2.010218184393e-06 4.380426775302e-04 0.0 
4.380426775302e-04 1.995477386400e-03 0.0 
0.0 0.0 0.0 
-8.666539789148e-07 4.409534917812e-04 0.0 
4.409534917812e-04 1.934960868421e-03 0.0 
0.0 0.0 0.0 
1.900555071321e-06 4.397867374513e-04 0.0 
4.397867374513e-04 1.874625512348e-03 0.0 
0.0 0.0 0.0 
3.830010258943e-06 4.342668790071e-04 0.0 
4.342668790071e-04 1.815973428242e-03 0.0 
0.0 0.0 0.0 
5.216914153857e-06 4.256295489700e-04 0.0 
4.256295489700e-04 1.760308769132e-03 0.0 
0.0 0.0 0.0 
7.009828373465e-06 4.145758750317e-04 0.0 
4.145758750317e-04 1.707193524122e-03 0.0 
0.0 0.0 0.0 
7.624714119266e-06 3.999342340313e-04 0.0 
3.999342340313e-04 1.656977162064e-03 0.0 
0.0 0.0 0.0 
1.004657007179e-05 3.833663538552e-04 0.0 
3.833663538552e-04 1.609981670799e-03 0.0 
0.0 0.0 0.0 
1.001690537620e-05 3.642664615938e-04 0.0 
3.642664615938e-04 1.565330892973e-03 0.0 
0.0 0.0 0.0 
8.649338039420e-06 3.449459452885e-04 0.0 
3.449459452885e-04 1.528811573007e-03 0.0 
0.0 0.0 0.0 
1.161415593291e-05 3.252393296558e-04 0.0 
3.252393296558e-04 1.489064493250e-03 0.0 
0.0 0.0 0.0 
1.244202948662e-05 3.033082667071e-04 0.0 
3.033082667071e-04 1.451250461071e-03 0.0 
0.0 0.0 0.0 
1.221956276794e-05 2.797502081784e-04 0.0 
2.797502081784e-04 1.418823186884e-03 0.0 
0.0 0.0 0.0 
1.177326436889e-05 2.581691753266e-04 0.0 
2.581691753266e-04 1.393557555903e-03 0.0 
0.0 0.0 0.0 
1.210444802013e-05 2.372113018423e-04 0.0 
2.372113018423e-04 1.369146590007e-03 0.0 
0.0 0.0 0.0 
1.008689996573e-05 2.158470813832e-04 0.0 
2.158470813832e-04 1.347875331302e-03 0.0 
0.0 0.0 0.0 
1.176924467320e-05 1.961691615314e-04 0.0 
1.961691615314e-04 1.329674241187e-03 0.0 
0.0 0.0 0.0 
1.004221370238e-05 1.761451510755e-04 0.0 
1.761451510755e-04 1.311746448896e-03 0.0 
0.0 0.0 0.0 
1.143266802287e-05 1.575096250921e-04 0.0 
1.575096250921e-04 1.296392662661e-03 0.0 
0.0 0.0 0.0 
9.908044951749e-06 1.392446909103e-04 0.0 
1.392446909103e-04 1.282558902287e-03 0.0 
0.0 0.0 0.0 
8.304821261943e-06 1.227250860896e-04 0.0 
1.227250860896e-04 1.273916216579e-03 0.0 
0.0 0.0 0.0 
8.426958625648e-06 1.073442015200e-04 0.0 
1.073442015200e-04 1.269061938674e-03 0.0 
0.0 0.0 0.0 
9.019895562975e-06 9.220963469568e-05 0.0 
9.220963469568e-05 1.263633657704e-03 0.0 
0.0 0.0 0.0 
1.017718990970e-05 7.574872730578e-05 0.0 
7.574872730578e-05 1.246033503303e-03 0.0 
0.0 0.0 0.0 
8.353513853754e-06 6.171524496621e-05 0.0 
6.171524496621e-05 1.250473159210e-03 0.0 
0.0 0.0 0.0 
7.099201753717e-06 4.890486883356e-05 0.0 
4.890486883356e-05 1.243345569266e-03 0.0 
0.0 0.0 0.0 
6.172357860601e-06 3.628183511173e-05 0.0 
3.628183511173e-05 1.242175624096e-03 0.0 
0.0 0.0 0.0 
6.569105058067e-06 2.513104497990e-05 0.0 
2.513104497990e-05 1.243050002522e-03 0.0 
0.0 0.0 0.0 
6.404838577427e-06 1.381412797369e-05 0.0 
1.381412797369e-05 1.241639005071e-03 0.0 
0.0 0.0 0.0 
-1.379786848690e-04 -2.164230322637e-06 0.0 
-2.164230322637e-06 2.053389290689e-03 0.0 
0.0 0.0 0.0 
-1.348423579879e-04 -1.897869965989e-06 0.0 
-1.897869965989e-06 2.116064242645e-03 0.0 
0.0 0.0 0.0 
-1.290259615951e-04 -1.304610799048e-06 0.0 
-1.304610799048e-06 2.176073660235e-03 0.0 
0.0 0.0 0.0 
-1.206794975491e-04 -7.070036662522e-07 0.0 
-7.070036662522e-07 2.232902999292e-03 0.0 
0.0 0.0 0.0 
-1.092947437615e-04 2.129419980901e-07 0.0 
2.129419980901e-07 2.288507178018e-03 0.0 
0.0 0.0 0.0 
-9.436519591621e-05 8.957335125547e-07 0.0 
8.957335125547e-07 2.341522812309e-03 0.0 
0.0 0.0 0.0 
-7.648142242263e-05 1.680782387877e-06 0.0 
1.680782387877e-06 2.391467717559e-03 0.0 
0.0 0.0 0.0 
-5.421638504958e-05 2.531320555549e-06 0.0 
2.531320555549e-06 2.438630013796e-03 0.0 
0.0 0.0 0.0 
-3.117769855565e-05 2.774529159401e-06 0.0 
2.774529159401e-06 2.484216643909e-03 0.0 
0.0 0.0 0.0 
-1.265202749124e-04 6.922760964741e-05 0.0 
6.922760964741e-05 7.806732173502e-05 0.0 
0.0 0.0 0.0 
-2.334744979076e-04 8.767563984113e-05 0.0 
8.767563984113e-05 2.002323277561e-03 0.0 
0.0 0.0 0.0 
-1.440394127723e-04 1.688278169122e-04 0.0 
1.688278169122e-04 1.958630753534e-04 0.0 
0.0 0.0 0.0 
-1.610893322304e-04 2.138113129665e-04 0.0 
2.138113129665e-04 3.860153337749e-04 0.0 
0.0 0.0 0.0 
-1.706935395753e-04 2.339445615716e-04 0.0 
2.339445615716e-04 5.915781678293e-04 0.0 
0.0 0.0 0.0 
-1.745210958747e-04 2.400802859559e-04 0.0 
2.400802859559e-04 7.932400009091e-04 0.0 
0.0 0.0 0.0 
-1.740046005277e-04 2.432102159995e-04 0.0 
2.432102159995e-04 9.989891703697e-04 0.0 
0.0 0.0 0.0 
-1.725211806118e-04 2.422046022012e-04 0.0 
2.422046022012e-04 1.208405450902e-03 0.0 
0.0 0.0 0.0 
-1.743219106382e-04 2.443265287991e-04 0.0 
2.443265287991e-04 1.416547705476e-03 0.0 
0.0 0.0 0.0 
-1.920201838704e-04 2.460665458102e-04 0.0 
2.460665458102e-04 1.633360186542e-03 0.0 
0.0 0.0 0.0 
-2.681286377314e-04 1.786638253516e-04 0.0 
1.786638253516e-04 1.896181515833e-03 0.0 
0.0 0.0 0.0 
-1.499803560919e-04 -3.041158938169e-06 0.0 
-3.041158938169e-06 1.950999763650e-03 0.0 
0.0 0.0 0.0 
-1.424785776556e-04 2.050628019273e-06 0.0 
2.050628019273e-06 1.982737923476e-03 0.0 
0.0 0.0 0.0 
-1.405060184161e-04 8.416228439163e-07 0.0 
8.416228439163e-07 1.986352379668e-03 0.0 
0.0 0.0 0.0 
-1.405196031088e-04 6.849490849977e-08 0.0 
6.849490849977e-08 1.986458619988e-03 0.0 
0.0 0.0 0.0 
-1.406653656445e-04 -7.420680753402e-07 0.0 
-7.420680753402e-07 1.985692521319e-03 0.0 
0.0 0.0 0.0 
-1.410368038961e-04 -6.749982397786e-07 0.0 
-6.749982397786e-07 1.994424814922e-03 0.0 
0.0 0.0 0.0 
-1.413404220809e-04 -1.595734718372e-06 0.0 
-1.595734718372e-06 1.986917283688e-03 0.0 
0.0 0.0 0.0 
-1.415538463957e-04 -2.107800756363e-06 0.0 
-2.107800756363e-06 1.986269314750e-03 0.0 
0.0 0.0 0.0 
-1.421200703999e-04 -1.866802867259e-06 0.0 
-1.866802867259e-06 1.986895162865e-03 0.0 
0.0 0.0 0.0 
-1.448301865480e-04 -1.535309312801e-06 0.0 
-1.535309312801e-06 1.988856254013e-03 0.0 
0.0 0.0 0.0 
-1.477381012667e-04 -2.045650845081e-07 0.0 
-2.045650845081e-07 1.989181128358e-03 0.0 
0.0 0.0 0.0 
-1.516329645168e-04 2.939113881585e-06 0.0 
2.939113881585e-06 1.989721959002e-03 0.0 
0.0 0.0 0.0 
-1.597598465199e-04 8.611164409890e-06 0.0 
8.611164409890e-06 1.990964291797e-03 0.0 
0.0 0.0 0.0 
-1.723612290309e-04 2.019378528666e-05 0.0 
2.019378528666e-05 1.992985973140e-03 0.0 
0.0 0.0 0.0 
-1.928012529640e-04 4.182604440574e-05 0.0 
4.182604440574e-05 1.997126970351e-03 0.0 
0.0 0.0 0.0 
-1.481756177952e-04 2.509174435713e-05 0.0 
2.509174435713e-05 8.696504388084e-05 0.0 
0.0 0.0 0.0 
-1.668183131824e-04 4.514147523859e-06 0.0 
4.514147523859e-06 9.115263253638e-05 0.0 
0.0 0.0 0.0 
-1.672634977768e-04 -6.214182512566e-06 0.0 
-6.214182512566e-06 8.795166954445e-05 0.0 
0.0 0.0 0.0 
-1.552958317434e-04 -8.762321765148e-06 0.0 
-8.762321765148e-06 8.188332373786e-05 0.0 
0.0 0.0 0.0 
-1.369384920805e-04 -1.130604243144e-05 0.0 
-1.130604243144e-05 7.508805878328e-05 0.0 
0.0 0.0 0.0 
-1.212329277659e-04 -1.150211115825e-05 0.0 
-1.150211115825e-05 6.898701796139e-05 0.0 
0.0 0.0 0.0 
-1.049457752674e-04 -1.109823241740e-05 0.0 
-1.109823241740e-05 6.212239074377e-05 0.0 
0.0 0.0 0.0 
-8.850910782295e-05 -1.052137341725e-05 0.0 
-1.052137341725e-05 5.494934355591e-05 0.0 
0.0 0.0 0.0 
-7.304684730366e-05 -1.012944647634e-05 0.0 
-1.012944647634e-05 4.835804800396e-05 0.0 
0.0 0.0 0.0 
-5.846165795805e-05 -9.404394281142e-06 0.0 
-9.404394281142e-06 4.199508092606e-05 0.0 
0.0 0.0 0.0 
-4.454794307533e-05 -8.426542811996e-06 0.0 
-8.426542811996e-06 3.675387267273e-05 0.0 
0.0 0.0 0.0 
-3.533702120651e-05 -7.440654919905e-06 0.0 
-7.440654919905e-06 3.320553237500e-05 0.0 
0.0 0.0 0.0 
-2.312518523599e-05 -6.049324166279e-06 0.0 
-6.049324166279e-06 2.743035147275e-05 0.0 
0.0 0.0 0.0 
-1.221304702885e-05 -5.669163458391e-06 0.0 
-5.669163458391e-06 2.186521129947e-05 0.0 
0.0 0.0 0.0 
-4.260602872175e-06 -5.341577100579e-06 0.0 
-5.341577100579e-06 1.859426186623e-05 0.0 
0.0 0.0 0.0 
9.263752887752e-07 -4.012611715387e-06 0.0 
-4.012611715387e-06 1.667907433752e-05 0.0 
0.0 0.0 0.0 
5.545812632901e-06 -2.302052480888e-06 0.0 
-2.302052480888e-06 1.464887397969e-05 0.0 
0.0 0.0 0.0 
1.034117098212e-05 -4.487783103612e-07 0.0 
-4.487783103612e-07 1.147967567568e-05 0.0 
0.0 0.0 0.0 
1.222764267247e-05 4.957470706920e-07 0.0 
4.957470706920e-07 9.272669519333e-06 0.0 
0.0 0.0 0.0 
-2.238634540561e-04 5.324871155593e-05 0.0 
5.324871155593e-05 1.969198411142e-03 0.0 
0.0 0.0 0.0 
-1.687179747165e-04 2.858927761950e-05 0.0 
2.858927761950e-05 1.958445895134e-03 0.0 
0.0 0.0 0.0 
-1.448168897122e-04 1.474055869091e-05 0.0 
1.474055869091e-05 1.956876082827e-03 0.0 
0.0 0.0 0.0 
-1.328494680746e-04 5.077665959427e-06 0.0 
5.077665959427e-06 1.953487669295e-03 0.0 
0.0 0.0 0.0 
-1.284829018931e-04 5.641793066024e-07 0.0 
5.641793066024e-07 1.952917257937e-03 0.0 
0.0 0.0 0.0 
-1.278628776387e-04 -1.376323168455e-06 0.0 
-1.376323168455e-06 1.953128382976e-03 0.0 
0.0 0.0 0.0 
-1.297194272806e-04 -2.175015919607e-06 0.0 
-2.175015919607e-06 1.953295828856e-03 0.0 
0.0 0.0 0.0 
-1.319197869670e-04 -2.122128523444e-06 0.0 
-2.122128523444e-06 1.954263808210e-03 0.0 
0.0 0.0 0.0 
-1.332201010817e-04 -1.741766212061e-06 0.0 
-1.741766212061e-06 1.955418585207e-03 0.0 
0.0 0.0 0.0 
-1.356888024481e-04 -2.097919017455e-06 0.0 
-2.097919017455e-06 1.955815701664e-03 0.0 
0.0 0.0 0.0 
-1.371879175168e-04 -1.463149493010e-06 0.0 
-1.463149493010e-06 1.956203787443e-03 0.0 
0.0 0.0 0.0 
-1.383223723534e-04 -1.324430143766e-06 0.0 
-1.324430143766e-06 1.956534550784e-03 0.0 
0.0 0.0 0.0 
-1.390769289847e-04 -5.762634108704e-07 0.0 
-5.762634108704e-07 1.957020338917e-03 0.0 
0.0 0.0 0.0 
-1.392636974464e-04 5.829529814268e-07 0.0 
5.829529814268e-07 1.956640387421e-03 0.0 
0.0 0.0 0.0 
-1.407610647677e-04 1.072825214959e-06 0.0 
1.072825214959e-06 1.956118506694e-03 0.0 
0.0 0.0 0.0 
-1.465545523137e-04 4.095452698528e-06 0.0 
4.095452698528e-06 1.950581319320e-03 0.0 
0.0 0.0 0.0 
-1.301071139433e-04 1.260257483819e-04 0.0 
1.260257483819e-04 1.181571538946e-04 0.0 
0.0 0.0 0.0 
-1.545921012981e-04 1.964737981393e-04 0.0 
1.964737981393e-04 2.887395814393e-04 0.0 
0.0 0.0 0.0 
-1.662289799052e-04 2.265231611304e-04 0.0 
2.265231611304e-04 4.882968876210e-04 0.0 
0.0 0.0 0.0 
-1.726036190040e-04 2.394083219394e-04 0.0 
2.394083219394e-04 6.960048057427e-04 0.0 
0.0 0.0 0.0 
-1.788719364603e-04 2.465975866562e-04 0.0 
2.465975866562e-04 8.997361573543e-04 0.0 
0.0 0.0 0.0 
-1.740474823922e-04 2.489788211975e-04 0.0 
2.489788211975e-04 1.105930552570e-03 0.0 
0.0 0.0 0.0 
-1.724490841986e-04 2.443055297462e-04 0.0 
2.443055297462e-04 1.312344240253e-03 0.0 
0.0 0.0 0.0 
-1.774032881326e-04 2.453784262282e-04 0.0 
2.453784262282e-04 1.523169664696e-03 0.0 
0.0 0.0 0.0 
-2.323356120825e-04 2.460319662846e-04 0.0 
2.460319662846e-04 1.756274427339e-03 0.0 
0.0 0.0 0.0 
-2.566028659144e-04 1.123612218214e-04 0.0 
1.123612218214e-04 1.976559350799e-03 0.0 
0.0 0.0 0.0 
-1.245981300609e-04 1.811301531215e-04 0.0 
1.811301531215e-04 3.503057382790e-04 0.0 
0.0 0.0 0.0 
3.565207206424e-05 2.615710226286e-04 0.0 
2.615710226286e-04 1.366621548537e-03 0.0 
0.0 0.0 0.0 
-5.036626462290e-05 -1.708189606096e-05 0.0 
-1.708189606096e-05 5.923680544595e-05 0.0 
0.0 0.0 0.0 
-1.123316410744e-04 -1.538367228183e-05 0.0 
-1.538367228183e-05 8.505349753433e-05 0.0 
0.0 0.0 0.0 
3.099615856076e-05 1.635307507380e-04 0.0 
1.635307507380e-04 1.267231883649e-03 0.0 
0.0 0.0 0.0 
-1.430353118927e-04 2.332283292435e-04 0.0 
2.332283292435e-04 7.536896440478e-04 0.0 
0.0 0.0 0.0 
1.065328496049e-04 -4.297390045866e-07 0.0 
-4.297390045866e-07 5.869176135658e-04 0.0 
0.0 0.0 0.0 
3.367335609033e-05 3.442645057021e-04 0.0 
3.442645057021e-04 1.500446696208e-03 0.0 
0.0 0.0 0.0 
-1.507335242194e-04 2.479832169098e-04 0.0 
2.479832169098e-04 1.145805843738e-03 0.0 
0.0 0.0 0.0 
1.931485307038e-05 4.099404094237e-04 0.0 
4.099404094237e-04 1.697973462165e-03 0.0 
0.0 0.0 0.0 
-1.747594704805e-04 2.620574132066e-04 0.0 
2.620574132066e-04 1.571041452675e-03 0.0 
0.0 0.0 0.0 
2.510452687006e-05 9.671869964926e-05 0.0 
9.671869964926e-05 1.232083589876e-03 0.0 
0.0 0.0 0.0 
-9.911897380569e-06 -1.014169211370e-05 0.0 
-1.014169211370e-05 4.001912491810e-05 0.0 
0.0 0.0 0.0 
-4.718448737062e-06 4.299416977918e-04 0.0 
4.299416977918e-04 1.940044972226e-03 0.0 
0.0 0.0 0.0 
-2.496776658543e-04 1.655576542282e-04 0.0 
1.655576542282e-04 1.974996756806e-03 0.0 
0.0 0.0 0.0 
7.704824692349e-05 -3.670866058870e-06 0.0 
-3.670866058870e-06 3.498989131024e-04 0.0 
0.0 0.0 0.0 
1.045999135152e-04 4.008724345223e-06 0.0 
4.008724345223e-06 7.655985861635e-04 0.0 
0.0 0.0 0.0 
-2.858330730933e-05 3.998843782338e-04 0.0 
3.998843782338e-04 2.122976140967e-03 0.0 
0.0 0.0 0.0 
-4.405478543227e-05 3.077826947509e-04 0.0 
3.077826947509e-04 2.327882053012e-03 0.0 
0.0 0.0 0.0 
-3.100965716683e-05 8.416097392498e-05 0.0 
8.416097392498e-05 2.484507076602e-03 0.0 
0.0 0.0 0.0 
-4.282255961606e-05 1.465602025019e-04 0.0 
1.465602025019e-04 2.461532191810e-03 0.0 
0.0 0.0 0.0 
-4.478481509053e-05 2.238952005414e-04 0.0 
2.238952005414e-04 2.418162846393e-03 0.0 
0.0 0.0 0.0 
-2.157758567618e-04 6.148852293070e-05 0.0 
6.148852293070e-05 2.054595384021e-03 0.0 
0.0 0.0 0.0 
-1.643536480296e-04 7.733819277721e-06 0.0 
7.733819277721e-06 2.054216076232e-03 0.0 
0.0 0.0 0.0 
-1.493129462942e-04 2.251792979388e-06 0.0 
2.251792979388e-06 2.054135288460e-03 0.0 
0.0 0.0 0.0 
-1.154864654510e-04 3.841300546105e-06 0.0 
3.841300546105e-06 2.261745337881e-03 0.0 
0.0 0.0 0.0 
2.226949453451e-05 5.516160211683e-05 0.0 
5.516160211683e-05 1.212596111596e-03 0.0 
0.0 0.0 0.0 
-1.234698386124e-04 1.809984466902e-05 0.0 
1.809984466902e-05 9.981955867862e-05 0.0 
0.0 0.0 0.0 
8.684541256021e-06 -5.704774412680e-06 0.0 
-5.704774412680e-06 3.475101078395e-05 0.0 
0.0 0.0 0.0 
7.270502641517e-05 7.735181476923e-06 0.0 
7.735181476923e-06 9.925435098935e-04 0.0 
0.0 0.0 0.0 
-1.414429623953e-04 1.148207993904e-06 0.0 
1.148207993904e-06 2.043525159473e-03 0.0 
0.0 0.0 0.0 
4.019714229202e-05 -4.508954743449e-06 0.0 
-4.508954743449e-06 1.778026210658e-04 0.0 
0.0 0.0 0.0 
-4.440914742367e-05 3.539416483861e-04 0.0 
3.539416483861e-04 2.232927072010e-03 0.0 
0.0 0.0 0.0 
2.613768828312e-05 3.833852506409e-04 0.0 
3.833852506409e-04 1.599475103212e-03 0.0 
0.0 0.0 0.0 
7.958113095656e-06 4.273830614878e-04 0.0 
4.273830614878e-04 1.816041522900e-03 0.0 
0.0 0.0 0.0 
3.823580123531e-05 3.061120730032e-04 0.0 
3.061120730032e-04 1.426377102802e-03 0.0 
0.0 0.0 0.0 
3.181135714914e-05 2.206082092446e-04 0.0 
2.206082092446e-04 1.321485852885e-03 0.0 
0.0 0.0 0.0 
-8.716623566875e-05 -1.896104670971e-05 0.0 
-1.896104670971e-05 7.694757446020e-05 0.0 
0.0 0.0 0.0 
-1.829645516811e-04 2.195587164795e-05 0.0 
2.195587164795e-05 2.055004764650e-03 0.0 
0.0 0.0 0.0 
3.200683581947e-05 1.259869462392e-04 0.0 
1.259869462392e-04 1.230047074855e-03 0.0 
0.0 0.0 0.0 
-8.716601675122e-05 7.543453072118e-06 0.0 
7.543453072118e-06 2.365937771638e-03 0.0 
0.0 0.0 0.0 
-2.762266501484e-05 -1.544859711655e-05 0.0 
-1.544859711655e-05 5.068419512903e-05 0.0 
0.0 0.0 0.0 
9.570592092767e-05 -2.608313056923e-06 0.0 
-2.608313056923e-06 4.623116969557e-04 0.0 
0.0 0.0 0.0 
-2.368103867529e-05 5.137702266952e-05 0.0 
5.137702266952e-05 2.495741306819e-03 0.0 
0.0 0.0 0.0 
-1.425446778886e-04 2.420579489033e-04 0.0 
2.420579489033e-04 9.486068539099e-04 0.0 
0.0 0.0 0.0 
-1.343945737497e-04 2.137642877304e-04 0.0 
2.137642877304e-04 5.475755901878e-04 0.0 
0.0 0.0 0.0 
-1.556836162841e-04 2.550565650867e-04 0.0 
2.550565650867e-04 1.351161163448e-03 0.0 
0.0 0.0 0.0 
-2.350753913413e-04 2.454056723946e-04 0.0 
2.454056723946e-04 1.803374739245e-03 0.0 
0.0 0.0 0.0 
-1.173858173606e-04 1.238891070252e-04 0.0 
1.238891070252e-04 1.726270786942e-04 0.0 
0.0 0.0 0.0 
-1.317092432114e-04 1.479104608094e-06 0.0 
1.479104608094e-06 2.151275378177e-03 0.0 
0.0 0.0 0.0 
1.693899372981e-05 3.017779568365e-05 0.0 
3.017779568365e-05 1.220803713423e-03 0.0 
0.0 0.0 0.0 
1.506969349766e-05 -1.389095501591e-06 0.0 
-1.389095501591e-06 2.939881478995e-05 0.0 
0.0 0.0 0.0 
-4.322580567356e-05 1.251122600721e-05 0.0 
1.251122600721e-05 2.458930564208e-03 0.0 
0.0 0.0 0.0 
-2.504751318133e-04 1.417901494244e-04 0.0 
1.417901494244e-04 2.025144324162e-03 0.0 
0.0 0.0 0.0 
-2.389584098766e-04 1.954428188334e-04 0.0 
1.954428188334e-04 1.995545417263e-03 0.0 
0.0 0.0 0.0 
-2.426039747121e-04 1.619881494062e-04 0.0 
1.619881494062e-04 2.058588181290e-03 0.0 
0.0 0.0 0.0 
-2.268323096820e-04 2.189064704723e-04 0.0 
2.189064704723e-04 2.019910996047e-03 0.0 
0.0 0.0 0.0 
-2.311531922758e-04 1.939456226327e-04 0.0 
1.939456226327e-04 2.084664009585e-03 0.0 
0.0 0.0 0.0 
-2.113207003485e-04 2.369759963255e-04 0.0 
2.369759963255e-04 2.047637775846e-03 0.0 
0.0 0.0 0.0 
-2.010221381903e-04 2.596575815779e-04 0.0 
2.596575815779e-04 1.971687456221e-03 0.0 
0.0 0.0 0.0 
-1.847028512864e-04 2.721703659560e-04 0.0 
2.721703659560e-04 2.003000596217e-03 0.0 
0.0 0.0 0.0 
-1.692129471830e-04 2.898713286560e-04 0.0 
2.898713286560e-04 1.917566862153e-03 0.0 
0.0 0.0 0.0 
-2.150297451902e-04 2.163754362548e-04 0.0 
2.163754362548e-04 2.112494417268e-03 0.0 
0.0 0.0 0.0 
-1.540205729250e-04 2.990938249038e-04 0.0 
2.990938249038e-04 1.953786617910e-03 0.0 
0.0 0.0 0.0 
-1.357076516211e-04 3.112456058992e-04 0.0 
3.112456058992e-04 1.862588626392e-03 0.0 
0.0 0.0 0.0 
-1.217523746910e-04 3.193358656268e-04 0.0 
3.193358656268e-04 1.902708233760e-03 0.0 
0.0 0.0 0.0 
-1.023474252571e-04 3.264920979252e-04 0.0 
3.264920979252e-04 1.808675106589e-03 0.0 
0.0 0.0 0.0 
-1.129409041640e-04 3.198600844796e-04 0.0 
3.198600844796e-04 1.763995122638e-03 0.0 
0.0 0.0 0.0 
-7.926098154234e-05 3.300423844681e-04 0.0 
3.300423844681e-04 1.708947481022e-03 0.0 
0.0 0.0 0.0 
-8.768911331952e-05 3.239824601820e-04 0.0 
3.239824601820e-04 1.660421427258e-03 0.0 
0.0 0.0 0.0 
-5.416080411780e-05 3.293672664212e-04 0.0 
3.293672664212e-04 1.605258235003e-03 0.0 
0.0 0.0 0.0 
-4.742093544084e-05 3.358801781764e-04 0.0 
3.358801781764e-04 1.657481280003e-03 0.0 
0.0 0.0 0.0 
-2.283038800782e-05 3.309216809124e-04 0.0 
3.309216809124e-04 1.554240079637e-03 0.0 
0.0 0.0 0.0 
-2.817358687888e-05 3.243687006029e-04 0.0 
3.243687006029e-04 1.498869974035e-03 0.0 
0.0 0.0 0.0 
2.255202358414e-06 3.224057374930e-04 0.0 
3.224057374930e-04 1.449610356803e-03 0.0 
0.0 0.0 0.0 
-2.850041950923e-06 3.153010734044e-04 0.0 
3.153010734044e-04 1.391955976856e-03 0.0 
0.0 0.0 0.0 
2.644249418743e-05 3.101543192484e-04 0.0 
3.101543192484e-04 1.345187317581e-03 0.0 
0.0 0.0 0.0 
2.071625432963e-05 3.022433141560e-04 0.0 
3.022433141560e-04 1.285550551494e-03 0.0 
0.0 0.0 0.0 
4.894224595457e-05 2.946497397174e-04 0.0 
2.946497397174e-04 1.241994472199e-03 0.0 
0.0 0.0 0.0 
5.247194726606e-05 3.032838410537e-04 0.0 
3.032838410537e-04 1.304046332242e-03 0.0 
0.0 0.0 0.0 
7.372051832518e-05 2.858420438687e-04 0.0 
2.858420438687e-04 1.204147845076e-03 0.0 
0.0 0.0 0.0 
6.929404970957e-05 2.767009903013e-04 0.0 
2.767009903013e-04 1.141042611210e-03 0.0 
0.0 0.0 0.0 
9.276911800212e-05 2.660215448924e-04 0.0 
2.660215448924e-04 1.106783106172e-03 0.0 
0.0 0.0 0.0 
8.696067155904e-05 2.563637460318e-04 0.0 
2.563637460318e-04 1.042985977358e-03 0.0 
0.0 0.0 0.0 
1.091738576904e-04 2.440019842194e-04 0.0 
2.440019842194e-04 1.012357116167e-03 0.0 
0.0 0.0 0.0 
1.124925631991e-04 2.548274210491e-04 0.0 
2.548274210491e-04 1.078258487658e-03 0.0 
0.0 0.0 0.0 
1.274634308387e-04 2.315095850029e-04 0.0 
2.315095850029e-04 9.879690180057e-04 0.0 
0.0 0.0 0.0 
1.226150190424e-04 2.199385624622e-04 0.0 
2.199385624622e-04 9.211978871031e-04 0.0 
0.0 0.0 0.0 
1.395046696523e-04 2.066232024036e-04 0.0 
2.066232024036e-04 9.014607533150e-04 0.0 
0.0 0.0 0.0 
1.328531245682e-04 1.943326170420e-04 0.0 
1.943326170420e-04 8.341569063191e-04 0.0 
0.0 0.0 0.0 
1.484087754905e-04 1.806738212762e-04 0.0 
1.806738212762e-04 8.192757774529e-04 0.0 
0.0 0.0 0.0 
1.396695396726e-04 1.679459060136e-04 0.0 
1.679459060136e-04 7.517572421931e-04 0.0 
0.0 0.0 0.0 
1.539329265889e-04 1.538253664466e-04 0.0 
1.538253664466e-04 7.413158036678e-04 0.0 
0.0 0.0 0.0 
1.600120282445e-04 1.677297900603e-04 0.0 
1.677297900603e-04 8.096078221512e-04 0.0 
0.0 0.0 0.0 
1.643145343774e-04 1.410185037968e-04 0.0 
1.410185037968e-04 7.358157261123e-04 0.0 
0.0 0.0 0.0 
1.558849629313e-04 1.268147821832e-04 0.0 
1.268147821832e-04 6.681323419041e-04 0.0 
0.0 0.0 0.0 
1.652015006407e-04 1.144044178143e-04 0.0 
1.144044178143e-04 6.667494945754e-04 0.0 
0.0 0.0 0.0 
1.714160082138e-04 1.297441449507e-04 0.0 
1.297441449507e-04 7.349985923986e-04 0.0 
0.0 0.0 0.0 
1.713251839671e-04 1.038831212991e-04 0.0 
1.038831212991e-04 6.697318693775e-04 0.0 
0.0 0.0 0.0 
1.753938776366e-04 1.200993388197e-04 0.0 
1.200993388197e-04 7.384166949616e-04 0.0 
0.0 0.0 0.0 
1.745575910238e-04 9.515368971817e-05 0.0 
9.515368971817e-05 6.766266993662e-04 0.0 
0.0 0.0 0.0 
1.680872684432e-04 7.910687769266e-05 0.0 
7.910687769266e-05 6.097832056253e-04 0.0 
0.0 0.0 0.0 
1.707719605698e-04 7.147698707722e-05 0.0 
7.147698707722e-05 6.197604356077e-04 0.0 
0.0 0.0 0.0 
1.752564029730e-04 8.796612110708e-05 0.0 
8.796612110708e-05 6.868692694303e-04 0.0 
0.0 0.0 0.0 
1.711654883609e-04 6.535295702658e-05 0.0 
6.535295702658e-05 6.325459801948e-04 0.0 
0.0 0.0 0.0 
1.642634971465e-04 4.933333701291e-05 0.0 
4.933333701291e-05 5.674984747456e-04 0.0 
0.0 0.0 0.0 
1.646192043497e-04 4.465490434002e-05 0.0 
4.465490434002e-05 5.827625597252e-04 0.0 
0.0 0.0 0.0 
1.696308729440e-04 6.075169478277e-05 0.0 
6.075169478277e-05 6.481723080023e-04 0.0 
0.0 0.0 0.0 
1.632555636201e-04 4.127982062693e-05 0.0 
4.127982062693e-05 6.003795303933e-04 0.0 
0.0 0.0 0.0 
1.559642819151e-04 2.594314865869e-05 0.0 
2.594314865869e-05 5.370395484966e-04 0.0 
0.0 0.0 0.0 
1.549944622586e-04 2.394645428487e-05 0.0 
2.394645428487e-05 5.563026045763e-04 0.0 
0.0 0.0 0.0 
1.604895610477e-04 3.908928939888e-05 0.0 
3.908928939888e-05 6.203723951690e-04 0.0 
0.0 0.0 0.0 
1.527940258016e-04 2.283589941250e-05 0.0 
2.283589941250e-05 5.772495142593e-04 0.0 
0.0 0.0 0.0 
1.451880746394e-04 8.826334411769e-06 0.0 
8.826334411769e-06 5.152878376626e-04 0.0 
0.0 0.0 0.0 
1.437119721322e-04 8.966291258360e-06 0.0 
8.966291258360e-06 5.370867515076e-04 0.0 
0.0 0.0 0.0 
1.496151294677e-04 2.259530604707e-05 0.0 
2.259530604707e-05 5.999449116180e-04 0.0 
0.0 0.0 0.0 
1.413795419496e-04 9.704146600492e-06 0.0 
9.704146600492e-06 5.601871534030e-04 0.0 
0.0 0.0 0.0 
1.455553373691e-04 2.283329277215e-05 0.0 
2.283329277215e-05 6.239426100601e-04 0.0 
0.0 0.0 0.0 
1.335142636835e-04 -2.670369772253e-06 0.0 
-2.670369772253e-06 4.988696643858e-04 0.0 
0.0 0.0 0.0 
1.322325120908e-04 -9.436661115692e-07 0.0 
-9.436661115692e-07 5.224793351885e-04 0.0 
0.0 0.0 0.0 
1.225458830995e-04 -1.184965645898e-05 0.0 
-1.184965645898e-05 4.625041918661e-04 0.0 
0.0 0.0 0.0 
1.224406846202e-04 -9.217623474328e-06 0.0 
-9.217623474328e-06 4.866626003504e-04 0.0 
0.0 0.0 0.0 
1.282596989972e-04 2.436715614689e-04 0.0 
2.436715614689e-04 1.055660659200e-03 0.0 
0.0 0.0 0.0 
1.113248908826e-04 -1.848861574896e-05 0.0 
-1.848861574896e-05 4.280225711038e-04 0.0 
0.0 0.0 0.0 
1.095982409716e-04 -2.145789537563e-05 0.0 
-2.145789537563e-05 4.051294869581e-04 0.0 
0.0 0.0 0.0 
1.123990119501e-04 -1.516827974351e-05 0.0 
-1.516827974351e-05 4.524033813205e-04 0.0 
0.0 0.0 0.0 
1.216978177381e-04 -6.335023078145e-06 0.0 
-6.335023078145e-06 5.119837316765e-04 0.0 
0.0 0.0 0.0 
1.001732204715e-04 -2.283941887782e-05 0.0 
-2.283941887782e-05 3.947535045212e-04 0.0 
0.0 0.0 0.0 
1.023747397044e-04 -1.897962011752e-05 0.0 
-1.897962011752e-05 4.192656860085e-04 0.0 
0.0 0.0 0.0 
8.922189073505e-05 -2.495563759795e-05 0.0 
-2.495563759795e-05 3.625840882658e-04 0.0 
0.0 0.0 0.0 
1.211125439280e-04 1.829674197677e-04 0.0 
1.829674197677e-04 7.667087196783e-04 0.0 
0.0 0.0 0.0 
-1.820703685187e-05 3.383802617988e-04 0.0 
3.383802617988e-04 1.609918595575e-03 0.0 
0.0 0.0 0.0 
9.251846571260e-05 -2.072557708049e-05 0.0 
-2.072557708049e-05 3.870530874616e-04 0.0 
0.0 0.0 0.0 
7.881483542468e-05 -2.517498025446e-05 0.0 
-2.517498025446e-05 3.311166867158e-04 0.0 
0.0 0.0 0.0 
7.381464962830e-05 -2.930797144127e-05 0.0 
-2.930797144127e-05 3.072962001945e-04 0.0 
0.0 0.0 0.0 
6.345412105380e-05 -2.795075772269e-05 0.0 
-2.795075772269e-05 2.762778765420e-04 0.0 
0.0 0.0 0.0 
-2.291331487254e-04 1.753649181269e-04 0.0 
1.753649181269e-04 2.136255374520e-03 0.0 
0.0 0.0 0.0 
-2.107388589194e-04 1.985848675334e-04 0.0 
1.985848675334e-04 2.168444006376e-03 0.0 
0.0 0.0 0.0 
-2.208781489633e-04 1.573811098002e-04 0.0 
1.573811098002e-04 2.183517598568e-03 0.0 
0.0 0.0 0.0 
-2.022778726189e-04 1.840904639023e-04 0.0 
1.840904639023e-04 2.218440721725e-03 0.0 
0.0 0.0 0.0 
-2.094311268346e-04 1.457570014361e-04 0.0 
1.457570014361e-04 2.226238169590e-03 0.0 
0.0 0.0 0.0 
6.922235953603e-05 -2.380820447213e-05 0.0 
-2.380820447213e-05 2.998760321688e-04 0.0 
0.0 0.0 0.0 
-1.358065267119e-04 3.096344359950e-04 0.0 
3.096344359950e-04 1.989912719030e-03 0.0 
0.0 0.0 0.0 
-1.884413678188e-04 2.213344769019e-04 0.0 
2.213344769019e-04 2.200424590925e-03 0.0 
0.0 0.0 0.0 
-3.520055219697e-05 3.177611253299e-04 0.0 
3.177611253299e-04 1.444890244488e-03 0.0 
0.0 0.0 0.0 
6.091091529755e-05 2.678593770839e-04 0.0 
2.678593770839e-04 1.079465833247e-03 0.0 
0.0 0.0 0.0 
1.731317480863e-04 1.458353959089e-04 0.0 
1.458353959089e-04 8.050715025678e-04 0.0 
0.0 0.0 0.0 
1.039580228320e-04 -1.509445831929e-05 0.0 
-1.509445831929e-05 4.443776973083e-04 0.0 
0.0 0.0 0.0 
9.517673493579e-05 -1.643641933205e-05 0.0 
-1.643641933205e-05 4.120594748931e-04 0.0 
0.0 0.0 0.0 
1.049446268605e-04 -1.139397356052e-05 0.0 
-1.139397356052e-05 4.700848639085e-04 0.0 
0.0 0.0 0.0 
1.516685945005e-04 3.695252803376e-05 0.0 
3.695252803376e-05 6.655344370445e-04 0.0 
0.0 0.0 0.0 
1.458820277801e-04 3.648447419313e-05 0.0 
3.648447419313e-05 6.901872194581e-04 0.0 
0.0 0.0 0.0 
1.496847743294e-04 5.174604476147e-05 0.0 
5.174604476147e-05 7.336622523837e-04 0.0 
0.0 0.0 0.0 
1.422325350898e-04 5.036528815414e-05 0.0 
5.036528815414e-05 7.588639540351e-04 0.0 
0.0 0.0 0.0 
1.435428070915e-04 6.662547891358e-05 0.0 
6.662547891358e-05 8.042499288509e-04 0.0 
0.0 0.0 0.0 
1.345611136693e-04 6.419788790721e-05 0.0 
6.419788790721e-05 8.300163871094e-04 0.0 
0.0 0.0 0.0 
1.342605981296e-04 4.883407296549e-05 0.0 
4.883407296549e-05 7.852302293514e-04 0.0 
0.0 0.0 0.0 
1.251202123951e-04 6.144135204686e-05 0.0 
6.144135204686e-05 8.569641194523e-04 0.0 
0.0 0.0 0.0 
1.259274934107e-04 4.700951186043e-05 0.0 
4.700951186043e-05 8.125852996248e-04 0.0 
0.0 0.0 0.0 
1.332610214457e-04 8.132623068721e-05 0.0 
8.132623068721e-05 8.772910745112e-04 0.0 
0.0 0.0 0.0 
1.431488062546e-04 8.464950662301e-05 0.0 
8.464950662301e-05 8.522810019809e-04 0.0 
0.0 0.0 0.0 
1.154285122118e-04 5.829313172267e-05 0.0 
5.829313172267e-05 8.848662524805e-04 0.0 
0.0 0.0 0.0 
1.173693256842e-04 4.478039462537e-05 0.0 
4.478039462537e-05 8.408473205362e-04 0.0 
0.0 0.0 0.0 
1.056310340673e-04 5.471927181720e-05 0.0 
5.471927181720e-05 9.137532599944e-04 0.0 
0.0 0.0 0.0 
1.087242910390e-04 4.192947195935e-05 0.0 
4.192947195935e-05 8.698971516916e-04 0.0 
0.0 0.0 0.0 
1.180540859824e-04 3.296936823743e-05 0.0 
3.296936823743e-05 7.986127703622e-04 0.0 
0.0 0.0 0.0 
1.106860355735e-04 3.085158936877e-05 0.0 
3.085158936877e-05 8.276013099666e-04 0.0 
0.0 0.0 0.0 
1.176988457630e-04 2.294751364638e-05 0.0 
2.294751364638e-05 7.582538266262e-04 0.0 
0.0 0.0 0.0 
1.750556152569e-04 1.369605140866e-04 0.0 
1.369605140866e-04 8.089539127298e-04 0.0 
0.0 0.0 0.0 
1.705173178293e-04 1.626870348227e-04 0.0 
1.626870348227e-04 8.769673030909e-04 0.0 
0.0 0.0 0.0 
1.704308974170e-04 1.544273190600e-04 0.0 
1.544273190600e-04 8.812429767433e-04 0.0 
0.0 0.0 0.0 
1.636145691746e-04 1.801249047682e-04 0.0 
1.801249047682e-04 9.504629751787e-04 0.0 
0.0 0.0 0.0 
1.614706996621e-04 1.723888742005e-04 0.0 
1.723888742005e-04 9.553759307864e-04 0.0 
0.0 0.0 0.0 
1.523986473489e-04 1.981113365116e-04 0.0 
1.981113365116e-04 1.025708975285e-03 0.0 
0.0 0.0 0.0 
1.480594337215e-04 1.908241493399e-04 0.0 
1.908241493399e-04 1.031286218149e-03 0.0 
0.0 0.0 0.0 
1.567267511876e-04 1.654207639110e-04 0.0 
1.654207639110e-04 9.641112785070e-04 0.0 
0.0 0.0 0.0 
-8.993670640430e-05 3.347870907078e-04 0.0 
3.347870907078e-04 1.851734210007e-03 0.0 
0.0 0.0 0.0 
1.544825958388e-04 1.000136797039e-04 0.0 
1.000136797039e-04 6.002114956465e-04 0.0 
0.0 0.0 0.0 
1.427972740330e-04 1.136711739543e-04 0.0 
1.136711739543e-04 6.019234630830e-04 0.0 
0.0 0.0 0.0 
1.390540996704e-04 8.674207199517e-05 0.0 
8.674207199517e-05 5.352434961652e-04 0.0 
0.0 0.0 0.0 
1.247616603453e-04 1.017458783008e-04 0.0 
1.017458783008e-04 5.372871747708e-04 0.0 
0.0 0.0 0.0 
1.186550743098e-04 7.482929215665e-05 0.0 
7.482929215665e-05 4.718902616056e-04 0.0 
0.0 0.0 0.0 
1.014013731301e-04 9.147425284308e-05 0.0 
9.147425284308e-05 4.744318516245e-04 0.0 
0.0 0.0 0.0 
9.279608657708e-05 6.472011219406e-05 0.0 
6.472011219406e-05 4.101569834569e-04 0.0 
0.0 0.0 0.0 
1.090241155275e-04 4.921550998435e-05 0.0 
4.921550998435e-05 4.123889406763e-04 0.0 
0.0 0.0 0.0 
8.053605952170e-05 3.960942052065e-05 0.0 
3.960942052065e-05 3.520117105886e-04 0.0 
0.0 0.0 0.0 
9.611107667736e-05 2.541143519775e-05 0.0 
2.541143519775e-05 3.589801492046e-04 0.0 
0.0 0.0 0.0 
6.506862483546e-05 1.643838243032e-05 0.0 
1.643838243032e-05 3.003190646183e-04 0.0 
0.0 0.0 0.0 
8.014590573420e-05 4.267860436149e-06 0.0 
4.267860436149e-06 3.114089807791e-04 0.0 
0.0 0.0 0.0 
7.493053980567e-05 2.955875370621e-04 0.0 
2.955875370621e-04 1.268281637040e-03 0.0 
0.0 0.0 0.0 
1.540391447768e-04 2.061674560793e-04 0.0 
2.061674560793e-04 1.023827262759e-03 0.0 
0.0 0.0 0.0 
1.407634041928e-04 2.243832293032e-04 0.0 
2.243832293032e-04 1.100036534456e-03 0.0 
0.0 0.0 0.0 
1.420479123647e-04 2.321298608832e-04 0.0 
2.321298608832e-04 1.100416197057e-03 0.0 
0.0 0.0 0.0 
5.667278711763e-05 -3.172299972695e-05 0.0 
-3.172299972695e-05 2.530307836249e-04 0.0 
0.0 0.0 0.0 
1.001623662839e-04 3.834692241960e-05 0.0 
3.834692241960e-05 8.996278508022e-04 0.0 
0.0 0.0 0.0 
1.300876177629e-04 1.000362715484e-04 0.0 
1.000362715484e-04 9.273796417030e-04 0.0 
0.0 0.0 0.0 
1.407356339096e-04 1.041932770345e-04 0.0 
1.041932770345e-04 9.030096141006e-04 0.0 
0.0 0.0 0.0 
1.411384993214e-04 1.841968948522e-04 0.0 
1.841968948522e-04 1.041277586435e-03 0.0 
0.0 0.0 0.0 
5.425805912285e-05 -2.511369297856e-05 0.0 
-2.511369297856e-05 2.458036214313e-04 0.0 
0.0 0.0 0.0 
7.240925637123e-05 8.340731335052e-05 0.0 
8.340731335052e-05 4.134403199530e-04 0.0 
0.0 0.0 0.0 
7.936893030939e-05 1.109150494872e-04 0.0 
1.109150494872e-04 4.828398960281e-04 0.0 
0.0 0.0 0.0 
-1.894527255106e-04 1.722084480113e-04 0.0 
1.722084480113e-04 2.262495593225e-03 0.0 
0.0 0.0 0.0 
-1.947573734249e-04 1.371087357201e-04 0.0 
1.371087357201e-04 2.264421882068e-03 0.0 
0.0 0.0 0.0 
1.247566762331e-04 1.202871451473e-04 0.0 
1.202871451473e-04 9.804515629008e-04 0.0 
0.0 0.0 0.0 
6.047973480609e-05 -2.107733547532e-05 0.0 
-2.107733547532e-05 2.690708689964e-04 0.0 
0.0 0.0 0.0 
1.119589502849e-04 7.355756493135e-05 0.0 
7.355756493135e-05 9.311755772932e-04 0.0 
0.0 0.0 0.0 
4.668840448422e-05 3.232459042768e-05 0.0 
3.232459042768e-05 2.934124148851e-04 0.0 
0.0 0.0 0.0 
1.034297564233e-04 2.808202101956e-05 0.0 
2.808202101956e-05 8.571704910051e-04 0.0 
0.0 0.0 0.0 
9.170386113326e-05 3.408567571238e-05 0.0 
3.408567571238e-05 9.298084904481e-04 0.0 
0.0 0.0 0.0 
1.325881862972e-04 3.541582485041e-05 0.0 
3.541582485041e-05 7.428190394455e-04 0.0 
0.0 0.0 0.0 
1.271019466649e-04 2.507513381433e-04 0.0 
2.507513381433e-04 1.177555635927e-03 0.0 
0.0 0.0 0.0 
1.278809523928e-04 2.573066898440e-04 0.0 
2.573066898440e-04 1.179922567443e-03 0.0 
0.0 0.0 0.0 
1.078382137521e-04 1.468477324528e-05 0.0 
1.468477324528e-05 3.701102791929e-04 0.0 
0.0 0.0 0.0 
9.157105605965e-05 -4.234104578837e-06 0.0 
-4.234104578837e-06 3.257309681492e-04 0.0 
0.0 0.0 0.0 
6.209390665516e-05 -1.306830038709e-05 0.0 
-1.306830038709e-05 2.709231649047e-04 0.0 
0.0 0.0 0.0 
7.358714260819e-05 -1.905224215503e-05 0.0 
-1.905224215503e-05 2.874403308010e-04 0.0 
0.0 0.0 0.0 
1.013282711932e-04 -9.886381902408e-06 0.0 
-9.886381902408e-06 3.415956229444e-04 0.0 
0.0 0.0 0.0 
8.423129111631e-05 -2.355110869725e-05 0.0 
-2.355110869725e-05 3.033633256764e-04 0.0 
0.0 0.0 0.0 
5.636523554683e-05 -3.093526069446e-05 0.0 
-3.093526069446e-05 2.498618515486e-04 0.0 
0.0 0.0 0.0 
6.642491104721e-05 -3.319341398395e-05 0.0 
-3.319341398395e-05 2.681481404347e-04 0.0 
0.0 0.0 0.0 
9.245016242735e-05 -2.563489664473e-05 0.0 
-2.563489664473e-05 3.221348111056e-04 0.0 
0.0 0.0 0.0 
7.565885638465e-05 -3.414125218818e-05 0.0 
-3.414125218818e-05 2.878171874146e-04 0.0 
0.0 0.0 0.0 
4.861448424994e-05 -3.935912413105e-05 0.0 
-3.935912413105e-05 2.352134888628e-04 0.0 
0.0 0.0 0.0 
5.916755751900e-05 -3.888505200989e-05 0.0 
-3.888505200989e-05 2.552231328683e-04 0.0 
0.0 0.0 0.0 
8.609977171281e-05 4.525132461923e-05 0.0 
4.525132461923e-05 9.738300362678e-04 0.0 
0.0 0.0 0.0 
2.884985107291e-05 9.524972342119e-06 0.0 
9.524972342119e-06 2.440636066258e-04 0.0 
0.0 0.0 0.0 
-1.232082369177e-04 3.135101663816e-04 0.0 
3.135101663816e-04 1.720077911651e-03 0.0 
0.0 0.0 0.0 
1.127446194149e-04 1.149662695219e-04 0.0 
1.149662695219e-04 1.004791671871e-03 0.0 
0.0 0.0 0.0 
1.298859449024e-04 2.098822537577e-04 0.0 
2.098822537577e-04 1.108922291213e-03 0.0 
0.0 0.0 0.0 
-1.730147222689e-04 1.629275474405e-04 0.0 
1.629275474405e-04 2.302146239383e-03 0.0 
0.0 0.0 0.0 
-1.775959753686e-04 1.305870562556e-04 0.0 
1.305870562556e-04 2.299350250446e-03 0.0 
0.0 0.0 0.0 
-1.939918848152e-04 1.045948913236e-04 0.0 
1.045948913236e-04 2.256818299648e-03 0.0 
0.0 0.0 0.0 
-1.774905953082e-04 1.010028361663e-04 0.0 
1.010028361663e-04 2.288777414216e-03 0.0 
0.0 0.0 0.0 
-1.581597714695e-04 1.252017484461e-04 0.0 
1.252017484461e-04 2.331438902331e-03 0.0 
0.0 0.0 0.0 
-1.593596771089e-04 9.793305810431e-05 0.0 
9.793305810431e-05 2.318882592844e-03 0.0 
0.0 0.0 0.0 
-1.739286632962e-04 7.530924828739e-05 0.0 
7.530924828739e-05 2.271785146115e-03 0.0 
0.0 0.0 0.0 
-1.576931501118e-04 7.424842715101e-05 0.0 
7.424842715101e-05 2.300931238336e-03 0.0 
0.0 0.0 0.0 
-1.681486344721e-04 5.395422709901e-05 0.0 
5.395422709901e-05 2.249748023880e-03 0.0 
0.0 0.0 0.0 
-1.542099027695e-04 5.456841268993e-05 0.0 
5.456841268993e-05 2.278798948356e-03 0.0 
0.0 0.0 0.0 
-1.403746615321e-04 7.282760384653e-05 0.0 
7.282760384653e-05 2.329033843963e-03 0.0 
0.0 0.0 0.0 
-1.391384097896e-04 5.435047725683e-05 0.0 
5.435047725683e-05 2.306873352601e-03 0.0 
0.0 0.0 0.0 
-1.499868671072e-04 3.876071659207e-05 0.0 
3.876071659207e-05 2.253635395389e-03 0.0 
0.0 0.0 0.0 
-1.372321098287e-04 3.917894117174e-05 0.0 
3.917894117174e-05 2.282234756586e-03 0.0 
0.0 0.0 0.0 
-1.458640381944e-04 2.641618782084e-05 0.0 
2.641618782084e-05 2.226527307280e-03 0.0 
0.0 0.0 0.0 
-1.352422488503e-04 2.710716694401e-05 0.0 
2.710716694401e-05 2.255630351704e-03 0.0 
0.0 0.0 0.0 
-1.235688968799e-04 3.848875745042e-05 0.0 
3.848875745042e-05 2.310061114022e-03 0.0 
0.0 0.0 0.0 
4.632564427176e-05 -2.120628102391e-05 0.0 
-2.120628102391e-05 2.165055826323e-04 0.0 
0.0 0.0 0.0 
1.495375155326e-04 1.591865482630e-04 0.0 
1.591865482630e-04 9.764526104982e-04 0.0 
0.0 0.0 0.0 
1.315447168561e-04 1.781253726486e-04 0.0 
1.781253726486e-04 1.055581312622e-03 0.0 
0.0 0.0 0.0 
9.724538728114e-05 -1.274247700671e-05 0.0 
-1.274247700671e-05 4.391224717073e-04 0.0 
0.0 0.0 0.0 
1.059597667763e-04 -8.251311264889e-06 0.0 
-8.251311264889e-06 4.955507536788e-04 0.0 
0.0 0.0 0.0 
1.122442591549e-04 -5.123971305380e-06 0.0 
-5.123971305380e-06 5.297660796602e-04 0.0 
0.0 0.0 0.0 
1.117035257995e-04 -2.515011326424e-06 0.0 
-2.515011326424e-06 5.569435267260e-04 0.0 
0.0 0.0 0.0 
-1.239381853725e-04 2.655774811301e-05 0.0 
2.655774811301e-05 2.283961273233e-03 0.0 
0.0 0.0 0.0 
-1.095358856688e-04 3.635845959879e-05 0.0 
3.635845959879e-05 2.337286259272e-03 0.0 
0.0 0.0 0.0 
4.719646454824e-05 1.057037555622e-04 0.0 
1.057037555622e-04 4.230392522311e-04 0.0 
0.0 0.0 0.0 
5.176464569097e-05 1.329828296634e-04 0.0 
1.329828296634e-04 4.983117347218e-04 0.0 
0.0 0.0 0.0 
-1.631371631609e-04 1.969224038452e-04 0.0 
1.969224038452e-04 2.296572543194e-03 0.0 
0.0 0.0 0.0 
9.614869532711e-05 2.440742258581e-05 0.0 
2.440742258581e-05 8.876729151100e-04 0.0 
0.0 0.0 0.0 
1.056162204059e-04 1.945458647216e-05 0.0 
1.945458647216e-05 8.165605235478e-04 0.0 
0.0 0.0 0.0 
7.671663432181e-05 2.470821097071e-04 0.0 
2.470821097071e-04 9.808959298443e-04 0.0 
0.0 0.0 0.0 
4.744831050892e-05 2.589646236610e-04 0.0 
2.589646236610e-04 1.019797481586e-03 0.0 
0.0 0.0 0.0 
6.089517326113e-05 2.381932575196e-04 0.0 
2.381932575196e-04 9.205294564313e-04 0.0 
0.0 0.0 0.0 
2.714879881029e-05 2.498574469691e-04 0.0 
2.498574469691e-04 9.616812430986e-04 0.0 
0.0 0.0 0.0 
1.385751588606e-05 2.687625165247e-04 0.0 
2.687625165247e-04 1.065769289501e-03 0.0 
0.0 0.0 0.0 
3.770390178818e-05 2.293742531291e-04 0.0 
2.293742531291e-04 8.606837661734e-04 0.0 
0.0 0.0 0.0 
1.523442397960e-04 8.772619526003e-05 0.0 
8.772619526003e-05 8.281326338864e-04 0.0 
0.0 0.0 0.0 
-1.222014501940e-04 7.049232473420e-05 0.0 
7.049232473420e-05 2.355913677936e-03 0.0 
0.0 0.0 0.0 
6.780295973582e-05 -3.299770835500e-05 0.0 
-3.299770835500e-05 2.841991290794e-04 0.0 
0.0 0.0 0.0 
4.873886505826e-05 -3.472517756622e-05 0.0 
-3.472517756622e-05 2.306991625762e-04 0.0 
0.0 0.0 0.0 
8.312904619712e-05 2.909233261382e-05 0.0 
2.909233261382e-05 9.611608368794e-04 0.0 
0.0 0.0 0.0 
1.627237817455e-04 1.407521143665e-04 0.0 
1.407521143665e-04 9.005372366914e-04 0.0 
0.0 0.0 0.0 
5.332576751231e-05 3.126478499344e-04 0.0 
3.126478499344e-04 1.367089437780e-03 0.0 
0.0 0.0 0.0 
7.342269903402e-05 3.063745467317e-04 0.0 
3.063745467317e-04 1.333339254888e-03 0.0 
0.0 0.0 0.0 
5.193782992563e-05 3.234405557067e-04 0.0 
3.234405557067e-04 1.430964647908e-03 0.0 
0.0 0.0 0.0 
6.946631927640e-05 3.188467069297e-04 0.0 
3.188467069297e-04 1.399112453260e-03 0.0 
0.0 0.0 0.0 
4.853652626450e-05 3.362124245467e-04 0.0 
3.362124245467e-04 1.495604026192e-03 0.0 
0.0 0.0 0.0 
6.287978701410e-05 3.334541565707e-04 0.0 
3.334541565707e-04 1.465801710674e-03 0.0 
0.0 0.0 0.0 
8.266680167957e-05 3.139549325281e-04 0.0 
3.139549325281e-04 1.373107098078e-03 0.0 
0.0 0.0 0.0 
1.119021493727e-04 2.771451160859e-04 0.0 
2.771451160859e-04 1.257703625187e-03 0.0 
0.0 0.0 0.0 
7.256998224651e-05 3.306086377372e-04 0.0 
3.306086377372e-04 1.442611167942e-03 0.0 
0.0 0.0 0.0 
-1.338368311652e-04 1.824471052922e-05 0.0 
1.824471052922e-05 2.227210820785e-03 0.0 
0.0 0.0 0.0 
1.529651250993e-04 2.146415287922e-04 0.0 
2.146415287922e-04 1.024952756115e-03 0.0 
0.0 0.0 0.0 
9.903043420056e-05 -2.612258762825e-05 0.0 
-2.612258762825e-05 3.425030299286e-04 0.0 
0.0 0.0 0.0 
3.920925835380e-05 -2.485593718004e-05 0.0 
-2.485593718004e-05 1.928247942786e-04 0.0 
0.0 0.0 0.0 
3.114792191883e-05 -4.088242648529e-05 0.0 
-4.088242648529e-05 2.024105177555e-04 0.0 
0.0 0.0 0.0 
5.276479212520e-05 -1.727553161586e-05 0.0 
-1.727553161586e-05 2.375452823316e-04 0.0 
0.0 0.0 0.0 
6.597004601135e-05 -1.651068785159e-05 0.0 
-1.651068785159e-05 2.928471256035e-04 0.0 
0.0 0.0 0.0 
1.044067909984e-04 1.360814496543e-04 0.0 
1.360814496543e-04 1.059910173209e-03 0.0 
0.0 0.0 0.0 
4.298767869249e-05 3.518400351655e-04 0.0 
3.518400351655e-04 1.561330366284e-03 0.0 
0.0 0.0 0.0 
2.783111025832e-05 3.515019353819e-04 0.0 
3.515019353819e-04 1.592219628017e-03 0.0 
0.0 0.0 0.0 
-1.025671683882e-05 2.600482851848e-04 0.0 
2.600482851848e-04 1.012437050676e-03 0.0 
0.0 0.0 0.0 
-2.295950732626e-05 2.746606999740e-04 0.0 
2.746606999740e-04 1.119133836384e-03 0.0 
0.0 0.0 0.0 
1.079624882245e-04 2.705700666877e-04 0.0 
2.705700666877e-04 1.255966863768e-03 0.0 
0.0 0.0 0.0 
-2.209745125028e-04 1.178940574853e-04 0.0 
1.178940574853e-04 2.186516973270e-03 0.0 
0.0 0.0 0.0 
-1.808215792567e-04 5.301576908366e-05 0.0 
5.301576908366e-05 2.219912113084e-03 0.0 
0.0 0.0 0.0 
-1.711428041521e-04 3.494258007865e-05 0.0 
3.494258007865e-05 2.193472794894e-03 0.0 
0.0 0.0 0.0 
3.857678733086e-05 -1.740400209848e-05 0.0 
-1.740400209848e-05 1.784590370497e-04 0.0 
0.0 0.0 0.0 
1.886872184870e-05 -4.064391265536e-05 0.0 
-4.064391265536e-05 1.855729191309e-04 0.0 
0.0 0.0 0.0 
-1.373163097393e-04 1.200190696115e-04 0.0 
1.200190696115e-04 2.361391133895e-03 0.0 
0.0 0.0 0.0 
8.208928525603e-05 1.383237510065e-04 0.0 
1.383237510065e-04 5.582329087912e-04 0.0 
0.0 0.0 0.0 
5.235703415000e-05 1.594456452943e-04 0.0 
1.594456452943e-04 5.800788432272e-04 0.0 
0.0 0.0 0.0 
6.315359916057e-06 2.778570729499e-05 0.0 
2.778570729499e-05 2.367313655404e-04 0.0 
0.0 0.0 0.0 
-1.340492793491e-05 5.246034751579e-06 0.0 
5.246034751579e-06 1.899186244623e-04 0.0 
0.0 0.0 0.0 
-1.120831972753e-04 2.507872114872e-05 0.0 
2.507872114872e-05 2.311435323849e-03 0.0 
0.0 0.0 0.0 
-9.555470422033e-05 3.255062921852e-05 0.0 
3.255062921852e-05 2.362911653630e-03 0.0 
0.0 0.0 0.0 
1.169183388132e-04 1.302380085429e-06 0.0 
1.302380085429e-06 5.914367736060e-04 0.0 
0.0 0.0 0.0 
1.146996741593e-04 2.797524179554e-06 0.0 
2.797524179554e-06 6.191600237164e-04 0.0 
0.0 0.0 0.0 
1.171808350684e-04 1.421847636148e-04 0.0 
1.421847636148e-04 1.037091962408e-03 0.0 
0.0 0.0 0.0 
4.328990404249e-05 -4.031160868365e-05 0.0 
-4.031160868365e-05 2.236556373647e-04 0.0 
0.0 0.0 0.0 
-9.047224315634e-05 4.598931424226e-05 0.0 
4.598931424226e-05 2.386535467948e-03 0.0 
0.0 0.0 0.0 
1.554863959696e-04 1.351594097367e-04 0.0 
1.351594097367e-04 9.157069461235e-04 0.0 
0.0 0.0 0.0 
1.660607250553e-04 1.170172696267e-04 0.0 
1.170172696267e-04 8.410287760992e-04 0.0 
0.0 0.0 0.0 
1.063996236920e-04 -4.148675095714e-06 0.0 
-4.148675095714e-06 5.220137096588e-04 0.0 
0.0 0.0 0.0 
1.544816242749e-05 1.312573389525e-04 0.0 
1.312573389525e-04 4.406061921337e-04 0.0 
0.0 0.0 0.0 
9.904861105581e-06 1.041057066678e-04 0.0 
1.041057066678e-04 3.648722535157e-04 0.0 
0.0 0.0 0.0 
1.144766101348e-04 -1.556076691708e-05 0.0 
-1.556076691708e-05 3.783842352022e-04 0.0 
0.0 0.0 0.0 
6.806140667777e-05 -3.750330578085e-05 0.0 
-3.750330578085e-05 2.761821671976e-04 0.0 
0.0 0.0 0.0 
5.831820193107e-05 -1.291260751827e-05 0.0 
-1.291260751827e-05 2.612606085167e-04 0.0 
0.0 0.0 0.0 
9.388723379851e-05 1.593527907834e-04 0.0 
1.593527907834e-04 1.118723751710e-03 0.0 
0.0 0.0 0.0 
-1.314159388106e-04 1.479599068061e-04 0.0 
1.479599068061e-04 2.369656246245e-03 0.0 
0.0 0.0 0.0 
9.096547766988e-05 3.087789078254e-04 0.0 
3.087789078254e-04 1.353490090385e-03 0.0 
0.0 0.0 0.0 
1.016588143083e-04 2.930653602102e-04 0.0 
2.930653602102e-04 1.282101578066e-03 0.0 
0.0 0.0 0.0 
7.794774191716e-05 3.272914902430e-04 0.0 
3.272914902430e-04 1.425130510958e-03 0.0 
0.0 0.0 0.0 
1.561176140767e-05 -3.956850267412e-05 0.0 
-3.956850267412e-05 1.733349628410e-04 0.0 
0.0 0.0 0.0 
9.055938114770e-05 1.292640290757e-04 0.0 
1.292640290757e-04 1.085821545675e-03 0.0 
0.0 0.0 0.0 
8.859468714525e-05 1.978036083713e-05 0.0 
1.978036083713e-05 9.191275653749e-04 0.0 
0.0 0.0 0.0 
2.342078112986e-05 3.682145486783e-04 0.0 
3.682145486783e-04 1.654689186696e-03 0.0 
0.0 0.0 0.0 
8.641951052731e-06 3.647138623590e-04 0.0 
3.647138623590e-04 1.687893507880e-03 0.0 
0.0 0.0 0.0 
8.111882637692e-05 1.648859993781e-04 0.0 
1.648859993781e-04 6.394134759431e-04 0.0 
0.0 0.0 0.0 
4.988785745671e-05 1.841009716615e-04 0.0 
1.841009716615e-04 6.685769264574e-04 0.0 
0.0 0.0 0.0 
1.603684883518e-05 1.812196519341e-04 0.0 
1.812196519341e-04 6.124357691583e-04 0.0 
0.0 0.0 0.0 
1.245571185167e-05 2.037431044802e-04 0.0 
2.037431044802e-04 7.070101265155e-04 0.0 
0.0 0.0 0.0 
-1.826698908777e-04 2.806695911502e-04 0.0 
2.806695911502e-04 1.883056258820e-03 0.0 
0.0 0.0 0.0 
7.701834483157e-05 1.902952320947e-04 0.0 
1.902952320947e-04 7.275307722039e-04 0.0 
0.0 0.0 0.0 
-9.657294361126e-05 3.175158224625e-04 0.0 
3.175158224625e-04 1.613201614551e-03 0.0 
0.0 0.0 0.0 
-1.332216738369e-04 3.059252372017e-04 0.0 
3.059252372017e-04 1.677145324642e-03 0.0 
0.0 0.0 0.0 
-1.067767839394e-04 3.096241321479e-04 0.0 
3.096241321479e-04 1.567064300820e-03 0.0 
0.0 0.0 0.0 
-2.749477554224e-06 2.845897917674e-04 0.0 
2.845897917674e-04 1.171690444142e-03 0.0 
0.0 0.0 0.0 
-3.903060834382e-05 2.879187223698e-04 0.0 
2.879187223698e-04 1.228753296420e-03 0.0 
0.0 0.0 0.0 
1.271591064062e-04 1.292132941731e-04 0.0 
1.292132941731e-04 6.083133088277e-04 0.0 
0.0 0.0 0.0 
1.677505604783e-04 1.720559391232e-04 0.0 
1.720559391232e-04 8.763776139179e-04 0.0 
0.0 0.0 0.0 
1.187406977273e-04 -8.291557908741e-07 0.0 
-8.291557908741e-07 5.644945407008e-04 0.0 
0.0 0.0 0.0 
1.237857979910e-04 2.371983907383e-05 0.0 
2.371983907383e-05 7.300448840533e-04 0.0 
0.0 0.0 0.0 
1.563547928642e-04 5.320883784260e-05 0.0 
5.320883784260e-05 7.096892124792e-04 0.0 
0.0 0.0 0.0 
-1.198718300704e-04 9.104479581395e-05 0.0 
9.104479581395e-05 2.374657162132e-03 0.0 
0.0 0.0 0.0 
-9.911822850929e-05 8.623440220791e-05 0.0 
8.623440220791e-05 2.400808958067e-03 0.0 
0.0 0.0 0.0 
-1.551549512425e-04 2.460808318145e-05 0.0 
2.460808318145e-05 2.196250273888e-03 0.0 
0.0 0.0 0.0 
-1.493245193132e-04 1.507089496933e-05 0.0 
1.507089496933e-05 2.166876821029e-03 0.0 
0.0 0.0 0.0 
3.831936673141e-05 -3.152538288410e-05 0.0 
-3.152538288410e-05 1.994126502033e-04 0.0 
0.0 0.0 0.0 
2.790529609649e-05 -3.328697874527e-05 0.0 
-3.328697874527e-05 1.780632795089e-04 0.0 
0.0 0.0 0.0 
1.407842930616e-04 2.329645581974e-05 0.0 
2.329645581974e-05 6.491955458547e-04 0.0 
0.0 0.0 0.0 
9.990515610499e-05 1.092087074780e-04 0.0 
1.092087074780e-04 1.030299237136e-03 0.0 
0.0 0.0 0.0 
-1.441222084812e-04 1.868678808571e-04 0.0 
1.868678808571e-04 2.336509476903e-03 0.0 
0.0 0.0 0.0 
-1.304334674907e-04 2.207047457800e-04 0.0 
2.207047457800e-04 2.328005747738e-03 0.0 
0.0 0.0 0.0 
-1.483326546386e-04 2.314068610645e-04 0.0 
2.314068610645e-04 2.283085233600e-03 0.0 
0.0 0.0 0.0 
1.077501579523e-04 1.659266267795e-04 0.0 
1.659266267795e-04 1.096174504581e-03 0.0 
0.0 0.0 0.0 
1.496986010791e-04 7.412626573350e-05 0.0 
7.412626573350e-05 5.379413743008e-04 0.0 
0.0 0.0 0.0 
1.743516910922e-04 1.293130944351e-04 0.0 
1.293130944351e-04 8.164161497295e-04 0.0 
0.0 0.0 0.0 
7.332623452538e-06 -8.924930052174e-06 0.0 
-8.924930052174e-06 2.023616695522e-04 0.0 
0.0 0.0 0.0 
1.121069091967e-04 2.663609109899e-04 0.0 
2.663609109899e-04 1.145134995630e-03 0.0 
0.0 0.0 0.0 
1.942762288865e-05 -2.854851828150e-05 0.0 
-2.854851828150e-05 1.469417450082e-04 0.0 
0.0 0.0 0.0 
-4.056749676432e-05 3.438107642286e-04 0.0 
3.438107642286e-04 1.709244960187e-03 0.0 
0.0 0.0 0.0 
7.453557489949e-05 2.317088821721e-05 0.0 
2.317088821721e-05 9.934562916119e-04 0.0 
0.0 0.0 0.0 
6.711100682562e-05 3.333083015792e-05 0.0 
3.333083015792e-05 1.036436627381e-03 0.0 
0.0 0.0 0.0 
9.126074531596e-05 2.970823172729e-04 0.0 
2.970823172729e-04 1.335042726648e-03 0.0 
0.0 0.0 0.0 
-2.276035409227e-04 2.288347330241e-04 0.0 
2.288347330241e-04 1.916779390333e-03 0.0 
0.0 0.0 0.0 
1.253640907549e-04 2.568625010213e-04 0.0 
2.568625010213e-04 1.124635705247e-03 0.0 
0.0 0.0 0.0 
1.401012495993e-04 2.328460327483e-04 0.0 
2.328460327483e-04 1.039208552974e-03 0.0 
0.0 0.0 0.0 
-1.444308290909e-04 2.966614479117e-04 0.0 
2.966614479117e-04 1.634904725821e-03 0.0 
0.0 0.0 0.0 
-1.186254438737e-04 2.991975513522e-04 0.0 
2.991975513522e-04 1.523420311264e-03 0.0 
0.0 0.0 0.0 
-8.123388572027e-05 3.070889189059e-04 0.0 
3.070889189059e-04 1.455479949011e-03 0.0 
0.0 0.0 0.0 
-9.664759818701e-05 2.952048700431e-04 0.0 
2.952048700431e-04 1.409550945349e-03 0.0 
0.0 0.0 0.0 
1.184135765248e-04 -1.598029364871e-05 0.0 
-1.598029364871e-05 3.985652953198e-04 0.0 
0.0 0.0 0.0 
1.040002363321e-04 -2.536245707069e-05 0.0 
-2.536245707069e-05 3.632203944834e-04 0.0 
0.0 0.0 0.0 
3.415810576511e-05 3.742338525616e-04 0.0 
3.742338525616e-04 1.634116401722e-03 0.0 
0.0 0.0 0.0 
6.045861385588e-05 3.518505989768e-04 0.0 
3.518505989768e-04 1.512205660102e-03 0.0 
0.0 0.0 0.0 
8.564120790699e-06 3.838806663027e-04 0.0 
3.838806663027e-04 1.746815946619e-03 0.0 
0.0 0.0 0.0 
-7.236268267300e-06 3.774534224838e-04 0.0 
3.774534224838e-04 1.783646496107e-03 0.0 
0.0 0.0 0.0 
8.534195271107e-05 2.910739585368e-04 0.0 
2.910739585368e-04 1.334638301728e-03 0.0 
0.0 0.0 0.0 
1.020685703329e-04 2.635387634102e-04 0.0 
2.635387634102e-04 1.257276887353e-03 0.0 
0.0 0.0 0.0 
7.029843648065e-05 -1.210150365846e-05 0.0 
-1.210150365846e-05 3.153590814068e-04 0.0 
0.0 0.0 0.0 
-6.351115697121e-05 2.763941720615e-04 0.0 
2.763941720615e-04 1.180778850926e-03 0.0 
0.0 0.0 0.0 
-1.081689537463e-04 1.407970158325e-04 0.0 
1.407970158325e-04 2.399717976473e-03 0.0 
0.0 0.0 0.0 
-1.699923735438e-04 2.863938749778e-04 0.0 
2.863938749778e-04 1.744156456164e-03 0.0 
0.0 0.0 0.0 
7.587329465020e-05 1.211700235906e-04 0.0 
1.211700235906e-04 1.110250564171e-03 0.0 
0.0 0.0 0.0 
8.693028089601e-05 1.028910088651e-04 0.0 
1.028910088651e-04 1.058245112878e-03 0.0 
0.0 0.0 0.0 
-3.880287138739e-05 -1.032125807981e-05 0.0 
-1.032125807981e-05 1.516962183748e-04 0.0 
0.0 0.0 0.0 
-1.674499789455e-05 -2.403704433272e-05 0.0 
-2.403704433272e-05 1.642842554189e-04 0.0 
0.0 0.0 0.0 
-7.479398473775e-05 3.976979758438e-05 0.0 
3.976979758438e-05 2.411700634974e-03 0.0 
0.0 0.0 0.0 
-2.872498018391e-05 2.014653013808e-04 0.0 
2.014653013808e-04 6.536871626638e-04 0.0 
0.0 0.0 0.0 
-3.334367549583e-05 2.191238179734e-04 0.0 
2.191238179734e-04 7.515312791933e-04 0.0 
0.0 0.0 0.0 
-2.491414414006e-05 1.810271515685e-04 0.0 
1.810271515685e-04 5.574667145212e-04 0.0 
0.0 0.0 0.0 
3.457833483489e-05 9.649977039476e-06 0.0 
9.649977039476e-06 1.149955074964e-03 0.0 
0.0 0.0 0.0 
-1.398353762890e-04 -1.311417127024e-09 0.0 
-1.311417127024e-09 2.040765029514e-03 0.0 
0.0 0.0 0.0 
5.765265850207e-05 2.611815632257e-05 0.0 
2.611815632257e-05 1.069778260259e-03 0.0 
0.0 0.0 0.0 
-2.252093304297e-05 2.987151906456e-04 0.0 
2.987151906456e-04 1.281526822977e-03 0.0 
0.0 0.0 0.0 
-6.683487789836e-05 5.540562604398e-05 0.0 
5.540562604398e-05 2.433379350163e-03 0.0 
0.0 0.0 0.0 
1.347302719747e-04 2.477693905539e-04 0.0 
2.477693905539e-04 1.110709004517e-03 0.0 
0.0 0.0 0.0 
8.936346618586e-05 2.243964522425e-04 0.0 
2.243964522425e-04 8.842370694265e-04 0.0 
0.0 0.0 0.0 
1.289172301595e-04 1.479554692856e-04 0.0 
1.479554692856e-04 1.015270699436e-03 0.0 
0.0 0.0 0.0 
-8.305273554940e-05 2.474764800144e-05 0.0 
2.474764800144e-05 2.385677879083e-03 0.0 
0.0 0.0 0.0 
-5.904051321661e-05 3.191013356883e-05 0.0 
3.191013356883e-05 2.437611778923e-03 0.0 
0.0 0.0 0.0 
-1.788320864382e-04 3.276040274915e-05 0.0 
3.276040274915e-05 2.162071719407e-03 0.0 
0.0 0.0 0.0 
-1.684437534351e-04 1.798323383323e-05 0.0 
1.798323383323e-05 2.130789357382e-03 0.0 
0.0 0.0 0.0 
-1.915707493927e-04 5.190037057298e-05 0.0 
5.190037057298e-05 2.187229718469e-03 0.0 
0.0 0.0 0.0 
2.486134350358e-05 5.164895456105e-05 0.0 
5.164895456105e-05 2.914844527192e-04 0.0 
0.0 0.0 0.0 
-2.244515922451e-05 5.249957906281e-05 0.0 
5.249957906281e-05 2.306310258321e-04 0.0 
0.0 0.0 0.0 
-1.036574959623e-04 6.667186939568e-05 0.0 
6.667186939568e-05 2.381940133816e-03 0.0 
0.0 0.0 0.0 
8.671842400324e-05 -1.634096398856e-05 0.0 
-1.634096398856e-05 3.805907927608e-04 0.0 
0.0 0.0 0.0 
9.033354292130e-05 -1.102587710672e-05 0.0 
-1.102587710672e-05 4.117546292614e-04 0.0 
0.0 0.0 0.0 
5.316117825967e-05 -3.881186832262e-05 0.0 
-3.881186832262e-05 2.435435087175e-04 0.0 
0.0 0.0 0.0 
7.494353553739e-05 -3.539213274601e-05 0.0 
-3.539213274601e-05 2.962950315665e-04 0.0 
0.0 0.0 0.0 
1.217070565233e-04 6.953133996762e-06 0.0 
6.953133996762e-06 6.272292345358e-04 0.0 
0.0 0.0 0.0 
1.248975566068e-04 5.349696483199e-06 0.0 
5.349696483199e-06 6.001820428584e-04 0.0 
0.0 0.0 0.0 
-1.407932816055e-05 3.478453901022e-04 0.0 
3.478453901022e-04 1.665934231410e-03 0.0 
0.0 0.0 0.0 
-3.386537769216e-05 3.543514369249e-04 0.0 
3.543514369249e-04 1.762344067286e-03 0.0 
0.0 0.0 0.0 
3.062574008054e-05 3.273078947043e-04 0.0 
3.273078947043e-04 1.467260246389e-03 0.0 
0.0 0.0 0.0 
1.590096272083e-04 1.120836596106e-04 0.0 
1.120836596106e-04 8.585140712686e-04 0.0 
0.0 0.0 0.0 
1.668827833840e-04 9.456630670502e-05 0.0 
9.456630670502e-05 7.856098619134e-04 0.0 
0.0 0.0 0.0 
1.720852690936e-04 9.931219909463e-05 0.0 
9.931219909463e-05 7.692676191882e-04 0.0 
0.0 0.0 0.0 
-9.279582383028e-05 1.077412473986e-04 0.0 
1.077412473986e-04 2.414772924424e-03 0.0 
0.0 0.0 0.0 
-6.743797854147e-05 1.015828149060e-04 0.0 
1.015828149060e-04 2.443807301225e-03 0.0 
0.0 0.0 0.0 
1.321032465374e-04 -3.607598308439e-06 0.0 
-3.607598308439e-06 4.360523545703e-04 0.0 
0.0 0.0 0.0 
1.290191699856e-04 -1.817994411212e-06 0.0 
-1.817994411212e-06 4.170410415473e-04 0.0 
0.0 0.0 0.0 
1.208545786857e-04 -1.536472427197e-05 0.0 
-1.536472427197e-05 4.189709304734e-04 0.0 
0.0 0.0 0.0 
-9.797256964894e-05 1.696830263421e-04 0.0 
1.696830263421e-04 2.404314342566e-03 0.0 
0.0 0.0 0.0 
4.883274452772e-05 3.767442360653e-05 0.0 
3.767442360653e-05 1.113315280886e-03 0.0 
0.0 0.0 0.0 
5.717516204370e-05 4.406698943856e-05 0.0 
4.406698943856e-05 1.080722145317e-03 0.0 
0.0 0.0 0.0 
6.410411593124e-06 -2.958587391907e-05 0.0 
-2.958587391907e-05 1.272553345134e-04 0.0 
0.0 0.0 0.0 
1.577242164156e-05 -3.474445688510e-05 0.0 
-3.474445688510e-05 1.572222212836e-04 0.0 
0.0 0.0 0.0 
-2.630414673442e-05 1.331228934270e-04 0.0 
1.331228934270e-04 3.828153239390e-04 0.0 
0.0 0.0 0.0 
-2.986054842100e-05 1.051602834110e-04 0.0 
1.051602834110e-04 3.053880659467e-04 0.0 
0.0 0.0 0.0 
-1.119473206532e-04 2.541742226334e-04 0.0 
2.541742226334e-04 2.310691069125e-03 0.0 
0.0 0.0 0.0 
-1.292745561113e-04 2.661935450371e-04 0.0 
2.661935450371e-04 2.261989659237e-03 0.0 
0.0 0.0 0.0 
-8.874931632059e-05 2.458526758731e-04 0.0 
2.458526758731e-04 2.356921074567e-03 0.0 
0.0 0.0 0.0 
6.201475408237e-05 -8.237261005685e-06 0.0 
-8.237261005685e-06 2.800522564185e-04 0.0 
0.0 0.0 0.0 
1.092563443769e-04 2.870662150282e-04 0.0 
2.870662150282e-04 1.268122619835e-03 0.0 
0.0 0.0 0.0 
8.141912415290e-05 1.839459877290e-04 0.0 
1.839459877290e-04 1.178218224992e-03 0.0 
0.0 0.0 0.0 
9.706357736146e-05 1.920913091865e-04 0.0 
1.920913091865e-04 1.157738750794e-03 0.0 
0.0 0.0 0.0 
6.301684100296e-05 1.775564322044e-04 0.0 
1.775564322044e-04 1.212933108895e-03 0.0 
0.0 0.0 0.0 
9.543097760478e-05 3.020513033852e-04 0.0 
3.020513033852e-04 1.337382296148e-03 0.0 
0.0 0.0 0.0 
7.285658766606e-05 3.209914203003e-04 0.0 
3.209914203003e-04 1.412076575447e-03 0.0 
0.0 0.0 0.0 
5.927982627929e-05 3.482999150193e-04 0.0 
3.482999150193e-04 1.499159053350e-03 0.0 
0.0 0.0 0.0 
-6.057664125523e-05 1.881851489451e-06 0.0 
1.881851489451e-06 1.367641579095e-04 0.0 
0.0 0.0 0.0 
-6.412183814219e-05 1.935110527809e-05 0.0 
1.935110527809e-05 2.421714479349e-03 0.0 
0.0 0.0 0.0 
-1.549204206718e-04 1.192770825607e-05 0.0 
1.192770825607e-05 2.131908615319e-03 0.0 
0.0 0.0 0.0 
-8.599773161677e-05 -9.049282047588e-06 0.0 
-9.049282047588e-06 1.142309031504e-04 0.0 
0.0 0.0 0.0 
-1.480849573257e-04 6.212647771017e-06 0.0 
6.212647771017e-06 2.101344408342e-03 0.0 
0.0 0.0 0.0 
-1.449656561886e-04 8.651024631056e-06 0.0 
8.651024631056e-06 2.136358898107e-03 0.0 
0.0 0.0 0.0 
-1.444360855336e-04 2.591132839857e-06 0.0 
2.591132839857e-06 2.067257807991e-03 0.0 
0.0 0.0 0.0 
5.015727936183e-05 -8.672138854017e-06 0.0 
-8.672138854017e-06 2.257649137497e-04 0.0 
0.0 0.0 0.0 
-1.840508006838e-04 2.728278516753e-05 0.0 
2.728278516753e-05 2.118969662906e-03 0.0 
0.0 0.0 0.0 
-2.010085955615e-04 5.251663953525e-05 0.0 
5.251663953525e-05 2.154340260201e-03 0.0 
0.0 0.0 0.0 
-1.071004453758e-05 -2.711876429634e-05 0.0 
-2.711876429634e-05 9.784436527460e-05 0.0 
0.0 0.0 0.0 
-7.035581278623e-05 1.587614792581e-04 0.0 
1.587614792581e-04 2.432982362241e-03 0.0 
0.0 0.0 0.0 
7.653947020810e-07 -2.316626624343e-05 0.0 
-2.316626624343e-05 9.825839915782e-05 0.0 
0.0 0.0 0.0 
1.226307400959e-05 -2.270340472610e-05 0.0 
-2.270340472610e-05 1.170674547502e-04 0.0 
0.0 0.0 0.0 
6.480955198640e-05 1.145339963932e-04 0.0 
1.145339963932e-04 1.138686716346e-03 0.0 
0.0 0.0 0.0 
7.475924392727e-05 9.545552043789e-05 0.0 
9.545552043789e-05 1.085913969262e-03 0.0 
0.0 0.0 0.0 
5.067881645116e-05 1.047420657613e-04 0.0 
1.047420657613e-04 1.165110139295e-03 0.0 
0.0 0.0 0.0 
6.102238801246e-05 8.865424900788e-05 0.0 
8.865424900788e-05 1.112727944003e-03 0.0 
0.0 0.0 0.0 
8.321417684098e-05 7.903490941716e-05 0.0 
7.903490941716e-05 1.035513562567e-03 0.0 
0.0 0.0 0.0 
7.136006278186e-05 7.332026954822e-05 0.0 
7.332026954822e-05 1.066803671813e-03 0.0 
0.0 0.0 0.0 
-1.583817336797e-04 8.642812807637e-06 0.0 
8.642812807637e-06 2.097236839017e-03 0.0 
0.0 0.0 0.0 
4.626742832795e-05 8.345136483290e-05 0.0 
8.345136483290e-05 1.156023815668e-03 0.0 
0.0 0.0 0.0 
5.858655582217e-05 6.567209626517e-05 0.0 
6.567209626517e-05 1.099912278577e-03 0.0 
0.0 0.0 0.0 
3.459227091943e-05 7.336863361087e-05 0.0 
7.336863361087e-05 1.189292101880e-03 0.0 
0.0 0.0 0.0 
-1.352392251271e-04 2.832731477739e-04 0.0 
2.832731477739e-04 1.485451450268e-03 0.0 
0.0 0.0 0.0 
5.980730441539e-06 2.239079018050e-04 0.0 
2.239079018050e-04 8.033862524048e-04 0.0 
0.0 0.0 0.0 
-3.806621976138e-05 2.342289762134e-04 0.0 
2.342289762134e-04 8.544663018865e-04 0.0 
0.0 0.0 0.0 
-8.975738772456e-05 2.348285486658e-04 0.0 
2.348285486658e-04 8.154224125567e-04 0.0 
0.0 0.0 0.0 
-3.605775288779e-06 4.023942843568e-04 0.0 
4.023942843568e-04 1.849502365109e-03 0.0 
0.0 0.0 0.0 
-2.044457300963e-05 3.865163604652e-04 0.0 
3.865163604652e-04 1.871651681347e-03 0.0 
0.0 0.0 0.0 
8.102021551630e-05 1.437403357634e-05 0.0 
1.437403357634e-05 9.533461663187e-04 0.0 
0.0 0.0 0.0 
9.295224953284e-05 1.190104911846e-05 0.0 
1.190104911846e-05 8.797663024101e-04 0.0 
0.0 0.0 0.0 
-1.422868327000e-04 4.359878657745e-06 0.0 
4.359878657745e-06 2.102364547115e-03 0.0 
0.0 0.0 0.0 
-1.393482664697e-04 2.455755924669e-06 0.0 
2.455755924669e-06 2.097899637634e-03 0.0 
0.0 0.0 0.0 
-1.375213416492e-04 7.432325211754e-06 0.0 
7.432325211754e-06 2.154103018142e-03 0.0 
0.0 0.0 0.0 
-1.350858889907e-04 4.138348017945e-06 0.0 
4.138348017945e-06 2.145588278728e-03 0.0 
0.0 0.0 0.0 
-1.309173381396e-04 9.544918840589e-06 0.0 
9.544918840589e-06 2.200491739404e-03 0.0 
0.0 0.0 0.0 
-1.287267634728e-04 5.087345011156e-06 0.0 
5.087345011156e-06 2.190789894230e-03 0.0 
0.0 0.0 0.0 
-1.223109524660e-04 9.847884427305e-06 0.0 
9.847884427305e-06 2.245108132089e-03 0.0 
0.0 0.0 0.0 
4.151646564180e-05 3.771765341055e-04 0.0 
3.771765341055e-04 1.594031150359e-03 0.0 
0.0 0.0 0.0 
-7.608427007919e-05 2.044636624817e-04 0.0 
2.044636624817e-04 5.996585992424e-04 0.0 
0.0 0.0 0.0 
-1.849510632498e-04 2.751655250249e-04 0.0 
2.751655250249e-04 1.710933966796e-03 0.0 
0.0 0.0 0.0 
7.554214067403e-05 2.834563637369e-04 0.0 
2.834563637369e-04 1.336593278982e-03 0.0 
0.0 0.0 0.0 
9.344000336701e-05 2.547015675846e-04 0.0 
2.547015675846e-04 1.257831514393e-03 0.0 
0.0 0.0 0.0 
-7.787439878186e-05 2.860987839412e-04 0.0 
2.860987839412e-04 1.293337786279e-03 0.0 
0.0 0.0 0.0 
-1.077158956275e-04 2.709760381581e-04 0.0 
2.709760381581e-04 1.257427597160e-03 0.0 
0.0 0.0 0.0 
6.045480776372e-05 1.439046131026e-04 0.0 
1.439046131026e-04 1.179306794921e-03 0.0 
0.0 0.0 0.0 
1.038875426643e-04 1.731091651968e-04 0.0 
1.731091651968e-04 7.011183531372e-04 0.0 
0.0 0.0 0.0 
-4.994744621646e-05 1.919502624834e-04 0.0 
1.919502624834e-04 2.435684560585e-03 0.0 
0.0 0.0 0.0 
-1.137620748518e-04 4.945623183444e-05 0.0 
4.945623183444e-05 1.031209554037e-04 0.0 
0.0 0.0 0.0 
-7.309802333650e-05 4.472127216361e-05 0.0 
4.472127216361e-05 1.555700335671e-04 0.0 
0.0 0.0 0.0 
9.811017622445e-05 1.989460413637e-04 0.0 
1.989460413637e-04 7.891601301850e-04 0.0 
0.0 0.0 0.0 
-5.877038492656e-05 2.994922258330e-04 0.0 
2.994922258330e-04 1.342123504133e-03 0.0 
0.0 0.0 0.0 
-7.845102415656e-07 2.418895493241e-04 0.0 
2.418895493241e-04 9.055329321204e-04 0.0 
0.0 0.0 0.0 
-4.323472790872e-05 2.516013361209e-04 0.0 
2.516013361209e-04 9.653497934983e-04 0.0 
0.0 0.0 0.0 
1.467181299015e-04 1.302027747448e-04 0.0 
1.302027747448e-04 9.350368653703e-04 0.0 
0.0 0.0 0.0 
3.234278069197e-06 -3.558405385129e-05 0.0 
-3.558405385129e-05 1.393620458054e-04 0.0 
0.0 0.0 0.0 
-2.441543802190e-05 1.586345341176e-04 0.0 
1.586345341176e-04 4.671026497288e-04 0.0 
0.0 0.0 0.0 
-1.252763398954e-04 1.710686192529e-05 0.0 
1.710686192529e-05 2.253034001872e-03 0.0 
0.0 0.0 0.0 
-7.090824595261e-05 1.655416180405e-04 0.0 
1.655416180405e-04 4.099523668703e-04 0.0 
0.0 0.0 0.0 
8.637942924713e-05 6.650947003871e-06 0.0 
6.650947003871e-06 9.175068382417e-04 0.0 
0.0 0.0 0.0 
1.257595115222e-04 1.565603496321e-04 0.0 
1.565603496321e-04 6.848194642177e-04 0.0 
0.0 0.0 0.0 
1.128849612545e-05 2.938302834767e-04 0.0 
2.938302834767e-04 1.227607168825e-03 0.0 
0.0 0.0 0.0 
1.738189153751e-05 1.572132212871e-04 0.0 
1.572132212871e-04 5.233379324161e-04 0.0 
0.0 0.0 0.0 
4.496299276161e-05 2.079882356081e-04 0.0 
2.079882356081e-04 7.634937888290e-04 0.0 
0.0 0.0 0.0 
-1.478497367067e-04 3.041674311453e-04 0.0 
3.041674311453e-04 1.822209303871e-03 0.0 
0.0 0.0 0.0 
-2.147241880923e-04 2.461374426604e-04 0.0 
2.461374426604e-04 1.943443116532e-03 0.0 
0.0 0.0 0.0 
-1.949490976961e-04 2.703872910523e-04 0.0 
2.703872910523e-04 1.849232174132e-03 0.0 
0.0 0.0 0.0 
1.429204759985e-04 1.408978849111e-04 0.0 
1.408978849111e-04 6.741596788779e-04 0.0 
0.0 0.0 0.0 
-5.182196242354e-05 2.645248690041e-04 0.0 
2.645248690041e-04 1.072678427653e-03 0.0 
0.0 0.0 0.0 
-9.722903830822e-05 2.532672227557e-04 0.0 
2.532672227557e-04 1.032102604067e-03 0.0 
0.0 0.0 0.0 
-6.118602183995e-05 3.232227092346e-04 0.0 
3.232227092346e-04 1.553493862626e-03 0.0 
0.0 0.0 0.0 
-1.612514068472e-04 2.431424038010e-04 0.0 
2.431424038010e-04 2.231854031014e-03 0.0 
0.0 0.0 0.0 
-1.398344242462e-04 2.762840436273e-04 0.0 
2.762840436273e-04 2.205210276220e-03 0.0 
0.0 0.0 0.0 
-1.070731253464e-04 2.973244372386e-04 0.0 
2.973244372386e-04 2.233147625982e-03 0.0 
0.0 0.0 0.0 
-1.162966298483e-04 3.066921211922e-04 0.0 
3.066921211922e-04 2.172618771613e-03 0.0 
0.0 0.0 0.0 
-1.447911582182e-04 2.876097182181e-04 0.0 
2.876097182181e-04 2.141025498596e-03 0.0 
0.0 0.0 0.0 
-1.186175811886e-04 3.152408341920e-04 0.0 
3.152408341920e-04 2.103646567233e-03 0.0 
0.0 0.0 0.0 
-9.024080920543e-05 3.340115077037e-04 0.0 
3.340115077037e-04 2.138450659147e-03 0.0 
0.0 0.0 0.0 
-9.090291507302e-05 3.405032297805e-04 0.0 
3.405032297805e-04 2.064430384270e-03 0.0 
0.0 0.0 0.0 
-6.199854563197e-05 3.645555271473e-04 0.0 
3.645555271473e-04 2.110038366548e-03 0.0 
0.0 0.0 0.0 
-6.484984550407e-05 3.620936737105e-04 0.0 
3.620936737105e-04 2.021662420190e-03 0.0 
0.0 0.0 0.0 
-8.525049752996e-05 3.440694343359e-04 0.0 
3.440694343359e-04 1.981325342956e-03 0.0 
0.0 0.0 0.0 
-5.980317381922e-05 3.603393285958e-04 0.0 
3.603393285958e-04 1.938617381145e-03 0.0 
0.0 0.0 0.0 
-4.397907909424e-05 3.801346036339e-04 0.0 
3.801346036339e-04 1.976665211042e-03 0.0 
0.0 0.0 0.0 
-7.549832282448e-05 3.462226787955e-04 0.0 
3.462226787955e-04 1.894741848776e-03 0.0 
0.0 0.0 0.0 
5.454229830715e-05 3.116866496202e-04 0.0 
3.116866496202e-04 1.414285568918e-03 0.0 
0.0 0.0 0.0 
1.131726377315e-04 2.088263665729e-04 0.0 
2.088263665729e-04 8.547196148501e-04 0.0 
0.0 0.0 0.0 
-3.888187492832e-05 2.302319082668e-05 0.0 
2.302319082668e-05 1.786597386790e-04 0.0 
0.0 0.0 0.0 
-5.825149488559e-05 7.464520378755e-05 0.0 
7.464520378755e-05 2.075966701776e-04 0.0 
0.0 0.0 0.0 
-1.070335519870e-05 3.077647534493e-04 0.0 
3.077647534493e-04 1.335947686148e-03 0.0 
0.0 0.0 0.0 
-3.432930410432e-05 3.820436419002e-04 0.0 
3.820436419002e-04 2.177940825121e-03 0.0 
0.0 0.0 0.0 
-4.545968551741e-05 3.318545184819e-04 0.0 
3.318545184819e-04 2.288521642056e-03 0.0 
0.0 0.0 0.0 
1.060266885176e-04 1.190045890143e-04 0.0 
1.190045890143e-04 5.445461608173e-04 0.0 
0.0 0.0 0.0 
1.214073480786e-06 4.304921979087e-04 0.0 
4.304921979087e-04 1.877275185572e-03 0.0 
0.0 0.0 0.0 
-1.595806029200e-04 2.961841294556e-04 0.0 
2.961841294556e-04 1.783343072099e-03 0.0 
0.0 0.0 0.0 
6.131047643358e-05 5.694978781589e-05 0.0 
5.694978781589e-05 3.504767905189e-04 0.0 
0.0 0.0 0.0 
1.357145282477e-05 4.198783324595e-04 0.0 
4.198783324595e-04 1.756546184615e-03 0.0 
0.0 0.0 0.0 
-1.688190708113e-04 2.561590192544e-04 0.0 
2.561590192544e-04 2.174147832320e-03 0.0 
0.0 0.0 0.0 
-1.705548859657e-04 2.699517909140e-04 0.0 
2.699517909140e-04 2.108882417831e-03 0.0 
0.0 0.0 0.0 
-1.937004033600e-04 2.364057092695e-04 0.0 
2.364057092695e-04 2.142875767232e-03 0.0 
0.0 0.0 0.0 
-4.619633852225e-05 2.799638472235e-04 0.0 
2.799638472235e-04 2.364672731124e-03 0.0 
0.0 0.0 0.0 
-2.021255450078e-04 7.782787429659e-05 0.0 
7.782787429659e-05 2.208924649365e-03 0.0 
0.0 0.0 0.0 
2.754187556038e-05 3.663468591073e-04 0.0 
3.663468591073e-04 1.555143214639e-03 0.0 
0.0 0.0 0.0 
1.630532435488e-04 1.887377240052e-04 0.0 
1.887377240052e-04 9.492830360342e-04 0.0 
0.0 0.0 0.0 
1.593721138045e-04 1.980386631398e-04 0.0 
1.980386631398e-04 9.513640931289e-04 0.0 
0.0 0.0 0.0 
1.617740907594e-04 1.824629679782e-04 0.0 
1.824629679782e-04 8.795922548192e-04 0.0 
0.0 0.0 0.0 
-1.145590479987e-04 3.228327838833e-04 0.0 
3.228327838833e-04 2.026097896370e-03 0.0 
0.0 0.0 0.0 
3.571468232366e-05 2.832810024221e-04 0.0 
2.832810024221e-04 1.394988616520e-03 0.0 
0.0 0.0 0.0 
6.581011627120e-05 2.538834633958e-04 0.0 
2.538834633958e-04 1.305416435731e-03 0.0 
0.0 0.0 0.0 
6.486655236552e-05 2.349338227916e-04 0.0 
2.349338227916e-04 1.279565983440e-03 0.0 
0.0 0.0 0.0 
9.233252432717e-05 2.256917202515e-04 0.0 
2.256917202515e-04 1.213911168364e-03 0.0 
0.0 0.0 0.0 
3.511497651543e-05 2.409694827997e-04 0.0 
2.409694827997e-04 1.341124839609e-03 0.0 
0.0 0.0 0.0 
-1.915364460725e-05 4.156992726214e-04 0.0 
4.156992726214e-04 2.065956906974e-03 0.0 
0.0 0.0 0.0 
-1.163334850842e-05 4.259571199922e-04 0.0 
4.259571199922e-04 2.006132439695e-03 0.0 
0.0 0.0 0.0 
1.088820416700e-04 -1.372654504956e-05 0.0 
-1.372654504956e-05 3.591885146672e-04 0.0 
0.0 0.0 0.0 
1.241924206619e-04 1.701816107362e-06 0.0 
1.701816107362e-06 3.995778173899e-04 0.0 
0.0 0.0 0.0 
1.420656381764e-04 1.496352917085e-05 0.0 
1.496352917085e-05 4.591650635333e-04 0.0 
0.0 0.0 0.0 
1.376439597770e-04 2.007177376711e-05 0.0 
2.007177376711e-05 4.438040616398e-04 0.0 
0.0 0.0 0.0 
1.172211498851e-04 7.114679190337e-06 0.0 
7.114679190337e-06 3.838535771219e-04 0.0 
0.0 0.0 0.0 
1.308403043225e-04 2.713366325260e-05 0.0 
2.713366325260e-05 4.303645528205e-04 0.0 
0.0 0.0 0.0 
1.487031315880e-04 4.089570225094e-05 0.0 
4.089570225094e-05 4.919738361373e-04 0.0 
0.0 0.0 0.0 
1.214469929109e-04 3.664972591881e-05 0.0 
3.664972591881e-05 4.194637318792e-04 0.0 
0.0 0.0 0.0 
-2.731156437386e-05 3.679837708151e-04 0.0 
3.679837708151e-04 1.817341645448e-03 0.0 
0.0 0.0 0.0 
3.217588194167e-05 2.011732263846e-04 0.0 
2.011732263846e-04 1.302141867330e-03 0.0 
0.0 0.0 0.0 
1.519295963129e-04 6.894876601548e-05 0.0 
6.894876601548e-05 7.796933738500e-04 0.0 
0.0 0.0 0.0 
1.593179760508e-04 7.122899094283e-05 0.0 
7.122899094283e-05 7.561619854446e-04 0.0 
0.0 0.0 0.0 
1.620048841835e-04 5.497025613171e-05 0.0 
5.497025613171e-05 6.870236826306e-04 0.0 
0.0 0.0 0.0 
1.204099397948e-04 -3.488984087807e-06 0.0 
-3.488984087807e-06 5.380541249482e-04 0.0 
0.0 0.0 0.0 
1.278140183197e-04 3.356576000097e-06 0.0 
3.356576000097e-06 5.735931333263e-04 0.0 
0.0 0.0 0.0 
1.305487164632e-04 1.354908902991e-05 0.0 
1.354908902991e-05 6.371266870145e-04 0.0 
0.0 0.0 0.0 
1.126699602625e-04 -8.337114533341e-06 0.0 
-8.337114533341e-06 5.036568098919e-04 0.0 
0.0 0.0 0.0 
8.968701392783e-05 2.996375461714e-04 0.0 
2.996375461714e-04 1.304748713524e-03 0.0 
0.0 0.0 0.0 
3.095378883207e-05 1.817971732304e-04 0.0 
1.817971732304e-04 1.284479878906e-03 0.0 
0.0 0.0 0.0 
1.712864699986e-04 1.227250367401e-04 0.0 
1.227250367401e-04 8.271233688274e-04 0.0 
0.0 0.0 0.0 
1.303020266787e-04 1.178971461439e-06 0.0 
1.178971461439e-06 5.475321572686e-04 0.0 
0.0 0.0 0.0 
-1.993161436403e-04 3.729191263132e-05 0.0 
3.729191263132e-05 2.057476619132e-03 0.0 
0.0 0.0 0.0 
-2.229165885768e-04 7.787392446574e-05 0.0 
7.787392446574e-05 2.105687364759e-03 0.0 
0.0 0.0 0.0 
-2.397772795014e-04 1.132109944657e-04 0.0 
1.132109944657e-04 2.094425808474e-03 0.0 
0.0 0.0 0.0 
-2.326419860171e-04 1.255566374422e-04 0.0 
1.255566374422e-04 2.142045761170e-03 0.0 
0.0 0.0 0.0 
-2.088926612816e-04 5.425594998383e-05 0.0 
5.425594998383e-05 2.116427079121e-03 0.0 
0.0 0.0 0.0 
1.182535611888e-04 8.054352272110e-06 0.0 
8.054352272110e-06 6.548741720091e-04 0.0 
0.0 0.0 0.0 
1.148105226873e-04 8.515761895466e-06 0.0 
8.515761895466e-06 6.829350391830e-04 0.0 
0.0 0.0 0.0 
1.126858729681e-04 4.046170372668e-06 0.0 
4.046170372668e-06 6.471674780351e-04 0.0 
0.0 0.0 0.0 
1.114206790606e-04 8.093298800124e-06 0.0 
8.093298800124e-06 7.113218666007e-04 0.0 
0.0 0.0 0.0 
1.108035583830e-04 3.639497359372e-06 0.0 
3.639497359372e-06 6.737058214571e-04 0.0 
0.0 0.0 0.0 
1.107472970135e-04 7.924571050697e-07 0.0 
7.924571050697e-07 6.150545614783e-04 0.0 
0.0 0.0 0.0 
1.082453901272e-04 6.431327943104e-06 0.0 
6.431327943104e-06 7.387734511971e-04 0.0 
0.0 0.0 0.0 
1.087152994399e-04 3.001236999538e-06 0.0 
3.001236999538e-06 6.967028906875e-04 0.0 
0.0 0.0 0.0 
-1.734998623479e-04 1.290664576319e-05 0.0 
1.290664576319e-05 2.054293236982e-03 0.0 
0.0 0.0 0.0 
-9.868924154631e-05 -1.805927027513e-05 0.0 
-1.805927027513e-05 8.218918352657e-05 0.0 
0.0 0.0 0.0 
-5.281322371679e-05 -2.925610099136e-05 0.0 
-2.925610099136e-05 1.125365818337e-04 0.0 
0.0 0.0 0.0 
-4.674226160648e-05 -3.108121535134e-05 0.0 
-3.108121535134e-05 1.070524697956e-04 0.0 
0.0 0.0 0.0 
-1.643129088574e-05 -3.687367550249e-05 0.0 
-3.687367550249e-05 1.481774130943e-04 0.0 
0.0 0.0 0.0 
-1.678169328536e-05 -3.076069440932e-05 0.0 
-3.076069440932e-05 1.544805750066e-04 0.0 
0.0 0.0 0.0 
1.979867225887e-05 -3.465061253708e-05 0.0 
-3.465061253708e-05 1.964162442669e-04 0.0 
0.0 0.0 0.0 
1.330015308312e-05 -2.893518376578e-05 0.0 
-2.893518376578e-05 1.945477398775e-04 0.0 
0.0 0.0 0.0 
-5.870449225354e-05 -2.607706659310e-05 0.0 
-2.607706659310e-05 1.167701230226e-04 0.0 
0.0 0.0 0.0 
-7.467148861821e-05 -1.897226867347e-05 0.0 
-1.897226867347e-05 7.065712370654e-05 0.0 
0.0 0.0 0.0 
-3.781446159499e-05 -3.062326957867e-05 0.0 
-3.062326957867e-05 1.025956992591e-04 0.0 
0.0 0.0 0.0 
-6.166004412870e-05 -1.809063131781e-05 0.0 
-1.809063131781e-05 6.449859959075e-05 0.0 
0.0 0.0 0.0 
-2.993158539109e-05 -3.027399213177e-05 0.0 
-3.027399213177e-05 9.710937147459e-05 0.0 
0.0 0.0 0.0 
-2.492069079429e-06 -3.800734935754e-05 0.0 
-3.800734935754e-05 1.467603087967e-04 0.0 
0.0 0.0 0.0 
3.943585470119e-05 -3.712085186944e-05 0.0 
-3.712085186944e-05 2.104994752133e-04 0.0 
0.0 0.0 0.0 
2.349085215439e-05 4.175824018954e-05 0.0 
4.175824018954e-05 1.199028538082e-03 0.0 
0.0 0.0 0.0 
1.022739504390e-04 -1.373980229452e-06 0.0 
-1.373980229452e-06 5.213449030118e-04 0.0 
0.0 0.0 0.0 
9.959333613448e-05 -3.453796401407e-06 0.0 
-3.453796401407e-06 4.924652639485e-04 0.0 
0.0 0.0 0.0 
9.262521375149e-05 -5.213031221437e-06 0.0 
-5.213031221437e-06 4.359262964880e-04 0.0 
0.0 0.0 0.0 
9.742596015592e-05 -7.141802438550e-06 0.0 
-7.141802438550e-06 4.661674784514e-04 0.0 
0.0 0.0 0.0 
1.050412804390e-04 -1.481791526104e-06 0.0 
-1.481791526104e-06 5.454395917410e-04 0.0 
0.0 0.0 0.0 
8.705617869716e-05 -3.003702093833e-06 0.0 
-3.003702093833e-06 4.053658232647e-04 0.0 
0.0 0.0 0.0 
8.365568087506e-05 -6.384242552974e-06 0.0 
-6.384242552974e-06 3.846542388889e-04 0.0 
0.0 0.0 0.0 
1.271439945157e-05 -3.974352617967e-06 0.0 
-3.974352617967e-06 3.274627538145e-05 0.0 
0.0 0.0 0.0 
2.107184702712e-05 -6.581504071847e-06 0.0 
-6.581504071847e-06 7.649784205839e-05 0.0 
0.0 0.0 0.0 
2.023567081525e-05 -3.328071370608e-06 0.0 
-3.328071370608e-06 7.156560030313e-05 0.0 
0.0 0.0 0.0 
2.951182062394e-05 -5.788847429767e-06 0.0 
-5.788847429767e-06 1.254378078980e-04 0.0 
0.0 0.0 0.0 
2.844494607942e-05 -1.006809660191e-05 0.0 
-1.006809660191e-05 1.247402480361e-04 0.0 
0.0 0.0 0.0 
1.896674175287e-05 -9.020305567102e-06 0.0 
-9.020305567102e-06 7.789578218198e-05 0.0 
0.0 0.0 0.0 
1.581062231104e-05 -1.160116670195e-05 0.0 
-1.160116670195e-05 7.945129413645e-05 0.0 
0.0 0.0 0.0 
4.330660232791e-06 -7.706007467244e-06 0.0 
-7.706007467244e-06 3.628558533205e-05 0.0 
0.0 0.0 0.0 
1.244182459492e-05 -1.453371462319e-05 0.0 
-1.453371462319e-05 8.089953581525e-05 0.0 
0.0 0.0 0.0 
2.510325811885e-05 -1.675309300975e-05 0.0 
-1.675309300975e-05 1.288840934268e-04 0.0 
0.0 0.0 0.0 
-1.305812041275e-06 -9.266598358446e-06 0.0 
-9.266598358446e-06 3.730886404866e-05 0.0 
0.0 0.0 0.0 
-1.026185092247e-04 5.918416212191e-06 0.0 
5.918416212191e-06 2.316152369317e-03 0.0 
0.0 0.0 0.0 
-9.475207388437e-05 1.441981899448e-05 0.0 
1.441981899448e-05 2.345176573043e-03 0.0 
0.0 0.0 0.0 
3.017028692431e-05 1.457341370676e-04 0.0 
1.457341370676e-04 1.253033620352e-03 0.0 
0.0 0.0 0.0 
-1.582934154526e-04 5.030319206591e-06 0.0 
5.030319206591e-06 2.057567529938e-03 0.0 
0.0 0.0 0.0 
-3.795666135688e-05 -1.531731992461e-05 0.0 
-1.531731992461e-05 5.491015174649e-05 0.0 
0.0 0.0 0.0 
-3.387424081126e-05 6.476748687245e-05 0.0 
6.476748687245e-05 2.481331834213e-03 0.0 
0.0 0.0 0.0 
-3.695753728430e-05 1.225138014709e-04 0.0 
1.225138014709e-04 2.474053245907e-03 0.0 
0.0 0.0 0.0 
-3.234233088841e-05 1.033325601016e-04 0.0 
1.033325601016e-04 2.481011661865e-03 0.0 
0.0 0.0 0.0 
5.534328954082e-05 9.004526158365e-06 0.0 
9.004526158365e-06 1.070752226614e-03 0.0 
0.0 0.0 0.0 
4.687647111830e-05 1.819210507094e-05 0.0 
1.819210507094e-05 1.109947237821e-03 0.0 
0.0 0.0 0.0 
-2.916834914018e-05 3.612102212580e-05 0.0 
3.612102212580e-05 2.485673374898e-03 0.0 
0.0 0.0 0.0 
8.514583823227e-05 -2.895400152674e-05 0.0 
-2.895400152674e-05 3.386464396767e-04 0.0 
0.0 0.0 0.0 
-8.607782085949e-05 3.293718895668e-04 0.0 
3.293718895668e-04 2.202200314232e-03 0.0 
0.0 0.0 0.0 
-8.494237722106e-05 6.178404130810e-05 0.0 
6.178404130810e-05 2.407253102924e-03 0.0 
0.0 0.0 0.0 
3.828915875570e-05 7.821792179190e-05 0.0 
7.821792179190e-05 3.545007615629e-04 0.0 
0.0 0.0 0.0 
8.940168164147e-05 -3.175333853454e-05 0.0 
-3.175333853454e-05 3.295069888840e-04 0.0 
0.0 0.0 0.0 
9.951537221764e-05 1.608380457814e-05 0.0 
1.608380457814e-05 8.471447322165e-04 0.0 
0.0 0.0 0.0 
1.254102188177e-04 3.446502415573e-05 0.0 
3.446502415573e-05 7.704014404013e-04 0.0 
0.0 0.0 0.0 
7.640882884193e-05 3.954087893101e-05 0.0 
3.954087893101e-05 1.004260115616e-03 0.0 
0.0 0.0 0.0 
1.116001363110e-04 2.157193447692e-05 0.0 
2.157193447692e-05 7.871541081510e-04 0.0 
0.0 0.0 0.0 
9.577995611691e-05 5.040485922478e-05 0.0 
5.040485922478e-05 9.435161939037e-04 0.0 
0.0 0.0 0.0 
6.658425609436e-05 2.130791355279e-04 0.0 
2.130791355279e-04 1.247418226069e-03 0.0 
0.0 0.0 0.0 
4.579277604281e-05 -1.328411101095e-05 0.0 
-1.328411101095e-05 2.076894082519e-04 0.0 
0.0 0.0 0.0 
-1.614192682162e-04 3.724455074175e-05 0.0 
3.724455074175e-05 2.223868133392e-03 0.0 
0.0 0.0 0.0 
-1.423088159560e-04 1.729017964807e-05 0.0 
1.729017964807e-05 2.198099028839e-03 0.0 
0.0 0.0 0.0 
-1.232359524909e-04 5.297705439815e-05 0.0 
5.297705439815e-05 2.334140297656e-03 0.0 
0.0 0.0 0.0 
8.290246194431e-05 -2.080538012748e-05 0.0 
-2.080538012748e-05 3.554293588476e-04 0.0 
0.0 0.0 0.0 
1.113071244244e-04 -5.363229966387e-07 0.0 
-5.363229966387e-07 5.863991575510e-04 0.0 
0.0 0.0 0.0 
4.690317881791e-05 -2.885951623211e-05 0.0 
-2.885951623211e-05 2.224508958993e-04 0.0 
0.0 0.0 0.0 
2.007336576593e-05 3.996143660514e-04 0.0 
3.996143660514e-04 1.727828419180e-03 0.0 
0.0 0.0 0.0 
-7.016110749286e-05 3.160547257189e-04 0.0 
3.160547257189e-04 1.503842726017e-03 0.0 
0.0 0.0 0.0 
1.565962138295e-04 3.773295339147e-05 0.0 
3.773295339147e-05 6.421815455788e-04 0.0 
0.0 0.0 0.0 
1.128267103692e-04 -1.171086953911e-05 0.0 
-1.171086953911e-05 4.777230113553e-04 0.0 
0.0 0.0 0.0 
9.721272946165e-05 -2.642911805659e-05 0.0 
-2.642911805659e-05 3.712528499411e-04 0.0 
0.0 0.0 0.0 
8.338326621449e-05 -3.336025699721e-05 0.0 
-3.336025699721e-05 3.087069227821e-04 0.0 
0.0 0.0 0.0 
1.016862861292e-04 2.338180740268e-04 0.0 
2.338180740268e-04 9.476833008651e-04 0.0 
0.0 0.0 0.0 
1.383412190093e-04 1.089298948724e-05 0.0 
1.089298948724e-05 5.847230684026e-04 0.0 
0.0 0.0 0.0 
1.228084815066e-04 7.774601163451e-05 0.0 
7.774601163451e-05 9.036173634733e-04 0.0 
0.0 0.0 0.0 
-1.069042746790e-04 5.032666417541e-05 0.0 
5.032666417541e-05 2.360703472905e-03 0.0 
0.0 0.0 0.0 
-1.852079004743e-05 -1.343715120821e-05 0.0 
-1.343715120821e-05 5.152487792762e-05 0.0 
0.0 0.0 0.0 
1.188022616025e-04 9.565590364790e-05 0.0 
9.565590364790e-05 9.526780258268e-04 0.0 
0.0 0.0 0.0 
1.394527738813e-04 3.602935447511e-05 0.0 
3.602935447511e-05 7.159988418922e-04 0.0 
0.0 0.0 0.0 
-1.888327202925e-04 7.646407003644e-05 0.0 
7.646407003644e-05 2.241285145692e-03 0.0 
0.0 0.0 0.0 
1.367612702015e-04 2.167154265395e-04 0.0 
2.167154265395e-04 1.102635436170e-03 0.0 
0.0 0.0 0.0 
3.662129902412e-05 -3.788907256369e-05 0.0 
-3.788907256369e-05 2.183961440827e-04 0.0 
0.0 0.0 0.0 
-1.400953443286e-04 9.466233626291e-05 0.0 
9.466233626291e-05 2.347383271560e-03 0.0 
0.0 0.0 0.0 
-1.092988506230e-04 2.084467268930e-04 0.0 
2.084467268930e-04 2.366168320466e-03 0.0 
0.0 0.0 0.0 
-2.136229225382e-04 8.136506352937e-05 0.0 
8.136506352937e-05 2.175826713561e-03 0.0 
0.0 0.0 0.0 
2.973740645836e-05 -2.708028568419e-05 0.0 
-2.708028568419e-05 1.687616963777e-04 0.0 
0.0 0.0 0.0 
-1.630000931691e-04 2.145111500478e-05 0.0 
2.145111500478e-05 2.163829124624e-03 0.0 
0.0 0.0 0.0 
7.794746000311e-05 1.508779266908e-04 0.0 
1.508779266908e-04 1.142497201928e-03 0.0 
0.0 0.0 0.0 
-1.780985012640e-04 2.080924445934e-04 0.0 
2.080924445934e-04 2.251509328995e-03 0.0 
0.0 0.0 0.0 
7.419663319715e-05 -1.946493244743e-05 0.0 
-1.946493244743e-05 3.240150504846e-04 0.0 
0.0 0.0 0.0 
1.766034279339e-04 1.119374491155e-04 0.0 
1.119374491155e-04 7.456139221961e-04 0.0 
0.0 0.0 0.0 
4.209940655827e-05 2.862676093361e-04 0.0 
2.862676093361e-04 1.181132312312e-03 0.0 
0.0 0.0 0.0 
-2.443855761194e-04 2.007530655432e-04 0.0 
2.007530655432e-04 1.905195284782e-03 0.0 
0.0 0.0 0.0 
-7.853233875812e-05 7.894276159590e-05 0.0 
7.894276159590e-05 2.424403862329e-03 0.0 
0.0 0.0 0.0 
1.417069754635e-04 2.193238541789e-04 0.0 
2.193238541789e-04 9.696441916158e-04 0.0 
0.0 0.0 0.0 
1.205131429779e-04 2.038796015571e-04 0.0 
2.038796015571e-04 1.122082900695e-03 0.0 
0.0 0.0 0.0 
1.677628805174e-04 1.471452394209e-04 0.0 
1.471452394209e-04 8.891898852526e-04 0.0 
0.0 0.0 0.0 
7.846160206052e-05 -1.470820624150e-05 0.0 
-1.470820624150e-05 3.491346326609e-04 0.0 
0.0 0.0 0.0 
9.484036947038e-05 8.485217010646e-05 0.0 
8.485217010646e-05 1.007835097696e-03 0.0 
0.0 0.0 0.0 
1.682274953228e-04 1.561406537497e-04 0.0 
1.561406537497e-04 8.051751858350e-04 0.0 
0.0 0.0 0.0 
-1.158064013757e-04 1.144918557573e-04 0.0 
1.144918557573e-04 2.389399530050e-03 0.0 
0.0 0.0 0.0 
3.015774116821e-05 3.381855325636e-04 0.0 
3.381855325636e-04 1.529271199703e-03 0.0 
0.0 0.0 0.0 
1.627740011011e-04 8.850833834809e-05 0.0 
8.850833834809e-05 6.030227551104e-04 0.0 
0.0 0.0 0.0 
-1.532408570722e-04 1.551647174584e-04 0.0 
1.551647174584e-04 2.337582868503e-03 0.0 
0.0 0.0 0.0 
1.664397829602e-04 5.732702427651e-05 0.0 
5.732702427651e-05 6.663119755342e-04 0.0 
0.0 0.0 0.0 
1.232471272699e-04 2.435451085498e-04 0.0 
2.435451085498e-04 1.177950109697e-03 0.0 
0.0 0.0 0.0 
-4.504394964142e-05 3.096634922401e-04 0.0 
3.096634922401e-04 1.392976888063e-03 0.0 
0.0 0.0 0.0 
2.957314334758e-05 3.182650553368e-04 0.0 
3.182650553368e-04 1.405775848963e-03 0.0 
0.0 0.0 0.0 
-7.029350281279e-05 3.370954388715e-04 0.0 
3.370954388715e-04 1.756890754953e-03 0.0 
0.0 0.0 0.0 
9.482649660523e-05 2.762324563833e-04 0.0 
2.762324563833e-04 1.171890994797e-03 0.0 
0.0 0.0 0.0 
1.021796558727e-04 9.560112063003e-06 0.0 
9.560112063003e-06 8.081462293441e-04 0.0 
0.0 0.0 0.0 
1.068418682143e-04 9.078435776977e-05 0.0 
9.078435776977e-05 9.797675880819e-04 0.0 
0.0 0.0 0.0 
4.689120710314e-05 -3.585437382852e-06 0.0 
-3.585437382852e-06 2.548397610474e-04 0.0 
0.0 0.0 0.0 
7.077791645382e-05 2.156056154227e-04 0.0 
2.156056154227e-04 8.229333032279e-04 0.0 
0.0 0.0 0.0 
-2.082014422852e-04 1.097065703564e-04 0.0 
1.097065703564e-04 2.222748458423e-03 0.0 
0.0 0.0 0.0 
5.344410848921e-05 3.503009856737e-04 0.0 
3.503009856737e-04 1.531744302044e-03 0.0 
0.0 0.0 0.0 
-8.506186979218e-05 1.324894458793e-04 0.0 
1.324894458793e-04 2.426862171231e-03 0.0 
0.0 0.0 0.0 
3.089979348910e-05 2.777892332069e-04 0.0 
2.777892332069e-04 1.122188672547e-03 0.0 
0.0 0.0 0.0 
1.011489223878e-04 6.896691590819e-05 0.0 
6.896691590819e-05 9.593691127011e-04 0.0 
0.0 0.0 0.0 
-1.219845346813e-04 1.777927301794e-04 0.0 
1.777927301794e-04 2.371383049341e-03 0.0 
0.0 0.0 0.0 
1.346822637961e-04 1.227854386692e-05 0.0 
1.227854386692e-05 6.104863641233e-04 0.0 
0.0 0.0 0.0 
5.393522669650e-05 -4.337771689963e-06 0.0 
-4.337771689963e-06 2.396158094937e-04 0.0 
0.0 0.0 0.0 
-8.301104302277e-07 7.828970079767e-05 0.0 
7.828970079767e-05 2.990744150992e-04 0.0 
0.0 0.0 0.0 
1.318597846650e-04 6.090807938514e-05 0.0 
6.090807938514e-05 4.744108640118e-04 0.0 
0.0 0.0 0.0 
1.524044091708e-04 1.940038027748e-04 0.0 
1.940038027748e-04 8.876341938019e-04 0.0 
0.0 0.0 0.0 
1.354712462786e-04 2.375182554862e-05 0.0 
2.375182554862e-05 6.755287602578e-04 0.0 
0.0 0.0 0.0 
-8.713431365170e-05 2.939179569752e-04 0.0 
2.939179569752e-04 2.288055326009e-03 0.0 
0.0 0.0 0.0 
9.030038573221e-05 6.405939666171e-05 0.0 
6.405939666171e-05 9.887467535313e-04 0.0 
0.0 0.0 0.0 
1.360659663518e-04 1.252840585502e-04 0.0 
1.252840585502e-04 9.572380137799e-04 0.0 
0.0 0.0 0.0 
-1.188027177278e-04 1.562220582652e-04 0.0 
1.562220582652e-04 2.575243337260e-04 0.0 
0.0 0.0 0.0 
-2.073788901151e-04 2.568232549454e-04 0.0 
2.568232549454e-04 1.818374433302e-03 0.0 
0.0 0.0 0.0 
7.939574310959e-05 5.825834927523e-05 0.0 
5.825834927523e-05 1.019283163720e-03 0.0 
0.0 0.0 0.0 
1.754236272610e-04 1.051172579622e-04 0.0 
1.051172579622e-04 7.560295616861e-04 0.0 
0.0 0.0 0.0 
1.168800558600e-04 2.360032376280e-04 0.0 
2.360032376280e-04 1.180630347987e-03 0.0 
0.0 0.0 0.0 
1.097416680876e-04 1.285470856258e-06 0.0 
1.285470856258e-06 6.354212319145e-04 0.0 
0.0 0.0 0.0 
2.899213378116e-05 3.904344083484e-04 0.0 
3.904344083484e-04 1.665768400838e-03 0.0 
0.0 0.0 0.0 
-1.182152564180e-04 2.778142953896e-04 0.0 
2.778142953896e-04 1.370096078019e-03 0.0 
0.0 0.0 0.0 
6.841733796037e-05 5.153046442542e-05 0.0 
5.153046442542e-05 1.051579026145e-03 0.0 
0.0 0.0 0.0 
1.403396452993e-04 1.540255493229e-04 0.0 
1.540255493229e-04 9.942570024025e-04 0.0 
0.0 0.0 0.0 
1.067792464035e-04 1.464457205469e-04 0.0 
1.464457205469e-04 6.201472103174e-04 0.0 
0.0 0.0 0.0 
-1.401729487562e-04 6.662154421794e-07 0.0 
6.662154421794e-07 2.043297791259e-03 0.0 
0.0 0.0 0.0 
4.420575885392e-05 5.764421370319e-05 0.0 
5.764421370319e-05 1.141589976189e-03 0.0 
0.0 0.0 0.0 
1.196001291282e-04 1.722930704349e-04 0.0 
1.722930704349e-04 1.075765022160e-03 0.0 
0.0 0.0 0.0 
9.365869818723e-05 2.872937857554e-04 0.0 
2.872937857554e-04 1.237909397568e-03 0.0 
0.0 0.0 0.0 
1.737738219028e-04 8.207062193539e-05 0.0 
8.207062193539e-05 6.999190990986e-04 0.0 
0.0 0.0 0.0 
-1.981246707580e-04 2.604781991561e-04 0.0 
2.604781991561e-04 1.687750163959e-03 0.0 
0.0 0.0 0.0 
1.297712034654e-04 2.397026989148e-05 0.0 
2.397026989148e-05 7.025913219041e-04 0.0 
0.0 0.0 0.0 
5.579924518384e-06 3.299908421821e-04 0.0 
3.299908421821e-04 1.508086790541e-03 0.0 
0.0 0.0 0.0 
-4.427747120966e-05 2.528849717327e-04 0.0 
2.528849717327e-04 2.394281342725e-03 0.0 
0.0 0.0 0.0 
1.077009522507e-04 1.961983307445e-04 0.0 
1.961983307445e-04 1.136613734941e-03 0.0 
0.0 0.0 0.0 
-1.930552160101e-04 2.534773434139e-04 0.0 
2.534773434139e-04 2.077708000151e-03 0.0 
0.0 0.0 0.0 
1.260612970850e-04 1.446825851417e-05 0.0 
1.446825851417e-05 6.641084142462e-04 0.0 
0.0 0.0 0.0 
1.402920203019e-04 2.395980831978e-04 0.0 
2.395980831978e-04 1.103197861324e-03 0.0 
0.0 0.0 0.0 
2.715768536173e-05 -1.392884019880e-05 0.0 
-1.392884019880e-05 1.258547399287e-04 0.0 
0.0 0.0 0.0 
-1.570577465846e-04 2.842313455171e-04 0.0 
2.842313455171e-04 1.600380293168e-03 0.0 
0.0 0.0 0.0 
1.213302541888e-04 1.493923517190e-05 0.0 
1.493923517190e-05 6.917045087620e-04 0.0 
0.0 0.0 0.0 
1.417269158639e-04 4.965871096754e-05 0.0 
4.965871096754e-05 4.814471570828e-04 0.0 
0.0 0.0 0.0 
1.703630208928e-04 7.743061285653e-05 0.0 
7.743061285653e-05 7.157562998483e-04 0.0 
0.0 0.0 0.0 
6.762975980457e-05 3.191620800904e-04 0.0 
3.191620800904e-04 1.412136000009e-03 0.0 
0.0 0.0 0.0 
1.165351147866e-04 1.485624560140e-05 0.0 
1.485624560140e-05 7.199480737299e-04 0.0 
0.0 0.0 0.0 
1.571938254567e-04 6.387334968628e-05 0.0 
6.387334968628e-05 5.448351950761e-04 0.0 
0.0 0.0 0.0 
1.117268752567e-04 1.404856775133e-05 0.0 
1.404856775133e-05 7.486285292519e-04 0.0 
0.0 0.0 0.0 
-1.611778270084e-04 2.580484822427e-04 0.0 
2.580484822427e-04 1.458969907212e-03 0.0 
0.0 0.0 0.0 
-1.658973993893e-04 2.848227341285e-04 0.0 
2.848227341285e-04 2.035885505375e-03 0.0 
0.0 0.0 0.0 
1.070959248309e-04 1.215176651263e-05 0.0 
1.215176651263e-05 7.775121893014e-04 0.0 
0.0 0.0 0.0 
7.807911216369e-06 3.388616115916e-04 0.0 
3.388616115916e-04 1.567054196757e-03 0.0 
0.0 0.0 0.0 
2.280927619999e-05 -2.143155542663e-05 0.0 
-2.143155542663e-05 1.349545779741e-04 0.0 
0.0 0.0 0.0 
1.083588603211e-04 2.789982484739e-04 0.0 
2.789982484739e-04 1.212989972850e-03 0.0 
0.0 0.0 0.0 
6.561062365965e-05 1.668523690962e-05 0.0 
1.668523690962e-05 1.029905518301e-03 0.0 
0.0 0.0 0.0 
1.220627102756e-04 -1.398619083438e-05 0.0 
-1.398619083438e-05 4.400266455636e-04 0.0 
0.0 0.0 0.0 
1.655038078817e-04 7.393835069970e-05 0.0 
7.393835069970e-05 7.345090070872e-04 0.0 
0.0 0.0 0.0 
-1.434770211089e-04 2.990246236650e-04 0.0 
2.990246236650e-04 2.069332681285e-03 0.0 
0.0 0.0 0.0 
-1.508018476876e-04 2.495681384899e-04 0.0 
2.495681384899e-04 1.246070632134e-03 0.0 
0.0 0.0 0.0 
1.602984571483e-04 9.083903403028e-05 0.0 
9.083903403028e-05 8.054698607736e-04 0.0 
0.0 0.0 0.0 
8.937615196047e-06 3.502200976624e-04 0.0 
3.502200976624e-04 1.626971976092e-03 0.0 
0.0 0.0 0.0 
1.190917015432e-04 2.714336811393e-04 0.0 
2.714336811393e-04 1.195188614972e-03 0.0 
0.0 0.0 0.0 
1.523167422986e-04 2.082030255124e-04 0.0 
2.082030255124e-04 9.576631734948e-04 0.0 
0.0 0.0 0.0 
1.507139536900e-04 1.080921571914e-04 0.0 
1.080921571914e-04 8.797035482747e-04 0.0 
0.0 0.0 0.0 
-9.973457984463e-05 2.648190603593e-04 0.0 
2.648190603593e-04 1.151160863405e-03 0.0 
0.0 0.0 0.0 
8.028073986851e-05 -3.241018461715e-05 0.0 
-3.241018461715e-05 3.162763518799e-04 0.0 
0.0 0.0 0.0 
6.104701669640e-05 -3.624229749279e-05 0.0 
-3.624229749279e-05 2.630785645404e-04 0.0 
0.0 0.0 0.0 
1.619349273153e-04 5.569472795417e-05 0.0 
5.569472795417e-05 5.548761356677e-04 0.0 
0.0 0.0 0.0 
-1.092287883825e-05 3.600786995659e-04 0.0 
3.600786995659e-04 1.724383160973e-03 0.0 
0.0 0.0 0.0 
3.825810341348e-05 -9.879028859330e-06 0.0 
-9.879028859330e-06 1.724566990070e-04 0.0 
0.0 0.0 0.0 
-1.051076310209e-04 3.300125497921e-04 0.0 
3.300125497921e-04 1.941878048487e-03 0.0 
0.0 0.0 0.0 
2.906198274866e-05 -3.922064066602e-05 0.0 
-3.922064066602e-05 1.909499542250e-04 0.0 
0.0 0.0 0.0 
1.531391169078e-04 3.421346510817e-05 0.0 
3.421346510817e-05 5.048873079735e-04 0.0 
0.0 0.0 0.0 
1.125370584369e-04 2.824724853285e-04 0.0 
2.824724853285e-04 1.261671166955e-03 0.0 
0.0 0.0 0.0 
-1.252773943844e-04 1.996495459053e-06 0.0 
1.996495459053e-06 2.208454997362e-03 0.0 
0.0 0.0 0.0 
1.554412412255e-04 2.933155406061e-05 0.0 
2.933155406061e-05 5.199562833828e-04 0.0 
0.0 0.0 0.0 
6.568318653777e-05 -3.950973429520e-06 0.0 
-3.950973429520e-06 2.949220008981e-04 0.0 
0.0 0.0 0.0 
1.445972570546e-04 1.152915101515e-05 0.0 
1.152915101515e-05 4.762418555006e-04 0.0 
0.0 0.0 0.0 
1.483208759574e-04 2.231808899677e-04 0.0 
2.231808899677e-04 1.029260477107e-03 0.0 
0.0 0.0 0.0 
1.455589028547e-04 9.640132122969e-06 0.0 
9.640132122969e-06 4.951062864567e-04 0.0 
0.0 0.0 0.0 
1.337200872766e-04 -4.182220951778e-06 0.0 
-4.182220951778e-06 4.559741148180e-04 0.0 
0.0 0.0 0.0 
-5.906016527180e-05 7.214083664088e-05 0.0 
7.214083664088e-05 2.449047691068e-03 0.0 
0.0 0.0 0.0 
1.341016084846e-04 -3.776800834246e-06 0.0 
-3.776800834246e-06 4.768596194346e-04 0.0 
0.0 0.0 0.0 
-2.416053490476e-05 2.062606296624e-05 0.0 
2.062606296624e-05 2.493707896605e-03 0.0 
0.0 0.0 0.0 
2.216378837505e-05 1.868320285604e-05 0.0 
1.868320285604e-05 1.200471850294e-03 0.0 
0.0 0.0 0.0 
-1.369770126528e-04 -2.610301716951e-07 0.0 
-2.610301716951e-07 2.089461717476e-03 0.0 
0.0 0.0 0.0 
-1.554060771632e-04 2.489393029860e-04 0.0 
2.489393029860e-04 1.054088002654e-03 0.0 
0.0 0.0 0.0 
-1.238665534161e-04 1.043719366916e-06 0.0 
1.043719366916e-06 9.863709428101e-05 0.0 
0.0 0.0 0.0 
-7.921790572636e-05 2.410580367091e-04 0.0 
2.410580367091e-04 9.194173429715e-04 0.0 
0.0 0.0 0.0 
1.073691124488e-04 -2.376409530632e-05 0.0 
-2.376409530632e-05 3.838076558674e-04 0.0 
0.0 0.0 0.0 
-6.015876412246e-05 3.463674798002e-04 0.0 
3.463674798002e-04 1.804147970048e-03 0.0 
0.0 0.0 0.0 
-1.377495257735e-04 1.731772608842e-06 0.0 
1.731772608842e-06 2.092904291727e-03 0.0 
0.0 0.0 0.0 
9.362231537946e-05 -2.932156046041e-05 0.0 
-2.932156046041e-05 3.499578622455e-04 0.0 
0.0 0.0 0.0 
-4.097839002161e-05 3.871770633251e-04 0.0 
3.871770633251e-04 2.050924178608e-03 0.0 
0.0 0.0 0.0 
2.115668666380e-05 3.976815208017e-04 0.0 
3.976815208017e-04 1.648529509822e-03 0.0 
0.0 0.0 0.0 
-1.106680792785e-04 1.102133041397e-05 0.0 
1.102133041397e-05 2.291066233394e-03 0.0 
0.0 0.0 0.0 
1.064231324696e-04 2.289307729110e-04 0.0 
2.289307729110e-04 1.187533656887e-03 0.0 
0.0 0.0 0.0 
1.256269226390e-04 2.644883832041e-04 0.0 
2.644883832041e-04 1.185188537605e-03 0.0 
0.0 0.0 0.0 
-6.807752139613e-05 9.368222191717e-06 0.0 
9.368222191717e-06 2.411494239282e-03 0.0 
0.0 0.0 0.0 
-1.452149503602e-04 -2.449531700509e-07 0.0 
-2.449531700509e-07 2.040735724367e-03 0.0 
0.0 0.0 0.0 
-2.275487170665e-05 -2.814799824199e-05 0.0 
-2.814799824199e-05 9.335487121864e-05 0.0 
0.0 0.0 0.0 
9.677934111718e-05 5.439112317646e-06 0.0 
5.439112317646e-06 8.439676204981e-04 0.0 
0.0 0.0 0.0 
-1.526678461511e-04 2.390088198525e-04 0.0 
2.390088198525e-04 8.439946870566e-04 0.0 
0.0 0.0 0.0 
-8.076056941064e-05 2.181407253641e-04 0.0 
2.181407253641e-04 6.998678942879e-04 0.0 
0.0 0.0 0.0 
-7.358588771987e-05 1.865938454178e-04 0.0 
1.865938454178e-04 5.022273412551e-04 0.0 
0.0 0.0 0.0 
8.111402822856e-05 -1.050480079705e-05 0.0 
-1.050480079705e-05 3.688725049190e-04 0.0 
0.0 0.0 0.0 
-1.244705068282e-05 -3.733374351606e-05 0.0 
-3.733374351606e-05 1.435260747430e-04 0.0 
0.0 0.0 0.0 
-1.365016850441e-04 2.235389445453e-04 0.0 
2.235389445453e-04 6.490865775098e-04 0.0 
0.0 0.0 0.0 
6.581578882925e-05 2.701245739028e-04 0.0 
2.701245739028e-04 1.328684669456e-03 0.0 
0.0 0.0 0.0 
-1.718752899613e-04 1.602669003857e-05 0.0 
1.602669003857e-05 2.105491212456e-03 0.0 
0.0 0.0 0.0 
9.567958376607e-05 3.048427277216e-04 0.0 
3.048427277216e-04 1.342297579849e-03 0.0 
0.0 0.0 0.0 
-1.281450424298e-04 1.993500903173e-04 0.0 
1.993500903173e-04 4.469806893391e-04 0.0 
0.0 0.0 0.0 
-8.533381838442e-05 1.991683511641e-04 0.0 
1.991683511641e-04 2.399505482833e-03 0.0 
0.0 0.0 0.0 
5.273374190762e-05 3.510156203093e-04 0.0 
3.510156203093e-04 1.503314819606e-03 0.0 
0.0 0.0 0.0 
2.513763134408e-05 1.102199758392e-04 0.0 
1.102199758392e-04 1.238100168701e-03 0.0 
0.0 0.0 0.0 
7.802197197778e-05 3.252185879617e-04 0.0 
3.252185879617e-04 1.417457816237e-03 0.0 
0.0 0.0 0.0 
-7.216405326962e-05 1.402713305989e-04 0.0 
1.402713305989e-04 3.229077564381e-04 0.0 
0.0 0.0 0.0 
-2.234195745068e-04 9.014097524728e-05 0.0 
9.014097524728e-05 2.148458382254e-03 0.0 
0.0 0.0 0.0 
8.763698620036e-06 4.041775579331e-04 0.0 
4.041775579331e-04 1.789527076741e-03 0.0 
0.0 0.0 0.0 
-1.027278780377e-04 2.047809131757e-05 0.0 
2.047809131757e-05 2.333844960747e-03 0.0 
0.0 0.0 0.0 
2.267066192241e-05 8.733786657159e-05 0.0 
8.733786657159e-05 1.230056873588e-03 0.0 
0.0 0.0 0.0 
-1.922456449502e-04 3.160433764487e-05 0.0 
3.160433764487e-05 2.101405921769e-03 0.0 
0.0 0.0 0.0 
-4.821521389949e-05 4.671028942800e-05 0.0 
4.671028942800e-05 2.457319545083e-03 0.0 
0.0 0.0 0.0 
2.908640534012e-05 -1.946859490587e-05 0.0 
-1.946859490587e-05 2.172190509720e-04 0.0 
0.0 0.0 0.0 
-4.431863081629e-05 2.398816386620e-05 0.0 
2.398816386620e-05 2.458834860459e-03 0.0 
0.0 0.0 0.0 
-4.975190686694e-05 3.585704137548e-04 0.0 
3.585704137548e-04 1.853109238961e-03 0.0 
0.0 0.0 0.0 
-1.398876316288e-04 1.133686524061e-05 0.0 
1.133686524061e-05 2.170580945184e-03 0.0 
0.0 0.0 0.0 
-2.392609568417e-04 1.542726641133e-04 0.0 
1.542726641133e-04 2.107348180146e-03 0.0 
0.0 0.0 0.0 
3.642501579278e-05 2.881314804914e-05 0.0 
2.881314804914e-05 1.148765979630e-03 0.0 
0.0 0.0 0.0 
-6.557687830975e-05 3.521167480772e-04 0.0 
3.521167480772e-04 2.174618557101e-03 0.0 
0.0 0.0 0.0 
-7.245800369176e-05 1.075833062082e-04 0.0 
1.075833062082e-04 2.388893874747e-04 0.0 
0.0 0.0 0.0 
-1.148382914029e-04 1.742826695527e-05 0.0 
1.742826695527e-05 2.289132691370e-03 0.0 
0.0 0.0 0.0 
9.999654749113e-05 -9.001170294781e-06 0.0 
-9.001170294781e-06 4.663464235553e-04 0.0 
0.0 0.0 0.0 
-7.132631495732e-05 -1.860987862705e-05 0.0 
-1.860987862705e-05 1.161240795392e-04 0.0 
0.0 0.0 0.0 
5.295279190767e-05 1.313022248730e-04 0.0 
1.313022248730e-04 1.181137854459e-03 0.0 
0.0 0.0 0.0 
-3.872278780305e-05 3.728885074934e-04 0.0 
3.728885074934e-04 1.900514767761e-03 0.0 
0.0 0.0 0.0 
3.905032858840e-05 4.847938194110e-05 0.0 
4.847938194110e-05 1.147765185950e-03 0.0 
0.0 0.0 0.0 
2.920131045729e-05 -2.868498715185e-06 0.0 
-2.868498715185e-06 1.232696933389e-04 0.0 
0.0 0.0 0.0 
-1.067638415073e-05 -2.276560049366e-05 0.0 
-2.276560049366e-05 8.224936288128e-05 0.0 
0.0 0.0 0.0 
5.366776132183e-05 1.638184183587e-04 0.0 
1.638184183587e-04 1.217236636120e-03 0.0 
0.0 0.0 0.0 
-1.691566026335e-05 4.060899410408e-04 0.0 
4.060899410408e-04 1.934821561497e-03 0.0 
0.0 0.0 0.0 
4.310285103989e-05 -2.481271358267e-05 0.0 
-2.481271358267e-05 2.381661636746e-04 0.0 
0.0 0.0 0.0 
-3.521699773466e-05 1.728306670983e-04 0.0 
1.728306670983e-04 2.458516555177e-03 0.0 
0.0 0.0 0.0 
-9.039455840034e-05 7.938702295752e-05 0.0 
7.938702295752e-05 1.620991050365e-04 0.0 
0.0 0.0 0.0 
-1.505328132684e-04 1.386983372212e-06 0.0 
1.386983372212e-06 2.036063200515e-03 0.0 
0.0 0.0 0.0 
6.071408058639e-06 -1.673493033268e-05 0.0 
-1.673493033268e-05 7.893224251110e-05 0.0 
0.0 0.0 0.0 
2.120846669458e-05 6.419579530418e-05 0.0 
6.419579530418e-05 1.221357037372e-03 0.0 
0.0 0.0 0.0 
-6.558685749420e-05 1.224311121641e-04 0.0 
1.224311121641e-04 2.445481340497e-03 0.0 
0.0 0.0 0.0 
1.038996340802e-04 -3.040664864384e-06 0.0 
-3.040664864384e-06 5.184227840182e-04 0.0 
0.0 0.0 0.0 
-2.338173835021e-04 9.880543061258e-05 0.0 
9.880543061258e-05 2.046606344925e-03 0.0 
0.0 0.0 0.0 
7.315576235497e-05 -7.464754415308e-06 0.0 
-7.464754415308e-06 3.326735686129e-04 0.0 
0.0 0.0 0.0 
4.523394618863e-05 3.695174829226e-04 0.0 
3.695174829226e-04 1.584541406328e-03 0.0 
0.0 0.0 0.0 
-7.051240008926e-06 -3.532588332413e-05 0.0 
-3.532588332413e-05 1.294431645496e-04 0.0 
0.0 0.0 0.0 
-5.485343923284e-05 8.764311965487e-05 0.0 
8.764311965487e-05 2.457693551013e-03 0.0 
0.0 0.0 0.0 
5.593042432643e-05 1.996046261735e-04 0.0 
1.996046261735e-04 1.253432401724e-03 0.0 
0.0 0.0 0.0 
-7.882134335411e-05 2.768613132985e-04 0.0 
2.768613132985e-04 2.330637060236e-03 0.0 
0.0 0.0 0.0 
2.647095247172e-05 3.324150708873e-04 0.0 
3.324150708873e-04 1.487247101892e-03 0.0 
0.0 0.0 0.0 
-8.154661580895e-05 1.788170601102e-05 0.0 
1.788170601102e-05 1.280116284566e-04 0.0 
0.0 0.0 0.0 
4.031561996261e-05 3.718803950097e-04 0.0 
3.718803950097e-04 1.569458677831e-03 0.0 
0.0 0.0 0.0 
8.644911980813e-05 2.133647046277e-04 0.0 
2.133647046277e-04 1.206537308111e-03 0.0 
0.0 0.0 0.0 
-1.425233672089e-04 1.828241393457e-06 0.0 
1.828241393457e-06 2.039140363265e-03 0.0 
0.0 0.0 0.0 
-7.418707513935e-05 3.198920363919e-04 0.0 
3.198920363919e-04 2.250412532492e-03 0.0 
0.0 0.0 0.0 
8.928584800563e-05 -7.963352016483e-06 0.0 
-7.963352016483e-06 4.144526692543e-04 0.0 
0.0 0.0 0.0 
3.444732183380e-05 -2.162378287173e-05 0.0 
-2.162378287173e-05 1.715054033815e-04 0.0 
0.0 0.0 0.0 
-1.947856275792e-05 9.841140105652e-06 0.0 
9.841140105652e-06 2.498994218977e-03 0.0 
0.0 0.0 0.0 
1.316660242132e-05 -1.131402370679e-06 0.0 
-1.131402370679e-06 2.286883651612e-05 0.0 
0.0 0.0 0.0 
-1.400536767474e-04 -7.502987228389e-07 0.0 
-7.502987228389e-07 2.033429830725e-03 0.0 
0.0 0.0 0.0 
1.672005688689e-05 9.683640122911e-06 0.0 
9.683640122911e-06 1.216827082098e-03 0.0 
0.0 0.0 0.0 
3.595045812630e-05 -1.308595004300e-05 0.0 
-1.308595004300e-05 1.618115122904e-04 0.0 
0.0 0.0 0.0 
-1.343595088915e-04 1.940561652107e-06 0.0 
1.940561652107e-06 2.134927852329e-03 0.0 
0.0 0.0 0.0 
-2.722083799248e-05 4.005432348058e-04 0.0 
4.005432348058e-04 1.998540214116e-03 0.0 
0.0 0.0 0.0 
1.083069760803e-04 1.007843739088e-06 0.0 
1.007843739088e-06 6.523263052646e-04 0.0 
0.0 0.0 0.0 
-8.017948739667e-05 1.478250533610e-05 0.0 
1.478250533610e-05 2.383801673179e-03 0.0 
0.0 0.0 0.0 
1.023851376221e-05 -3.866275115415e-05 0.0 
-3.866275115415e-05 1.765490921398e-04 0.0 
0.0 0.0 0.0 
-1.263895319312e-04 -8.942549747737e-06 0.0 
-8.942549747737e-06 8.767394668119e-05 0.0 
0.0 0.0 0.0 
-1.212013464439e-04 6.168060481121e-06 0.0 
6.168060481121e-06 2.239406575631e-03 0.0 
0.0 0.0 0.0 
5.253596057559e-05 3.411697111893e-04 0.0 
3.411697111893e-04 1.474626969859e-03 0.0 
0.0 0.0 0.0 
-7.707940652661e-05 2.261327184966e-04 0.0 
2.261327184966e-04 2.389463852702e-03 0.0 
0.0 0.0 0.0 
-1.343180963894e-04 1.262250100409e-05 0.0 
1.262250100409e-05 2.202169655751e-03 0.0 
0.0 0.0 0.0 
-3.565280026581e-05 7.928260114006e-05 0.0 
7.928260114006e-05 2.571121212206e-04 0.0 
0.0 0.0 0.0 
-2.971961906377e-05 3.902044065696e-04 0.0 
3.902044065696e-04 1.937670202514e-03 0.0 
0.0 0.0 0.0 
1.083652097959e-04 -1.683104591782e-06 0.0 
-1.683104591782e-06 5.640472675695e-04 0.0 
0.0 0.0 0.0 
1.756846091796e-05 3.868380303232e-04 0.0 
3.868380303232e-04 1.713862134005e-03 0.0 
0.0 0.0 0.0 
8.486930810174e-05 2.462617411167e-04 0.0 
2.462617411167e-04 1.257791320050e-03 0.0 
0.0 0.0 0.0 
-1.152505227439e-04 8.885286176503e-05 0.0 
8.885286176503e-05 1.109077144179e-04 0.0 
0.0 0.0 0.0 
1.073011159018e-04 2.018355330482e-06 0.0 
2.018355330482e-06 7.091595181416e-04 0.0 
0.0 0.0 0.0 
-2.820376023460e-06 -1.824267126260e-05 0.0 
-1.824267126260e-05 7.619732909743e-05 0.0 
0.0 0.0 0.0 
4.138020028135e-05 9.602537758771e-05 0.0 
9.602537758771e-05 1.180409332362e-03 0.0 
0.0 0.0 0.0 
1.083324168076e-04 -5.792731050706e-07 0.0 
-5.792731050706e-07 5.911203627302e-04 0.0 
0.0 0.0 0.0 
-2.083405416743e-04 4.801112455270e-05 0.0 
4.801112455270e-05 1.982743403467e-03 0.0 
0.0 0.0 0.0 
-1.472225820570e-04 1.305165452333e-06 0.0 
1.305165452333e-06 1.956838808640e-03 0.0 
0.0 0.0 0.0 

TENSORS node_materi_strain_plasti float
-2.612663767757e-06 -3.252607646113e-07 0.0 
-3.252607646113e-07 2.093720605042e-05 0.0 
0.0 0.0 -4.924303274428e-06 
-1.079056608654e-04 -1.683663743376e-05 0.0 
-1.683663743376e-05 6.796608024097e-04 0.0 
0.0 0.0 -1.043867513459e-04 
-1.990082416844e-04 1.461466422752e-05 0.0 
1.461466422752e-05 1.338163054070e-03 0.0 
0.0 0.0 -1.998931639748e-04 
-1.992789450115e-04 -1.457804817178e-05 0.0 
-1.457804817178e-05 1.339096739606e-03 0.0 
0.0 0.0 -1.998931639748e-04 
-1.229078891716e-05 5.366280014175e-06 0.0 
5.366280014175e-06 5.053145956954e-05 0.0 
0.0 0.0 -1.268018299698e-05 
-2.543886988905e-05 1.901414525611e-05 0.0 
1.901414525611e-05 1.267844857367e-04 0.0 
0.0 0.0 -2.428620303623e-05 
-3.444505010393e-05 1.562750611400e-05 0.0 
1.562750611400e-05 1.836714106930e-04 0.0 
0.0 0.0 -3.399136149544e-05 
-4.457783022682e-05 1.417525000785e-05 0.0 
1.417525000785e-05 2.618842628781e-04 0.0 
0.0 0.0 -4.406465996183e-05 
-5.572937533165e-05 1.046680884978e-05 0.0 
1.046680884978e-05 3.321775894220e-04 0.0 
0.0 0.0 -5.415704333790e-05 
-6.374532394610e-05 9.877096268524e-06 0.0 
9.877096268524e-06 3.996726964643e-04 0.0 
0.0 0.0 -6.415842296661e-05 
-7.312975922456e-05 1.092726545402e-05 0.0 
1.092726545402e-05 4.685103703879e-04 0.0 
0.0 0.0 -7.410179773499e-05 
-8.340975388222e-05 9.760341255261e-06 0.0 
9.760341255261e-06 5.380090096821e-04 0.0 
0.0 0.0 -8.402736785582e-05 
-9.329317044903e-05 9.748725627981e-06 0.0 
9.748725627981e-06 6.067337971893e-04 0.0 
0.0 0.0 -9.400794208654e-05 
-1.048395173574e-04 1.245666822366e-05 0.0 
1.245666822366e-05 6.774763461161e-04 0.0 
0.0 0.0 -1.040542782181e-04 
-1.176369272068e-04 1.876149311443e-05 0.0 
1.876149311443e-05 7.541898349339e-04 0.0 
0.0 0.0 -1.141079629734e-04 
-1.251371721908e-04 1.991670015406e-05 0.0 
1.991670015406e-05 8.235151932197e-04 0.0 
0.0 0.0 -1.240613786258e-04 
-1.319668018372e-04 2.596472290694e-05 0.0 
2.596472290694e-05 8.806369836317e-04 0.0 
0.0 0.0 -1.335504265687e-04 
-1.429595426911e-04 1.016247294305e-05 0.0 
1.016247294305e-05 9.540683438175e-04 0.0 
0.0 0.0 -1.433712649586e-04 
-1.532202596459e-04 9.657610282115e-06 0.0 
9.657610282115e-06 1.025836369529e-03 0.0 
0.0 0.0 -1.536785213545e-04 
-1.630955816410e-04 9.924116732642e-06 0.0 
9.924116732642e-06 1.095392565861e-03 0.0 
0.0 0.0 -1.636867096734e-04 
-1.736417197982e-04 9.148824907428e-06 0.0 
9.148824907428e-06 1.166298828267e-03 0.0 
0.0 0.0 -1.737495185000e-04 
-1.844935295981e-04 1.136666883781e-05 0.0 
1.136666883781e-05 1.237760949854e-03 0.0 
0.0 0.0 -1.839110754151e-04 
-1.928395893447e-04 1.466620459946e-05 0.0 
1.466620459946e-05 1.307601711888e-03 0.0 
0.0 0.0 -1.934749151625e-04 
-1.992084498245e-04 -9.667205419172e-07 0.0 
-9.667205419172e-07 1.341308611164e-03 0.0 
0.0 0.0 -2.005353038101e-04 
-2.003235822205e-04 -4.576902611969e-07 0.0 
-4.576902611969e-07 1.339283177977e-03 0.0 
0.0 0.0 -1.999418651152e-04 
-2.004195521241e-04 -9.594112326717e-06 0.0 
-9.594112326717e-06 1.337828695600e-03 0.0 
0.0 0.0 -2.002354755130e-04 
-2.008845907091e-04 4.519063874005e-06 0.0 
4.519063874005e-06 1.338578482993e-03 0.0 
0.0 0.0 -2.001689849711e-04 
-2.005719087583e-04 -1.259819984252e-06 0.0 
-1.259819984252e-06 1.336698736025e-03 0.0 
0.0 0.0 -1.998101597465e-04 
-2.003033749392e-04 1.612771953849e-07 0.0 
1.612771953849e-07 1.336699884288e-03 0.0 
0.0 0.0 -2.002576402756e-04 
-1.988174270910e-04 4.435871277181e-07 0.0 
4.435871277181e-07 1.338020991228e-03 0.0 
0.0 0.0 -2.002582685247e-04 
-2.006018029555e-04 -1.428553602928e-06 0.0 
-1.428553602928e-06 1.338259915715e-03 0.0 
0.0 0.0 -2.000295381545e-04 
-2.002076965602e-04 -6.442142530928e-06 0.0 
-6.442142530928e-06 1.339568721789e-03 0.0 
0.0 0.0 -2.004389858384e-04 
-2.006688150029e-04 4.111887006867e-06 0.0 
4.111887006867e-06 1.340190933063e-03 0.0 
0.0 0.0 -2.003568725688e-04 
-2.004204281591e-04 -1.032720327526e-06 0.0 
-1.032720327526e-06 1.338293566306e-03 0.0 
0.0 0.0 -1.999970921405e-04 
-2.007190085647e-04 -7.221768717099e-07 0.0 
-7.221768717099e-07 1.338675392550e-03 0.0 
0.0 0.0 -2.003793839065e-04 
-1.990986785052e-04 -1.590259053516e-08 0.0 
-1.590259053516e-08 1.341350099485e-03 0.0 
0.0 0.0 -2.004146187826e-04 
-2.007914892723e-04 -4.264335361636e-07 0.0 
-4.264335361636e-07 1.339816171211e-03 0.0 
0.0 0.0 -2.002852565091e-04 
-1.994100966532e-04 -1.572894639504e-06 0.0 
-1.572894639504e-06 1.338161131957e-03 0.0 
0.0 0.0 -2.001446319728e-04 
-2.007511256741e-04 1.494960023588e-06 0.0 
1.494960023588e-06 1.335513206817e-03 0.0 
0.0 0.0 -1.998462653075e-04 
-2.008601944157e-04 -3.837724735007e-07 0.0 
-3.837724735007e-07 1.334384440132e-03 0.0 
0.0 0.0 -1.998029376683e-04 
-1.990688471561e-04 2.458886044844e-07 0.0 
2.458886044844e-07 1.337655076969e-03 0.0 
0.0 0.0 -2.000088186226e-04 
-2.001853082778e-04 -6.402158915268e-07 0.0 
-6.402158915268e-07 1.339281899659e-03 0.0 
0.0 0.0 -2.002091174222e-04 
-2.005241707287e-04 -7.501540653695e-07 0.0 
-7.501540653695e-07 1.339203182872e-03 0.0 
0.0 0.0 -2.004865334549e-04 
-2.005853306472e-04 2.540125145858e-06 0.0 
2.540125145858e-06 1.339503555012e-03 0.0 
0.0 0.0 -2.003832587333e-04 
-1.997808965748e-04 -1.605993664682e-07 0.0 
-1.605993664682e-07 1.339666309980e-03 0.0 
0.0 0.0 -2.002174839672e-04 
-2.003075530794e-04 4.838064349880e-07 0.0 
4.838064349880e-07 1.338766324707e-03 0.0 
0.0 0.0 -2.002580803729e-04 
-2.003470639015e-04 -2.444069971793e-07 0.0 
-2.444069971793e-07 1.338072796155e-03 0.0 
0.0 0.0 -2.002440284024e-04 
-2.004510673748e-04 -1.928377971688e-07 0.0 
-1.928377971688e-07 1.340065919944e-03 0.0 
0.0 0.0 -2.002334986692e-04 
-1.995883615915e-04 -7.312419057639e-07 0.0 
-7.312419057639e-07 1.340320439837e-03 0.0 
0.0 0.0 -2.003661129950e-04 
-2.011747927060e-04 -8.722415594421e-07 0.0 
-8.722415594421e-07 1.340079435223e-03 0.0 
0.0 0.0 -2.004908485340e-04 
-1.995361419384e-04 -6.780112919626e-07 0.0 
-6.780112919626e-07 1.340717740891e-03 0.0 
0.0 0.0 -2.004762665914e-04 
-2.008009995012e-04 -8.793815483887e-07 0.0 
-8.793815483887e-07 1.341377617168e-03 0.0 
0.0 0.0 -2.003014926434e-04 
-2.004900975472e-04 -5.374113392905e-06 0.0 
-5.374113392905e-06 1.342707157093e-03 0.0 
0.0 0.0 -2.006997735404e-04 
-2.011614755125e-04 5.177742394410e-06 0.0 
5.177742394410e-06 1.341994191491e-03 0.0 
0.0 0.0 -2.005870641008e-04 
-2.001672680472e-04 1.642921574496e-06 0.0 
1.642921574496e-06 1.338462129955e-03 0.0 
0.0 0.0 -2.000675234999e-04 
-1.999895739659e-04 -6.988816100531e-09 0.0 
-6.988816100531e-09 1.336248125534e-03 0.0 
0.0 0.0 -2.001823097425e-04 
-2.001225026340e-04 -1.240829705364e-06 0.0 
-1.240829705364e-06 1.339474803775e-03 0.0 
0.0 0.0 -2.001929620191e-04 
-1.997428951088e-04 -2.864922555171e-07 0.0 
-2.864922555171e-07 1.339287980767e-03 0.0 
0.0 0.0 -2.002863172658e-04 
-2.011305945919e-04 -1.592599752619e-06 0.0 
-1.592599752619e-06 1.339001312879e-03 0.0 
0.0 0.0 -2.003537156312e-04 
-1.994489271156e-04 -3.123074052849e-07 0.0 
-3.123074052849e-07 1.340206734430e-03 0.0 
0.0 0.0 -2.003469717371e-04 
-2.008676553467e-04 -6.044515584240e-08 0.0 
-6.044515584240e-08 1.338725412238e-03 0.0 
0.0 0.0 -2.002396863610e-04 
-1.992453131624e-04 -1.009025233623e-06 0.0 
-1.009025233623e-06 1.337264745438e-03 0.0 
0.0 0.0 -2.001151187552e-04 
-2.007508866938e-04 2.802615914652e-07 0.0 
2.802615914652e-07 1.337086357069e-03 0.0 
0.0 0.0 -1.998355947622e-04 
-2.010860201950e-04 -2.268840142145e-06 0.0 
-2.268840142145e-06 1.337518567927e-03 0.0 
0.0 0.0 -2.000624918399e-04 
-1.999308478327e-04 1.605132680388e-06 0.0 
1.605132680388e-06 1.340948129084e-03 0.0 
0.0 0.0 -2.004978758543e-04 
-1.989515291925e-04 -1.597226336294e-06 0.0 
-1.597226336294e-06 1.342999130641e-03 0.0 
0.0 0.0 -2.005641941534e-04 
-2.002462740351e-04 -1.655488014151e-06 0.0 
-1.655488014151e-06 1.333093131656e-03 0.0 
0.0 0.0 -1.993486092159e-04 
-1.990090833406e-04 5.684559175637e-07 0.0 
5.684559175637e-07 1.340609276749e-03 0.0 
0.0 0.0 -2.003850096553e-04 
-2.008054096670e-04 9.372155481791e-08 0.0 
9.372155481791e-08 1.339007845984e-03 0.0 
0.0 0.0 -1.998785251170e-04 
-2.008250670669e-04 -6.084757154766e-06 0.0 
-6.084757154766e-06 1.338299561836e-03 0.0 
0.0 0.0 -2.002828574513e-04 
-2.004005035862e-04 2.502291620358e-06 0.0 
2.502291620358e-06 1.342657178018e-03 0.0 
0.0 0.0 -2.004849633189e-04 
-2.007882536758e-04 -1.247747538696e-07 0.0 
-1.247747538696e-07 1.343259988120e-03 0.0 
0.0 0.0 -2.003783523096e-04 
-1.146671904274e-04 -1.178176757847e-05 0.0 
-1.178176757847e-05 7.450986713540e-04 0.0 
0.0 0.0 -1.147343130870e-04 
-1.264453810116e-04 -1.334151081515e-05 0.0 
-1.334151081515e-05 8.198209596703e-04 0.0 
0.0 0.0 -1.244847198447e-04 
-1.356765189360e-04 -1.297470350471e-05 0.0 
-1.297470350471e-05 8.891398730811e-04 0.0 
0.0 0.0 -1.343891602869e-04 
-1.452353386135e-04 -1.385252952600e-05 0.0 
-1.385252952600e-05 9.563155137830e-04 0.0 
0.0 0.0 -1.441570129583e-04 
-1.551452079967e-04 -1.219781350268e-05 0.0 
-1.219781350268e-05 1.026181140671e-03 0.0 
0.0 0.0 -1.540481715075e-04 
-1.626979226826e-04 -1.337619385664e-05 0.0 
-1.337619385664e-05 1.096146543984e-03 0.0 
0.0 0.0 -1.639185295300e-04 
-1.730204163278e-04 -1.189570542028e-05 0.0 
-1.189570542028e-05 1.165335265964e-03 0.0 
0.0 0.0 -1.737435638217e-04 
-1.827904030233e-04 -1.370279642459e-05 0.0 
-1.370279642459e-05 1.231374955592e-03 0.0 
0.0 0.0 -1.836722557877e-04 
-1.920175721782e-04 -1.513479483673e-05 0.0 
-1.513479483673e-05 1.306410256595e-03 0.0 
0.0 0.0 -1.933173094176e-04 
-2.628312394672e-06 4.861178510582e-06 0.0 
4.861178510582e-06 1.556544794842e-05 0.0 
0.0 0.0 -4.409292559605e-06 
-1.048316007749e-04 -9.621305853345e-07 0.0 
-9.621305853345e-07 6.811678198845e-04 0.0 
0.0 0.0 -1.041824356080e-04 
-1.603258868989e-05 6.293505815657e-06 0.0 
6.293505815657e-06 6.888897348946e-05 0.0 
0.0 0.0 -1.632019118638e-05 
-2.756708965862e-05 9.954179369459e-06 0.0 
9.954179369459e-06 1.392031922928e-04 0.0 
0.0 0.0 -2.693367542308e-05 
-3.812552406380e-05 1.016013513838e-05 0.0 
1.016013513838e-05 2.109572618436e-04 0.0 
0.0 0.0 -3.699017713192e-05 
-4.963090252897e-05 1.010790859059e-05 0.0 
1.010790859059e-05 2.749080301063e-04 0.0 
0.0 0.0 -4.663185121135e-05 
-5.946172844476e-05 1.089817760649e-05 0.0 
1.089817760649e-05 3.455630334660e-04 0.0 
0.0 0.0 -5.667203691650e-05 
-6.775013558677e-05 5.168412961490e-06 0.0 
5.168412961490e-06 4.165676618044e-04 0.0 
0.0 0.0 -6.681818494127e-05 
-7.793159950291e-05 6.492051775956e-06 0.0 
6.492051775956e-06 4.871727413844e-04 0.0 
0.0 0.0 -7.681969500240e-05 
-8.783977169920e-05 6.955775059417e-06 0.0 
6.955775059417e-06 5.564889548153e-04 0.0 
0.0 0.0 -8.684905393267e-05 
-9.537104611594e-05 3.209540963744e-06 0.0 
3.209540963744e-06 6.269670332365e-04 0.0 
0.0 0.0 -9.657616547764e-05 
-1.009266233948e-04 -1.960595595852e-05 0.0 
-1.960595595852e-05 6.375881959118e-04 0.0 
0.0 0.0 -9.733333333333e-05 
-1.036969649510e-04 8.247914357618e-06 0.0 
8.247914357618e-06 6.682236523530e-04 0.0 
0.0 0.0 -1.031244360596e-04 
-1.030331121809e-04 6.398061947281e-07 0.0 
6.398061947281e-07 6.730085857154e-04 0.0 
0.0 0.0 -1.036639830904e-04 
-1.040246848300e-04 6.551258288294e-07 0.0 
6.551258288294e-07 6.737003815122e-04 0.0 
0.0 0.0 -1.036786795573e-04 
-1.036199691061e-04 -1.060092899920e-06 0.0 
-1.060092899920e-06 6.728402332334e-04 0.0 
0.0 0.0 -1.035503476195e-04 
-1.036187730866e-04 6.987826892712e-07 0.0 
6.987826892712e-07 6.843234116976e-04 0.0 
0.0 0.0 -1.047113471711e-04 
-1.033931728263e-04 8.121956357098e-07 0.0 
8.121956357098e-07 6.742373380345e-04 0.0 
0.0 0.0 -1.036717283195e-04 
-1.019647128334e-04 -9.227752753182e-07 0.0 
-9.227752753182e-07 6.731432047700e-04 0.0 
0.0 0.0 -1.035575096558e-04 
-1.024936313905e-04 1.772285713447e-06 0.0 
1.772285713447e-06 6.748371062497e-04 0.0 
0.0 0.0 -1.035838249569e-04 
-1.042470993802e-04 3.635416729023e-07 0.0 
3.635416729023e-07 6.762559263978e-04 0.0 
0.0 0.0 -1.038366668071e-04 
-1.045602445557e-04 1.897285970682e-06 0.0 
1.897285970682e-06 6.765304608455e-04 0.0 
0.0 0.0 -1.037414779538e-04 
-1.033276288020e-04 1.064407616834e-06 0.0 
1.064407616834e-06 6.759918874459e-04 0.0 
0.0 0.0 -1.036749887244e-04 
-1.038467522998e-04 5.163460192194e-07 0.0 
5.163460192194e-07 6.750993881616e-04 0.0 
0.0 0.0 -1.036742376103e-04 
-1.031100844336e-04 2.320623075698e-06 0.0 
2.320623075698e-06 6.745066352922e-04 0.0 
0.0 0.0 -1.037248800197e-04 
-1.035625589850e-04 3.164755832638e-06 0.0 
3.164755832638e-06 6.761520668862e-04 0.0 
0.0 0.0 -1.038372224314e-04 
-3.888660396223e-06 -2.385114651317e-06 0.0 
-2.385114651317e-06 2.042711759429e-05 0.0 
0.0 0.0 -4.472331749510e-06 
-5.169101753906e-06 -7.084154542495e-07 0.0 
-7.084154542495e-07 2.271348961565e-05 0.0 
0.0 0.0 -4.502040609288e-06 
-2.364246160799e-06 1.028376057694e-06 0.0 
1.028376057694e-06 2.131091607623e-05 0.0 
0.0 0.0 -4.337518410806e-06 
-1.587498611084e-06 -3.133011703373e-06 0.0 
-3.133011703373e-06 2.050781746996e-05 0.0 
0.0 0.0 -4.334754490686e-06 
-5.046560316982e-06 -4.634948452893e-06 0.0 
-4.634948452893e-06 2.392890582554e-05 0.0 
0.0 0.0 -4.561117883842e-06 
-6.265007612969e-06 -9.207565944816e-07 0.0 
-9.207565944816e-07 2.697395437511e-05 0.0 
0.0 0.0 -4.603166802451e-06 
-5.736513677339e-06 8.387511243075e-08 0.0 
8.387511243075e-08 2.687139260663e-05 0.0 
0.0 0.0 -4.588253942932e-06 
-4.839540945368e-06 -2.011555288387e-07 0.0 
-2.011555288387e-07 2.583465999306e-05 0.0 
0.0 0.0 -4.580819930830e-06 
-4.612792911559e-06 -5.630253563300e-07 0.0 
-5.630253563300e-07 2.605477154738e-05 0.0 
0.0 0.0 -4.566377142626e-06 
-3.958290915494e-06 -1.184167375848e-06 0.0 
-1.184167375848e-06 2.564531167106e-05 0.0 
0.0 0.0 -4.572797242576e-06 
-4.022129294500e-06 -2.439723680986e-06 0.0 
-2.439723680986e-06 2.664958176089e-05 0.0 
0.0 0.0 -4.590091569785e-06 
-6.268342663527e-06 6.977096205287e-07 0.0 
6.977096205287e-07 2.905288206764e-05 0.0 
0.0 0.0 -4.700025780019e-06 
-5.376994636987e-06 4.381417467922e-06 0.0 
4.381417467922e-06 2.721428218001e-05 0.0 
0.0 0.0 -4.652230755744e-06 
-2.838762493559e-06 1.392931258625e-06 0.0 
1.392931258625e-06 2.367722917541e-05 0.0 
0.0 0.0 -4.515582628821e-06 
-3.990779392774e-06 -6.597448414294e-07 0.0 
-6.597448414294e-07 2.387859913914e-05 0.0 
0.0 0.0 -4.562958168800e-06 
-6.201113197701e-06 2.425591329864e-07 0.0 
2.425591329864e-07 2.634678490736e-05 0.0 
0.0 0.0 -4.590849357655e-06 
-6.954870756755e-06 8.464675035122e-07 0.0 
8.464675035122e-07 2.697964767619e-05 0.0 
0.0 0.0 -4.587172474505e-06 
-4.599856540822e-06 4.128708826148e-06 0.0 
4.128708826148e-06 2.250512897823e-05 0.0 
0.0 0.0 -4.562260372237e-06 
-2.212869655358e-06 7.040915964333e-07 0.0 
7.040915964333e-07 1.983031900883e-05 0.0 
0.0 0.0 -4.417496077222e-06 
-8.809035527473e-05 -1.178166199993e-06 0.0 
-1.178166199993e-06 6.238884265500e-04 0.0 
0.0 0.0 -9.621155172247e-05 
-9.984401631233e-05 -2.945448117229e-06 0.0 
-2.945448117229e-06 6.497482051544e-04 0.0 
0.0 0.0 -9.802272272544e-05 
-9.936398709317e-05 4.325851968993e-06 0.0 
4.325851968993e-06 6.525395798385e-04 0.0 
0.0 0.0 -9.844444444444e-05 
-9.858397010591e-05 2.481001913696e-06 0.0 
2.481001913696e-06 6.513950145557e-04 0.0 
0.0 0.0 -9.844444444445e-05 
-9.886460407261e-05 5.086950980375e-07 0.0 
5.086950980375e-07 6.522004605223e-04 0.0 
0.0 0.0 -9.844444444444e-05 
-9.890743924790e-05 1.305860935364e-06 0.0 
1.305860935364e-06 6.527337220360e-04 0.0 
0.0 0.0 -9.844444444444e-05 
-9.892571381917e-05 2.024398784782e-06 0.0 
2.024398784782e-06 6.517352970957e-04 0.0 
0.0 0.0 -9.844444444444e-05 
-9.885509286216e-05 1.474340609686e-07 0.0 
1.474340609686e-07 6.516726561483e-04 0.0 
0.0 0.0 -9.844444444444e-05 
-9.712798635946e-05 1.328031689596e-06 0.0 
1.328031689596e-06 6.520380438199e-04 0.0 
0.0 0.0 -9.844444444445e-05 
-9.816832449584e-05 -3.831329909819e-07 0.0 
-3.831329909819e-07 6.518555531578e-04 0.0 
0.0 0.0 -9.844444444444e-05 
-9.793127146285e-05 5.869064823073e-07 0.0 
5.869064823073e-07 6.515162612184e-04 0.0 
0.0 0.0 -9.844444444444e-05 
-9.776611979870e-05 -1.766650150322e-06 0.0 
-1.766650150322e-06 6.513526038858e-04 0.0 
0.0 0.0 -9.844444444444e-05 
-9.848860384773e-05 -4.315606999432e-07 0.0 
-4.315606999432e-07 6.519843027726e-04 0.0 
0.0 0.0 -9.844444444444e-05 
-9.832693354643e-05 -1.232353478427e-06 0.0 
-1.232353478427e-06 6.503373136612e-04 0.0 
0.0 0.0 -9.844444444444e-05 
-9.828258220668e-05 -6.723952461593e-06 0.0 
-6.723952461593e-06 6.455030300372e-04 0.0 
0.0 0.0 -9.844444444444e-05 
-9.706787895015e-05 1.700064823413e-05 0.0 
1.700064823413e-05 6.367274819496e-04 0.0 
0.0 0.0 -9.733333333333e-05 
-9.168972231207e-06 3.086373565098e-06 0.0 
3.086373565098e-06 3.559574852660e-05 0.0 
0.0 0.0 -1.067913767518e-05 
-2.319324557595e-05 9.600073751644e-06 0.0 
9.600073751644e-06 1.051649730873e-04 0.0 
0.0 0.0 -2.186514004066e-05 
-3.270389502079e-05 1.247004681325e-05 0.0 
1.247004681325e-05 1.753354515574e-04 0.0 
0.0 0.0 -3.195214541711e-05 
-4.333142068931e-05 1.229963368923e-05 0.0 
1.229963368923e-05 2.470095009577e-04 0.0 
0.0 0.0 -4.202597925154e-05 
-5.334283756541e-05 5.153255213289e-06 0.0 
5.153255213289e-06 3.151067639109e-04 0.0 
0.0 0.0 -5.161396608484e-05 
-6.108066666722e-05 7.340749313707e-06 0.0 
7.340749313707e-06 3.847251305454e-04 0.0 
0.0 0.0 -6.162588342429e-05 
-7.306139943485e-05 7.918023931396e-06 0.0 
7.918023931396e-06 4.529799352535e-04 0.0 
0.0 0.0 -7.179487645214e-05 
-8.254057578856e-05 9.754524772693e-06 0.0 
9.754524772693e-06 5.221143187957e-04 0.0 
0.0 0.0 -8.183139013121e-05 
-9.252450021860e-05 8.728868541486e-06 0.0 
8.728868541486e-06 5.921351543100e-04 0.0 
0.0 0.0 -9.185492480322e-05 
-9.507326426448e-05 3.806502974966e-06 0.0 
3.806502974966e-06 6.456831309593e-04 0.0 
0.0 0.0 -9.988513395014e-05 
-2.903947000217e-05 4.451191488364e-07 0.0 
4.451191488364e-07 1.483933272917e-04 0.0 
0.0 0.0 -2.805418351568e-05 
-1.947382551544e-04 -2.159516415369e-06 0.0 
-2.159516415369e-06 1.315627443457e-03 0.0 
0.0 0.0 -1.955083413980e-04 
-8.567559438263e-06 -1.698793721464e-06 0.0 
-1.698793721464e-06 4.448364337142e-05 0.0 
0.0 0.0 -8.578267221574e-06 
-8.136868517871e-06 -4.367899646924e-06 0.0 
-4.367899646924e-06 4.087946457471e-05 0.0 
0.0 0.0 -8.341387659605e-06 
-1.954641214956e-04 3.125550394228e-06 0.0 
3.125550394228e-06 1.316340498285e-03 0.0 
0.0 0.0 -1.955041315648e-04 
-5.006254034077e-05 3.860488417876e-06 0.0 
3.860488417876e-06 2.918098893608e-04 0.0 
0.0 0.0 -4.819929352323e-05 
-1.113057377054e-04 -1.249747274644e-06 0.0 
-1.249747274644e-06 7.175137801225e-04 0.0 
0.0 0.0 -1.095085134540e-04 
-1.950754387674e-04 1.968519813096e-06 0.0 
1.968519813096e-06 1.314054090021e-03 0.0 
0.0 0.0 -1.951497400597e-04 
-6.837076637649e-05 -4.771419097858e-06 0.0 
-4.771419097858e-06 4.223371659246e-04 0.0 
0.0 0.0 -6.746904573659e-05 
-1.952596228174e-04 5.860291744707e-07 0.0 
5.860291744707e-07 1.317160681800e-03 0.0 
0.0 0.0 -1.956021977692e-04 
-8.896698281549e-05 5.176874405717e-07 0.0 
5.176874405717e-07 5.656380992247e-04 0.0 
0.0 0.0 -8.786970436408e-05 
-1.941939648637e-04 1.847287419424e-06 0.0 
1.847287419424e-06 1.320485000250e-03 0.0 
0.0 0.0 -1.961487763302e-04 
-7.650674215329e-06 1.236502144193e-06 0.0 
1.236502144193e-06 3.991553915001e-05 0.0 
0.0 0.0 -8.186248162006e-06 
-1.957069062092e-04 9.003290222840e-07 0.0 
9.003290222840e-07 1.317426151316e-03 0.0 
0.0 0.0 -1.956722400187e-04 
-1.089453835626e-04 2.369159746168e-06 0.0 
2.369159746168e-06 7.099109707760e-04 0.0 
0.0 0.0 -1.080461297714e-04 
-6.859129019067e-05 1.013206430907e-06 0.0 
1.013206430907e-06 4.370886358119e-04 0.0 
0.0 0.0 -6.960710895285e-05 
-1.371687672462e-04 1.989641405698e-06 0.0 
1.989641405698e-06 9.073488131676e-04 0.0 
0.0 0.0 -1.368826812983e-04 
-1.943229683407e-04 -1.445358278172e-06 0.0 
-1.445358278172e-06 1.315110082613e-03 0.0 
0.0 0.0 -1.951920106767e-04 
-1.956930830492e-04 2.604495501024e-06 0.0 
2.604495501024e-06 1.317782772153e-03 0.0 
0.0 0.0 -1.956442140825e-04 
-1.963197173795e-04 -2.638308879700e-06 0.0 
-2.638308879700e-06 1.317317020312e-03 0.0 
0.0 0.0 -1.954857917668e-04 
-1.946046977129e-04 1.619923868870e-06 0.0 
1.619923868870e-06 1.311223827380e-03 0.0 
0.0 0.0 -1.946591103862e-04 
-1.965700765428e-04 -3.277130686746e-06 0.0 
-3.277130686746e-06 1.319377863823e-03 0.0 
0.0 0.0 -1.957959275784e-04 
-1.125606473740e-04 1.719511349206e-06 0.0 
1.719511349206e-06 7.393436574216e-04 0.0 
0.0 0.0 -1.128301714015e-04 
-1.128503086942e-04 1.743206654311e-06 0.0 
1.743206654311e-06 7.389768954601e-04 0.0 
0.0 0.0 -1.129477424158e-04 
-1.131980592598e-04 -1.862024743753e-06 0.0 
-1.862024743753e-06 7.425708164452e-04 0.0 
0.0 0.0 -1.137040567910e-04 
-1.496411633683e-04 -5.197980004835e-06 0.0 
-5.197980004835e-06 9.903344520159e-04 0.0 
0.0 0.0 -1.492512252364e-04 
-1.950888054502e-04 -1.662594662544e-06 0.0 
-1.662594662544e-06 1.318271302421e-03 0.0 
0.0 0.0 -1.954311278458e-04 
-7.420624434335e-06 -2.743944179506e-06 0.0 
-2.743944179506e-06 4.036171462300e-05 0.0 
0.0 0.0 -8.192647634203e-06 
-9.873734262922e-06 8.287041108010e-07 0.0 
8.287041108010e-07 4.596430085012e-05 0.0 
0.0 0.0 -8.762595040287e-06 
-1.681367322331e-04 -1.737857054474e-07 0.0 
-1.737857054474e-07 1.127342030325e-03 0.0 
0.0 0.0 -1.684329593750e-04 
-1.137312378447e-04 2.941922033179e-06 0.0 
2.941922033179e-06 7.354400071240e-04 0.0 
0.0 0.0 -1.125050824252e-04 
-4.041482156002e-05 3.417558897106e-07 0.0 
3.417558897106e-07 2.241831831132e-04 0.0 
0.0 0.0 -3.891752881399e-05 
-1.947641557456e-04 7.923084531913e-07 0.0 
7.923084531913e-07 1.304507022875e-03 0.0 
0.0 0.0 -1.939800207710e-04 
-1.960054809974e-04 2.031047324451e-06 0.0 
2.031047324451e-06 1.320447363547e-03 0.0 
0.0 0.0 -1.960961780200e-04 
-1.959837947468e-04 7.548015026682e-07 0.0 
7.548015026682e-07 1.316397764372e-03 0.0 
0.0 0.0 -1.957100175409e-04 
-1.949003992159e-04 1.873708810936e-06 0.0 
1.873708810936e-06 1.312448359133e-03 0.0 
0.0 0.0 -1.946892349944e-04 
-1.963394652884e-04 -2.461762416477e-06 0.0 
-2.461762416477e-06 1.317843150582e-03 0.0 
0.0 0.0 -1.958367853254e-04 
-9.399904561966e-06 3.751811683982e-07 0.0 
3.751811683982e-07 4.607602797327e-05 0.0 
0.0 0.0 -8.777929302786e-06 
-1.121136777944e-04 2.136242843992e-06 0.0 
2.136242843992e-06 7.375316866664e-04 0.0 
0.0 0.0 -1.125147119063e-04 
-1.945054015985e-04 1.526423234172e-06 0.0 
1.526423234172e-06 1.305744790732e-03 0.0 
0.0 0.0 -1.939771297832e-04 
-1.693349048774e-04 -4.546658260319e-06 0.0 
-4.546658260319e-06 1.130612016236e-03 0.0 
0.0 0.0 -1.685397735077e-04 
-8.598075030748e-06 -2.223307893963e-06 0.0 
-2.223307893963e-06 4.388775337437e-05 0.0 
0.0 0.0 -8.698177642707e-06 
-8.871376934976e-05 -9.707224206822e-07 0.0 
-9.707224206822e-07 5.731446297532e-04 0.0 
0.0 0.0 -8.906156601093e-05 
-1.979802513817e-04 -1.566370620822e-06 0.0 
-1.566370620822e-06 1.328935425363e-03 0.0 
0.0 0.0 -1.967971955909e-04 
-6.059110968862e-05 -2.270349058910e-06 0.0 
-2.270349058910e-06 3.638632698663e-04 0.0 
0.0 0.0 -5.846208800394e-05 
-3.934380255029e-05 1.116524761702e-06 0.0 
1.116524761702e-06 2.201048627676e-04 0.0 
0.0 0.0 -3.823193484201e-05 
-7.905584954535e-05 -1.125239316859e-06 0.0 
-1.125239316859e-06 4.942495490073e-04 0.0 
0.0 0.0 -7.767853477808e-05 
-9.853492259670e-05 -1.059175576560e-06 0.0 
-1.059175576560e-06 6.356901872357e-04 0.0 
0.0 0.0 -9.791554816786e-05 
-1.758731503853e-05 -2.183232337715e-06 0.0 
-2.183232337715e-06 7.214564488676e-05 0.0 
0.0 0.0 -1.677835640721e-05 
-1.304400768820e-04 -1.226623402604e-06 0.0 
-1.226623402604e-06 8.588836031036e-04 0.0 
0.0 0.0 -1.302718197671e-04 
-1.976961881145e-04 -1.904942962871e-06 0.0 
-1.904942962871e-06 1.329827350337e-03 0.0 
0.0 0.0 -1.970859964037e-04 
-7.778984465367e-06 4.389754775789e-06 0.0 
4.389754775789e-06 4.119927433976e-05 0.0 
0.0 0.0 -8.754673005183e-06 
-1.866018908338e-04 -2.006069315688e-08 0.0 
-2.006069315688e-08 1.262553750678e-03 0.0 
0.0 0.0 -1.880896313740e-04 
-1.123534650814e-04 1.611587689509e-06 0.0 
1.611587689509e-06 7.392560460262e-04 0.0 
0.0 0.0 -1.129840772622e-04 
-1.171047806051e-04 7.449209117803e-07 0.0 
7.449209117803e-07 7.664746806855e-04 0.0 
0.0 0.0 -1.171402528589e-04 
-1.209300272193e-04 3.259751506580e-06 0.0 
3.259751506580e-06 8.015413982557e-04 0.0 
0.0 0.0 -1.217336839916e-04 
-1.273390226549e-04 -1.216641127310e-06 0.0 
-1.216641127310e-06 8.349727543367e-04 0.0 
0.0 0.0 -1.264258636278e-04 
-1.320700965903e-04 1.876866623278e-08 0.0 
1.876866623278e-08 8.692918616205e-04 0.0 
0.0 0.0 -1.317698771115e-04 
-1.368244106801e-04 -1.114619508482e-06 0.0 
-1.114619508482e-06 9.001255364591e-04 0.0 
0.0 0.0 -1.359061374524e-04 
-1.313516644010e-04 -1.071478350727e-06 0.0 
-1.071478350727e-06 8.642075030487e-04 0.0 
0.0 0.0 -1.306688636612e-04 
-1.406252513590e-04 -1.352739222539e-06 0.0 
-1.352739222539e-06 9.300768557182e-04 0.0 
0.0 0.0 -1.401216342492e-04 
-1.355168506451e-04 -8.441429406151e-07 0.0 
-8.441429406151e-07 8.933027720166e-04 0.0 
0.0 0.0 -1.348466119664e-04 
-1.406309551036e-04 -1.423065028085e-06 0.0 
-1.423065028085e-06 9.373189590449e-04 0.0 
0.0 0.0 -1.412262538548e-04 
-1.447717080924e-04 -1.617847745048e-06 0.0 
-1.617847745048e-06 9.594996109507e-04 0.0 
0.0 0.0 -1.443446404888e-04 
-1.395639979808e-04 -9.495865010561e-07 0.0 
-9.495865010561e-07 9.223387170950e-04 0.0 
0.0 0.0 -1.390295894150e-04 
-1.488518955481e-04 -1.324901186338e-06 0.0 
-1.324901186338e-06 9.887094425207e-04 0.0 
0.0 0.0 -1.485505823874e-04 
-1.436922961000e-04 -1.046451979584e-06 0.0 
-1.046451979584e-06 9.515310653716e-04 0.0 
0.0 0.0 -1.432156325536e-04 
-1.343600788387e-04 -5.167793523513e-07 0.0 
-5.167793523513e-07 8.856735470671e-04 0.0 
0.0 0.0 -1.337521069633e-04 
-1.385105152453e-04 -4.710394907330e-07 0.0 
-4.710394907330e-07 9.146329712672e-04 0.0 
0.0 0.0 -1.379179829106e-04 
-1.289648752830e-04 -8.618976580072e-08 0.0 
-8.618976580072e-08 8.489207055611e-04 0.0 
0.0 0.0 -1.284753219673e-04 
-1.331501462654e-04 -2.281806353289e-07 0.0 
-2.281806353289e-07 8.778469958775e-04 0.0 
0.0 0.0 -1.326245976321e-04 
-1.426230691977e-04 -3.445547381830e-07 0.0 
-3.445547381830e-07 9.438219498313e-04 0.0 
0.0 0.0 -1.420797641308e-04 
-1.372349024752e-04 -4.912623478825e-07 0.0 
-4.912623478825e-07 9.068017641173e-04 0.0 
0.0 0.0 -1.367729294110e-04 
-1.278087679959e-04 -1.828532417460e-07 0.0 
-1.828532417460e-07 8.408634527744e-04 0.0 
0.0 0.0 -1.273259478075e-04 
-1.318398283045e-04 -3.075890479269e-07 0.0 
-3.075890479269e-07 8.695930318134e-04 0.0 
0.0 0.0 -1.314613401273e-04 
-1.224174681950e-04 5.152664304924e-08 0.0 
5.152664304924e-08 8.039186497448e-04 0.0 
0.0 0.0 -1.220343484428e-04 
-1.264174440320e-04 -1.610988413995e-07 0.0 
-1.610988413995e-07 8.325618017429e-04 0.0 
0.0 0.0 -1.261611736566e-04 
-1.170510544419e-04 2.223926002157e-08 0.0 
2.223926002157e-08 7.668217430428e-04 0.0 
0.0 0.0 -1.167242641243e-04 
-1.210374224200e-04 -1.474818318747e-07 0.0 
-1.474818318747e-07 7.955505097843e-04 0.0 
0.0 0.0 -1.208544874677e-04 
-1.304043414113e-04 -3.154242512107e-07 0.0 
-3.154242512107e-07 8.613589922912e-04 0.0 
0.0 0.0 -1.303042425932e-04 
-1.250914766715e-04 -9.789090931142e-08 0.0 
-9.789090931142e-08 8.242842117775e-04 0.0 
0.0 0.0 -1.249864172613e-04 
-1.156698454984e-04 4.104440089531e-08 0.0 
4.104440089531e-08 7.584999711117e-04 0.0 
0.0 0.0 -1.155496960434e-04 
-1.197696986214e-04 6.686600869329e-08 0.0 
6.686600869329e-08 7.872430335080e-04 0.0 
0.0 0.0 -1.196691756306e-04 
-1.103345672185e-04 1.936070379504e-07 0.0 
1.936070379504e-07 7.215726378401e-04 0.0 
0.0 0.0 -1.102360968649e-04 
-1.143831646187e-04 2.841694026704e-07 0.0 
2.841694026704e-07 7.499983246613e-04 0.0 
0.0 0.0 -1.143358844566e-04 
-1.238585560106e-04 1.680319022197e-07 0.0 
1.680319022197e-07 8.159376449007e-04 0.0 
0.0 0.0 -1.237972835831e-04 
-1.185140209161e-04 8.396902968236e-08 0.0 
8.396902968236e-08 7.787352394438e-04 0.0 
0.0 0.0 -1.184549252722e-04 
-1.089992092054e-04 6.281890232439e-08 0.0 
6.281890232439e-08 7.122982226840e-04 0.0 
0.0 0.0 -1.089619939006e-04 
-1.132389115670e-04 -1.057915283391e-07 0.0 
-1.057915283391e-07 7.414300503039e-04 0.0 
0.0 0.0 -1.130977248571e-04 
-1.037240861722e-04 -4.723566763671e-07 0.0 
-4.723566763671e-07 6.746986895894e-04 0.0 
0.0 0.0 -1.035578799258e-04 
-1.079391861501e-04 -9.525050173212e-10 0.0 
-9.525050173212e-10 7.042191649168e-04 0.0 
0.0 0.0 -1.077352770641e-04 
-9.832371136087e-05 -3.508088035026e-07 0.0 
-3.508088035026e-07 6.371418654706e-04 0.0 
0.0 0.0 -9.813603890825e-05 
-1.025291601956e-04 7.520025507378e-08 0.0 
7.520025507378e-08 6.664875104737e-04 0.0 
0.0 0.0 -1.023264466889e-04 
-1.121330899491e-04 -3.201268622913e-08 0.0 
-3.201268622913e-08 7.333893815298e-04 0.0 
0.0 0.0 -1.119135318789e-04 
-1.067345759512e-04 -1.457462253014e-07 0.0 
-1.457462253014e-07 6.958135066491e-04 0.0 
0.0 0.0 -1.065124872911e-04 
-9.708388481881e-05 -1.123756317371e-07 0.0 
-1.123756317371e-07 6.287043899204e-04 0.0 
0.0 0.0 -9.687936111797e-05 
-1.012280793484e-04 -2.016817593290e-07 0.0 
-2.016817593290e-07 6.578039102236e-04 0.0 
0.0 0.0 -1.010667964543e-04 
-1.108655634829e-04 -2.805142089434e-07 0.0 
-2.805142089434e-07 7.250705567917e-04 0.0 
0.0 0.0 -1.107220969010e-04 
-1.053738009019e-04 -2.657681640372e-07 0.0 
-2.657681640372e-07 6.869604308345e-04 0.0 
0.0 0.0 -1.052625016289e-04 
-1.150267739913e-04 -3.300558054111e-07 0.0 
-3.300558054111e-07 7.543777337130e-04 0.0 
0.0 0.0 -1.149374102432e-04 
-1.095605670490e-04 -1.992187362341e-07 0.0 
-1.992187362341e-07 7.162738244309e-04 0.0 
0.0 0.0 -1.094674241824e-04 
-9.992608341546e-05 -2.285291460901e-07 0.0 
-2.285291460901e-07 6.491377746979e-04 0.0 
0.0 0.0 -9.983047339662e-05 
-1.041038271013e-04 -4.784792107379e-08 0.0 
-4.784792107379e-08 6.783667909797e-04 0.0 
0.0 0.0 -1.040110107548e-04 
-1.137411101647e-04 -1.005325563354e-07 0.0 
-1.005325563354e-07 7.455825181624e-04 0.0 
0.0 0.0 -1.136680319875e-04 
-1.082869868131e-04 -5.329032704078e-08 0.0 
-5.329032704078e-08 7.073386927023e-04 0.0 
0.0 0.0 -1.081830392180e-04 
-9.869624350956e-05 -1.279251488152e-07 0.0 
-1.279251488152e-07 6.404070926404e-04 0.0 
0.0 0.0 -9.856705257735e-05 
-1.028159541346e-04 2.106799420311e-07 0.0 
2.106799420311e-07 6.694648529012e-04 0.0 
0.0 0.0 -1.027256921484e-04 
-1.124881435347e-04 1.468300417498e-07 0.0 
1.468300417498e-07 7.366254737130e-04 0.0 
0.0 0.0 -1.123746868942e-04 
-1.069630032943e-04 3.797193907441e-07 0.0 
3.797193907441e-07 6.984570345631e-04 0.0 
0.0 0.0 -1.069064678657e-04 
-9.735694714147e-05 3.040392105123e-07 0.0 
3.040392105123e-07 6.314702925721e-04 0.0 
0.0 0.0 -9.729074097479e-05 
-1.014698791265e-04 5.263077294053e-07 0.0 
5.263077294053e-07 6.606218601415e-04 0.0 
0.0 0.0 -1.014450936127e-04 
-1.111588134786e-04 4.465606502622e-07 0.0 
4.465606502622e-07 7.280983055299e-04 0.0 
0.0 0.0 -1.111412434799e-04 
-1.056103560307e-04 3.527345838497e-07 0.0 
3.527345838497e-07 6.896411777924e-04 0.0 
0.0 0.0 -1.056341277852e-04 
-9.592602067126e-05 5.327638544791e-07 0.0 
5.327638544791e-07 6.223325700671e-04 0.0 
0.0 0.0 -9.597584338962e-05 
-1.000042351432e-04 6.050193751295e-07 0.0 
6.050193751295e-07 6.512858928885e-04 0.0 
0.0 0.0 -1.001195007473e-04 
-1.097885953069e-04 3.509867728239e-07 0.0 
3.509867728239e-07 7.191866513993e-04 0.0 
0.0 0.0 -1.098732949993e-04 
-1.041219874635e-04 4.565113330363e-07 0.0 
4.565113330363e-07 6.802416856987e-04 0.0 
0.0 0.0 -1.043104098158e-04 
-1.139943776011e-04 2.608804957770e-07 0.0 
2.608804957770e-07 7.487261930972e-04 0.0 
0.0 0.0 -1.141349681178e-04 
-9.432131286435e-05 6.931090399304e-07 0.0 
6.931090399304e-07 6.120807620329e-04 0.0 
0.0 0.0 -9.453138577379e-05 
-9.843300825502e-05 3.791394769862e-07 0.0 
3.791394769862e-07 6.410640369442e-04 0.0 
0.0 0.0 -9.871483819285e-05 
-8.857532524913e-05 7.670792375352e-07 0.0 
7.670792375352e-07 5.725816228305e-04 0.0 
0.0 0.0 -8.888275660121e-05 
-9.270105845016e-05 2.622529703411e-07 0.0 
2.622529703411e-07 6.018362902946e-04 0.0 
0.0 0.0 -9.310666704106e-05 
-1.280450341640e-04 2.022914446803e-07 0.0 
2.022914446803e-07 8.448927114390e-04 0.0 
0.0 0.0 -1.279397651938e-04 
-8.276712932225e-05 6.443736138370e-07 0.0 
6.443736138370e-07 5.330826812988e-04 0.0 
0.0 0.0 -8.324826898147e-05 
-7.884768894366e-05 1.023704289178e-06 0.0 
1.023704289178e-06 5.047676539199e-04 0.0 
0.0 0.0 -7.914375511354e-05 
-8.697616798037e-05 -7.331328903690e-10 0.0 
-7.331328903690e-10 5.626687258914e-04 0.0 
0.0 0.0 -8.749891481923e-05 
-9.702972984445e-05 -9.951343649239e-08 0.0 
-9.951343649239e-08 6.318920870484e-04 0.0 
0.0 0.0 -9.740424872913e-05 
-7.706547232469e-05 2.380236829533e-07 0.0 
2.380236829533e-07 4.936160224660e-04 0.0 
0.0 0.0 -7.760805980730e-05 
-8.127460870577e-05 -1.704001729843e-07 0.0 
-1.704001729843e-07 5.235024448564e-04 0.0 
0.0 0.0 -8.188641417383e-05 
-7.155045226521e-05 3.113369261568e-07 0.0 
3.113369261568e-07 4.544691373911e-04 0.0 
0.0 0.0 -7.197242596511e-05 
-9.398834813403e-05 -4.649841708636e-07 0.0 
-4.649841708636e-07 6.067163141264e-04 0.0 
0.0 0.0 -9.378238744040e-05 
-1.466888889075e-04 -6.905876409819e-07 0.0 
-6.905876409819e-07 9.729931165237e-04 0.0 
0.0 0.0 -1.462607504514e-04 
-7.572467440231e-05 1.210487184868e-07 0.0 
1.210487184868e-07 4.846162633768e-04 0.0 
0.0 0.0 -7.626743364961e-05 
-6.621416197033e-05 -1.397216265960e-07 0.0 
-1.397216265960e-07 4.154095652474e-04 0.0 
0.0 0.0 -6.634679566782e-05 
-6.190172954625e-05 4.165851450950e-07 0.0 
4.165851450950e-07 3.853087909955e-04 0.0 
0.0 0.0 -6.205237226325e-05 
-5.628575454228e-05 3.940532300386e-08 0.0 
3.940532300386e-08 3.460724695174e-04 0.0 
0.0 0.0 -5.642855255362e-05 
-1.354938510920e-04 -2.913953566673e-06 0.0 
-2.913953566673e-06 9.082152710087e-04 0.0 
0.0 0.0 -1.368953805519e-04 
-1.462552660591e-04 1.249747586103e-07 0.0 
1.249747586103e-07 9.752174249571e-04 0.0 
0.0 0.0 -1.465891790687e-04 
-1.414040401139e-04 -1.271486640511e-06 0.0 
-1.271486640511e-06 9.428451641582e-04 0.0 
0.0 0.0 -1.420291944686e-04 
-1.520026480131e-04 -3.631190555520e-07 0.0 
-3.631190555520e-07 1.012864624851e-03 0.0 
0.0 0.0 -1.519432683735e-04 
-1.472985787471e-04 -1.382728633740e-06 0.0 
-1.382728633740e-06 9.819853291120e-04 0.0 
0.0 0.0 -1.475277143832e-04 
-6.049783873772e-05 -1.110839167728e-06 0.0 
-1.110839167728e-06 3.760535738177e-04 0.0 
0.0 0.0 -6.071687451653e-05 
-1.539446624240e-04 -1.181077219235e-06 0.0 
-1.181077219235e-06 1.026370553893e-03 0.0 
0.0 0.0 -1.540030753513e-04 
-1.562964739112e-04 4.946292658217e-07 0.0 
4.946292658217e-07 1.043020722120e-03 0.0 
0.0 0.0 -1.563396320792e-04 
-1.184118913967e-04 1.857139776563e-07 0.0 
1.857139776563e-07 7.754976810309e-04 0.0 
0.0 0.0 -1.179280690692e-04 
-1.062500152817e-04 1.741187945376e-07 0.0 
1.741187945376e-07 6.928514360504e-04 0.0 
0.0 0.0 -1.061413340584e-04 
-1.205167248159e-04 -5.462407212351e-07 0.0 
-5.462407212351e-07 7.925156879070e-04 0.0 
0.0 0.0 -1.204127835607e-04 
-8.548976471001e-05 -7.615656520967e-07 0.0 
-7.615656520967e-07 5.535587085213e-04 0.0 
0.0 0.0 -8.618857558133e-05 
-7.988885271144e-05 1.897397534693e-07 0.0 
1.897397534693e-07 5.152050676733e-04 0.0 
0.0 0.0 -8.057008281249e-05 
-9.032121231226e-05 -1.684930927318e-06 0.0 
-1.684930927318e-06 5.843848000393e-04 0.0 
0.0 0.0 -9.050178936823e-05 
-1.196337930892e-04 1.102008659663e-07 0.0 
1.102008659663e-07 7.876256328336e-04 0.0 
0.0 0.0 -1.197064290626e-04 
-1.239088484819e-04 1.270562820447e-07 0.0 
1.270562820447e-07 8.174720289214e-04 0.0 
0.0 0.0 -1.239919845821e-04 
-1.295076006245e-04 6.163016450209e-08 0.0 
6.163016450209e-08 8.563536897128e-04 0.0 
0.0 0.0 -1.295728275001e-04 
-1.338245653935e-04 6.187832994800e-08 0.0 
6.187832994800e-08 8.862996102706e-04 0.0 
0.0 0.0 -1.338680086136e-04 
-1.393975761356e-04 4.550308926586e-08 0.0 
4.550308926586e-08 9.252125319019e-04 0.0 
0.0 0.0 -1.394574676997e-04 
-1.437406368722e-04 1.277074154763e-07 0.0 
1.277074154763e-07 9.552601406530e-04 0.0 
0.0 0.0 -1.437562178924e-04 
-1.381365115215e-04 -6.384328167062e-08 0.0 
-6.384328167062e-08 9.162527365186e-04 0.0 
0.0 0.0 -1.381609243235e-04 
-1.481035666194e-04 -1.079358485102e-07 0.0 
-1.079358485102e-07 9.853010756590e-04 0.0 
0.0 0.0 -1.480541560501e-04 
-1.424433669279e-04 -2.461913392848e-07 0.0 
-2.461913392848e-07 9.462005835288e-04 0.0 
0.0 0.0 -1.424551100593e-04 
-1.492800736972e-04 1.903860536894e-07 0.0 
1.903860536894e-07 9.941570401524e-04 0.0 
0.0 0.0 -1.493525342080e-04 
-1.449751840430e-04 -1.306362921350e-07 0.0 
-1.306362921350e-07 9.640748764024e-04 0.0 
0.0 0.0 -1.450229800689e-04 
-1.523999948246e-04 -3.989684281701e-07 0.0 
-3.989684281701e-07 1.015224728092e-03 0.0 
0.0 0.0 -1.523522284989e-04 
-1.467103464147e-04 -2.659540217927e-07 0.0 
-2.659540217927e-07 9.761558421408e-04 0.0 
0.0 0.0 -1.467489045856e-04 
-1.565625592364e-04 -4.158419287493e-07 0.0 
-4.158419287493e-07 1.045129081510e-03 0.0 
0.0 0.0 -1.566543602455e-04 
-1.508966779748e-04 -3.393169835014e-07 0.0 
-3.393169835014e-07 1.005998704446e-03 0.0 
0.0 0.0 -1.510511651883e-04 
-1.410712457468e-04 -1.790301414097e-07 0.0 
-1.790301414097e-07 9.369358529960e-04 0.0 
0.0 0.0 -1.411301529270e-04 
-1.452736367783e-04 -1.279390741405e-07 0.0 
-1.279390741405e-07 9.667244667063e-04 0.0 
0.0 0.0 -1.454254449112e-04 
-1.355658465602e-04 -3.525019047488e-07 0.0 
-3.525019047488e-07 8.980272974833e-04 0.0 
0.0 0.0 -1.355350811980e-04 
-1.247169685603e-04 -5.424891476075e-07 0.0 
-5.424891476075e-07 8.219820472476e-04 0.0 
0.0 0.0 -1.246443719175e-04 
-1.302412994967e-04 -6.709375140069e-07 0.0 
-6.709375140069e-07 8.602885817839e-04 0.0 
0.0 0.0 -1.301366355066e-04 
-1.344319823677e-04 -5.992072868325e-07 0.0 
-5.992072868325e-07 8.897694935505e-04 0.0 
0.0 0.0 -1.343775141111e-04 
-1.400237331498e-04 -7.656893218293e-07 0.0 
-7.656893218293e-07 9.282252120942e-04 0.0 
0.0 0.0 -1.398832378697e-04 
-1.441786028548e-04 -7.248633173168e-07 0.0 
-7.248633173168e-07 9.577423680475e-04 0.0 
0.0 0.0 -1.441376510238e-04 
-1.498975004286e-04 -8.881523903682e-07 0.0 
-8.881523903682e-07 9.963296213112e-04 0.0 
0.0 0.0 -1.496454511588e-04 
-1.540303661717e-04 -7.919312302377e-07 0.0 
-7.919312302377e-07 1.025660690864e-03 0.0 
0.0 0.0 -1.539048756661e-04 
-1.483333586792e-04 -5.305309886561e-07 0.0 
-5.305309886561e-07 9.873032168340e-04 0.0 
0.0 0.0 -1.483914164041e-04 
-1.531422374596e-04 -8.663739869802e-07 0.0 
-8.663739869802e-07 1.017764678093e-03 0.0 
0.0 0.0 -1.527153750466e-04 
-9.159847415972e-05 -1.256689801576e-07 0.0 
-1.256689801576e-07 5.906791861929e-04 0.0 
0.0 0.0 -9.143391812226e-05 
-8.744560526880e-05 -1.314299425381e-07 0.0 
-1.314299425381e-07 5.615762013321e-04 0.0 
0.0 0.0 -8.725348065585e-05 
-8.202336977827e-05 5.298561278523e-08 0.0 
5.298561278523e-08 5.236724682599e-04 0.0 
0.0 0.0 -8.181782897632e-05 
-7.787136643021e-05 -4.089849052195e-08 0.0 
-4.089849052195e-08 4.946511796611e-04 0.0 
0.0 0.0 -7.764583100160e-05 
-7.249839660415e-05 3.138088007649e-07 0.0 
3.138088007649e-07 4.567503960433e-04 0.0 
0.0 0.0 -7.221245969917e-05 
-6.836637044469e-05 1.575150055604e-07 0.0 
1.575150055604e-07 4.279278736544e-04 0.0 
0.0 0.0 -6.805748655366e-05 
-6.305635467696e-05 5.617632190065e-07 0.0 
5.617632190065e-07 3.898265041818e-04 0.0 
0.0 0.0 -6.258396351101e-05 
-6.700103591366e-05 8.220641914788e-07 0.0 
8.220641914788e-07 4.186472656110e-04 0.0 
0.0 0.0 -6.675491739715e-05 
-5.754489831194e-05 1.185749684510e-06 0.0 
1.185749684510e-06 3.514253860379e-04 0.0 
0.0 0.0 -5.707878267586e-05 
-6.126290636031e-05 1.086382821669e-06 0.0 
1.086382821669e-06 3.802508716618e-04 0.0 
0.0 0.0 -6.128043668686e-05 
-5.191997638371e-05 1.314501197429e-06 0.0 
1.314501197429e-06 3.126420855080e-04 0.0 
0.0 0.0 -5.156902369321e-05 
-5.548063518944e-05 1.243851983737e-06 0.0 
1.243851983737e-06 3.415672031581e-04 0.0 
0.0 0.0 -5.575645035334e-05 
-1.344754893882e-04 -2.441387490923e-07 0.0 
-2.441387490923e-07 8.901905827652e-04 0.0 
0.0 0.0 -1.344534760290e-04 
-1.456336275119e-04 -7.568221187934e-07 0.0 
-7.568221187934e-07 9.666800779835e-04 0.0 
0.0 0.0 -1.453735332694e-04 
-1.555049783814e-04 -4.155015620938e-07 0.0 
-4.155015620938e-07 1.035032948266e-03 0.0 
0.0 0.0 -1.551468130506e-04 
-1.509958831296e-04 -4.550450407201e-07 0.0 
-4.550450407201e-07 1.004729653599e-03 0.0 
0.0 0.0 -1.507981208515e-04 
-5.237773532105e-05 7.911299625012e-08 0.0 
7.911299625012e-08 3.162172589784e-04 0.0 
0.0 0.0 -5.213283032136e-05 
-1.549595763032e-04 -3.953475088671e-07 0.0 
-3.953475088671e-07 1.035774981690e-03 0.0 
0.0 0.0 -1.553660438793e-04 
-1.548355158551e-04 -2.147058021659e-07 0.0 
-2.147058021659e-07 1.033072477775e-03 0.0 
0.0 0.0 -1.549384463224e-04 
-1.505618374828e-04 -5.346193515463e-07 0.0 
-5.346193515463e-07 1.002549198399e-03 0.0 
0.0 0.0 -1.505609887339e-04 
-1.581943545466e-04 -1.140192146812e-07 0.0 
-1.140192146812e-07 1.055484497313e-03 0.0 
0.0 0.0 -1.581898251365e-04 
-5.074202381651e-05 -4.469562897144e-07 0.0 
-4.469562897144e-07 3.073591846823e-04 0.0 
0.0 0.0 -5.088881735611e-05 
-5.888894202551e-05 -5.741143861350e-08 0.0 
-5.741143861350e-08 3.614604751917e-04 0.0 
0.0 0.0 -5.849107602244e-05 
-6.412075790079e-05 -1.262278375676e-08 0.0 
-1.262278375676e-08 3.988248925712e-04 0.0 
0.0 0.0 -6.391656864161e-05 
-1.574092422667e-04 -9.339425827556e-07 0.0 
-9.339425827556e-07 1.050297343269e-03 0.0 
0.0 0.0 -1.573311895261e-04 
-1.526877283991e-04 -1.284456620320e-06 0.0 
-1.284456620320e-06 1.019137079127e-03 0.0 
0.0 0.0 -1.529187321887e-04 
-1.603825137223e-04 -5.841749785692e-07 0.0 
-5.841749785692e-07 1.071965760526e-03 0.0 
0.0 0.0 -1.605236522104e-04 
-5.469413786455e-05 -7.281622474744e-07 0.0 
-7.281622474744e-07 3.375315586186e-04 0.0 
0.0 0.0 -5.513621196740e-05 
-1.581536908889e-04 -3.654449846176e-07 0.0 
-3.654449846176e-07 1.054473463793e-03 0.0 
0.0 0.0 -1.579496168166e-04 
-4.796468630861e-05 1.896906112626e-06 0.0 
1.896906112626e-06 2.843046372018e-04 0.0 
0.0 0.0 -4.740762976608e-05 
-1.492957563781e-04 2.220942752480e-07 0.0 
2.220942752480e-07 9.964627124321e-04 0.0 
0.0 0.0 -1.497345920687e-04 
-1.590878470858e-04 -2.496159838047e-07 0.0 
-2.496159838047e-07 1.065574434498e-03 0.0 
0.0 0.0 -1.596751832792e-04 
-1.325072402165e-04 -1.969088110071e-07 0.0 
-1.969088110071e-07 8.772948073459e-04 0.0 
0.0 0.0 -1.325798954328e-04 
-1.608189791387e-04 2.014272611917e-07 0.0 
2.014272611917e-07 1.073406976442e-03 0.0 
0.0 0.0 -1.606363799130e-04 
-1.561309716741e-04 -2.339592577671e-07 0.0 
-2.339592577671e-07 1.041858527671e-03 0.0 
0.0 0.0 -1.562164154417e-04 
-6.542148837339e-05 5.946748364299e-07 0.0 
5.946748364299e-07 4.098578497775e-04 0.0 
0.0 0.0 -6.552037126556e-05 
-6.021736437679e-05 -6.684208511404e-07 0.0 
-6.684208511404e-07 3.714517723808e-04 0.0 
0.0 0.0 -6.000043125475e-05 
-5.068915045621e-05 -1.408380561498e-07 0.0 
-1.408380561498e-07 3.045038040978e-04 0.0 
0.0 0.0 -5.043265711026e-05 
-5.453954142818e-05 2.060651504187e-07 0.0 
2.060651504187e-07 3.366924109337e-04 0.0 
0.0 0.0 -5.469261876575e-05 
-6.451407366441e-05 2.351316534634e-07 0.0 
2.351316534634e-07 4.022325511173e-04 0.0 
0.0 0.0 -6.426716227193e-05 
-5.833627625562e-05 1.475332914289e-06 0.0 
1.475332914289e-06 3.627446873596e-04 0.0 
0.0 0.0 -5.871258337438e-05 
-4.807156131251e-05 2.860984901678e-06 0.0 
2.860984901678e-06 2.943856579529e-04 0.0 
0.0 0.0 -4.913324142619e-05 
-5.254361987426e-05 1.123300701462e-06 0.0 
1.123300701462e-06 3.235079135303e-04 0.0 
0.0 0.0 -5.312780584397e-05 
-6.250659233249e-05 1.032214388617e-06 0.0 
1.032214388617e-06 3.916354902735e-04 0.0 
0.0 0.0 -6.289080004402e-05 
-5.683371271564e-05 6.514617663209e-07 0.0 
6.514617663209e-07 3.524304224725e-04 0.0 
0.0 0.0 -5.728364188530e-05 
-4.626688611708e-05 9.433782266079e-08 0.0 
9.433782266079e-08 2.835389789337e-04 0.0 
0.0 0.0 -4.745589417336e-05 
-5.129426302525e-05 -1.503356296708e-07 0.0 
-1.503356296708e-07 3.125902668457e-04 0.0 
0.0 0.0 -5.163203607156e-05 
-1.648607225605e-04 -6.089305084908e-07 0.0 
-6.089305084908e-07 1.104792906558e-03 0.0 
0.0 0.0 -1.652812738464e-04 
-4.167405797836e-05 8.410179837610e-07 0.0 
8.410179837610e-07 2.451219688669e-04 0.0 
0.0 0.0 -4.186284350154e-05 
-1.249684890118e-04 -2.205649056543e-07 0.0 
-2.205649056543e-07 8.202073805391e-04 0.0 
0.0 0.0 -1.243305906297e-04 
-1.646630308387e-04 -1.022913161016e-08 0.0 
-1.022913161016e-08 1.101899429601e-03 0.0 
0.0 0.0 -1.648518411109e-04 
-1.639675080930e-04 -1.299974009232e-07 0.0 
-1.299974009232e-07 1.093025674446e-03 0.0 
0.0 0.0 -1.635990625314e-04 
-1.626548351363e-04 -9.421237167934e-07 0.0 
-9.421237167934e-07 1.087804894673e-03 0.0 
0.0 0.0 -1.627548864773e-04 
-1.581986558715e-04 -9.653447949460e-07 0.0 
-9.653447949460e-07 1.056782727253e-03 0.0 
0.0 0.0 -1.583405447554e-04 
-1.481377693349e-04 -2.120708352150e-07 0.0 
-2.120708352150e-07 9.876266265678e-04 0.0 
0.0 0.0 -1.484606848305e-04 
-1.540154319252e-04 -3.355995825504e-07 0.0 
-3.355995825504e-07 1.026130043866e-03 0.0 
0.0 0.0 -1.539002516356e-04 
-1.639459642661e-04 -1.118185498440e-06 0.0 
-1.118185498440e-06 1.095163385158e-03 0.0 
0.0 0.0 -1.637913674505e-04 
-1.597127986535e-04 -5.251908400988e-07 0.0 
-5.251908400988e-07 1.064343135399e-03 0.0 
0.0 0.0 -1.593514347843e-04 
-1.498284746973e-04 -2.503307102558e-07 0.0 
-2.503307102558e-07 9.952508194671e-04 0.0 
0.0 0.0 -1.494394109873e-04 
-1.551654717719e-04 -2.221504212274e-07 0.0 
-2.221504212274e-07 1.032948984562e-03 0.0 
0.0 0.0 -1.548970433853e-04 
-1.450485534152e-04 -2.383136960809e-07 0.0 
-2.383136960809e-07 9.636019756158e-04 0.0 
0.0 0.0 -1.449683599891e-04 
-1.505550421048e-04 1.094892235922e-07 0.0 
1.094892235922e-07 1.001407844642e-03 0.0 
0.0 0.0 -1.504333548381e-04 
-1.604309941691e-04 -2.109459501863e-07 0.0 
-2.109459501863e-07 1.070618892500e-03 0.0 
0.0 0.0 -1.603701620288e-04 
-1.560376916017e-04 -3.456752304365e-07 0.0 
-3.456752304365e-07 1.039490983705e-03 0.0 
0.0 0.0 -1.559081117414e-04 
-1.463603444154e-04 5.238436514868e-07 0.0 
5.238436514868e-07 9.703937077682e-04 0.0 
0.0 0.0 -1.459586303199e-04 
-1.516966554836e-04 -5.880015514228e-07 0.0 
-5.880015514228e-07 1.008208762980e-03 0.0 
0.0 0.0 -1.514361790689e-04 
-1.421096498293e-04 1.604631745138e-07 0.0 
1.604631745138e-07 9.389173202103e-04 0.0 
0.0 0.0 -1.414740555389e-04 
-1.468086585315e-04 -1.361458900587e-06 0.0 
-1.361458900587e-06 9.758542090481e-04 0.0 
0.0 0.0 -1.469409179663e-04 
-1.568420766373e-04 -2.584461478696e-07 0.0 
-2.584461478696e-07 1.046197364230e-03 0.0 
0.0 0.0 -1.569152749070e-04 
-4.415663167365e-05 -1.039285152091e-07 0.0 
-1.039285152091e-07 2.708684229223e-04 0.0 
0.0 0.0 -4.553936700826e-05 
-1.526637656570e-04 1.250996266670e-07 0.0 
1.250996266670e-07 1.017041372094e-03 0.0 
0.0 0.0 -1.526598922342e-04 
-1.628543927015e-04 1.351270598111e-06 0.0 
1.351270598111e-06 1.085793726948e-03 0.0 
0.0 0.0 -1.625747755015e-04 
-8.563655870662e-05 -3.488146837263e-06 0.0 
-3.488146837263e-06 5.496252535939e-04 0.0 
0.0 0.0 -8.506982008416e-05 
-9.486581924080e-05 -3.814151178450e-06 0.0 
-3.814151178450e-06 6.119359456549e-04 0.0 
0.0 0.0 -9.488074031859e-05 
-1.005495603609e-04 3.086228134671e-07 0.0 
3.086228134671e-07 6.529918919365e-04 0.0 
0.0 0.0 -1.004348942539e-04 
-1.044776236545e-04 -3.577979789199e-07 0.0 
-3.577979789199e-07 6.841250152862e-04 0.0 
0.0 0.0 -1.048029480622e-04 
-1.519826796643e-04 -1.039717232479e-06 0.0 
-1.039717232479e-06 1.014113556129e-03 0.0 
0.0 0.0 -1.523216651845e-04 
-1.628631714461e-04 6.789175869978e-07 0.0 
6.789175869978e-07 1.084318911977e-03 0.0 
0.0 0.0 -1.624109035739e-04 
-5.449179525623e-05 -7.987416053235e-08 0.0 
-7.987416053235e-08 3.327114773236e-04 0.0 
0.0 0.0 -5.446356520677e-05 
-5.983794664642e-05 5.165551288589e-07 0.0 
5.165551288589e-07 3.698050392348e-04 0.0 
0.0 0.0 -5.981452797925e-05 
-1.671906361362e-04 -6.280906550940e-07 0.0 
-6.280906550940e-07 1.118589944564e-03 0.0 
0.0 0.0 -1.671574094483e-04 
-1.535741135101e-04 4.867165336139e-08 0.0 
4.867165336139e-08 1.026955907390e-03 0.0 
0.0 0.0 -1.540568046000e-04 
-1.438756782793e-04 7.792960236787e-07 0.0 
7.792960236787e-07 9.575022276215e-04 0.0 
0.0 0.0 -1.441490849774e-04 
-1.009130978815e-04 2.058688768752e-07 0.0 
2.058688768752e-07 6.559900048877e-04 0.0 
0.0 0.0 -1.008290295839e-04 
-9.685773395831e-05 4.264808855012e-07 0.0 
4.264808855012e-07 6.270397862493e-04 0.0 
0.0 0.0 -9.674459360631e-05 
-9.135164612507e-05 -1.903780837400e-07 0.0 
-1.903780837400e-07 5.899287429268e-04 0.0 
0.0 0.0 -9.139696625653e-05 
-8.725354889556e-05 6.962837147413e-07 0.0 
6.962837147413e-07 5.598510728809e-04 0.0 
0.0 0.0 -8.718447207042e-05 
-9.300425525152e-05 1.437996831778e-06 0.0 
1.437996831778e-06 5.988622257639e-04 0.0 
0.0 0.0 -9.260497328457e-05 
-8.151290837503e-05 -1.410580149274e-06 0.0 
-1.410580149274e-06 5.218003047074e-04 0.0 
0.0 0.0 -8.172223224803e-05 
-1.406089208823e-04 -2.402054608789e-07 0.0 
-2.402054608789e-07 9.332894798307e-04 0.0 
0.0 0.0 -1.405957691658e-04 
-1.658683700673e-04 -7.646942833601e-07 0.0 
-7.646942833601e-07 1.108741460833e-03 0.0 
0.0 0.0 -1.658562309426e-04 
-5.781518420954e-05 1.266454175936e-06 0.0 
1.266454175936e-06 3.557470476378e-04 0.0 
0.0 0.0 -5.779306812919e-05 
-4.802865254420e-05 7.137000022052e-07 0.0 
7.137000022052e-07 2.866754704248e-04 0.0 
0.0 0.0 -4.790438838533e-05 
-1.638603738935e-04 -1.751728736807e-07 0.0 
-1.751728736807e-07 1.096449059773e-03 0.0 
0.0 0.0 -1.639950272516e-04 
-1.428406885554e-04 -4.063061608458e-08 0.0 
-4.063061608458e-08 9.487085255522e-04 0.0 
0.0 0.0 -1.428423306355e-04 
-1.397754667912e-04 -5.337001690440e-07 0.0 
-5.337001690440e-07 9.273626177410e-04 0.0 
0.0 0.0 -1.397960314865e-04 
-1.438858799674e-04 -3.687014672478e-07 0.0 
-3.687014672478e-07 9.563861152014e-04 0.0 
0.0 0.0 -1.439752108775e-04 
-1.492610894434e-04 -6.859194927328e-07 0.0 
-6.859194927328e-07 9.938921068845e-04 0.0 
0.0 0.0 -1.493569516990e-04 
-1.533583656652e-04 -2.578988813191e-07 0.0 
-2.578988813191e-07 1.023001986965e-03 0.0 
0.0 0.0 -1.535627705943e-04 
-1.589055659580e-04 -8.108043834340e-07 0.0 
-8.108043834340e-07 1.060829964530e-03 0.0 
0.0 0.0 -1.589810023698e-04 
-1.631518145122e-04 -4.384743000291e-07 0.0 
-4.384743000291e-07 1.089769235200e-03 0.0 
0.0 0.0 -1.631781870057e-04 
-1.576954622164e-04 7.757103855117e-08 0.0 
7.757103855117e-08 1.052834468886e-03 0.0 
0.0 0.0 -1.577686755743e-04 
-1.655653749574e-04 1.153777774229e-06 0.0 
1.153777774229e-06 1.110734179248e-03 0.0 
0.0 0.0 -1.661194977352e-04 
-1.676568937117e-04 -5.380450323560e-07 0.0 
-5.380450323560e-07 1.120118409862e-03 0.0 
0.0 0.0 -1.673875415144e-04 
-1.408452494755e-04 1.226026312677e-06 0.0 
1.226026312677e-06 9.416014478326e-04 0.0 
0.0 0.0 -1.423072560050e-04 
-1.411610954119e-04 -1.667686956676e-07 0.0 
-1.667686956676e-07 9.361864568386e-04 0.0 
0.0 0.0 -1.409767306836e-04 
-6.685806001299e-05 8.336719987082e-07 0.0 
8.336719987082e-07 4.210903405702e-04 0.0 
0.0 0.0 -6.711978442003e-05 
-4.180859338127e-05 -2.391316367319e-06 0.0 
-2.391316367319e-06 2.386470707080e-04 0.0 
0.0 0.0 -4.128748474099e-05 
-4.202443748219e-05 2.082260459361e-08 0.0 
2.082260459361e-08 2.421619926750e-04 0.0 
0.0 0.0 -4.155413421678e-05 
-4.885629556399e-05 9.695166710735e-07 0.0 
9.695166710735e-07 2.973049205982e-04 0.0 
0.0 0.0 -4.949622909127e-05 
-5.886475257555e-05 5.012940386976e-07 0.0 
5.012940386976e-07 3.671165151901e-04 0.0 
0.0 0.0 -5.942331684616e-05 
-1.701524326179e-04 -2.478949267953e-07 0.0 
-2.478949267953e-07 1.141091287684e-03 0.0 
0.0 0.0 -1.704540905158e-04 
-1.688701131472e-04 -7.880779693720e-07 0.0 
-7.880779693720e-07 1.128148657559e-03 0.0 
0.0 0.0 -1.686097943865e-04 
-1.645187862567e-04 -7.830603816414e-07 0.0 
-7.830603816414e-07 1.098043410909e-03 0.0 
0.0 0.0 -1.643423135982e-04 
-8.335621055865e-05 3.090761482562e-06 0.0 
3.090761482562e-06 5.330757850641e-04 0.0 
0.0 0.0 -8.309698707208e-05 
-8.907622380058e-05 9.098765487223e-07 0.0 
9.098765487223e-07 5.710176681635e-04 0.0 
0.0 0.0 -8.857956952730e-05 
-1.698091735536e-04 4.492498910094e-07 0.0 
4.492498910094e-07 1.141399927452e-03 0.0 
0.0 0.0 -1.704417977873e-04 
-1.357890576857e-04 -2.245189513230e-07 0.0 
-2.245189513230e-07 9.134142540395e-04 0.0 
0.0 0.0 -1.376677267776e-04 
-1.395432965358e-04 -1.715851711575e-07 0.0 
-1.715851711575e-07 9.262509041073e-04 0.0 
0.0 0.0 -1.395319589165e-04 
-1.347947841220e-04 2.713370184277e-07 0.0 
2.713370184277e-07 8.938256624501e-04 0.0 
0.0 0.0 -1.350285088515e-04 
-3.672231146069e-05 -2.132510581459e-06 0.0 
-2.132510581459e-06 2.203530386721e-04 0.0 
0.0 0.0 -3.892831888128e-05 
-3.637712963261e-05 7.197511136289e-07 0.0 
7.197511136289e-07 2.141167117019e-04 0.0 
0.0 0.0 -3.788396651026e-05 
-1.694800178962e-04 -9.883703524795e-07 0.0 
-9.883703524795e-07 1.133513736801e-03 0.0 
0.0 0.0 -1.692545752333e-04 
-6.937545800042e-05 3.228980611412e-07 0.0 
3.228980611412e-07 4.358386743780e-04 0.0 
0.0 0.0 -6.923809046111e-05 
-6.522800914265e-05 4.802178938972e-07 0.0 
4.802178938972e-07 4.068593445534e-04 0.0 
0.0 0.0 -6.513959669466e-05 
-3.835293382449e-05 1.419780011636e-06 0.0 
1.419780011636e-06 2.169955699432e-04 0.0 
0.0 0.0 -3.762272808090e-05 
-3.184713987987e-05 3.230456577081e-07 0.0 
3.230456577081e-07 1.763378694127e-04 0.0 
0.0 0.0 -3.215802126946e-05 
-1.564097184147e-04 2.852905095697e-06 0.0 
2.852905095697e-06 1.049316422252e-03 0.0 
0.0 0.0 -1.577722324506e-04 
-1.666476506988e-04 2.040589658683e-06 0.0 
2.040589658683e-06 1.120282174027e-03 0.0 
0.0 0.0 -1.676789152757e-04 
-1.096907460405e-04 -3.286013999443e-07 0.0 
-3.286013999443e-07 7.221561234987e-04 0.0 
0.0 0.0 -1.103539394458e-04 
-1.146883842954e-04 -1.653249674978e-06 0.0 
-1.653249674978e-06 7.528293944776e-04 0.0 
0.0 0.0 -1.147244957885e-04 
-1.658368221067e-04 -7.296927506318e-07 0.0 
-7.296927506318e-07 1.111095675298e-03 0.0 
0.0 0.0 -1.661337593878e-04 
-4.600380394054e-05 -1.491158073069e-07 0.0 
-1.491158073069e-07 2.738216254214e-04 0.0 
0.0 0.0 -4.591192000902e-05 
-1.719378156417e-04 1.421041712674e-07 0.0 
1.421041712674e-07 1.154049105325e-03 0.0 
0.0 0.0 -1.723772497485e-04 
-1.472965570201e-04 4.727447796769e-07 0.0 
4.727447796769e-07 9.788476002172e-04 0.0 
0.0 0.0 -1.471186205066e-04 
-1.373907042142e-04 1.793164290013e-07 0.0 
1.793164290013e-07 9.102123959892e-04 0.0 
0.0 0.0 -1.372860605493e-04 
-9.767120859221e-05 2.136804418641e-06 0.0 
2.136804418641e-06 6.441362083975e-04 0.0 
0.0 0.0 -9.906935000530e-05 
-5.062215510686e-05 1.026665089058e-06 0.0 
1.026665089058e-06 3.047645721911e-04 0.0 
0.0 0.0 -5.049648738178e-05 
-4.540502709285e-05 6.832131871421e-07 0.0 
6.832131871421e-07 2.672371430162e-04 0.0 
0.0 0.0 -4.513648964862e-05 
-7.256428344436e-05 1.111321589037e-06 0.0 
1.111321589037e-06 4.598861736081e-04 0.0 
0.0 0.0 -7.268378841861e-05 
-5.559787971176e-05 4.468565818418e-07 0.0 
4.468565818418e-07 3.424877842220e-04 0.0 
0.0 0.0 -5.585123947100e-05 
-5.303663475667e-05 2.464193940360e-07 0.0 
2.464193940360e-07 3.275568518533e-04 0.0 
0.0 0.0 -5.375179489994e-05 
-1.757934592010e-04 1.094510029965e-06 0.0 
1.094510029965e-06 1.179890690537e-03 0.0 
0.0 0.0 -1.760744972657e-04 
-1.733244805152e-04 -1.137885131472e-06 0.0 
-1.137885131472e-06 1.163616194136e-03 0.0 
0.0 0.0 -1.736362873376e-04 
-1.621997224677e-04 -1.527288975186e-06 0.0 
-1.527288975186e-06 1.082969057806e-03 0.0 
0.0 0.0 -1.620259229750e-04 
-1.525464893974e-04 4.621401952443e-09 0.0 
4.621401952443e-09 1.015177504387e-03 0.0 
0.0 0.0 -1.523516756879e-04 
-1.708917266004e-04 -1.191002855825e-06 0.0 
-1.191002855825e-06 1.149869569914e-03 0.0 
0.0 0.0 -1.717432538670e-04 
-3.490930834727e-05 -8.429582514125e-07 0.0 
-8.429582514125e-07 2.054757264963e-04 0.0 
0.0 0.0 -3.598778460012e-05 
-1.750597953055e-04 -3.250942675730e-07 0.0 
-3.250942675730e-07 1.172414927759e-03 0.0 
0.0 0.0 -1.748691643181e-04 
-1.586399412700e-04 -2.193877546445e-07 0.0 
-2.193877546445e-07 1.058088814965e-03 0.0 
0.0 0.0 -1.584205238596e-04 
-1.750232827386e-04 1.287113450679e-06 0.0 
1.287113450679e-06 1.163117526416e-03 0.0 
0.0 0.0 -1.736397701047e-04 
-1.700112759458e-04 -1.265368885600e-07 0.0 
-1.265368885600e-07 1.135355063019e-03 0.0 
0.0 0.0 -1.696829740659e-04 
-7.476684779119e-05 6.450836384552e-07 0.0 
6.450836384552e-07 4.725536723755e-04 0.0 
0.0 0.0 -7.452749745521e-05 
-7.091016921093e-05 -6.094699303140e-07 0.0 
-6.094699303140e-07 4.445526167574e-04 0.0 
0.0 0.0 -7.058709718060e-05 
-6.137074756451e-05 4.293104842186e-07 0.0 
4.293104842186e-07 3.794045980526e-04 0.0 
0.0 0.0 -6.117385547845e-05 
-6.706588179639e-05 1.609427156406e-06 0.0 
1.609427156406e-06 4.182950742711e-04 0.0 
0.0 0.0 -6.657037245228e-05 
-1.266094766854e-04 -6.739720647022e-07 0.0 
-6.739720647022e-07 8.277553541706e-04 0.0 
0.0 0.0 -1.254250592285e-04 
-8.035638793885e-05 -1.393926461579e-07 0.0 
-1.393926461579e-07 5.104400494154e-04 0.0 
0.0 0.0 -8.000873303496e-05 
-1.195834177750e-04 -1.404073059007e-07 0.0 
-1.404073059007e-07 7.834003609027e-04 0.0 
0.0 0.0 -1.190894946197e-04 
-1.155376331103e-04 -2.307315433278e-07 0.0 
-2.307315433278e-07 7.547800193782e-04 0.0 
0.0 0.0 -1.149779503611e-04 
-1.103258532928e-04 1.102189864938e-07 0.0 
1.102189864938e-07 7.186555490901e-04 0.0 
0.0 0.0 -1.097928741388e-04 
-9.842809374509e-05 1.902629040633e-07 0.0 
1.902629040633e-07 6.359410459750e-04 0.0 
0.0 0.0 -9.791810678625e-05 
-9.437419777145e-05 -2.159475299136e-07 0.0 
-2.159475299136e-07 6.080813734442e-04 0.0 
0.0 0.0 -9.392806562918e-05 
-8.322610419495e-05 -1.701840068508e-07 0.0 
-1.701840068508e-07 5.319942046353e-04 0.0 
0.0 0.0 -8.302446698330e-05 
-1.259991147617e-04 -5.365801846221e-07 0.0 
-5.365801846221e-07 8.306372732465e-04 0.0 
0.0 0.0 -1.258546578921e-04 
-1.058761433090e-04 7.571849957900e-08 0.0 
7.571849957900e-08 6.921175985289e-04 0.0 
0.0 0.0 -1.060443156317e-04 
-1.312139144854e-04 -3.837092576883e-07 0.0 
-3.837092576883e-07 8.682026054100e-04 0.0 
0.0 0.0 -1.312656420104e-04 
-1.251895528939e-04 1.195207152196e-07 0.0 
1.195207152196e-07 8.263310173887e-04 0.0 
0.0 0.0 -1.252521985300e-04 
-1.703049238627e-04 -5.676244569171e-07 0.0 
-5.676244569171e-07 1.139278121345e-03 0.0 
0.0 0.0 -1.702664597809e-04 
-1.760146123077e-04 -1.359452968979e-06 0.0 
-1.359452968979e-06 1.178275809354e-03 0.0 
0.0 0.0 -1.757907768048e-04 
-1.365524219146e-04 1.370157856815e-06 0.0 
1.370157856815e-06 9.012669428523e-04 0.0 
0.0 0.0 -1.359860927471e-04 
-1.307920283978e-04 1.357393189447e-07 0.0 
1.357393189447e-07 8.686300506088e-04 0.0 
0.0 0.0 -1.314620690688e-04 
-4.233213601894e-05 -2.593523707964e-07 0.0 
-2.593523707964e-07 2.470565775743e-04 0.0 
0.0 0.0 -4.219739737344e-05 
-3.886008786518e-05 1.163800211807e-06 0.0 
1.163800211807e-06 2.179605684997e-04 0.0 
0.0 0.0 -3.798854165781e-05 
-1.182815464932e-04 7.930796381185e-08 0.0 
7.930796381185e-08 7.785584436133e-04 0.0 
0.0 0.0 -1.184174655913e-04 
-1.693736305393e-04 6.591876404939e-07 0.0 
6.591876404939e-07 1.131789490517e-03 0.0 
0.0 0.0 -1.691294037713e-04 
-1.725748694788e-04 -2.401644388825e-08 0.0 
-2.401644388825e-08 1.155505334098e-03 0.0 
0.0 0.0 -1.725143790870e-04 
-1.770772882819e-04 -4.241524903003e-07 0.0 
-4.241524903003e-07 1.186342832568e-03 0.0 
0.0 0.0 -1.769059244357e-04 
-1.714408370001e-04 -4.978042219239e-07 0.0 
-4.978042219239e-07 1.148550534216e-03 0.0 
0.0 0.0 -1.715053987883e-04 
-1.710166963781e-04 1.347194091456e-07 0.0 
1.347194091456e-07 1.148948053295e-03 0.0 
0.0 0.0 -1.716410088010e-04 
-8.613875064520e-05 1.983705843863e-08 0.0 
1.983705843863e-08 5.527937603815e-04 0.0 
0.0 0.0 -8.600610143220e-05 
-1.288985122743e-04 -4.311114656056e-07 0.0 
-4.311114656056e-07 8.513543686181e-04 0.0 
0.0 0.0 -1.288645011303e-04 
-3.653516155706e-05 -1.602670112053e-06 0.0 
-1.602670112053e-06 2.073406842075e-04 0.0 
0.0 0.0 -3.634822514125e-05 
-1.333225735758e-04 1.155434495761e-07 0.0 
1.155434495761e-07 8.819083259488e-04 0.0 
0.0 0.0 -1.332694147460e-04 
-3.243355553450e-05 -5.508408617257e-07 0.0 
-5.508408617257e-07 1.777229056962e-04 0.0 
0.0 0.0 -3.243805315734e-05 
-1.521318087540e-04 -2.136602868637e-07 0.0 
-2.136602868637e-07 1.009920947414e-03 0.0 
0.0 0.0 -1.515479370354e-04 
-1.681720023865e-04 8.090304823286e-08 0.0 
8.090304823286e-08 1.126882532784e-03 0.0 
0.0 0.0 -1.684223758654e-04 
-1.735596513314e-04 4.917479192774e-09 0.0 
4.917479192774e-09 1.165356413454e-03 0.0 
0.0 0.0 -1.738820625913e-04 
-1.749637471521e-04 2.720388968622e-07 0.0 
2.720388968622e-07 1.178416888185e-03 0.0 
0.0 0.0 -1.757938962529e-04 
-1.125612094541e-04 1.713025509613e-06 0.0 
1.713025509613e-06 7.350876687057e-04 0.0 
0.0 0.0 -1.120642929630e-04 
-1.375852130868e-04 4.206176119327e-07 0.0 
4.206176119327e-07 9.112604874474e-04 0.0 
0.0 0.0 -1.374408399149e-04 
-1.323430315928e-04 2.679124462261e-07 0.0 
2.679124462261e-07 8.742078643875e-04 0.0 
0.0 0.0 -1.321308925596e-04 
-1.061253817389e-04 5.601605163014e-07 0.0 
5.601605163014e-07 6.904423550458e-04 0.0 
0.0 0.0 -1.057303730324e-04 
-1.010535408523e-04 5.872506187829e-07 0.0 
5.872506187829e-07 6.547439695766e-04 0.0 
0.0 0.0 -1.006129583810e-04 
-1.050589004756e-04 5.249789125330e-07 0.0 
5.249789125330e-07 6.823405630018e-04 0.0 
0.0 0.0 -1.045943784994e-04 
-9.594121695788e-05 5.701784485002e-07 0.0 
5.701784485002e-07 6.189426135763e-04 0.0 
0.0 0.0 -9.539409567622e-05 
-7.670722250222e-05 7.477520012380e-07 0.0 
7.477520012380e-07 4.887760317978e-04 0.0 
0.0 0.0 -7.683892420519e-05 
-7.103860008569e-05 4.652611723913e-07 0.0 
4.652611723913e-07 4.497405032502e-04 0.0 
0.0 0.0 -7.125283206988e-05 
-1.794791303054e-04 3.046290545188e-07 0.0 
3.046290545188e-07 1.202568044115e-03 0.0 
0.0 0.0 -1.788063205342e-04 
-1.769207863009e-04 3.279526117004e-06 0.0 
3.279526117004e-06 1.187698538996e-03 0.0 
0.0 0.0 -1.767990258301e-04 
-1.796288049769e-04 -8.041882013157e-07 0.0 
-8.041882013157e-07 1.202665816041e-03 0.0 
0.0 0.0 -1.789543763817e-04 
-1.735511399808e-04 -6.381743090054e-08 0.0 
-6.381743090054e-08 1.174777860682e-03 0.0 
0.0 0.0 -1.752247752347e-04 
-1.776329748734e-04 -4.492702858953e-07 0.0 
-4.492702858953e-07 1.208120942378e-03 0.0 
0.0 0.0 -1.801365737201e-04 
-1.734650378150e-04 -1.715499755080e-07 0.0 
-1.715499755080e-07 1.171053020005e-03 0.0 
0.0 0.0 -1.746253154232e-04 
-6.397194449559e-05 -8.644213742386e-07 0.0 
-8.644213742386e-07 3.958263205946e-04 0.0 
0.0 0.0 -6.341026310084e-05 
-8.522640710731e-05 3.477888862429e-07 0.0 
3.477888862429e-07 5.439871764934e-04 0.0 
0.0 0.0 -8.469390476807e-05 
-1.776955029070e-04 -1.524143709276e-06 0.0 
-1.524143709276e-06 1.201358150170e-03 0.0 
0.0 0.0 -1.791227834549e-04 
-1.112229346520e-04 4.789206220837e-07 0.0 
4.789206220837e-07 7.257595216689e-04 0.0 
0.0 0.0 -1.108630369651e-04 
-1.797556034384e-04 -6.312345564762e-07 0.0 
-6.312345564762e-07 1.200035518570e-03 0.0 
0.0 0.0 -1.789253132142e-04 
-1.736948380453e-04 5.431781983200e-07 0.0 
5.431781983200e-07 1.162780945010e-03 0.0 
0.0 0.0 -1.734070790826e-04 
-2.519516585345e-05 -9.707201663460e-07 0.0 
-9.707201663460e-07 1.373677520700e-04 0.0 
0.0 0.0 -2.664754339747e-05 
-3.015018737399e-05 -3.279297815400e-06 0.0 
-3.279297815400e-06 1.664829630556e-04 0.0 
0.0 0.0 -3.052430242461e-05 
-1.769892636273e-04 2.634610193557e-07 0.0 
2.634610193557e-07 1.192719086742e-03 0.0 
0.0 0.0 -1.776883310004e-04 
-5.758327952376e-05 -3.462473019848e-08 0.0 
-3.462473019848e-08 3.517263668732e-04 0.0 
0.0 0.0 -5.717887963261e-05 
-6.329339839047e-05 1.198404527510e-06 0.0 
1.198404527510e-06 3.880051844578e-04 0.0 
0.0 0.0 -6.238035407746e-05 
-5.212222281800e-05 -2.848057552128e-07 0.0 
-2.848057552128e-07 3.138366464287e-04 0.0 
0.0 0.0 -5.189549137910e-05 
-1.887618442224e-04 7.084845367266e-07 0.0 
7.084845367266e-07 1.267778144178e-03 0.0 
0.0 0.0 -1.887465440047e-04 
-1.122732225603e-04 -4.441296090606e-07 0.0 
-4.441296090606e-07 7.339799403067e-04 0.0 
0.0 0.0 -1.121888505450e-04 
-1.770685012225e-04 3.305358162577e-07 0.0 
3.305358162577e-07 1.195492347302e-03 0.0 
0.0 0.0 -1.784128478473e-04 
-1.037318983505e-04 3.959585097170e-08 0.0 
3.959585097170e-08 6.732989381237e-04 0.0 
0.0 0.0 -1.032702350429e-04 
-1.811215610528e-04 5.481099123404e-07 0.0 
5.481099123404e-07 1.225364590535e-03 0.0 
0.0 0.0 -1.824766045798e-04 
-1.418983722809e-04 3.275014927134e-07 0.0 
3.275014927134e-07 9.414952171589e-04 0.0 
0.0 0.0 -1.417367461992e-04 
-9.531983498029e-05 1.199130758146e-06 0.0 
1.199130758146e-06 6.176848429937e-04 0.0 
0.0 0.0 -9.530949026541e-05 
-1.618025468886e-04 -1.313138482705e-06 0.0 
-1.313138482705e-06 1.080414047570e-03 0.0 
0.0 0.0 -1.617266240239e-04 
-1.712367337160e-04 -2.517022686550e-06 0.0 
-2.517022686550e-06 1.155497819449e-03 0.0 
0.0 0.0 -1.723711093632e-04 
-1.839585546077e-04 1.922702604488e-06 0.0 
1.922702604488e-06 1.233266053318e-03 0.0 
0.0 0.0 -1.832438941626e-04 
-1.282285700338e-04 1.437764343269e-06 0.0 
1.437764343269e-06 8.565496247714e-04 0.0 
0.0 0.0 -1.295806172002e-04 
-1.247283955189e-04 -2.695014414448e-06 0.0 
-2.695014414448e-06 8.206621223611e-04 0.0 
0.0 0.0 -1.249156399969e-04 
-1.336973054243e-04 4.780502432984e-07 0.0 
4.780502432984e-07 8.862457055751e-04 0.0 
0.0 0.0 -1.338771030064e-04 
-4.352546499244e-05 4.436478363748e-07 0.0 
4.436478363748e-07 2.551361667223e-04 0.0 
0.0 0.0 -4.330579966881e-05 
-3.389814883689e-05 -2.442715112613e-07 0.0 
-2.442715112613e-07 1.810863350630e-04 0.0 
0.0 0.0 -3.279405811742e-05 
-1.716063829927e-04 -5.958765859028e-07 0.0 
-5.958765859028e-07 1.146696562296e-03 0.0 
0.0 0.0 -1.713135399111e-04 
-7.523536838437e-05 -6.007458973842e-07 0.0 
-6.007458973842e-07 4.758491836951e-04 0.0 
0.0 0.0 -7.509208182934e-05 
-8.235594042686e-05 2.209891807401e-06 0.0 
2.209891807401e-06 5.147698268391e-04 0.0 
0.0 0.0 -8.038827667338e-05 
-5.001146581911e-05 6.274014862642e-08 0.0 
6.274014862642e-08 3.012652504281e-04 0.0 
0.0 0.0 -4.993066604202e-05 
-5.951991557963e-05 4.745024153846e-07 0.0 
4.745024153846e-07 3.695589487495e-04 0.0 
0.0 0.0 -5.978314405524e-05 
-1.155737714789e-04 -3.760380621998e-07 0.0 
-3.760380621998e-07 7.609985150200e-04 0.0 
0.0 0.0 -1.159213944990e-04 
-1.114463395749e-04 -2.406998584791e-07 0.0 
-2.406998584791e-07 7.310738123434e-04 0.0 
0.0 0.0 -1.116262644424e-04 
-1.561658126362e-04 -5.299206413351e-07 0.0 
-5.299206413351e-07 1.039568765867e-03 0.0 
0.0 0.0 -1.558038104416e-04 
-1.616536575182e-04 8.873878670240e-08 0.0 
8.873878670240e-08 1.076746179334e-03 0.0 
0.0 0.0 -1.611194038498e-04 
-1.452021797269e-04 -7.201116330740e-07 0.0 
-7.201116330740e-07 9.647061708381e-04 0.0 
0.0 0.0 -1.451343074576e-04 
-1.417360905196e-04 8.632870990913e-08 0.0 
8.632870990913e-08 9.403024522762e-04 0.0 
0.0 0.0 -1.415933767274e-04 
-1.319020358547e-04 3.977806768527e-08 0.0 
3.977806768527e-08 8.718254866790e-04 0.0 
0.0 0.0 -1.317570344669e-04 
-1.275952978262e-04 -1.808898908878e-07 0.0 
-1.808898908878e-07 8.422298684311e-04 0.0 
0.0 0.0 -1.275414768178e-04 
-1.808056931016e-04 -1.525758788825e-06 0.0 
-1.525758788825e-06 1.206677931101e-03 0.0 
0.0 0.0 -1.799800510317e-04 
-1.870307763930e-04 -2.673876865902e-07 0.0 
-2.673876865902e-07 1.255623469781e-03 0.0 
0.0 0.0 -1.864092322314e-04 
-8.236599237368e-05 5.694757370752e-07 0.0 
5.694757370752e-07 5.272929756111e-04 0.0 
0.0 0.0 -8.232948673513e-05 
-7.828325005813e-05 7.807941924694e-07 0.0 
7.807941924694e-07 4.983469412597e-04 0.0 
0.0 0.0 -7.818189541436e-05 
-8.066781870606e-05 6.215778532638e-07 0.0 
6.215778532638e-07 5.167877030226e-04 0.0 
0.0 0.0 -8.085192856594e-05 
-1.821793884671e-04 -9.452425038888e-07 0.0 
-9.452425038888e-07 1.232295246858e-03 0.0 
0.0 0.0 -1.834584547941e-04 
-1.830922366977e-04 2.536660346183e-06 0.0 
2.536660346183e-06 1.235147881441e-03 0.0 
0.0 0.0 -1.836006722523e-04 
-1.803954664386e-04 -2.175726806454e-06 0.0 
-2.175726806454e-06 1.202974169961e-03 0.0 
0.0 0.0 -1.793731166858e-04 
-2.884547195492e-05 -1.949294581992e-06 0.0 
-1.949294581992e-06 1.508764218898e-04 0.0 
0.0 0.0 -2.821170413667e-05 
-3.570881000968e-05 -1.070718923965e-06 0.0 
-1.070718923965e-06 1.885432469507e-04 0.0 
0.0 0.0 -3.370638853217e-05 
-4.213783208319e-05 -1.170748262367e-07 0.0 
-1.170748262367e-07 2.402822286115e-04 0.0 
0.0 0.0 -4.126795851095e-05 
-3.586246974089e-05 -2.546283779184e-06 0.0 
-2.546283779184e-06 2.018033726068e-04 0.0 
0.0 0.0 -3.610688574664e-05 
-1.813118037091e-04 3.339770754466e-08 0.0 
3.339770754466e-08 1.214209313964e-03 0.0 
0.0 0.0 -1.810888083315e-04 
-1.759503644858e-04 -2.370337743837e-09 0.0 
-2.370337743837e-09 1.179752016776e-03 0.0 
0.0 0.0 -1.758947287297e-04 
-1.868380600491e-04 -2.026246098827e-08 0.0 
-2.026246098827e-08 1.260450932184e-03 0.0 
0.0 0.0 -1.871207327665e-04 
-5.677368414960e-05 2.032718348151e-06 0.0 
2.032718348151e-06 3.527741904510e-04 0.0 
0.0 0.0 -5.702308739092e-05 
-1.568027754872e-04 9.086678946457e-07 0.0 
9.086678946457e-07 1.045425867798e-03 0.0 
0.0 0.0 -1.567983548164e-04 
-1.807947804281e-04 1.816885949765e-06 0.0 
1.816885949765e-06 1.215031055035e-03 0.0 
0.0 0.0 -1.811848825972e-04 
-1.767874529665e-04 2.635533244675e-06 0.0 
2.635533244675e-06 1.187503191795e-03 0.0 
0.0 0.0 -1.767018567944e-04 
-1.863663002342e-04 1.461510242915e-06 0.0 
1.461510242915e-06 1.257417594462e-03 0.0 
0.0 0.0 -1.866936124609e-04 
-1.705605319310e-04 -3.043131196870e-07 0.0 
-3.043131196870e-07 1.147035567734e-03 0.0 
0.0 0.0 -1.713153186433e-04 
-1.813551999588e-04 -1.051944771726e-06 0.0 
-1.051944771726e-06 1.212243561196e-03 0.0 
0.0 0.0 -1.808143025540e-04 
-1.810144852020e-04 9.510582154738e-07 0.0 
9.510582154738e-07 1.215244823925e-03 0.0 
0.0 0.0 -1.813984546852e-04 
-2.289882463440e-05 -1.917411223350e-06 0.0 
-1.917411223350e-06 1.064438362998e-04 0.0 
0.0 0.0 -2.272772520152e-05 
-1.796453692485e-04 -2.519464026569e-06 0.0 
-2.519464026569e-06 1.205769465943e-03 0.0 
0.0 0.0 -1.799989151485e-04 
-1.255838269039e-04 -2.372108616113e-07 0.0 
-2.372108616113e-07 8.274746007515e-04 0.0 
0.0 0.0 -1.255735778981e-04 
-1.648487917531e-05 -4.731674107763e-06 0.0 
-4.731674107763e-06 7.996115120316e-05 0.0 
0.0 0.0 -1.701907742944e-05 
-1.197277503755e-04 -6.241620168613e-08 0.0 
-6.241620168613e-08 7.962718767862e-04 0.0 
0.0 0.0 -1.210522788133e-04 
-1.264445161814e-04 -2.564056665928e-07 0.0 
-2.564056665928e-07 8.371650247824e-04 0.0 
0.0 0.0 -1.267742309066e-04 
-1.154487627705e-04 -6.658166254296e-07 0.0 
-6.658166254296e-07 7.569378951924e-04 0.0 
0.0 0.0 -1.162214466274e-04 
-4.660515595758e-05 1.493989084367e-06 0.0 
1.493989084367e-06 2.841958466787e-04 0.0 
0.0 0.0 -4.732948783071e-05 
-1.214260254664e-04 -1.596625013767e-06 0.0 
-1.596625013767e-06 8.039136548600e-04 0.0 
0.0 0.0 -1.226115929076e-04 
-1.277494935593e-04 -2.322994823893e-06 0.0 
-2.322994823893e-06 8.489823059285e-04 0.0 
0.0 0.0 -1.283491864751e-04 
-2.181725480317e-05 4.928406156628e-07 0.0 
4.928406156628e-07 1.070930809537e-04 0.0 
0.0 0.0 -2.131994005793e-05 
-1.874449477591e-04 5.176155724588e-07 0.0 
5.176155724588e-07 1.267519228381e-03 0.0 
0.0 0.0 -1.888952332360e-04 
-2.478565018414e-05 -1.930000472000e-06 0.0 
-1.930000472000e-06 1.118328058531e-04 0.0 
0.0 0.0 -2.334665006309e-05 
-2.656716960799e-05 -2.510778064998e-06 0.0 
-2.510778064998e-06 1.411464559949e-04 0.0 
0.0 0.0 -2.709867152969e-05 
-1.817312836183e-04 2.201942420487e-06 0.0 
2.201942420487e-06 1.232410437945e-03 0.0 
0.0 0.0 -1.831822052943e-04 
-1.773206336066e-04 -2.021839507971e-07 0.0 
-2.021839507971e-07 1.191992626232e-03 0.0 
0.0 0.0 -1.776517324320e-04 
-1.872954897737e-04 -1.006614931482e-06 0.0 
-1.006614931482e-06 1.259866749947e-03 0.0 
0.0 0.0 -1.871589901852e-04 
-1.824456739670e-04 2.064220422989e-06 0.0 
2.064220422989e-06 1.218220290450e-03 0.0 
0.0 0.0 -1.816528226986e-04 
-1.719240551568e-04 -7.467342115413e-07 0.0 
-7.467342115413e-07 1.152044759436e-03 0.0 
0.0 0.0 -1.720599434401e-04 
-1.761500249536e-04 9.670950468970e-07 0.0 
9.670950468970e-07 1.183630845697e-03 0.0 
0.0 0.0 -1.764735915037e-04 
-1.203392003903e-04 -2.198342008040e-06 0.0 
-2.198342008040e-06 7.898463321084e-04 0.0 
0.0 0.0 -1.197898394197e-04 
-1.865443414806e-04 2.647479046358e-06 0.0 
2.647479046358e-06 1.260124298644e-03 0.0 
0.0 0.0 -1.873527554397e-04 
-1.803841241731e-04 6.709369355739e-07 0.0 
6.709369355739e-07 1.214344074041e-03 0.0 
0.0 0.0 -1.811164307615e-04 
-1.921061091143e-04 1.480715088923e-06 0.0 
1.480715088923e-06 1.296918019707e-03 0.0 
0.0 0.0 -1.916891122952e-04 
-9.208569695246e-05 6.093443112198e-07 0.0 
6.093443112198e-07 5.924864494399e-04 0.0 
0.0 0.0 -9.162005200151e-05 
-7.283645161877e-05 4.586395072899e-07 0.0 
4.586395072899e-07 4.547389083214e-04 0.0 
0.0 0.0 -7.184037522857e-05 
-6.889002091575e-05 3.964795035729e-07 0.0 
3.964795035729e-07 4.246717698014e-04 0.0 
0.0 0.0 -6.790877045087e-05 
-5.909497143754e-05 6.023844365174e-06 0.0 
6.023844365174e-06 3.592168662585e-04 0.0 
0.0 0.0 -5.813495639200e-05 
-1.853176739262e-04 8.122300759657e-07 0.0 
8.122300759657e-07 1.250781756793e-03 0.0 
0.0 0.0 -1.860270850411e-04 
-1.796312402729e-04 3.276727185624e-06 0.0 
3.276727185624e-06 1.208836358275e-03 0.0 
0.0 0.0 -1.800885023177e-04 
-1.631801230170e-04 1.627520387689e-07 0.0 
1.627520387689e-07 1.090569837524e-03 0.0 
0.0 0.0 -1.631333845344e-04 
-1.534477329204e-04 6.766395027793e-07 0.0 
6.766395027793e-07 1.020410487752e-03 0.0 
0.0 0.0 -1.531108459605e-04 
-1.224599435499e-04 1.078011159300e-06 0.0 
1.078011159300e-06 8.009987656653e-04 0.0 
0.0 0.0 -1.216227322220e-04 
-1.215744765480e-04 -1.237691044798e-06 0.0 
-1.237691044798e-06 7.963280792961e-04 0.0 
0.0 0.0 -1.211602941205e-04 
-1.308077100931e-04 4.769688121849e-06 0.0 
4.769688121849e-06 8.600072513362e-04 0.0 
0.0 0.0 -1.301779020232e-04 
-1.297276618714e-04 -1.066682707188e-06 0.0 
-1.066682707188e-06 8.491749556053e-04 0.0 
0.0 0.0 -1.291373028237e-04 
-1.389532460221e-04 4.549858847667e-06 0.0 
4.549858847667e-06 9.158165643447e-04 0.0 
0.0 0.0 -1.380077606708e-04 
-1.362521981567e-04 -2.124783431130e-06 0.0 
-2.124783431130e-06 9.054980890478e-04 0.0 
0.0 0.0 -1.366342160092e-04 
-1.454793170856e-04 -4.423821596291e-06 0.0 
-4.423821596291e-06 9.700799799999e-04 0.0 
0.0 0.0 -1.459037168719e-04 
-1.870833549466e-04 3.909084775636e-06 0.0 
3.909084775636e-06 1.256272641087e-03 0.0 
0.0 0.0 -1.867631680280e-04 
-4.779563930822e-05 1.388169697748e-06 0.0 
1.388169697748e-06 2.856867328083e-04 0.0 
0.0 0.0 -4.771245731984e-05 
-1.019348355349e-04 5.925610993023e-07 0.0 
5.925610993023e-07 6.625121101145e-04 0.0 
0.0 0.0 -1.017460476387e-04 
-1.826285801103e-04 -1.661566205844e-06 0.0 
-1.661566205844e-06 1.237533025725e-03 0.0 
0.0 0.0 -1.842392070075e-04 
-1.784932399449e-04 -5.084121371408e-07 0.0 
-5.084121371408e-07 1.196504370322e-03 0.0 
0.0 0.0 -1.781095211982e-04 
-9.045878749083e-05 3.060141382144e-07 0.0 
3.060141382144e-07 5.804720461946e-04 0.0 
0.0 0.0 -9.001416730698e-05 
-8.189605333165e-05 1.641333009623e-06 0.0 
1.641333009623e-06 5.186644514913e-04 0.0 
0.0 0.0 -8.102430021026e-05 
-1.866907463054e-04 2.093765460227e-06 0.0 
2.093765460227e-06 1.251863261449e-03 0.0 
0.0 0.0 -1.858191563033e-04 
-8.427129088721e-05 2.509183407977e-07 0.0 
2.509183407977e-07 5.389541208829e-04 0.0 
0.0 0.0 -8.400472401885e-05 
-1.942862609106e-04 -4.604509060762e-07 0.0 
-4.604509060762e-07 1.310239742523e-03 0.0 
0.0 0.0 -1.943189575261e-04 
-7.089778492893e-06 -8.429924576269e-07 0.0 
-8.429924576269e-07 3.992716951653e-05 0.0 
0.0 0.0 -8.535005130452e-06 
-1.936791033226e-05 1.730686598500e-06 0.0 
1.730686598500e-06 1.017559906333e-04 0.0 
0.0 0.0 -2.030164989952e-05 
-8.968053387105e-05 4.268638781564e-07 0.0 
4.268638781564e-07 5.769858883096e-04 0.0 
0.0 0.0 -8.953811051246e-05 
-9.967591826382e-05 1.816339090072e-07 0.0 
1.816339090072e-07 6.455070859268e-04 0.0 
0.0 0.0 -9.930333011984e-05 
-7.698272719919e-05 1.369511196201e-06 0.0 
1.369511196201e-06 4.917432221998e-04 0.0 
0.0 0.0 -7.735978650723e-05 
-7.290112700995e-05 4.485042513469e-07 0.0 
4.485042513469e-07 4.686595431743e-04 0.0 
0.0 0.0 -7.375775675111e-05 
-1.516976068027e-04 9.731432031670e-08 0.0 
9.731432031670e-08 1.010085692234e-03 0.0 
0.0 0.0 -1.515828990902e-04 
-2.955388113014e-05 -3.810006738129e-07 0.0 
-3.810006738129e-07 1.597998460951e-04 0.0 
0.0 0.0 -2.992625374333e-05 
-4.708750000530e-05 -3.380683912339e-07 0.0 
-3.380683912339e-07 2.775741899182e-04 0.0 
0.0 0.0 -4.660401843130e-05 
-1.459872513037e-04 4.283387118632e-06 0.0 
4.283387118632e-06 9.787274438894e-04 0.0 
0.0 0.0 -1.469538452094e-04 
-3.739432352920e-05 8.132963554321e-08 0.0 
8.132963554321e-08 2.132217851977e-04 0.0 
0.0 0.0 -3.731550915806e-05 
-1.581113812495e-04 5.386783396549e-07 0.0 
5.386783396549e-07 1.056624836089e-03 0.0 
0.0 0.0 -1.583700297543e-04 
-8.859117282002e-05 -4.886909086429e-07 0.0 
-4.886909086429e-07 5.694929478328e-04 0.0 
0.0 0.0 -8.837999545446e-05 
-1.077149909289e-04 1.768026495216e-08 0.0 
1.768026495216e-08 7.012731036170e-04 0.0 
0.0 0.0 -1.073025146250e-04 
-5.592229804259e-05 8.436426505879e-07 0.0 
8.436426505879e-07 3.420524339702e-04 0.0 
0.0 0.0 -5.582998379547e-05 
-7.655387121575e-05 -1.360505059231e-06 0.0 
-1.360505059231e-06 4.844624894690e-04 0.0 
0.0 0.0 -7.620154526702e-05 
-1.304375061833e-04 -4.590487413421e-07 0.0 
-4.590487413421e-07 8.567018780296e-04 0.0 
0.0 0.0 -1.295787134191e-04 
-1.227913220526e-04 -1.069536414788e-06 0.0 
-1.069536414788e-06 7.988115105914e-04 0.0 
0.0 0.0 -1.212971597528e-04 
-1.171271358387e-04 6.312522150105e-07 0.0 
6.312522150105e-07 7.632427069466e-04 0.0 
0.0 0.0 -1.160760923294e-04 
-9.288654497448e-05 -4.149904162908e-07 0.0 
-4.149904162908e-07 5.993038953958e-04 0.0 
0.0 0.0 -9.268233649937e-05 
-7.967235479004e-05 1.560635261010e-06 0.0 
1.560635261010e-06 5.060818193185e-04 0.0 
0.0 0.0 -7.932496478153e-05 
-6.976412058096e-05 4.685918450986e-07 0.0 
4.685918450986e-07 4.348311074162e-04 0.0 
0.0 0.0 -6.925859231108e-05 
-1.236762265939e-04 1.286441015262e-07 0.0 
1.286441015262e-07 8.121194052814e-04 0.0 
0.0 0.0 -1.231954486131e-04 
-1.661664385129e-04 7.234197314207e-07 0.0 
7.234197314207e-07 1.111077522090e-03 0.0 
0.0 0.0 -1.661212681597e-04 
-1.708685371099e-04 1.275890329841e-06 0.0 
1.275890329841e-06 1.141280747299e-03 0.0 
0.0 0.0 -1.704512426999e-04 
-1.799814060202e-04 -8.892695818651e-09 0.0 
-8.892695818651e-09 1.206980088396e-03 0.0 
0.0 0.0 -1.798902840516e-04 
-1.752252711223e-04 6.293476179298e-07 0.0 
6.293476179298e-07 1.171825368199e-03 0.0 
0.0 0.0 -1.746897123557e-04 
-1.653204529079e-04 3.682681378693e-07 0.0 
3.682681378693e-07 1.103833188294e-03 0.0 
0.0 0.0 -1.650619928257e-04 
-1.692700239592e-04 -9.309390044845e-07 0.0 
-9.309390044845e-07 1.133313101005e-03 0.0 
0.0 0.0 -1.693613594316e-04 
-1.794459408941e-04 1.605079206946e-06 0.0 
1.605079206946e-06 1.200644277872e-03 0.0 
0.0 0.0 -1.790391580507e-04 
-1.729836631084e-04 -6.502744120006e-09 0.0 
-6.502744120006e-09 1.165149049271e-03 0.0 
0.0 0.0 -1.738884562940e-04 
-1.853394956414e-04 -1.746634483939e-06 0.0 
-1.746634483939e-06 1.245260351070e-03 0.0 
0.0 0.0 -1.851430293189e-04 
-1.779629991439e-04 -2.212681777784e-06 0.0 
-2.212681777784e-06 1.194508684255e-03 0.0 
0.0 0.0 -1.780963771770e-04 
-1.680008323397e-04 4.410252086393e-07 0.0 
4.410252086393e-07 1.124792316923e-03 0.0 
0.0 0.0 -1.681296768602e-04 
-1.732313668130e-04 2.383290929425e-07 0.0 
2.383290929425e-07 1.152919895369e-03 0.0 
0.0 0.0 -1.721639567129e-04 
-1.820197878976e-04 -9.097203098578e-07 0.0 
-9.097203098578e-07 1.219293629434e-03 0.0 
0.0 0.0 -1.811651920545e-04 
-1.627398560099e-04 -3.025378736545e-07 0.0 
-3.025378736545e-07 1.085392768176e-03 0.0 
0.0 0.0 -1.623890973126e-04 
-1.881496038472e-04 -6.722589035005e-07 0.0 
-6.722589035005e-07 1.272625835057e-03 0.0 
0.0 0.0 -1.896816515354e-04 
-9.936624462153e-05 3.711915790744e-07 0.0 
3.711915790744e-07 6.447993785367e-04 0.0 
0.0 0.0 -9.931710713211e-05 
-2.678077344496e-05 1.172604196378e-06 0.0 
1.172604196378e-06 1.469601996083e-04 0.0 
0.0 0.0 -2.776378382453e-05 
-2.718822131563e-05 5.643793796886e-06 0.0 
5.643793796886e-06 1.398182331985e-04 0.0 
0.0 0.0 -2.650814903740e-05 
-1.130938350532e-04 2.933038375315e-07 0.0 
2.933038375315e-07 7.386015135744e-04 0.0 
0.0 0.0 -1.126376112924e-04 
-1.957395771822e-04 4.072718166248e-07 0.0 
4.072718166248e-07 1.314065316165e-03 0.0 
0.0 0.0 -1.949709453146e-04 
-1.956422709446e-04 1.854437157917e-08 0.0 
1.854437157917e-08 1.316914351373e-03 0.0 
0.0 0.0 -1.952630510734e-04 
-7.363791568969e-05 4.448116745511e-08 0.0 
4.448116745511e-08 4.652432970724e-04 0.0 
0.0 0.0 -7.343539360029e-05 
-1.953259047097e-04 -1.682103116947e-07 0.0 
-1.682103116947e-07 1.316528916423e-03 0.0 
0.0 0.0 -1.955120939844e-04 
-1.210496703093e-04 -3.742029869831e-07 0.0 
-3.742029869831e-07 7.914115177246e-04 0.0 
0.0 0.0 -1.201823113336e-04 
-5.355766991560e-05 5.069063859747e-07 0.0 
5.069063859747e-07 3.232453025466e-04 0.0 
0.0 0.0 -5.296028401754e-05 
-1.953834150830e-04 -1.373297745112e-06 0.0 
-1.373297745112e-06 1.316914533701e-03 0.0 
0.0 0.0 -1.956430189105e-04 
-1.606320410693e-04 1.081811570651e-06 0.0 
1.081811570651e-06 1.073242688732e-03 0.0 
0.0 0.0 -1.607160970497e-04 
-1.551352503420e-04 -1.927443336720e-07 0.0 
-1.927443336720e-07 1.034924921134e-03 0.0 
0.0 0.0 -1.552285616758e-04 
-1.505583948677e-04 4.103370421323e-07 0.0 
4.103370421323e-07 1.004971037607e-03 0.0 
0.0 0.0 -1.509086942990e-04 
-1.950225372489e-04 -2.088550178189e-06 0.0 
-2.088550178189e-06 1.319599496419e-03 0.0 
0.0 0.0 -1.958801056209e-04 
-1.389109183028e-04 4.741451933545e-08 0.0 
4.741451933545e-08 9.181432809719e-04 0.0 
0.0 0.0 -1.384942297845e-04 
-1.959295069713e-04 -1.244434436796e-06 0.0 
-1.244434436796e-06 1.320610998766e-03 0.0 
0.0 0.0 -1.959024498733e-04 
-1.357909290755e-04 -7.273641547470e-07 0.0 
-7.273641547470e-07 8.985832613114e-04 0.0 
0.0 0.0 -1.355985557075e-04 
-1.314159132553e-04 -2.260781221254e-07 0.0 
-2.260781221254e-07 8.680741570170e-04 0.0 
0.0 0.0 -1.312144960014e-04 
-1.217410062802e-04 -7.968137970636e-08 0.0 
-7.968137970636e-08 8.004989808175e-04 0.0 
0.0 0.0 -1.215252423283e-04 
-1.635653543320e-04 -8.206507231060e-07 0.0 
-8.206507231060e-07 1.094591173860e-03 0.0 
0.0 0.0 -1.638368049481e-04 
-1.957128907948e-04 7.679802216985e-07 0.0 
7.679802216985e-07 1.315946828038e-03 0.0 
0.0 0.0 -1.954016999139e-04 
-1.877918467821e-04 -4.059023819968e-07 0.0 
-4.059023819968e-07 1.261052432127e-03 0.0 
0.0 0.0 -1.872601071101e-04 
-1.870380449284e-04 -1.951022404988e-06 0.0 
-1.951022404988e-06 1.260361361027e-03 0.0 
0.0 0.0 -1.872639817026e-04 
-1.800805456319e-04 7.540324232601e-08 0.0 
7.540324232601e-08 1.200437685780e-03 0.0 
0.0 0.0 -1.783672283586e-04 
-1.950646193177e-04 -5.546188052740e-08 0.0 
-5.546188052740e-08 1.316661406715e-03 0.0 
0.0 0.0 -1.955098189886e-04 
-1.957560602186e-04 -3.716868616248e-07 0.0 
-3.716868616248e-07 1.318924671883e-03 0.0 
0.0 0.0 -1.959998991124e-04 
-1.963981539868e-04 -5.303133434365e-07 0.0 
-5.303133434365e-07 1.320493656548e-03 0.0 
0.0 0.0 -1.962751064225e-04 
-6.844923036856e-05 1.199739337794e-06 0.0 
1.199739337794e-06 4.307455297825e-04 0.0 
0.0 0.0 -6.847160534926e-05 
-7.419643775584e-05 3.743388539179e-07 0.0 
3.743388539179e-07 4.695492771341e-04 0.0 
0.0 0.0 -7.401623890332e-05 
-8.376895134064e-05 1.300131340797e-07 0.0 
1.300131340797e-07 5.365706547931e-04 0.0 
0.0 0.0 -8.364053759108e-05 
-7.953934562445e-05 -2.075640414837e-08 0.0 
-2.075640414837e-08 5.072934929808e-04 0.0 
0.0 0.0 -7.948224144010e-05 
-6.989506786319e-05 -6.245293844846e-08 0.0 
-6.245293844846e-08 4.396733402016e-04 0.0 
0.0 0.0 -6.978551441703e-05 
-7.524805855893e-05 3.094892115024e-07 0.0 
3.094892115024e-07 4.777101055957e-04 0.0 
0.0 0.0 -7.524542772725e-05 
-8.492603218944e-05 -2.618464199118e-07 0.0 
-2.618464199118e-07 5.448643552104e-04 0.0 
0.0 0.0 -8.485997776147e-05 
-7.105462536305e-05 6.250310806944e-07 0.0 
6.250310806944e-07 4.479089343025e-04 0.0 
0.0 0.0 -7.097692746601e-05 
-1.705288852515e-04 -5.065676993737e-08 0.0 
-5.065676993737e-08 1.143493746239e-03 0.0 
0.0 0.0 -1.707769389999e-04 
-1.957870609060e-04 1.292884007357e-06 0.0 
1.292884007357e-06 1.318859783043e-03 0.0 
0.0 0.0 -1.958668742322e-04 
-1.350455497016e-04 7.864309328476e-09 0.0 
7.864309328476e-09 8.951240562794e-04 0.0 
0.0 0.0 -1.351191360868e-04 
-1.307165790976e-04 -4.322242656647e-09 0.0 
-4.322242656647e-09 8.644169275053e-04 0.0 
0.0 0.0 -1.307040085326e-04 
-1.209043728309e-04 3.853306452192e-07 0.0 
3.853306452192e-07 7.961045906332e-04 0.0 
0.0 0.0 -1.208983099878e-04 
-1.015178106691e-04 -3.679167517203e-07 0.0 
-3.679167517203e-07 6.622225460757e-04 0.0 
0.0 0.0 -1.017282540064e-04 
-1.070947291555e-04 -1.713274614578e-07 0.0 
-1.713274614578e-07 7.010953756025e-04 0.0 
0.0 0.0 -1.073098139330e-04 
-1.170318119329e-04 -2.304405178400e-07 0.0 
-2.304405178400e-07 7.699550145936e-04 0.0 
0.0 0.0 -1.171862911330e-04 
-9.606943952016e-05 -6.918043120030e-07 0.0 
-6.918043120030e-07 6.234320450168e-04 0.0 
0.0 0.0 -9.611914699067e-05 
-1.481119786321e-04 -1.006868581398e-07 0.0 
-1.006868581398e-07 9.856164309774e-04 0.0 
0.0 0.0 -1.481459134429e-04 
-1.955042779643e-04 -1.269047585912e-06 0.0 
-1.269047585912e-06 1.318349589731e-03 0.0 
0.0 0.0 -1.957504584866e-04 
-1.330884753948e-04 -1.768196315292e-07 0.0 
-1.768196315292e-07 8.806785880526e-04 0.0 
0.0 0.0 -1.330749450653e-04 
-1.026965489879e-04 1.178065411022e-07 0.0 
1.178065411022e-07 6.708683582992e-04 0.0 
0.0 0.0 -1.029894966699e-04 
-1.130854337220e-04 -7.438576483953e-07 0.0 
-7.438576483953e-07 7.384022260134e-04 0.0 
0.0 0.0 -1.127517955912e-04 
-1.209813153641e-04 2.130007804037e-06 0.0 
2.130007804037e-06 7.983489600902e-04 0.0 
0.0 0.0 -1.214223410530e-04 
-1.212906592670e-04 -2.948275088070e-06 0.0 
-2.948275088070e-06 8.006247840124e-04 0.0 
0.0 0.0 -1.214609177556e-04 
-1.289650632578e-04 -2.836448343722e-06 0.0 
-2.836448343722e-06 8.628838233816e-04 0.0 
0.0 0.0 -1.309968220184e-04 
-1.213818105996e-04 -4.266965506248e-06 0.0 
-4.266965506248e-06 8.042830918570e-04 0.0 
0.0 0.0 -1.223387611305e-04 
-1.201218344436e-04 -5.940699395266e-07 0.0 
-5.940699395266e-07 7.912234115192e-04 0.0 
0.0 0.0 -1.202289988118e-04 
-1.246396976616e-04 -5.061942420403e-07 0.0 
-5.061942420403e-07 8.213580181559e-04 0.0 
0.0 0.0 -1.245418513326e-04 
-1.191093718333e-04 1.337880474637e-07 0.0 
1.337880474637e-07 7.836030816467e-04 0.0 
0.0 0.0 -1.190678843757e-04 
-1.287401379332e-04 -4.825176742022e-07 0.0 
-4.825176742022e-07 8.510925999983e-04 0.0 
0.0 0.0 -1.288600603647e-04 
-1.226230270594e-04 -1.701149775371e-06 0.0 
-1.701149775371e-06 8.113018730487e-04 0.0 
0.0 0.0 -1.232036783932e-04 
-1.130241629680e-04 -1.858461286811e-06 0.0 
-1.858461286811e-06 7.480336692277e-04 0.0 
0.0 0.0 -1.141311642346e-04 
-1.321533265726e-04 -1.335199541160e-06 0.0 
-1.335199541160e-06 8.794062915419e-04 0.0 
0.0 0.0 -1.329915258165e-04 
-1.262846614202e-04 1.119259017791e-06 0.0 
1.119259017791e-06 8.372331183149e-04 0.0 
0.0 0.0 -1.265608218447e-04 
-1.120104832196e-04 -1.984611779904e-06 0.0 
-1.984611779904e-06 7.374063381166e-04 0.0 
0.0 0.0 -1.126429727744e-04 
-9.422976514582e-06 -1.217518494265e-06 0.0 
-1.217518494265e-06 4.558842274141e-05 0.0 
0.0 0.0 -8.813944590281e-06 
-2.032999859278e-05 1.550107281015e-06 0.0 
1.550107281015e-06 1.008000227599e-04 0.0 
0.0 0.0 -2.005057187811e-05 
-1.923634066646e-05 -1.281983274152e-06 0.0 
-1.281983274152e-06 9.903712088906e-05 0.0 
0.0 0.0 -1.977126557535e-05 
-2.892124709552e-05 -6.331508506686e-07 0.0 
-6.331508506686e-07 1.562935872075e-04 0.0 
0.0 0.0 -2.931975365146e-05 
-3.044620434302e-05 2.916307507694e-06 0.0 
2.916307507694e-06 1.611495346811e-04 0.0 
0.0 0.0 -2.995118946101e-05 
-3.774799277366e-05 3.794557032569e-07 0.0 
3.794557032569e-07 2.202737536706e-04 0.0 
0.0 0.0 -3.879981516104e-05 
-3.645995758034e-05 -3.803053327811e-06 0.0 
-3.803053327811e-06 2.139692199118e-04 0.0 
0.0 0.0 -3.742104924291e-05 
-2.033881415161e-05 -1.700939409159e-06 0.0 
-1.700939409159e-06 1.011583560657e-04 0.0 
0.0 0.0 -1.994621821224e-05 
-8.875489974186e-06 -3.480193746507e-07 0.0 
-3.480193746507e-07 4.471598822964e-05 0.0 
0.0 0.0 -8.692282348679e-06 
-1.963315251852e-05 3.711641581478e-07 0.0 
3.711641581478e-07 9.816218701372e-05 0.0 
0.0 0.0 -1.973534442338e-05 
-8.550733775924e-06 2.514775744060e-07 0.0 
2.514775744060e-07 4.381249491722e-05 0.0 
0.0 0.0 -8.579688284227e-06 
-1.901805583189e-05 4.776440578629e-08 0.0 
4.776440578629e-08 9.639762974465e-05 0.0 
0.0 0.0 -1.949131874972e-05 
-2.991788690013e-05 6.474225871532e-07 0.0 
6.474225871532e-07 1.629475291055e-04 0.0 
0.0 0.0 -3.058298354955e-05 
-4.437694804010e-05 -3.488760205641e-08 0.0 
-3.488760205641e-08 2.590089634221e-04 0.0 
0.0 0.0 -4.387725951834e-05 
-1.952890502554e-04 2.705057302809e-06 0.0 
2.705057302809e-06 1.308737158744e-03 0.0 
0.0 0.0 -1.942312205382e-04 
-9.935449687594e-05 7.019136318893e-07 0.0 
7.019136318893e-07 6.421560261642e-04 0.0 
0.0 0.0 -9.893255040107e-05 
-9.532292627254e-05 2.814699913044e-06 0.0 
2.814699913044e-06 6.114496525194e-04 0.0 
0.0 0.0 -9.397196729617e-05 
-8.400669900114e-05 2.679673941902e-06 0.0 
2.679673941902e-06 5.409587176071e-04 0.0 
0.0 0.0 -8.462574969392e-05 
-9.027594374168e-05 -7.837686841303e-07 0.0 
-7.837686841303e-07 5.798954878733e-04 0.0 
0.0 0.0 -8.961994476413e-05 
-1.045740752791e-04 3.140418326638e-06 0.0 
3.140418326638e-06 6.688688744112e-04 0.0 
0.0 0.0 -1.029858181470e-04 
-7.880649475037e-05 2.069962121031e-06 0.0 
2.069962121031e-06 5.047681260686e-04 0.0 
0.0 0.0 -7.930380845106e-05 
-7.495741100239e-05 3.408625348592e-06 0.0 
3.408625348592e-06 4.823631646977e-04 0.0 
0.0 0.0 -7.557437765277e-05 
-9.687066653002e-06 -3.402698014617e-07 0.0 
-3.402698014617e-07 4.591586104220e-05 0.0 
0.0 0.0 -8.739712030662e-06 
-2.047661094667e-05 -2.267522532193e-06 0.0 
-2.267522532193e-06 1.000681362490e-04 0.0 
0.0 0.0 -2.007353836932e-05 
-1.994917007271e-05 2.592468629793e-06 0.0 
2.592468629793e-06 9.445303527474e-05 0.0 
0.0 0.0 -1.994324578594e-05 
-3.151456459980e-05 1.463566236896e-06 0.0 
1.463566236896e-06 1.596924898443e-04 0.0 
0.0 0.0 -2.965054416063e-05 
-2.861510418730e-05 -1.205587774427e-06 0.0 
-1.205587774427e-06 1.581911772624e-04 0.0 
0.0 0.0 -2.941027143855e-05 
-1.937098915206e-05 8.384890895994e-08 0.0 
8.384890895994e-08 1.007669973979e-04 0.0 
0.0 0.0 -1.994784544742e-05 
-1.998172865117e-05 1.674549256837e-06 0.0 
1.674549256837e-06 1.004783062935e-04 0.0 
0.0 0.0 -1.993089637160e-05 
-9.184527398116e-06 -3.340486906928e-07 0.0 
-3.340486906928e-07 4.449611849599e-05 0.0 
0.0 0.0 -8.679810794752e-06 
-1.977844276233e-05 -5.706350657546e-07 0.0 
-5.706350657546e-07 9.957383946922e-05 0.0 
0.0 0.0 -1.962916685114e-05 
-2.895230255585e-05 1.615024457259e-06 0.0 
1.615024457259e-06 1.596384447765e-04 0.0 
0.0 0.0 -2.991862060476e-05 
-7.803011911719e-06 -7.706301462869e-07 0.0 
-7.706301462869e-07 4.106703932536e-05 0.0 
0.0 0.0 -8.301770963759e-06 
-1.590145051585e-04 -4.281304664763e-06 0.0 
-4.281304664763e-06 1.062076659957e-03 0.0 
0.0 0.0 -1.590640962770e-04 
-1.651868147433e-04 -3.398332014324e-06 0.0 
-3.398332014324e-06 1.099025294548e-03 0.0 
0.0 0.0 -1.645623349770e-04 
-1.955657779701e-04 -5.933825758628e-07 0.0 
-5.933825758628e-07 1.315952615564e-03 0.0 
0.0 0.0 -1.951345524439e-04 
-1.128859712793e-04 -3.830481927276e-06 0.0 
-3.830481927276e-06 7.447363822067e-04 0.0 
0.0 0.0 -1.137601485512e-04 
-8.506649409316e-06 3.037838616352e-07 0.0 
3.037838616352e-07 4.456634567568e-05 0.0 
0.0 0.0 -8.827439468020e-06 
-1.944078863341e-04 -1.551046245181e-07 0.0 
-1.551046245181e-07 1.307325842461e-03 0.0 
0.0 0.0 -1.938161294973e-04 
-1.950362438059e-04 -1.795147355396e-06 0.0 
-1.795147355396e-06 1.317406774879e-03 0.0 
0.0 0.0 -1.954759163179e-04 
-1.946257604888e-04 1.407080277293e-06 0.0 
1.407080277293e-06 1.317652425531e-03 0.0 
0.0 0.0 -1.957234727395e-04 
-1.786106491459e-04 1.328228983500e-06 0.0 
1.328228983500e-06 1.198614709334e-03 0.0 
0.0 0.0 -1.786587739673e-04 
-1.826581066041e-04 5.861318546716e-07 0.0 
5.861318546716e-07 1.232821746468e-03 0.0 
0.0 0.0 -1.836483987139e-04 
-1.952382200043e-04 8.912494885484e-07 0.0 
8.912494885484e-07 1.308332215826e-03 0.0 
0.0 0.0 -1.941854046512e-04 
-6.737308308447e-05 5.138193223355e-07 0.0 
5.138193223355e-07 4.244241960940e-04 0.0 
0.0 0.0 -6.769213596492e-05 
-1.828682302183e-04 1.640560627374e-06 0.0 
1.640560627374e-06 1.239731587643e-03 0.0 
0.0 0.0 -1.838610959833e-04 
-1.772400966804e-04 3.904476817881e-07 0.0 
3.904476817881e-07 1.184738121319e-03 0.0 
0.0 0.0 -1.767943248163e-04 
-4.906868359316e-05 -1.133942934728e-07 0.0 
-1.133942934728e-07 2.953935878240e-04 0.0 
0.0 0.0 -4.902575320116e-05 
-6.530462737817e-05 3.585817021726e-07 0.0 
3.585817021726e-07 4.102635123792e-04 0.0 
0.0 0.0 -6.560435786130e-05 
-1.483067082024e-04 3.970804381229e-07 0.0 
3.970804381229e-07 9.886270184883e-04 0.0 
0.0 0.0 -1.484951207735e-04 
-1.367944353413e-04 -1.825561973167e-07 0.0 
-1.825561973167e-07 9.072242838815e-04 0.0 
0.0 0.0 -1.368596897040e-04 
-1.696034640066e-04 -3.607287686916e-07 0.0 
-3.607287686916e-07 1.134493911371e-03 0.0 
0.0 0.0 -1.695585677381e-04 
-1.398704134916e-04 8.561054054625e-09 0.0 
8.561054054625e-09 9.278981832241e-04 0.0 
0.0 0.0 -1.398333781397e-04 
-1.606909834555e-04 -5.100249501150e-07 0.0 
-5.100249501150e-07 1.075019221100e-03 0.0 
0.0 0.0 -1.609685038039e-04 
-1.869198009603e-04 3.460184187221e-06 0.0 
3.460184187221e-06 1.256233406915e-03 0.0 
0.0 0.0 -1.866194889163e-04 
-4.208478570565e-05 -7.076859870355e-07 0.0 
-7.076859870355e-07 2.599245066963e-04 0.0 
0.0 0.0 -4.408826043591e-05 
-1.404915308446e-04 9.501955183076e-07 0.0 
9.501955183076e-07 9.316401756296e-04 0.0 
0.0 0.0 -1.404724030559e-04 
-1.368005256677e-04 9.839857355171e-07 0.0 
9.839857355171e-07 9.063105631980e-04 0.0 
0.0 0.0 -1.369552780944e-04 
-1.614580578208e-04 -5.040207315794e-07 0.0 
-5.040207315794e-07 1.077622303329e-03 0.0 
0.0 0.0 -1.613909692546e-04 
-7.092154026938e-05 -7.271687064730e-07 0.0 
-7.271687064730e-07 4.457927222897e-04 0.0 
0.0 0.0 -7.064368720930e-05 
-1.092130498400e-04 -2.031197807860e-06 0.0 
-2.031197807860e-06 7.170877506305e-04 0.0 
0.0 0.0 -1.095638575444e-04 
-4.734326755177e-05 -7.634204257468e-07 0.0 
-7.634204257468e-07 2.775049997667e-04 0.0 
0.0 0.0 -4.656497932609e-05 
-1.872735419036e-04 6.485390613281e-07 0.0 
6.485390613281e-07 1.262586229201e-03 0.0 
0.0 0.0 -1.877191857934e-04 
-1.143324629321e-04 4.116664925192e-09 0.0 
4.116664925192e-09 7.469603610316e-04 0.0 
0.0 0.0 -1.138559328007e-04 
-1.153850895440e-04 2.798510741523e-07 0.0 
2.798510741523e-07 7.578160194775e-04 0.0 
0.0 0.0 -1.154143056347e-04 
-9.134271070788e-05 -4.241415328680e-07 0.0 
-4.241415328680e-07 5.928584725244e-04 0.0 
0.0 0.0 -9.180364234441e-05 
-7.295992473616e-05 6.931326544943e-07 0.0 
6.931326544943e-07 4.642607920090e-04 0.0 
0.0 0.0 -7.341543808938e-05 
-6.127928487910e-05 4.097090977135e-07 0.0 
4.097090977135e-07 3.818653258479e-04 0.0 
0.0 0.0 -6.151402614941e-05 
-1.048886373049e-04 7.305772282164e-07 0.0 
7.305772282164e-07 6.839939901015e-04 0.0 
0.0 0.0 -1.048536320953e-04 
-1.083489495467e-04 1.953470287276e-07 0.0 
1.953470287276e-07 7.097911034353e-04 0.0 
0.0 0.0 -1.085629762122e-04 
-1.537049609822e-04 2.480873530320e-07 0.0 
2.480873530320e-07 1.024308554960e-03 0.0 
0.0 0.0 -1.536510162914e-04 
-1.672004607334e-04 -4.138652897847e-07 0.0 
-4.138652897847e-07 1.115841044060e-03 0.0 
0.0 0.0 -1.668829017826e-04 
-1.175626501518e-05 2.653670795412e-06 0.0 
2.653670795412e-06 5.212615490244e-05 0.0 
0.0 0.0 -1.076426758597e-05 
-1.591679461113e-04 4.759781921773e-07 0.0 
4.759781921773e-07 1.063059671778e-03 0.0 
0.0 0.0 -1.592508397865e-04 
-1.282088974266e-04 -3.835691054215e-08 0.0 
-3.835691054215e-08 8.473404205640e-04 0.0 
0.0 0.0 -1.282838013392e-04 
-1.443596124248e-04 4.967652743944e-07 0.0 
4.967652743944e-07 9.572886199512e-04 0.0 
0.0 0.0 -1.439863651620e-04 
-1.598472287202e-04 -8.884907360880e-07 0.0 
-8.884907360880e-07 1.064451867688e-03 0.0 
0.0 0.0 -1.593960054358e-04 
-4.175998057522e-05 -3.447721282185e-07 0.0 
-3.447721282185e-07 2.572900811957e-04 0.0 
0.0 0.0 -4.363646550326e-05 
-1.650522666270e-04 -1.570677394041e-07 0.0 
-1.570677394041e-07 1.102136320565e-03 0.0 
0.0 0.0 -1.648121423230e-04 
-1.826232045261e-04 1.027217602921e-06 0.0 
1.027217602921e-06 1.220901163882e-03 0.0 
0.0 0.0 -1.818680320623e-04 
-1.325762676814e-04 -3.821282481616e-06 0.0 
-3.821282481616e-06 8.784259184788e-04 0.0 
0.0 0.0 -1.331264220316e-04 
-3.693963444370e-05 -7.544466628917e-07 0.0 
-7.544466628917e-07 2.092667936724e-04 0.0 
0.0 0.0 -3.663743814291e-05 
-1.313856992864e-04 7.552411984503e-07 0.0 
7.552411984503e-07 8.610864945210e-04 0.0 
0.0 0.0 -1.303870364997e-04 
-1.805690084043e-04 6.802145348003e-07 0.0 
6.802145348003e-07 1.208990479033e-03 0.0 
0.0 0.0 -1.804058984264e-04 
-1.618620090762e-04 -7.704497118814e-08 0.0 
-7.704497118814e-08 1.080863256528e-03 0.0 
0.0 0.0 -1.617330481104e-04 
-6.471559328570e-05 -1.662931831611e-06 0.0 
-1.662931831611e-06 4.062530166876e-04 0.0 
0.0 0.0 -6.504030707074e-05 
-1.192254745372e-04 -3.743731676596e-07 0.0 
-3.743731676596e-07 7.837384510995e-04 0.0 
0.0 0.0 -1.191527179664e-04 
-1.116344855219e-04 1.062141944632e-07 0.0 
1.062141944632e-07 7.298456137402e-04 0.0 
0.0 0.0 -1.114223846842e-04 
-1.018383685965e-04 -1.359407971872e-06 0.0 
-1.359407971872e-06 6.707473892556e-04 0.0 
0.0 0.0 -1.029886159366e-04 
-1.821879658306e-04 1.203703486797e-06 0.0 
1.203703486797e-06 1.214225172284e-03 0.0 
0.0 0.0 -1.809836386841e-04 
-1.227568816259e-04 -6.254739179724e-08 0.0 
-6.254739179724e-08 8.076906619440e-04 0.0 
0.0 0.0 -1.225941817511e-04 
-1.685234158846e-04 1.004345265447e-06 0.0 
1.004345265447e-06 1.124593655933e-03 0.0 
0.0 0.0 -1.680081379364e-04 
-1.385983115983e-04 -4.518781372798e-07 0.0 
-4.518781372798e-07 9.192006383534e-04 0.0 
0.0 0.0 -1.386121366338e-04 
-6.938466731060e-05 -6.198930646466e-07 0.0 
-6.198930646466e-07 4.371957454374e-04 0.0 
0.0 0.0 -6.944566544735e-05 
-1.681992938910e-04 -9.274416247642e-07 0.0 
-9.274416247642e-07 1.123747739326e-03 0.0 
0.0 0.0 -1.678379068203e-04 
-1.163255558547e-04 -2.444566148571e-07 0.0 
-2.444566148571e-07 7.630787415271e-04 0.0 
0.0 0.0 -1.161597941560e-04 
-1.747594319775e-04 -4.754811496893e-07 0.0 
-4.754811496893e-07 1.171391248362e-03 0.0 
0.0 0.0 -1.746922153459e-04 
-1.547158004377e-04 -7.908026844222e-07 0.0 
-7.908026844222e-07 1.031372856638e-03 0.0 
0.0 0.0 -1.547299964433e-04 
-9.575522477032e-05 -2.469845308841e-07 0.0 
-2.469845308841e-07 6.198169541374e-04 0.0 
0.0 0.0 -9.562808392031e-05 
-1.680741224093e-04 -8.043675432309e-07 0.0 
-8.043675432309e-07 1.125048534485e-03 0.0 
0.0 0.0 -1.681755324449e-04 
-1.167097397872e-04 2.723456768357e-07 0.0 
2.723456768357e-07 7.659716634377e-04 0.0 
0.0 0.0 -1.165963749253e-04 
-1.652487966176e-04 1.494188142171e-07 0.0 
1.494188142171e-07 1.103453328263e-03 0.0 
0.0 0.0 -1.649144376955e-04 
-1.090718422596e-04 2.524371737851e-07 0.0 
2.524371737851e-07 7.103678881211e-04 0.0 
0.0 0.0 -1.086081446058e-04 
-1.357966733163e-04 -3.457047510779e-07 0.0 
-3.457047510779e-07 8.984402994021e-04 0.0 
0.0 0.0 -1.356166455148e-04 
-1.479451278654e-04 -5.197314638620e-07 0.0 
-5.197314638620e-07 9.805721187296e-04 0.0 
0.0 0.0 -1.473637189475e-04 
-1.291946076143e-04 -2.210645520769e-08 0.0 
-2.210645520769e-08 8.530967429073e-04 0.0 
0.0 0.0 -1.291232438263e-04 
-1.429493388473e-04 2.592746297642e-06 0.0 
2.592746297642e-06 9.504562516353e-04 0.0 
0.0 0.0 -1.430149859860e-04 
-1.638426906912e-04 3.884553588314e-07 0.0 
3.884553588314e-07 1.093570341671e-03 0.0 
0.0 0.0 -1.635473777094e-04 
-4.679395941113e-05 8.636054265735e-08 0.0 
8.636054265735e-08 2.742855012463e-04 0.0 
0.0 0.0 -4.607001325828e-05 
-8.578179911004e-05 -6.161056704668e-08 0.0 
-6.161056704668e-08 5.513847511004e-04 0.0 
0.0 0.0 -8.578563835690e-05 
-1.423249179194e-04 -7.804262925553e-07 0.0 
-7.804262925553e-07 9.497515173482e-04 0.0 
0.0 0.0 -1.430477210920e-04 
-1.735818036023e-04 -9.773598649861e-07 0.0 
-9.773598649861e-07 1.155171653987e-03 0.0 
0.0 0.0 -1.725878545680e-04 
-1.836468666056e-04 1.003626260766e-06 0.0 
1.003626260766e-06 1.240389692506e-03 0.0 
0.0 0.0 -1.843994436203e-04 
-1.023143520992e-04 5.423079028457e-07 0.0 
5.423079028457e-07 6.643953733865e-04 0.0 
0.0 0.0 -1.020177412065e-04 
-1.622496068517e-04 -8.321051479418e-07 0.0 
-8.321051479418e-07 1.084090239035e-03 0.0 
0.0 0.0 -1.622365463781e-04 
-1.781376606747e-04 3.555220392374e-07 0.0 
3.555220392374e-07 1.192018732814e-03 0.0 
0.0 0.0 -1.778033526228e-04 
-1.126735395111e-04 5.522608983234e-08 0.0 
5.522608983234e-08 7.397928820176e-04 0.0 
0.0 0.0 -1.128655126259e-04 
-5.035207840853e-05 5.069616719063e-07 0.0 
5.069616719063e-07 3.007678980219e-04 0.0 
0.0 0.0 -4.999657030114e-05 
-3.927566979207e-05 -3.832849885569e-07 0.0 
-3.832849885569e-07 2.313033145196e-04 0.0 
0.0 0.0 -3.982249606560e-05 
-7.656825341724e-05 3.679510810453e-07 0.0 
3.679510810453e-07 4.857975545201e-04 0.0 
0.0 0.0 -7.638798348873e-05 
-1.174853009841e-04 -1.483166653212e-09 0.0 
-1.483166653212e-09 7.706480780895e-04 0.0 
0.0 0.0 -1.172617294919e-04 
-1.226008469953e-04 -1.659916804789e-07 0.0 
-1.659916804789e-07 8.085563299237e-04 0.0 
0.0 0.0 -1.227254861441e-04 
-1.869186648422e-04 1.288893444476e-06 0.0 
1.288893444476e-06 1.255438194585e-03 0.0 
0.0 0.0 -1.863413058393e-04 
-1.661774130078e-04 -5.668139200529e-07 0.0 
-5.668139200529e-07 1.113816736532e-03 0.0 
0.0 0.0 -1.665279681784e-04 
-1.561062454374e-04 -1.032747631753e-06 0.0 
-1.032747631753e-06 1.041295622328e-03 0.0 
0.0 0.0 -1.561285722757e-04 
-2.290814551487e-05 1.131949368257e-06 0.0 
1.131949368257e-06 1.115970032557e-04 0.0 
0.0 0.0 -2.279054486229e-05 
-1.065384879856e-04 1.371781238190e-06 0.0 
1.371781238190e-06 6.979852258937e-04 0.0 
0.0 0.0 -1.068955660026e-04 
-1.703396393732e-04 -6.320212589166e-07 0.0 
-6.320212589166e-07 1.144009893404e-03 0.0 
0.0 0.0 -1.708611002394e-04 
-1.234023393735e-04 -2.265061210126e-07 0.0 
-2.265061210126e-07 8.130545487096e-04 0.0 
0.0 0.0 -1.233545184740e-04 
-1.695777077806e-04 2.106230318132e-07 0.0 
2.106230318132e-07 1.131440026902e-03 0.0 
0.0 0.0 -1.690088035303e-04 
-1.159592254194e-04 -1.383338685155e-07 0.0 
-1.383338685155e-07 7.703209590687e-04 0.0 
0.0 0.0 -1.172687467652e-04 
-1.871117190239e-04 -1.386491014739e-06 0.0 
-1.386491014739e-06 1.261256540934e-03 0.0 
0.0 0.0 -1.874631276173e-04 
-8.657535319631e-05 1.579232664336e-06 0.0 
1.579232664336e-06 5.555478256840e-04 0.0 
0.0 0.0 -8.636364963772e-05 
-1.755150914368e-04 -6.889429931339e-07 0.0 
-6.889429931339e-07 1.176166452702e-03 0.0 
0.0 0.0 -1.753185131199e-04 
-1.573111243631e-04 1.063973160771e-06 0.0 
1.063973160771e-06 1.048972338121e-03 0.0 
0.0 0.0 -1.571178519447e-04 
-7.892866904534e-05 2.863749736169e-07 0.0 
2.863749736169e-07 5.022036140890e-04 0.0 
0.0 0.0 -7.873003997367e-05 
-1.124601082612e-04 5.668543912746e-07 0.0 
5.668543912746e-07 7.365972072198e-04 0.0 
0.0 0.0 -1.124710309571e-04 
-1.868644922347e-04 1.000849535727e-06 0.0 
1.000849535727e-06 1.255765804165e-03 0.0 
0.0 0.0 -1.865710734017e-04 
-1.676555622800e-04 3.291135704865e-07 0.0 
3.291135704865e-07 1.118261925556e-03 0.0 
0.0 0.0 -1.671813732751e-04 
-1.386017071923e-04 -1.797723160641e-07 0.0 
-1.797723160641e-07 9.191547604494e-04 0.0 
0.0 0.0 -1.386052031399e-04 
-1.179182420809e-04 -1.397755678998e-07 0.0 
-1.397755678998e-07 7.747023837777e-04 0.0 
0.0 0.0 -1.178542631832e-04 
-9.266051543288e-05 -1.427667931752e-06 0.0 
-1.427667931752e-06 5.998378060181e-04 0.0 
0.0 0.0 -9.287066260160e-05 
-1.268908472920e-04 -2.992571917759e-07 0.0 
-2.992571917759e-07 8.385766200168e-04 0.0 
0.0 0.0 -1.270155650522e-04 
-1.412610616596e-04 -7.070516204547e-07 0.0 
-7.070516204547e-07 9.356355867827e-04 0.0 
0.0 0.0 -1.409283708239e-04 
-1.952715328492e-04 2.648146111005e-07 0.0 
2.648146111005e-07 1.320373790754e-03 0.0 
0.0 0.0 -1.960333646234e-04 
-1.736029799723e-04 -4.830607358397e-07 0.0 
-4.830607358397e-07 1.152851948528e-03 0.0 
0.0 0.0 -1.722934252721e-04 
-1.452011068003e-04 -1.075773922609e-06 0.0 
-1.075773922609e-06 9.666398033647e-04 0.0 
0.0 0.0 -1.454499006876e-04 
-1.212938627555e-04 -3.882932393123e-07 0.0 
-3.882932393123e-07 7.997072957628e-04 0.0 
0.0 0.0 -1.214615911284e-04 
-1.463822189693e-04 -1.900321700035e-07 0.0 
-1.900321700035e-07 9.728037690076e-04 0.0 
0.0 0.0 -1.462476041952e-04 
-2.746226357204e-05 -9.271388711199e-07 0.0 
-9.271388711199e-07 1.571302735165e-04 0.0 
0.0 0.0 -2.955133849294e-05 
-9.672248826247e-05 7.266615167991e-07 0.0 
7.266615167991e-07 6.276593153662e-04 0.0 
0.0 0.0 -9.671433789260e-05 
-1.257056545510e-04 -4.990050790240e-07 0.0 
-4.990050790240e-07 8.296358928903e-04 0.0 
0.0 0.0 -1.257347134077e-04 
-8.071247393308e-05 8.458441046789e-08 0.0 
8.458441046789e-08 5.152581703620e-04 0.0 
0.0 0.0 -8.061844590833e-05 
-1.221886675709e-04 -7.908405440200e-08 0.0 
-7.908405440200e-08 8.040667053497e-04 0.0 
0.0 0.0 -1.220458434280e-04 
-1.840762203294e-04 1.915177188951e-06 0.0 
1.915177188951e-06 1.245437645367e-03 0.0 
0.0 0.0 -1.851416939921e-04 
-1.301442044184e-04 -3.060279266349e-07 0.0 
-3.060279266349e-07 8.596681305344e-04 0.0 
0.0 0.0 -1.300328051442e-04 
-9.031994090937e-05 -2.080257032607e-07 0.0 
-2.080257032607e-07 5.822092092616e-04 0.0 
0.0 0.0 -9.022896017931e-05 
-1.344673763446e-04 9.830708816544e-08 0.0 
9.830708816544e-08 8.894298640129e-04 0.0 
0.0 0.0 -1.343397272354e-04 
-8.268637292058e-05 -8.113913653825e-07 0.0 
-8.113913653825e-07 5.290888140562e-04 0.0 
0.0 0.0 -8.279832518349e-05 
-1.497839366065e-04 -1.523194842093e-06 0.0 
-1.523194842093e-06 9.970276981604e-04 0.0 
0.0 0.0 -1.497490155909e-04 
-1.382259707113e-04 2.110689173293e-08 0.0 
2.110689173293e-08 9.185304756848e-04 0.0 
0.0 0.0 -1.386530088269e-04 
-1.506650140695e-04 -9.263316559379e-07 0.0 
-9.263316559379e-07 1.001955608578e-03 0.0 
0.0 0.0 -1.504726885606e-04 
-3.022468714226e-05 -2.973636621545e-06 0.0 
-2.973636621545e-06 1.677942898081e-04 0.0 
0.0 0.0 -3.060483068446e-05 
-1.428673620023e-04 -2.398732156920e-07 0.0 
-2.398732156920e-07 9.482366823991e-04 0.0 
0.0 0.0 -1.427619920137e-04 
-1.726984643621e-04 1.345553639607e-06 0.0 
1.345553639607e-06 1.160671593896e-03 0.0 
0.0 0.0 -1.733128613594e-04 
-8.463363897670e-05 6.078796328986e-07 0.0 
6.078796328986e-07 5.444031302841e-04 0.0 
0.0 0.0 -8.481515710027e-05 
-1.264518580475e-04 2.684568646022e-07 0.0 
2.684568646022e-07 8.338232778496e-04 0.0 
0.0 0.0 -1.263048705811e-04 
-1.596353680421e-04 -9.131275579434e-07 0.0 
-9.131275579434e-07 1.065304755547e-03 0.0 
0.0 0.0 -1.595480372087e-04 
-7.302589173434e-05 -3.183424354861e-06 0.0 
-3.183424354861e-06 4.574500906094e-04 0.0 
0.0 0.0 -7.259764510955e-05 
-1.362250571880e-04 3.623633479393e-08 0.0 
3.623633479393e-08 9.021775671400e-04 0.0 
0.0 0.0 -1.361198740657e-04 
-1.602145110429e-04 -8.362565613447e-07 0.0 
-8.362565613447e-07 1.068772108230e-03 0.0 
0.0 0.0 -1.600932078566e-04 
-1.471273090538e-04 7.392924497514e-07 0.0 
7.392924497514e-07 9.780830439502e-04 0.0 
0.0 0.0 -1.470264431059e-04 
-1.270633471131e-04 1.102546760646e-07 0.0 
1.102546760646e-07 8.375443541897e-04 0.0 
0.0 0.0 -1.268359787636e-04 
-1.460791581632e-04 -2.407797944152e-07 0.0 
-2.407797944152e-07 9.714799924540e-04 0.0 
0.0 0.0 -1.460739326938e-04 
-7.660927585480e-05 2.589062603143e-06 0.0 
2.589062603143e-06 4.833163137169e-04 0.0 
0.0 0.0 -7.585562978697e-05 
-6.337475630904e-05 1.248073807384e-06 0.0 
1.248073807384e-06 3.958823544252e-04 0.0 
0.0 0.0 -6.357697056388e-05 
-5.388339958482e-05 2.895282728563e-07 0.0 
2.895282728563e-07 3.277752654746e-04 0.0 
0.0 0.0 -5.379270529687e-05 
-9.451957039609e-05 -2.935916480428e-07 0.0 
-2.935916480428e-07 6.114923592848e-04 0.0 
0.0 0.0 -9.441947030406e-05 
-1.655470867204e-04 -4.270866697214e-07 0.0 
-4.270866697214e-07 1.106817959118e-03 0.0 
0.0 0.0 -1.654622947108e-04 
-3.839223720892e-05 -3.449317819975e-06 0.0 
-3.449317819975e-06 2.174158836143e-04 0.0 
0.0 0.0 -3.781821007497e-05 
-1.582398840472e-04 -1.211336256148e-06 0.0 
-1.211336256148e-06 1.056196191213e-03 0.0 
0.0 0.0 -1.582347619750e-04 
-3.976493932031e-05 -1.461285902805e-06 0.0 
-1.461285902805e-06 2.310785421131e-04 0.0 
0.0 0.0 -3.990281506442e-05 
-8.912786947884e-05 -2.218013861212e-07 0.0 
-2.218013861212e-07 5.740010873261e-04 0.0 
0.0 0.0 -8.903564786089e-05 
-1.609314023663e-04 8.015374636601e-07 0.0 
8.015374636601e-07 1.078902557479e-03 0.0 
0.0 0.0 -1.615622346724e-04 
-1.398208268631e-04 -7.214897453684e-06 0.0 
-7.214897453684e-06 9.283629550766e-04 0.0 
0.0 0.0 -1.397314702741e-04 
-9.326712864409e-05 1.081123901449e-07 0.0 
1.081123901449e-07 6.029249672552e-04 0.0 
0.0 0.0 -9.316659828873e-05 
-5.971178892461e-05 1.368640181835e-06 0.0 
1.368640181835e-06 3.694230737418e-04 0.0 
0.0 0.0 -5.984927026599e-05 
-8.786689087998e-05 2.978470750166e-07 0.0 
2.978470750166e-07 5.651036338672e-04 0.0 
0.0 0.0 -8.775496813769e-05 
-1.366866866355e-04 2.012050051266e-07 0.0 
2.012050051266e-07 9.045962273325e-04 0.0 
0.0 0.0 -1.364843956035e-04 
-9.193121234076e-05 4.013204139827e-07 0.0 
4.013204139827e-07 5.938843893935e-04 0.0 
0.0 0.0 -9.187235440198e-05 
-8.634860532519e-05 5.489409565849e-07 0.0 
5.489409565849e-07 5.556459598693e-04 0.0 
0.0 0.0 -8.641257901652e-05 
-1.873076348652e-04 -8.303719696610e-07 0.0 
-8.303719696610e-07 1.255027706073e-03 0.0 
0.0 0.0 -1.864462757575e-04 
-9.029085277060e-05 7.778954920217e-07 0.0 
7.778954920217e-07 5.838501403615e-04 0.0 
0.0 0.0 -9.045572518728e-05 
-1.942906890229e-04 -1.961786413827e-06 0.0 
-1.961786413827e-06 1.320208759113e-03 0.0 
0.0 0.0 -1.958055517464e-04 
-1.946815352992e-04 -9.026625198254e-07 0.0 
-9.026625198254e-07 1.313526635210e-03 0.0 
0.0 0.0 -1.947608156509e-04 
-1.203676963192e-04 -5.252269783046e-06 0.0 
-5.252269783046e-06 7.911029022502e-04 0.0 
0.0 0.0 -1.199678325534e-04 
-6.382312409295e-05 3.317997073278e-06 0.0 
3.317997073278e-06 3.867196355365e-04 0.0 
0.0 0.0 -6.182128488093e-05 
-9.762668327602e-06 5.060945032083e-07 0.0 
5.060945032083e-07 4.694411596940e-05 0.0 
0.0 0.0 -1.015196033753e-05 
-6.438901127768e-05 -2.610876075629e-06 0.0 
-2.610876075629e-06 4.083460003589e-04 0.0 
0.0 0.0 -6.553865090092e-05 
-7.498804079240e-05 7.264952039937e-07 0.0 
7.264952039937e-07 4.774096760748e-04 0.0 
0.0 0.0 -7.520405771235e-05 
-1.574390158364e-04 7.322658693689e-08 0.0 
7.322658693689e-08 1.047023690082e-03 0.0 
0.0 0.0 -1.568628108499e-04 
-1.202462798349e-04 1.277535447616e-06 0.0 
1.277535447616e-06 7.923369076637e-04 0.0 
0.0 0.0 -1.204472570985e-04 
-6.913329999888e-05 1.518567138290e-06 0.0 
1.518567138290e-06 4.374135939075e-04 0.0 
0.0 0.0 -6.946069291118e-05 
-1.870210423738e-04 1.710341786506e-07 0.0 
1.710341786506e-07 1.262084104717e-03 0.0 
0.0 0.0 -1.875139937252e-04 
-1.961583819331e-04 -2.514147813671e-06 0.0 
-2.514147813671e-06 1.318669280984e-03 0.0 
0.0 0.0 -1.960106588935e-04 
-1.542863799404e-04 -1.786859133762e-06 0.0 
-1.786859133762e-06 1.026998591695e-03 0.0 
0.0 0.0 -1.543154520944e-04 
-1.744631732482e-04 2.018301688582e-06 0.0 
2.018301688582e-06 1.157934353510e-03 0.0 
0.0 0.0 -1.729253385307e-04 
-1.515018167516e-04 8.404198603290e-07 0.0 
8.404198603290e-07 1.010295705910e-03 0.0 
0.0 0.0 -1.515893794002e-04 
-1.789376768634e-04 -2.919640014592e-06 0.0 
-2.919640014592e-06 1.191538801034e-03 0.0 
0.0 0.0 -1.778575971036e-04 
-1.110411603683e-04 -8.342356804498e-06 0.0 
-8.342356804498e-06 7.312796766666e-04 0.0 
0.0 0.0 -1.117662927266e-04 
-1.911119346146e-05 1.280039211139e-07 0.0 
1.280039211139e-07 9.580427244612e-05 0.0 
0.0 0.0 -1.958655518621e-05 
-1.481869069540e-04 1.615226342953e-06 0.0 
1.615226342953e-06 9.850665679094e-04 0.0 
0.0 0.0 -1.481937727541e-04 
-5.301773043500e-05 1.085407750924e-06 0.0 
1.085407750924e-06 3.130804062890e-04 0.0 
0.0 0.0 -5.155996613848e-05 
-5.287064574584e-05 8.669478230737e-08 0.0 
8.669478230737e-08 3.211142711540e-04 0.0 
0.0 0.0 -5.286758958265e-05 
-4.293484566845e-05 -2.294669534037e-07 0.0 
-2.294669534037e-07 2.490277005517e-04 0.0 
0.0 0.0 -4.248609661651e-05 
-7.457102542764e-05 4.540838739860e-07 0.0 
4.540838739860e-07 4.629980056454e-04 0.0 
0.0 0.0 -7.285240290645e-05 
-2.774703220549e-05 1.104401006757e-06 0.0 
1.104401006757e-06 1.537348123985e-04 0.0 
0.0 0.0 -2.914266538000e-05 
-4.307384339748e-05 1.329013767484e-06 0.0 
1.329013767484e-06 2.553580944067e-04 0.0 
0.0 0.0 -4.333354231935e-05 
-1.879084470079e-04 -2.749275055617e-06 0.0 
-2.749275055617e-06 1.255451133352e-03 0.0 
0.0 0.0 -1.867668077911e-04 
-1.189011343897e-04 -7.099494553202e-06 0.0 
-7.099494553202e-06 7.923665314969e-04 0.0 
0.0 0.0 -1.207517460948e-04 
-1.659393230097e-04 -1.374219794473e-06 0.0 
-1.374219794473e-06 1.113429222670e-03 0.0 
0.0 0.0 -1.665613853390e-04 
-3.293815057038e-05 1.035559240217e-06 0.0 
1.035559240217e-06 1.835663013155e-04 0.0 
0.0 0.0 -3.316239960270e-05 
-1.877702954761e-04 -2.194005982338e-06 0.0 
-2.194005982338e-06 1.259619262861e-03 0.0 
0.0 0.0 -1.871049233185e-04 
-1.875538609812e-04 9.967607666471e-07 0.0 
9.967607666471e-07 1.259292980625e-03 0.0 
0.0 0.0 -1.869913167940e-04 
-1.965092283334e-04 -2.596350880128e-06 0.0 
-2.596350880128e-06 1.320494070457e-03 0.0 
0.0 0.0 -1.959374034051e-04 
-1.758179036347e-04 -4.481197506714e-07 0.0 
-4.481197506714e-07 1.181701348802e-03 0.0 
0.0 0.0 -1.764557581508e-04 
-3.270582193410e-05 -4.386817373035e-07 0.0 
-4.386817373035e-07 1.770411407639e-04 0.0 
0.0 0.0 -3.195907242369e-05 
-1.266388969174e-04 -6.538610975457e-06 0.0 
-6.538610975457e-06 8.502071903162e-04 0.0 
0.0 0.0 -1.290525119649e-04 
-1.885161697494e-04 -1.408082556477e-06 0.0 
-1.408082556477e-06 1.262346972473e-03 0.0 
0.0 0.0 -1.876241058639e-04 
-1.609443742117e-04 -4.613026983514e-07 0.0 
-4.613026983514e-07 1.083073354588e-03 0.0 
0.0 0.0 -1.620379724609e-04 
-1.949934473796e-04 8.861010983955e-06 0.0 
8.861010983955e-06 1.323301005755e-03 0.0 
0.0 0.0 -1.964977576321e-04 
-1.170915995552e-04 -2.526672373362e-07 0.0 
-2.526672373362e-07 7.818822557443e-04 0.0 
0.0 0.0 -1.196852915840e-04 
-1.881251343584e-04 1.719532540905e-06 0.0 
1.719532540905e-06 1.262091246564e-03 0.0 
0.0 0.0 -1.879162412457e-04 
-4.159837246659e-05 -1.872810599717e-06 0.0 
-1.872810599717e-06 2.367903641582e-04 0.0 
0.0 0.0 -4.105708941867e-05 
-1.880384365163e-04 2.724632523543e-06 0.0 
2.724632523543e-06 1.261692801511e-03 0.0 
0.0 0.0 -1.881249298770e-04 
-1.672657211226e-04 -3.803404194110e-07 0.0 
-3.803404194110e-07 1.114623838802e-03 0.0 
0.0 0.0 -1.665474363985e-04 
-1.318213223878e-04 4.430076983304e-06 0.0 
4.430076983304e-06 8.772776289306e-04 0.0 
0.0 0.0 -1.326022361065e-04 
-1.268048282990e-04 1.914164460218e-06 0.0 
1.914164460218e-06 8.466567585872e-04 0.0 
0.0 0.0 -1.285548941949e-04 
-1.877454760479e-04 1.284504322459e-06 0.0 
1.284504322459e-06 1.264298494462e-03 0.0 
0.0 0.0 -1.884505761775e-04 
-1.888991999446e-04 -3.702937246346e-06 0.0 
-3.702937246346e-06 1.261816131107e-03 0.0 
0.0 0.0 -1.874258164109e-04 
-2.628632611275e-05 2.399677637308e-06 0.0 
2.399677637308e-06 1.387230862011e-04 0.0 
0.0 0.0 -2.654059898772e-05 
-1.521013519928e-04 5.577678305588e-06 0.0 
5.577678305588e-06 1.024057332589e-03 0.0 
0.0 0.0 -1.536536413446e-04 
-9.055668035440e-05 -2.892025472723e-06 0.0 
-2.892025472723e-06 5.805249846311e-04 0.0 
0.0 0.0 -8.976434653209e-05 
-1.704710855302e-05 -3.458702652501e-06 0.0 
-3.458702652501e-06 8.989110359220e-05 0.0 
0.0 0.0 -1.808546165336e-05 
-1.884986873262e-04 5.724623714394e-06 0.0 
5.724623714394e-06 1.260552726885e-03 0.0 
0.0 0.0 -1.874281668734e-04 
-1.771946189262e-04 -2.402253146536e-07 0.0 
-2.402253146536e-07 1.178369612400e-03 0.0 
0.0 0.0 -1.758283601128e-04 
-1.891214672248e-04 5.594443250151e-06 0.0 
5.594443250151e-06 1.262060829366e-03 0.0 
0.0 0.0 -1.877794506222e-04 
-3.041019390796e-05 4.063728315188e-06 0.0 
4.063728315188e-06 1.568790135595e-04 0.0 
0.0 0.0 -2.929729011833e-05 
-1.923826485663e-05 2.395451325704e-06 0.0 
2.395451325704e-06 8.936390066832e-05 0.0 
0.0 0.0 -1.909551055642e-05 
-1.897110782286e-04 1.614204189851e-06 0.0 
1.614204189851e-06 1.273238434675e-03 0.0 
0.0 0.0 -1.887784298001e-04 
-1.886445185701e-04 1.051783953079e-06 0.0 
1.051783953079e-06 1.269174095551e-03 0.0 
0.0 0.0 -1.885660222491e-04 
-4.447382147791e-05 2.187152848341e-06 0.0 
2.187152848341e-06 2.726065505036e-04 0.0 
0.0 0.0 -4.552470986649e-05 
-1.972951013402e-04 -6.924320481765e-07 0.0 
-6.924320481765e-07 1.331208438024e-03 0.0 
0.0 0.0 -1.972065251748e-04 
-1.846003121508e-05 -1.622840747709e-06 0.0 
-1.622840747709e-06 8.564597044111e-05 0.0 
0.0 0.0 -1.843810201100e-05 
-1.091119861245e-04 9.275684085525e-07 0.0 
9.275684085525e-07 7.216506540820e-04 0.0 
0.0 0.0 -1.108446562541e-04 
-1.806806328908e-05 -2.788761483685e-06 0.0 
-2.788761483685e-06 9.325750213385e-05 0.0 
0.0 0.0 -1.871126948293e-05 
-1.949690694268e-04 -7.776605200528e-06 0.0 
-7.776605200528e-06 1.321740719942e-03 0.0 
0.0 0.0 -1.962797183211e-04 
-1.894401262255e-04 3.666748622647e-06 0.0 
3.666748622647e-06 1.266754761130e-03 0.0 
0.0 0.0 -1.882268625302e-04 
-9.871077405525e-05 5.581959752057e-06 0.0 
5.581959752057e-06 6.396670141167e-04 0.0 
0.0 0.0 -9.846769932235e-05 
-1.118450688366e-04 4.156485273902e-06 0.0 
4.156485273902e-06 7.411970212637e-04 0.0 
0.0 0.0 -1.131213240816e-04 
-6.675482278899e-05 2.746646028006e-06 0.0 
2.746646028006e-06 4.187062855815e-04 0.0 
0.0 0.0 -6.639636993191e-05 
-1.817394697373e-04 5.968977030046e-06 0.0 
5.968977030046e-06 1.213512747672e-03 0.0 
0.0 0.0 -1.805248368263e-04 
-2.549001927232e-05 1.681293934372e-06 0.0 
1.681293934372e-06 1.416935565870e-04 0.0 
0.0 0.0 -2.765034433090e-05 
-1.904991185222e-04 -2.176372463226e-06 0.0 
-2.176372463226e-06 1.275606109758e-03 0.0 
0.0 0.0 -1.890445337758e-04 
-1.902901370943e-04 -9.239913511016e-07 0.0 
-9.239913511016e-07 1.276413630327e-03 0.0 
0.0 0.0 -1.892125449932e-04 
-1.899738152617e-04 1.392000637092e-06 0.0 
1.392000637092e-06 1.275351249225e-03 0.0 
0.0 0.0 -1.890927655262e-04 
-1.980969591010e-04 1.747220192359e-07 0.0 
1.747220192359e-07 1.334413570643e-03 0.0 
0.0 0.0 -1.976588442224e-04 
-1.595876566451e-05 5.109996014523e-06 0.0 
5.109996014523e-06 8.560533841461e-05 0.0 
0.0 0.0 -1.829422046362e-05 
-1.907894524984e-04 -1.453289198630e-06 0.0 
-1.453289198630e-06 1.278087489939e-03 0.0 
0.0 0.0 -1.894635324722e-04 
-1.817965180967e-04 4.689820275562e-06 0.0 
4.689820275562e-06 1.212613848096e-03 0.0 
0.0 0.0 -1.803359864353e-04 
-1.117957005377e-04 6.977421344692e-06 0.0 
6.977421344692e-06 7.320600126907e-04 0.0 
0.0 0.0 -1.115961672155e-04 
-1.879277561833e-04 6.009601527580e-06 0.0 
6.009601527580e-06 1.263394424764e-03 0.0 
0.0 0.0 -1.878861552790e-04 
-8.116031042482e-05 4.154281404345e-06 0.0 
4.154281404345e-06 5.182033185543e-04 0.0 
0.0 0.0 -8.075837133452e-05 
-3.557600018319e-05 -6.705160068937e-06 0.0 
-6.705160068937e-06 2.127372360934e-04 0.0 
0.0 0.0 -3.738032741976e-05 
-1.948498336035e-04 -4.155697267809e-06 0.0 
-4.155697267809e-06 1.324960786423e-03 0.0 
0.0 0.0 -1.970235340649e-04 
-6.441570103541e-06 -6.279015523928e-07 0.0 
-6.279015523928e-07 3.480654244499e-05 0.0 
0.0 0.0 -7.946641316233e-06 
-1.120604214633e-04 -3.288397658700e-06 0.0 
-3.288397658700e-06 7.283085618337e-04 0.0 
0.0 0.0 -1.110361655408e-04 
-1.968531726492e-04 6.196640298584e-06 0.0 
6.196640298584e-06 1.326994606246e-03 0.0 
0.0 0.0 -1.970239266115e-04 
-3.317100676700e-05 -5.514460053326e-07 0.0 
-5.514460053326e-07 2.002819803963e-04 0.0 
0.0 0.0 -3.602866455310e-05 
-1.267924167818e-04 -3.909643930437e-06 0.0 
-3.909643930437e-06 8.405854862832e-04 0.0 
0.0 0.0 -1.273445728183e-04 
-1.883260687280e-04 -1.377902224742e-06 0.0 
-1.377902224742e-06 1.272138406880e-03 0.0 
0.0 0.0 -1.890317804362e-04 
-1.203896409836e-04 1.438809671102e-06 0.0 
1.438809671102e-06 7.891647527459e-04 0.0 
0.0 0.0 -1.197994443266e-04 
-1.726861375007e-04 -9.127303948545e-06 0.0 
-9.127303948545e-06 1.150354645725e-03 0.0 
0.0 0.0 -1.722668051730e-04 
-3.289244603068e-05 1.865001967380e-06 0.0 
1.865001967380e-06 1.965766441920e-04 0.0 
0.0 0.0 -3.568834104832e-05 
-5.881706171023e-06 -3.561904745218e-07 0.0 
-3.561904745218e-07 3.491879089690e-05 0.0 
0.0 0.0 -7.282502801701e-06 
-1.446887067247e-04 -6.124654101547e-06 0.0 
-6.124654101547e-06 9.637426034631e-04 0.0 
0.0 0.0 -1.450319398739e-04 
-1.900119233844e-04 5.405432627128e-06 0.0 
5.405432627128e-06 1.271140965081e-03 0.0 
0.0 0.0 -1.888071511890e-04 
-1.907231428786e-04 -2.479170288195e-06 0.0 
-2.479170288195e-06 1.279898250331e-03 0.0 
0.0 0.0 -1.895996551150e-04 
-1.374681624272e-04 5.948461411176e-06 0.0 
5.948461411176e-06 9.167037354941e-04 0.0 
0.0 0.0 -1.379940178424e-04 
-3.140963832924e-05 -6.998474457374e-06 0.0 
-6.998474457374e-06 1.796728179544e-04 0.0 
0.0 0.0 -3.246938559274e-05 
-1.841130626501e-04 1.475194732939e-06 0.0 
1.475194732939e-06 1.232968589940e-03 0.0 
0.0 0.0 -1.831558075192e-04 
-1.038243241623e-04 -4.078507790945e-07 0.0 
-4.078507790945e-07 6.921885952500e-04 0.0 
0.0 0.0 -1.059090906887e-04 
-1.833573372240e-04 -2.325322525301e-06 0.0 
-2.325322525301e-06 1.222189390314e-03 0.0 
0.0 0.0 -1.813408670945e-04 
-1.831720387608e-04 -1.195237391826e-06 0.0 
-1.195237391826e-06 1.215102366402e-03 0.0 
0.0 0.0 -1.805709848148e-04 
-8.505788794989e-06 -2.657547953589e-06 0.0 
-2.657547953589e-06 3.877580200424e-05 0.0 
0.0 0.0 -9.674067485877e-06 
-1.292364309074e-04 2.864479089253e-06 0.0 
2.864479089253e-06 8.498544276161e-04 0.0 
0.0 0.0 -1.284404431535e-04 
-1.837715794025e-05 -4.476436000323e-06 0.0 
-4.476436000323e-06 8.791465953263e-05 0.0 
0.0 0.0 -1.834574975625e-05 
-1.906256035079e-04 -2.900280215013e-06 0.0 
-2.900280215013e-06 1.276520367600e-03 0.0 
0.0 0.0 -1.895571240875e-04 
-1.101124519025e-04 -2.003731999075e-06 0.0 
-2.003731999075e-06 7.232878293546e-04 0.0 
0.0 0.0 -1.101665449339e-04 
-9.365578018542e-05 -5.123106788481e-06 0.0 
-5.123106788481e-06 6.406375368200e-04 0.0 
0.0 0.0 -9.801471985063e-05 
-1.009998970260e-04 5.583373135514e-06 0.0 
5.583373135514e-06 6.372022866514e-04 0.0 
0.0 0.0 -9.900000000000e-05 

SCALARS node_materi_plasti_kappa_shear float
LOOKUP_TABLE default
1.731369050501e-05
4.545550431279e-04
8.879540853347e-04
8.885778472785e-04
4.289921439406e-05
9.327668990988e-05
1.307750198866e-04
1.795624514288e-04
2.257201379956e-04
2.695509172566e-04
3.144422750007e-04
3.602182894153e-04
4.054873038985e-04
4.525148308088e-04
5.038541824835e-04
5.495995247736e-04
5.862111262393e-04
6.342650658053e-04
6.814841447557e-04
7.273130426230e-04
7.742201728224e-04
8.215906888973e-04
8.669064806701e-04
8.898091793777e-04
8.888004860446e-04
8.881476431534e-04
8.886611550675e-04
8.873292207379e-04
8.873796625285e-04
8.877145688059e-04
8.882991997087e-04
8.891081577287e-04
8.895674516381e-04
8.882569121584e-04
8.886773248083e-04
8.897614672626e-04
8.893270601288e-04
8.879317372578e-04
8.867155421259e-04
8.860750537291e-04
8.875036930769e-04
8.888199397314e-04
8.889528056051e-04
8.891193998000e-04
8.889269682470e-04
8.885711942667e-04
8.881774963459e-04
8.893558715016e-04
8.892926716100e-04
8.896475655307e-04
8.895391621796e-04
8.902345752378e-04
8.910618100376e-04
8.908268286946e-04
8.883017444199e-04
8.870033247228e-04
8.889101297818e-04
8.887178507321e-04
8.889749525521e-04
8.891814831339e-04
8.887055024058e-04
8.873576980910e-04
8.876113339264e-04
8.880420548052e-04
8.897938021992e-04
8.907165225604e-04
8.860205656141e-04
8.893069775074e-04
8.887535151655e-04
8.885180406596e-04
8.909163501420e-04
8.913403494152e-04
4.970460226215e-04
5.465414378926e-04
5.921313660911e-04
6.364287587029e-04
6.825537522220e-04
7.278134995944e-04
7.735342273327e-04
8.173136017165e-04
8.659377019958e-04
1.387818063272e-05
4.539930109995e-04
5.438054036256e-05
1.009772649362e-04
1.470854780186e-04
1.881787348830e-04
2.342110044356e-04
2.805023773078e-04
3.270022495898e-04
3.726887416449e-04
4.180834580760e-04
4.267745106801e-04
4.461572723987e-04
4.482375507592e-04
4.489251939510e-04
4.482810220245e-04
4.560054951225e-04
4.490487455221e-04
4.479848053994e-04
4.491487522400e-04
4.505166080725e-04
4.507339705437e-04
4.500429840668e-04
4.496777136800e-04
4.491474461797e-04
4.502737102712e-04
1.443236451681e-05
1.609184950888e-05
1.444777850682e-05
1.445196928896e-05
1.742545827470e-05
1.883427368882e-05
1.852391460304e-05
1.764215548380e-05
1.771561269883e-05
1.733046749832e-05
1.810073159381e-05
2.048990176091e-05
1.919122443325e-05
1.606222747872e-05
1.631184331598e-05
1.838276961406e-05
1.899682157401e-05
1.674761483558e-05
1.515472777583e-05
4.134656553796e-04
4.324464575405e-04
4.338718040053e-04
4.329685026616e-04
4.335074160633e-04
4.338290510629e-04
4.332608447337e-04
4.332014766623e-04
4.329170849220e-04
4.331067844698e-04
4.328435292155e-04
4.327062809056e-04
4.332754303116e-04
4.322781172530e-04
4.295896830131e-04
4.252570581129e-04
3.439412955423e-05
7.855211595374e-05
1.235371244525e-04
1.701785260397e-04
2.135457077895e-04
2.587899329113e-04
3.042620563587e-04
3.496733626300e-04
3.958624683012e-04
4.294874690960e-04
1.065540971725e-04
8.722366970816e-04
3.071877777411e-05
2.955753103127e-05
8.728796448070e-04
1.993419400918e-04
4.786993620079e-04
8.715410235368e-04
2.838574358308e-04
8.733046452918e-04
3.784478368563e-04
8.750925786310e-04
2.796371051266e-05
8.736269387388e-04
4.733271556655e-04
2.936877367691e-04
6.035474916514e-04
8.717572086584e-04
8.738199405046e-04
8.737494710065e-04
8.696287808285e-04
8.750806370792e-04
4.919558859900e-04
4.918398764199e-04
4.949307231399e-04
6.589482462508e-04
8.738674271820e-04
2.813705699443e-05
3.195365789908e-05
7.486411905949e-04
4.900146372998e-04
1.541367175474e-04
8.655890379535e-04
8.755682138923e-04
8.730973644309e-04
8.703784410466e-04
8.740973276145e-04
3.187356296986e-05
4.907091952207e-04
8.662583448290e-04
7.508115515426e-04
3.074176072344e-05
3.834518994422e-04
8.815314034000e-04
2.457863140164e-04
1.527805289882e-04
3.313833785311e-04
4.244970235113e-04
5.636808983146e-05
5.718052096935e-04
8.819662471530e-04
3.001251584579e-05
8.373343036417e-04
4.924452570696e-04
5.108818745462e-04
5.332387487364e-04
5.560142054344e-04
5.787643014481e-04
5.991259251811e-04
5.752635265182e-04
6.186942134972e-04
5.944516730932e-04
6.231926228760e-04
6.380835551574e-04
6.135840024034e-04
6.573144048118e-04
6.328089844586e-04
5.894129404994e-04
6.085043193505e-04
5.651248587261e-04
5.842235601993e-04
6.277370129424e-04
6.033008816137e-04
5.598285256637e-04
5.787470750074e-04
5.354343962972e-04
5.543066005167e-04
5.109771159406e-04
5.298843866556e-04
5.732568666387e-04
5.488106401567e-04
5.054467442157e-04
5.243830125588e-04
4.810781478793e-04
4.998224426771e-04
5.432974154275e-04
5.187745459682e-04
4.750268661506e-04
4.942061513858e-04
4.503195040673e-04
4.696890934292e-04
4.255957344176e-04
4.448505048632e-04
4.889334273357e-04
4.641717549476e-04
4.199472596373e-04
4.391094936345e-04
4.834394634788e-04
4.583112576687e-04
5.027462790146e-04
4.776197235482e-04
4.333642288832e-04
4.526081348578e-04
4.969211450957e-04
4.717210733978e-04
4.275809977385e-04
4.467222286567e-04
4.910180813087e-04
4.658552900682e-04
4.216677957086e-04
4.408729284411e-04
4.853895838457e-04
4.600318407553e-04
4.156094397672e-04
4.346988666159e-04
4.795014301536e-04
4.538188443789e-04
4.989809666093e-04
4.088754149089e-04
4.280167623937e-04
3.828819013324e-04
4.021805478246e-04
5.624042399684e-04
3.568746175437e-04
3.381624883378e-04
3.763715402787e-04
4.219792148569e-04
3.309364607346e-04
3.505799184385e-04
3.052633941203e-04
4.056941669208e-04
6.469586485139e-04
3.250320809889e-04
2.796631607038e-04
2.599302819126e-04
2.342013255709e-04
6.036748186582e-04
6.482174305303e-04
6.269535787043e-04
6.731337752938e-04
6.527067380216e-04
2.538439629180e-04
6.821261244064e-04
6.930466000945e-04
5.166862193674e-04
4.621843229341e-04
5.278976428177e-04
3.703184973448e-04
3.451321418538e-04
3.906862459586e-04
5.246371866953e-04
5.443146240762e-04
5.699547953913e-04
5.897069522285e-04
6.153672919097e-04
6.351883362805e-04
6.094609170451e-04
6.550126832139e-04
6.292102542344e-04
6.608318434088e-04
6.410047653727e-04
6.747478106556e-04
6.489569127364e-04
6.944404496434e-04
6.686255413523e-04
6.230894205853e-04
6.427296395524e-04
5.974326100299e-04
5.473118415211e-04
5.725790691740e-04
5.920079111204e-04
6.173889614791e-04
6.368362109388e-04
6.623309645012e-04
6.816599341203e-04
6.563140336921e-04
6.764880034757e-04
3.948980065668e-04
3.757422617964e-04
3.507921955189e-04
3.317100384563e-04
3.067998146490e-04
2.878591714287e-04
2.628952814348e-04
2.817770972622e-04
2.377365497028e-04
2.565509120403e-04
2.123913595215e-04
2.311386405196e-04
5.922576399657e-04
6.427827676104e-04
6.878682679612e-04
6.678822000469e-04
2.148067718258e-04
6.882180801932e-04
6.864985118878e-04
6.664359755593e-04
7.013124766121e-04
2.087760264216e-04
2.441964081010e-04
2.687157839923e-04
6.978563593589e-04
6.772610625539e-04
7.121601343833e-04
2.283568469402e-04
7.006628053783e-04
1.937776703377e-04
6.622880887680e-04
7.078272471647e-04
5.837558227301e-04
7.131417687538e-04
6.924127382572e-04
2.759772220359e-04
2.508908842006e-04
2.067202652783e-04
2.273131006144e-04
2.708850174899e-04
2.448672349258e-04
1.998980645288e-04
2.191272268305e-04
2.639108306055e-04
2.381925193768e-04
1.928266391849e-04
2.123220651939e-04
7.337275495344e-04
1.682265145296e-04
5.462050413710e-04
7.318865140830e-04
7.261568958084e-04
7.225832230558e-04
7.021288971227e-04
6.565124913041e-04
6.819655065462e-04
7.275032532752e-04
7.072262295564e-04
6.616628008332e-04
6.865235503483e-04
6.407465733666e-04
6.657182290584e-04
7.113460086993e-04
6.908411643582e-04
6.453255735266e-04
6.702622678794e-04
6.246789880058e-04
6.489319520512e-04
6.952190037192e-04
1.840273521277e-04
6.759567359458e-04
7.214607443990e-04
3.679720332759e-04
4.092817550487e-04
4.360686121869e-04
4.564588720529e-04
6.740705970757e-04
7.205777350965e-04
2.252804046805e-04
2.496360743898e-04
7.429139095365e-04
6.823424879044e-04
6.366049028177e-04
4.378451378818e-04
4.188880438557e-04
3.943752891281e-04
3.748640538969e-04
4.003452629813e-04
3.498940421147e-04
6.207438251872e-04
7.364909888472e-04
2.405871186206e-04
1.954370079604e-04
7.282805554458e-04
6.308606560243e-04
6.167686675708e-04
6.359024740526e-04
6.606418547102e-04
6.798245018957e-04
7.048195630290e-04
7.239151784800e-04
6.995250348688e-04
7.376440826471e-04
7.439657402355e-04
6.261993285558e-04
6.226819723499e-04
2.832721408126e-04
1.644730842850e-04
1.669301588230e-04
2.020973455329e-04
2.478170423544e-04
7.577119654081e-04
7.492733009352e-04
7.294398050137e-04
3.569060949549e-04
3.819409900850e-04
7.577870500628e-04
6.069742862614e-04
6.160208837846e-04
5.947078797033e-04
1.502552835390e-04
1.472236624068e-04
7.528104372185e-04
2.930236053531e-04
2.739490413792e-04
1.500905215988e-04
1.240537225359e-04
6.973593058681e-04
7.439041173789e-04
4.813505419260e-04
5.017144862584e-04
7.379119109570e-04
1.870277448814e-04
7.663141417339e-04
6.508032487137e-04
6.054849935165e-04
4.293291398523e-04
2.069471688254e-04
1.825426121622e-04
3.087667916428e-04
2.317056376954e-04
2.217281548421e-04
7.833146767017e-04
7.725249111761e-04
7.195048383756e-04
6.747855449436e-04
7.634484368176e-04
1.418552388890e-04
7.784896772250e-04
7.030108063973e-04
7.725824598691e-04
7.540604595901e-04
3.171474948001e-04
2.987852970653e-04
2.558668176592e-04
2.815832131691e-04
5.513698858348e-04
3.420076733765e-04
5.219255427951e-04
5.030668813377e-04
4.792452590639e-04
4.247335201093e-04
4.063236056300e-04
3.563244576484e-04
5.530404887445e-04
4.617109805981e-04
5.777394579271e-04
5.501611182387e-04
7.566237315057e-04
7.823745579098e-04
5.997434588477e-04
5.780237946273e-04
1.697495562144e-04
1.508805515530e-04
5.186529117619e-04
7.516991623626e-04
7.672690893153e-04
7.876001356161e-04
7.626509320592e-04
7.627778325953e-04
3.699499845101e-04
5.666666454918e-04
1.438245311811e-04
5.868006376027e-04
1.247175489974e-04
6.713548583210e-04
7.483917891977e-04
7.736774679398e-04
7.821572245300e-04
4.899015071153e-04
6.061770746779e-04
5.817931729753e-04
4.605724853742e-04
4.370223372958e-04
4.552736079605e-04
4.133656439147e-04
3.276923247088e-04
3.020339028758e-04
7.979659689173e-04
7.883460447530e-04
7.982408092042e-04
7.795524967649e-04
8.013069214063e-04
7.771428291274e-04
2.665794004092e-04
3.640873967819e-04
7.971681631113e-04
4.838853975756e-04
7.968536680471e-04
7.720983615569e-04
9.810668217613e-05
1.158569237012e-04
7.915840785144e-04
2.380574401883e-04
2.618006099049e-04
2.132008951495e-04
8.415052523991e-04
4.886663809025e-04
7.934056144555e-04
4.492884086887e-04
8.130387548701e-04
6.261760504981e-04
4.125814814439e-04
7.178732318399e-04
7.666642762268e-04
8.185709815988e-04
5.696834584242e-04
5.469719599133e-04
5.897324846543e-04
1.746640571462e-04
1.267235960322e-04
7.616042996353e-04
3.196076646027e-04
3.449992437643e-04
2.048866664362e-04
2.493062780569e-04
5.070116633323e-04
4.873520815403e-04
6.908734956118e-04
7.154878992920e-04
6.414340301825e-04
6.254037858679e-04
5.801902790572e-04
5.606256376154e-04
8.012681753723e-04
8.329963825512e-04
3.530470634913e-04
3.340524441574e-04
3.460614324759e-04
8.175524335045e-04
8.195011765416e-04
7.988609115481e-04
1.072300634752e-04
1.330632502214e-04
1.652810804939e-04
1.397493906304e-04
8.060647275400e-04
7.832275887001e-04
8.359053686964e-04
2.373558503067e-04
6.948259004067e-04
8.063839968108e-04
7.881231808626e-04
8.339301416530e-04
7.615215817857e-04
8.048887775842e-04
8.067360300635e-04
8.088210451328e-05
8.001969768968e-04
5.513628864854e-04
5.991210265794e-05
5.303750343771e-04
5.575493484435e-04
5.056018791105e-04
1.923253731113e-04
5.350945061517e-04
5.648908884563e-04
7.689491788832e-05
8.408831798945e-04
8.340401133038e-05
9.990498025281e-05
8.174634215095e-04
7.911886027123e-04
8.358366351121e-04
8.088717682168e-04
7.649515697637e-04
7.857574983214e-04
5.264350640623e-04
8.358546589261e-04
8.061222461894e-04
8.605711697752e-04
3.958089654574e-04
3.059852068258e-04
2.858172523062e-04
2.426109781750e-04
8.296191495191e-04
8.022538523192e-04
7.244602053986e-04
6.782170569491e-04
5.336023792134e-04
5.298854478295e-04
5.720377334188e-04
5.651841783924e-04
6.088002111604e-04
6.018654128492e-04
6.443068834977e-04
8.334708182106e-04
1.951336418689e-04
4.420082584188e-04
8.207982746555e-04
7.940700745776e-04
3.881584802577e-04
3.471998577605e-04
8.305993334525e-04
3.609425281377e-04
8.689143425974e-04
2.787060135920e-05
7.286647819476e-05
3.859558184678e-04
4.309545412117e-04
3.298825060451e-04
3.137520652761e-04
6.714664482733e-04
1.125731627303e-04
1.894537224626e-04
6.501544121412e-04
1.477430287242e-04
7.019854955118e-04
3.810844111669e-04
4.677711350311e-04
2.313148587081e-04
3.252238421852e-04
5.703579268460e-04
5.324043867603e-04
5.086674172278e-04
4.006419728863e-04
3.391204703335e-04
2.923835719857e-04
5.408511218791e-04
7.379651171000e-04
7.579706773122e-04
8.011548755258e-04
7.780826984350e-04
7.332840892905e-04
7.526479975871e-04
7.971803115054e-04
7.735197813417e-04
8.262472905690e-04
7.929598925790e-04
7.470527542953e-04
7.659248830045e-04
8.091032939205e-04
7.211619544472e-04
8.442167902149e-04
4.306865788467e-04
1.044765289972e-04
9.827683643382e-05
4.923540219683e-04
8.714790847239e-04
8.731736799155e-04
3.123792524490e-04
8.729287150019e-04
5.272649318487e-04
2.191398239417e-04
8.732031985157e-04
7.130087249815e-04
6.877858420163e-04
6.679067510146e-04
8.747254954737e-04
6.109742344751e-04
8.755701857100e-04
5.978551322893e-04
5.777687862342e-04
5.331862976259e-04
7.271016044260e-04
8.726832412974e-04
8.363453721647e-04
8.357287884966e-04
7.967949130083e-04
8.729311769592e-04
8.746048210340e-04
8.757603934564e-04
2.896480078818e-04
3.151536061377e-04
3.591713235696e-04
3.399576539233e-04
2.956226792121e-04
3.205301867894e-04
3.646701735677e-04
3.009725532030e-04
7.593675824400e-04
8.745186206881e-04
5.955179239956e-04
5.752952465899e-04
5.302262826699e-04
4.419860638094e-04
4.675978432361e-04
5.129738354448e-04
4.164548397465e-04
6.551879346242e-04
8.741019856414e-04
5.859901048920e-04
4.476603996913e-04
4.915230817815e-04
5.309240068605e-04
5.323700613709e-04
5.736894063965e-04
5.351590388547e-04
5.269854541203e-04
5.469085242661e-04
5.219164243980e-04
5.664660482549e-04
5.401131126200e-04
4.979524260253e-04
5.848853311671e-04
5.569185072007e-04
4.906420102381e-04
3.170448400110e-05
6.995385727615e-05
6.849074955060e-05
1.073511835087e-04
1.105991917856e-04
1.504731351132e-04
1.458387750102e-04
7.076324639262e-05
3.090762372850e-05
6.811155019588e-05
3.024275800373e-05
6.701952661023e-05
1.132561805515e-04
1.774278331148e-04
8.683268420300e-04
4.289563965157e-04
4.087467011713e-04
3.620022030676e-04
3.871398276738e-04
4.468882401977e-04
3.382483447187e-04
3.227666928477e-04
3.186373403238e-05
6.968070788243e-05
6.930431433067e-05
1.103830641038e-04
1.084283513711e-04
6.955844240917e-05
6.957251263225e-05
3.087829288754e-05
6.916668823128e-05
1.092093195758e-04
2.860096868461e-05
7.056820037004e-04
7.299566898429e-04
8.725577123160e-04
4.959692094609e-04
3.091218048916e-05
8.671852048699e-04
8.733432179252e-04
8.734531321064e-04
7.957971286484e-04
8.182028176353e-04
8.680808008300e-04
2.856246407715e-04
8.221505899075e-04
7.867365561803e-04
2.006879828875e-04
2.760157267466e-04
6.570374827172e-04
6.034788526751e-04
7.534404223277e-04
6.171445062617e-04
7.141191166494e-04
8.333331487220e-04
1.769391207037e-04
6.197356729893e-04
6.031369019689e-04
7.159815276405e-04
2.996957630434e-04
4.779314782196e-04
1.896480084331e-04
8.372249201877e-04
4.978685116583e-04
5.049912460344e-04
3.962534712183e-04
3.116673154321e-04
2.575495564398e-04
4.563132910929e-04
4.733113038568e-04
6.807420950213e-04
7.412727405057e-04
3.900894407946e-05
7.062809791721e-04
5.640134143322e-04
6.366157628327e-04
7.072992914154e-04
1.751116105001e-04
7.321461800822e-04
8.104970881191e-04
5.847505123753e-04
1.450668962481e-04
5.736378135269e-04
8.027337595558e-04
7.180376744355e-04
2.736317130802e-04
5.220914710743e-04
4.865818052908e-04
4.471177866968e-04
8.063363278817e-04
5.378993798996e-04
7.470022916029e-04
6.114026488664e-04
2.939212611736e-04
7.463767332910e-04
5.084976424556e-04
7.777626792266e-04
6.854084072495e-04
4.140791467985e-04
7.471678807683e-04
5.103813785756e-04
7.329713830172e-04
4.737289604077e-04
5.977356866437e-04
6.519892618683e-04
5.678021419543e-04
6.319192717496e-04
7.264774776897e-04
1.875624189713e-04
3.688310981205e-04
6.314501505079e-04
7.672682440834e-04
8.229065015772e-04
4.434680652511e-04
7.201561125460e-04
7.914028017314e-04
4.930979507901e-04
2.040260336769e-04
1.581177402907e-04
3.258736548738e-04
5.134927945261e-04
5.384299011222e-04
8.328361271424e-04
7.396786737532e-04
6.920128991829e-04
8.196000574170e-05
4.652440764187e-04
7.595631118993e-04
5.413940581115e-04
7.514691837904e-04
5.124079232766e-04
8.363223980306e-04
3.713304271161e-04
7.809543171496e-04
6.971423152539e-04
3.367042725643e-04
4.902204304360e-04
8.332513049422e-04
7.429330284218e-04
6.113513461743e-04
5.161141755974e-04
4.006034501526e-04
5.581912762765e-04
6.223072189553e-04
8.752979443997e-04
7.659203639431e-04
6.426709006855e-04
5.325586862055e-04
6.468672484863e-04
1.073528278852e-04
4.189303666797e-04
5.523127417924e-04
3.452338039030e-04
5.354806018552e-04
8.261173123730e-04
5.721454322880e-04
3.892915712256e-04
5.917818965200e-04
3.539736687271e-04
6.627781278346e-04
6.108539446376e-04
6.660506999495e-04
1.163652973912e-04
6.305577701447e-04
7.706780509162e-04
3.642601618824e-04
5.551389630622e-04
7.078379568633e-04
3.068275794996e-04
6.002627334512e-04
7.101300016245e-04
6.503083964526e-04
5.576201452772e-04
6.459702225838e-04
3.237473504565e-04
2.667167922262e-04
2.221184360012e-04
4.085364404529e-04
7.352038309621e-04
1.486189434307e-04
7.017840156360e-04
1.592352416656e-04
3.838129177836e-04
7.166805507109e-04
6.173636955304e-04
4.028477991316e-04
2.492989866975e-04
3.779520455053e-04
6.018674573376e-04
3.968794592392e-04
3.716672737304e-04
8.329159667528e-04
3.902334651909e-04
8.748882416506e-04
8.711247298713e-04
5.265534076551e-04
2.606176973493e-04
3.608218628589e-05
2.743663405466e-04
3.201182020186e-04
6.958586502564e-04
5.269760115519e-04
2.937831755636e-04
8.369611183303e-04
8.745831491043e-04
6.824073644152e-04
7.692285890477e-04
6.715862034514e-04
7.913186766419e-04
4.873605112046e-04
6.716351408429e-05
6.550406917342e-04
2.121979415798e-04
2.182245527634e-04
1.712289286332e-04
3.107224161433e-04
1.057301483358e-04
1.752557479945e-04
8.331013379116e-04
5.272790897640e-04
7.395202468706e-04
1.285853407158e-04
8.358234000511e-04
8.354665319098e-04
8.757509275415e-04
7.846429612782e-04
1.241570316100e-04
5.651773772313e-04
8.374854402620e-04
7.189201776621e-04
8.774612593526e-04
5.201256590730e-04
8.377629979176e-04
1.628222754370e-04
8.372912793325e-04
7.405810874684e-04
5.837048570091e-04
5.629391932634e-04
8.390585364860e-04
8.374355334258e-04
9.795501197395e-05
6.799231894058e-04
3.879757720191e-04
6.464184088928e-05
8.366012277656e-04
7.827055704325e-04
8.377349647591e-04
1.105757531249e-04
6.604595936870e-05
8.445536335797e-04
8.418018754541e-04
1.845877810614e-04
8.826549608500e-04
6.138757031093e-05
4.804799717199e-04
6.556100966196e-05
8.765991424528e-04
8.406352288090e-04
4.268003565694e-04
4.929667183317e-04
2.809817149082e-04
8.054666026434e-04
9.866382460825e-05
8.462920394623e-04
8.466481683937e-04
8.459200057126e-04
8.848347209821e-04
6.317410965350e-05
8.478579638221e-04
8.049072796093e-04
4.880930937126e-04
8.381519655460e-04
3.464907722736e-04
1.453132550396e-04
8.782340449193e-04
2.788672853684e-05
4.852288266984e-04
8.800271141742e-04
1.366420641944e-04
5.591160485790e-04
8.434724703118e-04
5.260519714094e-04
7.639465125205e-04
1.346350386641e-04
2.489926233996e-05
6.405845470091e-04
8.434966522638e-04
8.489495605041e-04
6.092101199237e-04
1.233072216686e-04
8.180905916336e-04
4.606593074043e-04
8.111203909914e-04
8.066949311417e-04
3.153365254742e-05
5.661385301693e-04
6.389298898293e-05
8.469003976225e-04
4.815533645814e-04
4.254212890475e-04
4.273709822799e-04

SCALARS node_materi_plasti_phimob float
LOOKUP_TABLE default
1.850009793550e+01
-2.563719243971e+01
2.062787172447e+01
1.784345829031e+01
-3.050115667181e+01
-4.781545431413e+00
5.560245188497e+00
1.150953756367e+01
1.500625112057e+01
1.712387446116e+01
1.863012348757e+01
1.973096687652e+01
2.049708782943e+01
2.107057265279e+01
2.147961457989e+01
2.163195969484e+01
2.166121777719e+01
2.168955748985e+01
2.161193505795e+01
2.147292900343e+01
2.129326057767e+01
2.107229801045e+01
2.083879918657e+01
1.790136867403e+01
1.789220427600e+01
1.791994095136e+01
1.795440493846e+01
1.796394013355e+01
1.804379705913e+01
1.811722775165e+01
1.823921355331e+01
1.838915502510e+01
1.855870582460e+01
1.871418092850e+01
1.896818330766e+01
1.922043312950e+01
1.958373513898e+01
1.984986464471e+01
2.022034517875e+01
2.050750427394e+01
2.077018604410e+01
2.105389534889e+01
2.126997565463e+01
2.142360230747e+01
2.148112585292e+01
2.154587665623e+01
2.155468803027e+01
2.153115462058e+01
2.148450110315e+01
2.144548587910e+01
2.137651588333e+01
2.131485651113e+01
2.120919138231e+01
2.117972547257e+01
2.111530657605e+01
2.103654406881e+01
2.097580721445e+01
2.092272527721e+01
2.086694544093e+01
2.082949974405e+01
2.079112359002e+01
2.076178343658e+01
2.073989006354e+01
2.070107864238e+01
2.066526646023e+01
2.064922163067e+01
2.068565853802e+01
2.062022335290e+01
2.062772679960e+01
2.060695884754e+01
2.060366174789e+01
2.060734650649e+01
-1.085427040926e+01
-1.424565006276e-01
5.663292671324e+00
9.248992539185e+00
1.180212052039e+01
1.366762141512e+01
1.512824856055e+01
1.630403848710e+01
1.728220747283e+01
-2.847677834121e+01
-8.938237288345e+00
-5.569291787918e+00
3.615691594067e+00
7.390814011128e+00
8.773262534029e+00
9.027984869610e+00
9.146826596397e+00
9.173411820838e+00
9.490555248938e+00
3.565967491969e+00
-3.184448504226e+01
-2.734293855566e+01
-2.693285970053e+01
-2.700323593525e+01
-2.729722241654e+01
-2.478779903948e+01
-2.701854856129e+01
-2.710962659977e+01
-2.693322986436e+01
-2.654994192514e+01
-2.637219864665e+01
-2.564267878681e+01
-2.419220815983e+01
-2.157757531872e+01
-1.732871652511e+01
-2.997084203409e+01
-2.666234644494e+01
-2.602184886827e+01
-2.867595386194e+01
-3.341574424061e+01
-3.722575106279e+01
-4.129584681634e+01
-4.567542410324e+01
-5.014001133354e+01
-5.428207658558e+01
-5.758040929469e+01
-5.733997949516e+01
-5.850539169683e+01
-6.105724132644e+01
-6.071258301638e+01
-5.975142025523e+01
-5.954994971611e+01
-9.352727580844e+00
4.034572271093e+01
-1.174996433285e+01
-2.606681294135e+01
-3.141713159873e+01
-3.432261974769e+01
-3.538686993200e+01
-3.543010327528e+01
-3.493345622620e+01
-3.435959290998e+01
-3.358779551921e+01
-3.323449915562e+01
-3.282699300208e+01
-3.252806850906e+01
-3.250343860487e+01
-3.252336242550e+01
-3.248143444310e+01
-3.202136104869e+01
-1.650481114507e+01
1.548435344997e-01
5.808812216858e+00
8.142408164229e+00
1.026177038199e+01
1.032703348361e+01
9.144467713883e+00
9.058404841130e+00
1.009581080432e+01
-2.957645209140e+00
-1.347045771833e+00
2.136365667545e+01
-3.765428146074e+01
-2.947769023819e+01
2.107377669907e+01
7.013564826482e+00
2.131085275977e+01
2.162644327562e+01
9.660718242779e+00
2.168471150584e+01
1.035606475270e+01
2.086846467841e+01
-4.130695985973e+01
2.127925277077e+01
-1.532963615414e-01
1.801012950158e+01
2.171230404638e+01
2.033135453812e+01
1.879767504294e+01
1.754245401068e+01
1.759534169406e+01
1.810128897231e+01
-7.448321042500e+00
-1.329625385722e+01
-1.290166164310e+01
1.063672734925e+01
2.081500472000e+01
-2.880431351843e+01
-3.901386216945e+01
2.139498757458e+01
-1.453446667165e+01
8.935355746801e+00
1.935058459401e+01
2.167299353026e+01
2.156756092988e+01
2.156439925488e+01
2.121475289630e+01
-3.159443581715e+01
-1.207182907621e+01
2.103664404035e+01
1.441938090160e+01
-3.960471810213e+01
2.017214836982e+01
1.763293884836e+01
8.631611738577e+00
4.330984113545e+00
9.970925224723e+00
8.216973222740e+00
-1.384725312948e+01
3.552757333742e+00
2.075272965173e+01
-1.480898456094e+01
1.676374897357e+01
-1.602185006858e-01
4.650468935051e+00
4.149613625892e+00
8.484630335271e+00
8.555164077265e+00
1.115115696597e+01
1.121157695016e+01
1.313142064991e+01
1.324555411237e+01
1.135239380524e+01
1.468186861521e+01
1.479906204504e+01
1.591284569922e+01
1.612526756657e+01
1.511590400761e+01
1.673600717198e+01
1.588456306330e+01
1.757306313957e+01
1.821417414348e+01
1.893648365224e+01
1.840264718631e+01
1.965181168583e+01
1.916345895272e+01
2.031037208025e+01
1.982006716608e+01
2.089488903864e+01
2.121980355959e+01
2.174222387655e+01
2.139583525052e+01
2.218962435333e+01
2.179053490345e+01
2.254112203804e+01
2.278196358903e+01
2.309328948570e+01
2.278795995971e+01
2.331454914704e+01
2.292280537218e+01
2.342936056371e+01
2.291705308068e+01
2.341911929716e+01
2.375174681458e+01
2.373609698836e+01
2.327269893893e+01
2.359516184296e+01
2.390968492158e+01
2.377240028705e+01
2.396898697986e+01
2.383568333357e+01
2.351867868191e+01
2.359738640871e+01
2.381090836980e+01
2.358906714177e+01
2.324916827138e+01
2.326864764835e+01
2.351762908957e+01
2.322467313057e+01
2.284791590702e+01
2.284597064177e+01
2.313723412812e+01
2.279847331369e+01
2.237458605495e+01
2.237862195974e+01
2.272109384475e+01
2.234991711126e+01
2.262145552128e+01
2.187155292523e+01
2.190798927371e+01
2.127132536594e+01
2.138832301692e+01
2.320129738590e+01
2.057605281148e+01
2.031556857010e+01
2.079174188855e+01
2.147537785574e+01
1.978499311583e+01
2.011205131295e+01
1.888286035229e+01
2.217119897053e+01
1.940170798263e+01
1.934236434371e+01
1.785223733355e+01
1.709258927193e+01
1.565335722723e+01
9.185150130604e+00
1.177522954125e+01
9.800094407362e+00
1.234427356469e+01
1.076114948446e+01
1.663575436881e+01
1.587195532482e+01
1.374824110550e+01
1.773329697828e+01
2.079711668215e+01
2.400490200734e+01
2.037601082428e+01
1.972073298942e+01
2.061249812967e+01
2.288307302919e+01
2.273178067962e+01
2.290215756415e+01
2.271414315867e+01
2.280767696250e+01
2.259581839883e+01
2.252676940875e+01
2.238882872746e+01
2.234376838008e+01
2.262417972688e+01
2.285780851659e+01
2.218869435016e+01
2.216692289988e+01
2.199611840172e+01
2.199759067070e+01
2.211596396436e+01
2.197530264293e+01
2.203876212099e+01
2.398261893835e+01
2.394463267882e+01
2.386266407742e+01
2.376891481905e+01
2.364086776914e+01
2.350667637314e+01
2.334109255015e+01
2.346239239690e+01
1.703119287673e+01
2.298173607867e+01
2.244483806390e+01
2.194494282752e+01
2.109036673325e+01
2.029464871936e+01
1.896516961197e+01
1.772723156266e+01
1.922381360130e+01
1.609944091818e+01
1.782253819983e+01
1.400926343884e+01
1.602792520749e+01
2.192771257835e+01
2.361784035046e+01
2.332293879857e+01
2.341554081461e+01
1.444393919800e+01
2.183782931544e+01
2.261316254215e+01
2.286262383145e+01
2.313143779235e+01
1.396078121059e+01
1.570952385450e+01
1.714033564266e+01
1.300494986804e+01
1.170515788656e+01
2.256004660825e+01
1.520896594699e+01
2.217923830949e+01
1.129995750214e+01
2.184174575166e+01
2.169166796709e+01
2.241783969762e+01
2.310264387148e+01
2.316867826088e+01
1.907977907469e+01
1.755612647082e+01
1.388434015402e+01
1.570658879299e+01
1.872686946591e+01
1.707439052389e+01
1.338901916861e+01
1.508799137877e+01
1.813564049163e+01
1.645258190227e+01
1.257806366388e+01
1.441307930293e+01
2.164624922059e+01
8.027682714288e+00
1.394112930984e+01
2.230517257480e+01
2.297501362615e+01
1.370968822802e+01
1.264279364326e+01
1.031471062921e+01
1.153101350298e+01
1.355005753635e+01
1.262690575846e+01
1.035567864914e+01
1.164993826054e+01
9.068594421448e+00
1.059707555231e+01
1.278092937126e+01
1.190607537958e+01
9.440650930291e+00
1.093967822934e+01
8.103043008811e+00
9.822529854702e+00
1.220579469452e+01
1.190467571661e+01
2.324623613124e+01
2.288924452089e+01
2.010157157343e+01
2.081266580014e+01
2.122384415338e+01
2.130149838095e+01
1.125213282917e+01
1.329730259815e+01
1.305905444364e+01
1.471320836900e+01
1.472399268321e+01
2.172175062688e+01
2.182606104839e+01
2.108637556777e+01
1.978859162963e+01
1.990015807068e+01
1.810470762966e+01
1.811678700304e+01
1.793366734051e+01
2.309285572941e+01
1.378321141617e+01
1.616494260557e+01
1.289534395167e+01
2.156593419103e+01
2.353796540782e+01
2.141913952202e+01
2.201232300650e+01
2.154362881518e+01
2.203225514912e+01
2.162109099915e+01
2.201015185088e+01
2.237017884920e+01
2.285262776475e+01
2.225948414936e+01
8.447853581349e+00
2.366542572592e+01
1.895663923437e+01
9.926747700083e+00
9.456942189934e+00
1.346043236010e+01
1.622919366422e+01
2.220310263552e+01
2.166818117481e+01
2.122202686071e+01
1.594802690463e+01
1.607558976746e+01
2.272488609395e+01
7.662709125602e+00
7.265011712708e+00
5.431338252436e+00
8.478894195922e+00
6.621601573617e+00
1.439119408048e+01
1.817388105264e+01
1.593962755928e+01
3.954311405268e+00
-5.862111819704e-01
1.242818347432e+01
1.418394818556e+01
2.159028235007e+01
2.162545621102e+01
2.246587097424e+01
1.193798527929e+01
1.485963072887e+01
2.332118125093e+01
2.355849751749e+01
2.091334746036e+01
9.755315689417e+00
7.203285147711e+00
2.016069910329e+01
1.583289723668e+01
1.476874471856e+01
2.207160086800e+01
1.513632051665e+01
2.256519660765e+01
2.273528015933e+01
2.235281921912e+01
5.524210643740e+00
2.194755818460e+01
2.162047226181e+01
2.134601429816e+01
2.085890409051e+01
1.890990095276e+01
1.686374248662e+01
1.312203143704e+01
1.421601934532e+01
1.144888039756e+01
1.943127606007e+01
1.493674401468e+01
1.263105950254e+01
1.383953192820e+01
1.788804272159e+01
1.592785358550e+01
2.164795377625e+01
2.395243697758e+01
2.157862860296e+01
2.215145599555e+01
2.308388240763e+01
1.447787094231e+01
1.528212253921e+01
5.971676116725e+00
3.892455427046e+00
1.027783476956e+01
7.686780020936e+00
2.250988586673e+01
2.206014250244e+01
1.527550068982e+01
1.610394911306e+01
1.566573162505e+01
2.234108680573e+01
2.253025974350e+01
2.389039477870e+01
4.106726621286e+00
2.285886529987e+01
3.375444006570e+00
1.880843821603e+01
2.143638051794e+01
2.135662148471e+01
2.248655560378e+01
5.490911966383e+00
2.317774171620e+01
2.347125414552e+01
1.135563146683e+01
1.260805575770e+01
1.482655481005e+01
1.333774031484e+01
2.060273063073e+01
1.956320211215e+01
2.168845859009e+01
2.212386318344e+01
2.112978913048e+01
2.054598347277e+01
2.230568359282e+01
2.255497670758e+01
1.707769321371e+01
1.368859733674e+01
1.579802396543e+01
9.922164629087e+00
2.168995879340e+01
2.182112841532e+01
-6.409586093817e+00
-1.093613284732e+00
1.558883785413e+01
9.773242414917e+00
1.093712832894e+01
8.192401979168e+00
2.093566397819e+01
-1.475508298977e+01
2.120613524518e+01
1.745101626718e+01
1.613390882180e+01
2.336305450188e+01
2.120928789478e+01
2.273431848201e+01
1.490230959770e+01
1.626908428489e+01
2.709258776994e+00
-4.276558047629e-01
4.950448606370e+00
7.703459488337e+00
-1.843108291755e+00
1.466220260484e+01
1.900792634198e+01
1.959777114775e+01
1.370982131819e+01
1.685542897176e+01
2.185867312329e+01
2.189418607263e+01
1.982278344521e+01
1.935955712599e+01
2.088496109663e+01
2.334245909131e+01
2.351846849100e+01
2.369918588455e+01
1.584954804095e+01
1.661335356288e+01
2.147740888391e+01
2.116564009699e+01
2.090720869976e+01
1.643236811969e+01
2.112633121267e+01
2.126233482731e+01
-1.285586913421e+00
4.160040266310e+00
3.246003327988e+00
-3.033723538747e-01
1.687063651730e+01
1.654868331040e+01
1.732820334497e+01
1.564013976150e+01
2.287829376016e+01
2.191023253035e+01
2.222666277359e+01
2.159085938115e+01
2.260709319920e+01
2.225455424659e+01
2.208516370480e+01
-1.382042824312e+01
1.588600473786e+01
1.922202236763e-01
-2.134633432024e+01
-3.291398322743e+00
1.270961712671e+00
-8.907811936985e+00
1.269597174733e+01
-2.379469563536e+00
2.335090319316e+00
-1.113258481045e+01
1.698472003664e+01
-8.603933746581e+00
-2.262097203012e+00
2.146527309874e+01
2.159842112372e+01
2.126431716935e+01
2.138816202298e+01
2.169539730739e+01
2.149625537640e+01
-4.526791197741e+00
2.114704319515e+01
2.128907282364e+01
2.100922170667e+01
1.114183168860e+01
1.502265624906e+01
1.189467158047e+01
7.892977601527e+00
2.098956466053e+01
2.033323144907e+01
2.150971803324e+01
2.165155722210e+01
-2.797148097002e+00
-3.099845959264e+00
3.417580755838e+00
2.766250658456e+00
7.088717007867e+00
6.574520798900e+00
9.715488697201e+00
2.190289381709e+01
5.179121252387e+00
8.754833736910e+00
2.210791076020e+01
2.237555529129e+01
1.360890891408e+01
1.106891090226e+01
2.149625310609e+01
2.089729396463e+01
1.775856336596e+01
-2.844790710811e+01
-1.692073394283e+01
2.112773445091e+01
1.550958355931e+01
1.550407777382e+01
1.292205119533e+01
2.308310903470e+01
-5.092185500281e-02
6.114208771930e+00
9.950121867262e+00
2.438720830209e-01
2.155689645319e+01
2.199585471529e+01
1.906210188877e+01
1.168457336918e+01
1.755631420447e+01
1.345377310640e+01
8.709182376769e+00
9.185985395554e+00
2.276009162857e+01
1.340463476894e+01
9.837680032907e+00
1.685175328339e+01
1.528769172305e+01
1.626328251030e+01
1.731410747199e+01
1.711877998193e+01
1.606216538676e+01
1.697616615088e+01
1.786595843436e+01
1.779733954855e+01
1.895942492530e+01
1.876498748428e+01
1.780097092979e+01
1.881572269979e+01
1.966283506410e+01
1.792201500785e+01
2.183265207448e+01
2.218338766396e+01
-6.396784337590e+00
-9.122307338578e+00
1.847948240832e+01
1.998808523094e+01
1.907840492820e+01
1.986820451945e+01
2.142899495270e+01
1.180056947286e+01
1.378550868373e+01
2.163515470873e+01
1.498183655054e+01
1.476446199422e+01
1.338744811709e+01
1.852042528986e+01
7.104168984359e+00
2.162379012998e+01
2.383652687064e+01
2.382043642398e+01
2.386435395999e+01
1.689135550337e+01
2.144562397136e+01
2.186472873884e+01
2.177466287122e+01
2.227683269478e+01
2.130137939666e+01
2.077027627129e+01
2.107907226048e+01
1.955091734432e+01
2.070872176609e+01
2.198085966355e+01
2.162425151370e+01
2.003273454201e+01
2.107961839761e+01
2.235121058336e+01
2.030319935143e+01
1.985458981187e+01
2.116583051145e+01
2.302148534465e+01
2.322798944514e+01
2.325244415240e+01
2.153897325110e+01
2.191514033575e+01
2.216519059756e+01
2.111037925061e+01
2.244579240438e+01
2.110635464477e+01
2.374433170837e+01
2.192022954981e+01
-1.007676701637e+01
-9.249466475041e-01
1.271363482623e+00
5.571859521162e+00
-1.548038748369e+00
2.183050805975e+01
2.180331693299e+01
2.164662084170e+01
2.176687676824e+01
2.164403883154e+01
2.145408784777e+01
2.172175223841e+01
2.164935717496e+01
-1.293040652036e+01
-3.000462578611e+01
-1.392510579121e+01
-1.410066811241e+01
-1.619597525040e+00
-1.134732680516e+00
6.910132972998e+00
5.761493532931e+00
-1.446391810904e+01
-3.362871434893e+01
-1.399697454748e+01
-3.572923977681e+01
-1.421889201161e+01
8.935752926160e-03
1.102287244795e+01
2.083870906834e+01
2.082336941423e+01
2.059726802496e+01
1.981710745423e+01
2.030629658422e+01
2.108627108617e+01
1.927139973786e+01
1.887360149181e+01
-3.889385508160e+01
-1.105955887462e+01
-1.289372026015e+01
1.810756060670e+00
1.474534627044e+00
-1.108839990595e+01
-1.134716039121e+01
-3.958717783092e+01
-1.195267066291e+01
1.521236308110e+00
-4.091115362060e+01
1.281237964329e+01
1.376682370286e+01
2.104209195757e+01
-1.234107474955e+01
-3.875529707176e+01
1.735565351806e+01
1.760719860105e+01
1.757768602124e+01
2.118735328923e+01
2.107616008028e+01
1.737566668732e+01
1.831611167730e+01
1.799259401338e+01
1.544099895617e+01
1.082742933192e+01
1.833292439901e+01
2.173459139254e+01
2.226393006193e+01
2.150110878329e+01
2.193151268286e+01
2.181346595386e+01
2.174765883728e+01
1.130398396482e+01
7.619839470003e+00
6.473602335688e+00
1.303202846446e+01
1.848564674138e+01
2.139907788737e+01
1.241103668777e+01
2.157084568457e+01
1.595881398089e+01
2.302105629204e+01
2.096427398459e+01
1.938108543004e+01
1.753354872241e+01
2.205652029618e+01
2.230117074568e+01
2.239807150688e+01
1.401237068696e+01
-3.565311377400e+01
2.236988444870e+01
2.257484909257e+01
8.860070535421e+00
2.317659664218e+01
1.041010575723e+01
1.360457551131e+01
1.652945711870e+01
5.125657924132e+00
7.036519762864e+00
3.175695267955e+00
2.177892479606e+01
1.420002239338e+01
1.744027527833e+01
2.394054860676e+01
2.036721629492e+01
2.532554149122e+00
1.596879506380e+01
2.346931293387e+01
2.274395995264e+01
2.372230595297e+01
1.812355517129e+01
2.191173435312e+01
2.393666168535e+01
1.515527444583e+01
2.107334411957e+01
2.332494229665e+01
1.442635604150e+01
2.339994688331e+01
2.296903998679e+01
1.681326897406e+01
2.064502163048e+01
1.752666286625e+01
2.238844653863e+01
2.172869265624e+01
2.213698353922e+01
1.140397463649e+01
1.979434356101e+01
9.008299269530e+00
2.196267830360e+01
1.641296247511e+01
1.951374161784e+01
2.196795658925e+01
1.584401392387e+01
2.223782940888e+01
1.369358243694e+01
3.998879916500e+00
2.124012950668e+01
2.365934644647e+01
2.239135895073e+01
1.772882680506e+01
2.176522356515e+01
2.281977891956e+01
-6.477433112368e+00
6.702856368994e+00
2.157799523020e+01
2.384530947473e+01
2.279259444876e+01
2.148086002822e+01
2.171786126396e+01
1.124440685505e+01
2.142001263765e+01
2.300818578767e+01
2.049611877931e+01
-1.434785370225e+01
2.110386532581e+01
2.261853067865e+01
2.245753858577e+01
2.372157015507e+01
1.020951964760e+01
2.227021481221e+01
2.002867978656e+01
1.828780059718e+01
2.246963115168e+01
1.316103201992e+01
2.208493751338e+01
2.343812899144e+01
1.298789550017e+00
1.044444388912e+01
2.200793346712e+01
2.190353131516e+01
2.358617549648e+01
2.211068421332e+01
2.193474569884e+01
2.291377892359e+01
2.186252066481e+01
1.015784608008e+01
1.466351838351e+01
2.178443921933e+01
2.034237782203e+01
1.962209240560e+00
2.283164824726e+01
2.130861801478e+01
2.111851601604e+01
2.341966348643e+01
1.593040007502e+01
9.540238458387e+00
2.331487827132e+01
2.061803708838e+01
2.306500763095e+01
2.370544834317e+01
2.311199848388e+01
1.082207297526e+01
1.763931138568e+01
1.505995868591e+01
2.314157053656e+01
2.019352960745e+01
8.286967235659e+00
1.687128738811e+01
8.595491824998e+00
2.263099397667e+01
2.290542126920e+01
7.838284418347e+00
2.278528376838e+01
1.628024084222e+01
2.220012399614e+01
2.361983782229e+01
2.232347142543e+01
2.167878441165e+01
1.660825070286e+01
2.180080806614e+01
1.750123109638e+01
2.079874193033e+01
-3.973162820558e+00
9.605595506243e+00
-2.751760794494e+01
9.506692899260e+00
1.999633952168e+01
1.828822801098e+01
-3.594866398501e+00
1.891125627283e+01
1.983189013410e+01
2.167021015598e+01
1.179792576757e+01
2.255627760146e+01
2.317088519989e+01
1.564830865832e+01
-1.516386298567e+01
-1.403267447305e+01
2.166730457901e+01
8.492653321550e+00
6.667876937842e+00
3.118039810973e+00
1.864986804287e+01
-1.597264071882e+00
5.858330508626e+00
2.193222969350e+01
-3.685999931015e+00
2.263522474362e+01
1.916323449943e+00
1.702226221214e+01
2.200710419343e+01
2.092571106739e+01
2.235382170558e+01
-3.765447337905e+00
3.733167211544e+00
2.137830718661e+01
1.329242850830e+01
2.082913511541e+01
-4.559472928571e+00
1.675184082962e+01
8.353896830939e+00
1.677598806327e+01
1.901432780014e+01
4.613836675912e+00
5.996014970144e+00
2.095401905046e+01
1.876296071746e+01
-9.123197670903e+00
1.164517723855e+01
2.043141146906e+01
-1.807295061197e+01
2.135187518577e+01
1.968130234040e+01
2.103491158584e+01
1.613298266510e+00
-1.518206583220e+01
2.143089479912e+01
2.071478139839e+01
1.131368971484e+01
1.797033915562e+01
-1.851314214097e+01
-1.683645093516e+01
-1.408889804666e+01
2.079780446435e+01
1.684945139077e+01
2.086955378372e+01
-3.823337738401e+00
1.757652473933e+01
2.191864397814e+01
-2.998187507159e+00
1.691023202039e+01
2.155414121418e+01
1.778596617600e+01
2.147250274112e+01
-2.049026074514e+01
2.189849472101e+01
2.211415380535e+01
-1.537363505758e+01
1.817207353900e+01
1.952412393859e+01
7.657865176187e+00
1.759703278460e+01
-1.409506869013e+01
-1.619087800189e+01
2.073001342920e+01
6.877785778541e+00
1.900914991835e+00
2.037867434683e+01
2.154415700972e+01
1.491672729606e+01
4.700142750203e+00
-2.940957827987e+01
9.512505678612e+00
2.196095330843e+01
1.744402230920e+01
7.084718711792e+00
-2.927836221064e+00
2.019204996920e+01
2.115572661214e+01
2.144300286602e+01
2.222010587360e+01
-2.347554291770e+01
2.167237666866e+01
-1.598352180238e+01
2.112979109530e+01
2.132823281971e+01
-1.533864641324e+01
-3.099501734763e+01

SCALARS node_materi_stress_average_a_sig float
LOOKUP_TABLE default
-4.776055787985e+00
-1.885479116824e+01
-2.357010696424e+02
-1.311408892453e+02
-1.198773810171e+01
-2.349685931292e+01
-3.429494964760e+01
-4.672836419822e+01
-5.856644421039e+01
-7.036486710854e+01
-8.213691529810e+01
-9.390315074404e+01
-1.057371707461e+02
-1.176971245162e+02
-1.300005050909e+02
-1.421388341718e+02
-1.532991275943e+02
-1.655127601646e+02
-1.781776140938e+02
-1.905622256053e+02
-2.031069154434e+02
-2.158420918024e+02
-2.280486495491e+02
-1.317968696184e+02
-1.311561777343e+02
-1.314394784071e+02
-1.315796341013e+02
-1.315613067265e+02
-1.323123869334e+02
-1.332149833092e+02
-1.336714721139e+02
-1.351933072037e+02
-1.362680326343e+02
-1.375436164837e+02
-1.397205608961e+02
-1.425609484616e+02
-1.447979720607e+02
-1.478492578858e+02
-1.507585963007e+02
-1.547176132235e+02
-1.596936255241e+02
-1.643937933767e+02
-1.692655995774e+02
-1.739333280957e+02
-1.787544548727e+02
-1.834836591502e+02
-1.881318933157e+02
-1.927993041100e+02
-1.973350350562e+02
-2.014721245287e+02
-2.053581130794e+02
-2.088126007475e+02
-2.126043959670e+02
-2.154133356923e+02
-2.176346019874e+02
-2.203292040045e+02
-2.227429925962e+02
-2.248824005514e+02
-2.267678517906e+02
-2.283765747925e+02
-2.296386991423e+02
-2.306600735768e+02
-2.314502037141e+02
-2.325957406241e+02
-2.339163768138e+02
-2.346547467068e+02
-2.335721085538e+02
-2.353790554311e+02
-2.351612951710e+02
-2.357807812152e+02
-2.363260013862e+02
-2.363419312865e+02
-3.100296428434e+01
-4.295204097274e+01
-5.485442165075e+01
-6.643432231674e+01
-7.821217258586e+01
-9.008907898826e+01
-1.016235009855e+02
-1.129378967198e+02
-1.247594483607e+02
-1.039352175971e+01
-2.551866446462e+01
-1.563109035195e+01
-1.889293603632e+01
-2.023331387539e+01
-2.016966589277e+01
-2.059977407723e+01
-2.093383583718e+01
-2.127589767335e+01
-2.217041578622e+01
-2.401546593196e+01
-1.097018041326e+01
-1.726115687306e+01
-1.792407155323e+01
-1.790973943021e+01
-1.778736022880e+01
-1.949890292923e+01
-1.802860236612e+01
-1.798547236825e+01
-1.811047972890e+01
-1.846106347155e+01
-1.855411320885e+01
-1.880834125196e+01
-1.926347956167e+01
-2.022041725373e+01
-2.181851058210e+01
-1.092149850116e+01
-1.228666617186e+01
-1.228235296246e+01
-1.178140689519e+01
-1.139950832263e+01
-1.085997450910e+01
-1.007173352920e+01
-9.268913986427e+00
-8.529594668633e+00
-7.881414914508e+00
-7.281752349915e+00
-7.106957840239e+00
-6.368161783415e+00
-5.486335880947e+00
-5.139377554314e+00
-4.960268236446e+00
-4.724925306930e+00
-4.348430332134e+00
-3.977181851852e+00
-1.389469282861e+01
-1.387642577555e+01
-1.281525552475e+01
-1.206995915799e+01
-1.179734725604e+01
-1.176895367644e+01
-1.182498736401e+01
-1.192835072584e+01
-1.211485333348e+01
-1.218558300940e+01
-1.226964887468e+01
-1.233674769363e+01
-1.235157963828e+01
-1.227502973386e+01
-1.204413938091e+01
-1.096940299944e+01
-1.244563741316e+01
-1.765011233167e+01
-1.965381917312e+01
-2.055554852523e+01
-2.092576639367e+01
-2.101247042206e+01
-2.107887721217e+01
-2.143985153429e+01
-2.412464257361e+01
-2.195669608508e+01
-2.087158348389e+01
-2.156033907225e+02
-1.280729628421e+01
-1.525389928178e+01
-2.242675256710e+02
-2.417353497612e+01
-1.242821067547e+02
-2.040087249875e+02
-2.557748050658e+01
-1.895538091903e+02
-2.786955830628e+01
-2.289445469661e+02
-1.054172834762e+01
-1.714563601583e+02
-3.602820356944e+01
-7.680473499067e+01
-1.574351471431e+02
-1.575228700639e+02
-1.424104693967e+02
-1.279822299999e+02
-1.294830127722e+02
-1.351973891379e+02
-3.470133781752e+01
-3.054002456674e+01
-3.050927224047e+01
-7.243356623032e+01
-2.296486507107e+02
-1.496027536910e+01
-1.019449883356e+01
-1.963709293674e+02
-2.860023404825e+01
-4.046096086710e+01
-1.472437711756e+02
-1.980226467796e+02
-1.806720497285e+02
-2.091061317329e+02
-2.201465212616e+02
-1.473633200305e+01
-3.142487287480e+01
-2.245702021006e+02
-9.555016325733e+01
-1.190331839924e+01
-9.986139439034e+01
-1.289044033085e+02
-2.584510868461e+01
-2.308825553411e+01
-2.674118116408e+01
-3.113242827107e+01
-1.623960833437e+01
-4.991289064680e+01
-2.322232000937e+02
-9.434199608408e+00
-1.181326309933e+02
-4.024954562741e+01
-4.882389046483e+01
-5.221936869435e+01
-6.224524997784e+01
-6.635492536610e+01
-7.513134267234e+01
-7.151862296128e+01
-8.408153109719e+01
-8.067759882477e+01
-7.946809497380e+01
-9.301095543377e+01
-8.977813213073e+01
-1.019300353096e+02
-9.881213135355e+01
-8.687840451697e+01
-9.593380835005e+01
-8.419611215405e+01
-9.324736526742e+01
-1.048612498362e+02
-1.021459259316e+02
-9.068729289455e+01
-9.948397885479e+01
-8.824253944054e+01
-9.691101256596e+01
-8.586398705354e+01
-9.436614010218e+01
-1.054166675225e+02
-1.026767192187e+02
-9.181157544534e+01
-9.991322876427e+01
-8.923607288981e+01
-9.709353775280e+01
-1.078572743149e+02
-1.048010540638e+02
-9.415966798678e+01
-1.016409657188e+02
-9.111106428478e+01
-9.838538181541e+01
-8.795266298898e+01
-9.496719336293e+01
-1.055282849474e+02
-1.018863316313e+02
-9.139946808631e+01
-9.805223187275e+01
-1.087184871842e+02
-1.046222584185e+02
-1.154667950643e+02
-1.111283608106e+02
-1.003998598469e+02
-1.066579774185e+02
-1.175613512839e+02
-1.128404854670e+02
-1.020378888249e+02
-1.080127097432e+02
-1.189962043871e+02
-1.139546629368e+02
-1.030392191367e+02
-1.087942765308e+02
-1.199330156694e+02
-1.145415998732e+02
-1.034640239948e+02
-1.090229537763e+02
-1.203281199997e+02
-1.146007625100e+02
-1.261048658195e+02
-1.032788589755e+02
-1.087201461919e+02
-9.734979763616e+01
-1.027193293741e+02
-1.156686497487e+02
-9.130767705935e+01
-8.619571364580e+01
-9.661449057740e+01
-1.081870448939e+02
-8.514539352151e+01
-9.040696858710e+01
-7.889159130014e+01
-8.063687616600e+01
-1.137086604720e+02
-8.411096171204e+01
-7.253881801282e+01
-6.742348296460e+01
-6.104025047364e+01
-7.125249186674e+01
-8.384122478929e+01
-7.543663262242e+01
-8.832067944452e+01
-8.056628527986e+01
-6.610087176026e+01
-1.053638191184e+02
-9.631962552426e+01
-7.935976111513e+01
-8.119539025834e+01
-1.196656221539e+02
-9.571348811591e+01
-8.938593727669e+01
-1.010467447901e+02
-1.318654370116e+02
-1.377811418278e+02
-1.435909562397e+02
-1.496165570797e+02
-1.554903529433e+02
-1.616071059489e+02
-1.555866051974e+02
-1.676604598286e+02
-1.615059228713e+02
-1.675510736349e+02
-1.612512154297e+02
-1.736511163381e+02
-1.673718681908e+02
-1.795831359912e+02
-1.731873384637e+02
-1.610125037341e+02
-1.667120965047e+02
-1.546279163753e+02
-1.265767607886e+02
-1.308843494972e+02
-1.379438623908e+02
-1.423643752197e+02
-1.495651583417e+02
-1.540838554692e+02
-1.614048173178e+02
-1.566669228769e+02
-1.107962968942e+02
-8.765794936515e+01
-8.118433906543e+01
-7.755157810756e+01
-7.128487026156e+01
-6.774112991760e+01
-6.171588139665e+01
-5.821471101134e+01
-6.396307787090e+01
-5.445953814613e+01
-5.992527414354e+01
-5.040581458906e+01
-5.557320306295e+01
-1.137754214139e+02
-1.466485868314e+02
-1.584941855829e+02
-1.507701228184e+02
-5.601070064460e+01
-1.789596538741e+02
-1.734038664409e+02
-1.668880786596e+02
-1.686434528381e+02
-5.465731172111e+01
-5.250734143155e+01
-5.560365316308e+01
-9.298442301488e+01
-8.554715207633e+01
-1.791858159021e+02
-5.969416637188e+01
-1.798691247979e+02
-4.527946483459e+01
-1.723821324714e+02
-1.846751654183e+02
-1.495065644065e+02
-1.627896761172e+02
-1.547641889822e+02
-6.544111978687e+01
-6.082823771803e+01
-5.110728656131e+01
-5.645955646521e+01
-6.623350144951e+01
-6.112521207725e+01
-5.109046924482e+01
-5.577569415281e+01
-6.615882708904e+01
-6.061460785310e+01
-5.010687769202e+01
-5.478215454221e+01
-1.912684569761e+02
-4.120642547607e+01
-7.494400635332e+01
-1.857064770117e+02
-1.733529890174e+02
-9.777848663172e+01
-9.066149730286e+01
-7.829772623815e+01
-8.377763063060e+01
-9.590073348235e+01
-8.928157856466e+01
-7.709641889666e+01
-8.283342294546e+01
-7.062328605245e+01
-7.656367329349e+01
-8.859009552764e+01
-8.252833545108e+01
-7.048035748914e+01
-7.658767889770e+01
-6.452126953163e+01
-7.073093476312e+01
-8.271601617128e+01
-4.858092245570e+01
-1.636904886600e+02
-1.758695781075e+02
-9.497234476344e+01
-1.062308925615e+02
-1.127462838807e+02
-1.182537133366e+02
-7.691106386436e+01
-8.882241004477e+01
-4.674478694913e+01
-4.942571932203e+01
-1.051104225099e+02
-1.780343543702e+02
-1.658071733375e+02
-7.882498221660e+01
-7.084209702424e+01
-6.867558007977e+01
-6.062788026108e+01
-6.260881369950e+01
-5.864443434093e+01
-1.547616852294e+02
-9.441702726356e+01
-6.240214971257e+01
-5.114788466884e+01
-1.903520176314e+02
-1.517701481744e+02
-1.166760348296e+02
-1.251138703729e+02
-1.281735679244e+02
-1.367088673064e+02
-1.398749068052e+02
-1.484673940071e+02
-1.451579367106e+02
-1.669462913132e+02
-1.570077907231e+02
-6.483258740104e+01
-1.389798700388e+02
-7.129129856071e+01
-4.334305798410e+01
-4.382426073086e+01
-5.304849891220e+01
-6.473202864101e+01
-1.916194373830e+02
-1.516756179360e+02
-1.428840491959e+02
-5.249950389581e+01
-5.420505485120e+01
-1.750240307263e+02
-6.775821977098e+01
-6.471637145766e+01
-5.817737669655e+01
-4.054330717084e+01
-3.979645322862e+01
-1.012314602707e+02
-5.839269827058e+01
-5.185745070446e+01
-3.632806932297e+01
-3.219561267062e+01
-8.301150533516e+01
-9.478844192119e+01
-1.246182797272e+02
-1.300957290945e+02
-1.849160372109e+02
-4.879592335075e+01
-1.006422342600e+02
-1.585947507253e+02
-1.467519249050e+02
-1.116743263778e+02
-4.096128110414e+01
-3.834186216929e+01
-7.672648925883e+01
-5.970124355833e+01
-5.810152751233e+01
-1.973836420678e+02
-1.077163096875e+02
-1.535585509924e+02
-1.416788131612e+02
-1.656706998702e+02
-3.811970524186e+01
-1.983343058669e+02
-1.836695399224e+02
-1.542150689519e+02
-1.458377449275e+02
-6.093058200771e+01
-5.416534344511e+01
-4.526408872260e+01
-4.719324507432e+01
-6.817794983087e+01
-6.347212833046e+01
-7.246089095699e+01
-6.299899923987e+01
-6.091127424987e+01
-6.444529895298e+01
-5.574212266954e+01
-7.455522416300e+01
-1.236941543725e+02
-1.191392459389e+02
-1.490118865864e+02
-1.374900364251e+02
-1.003487301778e+02
-1.061193432966e+02
-5.828421579161e+01
-5.235139637720e+01
-4.466278210185e+01
-3.991333582469e+01
-1.318799201728e+02
-1.920960436089e+02
-1.095215735419e+02
-1.167735108812e+02
-1.125781750066e+02
-1.903851521999e+02
-8.375887965328e+01
-1.333879610397e+02
-3.686121723037e+01
-1.188654223947e+02
-3.345756496875e+01
-1.165275608974e+02
-1.960878584889e+02
-2.027066722321e+02
-1.791715094052e+02
-4.585958369062e+01
-1.267740064236e+02
-1.233765348846e+02
-5.131655600525e+01
-4.950749475407e+01
-5.899593972719e+01
-4.808412371664e+01
-8.197281671074e+01
-7.635614611643e+01
-1.644091011946e+02
-1.688415721825e+02
-1.573310491149e+02
-1.490990101151e+02
-1.873796932389e+02
-1.828018546544e+02
-6.944590039367e+01
-4.565847057940e+01
-1.129129480300e+02
-5.327650490619e+01
-2.045029795436e+02
-1.984180749525e+02
-2.791603251594e+01
-3.188817121054e+01
-1.066790114904e+02
-3.857200827989e+01
-3.985245779432e+01
-3.696618532634e+01
-2.218067541857e+02
-2.830081855809e+01
-2.085988037523e+02
-6.630122295687e+01
-1.125706354928e+02
-1.346840634479e+02
-7.620056886518e+01
-1.780269109537e+02
-1.002668818873e+02
-1.129495537869e+02
-5.206588998097e+01
-4.527689357082e+01
-5.842049801426e+01
-4.007099171160e+01
-3.057609928165e+01
-1.002092200097e+02
-8.297381883223e+01
-8.934582202751e+01
-5.329242402185e+01
-6.429563557454e+01
-1.309424474973e+02
-1.254118199950e+02
-1.253837672170e+02
-1.282837408308e+02
-1.195527180421e+02
-1.534119428493e+02
-1.416488602108e+02
-1.352003195492e+02
-1.116329919068e+02
-1.186968211814e+02
-8.730947359640e+01
-8.189432590700e+01
-8.708944197054e+01
-1.193042422821e+02
-2.149931419262e+02
-2.092731788707e+02
-2.896173048988e+01
-3.511963516653e+01
-3.305438308232e+01
-3.066805596165e+01
-1.238738238963e+02
-1.204589566759e+02
-1.290210087822e+02
-6.210665055535e+01
-1.499349541954e+02
-2.023643470349e+02
-1.952034385491e+02
-2.109587942703e+02
-1.707826284750e+02
-1.828474780363e+02
-1.777306899476e+02
-2.368944775282e+01
-1.087095985597e+02
-4.537552063929e+01
-2.074931570733e+01
-3.958907146614e+01
-4.641172752357e+01
-3.316575911463e+01
-5.063423458919e+01
-4.356188839884e+01
-5.242824540461e+01
-2.263656064053e+01
-1.239063524756e+02
-2.283284796769e+01
-2.731073588104e+01
-2.109096637840e+02
-2.045645638263e+02
-2.166805964337e+02
-2.102347187456e+02
-1.981910097061e+02
-2.043684132253e+02
-3.862496813974e+01
-2.181316703969e+02
-2.106839647410e+02
-2.243553518518e+02
-3.837410894742e+01
-4.884509185706e+01
-4.116776862696e+01
-3.187343465574e+01
-1.621644807218e+02
-1.512771287025e+02
-1.896686750573e+02
-1.772422410248e+02
-3.990017425258e+01
-3.913388694926e+01
-5.010719959151e+01
-4.850037052928e+01
-5.945044392667e+01
-5.772466668927e+01
-6.886326969750e+01
-1.809240992133e+02
-3.050030201120e+01
-4.139875713449e+01
-1.951964275893e+02
-1.895318692158e+02
-4.673019840092e+01
-3.653509998171e+01
-2.123915214174e+02
-7.047898287308e+01
-1.317500608445e+02
-1.378137334038e+01
-2.153399694474e+01
-7.325889214300e+01
-5.733566668782e+01
-5.053407256085e+01
-4.300080848678e+01
-1.655313813761e+02
-3.104528727002e+01
-3.523831288963e+01
-7.044085072916e+01
-2.770966484347e+01
-1.838481361388e+02
-7.766856092415e+01
-7.501668059274e+01
-4.323833907550e+01
-5.653958463899e+01
-7.763212549741e+01
-5.856322136589e+01
-5.574782330111e+01
-8.463102025295e+01
-4.428562258517e+01
-3.375602547853e+01
-8.167225559155e+01
-1.085106234839e+02
-1.164837498929e+02
-1.279398702095e+02
-1.247186367207e+02
-1.128506906161e+02
-1.212862068729e+02
-1.328813214831e+02
-1.302470634480e+02
-1.437522061913e+02
-1.389315640066e+02
-1.265551493384e+02
-1.349444726604e+02
-1.465054658672e+02
-1.229371538253e+02
-1.997394280846e+02
-8.360812402627e+01
-2.773819331506e+01
-2.474225601266e+01
-7.715229307978e+01
-1.529398664738e+02
-1.452629908326e+02
-6.488028633768e+01
-1.759495968690e+02
-6.544450402002e+01
-4.902538549513e+01
-1.851715637363e+02
-1.045019451583e+02
-1.004908803387e+02
-9.207230777936e+01
-1.400251792402e+02
-6.548722542335e+01
-2.013777624746e+02
-1.350361990221e+02
-1.275116230707e+02
-1.163558553236e+02
-1.177532537815e+02
-2.130463447591e+02
-2.039113033329e+02
-2.061542088193e+02
-1.938018227363e+02
-2.178336880085e+02
-1.626969863319e+02
-1.674769173094e+02
-7.144165194298e+01
-7.648551540636e+01
-8.684825546741e+01
-8.121164562842e+01
-7.095718846557e+01
-7.549488381688e+01
-8.568008514315e+01
-6.971645801162e+01
-1.400490720760e+02
-2.218965071958e+02
-1.492702148097e+02
-1.428983762418e+02
-1.313038584005e+02
-1.136803733966e+02
-1.198533919829e+02
-1.315868471814e+02
-1.074019200169e+02
-1.334381188781e+02
-2.233057101106e+02
-1.401087041510e+02
-1.142650062843e+02
-3.286943755562e+01
-4.599433202826e+01
-4.854994684223e+01
-6.045560960393e+01
-4.553735669797e+01
-1.364507355045e+02
-1.419250440511e+02
-1.355548853705e+02
-1.473759018229e+02
-1.406853868373e+02
-1.297645926073e+02
-1.525922509078e+02
-1.449952162032e+02
-3.085392265655e+01
-1.527102017437e+01
-2.316467469182e+01
-2.271895581441e+01
-3.095187688961e+01
-3.152269087767e+01
-4.035900598223e+01
-3.891475900121e+01
-2.336795003257e+01
-1.406267024316e+01
-2.230496823452e+01
-1.336256183046e+01
-2.167895667268e+01
-3.195884631095e+01
-4.657129818688e+01
-2.283664188604e+02
-1.115975776545e+02
-1.058039696339e+02
-9.448222948128e+01
-1.005271064155e+02
-1.162167665964e+02
-8.825806301018e+01
-8.405929156025e+01
-9.993814398048e+00
-1.964654628754e+01
-1.861383057564e+01
-2.949887159433e+01
-2.946207921149e+01
-2.000835115579e+01
-2.013189676347e+01
-1.033542368318e+01
-2.022582658963e+01
-3.012317497887e+01
-1.030545525471e+01
-8.429081157175e+01
-9.065408377503e+01
-2.250167680814e+02
-3.124821039250e+01
-1.241533174262e+01
-1.257251920988e+02
-1.294511306015e+02
-1.288507854298e+02
-2.091491794619e+02
-2.153388259695e+02
-1.254475033193e+02
-7.372007288119e+01
-1.362214419835e+02
-1.060918475984e+02
-4.374344016081e+01
-7.050963186626e+01
-1.714239181211e+02
-1.552927945734e+02
-1.969666682482e+02
-1.602311831139e+02
-1.854633037235e+02
-2.075502881280e+02
-4.680678693622e+01
-6.431548545402e+01
-5.867074967193e+01
-8.851036993020e+01
-7.768288911400e+01
-1.241355234985e+02
-4.960686228242e+01
-1.732665574377e+02
-7.023210596546e+01
-1.259056462538e+02
-1.020017229382e+02
-8.000557160089e+01
-6.560052035111e+01
-8.654502060267e+01
-1.202352091383e+02
-1.737452494474e+02
-9.450707598661e+01
-1.253980239803e+01
-1.797645029195e+02
-1.436614106209e+02
-7.135600496311e+01
-1.660123345110e+02
-4.592163667187e+01
-9.483152179592e+01
-1.204524142039e+02
-5.971184918742e+01
-3.828246904469e+01
-5.172310927298e+01
-2.041721070912e+02
-1.006321784482e+02
-7.124419548178e+01
-1.221321996607e+02
-8.352626496762e+01
-3.241071258709e+01
-1.114100219286e+02
-1.123746116254e+02
-1.807996887852e+02
-1.449026342077e+02
-7.649165209296e+01
-1.922034650478e+02
-1.126456180712e+02
-1.066184931582e+02
-1.311815051649e+02
-9.405718599669e+01
-1.026054489432e+02
-1.251213157530e+02
-1.705603216759e+02
-6.820710637727e+01
-1.081286930414e+02
-1.077071269113e+02
-1.108361084405e+02
-1.648671514468e+02
-1.860274050271e+02
-4.606756437989e+01
-6.622302563851e+01
-7.288294997259e+01
-1.601016048643e+02
-1.180778482305e+02
-7.293822277906e+01
-1.859058993972e+02
-1.139610705685e+02
-1.259111169980e+02
-5.356777816168e+01
-3.559339842021e+01
-7.373153372976e+01
-1.090041763759e+02
-1.376531473795e+02
-1.332265087478e+02
-1.918759755780e+02
-1.724844984079e+02
-1.898545122308e+01
-4.332372372998e+01
-1.978256542327e+02
-1.287097331249e+02
-1.779569973524e+02
-1.336858362604e+02
-1.772776001292e+02
-3.737886628771e+01
-2.038693911632e+02
-1.708193621022e+02
-6.777492399400e+01
-2.867314340106e+01
-2.181393064927e+02
-1.832468175928e+02
-1.220052503833e+02
-1.239087640369e+02
-2.888431136736e+01
-1.433797269282e+02
-1.108861143685e+02
-1.376332379784e+02
-1.879446383704e+02
-8.787786856151e+01
-1.371806323835e+02
-1.427204776118e+02
-2.966047183735e+01
-3.952744574243e+01
-1.427430147086e+02
-7.972069267560e+01
-1.302038640381e+02
-1.912267562588e+02
-1.482944012302e+02
-8.994122087575e+01
-1.538085826409e+02
-2.721543655706e+01
-9.662424078596e+01
-1.592909602704e+02
-1.224599012453e+02
-3.123985072989e+01
-1.301208639526e+02
-2.023458256637e+02
-9.215895766436e+01
-1.364943052959e+02
-1.090861904550e+02
-2.617667425600e+01
-1.481651919179e+02
-1.341705103123e+02
-1.381726720808e+02
-1.199200643948e+02
-1.601743602278e+02
-3.575960009222e+01
-6.880042206883e+01
-5.772140534217e+01
-9.603781503888e+01
-1.371454175771e+02
-3.929849959245e+01
-1.142256099437e+02
-4.215365764879e+01
-9.153179257326e+01
-1.585997041506e+02
-6.144471494563e+01
-9.731327402782e+01
-6.523709594760e+01
-9.239351270811e+01
-1.311328434738e+02
-9.794777531425e+01
-9.264931980811e+01
-1.175355568145e+02
-9.795282812341e+01
-1.274544987155e+02
-2.294684746672e+02
-3.781399911741e+01
-2.396115493056e+01
-1.608489304575e+01
-3.523644294582e+01
-8.127547772096e+01
-1.195448025891e+02
-3.830372652944e+01
-7.521754249595e+01
-1.511522649695e+02
-1.940820488307e+02
-7.858715325460e+01
-1.849495390722e+02
-1.464849266598e+02
-1.060873635700e+02
-2.810101109920e+01
-2.129797961192e+01
-1.712532742210e+02
-2.317794391881e+01
-3.151251202255e+01
-2.922857088297e+01
-8.060220755558e+01
-3.067072806940e+01
-2.380854111114e+01
-2.008786954104e+02
-4.059380550292e+01
-1.619944596775e+02
-2.210237482304e+01
-1.250209293929e+02
-1.880466925034e+02
-2.279840077629e+02
-1.744366691011e+02
-2.574814183471e+01
-5.585976376044e+01
-1.688251346100e+02
-8.813179038173e+01
-2.299205322789e+02
-4.057581276086e+01
-1.183004499756e+02
-4.172857305496e+01
-1.180843402922e+02
-1.315176942969e+02
-5.331637788200e+01
-5.967400999223e+01
-2.211767221378e+02
-1.426052082112e+02
-2.334286342678e+01
-7.820551673320e+01
-1.005075442676e+02
-2.217654321767e+01
-2.154488246910e+02
-1.427340346007e+02
-2.199013005779e+02
-2.912143063586e+01
-1.950768948355e+01
-2.150249505004e+02
-1.605928341237e+02
-4.714453019239e+01
-1.337259714053e+02
-1.842846336353e+01
-2.713984371021e+01
-1.958149727218e+01
-2.303668267720e+02
-1.214019241545e+02
-1.109707759832e+02
-3.744857101906e+01
-7.317230673360e+01
-1.704892064844e+02
-2.871389814480e+01
-1.211612405077e+02
-2.125790701733e+02
-1.338294333313e+02
-2.102901017096e+02
-2.082429634706e+01
-1.879563938942e+02
-1.982392248841e+02
-2.779915202750e+01
-1.377944617011e+02
-9.005667174061e+01
-3.899278516595e+01
-1.284956922979e+02
-8.125443757829e+00
-2.703453912532e+01
-2.323294328154e+02
-3.714824762575e+01
-4.661610986146e+01
-1.569974723810e+02
-1.367611246097e+02
-9.950403333646e+01
-3.735180899868e+01
-1.497948616723e+01
-6.769398047160e+01
-1.935061149248e+02
-1.297321240002e+02
-5.977452344508e+01
-2.915372021345e+01
-1.520201713856e+02
-1.200490128377e+02
-1.636262053821e+02
-1.944862059760e+02
-1.320470584670e+01
-1.472303341639e+02
-1.863292023194e+01
-2.202885077301e+02
-1.251850643269e+02
-1.471871962822e+01
-1.229884692023e+01

SCALARS node_materi_stress_size_dev_sd_sig float
LOOKUP_TABLE default
4.641700373312e+00
7.841697361754e+00
1.791981919266e+02
9.854358627411e+01
1.081399258877e+01
2.082347233784e+01
3.001003866168e+01
4.048462563480e+01
5.065974293520e+01
6.052710431422e+01
7.040457300646e+01
8.022452714776e+01
8.989250419051e+01
9.955561816260e+01
1.092898940734e+02
1.183010077395e+02
1.263118291166e+02
1.350604427035e+02
1.437261030426e+02
1.518868194954e+02
1.598963810172e+02
1.677370367792e+02
1.750312091786e+02
9.925745506690e+01
9.888555392173e+01
9.914555265891e+01
9.938020678917e+01
9.928742860707e+01
1.000368032793e+02
1.006824369456e+02
1.014988398477e+02
1.029286875668e+02
1.043099163374e+02
1.055238333012e+02
1.079758275859e+02
1.106393721391e+02
1.134223024840e+02
1.163259027724e+02
1.195512032133e+02
1.232379637816e+02
1.275868586158e+02
1.318905292779e+02
1.361105879330e+02
1.399855466507e+02
1.436078328771e+02
1.472092672472e+02
1.505271849815e+02
1.537192820868e+02
1.567122825756e+02
1.594484151082e+02
1.618633800791e+02
1.639967743540e+02
1.661481887141e+02
1.679663333150e+02
1.691962424247e+02
1.706828273925e+02
1.720552593997e+02
1.732701571646e+02
1.742914222240e+02
1.752103865711e+02
1.758834053604e+02
1.764351354646e+02
1.768644227707e+02
1.774504351178e+02
1.781723058108e+02
1.785955615063e+02
1.780338505816e+02
1.789389337451e+02
1.788278894370e+02
1.791431508030e+02
1.795001041481e+02
1.795307925816e+02
1.341955609556e+01
2.184420247492e+01
3.086009852979e+01
4.009383188124e+01
4.986122225572e+01
5.987945111289e+01
7.020331289265e+01
8.074498171494e+01
9.174770340446e+01
1.092338644152e+01
1.600448783638e+01
1.969161821064e+01
2.433726294637e+01
2.655050408670e+01
2.721725958172e+01
2.749090650336e+01
2.769016002037e+01
2.787099704816e+01
2.836707822044e+01
2.506266660365e+01
9.310699278523e+00
7.732016564883e+00
7.737606506145e+00
7.695926764746e+00
7.701877841038e+00
8.001253311790e+00
7.770691093501e+00
7.831588439735e+00
7.848459058021e+00
7.929014435344e+00
8.042441884180e+00
8.293330223262e+00
8.731068306188e+00
9.638550808324e+00
1.142107286125e+01
1.025887226259e+01
1.099307340984e+01
1.129217980894e+01
1.041171423001e+01
8.544172352595e+00
7.238752236699e+00
6.126712138078e+00
5.072939242177e+00
4.123925102399e+00
3.393016670777e+00
2.921470423024e+00
3.058754467897e+00
3.197942848991e+00
3.151774093879e+00
3.614386126653e+00
4.144164228642e+00
4.477866360582e+00
4.444927178704e+00
4.150394703212e+00
1.748674631325e+01
1.065160995910e+01
8.545209806268e+00
7.701559266512e+00
7.374080625260e+00
7.329849916234e+00
7.472221802960e+00
7.630480901338e+00
7.836129934936e+00
7.936160833151e+00
8.060236558904e+00
8.150424472644e+00
8.148953833420e+00
8.201566326911e+00
8.417717763199e+00
9.335394571827e+00
1.551094248458e+01
2.245934536837e+01
2.559876746663e+01
2.703192982876e+01
2.824101837164e+01
2.832578644650e+01
2.775944429807e+01
2.787376351401e+01
2.929667066246e+01
1.999981103048e+01
2.135248411778e+01
1.689818535944e+02
5.910775668642e+00
6.354169328845e+00
1.736027866934e+02
2.691223661273e+01
1.047954549022e+02
1.620504387717e+02
2.903858791555e+01
1.520849192583e+02
3.048718920621e+01
1.758013320805e+02
7.063551269676e+00
1.377060308389e+02
2.286559931704e+01
6.593508213473e+01
1.294185038583e+02
1.245841850480e+02
1.091836781809e+02
9.484086833004e+01
9.565619940595e+01
1.015419432517e+02
1.498490346896e+01
1.221061017892e+01
1.262272718192e+01
4.494635350191e+01
1.760126434829e+02
7.095119321989e+00
8.669104482052e+00
1.556302150274e+02
1.187299584052e+01
3.525346331052e+01
1.143103983026e+02
1.580342639896e+02
1.453245649793e+02
1.653572627783e+02
1.714362595633e+02
5.944799962753e+00
1.248802538422e+01
1.736192834922e+02
6.481102755572e+01
6.717897055332e+00
8.516035146503e+01
9.596370085258e+01
2.841314856560e+01
2.493689764534e+01
2.973720079107e+01
2.971456793126e+01
1.512412388467e+01
2.694805522036e+01
1.774660072348e+02
8.564717716979e+00
8.562184612371e+01
2.184071160523e+01
2.907558468295e+01
2.783393335773e+01
3.764747839128e+01
3.800907228157e+01
4.700242039308e+01
4.690744408311e+01
5.629349099575e+01
5.628561832725e+01
4.818789165437e+01
6.567679739358e+01
6.560995051641e+01
7.502884354354e+01
7.485683180339e+01
6.593167791150e+01
7.495801302267e+01
6.633692760192e+01
7.514389259052e+01
8.380701083697e+01
8.378343044665e+01
7.529738438495e+01
8.369320932642e+01
7.529396705536e+01
8.345235121074e+01
7.504622717991e+01
8.299421756418e+01
9.137680889285e+01
9.068948121216e+01
8.228620542153e+01
8.974934044408e+01
8.128879670890e+01
8.850072606289e+01
9.689778117380e+01
9.540005355399e+01
8.690051940528e+01
9.357493329434e+01
8.495284427736e+01
9.141140958450e+01
8.262817064904e+01
8.884383983914e+01
9.750499244884e+01
9.472667495274e+01
8.588825539540e+01
9.153235147361e+01
1.002961645316e+02
9.687366569004e+01
1.055619072058e+02
1.019379438916e+02
9.312070358405e+01
9.799034807543e+01
1.067353652092e+02
1.026074241636e+02
9.372854351214e+01
9.820880890846e+01
1.070351028793e+02
1.025093819729e+02
9.354110667689e+01
9.775371609745e+01
1.067092808801e+02
1.018446073648e+02
9.274832305370e+01
9.677184159749e+01
1.058721769377e+02
1.007273007211e+02
1.098103250487e+02
9.144110379472e+01
9.539655926667e+01
8.590941861336e+01
8.992029867244e+01
1.037106618270e+02
8.026692757731e+01
7.628553088509e+01
8.434695610104e+01
9.395762322195e+01
7.455234269391e+01
7.870144449485e+01
6.880350104715e+01
7.591874904155e+01
9.244643762589e+01
7.301903141238e+01
6.304290653887e+01
5.873487475730e+01
5.292358261564e+01
3.998698674774e+01
5.039211746029e+01
4.231528079160e+01
5.341074515926e+01
4.609443240630e+01
5.725326733175e+01
7.570747402447e+01
6.143262866895e+01
6.693718865599e+01
7.377430033906e+01
1.088449656441e+02
8.282623155485e+01
7.721767501519e+01
8.697592902168e+01
1.147881961573e+02
1.186653241075e+02
1.234694805634e+02
1.272671481332e+02
1.318933872191e+02
1.356083725371e+02
1.309759369945e+02
1.392374812212e+02
1.346137722881e+02
1.400499009068e+02
1.363035329429e+02
1.427920027239e+02
1.381878600467e+02
1.462813899573e+02
1.417087832804e+02
1.334265105760e+02
1.369896719005e+02
1.285707255821e+02
1.140356925869e+02
1.171962267487e+02
1.223013773785e+02
1.253482247680e+02
1.303567688588e+02
1.332905575946e+02
1.381762375095e+02
1.350713070892e+02
8.428087681291e+01
8.254463220988e+01
7.681566861911e+01
7.332818615477e+01
6.751719498709e+01
6.386497080709e+01
5.797794105668e+01
5.411276313792e+01
5.978995790870e+01
4.980770831248e+01
5.528595705063e+01
4.508071636051e+01
5.035259312009e+01
9.902588630470e+01
1.280837038980e+02
1.359383873045e+02
1.304941757236e+02
4.855278993166e+01
1.451937805872e+02
1.442780338219e+02
1.404642361214e+02
1.427782655084e+02
4.721587681484e+01
4.821509267896e+01
5.177051218652e+01
5.716039716097e+01
5.032758817001e+01
1.482812124387e+02
5.155365065866e+01
1.472314462355e+02
3.956275771737e+01
1.405238043795e+02
1.486548087121e+02
1.261848912263e+02
1.383290224789e+02
1.326145531847e+02
6.053087610600e+01
5.547347641892e+01
4.529607611760e+01
5.042660405799e+01
6.050528436392e+01
5.497645776359e+01
4.471070697605e+01
4.926191963027e+01
5.956959036256e+01
5.381067551927e+01
4.327688060046e+01
4.787880618946e+01
1.531337681536e+02
3.456010531844e+01
5.741153254471e+01
1.519620329111e+02
1.456557208620e+02
6.152045297785e+01
5.510154597807e+01
4.427537204818e+01
4.940303585054e+01
6.035003613064e+01
5.481589088838e+01
4.431288953867e+01
4.976732772397e+01
3.966643885876e+01
4.512560589912e+01
5.540864246602e+01
5.077590959029e+01
4.082032574357e+01
4.637693624051e+01
3.667610089407e+01
4.206892632580e+01
5.205489341129e+01
4.173797649379e+01
1.395309787494e+02
1.471718121727e+02
8.173043089431e+01
9.098524305814e+01
9.651021539008e+01
1.005562777054e+02
4.758718422901e+01
5.785984896680e+01
4.211674402870e+01
4.533731136196e+01
6.865340653687e+01
1.440674947459e+02
1.357820308544e+02
7.267678070325e+01
6.508611625973e+01
6.384022439744e+01
5.604605628083e+01
5.726971137066e+01
5.460309336859e+01
1.323554833022e+02
6.125490376243e+01
5.442396708101e+01
4.415236529273e+01
1.521390602778e+02
1.316649355389e+02
9.974625518556e+01
1.073490351842e+02
1.081748315833e+02
1.157050720185e+02
1.166686983034e+02
1.240522417194e+02
1.228656064695e+02
1.404633140601e+02
1.310533544655e+02
3.764681722847e+01
1.224670068126e+02
6.408117514592e+01
3.731557862058e+01
3.707044117989e+01
4.577526843248e+01
5.584729149822e+01
1.557926760138e+02
1.251766437601e+02
1.175034840474e+02
4.839321463088e+01
4.950612071317e+01
1.458933724184e+02
3.552521043001e+01
3.443896826523e+01
3.018213874309e+01
3.483892456466e+01
3.270293297839e+01
6.588481849711e+01
5.480180995648e+01
4.809632882569e+01
2.895030974233e+01
2.374516007715e+01
5.305364091691e+01
6.340641959526e+01
1.058188902818e+02
1.097860229842e+02
1.520611224343e+02
4.191372728510e+01
6.840384168519e+01
1.360098059693e+02
1.279685767676e+02
9.498728461621e+01
3.602997948738e+01
3.262969815350e+01
6.965576769844e+01
5.242931533314e+01
5.008923666023e+01
1.593593649271e+02
7.173957611606e+01
1.296239352490e+02
1.215187943422e+02
1.376492296872e+02
3.115584495802e+01
1.594851863882e+02
1.476456235583e+02
1.258498276379e+02
1.183662154561e+02
5.738503306879e+01
5.054024885619e+01
4.139238951733e+01
4.355856113321e+01
4.753726877183e+01
5.974295707613e+01
5.801729764764e+01
4.937228337809e+01
5.010908054350e+01
5.805237799512e+01
5.017364472256e+01
7.070435799241e+01
1.117607888086e+02
1.019228043479e+02
1.249280047846e+02
1.195458096319e+02
6.617142537057e+01
7.224143572574e+01
3.137776038721e+01
2.737429794462e+01
3.824860595548e+01
3.378503875383e+01
1.136867123258e+02
1.555169997469e+02
7.305146218714e+01
8.049140114034e+01
7.635404876501e+01
1.554976766672e+02
7.883562646963e+01
1.189350211601e+02
2.926022358528e+01
1.051613100340e+02
2.798973833045e+01
9.272334560108e+01
1.556142930756e+02
1.599061295034e+02
1.479659362361e+02
3.100780838909e+01
1.118812132143e+02
1.101800651616e+02
4.206782258881e+01
4.270843777406e+01
5.047616521135e+01
4.286388861763e+01
7.398093978374e+01
6.837065596314e+01
1.342775801715e+02
1.390756495162e+02
1.272657469733e+02
1.195629301493e+02
1.531657821495e+02
1.508883282427e+02
5.990771805951e+01
4.206204466837e+01
7.731383941635e+01
4.093289388806e+01
1.627030098147e+02
1.589795591326e+02
1.816542585760e+01
2.332097570381e+01
7.428325026560e+01
3.493259381384e+01
3.657117893688e+01
3.288371697005e+01
1.711994671398e+02
1.171778023161e+01
1.633303417673e+02
5.851252638824e+01
7.948612820875e+01
1.183128172752e+02
7.108173220095e+01
1.481353208624e+02
6.860387111821e+01
8.052059255521e+01
2.526097177672e+01
2.119503912580e+01
2.922842075072e+01
3.381164235719e+01
2.255734989608e+01
6.717551277839e+01
7.165073735668e+01
7.696373180208e+01
4.622035831304e+01
5.652785246793e+01
1.110760435743e+02
1.072414362916e+02
1.013087337537e+02
1.018886794791e+02
1.003126910089e+02
1.322204146370e+02
1.240104335546e+02
1.197276415664e+02
7.729619513215e+01
8.472369980106e+01
7.933431605239e+01
7.497122271708e+01
7.805570796694e+01
8.357602438167e+01
1.674118709298e+02
1.640675747967e+02
2.345605144482e+01
2.915224345436e+01
2.744678818112e+01
2.406390687950e+01
8.825378266390e+01
8.477809337336e+01
9.363943673282e+01
5.349686818478e+01
1.280479203508e+02
1.621945716596e+02
1.584825383987e+02
1.668050601156e+02
1.423347267805e+02
1.496774798397e+02
1.453057233333e+02
1.333219109028e+01
7.672562878730e+01
2.207219582146e+01
9.289197128026e+00
1.841923464253e+01
2.343850489364e+01
1.442814445984e+01
4.366820109266e+01
1.926576595455e+01
2.463653767968e+01
1.691729966054e+01
8.914633999310e+01
1.833311165275e+01
2.257272093015e+01
1.661777372013e+02
1.623275234120e+02
1.692611617335e+02
1.653382463294e+02
1.582555739613e+02
1.617168278726e+02
1.731140474612e+01
1.696933069386e+02
1.651774242748e+02
1.733367788320e+02
3.591103115739e+01
4.531435129051e+01
3.811070604297e+01
3.047296523431e+01
1.301365318654e+02
1.203256454491e+02
1.514145284204e+02
1.432235629032e+02
1.912103730048e+01
1.875268543579e+01
2.668786367073e+01
2.570513042924e+01
3.406703400177e+01
3.286274230906e+01
4.165157801896e+01
1.468606847192e+02
2.798952312643e+01
3.473881088988e+01
1.579458401220e+02
1.550276600681e+02
4.251887737807e+01
3.506564390762e+01
1.673649891588e+02
6.664870000675e+01
9.764667171516e+01
8.298526347116e+00
1.161748929041e+01
6.892171708022e+01
5.050254124327e+01
4.678280259973e+01
3.993859734634e+01
1.402911987211e+02
2.472395337622e+01
3.046359793946e+01
4.254014057987e+01
2.372656266297e+01
1.475076051901e+02
7.349557484237e+01
6.657391650238e+01
3.893595408398e+01
5.282590518674e+01
5.677213413539e+01
3.833819129911e+01
3.968377830037e+01
7.989894467103e+01
4.109102735321e+01
3.282074406156e+01
6.670242006086e+01
7.287243047295e+01
8.150824204935e+01
9.309549673044e+01
9.044769040067e+01
7.906378411064e+01
8.820046466268e+01
9.941456957337e+01
9.770244729518e+01
1.107136370566e+02
1.069700541936e+02
9.581849151427e+01
1.045969446688e+02
1.148578898228e+02
9.428392436116e+01
1.599588162028e+02
7.806184688710e+01
1.819919561638e+01
1.631665075350e+01
6.690957795898e+01
1.202763761908e+02
1.119957559667e+02
6.132198041319e+01
1.414429144723e+02
4.845447915966e+01
4.409947271578e+01
1.487806222943e+02
7.002157620816e+01
6.781764012475e+01
5.883637170598e+01
1.063754133482e+02
3.405419620587e+01
1.601886031749e+02
1.200185838344e+02
1.142790024711e+02
1.059612818101e+02
8.641076394280e+01
1.675801767187e+02
1.630894889623e+02
1.642748493944e+02
1.576866783088e+02
1.702402554402e+02
1.297003709995e+02
1.341632810673e+02
6.514266756782e+01
7.044306153775e+01
7.999780134770e+01
7.534007107917e+01
6.560300026969e+01
7.040238911469e+01
7.988189113767e+01
6.520367983325e+01
1.111795542322e+02
1.724129935145e+02
1.280505382239e+02
1.240114822091e+02
1.154702829485e+02
9.797653056782e+01
1.033411388105e+02
1.124476029647e+02
9.251854514751e+01
1.146136900352e+02
1.730993305213e+02
1.235687228077e+02
9.937429234337e+01
1.341294893551e+01
2.059360478432e+01
2.330764524059e+01
3.065675193942e+01
2.005356735603e+01
1.149092696673e+02
1.187151882337e+02
1.137063755371e+02
1.224681637434e+02
1.173252646180e+02
1.090485456505e+02
1.260176311433e+02
1.203960479341e+02
1.223920843601e+01
6.107501278269e+00
1.372656910570e+01
1.383124246389e+01
2.286337533300e+01
2.326026935822e+01
3.317101833533e+01
3.139106689758e+01
1.328697031284e+01
5.792130058042e+00
1.428748951888e+01
5.779779456330e+00
1.445268782739e+01
2.489558451210e+01
3.988063578672e+01
1.752439643553e+02
9.470373792644e+01
9.017593712245e+01
8.079022526140e+01
8.592920729537e+01
9.856205123432e+01
7.557571966740e+01
7.207847556896e+01
8.882957901865e+00
1.743763334565e+01
1.666878246521e+01
2.600837168076e+01
2.562875054693e+01
1.738348609018e+01
1.724420631561e+01
8.300264027638e+00
1.696469678429e+01
2.583536456124e+01
7.636980714627e+00
5.490206687733e+01
6.045354188426e+01
1.739642460883e+02
1.273562895603e+01
6.370746888295e+00
9.266246054679e+01
9.576392929634e+01
9.538977856438e+01
1.636267380895e+02
1.674051482038e+02
9.274716928575e+01
6.455091195910e+01
1.018165562999e+02
7.320571252080e+01
3.834943670370e+01
6.257518467762e+01
1.394271743125e+02
1.298387111434e+02
1.565230536158e+02
1.321960384242e+02
1.497244249119e+02
1.651322655690e+02
4.025205649781e+01
3.536324813636e+01
3.254052982463e+01
5.655665004064e+01
6.732796175938e+01
1.049403109489e+02
4.282498267881e+01
1.401000184096e+02
5.845470594406e+01
1.108012432020e+02
8.843770601130e+01
7.042598242718e+01
5.832000287902e+01
7.991030511944e+01
1.046633969916e+02
1.436827189708e+02
6.245413187684e+01
8.230561146868e+00
1.479309171032e+02
1.224585048623e+02
3.907063834870e+01
1.409960128686e+02
3.890085599954e+01
6.042468240491e+01
8.460533356568e+01
2.953193070120e+01
3.260761562457e+01
2.611326858606e+01
1.628759541181e+02
6.470134000880e+01
6.157391446750e+01
1.105443543897e+02
7.454566954940e+01
2.574382528610e+01
7.801806976285e+01
1.019478479018e+02
1.502069379973e+02
1.271146402832e+02
6.594749277437e+01
1.549493398452e+02
1.033381259327e+02
7.158508344867e+01
1.088950597895e+02
8.797075674022e+01
6.637762267892e+01
1.112913821488e+02
1.435703519694e+02
5.865145379815e+01
9.185056601916e+01
8.391016988126e+01
9.808963999794e+01
1.347500710728e+02
1.514873020293e+02
4.004597812857e+01
6.206588364969e+01
3.960701949238e+01
1.322108989907e+02
8.304695239214e+01
6.599965018160e+01
1.506893089113e+02
7.790873611452e+01
1.085769270242e+02
4.633882120220e+01
2.874747479724e+01
6.945290556628e+01
9.989661820224e+01
1.175120274804e+02
9.844271908373e+01
1.540796581084e+02
1.444106975501e+02
1.853298433634e+01
3.309828312653e+01
1.574710505848e+02
1.152599048996e+02
1.483196204892e+02
1.118824315998e+02
1.435250409983e+02
3.558844212617e+01
1.610142413646e+02
1.439146674910e+02
6.419063400660e+01
1.191642096460e+01
1.694865733764e+02
1.514809148461e+02
1.063574217902e+02
1.112829216183e+02
3.063436672549e+01
1.212652302395e+02
9.217868930733e+01
1.039745900344e+02
1.542778169232e+02
5.703627226027e+01
1.162186979417e+02
1.245501373018e+02
2.554870773075e+01
3.570201174518e+01
1.199584581508e+02
7.479434825853e+01
1.156315289233e+02
1.551057735578e+02
1.236846065456e+02
8.408577982645e+01
1.273699996824e+02
3.007209047494e+01
6.637048824806e+01
1.309941763541e+02
1.008068324405e+02
2.652893563732e+01
1.133452191129e+02
1.594316323576e+02
8.197874724881e+01
1.198433177438e+02
7.711801573580e+01
2.921154751486e+01
1.282153171914e+02
1.095841748893e+02
1.199830522492e+02
1.082284867790e+02
1.364310695569e+02
3.447686501675e+01
6.041657722482e+01
5.028401125024e+01
8.904756580124e+01
1.102981804254e+02
3.410798421302e+01
8.512588047324e+01
3.553208203051e+01
8.467030504017e+01
1.345194828003e+02
3.592627384283e+01
8.921062485728e+01
5.621275620184e+01
8.439984815384e+01
1.164239165874e+02
8.865517703739e+01
8.349289259535e+01
8.428610740883e+01
8.750298144750e+01
9.443544102980e+01
1.757986242235e+02
1.799372691527e+01
2.850049102584e+01
6.792491214471e+00
3.322507409342e+01
7.238792465961e+01
9.325140094145e+01
1.824147362244e+01
6.650842167495e+01
1.185242190997e+02
1.552328067335e+02
4.993634826587e+01
1.524635734232e+02
1.264799099076e+02
7.449718758363e+01
1.140931833432e+01
1.476330242013e+01
1.390430529949e+02
2.750334964816e+01
2.945656350945e+01
2.609494548681e+01
6.946256236798e+01
2.295138956891e+01
2.601882438431e+01
1.612320473140e+02
1.784052063920e+01
1.360271428145e+02
2.334305101683e+01
8.980822338294e+01
1.523800901101e+02
1.754304381826e+02
1.439986256471e+02
2.071415100959e+01
2.682880630572e+01
1.362232548730e+02
5.771764294398e+01
1.762710599021e+02
1.710817346579e+01
8.557812049234e+01
3.509036753122e+01
8.563857795946e+01
1.029772577063e+02
2.874010959068e+01
3.130661910033e+01
1.708559349657e+02
1.092639975203e+02
1.678538991144e+01
4.916635609712e+01
8.617904679902e+01
1.116705340801e+01
1.688295669868e+02
1.124105311627e+02
1.703829838787e+02
2.561681288990e+01
1.455648016224e+01
1.689192905277e+02
1.280488174950e+02
4.041110706893e+01
1.000404595089e+02
1.166092464453e+01
1.075699605099e+01
1.578350957438e+01
1.764121356832e+02
8.725135035786e+01
9.437485469373e+01
1.791334821158e+01
6.296317798980e+01
1.394706546855e+02
2.188952586043e+01
8.762258600716e+01
1.677894608894e+02
9.903851826328e+01
1.657788353258e+02
9.663834004636e+00
1.518644735538e+02
1.601722064946e+02
1.134918481534e+01
1.036088811843e+02
7.723996312116e+01
3.332421170140e+01
9.557566676461e+01
7.415568246327e+00
1.103162130096e+01
1.774207209204e+02
3.195082866150e+01
2.431519249475e+01
1.243707441671e+02
1.142420537811e+02
6.840466636412e+01
2.992095532181e+01
7.059404601719e+00
4.087376075664e+01
1.560931661709e+02
9.475421701524e+01
3.392039185823e+01
2.136198407382e+01
1.203360827996e+02
1.014111604052e+02
1.328122855895e+02
1.579489364417e+02
1.170168948766e+01
1.220452772370e+02
1.444910197603e+01
1.711263487733e+02
1.054699173598e+02
1.519212242890e+01
8.706628579594e+00

SCALARS node_materi_strain_total_average_a_ept float
LOOKUP_TABLE default
7.265648652018e-06
6.157663059049e-04
4.150464787663e-04
8.335081944239e-04
1.817919146502e-05
3.989211654535e-05
6.118579574981e-05
8.451198723335e-05
1.073355112114e-04
1.299751039050e-04
1.524215312036e-04
1.747239882362e-04
1.969045696951e-04
2.190285026123e-04
2.413887637456e-04
2.632108967847e-04
2.827790163979e-04
3.038415511766e-04
3.252208536921e-04
3.456169740194e-04
3.658723002158e-04
3.859428166178e-04
4.054340184642e-04
8.348557610235e-04
8.334044798911e-04
8.332225117618e-04
8.324243525448e-04
8.301811809156e-04
8.295041567608e-04
8.268325974325e-04
8.233478399033e-04
8.198753754533e-04
8.152196049935e-04
8.077687074835e-04
8.010001372769e-04
7.912464403935e-04
7.805759549484e-04
7.675764734223e-04
7.531176350491e-04
7.366523173525e-04
7.194650009541e-04
7.018359440647e-04
6.835966063458e-04
6.644890560719e-04
6.446980714805e-04
6.255086891397e-04
6.066011461669e-04
5.885085610954e-04
5.714011174986e-04
5.548672920611e-04
5.400094136236e-04
5.251159327829e-04
5.124869703490e-04
5.002262163942e-04
4.878974968525e-04
4.770142498840e-04
4.684436067574e-04
4.604170126758e-04
4.526540770891e-04
4.471478286200e-04
4.405962208661e-04
4.359417768945e-04
4.308223157464e-04
4.274070126138e-04
4.258296324331e-04
4.242178510891e-04
4.187368977377e-04
4.196088910214e-04
4.168149236734e-04
4.161159939856e-04
4.165397025267e-04
4.160146145496e-04
6.384702019398e-04
6.604072948856e-04
6.823492328799e-04
7.040745005811e-04
7.264041447522e-04
7.490525387976e-04
7.716620983788e-04
7.948045429155e-04
8.176796484511e-04
-1.615098439247e-05
5.896162598846e-04
1.727455419368e-05
7.497533384817e-05
1.402948760846e-04
2.062396350115e-04
2.749948566140e-04
3.452947567635e-04
4.140752649458e-04
4.804466675572e-04
5.426842927005e-04
6.003398025193e-04
6.134197819400e-04
6.152821204174e-04
6.153130056264e-04
6.150090518914e-04
6.177960036754e-04
6.151922872024e-04
6.149051561180e-04
6.149250308218e-04
6.146753558218e-04
6.138143423636e-04
6.126963314952e-04
6.104014817589e-04
6.068749147031e-04
6.014419057955e-04
-2.040352463812e-05
-2.522189354866e-05
-2.643727607747e-05
-2.447083600184e-05
-2.061681109907e-05
-1.741530326815e-05
-1.427446150786e-05
-1.118658808901e-05
-8.229599766565e-06
-5.488859010663e-06
-2.598023467532e-06
-7.104962771700e-07
1.435055412255e-06
3.217388090208e-06
4.777886331353e-06
5.868483208765e-06
6.731562204197e-06
7.273615552602e-06
7.166770730600e-06
5.817783190285e-04
5.965759734724e-04
6.040197310383e-04
6.068794004069e-04
6.081447853480e-04
6.084218351125e-04
6.078588005250e-04
6.074480070809e-04
6.073994947084e-04
6.067089664053e-04
6.063386233087e-04
6.060707261434e-04
6.059811366441e-04
6.057922299917e-04
6.051191473088e-04
6.013422556687e-04
-3.983320016239e-06
4.471582671374e-05
1.073559692386e-04
1.744670622463e-04
2.402880736313e-04
3.106276900593e-04
3.799650520183e-04
4.485887921879e-04
5.079796050855e-04
5.733188282947e-04
7.523586940603e-05
4.674245402006e-04
2.956846941016e-06
-9.092714513363e-06
4.327426807365e-04
2.035514440517e-04
2.311501543902e-04
5.113733507662e-04
3.316907731727e-04
5.724294384120e-04
4.654273273983e-04
4.190627055821e-04
1.003574251251e-05
6.451088411629e-04
5.751063636504e-04
1.423157200086e-04
2.900661665596e-04
6.981309445524e-04
7.612757558600e-04
8.178324731452e-04
8.062365440647e-04
7.911260104340e-04
6.129398424197e-04
6.299541427340e-04
6.349407807218e-04
7.154196241434e-04
4.116218687101e-04
-7.883426644595e-06
1.447851734666e-05
3.550828454362e-04
6.340273990259e-04
7.266658778594e-05
7.295059748622e-04
5.418709304984e-04
6.079998786654e-04
4.882043013457e-04
4.510990700114e-04
-3.406220402852e-06
6.240134043231e-04
4.206846368915e-04
7.595905849623e-04
7.687176704728e-06
1.860058726278e-04
8.240200893811e-04
2.686873920071e-04
1.377270054794e-04
3.984925157214e-04
5.227664493013e-04
1.841375377786e-05
6.731887116553e-04
4.125809023844e-04
1.482283609587e-05
8.052349195115e-04
5.915563974496e-04
5.855290024622e-04
6.053280688595e-04
5.976928954551e-04
6.178369391031e-04
6.121056918326e-04
5.902217726769e-04
6.060992483103e-04
5.827846383233e-04
6.324882240258e-04
5.999220149949e-04
5.756269915902e-04
5.936519530229e-04
5.687758937774e-04
5.503514061579e-04
5.432288331599e-04
5.242441046462e-04
5.170324769616e-04
5.366867815208e-04
5.104698972097e-04
4.902321290521e-04
4.839551863870e-04
4.630353116349e-04
4.572099372563e-04
4.354222686079e-04
4.303122393847e-04
4.521727598360e-04
4.259561211338e-04
4.034455536399e-04
3.998507413914e-04
3.766488829725e-04
3.738436579526e-04
3.969170169525e-04
3.718108162815e-04
3.479376353818e-04
3.469884743224e-04
3.223366769624e-04
3.225615176478e-04
2.971422606219e-04
2.984162434189e-04
3.232066167986e-04
3.000434201632e-04
2.746724349451e-04
2.773169984054e-04
3.021382002041e-04
2.803523511149e-04
3.046035241994e-04
2.837280967967e-04
2.592901580228e-04
2.635107987258e-04
2.873752241344e-04
2.679038228519e-04
2.439206572974e-04
2.491272546916e-04
2.726010603154e-04
2.545450313378e-04
2.310012768039e-04
2.370990222783e-04
2.602873187389e-04
2.433478466870e-04
2.201586374340e-04
2.269329078799e-04
2.498533470286e-04
2.338555651175e-04
2.564993158097e-04
2.107946426898e-04
2.182372824264e-04
1.950166916552e-04
2.030344283235e-04
3.946401193992e-04
1.797824873288e-04
1.715759093099e-04
1.882674644235e-04
2.112271831382e-04
1.649755749976e-04
1.738801419043e-04
1.506019930003e-04
2.959404212021e-04
5.305705195744e-04
1.598571843914e-04
1.366438407135e-04
1.270369499409e-04
1.132439991986e-04
6.357074085983e-04
6.525683824856e-04
6.542131498683e-04
6.720542830354e-04
6.722690142518e-04
1.230327972349e-04
6.180353974394e-04
6.706610743687e-04
4.698965640970e-04
3.801255828482e-04
3.260677502180e-04
1.827785733801e-04
1.690787366096e-04
1.916764969230e-04
2.724010105150e-04
2.786897490794e-04
2.944490089044e-04
3.003654963750e-04
3.159309119808e-04
3.215258335929e-04
3.064969424937e-04
3.273614439491e-04
3.128375976785e-04
3.368506986523e-04
3.318099360785e-04
3.334315882308e-04
3.194055487402e-04
3.397947646872e-04
3.262071475769e-04
3.055556187816e-04
3.127624485134e-04
2.919842241297e-04
3.280031759956e-04
3.491615403067e-04
3.505579580534e-04
3.713591814511e-04
3.722822101495e-04
3.927025408781e-04
3.931152172902e-04
3.736126765648e-04
5.872658345341e-04
2.515646971618e-04
2.482402457053e-04
2.247658652786e-04
2.206829450387e-04
1.968484453051e-04
1.919444082515e-04
1.676510233447e-04
1.738043520679e-04
1.441825900368e-04
1.516970752940e-04
1.217958964846e-04
1.305182955044e-04
4.477373922818e-04
3.926221358451e-04
4.135999795497e-04
4.141547031404e-04
1.032345235808e-04
3.332634056954e-04
3.524890864886e-04
3.479150826700e-04
3.941386952522e-04
1.000205601847e-04
1.619498587747e-04
1.874029421125e-04
6.910142892383e-04
6.898881695476e-04
3.684027463780e-04
1.098502012675e-04
3.477115091927e-04
1.133669397898e-04
3.202000824761e-04
3.405041171938e-04
2.918024085809e-04
4.348858608640e-04
4.359345066120e-04
1.593161643150e-04
1.391006747363e-04
1.110056905199e-04
1.203424911364e-04
1.476412980459e-04
1.291982055976e-04
1.020756956985e-04
1.115243504940e-04
1.381949911776e-04
1.211586812664e-04
9.460932437090e-05
1.047968967958e-04
3.533099359935e-04
9.097115256624e-05
5.322898915778e-04
3.725120970952e-04
4.129360787052e-04
7.097105057049e-04
7.072514250259e-04
6.876088049441e-04
7.037622729692e-04
7.244263769537e-04
7.198409719116e-04
6.992854942730e-04
7.144126960748e-04
6.938664631359e-04
7.081963485287e-04
7.295530608102e-04
7.225783142703e-04
7.012161760938e-04
7.150008822526e-04
6.935544230285e-04
7.067960342845e-04
7.288307390473e-04
8.761040896802e-05
3.753300420103e-04
3.957086764925e-04
1.787892863295e-04
2.005035068184e-04
2.140034462717e-04
2.228823508418e-04
7.200076959536e-04
7.425834578677e-04
1.567452389265e-04
1.833587934709e-04
7.111451266778e-04
3.279405368124e-04
3.073922479846e-04
3.525375213887e-04
3.557485973650e-04
3.271415432308e-04
3.296100139696e-04
3.598756017957e-04
2.994625559872e-04
3.268256245608e-04
7.445707425805e-04
1.173340296051e-04
9.314600921148e-05
3.480966276922e-04
3.544203394790e-04
4.734717350974e-04
4.689206513072e-04
4.943008259444e-04
4.895262575122e-04
5.147135174856e-04
5.095604992294e-04
4.852579665859e-04
4.565352581867e-04
5.050603833963e-04
6.977913298734e-04
3.926392937381e-04
1.471778213764e-04
7.734468421080e-05
7.785281322479e-05
9.677002481893e-05
1.196057238716e-04
3.881056547356e-04
5.347726816589e-04
5.400169127585e-04
3.340601112790e-04
3.653914430193e-04
4.546431173308e-04
6.551808202556e-04
6.796968446090e-04
6.741099969139e-04
7.234527479351e-05
6.814721365988e-05
7.413582747185e-04
2.134407313491e-04
2.108119591257e-04
8.101557515217e-05
5.883789884245e-05
7.331173755247e-04
7.557856498034e-04
2.361183708064e-04
2.446198992919e-04
3.847575991588e-04
8.898184713573e-05
7.653544082641e-04
3.570644473643e-04
3.356965003848e-04
2.094711111170e-04
1.520181181871e-04
1.249257048738e-04
1.642869484457e-04
1.147478579584e-04
1.065262701493e-04
4.042036618362e-04
7.460801024782e-04
4.814851893518e-04
4.612534641247e-04
5.010260842917e-04
6.298224141621e-05
3.921269756075e-04
3.359074175067e-04
5.593699892752e-04
5.655118196442e-04
2.401774341067e-04
2.394882613047e-04
2.094908726645e-04
2.398219461224e-04
5.667954559806e-04
2.681830390118e-04
5.055428903131e-04
5.146412169352e-04
4.867625056269e-04
3.896469888626e-04
3.965742293587e-04
2.451574717446e-04
3.480427247987e-04
2.277450794760e-04
2.846102273481e-04
2.886813351145e-04
7.515951106873e-04
7.672302431861e-04
6.803651075485e-04
6.725174339054e-04
7.924400564491e-05
6.865619186845e-05
2.633266129721e-04
3.767347977470e-04
7.307957561405e-04
7.325240934157e-04
7.115841929872e-04
4.013082208445e-04
2.292133251266e-04
3.302559469405e-04
6.989809766824e-05
4.190806349421e-04
5.545645596562e-05
5.562258211410e-04
3.559972888371e-04
3.678492114021e-04
4.754344906546e-04
5.630586164700e-04
4.166665986672e-04
3.931032675246e-04
4.968246322434e-04
4.682649557966e-04
4.580820210969e-04
4.376344490540e-04
1.723262906149e-04
1.557402102719e-04
5.560915024957e-04
5.242214246525e-04
5.851266891366e-04
5.921367426134e-04
4.733267514798e-04
4.531151525619e-04
1.285525059625e-04
3.724225646514e-04
7.638496742421e-04
5.247213608733e-04
3.953746196072e-04
3.817251312581e-04
3.763111566247e-05
4.917975250812e-05
7.789688834119e-04
2.083207274933e-04
2.393958678991e-04
1.775175234604e-04
3.948444699330e-04
6.336432177415e-04
3.758103062536e-04
4.196686299780e-04
7.888481574216e-04
4.151464254972e-04
3.245335118708e-04
3.813959765319e-04
7.675417145113e-04
7.928570885688e-04
6.610798776563e-04
6.541152013155e-04
6.652196563587e-04
1.054485987409e-04
6.939528886919e-05
7.594275459513e-04
1.557697389214e-04
1.673627240609e-04
9.890156232573e-05
1.237461890346e-04
2.496454303530e-04
2.416931998217e-04
5.506183010831e-04
5.761595631981e-04
4.992953288231e-04
3.391745661590e-04
3.174975484325e-04
3.137842960939e-04
7.739923668647e-04
7.921231075612e-04
1.893852003692e-04
1.820200705110e-04
1.799418363864e-04
7.687805909725e-04
3.873826751378e-04
3.792991024535e-04
4.455524870217e-05
5.766488097506e-05
1.188370590682e-04
9.184250584191e-05
7.329145828240e-04
7.109050343751e-04
7.560572527486e-04
1.140223368336e-04
4.591263214040e-04
4.198791163816e-04
4.182674427186e-04
4.253166499659e-04
4.776044245841e-04
4.949777210376e-04
5.194796265432e-04
2.539583888477e-05
7.858642137356e-04
6.589960648825e-04
9.411057177881e-06
6.510864836722e-04
6.637977473060e-04
6.409405741525e-04
9.197406437052e-05
6.449729540740e-04
6.511105548800e-04
2.904477357901e-05
7.875421831514e-04
3.300793128663e-05
4.311017625326e-05
4.011654227774e-04
3.868910710631e-04
4.052629852487e-04
3.912501106718e-04
3.729092464695e-04
3.793879115316e-04
6.462850351123e-04
4.007637479986e-04
3.861662781331e-04
4.079614575997e-04
4.500707417137e-04
2.697889942821e-04
2.721333607084e-04
2.418883416107e-04
6.152988632735e-04
6.170690361124e-04
3.447887939450e-04
3.242395173143e-04
6.533592381383e-04
6.528504570547e-04
6.721938921643e-04
6.701674632459e-04
6.898581337550e-04
6.873543769191e-04
7.075990598745e-04
5.451825386671e-04
1.745247763877e-04
5.086609678488e-04
4.707118065520e-04
4.504238392534e-04
4.051544624991e-04
3.832372338443e-04
4.132538675614e-04
2.683352986005e-04
7.952457047895e-04
-3.547039816057e-06
2.749067007687e-05
2.957567688031e-04
4.277843730689e-04
3.015828072929e-04
3.073716885299e-04
3.605849984239e-04
4.753210795821e-05
1.475624039023e-04
7.092525539921e-04
1.130147069726e-04
3.346287558296e-04
2.701929919133e-04
4.129652216501e-04
1.802399413179e-04
2.694855938636e-04
5.581198557213e-04
5.762396428134e-04
5.514276921451e-04
2.723600516255e-04
3.402854884098e-04
3.116245219197e-04
4.974359469286e-04
6.902008747223e-04
6.884586173245e-04
7.086915002118e-04
6.854407139215e-04
6.654114467926e-04
6.616763286814e-04
6.827366166472e-04
6.578424897324e-04
6.826799403055e-04
6.522708582288e-04
6.320249484753e-04
6.262714024420e-04
6.442287106494e-04
6.064145086504e-04
4.896092890752e-04
3.226307508605e-04
4.659262125021e-05
4.978172509732e-05
4.417481103165e-04
7.145371736722e-04
7.476873188461e-04
2.168576164450e-04
6.261630863509e-04
5.412541563929e-04
1.372624223175e-04
5.900392124798e-04
6.684429205029e-04
6.461091772885e-04
6.497251212906e-04
7.728254642004e-04
6.689330347856e-04
5.275616967330e-04
3.707787598610e-04
3.702454023111e-04
3.471221151929e-04
6.371796161237e-04
4.769010996145e-04
4.570755173340e-04
4.481441786018e-04
4.354145642304e-04
4.587466053748e-04
6.822677541222e-04
6.648330303954e-04
1.560235187791e-04
1.745900793506e-04
2.004102339032e-04
1.938160071389e-04
1.670249090023e-04
1.870682857143e-04
2.135589892418e-04
1.803035749300e-04
5.966766936914e-04
4.447725830904e-04
3.105409900543e-04
3.051599871651e-04
2.830095222714e-04
2.194880215810e-04
2.338023838820e-04
2.558918011592e-04
2.054422567181e-04
4.648119091505e-04
4.384778892461e-04
3.328032796087e-04
2.259447279824e-04
6.193868251638e-04
6.275902587275e-04
6.182161763242e-04
6.364679250509e-04
6.358448059466e-04
2.577092443993e-04
2.659151872901e-04
2.532844503344e-04
2.742475152204e-04
2.615031266134e-04
2.419339528306e-04
2.823396137748e-04
2.684727300425e-04
6.269311248781e-04
-5.500019339910e-06
1.990778603897e-05
2.010340272969e-05
4.391537406950e-05
4.589962724040e-05
7.207163884193e-05
6.928263098687e-05
1.935521025636e-05
-1.338121637224e-06
2.159374588803e-05
9.461851540172e-07
2.239259536117e-05
4.808941323908e-05
8.331177663815e-05
4.075064634121e-04
2.078729511503e-04
1.973528666943e-04
1.761838367465e-04
1.878644795358e-04
2.168269573933e-04
1.641406673206e-04
1.561033065880e-04
1.515355827767e-05
3.252322969517e-05
3.060042370613e-05
5.164987617398e-05
5.106173137183e-05
3.228750797828e-05
3.175397214916e-05
1.353874852161e-05
3.111378680339e-05
5.132911718188e-05
1.200101733580e-05
7.378446200308e-04
7.501414997196e-04
4.277346357586e-04
6.330913714953e-04
5.651163463201e-06
8.158191978004e-04
8.123652362074e-04
8.162231103256e-04
3.753651720516e-04
3.856079029796e-04
8.188350085858e-04
1.412640926363e-04
7.053741644576e-04
7.741035752343e-04
1.309299734395e-04
1.396362235085e-04
3.155533681447e-04
2.986038864063e-04
3.602229814859e-04
2.995847481540e-04
3.464320500069e-04
4.380008273878e-04
8.449406143158e-05
6.874829550585e-04
6.852634042944e-04
7.369681150549e-04
1.461106069306e-04
2.325687606585e-04
8.978469157239e-05
5.826339283154e-04
4.778938728415e-04
2.662592531361e-04
1.968499072415e-04
1.561551931343e-04
1.306967296655e-04
3.497898623314e-04
2.410214291373e-04
3.421419483266e-04
7.512663994087e-04
1.100136262673e-05
3.571600958098e-04
2.851505385912e-04
6.841508084666e-04
4.131322354572e-04
8.500581436893e-05
7.357626424105e-04
7.522898232811e-04
6.540679303408e-04
6.616636761201e-05
6.669430104850e-04
4.068148873103e-04
6.911369425769e-04
1.327372278939e-04
3.074057833767e-04
4.077439062900e-04
5.536032362208e-04
7.819571745236e-04
3.704503890264e-04
4.141986812244e-04
3.523175885900e-04
1.425320782405e-04
3.675584890555e-04
3.244675603859e-04
7.578643762248e-04
5.198096469569e-04
2.552655854038e-04
7.281140038102e-04
2.775839194981e-04
4.337324123222e-04
4.493109794740e-04
4.784496641035e-04
5.621990840468e-04
4.222391638008e-04
3.034419617389e-04
3.622031520987e-04
1.005769893835e-04
2.979037398939e-04
6.715156720459e-04
5.283961368443e-04
7.806001004795e-04
3.843628220119e-04
3.535060116963e-04
7.497995048865e-04
2.483895426398e-04
9.785034539673e-05
9.941476822301e-05
2.020902162256e-04
3.466795343242e-04
2.703333355121e-04
7.336403374526e-04
3.596823797545e-04
3.644346600439e-04
4.624053866606e-05
5.369985143957e-04
3.662263022765e-04
3.104843963157e-04
4.325034679490e-04
2.483876333340e-04
5.649201782063e-04
4.172936072003e-04
3.733321213684e-04
3.781988825673e-04
2.423088189069e-04
6.343749475010e-04
3.952652450143e-04
3.984550504294e-04
4.438560319185e-04
2.912309736671e-04
4.965418310670e-04
2.774541751232e-04
5.045555716864e-04
7.833346238385e-04
4.147715623973e-04
6.282175947136e-04
2.633899037771e-04
4.144966272085e-04
5.100414176347e-05
4.811075155278e-04
2.710115876503e-04
2.077246909822e-04
2.953731069137e-04
4.932552532711e-04
2.788277295055e-04
2.340096735109e-04
2.867851348362e-04
4.325973600677e-04
6.233293686621e-04
2.948693713774e-04
5.249540359912e-04
5.258795139136e-05
4.404496110571e-04
3.651720473203e-04
1.873631186131e-04
3.000042716563e-04
6.419518867255e-04
3.650895948154e-04
3.219227726406e-04
5.453031970961e-04
4.380934388383e-04
3.699933052645e-04
3.434725006549e-04
3.504754278533e-04
1.321856972495e-04
1.080418604123e-04
2.389370209943e-04
5.711534273782e-04
7.023826747351e-05
6.122568058222e-04
7.333731232457e-05
2.193421416271e-04
4.580694084639e-04
6.943925343260e-04
2.251325082028e-04
1.202017291453e-04
2.069463708517e-04
3.925271176880e-04
2.135550631038e-04
1.965647340315e-04
7.966625085988e-04
2.036537426397e-04
8.231824539000e-04
4.075452128896e-04
6.508282349412e-04
2.995606418303e-04
-8.409819711693e-06
2.800664790817e-04
1.637255894387e-04
5.813297353086e-04
6.517182553179e-04
1.478600592083e-04
6.699819295289e-04
5.565620654953e-04
7.267993847053e-04
4.313189297856e-04
4.369384867481e-04
7.811389059619e-04
6.318402580023e-04
2.353333317067e-05
3.135823205384e-04
2.304422803018e-04
2.063691082924e-04
1.428804845117e-04
1.499955110492e-04
4.369300802007e-05
1.708616308219e-04
4.648334860952e-04
6.445386408315e-04
4.793257212051e-04
1.062785489697e-04
7.713905548161e-04
5.186828538378e-04
4.210792666815e-04
4.984932627382e-04
8.358123438949e-05
6.416796025825e-04
5.994302584538e-04
7.437056942365e-04
4.175758451700e-04
6.363867589396e-04
8.030347770613e-04
8.210181877071e-05
8.048387432143e-04
6.011191106981e-04
6.768977711852e-04
6.226957411016e-04
3.950636651411e-04
7.030138929304e-04
5.547712792764e-05
7.247647999891e-04
1.887809903488e-04
1.493258819396e-05
4.113635487890e-04
6.205973266525e-04
3.956051715128e-04
5.082366793207e-05
2.385765957685e-05
4.236347991474e-04
6.393019670778e-04
9.375633823815e-05
8.077665191475e-04
2.390151554538e-05
6.285101290821e-04
2.833455018991e-05
4.141885013556e-04
7.932981610010e-04
2.074408060328e-04
6.042629871409e-04
1.352764436560e-04
5.432584508388e-04
4.079730818022e-05
8.009467039266e-04
4.364542753503e-04
7.506052389606e-04
5.045726847881e-04
1.548833754922e-05
5.365914325979e-04
4.309954759731e-04
6.322056653519e-04
7.254084857842e-04
1.679128390866e-04
6.865090840509e-05
8.265052187396e-04
1.201181297915e-05
6.311253846593e-04
4.111823796617e-04
6.592065680556e-05
6.668561144793e-04
6.571064587078e-04
2.535444271150e-04
7.678740619273e-04
6.226253530065e-05
-1.290519508335e-05
7.060684097291e-04
5.090543101448e-04
7.707948153919e-04
6.892838531206e-04
7.381977365159e-05
6.359835278166e-04
2.241374924551e-04
5.771435316410e-04
4.475535427172e-04
-1.447602775347e-06
2.721535446811e-04
2.445898435799e-05
4.072631775478e-04
2.331509265126e-04
5.914676205976e-04
6.032054088609e-04

SCALARS node_materi_strain_total_size_dev_sd_ept float
LOOKUP_TABLE default
8.933260944099e-06
1.687135959063e-03
1.005266177446e-03
2.054709589023e-03
2.818010551799e-05
7.119777926030e-05
1.098724255260e-04
1.536664838653e-04
1.957213924409e-04
2.371636719227e-04
2.793276522823e-04
3.226837427951e-04
3.675053807745e-04
4.150498933158e-04
4.667053320436e-04
5.182387471811e-04
5.672741769716e-04
6.249779742105e-04
6.874009574244e-04
7.511825595085e-04
8.190190477137e-04
8.909449993694e-04
9.614239553842e-04
2.054507586818e-03
2.052406019081e-03
2.052702558075e-03
2.051548083812e-03
2.050110396666e-03
2.049255125312e-03
2.046876227321e-03
2.042101354692e-03
2.038020566207e-03
2.030025678917e-03
2.021833118293e-03
2.010510218590e-03
1.995836839763e-03
1.976822767582e-03
1.955840457842e-03
1.928020815525e-03
1.898416613271e-03
1.864677906250e-03
1.827883797763e-03
1.788034031708e-03
1.743863440287e-03
1.698837092579e-03
1.651443553974e-03
1.603450889136e-03
1.556280252828e-03
1.509571948461e-03
1.463520788909e-03
1.418185790371e-03
1.374227428188e-03
1.336931697141e-03
1.295503915116e-03
1.255445184728e-03
1.219467559031e-03
1.190430879728e-03
1.162452506277e-03
1.138139903021e-03
1.115936037929e-03
1.095654476200e-03
1.077147857616e-03
1.061607305857e-03
1.051201278128e-03
1.043859255574e-03
1.036327292564e-03
1.018899915274e-03
1.021349882141e-03
1.014661487335e-03
1.013021994266e-03
1.012898627411e-03
1.011378080927e-03
1.735661968265e-03
1.785358271864e-03
1.831705830835e-03
1.874368597149e-03
1.914737995393e-03
1.951511300967e-03
1.984587040152e-03
2.013634969761e-03
2.041205466461e-03
1.757960399760e-04
1.742481243204e-03
3.394409073426e-04
4.995240373754e-04
6.553725445241e-04
8.045868742454e-04
9.590061878639e-04
1.117876568786e-03
1.281409950268e-03
1.460598418056e-03
1.687518920695e-03
1.657615470127e-03
1.680091289723e-03
1.682148290421e-03
1.682240569148e-03
1.681681965747e-03
1.688966230333e-03
1.682984803607e-03
1.682553747947e-03
1.683317882024e-03
1.686135319970e-03
1.687709705785e-03
1.689915063831e-03
1.694650529541e-03
1.702241338368e-03
1.715805990398e-03
1.718406598654e-04
1.851201646081e-04
1.835565779089e-04
1.708179299277e-04
1.528753141497e-04
1.371544756117e-04
1.204486112404e-04
1.034372846840e-04
8.761492534173e-05
7.257998909523e-05
5.879736778460e-05
4.960367652151e-05
3.679957700499e-05
2.569961192637e-05
1.877444032831e-05
1.441993453433e-05
1.095457204799e-05
8.967113539088e-06
9.049937433017e-06
1.708253506244e-03
1.672693066995e-03
1.660196071787e-03
1.651940313911e-03
1.649507220107e-03
1.649403466733e-03
1.650370934699e-03
1.652143948090e-03
1.653666552751e-03
1.655097581040e-03
1.656085289465e-03
1.656864164640e-03
1.657598337766e-03
1.657372615023e-03
1.657621200448e-03
1.655729972004e-03
2.502126138117e-04
4.224626077039e-04
5.780272457975e-04
7.331651387726e-04
8.887778051936e-04
1.043018281024e-03
1.199264838570e-03
1.366836926915e-03
1.576519368763e-03
1.735453413299e-03
4.322889784504e-04
1.162027204751e-03
8.125954249245e-05
1.416960740577e-04
1.048104640989e-03
7.569666544770e-04
4.421885580677e-04
1.305757317124e-03
1.062321359844e-03
1.495514237459e-03
1.409323420267e-03
1.005250501023e-03
4.004167233544e-05
1.698528844082e-03
1.739404441593e-03
2.600602618140e-04
5.871110064009e-04
1.834529717736e-03
1.967692486608e-03
2.044835760935e-03
2.038107503025e-03
2.017952987518e-03
1.774372378626e-03
1.748258781630e-03
1.741357773491e-03
1.895622033128e-03
9.842119571205e-04
1.602420320917e-04
2.681903271672e-05
7.824939773528e-04
1.729170783245e-03
1.320187286362e-04
1.908388838821e-03
1.404314768634e-03
1.598246273133e-03
1.228166315616e-03
1.110946296135e-03
1.191768325990e-04
1.757642325441e-03
1.007402091518e-03
1.968359644683e-03
6.026557480909e-05
3.451242980154e-04
2.048789236588e-03
9.059687113047e-04
5.936203211867e-04
1.226210718237e-03
1.614934827262e-03
2.706646654263e-04
1.812674358096e-03
9.908587345754e-04
2.088290535384e-05
2.025663156752e-03
1.776045974686e-03
1.757033234377e-03
1.802735725763e-03
1.776407335738e-03
1.824641934812e-03
1.796043432441e-03
1.737158663329e-03
1.758468382293e-03
1.689625006526e-03
1.844554974117e-03
1.714700978355e-03
1.639317331060e-03
1.667874434641e-03
1.588853915450e-03
1.555761992411e-03
1.503112454758e-03
1.466329540702e-03
1.412368662718e-03
1.452936964388e-03
1.361419561227e-03
1.317896975055e-03
1.267528431370e-03
1.221954990399e-03
1.172815734973e-03
1.125608177629e-03
1.078460328687e-03
1.128659250686e-03
1.036582000768e-03
9.856986546275e-04
9.462917266272e-04
8.951164755438e-04
8.582438794944e-04
9.124366372413e-04
8.275223461183e-04
7.727898409455e-04
7.458393488059e-04
6.908655652257e-04
6.681214152764e-04
6.133332023078e-04
5.944848108841e-04
6.511126541479e-04
5.814794268745e-04
5.258612805395e-04
5.170193547128e-04
5.739433673544e-04
5.135018782595e-04
5.714192937031e-04
5.146820314306e-04
4.592499599667e-04
4.638643727313e-04
5.198333566221e-04
4.718439196966e-04
4.188230061087e-04
4.295423580170e-04
4.830626217163e-04
4.428729928703e-04
3.924253536053e-04
4.074247138293e-04
4.587224521380e-04
4.242068471579e-04
3.759620514206e-04
3.934214842893e-04
4.427861725354e-04
4.122146123475e-04
4.627718210634e-04
3.652507607667e-04
3.841735800932e-04
3.392844228702e-04
3.582362345452e-04
8.845333040589e-04
3.151427966471e-04
2.979054887181e-04
3.338092213480e-04
3.783744133645e-04
2.919888020172e-04
3.102931573647e-04
2.695003778453e-04
6.377479626126e-04
1.405936184539e-03
2.873428264241e-04
2.471901700139e-04
2.306129041985e-04
2.084364895989e-04
1.861510947051e-03
1.883585860325e-03
1.892640840468e-03
1.917081973552e-03
1.920065391853e-03
2.245881193275e-04
1.738976639435e-03
1.904205241239e-03
1.276120221681e-03
9.375326876043e-04
6.337902797024e-04
3.294092789517e-04
3.059886860043e-04
3.493324502988e-04
4.960478772430e-04
5.170089640625e-04
5.531007882849e-04
5.749083622942e-04
6.138919864033e-04
6.365061262885e-04
5.979639014090e-04
6.603757294963e-04
6.220693720237e-04
6.783957998851e-04
6.564389263073e-04
6.852578584242e-04
6.471094411706e-04
7.111328192387e-04
6.729226388151e-04
6.113921607118e-04
6.368814020384e-04
5.780057951530e-04
6.323045277412e-04
6.966639112807e-04
6.961744197643e-04
7.624412319144e-04
7.631970072597e-04
8.313570810231e-04
8.334757641380e-04
7.681423005395e-04
1.620657121863e-03
4.628928532661e-04
4.729434741001e-04
4.114740992421e-04
4.229001547350e-04
3.629192201163e-04
3.762644423777e-04
3.176423361609e-04
3.101150925245e-04
2.667775400097e-04
2.652537666130e-04
2.246401258537e-04
2.287581089209e-04
1.089720406085e-03
8.333690282924e-04
9.040993037455e-04
9.079039631915e-04
1.930724711293e-04
6.993641753405e-04
7.240335842420e-04
7.027166182185e-04
8.402381488984e-04
1.860441212712e-04
3.337758052051e-04
3.983447006841e-04
1.944630530437e-03
1.943012466729e-03
7.737090793174e-04
2.018520221614e-04
7.264532415361e-04
2.276054074549e-04
6.628965881037e-04
7.262561064500e-04
5.625143347926e-04
9.803915094353e-04
9.853261319270e-04
2.699945621747e-04
2.376442384452e-04
2.015683147031e-04
2.128756483766e-04
2.485087736601e-04
2.239575812993e-04
1.904300984325e-04
2.029932442982e-04
2.373575323243e-04
2.164623939255e-04
1.842125455903e-04
1.967652744247e-04
7.650945970079e-04
1.890861083863e-04
1.523295097680e-03
7.952712442157e-04
9.072659545185e-04
1.967697935999e-03
1.962662510116e-03
1.932439977249e-03
1.950529184224e-03
1.979290806668e-03
1.966540281635e-03
1.932770366153e-03
1.949107706124e-03
1.910787859883e-03
1.928220568363e-03
1.964171175350e-03
1.944369782221e-03
1.905061932092e-03
1.922711452646e-03
1.880702683720e-03
1.899722728232e-03
1.939337941967e-03
1.639920548662e-04
7.770997118066e-04
8.516203067662e-04
3.266697494836e-04
3.692278716223e-04
3.948556166337e-04
4.167094830354e-04
1.917815724384e-03
1.955315439386e-03
3.603180168902e-04
4.306990690102e-04
1.965002257718e-03
6.897566479079e-04
6.286595693506e-04
8.469316932792e-04
8.925762738576e-04
8.021782783257e-04
8.511739389156e-04
9.444529863703e-04
7.605194003090e-04
6.355778715214e-04
1.977888777431e-03
2.150401365366e-04
1.788315391603e-04
7.542675478066e-04
7.072675081618e-04
1.180994526956e-03
1.145100631150e-03
1.235550496055e-03
1.202813286026e-03
1.292468479746e-03
1.263311586496e-03
1.175995926781e-03
1.059568782421e-03
1.240862423582e-03
1.875715291931e-03
8.387917551857e-04
2.519845198851e-04
1.483502677060e-04
1.646200921745e-04
1.780883469542e-04
2.184950892425e-04
8.482149948240e-04
1.352493183253e-03
1.381372628041e-03
9.086229851997e-04
1.001664596081e-03
1.056136303378e-03
1.889364577169e-03
1.892185026674e-03
1.865417343476e-03
1.350558353005e-04
1.554511629485e-04
1.993739385130e-03
4.689975628933e-04
5.067085006788e-04
1.947694637503e-04
1.609910641968e-04
1.934985923740e-03
1.970016605499e-03
4.429617279352e-04
4.658477402704e-04
8.280150181463e-04
1.771795816320e-04
1.987627905283e-03
7.188506826013e-04
6.513180699955e-04
3.901527608847e-04
3.993756571893e-04
3.287652183035e-04
2.753056380876e-04
2.102872505116e-04
1.948025934353e-04
9.060918653460e-04
2.001604002905e-03
1.155601578417e-03
1.089784064489e-03
1.224022406446e-03
1.466962202773e-04
8.713995145707e-04
7.175831979387e-04
1.439105413293e-03
1.468223663337e-03
5.447467698206e-04
5.875426440166e-04
5.561983451703e-04
6.407006098591e-04
1.665247349478e-03
6.260119594858e-04
1.430614391028e-03
1.491032598355e-03
1.395712291361e-03
1.038929462422e-03
1.097879353599e-03
4.891831078077e-04
7.014151767936e-04
4.208935151553e-04
5.535384119595e-04
5.326886714392e-04
1.993805048587e-03
2.005655524369e-03
1.860136930781e-03
1.833376157970e-03
1.561494193644e-04
1.433885104254e-04
4.840845053706e-04
8.182684879286e-04
1.986881890009e-03
1.980977076661e-03
1.955127320632e-03
8.860739628437e-04
4.064034382803e-04
6.349571820539e-04
1.628069078713e-04
9.689750519809e-04
1.198878193333e-04
1.493791902042e-03
7.831874146156e-04
8.215762480160e-04
1.135371986342e-03
1.696900779768e-03
9.442696385533e-04
8.628017094514e-04
1.459207185648e-03
1.362388925268e-03
1.297732877073e-03
1.263287268743e-03
2.903407618605e-04
2.669579991246e-04
1.422635535170e-03
1.309043385163e-03
1.522842178438e-03
1.553869876497e-03
1.133964771503e-03
1.055522856085e-03
2.347527908487e-04
1.065346956896e-03
2.014843793939e-03
1.552103261455e-03
8.937640358782e-04
8.434870980496e-04
1.431158958181e-04
1.454968259560e-04
2.001169608632e-03
6.157239559486e-04
7.000074391078e-04
5.314076572471e-04
9.252416513967e-04
1.726199483253e-03
8.517121065681e-04
1.137063957619e-03
2.016208640765e-03
9.260488199240e-04
7.580254340147e-04
8.091892327536e-04
1.982982788944e-03
2.015342747900e-03
1.843258448794e-03
1.812645383748e-03
1.870430142157e-03
2.399130689709e-04
2.115649982885e-04
1.990749447129e-03
2.830386124068e-04
3.064544328471e-04
1.892292701100e-04
2.235467008673e-04
4.704862269188e-04
4.479155212768e-04
1.451890623027e-03
1.536962533770e-03
1.272856632267e-03
6.650848116046e-04
6.004200292057e-04
5.879881649515e-04
2.016373760576e-03
2.028547039248e-03
3.162573174591e-04
3.019633563192e-04
3.057407820829e-04
2.018623280844e-03
8.913463215772e-04
8.622701005387e-04
1.096820443340e-04
1.319326920239e-04
3.745879737295e-04
3.016052982806e-04
1.967115434663e-03
1.938780346633e-03
1.992228089615e-03
2.083447169855e-04
1.073543205618e-03
9.662319054782e-04
9.480166318984e-04
9.977713485175e-04
1.138354293769e-03
1.212571848648e-03
1.297705813916e-03
1.429902136041e-04
2.004199060192e-03
1.807343846829e-03
1.426267299538e-04
1.779301504350e-03
1.806463870511e-03
1.749861593572e-03
1.681019791303e-04
1.810366122037e-03
1.848044248129e-03
9.288855153968e-05
2.028323312303e-03
8.637175483895e-05
9.649144640021e-05
9.188268059729e-04
8.683130215250e-04
9.430151208578e-04
8.935191176667e-04
8.212929154658e-04
8.497696713570e-04
1.780613233998e-03
9.330730157766e-04
8.800521975668e-04
9.628502422162e-04
1.333286163573e-03
7.262068798654e-04
7.868407886677e-04
7.795698074363e-04
1.615158273015e-03
1.630939975806e-03
7.478024314946e-04
6.837531306876e-04
1.777522254889e-03
1.772560783893e-03
1.817594158525e-03
1.809546414074e-03
1.852504445728e-03
1.843587422403e-03
1.885092880183e-03
1.391226509089e-03
5.980078073321e-04
1.528635380403e-03
1.134977715306e-03
1.054500841625e-03
1.161912933184e-03
1.139723901026e-03
9.609891250730e-04
5.884569953292e-04
2.027682578618e-03
1.686114894606e-04
1.768562407828e-04
6.701807022157e-04
1.197974221607e-03
8.149570821775e-04
8.814441930441e-04
7.346162611055e-04
1.232346797044e-04
4.514275586300e-04
1.892967011954e-03
4.354078606058e-04
7.165469011343e-04
5.610727945876e-04
1.080832290040e-03
4.755600973747e-04
6.734947607082e-04
1.610232475155e-03
1.716999862452e-03
1.640629714429e-03
5.404460841425e-04
9.725680936148e-04
9.548027626020e-04
1.372481397369e-03
1.922570973102e-03
1.900854010904e-03
1.915329133110e-03
1.874147921157e-03
1.855283316530e-03
1.823377603699e-03
1.845495634424e-03
1.789902462861e-03
1.823115873999e-03
1.754188212043e-03
1.723751347141e-03
1.686669803190e-03
1.718444719747e-03
1.652958344294e-03
1.215863438060e-03
7.199296941301e-04
1.672681081066e-04
2.240508124538e-04
1.178509605376e-03
1.872118935806e-03
1.944876281862e-03
4.416046726669e-04
1.648808669656e-03
1.581885069553e-03
2.766886230695e-04
1.547189547005e-03
1.883137208976e-03
1.835715324681e-03
1.864077122625e-03
1.989671617169e-03
1.894703930293e-03
1.361133712654e-03
7.658575803420e-04
7.731020364430e-04
7.106036672984e-04
1.763134959168e-03
1.193926737693e-03
1.100273867004e-03
1.072093728800e-03
1.007582054562e-03
1.133417900178e-03
1.793791712866e-03
1.749735054693e-03
2.611867318767e-04
2.892177284212e-04
3.331219445954e-04
3.225208878903e-04
2.783768009154e-04
3.143591486856e-04
3.614878532607e-04
3.096085623353e-04
1.583108163902e-03
1.088155371283e-03
5.926256023998e-04
5.726625976315e-04
5.138165159122e-04
3.993747189576e-04
4.258842271748e-04
4.763388464128e-04
3.740109016021e-04
1.114373344708e-03
1.067782067032e-03
6.413430615481e-04
4.044994450405e-04
1.767709879852e-03
1.820475537118e-03
1.822957033914e-03
1.859768000628e-03
1.820958892904e-03
4.936918746880e-04
5.172949833222e-04
4.889760272638e-04
5.411924517063e-04
5.109127113430e-04
4.636401845946e-04
5.643040209995e-04
5.300935094324e-04
1.752549047169e-03
1.305992041832e-04
1.263985676568e-04
1.198528839908e-04
1.384203334868e-04
1.404207484047e-04
1.605917026419e-04
1.590596052214e-04
1.315964792594e-04
1.062204433790e-04
1.115011690841e-04
9.281102561139e-05
1.032224493527e-04
1.322729785698e-04
1.667290454848e-04
9.713517402823e-04
3.906798600112e-04
3.682665668236e-04
3.248742596592e-04
3.478890029139e-04
4.092683983522e-04
3.018141768830e-04
2.862410637220e-04
2.401404748915e-05
5.665062717222e-05
5.238427097138e-05
9.311006169886e-05
9.354184274358e-05
5.884532679123e-05
6.169857221818e-05
3.007108725200e-05
6.494450267829e-05
9.949161042721e-05
3.366486180990e-05
1.934403877608e-03
1.954766013571e-03
1.031799215679e-03
1.748221238822e-03
6.949292438850e-05
2.042023971426e-03
2.042672943780e-03
2.044299300774e-03
8.526654304654e-04
8.881226351934e-04
2.042194912805e-03
2.524703184093e-04
1.892461139065e-03
2.002999802530e-03
2.965551590702e-04
2.451310683548e-04
6.552504099402e-04
5.866250379974e-04
7.926044801685e-04
6.031117749956e-04
7.378566337733e-04
1.037187039789e-03
1.554575974240e-04
1.885874207761e-03
1.855729301518e-03
1.959501252332e-03
2.646198152800e-04
4.404419801815e-04
1.707810882436e-04
1.512213736869e-03
1.334578226932e-03
4.765344621003e-04
3.535162982648e-04
2.748138586260e-04
2.307241671699e-04
8.066763165229e-04
4.324380720160e-04
7.017918558492e-04
1.973882303620e-03
5.473442094046e-05
7.465383445906e-04
5.392264436445e-04
1.914816811706e-03
9.035513103329e-04
1.738711980240e-04
1.980837410545e-03
1.999944724435e-03
1.873414693842e-03
1.330321113255e-04
1.837173610171e-03
9.275822889895e-04
1.937680945231e-03
2.416425986903e-04
5.733183494354e-04
1.030523608744e-03
1.688391939141e-03
2.015438976193e-03
8.029920043584e-04
9.176304239405e-04
6.998024216833e-04
2.598801596894e-04
7.961333636663e-04
6.399451416687e-04
2.006435338759e-03
1.325787536996e-03
4.586040920609e-04
1.986322883835e-03
4.970795996871e-04
9.782705855821e-04
1.236347627532e-03
1.221852428074e-03
1.539697873248e-03
1.000035786221e-03
6.224891397693e-04
7.708890585032e-04
1.918869653113e-04
7.134145941137e-04
1.911865507754e-03
1.325485197355e-03
2.025831403591e-03
9.855920014723e-04
7.518201706317e-04
2.003736612089e-03
4.539188733268e-04
1.778716027977e-04
2.684303651410e-04
3.568625680717e-04
7.251457911106e-04
5.065367963635e-04
1.949584740438e-03
7.783747631866e-04
7.535070593924e-04
3.504696405245e-04
1.617499842017e-03
8.060178713589e-04
5.790092761961e-04
9.786553392404e-04
4.803305438687e-04
1.457085632439e-03
1.234138489582e-03
8.352721349074e-04
7.915723329123e-04
5.125781666240e-04
1.728415599607e-03
9.182176712791e-04
8.687031117662e-04
1.056050441878e-03
5.283075054948e-04
1.511221497855e-03
5.297941304519e-04
1.314692298772e-03
2.005394191106e-03
9.297158171322e-04
1.816224198343e-03
4.992267753928e-04
9.143956983888e-04
9.571161467767e-05
1.432852333487e-03
5.227625441786e-04
3.568770336717e-04
5.399868724436e-04
1.213477852714e-03
5.469116653436e-04
4.067349459605e-04
5.714762928479e-04
1.313898052602e-03
1.780163254414e-03
5.961931180052e-04
1.363320939090e-03
1.065605294578e-04
1.027997462306e-03
8.157910592753e-04
3.218682439519e-04
5.548162419107e-04
1.801457237329e-03
1.140232648324e-03
6.165046127580e-04
1.414340551380e-03
1.007091635249e-03
7.850675166482e-04
6.826717962961e-04
1.052082464792e-03
2.369755101569e-04
2.013577582792e-04
4.111466308472e-04
1.501426395823e-03
1.288407671452e-04
1.695635381357e-03
1.557174268711e-04
3.692844161196e-04
1.065165425683e-03
1.856457082112e-03
3.797147053792e-04
2.190413680587e-04
3.456878839337e-04
8.477989248111e-04
3.601197001722e-04
3.315348444355e-04
2.026750561626e-03
3.478251368447e-04
2.046246714538e-03
9.716186079698e-04
1.764619203363e-03
9.949795901923e-04
1.576775282685e-04
8.558679706315e-04
2.820420208953e-04
1.576285841272e-03
1.767772398051e-03
2.595522293737e-04
1.777963445601e-03
1.450901215064e-03
1.917488673290e-03
9.840084396801e-04
9.937889511649e-04
1.997393444207e-03
1.728590021845e-03
9.568742062744e-05
6.532267125119e-04
8.310078226531e-04
6.809871251199e-04
5.157879534347e-04
2.745380704666e-04
1.334730053687e-04
6.725357417408e-04
1.125814696286e-03
1.793560116651e-03
1.143466707815e-03
5.116721759555e-04
2.014724378851e-03
1.304631947021e-03
1.012866016760e-03
1.217095620667e-03
3.575915182187e-04
1.856551205940e-03
1.565647806254e-03
1.949084283262e-03
1.002846407801e-03
1.799971828530e-03
2.027440059846e-03
1.690149742468e-04
2.026249655971e-03
1.615426269212e-03
1.832123210977e-03
1.839160762321e-03
9.243508826137e-04
1.870441927313e-03
2.761041508690e-04
1.917829959861e-03
3.474558266241e-04
1.363669815195e-04
9.616190878429e-04
1.654123450432e-03
9.241644853626e-04
9.118911520485e-05
7.879038166635e-05
9.999094339789e-04
1.687458941573e-03
1.828703527596e-04
2.036620858093e-03
2.129273292324e-04
1.727177577648e-03
6.647357735770e-05
9.928487639625e-04
2.031426459487e-03
3.879184762475e-04
1.779716790185e-03
2.474586133311e-04
1.378591558585e-03
1.196153327767e-04
2.033244268586e-03
1.040398004719e-03
1.975135845974e-03
1.292216479316e-03
1.515145953023e-04
1.370264518407e-03
9.984905706183e-04
1.726082560690e-03
1.922464487231e-03
3.086837265979e-04
1.318978986466e-04
2.048465910664e-03
1.631110947891e-05
1.720318366253e-03
9.868750710040e-04
1.215783128079e-04
1.800523732580e-03
1.737931826376e-03
4.943760831014e-04
1.980021335045e-03
1.504465215512e-04
1.527132637331e-04
1.879922836089e-03
1.277759523159e-03
2.008824733202e-03
1.855417610209e-03
2.521926838481e-04
1.687170081621e-03
4.233026787733e-04
1.495872795481e-03
1.053384532699e-03
2.033877566040e-04
5.405795441131e-04
6.844597756342e-05
9.570425130710e-04
4.450638193330e-04
1.711661614576e-03
1.661121826581e-03


CELL_DATA 1956

SCALARS element_number int
LOOKUP_TABLE default
407
408
409
410
411
412
413
414
415
416
417
418
419
420
421
422
423
424
425
426
427
428
429
430
431
432
433
434
435
436
437
438
439
440
441
442
443
444
445
446
447
448
449
450
451
452
453
454
455
456
457
458
459
460
461
462
463
464
465
466
467
468
469
470
471
472
473
474
475
476
477
478
479
480
481
482
483
484
485
486
487
488
489
490
491
492
493
494
495
496
497
498
499
500
501
502
503
504
505
506
507
508
509
510
511
512
513
514
515
516
517
518
519
520
521
522
523
524
525
526
527
528
529
530
531
532
533
534
535
536
537
538
539
540
541
542
543
544
545
546
547
548
549
550
551
552
553
554
555
556
557
558
559
560
561
562
563
564
565
566
567
568
569
570
571
572
573
574
575
576
577
578
579
580
581
582
583
584
585
586
587
588
589
590
591
592
593
594
595
596
597
598
599
600
601
602
603
604
605
606
607
608
609
610
611
612
613
614
615
616
617
618
619
620
621
622
623
624
625
626
627
628
629
630
631
632
633
634
635
636
637
638
639
640
641
642
643
644
645
646
647
648
649
650
651
652
653
654
655
656
657
658
659
660
661
662
663
664
665
666
667
668
669
670
671
672
673
674
675
676
677
678
679
680
681
682
683
684
685
686
687
688
689
690
691
692
693
694
695
696
697
698
699
700
701
702
703
704
705
706
707
708
709
710
711
712
713
714
715
716
717
718
719
720
721
722
723
724
725
726
727
728
729
730
731
732
733
734
735
736
737
738
739
740
741
742
743
744
745
746
747
748
749
750
751
752
753
754
755
756
757
758
759
760
761
762
763
764
765
766
767
768
769
770
771
772
773
774
775
776
777
778
779
780
781
782
783
784
785
786
787
788
789
790
791
792
793
794
795
796
797
798
799
800
801
802
803
804
805
806
807
808
809
810
811
812
813
814
815
816
817
818
819
820
821
822
823
824
825
826
827
828
829
830
831
832
833
834
835
836
837
838
839
840
841
842
843
844
845
846
847
848
849
850
851
852
853
854
855
856
857
858
859
860
861
862
863
864
865
866
867
868
869
870
871
872
873
874
875
876
877
878
879
880
881
882
883
884
885
886
887
888
889
890
891
892
893
894
895
896
897
898
899
900
901
902
903
904
905
906
907
908
909
910
911
912
913
914
915
916
917
918
919
920
921
922
923
924
925
926
927
928
929
930
931
932
933
934
935
936
937
938
939
940
941
942
943
944
945
946
947
948
949
950
951
952
953
954
955
956
957
958
959
960
961
962
963
964
965
966
967
968
969
970
971
972
973
974
975
976
977
978
979
980
981
982
983
984
985
986
987
988
989
990
991
992
993
994
995
996
997
998
999
1000
1001
1002
1003
1004
1005
1006
1007
1008
1009
1010
1011
1012
1013
1014
1015
1016
1017
1018
1019
1020
1021
1022
1023
1024
1025
1026
1027
1028
1029
1030
1031
1032
1033
1034
1035
1036
1037
1038
1039
1040
1041
1042
1043
1044
1045
1046
1047
1048
1049
1050
1051
1052
1053
1054
1055
1056
1057
1058
1059
1060
1061
1062
1063
1064
1065
1066
1067
1068
1069
1070
1071
1072
1073
1074
1075
1076
1077
1078
1079
1080
1081
1082
1083
1084
1085
1086
1087
1088
1089
1090
1091
1092
1093
1094
1095
1096
1097
1098
1099
1100
1101
1102
1103
1104
1105
1106
1107
1108
1109
1110
1111
1112
1113
1114
1115
1116
1117
1118
1119
1120
1121
1122
1123
1124
1125
1126
1127
1128
1129
1130
1131
1132
1133
1134
1135
1136
1137
1138
1139
1140
1141
1142
1143
1144
1145
1146
1147
1148
1149
1150
1151
1152
1153
1154
1155
1156
1157
1158
1159
1160
1161
1162
1163
1164
1165
1166
1167
1168
1169
1170
1171
1172
1173
1174
1175
1176
1177
1178
1179
1180
1181
1182
1183
1184
1185
1186
1187
1188
1189
1190
1191
1192
1193
1194
1195
1196
1197
1198
1199
1200
1201
1202
1203
1204
1205
1206
1207
1208
1209
1210
1211
1212
1213
1214
1215
1216
1217
1218
1219
1220
1221
1222
1223
1224
1225
1226
1227
1228
1229
1230
1231
1232
1233
1234
1235
1236
1237
1238
1239
1240
1241
1242
1243
1244
1245
1246
1247
1248
1249
1250
1251
1252
1253
1254
1255
1256
1257
1258
1259
1260
1261
1262
1263
1264
1265
1266
1267
1268
1269
1270
1271
1272
1273
1274
1275
1276
1277
1278
1279
1280
1281
1282
1283
1284
1285
1286
1287
1288
1289
1290
1291
1292
1293
1294
1295
1296
1297
1298
1299
1300
1301
1302
1303
1304
1305
1306
1307
1308
1309
1310
1311
1312
1313
1314
1315
1316
1317
1318
1319
1320
1321
1322
1323
1324
1325
1326
1327
1328
1329
1330
1331
1332
1333
1334
1335
1336
1337
1338
1339
1340
1341
1342
1343
1344
1345
1346
1347
1348
1349
1350
1351
1352
1353
1354
1355
1356
1357
1358
1359
1360
1361
1362
1363
1364
1365
1366
1367
1368
1369
1370
1371
1372
1373
1374
1375
1376
1377
1378
1379
1380
1381
1382
1383
1384
1385
1386
1387
1388
1389
1390
1391
1392
1393
1394
1395
1396
1397
1398
1399
1400
1401
1402
1403
1404
1405
1406
1407
1408
1409
1410
1411
1412
1413
1414
1415
1416
1417
1418
1419
1420
1421
1422
1423
1424
1425
1426
1427
1428
1429
1430
1431
1432
1433
1434
1435
1436
1437
1438
1439
1440
1441
1442
1443
1444
1445
1446
1447
1448
1449
1450
1451
1452
1453
1454
1455
1456
1457
1458
1459
1460
1461
1462
1463
1464
1465
1466
1467
1468
1469
1470
1471
1472
1473
1474
1475
1476
1477
1478
1479
1480
1481
1482
1483
1484
1485
1486
1487
1488
1489
1490
1491
1492
1493
1494
1495
1496
1497
1498
1499
1500
1501
1502
1503
1504
1505
1506
1507
1508
1509
1510
1511
1512
1513
1514
1515
1516
1517
1518
1519
1520
1521
1522
1523
1524
1525
1526
1527
1528
1529
1530
1531
1532
1533
1534
1535
1536
1537
1538
1539
1540
1541
1542
1543
1544
1545
1546
1547
1548
1549
1550
1551
1552
1553
1554
1555
1556
1557
1558
1559
1560
1561
1562
1563
1564
1565
1566
1567
1568
1569
1570
1571
1572
1573
1574
1575
1576
1577
1578
1579
1580
1581
1582
1583
1584
1585
1586
1587
1588
1589
1590
1591
1592
1593
1594
1595
1596
1597
1598
1599
1600
1601
1602
1603
1604
1605
1606
1607
1608
1609
1610
1611
1612
1613
1614
1615
1616
1617
1618
1619
1620
1621
1622
1623
1624
1625
1626
1627
1628
1629
1630
1631
1632
1633
1634
1635
1636
1637
1638
1639
1640
1641
1642
1643
1644
1645
1646
1647
1648
1649
1650
1651
1652
1653
1654
1655
1656
1657
1658
1659
1660
1661
1662
1663
1664
1665
1666
1667
1668
1669
1670
1671
1672
1673
1674
1675
1676
1677
1678
1679
1680
1681
1682
1683
1684
1685
1686
1687
1688
1689
1690
1691
1692
1693
1694
1695
1696
1697
1698
1699
1700
1701
1702
1703
1704
1705
1706
1707
1708
1709
1710
1711
1712
1713
1714
1715
1716
1717
1718
1719
1720
1721
1722
1723
1724
1725
1726
1727
1728
1729
1730
1731
1732
1733
1734
1735
1736
1737
1738
1739
1740
1741
1742
1743
1744
1745
1746
1747
1748
1749
1750
1751
1752
1753
1754
1755
1756
1757
1758
1759
1760
1761
1762
1763
1764
1765
1766
1767
1768
1769
1770
1771
1772
1773
1774
1775
1776
1777
1778
1779
1780
1781
1782
1783
1784
1785
1786
1787
1788
1789
1790
1791
1792
1793
1794
1795
1796
1797
1798
1799
1800
1801
1802
1803
1804
1805
1806
1807
1808
1809
1810
1811
1812
1813
1814
1815
1816
1817
1818
1819
1820
1821
1822
1823
1824
1825
1826
1827
1828
1829
1830
1831
1832
1833
1834
1835
1836
1837
1838
1839
1840
1841
1842
1843
1844
1845
1846
1847
1848
1849
1850
1851
1852
1853
1854
1855
1856
1857
1858
1859
1860
1861
1862
1863
1864
1865
1866
1867
1868
1869
1870
1871
1872
1873
1874
1875
1876
1877
1878
1879
1880
1881
1882
1883
1884
1885
1886
1887
1888
1889
1890
1891
1892
1893
1894
1895
1896
1897
1898
1899
1900
1901
1902
1903
1904
1905
1906
1907
1908
1909
1910
1911
1912
1913
1914
1915
1916
1917
1918
1919
1920
1921
1922
1923
1924
1925
1926
1927
1928
1929
1930
1931
1932
1933
1934
1935
1936
1937
1938
1939
1940
1941
1942
1943
1944
1945
1946
1947
1948
1949
1950
1951
1952
1953
1954
1955
1956
1957
1958
1959
1960
1961
1962
1963
1964
1965
1966
1967
1968
1969
1970
1971
1972
1973
1974
1975
1976
1977
1978
1979
1980
1981
1982
1983
1984
1985
1986
1987
1988
1989
1990
1991
1992
1993
1994
1995
1996
1997
1998
1999
2000
2001
2002
2003
2004
2005
2006
2007
2008
2009
2010
2011
2012
2013
2014
2015
2016
2017
2018
2019
2020
2021
2022
2023
2024
2025
2026
2027
2028
2029
2030
2031
2032
2033
2034
2035
2036
2037
2038
2039
2040
2041
2042
2043
2044
2045
2046
2047
2048
2049
2050
2051
2052
2053
2054
2055
2056
2057
2058
2059
2060
2061
2062
2063
2064
2065
2066
2067
2068
2069
2070
2071
2072
2073
2074
2075
2076
2077
2078
2079
2080
2081
2082
2083
2084
2085
2086
2087
2088
2089
2090
2091
2092
2093
2094
2095
2096
2097
2098
2099
2100
2101
2102
2103
2104
2105
2106
2107
2108
2109
2110
2111
2112
2113
2114
2115
2116
2117
2118
2119
2120
2121
2122
2123
2124
2125
2126
2127
2128
2129
2130
2131
2132
2133
2134
2135
2136
2137
2138
2139
2140
2141
2142
2143
2144
2145
2146
2147
2148
2149
2150
2151
2152
2153
2154
2155
2156
2157
2158
2159
2160
2161
2162
2163
2164
2165
2166
2167
2168
2169
2170
2171
2172
2173
2174
2175
2176
2177
2178
2179
2180
2181
2182
2183
2184
2185
2186
2187
2188
2189
2190
2191
2192
2193
2194
2195
2196
2197
2198
2199
2200
2201
2202
2203
2204
2205
2206
2207
2208
2209
2210
2211
2212
2213
2214
2215
2216
2217
2218
2219
2220
2221
2222
2223
2224
2225
2226
2227
2228
2229
2230
2231
2232
2233
2234
2235
2236
2237
2238
2239
2240
2241
2242
2243
2244
2245
2246
2247
2248
2249
2250
2251
2252
2253
2254
2255
2256
2257
2258
2259
2260
2261
2262
2263
2264
2265
2266
2267
2268
2269
2270
2271
2272
2273
2274
2275
2276
2277
2278
2279
2280
2281
2282
2283
2284
2285
2286
2287
2288
2289
2290
2291
2292
2293
2294
2295
2296
2297
2298
2299
2300
2301
2302
2303
2304
2305
2306
2307
2308
2309
2310
2311
2312
2313
2314
2315
2316
2317
2318
2319
2320
2321
2322
2323
2324
2325
2794
2795
2796
2797
2798
2799
2800
2801
2802
2803
2804
2805
2806
2807
2808
2809
2810
2811
2812
2813
2814
2815
2816
2817
2818
2819
2820
2821
2822
2823
2824
2825
2826
2827
2828
2829
2830

SCALARS element_group int
LOOKUP_TABLE default
0
0
0
0
0
0
0
0
0
0
0
0
0
0
0
0
0
0
0
0
0
0
0
0
0
0
0
0
0
0
0
0
0
0
0
0
0
0
0
0
0
0
0
0
0
0
0
0
0
0
0
0
0
0
0
0
0
0
0
0
0
0
0
0
0
0
0
0
0
0
0
0
0
0
0
0
0
0
0
0
0
0
0
0
0
0
0
0
0
0
0
0
0
0
0
0
0
0
0
0
0
0
0
0
0
0
0
0
0
0
0
0
0
0
0
0
0
0
0
0
0
0
0
0
0
0
0
0
0
0
0
0
0
0
0
0
0
0
0
0
0
0
0
0
0
0
0
0
0
0
0
0
0
0
0
0
0
0
0
0
0
0
0
0
0
0
0
0
0
0
0
0
0
0
0
0
0
0
0
0
0
0
0
0
0
0
0
0
0
0
0
0
0
0
0
0
0
0
0
0
0
0
0
0
0
0
0
0
0
0
0
0
0
0
0
0
0
0
0
0
0
0
0
0
0
0
0
0
0
0
0
0
0
0
0
0
0
0
0
0
0
0
0
0
0
0
0
0
0
0
0
0
0
0
0
0
0
0
0
0
0
0
0
0
0
0
0
0
0
0
0
0
0
0
0
0
0
0
0
0
0
0
0
0
0
0
0
0
0
0
0
0
0
0
0
0
0
0
0
0
0
0
0
0
0
0
0
0
0
0
0
0
0
0
0
0
0
0
0
0
0
0
0
0
0
0
0
0
0
0
0
0
0
0
0
0
0
0
0
0
0
0
0
0
0
0
0
0
0
0
0
0
0
0
0
0
0
0
0
0
0
0
0
0
0
0
0
0
0
0
0
0
0
0
0
0
0
0
0
0
0
0
0
0
0
0
0
0
0
0
0
0
0
0
0
0
0
0
0
0
0
0
0
0
0
0
0
0
0
0
0
0
0
0
0
0
0
0
0
0
0
0
0
0
0
0
0
0
0
0
0
0
0
0
0
0
0
0
0
0
0
0
0
0
0
0
0
0
0
0
0
0
0
0
0
0
0
0
0
0
0
0
0
0
0
0
0
0
0
0
0
0
0
0
0
0
0
0
0
0
0
0
0
0
0
0
0
0
0
0
0
0
0
0
0
0
0
0
0
0
0
0
0
0
0
0
0
0
0
0
0
0
0
0
0
0
0
0
0
0
0
0
0
0
0
0
0
0
0
0
0
0
0
0
0
0
0
0
0
0
0
0
0
0
0
0
0
0
0
0
0
0
0
0
0
0
0
0
0
0
0
0
0
0
0
0
0
0
0
0
0
0
0
0
0
0
0
0
0
0
0
0
0
0
0
0
0
0
0
0
0
0
0
0
0
0
0
0
0
0
0
0
0
0
0
0
0
0
0
0
0
0
0
0
0
0
0
0
0
0
0
0
0
0
0
0
0
0
0
0
0
0
0
0
0
0
0
0
0
0
0
0
0
0
0
0
0
0
0
0
0
0
0
0
0
0
0
0
0
0
0
0
0
0
0
0
0
0
0
0
0
0
0
0
0
0
0
0
0
0
0
0
0
0
0
0
0
0
0
0
0
0
0
0
0
0
0
0
0
0
0
0
0
0
0
0
0
0
0
0
0
0
0
0
0
0
0
0
0
0
0
0
0
0
0
0
0
0
0
0
0
0
0
0
0
0
0
0
0
0
0
0
0
0
0
0
0
0
0
0
0
0
0
0
0
0
0
0
0
0
0
0
0
0
0
0
0
0
0
0
0
0
0
0
0
0
0
0
0
0
0
0
0
0
0
0
0
0
0
0
0
0
0
0
0
0
0
0
0
0
0
0
0
0
0
0
0
0
0
0
0
0
0
0
0
0
0
0
0
0
0
0
0
0
0
0
0
0
0
0
0
0
0
0
0
0
0
0
0
0
0
0
0
0
0
0
0
0
0
0
0
0
0
0
0
0
0
0
0
0
0
0
0
0
0
0
0
0
0
0
0
0
0
0
0
0
0
0
0
0
0
0
0
0
0
0
0
0
0
0
0
0
0
0
0
0
0
0
0
0
0
0
0
0
0
0
0
0
0
0
0
0
0
0
0
0
0
0
0
0
0
0
0
0
0
0
0
0
0
0
0
0
0
0
0
0
0
0
0
0
0
0
0
0
0
0
0
0
0
0
0
0
0
0
0
0
0
0
0
0
0
0
0
0
0
0
0
0
0
0
0
0
0
0
0
0
0
0
0
0
0
0
0
0
0
0
0
0
0
0
0
0
0
0
0
0
0
0
0
0
0
0
0
0
0
0
0
0
0
0
0
0
0
0
0
0
0
0
0
0
0
0
0
0
0
0
0
0
0
0
0
0
0
0
0
0
0
0
0
0
0
0
0
0
0
0
0
0
0
0
0
0
0
0
0
0
0
0
0
0
0
0
0
0
0
0
0
0
0
0
0
0
0
0
0
0
0
0
0
0
0
0
0
0
0
0
0
0
0
0
0
0
0
0
0
0
0
0
0
0
0
0
0
0
0
0
0
0
0
0
0
0
0
0
0
0
0
0
0
0
0
0
0
0
0
0
0
0
0
0
0
0
0
0
0
0
0
0
0
0
0
0
0
0
0
0
0
0
0
0
0
0
0
0
0
0
0
0
0
0
0
0
0
0
0
0
0
0
0
0
0
0
0
0
0
0
0
0
0
0
0
0
0
0
0
0
0
0
0
0
0
0
0
0
0
0
0
0
0
0
0
0
0
0
0
0
0
0
0
0
0
0
0
0
0
0
0
0
0
0
0
0
0
0
0
0
0
0
0
0
0
0
0
0
0
0
0
0
0
0
0
0
0
0
0
0
0
0
0
0
0
0
0
0
0
0
0
0
0
0
0
0
0
0
0
0
0
0
0
0
0
0
0
0
0
0
0
0
0
0
0
0
0
0
0
0
0
0
0
0
0
0
0
0
0
0
0
0
0
0
0
0
0
0
0
0
0
0
0
0
0
0
0
0
0
0
0
0
0
0
0
0
0
0
0
0
0
0
0
0
0
0
0
0
0
0
0
0
0
0
0
0
0
0
0
0
0
0
0
0
0
0
0
0
0
0
0
0
0
0
0
0
0
0
0
0
0
0
0
0
0
0
0
0
0
0
0
0
0
0
0
0
0
0
0
0
0
0
0
0
0
0
0
0
0
0
0
0
0
0
0
0
0
0
0
0
0
0
0
0
0
0
0
0
0
0
0
0
0
0
0
0
0
0
0
0
0
0
0
0
0
0
0
0
0
0
0
0
0
0
0
0
0
0
0
0
0
0
0
0
0
0
0
0
0
0
0
0
0
0
0
0
0
0
0
0
0
0
0
0
0
0
0
0
0
0
0
0
0
0
0
0
0
0
0
0
0
0
0
0
0
0
0
0
0
0
0
0
0
0
0
0
0
0
0
0
0
0
0
0
0
0
0
0
0
0
0
0
0
0
0
0
0
0
0
0
0
0
0
0
0
0
0
0
0
0
0
0
0
0
0
0
0
0
0
0
0
0
0
0
0
0
0
0
0
0
0
0
0
0
0
0
0
0
0
0
0
0
0
0
0
0
0
0
0
0
0
0
0
0
0
0
0
0
0
0
0
0
0
0
0
0
0
0
0
0
0
0
0
0
0
0
0
0
0
0
0
0
0
0
0
0
0
0
0
0
0
0
0
0
0
0
0
0
0
0
0
0
0
0
0
0
0
0
0
0
0
0
0
0
0
0
0
0
0
0
0
0
0
0
0
0
0
0
0
0
0
0
0
0
0
0
0
0
0
0
0
0
0
0
0
0
0
0
0
0
0
0
0
0
0
0
0
0
0
0
0
0
0
0
0
0
0
0
0
0
0
0
0
0
0
0
0
0
0
0
0
0
0
0
0
0
0
0
0
0
0
0
0
0
0
0
0
0
0
0
0
0
0
0
0
0
0
0
0
0
0
0
0
0
0
0
0
0
0
0
0
0
0
0
0
0
0
0
0
0
0
0
0
0
0
0
0
0
0
0
0
0
0
0
0
0
0
0
0
0
0
0
0
0
0
0
0
0
0
0
0
0
0
0
0
0
0
0
0
0
0
0
0
0
0
0
0
0
0
0
0
0
0
0
0
0
0
0
0
0
0
0
0
0
0
0
0
0
0
0
0
0
0
0
0
0
0
0
0
0
0
0
0
0
0
0
0
0
0
0
0
0
0
0
0
0
0
0
0
0
0
0
0
0
0
0
0
0
0
0
0
0
0
0
0
0
0
0
0
0
0
0
0
0
0
0
0
0
0
0
0
0
0
0
0
0
0
0
0
0
0
0
0
0
0
0
0
0
0
0
0
0
0
0
0
0
0
0
0
0
0
0
0
0
0
0
0
0
0
0
0
0
0
0
0
0
0
0
0
0
0
0
0
0
0
0
0
0
0
0
0
0
0
0
0
0
0
0
0
0


VECTORS element_materi_velocity float
5.322519603730e-05 9.266656838646e-05 0.0 
5.997946519861e-05 7.553409612102e-05 0.0 
1.231263460375e-04 7.756035376989e-05 0.0 
2.029805418062e-05 2.236592611001e-04 0.0 
1.464053917149e-04 1.258480914862e-03 0.0 
3.452389024235e-05 -2.724264613934e-05 0.0 
1.131884504685e-04 1.255492383844e-03 0.0 
5.245822588901e-05 5.976252893301e-05 0.0 
1.240689189615e-04 1.261449394196e-03 0.0 
3.013037684387e-05 2.285316348712e-04 0.0 
4.873973908105e-06 -8.728859353236e-06 0.0 
4.216073176676e-05 5.977860471805e-05 0.0 
1.933543528906e-06 -2.328572901573e-07 0.0 
2.419098184766e-04 1.054039776935e-03 0.0 
1.582120924573e-06 -4.962940679049e-08 0.0 
1.662171212339e-05 1.576414162113e-04 0.0 
1.786234754961e-04 1.283009764768e-03 0.0 
3.567769444724e-05 -3.013081645990e-05 0.0 
5.660425467562e-06 -2.818618160661e-05 0.0 
4.278155013405e-06 -2.739150195095e-05 0.0 
3.609899058067e-05 2.338293997386e-04 0.0 
7.510240568762e-05 1.470935935614e-04 0.0 
9.375737975012e-05 1.533033173427e-04 0.0 
3.399554584771e-05 3.628315155794e-07 0.0 
3.074641976199e-04 8.299889569440e-04 0.0 
5.299122933253e-06 -7.571360467351e-06 0.0 
2.338273680955e-04 1.158751894908e-03 0.0 
7.859160630178e-05 1.806756808401e-05 0.0 
3.248655847189e-04 7.949312555333e-04 0.0 
2.743777678612e-05 7.329828272349e-07 0.0 
3.962539434706e-05 -4.131535857447e-05 0.0 
2.755456573651e-05 -3.919501510316e-05 0.0 
1.464035690404e-04 1.001325175002e-04 0.0 
1.421530025850e-06 -2.765927726738e-06 0.0 
1.150444376431e-05 -1.688028885684e-07 0.0 
3.040954775137e-06 -1.255151443857e-09 0.0 
2.764871195556e-06 -7.648459549611e-09 0.0 
4.104211076915e-05 4.483503014054e-06 0.0 
9.207281871527e-05 1.401258735852e-03 0.0 
8.453167053780e-05 1.403561834504e-03 0.0 
1.600747551746e-04 2.697520690324e-04 0.0 
1.170932952352e-05 2.288550044258e-07 0.0 
3.657940294181e-05 3.042472370269e-05 0.0 
2.712356503244e-04 1.059512833196e-03 0.0 
1.048404378791e-05 3.179484421550e-04 0.0 
3.906587198335e-05 2.080452690840e-05 0.0 
3.745713330454e-05 -4.139546834451e-05 0.0 
1.203988570684e-05 2.696604940070e-04 0.0 
3.429015684206e-05 -4.196473599782e-05 0.0 
2.252361579148e-04 1.133116078197e-03 0.0 
1.211210259046e-04 2.030014271476e-04 0.0 
5.293210453308e-06 -2.639478032168e-05 0.0 
4.638806342636e-05 -4.056647174526e-05 0.0 
1.274561757357e-04 2.504124387445e-04 0.0 
1.133292264248e-04 1.120333552770e-04 0.0 
8.392088278942e-06 -2.368709402703e-05 0.0 
4.122832765938e-06 -2.559662629860e-05 0.0 
2.884507893244e-06 -2.839758912604e-06 0.0 
1.323202666518e-05 -3.104867684796e-05 0.0 
2.013422554857e-05 1.587396494080e-04 0.0 
3.228700218473e-05 -3.964972711796e-05 0.0 
9.238403640952e-05 1.421122213126e-05 0.0 
1.164665811666e-04 4.066579662908e-05 0.0 
4.383705158649e-05 -4.093035861693e-05 0.0 
3.171210714227e-06 -2.432869263917e-07 0.0 
9.545964242065e-05 1.919617157417e-04 0.0 
3.265443511979e-05 -3.869219330735e-05 0.0 
1.431977287103e-04 8.546503412895e-05 0.0 
3.440072221052e-05 -3.979715449890e-05 0.0 
9.456159362701e-05 3.466085620876e-05 0.0 
7.871500605407e-06 -6.539936070043e-06 0.0 
2.171430801305e-05 4.100814758975e-05 0.0 
1.027475943032e-04 2.279386102790e-05 0.0 
1.067167368803e-06 -3.141141840716e-05 0.0 
7.339705102255e-06 -2.271861375487e-05 0.0 
7.437406623846e-05 1.971988153575e-04 0.0 
1.371160059481e-04 1.309847417176e-04 0.0 
3.377914432573e-05 -2.636704732953e-07 0.0 
1.460482697273e-05 -3.100671773638e-05 0.0 
3.195555255232e-05 6.291748637670e-06 0.0 
3.581562932635e-05 -4.035511503811e-05 0.0 
1.747315471302e-04 1.250768835654e-03 0.0 
7.505853197726e-05 1.163995977283e-04 0.0 
5.884139781643e-05 1.135658528942e-04 0.0 
1.448209929865e-04 1.174156402108e-03 0.0 
1.331599841872e-04 1.172433712594e-03 0.0 
4.549180951683e-06 -5.463037011960e-06 0.0 
7.744470849798e-07 -3.493523043059e-06 0.0 
3.032213955123e-04 2.048292964177e-04 0.0 
1.572541827081e-04 1.248658803733e-03 0.0 
2.864918507430e-05 -3.955320884202e-05 0.0 
3.071244037926e-04 9.870124925667e-04 0.0 
2.964046587800e-05 6.393075849129e-04 0.0 
3.546086977502e-05 6.917180145965e-04 0.0 
4.314607106072e-05 7.484282024879e-05 0.0 
3.009607477585e-05 3.924914813410e-06 0.0 
1.936131959478e-04 1.237019572891e-03 0.0 
1.334788251539e-05 6.399413624064e-08 0.0 
1.980565541956e-05 1.017193097936e-03 0.0 
1.029555501721e-04 4.936938503706e-05 0.0 
1.372352686590e-04 1.333707058783e-03 0.0 
2.037175055714e-06 -5.751360946167e-08 0.0 
1.348087529495e-04 6.163567754416e-06 0.0 
8.718882076574e-05 1.218481233017e-05 0.0 
8.400702563965e-05 2.026704529488e-06 0.0 
3.604588052988e-05 -4.191613754149e-05 0.0 
2.302674718009e-06 -9.764025445580e-07 0.0 
3.071999908507e-05 5.502349062667e-04 0.0 
3.333960481547e-05 -4.141305095729e-05 0.0 
3.835677506973e-06 -6.314829966259e-08 0.0 
3.196507908452e-04 2.161430080995e-04 0.0 
1.935124316377e-06 -3.208005811713e-05 0.0 
1.318423056465e-04 -4.053028470502e-06 0.0 
3.121204365397e-04 7.158888527087e-04 0.0 
1.199436225502e-05 -2.010433133027e-05 0.0 
8.718807037990e-05 4.372847144909e-05 0.0 
1.135143535669e-04 2.802316496119e-05 0.0 
8.046670077659e-06 6.340975224056e-08 0.0 
2.476003440909e-05 1.080032577296e-03 0.0 
9.843373399252e-05 2.346903063182e-05 0.0 
3.001100493027e-05 -3.779483637429e-05 0.0 
3.093606544380e-04 9.744417988849e-04 0.0 
2.451683367544e-05 5.040235990724e-04 0.0 
9.719916899209e-05 1.347016498387e-05 0.0 
3.040874745276e-05 -1.449766221773e-05 0.0 
2.497716855899e-04 4.603604505974e-04 0.0 
1.058058137571e-05 -2.054372696859e-05 0.0 
2.207325050261e-04 4.359031580173e-04 0.0 
5.741763492878e-05 1.381774238500e-04 0.0 
3.413920852417e-05 -1.713975018886e-05 0.0 
7.447442210192e-06 -7.568214768252e-06 0.0 
1.597378913313e-05 2.215188421742e-04 0.0 
1.982912377727e-04 1.280131428986e-04 0.0 
2.086574641895e-04 3.606863347024e-04 0.0 
1.255867134251e-05 -1.307273066679e-07 0.0 
1.322765938239e-06 -2.187267350912e-07 0.0 
6.423598590136e-06 -5.519608120772e-06 0.0 
2.227410077022e-04 1.418770753222e-04 0.0 
1.856342595513e-05 7.106174483433e-07 0.0 
1.923763426155e-04 1.773056479769e-04 0.0 
4.286418691560e-05 1.600602917120e-04 0.0 
1.151780637241e-04 4.507712718080e-05 0.0 
2.586645174704e-04 1.026470412839e-03 0.0 
6.603770430677e-05 8.401456918307e-04 0.0 
1.822577911641e-04 1.429532691547e-04 0.0 
1.733377719468e-04 3.338243323801e-04 0.0 
2.335643010228e-04 1.261890211134e-04 0.0 
1.046161958058e-04 5.573815430774e-08 0.0 
1.058154273718e-04 1.328931606563e-03 0.0 
1.262259254890e-04 -9.949571211197e-06 0.0 
2.649632002092e-05 -3.836877323260e-05 0.0 
2.730799047034e-05 1.217008210632e-03 0.0 
5.216519034203e-06 -2.914084648297e-05 0.0 
2.832774586683e-04 5.853030913497e-04 0.0 
1.466239043438e-05 6.001152943536e-07 0.0 
8.473605276948e-05 1.016507376285e-05 0.0 
3.402967851245e-06 -4.483393990945e-06 0.0 
4.296409646783e-05 3.574324300498e-05 0.0 
1.430970640111e-04 9.133993489024e-06 0.0 
6.269774689585e-05 1.281670173248e-03 0.0 
1.151268982643e-04 -1.287673219967e-05 0.0 
3.211822963940e-06 -2.152731892758e-06 0.0 
3.155813873724e-05 -3.847379801323e-05 0.0 
3.233278964827e-06 -9.960282317076e-07 0.0 
3.449629710385e-04 4.787579695707e-04 0.0 
4.388841405173e-06 -1.736814734029e-07 0.0 
2.691784746057e-05 1.292468289326e-03 0.0 
9.293650325899e-05 -2.714613256703e-06 0.0 
2.851091481092e-04 6.984363722443e-04 0.0 
3.135572013449e-06 -8.971727045935e-06 0.0 
3.934390443862e-05 4.749093692567e-05 0.0 
1.110785636635e-04 -1.744164554954e-05 0.0 
5.902940029900e-05 7.605060821852e-04 0.0 
7.060312511627e-05 1.332517438877e-03 0.0 
1.124326699786e-04 -4.073665194215e-06 0.0 
2.557094472264e-04 5.579172878829e-04 0.0 
2.276927030544e-04 9.137994027596e-05 0.0 
1.194980532787e-05 -1.862328169835e-05 0.0 
6.031220871628e-05 1.327467492574e-05 0.0 
1.081420040021e-04 3.720974225550e-05 0.0 
7.558409457619e-05 5.212612444527e-05 0.0 
1.045822191253e-05 -1.771057185947e-05 0.0 
5.503652720152e-05 -1.643822271138e-07 0.0 
1.725862160721e-04 1.960323210162e-04 0.0 
6.274335724138e-05 4.644734202448e-05 0.0 
3.362248084310e-04 6.291080412014e-04 0.0 
1.249545868371e-04 -8.091353155697e-07 0.0 
3.023747310768e-05 1.713212457675e-04 0.0 
3.306150167215e-04 2.982185031458e-04 0.0 
2.210067091214e-06 -1.496466766382e-06 0.0 
3.603523339400e-05 9.230111739305e-06 0.0 
9.830459077254e-05 -2.324980565508e-05 0.0 
3.069247022884e-04 2.275266897342e-04 0.0 
2.324000775245e-05 -2.454128471336e-05 0.0 
1.834354952912e-04 2.413943837015e-04 0.0 
5.543096324332e-05 -4.321743033468e-06 0.0 
1.804551062144e-05 -3.384852237461e-05 0.0 
1.504002612963e-04 1.274889038522e-04 0.0 
3.486644137577e-04 5.879189179001e-04 0.0 
4.436870892197e-05 -2.787973575948e-05 0.0 
5.921739621229e-05 -4.020730188267e-06 0.0 
3.259981160735e-04 9.132715874414e-04 0.0 
2.933523317958e-04 9.131224007952e-04 0.0 
2.529778905814e-05 4.982021776486e-07 0.0 
3.374049415971e-05 -3.096015047116e-05 0.0 
2.291562299064e-04 8.900593896760e-05 0.0 
3.425015876452e-04 3.632874280942e-04 0.0 
3.338809927752e-04 5.478968068831e-04 0.0 
3.626463842439e-04 4.943252462859e-04 0.0 
3.313168857931e-04 5.378411974761e-04 0.0 
1.372604507466e-04 -4.027840953629e-06 0.0 
2.524565324092e-04 1.084060592719e-04 0.0 
2.844842250264e-05 -2.797929425388e-05 0.0 
7.571617621063e-05 6.916316333898e-05 0.0 
1.058656131952e-04 6.564036678670e-05 0.0 
2.214507450787e-04 1.006263146424e-04 0.0 
3.096396741247e-04 2.762153346083e-04 0.0 
4.308651658103e-05 -2.883855192293e-05 0.0 
5.422011762920e-05 -6.384840315756e-06 0.0 
7.908960880505e-05 1.313625210372e-03 0.0 
1.015017576088e-04 -1.965148764013e-05 0.0 
5.221169836421e-05 -8.312868011790e-06 0.0 
2.297145906628e-05 -3.654082446379e-05 0.0 
3.267121910685e-04 4.763911127469e-04 0.0 
2.222259188471e-05 -3.662579408271e-05 0.0 
1.658918836023e-05 -3.289659994970e-05 0.0 
3.405487342377e-05 1.713751634937e-05 0.0 
3.237694842007e-05 -3.311079097647e-05 0.0 
3.053431085169e-04 4.352301338046e-04 0.0 
3.275065428837e-05 -3.446099583787e-05 0.0 
5.083394623993e-05 -6.170407981589e-06 0.0 
4.224328175866e-05 -4.100023361901e-05 0.0 
2.976480507791e-05 -3.669508622014e-05 0.0 
5.974432046668e-05 -1.807435235796e-06 0.0 
3.345440584483e-04 4.074202691632e-04 0.0 
3.791528365423e-06 -2.550541764564e-07 0.0 
2.547532442615e-05 -2.757063644193e-05 0.0 
6.477616453362e-05 -8.854517779442e-06 0.0 
1.164635578003e-04 -1.889428239527e-05 0.0 
1.428903261244e-04 1.769789947501e-04 0.0 
5.799237100979e-05 -6.212001330087e-06 0.0 
4.772023725968e-06 -1.124371233896e-07 0.0 
3.479457730118e-04 3.491702461142e-04 0.0 
7.498666296235e-05 -2.753688323097e-05 0.0 
5.588535472517e-05 -2.250449741232e-06 0.0 
3.848763690014e-06 -6.486510660330e-06 0.0 
2.544367741983e-04 1.383593813629e-04 0.0 
3.529544880600e-04 4.805087138923e-04 0.0 
7.978075222740e-05 1.382563799045e-05 0.0 
1.117542266643e-04 -2.227258966059e-05 0.0 
5.732125499801e-05 -4.445652765303e-06 0.0 
3.762883096844e-04 4.408680203688e-04 0.0 
3.511122594945e-05 7.029141919786e-05 0.0 
2.174512491090e-04 6.952957392670e-05 0.0 
1.253173438039e-04 -1.868857738821e-05 0.0 
6.172293808252e-05 1.191012406758e-03 0.0 
3.550901822519e-05 -4.110319862614e-05 0.0 
3.677906155355e-04 5.675823966376e-04 0.0 
7.659175820147e-05 -2.438890397648e-05 0.0 
5.176659510434e-05 -3.065197029156e-05 0.0 
4.172720513111e-05 -4.085817461803e-05 0.0 
2.941662814503e-04 4.588368875321e-04 0.0 
3.580058888383e-04 3.759331530756e-04 0.0 
1.081498344091e-04 8.102147161521e-06 0.0 
2.693548442874e-04 4.105452996222e-04 0.0 
3.289112496326e-04 2.700247236264e-04 0.0 
2.875696031542e-04 1.822976974257e-04 0.0 
5.575882662567e-06 -4.146825960640e-09 0.0 
1.238474459873e-04 -1.748293603101e-05 0.0 
3.190772141800e-04 2.316064513933e-04 0.0 
1.443570585108e-04 -2.392499491699e-07 0.0 
1.284146189727e-04 -1.431049554064e-05 0.0 
6.121826423007e-05 -3.182725752887e-05 0.0 
2.729359362860e-04 1.086202988989e-03 0.0 
1.101084141861e-04 -2.522129913301e-05 0.0 
6.333150969770e-05 -3.772507683226e-05 0.0 
3.463546104671e-04 3.821250399003e-04 0.0 
2.515177686324e-05 -2.993454407683e-05 0.0 
3.773480868793e-04 5.687704648616e-04 0.0 
7.999914205057e-05 -2.908457479958e-05 0.0 
6.463241232560e-05 -1.431337667390e-05 0.0 
6.011182511125e-05 -3.392295207680e-05 0.0 
3.739376749558e-04 3.874393368840e-04 0.0 
2.919932148597e-05 -3.914153609874e-05 0.0 
1.283063351449e-04 9.283565211873e-05 0.0 
1.248882747242e-04 -1.285691154278e-05 0.0 
3.677317728468e-04 4.356332708598e-04 0.0 
2.947011507127e-04 9.940158828965e-04 0.0 
3.955197161308e-05 -3.208890968532e-05 0.0 
6.577714133400e-05 -3.734206973069e-05 0.0 
5.689320338882e-05 -3.874112904037e-05 0.0 
9.023021503745e-05 7.703649209244e-05 0.0 
3.585590387804e-04 4.436715204918e-04 0.0 
1.242309538820e-04 7.277764088672e-05 0.0 
1.026550563165e-04 -2.733920435085e-05 0.0 
1.031720656911e-04 -2.441827082981e-05 0.0 
4.307899649591e-05 -3.155488039195e-05 0.0 
1.492806090557e-04 -2.687871066664e-06 0.0 
4.056352221790e-05 -9.501743221620e-06 0.0 
5.868024258205e-05 5.465769680274e-05 0.0 
6.653024756002e-05 4.678904855451e-05 0.0 
2.223829811211e-04 6.123190212631e-05 0.0 
6.833014591756e-05 -2.852007735156e-05 0.0 
5.784709387265e-05 -2.002061960824e-05 0.0 
3.191729297537e-04 2.054569948934e-04 0.0 
6.311696868310e-05 -2.641970735339e-05 0.0 
5.909600079622e-05 -3.856470121947e-05 0.0 
2.679319496797e-04 1.695079683021e-04 0.0 
5.571812278985e-05 1.939862379573e-04 0.0 
8.996778455444e-05 -2.493278485684e-05 0.0 
1.455470440585e-04 -1.387355272228e-06 0.0 
4.607680140024e-05 -1.308201987913e-05 0.0 
9.745155806719e-06 7.815065310381e-07 0.0 
6.377982949998e-05 -2.297060155963e-05 0.0 
2.600350004467e-04 1.228072163901e-04 0.0 
4.708880390895e-05 -3.360693047189e-05 0.0 
8.436143525377e-05 -1.364579058687e-05 0.0 
1.152952713815e-04 -2.277011591399e-05 0.0 
5.836488118001e-05 -3.792572621396e-05 0.0 
3.295401769595e-04 3.084035988343e-04 0.0 
5.158216305101e-05 2.405020162107e-05 0.0 
9.169754257625e-05 -2.871987845784e-05 0.0 
1.177623561131e-04 -1.440047178186e-05 0.0 
4.671499543156e-05 -1.773597034656e-05 0.0 
2.297867462995e-04 8.404525386497e-04 0.0 
5.587508161676e-05 -8.270090843963e-06 0.0 
6.477043637510e-05 4.767899241997e-06 0.0 
2.200621748389e-04 9.217614741543e-04 0.0 
4.336661260685e-05 1.408024471501e-05 0.0 
4.857201173471e-05 -4.795345109089e-06 0.0 
5.817824503960e-05 3.099088517638e-05 0.0 
2.718409582248e-04 8.771933444717e-04 0.0 
3.125892035924e-04 1.915721934843e-04 0.0 
4.886429770439e-05 7.445253110461e-06 0.0 
2.985538964703e-04 3.271757648370e-04 0.0 
3.330659509796e-04 2.741344892770e-04 0.0 
3.462276540102e-04 2.849682856802e-04 0.0 
1.902671404052e-04 4.560860576107e-05 0.0 
3.542978038397e-05 9.216725274698e-06 0.0 
3.306693609655e-04 8.340949498760e-04 0.0 
3.550151249680e-04 6.432819636477e-04 0.0 
9.925975253879e-05 -2.703370230105e-05 0.0 
3.103107769898e-05 -3.503353528303e-05 0.0 
2.954918006661e-04 4.320319495005e-04 0.0 
7.358845497360e-05 -4.258208030364e-07 0.0 
5.378486562118e-05 1.327944672925e-03 0.0 
5.586808381405e-05 -3.777644865285e-05 0.0 
8.727304951049e-05 -2.778742618836e-05 0.0 
3.220441733979e-04 3.828320884846e-04 0.0 
7.302537978756e-05 -7.126323635371e-06 0.0 
3.091275948248e-04 2.926654862600e-04 0.0 
1.133016621496e-04 -1.265297187627e-05 0.0 
5.499368649566e-05 -1.934099909997e-05 0.0 
2.332165520896e-05 4.391909130171e-06 0.0 
2.150160922447e-04 2.644768269991e-04 0.0 
6.545831014999e-05 -3.674628172078e-05 0.0 
4.516498134858e-05 -2.965438796102e-05 0.0 
6.228857844473e-05 3.394441909485e-05 0.0 
6.436481744122e-05 1.311402028901e-05 0.0 
2.843752178386e-04 2.095663253828e-04 0.0 
2.765753117533e-04 1.334434005350e-04 0.0 
1.368958483507e-04 1.439071734375e-04 0.0 
2.723151473459e-04 3.067138832269e-04 0.0 
1.562915522318e-05 1.861846677325e-06 0.0 
4.027719517732e-05 3.809847862916e-06 0.0 
2.853864225859e-04 2.300611907374e-04 0.0 
3.356267490020e-04 4.465282467620e-04 0.0 
5.725927878315e-05 -2.143459182191e-05 0.0 
1.341627614220e-04 4.676356648467e-05 0.0 
6.699402417654e-05 -3.107512463004e-05 0.0 
7.774035505355e-05 -3.135157845503e-05 0.0 
2.468680120990e-04 9.901648046588e-05 0.0 
8.886660308124e-05 -1.574768509207e-05 0.0 
2.948701715589e-05 -2.000307020725e-05 0.0 
2.770888700237e-04 2.912772795089e-04 0.0 
6.338787445488e-05 -3.759523898286e-05 0.0 
1.659023338988e-04 2.649265495772e-05 0.0 
3.018406894274e-04 2.190650957341e-04 0.0 
1.411112746879e-04 2.667331523168e-05 0.0 
6.286591881468e-05 3.819035867571e-05 0.0 
6.512204958913e-05 5.264253704507e-05 0.0 
1.526681830376e-04 1.204958315054e-04 0.0 
5.611436083926e-05 -1.761406636025e-05 0.0 
2.568183041273e-04 4.271440358538e-04 0.0 
5.675245165344e-05 2.476261423802e-06 0.0 
8.837247832304e-05 -3.074165165450e-05 0.0 
5.130808905838e-05 -3.305668538607e-05 0.0 
1.500338551308e-04 1.028000913948e-04 0.0 
2.435823838109e-04 1.151365898960e-03 0.0 
2.541073268587e-04 8.966892682708e-04 0.0 
2.546734623396e-05 1.434568571016e-06 0.0 
2.782296142098e-04 1.711346376512e-04 0.0 
3.807603924253e-04 5.007480640189e-04 0.0 
3.430004482897e-04 2.517107652027e-04 0.0 
5.517273592868e-05 -3.454886701481e-05 0.0 
3.283151340473e-05 -4.124992335807e-05 0.0 
1.317774239795e-04 -1.178016366647e-05 0.0 
1.867244689132e-04 2.740479942194e-05 0.0 
1.423173546819e-04 -8.332242043264e-06 0.0 
2.920772996952e-05 -9.808332345212e-06 0.0 
5.193165462620e-05 1.151626006592e-03 0.0 
3.128078459644e-05 -3.625728775990e-05 0.0 
7.148403265408e-05 -1.773337263389e-05 0.0 
5.286961929448e-06 4.617883839588e-07 0.0 
1.223703750937e-04 -4.830423678950e-06 0.0 
3.528446945867e-04 7.265024937962e-04 0.0 
3.583087816114e-06 -2.945984683868e-05 0.0 
1.999187167506e-04 6.097008511522e-05 0.0 
1.260633908918e-04 -1.615996150067e-05 0.0 
3.655814304631e-04 3.381545545182e-04 0.0 
4.966260452484e-05 2.037052006877e-05 0.0 
3.110089494081e-04 3.870467184803e-04 0.0 
3.049815408264e-04 1.724032364399e-04 0.0 
3.217709564471e-05 -2.055450021591e-05 0.0 
2.902810676478e-04 3.705000498005e-04 0.0 
5.320287567624e-05 -1.554480490415e-05 0.0 
4.801805355072e-05 1.755205361007e-05 0.0 
3.104376435455e-05 1.757811830053e-05 0.0 
2.826628609280e-05 2.819196793700e-05 0.0 
3.470809309988e-05 2.617680817932e-05 0.0 
3.592704201464e-04 2.971236740027e-04 0.0 
2.980675745953e-04 3.479648704654e-04 0.0 
2.556237363552e-04 1.712786183403e-04 0.0 
1.466042610575e-04 3.907962258884e-05 0.0 
1.390170711143e-04 6.260442899267e-05 0.0 
2.567938097184e-05 -2.060494188807e-05 0.0 
2.816812887741e-04 2.711865352045e-04 0.0 
3.936097648427e-05 1.140572909077e-05 0.0 
2.526898718266e-04 3.452149650326e-04 0.0 
1.276006592861e-04 -9.567927768770e-06 0.0 
2.624392681204e-04 3.287764689383e-04 0.0 
2.052081781627e-04 3.358556221928e-05 0.0 
1.727068631448e-04 2.152451049019e-05 0.0 
1.564731868469e-04 1.286081208813e-04 0.0 
5.214173135390e-05 -2.094046639750e-05 0.0 
8.218939153914e-05 1.460458945739e-04 0.0 
1.257175474526e-04 2.171462745961e-05 0.0 
1.162135463602e-04 2.984109833406e-05 0.0 
2.823933096850e-05 -2.114656669877e-05 0.0 
5.017280058951e-05 -3.826014942625e-05 0.0 
1.927175113939e-05 1.166923088421e-06 0.0 
8.088107010861e-05 -1.116460699456e-05 0.0 
2.713448068505e-05 1.341276687585e-05 0.0 
1.171751152052e-04 9.978589142264e-05 0.0 
2.769007097852e-04 1.184718386571e-04 0.0 
3.204230585317e-05 -4.166071369218e-05 0.0 
2.521492215888e-05 9.733085323555e-06 0.0 
2.528177104843e-05 2.197356687038e-06 0.0 
5.242513160929e-05 -3.856973712998e-05 0.0 
1.147090843463e-04 -9.594820624451e-06 0.0 
2.148092979991e-05 3.628019354536e-06 0.0 
3.095042088565e-05 -4.173527862085e-05 0.0 
1.507833071356e-04 2.100894983193e-05 0.0 
3.023241634675e-04 1.527776631749e-04 0.0 
2.496816759464e-04 8.772607994046e-05 0.0 
2.906147389794e-04 1.617852946314e-04 0.0 
5.781374601775e-05 -1.555301439192e-05 0.0 
2.056348121501e-05 6.261276428492e-06 0.0 
9.827281634213e-05 -2.916771714843e-05 0.0 
3.998380648271e-05 -3.463186708794e-05 0.0 
7.277103989176e-06 -7.736668674703e-08 0.0 
3.111154118674e-05 -4.141661464467e-05 0.0 
2.323385423261e-04 2.371280757023e-04 0.0 
4.018951142134e-05 -4.158911827882e-05 0.0 
3.053808244609e-04 5.114887280888e-04 0.0 
1.313271752344e-05 1.343632891755e-06 0.0 
1.663228511471e-05 4.072272612424e-06 0.0 
3.582061811832e-04 3.318831202188e-04 0.0 
3.654501300577e-05 -4.210338314340e-05 0.0 
3.705458555291e-05 -3.517096380007e-05 0.0 
3.852038285472e-05 -4.185647365077e-05 0.0 
2.423215806698e-05 -2.938707457365e-06 0.0 
2.456876188168e-04 1.167439462995e-03 0.0 
3.638741170303e-04 7.199212243814e-04 0.0 
1.233617605924e-05 2.443689864722e-06 0.0 
2.193596228146e-04 1.223550332429e-03 0.0 
5.379832771944e-05 5.746858546116e-05 0.0 
1.931076486319e-04 2.996945617562e-05 0.0 
2.243330739630e-04 9.953787020319e-04 0.0 
7.355972719967e-05 2.636547877829e-05 0.0 
1.218821628716e-04 -8.053336756037e-06 0.0 
4.755483004003e-05 -2.848588690837e-05 0.0 
1.049545065019e-05 1.679800089086e-06 0.0 
3.182215446014e-05 2.061224037518e-05 0.0 
3.041395648925e-05 2.646572886574e-05 0.0 
4.962154979839e-05 -1.524338410873e-05 0.0 
2.198504428352e-05 -2.116452202930e-05 0.0 
1.644813045326e-04 1.203485239084e-05 0.0 
4.660196600951e-05 -1.329450006161e-05 0.0 
8.661518843252e-06 1.119250355094e-06 0.0 
7.059810197356e-05 -2.192299230331e-05 0.0 
6.500506172050e-05 -3.697329892996e-05 0.0 
6.323875050507e-05 -3.585875112445e-05 0.0 
2.036431203017e-04 9.292500873563e-04 0.0 
8.350213960004e-06 5.852714705953e-07 0.0 
3.524761103926e-05 -4.226540129735e-05 0.0 
6.165081143509e-06 6.010365695241e-07 0.0 
5.675042181916e-05 -3.660718974704e-05 0.0 
2.444768236596e-05 1.063743474522e-05 0.0 
2.531814395025e-04 1.555443239252e-04 0.0 
3.147583029202e-05 -4.220178580759e-05 0.0 
1.512713263066e-04 7.262429957733e-06 0.0 
2.292827080557e-04 3.722639340369e-04 0.0 
2.280313139183e-05 7.818968286513e-06 0.0 
3.486679651460e-04 2.575947192258e-04 0.0 
1.697300535617e-04 2.117344431540e-05 0.0 
4.218487401393e-05 -1.866256586033e-05 0.0 
3.922505677062e-05 1.881786455144e-06 0.0 
5.442385512650e-05 -3.479291339129e-05 0.0 
6.024473907998e-05 -3.561769794184e-05 0.0 
3.348039329005e-05 -4.231239955110e-05 0.0 
1.879749526925e-05 5.144452662273e-06 0.0 
5.673768109346e-05 -3.004845737237e-05 0.0 
4.574869997747e-05 -3.210916960874e-06 0.0 
2.091903470381e-04 1.085447812070e-03 0.0 
4.128082539610e-05 -3.462148476090e-05 0.0 
6.224123061021e-05 -3.699752049076e-05 0.0 
3.299344608328e-04 2.147275122996e-04 0.0 
1.098547914972e-05 1.948219265450e-06 0.0 
2.074738156849e-05 -1.964022265256e-05 0.0 
4.964826713539e-05 -1.006374199155e-05 0.0 
2.132438561436e-04 4.050081458873e-05 0.0 
7.367263233239e-05 -1.636822636773e-05 0.0 
6.931045267309e-05 -3.591011472071e-05 0.0 
5.361469756560e-05 -1.377794594222e-05 0.0 
2.110400464924e-04 4.635943559481e-05 0.0 
2.407014921847e-04 6.394241457659e-05 0.0 
1.145091646181e-04 -3.465174282265e-06 0.0 
1.902515518793e-04 2.304616204253e-05 0.0 
3.633234589017e-05 -2.293263447556e-05 0.0 
7.948347518315e-05 -1.631279709863e-05 0.0 
2.443381054582e-05 -2.167948444751e-05 0.0 
1.826175102416e-04 2.340696054982e-05 0.0 
1.145458103693e-04 -1.741343780123e-05 0.0 
1.145204307296e-05 1.062824953483e-06 0.0 
2.221350812328e-04 2.972990814869e-04 0.0 
3.902695678283e-05 -3.531485851663e-05 0.0 
6.967636379932e-06 7.425963222308e-07 0.0 
2.896792364034e-05 2.042123994482e-06 0.0 
1.453477657293e-04 -9.535137008981e-06 0.0 
3.393871501136e-05 -4.242581924872e-05 0.0 
7.275782829685e-06 4.494793865571e-07 0.0 
2.471002218201e-04 2.559807742320e-04 0.0 
5.091275306891e-05 -3.707560623304e-05 0.0 
4.458193877271e-06 3.197181470793e-07 0.0 
4.662365180912e-05 -1.162715144835e-05 0.0 
1.656989584137e-04 9.062840550766e-05 0.0 
3.756020187554e-04 6.378887624569e-04 0.0 
1.171045559951e-04 -1.904231805251e-05 0.0 
5.138272724918e-05 -1.893458919776e-05 0.0 
7.919711233510e-05 -1.395678351373e-05 0.0 
3.588233511090e-04 5.503936908941e-04 0.0 
2.348792903941e-04 1.748305129669e-04 0.0 
1.196509615151e-04 1.360048615034e-06 0.0 
5.012360734727e-05 1.064730220148e-03 0.0 
3.355163130071e-05 -2.231774782013e-05 0.0 
1.083577526141e-04 -7.892370011279e-06 0.0 
5.159197117571e-05 -3.423814094115e-05 0.0 
2.429468350282e-05 -9.830385557052e-06 0.0 
3.208907096135e-05 -4.258140463886e-05 0.0 
9.037362291399e-05 -9.205421948417e-06 0.0 
5.404742209380e-05 -3.621593503096e-05 0.0 
2.800716105605e-05 -1.830971712055e-05 0.0 
1.628517221768e-04 -2.518447207957e-07 0.0 
5.005505748736e-05 -1.180917653355e-05 0.0 
1.927541580373e-04 1.008566073362e-03 0.0 
4.846713187765e-05 -3.656313636118e-05 0.0 
3.892020082733e-06 2.655533235160e-07 0.0 
2.882827596525e-04 1.271881594884e-04 0.0 
2.387209551829e-05 -1.623866448136e-05 0.0 
2.631740623260e-04 9.654525398683e-05 0.0 
2.541632069480e-05 -1.783999242711e-05 0.0 
3.192403323737e-05 -4.235716514008e-05 0.0 
3.777797424899e-04 6.250925010296e-04 0.0 
7.669349350197e-06 -1.887293012374e-05 0.0 
2.008276602658e-05 -3.634211580405e-05 0.0 
2.044813172379e-05 -1.700824934777e-05 0.0 
4.549507421923e-05 -8.288670997379e-06 0.0 
6.357370817182e-05 4.628158208664e-04 0.0 
8.219270947794e-05 -1.842144825959e-05 0.0 
7.850151503090e-05 -1.627419292140e-05 0.0 
3.278355460092e-04 8.215346625506e-04 0.0 
1.953300204148e-04 1.316409437348e-03 0.0 
9.529684556689e-05 1.247490174736e-04 0.0 
2.369016257659e-04 6.941786664180e-05 0.0 
1.888146441886e-05 -3.623073149814e-05 0.0 
2.806187602526e-05 -3.597287123694e-05 0.0 
3.318780627593e-05 -4.225742169750e-05 0.0 
3.421087458728e-05 -3.242843612503e-05 0.0 
2.191760759649e-04 7.991959777503e-05 0.0 
7.310542337647e-05 4.670478656030e-04 0.0 
2.593955642929e-05 -4.009158876212e-06 0.0 
2.841760190582e-05 -2.797688606306e-05 0.0 
2.195134073290e-05 -9.621750087778e-06 0.0 
3.955113873643e-05 -2.066040612305e-06 0.0 
4.673450453111e-05 -3.563851919149e-05 0.0 
5.444921167875e-06 -1.871135550057e-05 0.0 
4.218021710521e-06 -2.177837947196e-05 0.0 
6.478047828254e-06 3.267258389811e-07 0.0 
3.383762746953e-06 1.839260630411e-07 0.0 
5.370911410364e-06 -1.650804900983e-05 0.0 
2.138713968835e-05 -1.585667821932e-05 0.0 
4.892207571493e-05 -1.690623566262e-05 0.0 
3.857012941546e-05 -5.969514062389e-07 0.0 
2.764018801351e-05 -3.480141140808e-05 0.0 
4.003661568264e-05 -3.620804396057e-06 0.0 
1.507405402112e-05 -3.286957972595e-05 0.0 
2.185299365692e-05 -1.854196388581e-05 0.0 
2.903142291900e-05 -1.709330762445e-05 0.0 
1.202230897541e-05 -3.289067149208e-05 0.0 
4.387582977290e-06 -1.752517266049e-05 0.0 
2.112644576219e-04 3.077493142595e-04 0.0 
1.578784628058e-05 -3.533637305265e-05 0.0 
2.154737243865e-04 1.256201905375e-03 0.0 
2.075500102722e-04 1.261633799398e-03 0.0 
8.448526297322e-05 -1.117633245724e-05 0.0 
2.110677014896e-06 -2.178478457102e-05 0.0 
4.876991695175e-05 -3.514869270896e-05 0.0 
5.147018946769e-05 -1.181891071375e-05 0.0 
1.576857644149e-05 -1.343131086656e-06 0.0 
7.493684213133e-05 2.133128299125e-05 0.0 
1.329403948754e-04 5.553849326655e-04 0.0 
7.391186316955e-05 1.605866947734e-05 0.0 
2.875077011666e-05 -3.816868043562e-05 0.0 
2.598835689437e-04 2.562192837367e-04 0.0 
1.507010283480e-04 1.390523744206e-03 0.0 
1.396321730547e-04 1.441863252714e-03 0.0 
1.714830909699e-05 -3.537677031201e-05 0.0 
1.523677314490e-05 -3.371919295140e-05 0.0 
6.873265404847e-06 -3.070107162146e-05 0.0 
2.606944410607e-05 -3.091628036644e-05 0.0 
1.042667719855e-05 -3.296860007878e-05 0.0 
4.292735194300e-06 -1.525651483388e-05 0.0 
3.184260271350e-05 -4.128581720025e-05 0.0 
2.687712492707e-05 -2.877841066750e-05 0.0 
4.683455923318e-05 8.937720108389e-04 0.0 
1.753150002663e-04 1.382166250557e-03 0.0 
2.084691582011e-04 8.614142982874e-05 0.0 
4.308059928604e-05 -9.826511656209e-06 0.0 
4.042707724381e-05 1.029940201233e-03 0.0 
1.077875672727e-06 -2.072392782488e-05 0.0 
8.582326195536e-06 -3.139203467599e-05 0.0 
1.220622413446e-05 3.904025348946e-05 0.0 
2.804318669356e-05 8.067999506010e-05 0.0 
1.940304856496e-04 1.091146570198e-03 0.0 
1.649127267459e-04 1.378486535827e-03 0.0 
5.351547031955e-06 -2.079467328617e-05 0.0 
1.770507134543e-05 7.821567522699e-05 0.0 
2.756668969041e-05 -3.024084318847e-05 0.0 
1.893388869808e-04 1.332987446259e-03 0.0 
1.790697731334e-04 1.355887031486e-03 0.0 
2.674506732369e-04 4.082894754759e-04 0.0 
2.553204162664e-05 2.927661752416e-05 0.0 
2.181589745073e-05 7.729186493221e-05 0.0 
1.373972889493e-05 -3.370000250056e-05 0.0 
1.398335249963e-05 -3.452353338153e-05 0.0 
2.681934837966e-05 -3.633969416048e-05 0.0 
3.173519671746e-05 -1.756200690333e-05 0.0 
1.473136604004e-06 -5.393894502680e-07 0.0 
3.068352772623e-05 -4.034202115424e-05 0.0 
1.600727055391e-05 5.870151919820e-04 0.0 
3.240882934924e-05 -4.229565591409e-05 0.0 
7.443030401696e-05 -1.188722101969e-05 0.0 
3.217377101603e-05 -4.251065041384e-05 0.0 
3.172159079927e-05 -4.182075860376e-05 0.0 
6.971196430532e-05 -1.424327784859e-05 0.0 
6.025318248393e-06 -9.735699701198e-07 0.0 
3.863180149649e-05 9.442329236753e-04 0.0 
2.591977591961e-04 1.902910456974e-04 0.0 
8.679236866309e-06 -3.224861120166e-05 0.0 
1.772088305446e-05 -8.103458069839e-06 0.0 
4.001957369607e-06 4.718783254731e-05 0.0 
7.962721576444e-06 7.986806483938e-05 0.0 
1.637027742149e-04 1.412855540801e-03 0.0 
7.875078905791e-05 -9.212095693805e-06 0.0 
9.609673316270e-06 3.825161144275e-05 0.0 
1.605455649462e-04 1.644994918271e-05 0.0 
5.101730835160e-06 -3.097199733769e-05 0.0 
7.061648936091e-06 -3.245476362264e-05 0.0 
5.193203695631e-06 -3.186911281320e-05 0.0 
1.104881150255e-06 -1.853742763732e-05 0.0 
1.154173423378e-06 1.543726906292e-08 0.0 
2.082284897300e-06 2.183826840811e-04 0.0 
7.191367017877e-06 -3.332840308501e-05 0.0 
2.204525610971e-06 -1.509980645896e-05 0.0 
3.882679633325e-07 8.056468421284e-09 0.0 
1.644275051275e-06 2.320611966808e-08 0.0 
5.801667114600e-06 2.396629610920e-07 0.0 
8.605539421139e-06 7.353772507773e-04 0.0 
3.594695426654e-06 5.122878273558e-04 0.0 
7.659054600458e-07 7.380800641641e-09 0.0 
8.783695912289e-07 1.582531902644e-08 0.0 
7.811414793491e-06 5.870538562963e-04 0.0 
5.484343807023e-06 -3.358741332258e-05 0.0 
1.121792994014e-04 1.454565324845e-03 0.0 
1.521499906092e-04 1.431224654574e-03 0.0 
1.062355943635e-05 -3.382488672878e-05 0.0 
1.522781421867e-06 4.669445772645e-08 0.0 
5.313586781099e-06 1.717567580303e-07 0.0 
2.606204747801e-06 7.489357287823e-08 0.0 
9.005837185895e-06 -3.397853731403e-05 0.0 
1.246281481792e-05 -3.457048902306e-05 0.0 
3.094285081301e-06 1.427997759399e-07 0.0 
2.707382033298e-06 9.686318515207e-08 0.0 
4.388820054302e-06 8.116826137266e-04 0.0 
6.370121043603e-05 1.459528486423e-03 0.0 
4.216719366837e-06 6.603764040307e-04 0.0 
4.950600715296e-06 1.111647509049e-03 0.0 
2.865156074401e-05 1.458335163056e-03 0.0 
2.176264180964e-05 -3.723268095821e-05 0.0 
2.683060244271e-05 -3.947666420127e-05 0.0 
2.880405816337e-05 -4.053440537056e-05 0.0 
3.037043106843e-05 -4.148048666159e-05 0.0 
1.095537137953e-06 -1.391361885481e-05 0.0 
1.108988473018e-06 -1.625456333201e-05 0.0 
2.769623086964e-05 -3.977019754709e-05 0.0 
1.021341645675e-06 -7.335009423144e-06 0.0 
2.952908838415e-05 -4.082764373117e-05 0.0 
2.143176304767e-05 3.383467265904e-05 0.0 
8.095398029160e-06 3.996406378424e-05 0.0 
1.583696255910e-05 4.163974157063e-05 0.0 
1.090080067077e-06 -2.831764723658e-05 0.0 
1.032801342169e-06 -2.279135932198e-05 0.0 
7.514470794787e-06 4.828606574404e-05 0.0 
6.470829408700e-07 -2.042742161565e-06 0.0 
3.960764206837e-06 3.268023229207e-05 0.0 
4.612219946688e-07 -9.279912721283e-07 0.0 
2.722240416694e-07 -2.384117847350e-07 0.0 
2.213869623274e-06 -1.742839535759e-05 0.0 
1.560986882395e-05 8.825012952828e-05 0.0 
1.147523500162e-05 8.096629803611e-05 0.0 
1.108304935539e-06 -1.460308221054e-06 0.0 
7.334460363382e-07 -5.271367231658e-07 0.0 
1.019408782789e-05 -5.603456146755e-06 0.0 
3.241789154134e-05 -4.258981722860e-05 0.0 
1.839185498485e-05 -1.922803297013e-05 0.0 
1.684085956602e-05 -3.458312109173e-05 0.0 
1.455216396455e-05 -1.387581513797e-06 0.0 
2.433622679798e-05 -1.899172070311e-05 0.0 
1.135952942796e-05 -2.912085807484e-06 0.0 
2.665439404762e-05 -3.226915629073e-05 0.0 
1.953241574770e-05 -3.414074029052e-05 0.0 
7.655316132771e-06 -1.499542794607e-06 0.0 
1.804600921943e-05 -1.665417428738e-05 0.0 
4.349083486585e-06 -1.974281367010e-05 0.0 
9.931160305725e-06 -2.903352928721e-06 0.0 
2.326034584425e-05 3.707273731109e-04 0.0 
2.182756822982e-06 -1.966566310975e-05 0.0 
4.421057433735e-05 -6.663884736323e-06 0.0 
3.181567155272e-05 -1.052638939921e-05 0.0 
1.203967654585e-05 -5.661626855839e-06 0.0 
8.614431054985e-06 -4.613441219898e-06 0.0 
9.155244831124e-05 -3.088398829528e-05 0.0 
2.205480719160e-04 1.953189593655e-04 0.0 
1.605515073839e-04 1.556898974218e-06 0.0 
1.986916327290e-05 -8.256481281814e-06 0.0 
6.943982107445e-06 -2.165174144451e-06 0.0 
5.574193721102e-06 -3.708153224503e-06 0.0 
3.482548757100e-05 -3.519082347484e-05 0.0 
4.484602643331e-05 3.818846249240e-04 0.0 
5.518616959211e-05 5.310544960147e-04 0.0 
8.308697920722e-05 1.233852074800e-03 0.0 
2.198104714945e-05 -7.242521925718e-06 0.0 
1.577924186612e-05 -6.867734972819e-06 0.0 
3.023253262183e-05 3.784254185755e-04 0.0 
3.813678002837e-05 4.550826766309e-04 0.0 
3.439552344029e-05 -1.218101237372e-05 0.0 
5.101986401082e-06 -9.955645073184e-07 0.0 
1.199196131351e-04 5.536397458892e-04 0.0 
3.959183859719e-06 -3.659600455450e-06 0.0 
1.045425840785e-05 -8.181699252866e-07 0.0 
5.263136716019e-05 3.852618375058e-04 0.0 
9.193787257974e-05 7.701450434758e-04 0.0 
4.235881204811e-05 -8.233465747238e-06 0.0 
1.362806031072e-05 -2.731957587375e-05 0.0 
3.683053245338e-05 -3.719234081378e-05 0.0 
2.726204261870e-05 -3.743575320500e-05 0.0 
3.311127159586e-05 -4.248824242647e-05 0.0 
4.643046460179e-05 4.547677424050e-04 0.0 
5.489946787237e-06 -1.533821848635e-06 0.0 
3.232938849742e-05 -4.213475700085e-05 0.0 
2.575217460890e-04 2.060220141336e-04 0.0 
9.936562290919e-05 1.158495205786e-03 0.0 
1.337401024656e-05 -3.795772001646e-06 0.0 
7.145582516058e-06 -2.903763091302e-06 0.0 
4.609011081363e-05 -3.297430846842e-05 0.0 
5.762698821757e-06 -2.909050234713e-06 0.0 
9.331388782943e-05 1.236233119184e-03 0.0 
1.076696206638e-04 -4.985636746181e-06 0.0 
7.836230212673e-06 -3.919024137393e-07 0.0 
7.442603571215e-06 -2.638903437754e-05 0.0 
1.358785317663e-05 -7.181944893800e-07 0.0 
7.233768025036e-05 6.872817865067e-04 0.0 
1.054050000170e-05 -2.579971695146e-05 0.0 
3.681806325164e-05 -3.457047988497e-05 0.0 
9.226705145249e-06 -1.213577194069e-05 0.0 
1.189879989455e-04 9.315876234925e-04 0.0 
2.422879634137e-05 -2.423740464869e-05 0.0 
5.438952855201e-05 6.036745372330e-04 0.0 
7.704929001321e-05 8.403069775828e-04 0.0 
1.982003453493e-05 -1.435165017521e-05 0.0 
6.892395351081e-06 -4.588517868810e-06 0.0 
8.679113119307e-06 -3.727789432179e-06 0.0 
6.198771717773e-05 6.821190610314e-04 0.0 
1.754133801887e-05 -3.013175432817e-05 0.0 
1.661076397514e-05 -1.520771905255e-05 0.0 
1.034432573716e-04 8.585106777833e-06 0.0 
8.491490966227e-05 6.178169613730e-04 0.0 
1.709534456892e-05 -1.777569914298e-05 0.0 
2.920787746305e-05 -1.028722476252e-05 0.0 
1.825783509857e-05 -1.241056144661e-06 0.0 
8.039094907807e-05 7.658300934126e-04 0.0 
3.719169393237e-05 -3.710358675927e-05 0.0 
2.268717693766e-05 -3.526221672300e-05 0.0 
5.426282012389e-05 -3.627480013583e-05 0.0 
8.186019605669e-06 -2.152889627621e-06 0.0 
9.973381764920e-05 8.489243019592e-04 0.0 
6.463052643355e-06 -9.826250805834e-06 0.0 
1.176670352969e-04 1.085683811568e-03 0.0 
3.701980960290e-05 -2.294693086252e-06 0.0 
1.589359456054e-05 -1.265096611714e-05 0.0 
1.022265341075e-05 -3.739663786428e-06 0.0 
1.157198477229e-05 -2.692439947842e-05 0.0 
1.151969248051e-05 -7.855578793188e-07 0.0 
1.744578132608e-05 -1.405676606884e-05 0.0 
8.435680711578e-06 -2.555550842779e-05 0.0 
1.431481440641e-05 -1.490989547584e-05 0.0 
2.076258194588e-05 -2.217948827744e-05 0.0 
2.464035172354e-05 -2.808645704843e-05 0.0 
8.510682698071e-06 -9.795093651799e-06 0.0 
2.281317332098e-05 -3.736803363624e-05 0.0 
2.540709862997e-05 -3.854701591887e-05 0.0 
1.381309082678e-05 -6.769536131772e-06 0.0 
1.461411331292e-05 -2.846467967068e-05 0.0 
1.984714836627e-05 -7.109273960926e-06 0.0 
2.434640482599e-05 -8.598364715881e-06 0.0 
3.210477554401e-05 -2.344554607839e-05 0.0 
4.568188828689e-05 -3.730733660855e-05 0.0 
1.051130425999e-04 4.775067867625e-04 0.0 
3.638865001901e-05 -2.567264689809e-05 0.0 
1.731826761084e-05 -2.028866821121e-05 0.0 
3.587357541511e-05 -8.797187867432e-07 0.0 
1.370888577891e-05 -2.920140864822e-05 0.0 
1.127529492671e-04 1.006756607153e-03 0.0 
1.102824237812e-04 1.162526019988e-03 0.0 
2.580903044822e-05 -3.406096078288e-05 0.0 
2.382604764001e-05 -1.883147619727e-06 0.0 
1.461310004729e-04 7.066443500841e-04 0.0 
1.662490984745e-05 -2.896882504936e-05 0.0 
1.117509423014e-04 4.086764983036e-04 0.0 
1.003150256057e-04 4.061713119538e-04 0.0 
1.774840217922e-05 -2.830541769206e-05 0.0 
8.561848180003e-05 3.047074871174e-05 0.0 
2.397570622687e-05 -3.019664555944e-05 0.0 
1.200356006438e-05 -4.683486283231e-06 0.0 
1.212256145544e-05 -1.113707611593e-05 0.0 
2.402371268644e-04 2.709447843264e-04 0.0 
9.376985024072e-05 4.745750029345e-04 0.0 
1.572881529876e-05 -5.807201033341e-06 0.0 
1.764844158047e-05 -5.895716809472e-06 0.0 
2.525068544184e-05 -3.281862328011e-05 0.0 
1.372654777795e-05 -4.730861619685e-06 0.0 
1.323067095336e-04 7.052513933341e-04 0.0 
9.957295024553e-06 -1.101219684474e-05 0.0 
1.119640815698e-04 8.528725888857e-04 0.0 
1.206081698308e-04 6.280294251198e-04 0.0 
1.193899570741e-04 -2.159034669316e-05 0.0 
8.489330283437e-05 5.442662394160e-04 0.0 
1.339851317897e-05 -1.604243576260e-05 0.0 
1.362655810393e-05 -1.244434552729e-05 0.0 
1.727383795727e-05 -2.268795685476e-05 0.0 
3.679902744368e-05 -2.757540805018e-05 0.0 
1.161782787273e-04 7.778640715037e-04 0.0 
4.672832495491e-05 -2.004856681833e-05 0.0 
2.109015537614e-05 -2.818305959543e-05 0.0 
2.517723305493e-05 -3.560894088719e-05 0.0 
1.292105458123e-04 7.806652865516e-04 0.0 
2.323617860768e-05 -2.882925476240e-05 0.0 
1.454739549884e-05 -6.589770505538e-07 0.0 
9.470211894648e-05 6.959055693549e-04 0.0 
1.500781423500e-05 -3.831832062828e-06 0.0 
2.210583204480e-05 1.650188583158e-06 0.0 
1.474379809719e-05 -1.746178419491e-05 0.0 
1.981798089658e-05 -2.888541025364e-05 0.0 
2.458860313524e-05 -3.450166733846e-05 0.0 
2.164391049236e-05 -6.094301721104e-06 0.0 
8.402145510772e-05 9.193729980092e-04 0.0 
2.421909884260e-05 -3.593039478202e-05 0.0 
2.185578718705e-05 -2.366763652234e-05 0.0 
8.578967926608e-06 -2.737214262811e-05 0.0 
1.317763380923e-04 9.345645171198e-04 0.0 
1.845133185684e-05 -2.171582414178e-05 0.0 
2.671123569970e-05 -8.781735652881e-06 0.0 
1.493895834760e-05 -2.218235908561e-05 0.0 
6.454407243527e-05 5.357253618944e-04 0.0 
2.380029655233e-05 -2.662931070561e-05 0.0 
2.819973167168e-05 -6.397077767129e-06 0.0 
3.491210460246e-05 -3.648003828086e-05 0.0 
2.645584866844e-05 -7.526750652351e-06 0.0 
1.064820877296e-05 -1.336862758687e-05 0.0 
1.914154817682e-05 -4.920774403839e-06 0.0 
7.237732780263e-05 -3.568620170074e-05 0.0 
1.060352983756e-05 -2.766329920532e-05 0.0 
9.515155864196e-05 1.077689033123e-03 0.0 
6.977403868569e-05 -1.207968190822e-05 0.0 
1.737303419375e-04 3.868592160950e-05 0.0 
9.515905924205e-05 9.236753723225e-04 0.0 
3.895280895311e-05 -3.664750463942e-05 0.0 
1.809465016068e-04 8.585322775971e-04 0.0 
1.175437784198e-05 -2.879520457819e-05 0.0 
1.899597826342e-05 -2.075084145252e-06 0.0 
7.386015302033e-05 -9.611991329392e-06 0.0 
1.125159889824e-04 -5.511411538166e-07 0.0 
8.219435866320e-05 3.290248150905e-04 0.0 
4.554779412761e-05 -1.653049232835e-05 0.0 
1.947664687406e-05 -3.073767148674e-05 0.0 
3.733589411543e-05 -1.100065656466e-05 0.0 
1.966206243337e-05 -1.149017967935e-06 0.0 
4.618662986146e-05 -3.451502618967e-05 0.0 
1.727997804811e-05 -4.855437456999e-06 0.0 
1.067122611734e-04 6.996763104564e-04 0.0 
4.715113487243e-05 -3.893611850474e-05 0.0 
3.169678431992e-05 -9.162864172860e-06 0.0 
1.673284111776e-04 1.090811038350e-03 0.0 
1.161921963486e-05 -2.495700645595e-05 0.0 
2.520939522250e-05 -2.576862888007e-05 0.0 
2.021876307522e-04 2.907836965555e-05 0.0 
2.375388113765e-05 -6.195159510737e-06 0.0 
1.587575556601e-04 7.049075433753e-05 0.0 
1.805905766433e-04 1.390896324475e-05 0.0 
1.568842939529e-04 7.834067064278e-04 0.0 
1.011542734843e-04 1.002792642909e-03 0.0 
1.779741245914e-04 1.012380504839e-03 0.0 
1.288279530075e-05 -1.355232190229e-05 0.0 
3.016185783940e-05 -2.725387802382e-06 0.0 
4.333044782120e-05 -1.303277733502e-05 0.0 
1.296641272099e-04 1.089634493823e-03 0.0 
2.215781032815e-04 1.477708477095e-04 0.0 
1.159548047532e-04 4.142514436559e-06 0.0 
2.883360319900e-05 -7.668714535641e-06 0.0 
1.080459885556e-04 6.252555572899e-04 0.0 
3.320763094954e-05 -2.516676815593e-05 0.0 
2.909812164947e-05 -2.549771209455e-05 0.0 
2.333152879218e-05 -3.208887670472e-05 0.0 
4.002568653501e-05 -9.684890817622e-06 0.0 
2.558435736250e-05 -2.326421882200e-05 0.0 
1.516341450028e-04 8.599991606871e-04 0.0 
1.731291587724e-04 9.366855007060e-04 0.0 
1.064019176667e-04 -2.293135318727e-05 0.0 
3.078381179049e-05 -2.868841109958e-05 0.0 
8.168919826027e-05 -3.207620304047e-05 0.0 
2.758992737246e-05 -2.642425061844e-05 0.0 
3.161038023499e-05 -2.617582460831e-05 0.0 
2.264149951876e-05 -3.081977490834e-05 0.0 
3.737743136439e-05 -3.759894967801e-06 0.0 
4.521592924375e-05 -2.480688336710e-05 0.0 
9.601423950078e-05 5.479340942314e-04 0.0 
5.026237122693e-05 -2.404434161118e-05 0.0 
4.029722086978e-05 -1.122380788317e-05 0.0 
4.463559747137e-05 -1.807409893806e-05 0.0 
1.546112348960e-04 -5.699509727395e-06 0.0 
2.062979742001e-05 -3.015473476951e-05 0.0 
2.557047946771e-05 -1.776355870280e-06 0.0 
2.209452814845e-05 -8.694743878532e-07 0.0 
2.400054918739e-04 5.935874550297e-05 0.0 
3.587028789634e-05 -2.584684117142e-05 0.0 
4.297575002276e-05 -1.460591804787e-05 0.0 
1.377846878016e-04 8.586506975608e-04 0.0 
2.948255370062e-05 -2.282579496570e-05 0.0 
1.443778581556e-04 1.126838293129e-05 0.0 
2.153146188821e-05 -2.601595091561e-05 0.0 
4.345075440314e-05 -3.669686095347e-05 0.0 
3.754814708026e-05 -2.474050574931e-05 0.0 
2.022549382788e-05 -2.682690209145e-05 0.0 
1.473324518907e-05 -2.656710763055e-05 0.0 
4.145769969263e-05 -1.762597438337e-05 0.0 
3.435887087512e-05 -9.346327424652e-06 0.0 
2.020220720939e-04 6.040686022073e-05 0.0 
2.439621187285e-05 -3.827446271306e-05 0.0 
6.598457980730e-05 -2.800944524287e-05 0.0 
5.504863650835e-05 -2.658807823962e-05 0.0 
4.040470657250e-05 -2.539942001229e-05 0.0 
1.586966896764e-04 9.374430339154e-04 0.0 
4.534562610154e-05 -2.151026344526e-05 0.0 
2.056755140406e-05 -2.458550096371e-05 0.0 
4.214649720890e-05 -2.418323094599e-05 0.0 
7.409739446781e-05 6.135081285880e-04 0.0 
1.829685226332e-05 -2.406948543179e-05 0.0 
2.187492253334e-05 -3.421836433776e-05 0.0 
2.211948518191e-05 -3.260881571708e-05 0.0 
4.365271090360e-05 -3.531899418681e-05 0.0 
3.499438610455e-05 -2.853339859511e-05 0.0 
6.088841611701e-05 -2.558615716991e-05 0.0 
4.697502139832e-05 -2.347042010506e-05 0.0 
3.660872981071e-05 -3.836999738567e-05 0.0 
2.027630536254e-05 -3.192265063792e-05 0.0 
2.409712081594e-04 9.826156497940e-04 0.0 
1.804770769214e-05 -2.627263912778e-05 0.0 
3.956666737717e-05 -5.170702933572e-06 0.0 
2.031960114492e-04 5.106752525344e-05 0.0 
3.820018422348e-04 4.955097245872e-04 0.0 
1.703802874362e-04 4.791846239249e-04 0.0 
1.942956989415e-04 6.697579595971e-05 0.0 
1.132484945472e-04 -2.319984390576e-05 0.0 
2.267081525815e-04 5.619059576361e-05 0.0 
4.060796045255e-05 -3.851068423118e-05 0.0 
3.779363255570e-05 -2.170773905118e-05 0.0 
1.295207769528e-04 -1.693184878407e-05 0.0 
5.319565565477e-05 -3.946425379787e-05 0.0 
3.786187925043e-05 -3.996626589760e-05 0.0 
2.807315052064e-05 -2.386890452948e-05 0.0 
5.165510702252e-05 -2.601776396566e-05 0.0 
5.720304710403e-05 -2.510952406110e-05 0.0 
1.708297661173e-05 -2.494567242002e-05 0.0 
5.010117314540e-05 -2.053331374375e-05 0.0 
6.219640910100e-05 -2.759407642190e-05 0.0 
7.284564462482e-05 -2.663320847845e-05 0.0 
3.246839584265e-05 -2.781388816873e-05 0.0 
8.933511206028e-05 -8.040551041822e-06 0.0 
1.717641814608e-04 7.826973565472e-04 0.0 
7.822983451518e-05 -2.870853932640e-05 0.0 
3.234809387812e-05 -2.610717201672e-06 0.0 
4.510584376107e-05 -3.849577555890e-05 0.0 
2.915900411938e-05 -1.547165145112e-07 0.0 
5.555297051192e-05 -2.306380005276e-05 0.0 
1.759901101717e-04 6.856175932435e-05 0.0 
3.104514004952e-04 1.604148709405e-04 0.0 
4.100472106591e-05 -3.733199765035e-05 0.0 
3.746110154248e-04 3.864801202682e-04 0.0 
2.163573580999e-04 3.828434289266e-04 0.0 
6.108088883329e-05 -2.183781581020e-05 0.0 
1.082213615635e-04 -1.024471933762e-05 0.0 
3.589301745017e-04 2.976530273329e-04 0.0 
1.964567381349e-04 3.929562804105e-05 0.0 
3.833424569707e-05 -3.900384779214e-05 0.0 
9.097348776221e-05 1.981944132347e-04 0.0 
3.472145624824e-05 -3.877445495192e-05 0.0 
6.267703123670e-05 3.820231305050e-06 0.0 
6.988073598398e-05 3.962539049072e-04 0.0 
7.735103662903e-05 -6.872019926277e-06 0.0 
1.375383803269e-04 1.013684183035e-03 0.0 
1.752899661685e-04 5.534984001988e-04 0.0 
6.868546875302e-05 -2.636312538951e-05 0.0 
1.080641369696e-04 -1.850031899549e-05 0.0 
1.373144417991e-04 3.377666071960e-04 0.0 
3.057610238343e-05 -6.485444351452e-06 0.0 
1.911424748376e-04 7.025338999843e-04 0.0 
6.491292628541e-05 -1.007980441421e-05 0.0 
4.247794926395e-05 -3.906398648465e-05 0.0 
2.083225031399e-04 6.200529875692e-04 0.0 
8.657694714781e-05 2.289557663868e-05 0.0 
2.357430993630e-05 -7.132652181688e-07 0.0 
4.075122438219e-05 -2.229942125863e-05 0.0 
1.506092747097e-04 1.015214236704e-03 0.0 
1.543960303920e-04 1.092887237006e-03 0.0 
5.200582412065e-05 -2.256893187681e-05 0.0 
3.657754937148e-05 -8.055956446216e-06 0.0 
3.835946917807e-05 -6.656627883554e-06 0.0 
2.281821451859e-05 -3.377926884805e-05 0.0 
7.139175422431e-05 -3.235893416490e-05 0.0 
8.640079289096e-05 -2.675501724511e-05 0.0 
7.397534371365e-05 -2.858350321012e-05 0.0 
1.688379350651e-04 8.777942524818e-06 0.0 
1.112271517142e-04 2.695722988698e-04 0.0 
2.556729823115e-04 2.230545805092e-04 0.0 
7.942422618182e-05 4.001131874233e-04 0.0 
1.881717367385e-04 1.014963087380e-04 0.0 
2.525838321249e-04 5.137068091189e-04 0.0 
3.387206046594e-05 -7.940544371756e-06 0.0 
1.029353351402e-04 3.370662377760e-04 0.0 
2.408336773671e-04 6.796607291235e-04 0.0 
4.219126112028e-05 -2.096291701994e-05 0.0 
9.200184412667e-05 -2.818516298188e-05 0.0 
1.922978002064e-04 6.256309811101e-04 0.0 
1.485943136416e-04 4.082669017590e-04 0.0 
1.474532425104e-04 6.311675686461e-04 0.0 
1.754611476837e-04 7.056667291601e-04 0.0 
2.612828377390e-05 -2.881666611734e-06 0.0 
7.891398137953e-05 4.943971476476e-06 0.0 
3.247635233750e-05 -3.922513965882e-06 0.0 
3.725365944780e-05 -1.247181628738e-05 0.0 
2.269750443709e-04 3.196965146522e-04 0.0 
8.006010666342e-05 -3.925392256893e-06 0.0 
3.211881281620e-04 5.783484340031e-04 0.0 
1.684279052304e-05 -2.704880407018e-05 0.0 
8.167969792183e-05 -2.684378237685e-05 0.0 
8.037264770095e-05 -2.066534847237e-05 0.0 
1.066629606779e-04 -1.376187392180e-05 0.0 
5.886068896056e-05 -3.834288850181e-05 0.0 
8.722770256593e-05 -2.852807788522e-05 0.0 
1.018589411799e-04 -9.021722734224e-06 0.0 
2.724115673356e-04 2.298707001304e-04 0.0 
4.039606219491e-05 -1.905309583831e-05 0.0 
2.471937641228e-04 8.281433850041e-04 0.0 
1.265598047049e-04 1.338398227631e-03 0.0 
2.462457601182e-05 -1.965159413724e-06 0.0 
3.986028840371e-05 -1.426810831874e-05 0.0 
7.046027338392e-05 -5.175975778512e-06 0.0 
2.200144781070e-04 2.066861401434e-04 0.0 
1.045918089774e-04 -2.120309581174e-05 0.0 
3.925443472983e-05 -1.574455804453e-05 0.0 
1.966804296901e-04 8.549112957247e-04 0.0 
2.520047131937e-05 1.761715324024e-05 0.0 
8.243983519845e-05 -6.255225571950e-06 0.0 
9.856023539867e-05 -1.732410129564e-05 0.0 
2.954168440923e-04 2.458550210435e-04 0.0 
3.563311925246e-05 -6.620739421118e-06 0.0 
5.122438124121e-05 -3.944213944858e-05 0.0 
3.685182438900e-05 -5.218651330943e-06 0.0 
3.124902870082e-05 -1.328542556209e-06 0.0 
9.513253330924e-05 -7.221244397718e-06 0.0 
1.619035022133e-04 6.308992976027e-04 0.0 
1.643675743275e-04 2.392817999326e-05 0.0 
2.923649729428e-05 -1.505476099885e-06 0.0 
2.659056562353e-05 4.702595043763e-05 0.0 
2.198666987701e-04 7.689734016261e-04 0.0 
9.433573783727e-05 9.914030685300e-06 0.0 
1.605769953293e-04 5.556338875157e-04 0.0 
1.015715714404e-04 -1.183307539293e-05 0.0 
9.642203107940e-05 -2.605881151071e-05 0.0 
2.299101927880e-05 -1.349265729161e-05 0.0 
4.315653198770e-05 -3.612942651416e-05 0.0 
1.295697410360e-04 4.817571598885e-04 0.0 
1.375588928381e-05 -2.532922073971e-05 0.0 
3.052925782707e-05 8.995528731160e-05 0.0 
1.895030248632e-04 3.325004753741e-05 0.0 
7.264675159853e-05 3.258984743879e-04 0.0 
4.617707149189e-05 -3.983993710016e-05 0.0 
2.248550734119e-04 4.732923886921e-05 0.0 
2.238544398432e-04 6.899857625705e-04 0.0 
3.266721373350e-05 -1.627304615534e-05 0.0 
5.701444693820e-05 -3.892934363685e-05 0.0 
9.784200704563e-05 -1.260612468082e-05 0.0 
3.941757211923e-05 -4.040773917247e-05 0.0 
4.799798684089e-05 -4.003637034028e-05 0.0 
4.341375849386e-05 -4.033423099015e-05 0.0 
1.046419812417e-04 -1.659625502166e-05 0.0 
4.820292078169e-05 5.979829566824e-05 0.0 
4.102265186150e-05 1.578806226697e-04 0.0 
2.052569459829e-05 -2.032226642084e-06 0.0 
1.003793350305e-04 -2.874443749518e-05 0.0 
2.717966183158e-04 7.296665328320e-04 0.0 
5.004387387575e-05 -3.681420722669e-05 0.0 
2.706578653861e-05 -3.748878100297e-07 0.0 
4.175992737728e-05 -3.999862332048e-05 0.0 
1.377969957929e-05 -2.310216571419e-05 0.0 
9.951553780049e-05 -3.506093723369e-06 0.0 
6.305994957503e-05 -2.394365714987e-05 0.0 
9.732945922359e-05 6.606756324037e-06 0.0 
1.215875932952e-04 1.179247530789e-05 0.0 
3.028424993887e-04 5.304494935943e-04 0.0 
6.582027262154e-05 4.828928254091e-06 0.0 
2.031794366980e-04 7.759435454991e-04 0.0 
2.239948198480e-04 1.938506907248e-04 0.0 
2.215563481476e-04 5.364269383367e-04 0.0 
2.290717560520e-04 4.531944095660e-04 0.0 
5.730026380547e-05 -2.719595447537e-05 0.0 
2.070284423970e-05 -2.972745497951e-06 0.0 
2.410168249486e-04 6.019388146969e-04 0.0 
1.322458933561e-04 -1.646924352163e-05 0.0 
7.052827987947e-05 2.630189333863e-04 0.0 
5.573576620959e-05 5.402460922821e-06 0.0 
6.396990757787e-05 -3.497127158681e-05 0.0 
1.490070353736e-05 -2.448395047157e-05 0.0 
1.041281019724e-04 4.605036753168e-06 0.0 
2.111504281456e-06 -2.748848444203e-05 0.0 
1.724123214076e-04 4.293475741912e-06 0.0 
8.530011209618e-05 -3.101821981007e-06 0.0 
1.877150729398e-04 3.254976271103e-04 0.0 
1.773829324075e-04 2.527981645866e-04 0.0 
9.347726188017e-05 -4.612348651961e-06 0.0 
1.849068821969e-04 4.754802950290e-04 0.0 
1.121288460679e-04 -2.493124588563e-05 0.0 
2.216617132431e-04 5.886082043318e-05 0.0 
1.643408433431e-04 4.419923785339e-04 0.0 
2.244011222211e-04 1.268533884616e-04 0.0 
2.208187330445e-04 7.847041773496e-04 0.0 
2.233701792038e-04 9.433185585239e-04 0.0 
1.124329912848e-04 -2.185745662230e-05 0.0 
2.414358029875e-04 1.044044715199e-03 0.0 
1.656189966889e-04 1.612831212127e-06 0.0 
1.382652210880e-04 -1.375494591559e-05 0.0 
8.994925294777e-05 -2.463947629266e-05 0.0 
5.304676837615e-05 -3.956664530403e-05 0.0 
1.018021043312e-04 -2.538514930921e-05 0.0 
1.356830788314e-04 4.092211762993e-04 0.0 
2.224649082680e-04 1.620193781482e-04 0.0 
2.510883605795e-05 -5.115180886302e-06 0.0 
8.372305428191e-05 6.421127784617e-06 0.0 
6.706883150474e-05 -2.430525654849e-05 0.0 
2.144010220074e-04 4.627238029742e-04 0.0 
9.519634957548e-05 -2.428618546161e-05 0.0 
1.609979638955e-05 -2.124852699060e-06 0.0 
2.058412638627e-04 5.442160777621e-04 0.0 
2.674050302444e-04 4.982359302964e-04 0.0 
8.998078740616e-05 -1.062158215959e-05 0.0 
1.075396411142e-04 -2.569465861852e-05 0.0 
1.927974335045e-04 5.181756848662e-05 0.0 
3.238703089332e-04 1.893109616117e-04 0.0 
5.143077450013e-05 -3.992512764414e-05 0.0 
6.234750034814e-05 -3.639505693027e-05 0.0 
1.305758715504e-04 7.010596179324e-06 0.0 
2.371699084056e-04 6.137382439078e-05 0.0 
1.207810580996e-05 -1.440534513959e-06 0.0 
2.573735748814e-04 5.887480788871e-04 0.0 
1.021243245163e-04 -2.680606745701e-05 0.0 
2.492283216547e-04 6.706819340137e-05 0.0 
7.197790466538e-05 -2.484266005453e-06 0.0 
1.427560817869e-04 4.822743857821e-04 0.0 
1.871682151844e-04 5.886322722025e-05 0.0 
2.824710596874e-04 7.919747795035e-04 0.0 
4.883539810549e-05 -2.910153870923e-06 0.0 
9.876631413791e-05 -2.188426588458e-05 0.0 
6.746686995531e-05 -3.118055172745e-06 0.0 
1.818647481930e-04 1.123324015686e-05 0.0 
1.499949169523e-04 3.376518758540e-04 0.0 
1.703332780016e-04 6.085646795625e-05 0.0 
9.450048231008e-05 -1.527027297704e-05 0.0 
5.757950207674e-05 -3.707267054128e-05 0.0 
1.481774771535e-04 2.135491112505e-05 0.0 
1.790473581764e-04 7.602592778631e-06 0.0 
1.067820068867e-04 -2.662587145022e-05 0.0 
9.549083891557e-05 -1.261362817419e-05 0.0 
4.539125657340e-05 -4.976580070325e-06 0.0 
5.616312638426e-05 -3.817154485074e-05 0.0 
9.615689628714e-05 -1.990933534231e-05 0.0 
3.659145252874e-04 3.377246912327e-04 0.0 
1.092588661815e-05 -1.462718028653e-06 0.0 
3.463806074141e-04 2.586347297989e-04 0.0 
1.736504072386e-04 2.944228758947e-05 0.0 
3.782030999629e-04 4.346704643213e-04 0.0 
3.706351478657e-04 6.840212268169e-04 0.0 
3.019543158251e-04 1.411718173976e-04 0.0 
8.638300103457e-05 3.373419854162e-06 0.0 
2.393995893688e-05 -4.000339413630e-06 0.0 
2.747340914983e-04 6.497973116123e-04 0.0 
1.667588976812e-04 2.599669825477e-04 0.0 
3.807672604233e-04 5.507358640027e-04 0.0 
8.781285791651e-05 -3.222200555032e-05 0.0 
1.384341262965e-04 2.264123036923e-05 0.0 
1.136811309192e-04 3.370936898782e-04 0.0 
1.550575996780e-04 -6.372594273394e-06 0.0 
1.717434198804e-04 2.954882120606e-06 0.0 
9.575669995784e-05 -2.993772556295e-05 0.0 
2.886177883429e-04 5.532498001270e-04 0.0 
1.714032864542e-04 6.117879308156e-05 0.0 
1.605442864164e-04 1.551494596233e-06 0.0 
1.641043015439e-04 4.560852384088e-05 0.0 
1.026824469338e-04 4.751445059734e-07 0.0 
1.051019382544e-04 1.943666587209e-05 0.0 
9.200164807818e-05 -2.963600167986e-05 0.0 
4.286872800760e-05 -3.776838524331e-05 0.0 
1.958086150759e-04 2.347728684829e-04 0.0 
2.005079507238e-04 8.979753469061e-05 0.0 
7.356972721365e-05 -2.268249257179e-05 0.0 
1.191339666296e-04 1.957450474416e-05 0.0 
2.911571068402e-04 6.297699116746e-04 0.0 
2.948480426211e-05 -5.212366933207e-06 0.0 
1.234619885787e-04 -2.016369593207e-05 0.0 
3.983311088207e-05 -3.820344877629e-05 0.0 
7.602835432792e-06 -8.897320565967e-07 0.0 
2.227781046718e-04 4.174682649467e-05 0.0 
1.293252113317e-04 4.154383298128e-07 0.0 
1.698404526730e-04 4.384789894786e-05 0.0 
3.491910886925e-05 -3.746473069816e-05 0.0 
3.183633222560e-05 -5.232249928412e-06 0.0 
8.429897233363e-05 -2.308195421356e-05 0.0 
3.002015058060e-04 7.671983530788e-04 0.0 
3.128010197515e-05 -1.323399188675e-05 0.0 
9.674405521607e-05 -2.893056835648e-05 0.0 
1.469117230762e-05 -2.145193653255e-06 0.0 
1.752270996530e-04 6.561325600005e-06 0.0 
8.991059087470e-05 -3.169902247124e-05 0.0 
2.306093107872e-04 4.794276006223e-05 0.0 
3.955489768514e-05 -3.955314236934e-05 0.0 
2.151631809871e-04 4.621211780068e-05 0.0 
9.652153970621e-05 -9.593455996637e-07 0.0 
1.521571921390e-04 6.156534412129e-05 0.0 
1.931280478683e-04 4.292343967363e-05 0.0 
7.061059670847e-05 -3.585743764004e-05 0.0 
2.304074005448e-05 -5.055226513200e-06 0.0 
1.005050756444e-04 2.679451070117e-04 0.0 
4.656618561647e-05 6.064353017995e-06 0.0 
9.799071668574e-05 2.848856591434e-06 0.0 
1.190279428223e-04 -2.239053584134e-05 0.0 
2.275669285969e-04 4.773482338062e-05 0.0 
8.747984408603e-06 -1.488633065753e-06 0.0 
7.096199244271e-06 -1.206386363293e-05 0.0 
2.000487780678e-04 4.073825689044e-05 0.0 
2.542529541173e-04 7.463392145335e-04 0.0 
1.902307484277e-05 -2.978063624618e-06 0.0 
3.018721009970e-05 -3.972001025786e-06 0.0 
5.466892053601e-05 1.415813832322e-03 0.0 
3.725383974425e-05 1.415495399689e-03 0.0 
3.589221102111e-04 3.298907159090e-04 0.0 
2.167179573133e-04 4.234001449130e-05 0.0 
2.648275864626e-05 -1.132525842311e-05 0.0 
3.034520665901e-04 1.455419211363e-04 0.0 
1.603250207635e-04 -2.564306617953e-06 0.0 
4.735266983160e-05 5.190805446588e-07 0.0 
1.251742281377e-04 -2.007416910680e-05 0.0 
4.410264220272e-05 6.435635080312e-05 0.0 
3.533147281871e-04 7.990582640140e-04 0.0 
1.626291854316e-04 -2.263522888101e-06 0.0 
3.403670959298e-05 -1.357711293220e-05 0.0 
6.947407674445e-05 -3.415938657375e-05 0.0 
3.739922856598e-05 -1.855005961376e-05 0.0 
2.241540044361e-04 4.252318714185e-05 0.0 
2.609527973470e-04 8.557571245079e-05 0.0 
3.059500797763e-04 6.848627064696e-04 0.0 
2.893711962607e-04 1.268662479707e-04 0.0 
2.840854258657e-04 1.279978428873e-04 0.0 
6.965140905616e-06 -2.984952822213e-05 0.0 
3.623683566487e-05 -1.986819858793e-05 0.0 
1.906809031931e-04 6.961767020433e-05 0.0 
3.392488387066e-04 2.257071157848e-04 0.0 
3.373017266195e-04 2.262177730277e-04 0.0 
7.071730228824e-05 2.659373696528e-06 0.0 
1.021424214379e-06 -2.658204115148e-05 0.0 
5.078930684773e-05 -3.954745435211e-05 0.0 
2.020367260753e-04 2.518991144745e-05 0.0 
3.340101334334e-05 -1.932984640810e-05 0.0 
2.417079738198e-04 8.127189673844e-04 0.0 
2.605525214526e-04 9.382420545844e-04 0.0 
3.217563900523e-04 6.562415353308e-04 0.0 
5.225776210360e-05 -2.466669547087e-05 0.0 
3.070417478178e-05 -1.455154499561e-05 0.0 
6.606976538242e-05 -5.635636288599e-06 0.0 
5.205942283348e-05 -3.873880903385e-05 0.0 
6.763336661546e-05 1.704229535062e-05 0.0 
1.895804390810e-04 3.994804888916e-04 0.0 
2.473772131575e-05 -1.504582113586e-05 0.0 
2.019209353647e-05 -3.945703167195e-06 0.0 
1.344160571461e-05 -3.200561181250e-05 0.0 
6.377893118630e-05 -8.006928268238e-06 0.0 
2.110159827266e-04 3.102994400609e-05 0.0 
1.019436247123e-05 -3.126724609050e-05 0.0 
1.758013835554e-04 4.044478415211e-04 0.0 
4.925685227782e-05 -3.817934181526e-05 0.0 
3.275171699506e-04 1.944066110738e-04 0.0 
2.477286936071e-04 6.871249615341e-05 0.0 
7.559799358886e-05 -2.477878192342e-05 0.0 
5.739482772305e-05 -1.398834120752e-05 0.0 
1.756088879655e-04 3.326052936672e-04 0.0 
5.319948640239e-05 -1.014297129746e-05 0.0 
1.892263302627e-04 1.418992698962e-05 0.0 
1.913748187521e-04 1.648198074654e-05 0.0 
2.427476038918e-05 -9.172802391245e-06 0.0 
4.565967895308e-05 -3.864261250921e-05 0.0 
1.653527490841e-04 3.126595236040e-05 0.0 
3.673158666891e-04 6.564800412012e-04 0.0 
1.463265653160e-04 2.703816400836e-05 0.0 
8.630475863479e-05 -1.919546700513e-05 0.0 
3.077833040904e-04 3.003081126998e-04 0.0 
1.613956192586e-04 3.743331113256e-05 0.0 
3.059016044992e-04 8.250949439094e-04 0.0 
1.742846365092e-04 3.725889509152e-05 0.0 
1.840287230410e-05 -3.912108847468e-06 0.0 
2.041550544831e-04 2.915810703821e-05 0.0 
3.549542326049e-05 -1.672274668593e-05 0.0 
3.628899192661e-05 -1.534436657165e-05 0.0 
2.041612644137e-04 2.248570674167e-04 0.0 
5.997651434917e-05 -1.793973439773e-05 0.0 
2.432450647288e-04 6.086384419940e-05 0.0 
1.358493416828e-04 -1.218256039151e-05 0.0 
4.737597921534e-05 -6.608852444819e-06 0.0 
1.470259059411e-04 -1.042054568823e-05 0.0 
7.328058816570e-05 -3.573070397985e-05 0.0 
8.739347460960e-05 -1.820593335712e-05 0.0 
8.181416642783e-05 -3.362196588213e-05 0.0 
3.155960122777e-04 1.698806241412e-04 0.0 
7.861763719848e-05 -3.457106004535e-05 0.0 
2.886612097860e-04 1.188677326929e-04 0.0 
8.132956332811e-05 2.097519023254e-06 0.0 
8.677637175166e-05 1.384656548891e-07 0.0 
1.394969965177e-04 -1.396727004884e-05 0.0 
3.334092031809e-04 7.035194805293e-04 0.0 
1.582522952847e-05 -2.964810259086e-06 0.0 
1.429174158808e-05 -2.949870421287e-06 0.0 
4.283726215995e-05 -2.255348142507e-05 0.0 
2.781051294376e-04 1.045214101741e-04 0.0 
8.482329470657e-06 -8.620924668766e-07 0.0 
1.134242854604e-04 1.312712074359e-04 0.0 
2.358707042510e-05 -1.228655436393e-05 0.0 
2.591583842871e-05 -7.055152667486e-06 0.0 
1.200546517541e-05 -2.152437330149e-06 0.0 
7.300395607321e-05 -3.469432783647e-05 0.0 
5.779159068859e-06 -1.097144569101e-05 0.0 
1.373569145431e-04 2.898430243015e-06 0.0 
3.476243622730e-04 6.656484902186e-04 0.0 
3.557472098000e-04 7.041068766948e-04 0.0 
2.069450938787e-04 2.740361350326e-05 0.0 
2.060507960105e-04 4.818849879630e-04 0.0 
2.366518958919e-04 6.430357787427e-04 0.0 
1.070705700374e-05 -2.150712777529e-06 0.0 
5.738640691181e-05 -1.209880110476e-05 0.0 
7.558620335440e-05 -2.065532388307e-05 0.0 
6.806989258995e-05 -7.731576071951e-06 0.0 
8.798633594998e-05 -2.264197666208e-05 0.0 
7.887047675978e-05 -3.361850001306e-05 0.0 
2.160324252399e-04 5.914607714029e-04 0.0 
3.578980352880e-04 7.759545278768e-04 0.0 
4.664614891825e-05 1.459344635757e-03 0.0 
8.159322006195e-05 -8.977557978626e-07 0.0 
1.324647919416e-04 -1.705464609205e-05 0.0 
5.942590924998e-05 6.422761192770e-06 0.0 
4.475004031069e-06 -2.173470445815e-06 0.0 
9.062401472692e-05 -2.031375528876e-05 0.0 
7.016520467298e-06 -4.136414406355e-07 0.0 
7.714795733096e-05 -3.444330786432e-05 0.0 
7.881837397161e-05 8.840937279067e-06 0.0 
1.958173487380e-04 1.927152718770e-05 0.0 
1.836598861812e-04 1.960624349845e-05 0.0 
4.533439086480e-05 -1.482510141850e-06 0.0 
4.142786754729e-05 -2.721103544444e-05 0.0 
2.622727289809e-04 8.217655308662e-05 0.0 
8.293573405567e-05 -2.277805494322e-05 0.0 
2.695135757949e-04 9.283542018203e-05 0.0 
9.517073769188e-05 -1.744797963346e-05 0.0 
1.634083493486e-04 1.317925642903e-05 0.0 
8.017755608434e-05 -2.486431970554e-05 0.0 
2.903112173279e-05 -1.159872669158e-05 0.0 
2.831168906411e-04 1.125212825494e-04 0.0 
2.861459174315e-05 -1.963583539011e-05 0.0 
1.352978729801e-04 -7.511854809589e-06 0.0 
3.195503327622e-05 -7.943548145060e-06 0.0 
1.919136743328e-05 -3.243849268990e-05 0.0 
2.607450730879e-05 -1.258691632733e-05 0.0 
2.234372758185e-04 7.050396687136e-05 0.0 
3.693519565134e-04 5.804964277189e-04 0.0 
9.964917893878e-05 2.827169645115e-04 0.0 
2.267087915505e-05 3.052167814408e-05 0.0 
2.365315622376e-05 -1.502552125849e-05 0.0 
1.437028601160e-04 3.691485462659e-04 0.0 
7.257738243288e-05 -1.850545711662e-05 0.0 
2.055828832793e-05 -1.318047259301e-05 0.0 
2.567290728545e-04 3.428423628456e-04 0.0 
6.745591816366e-05 -3.328636605303e-05 0.0 
6.084515934360e-05 -1.608086820693e-05 0.0 
2.122519094728e-04 3.270092307146e-05 0.0 
1.300514492747e-04 -2.861000835723e-06 0.0 
2.471047385948e-04 1.284745397497e-04 0.0 
4.748341432728e-05 -2.535311498468e-05 0.0 
2.730620835521e-05 -1.543073958551e-05 0.0 
1.883879038205e-05 -1.173798723617e-05 0.0 
3.139224641527e-05 -3.022626813553e-05 0.0 
3.178010790486e-04 9.008505679881e-04 0.0 
3.756587556234e-04 5.336809763077e-04 0.0 
1.681208943901e-06 -4.391147764419e-06 0.0 
1.188690491887e-05 -3.204589402947e-05 0.0 
3.237550605178e-05 -3.620500126628e-05 0.0 
2.909341016870e-05 -3.429987391442e-05 0.0 
1.654834982350e-05 -1.150336486667e-05 0.0 
8.285023634857e-05 -3.182018764737e-05 0.0 
6.707818548738e-05 -3.472365008867e-05 0.0 
7.051756848634e-05 -3.636637880843e-05 0.0 
2.165197899265e-05 -1.081626099043e-05 0.0 
3.614599638531e-04 3.669323541347e-04 0.0 
1.489284026150e-05 -1.017348455898e-05 0.0 
8.702321118024e-05 -3.143590021029e-05 0.0 
2.653199634787e-04 8.751609293511e-05 0.0 
2.091548206727e-04 1.151761061093e-03 0.0 
1.230808929762e-04 6.463041662738e-06 0.0 
1.273408835005e-05 -1.001381639808e-05 0.0 
1.933642990048e-05 -1.057987856128e-05 0.0 
5.578530449182e-05 1.698575975631e-04 0.0 
7.877775860416e-05 -3.045490032972e-05 0.0 
1.112806246085e-05 -8.788399975198e-06 0.0 
9.054182296009e-06 8.850806504339e-04 0.0 
9.615962957002e-06 1.032480228257e-03 0.0 
7.267389319240e-05 2.196746962133e-04 0.0 
1.748751142229e-05 -9.232344446648e-06 0.0 
5.752999254736e-05 -3.375862789137e-05 0.0 
3.925967035837e-05 -4.019054274606e-06 0.0 
7.431948856430e-05 7.326384832181e-06 0.0 
3.308697821730e-05 -3.697396312076e-05 0.0 
5.742420240401e-05 -3.211948914455e-05 0.0 
1.400202111283e-04 -8.672903434465e-06 0.0 
1.026328465469e-04 3.373808086853e-04 0.0 
9.069923239761e-06 -8.694556500102e-06 0.0 
2.029074386749e-06 -2.378880642175e-05 0.0 
3.322508387829e-04 8.849554388664e-04 0.0 
1.533436234187e-05 -9.060572813849e-06 0.0 
6.920074100134e-05 -2.247905028580e-05 0.0 
2.804694320195e-05 -1.417793770467e-05 0.0 
3.118308061490e-05 -2.514998661420e-05 0.0 
1.269419265210e-05 4.520093099940e-04 0.0 
6.688224995896e-05 -2.990030812466e-05 0.0 
5.885279967823e-05 4.019639485267e-07 0.0 
1.736352139036e-04 1.410203451035e-05 0.0 
1.360158293470e-05 -7.833487595993e-06 0.0 
1.155403496513e-05 -7.720982918243e-06 0.0 
7.826924468683e-05 -3.335551805910e-05 0.0 
3.288905543021e-05 -3.996419687787e-05 0.0 
3.108330393774e-05 -2.200842923984e-05 0.0 
9.919954139260e-06 -6.598860744938e-06 0.0 
4.859791451550e-05 -1.123818857360e-06 0.0 
4.859769444274e-05 -3.201857268114e-05 0.0 
2.529715564634e-04 7.699140232347e-05 0.0 
9.156332455017e-05 9.734582967740e-05 0.0 
2.773173651473e-04 1.081498217131e-04 0.0 
1.470666194821e-05 2.300181108172e-07 0.0 
2.723920643757e-05 -3.452568662353e-05 0.0 
1.991274241488e-06 3.904350807214e-05 0.0 
3.108513289043e-07 1.526500331283e-08 0.0 
5.739067537935e-06 1.265612851711e-03 0.0 
5.615414142827e-05 -2.851266633645e-05 0.0 
1.930969008918e-04 2.174128394318e-05 0.0 
8.591950923498e-05 -3.249176379520e-05 0.0 
2.009125526740e-05 -3.356375325877e-05 0.0 
2.520500606811e-05 -1.336242822119e-05 0.0 
5.668257621954e-05 3.223418813312e-04 0.0 
3.720444634674e-04 4.229566735115e-04 0.0 
2.767504190734e-04 1.010213509962e-03 0.0 
3.055647376071e-05 7.104949530078e-06 0.0 
2.017697258958e-06 -2.568690463732e-05 0.0 
2.626036470523e-05 5.476366782376e-06 0.0 
3.707347009394e-04 4.667410460824e-04 0.0 
4.641497998203e-05 -2.669177274844e-05 0.0 
1.900660107409e-04 1.715201366088e-05 0.0 
5.367934377374e-05 -2.979651327537e-05 0.0 
4.273586112199e-05 4.742918702989e-06 0.0 
4.812998423993e-05 -3.032058616286e-05 0.0 
3.437041522809e-04 2.839348283691e-04 0.0 
4.403852405161e-06 -1.536831006588e-06 0.0 
6.380112248017e-05 -3.132390304925e-05 0.0 
2.615554853650e-04 9.423983554501e-05 0.0 
2.906758965034e-05 -3.655155960829e-05 0.0 
7.487843761064e-05 -3.204389831825e-05 0.0 
3.271674841426e-04 3.552660750234e-04 0.0 
3.950004760240e-05 -2.828068806022e-05 0.0 
4.341731322257e-05 -3.229961628828e-05 0.0 
1.796547337422e-04 1.102914628417e-05 0.0 
4.376108995480e-05 -4.105651345243e-05 0.0 
3.743201438494e-05 9.971272689082e-05 0.0 
4.412261889646e-05 1.322828738338e-04 0.0 
3.819844512238e-05 -3.087580796985e-05 0.0 
6.814858558483e-05 -1.840310172226e-05 0.0 
1.459585262585e-04 -1.017434522511e-05 0.0 
2.499948426400e-04 8.008673339431e-05 0.0 
1.871345259778e-04 1.135709423603e-04 0.0 
5.165452932608e-05 2.037803018161e-04 0.0 
1.752637048417e-05 7.320582497481e-04 0.0 
1.418760910139e-04 4.790678486492e-05 0.0 
8.062524704745e-05 -3.396384103750e-05 0.0 
3.055279291992e-05 -2.564622981757e-06 0.0 
1.112741039708e-04 1.060077156037e-04 0.0 
6.267745005570e-05 -2.006989112574e-05 0.0 
2.946027705537e-04 1.475189825085e-04 0.0 
6.678842029404e-05 -2.034952620271e-05 0.0 
3.973726258526e-05 -2.628769767149e-05 0.0 
6.537438916190e-05 -1.424200732971e-05 0.0 
4.717466853597e-05 1.559945670581e-05 0.0 
1.382107182496e-04 -1.313566701530e-05 0.0 
6.490626034092e-05 -1.626460045449e-05 0.0 
1.726609516156e-04 1.011420757837e-05 0.0 
6.362217203904e-05 9.146391167526e-04 0.0 
3.565804979682e-05 -3.014180386160e-05 0.0 
3.648523654155e-05 -1.112528458361e-05 0.0 
6.130486735333e-05 -1.216873497939e-05 0.0 
5.293310052453e-05 2.950017557105e-05 0.0 
3.196221388468e-05 -3.449516873265e-05 0.0 
4.861168477827e-06 2.948388051546e-04 0.0 
6.373579007181e-06 4.411657420224e-04 0.0 
3.051834341359e-05 -4.075580860080e-05 0.0 
6.078133009646e-05 -1.017012800426e-05 0.0 
3.022992287116e-05 -3.239341280705e-05 0.0 
2.971560129394e-05 -3.097717561997e-05 0.0 
2.334637959324e-04 8.190413568620e-05 0.0 
1.631586072539e-04 5.585050278307e-06 0.0 
2.326783390229e-04 6.970797031699e-05 0.0 
7.106800780152e-05 -3.191831710779e-05 0.0 
9.731620488010e-05 1.463848424496e-03 0.0 
1.004642485427e-05 1.496956657850e-07 0.0 
2.866596120919e-05 -3.300995629984e-05 0.0 
6.807162765347e-05 -6.072998928634e-07 0.0 
1.516860553273e-04 -6.427177540125e-06 0.0 
7.811845262858e-06 -2.817256822791e-05 0.0 
3.220065322221e-04 1.957627347722e-04 0.0 
8.305453168578e-05 -3.036320402028e-05 0.0 
3.408702652843e-05 -4.146338877065e-05 0.0 
7.038605654511e-05 -3.479923524572e-05 0.0 
9.067618589210e-07 -5.256777833910e-06 0.0 
3.381470002696e-04 2.527505061587e-04 0.0 
3.311813250574e-05 -3.809072321993e-05 0.0 
3.900281097221e-06 -1.118552224110e-05 0.0 
2.647416112492e-04 1.103028223673e-04 0.0 
1.173679883435e-04 8.903914433144e-06 0.0 
4.295989396032e-05 -3.067768229916e-05 0.0 
4.088183669067e-06 -2.375070289247e-05 0.0 
1.481091167639e-04 -5.878842373265e-06 0.0 
4.665362241707e-06 9.621199677715e-04 0.0 
3.538859810321e-05 -4.206724657901e-05 0.0 
9.493467939606e-05 2.846880169927e-05 0.0 
1.208512349174e-04 8.693933058533e-05 0.0 
2.030940948447e-05 1.166876730848e-03 0.0 
1.018330538073e-04 2.021430768886e-04 0.0 
1.100717821725e-04 5.950780591063e-05 0.0 
7.071283799351e-05 -3.020428300298e-05 0.0 
6.032358823544e-05 -3.088099515548e-05 0.0 
3.314771695012e-05 2.752526262462e-06 0.0 
2.740536939131e-05 -3.253097971967e-05 0.0 
9.962730445798e-07 -2.474571120026e-05 0.0 
2.845772777061e-06 -1.028319504862e-05 0.0 
4.023580158882e-05 -2.997268271340e-05 0.0 
6.064787677548e-05 -3.419215772584e-05 0.0 
3.024338388113e-05 5.339930791081e-05 0.0 
3.321468789559e-05 7.317554031041e-05 0.0 
1.805242057914e-04 1.166408055649e-03 0.0 
7.457421903052e-05 -3.348753242054e-05 0.0 
1.058251596208e-05 -2.381793455372e-05 0.0 
1.475719968462e-04 1.535586526607e-05 0.0 
3.284636256756e-06 9.534731123453e-08 0.0 
4.368059582690e-06 1.235464263863e-07 0.0 
5.961654500794e-05 -2.904203140991e-05 0.0 
2.155442756488e-04 1.208947948788e-03 0.0 
3.103681067274e-05 -3.704371175948e-05 0.0 
2.802781799069e-05 2.167805383194e-05 0.0 
4.267159136061e-05 -4.128704327868e-05 0.0 
2.930639265500e-05 3.579906015019e-05 0.0 
1.516733719276e-04 -2.077308066987e-06 0.0 
5.151626771453e-05 -3.264873863457e-05 0.0 
6.401962087686e-05 -3.299592687280e-05 0.0 
3.623670377133e-05 -4.073126575134e-05 0.0 
1.472237253553e-05 3.988374153741e-04 0.0 
5.424236152198e-05 -3.156437233791e-05 0.0 
4.896492260040e-05 3.155818586664e-04 0.0 
3.806549699527e-05 5.305859398899e-04 0.0 
5.993231611095e-06 8.623134061945e-05 0.0 
6.991192922368e-07 2.332147173411e-08 0.0 
1.068966825323e-05 1.183204532280e-03 0.0 
5.048553976348e-05 -2.918289305376e-05 0.0 
3.313044845178e-05 1.221515998157e-04 0.0 
4.956680793218e-05 -2.732873184088e-05 0.0 
1.226238964913e-06 3.220835325672e-08 0.0 
2.651422719633e-05 6.605860718526e-07 0.0 
2.714784591077e-05 1.013825265603e-05 0.0 
6.701782826711e-05 1.753716164866e-06 0.0 
1.595718361188e-04 1.305544696345e-03 0.0 
2.889115889867e-05 3.031327406429e-04 0.0 
2.542655018618e-04 9.526124128253e-05 0.0 
1.001542547270e-04 1.191824473601e-05 0.0 
2.735728921989e-04 1.542749691537e-04 0.0 
6.924548780546e-05 1.133977415354e-03 0.0 
3.864717103420e-05 -3.242401585095e-05 0.0 
4.114194676289e-05 -3.314282458362e-05 0.0 
2.150451915631e-05 8.058407655379e-04 0.0 
1.170385411719e-04 1.316256056767e-05 0.0 
2.410296547558e-04 1.171425711417e-03 0.0 
3.636476168384e-05 1.331393643501e-03 0.0 
4.399461376135e-05 1.201712820329e-03 0.0 
7.899986634268e-05 1.151600907217e-03 0.0 
4.195115963198e-05 -4.014891312206e-05 0.0 
3.657715613622e-05 -3.315829739657e-05 0.0 
4.552876211739e-05 1.904458749643e-04 0.0 
7.987782140561e-05 9.939770144110e-04 0.0 
3.193000658279e-05 4.485464547403e-06 0.0 
1.923998417701e-04 1.083877775274e-04 0.0 
3.120324866363e-04 1.707260905968e-04 0.0 
1.466021084001e-04 2.733270016244e-04 0.0 
1.399770492214e-05 -1.855091832839e-05 0.0 
1.407384865620e-05 -2.084702667896e-05 0.0 
1.769388429923e-05 -3.561114612931e-07 0.0 
3.387489897008e-05 -4.070024990779e-05 0.0 
5.160517833878e-06 -2.461732933226e-05 0.0 
1.392418864599e-05 3.032676917654e-06 0.0 
1.860343517524e-06 -2.915301195899e-05 0.0 
4.487301594300e-05 1.287373720172e-03 0.0 
4.064175625231e-05 1.322119254279e-06 0.0 
2.624535745468e-05 -3.760443069691e-05 0.0 
1.964321384213e-05 -3.559046381738e-05 0.0 
2.923388049550e-05 7.092301317875e-05 0.0 
1.354962374000e-04 1.412266411612e-03 0.0 
6.865392099570e-05 2.021219623742e-04 0.0 
4.328112632586e-05 2.798646634000e-06 0.0 
1.206366858872e-04 1.418813237718e-03 0.0 
2.971050962952e-05 -3.264877305880e-05 0.0 
1.032795711055e-05 1.618642730655e-04 0.0 
1.748635551838e-05 -3.175635414285e-05 0.0 
7.473407484135e-05 2.673045655906e-04 0.0 
9.501553853322e-07 2.581504515097e-08 0.0 
1.904487811888e-04 1.394528340955e-04 0.0 
4.734738111339e-05 -4.001882141921e-05 0.0 
2.624845352368e-04 1.065124804966e-03 0.0 
8.501098630512e-06 -1.787415875931e-05 0.0 
1.391459709484e-04 1.200670713647e-05 0.0 
1.713406394576e-05 2.655603251316e-06 0.0 
2.133340619029e-05 6.570187386873e-04 0.0 
1.530013213882e-05 2.095053517324e-06 0.0 
3.686654339804e-05 -3.979234979353e-05 0.0 
5.867817050924e-06 -8.430478838767e-08 0.0 
4.821399528468e-05 -4.045358701827e-05 0.0 
8.587645259318e-06 -2.977123546251e-05 0.0 
2.126958747764e-05 9.995629214929e-07 0.0 
1.175725462039e-04 1.465644502990e-04 0.0 
6.329498038273e-05 1.375458298691e-04 0.0 
9.685766560471e-05 1.313703156104e-03 0.0 
3.461673712659e-04 8.254480269145e-04 0.0 
4.413670631296e-05 -1.950828199956e-06 0.0 
1.235990963371e-04 6.326186084312e-05 0.0 
7.349549839184e-06 -2.084448604727e-05 0.0 
3.557784994882e-05 -2.075207696655e-05 0.0 
1.251447552540e-04 1.147715417227e-05 0.0 
7.940242713090e-05 1.466490439433e-03 0.0 
1.555748801071e-04 1.999716402301e-04 0.0 
8.387936486942e-07 8.206992633518e-05 0.0 
8.387936486942e-07 3.460516681474e-05 0.0 
2.096546345983e-06 -3.343605316064e-05 0.0 
8.679569475742e-07 -3.288230507975e-05 0.0 
4.491285879960e-06 1.411520740044e-03 0.0 
1.107498864092e-05 1.462976338838e-03 0.0 
1.202280408241e-07 7.973813661478e-09 0.0 
1.202280408241e-07 -8.698959771770e-09 0.0 
3.749341475438e-06 -3.224688613023e-05 0.0 
3.059263304286e-05 -3.941873212145e-05 0.0 
5.825629902741e-06 -4.925356542444e-07 0.0 
1.128409360357e-04 2.265606091655e-05 0.0 
1.481432888702e-05 -3.020839463104e-05 0.0 
1.001440876664e-05 -3.668383706006e-07 0.0 
1.640060853180e-06 -8.399692789514e-06 0.0 
1.827079547240e-06 -1.273853460518e-05 0.0 
5.504626542956e-05 9.358679647783e-04 0.0 
3.993562181918e-05 -4.129270834407e-05 0.0 
1.543858743113e-04 9.212458864937e-06 0.0 
1.632954036127e-05 -3.199067292467e-05 0.0 
1.124720737410e-05 -1.562817917598e-05 0.0 
1.619903586672e-04 8.403592422860e-05 0.0 
2.778883580527e-06 3.648842104021e-04 0.0 
3.500307074904e-06 -1.250622750908e-05 0.0 
3.411701327335e-05 1.085395832311e-03 0.0 
1.325646954626e-04 3.616111498365e-05 0.0 
2.422325091165e-04 1.161804811844e-04 0.0 
2.834906987957e-04 1.443822465047e-04 0.0 
1.060805569467e-04 1.416200799672e-03 0.0 
1.463697457980e-04 2.262476758881e-06 0.0 
1.785890743264e-04 1.772870192409e-04 0.0 
7.323972661610e-06 -2.458195740559e-05 0.0 
2.951588042821e-05 -4.042162964656e-05 0.0 
1.571138655801e-04 4.335464680533e-05 0.0 
7.244693761727e-05 1.556400388413e-07 0.0 
3.854619176244e-05 -4.172427002818e-05 0.0 
2.962800293423e-05 8.219942828812e-04 0.0 
3.147594334807e-06 -6.151200892129e-08 0.0 
1.409025699480e-04 3.159303782084e-05 0.0 
1.214259538292e-04 2.871410998989e-05 0.0 
1.928103504596e-06 -6.372497708807e-06 0.0 
2.875142113734e-05 -2.546939244228e-05 0.0 
2.701014101531e-05 6.703419609272e-05 0.0 
5.465720355114e-05 1.897658606617e-05 0.0 
2.863549846693e-04 9.890112629085e-04 0.0 
1.551103945046e-04 5.606079646196e-06 0.0 
5.759365792240e-05 2.614265039417e-04 0.0 
2.966018226838e-05 3.018052822274e-06 0.0 
3.415623675538e-05 -4.199684380141e-05 0.0 
3.100353983548e-05 -4.036431784590e-05 0.0 
2.576580626346e-05 3.071940083848e-05 0.0 
4.990611766011e-05 7.541209544473e-04 0.0 
1.159818165294e-05 -2.280836408010e-05 0.0 
1.364445511827e-04 2.117002892561e-04 0.0 
8.990443183201e-06 -2.904894034466e-05 0.0 
5.182760923293e-05 3.720108822643e-06 0.0 
1.686021647653e-04 1.162258092324e-03 0.0 
4.714837744262e-05 8.286261763383e-06 0.0 
1.405663882877e-04 1.750609153054e-05 0.0 
3.168406130469e-04 9.188293321693e-04 0.0 
1.647508480963e-05 4.325882623809e-07 0.0 
1.062050895343e-04 1.523693419839e-04 0.0 
8.408284638245e-06 1.897407354537e-04 0.0 
2.493287196059e-05 6.808042598677e-06 0.0 
1.347671929124e-04 2.734062311818e-04 0.0 
8.216194514083e-05 2.636221608530e-05 0.0 
5.134400569974e-05 2.974434153538e-06 0.0 
1.240341483077e-04 1.584233979635e-05 0.0 
1.761854834889e-06 4.865285350808e-08 0.0 
2.915030862486e-04 1.633988133050e-04 0.0 
2.394088960665e-05 -2.237838732212e-05 0.0 
3.746839430627e-05 -1.563215675489e-05 0.0 
2.229811433243e-04 1.166432727836e-04 0.0 
2.754595385192e-04 9.355503618981e-04 0.0 
3.014518441488e-06 -5.731456924837e-07 0.0 
1.123450775066e-04 1.662443376579e-05 0.0 
6.212096548278e-06 5.433580370487e-08 0.0 
4.556254052859e-05 6.028910468823e-04 0.0 
4.080204228017e-05 6.488447986077e-06 0.0 
2.014554247189e-05 -7.981490782005e-08 0.0 
2.162448766766e-05 8.162895664255e-08 0.0 
8.356474299893e-06 -2.179995529429e-05 0.0 
2.749020386780e-06 7.890281098317e-08 0.0 
1.952694461161e-04 1.275527834636e-03 0.0 
3.521096813674e-05 3.069068812173e-04 0.0 
3.238594516019e-05 -4.061433355566e-05 0.0 
2.194385322511e-05 4.279825640846e-04 0.0 
4.492101368891e-05 8.149471481676e-04 0.0 
1.837430819249e-06 -3.065881328187e-05 0.0 
4.502032377439e-05 -3.967344679491e-05 0.0 
2.606882752677e-04 1.229643437881e-04 0.0 
5.050679588408e-05 1.528575527481e-04 0.0 
1.759470707361e-05 2.932942762523e-04 0.0 
5.109135545971e-05 7.094920353449e-06 0.0 
8.501271069765e-05 1.073175778938e-03 0.0 
2.521448134131e-05 -3.801430739412e-05 0.0 
3.342365208665e-05 -3.132508526778e-05 0.0 
2.420231006412e-05 -3.710963279076e-05 0.0 
3.164979569943e-05 -3.932457212419e-05 0.0 
2.271637501845e-05 -1.953452598028e-05 0.0 
1.021335930938e-05 -1.638078849106e-05 0.0 
3.797131495668e-06 -5.756911260469e-07 0.0 
1.938274565463e-04 1.542515802966e-04 0.0 
3.473358269545e-04 7.811415613482e-04 0.0 
1.527566401987e-05 -1.992546851754e-05 0.0 
1.700585041184e-05 -5.288632919278e-07 0.0 
3.693491566864e-05 6.037500571763e-07 0.0 
5.906765295185e-05 1.069015734332e-05 0.0 
1.229259335149e-04 3.635311199629e-05 0.0 
2.147772214047e-04 9.638368622097e-05 0.0 
3.055121326177e-05 -3.961846614838e-05 0.0 
3.487217153185e-05 -3.880380013938e-05 0.0 
5.340780994174e-06 -5.654638389131e-07 0.0 
3.560175117840e-06 -3.043945429408e-05 0.0 
7.702634504468e-07 -2.991260390589e-05 0.0 
2.804710159087e-05 -1.593410836995e-05 0.0 
2.484452900331e-05 -3.682982554722e-05 0.0 
1.218276228624e-05 4.247521305245e-07 0.0 
9.308220601376e-05 3.860575932733e-05 0.0 
5.117297274126e-05 2.617291934011e-04 0.0 
4.916511936419e-05 9.828481627763e-06 0.0 
4.477302288710e-05 2.658419847823e-09 0.0 
7.049012404337e-05 9.894044189065e-04 0.0 
1.339691793640e-05 2.928327160811e-05 0.0 
4.675248203899e-05 -4.058694406369e-05 0.0 
1.257986179439e-04 1.463421645975e-03 0.0 
3.671180897744e-05 -4.177302480248e-05 0.0 
1.813446270344e-05 -3.468543029120e-05 0.0 
1.828524976561e-06 4.164036417741e-08 0.0 
2.762016863394e-04 1.084757343387e-03 0.0 
1.010780603424e-05 -3.049799027635e-05 0.0 
7.259998881263e-06 -1.669546048549e-05 0.0 
1.124383623741e-04 5.020484723680e-05 0.0 
8.403913462255e-05 2.728408019263e-04 0.0 
9.874490751153e-05 1.098056964307e-04 0.0 
5.199255320113e-06 -2.274685069364e-05 0.0 
3.436870832269e-05 -3.382227520534e-05 0.0 
8.367925621381e-06 -5.249532816734e-08 0.0 
2.830067890182e-06 7.364867488688e-05 0.0 
4.310793697284e-07 2.323881697430e-08 0.0 
1.023035341790e-05 1.330360605885e-03 0.0 
3.374613731119e-05 1.266836781476e-06 0.0 
1.159076943246e-05 -3.031970325077e-05 0.0 
1.283939468759e-04 2.179526417760e-04 0.0 
2.073250818893e-05 -3.573878941801e-05 0.0 
1.563501222771e-05 8.796996876262e-07 0.0 
1.278618497276e-04 1.379047373808e-04 0.0 
3.043001517794e-05 -3.046099522791e-05 0.0 
1.347654034304e-04 2.719083342776e-05 0.0 
4.403744651542e-05 6.749504429428e-04 0.0 
3.257587068167e-05 1.476415119688e-04 0.0 
6.638613295569e-06 9.758031622297e-07 0.0 
1.724905033498e-05 8.825578032745e-04 0.0 
9.615324157023e-05 4.538237485409e-05 0.0 
1.631299391646e-04 1.923965768990e-04 0.0 
3.544939455270e-05 7.757507692647e-04 0.0 
1.465300585634e-04 6.671322100024e-05 0.0 
8.571514476136e-06 -1.995420105436e-05 0.0 
7.072253374161e-05 1.422506592655e-03 0.0 
8.570976494932e-05 1.610101075289e-05 0.0 
2.921078545995e-06 1.571342212707e-04 0.0 
3.910763505044e-06 -3.309154717724e-05 0.0 
2.030458686239e-05 1.420331355178e-03 0.0 
3.924520824936e-07 -6.751928323027e-08 0.0 
1.663598459244e-05 -3.063459493230e-05 0.0 
4.567231355446e-05 2.083139519237e-06 0.0 
1.875791930641e-04 1.740801020619e-04 0.0 
3.759380164914e-05 1.924610167653e-04 0.0 
1.090841385137e-05 -2.938042011772e-05 0.0 
3.395171309882e-05 -2.229753754649e-05 0.0 
7.315424092874e-07 -1.158125745118e-05 0.0 
1.811116483199e-05 5.230927310132e-04 0.0 
2.899084495551e-05 -3.796904615966e-05 0.0 
8.054292779676e-05 1.212532928376e-04 0.0 
3.089686433375e-05 9.116515746205e-04 0.0 
3.876374329633e-05 -4.103582156720e-05 0.0 
5.654003779632e-05 1.021118896530e-03 0.0 
6.658467826052e-05 1.355451715870e-05 0.0 
1.350261616792e-06 -1.044662316261e-05 0.0 
2.432281220139e-05 -1.816720357843e-05 0.0 
1.042452316745e-05 -2.175886509282e-05 0.0 
9.928922073743e-06 -1.431194457381e-05 0.0 
6.187192075042e-07 -9.344572420004e-06 0.0 
6.844996450052e-05 8.967880975111e-06 0.0 
5.194235107376e-06 -1.440869667822e-05 0.0 
6.496267249440e-06 -1.301409896287e-05 0.0 
2.208175610052e-05 -3.559283916122e-05 0.0 
1.086615698582e-05 -3.439254078025e-07 0.0 
1.652169895021e-04 4.978068334361e-05 0.0 
3.955942387693e-05 -2.313539909732e-05 0.0 
4.912352787482e-06 1.487129698224e-04 0.0 
7.033034113979e-07 -3.558150648419e-08 0.0 
1.945995163937e-05 1.338566237637e-03 0.0 
2.304992274323e-05 9.443099902905e-04 0.0 
7.183144698853e-06 -1.479871542637e-05 0.0 
7.907486451205e-06 -1.402932425756e-05 0.0 
4.779253051711e-06 -1.324238628893e-05 0.0 
5.849395368238e-05 2.168899104284e-06 0.0 
3.690143932637e-05 -4.134243188037e-05 0.0 
1.438872862715e-04 4.494356899175e-05 0.0 
3.587650251196e-05 1.170272664963e-03 0.0 
9.691536912013e-05 1.619346890187e-04 0.0 
5.470423505731e-05 1.580086819649e-06 0.0 
6.587063479819e-05 1.050979691570e-03 0.0 
1.976257042957e-04 9.680654962386e-05 0.0 
7.100189440493e-05 1.030754197550e-05 0.0 
5.413331386364e-05 8.703000530202e-06 0.0 
2.644215219801e-05 -2.020583756128e-05 0.0 
1.942940118543e-04 8.884102162656e-05 0.0 
1.641530306180e-04 7.160235003126e-05 0.0 
2.071066217650e-05 -3.512597380774e-05 0.0 
8.170732256677e-06 -1.583394505770e-05 0.0 
2.647920491504e-05 -2.289783723909e-05 0.0 
1.686362000896e-04 8.266481200302e-05 0.0 
2.952101276362e-05 1.603983943483e-03 0.0 
3.373244459018e-05 1.552829872963e-03 0.0 
4.636451784779e-05 1.604136296407e-03 0.0 
5.067594317563e-05 1.553490822568e-03 0.0 
6.209703232570e-05 1.604783882954e-03 0.0 
6.709952796835e-05 1.554352350243e-03 0.0 
7.761283381341e-05 1.605225545122e-03 0.0 
8.289440967038e-05 1.554385528079e-03 0.0 
9.248691175845e-05 1.604564831668e-03 0.0 
9.794259975087e-05 1.553628342213e-03 0.0 
1.061356607765e-04 1.602897259452e-03 0.0 
1.116080083605e-04 1.551481866909e-03 0.0 
1.543876644399e-04 1.230618897366e-03 0.0 
1.178537924648e-04 1.599291768684e-03 0.0 
1.692357068314e-04 1.250540639835e-03 0.0 
1.235870155625e-04 1.546983634876e-03 0.0 
1.271951807576e-04 1.592267698519e-03 0.0 
1.335427187937e-04 1.538302550719e-03 0.0 
1.338854316063e-04 1.580658092340e-03 0.0 
1.414238481285e-04 1.524919704703e-03 0.0 
1.371602783592e-04 1.563431311078e-03 0.0 
1.466764683090e-04 1.504105265923e-03 0.0 
1.043223769163e-04 1.258043202709e-03 0.0 
1.366230395418e-04 1.536684168427e-03 0.0 
1.498945725806e-04 1.471713662375e-03 0.0 
1.331080630161e-04 1.496666934395e-03 0.0 
1.525373572677e-04 1.423697531487e-03 0.0 
1.571662664582e-04 1.353541527291e-03 0.0 
1.282884508594e-04 1.438819718496e-03 0.0 
1.260542496778e-04 1.355122184237e-03 0.0 
1.932051965168e-04 1.135324128365e-03 0.0 
1.431399089932e-04 1.162748433708e-03 0.0 
3.778820402599e-06 1.576973113433e-03 0.0 
1.898935109858e-05 1.577937405782e-03 0.0 
1.036252316356e-05 1.525809034134e-03 0.0 
1.240564833762e-05 1.629101485081e-03 0.0 
1.541881732151e-04 1.076545524482e-03 0.0 

VECTORS element_materi_displacement float
0.0 0.0 0.0 
0.0 0.0 0.0 
0.0 0.0 0.0 
0.0 0.0 0.0 
0.0 0.0 0.0 
0.0 0.0 0.0 
0.0 0.0 0.0 
0.0 0.0 0.0 
0.0 0.0 0.0 
0.0 0.0 0.0 
0.0 0.0 0.0 
0.0 0.0 0.0 
0.0 0.0 0.0 
0.0 0.0 0.0 
0.0 0.0 0.0 
0.0 0.0 0.0 
0.0 0.0 0.0 
0.0 0.0 0.0 
0.0 0.0 0.0 
0.0 0.0 0.0 
0.0 0.0 0.0 
0.0 0.0 0.0 
0.0 0.0 0.0 
0.0 0.0 0.0 
0.0 0.0 0.0 
0.0 0.0 0.0 
0.0 0.0 0.0 
0.0 0.0 0.0 
0.0 0.0 0.0 
0.0 0.0 0.0 
0.0 0.0 0.0 
0.0 0.0 0.0 
0.0 0.0 0.0 
0.0 0.0 0.0 
0.0 0.0 0.0 
0.0 0.0 0.0 
0.0 0.0 0.0 
0.0 0.0 0.0 
0.0 0.0 0.0 
0.0 0.0 0.0 
0.0 0.0 0.0 
0.0 0.0 0.0 
0.0 0.0 0.0 
0.0 0.0 0.0 
0.0 0.0 0.0 
0.0 0.0 0.0 
0.0 0.0 0.0 
0.0 0.0 0.0 
0.0 0.0 0.0 
0.0 0.0 0.0 
0.0 0.0 0.0 
0.0 0.0 0.0 
0.0 0.0 0.0 
0.0 0.0 0.0 
0.0 0.0 0.0 
0.0 0.0 0.0 
0.0 0.0 0.0 
0.0 0.0 0.0 
0.0 0.0 0.0 
0.0 0.0 0.0 
0.0 0.0 0.0 
0.0 0.0 0.0 
0.0 0.0 0.0 
0.0 0.0 0.0 
0.0 0.0 0.0 
0.0 0.0 0.0 
0.0 0.0 0.0 
0.0 0.0 0.0 
0.0 0.0 0.0 
0.0 0.0 0.0 
0.0 0.0 0.0 
0.0 0.0 0.0 
0.0 0.0 0.0 
0.0 0.0 0.0 
0.0 0.0 0.0 
0.0 0.0 0.0 
0.0 0.0 0.0 
0.0 0.0 0.0 
0.0 0.0 0.0 
0.0 0.0 0.0 
0.0 0.0 0.0 
0.0 0.0 0.0 
0.0 0.0 0.0 
0.0 0.0 0.0 
0.0 0.0 0.0 
0.0 0.0 0.0 
0.0 0.0 0.0 
0.0 0.0 0.0 
0.0 0.0 0.0 
0.0 0.0 0.0 
0.0 0.0 0.0 
0.0 0.0 0.0 
0.0 0.0 0.0 
0.0 0.0 0.0 
0.0 0.0 0.0 
0.0 0.0 0.0 
0.0 0.0 0.0 
0.0 0.0 0.0 
0.0 0.0 0.0 
0.0 0.0 0.0 
0.0 0.0 0.0 
0.0 0.0 0.0 
0.0 0.0 0.0 
0.0 0.0 0.0 
0.0 0.0 0.0 
0.0 0.0 0.0 
0.0 0.0 0.0 
0.0 0.0 0.0 
0.0 0.0 0.0 
0.0 0.0 0.0 
0.0 0.0 0.0 
0.0 0.0 0.0 
0.0 0.0 0.0 
0.0 0.0 0.0 
0.0 0.0 0.0 
0.0 0.0 0.0 
0.0 0.0 0.0 
0.0 0.0 0.0 
0.0 0.0 0.0 
0.0 0.0 0.0 
0.0 0.0 0.0 
0.0 0.0 0.0 
0.0 0.0 0.0 
0.0 0.0 0.0 
0.0 0.0 0.0 
0.0 0.0 0.0 
0.0 0.0 0.0 
0.0 0.0 0.0 
0.0 0.0 0.0 
0.0 0.0 0.0 
0.0 0.0 0.0 
0.0 0.0 0.0 
0.0 0.0 0.0 
0.0 0.0 0.0 
0.0 0.0 0.0 
0.0 0.0 0.0 
0.0 0.0 0.0 
0.0 0.0 0.0 
0.0 0.0 0.0 
0.0 0.0 0.0 
0.0 0.0 0.0 
0.0 0.0 0.0 
0.0 0.0 0.0 
0.0 0.0 0.0 
0.0 0.0 0.0 
0.0 0.0 0.0 
0.0 0.0 0.0 
0.0 0.0 0.0 
0.0 0.0 0.0 
0.0 0.0 0.0 
0.0 0.0 0.0 
0.0 0.0 0.0 
0.0 0.0 0.0 
0.0 0.0 0.0 
0.0 0.0 0.0 
0.0 0.0 0.0 
0.0 0.0 0.0 
0.0 0.0 0.0 
0.0 0.0 0.0 
0.0 0.0 0.0 
0.0 0.0 0.0 
0.0 0.0 0.0 
0.0 0.0 0.0 
0.0 0.0 0.0 
0.0 0.0 0.0 
0.0 0.0 0.0 
0.0 0.0 0.0 
0.0 0.0 0.0 
0.0 0.0 0.0 
0.0 0.0 0.0 
0.0 0.0 0.0 
0.0 0.0 0.0 
0.0 0.0 0.0 
0.0 0.0 0.0 
0.0 0.0 0.0 
0.0 0.0 0.0 
0.0 0.0 0.0 
0.0 0.0 0.0 
0.0 0.0 0.0 
0.0 0.0 0.0 
0.0 0.0 0.0 
0.0 0.0 0.0 
0.0 0.0 0.0 
0.0 0.0 0.0 
0.0 0.0 0.0 
0.0 0.0 0.0 
0.0 0.0 0.0 
0.0 0.0 0.0 
0.0 0.0 0.0 
0.0 0.0 0.0 
0.0 0.0 0.0 
0.0 0.0 0.0 
0.0 0.0 0.0 
0.0 0.0 0.0 
0.0 0.0 0.0 
0.0 0.0 0.0 
0.0 0.0 0.0 
0.0 0.0 0.0 
0.0 0.0 0.0 
0.0 0.0 0.0 
0.0 0.0 0.0 
0.0 0.0 0.0 
0.0 0.0 0.0 
0.0 0.0 0.0 
0.0 0.0 0.0 
0.0 0.0 0.0 
0.0 0.0 0.0 
0.0 0.0 0.0 
0.0 0.0 0.0 
0.0 0.0 0.0 
0.0 0.0 0.0 
0.0 0.0 0.0 
0.0 0.0 0.0 
0.0 0.0 0.0 
0.0 0.0 0.0 
0.0 0.0 0.0 
0.0 0.0 0.0 
0.0 0.0 0.0 
0.0 0.0 0.0 
0.0 0.0 0.0 
0.0 0.0 0.0 
0.0 0.0 0.0 
0.0 0.0 0.0 
0.0 0.0 0.0 
0.0 0.0 0.0 
0.0 0.0 0.0 
0.0 0.0 0.0 
0.0 0.0 0.0 
0.0 0.0 0.0 
0.0 0.0 0.0 
0.0 0.0 0.0 
0.0 0.0 0.0 
0.0 0.0 0.0 
0.0 0.0 0.0 
0.0 0.0 0.0 
0.0 0.0 0.0 
0.0 0.0 0.0 
0.0 0.0 0.0 
0.0 0.0 0.0 
0.0 0.0 0.0 
0.0 0.0 0.0 
0.0 0.0 0.0 
0.0 0.0 0.0 
0.0 0.0 0.0 
0.0 0.0 0.0 
0.0 0.0 0.0 
0.0 0.0 0.0 
0.0 0.0 0.0 
0.0 0.0 0.0 
0.0 0.0 0.0 
0.0 0.0 0.0 
0.0 0.0 0.0 
0.0 0.0 0.0 
0.0 0.0 0.0 
0.0 0.0 0.0 
0.0 0.0 0.0 
0.0 0.0 0.0 
0.0 0.0 0.0 
0.0 0.0 0.0 
0.0 0.0 0.0 
0.0 0.0 0.0 
0.0 0.0 0.0 
0.0 0.0 0.0 
0.0 0.0 0.0 
0.0 0.0 0.0 
0.0 0.0 0.0 
0.0 0.0 0.0 
0.0 0.0 0.0 
0.0 0.0 0.0 
0.0 0.0 0.0 
0.0 0.0 0.0 
0.0 0.0 0.0 
0.0 0.0 0.0 
0.0 0.0 0.0 
0.0 0.0 0.0 
0.0 0.0 0.0 
0.0 0.0 0.0 
0.0 0.0 0.0 
0.0 0.0 0.0 
0.0 0.0 0.0 
0.0 0.0 0.0 
0.0 0.0 0.0 
0.0 0.0 0.0 
0.0 0.0 0.0 
0.0 0.0 0.0 
0.0 0.0 0.0 
0.0 0.0 0.0 
0.0 0.0 0.0 
0.0 0.0 0.0 
0.0 0.0 0.0 
0.0 0.0 0.0 
0.0 0.0 0.0 
0.0 0.0 0.0 
0.0 0.0 0.0 
0.0 0.0 0.0 
0.0 0.0 0.0 
0.0 0.0 0.0 
0.0 0.0 0.0 
0.0 0.0 0.0 
0.0 0.0 0.0 
0.0 0.0 0.0 
0.0 0.0 0.0 
0.0 0.0 0.0 
0.0 0.0 0.0 
0.0 0.0 0.0 
0.0 0.0 0.0 
0.0 0.0 0.0 
0.0 0.0 0.0 
0.0 0.0 0.0 
0.0 0.0 0.0 
0.0 0.0 0.0 
0.0 0.0 0.0 
0.0 0.0 0.0 
0.0 0.0 0.0 
0.0 0.0 0.0 
0.0 0.0 0.0 
0.0 0.0 0.0 
0.0 0.0 0.0 
0.0 0.0 0.0 
0.0 0.0 0.0 
0.0 0.0 0.0 
0.0 0.0 0.0 
0.0 0.0 0.0 
0.0 0.0 0.0 
0.0 0.0 0.0 
0.0 0.0 0.0 
0.0 0.0 0.0 
0.0 0.0 0.0 
0.0 0.0 0.0 
0.0 0.0 0.0 
0.0 0.0 0.0 
0.0 0.0 0.0 
0.0 0.0 0.0 
0.0 0.0 0.0 
0.0 0.0 0.0 
0.0 0.0 0.0 
0.0 0.0 0.0 
0.0 0.0 0.0 
0.0 0.0 0.0 
0.0 0.0 0.0 
0.0 0.0 0.0 
0.0 0.0 0.0 
0.0 0.0 0.0 
0.0 0.0 0.0 
0.0 0.0 0.0 
0.0 0.0 0.0 
0.0 0.0 0.0 
0.0 0.0 0.0 
0.0 0.0 0.0 
0.0 0.0 0.0 
0.0 0.0 0.0 
0.0 0.0 0.0 
0.0 0.0 0.0 
0.0 0.0 0.0 
0.0 0.0 0.0 
0.0 0.0 0.0 
0.0 0.0 0.0 
0.0 0.0 0.0 
0.0 0.0 0.0 
0.0 0.0 0.0 
0.0 0.0 0.0 
0.0 0.0 0.0 
0.0 0.0 0.0 
0.0 0.0 0.0 
0.0 0.0 0.0 
0.0 0.0 0.0 
0.0 0.0 0.0 
0.0 0.0 0.0 
0.0 0.0 0.0 
0.0 0.0 0.0 
0.0 0.0 0.0 
0.0 0.0 0.0 
0.0 0.0 0.0 
0.0 0.0 0.0 
0.0 0.0 0.0 
0.0 0.0 0.0 
0.0 0.0 0.0 
0.0 0.0 0.0 
0.0 0.0 0.0 
0.0 0.0 0.0 
0.0 0.0 0.0 
0.0 0.0 0.0 
0.0 0.0 0.0 
0.0 0.0 0.0 
0.0 0.0 0.0 
0.0 0.0 0.0 
0.0 0.0 0.0 
0.0 0.0 0.0 
0.0 0.0 0.0 
0.0 0.0 0.0 
0.0 0.0 0.0 
0.0 0.0 0.0 
0.0 0.0 0.0 
0.0 0.0 0.0 
0.0 0.0 0.0 
0.0 0.0 0.0 
0.0 0.0 0.0 
0.0 0.0 0.0 
0.0 0.0 0.0 
0.0 0.0 0.0 
0.0 0.0 0.0 
0.0 0.0 0.0 
0.0 0.0 0.0 
0.0 0.0 0.0 
0.0 0.0 0.0 
0.0 0.0 0.0 
0.0 0.0 0.0 
0.0 0.0 0.0 
0.0 0.0 0.0 
0.0 0.0 0.0 
0.0 0.0 0.0 
0.0 0.0 0.0 
0.0 0.0 0.0 
0.0 0.0 0.0 
0.0 0.0 0.0 
0.0 0.0 0.0 
0.0 0.0 0.0 
0.0 0.0 0.0 
0.0 0.0 0.0 
0.0 0.0 0.0 
0.0 0.0 0.0 
0.0 0.0 0.0 
0.0 0.0 0.0 
0.0 0.0 0.0 
0.0 0.0 0.0 
0.0 0.0 0.0 
0.0 0.0 0.0 
0.0 0.0 0.0 
0.0 0.0 0.0 
0.0 0.0 0.0 
0.0 0.0 0.0 
0.0 0.0 0.0 
0.0 0.0 0.0 
0.0 0.0 0.0 
0.0 0.0 0.0 
0.0 0.0 0.0 
0.0 0.0 0.0 
0.0 0.0 0.0 
0.0 0.0 0.0 
0.0 0.0 0.0 
0.0 0.0 0.0 
0.0 0.0 0.0 
0.0 0.0 0.0 
0.0 0.0 0.0 
0.0 0.0 0.0 
0.0 0.0 0.0 
0.0 0.0 0.0 
0.0 0.0 0.0 
0.0 0.0 0.0 
0.0 0.0 0.0 
0.0 0.0 0.0 
0.0 0.0 0.0 
0.0 0.0 0.0 
0.0 0.0 0.0 
0.0 0.0 0.0 
0.0 0.0 0.0 
0.0 0.0 0.0 
0.0 0.0 0.0 
0.0 0.0 0.0 
0.0 0.0 0.0 
0.0 0.0 0.0 
0.0 0.0 0.0 
0.0 0.0 0.0 
0.0 0.0 0.0 
0.0 0.0 0.0 
0.0 0.0 0.0 
0.0 0.0 0.0 
0.0 0.0 0.0 
0.0 0.0 0.0 
0.0 0.0 0.0 
0.0 0.0 0.0 
0.0 0.0 0.0 
0.0 0.0 0.0 
0.0 0.0 0.0 
0.0 0.0 0.0 
0.0 0.0 0.0 
0.0 0.0 0.0 
0.0 0.0 0.0 
0.0 0.0 0.0 
0.0 0.0 0.0 
0.0 0.0 0.0 
0.0 0.0 0.0 
0.0 0.0 0.0 
0.0 0.0 0.0 
0.0 0.0 0.0 
0.0 0.0 0.0 
0.0 0.0 0.0 
0.0 0.0 0.0 
0.0 0.0 0.0 
0.0 0.0 0.0 
0.0 0.0 0.0 
0.0 0.0 0.0 
0.0 0.0 0.0 
0.0 0.0 0.0 
0.0 0.0 0.0 
0.0 0.0 0.0 
0.0 0.0 0.0 
0.0 0.0 0.0 
0.0 0.0 0.0 
0.0 0.0 0.0 
0.0 0.0 0.0 
0.0 0.0 0.0 
0.0 0.0 0.0 
0.0 0.0 0.0 
0.0 0.0 0.0 
0.0 0.0 0.0 
0.0 0.0 0.0 
0.0 0.0 0.0 
0.0 0.0 0.0 
0.0 0.0 0.0 
0.0 0.0 0.0 
0.0 0.0 0.0 
0.0 0.0 0.0 
0.0 0.0 0.0 
0.0 0.0 0.0 
0.0 0.0 0.0 
0.0 0.0 0.0 
0.0 0.0 0.0 
0.0 0.0 0.0 
0.0 0.0 0.0 
0.0 0.0 0.0 
0.0 0.0 0.0 
0.0 0.0 0.0 
0.0 0.0 0.0 
0.0 0.0 0.0 
0.0 0.0 0.0 
0.0 0.0 0.0 
0.0 0.0 0.0 
0.0 0.0 0.0 
0.0 0.0 0.0 
0.0 0.0 0.0 
0.0 0.0 0.0 
0.0 0.0 0.0 
0.0 0.0 0.0 
0.0 0.0 0.0 
0.0 0.0 0.0 
0.0 0.0 0.0 
0.0 0.0 0.0 
0.0 0.0 0.0 
0.0 0.0 0.0 
0.0 0.0 0.0 
0.0 0.0 0.0 
0.0 0.0 0.0 
0.0 0.0 0.0 
0.0 0.0 0.0 
0.0 0.0 0.0 
0.0 0.0 0.0 
0.0 0.0 0.0 
0.0 0.0 0.0 
0.0 0.0 0.0 
0.0 0.0 0.0 
0.0 0.0 0.0 
0.0 0.0 0.0 
0.0 0.0 0.0 
0.0 0.0 0.0 
0.0 0.0 0.0 
0.0 0.0 0.0 
0.0 0.0 0.0 
0.0 0.0 0.0 
0.0 0.0 0.0 
0.0 0.0 0.0 
0.0 0.0 0.0 
0.0 0.0 0.0 
0.0 0.0 0.0 
0.0 0.0 0.0 
0.0 0.0 0.0 
0.0 0.0 0.0 
0.0 0.0 0.0 
0.0 0.0 0.0 
0.0 0.0 0.0 
0.0 0.0 0.0 
0.0 0.0 0.0 
0.0 0.0 0.0 
0.0 0.0 0.0 
0.0 0.0 0.0 
0.0 0.0 0.0 
0.0 0.0 0.0 
0.0 0.0 0.0 
0.0 0.0 0.0 
0.0 0.0 0.0 
0.0 0.0 0.0 
0.0 0.0 0.0 
0.0 0.0 0.0 
0.0 0.0 0.0 
0.0 0.0 0.0 
0.0 0.0 0.0 
0.0 0.0 0.0 
0.0 0.0 0.0 
0.0 0.0 0.0 
0.0 0.0 0.0 
0.0 0.0 0.0 
0.0 0.0 0.0 
0.0 0.0 0.0 
0.0 0.0 0.0 
0.0 0.0 0.0 
0.0 0.0 0.0 
0.0 0.0 0.0 
0.0 0.0 0.0 
0.0 0.0 0.0 
0.0 0.0 0.0 
0.0 0.0 0.0 
0.0 0.0 0.0 
0.0 0.0 0.0 
0.0 0.0 0.0 
0.0 0.0 0.0 
0.0 0.0 0.0 
0.0 0.0 0.0 
0.0 0.0 0.0 
0.0 0.0 0.0 
0.0 0.0 0.0 
0.0 0.0 0.0 
0.0 0.0 0.0 
0.0 0.0 0.0 
0.0 0.0 0.0 
0.0 0.0 0.0 
0.0 0.0 0.0 
0.0 0.0 0.0 
0.0 0.0 0.0 
0.0 0.0 0.0 
0.0 0.0 0.0 
0.0 0.0 0.0 
0.0 0.0 0.0 
0.0 0.0 0.0 
0.0 0.0 0.0 
0.0 0.0 0.0 
0.0 0.0 0.0 
0.0 0.0 0.0 
0.0 0.0 0.0 
0.0 0.0 0.0 
0.0 0.0 0.0 
0.0 0.0 0.0 
0.0 0.0 0.0 
0.0 0.0 0.0 
0.0 0.0 0.0 
0.0 0.0 0.0 
0.0 0.0 0.0 
0.0 0.0 0.0 
0.0 0.0 0.0 
0.0 0.0 0.0 
0.0 0.0 0.0 
0.0 0.0 0.0 
0.0 0.0 0.0 
0.0 0.0 0.0 
0.0 0.0 0.0 
0.0 0.0 0.0 
0.0 0.0 0.0 
0.0 0.0 0.0 
0.0 0.0 0.0 
0.0 0.0 0.0 
0.0 0.0 0.0 
0.0 0.0 0.0 
0.0 0.0 0.0 
0.0 0.0 0.0 
0.0 0.0 0.0 
0.0 0.0 0.0 
0.0 0.0 0.0 
0.0 0.0 0.0 
0.0 0.0 0.0 
0.0 0.0 0.0 
0.0 0.0 0.0 
0.0 0.0 0.0 
0.0 0.0 0.0 
0.0 0.0 0.0 
0.0 0.0 0.0 
0.0 0.0 0.0 
0.0 0.0 0.0 
0.0 0.0 0.0 
0.0 0.0 0.0 
0.0 0.0 0.0 
0.0 0.0 0.0 
0.0 0.0 0.0 
0.0 0.0 0.0 
0.0 0.0 0.0 
0.0 0.0 0.0 
0.0 0.0 0.0 
0.0 0.0 0.0 
0.0 0.0 0.0 
0.0 0.0 0.0 
0.0 0.0 0.0 
0.0 0.0 0.0 
0.0 0.0 0.0 
0.0 0.0 0.0 
0.0 0.0 0.0 
0.0 0.0 0.0 
0.0 0.0 0.0 
0.0 0.0 0.0 
0.0 0.0 0.0 
0.0 0.0 0.0 
0.0 0.0 0.0 
0.0 0.0 0.0 
0.0 0.0 0.0 
0.0 0.0 0.0 
0.0 0.0 0.0 
0.0 0.0 0.0 
0.0 0.0 0.0 
0.0 0.0 0.0 
0.0 0.0 0.0 
0.0 0.0 0.0 
0.0 0.0 0.0 
0.0 0.0 0.0 
0.0 0.0 0.0 
0.0 0.0 0.0 
0.0 0.0 0.0 
0.0 0.0 0.0 
0.0 0.0 0.0 
0.0 0.0 0.0 
0.0 0.0 0.0 
0.0 0.0 0.0 
0.0 0.0 0.0 
0.0 0.0 0.0 
0.0 0.0 0.0 
0.0 0.0 0.0 
0.0 0.0 0.0 
0.0 0.0 0.0 
0.0 0.0 0.0 
0.0 0.0 0.0 
0.0 0.0 0.0 
0.0 0.0 0.0 
0.0 0.0 0.0 
0.0 0.0 0.0 
0.0 0.0 0.0 
0.0 0.0 0.0 
0.0 0.0 0.0 
0.0 0.0 0.0 
0.0 0.0 0.0 
0.0 0.0 0.0 
0.0 0.0 0.0 
0.0 0.0 0.0 
0.0 0.0 0.0 
0.0 0.0 0.0 
0.0 0.0 0.0 
0.0 0.0 0.0 
0.0 0.0 0.0 
0.0 0.0 0.0 
0.0 0.0 0.0 
0.0 0.0 0.0 
0.0 0.0 0.0 
0.0 0.0 0.0 
0.0 0.0 0.0 
0.0 0.0 0.0 
0.0 0.0 0.0 
0.0 0.0 0.0 
0.0 0.0 0.0 
0.0 0.0 0.0 
0.0 0.0 0.0 
0.0 0.0 0.0 
0.0 0.0 0.0 
0.0 0.0 0.0 
0.0 0.0 0.0 
0.0 0.0 0.0 
0.0 0.0 0.0 
0.0 0.0 0.0 
0.0 0.0 0.0 
0.0 0.0 0.0 
0.0 0.0 0.0 
0.0 0.0 0.0 
0.0 0.0 0.0 
0.0 0.0 0.0 
0.0 0.0 0.0 
0.0 0.0 0.0 
0.0 0.0 0.0 
0.0 0.0 0.0 
0.0 0.0 0.0 
0.0 0.0 0.0 
0.0 0.0 0.0 
0.0 0.0 0.0 
0.0 0.0 0.0 
0.0 0.0 0.0 
0.0 0.0 0.0 
0.0 0.0 0.0 
0.0 0.0 0.0 
0.0 0.0 0.0 
0.0 0.0 0.0 
0.0 0.0 0.0 
0.0 0.0 0.0 
0.0 0.0 0.0 
0.0 0.0 0.0 
0.0 0.0 0.0 
0.0 0.0 0.0 
0.0 0.0 0.0 
0.0 0.0 0.0 
0.0 0.0 0.0 
0.0 0.0 0.0 
0.0 0.0 0.0 
0.0 0.0 0.0 
0.0 0.0 0.0 
0.0 0.0 0.0 
0.0 0.0 0.0 
0.0 0.0 0.0 
0.0 0.0 0.0 
0.0 0.0 0.0 
0.0 0.0 0.0 
0.0 0.0 0.0 
0.0 0.0 0.0 
0.0 0.0 0.0 
0.0 0.0 0.0 
0.0 0.0 0.0 
0.0 0.0 0.0 
0.0 0.0 0.0 
0.0 0.0 0.0 
0.0 0.0 0.0 
0.0 0.0 0.0 
0.0 0.0 0.0 
0.0 0.0 0.0 
0.0 0.0 0.0 
0.0 0.0 0.0 
0.0 0.0 0.0 
0.0 0.0 0.0 
0.0 0.0 0.0 
0.0 0.0 0.0 
0.0 0.0 0.0 
0.0 0.0 0.0 
0.0 0.0 0.0 
0.0 0.0 0.0 
0.0 0.0 0.0 
0.0 0.0 0.0 
0.0 0.0 0.0 
0.0 0.0 0.0 
0.0 0.0 0.0 
0.0 0.0 0.0 
0.0 0.0 0.0 
0.0 0.0 0.0 
0.0 0.0 0.0 
0.0 0.0 0.0 
0.0 0.0 0.0 
0.0 0.0 0.0 
0.0 0.0 0.0 
0.0 0.0 0.0 
0.0 0.0 0.0 
0.0 0.0 0.0 
0.0 0.0 0.0 
0.0 0.0 0.0 
0.0 0.0 0.0 
0.0 0.0 0.0 
0.0 0.0 0.0 
0.0 0.0 0.0 
0.0 0.0 0.0 
0.0 0.0 0.0 
0.0 0.0 0.0 
0.0 0.0 0.0 
0.0 0.0 0.0 
0.0 0.0 0.0 
0.0 0.0 0.0 
0.0 0.0 0.0 
0.0 0.0 0.0 
0.0 0.0 0.0 
0.0 0.0 0.0 
0.0 0.0 0.0 
0.0 0.0 0.0 
0.0 0.0 0.0 
0.0 0.0 0.0 
0.0 0.0 0.0 
0.0 0.0 0.0 
0.0 0.0 0.0 
0.0 0.0 0.0 
0.0 0.0 0.0 
0.0 0.0 0.0 
0.0 0.0 0.0 
0.0 0.0 0.0 
0.0 0.0 0.0 
0.0 0.0 0.0 
0.0 0.0 0.0 
0.0 0.0 0.0 
0.0 0.0 0.0 
0.0 0.0 0.0 
0.0 0.0 0.0 
0.0 0.0 0.0 
0.0 0.0 0.0 
0.0 0.0 0.0 
0.0 0.0 0.0 
0.0 0.0 0.0 
0.0 0.0 0.0 
0.0 0.0 0.0 
0.0 0.0 0.0 
0.0 0.0 0.0 
0.0 0.0 0.0 
0.0 0.0 0.0 
0.0 0.0 0.0 
0.0 0.0 0.0 
0.0 0.0 0.0 
0.0 0.0 0.0 
0.0 0.0 0.0 
0.0 0.0 0.0 
0.0 0.0 0.0 
0.0 0.0 0.0 
0.0 0.0 0.0 
0.0 0.0 0.0 
0.0 0.0 0.0 
0.0 0.0 0.0 
0.0 0.0 0.0 
0.0 0.0 0.0 
0.0 0.0 0.0 
0.0 0.0 0.0 
0.0 0.0 0.0 
0.0 0.0 0.0 
0.0 0.0 0.0 
0.0 0.0 0.0 
0.0 0.0 0.0 
0.0 0.0 0.0 
0.0 0.0 0.0 
0.0 0.0 0.0 
0.0 0.0 0.0 
0.0 0.0 0.0 
0.0 0.0 0.0 
0.0 0.0 0.0 
0.0 0.0 0.0 
0.0 0.0 0.0 
0.0 0.0 0.0 
0.0 0.0 0.0 
0.0 0.0 0.0 
0.0 0.0 0.0 
0.0 0.0 0.0 
0.0 0.0 0.0 
0.0 0.0 0.0 
0.0 0.0 0.0 
0.0 0.0 0.0 
0.0 0.0 0.0 
0.0 0.0 0.0 
0.0 0.0 0.0 
0.0 0.0 0.0 
0.0 0.0 0.0 
0.0 0.0 0.0 
0.0 0.0 0.0 
0.0 0.0 0.0 
0.0 0.0 0.0 
0.0 0.0 0.0 
0.0 0.0 0.0 
0.0 0.0 0.0 
0.0 0.0 0.0 
0.0 0.0 0.0 
0.0 0.0 0.0 
0.0 0.0 0.0 
0.0 0.0 0.0 
0.0 0.0 0.0 
0.0 0.0 0.0 
0.0 0.0 0.0 
0.0 0.0 0.0 
0.0 0.0 0.0 
0.0 0.0 0.0 
0.0 0.0 0.0 
0.0 0.0 0.0 
0.0 0.0 0.0 
0.0 0.0 0.0 
0.0 0.0 0.0 
0.0 0.0 0.0 
0.0 0.0 0.0 
0.0 0.0 0.0 
0.0 0.0 0.0 
0.0 0.0 0.0 
0.0 0.0 0.0 
0.0 0.0 0.0 
0.0 0.0 0.0 
0.0 0.0 0.0 
0.0 0.0 0.0 
0.0 0.0 0.0 
0.0 0.0 0.0 
0.0 0.0 0.0 
0.0 0.0 0.0 
0.0 0.0 0.0 
0.0 0.0 0.0 
0.0 0.0 0.0 
0.0 0.0 0.0 
0.0 0.0 0.0 
0.0 0.0 0.0 
0.0 0.0 0.0 
0.0 0.0 0.0 
0.0 0.0 0.0 
0.0 0.0 0.0 
0.0 0.0 0.0 
0.0 0.0 0.0 
0.0 0.0 0.0 
0.0 0.0 0.0 
0.0 0.0 0.0 
0.0 0.0 0.0 
0.0 0.0 0.0 
0.0 0.0 0.0 
0.0 0.0 0.0 
0.0 0.0 0.0 
0.0 0.0 0.0 
0.0 0.0 0.0 
0.0 0.0 0.0 
0.0 0.0 0.0 
0.0 0.0 0.0 
0.0 0.0 0.0 
0.0 0.0 0.0 
0.0 0.0 0.0 
0.0 0.0 0.0 
0.0 0.0 0.0 
0.0 0.0 0.0 
0.0 0.0 0.0 
0.0 0.0 0.0 
0.0 0.0 0.0 
0.0 0.0 0.0 
0.0 0.0 0.0 
0.0 0.0 0.0 
0.0 0.0 0.0 
0.0 0.0 0.0 
0.0 0.0 0.0 
0.0 0.0 0.0 
0.0 0.0 0.0 
0.0 0.0 0.0 
0.0 0.0 0.0 
0.0 0.0 0.0 
0.0 0.0 0.0 
0.0 0.0 0.0 
0.0 0.0 0.0 
0.0 0.0 0.0 
0.0 0.0 0.0 
0.0 0.0 0.0 
0.0 0.0 0.0 
0.0 0.0 0.0 
0.0 0.0 0.0 
0.0 0.0 0.0 
0.0 0.0 0.0 
0.0 0.0 0.0 
0.0 0.0 0.0 
0.0 0.0 0.0 
0.0 0.0 0.0 
0.0 0.0 0.0 
0.0 0.0 0.0 
0.0 0.0 0.0 
0.0 0.0 0.0 
0.0 0.0 0.0 
0.0 0.0 0.0 
0.0 0.0 0.0 
0.0 0.0 0.0 
0.0 0.0 0.0 
0.0 0.0 0.0 
0.0 0.0 0.0 
0.0 0.0 0.0 
0.0 0.0 0.0 
0.0 0.0 0.0 
0.0 0.0 0.0 
0.0 0.0 0.0 
0.0 0.0 0.0 
0.0 0.0 0.0 
0.0 0.0 0.0 
0.0 0.0 0.0 
0.0 0.0 0.0 
0.0 0.0 0.0 
0.0 0.0 0.0 
0.0 0.0 0.0 
0.0 0.0 0.0 
0.0 0.0 0.0 
0.0 0.0 0.0 
0.0 0.0 0.0 
0.0 0.0 0.0 
0.0 0.0 0.0 
0.0 0.0 0.0 
0.0 0.0 0.0 
0.0 0.0 0.0 
0.0 0.0 0.0 
0.0 0.0 0.0 
0.0 0.0 0.0 
0.0 0.0 0.0 
0.0 0.0 0.0 
0.0 0.0 0.0 
0.0 0.0 0.0 
0.0 0.0 0.0 
0.0 0.0 0.0 
0.0 0.0 0.0 
0.0 0.0 0.0 
0.0 0.0 0.0 
0.0 0.0 0.0 
0.0 0.0 0.0 
0.0 0.0 0.0 
0.0 0.0 0.0 
0.0 0.0 0.0 
0.0 0.0 0.0 
0.0 0.0 0.0 
0.0 0.0 0.0 
0.0 0.0 0.0 
0.0 0.0 0.0 
0.0 0.0 0.0 
0.0 0.0 0.0 
0.0 0.0 0.0 
0.0 0.0 0.0 
0.0 0.0 0.0 
0.0 0.0 0.0 
0.0 0.0 0.0 
0.0 0.0 0.0 
0.0 0.0 0.0 
0.0 0.0 0.0 
0.0 0.0 0.0 
0.0 0.0 0.0 
0.0 0.0 0.0 
0.0 0.0 0.0 
0.0 0.0 0.0 
0.0 0.0 0.0 
0.0 0.0 0.0 
0.0 0.0 0.0 
0.0 0.0 0.0 
0.0 0.0 0.0 
0.0 0.0 0.0 
0.0 0.0 0.0 
0.0 0.0 0.0 
0.0 0.0 0.0 
0.0 0.0 0.0 
0.0 0.0 0.0 
0.0 0.0 0.0 
0.0 0.0 0.0 
0.0 0.0 0.0 
0.0 0.0 0.0 
0.0 0.0 0.0 
0.0 0.0 0.0 
0.0 0.0 0.0 
0.0 0.0 0.0 
0.0 0.0 0.0 
0.0 0.0 0.0 
0.0 0.0 0.0 
0.0 0.0 0.0 
0.0 0.0 0.0 
0.0 0.0 0.0 
0.0 0.0 0.0 
0.0 0.0 0.0 
0.0 0.0 0.0 
0.0 0.0 0.0 
0.0 0.0 0.0 
0.0 0.0 0.0 
0.0 0.0 0.0 
0.0 0.0 0.0 
0.0 0.0 0.0 
0.0 0.0 0.0 
0.0 0.0 0.0 
0.0 0.0 0.0 
0.0 0.0 0.0 
0.0 0.0 0.0 
0.0 0.0 0.0 
0.0 0.0 0.0 
0.0 0.0 0.0 
0.0 0.0 0.0 
0.0 0.0 0.0 
0.0 0.0 0.0 
0.0 0.0 0.0 
0.0 0.0 0.0 
0.0 0.0 0.0 
0.0 0.0 0.0 
0.0 0.0 0.0 
0.0 0.0 0.0 
0.0 0.0 0.0 
0.0 0.0 0.0 
0.0 0.0 0.0 
0.0 0.0 0.0 
0.0 0.0 0.0 
0.0 0.0 0.0 
0.0 0.0 0.0 
0.0 0.0 0.0 
0.0 0.0 0.0 
0.0 0.0 0.0 
0.0 0.0 0.0 
0.0 0.0 0.0 
0.0 0.0 0.0 
0.0 0.0 0.0 
0.0 0.0 0.0 
0.0 0.0 0.0 
0.0 0.0 0.0 
0.0 0.0 0.0 
0.0 0.0 0.0 
0.0 0.0 0.0 
0.0 0.0 0.0 
0.0 0.0 0.0 
0.0 0.0 0.0 
0.0 0.0 0.0 
0.0 0.0 0.0 
0.0 0.0 0.0 
0.0 0.0 0.0 
0.0 0.0 0.0 
0.0 0.0 0.0 
0.0 0.0 0.0 
0.0 0.0 0.0 
0.0 0.0 0.0 
0.0 0.0 0.0 
0.0 0.0 0.0 
0.0 0.0 0.0 
0.0 0.0 0.0 
0.0 0.0 0.0 
0.0 0.0 0.0 
0.0 0.0 0.0 
0.0 0.0 0.0 
0.0 0.0 0.0 
0.0 0.0 0.0 
0.0 0.0 0.0 
0.0 0.0 0.0 
0.0 0.0 0.0 
0.0 0.0 0.0 
0.0 0.0 0.0 
0.0 0.0 0.0 
0.0 0.0 0.0 
0.0 0.0 0.0 
0.0 0.0 0.0 
0.0 0.0 0.0 
0.0 0.0 0.0 
0.0 0.0 0.0 
0.0 0.0 0.0 
0.0 0.0 0.0 
0.0 0.0 0.0 
0.0 0.0 0.0 
0.0 0.0 0.0 
0.0 0.0 0.0 
0.0 0.0 0.0 
0.0 0.0 0.0 
0.0 0.0 0.0 
0.0 0.0 0.0 
0.0 0.0 0.0 
0.0 0.0 0.0 
0.0 0.0 0.0 
0.0 0.0 0.0 
0.0 0.0 0.0 
0.0 0.0 0.0 
0.0 0.0 0.0 
0.0 0.0 0.0 
0.0 0.0 0.0 
0.0 0.0 0.0 
0.0 0.0 0.0 
0.0 0.0 0.0 
0.0 0.0 0.0 
0.0 0.0 0.0 
0.0 0.0 0.0 
0.0 0.0 0.0 
0.0 0.0 0.0 
0.0 0.0 0.0 
0.0 0.0 0.0 
0.0 0.0 0.0 
0.0 0.0 0.0 
0.0 0.0 0.0 
0.0 0.0 0.0 
0.0 0.0 0.0 
0.0 0.0 0.0 
0.0 0.0 0.0 
0.0 0.0 0.0 
0.0 0.0 0.0 
0.0 0.0 0.0 
0.0 0.0 0.0 
0.0 0.0 0.0 
0.0 0.0 0.0 
0.0 0.0 0.0 
0.0 0.0 0.0 
0.0 0.0 0.0 
0.0 0.0 0.0 
0.0 0.0 0.0 
0.0 0.0 0.0 
0.0 0.0 0.0 
0.0 0.0 0.0 
0.0 0.0 0.0 
0.0 0.0 0.0 
0.0 0.0 0.0 
0.0 0.0 0.0 
0.0 0.0 0.0 
0.0 0.0 0.0 
0.0 0.0 0.0 
0.0 0.0 0.0 
0.0 0.0 0.0 
0.0 0.0 0.0 
0.0 0.0 0.0 
0.0 0.0 0.0 
0.0 0.0 0.0 
0.0 0.0 0.0 
0.0 0.0 0.0 
0.0 0.0 0.0 
0.0 0.0 0.0 
0.0 0.0 0.0 
0.0 0.0 0.0 
0.0 0.0 0.0 
0.0 0.0 0.0 
0.0 0.0 0.0 
0.0 0.0 0.0 
0.0 0.0 0.0 
0.0 0.0 0.0 
0.0 0.0 0.0 
0.0 0.0 0.0 
0.0 0.0 0.0 
0.0 0.0 0.0 
0.0 0.0 0.0 
0.0 0.0 0.0 
0.0 0.0 0.0 
0.0 0.0 0.0 
0.0 0.0 0.0 
0.0 0.0 0.0 
0.0 0.0 0.0 
0.0 0.0 0.0 
0.0 0.0 0.0 
0.0 0.0 0.0 
0.0 0.0 0.0 
0.0 0.0 0.0 
0.0 0.0 0.0 
0.0 0.0 0.0 
0.0 0.0 0.0 
0.0 0.0 0.0 
0.0 0.0 0.0 
0.0 0.0 0.0 
0.0 0.0 0.0 
0.0 0.0 0.0 
0.0 0.0 0.0 
0.0 0.0 0.0 
0.0 0.0 0.0 
0.0 0.0 0.0 
0.0 0.0 0.0 
0.0 0.0 0.0 
0.0 0.0 0.0 
0.0 0.0 0.0 
0.0 0.0 0.0 
0.0 0.0 0.0 
0.0 0.0 0.0 
0.0 0.0 0.0 
0.0 0.0 0.0 
0.0 0.0 0.0 
0.0 0.0 0.0 
0.0 0.0 0.0 
0.0 0.0 0.0 
0.0 0.0 0.0 
0.0 0.0 0.0 
0.0 0.0 0.0 
0.0 0.0 0.0 
0.0 0.0 0.0 
0.0 0.0 0.0 
0.0 0.0 0.0 
0.0 0.0 0.0 
0.0 0.0 0.0 
0.0 0.0 0.0 
0.0 0.0 0.0 
0.0 0.0 0.0 
0.0 0.0 0.0 
0.0 0.0 0.0 
0.0 0.0 0.0 
0.0 0.0 0.0 
0.0 0.0 0.0 
0.0 0.0 0.0 
0.0 0.0 0.0 
0.0 0.0 0.0 
0.0 0.0 0.0 
0.0 0.0 0.0 
0.0 0.0 0.0 
0.0 0.0 0.0 
0.0 0.0 0.0 
0.0 0.0 0.0 
0.0 0.0 0.0 
0.0 0.0 0.0 
0.0 0.0 0.0 
0.0 0.0 0.0 
0.0 0.0 0.0 
0.0 0.0 0.0 
0.0 0.0 0.0 
0.0 0.0 0.0 
0.0 0.0 0.0 
0.0 0.0 0.0 
0.0 0.0 0.0 
0.0 0.0 0.0 
0.0 0.0 0.0 
0.0 0.0 0.0 
0.0 0.0 0.0 
0.0 0.0 0.0 
0.0 0.0 0.0 
0.0 0.0 0.0 
0.0 0.0 0.0 
0.0 0.0 0.0 
0.0 0.0 0.0 
0.0 0.0 0.0 
0.0 0.0 0.0 
0.0 0.0 0.0 
0.0 0.0 0.0 
0.0 0.0 0.0 
0.0 0.0 0.0 
0.0 0.0 0.0 
0.0 0.0 0.0 
0.0 0.0 0.0 
0.0 0.0 0.0 
0.0 0.0 0.0 
0.0 0.0 0.0 
0.0 0.0 0.0 
0.0 0.0 0.0 
0.0 0.0 0.0 
0.0 0.0 0.0 
0.0 0.0 0.0 
0.0 0.0 0.0 
0.0 0.0 0.0 
0.0 0.0 0.0 
0.0 0.0 0.0 
0.0 0.0 0.0 
0.0 0.0 0.0 
0.0 0.0 0.0 
0.0 0.0 0.0 
0.0 0.0 0.0 
0.0 0.0 0.0 
0.0 0.0 0.0 
0.0 0.0 0.0 
0.0 0.0 0.0 
0.0 0.0 0.0 
0.0 0.0 0.0 
0.0 0.0 0.0 
0.0 0.0 0.0 
0.0 0.0 0.0 
0.0 0.0 0.0 
0.0 0.0 0.0 
0.0 0.0 0.0 
0.0 0.0 0.0 
0.0 0.0 0.0 
0.0 0.0 0.0 
0.0 0.0 0.0 
0.0 0.0 0.0 
0.0 0.0 0.0 
0.0 0.0 0.0 
0.0 0.0 0.0 
0.0 0.0 0.0 
0.0 0.0 0.0 
0.0 0.0 0.0 
0.0 0.0 0.0 
0.0 0.0 0.0 
0.0 0.0 0.0 
0.0 0.0 0.0 
0.0 0.0 0.0 
0.0 0.0 0.0 
0.0 0.0 0.0 
0.0 0.0 0.0 
0.0 0.0 0.0 
0.0 0.0 0.0 
0.0 0.0 0.0 
0.0 0.0 0.0 
0.0 0.0 0.0 
0.0 0.0 0.0 
0.0 0.0 0.0 
0.0 0.0 0.0 
0.0 0.0 0.0 
0.0 0.0 0.0 
0.0 0.0 0.0 
0.0 0.0 0.0 
0.0 0.0 0.0 
0.0 0.0 0.0 
0.0 0.0 0.0 
0.0 0.0 0.0 
0.0 0.0 0.0 
0.0 0.0 0.0 
0.0 0.0 0.0 
0.0 0.0 0.0 
0.0 0.0 0.0 
0.0 0.0 0.0 
0.0 0.0 0.0 
0.0 0.0 0.0 
0.0 0.0 0.0 
0.0 0.0 0.0 
0.0 0.0 0.0 
0.0 0.0 0.0 
0.0 0.0 0.0 
0.0 0.0 0.0 
0.0 0.0 0.0 
0.0 0.0 0.0 
0.0 0.0 0.0 
0.0 0.0 0.0 
0.0 0.0 0.0 
0.0 0.0 0.0 
0.0 0.0 0.0 
0.0 0.0 0.0 
0.0 0.0 0.0 
0.0 0.0 0.0 
0.0 0.0 0.0 
0.0 0.0 0.0 
0.0 0.0 0.0 
0.0 0.0 0.0 
0.0 0.0 0.0 
0.0 0.0 0.0 
0.0 0.0 0.0 
0.0 0.0 0.0 
0.0 0.0 0.0 
0.0 0.0 0.0 
0.0 0.0 0.0 
0.0 0.0 0.0 
0.0 0.0 0.0 
0.0 0.0 0.0 
0.0 0.0 0.0 
0.0 0.0 0.0 
0.0 0.0 0.0 
0.0 0.0 0.0 
0.0 0.0 0.0 
0.0 0.0 0.0 
0.0 0.0 0.0 
0.0 0.0 0.0 
0.0 0.0 0.0 
0.0 0.0 0.0 
0.0 0.0 0.0 
0.0 0.0 0.0 
0.0 0.0 0.0 
0.0 0.0 0.0 
0.0 0.0 0.0 
0.0 0.0 0.0 
0.0 0.0 0.0 
0.0 0.0 0.0 
0.0 0.0 0.0 
0.0 0.0 0.0 
0.0 0.0 0.0 
0.0 0.0 0.0 
0.0 0.0 0.0 
0.0 0.0 0.0 
0.0 0.0 0.0 
0.0 0.0 0.0 
0.0 0.0 0.0 
0.0 0.0 0.0 
0.0 0.0 0.0 
0.0 0.0 0.0 
0.0 0.0 0.0 
0.0 0.0 0.0 
0.0 0.0 0.0 
0.0 0.0 0.0 
0.0 0.0 0.0 
0.0 0.0 0.0 
0.0 0.0 0.0 
0.0 0.0 0.0 
0.0 0.0 0.0 
0.0 0.0 0.0 
0.0 0.0 0.0 
0.0 0.0 0.0 
0.0 0.0 0.0 
0.0 0.0 0.0 
0.0 0.0 0.0 
0.0 0.0 0.0 
0.0 0.0 0.0 
0.0 0.0 0.0 
0.0 0.0 0.0 
0.0 0.0 0.0 
0.0 0.0 0.0 
0.0 0.0 0.0 
0.0 0.0 0.0 
0.0 0.0 0.0 
0.0 0.0 0.0 
0.0 0.0 0.0 
0.0 0.0 0.0 
0.0 0.0 0.0 
0.0 0.0 0.0 
0.0 0.0 0.0 
0.0 0.0 0.0 
0.0 0.0 0.0 
0.0 0.0 0.0 
0.0 0.0 0.0 
0.0 0.0 0.0 
0.0 0.0 0.0 
0.0 0.0 0.0 
0.0 0.0 0.0 
0.0 0.0 0.0 
0.0 0.0 0.0 
0.0 0.0 0.0 
0.0 0.0 0.0 
0.0 0.0 0.0 
0.0 0.0 0.0 
0.0 0.0 0.0 
0.0 0.0 0.0 
0.0 0.0 0.0 
0.0 0.0 0.0 
0.0 0.0 0.0 
0.0 0.0 0.0 
0.0 0.0 0.0 
0.0 0.0 0.0 
0.0 0.0 0.0 
0.0 0.0 0.0 
0.0 0.0 0.0 
0.0 0.0 0.0 
0.0 0.0 0.0 
0.0 0.0 0.0 
0.0 0.0 0.0 
0.0 0.0 0.0 
0.0 0.0 0.0 
0.0 0.0 0.0 
0.0 0.0 0.0 
0.0 0.0 0.0 
0.0 0.0 0.0 
0.0 0.0 0.0 
0.0 0.0 0.0 
0.0 0.0 0.0 
0.0 0.0 0.0 
0.0 0.0 0.0 
0.0 0.0 0.0 
0.0 0.0 0.0 
0.0 0.0 0.0 
0.0 0.0 0.0 
0.0 0.0 0.0 
0.0 0.0 0.0 
0.0 0.0 0.0 
0.0 0.0 0.0 
0.0 0.0 0.0 
0.0 0.0 0.0 
0.0 0.0 0.0 
0.0 0.0 0.0 
0.0 0.0 0.0 
0.0 0.0 0.0 
0.0 0.0 0.0 
0.0 0.0 0.0 
0.0 0.0 0.0 
0.0 0.0 0.0 
0.0 0.0 0.0 
0.0 0.0 0.0 
0.0 0.0 0.0 
0.0 0.0 0.0 
0.0 0.0 0.0 
0.0 0.0 0.0 
0.0 0.0 0.0 
0.0 0.0 0.0 
0.0 0.0 0.0 
0.0 0.0 0.0 
0.0 0.0 0.0 
0.0 0.0 0.0 
0.0 0.0 0.0 
0.0 0.0 0.0 
0.0 0.0 0.0 
0.0 0.0 0.0 
0.0 0.0 0.0 
0.0 0.0 0.0 
0.0 0.0 0.0 
0.0 0.0 0.0 
0.0 0.0 0.0 
0.0 0.0 0.0 
0.0 0.0 0.0 
0.0 0.0 0.0 
0.0 0.0 0.0 
0.0 0.0 0.0 
0.0 0.0 0.0 
0.0 0.0 0.0 
0.0 0.0 0.0 
0.0 0.0 0.0 
0.0 0.0 0.0 
0.0 0.0 0.0 
0.0 0.0 0.0 
0.0 0.0 0.0 
0.0 0.0 0.0 
0.0 0.0 0.0 
0.0 0.0 0.0 
0.0 0.0 0.0 
0.0 0.0 0.0 
0.0 0.0 0.0 
0.0 0.0 0.0 
0.0 0.0 0.0 
0.0 0.0 0.0 
0.0 0.0 0.0 
0.0 0.0 0.0 
0.0 0.0 0.0 
0.0 0.0 0.0 
0.0 0.0 0.0 
0.0 0.0 0.0 
0.0 0.0 0.0 
0.0 0.0 0.0 
0.0 0.0 0.0 
0.0 0.0 0.0 
0.0 0.0 0.0 
0.0 0.0 0.0 
0.0 0.0 0.0 
0.0 0.0 0.0 
0.0 0.0 0.0 
0.0 0.0 0.0 
0.0 0.0 0.0 
0.0 0.0 0.0 
0.0 0.0 0.0 
0.0 0.0 0.0 
0.0 0.0 0.0 
0.0 0.0 0.0 
0.0 0.0 0.0 
0.0 0.0 0.0 
0.0 0.0 0.0 
0.0 0.0 0.0 
0.0 0.0 0.0 
0.0 0.0 0.0 
0.0 0.0 0.0 
0.0 0.0 0.0 
0.0 0.0 0.0 
0.0 0.0 0.0 
0.0 0.0 0.0 
0.0 0.0 0.0 
0.0 0.0 0.0 
0.0 0.0 0.0 
0.0 0.0 0.0 
0.0 0.0 0.0 
0.0 0.0 0.0 
0.0 0.0 0.0 
0.0 0.0 0.0 
0.0 0.0 0.0 
0.0 0.0 0.0 
0.0 0.0 0.0 
0.0 0.0 0.0 
0.0 0.0 0.0 
0.0 0.0 0.0 
0.0 0.0 0.0 
0.0 0.0 0.0 
0.0 0.0 0.0 
0.0 0.0 0.0 
0.0 0.0 0.0 
0.0 0.0 0.0 
0.0 0.0 0.0 
0.0 0.0 0.0 
0.0 0.0 0.0 
0.0 0.0 0.0 
0.0 0.0 0.0 
0.0 0.0 0.0 
0.0 0.0 0.0 
0.0 0.0 0.0 
0.0 0.0 0.0 
0.0 0.0 0.0 
0.0 0.0 0.0 
0.0 0.0 0.0 
0.0 0.0 0.0 
0.0 0.0 0.0 
0.0 0.0 0.0 
0.0 0.0 0.0 
0.0 0.0 0.0 
0.0 0.0 0.0 
0.0 0.0 0.0 
0.0 0.0 0.0 
0.0 0.0 0.0 
0.0 0.0 0.0 
0.0 0.0 0.0 
0.0 0.0 0.0 
0.0 0.0 0.0 
0.0 0.0 0.0 
0.0 0.0 0.0 
0.0 0.0 0.0 
0.0 0.0 0.0 
0.0 0.0 0.0 
0.0 0.0 0.0 
0.0 0.0 0.0 
0.0 0.0 0.0 
0.0 0.0 0.0 
0.0 0.0 0.0 
0.0 0.0 0.0 
0.0 0.0 0.0 
0.0 0.0 0.0 
0.0 0.0 0.0 
0.0 0.0 0.0 
0.0 0.0 0.0 
0.0 0.0 0.0 
0.0 0.0 0.0 
0.0 0.0 0.0 
0.0 0.0 0.0 
0.0 0.0 0.0 
0.0 0.0 0.0 
0.0 0.0 0.0 
0.0 0.0 0.0 
0.0 0.0 0.0 
0.0 0.0 0.0 
0.0 0.0 0.0 
0.0 0.0 0.0 
0.0 0.0 0.0 
0.0 0.0 0.0 
0.0 0.0 0.0 
0.0 0.0 0.0 
0.0 0.0 0.0 
0.0 0.0 0.0 
0.0 0.0 0.0 
0.0 0.0 0.0 
0.0 0.0 0.0 
0.0 0.0 0.0 
0.0 0.0 0.0 
0.0 0.0 0.0 
0.0 0.0 0.0 
0.0 0.0 0.0 
0.0 0.0 0.0 
0.0 0.0 0.0 
0.0 0.0 0.0 
0.0 0.0 0.0 
0.0 0.0 0.0 
0.0 0.0 0.0 
0.0 0.0 0.0 
0.0 0.0 0.0 
0.0 0.0 0.0 
0.0 0.0 0.0 
0.0 0.0 0.0 
0.0 0.0 0.0 
0.0 0.0 0.0 
0.0 0.0 0.0 
0.0 0.0 0.0 
0.0 0.0 0.0 
0.0 0.0 0.0 
0.0 0.0 0.0 
0.0 0.0 0.0 
0.0 0.0 0.0 
0.0 0.0 0.0 
0.0 0.0 0.0 
0.0 0.0 0.0 
0.0 0.0 0.0 
0.0 0.0 0.0 
0.0 0.0 0.0 
0.0 0.0 0.0 
0.0 0.0 0.0 
0.0 0.0 0.0 
0.0 0.0 0.0 
0.0 0.0 0.0 
0.0 0.0 0.0 
0.0 0.0 0.0 
0.0 0.0 0.0 
0.0 0.0 0.0 
0.0 0.0 0.0 
0.0 0.0 0.0 
0.0 0.0 0.0 
0.0 0.0 0.0 
0.0 0.0 0.0 
0.0 0.0 0.0 
0.0 0.0 0.0 
0.0 0.0 0.0 
0.0 0.0 0.0 
0.0 0.0 0.0 
0.0 0.0 0.0 
0.0 0.0 0.0 
0.0 0.0 0.0 
0.0 0.0 0.0 
0.0 0.0 0.0 
0.0 0.0 0.0 
0.0 0.0 0.0 
0.0 0.0 0.0 
0.0 0.0 0.0 
0.0 0.0 0.0 
0.0 0.0 0.0 
0.0 0.0 0.0 
0.0 0.0 0.0 
0.0 0.0 0.0 
0.0 0.0 0.0 
0.0 0.0 0.0 
0.0 0.0 0.0 
0.0 0.0 0.0 
0.0 0.0 0.0 
0.0 0.0 0.0 
0.0 0.0 0.0 
0.0 0.0 0.0 
0.0 0.0 0.0 
0.0 0.0 0.0 
0.0 0.0 0.0 
0.0 0.0 0.0 
0.0 0.0 0.0 
0.0 0.0 0.0 
0.0 0.0 0.0 
0.0 0.0 0.0 
0.0 0.0 0.0 
0.0 0.0 0.0 
0.0 0.0 0.0 
0.0 0.0 0.0 
0.0 0.0 0.0 
0.0 0.0 0.0 
0.0 0.0 0.0 
0.0 0.0 0.0 
0.0 0.0 0.0 
0.0 0.0 0.0 
0.0 0.0 0.0 
0.0 0.0 0.0 
0.0 0.0 0.0 
0.0 0.0 0.0 
0.0 0.0 0.0 
0.0 0.0 0.0 
0.0 0.0 0.0 
0.0 0.0 0.0 
0.0 0.0 0.0 
0.0 0.0 0.0 
0.0 0.0 0.0 
0.0 0.0 0.0 
0.0 0.0 0.0 
0.0 0.0 0.0 
0.0 0.0 0.0 
0.0 0.0 0.0 
0.0 0.0 0.0 
0.0 0.0 0.0 
0.0 0.0 0.0 
0.0 0.0 0.0 
0.0 0.0 0.0 
0.0 0.0 0.0 
0.0 0.0 0.0 
0.0 0.0 0.0 
0.0 0.0 0.0 
0.0 0.0 0.0 
0.0 0.0 0.0 
0.0 0.0 0.0 
0.0 0.0 0.0 
0.0 0.0 0.0 
0.0 0.0 0.0 
0.0 0.0 0.0 
0.0 0.0 0.0 
0.0 0.0 0.0 
0.0 0.0 0.0 
0.0 0.0 0.0 
0.0 0.0 0.0 
0.0 0.0 0.0 
0.0 0.0 0.0 
0.0 0.0 0.0 
0.0 0.0 0.0 
0.0 0.0 0.0 
0.0 0.0 0.0 
0.0 0.0 0.0 
0.0 0.0 0.0 
0.0 0.0 0.0 
0.0 0.0 0.0 
0.0 0.0 0.0 
0.0 0.0 0.0 
0.0 0.0 0.0 
0.0 0.0 0.0 
0.0 0.0 0.0 
0.0 0.0 0.0 
0.0 0.0 0.0 
0.0 0.0 0.0 
0.0 0.0 0.0 
0.0 0.0 0.0 
0.0 0.0 0.0 
0.0 0.0 0.0 
0.0 0.0 0.0 
0.0 0.0 0.0 
0.0 0.0 0.0 
0.0 0.0 0.0 
0.0 0.0 0.0 
0.0 0.0 0.0 
0.0 0.0 0.0 
0.0 0.0 0.0 
0.0 0.0 0.0 
0.0 0.0 0.0 
0.0 0.0 0.0 
0.0 0.0 0.0 
0.0 0.0 0.0 
0.0 0.0 0.0 
0.0 0.0 0.0 
0.0 0.0 0.0 
0.0 0.0 0.0 
0.0 0.0 0.0 
0.0 0.0 0.0 
0.0 0.0 0.0 
0.0 0.0 0.0 
0.0 0.0 0.0 
0.0 0.0 0.0 
0.0 0.0 0.0 
0.0 0.0 0.0 
0.0 0.0 0.0 
0.0 0.0 0.0 
0.0 0.0 0.0 
0.0 0.0 0.0 
0.0 0.0 0.0 
0.0 0.0 0.0 
0.0 0.0 0.0 
0.0 0.0 0.0 
0.0 0.0 0.0 
0.0 0.0 0.0 
0.0 0.0 0.0 
0.0 0.0 0.0 
0.0 0.0 0.0 
0.0 0.0 0.0 
0.0 0.0 0.0 
0.0 0.0 0.0 
0.0 0.0 0.0 
0.0 0.0 0.0 
0.0 0.0 0.0 
0.0 0.0 0.0 
0.0 0.0 0.0 
0.0 0.0 0.0 
0.0 0.0 0.0 
0.0 0.0 0.0 
0.0 0.0 0.0 
0.0 0.0 0.0 
0.0 0.0 0.0 
0.0 0.0 0.0 
0.0 0.0 0.0 
0.0 0.0 0.0 
0.0 0.0 0.0 
0.0 0.0 0.0 
0.0 0.0 0.0 
0.0 0.0 0.0 
0.0 0.0 0.0 
0.0 0.0 0.0 
0.0 0.0 0.0 
0.0 0.0 0.0 
0.0 0.0 0.0 

TENSORS element_materi_stress float
-2.954221018951e+01 2.015306432467e+01 0.0 
2.015306432467e+01 -3.896534153017e+01 0.0 
0.0 0.0 -2.015226551590e+01 
-2.911567758856e+01 1.808423983709e+01 0.0 
1.808423983709e+01 -4.093273313420e+01 0.0 
0.0 0.0 -2.061452321683e+01 
-1.056658276178e+02 2.826318321577e+01 0.0 
2.826318321577e+01 -2.383307408713e+02 0.0 
0.0 0.0 -1.027989705467e+02 
-8.606300237543e+01 3.464070514382e+00 0.0 
3.464070514382e+00 -1.896034589168e+02 0.0 
0.0 0.0 -8.229993838766e+01 
-3.829770999530e+01 -3.007102564608e-01 0.0 
-3.007102564608e-01 -5.003250895893e+01 0.0 
0.0 0.0 -2.609906568627e+01 
-2.157752181015e+01 4.588427852108e+00 0.0 
4.588427852108e+00 -3.894260425879e+01 0.0 
0.0 0.0 -1.775603782068e+01 
-3.750101236589e+01 -6.895531334976e-01 0.0 
-6.895531334976e-01 -5.023548723178e+01 0.0 
0.0 0.0 -2.592094987930e+01 
-3.053500801237e+01 1.930038531009e+01 0.0 
1.930038531009e+01 -4.395324025420e+01 0.0 
0.0 0.0 -2.194647447997e+01 
-3.859328796021e+01 1.794654983159e+00 0.0 
1.794654983159e+00 -5.108012979183e+01 0.0 
0.0 0.0 -2.650202532561e+01 
-8.536441685949e+01 3.548260138082e+00 0.0 
3.548260138082e+00 -1.878853525089e+02 0.0 
0.0 0.0 -8.157493081052e+01 
-9.596653990299e+01 -2.830074513508e-01 0.0 
-2.830074513508e-01 -2.526192923510e+02 0.0 
0.0 0.0 -1.041757496762e+02 
-2.612636207278e+01 1.742539752090e+01 0.0 
1.742539752090e+01 -3.377679618425e+01 0.0 
0.0 0.0 -1.757094747711e+01 
-1.504651335110e+02 6.532066850056e-01 0.0 
6.532066850056e-01 -3.618588338281e+02 0.0 
0.0 0.0 -1.532971902017e+02 
-5.117496154900e+01 3.684030694838e+00 0.0 
3.684030694838e+00 -6.918728159076e+01 0.0 
0.0 0.0 -3.570867294193e+01 
-1.554388569733e+02 2.867725299669e+00 0.0 
2.867725299669e+00 -3.695949615708e+02 0.0 
0.0 0.0 -1.571101455632e+02 
-8.725069396871e+01 2.799222548654e+00 0.0 
2.799222548654e+00 -1.978168007210e+02 0.0 
0.0 0.0 -8.512024840691e+01 
-3.778209598643e+01 1.225705341525e+00 0.0 
1.225705341525e+00 -4.634145587222e+01 0.0 
0.0 0.0 -2.483706555760e+01 
-2.095140897561e+01 2.652160889352e+00 0.0 
2.652160889352e+00 -3.937278585354e+01 0.0 
0.0 0.0 -1.769725844875e+01 
-2.772517467187e+01 -1.778582179436e-01 0.0 
-1.778582179436e-01 -7.733328456300e+01 0.0 
0.0 0.0 -3.111753777046e+01 
-2.808291326744e+01 -7.889308383562e-01 0.0 
-7.889308383562e-01 -7.996190697017e+01 0.0 
0.0 0.0 -3.201344607128e+01 
-8.740559181982e+01 5.767518621362e+00 0.0 
5.767518621362e+00 -1.892834487904e+02 0.0 
0.0 0.0 -8.260671218305e+01 
-2.938133026467e+01 1.905597945299e+01 0.0 
1.905597945299e+01 -3.960059660510e+01 0.0 
0.0 0.0 -2.029457806093e+01 
-3.196112970776e+01 2.080358287383e+01 0.0 
2.080358287383e+01 -4.266287016494e+01 0.0 
0.0 0.0 -2.198719996181e+01 
-1.335722255771e+02 1.584997421518e+01 0.0 
1.584997421518e+01 -3.324691431208e+02 0.0 
0.0 0.0 -1.394124106094e+02 
-6.274016419138e+01 8.882282938992e+00 0.0 
8.882282938992e+00 -9.223839688632e+01 0.0 
0.0 0.0 -4.609356832331e+01 
-1.016887509988e+02 1.127300065922e+00 0.0 
1.127300065922e+00 -2.655631119417e+02 0.0 
0.0 0.0 -1.097755588821e+02 
-3.723607087930e+01 6.815685599598e+00 0.0 
6.815685599598e+00 -3.308373118957e+01 0.0 
0.0 0.0 -2.069594062066e+01 
-1.238216891735e+02 3.120826810018e+01 0.0 
3.120826810018e+01 -2.998797068263e+02 0.0 
0.0 0.0 -1.267104187999e+02 
-6.666802101565e+01 1.324546784889e+01 0.0 
1.324546784889e+01 -9.445226641316e+01 0.0 
0.0 0.0 -4.793608622864e+01 
-1.375478758617e+02 1.434927059024e+01 0.0 
1.434927059024e+01 -3.413958046783e+02 0.0 
0.0 0.0 -1.432831041620e+02 
-2.591472763793e+01 -2.012970780310e+00 0.0 
-2.012970780310e+00 -5.778123537492e+01 0.0 
0.0 0.0 -2.470878890385e+01 
-1.393955285657e+01 -1.771793786403e+00 0.0 
-1.771793786403e+00 -2.601746185880e+01 0.0 
0.0 0.0 -1.158710441461e+01 
-1.072003653513e+02 2.916957452341e+01 0.0 
2.916957452341e+01 -2.371253284558e+02 0.0 
0.0 0.0 -1.028977081421e+02 
-1.252666727454e+02 1.202277929936e+00 0.0 
1.202277929936e+00 -3.137173536986e+02 0.0 
0.0 0.0 -1.312952079332e+02 
-1.470617833603e+02 9.891442049577e+00 0.0 
9.891442049577e+00 -3.560744908164e+02 0.0 
0.0 0.0 -1.505408822530e+02 
-1.576912432324e+02 4.589772074994e+00 0.0 
4.589772074994e+00 -3.759863798150e+02 0.0 
0.0 0.0 -1.597032869142e+02 
-1.586484092229e+02 7.209481785460e+00 0.0 
7.209481785460e+00 -3.761649679439e+02 0.0 
0.0 0.0 -1.600440131501e+02 
-1.341295455806e+02 2.202196323054e+01 0.0 
2.202196323054e+01 -3.308223201680e+02 0.0 
0.0 0.0 -1.390855597246e+02 
-2.916028370499e+01 1.315782020614e+00 0.0 
1.315782020614e+00 -3.164440804932e+01 0.0 
0.0 0.0 -1.784140752629e+01 
-2.893069962964e+01 -1.411803188564e+00 0.0 
-1.411803188564e+00 -3.218761305268e+01 0.0 
0.0 0.0 -1.793549380470e+01 
-3.442164985428e+01 2.196376108343e+01 0.0 
2.196376108343e+01 -4.330544499920e+01 0.0 
0.0 0.0 -2.291812845604e+01 
-1.496345430175e+02 1.131753701721e+01 0.0 
1.131753701721e+01 -3.584761033323e+02 0.0 
0.0 0.0 -1.520331939049e+02 
-2.744058108071e+01 1.727961094485e+01 0.0 
1.727961094485e+01 -3.717738084993e+01 0.0 
0.0 0.0 -1.898538857919e+01 
-4.083113114586e+01 6.723663112066e+00 0.0 
6.723663112066e+00 -3.299229975000e+01 0.0 
0.0 0.0 -2.174702926876e+01 
-8.261930036740e+01 1.353857111981e+00 0.0 
1.353857111981e+00 -1.779337708660e+02 0.0 
0.0 0.0 -7.776592137001e+01 
-2.648078567260e+01 1.640912686003e+01 0.0 
1.640912686003e+01 -3.688104364900e+01 0.0 
0.0 0.0 -1.860854879648e+01 
-1.980421937606e+01 -2.387194942717e+00 0.0 
-2.387194942717e+00 -4.322976886903e+01 0.0 
0.0 0.0 -1.851019647353e+01 
-8.126539925977e+01 1.236608618715e+00 0.0 
1.236608618715e+00 -1.789904988711e+02 0.0 
0.0 0.0 -7.767676943925e+01 
-1.696375140504e+01 -1.901178622013e+00 0.0 
-1.901178622013e+00 -2.564631642074e+01 0.0 
0.0 0.0 -1.277289377904e+01 
-4.874682633091e+01 4.681451780955e+00 0.0 
4.681451780955e+00 -6.047725895477e+01 0.0 
0.0 0.0 -3.236722558570e+01 
-3.332439658863e+01 2.164118980845e+01 0.0 
2.164118980845e+01 -4.389401042616e+01 0.0 
0.0 0.0 -2.276552210444e+01 
-3.541261999442e+01 -4.027381338849e-01 0.0 
-4.027381338849e-01 -9.725678176820e+01 0.0 
0.0 0.0 -3.940082052879e+01 
-2.847840064082e+01 -1.713383277712e+00 0.0 
-1.713383277712e+00 -7.890883332093e+01 0.0 
0.0 0.0 -3.181617018853e+01 
-3.090115862350e+01 1.943612583279e+01 0.0 
1.943612583279e+01 -4.078365144864e+01 0.0 
0.0 0.0 -2.110544302164e+01 
-9.881761623079e+01 2.292248754867e+01 0.0 
2.292248754867e+01 -2.184725395834e+02 0.0 
0.0 0.0 -9.478704674426e+01 
-4.626720178918e+01 -2.993350541587e-01 0.0 
-2.993350541587e-01 -1.283490909228e+02 0.0 
0.0 0.0 -5.198488781360e+01 
-3.559747270727e+01 -9.183843795083e-01 0.0 
-9.183843795083e-01 -1.001986303023e+02 0.0 
0.0 0.0 -4.033883090287e+01 
-1.248465056532e+02 -8.829721231145e-02 0.0 
-8.829721231145e-02 -3.135881039577e+02 0.0 
0.0 0.0 -1.311303828833e+02 
-2.192240803506e+01 -1.314728055249e+00 0.0 
-1.314728055249e+00 -5.928196655435e+01 0.0 
0.0 0.0 -2.396131237682e+01 
-8.823960601722e+01 4.768029323280e+00 0.0 
4.768029323280e+00 -1.982806221315e+02 0.0 
0.0 0.0 -8.555606844462e+01 
-2.194753226333e+01 -1.028751358598e+00 0.0 
-1.028751358598e+00 -2.214878098358e+01 0.0 
0.0 0.0 -1.282889397407e+01 
-1.182455101091e+02 2.517065818405e+01 0.0 
2.517065818405e+01 -2.972900283657e+02 0.0 
0.0 0.0 -1.242606615424e+02 
-3.618233537674e+01 1.859297189467e+01 0.0 
1.859297189467e+01 -9.101196844961e+01 0.0 
0.0 0.0 -3.775829114791e+01 
-2.715804276651e+01 -1.707754896788e+00 0.0 
-1.707754896788e+00 -7.246574680268e+01 0.0 
0.0 0.0 -2.948713687076e+01 
-1.501602973293e+02 3.635887632907e+00 0.0 
3.635887632907e+00 -3.611251200790e+02 0.0 
0.0 0.0 -1.529856252225e+02 
-3.001806808205e+01 1.914963310298e+01 0.0 
1.914963310298e+01 -3.992191856317e+01 0.0 
0.0 0.0 -2.058199599357e+01 
-1.806310444896e+01 -1.156929003232e+00 0.0 
-1.156929003232e+00 -2.091525810685e+01 0.0 
0.0 0.0 -1.199546272150e+01 
-1.099031118405e+02 3.087851186044e+01 0.0 
3.087851186044e+01 -2.432500223319e+02 0.0 
0.0 0.0 -1.055459402517e+02 
-2.494608788547e+01 -2.679358799317e+00 0.0 
-2.679358799317e+00 -6.358502155660e+01 0.0 
0.0 0.0 -2.615933283262e+01 
-1.163258736841e+02 3.098797403149e+01 0.0 
3.098797403149e+01 -2.720983243519e+02 0.0 
0.0 0.0 -1.161272594108e+02 
-1.064866998438e+02 1.682856399851e+00 0.0 
1.682856399851e+00 -2.759063453765e+02 0.0 
0.0 0.0 -1.143179135661e+02 
-9.332152229419e+01 1.518003763608e+01 0.0 
1.518003763608e+01 -2.190835520198e+02 0.0 
0.0 0.0 -9.332152229419e+01 
-1.186310690079e+02 2.807438019245e+01 0.0 
2.807438019245e+01 -2.861669900566e+02 0.0 
0.0 0.0 -1.210394177193e+02 
-1.012886566618e+01 -9.592904760803e-01 0.0 
-9.592904760803e-01 -2.985256213711e+01 0.0 
0.0 0.0 -1.159442834098e+01 
-4.763508599487e+01 -1.165740919855e+00 0.0 
-1.165740919855e+00 -1.335693186478e+02 0.0 
0.0 0.0 -5.396132139281e+01 
-9.156933565576e+01 1.171962075552e+01 0.0 
1.171962075552e+01 -1.956004336051e+02 0.0 
0.0 0.0 -8.575093077826e+01 
-1.041585065685e+02 2.515846722703e+01 0.0 
2.515846722703e+01 -2.236689009174e+02 0.0 
0.0 0.0 -9.794822224577e+01 
-2.409087971265e+01 1.379615520181e+01 0.0 
1.379615520181e+01 -3.398030102425e+01 0.0 
0.0 0.0 -1.702135422107e+01 
-2.109272073869e+01 -1.408108021458e+00 0.0 
-1.408108021458e+00 -5.913826324570e+01 0.0 
0.0 0.0 -2.366929519532e+01 
-2.588172672207e+01 1.562328189676e+01 0.0 
1.562328189676e+01 -3.463651533187e+01 0.0 
0.0 0.0 -1.775547261618e+01 
-2.419602256470e+01 -3.634829337201e+00 0.0 
-3.634829337201e+00 -6.305646614442e+01 0.0 
0.0 0.0 -2.577574661274e+01 
-3.867959412161e+01 8.532250735493e-01 0.0 
8.532250735493e-01 -4.581588403755e+01 0.0 
0.0 0.0 -2.494864344775e+01 
-3.170082222831e+01 2.072664244544e+01 0.0 
2.072664244544e+01 -4.266976426279e+01 0.0 
0.0 0.0 -2.191117594733e+01 
-2.746134713502e+01 1.829161693255e+01 0.0 
1.829161693255e+01 -3.516669577333e+01 0.0 
0.0 0.0 -1.838841287250e+01 
-4.419876883795e+01 2.263145544035e+00 0.0 
2.263145544035e+00 -6.157595302007e+01 0.0 
0.0 0.0 -3.133241655740e+01 
-4.241020004944e+01 -3.623989321927e-02 0.0 
-3.623989321927e-02 -6.077605426058e+01 0.0 
0.0 0.0 -3.055587629301e+01 
-1.106377780797e+02 1.453341956699e+00 0.0 
1.453341956699e+00 -2.843697363042e+02 0.0 
0.0 0.0 -1.181022543152e+02 
-1.208661077243e+02 -6.825760029340e-01 0.0 
-6.825760029340e-01 -3.054545975879e+02 0.0 
0.0 0.0 -1.274962115937e+02 
-9.154513733615e+01 2.747068282044e+01 0.0 
2.747068282044e+01 -1.887855132315e+02 0.0 
0.0 0.0 -8.369919517031e+01 
-3.990649353705e+01 2.262937210245e+00 0.0 
2.262937210245e+00 -4.988642718553e+01 0.0 
0.0 0.0 -2.653787621677e+01 
-1.305150913323e+01 -1.801901478876e+00 0.0 
-1.801901478876e+00 -2.576274643649e+01 0.0 
0.0 0.0 -1.160039189025e+01 
-4.882127489025e+01 8.819130549138e+00 0.0 
8.819130549138e+00 -5.202527626256e+01 0.0 
0.0 0.0 -2.985396534585e+01 
-6.595807124852e+01 1.449399180743e+00 0.0 
1.449399180743e+00 -1.297658414329e+02 0.0 
0.0 0.0 -5.831717380442e+01 
-6.581082791586e+01 8.882231055144e-01 0.0 
8.882231055144e-01 -1.263282001728e+02 0.0 
0.0 0.0 -5.724170842659e+01 
-1.004873126552e+02 1.699563249780e+01 0.0 
1.699563249780e+01 -2.233756694515e+02 0.0 
0.0 0.0 -9.675889463203e+01 
-1.405517900920e+02 2.524955534891e+01 0.0 
2.524955534891e+01 -3.363931999490e+02 0.0 
0.0 0.0 -1.426834970123e+02 
-4.043502170477e+01 2.129279740059e+00 0.0 
2.129279740059e+00 -4.569777528960e+01 0.0 
0.0 0.0 -2.543983909831e+01 
-1.464251145940e+02 1.112012786647e+01 0.0 
1.112012786647e+01 -3.579136714116e+02 0.0 
0.0 0.0 -1.509016358017e+02 
-4.824565822815e+01 7.957813227212e-01 0.0 
7.957813227212e-01 -8.072410393243e+01 0.0 
0.0 0.0 -3.829092864817e+01 
-3.525674651398e+01 1.982619590534e+01 0.0 
1.982619590534e+01 -7.604856360868e+01 0.0 
0.0 0.0 -3.299159303680e+01 
-3.458962651643e+01 1.294025308394e+00 0.0 
1.294025308394e+00 -4.110619994424e+01 0.0 
0.0 0.0 -2.230874793820e+01 
-1.547484282590e+02 1.615833675440e+00 0.0 
1.615833675440e+00 -3.691877523809e+02 0.0 
0.0 0.0 -1.567808541920e+02 
-9.743920906462e+01 2.161410929168e+01 0.0 
2.161410929168e+01 -2.570778578835e+02 0.0 
0.0 0.0 -1.059551200844e+02 
-1.211488946498e+02 2.666467581991e+01 0.0 
2.666467581991e+01 -2.988596810141e+02 0.0 
0.0 0.0 -1.256025726992e+02 
-3.376268374316e+01 1.568329774013e+01 0.0 
1.568329774013e+01 -8.708270667120e+01 0.0 
0.0 0.0 -3.585361712431e+01 
-2.365621415940e+01 -2.538210802849e+00 0.0 
-2.538210802849e+00 -4.243144251450e+01 0.0 
0.0 0.0 -1.942629700217e+01 
-1.400568143998e+02 2.024280297892e+00 0.0 
2.024280297892e+00 -3.422543143862e+02 0.0 
0.0 0.0 -1.442933386358e+02 
-7.248915603233e+01 1.402414146543e+00 0.0 
1.402414146543e+00 -1.458429781730e+02 0.0 
0.0 0.0 -6.509964026160e+01 
-2.161242404743e+01 -1.673347459304e+00 0.0 
-1.673347459304e+00 -2.541512996621e+01 0.0 
0.0 0.0 -1.370826620409e+01 
-1.543309053407e+02 4.952923186251e+00 0.0 
4.952923186251e+00 -3.665343864812e+02 0.0 
0.0 0.0 -1.558595875466e+02 
-8.620137727293e+01 2.486493982397e+01 0.0 
2.486493982397e+01 -1.821850571648e+02 0.0 
0.0 0.0 -8.011593033132e+01 
-7.302001006926e+00 3.498004624027e-01 0.0 
3.498004624027e-01 -2.207482190545e+01 0.0 
0.0 0.0 -8.413046873713e+00 
-4.491254177988e+01 1.551449266580e+01 0.0 
1.551449266580e+01 -1.350203452030e+02 0.0 
0.0 0.0 -5.357986609487e+01 
-4.575903203464e+01 1.957376667121e+01 0.0 
1.957376667121e+01 -4.645178949281e+01 0.0 
0.0 0.0 -2.726324645823e+01 
-5.798984526530e+01 -4.786304236573e-01 0.0 
-4.786304236573e-01 -1.621595536283e+02 0.0 
0.0 0.0 -6.564481966808e+01 
-3.213841993545e+01 1.805998875509e+01 0.0 
1.805998875509e+01 -7.246055794634e+01 0.0 
0.0 0.0 -3.097969336454e+01 
-3.770236229318e+01 1.897552825024e+01 0.0 
1.897552825024e+01 -9.170264066270e+01 0.0 
0.0 0.0 -3.842150088676e+01 
-1.512556478016e+02 7.949981979369e+00 0.0 
7.949981979369e+00 -3.633298077348e+02 0.0 
0.0 0.0 -1.539756366609e+02 
-4.589277109219e+01 -4.654968266648e-01 0.0 
-4.654968266648e-01 -7.405302265546e+01 0.0 
0.0 0.0 -3.558373812430e+01 
-3.425242811892e+01 1.738768371533e+01 0.0 
1.738768371533e+01 -8.880878312220e+01 0.0 
0.0 0.0 -3.651836337234e+01 
-2.375035640211e+01 -2.209231007069e+00 0.0 
-2.209231007069e+00 -6.093174663279e+01 0.0 
0.0 0.0 -2.500463091047e+01 
-5.022585509379e+01 1.037357155752e+01 0.0 
1.037357155752e+01 -5.665985982974e+01 0.0 
0.0 0.0 -3.166571447706e+01 
-7.194514560057e+01 1.722669498970e+00 0.0 
1.722669498970e+00 -1.471643927451e+02 0.0 
0.0 0.0 -6.533286150371e+01 
-3.567425753937e+01 1.740138679276e+01 0.0 
1.740138679276e+01 -8.941840941828e+01 0.0 
0.0 0.0 -3.712780008730e+01 
-2.173307979476e+01 9.742059077300e+00 0.0 
9.742059077300e+00 -2.931124851512e+01 0.0 
0.0 0.0 -1.491329849296e+01 
-3.908543180068e+01 2.258092962813e+01 0.0 
2.258092962813e+01 -4.357534206764e+01 0.0 
0.0 0.0 -2.439823216050e+01 
-5.814751302189e+01 -9.357570078544e-01 0.0 
-9.357570078544e-01 -1.608566583915e+02 0.0 
0.0 0.0 -6.530125142403e+01 
-3.463175307370e+01 1.969666627972e+01 0.0 
1.969666627972e+01 -4.101256042331e+01 0.0 
0.0 0.0 -2.229329404910e+01 
-9.157308339320e+01 1.181099393835e+01 0.0 
1.181099393835e+01 -2.046119639835e+02 0.0 
0.0 0.0 -8.845551421301e+01 
-2.258967542114e+01 9.432557068060e+00 0.0 
9.432557068060e+00 -3.995290732004e+01 0.0 
0.0 0.0 -1.836277482235e+01 
-1.011628335737e+02 -9.962643630790e-03 0.0 
-9.962643630790e-03 -2.645509105165e+02 0.0 
0.0 0.0 -1.093141232271e+02 
-8.518398966245e+01 1.558551318407e+00 0.0 
1.558551318407e+00 -1.893079013269e+02 0.0 
0.0 0.0 -8.194756729680e+01 
-4.382327649921e+01 2.205167129763e+01 0.0 
2.205167129763e+01 -9.667078152296e+01 0.0 
0.0 0.0 -4.174821740665e+01 
-3.650094067046e+01 2.258610215355e+01 0.0 
2.258610215355e+01 -4.352498294112e+01 0.0 
0.0 0.0 -2.360777708347e+01 
-1.455487263326e+02 8.456336483330e+00 0.0 
8.456336483330e+00 -3.554673649399e+02 0.0 
0.0 0.0 -1.499048273817e+02 
-1.509827355498e+02 2.334790157264e+00 0.0 
2.334790157264e+00 -3.625370344417e+02 0.0 
0.0 0.0 -1.536559309974e+02 
-1.102859825416e+02 1.600779962573e-01 0.0 
1.600779962573e-01 -2.842690544327e+02 0.0 
0.0 0.0 -1.179665110923e+02 
-4.728026774620e+01 2.417732760595e+01 0.0 
2.417732760595e+01 -9.836807607939e+01 0.0 
0.0 0.0 -4.329450314768e+01 
-1.440697376649e+02 1.484409061327e+01 0.0 
1.484409061327e+01 -3.534666534781e+02 0.0 
0.0 0.0 -1.488609173429e+02 
-4.039134040875e+01 2.190553612385e+01 0.0 
2.190553612385e+01 -7.924575601210e+01 0.0 
0.0 0.0 -3.549112892626e+01 
-8.822247318518e+01 8.183168607363e+00 0.0 
8.183168607363e+00 -1.965397166953e+02 0.0 
0.0 0.0 -8.502865696416e+01 
-1.150618145240e+02 3.259632391801e+01 0.0 
3.259632391801e+01 -2.691843834933e+02 0.0 
0.0 0.0 -1.148738594052e+02 
-5.420562952093e+01 7.105474343263e+00 0.0 
7.105474343263e+00 -6.948536175176e+01 0.0 
0.0 0.0 -3.670729738181e+01 
-5.836825649213e+01 8.669082556979e-01 0.0 
8.669082556979e-01 -1.050139194390e+02 0.0 
0.0 0.0 -4.861465277935e+01 
-4.121741153135e+01 2.327569473189e+01 0.0 
2.327569473189e+01 -7.968176389922e+01 0.0 
0.0 0.0 -3.586975262917e+01 
-3.256933526728e+01 1.976646465592e+01 0.0 
1.976646465592e+01 -4.158797408427e+01 0.0 
0.0 0.0 -2.184719280547e+01 
-5.024935385717e+01 2.274955553415e+01 0.0 
2.274955553415e+01 -1.150591230393e+02 0.0 
0.0 0.0 -4.919254306895e+01 
-3.813916294865e+01 1.626808953746e+01 0.0 
1.626808953746e+01 -1.047701715214e+02 0.0 
0.0 0.0 -4.247280034102e+01 
-3.456519085819e+01 1.096956734132e+00 0.0 
1.096956734132e+00 -4.376538856929e+01 0.0 
0.0 0.0 -2.309917382824e+01 
-4.647530866000e+01 1.569084492837e+01 0.0 
1.569084492837e+01 -1.357162364833e+02 0.0 
0.0 0.0 -5.425746354300e+01 
-1.178441633709e+01 -1.495944967880e+00 0.0 
-1.495944967880e+00 -2.506398697627e+01 0.0 
0.0 0.0 -1.107269858610e+01 
-3.966196009874e+01 1.825036132489e-01 0.0 
1.825036132489e-01 -5.875768141542e+01 0.0 
0.0 0.0 -2.912589245425e+01 
-2.043569665727e+01 -4.721672918577e-01 0.0 
-4.721672918577e-01 -6.020618583806e+01 0.0 
0.0 0.0 -2.379256474860e+01 
-4.286247610827e+01 2.121403307221e+01 0.0 
2.121403307221e+01 -4.551671471405e+01 0.0 
0.0 0.0 -2.611375724669e+01 
-1.483214105501e+02 1.395043171676e+01 0.0 
1.395043171676e+01 -3.556922822541e+02 0.0 
0.0 0.0 -1.508041078413e+02 
-3.264332569509e+01 1.605675903128e+01 0.0 
1.605675903128e+01 -8.664367544767e+01 0.0 
0.0 0.0 -3.538610034283e+01 
-1.153476325365e+02 -2.738436309239e-01 0.0 
-2.738436309239e-01 -2.944460938476e+02 0.0 
0.0 0.0 -1.225381179152e+02 
-2.761983974363e+01 1.735592233314e+01 0.0 
1.735592233314e+01 -3.750878250812e+01 0.0 
0.0 0.0 -1.913858667552e+01 
-9.489544179058e+01 2.044669487816e+01 0.0 
2.044669487816e+01 -2.558410069526e+02 0.0 
0.0 0.0 -1.048209346229e+02 
-3.412594774337e+01 9.749343334087e-02 0.0 
9.749343334087e-02 -4.523731866878e+01 0.0 
0.0 0.0 -2.340897992364e+01 
-4.233899830563e+01 1.376058380222e+01 0.0 
1.376058380222e+01 -1.309653650172e+02 0.0 
0.0 0.0 -5.159130899685e+01 
-1.297791959698e+02 1.948933488400e+00 0.0 
1.948933488400e+00 -3.228826786120e+02 0.0 
0.0 0.0 -1.353985623745e+02 
-2.358430093933e+01 -3.386827666812e+00 0.0 
-3.386827666812e+00 -6.054271051984e+01 0.0 
0.0 0.0 -2.483810343775e+01 
-1.396950532688e+02 5.708010969122e-01 0.0 
5.708010969122e-01 -3.418804146296e+02 0.0 
0.0 0.0 -1.440726403695e+02 
-5.330095878357e+01 2.089384758659e+01 0.0 
2.089384758659e+01 -8.362297534110e+01 0.0 
0.0 0.0 -4.067718023740e+01 
-1.510020266429e+02 4.206371134316e+00 0.0 
4.206371134316e+00 -3.647941207700e+02 0.0 
0.0 0.0 -1.543388442238e+02 
-3.342430714594e+01 -6.572903153378e-02 0.0 
-6.572903153378e-02 -4.422150774721e+01 0.0 
0.0 0.0 -2.289374446795e+01 
-3.481239843670e+01 1.454877423443e+01 0.0 
1.454877423443e+01 -1.003571678898e+02 0.0 
0.0 0.0 -4.015086989795e+01 
-4.121224127556e+01 1.696453891070e+01 0.0 
1.696453891070e+01 -4.247503960561e+01 0.0 
0.0 0.0 -2.470618426435e+01 
-9.595820606184e+01 7.111159593712e-01 0.0 
7.111159593712e-01 -2.535699741243e+02 0.0 
0.0 0.0 -1.044584540559e+02 
-2.873066980316e+01 1.874958719483e+01 0.0 
1.874958719483e+01 -3.740583074368e+01 0.0 
0.0 0.0 -1.944095016405e+01 
-4.397761140291e+01 1.360003472197e+01 0.0 
1.360003472197e+01 -1.316303189134e+02 0.0 
0.0 0.0 -5.228237909489e+01 
-6.282080500147e+01 2.612866920555e+00 0.0 
2.612866920555e+00 -1.162162412460e+02 0.0 
0.0 0.0 -5.331111387424e+01 
-3.365185550948e+01 -5.030828138706e-01 0.0 
-5.030828138706e-01 -4.395702753562e+01 0.0 
0.0 0.0 -2.288266491353e+01 
-3.944822110200e+01 1.497051617389e+01 0.0 
1.497051617389e+01 -1.173456715015e+02 0.0 
0.0 0.0 -4.663816778105e+01 
-3.907213357038e+01 1.898641298611e+01 0.0 
1.898641298611e+01 -4.151684643841e+01 0.0 
0.0 0.0 -2.377669400264e+01 
-9.866201822156e+01 2.734794109390e+01 0.0 
2.734794109390e+01 -2.305698756741e+02 0.0 
0.0 0.0 -9.836956816869e+01 
-6.533597599497e+01 -2.651541936322e-01 0.0 
-2.651541936322e-01 -1.793271394917e+02 0.0 
0.0 0.0 -7.299893464601e+01 
-1.274730534459e+02 2.896703220937e+01 0.0 
2.896703220937e+01 -3.049778192349e+02 0.0 
0.0 0.0 -1.293352618042e+02 
-1.177414670452e+02 3.314984799866e+01 0.0 
3.314984799866e+01 -2.761365667656e+02 0.0 
0.0 0.0 -1.177634101432e+02 
-3.156911027954e+01 1.922447088026e+01 0.0 
1.922447088026e+01 -5.850374205339e+01 0.0 
0.0 0.0 -2.662185569988e+01 
-6.540148616920e+01 -7.183110863930e-01 0.0 
-7.183110863930e-01 -1.803124842581e+02 0.0 
0.0 0.0 -7.331419112820e+01 
-1.218796746191e+02 1.694960025825e+01 0.0 
1.694960025825e+01 -3.116851498140e+02 0.0 
0.0 0.0 -1.296694473299e+02 
-3.789890807430e+01 2.290187279747e+01 0.0 
2.290187279747e+01 -6.178970273204e+01 0.0 
0.0 0.0 -2.950658324190e+01 
-2.887998910454e+01 1.733756917647e+01 0.0 
1.733756917647e+01 -5.502095548312e+01 0.0 
0.0 0.0 -2.477028337630e+01 
-4.917333042273e+01 1.839917577197e+01 0.0 
1.839917577197e+01 -6.506309333473e+01 0.0 
0.0 0.0 -3.387092712724e+01 
-4.330688720247e+01 1.699770678537e+01 0.0 
1.699770678537e+01 -1.222301687360e+02 0.0 
0.0 0.0 -4.926111678155e+01 
-8.621738595448e+01 5.200304519978e+00 0.0 
5.200304519978e+00 -1.945157152559e+02 0.0 
0.0 0.0 -8.381993036311e+01 
-8.557411550951e+01 2.281938731610e+01 0.0 
2.281938731610e+01 -1.701540768969e+02 0.0 
0.0 0.0 -7.631845772192e+01 
-1.348666602803e+02 -1.680784085289e-01 0.0 
-1.680784085289e-01 -3.327651647266e+02 0.0 
0.0 0.0 -1.398895475021e+02 
-2.566275041208e+01 1.542990787110e+01 0.0 
1.542990787110e+01 -3.578468092889e+01 0.0 
0.0 0.0 -1.803422940229e+01 
-4.171817269791e+01 1.141994573819e+01 0.0 
1.141994573819e+01 -1.273751039276e+02 0.0 
0.0 0.0 -5.032798298767e+01 
-8.945312200913e+01 2.450853553114e+01 0.0 
2.450853553114e+01 -1.868247225339e+02 0.0 
0.0 0.0 -8.248335336291e+01 
-1.740485372281e+01 3.262953591740e+00 0.0 
3.262953591740e+00 -4.255211339417e+00 0.0 
0.0 0.0 -6.098019518667e+00 
-3.688779165340e+01 2.132660376224e+01 0.0 
2.132660376224e+01 -6.131350893971e+01 0.0 
0.0 0.0 -2.906039017793e+01 
-1.135271087072e+02 1.318727189213e+01 0.0 
1.318727189213e+01 -2.974649585809e+02 0.0 
0.0 0.0 -1.228976201864e+02 
-1.626447621295e+01 -1.060941422411e+00 0.0 
-1.060941422411e+00 -4.271805487906e+01 0.0 
0.0 0.0 -1.729475932760e+01 
-1.021259476105e+02 2.493105239537e+01 0.0 
2.493105239537e+01 -2.235193499191e+02 0.0 
0.0 0.0 -9.729358925888e+01 
-7.342771787668e+01 1.554866897053e+01 0.0 
1.554866897053e+01 -1.222784528830e+02 0.0 
0.0 0.0 -5.831185122791e+01 
-5.640662812678e+01 -1.156050752749e+00 0.0 
-1.156050752749e+00 -1.677319473375e+02 0.0 
0.0 0.0 -6.684157263927e+01 
-1.108752080767e+02 1.190281448971e+01 0.0 
1.190281448971e+01 -2.962061056537e+02 0.0 
0.0 0.0 -1.217243941191e+02 
-5.798715664544e+01 1.202807033213e+01 0.0 
1.202807033213e+01 -7.265661748247e+01 0.0 
0.0 0.0 -3.879313223837e+01 
-6.225762164947e+01 9.820955033073e+00 0.0 
9.820955033073e+00 -8.421291901067e+01 0.0 
0.0 0.0 -4.354116219804e+01 
-1.396785195645e+02 1.502500530690e+01 0.0 
1.502500530690e+01 -3.420249412858e+02 0.0 
0.0 0.0 -1.441110382551e+02 
-4.358582920074e+01 -2.929511345463e+00 0.0 
-2.929511345463e+00 -1.270959791533e+02 0.0 
0.0 0.0 -5.080454250623e+01 
-5.375579522430e+01 2.243786455393e+01 0.0 
2.243786455393e+01 -1.316559800969e+02 0.0 
0.0 0.0 -5.522353259637e+01 
-5.722408425064e+01 2.251569970376e+01 0.0 
2.251569970376e+01 -1.018730377404e+02 0.0 
0.0 0.0 -4.732913659730e+01 
-7.915460236735e+01 1.794700416360e+01 0.0 
1.794700416360e+01 -1.317249063829e+02 0.0 
0.0 0.0 -6.286385262506e+01 
-5.736468958625e+01 2.310417805035e+01 0.0 
2.310417805035e+01 -8.666289763035e+01 0.0 
0.0 0.0 -4.280827616498e+01 
-4.950212106595e+01 2.222680208753e+01 0.0 
2.222680208753e+01 -6.517295230166e+01 0.0 
0.0 0.0 -3.400252201029e+01 
-8.426492264519e+01 1.811766437570e+01 0.0 
1.811766437570e+01 -2.333579895656e+02 0.0 
0.0 0.0 -9.488687366325e+01 
-9.568824709304e+01 2.869467168974e+01 0.0 
2.869467168974e+01 -2.152614126332e+02 0.0 
0.0 0.0 -9.288489791788e+01 
-2.118544896624e+01 3.039876114773e+00 0.0 
3.039876114773e+00 -2.049438207599e+01 0.0 
0.0 0.0 -1.210394931267e+01 
-3.124465034651e+01 1.927005585260e+01 0.0 
1.927005585260e+01 -5.835769696453e+01 0.0 
0.0 0.0 -2.648070419331e+01 
-3.388509812189e+01 1.928030410248e+01 0.0 
1.928030410248e+01 -7.534072751249e+01 0.0 
0.0 0.0 -3.236774769031e+01 
-5.072757638044e+01 2.392843125325e+01 0.0 
2.392843125325e+01 -1.154917728166e+02 0.0 
0.0 0.0 -4.946580475912e+01 
-9.085130925626e+01 2.519790492953e+01 0.0 
2.519790492953e+01 -1.776146904414e+02 0.0 
0.0 0.0 -8.013979990930e+01 
-2.308851754380e+01 4.340892576749e+00 0.0 
4.340892576749e+00 -5.826660972097e+01 0.0 
0.0 0.0 -2.400653817943e+01 
-1.091177570024e+02 1.133369970099e+01 0.0 
1.133369970099e+01 -2.893715603341e+02 0.0 
0.0 0.0 -1.191467952010e+02 
-3.378641881958e+01 1.111326558378e+00 0.0 
1.111326558378e+00 -4.276256501956e+01 0.0 
0.0 0.0 -2.256469515174e+01 
-4.017270121087e+01 1.186016793689e+01 0.0 
1.186016793689e+01 -1.268077711428e+02 0.0 
0.0 0.0 -4.969414170611e+01 
-1.048921642227e+02 9.587977799009e+00 0.0 
9.587977799009e+00 -2.810247458736e+02 0.0 
0.0 0.0 -1.153750730289e+02 
-1.208629023536e+01 -8.324270027809e-01 0.0 
-8.324270027809e-01 -2.860911160198e+01 0.0 
0.0 0.0 -1.180862055120e+01 
-8.034464586128e+01 1.721665490754e+01 0.0 
1.721665490754e+01 -1.443329281814e+02 0.0 
0.0 0.0 -6.700327221280e+01 
-1.161182310423e+01 -1.315657719981e+00 0.0 
-1.315657719981e+00 -2.420886192886e+01 0.0 
0.0 0.0 -1.034620550993e+01 
-1.542788767353e+01 -1.359099188303e+00 0.0 
-1.359099188303e+00 -4.301572861446e+01 0.0 
0.0 0.0 -1.713308488640e+01 
-2.649616253135e+01 1.643322133118e+01 0.0 
1.643322133118e+01 -3.606888793813e+01 0.0 
0.0 0.0 -1.836951514084e+01 
-3.724232981344e+01 -3.196398095404e+00 0.0 
-3.196398095404e+00 -1.076918019995e+02 0.0 
0.0 0.0 -4.308023954390e+01 
-8.571120405513e+01 1.942654486424e+01 0.0 
1.942654486424e+01 -1.534826847927e+02 0.0 
0.0 0.0 -7.135816665436e+01 
-3.614030001838e+01 -2.357689498883e+00 0.0 
-2.357689498883e+00 -1.011295006750e+02 0.0 
0.0 0.0 -4.078094020801e+01 
-2.689907380164e+01 1.276824347583e+01 0.0 
1.276824347583e+01 -6.393272113524e+01 0.0 
0.0 0.0 -2.684953848106e+01 
-2.905383262179e+01 -2.573221713144e+00 0.0 
-2.573221713144e+00 -7.809991228448e+01 0.0 
0.0 0.0 -3.174612347188e+01 
-2.561979515332e+01 -3.372609303280e+00 0.0 
-3.372609303280e+00 -6.877132628513e+01 0.0 
0.0 0.0 -2.791733643153e+01 
-1.151705117244e+02 1.379961925383e+01 0.0 
1.379961925383e+01 -3.034246813902e+02 0.0 
0.0 0.0 -1.251785579344e+02 
-5.352199591982e+01 2.406095688774e+01 0.0 
2.406095688774e+01 -8.389336233215e+01 0.0 
0.0 0.0 -4.082460747559e+01 
-1.496230284668e+02 2.184569122054e+00 0.0 
2.184569122054e+00 -3.610095017932e+02 0.0 
0.0 0.0 -1.527897590780e+02 
-1.714950345793e+01 1.896865081564e+00 0.0 
1.896865081564e+00 -8.623810080177e+00 0.0 
0.0 0.0 -8.273693586284e+00 
-2.945140679891e+01 1.264349115522e+01 0.0 
1.264349115522e+01 -8.012872839244e+01 0.0 
0.0 0.0 -3.247404055740e+01 
-4.579252429916e+01 1.251844924933e+01 0.0 
1.251844924933e+01 -1.443730358450e+02 0.0 
0.0 0.0 -5.664966804326e+01 
-3.444917956685e+01 2.058799089597e+01 0.0 
2.058799089597e+01 -6.043028415383e+01 0.0 
0.0 0.0 -2.806383911620e+01 
-1.065945694825e+02 1.011233758792e+01 0.0 
1.011233758792e+01 -2.881728613187e+02 0.0 
0.0 0.0 -1.180302292404e+02 
-1.519502684214e+02 4.159948020828e+00 0.0 
4.159948020828e+00 -3.662789869974e+02 0.0 
0.0 0.0 -1.550687766256e+02 
-8.386874231661e+01 2.413959039817e+01 0.0 
2.413959039817e+01 -1.556743778368e+02 0.0 
0.0 0.0 -7.146293604602e+01 
-3.484353062874e+01 8.386659926611e+00 0.0 
8.386659926611e+00 -1.053693272894e+02 0.0 
0.0 0.0 -4.166385737545e+01 
-1.175997345789e+02 1.489645104258e+01 0.0 
1.489645104258e+01 -3.044765342600e+02 0.0 
0.0 0.0 -1.262228806517e+02 
-1.055950415564e+02 -5.995804300918e-01 0.0 
-5.995804300918e-01 -2.741058517900e+02 0.0 
0.0 0.0 -1.135102680039e+02 
-5.389503472482e+01 2.492320943791e+01 0.0 
2.492320943791e+01 -1.170047045911e+02 0.0 
0.0 0.0 -5.086992179479e+01 
-7.765355997836e+01 1.826713340041e+01 0.0 
1.826713340041e+01 -1.374718625337e+02 0.0 
0.0 0.0 -6.413762675361e+01 
-1.245098569518e+02 2.788050682039e+01 0.0 
2.788050682039e+01 -3.011919173287e+02 0.0 
0.0 0.0 -1.273105322841e+02 
-4.760423068807e+01 1.244309422436e+01 0.0 
1.244309422436e+01 -1.451256187225e+02 0.0 
0.0 0.0 -5.741895482317e+01 
-2.835918853694e+01 1.332859515975e+01 0.0 
1.332859515975e+01 -6.665278083615e+01 0.0 
0.0 0.0 -2.810359081193e+01 
-6.498653362251e+01 2.379737207138e+01 0.0 
2.379737207138e+01 -1.077917635552e+02 0.0 
0.0 0.0 -5.143348915330e+01 
-9.828057901160e+01 1.452916059831e+01 0.0 
1.452916059831e+01 -2.212120137914e+02 0.0 
0.0 0.0 -9.544777784091e+01 
-5.431813133326e+01 2.340881477513e+01 0.0 
2.340881477513e+01 -1.320702531596e+02 0.0 
0.0 0.0 -5.551651534787e+01 
-6.494805454397e+01 1.359051935000e+01 0.0 
1.359051935000e+01 -1.926968597706e+02 0.0 
0.0 0.0 -7.689347429437e+01 
-4.156849341791e+01 5.913877726355e-01 0.0 
5.913877726355e-01 -6.252372092361e+01 0.0 
0.0 0.0 -3.082766430246e+01 
-2.469224364909e+01 -2.973953402410e+00 0.0 
-2.973953402410e+00 -5.743672886977e+01 0.0 
0.0 0.0 -2.423869175566e+01 
-5.634815820496e+01 1.927202244463e+01 0.0 
1.927202244463e+01 -8.536604559156e+01 0.0 
0.0 0.0 -4.211426113896e+01 
-3.343056661969e+01 9.214705436028e+00 0.0 
9.214705436028e+00 -1.049492191245e+02 0.0 
0.0 0.0 -4.111393572326e+01 
-2.633263404769e+01 4.692339962323e+00 0.0 
4.692339962323e+00 -7.589671096278e+01 0.0 
0.0 0.0 -3.026880350314e+01 
-2.395764737132e+01 -2.016958690021e+00 0.0 
-2.016958690021e+00 -6.088102102316e+01 0.0 
0.0 0.0 -2.505160051834e+01 
-8.256871758310e+01 1.627334158993e+01 0.0 
1.627334158993e+01 -1.515653727696e+02 0.0 
0.0 0.0 -6.984022710583e+01 
-6.114035098199e+01 2.467145766802e+01 0.0 
2.467145766802e+01 -1.048294162781e+02 0.0 
0.0 0.0 -4.939093017804e+01 
-3.706399150189e+01 1.635022565055e+01 0.0 
1.635022565055e+01 -1.043339903420e+02 0.0 
0.0 0.0 -4.201939455316e+01 
-8.790718611724e+01 1.839975332845e+01 0.0 
1.839975332845e+01 -1.612137614403e+02 0.0 
0.0 0.0 -7.433628426727e+01 
-8.758707103147e+01 2.585752352507e+01 0.0 
2.585752352507e+01 -1.718869469641e+02 0.0 
0.0 0.0 -7.744220539868e+01 
-5.731672809650e+01 2.557651196576e+01 0.0 
2.557651196576e+01 -1.185891949448e+02 0.0 
0.0 0.0 -5.237177691239e+01 
-1.536188918904e+02 6.319901734244e+00 0.0 
6.319901734244e+00 -3.657620275618e+02 0.0 
0.0 0.0 -1.554142758357e+02 
-6.744767645747e+01 1.243368481302e+01 0.0 
1.243368481302e+01 -2.040490430065e+02 0.0 
0.0 0.0 -8.104901583920e+01 
-6.098457878882e+01 2.583430659485e+01 0.0 
2.583430659485e+01 -1.203502610100e+02 0.0 
0.0 0.0 -5.400045193964e+01 
-4.919615090933e+01 1.767905745865e+01 0.0 
1.767905745865e+01 -1.398124573232e+02 0.0 
0.0 0.0 -5.630258246976e+01 
-7.262572270951e+01 1.485633560718e+01 0.0 
1.485633560718e+01 -2.104297799147e+02 0.0 
0.0 0.0 -8.451665078725e+01 
-2.982534069446e+01 5.030903411299e+00 0.0 
5.030903411299e+00 -9.296977125327e+01 0.0 
0.0 0.0 -3.643853358432e+01 
-4.532136837844e+01 5.467341025985e+00 0.0 
5.467341025985e+00 -4.819138265591e+01 0.0 
0.0 0.0 -2.765382531030e+01 
-5.125654546106e+01 1.128487943192e+01 0.0 
1.128487943192e+01 -1.575831940088e+02 0.0 
0.0 0.0 -6.225192184096e+01 
-4.036367066661e+01 1.510729170621e+00 0.0 
1.510729170621e+00 -1.242381789139e+02 0.0 
0.0 0.0 -4.898055487416e+01 
-8.179113648034e+01 2.081836465025e+01 0.0 
2.081836465025e+01 -1.538968544392e+02 0.0 
0.0 0.0 -7.030639727587e+01 
-2.225912914428e+01 9.057894073394e-01 0.0 
9.057894073394e-01 -6.116559167359e+00 0.0 
0.0 0.0 -8.112706493493e+00 
-6.125625114713e+01 2.176719102781e+01 0.0 
2.176719102781e+01 -9.025817537477e+01 0.0 
0.0 0.0 -4.505432795657e+01 
-3.603376073110e+01 7.717233835145e+00 0.0 
7.717233835145e+00 -1.165753227049e+02 0.0 
0.0 0.0 -4.538272503080e+01 
-3.008299343008e+01 1.156594947032e+01 0.0 
1.156594947032e+01 -8.018259353544e+01 0.0 
0.0 0.0 -3.267967608965e+01 
-3.158242971399e+01 4.186103218939e+00 0.0 
4.186103218939e+00 -9.350701763560e+01 0.0 
0.0 0.0 -3.712683420488e+01 
-6.836769271304e+01 2.221839904567e+01 0.0 
2.221839904567e+01 -1.245858390361e+02 0.0 
0.0 0.0 -5.748605952475e+01 
-1.885280134113e+01 -2.280394577000e+00 0.0 
-2.280394577000e+00 -4.146463170126e+01 0.0 
0.0 0.0 -1.769522991272e+01 
-3.586426980551e+01 2.031999518812e+01 0.0 
2.031999518812e+01 -7.715042733525e+01 0.0 
0.0 0.0 -3.350440914223e+01 
-7.537475292964e+01 1.361537711967e+01 0.0 
1.361537711967e+01 -2.219086140858e+02 0.0 
0.0 0.0 -8.878501010463e+01 
-6.070043438129e+01 2.154058208006e+01 0.0 
2.154058208006e+01 -1.038666216669e+02 0.0 
0.0 0.0 -4.897011681445e+01 
-5.462310796450e+01 8.711019474412e+00 0.0 
8.711019474412e+00 -6.944382293241e+01 0.0 
0.0 0.0 -3.682007926907e+01 
-2.253849796151e+01 2.884762220925e+00 0.0 
2.884762220925e+00 -5.135313486964e+01 0.0 
0.0 0.0 -2.176748984935e+01 
-3.808316917700e+01 1.629520622976e+00 0.0 
1.629520622976e+00 -1.232981153747e+02 0.0 
0.0 0.0 -4.801438536550e+01 
-3.820627061111e+01 1.337804008085e-01 0.0 
1.337804008085e-01 -1.155727503561e+02 0.0 
0.0 0.0 -4.573370629016e+01 
-3.302842127845e+01 2.035917711742e+01 0.0 
2.035917711742e+01 -5.940822910191e+01 0.0 
0.0 0.0 -2.733099511411e+01 
-8.007073754535e+01 2.198169896100e+01 0.0 
2.198169896100e+01 -1.394886140373e+02 0.0 
0.0 0.0 -6.546780547478e+01 
-3.705708642917e+01 2.113341222715e+01 0.0 
2.113341222715e+01 -7.783050220620e+01 0.0 
0.0 0.0 -3.406627659061e+01 
-4.685696720496e+01 9.319304999655e+00 0.0 
9.319304999655e+00 -1.511999781973e+02 0.0 
0.0 0.0 -5.901708362069e+01 
-4.337154097628e+01 1.052970586144e+01 0.0 
1.052970586144e+01 -1.393083675847e+02 0.0 
0.0 0.0 -5.440397256831e+01 
-2.456940903650e+01 3.296673786363e+00 0.0 
3.296673786363e+00 -5.834451817295e+01 0.0 
0.0 0.0 -2.447417816283e+01 
-5.140259730889e+01 1.637095759936e+01 0.0 
1.637095759936e+01 -1.531055760997e+02 0.0 
0.0 0.0 -6.095245202258e+01 
-2.475843248054e+01 1.157556859433e+01 0.0 
1.157556859433e+01 -4.789061258819e+01 0.0 
0.0 0.0 -2.139471352062e+01 
-1.078882031334e+02 2.645273777656e+01 0.0 
2.645273777656e+01 -2.403867838645e+02 0.0 
0.0 0.0 -1.040824960994e+02 
-1.112089890326e+02 3.044063303786e+01 0.0 
3.044063303786e+01 -2.509467804941e+02 0.0 
0.0 0.0 -1.082467308580e+02 
-5.735277059713e+01 2.191990800989e+01 0.0 
2.191990800989e+01 -1.476622297701e+02 0.0 
0.0 0.0 -6.110450011017e+01 
-3.160351828168e+01 7.110653182530e+00 0.0 
7.110653182530e+00 -9.945364225792e+01 0.0 
0.0 0.0 -3.891714816188e+01 
-2.862325822906e+01 9.449880055687e+00 0.0 
9.449880055687e+00 -7.626260905450e+01 0.0 
0.0 0.0 -3.106576018507e+01 
-6.457200873579e+01 2.413676964900e+01 0.0 
2.413676964900e+01 -1.372907136429e+02 0.0 
0.0 0.0 -6.015881671360e+01 
-3.073841122743e+01 7.758509264159e+00 0.0 
7.758509264159e+00 -8.839261567984e+01 0.0 
0.0 0.0 -3.533930807218e+01 
-3.604105403764e+01 4.979435014962e-02 0.0 
4.979435014962e-02 -1.146368030312e+02 0.0 
0.0 0.0 -4.480335712066e+01 
-5.362096536446e+01 2.339240049447e+01 0.0 
2.339240049447e+01 -1.164988428417e+02 0.0 
0.0 0.0 -5.063594246184e+01 
-9.191012253004e+01 9.249908820065e+00 0.0 
9.249908820065e+00 -1.990011769165e+02 0.0 
0.0 0.0 -8.687338983397e+01 
-3.802242800598e+01 9.786176661419e+00 0.0 
9.786176661419e+00 -1.219966150963e+02 0.0 
0.0 0.0 -4.760571293069e+01 
-8.222427540032e+01 1.742105063417e+01 0.0 
1.742105063417e+01 -2.323696492707e+02 0.0 
0.0 0.0 -9.397817740131e+01 
-2.547874088616e+01 1.089476208175e+01 0.0 
1.089476208175e+01 -6.016881797382e+01 0.0 
0.0 0.0 -2.529426765799e+01 
-1.513719817694e+02 1.875690825552e+01 0.0 
1.875690825552e+01 -3.634277209464e+02 0.0 
0.0 0.0 -1.540399108147e+02 
-2.952944752771e+01 8.822694882129e+00 0.0 
8.822694882129e+00 -8.812716370824e+01 0.0 
0.0 0.0 -3.489698337078e+01 
-5.718628244889e+01 2.332399096073e+01 0.0 
2.332399096073e+01 -1.335545721342e+02 0.0 
0.0 0.0 -5.682225637493e+01 
-2.488890510249e+01 2.760700924943e+00 0.0 
2.760700924943e+00 -6.863621371425e+01 0.0 
0.0 0.0 -2.765753564502e+01 
-8.660340930961e+01 9.717209503040e+00 0.0 
9.717209503040e+00 -2.486704029569e+02 0.0 
0.0 0.0 -1.001821436800e+02 
-4.938777170435e+01 1.131693672240e+01 0.0 
1.131693672240e+01 -1.567993185746e+02 0.0 
0.0 0.0 -6.145612708368e+01 
-3.918700684705e+01 -4.300818798459e-01 0.0 
-4.300818798459e-01 -1.242081200437e+02 0.0 
0.0 0.0 -4.861853806722e+01 
-5.730160318192e+01 2.524941780662e+01 0.0 
2.524941780662e+01 -1.024077032943e+02 0.0 
0.0 0.0 -4.751279194287e+01 
-1.187881591007e+02 3.438184606670e+01 0.0 
3.438184606670e+01 -2.741938785752e+02 0.0 
0.0 0.0 -1.174946113028e+02 
-4.111370342946e+01 8.468223466736e+00 0.0 
8.468223466736e+00 -1.338171180081e+02 0.0 
0.0 0.0 -5.207924643127e+01 
-7.748649600690e+01 1.417865271060e+01 0.0 
1.417865271060e+01 -2.229186022609e+02 0.0 
0.0 0.0 -8.972152948034e+01 
-2.569271592880e+01 9.260641869425e+00 0.0 
9.260641869425e+00 -5.994020076407e+01 0.0 
0.0 0.0 -2.528987500786e+01 
-6.292639669299e+01 5.513667258402e+00 0.0 
5.513667258402e+00 -1.003868261094e+02 0.0 
0.0 0.0 -4.859396684072e+01 
-1.024845325319e+02 8.420159566000e+00 0.0 
8.420159566000e+00 -2.797896855278e+02 0.0 
0.0 0.0 -1.142822654179e+02 
-2.996998029158e+01 1.516953366616e+01 0.0 
1.516953366616e+01 -6.936642104433e+01 0.0 
0.0 0.0 -2.940092040077e+01 
-6.125313796487e+01 6.241617312878e+00 0.0 
6.241617312878e+00 -9.194902435754e+01 0.0 
0.0 0.0 -4.556064869672e+01 
-1.260442012194e+02 3.504642074405e+01 0.0 
3.504642074405e+01 -2.969364908795e+02 0.0 
0.0 0.0 -1.264942076297e+02 
-1.125689084404e+02 9.752218222205e+00 0.0 
9.752218222205e+00 -2.985698993381e+02 0.0 
0.0 0.0 -1.229416423336e+02 
-1.165176134000e+02 3.342021022529e+01 0.0 
3.342021022529e+01 -2.663745057512e+02 0.0 
0.0 0.0 -1.144676357453e+02 
-6.416137946004e+01 9.084450456884e+00 0.0 
9.084450456884e+00 -9.251872909964e+01 0.0 
0.0 0.0 -4.660403256790e+01 
-8.751148777593e+01 2.740759372983e+01 0.0 
2.740759372983e+01 -1.834725688056e+02 0.0 
0.0 0.0 -8.089521697446e+01 
-2.733490093795e+01 1.505254204735e+01 0.0 
1.505254204735e+01 -5.253328140357e+01 0.0 
0.0 0.0 -2.356045470245e+01 
-5.010074001408e+01 2.457341721463e+01 0.0 
2.457341721463e+01 -8.267964400390e+01 0.0 
0.0 0.0 -3.943411520539e+01 
-6.093615777233e+01 2.355784130628e+01 0.0 
2.355784130628e+01 -1.198648139616e+02 0.0 
0.0 0.0 -5.384029152017e+01 
-6.481866680544e+01 2.569426707431e+01 0.0 
2.569426707431e+01 -1.225695866178e+02 0.0 
0.0 0.0 -5.581647602697e+01 
-5.129951511905e+01 2.205090188414e+01 0.0 
2.205090188414e+01 -1.301124261624e+02 0.0 
0.0 0.0 -5.402358238443e+01 
-1.312288064381e+02 3.397467378560e+01 0.0 
3.397467378560e+01 -3.117142531194e+02 0.0 
0.0 0.0 -1.324829178672e+02 
-6.192606961580e+01 1.116052978809e+01 0.0 
1.116052978809e+01 -8.737119359507e+01 0.0 
0.0 0.0 -4.438917896326e+01 
-5.352387911963e+01 2.075243480269e+01 0.0 
2.075243480269e+01 -6.863799047897e+01 0.0 
0.0 0.0 -3.624856087958e+01 
-4.516348141280e+01 1.023163881526e+01 0.0 
1.023163881526e+01 -1.400032658900e+02 0.0 
0.0 0.0 -5.515002419083e+01 
-3.135739084706e+01 -3.421756350853e+00 0.0 
-3.421756350853e+00 -8.841546684668e+01 0.0 
0.0 0.0 -3.553185730812e+01 
-4.640774837479e+01 2.322341898117e+01 0.0 
2.322341898117e+01 -6.404757702761e+01 0.0 
0.0 0.0 -3.273659762072e+01 
-3.091210618193e+01 1.434601092364e+01 0.0 
1.434601092364e+01 -8.337192850995e+01 0.0 
0.0 0.0 -3.388521040756e+01 
-3.410178996338e+01 2.627092363223e-01 0.0 
2.627092363223e-01 -4.491148212861e+01 0.0 
0.0 0.0 -2.330398162760e+01 
-4.144922192953e+01 -2.945771370376e-01 0.0 
-2.945771370376e-01 -1.251962462470e+02 0.0 
0.0 0.0 -4.959364045296e+01 
-3.967356910022e+01 9.240487692287e+00 0.0 
9.240487692287e+00 -1.225858915121e+02 0.0 
0.0 0.0 -4.827783818369e+01 
-8.446106071138e+01 1.976799733916e+01 0.0 
1.976799733916e+01 -1.598279598640e+02 0.0 
0.0 0.0 -7.288670617261e+01 
-3.174820104662e+01 1.365341880369e+01 0.0 
1.365341880369e+01 -8.359827924498e+01 0.0 
0.0 0.0 -3.420394408748e+01 
-5.338971337933e+01 2.302270324721e+01 0.0 
2.302270324721e+01 -1.002212667864e+02 0.0 
0.0 0.0 -4.568329404972e+01 
-8.022875523126e+01 1.286417904937e+01 0.0 
1.286417904937e+01 -2.337053362154e+02 0.0 
0.0 0.0 -9.378022743399e+01 
-7.757753665227e+01 2.985752326036e+00 0.0 
2.985752326036e+00 -2.248474150115e+02 0.0 
0.0 0.0 -9.032748549914e+01 
-1.387436165669e+02 3.044592327669e+01 0.0 
3.044592327669e+01 -3.320733966705e+02 0.0 
0.0 0.0 -1.408451039712e+02 
-4.030601112718e+01 2.364948966072e+01 0.0 
2.364948966072e+01 -6.250302069034e+01 0.0 
0.0 0.0 -3.044270954526e+01 
-3.500927243951e+01 2.509479079051e+00 0.0 
2.509479079051e+00 -1.133648721112e+02 0.0 
0.0 0.0 -4.411224336522e+01 
-5.492668179359e+01 -3.737824844095e-01 0.0 
-3.737824844095e-01 -1.604383709372e+02 0.0 
0.0 0.0 -6.420951581924e+01 
-2.976174153810e+01 1.762682704461e+01 0.0 
1.762682704461e+01 -5.545459125580e+01 0.0 
0.0 0.0 -2.516489983817e+01 
-2.958827836727e+01 1.578316246586e+01 0.0 
1.578316246586e+01 -6.930035286688e+01 0.0 
0.0 0.0 -2.926658937024e+01 
-9.452239804404e+01 2.683690013653e+01 0.0 
2.683690013653e+01 -1.936718155635e+02 0.0 
0.0 0.0 -8.605826408226e+01 
-6.103306922266e+01 2.549791849690e+01 0.0 
2.549791849690e+01 -1.358158315706e+02 0.0 
0.0 0.0 -5.865467023797e+01 
-3.617311727406e+01 2.209956282620e+01 0.0 
2.209956282620e+01 -6.134616502587e+01 0.0 
0.0 0.0 -2.885578468998e+01 
-4.621241132524e+01 2.232335488960e+01 0.0 
2.232335488960e+01 -8.084919588129e+01 0.0 
0.0 0.0 -3.771848216196e+01 
-1.460924577832e+02 2.392188133972e+01 0.0 
2.392188133972e+01 -3.518632533152e+02 0.0 
0.0 0.0 -1.489867133295e+02 
-1.349469875107e+02 2.335402730078e+01 0.0 
2.335402730078e+01 -3.318432415635e+02 0.0 
0.0 0.0 -1.396370687223e+02 
-9.229342229508e+01 2.396887590542e+01 0.0 
2.396887590542e+01 -1.918421310451e+02 0.0 
0.0 0.0 -8.484066600204e+01 
-8.329087732101e+01 2.067044327939e+01 0.0 
2.067044327939e+01 -1.464386656712e+02 0.0 
0.0 0.0 -6.851886289767e+01 
-7.537401445310e+01 4.018380876928e+00 0.0 
4.018380876928e+00 -2.166024667827e+02 0.0 
0.0 0.0 -8.719294437075e+01 
-3.988328500593e+01 2.052444752625e+01 0.0 
2.052444752625e+01 -9.417297719235e+01 0.0 
0.0 0.0 -3.981687865948e+01 
-3.322306921060e+01 6.246993459477e+00 0.0 
6.246993459477e+00 -9.994357616455e+01 0.0 
0.0 0.0 -3.954999361254e+01 
-3.780142223425e+01 7.088405106466e+00 0.0 
7.088405106466e+00 -1.171866234840e+02 0.0 
0.0 0.0 -4.609641371548e+01 
-5.754800466709e+01 2.461453358181e+01 0.0 
2.461453358181e+01 -1.339804734314e+02 0.0 
0.0 0.0 -5.705854342954e+01 
-8.394021540222e+01 1.100124173374e+01 0.0 
1.100124173374e+01 -2.391797458411e+02 0.0 
0.0 0.0 -9.653598837300e+01 
-6.981783707239e+01 5.287770802095e-01 0.0 
5.287770802095e-01 -1.948979830338e+02 0.0 
0.0 0.0 -7.901474603184e+01 
-9.071307203260e+01 2.133984034916e+01 0.0 
2.133984034916e+01 -1.817612450314e+02 0.0 
0.0 0.0 -8.134229511919e+01 
-3.718590832176e+01 2.129590239100e+00 0.0 
2.129590239100e+00 -1.142023217368e+02 0.0 
0.0 0.0 -4.501646901757e+01 
-4.844865035774e+01 2.046631795815e+01 0.0 
2.046631795815e+01 -1.279045433574e+02 0.0 
0.0 0.0 -5.250595811454e+01 
-5.710330959189e+01 2.361337647714e+01 0.0 
2.361337647714e+01 -1.179581823728e+02 0.0 
0.0 0.0 -5.211844758939e+01 
-4.271298271678e+01 1.971530671456e+01 0.0 
1.971530671456e+01 -1.100964912348e+02 0.0 
0.0 0.0 -4.544284218546e+01 
-1.145716682480e+02 3.219654769200e+01 0.0 
3.219654769200e+01 -2.589684091905e+02 0.0 
0.0 0.0 -1.116620232315e+02 
-1.086467748051e+02 2.821064513053e+01 0.0 
2.821064513053e+01 -2.449958914809e+02 0.0 
0.0 0.0 -1.056927998858e+02 
-1.053319423874e+02 2.777535193077e+01 0.0 
2.777535193077e+01 -2.254817211871e+02 0.0 
0.0 0.0 -9.884409907234e+01 
-8.335372614132e+01 5.311304853541e+00 0.0 
5.311304853541e+00 -2.350903003006e+02 0.0 
0.0 0.0 -9.513320793259e+01 
-8.441940941369e+01 1.543772257201e+01 0.0 
1.543772257201e+01 -1.591887070613e+02 0.0 
0.0 0.0 -7.268243494251e+01 
-2.824052833578e+01 1.439971799555e+01 0.0 
1.439971799555e+01 -6.678014078562e+01 0.0 
0.0 0.0 -2.810620073642e+01 
-4.301314885416e+01 8.064817242531e+00 0.0 
8.064817242531e+00 -1.345333155919e+02 0.0 
0.0 0.0 -5.286393933383e+01 
-2.785372054081e+01 3.537738178066e+00 0.0 
3.537738178066e+00 -7.625801333386e+01 0.0 
0.0 0.0 -3.083352016240e+01 
-3.905888641142e+01 2.218560900531e+01 0.0 
2.218560900531e+01 -7.903878852795e+01 0.0 
0.0 0.0 -3.502930248181e+01 
-4.406991841113e+01 3.823585836444e+00 0.0 
3.823585836444e+00 -4.716530402108e+01 0.0 
0.0 0.0 -2.697056672966e+01 
-5.995301519630e+01 5.650559438542e+00 0.0 
5.650559438542e+00 -9.025932278004e+01 0.0 
0.0 0.0 -4.466370139290e+01 
-1.406573094519e+02 1.824173249735e+01 0.0 
1.824173249735e+01 -3.464904476678e+02 0.0 
0.0 0.0 -1.457443271359e+02 
-9.286257817586e+01 2.567378369360e+01 0.0 
2.567378369360e+01 -2.027464741338e+02 0.0 
0.0 0.0 -8.828271569290e+01 
-6.446102008797e+01 2.021399764079e+01 0.0 
2.021399764079e+01 -1.067859452708e+02 0.0 
0.0 0.0 -5.097408960764e+01 
-6.833461741590e+01 2.403114518310e+01 0.0 
2.403114518310e+01 -1.394602995277e+02 0.0 
0.0 0.0 -6.193847508309e+01 
-2.828289826725e+01 3.121209157292e+00 0.0 
3.121209157292e+00 -8.591669446508e+01 0.0 
0.0 0.0 -3.385987781970e+01 
-2.088867547942e+01 -2.839436629035e+00 0.0 
-2.839436629035e+00 -4.214424552865e+01 0.0 
0.0 0.0 -1.850987630242e+01 
-4.843266401752e+01 1.446728498369e+01 0.0 
1.446728498369e+01 -1.489207704737e+02 0.0 
0.0 0.0 -5.880603034738e+01 
-5.486557082912e+01 2.124213710542e+01 0.0 
2.124213710542e+01 -1.456616301283e+02 0.0 
0.0 0.0 -5.975816028724e+01 
-5.277366394691e+01 1.657310272569e+01 0.0 
1.657310272569e+01 -1.537287896967e+02 0.0 
0.0 0.0 -6.155073609308e+01 
-2.334300470776e+01 1.257617037627e+01 0.0 
1.257617037627e+01 -2.991955944416e+01 0.0 
0.0 0.0 -1.557876924558e+01 
-4.060310624614e+01 -7.588870003207e-03 0.0 
-7.588870003207e-03 -6.149111352821e+01 0.0 
0.0 0.0 -3.022826593231e+01 
-2.996655911494e+01 -2.490282471172e+00 0.0 
-2.490282471172e+00 -8.124066121235e+01 0.0 
0.0 0.0 -3.296216609819e+01 
-3.121167166989e+01 1.083730084694e+01 0.0 
1.083730084694e+01 -9.281310422669e+01 0.0 
0.0 0.0 -3.680743276898e+01 
-1.553892574272e+02 1.880619000883e+01 0.0 
1.880619000883e+01 -3.639082673301e+02 0.0 
0.0 0.0 -1.553892574272e+02 
-8.963445959247e+01 1.763126301841e+01 0.0 
1.763126301841e+01 -2.466773191257e+02 0.0 
0.0 0.0 -1.004935336155e+02 
-5.139541185105e+01 1.590573713845e+01 0.0 
1.590573713845e+01 -6.688463687759e+01 0.0 
0.0 0.0 -3.508401461859e+01 
-2.145860288845e+01 -8.955553009032e-01 0.0 
-8.955553009032e-01 -5.936180299829e+01 0.0 
0.0 0.0 -2.384612176602e+01 
-5.055059149273e+01 2.133363515824e+01 0.0 
2.133363515824e+01 -1.296534626182e+02 0.0 
0.0 0.0 -5.366121623328e+01 
-5.009676140975e+01 1.451660778510e+01 0.0 
1.451660778510e+01 -1.496371520862e+02 0.0 
0.0 0.0 -5.952017404879e+01 
-6.866293331061e+01 2.520387577767e+01 0.0 
2.520387577767e+01 -1.252539465647e+02 0.0 
0.0 0.0 -5.777506396259e+01 
-1.207858776957e+02 3.474830372070e+01 0.0 
3.474830372070e+01 -2.817761662103e+02 0.0 
0.0 0.0 -1.203686131718e+02 
-4.953247136799e+01 2.182731420465e+01 0.0 
2.182731420465e+01 -8.199436720427e+01 0.0 
0.0 0.0 -3.905805157168e+01 
-6.467589969546e+01 2.608696767335e+01 0.0 
2.608696767335e+01 -1.376935033497e+02 0.0 
0.0 0.0 -6.031082091353e+01 
-6.813065262328e+01 -7.684330385471e-01 0.0 
-7.684330385471e-01 -1.939046376613e+02 0.0 
0.0 0.0 -7.821058708539e+01 
-8.678963307024e+01 1.895638675126e+01 0.0 
1.895638675126e+01 -1.663849050555e+02 0.0 
0.0 0.0 -7.555236143771e+01 
-8.587439208836e+01 4.173930107868e+00 0.0 
4.173930107868e+00 -2.435567808191e+02 0.0 
0.0 0.0 -9.842935187224e+01 
-1.238867473414e+02 3.529818006808e+01 0.0 
3.529818006808e+01 -2.893999171006e+02 0.0 
0.0 0.0 -1.235859993326e+02 
-1.112926093232e+02 3.087745692671e+01 0.0 
3.087745692671e+01 -2.610160884208e+02 0.0 
0.0 0.0 -1.112926093232e+02 
-9.994093861271e+01 2.388874722704e+01 0.0 
2.388874722704e+01 -2.345288567630e+02 0.0 
0.0 0.0 -9.994093861271e+01 
-1.043731069187e+02 2.761601637012e+01 0.0 
2.761601637012e+01 -2.448705828102e+02 0.0 
0.0 0.0 -1.043731069187e+02 
-7.210600264528e+01 2.358494541008e+01 0.0 
2.358494541008e+01 -1.420337563983e+02 0.0 
0.0 0.0 -6.384192771308e+01 
-8.959671738848e+01 2.193956369030e+01 0.0 
2.193956369030e+01 -1.681348817577e+02 0.0 
0.0 0.0 -7.691947974385e+01 
-9.616258823482e+01 2.578251633309e+01 0.0 
2.578251633309e+01 -2.085741809126e+02 0.0 
0.0 0.0 -9.102103074423e+01 
-4.164509984489e+01 1.936986248499e+01 0.0 
1.936986248499e+01 -1.095818193111e+02 0.0 
0.0 0.0 -4.496807574679e+01 
-3.857838474363e+01 1.995170116418e+01 0.0 
1.995170116418e+01 -9.351468647367e+01 0.0 
0.0 0.0 -3.922792136519e+01 
-6.609235708678e+01 9.842157779862e-02 0.0 
9.842157779862e-02 -1.842603556498e+02 0.0 
0.0 0.0 -7.470581382097e+01 
-9.347915003508e+01 2.436372131783e+01 0.0 
2.436372131783e+01 -1.835750647410e+02 0.0 
0.0 0.0 -8.271626443283e+01 
-1.285784182889e+02 3.466538466729e+01 0.0 
3.466538466729e+01 -3.043750624880e+02 0.0 
0.0 0.0 -1.294860442331e+02 
-8.858820605136e+01 1.804848285769e+01 0.0 
1.804848285769e+01 -1.732304175331e+02 0.0 
0.0 0.0 -7.814558707534e+01 
-8.086902480834e+01 1.621016429418e+01 0.0 
1.621016429418e+01 -2.284662121567e+02 0.0 
0.0 0.0 -9.240057108950e+01 
-9.172821366852e+01 2.094811857855e+01 0.0 
2.094811857855e+01 -1.751306384089e+02 0.0 
0.0 0.0 -7.965765562322e+01 
-8.534417080276e+01 2.464165780693e+01 0.0 
2.464165780693e+01 -2.179756717564e+02 0.0 
0.0 0.0 -9.059595276776e+01 
-5.100930029110e+01 1.917062635340e+01 0.0 
1.917062635340e+01 -1.425110395592e+02 0.0 
0.0 0.0 -5.765610195510e+01 
-3.787076508607e+01 2.120431656556e+01 0.0 
2.120431656556e+01 -7.838527640220e+01 0.0 
0.0 0.0 -3.447681244648e+01 
-2.641649547270e+01 8.679121306357e+00 0.0 
8.679121306357e+00 -7.157815316969e+01 0.0 
0.0 0.0 -2.899839459272e+01 
-9.166333498073e+01 1.509099446271e+01 0.0 
1.509099446271e+01 -2.037925033306e+02 0.0 
0.0 0.0 -8.823675149339e+01 
-3.930457170752e+01 1.798002395007e+01 0.0 
1.798002395007e+01 -1.073125775117e+02 0.0 
0.0 0.0 -4.358514476576e+01 
-1.161308278692e+02 2.876526095823e+01 0.0 
2.876526095823e+01 -2.779957806575e+02 0.0 
0.0 0.0 -1.178379825580e+02 
-6.458194053614e+01 -1.257382588759e+00 0.0 
-1.257382588759e+00 -1.833288984585e+02 0.0 
0.0 0.0 -7.397325169838e+01 
-3.911179858936e+01 -1.354531343765e+00 0.0 
-1.354531343765e+00 -1.155928062811e+02 0.0 
0.0 0.0 -4.601138146113e+01 
-1.455981883335e+02 1.658430033642e+01 0.0 
1.658430033642e+01 -3.503023812042e+02 0.0 
0.0 0.0 -1.483701708613e+02 
-3.294956801985e+01 1.277799346361e+01 0.0 
1.277799346361e+01 -9.677252360770e+01 0.0 
0.0 0.0 -3.851662748826e+01 
-1.147499411754e+02 3.207264768124e+01 0.0 
3.207264768124e+01 -2.690831960758e+02 0.0 
0.0 0.0 -1.147499411754e+02 
-1.007242059679e+02 2.452509141366e+01 0.0 
2.452509141366e+01 -2.236703706013e+02 0.0 
0.0 0.0 -9.691837297076e+01 
-6.445992121392e+01 2.383777600158e+01 0.0 
2.383777600158e+01 -1.520683376270e+02 0.0 
0.0 0.0 -6.455847765228e+01 
-1.420368445628e+01 -2.004335358154e+00 0.0 
-2.004335358154e+00 -2.480186881227e+01 0.0 
0.0 0.0 -1.172871480939e+01 
-1.215704523827e+02 3.315157961160e+01 0.0 
3.315157961160e+01 -2.849977222263e+02 0.0 
0.0 0.0 -1.215704523827e+02 
-1.426652829440e+02 1.987838408870e+01 0.0 
1.987838408870e+01 -3.432863292322e+02 0.0 
0.0 0.0 -1.453854836528e+02 
-3.697503172568e+01 -1.689390478536e+00 0.0 
-1.689390478536e+00 -1.146147141912e+02 0.0 
0.0 0.0 -4.507692377507e+01 
-8.596526919239e+01 1.557475497418e+01 0.0 
1.557475497418e+01 -2.409576200916e+02 0.0 
0.0 0.0 -9.767686678519e+01 
-1.406703740721e+02 2.885060862608e+01 0.0 
2.885060862608e+01 -3.376537540404e+02 0.0 
0.0 0.0 -1.430972384338e+02 
-1.073335737717e+01 -8.107467597034e-01 0.0 
-8.107467597034e-01 -8.880399964520e+00 0.0 
0.0 0.0 -6.454040345295e+00 
-4.488480472153e+01 1.855851155660e+01 0.0 
1.855851155660e+01 -1.250064922006e+02 0.0 
0.0 0.0 -5.056738907665e+01 
-6.824904841455e+01 2.436831807733e+01 0.0 
2.436831807733e+01 -1.542520004336e+02 0.0 
0.0 0.0 -6.635031465446e+01 
-6.082596340777e+01 2.301440987869e+01 0.0 
2.301440987869e+01 -1.499248506669e+02 0.0 
0.0 0.0 -6.282524422240e+01 
-6.077311086834e+01 2.390209249395e+01 0.0 
2.390209249395e+01 -1.353852786322e+02 0.0 
0.0 0.0 -5.844751685016e+01 
-2.785978833971e+01 1.068040876865e+01 0.0 
1.068040876865e+01 -7.620419020921e+01 0.0 
0.0 0.0 -3.081919356468e+01 
-1.284844375850e+02 3.305973342088e+01 0.0 
3.305973342088e+01 -3.011303543651e+02 0.0 
0.0 0.0 -1.284844375850e+02 
-4.881656317864e+01 9.144674114712e+00 0.0 
9.144674114712e+00 -1.519905583474e+02 0.0 
0.0 0.0 -5.984213645781e+01 
-2.360747408742e+01 1.120684531047e+00 0.0 
1.120684531047e+00 -5.138228156991e+01 0.0 
0.0 0.0 -2.209692669720e+01 
-1.503661944119e+02 7.006506408786e+00 0.0 
7.006506408786e+00 -3.641158728371e+02 0.0 
0.0 0.0 -1.539446201747e+02 
-1.638245808494e+01 -1.915830348822e+00 0.0 
-1.915830348822e+00 -2.524155256975e+01 0.0 
0.0 0.0 -1.208720319641e+01 
-4.288685195514e+01 2.226950853124e+01 0.0 
2.226950853124e+01 -7.987460144601e+01 0.0 
0.0 0.0 -3.642843602034e+01 
-2.269068070305e+01 -2.484370882315e+00 0.0 
-2.484370882315e+00 -5.842089107598e+01 0.0 
0.0 0.0 -2.393347153371e+01 
-4.548286757063e+01 1.983892856004e+01 0.0 
1.983892856004e+01 -6.304143987305e+01 0.0 
0.0 0.0 -3.215729223310e+01 
-1.480817262871e+02 2.213937536133e+01 0.0 
2.213937536133e+01 -3.561087667145e+02 0.0 
0.0 0.0 -1.508571479005e+02 
-1.351814171390e+02 3.175126400172e+01 0.0 
3.175126400172e+01 -3.167566399911e+02 0.0 
0.0 0.0 -1.351814171390e+02 
-6.460978118406e+01 2.305921590303e+01 0.0 
2.305921590303e+01 -1.219571935928e+02 0.0 
0.0 0.0 -5.557009243304e+01 
-1.883966325346e+01 -2.634630206100e+00 0.0 
-2.634630206100e+00 -4.187753898244e+01 0.0 
0.0 0.0 -1.781516067077e+01 
-2.114785925425e+01 8.078046611630e-01 0.0 
8.078046611630e-01 -4.263267449039e+01 0.0 
0.0 0.0 -1.873416012339e+01 
-2.570567777888e+01 -2.812859999480e+00 0.0 
-2.812859999480e+00 -5.796212165746e+01 0.0 
0.0 0.0 -2.470033983090e+01 
-1.259518131780e+02 8.091601840076e+00 0.0 
8.091601840076e+00 -3.191437821728e+02 0.0 
0.0 0.0 -1.331286786052e+02 
-4.364490689316e+01 4.808919662478e+00 0.0 
4.808919662478e+00 -4.913592565600e+01 0.0 
0.0 0.0 -2.743424976475e+01 
-5.709202691373e+01 1.872107570598e+01 0.0 
1.872107570598e+01 -7.279544885243e+01 0.0 
0.0 0.0 -3.856624272985e+01 
-1.410761814226e+02 2.969049777140e+01 0.0 
2.969049777140e+01 -3.305110899860e+02 0.0 
0.0 0.0 -1.410761814226e+02 
-4.096882855860e+01 3.404735763513e+00 0.0 
3.404735763513e+00 -4.777143469082e+01 0.0 
0.0 0.0 -2.622207897483e+01 
-1.049003045464e+02 2.393551920552e+01 0.0 
2.393551920552e+01 -2.351535728350e+02 0.0 
0.0 0.0 -1.016161632144e+02 
-8.874158325864e+01 2.295429757353e+01 0.0 
2.295429757353e+01 -2.318684222621e+02 0.0 
0.0 0.0 -9.578300165621e+01 
-5.421661205767e+01 3.427367521883e+00 0.0 
3.427367521883e+00 -7.932899984926e+01 0.0 
0.0 0.0 -3.966368357208e+01 
-3.085687646153e+01 1.728240931146e+01 0.0 
1.728240931146e+01 -7.123153673155e+01 0.0 
0.0 0.0 -3.022652395792e+01 
-8.380501303848e+01 1.483444389012e+01 0.0 
1.483444389012e+01 -2.398924442884e+02 0.0 
0.0 0.0 -9.670923719805e+01 
-2.629354445663e+01 5.107253329801e+00 0.0 
5.107253329801e+00 -6.624647322019e+01 0.0 
0.0 0.0 -2.736200530305e+01 
-1.459987521168e+02 2.690138000667e+01 0.0 
2.690138000667e+01 -3.419970882725e+02 0.0 
0.0 0.0 -1.459987521168e+02 
-1.077936666107e+02 2.929205002732e+01 0.0 
2.929205002732e+01 -2.528518887583e+02 0.0 
0.0 0.0 -1.077936666107e+02 
-1.021250239739e+02 2.588991534792e+01 0.0 
2.588991534792e+01 -2.396250559390e+02 0.0 
0.0 0.0 -1.021250239739e+02 
-8.815936928059e+01 5.212746422364e+00 0.0 
5.212746422364e+00 -2.447464473613e+02 0.0 
0.0 0.0 -9.947174499256e+01 
-6.229705051724e+01 -1.778292696513e-01 0.0 
-1.778292696513e-01 -1.734142676662e+02 0.0 
0.0 0.0 -7.031339545503e+01 
-5.193708869514e+01 1.953757244156e+01 0.0 
1.953757244156e+01 -1.429847513960e+02 0.0 
0.0 0.0 -5.807655202734e+01 
-9.078235337434e+01 3.989040462712e+00 0.0 
3.989040462712e+00 -2.529230473803e+02 0.0 
0.0 0.0 -1.027116202264e+02 
-1.500376487562e+02 2.384887561788e+01 0.0 
2.384887561788e+01 -3.514211804311e+02 0.0 
0.0 0.0 -1.500376487562e+02 
-3.225133751437e+01 9.901251560409e+00 0.0 
9.901251560409e+00 -9.305411009088e+01 0.0 
0.0 0.0 -3.719163428157e+01 
-4.133386994769e+01 9.619327910280e-01 0.0 
9.619327910280e-01 -1.329687627894e+02 0.0 
0.0 0.0 -5.189078982112e+01 
-4.475170380617e+01 5.017575034537e-01 0.0 
5.017575034537e-01 -1.424191091984e+02 0.0 
0.0 0.0 -5.575124390136e+01 
-5.775698630599e+01 3.628893241810e+00 0.0 
3.628893241810e+00 -9.003545282494e+01 0.0 
0.0 0.0 -4.393773173928e+01 
-1.529232108381e+02 1.710470153373e+01 0.0 
1.710470153373e+01 -3.665109116425e+02 0.0 
0.0 0.0 -1.554302367442e+02 
-2.288983695521e+01 -2.676878157575e+00 0.0 
-2.676878157575e+00 -4.163006456747e+01 0.0 
0.0 0.0 -1.895597045681e+01 
-1.537636952977e+02 2.038528082701e+01 0.0 
2.038528082701e+01 -3.601152890279e+02 0.0 
0.0 0.0 -1.537636952977e+02 
-4.238973132630e+01 -8.580111834688e-01 0.0 
-8.580111834688e-01 -1.331907505929e+02 0.0 
0.0 0.0 -5.227414457575e+01 
-1.183840004904e+02 3.289379704246e+01 0.0 
3.289379704246e+01 -2.775626678108e+02 0.0 
0.0 0.0 -1.183840004904e+02 
-9.870449285953e+01 2.842708382284e+01 0.0 
2.842708382284e+01 -2.102951985730e+02 0.0 
0.0 0.0 -9.229990742977e+01 
-1.272165802178e+01 -7.824827597423e-01 0.0 
-7.824827597423e-01 -7.918806045076e+00 0.0 
0.0 0.0 -5.792139220058e+00 
-4.803052460901e+01 1.746988318584e+01 0.0 
1.746988318584e+01 -1.392729984770e+02 0.0 
0.0 0.0 -5.579105692579e+01 
-8.984048820232e+01 1.751674758929e+01 0.0 
1.751674758929e+01 -1.696348962988e+02 0.0 
0.0 0.0 -7.744261535034e+01 
-1.251797237895e+02 3.332726911981e+01 0.0 
3.332726911981e+01 -2.934193555088e+02 0.0 
0.0 0.0 -1.251797237895e+02 
-7.234733999626e+01 2.617353872372e+01 0.0 
2.617353872372e+01 -1.426237846376e+02 0.0 
0.0 0.0 -6.409133739017e+01 
-9.348530794085e+01 2.246607597234e+01 0.0 
2.246607597234e+01 -2.460511902892e+02 0.0 
0.0 0.0 -1.014609494690e+02 
-2.396122585595e+01 8.804715021410e+00 0.0 
8.804715021410e+00 -5.547392902037e+01 0.0 
0.0 0.0 -2.343054646290e+01 
-1.336844262656e+02 1.773217119729e+01 0.0 
1.773217119729e+01 -3.303344769726e+02 0.0 
0.0 0.0 -1.388056709714e+02 
-4.583150477807e+01 -1.054198223121e+00 0.0 
-1.054198223121e+00 -1.421956151782e+02 0.0 
0.0 0.0 -5.600813598687e+01 
-4.706791263974e+01 7.080249238942e-01 0.0 
7.080249238942e-01 -1.434427499476e+02 0.0 
0.0 0.0 -5.675319877621e+01 
-2.061026819971e+01 -2.072423899088e+00 0.0 
-2.072423899088e+00 -2.581549512787e+01 0.0 
0.0 0.0 -1.352772899827e+01 
-1.318419119915e+02 3.251851633621e+01 0.0 
3.251851633621e+01 -3.089644613134e+02 0.0 
0.0 0.0 -1.318419119915e+02 
-2.934787233174e+01 5.599245128803e+00 0.0 
5.599245128803e+00 -8.288608053221e+01 0.0 
0.0 0.0 -3.327018585919e+01 
-1.191763759614e+02 1.271205431980e+01 0.0 
1.271205431980e+01 -3.081367495679e+02 0.0 
0.0 0.0 -1.277939376588e+02 
-5.159162958568e+01 4.550745651883e+00 0.0 
4.550745651883e+00 -6.984736586241e+01 0.0 
0.0 0.0 -3.603169863443e+01 
-4.246354958552e+01 -1.902190610481e+00 0.0 
-1.902190610481e+00 -1.230314431552e+02 0.0 
0.0 0.0 -4.924849782222e+01 
-4.361458613247e+01 1.071955471652e+00 0.0 
1.071955471652e+00 -1.339592284541e+02 0.0 
0.0 0.0 -5.287214437598e+01 
-6.849146404642e+01 2.629592637625e+01 0.0 
2.629592637625e+01 -1.399653076544e+02 0.0 
0.0 0.0 -6.213703151025e+01 
-1.436686417711e+02 2.841096960602e+01 0.0 
2.841096960602e+01 -3.365601641327e+02 0.0 
0.0 0.0 -1.436686417711e+02 
-6.471013363359e+01 -1.321468585777e+00 0.0 
-1.321468585777e+00 -1.813684176583e+02 0.0 
0.0 0.0 -7.342356538756e+01 
-1.007965827841e+02 7.953810181290e+00 0.0 
7.953810181290e+00 -2.723258725101e+02 0.0 
0.0 0.0 -1.115367365883e+02 
-6.105022562349e+01 2.125099490396e+01 0.0 
2.125099490396e+01 -1.630245708041e+02 0.0 
0.0 0.0 -6.682243892829e+01 
-8.536073194056e+01 8.704806506223e+00 0.0 
8.704806506223e+00 -2.419854603158e+02 0.0 
0.0 0.0 -9.780385767692e+01 
-4.579562634643e+01 2.573939950156e+00 0.0 
2.573939950156e+00 -1.421515607932e+02 0.0 
0.0 0.0 -5.598415614188e+01 
-9.181639009497e+01 6.625302052358e+00 0.0 
6.625302052358e+00 -2.536533305077e+02 0.0 
0.0 0.0 -1.032409161808e+02 
-5.800060464225e+01 2.276180581337e+01 0.0 
2.276180581337e+01 -1.480983935428e+02 0.0 
0.0 0.0 -6.142969945551e+01 
-8.456593420661e+01 2.633009443817e+01 0.0 
2.633009443817e+01 -2.058077416942e+02 0.0 
0.0 0.0 -8.671210277023e+01 
-9.281679017573e+01 1.611194754982e+01 0.0 
1.611194754982e+01 -2.579632842287e+02 0.0 
0.0 0.0 -1.048340223213e+02 
-5.770001498336e+01 1.981019338080e+01 0.0 
1.981019338080e+01 -1.601217384818e+02 0.0 
0.0 0.0 -6.494652603956e+01 
-6.410573939980e+01 -9.359364117225e-01 0.0 
-9.359364117225e-01 -1.850718162799e+02 0.0 
0.0 0.0 -7.435326670391e+01 
-3.391228660793e+01 1.200132457441e+01 0.0 
1.200132457441e+01 -9.702103778887e+01 0.0 
0.0 0.0 -3.887999731904e+01 
-6.096557295504e+01 -1.583731827372e+00 0.0 
-1.583731827372e+00 -1.725476507792e+02 0.0 
0.0 0.0 -6.965396712026e+01 
-9.011676363741e+01 2.417218470863e+01 0.0 
2.417218470863e+01 -2.327557697514e+02 0.0 
0.0 0.0 -9.646176001663e+01 
-7.201023764020e+01 1.162393767531e+01 0.0 
1.162393767531e+01 -2.157544455152e+02 0.0 
0.0 0.0 -8.592940494661e+01 
-1.498433845941e+02 2.052920382091e+01 0.0 
2.052920382091e+01 -3.599700550661e+02 0.0 
0.0 0.0 -1.525440318980e+02 
-9.372097931033e+01 2.006089636466e+01 0.0 
2.006089636466e+01 -1.826907405081e+02 0.0 
0.0 0.0 -8.252351594553e+01 
-3.796808973161e+01 -3.149061978222e+00 0.0 
-3.149061978222e+00 -1.116022842920e+02 0.0 
0.0 0.0 -4.447111220709e+01 
-1.520628881958e+02 2.203389056237e+01 0.0 
2.203389056237e+01 -3.561467391235e+02 0.0 
0.0 0.0 -1.520628881958e+02 
-1.391437780456e+02 1.998004486551e+01 0.0 
1.998004486551e+01 -3.430996472373e+02 0.0 
0.0 0.0 -1.442730275849e+02 
-5.513700412727e+01 1.533767265405e+01 0.0 
1.533767265405e+01 -1.665970700128e+02 0.0 
0.0 0.0 -6.612022224201e+01 
-1.625348025031e+01 -2.037211219391e+00 0.0 
-2.037211219391e+00 -2.538322624053e+01 0.0 
0.0 0.0 -1.246879546895e+01 
-1.540363749920e+02 1.547488025459e+01 0.0 
1.547488025459e+01 -3.691140032263e+02 0.0 
0.0 0.0 -1.565451134655e+02 
-9.537922057332e+01 2.329304516159e+01 0.0 
2.329304516159e+01 -1.894628296677e+02 0.0 
0.0 0.0 -8.505261507232e+01 
-4.009570103651e+01 -1.929963145967e+00 0.0 
-1.929963145967e+00 -1.235506842281e+02 0.0 
0.0 0.0 -4.869391557938e+01 
-1.567112021342e+02 1.721102819028e+01 0.0 
1.721102819028e+01 -3.669928049798e+02 0.0 
0.0 0.0 -1.567112021342e+02 
-9.685174086267e+01 6.461775188830e+00 0.0 
6.461775188830e+00 -2.634245610398e+02 0.0 
0.0 0.0 -1.076828905707e+02 
-4.104858906066e+01 2.108790273853e+01 0.0 
2.108790273853e+01 -9.528418149662e+01 0.0 
0.0 0.0 -4.049983116718e+01 
-6.021458880296e+01 1.743025158863e+01 0.0 
1.743025158863e+01 -8.894891338984e+01 0.0 
0.0 0.0 -4.434905065784e+01 
-6.952543979692e+01 1.282627171214e+01 0.0 
1.282627171214e+01 -2.050036348342e+02 0.0 
0.0 0.0 -8.195872238934e+01 
-7.991073788075e+01 3.981503244118e+00 0.0 
3.981503244118e+00 -2.260436939760e+02 0.0 
0.0 0.0 -9.138632955701e+01 
-8.895061585700e+01 1.053444990338e+01 0.0 
1.053444990338e+01 -2.498541581883e+02 0.0 
0.0 0.0 -1.012414322136e+02 
-7.629850712098e+01 1.936572947014e+01 0.0 
1.936572947014e+01 -1.242767661518e+02 0.0 
0.0 0.0 -5.977258198183e+01 
-4.668685624149e+01 2.271122483603e+01 0.0 
2.271122483603e+01 -9.783025039151e+01 0.0 
0.0 0.0 -4.295513198990e+01 
-9.668078405693e+01 1.806499687741e+01 0.0 
1.806499687741e+01 -2.637890063354e+02 0.0 
0.0 0.0 -1.077409371177e+02 
-4.784151004911e+01 5.922043417701e-01 0.0 
5.922043417701e-01 -7.836549960809e+01 0.0 
0.0 0.0 -3.746210289716e+01 
-6.594283810950e+01 2.772378357914e-01 0.0 
2.772378357914e-01 -1.861115425415e+02 0.0 
0.0 0.0 -7.521631419529e+01 
-8.895218133968e+01 1.415855468158e+01 0.0 
1.415855468158e+01 -2.517333695365e+02 0.0 
0.0 0.0 -1.018056652629e+02 
-4.801486908230e+01 -5.459419976493e-01 0.0 
-5.459419976493e-01 -1.432166137568e+02 0.0 
0.0 0.0 -5.696944485173e+01 
-9.691836845750e+01 1.527505813785e+00 0.0 
1.527505813785e+00 -2.598579317094e+02 0.0 
0.0 0.0 -1.066328900501e+02 
-1.459549524162e+01 -7.862980828311e-01 0.0 
-7.862980828311e-01 -8.062470513128e+00 0.0 
0.0 0.0 -6.397389726425e+00 
-3.578911711895e+01 1.410083096989e+01 0.0 
1.410083096989e+01 -1.006711518461e+02 0.0 
0.0 0.0 -4.053808068951e+01 
-4.464706960686e+01 -4.857181197465e-01 0.0 
-4.857181197465e-01 -1.342245019175e+02 0.0 
0.0 0.0 -5.326147145731e+01 
-7.220033293038e+01 -5.905258139480e-01 0.0 
-5.905258139480e-01 -2.027381472763e+02 0.0 
0.0 0.0 -8.208154406200e+01 
-5.823555647044e+01 1.718502672142e+01 0.0 
1.718502672142e+01 -1.707365504113e+02 0.0 
0.0 0.0 -6.829163206453e+01 
-9.462771892674e+01 5.357898317014e+00 0.0 
5.357898317014e+00 -2.622483810146e+02 0.0 
0.0 0.0 -1.066628299824e+02 
-5.592906360629e+01 4.421592401903e+00 0.0 
4.421592401903e+00 -8.202027630049e+01 0.0 
0.0 0.0 -4.098480197203e+01 
-4.216124375647e+01 -1.386975190471e+00 0.0 
-1.386975190471e+00 -1.245465755434e+02 0.0 
0.0 0.0 -4.961234578997e+01 
-1.579148686868e+02 1.567889672049e+01 0.0 
1.567889672049e+01 -3.698013602692e+02 0.0 
0.0 0.0 -1.579148686868e+02 
-6.844421338880e+01 2.605775520633e+01 0.0 
2.605775520633e+01 -1.546661487385e+02 0.0 
0.0 0.0 -6.653310863820e+01 
-7.627637485489e+01 -4.523666524970e-01 0.0 
-4.523666524970e-01 -2.114230433677e+02 0.0 
0.0 0.0 -8.590982546677e+01 
-6.478511773053e+01 2.522305265702e+01 0.0 
2.522305265702e+01 -1.524835065943e+02 0.0 
0.0 0.0 -6.478058729744e+01 
-7.371580300330e+01 7.354381539933e-01 0.0 
7.354381539933e-01 -2.036633838080e+02 0.0 
0.0 0.0 -8.281375604340e+01 
-1.212548503285e+01 -8.360181542327e-01 0.0 
-8.360181542327e-01 -8.919146606003e+00 0.0 
0.0 0.0 -6.887635470903e+00 
-6.520209246733e+01 1.971507900434e+01 0.0 
1.971507900434e+01 -9.567900790457e+01 0.0 
0.0 0.0 -4.786433011157e+01 
-6.128368064724e+01 -1.196499884783e+00 0.0 
-1.196499884783e+00 -1.695874308338e+02 0.0 
0.0 0.0 -6.886133344432e+01 
-5.172817002078e+00 -5.096824710205e-01 0.0 
-5.096824710205e-01 -8.744099293975e+00 0.0 
0.0 0.0 -4.729749677462e+00 
-7.237658460744e+01 -8.990022350074e-01 0.0 
-8.990022350074e-01 -2.006852347129e+02 0.0 
0.0 0.0 -8.151854579611e+01 
-1.038953205712e+02 6.539566956020e+00 0.0 
6.539566956020e+00 -2.809206142337e+02 0.0 
0.0 0.0 -1.150447804415e+02 
-7.560924127001e+01 3.398365503103e+00 0.0 
3.398365503103e+00 -1.546885767475e+02 0.0 
0.0 0.0 -6.868934540526e+01 
-8.050509562571e+01 9.107773924858e+00 0.0 
9.107773924858e+00 -2.317119756649e+02 0.0 
0.0 0.0 -9.326512138718e+01 
-8.297898782994e+01 7.910285238246e+00 0.0 
7.910285238246e+00 -2.407833849327e+02 0.0 
0.0 0.0 -9.672871182879e+01 
-4.987778926055e+01 1.676761359700e+01 0.0 
1.676761359700e+01 -5.197686413000e+01 0.0 
0.0 0.0 -3.015639601717e+01 
-3.247417366706e+01 1.234961573030e+00 0.0 
1.234961573030e+00 -2.827472093249e+01 0.0 
0.0 0.0 -1.782466837986e+01 
-9.567328351493e+01 1.937459441645e+01 0.0 
1.937459441645e+01 -2.107622741794e+02 0.0 
0.0 0.0 -9.153066730831e+01 
-6.130679884798e+01 2.409625128948e+01 0.0 
2.409625128948e+01 -1.503308772311e+02 0.0 
0.0 0.0 -6.309130282372e+01 
-4.022393087697e+00 -3.811391126518e-01 0.0 
-3.811391126518e-01 -7.349801696025e+00 0.0 
0.0 0.0 -3.011658435117e+00 
-2.600882617522e+01 -2.211854144356e+00 0.0 
-2.211854144356e+00 -6.922718736081e+01 0.0 
0.0 0.0 -2.817080406081e+01 
-1.545428914964e+01 -2.023384969274e+00 0.0 
-2.023384969274e+00 -2.514908657785e+01 0.0 
0.0 0.0 -1.217452597565e+01 
-4.231334612303e+01 -2.139656615131e+00 0.0 
-2.139656615131e+00 -1.203153866627e+02 0.0 
0.0 0.0 -4.838861983573e+01 
-1.002868002813e+02 2.918689150901e+01 0.0 
2.918689150901e+01 -2.313808222187e+02 0.0 
0.0 0.0 -9.910028675001e+01 
-7.769333495555e+01 5.278121412907e+00 0.0 
5.278121412907e+00 -1.558975773481e+02 0.0 
0.0 0.0 -6.967727369109e+01 
-1.196870744045e+02 5.484108247241e+00 0.0 
5.484108247241e+00 -3.086974468388e+02 0.0 
0.0 0.0 -1.281153563730e+02 
-4.822100647905e+01 -1.393711454538e+00 0.0 
-1.393711454538e+00 -1.364715194708e+02 0.0 
0.0 0.0 -5.500775778495e+01 
-9.829145775029e+01 2.848946170512e+00 0.0 
2.848946170512e+00 -2.607438882771e+02 0.0 
0.0 0.0 -1.073106038082e+02 
-1.229406639598e+02 1.099329547771e+01 0.0 
1.099329547771e+01 -3.170296606003e+02 0.0 
0.0 0.0 -1.315910973680e+02 
-2.660333852830e+01 1.555236554833e+00 0.0 
1.555236554833e+00 -6.907641756497e+01 0.0 
0.0 0.0 -2.830392682798e+01 
-6.167693185608e+01 5.157557544334e-01 0.0 
5.157557544334e-01 -1.697999364448e+02 0.0 
0.0 0.0 -6.904306049025e+01 
-5.038566229663e+01 -1.061631404158e+00 0.0 
-1.061631404158e+00 -1.398466822094e+02 0.0 
0.0 0.0 -5.666970335180e+01 
-1.549843626615e+02 1.380425627076e+01 0.0 
1.380425627076e+01 -3.711713457137e+02 0.0 
0.0 0.0 -1.574467125126e+02 
-1.589375193398e+02 1.415206500200e+01 0.0 
1.415206500200e+01 -3.721875451263e+02 0.0 
0.0 0.0 -1.589375193398e+02 
-6.880875936137e+01 4.293900251601e-01 0.0 
4.293900251601e-01 -1.884051780212e+02 0.0 
0.0 0.0 -7.676418121478e+01 
-7.770419512035e+01 9.194137069748e-01 0.0 
9.194137069748e-01 -2.123280069302e+02 0.0 
0.0 0.0 -8.660966061517e+01 
-8.225570592475e+01 2.865106500683e+00 0.0 
2.865106500683e+00 -2.341382450643e+02 0.0 
0.0 0.0 -9.451818529672e+01 
-1.274605537925e+02 1.296819166053e+01 0.0 
1.296819166053e+01 -3.250458004216e+02 0.0 
0.0 0.0 -1.353519062642e+02 
-2.784975850171e+01 -3.302762695482e+00 0.0 
-3.302762695482e+00 -7.673722768407e+01 0.0 
0.0 0.0 -3.097609585574e+01 
-1.182274044552e+02 9.260974889413e+00 0.0 
9.260974889413e+00 -3.084528012108e+02 0.0 
0.0 0.0 -1.276040616998e+02 
-1.638922505611e+01 -1.332345650586e+00 0.0 
-1.332345650586e+00 -4.312101545071e+01 0.0 
0.0 0.0 -1.745307215204e+01 
-6.976153947384e+01 3.364811302696e-01 0.0 
3.364811302696e-01 -1.929472620237e+02 0.0 
0.0 0.0 -7.841264044925e+01 
-7.757538441963e+01 1.298014050696e+00 0.0 
1.298014050696e+00 -2.141819122697e+02 0.0 
0.0 0.0 -8.712718900679e+01 
-9.038897822426e+00 -7.119820222772e-01 0.0 
-7.119820222772e-01 -2.555890055926e+01 0.0 
0.0 0.0 -1.035993468428e+01 
-6.533242621573e+01 -9.312208849110e-01 0.0 
-9.312208849110e-01 -1.789965268930e+02 0.0 
0.0 0.0 -7.289868593261e+01 
-8.980101928320e+01 1.745444183042e+01 0.0 
1.745444183042e+01 -1.803850734866e+02 0.0 
0.0 0.0 -8.065582783093e+01 
-3.120833686990e+00 -3.437659964520e-01 0.0 
-3.437659964520e-01 -7.820291620208e+00 0.0 
0.0 0.0 -2.882337592159e+00 
-3.480128673640e+01 2.255861043255e+00 0.0 
2.255861043255e+00 -2.886546099357e+01 0.0 
0.0 0.0 -1.870002431899e+01 
-3.314368226041e+01 3.539119523743e+00 0.0 
3.539119523743e+00 -3.073287190747e+01 0.0 
0.0 0.0 -1.876296625036e+01 
-9.265867599782e+01 1.245452456708e+01 0.0 
1.245452456708e+01 -2.573094367812e+02 0.0 
0.0 0.0 -1.045904338337e+02 
-5.049038946655e+01 4.892934345617e-01 0.0 
4.892934345617e-01 -1.398098332251e+02 0.0 
0.0 0.0 -5.669006680749e+01 
-4.333328781776e+01 -2.035554574550e+00 0.0 
-2.035554574550e+00 -1.323952614973e+02 0.0 
0.0 0.0 -5.231856479451e+01 
-2.704178565960e+01 1.137857349105e+01 0.0 
1.137857349105e+01 -6.373559806237e+01 0.0 
0.0 0.0 -2.683321511659e+01 
-1.349964998674e+02 5.834206918555e+00 0.0 
5.834206918555e+00 -3.359005603882e+02 0.0 
0.0 0.0 -1.408691180767e+02 
-1.223399959594e+02 3.072871070639e+01 0.0 
3.072871070639e+01 -2.894849038164e+02 0.0 
0.0 0.0 -1.231474699327e+02 
-7.680424064528e+01 7.360290155968e+00 0.0 
7.360290155968e+00 -1.440094936650e+02 0.0 
0.0 0.0 -6.584412029309e+01 
-3.133346470854e+01 1.662510889694e+01 0.0 
1.662510889694e+01 -7.131616211679e+01 0.0 
0.0 0.0 -3.039488804760e+01 
-1.928074289826e+01 -3.235142606213e+00 0.0 
-3.235142606213e+00 -4.783510268557e+01 0.0 
0.0 0.0 -1.973475367515e+01 
-4.681302256927e+01 2.458000133344e+01 0.0 
2.458000133344e+01 -8.152232661403e+01 0.0 
0.0 0.0 -3.810060475499e+01 
-2.969200359398e+01 8.288104544121e-02 0.0 
8.288104544121e-02 -2.890857487173e+01 0.0 
0.0 0.0 -1.718017353971e+01 
-2.745668335631e+01 1.626231799239e-01 0.0 
1.626231799239e-01 -2.853655395335e+01 0.0 
0.0 0.0 -1.639797119290e+01 
-4.468343488197e+00 -4.316421247110e-01 0.0 
-4.316421247110e-01 -8.976421450260e+00 0.0 
0.0 0.0 -4.602316932177e+00 
-9.381224900998e+00 -8.650034930494e-01 0.0 
-8.650034930494e-01 -2.540465884470e+01 0.0 
0.0 0.0 -1.045709449367e+01 
-1.414685923202e+01 -3.385449351428e-01 0.0 
-3.385449351428e-01 -4.211346006899e+01 0.0 
0.0 0.0 -1.647809579030e+01 
-3.692377871960e+01 -3.063021531412e+00 0.0 
-3.063021531412e+00 -1.049987233831e+02 0.0 
0.0 0.0 -4.217675063081e+01 
-9.174486294664e+00 -5.553296645067e-01 0.0 
-5.553296645067e-01 -2.593495701362e+01 0.0 
0.0 0.0 -1.013283299248e+01 
-7.265506063662e+01 -8.005956882780e-01 0.0 
-8.005956882780e-01 -1.986296687205e+02 0.0 
0.0 0.0 -8.098541880714e+01 
-1.608218077211e+01 -7.465645421210e-01 0.0 
-7.465645421210e-01 -8.835637172761e+00 0.0 
0.0 0.0 -8.043680748613e+00 
-4.347183044925e+01 -2.816228537894e+00 0.0 
-2.816228537894e+00 -1.246601594866e+02 0.0 
0.0 0.0 -5.003959698076e+01 
-5.402689831621e+01 6.064265001685e-01 0.0 
6.064265001685e-01 -9.533565018017e+01 0.0 
0.0 0.0 -4.440876454891e+01 
-2.904083886891e+01 8.893504917559e-01 0.0 
8.893504917559e-01 -2.865937611903e+01 0.0 
0.0 0.0 -1.691006449638e+01 
-1.037679438249e+02 2.988098946985e+01 0.0 
2.988098946985e+01 -2.347342291831e+02 0.0 
0.0 0.0 -1.011506519024e+02 
-9.977332472923e+01 5.105364905185e+00 0.0 
5.105364905185e+00 -2.716663770750e+02 0.0 
0.0 0.0 -1.110319105413e+02 
-4.683987325925e+01 1.417106190100e-01 0.0 
1.417106190100e-01 -7.756391212899e+01 0.0 
0.0 0.0 -3.692113561647e+01 
-5.391512140838e+01 -8.127564861635e-01 0.0 
-8.127564861635e-01 -1.493151411902e+02 0.0 
0.0 0.0 -6.056907877958e+01 
-1.564097939076e+01 -6.420129526740e-01 0.0 
-6.420129526740e-01 -4.286500034844e+01 0.0 
0.0 0.0 -1.715179392176e+01 
-9.127753201288e+01 9.838726487089e+00 0.0 
9.838726487089e+00 -2.143142413634e+02 0.0 
0.0 0.0 -9.127753201288e+01 
-9.647954912376e+01 1.095010857415e+01 0.0 
1.095010857415e+01 -2.170050307493e+02 0.0 
0.0 0.0 -9.364537396192e+01 
-4.857643006561e+01 1.573481770256e+00 0.0 
1.573481770256e+00 -6.824037833983e+01 0.0 
0.0 0.0 -3.464504252163e+01 
-3.024335661738e+01 2.565729363851e-01 0.0 
2.565729363851e-01 -2.847233035354e+01 0.0 
0.0 0.0 -1.721470609128e+01 
-5.486745952056e+01 -3.836004476357e-02 0.0 
-3.836004476357e-02 -1.514024608559e+02 0.0 
0.0 0.0 -6.148097611294e+01 
-9.491431710116e+01 7.596590294764e+00 0.0 
7.596590294764e+00 -2.147461031422e+02 0.0 
0.0 0.0 -9.249812607301e+01 
-4.145177509264e+01 -1.803148540676e+00 0.0 
-1.803148540676e+00 -1.167905485547e+02 0.0 
0.0 0.0 -4.707269709421e+01 
-3.056739812291e+01 1.855247562285e+00 0.0 
1.855247562285e+00 -2.922208439461e+01 0.0 
0.0 0.0 -1.753684475526e+01 
-3.145445654376e+01 5.997794760392e-01 0.0 
5.997794760392e-01 -2.829441238627e+01 0.0 
0.0 0.0 -1.752466067901e+01 
-4.248215314321e+01 2.101900499168e+01 0.0 
2.101900499168e+01 -6.196898348108e+01 0.0 
0.0 0.0 -3.093534098729e+01 
-9.825407091440e+01 2.194979983884e+01 0.0 
2.194979983884e+01 -2.305928321336e+02 0.0 
0.0 0.0 -9.825407091440e+01 
-9.662029827067e+01 9.097325596620e+00 0.0 
9.097325596620e+00 -2.163382313764e+02 0.0 
0.0 0.0 -9.348755889413e+01 
-9.618328692728e+00 -7.507052533557e-01 0.0 
-7.507052533557e-01 -2.572796674032e+01 0.0 
0.0 0.0 -1.020388862992e+01 
-4.034816480853e+00 -3.133145220013e-01 0.0 
-3.133145220013e-01 -9.090886693888e+00 0.0 
0.0 0.0 -4.514965759719e+00 
-2.196304445476e+01 -3.012478831373e+00 0.0 
-3.012478831373e+00 -5.742646856569e+01 0.0 
0.0 0.0 -2.341685390614e+01 
-7.589376190398e+01 1.101854530753e-03 0.0 
1.101854530753e-03 -2.131925453802e+02 0.0 
0.0 0.0 -8.632589218524e+01 
-1.452777777128e+02 -1.317671495187e-01 0.0 
-1.317671495187e-01 -3.523061808762e+02 0.0 
0.0 0.0 -1.488751875767e+02 
-2.038076794082e+01 -5.355494349772e-01 0.0 
-5.355494349772e-01 -7.138239944034e+00 0.0 
0.0 0.0 -7.855702365456e+00 
-6.937008472116e+01 1.501311738688e+00 0.0 
1.501311738688e+00 -1.385535873527e+02 0.0 
0.0 0.0 -6.197710162216e+01 
-1.486191722831e+01 -8.683964971102e-01 0.0 
-8.683964971102e-01 -8.987524538052e+00 0.0 
0.0 0.0 -7.735782570643e+00 
-9.172285134082e+01 9.217110850025e+00 0.0 
9.217110850025e+00 -2.590410070327e+02 0.0 
0.0 0.0 -1.048291575120e+02 
-1.659432730882e+01 -8.875247083002e-01 0.0 
-8.875247083002e-01 -8.248119064308e+00 0.0 
0.0 0.0 -7.052733911940e+00 
-1.852391492588e+01 -7.921709932848e-01 0.0 
-7.921709932848e-01 -8.137135812471e+00 0.0 
0.0 0.0 -7.598315221506e+00 
-8.795685679104e+01 7.467355785591e+00 0.0 
7.467355785591e+00 -2.508506609227e+02 0.0 
0.0 0.0 -1.012422553141e+02 
-1.396288613039e+02 2.058506154295e+00 0.0 
2.058506154295e+00 -3.422868297302e+02 0.0 
0.0 0.0 -1.441747073102e+02 
-5.414538304083e+01 1.061176772960e+00 0.0 
1.061176772960e+00 -9.432935784552e+01 0.0 
0.0 0.0 -4.414242226590e+01 
-5.031869562726e+01 2.490963916217e+01 0.0 
2.490963916217e+01 -9.944007164232e+01 0.0 
0.0 0.0 -4.452763018087e+01 
-8.691789568815e+00 -4.218925936348e-01 0.0 
-4.218925936348e-01 -2.555138316375e+01 0.0 
0.0 0.0 -1.025544594426e+01 
-1.026148799958e+02 2.754669909036e+00 0.0 
2.754669909036e+00 -2.693118379093e+02 0.0 
0.0 0.0 -1.111780153715e+02 
-8.971867731276e+01 2.994240892058e+00 0.0 
2.994240892058e+00 -2.106769137298e+02 0.0 
0.0 0.0 -8.971867731276e+01 
-9.358537909571e+01 4.013918277837e+00 0.0 
4.013918277837e+00 -2.130582435528e+02 0.0 
0.0 0.0 -9.159308679456e+01 
-2.818979293861e+01 3.466535396266e-01 0.0 
3.466535396266e-01 -2.841820816966e+01 0.0 
0.0 0.0 -1.658240033248e+01 
-9.561837479795e+01 1.105460171030e+01 0.0 
1.105460171030e+01 -2.668711022122e+02 0.0 
0.0 0.0 -1.083468431031e+02 
-9.098910519675e+01 7.972508178587e+00 0.0 
7.972508178587e+00 -2.136412454591e+02 0.0 
0.0 0.0 -9.098910519675e+01 
-9.535927523634e+01 2.375008824582e+01 0.0 
2.375008824582e+01 -2.471132295506e+02 0.0 
0.0 0.0 -1.023417514361e+02 
-1.484446102884e+01 -5.968342220978e-01 0.0 
-5.968342220978e-01 -4.168211321392e+01 0.0 
0.0 0.0 -1.655797227283e+01 
-8.783993509314e+00 -3.626826084270e-01 0.0 
-3.626826084270e-01 -2.571378449266e+01 0.0 
0.0 0.0 -9.949333400591e+00 
-8.222809446086e+00 -1.523755214468e-01 0.0 
-1.523755214468e-01 -2.513880618047e+01 0.0 
0.0 0.0 -9.849752201995e+00 
-6.147832349230e+01 -7.717339130991e-01 0.0 
-7.717339130991e-01 -1.691149213443e+02 0.0 
0.0 0.0 -6.877797345099e+01 
-1.605397473036e+02 3.434635360197e+00 0.0 
3.434635360197e+00 -3.810911289465e+02 0.0 
0.0 0.0 -1.620892628750e+02 
-8.576721295327e+01 1.121961451601e+00 0.0 
1.121961451601e+00 -1.900773887118e+02 0.0 
0.0 0.0 -8.235338049953e+01 
-3.075972608726e+00 -8.387011121854e-02 0.0 
-8.387011121854e-02 -9.067049856566e+00 0.0 
0.0 0.0 -4.211584851259e+00 
-7.305521253849e+01 6.504075657152e-01 0.0 
6.504075657152e-01 -1.988041517308e+02 0.0 
0.0 0.0 -8.115780928077e+01 
-1.637949157910e+02 2.374897126217e+00 0.0 
2.374897126217e+00 -3.835214701789e+02 0.0 
0.0 0.0 -1.637949157910e+02 
-1.597170571897e+02 3.697088847800e+00 0.0 
3.697088847800e+00 -3.801803793172e+02 0.0 
0.0 0.0 -1.615692309521e+02 
-1.557333901566e+02 1.241681821263e+01 0.0 
1.241681821263e+01 -3.728365224909e+02 0.0 
0.0 0.0 -1.581709737942e+02 
-6.214474954678e+01 -5.042910833220e-01 0.0 
-5.042910833220e-01 -1.185956688675e+02 0.0 
0.0 0.0 -5.382212552430e+01 
-7.293261433562e+01 9.691785139743e-01 0.0 
9.691785139743e-01 -1.490233388581e+02 0.0 
0.0 0.0 -6.618678595811e+01 
-1.628912900117e+02 3.265286057227e+00 0.0 
3.265286057227e+00 -3.814130100273e+02 0.0 
0.0 0.0 -1.628912900117e+02 
-1.630283228530e+02 4.312550031006e+00 0.0 
4.312550031006e+00 -3.817327533236e+02 0.0 
0.0 0.0 -1.630283228530e+02 
-6.932450168030e+01 -2.075486208442e-01 0.0 
-2.075486208442e-01 -1.386201807477e+02 0.0 
0.0 0.0 -6.198340472840e+01 
-1.475421331497e+00 -3.600521405527e-01 0.0 
-3.600521405527e-01 -6.806928322533e+00 0.0 
0.0 0.0 -2.084704896209e+00 
-2.697220179463e+01 -6.650810918273e-02 0.0 
-6.650810918273e-02 -2.772510695185e+01 0.0 
0.0 0.0 -1.600919262394e+01 
-2.772837764875e+01 -9.835757368723e-03 0.0 
-9.835757368723e-03 -2.851364301223e+01 0.0 
0.0 0.0 -1.647260619829e+01 
-3.518274589790e+00 -1.959863611464e-01 0.0 
-1.959863611464e-01 -9.063019720521e+00 0.0 
0.0 0.0 -4.350540035445e+00 
-1.623580022824e+02 7.523042401368e+00 0.0 
7.523042401368e+00 -3.801686719922e+02 0.0 
0.0 0.0 -1.623580022824e+02 
-1.561869876376e+02 1.084339685106e+01 0.0 
1.084339685106e+01 -3.740952815774e+02 0.0 
0.0 0.0 -1.586846807645e+02 
-1.607619373737e+02 9.909206871686e+00 0.0 
9.909206871686e+00 -3.764445205386e+02 0.0 
0.0 0.0 -1.607619373737e+02 
-1.906921339177e+00 -1.360314536369e-01 0.0 
-1.360314536369e-01 -7.950164139605e+00 0.0 
0.0 0.0 -2.557125643635e+00 
-2.389724683737e+00 -2.968943927499e-01 0.0 
-2.968943927499e-01 -8.055107850258e+00 0.0 
0.0 0.0 -2.733449760199e+00 
-1.596346048279e+02 1.269953418574e+01 0.0 
1.269953418574e+01 -3.738140779317e+02 0.0 
0.0 0.0 -1.596346048279e+02 
-1.603345741912e+02 1.134844861137e+01 0.0 
1.134844861137e+01 -3.754473397794e+02 0.0 
0.0 0.0 -1.603345741912e+02 
-5.835538498156e+01 9.723867399648e-01 0.0 
9.723867399648e-01 -1.085800955938e+02 0.0 
0.0 0.0 -4.968064417262e+01 
-2.661504092566e+01 -1.315754863175e-01 0.0 
-1.315754863175e-01 -2.739988136468e+01 0.0 
0.0 0.0 -1.580447668710e+01 
-6.598615636667e+01 9.884848239952e-01 0.0 
9.884848239952e-01 -1.287299086996e+02 0.0 
0.0 0.0 -5.801481951987e+01 
-4.314554401679e+01 8.845312573967e-01 0.0 
8.845312573967e-01 -6.888359545514e+01 0.0 
0.0 0.0 -3.320874184158e+01 
-2.701016672872e+01 -7.207130181146e-02 0.0 
-7.207130181146e-02 -2.756418792619e+01 0.0 
0.0 0.0 -1.597230639647e+01 
-5.216129769021e+00 -5.781697442592e-01 0.0 
-5.781697442592e-01 -7.665796181876e+00 0.0 
0.0 0.0 -3.464577785269e+00 
-7.965422254808e+00 -4.329956066329e-01 0.0 
-4.329956066329e-01 -8.321336246223e+00 0.0 
0.0 0.0 -4.486027550309e+00 
-9.292619980082e+00 -5.962794783410e-01 0.0 
-5.962794783410e-01 -7.922735707978e+00 0.0 
0.0 0.0 -4.764606706418e+00 
-1.092956014606e+01 -6.793705878249e-01 0.0 
-6.793705878249e-01 -8.044248349171e+00 0.0 
0.0 0.0 -5.292142548569e+00 
-7.699455917583e+01 -8.989633268466e-01 0.0 
-8.989633268466e-01 -2.088341966822e+02 0.0 
0.0 0.0 -8.534862675742e+01 
-6.915524188505e+01 -7.920340314308e-01 0.0 
-7.920340314308e-01 -1.889059615610e+02 0.0 
0.0 0.0 -7.701836103382e+01 
-8.105442704257e+00 -6.338051392191e-01 0.0 
-6.338051392191e-01 -8.976092089961e+00 0.0 
0.0 0.0 -5.701487909201e+00 
-1.021537549816e+02 -7.971036216012e-01 0.0 
-7.971036216012e-01 -2.664871857892e+02 0.0 
0.0 0.0 -1.101922822312e+02 
-9.604365048848e+00 -7.579600707307e-01 0.0 
-7.579600707307e-01 -8.945620812323e+00 0.0 
0.0 0.0 -6.136834931124e+00 
-9.466401730920e+01 1.742768288515e+01 0.0 
1.742768288515e+01 -2.222160403881e+02 0.0 
0.0 0.0 -9.466401730920e+01 
-9.039234159189e+01 6.561720298514e+00 0.0 
6.561720298514e+00 -2.122487970478e+02 0.0 
0.0 0.0 -9.039234159189e+01 
-9.177938226170e+01 1.157602417535e+01 0.0 
1.157602417535e+01 -2.154852252773e+02 0.0 
0.0 0.0 -9.177938226170e+01 
-2.471586983733e+01 -9.812527201178e-01 0.0 
-9.812527201178e-01 -6.912115268366e+01 0.0 
0.0 0.0 -2.775110675630e+01 
-4.663270488976e+01 -8.352082660936e-01 0.0 
-8.352082660936e-01 -1.294000695761e+02 0.0 
0.0 0.0 -5.240983233976e+01 
-8.995801686557e+01 5.196838634110e+00 0.0 
5.196838634110e+00 -2.112353726863e+02 0.0 
0.0 0.0 -8.995801686557e+01 
-1.304845064480e+02 -6.542244641026e-01 0.0 
-6.542244641026e-01 -3.244107852169e+02 0.0 
0.0 0.0 -1.360685874995e+02 
-9.075484489207e+01 4.148480033604e+00 0.0 
4.148480033604e+00 -2.130946380815e+02 0.0 
0.0 0.0 -9.075484489207e+01 
-1.404852952303e+02 -6.935558784391e-01 0.0 
-6.935558784391e-01 -3.434466637808e+02 0.0 
0.0 0.0 -1.447795877033e+02 
-1.508430187632e+02 -7.548161152759e-01 0.0 
-7.548161152759e-01 -3.623611313257e+02 0.0 
0.0 0.0 -1.535612450267e+02 
-6.530820796712e+01 6.479282235612e-01 0.0 
6.479282235612e-01 -1.789869873769e+02 0.0 
0.0 0.0 -7.288855860322e+01 
-9.437446236018e+01 6.103640053741e+00 0.0 
6.103640053741e+00 -2.135231329392e+02 0.0 
0.0 0.0 -9.196927858981e+01 
-9.349163474195e+01 4.331968270445e+00 0.0 
4.331968270445e+00 -2.133244980491e+02 0.0 
0.0 0.0 -9.164483983731e+01 
-1.351854889186e+02 1.369576818752e+00 0.0 
1.369576818752e+00 -3.330351365520e+02 0.0 
0.0 0.0 -1.400661876412e+02 
-1.455344790449e+02 1.448965089049e+00 0.0 
1.448965089049e+00 -3.525438935642e+02 0.0 
0.0 0.0 -1.490235117827e+02 
-1.112688553144e+02 2.341619923611e+00 0.0 
2.341619923611e+00 -2.863235673433e+02 0.0 
0.0 0.0 -1.188777267973e+02 
-1.350972465848e+01 -8.969856643188e-01 0.0 
-8.969856643188e-01 -8.889190582819e+00 0.0 
0.0 0.0 -7.296150755271e+00 
-6.565381347536e+01 1.056714061769e-01 0.0 
1.056714061769e-01 -1.820574219111e+02 0.0 
0.0 0.0 -7.391337061592e+01 
-1.005147845439e+01 -7.750992820756e-01 0.0 
-7.750992820756e-01 -2.543563715371e+01 0.0 
0.0 0.0 -1.024613468243e+01 
-1.359736128675e+02 7.078639259322e+00 0.0 
7.078639259322e+00 -3.364973515099e+02 0.0 
0.0 0.0 -1.413412893132e+02 
-6.847966665340e+01 -1.040124891732e+00 0.0 
-1.040124891732e+00 -1.921053876750e+02 0.0 
0.0 0.0 -7.777551629851e+01 
-1.249751427403e+02 2.180633231979e+00 0.0 
2.180633231979e+00 -3.150692724299e+02 0.0 
0.0 0.0 -1.316133245511e+02 
-3.482292565562e+01 -2.035629502879e+00 0.0 
-2.035629502879e+00 -9.705499479645e+01 0.0 
0.0 0.0 -3.916337613562e+01 
-1.582301452360e+01 -1.877423596378e+00 0.0 
-1.877423596378e+00 -4.159357562240e+01 0.0 
0.0 0.0 -1.682497704380e+01 
-1.353300951379e+02 3.923119359440e+00 0.0 
3.923119359440e+00 -3.341947081633e+02 0.0 
0.0 0.0 -1.404574409904e+02 
-7.373686466830e+01 5.664586272060e-01 0.0 
5.664586272060e-01 -2.015981137280e+02 0.0 
0.0 0.0 -8.220049351889e+01 
-5.737042234411e+01 -1.028240562082e+00 0.0 
-1.028240562082e+00 -1.592793945237e+02 0.0 
0.0 0.0 -6.459494506035e+01 
-1.256288535579e+02 3.520461121329e+00 0.0 
3.520461121329e+00 -3.156507285100e+02 0.0 
0.0 0.0 -1.319838746204e+02 
-7.846317463557e+01 1.278028413759e+00 0.0 
1.278028413759e+00 -1.670709750701e+02 0.0 
0.0 0.0 -7.326024491170e+01 
-5.778496131539e+01 5.876874529056e-01 0.0 
5.876874529056e-01 -1.594133440928e+02 0.0 
0.0 0.0 -6.475949162244e+01 
-1.102328238955e+02 9.246401787071e+00 0.0 
9.246401787071e+00 -2.909721108315e+02 0.0 
0.0 0.0 -1.199614804181e+02 
-9.646464941135e+01 2.545167966221e+00 0.0 
2.545167966221e+00 -2.612730671531e+02 0.0 
0.0 0.0 -1.069213149693e+02 
-1.105112895902e+02 9.648752811031e-01 0.0 
9.648752811031e-01 -2.856986002359e+02 0.0 
0.0 0.0 -1.184629669478e+02 
-1.150413933153e+02 7.207953381118e-01 0.0 
7.207953381118e-01 -2.944554808996e+02 0.0 
0.0 0.0 -1.224490622645e+02 
-4.442212958596e+01 7.265290095978e+00 0.0 
7.265290095978e+00 -1.450067727437e+02 0.0 
0.0 0.0 -5.642867069889e+01 
-4.387106156051e+01 2.406381104087e+01 0.0 
2.406381104087e+01 -8.065777378480e+01 0.0 
0.0 0.0 -3.695865060359e+01 
-5.562755775430e+01 1.851217317945e+01 0.0 
1.851217317945e+01 -1.574160229719e+02 0.0 
0.0 0.0 -6.351307421786e+01 
-1.014571556203e+02 1.395032891678e+00 0.0 
1.395032891678e+00 -2.685212052529e+02 0.0 
0.0 0.0 -1.105935082620e+02 
-1.301869631031e+02 3.116990524033e+00 0.0 
3.116990524033e+00 -3.242193298661e+02 0.0 
0.0 0.0 -1.359218878908e+02 
-1.195941865700e+02 3.216726314608e-01 0.0 
3.216726314608e-01 -3.033032064680e+02 0.0 
0.0 0.0 -1.264692179114e+02 
-3.484034541486e+01 -3.462574022489e+00 0.0 
-3.462574022489e+00 -1.003082970187e+02 0.0 
0.0 0.0 -4.014459273008e+01 
-7.905470475689e+01 2.833719270774e+00 0.0 
2.833719270774e+00 -1.661252072552e+02 0.0 
0.0 0.0 -7.315397360364e+01 
-7.213405940566e+01 2.184604470756e+00 0.0 
2.184604470756e+00 -1.453650281746e+02 0.0 
0.0 0.0 -6.484972627409e+01 
-3.819602705228e+01 -5.665418773963e-01 0.0 
-5.665418773963e-01 -5.406189626947e+01 0.0 
0.0 0.0 -2.727737699653e+01 
-1.059317623604e+02 2.224229254675e+00 0.0 
2.224229254675e+00 -2.788615879613e+02 0.0 
0.0 0.0 -1.150380050965e+02 
-1.059991033082e+02 1.211425731179e+00 0.0 
1.211425731179e+00 -2.771532832825e+02 0.0 
0.0 0.0 -1.145457159772e+02 
-7.980013100995e+01 3.208710014474e+00 0.0 
3.208710014474e+00 -1.684061788490e+02 0.0 
0.0 0.0 -7.406189295769e+01 
-7.558585325032e+01 1.942083853496e+00 0.0 
1.942083853496e+00 -1.564627522748e+02 0.0 
0.0 0.0 -6.921458165753e+01 
-9.360499734076e+01 3.870318071147e+00 0.0 
3.870318071147e+00 -2.534057484961e+02 0.0 
0.0 0.0 -1.037032237510e+02 
-1.400516944042e+02 3.365190602013e+00 0.0 
3.365190602013e+00 -3.426353181807e+02 0.0 
0.0 0.0 -1.444061037755e+02 
-7.375209358384e+01 5.286340052943e+00 0.0 
5.286340052943e+00 -1.423605829027e+02 0.0 
0.0 0.0 -6.443380294597e+01 
-1.200166728848e+02 1.643012853298e+00 0.0 
1.643012853298e+00 -3.034824957869e+02 0.0 
0.0 0.0 -1.266497506015e+02 
-1.414869149978e+02 6.682498946054e+00 0.0 
6.682498946054e+00 -3.461268589971e+02 0.0 
0.0 0.0 -1.458841321985e+02 
-8.049456044272e+01 4.903349998346e+00 0.0 
4.903349998346e+00 -1.672252922318e+02 0.0 
0.0 0.0 -7.391595580236e+01 
-6.385599138740e+01 3.473901035231e+00 0.0 
3.473901035231e+00 -1.151356604112e+02 0.0 
0.0 0.0 -5.329749553958e+01 
-1.059752791901e+02 7.680734345082e+00 0.0 
7.680734345082e+00 -2.820495176282e+02 0.0 
0.0 0.0 -1.160074390455e+02 
-3.565260687715e+01 -2.070129081768e+00 0.0 
-2.070129081768e+00 -9.999350265647e+01 0.0 
0.0 0.0 -4.029383286009e+01 
-3.241004253432e+01 -3.478618716448e+00 0.0 
-3.478618716448e+00 -9.240987530033e+01 0.0 
0.0 0.0 -3.704597535039e+01 
-1.920886878389e+01 -1.747498302992e+00 0.0 
-1.747498302992e+00 -4.809455998521e+01 0.0 
0.0 0.0 -1.979102863073e+01 
-1.927640451401e+01 -2.075290608981e+00 0.0 
-2.075290608981e+00 -2.566168098650e+01 0.0 
0.0 0.0 -1.308142565016e+01 
-7.688954633774e+01 3.727781962800e+00 0.0 
3.727781962800e+00 -1.572673545852e+02 0.0 
0.0 0.0 -6.984707027687e+01 
-1.344615924251e+02 1.203853684745e+00 0.0 
1.203853684745e+00 -3.321752614780e+02 0.0 
0.0 0.0 -1.395910561709e+02 
-1.778908088664e+01 -2.058142052430e+00 0.0 
-2.058142052430e+00 -2.532473675614e+01 0.0 
0.0 0.0 -1.253414529283e+01 
-9.730724701030e+01 2.626576774077e+01 0.0 
2.626576774077e+01 -1.986706138645e+02 0.0 
0.0 0.0 -8.839335826245e+01 
-4.263695110030e+01 -1.887164426891e-01 0.0 
-1.887164426891e-01 -6.301247574087e+01 0.0 
0.0 0.0 -3.129482805235e+01 
-1.211131740343e+02 3.918258735015e+00 0.0 
3.918258735015e+00 -3.071727248996e+02 0.0 
0.0 0.0 -1.280857696802e+02 
-1.245270442578e+02 9.743403856092e-01 0.0 
9.743403856092e-01 -3.132795996173e+02 0.0 
0.0 0.0 -1.309419931625e+02 
-4.658144034362e+01 -2.002242725086e+00 0.0 
-2.002242725086e+00 -1.408611246117e+02 0.0 
0.0 0.0 -5.583276948660e+01 
-1.249402721334e+02 2.365971851028e+00 0.0 
2.365971851028e+00 -3.137414571255e+02 0.0 
0.0 0.0 -1.312045187777e+02 
-3.907346701736e+01 1.545144995556e+00 0.0 
1.545144995556e+00 -5.437087174469e+01 0.0 
0.0 0.0 -2.763330162861e+01 
-9.492076779809e+01 1.701789764219e+01 0.0 
1.701789764219e+01 -2.590465300269e+02 0.0 
0.0 0.0 -1.057901893475e+02 
-1.462331874817e+02 4.551394175183e+00 0.0 
4.551394175183e+00 -3.547420972778e+02 0.0 
0.0 0.0 -1.498925854279e+02 
-3.442940014082e+01 -1.253101242229e+00 0.0 
-1.253101242229e+00 -9.660962021466e+01 0.0 
0.0 0.0 -3.891170610664e+01 
-1.409988157398e+02 8.293928035572e+00 0.0 
8.293928035572e+00 -3.461638983783e+02 0.0 
0.0 0.0 -1.457488142354e+02 
-6.708983722954e+01 3.270396341539e+00 0.0 
3.270396341539e+00 -1.261407546388e+02 0.0 
0.0 0.0 -5.756917756049e+01 
-3.874981543879e+01 -1.784995227545e+00 0.0 
-1.784995227545e+00 -1.085832941943e+02 0.0 
0.0 0.0 -4.379993288992e+01 
-3.948058518040e+01 -2.303422045137e+00 0.0 
-2.303422045137e+00 -1.124118576969e+02 0.0 
0.0 0.0 -4.516773286319e+01 
-8.424720963176e+01 -5.577399098345e-01 0.0 
-5.577399098345e-01 -2.267929439647e+02 0.0 
0.0 0.0 -9.291204607893e+01 
-5.490883111255e+01 1.406659303470e+00 0.0 
1.406659303470e+00 -9.225033504624e+01 0.0 
0.0 0.0 -4.374774984764e+01 
-5.373595665162e+01 -2.080852663997e+00 0.0 
-2.080852663997e+00 -1.529367552860e+02 0.0 
0.0 0.0 -6.160181358128e+01 
-7.023725873784e+01 3.123530388731e+00 0.0 
3.123530388731e+00 -1.370451411199e+02 0.0 
0.0 0.0 -6.178471995733e+01 
-5.952402561953e+01 2.693804411935e+00 0.0 
2.693804411935e+00 -1.054139677193e+02 0.0 
0.0 0.0 -4.908139800165e+01 
-8.038415945272e+01 -3.137642314808e-01 0.0 
-3.137642314808e-01 -2.201383371765e+02 0.0 
0.0 0.0 -8.975674898876e+01 
-1.154520701859e+02 2.032382516470e+00 0.0 
2.032382516470e+00 -2.947645814741e+02 0.0 
0.0 0.0 -1.226649954980e+02 
-1.205427664975e+02 2.764862530146e+00 0.0 
2.764862530146e+00 -3.053208019200e+02 0.0 
0.0 0.0 -1.273590705252e+02 
-6.513322926036e+01 1.412585485472e+00 0.0 
1.412585485472e+00 -1.249322334399e+02 0.0 
0.0 0.0 -5.661963881008e+01 
-3.028345998153e+01 -1.251046527043e+00 0.0 
-1.251046527043e+00 -8.367216313285e+01 0.0 
0.0 0.0 -3.378668693431e+01 
-7.636964824806e+01 -6.777823214851e-01 0.0 
-6.777823214851e-01 -2.094816033129e+02 0.0 
0.0 0.0 -8.535537546829e+01 
-1.104908185987e+02 2.150188241723e+01 0.0 
2.150188241723e+01 -2.874893172709e+02 0.0 
0.0 0.0 -1.189940407609e+02 
-7.109426662285e+01 4.355226225967e+00 0.0 
4.355226225967e+00 -1.354938912994e+02 0.0 
0.0 0.0 -6.157644737667e+01 
-6.838766244810e+01 -1.224270825382e+00 0.0 
-1.224270825382e+00 -1.896654977000e+02 0.0 
0.0 0.0 -7.701594804442e+01 
-9.816530003689e+01 3.806360379290e+00 0.0 
3.806360379290e+00 -2.622827244003e+02 0.0 
0.0 0.0 -1.077344073311e+02 
-1.361268450723e+02 8.968873682988e+00 0.0 
8.968873682988e+00 -3.374458857370e+02 0.0 
0.0 0.0 -1.416718192428e+02 
-6.205311363019e+01 1.640795536762e+00 0.0 
1.640795536762e+00 -1.140621928672e+02 0.0 
0.0 0.0 -5.243459194923e+01 
-2.234466193084e+01 -1.237649019982e-01 0.0 
-1.237649019982e-01 -4.300079412940e+01 0.0 
0.0 0.0 -1.920363681807e+01 
-1.804417767380e+01 -1.281942663897e+00 0.0 
-1.281942663897e+00 -4.676710487860e+01 0.0 
0.0 0.0 -1.904338476572e+01 
-3.005613635763e+01 2.224792286445e+00 0.0 
2.224792286445e+00 -8.645478410425e+01 0.0 
0.0 0.0 -3.455327613856e+01 
-1.296814649440e+02 1.714664945467e+00 0.0 
1.714664945467e+00 -3.237018044768e+02 0.0 
0.0 0.0 -1.356149808262e+02 
-5.844730361675e+01 1.589489472183e+00 0.0 
1.589489472183e+00 -1.031204272315e+02 0.0 
0.0 0.0 -4.807031925447e+01 
-9.326784205199e+01 1.212656111739e+00 0.0 
1.212656111739e+00 -2.464999730968e+02 0.0 
0.0 0.0 -1.015303445447e+02 
-4.694550074556e+01 4.645727272202e-01 0.0 
4.645727272202e-01 -7.244865813852e+01 0.0 
0.0 0.0 -3.541824766522e+01 
-1.247701877863e+02 1.217012283364e+01 0.0 
1.217012283364e+01 -3.180499813110e+02 0.0 
0.0 0.0 -1.324460507292e+02 
-8.446207828864e+01 -2.429625981837e-01 0.0 
-2.429625981837e-01 -2.287937560014e+02 0.0 
0.0 0.0 -9.357675028702e+01 
-1.199746457215e+02 1.376335439873e+00 0.0 
1.376335439873e+00 -3.047754724248e+02 0.0 
0.0 0.0 -1.270250354439e+02 
-3.624415566286e+01 -5.991280065927e-01 0.0 
-5.991280065927e-01 -1.005849382737e+02 0.0 
0.0 0.0 -4.064872818096e+01 
-1.405293740521e+02 5.181295541097e+00 0.0 
5.181295541097e+00 -3.458059248227e+02 0.0 
0.0 0.0 -1.455005896625e+02 
-8.157133504311e+01 1.081606047055e+00 0.0 
1.081606047055e+00 -2.209559439911e+02 0.0 
0.0 0.0 -9.035818371027e+01 
-3.927864324962e+01 -1.943721871108e-01 0.0 
-1.943721871108e-01 -1.091615514058e+02 0.0 
0.0 0.0 -4.413205839662e+01 
-7.737944069769e+01 8.124079000470e-01 0.0 
8.124079000470e-01 -2.102577163026e+02 0.0 
0.0 0.0 -8.589114710010e+01 
-5.729778198991e+01 -1.757765573947e+00 0.0 
-1.757765573947e+00 -1.616039882871e+02 0.0 
0.0 0.0 -6.527053108310e+01 
-4.459344611418e+01 -1.450871886607e+00 0.0 
-1.450871886607e+00 -1.254407187220e+02 0.0 
0.0 0.0 -5.061024945085e+01 
-9.253535303427e+01 -2.784403202863e-01 0.0 
-2.784403202863e-01 -2.457780062275e+02 0.0 
0.0 0.0 -1.010940077785e+02 
-6.331778662448e+00 -5.958838269337e-01 0.0 
-5.958838269337e-01 -9.229806495504e+00 0.0 
0.0 0.0 -5.264144774109e+00 
-7.751388292956e+00 -6.370910791590e-01 0.0 
-6.370910791590e-01 -9.509076625733e+00 0.0 
0.0 0.0 -5.788147209612e+00 
-1.069314010929e+02 2.589447281262e+00 0.0 
2.589447281262e+00 -2.778514484976e+02 0.0 
0.0 0.0 -1.150348548771e+02 
-3.337490739418e+01 -9.989640363829e-01 0.0 
-9.989640363829e-01 -9.231837597236e+01 0.0 
0.0 0.0 -3.730798500996e+01 
-1.072117065842e+02 3.559951666534e+00 0.0 
3.559951666534e+00 -2.796978121030e+02 0.0 
0.0 0.0 -1.156728556062e+02 
-1.027052514449e+02 3.702280345031e+00 0.0 
3.702280345031e+00 -2.710519241819e+02 0.0 
0.0 0.0 -1.117271526881e+02 
-6.071537399195e+01 -1.484588744414e+00 0.0 
-1.484588744414e+00 -1.745230858185e+02 0.0 
0.0 0.0 -7.017153794314e+01 
-3.768254218356e+01 -2.716176703589e+00 0.0 
-2.716176703589e+00 -1.134482407495e+02 0.0 
0.0 0.0 -4.493923487991e+01 
-7.916201292744e+01 7.108974069538e+00 0.0 
7.108974069538e+00 -1.548233359686e+02 0.0 
0.0 0.0 -6.979560466882e+01 
-2.052966753712e+01 4.866373619957e+00 0.0 
4.866373619957e+00 -4.174161541300e+01 0.0 
0.0 0.0 -1.828138488504e+01 
-6.088829058261e+01 -1.427988502382e+00 0.0 
-1.427988502382e+00 -1.704628396805e+02 0.0 
0.0 0.0 -6.900533907892e+01 
-1.293509952975e+02 1.394944128329e+01 0.0 
1.394944128329e+01 -3.257240853918e+02 0.0 
0.0 0.0 -1.361225242068e+02 
-2.857548586131e+01 -2.097676350970e+00 0.0 
-2.097676350970e+00 -7.962903728212e+01 0.0 
0.0 0.0 -3.206135694303e+01 
-5.249500551108e+01 2.467322805887e+00 0.0 
2.467322805887e+00 -8.424790951713e+01 0.0 
0.0 0.0 -4.062287450846e+01 
-4.399051836049e+01 1.762298533220e+00 0.0 
1.762298533220e+00 -6.396105839160e+01 0.0 
0.0 0.0 -3.198547302563e+01 
-2.843735561505e+01 -2.071942619401e+00 0.0 
-2.071942619401e+00 -7.728316650081e+01 0.0 
0.0 0.0 -3.131615663476e+01 
-1.307826200074e+02 9.495996274157e+00 0.0 
9.495996274157e+00 -3.282990816782e+02 0.0 
0.0 0.0 -1.373245105057e+02 
-6.982770764217e+01 5.962283258451e+00 0.0 
5.962283258451e+00 -1.234448337580e+02 0.0 
0.0 0.0 -5.758176242004e+01 
-3.272063509330e+01 -2.307989384584e+00 0.0 
-2.307989384584e+00 -9.166585575734e+01 0.0 
0.0 0.0 -3.691594725519e+01 
-8.303224527882e+01 8.677774264075e+00 0.0 
8.677774264075e+00 -1.645172048547e+02 0.0 
0.0 0.0 -7.386483504007e+01 
-7.977808771666e+01 6.809592073303e+00 0.0 
6.809592073303e+00 -1.627211789304e+02 0.0 
0.0 0.0 -7.234977999412e+01 
-3.705117843265e+01 -1.119410013358e+00 0.0 
-1.119410013358e+00 -1.030831210717e+02 0.0 
0.0 0.0 -4.164028985130e+01 
-3.306842588353e+01 1.848292089134e+01 0.0 
1.848292089134e+01 -7.291546508506e+01 0.0 
0.0 0.0 -3.139516729058e+01 
-3.780701016037e+01 -1.718661744666e+00 0.0 
-1.718661744666e+00 -1.056733070853e+02 0.0 
0.0 0.0 -4.264409517369e+01 
-1.161886734511e+02 3.085243837524e+00 0.0 
3.085243837524e+00 -2.968356676434e+02 0.0 
0.0 0.0 -1.235073023283e+02 
-8.851561916361e+01 -2.367866298765e-01 0.0 
-2.367866298765e-01 -2.373925857000e+02 0.0 
0.0 0.0 -9.737246145909e+01 
-9.214893351559e+01 2.074432168256e+01 0.0 
2.074432168256e+01 -1.874677852703e+02 0.0 
0.0 0.0 -8.348501563577e+01 
-7.640438500898e+01 5.041627271701e+00 0.0 
5.041627271701e+00 -1.533020471955e+02 0.0 
0.0 0.0 -6.851192966135e+01 
-1.117061640713e+02 3.350166470488e+00 0.0 
3.350166470488e+00 -2.882974988212e+02 0.0 
0.0 0.0 -1.196010988677e+02 
-1.106454401593e+02 1.997472826088e+00 0.0 
1.997472826088e+00 -2.875514029567e+02 0.0 
0.0 0.0 -1.190590529348e+02 
-3.058731246789e+01 -3.137891617560e+00 0.0 
-3.137891617560e+00 -8.535194498270e+01 0.0 
0.0 0.0 -3.438177723518e+01 
-1.153318014909e+02 1.708521651643e+00 0.0 
1.708521651643e+00 -2.961707488879e+02 0.0 
0.0 0.0 -1.230507651136e+02 
-6.684775527426e+01 3.842076976185e+00 0.0 
3.842076976185e+00 -1.218218196811e+02 0.0 
0.0 0.0 -5.620087248661e+01 
-8.933859533284e+01 1.167081510009e+00 0.0 
1.167081510009e+00 -2.380527289842e+02 0.0 
0.0 0.0 -9.781739729511e+01 
-6.059835814179e+01 3.457873838471e+00 0.0 
3.457873838471e+00 -1.043473913314e+02 0.0 
0.0 0.0 -4.908372484196e+01 
-7.252019360190e+01 5.843841953255e+00 0.0 
5.843841953255e+00 -1.342022028545e+02 0.0 
0.0 0.0 -6.161671893692e+01 
-6.005201503009e+01 1.131071611239e+01 0.0 
1.131071611239e+01 -1.863229766881e+02 0.0 
0.0 0.0 -7.351249751546e+01 
-7.265835320410e+01 3.658447859141e+00 0.0 
3.658447859141e+00 -1.436530597539e+02 0.0 
0.0 0.0 -6.449342388739e+01 
-7.258241419067e+01 -9.907550233367e-01 0.0 
-9.907550233367e-01 -1.996143552378e+02 0.0 
0.0 0.0 -8.125903082854e+01 
-8.539963678237e+01 1.181800979987e+00 0.0 
1.181800979987e+00 -2.295116914440e+02 0.0 
0.0 0.0 -9.407339846790e+01 
-5.365734276541e+01 -1.980881212640e+00 0.0 
-1.980881212640e+00 -1.509443443234e+02 0.0 
0.0 0.0 -6.098050612663e+01 
-5.515704212437e+01 -8.132746869773e-01 0.0 
-8.132746869773e-01 -1.582430935117e+02 0.0 
0.0 0.0 -6.362004069083e+01 
-6.260048462255e+01 2.574033649968e+00 0.0 
2.574033649968e+00 -1.123425248318e+02 0.0 
0.0 0.0 -5.208290283631e+01 
-7.643938392680e+01 2.778085636893e+00 0.0 
2.778085636893e+00 -2.165094347752e+02 0.0 
0.0 0.0 -8.748464561061e+01 
-4.089437583563e+01 -1.352256471110e+00 0.0 
-1.352256471110e+00 -1.143214830556e+02 0.0 
0.0 0.0 -4.616475766735e+01 
-2.208190733085e+01 -1.973355347878e+00 0.0 
-1.973355347878e+00 -5.766346930851e+01 0.0 
0.0 0.0 -2.352361299181e+01 
-6.521536685070e+01 4.566358544989e+00 0.0 
4.566358544989e+00 -1.137885675917e+02 0.0 
0.0 0.0 -5.330118033273e+01 
-3.997400858863e+01 -2.770958842045e+00 0.0 
-2.770958842045e+00 -1.136167654612e+02 0.0 
0.0 0.0 -4.567723221493e+01 
-1.404761205687e+02 7.056411766151e+00 0.0 
7.056411766151e+00 -3.457636303441e+02 0.0 
0.0 0.0 -1.454719252738e+02 
-6.583877959401e+01 2.595549514616e+00 0.0 
2.595549514616e+00 -1.232634269314e+02 0.0 
0.0 0.0 -5.633066195763e+01 
-1.201970253910e+02 2.570748072787e+00 0.0 
2.570748072787e+00 -3.064915424504e+02 0.0 
0.0 0.0 -1.276065703524e+02 
-1.441399162233e+02 1.831114834557e+01 0.0 
1.831114834557e+01 -3.469060008730e+02 0.0 
0.0 0.0 -1.469137751289e+02 
-6.950022450287e+01 4.357359489675e-01 0.0 
4.357359489675e-01 -1.906317205462e+02 0.0 
0.0 0.0 -7.763958351473e+01 
-3.634045402218e+01 -2.622073015221e+00 0.0 
-2.622073015221e+00 -1.024498224762e+02 0.0 
0.0 0.0 -4.123708294952e+01 
-2.432519105394e+01 -3.059396600512e+00 0.0 
-3.059396600512e+00 -6.548873963659e+01 0.0 
0.0 0.0 -2.654417920716e+01 
-1.118210940710e+02 4.499584482658e+00 0.0 
4.499584482658e+00 -2.898930180507e+02 0.0 
0.0 0.0 -1.201142336365e+02 
-5.446678823113e+01 8.000205470593e-01 0.0 
8.000205470593e-01 -9.412186103643e+01 0.0 
0.0 0.0 -4.417659478027e+01 
-1.850029794861e+01 -2.592416930023e+00 0.0 
-2.592416930023e+00 -4.649698473652e+01 0.0 
0.0 0.0 -1.909918480554e+01 
-5.505570514995e+01 -6.826898336054e-01 0.0 
-6.826898336054e-01 -1.538035313679e+02 0.0 
0.0 0.0 -6.225777095536e+01 
-3.253027521946e+01 -3.295381309804e-01 0.0 
-3.295381309804e-01 -8.969194698133e+01 0.0 
0.0 0.0 -3.626666666024e+01 
-5.729153837014e+01 3.333211979646e+00 0.0 
3.333211979646e+00 -9.358400787875e+01 0.0 
0.0 0.0 -4.486266387467e+01 
-5.868676978893e+01 -2.905462883556e-01 0.0 
-2.905462883556e-01 -1.625141526726e+02 0.0 
0.0 0.0 -6.596027673845e+01 
-1.012103656703e+02 2.408917422591e+00 0.0 
2.408917422591e+00 -2.701254608421e+02 0.0 
0.0 0.0 -1.110007479537e+02 
-5.428931894753e+01 -3.234555377477e-01 0.0 
-3.234555377477e-01 -1.514611146061e+02 0.0 
0.0 0.0 -6.132513006609e+01 
-7.398332729600e+01 4.145222866511e+00 0.0 
4.145222866511e+00 -1.465171143269e+02 0.0 
0.0 0.0 -6.575013248687e+01 
-4.676353681648e+01 -2.502505325813e+00 0.0 
-2.502505325813e+00 -1.333450044671e+02 0.0 
0.0 0.0 -5.363256238508e+01 
-1.115927535698e+02 5.835322658989e+00 0.0 
5.835322658989e+00 -2.909706044731e+02 0.0 
0.0 0.0 -1.203690074129e+02 
-3.360866319976e+01 -2.601837305867e+00 0.0 
-2.601837305867e+00 -9.311426585468e+01 0.0 
0.0 0.0 -3.761687871633e+01 
-1.071224767027e+02 4.705783586283e+00 0.0 
4.705783586283e+00 -2.811107055498e+02 0.0 
0.0 0.0 -1.160699546757e+02 
-8.125120525281e+01 7.646189795474e-01 0.0 
7.646189795474e-01 -2.192689515231e+02 0.0 
0.0 0.0 -8.975604703278e+01 
-1.153383355974e+02 2.904483807789e+00 0.0 
2.904483807789e+00 -2.978009960979e+02 0.0 
0.0 0.0 -1.235417995086e+02 
-4.349247637996e+01 2.615506629725e+00 0.0 
2.615506629725e+00 -1.411819400326e+02 0.0 
0.0 0.0 -5.500232492376e+01 
-3.168034374530e+01 -1.855396227984e+00 0.0 
-1.855396227984e+00 -8.878485795187e+01 0.0 
0.0 0.0 -3.573956050915e+01 
-4.812207503060e+01 1.812456241161e+00 0.0 
1.812456241161e+00 -7.504569949586e+01 0.0 
0.0 0.0 -3.655033235794e+01 
-9.407701259064e+01 1.013258159911e+01 0.0 
1.013258159911e+01 -2.602341555580e+02 0.0 
0.0 0.0 -1.058933504446e+02 
-4.758197896814e+01 2.003330485401e+01 0.0 
2.003330485401e+01 -1.274500738443e+02 0.0 
0.0 0.0 -5.210961584372e+01 
-5.609258727803e+01 2.627171948047e+00 0.0 
2.627171948047e+00 -9.490363922996e+01 0.0 
0.0 0.0 -4.489886795240e+01 
-3.653987937279e+01 -2.416824734193e+00 0.0 
-2.416824734193e+00 -1.037845713651e+02 0.0 
0.0 0.0 -4.169733522135e+01 
-6.087265654366e+01 3.724149448331e+00 0.0 
3.724149448331e+00 -1.005428226695e+02 0.0 
0.0 0.0 -4.802464376395e+01 
-2.892402274161e+01 -5.757631969453e-01 0.0 
-5.757631969453e-01 -8.060159667312e+01 0.0 
0.0 0.0 -3.245768582442e+01 
-1.310562627492e+02 7.626305220800e+00 0.0 
7.626305220800e+00 -3.281369337836e+02 0.0 
0.0 0.0 -1.373579589599e+02 
-9.792723911415e+01 1.199399408520e+01 0.0 
1.199399408520e+01 -2.680517011339e+02 0.0 
0.0 0.0 -1.093936820744e+02 
-9.885236383433e+01 1.905510475332e+01 0.0 
1.905510475332e+01 -2.649078984226e+02 0.0 
0.0 0.0 -1.087280786771e+02 
-8.516593031064e+01 8.334276722428e+00 0.0 
8.334276722428e+00 -1.759254236110e+02 0.0 
0.0 0.0 -7.792740617649e+01 
-8.446786323617e+01 3.936993006244e+00 0.0 
3.936993006244e+00 -2.353070397053e+02 0.0 
0.0 0.0 -9.553247088243e+01 
-2.974369318490e+01 -2.656209487378e+00 0.0 
-2.656209487378e+00 -8.300608268688e+01 0.0 
0.0 0.0 -3.342493276154e+01 
-9.766729803751e+01 4.993960023107e+00 0.0 
4.993960023107e+00 -2.632136349472e+02 0.0 
0.0 0.0 -1.078642798954e+02 
-1.348923077254e+02 7.683134911530e+00 0.0 
7.683134911530e+00 -3.366376660802e+02 0.0 
0.0 0.0 -1.410589921417e+02 
-4.534740715775e+01 -1.336190597135e+00 0.0 
-1.336190597135e+00 -1.333958071259e+02 0.0 
0.0 0.0 -5.322296428509e+01 
-1.164899269267e+02 4.244645862765e+00 0.0 
4.244645862765e+00 -2.985816035521e+02 0.0 
0.0 0.0 -1.241214591436e+02 
-6.816404117283e+01 4.527433388356e+00 0.0 
4.527433388356e+00 -1.245765493108e+02 0.0 
0.0 0.0 -5.742217714510e+01 
-3.482222995365e+01 -2.577149950512e+00 0.0 
-2.577149950512e+00 -1.047108690036e+02 0.0 
0.0 0.0 -4.145992968719e+01 
-1.024043570801e+02 4.865265822023e+00 0.0 
4.865265822023e+00 -2.722222902511e+02 0.0 
0.0 0.0 -1.119879941993e+02 
-5.006972152733e+01 3.098741312771e+00 0.0 
3.098741312771e+00 -7.206916547448e+01 0.0 
0.0 0.0 -3.624166610054e+01 
-4.334038199789e+01 -4.870829135595e-01 0.0 
-4.870829135595e-01 -1.204523937835e+02 0.0 
0.0 0.0 -4.873783273443e+01 
-5.158531427868e+01 -1.042284453196e+00 0.0 
-1.042284453196e+00 -1.451348915957e+02 0.0 
0.0 0.0 -5.861606176231e+01 
-6.181216750504e+01 2.200961098889e+01 0.0 
2.200961098889e+01 -1.635031454348e+02 0.0 
0.0 0.0 -6.719459388194e+01 
-1.104472249215e+02 3.188453356268e+00 0.0 
3.188453356268e+00 -2.890219185771e+02 0.0 
0.0 0.0 -1.194407430496e+02 
-4.207355895596e+01 2.187788507653e+01 0.0 
2.187788507653e+01 -9.587832110901e+01 0.0 
0.0 0.0 -4.098556401949e+01 
-5.862730755969e+01 2.033872555294e+01 0.0 
2.033872555294e+01 -1.606280075964e+02 0.0 
0.0 0.0 -6.537659454682e+01 
-6.390479033075e+01 3.795553821780e+00 0.0 
3.795553821780e+00 -1.111271511083e+02 0.0 
0.0 0.0 -5.210958243173e+01 
-5.065170034997e+01 6.065393551348e-01 0.0 
6.065393551348e-01 -8.315408976387e+01 0.0 
0.0 0.0 -3.974173703415e+01 
-5.259159231800e+01 2.039969897227e+00 0.0 
2.039969897227e+00 -8.015243922279e+01 0.0 
0.0 0.0 -3.942320946224e+01 
-8.044770671773e+01 -4.823858457075e-01 0.0 
-4.823858457075e-01 -2.185410767871e+02 0.0 
0.0 0.0 -8.929663505146e+01 
-1.254666688512e+02 9.984403267828e+00 0.0 
9.984403267828e+00 -3.189890394079e+02 0.0 
0.0 0.0 -1.329367124777e+02 
-9.291779523125e+01 5.108382015619e+00 0.0 
5.108382015619e+00 -2.540679870472e+02 0.0 
0.0 0.0 -1.036957346835e+02 
-4.869326086594e+01 2.264103869369e+00 0.0 
2.264103869369e+00 -7.348742530528e+01 0.0 
0.0 0.0 -3.625420585137e+01 
-1.022367744762e+02 2.859698392088e+01 0.0 
2.859698392088e+01 -2.162679500844e+02 0.0 
0.0 0.0 -9.515141736818e+01 
-1.029021061251e+02 2.109140687565e+01 0.0 
2.109140687565e+01 -2.703516464256e+02 0.0 
0.0 0.0 -1.115761257652e+02 
-1.055424921274e+02 3.422015991316e+00 0.0 
3.422015991316e+00 -2.801581197620e+02 0.0 
0.0 0.0 -1.153101835668e+02 
-6.977393493420e+01 3.810862351271e+00 0.0 
3.810862351271e+00 -1.326927424423e+02 0.0 
0.0 0.0 -6.034000321296e+01 
-5.869034841753e+01 -4.911949585402e-01 0.0 
-4.911949585402e-01 -1.667795261078e+02 0.0 
0.0 0.0 -6.724096235761e+01 
-5.517390184977e+01 -8.451901806516e-01 0.0 
-8.451901806516e-01 -1.560291987347e+02 0.0 
0.0 0.0 -6.296093017535e+01 
-3.101181121362e+01 -1.790006791059e+00 0.0 
-1.790006791059e+00 -8.582873242486e+01 0.0 
0.0 0.0 -3.465216309154e+01 
-1.017837054001e+02 6.265738409391e+00 0.0 
6.265738409391e+00 -2.727703395549e+02 0.0 
0.0 0.0 -1.119662134865e+02 
-5.872278554355e+01 -5.080579821550e-01 0.0 
-5.080579821550e-01 -1.647287892574e+02 0.0 
0.0 0.0 -6.663547244029e+01 
-6.216645349070e+01 4.563344705204e+00 0.0 
4.563344705204e+00 -1.030134865717e+02 0.0 
0.0 0.0 -4.915398201872e+01 
-5.901912736975e+01 4.538498807949e+00 0.0 
4.538498807949e+00 -9.236417269724e+01 0.0 
0.0 0.0 -4.501499002010e+01 
-6.649346017412e+01 1.077160637521e+01 0.0 
1.077160637521e+01 -1.989108577411e+02 0.0 
0.0 0.0 -7.922129537457e+01 
-4.683839476959e+01 -2.662578657208e+00 0.0 
-2.662578657208e+00 -1.356235552255e+02 0.0 
0.0 0.0 -5.433858499853e+01 
-3.893822791858e+01 6.389906908874e+00 0.0 
6.389906908874e+00 -1.275953308221e+02 0.0 
0.0 0.0 -4.956006762219e+01 
-5.023766801597e+01 -2.384231908580e+00 0.0 
-2.384231908580e+00 -1.442661682600e+02 0.0 
0.0 0.0 -5.795115088280e+01 
-5.363122680431e+01 -2.123214354296e+00 0.0 
-2.123214354296e+00 -1.550932404694e+02 0.0 
0.0 0.0 -6.221734018210e+01 
-3.339113732941e+01 -2.914430147076e+00 0.0 
-2.914430147076e+00 -9.392725378329e+01 0.0 
0.0 0.0 -3.779551733381e+01 
-1.200860648163e+02 1.048761212104e+01 0.0 
1.048761212104e+01 -3.094963497223e+02 0.0 
0.0 0.0 -1.284747243616e+02 
-6.341123159578e+01 -2.713178279754e-01 0.0 
-2.713178279754e-01 -1.866017389786e+02 0.0 
0.0 0.0 -7.460389117232e+01 
-7.513009830117e+01 5.619741320928e+00 0.0 
5.619741320928e+00 -1.450352093127e+02 0.0 
0.0 0.0 -6.564959228417e+01 
-6.659244128654e+01 7.052686710160e-01 0.0 
7.052686710160e-01 -1.965673683932e+02 0.0 
0.0 0.0 -7.854794290391e+01 
-9.570504700043e+01 3.809419342395e+00 0.0 
3.809419342395e+00 -2.621232235967e+02 0.0 
0.0 0.0 -1.069484811791e+02 
-7.868165079086e+01 1.707573653830e+00 0.0 
1.707573653830e+00 -2.244126249278e+02 0.0 
0.0 0.0 -9.052828271561e+01 
-5.949351771549e+01 1.751667620205e+01 0.0 
1.751667620205e+01 -1.713414963782e+02 0.0 
0.0 0.0 -6.885050422811e+01 
-3.407805924240e+01 -1.531063034124e+00 0.0 
-1.531063034124e+00 -9.454517567190e+01 0.0 
0.0 0.0 -3.818697047429e+01 
-1.293160006779e+02 8.242831050431e+00 0.0 
8.242831050431e+00 -3.273488270771e+02 0.0 
0.0 0.0 -1.365994483265e+02 
-1.361417828041e+02 1.117734665242e+01 0.0 
1.117734665242e+01 -3.382554375656e+02 0.0 
0.0 0.0 -1.419191661109e+02 
-7.992745743062e+01 2.385748131549e+01 0.0 
2.385748131549e+01 -2.021398000902e+02 0.0 
0.0 0.0 -8.422017725624e+01 
-5.692789493316e+01 -1.711877946405e+00 0.0 
-1.711877946405e+00 -1.657629654324e+02 0.0 
0.0 0.0 -6.640725810967e+01 
-8.697032466208e+01 2.756299136633e+00 0.0 
2.756299136633e+00 -2.432924465895e+02 0.0 
0.0 0.0 -9.867883137549e+01 
-5.934313032411e+01 2.430537190993e+00 0.0 
2.430537190993e+00 -1.014574906709e+02 0.0 
0.0 0.0 -4.784018629851e+01 
-6.236217544732e+01 -1.965027103890e-01 0.0 
-1.965027103890e-01 -1.755036563131e+02 0.0 
0.0 0.0 -7.095974952813e+01 
-4.582384855468e+01 1.878747709001e+01 0.0 
1.878747709001e+01 -1.254549423180e+02 0.0 
0.0 0.0 -5.098363726182e+01 
-4.779867890341e+01 -1.079540209683e+00 0.0 
-1.079540209683e+00 -1.340982101544e+02 0.0 
0.0 0.0 -5.416906671734e+01 
-3.946565566727e+01 -2.049435999162e+00 0.0 
-2.049435999162e+00 -1.143510441197e+02 0.0 
0.0 0.0 -4.574500993610e+01 
-6.212806130405e+01 3.155255167500e-02 0.0 
3.155255167500e-02 -1.773545989982e+02 0.0 
0.0 0.0 -7.144479809068e+01 
-4.313002776700e+01 -2.430845468355e+00 0.0 
-2.430845468355e+00 -1.222535319843e+02 0.0 
0.0 0.0 -4.921506792539e+01 
-4.017241165760e+01 -8.046655863647e-01 0.0 
-8.046655863647e-01 -1.117718061466e+02 0.0 
0.0 0.0 -4.518326534126e+01 
-8.080340879494e+01 2.824203148665e+00 0.0 
2.824203148665e+00 -2.255568898409e+02 0.0 
0.0 0.0 -9.150808959076e+01 
-1.006263946166e+02 3.624019219158e+00 0.0 
3.624019219158e+00 -2.711963355126e+02 0.0 
0.0 0.0 -1.111468190388e+02 
-9.983125639490e+01 2.690159965344e+01 0.0 
2.690159965344e+01 -2.424473220584e+02 0.0 
0.0 0.0 -1.022835735360e+02 
-6.690424221120e+00 -7.274924827087e-01 0.0 
-7.274924827087e-01 -9.110516073115e+00 0.0 
0.0 0.0 -4.340282088271e+00 
-6.119323687961e+01 2.240572931045e+00 0.0 
2.240572931045e+00 -1.875559719239e+02 0.0 
0.0 0.0 -7.422476264105e+01 
-6.242520756982e+01 7.714506657231e-01 0.0 
7.714506657231e-01 -1.875304312335e+02 0.0 
0.0 0.0 -7.458669164099e+01 
-6.016941542271e+01 -1.089656439066e+00 0.0 
-1.089656439066e+00 -1.762918008541e+02 0.0 
0.0 0.0 -7.053836488304e+01 
-5.603076093788e+01 2.257815624455e+00 0.0 
2.257815624455e+00 -9.071736251070e+01 0.0 
0.0 0.0 -4.362443703457e+01 
-7.082810863565e+01 6.844264587027e-01 0.0 
6.844264587027e-01 -2.054980385077e+02 0.0 
0.0 0.0 -8.249784414300e+01 
-5.014832309666e+01 -2.205712793582e+00 0.0 
-2.205712793582e+00 -1.420535620911e+02 0.0 
0.0 0.0 -5.726056555633e+01 
-6.551292306213e+01 7.465979478041e-01 0.0 
7.465979478041e-01 -1.877158020573e+02 0.0 
0.0 0.0 -7.556861753583e+01 
-6.887704570116e+01 2.487814664819e+00 0.0 
2.487814664819e+00 -1.342398789815e+02 0.0 
0.0 0.0 -6.053507740480e+01 
-5.099004520399e+01 -7.122300865416e-01 0.0 
-7.122300865416e-01 -1.427420463250e+02 0.0 
0.0 0.0 -5.771962745869e+01 
-2.067120242705e+01 -2.525742323507e+00 0.0 
-2.525742323507e+00 -5.461525521291e+01 0.0 
0.0 0.0 -2.218593729199e+01 
-2.702232489306e+01 -2.814820321008e+00 0.0 
-2.814820321008e+00 -7.446691172339e+01 0.0 
0.0 0.0 -3.004677098493e+01 
-4.071123753387e+01 -2.724631686292e+00 0.0 
-2.724631686292e+00 -1.221181384573e+02 0.0 
0.0 0.0 -4.844881279736e+01 
-5.011757807290e+01 -2.355074687479e+00 0.0 
-2.355074687479e+00 -1.465068901141e+02 0.0 
0.0 0.0 -5.858734045609e+01 
-6.542780735975e+01 1.999128465064e+00 0.0 
1.999128465064e+00 -1.969193291115e+02 0.0 
0.0 0.0 -7.830414094137e+01 
-6.883520228386e+01 1.655279597211e+00 0.0 
1.655279597211e+00 -1.977393418110e+02 0.0 
0.0 0.0 -7.957236322845e+01 
-3.074342409326e+01 -2.615460911477e+00 0.0 
-2.615460911477e+00 -8.403797344235e+01 0.0 
0.0 0.0 -3.403441926068e+01 
-2.695926344347e+01 -1.437072997466e+00 0.0 
-1.437072997466e+00 -7.472995523634e+01 0.0 
0.0 0.0 -3.010676560394e+01 
-5.795993422612e+01 6.549229084136e+00 0.0 
6.549229084136e+00 -8.090233790377e+01 0.0 
0.0 0.0 -4.125868163897e+01 
-4.403017360118e+01 -9.486641513464e-01 0.0 
-9.486641513464e-01 -1.229584612675e+02 0.0 
0.0 0.0 -4.969659046060e+01 
-1.136278194382e+02 7.689282000131e+00 0.0 
7.689282000131e+00 -2.995113518987e+02 0.0 
0.0 0.0 -1.235417514011e+02 
-9.631667973725e+01 2.571436065702e+01 0.0 
2.571436065702e+01 -2.392280079929e+02 0.0 
0.0 0.0 -1.002634063190e+02 
-6.893902897648e+01 2.238217666818e+01 0.0 
2.238217666818e+01 -1.120191713707e+02 0.0 
0.0 0.0 -5.388746010415e+01 
-7.962128149697e+01 9.324158380835e+00 0.0 
9.324158380835e+00 -1.529192720139e+02 0.0 
0.0 0.0 -6.936216605327e+01 
-1.032285598046e+02 2.778687715712e+01 0.0 
2.778687715712e+01 -2.457298725302e+02 0.0 
0.0 0.0 -1.042875297004e+02 
-6.208106781651e+01 1.153380751374e+01 0.0 
1.153380751374e+01 -1.872311053840e+02 0.0 
0.0 0.0 -7.439365196017e+01 
-8.798149683310e+01 2.468716384501e+01 0.0 
2.468716384501e+01 -2.206146480743e+02 0.0 
0.0 0.0 -9.217884347221e+01 
-3.392295339854e+01 -2.584446508555e+00 0.0 
-2.584446508555e+00 -9.515207008176e+01 0.0 
0.0 0.0 -3.832250704409e+01 
-6.946734734584e+01 9.327147152607e-01 0.0 
9.327147152607e-01 -1.965002215397e+02 0.0 
0.0 0.0 -7.939027066567e+01 
-5.220432358085e+01 1.339351203713e+01 0.0 
1.339351203713e+01 -1.620330571358e+02 0.0 
0.0 0.0 -6.387121421501e+01 
-3.427278347172e+01 -1.093996655731e+00 0.0 
-1.093996655731e+00 -1.060497292682e+02 0.0 
0.0 0.0 -4.169675382198e+01 
-2.881914634539e+01 -2.807144256662e+00 0.0 
-2.807144256662e+00 -7.596407711785e+01 0.0 
0.0 0.0 -3.103496703897e+01 
-5.726735045157e+01 -1.859884364203e+00 0.0 
-1.859884364203e+00 -1.638161697426e+02 0.0 
0.0 0.0 -6.592505605824e+01 
-6.473347150059e+01 1.596685214707e+00 0.0 
1.596685214707e+00 -1.887095395479e+02 0.0 
0.0 0.0 -7.563290331454e+01 
-6.783888879779e+01 2.780169177083e+00 0.0 
2.780169177083e+00 -1.981190834181e+02 0.0 
0.0 0.0 -7.938739166476e+01 
-4.634845313003e+01 -2.057682263220e+00 0.0 
-2.057682263220e+00 -1.309038742077e+02 0.0 
0.0 0.0 -5.277569820132e+01 
-7.417987727629e+01 1.760319927825e+00 0.0 
1.760319927825e+00 -2.153290242146e+02 0.0 
0.0 0.0 -8.645267044727e+01 
-6.362522360324e+01 2.869285416604e+00 0.0 
2.869285416604e+00 -1.887391956945e+02 0.0 
0.0 0.0 -7.530932578933e+01 
-6.406642853774e+01 3.740725480080e+00 0.0 
3.740725480080e+00 -1.962817088936e+02 0.0 
0.0 0.0 -7.770444122941e+01 
-5.174914456040e+01 -1.187272238248e+00 0.0 
-1.187272238248e+00 -1.474473471968e+02 0.0 
0.0 0.0 -5.935894752716e+01 
-9.647661087980e+01 1.444441189290e+01 0.0 
1.444441189290e+01 -2.643571038577e+02 0.0 
0.0 0.0 -1.078501144213e+02 
-6.708837233562e+01 6.077584029382e+00 0.0 
6.077584029382e+00 -1.128598810835e+02 0.0 
0.0 0.0 -5.358447602573e+01 
-5.981478543663e+01 4.169730386863e+00 0.0 
4.169730386863e+00 -1.865093372033e+02 0.0 
0.0 0.0 -7.349723679197e+01 
-1.238161511567e+02 8.794438735287e+00 0.0 
8.794438735287e+00 -3.180313210643e+02 0.0 
0.0 0.0 -1.321542416663e+02 
-3.660194098144e+01 -2.104897745253e+00 0.0 
-2.104897745253e+00 -1.055668196954e+02 0.0 
0.0 0.0 -4.225062820304e+01 
-1.337360305206e+02 1.233698375345e+01 0.0 
1.233698375345e+01 -3.358080603558e+02 0.0 
0.0 0.0 -1.404632272629e+02 
-6.975338637285e+01 1.840446313850e+00 0.0 
1.840446313850e+00 -2.061273550856e+02 0.0 
0.0 0.0 -8.236422243755e+01 
-1.065518184215e+02 2.897106888786e+01 0.0 
2.897106888786e+01 -2.505026502561e+02 0.0 
0.0 0.0 -1.067163406033e+02 
-7.224076263712e+01 2.656676710604e+01 0.0 
2.656676710604e+01 -1.569963484045e+02 0.0 
0.0 0.0 -6.837113331248e+01 
-3.512366113164e+01 -3.249444935987e+00 0.0 
-3.249444935987e+00 -1.030014966034e+02 0.0 
0.0 0.0 -4.103754732050e+01 
-7.253072051671e+01 2.431811126150e+01 0.0 
2.431811126150e+01 -1.288038760393e+02 0.0 
0.0 0.0 -6.000037896680e+01 
-8.612652641555e+01 1.468785022429e+01 0.0 
1.468785022429e+01 -1.675439487597e+02 0.0 
0.0 0.0 -7.570114255258e+01 
-7.296593542920e+01 3.165688200739e+00 0.0 
3.165688200739e+00 -2.153944313998e+02 0.0 
0.0 0.0 -8.610811004869e+01 
-4.063070281338e+01 1.478859845573e+01 0.0 
1.478859845573e+01 -1.178095982524e+02 0.0 
0.0 0.0 -4.713209031974e+01 
-7.616787418294e+01 2.567531309956e+01 0.0 
2.567531309956e+01 -1.457757357973e+02 0.0 
0.0 0.0 -6.618308299407e+01 
-5.405909942142e+01 2.062393539256e+01 0.0 
2.062393539256e+01 -1.451861909235e+02 0.0 
0.0 0.0 -5.937358710347e+01 
-2.981831934969e+01 -3.567458437209e+00 0.0 
-3.567458437209e+00 -8.342402698824e+01 0.0 
0.0 0.0 -3.357270390138e+01 
-9.099091312071e+01 1.271643082153e+01 0.0 
1.271643082153e+01 -1.960329340492e+02 0.0 
0.0 0.0 -8.570715415097e+01 
-2.707705578924e+01 -3.569365698558e+00 0.0 
-3.569365698558e+00 -7.297598884232e+01 0.0 
0.0 0.0 -2.961591338947e+01 
-1.246586025820e+02 2.176490876345e+01 0.0 
2.176490876345e+01 -3.133684601476e+02 0.0 
0.0 0.0 -1.310081188189e+02 
-7.892512152372e+01 4.704684376059e+00 0.0 
4.704684376059e+00 -1.640637010704e+02 0.0 
0.0 0.0 -7.249664677824e+01 
-1.018989898613e+02 1.393963225529e+01 0.0 
1.393963225529e+01 -2.754797841008e+02 0.0 
0.0 0.0 -1.128136321886e+02 
-5.127196994834e+01 1.105515892736e+00 0.0 
1.105515892736e+00 -8.123393005965e+01 0.0 
0.0 0.0 -3.935177000240e+01 
-7.898536890745e+01 9.633956819576e+00 0.0 
9.633956819576e+00 -1.440115906731e+02 0.0 
0.0 0.0 -6.649908787416e+01 
-6.655159122867e+01 4.318687416965e+00 0.0 
4.318687416965e+00 -1.974678829575e+02 0.0 
0.0 0.0 -7.880584225586e+01 
-7.420390852609e+01 1.213038458938e+01 0.0 
1.213038458938e+01 -2.167880788346e+02 0.0 
0.0 0.0 -8.689759620820e+01 
-8.568597618607e+01 1.102177172200e+01 0.0 
1.102177172200e+01 -1.741439649166e+02 0.0 
0.0 0.0 -7.754898233081e+01 
-1.099547187332e+02 4.573276695394e+00 0.0 
4.573276695394e+00 -2.899952377046e+02 0.0 
0.0 0.0 -1.195849869313e+02 
-7.205365977776e+01 7.898670728287e+00 0.0 
7.898670728287e+00 -1.231166219250e+02 0.0 
0.0 0.0 -5.815108451084e+01 
-9.698469721262e+01 8.773701195483e+00 0.0 
8.773701195483e+00 -2.693431995416e+02 0.0 
0.0 0.0 -1.094983690263e+02 
-3.242903592814e+01 -3.203436448072e+00 0.0 
-3.203436448072e+00 -9.437987896425e+01 0.0 
0.0 0.0 -3.764267446772e+01 
-7.691272391481e+01 1.004298764648e+01 0.0 
1.004298764648e+01 -1.338127967490e+02 0.0 
0.0 0.0 -6.281765619915e+01 
-1.221986408511e+02 3.214949400964e+01 0.0 
3.214949400964e+01 -2.926685084108e+02 0.0 
0.0 0.0 -1.240601447786e+02 
-1.348776504012e+02 9.789742064942e+00 0.0 
9.789742064942e+00 -3.372841076073e+02 0.0 
0.0 0.0 -1.412485274026e+02 
-6.747680588423e+01 -2.083042947495e-01 0.0 
-2.083042947495e-01 -1.954074920474e+02 0.0 
0.0 0.0 -7.846528937949e+01 
-5.369899747361e+01 3.280091368167e+00 0.0 
3.280091368167e+00 -8.255913189602e+01 0.0 
0.0 0.0 -4.047743881089e+01 
-4.750037844286e+01 8.496114060915e-01 0.0 
8.496114060915e-01 -7.060621208151e+01 0.0 
0.0 0.0 -3.503197715731e+01 
-7.208928669323e+01 2.764225551732e+00 0.0 
2.764225551732e+00 -2.073203075761e+02 0.0 
0.0 0.0 -8.342287828081e+01 
-1.048662274102e+02 4.844631498222e+00 0.0 
4.844631498222e+00 -2.808954286511e+02 0.0 
0.0 0.0 -1.153284968184e+02 
-1.092045846992e+02 6.196310138773e+00 0.0 
6.196310138773e+00 -2.903461238268e+02 0.0 
0.0 0.0 -1.194652125578e+02 
-2.454412792865e+01 -1.616268219090e+00 0.0 
-1.616268219090e+00 -6.590628758513e+01 0.0 
0.0 0.0 -2.673512465413e+01 
-3.406362608996e+01 5.632590800678e+00 0.0 
5.632590800678e+00 -1.102763233381e+02 0.0 
0.0 0.0 -4.290198482842e+01 
-6.267470620077e+01 5.907580399047e+00 0.0 
5.907580399047e+00 -1.945299024882e+02 0.0 
0.0 0.0 -7.676138260670e+01 
-6.227812022072e+01 4.614899912593e+00 0.0 
4.614899912593e+00 -1.876578640510e+02 0.0 
0.0 0.0 -7.458079528151e+01 
-5.450633953189e+01 1.817779555640e+01 0.0 
1.817779555640e+01 -1.568697586529e+02 0.0 
0.0 0.0 -6.301282945544e+01 
-9.068296468932e+01 1.266188652917e+01 0.0 
1.266188652917e+01 -1.856151798930e+02 0.0 
0.0 0.0 -8.248944337470e+01 
-9.451087731164e+01 2.379946869235e+01 0.0 
2.379946869235e+01 -1.970711159942e+02 0.0 
0.0 0.0 -8.707459799175e+01 
-8.130299914542e+01 6.606519769401e+00 0.0 
6.606519769401e+00 -1.652925440836e+02 0.0 
0.0 0.0 -7.357866296870e+01 
-4.448733920855e+01 2.313020387710e+01 0.0 
2.313020387710e+01 -9.709310039355e+01 0.0 
0.0 0.0 -4.207413188063e+01 
-8.008664107852e+01 1.273797229481e+01 0.0 
1.273797229481e+01 -1.458843035124e+02 0.0 
0.0 0.0 -6.739128337729e+01 
-1.066982910236e+02 6.062554984405e+00 0.0 
6.062554984405e+00 -2.819370796960e+02 0.0 
0.0 0.0 -1.161906112159e+02 
-8.384428406844e+01 8.399124768191e+00 0.0 
8.399124768191e+00 -1.736366418901e+02 0.0 
0.0 0.0 -7.684427778758e+01 
-7.468191326303e+01 1.051025409047e+01 0.0 
1.051025409047e+01 -1.237734184761e+02 0.0 
0.0 0.0 -5.913659952173e+01 
-7.295837915032e+01 1.766806242380e+00 0.0 
1.766806242380e+00 -2.066408784321e+02 0.0 
0.0 0.0 -8.347977727472e+01 
-5.843218559844e+01 6.549687999748e+00 0.0 
6.549687999748e+00 -1.841591980118e+02 0.0 
0.0 0.0 -7.237741508308e+01 
-7.304478991400e+01 7.453349299088e+00 0.0 
7.453349299088e+00 -1.317340341799e+02 0.0 
0.0 0.0 -6.103364722818e+01 
-8.519637986464e+01 1.128963511129e+01 0.0 
1.128963511129e+01 -1.650564776673e+02 0.0 
0.0 0.0 -7.467585725958e+01 
-7.115171193281e+01 5.366587674716e+00 0.0 
5.366587674716e+00 -1.317356102258e+02 0.0 
0.0 0.0 -6.046619664759e+01 
-6.847422750134e+01 5.463282741086e+00 0.0 
5.463282741086e+00 -1.211870722415e+02 0.0 
0.0 0.0 -5.649838992286e+01 
-1.244663604969e+02 6.799876155015e+00 0.0 
6.799876155015e+00 -3.182138599199e+02 0.0 
0.0 0.0 -1.324040661250e+02 
-1.189402016971e+02 2.223636435595e+01 0.0 
2.223636435595e+01 -3.013921491714e+02 0.0 
0.0 0.0 -1.256997052606e+02 
-1.190863727427e+02 7.240140474294e+00 0.0 
7.240140474294e+00 -3.089682457881e+02 0.0 
0.0 0.0 -1.280163855593e+02 
-9.171380879794e+01 2.654804870494e+00 0.0 
2.654804870494e+00 -2.523296441659e+02 0.0 
0.0 0.0 -1.028130358892e+02 
-3.907145329028e+01 2.130841358487e+01 0.0 
2.130841358487e+01 -6.118785652367e+01 0.0 
0.0 0.0 -2.967779294419e+01 
-1.059003627619e+02 1.592498329112e+01 0.0 
1.592498329112e+01 -2.824054892656e+02 0.0 
0.0 0.0 -1.160917556082e+02 
-7.591990081294e+01 1.444867748390e+01 0.0 
1.444867748390e+01 -1.296332587368e+02 0.0 
0.0 0.0 -6.126594786492e+01 
-3.943280053451e+01 -2.258805444427e+00 0.0 
-2.258805444427e+00 -1.111435635553e+02 0.0 
0.0 0.0 -4.477290922693e+01 
-6.512131747298e+01 6.331351041980e+00 0.0 
6.331351041980e+00 -1.956632477245e+02 0.0 
0.0 0.0 -7.783536955924e+01 
-7.476377037552e+01 6.637214410948e+00 0.0 
6.637214410948e+00 -2.226534327537e+02 0.0 
0.0 0.0 -8.882516093875e+01 
-8.242233823389e+01 1.353504906735e+01 0.0 
1.353504906735e+01 -2.347746020510e+02 0.0 
0.0 0.0 -9.475908208547e+01 
-3.317050874152e+01 7.789613979511e-01 0.0 
7.789613979511e-01 -1.052104427266e+02 0.0 
0.0 0.0 -4.111428544044e+01 
-6.081300810115e+01 6.828639763526e+00 0.0 
6.828639763526e+00 -1.852330633540e+02 0.0 
0.0 0.0 -7.341382143655e+01 
-9.114850058546e+01 1.497714947854e+01 0.0 
1.497714947854e+01 -2.528385782219e+02 0.0 
0.0 0.0 -1.027961236422e+02 
-4.991558341037e+01 2.307801330380e+01 0.0 
2.307801330380e+01 -9.889591636455e+01 0.0 
0.0 0.0 -4.424344993248e+01 
-7.514862817352e+01 7.171444861119e-01 0.0 
7.171444861119e-01 -2.144361007754e+02 0.0 
0.0 0.0 -8.647541868468e+01 
-6.696500476962e+01 8.527174939662e+00 0.0 
8.527174939662e+00 -1.024917401081e+02 0.0 
0.0 0.0 -5.043702346331e+01 
-3.335213862533e+01 -5.185754651427e-01 0.0 
-5.185754651427e-01 -4.064082705149e+01 0.0 
0.0 0.0 -2.179788970305e+01 
-2.547687468497e+01 1.613808338585e+01 0.0 
1.613808338585e+01 -1.846223035994e+01 0.0 
0.0 0.0 -1.278173151347e+01 
-8.903799789294e+01 3.908372606749e+00 0.0 
3.908372606749e+00 -2.444208131353e+02 0.0 
0.0 0.0 -9.963764330846e+01 
-1.051553723735e+02 1.241487125602e+01 0.0 
1.241487125602e+01 -2.851099361090e+02 0.0 
0.0 0.0 -1.166795925448e+02 
-9.655235168191e+01 2.291601046873e+01 0.0 
2.291601046873e+01 -2.027834535831e+02 0.0 
0.0 0.0 -8.940074157949e+01 
-6.874625570369e+01 9.656168785753e+00 0.0 
9.656168785753e+00 -2.091216110927e+02 0.0 
0.0 0.0 -8.296036003893e+01 
-8.322247067073e+01 1.676225856543e+00 0.0 
1.676225856543e+00 -2.334115104456e+02 0.0 
0.0 0.0 -9.459019433490e+01 
-6.425715143615e+01 6.155309280891e+00 0.0 
6.155309280891e+00 -1.023772481190e+02 0.0 
0.0 0.0 -4.959031986653e+01 
-2.702797779352e+01 1.770239258066e+01 0.0 
1.770239258066e+01 -2.009626067516e+01 0.0 
0.0 0.0 -1.373727154060e+01 
-9.961436432164e+01 1.297200078797e+01 0.0 
1.297200078797e+01 -2.743025213389e+02 0.0 
0.0 0.0 -1.117750656982e+02 
-7.901567131856e+01 1.152765537847e+01 0.0 
1.152765537847e+01 -2.281737188080e+02 0.0 
0.0 0.0 -9.175681703798e+01 
-5.377403993288e+01 2.530052046732e+01 0.0 
2.530052046732e+01 -1.008591677938e+02 0.0 
0.0 0.0 -4.598996231801e+01 
-1.110604640078e+02 7.398468854286e+00 0.0 
7.398468854286e+00 -2.913927243107e+02 0.0 
0.0 0.0 -1.203359564955e+02 
-3.630645331949e+01 -1.242940893876e+00 0.0 
-1.242940893876e+00 -1.068870766748e+02 0.0 
0.0 0.0 -4.255805899828e+01 
-1.155180694391e+02 8.867839134207e+00 0.0 
8.867839134207e+00 -3.005691504520e+02 0.0 
0.0 0.0 -1.244261659673e+02 
-1.286620130669e+02 1.040429976456e+01 0.0 
1.040429976456e+01 -3.269596099379e+02 0.0 
0.0 0.0 -1.362864869014e+02 
-9.420078795418e+01 1.353873888436e+01 0.0 
1.353873888436e+01 -2.631977138241e+02 0.0 
0.0 0.0 -1.068195505335e+02 
-7.444189559624e+01 7.654478795334e+00 0.0 
7.654478795334e+00 -1.335272177965e+02 0.0 
0.0 0.0 -6.199073401783e+01 
-9.924085500386e+01 2.543125995108e+01 0.0 
2.543125995108e+01 -2.512763719390e+02 0.0 
0.0 0.0 -1.047551680829e+02 
-1.305011648784e+02 1.174658109501e+01 0.0 
1.174658109501e+01 -3.279853143582e+02 0.0 
0.0 0.0 -1.371459437710e+02 
-2.744762485913e+01 1.821035609052e+01 0.0 
1.821035609052e+01 -2.081999940090e+01 0.0 
0.0 0.0 -1.408028727801e+01 
-6.959369429063e+01 8.140097021714e+00 0.0 
8.140097021714e+00 -1.128111410669e+02 0.0 
0.0 0.0 -5.432145060727e+01 
-1.170023237184e+02 2.465736503302e+01 0.0 
2.465736503302e+01 -2.938078437803e+02 0.0 
0.0 0.0 -1.228430502496e+02 
-7.539968306706e+01 7.217332474022e+00 0.0 
7.217332474022e+00 -1.420764646999e+02 0.0 
0.0 0.0 -6.484284433010e+01 
-8.521725350457e+01 1.220158171628e+01 0.0 
1.220158171628e+01 -2.451013911459e+02 0.0 
0.0 0.0 -9.869559339514e+01 
-6.358754888513e+01 8.761525208876e+00 0.0 
8.761525208876e+00 -1.923027460239e+02 0.0 
0.0 0.0 -7.636708847270e+01 
-8.435564676580e+01 1.901996114414e-01 0.0 
1.901996114414e-01 -2.306068298650e+02 0.0 
0.0 0.0 -9.408874298925e+01 
-2.359563293628e+01 8.784730384318e-01 0.0 
8.784730384318e-01 -6.025436708154e+01 0.0 
0.0 0.0 -2.475500000535e+01 
-7.776606027352e+01 6.908694634515e+00 0.0 
6.908694634515e+00 -1.525635734070e+02 0.0 
0.0 0.0 -6.869889010415e+01 
-4.269144807112e+01 -1.989999893833e+00 0.0 
-1.989999893833e+00 -1.198990264233e+02 0.0 
0.0 0.0 -4.837714234832e+01 
-2.735516094803e+01 1.829658728541e+01 0.0 
1.829658728541e+01 -2.082550997266e+01 0.0 
0.0 0.0 -1.405420127621e+01 
-9.401863703108e+01 2.573899296581e+01 0.0 
2.573899296581e+01 -2.365558465635e+02 0.0 
0.0 0.0 -9.877234507838e+01 
-8.278742304898e+01 6.213223336273e+00 0.0 
6.213223336273e+00 -1.745255392367e+02 0.0 
0.0 0.0 -7.679388868570e+01 
-3.393583494223e+01 -2.036965275470e+00 0.0 
-2.036965275470e+00 -9.690908421604e+01 0.0 
0.0 0.0 -3.885347574748e+01 
-6.518371158862e+01 2.348951430551e+01 0.0 
2.348951430551e+01 -1.661661992478e+02 0.0 
0.0 0.0 -6.900497325092e+01 
-7.066430171481e+01 7.662147985504e+00 0.0 
7.662147985504e+00 -1.215950356470e+02 0.0 
0.0 0.0 -5.727780120854e+01 
-8.137781843919e+01 1.999266769333e+00 0.0 
1.999266769333e+00 -2.244261434411e+02 0.0 
0.0 0.0 -9.134118856409e+01 
-3.541603392710e+01 5.417592163074e-01 0.0 
5.417592163074e-01 -1.061077596248e+02 0.0 
0.0 0.0 -4.205713806558e+01 
-3.728031538280e+01 1.318392682143e+01 0.0 
1.318392682143e+01 -1.136373288388e+02 0.0 
0.0 0.0 -4.487529326649e+01 
-2.776947731645e+01 -3.350360564884e+00 0.0 
-3.350360564884e+00 -7.539034334486e+01 0.0 
0.0 0.0 -3.054794619839e+01 
-3.220492440699e+01 -2.309225975253e+00 0.0 
-2.309225975253e+00 -9.612442084240e+01 0.0 
0.0 0.0 -3.809880357482e+01 
-3.001793634658e+01 -2.982137392522e+00 0.0 
-2.982137392522e+00 -8.618700364560e+01 0.0 
0.0 0.0 -3.446148199765e+01 
-7.672695527964e+01 1.090895240630e+01 0.0 
1.090895240630e+01 -2.270712372434e+02 0.0 
0.0 0.0 -9.073945775690e+01 
-1.044512169259e+02 2.171542638838e+01 0.0 
2.171542638838e+01 -2.316192924719e+02 0.0 
0.0 0.0 -1.004211528193e+02 
-2.674487667835e+01 1.812071995050e+01 0.0 
1.812071995050e+01 -2.065011758357e+01 0.0 
0.0 0.0 -1.381849827857e+01 
-1.298775772341e+02 6.323326258991e+00 0.0 
6.323326258991e+00 -3.273355461940e+02 0.0 
0.0 0.0 -1.367639370284e+02 
-5.050103571948e+01 8.241168219962e+00 0.0 
8.241168219962e+00 -1.625386991149e+02 0.0 
0.0 0.0 -6.351192045032e+01 
-7.234491928184e+01 1.115668876069e+01 0.0 
1.115668876069e+01 -1.141008713569e+02 0.0 
0.0 0.0 -5.553373719161e+01 
-2.674718081179e+01 1.281617069821e+00 0.0 
1.281617069821e+00 -7.801828722675e+01 0.0 
0.0 0.0 -3.102964041156e+01 
-1.353923783887e+02 1.344071954970e+01 0.0 
1.344071954970e+01 -3.364267620142e+02 0.0 
0.0 0.0 -1.411457421209e+02 
-3.164249367772e+01 -2.674673650333e+00 0.0 
-2.674673650333e+00 -8.692186860739e+01 0.0 
0.0 0.0 -3.516930868553e+01 
-5.011788956650e+01 -1.788856473616e+00 0.0 
-1.788856473616e+00 -1.403077589869e+02 0.0 
0.0 0.0 -5.672769456603e+01 
-9.816584126377e+01 1.549679975445e+01 0.0 
1.549679975445e+01 -2.698159048081e+02 0.0 
0.0 0.0 -1.099945238215e+02 
-7.089689526969e+01 4.134345000373e+00 0.0 
4.134345000373e+00 -2.070375465583e+02 0.0 
0.0 0.0 -8.298033254840e+01 
-1.128700644197e+02 2.269961825368e+01 0.0 
2.269961825368e+01 -2.887238494496e+02 0.0 
0.0 0.0 -1.200781741608e+02 
-4.045100321749e+01 1.809571004276e+01 0.0 
1.809571004276e+01 -1.078209985161e+02 0.0 
0.0 0.0 -4.408160052008e+01 
-8.154453964566e+01 1.672800573031e+01 0.0 
1.672800573031e+01 -1.395197460701e+02 0.0 
0.0 0.0 -6.591928571471e+01 
-1.227860275821e+02 2.046215234501e+01 0.0 
2.046215234501e+01 -3.122895264564e+02 0.0 
0.0 0.0 -1.301226662115e+02 
-6.574964147757e+01 5.496886991646e+00 0.0 
5.496886991646e+00 -1.107556757662e+02 0.0 
0.0 0.0 -5.255159517314e+01 
-9.900939062755e+01 2.569288972570e+01 0.0 
2.569288972570e+01 -2.044218140837e+02 0.0 
0.0 0.0 -9.062936141339e+01 
-8.147186393058e+01 1.240547591854e+01 0.0 
1.240547591854e+01 -1.449818261973e+02 0.0 
0.0 0.0 -6.753610703838e+01 
-8.577076553927e+01 1.490883113566e+01 0.0 
1.490883113566e+01 -1.569250630500e+02 0.0 
0.0 0.0 -7.240874857679e+01 
-2.791976541236e+01 6.762627432115e+00 0.0 
6.762627432115e+00 -8.256721831380e+01 0.0 
0.0 0.0 -3.274609511785e+01 
-1.248696930628e+02 5.084311287349e+00 0.0 
5.084311287349e+00 -3.176016305721e+02 0.0 
0.0 0.0 -1.323413970905e+02 
-7.551000468143e+01 1.013236522257e+01 0.0 
1.013236522257e+01 -1.333562920106e+02 0.0 
0.0 0.0 -6.225988900762e+01 
-6.307959801909e+01 1.331759501398e+01 0.0 
1.331759501398e+01 -1.918491395741e+02 0.0 
0.0 0.0 -7.607862127796e+01 
-2.630790092924e+01 1.782201273028e+01 0.0 
1.782201273028e+01 -2.089819344739e+01 0.0 
0.0 0.0 -1.376182831299e+01 
-1.297242113992e+02 2.394386996160e+01 0.0 
2.394386996160e+01 -3.195386152897e+02 0.0 
0.0 0.0 -1.343788480067e+02 
-3.226237013083e+01 3.655227231544e+00 0.0 
3.655227231544e+00 -1.033397669956e+02 0.0 
0.0 0.0 -4.028064113794e+01 
-4.732125450890e+01 -5.402441369421e-01 0.0 
-5.402441369421e-01 -1.316309720286e+02 0.0 
0.0 0.0 -5.328566796126e+01 
-1.063678321939e+02 1.941875665132e+01 0.0 
1.941875665132e+01 -2.819745091511e+02 0.0 
0.0 0.0 -1.161027024035e+02 
-2.880501056224e+01 3.033696777685e-01 0.0 
3.033696777685e-01 -8.049694203098e+01 0.0 
0.0 0.0 -3.239058577797e+01 
-6.258107647212e+01 1.941704267977e+01 0.0 
1.941704267977e+01 -1.750431455941e+02 0.0 
0.0 0.0 -7.088726661987e+01 
-1.036672279601e+02 1.492348354554e+01 0.0 
1.492348354554e+01 -2.812651572519e+02 0.0 
0.0 0.0 -1.150797155636e+02 
-9.093061439194e+01 1.642744658273e+01 0.0 
1.642744658273e+01 -1.776223254252e+02 0.0 
0.0 0.0 -8.016588194515e+01 
-9.485517991085e+01 1.917117212768e+01 0.0 
1.917117212768e+01 -1.909702707436e+02 0.0 
0.0 0.0 -8.534763519633e+01 
-1.003522299530e+02 1.645181926969e+01 0.0 
1.645181926969e+01 -2.709425165697e+02 0.0 
0.0 0.0 -1.109884239568e+02 
-8.333222912532e+01 1.184852296789e+01 0.0 
1.184852296789e+01 -1.549293597877e+02 0.0 
0.0 0.0 -7.107847667391e+01 
-5.315434797483e+01 1.026309418485e+01 0.0 
1.026309418485e+01 -1.687116618817e+02 0.0 
0.0 0.0 -6.615980295695e+01 
-9.297810305753e+01 2.732389979606e+01 0.0 
2.732389979606e+01 -2.247296649709e+02 0.0 
0.0 0.0 -9.491233040854e+01 
-2.700603108279e+01 1.757475908478e+01 0.0 
1.757475908478e+01 -2.100822933560e+01 0.0 
0.0 0.0 -1.400427812552e+01 
-9.977158282544e+01 2.713030366890e+01 0.0 
2.713030366890e+01 -2.233222408539e+02 0.0 
0.0 0.0 -9.652814710380e+01 
-3.829919691173e+01 1.738114443945e+01 0.0 
1.738114443945e+01 -2.254806740453e+01 0.0 
0.0 0.0 -1.785417929488e+01 
-3.354068455680e+01 1.015599933804e+01 0.0 
1.015599933804e+01 -1.849529860072e+01 0.0 
0.0 0.0 -1.521079494725e+01 
-6.429219510236e+01 1.042633067893e+01 0.0 
1.042633067893e+01 -1.979046433242e+02 0.0 
0.0 0.0 -7.825905152797e+01 
-3.522629903676e+01 7.531785071217e+00 0.0 
7.531785071217e+00 -2.500924203114e+01 0.0 
0.0 0.0 -1.767066232037e+01 
-7.447782258576e+01 1.955997470868e+01 0.0 
1.955997470868e+01 -2.066546468090e+02 0.0 
0.0 0.0 -8.393974081844e+01 
-5.657723572469e+01 1.551280229750e+01 0.0 
1.551280229750e+01 -1.672454748078e+02 0.0 
0.0 0.0 -6.674681315974e+01 
-6.802094043145e+01 8.177016892275e+00 0.0 
8.177016892275e+00 -2.031371660600e+02 0.0 
0.0 0.0 -8.094743194743e+01 
-3.130746075426e+01 -7.142005334125e-01 0.0 
-7.142005334125e-01 -9.622344384717e+01 0.0 
0.0 0.0 -3.785927138043e+01 
-6.128132881383e+01 8.454472336010e+00 0.0 
8.454472336010e+00 -1.912584906753e+02 0.0 
0.0 0.0 -7.536194584673e+01 
-8.166938279037e+01 8.937247712763e+00 0.0 
8.937247712763e+00 -1.631545828567e+02 0.0 
0.0 0.0 -7.304718969413e+01 
-9.903046807363e+01 2.570579341831e+01 0.0 
2.570579341831e+01 -2.146874427525e+02 0.0 
0.0 0.0 -9.371537324783e+01 
-1.150196453738e+02 4.275394878037e+00 0.0 
4.275394878037e+00 -2.989546020398e+02 0.0 
0.0 0.0 -1.237922742241e+02 
-1.166592690502e+02 2.095380003367e+01 0.0 
2.095380003367e+01 -3.001515472313e+02 0.0 
0.0 0.0 -1.246432448844e+02 
-6.843441522013e+01 3.402578122972e+00 0.0 
3.402578122972e+00 -2.058308525485e+02 0.0 
0.0 0.0 -8.187958033060e+01 
-8.198621778392e+01 1.213736014980e+01 0.0 
1.213736014980e+01 -1.548362354095e+02 0.0 
0.0 0.0 -7.064673595804e+01 
-6.562754004706e+01 7.738610853277e+00 0.0 
7.738610853277e+00 -2.020285290993e+02 0.0 
0.0 0.0 -7.989682074392e+01 
-1.300435903586e+02 4.639816898041e+00 0.0 
4.639816898041e+00 -3.264079198641e+02 0.0 
0.0 0.0 -1.365354530668e+02 
-7.753981094684e+01 9.740490053219e+00 0.0 
9.740490053219e+00 -1.428592058926e+02 0.0 
0.0 0.0 -6.571970505185e+01 
-8.380127968712e+01 1.574308349444e+01 0.0 
1.574308349444e+01 -1.479992057340e+02 0.0 
0.0 0.0 -6.914014562634e+01 
-9.034849757034e+01 1.160530389662e+01 0.0 
1.160530389662e+01 -2.561450088830e+02 0.0 
0.0 0.0 -1.035480519360e+02 
-5.711951297338e+01 9.297373951183e+00 0.0 
9.297373951183e+00 -1.801695603913e+02 0.0 
0.0 0.0 -7.078672200941e+01 
-1.013212383790e+02 2.837424326628e+01 0.0 
2.837424326628e+01 -2.432260348039e+02 0.0 
0.0 0.0 -1.029641819549e+02 
-7.201460549738e+01 2.461356961291e+01 0.0 
2.461356961291e+01 -1.565218565755e+02 0.0 
0.0 0.0 -6.816093862188e+01 
-3.321769732768e+01 -7.170879257834e-01 0.0 
-7.170879257834e-01 -9.703150522337e+01 0.0 
0.0 0.0 -3.867476076531e+01 
-3.424075410271e+01 3.014256193470e+00 0.0 
3.014256193470e+00 -1.040302320412e+02 0.0 
0.0 0.0 -4.108129584318e+01 
-4.215988181503e+01 1.684225367439e+01 0.0 
1.684225367439e+01 -1.217102065902e+02 0.0 
0.0 0.0 -4.876102652158e+01 
-6.456900255254e+01 2.250774750857e+01 0.0 
2.250774750857e+01 -1.657088631207e+02 0.0 
0.0 0.0 -6.868335970197e+01 
-1.351941149918e+02 4.097675977705e+00 0.0 
4.097675977705e+00 -3.353188718195e+02 0.0 
0.0 0.0 -1.407538960434e+02 
-7.938427004567e+01 1.309273803195e+01 0.0 
1.309273803195e+01 -1.355086393537e+02 0.0 
0.0 0.0 -6.406787281981e+01 
-5.930485505631e+01 9.463056247324e+00 0.0 
9.463056247324e+00 -1.811319758677e+02 0.0 
0.0 0.0 -7.173104927720e+01 
-7.643923684348e+01 2.547953601679e+01 0.0 
2.547953601679e+01 -1.870671001429e+02 0.0 
0.0 0.0 -7.865190109590e+01 
-1.093923876074e+02 1.438862875290e+01 0.0 
1.438862875290e+01 -2.925097357734e+02 0.0 
0.0 0.0 -1.201706370143e+02 
-8.105436980257e+01 9.219171711263e+00 0.0 
9.219171711263e+00 -1.543676729856e+02 0.0 
0.0 0.0 -7.022661283644e+01 
-1.045692021085e+02 2.951924416925e+01 0.0 
2.951924416925e+01 -2.465679030133e+02 0.0 
0.0 0.0 -1.049411315365e+02 
-6.565766529574e+01 8.424863128314e+00 0.0 
8.424863128314e+00 -1.024629995749e+02 0.0 
0.0 0.0 -5.003619946120e+01 
-1.171302245101e+02 1.149258990477e+01 0.0 
1.149258990477e+01 -3.070031784225e+02 0.0 
0.0 0.0 -1.268400208798e+02 
-7.105674985052e+01 1.012424723585e+01 0.0 
1.012424723585e+01 -2.102020443226e+02 0.0 
0.0 0.0 -8.397763825194e+01 
-1.115683908336e+02 1.540014725342e+01 0.0 
1.540014725342e+01 -2.935720126426e+02 0.0 
0.0 0.0 -1.211421210429e+02 
-6.147787079125e+01 1.891995916449e+01 0.0 
1.891995916449e+01 -1.744690212324e+02 0.0 
0.0 0.0 -7.038406760710e+01 
-8.892506661868e+01 1.340587787358e+01 0.0 
1.340587787358e+01 -1.758744944351e+02 0.0 
0.0 0.0 -7.903986831613e+01 
-1.091033184726e+02 3.105023089731e+01 0.0 
3.105023089731e+01 -2.517760773209e+02 0.0 
0.0 0.0 -1.078638187381e+02 
-8.159464243202e+01 1.027500122843e+01 0.0 
1.027500122843e+01 -2.380233847814e+02 0.0 
0.0 0.0 -9.548540816404e+01 
-3.056018134639e+01 1.806048379261e+00 0.0 
1.806048379261e+00 -9.566803224733e+01 0.0 
0.0 0.0 -3.746846407811e+01 
-1.025435765298e+02 2.375882594172e+01 0.0 
2.375882594172e+01 -2.643234904741e+02 0.0 
0.0 0.0 -1.096601201012e+02 
-7.003181910851e+01 2.035969094090e+01 0.0 
2.035969094090e+01 -1.927525160047e+02 0.0 
0.0 0.0 -7.843530053396e+01 
-5.518641406624e+01 1.030271135616e+01 0.0 
1.030271135616e+01 -1.695812852705e+02 0.0 
0.0 0.0 -6.703030980101e+01 
-8.748901423589e+01 1.296418606628e+01 0.0 
1.296418606628e+01 -2.462278856069e+02 0.0 
0.0 0.0 -9.971506995283e+01 
-1.146366611404e+02 1.090346194497e+01 0.0 
1.090346194497e+01 -2.996627599181e+02 0.0 
0.0 0.0 -1.238898263175e+02 
-3.255672317474e+01 1.239315689745e+00 0.0 
1.239315689745e+00 -9.638146992067e+01 0.0 
0.0 0.0 -3.828145792862e+01 
-7.335629095122e+01 8.990326370602e+00 0.0 
8.990326370602e+00 -2.199849351419e+02 0.0 
0.0 0.0 -8.760236782792e+01 
-7.563082227691e+01 2.287030885926e+01 0.0 
2.287030885926e+01 -1.450087838673e+02 0.0 
0.0 0.0 -6.579188184327e+01 
-1.360378642310e+02 5.488283136560e+00 0.0 
5.488283136560e+00 -3.359557044976e+02 0.0 
0.0 0.0 -1.411980706186e+02 
-7.933243944018e+01 2.420144979235e+01 0.0 
2.420144979235e+01 -1.619857419969e+02 0.0 
0.0 0.0 -7.199545443111e+01 
-9.739431870043e+01 2.412156437116e+01 0.0 
2.412156437116e+01 -2.502202111532e+02 0.0 
0.0 0.0 -1.038843589561e+02 
-7.178012620352e+01 2.105151260155e+01 0.0 
2.105151260155e+01 -1.278688817198e+02 0.0 
0.0 0.0 -5.949470237700e+01 
-6.247422105531e+01 1.532021864700e+01 0.0 
1.532021864700e+01 -9.353539160459e+01 0.0 
0.0 0.0 -4.640288379797e+01 
-7.574500169230e+01 2.486691587835e+01 0.0 
2.486691587835e+01 -1.731688608314e+02 0.0 
0.0 0.0 -7.427415875710e+01 
-1.122319890849e+02 1.887730273414e+01 0.0 
1.887730273414e+01 -2.942152159917e+02 0.0 
0.0 0.0 -1.215341615230e+02 
-1.211557773202e+02 6.766912185010e+00 0.0 
6.766912185010e+00 -3.096113631517e+02 0.0 
0.0 0.0 -1.288301421416e+02 
-7.333408474252e+01 1.071515855424e+01 0.0 
1.071515855424e+01 -1.242717243786e+02 0.0 
0.0 0.0 -5.888174273635e+01 
-9.178018790789e+01 1.670395181105e+01 0.0 
1.670395181105e+01 -1.892196198374e+02 0.0 
0.0 0.0 -8.389994232359e+01 
-6.762253118062e+01 1.858052903330e+01 0.0 
1.858052903330e+01 -1.107172842599e+02 0.0 
0.0 0.0 -5.310194463216e+01 
-4.652654005854e+01 7.057657548421e+00 0.0 
7.057657548421e+00 -1.458498024036e+02 0.0 
0.0 0.0 -5.731290273865e+01 
-1.084455774520e+02 2.683661541911e+01 0.0 
2.683661541911e+01 -2.697207065568e+02 0.0 
0.0 0.0 -1.130498852026e+02 
-8.708240694052e+01 1.081010829324e+01 0.0 
1.081010829324e+01 -1.754137878107e+02 0.0 
0.0 0.0 -7.834885842536e+01 
-6.211958723552e+01 1.619101490160e+01 0.0 
1.619101490160e+01 -1.840016078491e+02 0.0 
0.0 0.0 -7.343635852538e+01 
-6.543386279049e+01 1.800090597037e+01 0.0 
1.800090597037e+01 -1.882569998927e+02 0.0 
0.0 0.0 -7.570725880495e+01 
-5.265230523230e+01 8.226850408452e+00 0.0 
8.226850408452e+00 -1.634466784758e+02 0.0 
0.0 0.0 -6.442969511244e+01 
-7.806308893712e+01 1.347853962901e+01 0.0 
1.347853962901e+01 -1.374237640540e+02 0.0 
0.0 0.0 -6.424605589733e+01 
-4.426477409799e+01 2.070808495813e+01 0.0 
2.070808495813e+01 -1.117207222493e+02 0.0 
0.0 0.0 -4.639564890419e+01 
-7.749816363225e+01 1.807753156521e+01 0.0 
1.807753156521e+01 -2.191950285820e+02 0.0 
0.0 0.0 -8.860795766429e+01 
-4.519606294042e+01 2.128041176319e+01 0.0 
2.128041176319e+01 -1.122277285303e+02 0.0 
0.0 0.0 -4.682713744122e+01 
-1.022367902130e+02 1.746566122667e+01 0.0 
1.746566122667e+01 -2.760649345564e+02 0.0 
0.0 0.0 -1.130905174308e+02 
-1.179313162740e+02 2.818892462739e+01 0.0 
2.818892462739e+01 -2.875569619434e+02 0.0 
0.0 0.0 -1.212464834652e+02 
-5.664583817392e+01 7.461224554430e+00 0.0 
7.461224554430e+00 -1.744977533874e+02 0.0 
0.0 0.0 -6.894307746839e+01 
-2.523088385027e+01 1.332935002020e-01 0.0 
1.332935002020e-01 -6.077379890910e+01 0.0 
0.0 0.0 -2.540140482781e+01 
-9.403399913773e+01 2.004704355159e+01 0.0 
2.004704355159e+01 -1.950800576970e+02 0.0 
0.0 0.0 -8.633421705042e+01 
-4.717231385327e+01 2.182222245658e+01 0.0 
2.182222245658e+01 -1.134401056983e+02 0.0 
0.0 0.0 -4.778372586548e+01 
-7.154282943967e+01 4.953948537532e+00 0.0 
4.953948537532e+00 -2.144272768831e+02 0.0 
0.0 0.0 -8.539103189682e+01 
-1.120872293145e+02 2.526310702382e+01 0.0 
2.526310702382e+01 -2.829361003598e+02 0.0 
0.0 0.0 -1.181069989023e+02 
-7.713116469552e+01 1.392885536601e+01 0.0 
1.392885536601e+01 -1.264346139869e+02 0.0 
0.0 0.0 -6.066973360471e+01 
-1.161249992863e+02 7.098964146247e+00 0.0 
7.098964146247e+00 -3.005775050747e+02 0.0 
0.0 0.0 -1.246107513083e+02 
-5.386058282965e+01 1.340585094263e+01 0.0 
1.340585094263e+01 -1.627378798946e+02 0.0 
0.0 0.0 -6.457953881726e+01 
-2.229332949174e+01 -4.697930183568e-01 0.0 
-4.697930183568e-01 -5.136780232357e+01 0.0 
0.0 0.0 -2.169833954460e+01 
-1.410669554116e+02 4.998619309409e+00 0.0 
4.998619309409e+00 -3.456887885714e+02 0.0 
0.0 0.0 -1.456267231949e+02 
-6.842849955402e+01 2.189851484172e+01 0.0 
2.189851484172e+01 -1.809385836940e+02 0.0 
0.0 0.0 -7.441012497439e+01 
-9.336134669863e+01 1.958014847562e+01 0.0 
1.958014847562e+01 -2.517359294234e+02 0.0 
0.0 0.0 -1.031291828366e+02 
-1.049640866978e+02 2.716334582930e+01 0.0 
2.716334582930e+01 -2.581303131357e+02 0.0 
0.0 0.0 -1.085283199501e+02 
-2.031087013598e+01 -1.969860907330e-01 0.0 
-1.969860907330e-01 -3.431745454828e+01 0.0 
0.0 0.0 -1.598849740528e+01 
-1.144544466908e+02 5.847627494364e+00 0.0 
5.847627494364e+00 -2.995924851441e+02 0.0 
0.0 0.0 -1.238140795505e+02 
-3.662385249829e+01 1.056966649340e+01 0.0 
1.056966649340e+01 -1.100844967489e+02 0.0 
0.0 0.0 -4.361250477417e+01 
-7.006767702884e+01 1.189070577923e+01 0.0 
1.189070577923e+01 -1.049016858845e+02 0.0 
0.0 0.0 -5.209080887399e+01 
-8.959627639639e+01 2.901015453483e+00 0.0 
2.901015453483e+00 -2.434027203150e+02 0.0 
0.0 0.0 -9.949969901343e+01 
-5.436232463844e+01 7.317420752597e+00 0.0 
7.317420752597e+00 -1.734977945086e+02 0.0 
0.0 0.0 -6.795803574412e+01 
-1.310551109458e+02 5.937022004598e+00 0.0 
5.937022004598e+00 -3.271229994314e+02 0.0 
0.0 0.0 -1.370534331132e+02 
-7.309450113265e+01 1.888657689881e+01 0.0 
1.888657689881e+01 -2.059215627533e+02 0.0 
0.0 0.0 -8.330481916577e+01 
-4.797729964508e+01 6.253520009684e+00 0.0 
6.253520009684e+00 -1.558432220889e+02 0.0 
0.0 0.0 -6.074615652020e+01 
-7.279609714879e+01 2.424980280865e+01 0.0 
2.424980280865e+01 -1.843687081395e+02 0.0 
0.0 0.0 -7.674944158650e+01 
-2.394022630101e+01 -1.286881870489e+00 0.0 
-1.286881870489e+00 -5.185256901301e+01 0.0 
0.0 0.0 -2.233783859421e+01 
-8.914850586276e+01 2.604723257222e+01 0.0 
2.604723257222e+01 -2.213762572385e+02 0.0 
0.0 0.0 -9.275742893038e+01 
-1.043887239714e+02 1.850996449704e+01 0.0 
1.850996449704e+01 -2.772012018483e+02 0.0 
0.0 0.0 -1.140769777459e+02 
-1.106216628829e+02 3.062309117594e+01 0.0 
3.062309117594e+01 -2.525231965314e+02 0.0 
0.0 0.0 -1.085434578243e+02 
-9.780897033704e+01 2.718038450502e+01 0.0 
2.718038450502e+01 -2.401517222047e+02 0.0 
0.0 0.0 -1.009882077625e+02 
-3.901756020928e+01 3.955566394595e+00 0.0 
3.955566394595e+00 -1.215962308939e+02 0.0 
0.0 0.0 -4.778413733094e+01 
-1.164525312304e+02 5.569621499916e+00 0.0 
5.569621499916e+00 -2.998531518929e+02 0.0 
0.0 0.0 -1.244917049370e+02 
-8.744262794339e+01 1.061431417946e+01 0.0 
1.061431417946e+01 -1.841124719338e+02 0.0 
0.0 0.0 -8.106652996317e+01 
-1.338500875603e+02 2.596459798003e+01 0.0 
2.596459798003e+01 -3.243130419971e+02 0.0 
0.0 0.0 -1.370489388672e+02 
-1.085705262678e+02 2.058897723688e+01 0.0 
2.058897723688e+01 -2.831586563479e+02 0.0 
0.0 0.0 -1.171187547847e+02 
-5.784065520541e+01 1.241139391682e+01 0.0 
1.241139391682e+01 -1.751293737508e+02 0.0 
0.0 0.0 -6.949100868687e+01 
-8.078743462539e+01 2.508825313582e+01 0.0 
2.508825313582e+01 -2.027403267328e+02 0.0 
0.0 0.0 -8.465832840746e+01 
-1.347049411033e+02 2.604955986645e+00 0.0 
2.604955986645e+00 -3.336042241259e+02 0.0 
0.0 0.0 -1.400927495688e+02 
-8.481185950362e+01 9.040863747540e-01 0.0 
9.040863747540e-01 -2.274133984345e+02 0.0 
0.0 0.0 -9.326757738143e+01 
-9.257227712355e+01 2.440903250392e+01 0.0 
2.440903250392e+01 -2.356692992551e+02 0.0 
0.0 0.0 -9.807247291360e+01 
-6.824299840159e+01 7.970163354052e+00 0.0 
7.970163354052e+00 -1.118360466034e+02 0.0 
0.0 0.0 -5.362371350150e+01 
-1.261253251545e+02 6.386694195747e+00 0.0 
6.386694195747e+00 -3.184199849829e+02 0.0 
0.0 0.0 -1.329635930412e+02 
-1.207504431964e+02 8.488651389529e+00 0.0 
8.488651389529e+00 -3.099500070490e+02 0.0 
0.0 0.0 -1.288101350736e+02 
-2.673314462545e+01 5.274294704354e-02 0.0 
5.274294704354e-02 -2.773082568678e+01 0.0 
0.0 0.0 -1.593919109367e+01 
-2.667882762413e+01 -1.207663619182e-01 0.0 
-1.207663619182e-01 -2.762614640159e+01 0.0 
0.0 0.0 -1.589149220772e+01 
-8.012713215360e+01 2.505311685702e+01 0.0 
2.505311685702e+01 -1.501939998189e+02 0.0 
0.0 0.0 -6.869633959175e+01 
-8.422923734134e+01 2.342832028701e+01 0.0 
2.342832028701e+01 -2.172382542082e+02 0.0 
0.0 0.0 -9.004024746486e+01 
-9.397955575306e+01 2.889918344507e+00 0.0 
2.889918344507e+00 -2.521743481590e+02 0.0 
0.0 0.0 -1.034461711736e+02 
-7.991390123145e+01 2.710742561644e+01 0.0 
2.710742561644e+01 -1.763493457683e+02 0.0 
0.0 0.0 -7.647897409994e+01 
-6.957909645702e+01 1.708943269115e+01 0.0 
1.708943269115e+01 -2.015149750661e+02 0.0 
0.0 0.0 -8.092822145694e+01 
-1.254893858296e+02 1.527896583667e+01 0.0 
1.527896583667e+01 -3.203031618756e+02 0.0 
0.0 0.0 -1.333377643116e+02 
-5.599352767275e+01 1.229681387173e+01 0.0 
1.229681387173e+01 -1.743216645282e+02 0.0 
0.0 0.0 -6.869455766028e+01 
-1.015503275148e+02 1.942419098009e+01 0.0 
1.942419098009e+01 -2.268228056266e+02 0.0 
0.0 0.0 -9.811193994241e+01 
-5.519086221559e+01 1.383221995377e+01 0.0 
1.383221995377e+01 -7.167882255861e+01 0.0 
0.0 0.0 -3.766090543226e+01 
-6.676115012751e+01 1.852053375005e+01 0.0 
1.852053375005e+01 -1.889331207158e+02 0.0 
0.0 0.0 -7.630828125299e+01 
-8.780301596443e+01 1.654263666535e+00 0.0 
1.654263666535e+00 -2.423556980611e+02 0.0 
0.0 0.0 -9.864761420765e+01 
-3.596497401816e+01 4.989365224780e+00 0.0 
4.989365224780e+00 -1.109377333733e+02 0.0 
0.0 0.0 -4.367081221745e+01 
-7.714451257927e+01 1.882512824751e+00 0.0 
1.882512824751e+00 -2.155402404363e+02 0.0 
0.0 0.0 -8.740542590466e+01 
-7.615377725634e+01 2.261224488801e+01 0.0 
2.261224488801e+01 -1.989830088594e+02 0.0 
0.0 0.0 -8.214103583471e+01 
-6.820250079855e+01 2.357434558536e+01 0.0 
2.357434558536e+01 -1.682091119925e+02 0.0 
0.0 0.0 -7.052348383730e+01 
-7.104456433532e+01 1.147528183596e+01 0.0 
1.147528183596e+01 -1.156273640826e+02 0.0 
0.0 0.0 -5.560157852539e+01 
-8.329335145355e+01 2.548321670712e+01 0.0 
2.548321670712e+01 -1.922028168729e+02 0.0 
0.0 0.0 -8.224885049795e+01 
-8.768524518587e+01 2.777204677069e+01 0.0 
2.777204677069e+01 -1.958186580021e+02 0.0 
0.0 0.0 -8.465117095639e+01 
-2.154705650873e+01 -2.546039439453e-01 0.0 
-2.546039439453e-01 -5.942292066900e+01 0.0 
0.0 0.0 -2.389099315332e+01 
-7.164572220565e+01 -1.084204478130e-01 0.0 
-1.084204478130e-01 -2.042750287297e+02 0.0 
0.0 0.0 -8.237622528060e+01 
-4.783673921075e+01 2.267892873097e+01 0.0 
2.267892873097e+01 -1.138659324765e+02 0.0 
0.0 0.0 -4.811080150618e+01 
-7.572821509247e+01 2.454336536511e+01 0.0 
2.454336536511e+01 -1.590055996165e+02 0.0 
0.0 0.0 -7.002014441269e+01 
-7.993964120872e+01 2.675153710841e+01 0.0 
2.675153710841e+01 -1.629679954214e+02 0.0 
0.0 0.0 -7.247229098903e+01 
-1.179871240754e+02 1.828690536317e+01 0.0 
1.828690536317e+01 -3.054197581290e+02 0.0 
0.0 0.0 -1.266220646613e+02 
-3.176786583479e+01 -8.494052664781e-01 0.0 
-8.494052664781e-01 -8.952029580794e+01 0.0 
0.0 0.0 -3.598644849282e+01 
-3.081708350172e+01 -3.074635488526e-01 0.0 
-3.074635488526e-01 -8.797184225522e+01 0.0 
0.0 0.0 -3.523667772708e+01 
-6.487941092230e+01 2.049401027226e+01 0.0 
2.049401027226e+01 -1.778388683807e+02 0.0 
0.0 0.0 -7.241548379089e+01 
-7.349661303689e+01 1.119791896671e+00 0.0 
1.119791896671e+00 -2.053248506175e+02 0.0 
0.0 0.0 -8.324643909632e+01 
-3.955378805412e+01 1.808353095506e+01 0.0 
1.808353095506e+01 -2.336164621374e+01 0.0 
0.0 0.0 -1.847463028036e+01 
-4.230493942725e+01 1.436914561085e+01 0.0 
1.436914561085e+01 -2.937421938494e+01 0.0 
0.0 0.0 -2.110374764366e+01 
-7.465271448729e+01 1.498926615329e+01 0.0 
1.498926615329e+01 -1.177531493876e+02 0.0 
0.0 0.0 -5.732175916247e+01 
-2.730110887431e+01 7.331948279155e+00 0.0 
7.331948279155e+00 -7.162541877979e+01 0.0 
0.0 0.0 -2.927795829623e+01 
-8.396997635439e+01 8.123186810425e-01 0.0 
8.123186810425e-01 -2.322691048385e+02 0.0 
0.0 0.0 -9.447172435788e+01 
-1.074777988337e+02 1.348597548114e+01 0.0 
1.348597548114e+01 -2.863271027049e+02 0.0 
0.0 0.0 -1.177414704616e+02 
-2.886545312970e+01 1.443667525450e-01 0.0 
1.443667525450e-01 -8.729305157579e+01 0.0 
0.0 0.0 -3.444755141165e+01 
-1.249963301462e+02 3.007013495581e+01 0.0 
3.007013495581e+01 -2.973688204491e+02 0.0 
0.0 0.0 -1.263095451786e+02 
-8.717701524764e+01 1.400644859297e+01 0.0 
1.400644859297e+01 -1.658049736384e+02 0.0 
0.0 0.0 -7.549459666581e+01 
-8.165013113066e+01 1.421450185145e+00 0.0 
1.421450185145e+00 -2.228589540203e+02 0.0 
0.0 0.0 -9.095272554529e+01 
-1.200652332645e+02 3.939974484167e+00 0.0 
3.939974484167e+00 -3.077988997620e+02 0.0 
0.0 0.0 -1.279592399079e+02 
-1.468466473584e+01 -1.102088717582e+00 0.0 
-1.102088717582e+00 -4.240323956357e+01 0.0 
0.0 0.0 -1.672637128982e+01 
-1.033730893655e+02 1.160201270300e+01 0.0 
1.160201270300e+01 -2.786060769484e+02 0.0 
0.0 0.0 -1.141937498942e+02 
-6.922978260620e+01 2.280704206766e+01 0.0 
2.280704206766e+01 -1.814686392051e+02 0.0 
0.0 0.0 -7.480952654339e+01 
-1.485615732597e+01 -8.726565304719e-01 0.0 
-8.726565304719e-01 -4.233481265368e+01 0.0 
0.0 0.0 -1.675729099389e+01 
-8.362731262561e+01 1.166181057758e+01 0.0 
1.166181057758e+01 -1.639909347817e+02 0.0 
0.0 0.0 -7.388547422221e+01 
-2.855251923003e+01 5.874591290783e-01 0.0 
5.874591290783e-01 -7.861899826193e+01 0.0 
0.0 0.0 -3.175145524759e+01 
-7.604039996295e+01 2.677841052976e+01 0.0 
2.677841052976e+01 -1.596269332852e+02 0.0 
0.0 0.0 -7.030019997444e+01 
-6.869539290761e+01 2.476951708203e+01 0.0 
2.476951708203e+01 -1.686489573706e+02 0.0 
0.0 0.0 -7.080330508346e+01 
-6.950463070204e+01 5.946205114762e+00 0.0 
5.946205114762e+00 -2.057428725687e+02 0.0 
0.0 0.0 -8.217425098122e+01 
-8.942829172108e+01 5.594774376935e+00 0.0 
5.594774376935e+00 -2.524261277993e+02 0.0 
0.0 0.0 -1.021563258561e+02 
-8.758849752930e+01 1.408431981256e+01 0.0 
1.408431981256e+01 -1.759865273896e+02 0.0 
0.0 0.0 -7.867250747567e+01 
-9.847053761213e+01 6.820600976322e+00 0.0 
6.820600976322e+00 -2.710990129725e+02 0.0 
0.0 0.0 -1.104708651754e+02 
-6.888547274787e+01 1.968503593152e+01 0.0 
1.968503593152e+01 -1.921202451084e+02 0.0 
0.0 0.0 -7.790171535689e+01 
-6.581834418551e+01 2.119124458896e+01 0.0 
2.119124458896e+01 -1.783841935090e+02 0.0 
0.0 0.0 -7.286076130835e+01 
-2.382548418030e+01 1.468715131012e+01 0.0 
1.468715131012e+01 -1.649366523270e+01 0.0 
0.0 0.0 -1.169574482390e+01 
-2.536125867484e+01 -2.340192845635e-01 0.0 
-2.340192845635e-01 -6.956397736214e+01 0.0 
0.0 0.0 -2.807757081109e+01 
-1.028705196826e+02 2.699276653832e+01 0.0 
2.699276653832e+01 -2.550817300763e+02 0.0 
0.0 0.0 -1.069856749277e+02 
-6.867824880058e+01 1.813658847584e+01 0.0 
1.813658847584e+01 -1.020448964461e+02 0.0 
0.0 0.0 -5.081694357401e+01 
-1.062270520457e+02 2.557173404939e+01 0.0 
2.557173404939e+01 -2.684557696296e+02 0.0 
0.0 0.0 -1.120048465026e+02 
-3.532765353900e+01 1.124296738541e+01 0.0 
1.124296738541e+01 -1.096811011636e+02 0.0 
0.0 0.0 -4.310262641078e+01 
-8.830481494580e+01 2.211486311914e+01 0.0 
2.211486311914e+01 -1.756731966848e+02 0.0 
0.0 0.0 -7.879340348919e+01 
-1.066288703823e+02 2.857687451714e+01 0.0 
2.857687451714e+01 -2.589891705493e+02 0.0 
0.0 0.0 -1.092854122795e+02 
-4.373650084083e+01 1.382198906605e+01 0.0 
1.382198906605e+01 -4.434468710344e+01 0.0 
0.0 0.0 -2.602435638328e+01 
-1.011905686070e+02 2.556036390996e+01 0.0 
2.556036390996e+01 -2.540144316718e+02 0.0 
0.0 0.0 -1.061615000836e+02 
-1.212797305439e+02 5.248894422236e+00 0.0 
5.248894422236e+00 -3.086097489454e+02 0.0 
0.0 0.0 -1.285668438468e+02 
-8.039991694624e+01 2.203588579326e+01 0.0 
2.203588579326e+01 -2.136309005326e+02 0.0 
0.0 0.0 -8.780924524364e+01 
-7.953838520456e+01 7.600228665293e-01 0.0 
7.600228665293e-01 -2.233752287672e+02 0.0 
0.0 0.0 -9.047408419153e+01 
-8.519070577304e+01 2.873799357937e+00 0.0 
2.873799357937e+00 -2.345077363154e+02 0.0 
0.0 0.0 -9.550953262652e+01 
-9.794099005724e+01 2.301024321385e+01 0.0 
2.301024321385e+01 -1.979784389696e+02 0.0 
0.0 0.0 -8.837582870806e+01 
-8.094887318333e+01 4.374817711400e+00 0.0 
4.374817711400e+00 -2.338759710933e+02 0.0 
0.0 0.0 -9.404745328299e+01 
-7.210174007207e+01 2.313485107476e+01 0.0 
2.313485107476e+01 -1.838557949147e+02 0.0 
0.0 0.0 -7.638726049603e+01 
-7.064454955758e+01 1.438301926717e+01 0.0 
1.438301926717e+01 -2.095020776598e+02 0.0 
0.0 0.0 -8.364398816521e+01 
-1.081385210425e+02 8.064220781951e+00 0.0 
8.064220781951e+00 -2.898358595063e+02 0.0 
0.0 0.0 -1.189923141647e+02 
-6.360527217511e+01 1.654574269465e+01 0.0 
1.654574269465e+01 -1.847059532990e+02 0.0 
0.0 0.0 -7.409336764222e+01 
-4.007093872346e+01 3.386684397220e+00 0.0 
3.386684397220e+00 -1.310700087456e+02 0.0 
0.0 0.0 -5.094228424072e+01 
-7.810398537429e+01 8.412168876372e+00 0.0 
8.412168876372e+00 -2.305308497231e+02 0.0 
0.0 0.0 -9.219045052922e+01 
-4.216075197991e+01 5.282241808221e+00 0.0 
5.282241808221e+00 -1.382802204623e+02 0.0 
0.0 0.0 -5.373229173266e+01 
-7.941250385545e+01 2.516804458518e+01 0.0 
2.516804458518e+01 -1.757406318361e+02 0.0 
0.0 0.0 -7.614594070746e+01 
-4.435650285476e+01 5.038105943075e+00 0.0 
5.038105943075e+00 -1.391561001930e+02 0.0 
0.0 0.0 -5.465378091432e+01 
-7.614667917056e+01 2.663880974261e+01 0.0 
2.663880974261e+01 -1.736839057003e+02 0.0 
0.0 0.0 -7.454917546126e+01 
-1.143076238237e+02 2.004523031424e+01 0.0 
2.004523031424e+01 -2.953520780115e+02 0.0 
0.0 0.0 -1.224979105505e+02 
-1.078619199735e+02 1.688381744152e+01 0.0 
1.688381744152e+01 -2.878609477300e+02 0.0 
0.0 0.0 -1.183168603111e+02 
-5.897022999434e+01 1.428505963527e+01 0.0 
1.428505963527e+01 -1.793881529410e+02 0.0 
0.0 0.0 -7.110751488061e+01 
-6.856516521222e+01 1.244785073000e+01 0.0 
1.244785073000e+01 -1.076422058471e+02 0.0 
0.0 0.0 -5.246221131781e+01 
-1.250928326437e+02 3.544276589859e+00 0.0 
3.544276589859e+00 -3.165690551836e+02 0.0 
0.0 0.0 -1.320985663482e+02 
-1.260639786247e+02 4.868430490644e+00 0.0 
4.868430490644e+00 -3.172848140606e+02 0.0 
0.0 0.0 -1.326046378056e+02 
-2.438237376369e+01 7.181363564593e+00 0.0 
7.181363564593e+00 -5.525412541954e+01 0.0 
0.0 0.0 -2.349094975497e+01 
-7.953476588037e+01 2.492561480401e+01 0.0 
2.492561480401e+01 -1.892888084415e+02 0.0 
0.0 0.0 -8.024707229655e+01 
-1.407581962750e+02 3.362741043281e+00 0.0 
3.362741043281e+00 -3.450254737739e+02 0.0 
0.0 0.0 -1.453351010147e+02 
-3.330182063055e+01 2.040513510177e+01 0.0 
2.040513510177e+01 -6.023380879362e+01 0.0 
0.0 0.0 -2.766068882725e+01 
-8.979267923625e+01 2.128059141437e+00 0.0 
2.128059141437e+00 -2.418429315369e+02 0.0 
0.0 0.0 -9.909068323195e+01 
-2.180110423040e+01 1.340717174943e+01 0.0 
1.340717174943e+01 -1.705680360789e+01 0.0 
0.0 0.0 -1.125737235149e+01 
-1.300437628017e+02 3.098631756645e+00 0.0 
3.098631756645e+00 -3.252314878363e+02 0.0 
0.0 0.0 -1.361825751914e+02 
-3.691928454297e+01 4.401249517456e+00 0.0 
4.401249517456e+00 -1.208057196614e+02 0.0 
0.0 0.0 -4.691750126132e+01 
-8.746632866994e+01 -3.753027292773e-01 0.0 
-3.753027292773e-01 -2.335934249685e+02 0.0 
0.0 0.0 -9.591792609153e+01 
-9.099376223429e+01 1.856134118153e+01 0.0 
1.856134118153e+01 -2.505540925682e+02 0.0 
0.0 0.0 -1.020643564407e+02 
-7.211549695089e+01 1.624424641595e+01 0.0 
1.624424641595e+01 -1.098570799838e+02 0.0 
0.0 0.0 -5.419177308040e+01 
-6.645318865397e+01 1.389853895726e+01 0.0 
1.389853895726e+01 -1.003091653278e+02 0.0 
0.0 0.0 -4.962870619454e+01 
-7.246089163542e+01 2.123139221485e+01 0.0 
2.123139221485e+01 -1.956608023008e+02 0.0 
0.0 0.0 -8.003650818086e+01 
-3.254051399837e+01 2.089787421398e+01 0.0 
2.089787421398e+01 -2.325562252060e+01 0.0 
0.0 0.0 -1.633884095569e+01 
-3.468379701171e+01 2.087892125933e+01 0.0 
2.087892125933e+01 -2.180859798369e+01 0.0 
0.0 0.0 -1.654771849862e+01 
-1.307162513425e+02 4.389046885302e+00 0.0 
4.389046885302e+00 -3.258194584428e+02 0.0 
0.0 0.0 -1.365607129356e+02 
-9.555175988511e+01 8.192059322450e+00 0.0 
8.192059322450e+00 -2.622562511945e+02 0.0 
0.0 0.0 -1.069424033239e+02 
-7.719781491542e+01 7.310206905141e+00 0.0 
7.310206905141e+00 -2.238421464033e+02 0.0 
0.0 0.0 -8.991198839562e+01 
-1.010020753200e+02 1.055277065035e+01 0.0 
1.055277065035e+01 -2.774103664229e+02 0.0 
0.0 0.0 -1.131237325229e+02 
-7.013743742280e+01 7.143570173192e+00 0.0 
7.143570173192e+00 -2.125028027375e+02 0.0 
0.0 0.0 -8.439207204808e+01 
-4.095669198546e+01 5.962661406178e+00 0.0 
5.962661406178e+00 -1.283543029293e+02 0.0 
0.0 0.0 -5.039329847443e+01 
-2.966034911418e+01 1.750936476596e+01 0.0 
1.750936476596e+01 -2.093982477611e+01 0.0 
0.0 0.0 -1.478005216709e+01 
-6.080762413992e+01 1.629567403998e+01 0.0 
1.629567403998e+01 -8.008446132674e+01 0.0 
0.0 0.0 -4.186762564000e+01 
-2.679216533295e+01 -6.266636572400e-03 0.0 
-6.266636572400e-03 -2.785663340339e+01 0.0 
0.0 0.0 -1.599463962090e+01 
-1.099787570844e+02 1.796165637217e+01 0.0 
1.796165637217e+01 -2.889780494310e+02 0.0 
0.0 0.0 -1.192870419546e+02 
-6.063521639568e+01 1.449409853668e+01 0.0 
1.449409853668e+01 -1.801379411696e+02 0.0 
0.0 0.0 -7.183194726960e+01 
-1.270658845275e+02 2.261921894855e+01 0.0 
2.261921894855e+01 -3.180453532248e+02 0.0 
0.0 0.0 -1.331333713257e+02 
-1.294159921041e+02 4.053175682609e-01 0.0 
4.053175682609e-01 -3.224370412199e+02 0.0 
0.0 0.0 -1.351559099972e+02 
-7.573040088529e+01 9.576060336045e+00 0.0 
9.576060336045e+00 -2.211225429675e+02 0.0 
0.0 0.0 -8.865588315583e+01 
-1.468903836080e+02 5.972773396935e+00 0.0 
5.972773396935e+00 -3.552390746160e+02 0.0 
0.0 0.0 -1.502388374672e+02 
-4.797194943055e+01 4.334394659861e+00 0.0 
4.334394659861e+00 -1.497129553943e+02 0.0 
0.0 0.0 -5.890547144744e+01 
-1.205534737669e+02 2.300937258939e+01 0.0 
2.300937258939e+01 -3.051925021840e+02 0.0 
0.0 0.0 -1.273237927853e+02 
-7.347707432015e+01 2.208827936056e+01 0.0 
2.208827936056e+01 -1.962762381007e+02 0.0 
0.0 0.0 -8.052599372625e+01 
-8.486355652677e+01 2.142950995053e+01 0.0 
2.142950995053e+01 -2.277803844682e+02 0.0 
0.0 0.0 -9.339318229850e+01 
-1.234829669109e+02 1.443485831155e+01 0.0 
1.443485831155e+01 -3.154670063931e+02 0.0 
0.0 0.0 -1.312849919912e+02 
-5.845241383535e+01 -2.068987098026e-01 0.0 
-2.068987098026e-01 -1.688036038255e+02 0.0 
0.0 0.0 -6.777680529825e+01 
-7.579549815775e+01 2.418027727225e+01 0.0 
2.418027727225e+01 -1.865809571087e+02 0.0 
0.0 0.0 -7.831293657993e+01 
-7.256676414563e+01 7.691140442927e+00 0.0 
7.691140442927e+00 -2.136518625149e+02 0.0 
0.0 0.0 -8.546558799815e+01 
-7.233720024686e+01 2.583281498991e+01 0.0 
2.583281498991e+01 -1.710791823256e+02 0.0 
0.0 0.0 -7.262491477174e+01 
-3.844124149601e+01 1.264532181242e+01 0.0 
1.264532181242e+01 -1.140170408510e+02 0.0 
0.0 0.0 -4.533748470410e+01 
-8.943726970843e+01 2.089521088629e+01 0.0 
2.089521088629e+01 -2.414733751901e+02 0.0 
0.0 0.0 -9.887319346956e+01 
-6.704314835933e+01 5.372289074540e+00 0.0 
5.372289074540e+00 -2.045694145266e+02 0.0 
0.0 0.0 -8.108376886576e+01 
-9.238586019382e+01 1.614080273745e+00 0.0 
1.614080273745e+00 -2.511969878597e+02 0.0 
0.0 0.0 -1.026748544161e+02 
-7.195048623247e+01 2.434788572150e+01 0.0 
2.434788572150e+01 -1.706309034081e+02 0.0 
0.0 0.0 -7.237441689217e+01 
-2.032922159541e+01 7.502333358258e+00 0.0 
7.502333358258e+00 -2.420406726065e+01 0.0 
0.0 0.0 -1.295998665682e+01 
-7.876489802721e+01 1.551186189760e+01 0.0 
1.551186189760e+01 -2.274372447755e+02 0.0 
0.0 0.0 -9.146064284080e+01 
-2.309929032098e+01 1.215839671951e+01 0.0 
1.215839671951e+01 -3.225256962244e+01 0.0 
0.0 0.0 -1.620555798303e+01 
-2.326027630058e+01 -2.575147832898e+00 0.0 
-2.575147832898e+00 -6.361931391196e+01 0.0 
0.0 0.0 -2.566387706376e+01 
-8.833143877030e+01 8.316520383485e-01 0.0 
8.316520383485e-01 -2.409004462112e+02 0.0 
0.0 0.0 -9.836956549445e+01 
-9.666341328064e+01 2.834345511500e+01 0.0 
2.834345511500e+01 -2.279923586069e+02 0.0 
0.0 0.0 -9.699673156626e+01 
-7.079817846102e+01 1.700021329590e+01 0.0 
1.700021329590e+01 -1.156359240575e+02 0.0 
0.0 0.0 -5.553023075555e+01 
-3.037649894217e+01 2.019468259161e+01 0.0 
2.019468259161e+01 -2.339100429025e+01 0.0 
0.0 0.0 -1.573025096973e+01 
-9.648982307106e+01 1.948413192901e+01 0.0 
1.948413192901e+01 -2.264762538325e+02 0.0 
0.0 0.0 -9.648982307106e+01 
-2.120256565607e+01 1.227844636290e+01 0.0 
1.227844636290e+01 -1.279187940535e+01 0.0 
0.0 0.0 -9.905911534846e+00 
-3.082291057769e+01 2.030824260575e+01 0.0 
2.030824260575e+01 -2.327149180409e+01 0.0 
0.0 0.0 -1.582832071453e+01 
-7.949996200839e+01 6.207856417698e+00 0.0 
6.207856417698e+00 -2.325678156070e+02 0.0 
0.0 0.0 -9.322033328461e+01 
-8.568607450888e+01 1.530984162507e+00 0.0 
1.530984162507e+00 -2.314836736921e+02 0.0 
0.0 0.0 -9.475092446030e+01 
-4.305747166628e+01 2.382489017376e+01 0.0 
2.382489017376e+01 -6.305031965994e+01 0.0 
0.0 0.0 -3.143233739786e+01 
-5.073199863809e+01 1.520560177624e+00 0.0 
1.520560177624e+00 -1.603662307247e+02 0.0 
0.0 0.0 -6.292946880883e+01 
-8.677286810632e+01 6.795787235201e+00 0.0 
6.795787235201e+00 -2.436420037997e+02 0.0 
0.0 0.0 -9.872446157180e+01 
-7.709690851955e+01 2.368235999603e+01 0.0 
2.368235999603e+01 -1.996124437356e+02 0.0 
0.0 0.0 -8.261280567654e+01 
-8.743214674450e+01 1.679840858862e+01 0.0 
1.679840858862e+01 -2.455811411541e+02 0.0 
0.0 0.0 -9.950398636957e+01 
-9.665273036353e+01 2.687239531003e+01 0.0 
2.687239531003e+01 -2.182546193842e+02 0.0 
0.0 0.0 -9.407220492433e+01 
-2.497070824630e+01 6.633333070251e+00 0.0 
6.633333070251e+00 -6.613702089493e+01 0.0 
0.0 0.0 -2.693231874237e+01 
-8.011524206836e+01 1.126268823522e-01 0.0 
1.126268823522e-01 -2.219187984738e+02 0.0 
0.0 0.0 -9.021021216264e+01 
-8.860016355885e+01 2.194023002905e-01 0.0 
2.194023002905e-01 -2.392908204979e+02 0.0 
0.0 0.0 -9.796729521703e+01 
-4.497396438370e+01 -1.678920776530e+00 0.0 
-1.678920776530e+00 -1.278532057564e+02 0.0 
0.0 0.0 -5.144815104204e+01 
-4.588525741856e+01 1.105227173674e+01 0.0 
1.105227173674e+01 -4.869264468459e+01 0.0 
0.0 0.0 -2.797337063094e+01 
-7.257142549913e+01 2.087812819583e+01 0.0 
2.087812819583e+01 -1.171670814189e+02 0.0 
0.0 0.0 -5.652155207540e+01 
-1.157390751515e+02 1.144783524802e+00 0.0 
1.144783524802e+00 -2.946644195789e+02 0.0 
0.0 0.0 -1.227210484191e+02 
-1.596250056737e+01 -9.786939387039e-01 0.0 
-9.786939387039e-01 -4.268800568347e+01 0.0 
0.0 0.0 -1.719515187525e+01 
-2.002969481655e+01 -1.699491052748e-01 0.0 
-1.699491052748e-01 -2.540797526508e+01 0.0 
0.0 0.0 -1.323130102449e+01 
-3.236973503496e+01 -2.325384912588e+00 0.0 
-2.325384912588e+00 -8.911557914055e+01 0.0 
0.0 0.0 -3.604559425265e+01 
-8.971629194167e+01 1.579220739139e+00 0.0 
1.579220739139e+00 -2.400813959097e+02 0.0 
0.0 0.0 -9.853930635540e+01 
-5.414461882245e+01 5.544993656522e+00 0.0 
5.544993656522e+00 -1.674532935985e+02 0.0 
0.0 0.0 -6.607937372627e+01 
-4.938803854367e+01 2.151883344698e+00 0.0 
2.151883344698e+00 -1.519477865258e+02 0.0 
0.0 0.0 -6.000074752084e+01 
-4.229011941972e+01 3.160179441734e+00 0.0 
3.160179441734e+00 -1.319624399310e+02 0.0 
0.0 0.0 -5.187576780523e+01 
-9.270476563806e+01 8.100848157194e-01 0.0 
8.100848157194e-01 -2.495498489282e+02 0.0 
0.0 0.0 -1.022763843699e+02 
-7.881986385411e+01 2.183158294280e+01 0.0 
2.183158294280e+01 -1.487434921176e+02 0.0 
0.0 0.0 -6.786900679153e+01 
-9.281945614742e+01 1.913465051349e-01 0.0 
1.913465051349e-01 -2.479038278406e+02 0.0 
0.0 0.0 -1.018169851964e+02 
-5.179218109709e+01 5.436977976421e+00 0.0 
5.436977976421e+00 -1.664326746736e+02 0.0 
0.0 0.0 -6.506745673122e+01 
-8.026417675613e+01 2.654122885078e+01 0.0 
2.654122885078e+01 -1.898997893662e+02 0.0 
0.0 0.0 -8.064918983669e+01 
-4.529272722850e+01 1.881700011167e+00 0.0 
1.881700011167e+00 -5.904977046343e+01 0.0 
0.0 0.0 -3.090274930758e+01 
-1.006607266886e+02 1.989892167023e+01 0.0 
1.989892167023e+01 -2.691884568644e+02 0.0 
0.0 0.0 -1.105547550659e+02 
-9.374093034246e+01 1.574546703716e+00 0.0 
1.574546703716e+00 -2.486248788375e+02 0.0 
0.0 0.0 -1.023097427540e+02 
-9.396187200538e+01 2.131456604642e+00 0.0 
2.131456604642e+00 -2.504125897321e+02 0.0 
0.0 0.0 -1.029123385212e+02 
-2.887849963052e+01 1.926816735142e+01 0.0 
1.926816735142e+01 -2.222032881882e+01 0.0 
0.0 0.0 -1.492964853480e+01 
-5.816147290001e+01 5.021038715565e+00 0.0 
5.021038715565e+00 -1.777338326205e+02 0.0 
0.0 0.0 -7.036859165614e+01 
-9.702587976088e+01 1.124352327737e-01 0.0 
1.124352327737e-01 -2.564016643670e+02 0.0 
0.0 0.0 -1.056282632384e+02 
-5.507603487318e+01 -4.085735082508e-01 0.0 
-4.085735082508e-01 -9.908929849275e+01 0.0 
0.0 0.0 -4.584960000978e+01 
-4.811318162062e+01 -5.599149818620e-01 0.0 
-5.599149818620e-01 -8.078994977651e+01 0.0 
0.0 0.0 -3.827093941914e+01 
-2.952286852374e+01 1.973444120088e+01 0.0 
1.973444120088e+01 -2.276899240696e+01 0.0 
0.0 0.0 -1.528755827921e+01 
-9.708754726049e+01 7.323163463005e-01 0.0 
7.323163463005e-01 -2.581910245189e+02 0.0 
0.0 0.0 -1.061835715338e+02 
-5.055243643933e+01 5.301341161669e-01 0.0 
5.301341161669e-01 -1.525150407572e+02 0.0 
0.0 0.0 -6.052024315895e+01 
-2.541888675465e+01 1.325622653111e+01 0.0 
1.325622653111e+01 -4.814067490138e+01 0.0 
0.0 0.0 -2.166786849681e+01 
-1.230915835682e+02 2.423009913046e+01 0.0 
2.423009913046e+01 -3.066498448796e+02 0.0 
0.0 0.0 -1.285224285343e+02 
-2.903589747878e+01 -3.593508841627e+00 0.0 
-3.593508841627e+00 -8.058390800592e+01 0.0 
0.0 0.0 -3.248594164541e+01 
-5.193207221911e+01 -8.897811221342e-02 0.0 
-8.897811221342e-02 -1.604796876283e+02 0.0 
0.0 0.0 -6.332352795423e+01 
-7.588924115763e+01 1.687787359922e+01 0.0 
1.687787359922e+01 -2.154795862740e+02 0.0 
0.0 0.0 -8.701064822948e+01 
-2.655246594348e+01 1.761726688836e+01 0.0 
1.761726688836e+01 -2.069168957064e+01 0.0 
0.0 0.0 -1.377324665424e+01 
-9.780471149362e+01 1.507882413153e+00 0.0 
1.507882413153e+00 -2.572246104571e+02 0.0 
0.0 0.0 -1.061087965852e+02 
-4.322992374117e+01 5.912145006682e-01 0.0 
5.912145006682e-01 -1.201602649542e+02 0.0 
0.0 0.0 -4.861705660863e+01 
-5.182429679309e+01 1.375355496536e+01 0.0 
1.375355496536e+01 -5.457519103421e+01 0.0 
0.0 0.0 -3.151984634819e+01 
-9.812379078378e+01 2.073608072822e+00 0.0 
2.073608072822e+00 -2.589644676066e+02 0.0 
0.0 0.0 -1.067264775171e+02 
-7.400234021016e+01 5.643215217795e+00 0.0 
5.643215217795e+00 -2.156330777091e+02 0.0 
0.0 0.0 -8.649062537578e+01 
-8.563122636981e+01 2.083276049198e+00 0.0 
2.083276049198e+00 -2.332659700922e+02 0.0 
0.0 0.0 -9.526915893859e+01 
-2.122985279651e+01 4.634452681543e+00 0.0 
4.634452681543e+00 -3.011769167502e+01 0.0 
0.0 0.0 -1.500426334146e+01 
-7.559320476827e+01 1.550157538680e+00 0.0 
1.550157538680e+00 -1.579297274760e+02 0.0 
0.0 0.0 -6.965687967329e+01 
-5.957767238138e+01 3.047041757118e+00 0.0 
3.047041757118e+00 -1.793937346455e+02 0.0 
0.0 0.0 -7.129142210807e+01 
-1.195985072347e+02 1.596729507385e+01 0.0 
1.596729507385e+01 -3.107820441304e+02 0.0 
0.0 0.0 -1.287141654095e+02 
-8.639429945755e+01 2.254679924064e+01 0.0 
2.254679924064e+01 -2.287223758593e+02 0.0 
0.0 0.0 -9.413500259505e+01 
-1.014479589568e+02 5.928344824303e-01 0.0 
5.928344824303e-01 -2.667550229795e+02 0.0 
0.0 0.0 -1.100608945809e+02 
-1.022678545018e+02 1.916497098776e+00 0.0 
1.916497098776e+00 -2.674277198259e+02 0.0 
0.0 0.0 -1.105086722983e+02 
-4.935273677631e+01 3.635627632120e+00 0.0 
3.635627632120e+00 -1.588916775891e+02 0.0 
0.0 0.0 -6.207332430961e+01 
-2.326191014870e+01 -3.212400258907e+00 0.0 
-3.212400258907e+00 -5.466703012341e+01 0.0 
0.0 0.0 -2.297868208163e+01 
-1.921582490694e+01 6.432754119808e+00 0.0 
6.432754119808e+00 -2.978132738549e+01 0.0 
0.0 0.0 -1.429914568773e+01 
-1.058442157730e+02 3.939282991217e-01 0.0 
3.939282991217e-01 -2.753098505617e+02 0.0 
0.0 0.0 -1.139462199004e+02 
-1.212987757708e+02 1.352994373603e+01 0.0 
1.352994373603e+01 -3.145779801887e+02 0.0 
0.0 0.0 -1.303630267879e+02 
-5.146653835639e+01 -5.012533746695e-01 0.0 
-5.012533746695e-01 -1.519727333372e+02 0.0 
0.0 0.0 -6.063178150808e+01 
-8.359885815742e+01 2.484274388536e+01 0.0 
2.484274388536e+01 -2.051049306293e+02 0.0 
0.0 0.0 -8.621113663602e+01 
-3.142180780410e+01 1.936370255422e+01 0.0 
1.936370255422e+01 -5.842809116199e+01 0.0 
0.0 0.0 -2.655496968983e+01 
-8.405407409944e+01 2.731288907579e+01 0.0 
2.731288907579e+01 -1.928922492388e+02 0.0 
0.0 0.0 -8.268389700147e+01 
-1.457303869413e+02 1.178139745974e+01 0.0 
1.178139745974e+01 -3.567831097857e+02 0.0 
0.0 0.0 -1.503540490181e+02 
-2.313856113888e+01 -3.485724924192e-01 0.0 
-3.485724924192e-01 -6.795700926435e+00 0.0 
0.0 0.0 -8.580278619594e+00 
-9.032075741230e+01 1.884374387388e+00 0.0 
1.884374387388e+00 -2.120817672954e+02 0.0 
0.0 0.0 -9.032075741230e+01 
-1.635770344156e+02 1.455760618669e+00 0.0 
1.455760618669e+00 -3.830130803032e+02 0.0 
0.0 0.0 -1.635770344156e+02 
-3.540060606296e+01 7.414547758692e-01 0.0 
7.414547758692e-01 -4.907244937090e+01 0.0 
0.0 0.0 -2.494191663016e+01 
-6.077981703434e+01 1.581263821659e+00 0.0 
1.581263821659e+00 -1.797822392292e+02 0.0 
0.0 0.0 -7.176861687907e+01 
-8.159092765246e+01 2.308395167502e+01 0.0 
2.308395167502e+01 -2.143828091788e+02 0.0 
0.0 0.0 -8.839212104939e+01 
-5.023783522198e+01 6.211005043122e+00 0.0 
6.211005043122e+00 -1.567905143494e+02 0.0 
0.0 0.0 -6.170850487141e+01 
-2.085170591938e+01 -1.355438622683e+00 0.0 
-1.355438622683e+00 -5.526448526766e+01 0.0 
0.0 0.0 -2.243485735611e+01 
-1.990243212312e+01 1.126849402030e+01 0.0 
1.126849402030e+01 -1.483953890333e+01 0.0 
0.0 0.0 -1.002259130793e+01 
-8.350343064845e+01 5.934381962486e+00 0.0 
5.934381962486e+00 -1.761386791681e+02 0.0 
0.0 0.0 -7.749263294497e+01 
-7.650769079141e+01 2.329202075924e+01 0.0 
2.329202075924e+01 -1.336747628006e+02 0.0 
0.0 0.0 -6.265473607761e+01 
-4.559948056437e+01 1.232169077432e+01 0.0 
1.232169077432e+01 -3.867027938667e+01 0.0 
0.0 0.0 -2.488092798531e+01 
-1.340734750086e+02 3.309665533338e+01 0.0 
3.309665533338e+01 -3.189653470482e+02 0.0 
0.0 0.0 -1.355116466170e+02 
-3.594301085750e+01 5.370493131131e-01 0.0 
5.370493131131e-01 -1.005104013662e+02 0.0 
0.0 0.0 -4.053602366712e+01 
-1.362919162476e+02 3.179485052365e+01 0.0 
3.179485052365e+01 -3.257390801864e+02 0.0 
0.0 0.0 -1.382092989302e+02 
-7.500981921867e+01 1.974489531141e+01 0.0 
1.974489531141e+01 -1.321741655983e+02 0.0 
0.0 0.0 -6.175519544510e+01 
-6.168071411362e+01 5.848991853803e-01 0.0 
5.848991853803e-01 -1.790829050669e+02 0.0 
0.0 0.0 -7.182908575416e+01 
-7.669368917692e+01 2.051674876649e+01 0.0 
2.051674876649e+01 -2.098670185926e+02 0.0 
0.0 0.0 -8.556821233086e+01 
-5.563149891360e+01 -2.126297813609e-01 0.0 
-2.126297813609e-01 -1.691953570774e+02 0.0 
0.0 0.0 -6.704805679730e+01 
-2.628921636273e+01 1.464703832615e+01 0.0 
1.464703832615e+01 -5.036789969317e+01 0.0 
0.0 0.0 -2.259713481677e+01 
-5.283324160448e+01 -1.191696518933e+00 0.0 
-1.191696518933e+00 -1.593782072142e+02 0.0 
0.0 0.0 -6.326343464560e+01 
-8.254891130623e+01 2.347955647064e+01 0.0 
2.347955647064e+01 -1.655510733721e+02 0.0 
0.0 0.0 -7.402999540351e+01 
-1.348553013515e+02 2.609112152366e+00 0.0 
2.609112152366e+00 -3.326689551641e+02 0.0 
0.0 0.0 -1.398572769547e+02 
-5.447482403311e+01 1.159090898648e+00 0.0 
1.159090898648e+00 -1.694771429165e+02 0.0 
0.0 0.0 -6.678559008489e+01 
-8.729924174621e+01 2.565954797768e+01 0.0 
2.565954797768e+01 -2.081904155438e+02 0.0 
0.0 0.0 -8.824689718699e+01 
-1.859946602390e+01 -5.785287870259e-01 0.0 
-5.785287870259e-01 -8.464301088508e+00 0.0 
0.0 0.0 -8.620385656965e+00 
-5.316332785308e+01 3.060590536132e+00 0.0 
3.060590536132e+00 -1.686552603943e+02 0.0 
0.0 0.0 -6.614557647422e+01 
-8.707083735485e+01 2.313197609942e+01 0.0 
2.313197609942e+01 -1.617961772145e+02 0.0 
0.0 0.0 -7.426010437082e+01 
-5.327735406255e+01 -1.855935266848e+00 0.0 
-1.855935266848e+00 -1.571981845043e+02 0.0 
0.0 0.0 -6.274266157004e+01 
-4.856257390276e+01 -1.235511378756e+00 0.0 
-1.235511378756e+00 -1.418547948263e+02 0.0 
0.0 0.0 -5.672521061872e+01 
-7.795378206436e+01 2.137280930099e+01 0.0 
2.137280930099e+01 -2.106011602014e+02 0.0 
0.0 0.0 -8.616648267972e+01 
-2.745669429214e+01 -2.882461306363e+00 0.0 
-2.882461306363e+00 -7.736466706027e+01 0.0 
0.0 0.0 -3.104640840572e+01 
-2.713811649130e+01 1.817420658752e+01 0.0 
1.817420658752e+01 -2.074058326552e+01 0.0 
0.0 0.0 -1.396360992705e+01 
-2.938502935792e+01 2.009176300189e+01 0.0 
2.009176300189e+01 -2.213647559883e+01 0.0 
0.0 0.0 -1.505645148702e+01 
-4.682926244925e+01 -2.498536419033e+00 0.0 
-2.498536419033e+00 -1.383383259507e+02 0.0 
0.0 0.0 -5.515027651997e+01 
-8.191994566404e+01 7.016298997257e+00 0.0 
7.016298997257e+00 -2.338049383964e+02 0.0 
0.0 0.0 -9.431746521813e+01 
-6.623840632773e+01 1.524715156619e+01 0.0 
1.524715156619e+01 -1.968701135807e+02 0.0 
0.0 0.0 -7.853255597253e+01 
-8.838990235246e+01 2.732941113848e+01 0.0 
2.732941113848e+01 -2.089275742622e+02 0.0 
0.0 0.0 -8.879524298439e+01 
-1.021108221697e+02 2.733243452691e+01 0.0 
2.733243452691e+01 -2.290327239251e+02 0.0 
0.0 0.0 -9.894306382844e+01 
-2.652902811441e+01 1.790812709511e+01 0.0 
1.790812709511e+01 -2.082678189326e+01 0.0 
0.0 0.0 -1.380674300230e+01 
-6.259272781977e+01 1.479962334716e+00 0.0 
1.479962334716e+00 -1.190044816216e+02 0.0 
0.0 0.0 -5.407916283240e+01 
-1.106377826851e+02 2.907663118547e+01 0.0 
2.907663118547e+01 -2.634689829181e+02 0.0 
0.0 0.0 -1.118320296810e+02 
-4.566353174161e+01 4.365014510990e+00 0.0 
4.365014510990e+00 -1.487421665079e+02 0.0 
0.0 0.0 -5.792170947486e+01 
-2.476760498211e+01 1.420555099262e+01 0.0 
1.420555099262e+01 -3.286099610278e+01 0.0 
0.0 0.0 -1.688858032547e+01 
-3.461032072160e+01 2.127166329072e+01 0.0 
2.127166329072e+01 -6.100671585458e+01 0.0 
0.0 0.0 -2.828511097286e+01 
-7.857550425356e+01 5.426021020173e+00 0.0 
5.426021020173e+00 -2.252934031519e+02 0.0 
0.0 0.0 -9.076067222163e+01 
-8.664287224639e+01 2.581911834099e+01 0.0 
2.581911834099e+01 -1.950215068532e+02 0.0 
0.0 0.0 -8.409931372987e+01 
-7.614276836579e+01 4.623930024758e+00 0.0 
4.623930024758e+00 -2.240879710795e+02 0.0 
0.0 0.0 -8.966922183359e+01 
-2.425895669526e+01 5.705478572166e+00 0.0 
5.705478572166e+00 -5.054020208554e+01 0.0 
0.0 0.0 -2.203974763424e+01 
-9.039815769711e+01 8.413904391457e+00 0.0 
8.413904391457e+00 -2.520904781118e+02 0.0 
0.0 0.0 -1.023465907427e+02 
-2.766101771019e+01 1.607566093316e+01 0.0 
1.607566093316e+01 -5.259740060776e+01 0.0 
0.0 0.0 -2.367752549539e+01 
-6.796801865120e+01 1.565091148775e+01 0.0 
1.565091148775e+01 -1.976867076926e+02 0.0 
0.0 0.0 -7.929641790314e+01 
-8.431601841835e+01 5.826586057704e+00 0.0 
5.826586057704e+00 -2.423870385844e+02 0.0 
0.0 0.0 -9.761091710082e+01 
-8.109922755139e+01 1.987395879633e+01 0.0 
1.987395879633e+01 -2.235704239988e+02 0.0 
0.0 0.0 -9.100089546505e+01 
-5.478275336114e+01 1.780569125323e+00 0.0 
1.780569125323e+00 -9.430655239838e+01 0.0 
0.0 0.0 -4.432679172786e+01 
-4.856259438172e+01 -1.544650472227e+00 0.0 
-1.544650472227e+00 -1.392611239664e+02 0.0 
0.0 0.0 -5.594711550445e+01 
-2.381094352109e+01 1.139315729420e+01 0.0 
1.139315729420e+01 -4.444724428315e+01 0.0 
0.0 0.0 -2.007745634127e+01 
-9.310971355239e+01 7.094234399121e+00 0.0 
7.094234399121e+00 -2.609854869168e+02 0.0 
0.0 0.0 -1.058285601407e+02 
-2.847008142269e+01 1.702864875707e+01 0.0 
1.702864875707e+01 -5.378851785084e+01 0.0 
0.0 0.0 -2.427757978206e+01 
-1.905106575617e+01 4.266008257166e-01 0.0 
4.266008257166e-01 -2.507985994622e+01 0.0 
0.0 0.0 -1.283927771072e+01 
-8.111462988929e+01 6.764291594743e-02 0.0 
6.764291594743e-02 -1.768886920293e+02 0.0 
0.0 0.0 -7.700099657559e+01 
-7.555156015933e+01 -1.843626856167e-01 0.0 
-1.843626856167e-01 -1.580099782239e+02 0.0 
0.0 0.0 -6.966846151498e+01 
-1.357077937753e+01 -1.750118653318e+00 0.0 
-1.750118653318e+00 -2.469853063858e+01 0.0 
0.0 0.0 -1.146284083840e+01 
-9.942209045301e+01 9.829220439534e+00 0.0 
9.829220439534e+00 -2.705590070270e+02 0.0 
0.0 0.0 -1.105943292440e+02 
-3.859753354265e+01 -2.174705903364e+00 0.0 
-2.174705903364e+00 -1.085683410154e+02 0.0 
0.0 0.0 -4.374976236740e+01 
-4.026789216986e+01 -3.127371042956e+00 0.0 
-3.127371042956e+00 -1.159617726706e+02 0.0 
0.0 0.0 -4.646889945214e+01 
-9.522205339835e+01 2.662060815152e+01 0.0 
2.662060815152e+01 -2.272184429925e+02 0.0 
0.0 0.0 -9.633214891725e+01 
-8.270308482686e+01 2.068400667551e+01 0.0 
2.068400667551e+01 -2.244091463426e+02 0.0 
0.0 0.0 -9.173366935084e+01 
-9.163493677202e+01 2.575481023806e+01 0.0 
2.575481023806e+01 -2.238716651194e+02 0.0 
0.0 0.0 -9.425198056742e+01 
-5.557706129587e+01 3.333084201253e+00 0.0 
3.333084201253e+00 -1.697448601069e+02 0.0 
0.0 0.0 -6.719657642083e+01 
-2.686435420419e+01 -1.563077279436e-01 0.0 
-1.563077279436e-01 -2.768060277576e+01 0.0 
0.0 0.0 -1.596348709399e+01 
-1.504004982255e+02 1.035251529766e+01 0.0 
1.035251529766e+01 -3.599789162509e+02 0.0 
0.0 0.0 -1.527138243429e+02 
-3.399498940282e+01 -3.318093683162e+00 0.0 
-3.318093683162e+00 -9.644264409364e+01 0.0 
0.0 0.0 -3.873129004894e+01 
-1.156991948148e+02 1.736121506516e+01 0.0 
1.736121506516e+01 -2.999441695175e+02 0.0 
0.0 0.0 -1.242930092997e+02 
-7.115887042643e+01 1.764695264628e+01 0.0 
1.764695264628e+01 -2.023141615531e+02 0.0 
0.0 0.0 -8.164190959385e+01 
-2.748507692785e+01 -1.395125773313e+00 0.0 
-1.395125773313e+00 -7.641655513110e+01 0.0 
0.0 0.0 -3.077048961769e+01 
-8.290921984149e+01 2.507974530796e+01 0.0 
2.507974530796e+01 -1.785806072246e+02 0.0 
0.0 0.0 -7.804694811983e+01 
-5.574871905024e+01 4.742080171985e+00 0.0 
4.742080171985e+00 -1.766455255506e+02 0.0 
0.0 0.0 -6.931827338024e+01 
-1.854040353345e+01 -2.720381495600e+00 0.0 
-2.720381495600e+00 -4.201889910602e+01 0.0 
0.0 0.0 -1.776779079184e+01 
-4.705636600565e+01 2.007216463252e+00 0.0 
2.007216463252e+00 -1.509284547737e+02 0.0 
0.0 0.0 -5.899544623381e+01 
-1.114768173836e+02 -6.903819325750e-01 0.0 
-6.903819325750e-01 -2.862593878383e+02 0.0 
0.0 0.0 -1.189208615666e+02 
-8.380268801714e+01 2.641178548423e+01 0.0 
2.641178548423e+01 -1.670599020573e+02 0.0 
0.0 0.0 -7.485877702235e+01 
-2.794715791207e+01 -2.712155039866e+00 0.0 
-2.712155039866e+00 -7.353776317277e+01 0.0 
0.0 0.0 -3.004547632545e+01 
-8.818655753149e+01 5.879245603919e-01 0.0 
5.879245603919e-01 -2.341934558985e+02 0.0 
0.0 0.0 -9.631400402899e+01 
-9.089096882957e+01 2.631342031089e+01 0.0 
2.631342031089e+01 -2.114203863982e+02 0.0 
0.0 0.0 -9.029340656832e+01 
-1.069401113084e+02 2.303628822363e+01 0.0 
2.303628822363e+01 -2.754507489182e+02 0.0 
0.0 0.0 -1.143172580680e+02 
-4.984545118795e+01 -1.930365763654e+00 0.0 
-1.930365763654e+00 -1.489788076305e+02 0.0 
0.0 0.0 -5.924727764554e+01 
-4.289996238990e+01 -1.092306792736e+00 0.0 
-1.092306792736e+00 -1.200721127324e+02 0.0 
0.0 0.0 -4.849162253670e+01 
-7.397928414337e+01 1.626235212928e+01 0.0 
1.626235212928e+01 -2.145467976734e+02 0.0 
0.0 0.0 -8.615782454502e+01 
-5.122475077860e+01 8.714008675357e-01 0.0 
8.714008675357e-01 -8.852743593442e+01 0.0 
0.0 0.0 -4.152565601391e+01 
-1.900411296973e+01 -2.662779575359e+00 0.0 
-2.662779575359e+00 -4.138282018661e+01 0.0 
0.0 0.0 -1.771607994690e+01 
-1.200223767839e+02 3.266145365667e+01 0.0 
3.266145365667e+01 -2.851602351247e+02 0.0 
0.0 0.0 -1.211547835726e+02 
-1.024915464476e+02 2.687186042296e+01 0.0 
2.687186042296e+01 -2.323198631745e+02 0.0 
0.0 0.0 -1.000434228866e+02 
-4.039451933578e+01 8.353807641069e-01 0.0 
8.353807641069e-01 -6.092420486027e+01 0.0 
0.0 0.0 -2.999561725881e+01 
-9.477181733770e+01 1.533771226330e+01 0.0 
1.533771226330e+01 -1.981712432824e+02 0.0 
0.0 0.0 -8.748291818603e+01 
-1.081221758260e+02 2.925965502113e+01 0.0 
2.925965502113e+01 -2.489192742170e+02 0.0 
0.0 0.0 -1.067124350129e+02 
-5.713522214543e+01 2.599409903278e+00 0.0 
2.599409903278e+00 -1.782473164249e+02 0.0 
0.0 0.0 -7.021476157111e+01 
-5.685363814938e+01 1.658150527300e+00 0.0 
1.658150527300e+00 -1.706111727525e+02 0.0 
0.0 0.0 -6.783944327055e+01 
-1.375808448619e+02 2.170137181967e+01 0.0 
2.170137181967e+01 -3.390887719751e+02 0.0 
0.0 0.0 -1.426008850511e+02 
-1.827153006925e+01 5.662496814607e-01 0.0 
5.662496814607e-01 -8.671891372221e+00 0.0 
0.0 0.0 -8.633638615227e+00 
-3.914770745188e+01 -8.456821024672e-01 0.0 
-8.456821024672e-01 -1.094937939844e+02 0.0 
0.0 0.0 -4.419245043088e+01 
-8.954735969549e+01 -7.264906859620e-01 0.0 
-7.264906859620e-01 -2.386032699986e+02 0.0 
0.0 0.0 -9.804518890822e+01 
-5.180659106791e+01 -1.072411938304e+00 0.0 
-1.072411938304e+00 -1.500272256591e+02 0.0 
0.0 0.0 -6.015014501809e+01 
-4.824753376368e+01 1.405108674541e-01 0.0 
1.405108674541e-01 -1.514627425342e+02 0.0 
0.0 0.0 -5.951308288938e+01 
-2.593143661449e+01 1.752681047248e+01 0.0 
1.752681047248e+01 -1.939208414783e+01 0.0 
0.0 0.0 -1.319705622870e+01 
-2.889142166346e+01 1.951626252117e+01 0.0 
1.951626252117e+01 -2.175359436753e+01 0.0 
0.0 0.0 -1.479350480930e+01 
-4.633892792294e+01 2.906453467015e+00 0.0 
2.906453467015e+00 -6.215683303907e+01 0.0 
0.0 0.0 -3.214872828860e+01 
-5.172388210989e+01 3.768680262223e+00 0.0 
3.768680262223e+00 -1.599261686581e+02 0.0 
0.0 0.0 -6.309501523041e+01 
-4.543938870398e+01 -1.528993243438e+00 0.0 
-1.528993243438e+00 -1.278190809996e+02 0.0 
0.0 0.0 -5.157754091108e+01 
-9.837135093836e+01 2.215447523622e+01 0.0 
2.215447523622e+01 -2.595777839349e+02 0.0 
0.0 0.0 -1.069847404620e+02 
-1.588990784413e+02 8.415017969326e+00 0.0 
8.415017969326e+00 -3.781439501610e+02 0.0 
0.0 0.0 -1.607129085807e+02 
-1.574134176453e+02 1.002528526381e+01 0.0 
1.002528526381e+01 -3.758069613906e+02 0.0 
0.0 0.0 -1.595661137108e+02 
-5.842424379126e+01 9.294564939458e-01 0.0 
9.294564939458e-01 -1.786169774302e+02 0.0 
0.0 0.0 -7.071236636644e+01 
-4.079955808550e+01 1.654763070597e+00 0.0 
1.654763070597e+00 -4.549657057017e+01 0.0 
0.0 0.0 -2.548883859670e+01 
-2.234290136946e+01 -1.559002340043e-01 0.0 
-1.559002340043e-01 -2.057218627369e+01 0.0 
0.0 0.0 -1.247452629294e+01 
-2.590203256812e+01 1.712463623792e+01 0.0 
1.712463623792e+01 -2.009290633437e+01 0.0 
0.0 0.0 -1.339848167075e+01 
-2.869958213285e+01 -2.175505174364e+00 0.0 
-2.175505174364e+00 -7.258533666401e+01 0.0 
0.0 0.0 -2.998547563906e+01 
-2.655317706512e+01 1.763067528785e+01 0.0 
1.763067528785e+01 -2.052923131415e+01 0.0 
0.0 0.0 -1.372472251378e+01 
-7.918772829155e+01 1.876933004023e+01 0.0 
1.876933004023e+01 -2.200300616435e+02 0.0 
0.0 0.0 -8.936533698051e+01 
-4.932113827670e+01 -1.126895030601e+00 0.0 
-1.126895030601e+00 -1.509481638622e+02 0.0 
0.0 0.0 -5.968079064167e+01 
-5.309292673821e+01 1.853504384635e+00 0.0 
1.853504384635e+00 -1.614417272577e+02 0.0 
0.0 0.0 -6.396039619877e+01 
-2.325966229861e+01 -1.534569943131e+00 0.0 
-1.534569943131e+00 -4.103933637674e+01 0.0 
0.0 0.0 -1.888969960260e+01 
-7.539425209828e+01 1.234624631983e+00 0.0 
1.234624631983e+00 -1.607600952300e+02 0.0 
0.0 0.0 -7.044630419847e+01 
-5.418436852373e+01 4.894163965056e-01 0.0 
4.894163965056e-01 -1.615550469867e+02 0.0 
0.0 0.0 -6.432182465314e+01 
-8.161580365600e+01 4.206704808886e+00 0.0 
4.206704808886e+00 -1.749548784534e+02 0.0 
0.0 0.0 -7.657120463283e+01 
-7.230603704097e+01 2.418118647879e+00 0.0 
2.418118647879e+00 -1.453773866196e+02 0.0 
0.0 0.0 -6.490502709818e+01 
-9.333700012017e+01 2.104541350669e+00 0.0 
2.104541350669e+00 -2.127922684439e+02 0.0 
0.0 0.0 -9.143878056921e+01 
-1.610394422128e+02 1.680088217357e+00 0.0 
1.680088217357e+00 -3.820802205418e+02 0.0 
0.0 0.0 -1.625358988264e+02 
-4.040386505310e+01 -5.245509313612e-01 0.0 
-5.245509313612e-01 -6.137730062162e+01 0.0 
0.0 0.0 -3.013434970242e+01 
-5.788064418094e+01 4.861238028723e-01 0.0 
4.861238028723e-01 -1.703159513171e+02 0.0 
0.0 0.0 -6.805897864942e+01 
-2.687892464401e+01 1.839715855699e+01 0.0 
1.839715855699e+01 -2.059860213620e+01 0.0 
0.0 0.0 -1.384325803406e+01 
-5.948995958494e+01 -2.721464230488e-01 0.0 
-2.721464230488e-01 -1.779508304315e+02 0.0 
0.0 0.0 -7.083223700494e+01 
-1.627683027341e+02 6.649221370711e+00 0.0 
6.649221370711e+00 -3.811260397129e+02 0.0 
0.0 0.0 -1.627683027341e+02 
-2.341539565656e+01 1.501043918268e+01 0.0 
1.501043918268e+01 -1.838187605689e+01 0.0 
0.0 0.0 -1.213918151404e+01 
-2.460335267216e+01 1.608934101295e+01 0.0 
1.608934101295e+01 -1.927643810311e+01 0.0 
0.0 0.0 -1.276393723258e+01 
-1.195370462109e+02 1.935959152992e+01 0.0 
1.935959152992e+01 -3.062050347138e+02 0.0 
0.0 0.0 -1.273226242774e+02 
-3.678748104043e+01 7.586279530371e-01 0.0 
7.586279530371e-01 -4.574323530676e+01 0.0 
0.0 0.0 -2.435921490416e+01 
-8.150261817877e+01 2.396409729854e+00 0.0 
2.396409729854e+00 -1.767385779359e+02 0.0 
0.0 0.0 -7.707235883439e+01 
-9.208691757118e+01 2.812519473760e+01 0.0 
2.812519473760e+01 -2.120947596020e+02 0.0 
0.0 0.0 -9.085450315197e+01 
-1.141538501241e+02 2.324705799483e+01 0.0 
2.324705799483e+01 -2.921133869885e+02 0.0 
0.0 0.0 -1.214801711338e+02 
-9.552431038738e+01 2.856566704854e+01 0.0 
2.856566704854e+01 -2.048423454926e+02 0.0 
0.0 0.0 -8.970999676400e+01 
-4.256894172535e+01 -2.284734526721e-01 0.0 
-2.284734526721e-01 -6.474687055710e+01 0.0 
0.0 0.0 -3.179474368474e+01 
-4.550243449718e+01 -1.786520844815e+00 0.0 
-1.786520844815e+00 -1.312958717450e+02 0.0 
0.0 0.0 -5.263949187266e+01 
-4.375808872257e+01 -2.612350382352e+00 0.0 
-2.612350382352e+00 -1.303994946510e+02 0.0 
0.0 0.0 -5.184727501208e+01 
-5.865790836137e+01 -1.048292047153e-01 0.0 
-1.048292047153e-01 -1.081864832469e+02 0.0 
0.0 0.0 -4.965331748247e+01 
-1.107555329346e+02 2.495306572141e+01 0.0 
2.495306572141e+01 -2.795637985248e+02 0.0 
0.0 0.0 -1.166957994378e+02 
-3.717740663321e+01 3.926147133448e+00 0.0 
3.926147133448e+00 -3.022997576669e+01 0.0 
0.0 0.0 -1.982221471997e+01 
-3.386036254250e+01 -2.791618862330e-03 0.0 
-2.791618862330e-03 -4.438276857810e+01 0.0 
0.0 0.0 -2.307293933618e+01 
-4.064244711323e+01 4.840013170374e-01 0.0 
4.840013170374e-01 -6.030979106726e+01 0.0 
0.0 0.0 -2.988567145415e+01 
-4.347603323335e+01 1.555283575482e+00 0.0 
1.555283575482e+00 -6.603200606622e+01 0.0 
0.0 0.0 -3.245241178987e+01 
-2.428062819314e+01 -1.250131757349e+00 0.0 
-1.250131757349e+00 -6.083552245069e+01 0.0 
0.0 0.0 -2.513484519315e+01 
-4.074328411564e+01 -2.984590778511e+00 0.0 
-2.984590778511e+00 -1.194763809289e+02 0.0 
0.0 0.0 -4.766589951336e+01 
-9.049794538563e+01 7.438780005710e+00 0.0 
7.438780005710e+00 -1.981722655501e+02 0.0 
0.0 0.0 -8.620106328073e+01 
-5.178650876147e+01 2.012496546538e+00 0.0 
2.012496546538e+00 -8.542286024334e+01 0.0 
0.0 0.0 -4.076281070144e+01 
-1.380529125983e+02 2.421130794819e+01 0.0 
2.421130794819e+01 -3.349820418613e+02 0.0 
0.0 0.0 -1.415104863379e+02 
-1.062601854021e+02 3.036145369634e+01 0.0 
3.036145369634e+01 -2.327752228519e+02 0.0 
0.0 0.0 -1.013106224762e+02 
-8.369751362208e+01 2.738134538207e+01 0.0 
2.738134538207e+01 -1.795263424207e+02 0.0 
0.0 0.0 -7.856715681283e+01 
-9.188194373022e+01 1.542798615248e+01 0.0 
1.542798615248e+01 -1.860554109596e+02 0.0 
0.0 0.0 -8.298120640695e+01 
-6.429291802978e+01 -1.108730482574e+00 0.0 
-1.108730482574e+00 -1.781917857820e+02 0.0 
0.0 0.0 -7.234541114354e+01 
-5.818847446766e+01 -1.344788412108e+00 0.0 
-1.344788412108e+00 -1.627519419278e+02 0.0 
0.0 0.0 -6.588212491863e+01 
-1.402014813547e+02 9.173481860055e+00 0.0 
9.173481860055e+00 -3.449116803696e+02 0.0 
0.0 0.0 -1.451339485173e+02 
-1.748574876476e+01 -1.608542947766e+00 0.0 
-1.608542947766e+00 -2.421024925059e+01 0.0 
0.0 0.0 -1.256148407564e+01 
-4.206876515938e+01 -4.112567792710e-01 0.0 
-4.112567792710e-01 -1.158069751663e+02 0.0 
0.0 0.0 -4.696272209769e+01 
-1.382335475145e+02 3.090781050749e+01 0.0 
3.090781050749e+01 -3.238782775339e+02 0.0 
0.0 0.0 -1.382335475145e+02 
-2.025207745086e+01 4.924847823231e-01 0.0 
4.924847823231e-01 -5.779736281815e+01 0.0 
0.0 0.0 -2.301483208070e+01 
-3.379163086314e+01 -8.956067608824e-03 0.0 
-8.956067608824e-03 -4.439313148002e+01 0.0 
0.0 0.0 -2.305542870295e+01 
-1.312919467761e+02 1.812698046558e+01 0.0 
1.812698046558e+01 -3.305046409830e+02 0.0 
0.0 0.0 -1.381389763277e+02 
-1.752328995859e+01 -2.402423682880e+00 0.0 
-2.402423682880e+00 -3.934608338584e+01 0.0 
0.0 0.0 -1.666081200333e+01 
-1.039128381975e+01 -8.177965974980e-01 0.0 
-8.177965974980e-01 -2.408256033452e+01 0.0 
0.0 0.0 -9.942153246280e+00 
-9.796643304805e+01 1.314837473841e+01 0.0 
1.314837473841e+01 -2.192262197028e+02 0.0 
0.0 0.0 -9.475779582526e+01 
-2.825541763737e+01 -5.204674258414e-01 0.0 
-5.204674258414e-01 -2.773371351993e+01 0.0 
0.0 0.0 -1.639673934719e+01 
-9.043636851792e+01 9.635918448186e+00 0.0 
9.635918448186e+00 -1.955314372036e+02 0.0 
0.0 0.0 -8.539034171644e+01 
-1.322331019913e+02 1.889695133068e+01 0.0 
1.889695133068e+01 -3.276325407797e+02 0.0 
0.0 0.0 -1.375596928313e+02 
-2.790328966265e+01 1.988366020763e-01 0.0 
1.988366020763e-01 -2.745131280448e+01 0.0 
0.0 0.0 -1.620638074014e+01 
-2.269430828156e+01 6.858466351764e-01 0.0 
6.858466351764e-01 -2.144277786810e+01 0.0 
0.0 0.0 -1.284112584490e+01 
-8.578444558970e+01 2.275284457274e+00 0.0 
2.275284457274e+00 -1.944347403417e+02 0.0 
0.0 0.0 -8.366575577942e+01 
-2.291084245066e+01 -9.228980767126e-01 0.0 
-9.228980767126e-01 -6.358907806718e+01 0.0 
0.0 0.0 -2.554997615535e+01 
-8.462464253905e+01 8.119777406169e+00 0.0 
8.119777406169e+00 -1.821876841944e+02 0.0 
0.0 0.0 -7.964369802004e+01 
-1.630686978122e+02 5.113515942022e+00 0.0 
5.113515942022e+00 -3.818269615617e+02 0.0 
0.0 0.0 -1.630686978122e+02 
-1.016221339491e+02 2.682289628237e+01 0.0 
2.682289628237e+01 -2.178411573448e+02 0.0 
0.0 0.0 -9.543898738818e+01 
-2.724610318612e+01 -1.223270551702e+00 0.0 
-1.223270551702e+00 -7.868220838540e+01 0.0 
0.0 0.0 -3.137849347146e+01 
-5.155741251778e+01 6.009499214905e+00 0.0 
6.009499214905e+00 -6.665095395244e+01 0.0 
0.0 0.0 -3.506250994107e+01 
-6.574475211363e+01 8.740972941092e-02 0.0 
8.740972941092e-02 -1.811463459483e+02 0.0 
0.0 0.0 -7.366732941857e+01 
-1.008488305285e+02 2.310807147334e+01 0.0 
2.310807147334e+01 -2.607386976761e+02 0.0 
0.0 0.0 -1.080762584614e+02 
-1.438110136445e+02 2.774856416789e+01 0.0 
2.774856416789e+01 -3.433844128984e+02 0.0 
0.0 0.0 -1.457586279629e+02 
-6.625196655251e+01 4.616509042613e-01 0.0 
4.616509042613e-01 -1.297756847095e+02 0.0 
0.0 0.0 -5.840829537861e+01 
-1.447409367503e+02 2.503586620445e+01 0.0 
2.503586620445e+01 -3.484380067850e+02 0.0 
0.0 0.0 -1.475536830606e+02 
-2.044201012039e+01 -1.571428014074e+00 0.0 
-1.571428014074e+00 -4.005188361036e+01 0.0 
0.0 0.0 -1.774816811923e+01 
-1.525198460000e+02 7.037373346481e+00 0.0 
7.037373346481e+00 -3.659600271772e+02 0.0 
0.0 0.0 -1.551439619532e+02 
-3.060179876663e+01 -1.323616328235e+00 0.0 
-1.323616328235e+00 -8.899912902419e+01 0.0 
0.0 0.0 -3.548027833725e+01 
-2.020872916042e+01 -1.168444611047e+00 0.0 
-1.168444611047e+00 -5.774205245521e+01 0.0 
0.0 0.0 -2.298523448469e+01 
-1.432912464702e+02 1.723251147916e+01 0.0 
1.723251147916e+01 -3.504905908110e+02 0.0 
0.0 0.0 -1.477345511844e+02 
-1.013653693755e+02 2.139448718747e+01 0.0 
2.139448718747e+01 -2.152793975750e+02 0.0 
0.0 0.0 -9.459343008513e+01 
-9.372412314056e+01 1.363183291682e+01 0.0 
1.363183291682e+01 -2.055165413309e+02 0.0 
0.0 0.0 -8.937219934144e+01 
-3.379184289410e+01 -6.443510535554e-01 0.0 
-6.443510535554e-01 -4.309826371817e+01 0.0 
0.0 0.0 -2.266703198368e+01 
-5.711782623226e+01 1.124454133830e+01 0.0 
1.124454133830e+01 -7.604236978861e+01 0.0 
0.0 0.0 -3.954805880626e+01 
-2.597697539644e+01 1.342058043204e+01 0.0 
1.342058043204e+01 -5.031893575483e+01 0.0 
0.0 0.0 -2.248877334538e+01 
-1.129180309273e+02 3.209575842117e+01 0.0 
3.209575842117e+01 -2.541923737316e+02 0.0 
0.0 0.0 -1.097331213977e+02 
-5.465625295139e+01 -1.149427551171e+00 0.0 
-1.149427551171e+00 -1.513772772763e+02 0.0 
0.0 0.0 -6.141005906832e+01 
-2.136729573416e+01 6.911138552278e+00 0.0 
6.911138552278e+00 -4.036058609418e+01 0.0 
0.0 0.0 -1.811836454850e+01 
-1.045192704154e+02 2.208286058450e+01 0.0 
2.208286058450e+01 -2.742416993792e+02 0.0 
0.0 0.0 -1.132282909384e+02 
-2.661784559410e+01 9.216766377993e-02 0.0 
9.216766377993e-02 -2.701880248650e+01 0.0 
0.0 0.0 -1.569099442418e+01 
-9.421205794075e+01 1.916158135966e+01 0.0 
1.916158135966e+01 -2.005525337262e+02 0.0 
0.0 0.0 -8.802937750008e+01 
-9.219596138617e+01 8.861123433408e-01 0.0 
8.861123433408e-01 -2.106914455356e+02 0.0 
0.0 0.0 -9.046622207653e+01 
-9.049808610932e+01 8.648696548134e-01 0.0 
8.648696548134e-01 -2.124955342551e+02 0.0 
0.0 0.0 -9.049808610932e+01 
-1.445227479036e+00 3.163077746359e-01 0.0 
3.163077746359e-01 -6.656632323212e+00 0.0 
0.0 0.0 -2.030557940674e+00 
-3.635597117110e+00 -2.853517444912e-01 0.0 
-2.853517444912e-01 -1.043164167891e+01 0.0 
0.0 0.0 -4.456678188966e+00 
-2.750733668551e+01 6.071096589419e-01 0.0 
6.071096589419e-01 -2.967226279105e+01 0.0 
0.0 0.0 -1.675387984297e+01 
-2.635378385208e+01 -1.379789376144e-01 0.0 
-1.379789376144e-01 -2.710037264168e+01 0.0 
0.0 0.0 -1.563624694813e+01 
-1.638141400186e+02 6.520277132486e-01 0.0 
6.520277132486e-01 -3.835663267100e+02 0.0 
0.0 0.0 -1.638141400186e+02 
-1.606217471367e+02 -6.068639236933e-01 0.0 
-6.068639236933e-01 -3.804642614072e+02 0.0 
0.0 0.0 -1.619258025632e+02 
-8.106093769964e+00 -7.720671499902e-01 0.0 
-7.720671499902e-01 -2.307874275306e+01 0.0 
0.0 0.0 -8.955450956906e+00 
-1.773303746903e+01 -4.994238534021e-01 0.0 
-4.994238534021e-01 -8.278533493584e+00 0.0 
0.0 0.0 -8.303897635990e+00 
-1.450229616260e+02 3.116356412619e+00 0.0 
3.116356412619e+00 -3.513601148084e+02 0.0 
0.0 0.0 -1.485149229303e+02 
-1.154311928281e+02 2.744574744376e+01 0.0 
2.744574744376e+01 -2.867121529557e+02 0.0 
0.0 0.0 -1.202430037351e+02 
-2.755454163143e+01 -1.030100670172e+00 0.0 
-1.030100670172e+00 -7.450394358900e+01 0.0 
0.0 0.0 -3.021754556613e+01 
-1.457134476600e+02 7.443597322620e+00 0.0 
7.443597322620e+00 -3.528386258587e+02 0.0 
0.0 0.0 -1.491656220556e+02 
-9.690869103225e+01 3.608511671697e-01 0.0 
3.608511671697e-01 -2.543170904802e+02 0.0 
0.0 0.0 -1.049677344537e+02 
-8.161323147529e+01 7.784538219443e-01 0.0 
7.784538219443e-01 -2.199688449131e+02 0.0 
0.0 0.0 -9.007462291653e+01 
-5.458782968192e+01 5.643195798997e-01 0.0 
5.643195798997e-01 -9.531783377005e+01 0.0 
0.0 0.0 -4.457169903559e+01 
-2.687010467982e+01 -2.985045572997e+00 0.0 
-2.985045572997e+00 -6.898253921790e+01 0.0 
0.0 0.0 -2.835579316932e+01 
-9.162036535668e+01 2.192786593288e+01 0.0 
2.192786593288e+01 -2.425919696884e+02 0.0 
0.0 0.0 -9.986370051353e+01 
-2.262384825611e+01 -1.588525092230e+00 0.0 
-1.588525092230e+00 -5.983530101406e+01 0.0 
0.0 0.0 -2.433774478105e+01 
-7.361420781657e+01 5.263976630750e-01 0.0 
5.263976630750e-01 -2.002607163973e+02 0.0 
0.0 0.0 -8.176247726417e+01 
-1.058433935721e+02 2.872982319820e+01 0.0 
2.872982319820e+01 -2.413963320131e+02 0.0 
0.0 0.0 -1.037719176756e+02 
-7.947338214792e+01 9.756384250309e-01 0.0 
9.756384250309e-01 -1.694795177130e+02 0.0 
0.0 0.0 -7.428586995829e+01 
-8.168290914535e+01 -3.991103004677e-01 0.0 
-3.991103004677e-01 -2.190629442726e+02 0.0 
0.0 0.0 -8.982375602538e+01 
-4.621445859017e+01 1.030401336700e+00 0.0 
1.030401336700e+00 -7.475817799741e+01 0.0 
0.0 0.0 -3.589179097627e+01 
-1.135213091625e+02 3.047865297628e+01 0.0 
3.047865297628e+01 -2.745826066494e+02 0.0 
0.0 0.0 -1.160311747436e+02 
-9.955647467139e+01 2.933443203962e+01 0.0 
2.933443203962e+01 -2.200005848212e+02 0.0 
0.0 0.0 -9.546711784778e+01 
-9.160864386963e+01 2.827498071297e+01 0.0 
2.827498071297e+01 -1.997350699996e+02 0.0 
0.0 0.0 -8.700311416077e+01 
-2.748339857365e+01 -1.019933454785e-01 0.0 
-1.019933454785e-01 -2.772716395086e+01 0.0 
0.0 0.0 -1.616316875735e+01 
-8.790400632168e+01 2.014897102871e+01 0.0 
2.014897102871e+01 -2.381965818287e+02 0.0 
0.0 0.0 -9.743017644512e+01 
-9.589175358271e+01 2.244313387296e+01 0.0 
2.244313387296e+01 -2.065214106775e+02 0.0 
0.0 0.0 -9.032394927805e+01 
-4.084133143638e+01 -1.091048899424e+00 0.0 
-1.091048899424e+00 -1.151226007597e+02 0.0 
0.0 0.0 -4.638917965884e+01 
-1.517131344820e+01 -1.577896287397e+00 0.0 
-1.577896287397e+00 -2.518822415721e+01 0.0 
0.0 0.0 -1.170786128162e+01 
-1.093215861255e+02 2.931992707736e+01 0.0 
2.931992707736e+01 -2.600968920339e+02 0.0 
0.0 0.0 -1.104255434478e+02 
-1.134801516296e+02 1.633876487688e+01 0.0 
1.633876487688e+01 -2.988976263741e+02 0.0 
0.0 0.0 -1.233133334011e+02 
-2.286107608224e+01 -2.846718637566e+00 0.0 
-2.846718637566e+00 -5.735390346207e+01 0.0 
0.0 0.0 -2.366449386329e+01 
-5.977971898073e+01 1.369368267934e+00 0.0 
1.369368267934e+00 -1.096466065510e+02 0.0 
0.0 0.0 -5.042789765953e+01 
-1.536465833713e+02 3.923620901833e+00 0.0 
3.923620901833e+00 -3.658165186548e+02 0.0 
0.0 0.0 -1.554389306078e+02 
-1.097357930149e+02 2.687154171230e+01 0.0 
2.687154171230e+01 -2.712952216018e+02 0.0 
0.0 0.0 -1.139093043850e+02 
-1.155403703251e+02 3.025291740942e+01 0.0 
3.025291740942e+01 -2.810603449388e+02 0.0 
0.0 0.0 -1.185802145792e+02 
-1.060530365254e+02 1.103295502629e+00 0.0 
1.103295502629e+00 -2.743504647752e+02 0.0 
0.0 0.0 -1.137210503902e+02 
-1.782405107740e+01 4.484694121815e+00 0.0 
4.484694121815e+00 -2.108224573208e+01 0.0 
0.0 0.0 -1.154868009206e+01 
-2.717071643223e+01 1.849967920485e+01 0.0 
1.849967920485e+01 -1.979736395690e+01 0.0 
0.0 0.0 -1.369042411674e+01 
-2.865236580883e+01 1.651135846696e+01 0.0 
1.651135846696e+01 -5.389544648489e+01 0.0 
0.0 0.0 -2.436434368811e+01 
-5.307864084424e+01 6.629905815187e+00 0.0 
6.629905815187e+00 -6.580800693340e+01 0.0 
0.0 0.0 -3.526599433329e+01 
-8.583566751563e+01 1.917863612116e+01 0.0 
1.917863612116e+01 -2.371490233151e+02 0.0 
0.0 0.0 -9.649540724920e+01 
-8.583875339157e+01 7.231292890094e+00 0.0 
7.231292890094e+00 -1.841649378728e+02 0.0 
0.0 0.0 -8.060110737931e+01 
-1.400050597560e+02 2.089294866416e+01 0.0 
2.089294866416e+01 -3.387364995527e+02 0.0 
0.0 0.0 -1.432224677926e+02 
-2.206031468886e+01 -2.573789491387e+00 0.0 
-2.573789491387e+00 -4.167768897495e+01 0.0 
0.0 0.0 -1.872140109914e+01 
-1.991637964037e+01 -2.894471352381e+00 0.0 
-2.894471352381e+00 -4.056736839871e+01 0.0 
0.0 0.0 -1.774512441172e+01 
-2.729876291266e+01 1.798785441275e+01 0.0 
1.798785441275e+01 -2.058192500734e+01 0.0 
0.0 0.0 -1.396420637600e+01 
-6.154587751727e+01 3.677227170568e-01 0.0 
3.677227170568e-01 -1.150514578223e+02 0.0 
0.0 0.0 -5.257920060186e+01 
-5.079314403448e+01 -3.101739736168e-01 0.0 
-3.101739736168e-01 -1.411485975669e+02 0.0 
0.0 0.0 -5.718252248041e+01 
-9.450905063054e+01 1.761042601924e+01 0.0 
1.761042601924e+01 -1.965342397513e+02 0.0 
0.0 0.0 -8.691298711455e+01 
-2.606951182059e+01 -2.953555231275e-01 0.0 
-2.953555231275e-01 -7.138698072308e+01 0.0 
0.0 0.0 -2.883694776310e+01 
-1.286021643576e+02 1.966253078624e+01 0.0 
1.966253078624e+01 -3.218562178293e+02 0.0 
0.0 0.0 -1.347375146561e+02 
-4.408371537517e+01 7.481552635288e-01 0.0 
7.481552635288e-01 -6.052993346755e+01 0.0 
0.0 0.0 -3.098409465282e+01 
-1.328384862740e+02 2.727542927941e+01 0.0 
2.727542927941e+01 -3.180520683328e+02 0.0 
0.0 0.0 -1.348671663820e+02 
-1.049477951672e+02 2.530506802808e+01 0.0 
2.530506802808e+01 -2.657512482748e+02 0.0 
0.0 0.0 -1.108097130326e+02 
-5.589249921828e+01 9.920918432017e+00 0.0 
9.920918432017e+00 -6.803173256228e+01 0.0 
0.0 0.0 -3.677726953417e+01 
-1.455570970481e+02 1.408270443234e+01 0.0 
1.408270443234e+01 -3.554790597266e+02 0.0 
0.0 0.0 -1.499108470324e+02 
-9.864698430013e+01 1.897145244193e+01 0.0 
1.897145244193e+01 -2.119789232427e+02 0.0 
0.0 0.0 -9.278777226286e+01 
-8.882445926670e+01 1.253521321299e+00 0.0 
1.253521321299e+00 -1.966356015036e+02 0.0 
0.0 0.0 -8.523801823109e+01 
-2.645211634809e+01 1.704399049649e+01 0.0 
1.704399049649e+01 -1.953183329882e+01 0.0 
0.0 0.0 -1.339518489407e+01 
-8.847702351584e+01 1.338969660306e+01 0.0 
1.338969660306e+01 -1.843794689381e+02 0.0 
0.0 0.0 -8.145694773618e+01 
-1.193689812041e+02 3.091783252925e+01 0.0 
3.091783252925e+01 -2.815336923725e+02 0.0 
0.0 0.0 -1.198708020730e+02 
-1.283014556677e+02 2.079949845103e+01 0.0 
2.079949845103e+01 -3.224165890680e+02 0.0 
0.0 0.0 -1.348154134207e+02 
-1.077384272441e+02 2.341023016513e+01 0.0 
2.341023016513e+01 -2.777919297479e+02 0.0 
0.0 0.0 -1.152591070976e+02 
-1.618323332887e+02 8.648470824650e+00 0.0 
8.648470824650e+00 -3.789421110070e+02 0.0 
0.0 0.0 -1.618323332887e+02 
-8.985446992338e+01 2.588223183700e+01 0.0 
2.588223183700e+01 -1.985215794199e+02 0.0 
0.0 0.0 -8.611281480300e+01 
-1.747249014763e+01 4.276514023006e+00 0.0 
4.276514023006e+00 -9.675573192189e+00 0.0 
0.0 0.0 -8.696161902471e+00 
-2.349350482119e+01 9.539507834303e+00 0.0 
9.539507834303e+00 -4.440585917038e+01 0.0 
0.0 0.0 -1.996980919747e+01 
-1.022855443093e+02 2.958622678656e+01 0.0 
2.958622678656e+01 -2.250459656308e+02 0.0 
0.0 0.0 -9.779945298205e+01 
-5.758187369770e+01 6.361196645496e+00 0.0 
6.361196645496e+00 -8.123577735744e+01 0.0 
0.0 0.0 -4.124529531654e+01 
-1.449824492733e+02 2.809783901802e+00 0.0 
2.809783901802e+00 -3.511639253925e+02 0.0 
0.0 0.0 -1.484439123997e+02 
-1.149789716069e+02 2.675861111639e+01 0.0 
2.675861111639e+01 -2.844830993216e+02 0.0 
0.0 0.0 -1.194386212785e+02 
-1.536265052572e+02 7.657456184953e+00 0.0 
7.657456184953e+00 -3.657534565228e+02 0.0 
0.0 0.0 -1.554139885340e+02 
-6.931583572960e+01 1.156342702112e+00 0.0 
1.156342702112e+00 -1.363152502478e+02 0.0 
0.0 0.0 -6.128932579323e+01 
-1.353486809167e+02 2.618872060437e+01 0.0 
2.618872060437e+01 -3.239575589050e+02 0.0 
0.0 0.0 -1.373918719465e+02 
-1.410952766516e+02 1.256376035667e+01 0.0 
1.256376035667e+01 -3.453634616752e+02 0.0 
0.0 0.0 -1.455376214980e+02 
-1.396738522316e+02 1.153389074914e+01 0.0 
1.153389074914e+01 -3.446229685132e+02 0.0 
0.0 0.0 -1.448890462234e+02 
-5.299482343417e+01 -2.985952014787e-01 0.0 
-2.985952014787e-01 -1.466402886421e+02 0.0 
0.0 0.0 -5.949053362289e+01 
-1.596011156972e+02 7.291178042650e+00 0.0 
7.291178042650e+00 -3.794338063207e+02 0.0 
0.0 0.0 -1.613104766054e+02 
-3.858034812209e+01 1.856909729352e+00 0.0 
1.856909729352e+00 -4.514505972169e+01 0.0 
0.0 0.0 -2.471762235313e+01 
-8.329214132393e+01 4.185787664617e+00 0.0 
4.185787664617e+00 -1.778150933406e+02 0.0 
0.0 0.0 -7.793217039937e+01 
-1.789830886932e+01 -2.579441966595e+00 0.0 
-2.579441966595e+00 -4.108008925638e+01 0.0 
0.0 0.0 -1.729351943771e+01 
-7.849691298992e+01 2.031291995109e+00 0.0 
2.031291995109e+00 -1.624385561957e+02 0.0 
0.0 0.0 -7.188064075569e+01 
-6.105789751793e+01 1.259354482978e+00 0.0 
1.259354482978e+00 -1.116125390348e+02 0.0 
0.0 0.0 -5.140113096582e+01 
-1.495989278009e+01 9.257225101636e-02 0.0 
9.257225101636e-02 -4.218913219734e+01 0.0 
0.0 0.0 -1.674470749323e+01 
-2.669277896822e+01 -6.418191061274e-01 0.0 
-6.418191061274e-01 -7.003946303663e+01 0.0 
0.0 0.0 -2.861967260146e+01 
-9.389238808374e+01 2.665210103544e+01 0.0 
2.665210103544e+01 -2.144171661552e+02 0.0 
0.0 0.0 -9.209286627170e+01 
-8.862420266678e+01 9.639858137123e+00 0.0 
9.639858137123e+00 -1.979138488235e+02 0.0 
0.0 0.0 -8.556141544707e+01 
-8.323562422410e+01 2.378283362932e+00 0.0 
2.378283362932e+00 -1.803874202491e+02 0.0 
0.0 0.0 -7.868691334195e+01 
-1.306802014473e+02 2.497802994130e+01 0.0 
2.497802994130e+01 -3.229794833139e+02 0.0 
0.0 0.0 -1.356979054284e+02 
-4.649587054731e+01 -1.056753547209e-01 0.0 
-1.056753547209e-01 -7.394670010492e+01 0.0 
0.0 0.0 -3.573277119567e+01 
-1.269746426895e+01 -1.645420114354e+00 0.0 
-1.645420114354e+00 -2.467952748016e+01 0.0 
0.0 0.0 -1.081309752473e+01 
-2.197647478994e+01 2.322753837478e+00 0.0 
2.322753837478e+00 -3.441987235965e+01 0.0 
0.0 0.0 -1.651890414488e+01 
-1.242160179817e+01 -2.195866715732e+00 0.0 
-2.195866715732e+00 -2.824598962738e+01 0.0 
0.0 0.0 -1.179169228480e+01 
-2.297305441222e+01 -2.507749558885e+00 0.0 
-2.507749558885e+00 -5.455937589297e+01 0.0 
0.0 0.0 -2.285972909156e+01 
-1.627669457131e+01 7.875229398820e+00 0.0 
7.875229398820e+00 -6.910816363226e+00 0.0 
0.0 0.0 -6.751875079671e+00 
-7.177063374597e+01 -6.883782980481e-01 0.0 
-6.883782980481e-01 -1.952876716324e+02 0.0 
0.0 0.0 -7.971749161351e+01 
-1.446066424587e+02 1.419514753442e+00 0.0 
1.419514753442e+00 -3.509606746977e+02 0.0 
0.0 0.0 -1.482701951469e+02 
-1.001041536633e+02 2.550193864831e+01 0.0 
2.550193864831e+01 -2.174649597066e+02 0.0 
0.0 0.0 -9.487073401099e+01 
-6.479841469884e+01 1.461347160299e+01 0.0 
1.461347160299e+01 -8.826085084051e+01 0.0 
0.0 0.0 -4.551777966181e+01 
-6.180010050972e+01 2.914736818103e-01 0.0 
2.914736818103e-01 -1.712031602986e+02 0.0 
0.0 0.0 -6.950097824250e+01 
-1.408919140542e+02 1.029750503703e+01 0.0 
1.029750503703e+01 -3.457470712093e+02 0.0 
0.0 0.0 -1.455916955791e+02 
-1.312499612523e+02 1.505638825874e+01 0.0 
1.505638825874e+01 -3.317876406357e+02 0.0 
0.0 0.0 -1.385112805664e+02 
-1.286337680029e+02 2.879821216593e+01 0.0 
2.879821216593e+01 -3.149053581302e+02 0.0 
0.0 0.0 -1.326617378399e+02 
-1.146043701724e+02 2.950416454853e+01 0.0 
2.950416454853e+01 -2.722120090651e+02 0.0 
0.0 0.0 -1.156449137712e+02 
-1.010488974004e+02 2.794021814841e+01 0.0 
2.794021814841e+01 -2.333879140591e+02 0.0 
0.0 0.0 -9.993104343786e+01 
-1.734905784118e+01 -2.716140821432e+00 0.0 
-2.716140821432e+00 -4.058009631823e+01 0.0 
0.0 0.0 -1.697874624782e+01 
-2.336099813149e+01 -8.907913335665e-01 0.0 
-8.907913335665e-01 -3.509323509994e+01 0.0 
0.0 0.0 -1.713626996943e+01 
-1.448282306663e+02 4.139144089186e+00 0.0 
4.139144089186e+00 -3.517580737150e+02 0.0 
0.0 0.0 -1.485758913144e+02 
-1.377378673971e+01 -4.518160975372e-01 0.0 
-4.518160975372e-01 -4.129912238592e+01 0.0 
0.0 0.0 -1.612187273769e+01 
-1.716281763157e+01 -1.122440585968e+00 0.0 
-1.122440585968e+00 -4.930037098488e+01 0.0 
0.0 0.0 -1.953895658493e+01 
-2.118913100197e+01 1.016022281167e+01 0.0 
1.016022281167e+01 -2.530658057808e+01 0.0 
0.0 0.0 -1.354871347401e+01 
-1.592785075292e+01 -1.477008425503e+00 0.0 
-1.477008425503e+00 -3.862190464844e+01 0.0 
0.0 0.0 -1.596492662041e+01 
-1.497219043403e+02 1.273490710358e+01 0.0 
1.273490710358e+01 -3.585684657834e+02 0.0 
0.0 0.0 -1.520871110371e+02 
-1.148881685126e+02 3.144450016427e+01 0.0 
3.144450016427e+01 -2.658818469762e+02 0.0 
0.0 0.0 -1.138310046466e+02 
-8.426606099687e+01 5.467240674533e+00 0.0 
5.467240674533e+00 -1.836372672867e+02 0.0 
0.0 0.0 -7.997099848506e+01 
-1.311037990656e+02 2.847342251155e+01 0.0 
2.847342251155e+01 -3.137294252934e+02 0.0 
0.0 0.0 -1.330499673077e+02 
-1.270963351925e+02 1.620997115528e+01 0.0 
1.620997115528e+01 -3.211546060392e+02 0.0 
0.0 0.0 -1.340752823695e+02 
-5.097572490575e+01 -1.609240676038e-02 0.0 
-1.609240676038e-02 -8.534491503754e+01 0.0 
0.0 0.0 -4.049619198299e+01 
-9.332584456694e+01 1.348613131671e+01 0.0 
1.348613131671e+01 -2.190936373229e+02 0.0 
0.0 0.0 -9.332584456694e+01 
-3.218185482269e+01 -2.154028250462e+00 0.0 
-2.154028250462e+00 -8.971648560093e+01 0.0 
0.0 0.0 -3.616950212709e+01 
-2.687032632354e+01 -9.874241643356e-02 0.0 
-9.874241643356e-02 -2.678765226312e+01 0.0 
0.0 0.0 -1.569739357600e+01 
-2.519041270578e+01 -3.238641151838e+00 0.0 
-3.238641151838e+00 -5.571337448553e+01 0.0 
0.0 0.0 -2.387113615739e+01 
-9.588009648795e+00 -1.183694236029e+00 0.0 
-1.183694236029e+00 -2.435390262057e+01 0.0 
0.0 0.0 -1.032943356129e+01 
-1.602338819521e+02 4.750322567147e+00 0.0 
4.750322567147e+00 -3.805797662515e+02 0.0 
0.0 0.0 -1.618440944611e+02 
-4.792246655082e+01 7.985119575441e+00 0.0 
7.985119575441e+00 -5.315948150286e+01 0.0 
0.0 0.0 -2.992458441610e+01 
-2.137357257067e+01 -1.092338279654e+00 0.0 
-1.092338279654e+00 -5.753103485210e+01 0.0 
0.0 0.0 -2.327138222683e+01 
-6.821103361853e+01 -1.148440750662e+00 0.0 
-1.148440750662e+00 -1.878311929768e+02 0.0 
0.0 0.0 -7.641266797859e+01 
-1.144645744335e+02 3.253266762683e+01 0.0 
3.253266762683e+01 -2.633174686637e+02 0.0 
0.0 0.0 -1.129346129292e+02 
-8.786270651153e+01 9.738282516434e+00 0.0 
9.738282516434e+00 -1.842377041876e+02 0.0 
0.0 0.0 -8.123012320975e+01 
-9.686984090268e+01 2.132622941532e+01 0.0 
2.132622941532e+01 -2.157348725667e+02 0.0 
0.0 0.0 -9.338141404081e+01 
-4.845836648740e+01 -1.942421423758e-02 0.0 
-1.942421423758e-02 -1.339103586714e+02 0.0 
0.0 0.0 -5.431061754763e+01 
-2.155149653592e+01 5.673209654922e-01 0.0 
5.673209654922e-01 -3.497948515302e+01 0.0 
0.0 0.0 -1.655929450668e+01 
-1.502714546091e+02 8.773703752941e+00 0.0 
8.773703752941e+00 -3.632730759346e+02 0.0 
0.0 0.0 -1.536633591631e+02 
-9.406748450491e+01 1.124620899950e+00 0.0 
1.124620899950e+00 -2.138993139352e+02 0.0 
0.0 0.0 -9.199003953202e+01 
-1.609771274816e+02 1.094484441304e+00 0.0 
1.094484441304e+00 -3.821887384393e+02 0.0 
0.0 0.0 -1.625497597763e+02 
-3.241647711792e+01 -4.885674809812e-01 0.0 
-4.885674809812e-01 -4.148985147864e+01 0.0 
0.0 0.0 -2.177189857897e+01 
-1.357352065218e+02 1.648915370291e+01 0.0 
1.648915370291e+01 -3.343012481729e+02 0.0 
0.0 0.0 -1.406109364084e+02 
-2.098945188602e+01 -8.542348306055e-01 0.0 
-8.542348306055e-01 -5.850179562753e+01 0.0 
0.0 0.0 -2.344737425406e+01 
-9.190143165372e+01 1.571500104881e+01 0.0 
1.571500104881e+01 -1.956389628476e+02 0.0 
0.0 0.0 -8.586211835040e+01 
-9.931488901235e+00 -1.148937264519e+00 0.0 
-1.148937264519e+00 -2.333125334819e+01 0.0 
0.0 0.0 -1.008658042236e+01 
-1.477986262588e+02 1.549782272158e+01 0.0 
1.549782272158e+01 -3.546098905421e+02 0.0 
0.0 0.0 -1.503225550403e+02 
-1.015985462830e+02 2.292679282708e+01 0.0 
2.292679282708e+01 -2.193913470947e+02 0.0 
0.0 0.0 -9.589696801331e+01 
-1.792637802134e+01 1.892365429890e+00 0.0 
1.892365429890e+00 -2.230533795827e+01 0.0 
0.0 0.0 -1.217878632851e+01 
-1.114132206930e+02 2.832964186037e+01 0.0 
2.832964186037e+01 -2.727352578591e+02 0.0 
0.0 0.0 -1.148445435656e+02 
-6.627742113543e+01 2.243383448016e+00 0.0 
2.243383448016e+00 -1.263454764598e+02 0.0 
0.0 0.0 -5.738686927855e+01 
-8.756991255646e+01 7.078867299845e+00 0.0 
7.078867299845e+00 -1.976823381864e+02 0.0 
0.0 0.0 -8.517567522287e+01 
-1.488825192364e+02 2.557305628351e+01 0.0 
2.557305628351e+01 -3.487258782182e+02 0.0 
0.0 0.0 -1.488825192364e+02 
-5.532640521365e+01 1.537786513233e+00 0.0 
1.537786513233e+00 -9.916321687784e+01 0.0 
0.0 0.0 -4.594688662745e+01 
-1.118288613344e+02 3.071685922394e+01 0.0 
3.071685922394e+01 -2.588856467887e+02 0.0 
0.0 0.0 -1.108143524369e+02 
-9.764849072885e+01 2.140833727967e+01 0.0 
2.140833727967e+01 -2.030717745521e+02 0.0 
0.0 0.0 -8.981607958428e+01 
-5.924652643410e+01 8.718654012343e-01 0.0 
8.718654012343e-01 -1.106335844499e+02 0.0 
0.0 0.0 -5.056403326519e+01 
-1.090972990556e+02 2.972542749736e+01 0.0 
2.972542749736e+01 -2.495229182931e+02 0.0 
0.0 0.0 -1.071860652046e+02 
-5.829936142190e+01 -1.276284158139e-01 0.0 
-1.276284158139e-01 -1.604610302956e+02 0.0 
0.0 0.0 -6.522811751525e+01 
-2.644248896038e+01 7.274974993438e-02 0.0 
7.274974993438e-02 -2.694259140207e+01 0.0 
0.0 0.0 -1.561552410873e+01 
-1.214842016203e+02 2.727252418713e+01 0.0 
2.727252418713e+01 -3.000374368481e+02 0.0 
0.0 0.0 -1.260564915405e+02 
-8.772431897778e+01 3.785246460813e-01 0.0 
3.785246460813e-01 -1.981860072401e+02 0.0 
0.0 0.0 -8.537309786538e+01 
-2.815301149457e+00 7.690619802653e-02 0.0 
7.690619802653e-02 -8.546172350806e+00 0.0 
0.0 0.0 -3.933690873246e+00 
-2.629947394028e+01 -2.297817237852e-01 0.0 
-2.297817237852e-01 -2.718525288917e+01 0.0 
0.0 0.0 -1.564541804883e+01 
-1.553869781383e+02 1.176011885058e+00 0.0 
1.176011885058e+00 -3.700442831842e+02 0.0 
0.0 0.0 -1.572293783968e+02 
-2.669961303709e+01 -2.077753846065e+00 0.0 
-2.077753846065e+00 -7.350706142335e+01 0.0 
0.0 0.0 -2.966200233813e+01 
-1.292432769931e+02 1.908172958434e+01 0.0 
1.908172958434e+01 -3.272409534652e+02 0.0 
0.0 0.0 -1.365452691375e+02 
-1.010594437875e+02 2.482196110177e+01 0.0 
2.482196110177e+01 -2.101346684568e+02 0.0 
0.0 0.0 -9.295823367329e+01 
-9.023118115252e+01 6.911244470773e+00 0.0 
6.911244470773e+00 -1.974921127100e+02 0.0 
0.0 0.0 -8.591698815877e+01 
-2.568236082830e+01 -1.516637155696e+00 0.0 
-1.516637155696e+00 -7.068659806557e+01 0.0 
0.0 0.0 -2.851068766816e+01 
-2.369779707286e+01 7.102340530087e+00 0.0 
7.102340530087e+00 -4.019212805943e+01 0.0 
0.0 0.0 -1.876697753969e+01 
-8.502145777471e+01 -1.317315069093e+00 0.0 
-1.317315069093e+00 -2.284942836851e+02 0.0 
0.0 0.0 -9.365472243795e+01 
-7.214604419567e+01 9.020860700156e-01 0.0 
9.020860700156e-01 -1.477935918134e+02 0.0 
0.0 0.0 -6.558189080272e+01 
-2.259631093717e+01 -6.255996147272e-01 0.0 
-6.255996147272e-01 -5.667137684241e+00 0.0 
0.0 0.0 -8.079034586423e+00 
-9.383687765281e+01 1.768523357974e+01 0.0 
1.768523357974e+01 -2.092290789061e+02 0.0 
0.0 0.0 -9.051978696767e+01 
-5.259193549317e+01 3.978679095490e-01 0.0 
3.978679095490e-01 -9.293148258252e+01 0.0 
0.0 0.0 -4.325702542271e+01 
-2.751534733494e+01 -2.842262567466e+00 0.0 
-2.842262567466e+00 -6.923334099460e+01 0.0 
0.0 0.0 -2.862460649886e+01 
-4.764735863503e+01 3.895419170022e-01 0.0 
3.895419170022e-01 -7.900504016185e+01 0.0 
0.0 0.0 -3.759571963906e+01 
-1.273322224593e+02 3.088573416464e+01 0.0 
3.088573416464e+01 -3.073380976948e+02 0.0 
0.0 0.0 -1.300010960462e+02 
-8.992676841624e+01 1.209663320972e+00 0.0 
1.209663320972e+00 -2.391606425589e+02 0.0 
0.0 0.0 -9.832622329255e+01 
-1.803274128961e+01 8.573069222745e+00 0.0 
8.573069222745e+00 -1.165725623605e+01 0.0 
0.0 0.0 -8.480996582329e+00 
-5.160291785124e+01 -1.350319792396e+00 0.0 
-1.350319792396e+00 -1.456177814131e+02 0.0 
0.0 0.0 -5.876620977931e+01 
-7.730813060123e+01 -4.090794087216e-01 0.0 
-4.090794087216e-01 -2.101197884540e+02 0.0 
0.0 0.0 -8.582837571656e+01 
-9.418816857091e+01 -1.329710613146e+00 0.0 
-1.329710613146e+00 -2.481698386450e+02 0.0 
0.0 0.0 -1.023074021648e+02 
-1.265171630624e+02 2.606229286993e+01 0.0 
2.606229286993e+01 -3.106626209745e+02 0.0 
0.0 0.0 -1.307539352111e+02 
-7.521282442640e+01 5.913343628283e-01 0.0 
5.913343628283e-01 -2.048615413245e+02 0.0 
0.0 0.0 -8.362230972527e+01 
-8.067999401390e+01 -2.759265232786e-01 0.0 
-2.759265232786e-01 -2.173772040185e+02 0.0 
0.0 0.0 -8.901715940971e+01 
-1.499374850556e+01 -1.867076419337e+00 0.0 
-1.867076419337e+00 -3.728482110128e+01 0.0 
0.0 0.0 -1.528357088205e+01 
-1.446946633960e+02 6.609320059628e+00 0.0 
6.609320059628e+00 -3.526756388598e+02 0.0 
0.0 0.0 -1.488110906767e+02 
-1.072840118956e+02 2.836979013652e+01 0.0 
2.836979013652e+01 -2.593718773022e+02 0.0 
0.0 0.0 -1.095967667594e+02 
-2.364475582614e+01 7.253837328876e+00 0.0 
7.253837328876e+00 -5.159453640679e+01 0.0 
0.0 0.0 -2.217178766988e+01 
-8.709626206059e+01 1.330098894105e+00 0.0 
1.330098894105e+00 -1.973266509714e+02 0.0 
0.0 0.0 -8.492687390960e+01 
-1.555136966150e+02 2.171552585517e-01 0.0 
2.171552585517e-01 -3.696853872010e+02 0.0 
0.0 0.0 -1.571597251448e+02 
-3.293841800146e+01 5.930262167124e-01 0.0 
5.930262167124e-01 -4.251222204827e+01 0.0 
0.0 0.0 -2.223519201492e+01 
-5.317880265782e+01 3.499555647283e-01 0.0 
3.499555647283e-01 -9.316029163041e+01 0.0 
0.0 0.0 -4.350172828647e+01 
-7.539075034305e+01 -7.050837727772e-01 0.0 
-7.050837727772e-01 -2.047304825629e+02 0.0 
0.0 0.0 -8.363636987179e+01 
-7.827438763611e+01 3.686656022142e-01 0.0 
3.686656022142e-01 -2.110415938359e+02 0.0 
0.0 0.0 -8.639479444162e+01 
-8.059098787502e+01 1.835460596544e-01 0.0 
1.835460596544e-01 -2.178217454277e+02 0.0 
0.0 0.0 -8.912381999081e+01 
-1.230504228736e+02 1.779846063843e+01 0.0 
1.779846063843e+01 -3.147306981030e+02 0.0 
0.0 0.0 -1.309343362930e+02 
-2.245677544475e+01 -3.316275200072e+00 0.0 
-3.316275200072e+00 -5.634399865407e+01 0.0 
0.0 0.0 -2.324023222965e+01 
-1.125959985636e+02 3.155850048664e+01 0.0 
3.155850048664e+01 -2.659424780535e+02 0.0 
0.0 0.0 -1.131615429852e+02 
-3.955038845279e+01 -8.456441918880e-02 0.0 
-8.456441918880e-02 -5.920946774942e+01 0.0 
0.0 0.0 -2.922795686066e+01 
-9.785374605688e+01 1.746877292593e+01 0.0 
1.746877292593e+01 -2.083182895757e+02 0.0 
0.0 0.0 -9.145161068976e+01 
-1.252123162190e+02 1.836926761576e+01 0.0 
1.836926761576e+01 -3.155487137932e+02 0.0 
0.0 0.0 -1.318283090037e+02 
-4.924274218933e+01 9.925349762657e-01 0.0 
9.925349762657e-01 -8.003375114837e+01 0.0 
0.0 0.0 -3.838294800131e+01 
-1.034237031801e+02 2.846531840392e+01 0.0 
2.846531840392e+01 -2.360687918298e+02 0.0 
0.0 0.0 -1.014477485030e+02 
-1.244226718733e+02 2.475187847113e+01 0.0 
2.475187847113e+01 -3.091460529812e+02 0.0 
0.0 0.0 -1.296706174563e+02 
-1.306521679126e+02 2.819869152701e+01 0.0 
2.819869152701e+01 -3.199347246681e+02 0.0 
0.0 0.0 -1.347760677742e+02 
-1.898668406098e+01 7.900844929064e+00 0.0 
7.900844929064e+00 -1.803278020987e+01 0.0 
0.0 0.0 -1.091987214232e+01 
-1.053231917963e+02 2.995923399639e+01 0.0 
2.995923399639e+01 -2.371151385631e+02 0.0 
0.0 0.0 -1.023314991078e+02 
-1.088692518478e+02 3.026139687802e+01 0.0 
3.026139687802e+01 -2.520066564986e+02 0.0 
0.0 0.0 -1.078627725039e+02 
-1.580002056976e+01 -9.914605404727e-01 0.0 
-9.914605404727e-01 -3.828569280474e+01 0.0 
0.0 0.0 -1.582571401235e+01 
-7.140835398177e+01 2.247801209185e-01 0.0 
2.247801209185e-01 -1.948565376691e+02 0.0 
0.0 0.0 -7.947946749527e+01 
-1.920521447900e+01 6.059586942452e+00 0.0 
6.059586942452e+00 -1.662297469245e+01 0.0 
0.0 0.0 -1.034845675143e+01 
-1.090342104290e+02 3.138354984090e+01 0.0 
3.138354984090e+01 -2.451562006480e+02 0.0 
0.0 0.0 -1.058571233231e+02 
-1.842514491826e+01 6.655381865797e-01 0.0 
6.655381865797e-01 -8.322605243028e+00 0.0 
0.0 0.0 -7.624325048388e+00 
-1.940245937608e+01 1.555567325640e-01 0.0 
1.555567325640e-01 -9.812870770040e+00 0.0 
0.0 0.0 -8.364599043837e+00 
-1.878474526727e+01 2.023207991076e-01 0.0 
2.023207991076e-01 -9.557754754693e+00 0.0 
0.0 0.0 -8.102750006589e+00 
-1.907942027303e+01 8.202049780844e-02 0.0 
8.202049780844e-02 -9.860228263568e+00 0.0 
0.0 0.0 -8.281894560979e+00 
-1.887194429411e+01 -7.619053691287e-03 0.0 
-7.619053691287e-03 -9.749959150966e+00 0.0 
0.0 0.0 -8.186571033523e+00 
-1.915193964480e+01 -1.088721171546e-01 0.0 
-1.088721171546e-01 -9.985978376021e+00 0.0 
0.0 0.0 -8.341375406247e+00 
-1.879080521321e+01 3.330277217698e-02 0.0 
3.330277217698e-02 -9.883386201265e+00 0.0 
0.0 0.0 -8.202257424343e+00 
-1.931202714663e+01 -5.562871721007e-02 0.0 
-5.562871721007e-02 -9.971892775741e+00 0.0 
0.0 0.0 -8.385175976712e+00 
-1.867365061903e+01 -7.946753233740e-02 0.0 
-7.946753233740e-02 -9.699568230797e+00 0.0 
0.0 0.0 -8.111965654949e+00 
-1.931317990181e+01 -2.563369099470e-01 0.0 
-2.563369099470e-01 -1.006119607020e+01 0.0 
0.0 0.0 -8.412312791604e+00 
-1.835038418005e+01 -6.956541944580e-02 0.0 
-6.956541944580e-02 -9.768820899740e+00 0.0 
0.0 0.0 -8.035761523937e+00 
-1.942097313142e+01 -2.732111970304e-01 0.0 
-2.732111970304e-01 -1.010557340437e+01 0.0 
0.0 0.0 -8.457963960737e+00 
-2.506409226908e+01 4.353543995838e+00 0.0 
4.353543995838e+00 -1.335160209477e+01 0.0 
0.0 0.0 -1.112470830915e+01 
-1.799060487653e+01 -9.715088859246e-02 0.0 
-9.715088859246e-02 -9.648448957598e+00 0.0 
0.0 0.0 -7.891716150238e+00 
-2.773147362276e+01 2.080418532077e+00 0.0 
2.080418532077e+00 -1.090633759099e+01 0.0 
0.0 0.0 -1.119134336413e+01 
-1.977301707229e+01 -4.231069687004e-01 0.0 
-4.231069687004e-01 -1.022726401020e+01 0.0 
0.0 0.0 -8.600084324747e+00 
-1.752181785919e+01 -3.492261736706e-02 0.0 
-3.492261736706e-02 -9.633985686777e+00 0.0 
0.0 0.0 -7.746741063789e+00 
-1.960177537884e+01 -3.559740857274e-01 0.0 
-3.559740857274e-01 -1.020843533926e+01 0.0 
0.0 0.0 -8.543063215432e+00 
-1.707585947318e+01 -1.158368862737e-01 0.0 
-1.158368862737e-01 -9.462092826293e+00 0.0 
0.0 0.0 -7.561385689842e+00 
-1.993883526533e+01 -5.563560264192e-01 0.0 
-5.563560264192e-01 -1.033804411759e+01 0.0 
0.0 0.0 -8.683063814878e+00 
-1.644600776502e+01 -6.331831315271e-02 0.0 
-6.331831315271e-02 -9.527534611107e+00 0.0 
0.0 0.0 -7.392062712837e+00 
-2.048733140083e+01 -5.059662574629e-01 0.0 
-5.059662574629e-01 -1.044579791485e+01 0.0 
0.0 0.0 -8.879938794703e+00 
-1.772290212921e+01 1.142642773529e+00 0.0 
1.142642773529e+00 -6.159325718743e+00 0.0 
0.0 0.0 -6.764668354384e+00 
-1.598676835488e+01 1.009952699686e-01 0.0 
1.009952699686e-01 -9.507008482498e+00 0.0 
0.0 0.0 -7.248133051212e+00 
-2.126637914225e+01 -3.199309476958e-01 0.0 
-3.199309476958e-01 -1.051897009015e+01 0.0 
0.0 0.0 -9.135604769722e+00 
-1.587889886500e+01 2.904353140926e-01 0.0 
2.904353140926e-01 -9.438994530075e+00 0.0 
0.0 0.0 -7.195368018523e+00 
-2.259937958869e+01 -9.483719333925e-02 0.0 
-9.483719333925e-02 -1.063004114810e+01 0.0 
0.0 0.0 -9.568826221037e+00 
-2.457729750670e+01 5.393877605861e-01 0.0 
5.393877605861e-01 -1.074464081549e+01 0.0 
0.0 0.0 -1.019658149666e+01 
-1.629239266208e+01 6.899014952264e-01 0.0 
6.899014952264e-01 -9.644625838287e+00 0.0 
0.0 0.0 -7.381105550109e+00 
-1.803061293574e+01 1.673241368744e+00 0.0 
1.673241368744e+00 -1.035450695151e+01 0.0 
0.0 0.0 -8.115535966175e+00 
-3.519246713232e+01 7.642207986925e+00 0.0 
7.642207986925e+00 -1.348391927342e+01 0.0 
0.0 0.0 -1.420291592172e+01 
-2.695346675465e+01 2.422429227383e+00 0.0 
2.422429227383e+00 7.900738604916e-01 0.0 
0.0 0.0 -7.394641441683e+00 
-1.923804913189e+01 1.263092453884e+00 0.0 
1.263092453884e+00 -9.936627823058e+00 0.0 
0.0 0.0 -8.352403086484e+00 
-1.945879048870e+01 -1.459234374064e+00 0.0 
-1.459234374064e+00 -8.586247470610e+00 0.0 
0.0 0.0 -8.013511387793e+00 
-2.095750564612e+01 -3.843659084920e-02 0.0 
-3.843659084920e-02 -1.450905682777e+01 0.0 
0.0 0.0 -1.023996874217e+01 
-1.785713390653e+01 -2.228126014089e-01 0.0 
-2.228126014089e-01 -4.215175661272e+00 0.0 
0.0 0.0 -6.221692870342e+00 
-3.675185370218e+01 8.859034458147e+00 0.0 
8.859034458147e+00 -1.036145777424e+01 0.0 
0.0 0.0 -1.373399344293e+01 

TENSORS element_materi_strain_total float
-1.298867817793e-04 2.795612735227e-04 0.0 
2.795612735227e-04 1.011882199349e-03 0.0 
0.0 0.0 0.0 
-1.044306048310e-04 2.153181355370e-04 0.0 
2.153181355370e-04 9.653897491029e-04 0.0 
0.0 0.0 0.0 
-3.443486376020e-05 3.651035014158e-04 0.0 
3.651035014158e-04 2.132098809820e-03 0.0 
0.0 0.0 0.0 
-4.979979679265e-05 3.192355224807e-05 0.0 
3.192355224807e-05 2.461885303191e-03 0.0 
0.0 0.0 0.0 
-1.589036790439e-04 1.336394187684e-05 0.0 
1.336394187684e-05 2.097029580609e-03 0.0 
0.0 0.0 0.0 
-5.366759826841e-05 7.620661462260e-05 0.0 
7.620661462260e-05 2.005664210898e-04 0.0 
0.0 0.0 0.0 
-1.485599659590e-04 1.125017574141e-05 0.0 
1.125017574141e-05 2.094910455993e-03 0.0 
0.0 0.0 0.0 
-1.128897078018e-04 2.539657015820e-04 0.0 
2.539657015820e-04 9.146139092919e-04 0.0 
0.0 0.0 0.0 
-1.579601408987e-04 1.747265909432e-06 0.0 
1.747265909432e-06 2.095950996766e-03 0.0 
0.0 0.0 0.0 
-4.859271915336e-05 6.294308985072e-05 0.0 
6.294308985072e-05 2.457322807387e-03 0.0 
0.0 0.0 0.0 
1.079568174680e-04 7.424176483112e-06 0.0 
7.424176483112e-06 7.283461850232e-04 0.0 
0.0 0.0 0.0 
-1.123929824388e-04 2.265466000810e-04 0.0 
2.265466000810e-04 8.447605978017e-04 0.0 
0.0 0.0 0.0 
3.791244432816e-05 2.543458859457e-05 0.0 
2.543458859457e-05 1.151162301336e-03 0.0 
0.0 0.0 0.0 
-2.003564434010e-04 6.184355363390e-05 0.0 
6.184355363390e-05 2.149075511736e-03 0.0 
0.0 0.0 0.0 
2.192916769816e-05 2.353406470509e-05 0.0 
2.353406470509e-05 1.187713460568e-03 0.0 
0.0 0.0 0.0 
-2.997526162296e-05 5.168723675487e-05 0.0 
5.168723675487e-05 2.477422522978e-03 0.0 
0.0 0.0 0.0 
-1.705117057582e-04 1.628587091886e-05 0.0 
1.628587091886e-05 2.082397892902e-03 0.0 
0.0 0.0 0.0 
-4.102587187915e-05 1.959368498735e-05 0.0 
1.959368498735e-05 1.863307758243e-04 0.0 
0.0 0.0 0.0 
3.918195364871e-05 -1.122852985679e-05 0.0 
-1.122852985679e-05 2.014693990842e-04 0.0 
0.0 0.0 0.0 
5.130460073621e-05 -1.996781901212e-06 0.0 
-1.996781901212e-06 2.078781156871e-04 0.0 
0.0 0.0 0.0 
-6.037392247471e-05 5.792767549959e-05 0.0 
5.792767549959e-05 2.458250218442e-03 0.0 
0.0 0.0 0.0 
-1.177931356280e-04 2.546545612958e-04 0.0 
2.546545612958e-04 1.148144658641e-03 0.0 
0.0 0.0 0.0 
-1.305899349990e-04 2.629442478496e-04 0.0 
2.629442478496e-04 1.246760589639e-03 0.0 
0.0 0.0 0.0 
7.629118992947e-05 1.946419159920e-04 0.0 
1.946419159920e-04 1.197917941696e-03 0.0 
0.0 0.0 0.0 
-2.145143179771e-04 1.319470081688e-04 0.0 
1.319470081688e-04 2.167286801100e-03 0.0 
0.0 0.0 0.0 
1.052035993219e-04 3.773815564493e-06 0.0 
3.773815564493e-06 7.748423925336e-04 0.0 
0.0 0.0 0.0 
-2.147662842924e-04 8.723154386361e-05 0.0 
8.723154386361e-05 2.017817551183e-03 0.0 
0.0 0.0 0.0 
3.620854475006e-05 4.066976528250e-04 0.0 
4.066976528250e-04 1.661452776923e-03 0.0 
0.0 0.0 0.0 
-2.430782069907e-04 1.531963862569e-04 0.0 
1.531963862569e-04 2.165512293315e-03 0.0 
0.0 0.0 0.0 
7.294437001848e-05 1.977961020765e-04 0.0 
1.977961020765e-04 1.220071216444e-03 0.0 
0.0 0.0 0.0 
-1.532511678415e-05 -2.365223458634e-05 0.0 
-2.365223458634e-05 1.857282415256e-04 0.0 
0.0 0.0 0.0 
-3.122715740167e-05 -2.071397234805e-05 0.0 
-2.071397234805e-05 7.307579332316e-05 0.0 
0.0 0.0 0.0 
-6.043221250318e-05 3.833767300155e-04 0.0 
3.833767300155e-04 2.157618312669e-03 0.0 
0.0 0.0 0.0 
7.897561309456e-05 1.805946429763e-06 0.0 
1.805946429763e-06 9.535701483365e-04 0.0 
0.0 0.0 0.0 
4.903268098078e-05 1.129751254694e-04 0.0 
1.129751254694e-04 1.180767104327e-03 0.0 
0.0 0.0 0.0 
2.330030083475e-05 8.869923172766e-05 0.0 
8.869923172766e-05 1.235396089557e-03 0.0 
0.0 0.0 0.0 
1.740845880405e-05 6.310336078590e-05 0.0 
6.310336078590e-05 1.233823247116e-03 0.0 
0.0 0.0 0.0 
6.648244508156e-05 2.994488057437e-04 0.0 
2.994488057437e-04 1.377170064714e-03 0.0 
0.0 0.0 0.0 
-1.453593722766e-04 -6.700188942566e-06 0.0 
-6.700188942566e-06 2.029514072454e-03 0.0 
0.0 0.0 0.0 
-1.417735003653e-04 8.406509211199e-06 0.0 
8.406509211199e-06 2.031965407097e-03 0.0 
0.0 0.0 0.0 
-1.493837722686e-04 2.752850337425e-04 0.0 
2.752850337425e-04 1.467485477887e-03 0.0 
0.0 0.0 0.0 
3.386427721441e-05 1.478927488697e-04 0.0 
1.478927488697e-04 1.221413435981e-03 0.0 
0.0 0.0 0.0 
-1.101912005437e-04 2.409809983136e-04 0.0 
2.409809983136e-04 6.736593965024e-04 0.0 
0.0 0.0 0.0 
-2.462664169088e-04 9.155724358408e-05 0.0 
9.155724358408e-05 2.039695579890e-03 0.0 
0.0 0.0 0.0 
-6.492353458798e-05 1.023771148908e-05 0.0 
1.023771148908e-05 2.436830055538e-03 0.0 
0.0 0.0 0.0 
-1.024609613609e-04 1.990365816409e-04 0.0 
1.990365816409e-04 6.698226003385e-04 0.0 
0.0 0.0 0.0 
-1.610154494636e-05 -3.136188902550e-05 0.0 
-3.136188902550e-05 1.281466596625e-04 0.0 
0.0 0.0 0.0 
-4.451590379451e-05 2.081362232971e-05 0.0 
2.081362232971e-05 2.439876003029e-03 0.0 
0.0 0.0 0.0 
-5.447929937097e-05 -2.437152595354e-05 0.0 
-2.437152595354e-05 8.692522143150e-05 0.0 
0.0 0.0 0.0 
-2.098239798284e-04 4.726889515954e-05 0.0 
4.726889515954e-05 2.126645966822e-03 0.0 
0.0 0.0 0.0 
-1.380014375417e-04 2.728375209049e-04 0.0 
2.728375209049e-04 1.351844265455e-03 0.0 
0.0 0.0 0.0 
5.267687830512e-05 -1.051775421197e-05 0.0 
-1.051775421197e-05 2.562780616502e-04 0.0 
0.0 0.0 0.0 
4.299708017097e-05 -3.328245373314e-05 0.0 
-3.328245373314e-05 2.480096900186e-04 0.0 
0.0 0.0 0.0 
-1.263262988555e-04 2.623712508672e-04 0.0 
2.623712508672e-04 1.357741181057e-03 0.0 
0.0 0.0 0.0 
-5.005598693142e-05 2.974003454951e-04 0.0 
2.974003454951e-04 2.302986690185e-03 0.0 
0.0 0.0 0.0 
7.305527057477e-05 -1.478276002717e-05 0.0 
-1.478276002717e-05 3.434597752681e-04 0.0 
0.0 0.0 0.0 
6.287266288774e-05 -1.107680889126e-06 0.0 
-1.107680889126e-06 2.646973540796e-04 0.0 
0.0 0.0 0.0 
8.163783416548e-05 1.255531837216e-05 0.0 
1.255531837216e-05 9.538655525507e-04 0.0 
0.0 0.0 0.0 
2.611517125395e-05 -1.545670411734e-05 0.0 
-1.545670411734e-05 1.520510093165e-04 0.0 
0.0 0.0 0.0 
-3.582275103087e-05 4.654786337564e-05 0.0 
4.654786337564e-05 2.477495987222e-03 0.0 
0.0 0.0 0.0 
-1.183527786712e-04 -2.284930973637e-05 0.0 
-2.284930973637e-05 1.047105294236e-04 0.0 
0.0 0.0 0.0 
7.875445077588e-05 3.443315118069e-04 0.0 
3.443315118069e-04 1.456224340589e-03 0.0 
0.0 0.0 0.0 
2.033490144937e-05 2.586863353011e-04 0.0 
2.586863353011e-04 9.301882822343e-04 0.0 
0.0 0.0 0.0 
3.232345676252e-05 -1.311349626802e-05 0.0 
-1.311349626802e-05 2.100943995433e-04 0.0 
0.0 0.0 0.0 
3.729261067797e-05 3.358142965004e-05 0.0 
3.358142965004e-05 1.152708263234e-03 0.0 
0.0 0.0 0.0 
-1.238901636286e-04 2.567899728444e-04 0.0 
2.567899728444e-04 1.250843820380e-03 0.0 
0.0 0.0 0.0 
-7.859063295745e-05 -1.163591300802e-05 0.0 
-1.163591300802e-05 8.471633877982e-05 0.0 
0.0 0.0 0.0 
-5.714026444303e-05 3.954695366163e-04 0.0 
3.954695366163e-04 2.108127883803e-03 0.0 
0.0 0.0 0.0 
1.513223934313e-05 -5.060695646917e-05 0.0 
-5.060695646917e-05 1.761676306657e-04 0.0 
0.0 0.0 0.0 
-1.254719709243e-06 4.025596614674e-04 0.0 
4.025596614674e-04 1.880659460386e-03 0.0 
0.0 0.0 0.0 
1.027780951923e-04 9.165040006519e-06 0.0 
9.165040006519e-06 8.124012296569e-04 0.0 
0.0 0.0 0.0 
0.0 1.969818084391e-04 0.0 
1.969818084391e-04 2.449441258698e-03 0.0 
0.0 0.0 0.0 
3.062117485353e-05 3.650929218871e-04 0.0 
3.650929218871e-04 1.608359372321e-03 0.0 
0.0 0.0 0.0 
1.888760186652e-05 4.041668162848e-06 0.0 
4.041668162848e-06 6.684848602823e-05 0.0 
0.0 0.0 0.0 
8.095807841535e-05 -3.761299124937e-06 0.0 
-3.761299124937e-06 3.587419555979e-04 0.0 
0.0 0.0 0.0 
-7.436530986848e-05 1.393675875373e-04 0.0 
1.393675875373e-04 2.445733156258e-03 0.0 
0.0 0.0 0.0 
-8.277586695438e-05 3.266503440054e-04 0.0 
3.266503440054e-04 2.278316389196e-03 0.0 
0.0 0.0 0.0 
-9.174953477664e-05 1.650693880703e-04 0.0 
1.650693880703e-04 4.718329985831e-04 0.0 
0.0 0.0 0.0 
3.698633336446e-05 -1.920756480485e-05 0.0 
-1.920756480485e-05 1.517602352668e-04 0.0 
0.0 0.0 0.0 
-1.070411975703e-04 2.181098422595e-04 0.0 
2.181098422595e-04 4.740876029559e-04 0.0 
0.0 0.0 0.0 
1.871902153994e-05 -3.095339757909e-05 0.0 
-3.095339757909e-05 1.731197255053e-04 0.0 
0.0 0.0 0.0 
-1.760734044768e-04 1.349187185453e-05 0.0 
1.349187185453e-05 2.087078644936e-03 0.0 
0.0 0.0 0.0 
-1.299025517055e-04 2.619954469330e-04 0.0 
2.619954469330e-04 1.143875356743e-03 0.0 
0.0 0.0 0.0 
-1.195601112722e-04 2.394055413430e-04 0.0 
2.394055413430e-04 1.054625438614e-03 0.0 
0.0 0.0 0.0 
-1.703066329375e-04 1.092106986235e-05 0.0 
1.092106986235e-05 2.131557206823e-03 0.0 
0.0 0.0 0.0 
-1.552646372158e-04 1.624077164324e-05 0.0 
1.624077164324e-05 2.131502716715e-03 0.0 
0.0 0.0 0.0 
9.660255873700e-05 5.038866077615e-06 0.0 
5.038866077615e-06 8.427771814927e-04 0.0 
0.0 0.0 0.0 
8.664062009744e-05 5.695076388910e-06 0.0 
5.695076388910e-06 9.219845457806e-04 0.0 
0.0 0.0 0.0 
-1.022394722450e-04 3.413698025397e-04 0.0 
3.413698025397e-04 1.961219709687e-03 0.0 
0.0 0.0 0.0 
-1.731241895394e-04 7.400426623594e-06 0.0 
7.400426623594e-06 2.095878698691e-03 0.0 
0.0 0.0 0.0 
-1.874511093836e-05 -2.064522991368e-05 0.0 
-2.064522991368e-05 6.932671373172e-05 0.0 
0.0 0.0 0.0 
-2.459163695111e-04 1.162114048178e-04 0.0 
1.162114048178e-04 2.084076751564e-03 0.0 
0.0 0.0 0.0 
-1.009781831584e-04 1.057695773273e-05 0.0 
1.057695773273e-05 2.319955589985e-03 0.0 
0.0 0.0 0.0 
-1.113143522498e-04 1.998051191206e-05 0.0 
1.998051191206e-05 2.311780070863e-03 0.0 
0.0 0.0 0.0 
-4.973944235742e-05 2.193458900327e-04 0.0 
2.193458900327e-04 2.440176790918e-03 0.0 
0.0 0.0 0.0 
2.677782339311e-05 3.170766230293e-04 0.0 
3.170766230293e-04 1.456099434297e-03 0.0 
0.0 0.0 0.0 
-1.922729064915e-04 1.944036157891e-05 0.0 
1.944036157891e-05 2.089771947345e-03 0.0 
0.0 0.0 0.0 
5.495323520810e-05 1.444362439859e-04 0.0 
1.444362439859e-04 1.217458924535e-03 0.0 
0.0 0.0 0.0 
-1.280365493107e-04 -1.251807276206e-06 0.0 
-1.251807276206e-06 2.180218110655e-03 0.0 
0.0 0.0 0.0 
-2.875602200825e-05 2.474118715139e-04 0.0 
2.474118715139e-04 9.880740008306e-04 0.0 
0.0 0.0 0.0 
-1.580640640200e-04 3.236422011242e-06 0.0 
3.236422011242e-06 2.063651978737e-03 0.0 
0.0 0.0 0.0 
2.454141219488e-05 3.550945229510e-05 0.0 
3.550945229510e-05 1.186962182840e-03 0.0 
0.0 0.0 0.0 
1.109487971489e-04 2.643424090321e-04 0.0 
2.643424090321e-04 1.224578095218e-03 0.0 
0.0 0.0 0.0 
5.739089985202e-05 3.305174456556e-04 0.0 
3.305174456556e-04 1.458556497548e-03 0.0 
0.0 0.0 0.0 
2.681513431568e-05 1.885678697720e-04 0.0 
1.885678697720e-04 7.361293031780e-04 0.0 
0.0 0.0 0.0 
-5.462906333686e-05 -2.866577675197e-05 0.0 
-2.866577675197e-05 1.439606328446e-04 0.0 
0.0 0.0 0.0 
5.566220910147e-05 1.135559018597e-05 0.0 
1.135559018597e-05 1.069390420775e-03 0.0 
0.0 0.0 0.0 
-9.770972307943e-05 2.370035616767e-05 0.0 
2.370035616767e-05 2.361078237360e-03 0.0 
0.0 0.0 0.0 
-1.030943135887e-04 -2.508444235961e-05 0.0 
-2.508444235961e-05 1.048357127635e-04 0.0 
0.0 0.0 0.0 
2.445309443533e-05 5.793774974043e-05 0.0 
5.793774974043e-05 1.181789290163e-03 0.0 
0.0 0.0 0.0 
-7.957864509234e-05 3.369743130783e-04 0.0 
3.369743130783e-04 1.873524529876e-03 0.0 
0.0 0.0 0.0 
1.442241610405e-05 -8.177780858750e-06 0.0 
-8.177780858750e-06 4.062926113568e-05 0.0 
0.0 0.0 0.0 
1.127985590195e-04 2.173657629803e-04 0.0 
2.173657629803e-04 8.180120449088e-04 0.0 
0.0 0.0 0.0 
-2.397330486476e-04 2.434309488781e-04 0.0 
2.434309488781e-04 1.907304528408e-03 0.0 
0.0 0.0 0.0 
9.870147764124e-05 -1.157396024913e-05 0.0 
-1.157396024913e-05 4.403512056064e-04 0.0 
0.0 0.0 0.0 
-1.277939594235e-05 2.473422908256e-04 0.0 
2.473422908256e-04 8.757073591683e-04 0.0 
0.0 0.0 0.0 
9.452669882837e-06 2.298577610241e-04 0.0 
2.298577610241e-04 9.323636967038e-04 0.0 
0.0 0.0 0.0 
3.358214113613e-05 1.116438290517e-04 0.0 
1.116438290517e-04 1.204537111936e-03 0.0 
0.0 0.0 0.0 
-1.310635068932e-04 7.910600439155e-06 0.0 
7.910600439155e-06 2.161253481218e-03 0.0 
0.0 0.0 0.0 
2.994341659490e-05 2.437360045850e-04 0.0 
2.437360045850e-04 8.289207852616e-04 0.0 
0.0 0.0 0.0 
1.471113331197e-05 -4.617387246915e-05 0.0 
-4.617387246915e-05 1.657770140961e-04 0.0 
0.0 0.0 0.0 
-2.394611561214e-04 1.444792005283e-04 0.0 
1.444792005283e-04 2.033381154770e-03 0.0 
0.0 0.0 0.0 
-8.214700807430e-05 1.551031878214e-05 0.0 
1.551031878214e-05 2.363847660143e-03 0.0 
0.0 0.0 0.0 
1.888902356550e-05 2.073976279917e-04 0.0 
2.073976279917e-04 8.306728355061e-04 0.0 
0.0 0.0 0.0 
-8.712262564103e-05 1.151363517593e-04 0.0 
1.151363517593e-04 2.871352383254e-04 0.0 
0.0 0.0 0.0 
-1.909288734462e-04 2.821289045006e-04 0.0 
2.821289045006e-04 1.695631261695e-03 0.0 
0.0 0.0 0.0 
8.949274744885e-05 -6.757028514278e-06 0.0 
-6.757028514278e-06 4.382850770845e-04 0.0 
0.0 0.0 0.0 
-1.597721744694e-04 2.677425261969e-04 0.0 
2.677425261969e-04 1.588355155787e-03 0.0 
0.0 0.0 0.0 
-4.067561918852e-05 1.659678863986e-04 0.0 
1.659678863986e-04 2.446617376665e-03 0.0 
0.0 0.0 0.0 
-5.712508984135e-05 1.359155263641e-04 0.0 
1.359155263641e-04 2.794618108080e-04 0.0 
0.0 0.0 0.0 
1.070947639050e-04 1.250199076275e-05 0.0 
1.250199076275e-05 7.704735597049e-04 0.0 
0.0 0.0 0.0 
-4.436131259999e-05 3.747809765525e-05 0.0 
3.747809765525e-05 2.462049369816e-03 0.0 
0.0 0.0 0.0 
-2.728362368121e-05 2.998966098596e-04 0.0 
2.998966098596e-04 1.253598591943e-03 0.0 
0.0 0.0 0.0 
-1.677364729421e-04 2.819909049965e-04 0.0 
2.819909049965e-04 1.582681989966e-03 0.0 
0.0 0.0 0.0 
5.861235977878e-05 1.288378584328e-04 0.0 
1.288378584328e-04 1.181084920836e-03 0.0 
0.0 0.0 0.0 
3.550249637652e-05 1.067889768434e-05 0.0 
1.067889768434e-05 1.154000155664e-03 0.0 
0.0 0.0 0.0 
9.940443039613e-05 1.539102590164e-05 0.0 
1.539102590164e-05 8.430570055356e-04 0.0 
0.0 0.0 0.0 
-5.220816662221e-05 3.011787574328e-04 0.0 
3.011787574328e-04 1.367405066636e-03 0.0 
0.0 0.0 0.0 
6.203118187598e-05 1.984502950808e-04 0.0 
1.984502950808e-04 1.263772996924e-03 0.0 
0.0 0.0 0.0 
-6.400086426583e-05 2.982100847395e-04 0.0 
2.982100847395e-04 1.316583144973e-03 0.0 
0.0 0.0 0.0 
-3.715644220803e-05 1.057818742628e-04 0.0 
1.057818742628e-04 2.462480823575e-03 0.0 
0.0 0.0 0.0 
-3.769855488445e-06 4.294772405472e-04 0.0 
4.294772405472e-04 1.909170775233e-03 0.0 
0.0 0.0 0.0 
-2.278000141140e-04 7.215640484363e-05 0.0 
7.215640484363e-05 2.151397880919e-03 0.0 
0.0 0.0 0.0 
-1.252277822281e-04 2.586737666470e-05 0.0 
2.586737666470e-05 2.256426974370e-03 0.0 
0.0 0.0 0.0 
-6.985097865186e-05 2.888815453971e-04 0.0 
2.888815453971e-04 1.316977765562e-03 0.0 
0.0 0.0 0.0 
-1.404709959942e-04 2.691367778729e-04 0.0 
2.691367778729e-04 1.469140804417e-03 0.0 
0.0 0.0 0.0 
-1.430629479460e-05 3.093138858732e-04 0.0 
3.093138858732e-04 1.307203929138e-03 0.0 
0.0 0.0 0.0 
5.602459158238e-05 1.988135911050e-04 0.0 
1.988135911050e-04 7.955401038724e-04 0.0 
0.0 0.0 0.0 
-1.485649775420e-04 -5.032879800461e-07 0.0 
-5.032879800461e-07 2.070075876211e-03 0.0 
0.0 0.0 0.0 
1.008808624281e-04 1.877528030320e-04 0.0 
1.877528030320e-04 8.216871872044e-04 0.0 
0.0 0.0 0.0 
-8.753022537777e-06 -2.494184562770e-05 0.0 
-2.494184562770e-05 6.383049135250e-05 0.0 
0.0 0.0 0.0 
-1.376860173591e-04 1.350848184548e-06 0.0 
1.350848184548e-06 2.113991163935e-03 0.0 
0.0 0.0 0.0 
3.860689162560e-05 -5.903017816324e-06 0.0 
-5.903017816324e-06 1.527485732193e-04 0.0 
0.0 0.0 0.0 
-2.179701289872e-04 2.642403432061e-04 0.0 
2.642403432061e-04 1.799831843104e-03 0.0 
0.0 0.0 0.0 
3.498195091067e-05 1.816706234489e-04 0.0 
1.816706234489e-04 1.253486608000e-03 0.0 
0.0 0.0 0.0 
3.454708287953e-05 2.258706566691e-04 0.0 
2.258706566691e-04 7.333623725831e-04 0.0 
0.0 0.0 0.0 
9.350926052343e-05 1.176998670891e-05 0.0 
1.176998670891e-05 8.802195264335e-04 0.0 
0.0 0.0 0.0 
-1.095012617334e-04 2.089704132759e-04 0.0 
2.089704132759e-04 7.749743148804e-04 0.0 
0.0 0.0 0.0 
1.292748953208e-04 2.835682330260e-04 0.0 
2.835682330260e-04 1.222802439208e-03 0.0 
0.0 0.0 0.0 
-1.410302054329e-04 1.746651439524e-06 0.0 
1.746651439524e-06 2.073562249421e-03 0.0 
0.0 0.0 0.0 
1.200367344436e-04 1.944970140500e-04 0.0 
1.944970140500e-04 7.298179004405e-04 0.0 
0.0 0.0 0.0 
7.292716469776e-05 9.138496468070e-06 0.0 
9.138496468070e-06 9.910659344523e-04 0.0 
0.0 0.0 0.0 
1.878136523792e-05 -3.085491813702e-05 0.0 
-3.085491813702e-05 1.628462015397e-04 0.0 
0.0 0.0 0.0 
5.847758181710e-05 2.392623945674e-05 0.0 
2.392623945674e-05 1.068054167170e-03 0.0 
0.0 0.0 0.0 
-1.649991216542e-04 2.851128427270e-04 0.0 
2.851128427270e-04 1.764598947998e-03 0.0 
0.0 0.0 0.0 
4.126709707974e-05 5.565155567107e-05 0.0 
5.565155567107e-05 1.177923105842e-03 0.0 
0.0 0.0 0.0 
-1.375579525987e-04 9.655013996687e-07 0.0 
9.655013996687e-07 2.068071563887e-03 0.0 
0.0 0.0 0.0 
6.876654869714e-05 2.013194601673e-04 0.0 
2.013194601673e-04 6.941390625954e-04 0.0 
0.0 0.0 0.0 
-2.121685810620e-04 2.321146111299e-04 0.0 
2.321146111299e-04 1.812037198719e-03 0.0 
0.0 0.0 0.0 
1.062265838221e-04 -1.117923349565e-07 0.0 
-1.117923349565e-07 7.333607860309e-04 0.0 
0.0 0.0 0.0 
-1.228972074854e-04 2.622709174420e-04 0.0 
2.622709174420e-04 7.901333020708e-04 0.0 
0.0 0.0 0.0 
1.077648983110e-04 1.609507959955e-04 0.0 
1.609507959955e-04 7.344216564580e-04 0.0 
0.0 0.0 0.0 
-1.243128760534e-04 1.657084308644e-05 0.0 
1.657084308644e-05 2.284904564886e-03 0.0 
0.0 0.0 0.0 
-1.422933751137e-04 5.028720341847e-06 0.0 
5.028720341847e-06 2.070020842848e-03 0.0 
0.0 0.0 0.0 
9.331265861956e-05 2.074559323285e-04 0.0 
2.074559323285e-04 7.533234511432e-04 0.0 
0.0 0.0 0.0 
-1.994148562142e-04 2.577540505245e-04 0.0 
2.577540505245e-04 1.705544040499e-03 0.0 
0.0 0.0 0.0 
-3.133669782551e-06 3.710426536429e-04 0.0 
3.710426536429e-04 1.754718973227e-03 0.0 
0.0 0.0 0.0 
9.880076429636e-05 -7.690044077692e-06 0.0 
-7.690044077692e-06 4.924507194588e-04 0.0 
0.0 0.0 0.0 
2.655169002974e-05 3.805903008724e-04 0.0 
3.805903008724e-04 1.631676781124e-03 0.0 
0.0 0.0 0.0 
-9.294166239959e-07 4.283622697284e-04 0.0 
4.283622697284e-04 1.852664150920e-03 0.0 
0.0 0.0 0.0 
-6.399645205613e-05 2.396662254239e-04 0.0 
2.396662254239e-04 9.439411880676e-04 0.0 
0.0 0.0 0.0 
1.057451074162e-04 -3.945203746379e-06 0.0 
-3.945203746379e-06 4.944130226416e-04 0.0 
0.0 0.0 0.0 
1.005411745705e-04 2.057062484618e-04 0.0 
2.057062484618e-04 1.164317709601e-03 0.0 
0.0 0.0 0.0 
-1.094209994987e-04 2.859596776702e-04 0.0 
2.859596776702e-04 1.387665808734e-03 0.0 
0.0 0.0 0.0 
-5.580165442365e-05 2.377404869716e-04 0.0 
2.377404869716e-04 8.269017538458e-04 0.0 
0.0 0.0 0.0 
-1.996613053774e-04 2.524878655413e-04 0.0 
2.524878655413e-04 1.833090421697e-03 0.0 
0.0 0.0 0.0 
7.733509123065e-05 2.082734078885e-04 0.0 
2.082734078885e-04 8.545264861721e-04 0.0 
0.0 0.0 0.0 
-3.262250599512e-05 7.684270935340e-05 0.0 
7.684270935340e-05 2.466762443811e-03 0.0 
0.0 0.0 0.0 
-1.203014673440e-04 3.111896038601e-04 0.0 
3.111896038601e-04 2.009646725825e-03 0.0 
0.0 0.0 0.0 
6.585604948506e-05 1.495319376314e-05 0.0 
1.495319376314e-05 1.029960083736e-03 0.0 
0.0 0.0 0.0 
-9.962137400299e-05 1.842874766433e-04 0.0 
1.842874766433e-04 5.704105340536e-04 0.0 
0.0 0.0 0.0 
1.117869219773e-04 1.337093713865e-04 0.0 
1.337093713865e-04 6.535451445007e-04 0.0 
0.0 0.0 0.0 
-9.008008605438e-05 3.331655636058e-04 0.0 
3.331655636058e-04 1.963123094703e-03 0.0 
0.0 0.0 0.0 
-1.445750028685e-04 4.107672285689e-05 0.0 
4.107672285689e-05 9.326847105662e-05 0.0 
0.0 0.0 0.0 
-1.026775369528e-04 2.889110376457e-04 0.0 
2.889110376457e-04 1.387608890717e-03 0.0 
0.0 0.0 0.0 
1.217877993740e-04 1.540611254595e-04 0.0 
1.540611254595e-04 1.035443232046e-03 0.0 
0.0 0.0 0.0 
1.100533908827e-05 -1.995542267917e-05 0.0 
-1.995542267917e-05 1.076075173767e-04 0.0 
0.0 0.0 0.0 
-5.998241412497e-05 3.417625597146e-04 0.0 
3.417625597146e-04 2.218520091510e-03 0.0 
0.0 0.0 0.0 
-1.959600155446e-04 2.167301248497e-04 0.0 
2.167301248497e-04 2.130175924036e-03 0.0 
0.0 0.0 0.0 
1.358530262994e-04 -9.356239188964e-07 0.0 
-9.356239188964e-07 4.674214113387e-04 0.0 
0.0 0.0 0.0 
1.407075327327e-04 1.726781999104e-04 0.0 
1.726781999104e-04 1.034155507383e-03 0.0 
0.0 0.0 0.0 
-2.489089057672e-04 1.555977725084e-04 0.0 
1.555977725084e-04 2.086282103398e-03 0.0 
0.0 0.0 0.0 
-2.397488066377e-04 1.155607967966e-04 0.0 
1.155607967966e-04 2.165290748813e-03 0.0 
0.0 0.0 0.0 
5.802484431738e-05 1.846519256452e-04 0.0 
1.846519256452e-04 1.216891423274e-03 0.0 
0.0 0.0 0.0 
9.425388291606e-05 -2.281049153442e-05 0.0 
-2.281049153442e-05 3.422666690747e-04 0.0 
0.0 0.0 0.0 
1.866367891257e-05 3.055963868931e-04 0.0 
3.055963868931e-04 1.254406988021e-03 0.0 
0.0 0.0 0.0 
-1.292269250668e-04 3.059406617299e-04 0.0 
3.059406617299e-04 1.699781300461e-03 0.0 
0.0 0.0 0.0 
-2.116269724585e-04 2.188935339608e-04 0.0 
2.188935339608e-04 2.184614794988e-03 0.0 
0.0 0.0 0.0 
-1.903793343756e-04 2.866981055489e-04 0.0 
2.866981055489e-04 1.865668208573e-03 0.0 
0.0 0.0 0.0 
-2.016344828912e-04 2.768587932014e-04 0.0 
2.768587932014e-04 1.833228822506e-03 0.0 
0.0 0.0 0.0 
1.379993109147e-04 2.206782376101e-04 0.0 
2.206782376101e-04 1.066264076930e-03 0.0 
0.0 0.0 0.0 
-3.669175896848e-05 3.574838899078e-04 0.0 
3.574838899078e-04 1.790515452377e-03 0.0 
0.0 0.0 0.0 
-1.159787499281e-04 3.913376346943e-05 0.0 
3.913376346943e-05 1.365985287574e-04 0.0 
0.0 0.0 0.0 
-5.897110951925e-05 2.585996340309e-04 0.0 
2.585996340309e-04 9.462401145495e-04 0.0 
0.0 0.0 0.0 
-2.050187424529e-05 2.645586285382e-04 0.0 
2.645586285382e-04 9.852250807842e-04 0.0 
0.0 0.0 0.0 
-1.690341690730e-05 2.976124619545e-04 0.0 
2.976124619545e-04 1.308807420879e-03 0.0 
0.0 0.0 0.0 
-1.392846452654e-04 3.118278339144e-04 0.0 
3.118278339144e-04 2.086453692064e-03 0.0 
0.0 0.0 0.0 
1.439777182854e-05 7.011363853635e-05 0.0 
7.011363853635e-05 2.523692992908e-04 0.0 
0.0 0.0 0.0 
1.304807708380e-04 1.307506330002e-04 0.0 
1.307506330002e-04 9.747818583188e-04 0.0 
0.0 0.0 0.0 
-1.450818786892e-04 -3.136699797636e-06 0.0 
-3.136699797636e-06 2.065935813920e-03 0.0 
0.0 0.0 0.0 
1.234532125929e-04 1.689138060853e-04 0.0 
1.689138060853e-04 6.485300382784e-04 0.0 
0.0 0.0 0.0 
1.363279740798e-04 1.088702432094e-04 0.0 
1.088702432094e-04 9.186436493276e-04 0.0 
0.0 0.0 0.0 
-4.772234724837e-06 -2.526962469090e-05 0.0 
-2.526962469090e-05 7.509923277027e-05 0.0 
0.0 0.0 0.0 
-1.730984941904e-04 2.390102119204e-04 0.0 
2.390102119204e-04 2.160875556788e-03 0.0 
0.0 0.0 0.0 
-1.572503568870e-05 -1.195633997185e-05 0.0 
-1.195633997185e-05 5.900122125357e-05 0.0 
0.0 0.0 0.0 
2.375297798118e-05 -1.806784437306e-05 0.0 
-1.806784437306e-05 1.063611083001e-04 0.0 
0.0 0.0 0.0 
-1.044832666518e-04 2.310061179389e-04 0.0 
2.310061179389e-04 5.727772507493e-04 0.0 
0.0 0.0 0.0 
7.603308102255e-05 -2.855246308734e-05 0.0 
-2.855246308734e-05 2.874832991988e-04 0.0 
0.0 0.0 0.0 
-1.865455914051e-04 2.386123748005e-04 0.0 
2.386123748005e-04 2.216546206940e-03 0.0 
0.0 0.0 0.0 
6.012520645737e-05 -4.511625758119e-05 0.0 
-4.511625758119e-05 2.714051838111e-04 0.0 
0.0 0.0 0.0 
-7.846323746286e-07 1.792246500028e-04 0.0 
1.792246500028e-04 4.917405247999e-04 0.0 
0.0 0.0 0.0 
3.517949529730e-05 -4.702169422238e-05 0.0 
-4.702169422238e-05 2.236313901411e-04 0.0 
0.0 0.0 0.0 
2.974743115436e-05 -2.964937078392e-05 0.0 
-2.964937078392e-05 1.831522936568e-04 0.0 
0.0 0.0 0.0 
1.296736439427e-04 1.943714936798e-04 0.0 
1.943714936798e-04 1.094700928251e-03 0.0 
0.0 0.0 0.0 
-1.655156645566e-04 2.986846427247e-04 0.0 
2.986846427247e-04 1.764072112675e-03 0.0 
0.0 0.0 0.0 
4.124863449539e-05 4.698835044550e-05 0.0 
4.698835044550e-05 1.153444173872e-03 0.0 
0.0 0.0 0.0 
-1.153855283313e-04 2.465924606033e-05 0.0 
2.465924606033e-05 6.586942381026e-05 0.0 
0.0 0.0 0.0 
3.922416259927e-05 1.782632772532e-04 0.0 
1.782632772532e-04 5.469516373029e-04 0.0 
0.0 0.0 0.0 
1.410147940111e-04 1.780875490808e-04 0.0 
1.780875490808e-04 7.150360744457e-04 0.0 
0.0 0.0 0.0 
-8.348149339055e-05 2.815212515071e-04 0.0 
2.815212515071e-04 1.268230844265e-03 0.0 
0.0 0.0 0.0 
1.483886205427e-04 1.481889185929e-04 0.0 
1.481889185929e-04 9.735644852029e-04 0.0 
0.0 0.0 0.0 
3.912023867225e-05 6.876041146140e-05 0.0 
6.876041146140e-05 1.186515181038e-03 0.0 
0.0 0.0 0.0 
-1.613075885113e-04 2.983936008979e-04 0.0 
2.983936008979e-04 2.052277164083e-03 0.0 
0.0 0.0 0.0 
8.844337777347e-05 9.489494873907e-05 0.0 
9.489494873907e-05 5.152774324815e-04 0.0 
0.0 0.0 0.0 
1.114011969341e-04 1.793112514549e-04 0.0 
1.793112514549e-04 1.094804763629e-03 0.0 
0.0 0.0 0.0 
1.019944876839e-04 1.148993406499e-05 0.0 
1.148993406499e-05 8.053260071410e-04 0.0 
0.0 0.0 0.0 
-3.982349513854e-05 3.105945020525e-04 0.0 
3.105945020525e-04 1.419130107713e-03 0.0 
0.0 0.0 0.0 
-1.751520316433e-04 2.528105967350e-04 0.0 
2.528105967350e-04 2.095802589144e-03 0.0 
0.0 0.0 0.0 
3.599265130694e-05 3.505123425940e-04 0.0 
3.505123425940e-04 1.535124695077e-03 0.0 
0.0 0.0 0.0 
1.273496098855e-04 1.463225901769e-04 0.0 
1.463225901769e-04 7.197783331776e-04 0.0 
0.0 0.0 0.0 
-3.456091522747e-06 1.604376030509e-04 0.0 
1.604376030509e-04 5.868319953410e-04 0.0 
0.0 0.0 0.0 
-1.770243516646e-04 2.950928109889e-04 0.0 
2.950928109889e-04 1.899611437356e-03 0.0 
0.0 0.0 0.0 
-3.776224252128e-05 1.963238687389e-04 0.0 
1.963238687389e-04 2.456754016852e-03 0.0 
0.0 0.0 0.0 
1.527159727766e-05 2.902274101967e-04 0.0 
2.902274101967e-04 1.256357263176e-03 0.0 
0.0 0.0 0.0 
1.551064503647e-04 1.623148446771e-04 0.0 
1.623148446771e-04 8.452952455500e-04 0.0 
0.0 0.0 0.0 
-1.412843772509e-04 3.770019570981e-06 0.0 
3.770019570981e-06 2.127461334617e-03 0.0 
0.0 0.0 0.0 
-5.278408241272e-06 -4.747660604751e-05 0.0 
-4.747660604751e-05 1.663938806404e-04 0.0 
0.0 0.0 0.0 
-1.872641924323e-04 2.643597954991e-04 0.0 
2.643597954991e-04 1.869174559376e-03 0.0 
0.0 0.0 0.0 
9.968761528123e-05 1.338759787778e-04 0.0 
1.338759787778e-04 5.093334870550e-04 0.0 
0.0 0.0 0.0 
5.063394309102e-05 7.416069193248e-05 0.0 
7.416069193248e-05 3.168635503676e-04 0.0 
0.0 0.0 0.0 
1.503250924717e-05 -4.062119678474e-05 0.0 
-4.062119678474e-05 1.864383861920e-04 0.0 
0.0 0.0 0.0 
-1.655575004846e-04 2.261636474164e-04 0.0 
2.261636474164e-04 2.218062475861e-03 0.0 
0.0 0.0 0.0 
-1.535584998249e-04 3.070706082003e-04 0.0 
3.070706082003e-04 1.801801584063e-03 0.0 
0.0 0.0 0.0 
6.473557552944e-05 2.259602079433e-04 0.0 
2.259602079433e-04 7.911190552392e-04 0.0 
0.0 0.0 0.0 
-1.765410134094e-04 2.247946790888e-04 0.0 
2.247946790888e-04 2.268355045726e-03 0.0 
0.0 0.0 0.0 
-1.314220048411e-04 3.204951156066e-04 0.0 
3.204951156066e-04 2.007867998080e-03 0.0 
0.0 0.0 0.0 
-6.484157516118e-05 3.190998100979e-04 0.0 
3.190998100979e-04 1.528176700193e-03 0.0 
0.0 0.0 0.0 
2.791632200583e-05 8.783424897421e-05 0.0 
8.783424897421e-05 1.193877052481e-03 0.0 
0.0 0.0 0.0 
1.766340804370e-04 1.761277253079e-04 0.0 
1.761277253079e-04 8.382951011181e-04 0.0 
0.0 0.0 0.0 
-9.116883413718e-05 3.221053545540e-04 0.0 
3.221053545540e-04 1.636239815219e-03 0.0 
0.0 0.0 0.0 
9.247915336541e-05 2.163951708351e-04 0.0 
2.163951708351e-04 9.169708997867e-04 0.0 
0.0 0.0 0.0 
1.544196719236e-04 1.782312252579e-04 0.0 
1.782312252579e-04 9.159638334846e-04 0.0 
0.0 0.0 0.0 
8.546649847885e-05 7.976653049137e-05 0.0 
7.976653049137e-05 3.755343721452e-04 0.0 
0.0 0.0 0.0 
-2.325553341035e-04 7.444315085624e-05 0.0 
7.444315085624e-05 2.091794280119e-03 0.0 
0.0 0.0 0.0 
1.427048777465e-04 1.323146825416e-04 0.0 
1.323146825416e-04 7.090902154481e-04 0.0 
0.0 0.0 0.0 
1.120903068990e-04 5.329711682338e-06 0.0 
5.329711682338e-06 4.017921275834e-04 0.0 
0.0 0.0 0.0 
-1.492978570128e-04 2.852412164591e-04 0.0 
2.852412164591e-04 2.054661281780e-03 0.0 
0.0 0.0 0.0 
-1.845663221858e-04 9.539264154160e-06 0.0 
9.539264154160e-06 1.017572367756e-04 0.0 
0.0 0.0 0.0 
-2.117350935565e-04 2.680113490652e-04 0.0 
2.680113490652e-04 1.957268530955e-03 0.0 
0.0 0.0 0.0 
1.213214813971e-04 1.146109139904e-04 0.0 
1.146109139904e-04 5.018374215504e-04 0.0 
0.0 0.0 0.0 
3.381963353144e-05 1.369328028029e-04 0.0 
1.369328028029e-04 5.527202165407e-04 0.0 
0.0 0.0 0.0 
7.137758907949e-05 4.054637977690e-05 0.0 
4.054637977690e-05 3.822913303257e-04 0.0 
0.0 0.0 0.0 
-1.421486651486e-04 3.024939219767e-04 0.0 
3.024939219767e-04 1.843393430327e-03 0.0 
0.0 0.0 0.0 
-1.393411225015e-05 -3.842866124480e-05 0.0 
-3.842866124480e-05 1.164449121454e-04 0.0 
0.0 0.0 0.0 
-3.110563883280e-05 2.778775145948e-04 0.0 
2.778775145948e-04 1.092629651717e-03 0.0 
0.0 0.0 0.0 
1.741533697435e-04 1.913173807974e-04 0.0 
1.913173807974e-04 9.104960353248e-04 0.0 
0.0 0.0 0.0 
-1.538040720417e-04 2.935979158030e-04 0.0 
2.935979158030e-04 1.804136278823e-03 0.0 
0.0 0.0 0.0 
-2.341711224051e-04 1.113157529121e-04 0.0 
1.113157529121e-04 2.114069347066e-03 0.0 
0.0 0.0 0.0 
-1.173212094785e-05 5.172593719817e-05 0.0 
5.172593719817e-05 2.035693747420e-04 0.0 
0.0 0.0 0.0 
1.290780390051e-04 3.587978016426e-05 0.0 
3.587978016426e-05 3.969838860920e-04 0.0 
0.0 0.0 0.0 
9.743881545576e-05 -1.347634985264e-05 0.0 
-1.347634985264e-05 3.560275573609e-04 0.0 
0.0 0.0 0.0 
-7.440351368104e-05 2.520293663930e-04 0.0 
2.520293663930e-04 1.052911017589e-03 0.0 
0.0 0.0 0.0 
-1.899695549622e-04 2.698313199549e-04 0.0 
2.698313199549e-04 2.092742969843e-03 0.0 
0.0 0.0 0.0 
-3.932477168123e-05 2.619247414282e-04 0.0 
2.619247414282e-04 1.095063263172e-03 0.0 
0.0 0.0 0.0 
1.579085318162e-04 1.353591114130e-04 0.0 
1.353591114130e-04 6.314716813862e-04 0.0 
0.0 0.0 0.0 
1.431876323554e-04 1.513779850673e-04 0.0 
1.513779850673e-04 6.376055384461e-04 0.0 
0.0 0.0 0.0 
-3.660072956713e-06 2.758159350620e-05 0.0 
2.758159350620e-05 2.675549290068e-04 0.0 
0.0 0.0 0.0 
1.241581313229e-04 2.276709624010e-04 0.0 
2.276709624010e-04 8.851072928195e-04 0.0 
0.0 0.0 0.0 
-4.482026491293e-05 1.362742781686e-04 0.0 
1.362742781686e-04 4.386001879793e-04 0.0 
0.0 0.0 0.0 
-4.727058548337e-05 3.436897961474e-04 0.0 
3.436897961474e-04 2.316106203480e-03 0.0 
0.0 0.0 0.0 
-4.168112651237e-05 3.935078415418e-04 0.0 
3.935078415418e-04 2.224447396832e-03 0.0 
0.0 0.0 0.0 
4.847511064154e-05 2.989864302054e-04 0.0 
2.989864302054e-04 1.209524476228e-03 0.0 
0.0 0.0 0.0 
9.479466541751e-05 1.066544216852e-04 0.0 
1.066544216852e-04 4.393724741170e-04 0.0 
0.0 0.0 0.0 
3.192322553880e-05 1.090682483320e-04 0.0 
1.090682483320e-04 4.710098430978e-04 0.0 
0.0 0.0 0.0 
-5.788988397559e-05 3.277147171693e-04 0.0 
3.277147171693e-04 1.578948238467e-03 0.0 
0.0 0.0 0.0 
5.952669240439e-05 8.671015606274e-05 0.0 
8.671015606274e-05 4.550121032185e-04 0.0 
0.0 0.0 0.0 
1.140206577821e-04 1.549956835618e-05 0.0 
1.549956835618e-05 3.514296098721e-04 0.0 
0.0 0.0 0.0 
-3.929294874960e-05 3.174158661538e-04 0.0 
3.174158661538e-04 1.417912979795e-03 0.0 
0.0 0.0 0.0 
-6.867920601850e-05 1.173537632611e-04 0.0 
1.173537632611e-04 2.459925562175e-03 0.0 
0.0 0.0 0.0 
1.243689707007e-04 1.418075242608e-04 0.0 
1.418075242608e-04 5.724784940009e-04 0.0 
0.0 0.0 0.0 
1.525024829954e-04 2.411806307380e-04 0.0 
2.411806307380e-04 1.063747314571e-03 0.0 
0.0 0.0 0.0 
-2.862227959866e-06 1.553163119082e-04 0.0 
1.553163119082e-04 4.078057596160e-04 0.0 
0.0 0.0 0.0 
3.631334406040e-05 2.444017982924e-04 0.0 
2.444017982924e-04 1.369266770508e-03 0.0 
0.0 0.0 0.0 
6.965750500765e-05 1.287081667208e-04 0.0 
1.287081667208e-04 4.481630680002e-04 0.0 
0.0 0.0 0.0 
-5.133219130649e-06 3.171501827317e-04 0.0 
3.171501827317e-04 1.362266132687e-03 0.0 
0.0 0.0 0.0 
3.472732208487e-05 5.141028375982e-05 0.0 
5.141028375982e-05 2.590725138156e-04 0.0 
0.0 0.0 0.0 
1.765528496751e-04 1.405041676610e-04 0.0 
1.405041676610e-04 8.613013903795e-04 0.0 
0.0 0.0 0.0 
1.567265263172e-04 1.615189303121e-04 0.0 
1.615189303121e-04 7.043476083168e-04 0.0 
0.0 0.0 0.0 
1.223343500572e-04 8.745169205160e-06 0.0 
8.745169205160e-06 3.676549753071e-04 0.0 
0.0 0.0 0.0 
-1.278729851557e-04 3.143721361880e-04 0.0 
3.143721361880e-04 1.698694475927e-03 0.0 
0.0 0.0 0.0 
-1.692903319472e-05 4.454841040399e-04 0.0 
4.454841040399e-04 2.056891369012e-03 0.0 
0.0 0.0 0.0 
1.422914174150e-04 1.242473002901e-04 0.0 
1.242473002901e-04 5.658825616648e-04 0.0 
0.0 0.0 0.0 
1.589280898182e-04 1.695435444039e-04 0.0 
1.695435444039e-04 9.136364989355e-04 0.0 
0.0 0.0 0.0 
-5.395670329755e-06 1.077129540193e-04 0.0 
1.077129540193e-04 4.143197641893e-04 0.0 
0.0 0.0 0.0 
-1.864474465607e-04 8.742448940637e-05 0.0 
8.742448940637e-05 2.234878546689e-03 0.0 
0.0 0.0 0.0 
1.534430792158e-04 1.249987548422e-04 0.0 
1.249987548422e-04 9.165383533556e-04 0.0 
0.0 0.0 0.0 
-7.722036518998e-06 1.838084467938e-04 0.0 
1.838084467938e-04 6.818326732758e-04 0.0 
0.0 0.0 0.0 
-2.050654063468e-04 6.708368947865e-05 0.0 
6.708368947865e-05 2.216198765584e-03 0.0 
0.0 0.0 0.0 
5.701665213964e-06 4.565958327268e-04 0.0 
4.565958327268e-04 1.874629966547e-03 0.0 
0.0 0.0 0.0 
1.347319479088e-04 1.410139733768e-04 0.0 
1.410139733768e-04 9.957913049565e-04 0.0 
0.0 0.0 0.0 
-2.657828207697e-05 4.331777781748e-04 0.0 
4.331777781748e-04 2.115360883399e-03 0.0 
0.0 0.0 0.0 
-2.264896418324e-04 1.023639999886e-04 0.0 
1.023639999886e-04 2.200330763660e-03 0.0 
0.0 0.0 0.0 
-8.642058886821e-05 3.421513607314e-04 0.0 
3.421513607314e-04 1.872548517946e-03 0.0 
0.0 0.0 0.0 
-4.935782989246e-05 1.810288591818e-04 0.0 
1.810288591818e-04 6.263217467519e-04 0.0 
0.0 0.0 0.0 
-1.391335040197e-04 3.059271167631e-04 0.0 
3.059271167631e-04 1.654666903750e-03 0.0 
0.0 0.0 0.0 
-9.268604785140e-05 3.200335668102e-04 0.0 
3.200335668102e-04 1.636543055499e-03 0.0 
0.0 0.0 0.0 
-1.174871095184e-04 3.200211794599e-04 0.0 
3.200211794599e-04 1.741377138656e-03 0.0 
0.0 0.0 0.0 
3.528282235954e-05 2.727461216991e-04 0.0 
2.727461216991e-04 1.151975599285e-03 0.0 
0.0 0.0 0.0 
1.565074246157e-05 4.407919600306e-04 0.0 
4.407919600306e-04 1.761277451308e-03 0.0 
0.0 0.0 0.0 
-2.256502282001e-04 1.558772269386e-04 0.0 
1.558772269386e-04 2.121061715363e-03 0.0 
0.0 0.0 0.0 
-2.257561494458e-04 2.568063437962e-04 0.0 
2.568063437962e-04 1.929632084640e-03 0.0 
0.0 0.0 0.0 
1.296456778703e-04 1.184940099557e-04 0.0 
1.184940099557e-04 6.426646964928e-04 0.0 
0.0 0.0 0.0 
5.404876888337e-05 -3.031108792645e-05 0.0 
-3.031108792645e-05 2.354090117129e-04 0.0 
0.0 0.0 0.0 
-1.779759073161e-04 2.883140182517e-04 0.0 
2.883140182517e-04 1.722684759479e-03 0.0 
0.0 0.0 0.0 
3.838919063881e-05 2.005279551777e-04 0.0 
2.005279551777e-04 6.360040647573e-04 0.0 
0.0 0.0 0.0 
-1.407851758384e-04 3.101734590399e-07 0.0 
3.101734590399e-07 2.071798680598e-03 0.0 
0.0 0.0 0.0 
1.057082516553e-04 -1.772217198050e-05 0.0 
-1.772217198050e-05 3.716751616332e-04 0.0 
0.0 0.0 0.0 
1.116740181186e-04 1.056435740783e-04 0.0 
1.056435740783e-04 5.777034178609e-04 0.0 
0.0 0.0 0.0 
-1.503471954363e-04 2.724843270375e-04 0.0 
2.724843270375e-04 2.126928838233e-03 0.0 
0.0 0.0 0.0 
3.184501390940e-05 1.637421956099e-04 0.0 
1.637421956099e-04 6.408220667753e-04 0.0 
0.0 0.0 0.0 
-1.008576931028e-04 3.130408805576e-04 0.0 
3.130408805576e-04 1.590056846099e-03 0.0 
0.0 0.0 0.0 
1.760377067583e-04 1.813325553767e-04 0.0 
1.813325553767e-04 9.112466559951e-04 0.0 
0.0 0.0 0.0 
1.657748548285e-04 5.365653523842e-05 0.0 
5.365653523842e-05 6.739613126960e-04 0.0 
0.0 0.0 0.0 
3.013971021537e-05 3.956398106476e-04 0.0 
3.956398106476e-04 1.609408343225e-03 0.0 
0.0 0.0 0.0 
-1.290568605866e-04 2.948568447848e-04 0.0 
2.948568447848e-04 1.502302808343e-03 0.0 
0.0 0.0 0.0 
1.181467686526e-04 4.735361736258e-05 0.0 
4.735361736258e-05 3.854564682804e-04 0.0 
0.0 0.0 0.0 
1.208361843241e-04 -1.828399716255e-05 0.0 
-1.828399716255e-05 4.486315058110e-04 0.0 
0.0 0.0 0.0 
-6.122336181769e-05 2.180303994920e-04 0.0 
2.180303994920e-04 8.297595338411e-04 0.0 
0.0 0.0 0.0 
-4.396414142738e-06 2.198350314518e-04 0.0 
2.198350314518e-04 6.778588006167e-04 0.0 
0.0 0.0 0.0 
-1.100537331178e-04 3.338247150198e-04 0.0 
3.338247150198e-04 2.044032286068e-03 0.0 
0.0 0.0 0.0 
-3.130051933953e-05 3.174677961406e-04 0.0 
3.174677961406e-04 1.471445491435e-03 0.0 
0.0 0.0 0.0 
-9.580646357044e-05 2.732020928351e-04 0.0 
2.732020928351e-04 1.268943040472e-03 0.0 
0.0 0.0 0.0 
-1.109530454579e-04 3.040741174012e-04 0.0 
3.040741174012e-04 1.544351761473e-03 0.0 
0.0 0.0 0.0 
3.732608845985e-05 3.127193743606e-04 0.0 
3.127193743606e-04 1.449892105470e-03 0.0 
0.0 0.0 0.0 
6.049375623451e-05 2.927518020748e-04 0.0 
2.927518020748e-04 1.379765853248e-03 0.0 
0.0 0.0 0.0 
-9.621235136981e-05 3.264938712932e-04 0.0 
3.264938712932e-04 2.045463581480e-03 0.0 
0.0 0.0 0.0 
-1.918381559991e-04 2.540774434529e-04 0.0 
2.540774434529e-04 2.158395633828e-03 0.0 
0.0 0.0 0.0 
1.536817311889e-04 3.807519161939e-05 0.0 
3.807519161939e-05 6.543433711648e-04 0.0 
0.0 0.0 0.0 
-1.154997081421e-06 2.533577957070e-04 0.0 
2.533577957070e-04 1.039376446942e-03 0.0 
0.0 0.0 0.0 
8.176276472893e-05 6.708180331161e-05 0.0 
6.708180331161e-05 4.457190115936e-04 0.0 
0.0 0.0 0.0 
1.075763012186e-04 7.800987004903e-05 0.0 
7.800987004903e-05 5.075182990280e-04 0.0 
0.0 0.0 0.0 
-6.717384133714e-06 3.063211011908e-04 0.0 
3.063211011908e-04 1.363871538452e-03 0.0 
0.0 0.0 0.0 
1.637382664563e-04 1.284447451660e-04 0.0 
1.284447451660e-04 8.534030685505e-04 0.0 
0.0 0.0 0.0 
1.198393420614e-04 -8.020929087548e-06 0.0 
-8.020929087548e-06 5.432312218392e-04 0.0 
0.0 0.0 0.0 
-1.223822523861e-04 2.926186539815e-04 0.0 
2.926186539815e-04 2.158525086909e-03 0.0 
0.0 0.0 0.0 
1.018812364606e-04 1.363685253404e-05 0.0 
1.363685253404e-05 3.907985924572e-04 0.0 
0.0 0.0 0.0 
5.271839478627e-05 2.521076653852e-04 0.0 
2.521076653852e-04 1.050123156036e-03 0.0 
0.0 0.0 0.0 
-6.517683432483e-05 3.206043145889e-04 0.0 
3.206043145889e-04 1.527890630601e-03 0.0 
0.0 0.0 0.0 
3.551770472998e-05 2.415865823315e-04 0.0 
2.415865823315e-04 9.912735039339e-04 0.0 
0.0 0.0 0.0 
-3.500547081470e-05 4.170211634231e-04 0.0 
4.170211634231e-04 2.170729406617e-03 0.0 
0.0 0.0 0.0 
-4.111625505054e-05 3.707168878651e-04 0.0 
3.707168878651e-04 2.269679442648e-03 0.0 
0.0 0.0 0.0 
-8.212266655760e-05 3.441726706142e-04 0.0 
3.441726706142e-04 2.218284643468e-03 0.0 
0.0 0.0 0.0 
1.532075179858e-04 5.448145960197e-05 0.0 
5.448145960197e-05 7.220315644179e-04 0.0 
0.0 0.0 0.0 
-1.526221869377e-04 2.151514379413e-04 0.0 
2.151514379413e-04 2.269490202329e-03 0.0 
0.0 0.0 0.0 
-2.059146094635e-06 2.005384337193e-04 0.0 
2.005384337193e-04 5.821721774977e-04 0.0 
0.0 0.0 0.0 
1.278862940237e-04 9.067950336822e-05 0.0 
9.067950336822e-05 5.711204942636e-04 0.0 
0.0 0.0 0.0 
3.809222295192e-05 3.297048420866e-05 0.0 
3.297048420866e-05 3.239640970931e-04 0.0 
0.0 0.0 0.0 
-5.279598474428e-05 2.751084288933e-04 0.0 
2.751084288933e-04 1.203084076812e-03 0.0 
0.0 0.0 0.0 
-2.198831447726e-04 4.836562795054e-05 0.0 
4.836562795054e-05 2.097435967586e-03 0.0 
0.0 0.0 0.0 
-1.984185159559e-04 8.950911276281e-05 0.0 
8.950911276281e-05 2.201481618376e-03 0.0 
0.0 0.0 0.0 
6.509575684488e-05 2.369787379975e-04 0.0 
2.369787379975e-04 1.300878950695e-03 0.0 
0.0 0.0 0.0 
-5.927433554065e-05 3.498452045882e-04 0.0 
3.498452045882e-04 1.916946503622e-03 0.0 
0.0 0.0 0.0 
-1.758123011955e-04 2.762575699959e-04 0.0 
2.762575699959e-04 1.902478537836e-03 0.0 
0.0 0.0 0.0 
-8.378064083492e-05 3.262246077749e-04 0.0 
3.262246077749e-04 1.684817865902e-03 0.0 
0.0 0.0 0.0 
7.187576002576e-05 5.534188893409e-05 0.0 
5.534188893409e-05 3.180411992816e-04 0.0 
0.0 0.0 0.0 
-3.272341574390e-05 -3.406303970281e-05 0.0 
-3.406303970281e-05 1.261294297616e-04 0.0 
0.0 0.0 0.0 
1.346759982213e-04 2.031353906295e-04 0.0 
2.031353906295e-04 7.975205822446e-04 0.0 
0.0 0.0 0.0 
6.350830295165e-05 2.621898215984e-04 0.0 
2.621898215984e-04 1.110790776014e-03 0.0 
0.0 0.0 0.0 
1.140431220321e-04 2.006381095598e-04 0.0 
2.006381095598e-04 8.890196821365e-04 0.0 
0.0 0.0 0.0 
-1.022432293464e-04 1.777957738882e-04 0.0 
1.777957738882e-04 2.883984021596e-04 0.0 
0.0 0.0 0.0 
-1.362471054710e-04 5.865690159088e-06 0.0 
5.865690159088e-06 2.124862887728e-03 0.0 
0.0 0.0 0.0 
3.833488589211e-05 -4.714928058351e-05 0.0 
-4.714928058351e-05 2.184851068310e-04 0.0 
0.0 0.0 0.0 
7.265126039857e-05 1.553197082050e-04 0.0 
1.553197082050e-04 5.237694606262e-04 0.0 
0.0 0.0 0.0 
0.0 2.444719757510e-04 0.0 
2.444719757510e-04 1.381800079507e-03 0.0 
0.0 0.0 0.0 
1.408957928708e-04 2.139656009390e-04 0.0 
2.139656009390e-04 1.063524109741e-03 0.0 
0.0 0.0 0.0 
-2.157779323619e-04 2.205832226920e-04 0.0 
2.205832226920e-04 1.934022336207e-03 0.0 
0.0 0.0 0.0 
2.973145341123e-05 -1.051707075305e-06 0.0 
-1.051707075305e-06 1.501448706227e-04 0.0 
0.0 0.0 0.0 
4.011301069040e-05 2.914775913316e-04 0.0 
2.914775913316e-04 1.149382703384e-03 0.0 
0.0 0.0 0.0 
1.223019761529e-04 1.733809658185e-04 0.0 
1.733809658185e-04 8.017689172768e-04 0.0 
0.0 0.0 0.0 
-1.421449774714e-04 3.131264840018e-04 0.0 
3.131264840018e-04 1.842043177353e-03 0.0 
0.0 0.0 0.0 
-6.030654553180e-06 4.547372804111e-04 0.0 
4.547372804111e-04 1.994465560596e-03 0.0 
0.0 0.0 0.0 
-1.367232711197e-04 2.975859852465e-04 0.0 
2.975859852465e-04 1.655600308945e-03 0.0 
0.0 0.0 0.0 
-5.722744777859e-05 3.249734641945e-04 0.0 
3.249734641945e-04 1.579297736170e-03 0.0 
0.0 0.0 0.0 
1.313245703458e-04 4.701119366606e-06 0.0 
4.701119366606e-06 5.412630331505e-04 0.0 
0.0 0.0 0.0 
-1.460739232394e-04 2.613880767463e-04 0.0 
2.613880767463e-04 2.191681670624e-03 0.0 
0.0 0.0 0.0 
1.632879826055e-04 6.896876673115e-05 0.0 
6.896876673115e-05 7.428086713541e-04 0.0 
0.0 0.0 0.0 
-2.599961936744e-06 4.582252015859e-04 0.0 
4.582252015859e-04 1.935124720777e-03 0.0 
0.0 0.0 0.0 
0.0 4.015900775392e-04 0.0 
4.015900775392e-04 2.142145117498e-03 0.0 
0.0 0.0 0.0 
0.0 3.100513053255e-04 0.0 
3.100513053255e-04 2.339645745525e-03 0.0 
0.0 0.0 0.0 
0.0 3.589332900640e-04 0.0 
3.589332900640e-04 2.249788630567e-03 0.0 
0.0 0.0 0.0 
-1.079470750058e-04 3.203329894449e-04 0.0 
3.203329894449e-04 1.787093272213e-03 0.0 
0.0 0.0 0.0 
-1.650110645978e-04 2.713816815692e-04 0.0 
2.713816815692e-04 2.190459087507e-03 0.0 
0.0 0.0 0.0 
-6.608293247234e-05 3.508021241939e-04 0.0 
3.508021241939e-04 2.001643962260e-03 0.0 
0.0 0.0 0.0 
4.293920644249e-05 2.670420868147e-04 0.0 
2.670420868147e-04 9.881429745291e-04 0.0 
0.0 0.0 0.0 
7.862462533925e-06 2.743503386203e-04 0.0 
2.743503386203e-04 1.036695230091e-03 0.0 
0.0 0.0 0.0 
1.123068331874e-04 -1.376837287143e-05 0.0 
-1.376837287143e-05 5.083645870536e-04 0.0 
0.0 0.0 0.0 
-1.403358683695e-04 3.016781598619e-04 0.0 
3.016781598619e-04 2.157282754967e-03 0.0 
0.0 0.0 0.0 
1.149003077683e-05 4.502774866231e-04 0.0 
4.502774866231e-04 1.815932595003e-03 0.0 
0.0 0.0 0.0 
-1.356110144217e-04 2.492644628854e-04 0.0 
2.492644628854e-04 2.248828346718e-03 0.0 
0.0 0.0 0.0 
1.496576745070e-04 1.954493313985e-04 0.0 
1.954493313985e-04 9.888950388857e-04 0.0 
0.0 0.0 0.0 
-1.571793981231e-04 2.586311818684e-04 0.0 
2.586311818684e-04 2.247650440216e-03 0.0 
0.0 0.0 0.0 
6.839254509616e-05 3.060165761676e-04 0.0 
3.060165761676e-04 1.366506830811e-03 0.0 
0.0 0.0 0.0 
8.631535225190e-05 2.630305213842e-04 0.0 
2.630305213842e-04 1.009248976828e-03 0.0 
0.0 0.0 0.0 
-4.468559331372e-05 2.888180514980e-04 0.0 
2.888180514980e-04 1.201626113669e-03 0.0 
0.0 0.0 0.0 
3.353537032402e-05 1.270255248431e-04 0.0 
1.270255248431e-04 3.887185653877e-04 0.0 
0.0 0.0 0.0 
-4.533592055245e-05 2.032332928705e-04 0.0 
2.032332928705e-04 2.412621153941e-03 0.0 
0.0 0.0 0.0 
5.580330743848e-05 2.486141206360e-04 0.0 
2.486141206360e-04 8.887425542485e-04 0.0 
0.0 0.0 0.0 
2.568456501084e-05 3.732350154357e-04 0.0 
3.732350154357e-04 1.666581408228e-03 0.0 
0.0 0.0 0.0 
1.224315115640e-04 -1.764427448299e-06 0.0 
-1.764427448299e-06 5.065080288384e-04 0.0 
0.0 0.0 0.0 
9.005968768605e-05 -3.129612724985e-05 0.0 
-3.129612724985e-05 3.322927415150e-04 0.0 
0.0 0.0 0.0 
3.764237351689e-05 2.188481612874e-04 0.0 
2.188481612874e-04 1.288949882400e-03 0.0 
0.0 0.0 0.0 
7.210114449485e-05 1.801154783134e-04 0.0 
1.801154783134e-04 6.053645998894e-04 0.0 
0.0 0.0 0.0 
0.0 4.170859132808e-04 0.0 
4.170859132808e-04 2.085595777762e-03 0.0 
0.0 0.0 0.0 
-5.153941868474e-05 3.177619762410e-04 0.0 
3.177619762410e-04 2.264334229547e-03 0.0 
0.0 0.0 0.0 
7.931909931091e-07 3.237143954332e-04 0.0 
3.237143954332e-04 1.419566453981e-03 0.0 
0.0 0.0 0.0 
-3.217415370294e-05 -2.622120614644e-05 0.0 
-2.622120614644e-05 7.420399570801e-05 0.0 
0.0 0.0 0.0 
0.0 4.315582203229e-04 0.0 
4.315582203229e-04 1.965155255071e-03 0.0 
0.0 0.0 0.0 
3.593941878566e-05 2.567464515101e-04 0.0 
2.567464515101e-04 1.342124648355e-03 0.0 
0.0 0.0 0.0 
1.052153348784e-04 -6.964082170258e-06 0.0 
-6.964082170258e-06 3.285401264848e-04 0.0 
0.0 0.0 0.0 
1.520724054787e-04 1.876442492666e-04 0.0 
1.876442492666e-04 9.871104020205e-04 0.0 
0.0 0.0 0.0 
3.005071612860e-05 3.753837707242e-04 0.0 
3.753837707242e-04 1.564297392266e-03 0.0 
0.0 0.0 0.0 
-5.563112141438e-05 -1.053970787614e-05 0.0 
-1.053970787614e-05 4.254603351250e-05 0.0 
0.0 0.0 0.0 
7.383197137045e-05 2.550858667675e-04 0.0 
2.550858667675e-04 9.481374614788e-04 0.0 
0.0 0.0 0.0 
-2.521421051516e-05 3.306771548525e-04 0.0 
3.306771548525e-04 1.525829630358e-03 0.0 
0.0 0.0 0.0 
2.561181159488e-05 3.132494762252e-04 0.0 
3.132494762252e-04 1.313643328215e-03 0.0 
0.0 0.0 0.0 
-3.081155566231e-05 3.248385948029e-04 0.0 
3.248385948029e-04 1.470410055105e-03 0.0 
0.0 0.0 0.0 
3.843252369728e-05 1.532214269824e-04 0.0 
1.532214269824e-04 4.643270087696e-04 0.0 
0.0 0.0 0.0 
0.0 4.296873261925e-04 0.0 
4.296873261925e-04 1.844643941083e-03 0.0 
0.0 0.0 0.0 
1.431741828424e-04 1.046130685291e-04 0.0 
1.046130685291e-04 6.363973843018e-04 0.0 
0.0 0.0 0.0 
-2.006872549831e-05 1.403575858599e-06 0.0 
1.403575858599e-06 2.120462249178e-04 0.0 
0.0 0.0 0.0 
4.550141486481e-05 9.555784528968e-05 0.0 
9.555784528968e-05 1.196773699150e-03 0.0 
0.0 0.0 0.0 
-5.588082737540e-05 -2.453658301686e-05 0.0 
-2.453658301686e-05 8.056343176022e-05 0.0 
0.0 0.0 0.0 
-8.443583138962e-05 3.034168397381e-04 0.0 
3.034168397381e-04 1.431305744522e-03 0.0 
0.0 0.0 0.0 
1.712649195218e-05 -3.138767053965e-05 0.0 
-3.138767053965e-05 1.652153886902e-04 0.0 
0.0 0.0 0.0 
-1.731057937250e-04 2.718069677154e-04 0.0 
2.718069677154e-04 1.724753785380e-03 0.0 
0.0 0.0 0.0 
3.665868830383e-05 2.872277389982e-04 0.0 
2.872277389982e-04 1.418549917353e-03 0.0 
0.0 0.0 0.0 
0.0 4.132608626740e-04 0.0 
4.132608626740e-04 1.732305107450e-03 0.0 
0.0 0.0 0.0 
-1.184178540893e-04 3.136228459009e-04 0.0 
3.136228459009e-04 1.742269915303e-03 0.0 
0.0 0.0 0.0 
-1.595353021855e-05 -3.623288945853e-05 0.0 
-3.623288945853e-05 1.242241434147e-04 0.0 
0.0 0.0 0.0 
-3.120153532321e-05 2.516900077895e-05 0.0 
2.516900077895e-05 1.613160431568e-04 0.0 
0.0 0.0 0.0 
-1.580739637841e-05 -3.326370609393e-05 0.0 
-3.326370609393e-05 1.796083839016e-04 0.0 
0.0 0.0 0.0 
9.279992288946e-05 9.034407106060e-05 0.0 
9.034407106060e-05 1.019687749896e-03 0.0 
0.0 0.0 0.0 
-2.107315883636e-04 6.469396436438e-05 0.0 
6.469396436438e-05 2.074481202364e-03 0.0 
0.0 0.0 0.0 
-2.417175620806e-04 2.275191062651e-04 0.0 
2.275191062651e-04 2.009344999004e-03 0.0 
0.0 0.0 0.0 
0.0 3.864051760804e-04 0.0 
3.864051760804e-04 1.633107795434e-03 0.0 
0.0 0.0 0.0 
-1.944933468701e-04 4.105716883316e-05 0.0 
4.105716883316e-05 2.079463160584e-03 0.0 
0.0 0.0 0.0 
-4.421253560549e-05 3.124235516253e-04 0.0 
3.124235516253e-04 2.355710252282e-03 0.0 
0.0 0.0 0.0 
9.174621674068e-05 3.128007703775e-04 0.0 
3.128007703775e-04 1.336765565420e-03 0.0 
0.0 0.0 0.0 
-1.897106077746e-04 5.966577273352e-05 0.0 
5.966577273352e-05 2.183358206080e-03 0.0 
0.0 0.0 0.0 
-1.169382290256e-05 2.382914218725e-04 0.0 
2.382914218725e-04 7.725445078728e-04 0.0 
0.0 0.0 0.0 
1.674702149870e-04 2.071392827883e-04 0.0 
2.071392827883e-04 9.843135850436e-04 0.0 
0.0 0.0 0.0 
1.497687402185e-05 5.365703542280e-05 0.0 
5.365703542280e-05 3.290823267410e-04 0.0 
0.0 0.0 0.0 
0.0 3.493615392196e-04 0.0 
3.493615392196e-04 1.544266412914e-03 0.0 
0.0 0.0 0.0 
0.0 3.825163023427e-04 0.0 
3.825163023427e-04 2.197315955286e-03 0.0 
0.0 0.0 0.0 
0.0 3.349077611376e-04 0.0 
3.349077611376e-04 2.299706897278e-03 0.0 
0.0 0.0 0.0 
1.471490340783e-04 5.319105136359e-05 0.0 
5.319105136359e-05 7.452381200854e-04 0.0 
0.0 0.0 0.0 
1.046232142383e-04 -1.755936497941e-05 0.0 
-1.755936497941e-05 4.744490673776e-04 0.0 
0.0 0.0 0.0 
7.972625806563e-05 2.403749896315e-04 0.0 
2.403749896315e-04 1.012760051891e-03 0.0 
0.0 0.0 0.0 
1.551569060574e-04 6.649534192664e-05 0.0 
6.649534192664e-05 7.670528157522e-04 0.0 
0.0 0.0 0.0 
0.0 3.103062911671e-04 0.0 
3.103062911671e-04 1.471187746493e-03 0.0 
0.0 0.0 0.0 
6.410372597210e-05 1.146466249374e-04 0.0 
1.146466249374e-04 5.298808112966e-04 0.0 
0.0 0.0 0.0 
1.372611048489e-04 2.701377070084e-05 0.0 
2.701377070084e-05 4.110855564701e-04 0.0 
0.0 0.0 0.0 
1.427939094920e-04 2.041572960959e-05 0.0 
2.041572960959e-05 4.269741739655e-04 0.0 
0.0 0.0 0.0 
-1.799286845439e-04 6.160306066679e-05 0.0 
6.160306066679e-05 2.216740094279e-03 0.0 
0.0 0.0 0.0 
3.026069989720e-05 2.205143563396e-04 0.0 
2.205143563396e-04 1.347899172416e-03 0.0 
0.0 0.0 0.0 
-4.967572048897e-05 -3.334487213375e-05 0.0 
-3.334487213375e-05 1.357461816578e-04 0.0 
0.0 0.0 0.0 
0.0 2.651237509432e-04 0.0 
2.651237509432e-04 1.405248112049e-03 0.0 
0.0 0.0 0.0 
1.283053290437e-04 3.517203068446e-06 0.0 
3.517203068446e-06 3.856777462892e-04 0.0 
0.0 0.0 0.0 
0.0 4.278325318565e-04 0.0 
4.278325318565e-04 2.026811343533e-03 0.0 
0.0 0.0 0.0 
-8.377242574964e-05 3.554091960678e-04 0.0 
3.554091960678e-04 2.000986501395e-03 0.0 
0.0 0.0 0.0 
-8.996072821454e-05 -1.009724073266e-05 0.0 
-1.009724073266e-05 5.472557759334e-05 0.0 
0.0 0.0 0.0 
1.007493551897e-04 2.411511929627e-04 0.0 
2.411511929627e-04 9.131734368459e-04 0.0 
0.0 0.0 0.0 
-1.611453944573e-04 2.128159478215e-04 0.0 
2.128159478215e-04 2.313272633411e-03 0.0 
0.0 0.0 0.0 
0.0 4.330770534348e-04 0.0 
4.330770534348e-04 1.904602629414e-03 0.0 
0.0 0.0 0.0 
-1.078677680644e-04 3.258324002953e-04 0.0 
3.258324002953e-04 1.786369366399e-03 0.0 
0.0 0.0 0.0 
1.034807733846e-04 3.068372086561e-04 0.0 
3.068372086561e-04 1.314978818587e-03 0.0 
0.0 0.0 0.0 
-7.368524990947e-06 1.289490879995e-04 0.0 
1.289490879995e-04 3.308397627768e-04 0.0 
0.0 0.0 0.0 
6.957594702794e-05 2.309855043644e-04 0.0 
2.309855043644e-04 1.253734457889e-03 0.0 
0.0 0.0 0.0 
1.321716814002e-04 6.175355154663e-07 0.0 
6.175355154663e-07 4.052925153559e-04 0.0 
0.0 0.0 0.0 
1.258310194556e-04 -4.321238308665e-06 0.0 
-4.321238308665e-06 4.303532110066e-04 0.0 
0.0 0.0 0.0 
-9.294886682643e-05 -2.572322091731e-05 0.0 
-2.572322091731e-05 1.010796148111e-04 0.0 
0.0 0.0 0.0 
0.0 4.228358242056e-04 0.0 
4.228358242056e-04 1.787343748639e-03 0.0 
0.0 0.0 0.0 
5.041684497442e-05 5.891275155181e-05 0.0 
5.891275155181e-05 3.861661939002e-04 0.0 
0.0 0.0 0.0 
1.121056289366e-04 1.498641154594e-04 0.0 
1.498641154594e-04 1.057129047795e-03 0.0 
0.0 0.0 0.0 
-2.018223546582e-04 4.179495289800e-05 0.0 
4.179495289800e-05 2.157040720681e-03 0.0 
0.0 0.0 0.0 
8.834521804246e-05 -3.876009227046e-05 0.0 
-3.876009227046e-05 3.369587450932e-04 0.0 
0.0 0.0 0.0 
1.201816642677e-04 -4.237949498556e-07 0.0 
-4.237949498556e-07 4.151316361376e-04 0.0 
0.0 0.0 0.0 
-8.312216359962e-05 3.277953353236e-04 0.0 
3.277953353236e-04 1.684602449807e-03 0.0 
0.0 0.0 0.0 
0.0 3.680540748376e-04 0.0 
3.680540748376e-04 1.587428873738e-03 0.0 
0.0 0.0 0.0 
1.130059985202e-04 -3.033498803938e-06 0.0 
-3.033498803938e-06 4.990154107232e-04 0.0 
0.0 0.0 0.0 
1.396459588687e-04 8.825146435631e-05 0.0 
8.825146435631e-05 8.658394438528e-04 0.0 
0.0 0.0 0.0 
7.487455082122e-05 2.902354355006e-04 0.0 
2.902354355006e-04 1.170477114232e-03 0.0 
0.0 0.0 0.0 
1.616557111088e-04 9.901258517631e-05 0.0 
9.901258517631e-05 8.056659987503e-04 0.0 
0.0 0.0 0.0 
1.325476495462e-04 1.948307794603e-05 0.0 
1.948307794603e-05 4.623421562326e-04 0.0 
0.0 0.0 0.0 
1.485898194105e-04 7.129474336390e-05 0.0 
7.129474336390e-05 7.924744090351e-04 0.0 
0.0 0.0 0.0 
4.448193881457e-05 2.818898343577e-04 0.0 
2.818898343577e-04 1.211824845402e-03 0.0 
0.0 0.0 0.0 
2.791545310310e-05 3.275626887897e-04 0.0 
3.275626887897e-04 1.498631019510e-03 0.0 
0.0 0.0 0.0 
1.560322135634e-04 2.237962769872e-04 0.0 
2.237962769872e-04 1.059810279870e-03 0.0 
0.0 0.0 0.0 
9.406224604058e-05 2.715073475695e-04 0.0 
2.715073475695e-04 1.072340368015e-03 0.0 
0.0 0.0 0.0 
1.335137023473e-04 2.514513834114e-06 0.0 
2.514513834114e-06 5.154695106802e-04 0.0 
0.0 0.0 0.0 
6.450098996647e-05 1.423004095817e-04 0.0 
1.423004095817e-04 6.108450782287e-04 0.0 
0.0 0.0 0.0 
1.133495819199e-04 -6.261373172947e-06 0.0 
-6.261373172947e-06 4.727045469715e-04 0.0 
0.0 0.0 0.0 
8.231133779435e-05 2.999656032803e-04 0.0 
2.999656032803e-04 1.339093295632e-03 0.0 
0.0 0.0 0.0 
1.808208751648e-04 1.651674962311e-04 0.0 
1.651674962311e-04 8.384682609253e-04 0.0 
0.0 0.0 0.0 
3.531979310667e-05 2.649117992855e-04 0.0 
2.649117992855e-04 1.393624476155e-03 0.0 
0.0 0.0 0.0 
-1.448455172938e-04 2.465861440286e-04 0.0 
2.465861440286e-04 2.298791619930e-03 0.0 
0.0 0.0 0.0 
8.476739705210e-05 -2.667092404751e-05 0.0 
-2.667092404751e-05 3.015446397177e-04 0.0 
0.0 0.0 0.0 
0.0 2.868991345938e-04 0.0 
2.868991345938e-04 1.432671531250e-03 0.0 
0.0 0.0 0.0 
6.967594062557e-05 2.592119708499e-04 0.0 
2.592119708499e-04 1.327953258923e-03 0.0 
0.0 0.0 0.0 
1.427001799530e-04 2.133038750922e-04 0.0 
2.133038750922e-04 8.649921694219e-04 0.0 
0.0 0.0 0.0 
-4.919286205896e-05 -2.719832073307e-05 0.0 
-2.719832073307e-05 8.328369684252e-05 0.0 
0.0 0.0 0.0 
3.530773401961e-05 2.014624486317e-04 0.0 
2.014624486317e-04 1.329668269724e-03 0.0 
0.0 0.0 0.0 
-1.348986005117e-04 2.902234257177e-04 0.0 
2.902234257177e-04 2.220969021981e-03 0.0 
0.0 0.0 0.0 
1.119799517697e-04 -9.992651958680e-06 0.0 
-9.992651958680e-06 3.478634431766e-04 0.0 
0.0 0.0 0.0 
0.0 2.227601314836e-04 0.0 
2.227601314836e-04 1.356372920007e-03 0.0 
0.0 0.0 0.0 
1.408827498230e-04 6.928685758172e-05 0.0 
6.928685758172e-05 8.164530894501e-04 0.0 
0.0 0.0 0.0 
-7.712165472573e-06 2.877053266063e-04 0.0 
2.877053266063e-04 1.142473640158e-03 0.0 
0.0 0.0 0.0 
-2.060941986768e-04 2.395448386446e-04 0.0 
2.395448386446e-04 1.961216189013e-03 0.0 
0.0 0.0 0.0 
1.615472757825e-04 1.519482627409e-04 0.0 
1.519482627409e-04 8.414059537194e-04 0.0 
0.0 0.0 0.0 
1.492466425745e-04 3.711606263595e-05 0.0 
3.711606263595e-05 6.764416368281e-04 0.0 
0.0 0.0 0.0 
1.597661641171e-04 1.227241496174e-04 0.0 
1.227241496174e-04 8.643059596862e-04 0.0 
0.0 0.0 0.0 
-2.145267503244e-04 2.369123446984e-04 0.0 
2.369123446984e-04 2.127390104607e-03 0.0 
0.0 0.0 0.0 
-4.898517990981e-05 3.089116218889e-04 0.0 
3.089116218889e-04 1.366337180879e-03 0.0 
0.0 0.0 0.0 
1.436925146883e-04 2.497701238634e-04 0.0 
2.497701238634e-04 1.137265268466e-03 0.0 
0.0 0.0 0.0 
-1.369723422828e-04 5.818718519192e-06 0.0 
5.818718519192e-06 2.175588972838e-03 0.0 
0.0 0.0 0.0 
1.209557886657e-04 -1.098115395181e-05 0.0 
-1.098115395181e-05 5.175667997988e-04 0.0 
0.0 0.0 0.0 
1.668350036945e-04 1.980532613827e-04 0.0 
1.980532613827e-04 9.857546072480e-04 0.0 
0.0 0.0 0.0 
1.165848072193e-04 -2.043445910072e-05 0.0 
-2.043445910072e-05 4.080324909730e-04 0.0 
0.0 0.0 0.0 
1.263612352456e-04 3.424853196747e-05 0.0 
3.424853196747e-05 7.626025945562e-04 0.0 
0.0 0.0 0.0 
-1.074745509491e-04 -1.059864351405e-05 0.0 
-1.059864351405e-05 6.188012052832e-05 0.0 
0.0 0.0 0.0 
6.141011268435e-05 1.703328709288e-04 0.0 
1.703328709288e-04 6.990024615490e-04 0.0 
0.0 0.0 0.0 
1.120236949865e-04 -1.990144000654e-05 0.0 
-1.990144000654e-05 3.890818689045e-04 0.0 
0.0 0.0 0.0 
1.286286371418e-04 6.789522058067e-06 0.0 
6.789522058067e-06 5.677846275587e-04 0.0 
0.0 0.0 0.0 
1.307082862305e-04 2.375397212273e-04 0.0 
2.375397212273e-04 9.517983900484e-04 0.0 
0.0 0.0 0.0 
1.565110859030e-04 8.445583512588e-05 0.0 
8.445583512588e-05 8.141331374230e-04 0.0 
0.0 0.0 0.0 
-1.933703302929e-04 4.347308762445e-05 0.0 
4.347308762445e-05 2.192730893005e-03 0.0 
0.0 0.0 0.0 
9.707605604059e-05 -3.205387858559e-05 0.0 
-3.205387858559e-05 3.513820555272e-04 0.0 
0.0 0.0 0.0 
0.0 2.042667563263e-04 0.0 
2.042667563263e-04 1.339353901482e-03 0.0 
0.0 0.0 0.0 
-2.528097897081e-05 3.245407981938e-04 0.0 
3.245407981938e-04 1.526670477163e-03 0.0 
0.0 0.0 0.0 
1.255070761541e-04 8.667217650254e-06 0.0 
8.667217650254e-06 5.945099790059e-04 0.0 
0.0 0.0 0.0 
-3.541316896394e-07 3.139034887050e-04 0.0 
3.139034887050e-04 1.420942916364e-03 0.0 
0.0 0.0 0.0 
1.182734491019e-04 -5.110098137997e-06 0.0 
-5.110098137997e-06 5.696131777146e-04 0.0 
0.0 0.0 0.0 
-6.809204430525e-05 -1.086823600502e-05 0.0 
-1.086823600502e-05 4.824233254608e-05 0.0 
0.0 0.0 0.0 
-2.262055421254e-04 2.422684333371e-04 0.0 
2.422684333371e-04 2.032747195704e-03 0.0 
0.0 0.0 0.0 
9.763469601620e-05 1.057034186169e-07 0.0 
1.057034186169e-07 4.633599268287e-04 0.0 
0.0 0.0 0.0 
-5.759875220002e-06 -6.625872123267e-06 0.0 
-6.625872123267e-06 1.992117750937e-05 0.0 
0.0 0.0 0.0 
1.192491943847e-04 3.552746121670e-06 0.0 
3.552746121670e-06 5.591428685561e-04 0.0 
0.0 0.0 0.0 
1.448944261708e-04 9.963448104524e-05 0.0 
9.963448104524e-05 8.880440726640e-04 0.0 
0.0 0.0 0.0 
-8.979414899080e-05 5.882230052724e-05 0.0 
5.882230052724e-05 2.384686396376e-03 0.0 
0.0 0.0 0.0 
1.658408999243e-04 1.041454310794e-04 0.0 
1.041454310794e-04 7.923117539643e-04 0.0 
0.0 0.0 0.0 
1.787247334977e-04 1.170217470231e-04 0.0 
1.170217470231e-04 8.024440225662e-04 0.0 
0.0 0.0 0.0 
-2.564296688600e-04 2.067258027622e-04 0.0 
2.067258027622e-04 1.981732610812e-03 0.0 
0.0 0.0 0.0 
-1.932476222914e-04 1.548082056419e-05 0.0 
1.548082056419e-05 2.035688732302e-03 0.0 
0.0 0.0 0.0 
-4.990948782813e-05 2.501807703099e-04 0.0 
2.501807703099e-04 2.371261429989e-03 0.0 
0.0 0.0 0.0 
2.299271168482e-05 2.990790802249e-04 0.0 
2.990790802249e-04 1.315499714873e-03 0.0 
0.0 0.0 0.0 
-1.023785341447e-05 -5.588065711435e-06 0.0 
-5.588065711435e-06 2.049440590124e-05 0.0 
0.0 0.0 0.0 
2.645327953954e-05 -4.359849439746e-05 0.0 
-4.359849439746e-05 1.856223189902e-04 0.0 
0.0 0.0 0.0 
-4.261132622896e-05 -2.756557434856e-05 0.0 
-2.756557434856e-05 7.929345303892e-05 0.0 
0.0 0.0 0.0 
7.925416614474e-05 -3.972599912631e-05 0.0 
-3.972599912631e-05 3.241567122672e-04 0.0 
0.0 0.0 0.0 
-1.576786386615e-05 3.640505966721e-04 0.0 
3.640505966721e-04 1.755031727239e-03 0.0 
0.0 0.0 0.0 
-1.045962395269e-04 5.370203953975e-05 0.0 
5.370203953975e-05 2.385352286623e-03 0.0 
0.0 0.0 0.0 
1.090736655598e-04 8.574680255861e-05 0.0 
8.574680255861e-05 9.678282577319e-04 0.0 
0.0 0.0 0.0 
8.873203516546e-05 -3.273815453905e-05 0.0 
-3.273815453905e-05 3.672406295487e-04 0.0 
0.0 0.0 0.0 
1.172294288088e-04 2.239859294971e-05 0.0 
2.239859294971e-05 7.645695824796e-04 0.0 
0.0 0.0 0.0 
1.134458536298e-04 1.572212873439e-04 0.0 
1.572212873439e-04 1.075776271370e-03 0.0 
0.0 0.0 0.0 
2.259515134195e-05 7.355051913298e-06 0.0 
7.355051913298e-06 2.664247710902e-04 0.0 
0.0 0.0 0.0 
9.545316949922e-05 -1.011725509066e-05 0.0 
-1.011725509066e-05 4.635439676515e-04 0.0 
0.0 0.0 0.0 
8.407696776191e-05 7.398852253866e-07 0.0 
7.398852253866e-07 3.765310462676e-04 0.0 
0.0 0.0 0.0 
3.012664110713e-05 1.806504850138e-04 0.0 
1.806504850138e-04 1.311630240399e-03 0.0 
0.0 0.0 0.0 
0.0 1.827782796361e-04 0.0 
1.827782796361e-04 1.320000552355e-03 0.0 
0.0 0.0 0.0 
1.019323857510e-04 -7.136099686118e-06 0.0 
-7.136099686118e-06 5.200806127554e-04 0.0 
0.0 0.0 0.0 
1.166803330142e-04 -2.684723006860e-06 0.0 
-2.684723006860e-06 5.962939717026e-04 0.0 
0.0 0.0 0.0 
1.594627251127e-04 5.183915148450e-05 0.0 
5.183915148450e-05 6.976539694938e-04 0.0 
0.0 0.0 0.0 
1.047231315598e-04 1.819272851615e-04 0.0 
1.819272851615e-04 1.136522109960e-03 0.0 
0.0 0.0 0.0 
4.035934258462e-05 -2.796441126184e-05 0.0 
-2.796441126184e-05 2.024882456391e-04 0.0 
0.0 0.0 0.0 
1.223729973368e-04 1.349243347117e-04 0.0 
1.349243347117e-04 1.018299063661e-03 0.0 
0.0 0.0 0.0 
1.398270068842e-05 -1.484551184110e-05 0.0 
-1.484551184110e-05 1.061313687958e-04 0.0 
0.0 0.0 0.0 
1.117542679969e-04 -1.034047833268e-05 0.0 
-1.034047833268e-05 5.345841405406e-04 0.0 
0.0 0.0 0.0 
1.242781929411e-04 2.063551489632e-06 0.0 
2.063551489632e-06 6.058895043795e-04 0.0 
0.0 0.0 0.0 
1.719167782288e-05 -8.182250276960e-06 0.0 
-8.182250276960e-06 5.324741015533e-05 0.0 
0.0 0.0 0.0 
1.007568529316e-04 2.608795911484e-06 0.0 
2.608795911484e-06 4.911476159968e-04 0.0 
0.0 0.0 0.0 
-1.192308013116e-04 2.398284946214e-04 0.0 
2.398284946214e-04 2.299773553488e-03 0.0 
0.0 0.0 0.0 
-4.285609973786e-06 -4.825317969060e-06 0.0 
-4.825317969060e-06 1.819636984934e-05 0.0 
0.0 0.0 0.0 
-2.091630920482e-04 3.034798352112e-05 0.0 
3.034798352112e-05 2.039702731510e-03 0.0 
0.0 0.0 0.0 
-1.857110518766e-04 4.609284796066e-05 0.0 
4.609284796066e-05 2.016927057992e-03 0.0 
0.0 0.0 0.0 
1.551821435368e-04 1.473185742401e-04 0.0 
1.473185742401e-04 9.270738918969e-04 0.0 
0.0 0.0 0.0 
8.158360999322e-05 -7.958481004422e-06 0.0 
-7.958481004422e-06 3.762111783483e-04 0.0 
0.0 0.0 0.0 
1.170234693924e-04 -1.159970736640e-05 0.0 
-1.159970736640e-05 3.686530372757e-04 0.0 
0.0 0.0 0.0 
-2.944246705550e-06 1.351995676302e-04 0.0 
1.351995676302e-04 4.974562117421e-04 0.0 
0.0 0.0 0.0 
7.680194844228e-05 8.893606655681e-05 0.0 
8.893606655681e-05 1.072378727920e-03 0.0 
0.0 0.0 0.0 
1.020933067108e-05 3.988799816930e-04 0.0 
3.988799816930e-04 1.756828095177e-03 0.0 
0.0 0.0 0.0 
-1.424733133772e-04 8.097665906583e-05 0.0 
8.097665906583e-05 2.353345691890e-03 0.0 
0.0 0.0 0.0 
-1.289868606225e-05 2.038486670171e-04 0.0 
2.038486670171e-04 7.768735446818e-04 0.0 
0.0 0.0 0.0 
2.368255713314e-06 -2.415420387427e-05 0.0 
-2.415420387427e-05 1.277103675619e-04 0.0 
0.0 0.0 0.0 
-1.137087869679e-04 3.060606347318e-04 0.0 
3.060606347318e-04 1.544106312304e-03 0.0 
0.0 0.0 0.0 
-1.606859844142e-04 1.035729670170e-06 0.0 
1.035729670170e-06 2.026969254676e-03 0.0 
0.0 0.0 0.0 
-1.449182697594e-04 -4.802360539469e-07 0.0 
-4.802360539469e-07 2.019713288048e-03 0.0 
0.0 0.0 0.0 
1.741654771736e-06 -5.611347621242e-06 0.0 
-5.611347621242e-06 1.709200984812e-05 0.0 
0.0 0.0 0.0 
1.399436699479e-05 -1.054069674047e-05 0.0 
-1.054069674047e-05 5.461570615073e-05 0.0 
0.0 0.0 0.0 
2.888961893754e-05 -8.241706017142e-06 0.0 
-8.241706017142e-06 1.014679759135e-04 0.0 
0.0 0.0 0.0 
6.840335961589e-05 -2.486598150078e-05 0.0 
-2.486598150078e-05 2.789285848448e-04 0.0 
0.0 0.0 0.0 
1.078461262471e-05 -7.051774688753e-06 0.0 
-7.051774688753e-06 5.407823871684e-05 0.0 
0.0 0.0 0.0 
1.044014061322e-04 3.662077381342e-06 0.0 
3.662077381342e-06 5.521242523592e-04 0.0 
0.0 0.0 0.0 
-1.045005003054e-04 -9.705339047573e-06 0.0 
-9.705339047573e-06 6.358816395591e-05 0.0 
0.0 0.0 0.0 
8.561470148383e-05 -2.141741391088e-05 0.0 
-2.141741391088e-05 3.336896762665e-04 0.0 
0.0 0.0 0.0 
-1.235663666774e-04 1.233685056778e-05 0.0 
1.233685056778e-05 2.226234370642e-03 0.0 
0.0 0.0 0.0 
-1.576055142505e-04 1.231762964823e-05 0.0 
1.231762964823e-05 2.019355384022e-03 0.0 
0.0 0.0 0.0 
-3.182526880441e-05 3.733129063831e-04 0.0 
3.733129063831e-04 1.845439412571e-03 0.0 
0.0 0.0 0.0 
1.464380879466e-04 8.102108740420e-05 0.0 
8.102108740420e-05 8.389134440367e-04 0.0 
0.0 0.0 0.0 
-1.294863283522e-04 7.715156559031e-06 0.0 
7.715156559031e-06 2.173317653916e-03 0.0 
0.0 0.0 0.0 
8.681208330907e-05 4.659368838382e-06 0.0 
4.659368838382e-06 4.037928846483e-04 0.0 
0.0 0.0 0.0 
2.031688507165e-05 -9.416117138179e-06 0.0 
-9.416117138179e-06 1.029493978684e-04 0.0 
0.0 0.0 0.0 
0.0 1.263458717412e-04 0.0 
1.263458717412e-04 2.488371180957e-03 0.0 
0.0 0.0 0.0 
-3.856107150724e-05 1.422713625811e-04 0.0 
1.422713625811e-04 2.483025434068e-03 0.0 
0.0 0.0 0.0 
-1.795271127397e-04 3.778166003644e-05 0.0 
3.778166003644e-05 2.157309631185e-03 0.0 
0.0 0.0 0.0 
-1.714199733631e-04 2.772437451857e-06 0.0 
2.772437451857e-06 2.028721809589e-03 0.0 
0.0 0.0 0.0 
8.692023977996e-05 -9.543521177070e-06 0.0 
-9.543521177070e-06 4.093891160133e-04 0.0 
0.0 0.0 0.0 
-3.154768735669e-05 9.704286582908e-05 0.0 
9.704286582908e-05 2.499049879799e-03 0.0 
0.0 0.0 0.0 
7.320896215246e-05 -3.783008276345e-05 0.0 
-3.783008276345e-05 3.121592086466e-04 0.0 
0.0 0.0 0.0 
-1.683780674959e-04 2.380591055450e-05 0.0 
2.380591055450e-05 2.018087920446e-03 0.0 
0.0 0.0 0.0 
-1.783654659915e-04 8.339156080417e-06 0.0 
8.339156080417e-06 2.031416155652e-03 0.0 
0.0 0.0 0.0 
-1.503108198100e-04 2.867488659510e-04 0.0 
2.867488659510e-04 1.617158110620e-03 0.0 
0.0 0.0 0.0 
0.0 2.839483542731e-04 0.0 
2.839483542731e-04 2.374040132334e-03 0.0 
0.0 0.0 0.0 
-3.640308759389e-05 1.194707681755e-04 0.0 
1.194707681755e-04 2.492538846361e-03 0.0 
0.0 0.0 0.0 
6.246770454910e-06 -9.234281638362e-06 0.0 
-9.234281638362e-06 5.570207206862e-05 0.0 
0.0 0.0 0.0 
6.241940625262e-06 -4.073088786017e-06 0.0 
-4.073088786017e-06 1.555615280435e-05 0.0 
0.0 0.0 0.0 
1.636114310233e-05 -2.463853750816e-05 0.0 
-2.463853750816e-05 1.511808938996e-04 0.0 
0.0 0.0 0.0 
1.358119503476e-04 1.470398502079e-05 0.0 
1.470398502079e-05 6.039451759505e-04 0.0 
0.0 0.0 0.0 
4.688934070685e-05 1.589506359172e-05 0.0 
1.589506359172e-05 1.109933428859e-03 0.0 
0.0 0.0 0.0 
-1.618422572993e-04 -1.203084933643e-05 0.0 
-1.203084933643e-05 8.422048391576e-05 0.0 
0.0 0.0 0.0 
-9.648631671866e-05 3.502822444466e-06 0.0 
3.502822444466e-06 2.341419286076e-03 0.0 
0.0 0.0 0.0 
-9.263975054963e-05 -1.128915446243e-05 0.0 
-1.128915446243e-05 5.925085971925e-05 0.0 
0.0 0.0 0.0 
1.703127826245e-04 1.343886906644e-04 0.0 
1.343886906644e-04 8.758640405229e-04 0.0 
0.0 0.0 0.0 
-1.265863141112e-04 -1.103524010201e-05 0.0 
-1.103524010201e-05 7.025466568678e-05 0.0 
0.0 0.0 0.0 
-1.444727186367e-04 -1.218193891032e-05 0.0 
-1.218193891032e-05 7.745552847815e-05 0.0 
0.0 0.0 0.0 
1.725121481235e-04 1.116480159480e-04 0.0 
1.116480159480e-04 8.193962132947e-04 0.0 
0.0 0.0 0.0 
5.938387786730e-05 4.142013065486e-05 0.0 
4.142013065486e-05 1.074110884320e-03 0.0 
0.0 0.0 0.0 
-1.299208716870e-04 6.717054096162e-06 0.0 
6.717054096162e-06 2.221643294890e-03 0.0 
0.0 0.0 0.0 
-7.564761263379e-05 3.105663200391e-04 0.0 
3.105663200391e-04 1.479872064219e-03 0.0 
0.0 0.0 0.0 
2.034397181783e-05 -6.503682243844e-06 0.0 
-6.503682243844e-06 5.162422751703e-05 0.0 
0.0 0.0 0.0 
1.112515115125e-04 2.109013946218e-05 0.0 
2.109013946218e-05 7.931152639107e-04 0.0 
0.0 0.0 0.0 
0.0 3.702701093328e-05 0.0 
3.702701093328e-05 2.507023511283e-03 0.0 
0.0 0.0 0.0 
-2.645202974827e-05 4.126607482068e-05 0.0 
4.126607482068e-05 2.508200327429e-03 0.0 
0.0 0.0 0.0 
-1.508611972574e-04 5.386892591350e-06 0.0 
5.386892591350e-06 2.018843373830e-03 0.0 
0.0 0.0 0.0 
1.655233885136e-04 1.579591850335e-04 0.0 
1.579591850335e-04 9.360675373298e-04 0.0 
0.0 0.0 0.0 
0.0 1.046600241847e-04 0.0 
1.046600241847e-04 2.496986437168e-03 0.0 
0.0 0.0 0.0 
9.053161723549e-05 2.931335073364e-04 0.0 
2.931335073364e-04 1.317037252083e-03 0.0 
0.0 0.0 0.0 
2.099473345951e-05 -4.676773218691e-06 0.0 
-4.676773218691e-06 9.999481683987e-05 0.0 
0.0 0.0 0.0 
1.458021043010e-05 -5.433618277784e-06 0.0 
-5.433618277784e-06 5.230615502638e-05 0.0 
0.0 0.0 0.0 
2.130566244607e-05 -5.217127535441e-06 0.0 
-5.217127535441e-06 5.064447918524e-05 0.0 
0.0 0.0 0.0 
9.582148438980e-05 4.619955547023e-06 0.0 
4.619955547023e-06 4.617567498533e-04 0.0 
0.0 0.0 0.0 
1.851707358180e-05 3.563366590222e-05 0.0 
3.563366590222e-05 1.241856512330e-03 0.0 
0.0 0.0 0.0 
-4.299514352868e-05 -2.854875409482e-06 0.0 
-2.854875409482e-06 2.463150063252e-03 0.0 
0.0 0.0 0.0 
1.476295915293e-05 -1.090311445841e-06 0.0 
-1.090311445841e-06 1.080710944823e-05 0.0 
0.0 0.0 0.0 
1.045696706303e-04 -5.475871505779e-06 0.0 
-5.475871505779e-06 5.521374311357e-04 0.0 
0.0 0.0 0.0 
0.0 3.128574170215e-05 0.0 
3.128574170215e-05 1.244693525875e-03 0.0 
0.0 0.0 0.0 
2.129760526115e-05 5.082022840439e-05 0.0 
5.082022840439e-05 1.243297864628e-03 0.0 
0.0 0.0 0.0 
3.429800406862e-05 1.615259385481e-04 0.0 
1.615259385481e-04 1.296195109842e-03 0.0 
0.0 0.0 0.0 
-1.092892887568e-04 9.512513616560e-06 0.0 
9.512513616560e-06 2.289087908898e-03 0.0 
0.0 0.0 0.0 
-8.652129768738e-05 -3.621212579990e-06 0.0 
-3.621212579990e-06 2.367482977417e-03 0.0 
0.0 0.0 0.0 
0.0 4.192609773081e-05 0.0 
4.192609773081e-05 1.239976834083e-03 0.0 
0.0 0.0 0.0 
0.0 5.396828036547e-05 0.0 
5.396828036547e-05 1.246762009088e-03 0.0 
0.0 0.0 0.0 
-9.421453964564e-05 1.047358353234e-05 0.0 
1.047358353234e-05 2.341664449044e-03 0.0 
0.0 0.0 0.0 
1.126536190310e-05 9.628828714313e-07 0.0 
9.628828714313e-07 9.607486598284e-06 0.0 
0.0 0.0 0.0 
-1.423749855088e-04 -9.790347789594e-07 0.0 
-9.790347789594e-07 2.017200211527e-03 0.0 
0.0 0.0 0.0 
-1.475288510784e-04 2.134330379078e-06 0.0 
2.134330379078e-06 2.021301114296e-03 0.0 
0.0 0.0 0.0 
1.081945079351e-05 -2.547822694904e-06 0.0 
-2.547822694904e-06 1.363749059968e-05 0.0 
0.0 0.0 0.0 
0.0 9.859104810703e-05 0.0 
9.859104810703e-05 1.266412582017e-03 0.0 
0.0 0.0 0.0 
2.972413485525e-05 1.428694674003e-04 0.0 
1.428694674003e-04 1.282355827700e-03 0.0 
0.0 0.0 0.0 
0.0 1.288683571792e-04 0.0 
1.288683571792e-04 1.275946554956e-03 0.0 
0.0 0.0 0.0 
4.995191890345e-06 -1.218906356674e-06 0.0 
-1.218906356674e-06 1.402443098053e-05 0.0 
0.0 0.0 0.0 
8.227952148498e-07 -3.139428391085e-06 0.0 
-3.139428391085e-06 1.628470035886e-05 0.0 
0.0 0.0 0.0 
0.0 1.650066885768e-04 0.0 
1.650066885768e-04 1.303608553933e-03 0.0 
0.0 0.0 0.0 
0.0 1.459962481513e-04 0.0 
1.459962481513e-04 1.289374324206e-03 0.0 
0.0 0.0 0.0 
-1.162351921122e-04 -4.708517207606e-06 0.0 
-4.708517207606e-06 2.261012614690e-03 0.0 
0.0 0.0 0.0 
-1.410159802732e-04 6.704915041944e-07 0.0 
6.704915041944e-07 2.015444601796e-03 0.0 
0.0 0.0 0.0 
-1.023597504156e-04 -4.165170414685e-06 0.0 
-4.165170414685e-06 2.315421010466e-03 0.0 
0.0 0.0 0.0 
-1.326247396449e-04 -5.352052797957e-06 0.0 
-5.352052797957e-06 2.144354346138e-03 0.0 
0.0 0.0 0.0 
-1.412804177366e-04 4.990545436924e-08 0.0 
4.990545436924e-08 2.015260099643e-03 0.0 
0.0 0.0 0.0 
-2.064141245206e-05 -4.793552540472e-06 0.0 
-4.793552540472e-06 2.518005048779e-05 0.0 
0.0 0.0 0.0 
-4.563402682856e-05 -8.431850522420e-06 0.0 
-8.431850522420e-06 3.746006727923e-05 0.0 
0.0 0.0 0.0 
-5.675839006170e-05 -8.608311103719e-06 0.0 
-8.608311103719e-06 4.035783386724e-05 0.0 
0.0 0.0 0.0 
-7.354869228204e-05 -9.751390820210e-06 0.0 
-9.751390820210e-06 4.780253290604e-05 0.0 
0.0 0.0 0.0 
1.065082573137e-04 5.694079751492e-06 0.0 
5.694079751492e-06 5.838892527472e-04 0.0 
0.0 0.0 0.0 
1.027235397826e-04 4.939126786472e-06 0.0 
4.939126786472e-06 5.214283719013e-04 0.0 
0.0 0.0 0.0 
-3.125141233573e-05 -8.239466809848e-06 0.0 
-8.239466809848e-06 3.244371687172e-05 0.0 
0.0 0.0 0.0 
1.048461001119e-04 6.194046195361e-06 0.0 
6.194046195361e-06 7.774049849116e-04 0.0 
0.0 0.0 0.0 
-4.507789153041e-05 -9.853480919499e-06 0.0 
-9.853480919499e-06 3.782487600490e-05 0.0 
0.0 0.0 0.0 
0.0 2.269668102844e-04 0.0 
2.269668102844e-04 2.430039760092e-03 0.0 
0.0 0.0 0.0 
0.0 8.623966981350e-05 0.0 
8.623966981350e-05 2.501048781237e-03 0.0 
0.0 0.0 0.0 
0.0 1.499831053490e-04 0.0 
1.499831053490e-04 2.477295015612e-03 0.0 
0.0 0.0 0.0 
4.070191301353e-05 5.076027914737e-06 0.0 
5.076027914737e-06 1.777005232284e-04 0.0 
0.0 0.0 0.0 
7.672033033668e-05 4.627283217022e-06 0.0 
4.627283217022e-06 3.466736941971e-04 0.0 
0.0 0.0 0.0 
0.0 6.719938761067e-05 0.0 
6.719938761067e-05 2.502386627412e-03 0.0 
0.0 0.0 0.0 
7.331251231779e-05 5.636359297976e-06 0.0 
5.636359297976e-06 9.960693265474e-04 0.0 
0.0 0.0 0.0 
0.0 5.235205540145e-05 0.0 
5.235205540145e-05 2.510230796893e-03 0.0 
0.0 0.0 0.0 
5.535783826938e-05 6.048457723479e-06 0.0 
6.048457723479e-06 1.073860026339e-03 0.0 
0.0 0.0 0.0 
3.464165339717e-05 7.556178617132e-06 0.0 
7.556178617132e-06 1.154213130367e-03 0.0 
0.0 0.0 0.0 
9.925984740655e-05 -6.841910264115e-06 0.0 
-6.841910264115e-06 4.911511339223e-04 0.0 
0.0 0.0 0.0 
-3.355263605043e-05 7.687979942219e-05 0.0 
7.687979942219e-05 2.501747855642e-03 0.0 
0.0 0.0 0.0 
-2.615515097437e-05 6.503188299496e-05 0.0 
6.503188299496e-05 2.505356899572e-03 0.0 
0.0 0.0 0.0 
6.352098473039e-05 2.321774530426e-06 0.0 
2.321774530426e-06 1.030730013738e-03 0.0 
0.0 0.0 0.0 
4.477331495178e-05 3.453077155452e-06 0.0 
3.453077155452e-06 1.110639386237e-03 0.0 
0.0 0.0 0.0 
9.972208199738e-05 1.644194762191e-05 0.0 
1.644194762191e-05 8.521472400589e-04 0.0 
0.0 0.0 0.0 
-8.077646074178e-05 -1.166081363614e-05 0.0 
-1.166081363614e-05 5.423238601621e-05 0.0 
0.0 0.0 0.0 
1.047517869825e-04 -1.379342473271e-05 0.0 
-1.379342473271e-05 5.005754406537e-04 0.0 
0.0 0.0 0.0 
2.044838523840e-06 -1.195131204831e-05 0.0 
-1.195131204831e-05 5.655120127113e-05 0.0 
0.0 0.0 0.0 
6.982274898415e-05 7.902019033618e-05 0.0 
7.902019033618e-05 1.073399883049e-03 0.0 
0.0 0.0 0.0 
1.209798657122e-04 9.404009603679e-07 0.0 
9.404009603679e-07 5.328231066848e-04 0.0 
0.0 0.0 0.0 
8.678168185550e-05 4.232644774826e-05 0.0 
4.232644774826e-05 9.655716942736e-04 0.0 
0.0 0.0 0.0 
5.606653271117e-05 -4.106089229275e-05 0.0 
-4.106089229275e-05 2.579253738848e-04 0.0 
0.0 0.0 0.0 
1.580339342677e-05 -1.535701461587e-05 0.0 
-1.535701461587e-05 1.031848649671e-04 0.0 
0.0 0.0 0.0 
6.681550413190e-05 3.679022002460e-05 0.0 
3.679022002460e-05 1.042044045953e-03 0.0 
0.0 0.0 0.0 
1.118618555522e-04 -7.449001562072e-06 0.0 
-7.449001562072e-06 5.609569908744e-04 0.0 
0.0 0.0 0.0 
9.165910783659e-05 1.677786359882e-06 0.0 
1.677786359882e-06 4.332230858874e-04 0.0 
0.0 0.0 0.0 
8.300714892218e-05 3.144481168919e-05 0.0 
3.144481168919e-05 9.673228701561e-04 0.0 
0.0 0.0 0.0 
-6.609721942497e-05 3.123635624845e-05 0.0 
3.123635624845e-05 2.412103777534e-03 0.0 
0.0 0.0 0.0 
9.128506350220e-05 -7.597250805153e-06 0.0 
-7.597250805153e-06 4.330476284231e-04 0.0 
0.0 0.0 0.0 
1.265089951545e-04 1.049661787767e-04 0.0 
1.049661787767e-04 9.421554580837e-04 0.0 
0.0 0.0 0.0 
1.359590553440e-04 4.757325888700e-05 0.0 
4.757325888700e-05 7.759443725015e-04 0.0 
0.0 0.0 0.0 
1.038972723915e-04 2.771769772450e-05 0.0 
2.771769772450e-05 8.503841210923e-04 0.0 
0.0 0.0 0.0 
9.627682961133e-05 2.333513527043e-05 0.0 
2.333513527043e-05 8.819750453706e-04 0.0 
0.0 0.0 0.0 
1.558775402302e-04 1.086340501696e-04 0.0 
1.086340501696e-04 5.640039603889e-04 0.0 
0.0 0.0 0.0 
-9.029349642842e-05 2.998747356801e-04 0.0 
2.998747356801e-04 1.431839274805e-03 0.0 
0.0 0.0 0.0 
1.025193863604e-04 2.268070534191e-04 0.0 
2.268070534191e-04 9.808169644625e-04 0.0 
0.0 0.0 0.0 
1.188382420874e-04 3.272111198569e-05 0.0 
3.272111198569e-05 7.912778119246e-04 0.0 
0.0 0.0 0.0 
7.460764146261e-05 2.518416245163e-05 0.0 
2.518416245163e-05 9.996761034055e-04 0.0 
0.0 0.0 0.0 
8.884748124238e-05 1.882353841081e-05 0.0 
1.882353841081e-05 9.149048217518e-04 0.0 
0.0 0.0 0.0 
6.944680900434e-05 -3.004327176247e-05 0.0 
-3.004327176247e-05 2.687478676195e-04 0.0 
0.0 0.0 0.0 
-7.386957428435e-05 5.325473160869e-05 0.0 
5.325473160869e-05 2.409869721805e-03 0.0 
0.0 0.0 0.0 
-9.507795629748e-05 4.405496984454e-05 0.0 
4.405496984454e-05 2.362209067919e-03 0.0 
0.0 0.0 0.0 
-1.424445752731e-04 1.019429116525e-05 0.0 
1.019429116525e-05 2.103663631223e-03 0.0 
0.0 0.0 0.0 
1.184407046793e-04 4.345964728916e-05 0.0 
4.345964728916e-05 8.326775655654e-04 0.0 
0.0 0.0 0.0 
1.113063302285e-04 3.052917836669e-05 0.0 
3.052917836669e-05 8.205769882017e-04 0.0 
0.0 0.0 0.0 
-7.602610556345e-05 2.587127119380e-05 0.0 
2.587127119380e-05 2.413813201491e-03 0.0 
0.0 0.0 0.0 
-8.286680184166e-05 3.914562944618e-05 0.0 
3.914562944618e-05 2.388065814955e-03 0.0 
0.0 0.0 0.0 
1.313356097499e-04 3.567711989714e-05 0.0 
3.567711989714e-05 7.510192662590e-04 0.0 
0.0 0.0 0.0 
5.767280245128e-05 2.916622588802e-05 0.0 
2.916622588802e-05 1.075216042176e-03 0.0 
0.0 0.0 0.0 
-1.211058927013e-04 8.321717081314e-05 0.0 
8.321717081314e-05 2.353007670566e-03 0.0 
0.0 0.0 0.0 
8.629018340023e-05 7.798659618221e-06 0.0 
7.798659618221e-06 9.148944484363e-04 0.0 
0.0 0.0 0.0 
5.757118078664e-05 7.045218060759e-05 0.0 
7.045218060759e-05 1.108151684091e-03 0.0 
0.0 0.0 0.0 
-8.577895934081e-05 4.826215296507e-05 0.0 
4.826215296507e-05 2.410778199039e-03 0.0 
0.0 0.0 0.0 
-1.373493887857e-04 2.967893975778e-05 0.0 
2.967893975778e-05 2.283990373637e-03 0.0 
0.0 0.0 0.0 
1.305205288156e-04 8.524731422473e-05 0.0 
8.524731422473e-05 8.903028244587e-04 0.0 
0.0 0.0 0.0 
6.072453846540e-05 -1.264140151048e-05 0.0 
-1.264140151048e-05 2.645652336903e-04 0.0 
0.0 0.0 0.0 
6.053816853879e-05 -3.080416800443e-05 0.0 
-3.080416800443e-05 2.485110455355e-04 0.0 
0.0 0.0 0.0 
4.993287027855e-06 -4.025226227761e-05 0.0 
-4.025226227761e-05 1.298904394971e-04 0.0 
0.0 0.0 0.0 
-8.085315972450e-05 -2.685953040731e-05 0.0 
-2.685953040731e-05 9.358422368533e-05 0.0 
0.0 0.0 0.0 
-9.090067193995e-05 3.318715891888e-05 0.0 
3.318715891888e-05 2.388664421867e-03 0.0 
0.0 0.0 0.0 
6.720327134402e-05 3.012184786199e-05 0.0 
3.012184786199e-05 1.029739970557e-03 0.0 
0.0 0.0 0.0 
-6.822138975970e-05 -2.628081412975e-05 0.0 
-2.628081412975e-05 8.671022642437e-05 0.0 
0.0 0.0 0.0 
-1.147711808752e-04 3.268603999323e-04 0.0 
3.268603999323e-04 2.122011274465e-03 0.0 
0.0 0.0 0.0 
-1.445045278480e-04 1.354708582538e-05 0.0 
1.354708582538e-05 2.134791495272e-03 0.0 
0.0 0.0 0.0 
9.129146010123e-05 3.593471416487e-05 0.0 
3.593471416487e-05 9.372120073516e-04 0.0 
0.0 0.0 0.0 
8.329607145585e-05 2.711585872217e-05 0.0 
2.711585872217e-05 9.543657231428e-04 0.0 
0.0 0.0 0.0 
1.203714249864e-04 -1.212019457928e-05 0.0 
-1.212019457928e-05 3.894120203671e-04 0.0 
0.0 0.0 0.0 
8.136572827788e-05 1.586555868364e-05 0.0 
1.586555868364e-05 9.559934488914e-04 0.0 
0.0 0.0 0.0 
-1.480105591486e-04 -2.201359143800e-07 0.0 
-2.201359143800e-07 2.103433090069e-03 0.0 
0.0 0.0 0.0 
1.409292380663e-04 2.064060651118e-04 0.0 
2.064060651118e-04 1.062450592629e-03 0.0 
0.0 0.0 0.0 
4.934146808488e-05 7.592858083061e-05 0.0 
7.592858083061e-05 1.140974994257e-03 0.0 
0.0 0.0 0.0 
5.861621560599e-05 -5.247217640493e-06 0.0 
-5.247217640493e-06 2.552162458644e-04 0.0 
0.0 0.0 0.0 
6.081146240433e-05 9.526338012282e-05 0.0 
9.526338012282e-05 1.125605582608e-03 0.0 
0.0 0.0 0.0 
-1.237028872101e-04 2.840328629037e-05 0.0 
2.840328629037e-05 2.311991236149e-03 0.0 
0.0 0.0 0.0 
6.626662826603e-05 -7.926165557966e-06 0.0 
-7.926165557966e-06 2.882678368403e-04 0.0 
0.0 0.0 0.0 
7.436708582342e-05 -4.341094709288e-05 0.0 
-4.341094709288e-05 3.039073491842e-04 0.0 
0.0 0.0 0.0 
1.128529682042e-04 7.697266202711e-06 0.0 
7.697266202711e-06 6.418094938685e-04 0.0 
0.0 0.0 0.0 
-1.461224960498e-04 3.349673799947e-05 0.0 
3.349673799947e-05 2.225558450749e-03 0.0 
0.0 0.0 0.0 
1.028651509247e-04 -1.256376354869e-05 0.0 
-1.256376354869e-05 4.143860046923e-04 0.0 
0.0 0.0 0.0 
-1.098509581261e-04 2.552165232905e-05 0.0 
2.552165232905e-05 2.339608645301e-03 0.0 
0.0 0.0 0.0 
-1.348752643587e-04 1.822734515826e-05 0.0 
1.822734515826e-05 2.256152195855e-03 0.0 
0.0 0.0 0.0 
1.221314962536e-04 1.002238354945e-05 0.0 
1.002238354945e-05 6.219422570435e-04 0.0 
0.0 0.0 0.0 
9.305958289785e-05 1.258421799353e-05 0.0 
1.258421799353e-05 8.827448308106e-04 0.0 
0.0 0.0 0.0 
8.872242938618e-05 2.095785594220e-05 0.0 
2.095785594220e-05 9.247815222819e-04 0.0 
0.0 0.0 0.0 
-1.117658528510e-04 3.468173487686e-05 0.0 
3.468173487686e-05 2.311038524705e-03 0.0 
0.0 0.0 0.0 
4.591697448997e-05 -3.005042689712e-05 0.0 
-3.005042689712e-05 2.204371906136e-04 0.0 
0.0 0.0 0.0 
1.171619071787e-04 5.211028768186e-06 0.0 
5.211028768186e-06 5.865836839363e-04 0.0 
0.0 0.0 0.0 
1.112836144359e-04 2.951460460021e-04 0.0 
2.951460460021e-04 1.295562945319e-03 0.0 
0.0 0.0 0.0 
-1.237670605262e-04 4.173682117119e-05 0.0 
4.173682117119e-05 2.336539453211e-03 0.0 
0.0 0.0 0.0 
1.128424514929e-04 3.198294774530e-07 0.0 
3.198294774530e-07 5.243216266133e-04 0.0 
0.0 0.0 0.0 
1.244576773092e-04 3.483698025685e-05 0.0 
3.483698025685e-05 7.780610013726e-04 0.0 
0.0 0.0 0.0 
7.206938268656e-05 1.014012323030e-04 0.0 
1.014012323030e-04 1.099399947089e-03 0.0 
0.0 0.0 0.0 
-1.237444495339e-04 3.559590260141e-05 0.0 
3.559590260141e-05 2.283254143435e-03 0.0 
0.0 0.0 0.0 
-4.237164111509e-05 -1.761651934288e-05 0.0 
-1.761651934288e-05 1.659080638152e-04 0.0 
0.0 0.0 0.0 
1.097052466914e-05 -3.211422819690e-05 0.0 
-3.211422819690e-05 1.234430719779e-04 0.0 
0.0 0.0 0.0 
5.773355864891e-05 1.533261957745e-05 0.0 
1.533261957745e-05 3.247410830318e-04 0.0 
0.0 0.0 0.0 
7.698294369662e-05 3.730239406640e-05 0.0 
3.730239406640e-05 9.978327178721e-04 0.0 
0.0 0.0 0.0 
-1.355242588573e-04 3.516695255050e-05 0.0 
3.516695255050e-05 2.254879042704e-03 0.0 
0.0 0.0 0.0 
1.095347210134e-04 -3.466985216094e-07 0.0 
-3.466985216094e-07 7.076863781594e-04 0.0 
0.0 0.0 0.0 
-1.496306333845e-04 2.026140732236e-05 0.0 
2.026140732236e-05 2.166360023145e-03 0.0 
0.0 0.0 0.0 
1.000662609081e-04 1.436506217850e-04 0.0 
1.436506217850e-04 1.077812372313e-03 0.0 
0.0 0.0 0.0 
1.185984873417e-04 1.103572631983e-05 0.0 
1.103572631983e-05 6.496448122699e-04 0.0 
0.0 0.0 0.0 
9.215804225926e-05 3.254891281132e-05 0.0 
3.254891281132e-05 9.229860844180e-04 0.0 
0.0 0.0 0.0 
5.814086542744e-05 -2.147746065418e-05 0.0 
-2.147746065418e-05 2.660123234290e-04 0.0 
0.0 0.0 0.0 
6.434688896761e-05 8.534147322286e-05 0.0 
8.534147322286e-05 1.108767269658e-03 0.0 
0.0 0.0 0.0 
1.144252464960e-04 -8.381533577969e-07 0.0 
-8.381533577969e-07 6.237008695233e-04 0.0 
0.0 0.0 0.0 
6.251538064572e-05 -1.708440024831e-05 0.0 
-1.708440024831e-05 2.897144922875e-04 0.0 
0.0 0.0 0.0 
1.106046812718e-04 -5.492912299673e-06 0.0 
-5.492912299673e-06 5.883765410384e-04 0.0 
0.0 0.0 0.0 
1.043472971451e-04 -8.901104209032e-06 0.0 
-8.901104209032e-06 4.395941054598e-04 0.0 
0.0 0.0 0.0 
7.838125257353e-05 -3.346330569101e-05 0.0 
-3.346330569101e-05 3.356153535434e-04 0.0 
0.0 0.0 0.0 
1.116164728545e-04 1.046678879160e-05 0.0 
1.046678879160e-05 7.055754227510e-04 0.0 
0.0 0.0 0.0 
-1.387924054841e-05 -7.746489750138e-06 0.0 
-7.746489750138e-06 2.588339709586e-05 0.0 
0.0 0.0 0.0 
-2.552213408347e-05 -8.282184029067e-06 0.0 
-8.282184029067e-06 3.092892301115e-05 0.0 
0.0 0.0 0.0 
1.053760876137e-04 1.919437227592e-05 0.0 
1.919437227592e-05 8.223527824183e-04 0.0 
0.0 0.0 0.0 
5.225251340168e-05 -2.614879366394e-05 0.0 
-2.614879366394e-05 2.431558513158e-04 0.0 
0.0 0.0 0.0 
1.101113900539e-04 3.146700114231e-05 0.0 
3.146700114231e-05 8.345688781146e-04 0.0 
0.0 0.0 0.0 
1.173435150197e-04 3.352132409021e-05 0.0 
3.352132409021e-05 8.059801895330e-04 0.0 
0.0 0.0 0.0 
1.233529381099e-04 -4.611825867852e-06 0.0 
-4.611825867852e-06 4.806593959117e-04 0.0 
0.0 0.0 0.0 
9.474923105901e-05 -2.044622493392e-05 0.0 
-2.044622493392e-05 3.129483922377e-04 0.0 
0.0 0.0 0.0 
-1.216126594844e-04 7.712473146914e-05 0.0 
7.712473146914e-05 2.379416373546e-03 0.0 
0.0 0.0 0.0 
-3.085291570137e-05 5.664083991182e-05 0.0 
5.664083991182e-05 2.165999503536e-04 0.0 
0.0 0.0 0.0 
1.052680922689e-04 -5.546647403633e-06 0.0 
-5.546647403633e-06 4.656155865665e-04 0.0 
0.0 0.0 0.0 
8.853977718704e-05 1.688585917033e-04 0.0 
1.688585917033e-04 1.135357752510e-03 0.0 
0.0 0.0 0.0 
4.763752363202e-05 -1.310467422951e-05 0.0 
-1.310467422951e-05 2.075401784205e-04 0.0 
0.0 0.0 0.0 
-1.550455052425e-04 1.766430621346e-05 0.0 
1.766430621346e-05 2.198032693836e-03 0.0 
0.0 0.0 0.0 
-1.549230860077e-04 6.199027636458e-06 0.0 
6.199027636458e-06 2.135820699327e-03 0.0 
0.0 0.0 0.0 
3.762037623445e-05 -4.136507468322e-05 0.0 
-4.136507468322e-05 2.047684238828e-04 0.0 
0.0 0.0 0.0 
8.486392195084e-05 1.099937537441e-04 0.0 
1.099937537441e-04 1.069970555423e-03 0.0 
0.0 0.0 0.0 
-1.593009947995e-04 6.261476798849e-05 0.0 
6.261476798849e-05 2.305165946890e-03 0.0 
0.0 0.0 0.0 
5.461647906757e-05 -1.660578966383e-05 0.0 
-1.660578966383e-05 2.412137012413e-04 0.0 
0.0 0.0 0.0 
-1.189710917328e-04 9.893916459443e-05 0.0 
9.893916459443e-05 2.396649377623e-03 0.0 
0.0 0.0 0.0 
-9.699052063084e-05 1.012827273737e-04 0.0 
1.012827273737e-04 2.396149782280e-03 0.0 
0.0 0.0 0.0 
6.012975293435e-05 -3.001752018718e-05 0.0 
-3.001752018718e-05 2.731964275662e-04 0.0 
0.0 0.0 0.0 
-2.290263142590e-05 2.243030326949e-04 0.0 
2.243030326949e-04 8.779434685235e-04 0.0 
0.0 0.0 0.0 
6.297590961646e-05 -3.698197138932e-05 0.0 
-3.698197138932e-05 2.808521709750e-04 0.0 
0.0 0.0 0.0 
9.611551631705e-05 2.544298614452e-05 0.0 
2.544298614452e-05 8.937634774382e-04 0.0 
0.0 0.0 0.0 
1.150314133012e-04 1.122842186694e-05 0.0 
1.122842186694e-05 6.778073492795e-04 0.0 
0.0 0.0 0.0 
-1.134613066188e-04 2.834612418809e-04 0.0 
2.834612418809e-04 2.221976350081e-03 0.0 
0.0 0.0 0.0 
-1.027823361276e-04 7.986134683540e-05 0.0 
7.986134683540e-05 2.379030238528e-03 0.0 
0.0 0.0 0.0 
1.030140146450e-04 2.879170988956e-05 0.0 
2.879170988956e-05 8.639507678285e-04 0.0 
0.0 0.0 0.0 
1.095947249139e-04 4.051039536619e-05 0.0 
4.051039536619e-05 8.621181498196e-04 0.0 
0.0 0.0 0.0 
4.914881396534e-05 -2.598396185032e-05 0.0 
-2.598396185032e-05 2.251424316317e-04 0.0 
0.0 0.0 0.0 
1.008693173443e-04 3.681618171615e-05 0.0 
3.681618171615e-05 8.919948090513e-04 0.0 
0.0 0.0 0.0 
-1.385863759279e-04 6.471528381362e-05 0.0 
6.471528381362e-05 2.304850059856e-03 0.0 
0.0 0.0 0.0 
1.106507673245e-04 9.111371151193e-07 0.0 
9.111371151193e-07 6.794318976506e-04 0.0 
0.0 0.0 0.0 
-1.501652999394e-04 2.998260726076e-05 0.0 
2.998260726076e-05 2.255531865662e-03 0.0 
0.0 0.0 0.0 
-1.416893053671e-04 6.086339839516e-05 0.0 
6.086339839516e-05 2.332560304178e-03 0.0 
0.0 0.0 0.0 
1.747669650476e-04 1.612906223234e-04 0.0 
1.612906223234e-04 7.674813514729e-04 0.0 
0.0 0.0 0.0 
-1.064505395023e-04 6.220970956236e-05 0.0 
6.220970956236e-05 2.358772619662e-03 0.0 
0.0 0.0 0.0 
1.115510621104e-04 2.896749917873e-06 0.0 
2.896749917873e-06 5.547438690519e-04 0.0 
0.0 0.0 0.0 
1.124938398398e-04 3.887105757718e-07 0.0 
3.887105757718e-07 6.513565444073e-04 0.0 
0.0 0.0 0.0 
9.530876069541e-05 -8.957221031121e-06 0.0 
-8.957221031121e-06 4.083194373155e-04 0.0 
0.0 0.0 0.0 
1.104390905149e-04 -2.419458118712e-05 0.0 
-2.419458118712e-05 4.342850769410e-04 0.0 
0.0 0.0 0.0 
-1.371741039564e-04 4.821665269841e-05 0.0 
4.821665269841e-05 2.280945025248e-03 0.0 
0.0 0.0 0.0 
1.437272321902e-04 2.177806917749e-05 0.0 
2.177806917749e-05 6.331977513372e-04 0.0 
0.0 0.0 0.0 
6.882934960029e-05 -3.253884569998e-05 0.0 
-3.253884569998e-05 3.043079004701e-04 0.0 
0.0 0.0 0.0 
1.799470441011e-05 -3.814399040840e-05 0.0 
-3.814399040840e-05 1.528678382683e-04 0.0 
0.0 0.0 0.0 
-1.549226095870e-04 4.459303974820e-05 0.0 
4.459303974820e-05 2.281428368629e-03 0.0 
0.0 0.0 0.0 
7.430371232764e-05 -2.128907339218e-05 0.0 
-2.128907339218e-05 3.025322068910e-04 0.0 
0.0 0.0 0.0 
6.823361293096e-05 1.068131832922e-04 0.0 
1.068131832922e-04 1.124429692642e-03 0.0 
0.0 0.0 0.0 
-1.234440837805e-04 4.838305221899e-05 0.0 
4.838305221899e-05 2.308726396825e-03 0.0 
0.0 0.0 0.0 
9.669971250559e-05 4.781495533893e-05 0.0 
4.781495533893e-05 9.353779153565e-04 0.0 
0.0 0.0 0.0 
3.631859156372e-05 2.362044241845e-04 0.0 
2.362044241845e-04 1.312228878390e-03 0.0 
0.0 0.0 0.0 
1.061991971909e-04 -1.057576226031e-05 0.0 
-1.057576226031e-05 5.266784488418e-04 0.0 
0.0 0.0 0.0 
6.384197185683e-05 -1.949123012651e-05 0.0 
-1.949123012651e-05 2.715496781722e-04 0.0 
0.0 0.0 0.0 
2.864293070792e-05 -2.401136421252e-05 0.0 
-2.401136421252e-05 1.714519563731e-04 0.0 
0.0 0.0 0.0 
1.079062341458e-04 4.366780366084e-05 0.0 
4.366780366084e-05 8.776695967292e-04 0.0 
0.0 0.0 0.0 
-1.342135465050e-04 2.546038131951e-05 0.0 
2.546038131951e-05 2.227638056495e-03 0.0 
0.0 0.0 0.0 
8.850250655223e-06 -2.079178628700e-05 0.0 
-2.079178628700e-05 1.207102768892e-04 0.0 
0.0 0.0 0.0 
9.503664937194e-05 -2.372675750714e-05 0.0 
-2.372675750714e-05 4.161466062098e-04 0.0 
0.0 0.0 0.0 
5.129089816580e-05 -1.740669501420e-05 0.0 
-1.740669501420e-05 2.353356213467e-04 0.0 
0.0 0.0 0.0 
-1.616519097296e-04 2.936147200169e-05 0.0 
2.936147200169e-05 2.226089142346e-03 0.0 
0.0 0.0 0.0 
9.767137200822e-05 -1.952980123439e-05 0.0 
-1.952980123439e-05 4.412595726702e-04 0.0 
0.0 0.0 0.0 
1.272867505657e-04 4.574642100503e-05 0.0 
4.574642100503e-05 8.039812548493e-04 0.0 
0.0 0.0 0.0 
9.010204633109e-05 -1.984336025759e-05 0.0 
-1.984336025759e-05 4.094694182266e-04 0.0 
0.0 0.0 0.0 
-1.074121480846e-04 3.835457158915e-05 0.0 
3.835457158915e-05 2.363005000684e-03 0.0 
0.0 0.0 0.0 
8.965156486740e-05 -1.759109949820e-05 0.0 
-1.759109949820e-05 3.579397510400e-04 0.0 
0.0 0.0 0.0 
1.140173066907e-04 6.107493503849e-05 0.0 
6.107493503849e-05 8.944449522073e-04 0.0 
0.0 0.0 0.0 
5.215954800453e-05 -4.816650555795e-05 0.0 
-4.816650555795e-05 2.512820458256e-04 0.0 
0.0 0.0 0.0 
1.163375720081e-04 4.637861807291e-05 0.0 
4.637861807291e-05 8.490425548586e-04 0.0 
0.0 0.0 0.0 
1.101723663115e-04 -2.429258595531e-06 0.0 
-2.429258595531e-06 6.173018918820e-04 0.0 
0.0 0.0 0.0 
1.067877242480e-04 5.225840625570e-05 0.0 
5.225840625570e-05 9.052352645151e-04 0.0 
0.0 0.0 0.0 
1.494721109776e-04 4.807520785739e-05 0.0 
4.807520785739e-05 4.582748661390e-04 0.0 
0.0 0.0 0.0 
5.307922347542e-05 -8.333705994497e-06 0.0 
-8.333705994497e-06 2.330171313323e-04 0.0 
0.0 0.0 0.0 
-1.492632793805e-04 9.080500194046e-06 0.0 
9.080500194046e-06 2.168962521963e-03 0.0 
0.0 0.0 0.0 
1.533928108601e-04 1.173084293314e-04 0.0 
1.173084293314e-04 8.784964217747e-04 0.0 
0.0 0.0 0.0 
5.866865987003e-05 2.748038642105e-04 0.0 
2.748038642105e-04 1.046927504924e-03 0.0 
0.0 0.0 0.0 
-1.457465850613e-04 1.851348027659e-05 0.0 
1.851348027659e-05 2.227868298095e-03 0.0 
0.0 0.0 0.0 
6.708943164346e-05 -4.592401821987e-05 0.0 
-4.592401821987e-05 2.831000553030e-04 0.0 
0.0 0.0 0.0 
-1.673492063594e-04 6.293127186467e-05 0.0 
6.293127186467e-05 2.247164132286e-03 0.0 
0.0 0.0 0.0 
4.475408834925e-05 -2.194715364252e-05 0.0 
-2.194715364252e-05 2.109809758015e-04 0.0 
0.0 0.0 0.0 
8.150555347930e-05 8.375534508809e-05 0.0 
8.375534508809e-05 1.047898086820e-03 0.0 
0.0 0.0 0.0 
1.490053620061e-04 1.416179189827e-04 0.0 
1.416179189827e-04 9.386106003328e-04 0.0 
0.0 0.0 0.0 
1.280247113919e-04 2.331664511234e-04 0.0 
2.331664511234e-04 1.139645870215e-03 0.0 
0.0 0.0 0.0 
-9.487282282150e-05 9.286518447991e-05 0.0 
9.286518447991e-05 2.422936255916e-03 0.0 
0.0 0.0 0.0 
1.439222637998e-04 3.664685448403e-05 0.0 
3.664685448403e-05 7.000279617138e-04 0.0 
0.0 0.0 0.0 
4.743113661698e-05 -2.022879064941e-05 0.0 
-2.022879064941e-05 2.182772502233e-04 0.0 
0.0 0.0 0.0 
1.325868089312e-04 5.033060786655e-05 0.0 
5.033060786655e-05 7.948165940217e-04 0.0 
0.0 0.0 0.0 
8.000502387651e-05 1.153884957986e-04 0.0 
1.153884957986e-04 1.097186178739e-03 0.0 
0.0 0.0 0.0 
1.025477824281e-04 -3.121467586521e-05 0.0 
-3.121467586521e-05 3.715923822531e-04 0.0 
0.0 0.0 0.0 
9.950496819333e-05 4.021357804190e-05 0.0 
4.021357804190e-05 9.071134554055e-04 0.0 
0.0 0.0 0.0 
-1.397355236529e-04 4.364544254402e-05 0.0 
4.364544254402e-05 2.309335835441e-03 0.0 
0.0 0.0 0.0 
8.693043506081e-05 -1.854704149655e-05 0.0 
-1.854704149655e-05 2.924056780000e-04 0.0 
0.0 0.0 0.0 
1.246008438776e-04 4.853564835509e-05 0.0 
4.853564835509e-05 8.214441324981e-04 0.0 
0.0 0.0 0.0 
-1.786143139418e-04 2.580054742860e-05 0.0 
2.580054742860e-05 2.163751437042e-03 0.0 
0.0 0.0 0.0 
7.062811667269e-05 -2.038316847367e-05 0.0 
-2.038316847367e-05 3.212680618869e-04 0.0 
0.0 0.0 0.0 
9.215738102086e-05 -2.823166363864e-05 0.0 
-2.823166363864e-05 3.914603731083e-04 0.0 
0.0 0.0 0.0 
6.986530006348e-05 2.721052345556e-04 0.0 
2.721052345556e-04 1.173093577203e-03 0.0 
0.0 0.0 0.0 
1.169011776867e-04 5.590855363405e-05 0.0 
5.590855363405e-05 8.757327616820e-04 0.0 
0.0 0.0 0.0 
-1.468094576063e-05 2.709978497010e-04 0.0 
2.709978497010e-04 1.144857156354e-03 0.0 
0.0 0.0 0.0 
8.766643757330e-05 2.505707210954e-04 0.0 
2.505707210954e-04 1.075504532017e-03 0.0 
0.0 0.0 0.0 
-1.535570427612e-04 6.408834270096e-05 0.0 
6.408834270096e-05 2.276484456202e-03 0.0 
0.0 0.0 0.0 
-1.425800840159e-04 2.367304262428e-05 0.0 
2.367304262428e-05 2.197293492633e-03 0.0 
0.0 0.0 0.0 
-1.712038749512e-04 4.094864508252e-05 0.0 
4.094864508252e-05 2.192967377549e-03 0.0 
0.0 0.0 0.0 
1.149138828276e-04 6.480745071003e-06 0.0 
6.480745071003e-06 6.152976911229e-04 0.0 
0.0 0.0 0.0 
9.715142851552e-05 1.155597303766e-04 0.0 
1.155597303766e-04 1.045079498679e-03 0.0 
0.0 0.0 0.0 
1.401672091899e-04 5.182745244688e-05 0.0 
5.182745244688e-05 7.693281492767e-04 0.0 
0.0 0.0 0.0 
-1.631840605649e-04 1.586760128353e-05 0.0 
1.586760128353e-05 2.166906799971e-03 0.0 
0.0 0.0 0.0 
-9.012033327216e-05 3.526806432504e-04 0.0 
3.526806432504e-04 2.086714422886e-03 0.0 
0.0 0.0 0.0 
1.126297005027e-04 2.589708851961e-04 0.0 
2.589708851961e-04 1.219570487338e-03 0.0 
0.0 0.0 0.0 
1.269230613596e-04 5.898614458569e-05 0.0 
5.898614458569e-05 8.470384816688e-04 0.0 
0.0 0.0 0.0 
-1.227225402466e-04 6.406904634159e-05 0.0 
6.406904634159e-05 2.332120522250e-03 0.0 
0.0 0.0 0.0 
1.116914456736e-04 -2.094710321700e-05 0.0 
-2.094710321700e-05 4.578128290096e-04 0.0 
0.0 0.0 0.0 
1.018419171197e-04 -2.565198294589e-05 0.0 
-2.565198294589e-05 4.241019974149e-04 0.0 
0.0 0.0 0.0 
4.628036364673e-05 -3.833016594771e-05 0.0 
-3.833016594771e-05 2.270583184403e-04 0.0 
0.0 0.0 0.0 
1.324061549806e-04 6.692005093854e-05 0.0 
6.692005093854e-05 8.411307949643e-04 0.0 
0.0 0.0 0.0 
1.035262433919e-04 -2.155438649854e-05 0.0 
-2.155438649854e-05 4.489858531389e-04 0.0 
0.0 0.0 0.0 
-1.690076101601e-04 4.448525204442e-05 0.0 
4.448525204442e-05 2.252605338859e-03 0.0 
0.0 0.0 0.0 
-1.818334711177e-04 4.392872862156e-05 0.0 
4.392872862156e-05 2.222887181185e-03 0.0 
0.0 0.0 0.0 
1.653978468408e-04 1.254833134971e-04 0.0 
1.254833134971e-04 7.707777355115e-04 0.0 
0.0 0.0 0.0 
9.801294042533e-05 -1.986345504480e-05 0.0 
-1.986345504480e-05 3.653410849604e-04 0.0 
0.0 0.0 0.0 
1.378204498985e-04 9.728410802893e-05 0.0 
9.728410802893e-05 4.996608542573e-04 0.0 
0.0 0.0 0.0 
1.007944092992e-04 -1.629218830993e-05 0.0 
-1.629218830993e-05 3.895587460880e-04 0.0 
0.0 0.0 0.0 
1.121616786453e-04 -1.288210918693e-05 0.0 
-1.288210918693e-05 4.220710134579e-04 0.0 
0.0 0.0 0.0 
5.716174315018e-05 -2.311502538085e-05 0.0 
-2.311502538085e-05 2.482778219726e-04 0.0 
0.0 0.0 0.0 
1.091721357032e-04 1.213760206511e-04 0.0 
1.213760206511e-04 1.020335676843e-03 0.0 
0.0 0.0 0.0 
1.456603908365e-04 1.089970801055e-05 0.0 
1.089970801055e-05 5.275608201851e-04 0.0 
0.0 0.0 0.0 
-1.232959672371e-04 5.781825455075e-05 0.0 
5.781825455075e-05 2.359346958545e-03 0.0 
0.0 0.0 0.0 
1.554507616048e-04 2.362811674069e-05 0.0 
2.362811674069e-05 5.663740051265e-04 0.0 
0.0 0.0 0.0 
1.462057345518e-04 6.420208318353e-05 0.0 
6.420208318353e-05 7.926212796252e-04 0.0 
0.0 0.0 0.0 
1.540839463752e-04 3.686656302883e-05 0.0 
3.686656302883e-05 6.551790811109e-04 0.0 
0.0 0.0 0.0 
1.215610083554e-04 2.136716530739e-04 0.0 
2.136716530739e-04 9.554528237297e-04 0.0 
0.0 0.0 0.0 
5.361203977139e-05 -3.428840034729e-05 0.0 
-3.428840034729e-05 2.501474807710e-04 0.0 
0.0 0.0 0.0 
9.368361517503e-05 1.208192050483e-04 0.0 
1.208192050483e-04 1.067895313673e-03 0.0 
0.0 0.0 0.0 
7.367091254684e-05 1.292658404567e-04 0.0 
1.292658404567e-04 1.130710010113e-03 0.0 
0.0 0.0 0.0 
5.584246875912e-05 3.239519335601e-04 0.0 
3.239519335601e-04 1.397726192121e-03 0.0 
0.0 0.0 0.0 
1.236258060322e-04 -7.276453467999e-06 0.0 
-7.276453467999e-06 4.556319930007e-04 0.0 
0.0 0.0 0.0 
1.522505077385e-04 5.047641686319e-05 0.0 
5.047641686319e-05 7.226724979803e-04 0.0 
0.0 0.0 0.0 
-1.498847833811e-04 4.691378984391e-05 0.0 
4.691378984391e-05 2.252259519697e-03 0.0 
0.0 0.0 0.0 
1.122827556819e-04 -1.733292147997e-05 0.0 
-1.733292147997e-05 4.826739105206e-04 0.0 
0.0 0.0 0.0 
6.695847426696e-05 2.307424221117e-04 0.0 
2.307424221117e-04 9.519324959859e-04 0.0 
0.0 0.0 0.0 
8.254964974030e-05 -2.881109384365e-05 0.0 
-2.881109384365e-05 3.597141668497e-04 0.0 
0.0 0.0 0.0 
8.188142263044e-05 -4.075045495943e-05 0.0 
-4.075045495943e-05 3.161567538672e-04 0.0 
0.0 0.0 0.0 
1.215044268925e-04 -1.400371817542e-05 0.0 
-1.400371817542e-05 4.928350737015e-04 0.0 
0.0 0.0 0.0 
7.917348343889e-05 -1.735646340174e-05 0.0 
-1.735646340174e-05 3.265907415004e-04 0.0 
0.0 0.0 0.0 
6.561866284116e-05 -2.549844440551e-05 0.0 
-2.549844440551e-05 2.969097923746e-04 0.0 
0.0 0.0 0.0 
1.393089389525e-04 2.223186404152e-05 0.0 
2.223186404152e-05 6.575092023511e-04 0.0 
0.0 0.0 0.0 
1.367603558711e-04 6.176681476089e-05 0.0 
6.176681476089e-05 8.193443511262e-04 0.0 
0.0 0.0 0.0 
3.138143499171e-05 3.628410689519e-04 0.0 
3.628410689519e-04 1.623425214555e-03 0.0 
0.0 0.0 0.0 
-3.485490270749e-05 -5.607930208228e-06 0.0 
-5.607930208228e-06 3.122760683461e-05 0.0 
0.0 0.0 0.0 
1.693737489783e-04 4.326609781581e-05 0.0 
4.326609781581e-05 5.658504794248e-04 0.0 
0.0 0.0 0.0 
1.580937847108e-04 2.425200775379e-05 0.0 
2.425200775379e-05 5.436925020752e-04 0.0 
0.0 0.0 0.0 
1.350173905985e-04 5.857811916163e-07 0.0 
5.857811916163e-07 4.906586927271e-04 0.0 
0.0 0.0 0.0 
-1.612550390889e-04 4.429728636784e-05 0.0 
4.429728636784e-05 2.222777282632e-03 0.0 
0.0 0.0 0.0 
1.518407022119e-04 2.360392813033e-05 0.0 
2.360392813033e-05 5.901046352066e-04 0.0 
0.0 0.0 0.0 
9.285039835039e-05 -1.342908444662e-05 0.0 
-1.342908444662e-05 3.826716228694e-04 0.0 
0.0 0.0 0.0 
1.309871163626e-04 -4.374569436218e-06 0.0 
-4.374569436218e-06 5.299880497531e-04 0.0 
0.0 0.0 0.0 
-1.094055114432e-04 4.713454266278e-05 0.0 
4.713454266278e-05 2.335865080873e-03 0.0 
0.0 0.0 0.0 
8.584593204364e-05 -2.407454756402e-05 0.0 
-2.407454756402e-05 3.843655048341e-04 0.0 
0.0 0.0 0.0 
2.064834195314e-05 -1.947856546011e-05 0.0 
-1.947856546011e-05 1.397284554603e-04 0.0 
0.0 0.0 0.0 
3.876473089770e-05 -2.271055548677e-05 0.0 
-2.271055548677e-05 1.946058998115e-04 0.0 
0.0 0.0 0.0 
1.009046436529e-04 -2.067058405892e-05 0.0 
-2.067058405892e-05 3.342855584108e-04 0.0 
0.0 0.0 0.0 
1.105349822559e-04 -1.602282419440e-05 0.0 
-1.602282419440e-05 3.981269585562e-04 0.0 
0.0 0.0 0.0 
1.673320494959e-04 4.052073422162e-05 0.0 
4.052073422162e-05 5.859386722453e-04 0.0 
0.0 0.0 0.0 
1.397313779954e-04 7.572217551164e-06 0.0 
7.572217551164e-06 5.691117154447e-04 0.0 
0.0 0.0 0.0 
4.250798215000e-05 -5.025162776630e-05 0.0 
-5.025162776630e-05 2.300923979726e-04 0.0 
0.0 0.0 0.0 
3.816905882448e-05 -3.448415958065e-05 0.0 
-3.448415958065e-05 1.963386041770e-04 0.0 
0.0 0.0 0.0 
-2.192822099591e-04 6.775468606238e-05 0.0 
6.775468606238e-05 2.183414616555e-03 0.0 
0.0 0.0 0.0 
7.382313725945e-05 -2.789310399641e-05 0.0 
-2.789310399641e-05 3.282272375138e-04 0.0 
0.0 0.0 0.0 
1.290739031361e-04 1.143855898714e-04 0.0 
1.143855898714e-04 9.642462620962e-04 0.0 
0.0 0.0 0.0 
5.129997925901e-05 3.482331607289e-04 0.0 
3.482331607289e-04 1.527407099809e-03 0.0 
0.0 0.0 0.0 
-1.962992664271e-04 2.766444307128e-04 0.0 
2.766444307128e-04 1.986759772823e-03 0.0 
0.0 0.0 0.0 
-1.335649053673e-04 1.354407142203e-04 0.0 
1.354407142203e-04 2.352049696158e-03 0.0 
0.0 0.0 0.0 
1.509376977404e-05 3.743096527333e-04 0.0 
3.743096527333e-04 1.717053420519e-03 0.0 
0.0 0.0 0.0 
1.598860338219e-04 1.354170352012e-04 0.0 
1.354170352012e-04 7.714396894043e-04 0.0 
0.0 0.0 0.0 
5.457992334645e-05 3.348774111974e-04 0.0 
3.348774111974e-04 1.461985337391e-03 0.0 
0.0 0.0 0.0 
5.764371542982e-05 -4.776552296231e-05 0.0 
-4.776552296231e-05 2.625079403000e-04 0.0 
0.0 0.0 0.0 
1.292952622098e-04 -2.320904402370e-06 0.0 
-2.320904402370e-06 5.540891166949e-04 0.0 
0.0 0.0 0.0 
1.513938708775e-04 1.880469895622e-04 0.0 
1.880469895622e-04 7.826874060233e-04 0.0 
0.0 0.0 0.0 
9.583848952754e-05 -8.814939546515e-07 0.0 
-8.814939546515e-07 3.110017410546e-04 0.0 
0.0 0.0 0.0 
2.887708072752e-05 -5.115212166715e-05 0.0 
-5.115212166715e-05 2.115425529634e-04 0.0 
0.0 0.0 0.0 
1.130633364701e-04 -9.583735763441e-06 0.0 
-9.583735763441e-06 4.471011416085e-04 0.0 
0.0 0.0 0.0 
1.417670707429e-04 6.895772696056e-06 0.0 
6.895772696056e-06 5.468061314040e-04 0.0 
0.0 0.0 0.0 
1.501472403167e-04 2.215803582121e-05 0.0 
2.215803582121e-05 5.889877159488e-04 0.0 
0.0 0.0 0.0 
8.317217083320e-05 -1.326798751245e-05 0.0 
-1.326798751245e-05 3.510068795181e-04 0.0 
0.0 0.0 0.0 
1.595687569504e-04 3.746846739180e-05 0.0 
3.746846739180e-05 6.307062217830e-04 0.0 
0.0 0.0 0.0 
1.518490077417e-04 2.347854561607e-05 0.0 
2.347854561607e-05 5.694038157036e-04 0.0 
0.0 0.0 0.0 
1.771589528419e-04 6.277573983834e-05 0.0 
6.277573983834e-05 6.127863476943e-04 0.0 
0.0 0.0 0.0 
9.949634217388e-05 -2.960862324032e-05 0.0 
-2.960862324032e-05 4.002075556573e-04 0.0 
0.0 0.0 0.0 
1.479194607885e-04 1.729795964758e-04 0.0 
1.729795964758e-04 9.936881884611e-04 0.0 
0.0 0.0 0.0 
-1.758894373454e-04 6.399448099461e-05 0.0 
6.399448099461e-05 2.276569752116e-03 0.0 
0.0 0.0 0.0 
1.777764499460e-04 6.822618331792e-05 0.0 
6.822618331792e-05 5.969119894165e-04 0.0 
0.0 0.0 0.0 
1.087582201464e-04 1.288053594506e-04 0.0 
1.288053594506e-04 1.043006828496e-03 0.0 
0.0 0.0 0.0 
7.390561294796e-05 -4.147345564380e-05 0.0 
-4.147345564380e-05 2.959165561769e-04 0.0 
0.0 0.0 0.0 
8.799143190519e-05 1.758001057953e-04 0.0 
1.758001057953e-04 1.162548906069e-03 0.0 
0.0 0.0 0.0 
1.639333515813e-04 3.856042617233e-05 0.0 
3.856042617233e-05 6.074615901910e-04 0.0 
0.0 0.0 0.0 
5.673569008380e-06 3.940703648739e-04 0.0 
3.940703648739e-04 1.814620971558e-03 0.0 
0.0 0.0 0.0 
-5.076737195464e-05 3.311161982667e-04 0.0 
3.311161982667e-04 1.631625937931e-03 0.0 
0.0 0.0 0.0 
7.731148426560e-05 -2.738546842705e-05 0.0 
-2.738546842705e-05 2.801957843008e-04 0.0 
0.0 0.0 0.0 
-1.634431852456e-04 3.016232698990e-04 0.0 
3.016232698990e-04 1.935629592887e-03 0.0 
0.0 0.0 0.0 
-1.355220058907e-04 2.052775989600e-04 0.0 
2.052775989600e-04 2.314122654730e-03 0.0 
0.0 0.0 0.0 
1.707849352215e-04 5.567049413671e-05 0.0 
5.567049413671e-05 6.515390411765e-04 0.0 
0.0 0.0 0.0 
8.429715160529e-05 1.783313279032e-04 0.0 
1.783313279032e-04 7.575937112410e-04 0.0 
0.0 0.0 0.0 
-1.301022510246e-04 3.191271485936e-04 0.0 
3.191271485936e-04 1.883129099296e-03 0.0 
0.0 0.0 0.0 
6.897195956590e-05 2.822782682260e-04 0.0 
2.822782682260e-04 1.107728986395e-03 0.0 
0.0 0.0 0.0 
4.991456308634e-05 -3.117950667935e-05 0.0 
-3.117950667935e-05 2.269315737982e-04 0.0 
0.0 0.0 0.0 
-6.692281258769e-05 1.807207890435e-04 0.0 
1.807207890435e-04 2.422138544852e-03 0.0 
0.0 0.0 0.0 
3.173664466605e-05 -3.115094875067e-05 0.0 
-3.115094875067e-05 1.966092256280e-04 0.0 
0.0 0.0 0.0 
8.459883574763e-05 2.682491798774e-04 0.0 
2.682491798774e-04 1.298520985727e-03 0.0 
0.0 0.0 0.0 
-8.432956083559e-05 7.530366696713e-05 0.0 
7.530366696713e-05 2.404393938954e-03 0.0 
0.0 0.0 0.0 
1.420017364371e-04 1.664551469281e-04 0.0 
1.664551469281e-04 1.003054691498e-03 0.0 
0.0 0.0 0.0 
-1.552951024836e-04 3.099697426820e-05 0.0 
3.099697426820e-05 2.194554533282e-03 0.0 
0.0 0.0 0.0 
-1.626113279967e-04 1.099312844982e-04 0.0 
1.099312844982e-04 2.341394427235e-03 0.0 
0.0 0.0 0.0 
1.592569820452e-04 4.226926982941e-05 0.0 
4.226926982941e-05 6.162363211395e-04 0.0 
0.0 0.0 0.0 
1.649405318025e-04 1.429923391619e-04 0.0 
1.429923391619e-04 8.416807648954e-04 0.0 
0.0 0.0 0.0 
-1.039008891301e-04 1.576463841113e-04 0.0 
1.576463841113e-04 2.388023585327e-03 0.0 
0.0 0.0 0.0 
1.250597406788e-04 7.406187262746e-05 0.0 
7.406187262746e-05 8.923557119620e-04 0.0 
0.0 0.0 0.0 
-1.809702311211e-04 8.771762711285e-05 0.0 
8.771762711285e-05 2.296579855092e-03 0.0 
0.0 0.0 0.0 
1.623788346716e-04 1.293101911247e-04 0.0 
1.293101911247e-04 8.943626634710e-04 0.0 
0.0 0.0 0.0 
6.846167197505e-05 -2.702638620255e-05 0.0 
-2.702638620255e-05 2.591776976046e-04 0.0 
0.0 0.0 0.0 
-1.831063998958e-04 1.153783033475e-04 0.0 
1.153783033475e-04 2.311357925918e-03 0.0 
0.0 0.0 0.0 
2.762995697858e-05 4.177222554199e-04 0.0 
4.177222554199e-04 1.725279637605e-03 0.0 
0.0 0.0 0.0 
8.315549842663e-05 1.436500034607e-04 0.0 
1.436500034607e-04 1.127400386453e-03 0.0 
0.0 0.0 0.0 
1.430771741342e-04 1.193690031887e-05 0.0 
1.193690031887e-05 5.518355675740e-04 0.0 
0.0 0.0 0.0 
-1.714211644539e-04 2.741252992447e-05 0.0 
2.741252992447e-05 2.194922983533e-03 0.0 
0.0 0.0 0.0 
-1.625289613592e-04 2.726774304689e-05 0.0 
2.726774304689e-05 2.163530507421e-03 0.0 
0.0 0.0 0.0 
1.473719458531e-04 2.152103729092e-05 0.0 
2.152103729092e-05 6.101751408101e-04 0.0 
0.0 0.0 0.0 
1.360476617880e-04 7.774507378015e-05 0.0 
7.774507378015e-05 8.650282156677e-04 0.0 
0.0 0.0 0.0 
1.335508571434e-04 9.525886968179e-05 0.0 
9.525886968179e-05 9.131302382592e-04 0.0 
0.0 0.0 0.0 
2.945898493634e-05 -3.675117512405e-05 0.0 
-3.675117512405e-05 1.734488710805e-04 0.0 
0.0 0.0 0.0 
1.145096482451e-04 8.759355928315e-05 0.0 
8.759355928315e-05 4.368664709766e-04 0.0 
0.0 0.0 0.0 
1.830239272804e-04 9.095401853855e-05 0.0 
9.095401853855e-05 6.504654650858e-04 0.0 
0.0 0.0 0.0 
1.597916765257e-04 4.588274709638e-05 0.0 
4.588274709638e-05 6.007864732698e-04 0.0 
0.0 0.0 0.0 
1.104854324712e-04 2.505090749116e-04 0.0 
2.505090749116e-04 9.772711593850e-04 0.0 
0.0 0.0 0.0 
-1.038139211450e-04 1.501923188992e-04 0.0 
1.501923188992e-04 2.418429072949e-03 0.0 
0.0 0.0 0.0 
-9.715539347255e-05 3.223550951364e-04 0.0 
3.223550951364e-04 2.122474070620e-03 0.0 
0.0 0.0 0.0 
-1.004903325444e-04 7.113619891869e-05 0.0 
7.113619891869e-05 2.404744760585e-03 0.0 
0.0 0.0 0.0 
-3.185530419925e-05 2.871023719644e-04 0.0 
2.871023719644e-04 1.254759590374e-03 0.0 
0.0 0.0 0.0 
-1.650447365029e-04 1.797764033297e-04 0.0 
1.797764033297e-04 2.281500417442e-03 0.0 
0.0 0.0 0.0 
1.233599658930e-04 6.422269691357e-05 0.0 
6.422269691357e-05 8.671570872516e-04 0.0 
0.0 0.0 0.0 
-9.182292703047e-05 1.242009496772e-04 0.0 
1.242009496772e-04 2.409416982866e-03 0.0 
0.0 0.0 0.0 
-2.016819838417e-04 1.214131022270e-04 0.0 
1.214131022270e-04 2.279331969815e-03 0.0 
0.0 0.0 0.0 
1.369804901572e-04 8.586695028254e-06 0.0 
8.586695028254e-06 5.925221322545e-04 0.0 
0.0 0.0 0.0 
1.811870587272e-04 9.920206404868e-05 0.0 
9.920206404868e-05 6.399676137299e-04 0.0 
0.0 0.0 0.0 
-1.565333790721e-04 1.112927417244e-04 0.0 
1.112927417244e-04 2.311743865230e-03 0.0 
0.0 0.0 0.0 
-1.366096153369e-04 1.310121765968e-04 0.0 
1.310121765968e-04 2.381995474124e-03 0.0 
0.0 0.0 0.0 
-1.390920870198e-04 8.457834300293e-05 0.0 
8.457834300293e-05 2.325273390396e-03 0.0 
0.0 0.0 0.0 
-1.561200545404e-04 8.566677183232e-05 0.0 
8.566677183232e-05 2.296734375688e-03 0.0 
0.0 0.0 0.0 
1.027099303526e-04 1.036545850201e-04 0.0 
1.036545850201e-04 1.017454467631e-03 0.0 
0.0 0.0 0.0 
8.965143614126e-05 2.741937405039e-04 0.0 
2.741937405039e-04 1.296156804040e-03 0.0 
0.0 0.0 0.0 
1.163350328315e-04 1.089457210913e-04 0.0 
1.089457210913e-04 9.896827704543e-04 0.0 
0.0 0.0 0.0 
1.443209150040e-04 4.912098802626e-05 0.0 
4.912098802626e-05 7.488126597022e-04 0.0 
0.0 0.0 0.0 
-1.221097120181e-04 2.894582876008e-04 0.0 
2.894582876008e-04 1.503488730279e-03 0.0 
0.0 0.0 0.0 
1.323684340699e-04 1.926594107584e-04 0.0 
1.926594107584e-04 1.070035038327e-03 0.0 
0.0 0.0 0.0 
-1.904415943675e-04 2.022686383765e-04 0.0 
2.022686383765e-04 2.186892115731e-03 0.0 
0.0 0.0 0.0 
6.953646212637e-05 -1.555206342098e-05 0.0 
-1.555206342098e-05 2.953842077900e-04 0.0 
0.0 0.0 0.0 
1.652100745519e-04 6.820296631091e-05 0.0 
6.820296631091e-05 6.542458424250e-04 0.0 
0.0 0.0 0.0 
1.827325288581e-04 1.002632716119e-04 0.0 
1.002632716119e-04 7.320193554410e-04 0.0 
0.0 0.0 0.0 
1.602962077689e-04 1.612028737094e-04 0.0 
1.612028737094e-04 9.142306904586e-04 0.0 
0.0 0.0 0.0 
1.033743057619e-04 2.508609924319e-05 0.0 
2.508609924319e-05 3.372195707134e-04 0.0 
0.0 0.0 0.0 
1.637256257878e-04 7.461020532767e-05 0.0 
7.461020532767e-05 6.442350272975e-04 0.0 
0.0 0.0 0.0 
1.513254616106e-04 1.798476621110e-04 0.0 
1.798476621110e-04 9.885393156841e-04 0.0 
0.0 0.0 0.0 
-7.433240699206e-05 3.137033613576e-04 0.0 
3.137033613576e-04 1.479419117336e-03 0.0 
0.0 0.0 0.0 
1.473907143277e-04 2.393263722647e-05 0.0 
2.393263722647e-05 6.151428581005e-04 0.0 
0.0 0.0 0.0 
-2.138290834497e-04 9.552949533581e-05 0.0 
9.552949533581e-05 2.234216142904e-03 0.0 
0.0 0.0 0.0 
-1.497912479623e-04 6.347405542723e-06 0.0 
6.347405542723e-06 2.063728554451e-03 0.0 
0.0 0.0 0.0 
-1.689286022509e-04 2.254153024492e-04 0.0 
2.254153024492e-04 3.215386712416e-04 0.0 
0.0 0.0 0.0 
1.378640351235e-04 3.623418053840e-05 0.0 
3.623418053840e-05 7.249325436043e-04 0.0 
0.0 0.0 0.0 
1.499110057583e-04 1.756837966629e-04 0.0 
1.756837966629e-04 1.013130884460e-03 0.0 
0.0 0.0 0.0 
-9.257370424864e-05 3.130794933895e-04 0.0 
3.130794933895e-04 2.188714623734e-03 0.0 
0.0 0.0 0.0 
1.846597924438e-04 1.396755315750e-04 0.0 
1.396755315750e-04 7.709625266099e-04 0.0 
0.0 0.0 0.0 
1.478624746911e-04 3.645096620281e-05 0.0 
3.645096620281e-05 6.808020299882e-04 0.0 
0.0 0.0 0.0 
-1.912439082750e-04 6.520982064198e-05 0.0 
6.520982064198e-05 2.246983000198e-03 0.0 
0.0 0.0 0.0 
-1.774940520836e-04 2.466212330965e-04 0.0 
2.466212330965e-04 5.249440717319e-04 0.0 
0.0 0.0 0.0 
1.581235014354e-04 1.827909660457e-04 0.0 
1.827909660457e-04 1.000502377418e-03 0.0 
0.0 0.0 0.0 
1.655943043111e-04 1.352259791185e-04 0.0 
1.352259791185e-04 8.457100667496e-04 0.0 
0.0 0.0 0.0 
-1.016752670957e-04 3.149386820761e-04 0.0 
3.149386820761e-04 1.589784863959e-03 0.0 
0.0 0.0 0.0 
1.206028380003e-04 8.176498809387e-05 0.0 
8.176498809387e-05 9.152409296804e-04 0.0 
0.0 0.0 0.0 
8.143438558506e-05 -2.901936266155e-05 0.0 
-2.901936266155e-05 3.146741758262e-04 0.0 
0.0 0.0 0.0 
1.159769961570e-04 1.007251956904e-04 0.0 
1.007251956904e-04 9.663989946562e-04 0.0 
0.0 0.0 0.0 
9.913451982002e-05 1.502483256662e-04 0.0 
1.502483256662e-04 1.099169861304e-03 0.0 
0.0 0.0 0.0 
1.639095912156e-04 1.899597550524e-04 0.0 
1.899597550524e-04 9.910516727980e-04 0.0 
0.0 0.0 0.0 
-1.621992842044e-04 8.454785638674e-05 0.0 
8.454785638674e-05 2.325359508727e-03 0.0 
0.0 0.0 0.0 
7.195499874690e-05 3.155355171982e-04 0.0 
3.155355171982e-04 1.408617176143e-03 0.0 
0.0 0.0 0.0 
8.693661207571e-05 1.374840356614e-04 0.0 
1.374840356614e-04 1.100837236635e-03 0.0 
0.0 0.0 0.0 
-1.795013941760e-04 2.541120045919e-04 0.0 
2.541120045919e-04 7.327702501088e-04 0.0 
0.0 0.0 0.0 
-1.983117338927e-04 9.112784274692e-05 0.0 
9.112784274692e-05 2.266230706093e-03 0.0 
0.0 0.0 0.0 
7.670584725683e-05 3.062215981697e-04 0.0 
3.062215981697e-04 1.375685907106e-03 0.0 
0.0 0.0 0.0 
-1.377237857190e-04 1.084420670714e-04 0.0 
1.084420670714e-04 2.341483525091e-03 0.0 
0.0 0.0 0.0 
1.751206297369e-04 1.726688267630e-04 0.0 
1.726688267630e-04 9.158961796660e-04 0.0 
0.0 0.0 0.0 
1.660515553730e-04 9.947684106764e-05 0.0 
9.947684106764e-05 7.048981471836e-04 0.0 
0.0 0.0 0.0 
1.266615912923e-04 1.650407323258e-05 0.0 
1.650407323258e-05 6.580721845781e-04 0.0 
0.0 0.0 0.0 
1.603060547239e-05 2.723780153388e-05 0.0 
2.723780153388e-05 2.117203796703e-04 0.0 
0.0 0.0 0.0 
-1.180775024959e-04 1.047283215675e-04 0.0 
1.047283215675e-04 2.369374076889e-03 0.0 
0.0 0.0 0.0 
7.444146439539e-05 -1.113748650772e-05 0.0 
-1.113748650772e-05 3.200595053998e-04 0.0 
0.0 0.0 0.0 
-1.773994609013e-04 2.516043023070e-04 0.0 
2.516043023070e-04 9.362597516642e-04 0.0 
0.0 0.0 0.0 
6.217025044908e-05 3.204809269659e-04 0.0 
3.204809269659e-04 1.432465125810e-03 0.0 
0.0 0.0 0.0 
-7.796069944699e-05 9.513622417063e-05 0.0 
9.513622417063e-05 2.422576337549e-03 0.0 
0.0 0.0 0.0 
6.430999830820e-05 -4.003956282362e-05 0.0 
-4.003956282362e-05 2.776830033249e-04 0.0 
0.0 0.0 0.0 
4.955882609647e-05 2.912225240545e-04 0.0 
2.912225240545e-04 1.273395486999e-03 0.0 
0.0 0.0 0.0 
-1.740226857311e-04 1.141649847882e-04 0.0 
1.141649847882e-04 2.280072371652e-03 0.0 
0.0 0.0 0.0 
1.296886484898e-04 1.133326824501e-05 0.0 
1.133326824501e-05 6.434337138608e-04 0.0 
0.0 0.0 0.0 
8.658473660406e-05 -7.323372508342e-06 0.0 
-7.323372508342e-06 3.424378884396e-04 0.0 
0.0 0.0 0.0 
9.829900580072e-05 1.855182101355e-04 0.0 
1.855182101355e-04 6.655858428224e-04 0.0 
0.0 0.0 0.0 
3.945597720501e-05 -3.120891773367e-05 0.0 
-3.120891773367e-05 2.081416896782e-04 0.0 
0.0 0.0 0.0 
7.743790517933e-05 -1.544047578167e-05 0.0 
-1.544047578167e-05 2.745842289078e-04 0.0 
0.0 0.0 0.0 
5.760785091535e-05 -2.425174819593e-05 0.0 
-2.425174819593e-05 2.407264286695e-04 0.0 
0.0 0.0 0.0 
1.820804956629e-04 1.558834000530e-04 0.0 
1.558834000530e-04 8.425409473358e-04 0.0 
0.0 0.0 0.0 
-4.844301255280e-05 2.826594264765e-04 0.0 
2.826594264765e-04 2.389564482346e-03 0.0 
0.0 0.0 0.0 
-1.713850144971e-04 2.485186643577e-04 0.0 
2.485186643577e-04 1.143071269772e-03 0.0 
0.0 0.0 0.0 
8.913350362016e-05 9.656391526437e-05 0.0 
9.656391526437e-05 1.045771778493e-03 0.0 
0.0 0.0 0.0 
1.689703370180e-04 1.212990330658e-04 0.0 
1.212990330658e-04 6.300878970535e-04 0.0 
0.0 0.0 0.0 
-2.181078750871e-04 1.294813860315e-04 0.0 
1.294813860315e-04 2.244957651077e-03 0.0 
0.0 0.0 0.0 
5.510641185191e-05 3.153721417277e-05 0.0 
3.153721417277e-05 2.682308249982e-04 0.0 
0.0 0.0 0.0 
7.414555934093e-05 1.603378124069e-04 0.0 
1.603378124069e-04 1.161677346695e-03 0.0 
0.0 0.0 0.0 
4.733389707590e-05 -4.782228954127e-05 0.0 
-4.782228954127e-05 2.429794788321e-04 0.0 
0.0 0.0 0.0 
8.729373238880e-05 -8.462158724674e-06 0.0 
-8.462158724674e-06 3.778808363593e-04 0.0 
0.0 0.0 0.0 
1.534076040197e-04 2.154421787390e-04 0.0 
2.154421787390e-04 1.061988189435e-03 0.0 
0.0 0.0 0.0 
1.570580584822e-04 3.955085442201e-05 0.0 
3.955085442201e-05 6.339639802873e-04 0.0 
0.0 0.0 0.0 
9.463576767921e-05 2.805903363469e-04 0.0 
2.805903363469e-04 1.297527841620e-03 0.0 
0.0 0.0 0.0 
4.739941771792e-05 2.206797965942e-04 0.0 
2.206797965942e-04 8.922836700813e-04 0.0 
0.0 0.0 0.0 
-2.033780540067e-04 2.030584549366e-04 0.0 
2.030584549366e-04 2.235556395242e-03 0.0 
0.0 0.0 0.0 
9.829101105652e-05 2.806828503108e-04 0.0 
2.806828503108e-04 1.296539204510e-03 0.0 
0.0 0.0 0.0 
-1.719991421362e-04 8.633551727790e-05 0.0 
8.633551727790e-05 2.266679761312e-03 0.0 
0.0 0.0 0.0 
-1.104339601015e-04 3.201978990665e-04 0.0 
3.201978990665e-04 2.187747071467e-03 0.0 
0.0 0.0 0.0 
-1.809646795083e-04 1.460872880545e-04 0.0 
1.460872880545e-04 2.319767286542e-03 0.0 
0.0 0.0 0.0 
-1.737248467714e-04 1.786928902730e-04 0.0 
1.786928902730e-04 2.320698314009e-03 0.0 
0.0 0.0 0.0 
6.248807222331e-05 1.013182170004e-04 0.0 
1.013182170004e-04 3.788377647436e-04 0.0 
0.0 0.0 0.0 
9.689060866447e-05 7.979762857991e-05 0.0 
7.979762857991e-05 9.958958019991e-04 0.0 
0.0 0.0 0.0 
-1.721028072214e-04 1.458559343300e-04 0.0 
1.458559343300e-04 2.285256106261e-03 0.0 
0.0 0.0 0.0 
1.687067930516e-04 1.873936770614e-04 0.0 
1.873936770614e-04 8.417410055916e-04 0.0 
0.0 0.0 0.0 
-1.676005808566e-04 2.455182734456e-04 0.0 
2.455182734456e-04 1.348251719411e-03 0.0 
0.0 0.0 0.0 
6.426469116794e-05 2.967293600676e-04 0.0 
2.967293600676e-04 1.374037413603e-03 0.0 
0.0 0.0 0.0 
1.037923196436e-04 6.238507759741e-05 0.0 
6.238507759741e-05 3.778488512074e-04 0.0 
0.0 0.0 0.0 
7.858790172732e-05 -2.344050884149e-05 0.0 
-2.344050884149e-05 3.525026803115e-04 0.0 
0.0 0.0 0.0 
1.266568788372e-04 2.675355379166e-04 0.0 
2.675355379166e-04 1.214860179735e-03 0.0 
0.0 0.0 0.0 
4.618308864446e-05 -8.371627287479e-06 0.0 
-8.371627287479e-06 2.088377658804e-04 0.0 
0.0 0.0 0.0 
1.079804520858e-04 2.385595956331e-04 0.0 
2.385595956331e-04 1.046001060620e-03 0.0 
0.0 0.0 0.0 
1.480506293328e-04 2.075960710348e-04 0.0 
2.075960710348e-04 1.067970557972e-03 0.0 
0.0 0.0 0.0 
-1.399904770180e-04 1.999862978202e-04 0.0 
1.999862978202e-04 2.353331668912e-03 0.0 
0.0 0.0 0.0 
-1.244344587968e-04 2.359849807997e-04 0.0 
2.359849807997e-04 2.343456326863e-03 0.0 
0.0 0.0 0.0 
1.379849854866e-04 1.989590966726e-04 0.0 
1.989590966726e-04 1.064469473918e-03 0.0 
0.0 0.0 0.0 
-1.594453204714e-04 1.385447221004e-04 0.0 
1.385447221004e-04 2.351771656953e-03 0.0 
0.0 0.0 0.0 
1.687847340146e-04 1.476805714089e-04 0.0 
1.476805714089e-04 6.986401175373e-04 0.0 
0.0 0.0 0.0 
2.516009588316e-05 3.403176773369e-04 0.0 
3.403176773369e-04 1.561065505617e-03 0.0 
0.0 0.0 0.0 
-1.732478617560e-04 2.425349134658e-04 0.0 
2.425349134658e-04 1.559813367359e-03 0.0 
0.0 0.0 0.0 
-4.362130143343e-05 3.661290219255e-04 0.0 
3.661290219255e-04 1.960350854163e-03 0.0 
0.0 0.0 0.0 
-2.701832896770e-04 2.397550238249e-04 0.0 
2.397550238249e-04 1.800049571874e-03 0.0 
0.0 0.0 0.0 
-2.355908733521e-04 1.430494447102e-04 0.0 
1.430494447102e-04 1.921296328876e-03 0.0 
0.0 0.0 0.0 
1.814241664833e-04 1.497454322476e-04 0.0 
1.497454322476e-04 7.671337737454e-04 0.0 
0.0 0.0 0.0 
-2.313501185250e-04 1.131624085223e-04 0.0 
1.131624085223e-04 1.977785596936e-03 0.0 
0.0 0.0 0.0 
1.227872843765e-04 2.403242234857e-04 0.0 
2.403242234857e-04 1.090689574677e-03 0.0 
0.0 0.0 0.0 
1.320036001724e-04 1.874903715897e-04 0.0 
1.874903715897e-04 8.689526808112e-04 0.0 
0.0 0.0 0.0 
1.679691570353e-04 9.186351433745e-05 0.0 
9.186351433745e-05 7.118608297263e-04 0.0 
0.0 0.0 0.0 
8.530155100628e-05 5.457907551701e-06 0.0 
5.457907551701e-06 2.942922122644e-04 0.0 
0.0 0.0 0.0 
1.829369028059e-04 1.241111672673e-04 0.0 
1.241111672673e-04 7.010617120742e-04 0.0 
0.0 0.0 0.0 
-1.123821308604e-04 1.305874047996e-04 0.0 
1.305874047996e-04 2.381960244393e-03 0.0 
0.0 0.0 0.0 
-6.817695933081e-05 3.523576249932e-04 0.0 
3.523576249932e-04 2.086716778463e-03 0.0 
0.0 0.0 0.0 
1.138441811694e-04 6.983648062710e-05 0.0 
6.983648062710e-05 9.204757992982e-04 0.0 
0.0 0.0 0.0 
1.047593646448e-04 2.869445948060e-04 0.0 
2.869445948060e-04 1.294174988628e-03 0.0 
0.0 0.0 0.0 
1.746635349771e-04 5.859342185663e-05 0.0 
5.859342185663e-05 6.308839135591e-04 0.0 
0.0 0.0 0.0 
-1.470915051016e-04 1.722243276856e-04 0.0 
1.722243276856e-04 2.321381452481e-03 0.0 
0.0 0.0 0.0 
1.853882219394e-04 1.148154949890e-04 0.0 
1.148154949890e-04 7.083331131739e-04 0.0 
0.0 0.0 0.0 
8.503107469338e-05 7.452794688489e-05 0.0 
7.452794688489e-05 1.025783729064e-03 0.0 
0.0 0.0 0.0 
-1.536972960134e-04 1.406227247861e-04 0.0 
1.406227247861e-04 2.320315842490e-03 0.0 
0.0 0.0 0.0 
-1.907638084053e-04 1.898201447456e-04 0.0 
1.898201447456e-04 2.280351037245e-03 0.0 
0.0 0.0 0.0 
1.716102764140e-04 1.650211147426e-04 0.0 
1.650211147426e-04 9.242809844383e-04 0.0 
0.0 0.0 0.0 
1.774300696784e-04 1.350688234204e-04 0.0 
1.350688234204e-04 6.977203011427e-04 0.0 
0.0 0.0 0.0 
2.111434412111e-05 3.551459944653e-04 0.0 
3.551459944653e-04 1.623954228562e-03 0.0 
0.0 0.0 0.0 
-5.074374688319e-05 3.339267287208e-04 0.0 
3.339267287208e-04 1.631245417282e-03 0.0 
0.0 0.0 0.0 
7.024208598216e-05 -2.468088706527e-05 0.0 
-2.468088706527e-05 2.991967999038e-04 0.0 
0.0 0.0 0.0 
8.884159010880e-05 2.540299346617e-05 0.0 
2.540299346617e-05 3.838666972922e-04 0.0 
0.0 0.0 0.0 
8.586016404299e-05 2.324507566768e-04 0.0 
2.324507566768e-04 8.508070528594e-04 0.0 
0.0 0.0 0.0 
5.327033766878e-05 3.064851339615e-04 0.0 
3.064851339615e-04 1.271245195462e-03 0.0 
0.0 0.0 0.0 
7.292483995958e-05 6.817302544191e-05 0.0 
6.817302544191e-05 1.057027572589e-03 0.0 
0.0 0.0 0.0 
-1.991597585077e-04 1.549284409701e-04 0.0 
1.549284409701e-04 2.284273859566e-03 0.0 
0.0 0.0 0.0 
1.614210296523e-04 1.086390980706e-04 0.0 
1.086390980706e-04 7.018583425136e-04 0.0 
0.0 0.0 0.0 
2.878552454288e-05 3.167663721650e-04 0.0 
3.167663721650e-04 1.436753008307e-03 0.0 
0.0 0.0 0.0 
1.401767299500e-04 2.017783781926e-04 0.0 
2.017783781926e-04 1.079717574047e-03 0.0 
0.0 0.0 0.0 
-1.410060931553e-04 1.047007704831e-04 0.0 
1.047007704831e-04 2.369463436368e-03 0.0 
0.0 0.0 0.0 
2.675672664543e-06 3.730093141665e-04 0.0 
3.730093141665e-04 1.717229297283e-03 0.0 
0.0 0.0 0.0 
-2.027051619709e-04 1.234459945821e-04 0.0 
1.234459945821e-04 2.209324513787e-03 0.0 
0.0 0.0 0.0 
1.260086133570e-04 1.638540498247e-04 0.0 
1.638540498247e-04 1.054914268298e-03 0.0 
0.0 0.0 0.0 
1.679289464167e-04 1.170336845223e-04 0.0 
1.170336845223e-04 7.744669352165e-04 0.0 
0.0 0.0 0.0 
1.242495882774e-04 1.858136705256e-04 0.0 
1.858136705256e-04 1.081224952862e-03 0.0 
0.0 0.0 0.0 
1.156831514213e-04 2.600257390297e-04 0.0 
2.600257390297e-04 1.042750590472e-03 0.0 
0.0 0.0 0.0 
-1.287059738414e-04 1.601081999455e-04 0.0 
1.601081999455e-04 2.387836471678e-03 0.0 
0.0 0.0 0.0 
-1.345814593312e-05 3.879343605977e-04 0.0 
3.879343605977e-04 1.815014471532e-03 0.0 
0.0 0.0 0.0 
1.805549688152e-04 1.477265446580e-04 0.0 
1.477265446580e-04 8.502807325790e-04 0.0 
0.0 0.0 0.0 
8.959553962362e-05 3.864756377187e-05 0.0 
3.864756377187e-05 3.252811023928e-04 0.0 
0.0 0.0 0.0 
9.207466125183e-05 3.226160551566e-04 0.0 
3.226160551566e-04 1.387271545717e-03 0.0 
0.0 0.0 0.0 
1.091753031170e-04 2.507961408516e-04 0.0 
2.507961408516e-04 1.112284245197e-03 0.0 
0.0 0.0 0.0 
1.537671141503e-04 1.196222261409e-04 0.0 
1.196222261409e-04 7.031067556977e-04 0.0 
0.0 0.0 0.0 
1.589387782068e-04 1.538562900579e-04 0.0 
1.538562900579e-04 9.187992436710e-04 0.0 
0.0 0.0 0.0 
1.203623216903e-04 1.264342490120e-04 0.0 
1.264342490120e-04 9.977437143533e-04 0.0 
0.0 0.0 0.0 
7.482701945660e-05 2.341484808679e-06 0.0 
2.341484808679e-06 3.312584640915e-04 0.0 
0.0 0.0 0.0 
1.851296209046e-04 1.309521500890e-04 0.0 
1.309521500890e-04 7.783622355715e-04 0.0 
0.0 0.0 0.0 
-1.284597558306e-04 3.107698214793e-04 0.0 
3.107698214793e-04 1.884243186273e-03 0.0 
0.0 0.0 0.0 
6.783525667564e-05 5.584008913401e-05 0.0 
5.584008913401e-05 1.058778480245e-03 0.0 
0.0 0.0 0.0 
-9.565993918759e-05 3.278147825307e-04 0.0 
3.278147825307e-04 1.831550911073e-03 0.0 
0.0 0.0 0.0 
8.433723296175e-05 3.281095686907e-04 0.0 
3.281095686907e-04 1.406722606876e-03 0.0 
0.0 0.0 0.0 
-1.605499134165e-04 2.871159683627e-04 0.0 
2.871159683627e-04 1.937528401688e-03 0.0 
0.0 0.0 0.0 
-2.122180107702e-04 2.140655743592e-04 0.0 
2.140655743592e-04 2.037088729617e-03 0.0 
0.0 0.0 0.0 
-1.964481711159e-05 3.371597470510e-04 0.0 
3.371597470510e-04 1.581468778291e-03 0.0 
0.0 0.0 0.0 
1.213191730909e-04 2.607741727531e-04 0.0 
2.607741727531e-04 1.216019529065e-03 0.0 
0.0 0.0 0.0 
9.963896260912e-05 7.290525808719e-05 0.0 
7.290525808719e-05 9.699289112373e-04 0.0 
0.0 0.0 0.0 
-1.878334404757e-04 1.530641173247e-04 0.0 
1.530641173247e-04 2.246531644952e-03 0.0 
0.0 0.0 0.0 
-1.022776674698e-04 2.303351546574e-04 0.0 
2.303351546574e-04 2.344077649024e-03 0.0 
0.0 0.0 0.0 
-1.899864271606e-04 2.552188677117e-04 0.0 
2.552188677117e-04 1.989654510995e-03 0.0 
0.0 0.0 0.0 
1.400563444396e-04 7.745891279731e-05 0.0 
7.745891279731e-05 5.691115119146e-04 0.0 
0.0 0.0 0.0 
5.983735781068e-05 3.337858143506e-04 0.0 
3.337858143506e-04 1.478373218134e-03 0.0 
0.0 0.0 0.0 
-1.125786629795e-04 1.237945234218e-04 0.0 
1.237945234218e-04 2.409533062162e-03 0.0 
0.0 0.0 0.0 
1.469997786647e-04 2.245061712853e-04 0.0 
2.245061712853e-04 9.327018034035e-04 0.0 
0.0 0.0 0.0 
1.335159581946e-04 2.481854526215e-04 0.0 
2.481854526215e-04 1.019254250163e-03 0.0 
0.0 0.0 0.0 
1.529922806245e-04 9.256050000074e-05 0.0 
9.256050000074e-05 6.346837984694e-04 0.0 
0.0 0.0 0.0 
-1.797284443402e-04 1.895663034317e-04 0.0 
1.895663034317e-04 2.237240817565e-03 0.0 
0.0 0.0 0.0 
2.716544332770e-05 2.836653518482e-04 0.0 
2.836653518482e-04 1.091363640475e-03 0.0 
0.0 0.0 0.0 
1.441878086270e-04 2.497370129675e-04 0.0 
2.497370129675e-04 1.072384332338e-03 0.0 
0.0 0.0 0.0 
2.101392585430e-05 2.631616764567e-04 0.0 
2.631616764567e-04 1.094180288614e-03 0.0 
0.0 0.0 0.0 
1.408555656153e-04 2.416830129605e-04 0.0 
2.416830129605e-04 1.136930170291e-03 0.0 
0.0 0.0 0.0 
4.334286427343e-05 3.548303759199e-04 0.0 
3.548303759199e-04 1.547389518314e-03 0.0 
0.0 0.0 0.0 
1.597263845237e-04 8.263273115308e-05 0.0 
8.263273115308e-05 6.375655281885e-04 0.0 
0.0 0.0 0.0 
3.722953883400e-06 -1.350338984043e-05 0.0 
-1.350338984043e-05 2.183893725094e-04 0.0 
0.0 0.0 0.0 
-9.968263544402e-05 2.753210791139e-04 0.0 
2.753210791139e-04 2.278357390588e-03 0.0 
0.0 0.0 0.0 
7.431207946773e-06 2.971870567890e-04 0.0 
2.971870567890e-04 1.197386338892e-03 0.0 
0.0 0.0 0.0 
1.799195699208e-04 7.849728809139e-05 0.0 
7.849728809139e-05 6.793894040131e-04 0.0 
0.0 0.0 0.0 
8.088461770472e-05 3.434619356793e-04 0.0 
3.434619356793e-04 1.458532351219e-03 0.0 
0.0 0.0 0.0 
-2.141861648320e-04 1.660952782660e-04 0.0 
1.660952782660e-04 2.245075782582e-03 0.0 
0.0 0.0 0.0 
1.101198450013e-04 7.772004064924e-05 0.0 
7.772004064924e-05 9.420198313224e-04 0.0 
0.0 0.0 0.0 
1.392304607917e-04 1.603184111313e-04 0.0 
1.603184111313e-04 7.869251139183e-04 0.0 
0.0 0.0 0.0 
-6.541225028633e-06 8.785739521362e-06 0.0 
8.785739521362e-06 1.701316627041e-04 0.0 
0.0 0.0 0.0 
5.689484606308e-05 4.754583364543e-05 0.0 
4.754583364543e-05 1.095362206575e-03 0.0 
0.0 0.0 0.0 
7.768179758494e-05 2.986190063025e-04 0.0 
2.986190063025e-04 1.234218015289e-03 0.0 
0.0 0.0 0.0 
1.267693360261e-04 2.384862743633e-04 0.0 
2.384862743633e-04 1.141442542939e-03 0.0 
0.0 0.0 0.0 
4.593953013377e-05 3.670504182227e-04 0.0 
3.670504182227e-04 1.594897669547e-03 0.0 
0.0 0.0 0.0 
-5.790439759601e-05 8.116251155160e-06 0.0 
8.116251155160e-06 1.261987251266e-04 0.0 
0.0 0.0 0.0 
1.216608376782e-04 9.096139774275e-05 0.0 
9.096139774275e-05 9.399024049555e-04 0.0 
0.0 0.0 0.0 
9.066466783469e-05 1.231945942395e-04 0.0 
1.231945942395e-04 5.906467119554e-04 0.0 
0.0 0.0 0.0 
-2.329984366320e-04 1.394839214908e-04 0.0 
1.394839214908e-04 2.207609122139e-03 0.0 
0.0 0.0 0.0 
1.288735952090e-04 2.308472523078e-05 0.0 
2.308472523078e-05 7.096047245885e-04 0.0 
0.0 0.0 0.0 
1.766281727205e-04 1.092368261874e-04 0.0 
1.092368261874e-04 6.330398725756e-04 0.0 
0.0 0.0 0.0 
7.846364329978e-05 6.240680079589e-05 0.0 
6.240680079589e-05 1.027691892427e-03 0.0 
0.0 0.0 0.0 
1.326707416118e-04 2.598261518202e-04 0.0 
2.598261518202e-04 1.087663966687e-03 0.0 
0.0 0.0 0.0 
1.658248898784e-04 9.551651366075e-05 0.0 
9.551651366075e-05 5.669844217508e-04 0.0 
0.0 0.0 0.0 
5.140963353667e-05 3.009553063219e-04 0.0 
3.009553063219e-04 1.335777046898e-03 0.0 
0.0 0.0 0.0 
-1.890821874773e-05 -3.101773626261e-05 0.0 
-3.101773626261e-05 1.773737610047e-04 0.0 
0.0 0.0 0.0 
4.713036184434e-05 3.241000860078e-04 0.0 
3.241000860078e-04 1.463492128163e-03 0.0 
0.0 0.0 0.0 
1.253310925002e-04 2.258053908973e-04 0.0 
2.258053908973e-04 1.139394104298e-03 0.0 
0.0 0.0 0.0 
-2.643815461256e-05 3.871178951052e-04 0.0 
3.871178951052e-04 1.898293110396e-03 0.0 
0.0 0.0 0.0 
4.141503581323e-05 3.385605936360e-04 0.0 
3.385605936360e-04 1.528790848605e-03 0.0 
0.0 0.0 0.0 
1.138329692696e-04 3.754040031643e-05 0.0 
3.754040031643e-05 4.449204212491e-04 0.0 
0.0 0.0 0.0 
1.045477743564e-04 5.757405837777e-05 0.0 
5.757405837777e-05 9.224629651683e-04 0.0 
0.0 0.0 0.0 
-7.972850302596e-05 1.515492871666e-04 0.0 
1.515492871666e-04 2.418366419881e-03 0.0 
0.0 0.0 0.0 
4.255661406605e-05 3.237958256393e-04 0.0 
3.237958256393e-04 1.452979584464e-03 0.0 
0.0 0.0 0.0 
1.107523089539e-04 2.533820177998e-04 0.0 
2.533820177998e-04 1.217061839518e-03 0.0 
0.0 0.0 0.0 
1.512522895515e-04 1.470317442862e-04 0.0 
1.470317442862e-04 7.765061414191e-04 0.0 
0.0 0.0 0.0 
5.043399241345e-05 3.116549509986e-04 0.0 
3.116549509986e-04 1.399391378474e-03 0.0 
0.0 0.0 0.0 
6.875946170259e-05 4.673720561629e-05 0.0 
4.673720561629e-05 1.040311020601e-03 0.0 
0.0 0.0 0.0 
1.092909632925e-04 -2.659704531588e-06 0.0 
-2.659704531588e-06 6.437284200316e-04 0.0 
0.0 0.0 0.0 
7.163376144081e-05 3.311856183730e-04 0.0 
3.311856183730e-04 1.430883237568e-03 0.0 
0.0 0.0 0.0 
-1.896583754155e-04 1.179094334375e-04 0.0 
1.179094334375e-04 2.246180060733e-03 0.0 
0.0 0.0 0.0 
8.923312678233e-05 6.817227905708e-05 0.0 
6.817227905708e-05 9.977251465527e-04 0.0 
0.0 0.0 0.0 
1.046870078045e-04 9.627924958736e-05 0.0 
9.627924958736e-05 9.917128169552e-04 0.0 
0.0 0.0 0.0 
-1.407663462606e-04 -2.422846687274e-08 0.0 
-2.422846687274e-08 2.016099747739e-03 0.0 
0.0 0.0 0.0 
-1.401605952516e-04 9.820465427233e-07 0.0 
9.820465427233e-07 2.015967563605e-03 0.0 
0.0 0.0 0.0 
-1.489667242106e-04 3.102329372346e-04 0.0 
3.102329372346e-04 1.971793247338e-03 0.0 
0.0 0.0 0.0 
7.572478008733e-05 3.184962636866e-04 0.0 
3.184962636866e-04 1.364561831788e-03 0.0 
0.0 0.0 0.0 
1.231690803520e-04 2.311738353620e-05 0.0 
2.311738353620e-05 7.369409088973e-04 0.0 
0.0 0.0 0.0 
-4.510135671154e-05 3.379623048066e-04 0.0 
3.379623048066e-04 1.683898975941e-03 0.0 
0.0 0.0 0.0 
1.473938051826e-04 2.363024838581e-04 0.0 
2.363024838581e-04 1.001466138408e-03 0.0 
0.0 0.0 0.0 
1.000410106016e-04 2.084763657793e-04 0.0 
2.084763657793e-04 1.173366094307e-03 0.0 
0.0 0.0 0.0 
1.648986711122e-04 1.740878589997e-04 0.0 
1.740878589997e-04 7.723856253670e-04 0.0 
0.0 0.0 0.0 
-4.571791241537e-05 2.500079783376e-04 0.0 
2.500079783376e-04 2.418623026401e-03 0.0 
0.0 0.0 0.0 
-2.267334603749e-04 1.913559485143e-04 0.0 
1.913559485143e-04 2.010904343319e-03 0.0 
0.0 0.0 0.0 
1.240151015010e-04 2.265949161764e-04 0.0 
2.265949161764e-04 1.022605780070e-03 0.0 
0.0 0.0 0.0 
1.410601257570e-04 3.600336075205e-05 0.0 
3.600336075205e-05 7.074421787525e-04 0.0 
0.0 0.0 0.0 
9.986769928649e-05 5.094732270390e-05 0.0 
5.094732270390e-05 4.426818644927e-04 0.0 
0.0 0.0 0.0 
1.335822538036e-04 9.964561983130e-06 0.0 
9.964561983130e-06 6.173894895838e-04 0.0 
0.0 0.0 0.0 
7.785402090232e-05 3.079141501114e-04 0.0 
3.079141501114e-04 1.299001300053e-03 0.0 
0.0 0.0 0.0 
2.985211207562e-05 3.204320471418e-04 0.0 
3.204320471418e-04 1.374038202599e-03 0.0 
0.0 0.0 0.0 
-2.007556820099e-04 1.629713109215e-04 0.0 
1.629713109215e-04 2.203930303003e-03 0.0 
0.0 0.0 0.0 
-1.400527223239e-05 3.453130388652e-04 0.0 
3.453130388652e-04 1.637244826079e-03 0.0 
0.0 0.0 0.0 
-3.998096163538e-05 3.465868528546e-04 0.0 
3.465868528546e-04 1.735557027761e-03 0.0 
0.0 0.0 0.0 
2.904233241097e-05 -1.103565595439e-05 0.0 
-1.103565595439e-05 1.503999654606e-04 0.0 
0.0 0.0 0.0 
1.397214194234e-04 1.325804676906e-05 0.0 
1.325804676906e-05 5.773592462079e-04 0.0 
0.0 0.0 0.0 
3.154898832625e-06 2.808807936952e-04 0.0 
2.808807936952e-04 1.199302298598e-03 0.0 
0.0 0.0 0.0 
-7.486531849077e-05 3.324950994860e-04 0.0 
3.324950994860e-04 1.733437397353e-03 0.0 
0.0 0.0 0.0 
-9.764219976949e-05 3.333501672008e-04 0.0 
3.333501672008e-04 1.830470593202e-03 0.0 
0.0 0.0 0.0 
1.129083033966e-04 2.512118980740e-04 0.0 
2.512118980740e-04 1.218057975226e-03 0.0 
0.0 0.0 0.0 
5.248761985244e-05 4.703726369768e-06 0.0 
4.703726369768e-06 2.346969744809e-04 0.0 
0.0 0.0 0.0 
5.813080785599e-05 -1.724789138795e-05 0.0 
-1.724789138795e-05 2.854123707878e-04 0.0 
0.0 0.0 0.0 
9.787445261300e-05 2.804574876330e-04 0.0 
2.804574876330e-04 1.137088097915e-03 0.0 
0.0 0.0 0.0 
1.270014170802e-04 -9.779284697233e-08 0.0 
-9.779284697233e-08 5.794452370795e-04 0.0 
0.0 0.0 0.0 
-2.748960615450e-04 2.189910159322e-04 0.0 
2.189910159322e-04 1.906082447771e-03 0.0 
0.0 0.0 0.0 
-2.756617512664e-04 1.739581581338e-04 0.0 
1.739581581338e-04 1.969556844686e-03 0.0 
0.0 0.0 0.0 
-2.251772961570e-04 1.805827974813e-04 0.0 
1.805827974813e-04 2.201948916227e-03 0.0 
0.0 0.0 0.0 
2.604792179128e-05 8.139222041430e-05 0.0 
8.139222041430e-05 3.964941689389e-04 0.0 
0.0 0.0 0.0 
1.366437316210e-04 2.489089359942e-05 0.0 
2.489089359942e-05 6.683622492405e-04 0.0 
0.0 0.0 0.0 
1.333253334912e-04 1.608938236578e-04 0.0 
1.608938236578e-04 1.015470839144e-03 0.0 
0.0 0.0 0.0 
7.265701372039e-05 1.729293490962e-05 0.0 
1.729293490962e-05 2.778333783777e-04 0.0 
0.0 0.0 0.0 
1.644865606054e-05 3.887624867846e-04 0.0 
3.887624867846e-04 1.692615579955e-03 0.0 
0.0 0.0 0.0 
-1.519774126219e-04 1.685019982612e-04 0.0 
1.685019982612e-04 2.356000379320e-03 0.0 
0.0 0.0 0.0 
1.213124578152e-04 3.956502469717e-06 0.0 
3.956502469717e-06 6.325879498255e-04 0.0 
0.0 0.0 0.0 
1.027388807451e-04 6.551579072006e-05 0.0 
6.551579072006e-05 9.497260519511e-04 0.0 
0.0 0.0 0.0 
2.623110594269e-05 -1.472622453329e-05 0.0 
-1.472622453329e-05 1.033123292056e-04 0.0 
0.0 0.0 0.0 
1.403703186660e-04 1.358218100040e-04 0.0 
1.358218100040e-04 9.545268404143e-04 0.0 
0.0 0.0 0.0 
7.246818277196e-05 2.824125751660e-04 0.0 
2.824125751660e-04 1.236614778820e-03 0.0 
0.0 0.0 0.0 
2.794619121760e-05 -1.088997387337e-05 0.0 
-1.088997387337e-05 1.017765403917e-04 0.0 
0.0 0.0 0.0 
-1.262689287163e-04 1.650072438624e-04 0.0 
1.650072438624e-04 2.356260593231e-03 0.0 
0.0 0.0 0.0 
4.049220571134e-05 -6.521522658465e-06 0.0 
-6.521522658465e-06 2.745695348176e-04 0.0 
0.0 0.0 0.0 
-7.518625138114e-05 3.339801352083e-04 0.0 
3.339801352083e-04 1.733212389389e-03 0.0 
0.0 0.0 0.0 
2.728212379011e-05 3.077766892323e-04 0.0 
3.077766892323e-04 1.375754547976e-03 0.0 
0.0 0.0 0.0 
1.645958660477e-04 6.301957564312e-05 0.0 
6.301957564312e-05 6.670072148034e-04 0.0 
0.0 0.0 0.0 
1.653396828698e-04 8.762891139753e-05 0.0 
8.762891139753e-05 7.900172113549e-04 0.0 
0.0 0.0 0.0 
-1.164270034836e-04 1.965241721426e-04 0.0 
1.965241721426e-04 2.353522391964e-03 0.0 
0.0 0.0 0.0 
1.559867448055e-04 1.038007969585e-04 0.0 
1.038007969585e-04 8.634458583081e-04 0.0 
0.0 0.0 0.0 
1.171373940749e-04 2.699348586875e-04 0.0 
2.699348586875e-04 1.109339308088e-03 0.0 
0.0 0.0 0.0 
9.146312030106e-05 2.614627394715e-04 0.0 
2.614627394715e-04 1.139921471411e-03 0.0 
0.0 0.0 0.0 
-1.564325700515e-04 2.027049139718e-04 0.0 
2.027049139718e-04 2.259242784310e-04 0.0 
0.0 0.0 0.0 
3.515177817648e-05 1.104467893167e-05 0.0 
1.104467893167e-05 2.250467566691e-04 0.0 
0.0 0.0 0.0 
5.341485464139e-05 3.375906434283e-04 0.0 
3.375906434283e-04 1.498643540031e-03 0.0 
0.0 0.0 0.0 
-2.329367999074e-04 2.196426184625e-04 0.0 
2.196426184625e-04 2.098130218726e-03 0.0 
0.0 0.0 0.0 
7.380078806651e-05 3.460142275986e-04 0.0 
3.460142275986e-04 1.476038920754e-03 0.0 
0.0 0.0 0.0 
1.009274520831e-04 1.606051902977e-04 0.0 
1.606051902977e-04 5.849219035856e-04 0.0 
0.0 0.0 0.0 
-1.239460477793e-04 3.022296450139e-04 0.0 
3.022296450139e-04 2.088194029802e-03 0.0 
0.0 0.0 0.0 
3.384959604946e-05 3.572524556100e-04 0.0 
3.572524556100e-04 1.595627446028e-03 0.0 
0.0 0.0 0.0 
-2.282631408436e-04 1.929742144750e-04 0.0 
1.929742144750e-04 1.914894360232e-03 0.0 
0.0 0.0 0.0 
6.430758677833e-05 3.447975883303e-04 0.0 
3.447975883303e-04 1.497304905155e-03 0.0 
0.0 0.0 0.0 
9.490441322191e-05 5.339101825477e-05 0.0 
5.339101825477e-05 9.516929199207e-04 0.0 
0.0 0.0 0.0 
9.638442134174e-05 3.006063061830e-04 0.0 
3.006063061830e-04 1.269388140222e-03 0.0 
0.0 0.0 0.0 
1.422878936321e-04 2.450919403050e-05 0.0 
2.450919403050e-05 6.413453220575e-04 0.0 
0.0 0.0 0.0 
1.342734829624e-04 2.268951143398e-05 0.0 
2.268951143398e-05 6.829843730471e-04 0.0 
0.0 0.0 0.0 
-1.248674647664e-04 2.838971604452e-04 0.0 
2.838971604452e-04 2.276333807887e-03 0.0 
0.0 0.0 0.0 
1.702092465827e-04 7.153841699292e-05 0.0 
7.153841699292e-05 7.194750851605e-04 0.0 
0.0 0.0 0.0 
5.562896491940e-05 3.146443864496e-04 0.0 
3.146443864496e-04 1.333887700827e-03 0.0 
0.0 0.0 0.0 
1.687575326508e-04 2.017004518931e-04 0.0 
2.017004518931e-04 9.129617924595e-04 0.0 
0.0 0.0 0.0 
1.410497043779e-04 1.196364978609e-04 0.0 
1.196364978609e-04 9.399292023673e-04 0.0 
0.0 0.0 0.0 
1.361784011187e-04 2.009278400205e-04 0.0 
2.009278400205e-04 9.361987674323e-04 0.0 
0.0 0.0 0.0 
1.411503294195e-04 5.846727397081e-05 0.0 
5.846727397081e-05 4.469142987904e-04 0.0 
0.0 0.0 0.0 
1.830959063214e-04 1.235099798940e-04 0.0 
1.235099798940e-04 7.889740178175e-04 0.0 
0.0 0.0 0.0 
1.501909684243e-04 8.291861319162e-05 0.0 
8.291861319162e-05 5.025094168243e-04 0.0 
0.0 0.0 0.0 
-4.308206860293e-05 3.411359550049e-04 0.0 
3.411359550049e-04 1.683436181184e-03 0.0 
0.0 0.0 0.0 
1.338280936667e-04 5.138129595705e-05 0.0 
5.138129595705e-05 5.075069663278e-04 0.0 
0.0 0.0 0.0 
-2.112724652215e-05 3.317488295479e-04 0.0 
3.317488295479e-04 1.582210380913e-03 0.0 
0.0 0.0 0.0 
1.056426625647e-04 2.461207389418e-04 0.0 
2.461207389418e-04 1.218366825549e-03 0.0 
0.0 0.0 0.0 
1.355819608944e-04 2.335053179466e-04 0.0 
2.335053179466e-04 1.139928189459e-03 0.0 
0.0 0.0 0.0 
1.575850496498e-04 1.998393033598e-04 0.0 
1.998393033598e-04 8.504662750912e-04 0.0 
0.0 0.0 0.0 
-2.087449540128e-04 1.761052344818e-04 0.0 
1.761052344818e-04 2.154818155623e-03 0.0 
0.0 0.0 0.0 
9.143117565080e-05 6.034254425757e-05 0.0 
6.034254425757e-05 9.798607812714e-04 0.0 
0.0 0.0 0.0 
8.535174288182e-05 4.840865319980e-05 0.0 
4.840865319980e-05 9.818168269529e-04 0.0 
0.0 0.0 0.0 
-1.256122659343e-05 7.968783830113e-05 0.0 
7.968783830113e-05 3.393006951156e-04 0.0 
0.0 0.0 0.0 
8.845350821129e-06 3.379929367786e-04 0.0 
3.379929367786e-04 1.536694548135e-03 0.0 
0.0 0.0 0.0 
6.054043038817e-05 6.203648089333e-05 0.0 
6.203648089333e-05 1.092020675775e-03 0.0 
0.0 0.0 0.0 
-7.452588063439e-05 2.785611430074e-04 0.0 
2.785611430074e-04 1.157943022752e-03 0.0 
0.0 0.0 0.0 
1.209104477193e-04 1.320837910938e-05 0.0 
1.320837910938e-05 6.974859769084e-04 0.0 
0.0 0.0 0.0 
-1.384151315920e-04 1.613011779968e-04 0.0 
1.613011779968e-04 3.187557946454e-04 0.0 
0.0 0.0 0.0 
8.036780018994e-05 5.437898282219e-05 0.0 
5.437898282219e-05 1.010523428834e-03 0.0 
0.0 0.0 0.0 
1.296633462036e-04 7.166364845960e-05 0.0 
7.166364845960e-05 4.395593415363e-04 0.0 
0.0 0.0 0.0 
1.108754576089e-04 5.768195100000e-06 0.0 
5.768195100000e-06 6.640033162817e-04 0.0 
0.0 0.0 0.0 
1.439909109455e-04 2.576022369826e-04 0.0 
2.576022369826e-04 1.139098546176e-03 0.0 
0.0 0.0 0.0 
-2.324823209763e-04 1.969288760500e-04 0.0 
1.969288760500e-04 2.152214131652e-03 0.0 
0.0 0.0 0.0 
-2.165507512928e-04 1.937412411150e-04 0.0 
1.937412411150e-04 2.101433692117e-03 0.0 
0.0 0.0 0.0 
9.842316967501e-05 2.900651512279e-04 0.0 
2.900651512279e-04 1.202892633200e-03 0.0 
0.0 0.0 0.0 
-2.118085738474e-04 2.569028386856e-04 0.0 
2.569028386856e-04 1.668196815630e-03 0.0 
0.0 0.0 0.0 
-2.358194305627e-04 2.595789897499e-04 0.0 
2.595789897499e-04 1.796703333505e-03 0.0 
0.0 0.0 0.0 
7.610623274279e-05 4.264419444129e-05 0.0 
4.264419444129e-05 1.012478344839e-03 0.0 
0.0 0.0 0.0 
1.479921469185e-04 9.092542035804e-05 0.0 
9.092542035804e-05 8.428857433449e-04 0.0 
0.0 0.0 0.0 
1.652672491830e-04 8.080805188025e-05 0.0 
8.080805188025e-05 7.353487833697e-04 0.0 
0.0 0.0 0.0 
1.574582669892e-04 1.525094183130e-04 0.0 
1.525094183130e-04 9.523811102250e-04 0.0 
0.0 0.0 0.0 
1.852075415631e-04 1.069406830699e-04 0.0 
1.069406830699e-04 7.188936423799e-04 0.0 
0.0 0.0 0.0 
1.224930010064e-04 6.347724441531e-05 0.0 
6.347724441531e-05 5.050547393426e-04 0.0 
0.0 0.0 0.0 
-1.910041160078e-04 2.387618852791e-04 0.0 
2.387618852791e-04 1.672070376637e-03 0.0 
0.0 0.0 0.0 
-2.480250840640e-04 1.986849217138e-04 0.0 
1.986849217138e-04 2.068164519626e-03 0.0 
0.0 0.0 0.0 
-1.409476330928e-04 4.874615613604e-07 0.0 
4.874615613604e-07 2.016788147004e-03 0.0 
0.0 0.0 0.0 
1.202113489751e-04 2.189845039468e-04 0.0 
2.189845039468e-04 1.142062101939e-03 0.0 
0.0 0.0 0.0 
1.453410003396e-04 1.742599930143e-04 0.0 
1.742599930143e-04 8.542375635066e-04 0.0 
0.0 0.0 0.0 
8.238575908570e-05 3.072942289377e-04 0.0 
3.072942289377e-04 1.371774723838e-03 0.0 
0.0 0.0 0.0 
7.505290131404e-05 2.206262990516e-05 0.0 
2.206262990516e-05 9.893527918299e-04 0.0 
0.0 0.0 0.0 
1.679970797446e-04 1.100191676854e-04 0.0 
1.100191676854e-04 7.817667771086e-04 0.0 
0.0 0.0 0.0 
4.330615903814e-05 6.160222068361e-05 0.0 
6.160222068361e-05 1.142520264505e-03 0.0 
0.0 0.0 0.0 
1.420657258930e-04 4.198372950695e-05 0.0 
4.198372950695e-05 5.144720137908e-04 0.0 
0.0 0.0 0.0 
8.748042370876e-05 3.129923517180e-04 0.0 
3.129923517180e-04 1.372158001461e-03 0.0 
0.0 0.0 0.0 
9.159266019543e-05 2.730619261142e-04 0.0 
2.730619261142e-04 1.205489679348e-03 0.0 
0.0 0.0 0.0 
1.108175070286e-04 2.926204224070e-04 0.0 
2.926204224070e-04 1.244852243545e-03 0.0 
0.0 0.0 0.0 
1.016779430434e-04 1.738344311841e-04 0.0 
1.738344311841e-04 1.117347577556e-03 0.0 
0.0 0.0 0.0 
1.214356802910e-04 -1.643117811686e-05 0.0 
-1.643117811686e-05 4.698325460597e-04 0.0 
0.0 0.0 0.0 
3.242141004267e-05 3.284144991102e-04 0.0 
3.284144991102e-04 1.435412816526e-03 0.0 
0.0 0.0 0.0 
1.676678071547e-04 8.582501443284e-05 0.0 
8.582501443284e-05 7.222118234051e-04 0.0 
0.0 0.0 0.0 
3.468724714795e-06 3.215563379221e-04 0.0 
3.215563379221e-04 1.478808817543e-03 0.0 
0.0 0.0 0.0 
8.947425323202e-05 1.504438370113e-04 0.0 
1.504438370113e-04 6.707609695833e-04 0.0 
0.0 0.0 0.0 
1.224604801355e-04 2.874171093104e-04 0.0 
2.874171093104e-04 1.229075434976e-03 0.0 
0.0 0.0 0.0 
1.824599102525e-04 8.401052995282e-05 0.0 
8.401052995282e-05 6.635380135596e-04 0.0 
0.0 0.0 0.0 
1.338430544140e-04 3.531950407864e-05 0.0 
3.531950407864e-05 7.348426931992e-04 0.0 
0.0 0.0 0.0 
5.052297027408e-06 3.302873575624e-04 0.0 
3.302873575624e-04 1.477635273167e-03 0.0 
0.0 0.0 0.0 
-1.016014222002e-04 8.979897153554e-05 0.0 
8.979897153554e-05 2.104013289284e-04 0.0 
0.0 0.0 0.0 
1.648948516686e-04 2.170222819942e-04 0.0 
2.170222819942e-04 9.859106149817e-04 0.0 
0.0 0.0 0.0 
-8.911518257593e-05 1.422956031158e-04 0.0 
1.422956031158e-04 3.771246182629e-04 0.0 
0.0 0.0 0.0 
2.959398759872e-05 -1.802762431305e-05 0.0 
-1.802762431305e-05 1.648213767071e-04 0.0 
0.0 0.0 0.0 
1.306135103041e-04 2.483776044876e-05 0.0 
2.483776044876e-05 6.953748955090e-04 0.0 
0.0 0.0 0.0 
3.993654705159e-06 3.535009187429e-04 0.0 
3.535009187429e-04 1.657542031012e-03 0.0 
0.0 0.0 0.0 
-1.977218330960e-04 2.342974123530e-04 0.0 
2.342974123530e-04 2.065622432469e-03 0.0 
0.0 0.0 0.0 
-1.919238922903e-04 2.478974657548e-04 0.0 
2.478974657548e-04 1.449756353179e-03 0.0 
0.0 0.0 0.0 
0.0 2.543100213957e-04 0.0 
2.543100213957e-04 2.406056361414e-03 0.0 
0.0 0.0 0.0 
-1.448883799973e-04 1.696813916460e-04 0.0 
1.696813916460e-04 1.361223679006e-04 0.0 
0.0 0.0 0.0 
-1.955207438740e-04 2.540365180221e-04 0.0 
2.540365180221e-04 1.558060582894e-03 0.0 
0.0 0.0 0.0 
1.782904919896e-04 9.462210779690e-05 0.0 
9.462210779690e-05 7.478158010374e-04 0.0 
0.0 0.0 0.0 
1.179493846104e-04 5.253350085433e-06 0.0 
5.253350085433e-06 6.599690650595e-04 0.0 
0.0 0.0 0.0 
-1.514884268220e-04 2.973185838568e-04 0.0 
2.973185838568e-04 1.614966510661e-03 0.0 
0.0 0.0 0.0 
1.584787430535e-04 3.344032086993e-05 0.0 
3.344032086993e-05 4.869434490660e-04 0.0 
0.0 0.0 0.0 
1.552736068504e-04 7.346164756949e-05 0.0 
7.346164756949e-05 7.701649713454e-04 0.0 
0.0 0.0 0.0 
7.174643436314e-05 2.935590332428e-04 0.0 
2.935590332428e-04 1.301186047978e-03 0.0 
0.0 0.0 0.0 
1.568729056476e-04 2.335944380232e-04 0.0 
2.335944380232e-04 1.060809111108e-03 0.0 
0.0 0.0 0.0 
-3.517769922912e-05 3.645765895252e-04 0.0 
3.645765895252e-04 1.877878230246e-03 0.0 
0.0 0.0 0.0 
2.517129643231e-05 9.986661442962e-05 0.0 
9.986661442962e-05 3.195605646860e-04 0.0 
0.0 0.0 0.0 
1.313855264868e-04 1.573148336952e-05 0.0 
1.573148336952e-05 6.307070186660e-04 0.0 
0.0 0.0 0.0 
1.217910981819e-04 1.686543446422e-05 0.0 
1.686543446422e-05 6.860813540284e-04 0.0 
0.0 0.0 0.0 
8.457110989313e-05 -3.706711942749e-05 0.0 
-3.706711942749e-05 3.436004496076e-04 0.0 
0.0 0.0 0.0 
-2.328050651769e-04 1.600838712329e-04 0.0 
1.600838712329e-04 1.990634456254e-03 0.0 
0.0 0.0 0.0 
-2.088555890315e-04 2.563630717297e-04 0.0 
2.563630717297e-04 2.062583567567e-03 0.0 
0.0 0.0 0.0 
9.122306420162e-05 2.806945052609e-07 0.0 
2.806945052609e-07 8.805068079125e-04 0.0 
0.0 0.0 0.0 
1.721711196256e-05 -1.207803518151e-05 0.0 
-1.207803518151e-05 1.036988784426e-04 0.0 
0.0 0.0 0.0 
-8.964239364606e-05 -2.119185204480e-05 0.0 
-2.119185204480e-05 1.122152069000e-04 0.0 
0.0 0.0 0.0 
4.767142015316e-05 -4.405246626346e-05 0.0 
-4.405246626346e-05 2.378398744496e-04 0.0 
0.0 0.0 0.0 
1.146256542490e-04 5.987372571526e-06 0.0 
5.987372571526e-06 6.879066741299e-04 0.0 
0.0 0.0 0.0 
1.551037799719e-04 5.797500378499e-05 0.0 
5.797500378499e-05 5.786067655067e-04 0.0 
0.0 0.0 0.0 
1.379426794057e-04 1.420158712826e-05 0.0 
1.420158712826e-05 4.755492349020e-04 0.0 
0.0 0.0 0.0 
1.245926146582e-04 2.702043116477e-05 0.0 
2.702043116477e-05 4.517087244060e-04 0.0 
0.0 0.0 0.0 
1.244310855160e-04 2.450838643142e-05 0.0 
2.450838643142e-05 7.232953459693e-04 0.0 
0.0 0.0 0.0 
-1.422834841667e-04 2.977904102400e-04 0.0 
2.977904102400e-04 1.974154292317e-03 0.0 
0.0 0.0 0.0 
1.168552592288e-04 1.655327414752e-05 0.0 
1.655327414752e-05 7.145372681101e-04 0.0 
0.0 0.0 0.0 
1.724335893616e-04 8.464552764058e-05 0.0 
8.464552764058e-05 5.741330537337e-04 0.0 
0.0 0.0 0.0 
4.819011026447e-06 3.299450921711e-04 0.0 
3.299450921711e-04 1.537758906962e-03 0.0 
0.0 0.0 0.0 
-1.850559777477e-04 3.677197672418e-05 0.0 
3.677197672418e-05 2.126506539335e-03 0.0 
0.0 0.0 0.0 
1.292544550455e-04 2.746682096267e-04 0.0 
2.746682096267e-04 1.217580464521e-03 0.0 
0.0 0.0 0.0 
1.112584821632e-04 5.901065891201e-06 0.0 
5.901065891201e-06 7.163575869014e-04 0.0 
0.0 0.0 0.0 
1.162379178132e-04 1.329578770838e-05 0.0 
1.329578770838e-05 7.253231260285e-04 0.0 
0.0 0.0 0.0 
-1.827911801310e-04 2.356217331564e-04 0.0 
2.356217331564e-04 1.241893722794e-03 0.0 
0.0 0.0 0.0 
1.585485135656e-04 5.129281476733e-05 0.0 
5.129281476733e-05 5.885130441261e-04 0.0 
0.0 0.0 0.0 
1.119009725197e-04 1.528448455762e-05 0.0 
1.528448455762e-05 7.430421740113e-04 0.0 
0.0 0.0 0.0 
-1.209023663413e-04 7.415658576520e-06 0.0 
7.415658576520e-06 2.234524759647e-03 0.0 
0.0 0.0 0.0 
-1.295522109469e-04 6.266372768483e-06 0.0 
6.266372768483e-06 2.180695011027e-03 0.0 
0.0 0.0 0.0 
-1.863593245318e-04 2.449249067034e-04 0.0 
2.449249067034e-04 1.348529641208e-03 0.0 
0.0 0.0 0.0 
1.182048888400e-04 2.367106334091e-05 0.0 
2.367106334091e-05 7.519418294446e-04 0.0 
0.0 0.0 0.0 
1.295729609567e-04 -6.483540567044e-06 0.0 
-6.483540567044e-06 4.473940135346e-04 0.0 
0.0 0.0 0.0 
-4.927605501337e-05 1.871630020771e-04 0.0 
1.871630020771e-04 4.392990692010e-04 0.0 
0.0 0.0 0.0 
7.269945417021e-05 3.005989765946e-04 0.0 
3.005989765946e-04 1.375146675751e-03 0.0 
0.0 0.0 0.0 
4.485185131631e-05 -3.208480652413e-05 0.0 
-3.208480652413e-05 2.159318365049e-04 0.0 
0.0 0.0 0.0 
1.479926680472e-04 1.279713158367e-05 0.0 
1.279713158367e-05 4.634814488598e-04 0.0 
0.0 0.0 0.0 
1.443495823334e-04 2.045113074977e-04 0.0 
2.045113074977e-04 9.939572436373e-04 0.0 
0.0 0.0 0.0 
-1.634412587678e-04 2.395638471967e-04 0.0 
2.395638471967e-04 1.451635043836e-03 0.0 
0.0 0.0 0.0 
1.080659662003e-04 4.767894578274e-06 0.0 
4.767894578274e-06 7.457167690106e-04 0.0 
0.0 0.0 0.0 
7.039473535908e-05 -8.655929495674e-06 0.0 
-8.655929495674e-06 3.205452636197e-04 0.0 
0.0 0.0 0.0 
-2.602867704051e-04 1.663889615340e-04 0.0 
1.663889615340e-04 2.046633757983e-03 0.0 
0.0 0.0 0.0 
1.114958704065e-04 1.276454137581e-05 0.0 
1.276454137581e-05 7.538981906381e-04 0.0 
0.0 0.0 0.0 
1.621903318314e-04 5.935487343774e-05 0.0 
5.935487343774e-05 6.827306468040e-04 0.0 
0.0 0.0 0.0 
1.254842488925e-04 1.257135245508e-05 0.0 
1.257135245508e-05 6.704224599900e-04 0.0 
0.0 0.0 0.0 
-8.043636299182e-05 5.159825335729e-05 0.0 
5.159825335729e-05 1.892909919825e-04 0.0 
0.0 0.0 0.0 
-8.183005753437e-05 5.182746986872e-06 0.0 
5.182746986872e-06 2.389796685303e-03 0.0 
0.0 0.0 0.0 
1.522180461901e-04 2.609755741081e-05 0.0 
2.609755741081e-05 5.524769868110e-04 0.0 
0.0 0.0 0.0 
1.173158511942e-04 2.230683131829e-04 0.0 
2.230683131829e-04 1.165212527377e-03 0.0 
0.0 0.0 0.0 
1.003511702715e-04 2.784183102709e-04 0.0 
2.784183102709e-04 1.247572423572e-03 0.0 
0.0 0.0 0.0 
1.119661292648e-04 2.218231204005e-05 0.0 
2.218231204005e-05 7.810395942927e-04 0.0 
0.0 0.0 0.0 
1.068845379573e-04 1.160572849579e-05 0.0 
1.160572849579e-05 7.828963615581e-04 0.0 
0.0 0.0 0.0 
1.652685474480e-04 6.115357839091e-05 0.0 
6.115357839091e-05 5.202634084382e-04 0.0 
0.0 0.0 0.0 
-1.303160184207e-06 -2.988038059378e-05 0.0 
-2.988038059378e-05 1.523146534526e-04 0.0 
0.0 0.0 0.0 
-6.310571933477e-05 9.257621925021e-05 0.0 
9.257621925021e-05 1.810105742075e-04 0.0 
0.0 0.0 0.0 
1.058512132108e-04 1.958546067483e-05 0.0 
1.958546067483e-05 8.105430418663e-04 0.0 
0.0 0.0 0.0 
1.160176893280e-04 1.900193647759e-04 0.0 
1.900193647759e-04 1.117924784049e-03 0.0 
0.0 0.0 0.0 
1.193558653845e-04 -1.957301575922e-05 0.0 
-1.957301575922e-05 4.280459665025e-04 0.0 
0.0 0.0 0.0 
3.397057300902e-05 3.372067824296e-04 0.0 
3.372067824296e-04 1.497279534908e-03 0.0 
0.0 0.0 0.0 
-6.344859536922e-05 2.659611615301e-04 0.0 
2.659611615301e-04 1.049794352523e-03 0.0 
0.0 0.0 0.0 
-1.820887935466e-05 3.401047137438e-04 0.0 
3.401047137438e-04 1.637994064092e-03 0.0 
0.0 0.0 0.0 
5.871982929873e-05 1.613235061920e-04 0.0 
1.613235061920e-04 1.228191197161e-03 0.0 
0.0 0.0 0.0 
-1.905960284591e-04 -3.358067441571e-06 0.0 
-3.358067441571e-06 1.006183629122e-04 0.0 
0.0 0.0 0.0 
0.0 2.192918995183e-05 0.0 
2.192918995183e-05 2.510636446525e-03 0.0 
0.0 0.0 0.0 
0.0 1.918133942387e-05 0.0 
1.918133942387e-05 1.241663596188e-03 0.0 
0.0 0.0 0.0 
-1.366875041040e-04 -5.161935404332e-06 0.0 
-5.161935404332e-06 2.082304521524e-03 0.0 
0.0 0.0 0.0 
1.428702383786e-04 7.269250535433e-06 0.0 
7.269250535433e-06 5.266922707949e-04 0.0 
0.0 0.0 0.0 
8.847005556545e-05 2.858155986131e-04 0.0 
2.858155986131e-04 1.271886205511e-03 0.0 
0.0 0.0 0.0 
1.490386894978e-04 6.645793144598e-05 0.0 
6.645793144598e-05 5.717298559444e-04 0.0 
0.0 0.0 0.0 
2.178933453978e-05 -3.102963414053e-05 0.0 
-3.102963414053e-05 1.436269710295e-04 0.0 
0.0 0.0 0.0 
-1.307972882681e-04 1.340971451188e-04 0.0 
1.340971451188e-04 2.255425797284e-04 0.0 
0.0 0.0 0.0 
-8.033296776200e-05 6.513481428716e-05 0.0 
6.513481428716e-05 2.429537821343e-03 0.0 
0.0 0.0 0.0 
-1.804203746799e-04 2.870305422069e-04 0.0 
2.870305422069e-04 2.019370986955e-03 0.0 
0.0 0.0 0.0 
-2.735562504541e-04 1.464414702427e-04 0.0 
1.464414702427e-04 2.015376671912e-03 0.0 
0.0 0.0 0.0 
2.102948512039e-05 4.295391933558e-04 0.0 
4.295391933558e-04 1.708513076232e-03 0.0 
0.0 0.0 0.0 
5.808650975303e-05 -8.736512219755e-06 0.0 
-8.736512219755e-06 2.653065851839e-04 0.0 
0.0 0.0 0.0 
2.287414235780e-05 4.124699569482e-04 0.0 
4.124699569482e-04 1.657061302073e-03 0.0 
0.0 0.0 0.0 
-1.721055370030e-04 2.706493150122e-04 0.0 
2.706493150122e-04 2.022106337276e-03 0.0 
0.0 0.0 0.0 
1.321319777130e-04 -5.766336363704e-06 0.0 
-5.766336363704e-06 5.077564662508e-04 0.0 
0.0 0.0 0.0 
1.153354479826e-04 2.806546991516e-04 0.0 
2.806546991516e-04 1.176613679150e-03 0.0 
0.0 0.0 0.0 
1.484090880040e-04 1.086506380628e-05 0.0 
1.086506380628e-05 4.832481011348e-04 0.0 
0.0 0.0 0.0 
-4.802196379083e-05 2.063039685376e-04 0.0 
2.063039685376e-04 5.300196977023e-04 0.0 
0.0 0.0 0.0 
1.358001965708e-04 -1.350759239376e-06 0.0 
-1.350759239376e-06 4.460603126404e-04 0.0 
0.0 0.0 0.0 
-1.105578911980e-04 3.197049481306e-04 0.0 
3.197049481306e-04 1.923736886539e-03 0.0 
0.0 0.0 0.0 
6.568783554251e-05 1.867527167866e-05 0.0 
1.867527167866e-05 1.031609711845e-03 0.0 
0.0 0.0 0.0 
1.599627177444e-04 2.870479623645e-05 0.0 
2.870479623645e-05 5.037478952401e-04 0.0 
0.0 0.0 0.0 
1.213816271850e-05 3.477443008640e-04 0.0 
3.477443008640e-04 1.595856014204e-03 0.0 
0.0 0.0 0.0 
-1.297280447702e-04 -7.520874231337e-06 0.0 
-7.520874231337e-06 6.719231741137e-05 0.0 
0.0 0.0 0.0 
1.686135460577e-04 5.323288894425e-05 0.0 
5.323288894425e-05 5.329333905479e-04 0.0 
0.0 0.0 0.0 
-1.667245207405e-04 2.852658418448e-04 0.0 
2.852658418448e-04 2.124763194158e-03 0.0 
0.0 0.0 0.0 
1.232529042676e-04 -9.777788998107e-06 0.0 
-9.777788998107e-06 4.317817687669e-04 0.0 
0.0 0.0 0.0 
1.063927322402e-04 -2.930902089089e-05 0.0 
-2.930902089089e-05 3.918664776055e-04 0.0 
0.0 0.0 0.0 
1.067299081985e-04 2.638916893141e-04 0.0 
2.638916893141e-04 1.179419095307e-03 0.0 
0.0 0.0 0.0 
4.938315569292e-05 -2.228777737766e-05 0.0 
-2.228777737766e-05 2.204455699355e-04 0.0 
0.0 0.0 0.0 
-1.768260600847e-04 2.273119008297e-04 0.0 
2.273119008297e-04 1.029211987368e-03 0.0 
0.0 0.0 0.0 
-1.829691520826e-04 2.477033543727e-04 0.0 
2.477033543727e-04 1.143224615862e-03 0.0 
0.0 0.0 0.0 
1.083279518221e-04 -1.861278416666e-05 0.0 
-1.861278416666e-05 3.759253942026e-04 0.0 
0.0 0.0 0.0 
1.609396644764e-04 7.690829332777e-05 0.0 
7.690829332777e-05 7.512906136551e-04 0.0 
0.0 0.0 0.0 
1.595951947364e-04 2.125921195210e-04 0.0 
2.125921195210e-04 9.198650004780e-04 0.0 
0.0 0.0 0.0 
5.283249077781e-06 3.401758435624e-04 0.0 
3.401758435624e-04 1.596742112242e-03 0.0 
0.0 0.0 0.0 
-4.078681080610e-05 3.652780894935e-04 0.0 
3.652780894935e-04 2.043577540586e-03 0.0 
0.0 0.0 0.0 
-1.633873472072e-04 2.424734090895e-04 0.0 
2.424734090895e-04 1.240251360141e-03 0.0 
0.0 0.0 0.0 
-1.103255432530e-04 7.171710710300e-07 0.0 
7.171710710300e-07 2.289763428054e-03 0.0 
0.0 0.0 0.0 
1.493629633753e-05 3.872381981777e-04 0.0 
3.872381981777e-04 1.776093615741e-03 0.0 
0.0 0.0 0.0 
1.592526205680e-04 7.102432734828e-05 0.0 
7.102432734828e-05 5.098060730426e-04 0.0 
0.0 0.0 0.0 
-1.015777944746e-04 2.004386268313e-04 0.0 
2.004386268313e-04 3.792381731254e-04 0.0 
0.0 0.0 0.0 
-8.214738073165e-05 2.647978015401e-04 0.0 
2.647978015401e-04 1.160447200131e-03 0.0 
0.0 0.0 0.0 
1.583710192934e-04 5.639943920087e-05 0.0 
5.639943920087e-05 7.007917211679e-04 0.0 
0.0 0.0 0.0 
-3.380132158504e-05 3.503215224253e-04 0.0 
3.503215224253e-04 1.735059417470e-03 0.0 
0.0 0.0 0.0 
1.755708179554e-04 7.439306260510e-05 0.0 
7.439306260510e-05 6.979625502106e-04 0.0 
0.0 0.0 0.0 
-3.057530664663e-05 6.563474467718e-05 0.0 
6.563474467718e-05 2.874264305173e-04 0.0 
0.0 0.0 0.0 
1.552401924738e-04 9.427759347912e-05 0.0 
9.427759347912e-05 8.221214437591e-04 0.0 
0.0 0.0 0.0 
-5.256022477618e-05 2.251189709474e-04 0.0 
2.251189709474e-04 6.285997658588e-04 0.0 
0.0 0.0 0.0 
1.470200161287e-04 1.890098836717e-04 0.0 
1.890098836717e-04 9.232965507115e-04 0.0 
0.0 0.0 0.0 
1.726584921320e-04 9.092924450207e-05 0.0 
9.092924450207e-05 7.673691009840e-04 0.0 
0.0 0.0 0.0 
1.284490728801e-04 2.725887710864e-04 0.0 
2.725887710864e-04 1.157596190015e-03 0.0 
0.0 0.0 0.0 
-1.326293902486e-04 1.033942163366e-05 0.0 
1.033942163366e-05 2.223936225132e-03 0.0 
0.0 0.0 0.0 
9.640711910563e-05 -3.320219489810e-05 0.0 
-3.320219489810e-05 3.779743817907e-04 0.0 
0.0 0.0 0.0 
-4.891064396217e-05 1.620088099801e-04 0.0 
1.620088099801e-04 3.536191540703e-04 0.0 
0.0 0.0 0.0 
1.652866216455e-04 1.078113868754e-04 0.0 
1.078113868754e-04 8.402606938531e-04 0.0 
0.0 0.0 0.0 
-5.359553837125e-05 2.362753218159e-04 0.0 
2.362753218159e-04 7.268134761651e-04 0.0 
0.0 0.0 0.0 
-7.887424079633e-05 2.125603544688e-05 0.0 
2.125603544688e-05 1.077522640429e-04 0.0 
0.0 0.0 0.0 
-5.251933524375e-05 1.374917356507e-05 0.0 
1.374917356507e-05 2.435882503533e-03 0.0 
0.0 0.0 0.0 
-7.578829320420e-05 1.196389623256e-05 0.0 
1.196389623256e-05 2.390062700656e-03 0.0 
0.0 0.0 0.0 
-2.737904926176e-05 -2.396675528015e-05 0.0 
-2.396675528015e-05 7.025198181188e-05 0.0 
0.0 0.0 0.0 
1.452471554750e-04 1.121463409049e-04 0.0 
1.121463409049e-04 8.964469914590e-04 0.0 
0.0 0.0 0.0 
6.683691896114e-05 -4.149725105255e-05 0.0 
-4.149725105255e-05 2.903033921007e-04 0.0 
0.0 0.0 0.0 
8.073528027341e-05 -2.480778347476e-05 0.0 
-2.480778347476e-05 3.098475890304e-04 0.0 
0.0 0.0 0.0 
1.447503804708e-05 3.605716228872e-04 0.0 
3.605716228872e-04 1.657079356671e-03 0.0 
0.0 0.0 0.0 
1.173597288355e-04 2.548071574537e-04 0.0 
2.548071574537e-04 1.160061072455e-03 0.0 
0.0 0.0 0.0 
3.403715258976e-05 3.489727920655e-04 0.0 
3.489727920655e-04 1.559923688547e-03 0.0 
0.0 0.0 0.0 
1.509349772673e-04 2.972737390220e-05 0.0 
2.972737390220e-05 5.374072011020e-04 0.0 
0.0 0.0 0.0 
-1.411235040840e-04 -4.724519969392e-07 0.0 
-4.724519969392e-07 2.016855070664e-03 0.0 
0.0 0.0 0.0 
2.818207019950e-05 1.316841754503e-04 0.0 
1.316841754503e-04 1.211404099845e-03 0.0 
0.0 0.0 0.0 
6.156670470081e-05 -2.792425904572e-05 0.0 
-2.792425904572e-05 2.560306259691e-04 0.0 
0.0 0.0 0.0 
1.111218699326e-04 2.125395053000e-04 0.0 
2.125395053000e-04 1.147323712033e-03 0.0 
0.0 0.0 0.0 
1.360595715776e-04 2.150195942122e-04 0.0 
2.150195942122e-04 1.005027659904e-03 0.0 
0.0 0.0 0.0 
4.787312970911e-05 -5.635854499434e-06 0.0 
-5.635854499434e-06 1.984120388658e-04 0.0 
0.0 0.0 0.0 
-6.355117881374e-05 3.400663649137e-04 0.0 
3.400663649137e-04 1.780514635902e-03 0.0 
0.0 0.0 0.0 
1.763471722869e-04 7.557573420096e-05 0.0 
7.557573420096e-05 5.841912452953e-04 0.0 
0.0 0.0 0.0 
-8.450422521622e-06 -3.383213023963e-05 0.0 
-3.383213023963e-05 1.185341082364e-04 0.0 
0.0 0.0 0.0 
1.551367511012e-04 3.974027216781e-05 0.0 
3.974027216781e-05 4.717416121311e-04 0.0 
0.0 0.0 0.0 
9.724067798667e-05 5.544377189816e-06 0.0 
5.544377189816e-06 8.493919672503e-04 0.0 
0.0 0.0 0.0 
-1.167676866944e-04 3.283655557919e-04 0.0 
3.283655557919e-04 1.921796072041e-03 0.0 
0.0 0.0 0.0 
2.794522957927e-05 -4.941159549840e-05 0.0 
-4.941159549840e-05 1.995072727217e-04 0.0 
0.0 0.0 0.0 
1.100034429384e-04 -1.207653835718e-06 0.0 
-1.207653835718e-06 6.655178091506e-04 0.0 
0.0 0.0 0.0 
-8.117452497403e-06 3.569683264329e-04 0.0 
3.569683264329e-04 1.694264802447e-03 0.0 
0.0 0.0 0.0 
9.695247973562e-05 2.859596814269e-04 0.0 
2.859596814269e-04 1.301119832591e-03 0.0 
0.0 0.0 0.0 
1.223710686080e-04 -1.155135800049e-05 0.0 
-1.155135800049e-05 4.098092999141e-04 0.0 
0.0 0.0 0.0 
7.312491658840e-05 2.874410330798e-07 0.0 
2.874410330798e-07 3.207428486947e-04 0.0 
0.0 0.0 0.0 
1.581185563648e-04 2.263847962790e-04 0.0 
2.263847962790e-04 9.908707937791e-04 0.0 
0.0 0.0 0.0 
-1.249009341936e-04 -4.828152367671e-06 0.0 
-4.828152367671e-06 2.203171623539e-03 0.0 
0.0 0.0 0.0 
-1.541443952469e-05 -3.574214158054e-05 0.0 
-3.574214158054e-05 1.197042811636e-04 0.0 
0.0 0.0 0.0 
1.398077797132e-05 4.247245731824e-04 0.0 
4.247245731824e-04 1.788244354204e-03 0.0 
0.0 0.0 0.0 
-3.442215103544e-05 3.507363126621e-04 0.0 
3.507363126621e-04 2.185435069501e-03 0.0 
0.0 0.0 0.0 
-1.337636222577e-04 -3.518863789230e-06 0.0 
-3.518863789230e-06 2.119597459755e-03 0.0 
0.0 0.0 0.0 
-9.324299459468e-05 1.822751817558e-04 0.0 
1.822751817558e-04 2.422050555997e-03 0.0 
0.0 0.0 0.0 
-1.834096276110e-05 3.869442122335e-04 0.0 
3.869442122335e-04 2.069394744662e-03 0.0 
0.0 0.0 0.0 
1.699158195170e-04 4.763801404935e-05 0.0 
4.763801404935e-05 5.484387500114e-04 0.0 
0.0 0.0 0.0 
1.427077179277e-04 8.111743111868e-06 0.0 
8.111743111868e-06 5.076574631098e-04 0.0 
0.0 0.0 0.0 
6.263587071320e-05 2.793590808809e-04 0.0 
2.793590808809e-04 1.360484557761e-03 0.0 
0.0 0.0 0.0 
-1.252925889023e-04 7.361245858990e-06 0.0 
7.361245858990e-06 7.108229792130e-05 0.0 
0.0 0.0 0.0 
6.484127421968e-05 4.678504398834e-06 0.0 
4.678504398834e-06 2.906006374126e-04 0.0 
0.0 0.0 0.0 
1.076947737884e-04 6.481195106400e-06 0.0 
6.481195106400e-06 6.813028694792e-04 0.0 
0.0 0.0 0.0 
1.086273978632e-04 -2.693719880937e-05 0.0 
-2.693719880937e-05 4.126833414912e-04 0.0 
0.0 0.0 0.0 
1.462103340708e-04 1.566351383107e-05 0.0 
1.566351383107e-05 4.444468941933e-04 0.0 
0.0 0.0 0.0 
-1.688326923519e-04 2.180381240778e-04 0.0 
2.180381240778e-04 8.221308150118e-04 0.0 
0.0 0.0 0.0 
-1.839871473833e-04 2.400977284634e-04 0.0 
2.400977284634e-04 9.381297827920e-04 0.0 
0.0 0.0 0.0 
-1.830921429148e-04 2.541280216178e-05 0.0 
2.541280216178e-05 2.132682263957e-03 0.0 
0.0 0.0 0.0 
1.477280045616e-04 3.493834763656e-05 0.0 
3.493834763656e-05 5.247489600921e-04 0.0 
0.0 0.0 0.0 
7.869685609374e-05 -7.137678003939e-06 0.0 
-7.137678003939e-06 3.426762539267e-04 0.0 
0.0 0.0 0.0 
1.113502384595e-04 3.031605517162e-04 0.0 
3.031605517162e-04 1.303528144141e-03 0.0 
0.0 0.0 0.0 
2.528087587694e-05 1.091644660539e-04 0.0 
1.091644660539e-04 1.269205043608e-03 0.0 
0.0 0.0 0.0 
2.491446378583e-05 1.250298106904e-04 0.0 
1.250298106904e-04 1.274233904385e-03 0.0 
0.0 0.0 0.0 
1.596744529082e-04 2.600015176112e-05 0.0 
2.600015176112e-05 5.231006506901e-04 0.0 
0.0 0.0 0.0 
-1.965074354577e-04 2.932529880399e-05 0.0 
2.932529880399e-05 2.089496912768e-03 0.0 
0.0 0.0 0.0 
-1.276204972577e-04 2.606914448319e-06 0.0 
2.606914448319e-06 1.079950071745e-04 0.0 
0.0 0.0 0.0 
-1.635652188724e-04 2.060970081521e-04 0.0 
2.060970081521e-04 6.230160503493e-04 0.0 
0.0 0.0 0.0 
1.734342423787e-05 -3.590132065015e-05 0.0 
-3.590132065015e-05 2.252622834362e-04 0.0 
0.0 0.0 0.0 
-1.672881150658e-04 2.149975177601e-04 0.0 
2.149975177601e-04 7.284697857128e-04 0.0 
0.0 0.0 0.0 
1.320604714672e-04 2.293080856871e-04 0.0 
2.293080856871e-04 1.074812818741e-03 0.0 
0.0 0.0 0.0 
1.345981097380e-04 -9.397092214466e-07 0.0 
-9.397092214466e-07 4.256558745475e-04 0.0 
0.0 0.0 0.0 
1.411371435807e-04 1.038126189491e-05 0.0 
1.038126189491e-05 4.907234180662e-04 0.0 
0.0 0.0 0.0 
-6.030155352599e-05 -3.083918235123e-05 0.0 
-3.083918235123e-05 1.491715752744e-04 0.0 
0.0 0.0 0.0 
-6.626923143016e-05 1.837614136566e-05 0.0 
1.837614136566e-05 2.399536016057e-03 0.0 
0.0 0.0 0.0 
1.316992518627e-04 -7.202548060556e-06 0.0 
-7.202548060556e-06 4.664577841509e-04 0.0 
0.0 0.0 0.0 
-6.482238687033e-05 6.947927356226e-05 0.0 
6.947927356226e-05 2.428769975209e-03 0.0 
0.0 0.0 0.0 
-9.402674663450e-05 2.068516644247e-05 0.0 
2.068516644247e-05 2.360208989041e-03 0.0 
0.0 0.0 0.0 
-2.582200547840e-05 3.113829991459e-05 0.0 
3.113829991459e-05 2.508802366690e-03 0.0 
0.0 0.0 0.0 
1.970731517420e-05 2.492605381368e-05 0.0 
2.492605381368e-05 1.242792885503e-03 0.0 
0.0 0.0 0.0 
-1.352148302147e-04 4.820378304322e-06 0.0 
4.820378304322e-06 2.121533860271e-03 0.0 
0.0 0.0 0.0 
1.324580120998e-04 -6.892357236350e-06 0.0 
-6.892357236350e-06 4.863766499321e-04 0.0 
0.0 0.0 0.0 
-1.677882805970e-04 2.507144448620e-04 0.0 
2.507144448620e-04 1.031495772077e-03 0.0 
0.0 0.0 0.0 
1.475302539007e-04 1.056826891540e-05 0.0 
1.056826891540e-05 5.049113706344e-04 0.0 
0.0 0.0 0.0 
0.0 8.475820379729e-05 0.0 
8.475820379729e-05 1.261107672264e-03 0.0 
0.0 0.0 0.0 
-1.473088401254e-04 1.795344344479e-04 0.0 
1.795344344479e-04 4.167787702389e-04 0.0 
0.0 0.0 0.0 
-1.541623333172e-04 1.964640482923e-04 0.0 
1.964640482923e-04 5.202180312869e-04 0.0 
0.0 0.0 0.0 
9.954940217494e-05 2.404613135453e-04 0.0 
2.404613135453e-04 1.218942232788e-03 0.0 
0.0 0.0 0.0 
-1.599019690869e-04 1.068267539183e-05 0.0 
1.068267539183e-05 2.078827740992e-03 0.0 
0.0 0.0 0.0 
-5.752904953049e-05 4.659316156112e-05 0.0 
4.659316156112e-05 2.434505470626e-03 0.0 
0.0 0.0 0.0 
-1.630156596200e-05 3.503551078525e-04 0.0 
3.503551078525e-04 1.694688653876e-03 0.0 
0.0 0.0 0.0 
9.550019942317e-05 3.169666728116e-04 0.0 
3.169666728116e-04 1.372682281856e-03 0.0 
0.0 0.0 0.0 
-7.631830155619e-05 3.547990868780e-04 0.0 
3.547990868780e-04 1.916011183239e-03 0.0 
0.0 0.0 0.0 
-1.381043986024e-04 1.069930845008e-05 0.0 
1.069930845008e-05 2.136321681855e-03 0.0 
0.0 0.0 0.0 
9.305590751629e-05 -3.607403521111e-05 0.0 
-3.607403521111e-05 3.573542388198e-04 0.0 
0.0 0.0 0.0 
1.054396166427e-04 -2.010017475939e-05 0.0 
-2.010017475939e-05 3.552071831709e-04 0.0 
0.0 0.0 0.0 
-1.142686489002e-04 1.260192404682e-05 0.0 
1.260192404682e-05 2.261677432328e-03 0.0 
0.0 0.0 0.0 
7.799704402078e-05 3.070013681143e-04 0.0 
3.070013681143e-04 1.380185432391e-03 0.0 
0.0 0.0 0.0 
-2.239392715780e-04 5.400424615535e-05 0.0 
5.400424615535e-05 2.040564847989e-03 0.0 
0.0 0.0 0.0 
-1.401603671597e-04 6.701380817380e-07 0.0 
6.701380817380e-07 2.069382936319e-03 0.0 
0.0 0.0 0.0 
-1.385251598908e-04 1.470299444296e-06 0.0 
1.470299444296e-06 2.119963001149e-03 0.0 
0.0 0.0 0.0 
-1.457690185375e-04 2.216859434177e-06 0.0 
2.216859434177e-06 2.139586275919e-03 0.0 
0.0 0.0 0.0 
9.249948705436e-06 -3.713598557360e-06 0.0 
-3.713598557360e-06 1.925953044459e-04 0.0 
0.0 0.0 0.0 
9.043486477189e-05 -2.550385782587e-05 0.0 
-2.550385782587e-05 3.220697773181e-04 0.0 
0.0 0.0 0.0 
-5.785161060579e-05 1.033091339108e-04 0.0 
1.033091339108e-04 2.464863940395e-03 0.0 
0.0 0.0 0.0 
-1.422474238293e-04 9.926126392116e-06 0.0 
9.926126392116e-06 2.199115429655e-03 0.0 
0.0 0.0 0.0 
4.478645704853e-05 3.257750543037e-04 0.0 
3.257750543037e-04 1.453652192595e-03 0.0 
0.0 0.0 0.0 
-6.471526929075e-05 3.822629673322e-04 0.0 
3.822629673322e-04 2.036701239852e-03 0.0 
0.0 0.0 0.0 
-6.743399981868e-05 3.415449114152e-04 0.0 
3.415449114152e-04 1.780273332688e-03 0.0 
0.0 0.0 0.0 
-1.172790628298e-04 1.894594825677e-04 0.0 
1.894594825677e-04 2.387270635256e-03 0.0 
0.0 0.0 0.0 
1.073584431348e-04 -3.164015033542e-06 0.0 
-3.164015033542e-06 4.888593772463e-04 0.0 
0.0 0.0 0.0 
9.578342279570e-05 -5.829984476960e-06 0.0 
-5.829984476960e-06 4.428167733135e-04 0.0 
0.0 0.0 0.0 
6.211204268713e-05 1.297647634327e-04 0.0 
1.297647634327e-04 1.146488872637e-03 0.0 
0.0 0.0 0.0 
-6.362117875236e-05 -1.613958311676e-05 0.0 
-1.613958311676e-05 8.758093615913e-05 0.0 
0.0 0.0 0.0 
6.477902041868e-05 -1.017166340448e-05 0.0 
-1.017166340448e-05 3.076393163981e-04 0.0 
0.0 0.0 0.0 
0.0 4.009275690653e-04 0.0 
4.009275690653e-04 1.680762388685e-03 0.0 
0.0 0.0 0.0 
3.567009496441e-05 -8.087047181770e-06 0.0 
-8.087047181770e-06 1.458390997384e-04 0.0 
0.0 0.0 0.0 
-1.382175749340e-04 1.571701475088e-06 0.0 
1.571701475088e-06 2.069749672290e-03 0.0 
0.0 0.0 0.0 
8.573548843449e-05 2.322027952866e-04 0.0 
2.322027952866e-04 1.248398841739e-03 0.0 
0.0 0.0 0.0 
-9.672451376286e-06 -2.069517478825e-05 0.0 
-2.069517478825e-05 1.046318393105e-04 0.0 
0.0 0.0 0.0 
-5.494361201785e-06 -1.398149258937e-05 0.0 
-1.398149258937e-05 5.566407676505e-05 0.0 
0.0 0.0 0.0 
-4.101841606174e-05 1.626891363540e-04 0.0 
1.626891363540e-04 2.474058367617e-03 0.0 
0.0 0.0 0.0 
-1.524557523045e-04 -2.672507359608e-08 0.0 
-2.672507359608e-08 2.020902167817e-03 0.0 
0.0 0.0 0.0 
-6.419208430830e-05 1.417831704896e-04 0.0 
1.417831704896e-04 2.446018364148e-03 0.0 
0.0 0.0 0.0 
6.676696792041e-05 2.464950612342e-04 0.0 
2.464950612342e-04 1.278666312083e-03 0.0 
0.0 0.0 0.0 
-1.508590357390e-04 -1.548115330863e-06 0.0 
-1.548115330863e-06 2.018882154947e-03 0.0 
0.0 0.0 0.0 
-1.253120800810e-04 8.152633531929e-06 0.0 
8.152633531929e-06 1.236042036048e-04 0.0 
0.0 0.0 0.0 
-2.776803773896e-05 2.232688255383e-05 0.0 
2.232688255383e-05 2.474330222896e-03 0.0 
0.0 0.0 0.0 
3.416864128281e-05 -2.936863947585e-05 0.0 
-2.936863947585e-05 1.653916977620e-04 0.0 
0.0 0.0 0.0 
-6.643384922578e-05 1.149183012828e-04 0.0 
1.149183012828e-04 2.431380105793e-03 0.0 
0.0 0.0 0.0 
0.0 6.643411291228e-05 0.0 
6.643411291228e-05 1.253807004276e-03 0.0 
0.0 0.0 0.0 
-8.289837530828e-05 3.376225642468e-04 0.0 
3.376225642468e-04 2.155414817612e-03 0.0 
0.0 0.0 0.0 
5.359493342838e-05 -9.355499863188e-07 0.0 
-9.355499863188e-07 2.355433656522e-04 0.0 
0.0 0.0 0.0 
-2.133842645275e-04 7.977470066208e-05 0.0 
7.977470066208e-05 2.121474153436e-03 0.0 
0.0 0.0 0.0 
9.810014624301e-05 -8.773887872371e-06 0.0 
-8.773887872371e-06 4.979666324789e-04 0.0 
0.0 0.0 0.0 
9.464504261425e-05 2.852839250729e-04 0.0 
2.852839250729e-04 1.304888792569e-03 0.0 
0.0 0.0 0.0 
2.594801411826e-05 3.538119793032e-04 0.0 
3.538119793032e-04 1.530478149314e-03 0.0 
0.0 0.0 0.0 
-1.030356165584e-04 1.546957702343e-05 0.0 
1.546957702343e-05 2.319558133365e-03 0.0 
0.0 0.0 0.0 
3.484246779872e-05 3.337473804576e-04 0.0 
3.337473804576e-04 1.484315576462e-03 0.0 
0.0 0.0 0.0 
-3.086100921024e-05 -7.053472761293e-06 0.0 
-7.053472761293e-06 1.305358598271e-04 0.0 
0.0 0.0 0.0 
3.507700008254e-05 8.211799617604e-05 0.0 
8.211799617604e-05 1.196522834804e-03 0.0 
0.0 0.0 0.0 
6.229698148719e-05 -7.720927701540e-06 0.0 
-7.720927701540e-06 2.630845508012e-04 0.0 
0.0 0.0 0.0 
3.655644228062e-05 -8.626389812651e-06 0.0 
-8.626389812651e-06 1.463771970709e-04 0.0 
0.0 0.0 0.0 
5.617800047375e-05 2.164499295845e-04 0.0 
2.164499295845e-04 1.287756116548e-03 0.0 
0.0 0.0 0.0 
-8.782660112416e-05 2.738507593432e-04 0.0 
2.738507593432e-04 2.356574350696e-03 0.0 
0.0 0.0 0.0 
-5.662871090173e-05 1.647710065032e-04 0.0 
1.647710065032e-04 2.446609602839e-03 0.0 
0.0 0.0 0.0 
-1.439466274488e-04 7.003021317278e-06 0.0 
7.003021317278e-06 2.069034833182e-03 0.0 
0.0 0.0 0.0 
-2.288960767407e-04 1.611988362269e-04 0.0 
1.611988362269e-04 2.080674638374e-03 0.0 
0.0 0.0 0.0 
-4.580520116504e-05 1.586293949188e-04 0.0 
1.586293949188e-04 5.277141450346e-04 0.0 
0.0 0.0 0.0 
-3.981589017898e-05 4.111756318399e-04 0.0 
4.111756318399e-04 2.051512344705e-03 0.0 
0.0 0.0 0.0 
9.057728734740e-05 -2.042704810779e-06 0.0 
-2.042704810779e-06 4.096959174860e-04 0.0 
0.0 0.0 0.0 
-3.725082922545e-05 7.715499589652e-05 0.0 
7.715499589652e-05 2.643116377328e-04 0.0 
0.0 0.0 0.0 
1.141466807564e-04 3.010124537864e-04 0.0 
3.010124537864e-04 1.299057377622e-03 0.0 
0.0 0.0 0.0 
-1.407013904232e-04 -3.147624738193e-07 0.0 
-3.147624738193e-07 2.013554918023e-03 0.0 
0.0 0.0 0.0 
-8.022796211038e-05 2.605208662986e-04 0.0 
2.605208662986e-04 2.322628646427e-03 0.0 
0.0 0.0 0.0 
-2.125817309873e-05 -2.444368745118e-06 0.0 
-2.444368745118e-06 2.508709301076e-03 0.0 
0.0 0.0 0.0 
0.0 1.062908654934e-05 0.0 
1.062908654934e-05 2.513598038566e-03 0.0 
0.0 0.0 0.0 
1.087849970505e-05 -4.754222337003e-07 0.0 
-4.754222337003e-07 9.890434156334e-06 0.0 
0.0 0.0 0.0 
1.202812924372e-05 5.525898609700e-07 0.0 
5.525898609700e-07 1.079682880700e-05 0.0 
0.0 0.0 0.0 
-1.390629926099e-04 -4.830947139108e-06 0.0 
-4.830947139108e-06 2.019445211961e-03 0.0 
0.0 0.0 0.0 
-1.431669082468e-04 2.547219306453e-07 0.0 
2.547219306453e-07 2.013377789458e-03 0.0 
0.0 0.0 0.0 
0.0 9.361282562608e-06 0.0 
9.361282562608e-06 1.241618664665e-03 0.0 
0.0 0.0 0.0 
1.872256512514e-05 5.840510929134e-06 0.0 
5.840510929134e-06 1.229937642807e-03 0.0 
0.0 0.0 0.0 
1.396490064454e-05 1.443820803742e-06 0.0 
1.443820803742e-06 4.470757067820e-05 0.0 
0.0 0.0 0.0 
-1.225788178295e-04 -6.492510094227e-06 0.0 
-6.492510094227e-06 6.538515898802e-05 0.0 
0.0 0.0 0.0 
4.385844630073e-05 4.997524382708e-05 0.0 
4.997524382708e-05 1.114999109424e-03 0.0 
0.0 0.0 0.0 
6.289682565663e-05 3.752473759128e-04 0.0 
3.752473759128e-04 1.551175029031e-03 0.0 
0.0 0.0 0.0 
3.755462372945e-05 -2.435201952486e-05 0.0 
-2.435201952486e-05 1.950039280141e-04 0.0 
0.0 0.0 0.0 
4.411772350332e-05 8.692722872931e-05 0.0 
8.692722872931e-05 1.147099175233e-03 0.0 
0.0 0.0 0.0 
1.058658086279e-04 7.800750842816e-07 0.0 
7.800750842816e-07 7.343255147456e-04 0.0 
0.0 0.0 0.0 
1.067086611364e-04 -4.490600279743e-06 0.0 
-4.490600279743e-06 6.200214651733e-04 0.0 
0.0 0.0 0.0 
-1.326136855885e-04 1.468525680850e-05 0.0 
1.468525680850e-05 2.226532778603e-03 0.0 
0.0 0.0 0.0 
2.149056765388e-05 -2.758287911783e-05 0.0 
-2.758287911783e-05 1.987243062727e-04 0.0 
0.0 0.0 0.0 
1.072757924956e-04 2.698339637071e-04 0.0 
2.698339637071e-04 1.231403656034e-03 0.0 
0.0 0.0 0.0 
2.355125948239e-05 -1.821470838888e-05 0.0 
-1.821470838888e-05 1.536885096760e-04 0.0 
0.0 0.0 0.0 
1.089991546324e-04 -7.351589230901e-06 0.0 
-7.351589230901e-06 5.557230612654e-04 0.0 
0.0 0.0 0.0 
-2.507114264971e-05 3.819319424350e-04 0.0 
3.819319424350e-04 1.996231318041e-03 0.0 
0.0 0.0 0.0 
-6.713467637631e-05 -3.300336488943e-06 0.0 
-3.300336488943e-06 2.416857474604e-03 0.0 
0.0 0.0 0.0 
1.105443894791e-04 3.090225111217e-06 0.0 
3.090225111217e-06 6.156769450456e-04 0.0 
0.0 0.0 0.0 
-1.349343152490e-04 -4.019236416514e-07 0.0 
-4.019236416514e-07 2.163529743957e-03 0.0 
0.0 0.0 0.0 
3.020093962713e-05 4.023425173515e-04 0.0 
4.023425173515e-04 1.696491805603e-03 0.0 
0.0 0.0 0.0 
-5.325607530515e-05 3.651024712390e-04 0.0 
3.651024712390e-04 1.877897668335e-03 0.0 
0.0 0.0 0.0 
-6.058690200461e-05 3.519244143585e-04 0.0 
3.519244143585e-04 1.828291267998e-03 0.0 
0.0 0.0 0.0 
-1.470802704496e-04 -5.518582479808e-07 0.0 
-5.518582479808e-07 2.018198769323e-03 0.0 
0.0 0.0 0.0 
1.236171752821e-04 2.460466814695e-04 0.0 
2.460466814695e-04 1.147825576218e-03 0.0 
0.0 0.0 0.0 
-7.329248195265e-05 3.009420502297e-04 0.0 
3.009420502297e-04 2.247296439248e-03 0.0 
0.0 0.0 0.0 
7.062836663096e-05 -5.294849639734e-06 0.0 
-5.294849639734e-06 3.067680682314e-04 0.0 
0.0 0.0 0.0 
-4.468000587343e-05 -2.384345845287e-05 0.0 
-2.384345845287e-05 7.643197668017e-05 0.0 
0.0 0.0 0.0 
1.276960872487e-05 3.702733088976e-04 0.0 
3.702733088976e-04 1.683768775519e-03 0.0 
0.0 0.0 0.0 
1.273866571541e-04 2.257356533139e-04 0.0 
2.257356533139e-04 1.146424762961e-03 0.0 
0.0 0.0 0.0 
1.387496735639e-05 -4.510923975797e-05 0.0 
-4.510923975797e-05 1.620263874911e-04 0.0 
0.0 0.0 0.0 
-1.221945571592e-04 5.806990283874e-06 0.0 
5.806990283874e-06 2.265382587183e-03 0.0 
0.0 0.0 0.0 
2.153862886956e-05 4.784845689873e-05 0.0 
4.784845689873e-05 1.174953935586e-03 0.0 
0.0 0.0 0.0 
5.330259577629e-05 3.583871346755e-04 0.0 
3.583871346755e-04 1.561126077136e-03 0.0 
0.0 0.0 0.0 
3.735990503340e-05 3.910961177380e-04 0.0 
3.910961177380e-04 1.640321629993e-03 0.0 
0.0 0.0 0.0 
1.001059975705e-04 -1.489184640723e-06 0.0 
-1.489184640723e-06 8.055842327588e-04 0.0 
0.0 0.0 0.0 
-8.049646117536e-05 6.207492057566e-05 0.0 
6.207492057566e-05 1.146964870962e-04 0.0 
0.0 0.0 0.0 
-1.752292010962e-04 2.480907291982e-04 0.0 
2.480907291982e-04 8.248189376068e-04 0.0 
0.0 0.0 0.0 
-5.625422967848e-05 1.984620661908e-04 0.0 
1.984620661908e-04 7.253378119820e-04 0.0 
0.0 0.0 0.0 
-2.267740772882e-04 8.865035004912e-05 0.0 
8.865035004912e-05 2.134869237986e-03 0.0 
0.0 0.0 0.0 
1.386539646411e-04 2.655367750073e-04 0.0 
2.655367750073e-04 1.145422912778e-03 0.0 
0.0 0.0 0.0 
-6.911121946374e-05 8.171522297419e-05 0.0 
8.171522297419e-05 2.442488083171e-03 0.0 
0.0 0.0 0.0 
4.172802767943e-05 2.767342341891e-04 0.0 
2.767342341891e-04 1.366208938929e-03 0.0 
0.0 0.0 0.0 
-4.270606161283e-05 -3.577685290481e-05 0.0 
-3.577685290481e-05 1.307029823852e-04 0.0 
0.0 0.0 0.0 
-2.789172851447e-05 -3.361743377354e-05 0.0 
-3.361743377354e-05 1.168446564912e-04 0.0 
0.0 0.0 0.0 
-1.710213477700e-04 2.491154434663e-04 0.0 
2.491154434663e-04 6.267743814066e-04 0.0 
0.0 0.0 0.0 
-1.142312335167e-04 2.577254094948e-05 0.0 
2.577254094948e-05 2.283013330971e-03 0.0 
0.0 0.0 0.0 
8.112154108519e-05 -1.768823689751e-05 0.0 
-1.768823689751e-05 3.804204580813e-04 0.0 
0.0 0.0 0.0 
-9.890651243649e-05 2.176250931132e-04 0.0 
2.176250931132e-04 2.379453780102e-03 0.0 
0.0 0.0 0.0 
3.828787080584e-05 -1.684472521639e-05 0.0 
-1.684472521639e-05 1.853330203414e-04 0.0 
0.0 0.0 0.0 
7.912210475602e-05 2.628761843471e-04 0.0 
2.628761843471e-04 1.293526152089e-03 0.0 
0.0 0.0 0.0 
-1.671847437886e-04 2.314567416113e-05 0.0 
2.314567416113e-05 2.132988713704e-03 0.0 
0.0 0.0 0.0 
2.922098854863e-05 3.546840390361e-04 0.0 
3.546840390361e-04 1.543269059265e-03 0.0 
0.0 0.0 0.0 
7.640057694092e-05 3.113906068893e-04 0.0 
3.113906068893e-04 1.389507605641e-03 0.0 
0.0 0.0 0.0 
-2.445571426206e-04 1.223489409734e-04 0.0 
1.223489409734e-04 2.126230184546e-03 0.0 
0.0 0.0 0.0 
5.633820727935e-05 1.794360654244e-04 0.0 
1.794360654244e-04 1.249740838384e-03 0.0 
0.0 0.0 0.0 
-7.766252447827e-05 2.524711065899e-04 0.0 
2.524711065899e-04 2.380995338865e-03 0.0 
0.0 0.0 0.0 
-4.451830455987e-05 2.096385428595e-05 0.0 
2.096385428595e-05 2.476605155675e-03 0.0 
0.0 0.0 0.0 
-1.670305543149e-04 2.364842020024e-04 0.0 
2.364842020024e-04 4.197285598442e-04 0.0 
0.0 0.0 0.0 
-9.124882659473e-05 1.871552842972e-04 0.0 
1.871552842972e-04 2.387407824596e-03 0.0 
0.0 0.0 0.0 
6.366873940733e-06 4.041331685089e-04 0.0 
4.041331685089e-04 1.815970185388e-03 0.0 
0.0 0.0 0.0 
8.414800567191e-05 2.625310806905e-04 0.0 
2.625310806905e-04 1.293456202627e-03 0.0 
0.0 0.0 0.0 
9.953791980455e-05 3.212074607503e-04 0.0 
3.212074607503e-04 1.376618126730e-03 0.0 
0.0 0.0 0.0 
0.0 1.142770903992e-04 0.0 
1.142770903992e-04 1.271568190397e-03 0.0 
0.0 0.0 0.0 
-4.915859364452e-05 3.521963049573e-04 0.0 
3.521963049573e-04 1.828200648284e-03 0.0 
0.0 0.0 0.0 
-1.140922671871e-04 5.559468229908e-05 0.0 
5.559468229908e-05 5.899423030198e-05 0.0 
0.0 0.0 0.0 
-4.846754825083e-05 1.084759184861e-04 0.0 
1.084759184861e-04 3.517073150026e-04 0.0 
0.0 0.0 0.0 
-6.065497940633e-05 3.712768725903e-04 0.0 
3.712768725903e-04 1.959531014205e-03 0.0 
0.0 0.0 0.0 
-2.093907099666e-04 9.456262388492e-05 0.0 
9.456262388492e-05 2.169259890118e-03 0.0 
0.0 0.0 0.0 
4.681475437973e-05 2.186225091231e-05 0.0 
2.186225091231e-05 1.107142953120e-03 0.0 
0.0 0.0 0.0 
5.895131799027e-05 3.312870686318e-04 0.0 
3.312870686318e-04 1.460480218307e-03 0.0 
0.0 0.0 0.0 
2.486886178388e-05 9.588493728803e-05 0.0 
9.588493728803e-05 1.202852443171e-03 0.0 
0.0 0.0 0.0 
-1.006050904823e-04 3.270919832998e-05 0.0 
3.270919832998e-05 2.338712982699e-03 0.0 
0.0 0.0 0.0 
2.559388261814e-05 3.394447276238e-04 0.0 
3.394447276238e-04 1.504150676660e-03 0.0 
0.0 0.0 0.0 
5.670785896417e-05 1.509991853206e-04 0.0 
1.509991853206e-04 1.183484737564e-03 0.0 
0.0 0.0 0.0 
6.760471139122e-05 1.625481976289e-04 0.0 
1.625481976289e-04 1.182413642916e-03 0.0 
0.0 0.0 0.0 
8.301259044408e-05 -1.263242010184e-05 0.0 
-1.263242010184e-05 3.948779504814e-04 0.0 
0.0 0.0 0.0 
2.705968668892e-05 9.327965218273e-05 0.0 
9.327965218273e-05 1.263380718832e-03 0.0 
0.0 0.0 0.0 
-1.775679252255e-04 2.521515595772e-05 0.0 
2.521515595772e-05 2.074608242574e-03 0.0 
0.0 0.0 0.0 
-6.757170526661e-05 4.056683277758e-05 0.0 
4.056683277758e-05 2.435285179097e-03 0.0 
0.0 0.0 0.0 
-3.540337748076e-06 -3.923893487080e-05 0.0 
-3.923893487080e-05 1.146627333146e-04 0.0 
0.0 0.0 0.0 
-8.249554422746e-05 1.708443772936e-05 0.0 
1.708443772936e-05 2.400627473058e-03 0.0 
0.0 0.0 0.0 
-1.243530449553e-04 1.417574376648e-05 0.0 
1.417574376648e-05 2.270189768500e-03 0.0 
0.0 0.0 0.0 
2.226848728726e-05 -6.886082451212e-06 0.0 
-6.886082451212e-06 1.002639429226e-04 0.0 
0.0 0.0 0.0 
2.132050372627e-05 -2.514527410567e-05 0.0 
-2.514527410567e-05 2.306331599800e-04 0.0 
0.0 0.0 0.0 
-2.401386946205e-05 3.628236155705e-04 0.0 
3.628236155705e-04 1.790376435665e-03 0.0 
0.0 0.0 0.0 
-4.094541637811e-05 1.238591688036e-04 0.0 
1.238591688036e-04 2.457977628302e-03 0.0 
0.0 0.0 0.0 
-6.042959538810e-05 1.835836250627e-05 0.0 
1.835836250627e-05 2.441313550879e-03 0.0 
0.0 0.0 0.0 
6.677780865272e-05 3.422786431012e-04 0.0 
3.422786431012e-04 1.453302465246e-03 0.0 
0.0 0.0 0.0 
-1.398019769439e-04 1.708754708187e-05 0.0 
1.708754708187e-05 2.167716374193e-03 0.0 
0.0 0.0 0.0 
-2.334823690187e-05 -2.208226336222e-05 0.0 
-2.208226336222e-05 6.636617893641e-05 0.0 
0.0 0.0 0.0 
-6.579735686674e-05 4.468875319362e-05 0.0 
4.468875319362e-05 1.615013690173e-04 0.0 
0.0 0.0 0.0 
-1.154374567724e-05 -1.311522644510e-05 0.0 
-1.311522644510e-05 7.216758559148e-05 0.0 
0.0 0.0 0.0 
1.378249803841e-06 -4.550621659565e-05 0.0 
-4.550621659565e-05 1.525647930380e-04 0.0 
0.0 0.0 0.0 
-1.208935546818e-04 1.110114237863e-04 0.0 
1.110114237863e-04 8.193926384648e-05 0.0 
0.0 0.0 0.0 
1.061436370633e-04 7.891387609536e-07 0.0 
7.891387609536e-07 5.412274691061e-04 0.0 
0.0 0.0 0.0 
5.005970547778e-05 3.295710213769e-05 0.0 
3.295710213769e-05 1.106906716685e-03 0.0 
0.0 0.0 0.0 
-6.800898614423e-05 3.446754628475e-04 0.0 
3.446754628475e-04 2.156339942256e-03 0.0 
0.0 0.0 0.0 
-2.482924308799e-04 1.763405439190e-04 0.0 
1.763405439190e-04 2.122492259051e-03 0.0 
0.0 0.0 0.0 
9.933862958755e-05 -1.674784763659e-05 0.0 
-1.674784763659e-05 4.672540421513e-04 0.0 
0.0 0.0 0.0 
6.090425166483e-05 1.217880830633e-04 0.0 
1.217880830633e-04 1.149252454443e-03 0.0 
0.0 0.0 0.0 
9.514051218051e-05 2.128195976905e-04 0.0 
2.128195976905e-04 1.202151961697e-03 0.0 
0.0 0.0 0.0 
5.134759040670e-05 3.809512724027e-04 0.0 
3.809512724027e-04 1.561801986664e-03 0.0 
0.0 0.0 0.0 
1.273462433660e-05 3.807818532259e-04 0.0 
3.807818532259e-04 1.733545214264e-03 0.0 
0.0 0.0 0.0 
-1.494874392050e-05 3.781370881474e-04 0.0 
3.781370881474e-04 1.845101930515e-03 0.0 
0.0 0.0 0.0 
-3.899223401715e-06 -2.838645078687e-05 0.0 
-2.838645078687e-05 1.108289864515e-04 0.0 
0.0 0.0 0.0 
-7.623073662666e-05 -2.314181078860e-05 0.0 
-2.314181078860e-05 1.400292377711e-04 0.0 
0.0 0.0 0.0 
4.733883619656e-05 4.193330286310e-05 0.0 
4.193330286310e-05 1.117505605027e-03 0.0 
0.0 0.0 0.0 
2.980589389878e-05 -3.824224496754e-06 0.0 
-3.824224496754e-06 9.787064533207e-05 0.0 
0.0 0.0 0.0 
2.853062272479e-05 5.506567629116e-06 0.0 
5.506567629116e-06 1.222299080788e-04 0.0 
0.0 0.0 0.0 
-9.780546146798e-05 1.462969868560e-04 0.0 
1.462969868560e-04 1.993897090664e-04 0.0 
0.0 0.0 0.0 
-6.446426048523e-08 -3.299349224501e-05 0.0 
-3.299349224501e-05 1.042507192155e-04 0.0 
0.0 0.0 0.0 
2.896819967568e-05 1.647851372278e-04 0.0 
1.647851372278e-04 1.242352764576e-03 0.0 
0.0 0.0 0.0 
-1.465550073476e-05 4.030925824162e-04 0.0 
4.030925824162e-04 1.955694061291e-03 0.0 
0.0 0.0 0.0 
-5.896925249593e-05 8.523044225760e-05 0.0 
8.523044225760e-05 2.442682232371e-03 0.0 
0.0 0.0 0.0 
2.324369817019e-05 3.701612487306e-04 0.0 
3.701612487306e-04 1.592202132611e-03 0.0 
0.0 0.0 0.0 
8.853099812756e-05 1.993052603151e-04 0.0 
1.993052603151e-04 1.174568129809e-03 0.0 
0.0 0.0 0.0 
-1.338275798216e-04 1.964761200709e-05 0.0 
1.964761200709e-05 2.199996043206e-03 0.0 
0.0 0.0 0.0 
0.0 1.744014374966e-04 0.0 
1.744014374966e-04 2.468543411913e-03 0.0 
0.0 0.0 0.0 
5.427300788785e-05 -3.657030576549e-05 0.0 
-3.657030576549e-05 2.621004883125e-04 0.0 
0.0 0.0 0.0 
-1.414939663162e-04 -1.074070288445e-06 0.0 
-1.074070288445e-06 2.013151146621e-03 0.0 
0.0 0.0 0.0 
-1.561162606023e-05 -3.754920399022e-05 0.0 
-3.754920399022e-05 1.677551009367e-04 0.0 
0.0 0.0 0.0 
9.870724293037e-06 -1.184150005705e-05 0.0 
-1.184150005705e-05 5.413031299706e-05 0.0 
0.0 0.0 0.0 
2.506054156126e-05 6.474334162087e-05 0.0 
6.474334162087e-05 1.250850464267e-03 0.0 
0.0 0.0 0.0 
-2.325548026009e-04 9.934894472642e-05 0.0 
9.934894472642e-05 2.064102184152e-03 0.0 
0.0 0.0 0.0 
2.791820655812e-05 -1.219873681571e-05 0.0 
-1.219873681571e-05 1.454704115114e-04 0.0 
0.0 0.0 0.0 
1.036827663659e-04 2.589964910605e-06 0.0 
2.589964910605e-06 5.186928279797e-04 0.0 
0.0 0.0 0.0 
-1.892720313612e-05 4.242682250704e-04 0.0 
4.242682250704e-04 1.985945981434e-03 0.0 
0.0 0.0 0.0 
-8.768373154033e-05 1.142411569833e-04 0.0 
1.142411569833e-04 2.432105042067e-03 0.0 
0.0 0.0 0.0 
-4.678639402289e-05 2.767202213131e-04 0.0 
2.767202213131e-04 2.340885739094e-03 0.0 
0.0 0.0 0.0 
7.638892150164e-05 -1.106539532861e-05 0.0 
-1.106539532861e-05 3.586894474874e-04 0.0 
0.0 0.0 0.0 
-6.346563905468e-05 -4.441807056608e-06 0.0 
-4.441807056608e-06 1.471946444156e-04 0.0 
0.0 0.0 0.0 
4.217944548168e-05 1.053197215522e-04 0.0 
1.053197215522e-04 1.206204318706e-03 0.0 
0.0 0.0 0.0 
-2.302622269079e-05 1.635188693392e-05 0.0 
1.635188693392e-05 2.512493586810e-03 0.0 
0.0 0.0 0.0 
1.921451573228e-05 1.289976193460e-05 0.0 
1.289976193460e-05 1.241634754360e-03 0.0 
0.0 0.0 0.0 
-1.381855578930e-04 3.500191575529e-06 0.0 
3.500191575529e-06 2.058418138580e-03 0.0 
0.0 0.0 0.0 
6.279758969652e-05 2.140195040669e-04 0.0 
2.140195040669e-04 1.234201513004e-03 0.0 
0.0 0.0 0.0 
3.751832523546e-05 -1.822336667160e-05 0.0 
-1.822336667160e-05 1.488192707044e-04 0.0 
0.0 0.0 0.0 
-8.091238050034e-05 2.167501610570e-04 0.0 
2.167501610570e-04 2.379353797540e-03 0.0 
0.0 0.0 0.0 
2.028540827537e-06 -1.574640570708e-05 0.0 
-1.574640570708e-05 5.446482639693e-05 0.0 
0.0 0.0 0.0 
3.047372494658e-05 2.006748784801e-04 0.0 
2.006748784801e-04 1.278670255432e-03 0.0 
0.0 0.0 0.0 
-7.600321055046e-05 3.064109485990e-04 0.0 
3.064109485990e-04 2.311957687507e-03 0.0 
0.0 0.0 0.0 
-7.428376224594e-05 1.975291493928e-05 0.0 
1.975291493928e-05 1.000056612024e-04 0.0 
0.0 0.0 0.0 
4.198922962328e-05 3.577638643997e-04 0.0 
3.577638643997e-04 1.561724923159e-03 0.0 
0.0 0.0 0.0 
-1.117331726220e-04 1.521635732053e-05 0.0 
1.521635732053e-05 2.311333894536e-03 0.0 
0.0 0.0 0.0 
-3.109515756605e-05 8.973069424646e-05 0.0 
8.973069424646e-05 2.470150043893e-03 0.0 
0.0 0.0 0.0 
0.0 3.316643173428e-04 0.0 
3.316643173428e-04 1.511690156794e-03 0.0 
0.0 0.0 0.0 
-1.218977533425e-04 -2.490946826698e-06 0.0 
-2.490946826698e-06 2.234405883670e-03 0.0 
0.0 0.0 0.0 
-1.325769943172e-05 4.003279961593e-04 0.0 
4.003279961593e-04 2.016986322302e-03 0.0 
0.0 0.0 0.0 
-1.032625489626e-04 2.668037709383e-04 0.0 
2.668037709383e-04 2.321138877455e-03 0.0 
0.0 0.0 0.0 
-1.125596536706e-04 1.199618082782e-05 0.0 
1.199618082782e-05 2.269346391983e-03 0.0 
0.0 0.0 0.0 
-2.365747380495e-05 3.853553070463e-04 0.0 
3.853553070463e-04 1.954719509534e-03 0.0 
0.0 0.0 0.0 
9.350678202957e-05 -1.135819602862e-05 0.0 
-1.135819602862e-05 4.363457650611e-04 0.0 
0.0 0.0 0.0 
-1.427666914533e-04 -8.425603143077e-07 0.0 
-8.425603143077e-07 2.014224834435e-03 0.0 
0.0 0.0 0.0 
5.775305562450e-05 3.653762554837e-04 0.0 
3.653762554837e-04 1.537203196597e-03 0.0 
0.0 0.0 0.0 
-2.927977903955e-05 1.362283163280e-05 0.0 
1.362283163280e-05 2.480790567399e-03 0.0 
0.0 0.0 0.0 
1.453906640925e-05 9.997805743449e-07 0.0 
9.997805743449e-07 8.320087803382e-06 0.0 
0.0 0.0 0.0 
-1.401093208449e-04 1.107871491110e-06 0.0 
1.107871491110e-06 2.013592699246e-03 0.0 
0.0 0.0 0.0 
2.478262426098e-05 6.188931352081e-06 0.0 
6.188931352081e-06 1.186608550220e-03 0.0 
0.0 0.0 0.0 
3.997575130987e-05 -1.697598216418e-05 0.0 
-1.697598216418e-05 1.916826461885e-04 0.0 
0.0 0.0 0.0 
9.026655255440e-05 2.505027115352e-04 0.0 
2.505027115352e-04 1.269535379373e-03 0.0 
0.0 0.0 0.0 
-1.033451939800e-04 3.123432517686e-04 0.0 
3.123432517686e-04 2.243595512959e-03 0.0 
0.0 0.0 0.0 
-5.723995603268e-05 7.823010488526e-05 0.0 
7.823010488526e-05 2.468283455233e-03 0.0 
0.0 0.0 0.0 
3.947144575145e-05 -9.536531698671e-06 0.0 
-9.536531698671e-06 1.830576618238e-04 0.0 
0.0 0.0 0.0 
-6.319487813156e-05 9.620409179585e-05 0.0 
9.620409179585e-05 2.505154132544e-04 0.0 
0.0 0.0 0.0 
1.070295967684e-04 8.247040737955e-06 0.0 
8.247040737955e-06 6.483416405711e-04 0.0 
0.0 0.0 0.0 
-8.815559571707e-05 1.775888181646e-05 0.0 
1.775888181646e-05 2.365200531332e-03 0.0 
0.0 0.0 0.0 
-1.814664201013e-04 -7.763605864791e-06 0.0 
-7.763605864791e-06 9.604432830979e-05 0.0 
0.0 0.0 0.0 
-4.393188998342e-05 2.276805272866e-04 0.0 
2.276805272866e-04 2.399187417336e-03 0.0 
0.0 0.0 0.0 
-1.212712206463e-04 8.054487021716e-06 0.0 
8.054487021716e-06 2.217852379338e-03 0.0 
0.0 0.0 0.0 
1.866000599726e-05 -4.944690657106e-05 0.0 
-4.944690657106e-05 1.961735709024e-04 0.0 
0.0 0.0 0.0 
-1.329444342496e-04 9.996476492876e-06 0.0 
9.996476492876e-06 2.179633365538e-03 0.0 
0.0 0.0 0.0 
3.324110430469e-05 3.924008558377e-04 0.0 
3.924008558377e-04 1.620961378206e-03 0.0 
0.0 0.0 0.0 
1.078609923710e-04 -6.073144405584e-06 0.0 
-6.073144405584e-06 6.830971021679e-04 0.0 
0.0 0.0 0.0 
-1.245394071507e-04 9.738442971342e-05 0.0 
9.738442971342e-05 1.364098299366e-04 0.0 
0.0 0.0 0.0 
8.983983275823e-05 -7.026410626903e-06 0.0 
-7.026410626903e-06 3.930586361585e-04 0.0 
0.0 0.0 0.0 
1.116015993927e-04 2.678327157397e-06 0.0 
2.678327157397e-06 5.869518909454e-04 0.0 
0.0 0.0 0.0 
1.088574208998e-04 9.015443202267e-06 0.0 
9.015443202267e-06 7.137113182842e-04 0.0 
0.0 0.0 0.0 
5.387849914396e-05 3.280124545517e-04 0.0 
3.280124545517e-04 1.447454549292e-03 0.0 
0.0 0.0 0.0 
1.063059744568e-04 -5.266960955579e-06 0.0 
-5.266960955579e-06 5.714336964582e-04 0.0 
0.0 0.0 0.0 
1.110441671210e-04 2.942885828695e-06 0.0 
2.942885828695e-06 6.104606489361e-04 0.0 
0.0 0.0 0.0 
1.152037550689e-06 -1.471323959564e-05 0.0 
-1.471323959564e-05 9.387950850259e-05 0.0 
0.0 0.0 0.0 
5.023355577305e-05 9.643715507932e-05 0.0 
9.643715507932e-05 1.149117025550e-03 0.0 
0.0 0.0 0.0 
2.664409614317e-05 3.809671873660e-04 0.0 
3.809671873660e-04 1.684859934708e-03 0.0 
0.0 0.0 0.0 
-1.639007162402e-05 1.007783334189e-04 0.0 
1.007783334189e-04 2.667071742448e-04 0.0 
0.0 0.0 0.0 
-2.382863896055e-05 1.104626415731e-05 0.0 
1.104626415731e-05 2.479379601032e-03 0.0 
0.0 0.0 0.0 
2.088057931604e-05 1.412771383613e-05 0.0 
1.412771383613e-05 1.184335798438e-03 0.0 
0.0 0.0 0.0 
-1.397436041425e-04 -3.783331472371e-06 0.0 
-3.783331472371e-06 2.062315314381e-03 0.0 
0.0 0.0 0.0 
-1.263745521713e-04 6.867847879887e-06 0.0 
6.867847879887e-06 2.217714595636e-03 0.0 
0.0 0.0 0.0 
1.080986366155e-04 3.123605567852e-06 0.0 
3.123605567852e-06 5.704921930090e-04 0.0 
0.0 0.0 0.0 
1.095217177589e-04 -3.474773431265e-06 0.0 
-3.474773431265e-06 5.900750232064e-04 0.0 
0.0 0.0 0.0 
1.066915880858e-04 -2.211225350563e-07 0.0 
-2.211225350563e-07 6.131402520413e-04 0.0 
0.0 0.0 0.0 
1.003133684550e-04 2.428797489733e-04 0.0 
2.428797489733e-04 1.224485537903e-03 0.0 
0.0 0.0 0.0 
1.277865386373e-05 -3.362552633367e-05 0.0 
-3.362552633367e-05 1.580660950959e-04 0.0 
0.0 0.0 0.0 
5.493035758031e-06 3.998252847751e-04 0.0 
3.998252847751e-04 1.770644939931e-03 0.0 
0.0 0.0 0.0 
-1.343500826985e-04 4.362147067714e-06 0.0 
4.362147067714e-06 2.116267412782e-03 0.0 
0.0 0.0 0.0 
-8.398372523455e-05 2.161367044363e-04 0.0 
2.161367044363e-04 2.408328929667e-03 0.0 
0.0 0.0 0.0 
8.285164590704e-05 2.289001031506e-04 0.0 
2.289001031506e-04 1.222813168263e-03 0.0 
0.0 0.0 0.0 
-1.395753920385e-04 8.443738078311e-06 0.0 
8.443738078311e-06 2.180749866278e-03 0.0 
0.0 0.0 0.0 
-2.721616303181e-05 3.790065112363e-04 0.0 
3.790065112363e-04 1.921331031313e-03 0.0 
0.0 0.0 0.0 
6.618365661160e-05 3.312379988950e-04 0.0 
3.312379988950e-04 1.445922215418e-03 0.0 
0.0 0.0 0.0 
5.024595585157e-05 3.648747317748e-04 0.0 
3.648747317748e-04 1.522304942679e-03 0.0 
0.0 0.0 0.0 
-1.046829450793e-04 1.060757172811e-04 0.0 
1.060757172811e-04 1.278966566047e-04 0.0 
0.0 0.0 0.0 
-4.108306592543e-05 3.792315122220e-04 0.0 
3.792315122220e-04 1.921348731949e-03 0.0 
0.0 0.0 0.0 
-1.404577380326e-05 4.072283960595e-04 0.0 
4.072283960595e-04 1.905105931093e-03 0.0 
0.0 0.0 0.0 
3.214811918006e-06 -2.352774634752e-05 0.0 
-2.352774634752e-05 9.854185656377e-05 0.0 
0.0 0.0 0.0 
1.058265133125e-04 -5.863336374729e-06 0.0 
-5.863336374729e-06 5.398139678847e-04 0.0 
0.0 0.0 0.0 
-1.120444396207e-04 7.419805574527e-05 0.0 
7.419805574527e-05 1.492985913996e-04 0.0 
0.0 0.0 0.0 
-4.259561875342e-05 4.002003062841e-04 0.0 
4.002003062841e-04 1.985845808679e-03 0.0 
0.0 0.0 0.0 
-1.425833629803e-04 -1.212777609638e-08 0.0 
-1.212777609638e-08 1.954801327964e-03 0.0 
0.0 0.0 0.0 
-1.412804177366e-04 1.651045349213e-06 0.0 
1.651045349213e-06 1.956777840759e-03 0.0 
0.0 0.0 0.0 
-1.384194135862e-04 1.579558071761e-06 0.0 
1.579558071761e-06 1.956776351359e-03 0.0 
0.0 0.0 0.0 
-1.409476330928e-04 2.997200840709e-07 0.0 
2.997200840709e-07 1.956544275639e-03 0.0 
0.0 0.0 0.0 
-1.384240456601e-04 -1.304192115513e-07 0.0 
-1.304192115513e-07 1.956600535266e-03 0.0 
0.0 0.0 0.0 
-1.410159802732e-04 -8.920560202030e-07 0.0 
-8.920560202030e-07 1.957274412483e-03 0.0 
0.0 0.0 0.0 
-1.377907610207e-04 -7.063150008567e-07 0.0 
-7.063150008567e-07 1.957186069001e-03 0.0 
0.0 0.0 0.0 
-1.407013904232e-04 -2.367206147049e-06 0.0 
-2.367206147049e-06 1.956470292174e-03 0.0 
0.0 0.0 0.0 
-1.364749656162e-04 -8.997692833935e-07 0.0 
-8.997692833935e-07 1.955947291176e-03 0.0 
0.0 0.0 0.0 
-1.411235040840e-04 -2.377118045882e-06 0.0 
-2.377118045882e-06 1.956666652868e-03 0.0 
0.0 0.0 0.0 
-1.339652828503e-04 -1.112561149756e-06 0.0 
-1.112561149756e-06 1.955997418285e-03 0.0 
0.0 0.0 0.0 
-1.423749855088e-04 -4.081384090717e-06 0.0 
-4.081384090717e-06 1.956585579462e-03 0.0 
0.0 0.0 0.0 
-1.901653176007e-04 4.432229257852e-05 0.0 
4.432229257852e-05 1.967643496977e-03 0.0 
0.0 0.0 0.0 
-1.307261389852e-04 -1.099811811892e-06 0.0 
-1.099811811892e-06 1.954864107245e-03 0.0 
0.0 0.0 0.0 
-2.147662842924e-04 3.017863219288e-05 0.0 
3.017863219288e-05 1.984911447753e-03 0.0 
0.0 0.0 0.0 
-1.414939663162e-04 -3.864388237301e-06 0.0 
-3.864388237301e-06 1.956932688696e-03 0.0 
0.0 0.0 0.0 
-1.274401979435e-04 -2.610985869923e-07 0.0 
-2.610985869923e-07 1.954458959680e-03 0.0 
0.0 0.0 0.0 
-1.449182697594e-04 -5.494298963275e-06 0.0 
-5.494298963275e-06 1.956212726330e-03 0.0 
0.0 0.0 0.0 
-1.234008931982e-04 -6.109880200656e-07 0.0 
-6.109880200656e-07 1.952119738619e-03 0.0 
0.0 0.0 0.0 
-1.475288510784e-04 -5.796392888765e-06 0.0 
-5.796392888765e-06 1.956821402111e-03 0.0 
0.0 0.0 0.0 
-1.182285375653e-04 -1.176668499895e-07 0.0 
-1.176668499895e-07 1.950946345837e-03 0.0 
0.0 0.0 0.0 
-1.508611972574e-04 -5.606991190580e-06 0.0 
-5.606991190580e-06 1.958452724482e-03 0.0 
0.0 0.0 0.0 
-1.380267231050e-04 1.658470300971e-05 0.0 
1.658470300971e-05 1.929910497410e-03 0.0 
0.0 0.0 0.0 
-1.144988980933e-04 1.595688535203e-06 0.0 
1.595688535203e-06 1.949986078610e-03 0.0 
0.0 0.0 0.0 
-1.576055142505e-04 -4.397692375105e-06 0.0 
-4.397692375105e-06 1.960278037419e-03 0.0 
0.0 0.0 0.0 
-1.133442933354e-04 4.494541759709e-06 0.0 
4.494541759709e-06 1.948487657782e-03 0.0 
0.0 0.0 0.0 
-1.683780674959e-04 -3.422369218348e-08 0.0 
-3.422369218348e-08 1.963888018808e-03 0.0 
0.0 0.0 0.0 
-1.857110518766e-04 1.017751356509e-05 0.0 
1.017751356509e-05 1.971222778791e-03 0.0 
0.0 0.0 0.0 
-1.168260433924e-04 1.077267981076e-05 0.0 
1.077267981076e-05 1.948087331295e-03 0.0 
0.0 0.0 0.0 
-1.319135738678e-04 2.327148269688e-05 0.0 
2.327148269688e-05 1.951318138395e-03 0.0 
0.0 0.0 0.0 
-2.634508132796e-04 1.008358879038e-04 0.0 
1.008358879038e-04 2.013032598278e-03 0.0 
0.0 0.0 0.0 
-2.417193127118e-04 3.030161471880e-05 0.0 
3.030161471880e-05 2.020387021204e-03 0.0 
0.0 0.0 0.0 
-1.486431260204e-04 -7.938164447132e-06 0.0 
-7.938164447132e-06 1.959245989268e-03 0.0 
0.0 0.0 0.0 
-1.457627077974e-04 1.044263930089e-05 0.0 
1.044263930089e-05 1.954189091964e-03 0.0 
0.0 0.0 0.0 
-1.431669082468e-04 8.603403847849e-07 0.0 
8.603403847849e-07 1.971166615295e-03 0.0 
0.0 0.0 0.0 
-1.513175861634e-04 1.855846570794e-06 0.0 
1.855846570794e-06 1.942753538032e-03 0.0 
0.0 0.0 0.0 
-2.918443263514e-04 1.128598169393e-04 0.0 
1.128598169393e-04 1.957297714811e-03 0.0 
0.0 0.0 0.0 

TENSORS element_materi_strain_plasti float
-7.112834060814e-05 3.514287460404e-05 0.0 
3.514287460404e-05 4.221004333340e-04 0.0 
0.0 0.0 -6.331083958573e-05 
-5.846555959083e-05 -3.955396469031e-05 0.0 
-3.955396469031e-05 3.778270157352e-04 0.0 
0.0 0.0 -6.454996159239e-05 
-1.889012089990e-04 -4.635760778404e-06 0.0 
-4.635760778404e-06 1.261715003762e-03 0.0 
0.0 0.0 -1.917354871627e-04 
-1.892197240299e-04 -2.621872887778e-05 0.0 
-2.621872887778e-05 1.272074442975e-03 0.0 
0.0 0.0 -1.883397590782e-04 
-1.197492232907e-04 3.454635042167e-05 0.0 
3.454635042167e-05 7.881734594548e-04 0.0 
0.0 0.0 -1.194279202642e-04 
-3.089019924433e-05 3.311410509038e-05 0.0 
3.311410509038e-05 1.513652850395e-04 0.0 
0.0 0.0 -2.690189283898e-05 
-1.181845121128e-04 4.042873295375e-05 0.0 
4.042873295375e-05 7.806844228614e-04 0.0 
0.0 0.0 -1.201653584795e-04 
-6.192381097420e-05 6.121385101827e-06 0.0 
6.121385101827e-06 4.031113170469e-04 0.0 
0.0 0.0 -6.068503909357e-05 
-1.204422882212e-04 -4.316649774326e-05 0.0 
-4.316649774326e-05 7.921064928151e-04 0.0 
0.0 0.0 -1.196685615722e-04 
-1.872884217324e-04 3.363141611130e-05 0.0 
3.363141611130e-05 1.259931992447e-03 0.0 
0.0 0.0 -1.879590212157e-04 
-1.310105652939e-04 2.220654670134e-05 0.0 
2.220654670134e-05 8.586450598517e-04 0.0 
0.0 0.0 -1.322476557103e-04 
-5.719807020115e-05 3.286461856434e-08 0.0 
3.286461856434e-08 3.230799459092e-04 0.0 
0.0 0.0 -5.602547750609e-05 
-1.877824496395e-04 3.388580337900e-05 0.0 
3.388580337900e-05 1.270169470641e-03 0.0 
0.0 0.0 -1.888781569884e-04 
-1.271872132406e-04 2.790230920199e-05 0.0 
2.790230920199e-05 8.458021199286e-04 0.0 
0.0 0.0 -1.278925217316e-04 
-1.932284152260e-04 -2.749272838120e-05 0.0 
-2.749272838120e-05 1.293984431102e-03 0.0 
0.0 0.0 -1.934308312547e-04 
-1.951772105051e-04 3.059468724474e-05 0.0 
3.059468724474e-05 1.293909326463e-03 0.0 
0.0 0.0 -1.928977411855e-04 
-1.183364621444e-04 7.034029580760e-07 0.0 
7.034029580760e-07 7.884128395372e-04 0.0 
0.0 0.0 -1.161101519611e-04 
-2.611548289249e-05 -2.976881314846e-05 0.0 
-2.976881314846e-05 1.366026820107e-04 0.0 
0.0 0.0 -2.739356786257e-05 
-4.655901900947e-05 -1.783274604704e-05 0.0 
-1.783274604704e-05 2.713105741166e-04 0.0 
0.0 0.0 -4.164025237647e-05 
-4.525890771348e-05 1.651863799484e-05 0.0 
1.651863799484e-05 2.466759593770e-04 0.0 
0.0 0.0 -4.546658199970e-05 
-1.855467270519e-04 -3.410013315625e-05 0.0 
-3.410013315625e-05 1.271232436366e-03 0.0 
0.0 0.0 -1.875582398551e-04 
-7.183248799894e-05 1.385365681385e-05 0.0 
1.385365681385e-05 4.407830654411e-04 0.0 
0.0 0.0 -7.216713101957e-05 
-7.730219154025e-05 -1.500465902034e-05 0.0 
-1.500465902034e-05 4.983174969402e-04 0.0 
0.0 0.0 -7.637334323853e-05 
-1.811871610611e-04 -2.281549761052e-05 0.0 
-2.281549761052e-05 1.217872226341e-03 0.0 
0.0 0.0 -1.815559455716e-04 
-1.350733973102e-04 3.295465992380e-05 0.0 
3.295465992380e-05 9.016620137675e-04 0.0 
0.0 0.0 -1.369648256180e-04 
-1.376188637296e-04 -2.176217058498e-05 0.0 
-2.176217058498e-05 9.243651343577e-04 0.0 
0.0 0.0 -1.376939605679e-04 
-1.069658315495e-04 -2.744737862324e-06 0.0 
-2.744737862324e-06 7.297614599069e-04 0.0 
0.0 0.0 -1.072212406194e-04 
-1.912521162051e-04 1.980335045203e-06 0.0 
1.980335045203e-06 1.305953059909e-03 0.0 
0.0 0.0 -1.899071758113e-04 
-1.362716787782e-04 -3.798939155730e-05 0.0 
-3.798939155730e-05 9.083018994538e-04 0.0 
0.0 0.0 -1.367086240186e-04 
-1.873007466112e-04 2.251116880675e-05 0.0 
2.251116880675e-05 1.247916240988e-03 0.0 
0.0 0.0 -1.856871487262e-04 
-3.243755210516e-05 5.032771115372e-06 0.0 
5.032771115372e-06 2.086151015531e-04 0.0 
0.0 0.0 -3.278963886402e-05 
-1.654166470030e-05 4.638693750366e-06 0.0 
4.638693750366e-06 9.012172148024e-05 0.0 
0.0 0.0 -1.589633704410e-05 
-1.936928702910e-04 8.344522422307e-06 0.0 
8.344522422307e-06 1.305844555641e-03 0.0 
0.0 0.0 -1.891952015075e-04 
-1.629254088575e-04 -2.764733331880e-05 0.0 
-2.764733331880e-05 1.087637140145e-03 0.0 
0.0 0.0 -1.635300645102e-04 
-1.844440851533e-04 -3.122724235015e-05 0.0 
-3.122724235015e-05 1.269225288252e-03 0.0 
0.0 0.0 -1.882484805285e-04 
-2.000892196314e-04 5.806438950548e-05 0.0 
5.806438950548e-05 1.337814960827e-03 0.0 
0.0 0.0 -1.972329526028e-04 
-1.979323581362e-04 -6.123980485016e-05 0.0 
-6.123980485016e-05 1.334624137008e-03 0.0 
0.0 0.0 -1.971979658877e-04 
-1.876565914579e-04 2.632656749342e-05 0.0 
2.632656749342e-05 1.265796013128e-03 0.0 
0.0 0.0 -1.897108526679e-04 
-1.089254337778e-04 -4.761071042110e-05 0.0 
-4.761071042110e-05 7.109927537120e-04 0.0 
0.0 0.0 -1.107114518244e-04 
-1.094034421642e-04 5.351990132505e-05 0.0 
5.351990132505e-05 7.212963119965e-04 0.0 
0.0 0.0 -1.105676175232e-04 
-8.675634194158e-05 -2.048772068430e-05 0.0 
-2.048772068430e-05 5.676637230470e-04 0.0 
0.0 0.0 -8.691834785005e-05 
-1.894316575551e-04 1.529535291875e-06 0.0 
1.529535291875e-06 1.267582633286e-03 0.0 
0.0 0.0 -1.921134732322e-04 
-4.839148529355e-05 3.269211206116e-05 0.0 
3.269211206116e-05 2.885062742471e-04 0.0 
0.0 0.0 -4.811778726964e-05 
-1.084239785972e-04 8.299246254447e-06 0.0 
8.299246254447e-06 6.943716908755e-04 0.0 
0.0 0.0 -1.102508860907e-04 
-1.837583847109e-04 -1.472486193336e-05 0.0 
-1.472486193336e-05 1.244009219740e-03 0.0 
0.0 0.0 -1.819287770889e-04 
-4.809827435414e-05 -2.856413507896e-05 0.0 
-2.856413507896e-05 2.876955400614e-04 0.0 
0.0 0.0 -4.797639238285e-05 
-2.674214069171e-05 -6.567095403776e-07 0.0 
-6.567095403776e-07 1.170205921082e-04 0.0 
0.0 0.0 -2.746289347828e-05 
-1.830752196458e-04 9.475420572823e-06 0.0 
9.475420572823e-06 1.215993436390e-03 0.0 
0.0 0.0 -1.852115035180e-04 
-1.474418981779e-05 6.875922652759e-07 0.0 
6.875922652759e-07 4.915161551588e-05 0.0 
0.0 0.0 -1.474603958490e-05 
-1.203307146343e-04 -2.717995598574e-05 0.0 
-2.717995598574e-05 8.158947777103e-04 0.0 
0.0 0.0 -1.234415444935e-04 
-8.234981639965e-05 -1.699589320995e-05 0.0 
-1.699589320995e-05 5.359221535030e-04 0.0 
0.0 0.0 -8.161374715243e-05 
-5.082688459540e-05 -1.056431694294e-05 0.0 
-1.056431694294e-05 3.372053744103e-04 0.0 
0.0 0.0 -5.165715595373e-05 
-4.611236241503e-05 -2.201694224577e-05 0.0 
-2.201694224577e-05 2.721561722188e-04 0.0 
0.0 0.0 -4.571843846580e-05 
-8.132390918315e-05 1.940323008173e-05 0.0 
1.940323008173e-05 5.127711064819e-04 0.0 
0.0 0.0 -8.234191315183e-05 
-1.899869588384e-04 -1.183985275253e-06 0.0 
-1.183985275253e-06 1.270300843848e-03 0.0 
0.0 0.0 -1.923283752319e-04 
-6.895815039131e-05 -2.178280864622e-05 0.0 
-2.178280864622e-05 4.406253786073e-04 0.0 
0.0 0.0 -6.768350264862e-05 
-5.417817485919e-05 2.166263208896e-05 0.0 
2.166263208896e-05 3.190902094138e-04 0.0 
0.0 0.0 -5.541318120416e-05 
-1.632126763507e-04 2.740636426442e-05 0.0 
2.740636426442e-05 1.093574435161e-03 0.0 
0.0 0.0 -1.631601065255e-04 
-3.323583887555e-05 3.269521201795e-06 0.0 
3.269521201795e-06 2.033859620122e-04 0.0 
0.0 0.0 -3.284525368658e-05 
-1.937347679597e-04 -3.087303565399e-05 0.0 
-3.087303565399e-05 1.295743109935e-03 0.0 
0.0 0.0 -1.927980053726e-04 
-1.410948374280e-05 -1.895108414919e-05 0.0 
-1.895108414919e-05 7.768302090073e-05 0.0 
0.0 0.0 -1.429900283189e-05 
-1.810662248895e-04 3.422591082853e-05 0.0 
3.422591082853e-05 1.214874210850e-03 0.0 
0.0 0.0 -1.816237070315e-04 
-8.260879868620e-05 3.395540134069e-05 0.0 
3.395540134069e-05 5.200982356105e-04 0.0 
0.0 0.0 -8.245627511043e-05 
-3.949603130373e-05 1.817463478044e-05 0.0 
1.817463478044e-05 2.392386227040e-04 0.0 
0.0 0.0 -4.154126471103e-05 
-1.880584302466e-04 -2.737021915549e-05 0.0 
-2.737021915549e-05 1.269816799986e-03 0.0 
0.0 0.0 -1.886217783130e-04 
-7.828481688491e-05 1.568948501134e-05 0.0 
1.568948501134e-05 4.753725480920e-04 0.0 
0.0 0.0 -7.706359040663e-05 
-9.040619779534e-06 6.808328067989e-06 0.0 
6.808328067989e-06 3.080905476409e-05 0.0 
0.0 0.0 -9.329329279096e-06 
-1.897461617520e-04 -1.190223513879e-05 0.0 
-1.190223513879e-05 1.300793159363e-03 0.0 
0.0 0.0 -1.892491279630e-04 
-3.670459678346e-05 -3.155058415611e-05 0.0 
-3.155058415611e-05 2.097964586862e-04 0.0 
0.0 0.0 -3.606465181366e-05 
-1.910292024481e-04 -5.680018839668e-07 0.0 
-5.680018839668e-07 1.267292748539e-03 0.0 
0.0 0.0 -1.923564682915e-04 
-1.423720417950e-04 -2.542418638308e-05 0.0 
-2.542418638308e-05 9.582298228247e-04 0.0 
0.0 0.0 -1.433443585977e-04 
-2.007748921200e-04 -7.173616599764e-07 0.0 
-7.173616599764e-07 1.325499155450e-03 0.0 
0.0 0.0 -2.007748921200e-04 
-1.856237250837e-04 2.519587703739e-07 0.0 
2.519587703739e-07 1.217908679066e-03 0.0 
0.0 0.0 -1.849363666885e-04 
-1.959401746035e-05 3.302488870378e-05 0.0 
3.302488870378e-05 8.419396161668e-05 0.0 
0.0 0.0 -1.942930455437e-05 
-7.294356160709e-05 2.278666566635e-05 0.0 
2.278666566635e-05 4.423978020253e-04 0.0 
0.0 0.0 -7.166057984914e-05 
-1.881200936435e-04 -2.597496456892e-05 0.0 
-2.597496456892e-05 1.274260032451e-03 0.0 
0.0 0.0 -1.893940471826e-04 
-1.918449780582e-04 -8.194598920855e-07 0.0 
-8.194598920855e-07 1.307445909733e-03 0.0 
0.0 0.0 -1.898028072996e-04 
-3.750417093390e-05 -2.856125910662e-05 0.0 
-2.856125910662e-05 2.170807613547e-04 0.0 
0.0 0.0 -3.765846754783e-05 
-3.201050297440e-05 -1.804321051782e-06 0.0 
-1.804321051782e-06 1.678376622842e-04 0.0 
0.0 0.0 -3.550136840268e-05 
-3.928328821311e-05 3.001435520315e-05 0.0 
3.001435520315e-05 2.151736419894e-04 0.0 
0.0 0.0 -3.788339401932e-05 
-3.841727809162e-05 3.259876760906e-05 0.0 
3.259876760906e-05 1.973706613177e-04 0.0 
0.0 0.0 -3.659988700710e-05 
-1.163465053479e-04 4.799891796781e-06 0.0 
4.799891796781e-06 7.474963377636e-04 0.0 
0.0 0.0 -1.187754596314e-04 
-7.387818471422e-05 -1.490180971543e-05 0.0 
-1.490180971543e-05 4.683625195835e-04 0.0 
0.0 0.0 -7.124103466145e-05 
-6.818690854032e-05 3.229042439658e-06 0.0 
3.229042439658e-06 3.926939187943e-04 0.0 
0.0 0.0 -6.657494268075e-05 
-1.280956191016e-04 -3.699964442022e-05 0.0 
-3.699964442022e-05 8.260012594816e-04 0.0 
0.0 0.0 -1.250515658111e-04 
-1.265295814047e-04 3.342378051017e-05 0.0 
3.342378051017e-05 8.211688879782e-04 0.0 
0.0 0.0 -1.253711530225e-04 
-1.484422711167e-04 -2.770915871896e-05 0.0 
-2.770915871896e-05 9.841615042540e-04 0.0 
0.0 0.0 -1.480066387926e-04 
-1.583372546511e-04 2.913712885410e-05 0.0 
2.913712885410e-05 1.064432221446e-03 0.0 
0.0 0.0 -1.587865244471e-04 
-1.631334298294e-04 -3.149814825206e-05 0.0 
-3.149814825206e-05 1.098864964118e-03 0.0 
0.0 0.0 -1.628912057403e-04 
-1.190806096983e-04 -4.403551421918e-05 0.0 
-4.403551421918e-05 7.749316267703e-04 0.0 
0.0 0.0 -1.197484453225e-04 
-1.483799586843e-05 5.558978623438e-06 0.0 
5.558978623438e-06 4.973861707578e-05 0.0 
0.0 0.0 -1.495740908886e-05 
-1.182760976271e-04 3.125415357905e-06 0.0 
3.125415357905e-06 7.592172627745e-04 0.0 
0.0 0.0 -1.189347521933e-04 
-1.620624140011e-04 -1.653046323385e-05 0.0 
-1.653046323385e-05 1.054965702531e-03 0.0 
0.0 0.0 -1.604158976160e-04 
-1.568829102868e-04 1.686722308074e-05 0.0 
1.686722308074e-05 1.064364903998e-03 0.0 
0.0 0.0 -1.569671113975e-04 
-1.992656462665e-04 -3.194664877417e-06 0.0 
-3.194664877417e-06 1.366255928620e-03 0.0 
0.0 0.0 -1.979956382108e-04 
-1.950636109885e-04 -2.233519301319e-05 0.0 
-2.233519301319e-05 1.308516150632e-03 0.0 
0.0 0.0 -1.941292444173e-04 
-1.156817175628e-04 -1.648055008373e-05 0.0 
-1.648055008373e-05 7.482785284577e-04 0.0 
0.0 0.0 -1.183461849553e-04 
-1.927191275468e-04 -2.508365562693e-07 0.0 
-2.508365562693e-07 1.307929168688e-03 0.0 
0.0 0.0 -1.894775870554e-04 
-1.342251932282e-04 -2.319392894316e-05 0.0 
-2.319392894316e-05 8.854475909505e-04 0.0 
0.0 0.0 -1.356001284572e-04 
-7.729101182484e-05 -2.065735051107e-05 0.0 
-2.065735051107e-05 5.080668279858e-04 0.0 
0.0 0.0 -7.798198501994e-05 
-1.130620333788e-04 -2.717181399575e-05 0.0 
-2.717181399575e-05 7.549273825549e-04 0.0 
0.0 0.0 -1.146493908758e-04 
-1.950077973870e-04 2.900722902877e-05 0.0 
2.900722902877e-05 1.296464444951e-03 0.0 
0.0 0.0 -1.931276724533e-04 
-1.563208394466e-04 -3.328202351934e-05 0.0 
-3.328202351934e-05 1.049294579874e-03 0.0 
0.0 0.0 -1.565627933380e-04 
-1.819468009343e-04 -3.224668000663e-05 0.0 
-3.224668000663e-05 1.222740499621e-03 0.0 
0.0 0.0 -1.814398861444e-04 
-7.158014488702e-05 -3.063000169944e-05 0.0 
-3.063000169944e-05 4.571234338187e-04 0.0 
0.0 0.0 -7.121314524778e-05 
-2.401359942616e-05 8.661927370116e-06 0.0 
8.661927370116e-06 1.537990966386e-04 0.0 
0.0 0.0 -2.437345913330e-05 
-1.778980369956e-04 -2.992010737325e-05 0.0 
-2.992010737325e-05 1.196087071121e-03 0.0 
0.0 0.0 -1.784854310292e-04 
-1.679646052206e-04 1.093794452522e-05 0.0 
1.093794452522e-05 1.134281409959e-03 0.0 
0.0 0.0 -1.663185871606e-04 
-1.591223534516e-05 -6.661850777305e-06 0.0 
-6.661850777305e-06 9.101730959340e-05 0.0 
0.0 0.0 -1.557197371984e-05 
-1.881889712418e-04 -1.290050336167e-05 0.0 
-1.290050336167e-05 1.273792918307e-03 0.0 
0.0 0.0 -1.927691970005e-04 
-1.581915922847e-04 2.746019073347e-05 0.0 
2.746019073347e-05 1.044290574645e-03 0.0 
0.0 0.0 -1.577237574333e-04 
-1.522398741045e-05 -2.545037373997e-05 0.0 
-2.545037373997e-05 5.739303510054e-05 0.0 
0.0 0.0 -1.520280724627e-05 
-9.452563605332e-05 3.135471664961e-05 0.0 
3.135471664961e-05 6.036525676249e-04 0.0 
0.0 0.0 -9.464897897786e-05 
-1.065966120753e-04 -2.205603569538e-05 0.0 
-2.205603569538e-05 7.064327249630e-04 0.0 
0.0 0.0 -1.073087759210e-04 
-8.739882265024e-05 -1.070352948316e-05 0.0 
-1.070352948316e-05 5.348438843142e-04 0.0 
0.0 0.0 -8.658563305536e-05 
-7.050193455009e-05 2.512487401893e-05 0.0 
2.512487401893e-05 4.479548223167e-04 0.0 
0.0 0.0 -7.278598402964e-05 
-8.197347761458e-05 -3.364821245799e-05 0.0 
-3.364821245799e-05 5.279356728588e-04 0.0 
0.0 0.0 -8.207734578087e-05 
-1.943526740554e-04 1.658812663972e-05 0.0 
1.658812663972e-05 1.282091895606e-03 0.0 
0.0 0.0 -1.925749600208e-04 
-1.285507174143e-04 2.792411837159e-05 0.0 
2.792411837159e-05 8.722892326704e-04 0.0 
0.0 0.0 -1.315046391038e-04 
-7.635084208109e-05 3.539223257155e-05 0.0 
3.539223257155e-05 4.849768366675e-04 0.0 
0.0 0.0 -7.683710038160e-05 
-3.602345366775e-05 -3.490773875451e-05 0.0 
-3.490773875451e-05 2.028232612913e-04 0.0 
0.0 0.0 -3.442901837107e-05 
-1.143531422852e-04 1.924554056095e-05 0.0 
1.924554056095e-05 7.838716458168e-04 0.0 
0.0 0.0 -1.161738141813e-04 
-1.655806278350e-04 -1.376876940895e-05 0.0 
-1.376876940895e-05 1.108151184003e-03 0.0 
0.0 0.0 -1.693933130199e-04 
-7.665289294717e-05 -3.764080062833e-05 0.0 
-3.764080062833e-05 4.894086693533e-04 0.0 
0.0 0.0 -7.664586338968e-05 
-2.552121638192e-05 -2.302083249112e-05 0.0 
-2.302083249112e-05 1.475281213149e-04 0.0 
0.0 0.0 -2.705574766418e-05 
-9.705129782474e-05 -2.284636133005e-05 0.0 
-2.284636133005e-05 6.381494146743e-04 0.0 
0.0 0.0 -9.705601970096e-05 
-8.718862749644e-05 1.081562517566e-05 0.0 
1.081562517566e-05 5.609465076163e-04 0.0 
0.0 0.0 -8.368277571756e-05 
-9.188005610208e-05 2.337172912127e-05 0.0 
2.337172912127e-05 5.885957333175e-04 0.0 
0.0 0.0 -9.250784895245e-05 
-1.937480155634e-04 2.484993040014e-05 0.0 
2.484993040014e-05 1.298240083639e-03 0.0 
0.0 0.0 -1.936007957173e-04 
-3.355945300028e-05 2.658456895858e-05 0.0 
2.658456895858e-05 1.727565400742e-04 0.0 
0.0 0.0 -3.138407094312e-05 
-1.371246585787e-04 2.526301025991e-05 0.0 
2.526301025991e-05 9.050145966039e-04 0.0 
0.0 0.0 -1.382526569903e-04 
-1.907913629677e-04 3.443386103192e-05 0.0 
3.443386103192e-05 1.270684136511e-03 0.0 
0.0 0.0 -1.885035411211e-04 
-9.913884905617e-05 2.644976598076e-05 0.0 
2.644976598076e-05 6.359580153606e-04 0.0 
0.0 0.0 -9.883099357817e-05 
-9.221379330775e-05 -2.325684599943e-05 0.0 
-2.325684599943e-05 6.043674081660e-04 0.0 
0.0 0.0 -9.208844699642e-05 
-1.862615746056e-04 3.781096829900e-05 0.0 
3.781096829900e-05 1.269973218665e-03 0.0 
0.0 0.0 -1.882446207449e-04 
-1.884096905909e-04 -3.934674872020e-05 0.0 
-3.934674872020e-05 1.273205454370e-03 0.0 
0.0 0.0 -1.891606461478e-04 
-1.485481393432e-04 2.662002390059e-05 0.0 
2.662002390059e-05 9.835102888330e-04 0.0 
0.0 0.0 -1.481056985806e-04 
-1.041353074706e-04 -2.625300288912e-05 0.0 
-2.625300288912e-05 6.829723859406e-04 0.0 
0.0 0.0 -1.037420806291e-04 
-1.908037455824e-04 1.095423421666e-05 0.0 
1.095423421666e-05 1.307953283663e-03 0.0 
0.0 0.0 -1.905495916442e-04 
-9.518883604242e-05 2.687623025881e-05 0.0 
2.687623025881e-05 6.089232024020e-04 0.0 
0.0 0.0 -9.489072104906e-05 
-1.881130056819e-04 -1.198635265848e-06 0.0 
-1.198635265848e-06 1.269458159220e-03 0.0 
0.0 0.0 -1.924761743472e-04 
-1.914420449492e-04 1.145005922615e-05 0.0 
1.145005922615e-05 1.305589104302e-03 0.0 
0.0 0.0 -1.901156060054e-04 
-1.284773038693e-04 -4.042952323759e-05 0.0 
-4.042952323759e-05 8.353342118354e-04 0.0 
0.0 0.0 -1.281556075638e-04 
-1.456984047061e-04 2.919513868125e-05 0.0 
2.919513868125e-05 9.798728505287e-04 0.0 
0.0 0.0 -1.472674707441e-04 
-9.472925069399e-05 -2.740497223510e-05 0.0 
-2.740497223510e-05 6.169641832868e-04 0.0 
0.0 0.0 -9.439783777044e-05 
-8.853676466141e-05 2.434547469191e-05 0.0 
2.434547469191e-05 5.534202716498e-04 0.0 
0.0 0.0 -8.745362067080e-05 
-1.087467394465e-04 2.713932785840e-05 0.0 
2.713932785840e-05 7.009636801692e-04 0.0 
0.0 0.0 -1.081789848988e-04 
-8.105832168209e-05 -2.534314576398e-05 0.0 
-2.534314576398e-05 5.269671489274e-04 0.0 
0.0 0.0 -8.074562716359e-05 
-1.149166540237e-04 -2.952745104752e-05 0.0 
-2.952745104752e-05 7.749980976508e-04 0.0 
0.0 0.0 -1.154098978710e-04 
-9.441274236993e-05 -3.245636207382e-05 0.0 
-3.245636207382e-05 6.148929569629e-04 0.0 
0.0 0.0 -9.412559131899e-05 
-1.356916071786e-05 -1.098912209053e-05 0.0 
-1.098912209053e-05 4.639558825144e-05 0.0 
0.0 0.0 -1.406846894296e-05 
-1.232833288672e-04 -2.043397575373e-06 0.0 
-2.043397575373e-06 8.352777480186e-04 0.0 
0.0 0.0 -1.225661908866e-04 
-4.062993237950e-05 4.703139556520e-07 0.0 
4.703139556520e-07 1.797601039323e-04 0.0 
0.0 0.0 -3.559753881786e-05 
-1.023820434635e-04 -2.308417346528e-05 0.0 
-2.308417346528e-05 6.740366547045e-04 0.0 
0.0 0.0 -1.021452596768e-04 
-1.900125356384e-04 6.300222620789e-07 0.0 
6.300222620789e-07 1.270960970669e-03 0.0 
0.0 0.0 -1.927194217641e-04 
-7.262888074723e-05 3.426557852476e-05 0.0 
3.426557852476e-05 4.504323440592e-04 0.0 
0.0 0.0 -7.151989320621e-05 
-1.531305076902e-04 3.065990782185e-05 0.0 
3.065990782185e-05 1.022734797488e-03 0.0 
0.0 0.0 -1.531634582904e-04 
-5.235610672335e-05 -3.331315410991e-05 0.0 
-3.331315410991e-05 3.222309724492e-04 0.0 
0.0 0.0 -5.311113487535e-05 
-1.564923507781e-04 3.552239921985e-05 0.0 
3.552239921985e-05 1.043761629599e-03 0.0 
0.0 0.0 -1.567358392781e-04 
-1.202044561882e-04 9.584736121846e-07 0.0 
9.584736121846e-07 7.504029993438e-04 0.0 
0.0 0.0 -1.184948324117e-04 
-8.921525541755e-05 3.121884924230e-05 0.0 
3.121884924230e-05 5.680733164514e-04 0.0 
0.0 0.0 -8.897195087526e-05 
-1.682691344288e-04 -3.239527776225e-05 0.0 
-3.239527776225e-05 1.126335943431e-03 0.0 
0.0 0.0 -1.681445358649e-04 
-3.271371250102e-05 2.634768306306e-05 0.0 
2.634768306306e-05 1.862670599746e-04 0.0 
0.0 0.0 -3.519564525945e-05 
-1.767977369675e-04 3.301165039377e-05 0.0 
3.301165039377e-05 1.194421621902e-03 0.0 
0.0 0.0 -1.783666864750e-04 
-1.165583599501e-04 2.698564820255e-05 0.0 
2.698564820255e-05 7.555372528015e-04 0.0 
0.0 0.0 -1.156683593961e-04 
-1.920096128522e-04 1.937461849935e-06 0.0 
1.937461849935e-06 1.307268561636e-03 0.0 
0.0 0.0 -1.898980813789e-04 
-1.182997139398e-04 3.639957619216e-06 0.0 
3.639957619216e-06 7.503854203479e-04 0.0 
0.0 0.0 -1.176390761550e-04 
-7.627591541802e-05 2.437079023937e-05 0.0 
2.437079023937e-05 4.698282448248e-04 0.0 
0.0 0.0 -7.564233511891e-05 
-1.002018332227e-04 2.315121058164e-05 0.0 
2.315121058164e-05 6.584644118649e-04 0.0 
0.0 0.0 -1.026119933064e-04 
-1.351190133783e-04 -1.871259961356e-05 0.0 
-1.871259961356e-05 8.920173210254e-04 0.0 
0.0 0.0 -1.308423732783e-04 
-5.484982403945e-05 3.705256781827e-05 0.0 
3.705256781827e-05 3.376111435306e-04 0.0 
0.0 0.0 -5.271897186252e-05 
-8.886891279122e-05 -3.169931078017e-05 0.0 
-3.169931078017e-05 5.765392386080e-04 0.0 
0.0 0.0 -8.867183110647e-05 
-1.531566637255e-04 -3.479285376154e-05 0.0 
-3.479285376154e-05 1.020094408152e-03 0.0 
0.0 0.0 -1.524697723262e-04 
-1.174942329115e-04 2.313759384433e-05 0.0 
2.313759384433e-05 7.831828593042e-04 0.0 
0.0 0.0 -1.152003355451e-04 
-8.515004989233e-05 2.567844413580e-05 0.0 
2.567844413580e-05 5.346133759294e-04 0.0 
0.0 0.0 -8.499340168425e-05 
-9.805234325585e-05 2.186136341024e-05 0.0 
2.186136341024e-05 6.234712022513e-04 0.0 
0.0 0.0 -9.747820142233e-05 
-1.698406473465e-04 3.103883884451e-05 0.0 
3.103883884451e-05 1.138199375279e-03 0.0 
0.0 0.0 -1.705088282513e-04 
-9.365555901584e-05 -8.486079120948e-06 0.0 
-8.486079120948e-06 6.269873305719e-04 0.0 
0.0 0.0 -9.283786084866e-05 
-1.904373484596e-04 8.037764301144e-06 0.0 
8.037764301144e-06 1.268105410096e-03 0.0 
0.0 0.0 -1.927803298305e-04 
-1.910376123415e-04 -5.171508508334e-06 0.0 
-5.171508508334e-06 1.305994090806e-03 0.0 
0.0 0.0 -1.898229354431e-04 
-6.861783798480e-05 -2.050379203895e-05 0.0 
-2.050379203895e-05 4.453059741638e-04 0.0 
0.0 0.0 -6.893569546425e-05 
-9.290116882094e-05 1.078568075346e-05 0.0 
1.078568075346e-05 5.964552685483e-04 0.0 
0.0 0.0 -9.578111177017e-05 
-1.736492418864e-04 -2.927710979079e-05 0.0 
-2.927710979079e-05 1.161594644870e-03 0.0 
0.0 0.0 -1.729233712160e-04 
-9.087963058823e-05 -2.352933739376e-05 0.0 
-2.352933739376e-05 5.915224073559e-04 0.0 
0.0 0.0 -9.055885391067e-05 
-6.615167518160e-05 2.470417535513e-05 0.0 
2.470417535513e-05 3.792937580834e-04 0.0 
0.0 0.0 -6.377619522508e-05 
-1.123815242548e-04 2.659716101140e-05 0.0 
2.659716101140e-05 7.274681183303e-04 0.0 
0.0 0.0 -1.116514617188e-04 
-9.023769363097e-05 -2.539356064248e-05 0.0 
-2.539356064248e-05 5.927749569100e-04 0.0 
0.0 0.0 -9.016780033359e-05 
-1.933145694824e-04 1.847750118737e-05 0.0 
1.847750118737e-05 1.271781840963e-03 0.0 
0.0 0.0 -1.918589861752e-04 
-1.590817006198e-04 2.907513750142e-05 0.0 
2.907513750142e-05 1.054056791896e-03 0.0 
0.0 0.0 -1.591037845145e-04 
-1.728367159342e-04 3.427642614804e-05 0.0 
3.427642614804e-05 1.161809866144e-03 0.0 
0.0 0.0 -1.733952315365e-04 
-4.323292157822e-05 -3.260265136202e-05 0.0 
-3.260265136202e-05 2.542139140644e-04 0.0 
0.0 0.0 -4.278232070249e-05 
-8.351564551766e-05 -2.949984641989e-05 0.0 
-2.949984641989e-05 5.399072445252e-04 0.0 
0.0 0.0 -8.337503372822e-05 
-1.628911585660e-04 2.910920340207e-05 0.0 
2.910920340207e-05 1.083707985150e-03 0.0 
0.0 0.0 -1.634180649126e-04 
-4.265741739718e-06 -2.683347671446e-06 0.0 
-2.683347671446e-06 2.779779537552e-05 0.0 
0.0 0.0 -6.679583525061e-06 
-9.202938689146e-05 2.333037747325e-05 0.0 
2.333037747325e-05 5.833864669440e-04 0.0 
0.0 0.0 -9.110806911972e-05 
-1.621301817421e-04 -3.474681827654e-05 0.0 
-3.474681827654e-05 1.087399984763e-03 0.0 
0.0 0.0 -1.621013318865e-04 
-2.647246740284e-05 -1.232636837565e-05 0.0 
-1.232636837565e-05 1.529325955368e-04 0.0 
0.0 0.0 -2.408412600064e-05 
-1.857893834714e-04 3.531775714936e-05 0.0 
3.531775714936e-05 1.270668189248e-03 0.0 
0.0 0.0 -1.886276279175e-04 
-1.456981155765e-04 2.919485646583e-05 0.0 
2.919485646583e-05 9.663206150300e-04 0.0 
0.0 0.0 -1.462443664659e-04 
-8.972960447932e-05 2.818607173368e-05 0.0 
2.818607173368e-05 5.719993527864e-04 0.0 
0.0 0.0 -8.992835211633e-05 
-1.626522217749e-04 3.588322308841e-05 0.0 
3.588322308841e-05 1.081933053943e-03 0.0 
0.0 0.0 -1.623203359564e-04 
-1.232850647809e-04 -1.534283618420e-06 0.0 
-1.534283618420e-06 8.439287432935e-04 0.0 
0.0 0.0 -1.238984763055e-04 
-1.290139728958e-04 -2.422323726664e-05 0.0 
-2.422323726664e-05 8.899156396031e-04 0.0 
0.0 0.0 -1.325791391267e-04 
-1.852665524105e-04 -2.134628668879e-05 0.0 
-2.134628668879e-05 1.242411010167e-03 0.0 
0.0 0.0 -1.856686537505e-04 
-6.834313658287e-05 3.054631191321e-05 0.0 
3.054631191321e-05 4.235028941011e-04 0.0 
0.0 0.0 -6.875374652758e-05 
-1.126229297884e-04 2.780829538386e-05 0.0 
2.780829538386e-05 7.291444854309e-04 0.0 
0.0 0.0 -1.122060228641e-04 
-1.204186006984e-04 2.647313116222e-05 0.0 
2.647313116222e-05 7.832880835705e-04 0.0 
0.0 0.0 -1.198259951250e-04 
-1.511295492835e-04 -2.883504033183e-05 0.0 
-2.883504033183e-05 1.013855965193e-03 0.0 
0.0 0.0 -1.512823234748e-04 
-1.216859479991e-04 -2.731241821125e-05 0.0 
-2.731241821125e-05 8.002184542220e-04 0.0 
0.0 0.0 -1.205399881000e-04 
-1.113723575775e-04 -2.417926787297e-05 0.0 
-2.417926787297e-05 7.331871425551e-04 0.0 
0.0 0.0 -1.112326624099e-04 
-1.413007434337e-04 -2.970279854823e-05 0.0 
-2.970279854823e-05 9.413829080689e-04 0.0 
0.0 0.0 -1.412146911137e-04 
-1.660148486685e-04 -3.109368411777e-05 0.0 
-3.109368411777e-05 1.112677337996e-03 0.0 
0.0 0.0 -1.657666289772e-04 
-1.315732548335e-05 -7.692520452241e-07 0.0 
-7.692520452241e-07 8.434115995763e-05 0.0 
0.0 0.0 -1.523807105164e-05 
-6.678617265699e-05 1.617781589415e-05 0.0 
1.617781589415e-05 4.361919367653e-04 0.0 
0.0 0.0 -6.974636312929e-05 
-7.951724172922e-05 2.782935041198e-05 0.0 
2.782935041198e-05 4.935008951510e-04 0.0 
0.0 0.0 -7.874092309440e-05 
-1.082260438161e-04 -2.691428867534e-05 0.0 
-2.691428867534e-05 7.109857938248e-04 0.0 
0.0 0.0 -1.077256579858e-04 
-1.642964652876e-04 -3.148986033885e-05 0.0 
-3.148986033885e-05 1.105967087523e-03 0.0 
0.0 0.0 -1.642614415327e-04 
-3.618362754970e-05 2.736407007723e-05 0.0 
2.736407007723e-05 2.086903937200e-04 0.0 
0.0 0.0 -3.864713111506e-05 
-1.564000420693e-04 -3.317492622528e-05 0.0 
-3.317492622528e-05 1.048657376479e-03 0.0 
0.0 0.0 -1.565033163265e-04 
-1.156497145505e-04 -3.516789011310e-05 0.0 
-3.516789011310e-05 7.502047125979e-04 0.0 
0.0 0.0 -1.164502435431e-04 
-8.397727272477e-05 2.946324581154e-05 0.0 
2.946324581154e-05 5.318825966419e-04 0.0 
0.0 0.0 -8.365175887955e-05 
-1.508856871714e-04 -3.154693635550e-05 0.0 
-3.154693635550e-05 1.010987541511e-03 0.0 
0.0 0.0 -1.509358467712e-04 
-1.992206068345e-05 -2.889614730951e-05 0.0 
-2.889614730951e-05 8.287217049265e-05 0.0 
0.0 0.0 -1.875953185269e-05 
-1.556622730397e-04 3.038739624462e-05 0.0 
3.038739624462e-05 1.034138176467e-03 0.0 
0.0 0.0 -1.560016362795e-04 
-1.437982534633e-05 1.029442077582e-05 0.0 
1.029442077582e-05 7.970629733058e-05 0.0 
0.0 0.0 -1.510781838351e-05 
-2.570586355009e-05 -7.991098502523e-07 0.0 
-7.991098502523e-07 1.127575880689e-04 0.0 
0.0 0.0 -2.729127776400e-05 
-4.194184282385e-05 3.474848126707e-05 0.0 
3.474848126707e-05 2.513992056333e-04 0.0 
0.0 0.0 -4.310499224862e-05 
-5.889908142508e-05 2.600142430583e-05 0.0 
2.600142430583e-05 3.528829077978e-04 0.0 
0.0 0.0 -5.903933595174e-05 
-1.610257286591e-04 -2.786541686928e-05 0.0 
-2.786541686928e-05 1.081190214243e-03 0.0 
0.0 0.0 -1.610696234640e-04 
-5.476704679841e-05 -2.893258819142e-05 0.0 
-2.893258819142e-05 3.440414388131e-04 0.0 
0.0 0.0 -5.456393079061e-05 
-5.163315478531e-05 2.647496963403e-05 0.0 
2.647496963403e-05 3.049271572106e-04 0.0 
0.0 0.0 -5.149248157812e-05 
-4.366093994894e-05 -2.713962390303e-05 0.0 
-2.713962390303e-05 2.644614859736e-04 0.0 
0.0 0.0 -4.384065419509e-05 
-3.933534437072e-05 2.838910031743e-05 0.0 
2.838910031743e-05 2.172478170370e-04 0.0 
0.0 0.0 -3.921473890832e-05 
-1.680595828810e-04 2.995288676005e-05 0.0 
2.995288676005e-05 1.117099767863e-03 0.0 
0.0 0.0 -1.676286260939e-04 
-1.157691997288e-04 -2.821559363196e-05 0.0 
-2.821559363196e-05 7.614917365493e-04 0.0 
0.0 0.0 -1.153195849472e-04 
-1.884304056946e-04 3.717790371758e-05 0.0 
3.717790371758e-05 1.273139237753e-03 0.0 
0.0 0.0 -1.885115422441e-04 
0.0 0.0 0.0 
0.0 0.0 0.0 
0.0 0.0 0.0 
-6.073075435371e-05 2.779578447063e-05 0.0 
2.779578447063e-05 3.692130858621e-04 0.0 
0.0 0.0 -6.066067809259e-05 
-9.359168136837e-05 3.069541767913e-05 0.0 
3.069541767913e-05 5.989493619825e-04 0.0 
0.0 0.0 -9.346360670616e-05 
-8.611303417377e-05 2.775473971904e-05 0.0 
2.775473971904e-05 5.420210967722e-04 0.0 
0.0 0.0 -8.564096664159e-05 
-1.570602199792e-04 3.345705989991e-05 0.0 
3.345705989991e-05 1.042425010846e-03 0.0 
0.0 0.0 -1.567852636697e-04 
-1.928100163882e-04 2.936217438128e-05 0.0 
2.936217438128e-05 1.304792838197e-03 0.0 
0.0 0.0 -1.913896484052e-04 
-1.544569729700e-04 -3.084214855682e-05 0.0 
-3.084214855682e-05 1.037077783695e-03 0.0 
0.0 0.0 -1.544248659763e-04 
-6.869349223690e-05 -2.826326061375e-05 0.0 
-2.826326061375e-05 4.368318291179e-04 0.0 
0.0 0.0 -6.847262230322e-05 
-1.681247358756e-04 -2.868522419727e-05 0.0 
-2.868522419727e-05 1.120151786447e-03 0.0 
0.0 0.0 -1.674250338637e-04 
-1.435900585209e-04 3.856895931237e-05 0.0 
3.856895931237e-05 9.474561629382e-04 0.0 
0.0 0.0 -1.426866023873e-04 
-1.135532837026e-04 -2.681444128085e-05 0.0 
-2.681444128085e-05 7.480946909015e-04 0.0 
0.0 0.0 -1.130562566545e-04 
-1.499249798733e-04 3.067572505939e-05 0.0 
3.067572505939e-05 9.944265321611e-04 0.0 
0.0 0.0 -1.504800801517e-04 
-1.863757598195e-04 -2.386849214221e-05 0.0 
-2.386849214221e-05 1.244147855382e-03 0.0 
0.0 0.0 -1.859596318053e-04 
-9.333492539951e-05 -3.087526947971e-05 0.0 
-3.087526947971e-05 6.086612624671e-04 0.0 
0.0 0.0 -9.309312152870e-05 
-5.642363476155e-05 -2.566826805163e-05 0.0 
-2.566826805163e-05 3.519070743608e-04 0.0 
0.0 0.0 -5.629031366394e-05 
-1.307741012141e-04 -2.854605187792e-05 0.0 
-2.854605187792e-05 8.651184174892e-04 0.0 
0.0 0.0 -1.299393276493e-04 
-1.994711361555e-04 1.488956192184e-05 0.0 
1.488956192184e-05 1.364194760264e-03 0.0 
0.0 0.0 -1.985353088532e-04 
-1.121064498204e-04 -2.817436375982e-05 0.0 
-2.817436375982e-05 7.383690860162e-04 0.0 
0.0 0.0 -1.117990549081e-04 
-1.167106519063e-04 -2.872381374577e-05 0.0 
-2.872381374577e-05 7.713662195201e-04 0.0 
0.0 0.0 -1.165266455158e-04 
-1.260578035270e-04 -7.836042946560e-06 0.0 
-7.836042946560e-06 8.498512038137e-04 0.0 
0.0 0.0 -1.244042047770e-04 
-3.179935585513e-05 -1.763042363236e-05 0.0 
-1.763042363236e-05 1.961286519246e-04 0.0 
0.0 0.0 -3.241712222852e-05 
-1.231319864475e-04 2.764700743790e-05 0.0 
2.764700743790e-05 7.907293750341e-04 0.0 
0.0 0.0 -1.209084558733e-04 
-6.905505917890e-05 2.816961621887e-05 0.0 
2.816961621887e-05 4.271679056782e-04 0.0 
0.0 0.0 -6.885887611378e-05 
-4.897721551762e-05 2.632054484457e-05 0.0 
2.632054484457e-05 2.838529677145e-04 0.0 
0.0 0.0 -4.844095568774e-05 
-3.558784672985e-05 -2.880146762892e-05 0.0 
-2.880146762892e-05 1.946353418351e-04 0.0 
0.0 0.0 -3.639896506568e-05 
-1.614850212427e-04 2.922041349465e-05 0.0 
2.922041349465e-05 1.072918812013e-03 0.0 
0.0 0.0 -1.613978969627e-04 
-1.255033903270e-04 -2.731668296794e-05 0.0 
-2.731668296794e-05 8.288788500150e-04 0.0 
0.0 0.0 -1.246873609535e-04 
-8.112707161296e-05 2.681454897224e-05 0.0 
2.681454897224e-05 5.130150958306e-04 0.0 
0.0 0.0 -8.144240747594e-05 
-1.665837591113e-04 -2.880422836216e-05 0.0 
-2.880422836216e-05 1.119259672453e-03 0.0 
0.0 0.0 -1.664644697516e-04 
-1.582047777180e-04 -3.130538043856e-05 0.0 
-3.130538043856e-05 1.066325272985e-03 0.0 
0.0 0.0 -1.586660261033e-04 
-1.188629648026e-04 -2.678969091403e-05 0.0 
-2.678969091403e-05 7.847225641269e-04 0.0 
0.0 0.0 -1.183057550348e-04 
-1.886854844882e-04 1.135105285806e-05 0.0 
1.135105285806e-05 1.274732412044e-03 0.0 
0.0 0.0 -1.932618152055e-04 
-1.213677155165e-04 2.897964547722e-05 0.0 
2.897964547722e-05 7.927140784185e-04 0.0 
0.0 0.0 -1.211843839911e-04 
-1.239491645660e-04 -2.748126235811e-05 0.0 
-2.748126235811e-05 8.207516205795e-04 0.0 
0.0 0.0 -1.235739794681e-04 
-9.975160353529e-05 -2.686515225488e-05 0.0 
-2.686515225488e-05 6.567392202688e-04 0.0 
0.0 0.0 -9.984714661518e-05 
-1.263578697939e-04 -2.980227527077e-05 0.0 
-2.980227527077e-05 8.380978382458e-04 0.0 
0.0 0.0 -1.261954767068e-04 
-5.849212426998e-05 2.872957228896e-05 0.0 
2.872957228896e-05 3.506208493125e-04 0.0 
0.0 0.0 -5.798711518065e-05 
-1.213481477356e-04 6.735435036876e-06 0.0 
6.735435036876e-06 7.521902963625e-04 0.0 
0.0 0.0 -1.184708735178e-04 
-9.753040931020e-05 -2.877750014671e-05 0.0 
-2.877750014671e-05 6.382612359797e-04 0.0 
0.0 0.0 -9.729539411790e-05 
-7.014498760133e-05 -2.861953507146e-05 0.0 
-2.861953507146e-05 4.491200428710e-04 0.0 
0.0 0.0 -7.021579980210e-05 
-1.548439846447e-04 2.920495201174e-05 0.0 
2.920495201174e-05 1.025468902843e-03 0.0 
0.0 0.0 -1.548477372900e-04 
-7.400239448952e-06 -4.471996282504e-06 0.0 
-4.471996282504e-06 3.348355740734e-05 0.0 
0.0 0.0 -6.737411723468e-06 
-1.269059540153e-04 -2.992426859267e-05 0.0 
-2.992426859267e-05 8.357764802867e-04 0.0 
0.0 0.0 -1.257958619361e-04 
-7.326865481566e-05 2.857374826703e-05 0.0 
2.857374826703e-05 4.565907868803e-04 0.0 
0.0 0.0 -7.305360031667e-05 
-6.016605764575e-05 -2.684908062252e-05 0.0 
-2.684908062252e-05 3.790547108985e-04 0.0 
0.0 0.0 -6.022881660267e-05 
-5.821846839884e-05 -2.774592413861e-05 0.0 
-2.774592413861e-05 3.619705275702e-04 0.0 
0.0 0.0 -5.751879909679e-05 
-1.351640918224e-04 2.730946876610e-05 0.0 
2.730946876610e-05 8.850173502736e-04 0.0 
0.0 0.0 -1.344766581215e-04 
-2.303458757806e-05 -1.756706348761e-05 0.0 
-1.756706348761e-05 1.393624808345e-04 0.0 
0.0 0.0 -2.414890389727e-05 
-8.463000670150e-05 2.743515429835e-05 0.0 
2.743515429835e-05 5.331920973471e-04 0.0 
0.0 0.0 -8.420255649138e-05 
-1.310820143303e-04 2.863495648326e-05 0.0 
2.863495648326e-05 8.604743158959e-04 0.0 
0.0 0.0 -1.309020407989e-04 
-1.263625231525e-04 2.714069752448e-05 0.0 
2.714069752448e-05 8.190547291893e-04 0.0 
0.0 0.0 -1.250525794797e-04 
-1.272471088817e-04 -3.855000510512e-06 0.0 
-3.855000510512e-06 8.469629814487e-04 0.0 
0.0 0.0 -1.245153595172e-04 
-3.451533027297e-05 2.844805665229e-05 0.0 
2.844805665229e-05 1.808943530398e-04 0.0 
0.0 0.0 -3.280631478328e-05 
-7.063190463533e-05 2.939202413112e-05 0.0 
2.939202413112e-05 4.392145115516e-04 0.0 
0.0 0.0 -7.060413318996e-05 
-6.508843028441e-05 -3.043099012630e-05 0.0 
-3.043099012630e-05 4.105469834446e-04 0.0 
0.0 0.0 -6.467058191239e-05 
-7.469256331376e-05 -2.527987226695e-05 0.0 
-2.527987226695e-05 4.809368026629e-04 0.0 
0.0 0.0 -7.435558976913e-05 
-1.502309888333e-04 -3.186153307622e-05 0.0 
-3.186153307622e-05 1.005619770116e-03 0.0 
0.0 0.0 -1.500995507885e-04 
-8.411103689448e-05 -2.561923504937e-05 0.0 
-2.561923504937e-05 5.446630925718e-04 0.0 
0.0 0.0 -8.366679311450e-05 
-9.244608085661e-05 2.841629283501e-05 0.0 
2.841629283501e-05 5.900259211260e-04 0.0 
0.0 0.0 -9.227309926833e-05 
-8.825859911860e-05 2.898361773724e-05 0.0 
2.898361773724e-05 5.610179827723e-04 0.0 
0.0 0.0 -8.802462077767e-05 
-4.037281909572e-05 -3.055033143304e-05 0.0 
-3.055033143304e-05 2.285588841850e-04 0.0 
0.0 0.0 -3.795074749666e-05 
-1.043807176337e-04 2.969702721876e-05 0.0 
2.969702721876e-05 6.736275783202e-04 0.0 
0.0 0.0 -1.043907376787e-04 
-4.291565100880e-05 -2.841622711530e-05 0.0 
-2.841622711530e-05 2.495146198089e-04 0.0 
0.0 0.0 -4.182373257491e-05 
-1.960133420005e-04 -3.915898958091e-07 0.0 
-3.915898958091e-07 1.365024672998e-03 0.0 
0.0 0.0 -1.982169479593e-04 
-2.008761767446e-04 -4.440775900705e-06 0.0 
-4.440775900705e-06 1.363686351067e-03 0.0 
0.0 0.0 -1.977044065024e-04 
-1.166270540496e-04 2.805525215369e-05 0.0 
2.805525215369e-05 7.581594275037e-04 0.0 
0.0 0.0 -1.163296810217e-04 
-6.377729921261e-05 2.843186062466e-05 0.0 
2.843186062466e-05 3.894200307401e-04 0.0 
0.0 0.0 -6.349477618752e-05 
-5.472494021236e-05 -2.756038478394e-05 0.0 
-2.756038478394e-05 3.420299138774e-04 0.0 
0.0 0.0 -5.489564032307e-05 
-1.286062633098e-04 2.787342346443e-05 0.0 
2.787342346443e-05 8.404326398301e-04 0.0 
0.0 0.0 -1.280878756227e-04 
-5.924292318693e-05 -2.830092874267e-05 0.0 
-2.830092874267e-05 3.712937095837e-04 0.0 
0.0 0.0 -5.895795660960e-05 
-6.498740843255e-05 2.970448360848e-05 0.0 
2.970448360848e-05 3.998906408149e-04 0.0 
0.0 0.0 -6.509812613533e-05 
-1.139448242020e-04 2.662931945144e-05 0.0 
2.662931945144e-05 7.377302601230e-04 0.0 
0.0 0.0 -1.134571731864e-04 
-1.931977199045e-04 -5.790102799525e-06 0.0 
-5.790102799525e-06 1.309642249160e-03 0.0 
0.0 0.0 -1.899960389348e-04 
-7.860743769092e-05 2.917445532478e-05 0.0 
2.917445532478e-05 4.940483609679e-04 0.0 
0.0 0.0 -7.839370437043e-05 
-1.417199735287e-04 2.941394498762e-05 0.0 
2.941394498762e-05 9.349322217144e-04 0.0 
0.0 0.0 -1.414217305113e-04 
-4.661344112576e-05 2.736880969088e-05 0.0 
2.736880969088e-05 2.670838018736e-04 0.0 
0.0 0.0 -4.614936513201e-05 
-1.967992094278e-04 1.123981941096e-06 0.0 
1.123981941096e-06 1.365295639638e-03 0.0 
0.0 0.0 -1.984294758987e-04 
-5.951651457585e-05 2.802626650619e-05 0.0 
2.802626650619e-05 3.606106616578e-04 0.0 
0.0 0.0 -5.939605362352e-05 
-1.179287062834e-04 2.787660048455e-05 0.0 
2.787660048455e-05 7.663966719587e-04 0.0 
0.0 0.0 -1.175278261142e-04 
-4.409418717161e-05 3.104234347111e-05 0.0 
3.104234347111e-05 2.441849578649e-04 0.0 
0.0 0.0 -4.282931220362e-05 
-1.381450842626e-04 2.836088824292e-05 0.0 
2.836088824292e-05 9.092073412549e-04 0.0 
0.0 0.0 -1.381743871232e-04 
-9.791138306631e-05 2.879750584180e-05 0.0 
2.879750584180e-05 6.273190453691e-04 0.0 
0.0 0.0 -9.774928945211e-05 
-6.965606683394e-05 2.867246728631e-05 0.0 
2.867246728631e-05 4.309923865951e-04 0.0 
0.0 0.0 -6.938051102899e-05 
-1.200769966056e-04 -2.774059059615e-05 0.0 
-2.774059059615e-05 7.919085176899e-04 0.0 
0.0 0.0 -1.194585575575e-04 
-1.988427120039e-04 -2.959789654558e-06 0.0 
-2.959789654558e-06 1.363764641001e-03 0.0 
0.0 0.0 -1.987298001823e-04 
-8.291571741031e-05 2.832079044508e-05 0.0 
2.832079044508e-05 5.233038309385e-04 0.0 
0.0 0.0 -8.265507580179e-05 
-1.306758629051e-04 -2.955788166782e-05 0.0 
-2.955788166782e-05 8.695191991227e-04 0.0 
0.0 0.0 -1.305485175686e-04 
-4.578173906005e-05 -2.535078056645e-05 0.0 
-2.535078056645e-05 2.780519891852e-04 0.0 
0.0 0.0 -4.562300070248e-05 
-1.437792750518e-04 3.149363009429e-05 0.0 
3.149363009429e-05 9.490378851935e-04 0.0 
0.0 0.0 -1.436534165706e-04 
-1.511792253345e-04 3.107336096836e-05 0.0 
3.107336096836e-05 1.002609936336e-03 0.0 
0.0 0.0 -1.512517770320e-04 
-6.196699647241e-05 -2.679098173261e-05 0.0 
-2.679098173261e-05 3.903858421673e-04 0.0 
0.0 0.0 -6.164273853391e-05 
-1.399199792627e-04 -2.811467117751e-05 0.0 
-2.811467117751e-05 9.272505815491e-04 0.0 
0.0 0.0 -1.388569334018e-04 
-1.985355386787e-04 1.984726108434e-06 0.0 
1.984726108434e-06 1.364959960964e-03 0.0 
0.0 0.0 -1.983871205594e-04 
-1.614928444495e-04 2.847027297627e-05 0.0 
2.847027297627e-05 1.071649121551e-03 0.0 
0.0 0.0 -1.613792517474e-04 
-1.982422487002e-04 -2.569909507913e-06 0.0 
-2.569909507913e-06 1.365758727609e-03 0.0 
0.0 0.0 -1.983136761333e-04 
-1.361916076227e-04 -3.146771190181e-05 0.0 
-3.146771190181e-05 9.179571631392e-04 0.0 
0.0 0.0 -1.379474753881e-04 
-1.576486168105e-04 -2.829471551287e-05 0.0 
-2.829471551287e-05 1.056700414691e-03 0.0 
0.0 0.0 -1.572395483614e-04 
-5.266868770522e-05 -2.930837486761e-05 0.0 
-2.930837486761e-05 3.216672696281e-04 0.0 
0.0 0.0 -5.237865887416e-05 
-1.106230900853e-04 -2.705461405413e-05 0.0 
-2.705461405413e-05 7.266788580309e-04 0.0 
0.0 0.0 -1.101557085785e-04 
-1.243986606814e-04 2.756325965713e-05 0.0 
2.756325965713e-05 8.114376097232e-04 0.0 
0.0 0.0 -1.239588741081e-04 
-1.293044827764e-04 -2.800858501220e-05 0.0 
-2.800858501220e-05 8.573256290427e-04 0.0 
0.0 0.0 -1.288458533782e-04 
-1.066562308207e-04 -2.783120558929e-05 0.0 
-2.783120558929e-05 7.017640661734e-04 0.0 
0.0 0.0 -1.065261787303e-04 
-1.990029541207e-04 -1.757598364358e-06 0.0 
-1.757598364358e-06 1.366381337533e-03 0.0 
0.0 0.0 -1.983502480037e-04 
-1.298318789187e-04 2.158067938686e-05 0.0 
2.158067938686e-05 8.815706967553e-04 0.0 
0.0 0.0 -1.321612292015e-04 
-1.176326388033e-04 -2.595061727756e-05 0.0 
-2.595061727756e-05 7.723158987367e-04 0.0 
0.0 0.0 -1.164556264782e-04 
-8.783787209566e-05 -2.903458928538e-05 0.0 
-2.903458928538e-05 5.705379246605e-04 0.0 
0.0 0.0 -8.765849385151e-05 
-4.943082231834e-05 2.834348926926e-05 0.0 
2.834348926926e-05 2.859345548030e-04 0.0 
0.0 0.0 -4.921152720794e-05 
-1.062878110515e-04 -2.718085700709e-05 0.0 
-2.718085700709e-05 6.972114022315e-04 0.0 
0.0 0.0 -1.060368635384e-04 
-6.633274732441e-05 2.805962634071e-05 0.0 
2.805962634071e-05 4.063292376683e-04 0.0 
0.0 0.0 -6.607158303000e-05 
-1.158557996194e-04 -6.210093226299e-06 0.0 
-6.210093226299e-06 7.885063370646e-04 0.0 
0.0 0.0 -1.154421321462e-04 
-6.910380331659e-05 -2.778533839803e-05 0.0 
-2.778533839803e-05 4.414244386129e-04 0.0 
0.0 0.0 -6.893461416734e-05 
-7.822135333654e-05 -2.896553184294e-05 0.0 
-2.896553184294e-05 5.031498839476e-04 0.0 
0.0 0.0 -7.803987337015e-05 
-1.602384540181e-04 3.100072325668e-05 0.0 
3.100072325668e-05 1.064154990020e-03 0.0 
0.0 0.0 -1.603578675858e-04 
-6.566815985925e-05 -2.750449767600e-05 0.0 
-2.750449767600e-05 4.167092244980e-04 0.0 
0.0 0.0 -6.558851423748e-05 
-1.152845892592e-04 2.749147668780e-05 0.0 
2.749147668780e-05 7.465056274970e-04 0.0 
0.0 0.0 -1.146103474413e-04 
-1.353451354842e-04 2.819645546977e-05 0.0 
2.819645546977e-05 8.892812196543e-04 0.0 
0.0 0.0 -1.352137036071e-04 
-1.205044148237e-04 2.968350999990e-05 0.0 
2.968350999990e-05 7.873013113578e-04 0.0 
0.0 0.0 -1.205299346428e-04 
-1.958940259279e-04 -3.143838988157e-07 0.0 
-3.143838988157e-07 1.365374549896e-03 0.0 
0.0 0.0 -1.987143998872e-04 
-9.668730117965e-05 -2.517304160907e-05 0.0 
-2.517304160907e-05 6.291397970161e-04 0.0 
0.0 0.0 -9.585336115805e-05 
-6.653143432307e-05 2.946077866981e-05 0.0 
2.946077866981e-05 4.089865087981e-04 0.0 
0.0 0.0 -6.633958094145e-05 
-8.520951336944e-05 -2.684964973046e-05 0.0 
-2.684964973046e-05 5.564426473023e-04 0.0 
0.0 0.0 -8.536885536015e-05 
-6.423500688610e-05 -2.223670417576e-05 0.0 
-2.223670417576e-05 3.967373019254e-04 0.0 
0.0 0.0 -6.277058716750e-05 
-6.233409830209e-05 2.930783879135e-05 0.0 
2.930783879135e-05 3.806227503841e-04 0.0 
0.0 0.0 -6.211964112063e-05 
-1.686029388230e-04 -3.010997351014e-05 0.0 
-3.010997351014e-05 1.134847194407e-03 0.0 
0.0 0.0 -1.685829472084e-04 
-1.228035280568e-04 -2.801028863811e-05 0.0 
-2.801028863811e-05 8.126298515026e-04 0.0 
0.0 0.0 -1.224221955183e-04 
-8.576695021724e-05 -2.818444781109e-05 0.0 
-2.818444781109e-05 5.521166414815e-04 0.0 
0.0 0.0 -8.508581023982e-05 
-1.058888784043e-04 2.774100767274e-05 0.0 
2.774100767274e-05 6.820542708577e-04 0.0 
0.0 0.0 -1.053569120690e-04 
-1.984005188917e-04 3.469833888432e-06 0.0 
3.469833888432e-06 1.365869131785e-03 0.0 
0.0 0.0 -1.981012852499e-04 
-1.891870000816e-04 -2.170110567076e-05 0.0 
-2.170110567076e-05 1.288510292263e-03 0.0 
0.0 0.0 -1.887097005658e-04 
-1.683150849776e-04 2.979696904543e-05 0.0 
2.979696904543e-05 1.122642711197e-03 0.0 
0.0 0.0 -1.689885654173e-04 
-1.554302986174e-04 -2.927663835836e-05 0.0 
-2.927663835836e-05 1.044556448181e-03 0.0 
0.0 0.0 -1.556283301217e-04 
-1.157857925219e-04 -2.832751956135e-05 0.0 
-2.832751956135e-05 7.671670755825e-04 0.0 
0.0 0.0 -1.158214347813e-04 
-8.793389765940e-05 -2.692004426865e-05 0.0 
-2.692004426865e-05 5.710151647237e-04 0.0 
0.0 0.0 -8.764218308180e-05 
-6.353474277312e-05 -2.825822332319e-05 0.0 
-2.825822332319e-05 4.001707208949e-04 0.0 
0.0 0.0 -6.304749027677e-05 
-7.291093511829e-05 -2.827879267007e-05 0.0 
-2.827879267007e-05 4.665581668852e-04 0.0 
0.0 0.0 -7.265234708097e-05 
-1.174853072823e-04 -2.733567074543e-05 0.0 
-2.733567074543e-05 7.760237591612e-04 0.0 
0.0 0.0 -1.171309192368e-04 
-1.335212434515e-04 -2.914279474533e-05 0.0 
-2.914279474533e-05 8.905694576090e-04 0.0 
0.0 0.0 -1.335144612876e-04 
-1.018718395078e-04 -2.979006226054e-05 0.0 
-2.979006226054e-05 6.715941915170e-04 0.0 
0.0 0.0 -1.021513650962e-04 
-1.706976735812e-04 3.040145888498e-05 0.0 
3.040145888498e-05 1.134074140794e-03 0.0 
0.0 0.0 -1.701355210695e-04 
-6.585088392687e-05 -2.809564114852e-05 0.0 
-2.809564114852e-05 4.191270390209e-04 0.0 
0.0 0.0 -6.593483134189e-05 
-1.012822856145e-04 -2.790893614150e-05 0.0 
-2.790893614150e-05 6.647252503200e-04 0.0 
0.0 0.0 -1.012556795624e-04 
-1.190728906021e-04 2.726084077196e-05 0.0 
2.726084077196e-05 7.740175104497e-04 0.0 
0.0 0.0 -1.186992623097e-04 
-9.180435571147e-05 -2.942480991547e-05 0.0 
-2.942480991547e-05 5.980965186942e-04 0.0 
0.0 0.0 -9.183388734860e-05 
-1.951933135343e-04 -3.067913145711e-06 0.0 
-3.067913145711e-06 1.365527233008e-03 0.0 
0.0 0.0 -1.980132279339e-04 
-2.004839790609e-04 7.957002336378e-06 0.0 
7.957002336378e-06 1.363848061926e-03 0.0 
0.0 0.0 -1.977693979613e-04 
-1.862548850903e-04 -3.381380897180e-05 0.0 
-3.381380897180e-05 1.277935188165e-03 0.0 
0.0 0.0 -1.884741816281e-04 
-1.255545849599e-04 -2.913100698812e-05 0.0 
-2.913100698812e-05 8.346700099746e-04 0.0 
0.0 0.0 -1.256288396591e-04 
-1.668512740992e-04 2.892208901038e-05 0.0 
2.892208901038e-05 1.110735165857e-03 0.0 
0.0 0.0 -1.668097552869e-04 
-5.710219261571e-05 2.668419955422e-05 0.0 
2.668419955422e-05 3.418831237588e-04 0.0 
0.0 0.0 -5.678930531275e-05 
-8.241925476564e-05 -2.832624156936e-05 0.0 
-2.832624156936e-05 5.333885698677e-04 0.0 
0.0 0.0 -8.224527255367e-05 
-4.853944390359e-05 -2.604022421239e-05 0.0 
-2.604022421239e-05 2.959627034739e-04 0.0 
0.0 0.0 -4.789427177487e-05 
-8.945478626281e-05 -2.660897635143e-05 0.0 
-2.660897635143e-05 5.805998989638e-04 0.0 
0.0 0.0 -8.904339260345e-05 
-1.163162734636e-04 -2.681975846469e-06 0.0 
-2.681975846469e-06 7.498217446733e-04 0.0 
0.0 0.0 -1.187247005501e-04 
-1.378749770551e-04 3.210368012353e-05 0.0 
3.210368012353e-05 9.111791288023e-04 0.0 
0.0 0.0 -1.382175405433e-04 
-1.908460110853e-04 -3.275689360248e-07 0.0 
-3.275689360248e-07 1.305230985071e-03 0.0 
0.0 0.0 -1.898105380385e-04 
-1.673198694714e-04 3.217203314275e-05 0.0 
3.217203314275e-05 1.110802916425e-03 0.0 
0.0 0.0 -1.675837462092e-04 
-1.307963472837e-04 2.695120133125e-05 0.0 
2.695120133125e-05 8.556346688023e-04 0.0 
0.0 0.0 -1.303141423325e-04 
-1.340100066794e-04 2.763944078925e-05 0.0 
2.763944078925e-05 8.772925572874e-04 0.0 
0.0 0.0 -1.333792161710e-04 
-5.307775534031e-05 2.953233977858e-05 0.0 
2.953233977858e-05 3.124408790926e-04 0.0 
0.0 0.0 -5.245278118421e-05 
-2.595268965567e-05 5.699272949294e-06 0.0 
5.699272949294e-06 1.472249447242e-04 0.0 
0.0 0.0 -2.415366321274e-05 
-9.908936880668e-05 3.012137168314e-05 0.0 
3.012137168314e-05 6.362497375305e-04 0.0 
0.0 0.0 -9.891160473977e-05 
-1.107375038864e-04 -2.791592154402e-05 0.0 
-2.791592154402e-05 7.305458695935e-04 0.0 
0.0 0.0 -1.106421438825e-04 
-1.040373993302e-04 -2.962445174837e-05 0.0 
-2.962445174837e-05 6.836342105130e-04 0.0 
0.0 0.0 -1.039785834622e-04 
-2.890800069675e-05 2.861111799326e-05 0.0 
2.861111799326e-05 1.404310217184e-04 0.0 
0.0 0.0 -2.759983235876e-05 
-1.283084597460e-04 1.192869093826e-05 0.0 
1.192869093826e-05 8.062000095070e-04 0.0 
0.0 0.0 -1.269342783548e-04 
-4.518956868723e-05 -2.955121691656e-05 0.0 
-2.955121691656e-05 2.739636501554e-04 0.0 
0.0 0.0 -4.458156379712e-05 
-6.480437248805e-05 2.886959438942e-05 0.0 
2.886959438942e-05 3.978928491972e-04 0.0 
0.0 0.0 -6.471073859852e-05 
-2.011730791700e-04 -1.698872758063e-08 0.0 
-1.698872758063e-08 1.328124099864e-03 0.0 
0.0 0.0 -2.011730791700e-04 
-1.460374838192e-04 -3.048163660064e-05 0.0 
-3.048163660064e-05 9.751989198997e-04 0.0 
0.0 0.0 -1.457653143910e-04 
-1.205798788541e-04 2.761727978419e-05 0.0 
2.761727978419e-05 7.635288783755e-04 0.0 
0.0 0.0 -1.168501105142e-04 
-3.395354607204e-05 2.118102367287e-05 0.0 
2.118102367287e-05 2.067871695949e-04 0.0 
0.0 0.0 -3.264725407481e-05 
-1.072259052960e-04 2.828066854900e-05 0.0 
2.828066854900e-05 6.926707853574e-04 0.0 
0.0 0.0 -1.069007943593e-04 
-9.875212805042e-05 -3.066987077576e-05 0.0 
-3.066987077576e-05 6.455932732231e-04 0.0 
0.0 0.0 -9.854973989574e-05 
-1.347121276017e-04 -2.904780221579e-05 0.0 
-2.904780221579e-05 8.937363280174e-04 0.0 
0.0 0.0 -1.341094516545e-04 
-1.991811038418e-04 6.018664084072e-06 0.0 
6.018664084072e-06 1.364715316697e-03 0.0 
0.0 0.0 -1.985748880999e-04 
-1.110533222846e-04 2.766180117225e-05 0.0 
2.766180117225e-05 7.188072929314e-04 0.0 
0.0 0.0 -1.104975085169e-04 
-1.281880349500e-04 -2.831423111803e-05 0.0 
-2.831423111803e-05 8.493800491293e-04 0.0 
0.0 0.0 -1.277066113365e-04 
-1.022800064688e-04 2.938149773544e-05 0.0 
2.938149773544e-05 6.613696873366e-04 0.0 
0.0 0.0 -1.025654288072e-04 
-1.657781793003e-04 2.991009795984e-05 0.0 
2.991009795984e-05 1.103461715683e-03 0.0 
0.0 0.0 -1.657887872837e-04 
-1.303012997508e-04 2.941535065773e-05 0.0 
2.941535065773e-05 8.562179753406e-04 0.0 
0.0 0.0 -1.303748051659e-04 
-1.970164637737e-04 -1.302278598281e-06 0.0 
-1.302278598281e-06 1.366138488450e-03 0.0 
0.0 0.0 -1.983262259508e-04 
-2.010155577921e-04 3.662749840240e-07 0.0 
3.662749840240e-07 1.326332536677e-03 0.0 
0.0 0.0 -2.010155577921e-04 
-2.011542863586e-04 -1.004817252028e-06 0.0 
-1.004817252028e-06 1.325128672458e-03 0.0 
0.0 0.0 -2.011542863586e-04 
-2.007067363607e-04 -1.498454949368e-07 0.0 
-1.498454949368e-07 1.318361508107e-03 0.0 
0.0 0.0 -2.007067363607e-04 
-1.391843029499e-04 2.745739822782e-05 0.0 
2.745739822782e-05 9.142042162451e-04 0.0 
0.0 0.0 -1.386702020626e-04 
-1.656573127809e-04 -2.766529280961e-05 0.0 
-2.766529280961e-05 1.111954587801e-03 0.0 
0.0 0.0 -1.654503375633e-04 
-1.726299045536e-04 3.125882372740e-05 0.0 
3.125882372740e-05 1.154413842026e-03 0.0 
0.0 0.0 -1.733872194588e-04 
-9.246943249656e-05 3.046774901958e-05 0.0 
3.046774901958e-05 5.891823098647e-04 0.0 
0.0 0.0 -9.220995221430e-05 
-8.867527655773e-05 2.995644697179e-05 0.0 
2.995644697179e-05 5.611104943418e-04 0.0 
0.0 0.0 -8.809376301141e-05 
-9.622211545223e-05 -3.009570676563e-05 0.0 
-3.009570676563e-05 6.328174754954e-04 0.0 
0.0 0.0 -9.655401109520e-05 
-1.701961923366e-04 -3.010043453970e-05 0.0 
-3.010043453970e-05 1.143557443824e-03 0.0 
0.0 0.0 -1.697778367964e-04 
-1.986751491008e-04 -7.450281032099e-07 0.0 
-7.450281032099e-07 1.364365235868e-03 0.0 
0.0 0.0 -1.983660426036e-04 
-1.710340879663e-04 2.926837147099e-05 0.0 
2.926837147099e-05 1.140451459410e-03 0.0 
0.0 0.0 -1.711771202328e-04 
-1.362026136940e-04 -3.056560885154e-05 0.0 
-3.056560885154e-05 9.064457611163e-04 0.0 
0.0 0.0 -1.359501865459e-04 
-1.710918547977e-04 -2.738871930552e-05 0.0 
-2.738871930552e-05 1.149183258739e-03 0.0 
0.0 0.0 -1.708297112636e-04 
-1.484338095600e-04 -2.864995064493e-05 0.0 
-2.864995064493e-05 9.946985301084e-04 0.0 
0.0 0.0 -1.485531891111e-04 
-1.058391682515e-04 2.762475757998e-05 0.0 
2.762475757998e-05 6.839177814814e-04 0.0 
0.0 0.0 -1.057460988714e-04 
-9.007502322936e-05 2.632387229137e-05 0.0 
2.632387229137e-05 5.712847458693e-04 0.0 
0.0 0.0 -8.951081423028e-05 
-5.003262353380e-05 2.839389572085e-05 0.0 
2.839389572085e-05 2.942091527215e-04 0.0 
0.0 0.0 -5.000330529763e-05 
-1.931223455613e-04 1.410072971069e-05 0.0 
1.410072971069e-05 1.274197783005e-03 0.0 
0.0 0.0 -1.923320103442e-04 
-8.673133120512e-05 2.974761857028e-05 0.0 
2.974761857028e-05 5.527785355338e-04 0.0 
0.0 0.0 -8.688718888654e-05 
-1.811235048976e-04 -1.426754042442e-06 0.0 
-1.426754042442e-06 1.216021958167e-03 0.0 
0.0 0.0 -1.846150589539e-04 
-9.663648622258e-05 2.916309241112e-05 0.0 
2.916309241112e-05 6.223980992345e-04 0.0 
0.0 0.0 -9.698095267749e-05 
-6.297861531256e-05 -2.737443956180e-05 0.0 
-2.737443956180e-05 4.020391048555e-04 0.0 
0.0 0.0 -6.334372566563e-05 
-1.910403343780e-04 6.504513827890e-06 0.0 
6.504513827890e-06 1.269011526396e-03 0.0 
0.0 0.0 -1.926469350330e-04 
-7.031800198741e-05 2.800312657303e-05 0.0 
2.800312657303e-05 4.340280219417e-04 0.0 
0.0 0.0 -7.004737339288e-05 
-2.012981183411e-04 2.829868493081e-07 0.0 
2.829868493081e-07 1.325754434692e-03 0.0 
0.0 0.0 -2.012981183411e-04 
-1.944617061092e-04 -2.128424273080e-06 0.0 
-2.128424273080e-06 1.270536569317e-03 0.0 
0.0 0.0 -1.923981163876e-04 
-1.274261734323e-04 2.764661482526e-05 0.0 
2.764661482526e-05 8.320608034777e-04 0.0 
0.0 0.0 -1.269381307268e-04 
-1.388257339176e-05 -3.296929808695e-07 0.0 
-3.296929808695e-07 4.627629862134e-05 0.0 
0.0 0.0 -1.388302509839e-05 
-2.011432062587e-04 1.175370744359e-06 0.0 
1.175370744359e-06 1.325704875416e-03 0.0 
0.0 0.0 -2.011432062587e-04 
-1.921224080021e-04 -3.345083285998e-06 0.0 
-3.345083285998e-06 1.269046594870e-03 0.0 
0.0 0.0 -1.926992175726e-04 
-6.391416598869e-05 2.999598810142e-05 0.0 
2.999598810142e-05 3.912627427439e-04 0.0 
0.0 0.0 -6.380490422505e-05 
-1.404753262357e-04 -2.965513079560e-05 0.0 
-2.965513079560e-05 9.376027128924e-04 0.0 
0.0 0.0 -1.402969630079e-04 
-1.999507595383e-04 6.517171705063e-07 0.0 
6.517171705063e-07 1.367200749641e-03 0.0 
0.0 0.0 -1.984522389651e-04 
0.0 0.0 0.0 
0.0 0.0 0.0 
0.0 0.0 0.0 
-9.642422921866e-05 2.765043306328e-05 0.0 
2.765043306328e-05 6.184893464754e-04 0.0 
0.0 0.0 -9.638260397252e-05 
-1.327711764227e-04 2.777803969438e-05 0.0 
2.777803969438e-05 8.691844784454e-04 0.0 
0.0 0.0 -1.322405047887e-04 
-1.220159274826e-04 2.812429560457e-05 0.0 
2.812429560457e-05 7.950189731712e-04 0.0 
0.0 0.0 -1.216370884873e-04 
-1.233780413330e-04 2.822278476293e-05 0.0 
2.822278476293e-05 8.034120475729e-04 0.0 
0.0 0.0 -1.227992079070e-04 
-5.537653594295e-05 2.875222597985e-05 0.0 
2.875222597985e-05 3.316168811288e-04 0.0 
0.0 0.0 -5.533679171570e-05 
-2.012041008673e-04 -1.784165579868e-07 0.0 
-1.784165579868e-07 1.324183447082e-03 0.0 
0.0 0.0 -2.012041008673e-04 
-9.201494534921e-05 -2.853538992438e-05 0.0 
-2.853538992438e-05 6.003334109930e-04 0.0 
0.0 0.0 -9.185667556238e-05 
-3.303106360170e-05 -2.633064609002e-05 0.0 
-2.633064609002e-05 1.883634797952e-04 0.0 
0.0 0.0 -3.259945417627e-05 
-1.918713440306e-04 8.946523950926e-06 0.0 
8.946523950926e-06 1.309054848055e-03 0.0 
0.0 0.0 -1.908532239790e-04 
-1.533408055875e-05 7.384230356387e-07 0.0 
7.384230356387e-07 8.948803933365e-05 0.0 
0.0 0.0 -1.529156673429e-05 
-1.006599210971e-04 2.782645766406e-05 0.0 
2.782645766406e-05 6.455369390174e-04 0.0 
0.0 0.0 -1.001834968599e-04 
-3.451081164849e-05 1.818301860879e-06 0.0 
1.818301860879e-06 1.688175235099e-04 0.0 
0.0 0.0 -3.548102280213e-05 
-1.062965573196e-04 2.780179286973e-05 0.0 
2.780179286973e-05 6.883223029444e-04 0.0 
0.0 0.0 -1.064232429825e-04 
-1.976952572840e-04 -1.168281398260e-06 0.0 
-1.168281398260e-06 1.362992457342e-03 0.0 
0.0 0.0 -1.982734646138e-04 
-2.011883062674e-04 9.888613031928e-07 0.0 
9.888613031928e-07 1.328146716782e-03 0.0 
0.0 0.0 -2.011883062674e-04 
-1.301088029822e-04 2.770607832302e-05 0.0 
2.770607832302e-05 8.484055931934e-04 0.0 
0.0 0.0 -1.292069026561e-04 
-2.954464874618e-05 -3.965393558445e-06 0.0 
-3.965393558445e-06 1.122999320296e-04 0.0 
0.0 0.0 -2.690965210263e-05 
-2.739399671943e-05 2.933508036766e-05 0.0 
2.933508036766e-05 1.380090285650e-04 0.0 
0.0 0.0 -2.757055009735e-05 
-3.542847344044e-05 6.606947798617e-06 0.0 
6.606947798617e-06 2.063449622469e-04 0.0 
0.0 0.0 -3.269047038571e-05 
-1.687743102681e-04 -2.969350572077e-05 0.0 
-2.969350572077e-05 1.134034339831e-03 0.0 
0.0 0.0 -1.682749826031e-04 
-1.155575491131e-04 4.356017504332e-06 0.0 
4.356017504332e-06 7.906999410851e-04 0.0 
0.0 0.0 -1.155645034189e-04 
-1.225223585343e-04 -3.170975582543e-05 0.0 
-3.170975582543e-05 8.033648067797e-04 0.0 
0.0 0.0 -1.216399908441e-04 
-2.013754095761e-04 8.574101042669e-07 0.0 
8.574101042669e-07 1.328505872694e-03 0.0 
0.0 0.0 -2.013754095761e-04 
-1.185922722511e-04 -6.408792185017e-06 0.0 
-6.408792185017e-06 7.903114053093e-04 0.0 
0.0 0.0 -1.158066699702e-04 
-1.999465830534e-04 2.523603907241e-06 0.0 
2.523603907241e-06 1.365706190659e-03 0.0 
0.0 0.0 -1.984278847636e-04 
-1.529420189163e-04 2.878980384314e-05 0.0 
2.878980384314e-05 1.013778882456e-03 0.0 
0.0 0.0 -1.531497964885e-04 
-1.341342697016e-04 3.021998989808e-05 0.0 
3.021998989808e-05 8.804430663277e-04 0.0 
0.0 0.0 -1.336117322397e-04 
-7.066337245358e-05 2.724020164699e-05 0.0 
2.724020164699e-05 4.173118245595e-04 0.0 
0.0 0.0 -6.716413209789e-05 
-1.409646218039e-04 2.858302443344e-05 0.0 
2.858302443344e-05 9.281763591865e-04 0.0 
0.0 0.0 -1.406799227165e-04 
-4.298549671642e-05 -2.547451572923e-05 0.0 
-2.547451572923e-05 2.695670933754e-04 0.0 
0.0 0.0 -4.407237973489e-05 
-2.011132486541e-04 -7.128017343335e-07 0.0 
-7.128017343335e-07 1.328659301781e-03 0.0 
0.0 0.0 -2.011132486541e-04 
-2.009976701417e-04 3.439303975140e-06 0.0 
3.439303975140e-06 1.321105461220e-03 0.0 
0.0 0.0 -2.009976701417e-04 
-2.010626616006e-04 -3.322276770675e-06 0.0 
-3.322276770675e-06 1.324330050416e-03 0.0 
0.0 0.0 -2.010626616006e-04 
-1.299093591511e-04 -2.914930425429e-05 0.0 
-2.914930425429e-05 8.658441252439e-04 0.0 
0.0 0.0 -1.299975089739e-04 
-9.052284020771e-05 -3.049516894790e-05 0.0 
-3.049516894790e-05 5.936904225557e-04 0.0 
0.0 0.0 -9.093357025479e-05 
-1.054046505950e-04 -2.722690421760e-05 0.0 
-2.722690421760e-05 6.941162488956e-04 0.0 
0.0 0.0 -1.053178853420e-04 
-1.346471619318e-04 2.927563182277e-05 0.0 
2.927563182277e-05 8.856709839770e-04 0.0 
0.0 0.0 -1.347235989126e-04 
-2.009441844947e-04 5.418162692682e-07 0.0 
5.418162692682e-07 1.327955075341e-03 0.0 
0.0 0.0 -2.009441844947e-04 
-6.443925901357e-05 -2.813929069584e-05 0.0 
-2.813929069584e-05 4.076252186495e-04 0.0 
0.0 0.0 -6.431912701200e-05 
-7.485675959243e-05 2.901728883495e-05 0.0 
2.901728883495e-05 4.688085198426e-04 0.0 
0.0 0.0 -7.487790608677e-05 
-7.928698614329e-05 2.778576412939e-05 0.0 
2.778576412939e-05 4.984401812577e-04 0.0 
0.0 0.0 -7.908687439778e-05 
-1.394721343079e-04 2.885489704653e-05 0.0 
2.885489704653e-05 9.192978405546e-04 0.0 
0.0 0.0 -1.391937591313e-04 
-2.008612103287e-04 -3.693527197654e-06 0.0 
-3.693527197654e-06 1.364519917838e-03 0.0 
0.0 0.0 -1.985305734468e-04 
-2.250927834624e-05 2.909087829438e-06 0.0 
2.909087829438e-06 1.468758923848e-04 0.0 
0.0 0.0 -2.397382233655e-05 
-2.011163638586e-04 2.302003841699e-07 0.0 
2.302003841699e-07 1.324189736521e-03 0.0 
0.0 0.0 -2.011163638586e-04 
-7.377337448231e-05 2.934269690708e-05 0.0 
2.934269690708e-05 4.594549865471e-04 0.0 
0.0 0.0 -7.358133128319e-05 
-2.014316818412e-04 4.263406091419e-07 0.0 
4.263406091419e-07 1.328090472923e-03 0.0 
0.0 0.0 -2.014316818412e-04 
-1.734276927947e-04 -2.828578725819e-05 0.0 
-2.828578725819e-05 1.166116999412e-03 0.0 
0.0 0.0 -1.729148776319e-04 
-6.741246855669e-06 1.500702879826e-07 0.0 
1.500702879826e-07 3.827256342879e-05 0.0 
0.0 0.0 -6.864263063556e-06 
-1.004959508363e-04 2.808542309375e-05 0.0 
2.808542309375e-05 6.454212743012e-04 0.0 
0.0 0.0 -1.003583859079e-04 
-1.718759866272e-04 -2.980354167843e-05 0.0 
-2.980354167843e-05 1.157131136303e-03 0.0 
0.0 0.0 -1.719029392456e-04 
-2.011830196921e-04 -3.548902454832e-07 0.0 
-3.548902454832e-07 1.327155566075e-03 0.0 
0.0 0.0 -2.011830196921e-04 
-1.388407500422e-04 -2.884720622620e-05 0.0 
-2.884720622620e-05 9.230769586163e-04 0.0 
0.0 0.0 -1.383010158571e-04 
-1.575526722260e-04 2.955644203139e-05 0.0 
2.955644203139e-05 1.043750468826e-03 0.0 
0.0 0.0 -1.573501057445e-04 
-4.123088931291e-05 2.897558544234e-05 0.0 
2.897558544234e-05 2.287469859808e-04 0.0 
0.0 0.0 -4.076119643165e-05 
-1.813025862255e-04 9.345575993618e-07 0.0 
9.345575993618e-07 1.215376006819e-03 0.0 
0.0 0.0 -1.843023520775e-04 
-7.788490820688e-05 2.864422483209e-05 0.0 
2.864422483209e-05 4.890843703452e-04 0.0 
0.0 0.0 -7.776038389268e-05 
-7.872164132443e-05 -2.705112463858e-05 0.0 
-2.705112463858e-05 5.083022021505e-04 0.0 
0.0 0.0 -7.864394100603e-05 
-1.651857613722e-05 2.436579541672e-06 0.0 
2.436579541672e-06 9.382250948335e-05 0.0 
0.0 0.0 -1.564271892946e-05 
-2.011619417363e-04 1.902236696589e-07 0.0 
1.902236696589e-07 1.325669705516e-03 0.0 
0.0 0.0 -2.011619417363e-04 
-5.404101206327e-05 -2.775487024526e-05 0.0 
-2.775487024526e-05 3.346238881161e-04 0.0 
0.0 0.0 -5.346778118095e-05 
-1.664978969876e-04 -3.078518139598e-05 0.0 
-3.078518139598e-05 1.121532468591e-03 0.0 
0.0 0.0 -1.665752238587e-04 
-1.278730840806e-04 -3.472948115295e-05 0.0 
-3.472948115295e-05 8.520267496029e-04 0.0 
0.0 0.0 -1.283298317887e-04 
-6.603291402412e-05 -2.806322866842e-05 0.0 
-2.806322866842e-05 4.217037645698e-04 0.0 
0.0 0.0 -6.617380498945e-05 
-7.463675443451e-05 -2.871843216267e-05 0.0 
-2.871843216267e-05 4.786814676414e-04 0.0 
0.0 0.0 -7.447016153659e-05 
-1.335206736850e-04 -2.810341513530e-05 0.0 
-2.810341513530e-05 8.862841769034e-04 0.0 
0.0 0.0 -1.330061330556e-04 
-2.013389903111e-04 -2.577060081339e-06 0.0 
-2.577060081339e-06 1.328272800082e-03 0.0 
0.0 0.0 -2.013389903111e-04 
-9.595163826971e-05 2.829118562233e-05 0.0 
2.829118562233e-05 6.147361544056e-04 0.0 
0.0 0.0 -9.568302398834e-05 
-1.453761414593e-04 -3.029613600092e-05 0.0 
-3.029613600092e-05 9.724967985982e-04 0.0 
0.0 0.0 -1.454001008742e-04 
-1.206262125757e-04 2.794500349809e-05 0.0 
2.794500349809e-05 7.866369625336e-04 0.0 
0.0 0.0 -1.204619904346e-04 
-1.322723275388e-04 -2.829979880917e-05 0.0 
-2.829979880917e-05 8.816831760065e-04 0.0 
0.0 0.0 -1.321674040750e-04 
-7.980000717296e-05 -2.795628281200e-05 0.0 
-2.795628281200e-05 5.159636454028e-04 0.0 
0.0 0.0 -7.989676937832e-05 
-1.354049195082e-04 -2.966836663350e-05 0.0 
-2.966836663350e-05 9.031731980439e-04 0.0 
0.0 0.0 -1.354758998029e-04 
-1.160382141721e-04 -2.802728243222e-05 0.0 
-2.802728243222e-05 7.673309827378e-04 0.0 
0.0 0.0 -1.159419204142e-04 
-1.497221933922e-04 -2.945707781298e-05 0.0 
-2.945707781298e-05 1.002549953165e-03 0.0 
0.0 0.0 -1.497374551683e-04 
-1.506619844600e-04 2.868191767905e-05 0.0 
2.868191767905e-05 9.959081628399e-04 0.0 
0.0 0.0 -1.504701801305e-04 
-1.152928167139e-04 2.794966723813e-05 0.0 
2.794966723813e-05 7.495122634304e-04 0.0 
0.0 0.0 -1.151504190239e-04 
-9.797200402357e-05 2.936337437301e-05 0.0 
2.936337437301e-05 6.310607353231e-04 0.0 
0.0 0.0 -9.826785141749e-05 
-6.968070852175e-05 -2.743361977117e-05 0.0 
-2.743361977117e-05 4.442581749229e-04 0.0 
0.0 0.0 -6.960145924383e-05 
-9.096858632181e-05 2.865428116578e-05 0.0 
2.865428116578e-05 5.831558172230e-04 0.0 
0.0 0.0 -9.136904409386e-05 
-1.529042345816e-04 -2.854559586381e-05 0.0 
-2.854559586381e-05 1.024686749938e-03 0.0 
0.0 0.0 -1.527306194461e-04 
-1.256058487050e-04 2.811261290406e-05 0.0 
2.811261290406e-05 8.215081039068e-04 0.0 
0.0 0.0 -1.254775488864e-04 
-1.980780648734e-04 -3.935700772683e-06 0.0 
-3.935700772683e-06 1.366110574938e-03 0.0 
0.0 0.0 -1.982894430286e-04 
-1.754272809192e-04 -2.841101742405e-05 0.0 
-2.841101742405e-05 1.186882516095e-03 0.0 
0.0 0.0 -1.761487873678e-04 
-6.082182731614e-05 2.853376333875e-05 0.0 
2.853376333875e-05 3.715508262051e-04 0.0 
0.0 0.0 -6.104993218691e-05 
-2.011571007552e-04 9.171145657886e-07 0.0 
9.171145657886e-07 1.321562182738e-03 0.0 
0.0 0.0 -2.011571007552e-04 
-1.869664199368e-04 -1.057224803579e-06 0.0 
-1.057224803579e-06 1.305229682683e-03 0.0 
0.0 0.0 -1.899621165515e-04 
-1.086484700099e-04 2.782826117920e-05 0.0 
2.782826117920e-05 7.032557878447e-04 0.0 
0.0 0.0 -1.085668144712e-04 
-1.464969908307e-05 -1.429149761968e-06 0.0 
-1.429149761968e-06 4.885109050726e-05 0.0 
0.0 0.0 -1.465773918179e-05 
-1.958263237412e-04 5.780106440848e-07 0.0 
5.780106440848e-07 1.365777430136e-03 0.0 
0.0 0.0 -1.985204576056e-04 
-1.757264082716e-04 -2.517232276593e-05 0.0 
-2.517232276593e-05 1.179270301901e-03 0.0 
0.0 0.0 -1.750736792729e-04 
-6.782541782712e-05 3.019373787777e-05 0.0 
3.019373787777e-05 4.206013080560e-04 0.0 
0.0 0.0 -6.802858053956e-05 
-2.012563967287e-04 -1.966469980067e-06 0.0 
-1.966469980067e-06 1.324444202799e-03 0.0 
0.0 0.0 -2.012563967287e-04 
-1.398061958654e-04 -2.943243974614e-05 0.0 
-2.943243974614e-05 9.347188127772e-04 0.0 
0.0 0.0 -1.398839994836e-04 
-9.402070193648e-05 2.712518201061e-05 0.0 
2.712518201061e-05 5.984767473335e-04 0.0 
0.0 0.0 -9.344238907910e-05 
-1.259751156612e-04 2.590313598485e-05 0.0 
2.590313598485e-05 8.271536243356e-04 0.0 
0.0 0.0 -1.261329128710e-04 
-1.209053773198e-04 -2.958653903370e-05 0.0 
-2.958653903370e-05 8.015101038896e-04 0.0 
0.0 0.0 -1.208199794009e-04 
-1.200662961737e-04 -2.928695907517e-05 0.0 
-2.928695907517e-05 7.971639168788e-04 0.0 
0.0 0.0 -1.201302469568e-04 
-1.377407696400e-04 -2.844739825321e-05 0.0 
-2.844739825321e-05 9.201029016575e-04 0.0 
0.0 0.0 -1.377263211214e-04 
-1.455051528160e-04 -2.968427682686e-05 0.0 
-2.968427682686e-05 9.765284886093e-04 0.0 
0.0 0.0 -1.458154293005e-04 
-1.046610403714e-04 2.733139804099e-05 0.0 
2.733139804099e-05 6.730778598484e-04 0.0 
0.0 0.0 -1.041882757323e-04 
-1.560008307498e-04 2.985032891431e-05 0.0 
2.985032891431e-05 1.035131189223e-03 0.0 
0.0 0.0 -1.559113556481e-04 
-1.346325198006e-04 -3.759875847639e-06 0.0 
-3.759875847639e-06 9.030385431769e-04 0.0 
0.0 0.0 -1.325924704931e-04 
-9.742891063834e-05 -2.917049163419e-05 0.0 
-2.917049163419e-05 6.415916256564e-04 0.0 
0.0 0.0 -9.782951018876e-05 
-1.452307842680e-04 2.798410104444e-05 0.0 
2.798410104444e-05 9.572278053497e-04 0.0 
0.0 0.0 -1.449704969611e-04 
-7.715625378280e-05 -2.667442626255e-05 0.0 
-2.667442626255e-05 4.986036227452e-04 0.0 
0.0 0.0 -7.733157599954e-05 
-1.363333543933e-04 2.878191277654e-05 0.0 
2.878191277654e-05 8.968468110316e-04 0.0 
0.0 0.0 -1.364058089354e-04 
-7.777375980435e-06 -7.535368744986e-07 0.0 
-7.535368744986e-07 3.923141655039e-05 0.0 
0.0 0.0 -6.878196728934e-06 
-7.528604578945e-05 -2.595586335955e-05 0.0 
-2.595586335955e-05 4.832975377931e-04 0.0 
0.0 0.0 -7.495963205652e-05 
-7.310000528410e-05 -2.717420889967e-05 0.0 
-2.717420889967e-05 4.696905978795e-04 0.0 
0.0 0.0 -7.313647621482e-05 
-1.067255440210e-04 2.893271527878e-05 0.0 
2.893271527878e-05 6.917423590188e-04 0.0 
0.0 0.0 -1.068984364518e-04 
-1.139491260445e-04 2.826874769749e-05 0.0 
2.826874769749e-05 7.405843148328e-04 0.0 
0.0 0.0 -1.139284295517e-04 
-1.402043620025e-04 2.960631400940e-05 0.0 
2.960631400940e-05 9.251192422938e-04 0.0 
0.0 0.0 -1.402590041820e-04 
-1.335394728763e-04 -2.801522720058e-05 0.0 
-2.801522720058e-05 8.959684456723e-04 0.0 
0.0 0.0 -1.344445438287e-04 
-6.737158343628e-05 -2.804640221892e-05 0.0 
-2.804640221892e-05 4.313606597416e-04 0.0 
0.0 0.0 -6.758331304146e-05 
-2.012741767181e-04 8.821979198625e-07 0.0 
8.821979198625e-07 1.328039817999e-03 0.0 
0.0 0.0 -2.012741767181e-04 
-1.322856537807e-04 -2.842003897691e-05 0.0 
-2.842003897691e-05 8.785134865185e-04 0.0 
0.0 0.0 -1.318490365677e-04 
-1.109362290093e-04 2.909596826543e-05 0.0 
2.909596826543e-05 7.212635507904e-04 0.0 
0.0 0.0 -1.112084472091e-04 
-1.268451666326e-04 -2.799239167254e-05 0.0 
-2.799239167254e-05 8.413818391972e-04 0.0 
0.0 0.0 -1.265499305732e-04 
-1.064793262471e-04 -2.934158827982e-05 0.0 
-2.934158827982e-05 7.019469370670e-04 0.0 
0.0 0.0 -1.064793858277e-04 
0.0 0.0 0.0 
0.0 0.0 0.0 
0.0 0.0 0.0 
-1.318178097822e-04 -2.805518743843e-05 0.0 
-2.805518743843e-05 8.722935110683e-04 0.0 
0.0 0.0 -1.310031782818e-04 
-9.021933528390e-05 3.132040384158e-05 0.0 
3.132040384158e-05 5.739755637610e-04 0.0 
0.0 0.0 -8.934454493796e-05 
0.0 0.0 0.0 
0.0 0.0 0.0 
0.0 0.0 0.0 
-1.052154278640e-04 3.047955035353e-05 0.0 
3.047955035353e-05 6.816420493296e-04 0.0 
0.0 0.0 -1.056191267961e-04 
-1.502367494217e-04 2.924022123396e-05 0.0 
2.924022123396e-05 9.937951500591e-04 0.0 
0.0 0.0 -1.501881972789e-04 
-1.718775265069e-04 2.928709797380e-05 0.0 
2.928709797380e-05 1.146088071217e-03 0.0 
0.0 0.0 -1.720420237578e-04 
-1.280234877616e-04 -2.851125988754e-05 0.0 
-2.851125988754e-05 8.523441205577e-04 0.0 
0.0 0.0 -1.279840527869e-04 
-1.326450779531e-04 2.837607785170e-05 0.0 
2.837607785170e-05 8.704271803974e-04 0.0 
0.0 0.0 -1.326233994657e-04 
-1.124800331858e-04 -2.250634799779e-05 0.0 
-2.250634799779e-05 7.434000254204e-04 0.0 
0.0 0.0 -1.124284764899e-04 
-1.124934330556e-04 -1.147359770401e-06 0.0 
-1.147359770401e-06 6.878881025193e-04 0.0 
0.0 0.0 -1.096893794977e-04 
-1.889722149430e-04 -3.377914207805e-06 0.0 
-3.377914207805e-06 1.272437990102e-03 0.0 
0.0 0.0 -1.929167378009e-04 
-1.214486582279e-04 -2.834437307674e-05 0.0 
-2.834437307674e-05 8.042147269737e-04 0.0 
0.0 0.0 -1.212428182282e-04 
-3.901684544272e-06 -1.266514493921e-06 0.0 
-1.266514493921e-06 3.364292570627e-05 0.0 
0.0 0.0 -6.803381613341e-06 
-4.019702923064e-05 -2.968878104168e-05 0.0 
-2.968878104168e-05 2.317309542851e-04 0.0 
0.0 0.0 -3.854459625752e-05 
-1.433007491539e-05 -2.523139495984e-06 0.0 
-2.523139495984e-06 4.782663812836e-05 0.0 
0.0 0.0 -1.435566994842e-05 
-6.398639061022e-05 -2.382092625923e-05 0.0 
-2.382092625923e-05 4.115367021604e-04 0.0 
0.0 0.0 -6.426199848985e-05 
-1.705216486236e-04 -3.075798588999e-05 0.0 
-3.075798588999e-05 1.144180239023e-03 0.0 
0.0 0.0 -1.701784606649e-04 
-1.720848907896e-04 -2.982707765609e-05 0.0 
-2.982707765609e-05 1.154451966353e-03 0.0 
0.0 0.0 -1.716974477008e-04 
-1.636081653310e-04 2.890679068895e-05 0.0 
2.890679068895e-05 1.083797119579e-03 0.0 
0.0 0.0 -1.631141653006e-04 
-7.191278251010e-05 -2.923981126011e-05 0.0 
-2.923981126011e-05 4.644308216806e-04 0.0 
0.0 0.0 -7.241705069886e-05 
-1.359669915306e-04 -2.927541453389e-05 0.0 
-2.927541453389e-05 9.079369783679e-04 0.0 
0.0 0.0 -1.359475215862e-04 
-1.703257054035e-04 2.861689226726e-05 0.0 
2.861689226726e-05 1.140054647222e-03 0.0 
0.0 0.0 -1.713159247262e-04 
-4.183047912370e-05 -2.572604659906e-05 0.0 
-2.572604659906e-05 2.560153946945e-04 0.0 
0.0 0.0 -4.231798256975e-05 
-8.943823586418e-05 -3.364415979658e-05 0.0 
-3.364415979658e-05 5.775390913927e-04 0.0 
0.0 0.0 -8.913173311910e-05 
-7.231586338472e-05 2.908218695887e-05 0.0 
2.908218695887e-05 4.640276074048e-04 0.0 
0.0 0.0 -7.470029742937e-05 
-2.002434364986e-04 2.390306987834e-06 0.0 
2.390306987834e-06 1.365017058433e-03 0.0 
0.0 0.0 -1.983595295415e-04 
-2.012462808875e-04 -2.397130779802e-06 0.0 
-2.397130779802e-06 1.326802955155e-03 0.0 
0.0 0.0 -2.012462808875e-04 
-1.001924190894e-04 -2.543634002640e-05 0.0 
-2.543634002640e-05 6.415530807948e-04 0.0 
0.0 0.0 -9.870432074603e-05 
-1.098744198639e-04 -2.927420239507e-05 0.0 
-2.927420239507e-05 7.316606535654e-04 0.0 
0.0 0.0 -1.107837014452e-04 
-1.248013625041e-04 2.918553395126e-05 0.0 
2.918553395126e-05 8.167887655362e-04 0.0 
0.0 0.0 -1.248518557812e-04 
-1.744561955947e-04 2.668158714920e-05 0.0 
2.668158714920e-05 1.182258303691e-03 0.0 
0.0 0.0 -1.765917450224e-04 
-4.348855545644e-05 2.994300755885e-05 0.0 
2.994300755885e-05 2.445057852649e-04 0.0 
0.0 0.0 -4.320551243875e-05 
-1.652296485327e-04 2.906332229875e-05 0.0 
2.906332229875e-05 1.101447253650e-03 0.0 
0.0 0.0 -1.657061016896e-04 
-2.403565913090e-05 4.949963233040e-06 0.0 
4.949963233040e-06 1.531777656687e-04 0.0 
0.0 0.0 -2.418834757213e-05 
-1.015799043054e-04 -2.942946605237e-05 0.0 
-2.942946605237e-05 6.633561862995e-04 0.0 
0.0 0.0 -1.008698596220e-04 
-1.119529650465e-04 -2.962126233882e-05 0.0 
-2.962126233882e-05 7.407931298335e-04 0.0 
0.0 0.0 -1.120576983545e-04 
-1.459957790494e-05 2.147032025287e-06 0.0 
2.147032025287e-06 4.870772312705e-05 0.0 
0.0 0.0 -1.461777652376e-05 
-9.161840063277e-05 2.942933483065e-05 0.0 
2.942933483065e-05 6.062252670522e-04 0.0 
0.0 0.0 -9.401387724495e-05 
-1.768726332775e-04 2.584150165173e-05 0.0 
2.584150165173e-05 1.176843255176e-03 0.0 
0.0 0.0 -1.765293208453e-04 
-8.070653634049e-06 -7.127200303669e-07 0.0 
-7.127200303669e-07 3.799287171116e-05 0.0 
0.0 0.0 -6.885492893058e-06 
-1.096879873477e-04 2.043579917607e-06 0.0 
2.043579917607e-06 6.860751141181e-04 0.0 
0.0 0.0 -1.098413067258e-04 
-1.057188370874e-04 1.685883039910e-07 0.0 
1.685883039910e-07 7.271365247556e-04 0.0 
0.0 0.0 -1.069570933414e-04 
-1.432107105009e-04 -2.918049026374e-05 0.0 
-2.918049026374e-05 9.585008998201e-04 0.0 
0.0 0.0 -1.432800021710e-04 
-7.316489204152e-05 -2.863859130745e-05 0.0 
-2.863859130745e-05 4.706303893412e-04 0.0 
0.0 0.0 -7.415269660255e-05 
-7.204753212898e-05 2.972500420552e-05 0.0 
2.972500420552e-05 4.499764828814e-04 0.0 
0.0 0.0 -7.226240082359e-05 
-5.120365076624e-05 -2.544377550683e-05 0.0 
-2.544377550683e-05 3.155956943602e-04 0.0 
0.0 0.0 -5.097082111979e-05 
-1.766764062378e-04 2.618275323120e-05 0.0 
2.618275323120e-05 1.179907026535e-03 0.0 
0.0 0.0 -1.771343179597e-04 
-1.932169887683e-04 -1.186514980036e-06 0.0 
-1.186514980036e-06 1.270206526665e-03 0.0 
0.0 0.0 -1.929291577857e-04 
-1.651550878866e-04 -2.941422592351e-05 0.0 
-2.941422592351e-05 1.109208798495e-03 0.0 
0.0 0.0 -1.651633390879e-04 
-6.755242304519e-05 -2.455549728632e-05 0.0 
-2.455549728632e-05 4.248768375292e-04 0.0 
0.0 0.0 -6.685523357515e-05 
-3.212136007057e-05 3.580530001302e-05 0.0 
3.580530001302e-05 1.447902451166e-04 0.0 
0.0 0.0 -2.858747568434e-05 
-1.054343223867e-04 -2.695876520577e-05 0.0 
-2.695876520577e-05 6.907711584095e-04 0.0 
0.0 0.0 -1.049869670044e-04 
-1.082088607967e-04 -8.344784113160e-08 0.0 
-8.344784113160e-08 6.889651327617e-04 0.0 
0.0 0.0 -1.101766670879e-04 
-1.083270449213e-04 -5.188674785914e-06 0.0 
-5.188674785914e-06 7.291063979252e-04 0.0 
0.0 0.0 -1.071720332863e-04 
0.0 0.0 0.0 
0.0 0.0 0.0 
0.0 0.0 0.0 
-1.419401195472e-05 1.408697338343e-06 0.0 
1.408697338343e-06 4.733218519253e-05 0.0 
0.0 0.0 -1.420207424477e-05 
-2.834770026484e-05 -7.681243720571e-06 0.0 
-7.681243720571e-06 1.096902963104e-04 0.0 
0.0 0.0 -2.693124394472e-05 
-5.719939767419e-05 2.990659681515e-05 0.0 
2.990659681515e-05 3.452165164042e-04 0.0 
0.0 0.0 -5.731412244432e-05 
-1.720930858718e-05 3.350218996686e-07 0.0 
3.350218996686e-07 9.401005302813e-05 0.0 
0.0 0.0 -1.553541414024e-05 
-1.076654832369e-04 2.813964265791e-05 0.0 
2.813964265791e-05 6.806882370998e-04 0.0 
0.0 0.0 -1.037722331524e-04 
0.0 0.0 0.0 
0.0 0.0 0.0 
0.0 0.0 0.0 
-6.700184681606e-05 3.038711416350e-05 0.0 
3.038711416350e-05 4.144588213805e-04 0.0 
0.0 0.0 -6.723558339016e-05 
-1.422690385554e-04 8.906612131176e-06 0.0 
8.906612131176e-06 9.279461319084e-04 0.0 
0.0 0.0 -1.437384108528e-04 
-1.067106135208e-04 1.512146510798e-06 0.0 
1.512146510798e-06 7.288241095318e-04 0.0 
0.0 0.0 -1.068051661132e-04 
-1.732229403376e-04 -3.027991344990e-05 0.0 
-3.027991344990e-05 1.178111385867e-03 0.0 
0.0 0.0 -1.754224665252e-04 
-1.445452663558e-04 2.930268727359e-05 0.0 
2.930268727359e-05 9.544571665351e-04 0.0 
0.0 0.0 -1.446217387457e-04 
-1.353694455665e-04 1.174583702380e-05 0.0 
1.174583702380e-05 8.660998565929e-04 0.0 
0.0 0.0 -1.348267065705e-04 
-7.873004197628e-05 3.045040631702e-05 0.0 
3.045040631702e-05 5.029221835495e-04 0.0 
0.0 0.0 -7.904067945980e-05 
-2.336863266121e-05 -2.139897506835e-06 0.0 
-2.139897506835e-06 1.525920777976e-04 0.0 
0.0 0.0 -2.404492882983e-05 
-2.011462452073e-04 -3.115145181966e-06 0.0 
-3.115145181966e-06 1.323800969612e-03 0.0 
0.0 0.0 -2.011462452073e-04 
-1.997611016349e-04 -1.600977658655e-07 0.0 
-1.600977658655e-07 1.366080671060e-03 0.0 
0.0 0.0 -1.980443072317e-04 
-1.272448923164e-04 3.465279404623e-05 0.0 
3.465279404623e-05 8.424875497443e-04 0.0 
0.0 0.0 -1.288258176484e-04 
-1.119386170519e-04 -1.126021442298e-06 0.0 
-1.126021442298e-06 6.885955176049e-04 0.0 
0.0 0.0 -1.098911005281e-04 
-7.877315288786e-05 -1.808968119029e-05 0.0 
-1.808968119029e-05 5.143209401366e-04 0.0 
0.0 0.0 -7.971767696681e-05 
-1.985236644042e-04 -3.425616005704e-06 0.0 
-3.425616005704e-06 1.362863135910e-03 0.0 
0.0 0.0 -1.983864604134e-04 
-6.236203446175e-05 -2.877830346934e-05 0.0 
-2.877830346934e-05 3.955051293210e-04 0.0 
0.0 0.0 -6.249901059374e-05 
-1.058650871008e-04 -6.246155104238e-07 0.0 
-6.246155104238e-07 7.256170483752e-04 0.0 
0.0 0.0 -1.068842133844e-04 
-1.069697525894e-04 1.084045783815e-06 0.0 
1.084045783815e-06 6.877400680898e-04 0.0 
0.0 0.0 -1.096916328397e-04 
-1.015389602943e-04 2.700360211827e-05 0.0 
2.700360211827e-05 6.538816838809e-04 0.0 
0.0 0.0 -1.013366985113e-04 
-2.012735984050e-04 -2.798087263703e-06 0.0 
-2.798087263703e-06 1.328613650514e-03 0.0 
0.0 0.0 -2.012735984050e-04 
-1.940648784859e-04 2.411070838906e-06 0.0 
2.411070838906e-06 1.364173949612e-03 0.0 
0.0 0.0 -1.983874027871e-04 
-1.690083312634e-05 1.049773310524e-06 0.0 
1.049773310524e-06 9.202054593460e-05 0.0 
0.0 0.0 -1.553532439781e-05 
0.0 0.0 0.0 
0.0 0.0 0.0 
0.0 0.0 0.0 
-3.585533076935e-05 2.904737459937e-05 0.0 
2.904737459937e-05 1.788685704198e-04 0.0 
0.0 0.0 -3.331695100386e-05 
-1.122713198486e-04 2.937932182379e-05 0.0 
2.937932182379e-05 7.306935959273e-04 0.0 
0.0 0.0 -1.124655765398e-04 
-1.835773402027e-04 3.521607307094e-05 0.0 
3.521607307094e-05 1.234731404255e-03 0.0 
0.0 0.0 -1.837003526785e-04 
-5.776823163620e-06 -1.013741336344e-05 0.0 
-1.013741336344e-05 3.224761562078e-05 0.0 
0.0 0.0 -6.760418344035e-06 
-1.642553307267e-04 -3.202846031696e-05 0.0 
-3.202846031696e-05 1.094624480443e-03 0.0 
0.0 0.0 -1.638777942950e-04 
0.0 0.0 0.0 
0.0 0.0 0.0 
0.0 0.0 0.0 
-1.424654463444e-04 2.913249922816e-05 0.0 
2.913249922816e-05 9.390706018894e-04 0.0 
0.0 0.0 -1.423962487430e-04 
-9.432165051581e-06 1.005162211791e-06 0.0 
1.005162211791e-06 4.138276126950e-05 0.0 
0.0 0.0 -6.886565099861e-06 
-9.362857787326e-06 -3.767431995236e-06 0.0 
-3.767431995236e-06 3.953910185584e-05 0.0 
0.0 0.0 -6.922935307491e-06 
-1.370365661157e-04 2.914478147057e-05 0.0 
2.914478147057e-05 9.005660180564e-04 0.0 
0.0 0.0 -1.368385334393e-04 
-1.786566956368e-04 2.931910129804e-05 0.0 
2.931910129804e-05 1.196344419870e-03 0.0 
0.0 0.0 -1.789445754221e-04 
-1.403014539755e-04 -1.415648790463e-05 0.0 
-1.415648790463e-05 9.602064443499e-04 0.0 
0.0 0.0 -1.404190723625e-04 
-1.093898583646e-04 -2.651797813815e-05 0.0 
-2.651797813815e-05 7.193684517441e-04 0.0 
0.0 0.0 -1.090260965338e-04 
-1.456607726240e-05 -2.038157053184e-06 0.0 
-2.038157053184e-06 4.859194839432e-05 0.0 
0.0 0.0 -1.458251619940e-05 
-1.403045830740e-04 -2.944113871056e-05 0.0 
-2.944113871056e-05 9.375602710699e-04 0.0 
0.0 0.0 -1.402353347023e-04 
-2.006696725991e-04 -3.796241326952e-06 0.0 
-3.796241326952e-06 1.322105168317e-03 0.0 
0.0 0.0 -2.006696725991e-04 
-1.989054431028e-04 -2.182972558240e-05 0.0 
-2.182972558240e-05 1.362302379513e-03 0.0 
0.0 0.0 -1.983532132695e-04 
-1.068515601043e-04 1.760793152409e-06 0.0 
1.760793152409e-06 7.282983415426e-04 0.0 
0.0 0.0 -1.068864667265e-04 
-1.479030554931e-04 2.849872559925e-05 0.0 
2.849872559925e-05 9.774939211832e-04 0.0 
0.0 0.0 -1.479563560404e-04 
-2.012411575798e-04 2.034835726215e-06 0.0 
2.034835726215e-06 1.326088054461e-03 0.0 
0.0 0.0 -2.012411575798e-04 
-1.572471139556e-04 -3.123527971848e-05 0.0 
-3.123527971848e-05 1.052974899250e-03 0.0 
0.0 0.0 -1.570065405944e-04 
-2.512952758235e-05 6.164143337161e-06 0.0 
6.164143337161e-06 1.447280408939e-04 0.0 
0.0 0.0 -2.384861487001e-05 
-1.601508775722e-05 -1.437488736464e-06 0.0 
-1.437488736464e-06 9.300170481307e-05 0.0 
0.0 0.0 -1.544587960073e-05 
-1.543264015197e-05 -6.472491513265e-06 0.0 
-6.472491513265e-06 5.180474928483e-05 0.0 
0.0 0.0 -1.558804677123e-05 
-8.807433739710e-05 2.930499283462e-05 0.0 
2.930499283462e-05 5.721318599330e-04 0.0 
0.0 0.0 -8.900037232384e-05 
-2.000509150237e-04 -1.803318756068e-05 0.0 
-1.803318756068e-05 1.362940764782e-03 0.0 
0.0 0.0 -1.984242861770e-04 
-1.873647884484e-04 -3.488074856058e-05 0.0 
-3.488074856058e-05 1.273069634555e-03 0.0 
0.0 0.0 -1.887494668184e-04 
0.0 0.0 0.0 
0.0 0.0 0.0 
0.0 0.0 0.0 
-1.048455043466e-04 -2.786233972015e-05 0.0 
-2.786233972015e-05 6.764000404035e-04 0.0 
0.0 0.0 -1.040814173273e-04 
-2.017197471554e-04 8.241581226717e-07 0.0 
8.241581226717e-07 1.329062272743e-03 0.0 
0.0 0.0 -2.017197471554e-04 
-2.005984413255e-04 5.516146765968e-06 0.0 
5.516146765968e-06 1.367793765917e-03 0.0 
0.0 0.0 -1.978177876756e-04 
-1.955632613542e-04 2.146035678254e-07 0.0 
2.146035678254e-07 1.364429749039e-03 0.0 
0.0 0.0 -1.981726781329e-04 
-1.551674337257e-04 3.213659539949e-05 0.0 
3.213659539949e-05 1.026132370703e-03 0.0 
0.0 0.0 -1.540722572613e-04 
-1.676819576491e-04 -3.244106652331e-05 0.0 
-3.244106652331e-05 1.132368160945e-03 0.0 
0.0 0.0 -1.688564288694e-04 
-2.007045390215e-04 -1.045242026293e-06 0.0 
-1.045242026293e-06 1.322895647985e-03 0.0 
0.0 0.0 -2.007045390215e-04 
-2.011132486540e-04 -4.189740075221e-06 0.0 
-4.189740075221e-06 1.326334124050e-03 0.0 
0.0 0.0 -2.011132486540e-04 
-1.626580735659e-04 2.634343120663e-05 0.0 
2.634343120663e-05 1.095653417165e-03 0.0 
0.0 0.0 -1.638777942950e-04 
-3.467643311259e-06 1.128712139723e-05 0.0 
1.128712139723e-05 2.762392691704e-05 0.0 
0.0 0.0 -6.812318873104e-06 
-1.069489536729e-04 -2.288587191676e-07 0.0 
-2.288587191676e-07 7.222038744284e-04 0.0 
0.0 0.0 -1.070930873830e-04 
-1.082084560241e-04 4.524390449744e-06 0.0 
4.524390449744e-06 7.317697196541e-04 0.0 
0.0 0.0 -1.070046338016e-04 
0.0 0.0 0.0 
0.0 0.0 0.0 
0.0 0.0 0.0 
-2.013470386860e-04 1.582993778474e-06 0.0 
1.582993778474e-06 1.331092746641e-03 0.0 
0.0 0.0 -2.013470386860e-04 
-2.004992679381e-04 3.810616673029e-06 0.0 
3.810616673029e-06 1.366146148260e-03 0.0 
0.0 0.0 -1.977533921434e-04 
-2.006939626645e-04 9.733569450281e-08 0.0 
9.733569450281e-08 1.322104658797e-03 0.0 
0.0 0.0 -2.006939626645e-04 
-1.033192631121e-05 1.099005081210e-06 0.0 
1.099005081210e-06 3.989146001766e-05 0.0 
0.0 0.0 -6.874462243606e-06 
-1.053268595906e-05 1.440397429326e-06 0.0 
1.440397429326e-06 4.104748301093e-05 0.0 
0.0 0.0 -6.887055179908e-06 
-2.011132486540e-04 -1.745116755589e-07 0.0 
-1.745116755589e-07 1.324356223126e-03 0.0 
0.0 0.0 -2.011132486540e-04 
-2.010594294788e-04 -3.067167593136e-06 0.0 
-3.067167593136e-06 1.323008264150e-03 0.0 
0.0 0.0 -2.010594294788e-04 
-1.525144534316e-04 -3.469908965430e-05 0.0 
-3.469908965430e-05 9.919929974676e-04 0.0 
0.0 0.0 -1.490508918356e-04 
-1.073514247561e-04 4.761945652643e-06 0.0 
4.761945652643e-06 7.219659484264e-04 0.0 
0.0 0.0 -1.068727795842e-04 
-1.577537368329e-04 -3.403094625324e-05 0.0 
-3.403094625324e-05 1.060418053842e-03 0.0 
0.0 0.0 -1.590213654257e-04 
-1.328454241957e-04 -3.370191828823e-05 0.0 
-3.370191828823e-05 8.485398635158e-04 0.0 
0.0 0.0 -1.293991128285e-04 
-1.046169236010e-04 1.973664755836e-06 0.0 
1.973664755836e-06 7.223528969599e-04 0.0 
0.0 0.0 -1.068286901835e-04 
-4.614602936406e-06 5.445308269796e-06 0.0 
5.445308269796e-06 3.738876181996e-05 0.0 
0.0 0.0 -6.743366273123e-06 
-7.288647016025e-06 -5.605815272385e-06 0.0 
-5.605815272385e-06 4.290456148284e-05 0.0 
0.0 0.0 -6.886751345948e-06 
-4.777740867475e-06 -1.713355770572e-06 0.0 
-1.713355770572e-06 3.704418379984e-05 0.0 
0.0 0.0 -6.883523363406e-06 
-7.097131879007e-06 -1.839146356973e-06 0.0 
-1.839146356973e-06 3.989175121334e-05 0.0 
0.0 0.0 -6.834868364323e-06 
-1.111644977681e-04 3.476120600100e-05 0.0 
3.476120600100e-05 7.142233904721e-04 0.0 
0.0 0.0 -1.090698765213e-04 
-9.850854995735e-05 3.047113839014e-05 0.0 
3.047113839014e-05 6.418056074726e-04 0.0 
0.0 0.0 -9.901154080588e-05 
0.0 0.0 0.0 
0.0 0.0 0.0 
0.0 0.0 0.0 
-1.379803939868e-04 3.311278655235e-05 0.0 
3.311278655235e-05 9.246797732210e-04 0.0 
0.0 0.0 -1.383256398532e-04 
0.0 0.0 0.0 
0.0 0.0 0.0 
0.0 0.0 0.0 
-2.012207460908e-04 8.138655548157e-07 0.0 
8.138655548157e-07 1.323125614848e-03 0.0 
0.0 0.0 -2.012207460908e-04 
-2.011453028336e-04 1.874611865644e-06 0.0 
1.874611865644e-06 1.321148462492e-03 0.0 
0.0 0.0 -2.011453028336e-04 
-2.008980620244e-04 -1.010417860952e-06 0.0 
-1.010417860952e-06 1.324898106472e-03 0.0 
0.0 0.0 -2.008980620244e-04 
-3.774320917617e-05 3.566462655254e-05 0.0 
3.566462655254e-05 2.216925288799e-04 0.0 
0.0 0.0 -3.898704224316e-05 
-6.749434365589e-05 3.096998135248e-05 0.0 
3.096998135248e-05 4.319785382730e-04 0.0 
0.0 0.0 -6.911201714261e-05 
-2.005699367862e-04 -7.190292655297e-07 0.0 
-7.190292655297e-07 1.323013138076e-03 0.0 
0.0 0.0 -2.005699367862e-04 
-1.680240814146e-04 2.828255466262e-05 0.0 
2.828255466262e-05 1.134108335992e-03 0.0 
0.0 0.0 -1.687435400630e-04 
-2.016835406704e-04 -3.156370070795e-06 0.0 
-3.156370070795e-06 1.329078538970e-03 0.0 
0.0 0.0 -2.016835406704e-04 
-1.793487015674e-04 3.012936828637e-05 0.0 
3.012936828637e-05 1.204201687729e-03 0.0 
0.0 0.0 -1.788807376869e-04 
-1.896811634642e-04 3.473757623144e-05 0.0 
3.473757623144e-05 1.274809396155e-03 0.0 
0.0 0.0 -1.889858754357e-04 
-9.329662399263e-05 -3.052995434082e-05 0.0 
-3.052995434082e-05 6.062639241622e-04 0.0 
0.0 0.0 -9.401191312989e-05 
-2.000004866553e-04 -4.935042552872e-06 0.0 
-4.935042552872e-06 1.365934607507e-03 0.0 
0.0 0.0 -1.977152396198e-04 
-2.004002946706e-04 1.743259095834e-05 0.0 
1.743259095834e-05 1.363643771933e-03 0.0 
0.0 0.0 -1.982534774566e-04 
-1.735523764126e-04 -3.096544822671e-05 0.0 
-3.096544822671e-05 1.160586461079e-03 0.0 
0.0 0.0 -1.736242777500e-04 
-1.844507237627e-04 -3.076693800438e-05 0.0 
-3.076693800438e-05 1.234271765678e-03 0.0 
0.0 0.0 -1.838666131227e-04 
-1.480705946354e-04 -2.799822277007e-05 0.0 
-2.799822277007e-05 9.966603041907e-04 0.0 
0.0 0.0 -1.488773473547e-04 
0.0 0.0 0.0 
0.0 0.0 0.0 
0.0 0.0 0.0 
-9.787607230901e-05 -3.033430602603e-05 0.0 
-3.033430602603e-05 6.248974769917e-04 0.0 
0.0 0.0 -9.525361646419e-05 
-1.594166567358e-05 -3.750042762657e-06 0.0 
-3.750042762657e-06 8.963110813763e-05 0.0 
0.0 0.0 -1.545597323287e-05 
-1.766298993527e-04 -2.600424007003e-05 0.0 
-2.600424007003e-05 1.189008728009e-03 0.0 
0.0 0.0 -1.766728545426e-04 
-1.011715525641e-04 2.892404910577e-05 0.0 
2.892404910577e-05 6.528362141215e-04 0.0 
0.0 0.0 -1.013053728898e-04 
-1.643672164407e-04 2.795643146507e-05 0.0 
2.795643146507e-05 1.094563530101e-03 0.0 
0.0 0.0 -1.648525347569e-04 
-5.293095072300e-05 -2.919541751065e-05 0.0 
-2.919541751065e-05 3.265136357570e-04 0.0 
0.0 0.0 -5.257162719418e-05 
-2.326140168062e-05 1.809898427410e-05 0.0 
1.809898427410e-05 1.126266936620e-04 0.0 
0.0 0.0 -2.603928234478e-05 
-1.740902369364e-04 -2.842066329623e-05 0.0 
-2.842066329623e-05 1.173125089393e-03 0.0 
0.0 0.0 -1.742502449863e-04 
-1.033465261807e-04 -2.962592743150e-05 0.0 
-2.962592743150e-05 6.925891601377e-04 0.0 
0.0 0.0 -1.051812066754e-04 
-8.643013593859e-05 3.008982733389e-05 0.0 
3.008982733389e-05 5.377346504154e-04 0.0 
0.0 0.0 -8.417044846400e-05 
-1.640235310558e-04 -2.864236577619e-05 0.0 
-2.864236577619e-05 1.105176284391e-03 0.0 
0.0 0.0 -1.644154061664e-04 
-1.767953130454e-04 2.924397373916e-05 0.0 
2.924397373916e-05 1.186936749162e-03 0.0 
0.0 0.0 -1.783361800308e-04 
-8.342488227328e-05 -3.047437538585e-05 0.0 
-3.047437538585e-05 5.389729855638e-04 0.0 
0.0 0.0 -8.404105178381e-05 
-1.553105581953e-04 -3.047408891050e-05 0.0 
-3.047408891050e-05 1.042435393668e-03 0.0 
0.0 0.0 -1.553470185564e-04 
-1.377037381347e-04 2.897215065226e-05 0.0 
2.897215065226e-05 9.063511737441e-04 0.0 
0.0 0.0 -1.377261412248e-04 
-1.487663362168e-04 3.034863814033e-05 0.0 
3.034863814033e-05 9.863621124124e-04 0.0 
0.0 0.0 -1.492918029589e-04 
-1.536565537427e-04 2.792959174996e-05 0.0 
2.792959174996e-05 1.019186869417e-03 0.0 
0.0 0.0 -1.536336870150e-04 
-8.703976113535e-05 2.837055784379e-05 0.0 
2.837055784379e-05 5.518675504069e-04 0.0 
0.0 0.0 -8.683226689744e-05 
-1.002022259484e-04 -2.590961570230e-05 0.0 
-2.590961570230e-05 6.551468687222e-04 0.0 
0.0 0.0 -9.977007195992e-05 
-1.093881919947e-04 -2.770239582758e-05 0.0 
-2.770239582758e-05 7.220131976624e-04 0.0 
0.0 0.0 -1.093958643288e-04 
-1.406127741505e-04 2.917136878775e-05 0.0 
2.917136878775e-05 9.268398262503e-04 0.0 
0.0 0.0 -1.406784318969e-04 
-1.687115161712e-04 -3.067342872161e-05 0.0 
-3.067342872161e-05 1.136830953558e-03 0.0 
0.0 0.0 -1.687651353947e-04 
-1.585913072065e-04 2.928358840365e-05 0.0 
2.928358840365e-05 1.052859338839e-03 0.0 
0.0 0.0 -1.580633810106e-04 
-5.479081598616e-05 2.994038105978e-05 0.0 
2.994038105978e-05 3.289222848753e-04 0.0 
0.0 0.0 -5.528240989263e-05 
-1.746871843674e-04 3.283276217726e-05 0.0 
3.283276217726e-05 1.185116148222e-03 0.0 
0.0 0.0 -1.775271150753e-04 
-1.679442359996e-04 3.131022344942e-05 0.0 
3.131022344942e-05 1.115031446851e-03 0.0 
0.0 0.0 -1.675626104125e-04 
-1.221593488371e-04 3.511867114280e-05 0.0 
3.511867114280e-05 8.006612417280e-04 0.0 
0.0 0.0 -1.216572242888e-04 
-1.462466688388e-04 2.908933395677e-05 0.0 
2.908933395677e-05 9.660970915257e-04 0.0 
0.0 0.0 -1.463062179487e-04 
-1.447835164611e-04 2.956128772271e-05 0.0 
2.956128772271e-05 9.567010152770e-04 0.0 
0.0 0.0 -1.449838819924e-04 
-1.792333390310e-04 -3.168391798873e-05 0.0 
-3.168391798873e-05 1.203028324022e-03 0.0 
0.0 0.0 -1.778043281469e-04 
-1.726861877255e-04 2.779707870147e-05 0.0 
2.779707870147e-05 1.157249200719e-03 0.0 
0.0 0.0 -1.726459165900e-04 
-1.329452909279e-04 -2.927403005553e-05 0.0 
-2.927403005553e-05 8.870966851266e-04 0.0 
0.0 0.0 -1.330039573441e-04 
-1.775653267684e-04 -2.916250387629e-05 0.0 
-2.916250387629e-05 1.203364525945e-03 0.0 
0.0 0.0 -1.786308073928e-04 
-1.654805505207e-04 2.898950024976e-05 0.0 
2.898950024976e-05 1.100881704438e-03 0.0 
0.0 0.0 -1.655124361118e-04 
-1.580020696379e-04 -2.712101494930e-05 0.0 
-2.712101494930e-05 1.052848737751e-03 0.0 
0.0 0.0 -1.580622427210e-04 
-1.810952274087e-04 -3.284061138223e-05 0.0 
-3.284061138223e-05 1.222270948259e-03 0.0 
0.0 0.0 -1.815025845867e-04 
-1.775177136140e-04 -3.096279402686e-05 0.0 
-3.096279402686e-05 1.194150968252e-03 0.0 
0.0 0.0 -1.772606145979e-04 
-1.518616300347e-04 -3.096354740043e-05 0.0 
-3.096354740043e-05 1.015068895178e-03 0.0 
0.0 0.0 -1.517726872707e-04 
-1.496823891535e-04 -2.920446452269e-05 0.0 
-2.920446452269e-05 1.003862088151e-03 0.0 
0.0 0.0 -1.497848398488e-04 
-5.427687096238e-05 2.854055310501e-05 0.0 
2.854055310501e-05 3.273443379495e-04 0.0 
0.0 0.0 -5.466547164957e-05 
-5.095033440368e-05 2.883575061878e-05 0.0 
2.883575061878e-05 3.031424762161e-04 0.0 
0.0 0.0 -5.122137633346e-05 
-3.072034194903e-05 -3.506956867742e-05 0.0 
-3.506956867742e-05 1.557986335542e-04 0.0 
0.0 0.0 -2.814555096794e-05 
-1.579898709992e-05 2.384950188940e-07 0.0 
2.384950188940e-07 9.239980657952e-05 0.0 
0.0 0.0 -1.548055260559e-05 
-1.719981887166e-04 -3.054801319503e-05 0.0 
-3.054801319503e-05 1.160032239923e-03 0.0 
0.0 0.0 -1.726497055680e-04 
-1.730057153277e-04 2.894349992059e-05 0.0 
2.894349992059e-05 1.155971227885e-03 0.0 
0.0 0.0 -1.735259579760e-04 
-1.534650184937e-05 9.500651036843e-07 0.0 
9.500651036843e-07 8.883806811954e-05 0.0 
0.0 0.0 -1.543927480913e-05 
-1.729354271187e-04 -2.918916139558e-05 0.0 
-2.918916139558e-05 1.170988397774e-03 0.0 
0.0 0.0 -1.740447999656e-04 
-1.236089081148e-04 3.200079916068e-05 0.0 
3.200079916068e-05 8.273931967603e-04 0.0 
0.0 0.0 -1.265519798902e-04 
-1.594739007149e-04 -3.000529878065e-05 0.0 
-3.000529878065e-05 1.075639781327e-03 0.0 
0.0 0.0 -1.601216174199e-04 
-1.636627678593e-04 2.889886741851e-05 0.0 
2.889886741851e-05 1.086851557310e-03 0.0 
0.0 0.0 -1.635645035532e-04 
-7.625528765098e-05 2.781792169367e-05 0.0 
2.781792169367e-05 4.777485640918e-04 0.0 
0.0 0.0 -7.635943377870e-05 
-1.632628531148e-04 -2.978415075944e-05 0.0 
-2.978415075944e-05 1.096266397172e-03 0.0 
0.0 0.0 -1.631933750172e-04 
-1.207910536096e-04 -4.061404171323e-05 0.0 
-4.061404171323e-05 8.019844783726e-04 0.0 
0.0 0.0 -1.215026445147e-04 
-1.504315644849e-04 -2.965320847345e-05 0.0 
-2.965320847345e-05 1.005966507733e-03 0.0 
0.0 0.0 -1.500583224091e-04 
-1.846754410923e-04 3.352091310646e-05 0.0 
3.352091310646e-05 1.245792346023e-03 0.0 
0.0 0.0 -1.864447358774e-04 
-5.279032525833e-05 2.208619701697e-05 0.0 
2.208619701697e-05 3.133772429488e-04 0.0 
0.0 0.0 -5.313656330857e-05 
-1.831953493923e-04 -2.511536867923e-05 0.0 
-2.511536867923e-05 1.231406037521e-03 0.0 
0.0 0.0 -1.822568313532e-04 
-1.571776203955e-04 -2.822373229928e-05 0.0 
-2.822373229928e-05 1.054015413805e-03 0.0 
0.0 0.0 -1.572433088830e-04 
-5.834406746481e-05 3.055754480025e-05 0.0 
3.055754480025e-05 3.570231696703e-04 0.0 
0.0 0.0 -5.895916886618e-05 
-6.008933693805e-05 -2.693292101219e-05 0.0 
-2.693292101219e-05 3.827519316289e-04 0.0 
0.0 0.0 -6.052350288525e-05 
-1.184340009129e-04 2.989577006112e-05 0.0 
2.989577006112e-05 7.732438321287e-04 0.0 
0.0 0.0 -1.186440953039e-04 
-1.421755537841e-04 3.042033410873e-05 0.0 
3.042033410873e-05 9.320324598368e-04 0.0 
0.0 0.0 -1.411471141782e-04 
-8.083756678408e-05 2.897464216654e-05 0.0 
2.897464216654e-05 5.134881601291e-04 0.0 
0.0 0.0 -8.144657762318e-05 
-1.627359267385e-04 -3.016848544890e-05 0.0 
-3.016848544890e-05 1.091242501789e-03 0.0 
0.0 0.0 -1.627679727590e-04 
-1.463730196707e-04 -3.358422439378e-05 0.0 
-3.358422439378e-05 9.789488013624e-04 0.0 
0.0 0.0 -1.472519143444e-04 
-1.152261228612e-04 2.820263711739e-05 0.0 
2.820263711739e-05 7.517075314357e-04 0.0 
0.0 0.0 -1.155139551463e-04 
-1.539721025279e-04 -2.767350944116e-05 0.0 
-2.767350944116e-05 1.026348259349e-03 0.0 
0.0 0.0 -1.532636563680e-04 
-1.586940631686e-04 -2.997071389939e-05 0.0 
-2.997071389939e-05 1.067020467702e-03 0.0 
0.0 0.0 -1.588045401937e-04 
-1.586913358411e-04 3.263624713145e-05 0.0 
3.263624713145e-05 1.044672031080e-03 0.0 
0.0 0.0 -1.576021588438e-04 
-4.550621427776e-05 -2.757364409112e-05 0.0 
-2.757364409112e-05 2.786110438531e-04 0.0 
0.0 0.0 -4.588123838153e-05 
-1.095812830794e-04 2.804439789498e-05 0.0 
2.804439789498e-05 7.132223363853e-04 0.0 
0.0 0.0 -1.099287363951e-04 
-1.704275424327e-04 3.124314915643e-05 0.0 
3.124314915643e-05 1.141631777300e-03 0.0 
0.0 0.0 -1.711692687607e-04 
-1.617652388930e-04 -2.976223953276e-05 0.0 
-2.976223953276e-05 1.085248624266e-03 0.0 
0.0 0.0 -1.617298285672e-04 
-9.932779323652e-05 3.247070041484e-05 0.0 
3.247070041484e-05 6.407303244551e-04 0.0 
0.0 0.0 -1.000025319772e-04 
-1.372362599773e-04 -2.929140934786e-05 0.0 
-2.929140934786e-05 9.170515288159e-04 0.0 
0.0 0.0 -1.372955424611e-04 
-1.781532306591e-04 -3.038825115168e-05 0.0 
-3.038825115168e-05 1.202531523701e-03 0.0 
0.0 0.0 -1.781379491294e-04 
-1.507990336472e-04 2.853112124702e-05 0.0 
2.853112124702e-05 1.007077831849e-03 0.0 
0.0 0.0 -1.520953659658e-04 
-2.863924773083e-05 -3.201515123380e-05 0.0 
-3.201515123380e-05 1.478580457183e-04 0.0 
0.0 0.0 -2.710093308172e-05 
-2.955220796048e-05 -3.089794713249e-05 0.0 
-3.089794713249e-05 1.503888673604e-04 0.0 
0.0 0.0 -2.753304043464e-05 
-5.273989345688e-05 -2.717936029267e-05 0.0 
-2.717936029267e-05 3.233117972350e-04 0.0 
0.0 0.0 -5.201063495363e-05 
-1.693284171481e-04 3.002349955065e-05 0.0 
3.002349955065e-05 1.126502264070e-03 0.0 
0.0 0.0 -1.691756543757e-04 
-1.472485094623e-04 2.900717882423e-05 0.0 
2.900717882423e-05 9.697797839987e-04 0.0 
0.0 0.0 -1.466250473148e-04 
-1.255735830660e-04 -3.222245594843e-05 0.0 
-3.222245594843e-05 8.565507458900e-04 0.0 
0.0 0.0 -1.276957716749e-04 
-1.309605655324e-04 2.844392373699e-05 0.0 
2.844392373699e-05 8.631762486065e-04 0.0 
0.0 0.0 -1.311842221922e-04 
-1.705994579248e-04 -2.912195010466e-05 0.0 
-2.912195010466e-05 1.150350461823e-03 0.0 
0.0 0.0 -1.708795005752e-04 
-1.197229653638e-04 2.838848019244e-05 0.0 
2.838848019244e-05 7.818358523863e-04 0.0 
0.0 0.0 -1.198307167265e-04 
-1.587419479579e-04 2.931310418594e-05 0.0 
2.931310418594e-05 1.056312831607e-03 0.0 
0.0 0.0 -1.592449238259e-04 
-5.334541196780e-05 -2.737759313696e-05 0.0 
-2.737759313696e-05 3.380073693947e-04 0.0 
0.0 0.0 -5.422683465997e-05 
-1.820085836177e-04 3.596926237720e-05 0.0 
3.596926237720e-05 1.220521251632e-03 0.0 
0.0 0.0 -1.817296696507e-04 
-1.149006963939e-04 -2.979806393901e-05 0.0 
-2.979806393901e-05 7.621150101384e-04 0.0 
0.0 0.0 -1.150969102169e-04 
-5.891651114318e-05 -2.911512363173e-05 0.0 
-2.911512363173e-05 3.703729731158e-04 0.0 
0.0 0.0 -5.833749487792e-05 
-1.097144826368e-04 -3.210843000057e-05 0.0 
-3.210843000057e-05 7.218042111898e-04 0.0 
0.0 0.0 -1.096669806773e-04 
-8.504854609334e-05 2.789969650457e-05 0.0 
2.789969650457e-05 5.434275787344e-04 0.0 
0.0 0.0 -8.575010502696e-05 
-6.662869610533e-05 -2.920394233023e-05 0.0 
-2.920394233023e-05 4.253303798385e-04 0.0 
0.0 0.0 -6.679150530213e-05 
-1.281203035701e-04 2.817302591064e-05 0.0 
2.817302591064e-05 8.398276961004e-04 0.0 
0.0 0.0 -1.284742647491e-04 
0.0 0.0 0.0 
0.0 0.0 0.0 
0.0 0.0 0.0 
0.0 0.0 0.0 
0.0 0.0 0.0 
0.0 0.0 0.0 
-1.445088964832e-04 -2.893688476098e-05 0.0 
-2.893688476098e-05 9.674073108634e-04 0.0 
0.0 0.0 -1.445400849015e-04 
-4.892423638284e-05 -2.632452238192e-05 0.0 
-2.632452238192e-05 3.096365629157e-04 0.0 
0.0 0.0 -5.004674077938e-05 
-1.457493822096e-04 -2.962474104525e-05 0.0 
-2.962474104525e-05 9.767716228798e-04 0.0 
0.0 0.0 -1.458658349781e-04 
-1.415183033580e-04 -2.921664079038e-05 0.0 
-2.921664079038e-05 9.471227879207e-04 0.0 
0.0 0.0 -1.415771022166e-04 
-9.224355795817e-05 2.937565561905e-05 0.0 
2.937565561905e-05 5.919004124542e-04 0.0 
0.0 0.0 -9.266636470267e-05 
-6.202111907479e-05 2.972814442546e-05 0.0 
2.972814442546e-05 3.814986374049e-04 0.0 
0.0 0.0 -6.243334508123e-05 
-1.705073254263e-04 -3.058386286971e-05 0.0 
-3.058386286971e-05 1.147565254188e-03 0.0 
0.0 0.0 -1.706579733040e-04 
-3.233825504350e-05 -1.324403429526e-05 0.0 
-1.324403429526e-05 1.436007537479e-04 0.0 
0.0 0.0 -3.071301381923e-05 
-9.032577727252e-05 2.603440625466e-05 0.0 
2.603440625466e-05 5.755517471348e-04 0.0 
0.0 0.0 -9.007223908940e-05 
-1.758201471036e-04 -2.496828995894e-05 0.0 
-2.496828995894e-05 1.183557369344e-03 0.0 
0.0 0.0 -1.763300484694e-04 
-4.234236352950e-05 2.833023666619e-05 0.0 
2.833023666619e-05 2.526301394403e-04 0.0 
0.0 0.0 -4.466356309917e-05 
-1.370406890181e-04 -2.882178052615e-05 0.0 
-2.882178052615e-05 9.084977336144e-04 0.0 
0.0 0.0 -1.363328868096e-04 
-1.251017907088e-04 -3.342170659080e-05 0.0 
-3.342170659080e-05 8.360831923250e-04 0.0 
0.0 0.0 -1.262442940543e-04 
-4.243995648314e-05 -2.885964126201e-05 0.0 
-2.885964126201e-05 2.574366796815e-04 0.0 
0.0 0.0 -4.263591946142e-05 
-1.739889600423e-04 -2.690839563986e-05 0.0 
-2.690839563986e-05 1.171323703451e-03 0.0 
0.0 0.0 -1.738083055154e-04 
-1.553384911707e-04 -2.978982874275e-05 0.0 
-2.978982874275e-05 1.040098894659e-03 0.0 
0.0 0.0 -1.552347842588e-04 
-5.039241409165e-05 2.679614467153e-05 0.0 
2.679614467153e-05 2.983848210045e-04 0.0 
0.0 0.0 -5.046983505462e-05 
-1.747728255798e-04 -2.774380167709e-05 0.0 
-2.774380167709e-05 1.177437247902e-03 0.0 
0.0 0.0 -1.749780669508e-04 
-1.757727651253e-04 2.551606084145e-05 0.0 
2.551606084145e-05 1.168074540028e-03 0.0 
0.0 0.0 -1.753502448874e-04 
-5.505726652839e-05 -3.093038002705e-05 0.0 
-3.093038002705e-05 3.465532391474e-04 0.0 
0.0 0.0 -5.552857102027e-05 
-7.317029843834e-05 -3.194987778490e-05 0.0 
-3.194987778490e-05 4.614269377597e-04 0.0 
0.0 0.0 -7.202002872087e-05 
-5.677279645057e-05 -2.927873741732e-05 0.0 
-2.927873741732e-05 3.560995133108e-04 0.0 
0.0 0.0 -5.686660089389e-05 
-1.535151853389e-04 -2.933036748660e-05 0.0 
-2.933036748660e-05 1.036192859014e-03 0.0 
0.0 0.0 -1.544885262514e-04 
-1.242530601195e-04 2.861329611066e-05 0.0 
2.861329611066e-05 8.120316343009e-04 0.0 
0.0 0.0 -1.241455235793e-04 
-1.762597939278e-04 2.757012001528e-05 0.0 
2.757012001528e-05 1.169740478878e-03 0.0 
0.0 0.0 -1.754294197466e-04 
-1.711850229745e-04 2.864038460658e-05 0.0 
2.864038460658e-05 1.139237277346e-03 0.0 
0.0 0.0 -1.710046063662e-04 
-1.497953027623e-04 -2.952090845357e-05 0.0 
-2.952090845357e-05 1.006551656477e-03 0.0 
0.0 0.0 -1.501751650533e-04 
-1.503962620125e-04 2.908649725408e-05 0.0 
2.908649725408e-05 9.959224082837e-04 0.0 
0.0 0.0 -1.506140208444e-04 
-4.755962799573e-05 2.961725835591e-05 0.0 
2.961725835591e-05 2.764290125414e-04 0.0 
0.0 0.0 -4.738039998630e-05 
-1.544053010064e-04 2.921080048959e-05 0.0 
2.921080048959e-05 1.025561320549e-03 0.0 
0.0 0.0 -1.549280912548e-04 
-1.557486119605e-04 2.953656624643e-05 0.0 
2.953656624643e-05 1.031918401575e-03 0.0 
0.0 0.0 -1.555717122721e-04 
-1.233043498576e-04 -2.852184502998e-05 0.0 
-2.852184502998e-05 8.222615261922e-04 0.0 
0.0 0.0 -1.237306916726e-04 
-1.467661945651e-04 -2.993950527874e-05 0.0 
-2.993950527874e-05 9.778837446955e-04 0.0 
0.0 0.0 -1.462911275235e-04 
-1.606564974618e-04 -3.021309399430e-05 0.0 
-3.021309399430e-05 1.078198516753e-03 0.0 
0.0 0.0 -1.607123627396e-04 
-1.117498861518e-04 2.850262572474e-05 0.0 
2.850262572474e-05 7.245894762642e-04 0.0 
0.0 0.0 -1.115305788895e-04 
-1.668451985095e-04 2.929977478704e-05 0.0 
2.929977478704e-05 1.108305524184e-03 0.0 
0.0 0.0 -1.665387401245e-04 
-1.057225299962e-04 3.155313044250e-05 0.0 
3.155313044250e-05 6.826770249726e-04 0.0 
0.0 0.0 -1.044775758143e-04 
-1.196746585436e-04 -2.994940432812e-05 0.0 
-2.994940432812e-05 7.923200024953e-04 0.0 
0.0 0.0 -1.194095964715e-04 
-8.002674295402e-05 3.358846946639e-05 0.0 
3.358846946639e-05 5.079680145232e-04 0.0 
0.0 0.0 -8.013437995356e-05 
-8.330364669841e-05 -2.724402051282e-05 0.0 
-2.724402051282e-05 5.442521817240e-04 0.0 
0.0 0.0 -8.372375584921e-05 
-1.515465133375e-04 2.950843049766e-05 0.0 
2.950843049766e-05 1.000906494757e-03 0.0 
0.0 0.0 -1.511009726023e-04 
-1.144286686682e-04 -2.867408820424e-05 0.0 
-2.867408820424e-05 7.585750249113e-04 0.0 
0.0 0.0 -1.145674989690e-04 
-6.084802831260e-05 -2.991902315111e-05 0.0 
-2.991902315111e-05 3.860715331104e-04 0.0 
0.0 0.0 -6.116241410045e-05 
-3.353257843682e-05 -2.498074177198e-05 0.0 
-2.498074177198e-05 1.896944408225e-04 0.0 
0.0 0.0 -3.278510925449e-05 
-1.508054349256e-04 -2.953924267332e-05 0.0 
-2.953924267332e-05 1.009022901988e-03 0.0 
0.0 0.0 -1.507672500721e-04 
-6.144560576959e-05 2.946678310881e-05 0.0 
2.946678310881e-05 3.752423857179e-04 0.0 
0.0 0.0 -6.160741095528e-05 
-1.795193782850e-04 3.015966066455e-05 0.0 
3.015966066455e-05 1.220916437867e-03 0.0 
0.0 0.0 -1.828075300492e-04 
-1.564210717973e-04 2.928181705796e-05 0.0 
2.928181705796e-05 1.038697099430e-03 0.0 
0.0 0.0 -1.565825172896e-04 
-1.601803915316e-04 2.879046078541e-05 0.0 
2.879046078541e-05 1.065098279090e-03 0.0 
0.0 0.0 -1.605560195386e-04 
-1.924510169718e-04 -3.681008615862e-06 0.0 
-3.681008615862e-06 1.266195614385e-03 0.0 
0.0 0.0 -1.927094427628e-04 
-9.917312679716e-05 -3.248065919378e-05 0.0 
-3.248065919378e-05 6.537270345769e-04 0.0 
0.0 0.0 -9.956065683388e-05 
-5.578848237072e-05 2.919143814272e-05 0.0 
2.919143814272e-05 3.356753976095e-04 0.0 
0.0 0.0 -5.597427817213e-05 
-3.764707681470e-05 3.152158318827e-05 0.0 
3.152158318827e-05 2.055269805242e-04 0.0 
0.0 0.0 -3.744316153082e-05 
-1.513908916278e-04 -2.965358922743e-05 0.0 
-2.965358922743e-05 1.015985434205e-03 0.0 
0.0 0.0 -1.514863114221e-04 
-1.425433722621e-04 3.012022841548e-05 0.0 
3.012022841548e-05 9.394937491690e-04 0.0 
0.0 0.0 -1.421023406183e-04 
-2.681800511095e-05 2.581926760662e-05 0.0 
2.581926760662e-05 1.385235032261e-04 0.0 
0.0 0.0 -2.788272662613e-05 
-7.959731755198e-05 -2.970357934053e-05 0.0 
-2.970357934053e-05 5.241419312225e-04 0.0 
0.0 0.0 -8.100711145360e-05 
-4.597324572621e-05 -2.624539862290e-05 0.0 
-2.624539862290e-05 3.001894932538e-04 0.0 
0.0 0.0 -4.869105516194e-05 
-1.408940546525e-04 -2.794056746742e-05 0.0 
-2.794056746742e-05 9.400214273018e-04 0.0 
0.0 0.0 -1.408175133641e-04 
-8.220239972126e-05 -3.150539897154e-05 0.0 
-3.150539897154e-05 5.540054204137e-04 0.0 
0.0 0.0 -8.531818138572e-05 
-1.420072539078e-04 2.886098902268e-05 0.0 
2.886098902268e-05 9.363360353424e-04 0.0 
0.0 0.0 -1.420190347897e-04 
-8.142682941929e-05 -3.127687653374e-05 0.0 
-3.127687653374e-05 5.123505803199e-04 0.0 
0.0 0.0 -8.006333120906e-05 
-1.676020446456e-04 -3.106665135098e-05 0.0 
-3.106665135098e-05 1.123875757488e-03 0.0 
0.0 0.0 -1.672214290798e-04 
-7.117572739314e-05 2.988293947474e-05 0.0 
2.988293947474e-05 4.447820599446e-04 0.0 
0.0 0.0 -7.152995986871e-05 
-1.528626195223e-04 -2.956851905674e-05 0.0 
-2.956851905674e-05 1.025224946446e-03 0.0 
0.0 0.0 -1.527886262531e-04 
-5.059375724921e-05 -2.868524116335e-05 0.0 
-2.868524116335e-05 3.156970290875e-04 0.0 
0.0 0.0 -5.064650353833e-05 
-1.471629417592e-04 -2.959313709753e-05 0.0 
-2.959313709753e-05 9.860061145689e-04 0.0 
0.0 0.0 -1.471833001180e-04 
-1.144539418112e-04 -2.473861065929e-05 0.0 
-2.473861065929e-05 7.560825404925e-04 0.0 
0.0 0.0 -1.140633649831e-04 
-1.560905633689e-04 2.900023350889e-05 0.0 
2.900023350889e-05 1.035339225371e-03 0.0 
0.0 0.0 -1.562332567718e-04 
-8.041016399686e-05 2.814724334195e-05 0.0 
2.814724334195e-05 5.070504478833e-04 0.0 
0.0 0.0 -8.025424390503e-05 
-4.885024697967e-05 3.157288993858e-05 0.0 
3.157288993858e-05 2.863708627365e-04 0.0 
0.0 0.0 -4.915965252508e-05 
-1.306396509784e-04 -2.896286188210e-05 0.0 
-2.896286188210e-05 8.760759259617e-04 0.0 
0.0 0.0 -1.318090263425e-04 
-1.421840376928e-04 -2.883026291404e-05 0.0 
-2.883026291404e-05 9.494244979280e-04 0.0 
0.0 0.0 -1.419644564515e-04 
-1.018318441446e-04 2.874180221663e-05 0.0 
2.874180221663e-05 6.553763140814e-04 0.0 
0.0 0.0 -1.016412246321e-04 
-1.420263861118e-04 -3.127951009604e-05 0.0 
-3.127951009604e-05 9.447561927313e-04 0.0 
0.0 0.0 -1.417981522837e-04 
-5.634120637729e-05 -2.901059335072e-05 0.0 
-2.901059335072e-05 3.528621573190e-04 0.0 
0.0 0.0 -5.638371198943e-05 
-1.449671090102e-04 2.903465807275e-05 0.0 
2.903465807275e-05 9.569114950414e-04 0.0 
0.0 0.0 -1.446420687869e-04 
-4.539864356175e-05 -2.892446416447e-05 0.0 
-2.892446416447e-05 2.698402511523e-04 0.0 
0.0 0.0 -4.421511183446e-05 
-1.729769140722e-04 -3.077324556460e-05 0.0 
-3.077324556460e-05 1.164178924141e-03 0.0 
0.0 0.0 -1.725604168134e-04 
-1.475790650913e-04 -2.860800824990e-05 0.0 
-2.860800824990e-05 9.878754875081e-04 0.0 
0.0 0.0 -1.475206686141e-04 
-1.559172333653e-04 -2.909982133967e-05 0.0 
-2.909982133967e-05 1.044176401684e-03 0.0 
0.0 0.0 -1.555576518016e-04 
-1.814415509393e-04 -3.096082582331e-05 0.0 
-3.096082582331e-05 1.219536896500e-03 0.0 
0.0 0.0 -1.806695418618e-04 
-1.243391768637e-04 -2.906810919430e-05 0.0 
-2.906810919430e-05 8.271957787415e-04 0.0 
0.0 0.0 -1.244215412621e-04 
-4.664731672080e-05 2.860386537301e-05 0.0 
2.860386537301e-05 2.677194554706e-04 0.0 
0.0 0.0 -4.622233884158e-05 
-1.385662832492e-04 -2.918174486768e-05 0.0 
-2.918174486768e-05 9.260656173097e-04 0.0 
0.0 0.0 -1.385923280275e-04 
-1.786563386237e-04 3.101548389749e-05 0.0 
3.101548389749e-05 1.192786428697e-03 0.0 
0.0 0.0 -1.784944650888e-04 
-7.162593897649e-05 -2.768839620490e-05 0.0 
-2.768839620490e-05 4.607586366936e-04 0.0 
0.0 0.0 -7.179147874927e-05 
-1.555062997913e-04 -2.993363634807e-05 0.0 
-2.993363634807e-05 1.045876444410e-03 0.0 
0.0 0.0 -1.558013491646e-04 
-1.563360137049e-04 -3.042238300922e-05 0.0 
-3.042238300922e-05 1.046916559821e-03 0.0 
0.0 0.0 -1.562447224125e-04 
-5.757013598642e-05 2.991181572022e-05 0.0 
2.991181572022e-05 3.517212459558e-04 0.0 
0.0 0.0 -5.821047451129e-05 
-1.428729262720e-04 -2.942561466243e-05 0.0 
-2.942561466243e-05 9.560791547854e-04 0.0 
0.0 0.0 -1.428864875989e-04 
-1.287965022508e-04 -2.896617927485e-05 0.0 
-2.896617927485e-05 8.622522049021e-04 0.0 
0.0 0.0 -1.299469088572e-04 
-6.374853467835e-05 -2.810218119480e-05 0.0 
-2.810218119480e-05 4.066202706617e-04 0.0 
0.0 0.0 -6.420979177598e-05 
-7.595105816060e-05 -2.936393149418e-05 0.0 
-2.936393149418e-05 4.942830544211e-04 0.0 
0.0 0.0 -7.670872189436e-05 
-1.201712666697e-04 -2.803941660002e-05 0.0 
-2.803941660002e-05 7.961944137223e-04 0.0 
0.0 0.0 -1.200650238334e-04 
-1.519360189963e-04 2.891732000513e-05 0.0 
2.891732000513e-05 1.005387589283e-03 0.0 
0.0 0.0 -1.519214610183e-04 
-9.356553445047e-05 -2.682931258762e-05 0.0 
-2.682931258762e-05 6.080636784229e-04 0.0 
0.0 0.0 -9.302852286394e-05 
-1.148225546297e-04 -2.766542218562e-05 0.0 
-2.766542218562e-05 7.592972424786e-04 0.0 
0.0 0.0 -1.147482613702e-04 
-1.503198881368e-04 2.949228603565e-05 0.0 
2.949228603565e-05 9.943051761167e-04 0.0 
0.0 0.0 -1.501005480629e-04 
-1.374005660342e-04 3.157606201505e-05 0.0 
3.157606201505e-05 9.005540063851e-04 0.0 
0.0 0.0 -1.366500051239e-04 
-1.347749466574e-04 2.885807283713e-05 0.0 
2.885807283713e-05 8.878066807984e-04 0.0 
0.0 0.0 -1.347600488312e-04 
-1.145362197550e-04 2.550352213040e-05 0.0 
2.550352213040e-05 7.456789542705e-04 0.0 
0.0 0.0 -1.144140342440e-04 
-1.695537970541e-04 -2.847502421030e-05 0.0 
-2.847502421030e-05 1.141434530816e-03 0.0 
0.0 0.0 -1.695946584253e-04 
-1.342454359541e-04 -2.916302751234e-05 0.0 
-2.916302751234e-05 8.959753783056e-04 0.0 
0.0 0.0 -1.342994322642e-04 
-1.322842234433e-04 -2.713149803653e-05 0.0 
-2.713149803653e-05 8.716283599231e-04 0.0 
0.0 0.0 -1.308078780678e-04 
-1.770483125758e-04 -3.816029544209e-05 0.0 
-3.816029544209e-05 1.206702644282e-03 0.0 
0.0 0.0 -1.790376217081e-04 
-1.611476114444e-04 -3.043480837471e-05 0.0 
-3.043480837471e-05 1.081441463167e-03 0.0 
0.0 0.0 -1.610150566254e-04 
-1.476770815163e-04 2.899987339716e-05 0.0 
2.899987339716e-05 9.753794939162e-04 0.0 
0.0 0.0 -1.476201541636e-04 
-1.611330782201e-04 2.905567155013e-05 0.0 
2.905567155013e-05 1.069983027336e-03 0.0 
0.0 0.0 -1.610516503497e-04 
-8.740593351110e-05 -2.912313751195e-05 0.0 
-2.912313751195e-05 5.726625862703e-04 0.0 
0.0 0.0 -8.793939796372e-05 
-8.171492670432e-05 -2.932902119484e-05 0.0 
-2.932902119484e-05 5.334328304052e-04 0.0 
0.0 0.0 -8.232547559154e-05 
-4.800447364230e-05 -3.012015532788e-05 0.0 
-3.012015532788e-05 2.869100395093e-04 0.0 
0.0 0.0 -4.696026287600e-05 
-1.441554214945e-04 -2.906909676709e-05 0.0 
-2.906909676709e-05 9.649388349351e-04 0.0 
0.0 0.0 -1.441889713514e-04 
-8.596373130116e-05 -2.989926546104e-05 0.0 
-2.989926546104e-05 5.634483412629e-04 0.0 
0.0 0.0 -8.662504503560e-05 
-1.451435112077e-04 -2.967645824646e-05 0.0 
-2.967645824646e-05 9.706064754812e-04 0.0 
0.0 0.0 -1.452980301833e-04 
-1.396166376490e-04 -3.014351176356e-05 0.0 
-3.014351176356e-05 9.327092269117e-04 0.0 
0.0 0.0 -1.398369520768e-04 
-1.154194635136e-04 -2.909513876125e-05 0.0 
-2.909513876125e-05 7.637657077962e-04 0.0 
0.0 0.0 -1.153554527486e-04 
-7.239252784308e-05 2.950013499781e-05 0.0 
2.950013499781e-05 4.534037638191e-04 0.0 
0.0 0.0 -7.290299529228e-05 
-7.749228313482e-05 2.843063642712e-05 0.0 
2.843063642712e-05 4.849158394470e-04 0.0 
0.0 0.0 -7.722881688633e-05 
-7.663260260600e-05 2.940565300322e-05 0.0 
2.940565300322e-05 4.835296870814e-04 0.0 
0.0 0.0 -7.715173463647e-05 
-8.222724475915e-05 2.943935483783e-05 0.0 
2.943935483783e-05 5.226854242882e-04 0.0 
0.0 0.0 -8.276944949314e-05 
-5.179916544049e-05 2.954513306229e-05 0.0 
2.954513306229e-05 3.061348363473e-04 0.0 
0.0 0.0 -5.170396853346e-05 
-1.651578227306e-04 -2.992587384468e-05 0.0 
-2.992587384468e-05 1.111733425696e-03 0.0 
0.0 0.0 -1.652773843454e-04 
-9.948855107052e-05 2.885367954846e-05 0.0 
2.885367954846e-05 6.405116978971e-04 0.0 
0.0 0.0 -9.964436741213e-05 
-1.662477458002e-04 -3.047676524263e-05 0.0 
-3.047676524263e-05 1.116582984939e-03 0.0 
0.0 0.0 -1.661983567841e-04 
-1.051663505476e-04 2.891924803497e-05 0.0 
2.891924803497e-05 6.798882607135e-04 0.0 
0.0 0.0 -1.051955911267e-04 
-1.389859752123e-04 2.935926346480e-05 0.0 
2.935926346480e-05 9.155140148814e-04 0.0 
0.0 0.0 -1.390270654409e-04 
-1.191970428493e-04 2.933621105808e-05 0.0 
2.933621105808e-05 7.778286910325e-04 0.0 
0.0 0.0 -1.192747742027e-04 
-1.135913502195e-04 -2.809027510556e-05 0.0 
-2.809027510556e-05 7.506742469309e-04 0.0 
0.0 0.0 -1.135115339107e-04 
-5.106044890974e-05 -2.876916180737e-05 0.0 
-2.876916180737e-05 3.172111510085e-04 0.0 
0.0 0.0 -5.125664266653e-05 
-1.752549930891e-04 2.732480278546e-05 0.0 
2.732480278546e-05 1.160084193771e-03 0.0 
0.0 0.0 -1.742537888328e-04 
-1.812425183446e-04 -3.207933204969e-05 0.0 
-3.207933204969e-05 1.217777268391e-03 0.0 
0.0 0.0 -1.798074479024e-04 
-1.447184212035e-04 2.760935291747e-05 0.0 
2.760935291747e-05 9.561038377489e-04 0.0 
0.0 0.0 -1.447555322295e-04 
-8.799170026550e-05 2.995591967052e-05 0.0 
2.995591967052e-05 5.618551981543e-04 0.0 
0.0 0.0 -8.838578500301e-05 
-1.291031073422e-04 2.928905617391e-05 0.0 
2.928905617391e-05 8.466471064723e-04 0.0 
0.0 0.0 -1.291430278065e-04 
-1.459743152275e-04 3.063361272201e-05 0.0 
3.063361272201e-05 9.624952180302e-04 0.0 
0.0 0.0 -1.456278041792e-04 
-9.171757827105e-05 -2.955677248983e-05 0.0 
-2.955677248983e-05 6.024985060915e-04 0.0 
0.0 0.0 -9.223187090242e-05 
-9.603230277326e-05 -2.698956011667e-05 0.0 
-2.698956011667e-05 6.292701278524e-04 0.0 
0.0 0.0 -9.591352384746e-05 
-7.135185944171e-05 -2.955414223554e-05 0.0 
-2.955414223554e-05 4.555824851191e-04 0.0 
0.0 0.0 -7.108646760088e-05 
-6.173474433371e-05 -2.821557394065e-05 0.0 
-2.821557394065e-05 3.922513376835e-04 0.0 
0.0 0.0 -6.198456146935e-05 
-9.316424430426e-05 -2.882780269440e-05 0.0 
-2.882780269440e-05 6.119471839096e-04 0.0 
0.0 0.0 -9.355109297069e-05 
-6.583505479960e-05 2.848905537375e-05 0.0 
2.848905537375e-05 4.054485477537e-04 0.0 
0.0 0.0 -6.590301617946e-05 
-5.935575914896e-05 -3.007558356553e-05 0.0 
-3.007558356553e-05 3.768942854085e-04 0.0 
0.0 0.0 -5.983332410254e-05 
-1.186940583282e-04 -2.896555378225e-05 0.0 
-2.896555378225e-05 7.883535485114e-04 0.0 
0.0 0.0 -1.188421469351e-04 
-1.433278607698e-04 2.930912982368e-05 0.0 
2.930912982368e-05 9.454702771552e-04 0.0 
0.0 0.0 -1.433226991522e-04 
-1.697903046334e-04 2.624054691426e-05 0.0 
2.624054691426e-05 1.127471310275e-03 0.0 
0.0 0.0 -1.692916167909e-04 
-1.151638097456e-05 7.698944133971e-06 0.0 
7.698944133971e-06 4.425408472007e-05 0.0 
0.0 0.0 -7.213325994108e-06 
-1.023191081859e-04 2.827729942445e-05 0.0 
2.827729942445e-05 6.591938883861e-04 0.0 
0.0 0.0 -1.022830222654e-04 
-1.009919753862e-04 2.844629819877e-05 0.0 
2.844629819877e-05 6.501505763727e-04 0.0 
0.0 0.0 -1.009864671718e-04 
-9.380039017869e-05 2.950262979894e-05 0.0 
2.950262979894e-05 6.011532312502e-04 0.0 
0.0 0.0 -9.402143779290e-05 
-1.401352914634e-04 2.989136649985e-05 0.0 
2.989136649985e-05 9.247108301771e-04 0.0 
0.0 0.0 -1.401624631175e-04 
-1.092974960508e-04 2.941276833440e-05 0.0 
2.941276833440e-05 7.090642486070e-04 0.0 
0.0 0.0 -1.094316366672e-04 
-7.543451708232e-05 3.049036373989e-05 0.0 
3.049036373989e-05 4.754198894243e-04 0.0 
0.0 0.0 -7.582576345695e-05 
-9.891173193058e-05 -2.816068551534e-05 0.0 
-2.816068551534e-05 6.514539666403e-04 0.0 
0.0 0.0 -9.917482013514e-05 
-1.630278650561e-04 2.958590404027e-05 0.0 
2.958590404027e-05 1.077076320853e-03 0.0 
0.0 0.0 -1.620679414655e-04 
-7.702359286568e-05 -2.963111287796e-05 0.0 
-2.963111287796e-05 4.862675717220e-04 0.0 
0.0 0.0 -7.538495559814e-05 
-3.103148260616e-05 2.671216949097e-05 0.0 
2.671216949097e-05 1.654737900210e-04 0.0 
0.0 0.0 -3.198827131509e-05 
-4.232169889993e-05 2.776421737267e-05 0.0 
2.776421737267e-05 2.393069009664e-04 0.0 
0.0 0.0 -4.176863060321e-05 
-6.634744212772e-05 2.949925572575e-05 0.0 
2.949925572575e-05 4.106962890164e-04 0.0 
0.0 0.0 -6.666360735527e-05 
-7.816150117384e-05 2.918629348564e-05 0.0 
2.918629348564e-05 4.928270898341e-04 0.0 
0.0 0.0 -7.858957244827e-05 
-1.065476951188e-04 2.906412835157e-05 0.0 
2.906412835157e-05 6.891124057052e-04 0.0 
0.0 0.0 -1.064874080537e-04 
-1.046128651473e-04 -2.789283442515e-05 0.0 
-2.789283442515e-05 6.906263249349e-04 0.0 
0.0 0.0 -1.047611508630e-04 
-4.666634849019e-05 -3.250127183419e-05 0.0 
-3.250127183419e-05 2.826590938430e-04 0.0 
0.0 0.0 -4.639139346366e-05 
-4.422650169735e-05 -3.160442122719e-05 0.0 
-3.160442122719e-05 2.477476152980e-04 0.0 
0.0 0.0 -4.147803243573e-05 
-1.354421094691e-04 -3.477058406277e-05 0.0 
-3.477058406277e-05 8.849155839961e-04 0.0 
0.0 0.0 -1.332761831430e-04 
-6.529992034190e-05 -3.112094005781e-05 0.0 
-3.112094005781e-05 4.161966199991e-04 0.0 
0.0 0.0 -6.545963842888e-05 
-1.599173792757e-04 2.884984773938e-05 0.0 
2.884984773938e-05 1.062308732050e-03 0.0 
0.0 0.0 -1.601101668940e-04 
-1.640145792258e-04 2.789294437519e-05 0.0 
2.789294437519e-05 1.089847340667e-03 0.0 
0.0 0.0 -1.640071129216e-04 
-1.358364218526e-04 -2.864773194701e-05 0.0 
-2.864773194701e-05 9.015663085663e-04 0.0 
0.0 0.0 -1.352075507658e-04 
-1.691090522456e-04 2.845331053896e-05 0.0 
2.845331053896e-05 1.125515006597e-03 0.0 
0.0 0.0 -1.689126476464e-04 
-1.733194685301e-04 2.616049938131e-05 0.0 
2.616049938131e-05 1.162751062090e-03 0.0 
0.0 0.0 -1.746466296582e-04 
-1.113103175969e-04 -2.904492495481e-05 0.0 
-2.904492495481e-05 7.344679781971e-04 0.0 
0.0 0.0 -1.111327575513e-04 
-1.543419338426e-04 2.788856242459e-05 0.0 
2.788856242459e-05 1.022661884889e-03 0.0 
0.0 0.0 -1.543563508806e-04 
-5.167148472389e-05 -2.833543670219e-05 0.0 
-2.833543670219e-05 3.235982211277e-04 0.0 
0.0 0.0 -5.212100276158e-05 
-1.031213424207e-04 -2.889239140152e-05 0.0 
-2.889239140152e-05 6.806580574394e-04 0.0 
0.0 0.0 -1.034186014727e-04 
-1.034709279330e-04 2.786266615920e-05 0.0 
2.786266615920e-05 6.660582760632e-04 0.0 
0.0 0.0 -1.031952205665e-04 
-6.028919658758e-05 2.668092513971e-05 0.0 
2.668092513971e-05 3.649654199911e-04 0.0 
0.0 0.0 -5.961607156176e-05 
-4.213494566204e-05 -2.931849266110e-05 0.0 
-2.931849266110e-05 2.567319807664e-04 0.0 
0.0 0.0 -4.220635737303e-05 
-8.654776667845e-05 2.918952194239e-05 0.0 
2.918952194239e-05 5.528325958387e-04 0.0 
0.0 0.0 -8.706093026186e-05 
-1.004769780148e-04 -2.772227019028e-05 0.0 
-2.772227019028e-05 6.610823099679e-04 0.0 
0.0 0.0 -1.005514351764e-04 
-1.060430099672e-04 -2.796832696173e-05 0.0 
-2.796832696173e-05 6.996637265558e-04 0.0 
0.0 0.0 -1.060597130133e-04 
-7.058429708504e-05 2.696376381882e-05 0.0 
2.696376381882e-05 4.358412197202e-04 0.0 
0.0 0.0 -7.020228199149e-05 
-1.149702114763e-04 2.916861666016e-05 0.0 
2.916861666016e-05 7.482016199016e-04 0.0 
0.0 0.0 -1.149926572041e-04 
-1.018961975089e-04 -2.764432959957e-05 0.0 
-2.764432959957e-05 6.700658488310e-04 0.0 
0.0 0.0 -1.018518768314e-04 
-1.078880338181e-04 2.829261719461e-05 0.0 
2.829261719461e-05 6.977513239732e-04 0.0 
0.0 0.0 -1.077528216683e-04 
-7.751274952550e-05 -2.834816828620e-05 0.0 
-2.834816828620e-05 5.042136075216e-04 0.0 
0.0 0.0 -7.808165313150e-05 
-1.487528116968e-04 -2.959551626362e-05 0.0 
-2.959551626362e-05 9.968448808877e-04 0.0 
0.0 0.0 -1.488167264463e-04 
-1.501088830239e-04 -3.002822277470e-05 0.0 
-3.002822277470e-05 1.002368649967e-03 0.0 
0.0 0.0 -1.497700977071e-04 
-1.036611104552e-04 2.803937657742e-05 0.0 
2.803937657742e-05 6.681495958179e-04 0.0 
0.0 0.0 -1.035656927818e-04 
-1.696613133079e-04 2.895531178363e-05 0.0 
2.895531178363e-05 1.131067865055e-03 0.0 
0.0 0.0 -1.700243568296e-04 
-5.727268235776e-05 -2.821956991103e-05 0.0 
-2.821956991103e-05 3.625919856272e-04 0.0 
0.0 0.0 -5.774536142498e-05 
-1.807378797874e-04 3.083863400090e-05 0.0 
3.083863400090e-05 1.216171179677e-03 0.0 
0.0 0.0 -1.812757540428e-04 
-1.107278423169e-04 2.926924818457e-05 0.0 
2.926924818457e-05 7.182977638167e-04 0.0 
0.0 0.0 -1.107203250571e-04 
-1.769840871489e-04 3.489293866335e-05 0.0 
3.489293866335e-05 1.208578847919e-03 0.0 
0.0 0.0 -1.805188677947e-04 
-1.376232392385e-04 -2.850354822354e-05 0.0 
-2.850354822354e-05 9.154990550666e-04 0.0 
0.0 0.0 -1.371610485043e-04 
-5.639757509564e-05 2.971463148157e-05 0.0 
2.971463148157e-05 3.421275802933e-04 0.0 
0.0 0.0 -5.682853890605e-05 
-1.399417025807e-04 -2.902435300106e-05 0.0 
-2.902435300106e-05 9.305736500539e-04 0.0 
0.0 0.0 -1.393929574840e-04 
-1.722474544452e-04 2.867109208845e-05 0.0 
2.867109208845e-05 1.148502992599e-03 0.0 
0.0 0.0 -1.722554387731e-04 
-1.162793321609e-04 2.903309505420e-05 0.0 
2.903309505420e-05 7.572372561352e-04 0.0 
0.0 0.0 -1.162159973290e-04 
-8.454182586218e-05 -2.784090404248e-05 0.0 
-2.784090404248e-05 5.479081559787e-04 0.0 
0.0 0.0 -8.432093988479e-05 
-1.438863246759e-04 -2.930384340139e-05 0.0 
-2.930384340139e-05 9.596245582464e-04 0.0 
0.0 0.0 -1.435863591065e-04 
-1.111530589725e-04 2.833421624542e-05 0.0 
2.833421624542e-05 7.207793346527e-04 0.0 
0.0 0.0 -1.110366786716e-04 
-4.573862906079e-05 3.039490600873e-05 0.0 
3.039490600873e-05 2.711520722753e-04 0.0 
0.0 0.0 -4.684619297515e-05 
-1.870955320648e-04 3.081437672742e-05 0.0 
3.081437672742e-05 1.264311478356e-03 0.0 
0.0 0.0 -1.888615860838e-04 
-4.248482680505e-05 3.050161066116e-05 0.0 
3.050161066116e-05 2.352616891617e-04 0.0 
0.0 0.0 -4.121632266810e-05 
-1.771088727211e-04 -2.938926809476e-05 0.0 
-2.938926809476e-05 1.212909459550e-03 0.0 
0.0 0.0 -1.791639973893e-04 
-1.771566623871e-04 2.828554015672e-05 0.0 
2.828554015672e-05 1.177203819354e-03 0.0 
0.0 0.0 -1.763972732427e-04 
-1.529661344135e-04 -2.952014478129e-05 0.0 
-2.952014478129e-05 1.026629378024e-03 0.0 
0.0 0.0 -1.530775205951e-04 
-1.359594450574e-04 3.325053532527e-05 0.0 
3.325053532527e-05 8.922454278314e-04 0.0 
0.0 0.0 -1.356269418710e-04 
-1.644239763161e-04 -3.062030831265e-05 0.0 
-3.062030831265e-05 1.103176739090e-03 0.0 
0.0 0.0 -1.641343017522e-04 
-1.073732254289e-04 -2.774733318227e-05 0.0 
-2.774733318227e-05 7.082936325730e-04 0.0 
0.0 0.0 -1.073249441206e-04 
-1.251403265974e-04 -2.940532100017e-05 0.0 
-2.940532100017e-05 8.313761795825e-04 0.0 
0.0 0.0 -1.250629185325e-04 
-1.768873143391e-04 2.872670345058e-05 0.0 
2.872670345058e-05 1.193015524360e-03 0.0 
0.0 0.0 -1.787673453274e-04 
-1.533533607312e-04 2.921855117467e-05 0.0 
2.921855117467e-05 1.014614364332e-03 0.0 
0.0 0.0 -1.532196148344e-04 
-1.544705070620e-04 -2.993018470978e-05 0.0 
-2.993018470978e-05 1.033859279725e-03 0.0 
0.0 0.0 -1.542337544108e-04 
-1.470105554746e-04 3.050415116692e-05 0.0 
3.050415116692e-05 9.703822682050e-04 0.0 
0.0 0.0 -1.467116565689e-04 
-5.190467070807e-05 2.923657524478e-05 0.0 
2.923657524478e-05 3.125147726987e-04 0.0 
0.0 0.0 -5.258904166863e-05 
-1.585497388479e-04 -3.036107211364e-05 0.0 
-3.036107211364e-05 1.064785683487e-03 0.0 
0.0 0.0 -1.586792192556e-04 
-1.867823602022e-04 -4.423334107094e-07 0.0 
-4.423334107094e-07 1.306209639085e-03 0.0 
0.0 0.0 -1.902127661242e-04 
-1.799952498831e-04 3.276671323295e-05 0.0 
3.276671323295e-05 1.203252067028e-03 0.0 
0.0 0.0 -1.803293472919e-04 
-1.036283366723e-04 2.928971230122e-05 0.0 
2.928971230122e-05 6.701110471026e-04 0.0 
0.0 0.0 -1.038552253682e-04 
-1.348425674588e-04 -3.045731572340e-05 0.0 
-3.045731572340e-05 8.997616749557e-04 0.0 
0.0 0.0 -1.353016656203e-04 
-1.306027592527e-04 3.244558953540e-05 0.0 
3.244558953540e-05 8.557133569559e-04 0.0 
0.0 0.0 -1.301630146057e-04 
-1.102559799513e-04 -2.882778976320e-05 0.0 
-2.882778976320e-05 7.287644293276e-04 0.0 
0.0 0.0 -1.102912351658e-04 
-1.488807296024e-04 2.952972860655e-05 0.0 
2.952972860655e-05 9.845338823176e-04 0.0 
0.0 0.0 -1.489188890839e-04 
-1.543542798127e-04 2.941367575548e-05 0.0 
2.941367575548e-05 1.023344437634e-03 0.0 
0.0 0.0 -1.545169747944e-04 
-3.601998227787e-05 -3.147937655175e-05 0.0 
-3.147937655175e-05 2.167298522228e-04 0.0 
0.0 0.0 -3.699600978291e-05 
-6.801309851159e-05 2.873975774867e-05 0.0 
2.873975774867e-05 4.179957074076e-04 0.0 
0.0 0.0 -6.762408315678e-05 
-1.091497725492e-04 2.831094670187e-05 0.0 
2.831094670187e-05 7.067995318092e-04 0.0 
0.0 0.0 -1.090469065526e-04 
-1.032766425254e-04 -2.822190353465e-05 0.0 
-2.822190353465e-05 6.789187616226e-04 0.0 
0.0 0.0 -1.031335432607e-04 
-1.099107092343e-04 2.839546535684e-05 0.0 
2.839546535684e-05 7.120464211608e-04 0.0 
0.0 0.0 -1.098117726994e-04 
-1.811121707674e-04 -2.882441196002e-05 0.0 
-2.882441196002e-05 1.237667273714e-03 0.0 
0.0 0.0 -1.838140267123e-04 
-1.748866853698e-04 2.592400427167e-05 0.0 
2.592400427167e-05 1.162787881872e-03 0.0 
0.0 0.0 -1.744029230557e-04 
-1.761187774956e-04 -2.949711616705e-05 0.0 
-2.949711616705e-05 1.184397801600e-03 0.0 
0.0 0.0 -1.760448152485e-04 
-9.882657544989e-05 -2.718055687570e-05 0.0 
-2.718055687570e-05 6.452046498512e-04 0.0 
0.0 0.0 -9.834296651366e-05 
-1.624121206718e-04 2.836552699441e-05 0.0 
2.836552699441e-05 1.080211199209e-03 0.0 
0.0 0.0 -1.624070342850e-04 
-1.485275509050e-04 -2.918103576740e-05 0.0 
-2.918103576740e-05 9.950382173190e-04 0.0 
0.0 0.0 -1.484873542982e-04 
-1.805851059427e-04 3.002465538148e-05 0.0 
3.002465538148e-05 1.203046068310e-03 0.0 
0.0 0.0 -1.797622605636e-04 
-1.528376056470e-04 -3.044040189818e-05 0.0 
-3.044040189818e-05 1.026184810031e-03 0.0 
0.0 0.0 -1.532447004422e-04 
-1.087929439093e-04 -2.876357224537e-05 0.0 
-2.876357224537e-05 7.196828290104e-04 0.0 
0.0 0.0 -1.089952584493e-04 
-1.049428023921e-04 2.811224010391e-05 0.0 
2.811224010391e-05 6.773445023375e-04 0.0 
0.0 0.0 -1.048418778190e-04 
-1.594051931958e-04 2.879840167248e-05 0.0 
2.879840167248e-05 1.056615529052e-03 0.0 
0.0 0.0 -1.590166690394e-04 
-1.738854057278e-04 -3.150615969996e-05 0.0 
-3.150615969996e-05 1.172347359832e-03 0.0 
0.0 0.0 -1.740425842566e-04 
-1.602067260143e-04 2.962540646325e-05 0.0 
2.962540646325e-05 1.063407039079e-03 0.0 
0.0 0.0 -1.600263377024e-04 
-1.549984104106e-04 2.928819239640e-05 0.0 
2.928819239640e-05 1.025787824362e-03 0.0 
0.0 0.0 -1.545642443906e-04 
-1.691936656852e-04 3.051239000977e-05 0.0 
3.051239000977e-05 1.122993866756e-03 0.0 
0.0 0.0 -1.687134228720e-04 
-1.733516422302e-04 -2.975799224699e-05 0.0 
-2.975799224699e-05 1.180345126224e-03 0.0 
0.0 0.0 -1.751295320469e-04 
-1.641761333923e-04 2.964778985093e-05 0.0 
2.964778985093e-05 1.092162958901e-03 0.0 
0.0 0.0 -1.644209996092e-04 
-1.334029697755e-04 2.921704941968e-05 0.0 
2.921704941968e-05 8.764535109902e-04 0.0 
0.0 0.0 -1.334339325936e-04 
-9.629059373289e-05 2.489782199496e-05 0.0 
2.489782199496e-05 6.169410298163e-04 0.0 
0.0 0.0 -9.629846621400e-05 
-1.586938225999e-04 -2.873074405230e-05 0.0 
-2.873074405230e-05 1.064075480535e-03 0.0 
0.0 0.0 -1.585741496670e-04 
-1.515595690388e-04 2.887166217167e-05 0.0 
2.887166217167e-05 1.004996075128e-03 0.0 
0.0 0.0 -1.516193629955e-04 
-6.015828007311e-05 2.762481471313e-05 0.0 
2.762481471313e-05 3.663761052862e-04 0.0 
0.0 0.0 -6.027332919800e-05 
-1.086909470084e-04 -2.820919446967e-05 0.0 
-2.820919446967e-05 7.173514364266e-04 0.0 
0.0 0.0 -1.086183444390e-04 
-1.229754690729e-04 2.795896853918e-05 0.0 
2.795896853918e-05 8.030480005080e-04 0.0 
0.0 0.0 -1.229099206091e-04 
-1.348799327205e-04 -2.950552833220e-05 0.0 
-2.950552833220e-05 8.992538641476e-04 0.0 
0.0 0.0 -1.347984704188e-04 
-6.075364579538e-05 2.991920213964e-05 0.0 
2.991920213964e-05 3.704456528343e-04 0.0 
0.0 0.0 -6.085885447137e-05 
-1.045153483669e-04 -2.832422319633e-05 0.0 
-2.832422319633e-05 6.878595611022e-04 0.0 
0.0 0.0 -1.044304007945e-04 
-1.446479183094e-04 -2.971056222020e-05 0.0 
-2.971056222020e-05 9.673313026673e-04 0.0 
0.0 0.0 -1.445542801823e-04 
-1.100060346855e-04 2.737837681636e-05 0.0 
2.737837681636e-05 7.101421002689e-04 0.0 
0.0 0.0 -1.094113629060e-04 
-1.135560558010e-04 2.921951781404e-05 0.0 
2.921951781404e-05 7.388528165105e-04 0.0 
0.0 0.0 -1.136984934835e-04 
-1.423148992764e-04 -3.064755775960e-05 0.0 
-3.064755775960e-05 9.560334399626e-04 0.0 
0.0 0.0 -1.433495728088e-04 
-1.141564569451e-04 2.617777317916e-05 0.0 
2.617777317916e-05 7.567005103659e-04 0.0 
0.0 0.0 -1.145704449725e-04 
-2.757145428849e-05 3.124043686616e-05 0.0 
3.124043686616e-05 1.158691705071e-04 0.0 
0.0 0.0 -2.367971326705e-05 
-1.286436208275e-04 -2.914932669868e-05 0.0 
-2.914932669868e-05 8.571420336644e-04 0.0 
0.0 0.0 -1.287122655492e-04 
-1.576792209224e-04 2.858094066912e-05 0.0 
2.858094066912e-05 1.045870248437e-03 0.0 
0.0 0.0 -1.577753644542e-04 
-1.791334658592e-04 3.034271459186e-05 0.0 
3.034271459186e-05 1.201260178593e-03 0.0 
0.0 0.0 -1.795306929420e-04 
-1.201199461226e-04 2.829067472047e-05 0.0 
2.829067472047e-05 7.831094393938e-04 0.0 
0.0 0.0 -1.199963822083e-04 
-1.234760846803e-04 2.932006013550e-05 0.0 
2.932006013550e-05 8.076650151061e-04 0.0 
0.0 0.0 -1.235581517372e-04 
-1.448894787138e-04 -2.961840001921e-05 0.0 
-2.961840001921e-05 9.648117356658e-04 0.0 
0.0 0.0 -1.443143808439e-04 
-3.842228905377e-05 3.298025909580e-05 0.0 
3.298025909580e-05 1.877070748678e-04 0.0 
0.0 0.0 -3.370741825810e-05 
-1.534698621194e-04 2.830991160432e-05 0.0 
2.830991160432e-05 1.016299861510e-03 0.0 
0.0 0.0 -1.535042456599e-04 
-1.293327155133e-04 -2.926708160322e-05 0.0 
-2.926708160322e-05 8.610400331546e-04 0.0 
0.0 0.0 -1.292921254718e-04 
-1.147182049359e-04 -2.793616799804e-05 0.0 
-2.793616799804e-05 7.557812794768e-04 0.0 
0.0 0.0 -1.142359468334e-04 
-1.540623557645e-04 -2.883021402370e-05 0.0 
-2.883021402370e-05 1.033805831342e-03 0.0 
0.0 0.0 -1.540837914240e-04 
-5.903277897526e-05 -2.572226208233e-05 0.0 
-2.572226208233e-05 3.742033353159e-04 0.0 
0.0 0.0 -5.919629073606e-05 
-1.595117392718e-04 -2.911342610863e-05 0.0 
-2.911342610863e-05 1.072689065088e-03 0.0 
0.0 0.0 -1.596834805621e-04 
-1.756154530572e-04 2.998485745368e-05 0.0 
2.998485745368e-05 1.171075078384e-03 0.0 
0.0 0.0 -1.756318130281e-04 
-1.493681148336e-04 2.791229911131e-05 0.0 
2.791229911131e-05 9.866947003208e-04 0.0 
0.0 0.0 -1.492337925182e-04 
-1.600204318750e-04 -2.992073590521e-05 0.0 
-2.992073590521e-05 1.071726323190e-03 0.0 
0.0 0.0 -1.596862481900e-04 
-1.621340043399e-04 -3.014172433171e-05 0.0 
-3.014172433171e-05 1.091751763439e-03 0.0 
0.0 0.0 -1.624029330596e-04 
-1.746509001542e-04 -3.044303714749e-05 0.0 
-3.044303714749e-05 1.180873641495e-03 0.0 
0.0 0.0 -1.752053866267e-04 
-4.948712705896e-05 3.475475083029e-05 0.0 
3.475475083029e-05 2.597308075809e-04 0.0 
0.0 0.0 -4.376112143753e-05 
-1.485603472495e-04 -2.938683707073e-05 0.0 
-2.938683707073e-05 9.955677447018e-04 0.0 
0.0 0.0 -1.487877812405e-04 
-1.753095903577e-04 -2.864829451917e-05 0.0 
-2.864829451917e-05 1.185024325076e-03 0.0 
0.0 0.0 -1.760859927092e-04 
-1.649582730615e-04 2.923348981816e-05 0.0 
2.923348981816e-05 1.094893116976e-03 0.0 
0.0 0.0 -1.644733909230e-04 
-1.395633018813e-04 2.809652890280e-05 0.0 
2.809652890280e-05 9.186543678537e-04 0.0 
0.0 0.0 -1.394655130409e-04 
-1.099611654985e-04 -2.884597329549e-05 0.0 
-2.884597329549e-05 7.257598080870e-04 0.0 
0.0 0.0 -1.098787062330e-04 
-1.209104407542e-04 2.806295656769e-05 0.0 
2.806295656769e-05 7.902223779801e-04 0.0 
0.0 0.0 -1.210417811416e-04 
-3.627372368124e-05 3.163530406853e-05 0.0 
3.163530406853e-05 2.039563500799e-04 0.0 
0.0 0.0 -3.723255725578e-05 
-1.701409886376e-04 2.983058263759e-05 0.0 
2.983058263759e-05 1.132501183017e-03 0.0 
0.0 0.0 -1.699366983435e-04 
-6.411787123099e-05 2.946502422422e-05 0.0 
2.946502422422e-05 3.968096580559e-04 0.0 
0.0 0.0 -6.464531002275e-05 
-5.822127891541e-05 2.749733519323e-05 0.0 
2.749733519323e-05 3.240066522493e-04 0.0 
0.0 0.0 -5.373429374777e-05 
-1.578004283830e-04 -2.825196317906e-05 0.0 
-2.825196317906e-05 1.061236006077e-03 0.0 
0.0 0.0 -1.581724742171e-04 
-1.810622318850e-04 2.872864159815e-05 0.0 
2.872864159815e-05 1.210843086462e-03 0.0 
0.0 0.0 -1.810174791607e-04 
-5.321706588155e-05 -2.711802848501e-05 0.0 
-2.711802848501e-05 3.340376413156e-04 0.0 
0.0 0.0 -5.359773372147e-05 
-1.254962992742e-04 -2.828232383433e-05 0.0 
-2.828232383433e-05 8.331892923083e-04 0.0 
0.0 0.0 -1.253787237607e-04 
-1.535703452329e-04 2.911412195335e-05 0.0 
2.911412195335e-05 1.018186094186e-03 0.0 
0.0 0.0 -1.535721660833e-04 
-1.174362539490e-04 -2.931439951264e-05 0.0 
-2.931439951264e-05 7.791228558505e-04 0.0 
0.0 0.0 -1.176010908151e-04 
-6.016009984886e-05 -2.873248464068e-05 0.0 
-2.873248464068e-05 3.813492115723e-04 0.0 
0.0 0.0 -6.041048265268e-05 
-7.982616898902e-05 2.825432291390e-05 0.0 
2.825432291390e-05 5.000258330386e-04 0.0 
0.0 0.0 -7.939046230173e-05 
-3.959656613655e-05 2.469153921964e-05 0.0 
2.469153921964e-05 2.420385823143e-04 0.0 
0.0 0.0 -4.293244787628e-05 
-5.330489538924e-05 2.915892379323e-05 0.0 
2.915892379323e-05 3.232040539711e-04 0.0 
0.0 0.0 -5.412237138681e-05 
-4.874214390061e-05 2.903207581372e-05 0.0 
2.903207581372e-05 2.849835911649e-04 0.0 
0.0 0.0 -4.858390135199e-05 
-1.298006905679e-04 2.813403754230e-05 0.0 
2.813403754230e-05 8.507929242894e-04 0.0 
0.0 0.0 -1.297186540265e-04 
-1.946741073417e-04 7.177668550589e-07 0.0 
7.177668550589e-07 1.366433303394e-03 0.0 
0.0 0.0 -1.986219281740e-04 
-6.700715880952e-05 2.589861000240e-05 0.0 
2.589861000240e-05 3.925714316040e-04 0.0 
0.0 0.0 -6.366506350946e-05 
-1.734025229933e-04 2.872134779497e-05 0.0 
2.872134779497e-05 1.153015807625e-03 0.0 
0.0 0.0 -1.730133492871e-04 
-9.662877635408e-05 2.832769241253e-05 0.0 
2.832769241253e-05 6.190294534954e-04 0.0 
0.0 0.0 -9.645761187127e-05 
-1.474086229932e-04 -3.111113571506e-05 0.0 
-3.111113571506e-05 9.884847841183e-04 0.0 
0.0 0.0 -1.478461150791e-04 
-4.750635885556e-05 2.975238453019e-05 0.0 
2.975238453019e-05 2.739120908498e-04 0.0 
0.0 0.0 -4.694079591042e-05 
-1.816621119292e-04 -2.878308347844e-05 0.0 
-2.878308347844e-05 1.218135406772e-03 0.0 
0.0 0.0 -1.810139427525e-04 
-4.655502041116e-05 -2.610306417390e-05 0.0 
-2.610306417390e-05 2.951982444198e-04 0.0 
0.0 0.0 -4.804032238546e-05 
-7.357331614798e-05 2.958595086467e-05 0.0 
2.958595086467e-05 4.672675042292e-04 0.0 
0.0 0.0 -7.493958354298e-05 
-1.550973332285e-04 2.796756386232e-05 0.0 
2.796756386232e-05 1.025417246301e-03 0.0 
0.0 0.0 -1.547320639971e-04 
-1.115692087861e-04 -2.839126116568e-05 0.0 
-2.839126116568e-05 7.371116053840e-04 0.0 
0.0 0.0 -1.115425826451e-04 
-1.699290889586e-04 -2.900940190171e-05 0.0 
-2.900940190171e-05 1.149889600330e-03 0.0 
0.0 0.0 -1.708594300032e-04 
-8.624183478928e-05 -2.912886792339e-05 0.0 
-2.912886792339e-05 5.626870180004e-04 0.0 
0.0 0.0 -8.644348757353e-05 
-1.569167022033e-04 -2.881123911490e-05 0.0 
-2.881123911490e-05 1.051025089677e-03 0.0 
0.0 0.0 -1.566669492989e-04 
-1.769191692021e-04 2.934973965132e-05 0.0 
2.934973965132e-05 1.199034094636e-03 0.0 
0.0 0.0 -1.798338780755e-04 
-1.495364599630e-04 2.975197277300e-05 0.0 
2.975197277300e-05 9.877659320422e-04 0.0 
0.0 0.0 -1.491119197843e-04 
-1.807112013151e-04 -2.761933473531e-05 0.0 
-2.761933473531e-05 1.210002262212e-03 0.0 
0.0 0.0 -1.792176209978e-04 
-1.628975544781e-04 -3.036779777295e-05 0.0 
-3.036779777295e-05 1.095193631651e-03 0.0 
0.0 0.0 -1.630977145684e-04 
-1.675201900776e-04 -3.024382898117e-05 0.0 
-3.024382898117e-05 1.126388508701e-03 0.0 
0.0 0.0 -1.675015638186e-04 
-5.424555064715e-05 2.680812076581e-05 0.0 
2.680812076581e-05 3.226336525028e-04 0.0 
0.0 0.0 -5.399133669915e-05 
-1.676277495680e-04 2.740316368874e-05 0.0 
2.740316368874e-05 1.112871955034e-03 0.0 
0.0 0.0 -1.673862058733e-04 
-1.578559859789e-04 2.827037287320e-05 0.0 
2.827037287320e-05 1.049443790061e-03 0.0 
0.0 0.0 -1.580046825171e-04 
-1.171678476607e-04 2.852988375933e-05 0.0 
2.852988375933e-05 7.623350065851e-04 0.0 
0.0 0.0 -1.168873383469e-04 
-7.813173762117e-05 2.766421590413e-05 0.0 
2.766421590413e-05 4.622030552975e-04 0.0 
0.0 0.0 -7.363010077577e-05 
-1.810895077962e-04 -2.908189886640e-05 0.0 
-2.908189886640e-05 1.245299465341e-03 0.0 
0.0 0.0 -1.848439230673e-04 
-6.258589564450e-05 2.973424717467e-05 0.0 
2.973424717467e-05 3.796477966190e-04 0.0 
0.0 0.0 -6.214069219561e-05 
-6.877743183419e-05 -3.283467012249e-05 0.0 
-3.283467012249e-05 4.454002116560e-04 0.0 
0.0 0.0 -6.982795868082e-05 
-1.656560229546e-04 3.018340289880e-05 0.0 
3.018340289880e-05 1.102559420523e-03 0.0 
0.0 0.0 -1.657595890666e-04 
-4.452637910278e-05 -2.463086619694e-05 0.0 
-2.463086619694e-05 2.688625379708e-04 0.0 
0.0 0.0 -4.409698994278e-05 
-1.188635475057e-04 -2.772391840776e-05 0.0 
-2.772391840776e-05 7.879380998938e-04 0.0 
0.0 0.0 -1.188635276708e-04 
-1.592882983328e-04 2.718156988550e-05 0.0 
2.718156988550e-05 1.054709056437e-03 0.0 
0.0 0.0 -1.589765888202e-04 
-1.772222272296e-04 -2.714101551062e-05 0.0 
-2.714101551062e-05 1.191839625875e-03 0.0 
0.0 0.0 -1.771732720199e-04 
-1.824779395496e-04 -2.648051372033e-05 0.0 
-2.648051372033e-05 1.225568720394e-03 0.0 
0.0 0.0 -1.816415620416e-04 
-1.546092874475e-04 -2.982910766663e-05 0.0 
-2.982910766663e-05 1.035340165495e-03 0.0 
0.0 0.0 -1.543237508850e-04 
-1.687071199467e-04 -3.097215296435e-05 0.0 
-3.097215296435e-05 1.133984998622e-03 0.0 
0.0 0.0 -1.685605813437e-04 
-1.021935529673e-04 2.852069401152e-05 0.0 
2.852069401152e-05 6.571110725585e-04 0.0 
0.0 0.0 -1.019073722143e-04 
-1.593527883530e-04 -2.978604002386e-05 0.0 
-2.978604002386e-05 1.069539853505e-03 0.0 
0.0 0.0 -1.593679286731e-04 
-8.787271678042e-05 2.812609072738e-05 0.0 
2.812609072738e-05 5.317977245242e-04 0.0 
0.0 0.0 -8.364764346898e-05 
-1.787194194283e-04 2.687014845945e-05 0.0 
2.687014845945e-05 1.178995119648e-03 0.0 
0.0 0.0 -1.772627823762e-04 
-9.805451043270e-05 2.760029222410e-05 0.0 
2.760029222410e-05 6.018798204524e-04 0.0 
0.0 0.0 -9.365644977482e-05 
-9.596485627522e-05 2.204290663138e-05 0.0 
2.204290663138e-05 6.347192065111e-04 0.0 
0.0 0.0 -9.866254784712e-05 
-1.159093866371e-04 2.840626684317e-05 0.0 
2.840626684317e-05 7.538245928729e-04 0.0 
0.0 0.0 -1.157644195874e-04 
-1.068023676316e-04 3.049840519302e-05 0.0 
3.049840519302e-05 6.737297633016e-04 0.0 
0.0 0.0 -1.036755264196e-04 
-1.327131526045e-04 -2.791089545435e-05 0.0 
-2.791089545435e-05 8.830463531689e-04 0.0 
0.0 0.0 -1.324954999561e-04 
-1.083462229029e-04 -2.835211655561e-05 0.0 
-2.835211655561e-05 7.134008523618e-04 0.0 
0.0 0.0 -1.081453164196e-04 
-1.141683981921e-04 -2.887541052425e-05 0.0 
-2.887541052425e-05 7.550230559135e-04 0.0 
0.0 0.0 -1.140931655197e-04 
-5.515908320108e-05 2.948502897213e-05 0.0 
2.948502897213e-05 3.310071093917e-04 0.0 
0.0 0.0 -5.528709606717e-05 
-1.104134789677e-04 2.840605379835e-05 0.0 
2.840605379835e-05 7.154837500031e-04 0.0 
0.0 0.0 -1.103023603459e-04 
-1.746713077398e-04 2.880636906730e-05 0.0 
2.880636906730e-05 1.164068735679e-03 0.0 
0.0 0.0 -1.743776871305e-04 
-1.783703106015e-04 3.636462111026e-05 0.0 
3.636462111026e-05 1.201299505939e-03 0.0 
0.0 0.0 -1.792895840060e-04 
-1.577150641991e-04 2.851269442524e-05 0.0 
2.851269442524e-05 1.044375076497e-03 0.0 
0.0 0.0 -1.575150703147e-04 
-1.745723709241e-04 2.909038873658e-05 0.0 
2.909038873658e-05 1.170222223010e-03 0.0 
0.0 0.0 -1.755400497234e-04 
-1.120725847370e-04 2.871981251597e-05 0.0 
2.871981251597e-05 7.269648264993e-04 0.0 
0.0 0.0 -1.119489732781e-04 
-1.675311839949e-04 2.887729147629e-05 0.0 
2.887729147629e-05 1.117903748534e-03 0.0 
0.0 0.0 -1.678529426297e-04 
-1.146259152953e-04 2.842710779289e-05 0.0 
2.842710779289e-05 7.448564873363e-04 0.0 
0.0 0.0 -1.145134881756e-04 
-1.710224470009e-04 2.842065442071e-05 0.0 
2.842065442071e-05 1.142895506605e-03 0.0 
0.0 0.0 -1.716593064874e-04 
-1.634807050442e-04 2.799270818855e-05 0.0 
2.799270818855e-05 1.086902354100e-03 0.0 
0.0 0.0 -1.634447856658e-04 
-1.622367908960e-04 -2.967988136421e-05 0.0 
-2.967988136421e-05 1.088570664713e-03 0.0 
0.0 0.0 -1.620677252808e-04 
-1.436975778517e-04 2.830432817314e-05 0.0 
2.830432817314e-05 9.480503595790e-04 0.0 
0.0 0.0 -1.437136475121e-04 
-1.063431585595e-04 2.840592411012e-05 0.0 
2.840592411012e-05 6.863040493332e-04 0.0 
0.0 0.0 -1.060995107696e-04 
-1.691497108962e-04 -2.743833599267e-05 0.0 
-2.743833599267e-05 1.134677276168e-03 0.0 
0.0 0.0 -1.689057885308e-04 
-1.381914899866e-04 2.790064750608e-05 0.0 
2.790064750608e-05 9.063015758904e-04 0.0 
0.0 0.0 -1.375454124849e-04 
-5.561996790627e-05 -3.071748806018e-05 0.0 
-3.071748806018e-05 3.409512690699e-04 0.0 
0.0 0.0 -5.492022919918e-05 
-6.179236649455e-05 -2.756467409787e-05 0.0 
-2.756467409787e-05 3.903060721867e-04 0.0 
0.0 0.0 -6.170691397715e-05 
-9.087582305261e-05 2.700291781954e-05 0.0 
2.700291781954e-05 5.782509110046e-04 0.0 
0.0 0.0 -9.092110591052e-05 
-1.259880962207e-04 2.776883270027e-05 0.0 
2.776883270027e-05 8.237716666486e-04 0.0 
0.0 0.0 -1.257717909469e-04 
-1.753841120844e-04 2.980647546350e-05 0.0 
2.980647546350e-05 1.173927080456e-03 0.0 
0.0 0.0 -1.760317983730e-04 
-1.577119756164e-04 -3.055430689054e-05 0.0 
-3.055430689054e-05 1.057688489879e-03 0.0 
0.0 0.0 -1.576653810449e-04 
-1.057975756223e-04 -2.876126628924e-05 0.0 
-2.876126628924e-05 6.965772625478e-04 0.0 
0.0 0.0 -1.056780804030e-04 
-1.401532218735e-04 -2.893519210654e-05 0.0 
-2.893519210654e-05 9.357130400283e-04 0.0 
0.0 0.0 -1.401741111350e-04 
-1.632303776345e-04 2.945240880963e-05 0.0 
2.945240880963e-05 1.086067743780e-03 0.0 
0.0 0.0 -1.632898652955e-04 
-1.698320922867e-04 -3.029692352669e-05 0.0 
-3.029692352669e-05 1.141081462631e-03 0.0 
0.0 0.0 -1.695868396911e-04 
-1.762766478419e-04 -2.148172006753e-05 0.0 
-2.148172006753e-05 1.172735995291e-03 0.0 
0.0 0.0 -1.741172379421e-04 
-1.423952570170e-04 2.784554782803e-05 0.0 
2.784554782803e-05 9.441048027351e-04 0.0 
0.0 0.0 -1.427691508950e-04 
-1.672340961037e-04 2.890076212539e-05 0.0 
2.890076212539e-05 1.110820323191e-03 0.0 
0.0 0.0 -1.670153566545e-04 
-1.196206745500e-04 -2.916305908743e-05 0.0 
-2.916305908743e-05 7.932912096618e-04 0.0 
0.0 0.0 -1.195780717481e-04 
-1.631267095900e-04 -2.877648753756e-05 0.0 
-2.877648753756e-05 1.093964271595e-03 0.0 
0.0 0.0 -1.629178051474e-04 
-1.193648583036e-04 2.813253978265e-05 0.0 
2.813253978265e-05 7.781106719394e-04 0.0 
0.0 0.0 -1.192674511187e-04 
-1.785040923208e-04 -2.833642482200e-05 0.0 
-2.833642482200e-05 1.202406861450e-03 0.0 
0.0 0.0 -1.783056964125e-04 
-1.774180478980e-04 -3.143728213467e-05 0.0 
-3.143728213467e-05 1.216846253912e-03 0.0 
0.0 0.0 -1.800733985141e-04 
-1.339733609669e-04 2.830305737665e-05 0.0 
2.830305737665e-05 8.799971748813e-04 0.0 
0.0 0.0 -1.339483752660e-04 
-5.685501053660e-05 3.033786968296e-05 0.0 
3.033786968296e-05 3.408752435242e-04 0.0 
0.0 0.0 -5.664287464774e-05 
-1.674932513127e-04 2.750263582861e-05 0.0 
2.750263582861e-05 1.111155514655e-03 0.0 
0.0 0.0 -1.670528461364e-04 
-1.284040368042e-04 -2.775968276020e-05 0.0 
-2.775968276020e-05 8.537309068525e-04 0.0 
0.0 0.0 -1.283340813903e-04 
-1.016895440755e-04 -2.862604297841e-05 0.0 
-2.862604297841e-05 6.674652453701e-04 0.0 
0.0 0.0 -1.014860136736e-04 
-1.390418925560e-04 -2.935625760733e-05 0.0 
-2.935625760733e-05 9.288785969762e-04 0.0 
0.0 0.0 -1.390419464427e-04 
-1.608753793423e-04 -3.062151254544e-05 0.0 
-3.062151254544e-05 1.081540098949e-03 0.0 
0.0 0.0 -1.609465537294e-04 
-5.579409708541e-05 -2.753923831601e-05 0.0 
-2.753923831601e-05 3.517647136068e-04 0.0 
0.0 0.0 -5.619956474153e-05 
-1.242874580104e-04 2.815581454240e-05 0.0 
2.815581454240e-05 8.122824974036e-04 0.0 
0.0 0.0 -1.242180795178e-04 
-1.444954382542e-04 2.691161261798e-05 0.0 
2.691161261798e-05 9.508761997336e-04 0.0 
0.0 0.0 -1.439419080609e-04 
-1.748732396412e-04 -3.101518328253e-05 0.0 
-3.101518328253e-05 1.183866334775e-03 0.0 
0.0 0.0 -1.756258132784e-04 
-1.484265095921e-04 2.639187046033e-05 0.0 
2.639187046033e-05 9.793613921147e-04 0.0 
0.0 0.0 -1.481473755224e-04 
-1.628394148518e-04 2.905846373136e-05 0.0 
2.905846373136e-05 1.081802942582e-03 0.0 
0.0 0.0 -1.628061244897e-04 
-1.405884391169e-04 2.689260908494e-05 0.0 
2.689260908494e-05 9.219062369141e-04 0.0 
0.0 0.0 -1.397490354451e-04 
-1.346362126131e-04 2.980546389634e-05 0.0 
2.980546389634e-05 8.629731244664e-04 0.0 
0.0 0.0 -1.313455861883e-04 
-1.422308942789e-04 2.777968126491e-05 0.0 
2.777968126491e-05 9.352014107076e-04 0.0 
0.0 0.0 -1.417070353249e-04 
-1.696348231764e-04 3.073847441857e-05 0.0 
3.073847441857e-05 1.132512673150e-03 0.0 
0.0 0.0 -1.700257545721e-04 
-1.628061011134e-04 -3.012920063587e-05 0.0 
-3.012920063587e-05 1.094588289745e-03 0.0 
0.0 0.0 -1.626783210446e-04 
-1.525480366069e-04 2.753411223908e-05 0.0 
2.753411223908e-05 1.012270815341e-03 0.0 
0.0 0.0 -1.525950422115e-04 
-1.817674885626e-04 2.636756222739e-05 0.0 
2.636756222739e-05 1.218171265063e-03 0.0 
0.0 0.0 -1.819330136886e-04 
-1.367783378107e-04 2.734398055764e-05 0.0 
2.734398055764e-05 8.928204252328e-04 0.0 
0.0 0.0 -1.355595357802e-04 
-8.657515392004e-05 -2.858127066433e-05 0.0 
-2.858127066433e-05 5.623682383036e-04 0.0 
0.0 0.0 -8.640878351826e-05 
-1.720286776127e-04 -3.018037219569e-05 0.0 
-3.018037219569e-05 1.158953410419e-03 0.0 
0.0 0.0 -1.720100346656e-04 
-1.785542716781e-04 -3.347376878072e-05 0.0 
-3.347376878072e-05 1.210212792631e-03 0.0 
0.0 0.0 -1.795117393957e-04 
-1.181566759780e-04 2.804595512909e-05 0.0 
2.804595512909e-05 7.695120543693e-04 0.0 
0.0 0.0 -1.180384278745e-04 
-1.234361083838e-04 2.834735001336e-05 0.0 
2.834735001336e-05 8.068300268397e-04 0.0 
0.0 0.0 -1.233979183903e-04 
-9.615008310342e-05 -2.877711061827e-05 0.0 
-2.877711061827e-05 6.293964481875e-04 0.0 
0.0 0.0 -9.603629528614e-05 
-1.570985069047e-04 2.869057650911e-05 0.0 
2.869057650911e-05 1.042670134457e-03 0.0 
0.0 0.0 -1.569914920818e-04 
-9.804713378094e-05 2.892049478508e-05 0.0 
2.892049478508e-05 6.274327291699e-04 0.0 
0.0 0.0 -9.751120462800e-05 
-1.373039782519e-04 2.945820523949e-05 0.0 
2.945820523949e-05 9.031137517948e-04 0.0 
0.0 0.0 -1.370644644624e-04 
-9.733425656402e-05 -2.696735292952e-05 0.0 
-2.696735292952e-05 6.363689780604e-04 0.0 
0.0 0.0 -9.714421390796e-05 
-1.604810832406e-04 2.925883402761e-05 0.0 
2.925883402761e-05 1.064262862584e-03 0.0 
0.0 0.0 -1.602381950242e-04 
-1.814386097987e-04 -2.325128847214e-05 0.0 
-2.325128847214e-05 1.217845530327e-03 0.0 
0.0 0.0 -1.816843005859e-04 
-1.003684445551e-04 -2.872637610904e-05 0.0 
-2.872637610904e-05 6.585462596242e-04 0.0 
0.0 0.0 -1.002307182508e-04 
-3.526749537505e-05 -3.047241068612e-05 0.0 
-3.047241068612e-05 2.153990238607e-04 0.0 
0.0 0.0 -3.677367655039e-05 
-1.806631145188e-04 2.941902588667e-05 0.0 
2.941902588667e-05 1.208966272057e-03 0.0 
0.0 0.0 -1.810776462098e-04 
-1.033178748637e-04 2.699632970684e-05 0.0 
2.699632970684e-05 6.637091035959e-04 0.0 
0.0 0.0 -1.028007266516e-04 
-1.175293277585e-04 2.819191420695e-05 0.0 
2.819191420695e-05 7.649488685247e-04 0.0 
0.0 0.0 -1.174222657364e-04 
-1.740611927883e-04 3.008308873920e-05 0.0 
3.008308873920e-05 1.179667388234e-03 0.0 
0.0 0.0 -1.766888058523e-04 
-1.524480229041e-04 -2.995968298439e-05 0.0 
-2.995968298439e-05 1.020372756015e-03 0.0 
0.0 0.0 -1.522604622525e-04 
-1.585768344365e-04 -2.913298650394e-05 0.0 
-2.913298650394e-05 1.064240986158e-03 0.0 
0.0 0.0 -1.583819031520e-04 
-1.028812223476e-04 -2.791530224567e-05 0.0 
-2.791530224567e-05 6.762699737186e-04 0.0 
0.0 0.0 -1.027652553003e-04 
-3.047731217096e-05 2.978609752000e-05 0.0 
2.978609752000e-05 1.644412884572e-04 0.0 
0.0 0.0 -3.167095645526e-05 
-1.827018091400e-04 -3.487243475378e-05 0.0 
-3.487243475378e-05 1.223693620193e-03 0.0 
0.0 0.0 -1.803196740198e-04 
-1.299869374800e-04 2.787662672047e-05 0.0 
2.787662672047e-05 8.523815142426e-04 0.0 
0.0 0.0 -1.299076046001e-04 
-1.512839301296e-04 -3.211131163956e-05 0.0 
-3.211131163956e-05 1.010330699503e-03 0.0 
0.0 0.0 -1.510713963618e-04 
-1.740688791628e-04 2.785384488376e-05 0.0 
2.785384488376e-05 1.160296302710e-03 0.0 
0.0 0.0 -1.736733770178e-04 
-2.424829434384e-05 2.135414066938e-05 0.0 
2.135414066938e-05 1.009887765283e-04 0.0 
0.0 0.0 -2.253474224696e-05 
-1.588289344536e-04 2.988448063203e-05 0.0 
2.988448063203e-05 1.053618048293e-03 0.0 
0.0 0.0 -1.588145449557e-04 
-7.398149687921e-05 -2.842214034926e-05 0.0 
-2.842214034926e-05 4.736710158424e-04 0.0 
0.0 0.0 -7.379368512750e-05 
-1.417757164372e-04 -3.019050727827e-05 0.0 
-3.019050727827e-05 9.514786018212e-04 0.0 
0.0 0.0 -1.424765658182e-04 
-1.273110853056e-04 -2.925695132898e-05 0.0 
-2.925695132898e-05 8.481813906053e-04 0.0 
0.0 0.0 -1.274401864931e-04 
-1.007593383753e-04 2.822071280729e-05 0.0 
2.822071280729e-05 6.480510024074e-04 0.0 
0.0 0.0 -1.006432667219e-04 
-1.707598802574e-04 -2.954897052777e-05 0.0 
-2.954897052777e-05 1.153161559221e-03 0.0 
0.0 0.0 -1.712453353817e-04 
-1.329505705343e-04 2.860130427155e-05 0.0 
2.860130427155e-05 8.732611453068e-04 0.0 
0.0 0.0 -1.328871777156e-04 
-9.118212509623e-05 2.844150706971e-05 0.0 
2.844150706971e-05 5.810800157713e-04 0.0 
0.0 0.0 -9.101187559806e-05 
-1.348270760039e-04 -2.858426038110e-05 0.0 
-2.858426038110e-05 8.990222661828e-04 0.0 
0.0 0.0 -1.348432318503e-04 
-2.929431270807e-05 -2.857654389252e-05 0.0 
-2.857654389252e-05 1.760253783659e-04 0.0 
0.0 0.0 -3.121713414881e-05 
-1.537482864892e-04 -2.902787486223e-05 0.0 
-2.902787486223e-05 1.032059817805e-03 0.0 
0.0 0.0 -1.539626484545e-04 
-1.604406715089e-04 -2.964829512843e-05 0.0 
-2.964829512843e-05 1.074466508454e-03 0.0 
0.0 0.0 -1.598244649411e-04 
-1.844616251081e-04 -2.196458036396e-05 0.0 
-2.196458036396e-05 1.231467805983e-03 0.0 
0.0 0.0 -1.850401362575e-04 
-1.635274807000e-04 -2.956880985849e-05 0.0 
-2.956880985849e-05 1.099342516608e-03 0.0 
0.0 0.0 -1.636124299818e-04 
-7.150477036681e-05 -2.776392562661e-05 0.0 
-2.776392562661e-05 4.572663187996e-04 0.0 
0.0 0.0 -7.137223705482e-05 
-1.570462429545e-04 -2.966204224228e-05 0.0 
-2.966204224228e-05 1.054975147839e-03 0.0 
0.0 0.0 -1.570847591254e-04 
-1.810625471898e-04 2.712640566716e-05 0.0 
2.712640566716e-05 1.230837214805e-03 0.0 
0.0 0.0 -1.842233179068e-04 
-1.891002400454e-04 -2.748789620214e-05 0.0 
-2.748789620214e-05 1.278407905451e-03 0.0 
0.0 0.0 -1.900717871215e-04 
-1.657110930776e-04 -2.854937255919e-05 0.0 
-2.854937255919e-05 1.112870521473e-03 0.0 
0.0 0.0 -1.653364313119e-04 
-1.071209963560e-04 -2.863275326497e-05 0.0 
-2.863275326497e-05 7.049432181714e-04 0.0 
0.0 0.0 -1.069186906485e-04 
-1.442583782278e-04 -2.898467953421e-05 0.0 
-2.898467953421e-05 9.652668360639e-04 0.0 
0.0 0.0 -1.443707514742e-04 
-1.759295624301e-04 2.574555557981e-05 0.0 
2.574555557981e-05 1.162894992702e-03 0.0 
0.0 0.0 -1.746475140816e-04 
-1.188179409512e-04 -2.882565480678e-05 0.0 
-2.882565480678e-05 7.850400880713e-04 0.0 
0.0 0.0 -1.181845718321e-04 
-1.584483271371e-04 2.773639164419e-05 0.0 
2.773639164419e-05 1.051528373706e-03 0.0 
0.0 0.0 -1.585795433073e-04 
-1.477641435519e-04 2.859461966958e-05 0.0 
2.859461966958e-05 9.807497853317e-04 0.0 
0.0 0.0 -1.481564718376e-04 
-1.666109147089e-04 -2.970949097526e-05 0.0 
-2.970949097526e-05 1.123406416293e-03 0.0 
0.0 0.0 -1.669465589644e-04 
-1.640742339727e-04 -2.814643695304e-05 0.0 
-2.814643695304e-05 1.102737689409e-03 0.0 
0.0 0.0 -1.639852473733e-04 
-1.101476556860e-04 -1.419773556877e-06 0.0 
-1.419773556877e-06 6.855531227093e-04 0.0 
0.0 0.0 -1.097027053386e-04 
-1.095838507761e-04 5.104018495320e-06 0.0 
5.104018495320e-06 6.852974449944e-04 0.0 
0.0 0.0 -1.096586159380e-04 
-1.492847548809e-04 -3.091516381313e-05 0.0 
-3.091516381313e-05 9.984061546489e-04 0.0 
0.0 0.0 -1.489183339744e-04 
-1.487773235054e-04 2.785619991096e-05 0.0 
2.785619991096e-05 9.847103116342e-04 0.0 
0.0 0.0 -1.489589719869e-04 
-1.316033445496e-04 -2.890310988479e-05 0.0 
-2.890310988479e-05 8.785172676280e-04 0.0 
0.0 0.0 -1.317064244343e-04 
-1.470787480711e-04 -2.886845641437e-05 0.0 
-2.886845641437e-05 9.813735906609e-04 0.0 
0.0 0.0 -1.466314440693e-04 
-1.276790192920e-04 2.827971774625e-05 0.0 
2.827971774625e-05 8.356151426700e-04 0.0 
0.0 0.0 -1.275341994755e-04 
-1.790311321725e-04 1.969961980520e-05 0.0 
1.969961980520e-05 1.177311147527e-03 0.0 
0.0 0.0 -1.770432225081e-04 
-1.075373971259e-04 2.845855733448e-05 0.0 
2.845855733448e-05 6.950205170450e-04 0.0 
0.0 0.0 -1.073226784003e-04 
-1.995879498343e-04 -5.013008806984e-06 0.0 
-5.013008806984e-06 1.363897218258e-03 0.0 
0.0 0.0 -1.985690758598e-04 
-1.206431140158e-04 2.307417823056e-05 0.0 
2.307417823056e-05 7.999499804229e-04 0.0 
0.0 0.0 -1.217990918242e-04 
-1.230873173652e-04 -2.834404514853e-05 0.0 
-2.834404514853e-05 8.168726937961e-04 0.0 
0.0 0.0 -1.229897142350e-04 
-1.277789710916e-04 2.899586617417e-05 0.0 
2.899586617417e-05 8.376167932335e-04 0.0 
0.0 0.0 -1.278593196867e-04 
-6.749379846372e-05 -2.782885043647e-05 0.0 
-2.782885043647e-05 4.285534232864e-04 0.0 
0.0 0.0 -6.718560115948e-05 
-1.130846881410e-04 -2.901620947727e-05 0.0 
-2.901620947727e-05 7.492911164906e-04 0.0 
0.0 0.0 -1.132750687146e-04 
-1.393795706141e-04 2.790993313463e-05 0.0 
2.790993313463e-05 9.183577294076e-04 0.0 
0.0 0.0 -1.393992299975e-04 
-1.313953089638e-04 2.793110906410e-05 0.0 
2.793110906410e-05 8.609063871163e-04 0.0 
0.0 0.0 -1.310746415357e-04 
-1.472158165240e-04 2.758529410816e-05 0.0 
2.758529410816e-05 9.752002146418e-04 0.0 
0.0 0.0 -1.472189500432e-04 
-1.516300742627e-04 2.806244334544e-05 0.0 
2.806244334544e-05 1.001799986608e-03 0.0 
0.0 0.0 -1.512033144533e-04 
-1.566655293626e-04 -2.889951032878e-05 0.0 
-2.889951032878e-05 1.046948901408e-03 0.0 
0.0 0.0 -1.561275327105e-04 
-3.388460750578e-05 -1.545160936620e-05 0.0 
-1.545160936620e-05 2.099343336454e-04 0.0 
0.0 0.0 -3.245576353708e-05 
-1.079103303358e-04 2.933502518126e-05 0.0 
2.933502518126e-05 7.001507540581e-04 0.0 
0.0 0.0 -1.081352097849e-04 
-1.027907419891e-04 -2.789055961483e-05 0.0 
-2.789055961483e-05 6.727593674768e-04 0.0 
0.0 0.0 -1.023828309811e-04 
-1.434897197293e-04 2.686269947909e-05 0.0 
2.686269947909e-05 9.426378339422e-04 0.0 
0.0 0.0 -1.428293200757e-04 
-1.483261696105e-04 -2.883963041716e-05 0.0 
-2.883963041716e-05 9.902814330651e-04 0.0 
0.0 0.0 -1.477595226970e-04 
-1.733622378423e-04 2.696425670561e-05 0.0 
2.696425670561e-05 1.158199599596e-03 0.0 
0.0 0.0 -1.740163136221e-04 
-5.146390240149e-05 3.149198966797e-05 0.0 
3.149198966797e-05 2.950977217837e-04 0.0 
0.0 0.0 -4.910994769955e-05 
-4.998322073950e-05 -2.650173050573e-05 0.0 
-2.650173050573e-05 3.137392583323e-04 0.0 
0.0 0.0 -5.065930366581e-05 
-1.246841514279e-04 2.807070818710e-05 0.0 
2.807070818710e-05 8.153369030926e-04 0.0 
0.0 0.0 -1.245896567492e-04 
-1.074667000404e-04 -2.931017500739e-05 0.0 
-2.931017500739e-05 7.103792899815e-04 0.0 
0.0 0.0 -1.077203783481e-04 
-9.918600810801e-05 -3.218977296722e-05 0.0 
-3.218977296722e-05 6.451476881974e-04 0.0 
0.0 0.0 -9.831899762194e-05 
-1.033843323464e-04 -2.568146961447e-05 0.0 
-2.568146961447e-05 6.823399375890e-04 0.0 
0.0 0.0 -1.033380742667e-04 
-1.467772705035e-04 -2.855532502296e-05 0.0 
-2.855532502296e-05 9.829234791858e-04 0.0 
0.0 0.0 -1.469023935692e-04 
-4.918821938130e-05 -2.784621442943e-05 0.0 
-2.784621442943e-05 3.054917735983e-04 0.0 
0.0 0.0 -4.953709868763e-05 
-1.222003796169e-04 2.866150149173e-05 0.0 
2.866150149173e-05 7.992287747919e-04 0.0 
0.0 0.0 -1.223213871927e-04 
-1.574838851652e-04 -2.884771519407e-05 0.0 
-2.884771519407e-05 1.055743233401e-03 0.0 
0.0 0.0 -1.573814874934e-04 
-5.103366446644e-05 3.083233425307e-05 0.0 
3.083233425307e-05 3.010972732110e-04 0.0 
0.0 0.0 -5.112340052147e-05 
-1.934610965695e-04 -4.298535282020e-06 0.0 
-4.298535282020e-06 1.268654757538e-03 0.0 
0.0 0.0 -1.928379572095e-04 
-1.729742724807e-04 -2.716366689485e-05 0.0 
-2.716366689485e-05 1.161879060048e-03 0.0 
0.0 0.0 -1.728683014225e-04 
-1.159629787201e-04 -2.904469987433e-05 0.0 
-2.904469987433e-05 7.705849919696e-04 0.0 
0.0 0.0 -1.163417091451e-04 
-1.616915685660e-04 2.859224485179e-05 0.0 
2.859224485179e-05 1.074324548804e-03 0.0 
0.0 0.0 -1.618083629464e-04 
-2.727429490673e-05 -7.981424094550e-07 0.0 
-7.981424094550e-07 1.116265976979e-04 0.0 
0.0 0.0 -2.696321564760e-05 
-1.521690046607e-04 -3.000871026997e-05 0.0 
-3.000871026997e-05 1.017696781759e-03 0.0 
0.0 0.0 -1.518707364543e-04 
-1.295839926014e-04 -2.815794342717e-05 0.0 
-2.815794342717e-05 8.619661847659e-04 0.0 
0.0 0.0 -1.295155041898e-04 
-2.359634361323e-05 9.091220455369e-07 0.0 
9.091220455369e-07 1.106951619002e-04 0.0 
0.0 0.0 -2.682779714776e-05 
-1.728538985111e-04 2.680741270793e-05 0.0 
2.680741270793e-05 1.154427413958e-03 0.0 
0.0 0.0 -1.732288690391e-04 
-4.759083390138e-05 -2.831698267297e-05 0.0 
-2.831698267297e-05 2.848913946214e-04 0.0 
0.0 0.0 -4.649687138448e-05 
-1.430104513494e-04 -2.827840335732e-05 0.0 
-2.827840335732e-05 9.522047249633e-04 0.0 
0.0 0.0 -1.424467998190e-04 
-1.308115066644e-04 -2.845406566805e-05 0.0 
-2.845406566805e-05 8.700772173504e-04 0.0 
0.0 0.0 -1.306907721685e-04 
-1.129064275361e-04 -2.856218169756e-05 0.0 
-2.856218169756e-05 7.462380760800e-04 0.0 
0.0 0.0 -1.127972299543e-04 
-1.359129833258e-04 2.979368899475e-05 0.0 
2.979368899475e-05 8.944895224544e-04 0.0 
0.0 0.0 -1.357882224401e-04 
-1.779538886446e-04 2.685602915856e-05 0.0 
2.685602915856e-05 1.186518068831e-03 0.0 
0.0 0.0 -1.774347558581e-04 
-1.457575943922e-04 3.026596853263e-05 0.0 
3.026596853263e-05 9.632506474158e-04 0.0 
0.0 0.0 -1.457400808753e-04 
-1.288002410826e-04 2.805878315534e-05 0.0 
2.805878315534e-05 8.440094574945e-04 0.0 
0.0 0.0 -1.287264812403e-04 
-1.242825439840e-04 -2.804688037007e-05 0.0 
-2.804688037007e-05 8.250067063846e-04 0.0 
0.0 0.0 -1.241942416882e-04 
-1.736395521226e-05 2.354389388036e-05 0.0 
2.354389388036e-05 7.964528863018e-05 0.0 
0.0 0.0 -1.861799679395e-05 
-4.157545693324e-05 2.817385926199e-05 0.0 
2.817385926199e-05 2.365575590948e-04 0.0 
0.0 0.0 -4.141517733842e-05 
-1.678318203631e-04 -2.663064313971e-05 0.0 
-2.663064313971e-05 1.127397061509e-03 0.0 
0.0 0.0 -1.677496568182e-04 
-1.370203440637e-04 -3.226606344672e-05 0.0 
-3.226606344672e-05 9.081664366392e-04 0.0 
0.0 0.0 -1.362805121017e-04 
-1.736141937904e-04 2.716336991301e-05 0.0 
2.716336991301e-05 1.149649766564e-03 0.0 
0.0 0.0 -1.723036539172e-04 
-7.429185192102e-05 2.889322857484e-05 0.0 
2.889322857484e-05 4.644168819778e-04 0.0 
0.0 0.0 -7.414465667103e-05 
-1.649902886651e-04 2.947284893012e-05 0.0 
2.947284893012e-05 1.093935083842e-03 0.0 
0.0 0.0 -1.646925898217e-04 
-1.739966132604e-04 -2.849382622555e-05 0.0 
-2.849382622555e-05 1.167419998479e-03 0.0 
0.0 0.0 -1.733111646468e-04 
-1.056965695515e-04 2.657671323282e-05 0.0 
2.657671323282e-05 6.973803664085e-04 0.0 
0.0 0.0 -1.076913066561e-04 
-1.684634156381e-04 2.502571500154e-05 0.0 
2.502571500154e-05 1.117308510720e-03 0.0 
0.0 0.0 -1.681488932201e-04 
-1.612200699048e-04 -2.968921846860e-05 0.0 
-2.968921846860e-05 1.084762543557e-03 0.0 
0.0 0.0 -1.613920101890e-04 
-1.435042771724e-04 2.827958174112e-05 0.0 
2.827958174112e-05 9.471256299073e-04 0.0 
0.0 0.0 -1.435674306479e-04 
-1.178719447516e-04 2.925779353124e-05 0.0 
2.925779353124e-05 7.691196797978e-04 0.0 
0.0 0.0 -1.179957515531e-04 
-1.230064472571e-04 -2.933976043839e-05 0.0 
-2.933976043839e-05 8.180684852634e-04 0.0 
0.0 0.0 -1.231351811242e-04 
-1.812260547849e-04 -3.047200266982e-05 0.0 
-3.047200266982e-05 1.223288115478e-03 0.0 
0.0 0.0 -1.807056875578e-04 
-1.260212927046e-04 2.933157348944e-05 0.0 
2.933157348944e-05 8.259598448106e-04 0.0 
0.0 0.0 -1.259489979917e-04 
-1.353161328246e-04 2.778264495549e-05 0.0 
2.778264495549e-05 8.897119970146e-04 0.0 
0.0 0.0 -1.352333322325e-04 
-1.267391738953e-04 2.944240283988e-05 0.0 
2.944240283988e-05 8.300608908324e-04 0.0 
0.0 0.0 -1.265040046469e-04 
-1.558042942572e-04 2.960325539106e-05 0.0 
2.960325539106e-05 1.032329659142e-03 0.0 
0.0 0.0 -1.557546880476e-04 
-1.178031641948e-04 -2.833363001983e-05 0.0 
-2.833363001983e-05 7.792538415973e-04 0.0 
0.0 0.0 -1.176363242409e-04 
-7.616423057156e-05 2.888075361391e-05 0.0 
2.888075361391e-05 4.767557616214e-04 0.0 
0.0 0.0 -7.598706826662e-05 
-1.284551892997e-04 2.830356900228e-05 0.0 
2.830356900228e-05 8.414205268390e-04 0.0 
0.0 0.0 -1.284270486071e-04 
-8.163145150663e-05 2.849893936950e-05 0.0 
2.849893936950e-05 5.141388462768e-04 0.0 
0.0 0.0 -8.139240314519e-05 
-1.476035922618e-04 2.790275079514e-05 0.0 
2.790275079514e-05 9.723513416990e-04 0.0 
0.0 0.0 -1.469868445827e-04 
-8.102880366192e-05 -2.822816260586e-05 0.0 
-2.822816260586e-05 5.241451611897e-04 0.0 
0.0 0.0 -8.099228255434e-05 
-1.416684014624e-04 -2.911139421202e-05 0.0 
-2.911139421202e-05 9.446400297649e-04 0.0 
0.0 0.0 -1.413087031611e-04 
-1.704134817182e-04 -2.893451028680e-05 0.0 
-2.893451028680e-05 1.143317166872e-03 0.0 
0.0 0.0 -1.695824168335e-04 
-1.648116269840e-04 2.803138241354e-05 0.0 
2.803138241354e-05 1.093290237044e-03 0.0 
0.0 0.0 -1.644793634901e-04 
-1.128875860972e-04 2.826705620268e-05 0.0 
2.826705620268e-05 7.324835187191e-04 0.0 
0.0 0.0 -1.126879322255e-04 
-1.413103611302e-04 2.856634998349e-05 0.0 
2.856634998349e-05 9.375047760794e-04 0.0 
0.0 0.0 -1.419038077447e-04 
-1.657595976086e-04 2.853389717882e-05 0.0 
2.853389717882e-05 1.104349844714e-03 0.0 
0.0 0.0 -1.661162351013e-04 
-1.653889785276e-04 -2.976188635714e-05 0.0 
-2.976188635714e-05 1.114688989457e-03 0.0 
0.0 0.0 -1.657121520580e-04 
-4.122208403583e-05 -2.733977607716e-05 0.0 
-2.733977607716e-05 2.407308049745e-04 0.0 
0.0 0.0 -4.024936955575e-05 
-1.462865341652e-04 2.791988865304e-05 0.0 
2.791988865304e-05 9.640304959560e-04 0.0 
0.0 0.0 -1.458719015759e-04 
-1.798320892613e-04 3.664169466135e-05 0.0 
3.664169466135e-05 1.207776909166e-03 0.0 
0.0 0.0 -1.808727580343e-04 
-8.155951077410e-05 2.658877336874e-05 0.0 
2.658877336874e-05 5.082367721589e-04 0.0 
0.0 0.0 -8.036834358255e-05 
-1.261065842356e-04 -2.891277945860e-05 0.0 
-2.891277945860e-05 8.392634847212e-04 0.0 
0.0 0.0 -1.261429800108e-04 
-2.464432722711e-05 -2.598410949159e-05 0.0 
-2.598410949159e-05 1.199804601247e-04 0.0 
0.0 0.0 -2.329771006100e-05 
-1.698720281199e-04 2.819353997162e-05 0.0 
2.819353997162e-05 1.134065551803e-03 0.0 
0.0 0.0 -1.704352672439e-04 
-7.209795018933e-05 2.889480946534e-05 0.0 
2.889480946534e-05 4.471234739761e-04 0.0 
0.0 0.0 -7.178447905439e-05 
-1.214879839983e-04 2.129426116121e-05 0.0 
2.129426116121e-05 7.908873499093e-04 0.0 
0.0 0.0 -1.224926751266e-04 
-1.512350690369e-04 3.260960324541e-05 0.0 
3.260960324541e-05 1.003149541653e-03 0.0 
0.0 0.0 -1.513082552986e-04 
-1.410567308220e-04 -2.849265471453e-05 0.0 
-2.849265471453e-05 9.457036391268e-04 0.0 
0.0 0.0 -1.415828201621e-04 
-1.344535840298e-04 2.612046934124e-05 0.0 
2.612046934124e-05 8.995841949147e-04 0.0 
0.0 0.0 -1.366211047096e-04 
-1.341134389053e-04 2.811410486968e-05 0.0 
2.811410486968e-05 8.812581479058e-04 0.0 
0.0 0.0 -1.340535934895e-04 
-8.946040519151e-05 -2.953905219233e-05 0.0 
-2.953905219233e-05 5.742848433877e-04 0.0 
0.0 0.0 -8.827358089900e-05 
-9.333279709743e-05 -2.369397324284e-05 0.0 
-2.369397324284e-05 6.111413459436e-04 0.0 
0.0 0.0 -9.328238720484e-05 
-1.698818200285e-04 -2.882683013526e-05 0.0 
-2.882683013526e-05 1.144701307571e-03 0.0 
0.0 0.0 -1.700100520615e-04 
-1.409975246060e-04 -3.114270166762e-05 0.0 
-3.114270166762e-05 9.412074701777e-04 0.0 
0.0 0.0 -1.409113068204e-04 
-1.224899796510e-04 -2.844927577316e-05 0.0 
-2.844927577316e-05 8.138192071892e-04 0.0 
0.0 0.0 -1.224729735915e-04 
-1.523712328566e-04 3.064679971689e-05 0.0 
3.064679971689e-05 1.008635964013e-03 0.0 
0.0 0.0 -1.522479562080e-04 
-1.188292947714e-04 2.814854163685e-05 0.0 
2.814854163685e-05 7.741609344605e-04 0.0 
0.0 0.0 -1.187265862058e-04 
-7.698231420718e-05 -2.807470773001e-05 0.0 
-2.807470773001e-05 4.953557652573e-04 0.0 
0.0 0.0 -7.679943085705e-05 
-8.618619312566e-05 2.228028664320e-05 0.0 
2.228028664320e-05 5.633842965339e-04 0.0 
0.0 0.0 -8.862593743002e-05 
-1.284395253225e-04 -2.631768161175e-05 0.0 
-2.631768161175e-05 8.441014789476e-04 0.0 
0.0 0.0 -1.266344217576e-04 
-1.074097245906e-04 1.137855673603e-06 0.0 
1.137855673603e-06 7.273751056144e-04 0.0 
0.0 0.0 -1.068299257544e-04 
-1.648361548193e-04 -2.903405778283e-05 0.0 
-2.903405778283e-05 1.103487992394e-03 0.0 
0.0 0.0 -1.640398004813e-04 
-1.125117604938e-04 -2.832657592519e-05 0.0 
-2.832657592519e-05 7.420818515929e-04 0.0 
0.0 0.0 -1.122952594724e-04 
-1.815273626527e-04 2.648876521301e-05 0.0 
2.648876521301e-05 1.237129381465e-03 0.0 
0.0 0.0 -1.850357933615e-04 
-1.677426973633e-04 3.358700303554e-05 0.0 
3.358700303554e-05 1.121534172788e-03 0.0 
0.0 0.0 -1.681766660669e-04 
-1.238211064038e-04 -2.893923336642e-05 0.0 
-2.893923336642e-05 8.228165218213e-04 0.0 
0.0 0.0 -1.237869166313e-04 
-1.864446355504e-04 -3.208766695310e-05 0.0 
-3.208766695310e-05 1.252430825566e-03 0.0 
0.0 0.0 -1.862208944195e-04 
-8.530940149586e-05 -2.872680214247e-05 0.0 
-2.872680214247e-05 5.536185287289e-04 0.0 
0.0 0.0 -8.523934116932e-05 
-1.812060938045e-04 2.774101611193e-05 0.0 
2.774101611193e-05 1.207038039800e-03 0.0 
0.0 0.0 -1.806723702746e-04 
-1.337032776849e-04 -2.817141114612e-05 0.0 
-2.817141114612e-05 8.910030578001e-04 0.0 
0.0 0.0 -1.336599856011e-04 
-1.477881411962e-04 2.807358610009e-05 0.0 
2.807358610009e-05 9.757986870607e-04 0.0 
0.0 0.0 -1.477205131922e-04 
-1.717661370758e-04 -2.763745373205e-05 0.0 
-2.763745373205e-05 1.155465207730e-03 0.0 
0.0 0.0 -1.720177540751e-04 
-8.915482971043e-05 -2.748298977886e-05 0.0 
-2.748298977886e-05 5.839530331415e-04 0.0 
0.0 0.0 -8.937342098373e-05 
-1.408472522219e-04 2.814178914188e-05 0.0 
2.814178914188e-05 9.273096045331e-04 0.0 
0.0 0.0 -1.405419627762e-04 
-1.183094889317e-04 -2.831962265042e-05 0.0 
-2.831962265042e-05 7.845371880710e-04 0.0 
0.0 0.0 -1.182925860037e-04 
-1.362566173497e-04 -2.854051389334e-05 0.0 
-2.854051389334e-05 9.069235503698e-04 0.0 
0.0 0.0 -1.359850532410e-04 
-7.919830953849e-05 -2.789069310031e-05 0.0 
-2.789069310031e-05 5.092955845790e-04 0.0 
0.0 0.0 -7.902140106529e-05 
-1.521909368861e-04 3.155873557746e-05 0.0 
3.155873557746e-05 1.007096083567e-03 0.0 
0.0 0.0 -1.519844081269e-04 
-1.132987595353e-04 2.834154396761e-05 0.0 
2.834154396761e-05 7.356229622935e-04 0.0 
0.0 0.0 -1.132306032040e-04 
-1.320680958621e-04 2.867292103990e-05 0.0 
2.867292103990e-05 8.674712725503e-04 0.0 
0.0 0.0 -1.321542253869e-04 
-1.368300496681e-04 2.752968636588e-05 0.0 
2.752968636588e-05 8.977721242010e-04 0.0 
0.0 0.0 -1.363712481195e-04 
-2.669160915436e-05 -1.546272424362e-05 0.0 
-1.546272424362e-05 1.161110005952e-04 0.0 
0.0 0.0 -2.089024115593e-05 
-1.363872734664e-04 3.073615465078e-05 0.0 
3.073615465078e-05 8.982822443154e-04 0.0 
0.0 0.0 -1.362374425583e-04 
-3.196098953400e-05 -3.152710847565e-05 0.0 
-3.152710847565e-05 1.832351866553e-04 0.0 
0.0 0.0 -3.246432735143e-05 
-3.780823483309e-05 3.089859502925e-05 0.0 
3.089859502925e-05 2.040662805879e-04 0.0 
0.0 0.0 -3.615541251042e-05 
-1.264532196870e-04 2.805256790047e-05 0.0 
2.805256790047e-05 8.282811887478e-04 0.0 
0.0 0.0 -1.265710825771e-04 
-1.650927065987e-04 -2.992799550430e-05 0.0 
-2.992799550430e-05 1.105940052269e-03 0.0 
0.0 0.0 -1.647532235908e-04 
-1.400518033137e-04 2.658927901254e-05 0.0 
2.658927901254e-05 9.276103799496e-04 0.0 
0.0 0.0 -1.408132903889e-04 
-7.975221115210e-05 -2.926681587233e-05 0.0 
-2.926681587233e-05 5.061325512957e-04 0.0 
0.0 0.0 -7.822954250360e-05 
-2.013483297690e-04 2.032612637039e-06 0.0 
2.032612637039e-06 1.329003344546e-03 0.0 
0.0 0.0 -2.013483297690e-04 
-1.035627632493e-05 2.012317785662e-05 0.0 
2.012317785662e-05 3.911320943316e-05 0.0 
0.0 0.0 -1.232439990353e-05 
-8.383816084979e-05 -1.994127170537e-05 0.0 
-1.994127170537e-05 5.413626143026e-04 0.0 
0.0 0.0 -8.324708519681e-05 
-1.271654449798e-04 2.783994873367e-05 0.0 
2.783994873367e-05 8.320575259278e-04 0.0 
0.0 0.0 -1.270911103786e-04 
-1.205324376648e-04 -2.929888805432e-05 0.0 
-2.929888805432e-05 8.005519843790e-04 0.0 
0.0 0.0 -1.206387729067e-04 
-1.013602283131e-04 -2.480997680423e-05 0.0 
-2.480997680423e-05 6.640206223424e-04 0.0 
0.0 0.0 -1.009985469804e-04 
-8.871913647433e-05 2.734607712163e-05 0.0 
2.734607712163e-05 5.647906116567e-04 0.0 
0.0 0.0 -8.863076730824e-05 
-1.311043943365e-04 -2.976717297625e-05 0.0 
-2.976717297625e-05 8.719910144079e-04 0.0 
0.0 0.0 -1.310072861357e-04 
-1.389619207248e-04 -2.862329341105e-05 0.0 
-2.862329341105e-05 9.281576540868e-04 0.0 
0.0 0.0 -1.390016920470e-04 
-1.460738362541e-04 3.043025274219e-05 0.0 
3.043025274219e-05 9.676325484449e-04 0.0 
0.0 0.0 -1.460128267758e-04 
-1.732762100729e-04 3.047090098963e-05 0.0 
3.047090098963e-05 1.141214836478e-03 0.0 
0.0 0.0 -1.716453415534e-04 
-4.497460723320e-05 2.726656903271e-05 0.0 
2.726656903271e-05 2.561921516371e-04 0.0 
0.0 0.0 -4.464496721659e-05 
-1.166209944052e-04 2.853466779788e-05 0.0 
2.853466779788e-05 7.601119053809e-04 0.0 
0.0 0.0 -1.167719096664e-04 
-1.253239379370e-04 2.802640912089e-05 0.0 
2.802640912089e-05 8.204946388047e-04 0.0 
0.0 0.0 -1.253423245625e-04 
-6.775366326737e-05 -3.048229866519e-05 0.0 
-3.048229866519e-05 4.346213084644e-04 0.0 
0.0 0.0 -6.816034660215e-05 
-1.127220931764e-04 3.280867731043e-05 0.0 
3.280867731043e-05 7.331832316127e-04 0.0 
0.0 0.0 -1.127715562385e-04 
-1.406419564968e-04 -3.010518963226e-05 0.0 
-3.010518963226e-05 9.368893413982e-04 0.0 
0.0 0.0 -1.404347219739e-04 
-1.530603703096e-04 -2.920298263434e-05 0.0 
-2.920298263434e-05 1.018521684544e-03 0.0 
0.0 0.0 -1.535177820318e-04 
-2.288599488340e-05 1.289972043286e-06 0.0 
1.289972043286e-06 1.500050201402e-04 0.0 
0.0 0.0 -2.407863984352e-05 
-1.904718743730e-05 -3.796502735245e-05 0.0 
-3.796502735245e-05 7.353718879473e-05 0.0 
0.0 0.0 -1.778391308807e-05 
-4.862036817725e-05 -2.764492479964e-05 0.0 
-2.764492479964e-05 3.006710189870e-04 0.0 
0.0 0.0 -4.850561850037e-05 
-1.250248464412e-04 -2.908499407456e-05 0.0 
-2.908499407456e-05 8.306354519711e-04 0.0 
0.0 0.0 -1.249513133117e-04 
-9.487833492244e-05 -2.821982749961e-05 0.0 
-2.821982749961e-05 6.208435078207e-04 0.0 
0.0 0.0 -9.483030114460e-05 
-8.410233070287e-05 -2.754579270561e-05 0.0 
-2.754579270561e-05 5.457436342908e-04 0.0 
0.0 0.0 -8.407979340540e-05 
-7.564452835468e-05 -2.812380315554e-05 0.0 
-2.812380315554e-05 4.861034660231e-04 0.0 
0.0 0.0 -7.562371400132e-05 
-1.308199925164e-04 2.795456765413e-05 0.0 
2.795456765413e-05 8.583699019635e-04 0.0 
0.0 0.0 -1.308200345188e-04 
-1.492653203134e-04 2.795966396730e-05 0.0 
2.795966396730e-05 9.867209101107e-04 0.0 
0.0 0.0 -1.493429779604e-04 
-1.297619321001e-04 2.813153916154e-05 0.0 
2.813153916154e-05 8.505758307982e-04 0.0 
0.0 0.0 -1.296493136919e-04 
-9.537410332307e-05 2.792962789421e-05 0.0 
2.792962789421e-05 6.106733548119e-04 0.0 
0.0 0.0 -9.522910944095e-05 
-1.456775150903e-04 -3.018176577816e-05 0.0 
-3.018176577816e-05 9.731377158713e-04 0.0 
0.0 0.0 -1.454913560695e-04 
-1.215295702296e-04 2.461975315803e-05 0.0 
2.461975315803e-05 8.148115380054e-04 0.0 
0.0 0.0 -1.235433054540e-04 
-1.607975492377e-04 3.196445582729e-05 0.0 
3.196445582729e-05 1.071803692603e-03 0.0 
0.0 0.0 -1.614296353785e-04 
-1.294007234012e-04 -2.913608251421e-05 0.0 
-2.913608251421e-05 8.607493369835e-04 0.0 
0.0 0.0 -1.292646442145e-04 
-1.305405341983e-04 -2.882629630394e-05 0.0 
-2.882629630394e-05 8.689129694931e-04 0.0 
0.0 0.0 -1.304223873054e-04 
-6.968339329854e-05 -2.972888482406e-05 0.0 
-2.972888482406e-05 4.334906827197e-04 0.0 
0.0 0.0 -6.822727741190e-05 
-9.912831729497e-05 -2.796137707004e-05 0.0 
-2.796137707004e-05 6.504811582310e-04 0.0 
0.0 0.0 -9.898428703081e-05 
-1.338904054535e-04 2.764565306312e-05 0.0 
2.764565306312e-05 8.796508899650e-04 0.0 
0.0 0.0 -1.339603927656e-04 
-1.451942325546e-04 2.545422836756e-05 0.0 
2.545422836756e-05 9.593435678016e-04 0.0 
0.0 0.0 -1.442355194375e-04 
-1.361868027580e-04 2.709053506538e-05 0.0 
2.709053506538e-05 9.012697796478e-04 0.0 
0.0 0.0 -1.345837404303e-04 
-7.449260603113e-05 -2.324565781608e-05 0.0 
-2.324565781608e-05 4.730958793735e-04 0.0 
0.0 0.0 -7.319231467821e-05 
-1.351502038915e-04 2.830190167801e-05 0.0 
2.830190167801e-05 8.885438377553e-04 0.0 
0.0 0.0 -1.351067771782e-04 
-8.277379542059e-05 -2.675056815443e-05 0.0 
-2.675056815443e-05 5.366126160003e-04 0.0 
0.0 0.0 -8.276526902223e-05 
-4.268302624522e-05 2.966411434536e-05 0.0 
2.966411434536e-05 2.450626322876e-04 0.0 
0.0 0.0 -4.217020858377e-05 
-1.783377964352e-04 -2.878462420289e-05 0.0 
-2.878462420289e-05 1.216695363592e-03 0.0 
0.0 0.0 -1.804362660462e-04 
-4.529678387534e-05 2.926161683405e-05 0.0 
2.926161683405e-05 2.590325448345e-04 0.0 
0.0 0.0 -4.529806102550e-05 
-8.742939480876e-05 2.790769408488e-05 0.0 
2.790769408488e-05 5.558475884308e-04 0.0 
0.0 0.0 -8.733313829944e-05 
-1.317265343520e-04 -2.980209858436e-05 0.0 
-2.980209858436e-05 8.750838916963e-04 0.0 
0.0 0.0 -1.314978247514e-04 
-7.591084973546e-05 2.107875529606e-05 0.0 
2.107875529606e-05 4.931826175602e-04 0.0 
0.0 0.0 -7.859944172783e-05 
-1.334719851974e-04 -2.966915358544e-05 0.0 
-2.966915358544e-05 8.920345164479e-04 0.0 
0.0 0.0 -1.335848452069e-04 
-6.387562636780e-05 -3.268343600872e-05 0.0 
-3.268343600872e-05 4.032800898130e-04 0.0 
0.0 0.0 -6.423763444998e-05 
-1.136812058642e-04 -2.481450603128e-05 0.0 
-2.481450603128e-05 7.554211615018e-04 0.0 
0.0 0.0 -1.173522912428e-04 
-1.350637719422e-04 -2.838472714175e-05 0.0 
-2.838472714175e-05 8.988460543843e-04 0.0 
0.0 0.0 -1.347247148155e-04 
-1.171592619295e-04 -2.801384878721e-05 0.0 
-2.801384878721e-05 7.755561146277e-04 0.0 
0.0 0.0 -1.170018866078e-04 
-1.217089587309e-04 -2.902247236899e-05 0.0 
-2.902247236899e-05 8.097798257773e-04 0.0 
0.0 0.0 -1.219000842292e-04 
-2.184335631700e-05 -1.729926300555e-05 0.0 
-1.729926300555e-05 1.250103729472e-04 0.0 
0.0 0.0 -2.233965624082e-05 
-1.775429286585e-04 -2.993860203194e-05 0.0 
-2.993860203194e-05 1.168952343716e-03 0.0 
0.0 0.0 -1.728850973588e-04 
-9.777928932074e-05 -2.702797086344e-05 0.0 
-2.702797086344e-05 6.417468029030e-04 0.0 
0.0 0.0 -9.771858906392e-05 
-1.742936274983e-04 3.098695444566e-05 0.0 
3.098695444566e-05 1.160612036868e-03 0.0 
0.0 0.0 -1.731059224200e-04 
-1.475958375390e-04 -2.938015971493e-05 0.0 
-2.938015971493e-05 9.867581376832e-04 0.0 
0.0 0.0 -1.473178670231e-04 
-1.394115090974e-04 2.895092753690e-05 0.0 
2.895092753690e-05 9.183306099949e-04 0.0 
0.0 0.0 -1.394094752486e-04 
-1.392759160733e-04 -2.661746757661e-05 0.0 
-2.661746757661e-05 9.284264619517e-04 0.0 
0.0 0.0 -1.390298226761e-04 
-8.994283602845e-05 2.778083834669e-05 0.0 
2.778083834669e-05 5.730895634602e-04 0.0 
0.0 0.0 -8.984374554363e-05 
-2.917258118515e-05 2.376164554401e-05 0.0 
2.376164554401e-05 1.745437757761e-04 0.0 
0.0 0.0 -3.155138587282e-05 
-2.317643182854e-05 1.790083138541e-05 0.0 
1.790083138541e-05 9.845334346925e-05 0.0 
0.0 0.0 -2.398754234351e-05 
-1.432208171698e-04 2.892878557249e-05 0.0 
2.892878557249e-05 9.478265663156e-04 0.0 
0.0 0.0 -1.437459767248e-04 
-1.740260011077e-04 2.826019241499e-05 0.0 
2.826019241499e-05 1.153801197259e-03 0.0 
0.0 0.0 -1.722084272143e-04 
-8.118601345419e-05 -2.611344377703e-05 0.0 
-2.611344377703e-05 5.279662901466e-04 0.0 
0.0 0.0 -8.139371786675e-05 
-1.500944745800e-04 2.850222383988e-05 0.0 
2.850222383988e-05 9.934228736818e-04 0.0 
0.0 0.0 -1.501054273671e-04 
-7.521111464244e-05 2.846605665054e-05 0.0 
2.846605665054e-05 4.657051250380e-04 0.0 
0.0 0.0 -7.503141475880e-05 
-1.512386812048e-04 -2.992568848289e-05 0.0 
-2.992568848289e-05 1.010913185445e-03 0.0 
0.0 0.0 -1.508421041237e-04 
-1.913679647201e-04 1.633067843082e-05 0.0 
1.633067843082e-05 1.304046368860e-03 0.0 
0.0 0.0 -1.899801870201e-04 
-8.107065812765e-06 2.346749919756e-06 0.0 
2.346749919756e-06 3.465691143960e-05 0.0 
0.0 0.0 -6.768710104395e-06 
-2.012431250737e-04 -5.135354168430e-06 0.0 
-5.135354168430e-06 1.328125823973e-03 0.0 
0.0 0.0 -2.012431250738e-04 
-2.010076978229e-04 5.129027623314e-07 0.0 
5.129027623314e-07 1.332224423205e-03 0.0 
0.0 0.0 -2.010076978229e-04 
-1.200525084162e-04 -2.960169498126e-05 0.0 
-2.960169498126e-05 7.774099100136e-04 0.0 
0.0 0.0 -1.193279669386e-04 
-9.640785059628e-05 -2.657435829226e-05 0.0 
-2.657435829226e-05 6.329376874412e-04 0.0 
0.0 0.0 -9.642369099328e-05 
-1.430993903661e-04 -2.855154632445e-05 0.0 
-2.855154632445e-05 9.576101063938e-04 0.0 
0.0 0.0 -1.431539317715e-04 
-9.069725416876e-05 -2.857026822921e-05 0.0 
-2.857026822921e-05 5.911546440220e-04 0.0 
0.0 0.0 -9.061723822400e-05 
-3.022990634783e-05 -2.681786409130e-05 0.0 
-2.681786409130e-05 1.822763229384e-04 0.0 
0.0 0.0 -3.143827221009e-05 
-2.037753453247e-05 -2.478655429001e-05 0.0 
-2.478655429001e-05 8.790842240506e-05 0.0 
0.0 0.0 -1.801817686168e-05 
-1.836175097671e-04 -2.402430245032e-05 0.0 
-2.402430245032e-05 1.223987652140e-03 0.0 
0.0 0.0 -1.814249121503e-04 
-1.450545934085e-04 -3.153145532631e-05 0.0 
-3.153145532631e-05 9.685145142433e-04 0.0 
0.0 0.0 -1.447226300079e-04 
-1.125869054840e-04 -2.748101964700e-05 0.0 
-2.748101964700e-05 7.294325003239e-04 0.0 
0.0 0.0 -1.083718385576e-04 
-1.962159152819e-04 -1.434651956338e-06 0.0 
-1.434651956338e-06 1.365722808943e-03 0.0 
0.0 0.0 -1.985491694924e-04 
-5.585822177885e-05 -3.143630658045e-05 0.0 
-3.143630658045e-05 3.376755851757e-04 0.0 
0.0 0.0 -5.423556500690e-05 
-2.007881053171e-04 -1.726199718446e-06 0.0 
-1.726199718446e-06 1.364640639189e-03 0.0 
0.0 0.0 -1.987362728011e-04 
-1.448517594688e-04 2.793135192776e-05 0.0 
2.793135192776e-05 9.587643079544e-04 0.0 
0.0 0.0 -1.450563315224e-04 
-9.484276981656e-05 -2.674005154729e-05 0.0 
-2.674005154729e-05 6.234132904817e-04 0.0 
0.0 0.0 -9.504591620249e-05 
-1.382279383007e-04 2.787393037444e-05 0.0 
2.787393037444e-05 9.097739666025e-04 0.0 
0.0 0.0 -1.381945852821e-04 
-9.142868377808e-05 2.725850192794e-05 0.0 
2.725850192794e-05 5.832477346610e-04 0.0 
0.0 0.0 -9.142251929394e-05 
-4.742959093977e-05 3.178494059526e-05 0.0 
3.178494059526e-05 2.793740196453e-04 0.0 
0.0 0.0 -4.740468724644e-05 
-8.571259270612e-05 2.828259101351e-05 0.0 
2.828259101351e-05 5.446684396391e-04 0.0 
0.0 0.0 -8.592027974235e-05 
-1.533744480417e-04 2.894142802439e-05 0.0 
2.894142802439e-05 1.015636410024e-03 0.0 
0.0 0.0 -1.535624635791e-04 
-1.726464644829e-04 -3.048637260420e-05 0.0 
-3.048637260420e-05 1.163840887987e-03 0.0 
0.0 0.0 -1.733086171842e-04 
-9.280503597506e-05 2.727322910805e-05 0.0 
2.727322910805e-05 5.925489514016e-04 0.0 
0.0 0.0 -9.272779504641e-05 
-1.556220947506e-04 2.834035430820e-05 0.0 
2.834035430820e-05 1.030951438499e-03 0.0 
0.0 0.0 -1.554407367389e-04 
0.0 0.0 0.0 
0.0 0.0 0.0 
0.0 0.0 0.0 
-9.414991845574e-05 2.689042394907e-05 0.0 
2.689042394907e-05 6.016400273679e-04 0.0 
0.0 0.0 -9.399423243866e-05 
-1.601427960654e-04 -3.089969489527e-05 0.0 
-3.089969489527e-05 1.075322883485e-03 0.0 
0.0 0.0 -1.599578041173e-04 
-8.403714033750e-05 2.869873894183e-05 0.0 
2.869873894183e-05 5.323289088036e-04 0.0 
0.0 0.0 -8.424104700772e-05 
-7.551475753824e-05 -2.649474593413e-05 0.0 
-2.649474593413e-05 4.894460977115e-04 0.0 
0.0 0.0 -7.579321247091e-05 
-1.378493770478e-04 -2.790966319756e-05 0.0 
-2.790966319756e-05 9.196714216363e-04 0.0 
0.0 0.0 -1.378141772466e-04 
-4.197657932346e-05 3.036843921012e-05 0.0 
3.036843921012e-05 2.488746108878e-04 0.0 
0.0 0.0 -4.469345153978e-05 
-6.356553012414e-05 -1.790556961603e-05 0.0 
-1.790556961603e-05 3.571998655218e-04 0.0 
0.0 0.0 -5.800805537475e-05 
-5.963646489739e-05 -2.697912930355e-05 0.0 
-2.697912930355e-05 4.061213774054e-04 0.0 
0.0 0.0 -6.293882513644e-05 
-7.444587698182e-05 2.773637856154e-05 0.0 
2.773637856154e-05 4.649609944167e-04 0.0 
0.0 0.0 -7.460064588462e-05 
-1.268907598115e-04 -2.860718727315e-05 0.0 
-2.860718727315e-05 8.433503837867e-04 0.0 
0.0 0.0 -1.266626700847e-04 
-1.224386685492e-04 2.875829832121e-05 0.0 
2.875829832121e-05 7.993143987396e-04 0.0 
0.0 0.0 -1.222099179032e-04 
-1.550707846259e-04 -3.021300247570e-05 0.0 
-3.021300247570e-05 1.039277942014e-03 0.0 
0.0 0.0 -1.550846054886e-04 
-1.832450820655e-04 1.991288128733e-05 0.0 
1.991288128733e-05 1.215795306098e-03 0.0 
0.0 0.0 -1.836391296960e-04 
-6.655985465225e-05 1.933551370614e-05 0.0 
1.933551370614e-05 4.236408710896e-04 0.0 
0.0 0.0 -6.856221390244e-05 
-1.539423275274e-04 -3.704467856056e-05 0.0 
-3.704467856056e-05 1.025688764769e-03 0.0 
0.0 0.0 -1.542931291103e-04 
-1.848510975897e-04 1.848398553320e-05 0.0 
1.848398553320e-05 1.219703446086e-03 0.0 
0.0 0.0 -1.842621829813e-04 
-8.571771551762e-05 2.855827741082e-05 0.0 
2.855827741082e-05 5.438756567258e-04 0.0 
0.0 0.0 -8.561402555334e-05 
-3.203347885951e-05 3.153292785458e-05 0.0 
3.153292785458e-05 1.785175093333e-04 0.0 
0.0 0.0 -3.288300492123e-05 
-7.987216545887e-05 -2.346764247849e-05 0.0 
-2.346764247849e-05 5.184929031400e-04 0.0 
0.0 0.0 -7.995251146095e-05 
-1.212808198145e-04 -2.827766812275e-05 0.0 
-2.827766812275e-05 8.042920459384e-04 0.0 
0.0 0.0 -1.212446555230e-04 
-1.571887129407e-04 2.934596798488e-05 0.0 
2.934596798488e-05 1.038696799089e-03 0.0 
0.0 0.0 -1.564536520703e-04 
-1.218972312950e-04 2.856394456649e-05 0.0 
2.856394456649e-05 7.946681320418e-04 0.0 
0.0 0.0 -1.216241541690e-04 
-3.687132775950e-05 -1.707295352198e-05 0.0 
-1.707295352198e-05 2.178919936982e-04 0.0 
0.0 0.0 -3.514573890614e-05 
-1.365304663594e-04 -3.020632721963e-05 0.0 
-3.020632721963e-05 9.106175701847e-04 0.0 
0.0 0.0 -1.364410292409e-04 
-5.340251844815e-05 3.227075763275e-05 0.0 
3.227075763275e-05 3.197704478175e-04 0.0 
0.0 0.0 -5.262769246444e-05 
-1.221027789088e-04 -2.890393133813e-05 0.0 
-2.890393133813e-05 8.084198513028e-04 0.0 
0.0 0.0 -1.218536047623e-04 
-1.315166503229e-04 3.036725150384e-05 0.0 
3.036725150384e-05 8.626782461118e-04 0.0 
0.0 0.0 -1.313414595827e-04 
-1.426434875643e-04 2.845461346825e-05 0.0 
2.845461346825e-05 9.398077750181e-04 0.0 
0.0 0.0 -1.423708775668e-04 
-1.391130870296e-04 -2.561595399108e-05 0.0 
-2.561595399108e-05 9.319163416573e-04 0.0 
0.0 0.0 -1.424111980137e-04 
-7.359597002428e-05 -2.624347751830e-05 0.0 
-2.624347751830e-05 4.769960883137e-04 0.0 
0.0 0.0 -7.400431453449e-05 
-3.726862459375e-05 2.779553031089e-05 0.0 
2.779553031089e-05 2.059200017464e-04 0.0 
0.0 0.0 -3.689331396917e-05 
-1.412883241773e-04 3.117267937368e-05 0.0 
3.117267937368e-05 9.320815795036e-04 0.0 
0.0 0.0 -1.412299401741e-04 
-5.695030605691e-05 2.980577594809e-05 0.0 
2.980577594809e-05 3.524536248651e-04 0.0 
0.0 0.0 -5.785728901387e-05 
-1.619887946569e-05 3.142044942513e-05 0.0 
3.142044942513e-05 6.578946746101e-05 0.0 
0.0 0.0 -1.807788326025e-05 
-1.825504858472e-04 2.573963131551e-05 0.0 
2.573963131551e-05 1.217305172889e-03 0.0 
0.0 0.0 -1.835083836816e-04 
-1.729233565602e-04 2.872122229116e-05 0.0 
2.872122229116e-05 1.159887577617e-03 0.0 
0.0 0.0 -1.736153457326e-04 
-1.409164917213e-05 -2.430425574027e-06 0.0 
-2.430425574027e-06 4.702851798331e-05 0.0 
0.0 0.0 -1.411580091908e-05 
-1.463665932977e-04 -3.126704961804e-05 0.0 
-3.126704961804e-05 9.787427797795e-04 0.0 
0.0 0.0 -1.463746444899e-04 
-5.845062236023e-05 -2.645214861765e-05 0.0 
-2.645214861765e-05 3.686249821293e-04 0.0 
0.0 0.0 -5.830856659963e-05 
-6.281564360845e-05 3.169608016734e-05 0.0 
3.169608016734e-05 3.841253318981e-04 0.0 
0.0 0.0 -6.293782921230e-05 
-1.650668794472e-04 2.900743383490e-05 0.0 
2.900743383490e-05 1.099051719168e-03 0.0 
0.0 0.0 -1.651106757487e-04 
-1.420507125182e-04 -2.816985865578e-05 0.0 
-2.816985865578e-05 9.486624777595e-04 0.0 
0.0 0.0 -1.420128425420e-04 
-1.597126278327e-04 2.832051794153e-05 0.0 
2.832051794153e-05 1.060784632571e-03 0.0 
0.0 0.0 -1.597282110823e-04 
-9.370204679761e-05 -2.720544142818e-05 0.0 
-2.720544142818e-05 6.123683048539e-04 0.0 
0.0 0.0 -9.358332744048e-05 
-1.060009958935e-04 3.119096932655e-06 0.0 
3.119096932655e-06 7.289348751363e-04 0.0 
0.0 0.0 -1.065887642422e-04 
-1.941219239478e-04 -5.797046838501e-06 0.0 
-5.797046838501e-06 1.266619729961e-03 0.0 
0.0 0.0 -1.922307546206e-04 
-5.313245642963e-05 3.042191767076e-05 0.0 
3.042191767076e-05 3.144966903172e-04 0.0 
0.0 0.0 -5.312725273094e-05 
-1.687809558173e-04 -2.631258109430e-05 0.0 
-2.631258109430e-05 1.128223470622e-03 0.0 
0.0 0.0 -1.681832374459e-04 
-1.273764443761e-04 -2.878158037897e-05 0.0 
-2.878158037897e-05 8.455758404914e-04 0.0 
0.0 0.0 -1.271565067773e-04 
-3.822255344261e-05 2.500156110728e-05 0.0 
2.500156110728e-05 2.364164359659e-04 0.0 
0.0 0.0 -4.338531818388e-05 
-1.526166386163e-04 2.805935182056e-05 0.0 
2.805935182056e-05 1.007602313688e-03 0.0 
0.0 0.0 -1.522749921841e-04 
-9.947746693308e-05 2.785738393031e-05 0.0 
2.785738393031e-05 6.395594624911e-04 0.0 
0.0 0.0 -9.942043292989e-05 
-2.527098467302e-05 3.065658406321e-06 0.0 
3.065658406321e-06 1.096951272292e-04 0.0 
0.0 0.0 -2.686452779226e-05 
-8.455323570062e-05 2.729291629105e-05 0.0 
2.729291629105e-05 5.361235094493e-04 0.0 
0.0 0.0 -8.448194383576e-05 
-1.482631539770e-04 2.903868462658e-05 0.0 
2.903868462658e-05 9.945552025979e-04 0.0 
0.0 0.0 -1.487312575846e-04 
-1.536438978435e-04 -2.997531100621e-05 0.0 
-2.997531100621e-05 1.028351940357e-03 0.0 
0.0 0.0 -1.531470540813e-04 
-4.003077281978e-05 -2.830715996030e-05 0.0 
-2.830715996030e-05 2.471369193857e-04 0.0 
0.0 0.0 -4.069786302508e-05 
-1.167976821101e-04 -1.770134624163e-05 0.0 
-1.770134624163e-05 8.139301953201e-04 0.0 
0.0 0.0 -1.211443205810e-04 
-1.611165232338e-04 2.978772478272e-05 0.0 
2.978772478272e-05 1.070172218379e-03 0.0 
0.0 0.0 -1.607673801326e-04 
-1.654344347163e-04 -2.702413096073e-05 0.0 
-2.702413096073e-05 1.117079121565e-03 0.0 
0.0 0.0 -1.664840065771e-04 
-8.012874751740e-05 2.708679385402e-05 0.0 
2.708679385402e-05 5.044541792441e-04 0.0 
0.0 0.0 -8.027607217676e-05 
-6.457567760665e-05 2.897485867730e-05 0.0 
2.897485867730e-05 3.931630492274e-04 0.0 
0.0 0.0 -6.500901228656e-05 
-1.319964825975e-04 2.994843719676e-05 0.0 
2.994843719676e-05 8.668112520758e-04 0.0 
0.0 0.0 -1.317940137408e-04 
-1.379973298544e-04 -3.231272729127e-05 0.0 
-3.231272729127e-05 9.176099760799e-04 0.0 
0.0 0.0 -1.391846276019e-04 
-2.511391392826e-05 -2.252014201736e-06 0.0 
-2.252014201736e-06 1.091572524748e-04 0.0 
0.0 0.0 -2.644390370036e-05 
-1.911173997413e-04 2.513512913456e-07 0.0 
2.513512913456e-07 1.307038771946e-03 0.0 
0.0 0.0 -1.903768894597e-04 
-1.947762233824e-04 2.804254327121e-06 0.0 
2.804254327121e-06 1.266513292292e-03 0.0 
0.0 0.0 -1.921796786394e-04 
-1.243941132727e-04 -2.875762744524e-05 0.0 
-2.875762744524e-05 8.122420463557e-04 0.0 
0.0 0.0 -1.258162180156e-04 
-1.867429468804e-04 -3.423015533406e-05 0.0 
-3.423015533406e-05 1.277419804644e-03 0.0 
0.0 0.0 -1.882556412575e-04 
-1.928393192665e-04 1.313739391776e-05 0.0 
1.313739391776e-05 1.270533835261e-03 0.0 
0.0 0.0 -1.928249870753e-04 
-9.825942552837e-05 2.769137061349e-05 0.0 
2.769137061349e-05 6.308847079493e-04 0.0 
0.0 0.0 -9.814123251155e-05 
-9.240950567659e-05 -2.688842748606e-05 0.0 
-2.688842748606e-05 6.034653479681e-04 0.0 
0.0 0.0 -9.230175702903e-05 
-1.924550016248e-04 -5.517505549700e-06 0.0 
-5.517505549700e-06 1.309202189480e-03 0.0 
0.0 0.0 -1.898303498781e-04 
0.0 0.0 0.0 
0.0 0.0 0.0 
0.0 0.0 0.0 
-5.986600181462e-05 3.134474346182e-05 0.0 
3.134474346182e-05 3.637594613067e-04 0.0 
0.0 0.0 -5.912561730725e-05 
-1.277191406744e-04 3.185114804781e-05 0.0 
3.185114804781e-05 8.113680378929e-04 0.0 
0.0 0.0 -1.249421346972e-04 
-7.954199844612e-05 -2.599168722282e-05 0.0 
-2.599168722282e-05 5.172406604270e-04 0.0 
0.0 0.0 -7.970319495692e-05 
-8.344577563047e-05 2.767374510833e-05 0.0 
2.767374510833e-05 5.269368746357e-04 0.0 
0.0 0.0 -8.320397106721e-05 
-5.123352415357e-05 -1.962082412885e-05 0.0 
-1.962082412885e-05 2.833973025222e-04 0.0 
0.0 0.0 -4.794777681703e-05 
-5.363517740645e-05 -2.722736862369e-05 0.0 
-2.722736862369e-05 3.397176592673e-04 0.0 
0.0 0.0 -5.292094912726e-05 
-1.229699465830e-04 -2.474218581881e-05 0.0 
-2.474218581881e-05 8.338820409090e-04 0.0 
0.0 0.0 -1.243503989146e-04 
-8.954054874187e-05 -2.810899154469e-05 0.0 
-2.810899154469e-05 5.833404363378e-04 0.0 
0.0 0.0 -8.944382273678e-05 
-6.985122537492e-05 2.547846832151e-05 0.0 
2.547846832151e-05 4.232868362094e-04 0.0 
0.0 0.0 -6.875210277632e-05 
-1.622986423916e-04 3.030474729067e-05 0.0 
3.030474729067e-05 1.075790270672e-03 0.0 
0.0 0.0 -1.616748170441e-04 
-1.970457297167e-04 -4.615350947610e-07 0.0 
-4.615350947610e-07 1.365353191212e-03 0.0 
0.0 0.0 -1.987468137814e-04 
-2.011643228250e-04 -1.059779547839e-05 0.0 
-1.059779547839e-05 1.364052595584e-03 0.0 
0.0 0.0 -1.980937377599e-04 
-9.693254618166e-05 2.783443467965e-05 0.0 
2.783443467965e-05 6.218009159431e-04 0.0 
0.0 0.0 -9.686140561256e-05 
-1.156312054849e-04 1.562675777246e-05 0.0 
1.562675777246e-05 7.473137010807e-04 0.0 
0.0 0.0 -1.181631233816e-04 
-1.315446083417e-05 9.267234980748e-06 0.0 
9.267234980748e-06 7.174483292748e-05 0.0 
0.0 0.0 -1.382283957119e-05 
-3.950432290439e-05 -3.304652588177e-05 0.0 
-3.304652588177e-05 2.232498512061e-04 0.0 
0.0 0.0 -3.848526569788e-05 
-4.026754611448e-05 -1.523950676683e-05 0.0 
-1.523950676683e-05 2.585395099571e-04 0.0 
0.0 0.0 -4.089435477168e-05 
-4.405717477573e-05 -2.840252196370e-05 0.0 
-2.840252196370e-05 2.593828358352e-04 0.0 
0.0 0.0 -4.353896887732e-05 
-1.369891124347e-04 -2.938640967182e-05 0.0 
-2.938640967182e-05 9.110848461242e-04 0.0 
0.0 0.0 -1.367406709454e-04 
-8.197230901988e-05 2.741985235272e-05 0.0 
2.741985235272e-05 5.176025942286e-04 0.0 
0.0 0.0 -8.189493801327e-05 
-8.833783776842e-05 -2.742859021068e-05 0.0 
-2.742859021068e-05 5.752104247670e-04 0.0 
0.0 0.0 -8.819787836180e-05 
-2.759805077317e-05 -2.177954618106e-05 0.0 
-2.177954618106e-05 1.516326812049e-04 0.0 
0.0 0.0 -2.410601229523e-05 
-1.783949706295e-04 4.652042299768e-06 0.0 
4.652042299768e-06 1.155328432911e-03 0.0 
0.0 0.0 -1.764490618968e-04 
-8.697929300319e-05 -2.712992243026e-05 0.0 
-2.712992243026e-05 5.660070619168e-04 0.0 
0.0 0.0 -8.689161518363e-05 
-1.811862770176e-04 2.958422209347e-05 0.0 
2.958422209347e-05 1.212546250600e-03 0.0 
0.0 0.0 -1.819436774484e-04 
-1.654326848783e-04 -2.150075195991e-05 0.0 
-2.150075195991e-05 1.111682717818e-03 0.0 
0.0 0.0 -1.676190675002e-04 
-1.990579489887e-04 7.558524711792e-06 0.0 
7.558524711792e-06 1.367618541641e-03 0.0 
0.0 0.0 -1.979127976728e-04 
-1.984740657803e-04 6.169813976071e-06 0.0 
6.169813976071e-06 1.366684838106e-03 0.0 
0.0 0.0 -1.987274449783e-04 
-1.264382104229e-04 2.327908082404e-05 0.0 
2.327908082404e-05 8.335131054815e-04 0.0 
0.0 0.0 -1.247270797671e-04 
-9.081273998971e-05 -2.642393334738e-05 0.0 
-2.642393334738e-05 5.943836386239e-04 0.0 
0.0 0.0 -9.095240399918e-05 
-5.659837629473e-05 2.310276724227e-05 0.0 
2.310276724227e-05 3.554825826269e-04 0.0 
0.0 0.0 -5.827376162698e-05 
-9.543789626242e-05 2.821234483008e-05 0.0 
2.821234483008e-05 6.121934733358e-04 0.0 
0.0 0.0 -9.551854370315e-05 
-2.014992525440e-04 -3.363348043907e-06 0.0 
-3.363348043907e-06 1.330768717372e-03 0.0 
0.0 0.0 -2.014992525440e-04 
-2.911856940717e-05 -3.120254985375e-05 0.0 
-3.120254985375e-05 1.523266154115e-04 0.0 
0.0 0.0 -2.840051313461e-05 
-3.367815072839e-05 -2.539476975202e-05 0.0 
-2.539476975202e-05 1.888854888445e-04 0.0 
0.0 0.0 -3.342821812567e-05 
-1.750673059660e-04 -2.242675268741e-05 0.0 
-2.242675268741e-05 1.168754862597e-03 0.0 
0.0 0.0 -1.734041932760e-04 
-1.140629508000e-04 1.641024004697e-06 0.0 
1.641024004697e-06 7.886218254393e-04 0.0 
0.0 0.0 -1.157284414847e-04 
-1.828276393895e-04 3.087967014604e-05 0.0 
3.087967014604e-05 1.221678860241e-03 0.0 
0.0 0.0 -1.828919613360e-04 
-1.607219730026e-04 -3.054484747269e-05 0.0 
-3.054484747269e-05 1.076626864861e-03 0.0 
0.0 0.0 -1.604417944905e-04 
-1.759974315114e-04 2.950983775753e-05 0.0 
2.950983775753e-05 1.175337678647e-03 0.0 
0.0 0.0 -1.762554578086e-04 
-1.677687622884e-04 -3.310916950601e-05 0.0 
-3.310916950601e-05 1.126220187005e-03 0.0 
0.0 0.0 -1.670365378361e-04 
-1.261810872000e-04 2.733892666963e-05 0.0 
2.733892666963e-05 8.227216474371e-04 0.0 
0.0 0.0 -1.281412631256e-04 
-6.984160407426e-05 -2.569852845702e-05 0.0 
-2.569852845702e-05 4.502664572317e-04 0.0 
0.0 0.0 -7.011576570921e-05 
-7.045526019658e-05 2.772076042237e-05 0.0 
2.772076042237e-05 4.380896674180e-04 0.0 
0.0 0.0 -7.073545507566e-05 
-1.466548664850e-04 2.792940741624e-05 0.0 
2.792940741624e-05 9.823660011168e-04 0.0 
0.0 0.0 -1.494458990106e-04 
-1.706023771645e-04 -3.477697252798e-05 0.0 
-3.477697252798e-05 1.150206027511e-03 0.0 
0.0 0.0 -1.713759566437e-04 
-1.085001106667e-04 5.928666841059e-06 0.0 
5.928666841059e-06 6.853690661460e-04 0.0 
0.0 0.0 -1.101783339608e-04 
-1.150649004483e-04 1.412858253897e-06 0.0 
1.412858253897e-06 7.864362268725e-04 0.0 
0.0 0.0 -1.151410349708e-04 
-1.223216217609e-04 -9.643435354381e-06 0.0 
-9.643435354381e-06 8.365929199838e-04 0.0 
0.0 0.0 -1.236345454383e-04 
-1.294729616351e-04 -3.600365409418e-05 0.0 
-3.600365409418e-05 8.499666954327e-04 0.0 
0.0 0.0 -1.270110218628e-04 
-3.781341392471e-05 2.507622857635e-05 0.0 
2.507622857635e-05 2.052845259731e-04 0.0 
0.0 0.0 -3.595854163006e-05 
-6.458682171984e-05 2.659164458955e-05 0.0 
2.659164458955e-05 3.972184272214e-04 0.0 
0.0 0.0 -6.502768632134e-05 
-1.923886982600e-04 1.320998767323e-05 0.0 
1.320998767323e-05 1.306937799646e-03 0.0 
0.0 0.0 -1.903965550180e-04 
-1.361980047059e-04 -3.247265742576e-05 0.0 
-3.247265742576e-05 9.100748945017e-04 0.0 
0.0 0.0 -1.372586556570e-04 
-1.944603101426e-04 2.205610195430e-05 0.0 
2.205610195430e-05 1.300606094326e-03 0.0 
0.0 0.0 -1.942983085767e-04 
-1.827075834453e-04 -2.487186144062e-05 0.0 
-2.487186144062e-05 1.245028194062e-03 0.0 
0.0 0.0 -1.823366321910e-04 
-1.526241956249e-04 -2.882515710348e-05 0.0 
-2.882515710348e-05 1.018355065020e-03 0.0 
0.0 0.0 -1.518848343264e-04 
-1.838055376607e-04 -2.220867482896e-05 0.0 
-2.220867482896e-05 1.227930453973e-03 0.0 
0.0 0.0 -1.822360600334e-04 
-9.189141723329e-05 2.249896247985e-05 0.0 
2.249896247985e-05 5.929179490977e-04 0.0 
0.0 0.0 -9.456744988920e-05 
-8.923687427635e-05 2.330452976089e-05 0.0 
2.330452976089e-05 5.640846174988e-04 0.0 
0.0 0.0 -8.500284120953e-05 
-1.860377161479e-04 2.101899850403e-05 0.0 
2.101899850403e-05 1.219211786622e-03 0.0 
0.0 0.0 -1.840276857211e-04 
-1.302266885565e-05 9.542950408396e-06 0.0 
9.542950408396e-06 4.432884133333e-05 0.0 
0.0 0.0 -1.341693106186e-05 
-5.991703112053e-05 -9.650650547908e-06 0.0 
-9.650650547908e-06 3.995700475142e-04 0.0 
0.0 0.0 -6.107461134110e-05 
-2.013608632250e-04 -1.747935064147e-06 0.0 
-1.747935064147e-06 1.327091793787e-03 0.0 
0.0 0.0 -2.013608632250e-04 
-3.423275746668e-05 -2.897869870394e-05 0.0 
-2.897869870394e-05 1.741934079208e-04 0.0 
0.0 0.0 -3.398704224317e-05 
-1.166987184465e-04 3.376260708005e-06 0.0 
3.376260708005e-06 7.464150060637e-04 0.0 
0.0 0.0 -1.180517715949e-04 
-1.852951862543e-04 -6.895901531864e-06 0.0 
-6.895901531864e-06 1.252882415007e-03 0.0 
0.0 0.0 -1.820192905179e-04 
-2.189567273794e-05 2.107266617838e-05 0.0 
2.107266617838e-05 1.234442803628e-04 0.0 
0.0 0.0 -2.343543478003e-05 
-1.465373239062e-05 -6.700273643796e-06 0.0 
-6.700273643796e-06 8.151640789741e-05 0.0 
0.0 0.0 -1.499806864391e-05 
-1.979646109231e-04 -1.647947049056e-05 0.0 
-1.647947049056e-05 1.362929175419e-03 0.0 
0.0 0.0 -1.986584787576e-04 
-1.077110760694e-04 1.347870292468e-05 0.0 
1.347870292468e-05 6.884288505410e-04 0.0 
0.0 0.0 -1.094181415373e-04 
-1.878064882795e-04 3.303246132633e-05 0.0 
3.303246132633e-05 1.280874072015e-03 0.0 
0.0 0.0 -1.892127523904e-04 
-1.872574646803e-04 1.669387870556e-06 0.0 
1.669387870556e-06 1.214710811889e-03 0.0 
0.0 0.0 -1.847787516803e-04 
-1.081384153803e-04 -8.265982315710e-06 0.0 
-8.265982315710e-06 6.863175329085e-04 0.0 
0.0 0.0 -1.093391956339e-04 
-1.183108474329e-05 -1.526745450730e-06 0.0 
-1.526745450730e-06 8.288041116295e-05 0.0 
0.0 0.0 -1.461037633882e-05 
-1.928461778371e-04 -1.450363078147e-05 0.0 
-1.450363078147e-05 1.269631515360e-03 0.0 
0.0 0.0 -1.926211076318e-04 
-3.664328028393e-05 -3.474192895717e-05 0.0 
-3.474192895717e-05 2.008554549357e-04 0.0 
0.0 0.0 -3.650318340572e-05 
-1.865092181227e-04 1.872239000524e-05 0.0 
1.872239000524e-05 1.228864859043e-03 0.0 
0.0 0.0 -1.848276476440e-04 
-2.014642658289e-04 -8.318866801388e-08 0.0 
-8.318866801388e-08 1.329164711416e-03 0.0 
0.0 0.0 -2.014642658289e-04 
-1.863725232052e-04 -2.215017484820e-05 0.0 
-2.215017484820e-05 1.224672282405e-03 0.0 
0.0 0.0 -1.838550531888e-04 
-4.579760219593e-05 2.993393437161e-05 0.0 
2.993393437161e-05 2.630911927245e-04 0.0 
0.0 0.0 -4.567146191493e-05 
-1.231376912533e-04 3.302421736628e-06 0.0 
3.302421736628e-06 8.455036824614e-04 0.0 
0.0 0.0 -1.241871602230e-04 
-9.897320674459e-05 -1.982042870943e-05 0.0 
-1.982042870943e-05 6.300759750379e-04 0.0 
0.0 0.0 -9.407984802336e-05 
-1.609514246157e-04 -3.024200816091e-05 0.0 
-3.024200816091e-05 1.078541844928e-03 0.0 
0.0 0.0 -1.616399041023e-04 
-1.984206323310e-04 -1.383870975889e-05 0.0 
-1.383870975889e-05 1.364918109129e-03 0.0 
0.0 0.0 -1.990496603105e-04 
-1.603101285724e-04 1.893623053607e-05 0.0 
1.893623053607e-05 1.069942872822e-03 0.0 
0.0 0.0 -1.592422372747e-04 
-2.006038303863e-04 1.656223959945e-05 0.0 
1.656223959945e-05 1.363483438763e-03 0.0 
0.0 0.0 -1.988805961512e-04 
-2.157799468526e-05 2.675018284335e-05 0.0 
2.675018284335e-05 1.121671203490e-04 0.0 
0.0 0.0 -2.573693149021e-05 
-1.906849838871e-04 -1.873571465641e-05 0.0 
-1.873571465641e-05 1.306053010621e-03 0.0 
0.0 0.0 -1.916484765783e-04 
-5.146266627946e-05 1.897216913104e-05 0.0 
1.897216913104e-05 3.060778228498e-04 0.0 
0.0 0.0 -5.033941334868e-05 
-3.400990015803e-05 1.312678026193e-05 0.0 
1.312678026193e-05 1.676110055634e-04 0.0 
0.0 0.0 -3.447177322316e-05 
-1.921352674404e-04 -1.514543928923e-05 0.0 
-1.514543928923e-05 1.307880338866e-03 0.0 
0.0 0.0 -1.905503066306e-04 
-1.903818942750e-04 -8.555148187785e-06 0.0 
-8.555148187785e-06 1.309224873111e-03 0.0 
0.0 0.0 -1.905905039252e-04 
-1.935313273260e-04 -2.488564283104e-05 0.0 
-2.488564283104e-05 1.299799287321e-03 0.0 
0.0 0.0 -1.934776258129e-04 
-1.157635836836e-04 3.075917002700e-05 0.0 
3.075917002700e-05 7.564878727472e-04 0.0 
0.0 0.0 -1.164394980702e-04 
-1.278320406392e-04 3.003959765809e-05 0.0 
3.003959765809e-05 8.242995150328e-04 0.0 
0.0 0.0 -1.273429404365e-04 
-4.747607610046e-05 -3.167630139555e-05 0.0 
-3.167630139555e-05 2.832612339686e-04 0.0 
0.0 0.0 -4.701750159920e-05 
-1.893682873149e-04 -1.213845527048e-05 0.0 
-1.213845527048e-05 1.308095530746e-03 0.0 
0.0 0.0 -1.909562210215e-04 
-7.758444785249e-05 2.579970670889e-05 0.0 
2.579970670889e-05 5.061981746731e-04 0.0 
0.0 0.0 -8.036225567980e-05 
-2.672886924063e-05 -2.537961056617e-05 0.0 
-2.537961056617e-05 1.614624818245e-04 0.0 
0.0 0.0 -3.171414542872e-05 
-1.655918154031e-04 2.787053237580e-05 0.0 
2.787053237580e-05 1.112934476303e-03 0.0 
0.0 0.0 -1.665212293607e-04 
-1.050972551552e-04 -3.025884205917e-06 0.0 
-3.025884205917e-06 7.225874036591e-04 0.0 
0.0 0.0 -1.064449299410e-04 
-1.855125743211e-04 2.284061724598e-05 0.0 
2.284061724598e-05 1.238197266214e-03 0.0 
0.0 0.0 -1.856594579394e-04 
-1.969980593816e-04 -2.792765841710e-05 0.0 
-2.792765841710e-05 1.348466243731e-03 0.0 
0.0 0.0 -1.982264973081e-04 
-2.015598306414e-04 -1.228437926459e-06 0.0 
-1.228437926459e-06 1.329727235481e-03 0.0 
0.0 0.0 -2.015598306414e-04 
-3.170965654814e-06 -9.174846607934e-06 0.0 
-9.174846607934e-06 3.186703010945e-05 0.0 
0.0 0.0 -6.440169358563e-06 
-2.054361880700e-06 8.524325078712e-06 0.0 
8.524325078712e-06 1.000738199139e-05 0.0 
0.0 0.0 -3.408437190294e-06 
-1.090415563488e-04 -2.544674541070e-05 0.0 
-2.544674541070e-05 7.025551525996e-04 0.0 
0.0 0.0 -1.097735026919e-04 
-1.102790978540e-04 4.096896239264e-06 0.0 
4.096896239264e-06 7.242490524547e-04 0.0 
0.0 0.0 -1.064401693586e-04 
-2.015598306414e-04 1.769844580753e-06 0.0 
1.769844580753e-06 1.328559462674e-03 0.0 
0.0 0.0 -2.015598306414e-04 
-1.964566527274e-04 2.745948387429e-05 0.0 
2.745948387429e-05 1.347766645467e-03 0.0 
0.0 0.0 -1.982264973081e-04 
-1.175853557175e-05 2.296138750723e-05 0.0 
2.296138750723e-05 7.476526502358e-05 0.0 
0.0 0.0 -1.468179278604e-05 
0.0 0.0 0.0 
0.0 0.0 0.0 
0.0 0.0 0.0 
-1.860643112087e-04 1.892522092608e-05 0.0 
1.892522092608e-05 1.220604956089e-03 0.0 
0.0 0.0 -1.845272605536e-04 
-1.810613338557e-04 3.690531828789e-05 0.0 
3.690531828789e-05 1.227609320804e-03 0.0 
0.0 0.0 -1.814046177210e-04 
-3.775454928550e-05 -2.192142162525e-05 0.0 
-2.192142162525e-05 2.530653962175e-04 0.0 
0.0 0.0 -4.069012186385e-05 
-1.867893258397e-04 -1.967907292950e-05 0.0 
-1.967907292950e-05 1.242445273872e-03 0.0 
0.0 0.0 -1.860287822001e-04 
-1.322273957044e-04 -7.821980177849e-06 0.0 
-7.821980177849e-06 8.613081851453e-04 0.0 
0.0 0.0 -1.333256398531e-04 
-1.174513720599e-04 -2.922099993004e-05 0.0 
-2.922099993004e-05 7.623791286875e-04 0.0 
0.0 0.0 -1.141619444601e-04 
-1.434157263431e-04 1.469820453960e-05 0.0 
1.469820453960e-05 9.640681819544e-04 0.0 
0.0 0.0 -1.410117391569e-04 
-3.721642999109e-05 2.244542666226e-05 0.0 
2.244542666226e-05 2.273693429633e-04 0.0 
0.0 0.0 -3.939304728150e-05 
-1.516361842959e-04 -3.045658684071e-05 0.0 
-3.045658684071e-05 1.014390478774e-03 0.0 
0.0 0.0 -1.517486197524e-04 
-3.145165589743e-05 4.872235620209e-06 0.0 
4.872235620209e-06 2.090450929269e-04 0.0 
0.0 0.0 -3.272226055558e-05 
-1.018895751593e-04 -2.838951770175e-05 0.0 
-2.838951770175e-05 6.787429923759e-04 0.0 
0.0 0.0 -1.049612269729e-04 
-1.842198203986e-04 1.688848171670e-05 0.0 
1.688848171670e-05 1.232258602772e-03 0.0 
0.0 0.0 -1.860778644041e-04 
-1.784559347742e-04 -3.196727202869e-05 0.0 
-3.196727202869e-05 1.203750059331e-03 0.0 
0.0 0.0 -1.787589168632e-04 
-1.106507503052e-04 1.655731803460e-05 0.0 
1.655731803460e-05 7.326885674445e-04 0.0 
0.0 0.0 -1.153641303439e-04 
-1.319245288081e-04 -2.759428203750e-05 0.0 
-2.759428203750e-05 8.842042796758e-04 0.0 
0.0 0.0 -1.311848925397e-04 
-1.849952147230e-04 1.224005731978e-05 0.0 
1.224005731978e-05 1.253709795229e-03 0.0 
0.0 0.0 -1.825679017964e-04 
-1.712361580956e-04 -3.249029055204e-05 0.0 
-3.249029055204e-05 1.152848638026e-03 0.0 
0.0 0.0 -1.711417214974e-04 
-1.621790656513e-04 -3.130066982025e-05 0.0 
-3.130066982025e-05 1.085309995837e-03 0.0 
0.0 0.0 -1.614640498619e-04 
-1.095991344629e-04 1.548110486480e-06 0.0 
1.548110486480e-06 6.849847840864e-04 0.0 
0.0 0.0 -1.096818516252e-04 
-1.466797614329e-04 -3.177988380746e-05 0.0 
-3.177988380746e-05 9.793946946613e-04 0.0 
0.0 0.0 -1.464567251102e-04 
-1.856217654582e-04 1.836261976242e-05 0.0 
1.836261976242e-05 1.223913084915e-03 0.0 
0.0 0.0 -1.847107394661e-04 
-6.401317792094e-05 1.777757210555e-05 0.0 
1.777757210555e-05 3.770292953028e-04 0.0 
0.0 0.0 -6.251951766002e-05 
-1.488249501970e-05 -6.661613433420e-06 0.0 
-6.661613433420e-06 9.049355169821e-05 0.0 
0.0 0.0 -1.522736731176e-05 
-1.794781203063e-04 -2.177148621612e-05 0.0 
-2.177148621612e-05 1.190948333360e-03 0.0 
0.0 0.0 -1.778962838413e-04 
-1.689754393540e-04 2.666341982877e-05 0.0 
2.666341982877e-05 1.121590302909e-03 0.0 
0.0 0.0 -1.685307334786e-04 
-3.117516894872e-05 -1.620379493923e-05 0.0 
-1.620379493923e-05 1.675088401558e-04 0.0 
0.0 0.0 -3.460570515138e-05 
-1.490209525484e-04 -2.398959439852e-05 0.0 
-2.398959439852e-05 1.009624786866e-03 0.0 
0.0 0.0 -1.484000725648e-04 
-1.941728230886e-04 -6.317229650202e-06 0.0 
-6.317229650202e-06 1.268109449836e-03 0.0 
0.0 0.0 -1.924109378829e-04 
-1.782640686020e-04 1.811418483105e-05 0.0 
1.811418483105e-05 1.176788769021e-03 0.0 
0.0 0.0 -1.773110165667e-04 
-1.844275111855e-04 -4.383617168842e-06 0.0 
-4.383617168842e-06 1.252791151838e-03 0.0 
0.0 0.0 -1.822694409164e-04 
-1.426350801095e-04 -3.166405234979e-05 0.0 
-3.166405234979e-05 9.429700556337e-04 0.0 
0.0 0.0 -1.430568974379e-04 
-1.367048638434e-05 7.547793984128e-06 0.0 
7.547793984128e-06 4.809613176051e-05 0.0 
0.0 0.0 -1.475384801836e-05 
-4.817205637438e-05 1.518979907033e-05 0.0 
1.518979907033e-05 2.815959802160e-04 0.0 
0.0 0.0 -4.818665537949e-05 
-5.802518359896e-05 -3.237118775929e-05 0.0 
-3.237118775929e-05 3.560287674836e-04 0.0 
0.0 0.0 -5.751524148975e-05 
-1.222811217371e-04 4.923148903369e-06 0.0 
4.923148903369e-06 8.049151145100e-04 0.0 
0.0 0.0 -1.270714490912e-04 
-1.466466955193e-04 3.242901086422e-05 0.0 
3.242901086422e-05 9.717833108994e-04 0.0 
0.0 0.0 -1.467240436239e-04 
-1.865030099579e-04 -2.458316919408e-05 0.0 
-2.458316919408e-05 1.244081238438e-03 0.0 
0.0 0.0 -1.854811886535e-04 
-1.924470582108e-04 1.025180310993e-05 0.0 
1.025180310993e-05 1.267008412016e-03 0.0 
0.0 0.0 -1.923487814140e-04 
-2.301609062590e-05 -4.635179033559e-06 0.0 
-4.635179033559e-06 1.491120452597e-04 0.0 
0.0 0.0 -2.371590567936e-05 
-2.273962015617e-05 8.021387614827e-06 0.0 
8.021387614827e-06 1.424948937247e-04 0.0 
0.0 0.0 -2.307420961409e-05 
-3.644996023323e-05 3.054667220110e-05 0.0 
3.054667220110e-05 2.219148594571e-04 0.0 
0.0 0.0 -3.877784743978e-05 
-1.505507532998e-04 4.198429125548e-05 0.0 
4.198429125548e-05 1.006744199268e-03 0.0 
0.0 0.0 -1.528863196834e-04 
-7.623962459717e-05 -2.731195048099e-05 0.0 
-2.731195048099e-05 4.837899918121e-04 0.0 
0.0 0.0 -7.429924588525e-05 
-1.863524508622e-04 -2.262089027383e-05 0.0 
-2.262089027383e-05 1.249803366509e-03 0.0 
0.0 0.0 -1.861947641336e-04 
-3.704741075814e-05 -2.601020683146e-05 0.0 
-2.601020683146e-05 2.394628484622e-04 0.0 
0.0 0.0 -3.935861431135e-05 
-1.838103394031e-04 1.452656825211e-05 0.0 
1.452656825211e-05 1.213648829434e-03 0.0 
0.0 0.0 -1.831728902790e-04 
-1.220456595190e-04 2.683931147050e-05 0.0 
2.683931147050e-05 8.169008266022e-04 0.0 
0.0 0.0 -1.251559851210e-04 
-1.901741937142e-04 2.069168076259e-07 0.0 
2.069168076259e-07 1.274360012601e-03 0.0 
0.0 0.0 -1.930223408588e-04 
-1.664726505804e-04 -3.515055495158e-05 0.0 
-3.515055495158e-05 1.122391429995e-03 0.0 
0.0 0.0 -1.666682952710e-04 
-1.230362842828e-04 -1.324599728564e-05 0.0 
-1.324599728564e-05 8.068584181325e-04 0.0 
0.0 0.0 -1.269771275557e-04 
-1.906319308292e-04 -7.278184392237e-06 0.0 
-7.278184392237e-06 1.308928167031e-03 0.0 
0.0 0.0 -1.903713883127e-04 
-1.924018578301e-04 1.168444968946e-05 0.0 
1.168444968946e-05 1.309753043894e-03 0.0 
0.0 0.0 -1.909090898364e-04 
-1.885954729481e-04 9.336154218136e-06 0.0 
9.336154218136e-06 1.306961112302e-03 0.0 
0.0 0.0 -1.907009018511e-04 
-2.601124528020e-05 2.982465109597e-05 0.0 
2.982465109597e-05 1.494137909599e-04 0.0 
0.0 0.0 -2.872079986757e-05 
-1.827342744304e-04 2.617845691474e-05 0.0 
2.617845691474e-05 1.218950538624e-03 0.0 
0.0 0.0 -1.827464329712e-04 
-1.931535913243e-04 4.402691257463e-06 0.0 
4.402691257463e-06 1.267632643707e-03 0.0 
0.0 0.0 -1.929967939697e-04 
-1.822938180470e-04 -1.572479834584e-05 0.0 
-1.572479834584e-05 1.239626265032e-03 0.0 
0.0 0.0 -1.817603729293e-04 
-1.697190279031e-04 3.374893720717e-05 0.0 
3.374893720717e-05 1.140711286613e-03 0.0 
0.0 0.0 -1.714881096122e-04 
-2.013997750954e-04 3.693939357452e-06 0.0 
3.693939357452e-06 1.326398449399e-03 0.0 
0.0 0.0 -2.013997750954e-04 
-1.623768653750e-04 3.145458215279e-05 0.0 
3.145458215279e-05 1.075477552169e-03 0.0 
0.0 0.0 -1.618597882954e-04 
0.0 0.0 0.0 
0.0 0.0 0.0 
0.0 0.0 0.0 
-3.901664739789e-05 -3.107536671977e-05 0.0 
-3.107536671977e-05 2.123759730741e-04 0.0 
0.0 0.0 -3.635714225545e-05 
-1.788762468223e-04 -2.668815126998e-05 0.0 
-2.668815126998e-05 1.194169313249e-03 0.0 
0.0 0.0 -1.765404546707e-04 
-1.302843948315e-04 2.373413498694e-05 0.0 
2.373413498694e-05 8.753673031711e-04 0.0 
0.0 0.0 -1.332692038199e-04 
-1.814833852286e-04 -2.932987962222e-05 0.0 
-2.932987962222e-05 1.228315456518e-03 0.0 
0.0 0.0 -1.832991189648e-04 
-1.755755594055e-04 -3.314975176265e-05 0.0 
-3.314975176265e-05 1.186338389567e-03 0.0 
0.0 0.0 -1.765514316642e-04 
-1.922058959132e-04 -7.323986232709e-06 0.0 
-7.323986232709e-06 1.275540875639e-03 0.0 
0.0 0.0 -1.938374750990e-04 
-1.590886801341e-04 3.535348640505e-05 0.0 
3.535348640505e-05 1.086454937064e-03 0.0 
0.0 0.0 -1.628282188246e-04 
-1.943136192193e-04 -2.017280466187e-06 0.0 
-2.017280466187e-06 1.274660348820e-03 0.0 
0.0 0.0 -1.933460184500e-04 
-1.860409899402e-04 -2.465939863213e-05 0.0 
-2.465939863213e-05 1.243243537266e-03 0.0 
0.0 0.0 -1.849983659001e-04 
-1.854493454621e-04 2.521523578023e-05 0.0 
2.521523578023e-05 1.237363143253e-03 0.0 
0.0 0.0 -1.852565349593e-04 
-7.800610219477e-05 -1.750136496523e-05 0.0 
-1.750136496523e-05 5.077823231346e-04 0.0 
0.0 0.0 -7.657446018549e-05 
-1.940082963474e-04 -3.011324743449e-06 0.0 
-3.011324743449e-06 1.367135927910e-03 0.0 
0.0 0.0 -1.988462912301e-04 
-1.122847898646e-04 2.150658952301e-06 0.0 
2.150658952301e-06 7.831127334676e-04 0.0 
0.0 0.0 -1.149322996356e-04 
-1.805030425337e-04 -2.769681372488e-05 0.0 
-2.769681372488e-05 1.229209747324e-03 0.0 
0.0 0.0 -1.826109592864e-04 
-2.210772205688e-05 -1.141237861015e-05 0.0 
-1.141237861015e-05 1.058730840806e-04 0.0 
0.0 0.0 -2.642964691976e-05 
-1.709643782764e-04 -1.864471641412e-05 0.0 
-1.864471641412e-05 1.187155150464e-03 0.0 
0.0 0.0 -1.744803730939e-04 
-1.477070854664e-04 -4.391729024467e-06 0.0 
-4.391729024467e-06 1.020449993757e-03 0.0 
0.0 0.0 -1.488920056885e-04 
-2.536340853786e-05 -1.617904342885e-05 0.0 
-1.617904342885e-05 1.410312003150e-04 0.0 
0.0 0.0 -2.442930455436e-05 
-4.478297823031e-05 -3.360325145203e-05 0.0 
-3.360325145203e-05 2.463363294936e-04 0.0 
0.0 0.0 -4.105386472454e-05 
-1.667572652522e-04 3.269260421942e-05 0.0 
3.269260421942e-05 1.106671823298e-03 0.0 
0.0 0.0 -1.661371793467e-04 
-1.939345119211e-04 -2.917973958076e-06 0.0 
-2.917973958076e-06 1.271284650607e-03 0.0 
0.0 0.0 -1.928053293992e-04 
-1.848839491830e-04 -2.511864242369e-05 0.0 
-2.511864242369e-05 1.245193806993e-03 0.0 
0.0 0.0 -1.835875952628e-04 
-1.881692614413e-04 3.512850772842e-05 0.0 
3.512850772842e-05 1.283926120996e-03 0.0 
0.0 0.0 -1.897169183402e-04 
-1.319951739136e-04 3.692265338647e-05 0.0 
3.692265338647e-05 8.669086104393e-04 0.0 
0.0 0.0 -1.321134885410e-04 
-1.418897775030e-05 -1.383603751222e-06 0.0 
-1.383603751222e-06 8.390464903167e-05 0.0 
0.0 0.0 -1.533750852324e-05 
-1.776342507387e-05 2.898590661281e-05 0.0 
2.898590661281e-05 1.254111435077e-04 0.0 
0.0 0.0 -2.291448659297e-05 
-2.228661035164e-05 3.086208171882e-05 0.0 
3.086208171882e-05 7.414588274207e-05 0.0 
0.0 0.0 -1.893168834827e-05 
-2.834935998913e-05 -2.581094466031e-05 0.0 
-2.581094466031e-05 1.798484559935e-04 0.0 
0.0 0.0 -3.120083896163e-05 
-3.619195444299e-06 1.726688320319e-05 0.0 
1.726688320319e-05 1.889854846973e-05 0.0 
0.0 0.0 -6.548294153755e-06 
-9.846508312271e-05 1.947611327116e-05 0.0 
1.947611327116e-05 6.774458586389e-04 0.0 
0.0 0.0 -1.012995679080e-04 
-1.809123785598e-04 2.900682068589e-05 0.0 
2.900682068589e-05 1.227040363573e-03 0.0 
0.0 0.0 -1.833458990909e-04 
-1.833994977543e-04 2.630052083884e-05 0.0 
2.630052083884e-05 1.234115337032e-03 0.0 
0.0 0.0 -1.834249670905e-04 
-1.300388728735e-04 -2.726917383980e-05 0.0 
-2.726917383980e-05 8.766264197221e-04 0.0 
0.0 0.0 -1.323946974752e-04 
-9.060072859628e-05 -4.107401100024e-05 0.0 
-4.107401100024e-05 5.837911416729e-04 0.0 
0.0 0.0 -8.982794765771e-05 
-1.833530943830e-04 -2.415896483629e-05 0.0 
-2.415896483629e-05 1.239029730488e-03 0.0 
0.0 0.0 -1.831601862249e-04 
-1.805620370494e-04 3.417310065365e-05 0.0 
3.417310065365e-05 1.228469068547e-03 0.0 
0.0 0.0 -1.813053981465e-04 
-1.918538788466e-04 1.314902849118e-05 0.0 
1.314902849118e-05 1.311238991232e-03 0.0 
0.0 0.0 -1.908378613718e-04 
-1.864057830892e-04 -5.544571809970e-06 0.0 
-5.544571809970e-06 1.222330684115e-03 0.0 
0.0 0.0 -1.856133406407e-04 
-1.761014518088e-04 2.982850443616e-05 0.0 
2.982850443616e-05 1.172453916966e-03 0.0 
0.0 0.0 -1.756848094018e-04 
-2.508081297429e-05 1.384675978348e-05 0.0 
1.384675978348e-05 1.057075733602e-04 0.0 
0.0 0.0 -2.599564028619e-05 
-1.693383348172e-05 -2.312304690448e-05 0.0 
-2.312304690448e-05 1.227259030012e-04 0.0 
0.0 0.0 -2.162456296189e-05 
-1.849301832798e-04 -2.375114059264e-05 0.0 
-2.375114059264e-05 1.241181941517e-03 0.0 
0.0 0.0 -1.835494310512e-04 
-2.714207379428e-05 4.098769542459e-06 0.0 
4.098769542459e-06 1.072549946886e-04 0.0 
0.0 0.0 -2.642284971932e-05 
-3.135918366895e-05 4.019659049340e-05 0.0 
4.019659049340e-05 1.551282952784e-04 0.0 
0.0 0.0 -2.899999999997e-05 
-2.063383903873e-05 2.842818060864e-05 0.0 
2.842818060864e-05 9.408870534127e-05 0.0 
0.0 0.0 -2.215380543414e-05 
-2.425090272541e-05 -2.758476542693e-05 0.0 
-2.758476542693e-05 1.189291029536e-04 0.0 
0.0 0.0 -2.370445218759e-05 
-1.950651601912e-04 -1.537310237432e-06 0.0 
-1.537310237432e-06 1.272610956963e-03 0.0 
0.0 0.0 -1.932856728082e-04 
-1.944294159836e-04 -1.137183943863e-05 0.0 
-1.137183943863e-05 1.275116374494e-03 0.0 
0.0 0.0 -1.935170455059e-04 
-1.886696034913e-04 2.831262697735e-05 0.0 
2.831262697735e-05 1.244837435708e-03 0.0 
0.0 0.0 -1.855361636489e-04 
-1.959472726026e-04 1.351216089970e-08 0.0 
1.351216089970e-08 1.278564115673e-03 0.0 
0.0 0.0 -1.938907836251e-04 
-1.787271859105e-04 -2.284872940721e-05 0.0 
-2.284872940721e-05 1.187153147202e-03 0.0 
0.0 0.0 -1.765318707366e-04 
-1.351456084785e-04 3.971362658995e-05 0.0 
3.971362658995e-05 9.093020497765e-04 0.0 
0.0 0.0 -1.375519566527e-04 
-2.017604167332e-04 -1.836539241269e-06 0.0 
-1.836539241269e-06 1.330878883476e-03 0.0 
0.0 0.0 -2.017604167332e-04 
-4.752774343128e-05 -1.713587701896e-05 0.0 
-1.713587701896e-05 3.107525644044e-04 0.0 
0.0 0.0 -4.996133636201e-05 
-1.024919488492e-04 4.191622503833e-07 0.0 
4.191622503833e-07 7.218789940397e-04 0.0 
0.0 0.0 -1.062461082510e-04 
-2.975599916326e-05 9.106261967341e-06 0.0 
9.106261967341e-06 1.955746439529e-04 0.0 
0.0 0.0 -3.129496823211e-05 
-1.232098886184e-05 7.093050022653e-06 0.0 
7.093050022653e-06 4.161179421085e-05 0.0 
0.0 0.0 -1.255320229243e-05 
-1.944497355390e-04 5.978296495926e-06 0.0 
5.978296495926e-06 1.366328994781e-03 0.0 
0.0 0.0 -1.985775144829e-04 
-1.145512522937e-04 -8.915219508627e-06 0.0 
-8.915219508627e-06 7.945910020626e-04 0.0 
0.0 0.0 -1.159689174441e-04 
-2.848344092071e-05 4.003321639578e-06 0.0 
4.003321639578e-06 1.986241883576e-04 0.0 
0.0 0.0 -3.173012194873e-05 
-1.014959600204e-04 3.503938933843e-05 0.0 
3.503938933843e-05 6.393289370777e-04 0.0 
0.0 0.0 -9.855747970559e-05 
-1.905583345653e-04 2.687091843221e-06 0.0 
2.687091843221e-06 1.311634272187e-03 0.0 
0.0 0.0 -1.915206309854e-04 
-1.857526928997e-04 -2.471303146073e-05 0.0 
-2.471303146073e-05 1.243107974826e-03 0.0 
0.0 0.0 -1.842925442824e-04 
-1.948868254755e-04 -1.041522172142e-06 0.0 
-1.041522172142e-06 1.275180970734e-03 0.0 
0.0 0.0 -1.934499806569e-04 
-7.012133808743e-05 -2.162576108704e-05 0.0 
-2.162576108704e-05 4.594521408120e-04 0.0 
0.0 0.0 -7.043099580601e-05 
-2.186534210929e-05 -2.363395921601e-05 0.0 
-2.363395921601e-05 1.124805107313e-04 0.0 
0.0 0.0 -2.329832943476e-05 
-1.928869723946e-04 -1.747685447208e-05 0.0 
-1.747685447208e-05 1.309527415302e-03 0.0 
0.0 0.0 -1.909716586738e-04 
-1.948223937585e-04 3.463630469138e-06 0.0 
3.463630469138e-06 1.366072774039e-03 0.0 
0.0 0.0 -1.988029557152e-04 
-1.997972325631e-04 -2.657071604694e-06 0.0 
-2.657071604694e-06 1.368996078479e-03 0.0 
0.0 0.0 -1.985675284643e-04 
-1.149075065172e-04 1.970313765657e-05 0.0 
1.970313765657e-05 7.553309514488e-04 0.0 
0.0 0.0 -1.151014696305e-04 
-1.853670490970e-04 -6.789881419621e-07 0.0 
-6.789881419621e-07 1.217253462195e-03 0.0 
0.0 0.0 -1.847801502677e-04 
-2.929766823262e-05 -1.423662774746e-05 0.0 
-1.423662774746e-05 1.684447109910e-04 0.0 
0.0 0.0 -3.486300268346e-05 
-1.886376341972e-04 2.491029484498e-05 0.0 
2.491029484498e-05 1.251144203043e-03 0.0 
0.0 0.0 -1.862363266401e-04 
-1.225588461862e-05 -1.620442536661e-06 0.0 
-1.620442536661e-06 4.088176785210e-05 0.0 
0.0 0.0 -1.226823567149e-05 
-1.959443734270e-04 -1.593633800897e-06 0.0 
-1.593633800897e-06 1.275907277954e-03 0.0 
0.0 0.0 -1.936070242144e-04 
-1.921705025686e-04 1.672528369413e-05 0.0 
1.672528369413e-05 1.305355282221e-03 0.0 
0.0 0.0 -1.902878095246e-04 
-1.213509693042e-05 -9.695671298578e-06 0.0 
-9.695671298578e-06 4.146515921011e-05 0.0 
0.0 0.0 -1.257002669129e-05 
-1.793207099600e-04 -2.104295957024e-05 0.0 
-2.104295957024e-05 1.192465817629e-03 0.0 
0.0 0.0 -1.767027422389e-04 
-1.542349507493e-04 -2.789525500736e-05 0.0 
-2.789525500736e-05 1.046690456158e-03 0.0 
0.0 0.0 -1.580789522666e-04 
-1.934231585208e-04 -4.589161303043e-06 0.0 
-4.589161303043e-06 1.276393454338e-03 0.0 
0.0 0.0 -1.934530862915e-04 
-2.019364116565e-04 -1.570828685488e-06 0.0 
-1.570828685488e-06 1.334544060367e-03 0.0 
0.0 0.0 -2.019364116565e-04 
-1.443736664853e-04 -4.496434299745e-05 0.0 
-4.496434299745e-05 9.564830102373e-04 0.0 
0.0 0.0 -1.444096547634e-04 
-1.939456756852e-04 2.017652496133e-06 0.0 
2.017652496133e-06 1.279640861987e-03 0.0 
0.0 0.0 -1.938765919206e-04 
-1.869172796684e-04 -2.300922739472e-05 0.0 
-2.300922739472e-05 1.248797853845e-03 0.0 
0.0 0.0 -1.854760755851e-04 
-1.511310601618e-04 1.323861223544e-06 0.0 
1.323861223544e-06 9.820371097651e-04 0.0 
0.0 0.0 -1.514438176870e-04 
-1.859523187257e-04 -2.150500838709e-06 0.0 
-2.150500838709e-06 1.237126209909e-03 0.0 
0.0 0.0 -1.871408849840e-04 
-8.159488617983e-05 -1.939805324608e-05 0.0 
-1.939805324608e-05 5.359838852638e-04 0.0 
0.0 0.0 -8.502783899585e-05 
-1.113338579071e-04 -3.576614126909e-06 0.0 
-3.576614126909e-06 6.830287758959e-04 0.0 
0.0 0.0 -1.093177095251e-04 
-1.875695645106e-04 2.166688210212e-05 0.0 
2.166688210212e-05 1.248595569192e-03 0.0 
0.0 0.0 -1.858828511717e-04 
-1.916898687047e-04 1.740402246749e-05 0.0 
1.740402246749e-05 1.297694891500e-03 0.0 
0.0 0.0 -1.929759641265e-04 
0.0 0.0 0.0 
0.0 0.0 0.0 
0.0 0.0 0.0 
-1.108754537982e-04 8.190067800634e-06 0.0 
8.190067800634e-06 6.858465185805e-04 0.0 
0.0 0.0 -1.092688595421e-04 
-1.923809518426e-04 -1.819844630735e-05 0.0 
-1.819844630735e-05 1.300229094043e-03 0.0 
0.0 0.0 -1.932123727438e-04 
-4.002001247467e-05 2.006963566931e-05 0.0 
2.006963566931e-05 2.328825741027e-04 0.0 
0.0 0.0 -4.148470287098e-05 
-1.866472002231e-04 4.880453877379e-06 0.0 
4.880453877379e-06 1.252749307024e-03 0.0 
0.0 0.0 -1.819878549007e-04 
-1.819209478198e-04 -2.068448510871e-05 0.0 
-2.068448510871e-05 1.244408370608e-03 0.0 
0.0 0.0 -1.838914853240e-04 
-1.915111223810e-04 -2.323214646959e-05 0.0 
-2.323214646959e-05 1.305780620660e-03 0.0 
0.0 0.0 -1.903556752671e-04 
-3.701661376552e-05 2.035950265076e-05 0.0 
2.035950265076e-05 2.272671486071e-04 0.0 
0.0 0.0 -3.971981059879e-05 
-2.769286414478e-05 7.747329809448e-06 0.0 
7.747329809448e-06 1.806614107884e-04 0.0 
0.0 0.0 -2.859863994447e-05 
-1.242949117924e-04 5.074427327232e-05 0.0 
5.074427327232e-05 7.859669856420e-04 0.0 
0.0 0.0 -1.190920679387e-04 
-1.709477821043e-04 1.206352581251e-05 0.0 
1.206352581251e-05 1.132186117532e-03 0.0 
0.0 0.0 -1.681261804956e-04 
1.014327330368e-06 7.383782533250e-07 0.0 
7.383782533250e-07 2.927583678911e-05 0.0 
0.0 0.0 -6.243845128022e-06 
-1.946447373769e-04 -4.455018500166e-06 0.0 
-4.455018500166e-06 1.280717844331e-03 0.0 
0.0 0.0 -1.938350263003e-04 
-1.424463118062e-04 5.764408395156e-06 0.0 
5.764408395156e-06 9.202154133526e-04 0.0 
0.0 0.0 -1.425289220759e-04 
-3.478878306297e-05 -2.499498638801e-05 0.0 
-2.499498638801e-05 2.296892403380e-04 0.0 
0.0 0.0 -3.902841992921e-05 
-1.377312918912e-04 9.864863143696e-06 0.0 
9.864863143696e-06 8.735402280856e-04 0.0 
0.0 0.0 -1.354581645892e-04 
-1.922007867126e-04 -1.822737660514e-05 0.0 
-1.822737660514e-05 1.307890918218e-03 0.0 
0.0 0.0 -1.907465343871e-04 
-1.254239889598e-04 -4.359753515645e-05 0.0 
-4.359753515645e-05 8.286556014884e-04 0.0 
0.0 0.0 -1.240920679387e-04 
-1.353144492439e-05 -2.813094036452e-05 0.0 
-2.813094036452e-05 4.877548767693e-05 0.0 
0.0 0.0 -1.316471896826e-05 
-8.142748840058e-05 2.105549334848e-05 0.0 
2.105549334848e-05 4.801057020835e-04 0.0 
0.0 0.0 -7.814452609390e-05 
-1.089615496817e-04 1.599271894156e-05 0.0 
1.599271894156e-05 7.175407804816e-04 0.0 
0.0 0.0 -1.097999625750e-04 
-1.256926158202e-04 5.260336234632e-05 0.0 
5.260336234632e-05 8.559229925288e-04 0.0 
0.0 0.0 -1.289999999999e-04 
-1.861165675973e-04 -2.159470551462e-05 0.0 
-2.159470551462e-05 1.249429060897e-03 0.0 
0.0 0.0 -1.849170288086e-04 
-1.106499789189e-04 -2.590861534469e-05 0.0 
-2.590861534469e-05 6.926866843830e-04 0.0 
0.0 0.0 -1.076326444904e-04 
-1.112884178496e-04 1.305986126263e-05 0.0 
1.305986126263e-05 7.358491413001e-04 0.0 
0.0 0.0 -1.139494348250e-04 
-2.588411427290e-05 1.911750771148e-05 0.0 
1.911750771148e-05 1.061373083438e-04 0.0 
0.0 0.0 -2.326846092920e-05 
-1.893744793615e-04 2.103198860830e-05 0.0 
2.103198860830e-05 1.246033425132e-03 0.0 
0.0 0.0 -1.860944804855e-04 
-1.813760335911e-04 2.431983118237e-05 0.0 
2.431983118237e-05 1.192575940689e-03 0.0 
0.0 0.0 -1.779543165055e-04 
-3.341687545780e-05 1.295689628708e-05 0.0 
1.295689628708e-05 1.947474497127e-04 0.0 
0.0 0.0 -3.617538986514e-05 
-1.891790155312e-04 -1.249004293212e-05 0.0 
-1.249004293212e-05 1.282842787366e-03 0.0 
0.0 0.0 -1.935524225335e-04 
-1.940711954716e-04 2.260939094991e-05 0.0 
2.260939094991e-05 1.289421750568e-03 0.0 
0.0 0.0 -1.935534039001e-04 
-1.151984927981e-04 -2.298534457927e-05 0.0 
-2.298534457927e-05 7.735611340850e-04 0.0 
0.0 0.0 -1.145968264807e-04 
-1.409477362984e-04 4.636851076838e-06 0.0 
4.636851076838e-06 9.500238057427e-04 0.0 
0.0 0.0 -1.403751509546e-04 
-1.057221588411e-04 2.457938922791e-05 0.0 
2.457938922791e-05 7.039272758311e-04 0.0 
0.0 0.0 -1.066277415830e-04 
-1.061891266013e-04 -1.653485252010e-05 0.0 
-1.653485252010e-05 7.204456328921e-04 0.0 
0.0 0.0 -1.101455558886e-04 
-1.167125773018e-04 -5.214442621127e-06 0.0 
-5.214442621127e-06 7.635304123669e-04 0.0 
0.0 0.0 -1.124773478824e-04 
-1.793168656901e-04 2.299952134744e-05 0.0 
2.299952134744e-05 1.185887205723e-03 0.0 
0.0 0.0 -1.771393596935e-04 
-3.152584898735e-05 1.897210253453e-05 0.0 
1.897210253453e-05 1.627411535502e-04 0.0 
0.0 0.0 -3.411956464738e-05 
-1.845315344105e-04 -2.087044310257e-05 0.0 
-2.087044310257e-05 1.251382198176e-03 0.0 
0.0 0.0 -1.826724926888e-04 
-1.258093955466e-04 1.092296903434e-05 0.0 
1.092296903434e-05 7.989141246955e-04 0.0 
0.0 0.0 -1.256509235457e-04 
-1.915790341267e-04 -2.191468720141e-05 0.0 
-2.191468720141e-05 1.308072793879e-03 0.0 
0.0 0.0 -1.908230686647e-04 
-1.803448451633e-04 -1.980075170867e-05 0.0 
-1.980075170867e-05 1.182538242344e-03 0.0 
0.0 0.0 -1.771885848702e-04 
-1.319350983937e-04 -8.918433226288e-06 0.0 
-8.918433226288e-06 9.046918759966e-04 0.0 
0.0 0.0 -1.335370307995e-04 
-1.816836816126e-04 1.791474397062e-05 0.0 
1.791474397062e-05 1.201235583197e-03 0.0 
0.0 0.0 -1.801549293832e-04 
-1.875547155475e-04 1.892715754060e-05 0.0 
1.892715754060e-05 1.233891763137e-03 0.0 
0.0 0.0 -1.855150795789e-04 
-1.939054531168e-04 -3.416516152565e-06 0.0 
-3.416516152565e-06 1.313797531553e-03 0.0 
0.0 0.0 -1.905407107676e-04 
-1.393318625630e-05 6.729466406601e-06 0.0 
6.729466406601e-06 4.687704386898e-05 0.0 
0.0 0.0 -1.411879611972e-05 
-1.819939651451e-04 -2.047705946231e-05 0.0 
-2.047705946231e-05 1.208295386483e-03 0.0 
0.0 0.0 -1.798029041703e-04 
-1.850233720890e-04 2.766047329041e-05 0.0 
2.766047329041e-05 1.254110806432e-03 0.0 
0.0 0.0 -1.840618297566e-04 
-1.944390477997e-05 -2.127751864275e-05 0.0 
-2.127751864275e-05 1.299757536440e-04 0.0 
0.0 0.0 -2.232470194434e-05 
-1.017184515676e-04 -1.757095589334e-05 0.0 
-1.757095589334e-05 6.550290312805e-04 0.0 
0.0 0.0 -1.026204892046e-04 
-1.144511734995e-05 -9.153149013219e-06 0.0 
-9.153149013219e-06 7.932793000554e-05 0.0 
0.0 0.0 -1.453852818766e-05 
-1.859119756783e-04 -1.557168329532e-05 0.0 
-1.557168329532e-05 1.264074963678e-03 0.0 
0.0 0.0 -1.846184893018e-04 
-9.950603800529e-05 -1.732824840327e-05 0.0 
-1.732824840327e-05 6.532123038277e-04 0.0 
0.0 0.0 -9.733333333333e-05 
-9.845490008412e-05 -7.423843482372e-07 0.0 
-7.423843482372e-07 6.182720398665e-04 0.0 
0.0 0.0 -1.006666666667e-04 
-9.688680853064e-05 -2.101224633275e-06 0.0 
-2.101224633275e-06 6.650247464175e-04 0.0 
0.0 0.0 -9.733333333333e-05 
-1.012464655028e-04 -1.533092774878e-06 0.0 
-1.533092774878e-06 6.197292804394e-04 0.0 
0.0 0.0 -1.006666666667e-04 
-9.684752660582e-05 -6.274302712922e-08 0.0 
-6.274302712922e-08 6.662579141266e-04 0.0 
0.0 0.0 -9.733333333333e-05 
-1.011453118386e-04 1.046563005614e-06 0.0 
1.046563005614e-06 6.213209177569e-04 0.0 
0.0 0.0 -1.006666666667e-04 
-9.747297309875e-05 -2.278502078315e-06 0.0 
-2.278502078315e-06 6.683740764344e-04 0.0 
0.0 0.0 -9.733333333333e-05 
-9.931899188090e-05 -3.288065646636e-06 0.0 
-3.288065646636e-06 6.197642772278e-04 0.0 
0.0 0.0 -1.006666666667e-04 
-9.650639441643e-05 2.666172739854e-07 0.0 
2.666172739854e-07 6.659194579952e-04 0.0 
0.0 0.0 -9.733333333333e-05 
-1.000788983180e-04 1.910523566858e-06 0.0 
1.910523566858e-06 6.207688021561e-04 0.0 
0.0 0.0 -1.006666666667e-04 
-9.720852165412e-05 -4.164213939214e-07 0.0 
-4.164213939214e-07 6.678605235040e-04 0.0 
0.0 0.0 -9.733333333333e-05 
-1.005225329566e-04 -1.059277058645e-06 0.0 
-1.059277058645e-06 6.206711688955e-04 0.0 
0.0 0.0 -1.006666666667e-04 
-1.076654382393e-04 -2.454755873475e-05 0.0 
-2.454755873475e-05 6.666235465443e-04 0.0 
0.0 0.0 -9.871211211756e-05 
-9.677391887680e-05 3.262994796209e-07 0.0 
3.262994796209e-07 6.670349670739e-04 0.0 
0.0 0.0 -9.733333333333e-05 
-1.004112575968e-04 6.266382551746e-06 0.0 
6.266382551746e-06 6.238730393685e-04 0.0 
0.0 0.0 -1.006666666667e-04 
-9.691250726487e-05 3.272004711609e-06 0.0 
3.272004711609e-06 6.207526912737e-04 0.0 
0.0 0.0 -1.006666666667e-04 
-9.769753293670e-05 3.857908775591e-07 0.0 
3.857908775591e-07 6.683264731120e-04 0.0 
0.0 0.0 -9.733333333333e-05 
-1.018216783017e-04 -1.733271697638e-06 0.0 
-1.733271697638e-06 6.205292306068e-04 0.0 
0.0 0.0 -1.006666666667e-04 
-9.704606734811e-05 1.789783002985e-06 0.0 
1.789783002985e-06 6.661622647259e-04 0.0 
0.0 0.0 -9.733333333333e-05 
-1.018704888891e-04 2.872470909369e-06 0.0 
2.872470909369e-06 6.210028127133e-04 0.0 
0.0 0.0 -1.006666666667e-04 
-9.786058522026e-05 1.410942441991e-06 0.0 
1.410942441991e-06 6.680408138480e-04 0.0 
0.0 0.0 -9.733333333333e-05 
-1.006317600444e-04 1.941140312877e-06 0.0 
1.941140312877e-06 6.214755597104e-04 0.0 
0.0 0.0 -1.006666666667e-04 
-9.094846281658e-05 3.460693907673e-06 0.0 
3.460693907673e-06 6.387381401671e-04 0.0 
0.0 0.0 -9.537877878422e-05 
-9.822997247904e-05 5.655000512227e-07 0.0 
5.655000512227e-07 6.686847925497e-04 0.0 
0.0 0.0 -9.733333333333e-05 
-1.005721140742e-04 -4.771801101197e-07 0.0 
-4.771801101197e-07 6.209284532513e-04 0.0 
0.0 0.0 -1.006666666667e-04 
-9.779172566454e-05 1.437765353010e-06 0.0 
1.437765353010e-06 6.669881357659e-04 0.0 
0.0 0.0 -9.733333333333e-05 
-9.964754038308e-05 2.397319642453e-06 0.0 
2.397319642453e-06 6.203504795262e-04 0.0 
0.0 0.0 -1.006666666667e-04 
-9.942841041269e-05 6.330945354939e-06 0.0 
6.330945354939e-06 6.210142166029e-04 0.0 
0.0 0.0 -1.006666666667e-04 
-9.831264427012e-05 3.607920745624e-06 0.0 
3.607920745624e-06 6.668464283750e-04 0.0 
0.0 0.0 -9.733333333333e-05 
-1.003509065967e-04 3.038689806417e-06 0.0 
3.038689806417e-06 6.697580945376e-04 0.0 
0.0 0.0 -9.733333333333e-05 
-9.096542632604e-05 2.974368147524e-06 0.0 
2.974368147524e-06 6.503827388711e-04 0.0 
0.0 0.0 -1.003787787842e-04 
-8.504379335977e-05 -2.379930474366e-06 0.0 
-2.379930474366e-06 6.068057216978e-04 0.0 
0.0 0.0 -9.758920971652e-05 
-1.061297274301e-04 -4.871673269526e-05 0.0 
-4.871673269526e-05 6.458409108431e-04 0.0 
0.0 0.0 -9.900000000000e-05 
-9.597407948562e-05 5.882537232744e-05 0.0 
5.882537232744e-05 6.276346610407e-04 0.0 
0.0 0.0 -9.900000000000e-05 
-1.061722618288e-04 2.720032131649e-06 0.0 
2.720032131649e-06 6.459980937412e-04 0.0 
0.0 0.0 -1.023333333333e-04 
-9.572351935955e-05 9.504820778219e-06 0.0 
9.504820778219e-06 6.293354809804e-04 0.0 
0.0 0.0 -9.566666666667e-05 
-8.827880964785e-05 -4.615262033286e-06 0.0 
-4.615262033286e-06 6.261214177850e-04 0.0 
0.0 0.0 -9.566666666667e-05 

SCALARS element_materi_plasti_kappa_shear float
LOOKUP_TABLE default
2.847132974464e-04
2.567335577462e-04
8.383458615128e-04
8.438320912051e-04
5.252340220499e-04
1.092332508777e-04
5.211056369626e-04
2.682011350187e-04
5.284032086376e-04
8.364231581825e-04
5.721664887116e-04
2.192159031084e-04
8.427469438431e-04
5.626516430071e-04
8.591411753051e-04
8.596118674820e-04
5.228709310720e-04
9.890289689114e-05
1.829897689724e-04
1.694158919351e-04
8.423436282845e-04
2.963793359043e-04
3.324051967767e-04
8.081759085961e-04
6.000118969987e-04
6.135444959901e-04
4.831662702076e-04
8.640260917564e-04
6.044060870881e-04
8.284633969501e-04
1.393644665420e-04
6.157167640348e-05
8.645031697050e-04
7.227162512377e-04
8.409567717064e-04
8.889842858592e-04
8.867272022491e-04
8.401574712595e-04
4.762820424766e-04
4.829160232604e-04
3.784313710213e-04
8.419842235364e-04
1.971583877801e-04
4.640967896192e-04
8.239259452907e-04
1.959288160543e-04
8.321288766212e-05
8.084255947212e-04
3.689720172040e-05
5.421120849717e-04
3.571518168043e-04
2.245192715023e-04
1.849539392691e-04
3.438430703420e-04
8.437751075118e-04
2.946472074171e-04
2.169482347232e-04
7.261086015541e-04
1.365401986572e-04
8.602343425103e-04
5.633449810247e-05
8.068338246298e-04
3.495820234045e-04
1.625404768038e-04
8.423121318073e-04
3.196875078224e-04
2.407380933191e-05
8.605021510781e-04
1.455927549119e-04
8.423461725362e-04
6.362218458081e-04
8.811950242161e-04
8.101315001547e-04
6.837837458653e-05
2.980351712693e-04
8.450728483081e-04
8.650274645366e-04
1.497776459891e-04
1.164171881254e-04
1.495511738586e-04
1.394737434445e-04
4.994656174592e-04
3.126596433046e-04
2.656451840487e-04
5.512146343309e-04
5.478404078236e-04
6.543703068282e-04
7.066969326251e-04
7.292257809066e-04
5.182254199727e-04
3.772961361313e-05
5.068209088843e-04
7.023712359703e-04
7.053137767572e-04
9.034935541177e-04
8.681099508839e-04
4.998503861448e-04
8.654654996241e-04
5.895620793702e-04
3.387865222816e-04
5.023282053966e-04
8.610484090904e-04
6.969273947015e-04
8.114912522944e-04
3.066747276919e-04
1.031286558348e-04
7.940042257422e-04
7.514569823258e-04
6.199677439277e-05
8.454993593350e-04
6.946613572604e-04
4.904031993171e-05
4.043465054525e-04
4.701260917007e-04
3.591769958220e-04
3.010429561774e-04
3.537650535641e-04
8.520744351586e-04
5.793631570773e-04
3.261491376649e-04
1.418039967851e-04
5.194733326263e-04
7.366211917707e-04
3.289742658715e-04
1.029625399055e-04
4.250840810499e-04
3.733497519716e-04
3.937484836423e-04
8.617156175713e-04
1.214391796965e-04
6.025351137927e-04
8.438264723838e-04
4.251430981113e-04
4.028071146061e-04
8.421798094545e-04
8.449973380302e-04
6.540085342924e-04
4.550812470554e-04
8.653037555385e-04
4.073208974335e-04
8.427923186268e-04
8.640045548534e-04
5.578310155526e-04
6.509573146725e-04
4.117138516470e-04
3.711211770560e-04
4.681101004950e-04
3.518672901193e-04
5.147824992523e-04
4.107193794640e-04
3.646113790963e-05
5.532223658631e-04
1.258155624666e-04
4.487912821367e-04
8.442761777728e-04
3.036097253508e-04
6.795876328870e-04
2.190343751187e-04
6.939470314270e-04
5.021535652403e-04
3.806977165922e-04
7.481063603695e-04
1.298522692207e-04
7.928147477738e-04
5.039709184499e-04
8.650019251011e-04
5.013582088109e-04
3.160516627979e-04
4.393239970158e-04
5.920825198174e-04
2.289923969885e-04
3.854224720753e-04
6.780718451192e-04
5.198603884199e-04
3.586956886529e-04
4.169796386473e-04
7.560276412873e-04
4.159140997811e-04
8.428055575623e-04
8.639767009483e-04
2.975132247583e-04
3.989799041527e-04
7.712498508064e-04
3.945945745463e-04
2.576819868644e-04
4.854060291149e-04
3.951341740237e-04
8.456558194475e-04
7.010154264104e-04
7.714816593418e-04
1.746707301352e-04
3.610997931363e-04
7.204647992586e-04
1.945331205908e-05
3.903836025195e-04
7.222445599692e-04
1.036327141325e-04
8.424473339204e-04
6.428453457773e-04
3.831449392291e-04
7.193613777923e-04
5.586004203897e-04
5.898087867421e-04
8.246624455494e-04
2.857235697232e-04
4.866694704310e-04
5.222557039026e-04
6.732665719342e-04
5.326319802480e-04
4.881655111683e-04
6.257681940146e-04
7.388362075692e-04
5.690614774354e-05
2.917017983456e-04
3.317775165376e-04
4.735931798939e-04
7.340526410142e-04
1.447054251006e-04
6.965604954019e-04
5.013674676710e-04
3.566918662294e-04
6.715636749960e-04
6.571013662795e-05
6.877012871154e-04
5.549518836130e-05
8.040745949318e-05
1.732184497000e-04
2.392003364027e-04
7.177475001527e-04
2.320046903569e-04
2.075153724814e-04
1.800041788403e-04
1.507998795129e-04
7.424671531813e-04
5.071426105021e-04
8.446796247734e-04
0.0
2.497594834345e-04
4.009784043096e-04
3.635781274630e-04
6.932515688423e-04
8.647303225506e-04
6.886146806345e-04
2.931670056878e-04
7.441379809634e-04
6.308353337863e-04
4.980516236997e-04
6.615635321969e-04
8.261379668094e-04
4.064024309512e-04
2.371048478647e-04
5.754464620744e-04
9.026357122935e-04
4.917413561400e-04
5.134823346619e-04
5.630191156583e-04
1.329471826665e-04
5.277021269871e-04
2.878196777098e-04
1.938006262720e-04
1.362334838042e-04
7.132570322814e-04
5.514544182274e-04
3.441653812797e-04
7.429062318585e-04
7.078085783757e-04
5.222121837301e-04
8.463050092743e-04
5.284876028695e-04
5.460070011469e-04
4.376131710040e-04
5.575789166973e-04
2.377977007102e-04
5.035541614816e-04
4.257154416742e-04
3.011811086088e-04
6.820805742593e-04
2.384378149136e-05
5.562902183290e-04
3.071842567668e-04
2.550196540710e-04
2.439773196071e-04
5.894366693465e-04
9.570931057482e-05
3.576303071845e-04
5.731391386351e-04
5.461339597621e-04
5.616867596350e-04
1.271009961872e-04
2.958157551279e-04
2.761694005421e-04
3.216903735558e-04
6.680530276719e-04
3.637979337747e-04
3.949989305544e-04
3.759115002993e-04
1.575634516332e-04
4.501668004302e-04
1.708993772794e-04
9.019026024371e-04
9.023973057295e-04
5.057511345693e-04
2.631127598013e-04
2.307674832005e-04
5.600193776098e-04
2.500946570906e-04
2.700679866253e-04
4.922948739685e-04
8.667616329614e-04
3.318462296128e-04
6.222149882880e-04
1.830371105394e-04
9.023475672024e-04
2.441397582287e-04
5.112104398270e-04
1.689503966276e-04
6.053623747982e-04
4.196544349859e-04
2.903890059932e-04
5.270871447235e-04
9.021440381368e-04
3.510699855254e-04
5.781821550489e-04
1.886309360797e-04
6.316875196563e-04
6.668857487106e-04
2.624435093985e-04
6.164660003841e-04
9.026438880277e-04
7.124911027791e-04
9.030006616607e-04
6.099328680256e-04
7.015574955173e-04
2.180182464546e-04
4.840383207087e-04
5.408811792003e-04
5.701871426172e-04
4.675332375955e-04
9.035883904622e-04
5.850053230518e-04
5.141279373987e-04
3.811690988531e-04
1.956242149518e-04
4.646237938930e-04
2.742553589397e-04
5.220512861019e-04
2.960117191843e-04
3.368501384635e-04
7.076177555195e-04
2.798327001462e-04
4.981195041245e-04
5.922020028833e-04
5.249691217824e-04
9.022141612185e-04
4.195717744466e-04
2.760615473356e-04
3.714756492195e-04
2.666495641069e-04
2.573536274963e-04
7.531436391681e-04
5.406886875803e-04
3.691632618911e-04
4.556110258937e-04
9.030518011549e-04
8.532871781874e-04
7.461245423291e-04
6.934880992847e-04
5.105698072066e-04
3.813116805693e-04
2.690679185398e-04
3.126694468458e-04
5.164893174634e-04
5.919748660066e-04
4.476339003619e-04
7.537614717665e-04
2.814322894241e-04
4.431267281225e-04
5.162384399113e-04
3.994083330778e-04
9.019027868779e-04
9.024199943997e-04
8.466674059490e-04
5.551721733312e-04
7.381697029614e-04
2.318050061718e-04
3.566133739436e-04
2.004113789535e-04
3.876518657496e-04
5.007689008681e-04
6.066206779727e-04
8.634617584911e-04
7.387016338322e-04
5.700145676085e-04
5.843478329972e-04
2.129102317008e-04
9.963202888370e-05
4.255642556790e-04
4.864892581303e-04
4.557093610505e-04
1.015080950596e-04
5.392744089157e-04
1.864447400827e-04
2.686669338435e-04
8.829401381496e-04
6.479849204366e-04
5.101152900271e-04
1.402250907171e-04
4.625920286436e-04
4.307827734045e-04
5.943113921106e-04
9.027611341500e-04
4.797580040648e-04
5.649702214781e-04
4.419535104601e-04
7.334092120784e-04
5.703474346402e-04
9.028672049198e-04
8.818149095568e-04
8.812004500203e-04
8.770344726619e-04
6.086454399872e-04
7.380884957385e-04
7.670249911297e-04
3.946547610248e-04
3.761808931614e-04
4.220813725199e-04
7.589723938571e-04
9.023328764655e-04
7.577932565223e-04
6.026760527823e-04
7.626774697069e-04
6.606437481449e-04
4.567756297563e-04
3.825801685651e-04
2.007576887360e-04
8.470469883245e-04
3.704624717408e-04
8.076533810370e-04
4.162571300339e-04
2.699749840163e-04
8.434505841465e-04
2.924500070844e-04
8.816442479766e-04
8.452247512919e-04
5.545088614739e-04
3.473443607641e-05
8.815269345483e-04
8.437795076668e-04
2.644715325930e-04
6.230832692165e-04
9.043633052623e-04
0.0
4.136686690805e-04
5.789929662664e-04
5.300876254500e-04
5.356595073985e-04
2.252617715596e-04
8.806829294995e-04
4.006991802615e-04
1.303841541133e-04
8.663125818618e-04
6.051131586377e-05
4.315774978662e-04
1.176867923368e-04
4.596515473754e-04
9.012311898414e-04
8.829625409697e-04
5.653646595553e-04
8.124087917368e-05
9.994837872237e-05
1.389614691644e-04
7.526188084607e-04
5.232481456078e-04
5.352467886841e-04
8.832777862969e-04
5.239926934470e-04
9.034954834455e-04
6.742815143354e-04
5.863949273689e-04
2.820464387522e-04
6.178481751699e-04
1.825530642902e-04
8.832148814275e-04
8.787933827960e-04
8.806921593160e-04
5.756624678762e-04
3.963242992692e-04
4.623808742286e-04
5.898300044950e-04
8.827105655163e-04
2.739608454354e-04
3.152297798322e-04
3.346486994201e-04
6.118815291473e-04
9.031087235632e-04
9.826315240639e-05
8.806359177385e-04
3.091995583178e-04
8.830701307018e-04
7.737556814763e-04
2.602550826630e-05
4.315307198807e-04
7.678889909001e-04
8.823867652728e-04
6.136211757286e-04
6.941437612341e-04
1.584089862020e-04
8.072406538752e-04
3.285549430036e-04
3.399738602395e-04
6.350089245098e-05
8.815166830728e-04
2.259416864064e-04
7.443039276558e-04
5.669420517884e-04
2.830302926058e-04
3.206987936709e-04
5.893066187854e-04
8.831255390235e-04
4.112126309151e-04
6.461218310913e-04
5.245062035981e-04
5.860608677982e-04
3.451263767299e-04
6.003773440688e-04
5.107552153637e-04
6.659208771778e-04
6.625383459481e-04
5.000360828217e-04
4.220154532181e-04
2.979654696955e-04
3.903746207876e-04
6.804313980790e-04
5.475016889342e-04
9.031543334572e-04
7.872511197512e-04
2.513213857487e-04
8.791428665884e-04
8.623865534780e-04
4.695549206328e-04
3.669236207070e-05
9.023712677026e-04
7.825243345501e-04
2.836634880462e-04
8.808658468444e-04
6.210975252764e-04
4.005662234096e-04
5.509439591359e-04
5.333534302821e-04
5.303907689406e-04
6.114043158285e-04
6.485756697789e-04
4.497226363466e-04
6.883221258394e-04
5.985234349653e-04
4.277851164571e-04
6.370445780655e-04
3.335340985590e-04
5.972217102501e-04
2.690095818511e-05
3.234473257320e-04
3.145667651333e-04
4.619525145775e-04
4.941683527065e-04
6.157927676169e-04
5.953076823754e-04
2.893667186736e-04
8.829502872488e-04
5.841509097848e-04
4.814294041828e-04
5.596214459887e-04
4.676664971932e-04
0.0
5.801676505400e-04
3.844985916664e-04
0.0
4.554300220234e-04
6.611400294946e-04
7.615386503395e-04
5.667217612569e-04
5.798125605848e-04
4.946399896661e-04
4.612945919967e-04
8.448933154629e-04
5.351237915902e-04
2.265059230248e-05
1.593136185292e-04
3.598215869650e-05
2.756541644965e-04
7.595674519950e-04
7.663452637067e-04
7.206272217663e-04
3.111805889127e-04
6.034032161237e-04
7.573752906357e-04
1.740144548794e-04
3.864583664951e-04
3.117083041406e-04
9.031633853049e-04
8.822228944503e-04
4.285735382123e-04
4.870038452020e-04
5.444247428616e-04
7.843706278062e-04
1.688678543700e-04
7.320309974876e-04
1.024779424926e-04
4.424111468177e-04
4.932536473152e-04
3.661873855527e-05
4.046650665538e-04
7.818962903618e-04
2.628493764547e-05
4.594828512294e-04
4.812071489687e-04
6.367624673799e-04
3.155481759349e-04
3.029147364413e-04
2.132280228371e-04
7.837934729915e-04
8.448257163848e-04
7.363444438744e-04
2.851623301377e-04
1.072863423376e-04
4.603504121984e-04
4.608177344525e-04
4.831872055831e-04
0.0
3.555241354687e-05
7.966173186171e-05
2.342846998403e-04
6.373569268983e-05
4.549076851565e-04
0.0
2.796945326255e-04
6.183777696222e-04
4.824258644607e-04
7.814158546744e-04
6.352076666034e-04
5.781612852690e-04
3.372841396968e-04
1.018092465349e-04
8.804341959841e-04
9.035439950554e-04
5.614027168615e-04
4.616000397093e-04
3.431731325220e-04
9.014339937115e-04
2.659509024599e-04
4.803513075401e-04
4.596149613707e-04
4.369192074101e-04
8.832852469207e-04
9.009032309479e-04
6.250414495270e-05
0.0
1.266214781953e-04
4.876279566065e-04
8.196533199701e-04
2.444433938167e-05
7.274110977346e-04
0.0
6.250843933025e-04
2.867078562402e-05
2.783203544243e-05
5.997115799954e-04
7.944815531002e-04
6.355701656843e-04
4.791132808813e-04
3.652595870710e-05
6.229816343343e-04
8.791826602914e-04
9.014687340808e-04
4.821873124554e-04
6.503883133201e-04
8.818062794857e-04
6.993504510242e-04
9.789390783998e-05
6.279365927203e-05
3.939974307887e-05
3.825618914400e-04
9.021047273405e-04
8.443030366409e-04
0.0
4.516920689161e-04
8.837977955305e-04
9.047268419961e-04
9.014166279866e-04
6.824648899155e-04
7.516239818066e-04
8.796515991076e-04
8.818821043928e-04
7.273160736883e-04
2.211575098140e-05
4.787532764467e-04
4.846356056311e-04
0.0
8.847559387122e-04
9.037195635447e-04
8.791881994104e-04
2.812709352533e-05
2.886337119670e-05
8.807302274622e-04
8.799262388240e-04
6.606959234620e-04
4.786921816039e-04
7.045004432885e-04
5.666139951839e-04
4.780950833957e-04
2.553609013369e-05
2.943212211666e-05
2.487007266475e-05
2.712132983020e-05
4.772021594015e-04
4.286502641088e-04
0.0
6.145195953194e-04
0.0
8.800821581416e-04
8.788987143881e-04
8.809194080868e-04
1.543232978874e-04
2.904945093705e-04
8.796413922759e-04
7.525259440061e-04
8.837915350881e-04
7.992262474011e-04
8.460368269156e-04
4.052497561465e-04
9.034475555497e-04
9.025505378386e-04
7.709083270601e-04
8.195089923752e-04
6.617362762152e-04
0.0
4.176416125064e-04
6.092826118018e-05
7.888929342565e-04
4.363249681698e-04
7.275214838645e-04
2.209065391860e-04
8.130906403886e-05
7.783803544764e-04
4.610171208733e-04
3.609674789086e-04
7.334454872421e-04
7.883388593484e-04
3.608088371091e-04
6.922006084626e-04
6.034876983327e-04
6.562206089320e-04
6.777106223571e-04
3.699030016403e-04
4.367455166762e-04
4.808107450878e-04
6.170029851944e-04
7.543946188843e-04
6.998918906109e-04
2.236916744938e-04
7.865894495829e-04
7.412777532416e-04
5.338023001125e-04
6.428876137913e-04
6.366868729429e-04
7.982659732683e-04
7.683299234494e-04
5.896655507063e-04
7.981209395123e-04
7.317182777283e-04
6.996282799597e-04
8.110166413216e-04
7.924641880626e-04
6.744131504159e-04
6.666687721535e-04
2.222812676772e-04
2.065367340502e-04
1.125541859685e-04
6.237733767346e-05
7.698425966603e-04
7.679810230491e-04
6.018528781591e-05
7.767838420586e-04
5.508431979073e-04
7.139111020130e-04
7.225345758280e-04
3.210916204918e-04
7.277792051553e-04
5.345154592761e-04
6.681973168260e-04
8.270717611794e-04
2.126569924616e-04
8.168359037540e-04
6.998709092975e-04
2.419277465397e-04
2.572139128868e-04
5.157383088969e-04
6.206435762795e-04
3.445305893728e-04
7.246223149107e-04
6.508258121004e-04
5.014012835763e-04
6.818156971164e-04
7.083328473163e-04
6.952144219197e-04
1.892569743241e-04
4.759731321316e-04
7.583758524429e-04
7.205684773620e-04
4.286991399853e-04
6.094148028769e-04
7.977133214395e-04
6.694832793452e-04
1.063908867657e-04
1.078325644387e-04
2.185995729447e-04
7.487063186169e-04
6.453888805748e-04
5.685571839540e-04
5.747340170202e-04
7.632873978513e-04
5.213198554590e-04
7.022694847875e-04
2.278532579141e-04
8.104690401052e-04
5.072778477496e-04
2.493887876613e-04
4.811363962896e-04
3.641239825016e-04
2.855768811343e-04
5.596568083914e-04
0.0
0.0
6.426259570283e-04
2.090044132862e-04
6.487981239576e-04
6.292228741945e-04
3.962033144448e-04
2.579044153745e-04
7.616473441749e-04
1.019762165520e-04
3.852520764996e-04
7.853811998397e-04
1.733076863571e-04
6.041255787992e-04
5.562754309982e-04
1.755785073398e-04
7.771304788849e-04
6.907987842018e-04
2.031638653013e-04
7.812508794649e-04
7.761681869909e-04
2.340588006309e-04
3.099693431780e-04
2.401902132467e-04
6.877850878179e-04
5.412899770906e-04
7.773630800326e-04
7.570625316910e-04
6.683791686238e-04
6.625290522613e-04
1.893340517518e-04
6.820308372633e-04
6.862847063831e-04
5.467902184326e-04
6.498698714300e-04
7.159072219897e-04
4.836380743717e-04
7.367030404168e-04
4.559169101876e-04
5.273150536082e-04
3.411674526490e-04
3.634633618335e-04
6.658946142908e-04
5.048839066709e-04
2.598481237302e-04
1.310675626010e-04
6.702674056581e-04
2.538844621688e-04
8.100545142142e-04
6.906694072021e-04
7.081089564605e-04
8.422326803080e-04
4.360105328501e-04
2.279423584865e-04
1.438342882826e-04
6.746645813760e-04
6.253129879063e-04
9.918819555369e-05
3.502385490956e-04
2.023555415197e-04
6.246699331793e-04
3.695628740598e-04
6.232537801749e-04
3.438500574503e-04
7.461722125166e-04
2.994852823398e-04
6.807902368991e-04
2.134297640903e-04
6.549102842848e-04
5.031003560477e-04
6.885245121902e-04
3.402916395449e-04
1.961866029563e-04
5.822861240524e-04
6.308362435894e-04
4.380632245669e-04
6.281676019648e-04
2.380403549025e-04
6.367384190698e-04
1.839508450066e-04
7.725002622059e-04
6.561620715167e-04
6.933815038025e-04
8.092250112126e-04
5.501611933615e-04
1.836188012187e-04
6.153653481655e-04
7.923633784811e-04
3.086645625323e-04
6.943493645374e-04
6.953376833628e-04
2.383737125918e-04
6.351661673105e-04
5.732469191632e-04
2.731502544442e-04
3.307497968412e-04
5.297758459477e-04
6.688023425968e-04
4.058187172305e-04
5.054096064123e-04
6.614441040854e-04
5.998784189862e-04
5.910883509517e-04
4.972646323121e-04
7.574466861930e-04
5.955283378909e-04
5.798186174699e-04
8.003940697799e-04
7.180161900282e-04
6.490287924266e-04
7.113553544645e-04
3.823555630989e-04
3.565404549641e-04
1.953976897051e-04
6.410050228313e-04
3.763189430417e-04
6.449063337002e-04
6.199045494020e-04
5.084125206731e-04
3.051454170769e-04
3.258730291925e-04
3.248932828681e-04
3.506411482378e-04
2.087274372249e-04
7.378551383479e-04
4.282574386795e-04
7.412552030348e-04
4.541815597642e-04
6.095351943613e-04
5.187506594856e-04
4.997510169959e-04
2.146153585684e-04
7.711538397405e-04
8.079476018067e-04
6.361701368165e-04
3.764967077337e-04
5.641220258623e-04
6.406080403220e-04
4.020423173836e-04
4.195882062222e-04
3.055816158326e-04
2.636950223364e-04
4.082271319947e-04
2.736025990170e-04
2.537953830401e-04
5.245273162057e-04
6.292993035881e-04
7.492900454241e-04
3.203758316606e-05
4.405577458711e-04
4.346027194587e-04
4.023785191974e-04
6.155232675037e-04
4.734346387430e-04
3.196066524516e-04
4.342139395113e-04
7.163087986927e-04
3.260933403649e-04
1.168244718053e-04
1.647945889040e-04
2.770873895178e-04
3.310730520104e-04
4.602757153186e-04
4.600207765890e-04
1.928157764076e-04
1.707341749778e-04
5.895058594021e-04
2.797745439378e-04
7.062976887918e-04
7.244525292788e-04
5.994482200641e-04
7.479362706433e-04
7.722073383501e-04
4.891222082220e-04
6.801196645123e-04
2.186358735565e-04
4.535223376976e-04
4.450813002302e-04
2.467733830818e-04
1.750442891068e-04
3.704464435431e-04
4.405809917950e-04
4.660198440887e-04
2.935158266565e-04
4.992118488517e-04
4.465362306875e-04
4.659568211177e-04
3.372178723478e-04
6.620913788087e-04
6.659627664384e-04
4.464589383721e-04
7.516390930913e-04
2.441816649308e-04
8.072504021232e-04
4.795300791222e-04
8.017371460895e-04
6.085549533664e-04
2.321228935279e-04
6.185852731565e-04
7.630767509020e-04
5.051417859832e-04
3.661414466216e-04
6.376993777508e-04
4.811178594329e-04
1.857807587189e-04
8.390465361483e-04
1.628736303485e-04
8.036589317590e-04
7.822328340233e-04
6.817113985780e-04
5.944690303378e-04
7.324063707552e-04
4.717283072585e-04
5.530050660420e-04
7.919782093495e-04
6.749206336022e-04
6.866667910661e-04
6.457616521014e-04
2.126152465348e-04
7.069826387246e-04
8.629714234730e-04
7.993865070988e-04
4.477431927428e-04
5.982374328927e-04
5.702467583064e-04
4.852758503030e-04
6.550541832802e-04
6.806275031619e-04
1.495582113029e-04
2.819536409307e-04
4.719088448474e-04
4.524404810499e-04
4.753774359264e-04
8.204202764358e-04
7.726022105671e-04
7.860269249390e-04
4.302864262974e-04
7.179879766962e-04
6.608709654568e-04
7.991666135651e-04
6.815066276248e-04
4.792430800077e-04
4.524987585418e-04
7.025482517895e-04
7.779314873333e-04
7.070226180185e-04
6.822309135255e-04
7.465300404061e-04
7.826368761700e-04
7.260240088116e-04
5.837814341675e-04
4.125387530950e-04
7.065160572798e-04
6.683788434956e-04
2.478373517059e-04
4.777284192442e-04
5.353515613939e-04
5.977625510039e-04
2.507745920709e-04
4.583293862520e-04
6.426616075672e-04
4.741323037944e-04
4.930461985426e-04
6.351704220665e-04
5.035899061353e-04
8.748336872996e-05
5.699093729232e-04
6.954848808431e-04
7.976626568000e-04
5.222109466484e-04
5.384171766190e-04
6.412047717611e-04
1.333587154635e-04
6.759698665895e-04
5.725287969111e-04
5.032199876639e-04
6.864279124225e-04
2.514950635447e-04
7.120564692623e-04
7.780948302509e-04
6.564610749457e-04
7.116821158201e-04
7.246360851013e-04
7.833643354194e-04
1.802790547338e-04
6.612816129093e-04
7.861355491829e-04
7.278229343817e-04
6.115797601383e-04
4.833414631772e-04
5.268286526492e-04
1.425296761520e-04
7.526132568008e-04
2.678943445110e-04
2.211120256558e-04
7.044851606333e-04
8.041173484503e-04
2.253293374700e-04
5.541855973425e-04
6.771406016496e-04
5.185055617143e-04
2.565916003583e-04
3.358426263350e-04
1.654267237843e-04
2.195587793392e-04
1.948064560472e-04
5.668209511317e-04
9.024478657275e-04
2.656438147348e-04
7.662341416689e-04
4.141061097714e-04
6.566720836641e-04
1.877799869201e-04
8.084989395093e-04
1.994569434083e-04
3.140464818660e-04
6.820386484981e-04
4.908002713549e-04
7.628181862507e-04
3.758479425673e-04
6.979283655874e-04
7.957911377227e-04
6.571731431381e-04
8.029731230695e-04
7.270515574910e-04
7.476451225947e-04
2.191637260577e-04
7.397348748796e-04
6.976508043859e-04
5.085012302089e-04
3.119003519742e-04
8.251246623771e-04
2.569217320374e-04
2.989728286296e-04
7.328562567959e-04
1.824812964156e-04
5.242757088580e-04
7.013386659934e-04
7.908799406318e-04
8.131260850100e-04
6.875825611049e-04
7.527048348785e-04
4.392290927810e-04
7.101308226447e-04
3.576610988848e-04
7.839173444398e-04
4.037880571282e-04
4.232159837033e-04
5.029022043263e-04
4.507734252293e-04
5.870500808989e-04
4.752244134070e-04
5.026363052125e-04
2.249310114461e-04
4.776453301647e-04
7.733738486002e-04
7.976476035845e-04
6.945548351068e-04
7.772416007151e-04
4.852334699188e-04
7.428006378953e-04
4.970035832583e-04
7.593068717160e-04
7.224411528600e-04
7.227149131649e-04
6.309607774765e-04
4.584456414079e-04
7.531944029664e-04
6.034972236900e-04
2.308119231500e-04
2.624460620044e-04
3.872761120802e-04
5.489843774695e-04
7.797820896700e-04
7.023632392719e-04
4.641088760791e-04
6.218312804433e-04
7.219008359154e-04
7.573917115974e-04
7.785266204010e-04
6.280166874005e-04
7.383877363914e-04
5.278638301658e-04
7.262918204668e-04
5.188928070716e-04
7.977154867570e-04
8.063595481928e-04
5.860927408408e-04
2.315643799225e-04
7.386133228481e-04
5.676947967437e-04
4.449348027813e-04
6.172626666964e-04
7.179827493323e-04
2.370266014844e-04
5.414414582278e-04
6.328258620691e-04
7.852987061870e-04
6.515827953541e-04
7.191722898294e-04
6.137788463094e-04
5.757943947390e-04
6.225247935544e-04
7.525361268811e-04
7.265450907645e-04
6.730854564585e-04
8.087327558910e-04
5.947165434318e-04
3.757083337357e-04
7.690299236002e-04
8.027797653313e-04
5.132285230033e-04
5.378259550272e-04
4.198490164914e-04
6.932498007595e-04
4.196989786401e-04
6.013383056530e-04
4.244065472614e-04
7.076412824924e-04
8.082825049946e-04
4.390606027736e-04
1.483230989868e-04
8.029617023961e-04
4.435164002791e-04
5.102475381477e-04
7.829133683486e-04
6.777367698023e-04
7.065388141310e-04
4.506750626245e-04
1.167461404750e-04
8.120451166423e-04
5.678324770761e-04
6.713655535843e-04
7.707853918245e-04
7.492364537136e-05
7.006400612350e-04
3.174082064534e-04
6.321144681100e-04
5.639974680990e-04
4.332125152761e-04
7.650774128591e-04
5.816219672421e-04
3.891223975006e-04
5.975818898240e-04
1.224806412890e-04
6.853035704159e-04
7.134125102004e-04
8.179492543021e-04
7.297421601193e-04
3.065079168190e-04
7.004003726196e-04
8.165253916177e-04
8.479924542833e-04
7.386332535642e-04
4.696607101220e-04
6.412724926972e-04
7.730297312436e-04
5.224557452220e-04
6.991686312028e-04
6.522881639181e-04
7.454810025326e-04
7.319099201394e-04
4.592718609033e-04
4.589748948831e-04
6.632348156822e-04
6.550643866417e-04
5.839389106664e-04
6.520225668259e-04
5.568349206801e-04
7.827592798598e-04
4.641682869918e-04
9.023985271437e-04
5.323389960366e-04
5.433977192185e-04
5.581483784777e-04
2.876533767836e-04
4.987925639303e-04
6.113280308229e-04
5.734936793023e-04
6.486149626944e-04
6.664011184541e-04
6.953526663878e-04
1.412062264109e-04
4.675204502198e-04
4.485143747990e-04
6.274607649306e-04
6.578443530004e-04
7.694390836844e-04
2.018827599834e-04
2.118548485698e-04
5.434196226545e-04
4.731655300954e-04
4.306957946138e-04
4.543511483622e-04
6.528939094235e-04
2.067591147696e-04
5.327937831684e-04
7.010212531473e-04
2.056531891882e-04
8.439841012356e-04
7.711259233898e-04
5.127813030370e-04
7.142204993727e-04
8.010879403205e-05
6.760026335023e-04
5.731440943210e-04
7.848797575394e-05
7.668831780950e-04
1.937244266693e-04
6.327922999710e-04
5.785286832994e-04
4.968174943866e-04
5.956127873224e-04
7.880861604784e-04
6.409960854337e-04
5.623311144195e-04
5.487641104452e-04
6.109272857416e-05
1.629874435700e-04
7.482510755206e-04
6.040877386252e-04
7.640917445135e-04
3.123204989809e-04
7.273523556962e-04
7.747935678475e-04
4.649937047846e-04
7.426717535746e-04
7.200303897050e-04
6.303284010484e-04
5.129756421741e-04
5.441585730997e-04
8.113189037915e-04
5.503878304791e-04
5.924281748206e-04
5.531250535128e-04
6.865936238777e-04
5.186424646122e-04
3.204813496190e-04
5.606647508770e-04
3.450779890533e-04
6.470302402466e-04
3.505252796099e-04
6.277520247305e-04
7.587948185470e-04
7.268103064184e-04
4.888355696636e-04
6.236801479114e-04
7.339558663339e-04
7.397456106695e-04
1.647892676569e-04
6.415300113062e-04
8.022742046258e-04
3.412132358055e-04
5.581165807734e-04
8.708025055710e-05
7.535189856760e-04
3.010719485934e-04
5.274804108231e-04
6.673026496075e-04
6.282397646401e-04
5.981992314315e-04
5.868815627898e-04
3.840091498006e-04
4.074033715262e-04
7.595591585227e-04
6.255621355900e-04
5.413215478798e-04
6.709724982699e-04
5.163063894937e-04
3.315774455480e-04
3.763959762493e-04
5.615934434708e-04
4.817973037771e-04
7.326130562771e-04
4.941499276580e-04
8.205042127968e-04
7.452468947420e-04
5.472972600878e-04
8.312900741524e-04
3.699819044739e-04
8.018291199323e-04
5.922723470957e-04
6.492908331354e-04
7.668482132430e-04
3.896525471501e-04
6.172543904820e-04
5.220226255599e-04
6.028779115149e-04
3.408590409728e-04
6.699987248021e-04
4.909242862165e-04
5.778210378881e-04
5.978296419796e-04
8.229029561000e-05
5.981137410256e-04
1.283223021349e-04
1.425604046919e-04
5.519635169088e-04
7.343432326655e-04
6.172079870032e-04
3.390874049380e-04
8.835512891396e-04
3.541794485888e-05
3.613399971481e-04
5.544855267789e-04
5.326254913468e-04
4.424845602747e-04
3.782682788717e-04
5.798739096979e-04
6.167777849603e-04
6.437007506706e-04
7.590632464972e-04
1.759096795290e-04
5.070291229362e-04
5.467926510370e-04
2.917605163706e-04
4.894986857120e-04
6.227812367473e-04
6.771752748072e-04
1.001730422140e-04
6.527003657202e-05
2.035166912421e-04
5.524955955533e-04
4.141708406182e-04
3.646770521929e-04
3.255364608925e-04
5.717928128404e-04
6.564800500114e-04
5.666644769926e-04
4.085506308660e-04
6.465993337185e-04
5.417387641994e-04
7.125425157821e-04
5.723661868930e-04
5.777202621077e-04
2.916076193924e-04
4.336480661839e-04
5.858412025591e-04
6.379366452071e-04
5.991263956497e-04
3.166301193058e-04
5.916947495787e-04
3.585996022864e-04
1.686121238923e-04
8.065430386563e-04
1.781249146415e-04
3.724154870578e-04
5.819798147523e-04
3.300189918571e-04
5.928518961627e-04
2.717893358977e-04
5.034514971512e-04
5.975048584584e-04
5.161248570229e-04
5.386329409282e-04
8.667360441849e-05
7.766355700003e-04
4.278027150325e-04
7.709884658025e-04
6.554981013868e-04
6.113729652278e-04
6.169416889889e-04
3.837801442347e-04
1.206709874370e-04
7.269670928316e-05
6.307319205139e-04
7.666183021714e-04
3.527221907689e-04
6.608281624571e-04
3.135411494528e-04
6.715213762121e-04
8.631320342243e-04
2.443176703526e-05
8.829965077119e-04
8.852121263970e-04
5.187863560737e-04
4.219301114264e-04
6.361517130024e-04
3.946797178833e-04
1.259295258068e-04
6.663094765465e-05
8.124043100395e-04
6.435964837156e-04
4.857059802391e-04
9.024611897643e-04
2.289087475018e-04
9.032106261994e-04
6.378439507150e-04
4.156051056860e-04
6.056962681492e-04
3.904754317435e-04
1.913315701783e-04
3.651077128311e-04
6.756031953244e-04
7.724144175276e-04
3.966058680347e-04
6.856021964007e-04
0.0
4.025686827041e-04
7.139120631654e-04
3.570731400853e-04
3.273347299656e-04
6.111873319657e-04
1.714241601602e-04
2.420040212522e-04
2.712090176002e-04
3.127039070016e-04
5.608332313648e-04
5.328849272093e-04
6.902231196026e-04
8.080955017943e-04
2.842556977963e-04
6.821682045895e-04
8.109606697113e-04
3.645861892778e-04
1.258230046435e-04
3.462855414954e-04
5.351169772372e-04
6.908562819823e-04
5.298709099370e-04
1.475829349837e-04
6.052995487488e-04
2.176340386909e-04
5.379426478049e-04
5.747509196573e-04
6.255223732288e-04
6.198429424376e-04
3.190834650638e-04
1.430237184057e-04
6.204770996910e-04
2.385014860191e-04
5.727538746632e-05
8.088933360730e-04
7.702342677557e-04
3.537830069708e-05
6.503365910815e-04
2.479462791813e-04
2.600158871832e-04
7.304280687047e-04
6.303423890785e-04
7.052277971026e-04
4.085225165101e-04
4.822303009211e-04
8.428341203802e-04
2.144184038726e-04
7.491156234450e-04
5.624077246742e-04
1.620147722767e-04
6.703416370318e-04
4.275751542475e-04
7.844671194515e-05
3.593652216937e-04
6.605802268349e-04
6.829403826903e-04
1.683856497506e-04
5.389059366488e-04
7.114080209456e-04
7.412554945831e-04
3.386366915787e-04
2.659836531276e-04
5.773807037095e-04
6.106537074396e-04
7.794080869892e-05
8.647472179012e-04
8.429320017221e-04
5.419416684599e-04
8.464641737962e-04
8.449768812639e-04
4.218473016108e-04
4.026312649594e-04
8.662430778611e-04
0.0
2.463689065015e-04
5.423185032493e-04
3.455780040321e-04
3.534199359639e-04
1.932563100895e-04
2.285242578868e-04
5.533910755366e-04
3.894757547290e-04
2.855356333337e-04
7.152732176559e-04
9.025430170280e-04
9.028555141478e-04
4.158729496666e-04
4.991986293731e-04
5.007569812017e-05
1.549723110472e-04
1.733686555641e-04
1.773311158401e-04
6.057473022357e-04
3.472267394595e-04
3.840401147294e-04
1.047743844350e-04
7.694785082956e-04
3.779515105815e-04
8.054340909103e-04
7.382880291593e-04
9.042222901304e-04
9.037391284983e-04
5.542239624202e-04
3.965200569982e-04
2.395169663989e-04
4.095473271816e-04
8.846617183911e-04
1.091075619098e-04
1.309117937249e-04
7.757007018757e-04
5.216493301951e-04
8.114985139276e-04
7.149555952708e-04
7.808260194802e-04
7.476070933347e-04
5.490969887376e-04
3.014610573917e-04
2.949948221418e-04
6.532450277148e-04
7.635848575454e-04
4.588641132707e-04
5.205058156001e-04
5.540928897098e-04
5.659168286544e-04
1.420511469143e-04
2.680728897049e-04
8.651629045309e-04
6.052440982456e-04
8.634119896890e-04
8.245717668539e-04
6.764662760295e-04
8.149161431282e-04
3.967880254959e-04
3.767005960415e-04
8.110139756078e-04
3.456957431072e-05
2.657950424331e-04
8.824542840959e-04
1.237061144379e-04
4.987214213507e-04
8.294168402688e-04
8.695215841111e-05
5.602562008274e-05
9.015334466947e-04
4.603425485765e-04
8.489922161072e-04
8.087138917440e-04
4.591008030381e-04
5.552241480747e-05
8.444214902365e-04
1.414135789209e-04
8.168961864667e-04
8.837090559571e-04
8.142426765288e-04
1.807958899793e-04
5.595583047635e-04
4.199792468794e-04
7.164591502921e-04
9.028817437699e-04
7.102313129860e-04
9.026811156521e-04
8.288145526137e-05
8.646233726606e-04
2.069739792553e-04
1.172764018555e-04
8.657097316282e-04
8.659008612292e-04
8.625184092857e-04
5.047279818662e-04
5.503926425959e-04
1.934303277458e-04
8.651050625011e-04
3.388354453695e-04
1.130064855855e-04
7.389517174799e-04
4.782630476822e-04
8.223389270152e-04
8.930658412704e-04
8.840898532866e-04
2.334843234610e-05
1.127894866393e-05
4.694771593736e-04
4.807281389759e-04
8.834165587509e-04
8.924916119185e-04
5.576594174246e-05
0.0
8.119181321880e-04
8.142322994913e-04
1.701766019211e-04
8.251842060796e-04
5.739886326733e-04
5.078648088346e-04
6.388823889726e-04
1.550243662730e-04
6.739268272391e-04
1.393043346543e-04
4.524792319836e-04
8.185153464905e-04
7.987444324357e-04
4.885491561285e-04
5.870976835179e-04
8.300271616539e-04
7.651236002798e-04
7.207118451452e-04
4.587797315069e-04
6.508513547531e-04
8.137396714987e-04
2.548267730587e-04
6.130172025363e-05
7.910594940572e-04
7.454571359396e-04
1.168423234533e-04
6.691954016891e-04
8.437645600948e-04
7.822748954746e-04
8.291678905268e-04
6.276953752614e-04
3.676099362061e-05
1.910008398258e-04
2.410902129174e-04
5.367277688070e-04
6.465619629803e-04
8.260192756098e-04
8.426510046720e-04
9.968867775762e-05
9.583122356830e-05
1.529254075451e-04
6.701562114990e-04
3.239280242567e-04
8.294279570789e-04
1.624109286017e-04
8.067702666274e-04
5.436640056567e-04
8.463726308532e-04
7.450121923899e-04
5.381792224530e-04
8.657268182902e-04
8.669176791877e-04
8.641188598614e-04
1.063408641689e-04
8.096899185402e-04
8.433515583067e-04
8.209426083778e-04
7.578403458605e-04
8.820824508574e-04
7.152183658321e-04
0.0
1.476863544574e-04
7.925042984467e-04
5.819610102914e-04
8.150003304523e-04
7.872814678585e-04
8.479070143319e-04
7.210640868520e-04
8.478357315245e-04
8.252654922693e-04
8.217924527873e-04
3.382456616413e-04
9.027319105777e-04
5.177284306761e-04
8.149780141980e-04
7.602985457212e-05
7.853489742656e-04
6.747924126657e-04
9.715604780866e-05
1.703587158512e-04
7.357623737217e-04
8.456239339759e-04
8.256639794594e-04
8.510870588009e-04
5.779321806582e-04
5.698562791087e-05
8.903845588755e-05
6.283407249005e-05
1.237561416650e-04
2.218122983909e-05
4.492152745151e-04
8.141022284179e-04
8.188324132241e-04
5.825183578263e-04
3.912991429551e-04
8.215127337613e-04
8.144364166830e-04
8.676175675571e-04
8.131246206762e-04
7.790398171078e-04
7.703091579876e-05
8.521732389425e-05
8.233105816384e-04
7.749586532649e-05
1.142956473345e-04
7.248547269918e-05
8.699680012183e-05
8.468513703275e-04
8.482556314247e-04
8.272172742286e-04
8.507165112290e-04
7.882896166762e-04
6.050128159723e-04
8.848716184046e-04
2.082654753157e-04
4.770383954530e-04
1.308584681555e-04
3.200133854228e-05
9.023297721724e-04
5.253788953819e-04
1.321285258096e-04
4.283053972209e-04
8.675733916603e-04
8.249021745336e-04
8.483302000566e-04
3.066024421433e-04
8.148429218192e-05
8.670431337253e-04
9.023411771345e-04
9.053923630978e-04
5.028745524170e-04
8.096342445588e-04
1.166784308444e-04
8.309395715063e-04
3.072536449823e-05
8.491015123024e-04
8.642157995563e-04
3.254999792424e-05
7.915264275696e-04
6.950269549080e-04
8.486200653357e-04
8.870888049155e-04
6.371787866159e-04
8.507580346647e-04
8.288142407060e-04
6.543265911992e-04
8.219609091343e-04
3.580802034436e-04
4.580585415293e-04
8.289670477400e-04
8.604442280761e-04
0.0
4.595975431844e-04
8.621910031762e-04
1.592545715764e-04
8.297085483634e-04
8.243206064822e-04
8.644406776067e-04
1.547160338610e-04
1.208044010377e-04
5.264955792143e-04
7.516483182700e-04
1.891156848520e-05
8.515789897366e-04
6.135789601255e-04
1.559509946477e-04
5.832862224491e-04
8.658507257749e-04
5.521778443811e-04
4.558321396471e-05
3.239427989419e-04
4.776913424967e-04
5.701251507253e-04
8.287479897685e-04
4.636624967177e-04
4.900391319366e-04
7.786229875005e-05
8.280550521141e-04
7.926388045417e-04
1.331660701839e-04
8.512291248288e-04
8.566440339275e-04
5.134667395409e-04
6.297245589001e-04
4.683583638002e-04
4.786896715519e-04
5.070171589005e-04
7.879088551411e-04
1.144990407912e-04
8.287518740281e-04
5.339553679767e-04
8.658836050112e-04
7.862007520820e-04
5.990262297868e-04
7.981889298720e-04
8.203027348468e-04
8.695097463781e-04
3.580066420134e-05
8.023135303917e-04
8.310675113497e-04
8.967195667714e-05
4.375219600786e-04
5.410315473196e-05
8.369220774202e-04
4.343021193814e-04
4.144431140943e-04
4.400238155636e-04
4.160910928413e-04
4.407194433539e-04
4.169792812266e-04
4.421275663542e-04
4.155655137509e-04
4.404257626118e-04
4.163557751547e-04
4.417490498800e-04
4.164243392235e-04
4.451512402664e-04
4.411469643058e-04
4.182864247912e-04
4.154450539294e-04
4.421592365310e-04
4.167200733669e-04
4.407251200889e-04
4.170139093125e-04
4.420435047998e-04
4.169234513539e-04
4.225836555007e-04
4.425201970351e-04
4.165861177248e-04
4.414159334299e-04
4.159924669279e-04
4.163537947849e-04
4.414971076271e-04
4.437645096039e-04
4.307709466435e-04
4.031793137794e-04
4.348445271150e-04
4.227645607119e-04
4.331703470473e-04
4.187044942453e-04
4.146339968586e-04

SCALARS element_materi_plasti_phimob float
LOOKUP_TABLE default
9.956336444233e+00
6.771370577551e+00
1.970031279243e+01
1.681764326863e+01
-4.494550802792e+00
-7.378122931198e+00
-4.190752224827e+00
8.653988154894e+00
-3.760214607426e+00
1.675301797670e+01
2.168009351743e+01
5.578050372336e+00
2.097424766516e+01
2.293631530679e+00
2.076957052902e+01
1.729235175955e+01
-6.541325475332e+00
-7.684012472421e+00
1.106735501620e+01
1.205461712815e+01
1.670988798326e+01
8.133917293631e+00
1.038585367995e+01
2.186523768009e+01
7.707669957917e+00
2.173917890632e+01
-7.442883667040e+00
2.203871597874e+01
8.628736822959e+00
2.181841222329e+01
2.235013104230e+00
-2.069522583888e+01
1.935513556741e+01
2.145176039994e+01
2.120383665873e+01
2.090925885454e+01
2.080389004613e+01
2.194189719095e+01
-1.668076368111e+01
-1.609850718918e+01
1.143700601848e+01
2.099587663747e+01
5.359692447932e+00
-5.953070004954e+00
1.620844537067e+01
4.074991119824e+00
-4.575191839272e+00
1.641873155419e+01
-2.200345731770e+01
-1.519835682501e-01
1.130423337219e+01
1.430459881110e+01
1.134966685338e+01
8.364434809076e+00
1.830538166784e+01
1.785137100920e+01
1.523372813024e+01
2.152054682261e+01
5.358230908533e+00
1.726083991296e+01
-2.721864424799e+01
2.238499847635e+01
1.718953427558e+01
9.135218062333e+00
2.098212048443e+01
8.103287475368e+00
-2.998719299616e+01
1.964014102336e+01
5.945407649938e+00
2.107206871373e+01
2.173171636176e+01
1.885966308011e+01
2.156631104204e+01
-1.352600892370e+01
1.850675745341e+01
1.696142179349e+01
1.825002766336e+01
-6.777195418332e-01
5.945862742292e+00
2.343835247104e+00
6.396967701327e+00
-7.133346215766e+00
1.035561720285e+01
6.977552050300e+00
3.282515684754e-01
1.382251499825e-01
2.167256401951e+01
2.156448705171e+01
1.740860063328e+01
-4.525565422079e+00
-2.114365305621e+01
-2.997215878200e-01
1.297845140524e+01
1.252521878831e+01
1.814501832129e+01
2.143831493993e+01
-7.002695135778e+00
2.148767621488e+01
6.086782959247e+00
1.448588295130e+01
-9.530629563946e+00
2.084371664542e+01
2.286385580315e+01
2.205859141104e+01
1.584850129853e+01
-5.993206746075e+00
2.118077661710e+01
1.418094453433e+01
-2.269543337906e+01
2.073107331004e+01
1.722627748159e+01
-2.497765696761e+01
2.202986551557e+01
5.792738336535e+00
2.020062039764e+01
1.383032209237e+01
1.674065045642e+01
2.103062647529e+01
4.482243515497e+00
1.701494030133e+01
5.123863725960e+00
1.582019996357e+00
1.438779732130e+01
1.636423986812e+01
-9.632631138235e+00
1.112411512236e+01
1.989209886428e+01
7.733901457369e+00
1.755730211329e+01
-3.859524047580e+00
2.175101904998e+01
1.685841464354e+01
1.657531172334e+01
1.178733272091e+01
2.138214443036e+01
2.094736679544e+01
2.173609833332e+01
1.659268756393e+01
2.165614405056e+01
1.426705605390e+01
1.720519285910e+01
2.126944311636e+01
2.951288844943e+00
1.007493095897e+01
1.506192599174e+01
8.430985562582e+00
1.783418622042e+01
1.866154505797e+01
-7.665890592480e+00
2.146816224360e+01
-2.207452048438e+01
-2.387446369060e-01
7.133253211033e+00
8.346295316896e+00
2.107599473884e+01
1.659950246758e+01
2.165435018447e+01
5.489637222449e+00
2.325824466536e+01
-6.665474211051e+00
2.202478745949e+01
2.140632770365e+01
5.251490119502e+00
2.120906918406e+01
1.027889049227e+01
2.113459294331e+01
-7.219103414545e+00
1.868054155400e+01
2.848471459924e+00
2.179270299005e+01
7.605695954059e+00
2.131332103688e+01
1.143251664665e+01
-7.432214507304e+00
2.068628703354e+01
5.845310448489e+00
2.038437484383e+01
2.055488295156e+01
2.154591027301e+01
2.141004080302e+01
1.121437436759e+01
2.070077088701e+01
2.237849343274e+01
1.300241935409e+01
9.491609085337e+00
6.989745465991e+00
2.044494707116e+01
1.717924590991e+01
1.630267910642e+01
2.131082017851e+01
2.333868089495e+00
2.101740446154e+01
1.723295151506e+01
-3.079658888932e+01
1.161179150338e+01
2.262811299848e+01
-3.315540166808e+00
1.839597381467e+01
1.221735524939e+01
2.187475494945e+01
2.302826717102e+01
5.213557821224e+00
6.378313536804e+00
2.151417385635e+01
1.891739041892e+01
1.940631635414e+01
1.262118688547e+01
1.304650423975e+01
1.099339286602e+01
8.770693839468e+00
2.335026986356e+01
1.961252702386e+01
-2.522517591813e+01
1.140212231092e+01
1.463111486142e+01
1.824330657173e+01
1.658499385985e+01
4.458535848864e+00
2.273506707287e+01
-8.219062417417e+00
2.178324153083e+01
2.279478217028e+01
-1.702122999910e+01
1.410856227038e+01
-2.308094612516e+01
-2.212446302581e+00
3.943889684603e+00
1.685673554929e+01
1.467656610754e+01
1.530069862194e+01
9.774074811324e+00
1.066673392080e+01
8.534262599863e+00
2.286101800732e+01
1.154929506008e+01
2.105286917221e+01
-3.568666927880e+01
1.458999701651e+01
2.292686666729e+01
1.174655607307e+01
2.313663259285e+01
2.109280694688e+01
1.549904344973e+01
1.829279174851e+01
2.249981669095e+01
2.174157926656e+01
1.765591646042e+01
1.380633011250e+01
2.169948065381e+01
2.221690876775e+01
1.039984550701e+01
1.282953506031e+01
1.810735384909e+01
1.959082008759e+01
2.359224575134e+01
1.054202860928e+00
2.443242756396e+00
9.786275262014e+00
1.920721415979e+01
1.190569836069e+01
4.904234703203e+00
1.449399933109e+01
1.304624033240e+01
1.918355498063e+01
1.504240396463e+01
1.652244433793e+01
1.689194643480e+01
2.080468148947e+01
2.424627454189e+01
1.595894951523e+01
2.152985333105e+01
2.363684433677e+01
1.665791175128e+01
-3.711033251489e+00
2.283520450887e+01
1.977846373076e+01
1.519264760642e+01
-2.342926793416e+01
1.073829735545e+01
2.070013725563e+01
1.365443798650e+01
1.557659662278e+01
1.393415930353e+01
-5.659588609258e+00
1.483300060427e+01
2.415920742229e+01
1.231441120095e+01
3.485639702833e+00
-1.001733826769e-01
2.076929813165e+01
1.855147486412e+01
1.196849058837e+01
1.423759683233e+01
1.500829482897e+01
2.333393968929e+01
2.271738582746e+01
3.080702479670e+00
2.277975279187e+01
2.168346350404e+00
1.916465306175e+01
2.006407156655e+01
2.065476201385e+01
1.814606937863e+01
1.205947873454e+01
1.686793814105e+01
1.494377440883e+01
1.950836123564e+01
1.698004570790e+01
1.709032672313e+01
2.136100728583e+01
2.374460364366e+01
7.530462092783e+00
2.134841586927e+01
1.596088656024e+01
1.867252431719e+01
8.891029852890e+00
2.389359661433e+01
2.351347410663e+01
2.038074032931e+01
1.398615610088e+01
2.117706641378e+01
2.233921059424e+01
2.368996303975e+01
6.103552395590e+00
8.810850845069e+00
2.318906641663e+01
1.182811866056e+01
7.396146189509e+00
2.176582613291e+01
2.280658791899e+01
2.081239747838e+01
7.636544448679e+00
1.759548524764e+01
6.810130559491e+00
1.293655566740e+01
1.488879744032e+01
1.494274515493e+01
2.002708201797e+01
2.187207459709e+01
7.365886424912e+00
8.296914447564e+00
2.194363687142e+01
1.367575393983e+01
1.053177525811e+01
1.569294791856e+01
-6.878216883889e+00
1.943864187834e+01
2.050907761700e+01
1.534727300164e+01
1.487266747226e+01
1.376002397196e+01
2.410924789008e+01
2.334626895253e+01
2.179886476287e+01
1.293277582059e+01
1.981319348392e+01
2.109849316460e+01
9.477844402075e+00
1.252367040483e+01
1.742181708864e+01
1.837219817076e+01
1.280339286843e+01
1.236210301759e+01
2.160718167184e+01
2.195682823009e+01
1.728324711230e+01
1.440995428009e+01
2.294595840986e+01
1.708553191134e+01
1.712422398270e+01
1.976384631504e+01
1.906464452600e+01
2.358777153353e+01
2.153736343256e+01
1.657670258083e+01
1.877744482573e+01
2.032209371371e+01
1.597817995897e+01
1.898171948711e+01
2.036288702369e+01
1.971886354215e+01
1.839617721130e+01
2.301360334907e+01
1.494389831276e+01
1.134861204731e+01
2.148035601900e+01
1.076530980419e+01
1.509830878545e+01
-5.309928181495e+00
7.118454815542e+00
2.183583171873e+01
1.829732005618e+01
1.203137064065e+01
1.591866262716e+01
1.468539848328e+01
-5.505023462395e+00
2.294728641466e+01
2.112149729505e+01
2.234540568702e+01
-4.221407931042e+00
7.906940621440e-01
1.147026134565e+01
1.718424284445e+01
2.073161505684e+01
2.337199920578e+01
6.112893759721e+00
5.749408232168e+00
2.001879064736e+01
2.234677000124e+01
1.443664279616e+01
2.148393749277e+01
1.093313932944e+01
1.758635487171e+01
2.195246415603e+01
1.560198484422e+01
2.330882947940e+01
2.158555198323e+01
2.108990025437e+01
2.004343927929e+01
2.060067040103e+01
1.536910615320e+01
1.574667879939e+01
1.819900779137e+01
1.926083939994e+01
1.728780259919e+01
2.111372993778e+01
1.669930151099e+01
2.184905154972e+01
1.591047531541e+01
2.355419292512e+01
1.600072077539e+01
2.201077661721e+01
2.162615871560e+01
1.477210314327e+01
1.114931601985e+01
1.761084156655e+01
1.936997024758e+01
2.140732211000e+01
2.150037286596e+01
1.807937898231e+01
2.120944499460e+01
1.806598437649e+01
2.125938831392e+01
1.869000204106e+01
1.925901779299e+01
-2.269727125217e+01
2.141339719343e+01
2.130637010144e+01
1.899777653154e+01
2.354369975303e+01
2.176979974889e+01
-5.216973947407e+01
2.077183915436e+01
1.844368638090e+01
2.000430498382e+01
1.782715077860e+01
1.312892648832e+01
2.142737545366e+01
2.257263833526e+01
-5.207669817278e-01
2.122315539152e+01
-2.216414042759e+01
1.353350294885e+01
4.356003506168e+00
7.469193795151e+00
2.149853264939e+01
2.133375217725e+01
1.416164994507e+01
-5.273028209981e+00
-5.543316727689e+00
2.442014101834e+00
2.190260828839e+01
-3.927550986148e+00
7.873901846312e+00
2.120220615891e+01
-5.260185170884e+00
1.894401489562e+01
2.248003856408e+01
4.915301537414e+00
1.359074296953e+01
2.396285019354e+01
7.119480583717e+00
2.104629305628e+01
2.085777085425e+01
2.034150159307e+01
2.285272935963e+01
2.062807859117e+01
2.140817940588e+01
2.308001537224e+01
2.090494653890e+01
1.629127759998e+01
2.144711903357e+01
2.190883297639e+01
7.153761843303e+00
2.126053566770e+01
-6.372056835878e+00
2.077730803964e+01
2.095788972642e+01
2.137347223620e+01
1.824612849421e+01
-4.662797123717e+01
2.190229010486e+01
1.548734528313e+01
2.144442838211e+01
1.586661736915e+01
2.276449592577e+01
4.469531028040e+00
2.175168992286e+01
2.134721685977e+01
2.103597762742e+01
-2.175576531103e+01
2.138763708742e+01
1.312213708015e+01
2.241348996544e+01
2.636104409950e+00
1.838177156602e+01
2.053024805868e+01
1.673028550109e+01
2.112847672820e+01
2.112936672861e+01
2.280322132341e+01
2.162798607892e+01
2.341029787819e+01
2.139445062017e+01
2.295839866123e+01
2.070989135560e+01
2.102557687622e+01
2.366215861508e+01
2.212173602708e+01
2.195347628001e+01
1.727043565950e+01
2.098229678025e+01
2.236716141849e+01
2.426576132989e+01
2.141849854687e+01
1.630905591133e+01
1.763509359171e+01
2.083379151741e+01
2.191676052169e+01
2.340308250462e+01
-2.215312032657e+01
2.121673884538e+01
1.684915208361e+01
1.975400987995e+01
2.068814490553e+01
2.276511460565e+01
1.707326338290e+01
9.446811589558e+00
2.371657119490e+01
2.282791773344e+01
2.343618821762e+01
1.273598255043e+01
1.588162381473e+01
2.344976730115e+01
5.474680192240e+00
2.146904378847e+01
2.385642723045e+01
2.054661917524e+01
2.226961221763e+01
-4.182926029058e+01
1.802181229987e+01
2.007780706736e+01
2.193744494923e+01
2.315913622337e+01
2.316382458974e+01
5.520556653383e+00
1.891931616617e+01
2.065215574955e+01
1.892747512290e+01
2.190139822766e+01
1.960806392553e+01
2.158898069921e+01
-4.856904078198e+01
1.052909766693e+01
2.032671503214e+01
-5.857041881307e+01
2.157810544740e+01
2.292192000564e+01
1.481157896331e+01
2.356100862100e+01
2.389964361112e+01
4.490335822168e+00
-1.589449725018e+01
1.789400213711e+01
2.019955503109e+01
-6.294159911185e+01
8.306683634983e+00
-2.237411986189e+01
1.773732949233e+01
2.035701485035e+01
1.476126748588e+01
2.215407112898e+01
1.893015460266e+01
2.204272348992e+01
2.239048153689e+01
7.723704601968e+00
2.021234951796e+01
1.872652081306e+01
2.116443574818e+01
2.061960463723e+01
2.085393667195e+01
2.159448377760e+01
2.315394557169e+01
2.227435055076e+01
1.095671885395e+01
2.251873949783e+01
-2.981294561298e+00
2.125285584402e+01
2.189430352434e+01
-1.970013843632e+01
2.050351354709e+01
1.630121096306e+01
-6.136195354204e+01
-1.315724669777e+01
-1.306772415264e+01
2.340047004958e+01
1.866500829640e+01
2.031922547123e+01
8.560158405407e+00
2.160007504731e+01
2.138284276179e+01
1.367840418998e+01
1.280337532186e+01
-6.146831057262e-01
1.401095120554e+01
-1.961581300854e+01
-2.070988605860e+01
-5.783419639524e+01
-2.023561111760e+01
-2.043481149047e+00
1.617586153442e+01
-1.918366636348e+01
2.117913726409e+01
-3.895281860091e+01
1.834140588666e+01
8.760807823785e+00
-1.934181993979e+01
1.999847618361e+01
2.290423127386e+01
5.401296354026e+00
1.927773577684e+01
-2.658259049942e+00
1.833348192315e+01
1.790296081942e+01
2.080821004664e+00
-1.882995569716e+01
1.931421174743e+01
1.781897831157e+01
1.718919197749e+01
-1.691119381171e+01
-1.730528521170e+01
9.212312480447e+00
1.976375124204e+01
1.781034763265e+01
-1.989740933596e+01
-5.741875888376e+01
4.377123109087e+00
2.226575355845e+01
2.108879565566e+01
-2.842230052651e+01
1.368826587287e+01
-4.174816651355e+01
2.367626939950e+01
-3.705697308042e+01
-3.287211359441e+01
2.368543570698e+01
2.125980108517e+01
8.531512861325e+00
1.593515407697e+01
-1.945656580154e+01
2.193926218610e+01
1.794764189440e+01
1.777234000324e+01
-2.067998884304e+01
2.361088414631e+01
1.820785369916e+01
2.254497488098e+01
-3.134555826990e+00
-1.925506392964e+01
-1.980942749055e+01
2.016370197964e+01
2.083198392877e+01
1.686178730134e+01
-5.729153358653e+01
2.107606749360e+01
2.050039732756e+01
2.089526707250e+01
2.112931389733e+01
1.185367844620e+01
1.447634382554e+01
2.048849528630e+01
2.049941804000e+01
1.369395773397e+01
8.999999999514e+01
-2.167725236917e+01
-2.083112707922e+01
-5.740965165727e+01
2.052679592181e+01
2.111139827906e+01
2.054156588381e+01
-6.076664915114e+01
-6.047354833990e+01
2.058933038466e+01
2.056670602777e+01
1.072012042911e+01
-2.200665405795e+01
1.283256268585e+01
3.229339591238e+00
-2.189107536968e+01
-6.165970605440e+01
-5.917446848622e+01
-5.632350015151e+01
-5.162232328939e+01
2.131649233694e+01
2.081915812784e+01
-5.724325924635e+01
2.172825058025e+01
-5.490040631585e+01
1.913786138410e+01
1.810455916665e+01
1.848119791736e+01
9.090310349466e+00
1.794762638945e+01
1.802405224931e+01
2.140253955865e+01
1.803984095645e+01
2.119931139024e+01
2.095109753138e+01
2.050840338080e+01
1.776320898468e+01
1.779932160962e+01
2.127793078413e+01
2.106648510973e+01
2.173756001963e+01
-4.500130707802e+01
2.090250657516e+01
-2.077513771093e+01
2.149320450062e+01
2.155594762183e+01
2.163738337734e+01
1.464364769447e+01
-3.883243676709e+00
2.136894556004e+01
2.127662078030e+01
1.989345892037e+01
2.157318557925e+01
1.567682470453e+01
1.975146287307e+01
2.256893605546e+01
2.254856021624e+01
2.183273003520e+01
2.172105990486e+01
2.299924687419e+01
1.467889620822e+01
2.221241201857e+01
2.211670569781e+01
2.145541386155e+01
2.162068253180e+01
1.587917728064e+01
1.554767926859e+01
1.417488179995e+01
-2.234708270943e+00
2.217015329628e+01
2.197075779715e+01
1.568378663290e+01
1.497148661341e+01
2.240300381474e+01
2.122272829417e+01
1.373320494343e+01
2.155532214619e+01
2.129985426648e+01
1.554100049373e+01
1.115792807811e+01
2.258853930123e+01
1.518069041245e+01
1.455309925552e+01
-7.670083663040e-01
-2.185128259328e+01
1.494288254998e+01
2.133666227986e+01
-2.214727548785e+01
1.746207458161e+01
1.047693347120e+00
2.169899414743e+01
2.155688523678e+01
2.071570021469e+01
2.152460732407e+01
-2.153135492915e+00
2.330990710489e+01
2.114636403468e+01
1.468099621495e+01
2.141922729898e+01
1.238815225564e+01
1.620483512022e+01
1.699094644696e+01
2.163199144843e+01
7.961742744835e+00
2.012810931275e+01
1.343399064650e+01
1.003534217791e+01
2.186345941201e+01
2.167032611732e+01
2.162927245606e+01
1.241777378750e+01
1.222355318457e+01
2.159925741331e+01
2.284328301797e+01
1.317994671275e+01
2.120360954481e+01
2.225791757844e+01
2.158525935817e+01
1.116408114835e+01
-5.590068633385e+00
-1.023844268154e+00
1.360995367746e+01
2.149617782744e+01
9.720661491381e+00
2.165285189429e+01
3.775871474294e+00
2.215900959688e+01
2.182966035953e+01
2.168467018512e+01
1.498166596127e+01
2.141994580994e+01
2.162976726979e+01
1.605562828427e+01
2.140098456997e+01
2.038350399753e+01
1.793394060460e+01
2.175280648469e+01
-5.700237587044e+01
-5.599137683361e+01
2.184105024480e+01
1.373083192989e+01
2.197998828702e+01
2.211660079751e+01
2.142250232130e+01
1.831004658709e+01
1.456519454809e+01
-5.034715442843e+00
2.063644491025e+01
2.200772289816e+01
1.164634562062e+01
6.429431768025e+00
1.274389596987e+00
1.064995813429e+01
2.181168939909e+01
1.179962926240e+01
1.396212123117e+01
1.516788649699e+01
1.525158026697e+01
1.537003614188e+01
1.376313656593e+01
1.580877516298e+01
2.172521116044e+01
2.179829374335e+01
1.680445597836e+01
1.462555667676e+01
2.185016191943e+01
2.199493997006e+01
1.289825368040e+01
2.183056335295e+01
1.182128905004e+01
2.166219841351e+01
9.726176989107e+00
1.291622656899e+01
2.417920279503e+01
1.395241386048e+01
2.135214776219e+01
2.166337291246e+01
1.974812292287e+01
2.058002751131e+01
1.083257836366e+01
2.257898871369e+01
1.675700966432e+01
4.229591356867e+00
1.081986093264e+01
1.710636046545e+01
2.145484392303e+01
1.211540417060e+01
2.180780792524e+01
2.126447019367e+01
2.097637021512e+01
1.564503300554e+01
7.600605036443e+00
2.199982591351e+01
8.433665962873e+00
-1.339193327576e+00
1.973308543813e+01
1.322480959630e+01
8.002834259188e+00
1.999508797532e+01
2.235552439015e+01
1.956661873360e+01
1.413976129767e+01
1.890112493273e+01
2.218036326610e+01
1.398354705477e+01
2.216316228220e+01
2.149417379143e+01
2.199612797977e+01
2.229902298101e+01
1.346453313435e+01
4.470601585910e+00
2.324315029157e+01
2.048391670343e+01
8.423500269578e+00
1.595551979046e+01
8.975385761533e+00
1.175852710202e+01
2.170149429965e+01
2.321038401956e+01
2.311088373579e+01
1.593668492856e+01
2.269299409964e+01
1.240836568001e+01
2.250495213135e+01
2.171463336666e+01
1.955207143695e+01
2.184450857754e+01
1.208532028317e+01
1.727326147635e+01
2.233176147349e+01
3.324636983900e+00
1.720969425291e+01
1.937824169739e+01
2.159194909932e+01
2.219627071964e+01
1.715286840396e+01
2.195900385224e+01
1.050747890503e+01
6.356744789939e+00
5.274670369931e+00
2.162969474104e+01
2.203407176947e+01
2.268025772071e+01
3.915801953048e+00
1.820108066576e+01
2.286610919891e+01
2.240568433992e+01
1.296117707900e+01
2.079511844055e+01
2.013493872439e+01
1.268971007103e+01
2.256736095682e+01
2.040099082586e+01
9.333482871441e+00
7.587010549191e+00
2.370244357640e+01
1.941458340087e+01
2.174957259859e+01
1.981229438971e+01
2.060963834734e+01
1.444738704471e+01
2.227093879909e+01
2.244767615535e+01
1.389790868076e+01
2.288640207485e+01
2.284908184569e+01
2.294159478238e+01
2.282797053282e+01
1.415557802034e+01
2.197674090841e+01
2.170871449158e+01
2.147862327519e+01
2.131324595798e+01
2.295300326098e+01
9.300712292321e+00
2.097052057012e+01
2.048769231222e+01
1.855629720246e+01
1.755511384747e+01
2.137655131322e+01
1.785869113174e+01
1.637409013234e+01
2.248064262844e+01
2.262380650029e+01
2.132671531680e+01
-5.685409316565e+01
2.343159646904e+01
2.295649072687e+01
2.193044040541e+01
7.474193176334e+00
2.278593163826e+01
1.935732747879e+01
2.188097519383e+01
1.322925580166e+01
1.910727012387e+01
3.326393295146e+00
1.036936974851e+01
1.908406189730e+01
2.034993738173e+01
2.335720919901e+01
2.230901162100e+01
1.218485138833e+01
1.039580956204e+01
5.330987060248e+00
1.754773043517e+01
2.260849535854e+01
2.168910870957e+01
1.263782802078e+01
1.442677237913e+01
2.098027331440e+01
2.358820012325e+01
2.160624503456e+01
1.454131228838e+01
2.190214720689e+01
2.353399154915e+01
1.796150551495e+01
9.847124128535e+00
2.081773292759e+01
2.232321463906e+01
2.272153705929e+01
1.848656407628e+01
2.310299727431e+01
2.274673307650e+01
2.377864650296e+01
1.980834922997e+01
2.331226628744e+01
1.053401526516e+01
2.383143479796e+01
2.224118844297e+01
1.647782985792e+01
2.198149797346e+01
2.323996363569e+01
2.085981031709e+01
1.818226464260e+01
1.658973164149e+01
1.427364314367e+01
1.545286469595e+01
2.351677631188e+01
2.011235738211e+01
1.556419730283e+01
2.120195164715e+01
1.265396145339e+01
1.707383022168e+01
9.713340818091e+00
2.225592687529e+01
1.540377127621e+01
2.312581460647e+01
5.744374500962e+00
1.357767175174e+01
2.310536305888e+01
2.374504967573e+01
1.584426073522e+01
2.242034695795e+01
1.162759581825e+01
2.344072247225e+01
1.524145719125e+01
1.265186775859e+01
2.184140053797e+01
2.182024889049e+01
2.240434524291e+01
5.863439719773e+00
3.064078715488e+00
2.266323174640e+01
2.265869913180e+01
2.265183101249e+01
7.459111946693e+00
1.976394899132e+01
2.409330539277e+01
2.311712804337e+01
2.250663412488e+01
1.636348217440e+01
1.741731354518e+01
1.533229764893e+01
1.698620848632e+01
1.388439151959e+01
2.237100982702e+01
1.587154892401e+01
1.166295053820e+01
2.227156281620e+01
2.409044171427e+01
1.263153171651e+01
1.513120890249e+01
1.273682221274e+01
1.160693913191e+01
2.208295326438e+01
2.238196731605e+01
2.233708755913e+01
2.274853231638e+01
1.065109850564e+01
2.300288486495e+01
1.269141251442e+01
1.663602583424e+01
2.341309176617e+01
2.402371103494e+01
2.365308819022e+01
1.835800647194e+01
2.337805244481e+01
2.345563883054e+01
1.491920060601e+01
2.267001254873e+01
9.053273458372e+00
-9.841828930739e+00
4.051724355448e+00
2.254903167691e+01
2.325675803556e+01
1.754581497050e+01
2.430211056141e+01
2.277341762939e+01
9.078685098907e+00
7.744951801942e+00
2.349885521316e+01
2.369688986514e+01
1.504835710072e+01
2.237441668510e+01
1.703107767721e+01
2.233925351957e+01
2.212435487165e+01
2.370490967571e+01
1.271474478599e+01
2.221865558926e+01
2.190438460468e+01
8.783673935726e+00
1.040952841668e+01
2.228654843145e+01
1.360295134636e+01
2.399538701997e+01
2.359129189985e+01
2.209168645718e+01
4.651371861484e+00
1.447095520836e+01
1.742418610613e+01
9.004560695383e+00
2.198006222423e+01
1.598142116592e+01
1.512660267147e+01
2.112840019889e+01
1.155410648877e+01
2.215423853978e+01
1.728710005242e+01
2.042511303295e+01
1.037644991895e+01
1.593824580446e+01
1.360072007286e+01
2.420468594727e+01
1.847257635425e+01
8.600580724808e+00
2.182962681522e+01
2.374472977644e+01
1.065402613821e+01
1.212434859306e+01
2.176653833099e+01
1.280807700277e+01
1.896592710946e+01
2.353196804773e+01
2.304196015299e+01
2.253502902111e+01
1.892864818896e+01
1.347240216982e+01
2.245004323232e+01
1.031145081906e+01
1.762439520046e+01
1.362912975662e+01
1.457863204870e+01
1.426302652544e+01
2.191843991645e+01
1.275222734291e+01
2.410394011211e+01
7.696977902132e+00
2.195048027672e+01
1.848819095026e+01
1.817305508582e+01
2.308247568849e+01
1.178730551890e+01
2.259007088667e+01
2.334643191011e+01
1.593898021216e+01
1.672419444904e+01
2.318120734950e+01
1.440602163763e+01
2.391544578508e+01
2.115478123214e+01
7.038708985613e+00
1.926882571890e+01
7.987708815324e+00
-5.077129688353e+00
2.429747570572e+01
-8.229606637060e+00
2.308864221732e+01
2.296029607637e+01
2.361298301928e+01
1.647299254914e+01
2.424912650912e+01
1.518498477879e+01
1.821681005164e+01
2.219093219621e+01
2.265255495069e+01
2.366517682702e+01
1.454435056335e+01
2.424802553047e+01
2.169140329563e+01
1.360647997449e+01
1.399682423913e+01
2.382606407843e+01
2.414759426105e+01
2.124887000824e+01
1.762784930007e+01
1.555532460868e+01
1.743424867302e+01
2.086107903382e+01
2.104873955351e+01
2.149145885745e+01
1.286939813693e+01
2.347326935392e+01
2.084443736076e+01
2.311424745447e+01
1.442357532439e+01
2.098901038447e+01
9.189942728183e+00
2.268602034344e+01
2.372092380192e+01
2.279006657951e+01
2.281947512254e+01
1.580717337091e+01
2.069595132735e+01
2.407499271920e+01
1.680225710229e+01
2.258815440394e+01
2.275302574059e+01
2.323423553864e+01
2.355094072273e+01
2.250691732944e+01
1.575007864206e+01
2.422605377863e+01
1.521662357088e+01
2.140906320253e+01
1.636382795747e+01
2.241065937334e+01
1.376678850529e+01
9.374537942375e+00
1.899492776935e+01
2.291017088883e+01
2.196416567004e+01
1.189479113493e+01
1.671909907501e+01
1.188605642763e+01
2.215105832358e+01
2.208324243508e+01
1.581269594240e+01
2.362283648996e+01
2.332362284296e+01
2.298705624173e+01
1.325060634285e+01
1.900253838456e+01
2.359229366148e+01
1.891114131926e+01
2.331950860603e+01
2.184853899646e+01
2.324618635912e+01
3.738502671136e+00
1.710653425832e+01
1.847439703732e+01
2.388656750676e+01
2.238306713177e+01
1.213368783480e+01
2.216555063765e+01
2.296430739204e+01
-2.529892816393e-01
2.131301640040e+01
2.187086914743e+01
2.312907890495e+01
2.176824917241e+01
-1.257041146488e+01
2.239840580178e+01
1.913899904992e+01
9.640743237331e+00
2.226158447345e+01
2.398408588600e+01
2.158166552827e+01
2.334142187535e+01
2.343568692084e+01
2.137312651563e+01
-3.284001274315e-01
2.158238487308e+01
2.300320668188e+01
2.037465447469e+01
2.161225874051e+01
1.993192999302e+01
2.199575329690e+01
1.645151125926e+01
2.171892517742e+01
2.278711869853e+01
2.335190342711e+01
2.151044162092e+01
2.142166099329e+01
2.155526566515e+01
2.208176740505e+01
1.039755402819e+01
2.176776678469e+01
2.211831211415e+01
-2.162423789240e+01
-2.173119290444e+01
1.549497500337e+01
2.205850121110e+01
2.215055849676e+01
1.871292469532e+01
2.366497170076e+01
2.234012261368e+01
2.393438056321e+01
1.834171674665e+01
5.894109247624e+00
2.303609993840e+01
2.260260521179e+01
1.875251707765e+01
2.221822318580e+01
2.200158483740e+01
2.041050656767e+01
1.105370583331e+01
1.950073403328e+01
1.919965594246e+01
5.689442197613e+00
2.234073347353e+01
1.863898063447e+01
1.682718753928e+01
1.676066907749e+01
2.268431238295e+01
1.365099682264e+01
1.363539551667e+01
2.238300640814e+01
2.190351239391e+01
9.153219199610e+00
1.215181620695e+00
1.146382669292e+01
9.977844412943e+00
2.241270627137e+01
2.289954064097e+01
1.466397801270e+01
2.147792171837e+01
1.516966824238e+01
2.186288132889e+01
2.197068167119e+01
-2.180636392768e+00
2.298252598411e+01
2.185113232658e+01
-2.443897281102e+00
1.520248607451e+01
1.110496460546e+01
1.744544069516e+01
2.059106241990e+01
2.337850811635e+01
2.341557813899e+01
1.596850837636e+01
2.320063082478e+01
2.294301133079e+01
2.226257561062e+01
3.924884375347e-01
8.823203952610e+00
2.192757899070e+01
1.064360807917e+01
2.232861410385e+01
1.995111700222e+01
1.641006629536e+01
2.164201604668e+01
1.262843966320e+00
2.204858437143e+01
2.181805082931e+01
2.252070012075e+01
2.254451530182e+01
2.237250390619e+01
1.716085762357e+01
2.352676838730e+01
2.130662352219e+01
2.410668806359e+01
2.288625260913e+01
2.323872971565e+01
2.173797378575e+01
2.408778165261e+01
2.247421724613e+01
1.832163775838e+01
2.155864868165e+01
1.936419103081e+01
2.264743955007e+01
2.314679549539e+01
2.383437956285e+01
1.030588389973e+01
2.176177328178e+01
2.165252712952e+01
2.943078001227e+00
2.009724017014e+01
2.129555248569e+01
1.207014194457e+01
2.201187684720e+01
-3.979682189484e+00
2.157148338166e+01
2.092280142995e+01
2.160911908321e+01
2.352247137907e+01
1.092639465129e+01
9.693364921994e+00
2.249762901143e+01
1.425406725977e+01
1.512083409620e+01
2.150929936235e+01
2.301548083829e+01
2.346099061897e+01
2.337403533858e+01
2.416642638720e+01
2.081520590360e+01
7.178889501429e+00
7.789323718827e+00
-2.147669953441e+01
2.284997036846e+01
2.334880823865e+01
2.224389681393e+01
2.143082167111e+01
2.366887912306e+01
2.109214409499e+01
2.207997764625e+01
2.244675923427e+01
2.239332454418e+01
2.288178341128e+01
2.227445553972e+01
2.125727289488e+01
2.071805017342e+01
2.356405002958e+01
1.999944973897e+01
1.972494334552e+01
2.314932860307e+01
2.401559362381e+01
2.243336689108e+01
1.970635696689e+01
-1.592740359394e+01
2.398388504264e+01
-4.083249011681e+00
7.223626426592e+00
2.227903875560e+01
2.074300044938e+01
1.189765737919e+01
1.257814455258e+01
1.942497179221e+01
-6.502451731729e+00
1.289139252998e+01
2.383946354309e+01
2.183812953641e+01
1.215790304797e+01
2.286786463133e+01
2.314475865485e+01
2.197193363160e+01
2.376935712489e+01
1.941051090927e+01
8.576389028612e+00
2.218010770643e+01
2.200893506070e+01
1.837338946005e+01
3.030824879442e-01
1.257598430055e+01
2.159491211420e+01
-3.087872503297e+00
-2.340358169090e+01
1.319355431342e+01
2.181309672005e+01
2.289567608838e+01
2.180840405970e+01
2.078935588849e+01
2.215492616619e+01
1.512995576737e+01
2.193084311176e+01
2.369089999127e+01
2.028679063913e+01
-1.013499054144e+00
2.318078697805e+01
2.178463475081e+01
2.194204673502e+01
1.088194706185e+01
2.305761855697e+01
2.184876363929e+01
9.388973135760e+00
6.122654370045e+00
1.177847323699e+01
2.203690845089e+01
2.138129169215e+01
3.886506121209e+00
2.215515896719e+01
1.194948966634e+01
2.235897768619e+01
2.348180075346e+01
7.245113007800e+00
2.175456357777e+01
1.718648866559e+01
3.228490446539e+00
2.187664411463e+01
2.329151252547e+01
2.208403398498e+01
-1.467416794192e+01
1.511159961948e+01
2.272037902898e+01
2.271036190683e+01
2.270393671635e+01
2.192445330356e+01
2.180978506882e+01
2.325417252686e+01
1.519251216415e+00
-1.311710943410e+01
2.181078761837e+01
2.259451132829e+01
2.087142559442e+01
2.095628825507e+01
1.143227105612e+01
1.974023019685e+01
2.153509801806e+01
-2.235838233504e+01
1.796708930457e+01
2.049260808824e+01
-4.444822877511e+00
2.230146283341e+01
2.241429429448e+01
2.260573838096e+01
3.444807598202e+00
-1.059791206956e+01
1.604182782331e+01
1.420922570070e+01
3.838457068461e-02
2.183989429056e+01
1.513024821064e+01
2.185439463676e+01
1.371264094452e+01
2.183819795246e+01
2.294734991220e+01
2.244475997081e+01
6.056044099408e+00
2.177181417074e+01
1.628263428411e+01
2.131389273425e+01
2.297216480373e+01
2.044622979969e+01
-3.332139486185e+01
2.340795516131e+01
1.559297013234e+01
2.117041411285e+01
2.000257678106e+01
2.277505839608e+01
1.146687593199e+01
8.713569310648e+00
1.301469512324e+01
2.004325102462e+01
2.331955280580e+01
2.393009009528e+01
2.052748787131e+01
1.938175581636e+01
7.957952002530e+00
1.186850669295e+01
2.124498387149e+01
2.295620890783e+01
-4.550260480557e-01
1.255463667447e+01
2.316528950373e+01
1.899671615910e+01
2.371896597876e+01
-2.439721416815e-01
2.321341542378e+01
7.855803961497e+00
2.350013095426e+01
2.364264558816e+01
2.326746675319e+01
8.450889960264e+00
1.942286268868e+01
6.243746280816e-01
2.345739098384e+01
8.954018019538e+00
-2.363348835082e+01
1.625986800598e+01
1.511794170215e+01
-2.284334143581e+01
2.301463966947e+01
1.630307865746e+01
1.764794473604e+01
2.075741022763e+01
2.300156739380e+01
2.116968544813e+01
2.262210028177e+01
-2.167782563486e+01
2.096158068894e+01
1.502993103352e+01
2.260957233495e+01
2.332314966315e+01
1.084345371728e+01
1.768608141955e+01
2.381081549359e+01
-5.078642188445e+00
2.265645433366e+01
2.167640600795e+01
1.655481607667e+01
9.243583492674e+00
2.148937935154e+01
1.998544196485e+01
2.260808268395e+01
2.098324227302e+01
1.733767863129e+01
2.389083052932e+01
7.637884052690e+00
-5.673914024697e+00
2.168421597995e+01
1.958833358131e+01
6.074097820340e-01
1.701246386528e+01
2.038248865653e+01
2.345877278687e+01
2.222423110832e+01
2.196676130278e+01
-3.419938906562e+01
1.623750832842e+01
2.167199621322e+01
2.032691870143e+01
2.219365760883e+01
7.498769830774e+00
1.174340661499e+01
3.176535216550e-01
2.242318539223e+01
1.813453657439e+01
2.294734645630e+01
2.093268928181e+01
2.102535586625e+01
2.299239095556e+01
-7.405998125499e+00
-2.832467651391e+01
6.127859242433e+00
8.176998288722e+00
7.343919567952e+00
2.326763710108e+01
2.161134189182e+01
2.207042107763e+01
-7.159066348820e+00
1.540153709765e+01
2.161900599828e+01
1.608654769454e+01
1.416080159111e+01
1.776188162903e+01
2.081797982786e+01
7.881137843904e-01
2.175435884384e+01
9.365824602800e+00
2.246722931573e+01
2.052139929810e+01
6.053661938147e-01
3.491500615692e+00
2.250007407174e+01
-6.825955667316e+00
1.622187254589e+01
2.006440873416e+01
2.261733177879e+01
1.841456272868e+01
1.762087088094e+00
1.897901757308e+01
1.964303077689e+01
1.060399845420e+01
2.232710961304e+01
-1.019562857458e+01
-7.199326370874e+00
2.771670437751e-01
2.155132778678e+00
4.537955635204e+00
1.836768643938e+01
1.710897594221e+01
6.816915077654e+00
2.170239804792e+01
1.929312641907e+01
1.811896070763e+01
1.642324912837e+01
2.073839909758e+01
2.024449044059e+01
2.147705373914e+01
-2.435715302328e+01
1.655579308714e+01
2.127985684164e+01
5.665240771682e+00
-7.177448627492e+00
2.223069825575e+01
-6.973414212373e+00
-2.314957557423e+01
1.797716661335e+01
-2.068512272356e+01
1.698646095269e+01
2.185333697451e+01
-2.144155232750e+01
-2.738234279642e+01
1.717939361283e+01
7.280559350739e+00
1.647545165037e+01
2.050808595331e+01
1.822073856013e+01
1.207421885367e+01
2.046903431923e+00
2.071784244116e+01
2.256135381469e+01
2.158757083891e+01
1.293730642786e+01
2.164051962709e+01
-7.269838120236e+00
2.101086626282e+01
1.421844254255e+01
5.709436084980e+00
2.164856192402e+01
1.781844600480e+01
1.750077265774e+01
-8.060694570344e+00
5.639515738493e+00
4.765704850455e+00
2.024402300422e+01
1.940476399169e+01
-5.092840756224e+00
2.296020366998e+01
-2.251838869674e+01
1.738821730725e+01
1.771817321464e+01
1.796874336598e+01
8.999999999514e+01
-5.299980412414e+01
-1.912988745752e+01
-2.234660178006e+01
2.049534651107e+01
2.076039693787e+01
-2.353505049655e+01
-3.521979165140e+01
2.106787109939e+01
2.222213634309e+01
9.836630336875e+00
2.112443511114e+01
2.164030718266e+01
2.148334927558e+01
8.673505916652e+00
7.675488996045e+00
2.280851414053e+01
5.197701454482e+00
2.111596441999e+01
2.004980588507e+01
1.579046015398e+01
2.133943370214e+01
4.665408683517e+00
2.183722465911e+01
1.930804759745e+01
1.874228063220e+01
-2.173414044956e+01
2.311299303250e+01
1.778557995970e+01
1.701009404128e+01
-2.222573782173e+01
2.123720572724e+01
2.292697482394e+01
3.586816065432e+00
1.071904178289e+01
2.077651088875e+01
2.195169621856e+01
2.197549619663e+01
2.166401588135e+01
-2.422988834871e+01
1.003734383559e+01
8.273118855809e+00
1.866289399352e+00
2.345923217876e+01
1.649542167087e+01
2.146110658534e+01
-6.179515032120e+00
-6.444922088961e+00
8.299630989009e+00
1.137566503448e+01
1.883393189903e+01
1.703255463118e+01
9.278863186850e+00
2.209228875585e+01
-2.627858715698e-01
2.148814675811e+01
2.232755238961e+01
3.570480803357e+00
2.153274839026e+01
1.772090981041e+01
1.706743659196e+01
6.189984232939e+00
1.649299835069e+01
2.129605370121e+01
2.226305631244e+01
2.268778251811e+01
2.053631417708e+01
1.858984389975e+01
-3.123544935780e+01
-1.420246526973e+00
1.925698829148e+01
5.423040844699e+00
2.105670456427e+01
2.204711643619e+01
2.082399631373e+01
1.341964591239e+01
2.143089692352e+01
2.144910375101e+01
2.160891832757e+01
1.909190073157e+01
2.089946967210e+01
-7.223188759184e+00
1.616531951400e+01
-5.658653402752e+00
1.525452578632e+01
1.088253673004e+01
-2.743811814887e+00
8.122086877835e+00
1.962072103349e+01
1.730088164883e+01
1.635596391381e+01
2.212921913636e+01
4.340186328177e+00
-2.244945772331e+01
-1.235073386998e+01
-1.717231670074e+01
1.472190565821e+00
-2.339829677649e+01
2.095489688904e+01
2.109775441447e+01
1.825441866716e+01
8.190634062736e+00
2.041866445792e+01
2.145092085553e+01
2.220759670555e+01
2.214400752314e+01
2.127206805861e+01
2.020339218899e+01
-5.878803826316e+00
-1.244580893533e+01
2.114271382555e+01
-2.529530300759e+00
1.925184444343e+00
-1.082545378342e+01
-7.240620040224e+00
2.102860550871e+01
2.085111812512e+01
1.655803079758e+01
2.155034134179e+01
2.214382483709e+01
6.875377350423e+00
1.870910054460e+01
1.353493661008e+01
-2.268312113007e+01
1.572583753051e+00
-2.219599411826e+01
2.085316606539e+01
-6.307425923694e-01
4.593966959761e+00
2.096925093944e+01
2.084254553414e+01
1.639413597880e+01
1.822976110535e+01
1.819745421367e+01
-1.218170259104e+01
2.120528429018e+01
1.776827335156e+01
2.083408492016e+01
-8.988100892756e+00
2.164852661465e+01
5.552945608975e+00
1.709435128915e+01
-2.437873672107e+01
2.113341401667e+01
1.809880024780e+01
-2.690303611745e+01
2.187758009040e+01
1.248950881841e+01
1.731476768274e+01
2.099371025173e+01
9.385086937288e+00
2.074629376090e+01
1.739460621481e+01
1.095295682154e+01
2.028893024586e+01
1.975114551576e+01
-2.260000247727e+01
2.214778053421e+01
1.726666190253e+01
-5.896283185749e+01
-2.217290839050e+01
2.080490309048e+01
1.002857199655e+01
2.239345360977e+01
1.773878421620e+01
1.707396400854e+01
9.253717052138e+00
-5.407420942831e+00
2.163900212714e+01
1.442817665558e+01
-2.238576940791e+01
1.787262674245e+01
8.446076163632e+00
7.333164631968e+00
5.690498899176e+00
2.195086355210e+01
2.164178138870e+01
-1.961368492700e+01
1.948071058964e+01
2.140150203961e+01
2.161509556867e+01
2.197014595074e+01
2.129221316906e+01
2.140268629029e+01
-7.826398143697e+00
2.127208436991e+01
2.150603517977e+01
1.139768178260e+00
1.726331208830e+01
2.075533568644e+01
-8.316891488610e+00
8.408325055055e+00
2.121808071051e+01
2.123890785173e+01
2.148927607697e+01
2.245767334948e+01
3.332660304521e+00
2.136248070539e+01
-1.174238496715e-02
1.749966907281e+01
2.213300912181e+01
5.733321432444e+00
2.000781641935e+01
2.214794867326e+01
2.212655585829e+01
-1.961661267126e+01
1.990105863585e+01
2.066199689418e+01
-7.610298022857e+00
2.100500776196e+01
-2.351367085592e+01
2.010044765076e+01
-3.315629427682e+01
-3.154259076658e+01
-3.274541828590e+01
-3.221018134218e+01
-3.261448764842e+01
-3.208715513613e+01
-3.280867303006e+01
-3.176246110107e+01
-3.301307139603e+01
-3.176357557735e+01
-3.370433203287e+01
-3.155416530392e+01
-1.992503288162e+01
-3.444500013006e+01
-1.707586426693e+01
-3.085666833787e+01
-3.546171808969e+01
-3.120286284639e+01
-3.641419779386e+01
-3.052576476424e+01
-3.786040612050e+01
-2.950594937572e+01
-3.357516457993e+01
-3.892395432964e+01
-2.809907502096e+01
-3.913758044542e+01
-2.576908249095e+01
-2.249900845257e+01
-3.806119630669e+01
-3.369119003692e+01
-3.979588131498e+00
-3.874800059919e+00
-3.153071152842e+01
-3.074953031315e+01
-2.954156899285e+01
-3.215825855610e+01
2.200071641296e+00


