# vtk DataFile Version 2.0
Calculation C:\Users\johan\Documents\GitHub\TOCHNOG\standsicherheit_phiC at time 9.000000000000e+00 
ASCII
DATASET UNSTRUCTURED_GRID
Field FieldData 1
Time 1 1 double
9.000000000000e+00

POINTS 1067 float
0.0 0.0 0.0 
5.000000000000e+01 -1.000000000000e+01 0.0 
0.0 -2.000000000000e+01 0.0 
5.000000000000e+01 -2.000000000000e+01 0.0 
0.0 -9.999999999991e-01 0.0 
0.0 -1.999999999998e+00 0.0 
0.0 -2.999999999997e+00 0.0 
0.0 -3.999999999994e+00 0.0 
0.0 -4.999999999991e+00 0.0 
0.0 -5.999999999988e+00 0.0 
0.0 -6.999999999985e+00 0.0 
0.0 -7.999999999982e+00 0.0 
0.0 -8.999999999983e+00 0.0 
0.0 -9.999999999985e+00 0.0 
0.0 -1.099999999999e+01 0.0 
0.0 -1.199999999999e+01 0.0 
0.0 -1.299999999999e+01 0.0 
0.0 -1.399999999999e+01 0.0 
0.0 -1.499999999999e+01 0.0 
0.0 -1.599999999999e+01 0.0 
0.0 -1.700000000000e+01 0.0 
0.0 -1.800000000000e+01 0.0 
0.0 -1.900000000000e+01 0.0 
4.900000000001e+01 -2.000000000000e+01 0.0 
4.800000000001e+01 -2.000000000000e+01 0.0 
4.700000000002e+01 -2.000000000000e+01 0.0 
4.600000000003e+01 -2.000000000000e+01 0.0 
4.500000000004e+01 -2.000000000000e+01 0.0 
4.400000000004e+01 -2.000000000000e+01 0.0 
4.300000000005e+01 -2.000000000000e+01 0.0 
4.200000000006e+01 -2.000000000000e+01 0.0 
4.100000000006e+01 -2.000000000000e+01 0.0 
4.000000000007e+01 -2.000000000000e+01 0.0 
3.900000000008e+01 -2.000000000000e+01 0.0 
3.800000000009e+01 -2.000000000000e+01 0.0 
3.700000000009e+01 -2.000000000000e+01 0.0 
3.600000000010e+01 -2.000000000000e+01 0.0 
3.500000000011e+01 -2.000000000000e+01 0.0 
3.400000000011e+01 -2.000000000000e+01 0.0 
3.300000000012e+01 -2.000000000000e+01 0.0 
3.200000000013e+01 -2.000000000000e+01 0.0 
3.100000000013e+01 -2.000000000000e+01 0.0 
3.000000000013e+01 -2.000000000000e+01 0.0 
2.900000000013e+01 -2.000000000000e+01 0.0 
2.800000000013e+01 -2.000000000000e+01 0.0 
2.700000000013e+01 -2.000000000000e+01 0.0 
2.600000000013e+01 -2.000000000000e+01 0.0 
2.500000000013e+01 -2.000000000000e+01 0.0 
2.400000000013e+01 -2.000000000000e+01 0.0 
2.300000000013e+01 -2.000000000000e+01 0.0 
2.200000000013e+01 -2.000000000000e+01 0.0 
2.100000000013e+01 -2.000000000000e+01 0.0 
2.000000000013e+01 -2.000000000000e+01 0.0 
1.900000000013e+01 -2.000000000000e+01 0.0 
1.800000000013e+01 -2.000000000000e+01 0.0 
1.700000000012e+01 -2.000000000000e+01 0.0 
1.600000000011e+01 -2.000000000000e+01 0.0 
1.500000000011e+01 -2.000000000000e+01 0.0 
1.400000000010e+01 -2.000000000000e+01 0.0 
1.300000000009e+01 -2.000000000000e+01 0.0 
1.200000000009e+01 -2.000000000000e+01 0.0 
1.100000000008e+01 -2.000000000000e+01 0.0 
1.000000000007e+01 -2.000000000000e+01 0.0 
9.000000000064e+00 -2.000000000000e+01 0.0 
8.000000000057e+00 -2.000000000000e+01 0.0 
7.000000000050e+00 -2.000000000000e+01 0.0 
6.000000000043e+00 -2.000000000000e+01 0.0 
5.000000000036e+00 -2.000000000000e+01 0.0 
4.000000000028e+00 -2.000000000000e+01 0.0 
3.000000000021e+00 -2.000000000000e+01 0.0 
2.000000000014e+00 -2.000000000000e+01 0.0 
1.000000000007e+00 -2.000000000000e+01 0.0 
5.000000000000e+01 -1.100000000000e+01 0.0 
5.000000000000e+01 -1.200000000000e+01 0.0 
5.000000000000e+01 -1.300000000000e+01 0.0 
5.000000000000e+01 -1.400000000000e+01 0.0 
5.000000000000e+01 -1.500000000000e+01 0.0 
5.000000000000e+01 -1.600000000000e+01 0.0 
5.000000000000e+01 -1.700000000000e+01 0.0 
5.000000000000e+01 -1.800000000000e+01 0.0 
5.000000000000e+01 -1.900000000000e+01 0.0 
2.000000000000e+01 0.0 0.0 
3.500000000000e+01 -1.000000000000e+01 0.0 
2.150000000000e+01 -1.000000000000e+00 0.0 
2.300000000000e+01 -2.000000000000e+00 0.0 
2.450000000000e+01 -3.000000000000e+00 0.0 
2.600000000000e+01 -4.000000000000e+00 0.0 
2.750000000000e+01 -5.000000000000e+00 0.0 
2.900000000000e+01 -6.000000000000e+00 0.0 
3.050000000000e+01 -7.000000000000e+00 0.0 
3.200000000000e+01 -8.000000000000e+00 0.0 
3.350000000000e+01 -9.000000000000e+00 0.0 
5.000000000000e+01 -8.000000000000e+00 0.0 
5.000000000000e+01 -9.000000000000e+00 0.0 
4.900000000000e+01 -1.000000000000e+01 0.0 
4.800000000000e+01 -1.000000000000e+01 0.0 
4.700000000000e+01 -1.000000000000e+01 0.0 
4.600000000000e+01 -1.000000000000e+01 0.0 
4.500000000000e+01 -1.000000000000e+01 0.0 
4.400000000000e+01 -1.000000000000e+01 0.0 
4.300000000000e+01 -1.000000000000e+01 0.0 
4.200000000000e+01 -1.000000000000e+01 0.0 
4.100000000000e+01 -1.000000000000e+01 0.0 
4.000000000000e+01 -1.000000000000e+01 0.0 
3.900000000000e+01 -1.000000000000e+01 0.0 
3.800000000000e+01 -1.000000000000e+01 0.0 
3.700000000000e+01 -1.000000000000e+01 0.0 
3.600000000000e+01 -1.000000000000e+01 0.0 
1.900000000000e+01 0.0 0.0 
1.800000000000e+01 0.0 0.0 
1.700000000000e+01 0.0 0.0 
1.600000000000e+01 0.0 0.0 
1.500000000000e+01 0.0 0.0 
1.400000000000e+01 0.0 0.0 
1.300000000000e+01 0.0 0.0 
1.200000000000e+01 0.0 0.0 
1.100000000000e+01 0.0 0.0 
1.000000000000e+01 0.0 0.0 
9.000000000000e+00 0.0 0.0 
8.000000000000e+00 0.0 0.0 
7.000000000000e+00 0.0 0.0 
6.000000000000e+00 0.0 0.0 
5.000000000000e+00 0.0 0.0 
4.000000000000e+00 0.0 0.0 
3.000000000000e+00 0.0 0.0 
2.000000000000e+00 0.0 0.0 
1.000000000000e+00 0.0 0.0 
4.900000000000e+01 -8.000000000000e+00 0.0 
4.800000000000e+01 -8.000000000000e+00 0.0 
4.700000000000e+01 -8.000000000000e+00 0.0 
4.600000000000e+01 -8.000000000000e+00 0.0 
4.500000000000e+01 -8.000000000000e+00 0.0 
4.400000000000e+01 -8.000000000000e+00 0.0 
4.300000000000e+01 -8.000000000000e+00 0.0 
4.200000000000e+01 -8.000000000000e+00 0.0 
4.100000000000e+01 -8.000000000000e+00 0.0 
4.000000000000e+01 -8.000000000000e+00 0.0 
3.900000000000e+01 -8.000000000000e+00 0.0 
3.800000000000e+01 -8.000000000000e+00 0.0 
3.700000000000e+01 -8.000000000000e+00 0.0 
3.600000000000e+01 -8.000000000000e+00 0.0 
3.500000000000e+01 -8.000000000000e+00 0.0 
3.400000000000e+01 -8.000000000000e+00 0.0 
3.300000000000e+01 -8.000000000000e+00 0.0 
3.447058823527e+01 -9.000000000000e+00 0.0 
3.544117647055e+01 -9.000000000000e+00 0.0 
3.641176470582e+01 -9.000000000000e+00 0.0 
3.738235294109e+01 -9.000000000000e+00 0.0 
3.835294117637e+01 -9.000000000000e+00 0.0 
3.932352941164e+01 -9.000000000000e+00 0.0 
4.029411764691e+01 -9.000000000000e+00 0.0 
4.126470588219e+01 -9.000000000000e+00 0.0 
4.223529411748e+01 -9.000000000000e+00 0.0 
4.320588235279e+01 -9.000000000000e+00 0.0 
4.417647058811e+01 -9.000000000000e+00 0.0 
4.514705882342e+01 -9.000000000000e+00 0.0 
4.611764705874e+01 -9.000000000000e+00 0.0 
4.708823529405e+01 -9.000000000000e+00 0.0 
4.805882352937e+01 -9.000000000000e+00 0.0 
4.902941176468e+01 -9.000000000000e+00 0.0 
2.075000000000e+01 -5.000000000006e-01 0.0 
2.225000000000e+01 -1.500000000000e+00 0.0 
2.375000000000e+01 -2.500000000000e+00 0.0 
2.525000000000e+01 -3.500000000000e+00 0.0 
2.675000000000e+01 -4.500000000000e+00 0.0 
2.825000000000e+01 -5.500000000000e+00 0.0 
2.975000000000e+01 -6.500000000000e+00 0.0 
3.125000000000e+01 -7.500000000000e+00 0.0 
3.275000000000e+01 -8.500000000000e+00 0.0 
3.425000000000e+01 -9.500000000000e+00 0.0 
2.226951693683e+01 -2.403913980114e+00 0.0 
1.650149491944e+01 -1.913490915758e+01 0.0 
1.050042386896e+01 -8.504605092970e-01 0.0 
1.553146524712e+01 -8.281255032105e-01 0.0 
1.150000000008e+01 -1.913397459621e+01 0.0 
2.530060260647e+01 -4.428336431260e+00 0.0 
8.651114563942e-01 -1.052096295641e+01 0.0 
2.050000000013e+01 -1.913397459622e+01 0.0 
2.819198729811e+01 -6.399519052838e+00 0.0 
2.445670302931e+01 -1.915649188023e+01 0.0 
3.117591465718e+01 -8.394293040695e+00 0.0 
7.465053044742e+00 -1.920411160581e+01 0.0 
6.398295709691e+00 -8.230098819370e-01 0.0 
2.849659607461e+01 -1.914296187762e+01 0.0 
3.418732642882e+01 -1.040265792588e+01 0.0 
8.386450935063e-01 -6.533605142809e+00 0.0 
9.178661865596e-01 -1.329769195597e+01 0.0 
3.149448624493e+01 -1.910466733764e+01 0.0 
3.552916747426e+01 -1.914628590759e+01 0.0 
4.449210346537e+01 -1.914359085008e+01 0.0 
4.140975975145e+01 -1.906941860733e+01 0.0 
3.847475958753e+01 -1.916622382724e+01 0.0 
3.653774794640e+01 -1.088712800241e+01 0.0 
4.047886341787e+01 -1.090139014048e+01 0.0 
4.348006339825e+01 -1.092792621489e+01 0.0 
4.919519968029e+01 -1.451526755068e+01 0.0 
4.500000000032e+00 -1.913397459621e+01 0.0 
1.856136921614e+01 -8.212235170404e-01 0.0 
3.499895312306e+00 -8.661165539723e-01 0.0 
9.076088696565e-01 -1.642306201891e+01 0.0 
4.655174095477e+01 -1.086183387525e+01 0.0 
9.430688970604e-01 -3.496112672958e+00 0.0 
3.353992337063e+01 -1.901202090820e+01 0.0 
2.249746016977e+01 -1.921262287282e+01 0.0 
2.650122741777e+01 -1.916123026018e+01 0.0 
1.863571384842e+01 -1.908325534840e+01 0.0 
1.450089971693e+01 -1.917691901860e+01 0.0 
1.350044695317e+01 -8.659695299584e-01 0.0 
3.849987469880e+01 -1.084154983397e+01 0.0 
9.454419857884e+00 -1.900818879936e+01 0.0 
4.917398660523e+01 -1.645692866081e+01 0.0 
8.500000000000e+00 -8.660254037844e-01 0.0 
8.660319230785e-01 -8.500111697188e+00 0.0 
4.649022621545e+01 -1.930506220113e+01 0.0 
2.667688107845e+01 -5.420288124331e+00 0.0 
2.379251615665e+01 -3.412225477429e+00 0.0 
2.966631491830e+01 -7.389030232731e+00 0.0 
3.267915035995e+01 -9.396934932445e+00 0.0 
2.074836922338e+01 -1.320054020319e+00 0.0 
4.915985743621e+01 -1.261973384855e+01 0.0 
2.527129768623e+00 -1.931592414663e+01 0.0 
1.538676247410e+00 -8.436956619311e-01 0.0 
4.908096641539e+01 -1.842484004551e+01 0.0 
3.478612492673e+01 -1.090889364140e+01 0.0 
3.409757055860e+01 -1.131991530427e+01 0.0 
3.501895309466e+01 -1.177687842717e+01 0.0 
3.407758073088e+01 -1.224293381580e+01 0.0 
3.484541875390e+01 -1.277051428430e+01 0.0 
3.400322025842e+01 -1.319022775640e+01 0.0 
3.321672625034e+01 -1.266779191233e+01 0.0 
3.315244139236e+01 -1.360984106532e+01 0.0 
3.236335186892e+01 -1.308463225210e+01 0.0 
3.478337442841e+01 -1.372341158982e+01 0.0 
3.230105923633e+01 -1.403023731610e+01 0.0 
3.150954055289e+01 -1.350301767700e+01 0.0 
3.144604792090e+01 -1.444931742516e+01 0.0 
3.065653897123e+01 -1.392357262981e+01 0.0 
3.071897610812e+01 -1.297447031198e+01 0.0 
2.986790411740e+01 -1.339226181535e+01 0.0 
2.993181466745e+01 -1.244703272398e+01 0.0 
2.908023061869e+01 -1.286254537734e+01 0.0 
2.901619051372e+01 -1.380881655279e+01 0.0 
2.822986160390e+01 -1.327695262116e+01 0.0 
2.829453476870e+01 -1.233265343811e+01 0.0 
2.744542905518e+01 -1.274510491105e+01 0.0 
2.751120089246e+01 -1.180368086886e+01 0.0 
2.666218649885e+01 -1.221619339205e+01 0.0 
2.672371209234e+01 -1.127125228527e+01 0.0 
2.587763216302e+01 -1.168539979114e+01 0.0 
2.581165585299e+01 -1.262994410089e+01 0.0 
2.502890882577e+01 -1.209827323619e+01 0.0 
2.509631327757e+01 -1.115492410304e+01 0.0 
2.424662989877e+01 -1.156630981079e+01 0.0 
2.431704046904e+01 -1.062389179334e+01 0.0 
2.346445438728e+01 -1.103427680694e+01 0.0 
2.339382552877e+01 -1.197964871788e+01 0.0 
2.260936050780e+01 -1.144513277642e+01 0.0 
2.268075012022e+01 -1.049911928216e+01 0.0 
2.182525737661e+01 -1.090920811464e+01 0.0 
2.189682319817e+01 -9.961716944568e+00 0.0 
2.104174127792e+01 -1.037266986667e+01 0.0 
2.111304367575e+01 -9.424179358711e+00 0.0 
2.025306185381e+01 -9.832727364719e+00 0.0 
2.018141124247e+01 -1.079140628871e+01 0.0 
1.938594498257e+01 -1.025147354112e+01 0.0 
1.946106490453e+01 -9.288010758448e+00 0.0 
1.858929958352e+01 -9.706319802516e+00 0.0 
1.851540991219e+01 -1.067205988724e+01 0.0 
1.771485303178e+01 -1.012504443115e+01 0.0 
1.764134552256e+01 -1.109360378538e+01 0.0 
1.683745148095e+01 -1.054496365337e+01 0.0 
1.691852964353e+01 -9.582555261178e+00 0.0 
1.603603813062e+01 -1.000160132379e+01 0.0 
1.595824239350e+01 -1.096750698862e+01 0.0 
1.515080624291e+01 -1.041639501931e+01 0.0 
1.523171602559e+01 -9.451711491453e+00 0.0 
1.434621060709e+01 -9.871956467464e+00 0.0 
1.426777178765e+01 -1.083749501371e+01 0.0 
1.345775282374e+01 -1.028803175500e+01 0.0 
1.354103873368e+01 -9.324918457162e+00 0.0 
1.265072018622e+01 -9.742612837270e+00 0.0 
1.257285762070e+01 -1.071557782384e+01 0.0 
1.175874815690e+01 -1.015972324288e+01 0.0 
1.184203019714e+01 -9.193604071377e+00 0.0 
1.094927709905e+01 -9.612103238656e+00 0.0 
1.086938022910e+01 -1.058685085646e+01 0.0 
1.005424098961e+01 -1.002939116380e+01 0.0 
9.977974613295e+00 -1.101324897989e+01 0.0 
1.012915646404e+01 -9.051815821181e+00 0.0 
9.237127782494e+00 -9.471239055559e+00 0.0 
9.308426593771e+00 -8.483376461131e+00 0.0 
8.418806073345e+00 -8.910712374517e+00 0.0 
2.253688464062e+01 -1.239459402279e+01 0.0 
8.495126726666e+00 -7.921646665254e+00 0.0 
9.389727383206e+00 -7.512103628377e+00 0.0 
7.601560812974e+00 -8.349460349344e+00 0.0 
7.525680547759e+00 -9.339736686940e+00 0.0 
7.677888324502e+00 -7.359727833346e+00 0.0 
6.782001206724e+00 -7.788454494773e+00 0.0 
6.858778622885e+00 -6.797338062822e+00 0.0 
2.196596590865e+01 -8.979025665442e+00 0.0 
2.816540108272e+01 -1.422634142353e+01 0.0 
5.961601194403e+00 -7.226824010712e+00 0.0 
6.038171749656e+00 -6.234825887079e+00 0.0 
6.936257279557e+00 -5.805287640737e+00 0.0 
6.115068918323e+00 -5.242109758768e+00 0.0 
3.564391741903e+01 -1.329240553876e+01 0.0 
3.558115605778e+01 -1.425902892003e+01 0.0 
3.645445282201e+01 -1.381970786460e+01 0.0 
3.639744204358e+01 -1.479198128612e+01 0.0 
3.727266909778e+01 -1.435399586226e+01 0.0 
5.216667013081e+00 -5.671788584287e+00 0.0 
3.220697293295e+01 -1.499594545107e+01 0.0 
3.551112158269e+01 -1.523479869250e+01 0.0 
2.836056961467e+01 -1.139032434851e+01 0.0 
2.516730388602e+01 -1.021382726837e+01 0.0 
1.844436907403e+01 -1.164097215196e+01 0.0 
5.885434318740e+00 -8.218694781467e+00 0.0 
5.064071066867e+00 -7.656614643901e+00 0.0 
4.988089103470e+00 -8.649722082718e+00 0.0 
1.079421050408e+01 -1.157014985435e+01 0.0 
9.902420005256e+00 -1.199903342656e+01 0.0 
1.071994252214e+01 -1.255727909771e+01 0.0 
9.826974788171e+00 -1.298659581767e+01 0.0 
1.064607883789e+01 -1.354595476388e+01 0.0 
9.751541265343e+00 -1.397556905071e+01 0.0 
8.932296185869e+00 -1.341553353988e+01 0.0 
8.856399248106e+00 -1.440570715508e+01 0.0 
8.036186803543e+00 -1.384470558472e+01 0.0 
1.057112875118e+01 -1.453516759081e+01 0.0 
1.146582585687e+01 -1.410539926903e+01 0.0 
7.959894480382e+00 -1.483563350928e+01 0.0 
7.138792279156e+00 -1.427465094140e+01 0.0 
7.062506792418e+00 -1.526615385482e+01 0.0 
6.240693558277e+00 -1.470508863040e+01 0.0 
6.316957575451e+00 -1.371212581281e+01 0.0 
5.418183007107e+00 -1.414253605022e+01 0.0 
5.494748364428e+00 -1.314886770603e+01 0.0 
1.756825565873e+01 -1.206433872514e+01 0.0 
1.837565773345e+01 -1.261356468266e+01 0.0 
1.749574831391e+01 -1.303769280014e+01 0.0 
1.830539187332e+01 -1.358828364284e+01 0.0 
1.742278925170e+01 -1.401367746928e+01 0.0 
1.823303007798e+01 -1.456432294258e+01 0.0 
1.734941694138e+01 -1.499213734361e+01 0.0 
1.653760041637e+01 -1.443920312098e+01 0.0 
3.056237977307e+01 -1.487132260174e+01 0.0 
1.866469084762e+01 -8.742953000418e+00 0.0 
1.953669694916e+01 -8.326038909849e+00 0.0 
1.874194303780e+01 -7.780688158966e+00 0.0 
1.961032016741e+01 -7.366854697285e+00 0.0 
1.881715755159e+01 -6.821102209649e+00 0.0 
1.968369797150e+01 -6.407747217358e+00 0.0 
1.889237123259e+01 -5.858375520026e+00 0.0 
1.802038875366e+01 -6.276202618170e+00 0.0 
1.809793837984e+01 -5.307629520489e+00 0.0 
1.721985207997e+01 -5.728242054488e+00 0.0 
1.729850893523e+01 -4.756990819347e+00 0.0 
1.641745664240e+01 -5.174636548624e+00 0.0 
2.495978509456e+01 -1.304406404294e+01 0.0 
1.911567814831e+01 -1.413854250293e+01 0.0 
1.904387332608e+01 -1.511463127723e+01 0.0 
1.992115934240e+01 -1.468788025898e+01 0.0 
7.013706899628e+00 -4.812582868662e+00 0.0 
5.342091874585e+00 -1.513658157269e+01 0.0 
1.139098043784e+01 -1.509488509480e+01 0.0 
1.228151810610e+01 -1.465617481983e+01 0.0 
1.646373110164e+01 -1.541993323337e+01 0.0 
5.293328636712e+00 -4.678385108584e+00 0.0 
1.975965862987e+01 -5.448124345648e+00 0.0 
2.054318374236e+01 -5.992561293251e+00 0.0 
3.721453439063e+01 -1.533216152738e+01 0.0 
3.809302733893e+01 -1.489235527381e+01 0.0 
1.220852788900e+01 -1.565304565230e+01 0.0 
4.394120899730e+00 -5.108397613210e+00 0.0 
8.779354620288e+00 -1.539524721159e+01 0.0 
1.817791047702e+01 -4.338570146253e+00 0.0 
4.518860013839e+00 -1.457343189307e+01 0.0 
4.442712140414e+00 -1.556841391069e+01 0.0 
8.115343466391e+00 -1.285760324283e+01 0.0 
1.985334703171e+01 -1.566478400426e+01 0.0 
2.071953850276e+01 -1.522074243119e+01 0.0 
1.634012953883e+01 -6.154777738301e+00 0.0 
1.553479994708e+01 -5.593730508879e+00 0.0 
1.561265946942e+01 -4.617761762647e+00 0.0 
1.470674212978e+01 -5.064576488228e+00 0.0 
1.464498299883e+01 -6.026514471420e+00 0.0 
1.383271561817e+01 -5.467796261169e+00 0.0 
1.389241253067e+01 -4.504338666645e+00 0.0 
1.301868735463e+01 -4.907185188626e+00 0.0 
1.294514184846e+01 -5.888160903592e+00 0.0 
1.212955968622e+01 -5.328262335277e+00 0.0 
1.220721122383e+01 -4.341264976687e+00 0.0 
1.131324345897e+01 -4.766773516508e+00 0.0 
5.266597955397e+00 -1.613148974258e+01 0.0 
1.737805990867e+01 -3.786677807525e+00 0.0 
3.078438094513e+01 -1.203225297748e+01 0.0 
1.131569882285e+01 -1.608511932110e+01 0.0 
1.728478341782e+01 -1.596017432313e+01 0.0 
3.803465906019e+01 -1.587509751228e+01 0.0 
3.891681276677e+01 -1.543395196905e+01 0.0 
3.897340985302e+01 -1.444710288980e+01 0.0 
3.980095968193e+01 -1.499059496613e+01 0.0 
3.974334598189e+01 -1.597921884150e+01 0.0 
4.062964983717e+01 -1.553518690417e+01 0.0 
4.068729602479e+01 -1.454434445295e+01 0.0 
4.151772679790e+01 -1.508974196007e+01 0.0 
4.157505195739e+01 -1.409694289912e+01 0.0 
4.240699932656e+01 -1.464347955968e+01 0.0 
4.234898051011e+01 -1.563721375790e+01 0.0 
4.323934606035e+01 -1.519082036405e+01 0.0 
4.329740528208e+01 -1.419587509788e+01 0.0 
4.413056841369e+01 -1.474359631875e+01 0.0 
4.418850110108e+01 -1.374786684042e+01 0.0 
4.502219770667e+01 -1.429605103525e+01 0.0 
4.496411937907e+01 -1.529215882720e+01 0.0 
4.490027319897e+00 -4.154167794594e+00 0.0 
1.565080385988e+01 -1.486411982419e+01 0.0 
1.557610691279e+01 -1.584855627870e+01 0.0 
4.195350646612e+00 -8.089117689096e+00 0.0 
4.124027797830e+00 -9.082831955007e+00 0.0 
4.917944318925e+00 -9.643530901533e+00 0.0 
4.020105689502e+00 -1.007439673661e+01 0.0 
4.587185899277e+01 -1.484039992728e+01 0.0 
4.580078661551e+01 -1.584043391042e+01 0.0 
2.061956522375e+01 -5.046701343981e+00 0.0 
2.139572955529e+01 -5.579553449826e+00 0.0 
3.715344357292e+01 -1.631485124583e+01 0.0 
3.618886196443e+00 -1.500471207167e+01 0.0 
3.695606940204e+00 -1.400939692294e+01 0.0 
2.438890661143e+01 -9.686110599723e+00 0.0 
2.523267572778e+01 -9.276766000622e+00 0.0 
2.446094171539e+01 -8.751904591412e+00 0.0 
2.529089822738e+01 -8.321495612547e+00 0.0 
2.606882688827e+01 -8.864724051119e+00 0.0 
2.452116646430e+01 -7.792756462004e+00 0.0 
1.235543269617e+01 -1.365845617339e+01 0.0 
4.318116874181e+01 -1.618567469992e+01 0.0 
7.835066111909e+00 -5.376366223896e+00 0.0 
7.905687335704e+00 -4.382539065697e+00 0.0 
3.542640009567e+00 -1.600035116542e+01 0.0 
1.572431503071e+01 -1.388358386695e+01 0.0 
2.574684696680e+01 -1.357896141127e+01 0.0 
2.488842657651e+01 -1.399674354505e+01 0.0 
2.568301775611e+01 -1.453552048595e+01 0.0 
2.481535572009e+01 -1.495542756508e+01 0.0 
2.561729699688e+01 -1.549784648532e+01 0.0 
2.474623061296e+01 -1.592058894178e+01 0.0 
2.394234041695e+01 -1.537572575827e+01 0.0 
2.065825452567e+01 -1.621899055217e+01 0.0 
2.387180528935e+01 -1.634552264687e+01 0.0 
4.585364400844e+01 -1.383912334080e+01 0.0 
1.998744432052e+01 -1.370317155541e+01 0.0 
1.205356951443e+01 -6.313580285498e+00 0.0 
5.396543905849e+00 -3.731818611283e+00 0.0 
1.139652573295e+01 -3.745819399350e+00 0.0 
3.574124306703e+00 -4.551456826011e+00 0.0 
3.494140761930e+00 -5.539787055649e+00 0.0 
1.213651452413e+01 -1.664505033022e+01 0.0 
2.555045568519e+01 -1.646529356744e+01 0.0 
2.641671114986e+01 -1.603899382371e+01 0.0 
2.612920721894e+01 -7.906435260873e+00 0.0 
2.690339829698e+01 -8.456969591431e+00 0.0 
1.978024383368e+01 -1.664410216353e+01 0.0 
3.732829979082e+01 -1.336926601859e+01 0.0 
4.074336584605e+01 -1.355133328401e+01 0.0 
4.163204691081e+01 -1.310280943992e+01 0.0 
3.773826114429e+00 -3.493444309145e+00 0.0 
1.228783001032e+01 -3.374822835872e+00 0.0 
4.057110462520e+01 -1.652588478000e+01 0.0 
2.132535497898e+01 -6.523623360525e+00 0.0 
2.216932532211e+01 -6.110044769206e+00 0.0 
1.825781152128e+01 -3.370146817147e+00 0.0 
1.745679445888e+01 -2.812942552063e+00 0.0 
4.666517057280e+01 -1.539981381543e+01 0.0 
4.660575894464e+01 -1.639014410186e+01 0.0 
4.838230979954e+00 -1.063643436446e+01 0.0 
3.938942630206e+00 -1.106778981745e+01 0.0 
1.302967218620e+01 -1.621373452436e+01 0.0 
1.049548003190e+01 -4.204825123240e+00 0.0 
4.573571907195e+01 -1.683820511148e+01 0.0 
1.483686335807e+01 -1.430849689310e+01 0.0 
1.490982658890e+01 -1.332679386284e+01 0.0 
3.190805600162e+00 -9.510968358545e+00 0.0 
2.146625721848e+01 -4.642437303115e+00 0.0 
2.069866208266e+01 -4.111852942193e+00 0.0 
1.286859345584e+01 -6.873252723348e+00 0.0 
1.041794493184e+01 -5.194814260291e+00 0.0 
2.671081808965e+00 -4.976806516331e+00 0.0 
1.295786792925e+01 -1.720506531799e+01 0.0 
3.968438206511e+01 -1.696869067241e+01 0.0 
2.308550456051e+01 -1.579963151273e+01 0.0 
2.315593682844e+01 -1.482967445235e+01 0.0 
2.299471449450e+01 -1.677069968132e+01 0.0 
1.057344714696e+01 -3.214252277840e+00 0.0 
1.124057603753e+01 -1.707713739755e+01 0.0 
2.718402535754e+00 -1.543629882103e+01 0.0 
2.638549692805e+01 -1.696744916809e+01 0.0 
2.723416349007e+01 -1.658104204545e+01 0.0 
2.210193351704e+01 -7.046769643417e+00 0.0 
2.295180925161e+01 -6.657397605239e+00 0.0 
2.301355235833e+01 -5.709111896800e+00 0.0 
2.379052718281e+01 -6.254965406962e+00 0.0 
3.243528601237e+01 -1.214181853533e+01 0.0 
2.287977995457e+01 -7.583722368300e+00 0.0 
2.999876029544e+01 -1.150837653096e+01 0.0 
3.084435366963e+01 -1.109693775882e+01 0.0 
3.006650579669e+01 -1.057778994262e+01 0.0 
2.683802665066e+01 -9.386863216633e+00 0.0 
2.768641973621e+01 -8.988883915666e+00 0.0 
2.040296980397e+01 -7.903629133404e+00 0.0 
1.925235024054e+01 -1.218872783130e+01 0.0 
5.735667000424e+00 -1.020577277283e+01 0.0 
6.396559909872e+00 -1.272326295703e+01 0.0 
1.161199420714e+01 -1.212812778229e+01 0.0 
4.229046132615e+01 -1.663084237572e+01 0.0 
4.312275399692e+01 -1.718087491556e+01 0.0 
4.335502068163e+01 -1.320039231514e+01 0.0 
4.424630298089e+01 -1.275160688731e+01 0.0 
7.090116643816e+00 -3.818998061530e+00 0.0 
7.989472176569e+00 -3.389238711200e+00 0.0 
9.085824861778e+00 -1.144036167408e+01 0.0 
1.041972423731e+01 -1.651614080893e+01 0.0 
3.797525112640e+01 -1.686052038746e+01 0.0 
3.709114253394e+01 -1.730125999865e+01 0.0 
3.626966748340e+01 -1.675477052919e+01 0.0 
1.385164591440e+01 -1.677597757552e+01 0.0 
1.787152588784e+01 -8.198993896093e+00 0.0 
1.668849729812e+01 -1.248560611628e+01 0.0 
1.659546177905e+01 -3.232482605530e+00 0.0 
2.332214717345e+01 -1.292598167641e+01 0.0 
7.168238450786e+00 -2.824711686516e+00 0.0 
2.894878403906e+01 -1.475427524446e+01 0.0 
2.646763248247e+00 -1.643270107952e+01 0.0 
3.467431944285e+00 -1.699648837348e+01 0.0 
2.059475877282e+01 -1.719473628526e+01 0.0 
3.333868355437e+01 -1.080596971682e+01 0.0 
2.246451062637e+01 -1.334557761546e+01 0.0 
2.167821896388e+01 -1.280847834858e+01 0.0 
3.089653185767e+01 -1.017198487212e+01 0.0 
3.012604365669e+01 -9.657298805968e+00 0.0 
2.929627299435e+01 -1.006100135274e+01 0.0 
2.936201435219e+01 -9.136748899251e+00 0.0 
1.198219052702e+01 -7.291887238230e+00 0.0 
1.116702076035e+01 -6.731976101053e+00 0.0 
2.551388807505e+01 -1.746927036981e+01 0.0 
2.378639090370e+01 -1.728678807149e+01 0.0 
2.718543627188e+01 -1.748668016909e+01 0.0 
2.804681050301e+01 -1.712626668293e+01 0.0 
1.970737034667e+01 -1.762317646822e+01 0.0 
1.889535776135e+01 -1.707158098231e+01 0.0 
2.593777711283e+00 -5.971157087874e+00 0.0 
2.773468281110e+01 -8.067164273938e+00 0.0 
4.051205884347e+01 -1.751819982458e+01 0.0 
3.166903145421e+01 -1.068032992414e+01 0.0 
1.033042452886e+01 -1.748285844336e+01 0.0 
9.519274604626e+00 -1.694349240233e+01 0.0 
1.668308673328e+01 -2.255861778986e+00 0.0 
1.570531902832e+01 -2.676795860126e+00 0.0 
4.655826903379e+01 -1.736656245706e+01 0.0 
2.384148070773e+01 -5.328744256413e+00 0.0 
2.460255123641e+01 -5.852182672816e+00 0.0 
2.306638135119e+01 -4.798935440613e+00 0.0 
8.467720450578e-01 -1.849576263072e+01 0.0 
4.849657322345e+01 -1.084860705506e+01 0.0 
2.565860899507e+00 -1.742859793981e+01 0.0 
2.764418872564e+01 -9.927142821799e+00 0.0 
4.565165880064e+01 -1.785336695404e+01 0.0 
2.162231831329e+01 -1.376528337468e+01 0.0 
2.360646352969e+01 -9.136041963102e+00 0.0 
1.392738739903e+01 -1.578285505772e+01 0.0 
4.756405947478e+01 -1.683706841809e+01 0.0 
4.740895034054e+01 -1.793766756892e+01 0.0 
4.080779328826e+01 -1.257387192544e+01 0.0 
4.168907939671e+01 -1.210739129181e+01 0.0 
3.991197722154e+01 -1.300815793917e+01 0.0 
1.905536506762e+01 -3.940076697685e+00 0.0 
1.923879596617e+01 -2.875000734166e+00 0.0 
4.401386745746e+01 -1.673483229438e+01 0.0 
4.247233362525e+00 -7.094581653070e+00 0.0 
3.286051630211e+00 -7.635300020553e+00 0.0 
9.609533347623e+00 -4.594311677967e+00 0.0 
9.523554636369e+00 -5.595597029530e+00 0.0 
5.660336628893e+00 -1.119290329628e+01 0.0 
6.558070063295e+00 -1.076385809362e+01 0.0 
2.809866407414e+01 -1.518037766799e+01 0.0 
2.888868674504e+01 -1.570360690070e+01 0.0 
2.654431550819e+01 -1.411217777162e+01 0.0 
1.402158265969e+01 -1.375404617952e+01 0.0 
1.409592494026e+01 -1.277071998942e+01 0.0 
1.499355196178e+01 -1.235270737023e+01 0.0 
4.221535326155e+01 -1.759335617494e+01 0.0 
4.305583287033e+01 -1.822663146802e+01 0.0 
1.280748808359e+01 -7.834332838285e+00 0.0 
1.368988389326e+01 -7.420529606172e+00 0.0 
1.110091796060e+01 -7.683966794328e+00 0.0 
3.963446145980e+01 -1.794331310122e+01 0.0 
3.423932362213e+00 -1.796415590455e+01 0.0 
4.280814572302e+00 -1.752272834860e+01 0.0 
8.050136380041e+00 -2.421582378631e+00 0.0 
8.888674091650e+00 -2.984264211327e+00 0.0 
2.152839430898e+01 -3.732609965436e+00 0.0 
2.077799585292e+01 -3.183896021866e+00 0.0 
3.618719395821e+01 -1.770276572576e+01 0.0 
3.538165138340e+01 -1.718709995539e+01 0.0 
3.702925326420e+01 -1.828844288807e+01 0.0 
1.756739438711e+00 -5.353284859169e+00 0.0 
2.233710191104e+01 -1.527265621324e+01 0.0 
1.389483555057e+01 -1.771797164730e+01 0.0 
1.475634224300e+01 -1.728357428390e+01 0.0 
1.298797563052e+01 -1.825968924755e+01 0.0 
2.145331271866e+01 -1.673705379077e+01 0.0 
2.133282821169e+01 -1.769400773673e+01 0.0 
2.292139194136e+01 -1.774915400288e+01 0.0 
1.750750053243e+01 -1.861475593469e+00 0.0 
4.830478841772e+01 -1.752611802221e+01 0.0 
4.341203507805e+01 -1.220326745522e+01 0.0 
1.685254151866e+01 -1.443085301632e+00 0.0 
4.431538535165e+01 -1.171841387375e+01 0.0 
4.511308610496e+01 -1.229557320599e+01 0.0 
4.510133242889e+01 -1.123680627466e+01 0.0 
1.846818030617e+00 -4.410877617069e+00 0.0 
3.995468694584e+01 -1.186571542989e+01 0.0 
3.901387459804e+01 -1.242507616755e+01 0.0 
8.966735877533e+00 -1.837818700423e+00 0.0 
4.049310011091e+01 -1.848269508791e+01 0.0 
7.278862053803e+00 -1.918523922691e+00 0.0 
6.429715522129e+00 -2.316676521184e+00 0.0 
9.443505505022e+00 -1.792198868094e+01 0.0 
8.620386951051e+00 -1.737590365556e+01 0.0 
8.571868171503e+00 -1.834436667826e+01 0.0 
7.758629848526e+00 -1.775677907213e+01 0.0 
7.806648388584e+00 -1.680761266021e+01 0.0 
6.908555145436e+00 -1.723746463044e+01 0.0 
4.251709122090e+01 -1.156937480156e+01 0.0 
6.931136405615e+00 -1.832465719263e+01 0.0 
6.015545461353e+00 -1.768865355295e+01 0.0 
5.960535926343e+00 -1.872011001764e+01 0.0 
3.023253444786e+01 -8.761960642196e+00 0.0 
2.454622702599e+01 -6.749421992767e+00 0.0 
2.537499741604e+01 -6.347634963783e+00 0.0 
2.544077378460e+01 -5.431358513649e+00 0.0 
2.801367161747e+01 -1.820907270221e+01 0.0 
2.884507806914e+01 -1.762032095326e+01 0.0 
1.821474531936e+00 -1.588901260460e+01 0.0 
1.821006262604e+00 -1.489370287756e+01 0.0 
4.599962488908e+01 -1.176478780598e+01 0.0 
4.705457470007e+01 -1.172182804229e+01 0.0 
4.667668314802e+01 -1.263464558483e+01 0.0 
4.759648056504e+01 -1.252380987933e+01 0.0 
4.728041618103e+01 -1.341928568376e+01 0.0 
4.825209352360e+01 -1.330491640804e+01 0.0 
4.778118233428e+01 -1.420151961695e+01 0.0 
2.388192727579e+01 -1.826934810142e+01 0.0 
2.381714684947e+01 -4.385917965223e+00 0.0 
3.172733219247e+01 -9.758744265248e+00 0.0 
1.882012070658e+01 -1.805540597212e+01 0.0 
1.805667505243e+01 -1.742221226236e+01 0.0 
2.852599958080e+01 -8.597196079481e+00 0.0 
2.856486123437e+01 -7.661382718527e+00 0.0 
1.111792842875e+01 -1.818223852980e+01 0.0 
2.203322722466e+01 -7.986646678802e+00 0.0 
3.955703676900e+01 -1.903246763601e+01 0.0 
1.944842206513e+01 -8.038750575182e-01 0.0 
1.909882767783e+01 -1.746322740933e+00 0.0 
2.281147422941e+01 -8.525912918334e+00 0.0 
2.850633001468e+01 -9.533271335986e+00 0.0 
2.532883344309e+01 -7.308951659710e+00 0.0 
2.620475466461e+01 -6.979208585400e+00 0.0 
1.396278270396e+01 -1.475095389807e+01 0.0 
9.791001166724e+00 -2.554159793552e+00 0.0 
2.229293380421e+01 -4.269762271052e+00 0.0 
4.677238984118e+01 -1.430071795514e+01 0.0 
2.228658385918e+01 -3.344747535984e+00 0.0 
8.940223674553e-01 -1.543595733415e+01 0.0 
2.118566862474e+01 -8.435876987696e+00 0.0 
2.678325936437e+01 -1.032621195706e+01 0.0 
2.223400220487e+01 -5.179046761770e+00 0.0 
2.375370625384e+01 -7.251580562134e+00 0.0 
3.156971327386e+01 -1.255534750737e+01 0.0 
3.328226391312e+01 -1.172914813316e+01 0.0 
3.250948774219e+01 -1.120157009348e+01 0.0 
2.032993445717e+01 -8.867880112202e+00 0.0 
2.697226974856e+01 -7.536633082045e+00 0.0 
2.707377810386e+01 -6.590835263295e+00 0.0 
2.914099246827e+01 -1.191678458549e+01 0.0 
3.544824072239e+01 -1.621126558525e+01 0.0 
3.456511855436e+01 -1.665054783843e+01 0.0 
3.448395810225e+01 -1.759117813016e+01 0.0 
3.368378673938e+01 -1.708037781328e+01 0.0 
3.375560452567e+01 -1.610973066913e+01 0.0 
3.288001547988e+01 -1.654324255651e+01 0.0 
3.282475929147e+01 -1.749725654692e+01 0.0 
3.199880906313e+01 -1.697294088625e+01 0.0 
3.197001272932e+01 -1.811667776864e+01 0.0 
3.111884713021e+01 -1.742166785755e+01 0.0 
3.120418962865e+01 -1.642155709385e+01 0.0 
3.034666704371e+01 -1.683123833816e+01 0.0 
3.026224379976e+01 -1.772592851714e+01 0.0 
3.046632362943e+01 -1.582232843075e+01 0.0 
1.961344017324e+01 -1.857459447985e+01 0.0 
2.274975894774e+01 -9.532738811922e+00 0.0 
1.833923246887e+01 -2.396746883672e+00 0.0 
1.988859500848e+01 -2.249244376594e+00 0.0 
2.758045562861e+01 -1.086434261689e+01 0.0 
3.247300178163e+01 -1.909930104252e+01 0.0 
3.461947482503e+01 -1.911879848019e+01 0.0 
2.047161538662e+01 -6.941478180358e+00 0.0 
2.750230940214e+01 -1.915490590764e+01 0.0 
3.165081350803e+01 -1.161860780120e+01 0.0 
1.897456727641e+01 -4.889634688522e+00 0.0 
2.549338539756e+01 -1.914858252089e+01 0.0 
3.462873135081e+01 -1.567482276144e+01 0.0 
3.384432415243e+01 -1.512280684518e+01 0.0 
3.471433767690e+01 -1.469086942990e+01 0.0 
3.651470373046e+01 -1.918207952149e+01 0.0 
3.901742690249e+01 -1.345028556517e+01 0.0 
2.153224102692e+01 -1.920169709333e+01 0.0 
1.918382939341e+01 -1.316226275662e+01 0.0 
2.005389162382e+01 -1.271962165174e+01 0.0 
2.011472087878e+01 -1.175029352900e+01 0.0 
3.210679478412e+01 -1.598038618242e+01 0.0 
1.752175226543e+01 -1.914713022656e+01 0.0 
1.696897240059e+01 -1.832772588765e+01 0.0 
1.599682523337e+01 -1.832599992024e+01 0.0 
1.644507199462e+01 -1.743697981535e+01 0.0 
1.549987712903e+01 -1.915192375101e+01 0.0 
3.050250861901e+01 -1.918943550234e+01 0.0 
2.949944061527e+01 -1.922950455235e+01 0.0 
1.375892575273e+01 -6.447160534926e+00 0.0 
1.457223670180e+01 -7.006709243857e+00 0.0 
1.450818793236e+01 -7.965943451779e+00 0.0 
1.538804712402e+01 -7.553409623699e+00 0.0 
1.545817644768e+01 -6.580929593419e+00 0.0 
1.626506893751e+01 -7.129032608911e+00 0.0 
1.619833811522e+01 -8.086588580887e+00 0.0 
1.714448609609e+01 -6.697429609777e+00 0.0 
2.887616543568e+01 -1.668015232137e+01 0.0 
1.349814589130e+01 -1.918225301544e+01 0.0 
1.153887772210e+01 -1.311384581217e+01 0.0 
1.242708159886e+01 -1.267046795531e+01 0.0 
1.249799674267e+01 -1.169005616014e+01 0.0 
6.631723893693e+00 -9.774184881867e+00 0.0 
7.451471631867e+00 -1.033148796006e+01 0.0 
7.377795355458e+00 -1.132196345268e+01 0.0 
5.810931797536e+00 -9.211654212252e+00 0.0 
2.402683899133e+01 -1.441378562320e+01 0.0 
1.249768692036e+01 -1.917388426624e+01 0.0 
1.580373499437e+01 -1.290751860664e+01 0.0 
8.344650507834e+00 -9.898403995170e+00 0.0 
3.750622115305e+01 -1.086526401533e+01 0.0 
3.699391251667e+01 -1.171695900794e+01 0.0 
3.606517829518e+01 -1.173717504500e+01 0.0 
3.650257641795e+01 -1.270047380221e+01 0.0 
3.808951488918e+01 -1.183518714175e+01 0.0 
4.760380962420e+00 -1.162484888315e+01 0.0 
3.861210370848e+00 -1.205657631736e+01 0.0 
3.038284309476e+00 -1.149851280664e+01 0.0 
2.961598794889e+00 -1.248856794980e+01 0.0 
2.138953225512e+00 -1.193212674534e+01 0.0 
2.227383593457e+00 -1.096258903918e+01 0.0 
2.043265419276e+00 -1.292158472959e+01 0.0 
1.252449446028e+00 -1.225502002753e+01 0.0 
3.949985210740e+01 -1.086594001795e+01 0.0 
1.453499444792e+01 -8.768805922472e-01 0.0 
1.403518950933e+01 -1.749965556633e+00 0.0 
1.300715031023e+01 -1.714737233040e+00 0.0 
1.350929389899e+01 -2.527443911291e+00 0.0 
1.449600910711e+01 -2.595486162864e+00 0.0 
1.395693872901e+01 -3.484211041558e+00 0.0 
1.495105865208e+01 -3.364609636216e+00 0.0 
1.508822528740e+01 -1.766586020494e+00 0.0 
1.250223858430e+01 -8.634590186802e-01 0.0 
1.200279523409e+01 -1.709044504992e+00 0.0 
1.150086239419e+01 -8.592789190668e-01 0.0 
1.101482754194e+01 -1.677730591922e+00 0.0 
1.148018564526e+01 -2.659323866909e+00 0.0 
8.800552119754e+00 -3.989875954728e+00 0.0 
3.452790439430e+00 -1.901136170646e+01 0.0 
8.658451825200e-01 -9.503462241795e+00 0.0 
1.694787786797e+00 -9.000589234502e+00 0.0 
1.703436717094e+00 -8.038819004041e+00 0.0 
2.594197971110e+00 -8.563955242845e+00 0.0 
1.630513735412e+00 -9.907244747511e+00 0.0 
8.566859292791e-01 -7.512203837972e+00 0.0 
1.685461277022e+00 -7.164280248030e+00 0.0 
2.506394468801e+00 -8.623386730818e-01 0.0 
2.007475081581e+00 -1.727729545205e+00 0.0 
9.211534699767e-01 -1.628791366312e+00 0.0 
1.500000000020e+00 -2.598063549486e+00 0.0 
2.482078929963e+00 -2.553580088725e+00 0.0 
2.999795253092e+00 -1.732169015019e+00 0.0 
3.999712607169e+00 -1.728832897453e+00 0.0 
4.499752199340e+00 -8.656478679175e-01 0.0 
4.964377774841e+00 -1.730129617941e+00 0.0 
4.425017908337e+00 -2.597541756243e+00 0.0 
5.446573195014e+00 -8.410144840023e-01 0.0 
4.915722346614e+01 -1.550640962770e+01 0.0 
4.826794919243e+01 -1.600000000000e+01 0.0 
1.053139533193e+01 -1.911782884365e+01 0.0 
4.156049861949e+01 -1.095160998589e+01 0.0 
9.494526624416e+00 -8.650570090219e-01 0.0 
4.555762166964e+01 -1.897098103585e+01 0.0 
4.250656411371e+01 -1.914387356218e+01 0.0 
4.350906466345e+01 -1.917234727395e+01 0.0 
8.759665722424e-01 -1.746422130609e+01 0.0 
1.698936011838e+00 -1.795012186674e+01 0.0 
4.742476811029e+01 -1.900090177972e+01 0.0 
7.749196752349e+00 -6.368049313489e+00 0.0 
3.361572113416e+01 -1.798765193915e+01 0.0 
4.484660149212e+01 -1.728661231383e+01 0.0 
1.984038172228e+01 -4.502575320116e+00 0.0 
1.035080352627e+01 -6.166639575753e+00 0.0 
2.753558010652e+00 -1.444909521181e+01 0.0 
7.217069543032e+00 -1.328635391078e+01 0.0 
4.364336727739e+00 -1.655585677381e+01 0.0 
4.595208426108e+00 -1.357919665443e+01 0.0 
6.164967006980e+00 -1.569873454630e+01 0.0 
1.487855768353e+01 -1.826523774028e+01 0.0 
2.791876456372e+00 -4.019632415181e+00 0.0 
4.246464893515e+01 -1.364898659620e+01 0.0 
4.503855590351e+01 -1.329552780944e+01 0.0 
4.407239109604e+01 -1.573900004093e+01 0.0 
5.141054449252e+00 -6.664290382472e+00 0.0 
3.141083947149e+00 -1.055790764912e+01 0.0 
6.196463198741e+00 -4.256497932609e+00 0.0 
2.599618716181e+01 -1.836893455464e+01 0.0 
2.923057372337e+01 -1.098461757645e+01 0.0 
1.168343877486e+01 -1.114079645041e+01 0.0 
6.706222096238e+00 -8.780364234441e+00 0.0 
8.567858614669e+00 -6.943121440850e+00 0.0 
1.123755132901e+01 -5.753525820030e+00 0.0 
2.353456234423e+01 -1.008536320953e+01 0.0 
9.162073319168e+00 -1.045593739109e+01 0.0 
9.676343469685e+00 -1.496493008366e+01 0.0 
4.490637882905e+01 -1.628778970202e+01 0.0 
7.398129387772e+00 -9.639977982323e-01 0.0 
1.049641705805e+01 -1.552503975272e+01 0.0 
9.010356286268e+00 -1.242805042052e+01 0.0 
3.985573925497e+01 -1.399863651620e+01 0.0 
1.816196318262e+01 -1.554066497931e+01 0.0 
1.306332244168e+01 -3.963646550326e+00 0.0 
4.145850903932e+01 -1.608094559275e+01 0.0 
3.794664933633e+01 -1.779020121986e+01 0.0 
3.819614412903e+01 -1.290749321016e+01 0.0 
6.270014188119e+00 -3.255093186826e+00 0.0 
4.251165370388e+01 -1.263870364997e+01 0.0 
1.207347709171e+01 -1.763942826023e+01 0.0 
3.633240829927e+01 -1.577330481104e+01 0.0 
4.319052668832e+00 -6.101812561904e+00 0.0 
1.676492415806e+01 -1.151547901392e+01 0.0 
2.594059220037e+01 -1.074225223009e+01 0.0 
3.340750911501e+01 -9.898764354137e+00 0.0 
4.397619591281e+01 -1.769773736461e+01 0.0 
2.175611595028e+01 -1.185718747128e+01 0.0 
1.641818733106e+01 -1.640685203215e+01 0.0 
1.661211421753e+01 -1.346121366338e+01 0.0 
3.428853504935e+00 -6.551993389271e+00 0.0 
8.700728832502e+00 -1.638460872825e+01 0.0 
1.931369795309e+01 -1.121629383702e+01 0.0 
4.139798872363e+01 -1.706922153459e+01 0.0 
2.647837478700e+01 -1.507353829290e+01 0.0 
1.779469616424e+01 -9.161615782908e+00 0.0 
3.885879219319e+01 -1.642026488918e+01 0.0 
1.338194936770e+01 -1.125916521471e+01 0.0 
1.897071181111e+01 -1.609204322578e+01 0.0 
2.844308548793e+01 -1.046221003096e+01 0.0 
2.659854702194e+01 -1.316109415760e+01 0.0 
2.979604503271e+01 -1.433296157755e+01 0.0 
2.417694041347e+01 -1.251231397779e+01 0.0 
1.807401327411e+00 -1.388891148480e+01 0.0 
9.599810618782e+00 -1.595439365034e+01 0.0 
1.652144692160e+01 -4.205392788472e+00 0.0 
2.367839450246e+01 -8.188385218643e+00 0.0 
3.814894930468e+01 -1.390748338767e+01 0.0 
2.466448215774e+01 -1.685878545680e+01 0.0 
4.134044524611e+01 -1.806610045954e+01 0.0 
2.600511411958e+01 -9.801774120648e+00 0.0 
7.882158050716e+00 -1.582364037353e+01 0.0 
3.881607873422e+01 -1.737970515013e+01 0.0 
8.270182347708e+00 -1.088622154920e+01 0.0 
8.672520392520e-01 -4.532984309881e+00 0.0 
1.993447205337e+01 -3.579061902667e+00 0.0 
1.794616079549e+01 -7.238038888498e+00 0.0 
2.097277068165e+01 -1.132450168636e+01 0.0 
8.194803300681e+00 -1.187214224265e+01 0.0 
3.522279404911e+01 -1.823342818178e+01 0.0 
6.984481050295e+00 -1.625271465557e+01 0.0 
1.309433007797e+01 -1.521718594215e+01 0.0 
2.150246167611e+01 -1.885399038185e+00 0.0 
3.250689370209e+01 -1.028789870535e+01 0.0 
6.085886272238e+00 -1.668342132851e+01 0.0 
1.588455661727e+01 -1.193498985921e+01 0.0 
1.809323400821e+01 -1.651110084195e+01 0.0 
1.348885082381e+00 -1.136065576512e+01 0.0 
2.497670221995e+01 -1.834631276173e+01 0.0 
2.937062818424e+01 -8.233711194470e+00 0.0 
5.185823744469e+00 -1.711566910207e+01 0.0 
1.477497877209e+01 -1.530177014512e+01 0.0 
2.125346158933e+01 -7.473003997367e+00 0.0 
4.751561118290e+01 -1.084897772632e+01 0.0 
5.056026576843e+00 -1.825750475525e+01 0.0 
1.473948554523e+01 -1.634577436309e+01 0.0 
2.410566630936e+01 -1.345970002612e+01 0.0 
1.507337507513e+01 -1.138527895328e+01 0.0 
3.189857338687e+01 -8.887781229006e+00 0.0 
7.298712468334e+00 -1.230231046246e+01 0.0 
2.738235495295e+01 -1.368931690364e+01 0.0 
3.750141041969e+01 -1.920449893070e+01 0.0 
1.557271965640e+01 -1.683317951731e+01 0.0 
3.393731848929e+01 -1.413034777044e+01 0.0 
6.482156824153e+00 -1.174575135362e+01 0.0 
2.077971718439e+01 -1.421279621836e+01 0.0 
3.455084320178e+00 -2.562590040585e+00 0.0 
3.099056096250e+01 -9.270280416035e+00 0.0 
5.580176125418e+00 -1.217387969259e+01 0.0 
1.707247630389e+01 -7.660651981710e+00 0.0 
1.418658814174e+01 -1.180390575393e+01 0.0 
2.049103025389e+01 -1.811296706038e+01 0.0 
4.680386172316e+00 -1.260396879301e+01 0.0 
1.699679896554e+01 -8.624561788199e+00 0.0 
3.779470168555e+00 -1.303424899720e+01 0.0 
3.036589870126e+01 -7.879832518349e+00 0.0 
3.306993001774e+01 -1.457671062095e+01 0.0 
2.840150110165e+00 -1.346530088269e+01 0.0 
2.732011135052e+01 -1.464591214560e+01 0.0 
5.423639259568e+00 -2.659711955016e+00 0.0 
2.324455961696e+01 -1.387269388211e+01 0.0 
1.752768355571e+00 -1.693128613594e+01 0.0 
1.020244783051e+01 -8.076834012808e+00 0.0 
1.330873875224e+01 -1.222417528206e+01 0.0 
3.297727364880e+01 -1.555480372087e+01 0.0 
2.890929955439e+01 -6.868664170731e+00 0.0 
1.323294664622e+01 -1.320754260334e+01 0.0 
2.726532861246e+01 -1.560593120806e+01 0.0 
2.240020643398e+01 -1.429299177247e+01 0.0 
2.090445823633e+01 -1.228128621332e+01 0.0 
1.315809881502e+01 -1.420739326938e+01 0.0 
2.781328038068e+01 -7.181956082300e+00 0.0 
8.614200829057e+00 -5.936933226306e+00 0.0 
8.714765730069e+00 -4.979270529687e+00 0.0 
1.611881701099e+01 -9.041973294003e+00 0.0 
2.806830314340e+01 -1.614622947108e+01 0.0 
2.084435391396e+00 -3.385085422913e+00 0.0 
3.133211811152e+01 -1.542347619750e+01 0.0 
9.693114650768e+00 -3.590281506442e+00 0.0 
1.531883592202e+01 -8.504584946143e+00 0.0 
2.151589117094e+01 -1.578915763018e+01 0.0 
4.918943882696e+01 -1.355538828056e+01 0.0 
1.443236615188e+01 -8.918701794549e+00 0.0 
8.276250966452e-01 -5.537685192197e+00 0.0 
1.362790867918e+01 -8.374718262212e+00 0.0 
2.083767477370e+01 -1.324843956035e+01 0.0 
1.273834678703e+01 -8.790890389337e+00 0.0 
1.192275845670e+01 -8.242261327467e+00 0.0 
4.477236023583e+01 -1.824312396664e+01 0.0 
1.102989384254e+01 -8.649855800911e+00 0.0 
4.849096516045e+01 -1.917293752213e+01 0.0 
1.588996752238e+00 -1.910230934687e+01 0.0 
4.904245197583e+01 -1.159839008158e+01 0.0 
2.753852929608e+01 -5.782128488093e+00 0.0 
1.756133602833e+01 -8.306130313187e-01 0.0 
2.615423700951e+01 -6.153865090092e+00 0.0 
1.028818761294e+01 -7.122020845892e+00 0.0 
2.970818901196e+01 -1.527821347593e+01 0.0 
4.801461623449e+01 -1.164472570985e+01 0.0 
9.455722100419e+00 -6.546069291118e+00 0.0 
3.089099236677e+01 -1.835339328261e+01 0.0 
2.350000000013e+01 -1.920825896750e+01 0.0 
4.830620531887e+01 -1.506626155470e+01 0.0 
1.725381944701e+01 -1.688794487850e+01 0.0 
2.156246225273e+01 -1.475893794002e+01 0.0 
4.919319648787e+01 -1.742767505896e+01 0.0 
4.437935623576e+01 -1.077662927266e+01 0.0 
1.001520521978e+01 -1.652692675208e+00 0.0 
9.067160240050e-01 -1.441937727541e+01 0.0 
2.603365149390e+01 -4.755996613848e+00 0.0 
2.458344439002e+01 -4.873645517696e+00 0.0 
2.304312390142e+01 -3.836552768096e+00 0.0 
2.546923202198e+00 -6.902480355749e+00 0.0 
1.251534969393e+01 -2.490989965776e+00 0.0 
2.454061833377e+01 -3.933354231935e+00 0.0 
1.788186558740e+01 -1.827424884923e+01 0.0 
4.090785243552e+01 -1.166553231904e+01 0.0 
2.230128851568e+01 -1.623015738726e+01 0.0 
2.302362347568e+01 -2.916239960270e+00 0.0 
3.878119254461e+01 -1.830091164002e+01 0.0 
2.210081359958e+01 -1.829238229150e+01 0.0 
8.443704882233e+00 -1.921993252862e+01 0.0 
2.218405824691e+01 -1.724557581508e+01 0.0 
2.151157503963e+01 -2.790636689331e+00 0.0 
3.741658958955e+01 -1.250400191722e+01 0.0 
2.697247663737e+01 -1.838290202309e+01 0.0 
4.743362342862e+01 -1.585850773010e+01 0.0 
6.671345075358e+00 -1.924977576322e+01 0.0 
3.900825404537e+01 -1.157220003875e+01 0.0 
4.649692961375e+01 -1.836335837481e+01 0.0 
1.578831424832e+01 -3.678284023361e+00 0.0 
4.814208768888e+01 -1.841249298770e+01 0.0 
2.964123298315e+01 -1.625739458193e+01 0.0 
4.580760351902e+01 -1.284294554687e+01 0.0 
3.561520879615e+01 -1.245548941949e+01 0.0 
2.555418095658e+00 -1.841101588290e+01 0.0 
3.288468366144e+01 -1.834258164109e+01 0.0 
2.065894391445e+01 -2.240688571739e+00 0.0 
4.739171429915e+01 -1.496536413446e+01 0.0 
3.478086729185e+00 -8.576434653209e+00 0.0 
1.606010630246e+01 -1.588421807951e+00 0.0 
1.018329200594e+01 -1.834320874317e+01 0.0 
2.957213339430e+01 -1.720496954591e+01 0.0 
4.142712790164e+00 -1.837794506222e+01 0.0 
6.698721532573e-01 -2.499999999997e+00 0.0 
8.037039123140e+00 -1.571229354954e+00 0.0 
1.203541361428e+01 -1.847784298001e+01 0.0 
2.899968332038e+01 -1.848264722179e+01 0.0 
1.469229460948e+01 -4.219485753730e+00 0.0 
4.049590781957e+01 -1.932812501995e+01 0.0 
1.996211678340e+01 -1.506329754720e+00 0.0 
4.250588298353e+01 -1.067383247529e+01 0.0 
5.831497011152e+00 -1.635396227234e+00 0.0 
5.317606125670e+00 -1.923927974868e+01 0.0 
4.208546426993e+01 -1.842830665025e+01 0.0 
2.327553405011e+00 -9.459409929662e+00 0.0 
3.568351902251e+01 -1.096637218582e+01 0.0 
1.682104374890e+00 -6.231413350963e+00 0.0 
2.451812238018e+01 -1.766524914339e+01 0.0 
1.058003429638e+01 -2.391839617098e+00 0.0 
4.399988753123e+01 -1.851998776342e+01 0.0 
1.400000000010e+01 -1.852293523028e+01 0.0 
3.604719565984e+01 -1.850662876800e+01 0.0 
1.951297136734e+01 -1.938092349694e+01 0.0 
1.821365318472e+01 -1.531276353287e+00 0.0 
2.298031859732e+01 -1.854635324722e+01 0.0 
1.552168066204e+01 -1.764280741977e+01 0.0 
4.572957713638e+01 -1.073347898229e+01 0.0 
3.429637429624e+01 -1.838861552790e+01 0.0 
2.427434426052e+00 -7.705577451869e+00 0.0 
4.662792031485e+00 -3.359424455416e+00 0.0 
4.926794919243e+01 -1.926794919243e+01 0.0 
7.320508075690e-01 -7.320508075688e-01 0.0 
4.926794919243e+01 -1.073205080757e+01 0.0 
7.320508075705e-01 -1.926794919243e+01 0.0 
2.917460242467e+00 -3.202866455310e+00 0.0 
4.838200575963e+01 -1.232674147454e+01 0.0 
2.998445708009e+01 -1.854403752148e+01 0.0 
5.949940090766e-01 -1.152762038165e+01 0.0 
4.844763495759e+01 -1.678092548787e+01 0.0 
1.301685480160e+01 -3.170056592566e+00 0.0 
1.650046335855e+01 -6.731535384067e-01 0.0 
4.854881540991e+01 -1.405224059779e+01 0.0 
2.119545114693e+01 -1.846813384545e+01 0.0 
3.797852849897e+01 -1.857978513215e+01 0.0 
4.649823708745e+01 -1.338351810816e+01 0.0 
2.012685900976e+01 -2.889659035009e+00 0.0 
2.953271913273e+01 -1.791558075192e+01 0.0 
2.408509097292e+00 -1.021949208421e+01 0.0 
2.642589566221e+01 -1.773216561448e+01 0.0 
1.730010270775e+01 -1.763165076721e+01 0.0 
2.017406551304e+01 -8.513536440582e-01 0.0 
5.254761581934e-01 -1.249999999999e+01 0.0 
6.640448215642e+00 -1.545337834885e+00 0.0 
7.843361506349e+00 -1.852719839527e+01 0.0 
1.588442191088e+00 -1.066158564320e+01 0.0 
3.331250000000e+01 -8.420918367347e+00 0.0 
4.951470588234e+01 -8.500000000000e+00 0.0 
3.480610198624e+01 -9.413633635267e+00 0.0 
4.951470588234e+01 -9.500000000000e+00 0.0 

CELLS 1996 7984 
3 214 684 960 
3 684 214 962 
3 694 187 705 
3 807 572 996 
3 574 634 800 
3 664 577 703 
3 194 616 618 
3 214 641 962 
3 616 194 634 
3 567 802 996 
3 186 761 762 
3 641 214 976 
3 806 958 1002 
3 623 754 844 
3 958 220 1002 
3 213 807 996 
3 622 193 763 
3 577 664 702 
3 201 621 943 
3 621 201 881 
3 802 567 955 
3 932 178 938 
3 659 932 938 
3 609 608 818 
3 308 464 753 
3 761 186 870 
3 107 82 1023 
3 653 179 895 
3 306 308 753 
3 818 608 1028 
3 558 768 770 
3 211 624 801 
3 694 705 1003 
3 19 199 674 
3 209 628 630 
3 637 66 994 
3 66 637 1020 
3 656 205 700 
3 620 98 973 
3 98 620 1034 
3 896 638 922 
3 174 660 799 
3 977 175 981 
3 82 223 1023 
3 615 222 972 
3 654 977 981 
3 768 558 771 
3 222 615 998 
3 764 765 771 
3 754 623 995 
3 216 659 896 
3 606 621 881 
3 384 997 1015 
3 216 896 922 
3 706 188 886 
3 979 551 1024 
3 606 881 950 
3 199 644 674 
3 467 795 913 
3 802 213 996 
3 173 1007 1048 
3 987 613 989 
3 433 461 667 
3 997 770 1015 
3 778 597 1002 
3 659 216 932 
3 1007 617 1048 
3 187 694 967 
3 494 455 776 
3 183 642 708 
3 870 813 924 
3 33 32 662 
3 653 895 1025 
3 4 5 788 
3 785 979 1024 
3 625 190 876 
3 706 886 1035 
3 673 978 985 
3 795 467 1037 
3 978 215 985 
3 455 468 776 
3 193 622 983 
3 178 684 938 
3 684 178 960 
3 634 574 846 
3 616 634 846 
3 645 870 975 
3 18 19 674 
3 699 696 944 
3 574 800 983 
3 801 624 974 
3 225 752 1023 
3 798 969 993 
3 993 969 1005 
3 191 33 662 
3 700 205 1030 
3 622 763 995 
3 799 660 1008 
3 219 651 948 
3 667 461 668 
3 800 634 1018 
3 220 778 1002 
3 381 947 971 
3 612 987 989 
3 502 500 678 
3 765 768 771 
3 805 806 928 
3 571 798 993 
3 173 764 771 
3 901 196 1020 
3 346 699 944 
3 4 788 1039 
3 569 665 701 
3 536 852 890 
3 580 782 1006 
3 640 667 668 
3 435 433 667 
3 209 630 988 
3 651 219 1043 
3 639 435 667 
3 670 600 945 
3 223 225 1023 
3 798 571 1046 
3 435 639 678 
3 990 889 1004 
3 655 905 914 
3 782 580 1036 
3 905 180 914 
3 190 625 1016 
3 602 990 1004 
3 761 870 924 
3 572 807 998 
3 509 566 666 
3 180 638 914 
3 628 209 1008 
3 806 563 958 
3 645 813 870 
3 666 566 866 
3 610 738 1028 
3 542 658 666 
3 592 803 804 
3 642 183 1014 
3 844 754 991 
3 451 423 672 
3 658 509 666 
3 638 180 922 
3 566 704 866 
3 678 504 873 
3 194 618 973 
3 665 300 701 
3 624 211 1012 
3 959 965 1043 
3 789 201 943 
3 217 655 890 
3 738 610 747 
3 639 502 678 
3 674 645 975 
3 641 175 977 
3 947 607 971 
3 200 646 647 
3 661 300 665 
3 644 199 928 
3 494 670 945 
3 806 565 928 
3 681 554 709 
3 196 901 1010 
3 959 564 965 
3 500 504 678 
3 852 217 890 
3 186 762 1059 
3 175 641 976 
3 300 661 675 
3 423 474 672 
3 646 200 1034 
3 504 665 873 
3 655 217 905 
3 548 737 942 
3 782 483 1006 
3 179 653 968 
3 708 642 992 
3 640 668 962 
3 483 782 1022 
3 725 855 909 
3 658 542 896 
3 641 640 962 
3 681 536 890 
3 665 569 873 
3 189 802 955 
3 312 721 931 
3 199 805 928 
3 654 215 978 
3 510 675 899 
3 696 721 944 
3 81 108 663 
3 542 638 896 
3 898 570 902 
3 794 926 1019 
3 809 202 1035 
3 307 232 714 
3 929 288 956 
3 418 898 902 
3 752 225 1001 
3 753 464 991 
3 608 610 1028 
3 939 830 966 
3 676 247 704 
3 506 396 709 
3 313 307 714 
3 503 681 709 
3 554 681 890 
3 452 912 952 
3 737 586 942 
3 663 197 664 
3 668 684 962 
3 668 461 683 
3 566 676 704 
3 721 691 931 
3 577 576 882 
3 570 669 888 
3 620 646 1034 
3 675 661 899 
3 366 888 937 
3 626 836 1060 
3 712 313 714 
3 836 182 1060 
3 794 795 926 
3 215 654 981 
3 939 582 940 
3 686 313 712 
3 582 581 940 
3 562 671 677 
3 388 769 841 
3 600 777 945 
3 855 418 909 
3 554 506 709 
3 597 778 1010 
3 108 197 663 
3 471 501 677 
3 261 300 675 
3 659 658 896 
3 669 570 898 
3 637 901 1020 
3 923 312 931 
3 370 352 707 
3 418 902 909 
3 870 186 975 
3 704 314 866 
3 713 714 910 
3 613 987 1032 
3 261 675 682 
3 501 562 677 
3 231 503 679 
3 662 32 1016 
3 247 676 851 
3 720 263 859 
3 647 646 648 
3 776 468 980 
3 503 680 681 
3 470 370 707 
3 576 710 811 
3 558 770 997 
3 313 686 848 
3 396 679 709 
3 435 678 873 
3 686 525 848 
3 721 312 944 
3 314 685 827 
3 181 635 994 
3 511 720 859 
3 239 505 685 
3 569 701 832 
3 511 719 720 
3 353 369 710 
3 751 192 752 
3 265 262 682 
3 382 733 734 
3 713 923 931 
3 108 109 197 
3 503 229 680 
3 352 350 707 
3 426 471 677 
3 355 353 710 
3 234 231 679 
3 624 670 974 
3 462 552 683 
3 511 718 719 
3 679 503 709 
3 751 752 753 
3 472 577 702 
3 382 734 736 
3 383 386 733 
3 668 683 684 
3 713 910 923 
3 461 462 683 
3 348 265 682 
3 675 510 682 
3 472 576 577 
3 701 257 832 
3 601 671 673 
3 37 188 706 
3 39 202 705 
3 248 247 851 
3 369 352 370 
3 425 426 484 
3 240 239 685 
3 369 370 425 
3 382 383 733 
3 314 827 866 
3 803 592 1021 
3 707 510 899 
3 912 568 952 
3 601 484 671 
3 206 57 726 
3 425 370 426 
3 245 314 704 
3 472 376 576 
3 748 441 856 
3 262 261 682 
3 386 730 733 
3 505 396 506 
3 42 727 728 
3 350 348 510 
3 511 339 718 
3 485 484 601 
3 716 401 839 
3 888 669 937 
3 501 502 560 
3 575 716 839 
3 204 45 708 
3 478 570 888 
3 41 187 727 
3 844 464 874 
3 699 346 964 
3 562 560 654 
3 507 506 539 
3 239 396 505 
3 239 237 396 
3 315 851 877 
3 179 47 711 
3 306 753 1001 
3 680 536 681 
3 510 348 682 
3 581 777 940 
3 539 554 655 
3 501 500 502 
3 200 647 900 
3 386 729 730 
3 350 510 707 
3 690 712 713 
3 471 500 501 
3 505 506 507 
3 339 341 718 
3 514 741 828 
3 50 203 717 
3 542 540 638 
3 354 356 736 
3 595 929 956 
3 561 640 641 
3 560 502 561 
3 696 693 721 
3 245 243 314 
3 552 658 659 
3 507 539 540 
3 54 205 722 
3 205 656 982 
3 693 691 721 
3 713 712 714 
3 741 281 828 
3 433 434 461 
3 353 352 369 
3 351 350 352 
3 247 245 704 
3 528 748 856 
3 296 742 743 
3 689 687 690 
3 356 382 736 
3 430 315 431 
3 685 505 827 
3 432 431 433 
3 187 40 705 
3 202 38 706 
3 202 809 1003 
3 514 740 741 
3 525 427 848 
3 501 560 562 
3 349 348 350 
3 576 376 710 
3 462 509 552 
3 750 751 754 
3 716 844 874 
3 726 724 818 
3 697 696 699 
3 231 229 503 
3 238 237 239 
3 376 355 710 
3 773 775 776 
3 300 259 701 
3 253 251 315 
3 259 257 701 
3 170 889 990 
3 647 648 649 
3 777 581 945 
3 426 470 471 
3 57 56 726 
3 360 362 452 
3 224 536 680 
3 201 789 1011 
3 851 676 877 
3 261 259 300 
3 237 234 679 
3 183 43 728 
3 539 506 554 
3 243 240 685 
3 296 743 749 
3 687 686 712 
3 514 739 740 
3 44 183 708 
3 41 40 187 
3 37 36 188 
3 39 38 202 
3 236 234 237 
3 690 687 712 
3 695 693 696 
3 433 431 434 
3 461 434 462 
3 745 742 829 
3 689 690 691 
3 46 204 711 
3 604 525 686 
3 718 452 719 
3 604 686 687 
3 445 443 746 
3 253 315 430 
3 552 509 658 
3 425 484 485 
3 191 662 986 
3 432 433 435 
3 826 545 895 
3 742 296 829 
3 387 390 729 
3 206 726 818 
3 471 499 500 
3 42 41 727 
3 202 706 1035 
3 244 243 245 
3 773 774 775 
3 44 43 183 
3 171 722 723 
3 386 387 729 
3 341 360 718 
3 177 51 717 
3 116 172 774 
3 430 431 432 
3 242 240 243 
3 246 245 247 
3 314 243 685 
3 484 426 677 
3 46 45 204 
3 347 265 348 
3 473 472 702 
3 635 181 1061 
3 774 172 775 
3 541 540 542 
3 768 769 770 
3 655 554 890 
3 171 55 722 
3 48 47 179 
3 396 237 679 
3 765 767 768 
3 614 473 702 
3 768 767 769 
3 858 556 871 
3 750 192 751 
3 226 224 680 
3 50 49 203 
3 208 750 754 
3 188 36 715 
3 448 445 746 
3 575 623 716 
3 561 639 640 
3 360 452 718 
3 576 811 882 
3 52 51 177 
3 40 39 705 
3 38 37 706 
3 514 322 739 
3 317 319 745 
3 253 430 832 
3 322 324 739 
3 54 53 205 
3 426 370 470 
3 733 732 734 
3 730 731 732 
3 465 575 839 
3 58 206 738 
3 765 766 767 
3 56 55 171 
3 729 594 730 
3 43 42 728 
3 695 696 697 
3 115 116 774 
3 430 569 832 
3 524 427 525 
3 45 44 708 
3 236 237 238 
3 491 448 492 
3 485 601 602 
3 724 723 725 
3 486 593 594 
3 730 594 731 
3 764 207 765 
3 47 46 711 
3 710 369 811 
3 478 526 570 
3 575 622 623 
3 812 544 831 
3 730 732 733 
3 238 239 240 
3 51 50 717 
3 319 421 745 
3 330 366 436 
3 250 248 251 
3 589 482 590 
3 734 732 735 
3 739 436 740 
3 251 248 851 
3 587 444 861 
3 360 361 362 
3 252 251 253 
3 289 291 749 
3 471 470 499 
3 317 745 829 
3 492 448 746 
3 316 339 511 
3 56 171 726 
3 603 525 604 
3 487 812 831 
3 55 54 722 
3 171 723 724 
3 258 257 259 
3 765 207 766 
3 59 738 747 
3 688 687 689 
3 390 486 729 
3 58 57 206 
3 324 330 739 
3 462 508 509 
3 229 226 680 
3 316 511 859 
3 320 514 828 
3 482 441 748 
3 714 232 910 
3 541 666 866 
3 362 380 381 
3 649 648 650 
3 291 296 749 
3 341 343 360 
3 486 543 593 
3 513 335 814 
3 114 115 772 
3 500 499 504 
3 486 594 729 
3 742 584 743 
3 256 254 257 
3 330 436 739 
3 465 573 575 
3 390 453 486 
3 59 58 738 
3 242 243 244 
3 512 583 584 
3 244 245 246 
3 512 584 742 
3 772 115 774 
3 228 226 229 
3 781 780 782 
3 182 121 796 
3 421 476 512 
3 330 365 366 
3 810 480 835 
3 590 748 892 
3 590 482 748 
3 224 184 536 
3 208 105 750 
3 605 715 908 
3 246 247 248 
3 121 122 796 
3 600 520 777 
3 766 772 773 
3 582 939 966 
3 498 548 942 
3 578 810 835 
3 375 858 871 
3 299 297 808 
3 337 335 513 
3 478 489 526 
3 395 376 472 
3 212 780 781 
3 185 784 785 
3 174 60 747 
3 60 59 747 
3 780 779 783 
3 512 476 583 
3 320 322 514 
3 526 608 609 
3 520 439 777 
3 373 458 478 
3 794 792 795 
3 421 512 745 
3 743 584 744 
3 198 791 792 
3 212 779 780 
3 524 525 603 
3 122 123 793 
3 106 192 750 
3 106 107 192 
3 441 345 856 
3 185 10 784 
3 486 453 543 
3 671 484 677 
3 631 629 632 
3 711 204 826 
3 515 409 842 
3 561 502 639 
3 624 600 670 
3 507 540 541 
3 102 193 800 
3 101 102 800 
3 122 793 796 
3 793 792 794 
3 787 789 790 
3 363 304 438 
3 198 786 791 
3 779 176 783 
3 173 112 764 
3 304 299 808 
3 652 650 672 
3 104 105 208 
3 548 643 737 
3 324 329 330 
3 649 650 651 
3 10 11 784 
3 787 790 791 
3 30 29 803 
3 190 30 803 
3 575 573 622 
3 193 103 763 
3 784 781 785 
3 28 189 804 
3 438 304 808 
3 105 106 750 
3 104 208 763 
3 539 655 914 
3 36 35 715 
3 803 29 804 
3 198 792 793 
3 123 198 793 
3 599 520 600 
3 743 744 880 
3 805 563 806 
3 111 112 173 
3 210 797 798 
3 113 207 764 
3 481 441 482 
3 113 114 207 
3 112 113 764 
3 588 482 589 
3 534 597 598 
3 651 650 652 
3 827 541 866 
3 786 787 791 
3 336 337 816 
3 25 24 807 
3 213 25 807 
3 103 104 763 
3 417 345 441 
3 29 28 804 
3 491 492 607 
3 787 788 789 
3 786 221 787 
3 787 221 788 
3 11 12 212 
3 220 69 778 
3 80 79 222 
3 125 221 786 
3 13 176 779 
3 70 69 220 
3 68 196 778 
3 61 174 799 
3 76 195 797 
3 78 77 210 
3 69 68 778 
3 68 67 196 
3 210 77 797 
3 125 126 221 
3 99 100 194 
3 102 103 193 
3 198 124 786 
3 65 64 181 
3 209 62 799 
3 63 62 209 
3 124 125 786 
3 123 124 198 
3 61 60 174 
3 62 61 799 
3 76 75 195 
3 96 97 200 
3 77 76 797 
3 74 73 219 
3 94 95 564 
3 120 121 182 
3 118 119 211 
3 117 118 801 
3 116 117 172 
3 13 14 176 
3 12 13 779 
3 118 211 801 
3 16 17 186 
3 172 117 801 
3 34 33 191 
3 28 27 189 
3 31 30 190 
3 6 7 201 
3 9 10 185 
3 27 26 802 
3 19 20 199 
3 26 25 213 
3 20 21 805 
3 21 22 563 
3 212 12 779 
3 189 27 802 
3 26 213 802 
3 199 20 805 
3 21 563 805 
3 428 429 813 
3 207 114 772 
3 319 420 421 
3 793 794 796 
3 631 632 633 
3 512 742 745 
3 394 378 815 
3 363 438 439 
3 926 627 1019 
3 534 598 815 
3 421 422 476 
3 212 781 784 
3 378 440 815 
3 571 572 615 
3 11 212 784 
3 366 365 373 
3 328 326 379 
3 428 377 429 
3 496 428 813 
3 347 348 349 
3 541 542 666 
3 257 254 832 
3 336 335 337 
3 440 533 534 
3 644 496 645 
3 487 581 582 
3 559 480 567 
3 475 424 480 
3 620 619 646 
3 334 332 335 
3 377 336 816 
3 571 559 572 
3 475 559 571 
3 379 326 838 
3 534 565 597 
3 437 409 515 
3 644 645 674 
3 635 633 636 
3 567 480 810 
3 414 412 415 
3 330 329 365 
3 374 456 457 
3 393 479 487 
3 599 600 624 
3 766 207 772 
3 475 480 559 
3 534 533 565 
3 773 772 774 
3 692 691 693 
3 618 518 619 
3 364 378 394 
3 440 496 533 
3 543 544 595 
3 533 496 644 
3 618 619 620 
3 360 343 361 
3 635 636 637 
3 606 488 621 
3 630 629 631 
3 423 415 424 
3 457 488 551 
3 487 582 812 
3 759 757 760 
3 411 413 517 
3 298 302 317 
3 474 424 475 
3 414 423 451 
3 583 476 755 
3 645 496 813 
3 440 428 496 
3 423 424 474 
3 416 368 454 
3 476 422 477 
3 449 535 611 
3 415 822 835 
3 421 420 422 
3 328 379 814 
3 628 556 629 
3 414 415 423 
3 557 473 614 
3 531 626 627 
3 357 355 376 
3 440 534 815 
3 413 412 414 
3 761 759 762 
3 517 518 616 
3 478 458 489 
3 755 477 756 
3 378 428 440 
3 457 456 488 
3 631 633 635 
3 476 477 755 
3 551 488 606 
3 477 422 824 
3 317 318 319 
3 303 299 304 
3 758 759 761 
3 120 182 836 
3 211 119 836 
3 429 377 816 
3 374 416 456 
3 334 335 336 
3 335 332 814 
3 291 295 296 
3 390 391 453 
3 437 515 516 
3 703 577 1053 
3 319 419 420 
3 526 489 608 
3 456 416 467 
3 517 413 518 
3 616 518 618 
3 519 439 520 
3 555 522 556 
3 408 406 409 
3 374 368 416 
3 591 515 860 
3 516 515 591 
3 311 368 374 
3 640 639 667 
3 305 304 363 
3 378 377 428 
3 756 757 758 
3 604 687 688 
3 437 516 578 
3 364 336 377 
3 334 336 364 
3 363 439 519 
3 364 377 378 
3 408 409 410 
3 758 757 759 
3 411 412 413 
3 410 409 437 
3 263 264 859 
3 822 578 835 
3 422 483 824 
3 756 477 757 
3 419 318 579 
3 293 290 294 
3 411 410 412 
3 285 287 320 
3 303 305 311 
3 531 520 599 
3 408 410 411 
3 303 304 305 
3 628 629 630 
3 415 412 822 
3 364 394 817 
3 171 724 726 
3 422 420 483 
3 311 305 368 
3 519 520 531 
3 333 332 334 
3 414 451 821 
3 531 599 626 
3 317 302 318 
3 621 488 819 
3 411 517 820 
3 319 318 419 
3 332 328 814 
3 419 579 580 
3 480 424 835 
3 302 299 303 
3 327 331 375 
3 487 479 581 
3 331 328 332 
3 760 757 824 
3 333 334 817 
3 734 735 916 
3 488 456 819 
3 619 518 821 
3 481 482 588 
3 431 315 877 
3 413 414 821 
3 393 487 831 
3 405 407 465 
3 456 467 819 
3 632 629 858 
3 417 441 481 
3 362 361 380 
3 516 591 592 
3 320 321 322 
3 454 368 825 
3 325 323 326 
3 555 556 628 
3 543 453 544 
3 334 364 817 
3 412 410 822 
3 387 389 390 
3 327 326 328 
3 573 466 574 
3 457 551 857 
3 298 299 302 
3 250 251 252 
3 331 332 333 
3 462 434 508 
3 252 253 254 
3 407 406 408 
3 518 413 821 
3 465 466 573 
3 757 477 824 
3 495 397 522 
3 322 323 324 
3 517 616 846 
3 694 693 695 
3 381 380 449 
3 327 328 331 
3 410 437 822 
3 291 293 295 
3 295 297 298 
3 363 519 825 
3 324 325 329 
3 298 317 829 
3 407 408 820 
3 465 407 466 
3 267 269 316 
3 808 297 830 
3 349 350 351 
3 298 297 299 
3 295 293 297 
3 305 363 825 
3 373 397 458 
3 286 284 288 
3 437 578 822 
3 282 284 285 
3 324 323 325 
3 320 287 321 
3 256 257 258 
3 368 305 825 
3 495 522 555 
3 495 555 660 
3 442 444 587 
3 291 290 293 
3 322 321 323 
3 408 411 820 
3 296 295 829 
3 430 432 569 
3 302 303 823 
3 453 391 831 
3 289 290 291 
3 303 311 823 
3 374 457 849 
3 321 287 521 
3 325 326 327 
3 460 497 498 
3 119 120 836 
3 278 276 279 
3 282 280 283 
3 289 288 290 
3 466 407 820 
3 285 286 287 
3 318 302 823 
3 286 288 289 
3 424 415 835 
3 579 318 823 
3 531 627 845 
3 825 519 845 
3 544 453 831 
3 293 294 830 
3 278 280 281 
3 285 284 286 
3 393 455 479 
3 454 825 845 
3 716 623 844 
3 823 311 849 
3 373 365 397 
3 446 459 460 
3 230 229 231 
3 469 403 490 
3 498 547 548 
3 264 267 859 
3 444 446 861 
3 391 392 393 
3 289 749 833 
3 260 259 261 
3 383 385 386 
3 455 392 468 
3 295 298 829 
3 282 283 284 
3 281 280 282 
3 579 823 849 
3 285 320 828 
3 278 279 280 
3 274 276 277 
3 297 293 830 
3 344 342 345 
3 405 406 407 
3 274 272 275 
3 458 397 495 
3 390 389 391 
3 608 489 610 
3 281 282 828 
3 548 642 643 
3 241 240 242 
3 391 393 831 
3 233 231 234 
3 523 427 524 
3 281 741 864 
3 504 661 665 
3 235 234 236 
3 315 251 851 
3 393 392 455 
3 625 596 662 
3 479 455 494 
3 656 550 657 
3 810 578 853 
3 367 345 417 
3 820 517 846 
3 404 403 469 
3 277 276 278 
3 316 338 339 
3 553 490 596 
3 327 375 834 
3 402 404 405 
3 481 588 669 
3 391 389 392 
3 402 400 403 
3 711 826 895 
3 495 660 847 
3 286 289 833 
3 466 820 846 
3 574 466 846 
3 282 285 828 
3 329 325 834 
3 365 329 837 
3 519 531 845 
3 351 352 353 
3 270 272 273 
3 274 275 276 
3 254 253 832 
3 553 596 625 
3 689 691 692 
3 578 516 853 
3 509 508 566 
3 399 371 427 
3 325 327 834 
3 591 860 876 
3 372 400 401 
3 287 286 833 
3 270 268 271 
3 402 403 404 
3 469 490 553 
3 409 406 842 
3 405 404 406 
3 556 522 871 
3 549 463 550 
3 522 397 837 
3 326 323 838 
3 638 540 914 
3 344 367 398 
3 309 307 313 
3 311 374 849 
3 273 272 274 
3 590 892 904 
3 339 340 341 
3 356 358 382 
3 270 271 272 
3 341 342 343 
3 507 541 827 
3 521 287 833 
3 401 716 874 
3 634 194 1018 
3 84 161 170 
3 323 321 838 
3 367 417 418 
3 688 689 809 
3 316 269 338 
3 321 521 838 
3 405 465 839 
3 85 162 215 
3 344 345 367 
3 340 338 528 
3 505 507 827 
3 329 834 837 
3 386 385 387 
3 397 365 837 
3 489 458 847 
3 343 342 344 
3 406 404 842 
3 450 448 491 
3 458 495 847 
3 86 163 175 
3 401 402 839 
3 611 535 612 
3 404 469 842 
3 341 340 342 
3 269 268 270 
3 911 583 915 
3 395 472 473 
3 515 842 860 
3 849 457 857 
3 87 164 214 
3 447 445 448 
3 516 592 853 
3 387 388 389 
3 249 248 250 
3 401 400 402 
3 880 744 885 
3 382 358 383 
3 504 499 661 
3 468 392 841 
3 387 385 388 
3 389 388 841 
3 339 338 340 
3 715 35 908 
3 88 165 178 
3 629 556 858 
3 266 265 347 
3 310 372 874 
3 357 376 395 
3 610 489 847 
3 392 389 841 
3 580 579 857 
3 361 343 840 
3 278 281 864 
3 449 463 535 
3 432 435 873 
3 309 313 848 
3 549 550 656 
3 402 405 839 
3 689 692 809 
3 400 399 863 
3 399 427 523 
3 369 425 811 
3 632 858 878 
3 372 399 400 
3 263 720 884 
3 89 166 216 
3 549 656 700 
3 354 353 355 
3 579 849 857 
3 449 380 463 
3 201 7 881 
3 255 254 256 
3 344 398 840 
3 523 524 843 
3 524 603 605 
3 343 344 840 
3 490 403 863 
3 264 262 265 
3 446 460 861 
3 90 167 180 
3 695 697 698 
3 91 168 217 
3 169 91 852 
3 267 316 859 
3 82 169 184 
3 537 292 538 
3 258 259 260 
3 270 273 850 
3 383 358 384 
3 267 268 269 
3 469 553 860 
3 692 693 694 
3 375 331 878 
3 535 463 549 
3 277 278 864 
3 399 523 863 
3 269 270 850 
3 633 632 887 
3 403 400 863 
3 427 371 848 
3 345 342 856 
3 264 266 267 
3 460 459 497 
3 238 240 241 
3 383 384 385 
3 354 355 356 
3 569 432 873 
3 246 248 249 
3 636 633 891 
3 372 371 399 
3 267 266 268 
3 442 587 867 
3 398 367 855 
3 842 469 860 
3 498 497 547 
3 464 310 874 
3 570 526 902 
3 338 269 850 
3 367 418 855 
3 252 254 255 
3 596 490 879 
3 548 547 642 
3 340 528 856 
3 356 355 357 
3 450 491 493 
3 255 292 530 
3 264 265 266 
3 342 340 856 
3 373 478 888 
3 356 357 358 
3 528 338 850 
3 233 234 235 
3 636 891 897 
3 235 236 346 
3 447 448 450 
3 230 231 233 
3 227 226 228 
3 241 242 301 
3 550 463 865 
3 858 375 878 
3 310 371 372 
3 524 605 843 
3 228 229 230 
3 347 349 527 
3 450 493 546 
3 860 553 876 
3 256 258 854 
3 255 256 292 
3 266 347 862 
3 371 309 848 
3 508 434 877 
3 537 538 568 
3 434 431 877 
3 380 361 865 
3 546 613 653 
3 271 268 862 
3 395 473 529 
3 603 604 886 
3 566 508 676 
3 904 277 917 
3 546 493 613 
3 310 309 371 
3 834 375 871 
3 260 261 262 
3 529 473 557 
3 897 598 901 
3 249 250 359 
3 362 381 912 
3 497 459 545 
3 557 614 617 
3 837 834 871 
3 470 707 899 
3 308 310 464 
3 379 885 906 
3 268 266 862 
3 633 887 891 
3 530 292 537 
3 347 527 862 
3 249 359 442 
3 529 557 558 
3 444 445 446 
3 361 840 865 
3 643 642 1014 
3 446 447 459 
3 354 736 883 
3 331 333 878 
3 553 625 876 
3 700 177 918 
3 463 380 865 
3 263 262 264 
3 442 443 444 
3 815 598 897 
3 759 760 894 
3 446 445 447 
3 372 401 874 
3 632 878 887 
3 522 837 871 
3 96 200 900 
3 564 95 900 
3 233 235 312 
3 444 443 445 
3 513 814 906 
3 241 301 532 
3 538 292 854 
3 725 909 1033 
3 260 262 263 
3 34 191 908 
3 225 224 226 
3 292 256 854 
3 379 838 885 
3 351 353 354 
3 521 833 880 
3 442 359 443 
3 244 246 867 
3 308 309 310 
3 532 301 585 
3 532 585 586 
3 790 789 943 
3 833 749 880 
3 676 508 877 
3 236 238 868 
3 346 236 868 
3 657 550 893 
3 7 8 881 
3 384 358 872 
3 250 252 869 
3 749 743 880 
3 91 217 852 
3 184 169 852 
3 308 307 309 
3 425 485 811 
3 885 744 906 
3 418 417 898 
3 358 357 872 
3 179 711 895 
3 863 523 879 
3 584 583 911 
3 878 333 887 
3 795 792 913 
3 481 669 898 
3 359 250 869 
3 791 790 913 
3 490 863 879 
3 357 395 872 
3 238 241 868 
3 246 249 867 
3 274 277 904 
3 740 436 933 
3 523 843 879 
3 436 366 937 
3 255 530 869 
3 252 255 869 
3 161 83 889 
3 395 529 872 
3 447 450 875 
3 227 228 232 
3 450 546 875 
3 499 470 899 
3 691 690 931 
3 545 459 875 
3 536 184 852 
3 459 447 875 
3 333 817 887 
3 746 443 903 
3 521 880 885 
3 838 521 885 
3 604 688 886 
3 741 740 930 
3 249 442 867 
3 720 719 936 
3 366 373 888 
3 854 258 884 
3 883 736 916 
3 748 528 892 
3 527 349 883 
3 241 532 868 
3 527 883 916 
3 301 242 907 
3 550 865 893 
3 865 840 893 
3 258 260 884 
3 306 307 308 
3 887 817 891 
3 817 394 891 
3 485 602 882 
3 301 907 925 
3 636 897 901 
3 552 659 938 
3 513 911 915 
3 170 161 889 
3 891 394 897 
3 351 354 883 
3 762 759 894 
3 912 381 971 
3 306 232 307 
3 227 232 306 
3 359 869 903 
3 90 180 905 
3 217 168 905 
3 394 815 897 
3 933 436 937 
3 590 904 917 
3 417 481 898 
3 850 273 892 
3 349 351 883 
3 168 90 905 
3 225 226 227 
3 95 96 900 
3 840 398 893 
3 260 263 884 
3 549 700 918 
3 533 644 928 
3 528 850 892 
3 637 636 901 
3 916 735 920 
3 612 535 918 
3 869 530 903 
3 492 746 927 
3 526 609 902 
3 290 288 929 
3 867 587 907 
3 892 273 904 
3 244 867 907 
3 661 499 899 
3 607 492 935 
3 273 274 904 
3 814 379 906 
3 242 244 907 
3 1004 218 1017 
3 719 452 952 
3 673 170 990 
3 454 845 926 
3 513 906 911 
3 460 498 934 
3 232 228 910 
3 89 216 922 
3 35 34 908 
3 83 160 218 
3 180 167 922 
3 589 590 917 
3 583 755 915 
3 540 539 914 
3 946 731 949 
3 930 740 933 
3 443 359 903 
3 452 362 912 
3 697 999 1009 
3 811 485 882 
3 744 584 911 
3 915 755 919 
3 808 830 939 
3 223 184 224 
3 228 230 910 
3 18 674 975 
3 792 791 913 
3 617 614 961 
3 777 439 940 
3 755 756 919 
3 271 920 941 
3 732 731 946 
3 736 734 916 
3 337 513 915 
3 233 312 923 
3 919 756 921 
3 271 862 920 
3 907 587 925 
3 623 622 995 
3 381 449 947 
3 756 758 921 
3 337 915 919 
3 88 178 932 
3 275 272 941 
3 921 758 924 
3 195 75 948 
3 74 219 948 
3 216 166 932 
3 816 337 919 
3 594 593 951 
3 673 671 978 
3 535 549 918 
3 581 479 945 
3 951 593 953 
3 936 719 952 
3 167 89 922 
3 758 761 924 
3 9 185 950 
3 223 224 225 
3 816 919 921 
3 277 864 917 
3 906 744 911 
3 664 703 1017 
3 972 210 1046 
3 279 276 949 
3 855 725 970 
3 492 927 935 
3 429 816 921 
3 429 921 924 
3 920 735 941 
3 494 776 1026 
3 703 1004 1017 
3 813 429 924 
3 902 609 909 
3 543 595 954 
3 587 861 925 
3 684 683 938 
3 585 301 925 
3 660 174 1013 
3 109 110 961 
3 24 23 957 
3 71 70 958 
3 73 72 959 
3 283 280 953 
3 746 903 927 
3 862 527 920 
3 845 627 926 
3 83 218 889 
3 810 853 955 
3 230 233 923 
3 82 184 223 
3 48 179 968 
3 881 8 950 
3 203 49 968 
3 910 230 923 
3 288 284 956 
3 903 530 927 
3 283 953 954 
3 562 654 978 
3 954 595 956 
3 312 235 944 
3 565 533 928 
3 279 949 951 
3 585 925 934 
3 961 110 1048 
3 275 941 946 
3 690 713 931 
3 294 290 929 
3 595 544 963 
3 530 537 927 
3 769 388 1015 
3 87 214 960 
3 178 165 960 
3 294 963 966 
3 589 917 930 
3 854 884 936 
3 925 861 934 
3 694 695 967 
3 166 88 932 
3 797 195 969 
3 642 547 992 
3 527 916 920 
3 170 673 985 
3 683 552 938 
3 864 741 930 
3 532 586 964 
3 917 864 930 
3 577 882 1053 
3 588 589 933 
3 654 560 977 
3 884 720 936 
3 589 930 933 
3 927 537 935 
3 451 672 1052 
3 830 294 966 
3 601 673 990 
3 588 933 937 
3 561 641 977 
3 961 614 1031 
3 222 79 972 
3 78 210 972 
3 775 172 974 
3 669 588 937 
3 438 939 940 
3 438 808 939 
3 934 498 942 
3 537 568 935 
3 861 460 934 
3 275 946 949 
3 98 99 973 
3 209 799 1008 
3 439 438 940 
3 398 855 970 
3 538 854 936 
3 621 819 943 
3 346 868 964 
3 272 271 941 
3 773 776 980 
3 735 732 946 
3 17 18 975 
3 235 346 944 
3 479 494 945 
3 762 894 1045 
3 586 585 942 
3 449 611 947 
3 929 595 963 
3 950 185 1024 
3 538 936 952 
3 75 74 948 
3 767 766 980 
3 826 204 992 
3 705 202 1003 
3 219 959 1043 
3 662 596 986 
3 727 187 967 
3 276 275 949 
3 279 951 953 
3 723 722 982 
3 197 109 961 
3 8 9 950 
3 762 1045 1059 
3 294 929 963 
3 731 594 951 
3 86 175 976 
3 214 164 976 
3 622 573 983 
3 941 735 946 
3 857 551 979 
3 491 607 984 
3 181 64 988 
3 63 209 988 
3 280 279 953 
3 208 754 995 
3 617 961 1048 
3 85 215 981 
3 770 769 1015 
3 175 163 981 
3 568 538 952 
3 593 543 954 
3 949 731 951 
3 771 558 1007 
3 615 972 1046 
3 953 593 954 
3 567 810 955 
3 475 571 993 
3 807 24 957 
3 70 220 958 
3 219 73 959 
3 283 954 956 
3 165 87 960 
3 284 283 956 
3 66 65 994 
3 84 170 985 
3 215 162 985 
3 657 893 970 
3 800 193 983 
3 572 559 996 
3 585 934 942 
3 611 612 989 
3 697 699 999 
3 648 646 1000 
3 963 812 966 
3 544 812 963 
3 969 195 1049 
3 984 611 989 
3 192 107 1023 
3 564 900 965 
3 647 649 965 
3 646 619 1000 
3 529 558 997 
3 812 582 966 
3 592 804 1027 
3 821 451 1000 
3 177 700 1030 
3 695 698 967 
3 868 532 964 
3 879 843 986 
3 483 420 1006 
3 419 580 1006 
3 660 555 1008 
3 173 771 1007 
3 606 950 1024 
3 49 48 968 
3 6 201 1011 
3 900 647 965 
3 724 725 1033 
3 599 624 1012 
3 182 796 1019 
3 31 190 1016 
3 101 800 1018 
3 876 190 1021 
3 723 982 1057 
3 194 100 1018 
3 197 961 1031 
3 807 957 998 
3 454 926 1037 
3 592 591 1021 
3 67 66 1020 
3 692 694 1003 
3 384 872 997 
3 754 751 991 
3 782 780 1022 
3 607 947 984 
3 52 177 1030 
3 798 797 969 
3 205 53 1030 
3 558 557 1007 
3 635 637 994 
3 385 384 1015 
3 790 943 1042 
3 206 818 1028 
3 715 605 1029 
3 625 662 1016 
3 618 620 973 
3 225 227 1001 
3 671 562 978 
3 727 967 1044 
3 785 781 1036 
3 602 1004 1053 
3 947 611 984 
3 97 98 1034 
3 605 603 1029 
3 3 80 1038 
3 23 3 1038 
3 126 0 1039 
3 0 4 1039 
3 72 1 1040 
3 1 94 1040 
3 2 71 1041 
3 22 2 1041 
3 788 221 1039 
3 111 173 1048 
3 901 598 1010 
3 546 653 1025 
3 467 416 1037 
3 631 635 1061 
3 16 186 1059 
3 176 14 1045 
3 672 650 1052 
3 841 769 1047 
3 607 935 971 
3 926 795 1037 
3 824 483 1055 
3 967 698 1044 
3 79 78 972 
3 894 176 1045 
3 649 651 1043 
3 545 826 1056 
3 999 737 1009 
3 964 586 999 
3 99 194 973 
3 568 912 971 
3 886 688 1035 
3 551 606 1024 
3 172 801 974 
3 497 545 1056 
3 893 398 970 
3 769 767 1047 
3 652 969 1049 
3 778 196 1010 
3 545 875 1025 
3 895 545 1025 
3 186 17 975 
3 663 664 1017 
3 164 86 976 
3 560 561 977 
3 751 753 991 
3 935 568 971 
3 853 592 1027 
3 722 205 982 
3 766 773 980 
3 775 974 1026 
3 163 85 981 
3 672 474 1005 
3 580 857 979 
3 843 605 1051 
3 943 819 1042 
3 656 657 982 
3 573 574 983 
3 717 203 987 
3 493 491 984 
3 753 752 1001 
3 747 610 1013 
3 605 908 1051 
3 957 222 998 
3 162 84 985 
3 596 879 986 
3 204 708 992 
3 982 657 1057 
3 493 984 989 
3 64 63 988 
3 699 964 999 
3 81 663 1058 
3 602 601 990 
3 698 697 1009 
3 464 844 991 
3 565 806 1002 
3 613 493 989 
3 181 988 1061 
3 474 475 993 
3 177 717 1050 
3 847 660 1013 
3 610 847 1013 
3 979 785 1036 
3 65 181 994 
3 763 208 995 
3 559 567 996 
3 776 775 1026 
3 571 615 1046 
3 652 672 1005 
3 788 5 1011 
3 872 529 997 
3 586 737 999 
3 190 803 1021 
3 615 572 998 
3 918 177 1050 
3 619 821 1000 
3 211 836 1012 
3 702 664 1031 
3 836 626 1012 
3 670 494 1026 
3 160 81 1058 
3 483 1022 1055 
3 597 565 1002 
3 809 692 1003 
3 227 306 1001 
3 420 419 1006 
3 555 628 1008 
3 609 818 1033 
3 987 203 1032 
3 826 992 1056 
3 737 643 1009 
3 974 670 1026 
3 557 617 1007 
3 598 597 1010 
3 789 788 1011 
3 5 6 1011 
3 889 218 1004 
3 626 599 1012 
3 174 747 1013 
3 183 728 1014 
3 955 853 1027 
3 203 968 1032 
3 909 609 1033 
3 1000 451 1052 
3 32 31 1016 
3 388 385 1015 
3 100 101 1018 
3 767 980 1047 
3 796 794 1019 
3 196 67 1020 
3 752 192 1023 
3 913 790 1042 
3 780 783 1022 
3 1014 728 1044 
3 591 876 1021 
3 188 715 1029 
3 185 785 1024 
3 614 702 1031 
3 988 630 1061 
3 957 23 1038 
3 71 958 1041 
3 959 72 1040 
3 818 724 1033 
3 467 913 1042 
3 986 843 1051 
3 182 1019 1060 
3 738 206 1028 
3 886 188 1029 
3 664 197 1031 
3 875 546 1025 
3 474 993 1005 
3 804 189 1027 
3 53 52 1030 
3 195 948 1049 
3 728 727 1044 
3 603 886 1029 
3 969 652 1005 
3 1014 1044 1054 
3 781 782 1036 
3 200 97 1034 
3 653 613 1032 
3 80 222 1038 
3 221 126 1039 
3 94 564 1040 
3 563 22 1041 
3 416 454 1037 
3 725 723 1057 
3 688 809 1035 
3 189 955 1027 
3 819 467 1042 
3 1004 703 1053 
3 14 15 1045 
3 210 798 1046 
3 110 111 1048 
3 908 191 1051 
3 651 652 1049 
3 468 841 1047 
3 650 648 1052 
3 968 653 1032 
3 1045 15 1059 
3 218 160 1058 
3 580 979 1036 
3 760 824 1055 
3 15 16 1059 
3 612 918 1050 
3 783 176 1062 
3 894 760 1062 
3 627 626 1060 
3 630 631 1061 
3 547 497 1056 
3 882 602 1053 
3 222 957 1038 
3 958 563 1041 
3 564 959 1040 
3 948 651 1049 
3 1055 783 1062 
3 760 1055 1062 
3 176 894 1062 
3 657 970 1057 
3 980 468 1047 
3 992 547 1056 
3 965 649 1043 
3 191 986 1051 
3 970 725 1057 
3 648 1000 1052 
3 698 1009 1054 
3 987 612 1050 
3 717 987 1050 
3 1017 218 1058 
3 1009 643 1054 
3 643 1014 1054 
3 1019 627 1060 
3 1022 783 1055 
3 663 1017 1058 
3 1044 698 1054 
3 158 159 127 
3 128 158 127 
3 157 158 128 
3 129 157 128 
3 156 157 129 
3 130 156 129 
3 155 156 130 
3 131 155 130 
3 154 155 131 
3 132 154 131 
3 153 154 132 
3 133 153 132 
3 152 153 133 
3 91 142 1063 
3 152 133 134 
3 151 152 134 
3 142 143 1063 
3 135 151 134 
3 151 135 150 
3 142 91 144 
3 135 136 150 
3 136 149 150 
3 136 137 149 
3 137 148 149 
3 137 138 148 
3 168 91 1063 
3 138 147 148 
3 138 139 147 
3 139 140 146 
3 139 146 147 
3 140 141 145 
3 140 145 146 
3 141 142 144 
3 141 144 145 
3 143 168 1063 
3 93 92 1064 
3 127 159 1064 
3 92 127 1064 
3 159 93 1064 
3 90 168 143 
3 158 159 94 
3 158 94 95 
3 157 158 95 
3 157 95 96 
3 156 157 96 
3 156 96 97 
3 155 156 97 
3 155 97 98 
3 154 155 98 
3 154 98 99 
3 153 154 99 
3 153 99 100 
3 145 82 1065 
3 152 153 100 
3 107 82 145 
3 152 100 101 
3 151 152 101 
3 102 151 101 
3 150 151 102 
3 103 150 102 
3 149 150 103 
3 149 103 104 
3 144 145 1065 
3 149 104 148 
3 104 105 148 
3 105 147 148 
3 105 106 147 
3 106 107 146 
3 147 106 146 
3 146 107 145 
3 82 169 1065 
3 169 144 1065 
3 93 1 1066 
3 94 159 1066 
3 1 94 1066 
3 159 93 1066 
3 169 91 144 

CELL_TYPES 1996
5
5
5
5
5
5
5
5
5
5
5
5
5
5
5
5
5
5
5
5
5
5
5
5
5
5
5
5
5
5
5
5
5
5
5
5
5
5
5
5
5
5
5
5
5
5
5
5
5
5
5
5
5
5
5
5
5
5
5
5
5
5
5
5
5
5
5
5
5
5
5
5
5
5
5
5
5
5
5
5
5
5
5
5
5
5
5
5
5
5
5
5
5
5
5
5
5
5
5
5
5
5
5
5
5
5
5
5
5
5
5
5
5
5
5
5
5
5
5
5
5
5
5
5
5
5
5
5
5
5
5
5
5
5
5
5
5
5
5
5
5
5
5
5
5
5
5
5
5
5
5
5
5
5
5
5
5
5
5
5
5
5
5
5
5
5
5
5
5
5
5
5
5
5
5
5
5
5
5
5
5
5
5
5
5
5
5
5
5
5
5
5
5
5
5
5
5
5
5
5
5
5
5
5
5
5
5
5
5
5
5
5
5
5
5
5
5
5
5
5
5
5
5
5
5
5
5
5
5
5
5
5
5
5
5
5
5
5
5
5
5
5
5
5
5
5
5
5
5
5
5
5
5
5
5
5
5
5
5
5
5
5
5
5
5
5
5
5
5
5
5
5
5
5
5
5
5
5
5
5
5
5
5
5
5
5
5
5
5
5
5
5
5
5
5
5
5
5
5
5
5
5
5
5
5
5
5
5
5
5
5
5
5
5
5
5
5
5
5
5
5
5
5
5
5
5
5
5
5
5
5
5
5
5
5
5
5
5
5
5
5
5
5
5
5
5
5
5
5
5
5
5
5
5
5
5
5
5
5
5
5
5
5
5
5
5
5
5
5
5
5
5
5
5
5
5
5
5
5
5
5
5
5
5
5
5
5
5
5
5
5
5
5
5
5
5
5
5
5
5
5
5
5
5
5
5
5
5
5
5
5
5
5
5
5
5
5
5
5
5
5
5
5
5
5
5
5
5
5
5
5
5
5
5
5
5
5
5
5
5
5
5
5
5
5
5
5
5
5
5
5
5
5
5
5
5
5
5
5
5
5
5
5
5
5
5
5
5
5
5
5
5
5
5
5
5
5
5
5
5
5
5
5
5
5
5
5
5
5
5
5
5
5
5
5
5
5
5
5
5
5
5
5
5
5
5
5
5
5
5
5
5
5
5
5
5
5
5
5
5
5
5
5
5
5
5
5
5
5
5
5
5
5
5
5
5
5
5
5
5
5
5
5
5
5
5
5
5
5
5
5
5
5
5
5
5
5
5
5
5
5
5
5
5
5
5
5
5
5
5
5
5
5
5
5
5
5
5
5
5
5
5
5
5
5
5
5
5
5
5
5
5
5
5
5
5
5
5
5
5
5
5
5
5
5
5
5
5
5
5
5
5
5
5
5
5
5
5
5
5
5
5
5
5
5
5
5
5
5
5
5
5
5
5
5
5
5
5
5
5
5
5
5
5
5
5
5
5
5
5
5
5
5
5
5
5
5
5
5
5
5
5
5
5
5
5
5
5
5
5
5
5
5
5
5
5
5
5
5
5
5
5
5
5
5
5
5
5
5
5
5
5
5
5
5
5
5
5
5
5
5
5
5
5
5
5
5
5
5
5
5
5
5
5
5
5
5
5
5
5
5
5
5
5
5
5
5
5
5
5
5
5
5
5
5
5
5
5
5
5
5
5
5
5
5
5
5
5
5
5
5
5
5
5
5
5
5
5
5
5
5
5
5
5
5
5
5
5
5
5
5
5
5
5
5
5
5
5
5
5
5
5
5
5
5
5
5
5
5
5
5
5
5
5
5
5
5
5
5
5
5
5
5
5
5
5
5
5
5
5
5
5
5
5
5
5
5
5
5
5
5
5
5
5
5
5
5
5
5
5
5
5
5
5
5
5
5
5
5
5
5
5
5
5
5
5
5
5
5
5
5
5
5
5
5
5
5
5
5
5
5
5
5
5
5
5
5
5
5
5
5
5
5
5
5
5
5
5
5
5
5
5
5
5
5
5
5
5
5
5
5
5
5
5
5
5
5
5
5
5
5
5
5
5
5
5
5
5
5
5
5
5
5
5
5
5
5
5
5
5
5
5
5
5
5
5
5
5
5
5
5
5
5
5
5
5
5
5
5
5
5
5
5
5
5
5
5
5
5
5
5
5
5
5
5
5
5
5
5
5
5
5
5
5
5
5
5
5
5
5
5
5
5
5
5
5
5
5
5
5
5
5
5
5
5
5
5
5
5
5
5
5
5
5
5
5
5
5
5
5
5
5
5
5
5
5
5
5
5
5
5
5
5
5
5
5
5
5
5
5
5
5
5
5
5
5
5
5
5
5
5
5
5
5
5
5
5
5
5
5
5
5
5
5
5
5
5
5
5
5
5
5
5
5
5
5
5
5
5
5
5
5
5
5
5
5
5
5
5
5
5
5
5
5
5
5
5
5
5
5
5
5
5
5
5
5
5
5
5
5
5
5
5
5
5
5
5
5
5
5
5
5
5
5
5
5
5
5
5
5
5
5
5
5
5
5
5
5
5
5
5
5
5
5
5
5
5
5
5
5
5
5
5
5
5
5
5
5
5
5
5
5
5
5
5
5
5
5
5
5
5
5
5
5
5
5
5
5
5
5
5
5
5
5
5
5
5
5
5
5
5
5
5
5
5
5
5
5
5
5
5
5
5
5
5
5
5
5
5
5
5
5
5
5
5
5
5
5
5
5
5
5
5
5
5
5
5
5
5
5
5
5
5
5
5
5
5
5
5
5
5
5
5
5
5
5
5
5
5
5
5
5
5
5
5
5
5
5
5
5
5
5
5
5
5
5
5
5
5
5
5
5
5
5
5
5
5
5
5
5
5
5
5
5
5
5
5
5
5
5
5
5
5
5
5
5
5
5
5
5
5
5
5
5
5
5
5
5
5
5
5
5
5
5
5
5
5
5
5
5
5
5
5
5
5
5
5
5
5
5
5
5
5
5
5
5
5
5
5
5
5
5
5
5
5
5
5
5
5
5
5
5
5
5
5
5
5
5
5
5
5
5
5
5
5
5
5
5
5
5
5
5
5
5
5
5
5
5
5
5
5
5
5
5
5
5
5
5
5
5
5
5
5
5
5
5
5
5
5
5
5
5
5
5
5
5
5
5
5
5
5
5
5
5
5
5
5
5
5
5
5
5
5
5
5
5
5
5
5
5
5
5
5
5
5
5
5
5
5
5
5
5
5
5
5
5
5
5
5
5
5
5
5
5
5
5
5
5
5
5
5
5
5
5
5
5
5
5
5
5
5
5
5
5
5
5
5
5
5
5
5
5
5
5
5
5
5
5
5
5
5
5
5
5
5
5
5
5
5
5
5
5
5
5
5
5
5
5
5
5
5
5
5
5
5
5
5
5
5
5
5
5
5
5
5
5
5
5
5
5
5
5
5
5
5
5
5
5
5
5
5
5
5
5
5
5
5
5
5
5
5
5
5
5
5
5
5
5
5
5
5
5
5
5
5
5
5
5
5
5
5
5
5
5
5
5
5
5
5
5
5
5
5
5
5
5
5
5
5
5
5
5
5
5
5
5
5
5
5
5
5
5
5
5
5
5
5
5
5
5
5
5
5
5
5
5
5
5
5
5
5
5
5
5
5
5
5
5
5
5
5
5
5
5
5
5
5
5
5
5
5
5
5
5
5
5
5
5
5
5
5
5
5
5
5
5
5
5
5
5
5
5
5
5
5
5
5
5
5
5
5
5
5
5
5
5
5
5
5
5
5
5
5
5
5
5
5
5
5
5
5
5
5
5
5
5
5
5
5
5
5
5
5
5
5
5
5
5
5
5
5
5
5
5
5
5
5
5
5
5
5
5
5
5
5
5
5
5
5
5
5
5
5
5
5
5
5
5
5
5
5
5
5
5
5
5
5
5
5
5
5
5
5
5
5
5
5
5
5
5
5
5
5
5
5
5
5
5
5
5
5
5
5
5
5
5
5
5
5
5
5
5
5
5
5
5
5
5
5
5
5
5
5
5
5
5
5
5
5
5
5
5
5
5
5
5
5
5
5
5
5
5
5
5
5
5
5
5
5
5
5
5
5
5
5
5
5
5
5
5
5
5
5
5
5
5
5
5
5
5
5
5
5
5
5
5
5
5
5
5
5
5
5
5
5
5
5
5
5
5
5
5
5
5
5
5
5
5
5
5
5
5
5
5
5
5
5
5
5
5
5
5
5
5
5
5
5
5
5
5
5
5
5
5
5
5
5
5
5
5
5
5
5
5
5
5
5
5
5
5
5
5
5
5
5
5
5
5
5
5
5
5
5
5
5
5
5
5
5
5
5
5
5
5
5
5
5
5
5
5
5
5
5
5
5
5
5
5
5
5
5
5
5
5
5
5
5
5
5
5
5
5
5
5
5
5
5
5
5
5
5
5
5
5
5
5
5
5
5
5
5
5
5
5
5
5
5
5
5
5
5
5
5
5
5
5
5
5
5
5
5
5
5
5
5
5
5
5
5
5
5
5
5
5
5
5

POINT_DATA 1067

VECTORS coord float
0.0 0.0 0.0 
5.000000000000e+01 -1.000000000000e+01 0.0 
0.0 -2.000000000000e+01 0.0 
5.000000000000e+01 -2.000000000000e+01 0.0 
0.0 -9.999999999991e-01 0.0 
0.0 -1.999999999998e+00 0.0 
0.0 -2.999999999997e+00 0.0 
0.0 -3.999999999994e+00 0.0 
0.0 -4.999999999991e+00 0.0 
0.0 -5.999999999988e+00 0.0 
0.0 -6.999999999985e+00 0.0 
0.0 -7.999999999982e+00 0.0 
0.0 -8.999999999983e+00 0.0 
0.0 -9.999999999985e+00 0.0 
0.0 -1.099999999999e+01 0.0 
0.0 -1.199999999999e+01 0.0 
0.0 -1.299999999999e+01 0.0 
0.0 -1.399999999999e+01 0.0 
0.0 -1.499999999999e+01 0.0 
0.0 -1.599999999999e+01 0.0 
0.0 -1.700000000000e+01 0.0 
0.0 -1.800000000000e+01 0.0 
0.0 -1.900000000000e+01 0.0 
4.900000000001e+01 -2.000000000000e+01 0.0 
4.800000000001e+01 -2.000000000000e+01 0.0 
4.700000000002e+01 -2.000000000000e+01 0.0 
4.600000000003e+01 -2.000000000000e+01 0.0 
4.500000000004e+01 -2.000000000000e+01 0.0 
4.400000000004e+01 -2.000000000000e+01 0.0 
4.300000000005e+01 -2.000000000000e+01 0.0 
4.200000000006e+01 -2.000000000000e+01 0.0 
4.100000000006e+01 -2.000000000000e+01 0.0 
4.000000000007e+01 -2.000000000000e+01 0.0 
3.900000000008e+01 -2.000000000000e+01 0.0 
3.800000000009e+01 -2.000000000000e+01 0.0 
3.700000000009e+01 -2.000000000000e+01 0.0 
3.600000000010e+01 -2.000000000000e+01 0.0 
3.500000000011e+01 -2.000000000000e+01 0.0 
3.400000000011e+01 -2.000000000000e+01 0.0 
3.300000000012e+01 -2.000000000000e+01 0.0 
3.200000000013e+01 -2.000000000000e+01 0.0 
3.100000000013e+01 -2.000000000000e+01 0.0 
3.000000000013e+01 -2.000000000000e+01 0.0 
2.900000000013e+01 -2.000000000000e+01 0.0 
2.800000000013e+01 -2.000000000000e+01 0.0 
2.700000000013e+01 -2.000000000000e+01 0.0 
2.600000000013e+01 -2.000000000000e+01 0.0 
2.500000000013e+01 -2.000000000000e+01 0.0 
2.400000000013e+01 -2.000000000000e+01 0.0 
2.300000000013e+01 -2.000000000000e+01 0.0 
2.200000000013e+01 -2.000000000000e+01 0.0 
2.100000000013e+01 -2.000000000000e+01 0.0 
2.000000000013e+01 -2.000000000000e+01 0.0 
1.900000000013e+01 -2.000000000000e+01 0.0 
1.800000000013e+01 -2.000000000000e+01 0.0 
1.700000000012e+01 -2.000000000000e+01 0.0 
1.600000000011e+01 -2.000000000000e+01 0.0 
1.500000000011e+01 -2.000000000000e+01 0.0 
1.400000000010e+01 -2.000000000000e+01 0.0 
1.300000000009e+01 -2.000000000000e+01 0.0 
1.200000000009e+01 -2.000000000000e+01 0.0 
1.100000000008e+01 -2.000000000000e+01 0.0 
1.000000000007e+01 -2.000000000000e+01 0.0 
9.000000000064e+00 -2.000000000000e+01 0.0 
8.000000000057e+00 -2.000000000000e+01 0.0 
7.000000000050e+00 -2.000000000000e+01 0.0 
6.000000000043e+00 -2.000000000000e+01 0.0 
5.000000000036e+00 -2.000000000000e+01 0.0 
4.000000000028e+00 -2.000000000000e+01 0.0 
3.000000000021e+00 -2.000000000000e+01 0.0 
2.000000000014e+00 -2.000000000000e+01 0.0 
1.000000000007e+00 -2.000000000000e+01 0.0 
5.000000000000e+01 -1.100000000000e+01 0.0 
5.000000000000e+01 -1.200000000000e+01 0.0 
5.000000000000e+01 -1.300000000000e+01 0.0 
5.000000000000e+01 -1.400000000000e+01 0.0 
5.000000000000e+01 -1.500000000000e+01 0.0 
5.000000000000e+01 -1.600000000000e+01 0.0 
5.000000000000e+01 -1.700000000000e+01 0.0 
5.000000000000e+01 -1.800000000000e+01 0.0 
5.000000000000e+01 -1.900000000000e+01 0.0 
2.000000000000e+01 0.0 0.0 
3.500000000000e+01 -1.000000000000e+01 0.0 
2.150000000000e+01 -1.000000000000e+00 0.0 
2.300000000000e+01 -2.000000000000e+00 0.0 
2.450000000000e+01 -3.000000000000e+00 0.0 
2.600000000000e+01 -4.000000000000e+00 0.0 
2.750000000000e+01 -5.000000000000e+00 0.0 
2.900000000000e+01 -6.000000000000e+00 0.0 
3.050000000000e+01 -7.000000000000e+00 0.0 
3.200000000000e+01 -8.000000000000e+00 0.0 
3.350000000000e+01 -9.000000000000e+00 0.0 
5.000000000000e+01 -8.000000000000e+00 0.0 
5.000000000000e+01 -9.000000000000e+00 0.0 
4.900000000000e+01 -1.000000000000e+01 0.0 
4.800000000000e+01 -1.000000000000e+01 0.0 
4.700000000000e+01 -1.000000000000e+01 0.0 
4.600000000000e+01 -1.000000000000e+01 0.0 
4.500000000000e+01 -1.000000000000e+01 0.0 
4.400000000000e+01 -1.000000000000e+01 0.0 
4.300000000000e+01 -1.000000000000e+01 0.0 
4.200000000000e+01 -1.000000000000e+01 0.0 
4.100000000000e+01 -1.000000000000e+01 0.0 
4.000000000000e+01 -1.000000000000e+01 0.0 
3.900000000000e+01 -1.000000000000e+01 0.0 
3.800000000000e+01 -1.000000000000e+01 0.0 
3.700000000000e+01 -1.000000000000e+01 0.0 
3.600000000000e+01 -1.000000000000e+01 0.0 
1.900000000000e+01 0.0 0.0 
1.800000000000e+01 0.0 0.0 
1.700000000000e+01 0.0 0.0 
1.600000000000e+01 0.0 0.0 
1.500000000000e+01 0.0 0.0 
1.400000000000e+01 0.0 0.0 
1.300000000000e+01 0.0 0.0 
1.200000000000e+01 0.0 0.0 
1.100000000000e+01 0.0 0.0 
1.000000000000e+01 0.0 0.0 
9.000000000000e+00 0.0 0.0 
8.000000000000e+00 0.0 0.0 
7.000000000000e+00 0.0 0.0 
6.000000000000e+00 0.0 0.0 
5.000000000000e+00 0.0 0.0 
4.000000000000e+00 0.0 0.0 
3.000000000000e+00 0.0 0.0 
2.000000000000e+00 0.0 0.0 
1.000000000000e+00 0.0 0.0 
4.900000000000e+01 -8.000000000000e+00 0.0 
4.800000000000e+01 -8.000000000000e+00 0.0 
4.700000000000e+01 -8.000000000000e+00 0.0 
4.600000000000e+01 -8.000000000000e+00 0.0 
4.500000000000e+01 -8.000000000000e+00 0.0 
4.400000000000e+01 -8.000000000000e+00 0.0 
4.300000000000e+01 -8.000000000000e+00 0.0 
4.200000000000e+01 -8.000000000000e+00 0.0 
4.100000000000e+01 -8.000000000000e+00 0.0 
4.000000000000e+01 -8.000000000000e+00 0.0 
3.900000000000e+01 -8.000000000000e+00 0.0 
3.800000000000e+01 -8.000000000000e+00 0.0 
3.700000000000e+01 -8.000000000000e+00 0.0 
3.600000000000e+01 -8.000000000000e+00 0.0 
3.500000000000e+01 -8.000000000000e+00 0.0 
3.400000000000e+01 -8.000000000000e+00 0.0 
3.300000000000e+01 -8.000000000000e+00 0.0 
3.447058823527e+01 -9.000000000000e+00 0.0 
3.544117647055e+01 -9.000000000000e+00 0.0 
3.641176470582e+01 -9.000000000000e+00 0.0 
3.738235294109e+01 -9.000000000000e+00 0.0 
3.835294117637e+01 -9.000000000000e+00 0.0 
3.932352941164e+01 -9.000000000000e+00 0.0 
4.029411764691e+01 -9.000000000000e+00 0.0 
4.126470588219e+01 -9.000000000000e+00 0.0 
4.223529411748e+01 -9.000000000000e+00 0.0 
4.320588235279e+01 -9.000000000000e+00 0.0 
4.417647058811e+01 -9.000000000000e+00 0.0 
4.514705882342e+01 -9.000000000000e+00 0.0 
4.611764705874e+01 -9.000000000000e+00 0.0 
4.708823529405e+01 -9.000000000000e+00 0.0 
4.805882352937e+01 -9.000000000000e+00 0.0 
4.902941176468e+01 -9.000000000000e+00 0.0 
2.075000000000e+01 -5.000000000006e-01 0.0 
2.225000000000e+01 -1.500000000000e+00 0.0 
2.375000000000e+01 -2.500000000000e+00 0.0 
2.525000000000e+01 -3.500000000000e+00 0.0 
2.675000000000e+01 -4.500000000000e+00 0.0 
2.825000000000e+01 -5.500000000000e+00 0.0 
2.975000000000e+01 -6.500000000000e+00 0.0 
3.125000000000e+01 -7.500000000000e+00 0.0 
3.275000000000e+01 -8.500000000000e+00 0.0 
3.425000000000e+01 -9.500000000000e+00 0.0 
2.226951693683e+01 -2.403913980114e+00 0.0 
1.650149491944e+01 -1.913490915758e+01 0.0 
1.050042386896e+01 -8.504605092970e-01 0.0 
1.553146524712e+01 -8.281255032105e-01 0.0 
1.150000000008e+01 -1.913397459621e+01 0.0 
2.530060260647e+01 -4.428336431260e+00 0.0 
8.651114563942e-01 -1.052096295641e+01 0.0 
2.050000000013e+01 -1.913397459622e+01 0.0 
2.819198729811e+01 -6.399519052838e+00 0.0 
2.445670302931e+01 -1.915649188023e+01 0.0 
3.117591465718e+01 -8.394293040695e+00 0.0 
7.465053044742e+00 -1.920411160581e+01 0.0 
6.398295709691e+00 -8.230098819370e-01 0.0 
2.849659607461e+01 -1.914296187762e+01 0.0 
3.418732642882e+01 -1.040265792588e+01 0.0 
8.386450935063e-01 -6.533605142809e+00 0.0 
9.178661865596e-01 -1.329769195597e+01 0.0 
3.149448624493e+01 -1.910466733764e+01 0.0 
3.552916747426e+01 -1.914628590759e+01 0.0 
4.449210346537e+01 -1.914359085008e+01 0.0 
4.140975975145e+01 -1.906941860733e+01 0.0 
3.847475958753e+01 -1.916622382724e+01 0.0 
3.653774794640e+01 -1.088712800241e+01 0.0 
4.047886341787e+01 -1.090139014048e+01 0.0 
4.348006339825e+01 -1.092792621489e+01 0.0 
4.919519968029e+01 -1.451526755068e+01 0.0 
4.500000000032e+00 -1.913397459621e+01 0.0 
1.856136921614e+01 -8.212235170404e-01 0.0 
3.499895312306e+00 -8.661165539723e-01 0.0 
9.076088696565e-01 -1.642306201891e+01 0.0 
4.655174095477e+01 -1.086183387525e+01 0.0 
9.430688970604e-01 -3.496112672958e+00 0.0 
3.353992337063e+01 -1.901202090820e+01 0.0 
2.249746016977e+01 -1.921262287282e+01 0.0 
2.650122741777e+01 -1.916123026018e+01 0.0 
1.863571384842e+01 -1.908325534840e+01 0.0 
1.450089971693e+01 -1.917691901860e+01 0.0 
1.350044695317e+01 -8.659695299584e-01 0.0 
3.849987469880e+01 -1.084154983397e+01 0.0 
9.454419857884e+00 -1.900818879936e+01 0.0 
4.917398660523e+01 -1.645692866081e+01 0.0 
8.500000000000e+00 -8.660254037844e-01 0.0 
8.660319230785e-01 -8.500111697188e+00 0.0 
4.649022621545e+01 -1.930506220113e+01 0.0 
2.667688107845e+01 -5.420288124331e+00 0.0 
2.379251615665e+01 -3.412225477429e+00 0.0 
2.966631491830e+01 -7.389030232731e+00 0.0 
3.267915035995e+01 -9.396934932445e+00 0.0 
2.074836922338e+01 -1.320054020319e+00 0.0 
4.915985743621e+01 -1.261973384855e+01 0.0 
2.527129768623e+00 -1.931592414663e+01 0.0 
1.538676247410e+00 -8.436956619311e-01 0.0 
4.908096641539e+01 -1.842484004551e+01 0.0 
3.478612492673e+01 -1.090889364140e+01 0.0 
3.409757055860e+01 -1.131991530427e+01 0.0 
3.501895309466e+01 -1.177687842717e+01 0.0 
3.407758073088e+01 -1.224293381580e+01 0.0 
3.484541875390e+01 -1.277051428430e+01 0.0 
3.400322025842e+01 -1.319022775640e+01 0.0 
3.321672625034e+01 -1.266779191233e+01 0.0 
3.315244139236e+01 -1.360984106532e+01 0.0 
3.236335186892e+01 -1.308463225210e+01 0.0 
3.478337442841e+01 -1.372341158982e+01 0.0 
3.230105923633e+01 -1.403023731610e+01 0.0 
3.150954055289e+01 -1.350301767700e+01 0.0 
3.144604792090e+01 -1.444931742516e+01 0.0 
3.065653897123e+01 -1.392357262981e+01 0.0 
3.071897610812e+01 -1.297447031198e+01 0.0 
2.986790411740e+01 -1.339226181535e+01 0.0 
2.993181466745e+01 -1.244703272398e+01 0.0 
2.908023061869e+01 -1.286254537734e+01 0.0 
2.901619051372e+01 -1.380881655279e+01 0.0 
2.822986160390e+01 -1.327695262116e+01 0.0 
2.829453476870e+01 -1.233265343811e+01 0.0 
2.744542905518e+01 -1.274510491105e+01 0.0 
2.751120089246e+01 -1.180368086886e+01 0.0 
2.666218649885e+01 -1.221619339205e+01 0.0 
2.672371209234e+01 -1.127125228527e+01 0.0 
2.587763216302e+01 -1.168539979114e+01 0.0 
2.581165585299e+01 -1.262994410089e+01 0.0 
2.502890882577e+01 -1.209827323619e+01 0.0 
2.509631327757e+01 -1.115492410304e+01 0.0 
2.424662989877e+01 -1.156630981079e+01 0.0 
2.431704046904e+01 -1.062389179334e+01 0.0 
2.346445438728e+01 -1.103427680694e+01 0.0 
2.339382552877e+01 -1.197964871788e+01 0.0 
2.260936050780e+01 -1.144513277642e+01 0.0 
2.268075012022e+01 -1.049911928216e+01 0.0 
2.182525737661e+01 -1.090920811464e+01 0.0 
2.189682319817e+01 -9.961716944568e+00 0.0 
2.104174127792e+01 -1.037266986667e+01 0.0 
2.111304367575e+01 -9.424179358711e+00 0.0 
2.025306185381e+01 -9.832727364719e+00 0.0 
2.018141124247e+01 -1.079140628871e+01 0.0 
1.938594498257e+01 -1.025147354112e+01 0.0 
1.946106490453e+01 -9.288010758448e+00 0.0 
1.858929958352e+01 -9.706319802516e+00 0.0 
1.851540991219e+01 -1.067205988724e+01 0.0 
1.771485303178e+01 -1.012504443115e+01 0.0 
1.764134552256e+01 -1.109360378538e+01 0.0 
1.683745148095e+01 -1.054496365337e+01 0.0 
1.691852964353e+01 -9.582555261178e+00 0.0 
1.603603813062e+01 -1.000160132379e+01 0.0 
1.595824239350e+01 -1.096750698862e+01 0.0 
1.515080624291e+01 -1.041639501931e+01 0.0 
1.523171602559e+01 -9.451711491453e+00 0.0 
1.434621060709e+01 -9.871956467464e+00 0.0 
1.426777178765e+01 -1.083749501371e+01 0.0 
1.345775282374e+01 -1.028803175500e+01 0.0 
1.354103873368e+01 -9.324918457162e+00 0.0 
1.265072018622e+01 -9.742612837270e+00 0.0 
1.257285762070e+01 -1.071557782384e+01 0.0 
1.175874815690e+01 -1.015972324288e+01 0.0 
1.184203019714e+01 -9.193604071377e+00 0.0 
1.094927709905e+01 -9.612103238656e+00 0.0 
1.086938022910e+01 -1.058685085646e+01 0.0 
1.005424098961e+01 -1.002939116380e+01 0.0 
9.977974613295e+00 -1.101324897989e+01 0.0 
1.012915646404e+01 -9.051815821181e+00 0.0 
9.237127782494e+00 -9.471239055559e+00 0.0 
9.308426593771e+00 -8.483376461131e+00 0.0 
8.418806073345e+00 -8.910712374517e+00 0.0 
2.253688464062e+01 -1.239459402279e+01 0.0 
8.495126726666e+00 -7.921646665254e+00 0.0 
9.389727383206e+00 -7.512103628377e+00 0.0 
7.601560812974e+00 -8.349460349344e+00 0.0 
7.525680547759e+00 -9.339736686940e+00 0.0 
7.677888324502e+00 -7.359727833346e+00 0.0 
6.782001206724e+00 -7.788454494773e+00 0.0 
6.858778622885e+00 -6.797338062822e+00 0.0 
2.196596590865e+01 -8.979025665442e+00 0.0 
2.816540108272e+01 -1.422634142353e+01 0.0 
5.961601194403e+00 -7.226824010712e+00 0.0 
6.038171749656e+00 -6.234825887079e+00 0.0 
6.936257279557e+00 -5.805287640737e+00 0.0 
6.115068918323e+00 -5.242109758768e+00 0.0 
3.564391741903e+01 -1.329240553876e+01 0.0 
3.558115605778e+01 -1.425902892003e+01 0.0 
3.645445282201e+01 -1.381970786460e+01 0.0 
3.639744204358e+01 -1.479198128612e+01 0.0 
3.727266909778e+01 -1.435399586226e+01 0.0 
5.216667013081e+00 -5.671788584287e+00 0.0 
3.220697293295e+01 -1.499594545107e+01 0.0 
3.551112158269e+01 -1.523479869250e+01 0.0 
2.836056961467e+01 -1.139032434851e+01 0.0 
2.516730388602e+01 -1.021382726837e+01 0.0 
1.844436907403e+01 -1.164097215196e+01 0.0 
5.885434318740e+00 -8.218694781467e+00 0.0 
5.064071066867e+00 -7.656614643901e+00 0.0 
4.988089103470e+00 -8.649722082718e+00 0.0 
1.079421050408e+01 -1.157014985435e+01 0.0 
9.902420005256e+00 -1.199903342656e+01 0.0 
1.071994252214e+01 -1.255727909771e+01 0.0 
9.826974788171e+00 -1.298659581767e+01 0.0 
1.064607883789e+01 -1.354595476388e+01 0.0 
9.751541265343e+00 -1.397556905071e+01 0.0 
8.932296185869e+00 -1.341553353988e+01 0.0 
8.856399248106e+00 -1.440570715508e+01 0.0 
8.036186803543e+00 -1.384470558472e+01 0.0 
1.057112875118e+01 -1.453516759081e+01 0.0 
1.146582585687e+01 -1.410539926903e+01 0.0 
7.959894480382e+00 -1.483563350928e+01 0.0 
7.138792279156e+00 -1.427465094140e+01 0.0 
7.062506792418e+00 -1.526615385482e+01 0.0 
6.240693558277e+00 -1.470508863040e+01 0.0 
6.316957575451e+00 -1.371212581281e+01 0.0 
5.418183007107e+00 -1.414253605022e+01 0.0 
5.494748364428e+00 -1.314886770603e+01 0.0 
1.756825565873e+01 -1.206433872514e+01 0.0 
1.837565773345e+01 -1.261356468266e+01 0.0 
1.749574831391e+01 -1.303769280014e+01 0.0 
1.830539187332e+01 -1.358828364284e+01 0.0 
1.742278925170e+01 -1.401367746928e+01 0.0 
1.823303007798e+01 -1.456432294258e+01 0.0 
1.734941694138e+01 -1.499213734361e+01 0.0 
1.653760041637e+01 -1.443920312098e+01 0.0 
3.056237977307e+01 -1.487132260174e+01 0.0 
1.866469084762e+01 -8.742953000418e+00 0.0 
1.953669694916e+01 -8.326038909849e+00 0.0 
1.874194303780e+01 -7.780688158966e+00 0.0 
1.961032016741e+01 -7.366854697285e+00 0.0 
1.881715755159e+01 -6.821102209649e+00 0.0 
1.968369797150e+01 -6.407747217358e+00 0.0 
1.889237123259e+01 -5.858375520026e+00 0.0 
1.802038875366e+01 -6.276202618170e+00 0.0 
1.809793837984e+01 -5.307629520489e+00 0.0 
1.721985207997e+01 -5.728242054488e+00 0.0 
1.729850893523e+01 -4.756990819347e+00 0.0 
1.641745664240e+01 -5.174636548624e+00 0.0 
2.495978509456e+01 -1.304406404294e+01 0.0 
1.911567814831e+01 -1.413854250293e+01 0.0 
1.904387332608e+01 -1.511463127723e+01 0.0 
1.992115934240e+01 -1.468788025898e+01 0.0 
7.013706899628e+00 -4.812582868662e+00 0.0 
5.342091874585e+00 -1.513658157269e+01 0.0 
1.139098043784e+01 -1.509488509480e+01 0.0 
1.228151810610e+01 -1.465617481983e+01 0.0 
1.646373110164e+01 -1.541993323337e+01 0.0 
5.293328636712e+00 -4.678385108584e+00 0.0 
1.975965862987e+01 -5.448124345648e+00 0.0 
2.054318374236e+01 -5.992561293251e+00 0.0 
3.721453439063e+01 -1.533216152738e+01 0.0 
3.809302733893e+01 -1.489235527381e+01 0.0 
1.220852788900e+01 -1.565304565230e+01 0.0 
4.394120899730e+00 -5.108397613210e+00 0.0 
8.779354620288e+00 -1.539524721159e+01 0.0 
1.817791047702e+01 -4.338570146253e+00 0.0 
4.518860013839e+00 -1.457343189307e+01 0.0 
4.442712140414e+00 -1.556841391069e+01 0.0 
8.115343466391e+00 -1.285760324283e+01 0.0 
1.985334703171e+01 -1.566478400426e+01 0.0 
2.071953850276e+01 -1.522074243119e+01 0.0 
1.634012953883e+01 -6.154777738301e+00 0.0 
1.553479994708e+01 -5.593730508879e+00 0.0 
1.561265946942e+01 -4.617761762647e+00 0.0 
1.470674212978e+01 -5.064576488228e+00 0.0 
1.464498299883e+01 -6.026514471420e+00 0.0 
1.383271561817e+01 -5.467796261169e+00 0.0 
1.389241253067e+01 -4.504338666645e+00 0.0 
1.301868735463e+01 -4.907185188626e+00 0.0 
1.294514184846e+01 -5.888160903592e+00 0.0 
1.212955968622e+01 -5.328262335277e+00 0.0 
1.220721122383e+01 -4.341264976687e+00 0.0 
1.131324345897e+01 -4.766773516508e+00 0.0 
5.266597955397e+00 -1.613148974258e+01 0.0 
1.737805990867e+01 -3.786677807525e+00 0.0 
3.078438094513e+01 -1.203225297748e+01 0.0 
1.131569882285e+01 -1.608511932110e+01 0.0 
1.728478341782e+01 -1.596017432313e+01 0.0 
3.803465906019e+01 -1.587509751228e+01 0.0 
3.891681276677e+01 -1.543395196905e+01 0.0 
3.897340985302e+01 -1.444710288980e+01 0.0 
3.980095968193e+01 -1.499059496613e+01 0.0 
3.974334598189e+01 -1.597921884150e+01 0.0 
4.062964983717e+01 -1.553518690417e+01 0.0 
4.068729602479e+01 -1.454434445295e+01 0.0 
4.151772679790e+01 -1.508974196007e+01 0.0 
4.157505195739e+01 -1.409694289912e+01 0.0 
4.240699932656e+01 -1.464347955968e+01 0.0 
4.234898051011e+01 -1.563721375790e+01 0.0 
4.323934606035e+01 -1.519082036405e+01 0.0 
4.329740528208e+01 -1.419587509788e+01 0.0 
4.413056841369e+01 -1.474359631875e+01 0.0 
4.418850110108e+01 -1.374786684042e+01 0.0 
4.502219770667e+01 -1.429605103525e+01 0.0 
4.496411937907e+01 -1.529215882720e+01 0.0 
4.490027319897e+00 -4.154167794594e+00 0.0 
1.565080385988e+01 -1.486411982419e+01 0.0 
1.557610691279e+01 -1.584855627870e+01 0.0 
4.195350646612e+00 -8.089117689096e+00 0.0 
4.124027797830e+00 -9.082831955007e+00 0.0 
4.917944318925e+00 -9.643530901533e+00 0.0 
4.020105689502e+00 -1.007439673661e+01 0.0 
4.587185899277e+01 -1.484039992728e+01 0.0 
4.580078661551e+01 -1.584043391042e+01 0.0 
2.061956522375e+01 -5.046701343981e+00 0.0 
2.139572955529e+01 -5.579553449826e+00 0.0 
3.715344357292e+01 -1.631485124583e+01 0.0 
3.618886196443e+00 -1.500471207167e+01 0.0 
3.695606940204e+00 -1.400939692294e+01 0.0 
2.438890661143e+01 -9.686110599723e+00 0.0 
2.523267572778e+01 -9.276766000622e+00 0.0 
2.446094171539e+01 -8.751904591412e+00 0.0 
2.529089822738e+01 -8.321495612547e+00 0.0 
2.606882688827e+01 -8.864724051119e+00 0.0 
2.452116646430e+01 -7.792756462004e+00 0.0 
1.235543269617e+01 -1.365845617339e+01 0.0 
4.318116874181e+01 -1.618567469992e+01 0.0 
7.835066111909e+00 -5.376366223896e+00 0.0 
7.905687335704e+00 -4.382539065697e+00 0.0 
3.542640009567e+00 -1.600035116542e+01 0.0 
1.572431503071e+01 -1.388358386695e+01 0.0 
2.574684696680e+01 -1.357896141127e+01 0.0 
2.488842657651e+01 -1.399674354505e+01 0.0 
2.568301775611e+01 -1.453552048595e+01 0.0 
2.481535572009e+01 -1.495542756508e+01 0.0 
2.561729699688e+01 -1.549784648532e+01 0.0 
2.474623061296e+01 -1.592058894178e+01 0.0 
2.394234041695e+01 -1.537572575827e+01 0.0 
2.065825452567e+01 -1.621899055217e+01 0.0 
2.387180528935e+01 -1.634552264687e+01 0.0 
4.585364400844e+01 -1.383912334080e+01 0.0 
1.998744432052e+01 -1.370317155541e+01 0.0 
1.205356951443e+01 -6.313580285498e+00 0.0 
5.396543905849e+00 -3.731818611283e+00 0.0 
1.139652573295e+01 -3.745819399350e+00 0.0 
3.574124306703e+00 -4.551456826011e+00 0.0 
3.494140761930e+00 -5.539787055649e+00 0.0 
1.213651452413e+01 -1.664505033022e+01 0.0 
2.555045568519e+01 -1.646529356744e+01 0.0 
2.641671114986e+01 -1.603899382371e+01 0.0 
2.612920721894e+01 -7.906435260873e+00 0.0 
2.690339829698e+01 -8.456969591431e+00 0.0 
1.978024383368e+01 -1.664410216353e+01 0.0 
3.732829979082e+01 -1.336926601859e+01 0.0 
4.074336584605e+01 -1.355133328401e+01 0.0 
4.163204691081e+01 -1.310280943992e+01 0.0 
3.773826114429e+00 -3.493444309145e+00 0.0 
1.228783001032e+01 -3.374822835872e+00 0.0 
4.057110462520e+01 -1.652588478000e+01 0.0 
2.132535497898e+01 -6.523623360525e+00 0.0 
2.216932532211e+01 -6.110044769206e+00 0.0 
1.825781152128e+01 -3.370146817147e+00 0.0 
1.745679445888e+01 -2.812942552063e+00 0.0 
4.666517057280e+01 -1.539981381543e+01 0.0 
4.660575894464e+01 -1.639014410186e+01 0.0 
4.838230979954e+00 -1.063643436446e+01 0.0 
3.938942630206e+00 -1.106778981745e+01 0.0 
1.302967218620e+01 -1.621373452436e+01 0.0 
1.049548003190e+01 -4.204825123240e+00 0.0 
4.573571907195e+01 -1.683820511148e+01 0.0 
1.483686335807e+01 -1.430849689310e+01 0.0 
1.490982658890e+01 -1.332679386284e+01 0.0 
3.190805600162e+00 -9.510968358545e+00 0.0 
2.146625721848e+01 -4.642437303115e+00 0.0 
2.069866208266e+01 -4.111852942193e+00 0.0 
1.286859345584e+01 -6.873252723348e+00 0.0 
1.041794493184e+01 -5.194814260291e+00 0.0 
2.671081808965e+00 -4.976806516331e+00 0.0 
1.295786792925e+01 -1.720506531799e+01 0.0 
3.968438206511e+01 -1.696869067241e+01 0.0 
2.308550456051e+01 -1.579963151273e+01 0.0 
2.315593682844e+01 -1.482967445235e+01 0.0 
2.299471449450e+01 -1.677069968132e+01 0.0 
1.057344714696e+01 -3.214252277840e+00 0.0 
1.124057603753e+01 -1.707713739755e+01 0.0 
2.718402535754e+00 -1.543629882103e+01 0.0 
2.638549692805e+01 -1.696744916809e+01 0.0 
2.723416349007e+01 -1.658104204545e+01 0.0 
2.210193351704e+01 -7.046769643417e+00 0.0 
2.295180925161e+01 -6.657397605239e+00 0.0 
2.301355235833e+01 -5.709111896800e+00 0.0 
2.379052718281e+01 -6.254965406962e+00 0.0 
3.243528601237e+01 -1.214181853533e+01 0.0 
2.287977995457e+01 -7.583722368300e+00 0.0 
2.999876029544e+01 -1.150837653096e+01 0.0 
3.084435366963e+01 -1.109693775882e+01 0.0 
3.006650579669e+01 -1.057778994262e+01 0.0 
2.683802665066e+01 -9.386863216633e+00 0.0 
2.768641973621e+01 -8.988883915666e+00 0.0 
2.040296980397e+01 -7.903629133404e+00 0.0 
1.925235024054e+01 -1.218872783130e+01 0.0 
5.735667000424e+00 -1.020577277283e+01 0.0 
6.396559909872e+00 -1.272326295703e+01 0.0 
1.161199420714e+01 -1.212812778229e+01 0.0 
4.229046132615e+01 -1.663084237572e+01 0.0 
4.312275399692e+01 -1.718087491556e+01 0.0 
4.335502068163e+01 -1.320039231514e+01 0.0 
4.424630298089e+01 -1.275160688731e+01 0.0 
7.090116643816e+00 -3.818998061530e+00 0.0 
7.989472176569e+00 -3.389238711200e+00 0.0 
9.085824861778e+00 -1.144036167408e+01 0.0 
1.041972423731e+01 -1.651614080893e+01 0.0 
3.797525112640e+01 -1.686052038746e+01 0.0 
3.709114253394e+01 -1.730125999865e+01 0.0 
3.626966748340e+01 -1.675477052919e+01 0.0 
1.385164591440e+01 -1.677597757552e+01 0.0 
1.787152588784e+01 -8.198993896093e+00 0.0 
1.668849729812e+01 -1.248560611628e+01 0.0 
1.659546177905e+01 -3.232482605530e+00 0.0 
2.332214717345e+01 -1.292598167641e+01 0.0 
7.168238450786e+00 -2.824711686516e+00 0.0 
2.894878403906e+01 -1.475427524446e+01 0.0 
2.646763248247e+00 -1.643270107952e+01 0.0 
3.467431944285e+00 -1.699648837348e+01 0.0 
2.059475877282e+01 -1.719473628526e+01 0.0 
3.333868355437e+01 -1.080596971682e+01 0.0 
2.246451062637e+01 -1.334557761546e+01 0.0 
2.167821896388e+01 -1.280847834858e+01 0.0 
3.089653185767e+01 -1.017198487212e+01 0.0 
3.012604365669e+01 -9.657298805968e+00 0.0 
2.929627299435e+01 -1.006100135274e+01 0.0 
2.936201435219e+01 -9.136748899251e+00 0.0 
1.198219052702e+01 -7.291887238230e+00 0.0 
1.116702076035e+01 -6.731976101053e+00 0.0 
2.551388807505e+01 -1.746927036981e+01 0.0 
2.378639090370e+01 -1.728678807149e+01 0.0 
2.718543627188e+01 -1.748668016909e+01 0.0 
2.804681050301e+01 -1.712626668293e+01 0.0 
1.970737034667e+01 -1.762317646822e+01 0.0 
1.889535776135e+01 -1.707158098231e+01 0.0 
2.593777711283e+00 -5.971157087874e+00 0.0 
2.773468281110e+01 -8.067164273938e+00 0.0 
4.051205884347e+01 -1.751819982458e+01 0.0 
3.166903145421e+01 -1.068032992414e+01 0.0 
1.033042452886e+01 -1.748285844336e+01 0.0 
9.519274604626e+00 -1.694349240233e+01 0.0 
1.668308673328e+01 -2.255861778986e+00 0.0 
1.570531902832e+01 -2.676795860126e+00 0.0 
4.655826903379e+01 -1.736656245706e+01 0.0 
2.384148070773e+01 -5.328744256413e+00 0.0 
2.460255123641e+01 -5.852182672816e+00 0.0 
2.306638135119e+01 -4.798935440613e+00 0.0 
8.467720450578e-01 -1.849576263072e+01 0.0 
4.849657322345e+01 -1.084860705506e+01 0.0 
2.565860899507e+00 -1.742859793981e+01 0.0 
2.764418872564e+01 -9.927142821799e+00 0.0 
4.565165880064e+01 -1.785336695404e+01 0.0 
2.162231831329e+01 -1.376528337468e+01 0.0 
2.360646352969e+01 -9.136041963102e+00 0.0 
1.392738739903e+01 -1.578285505772e+01 0.0 
4.756405947478e+01 -1.683706841809e+01 0.0 
4.740895034054e+01 -1.793766756892e+01 0.0 
4.080779328826e+01 -1.257387192544e+01 0.0 
4.168907939671e+01 -1.210739129181e+01 0.0 
3.991197722154e+01 -1.300815793917e+01 0.0 
1.905536506762e+01 -3.940076697685e+00 0.0 
1.923879596617e+01 -2.875000734166e+00 0.0 
4.401386745746e+01 -1.673483229438e+01 0.0 
4.247233362525e+00 -7.094581653070e+00 0.0 
3.286051630211e+00 -7.635300020553e+00 0.0 
9.609533347623e+00 -4.594311677967e+00 0.0 
9.523554636369e+00 -5.595597029530e+00 0.0 
5.660336628893e+00 -1.119290329628e+01 0.0 
6.558070063295e+00 -1.076385809362e+01 0.0 
2.809866407414e+01 -1.518037766799e+01 0.0 
2.888868674504e+01 -1.570360690070e+01 0.0 
2.654431550819e+01 -1.411217777162e+01 0.0 
1.402158265969e+01 -1.375404617952e+01 0.0 
1.409592494026e+01 -1.277071998942e+01 0.0 
1.499355196178e+01 -1.235270737023e+01 0.0 
4.221535326155e+01 -1.759335617494e+01 0.0 
4.305583287033e+01 -1.822663146802e+01 0.0 
1.280748808359e+01 -7.834332838285e+00 0.0 
1.368988389326e+01 -7.420529606172e+00 0.0 
1.110091796060e+01 -7.683966794328e+00 0.0 
3.963446145980e+01 -1.794331310122e+01 0.0 
3.423932362213e+00 -1.796415590455e+01 0.0 
4.280814572302e+00 -1.752272834860e+01 0.0 
8.050136380041e+00 -2.421582378631e+00 0.0 
8.888674091650e+00 -2.984264211327e+00 0.0 
2.152839430898e+01 -3.732609965436e+00 0.0 
2.077799585292e+01 -3.183896021866e+00 0.0 
3.618719395821e+01 -1.770276572576e+01 0.0 
3.538165138340e+01 -1.718709995539e+01 0.0 
3.702925326420e+01 -1.828844288807e+01 0.0 
1.756739438711e+00 -5.353284859169e+00 0.0 
2.233710191104e+01 -1.527265621324e+01 0.0 
1.389483555057e+01 -1.771797164730e+01 0.0 
1.475634224300e+01 -1.728357428390e+01 0.0 
1.298797563052e+01 -1.825968924755e+01 0.0 
2.145331271866e+01 -1.673705379077e+01 0.0 
2.133282821169e+01 -1.769400773673e+01 0.0 
2.292139194136e+01 -1.774915400288e+01 0.0 
1.750750053243e+01 -1.861475593469e+00 0.0 
4.830478841772e+01 -1.752611802221e+01 0.0 
4.341203507805e+01 -1.220326745522e+01 0.0 
1.685254151866e+01 -1.443085301632e+00 0.0 
4.431538535165e+01 -1.171841387375e+01 0.0 
4.511308610496e+01 -1.229557320599e+01 0.0 
4.510133242889e+01 -1.123680627466e+01 0.0 
1.846818030617e+00 -4.410877617069e+00 0.0 
3.995468694584e+01 -1.186571542989e+01 0.0 
3.901387459804e+01 -1.242507616755e+01 0.0 
8.966735877533e+00 -1.837818700423e+00 0.0 
4.049310011091e+01 -1.848269508791e+01 0.0 
7.278862053803e+00 -1.918523922691e+00 0.0 
6.429715522129e+00 -2.316676521184e+00 0.0 
9.443505505022e+00 -1.792198868094e+01 0.0 
8.620386951051e+00 -1.737590365556e+01 0.0 
8.571868171503e+00 -1.834436667826e+01 0.0 
7.758629848526e+00 -1.775677907213e+01 0.0 
7.806648388584e+00 -1.680761266021e+01 0.0 
6.908555145436e+00 -1.723746463044e+01 0.0 
4.251709122090e+01 -1.156937480156e+01 0.0 
6.931136405615e+00 -1.832465719263e+01 0.0 
6.015545461353e+00 -1.768865355295e+01 0.0 
5.960535926343e+00 -1.872011001764e+01 0.0 
3.023253444786e+01 -8.761960642196e+00 0.0 
2.454622702599e+01 -6.749421992767e+00 0.0 
2.537499741604e+01 -6.347634963783e+00 0.0 
2.544077378460e+01 -5.431358513649e+00 0.0 
2.801367161747e+01 -1.820907270221e+01 0.0 
2.884507806914e+01 -1.762032095326e+01 0.0 
1.821474531936e+00 -1.588901260460e+01 0.0 
1.821006262604e+00 -1.489370287756e+01 0.0 
4.599962488908e+01 -1.176478780598e+01 0.0 
4.705457470007e+01 -1.172182804229e+01 0.0 
4.667668314802e+01 -1.263464558483e+01 0.0 
4.759648056504e+01 -1.252380987933e+01 0.0 
4.728041618103e+01 -1.341928568376e+01 0.0 
4.825209352360e+01 -1.330491640804e+01 0.0 
4.778118233428e+01 -1.420151961695e+01 0.0 
2.388192727579e+01 -1.826934810142e+01 0.0 
2.381714684947e+01 -4.385917965223e+00 0.0 
3.172733219247e+01 -9.758744265248e+00 0.0 
1.882012070658e+01 -1.805540597212e+01 0.0 
1.805667505243e+01 -1.742221226236e+01 0.0 
2.852599958080e+01 -8.597196079481e+00 0.0 
2.856486123437e+01 -7.661382718527e+00 0.0 
1.111792842875e+01 -1.818223852980e+01 0.0 
2.203322722466e+01 -7.986646678802e+00 0.0 
3.955703676900e+01 -1.903246763601e+01 0.0 
1.944842206513e+01 -8.038750575182e-01 0.0 
1.909882767783e+01 -1.746322740933e+00 0.0 
2.281147422941e+01 -8.525912918334e+00 0.0 
2.850633001468e+01 -9.533271335986e+00 0.0 
2.532883344309e+01 -7.308951659710e+00 0.0 
2.620475466461e+01 -6.979208585400e+00 0.0 
1.396278270396e+01 -1.475095389807e+01 0.0 
9.791001166724e+00 -2.554159793552e+00 0.0 
2.229293380421e+01 -4.269762271052e+00 0.0 
4.677238984118e+01 -1.430071795514e+01 0.0 
2.228658385918e+01 -3.344747535984e+00 0.0 
8.940223674553e-01 -1.543595733415e+01 0.0 
2.118566862474e+01 -8.435876987696e+00 0.0 
2.678325936437e+01 -1.032621195706e+01 0.0 
2.223400220487e+01 -5.179046761770e+00 0.0 
2.375370625384e+01 -7.251580562134e+00 0.0 
3.156971327386e+01 -1.255534750737e+01 0.0 
3.328226391312e+01 -1.172914813316e+01 0.0 
3.250948774219e+01 -1.120157009348e+01 0.0 
2.032993445717e+01 -8.867880112202e+00 0.0 
2.697226974856e+01 -7.536633082045e+00 0.0 
2.707377810386e+01 -6.590835263295e+00 0.0 
2.914099246827e+01 -1.191678458549e+01 0.0 
3.544824072239e+01 -1.621126558525e+01 0.0 
3.456511855436e+01 -1.665054783843e+01 0.0 
3.448395810225e+01 -1.759117813016e+01 0.0 
3.368378673938e+01 -1.708037781328e+01 0.0 
3.375560452567e+01 -1.610973066913e+01 0.0 
3.288001547988e+01 -1.654324255651e+01 0.0 
3.282475929147e+01 -1.749725654692e+01 0.0 
3.199880906313e+01 -1.697294088625e+01 0.0 
3.197001272932e+01 -1.811667776864e+01 0.0 
3.111884713021e+01 -1.742166785755e+01 0.0 
3.120418962865e+01 -1.642155709385e+01 0.0 
3.034666704371e+01 -1.683123833816e+01 0.0 
3.026224379976e+01 -1.772592851714e+01 0.0 
3.046632362943e+01 -1.582232843075e+01 0.0 
1.961344017324e+01 -1.857459447985e+01 0.0 
2.274975894774e+01 -9.532738811922e+00 0.0 
1.833923246887e+01 -2.396746883672e+00 0.0 
1.988859500848e+01 -2.249244376594e+00 0.0 
2.758045562861e+01 -1.086434261689e+01 0.0 
3.247300178163e+01 -1.909930104252e+01 0.0 
3.461947482503e+01 -1.911879848019e+01 0.0 
2.047161538662e+01 -6.941478180358e+00 0.0 
2.750230940214e+01 -1.915490590764e+01 0.0 
3.165081350803e+01 -1.161860780120e+01 0.0 
1.897456727641e+01 -4.889634688522e+00 0.0 
2.549338539756e+01 -1.914858252089e+01 0.0 
3.462873135081e+01 -1.567482276144e+01 0.0 
3.384432415243e+01 -1.512280684518e+01 0.0 
3.471433767690e+01 -1.469086942990e+01 0.0 
3.651470373046e+01 -1.918207952149e+01 0.0 
3.901742690249e+01 -1.345028556517e+01 0.0 
2.153224102692e+01 -1.920169709333e+01 0.0 
1.918382939341e+01 -1.316226275662e+01 0.0 
2.005389162382e+01 -1.271962165174e+01 0.0 
2.011472087878e+01 -1.175029352900e+01 0.0 
3.210679478412e+01 -1.598038618242e+01 0.0 
1.752175226543e+01 -1.914713022656e+01 0.0 
1.696897240059e+01 -1.832772588765e+01 0.0 
1.599682523337e+01 -1.832599992024e+01 0.0 
1.644507199462e+01 -1.743697981535e+01 0.0 
1.549987712903e+01 -1.915192375101e+01 0.0 
3.050250861901e+01 -1.918943550234e+01 0.0 
2.949944061527e+01 -1.922950455235e+01 0.0 
1.375892575273e+01 -6.447160534926e+00 0.0 
1.457223670180e+01 -7.006709243857e+00 0.0 
1.450818793236e+01 -7.965943451779e+00 0.0 
1.538804712402e+01 -7.553409623699e+00 0.0 
1.545817644768e+01 -6.580929593419e+00 0.0 
1.626506893751e+01 -7.129032608911e+00 0.0 
1.619833811522e+01 -8.086588580887e+00 0.0 
1.714448609609e+01 -6.697429609777e+00 0.0 
2.887616543568e+01 -1.668015232137e+01 0.0 
1.349814589130e+01 -1.918225301544e+01 0.0 
1.153887772210e+01 -1.311384581217e+01 0.0 
1.242708159886e+01 -1.267046795531e+01 0.0 
1.249799674267e+01 -1.169005616014e+01 0.0 
6.631723893693e+00 -9.774184881867e+00 0.0 
7.451471631867e+00 -1.033148796006e+01 0.0 
7.377795355458e+00 -1.132196345268e+01 0.0 
5.810931797536e+00 -9.211654212252e+00 0.0 
2.402683899133e+01 -1.441378562320e+01 0.0 
1.249768692036e+01 -1.917388426624e+01 0.0 
1.580373499437e+01 -1.290751860664e+01 0.0 
8.344650507834e+00 -9.898403995170e+00 0.0 
3.750622115305e+01 -1.086526401533e+01 0.0 
3.699391251667e+01 -1.171695900794e+01 0.0 
3.606517829518e+01 -1.173717504500e+01 0.0 
3.650257641795e+01 -1.270047380221e+01 0.0 
3.808951488918e+01 -1.183518714175e+01 0.0 
4.760380962420e+00 -1.162484888315e+01 0.0 
3.861210370848e+00 -1.205657631736e+01 0.0 
3.038284309476e+00 -1.149851280664e+01 0.0 
2.961598794889e+00 -1.248856794980e+01 0.0 
2.138953225512e+00 -1.193212674534e+01 0.0 
2.227383593457e+00 -1.096258903918e+01 0.0 
2.043265419276e+00 -1.292158472959e+01 0.0 
1.252449446028e+00 -1.225502002753e+01 0.0 
3.949985210740e+01 -1.086594001795e+01 0.0 
1.453499444792e+01 -8.768805922472e-01 0.0 
1.403518950933e+01 -1.749965556633e+00 0.0 
1.300715031023e+01 -1.714737233040e+00 0.0 
1.350929389899e+01 -2.527443911291e+00 0.0 
1.449600910711e+01 -2.595486162864e+00 0.0 
1.395693872901e+01 -3.484211041558e+00 0.0 
1.495105865208e+01 -3.364609636216e+00 0.0 
1.508822528740e+01 -1.766586020494e+00 0.0 
1.250223858430e+01 -8.634590186802e-01 0.0 
1.200279523409e+01 -1.709044504992e+00 0.0 
1.150086239419e+01 -8.592789190668e-01 0.0 
1.101482754194e+01 -1.677730591922e+00 0.0 
1.148018564526e+01 -2.659323866909e+00 0.0 
8.800552119754e+00 -3.989875954728e+00 0.0 
3.452790439430e+00 -1.901136170646e+01 0.0 
8.658451825200e-01 -9.503462241795e+00 0.0 
1.694787786797e+00 -9.000589234502e+00 0.0 
1.703436717094e+00 -8.038819004041e+00 0.0 
2.594197971110e+00 -8.563955242845e+00 0.0 
1.630513735412e+00 -9.907244747511e+00 0.0 
8.566859292791e-01 -7.512203837972e+00 0.0 
1.685461277022e+00 -7.164280248030e+00 0.0 
2.506394468801e+00 -8.623386730818e-01 0.0 
2.007475081581e+00 -1.727729545205e+00 0.0 
9.211534699767e-01 -1.628791366312e+00 0.0 
1.500000000020e+00 -2.598063549486e+00 0.0 
2.482078929963e+00 -2.553580088725e+00 0.0 
2.999795253092e+00 -1.732169015019e+00 0.0 
3.999712607169e+00 -1.728832897453e+00 0.0 
4.499752199340e+00 -8.656478679175e-01 0.0 
4.964377774841e+00 -1.730129617941e+00 0.0 
4.425017908337e+00 -2.597541756243e+00 0.0 
5.446573195014e+00 -8.410144840023e-01 0.0 
4.915722346614e+01 -1.550640962770e+01 0.0 
4.826794919243e+01 -1.600000000000e+01 0.0 
1.053139533193e+01 -1.911782884365e+01 0.0 
4.156049861949e+01 -1.095160998589e+01 0.0 
9.494526624416e+00 -8.650570090219e-01 0.0 
4.555762166964e+01 -1.897098103585e+01 0.0 
4.250656411371e+01 -1.914387356218e+01 0.0 
4.350906466345e+01 -1.917234727395e+01 0.0 
8.759665722424e-01 -1.746422130609e+01 0.0 
1.698936011838e+00 -1.795012186674e+01 0.0 
4.742476811029e+01 -1.900090177972e+01 0.0 
7.749196752349e+00 -6.368049313489e+00 0.0 
3.361572113416e+01 -1.798765193915e+01 0.0 
4.484660149212e+01 -1.728661231383e+01 0.0 
1.984038172228e+01 -4.502575320116e+00 0.0 
1.035080352627e+01 -6.166639575753e+00 0.0 
2.753558010652e+00 -1.444909521181e+01 0.0 
7.217069543032e+00 -1.328635391078e+01 0.0 
4.364336727739e+00 -1.655585677381e+01 0.0 
4.595208426108e+00 -1.357919665443e+01 0.0 
6.164967006980e+00 -1.569873454630e+01 0.0 
1.487855768353e+01 -1.826523774028e+01 0.0 
2.791876456372e+00 -4.019632415181e+00 0.0 
4.246464893515e+01 -1.364898659620e+01 0.0 
4.503855590351e+01 -1.329552780944e+01 0.0 
4.407239109604e+01 -1.573900004093e+01 0.0 
5.141054449252e+00 -6.664290382472e+00 0.0 
3.141083947149e+00 -1.055790764912e+01 0.0 
6.196463198741e+00 -4.256497932609e+00 0.0 
2.599618716181e+01 -1.836893455464e+01 0.0 
2.923057372337e+01 -1.098461757645e+01 0.0 
1.168343877486e+01 -1.114079645041e+01 0.0 
6.706222096238e+00 -8.780364234441e+00 0.0 
8.567858614669e+00 -6.943121440850e+00 0.0 
1.123755132901e+01 -5.753525820030e+00 0.0 
2.353456234423e+01 -1.008536320953e+01 0.0 
9.162073319168e+00 -1.045593739109e+01 0.0 
9.676343469685e+00 -1.496493008366e+01 0.0 
4.490637882905e+01 -1.628778970202e+01 0.0 
7.398129387772e+00 -9.639977982323e-01 0.0 
1.049641705805e+01 -1.552503975272e+01 0.0 
9.010356286268e+00 -1.242805042052e+01 0.0 
3.985573925497e+01 -1.399863651620e+01 0.0 
1.816196318262e+01 -1.554066497931e+01 0.0 
1.306332244168e+01 -3.963646550326e+00 0.0 
4.145850903932e+01 -1.608094559275e+01 0.0 
3.794664933633e+01 -1.779020121986e+01 0.0 
3.819614412903e+01 -1.290749321016e+01 0.0 
6.270014188119e+00 -3.255093186826e+00 0.0 
4.251165370388e+01 -1.263870364997e+01 0.0 
1.207347709171e+01 -1.763942826023e+01 0.0 
3.633240829927e+01 -1.577330481104e+01 0.0 
4.319052668832e+00 -6.101812561904e+00 0.0 
1.676492415806e+01 -1.151547901392e+01 0.0 
2.594059220037e+01 -1.074225223009e+01 0.0 
3.340750911501e+01 -9.898764354137e+00 0.0 
4.397619591281e+01 -1.769773736461e+01 0.0 
2.175611595028e+01 -1.185718747128e+01 0.0 
1.641818733106e+01 -1.640685203215e+01 0.0 
1.661211421753e+01 -1.346121366338e+01 0.0 
3.428853504935e+00 -6.551993389271e+00 0.0 
8.700728832502e+00 -1.638460872825e+01 0.0 
1.931369795309e+01 -1.121629383702e+01 0.0 
4.139798872363e+01 -1.706922153459e+01 0.0 
2.647837478700e+01 -1.507353829290e+01 0.0 
1.779469616424e+01 -9.161615782908e+00 0.0 
3.885879219319e+01 -1.642026488918e+01 0.0 
1.338194936770e+01 -1.125916521471e+01 0.0 
1.897071181111e+01 -1.609204322578e+01 0.0 
2.844308548793e+01 -1.046221003096e+01 0.0 
2.659854702194e+01 -1.316109415760e+01 0.0 
2.979604503271e+01 -1.433296157755e+01 0.0 
2.417694041347e+01 -1.251231397779e+01 0.0 
1.807401327411e+00 -1.388891148480e+01 0.0 
9.599810618782e+00 -1.595439365034e+01 0.0 
1.652144692160e+01 -4.205392788472e+00 0.0 
2.367839450246e+01 -8.188385218643e+00 0.0 
3.814894930468e+01 -1.390748338767e+01 0.0 
2.466448215774e+01 -1.685878545680e+01 0.0 
4.134044524611e+01 -1.806610045954e+01 0.0 
2.600511411958e+01 -9.801774120648e+00 0.0 
7.882158050716e+00 -1.582364037353e+01 0.0 
3.881607873422e+01 -1.737970515013e+01 0.0 
8.270182347708e+00 -1.088622154920e+01 0.0 
8.672520392520e-01 -4.532984309881e+00 0.0 
1.993447205337e+01 -3.579061902667e+00 0.0 
1.794616079549e+01 -7.238038888498e+00 0.0 
2.097277068165e+01 -1.132450168636e+01 0.0 
8.194803300681e+00 -1.187214224265e+01 0.0 
3.522279404911e+01 -1.823342818178e+01 0.0 
6.984481050295e+00 -1.625271465557e+01 0.0 
1.309433007797e+01 -1.521718594215e+01 0.0 
2.150246167611e+01 -1.885399038185e+00 0.0 
3.250689370209e+01 -1.028789870535e+01 0.0 
6.085886272238e+00 -1.668342132851e+01 0.0 
1.588455661727e+01 -1.193498985921e+01 0.0 
1.809323400821e+01 -1.651110084195e+01 0.0 
1.348885082381e+00 -1.136065576512e+01 0.0 
2.497670221995e+01 -1.834631276173e+01 0.0 
2.937062818424e+01 -8.233711194470e+00 0.0 
5.185823744469e+00 -1.711566910207e+01 0.0 
1.477497877209e+01 -1.530177014512e+01 0.0 
2.125346158933e+01 -7.473003997367e+00 0.0 
4.751561118290e+01 -1.084897772632e+01 0.0 
5.056026576843e+00 -1.825750475525e+01 0.0 
1.473948554523e+01 -1.634577436309e+01 0.0 
2.410566630936e+01 -1.345970002612e+01 0.0 
1.507337507513e+01 -1.138527895328e+01 0.0 
3.189857338687e+01 -8.887781229006e+00 0.0 
7.298712468334e+00 -1.230231046246e+01 0.0 
2.738235495295e+01 -1.368931690364e+01 0.0 
3.750141041969e+01 -1.920449893070e+01 0.0 
1.557271965640e+01 -1.683317951731e+01 0.0 
3.393731848929e+01 -1.413034777044e+01 0.0 
6.482156824153e+00 -1.174575135362e+01 0.0 
2.077971718439e+01 -1.421279621836e+01 0.0 
3.455084320178e+00 -2.562590040585e+00 0.0 
3.099056096250e+01 -9.270280416035e+00 0.0 
5.580176125418e+00 -1.217387969259e+01 0.0 
1.707247630389e+01 -7.660651981710e+00 0.0 
1.418658814174e+01 -1.180390575393e+01 0.0 
2.049103025389e+01 -1.811296706038e+01 0.0 
4.680386172316e+00 -1.260396879301e+01 0.0 
1.699679896554e+01 -8.624561788199e+00 0.0 
3.779470168555e+00 -1.303424899720e+01 0.0 
3.036589870126e+01 -7.879832518349e+00 0.0 
3.306993001774e+01 -1.457671062095e+01 0.0 
2.840150110165e+00 -1.346530088269e+01 0.0 
2.732011135052e+01 -1.464591214560e+01 0.0 
5.423639259568e+00 -2.659711955016e+00 0.0 
2.324455961696e+01 -1.387269388211e+01 0.0 
1.752768355571e+00 -1.693128613594e+01 0.0 
1.020244783051e+01 -8.076834012808e+00 0.0 
1.330873875224e+01 -1.222417528206e+01 0.0 
3.297727364880e+01 -1.555480372087e+01 0.0 
2.890929955439e+01 -6.868664170731e+00 0.0 
1.323294664622e+01 -1.320754260334e+01 0.0 
2.726532861246e+01 -1.560593120806e+01 0.0 
2.240020643398e+01 -1.429299177247e+01 0.0 
2.090445823633e+01 -1.228128621332e+01 0.0 
1.315809881502e+01 -1.420739326938e+01 0.0 
2.781328038068e+01 -7.181956082300e+00 0.0 
8.614200829057e+00 -5.936933226306e+00 0.0 
8.714765730069e+00 -4.979270529687e+00 0.0 
1.611881701099e+01 -9.041973294003e+00 0.0 
2.806830314340e+01 -1.614622947108e+01 0.0 
2.084435391396e+00 -3.385085422913e+00 0.0 
3.133211811152e+01 -1.542347619750e+01 0.0 
9.693114650768e+00 -3.590281506442e+00 0.0 
1.531883592202e+01 -8.504584946143e+00 0.0 
2.151589117094e+01 -1.578915763018e+01 0.0 
4.918943882696e+01 -1.355538828056e+01 0.0 
1.443236615188e+01 -8.918701794549e+00 0.0 
8.276250966452e-01 -5.537685192197e+00 0.0 
1.362790867918e+01 -8.374718262212e+00 0.0 
2.083767477370e+01 -1.324843956035e+01 0.0 
1.273834678703e+01 -8.790890389337e+00 0.0 
1.192275845670e+01 -8.242261327467e+00 0.0 
4.477236023583e+01 -1.824312396664e+01 0.0 
1.102989384254e+01 -8.649855800911e+00 0.0 
4.849096516045e+01 -1.917293752213e+01 0.0 
1.588996752238e+00 -1.910230934687e+01 0.0 
4.904245197583e+01 -1.159839008158e+01 0.0 
2.753852929608e+01 -5.782128488093e+00 0.0 
1.756133602833e+01 -8.306130313187e-01 0.0 
2.615423700951e+01 -6.153865090092e+00 0.0 
1.028818761294e+01 -7.122020845892e+00 0.0 
2.970818901196e+01 -1.527821347593e+01 0.0 
4.801461623449e+01 -1.164472570985e+01 0.0 
9.455722100419e+00 -6.546069291118e+00 0.0 
3.089099236677e+01 -1.835339328261e+01 0.0 
2.350000000013e+01 -1.920825896750e+01 0.0 
4.830620531887e+01 -1.506626155470e+01 0.0 
1.725381944701e+01 -1.688794487850e+01 0.0 
2.156246225273e+01 -1.475893794002e+01 0.0 
4.919319648787e+01 -1.742767505896e+01 0.0 
4.437935623576e+01 -1.077662927266e+01 0.0 
1.001520521978e+01 -1.652692675208e+00 0.0 
9.067160240050e-01 -1.441937727541e+01 0.0 
2.603365149390e+01 -4.755996613848e+00 0.0 
2.458344439002e+01 -4.873645517696e+00 0.0 
2.304312390142e+01 -3.836552768096e+00 0.0 
2.546923202198e+00 -6.902480355749e+00 0.0 
1.251534969393e+01 -2.490989965776e+00 0.0 
2.454061833377e+01 -3.933354231935e+00 0.0 
1.788186558740e+01 -1.827424884923e+01 0.0 
4.090785243552e+01 -1.166553231904e+01 0.0 
2.230128851568e+01 -1.623015738726e+01 0.0 
2.302362347568e+01 -2.916239960270e+00 0.0 
3.878119254461e+01 -1.830091164002e+01 0.0 
2.210081359958e+01 -1.829238229150e+01 0.0 
8.443704882233e+00 -1.921993252862e+01 0.0 
2.218405824691e+01 -1.724557581508e+01 0.0 
2.151157503963e+01 -2.790636689331e+00 0.0 
3.741658958955e+01 -1.250400191722e+01 0.0 
2.697247663737e+01 -1.838290202309e+01 0.0 
4.743362342862e+01 -1.585850773010e+01 0.0 
6.671345075358e+00 -1.924977576322e+01 0.0 
3.900825404537e+01 -1.157220003875e+01 0.0 
4.649692961375e+01 -1.836335837481e+01 0.0 
1.578831424832e+01 -3.678284023361e+00 0.0 
4.814208768888e+01 -1.841249298770e+01 0.0 
2.964123298315e+01 -1.625739458193e+01 0.0 
4.580760351902e+01 -1.284294554687e+01 0.0 
3.561520879615e+01 -1.245548941949e+01 0.0 
2.555418095658e+00 -1.841101588290e+01 0.0 
3.288468366144e+01 -1.834258164109e+01 0.0 
2.065894391445e+01 -2.240688571739e+00 0.0 
4.739171429915e+01 -1.496536413446e+01 0.0 
3.478086729185e+00 -8.576434653209e+00 0.0 
1.606010630246e+01 -1.588421807951e+00 0.0 
1.018329200594e+01 -1.834320874317e+01 0.0 
2.957213339430e+01 -1.720496954591e+01 0.0 
4.142712790164e+00 -1.837794506222e+01 0.0 
6.698721532573e-01 -2.499999999997e+00 0.0 
8.037039123140e+00 -1.571229354954e+00 0.0 
1.203541361428e+01 -1.847784298001e+01 0.0 
2.899968332038e+01 -1.848264722179e+01 0.0 
1.469229460948e+01 -4.219485753730e+00 0.0 
4.049590781957e+01 -1.932812501995e+01 0.0 
1.996211678340e+01 -1.506329754720e+00 0.0 
4.250588298353e+01 -1.067383247529e+01 0.0 
5.831497011152e+00 -1.635396227234e+00 0.0 
5.317606125670e+00 -1.923927974868e+01 0.0 
4.208546426993e+01 -1.842830665025e+01 0.0 
2.327553405011e+00 -9.459409929662e+00 0.0 
3.568351902251e+01 -1.096637218582e+01 0.0 
1.682104374890e+00 -6.231413350963e+00 0.0 
2.451812238018e+01 -1.766524914339e+01 0.0 
1.058003429638e+01 -2.391839617098e+00 0.0 
4.399988753123e+01 -1.851998776342e+01 0.0 
1.400000000010e+01 -1.852293523028e+01 0.0 
3.604719565984e+01 -1.850662876800e+01 0.0 
1.951297136734e+01 -1.938092349694e+01 0.0 
1.821365318472e+01 -1.531276353287e+00 0.0 
2.298031859732e+01 -1.854635324722e+01 0.0 
1.552168066204e+01 -1.764280741977e+01 0.0 
4.572957713638e+01 -1.073347898229e+01 0.0 
3.429637429624e+01 -1.838861552790e+01 0.0 
2.427434426052e+00 -7.705577451869e+00 0.0 
4.662792031485e+00 -3.359424455416e+00 0.0 
4.926794919243e+01 -1.926794919243e+01 0.0 
7.320508075690e-01 -7.320508075688e-01 0.0 
4.926794919243e+01 -1.073205080757e+01 0.0 
7.320508075705e-01 -1.926794919243e+01 0.0 
2.917460242467e+00 -3.202866455310e+00 0.0 
4.838200575963e+01 -1.232674147454e+01 0.0 
2.998445708009e+01 -1.854403752148e+01 0.0 
5.949940090766e-01 -1.152762038165e+01 0.0 
4.844763495759e+01 -1.678092548787e+01 0.0 
1.301685480160e+01 -3.170056592566e+00 0.0 
1.650046335855e+01 -6.731535384067e-01 0.0 
4.854881540991e+01 -1.405224059779e+01 0.0 
2.119545114693e+01 -1.846813384545e+01 0.0 
3.797852849897e+01 -1.857978513215e+01 0.0 
4.649823708745e+01 -1.338351810816e+01 0.0 
2.012685900976e+01 -2.889659035009e+00 0.0 
2.953271913273e+01 -1.791558075192e+01 0.0 
2.408509097292e+00 -1.021949208421e+01 0.0 
2.642589566221e+01 -1.773216561448e+01 0.0 
1.730010270775e+01 -1.763165076721e+01 0.0 
2.017406551304e+01 -8.513536440582e-01 0.0 
5.254761581934e-01 -1.249999999999e+01 0.0 
6.640448215642e+00 -1.545337834885e+00 0.0 
7.843361506349e+00 -1.852719839527e+01 0.0 
1.588442191088e+00 -1.066158564320e+01 0.0 
3.331250000000e+01 -8.420918367347e+00 0.0 
4.951470588234e+01 -8.500000000000e+00 0.0 
3.480610198624e+01 -9.413633635267e+00 0.0 
4.951470588234e+01 -9.500000000000e+00 0.0 

SCALARS node_number int
LOOKUP_TABLE default
1
2
3
4
5
6
7
8
9
10
11
12
13
14
15
16
17
18
19
20
21
22
23
24
25
26
27
28
29
30
31
32
33
34
35
36
37
38
39
40
41
42
43
44
45
46
47
48
49
50
51
52
53
54
55
56
57
58
59
60
61
62
63
64
65
66
67
68
69
70
71
72
73
74
75
76
77
78
79
80
81
82
84
85
86
87
88
89
90
91
92
93
101
102
104
105
106
107
108
109
110
111
112
113
114
115
116
117
118
119
120
121
122
123
124
125
126
127
128
129
130
131
132
133
134
135
136
329
330
331
332
333
334
335
336
337
338
339
340
341
342
343
344
345
346
347
348
349
350
351
352
353
354
355
356
357
358
359
360
361
362
363
364
365
366
367
368
369
370
371
372
373
374
375
376
377
378
379
380
381
382
383
384
385
386
387
388
389
390
391
392
393
394
395
396
397
398
399
400
401
402
403
404
405
406
407
408
409
410
411
412
413
414
415
416
417
418
419
420
421
422
423
424
425
426
427
428
429
430
431
432
433
434
435
436
437
438
439
440
441
442
443
444
445
446
447
448
449
450
451
452
453
454
455
456
457
458
459
460
461
462
463
464
465
466
467
468
469
470
471
472
473
474
475
476
477
478
479
480
481
482
483
484
485
486
487
488
489
490
491
492
493
494
495
496
497
498
499
500
501
502
503
504
505
506
507
508
509
510
511
512
513
514
515
516
517
518
519
520
521
522
523
524
525
526
527
528
529
530
531
532
533
534
535
536
537
538
539
540
541
542
543
544
545
546
547
548
549
550
551
552
553
554
555
556
557
558
559
560
561
562
563
564
565
566
567
568
569
570
571
572
573
574
575
576
577
578
579
580
581
582
583
584
585
586
587
588
589
590
591
592
593
594
595
596
597
598
599
600
601
602
603
604
605
606
607
608
609
610
611
612
613
614
615
616
617
618
619
620
621
622
623
624
625
626
627
628
629
630
631
632
633
634
635
636
637
638
639
640
641
642
643
644
645
646
647
648
649
650
651
652
653
654
655
656
657
658
659
660
661
662
663
664
665
666
667
668
669
670
671
672
673
674
675
676
677
678
679
680
681
682
683
684
685
686
687
688
689
690
691
692
693
694
695
696
697
698
699
700
701
702
703
704
705
706
707
708
709
710
711
712
713
714
715
716
717
718
719
720
721
722
723
724
725
726
727
728
729
730
731
732
733
734
735
736
737
738
739
740
741
742
743
744
745
746
747
748
749
750
751
752
753
754
755
756
757
758
759
760
761
762
763
764
765
766
767
768
769
770
771
772
773
774
775
776
777
778
779
780
781
782
783
784
785
786
787
788
789
790
791
792
793
794
795
796
797
798
799
800
801
802
803
804
805
806
807
808
809
810
811
812
813
814
815
816
817
818
819
820
821
822
823
824
825
826
827
828
829
830
831
832
833
834
835
836
837
838
839
840
841
842
843
844
845
846
847
848
849
850
851
852
853
854
855
856
857
858
859
860
861
862
863
864
865
866
867
868
869
870
871
872
873
874
875
876
877
878
879
880
881
882
883
884
885
886
887
888
889
890
891
892
893
894
895
896
897
898
899
900
901
902
903
904
905
906
907
908
909
910
911
912
913
914
915
916
917
918
919
920
921
922
923
924
925
926
927
928
929
930
931
932
933
934
935
936
937
938
939
940
941
942
943
944
945
946
947
948
949
950
951
952
953
954
955
956
957
958
959
960
961
962
963
964
965
966
967
968
969
970
971
972
973
974
975
976
977
978
979
980
981
982
983
984
985
986
987
988
989
990
991
992
993
994
995
996
997
998
999
1000
1001
1002
1003
1004
1005
1006
1007
1008
1009
1010
1011
1012
1013
1014
1015
1016
1017
1018
1019
1020
1021
1022
1023
1024
1025
1026
1027
1028
1029
1030
1031
1032
1033
1034
1035
1036
1037
1038
1039
1040
1041
1042
1043
1044
1045
1046
1047
1048
1049
1050
1051
1052
1053
1054
1055
1056
1057
1058
1059
1060
1061
1062
1063
1064
1065
1066
1067
1068
1069
1070
1071
1072
1073
1074
1075
1076
1077
1078
1079
1080
1081
1082
1083
1084
1085
1086
1087
1088
1089
1090
1091
1092
1093
1094
1095
1096
1097
1098
1099
1100
1101
1102
1103
1104
1105
1106
1107
1108
1109
1110
1111
1112
1113
1114
1115
1116
1117
1118
1119
1120
1121
1122
1123
1124
1125
1126
1127
1128
1129
1130
1131
1132
1133
1134
1135
1136
1137
1138
1139
1140
1141
1142
1143
1144
1145
1146
1147
1148
1149
1150
1151
1152
1153
1154
1155
1156
1157
1158
1159
1160
1161
1162
1163
1164
1165
1166
1167
1168
1169
1170
1171
1172
1173
1174
1175
1176
1177
1178
1179
1180
1181
1182
1183
1184
1185
1186
1187
1188
1189
1190
1191
1192
1193
1194
1195
1196
1197
1198
1199
1200
1201
1202
1203
1204
1205
1206
1207
1208
1209
1210
1211
1212
1213
1214
1215
1216
1217
1218
1219
1220
1221
1222
1223
1224
1225
1226
1227
1228
1229
1230
1231
1232
1233
1234
1235
1236
1237
1238
1239
1240
1241
1242
1243
1244
1245
1246
1247
1248
1249
1250
1251
1252
1253
1254
1255
1256
1257
1258
1259
1260
1261
1262
1263
1264
1281
1282
1283
1284

VECTORS node_mesh_deformation float
0.0 7.459612832973e-02 0.0 
0.000000000000e+00 1.425074722733e-01 0.0 
0.0 0.000000000000e+00 0.0 
0.000000000000e+00 0.000000000000e+00 0.0 
0.0 7.479882260625e-02 0.0 
0.0 7.451761122956e-02 0.0 
0.0 7.377208458890e-02 0.0 
0.0 7.257469290862e-02 0.0 
0.0 7.092483439410e-02 0.0 
0.0 6.886500741254e-02 0.0 
0.0 6.641725858062e-02 0.0 
0.0 6.359416897772e-02 0.0 
0.0 6.040866029467e-02 0.0 
0.0 5.686382004138e-02 0.0 
0.0 5.295149500900e-02 0.0 
0.0 4.866681337302e-02 0.0 
0.0 4.400885333755e-02 0.0 
0.0 3.898482813046e-02 0.0 
0.0 3.355015816495e-02 0.0 
0.0 2.770159147802e-02 0.0 
0.0 2.143150107778e-02 0.0 
0.0 1.472402782163e-02 0.0 
0.0 7.572579351994e-03 0.0 
0.000000000000e+00 0.000000000000e+00 0.0 
0.000000000000e+00 0.000000000000e+00 0.0 
0.000000000000e+00 0.000000000000e+00 0.0 
0.000000000000e+00 0.000000000000e+00 0.0 
0.000000000000e+00 0.000000000000e+00 0.0 
0.000000000000e+00 0.000000000000e+00 0.0 
0.000000000000e+00 0.000000000000e+00 0.0 
0.000000000000e+00 0.000000000000e+00 0.0 
0.000000000000e+00 0.000000000000e+00 0.0 
0.000000000000e+00 0.000000000000e+00 0.0 
0.000000000000e+00 0.000000000000e+00 0.0 
0.000000000000e+00 0.000000000000e+00 0.0 
0.000000000000e+00 0.000000000000e+00 0.0 
0.000000000000e+00 0.000000000000e+00 0.0 
0.000000000000e+00 0.000000000000e+00 0.0 
0.000000000000e+00 0.000000000000e+00 0.0 
0.000000000000e+00 0.000000000000e+00 0.0 
0.000000000000e+00 0.000000000000e+00 0.0 
0.000000000000e+00 0.000000000000e+00 0.0 
0.000000000000e+00 0.000000000000e+00 0.0 
0.000000000000e+00 0.000000000000e+00 0.0 
0.000000000000e+00 0.000000000000e+00 0.0 
0.000000000000e+00 0.000000000000e+00 0.0 
0.000000000000e+00 0.000000000000e+00 0.0 
0.000000000000e+00 0.000000000000e+00 0.0 
0.000000000000e+00 0.000000000000e+00 0.0 
0.000000000000e+00 0.000000000000e+00 0.0 
0.000000000000e+00 0.000000000000e+00 0.0 
0.000000000000e+00 0.000000000000e+00 0.0 
0.000000000000e+00 0.000000000000e+00 0.0 
0.000000000000e+00 0.000000000000e+00 0.0 
0.000000000000e+00 0.000000000000e+00 0.0 
0.000000000000e+00 0.000000000000e+00 0.0 
0.000000000000e+00 0.000000000000e+00 0.0 
0.000000000000e+00 0.000000000000e+00 0.0 
0.000000000000e+00 0.000000000000e+00 0.0 
0.000000000000e+00 0.000000000000e+00 0.0 
0.000000000000e+00 0.000000000000e+00 0.0 
0.000000000000e+00 0.000000000000e+00 0.0 
0.000000000000e+00 0.000000000000e+00 0.0 
0.000000000000e+00 0.000000000000e+00 0.0 
0.000000000000e+00 0.000000000000e+00 0.0 
0.000000000000e+00 0.000000000000e+00 0.0 
0.000000000000e+00 0.000000000000e+00 0.0 
0.000000000000e+00 0.000000000000e+00 0.0 
0.000000000000e+00 0.000000000000e+00 0.0 
0.000000000000e+00 0.000000000000e+00 0.0 
0.000000000000e+00 0.000000000000e+00 0.0 
0.000000000000e+00 0.000000000000e+00 0.0 
0.000000000000e+00 1.299361240007e-01 0.0 
0.000000000000e+00 1.169506628591e-01 0.0 
0.000000000000e+00 1.035592420087e-01 0.0 
0.000000000000e+00 8.978521779158e-02 0.0 
0.000000000000e+00 7.563784209672e-02 0.0 
0.000000000000e+00 6.114061682792e-02 0.0 
0.000000000000e+00 4.631050173867e-02 0.0 
0.000000000000e+00 3.116570871848e-02 0.0 
0.000000000000e+00 1.572749780325e-02 0.0 
-1.405627277862e-02 4.744879959231e-02 0.0 
1.856732129507e-02 1.360303613067e-01 0.0 
-6.630820900327e-03 7.231704807613e-02 0.0 
-7.388954054228e-04 9.208542547389e-02 0.0 
4.171116708847e-03 1.087511768437e-01 0.0 
8.212861385445e-03 1.224171776013e-01 0.0 
1.205232967966e-02 1.333973876395e-01 0.0 
1.553457253814e-02 1.415154871658e-01 0.0 
1.823773859094e-02 1.463921646088e-01 0.0 
1.915136208335e-02 1.475455534996e-01 0.0 
1.938343752480e-02 1.435484821471e-01 0.0 
0.000000000000e+00 1.663792717443e-01 0.0 
0.000000000000e+00 1.546597195105e-01 0.0 
1.088095104187e-03 1.425187857076e-01 0.0 
2.171106227394e-03 1.425478848398e-01 0.0 
3.263675474294e-03 1.425790263873e-01 0.0 
4.364233031339e-03 1.426054377142e-01 0.0 
5.473406597361e-03 1.426324024807e-01 0.0 
6.595526434388e-03 1.426250417888e-01 0.0 
7.741076757029e-03 1.425883801924e-01 0.0 
8.899284265688e-03 1.424782978630e-01 0.0 
1.009983391286e-02 1.422914125842e-01 0.0 
1.133972474312e-02 1.419630709693e-01 0.0 
1.262248913944e-02 1.414509504762e-01 0.0 
1.396781181929e-02 1.406967480351e-01 0.0 
1.538929143061e-02 1.396149561365e-01 0.0 
1.690897254903e-02 1.380972426676e-01 0.0 
-1.129710326376e-02 3.332454240584e-02 0.0 
-7.176006039643e-03 2.575224325102e-02 0.0 
-2.719539079212e-03 2.267099063879e-02 0.0 
1.973145992192e-03 2.425168733531e-02 0.0 
5.264582361647e-03 3.265910527479e-02 0.0 
7.023509624984e-03 4.277888963305e-02 0.0 
7.721414780196e-03 4.952522134588e-02 0.0 
7.865226421480e-03 5.477916064217e-02 0.0 
7.426446560768e-03 5.900349373241e-02 0.0 
6.947353342971e-03 6.240732119874e-02 0.0 
6.449057447426e-03 6.518858061839e-02 0.0 
5.857797426682e-03 6.741836513946e-02 0.0 
5.273101577779e-03 6.926873805638e-02 0.0 
4.549462973472e-03 7.078255180140e-02 0.0 
3.819137438103e-03 7.200290452514e-02 0.0 
3.102456703935e-03 7.295144767213e-02 0.0 
2.376649926483e-03 7.368648839000e-02 0.0 
1.632672285477e-03 7.421584143476e-02 0.0 
8.280118201904e-04 7.451050359102e-02 0.0 
1.145916348399e-03 1.664206418325e-01 0.0 
2.218466306040e-03 1.664258090329e-01 0.0 
3.293490436207e-03 1.664544447988e-01 0.0 
4.367105950827e-03 1.664852065872e-01 0.0 
5.432926832682e-03 1.665056338322e-01 0.0 
6.486467715391e-03 1.665033330464e-01 0.0 
7.521797819159e-03 1.664616170019e-01 0.0 
8.534706002088e-03 1.663539836481e-01 0.0 
9.522329247133e-03 1.661538550120e-01 0.0 
1.047819908108e-02 1.658239164218e-01 0.0 
1.139872837776e-02 1.653115731847e-01 0.0 
1.228648433619e-02 1.645546765469e-01 0.0 
1.314837200835e-02 1.634758931235e-01 0.0 
1.400094872087e-02 1.619766798356e-01 0.0 
1.487667474397e-02 1.599198032097e-01 0.0 
1.584701929439e-02 1.571321602949e-01 0.0 
1.691952445446e-02 1.533065535159e-01 0.0 
1.777261131433e-02 1.468447338520e-01 0.0 
1.640761055769e-02 1.492417582702e-01 0.0 
1.512016160787e-02 1.509821131823e-01 0.0 
1.392814841609e-02 1.522644602632e-01 0.0 
1.279244420205e-02 1.531814275338e-01 0.0 
1.168987530162e-02 1.538201103280e-01 0.0 
1.060769482448e-02 1.542502621745e-01 0.0 
9.537295553571e-03 1.545220955357e-01 0.0 
8.471064017975e-03 1.546793133291e-01 0.0 
7.411131658998e-03 1.547645130609e-01 0.0 
6.351735596319e-03 1.547905790718e-01 0.0 
5.295686730697e-03 1.547869129406e-01 0.0 
4.238663709387e-03 1.547617682575e-01 0.0 
3.183683791718e-03 1.547322528126e-01 0.0 
2.128242316402e-03 1.546997291511e-01 0.0 
1.062802400497e-03 1.546444299133e-01 0.0 
-9.909039913719e-03 6.127219369702e-02 0.0 
-3.577510121350e-03 8.258471204309e-02 0.0 
1.844414048964e-03 1.008076904419e-01 0.0 
6.273722691940e-03 1.159424664292e-01 0.0 
1.022091879462e-02 1.283077036711e-01 0.0 
1.390803591458e-02 1.378843992555e-01 0.0 
1.704350505983e-02 1.443785869045e-01 0.0 
1.906747114027e-02 1.474795249479e-01 0.0 
1.941809858024e-02 1.460386408445e-01 0.0 
1.913064514379e-02 1.401078176573e-01 0.0 
3.770047106343e-03 8.132458515121e-02 0.0 
2.925559396601e-03 6.684249953075e-03 0.0 
4.408412177620e-03 6.075373496311e-02 0.0 
-1.986930233215e-04 2.997336031747e-02 0.0 
1.206904575762e-03 6.367641778684e-03 0.0 
1.231973665859e-02 1.121312047212e-01 0.0 
3.186377054920e-05 5.481772466977e-02 0.0 
4.490472536112e-03 7.542888324402e-03 0.0 
1.897553327348e-02 1.305318709090e-01 0.0 
5.411226555349e-03 8.620955148622e-03 0.0 
2.221079291976e-02 1.375067951960e-01 0.0 
3.737426052162e-04 5.937244993547e-03 0.0 
3.644907004184e-03 7.032126374235e-02 0.0 
5.645359319740e-03 1.032164734260e-02 0.0 
2.055319715300e-02 1.287881848196e-01 0.0 
4.191150472010e-06 6.753157742110e-02 0.0 
8.529372579602e-05 4.253019484244e-02 0.0 
5.334389670633e-03 1.192762486411e-02 0.0 
3.808556565119e-03 1.249287027177e-02 0.0 
1.082132261324e-03 1.341772112117e-02 0.0 
2.016597251036e-03 1.443001359673e-02 0.0 
2.710195432151e-03 1.267749357764e-02 0.0 
1.676216262793e-02 1.277840039897e-01 0.0 
1.092428561750e-02 1.307633588481e-01 0.0 
7.196757459241e-03 1.309456538428e-01 0.0 
7.094438486135e-04 8.254254674001e-02 0.0 
1.138137061165e-04 6.528540639366e-03 0.0 
-3.897115592096e-03 3.245272476162e-02 0.0 
2.129789603138e-03 7.348072347861e-02 0.0 
6.950451334409e-05 2.508375378198e-02 0.0 
3.715802086347e-03 1.317791334400e-01 0.0 
2.035654661424e-04 7.316093254293e-02 0.0 
5.167184650688e-03 1.388501626783e-02 0.0 
4.665776912208e-03 7.412221848018e-03 0.0 
5.577179580854e-03 9.324654248168e-03 0.0 
3.996570766422e-03 7.482101127859e-03 0.0 
2.045052134743e-03 6.155686261639e-03 0.0 
2.541881660250e-03 4.605121004483e-02 0.0 
1.366671445260e-02 1.304861609930e-01 0.0 
8.317292286346e-04 7.289052495146e-03 0.0 
5.368811368953e-04 5.440102685755e-02 0.0 
4.297540312150e-03 6.638550264603e-02 0.0 
-9.685475691468e-07 6.197273828964e-02 0.0 
5.378102499449e-04 1.093227754496e-02 0.0 
1.601478813183e-02 1.218756359536e-01 0.0 
8.410671234749e-03 9.838953351935e-02 0.0 
2.128227086657e-02 1.356903996538e-01 0.0 
2.190048238302e-02 1.351495206327e-01 0.0 
-2.368916823279e-03 6.100295900746e-02 0.0 
8.536197620899e-04 1.087078011304e-01 0.0 
3.791579715751e-05 5.206065988894e-03 0.0 
9.822796664989e-04 7.455743123847e-02 0.0 
2.948183501701e-04 2.463790590129e-02 0.0 
1.985373784793e-02 1.240529926440e-01 0.0 
2.140187426330e-02 1.170418307631e-01 0.0 
1.979633247058e-02 1.135317344685e-01 0.0 
2.148515307395e-02 1.052823701975e-01 0.0 
1.989510026696e-02 1.002250886153e-01 0.0 
2.106904129398e-02 9.292552601709e-02 0.0 
2.281820789447e-02 9.755181994276e-02 0.0 
2.200967908035e-02 8.550052529528e-02 0.0 
2.385100931355e-02 8.985511573780e-02 0.0 
1.920049822418e-02 8.752449118725e-02 0.0 
2.263970764371e-02 7.805367125044e-02 0.0 
2.453947823070e-02 8.216857564296e-02 0.0 
2.292982502962e-02 7.069740321374e-02 0.0 
2.485192776979e-02 7.459977976387e-02 0.0 
2.621977387354e-02 8.555181227056e-02 0.0 
2.653496046527e-02 7.782629805243e-02 0.0 
2.762501731145e-02 8.813848356529e-02 0.0 
2.792263272033e-02 8.026668567884e-02 0.0 
2.646004909645e-02 7.038883003133e-02 0.0 
2.781859978813e-02 7.275484749931e-02 0.0 
2.898251092417e-02 8.193510297701e-02 0.0 
2.883229687489e-02 7.437723492982e-02 0.0 
2.968630244886e-02 8.282422229695e-02 0.0 
2.947923828695e-02 7.523829394642e-02 0.0 
3.002718721777e-02 8.295223283038e-02 0.0 
2.975719171687e-02 7.539718192535e-02 0.0 
2.887243418824e-02 6.814020986613e-02 0.0 
2.908231610332e-02 6.838811253287e-02 0.0 
2.966321918970e-02 7.488131547118e-02 0.0 
2.891185978472e-02 6.799939608205e-02 0.0 
2.920218873706e-02 7.372690785846e-02 0.0 
2.836468714132e-02 6.701327532298e-02 0.0 
2.778591738990e-02 6.170640606755e-02 0.0 
2.715366208837e-02 6.095521563290e-02 0.0 
2.744664549073e-02 6.548572408691e-02 0.0 
2.614672375889e-02 5.973186764888e-02 0.0 
2.616711285344e-02 6.347791974942e-02 0.0 
2.477622231404e-02 5.810324646933e-02 0.0 
2.453889801976e-02 6.105303094820e-02 0.0 
2.304254320396e-02 5.613844181458e-02 0.0 
2.309844963475e-02 5.344733560159e-02 0.0 
2.129011177449e-02 5.199192167732e-02 0.0 
2.096105289390e-02 5.394754189182e-02 0.0 
1.915676552139e-02 5.042657316240e-02 0.0 
1.937557178343e-02 4.857655820834e-02 0.0 
1.724557466656e-02 4.765849647590e-02 0.0 
1.738221477512e-02 4.579209098656e-02 0.0 
1.531215202114e-02 4.550667422801e-02 0.0 
1.489262539799e-02 4.684783331251e-02 0.0 
1.306551858486e-02 4.537640646446e-02 0.0 
1.342582890587e-02 4.382736995185e-02 0.0 
1.132637814007e-02 4.432228622692e-02 0.0 
1.070465261131e-02 4.553355571431e-02 0.0 
9.186729806375e-03 4.508874260174e-02 0.0 
9.723624950698e-03 4.352137651205e-02 0.0 
7.807177023761e-03 4.480865999394e-02 0.0 
7.089654517927e-03 4.621133577650e-02 0.0 
5.975535449833e-03 4.638858756484e-02 0.0 
6.588822403664e-03 4.454154828908e-02 0.0 
4.997672124714e-03 4.650649562223e-02 0.0 
4.295755872272e-03 4.829082661431e-02 0.0 
3.578268029187e-03 4.868841735703e-02 0.0 
4.152106394898e-03 4.646422668345e-02 0.0 
2.954589006984e-03 4.888605427089e-02 0.0 
3.410527914141e-03 4.624249171579e-02 0.0 
2.352978177207e-03 5.112500377816e-02 0.0 
1.946937406775e-03 5.145015299470e-02 0.0 
1.374931227119e-03 5.374116188836e-02 0.0 
1.152655565008e-03 5.411018493198e-02 0.0 
2.633190573949e-02 5.599949012633e-02 0.0 
6.755920403965e-04 5.642043766775e-02 0.0 
7.790524103939e-04 5.566344150596e-02 0.0 
5.810287228396e-04 5.679740341767e-02 0.0 
9.510244778461e-04 5.417056084003e-02 0.0 
2.301040945545e-04 5.911310146174e-02 0.0 
2.157489710504e-04 5.944773977480e-02 0.0 
9.453504992152e-06 6.173941302348e-02 0.0 
2.564743686516e-02 6.690125408401e-02 0.0 
2.599733393089e-02 6.328910986814e-02 0.0 
2.788561860179e-05 6.199692516053e-02 0.0 
-3.331769047410e-05 6.422499489434e-02 0.0 
-6.417548481608e-05 6.374093164383e-02 0.0 
6.495270345042e-05 6.614276067999e-02 0.0 
1.813470970149e-02 9.474960110541e-02 0.0 
1.723279725041e-02 8.159649869750e-02 0.0 
1.631975129136e-02 8.874978725398e-02 0.0 
1.519895429745e-02 7.526731747104e-02 0.0 
1.444334603724e-02 8.223924135058e-02 0.0 
4.279271298913e-05 6.650835962551e-02 0.0 
2.079666378937e-02 6.578389355366e-02 0.0 
1.575304721877e-02 6.811481181311e-02 0.0 
2.947310395189e-02 9.088077300425e-02 0.0 
2.961733281079e-02 8.108758624874e-02 0.0 
1.919743137053e-02 4.611338048792e-02 0.0 
1.900053579877e-04 5.945723015157e-02 0.0 
3.120196028128e-05 6.193962205641e-02 0.0 
1.602536278522e-04 5.916166566375e-02 0.0 
4.539023752939e-03 4.377945295180e-02 0.0 
3.694521017209e-03 4.317111351138e-02 0.0 
4.712901320532e-03 4.062092083015e-02 0.0 
3.791430095688e-03 3.964586449219e-02 0.0 
4.664893034960e-03 3.697228261867e-02 0.0 
3.697065411558e-03 3.564342607642e-02 0.0 
2.994548570726e-03 3.849416329978e-02 0.0 
2.867984431530e-03 3.414480363089e-02 0.0 
2.315524299640e-03 3.714768000575e-02 0.0 
4.398531881444e-03 3.281756291238e-02 0.0 
5.535958069089e-03 3.435006275428e-02 0.0 
2.170095108647e-03 3.246635972467e-02 0.0 
1.746997845083e-03 3.559553142414e-02 0.0 
1.594883427844e-03 3.059593122251e-02 0.0 
1.281086859107e-03 3.383753830742e-02 0.0 
1.346291434449e-03 3.869679973819e-02 0.0 
9.826897808738e-04 3.702927954540e-02 0.0 
9.875857715578e-04 4.175132596489e-02 0.0 
1.712843311558e-02 4.329265991361e-02 0.0 
1.860881961874e-02 4.303728057791e-02 0.0 
1.647336166725e-02 4.017118744349e-02 0.0 
1.758977079987e-02 3.935104255271e-02 0.0 
1.540774394057e-02 3.643205538404e-02 0.0 
1.613428788635e-02 3.506022921128e-02 0.0 
1.392684480044e-02 3.207805771000e-02 0.0 
1.327690283873e-02 3.380882975684e-02 0.0 
2.287058721596e-02 6.340307585748e-02 0.0 
1.855123066267e-02 5.165205428585e-02 0.0 
2.022607845292e-02 5.531972561323e-02 0.0 
1.757642424926e-02 5.224010962734e-02 0.0 
1.909539804106e-02 5.609653363232e-02 0.0 
1.624863261209e-02 5.215630150358e-02 0.0 
1.758692830778e-02 5.628841648785e-02 0.0 
1.459397739965e-02 5.138192253364e-02 0.0 
1.311044866377e-02 4.838554659870e-02 0.0 
1.127924183164e-02 4.665974335781e-02 0.0 
9.729649775860e-03 4.510946331411e-02 0.0 
7.727142739064e-03 4.258352575702e-02 0.0 
6.257252468554e-03 4.270598145300e-02 0.0 
2.789480821251e-02 6.155347828185e-02 0.0 
1.836781220372e-02 3.835232493469e-02 0.0 
1.650032809702e-02 3.346576756016e-02 0.0 
1.876065766376e-02 3.708293951713e-02 0.0 
7.145168108114e-05 6.545492309742e-02 0.0 
9.078895773502e-04 3.187587927872e-02 0.0 
5.053831509864e-03 3.000413534737e-02 0.0 
6.351795955684e-03 3.180314026890e-02 0.0 
1.179621293535e-02 2.932756143905e-02 0.0 
2.749420830312e-04 6.828913538425e-02 0.0 
1.571648283742e-02 5.592753743439e-02 0.0 
1.844731859588e-02 6.179811885965e-02 0.0 
1.315341065618e-02 6.843841929973e-02 0.0 
1.256277102414e-02 7.532329823610e-02 0.0 
5.611357976964e-03 2.719111314688e-02 0.0 
1.780413364196e-04 6.854779519909e-02 0.0 
2.587694985582e-03 2.931531822841e-02 0.0 
9.169499259833e-03 4.405821991249e-02 0.0 
6.920767540386e-04 3.515375319921e-02 0.0 
6.167898483342e-04 2.972354819395e-02 0.0 
2.329558968242e-03 4.135471072350e-02 0.0 
1.646487391546e-02 3.157152697077e-02 0.0 
1.877663639755e-02 3.555310565791e-02 0.0 
8.240542865590e-03 4.481449657521e-02 0.0 
5.026521873061e-03 4.383408995405e-02 0.0 
2.936986113427e-03 4.155017564164e-02 0.0 
2.184725762742e-03 4.416950710958e-02 0.0 
4.080224365799e-03 4.552348762674e-02 0.0 
1.672624194354e-03 4.669723237338e-02 0.0 
1.438264529696e-06 4.565958156738e-02 0.0 
-9.301628575997e-05 4.885467192898e-02 0.0 
1.363498340240e-03 4.914319474691e-02 0.0 
-1.129986706161e-05 5.166081803213e-02 0.0 
-1.017829275566e-03 5.180069120023e-02 0.0 
-7.051711038812e-04 5.467680131121e-02 0.0 
7.714730501478e-04 2.627102121956e-02 0.0 
5.503012845395e-03 3.919962798222e-02 0.0 
2.691921376825e-02 9.627759715727e-02 0.0 
4.348167205887e-03 2.510393259146e-02 0.0 
1.206550111740e-02 2.718103479619e-02 0.0 
1.113247517244e-02 6.123595808884e-02 0.0 
1.070614397976e-02 6.806644681882e-02 0.0 
1.182186622942e-02 8.216216167426e-02 0.0 
1.012363804980e-02 7.482532385105e-02 0.0 
8.905284950330e-03 6.051238218289e-02 0.0 
8.479411791470e-03 6.725602799498e-02 0.0 
9.425911690741e-03 8.149958898741e-02 0.0 
7.925655273219e-03 7.391346879277e-02 0.0 
8.645101131073e-03 8.805386907463e-02 0.0 
7.274701056218e-03 8.046560474735e-02 0.0 
6.496447211816e-03 6.613196310961e-02 0.0 
5.967372388291e-03 7.271923506616e-02 0.0 
6.552070012184e-03 8.691843129847e-02 0.0 
5.350456741986e-03 7.921381902139e-02 0.0 
5.775714335250e-03 9.325869463090e-02 0.0 
4.663253580183e-03 8.560980110924e-02 0.0 
4.225648527942e-03 7.137710154322e-02 0.0 
4.837612694750e-04 7.007128279253e-02 0.0 
1.124456921455e-02 3.140284931075e-02 0.0 
9.783083053726e-03 2.673797466949e-02 0.0 
2.971628467918e-05 6.155310179498e-02 0.0 
1.351942135281e-04 5.854716091092e-02 0.0 
3.190897488627e-04 5.604047032718e-02 0.0 
2.452452415449e-04 5.522567681485e-02 0.0 
3.608203179361e-03 7.790354752039e-02 0.0 
3.193671663517e-03 6.343451667487e-02 0.0 
1.622082147005e-02 6.212177457168e-02 0.0 
1.863303771261e-02 6.871554827803e-02 0.0 
1.135862881019e-02 5.435284591697e-02 0.0 
4.652517882469e-04 3.308139126364e-02 0.0 
4.984580583627e-04 3.834266862212e-02 0.0 
2.888335126201e-02 7.913652375431e-02 0.0 
2.890221228296e-02 8.697463047794e-02 0.0 
2.791939011710e-02 8.426780507133e-02 0.0 
2.742975634301e-02 9.268377064756e-02 0.0 
2.840518399502e-02 9.545367374556e-02 0.0 
2.619616094161e-02 8.920544783991e-02 0.0 
6.831792966105e-03 3.584468616478e-02 0.0 
5.163025616554e-03 5.819611982131e-02 0.0 
-1.294118871060e-04 6.290965640955e-02 0.0 
5.617308173989e-05 6.443249375264e-02 0.0 
3.967630895567e-04 2.739093603658e-02 0.0 
1.233654385421e-02 3.543866304677e-02 0.0 
2.736298927098e-02 6.055003366276e-02 0.0 
2.610075224094e-02 5.432292499510e-02 0.0 
2.522282866749e-02 5.257493844442e-02 0.0 
2.369089507820e-02 4.668588962294e-02 0.0 
2.243835922515e-02 4.420175341169e-02 0.0 
2.064470171420e-02 3.863481230386e-02 0.0 
2.188601812190e-02 4.123036890023e-02 0.0 
1.598324586367e-02 2.927315927941e-02 0.0 
1.860943615644e-02 3.343515293221e-02 0.0 
3.984095787246e-03 9.203388528217e-02 0.0 
2.057430833460e-02 4.206194501191e-02 0.0 
1.172559196657e-03 5.129669996603e-02 0.0 
6.896693812957e-04 6.961104139563e-02 0.0 
-1.016255054580e-03 5.526306447888e-02 0.0 
3.122051835871e-04 7.029123317779e-02 0.0 
9.882405325579e-05 6.851285767986e-02 0.0 
4.633435555380e-03 2.202225604447e-02 0.0 
1.898181264729e-02 3.541711595557e-02 0.0 
2.078622752683e-02 4.108319188456e-02 0.0 
2.638376828696e-02 1.017989133914e-01 0.0 
2.738088628532e-02 1.045185845446e-01 0.0 
1.365044056985e-02 2.546706204123e-02 0.0 
1.523762690702e-02 9.588824412939e-02 0.0 
1.005330907501e-02 9.545745624748e-02 0.0 
9.093154419780e-03 1.018711873232e-01 0.0 
6.975228785286e-04 7.167044917651e-02 0.0 
-1.281913097928e-03 5.184294557969e-02 0.0 
7.196807718678e-03 5.273065402903e-02 0.0 
2.085060504346e-02 6.736494251586e-02 0.0 
2.079504078398e-02 7.477148307619e-02 0.0 
6.546185630313e-03 4.089311147306e-02 0.0 
3.138666597238e-03 3.542747085430e-02 0.0 
2.680631665577e-03 6.987034962843e-02 0.0 
2.296481539126e-03 5.536492610195e-02 0.0 
4.742316474733e-04 5.258463057660e-02 0.0 
3.590253905554e-04 5.152228851399e-02 0.0 
6.019386430609e-03 2.432519455039e-02 0.0 
-7.057564157726e-04 5.791149080857e-02 0.0 
2.641293917492e-03 4.867253825140e-02 0.0 
1.042480619921e-02 3.337869186247e-02 0.0 
1.116056054221e-02 3.703513707318e-02 0.0 
9.901203492912e-05 5.774150330573e-02 0.0 
1.584404971469e-02 6.984995201269e-02 0.0 
1.337149113702e-02 6.220246932404e-02 0.0 
2.787434116296e-03 4.908184588397e-02 0.0 
-4.199869594856e-04 5.694773133953e-02 0.0 
1.765880184927e-04 7.018272116535e-02 0.0 
4.722515080589e-03 1.885150785331e-02 0.0 
7.304906667898e-03 4.593260657073e-02 0.0 
1.986836878176e-02 3.621685325247e-02 0.0 
2.271711212401e-02 4.329823100936e-02 0.0 
1.639614327512e-02 2.863037706359e-02 0.0 
-3.072665912001e-04 5.874008522089e-02 0.0 
3.442298796710e-03 1.962677317734e-02 0.0 
2.934400549757e-04 3.082898013592e-02 0.0 
1.709458233399e-02 3.204503638042e-02 0.0 
1.875252986558e-02 3.734528371397e-02 0.0 
2.295656085406e-02 7.248230697514e-02 0.0 
2.278929056652e-02 8.028929088015e-02 0.0 
1.999315982605e-02 8.331116256381e-02 0.0 
2.186642291171e-02 8.899771305413e-02 0.0 
2.441006311735e-02 1.015253173963e-01 0.0 
2.482877536385e-02 7.708414696478e-02 0.0 
2.803891808454e-02 9.822226055643e-02 0.0 
2.694719979013e-02 1.067692306987e-01 0.0 
2.773909073960e-02 1.080780521307e-01 0.0 
2.903138862048e-02 9.755563060314e-02 0.0 
2.801142759610e-02 1.066240226435e-01 0.0 
2.161461459734e-02 5.999428032525e-02 0.0 
2.071858528696e-02 4.636054055309e-02 0.0 
6.124411585038e-04 5.338487749361e-02 0.0 
1.323215812273e-03 4.310589449469e-02 0.0 
5.765405238861e-03 4.144429268924e-02 0.0 
5.457510671732e-03 5.149439360217e-02 0.0 
4.131067781465e-03 4.337112396375e-02 0.0 
6.936213234248e-03 1.007719438259e-01 0.0 
6.040197204563e-03 1.069425366948e-01 0.0 
4.998867856258e-04 6.686693718825e-02 0.0 
6.214477778990e-04 6.564814881482e-02 0.0 
2.764732131952e-03 4.580600740130e-02 0.0 
3.266921909320e-03 2.291478718292e-02 0.0 
9.230905424559e-03 4.688401045632e-02 0.0 
9.043537217011e-03 4.001682606392e-02 0.0 
1.133761597301e-02 4.742738690927e-02 0.0 
6.214822959898e-03 2.137079952296e-02 0.0 
1.587306382612e-02 4.944341111108e-02 0.0 
1.507036790689e-02 4.091072456210e-02 0.0 
2.254739078953e-03 3.603952322746e-02 0.0 
2.665608285901e-02 5.601403595634e-02 0.0 
1.293990069805e-03 6.793362206052e-02 0.0 
2.435428139894e-02 6.029071627027e-02 0.0 
2.377059798175e-04 2.489274108274e-02 0.0 
3.022972116979e-04 2.125566599311e-02 0.0 
1.269985420593e-02 2.256952359068e-02 0.0 
2.255544490735e-02 1.210029161613e-01 0.0 
2.498753354202e-02 5.061510135796e-02 0.0 
2.461264690937e-02 5.088925200309e-02 0.0 
2.625379100088e-02 1.169716795444e-01 0.0 
2.668667735546e-02 1.176476537050e-01 0.0 
2.818198739173e-02 1.085147496438e-01 0.0 
2.675297347627e-02 1.174931638063e-01 0.0 
2.348983819536e-03 5.063141590161e-02 0.0 
1.034763785421e-03 5.307906932979e-02 0.0 
1.468221074013e-02 2.594886614617e-02 0.0 
1.480201018672e-02 2.542656623708e-02 0.0 
1.476458383470e-02 2.787557470335e-02 0.0 
1.635245720281e-02 3.289606730269e-02 0.0 
1.032805311717e-02 1.878483863533e-02 0.0 
1.132995042927e-02 2.189867044465e-02 0.0 
4.229377649434e-05 6.820254243382e-02 0.0 
2.586718629460e-02 1.139773982924e-01 0.0 
5.568258384351e-03 3.792677248592e-02 0.0 
2.547942891117e-02 1.154295029305e-01 0.0 
2.469427534235e-03 1.728508438018e-02 0.0 
2.369895350022e-03 2.060319176666e-02 0.0 
4.584223720734e-04 3.198346578612e-02 0.0 
-3.645690203946e-04 3.531231172478e-02 0.0 
1.809226147486e-03 4.075720243263e-02 0.0 
1.842785014868e-02 9.263570365410e-02 0.0 
2.018608967190e-02 9.834014381498e-02 0.0 
1.656453838114e-02 8.609857327017e-02 0.0 
2.177543376580e-05 1.123613159036e-02 0.0 
1.607391997133e-03 1.318943443214e-01 0.0 
1.674877776527e-04 1.852167223115e-02 0.0 
2.932057472461e-02 9.899759660651e-02 0.0 
1.949344838948e-03 3.334441146045e-02 0.0 
2.311964634413e-02 4.579104577710e-02 0.0 
2.779183157509e-02 7.663810688380e-02 0.0 
7.599446481576e-03 2.658584495487e-02 0.0 
1.469678051393e-03 4.874155232185e-02 0.0 
1.088459793273e-03 3.210182441589e-02 0.0 
1.036306156309e-02 1.088590841079e-01 0.0 
9.306562253023e-03 1.153285620954e-01 0.0 
1.147380689004e-02 1.026293270756e-01 0.0 
1.017560149823e-02 4.787979707666e-02 0.0 
6.649712857314e-03 4.596737446355e-02 0.0 
3.947999612180e-03 5.012234954712e-02 0.0 
-1.798800351693e-05 6.424736402943e-02 0.0 
-1.596642041291e-05 6.357062784793e-02 0.0 
-4.275017215996e-04 6.002085560046e-02 0.0 
-2.297360520718e-04 5.875632746418e-02 0.0 
7.956207965476e-04 4.985147484499e-02 0.0 
1.024689837158e-03 5.065318032456e-02 0.0 
2.351601708757e-02 5.351877991989e-02 0.0 
2.158396469913e-02 4.994650701717e-02 0.0 
2.644959013610e-02 5.893552043384e-02 0.0 
9.395665412447e-03 3.532873740158e-02 0.0 
9.814419135516e-03 3.866818758142e-02 0.0 
1.156783275073e-02 4.007156189223e-02 0.0 
4.205042492401e-03 3.704886481057e-02 0.0 
2.808061274386e-03 2.750403621949e-02 0.0 
4.068847881957e-03 4.859735525719e-02 0.0 
4.849273620831e-03 4.745155000423e-02 0.0 
1.969718958604e-03 5.194314031325e-02 0.0 
5.349708355716e-03 3.135428903555e-02 0.0 
2.040870191178e-04 1.486034193681e-02 0.0 
3.573944820197e-04 1.775773965845e-02 0.0 
1.630694348439e-03 6.656955605595e-02 0.0 
7.018418074267e-04 6.402599043383e-02 0.0 
1.216809405522e-02 7.087735694507e-02 0.0 
9.402992800560e-03 6.231865247015e-02 0.0 
8.691184247752e-03 3.371057359685e-02 0.0 
1.105160234952e-02 4.062462296828e-02 0.0 
6.211104207246e-03 2.549638054039e-02 0.0 
8.756235216256e-05 6.991776964217e-02 0.0 
2.067776302209e-02 3.839486948861e-02 0.0 
4.726437437716e-03 1.586568625659e-02 0.0 
6.323419449291e-03 1.861671047897e-02 0.0 
3.162800300551e-03 1.236370532634e-02 0.0 
1.516526517873e-02 2.679979669178e-02 0.0 
1.142303360319e-02 1.956966383777e-02 0.0 
1.224813133168e-02 2.055861876119e-02 0.0 
5.217764108849e-04 3.138918680901e-02 0.0 
8.188025466396e-04 3.836734137192e-02 0.0 
7.139417263566e-03 1.142691858686e-01 0.0 
-7.530192911887e-04 2.843870025841e-02 0.0 
6.149863740404e-03 1.207182107165e-01 0.0 
5.159822343806e-03 1.130909843168e-01 0.0 
5.308341132768e-03 1.269866138302e-01 0.0 
2.100733122927e-04 7.157712141914e-02 0.0 
1.168896773530e-02 1.180222078134e-01 0.0 
1.297536343314e-02 1.100625011743e-01 0.0 
2.292744089440e-03 6.488435209266e-02 0.0 
3.628455774390e-03 2.332454618316e-02 0.0 
2.329377984688e-03 6.848057362644e-02 0.0 
1.827844917172e-03 6.965274480186e-02 0.0 
1.681058376906e-03 1.458643420795e-02 0.0 
1.647010601038e-03 1.812241944263e-02 0.0 
1.057925228217e-03 1.188559189311e-02 0.0 
1.109632202620e-03 1.583271330900e-02 0.0 
1.535062437534e-03 2.171837088994e-02 0.0 
1.030350643705e-03 1.924532836263e-02 0.0 
8.313872634588e-03 1.225589052227e-01 0.0 
6.510037961380e-04 1.214519115931e-02 0.0 
6.444236581400e-04 1.647271418003e-02 0.0 
3.484451962059e-04 9.445674491147e-03 0.0 
2.477819855103e-02 1.271860542842e-01 0.0 
2.341513802464e-02 9.401707420284e-02 0.0 
2.170611582781e-02 1.036248545162e-01 0.0 
1.763588769644e-02 1.088214383481e-01 0.0 
1.108837948723e-02 2.085563676258e-02 0.0 
1.388945500867e-02 2.840148970284e-02 0.0 
1.663440327671e-04 2.828488862155e-02 0.0 
1.869795954872e-04 3.403217089077e-02 0.0 
4.253026399518e-03 1.201160043555e-01 0.0 
3.108873178022e-03 1.206536447942e-01 0.0 
3.403439106428e-03 1.085441445084e-01 0.0 
2.456153590380e-03 1.100215932303e-01 0.0 
2.649088615620e-03 9.785964841064e-02 0.0 
1.704770075072e-03 9.942046779686e-02 0.0 
2.025407259865e-03 8.697855441253e-02 0.0 
1.019327272098e-02 1.680345261959e-02 0.0 
1.408399466261e-02 9.550482279634e-02 0.0 
2.433953098842e-02 1.261010528065e-01 0.0 
8.002449116802e-03 1.518191762869e-02 0.0 
9.361859259979e-03 1.908335991318e-02 0.0 
2.651301255252e-02 1.160712258894e-01 0.0 
2.377530220083e-02 1.240511947473e-01 0.0 
2.227053619709e-03 1.284458223346e-02 0.0 
2.454466727988e-02 6.992365577306e-02 0.0 
2.735615378612e-03 1.482919350986e-02 0.0 
-4.837315140477e-03 4.163171996773e-02 0.0 
1.274955396042e-03 4.092748682329e-02 0.0 
2.627695132182e-02 7.363996387942e-02 0.0 
2.827636232186e-02 1.080448547205e-01 0.0 
2.497205552695e-02 9.832667478291e-02 0.0 
2.353417918616e-02 1.079415022605e-01 0.0 
8.666847597983e-03 3.134489085165e-02 0.0 
8.688287245615e-04 6.197357806592e-02 0.0 
1.452056015030e-02 7.882110614023e-02 0.0 
2.950225085804e-03 8.558031584461e-02 0.0 
9.844473980383e-03 8.010709432857e-02 0.0 
8.166407217514e-05 3.102813436336e-02 0.0 
2.378849678501e-02 6.363608127796e-02 0.0 
2.989241744629e-02 9.040316415816e-02 0.0 
1.802380294619e-02 7.686139556319e-02 0.0 
2.468376280831e-02 8.514507147750e-02 0.0 
2.551543029255e-02 9.349455552740e-02 0.0 
2.300373935225e-02 1.094445045483e-01 0.0 
2.429830162741e-02 1.130688143664e-01 0.0 
2.255439300108e-02 5.833632267751e-02 0.0 
2.488405668377e-02 1.112997652349e-01 0.0 
2.130145097393e-02 1.184727018797e-01 0.0 
2.872703322666e-02 8.991837462974e-02 0.0 
1.368938378943e-02 5.445125500804e-02 0.0 
1.352893787987e-02 4.745227370908e-02 0.0 
1.052703793786e-02 3.426364562632e-02 0.0 
1.305527581976e-02 4.066954555047e-02 0.0 
1.602205160878e-02 5.391805580275e-02 0.0 
1.566381146444e-02 4.697165248632e-02 0.0 
1.225176010208e-02 3.419482291933e-02 0.0 
1.496075268628e-02 4.022722779883e-02 0.0 
1.018862082883e-02 2.524959655431e-02 0.0 
1.377606377273e-02 3.344299634807e-02 0.0 
1.761934517315e-02 4.608498270839e-02 0.0 
1.668732154263e-02 3.972939415731e-02 0.0 
1.285955053826e-02 2.870628500020e-02 0.0 
2.022806509483e-02 5.201529222292e-02 0.0 
6.574614823407e-03 1.172505559187e-02 0.0 
2.718508294029e-02 6.970062702436e-02 0.0 
3.363493865312e-03 3.751873223204e-02 0.0 
4.241268913589e-03 5.087021996527e-02 0.0 
2.986336336108e-02 9.103891519858e-02 0.0 
5.061130058607e-03 1.234281708227e-02 0.0 
4.268542198965e-03 1.266802207981e-02 0.0 
2.023267050123e-02 6.112098924131e-02 0.0 
5.631253405610e-03 9.788520922996e-03 0.0 
2.579133763177e-02 1.046447765169e-01 0.0 
1.262986859001e-02 4.992353233268e-02 0.0 
5.588450067439e-03 9.078440819259e-03 0.0 
1.604266568359e-02 6.096271769772e-02 0.0 
1.835775539396e-02 6.726022826281e-02 0.0 
1.792697590422e-02 7.445110356266e-02 0.0 
3.330429066402e-03 1.214579595158e-02 0.0 
1.255914726143e-02 9.609966871401e-02 0.0 
4.445118109334e-03 7.224769846758e-03 0.0 
1.977009271586e-02 4.265188674019e-02 0.0 
2.189689439005e-02 4.646668244588e-02 0.0 
2.272154413046e-02 5.023924177379e-02 0.0 
1.824030682064e-02 5.313245841374e-02 0.0 
3.286074626480e-03 6.728118220479e-03 0.0 
5.717590235669e-03 1.255135451830e-02 0.0 
4.996450173302e-03 1.230317458886e-02 0.0 
7.702831509299e-03 1.822451293360e-02 0.0 
2.489826143330e-03 6.449275459964e-03 0.0 
5.064617312982e-03 1.047661989452e-02 0.0 
4.985991744846e-03 9.630192535095e-03 0.0 
3.344803872848e-03 4.732794415291e-02 0.0 
5.793567568405e-03 4.630761778651e-02 0.0 
7.236042036945e-03 4.647139159382e-02 0.0 
8.519653408833e-03 4.606375864987e-02 0.0 
6.919763525286e-03 4.533049389781e-02 0.0 
9.947251339273e-03 4.605602480675e-02 0.0 
1.133810207283e-02 4.652404907502e-02 0.0 
1.150048017191e-02 4.671736778763e-02 0.0 
1.801453976203e-02 3.913273389693e-02 0.0 
1.725164210429e-03 6.080479009881e-03 0.0 
5.776305619825e-03 3.816744959911e-02 0.0 
7.028187395711e-03 3.929477800233e-02 0.0 
6.942900363230e-03 4.218564358153e-02 0.0 
7.719085597016e-04 5.391615552636e-02 0.0 
1.290297926263e-03 5.120242091043e-02 0.0 
1.559622360862e-03 4.787702622962e-02 0.0 
3.993867162739e-04 5.659045792236e-02 0.0 
2.453776666275e-02 4.858000828365e-02 0.0 
1.409309105373e-03 6.095605771385e-03 0.0 
1.307002910555e-02 3.885496839927e-02 0.0 
1.595459829904e-03 5.147617798967e-02 0.0 
1.518635591589e-02 1.292914362008e-01 0.0 
1.626018092801e-02 1.176421086028e-01 0.0 
1.787173128485e-02 1.160559811750e-01 0.0 
1.699885713207e-02 1.039726640436e-01 0.0 
1.448820698404e-02 1.172485191247e-01 0.0 
6.038470335916e-04 4.878269679570e-02 0.0 
4.452001116877e-04 4.746953517286e-02 0.0 
2.615905263634e-04 5.021824590741e-02 0.0 
3.142534127347e-04 4.592634853417e-02 0.0 
1.769028236662e-04 4.867300088739e-02 0.0 
1.363125883929e-04 5.272157078416e-02 0.0 
2.023647384410e-04 4.417315742909e-02 0.0 
9.836264001795e-05 4.742926677470e-02 0.0 
1.225298105303e-02 1.308124587397e-01 0.0 
8.549390429415e-04 3.797225799570e-02 0.0 
-8.038114935172e-04 4.219089083916e-02 0.0 
2.791846935004e-04 4.883878430605e-02 0.0 
-1.428693588363e-03 4.579867753822e-02 0.0 
-1.485351302568e-03 4.034026643404e-02 0.0 
-1.324892537875e-03 4.424191928842e-02 0.0 
-5.055710628028e-04 4.003285714069e-02 0.0 
-1.376720452118e-03 3.540993651796e-02 0.0 
3.558999203815e-03 5.205648404776e-02 0.0 
1.151284119823e-03 5.417001756446e-02 0.0 
4.135959105241e-03 5.691009054158e-02 0.0 
1.885476028527e-03 5.846347889363e-02 0.0 
-3.060440219453e-04 5.582620330364e-02 0.0 
-1.789777834027e-05 6.297401180415e-02 0.0 
8.479870023548e-05 7.461016139203e-03 0.0 
1.564156850609e-05 5.860169323693e-02 0.0 
1.786720651475e-05 6.013505282397e-02 0.0 
-1.135677464070e-05 6.318942462387e-02 0.0 
9.780554695915e-06 6.120415790003e-02 0.0 
4.518188692271e-05 5.696693162635e-02 0.0 
-7.943950877998e-06 6.494175525397e-02 0.0 
-9.408509236586e-06 6.568508345146e-02 0.0 
1.564041382266e-03 7.411717673314e-02 0.0 
9.231925686621e-04 7.421992811849e-02 0.0 
4.551131991509e-04 7.461198579955e-02 0.0 
4.837157766302e-04 7.391089767532e-02 0.0 
7.981665935120e-04 7.349286490852e-02 0.0 
1.357674242865e-03 7.366569685117e-02 0.0 
1.763507637596e-03 7.291641160510e-02 0.0 
2.677830644360e-03 7.263447354552e-02 0.0 
2.102994683029e-03 7.197103475702e-02 0.0 
1.286138415584e-03 7.197896592611e-02 0.0 
3.179692635665e-03 7.161477681810e-02 0.0 
6.517638347674e-04 6.833945588700e-02 0.0 
1.243243289963e-03 6.113596884903e-02 0.0 
9.578923415834e-04 6.478729173963e-03 0.0 
9.539872555841e-03 1.304182508973e-01 0.0 
4.390850590081e-03 6.388280915082e-02 0.0 
1.018736481733e-03 1.613272110596e-02 0.0 
1.570530068776e-03 1.333856860069e-02 0.0 
1.263282374097e-03 1.294294269286e-02 0.0 
4.534595683880e-05 1.836196298687e-02 0.0 
7.407273958027e-05 1.504368548409e-02 0.0 
5.494280994398e-04 1.569828201070e-02 0.0 
-3.518434419902e-05 6.115712527511e-02 0.0 
9.687344512933e-03 2.815743246697e-02 0.0 
2.868757887263e-03 4.189767205258e-02 0.0 
1.344349355165e-02 5.510794639130e-02 0.0 
1.766764437559e-04 5.582826719261e-02 0.0 
3.206556783848e-04 3.629711018617e-02 0.0 
1.793049149212e-03 4.012793796484e-02 0.0 
4.989796546813e-04 2.389719146229e-02 0.0 
7.157058746268e-04 4.015185076015e-02 0.0 
1.132448533499e-03 2.852536105303e-02 0.0 
4.386936547958e-03 1.251069944126e-02 0.0 
4.035141591601e-04 7.168112166571e-02 0.0 
7.808040369170e-03 9.447553678584e-02 0.0 
5.005603931139e-03 9.954512588695e-02 0.0 
4.745731311012e-03 6.483018727131e-02 0.0 
-2.162256781535e-05 6.438772279143e-02 0.0 
1.940523678865e-04 5.394077916079e-02 0.0 
3.779314476082e-04 6.772047059173e-02 0.0 
1.016918225477e-02 1.745386155189e-02 0.0 
2.880888566223e-02 9.939771776713e-02 0.0 
5.499699413022e-03 4.422608510262e-02 0.0 
4.878373643358e-04 5.684754027750e-02 0.0 
2.276241465680e-04 5.842164443615e-02 0.0 
9.666617066095e-05 5.397944947353e-02 0.0 
2.837651288564e-02 7.198104621758e-02 0.0 
2.420062405321e-03 4.881911516391e-02 0.0 
3.417925173549e-03 3.114692692618e-02 0.0 
3.629628121473e-03 5.681623542745e-02 0.0 
3.799675358588e-03 6.865192583620e-02 0.0 
3.926710615964e-03 2.813810279351e-02 0.0 
2.961260988382e-03 4.236828952392e-02 0.0 
1.097603963622e-02 8.889722874864e-02 0.0 
1.424335993630e-02 3.017504122952e-02 0.0 
-1.215742855855e-03 4.843471340465e-02 0.0 
6.918295886848e-03 5.948616881115e-02 0.0 
6.979664527094e-03 3.317137879042e-02 0.0 
1.410035970524e-02 1.029652709275e-01 0.0 
9.801382638859e-04 6.898832217930e-02 0.0 
8.139352750263e-03 1.083324659350e-01 0.0 
3.440081710675e-03 1.624604991880e-02 0.0 
1.354397557743e-02 6.144348512649e-02 0.0 
1.831028124233e-05 6.657333232099e-02 0.0 
1.538588219035e-02 4.352354533521e-02 0.0 
3.000106707291e-02 8.234462348772e-02 0.0 
2.139214068274e-02 1.323168286177e-01 0.0 
2.979312397841e-03 3.562376018649e-02 0.0 
2.563404074158e-02 5.556002460091e-02 0.0 
9.956685984193e-03 2.421300647212e-02 0.0 
1.436735898437e-02 3.766808530473e-02 0.0 
-3.319433568016e-06 6.629559574004e-02 0.0 
2.172031662745e-03 2.398450659721e-02 0.0 
2.120870952479e-02 4.946259962509e-02 0.0 
5.614630251017e-03 4.482418959893e-02 0.0 
2.395299014489e-02 5.018697097491e-02 0.0 
1.674561434795e-02 4.888798569530e-02 0.0 
9.169092025338e-03 5.372219749207e-02 0.0 
8.257852606333e-03 4.285194568615e-02 0.0 
1.415972211307e-02 2.798619973467e-02 0.0 
2.924716058719e-02 9.960265487550e-02 0.0 
2.828412224249e-02 6.724147282738e-02 0.0 
2.481082345194e-02 6.734962167650e-02 0.0 
2.803409691689e-02 6.192098428339e-02 0.0 
1.865334407714e-04 3.942113970420e-02 0.0 
2.967178732126e-03 2.613905401265e-02 0.0 
4.218219667838e-03 3.967878121450e-02 0.0 
2.656804347254e-02 8.100864701846e-02 0.0 
1.353828549903e-02 8.918910403586e-02 0.0 
1.705730555425e-02 3.040646018727e-02 0.0 
3.990301438435e-03 2.978335087208e-02 0.0 
2.956876504789e-02 8.902638586210e-02 0.0 
1.902293264433e-03 2.732547577363e-02 0.0 
7.254617352949e-03 3.955632860833e-02 0.0 
1.957705932337e-03 4.848693941703e-02 0.0 
8.847679924273e-05 7.166746747126e-02 0.0 
1.052141551742e-02 5.413205131489e-02 0.0 
1.465012134256e-02 4.929074931760e-02 0.0 
2.455353015714e-02 5.467952119865e-02 0.0 
2.209021769037e-03 4.512225700100e-02 0.0 
7.625527148946e-03 2.558355260033e-02 0.0 
1.348659490084e-03 2.515542232370e-02 0.0 
7.049555252003e-03 2.922134291175e-02 0.0 
9.944560970467e-04 7.149600456545e-02 0.0 
2.363925454125e-02 1.238754545487e-01 0.0 
9.151174160467e-04 2.280202422953e-02 0.0 
1.343828748520e-02 4.165563867409e-02 0.0 
1.192433405239e-02 2.472791585121e-02 0.0 
8.194979661225e-05 5.131697364329e-02 0.0 
1.009653478378e-02 1.689666428071e-02 0.0 
2.459621926716e-02 1.257399526822e-01 0.0 
5.871330148759e-04 2.027386069063e-02 0.0 
9.350488675691e-03 2.906873240178e-02 0.0 
2.255408607048e-02 6.569031686970e-02 0.0 
2.665964257183e-03 1.319076618914e-01 0.0 
3.355502916138e-04 1.274484563662e-02 0.0 
7.891913551404e-03 2.387566202656e-02 0.0 
2.658106893579e-02 5.547164823338e-02 0.0 
1.162106991366e-02 4.249505363069e-02 0.0 
2.224937971938e-02 1.368469458811e-01 0.0 
1.730132835213e-03 4.421115462678e-02 0.0 
2.732833411504e-02 6.566467174071e-02 0.0 
2.895399640778e-03 1.197503438054e-02 0.0 
8.058250049173e-03 2.147380695038e-02 0.0 
2.004002864031e-02 8.053521465457e-02 0.0 
1.215386778499e-03 4.705766879384e-02 0.0 
2.103635043745e-02 4.130576694452e-02 0.0 
1.081406187541e-03 7.284998984073e-02 0.0 
2.472574116734e-02 1.270709824812e-01 0.0 
9.255190087023e-04 4.597820051458e-02 0.0 
1.297246025790e-02 4.749842793822e-02 0.0 
9.938057461520e-03 4.137982137992e-02 0.0 
9.079535456451e-03 1.570395149968e-02 0.0 
6.873451592888e-04 4.464899718886e-02 0.0 
1.411214146403e-02 4.752295348600e-02 0.0 
4.931518519253e-04 4.309264944935e-02 0.0 
2.201936131391e-02 1.367836522972e-01 0.0 
2.056389302832e-02 7.295271267714e-02 0.0 
3.298241211027e-04 4.133086520271e-02 0.0 
2.515895223097e-02 5.656655123122e-02 0.0 
1.406220212867e-03 7.081072750031e-02 0.0 
2.497647912454e-02 4.990769220066e-02 0.0 
1.231453606583e-04 2.182115389679e-02 0.0 
1.642064224841e-03 5.300706982633e-02 0.0 
8.413736947336e-03 4.036934592355e-02 0.0 
1.846378684262e-02 6.010410079762e-02 0.0 
2.017986429400e-02 1.335349494387e-01 0.0 
8.264550973331e-03 3.728502148148e-02 0.0 
2.232423686387e-02 4.716660730527e-02 0.0 
2.314058203033e-02 4.483581483618e-02 0.0 
2.386223062406e-02 5.074766383209e-02 0.0 
7.806186754184e-03 3.357065541759e-02 0.0 
2.288624203203e-02 1.211917995293e-01 0.0 
-1.200154849084e-04 6.027360287464e-02 0.0 
-2.399201209506e-04 6.168968992543e-02 0.0 
1.237260493108e-02 4.628321925991e-02 0.0 
2.031889872284e-02 4.344110064298e-02 0.0 
4.431203746429e-04 7.288726812015e-02 0.0 
2.066263990456e-02 5.862066986407e-02 0.0 
-1.534550172035e-04 6.111984981094e-02 0.0 
9.789841078415e-03 4.611432275303e-02 0.0 
1.827765261723e-02 3.340149287036e-02 0.0 
7.733170195507e-04 9.595826398612e-02 0.0 
8.370429112912e-03 4.606538910094e-02 0.0 
3.114549992378e-05 6.979148867212e-02 0.0 
6.117806986436e-03 4.707031577107e-02 0.0 
2.268546379549e-02 4.627007532394e-02 0.0 
5.150000737794e-03 4.770698558312e-02 0.0 
3.407507335970e-03 4.963172879428e-02 0.0 
1.995122887195e-03 2.734234601754e-02 0.0 
2.844904607546e-03 5.048464747329e-02 0.0 
2.704527250188e-04 1.301500777626e-02 0.0 
2.540405765372e-05 6.834100996812e-03 0.0 
1.006531273852e-03 1.222271613150e-01 0.0 
1.669727589839e-02 1.284939447694e-01 0.0 
-2.464145173640e-03 2.680952684606e-02 0.0 
2.026324750083e-02 1.122281414589e-01 0.0 
9.031982978964e-04 5.451871348744e-02 0.0 
2.244606022559e-02 5.659516733005e-02 0.0 
2.091577480606e-03 1.216357745645e-01 0.0 
2.084228854429e-04 5.733377689517e-02 0.0 
9.523011715537e-03 2.138116086797e-02 0.0 
4.907768818398e-03 7.762036320091e-03 0.0 
1.401421205891e-03 7.469741548229e-02 0.0 
9.928097606394e-03 2.193716182429e-02 0.0 
2.102658333959e-02 3.997208706881e-02 0.0 
4.050098976265e-04 3.986619203609e-02 0.0 
6.154584482957e-03 1.328734508204e-01 0.0 
2.405637787296e-03 6.199154391591e-02 0.0 
8.930613811953e-05 3.672389504461e-02 0.0 
1.312802798299e-02 1.187168511810e-01 0.0 
1.574901809861e-02 1.021920451626e-01 0.0 
1.192756075409e-02 8.816694657247e-02 0.0 
-9.949083763505e-06 6.599076306906e-02 0.0 
-7.418258403877e-04 5.119287337687e-02 0.0 
1.053262073869e-02 1.055114492399e-01 0.0 
6.532397664330e-03 1.323327893980e-02 0.0 
1.038061588502e-02 1.209776597874e-01 0.0 
1.773744118529e-02 3.165969196268e-02 0.0 
6.275926005941e-03 9.014389678090e-02 0.0 
5.035994113463e-03 2.577967959921e-02 0.0 
9.285821650856e-03 1.533177422691e-02 0.0 
5.021681387536e-04 5.783129154530e-03 0.0 
1.390476940939e-02 2.387561845664e-02 0.0 
7.151904500219e-03 7.109389271699e-02 0.0 
1.548749718512e-02 1.076840624146e-01 0.0 
1.015201294639e-02 1.805401077505e-02 0.0 
1.903007890007e-03 6.320850850668e-02 0.0 
2.555532318853e-04 5.617285915470e-03 0.0 
1.305479373590e-02 1.213654677832e-01 0.0 
1.208547665236e-03 2.555004838711e-02 0.0 
1.424059812717e-03 3.854058514008e-02 0.0 
6.095465252400e-04 2.481304238835e-02 0.0 
1.928235138278e-02 4.530926036195e-02 0.0 
4.290953153074e-03 1.057280944654e-01 0.0 
1.862056332528e-02 1.058224093103e-01 0.0 
9.573302034616e-05 1.180059956674e-02 0.0 
8.590168001589e-03 2.282017540620e-02 0.0 
4.295207096138e-03 6.020136805219e-02 0.0 
2.198473635460e-03 7.613323610800e-02 0.0 
4.124648206538e-05 6.062256934177e-02 0.0 
-9.554817282940e-04 3.028183387743e-02 0.0 
1.648115023245e-03 1.179330889656e-02 0.0 
1.552811175663e-02 3.415669726691e-02 0.0 
2.169590493963e-04 1.195084128449e-02 0.0 
2.248669719076e-04 7.415344694730e-02 0.0 
2.868216946952e-03 6.718524350888e-02 0.0 
2.307669957863e-03 1.086314873051e-02 0.0 
9.398266884141e-03 1.845157749258e-02 0.0 
4.559839774565e-04 4.270921440244e-02 0.0 
1.685497904063e-03 1.038018575757e-02 0.0 
-2.108663275315e-04 5.008767246731e-02 0.0 
8.358779723977e-03 1.340831710432e-01 0.0 
2.444844886281e-03 7.095140486419e-02 0.0 
1.582264490469e-04 5.729892325906e-03 0.0 
2.949366910585e-03 2.432801279632e-02 0.0 
5.301474603936e-05 5.832405137189e-02 0.0 
1.827431984326e-02 1.253243831691e-01 0.0 
2.041508218942e-05 6.803844674069e-02 0.0 
1.339339418341e-02 2.292994776272e-02 0.0 
7.267988461415e-04 5.950895274722e-02 0.0 
1.996094616516e-03 2.304947662751e-02 0.0 
3.271166428583e-03 1.066533164401e-02 0.0 
6.061462694618e-03 2.196149802118e-02 0.0 
2.967542063040e-03 5.237779489399e-03 0.0 
-2.277245597035e-04 3.309945506081e-02 0.0 
8.380396497472e-03 1.364539203358e-02 0.0 
6.310006466009e-03 1.662553523989e-02 0.0 
4.634162627951e-03 1.334192653127e-01 0.0 
7.565137668649e-03 2.293236378037e-02 0.0 
-1.201744061463e-05 6.385625159553e-02 0.0 
8.743308457033e-04 7.094751113857e-02 0.0 
1.158654835294e-04 1.153507060741e-02 0.0 
4.963908435682e-04 7.470076154423e-02 0.0 
7.822098942185e-04 1.333474813065e-01 0.0 
1.144948795095e-05 5.583954305138e-03 0.0 
6.701815003893e-04 7.261833621466e-02 0.0 
1.662016818074e-03 1.126323398332e-01 0.0 
8.821281361911e-03 1.835987177872e-02 0.0 
3.301380237719e-05 5.071513730969e-02 0.0 
9.405410144083e-04 4.957416079749e-02 0.0 
-1.441568520896e-03 4.848005676688e-02 0.0 
-9.816427741356e-04 2.519173359258e-02 0.0 
1.337013311868e-03 8.906098849938e-02 0.0 
7.940588876711e-03 1.330908052569e-02 0.0 
4.707222067651e-03 2.141809174145e-02 0.0 
3.446369345191e-03 9.834496656776e-02 0.0 
7.612424973082e-03 5.481741016800e-02 0.0 
1.221170484964e-02 2.565927358005e-02 0.0 
9.876683509535e-05 5.554558935101e-02 0.0 
1.351152082964e-02 2.440016105552e-02 0.0 
7.995084860585e-03 1.731473784970e-02 0.0 
-5.425241132656e-03 5.196101739726e-02 0.0 
4.349071556775e-05 4.636935604130e-02 0.0 
2.755631761374e-03 6.976981996883e-02 0.0 
7.691553324332e-04 1.067698541571e-02 0.0 
7.083711252731e-05 5.409867356092e-02 0.0 
1.803293654238e-02 1.496640133754e-01 0.0 
5.357228132183e-04 1.605735154549e-01 0.0 
1.801338522203e-02 1.427167181267e-01 0.0 
5.338169478009e-04 1.486364166709e-01 0.0 

VECTORS node_bounda_dof_materi_velocity_x float
1.000000000000e+00 0.0 0.0 
1.000000000000e+00 0.0 0.0 
1.000000000000e+00 0.0 0.0 
1.000000000000e+00 0.0 0.0 
1.000000000000e+00 0.0 0.0 
1.000000000000e+00 0.0 0.0 
1.000000000000e+00 0.0 0.0 
1.000000000000e+00 0.0 0.0 
1.000000000000e+00 0.0 0.0 
1.000000000000e+00 0.0 0.0 
1.000000000000e+00 0.0 0.0 
1.000000000000e+00 0.0 0.0 
1.000000000000e+00 0.0 0.0 
1.000000000000e+00 0.0 0.0 
1.000000000000e+00 0.0 0.0 
1.000000000000e+00 0.0 0.0 
1.000000000000e+00 0.0 0.0 
1.000000000000e+00 0.0 0.0 
1.000000000000e+00 0.0 0.0 
1.000000000000e+00 0.0 0.0 
1.000000000000e+00 0.0 0.0 
1.000000000000e+00 0.0 0.0 
1.000000000000e+00 0.0 0.0 
1.000000000000e+00 0.0 0.0 
1.000000000000e+00 0.0 0.0 
1.000000000000e+00 0.0 0.0 
1.000000000000e+00 0.0 0.0 
1.000000000000e+00 0.0 0.0 
1.000000000000e+00 0.0 0.0 
1.000000000000e+00 0.0 0.0 
1.000000000000e+00 0.0 0.0 
1.000000000000e+00 0.0 0.0 
1.000000000000e+00 0.0 0.0 
1.000000000000e+00 0.0 0.0 
1.000000000000e+00 0.0 0.0 
1.000000000000e+00 0.0 0.0 
1.000000000000e+00 0.0 0.0 
1.000000000000e+00 0.0 0.0 
1.000000000000e+00 0.0 0.0 
1.000000000000e+00 0.0 0.0 
1.000000000000e+00 0.0 0.0 
1.000000000000e+00 0.0 0.0 
1.000000000000e+00 0.0 0.0 
1.000000000000e+00 0.0 0.0 
1.000000000000e+00 0.0 0.0 
1.000000000000e+00 0.0 0.0 
1.000000000000e+00 0.0 0.0 
1.000000000000e+00 0.0 0.0 
1.000000000000e+00 0.0 0.0 
1.000000000000e+00 0.0 0.0 
1.000000000000e+00 0.0 0.0 
1.000000000000e+00 0.0 0.0 
1.000000000000e+00 0.0 0.0 
1.000000000000e+00 0.0 0.0 
1.000000000000e+00 0.0 0.0 
1.000000000000e+00 0.0 0.0 
1.000000000000e+00 0.0 0.0 
1.000000000000e+00 0.0 0.0 
1.000000000000e+00 0.0 0.0 
1.000000000000e+00 0.0 0.0 
1.000000000000e+00 0.0 0.0 
1.000000000000e+00 0.0 0.0 
1.000000000000e+00 0.0 0.0 
1.000000000000e+00 0.0 0.0 
1.000000000000e+00 0.0 0.0 
1.000000000000e+00 0.0 0.0 
1.000000000000e+00 0.0 0.0 
1.000000000000e+00 0.0 0.0 
1.000000000000e+00 0.0 0.0 
1.000000000000e+00 0.0 0.0 
1.000000000000e+00 0.0 0.0 
1.000000000000e+00 0.0 0.0 
1.000000000000e+00 0.0 0.0 
1.000000000000e+00 0.0 0.0 
1.000000000000e+00 0.0 0.0 
1.000000000000e+00 0.0 0.0 
1.000000000000e+00 0.0 0.0 
1.000000000000e+00 0.0 0.0 
1.000000000000e+00 0.0 0.0 
1.000000000000e+00 0.0 0.0 
1.000000000000e+00 0.0 0.0 
0.0 0.0 0.0 
0.0 0.0 0.0 
0.0 0.0 0.0 
0.0 0.0 0.0 
0.0 0.0 0.0 
0.0 0.0 0.0 
0.0 0.0 0.0 
0.0 0.0 0.0 
0.0 0.0 0.0 
0.0 0.0 0.0 
0.0 0.0 0.0 
1.000000000000e+00 0.0 0.0 
1.000000000000e+00 0.0 0.0 
0.0 0.0 0.0 
0.0 0.0 0.0 
0.0 0.0 0.0 
0.0 0.0 0.0 
0.0 0.0 0.0 
0.0 0.0 0.0 
0.0 0.0 0.0 
0.0 0.0 0.0 
0.0 0.0 0.0 
0.0 0.0 0.0 
0.0 0.0 0.0 
0.0 0.0 0.0 
0.0 0.0 0.0 
0.0 0.0 0.0 
0.0 0.0 0.0 
0.0 0.0 0.0 
0.0 0.0 0.0 
0.0 0.0 0.0 
0.0 0.0 0.0 
0.0 0.0 0.0 
0.0 0.0 0.0 
0.0 0.0 0.0 
0.0 0.0 0.0 
0.0 0.0 0.0 
0.0 0.0 0.0 
0.0 0.0 0.0 
0.0 0.0 0.0 
0.0 0.0 0.0 
0.0 0.0 0.0 
0.0 0.0 0.0 
0.0 0.0 0.0 
0.0 0.0 0.0 
0.0 0.0 0.0 
0.0 0.0 0.0 
0.0 0.0 0.0 
0.0 0.0 0.0 
0.0 0.0 0.0 
0.0 0.0 0.0 
0.0 0.0 0.0 
0.0 0.0 0.0 
0.0 0.0 0.0 
0.0 0.0 0.0 
0.0 0.0 0.0 
0.0 0.0 0.0 
0.0 0.0 0.0 
0.0 0.0 0.0 
0.0 0.0 0.0 
0.0 0.0 0.0 
0.0 0.0 0.0 
0.0 0.0 0.0 
0.0 0.0 0.0 
0.0 0.0 0.0 
0.0 0.0 0.0 
0.0 0.0 0.0 
0.0 0.0 0.0 
0.0 0.0 0.0 
0.0 0.0 0.0 
0.0 0.0 0.0 
0.0 0.0 0.0 
0.0 0.0 0.0 
0.0 0.0 0.0 
0.0 0.0 0.0 
0.0 0.0 0.0 
0.0 0.0 0.0 
0.0 0.0 0.0 
0.0 0.0 0.0 
0.0 0.0 0.0 
0.0 0.0 0.0 
0.0 0.0 0.0 
0.0 0.0 0.0 
0.0 0.0 0.0 
0.0 0.0 0.0 
0.0 0.0 0.0 
0.0 0.0 0.0 
0.0 0.0 0.0 
0.0 0.0 0.0 
0.0 0.0 0.0 
0.0 0.0 0.0 
0.0 0.0 0.0 
0.0 0.0 0.0 
0.0 0.0 0.0 
0.0 0.0 0.0 
0.0 0.0 0.0 
0.0 0.0 0.0 
0.0 0.0 0.0 
0.0 0.0 0.0 
0.0 0.0 0.0 
0.0 0.0 0.0 
0.0 0.0 0.0 
0.0 0.0 0.0 
0.0 0.0 0.0 
0.0 0.0 0.0 
0.0 0.0 0.0 
0.0 0.0 0.0 
0.0 0.0 0.0 
0.0 0.0 0.0 
0.0 0.0 0.0 
0.0 0.0 0.0 
0.0 0.0 0.0 
0.0 0.0 0.0 
0.0 0.0 0.0 
0.0 0.0 0.0 
0.0 0.0 0.0 
0.0 0.0 0.0 
0.0 0.0 0.0 
0.0 0.0 0.0 
0.0 0.0 0.0 
0.0 0.0 0.0 
0.0 0.0 0.0 
0.0 0.0 0.0 
0.0 0.0 0.0 
0.0 0.0 0.0 
0.0 0.0 0.0 
0.0 0.0 0.0 
0.0 0.0 0.0 
0.0 0.0 0.0 
0.0 0.0 0.0 
0.0 0.0 0.0 
0.0 0.0 0.0 
0.0 0.0 0.0 
0.0 0.0 0.0 
0.0 0.0 0.0 
0.0 0.0 0.0 
0.0 0.0 0.0 
0.0 0.0 0.0 
0.0 0.0 0.0 
0.0 0.0 0.0 
0.0 0.0 0.0 
0.0 0.0 0.0 
0.0 0.0 0.0 
0.0 0.0 0.0 
0.0 0.0 0.0 
0.0 0.0 0.0 
0.0 0.0 0.0 
0.0 0.0 0.0 
0.0 0.0 0.0 
0.0 0.0 0.0 
0.0 0.0 0.0 
0.0 0.0 0.0 
0.0 0.0 0.0 
0.0 0.0 0.0 
0.0 0.0 0.0 
0.0 0.0 0.0 
0.0 0.0 0.0 
0.0 0.0 0.0 
0.0 0.0 0.0 
0.0 0.0 0.0 
0.0 0.0 0.0 
0.0 0.0 0.0 
0.0 0.0 0.0 
0.0 0.0 0.0 
0.0 0.0 0.0 
0.0 0.0 0.0 
0.0 0.0 0.0 
0.0 0.0 0.0 
0.0 0.0 0.0 
0.0 0.0 0.0 
0.0 0.0 0.0 
0.0 0.0 0.0 
0.0 0.0 0.0 
0.0 0.0 0.0 
0.0 0.0 0.0 
0.0 0.0 0.0 
0.0 0.0 0.0 
0.0 0.0 0.0 
0.0 0.0 0.0 
0.0 0.0 0.0 
0.0 0.0 0.0 
0.0 0.0 0.0 
0.0 0.0 0.0 
0.0 0.0 0.0 
0.0 0.0 0.0 
0.0 0.0 0.0 
0.0 0.0 0.0 
0.0 0.0 0.0 
0.0 0.0 0.0 
0.0 0.0 0.0 
0.0 0.0 0.0 
0.0 0.0 0.0 
0.0 0.0 0.0 
0.0 0.0 0.0 
0.0 0.0 0.0 
0.0 0.0 0.0 
0.0 0.0 0.0 
0.0 0.0 0.0 
0.0 0.0 0.0 
0.0 0.0 0.0 
0.0 0.0 0.0 
0.0 0.0 0.0 
0.0 0.0 0.0 
0.0 0.0 0.0 
0.0 0.0 0.0 
0.0 0.0 0.0 
0.0 0.0 0.0 
0.0 0.0 0.0 
0.0 0.0 0.0 
0.0 0.0 0.0 
0.0 0.0 0.0 
0.0 0.0 0.0 
0.0 0.0 0.0 
0.0 0.0 0.0 
0.0 0.0 0.0 
0.0 0.0 0.0 
0.0 0.0 0.0 
0.0 0.0 0.0 
0.0 0.0 0.0 
0.0 0.0 0.0 
0.0 0.0 0.0 
0.0 0.0 0.0 
0.0 0.0 0.0 
0.0 0.0 0.0 
0.0 0.0 0.0 
0.0 0.0 0.0 
0.0 0.0 0.0 
0.0 0.0 0.0 
0.0 0.0 0.0 
0.0 0.0 0.0 
0.0 0.0 0.0 
0.0 0.0 0.0 
0.0 0.0 0.0 
0.0 0.0 0.0 
0.0 0.0 0.0 
0.0 0.0 0.0 
0.0 0.0 0.0 
0.0 0.0 0.0 
0.0 0.0 0.0 
0.0 0.0 0.0 
0.0 0.0 0.0 
0.0 0.0 0.0 
0.0 0.0 0.0 
0.0 0.0 0.0 
0.0 0.0 0.0 
0.0 0.0 0.0 
0.0 0.0 0.0 
0.0 0.0 0.0 
0.0 0.0 0.0 
0.0 0.0 0.0 
0.0 0.0 0.0 
0.0 0.0 0.0 
0.0 0.0 0.0 
0.0 0.0 0.0 
0.0 0.0 0.0 
0.0 0.0 0.0 
0.0 0.0 0.0 
0.0 0.0 0.0 
0.0 0.0 0.0 
0.0 0.0 0.0 
0.0 0.0 0.0 
0.0 0.0 0.0 
0.0 0.0 0.0 
0.0 0.0 0.0 
0.0 0.0 0.0 
0.0 0.0 0.0 
0.0 0.0 0.0 
0.0 0.0 0.0 
0.0 0.0 0.0 
0.0 0.0 0.0 
0.0 0.0 0.0 
0.0 0.0 0.0 
0.0 0.0 0.0 
0.0 0.0 0.0 
0.0 0.0 0.0 
0.0 0.0 0.0 
0.0 0.0 0.0 
0.0 0.0 0.0 
0.0 0.0 0.0 
0.0 0.0 0.0 
0.0 0.0 0.0 
0.0 0.0 0.0 
0.0 0.0 0.0 
0.0 0.0 0.0 
0.0 0.0 0.0 
0.0 0.0 0.0 
0.0 0.0 0.0 
0.0 0.0 0.0 
0.0 0.0 0.0 
0.0 0.0 0.0 
0.0 0.0 0.0 
0.0 0.0 0.0 
0.0 0.0 0.0 
0.0 0.0 0.0 
0.0 0.0 0.0 
0.0 0.0 0.0 
0.0 0.0 0.0 
0.0 0.0 0.0 
0.0 0.0 0.0 
0.0 0.0 0.0 
0.0 0.0 0.0 
0.0 0.0 0.0 
0.0 0.0 0.0 
0.0 0.0 0.0 
0.0 0.0 0.0 
0.0 0.0 0.0 
0.0 0.0 0.0 
0.0 0.0 0.0 
0.0 0.0 0.0 
0.0 0.0 0.0 
0.0 0.0 0.0 
0.0 0.0 0.0 
0.0 0.0 0.0 
0.0 0.0 0.0 
0.0 0.0 0.0 
0.0 0.0 0.0 
0.0 0.0 0.0 
0.0 0.0 0.0 
0.0 0.0 0.0 
0.0 0.0 0.0 
0.0 0.0 0.0 
0.0 0.0 0.0 
0.0 0.0 0.0 
0.0 0.0 0.0 
0.0 0.0 0.0 
0.0 0.0 0.0 
0.0 0.0 0.0 
0.0 0.0 0.0 
0.0 0.0 0.0 
0.0 0.0 0.0 
0.0 0.0 0.0 
0.0 0.0 0.0 
0.0 0.0 0.0 
0.0 0.0 0.0 
0.0 0.0 0.0 
0.0 0.0 0.0 
0.0 0.0 0.0 
0.0 0.0 0.0 
0.0 0.0 0.0 
0.0 0.0 0.0 
0.0 0.0 0.0 
0.0 0.0 0.0 
0.0 0.0 0.0 
0.0 0.0 0.0 
0.0 0.0 0.0 
0.0 0.0 0.0 
0.0 0.0 0.0 
0.0 0.0 0.0 
0.0 0.0 0.0 
0.0 0.0 0.0 
0.0 0.0 0.0 
0.0 0.0 0.0 
0.0 0.0 0.0 
0.0 0.0 0.0 
0.0 0.0 0.0 
0.0 0.0 0.0 
0.0 0.0 0.0 
0.0 0.0 0.0 
0.0 0.0 0.0 
0.0 0.0 0.0 
0.0 0.0 0.0 
0.0 0.0 0.0 
0.0 0.0 0.0 
0.0 0.0 0.0 
0.0 0.0 0.0 
0.0 0.0 0.0 
0.0 0.0 0.0 
0.0 0.0 0.0 
0.0 0.0 0.0 
0.0 0.0 0.0 
0.0 0.0 0.0 
0.0 0.0 0.0 
0.0 0.0 0.0 
0.0 0.0 0.0 
0.0 0.0 0.0 
0.0 0.0 0.0 
0.0 0.0 0.0 
0.0 0.0 0.0 
0.0 0.0 0.0 
0.0 0.0 0.0 
0.0 0.0 0.0 
0.0 0.0 0.0 
0.0 0.0 0.0 
0.0 0.0 0.0 
0.0 0.0 0.0 
0.0 0.0 0.0 
0.0 0.0 0.0 
0.0 0.0 0.0 
0.0 0.0 0.0 
0.0 0.0 0.0 
0.0 0.0 0.0 
0.0 0.0 0.0 
0.0 0.0 0.0 
0.0 0.0 0.0 
0.0 0.0 0.0 
0.0 0.0 0.0 
0.0 0.0 0.0 
0.0 0.0 0.0 
0.0 0.0 0.0 
0.0 0.0 0.0 
0.0 0.0 0.0 
0.0 0.0 0.0 
0.0 0.0 0.0 
0.0 0.0 0.0 
0.0 0.0 0.0 
0.0 0.0 0.0 
0.0 0.0 0.0 
0.0 0.0 0.0 
0.0 0.0 0.0 
0.0 0.0 0.0 
0.0 0.0 0.0 
0.0 0.0 0.0 
0.0 0.0 0.0 
0.0 0.0 0.0 
0.0 0.0 0.0 
0.0 0.0 0.0 
0.0 0.0 0.0 
0.0 0.0 0.0 
0.0 0.0 0.0 
0.0 0.0 0.0 
0.0 0.0 0.0 
0.0 0.0 0.0 
0.0 0.0 0.0 
0.0 0.0 0.0 
0.0 0.0 0.0 
0.0 0.0 0.0 
0.0 0.0 0.0 
0.0 0.0 0.0 
0.0 0.0 0.0 
0.0 0.0 0.0 
0.0 0.0 0.0 
0.0 0.0 0.0 
0.0 0.0 0.0 
0.0 0.0 0.0 
0.0 0.0 0.0 
0.0 0.0 0.0 
0.0 0.0 0.0 
0.0 0.0 0.0 
0.0 0.0 0.0 
0.0 0.0 0.0 
0.0 0.0 0.0 
0.0 0.0 0.0 
0.0 0.0 0.0 
0.0 0.0 0.0 
0.0 0.0 0.0 
0.0 0.0 0.0 
0.0 0.0 0.0 
0.0 0.0 0.0 
0.0 0.0 0.0 
0.0 0.0 0.0 
0.0 0.0 0.0 
0.0 0.0 0.0 
0.0 0.0 0.0 
0.0 0.0 0.0 
0.0 0.0 0.0 
0.0 0.0 0.0 
0.0 0.0 0.0 
0.0 0.0 0.0 
0.0 0.0 0.0 
0.0 0.0 0.0 
0.0 0.0 0.0 
0.0 0.0 0.0 
0.0 0.0 0.0 
0.0 0.0 0.0 
0.0 0.0 0.0 
0.0 0.0 0.0 
0.0 0.0 0.0 
0.0 0.0 0.0 
0.0 0.0 0.0 
0.0 0.0 0.0 
0.0 0.0 0.0 
0.0 0.0 0.0 
0.0 0.0 0.0 
0.0 0.0 0.0 
0.0 0.0 0.0 
0.0 0.0 0.0 
0.0 0.0 0.0 
0.0 0.0 0.0 
0.0 0.0 0.0 
0.0 0.0 0.0 
0.0 0.0 0.0 
0.0 0.0 0.0 
0.0 0.0 0.0 
0.0 0.0 0.0 
0.0 0.0 0.0 
0.0 0.0 0.0 
0.0 0.0 0.0 
0.0 0.0 0.0 
0.0 0.0 0.0 
0.0 0.0 0.0 
0.0 0.0 0.0 
0.0 0.0 0.0 
0.0 0.0 0.0 
0.0 0.0 0.0 
0.0 0.0 0.0 
0.0 0.0 0.0 
0.0 0.0 0.0 
0.0 0.0 0.0 
0.0 0.0 0.0 
0.0 0.0 0.0 
0.0 0.0 0.0 
0.0 0.0 0.0 
0.0 0.0 0.0 
0.0 0.0 0.0 
0.0 0.0 0.0 
0.0 0.0 0.0 
0.0 0.0 0.0 
0.0 0.0 0.0 
0.0 0.0 0.0 
0.0 0.0 0.0 
0.0 0.0 0.0 
0.0 0.0 0.0 
0.0 0.0 0.0 
0.0 0.0 0.0 
0.0 0.0 0.0 
0.0 0.0 0.0 
0.0 0.0 0.0 
0.0 0.0 0.0 
0.0 0.0 0.0 
0.0 0.0 0.0 
0.0 0.0 0.0 
0.0 0.0 0.0 
0.0 0.0 0.0 
0.0 0.0 0.0 
0.0 0.0 0.0 
0.0 0.0 0.0 
0.0 0.0 0.0 
0.0 0.0 0.0 
0.0 0.0 0.0 
0.0 0.0 0.0 
0.0 0.0 0.0 
0.0 0.0 0.0 
0.0 0.0 0.0 
0.0 0.0 0.0 
0.0 0.0 0.0 
0.0 0.0 0.0 
0.0 0.0 0.0 
0.0 0.0 0.0 
0.0 0.0 0.0 
0.0 0.0 0.0 
0.0 0.0 0.0 
0.0 0.0 0.0 
0.0 0.0 0.0 
0.0 0.0 0.0 
0.0 0.0 0.0 
0.0 0.0 0.0 
0.0 0.0 0.0 
0.0 0.0 0.0 
0.0 0.0 0.0 
0.0 0.0 0.0 
0.0 0.0 0.0 
0.0 0.0 0.0 
0.0 0.0 0.0 
0.0 0.0 0.0 
0.0 0.0 0.0 
0.0 0.0 0.0 
0.0 0.0 0.0 
0.0 0.0 0.0 
0.0 0.0 0.0 
0.0 0.0 0.0 
0.0 0.0 0.0 
0.0 0.0 0.0 
0.0 0.0 0.0 
0.0 0.0 0.0 
0.0 0.0 0.0 
0.0 0.0 0.0 
0.0 0.0 0.0 
0.0 0.0 0.0 
0.0 0.0 0.0 
0.0 0.0 0.0 
0.0 0.0 0.0 
0.0 0.0 0.0 
0.0 0.0 0.0 
0.0 0.0 0.0 
0.0 0.0 0.0 
0.0 0.0 0.0 
0.0 0.0 0.0 
0.0 0.0 0.0 
0.0 0.0 0.0 
0.0 0.0 0.0 
0.0 0.0 0.0 
0.0 0.0 0.0 
0.0 0.0 0.0 
0.0 0.0 0.0 
0.0 0.0 0.0 
0.0 0.0 0.0 
0.0 0.0 0.0 
0.0 0.0 0.0 
0.0 0.0 0.0 
0.0 0.0 0.0 
0.0 0.0 0.0 
0.0 0.0 0.0 
0.0 0.0 0.0 
0.0 0.0 0.0 
0.0 0.0 0.0 
0.0 0.0 0.0 
0.0 0.0 0.0 
0.0 0.0 0.0 
0.0 0.0 0.0 
0.0 0.0 0.0 
0.0 0.0 0.0 
0.0 0.0 0.0 
0.0 0.0 0.0 
0.0 0.0 0.0 
0.0 0.0 0.0 
0.0 0.0 0.0 
0.0 0.0 0.0 
0.0 0.0 0.0 
0.0 0.0 0.0 
0.0 0.0 0.0 
0.0 0.0 0.0 
0.0 0.0 0.0 
0.0 0.0 0.0 
0.0 0.0 0.0 
0.0 0.0 0.0 
0.0 0.0 0.0 
0.0 0.0 0.0 
0.0 0.0 0.0 
0.0 0.0 0.0 
0.0 0.0 0.0 
0.0 0.0 0.0 
0.0 0.0 0.0 
0.0 0.0 0.0 
0.0 0.0 0.0 
0.0 0.0 0.0 
0.0 0.0 0.0 
0.0 0.0 0.0 
0.0 0.0 0.0 
0.0 0.0 0.0 
0.0 0.0 0.0 
0.0 0.0 0.0 
0.0 0.0 0.0 
0.0 0.0 0.0 
0.0 0.0 0.0 
0.0 0.0 0.0 
0.0 0.0 0.0 
0.0 0.0 0.0 
0.0 0.0 0.0 
0.0 0.0 0.0 
0.0 0.0 0.0 
0.0 0.0 0.0 
0.0 0.0 0.0 
0.0 0.0 0.0 
0.0 0.0 0.0 
0.0 0.0 0.0 
0.0 0.0 0.0 
0.0 0.0 0.0 
0.0 0.0 0.0 
0.0 0.0 0.0 
0.0 0.0 0.0 
0.0 0.0 0.0 
0.0 0.0 0.0 
0.0 0.0 0.0 
0.0 0.0 0.0 
0.0 0.0 0.0 
0.0 0.0 0.0 
0.0 0.0 0.0 
0.0 0.0 0.0 
0.0 0.0 0.0 
0.0 0.0 0.0 
0.0 0.0 0.0 
0.0 0.0 0.0 
0.0 0.0 0.0 
0.0 0.0 0.0 
0.0 0.0 0.0 
0.0 0.0 0.0 
0.0 0.0 0.0 
0.0 0.0 0.0 
0.0 0.0 0.0 
0.0 0.0 0.0 
0.0 0.0 0.0 
0.0 0.0 0.0 
0.0 0.0 0.0 
0.0 0.0 0.0 
0.0 0.0 0.0 
0.0 0.0 0.0 
0.0 0.0 0.0 
0.0 0.0 0.0 
0.0 0.0 0.0 
0.0 0.0 0.0 
0.0 0.0 0.0 
0.0 0.0 0.0 
0.0 0.0 0.0 
0.0 0.0 0.0 
0.0 0.0 0.0 
0.0 0.0 0.0 
0.0 0.0 0.0 
0.0 0.0 0.0 
0.0 0.0 0.0 
0.0 0.0 0.0 
0.0 0.0 0.0 
0.0 0.0 0.0 
0.0 0.0 0.0 
0.0 0.0 0.0 
0.0 0.0 0.0 
0.0 0.0 0.0 
0.0 0.0 0.0 
0.0 0.0 0.0 
0.0 0.0 0.0 
0.0 0.0 0.0 
0.0 0.0 0.0 
0.0 0.0 0.0 
0.0 0.0 0.0 
0.0 0.0 0.0 
0.0 0.0 0.0 
0.0 0.0 0.0 
0.0 0.0 0.0 
0.0 0.0 0.0 
0.0 0.0 0.0 
0.0 0.0 0.0 
0.0 0.0 0.0 
0.0 0.0 0.0 
0.0 0.0 0.0 
0.0 0.0 0.0 
0.0 0.0 0.0 
0.0 0.0 0.0 
0.0 0.0 0.0 
0.0 0.0 0.0 
0.0 0.0 0.0 
0.0 0.0 0.0 
0.0 0.0 0.0 
0.0 0.0 0.0 
0.0 0.0 0.0 
0.0 0.0 0.0 
0.0 0.0 0.0 
0.0 0.0 0.0 
0.0 0.0 0.0 
0.0 0.0 0.0 
0.0 0.0 0.0 
0.0 0.0 0.0 
0.0 0.0 0.0 
0.0 0.0 0.0 
0.0 0.0 0.0 
0.0 0.0 0.0 
0.0 0.0 0.0 
0.0 0.0 0.0 
0.0 0.0 0.0 
0.0 0.0 0.0 
0.0 0.0 0.0 
0.0 0.0 0.0 
0.0 0.0 0.0 
0.0 0.0 0.0 
0.0 0.0 0.0 
0.0 0.0 0.0 
0.0 0.0 0.0 
0.0 0.0 0.0 
0.0 0.0 0.0 
0.0 0.0 0.0 
0.0 0.0 0.0 
0.0 0.0 0.0 
0.0 0.0 0.0 
0.0 0.0 0.0 
0.0 0.0 0.0 
0.0 0.0 0.0 
0.0 0.0 0.0 
0.0 0.0 0.0 
0.0 0.0 0.0 
0.0 0.0 0.0 
0.0 0.0 0.0 
0.0 0.0 0.0 
0.0 0.0 0.0 
0.0 0.0 0.0 
0.0 0.0 0.0 
0.0 0.0 0.0 
0.0 0.0 0.0 
0.0 0.0 0.0 
0.0 0.0 0.0 
0.0 0.0 0.0 
0.0 0.0 0.0 
0.0 0.0 0.0 
0.0 0.0 0.0 
0.0 0.0 0.0 
0.0 0.0 0.0 
0.0 0.0 0.0 
0.0 0.0 0.0 
0.0 0.0 0.0 
0.0 0.0 0.0 
0.0 0.0 0.0 
0.0 0.0 0.0 
0.0 0.0 0.0 
0.0 0.0 0.0 
0.0 0.0 0.0 
0.0 0.0 0.0 
0.0 0.0 0.0 
0.0 0.0 0.0 
0.0 0.0 0.0 
0.0 0.0 0.0 
0.0 0.0 0.0 
0.0 0.0 0.0 
0.0 0.0 0.0 
0.0 0.0 0.0 
0.0 0.0 0.0 
0.0 0.0 0.0 
0.0 0.0 0.0 
0.0 0.0 0.0 
0.0 0.0 0.0 
0.0 0.0 0.0 
0.0 0.0 0.0 
0.0 0.0 0.0 
0.0 0.0 0.0 
0.0 0.0 0.0 
0.0 0.0 0.0 
0.0 0.0 0.0 
0.0 0.0 0.0 
0.0 0.0 0.0 
0.0 0.0 0.0 
0.0 0.0 0.0 
0.0 0.0 0.0 
0.0 0.0 0.0 
0.0 0.0 0.0 
0.0 0.0 0.0 
0.0 0.0 0.0 
0.0 0.0 0.0 
0.0 0.0 0.0 
0.0 0.0 0.0 
0.0 0.0 0.0 
0.0 0.0 0.0 
0.0 0.0 0.0 
0.0 0.0 0.0 
0.0 0.0 0.0 
0.0 0.0 0.0 
0.0 0.0 0.0 
0.0 0.0 0.0 
0.0 0.0 0.0 
0.0 0.0 0.0 
0.0 0.0 0.0 
0.0 0.0 0.0 
0.0 0.0 0.0 
0.0 0.0 0.0 
0.0 0.0 0.0 
0.0 0.0 0.0 
0.0 0.0 0.0 
0.0 0.0 0.0 
0.0 0.0 0.0 
0.0 0.0 0.0 
0.0 0.0 0.0 
0.0 0.0 0.0 
0.0 0.0 0.0 
0.0 0.0 0.0 
0.0 0.0 0.0 
0.0 0.0 0.0 
0.0 0.0 0.0 
0.0 0.0 0.0 
0.0 0.0 0.0 
0.0 0.0 0.0 
0.0 0.0 0.0 
0.0 0.0 0.0 
0.0 0.0 0.0 
0.0 0.0 0.0 
0.0 0.0 0.0 
0.0 0.0 0.0 
0.0 0.0 0.0 
0.0 0.0 0.0 
0.0 0.0 0.0 
0.0 0.0 0.0 
0.0 0.0 0.0 
0.0 0.0 0.0 
0.0 0.0 0.0 
0.0 0.0 0.0 
0.0 0.0 0.0 
0.0 0.0 0.0 
0.0 0.0 0.0 
0.0 0.0 0.0 
0.0 0.0 0.0 
0.0 0.0 0.0 
0.0 0.0 0.0 
0.0 0.0 0.0 
0.0 0.0 0.0 
0.0 0.0 0.0 
0.0 0.0 0.0 
0.0 0.0 0.0 
0.0 0.0 0.0 
0.0 0.0 0.0 
0.0 0.0 0.0 
0.0 0.0 0.0 
0.0 0.0 0.0 
0.0 0.0 0.0 
0.0 0.0 0.0 
0.0 0.0 0.0 
0.0 0.0 0.0 
0.0 0.0 0.0 
0.0 0.0 0.0 
0.0 0.0 0.0 
0.0 0.0 0.0 
0.0 0.0 0.0 
0.0 0.0 0.0 
0.0 0.0 0.0 
0.0 0.0 0.0 
0.0 0.0 0.0 
0.0 0.0 0.0 
0.0 0.0 0.0 
0.0 0.0 0.0 
0.0 0.0 0.0 
0.0 0.0 0.0 
0.0 0.0 0.0 
0.0 0.0 0.0 
0.0 0.0 0.0 
0.0 0.0 0.0 
0.0 0.0 0.0 
0.0 0.0 0.0 
0.0 0.0 0.0 
0.0 0.0 0.0 
0.0 0.0 0.0 
0.0 0.0 0.0 
0.0 0.0 0.0 
0.0 0.0 0.0 
0.0 0.0 0.0 
0.0 0.0 0.0 
0.0 0.0 0.0 
0.0 0.0 0.0 
0.0 0.0 0.0 
0.0 0.0 0.0 
0.0 0.0 0.0 
0.0 0.0 0.0 
0.0 0.0 0.0 
0.0 0.0 0.0 
0.0 0.0 0.0 
0.0 0.0 0.0 
0.0 0.0 0.0 
0.0 0.0 0.0 
0.0 0.0 0.0 
0.0 0.0 0.0 
0.0 0.0 0.0 
0.0 0.0 0.0 
0.0 0.0 0.0 
0.0 0.0 0.0 
0.0 0.0 0.0 
0.0 0.0 0.0 
0.0 0.0 0.0 
0.0 0.0 0.0 
0.0 0.0 0.0 
0.0 0.0 0.0 
0.0 0.0 0.0 
0.0 0.0 0.0 
0.0 0.0 0.0 
0.0 0.0 0.0 
0.0 0.0 0.0 
0.0 0.0 0.0 
0.0 0.0 0.0 
0.0 0.0 0.0 
0.0 0.0 0.0 
0.0 0.0 0.0 
0.0 0.0 0.0 
0.0 0.0 0.0 
0.0 0.0 0.0 
0.0 0.0 0.0 
0.0 0.0 0.0 
0.0 0.0 0.0 
0.0 0.0 0.0 
0.0 0.0 0.0 
0.0 0.0 0.0 
0.0 0.0 0.0 
0.0 0.0 0.0 
0.0 0.0 0.0 
0.0 0.0 0.0 
0.0 0.0 0.0 
0.0 0.0 0.0 
0.0 0.0 0.0 
0.0 0.0 0.0 
0.0 0.0 0.0 
0.0 0.0 0.0 
0.0 0.0 0.0 
0.0 0.0 0.0 
0.0 0.0 0.0 
0.0 0.0 0.0 
0.0 0.0 0.0 
0.0 0.0 0.0 
0.0 0.0 0.0 
0.0 0.0 0.0 
0.0 0.0 0.0 
0.0 0.0 0.0 
0.0 0.0 0.0 
0.0 0.0 0.0 
0.0 0.0 0.0 
0.0 0.0 0.0 
0.0 0.0 0.0 
0.0 0.0 0.0 
0.0 0.0 0.0 
0.0 0.0 0.0 
0.0 0.0 0.0 
0.0 0.0 0.0 
0.0 0.0 0.0 
0.0 0.0 0.0 
0.0 0.0 0.0 
0.0 0.0 0.0 
0.0 0.0 0.0 

VECTORS node_bounda_dof_materi_velocity_y float
0.0 0.0 0.0 
0.0 0.0 0.0 
0.0 1.000000000000e+00 0.0 
0.0 1.000000000000e+00 0.0 
0.0 0.0 0.0 
0.0 0.0 0.0 
0.0 0.0 0.0 
0.0 0.0 0.0 
0.0 0.0 0.0 
0.0 0.0 0.0 
0.0 0.0 0.0 
0.0 0.0 0.0 
0.0 0.0 0.0 
0.0 0.0 0.0 
0.0 0.0 0.0 
0.0 0.0 0.0 
0.0 0.0 0.0 
0.0 0.0 0.0 
0.0 0.0 0.0 
0.0 0.0 0.0 
0.0 0.0 0.0 
0.0 0.0 0.0 
0.0 0.0 0.0 
0.0 1.000000000000e+00 0.0 
0.0 1.000000000000e+00 0.0 
0.0 1.000000000000e+00 0.0 
0.0 1.000000000000e+00 0.0 
0.0 1.000000000000e+00 0.0 
0.0 1.000000000000e+00 0.0 
0.0 1.000000000000e+00 0.0 
0.0 1.000000000000e+00 0.0 
0.0 1.000000000000e+00 0.0 
0.0 1.000000000000e+00 0.0 
0.0 1.000000000000e+00 0.0 
0.0 1.000000000000e+00 0.0 
0.0 1.000000000000e+00 0.0 
0.0 1.000000000000e+00 0.0 
0.0 1.000000000000e+00 0.0 
0.0 1.000000000000e+00 0.0 
0.0 1.000000000000e+00 0.0 
0.0 1.000000000000e+00 0.0 
0.0 1.000000000000e+00 0.0 
0.0 1.000000000000e+00 0.0 
0.0 1.000000000000e+00 0.0 
0.0 1.000000000000e+00 0.0 
0.0 1.000000000000e+00 0.0 
0.0 1.000000000000e+00 0.0 
0.0 1.000000000000e+00 0.0 
0.0 1.000000000000e+00 0.0 
0.0 1.000000000000e+00 0.0 
0.0 1.000000000000e+00 0.0 
0.0 1.000000000000e+00 0.0 
0.0 1.000000000000e+00 0.0 
0.0 1.000000000000e+00 0.0 
0.0 1.000000000000e+00 0.0 
0.0 1.000000000000e+00 0.0 
0.0 1.000000000000e+00 0.0 
0.0 1.000000000000e+00 0.0 
0.0 1.000000000000e+00 0.0 
0.0 1.000000000000e+00 0.0 
0.0 1.000000000000e+00 0.0 
0.0 1.000000000000e+00 0.0 
0.0 1.000000000000e+00 0.0 
0.0 1.000000000000e+00 0.0 
0.0 1.000000000000e+00 0.0 
0.0 1.000000000000e+00 0.0 
0.0 1.000000000000e+00 0.0 
0.0 1.000000000000e+00 0.0 
0.0 1.000000000000e+00 0.0 
0.0 1.000000000000e+00 0.0 
0.0 1.000000000000e+00 0.0 
0.0 1.000000000000e+00 0.0 
0.0 0.0 0.0 
0.0 0.0 0.0 
0.0 0.0 0.0 
0.0 0.0 0.0 
0.0 0.0 0.0 
0.0 0.0 0.0 
0.0 0.0 0.0 
0.0 0.0 0.0 
0.0 0.0 0.0 
0.0 0.0 0.0 
0.0 0.0 0.0 
0.0 0.0 0.0 
0.0 0.0 0.0 
0.0 0.0 0.0 
0.0 0.0 0.0 
0.0 0.0 0.0 
0.0 0.0 0.0 
0.0 0.0 0.0 
0.0 0.0 0.0 
0.0 0.0 0.0 
0.0 0.0 0.0 
0.0 0.0 0.0 
0.0 0.0 0.0 
0.0 0.0 0.0 
0.0 0.0 0.0 
0.0 0.0 0.0 
0.0 0.0 0.0 
0.0 0.0 0.0 
0.0 0.0 0.0 
0.0 0.0 0.0 
0.0 0.0 0.0 
0.0 0.0 0.0 
0.0 0.0 0.0 
0.0 0.0 0.0 
0.0 0.0 0.0 
0.0 0.0 0.0 
0.0 0.0 0.0 
0.0 0.0 0.0 
0.0 0.0 0.0 
0.0 0.0 0.0 
0.0 0.0 0.0 
0.0 0.0 0.0 
0.0 0.0 0.0 
0.0 0.0 0.0 
0.0 0.0 0.0 
0.0 0.0 0.0 
0.0 0.0 0.0 
0.0 0.0 0.0 
0.0 0.0 0.0 
0.0 0.0 0.0 
0.0 0.0 0.0 
0.0 0.0 0.0 
0.0 0.0 0.0 
0.0 0.0 0.0 
0.0 0.0 0.0 
0.0 0.0 0.0 
0.0 0.0 0.0 
0.0 0.0 0.0 
0.0 0.0 0.0 
0.0 0.0 0.0 
0.0 0.0 0.0 
0.0 0.0 0.0 
0.0 0.0 0.0 
0.0 0.0 0.0 
0.0 0.0 0.0 
0.0 0.0 0.0 
0.0 0.0 0.0 
0.0 0.0 0.0 
0.0 0.0 0.0 
0.0 0.0 0.0 
0.0 0.0 0.0 
0.0 0.0 0.0 
0.0 0.0 0.0 
0.0 0.0 0.0 
0.0 0.0 0.0 
0.0 0.0 0.0 
0.0 0.0 0.0 
0.0 0.0 0.0 
0.0 0.0 0.0 
0.0 0.0 0.0 
0.0 0.0 0.0 
0.0 0.0 0.0 
0.0 0.0 0.0 
0.0 0.0 0.0 
0.0 0.0 0.0 
0.0 0.0 0.0 
0.0 0.0 0.0 
0.0 0.0 0.0 
0.0 0.0 0.0 
0.0 0.0 0.0 
0.0 0.0 0.0 
0.0 0.0 0.0 
0.0 0.0 0.0 
0.0 0.0 0.0 
0.0 0.0 0.0 
0.0 0.0 0.0 
0.0 0.0 0.0 
0.0 0.0 0.0 
0.0 0.0 0.0 
0.0 0.0 0.0 
0.0 0.0 0.0 
0.0 0.0 0.0 
0.0 0.0 0.0 
0.0 0.0 0.0 
0.0 0.0 0.0 
0.0 0.0 0.0 
0.0 0.0 0.0 
0.0 0.0 0.0 
0.0 0.0 0.0 
0.0 0.0 0.0 
0.0 0.0 0.0 
0.0 0.0 0.0 
0.0 0.0 0.0 
0.0 0.0 0.0 
0.0 0.0 0.0 
0.0 0.0 0.0 
0.0 0.0 0.0 
0.0 0.0 0.0 
0.0 0.0 0.0 
0.0 0.0 0.0 
0.0 0.0 0.0 
0.0 0.0 0.0 
0.0 0.0 0.0 
0.0 0.0 0.0 
0.0 0.0 0.0 
0.0 0.0 0.0 
0.0 0.0 0.0 
0.0 0.0 0.0 
0.0 0.0 0.0 
0.0 0.0 0.0 
0.0 0.0 0.0 
0.0 0.0 0.0 
0.0 0.0 0.0 
0.0 0.0 0.0 
0.0 0.0 0.0 
0.0 0.0 0.0 
0.0 0.0 0.0 
0.0 0.0 0.0 
0.0 0.0 0.0 
0.0 0.0 0.0 
0.0 0.0 0.0 
0.0 0.0 0.0 
0.0 0.0 0.0 
0.0 0.0 0.0 
0.0 0.0 0.0 
0.0 0.0 0.0 
0.0 0.0 0.0 
0.0 0.0 0.0 
0.0 0.0 0.0 
0.0 0.0 0.0 
0.0 0.0 0.0 
0.0 0.0 0.0 
0.0 0.0 0.0 
0.0 0.0 0.0 
0.0 0.0 0.0 
0.0 0.0 0.0 
0.0 0.0 0.0 
0.0 0.0 0.0 
0.0 0.0 0.0 
0.0 0.0 0.0 
0.0 0.0 0.0 
0.0 0.0 0.0 
0.0 0.0 0.0 
0.0 0.0 0.0 
0.0 0.0 0.0 
0.0 0.0 0.0 
0.0 0.0 0.0 
0.0 0.0 0.0 
0.0 0.0 0.0 
0.0 0.0 0.0 
0.0 0.0 0.0 
0.0 0.0 0.0 
0.0 0.0 0.0 
0.0 0.0 0.0 
0.0 0.0 0.0 
0.0 0.0 0.0 
0.0 0.0 0.0 
0.0 0.0 0.0 
0.0 0.0 0.0 
0.0 0.0 0.0 
0.0 0.0 0.0 
0.0 0.0 0.0 
0.0 0.0 0.0 
0.0 0.0 0.0 
0.0 0.0 0.0 
0.0 0.0 0.0 
0.0 0.0 0.0 
0.0 0.0 0.0 
0.0 0.0 0.0 
0.0 0.0 0.0 
0.0 0.0 0.0 
0.0 0.0 0.0 
0.0 0.0 0.0 
0.0 0.0 0.0 
0.0 0.0 0.0 
0.0 0.0 0.0 
0.0 0.0 0.0 
0.0 0.0 0.0 
0.0 0.0 0.0 
0.0 0.0 0.0 
0.0 0.0 0.0 
0.0 0.0 0.0 
0.0 0.0 0.0 
0.0 0.0 0.0 
0.0 0.0 0.0 
0.0 0.0 0.0 
0.0 0.0 0.0 
0.0 0.0 0.0 
0.0 0.0 0.0 
0.0 0.0 0.0 
0.0 0.0 0.0 
0.0 0.0 0.0 
0.0 0.0 0.0 
0.0 0.0 0.0 
0.0 0.0 0.0 
0.0 0.0 0.0 
0.0 0.0 0.0 
0.0 0.0 0.0 
0.0 0.0 0.0 
0.0 0.0 0.0 
0.0 0.0 0.0 
0.0 0.0 0.0 
0.0 0.0 0.0 
0.0 0.0 0.0 
0.0 0.0 0.0 
0.0 0.0 0.0 
0.0 0.0 0.0 
0.0 0.0 0.0 
0.0 0.0 0.0 
0.0 0.0 0.0 
0.0 0.0 0.0 
0.0 0.0 0.0 
0.0 0.0 0.0 
0.0 0.0 0.0 
0.0 0.0 0.0 
0.0 0.0 0.0 
0.0 0.0 0.0 
0.0 0.0 0.0 
0.0 0.0 0.0 
0.0 0.0 0.0 
0.0 0.0 0.0 
0.0 0.0 0.0 
0.0 0.0 0.0 
0.0 0.0 0.0 
0.0 0.0 0.0 
0.0 0.0 0.0 
0.0 0.0 0.0 
0.0 0.0 0.0 
0.0 0.0 0.0 
0.0 0.0 0.0 
0.0 0.0 0.0 
0.0 0.0 0.0 
0.0 0.0 0.0 
0.0 0.0 0.0 
0.0 0.0 0.0 
0.0 0.0 0.0 
0.0 0.0 0.0 
0.0 0.0 0.0 
0.0 0.0 0.0 
0.0 0.0 0.0 
0.0 0.0 0.0 
0.0 0.0 0.0 
0.0 0.0 0.0 
0.0 0.0 0.0 
0.0 0.0 0.0 
0.0 0.0 0.0 
0.0 0.0 0.0 
0.0 0.0 0.0 
0.0 0.0 0.0 
0.0 0.0 0.0 
0.0 0.0 0.0 
0.0 0.0 0.0 
0.0 0.0 0.0 
0.0 0.0 0.0 
0.0 0.0 0.0 
0.0 0.0 0.0 
0.0 0.0 0.0 
0.0 0.0 0.0 
0.0 0.0 0.0 
0.0 0.0 0.0 
0.0 0.0 0.0 
0.0 0.0 0.0 
0.0 0.0 0.0 
0.0 0.0 0.0 
0.0 0.0 0.0 
0.0 0.0 0.0 
0.0 0.0 0.0 
0.0 0.0 0.0 
0.0 0.0 0.0 
0.0 0.0 0.0 
0.0 0.0 0.0 
0.0 0.0 0.0 
0.0 0.0 0.0 
0.0 0.0 0.0 
0.0 0.0 0.0 
0.0 0.0 0.0 
0.0 0.0 0.0 
0.0 0.0 0.0 
0.0 0.0 0.0 
0.0 0.0 0.0 
0.0 0.0 0.0 
0.0 0.0 0.0 
0.0 0.0 0.0 
0.0 0.0 0.0 
0.0 0.0 0.0 
0.0 0.0 0.0 
0.0 0.0 0.0 
0.0 0.0 0.0 
0.0 0.0 0.0 
0.0 0.0 0.0 
0.0 0.0 0.0 
0.0 0.0 0.0 
0.0 0.0 0.0 
0.0 0.0 0.0 
0.0 0.0 0.0 
0.0 0.0 0.0 
0.0 0.0 0.0 
0.0 0.0 0.0 
0.0 0.0 0.0 
0.0 0.0 0.0 
0.0 0.0 0.0 
0.0 0.0 0.0 
0.0 0.0 0.0 
0.0 0.0 0.0 
0.0 0.0 0.0 
0.0 0.0 0.0 
0.0 0.0 0.0 
0.0 0.0 0.0 
0.0 0.0 0.0 
0.0 0.0 0.0 
0.0 0.0 0.0 
0.0 0.0 0.0 
0.0 0.0 0.0 
0.0 0.0 0.0 
0.0 0.0 0.0 
0.0 0.0 0.0 
0.0 0.0 0.0 
0.0 0.0 0.0 
0.0 0.0 0.0 
0.0 0.0 0.0 
0.0 0.0 0.0 
0.0 0.0 0.0 
0.0 0.0 0.0 
0.0 0.0 0.0 
0.0 0.0 0.0 
0.0 0.0 0.0 
0.0 0.0 0.0 
0.0 0.0 0.0 
0.0 0.0 0.0 
0.0 0.0 0.0 
0.0 0.0 0.0 
0.0 0.0 0.0 
0.0 0.0 0.0 
0.0 0.0 0.0 
0.0 0.0 0.0 
0.0 0.0 0.0 
0.0 0.0 0.0 
0.0 0.0 0.0 
0.0 0.0 0.0 
0.0 0.0 0.0 
0.0 0.0 0.0 
0.0 0.0 0.0 
0.0 0.0 0.0 
0.0 0.0 0.0 
0.0 0.0 0.0 
0.0 0.0 0.0 
0.0 0.0 0.0 
0.0 0.0 0.0 
0.0 0.0 0.0 
0.0 0.0 0.0 
0.0 0.0 0.0 
0.0 0.0 0.0 
0.0 0.0 0.0 
0.0 0.0 0.0 
0.0 0.0 0.0 
0.0 0.0 0.0 
0.0 0.0 0.0 
0.0 0.0 0.0 
0.0 0.0 0.0 
0.0 0.0 0.0 
0.0 0.0 0.0 
0.0 0.0 0.0 
0.0 0.0 0.0 
0.0 0.0 0.0 
0.0 0.0 0.0 
0.0 0.0 0.0 
0.0 0.0 0.0 
0.0 0.0 0.0 
0.0 0.0 0.0 
0.0 0.0 0.0 
0.0 0.0 0.0 
0.0 0.0 0.0 
0.0 0.0 0.0 
0.0 0.0 0.0 
0.0 0.0 0.0 
0.0 0.0 0.0 
0.0 0.0 0.0 
0.0 0.0 0.0 
0.0 0.0 0.0 
0.0 0.0 0.0 
0.0 0.0 0.0 
0.0 0.0 0.0 
0.0 0.0 0.0 
0.0 0.0 0.0 
0.0 0.0 0.0 
0.0 0.0 0.0 
0.0 0.0 0.0 
0.0 0.0 0.0 
0.0 0.0 0.0 
0.0 0.0 0.0 
0.0 0.0 0.0 
0.0 0.0 0.0 
0.0 0.0 0.0 
0.0 0.0 0.0 
0.0 0.0 0.0 
0.0 0.0 0.0 
0.0 0.0 0.0 
0.0 0.0 0.0 
0.0 0.0 0.0 
0.0 0.0 0.0 
0.0 0.0 0.0 
0.0 0.0 0.0 
0.0 0.0 0.0 
0.0 0.0 0.0 
0.0 0.0 0.0 
0.0 0.0 0.0 
0.0 0.0 0.0 
0.0 0.0 0.0 
0.0 0.0 0.0 
0.0 0.0 0.0 
0.0 0.0 0.0 
0.0 0.0 0.0 
0.0 0.0 0.0 
0.0 0.0 0.0 
0.0 0.0 0.0 
0.0 0.0 0.0 
0.0 0.0 0.0 
0.0 0.0 0.0 
0.0 0.0 0.0 
0.0 0.0 0.0 
0.0 0.0 0.0 
0.0 0.0 0.0 
0.0 0.0 0.0 
0.0 0.0 0.0 
0.0 0.0 0.0 
0.0 0.0 0.0 
0.0 0.0 0.0 
0.0 0.0 0.0 
0.0 0.0 0.0 
0.0 0.0 0.0 
0.0 0.0 0.0 
0.0 0.0 0.0 
0.0 0.0 0.0 
0.0 0.0 0.0 
0.0 0.0 0.0 
0.0 0.0 0.0 
0.0 0.0 0.0 
0.0 0.0 0.0 
0.0 0.0 0.0 
0.0 0.0 0.0 
0.0 0.0 0.0 
0.0 0.0 0.0 
0.0 0.0 0.0 
0.0 0.0 0.0 
0.0 0.0 0.0 
0.0 0.0 0.0 
0.0 0.0 0.0 
0.0 0.0 0.0 
0.0 0.0 0.0 
0.0 0.0 0.0 
0.0 0.0 0.0 
0.0 0.0 0.0 
0.0 0.0 0.0 
0.0 0.0 0.0 
0.0 0.0 0.0 
0.0 0.0 0.0 
0.0 0.0 0.0 
0.0 0.0 0.0 
0.0 0.0 0.0 
0.0 0.0 0.0 
0.0 0.0 0.0 
0.0 0.0 0.0 
0.0 0.0 0.0 
0.0 0.0 0.0 
0.0 0.0 0.0 
0.0 0.0 0.0 
0.0 0.0 0.0 
0.0 0.0 0.0 
0.0 0.0 0.0 
0.0 0.0 0.0 
0.0 0.0 0.0 
0.0 0.0 0.0 
0.0 0.0 0.0 
0.0 0.0 0.0 
0.0 0.0 0.0 
0.0 0.0 0.0 
0.0 0.0 0.0 
0.0 0.0 0.0 
0.0 0.0 0.0 
0.0 0.0 0.0 
0.0 0.0 0.0 
0.0 0.0 0.0 
0.0 0.0 0.0 
0.0 0.0 0.0 
0.0 0.0 0.0 
0.0 0.0 0.0 
0.0 0.0 0.0 
0.0 0.0 0.0 
0.0 0.0 0.0 
0.0 0.0 0.0 
0.0 0.0 0.0 
0.0 0.0 0.0 
0.0 0.0 0.0 
0.0 0.0 0.0 
0.0 0.0 0.0 
0.0 0.0 0.0 
0.0 0.0 0.0 
0.0 0.0 0.0 
0.0 0.0 0.0 
0.0 0.0 0.0 
0.0 0.0 0.0 
0.0 0.0 0.0 
0.0 0.0 0.0 
0.0 0.0 0.0 
0.0 0.0 0.0 
0.0 0.0 0.0 
0.0 0.0 0.0 
0.0 0.0 0.0 
0.0 0.0 0.0 
0.0 0.0 0.0 
0.0 0.0 0.0 
0.0 0.0 0.0 
0.0 0.0 0.0 
0.0 0.0 0.0 
0.0 0.0 0.0 
0.0 0.0 0.0 
0.0 0.0 0.0 
0.0 0.0 0.0 
0.0 0.0 0.0 
0.0 0.0 0.0 
0.0 0.0 0.0 
0.0 0.0 0.0 
0.0 0.0 0.0 
0.0 0.0 0.0 
0.0 0.0 0.0 
0.0 0.0 0.0 
0.0 0.0 0.0 
0.0 0.0 0.0 
0.0 0.0 0.0 
0.0 0.0 0.0 
0.0 0.0 0.0 
0.0 0.0 0.0 
0.0 0.0 0.0 
0.0 0.0 0.0 
0.0 0.0 0.0 
0.0 0.0 0.0 
0.0 0.0 0.0 
0.0 0.0 0.0 
0.0 0.0 0.0 
0.0 0.0 0.0 
0.0 0.0 0.0 
0.0 0.0 0.0 
0.0 0.0 0.0 
0.0 0.0 0.0 
0.0 0.0 0.0 
0.0 0.0 0.0 
0.0 0.0 0.0 
0.0 0.0 0.0 
0.0 0.0 0.0 
0.0 0.0 0.0 
0.0 0.0 0.0 
0.0 0.0 0.0 
0.0 0.0 0.0 
0.0 0.0 0.0 
0.0 0.0 0.0 
0.0 0.0 0.0 
0.0 0.0 0.0 
0.0 0.0 0.0 
0.0 0.0 0.0 
0.0 0.0 0.0 
0.0 0.0 0.0 
0.0 0.0 0.0 
0.0 0.0 0.0 
0.0 0.0 0.0 
0.0 0.0 0.0 
0.0 0.0 0.0 
0.0 0.0 0.0 
0.0 0.0 0.0 
0.0 0.0 0.0 
0.0 0.0 0.0 
0.0 0.0 0.0 
0.0 0.0 0.0 
0.0 0.0 0.0 
0.0 0.0 0.0 
0.0 0.0 0.0 
0.0 0.0 0.0 
0.0 0.0 0.0 
0.0 0.0 0.0 
0.0 0.0 0.0 
0.0 0.0 0.0 
0.0 0.0 0.0 
0.0 0.0 0.0 
0.0 0.0 0.0 
0.0 0.0 0.0 
0.0 0.0 0.0 
0.0 0.0 0.0 
0.0 0.0 0.0 
0.0 0.0 0.0 
0.0 0.0 0.0 
0.0 0.0 0.0 
0.0 0.0 0.0 
0.0 0.0 0.0 
0.0 0.0 0.0 
0.0 0.0 0.0 
0.0 0.0 0.0 
0.0 0.0 0.0 
0.0 0.0 0.0 
0.0 0.0 0.0 
0.0 0.0 0.0 
0.0 0.0 0.0 
0.0 0.0 0.0 
0.0 0.0 0.0 
0.0 0.0 0.0 
0.0 0.0 0.0 
0.0 0.0 0.0 
0.0 0.0 0.0 
0.0 0.0 0.0 
0.0 0.0 0.0 
0.0 0.0 0.0 
0.0 0.0 0.0 
0.0 0.0 0.0 
0.0 0.0 0.0 
0.0 0.0 0.0 
0.0 0.0 0.0 
0.0 0.0 0.0 
0.0 0.0 0.0 
0.0 0.0 0.0 
0.0 0.0 0.0 
0.0 0.0 0.0 
0.0 0.0 0.0 
0.0 0.0 0.0 
0.0 0.0 0.0 
0.0 0.0 0.0 
0.0 0.0 0.0 
0.0 0.0 0.0 
0.0 0.0 0.0 
0.0 0.0 0.0 
0.0 0.0 0.0 
0.0 0.0 0.0 
0.0 0.0 0.0 
0.0 0.0 0.0 
0.0 0.0 0.0 
0.0 0.0 0.0 
0.0 0.0 0.0 
0.0 0.0 0.0 
0.0 0.0 0.0 
0.0 0.0 0.0 
0.0 0.0 0.0 
0.0 0.0 0.0 
0.0 0.0 0.0 
0.0 0.0 0.0 
0.0 0.0 0.0 
0.0 0.0 0.0 
0.0 0.0 0.0 
0.0 0.0 0.0 
0.0 0.0 0.0 
0.0 0.0 0.0 
0.0 0.0 0.0 
0.0 0.0 0.0 
0.0 0.0 0.0 
0.0 0.0 0.0 
0.0 0.0 0.0 
0.0 0.0 0.0 
0.0 0.0 0.0 
0.0 0.0 0.0 
0.0 0.0 0.0 
0.0 0.0 0.0 
0.0 0.0 0.0 
0.0 0.0 0.0 
0.0 0.0 0.0 
0.0 0.0 0.0 
0.0 0.0 0.0 
0.0 0.0 0.0 
0.0 0.0 0.0 
0.0 0.0 0.0 
0.0 0.0 0.0 
0.0 0.0 0.0 
0.0 0.0 0.0 
0.0 0.0 0.0 
0.0 0.0 0.0 
0.0 0.0 0.0 
0.0 0.0 0.0 
0.0 0.0 0.0 
0.0 0.0 0.0 
0.0 0.0 0.0 
0.0 0.0 0.0 
0.0 0.0 0.0 
0.0 0.0 0.0 
0.0 0.0 0.0 
0.0 0.0 0.0 
0.0 0.0 0.0 
0.0 0.0 0.0 
0.0 0.0 0.0 
0.0 0.0 0.0 
0.0 0.0 0.0 
0.0 0.0 0.0 
0.0 0.0 0.0 
0.0 0.0 0.0 
0.0 0.0 0.0 
0.0 0.0 0.0 
0.0 0.0 0.0 
0.0 0.0 0.0 
0.0 0.0 0.0 
0.0 0.0 0.0 
0.0 0.0 0.0 
0.0 0.0 0.0 
0.0 0.0 0.0 
0.0 0.0 0.0 
0.0 0.0 0.0 
0.0 0.0 0.0 
0.0 0.0 0.0 
0.0 0.0 0.0 
0.0 0.0 0.0 
0.0 0.0 0.0 
0.0 0.0 0.0 
0.0 0.0 0.0 
0.0 0.0 0.0 
0.0 0.0 0.0 
0.0 0.0 0.0 
0.0 0.0 0.0 
0.0 0.0 0.0 
0.0 0.0 0.0 
0.0 0.0 0.0 
0.0 0.0 0.0 
0.0 0.0 0.0 
0.0 0.0 0.0 
0.0 0.0 0.0 
0.0 0.0 0.0 
0.0 0.0 0.0 
0.0 0.0 0.0 
0.0 0.0 0.0 
0.0 0.0 0.0 
0.0 0.0 0.0 
0.0 0.0 0.0 
0.0 0.0 0.0 
0.0 0.0 0.0 
0.0 0.0 0.0 
0.0 0.0 0.0 
0.0 0.0 0.0 
0.0 0.0 0.0 
0.0 0.0 0.0 
0.0 0.0 0.0 
0.0 0.0 0.0 
0.0 0.0 0.0 
0.0 0.0 0.0 
0.0 0.0 0.0 
0.0 0.0 0.0 
0.0 0.0 0.0 
0.0 0.0 0.0 
0.0 0.0 0.0 
0.0 0.0 0.0 
0.0 0.0 0.0 
0.0 0.0 0.0 
0.0 0.0 0.0 
0.0 0.0 0.0 
0.0 0.0 0.0 
0.0 0.0 0.0 
0.0 0.0 0.0 
0.0 0.0 0.0 
0.0 0.0 0.0 
0.0 0.0 0.0 
0.0 0.0 0.0 
0.0 0.0 0.0 
0.0 0.0 0.0 
0.0 0.0 0.0 
0.0 0.0 0.0 
0.0 0.0 0.0 
0.0 0.0 0.0 
0.0 0.0 0.0 
0.0 0.0 0.0 
0.0 0.0 0.0 
0.0 0.0 0.0 
0.0 0.0 0.0 
0.0 0.0 0.0 
0.0 0.0 0.0 
0.0 0.0 0.0 
0.0 0.0 0.0 
0.0 0.0 0.0 
0.0 0.0 0.0 
0.0 0.0 0.0 
0.0 0.0 0.0 
0.0 0.0 0.0 
0.0 0.0 0.0 
0.0 0.0 0.0 
0.0 0.0 0.0 
0.0 0.0 0.0 
0.0 0.0 0.0 
0.0 0.0 0.0 
0.0 0.0 0.0 
0.0 0.0 0.0 
0.0 0.0 0.0 
0.0 0.0 0.0 
0.0 0.0 0.0 
0.0 0.0 0.0 
0.0 0.0 0.0 
0.0 0.0 0.0 
0.0 0.0 0.0 
0.0 0.0 0.0 
0.0 0.0 0.0 
0.0 0.0 0.0 
0.0 0.0 0.0 
0.0 0.0 0.0 
0.0 0.0 0.0 
0.0 0.0 0.0 
0.0 0.0 0.0 
0.0 0.0 0.0 
0.0 0.0 0.0 
0.0 0.0 0.0 
0.0 0.0 0.0 
0.0 0.0 0.0 
0.0 0.0 0.0 
0.0 0.0 0.0 
0.0 0.0 0.0 
0.0 0.0 0.0 
0.0 0.0 0.0 
0.0 0.0 0.0 
0.0 0.0 0.0 
0.0 0.0 0.0 
0.0 0.0 0.0 
0.0 0.0 0.0 
0.0 0.0 0.0 
0.0 0.0 0.0 
0.0 0.0 0.0 
0.0 0.0 0.0 
0.0 0.0 0.0 
0.0 0.0 0.0 
0.0 0.0 0.0 
0.0 0.0 0.0 
0.0 0.0 0.0 
0.0 0.0 0.0 
0.0 0.0 0.0 
0.0 0.0 0.0 
0.0 0.0 0.0 
0.0 0.0 0.0 
0.0 0.0 0.0 
0.0 0.0 0.0 
0.0 0.0 0.0 
0.0 0.0 0.0 
0.0 0.0 0.0 
0.0 0.0 0.0 
0.0 0.0 0.0 
0.0 0.0 0.0 
0.0 0.0 0.0 
0.0 0.0 0.0 
0.0 0.0 0.0 
0.0 0.0 0.0 
0.0 0.0 0.0 
0.0 0.0 0.0 
0.0 0.0 0.0 
0.0 0.0 0.0 
0.0 0.0 0.0 
0.0 0.0 0.0 
0.0 0.0 0.0 
0.0 0.0 0.0 
0.0 0.0 0.0 
0.0 0.0 0.0 
0.0 0.0 0.0 
0.0 0.0 0.0 
0.0 0.0 0.0 
0.0 0.0 0.0 
0.0 0.0 0.0 
0.0 0.0 0.0 
0.0 0.0 0.0 
0.0 0.0 0.0 
0.0 0.0 0.0 
0.0 0.0 0.0 
0.0 0.0 0.0 
0.0 0.0 0.0 
0.0 0.0 0.0 
0.0 0.0 0.0 
0.0 0.0 0.0 
0.0 0.0 0.0 
0.0 0.0 0.0 
0.0 0.0 0.0 
0.0 0.0 0.0 
0.0 0.0 0.0 
0.0 0.0 0.0 
0.0 0.0 0.0 
0.0 0.0 0.0 
0.0 0.0 0.0 
0.0 0.0 0.0 
0.0 0.0 0.0 
0.0 0.0 0.0 
0.0 0.0 0.0 
0.0 0.0 0.0 
0.0 0.0 0.0 
0.0 0.0 0.0 
0.0 0.0 0.0 
0.0 0.0 0.0 
0.0 0.0 0.0 
0.0 0.0 0.0 
0.0 0.0 0.0 
0.0 0.0 0.0 
0.0 0.0 0.0 
0.0 0.0 0.0 
0.0 0.0 0.0 
0.0 0.0 0.0 
0.0 0.0 0.0 
0.0 0.0 0.0 
0.0 0.0 0.0 
0.0 0.0 0.0 
0.0 0.0 0.0 
0.0 0.0 0.0 
0.0 0.0 0.0 
0.0 0.0 0.0 
0.0 0.0 0.0 
0.0 0.0 0.0 
0.0 0.0 0.0 
0.0 0.0 0.0 
0.0 0.0 0.0 
0.0 0.0 0.0 
0.0 0.0 0.0 
0.0 0.0 0.0 
0.0 0.0 0.0 
0.0 0.0 0.0 
0.0 0.0 0.0 
0.0 0.0 0.0 
0.0 0.0 0.0 
0.0 0.0 0.0 
0.0 0.0 0.0 
0.0 0.0 0.0 
0.0 0.0 0.0 
0.0 0.0 0.0 
0.0 0.0 0.0 
0.0 0.0 0.0 
0.0 0.0 0.0 
0.0 0.0 0.0 
0.0 0.0 0.0 
0.0 0.0 0.0 
0.0 0.0 0.0 
0.0 0.0 0.0 
0.0 0.0 0.0 
0.0 0.0 0.0 
0.0 0.0 0.0 
0.0 0.0 0.0 
0.0 0.0 0.0 
0.0 0.0 0.0 
0.0 0.0 0.0 
0.0 0.0 0.0 
0.0 0.0 0.0 
0.0 0.0 0.0 
0.0 0.0 0.0 
0.0 0.0 0.0 
0.0 0.0 0.0 
0.0 0.0 0.0 
0.0 0.0 0.0 
0.0 0.0 0.0 
0.0 0.0 0.0 
0.0 0.0 0.0 
0.0 0.0 0.0 
0.0 0.0 0.0 
0.0 0.0 0.0 
0.0 0.0 0.0 
0.0 0.0 0.0 
0.0 0.0 0.0 
0.0 0.0 0.0 
0.0 0.0 0.0 
0.0 0.0 0.0 
0.0 0.0 0.0 
0.0 0.0 0.0 
0.0 0.0 0.0 
0.0 0.0 0.0 
0.0 0.0 0.0 
0.0 0.0 0.0 
0.0 0.0 0.0 
0.0 0.0 0.0 
0.0 0.0 0.0 
0.0 0.0 0.0 
0.0 0.0 0.0 
0.0 0.0 0.0 
0.0 0.0 0.0 
0.0 0.0 0.0 
0.0 0.0 0.0 
0.0 0.0 0.0 
0.0 0.0 0.0 
0.0 0.0 0.0 
0.0 0.0 0.0 
0.0 0.0 0.0 
0.0 0.0 0.0 
0.0 0.0 0.0 
0.0 0.0 0.0 
0.0 0.0 0.0 
0.0 0.0 0.0 
0.0 0.0 0.0 
0.0 0.0 0.0 

SCALARS node_boundary float
LOOKUP_TABLE default
1.000000000000e+00 
1.000000000000e+00 
1.000000000000e+00 
1.000000000000e+00 
1.000000000000e+00 
1.000000000000e+00 
1.000000000000e+00 
1.000000000000e+00 
1.000000000000e+00 
1.000000000000e+00 
1.000000000000e+00 
1.000000000000e+00 
1.000000000000e+00 
1.000000000000e+00 
1.000000000000e+00 
1.000000000000e+00 
1.000000000000e+00 
1.000000000000e+00 
1.000000000000e+00 
1.000000000000e+00 
1.000000000000e+00 
1.000000000000e+00 
1.000000000000e+00 
1.000000000000e+00 
1.000000000000e+00 
1.000000000000e+00 
1.000000000000e+00 
1.000000000000e+00 
1.000000000000e+00 
1.000000000000e+00 
1.000000000000e+00 
1.000000000000e+00 
1.000000000000e+00 
1.000000000000e+00 
1.000000000000e+00 
1.000000000000e+00 
1.000000000000e+00 
1.000000000000e+00 
1.000000000000e+00 
1.000000000000e+00 
1.000000000000e+00 
1.000000000000e+00 
1.000000000000e+00 
1.000000000000e+00 
1.000000000000e+00 
1.000000000000e+00 
1.000000000000e+00 
1.000000000000e+00 
1.000000000000e+00 
1.000000000000e+00 
1.000000000000e+00 
1.000000000000e+00 
1.000000000000e+00 
1.000000000000e+00 
1.000000000000e+00 
1.000000000000e+00 
1.000000000000e+00 
1.000000000000e+00 
1.000000000000e+00 
1.000000000000e+00 
1.000000000000e+00 
1.000000000000e+00 
1.000000000000e+00 
1.000000000000e+00 
1.000000000000e+00 
1.000000000000e+00 
1.000000000000e+00 
1.000000000000e+00 
1.000000000000e+00 
1.000000000000e+00 
1.000000000000e+00 
1.000000000000e+00 
1.000000000000e+00 
1.000000000000e+00 
1.000000000000e+00 
1.000000000000e+00 
1.000000000000e+00 
1.000000000000e+00 
1.000000000000e+00 
1.000000000000e+00 
1.000000000000e+00 
1.000000000000e+00 
0.0
1.000000000000e+00 
1.000000000000e+00 
1.000000000000e+00 
1.000000000000e+00 
1.000000000000e+00 
1.000000000000e+00 
1.000000000000e+00 
1.000000000000e+00 
0.0
1.000000000000e+00 
1.000000000000e+00 
0.0
0.0
0.0
0.0
0.0
0.0
0.0
0.0
0.0
0.0
0.0
0.0
0.0
0.0
1.000000000000e+00 
1.000000000000e+00 
1.000000000000e+00 
1.000000000000e+00 
1.000000000000e+00 
1.000000000000e+00 
1.000000000000e+00 
1.000000000000e+00 
1.000000000000e+00 
1.000000000000e+00 
1.000000000000e+00 
1.000000000000e+00 
1.000000000000e+00 
1.000000000000e+00 
1.000000000000e+00 
1.000000000000e+00 
1.000000000000e+00 
1.000000000000e+00 
1.000000000000e+00 
1.000000000000e+00 
1.000000000000e+00 
1.000000000000e+00 
1.000000000000e+00 
1.000000000000e+00 
1.000000000000e+00 
1.000000000000e+00 
1.000000000000e+00 
1.000000000000e+00 
1.000000000000e+00 
1.000000000000e+00 
1.000000000000e+00 
1.000000000000e+00 
1.000000000000e+00 
1.000000000000e+00 
1.000000000000e+00 
1.000000000000e+00 
0.0
0.0
0.0
0.0
0.0
0.0
0.0
0.0
0.0
0.0
0.0
0.0
0.0
0.0
0.0
0.0
1.000000000000e+00 
1.000000000000e+00 
1.000000000000e+00 
1.000000000000e+00 
1.000000000000e+00 
1.000000000000e+00 
1.000000000000e+00 
1.000000000000e+00 
0.0
0.0
0.0
0.0
0.0
0.0
0.0
0.0
0.0
0.0
0.0
0.0
0.0
0.0
0.0
0.0
0.0
0.0
0.0
0.0
0.0
0.0
0.0
0.0
0.0
0.0
0.0
0.0
0.0
0.0
0.0
0.0
0.0
0.0
0.0
0.0
0.0
0.0
0.0
0.0
0.0
0.0
0.0
0.0
0.0
0.0
0.0
0.0
0.0
0.0
0.0
0.0
0.0
0.0
0.0
0.0
0.0
0.0
0.0
0.0
0.0
0.0
0.0
0.0
0.0
0.0
0.0
0.0
0.0
0.0
0.0
0.0
0.0
0.0
0.0
0.0
0.0
0.0
0.0
0.0
0.0
0.0
0.0
0.0
0.0
0.0
0.0
0.0
0.0
0.0
0.0
0.0
0.0
0.0
0.0
0.0
0.0
0.0
0.0
0.0
0.0
0.0
0.0
0.0
0.0
0.0
0.0
0.0
0.0
0.0
0.0
0.0
0.0
0.0
0.0
0.0
0.0
0.0
0.0
0.0
0.0
0.0
0.0
0.0
0.0
0.0
0.0
0.0
0.0
0.0
0.0
0.0
0.0
0.0
0.0
0.0
0.0
0.0
0.0
0.0
0.0
0.0
0.0
0.0
0.0
0.0
0.0
0.0
0.0
0.0
0.0
0.0
0.0
0.0
0.0
0.0
0.0
0.0
0.0
0.0
0.0
0.0
0.0
0.0
0.0
0.0
0.0
0.0
0.0
0.0
0.0
0.0
0.0
0.0
0.0
0.0
0.0
0.0
0.0
0.0
0.0
0.0
0.0
0.0
0.0
0.0
0.0
0.0
0.0
0.0
0.0
0.0
0.0
0.0
0.0
0.0
0.0
0.0
0.0
0.0
0.0
0.0
0.0
0.0
0.0
0.0
0.0
0.0
0.0
0.0
0.0
0.0
0.0
0.0
0.0
0.0
0.0
0.0
0.0
0.0
0.0
0.0
0.0
0.0
0.0
0.0
0.0
0.0
0.0
0.0
0.0
0.0
0.0
0.0
0.0
0.0
0.0
0.0
0.0
0.0
0.0
0.0
0.0
0.0
0.0
0.0
0.0
0.0
0.0
0.0
0.0
0.0
0.0
0.0
0.0
0.0
0.0
0.0
0.0
0.0
0.0
0.0
0.0
0.0
0.0
0.0
0.0
0.0
0.0
0.0
0.0
0.0
0.0
0.0
0.0
0.0
0.0
0.0
0.0
0.0
0.0
0.0
0.0
0.0
0.0
0.0
0.0
0.0
0.0
0.0
0.0
0.0
0.0
0.0
0.0
0.0
0.0
0.0
0.0
0.0
0.0
0.0
0.0
0.0
0.0
0.0
0.0
0.0
0.0
0.0
0.0
0.0
0.0
0.0
0.0
0.0
0.0
0.0
0.0
0.0
0.0
0.0
0.0
0.0
0.0
0.0
0.0
0.0
0.0
0.0
0.0
0.0
0.0
0.0
0.0
0.0
0.0
0.0
0.0
0.0
0.0
0.0
0.0
0.0
0.0
0.0
0.0
0.0
0.0
0.0
0.0
0.0
0.0
0.0
0.0
0.0
0.0
0.0
0.0
0.0
0.0
0.0
0.0
0.0
0.0
0.0
0.0
0.0
0.0
0.0
0.0
0.0
0.0
0.0
0.0
0.0
0.0
0.0
0.0
0.0
0.0
0.0
0.0
0.0
0.0
0.0
0.0
0.0
0.0
0.0
0.0
0.0
0.0
0.0
0.0
0.0
0.0
0.0
0.0
0.0
0.0
0.0
0.0
0.0
0.0
0.0
0.0
0.0
0.0
0.0
0.0
0.0
0.0
0.0
0.0
0.0
0.0
0.0
0.0
0.0
0.0
0.0
0.0
0.0
0.0
0.0
0.0
0.0
0.0
0.0
0.0
0.0
0.0
0.0
0.0
0.0
0.0
0.0
0.0
0.0
0.0
0.0
0.0
0.0
0.0
0.0
0.0
0.0
0.0
0.0
0.0
0.0
0.0
0.0
0.0
0.0
0.0
0.0
0.0
0.0
0.0
0.0
0.0
0.0
0.0
0.0
0.0
0.0
0.0
0.0
0.0
0.0
0.0
0.0
0.0
0.0
0.0
0.0
0.0
0.0
0.0
0.0
0.0
0.0
0.0
0.0
0.0
0.0
0.0
0.0
0.0
0.0
0.0
0.0
0.0
0.0
0.0
0.0
0.0
0.0
0.0
0.0
0.0
0.0
0.0
0.0
0.0
0.0
0.0
0.0
0.0
0.0
0.0
0.0
0.0
0.0
0.0
0.0
0.0
0.0
0.0
0.0
0.0
0.0
0.0
0.0
0.0
0.0
0.0
0.0
0.0
0.0
0.0
0.0
0.0
0.0
0.0
0.0
0.0
0.0
0.0
0.0
0.0
0.0
0.0
0.0
0.0
0.0
0.0
0.0
0.0
0.0
0.0
0.0
0.0
0.0
0.0
0.0
0.0
0.0
0.0
0.0
0.0
0.0
0.0
0.0
0.0
0.0
0.0
0.0
0.0
0.0
0.0
0.0
0.0
0.0
0.0
0.0
0.0
0.0
0.0
0.0
0.0
0.0
0.0
0.0
0.0
0.0
0.0
0.0
0.0
0.0
0.0
0.0
0.0
0.0
0.0
0.0
0.0
0.0
0.0
0.0
0.0
0.0
0.0
0.0
0.0
0.0
0.0
0.0
0.0
0.0
0.0
0.0
0.0
0.0
0.0
0.0
0.0
0.0
0.0
0.0
0.0
0.0
0.0
0.0
0.0
0.0
0.0
0.0
0.0
0.0
0.0
0.0
0.0
0.0
0.0
0.0
0.0
0.0
0.0
0.0
0.0
0.0
0.0
0.0
0.0
0.0
0.0
0.0
0.0
0.0
0.0
0.0
0.0
0.0
0.0
0.0
0.0
0.0
0.0
0.0
0.0
0.0
0.0
0.0
0.0
0.0
0.0
0.0
0.0
0.0
0.0
0.0
0.0
0.0
0.0
0.0
0.0
0.0
0.0
0.0
0.0
0.0
0.0
0.0
0.0
0.0
0.0
0.0
0.0
0.0
0.0
0.0
0.0
0.0
0.0
0.0
0.0
0.0
0.0
0.0
0.0
0.0
0.0
0.0
0.0
0.0
0.0
0.0
0.0
0.0
0.0
0.0
0.0
0.0
0.0
0.0
0.0
0.0
0.0
0.0
0.0
0.0
0.0
0.0
0.0
0.0
0.0
0.0
0.0
0.0
0.0
0.0
0.0
0.0
0.0
0.0
0.0
0.0
0.0
0.0
0.0
0.0
0.0
0.0
0.0
0.0
0.0
0.0
0.0
0.0
0.0
0.0
0.0
0.0
0.0
0.0
0.0
0.0
0.0
0.0
0.0
0.0
0.0
0.0
0.0
0.0
0.0
0.0
0.0
0.0
0.0
0.0
0.0
0.0
0.0
0.0
0.0
0.0
0.0
0.0
0.0
0.0
0.0
0.0
0.0
0.0
0.0
0.0
0.0
0.0
0.0
0.0
0.0
0.0
0.0
0.0
0.0
0.0
0.0
0.0
0.0
0.0
0.0
0.0
0.0
0.0
0.0
0.0
0.0
0.0
0.0
0.0
0.0
0.0
0.0
0.0
0.0
0.0
0.0
0.0
0.0
0.0
0.0
0.0
0.0
0.0
0.0
0.0
0.0
0.0
0.0
0.0
0.0
0.0
0.0
0.0
0.0
0.0
0.0
0.0
0.0
0.0
0.0
0.0
0.0
0.0
0.0
0.0
0.0
0.0
0.0
0.0
0.0
0.0
0.0
0.0
0.0
0.0
0.0
0.0
0.0
0.0
0.0
0.0
0.0
0.0
0.0
0.0
0.0
0.0
0.0
0.0
0.0
0.0
0.0
0.0
0.0
0.0
0.0
0.0
0.0
0.0
0.0
0.0
0.0
0.0
0.0
0.0
0.0
0.0
0.0
0.0
0.0
0.0
0.0
0.0
0.0

VECTORS node_force_edge float
0.0 0.0 0.0 
0.0 0.0 0.0 
0.0 0.0 0.0 
0.0 0.0 0.0 
0.0 0.0 0.0 
0.0 0.0 0.0 
0.0 0.0 0.0 
0.0 0.0 0.0 
0.0 0.0 0.0 
0.0 0.0 0.0 
0.0 0.0 0.0 
0.0 0.0 0.0 
0.0 0.0 0.0 
0.0 0.0 0.0 
0.0 0.0 0.0 
0.0 0.0 0.0 
0.0 0.0 0.0 
0.0 0.0 0.0 
0.0 0.0 0.0 
0.0 0.0 0.0 
0.0 0.0 0.0 
0.0 0.0 0.0 
0.0 0.0 0.0 
0.0 0.0 0.0 
0.0 0.0 0.0 
0.0 0.0 0.0 
0.0 0.0 0.0 
0.0 0.0 0.0 
0.0 0.0 0.0 
0.0 0.0 0.0 
0.0 0.0 0.0 
0.0 0.0 0.0 
0.0 0.0 0.0 
0.0 0.0 0.0 
0.0 0.0 0.0 
0.0 0.0 0.0 
0.0 0.0 0.0 
0.0 0.0 0.0 
0.0 0.0 0.0 
0.0 0.0 0.0 
0.0 0.0 0.0 
0.0 0.0 0.0 
0.0 0.0 0.0 
0.0 0.0 0.0 
0.0 0.0 0.0 
0.0 0.0 0.0 
0.0 0.0 0.0 
0.0 0.0 0.0 
0.0 0.0 0.0 
0.0 0.0 0.0 
0.0 0.0 0.0 
0.0 0.0 0.0 
0.0 0.0 0.0 
0.0 0.0 0.0 
0.0 0.0 0.0 
0.0 0.0 0.0 
0.0 0.0 0.0 
0.0 0.0 0.0 
0.0 0.0 0.0 
0.0 0.0 0.0 
0.0 0.0 0.0 
0.0 0.0 0.0 
0.0 0.0 0.0 
0.0 0.0 0.0 
0.0 0.0 0.0 
0.0 0.0 0.0 
0.0 0.0 0.0 
0.0 0.0 0.0 
0.0 0.0 0.0 
0.0 0.0 0.0 
0.0 0.0 0.0 
0.0 0.0 0.0 
0.0 0.0 0.0 
0.0 0.0 0.0 
0.0 0.0 0.0 
0.0 0.0 0.0 
0.0 0.0 0.0 
0.0 0.0 0.0 
0.0 0.0 0.0 
0.0 0.0 0.0 
0.0 0.0 0.0 
0.0 -1.000000000000e+02 0.0 
0.0 0.0 0.0 
0.0 0.0 0.0 
0.0 0.0 0.0 
0.0 0.0 0.0 
0.0 0.0 0.0 
0.0 0.0 0.0 
0.0 0.0 0.0 
0.0 0.0 0.0 
0.0 0.0 0.0 
0.0 0.0 0.0 
0.0 0.0 0.0 
0.0 0.0 0.0 
0.0 0.0 0.0 
0.0 0.0 0.0 
0.0 0.0 0.0 
0.0 0.0 0.0 
0.0 0.0 0.0 
0.0 0.0 0.0 
0.0 0.0 0.0 
0.0 0.0 0.0 
0.0 0.0 0.0 
0.0 0.0 0.0 
0.0 0.0 0.0 
0.0 0.0 0.0 
0.0 0.0 0.0 
0.0 0.0 0.0 
0.0 -1.000000000000e+02 0.0 
0.0 -1.000000000000e+02 0.0 
0.0 -1.000000000000e+02 0.0 
0.0 -1.000000000000e+02 0.0 
0.0 -1.000000000000e+02 0.0 
0.0 0.0 0.0 
0.0 0.0 0.0 
0.0 0.0 0.0 
0.0 0.0 0.0 
0.0 0.0 0.0 
0.0 0.0 0.0 
0.0 0.0 0.0 
0.0 0.0 0.0 
0.0 0.0 0.0 
0.0 0.0 0.0 
0.0 0.0 0.0 
0.0 0.0 0.0 
0.0 0.0 0.0 
0.0 0.0 0.0 
0.0 0.0 0.0 
0.0 0.0 0.0 
0.0 0.0 0.0 
0.0 0.0 0.0 
0.0 0.0 0.0 
0.0 0.0 0.0 
0.0 0.0 0.0 
0.0 0.0 0.0 
0.0 0.0 0.0 
0.0 0.0 0.0 
0.0 0.0 0.0 
0.0 0.0 0.0 
0.0 0.0 0.0 
0.0 0.0 0.0 
0.0 0.0 0.0 
0.0 0.0 0.0 
0.0 0.0 0.0 
0.0 0.0 0.0 
0.0 0.0 0.0 
0.0 0.0 0.0 
0.0 0.0 0.0 
0.0 0.0 0.0 
0.0 0.0 0.0 
0.0 0.0 0.0 
0.0 0.0 0.0 
0.0 0.0 0.0 
0.0 0.0 0.0 
0.0 0.0 0.0 
0.0 0.0 0.0 
0.0 0.0 0.0 
0.0 0.0 0.0 
0.0 0.0 0.0 
0.0 0.0 0.0 
0.0 0.0 0.0 
0.0 0.0 0.0 
0.0 0.0 0.0 
0.0 0.0 0.0 
0.0 0.0 0.0 
0.0 0.0 0.0 
0.0 0.0 0.0 
0.0 0.0 0.0 
0.0 0.0 0.0 
0.0 0.0 0.0 
0.0 0.0 0.0 
0.0 0.0 0.0 
0.0 0.0 0.0 
0.0 0.0 0.0 
0.0 0.0 0.0 
0.0 0.0 0.0 
0.0 0.0 0.0 
0.0 0.0 0.0 
0.0 0.0 0.0 
0.0 0.0 0.0 
0.0 0.0 0.0 
0.0 0.0 0.0 
0.0 0.0 0.0 
0.0 0.0 0.0 
0.0 0.0 0.0 
0.0 0.0 0.0 
0.0 0.0 0.0 
0.0 0.0 0.0 
0.0 0.0 0.0 
0.0 0.0 0.0 
0.0 0.0 0.0 
0.0 0.0 0.0 
0.0 0.0 0.0 
0.0 0.0 0.0 
0.0 0.0 0.0 
0.0 0.0 0.0 
0.0 0.0 0.0 
0.0 0.0 0.0 
0.0 0.0 0.0 
0.0 0.0 0.0 
0.0 0.0 0.0 
0.0 0.0 0.0 
0.0 0.0 0.0 
0.0 0.0 0.0 
0.0 0.0 0.0 
0.0 0.0 0.0 
0.0 0.0 0.0 
0.0 0.0 0.0 
0.0 0.0 0.0 
0.0 0.0 0.0 
0.0 0.0 0.0 
0.0 0.0 0.0 
0.0 0.0 0.0 
0.0 0.0 0.0 
0.0 0.0 0.0 
0.0 0.0 0.0 
0.0 0.0 0.0 
0.0 0.0 0.0 
0.0 0.0 0.0 
0.0 0.0 0.0 
0.0 0.0 0.0 
0.0 0.0 0.0 
0.0 0.0 0.0 
0.0 0.0 0.0 
0.0 0.0 0.0 
0.0 0.0 0.0 
0.0 0.0 0.0 
0.0 0.0 0.0 
0.0 0.0 0.0 
0.0 0.0 0.0 
0.0 0.0 0.0 
0.0 0.0 0.0 
0.0 0.0 0.0 
0.0 0.0 0.0 
0.0 0.0 0.0 
0.0 0.0 0.0 
0.0 0.0 0.0 
0.0 0.0 0.0 
0.0 0.0 0.0 
0.0 0.0 0.0 
0.0 0.0 0.0 
0.0 0.0 0.0 
0.0 0.0 0.0 
0.0 0.0 0.0 
0.0 0.0 0.0 
0.0 0.0 0.0 
0.0 0.0 0.0 
0.0 0.0 0.0 
0.0 0.0 0.0 
0.0 0.0 0.0 
0.0 0.0 0.0 
0.0 0.0 0.0 
0.0 0.0 0.0 
0.0 0.0 0.0 
0.0 0.0 0.0 
0.0 0.0 0.0 
0.0 0.0 0.0 
0.0 0.0 0.0 
0.0 0.0 0.0 
0.0 0.0 0.0 
0.0 0.0 0.0 
0.0 0.0 0.0 
0.0 0.0 0.0 
0.0 0.0 0.0 
0.0 0.0 0.0 
0.0 0.0 0.0 
0.0 0.0 0.0 
0.0 0.0 0.0 
0.0 0.0 0.0 
0.0 0.0 0.0 
0.0 0.0 0.0 
0.0 0.0 0.0 
0.0 0.0 0.0 
0.0 0.0 0.0 
0.0 0.0 0.0 
0.0 0.0 0.0 
0.0 0.0 0.0 
0.0 0.0 0.0 
0.0 0.0 0.0 
0.0 0.0 0.0 
0.0 0.0 0.0 
0.0 0.0 0.0 
0.0 0.0 0.0 
0.0 0.0 0.0 
0.0 0.0 0.0 
0.0 0.0 0.0 
0.0 0.0 0.0 
0.0 0.0 0.0 
0.0 0.0 0.0 
0.0 0.0 0.0 
0.0 0.0 0.0 
0.0 0.0 0.0 
0.0 0.0 0.0 
0.0 0.0 0.0 
0.0 0.0 0.0 
0.0 0.0 0.0 
0.0 0.0 0.0 
0.0 0.0 0.0 
0.0 0.0 0.0 
0.0 0.0 0.0 
0.0 0.0 0.0 
0.0 0.0 0.0 
0.0 0.0 0.0 
0.0 0.0 0.0 
0.0 0.0 0.0 
0.0 0.0 0.0 
0.0 0.0 0.0 
0.0 0.0 0.0 
0.0 0.0 0.0 
0.0 0.0 0.0 
0.0 0.0 0.0 
0.0 0.0 0.0 
0.0 0.0 0.0 
0.0 0.0 0.0 
0.0 0.0 0.0 
0.0 0.0 0.0 
0.0 0.0 0.0 
0.0 0.0 0.0 
0.0 0.0 0.0 
0.0 0.0 0.0 
0.0 0.0 0.0 
0.0 0.0 0.0 
0.0 0.0 0.0 
0.0 0.0 0.0 
0.0 0.0 0.0 
0.0 0.0 0.0 
0.0 0.0 0.0 
0.0 0.0 0.0 
0.0 0.0 0.0 
0.0 0.0 0.0 
0.0 0.0 0.0 
0.0 0.0 0.0 
0.0 0.0 0.0 
0.0 0.0 0.0 
0.0 0.0 0.0 
0.0 0.0 0.0 
0.0 0.0 0.0 
0.0 0.0 0.0 
0.0 0.0 0.0 
0.0 0.0 0.0 
0.0 0.0 0.0 
0.0 0.0 0.0 
0.0 0.0 0.0 
0.0 0.0 0.0 
0.0 0.0 0.0 
0.0 0.0 0.0 
0.0 0.0 0.0 
0.0 0.0 0.0 
0.0 0.0 0.0 
0.0 0.0 0.0 
0.0 0.0 0.0 
0.0 0.0 0.0 
0.0 0.0 0.0 
0.0 0.0 0.0 
0.0 0.0 0.0 
0.0 0.0 0.0 
0.0 0.0 0.0 
0.0 0.0 0.0 
0.0 0.0 0.0 
0.0 0.0 0.0 
0.0 0.0 0.0 
0.0 0.0 0.0 
0.0 0.0 0.0 
0.0 0.0 0.0 
0.0 0.0 0.0 
0.0 0.0 0.0 
0.0 0.0 0.0 
0.0 0.0 0.0 
0.0 0.0 0.0 
0.0 0.0 0.0 
0.0 0.0 0.0 
0.0 0.0 0.0 
0.0 0.0 0.0 
0.0 0.0 0.0 
0.0 0.0 0.0 
0.0 0.0 0.0 
0.0 0.0 0.0 
0.0 0.0 0.0 
0.0 0.0 0.0 
0.0 0.0 0.0 
0.0 0.0 0.0 
0.0 0.0 0.0 
0.0 0.0 0.0 
0.0 0.0 0.0 
0.0 0.0 0.0 
0.0 0.0 0.0 
0.0 0.0 0.0 
0.0 0.0 0.0 
0.0 0.0 0.0 
0.0 0.0 0.0 
0.0 0.0 0.0 
0.0 0.0 0.0 
0.0 0.0 0.0 
0.0 0.0 0.0 
0.0 0.0 0.0 
0.0 0.0 0.0 
0.0 0.0 0.0 
0.0 0.0 0.0 
0.0 0.0 0.0 
0.0 0.0 0.0 
0.0 0.0 0.0 
0.0 0.0 0.0 
0.0 0.0 0.0 
0.0 0.0 0.0 
0.0 0.0 0.0 
0.0 0.0 0.0 
0.0 0.0 0.0 
0.0 0.0 0.0 
0.0 0.0 0.0 
0.0 0.0 0.0 
0.0 0.0 0.0 
0.0 0.0 0.0 
0.0 0.0 0.0 
0.0 0.0 0.0 
0.0 0.0 0.0 
0.0 0.0 0.0 
0.0 0.0 0.0 
0.0 0.0 0.0 
0.0 0.0 0.0 
0.0 0.0 0.0 
0.0 0.0 0.0 
0.0 0.0 0.0 
0.0 0.0 0.0 
0.0 0.0 0.0 
0.0 0.0 0.0 
0.0 0.0 0.0 
0.0 0.0 0.0 
0.0 0.0 0.0 
0.0 0.0 0.0 
0.0 0.0 0.0 
0.0 0.0 0.0 
0.0 0.0 0.0 
0.0 0.0 0.0 
0.0 0.0 0.0 
0.0 0.0 0.0 
0.0 0.0 0.0 
0.0 0.0 0.0 
0.0 0.0 0.0 
0.0 0.0 0.0 
0.0 0.0 0.0 
0.0 0.0 0.0 
0.0 0.0 0.0 
0.0 0.0 0.0 
0.0 0.0 0.0 
0.0 0.0 0.0 
0.0 0.0 0.0 
0.0 0.0 0.0 
0.0 0.0 0.0 
0.0 0.0 0.0 
0.0 0.0 0.0 
0.0 0.0 0.0 
0.0 0.0 0.0 
0.0 0.0 0.0 
0.0 0.0 0.0 
0.0 0.0 0.0 
0.0 0.0 0.0 
0.0 0.0 0.0 
0.0 0.0 0.0 
0.0 0.0 0.0 
0.0 0.0 0.0 
0.0 0.0 0.0 
0.0 0.0 0.0 
0.0 0.0 0.0 
0.0 0.0 0.0 
0.0 0.0 0.0 
0.0 0.0 0.0 
0.0 0.0 0.0 
0.0 0.0 0.0 
0.0 0.0 0.0 
0.0 0.0 0.0 
0.0 0.0 0.0 
0.0 0.0 0.0 
0.0 0.0 0.0 
0.0 0.0 0.0 
0.0 0.0 0.0 
0.0 0.0 0.0 
0.0 0.0 0.0 
0.0 0.0 0.0 
0.0 0.0 0.0 
0.0 0.0 0.0 
0.0 0.0 0.0 
0.0 0.0 0.0 
0.0 0.0 0.0 
0.0 0.0 0.0 
0.0 0.0 0.0 
0.0 0.0 0.0 
0.0 0.0 0.0 
0.0 0.0 0.0 
0.0 0.0 0.0 
0.0 0.0 0.0 
0.0 0.0 0.0 
0.0 0.0 0.0 
0.0 0.0 0.0 
0.0 0.0 0.0 
0.0 0.0 0.0 
0.0 0.0 0.0 
0.0 0.0 0.0 
0.0 0.0 0.0 
0.0 0.0 0.0 
0.0 0.0 0.0 
0.0 0.0 0.0 
0.0 0.0 0.0 
0.0 0.0 0.0 
0.0 0.0 0.0 
0.0 0.0 0.0 
0.0 0.0 0.0 
0.0 0.0 0.0 
0.0 0.0 0.0 
0.0 0.0 0.0 
0.0 0.0 0.0 
0.0 0.0 0.0 
0.0 0.0 0.0 
0.0 0.0 0.0 
0.0 0.0 0.0 
0.0 0.0 0.0 
0.0 0.0 0.0 
0.0 0.0 0.0 
0.0 0.0 0.0 
0.0 0.0 0.0 
0.0 0.0 0.0 
0.0 0.0 0.0 
0.0 0.0 0.0 
0.0 0.0 0.0 
0.0 0.0 0.0 
0.0 0.0 0.0 
0.0 0.0 0.0 
0.0 0.0 0.0 
0.0 0.0 0.0 
0.0 0.0 0.0 
0.0 0.0 0.0 
0.0 0.0 0.0 
0.0 0.0 0.0 
0.0 0.0 0.0 
0.0 0.0 0.0 
0.0 0.0 0.0 
0.0 0.0 0.0 
0.0 0.0 0.0 
0.0 0.0 0.0 
0.0 0.0 0.0 
0.0 0.0 0.0 
0.0 0.0 0.0 
0.0 0.0 0.0 
0.0 0.0 0.0 
0.0 0.0 0.0 
0.0 0.0 0.0 
0.0 0.0 0.0 
0.0 0.0 0.0 
0.0 0.0 0.0 
0.0 0.0 0.0 
0.0 0.0 0.0 
0.0 0.0 0.0 
0.0 0.0 0.0 
0.0 0.0 0.0 
0.0 0.0 0.0 
0.0 0.0 0.0 
0.0 0.0 0.0 
0.0 0.0 0.0 
0.0 0.0 0.0 
0.0 0.0 0.0 
0.0 0.0 0.0 
0.0 0.0 0.0 
0.0 0.0 0.0 
0.0 0.0 0.0 
0.0 0.0 0.0 
0.0 0.0 0.0 
0.0 0.0 0.0 
0.0 0.0 0.0 
0.0 0.0 0.0 
0.0 0.0 0.0 
0.0 0.0 0.0 
0.0 0.0 0.0 
0.0 0.0 0.0 
0.0 0.0 0.0 
0.0 0.0 0.0 
0.0 0.0 0.0 
0.0 0.0 0.0 
0.0 0.0 0.0 
0.0 0.0 0.0 
0.0 0.0 0.0 
0.0 0.0 0.0 
0.0 0.0 0.0 
0.0 0.0 0.0 
0.0 0.0 0.0 
0.0 0.0 0.0 
0.0 0.0 0.0 
0.0 0.0 0.0 
0.0 0.0 0.0 
0.0 0.0 0.0 
0.0 0.0 0.0 
0.0 0.0 0.0 
0.0 0.0 0.0 
0.0 0.0 0.0 
0.0 0.0 0.0 
0.0 0.0 0.0 
0.0 0.0 0.0 
0.0 0.0 0.0 
0.0 0.0 0.0 
0.0 0.0 0.0 
0.0 0.0 0.0 
0.0 0.0 0.0 
0.0 0.0 0.0 
0.0 0.0 0.0 
0.0 0.0 0.0 
0.0 0.0 0.0 
0.0 0.0 0.0 
0.0 0.0 0.0 
0.0 0.0 0.0 
0.0 0.0 0.0 
0.0 0.0 0.0 
0.0 0.0 0.0 
0.0 0.0 0.0 
0.0 0.0 0.0 
0.0 0.0 0.0 
0.0 0.0 0.0 
0.0 0.0 0.0 
0.0 0.0 0.0 
0.0 0.0 0.0 
0.0 0.0 0.0 
0.0 0.0 0.0 
0.0 0.0 0.0 
0.0 0.0 0.0 
0.0 0.0 0.0 
0.0 0.0 0.0 
0.0 0.0 0.0 
0.0 0.0 0.0 
0.0 0.0 0.0 
0.0 0.0 0.0 
0.0 0.0 0.0 
0.0 0.0 0.0 
0.0 0.0 0.0 
0.0 0.0 0.0 
0.0 0.0 0.0 
0.0 0.0 0.0 
0.0 0.0 0.0 
0.0 0.0 0.0 
0.0 0.0 0.0 
0.0 0.0 0.0 
0.0 0.0 0.0 
0.0 0.0 0.0 
0.0 0.0 0.0 
0.0 0.0 0.0 
0.0 0.0 0.0 
0.0 0.0 0.0 
0.0 0.0 0.0 
0.0 0.0 0.0 
0.0 0.0 0.0 
0.0 0.0 0.0 
0.0 0.0 0.0 
0.0 0.0 0.0 
0.0 0.0 0.0 
0.0 0.0 0.0 
0.0 0.0 0.0 
0.0 0.0 0.0 
0.0 0.0 0.0 
0.0 0.0 0.0 
0.0 0.0 0.0 
0.0 0.0 0.0 
0.0 0.0 0.0 
0.0 0.0 0.0 
0.0 0.0 0.0 
0.0 0.0 0.0 
0.0 0.0 0.0 
0.0 0.0 0.0 
0.0 0.0 0.0 
0.0 0.0 0.0 
0.0 0.0 0.0 
0.0 0.0 0.0 
0.0 0.0 0.0 
0.0 0.0 0.0 
0.0 0.0 0.0 
0.0 0.0 0.0 
0.0 0.0 0.0 
0.0 0.0 0.0 
0.0 0.0 0.0 
0.0 0.0 0.0 
0.0 0.0 0.0 
0.0 0.0 0.0 
0.0 0.0 0.0 
0.0 0.0 0.0 
0.0 0.0 0.0 
0.0 0.0 0.0 
0.0 0.0 0.0 
0.0 0.0 0.0 
0.0 0.0 0.0 
0.0 0.0 0.0 
0.0 0.0 0.0 
0.0 0.0 0.0 
0.0 0.0 0.0 
0.0 0.0 0.0 
0.0 0.0 0.0 
0.0 0.0 0.0 
0.0 0.0 0.0 
0.0 0.0 0.0 
0.0 0.0 0.0 
0.0 0.0 0.0 
0.0 0.0 0.0 
0.0 0.0 0.0 
0.0 0.0 0.0 
0.0 0.0 0.0 
0.0 0.0 0.0 
0.0 0.0 0.0 
0.0 0.0 0.0 
0.0 0.0 0.0 
0.0 0.0 0.0 
0.0 0.0 0.0 
0.0 0.0 0.0 
0.0 0.0 0.0 
0.0 0.0 0.0 
0.0 0.0 0.0 
0.0 0.0 0.0 
0.0 0.0 0.0 
0.0 0.0 0.0 
0.0 0.0 0.0 
0.0 0.0 0.0 
0.0 0.0 0.0 
0.0 0.0 0.0 
0.0 0.0 0.0 
0.0 0.0 0.0 
0.0 0.0 0.0 
0.0 0.0 0.0 
0.0 0.0 0.0 
0.0 0.0 0.0 
0.0 0.0 0.0 
0.0 0.0 0.0 
0.0 0.0 0.0 
0.0 0.0 0.0 
0.0 0.0 0.0 
0.0 0.0 0.0 
0.0 0.0 0.0 
0.0 0.0 0.0 
0.0 0.0 0.0 
0.0 0.0 0.0 
0.0 0.0 0.0 
0.0 0.0 0.0 
0.0 0.0 0.0 
0.0 0.0 0.0 
0.0 0.0 0.0 
0.0 0.0 0.0 
0.0 0.0 0.0 
0.0 0.0 0.0 
0.0 0.0 0.0 
0.0 0.0 0.0 
0.0 0.0 0.0 
0.0 0.0 0.0 
0.0 0.0 0.0 
0.0 0.0 0.0 
0.0 0.0 0.0 
0.0 0.0 0.0 
0.0 0.0 0.0 
0.0 0.0 0.0 
0.0 0.0 0.0 
0.0 0.0 0.0 
0.0 0.0 0.0 
0.0 0.0 0.0 
0.0 0.0 0.0 
0.0 0.0 0.0 
0.0 0.0 0.0 
0.0 0.0 0.0 
0.0 0.0 0.0 
0.0 0.0 0.0 
0.0 0.0 0.0 
0.0 0.0 0.0 
0.0 0.0 0.0 
0.0 0.0 0.0 
0.0 0.0 0.0 
0.0 0.0 0.0 
0.0 0.0 0.0 
0.0 0.0 0.0 
0.0 0.0 0.0 
0.0 0.0 0.0 
0.0 0.0 0.0 
0.0 0.0 0.0 
0.0 0.0 0.0 
0.0 0.0 0.0 
0.0 0.0 0.0 
0.0 0.0 0.0 
0.0 0.0 0.0 
0.0 0.0 0.0 
0.0 0.0 0.0 
0.0 0.0 0.0 
0.0 0.0 0.0 
0.0 0.0 0.0 
0.0 0.0 0.0 
0.0 0.0 0.0 
0.0 0.0 0.0 
0.0 0.0 0.0 
0.0 0.0 0.0 
0.0 0.0 0.0 
0.0 0.0 0.0 
0.0 0.0 0.0 
0.0 0.0 0.0 
0.0 0.0 0.0 
0.0 0.0 0.0 
0.0 0.0 0.0 
0.0 0.0 0.0 
0.0 0.0 0.0 
0.0 0.0 0.0 
0.0 0.0 0.0 
0.0 0.0 0.0 
0.0 0.0 0.0 
0.0 0.0 0.0 
0.0 0.0 0.0 
0.0 0.0 0.0 
0.0 0.0 0.0 
0.0 0.0 0.0 
0.0 0.0 0.0 
0.0 0.0 0.0 
0.0 0.0 0.0 
0.0 0.0 0.0 
0.0 0.0 0.0 
0.0 0.0 0.0 
0.0 0.0 0.0 
0.0 0.0 0.0 
0.0 0.0 0.0 
0.0 0.0 0.0 
0.0 0.0 0.0 
0.0 0.0 0.0 
0.0 0.0 0.0 
0.0 0.0 0.0 
0.0 0.0 0.0 
0.0 0.0 0.0 
0.0 0.0 0.0 
0.0 0.0 0.0 
0.0 0.0 0.0 
0.0 0.0 0.0 
0.0 0.0 0.0 
0.0 0.0 0.0 
0.0 0.0 0.0 
0.0 0.0 0.0 
0.0 0.0 0.0 
0.0 0.0 0.0 
0.0 0.0 0.0 
0.0 0.0 0.0 
0.0 0.0 0.0 
0.0 0.0 0.0 
0.0 0.0 0.0 
0.0 0.0 0.0 
0.0 0.0 0.0 
0.0 0.0 0.0 
0.0 0.0 0.0 
0.0 0.0 0.0 
0.0 0.0 0.0 
0.0 0.0 0.0 
0.0 0.0 0.0 
0.0 0.0 0.0 
0.0 0.0 0.0 
0.0 0.0 0.0 
0.0 0.0 0.0 
0.0 0.0 0.0 
0.0 0.0 0.0 
0.0 0.0 0.0 
0.0 0.0 0.0 
0.0 0.0 0.0 
0.0 0.0 0.0 
0.0 0.0 0.0 
0.0 0.0 0.0 
0.0 0.0 0.0 
0.0 0.0 0.0 
0.0 0.0 0.0 
0.0 0.0 0.0 
0.0 0.0 0.0 
0.0 0.0 0.0 
0.0 0.0 0.0 
0.0 0.0 0.0 
0.0 0.0 0.0 
0.0 0.0 0.0 
0.0 0.0 0.0 
0.0 0.0 0.0 
0.0 0.0 0.0 
0.0 0.0 0.0 
0.0 0.0 0.0 
0.0 0.0 0.0 
0.0 0.0 0.0 
0.0 0.0 0.0 
0.0 0.0 0.0 
0.0 0.0 0.0 
0.0 0.0 0.0 
0.0 0.0 0.0 
0.0 0.0 0.0 
0.0 0.0 0.0 
0.0 0.0 0.0 
0.0 0.0 0.0 
0.0 0.0 0.0 
0.0 0.0 0.0 
0.0 0.0 0.0 
0.0 0.0 0.0 
0.0 0.0 0.0 
0.0 0.0 0.0 
0.0 0.0 0.0 
0.0 0.0 0.0 
0.0 0.0 0.0 
0.0 0.0 0.0 
0.0 0.0 0.0 
0.0 0.0 0.0 
0.0 0.0 0.0 
0.0 0.0 0.0 
0.0 0.0 0.0 
0.0 0.0 0.0 
0.0 0.0 0.0 
0.0 0.0 0.0 
0.0 0.0 0.0 
0.0 0.0 0.0 
0.0 0.0 0.0 
0.0 0.0 0.0 
0.0 0.0 0.0 
0.0 0.0 0.0 
0.0 0.0 0.0 
0.0 0.0 0.0 
0.0 0.0 0.0 
0.0 0.0 0.0 
0.0 0.0 0.0 
0.0 0.0 0.0 
0.0 0.0 0.0 
0.0 0.0 0.0 
0.0 0.0 0.0 
0.0 0.0 0.0 
0.0 0.0 0.0 
0.0 0.0 0.0 
0.0 0.0 0.0 
0.0 0.0 0.0 
0.0 0.0 0.0 
0.0 0.0 0.0 
0.0 0.0 0.0 
0.0 0.0 0.0 
0.0 0.0 0.0 
0.0 0.0 0.0 
0.0 0.0 0.0 
0.0 0.0 0.0 
0.0 0.0 0.0 
0.0 0.0 0.0 
0.0 0.0 0.0 
0.0 0.0 0.0 
0.0 0.0 0.0 
0.0 0.0 0.0 
0.0 0.0 0.0 
0.0 0.0 0.0 
0.0 0.0 0.0 
0.0 0.0 0.0 
0.0 0.0 0.0 
0.0 0.0 0.0 
0.0 0.0 0.0 
0.0 0.0 0.0 
0.0 0.0 0.0 
0.0 0.0 0.0 
0.0 0.0 0.0 
0.0 0.0 0.0 
0.0 0.0 0.0 
0.0 0.0 0.0 
0.0 0.0 0.0 
0.0 0.0 0.0 
0.0 0.0 0.0 
0.0 0.0 0.0 
0.0 0.0 0.0 
0.0 0.0 0.0 
0.0 0.0 0.0 
0.0 0.0 0.0 
0.0 0.0 0.0 
0.0 0.0 0.0 
0.0 0.0 0.0 
0.0 0.0 0.0 
0.0 0.0 0.0 
0.0 0.0 0.0 
0.0 0.0 0.0 
0.0 0.0 0.0 
0.0 0.0 0.0 
0.0 0.0 0.0 
0.0 0.0 0.0 
0.0 0.0 0.0 
0.0 0.0 0.0 
0.0 0.0 0.0 
0.0 0.0 0.0 
0.0 0.0 0.0 
0.0 0.0 0.0 
0.0 0.0 0.0 
0.0 0.0 0.0 
0.0 0.0 0.0 
0.0 0.0 0.0 
0.0 0.0 0.0 
0.0 0.0 0.0 
0.0 0.0 0.0 
0.0 0.0 0.0 
0.0 0.0 0.0 
0.0 0.0 0.0 
0.0 0.0 0.0 
0.0 0.0 0.0 
0.0 0.0 0.0 
0.0 0.0 0.0 
0.0 0.0 0.0 
0.0 0.0 0.0 
0.0 0.0 0.0 
0.0 0.0 0.0 
0.0 0.0 0.0 
0.0 0.0 0.0 
0.0 0.0 0.0 
0.0 0.0 0.0 
0.0 0.0 0.0 
0.0 0.0 0.0 
0.0 0.0 0.0 
0.0 0.0 0.0 
0.0 0.0 0.0 
0.0 0.0 0.0 
0.0 0.0 0.0 
0.0 0.0 0.0 
0.0 0.0 0.0 
0.0 0.0 0.0 
0.0 0.0 0.0 
0.0 0.0 0.0 
0.0 0.0 0.0 
0.0 0.0 0.0 
0.0 0.0 0.0 
0.0 0.0 0.0 
0.0 0.0 0.0 
0.0 0.0 0.0 
0.0 0.0 0.0 
0.0 0.0 0.0 
0.0 0.0 0.0 
0.0 0.0 0.0 
0.0 0.0 0.0 
0.0 0.0 0.0 
0.0 0.0 0.0 
0.0 0.0 0.0 
0.0 0.0 0.0 
0.0 0.0 0.0 
0.0 0.0 0.0 
0.0 0.0 0.0 
0.0 0.0 0.0 
0.0 0.0 0.0 
0.0 0.0 0.0 
0.0 0.0 0.0 
0.0 0.0 0.0 
0.0 0.0 0.0 
0.0 0.0 0.0 
0.0 0.0 0.0 
0.0 0.0 0.0 
0.0 0.0 0.0 
0.0 0.0 0.0 
0.0 0.0 0.0 
0.0 0.0 0.0 
0.0 0.0 0.0 
0.0 0.0 0.0 
0.0 0.0 0.0 
0.0 0.0 0.0 
0.0 0.0 0.0 
0.0 0.0 0.0 
0.0 0.0 0.0 
0.0 0.0 0.0 
0.0 0.0 0.0 
0.0 0.0 0.0 
0.0 0.0 0.0 
0.0 0.0 0.0 
0.0 0.0 0.0 
0.0 0.0 0.0 
0.0 0.0 0.0 
0.0 0.0 0.0 
0.0 0.0 0.0 
0.0 0.0 0.0 
0.0 0.0 0.0 
0.0 0.0 0.0 
0.0 0.0 0.0 
0.0 0.0 0.0 
0.0 0.0 0.0 
0.0 0.0 0.0 
0.0 0.0 0.0 
0.0 0.0 0.0 
0.0 0.0 0.0 
0.0 0.0 0.0 
0.0 0.0 0.0 

VECTORS node_force_gravity float
0.0 -1.962000000000e+01 0.0 
0.0 -1.962000000000e+01 0.0 
0.0 -1.962000000000e+01 0.0 
0.0 -1.962000000000e+01 0.0 
0.0 -1.962000000000e+01 0.0 
0.0 -1.962000000000e+01 0.0 
0.0 -1.962000000000e+01 0.0 
0.0 -1.962000000000e+01 0.0 
0.0 -1.962000000000e+01 0.0 
0.0 -1.962000000000e+01 0.0 
0.0 -1.962000000000e+01 0.0 
0.0 -1.962000000000e+01 0.0 
0.0 -1.962000000000e+01 0.0 
0.0 -1.962000000000e+01 0.0 
0.0 -1.962000000000e+01 0.0 
0.0 -1.962000000000e+01 0.0 
0.0 -1.962000000000e+01 0.0 
0.0 -1.962000000000e+01 0.0 
0.0 -1.962000000000e+01 0.0 
0.0 -1.962000000000e+01 0.0 
0.0 -1.962000000000e+01 0.0 
0.0 -1.962000000000e+01 0.0 
0.0 -1.962000000000e+01 0.0 
0.0 -1.962000000000e+01 0.0 
0.0 -1.962000000000e+01 0.0 
0.0 -1.962000000000e+01 0.0 
0.0 -1.962000000000e+01 0.0 
0.0 -1.962000000000e+01 0.0 
0.0 -1.962000000000e+01 0.0 
0.0 -1.962000000000e+01 0.0 
0.0 -1.962000000000e+01 0.0 
0.0 -1.962000000000e+01 0.0 
0.0 -1.962000000000e+01 0.0 
0.0 -1.962000000000e+01 0.0 
0.0 -1.962000000000e+01 0.0 
0.0 -1.962000000000e+01 0.0 
0.0 -1.962000000000e+01 0.0 
0.0 -1.962000000000e+01 0.0 
0.0 -1.962000000000e+01 0.0 
0.0 -1.962000000000e+01 0.0 
0.0 -1.962000000000e+01 0.0 
0.0 -1.962000000000e+01 0.0 
0.0 -1.962000000000e+01 0.0 
0.0 -1.962000000000e+01 0.0 
0.0 -1.962000000000e+01 0.0 
0.0 -1.962000000000e+01 0.0 
0.0 -1.962000000000e+01 0.0 
0.0 -1.962000000000e+01 0.0 
0.0 -1.962000000000e+01 0.0 
0.0 -1.962000000000e+01 0.0 
0.0 -1.962000000000e+01 0.0 
0.0 -1.962000000000e+01 0.0 
0.0 -1.962000000000e+01 0.0 
0.0 -1.962000000000e+01 0.0 
0.0 -1.962000000000e+01 0.0 
0.0 -1.962000000000e+01 0.0 
0.0 -1.962000000000e+01 0.0 
0.0 -1.962000000000e+01 0.0 
0.0 -1.962000000000e+01 0.0 
0.0 -1.962000000000e+01 0.0 
0.0 -1.962000000000e+01 0.0 
0.0 -1.962000000000e+01 0.0 
0.0 -1.962000000000e+01 0.0 
0.0 -1.962000000000e+01 0.0 
0.0 -1.962000000000e+01 0.0 
0.0 -1.962000000000e+01 0.0 
0.0 -1.962000000000e+01 0.0 
0.0 -1.962000000000e+01 0.0 
0.0 -1.962000000000e+01 0.0 
0.0 -1.962000000000e+01 0.0 
0.0 -1.962000000000e+01 0.0 
0.0 -1.962000000000e+01 0.0 
0.0 -1.962000000000e+01 0.0 
0.0 -1.962000000000e+01 0.0 
0.0 -1.962000000000e+01 0.0 
0.0 -1.962000000000e+01 0.0 
0.0 -1.962000000000e+01 0.0 
0.0 -1.962000000000e+01 0.0 
0.0 -1.962000000000e+01 0.0 
0.0 -1.962000000000e+01 0.0 
0.0 -1.962000000000e+01 0.0 
0.0 -1.962000000000e+01 0.0 
0.0 -1.962000000000e+01 0.0 
0.0 -1.962000000000e+01 0.0 
0.0 -1.962000000000e+01 0.0 
0.0 -1.962000000000e+01 0.0 
0.0 -1.962000000000e+01 0.0 
0.0 -1.962000000000e+01 0.0 
0.0 -1.962000000000e+01 0.0 
0.0 -1.962000000000e+01 0.0 
0.0 -1.962000000000e+01 0.0 
0.0 -1.962000000000e+01 0.0 
0.0 -1.962000000000e+01 0.0 
0.0 -1.962000000000e+01 0.0 
0.0 -1.962000000000e+01 0.0 
0.0 -1.962000000000e+01 0.0 
0.0 -1.962000000000e+01 0.0 
0.0 -1.962000000000e+01 0.0 
0.0 -1.962000000000e+01 0.0 
0.0 -1.962000000000e+01 0.0 
0.0 -1.962000000000e+01 0.0 
0.0 -1.962000000000e+01 0.0 
0.0 -1.962000000000e+01 0.0 
0.0 -1.962000000000e+01 0.0 
0.0 -1.962000000000e+01 0.0 
0.0 -1.962000000000e+01 0.0 
0.0 -1.962000000000e+01 0.0 
0.0 -1.962000000000e+01 0.0 
0.0 -1.962000000000e+01 0.0 
0.0 -1.962000000000e+01 0.0 
0.0 -1.962000000000e+01 0.0 
0.0 -1.962000000000e+01 0.0 
0.0 -1.962000000000e+01 0.0 
0.0 -1.962000000000e+01 0.0 
0.0 -1.962000000000e+01 0.0 
0.0 -1.962000000000e+01 0.0 
0.0 -1.962000000000e+01 0.0 
0.0 -1.962000000000e+01 0.0 
0.0 -1.962000000000e+01 0.0 
0.0 -1.962000000000e+01 0.0 
0.0 -1.962000000000e+01 0.0 
0.0 -1.962000000000e+01 0.0 
0.0 -1.962000000000e+01 0.0 
0.0 -1.962000000000e+01 0.0 
0.0 -1.962000000000e+01 0.0 
0.0 -1.962000000000e+01 0.0 
0.0 -1.962000000000e+01 0.0 
0.0 -1.962000000000e+01 0.0 
0.0 -1.962000000000e+01 0.0 
0.0 -1.962000000000e+01 0.0 
0.0 -1.962000000000e+01 0.0 
0.0 -1.962000000000e+01 0.0 
0.0 -1.962000000000e+01 0.0 
0.0 -1.962000000000e+01 0.0 
0.0 -1.962000000000e+01 0.0 
0.0 -1.962000000000e+01 0.0 
0.0 -1.962000000000e+01 0.0 
0.0 -1.962000000000e+01 0.0 
0.0 -1.962000000000e+01 0.0 
0.0 -1.962000000000e+01 0.0 
0.0 -1.962000000000e+01 0.0 
0.0 -1.962000000000e+01 0.0 
0.0 -1.962000000000e+01 0.0 
0.0 -1.962000000000e+01 0.0 
0.0 -1.962000000000e+01 0.0 
0.0 -1.962000000000e+01 0.0 
0.0 -1.962000000000e+01 0.0 
0.0 -1.962000000000e+01 0.0 
0.0 -1.962000000000e+01 0.0 
0.0 -1.962000000000e+01 0.0 
0.0 -1.962000000000e+01 0.0 
0.0 -1.962000000000e+01 0.0 
0.0 -1.962000000000e+01 0.0 
0.0 -1.962000000000e+01 0.0 
0.0 -1.962000000000e+01 0.0 
0.0 -1.962000000000e+01 0.0 
0.0 -1.962000000000e+01 0.0 
0.0 -1.962000000000e+01 0.0 
0.0 -1.962000000000e+01 0.0 
0.0 -1.962000000000e+01 0.0 
0.0 -1.962000000000e+01 0.0 
0.0 -1.962000000000e+01 0.0 
0.0 -1.962000000000e+01 0.0 
0.0 -1.962000000000e+01 0.0 
0.0 -1.962000000000e+01 0.0 
0.0 -1.962000000000e+01 0.0 
0.0 -1.962000000000e+01 0.0 
0.0 -1.962000000000e+01 0.0 
0.0 -1.962000000000e+01 0.0 
0.0 -1.962000000000e+01 0.0 
0.0 -1.962000000000e+01 0.0 
0.0 -1.962000000000e+01 0.0 
0.0 -1.962000000000e+01 0.0 
0.0 -1.962000000000e+01 0.0 
0.0 -1.962000000000e+01 0.0 
0.0 -1.962000000000e+01 0.0 
0.0 -1.962000000000e+01 0.0 
0.0 -1.962000000000e+01 0.0 
0.0 -1.962000000000e+01 0.0 
0.0 -1.962000000000e+01 0.0 
0.0 -1.962000000000e+01 0.0 
0.0 -1.962000000000e+01 0.0 
0.0 -1.962000000000e+01 0.0 
0.0 -1.962000000000e+01 0.0 
0.0 -1.962000000000e+01 0.0 
0.0 -1.962000000000e+01 0.0 
0.0 -1.962000000000e+01 0.0 
0.0 -1.962000000000e+01 0.0 
0.0 -1.962000000000e+01 0.0 
0.0 -1.962000000000e+01 0.0 
0.0 -1.962000000000e+01 0.0 
0.0 -1.962000000000e+01 0.0 
0.0 -1.962000000000e+01 0.0 
0.0 -1.962000000000e+01 0.0 
0.0 -1.962000000000e+01 0.0 
0.0 -1.962000000000e+01 0.0 
0.0 -1.962000000000e+01 0.0 
0.0 -1.962000000000e+01 0.0 
0.0 -1.962000000000e+01 0.0 
0.0 -1.962000000000e+01 0.0 
0.0 -1.962000000000e+01 0.0 
0.0 -1.962000000000e+01 0.0 
0.0 -1.962000000000e+01 0.0 
0.0 -1.962000000000e+01 0.0 
0.0 -1.962000000000e+01 0.0 
0.0 -1.962000000000e+01 0.0 
0.0 -1.962000000000e+01 0.0 
0.0 -1.962000000000e+01 0.0 
0.0 -1.962000000000e+01 0.0 
0.0 -1.962000000000e+01 0.0 
0.0 -1.962000000000e+01 0.0 
0.0 -1.962000000000e+01 0.0 
0.0 -1.962000000000e+01 0.0 
0.0 -1.962000000000e+01 0.0 
0.0 -1.962000000000e+01 0.0 
0.0 -1.962000000000e+01 0.0 
0.0 -1.962000000000e+01 0.0 
0.0 -1.962000000000e+01 0.0 
0.0 -1.962000000000e+01 0.0 
0.0 -1.962000000000e+01 0.0 
0.0 -1.962000000000e+01 0.0 
0.0 -1.962000000000e+01 0.0 
0.0 -1.962000000000e+01 0.0 
0.0 -1.962000000000e+01 0.0 
0.0 -1.962000000000e+01 0.0 
0.0 -1.962000000000e+01 0.0 
0.0 -1.962000000000e+01 0.0 
0.0 -1.962000000000e+01 0.0 
0.0 -1.962000000000e+01 0.0 
0.0 -1.962000000000e+01 0.0 
0.0 -1.962000000000e+01 0.0 
0.0 -1.962000000000e+01 0.0 
0.0 -1.962000000000e+01 0.0 
0.0 -1.962000000000e+01 0.0 
0.0 -1.962000000000e+01 0.0 
0.0 -1.962000000000e+01 0.0 
0.0 -1.962000000000e+01 0.0 
0.0 -1.962000000000e+01 0.0 
0.0 -1.962000000000e+01 0.0 
0.0 -1.962000000000e+01 0.0 
0.0 -1.962000000000e+01 0.0 
0.0 -1.962000000000e+01 0.0 
0.0 -1.962000000000e+01 0.0 
0.0 -1.962000000000e+01 0.0 
0.0 -1.962000000000e+01 0.0 
0.0 -1.962000000000e+01 0.0 
0.0 -1.962000000000e+01 0.0 
0.0 -1.962000000000e+01 0.0 
0.0 -1.962000000000e+01 0.0 
0.0 -1.962000000000e+01 0.0 
0.0 -1.962000000000e+01 0.0 
0.0 -1.962000000000e+01 0.0 
0.0 -1.962000000000e+01 0.0 
0.0 -1.962000000000e+01 0.0 
0.0 -1.962000000000e+01 0.0 
0.0 -1.962000000000e+01 0.0 
0.0 -1.962000000000e+01 0.0 
0.0 -1.962000000000e+01 0.0 
0.0 -1.962000000000e+01 0.0 
0.0 -1.962000000000e+01 0.0 
0.0 -1.962000000000e+01 0.0 
0.0 -1.962000000000e+01 0.0 
0.0 -1.962000000000e+01 0.0 
0.0 -1.962000000000e+01 0.0 
0.0 -1.962000000000e+01 0.0 
0.0 -1.962000000000e+01 0.0 
0.0 -1.962000000000e+01 0.0 
0.0 -1.962000000000e+01 0.0 
0.0 -1.962000000000e+01 0.0 
0.0 -1.962000000000e+01 0.0 
0.0 -1.962000000000e+01 0.0 
0.0 -1.962000000000e+01 0.0 
0.0 -1.962000000000e+01 0.0 
0.0 -1.962000000000e+01 0.0 
0.0 -1.962000000000e+01 0.0 
0.0 -1.962000000000e+01 0.0 
0.0 -1.962000000000e+01 0.0 
0.0 -1.962000000000e+01 0.0 
0.0 -1.962000000000e+01 0.0 
0.0 -1.962000000000e+01 0.0 
0.0 -1.962000000000e+01 0.0 
0.0 -1.962000000000e+01 0.0 
0.0 -1.962000000000e+01 0.0 
0.0 -1.962000000000e+01 0.0 
0.0 -1.962000000000e+01 0.0 
0.0 -1.962000000000e+01 0.0 
0.0 -1.962000000000e+01 0.0 
0.0 -1.962000000000e+01 0.0 
0.0 -1.962000000000e+01 0.0 
0.0 -1.962000000000e+01 0.0 
0.0 -1.962000000000e+01 0.0 
0.0 -1.962000000000e+01 0.0 
0.0 -1.962000000000e+01 0.0 
0.0 -1.962000000000e+01 0.0 
0.0 -1.962000000000e+01 0.0 
0.0 -1.962000000000e+01 0.0 
0.0 -1.962000000000e+01 0.0 
0.0 -1.962000000000e+01 0.0 
0.0 -1.962000000000e+01 0.0 
0.0 -1.962000000000e+01 0.0 
0.0 -1.962000000000e+01 0.0 
0.0 -1.962000000000e+01 0.0 
0.0 -1.962000000000e+01 0.0 
0.0 -1.962000000000e+01 0.0 
0.0 -1.962000000000e+01 0.0 
0.0 -1.962000000000e+01 0.0 
0.0 -1.962000000000e+01 0.0 
0.0 -1.962000000000e+01 0.0 
0.0 -1.962000000000e+01 0.0 
0.0 -1.962000000000e+01 0.0 
0.0 -1.962000000000e+01 0.0 
0.0 -1.962000000000e+01 0.0 
0.0 -1.962000000000e+01 0.0 
0.0 -1.962000000000e+01 0.0 
0.0 -1.962000000000e+01 0.0 
0.0 -1.962000000000e+01 0.0 
0.0 -1.962000000000e+01 0.0 
0.0 -1.962000000000e+01 0.0 
0.0 -1.962000000000e+01 0.0 
0.0 -1.962000000000e+01 0.0 
0.0 -1.962000000000e+01 0.0 
0.0 -1.962000000000e+01 0.0 
0.0 -1.962000000000e+01 0.0 
0.0 -1.962000000000e+01 0.0 
0.0 -1.962000000000e+01 0.0 
0.0 -1.962000000000e+01 0.0 
0.0 -1.962000000000e+01 0.0 
0.0 -1.962000000000e+01 0.0 
0.0 -1.962000000000e+01 0.0 
0.0 -1.962000000000e+01 0.0 
0.0 -1.962000000000e+01 0.0 
0.0 -1.962000000000e+01 0.0 
0.0 -1.962000000000e+01 0.0 
0.0 -1.962000000000e+01 0.0 
0.0 -1.962000000000e+01 0.0 
0.0 -1.962000000000e+01 0.0 
0.0 -1.962000000000e+01 0.0 
0.0 -1.962000000000e+01 0.0 
0.0 -1.962000000000e+01 0.0 
0.0 -1.962000000000e+01 0.0 
0.0 -1.962000000000e+01 0.0 
0.0 -1.962000000000e+01 0.0 
0.0 -1.962000000000e+01 0.0 
0.0 -1.962000000000e+01 0.0 
0.0 -1.962000000000e+01 0.0 
0.0 -1.962000000000e+01 0.0 
0.0 -1.962000000000e+01 0.0 
0.0 -1.962000000000e+01 0.0 
0.0 -1.962000000000e+01 0.0 
0.0 -1.962000000000e+01 0.0 
0.0 -1.962000000000e+01 0.0 
0.0 -1.962000000000e+01 0.0 
0.0 -1.962000000000e+01 0.0 
0.0 -1.962000000000e+01 0.0 
0.0 -1.962000000000e+01 0.0 
0.0 -1.962000000000e+01 0.0 
0.0 -1.962000000000e+01 0.0 
0.0 -1.962000000000e+01 0.0 
0.0 -1.962000000000e+01 0.0 
0.0 -1.962000000000e+01 0.0 
0.0 -1.962000000000e+01 0.0 
0.0 -1.962000000000e+01 0.0 
0.0 -1.962000000000e+01 0.0 
0.0 -1.962000000000e+01 0.0 
0.0 -1.962000000000e+01 0.0 
0.0 -1.962000000000e+01 0.0 
0.0 -1.962000000000e+01 0.0 
0.0 -1.962000000000e+01 0.0 
0.0 -1.962000000000e+01 0.0 
0.0 -1.962000000000e+01 0.0 
0.0 -1.962000000000e+01 0.0 
0.0 -1.962000000000e+01 0.0 
0.0 -1.962000000000e+01 0.0 
0.0 -1.962000000000e+01 0.0 
0.0 -1.962000000000e+01 0.0 
0.0 -1.962000000000e+01 0.0 
0.0 -1.962000000000e+01 0.0 
0.0 -1.962000000000e+01 0.0 
0.0 -1.962000000000e+01 0.0 
0.0 -1.962000000000e+01 0.0 
0.0 -1.962000000000e+01 0.0 
0.0 -1.962000000000e+01 0.0 
0.0 -1.962000000000e+01 0.0 
0.0 -1.962000000000e+01 0.0 
0.0 -1.962000000000e+01 0.0 
0.0 -1.962000000000e+01 0.0 
0.0 -1.962000000000e+01 0.0 
0.0 -1.962000000000e+01 0.0 
0.0 -1.962000000000e+01 0.0 
0.0 -1.962000000000e+01 0.0 
0.0 -1.962000000000e+01 0.0 
0.0 -1.962000000000e+01 0.0 
0.0 -1.962000000000e+01 0.0 
0.0 -1.962000000000e+01 0.0 
0.0 -1.962000000000e+01 0.0 
0.0 -1.962000000000e+01 0.0 
0.0 -1.962000000000e+01 0.0 
0.0 -1.962000000000e+01 0.0 
0.0 -1.962000000000e+01 0.0 
0.0 -1.962000000000e+01 0.0 
0.0 -1.962000000000e+01 0.0 
0.0 -1.962000000000e+01 0.0 
0.0 -1.962000000000e+01 0.0 
0.0 -1.962000000000e+01 0.0 
0.0 -1.962000000000e+01 0.0 
0.0 -1.962000000000e+01 0.0 
0.0 -1.962000000000e+01 0.0 
0.0 -1.962000000000e+01 0.0 
0.0 -1.962000000000e+01 0.0 
0.0 -1.962000000000e+01 0.0 
0.0 -1.962000000000e+01 0.0 
0.0 -1.962000000000e+01 0.0 
0.0 -1.962000000000e+01 0.0 
0.0 -1.962000000000e+01 0.0 
0.0 -1.962000000000e+01 0.0 
0.0 -1.962000000000e+01 0.0 
0.0 -1.962000000000e+01 0.0 
0.0 -1.962000000000e+01 0.0 
0.0 -1.962000000000e+01 0.0 
0.0 -1.962000000000e+01 0.0 
0.0 -1.962000000000e+01 0.0 
0.0 -1.962000000000e+01 0.0 
0.0 -1.962000000000e+01 0.0 
0.0 -1.962000000000e+01 0.0 
0.0 -1.962000000000e+01 0.0 
0.0 -1.962000000000e+01 0.0 
0.0 -1.962000000000e+01 0.0 
0.0 -1.962000000000e+01 0.0 
0.0 -1.962000000000e+01 0.0 
0.0 -1.962000000000e+01 0.0 
0.0 -1.962000000000e+01 0.0 
0.0 -1.962000000000e+01 0.0 
0.0 -1.962000000000e+01 0.0 
0.0 -1.962000000000e+01 0.0 
0.0 -1.962000000000e+01 0.0 
0.0 -1.962000000000e+01 0.0 
0.0 -1.962000000000e+01 0.0 
0.0 -1.962000000000e+01 0.0 
0.0 -1.962000000000e+01 0.0 
0.0 -1.962000000000e+01 0.0 
0.0 -1.962000000000e+01 0.0 
0.0 -1.962000000000e+01 0.0 
0.0 -1.962000000000e+01 0.0 
0.0 -1.962000000000e+01 0.0 
0.0 -1.962000000000e+01 0.0 
0.0 -1.962000000000e+01 0.0 
0.0 -1.962000000000e+01 0.0 
0.0 -1.962000000000e+01 0.0 
0.0 -1.962000000000e+01 0.0 
0.0 -1.962000000000e+01 0.0 
0.0 -1.962000000000e+01 0.0 
0.0 -1.962000000000e+01 0.0 
0.0 -1.962000000000e+01 0.0 
0.0 -1.962000000000e+01 0.0 
0.0 -1.962000000000e+01 0.0 
0.0 -1.962000000000e+01 0.0 
0.0 -1.962000000000e+01 0.0 
0.0 -1.962000000000e+01 0.0 
0.0 -1.962000000000e+01 0.0 
0.0 -1.962000000000e+01 0.0 
0.0 -1.962000000000e+01 0.0 
0.0 -1.962000000000e+01 0.0 
0.0 -1.962000000000e+01 0.0 
0.0 -1.962000000000e+01 0.0 
0.0 -1.962000000000e+01 0.0 
0.0 -1.962000000000e+01 0.0 
0.0 -1.962000000000e+01 0.0 
0.0 -1.962000000000e+01 0.0 
0.0 -1.962000000000e+01 0.0 
0.0 -1.962000000000e+01 0.0 
0.0 -1.962000000000e+01 0.0 
0.0 -1.962000000000e+01 0.0 
0.0 -1.962000000000e+01 0.0 
0.0 -1.962000000000e+01 0.0 
0.0 -1.962000000000e+01 0.0 
0.0 -1.962000000000e+01 0.0 
0.0 -1.962000000000e+01 0.0 
0.0 -1.962000000000e+01 0.0 
0.0 -1.962000000000e+01 0.0 
0.0 -1.962000000000e+01 0.0 
0.0 -1.962000000000e+01 0.0 
0.0 -1.962000000000e+01 0.0 
0.0 -1.962000000000e+01 0.0 
0.0 -1.962000000000e+01 0.0 
0.0 -1.962000000000e+01 0.0 
0.0 -1.962000000000e+01 0.0 
0.0 -1.962000000000e+01 0.0 
0.0 -1.962000000000e+01 0.0 
0.0 -1.962000000000e+01 0.0 
0.0 -1.962000000000e+01 0.0 
0.0 -1.962000000000e+01 0.0 
0.0 -1.962000000000e+01 0.0 
0.0 -1.962000000000e+01 0.0 
0.0 -1.962000000000e+01 0.0 
0.0 -1.962000000000e+01 0.0 
0.0 -1.962000000000e+01 0.0 
0.0 -1.962000000000e+01 0.0 
0.0 -1.962000000000e+01 0.0 
0.0 -1.962000000000e+01 0.0 
0.0 -1.962000000000e+01 0.0 
0.0 -1.962000000000e+01 0.0 
0.0 -1.962000000000e+01 0.0 
0.0 -1.962000000000e+01 0.0 
0.0 -1.962000000000e+01 0.0 
0.0 -1.962000000000e+01 0.0 
0.0 -1.962000000000e+01 0.0 
0.0 -1.962000000000e+01 0.0 
0.0 -1.962000000000e+01 0.0 
0.0 -1.962000000000e+01 0.0 
0.0 -1.962000000000e+01 0.0 
0.0 -1.962000000000e+01 0.0 
0.0 -1.962000000000e+01 0.0 
0.0 -1.962000000000e+01 0.0 
0.0 -1.962000000000e+01 0.0 
0.0 -1.962000000000e+01 0.0 
0.0 -1.962000000000e+01 0.0 
0.0 -1.962000000000e+01 0.0 
0.0 -1.962000000000e+01 0.0 
0.0 -1.962000000000e+01 0.0 
0.0 -1.962000000000e+01 0.0 
0.0 -1.962000000000e+01 0.0 
0.0 -1.962000000000e+01 0.0 
0.0 -1.962000000000e+01 0.0 
0.0 -1.962000000000e+01 0.0 
0.0 -1.962000000000e+01 0.0 
0.0 -1.962000000000e+01 0.0 
0.0 -1.962000000000e+01 0.0 
0.0 -1.962000000000e+01 0.0 
0.0 -1.962000000000e+01 0.0 
0.0 -1.962000000000e+01 0.0 
0.0 -1.962000000000e+01 0.0 
0.0 -1.962000000000e+01 0.0 
0.0 -1.962000000000e+01 0.0 
0.0 -1.962000000000e+01 0.0 
0.0 -1.962000000000e+01 0.0 
0.0 -1.962000000000e+01 0.0 
0.0 -1.962000000000e+01 0.0 
0.0 -1.962000000000e+01 0.0 
0.0 -1.962000000000e+01 0.0 
0.0 -1.962000000000e+01 0.0 
0.0 -1.962000000000e+01 0.0 
0.0 -1.962000000000e+01 0.0 
0.0 -1.962000000000e+01 0.0 
0.0 -1.962000000000e+01 0.0 
0.0 -1.962000000000e+01 0.0 
0.0 -1.962000000000e+01 0.0 
0.0 -1.962000000000e+01 0.0 
0.0 -1.962000000000e+01 0.0 
0.0 -1.962000000000e+01 0.0 
0.0 -1.962000000000e+01 0.0 
0.0 -1.962000000000e+01 0.0 
0.0 -1.962000000000e+01 0.0 
0.0 -1.962000000000e+01 0.0 
0.0 -1.962000000000e+01 0.0 
0.0 -1.962000000000e+01 0.0 
0.0 -1.962000000000e+01 0.0 
0.0 -1.962000000000e+01 0.0 
0.0 -1.962000000000e+01 0.0 
0.0 -1.962000000000e+01 0.0 
0.0 -1.962000000000e+01 0.0 
0.0 -1.962000000000e+01 0.0 
0.0 -1.962000000000e+01 0.0 
0.0 -1.962000000000e+01 0.0 
0.0 -1.962000000000e+01 0.0 
0.0 -1.962000000000e+01 0.0 
0.0 -1.962000000000e+01 0.0 
0.0 -1.962000000000e+01 0.0 
0.0 -1.962000000000e+01 0.0 
0.0 -1.962000000000e+01 0.0 
0.0 -1.962000000000e+01 0.0 
0.0 -1.962000000000e+01 0.0 
0.0 -1.962000000000e+01 0.0 
0.0 -1.962000000000e+01 0.0 
0.0 -1.962000000000e+01 0.0 
0.0 -1.962000000000e+01 0.0 
0.0 -1.962000000000e+01 0.0 
0.0 -1.962000000000e+01 0.0 
0.0 -1.962000000000e+01 0.0 
0.0 -1.962000000000e+01 0.0 
0.0 -1.962000000000e+01 0.0 
0.0 -1.962000000000e+01 0.0 
0.0 -1.962000000000e+01 0.0 
0.0 -1.962000000000e+01 0.0 
0.0 -1.962000000000e+01 0.0 
0.0 -1.962000000000e+01 0.0 
0.0 -1.962000000000e+01 0.0 
0.0 -1.962000000000e+01 0.0 
0.0 -1.962000000000e+01 0.0 
0.0 -1.962000000000e+01 0.0 
0.0 -1.962000000000e+01 0.0 
0.0 -1.962000000000e+01 0.0 
0.0 -1.962000000000e+01 0.0 
0.0 -1.962000000000e+01 0.0 
0.0 -1.962000000000e+01 0.0 
0.0 -1.962000000000e+01 0.0 
0.0 -1.962000000000e+01 0.0 
0.0 -1.962000000000e+01 0.0 
0.0 -1.962000000000e+01 0.0 
0.0 -1.962000000000e+01 0.0 
0.0 -1.962000000000e+01 0.0 
0.0 -1.962000000000e+01 0.0 
0.0 -1.962000000000e+01 0.0 
0.0 -1.962000000000e+01 0.0 
0.0 -1.962000000000e+01 0.0 
0.0 -1.962000000000e+01 0.0 
0.0 -1.962000000000e+01 0.0 
0.0 -1.962000000000e+01 0.0 
0.0 -1.962000000000e+01 0.0 
0.0 -1.962000000000e+01 0.0 
0.0 -1.962000000000e+01 0.0 
0.0 -1.962000000000e+01 0.0 
0.0 -1.962000000000e+01 0.0 
0.0 -1.962000000000e+01 0.0 
0.0 -1.962000000000e+01 0.0 
0.0 -1.962000000000e+01 0.0 
0.0 -1.962000000000e+01 0.0 
0.0 -1.962000000000e+01 0.0 
0.0 -1.962000000000e+01 0.0 
0.0 -1.962000000000e+01 0.0 
0.0 -1.962000000000e+01 0.0 
0.0 -1.962000000000e+01 0.0 
0.0 -1.962000000000e+01 0.0 
0.0 -1.962000000000e+01 0.0 
0.0 -1.962000000000e+01 0.0 
0.0 -1.962000000000e+01 0.0 
0.0 -1.962000000000e+01 0.0 
0.0 -1.962000000000e+01 0.0 
0.0 -1.962000000000e+01 0.0 
0.0 -1.962000000000e+01 0.0 
0.0 -1.962000000000e+01 0.0 
0.0 -1.962000000000e+01 0.0 
0.0 -1.962000000000e+01 0.0 
0.0 -1.962000000000e+01 0.0 
0.0 -1.962000000000e+01 0.0 
0.0 -1.962000000000e+01 0.0 
0.0 -1.962000000000e+01 0.0 
0.0 -1.962000000000e+01 0.0 
0.0 -1.962000000000e+01 0.0 
0.0 -1.962000000000e+01 0.0 
0.0 -1.962000000000e+01 0.0 
0.0 -1.962000000000e+01 0.0 
0.0 -1.962000000000e+01 0.0 
0.0 -1.962000000000e+01 0.0 
0.0 -1.962000000000e+01 0.0 
0.0 -1.962000000000e+01 0.0 
0.0 -1.962000000000e+01 0.0 
0.0 -1.962000000000e+01 0.0 
0.0 -1.962000000000e+01 0.0 
0.0 -1.962000000000e+01 0.0 
0.0 -1.962000000000e+01 0.0 
0.0 -1.962000000000e+01 0.0 
0.0 -1.962000000000e+01 0.0 
0.0 -1.962000000000e+01 0.0 
0.0 -1.962000000000e+01 0.0 
0.0 -1.962000000000e+01 0.0 
0.0 -1.962000000000e+01 0.0 
0.0 -1.962000000000e+01 0.0 
0.0 -1.962000000000e+01 0.0 
0.0 -1.962000000000e+01 0.0 
0.0 -1.962000000000e+01 0.0 
0.0 -1.962000000000e+01 0.0 
0.0 -1.962000000000e+01 0.0 
0.0 -1.962000000000e+01 0.0 
0.0 -1.962000000000e+01 0.0 
0.0 -1.962000000000e+01 0.0 
0.0 -1.962000000000e+01 0.0 
0.0 -1.962000000000e+01 0.0 
0.0 -1.962000000000e+01 0.0 
0.0 -1.962000000000e+01 0.0 
0.0 -1.962000000000e+01 0.0 
0.0 -1.962000000000e+01 0.0 
0.0 -1.962000000000e+01 0.0 
0.0 -1.962000000000e+01 0.0 
0.0 -1.962000000000e+01 0.0 
0.0 -1.962000000000e+01 0.0 
0.0 -1.962000000000e+01 0.0 
0.0 -1.962000000000e+01 0.0 
0.0 -1.962000000000e+01 0.0 
0.0 -1.962000000000e+01 0.0 
0.0 -1.962000000000e+01 0.0 
0.0 -1.962000000000e+01 0.0 
0.0 -1.962000000000e+01 0.0 
0.0 -1.962000000000e+01 0.0 
0.0 -1.962000000000e+01 0.0 
0.0 -1.962000000000e+01 0.0 
0.0 -1.962000000000e+01 0.0 
0.0 -1.962000000000e+01 0.0 
0.0 -1.962000000000e+01 0.0 
0.0 -1.962000000000e+01 0.0 
0.0 -1.962000000000e+01 0.0 
0.0 -1.962000000000e+01 0.0 
0.0 -1.962000000000e+01 0.0 
0.0 -1.962000000000e+01 0.0 
0.0 -1.962000000000e+01 0.0 
0.0 -1.962000000000e+01 0.0 
0.0 -1.962000000000e+01 0.0 
0.0 -1.962000000000e+01 0.0 
0.0 -1.962000000000e+01 0.0 
0.0 -1.962000000000e+01 0.0 
0.0 -1.962000000000e+01 0.0 
0.0 -1.962000000000e+01 0.0 
0.0 -1.962000000000e+01 0.0 
0.0 -1.962000000000e+01 0.0 
0.0 -1.962000000000e+01 0.0 
0.0 -1.962000000000e+01 0.0 
0.0 -1.962000000000e+01 0.0 
0.0 -1.962000000000e+01 0.0 
0.0 -1.962000000000e+01 0.0 
0.0 -1.962000000000e+01 0.0 
0.0 -1.962000000000e+01 0.0 
0.0 -1.962000000000e+01 0.0 
0.0 -1.962000000000e+01 0.0 
0.0 -1.962000000000e+01 0.0 
0.0 -1.962000000000e+01 0.0 
0.0 -1.962000000000e+01 0.0 
0.0 -1.962000000000e+01 0.0 
0.0 -1.962000000000e+01 0.0 
0.0 -1.962000000000e+01 0.0 
0.0 -1.962000000000e+01 0.0 
0.0 -1.962000000000e+01 0.0 
0.0 -1.962000000000e+01 0.0 
0.0 -1.962000000000e+01 0.0 
0.0 -1.962000000000e+01 0.0 
0.0 -1.962000000000e+01 0.0 
0.0 -1.962000000000e+01 0.0 
0.0 -1.962000000000e+01 0.0 
0.0 -1.962000000000e+01 0.0 
0.0 -1.962000000000e+01 0.0 
0.0 -1.962000000000e+01 0.0 
0.0 -1.962000000000e+01 0.0 
0.0 -1.962000000000e+01 0.0 
0.0 -1.962000000000e+01 0.0 
0.0 -1.962000000000e+01 0.0 
0.0 -1.962000000000e+01 0.0 
0.0 -1.962000000000e+01 0.0 
0.0 -1.962000000000e+01 0.0 
0.0 -1.962000000000e+01 0.0 
0.0 -1.962000000000e+01 0.0 
0.0 -1.962000000000e+01 0.0 
0.0 -1.962000000000e+01 0.0 
0.0 -1.962000000000e+01 0.0 
0.0 -1.962000000000e+01 0.0 
0.0 -1.962000000000e+01 0.0 
0.0 -1.962000000000e+01 0.0 
0.0 -1.962000000000e+01 0.0 
0.0 -1.962000000000e+01 0.0 
0.0 -1.962000000000e+01 0.0 
0.0 -1.962000000000e+01 0.0 
0.0 -1.962000000000e+01 0.0 
0.0 -1.962000000000e+01 0.0 
0.0 -1.962000000000e+01 0.0 
0.0 -1.962000000000e+01 0.0 
0.0 -1.962000000000e+01 0.0 
0.0 -1.962000000000e+01 0.0 
0.0 -1.962000000000e+01 0.0 
0.0 -1.962000000000e+01 0.0 
0.0 -1.962000000000e+01 0.0 
0.0 -1.962000000000e+01 0.0 
0.0 -1.962000000000e+01 0.0 
0.0 -1.962000000000e+01 0.0 
0.0 -1.962000000000e+01 0.0 
0.0 -1.962000000000e+01 0.0 
0.0 -1.962000000000e+01 0.0 
0.0 -1.962000000000e+01 0.0 
0.0 -1.962000000000e+01 0.0 
0.0 -1.962000000000e+01 0.0 
0.0 -1.962000000000e+01 0.0 
0.0 -1.962000000000e+01 0.0 
0.0 -1.962000000000e+01 0.0 
0.0 -1.962000000000e+01 0.0 
0.0 -1.962000000000e+01 0.0 
0.0 -1.962000000000e+01 0.0 
0.0 -1.962000000000e+01 0.0 
0.0 -1.962000000000e+01 0.0 
0.0 -1.962000000000e+01 0.0 
0.0 -1.962000000000e+01 0.0 
0.0 -1.962000000000e+01 0.0 
0.0 -1.962000000000e+01 0.0 
0.0 -1.962000000000e+01 0.0 
0.0 -1.962000000000e+01 0.0 
0.0 -1.962000000000e+01 0.0 
0.0 -1.962000000000e+01 0.0 
0.0 -1.962000000000e+01 0.0 
0.0 -1.962000000000e+01 0.0 
0.0 -1.962000000000e+01 0.0 
0.0 -1.962000000000e+01 0.0 
0.0 -1.962000000000e+01 0.0 
0.0 -1.962000000000e+01 0.0 
0.0 -1.962000000000e+01 0.0 
0.0 -1.962000000000e+01 0.0 
0.0 -1.962000000000e+01 0.0 
0.0 -1.962000000000e+01 0.0 
0.0 -1.962000000000e+01 0.0 
0.0 -1.962000000000e+01 0.0 
0.0 -1.962000000000e+01 0.0 
0.0 -1.962000000000e+01 0.0 
0.0 -1.962000000000e+01 0.0 
0.0 -1.962000000000e+01 0.0 
0.0 -1.962000000000e+01 0.0 
0.0 -1.962000000000e+01 0.0 
0.0 -1.962000000000e+01 0.0 
0.0 -1.962000000000e+01 0.0 
0.0 -1.962000000000e+01 0.0 
0.0 -1.962000000000e+01 0.0 
0.0 -1.962000000000e+01 0.0 
0.0 -1.962000000000e+01 0.0 
0.0 -1.962000000000e+01 0.0 
0.0 -1.962000000000e+01 0.0 
0.0 -1.962000000000e+01 0.0 
0.0 -1.962000000000e+01 0.0 
0.0 -1.962000000000e+01 0.0 
0.0 -1.962000000000e+01 0.0 
0.0 -1.962000000000e+01 0.0 
0.0 -1.962000000000e+01 0.0 
0.0 -1.962000000000e+01 0.0 
0.0 -1.962000000000e+01 0.0 
0.0 -1.962000000000e+01 0.0 
0.0 -1.962000000000e+01 0.0 
0.0 -1.962000000000e+01 0.0 
0.0 -1.962000000000e+01 0.0 
0.0 -1.962000000000e+01 0.0 
0.0 -1.962000000000e+01 0.0 
0.0 -1.962000000000e+01 0.0 
0.0 -1.962000000000e+01 0.0 
0.0 -1.962000000000e+01 0.0 
0.0 -1.962000000000e+01 0.0 
0.0 -1.962000000000e+01 0.0 
0.0 -1.962000000000e+01 0.0 
0.0 -1.962000000000e+01 0.0 
0.0 -1.962000000000e+01 0.0 
0.0 -1.962000000000e+01 0.0 
0.0 -1.962000000000e+01 0.0 
0.0 -1.962000000000e+01 0.0 
0.0 -1.962000000000e+01 0.0 
0.0 -1.962000000000e+01 0.0 
0.0 -1.962000000000e+01 0.0 
0.0 -1.962000000000e+01 0.0 
0.0 -1.962000000000e+01 0.0 
0.0 -1.962000000000e+01 0.0 
0.0 -1.962000000000e+01 0.0 
0.0 -1.962000000000e+01 0.0 
0.0 -1.962000000000e+01 0.0 
0.0 -1.962000000000e+01 0.0 
0.0 -1.962000000000e+01 0.0 
0.0 -1.962000000000e+01 0.0 
0.0 -1.962000000000e+01 0.0 
0.0 -1.962000000000e+01 0.0 
0.0 -1.962000000000e+01 0.0 
0.0 -1.962000000000e+01 0.0 
0.0 -1.962000000000e+01 0.0 
0.0 -1.962000000000e+01 0.0 
0.0 -1.962000000000e+01 0.0 
0.0 -1.962000000000e+01 0.0 
0.0 -1.962000000000e+01 0.0 
0.0 -1.962000000000e+01 0.0 
0.0 -1.962000000000e+01 0.0 
0.0 -1.962000000000e+01 0.0 
0.0 -1.962000000000e+01 0.0 
0.0 -1.962000000000e+01 0.0 
0.0 -1.962000000000e+01 0.0 
0.0 -1.962000000000e+01 0.0 
0.0 -1.962000000000e+01 0.0 
0.0 -1.962000000000e+01 0.0 
0.0 -1.962000000000e+01 0.0 
0.0 -1.962000000000e+01 0.0 
0.0 -1.962000000000e+01 0.0 
0.0 -1.962000000000e+01 0.0 
0.0 -1.962000000000e+01 0.0 
0.0 -1.962000000000e+01 0.0 
0.0 -1.962000000000e+01 0.0 
0.0 -1.962000000000e+01 0.0 
0.0 -1.962000000000e+01 0.0 
0.0 -1.962000000000e+01 0.0 
0.0 -1.962000000000e+01 0.0 
0.0 -1.962000000000e+01 0.0 
0.0 -1.962000000000e+01 0.0 
0.0 -1.962000000000e+01 0.0 
0.0 -1.962000000000e+01 0.0 
0.0 -1.962000000000e+01 0.0 
0.0 -1.962000000000e+01 0.0 
0.0 -1.962000000000e+01 0.0 
0.0 -1.962000000000e+01 0.0 
0.0 -1.962000000000e+01 0.0 
0.0 -1.962000000000e+01 0.0 
0.0 -1.962000000000e+01 0.0 
0.0 -1.962000000000e+01 0.0 
0.0 -1.962000000000e+01 0.0 
0.0 -1.962000000000e+01 0.0 
0.0 -1.962000000000e+01 0.0 
0.0 -1.962000000000e+01 0.0 
0.0 -1.962000000000e+01 0.0 
0.0 -1.962000000000e+01 0.0 
0.0 -1.962000000000e+01 0.0 
0.0 -1.962000000000e+01 0.0 
0.0 -1.962000000000e+01 0.0 
0.0 -1.962000000000e+01 0.0 
0.0 -1.962000000000e+01 0.0 
0.0 -1.962000000000e+01 0.0 
0.0 -1.962000000000e+01 0.0 
0.0 -1.962000000000e+01 0.0 
0.0 -1.962000000000e+01 0.0 
0.0 -1.962000000000e+01 0.0 
0.0 -1.962000000000e+01 0.0 
0.0 -1.962000000000e+01 0.0 
0.0 -1.962000000000e+01 0.0 
0.0 -1.962000000000e+01 0.0 
0.0 -1.962000000000e+01 0.0 
0.0 -1.962000000000e+01 0.0 
0.0 -1.962000000000e+01 0.0 
0.0 -1.962000000000e+01 0.0 
0.0 -1.962000000000e+01 0.0 
0.0 -1.962000000000e+01 0.0 
0.0 -1.962000000000e+01 0.0 
0.0 -1.962000000000e+01 0.0 
0.0 -1.962000000000e+01 0.0 
0.0 -1.962000000000e+01 0.0 
0.0 -1.962000000000e+01 0.0 
0.0 -1.962000000000e+01 0.0 
0.0 -1.962000000000e+01 0.0 
0.0 -1.962000000000e+01 0.0 
0.0 -1.962000000000e+01 0.0 
0.0 -1.962000000000e+01 0.0 
0.0 -1.962000000000e+01 0.0 
0.0 -1.962000000000e+01 0.0 
0.0 -1.962000000000e+01 0.0 
0.0 -1.962000000000e+01 0.0 
0.0 -1.962000000000e+01 0.0 
0.0 -1.962000000000e+01 0.0 
0.0 -1.962000000000e+01 0.0 
0.0 -1.962000000000e+01 0.0 
0.0 -1.962000000000e+01 0.0 
0.0 -1.962000000000e+01 0.0 
0.0 -1.962000000000e+01 0.0 
0.0 -1.962000000000e+01 0.0 
0.0 -1.962000000000e+01 0.0 
0.0 -1.962000000000e+01 0.0 
0.0 -1.962000000000e+01 0.0 
0.0 -1.962000000000e+01 0.0 
0.0 -1.962000000000e+01 0.0 
0.0 -1.962000000000e+01 0.0 
0.0 -1.962000000000e+01 0.0 
0.0 -1.962000000000e+01 0.0 
0.0 -1.962000000000e+01 0.0 
0.0 -1.962000000000e+01 0.0 
0.0 -1.962000000000e+01 0.0 
0.0 -1.962000000000e+01 0.0 
0.0 -1.962000000000e+01 0.0 
0.0 -1.962000000000e+01 0.0 
0.0 -1.962000000000e+01 0.0 
0.0 -1.962000000000e+01 0.0 
0.0 -1.962000000000e+01 0.0 
0.0 -1.962000000000e+01 0.0 
0.0 -1.962000000000e+01 0.0 
0.0 -1.962000000000e+01 0.0 
0.0 -1.962000000000e+01 0.0 
0.0 -1.962000000000e+01 0.0 
0.0 -1.962000000000e+01 0.0 
0.0 -1.962000000000e+01 0.0 
0.0 -1.962000000000e+01 0.0 
0.0 -1.962000000000e+01 0.0 
0.0 -1.962000000000e+01 0.0 
0.0 -1.962000000000e+01 0.0 
0.0 -1.962000000000e+01 0.0 
0.0 -1.962000000000e+01 0.0 
0.0 -1.962000000000e+01 0.0 
0.0 -1.962000000000e+01 0.0 
0.0 -1.962000000000e+01 0.0 
0.0 -1.962000000000e+01 0.0 
0.0 -1.962000000000e+01 0.0 
0.0 -1.962000000000e+01 0.0 
0.0 -1.962000000000e+01 0.0 
0.0 -1.962000000000e+01 0.0 
0.0 -1.962000000000e+01 0.0 
0.0 -1.962000000000e+01 0.0 
0.0 -1.962000000000e+01 0.0 
0.0 -1.962000000000e+01 0.0 
0.0 -1.962000000000e+01 0.0 
0.0 -1.962000000000e+01 0.0 
0.0 -1.962000000000e+01 0.0 
0.0 -1.962000000000e+01 0.0 
0.0 -1.962000000000e+01 0.0 
0.0 -1.962000000000e+01 0.0 
0.0 -1.962000000000e+01 0.0 
0.0 -1.962000000000e+01 0.0 
0.0 -1.962000000000e+01 0.0 
0.0 -1.962000000000e+01 0.0 
0.0 -1.962000000000e+01 0.0 
0.0 -1.962000000000e+01 0.0 
0.0 -1.962000000000e+01 0.0 
0.0 -1.962000000000e+01 0.0 
0.0 -1.962000000000e+01 0.0 
0.0 -1.962000000000e+01 0.0 
0.0 -1.962000000000e+01 0.0 
0.0 -1.962000000000e+01 0.0 
0.0 -1.962000000000e+01 0.0 
0.0 -1.962000000000e+01 0.0 
0.0 -1.962000000000e+01 0.0 
0.0 -1.962000000000e+01 0.0 
0.0 -1.962000000000e+01 0.0 
0.0 -1.962000000000e+01 0.0 
0.0 -1.962000000000e+01 0.0 
0.0 -1.962000000000e+01 0.0 
0.0 -1.962000000000e+01 0.0 
0.0 -1.962000000000e+01 0.0 
0.0 -1.962000000000e+01 0.0 
0.0 -1.962000000000e+01 0.0 
0.0 -1.962000000000e+01 0.0 
0.0 -1.962000000000e+01 0.0 
0.0 -1.962000000000e+01 0.0 
0.0 -1.962000000000e+01 0.0 
0.0 -1.962000000000e+01 0.0 
0.0 -1.962000000000e+01 0.0 
0.0 -1.962000000000e+01 0.0 
0.0 -1.962000000000e+01 0.0 
0.0 -1.962000000000e+01 0.0 
0.0 -1.962000000000e+01 0.0 
0.0 -1.962000000000e+01 0.0 
0.0 -1.962000000000e+01 0.0 
0.0 -1.962000000000e+01 0.0 
0.0 -1.962000000000e+01 0.0 
0.0 -1.962000000000e+01 0.0 
0.0 -1.962000000000e+01 0.0 
0.0 -1.962000000000e+01 0.0 
0.0 -1.962000000000e+01 0.0 
0.0 -1.962000000000e+01 0.0 
0.0 -1.962000000000e+01 0.0 
0.0 -1.962000000000e+01 0.0 
0.0 -1.962000000000e+01 0.0 
0.0 -1.962000000000e+01 0.0 
0.0 -1.962000000000e+01 0.0 
0.0 -1.962000000000e+01 0.0 
0.0 -1.962000000000e+01 0.0 
0.0 -1.962000000000e+01 0.0 
0.0 -1.962000000000e+01 0.0 
0.0 -1.962000000000e+01 0.0 
0.0 -1.962000000000e+01 0.0 
0.0 -1.962000000000e+01 0.0 
0.0 -1.962000000000e+01 0.0 
0.0 -1.962000000000e+01 0.0 
0.0 -1.962000000000e+01 0.0 
0.0 -1.962000000000e+01 0.0 
0.0 -1.962000000000e+01 0.0 
0.0 -1.962000000000e+01 0.0 
0.0 -1.962000000000e+01 0.0 
0.0 -1.962000000000e+01 0.0 
0.0 -1.962000000000e+01 0.0 
0.0 -1.962000000000e+01 0.0 
0.0 -1.962000000000e+01 0.0 
0.0 -1.962000000000e+01 0.0 
0.0 -1.962000000000e+01 0.0 
0.0 -1.962000000000e+01 0.0 
0.0 -1.962000000000e+01 0.0 
0.0 -1.962000000000e+01 0.0 
0.0 -1.962000000000e+01 0.0 
0.0 -1.962000000000e+01 0.0 
0.0 -1.962000000000e+01 0.0 
0.0 -1.962000000000e+01 0.0 
0.0 -1.962000000000e+01 0.0 
0.0 -1.962000000000e+01 0.0 
0.0 -1.962000000000e+01 0.0 
0.0 -1.962000000000e+01 0.0 
0.0 -1.962000000000e+01 0.0 
0.0 -1.962000000000e+01 0.0 
0.0 -1.962000000000e+01 0.0 
0.0 -1.962000000000e+01 0.0 
0.0 -1.962000000000e+01 0.0 
0.0 -1.962000000000e+01 0.0 

VECTORS node_rhside_materi_fixed float
2.998681931611e-01 0.0 0.0 
3.233325902540e+01 0.0 0.0 
-8.359627858725e+01 -1.995772355302e+02 0.0 
5.018191371391e+01 -1.207589971722e+02 0.0 
-2.329354215416e+00 0.0 0.0 
-1.083094403207e+01 0.0 0.0 
-1.967364571397e+01 0.0 0.0 
-2.988307200555e+01 0.0 0.0 
-3.882579362957e+01 0.0 0.0 
-4.771097415117e+01 0.0 0.0 
-5.634923320989e+01 0.0 0.0 
-6.478386623650e+01 0.0 0.0 
-7.305698722824e+01 0.0 0.0 
-8.121821043605e+01 0.0 0.0 
-8.987282520648e+01 0.0 0.0 
-9.843614696543e+01 0.0 0.0 
-1.065233501409e+02 0.0 0.0 
-1.154327384158e+02 0.0 0.0 
-1.242853778766e+02 0.0 0.0 
-1.332853537730e+02 0.0 0.0 
-1.424299200688e+02 0.0 0.0 
-1.516550683409e+02 0.0 0.0 
-1.613622124527e+02 0.0 0.0 
9.786127833890e-01 -2.402850705392e+02 0.0 
1.685563005115e+00 -2.417193378235e+02 0.0 
4.702860086797e+00 -2.409799363596e+02 0.0 
3.658373049360e+00 -2.413423873820e+02 0.0 
6.546148260671e+00 -2.426106781425e+02 0.0 
7.676368028776e+00 -2.423967095202e+02 0.0 
8.936838577949e+00 -2.438680902449e+02 0.0 
1.066890211804e+01 -2.453512865256e+02 0.0 
1.382023980196e+01 -2.459456808702e+02 0.0 
1.341363526873e+01 -2.477591237872e+02 0.0 
1.732310134071e+01 -2.510509887013e+02 0.0 
1.932873981024e+01 -2.526998705296e+02 0.0 
2.139590929864e+01 -2.568897101299e+02 0.0 
2.361479604369e+01 -2.602835384183e+02 0.0 
2.622085062437e+01 -2.647939502940e+02 0.0 
2.817895965118e+01 -2.705123812839e+02 0.0 
3.150722931998e+01 -2.762746238438e+02 0.0 
3.318834827240e+01 -2.829204145916e+02 0.0 
3.499180062351e+01 -2.899815613031e+02 0.0 
3.625838249865e+01 -2.971372085433e+02 0.0 
3.683620416073e+01 -3.049002855715e+02 0.0 
3.792070534187e+01 -3.133769532974e+02 0.0 
3.793255322382e+01 -3.213251980665e+02 0.0 
3.778979983804e+01 -3.293720140615e+02 0.0 
3.722207857215e+01 -3.374898778109e+02 0.0 
3.602407385324e+01 -3.450790001745e+02 0.0 
3.467071855541e+01 -3.523146463288e+02 0.0 
3.295008830443e+01 -3.592389811752e+02 0.0 
3.119991541850e+01 -3.657689276383e+02 0.0 
2.870474515866e+01 -3.714674810293e+02 0.0 
2.682455540643e+01 -3.765318926114e+02 0.0 
2.417975587163e+01 -3.815255317368e+02 0.0 
2.179571514485e+01 -3.852638275100e+02 0.0 
1.941405546429e+01 -3.887496910918e+02 0.0 
1.696658669013e+01 -3.915101941021e+02 0.0 
1.477802562405e+01 -3.937849211423e+02 0.0 
1.273747697314e+01 -3.955043351888e+02 0.0 
1.073394051783e+01 -3.969076600141e+02 0.0 
9.034348521817e+00 -3.977759820819e+02 0.0 
7.514914530527e+00 -3.987864572581e+02 0.0 
6.092122174659e+00 -3.989811276191e+02 0.0 
4.990024718646e+00 -3.990806113701e+02 0.0 
3.997058677277e+00 -3.989804721587e+02 0.0 
3.101764191267e+00 -3.996992277076e+02 0.0 
2.265254087829e+00 -3.988098289033e+02 0.0 
1.616758468892e+00 -3.993970590061e+02 0.0 
1.570055592238e+00 -3.987164247028e+02 0.0 
7.010591506216e-01 -3.988435307470e+02 0.0 
3.844735709188e-01 -3.986390783582e+02 0.0 
4.011491704344e+01 0.0 0.0 
4.850227919131e+01 0.0 0.0 
5.627741486077e+01 0.0 0.0 
6.365353568974e+01 0.0 0.0 
7.087760471874e+01 0.0 0.0 
7.818756584254e+01 0.0 0.0 
8.471966713413e+01 0.0 0.0 
9.056431778437e+01 0.0 0.0 
9.764975331260e+01 0.0 0.0 
0.0 0.0 0.0 
0.0 0.0 0.0 
0.0 0.0 0.0 
0.0 0.0 0.0 
0.0 0.0 0.0 
0.0 0.0 0.0 
0.0 0.0 0.0 
0.0 0.0 0.0 
0.0 0.0 0.0 
0.0 0.0 0.0 
0.0 0.0 0.0 
9.641256936295e+00 0.0 0.0 
2.449351297184e+01 0.0 0.0 
0.0 0.0 0.0 
0.0 0.0 0.0 
0.0 0.0 0.0 
0.0 0.0 0.0 
0.0 0.0 0.0 
0.0 0.0 0.0 
0.0 0.0 0.0 
0.0 0.0 0.0 
0.0 0.0 0.0 
0.0 0.0 0.0 
0.0 0.0 0.0 
0.0 0.0 0.0 
0.0 0.0 0.0 
0.0 0.0 0.0 
0.0 0.0 0.0 
0.0 0.0 0.0 
0.0 0.0 0.0 
0.0 0.0 0.0 
0.0 0.0 0.0 
0.0 0.0 0.0 
0.0 0.0 0.0 
0.0 0.0 0.0 
0.0 0.0 0.0 
0.0 0.0 0.0 
0.0 0.0 0.0 
0.0 0.0 0.0 
0.0 0.0 0.0 
0.0 0.0 0.0 
0.0 0.0 0.0 
0.0 0.0 0.0 
0.0 0.0 0.0 
0.0 0.0 0.0 
0.0 0.0 0.0 
0.0 0.0 0.0 
0.0 0.0 0.0 
0.0 0.0 0.0 
0.0 0.0 0.0 
0.0 0.0 0.0 
0.0 0.0 0.0 
0.0 0.0 0.0 
0.0 0.0 0.0 
0.0 0.0 0.0 
0.0 0.0 0.0 
0.0 0.0 0.0 
0.0 0.0 0.0 
0.0 0.0 0.0 
0.0 0.0 0.0 
0.0 0.0 0.0 
0.0 0.0 0.0 
0.0 0.0 0.0 
0.0 0.0 0.0 
0.0 0.0 0.0 
0.0 0.0 0.0 
0.0 0.0 0.0 
0.0 0.0 0.0 
0.0 0.0 0.0 
0.0 0.0 0.0 
0.0 0.0 0.0 
0.0 0.0 0.0 
0.0 0.0 0.0 
0.0 0.0 0.0 
0.0 0.0 0.0 
0.0 0.0 0.0 
0.0 0.0 0.0 
0.0 0.0 0.0 
0.0 0.0 0.0 
0.0 0.0 0.0 
0.0 0.0 0.0 
0.0 0.0 0.0 
0.0 0.0 0.0 
0.0 0.0 0.0 
0.0 0.0 0.0 
0.0 0.0 0.0 
0.0 0.0 0.0 
0.0 0.0 0.0 
0.0 0.0 0.0 
0.0 0.0 0.0 
0.0 0.0 0.0 
0.0 0.0 0.0 
0.0 0.0 0.0 
0.0 0.0 0.0 
0.0 0.0 0.0 
0.0 0.0 0.0 
0.0 0.0 0.0 
0.0 0.0 0.0 
0.0 0.0 0.0 
0.0 0.0 0.0 
0.0 0.0 0.0 
0.0 0.0 0.0 
0.0 0.0 0.0 
0.0 0.0 0.0 
0.0 0.0 0.0 
0.0 0.0 0.0 
0.0 0.0 0.0 
0.0 0.0 0.0 
0.0 0.0 0.0 
0.0 0.0 0.0 
0.0 0.0 0.0 
0.0 0.0 0.0 
0.0 0.0 0.0 
0.0 0.0 0.0 
0.0 0.0 0.0 
0.0 0.0 0.0 
0.0 0.0 0.0 
0.0 0.0 0.0 
0.0 0.0 0.0 
0.0 0.0 0.0 
0.0 0.0 0.0 
0.0 0.0 0.0 
0.0 0.0 0.0 
0.0 0.0 0.0 
0.0 0.0 0.0 
0.0 0.0 0.0 
0.0 0.0 0.0 
0.0 0.0 0.0 
0.0 0.0 0.0 
0.0 0.0 0.0 
0.0 0.0 0.0 
0.0 0.0 0.0 
0.0 0.0 0.0 
0.0 0.0 0.0 
0.0 0.0 0.0 
0.0 0.0 0.0 
0.0 0.0 0.0 
0.0 0.0 0.0 
0.0 0.0 0.0 
0.0 0.0 0.0 
0.0 0.0 0.0 
0.0 0.0 0.0 
0.0 0.0 0.0 
0.0 0.0 0.0 
0.0 0.0 0.0 
0.0 0.0 0.0 
0.0 0.0 0.0 
0.0 0.0 0.0 
0.0 0.0 0.0 
0.0 0.0 0.0 
0.0 0.0 0.0 
0.0 0.0 0.0 
0.0 0.0 0.0 
0.0 0.0 0.0 
0.0 0.0 0.0 
0.0 0.0 0.0 
0.0 0.0 0.0 
0.0 0.0 0.0 
0.0 0.0 0.0 
0.0 0.0 0.0 
0.0 0.0 0.0 
0.0 0.0 0.0 
0.0 0.0 0.0 
0.0 0.0 0.0 
0.0 0.0 0.0 
0.0 0.0 0.0 
0.0 0.0 0.0 
0.0 0.0 0.0 
0.0 0.0 0.0 
0.0 0.0 0.0 
0.0 0.0 0.0 
0.0 0.0 0.0 
0.0 0.0 0.0 
0.0 0.0 0.0 
0.0 0.0 0.0 
0.0 0.0 0.0 
0.0 0.0 0.0 
0.0 0.0 0.0 
0.0 0.0 0.0 
0.0 0.0 0.0 
0.0 0.0 0.0 
0.0 0.0 0.0 
0.0 0.0 0.0 
0.0 0.0 0.0 
0.0 0.0 0.0 
0.0 0.0 0.0 
0.0 0.0 0.0 
0.0 0.0 0.0 
0.0 0.0 0.0 
0.0 0.0 0.0 
0.0 0.0 0.0 
0.0 0.0 0.0 
0.0 0.0 0.0 
0.0 0.0 0.0 
0.0 0.0 0.0 
0.0 0.0 0.0 
0.0 0.0 0.0 
0.0 0.0 0.0 
0.0 0.0 0.0 
0.0 0.0 0.0 
0.0 0.0 0.0 
0.0 0.0 0.0 
0.0 0.0 0.0 
0.0 0.0 0.0 
0.0 0.0 0.0 
0.0 0.0 0.0 
0.0 0.0 0.0 
0.0 0.0 0.0 
0.0 0.0 0.0 
0.0 0.0 0.0 
0.0 0.0 0.0 
0.0 0.0 0.0 
0.0 0.0 0.0 
0.0 0.0 0.0 
0.0 0.0 0.0 
0.0 0.0 0.0 
0.0 0.0 0.0 
0.0 0.0 0.0 
0.0 0.0 0.0 
0.0 0.0 0.0 
0.0 0.0 0.0 
0.0 0.0 0.0 
0.0 0.0 0.0 
0.0 0.0 0.0 
0.0 0.0 0.0 
0.0 0.0 0.0 
0.0 0.0 0.0 
0.0 0.0 0.0 
0.0 0.0 0.0 
0.0 0.0 0.0 
0.0 0.0 0.0 
0.0 0.0 0.0 
0.0 0.0 0.0 
0.0 0.0 0.0 
0.0 0.0 0.0 
0.0 0.0 0.0 
0.0 0.0 0.0 
0.0 0.0 0.0 
0.0 0.0 0.0 
0.0 0.0 0.0 
0.0 0.0 0.0 
0.0 0.0 0.0 
0.0 0.0 0.0 
0.0 0.0 0.0 
0.0 0.0 0.0 
0.0 0.0 0.0 
0.0 0.0 0.0 
0.0 0.0 0.0 
0.0 0.0 0.0 
0.0 0.0 0.0 
0.0 0.0 0.0 
0.0 0.0 0.0 
0.0 0.0 0.0 
0.0 0.0 0.0 
0.0 0.0 0.0 
0.0 0.0 0.0 
0.0 0.0 0.0 
0.0 0.0 0.0 
0.0 0.0 0.0 
0.0 0.0 0.0 
0.0 0.0 0.0 
0.0 0.0 0.0 
0.0 0.0 0.0 
0.0 0.0 0.0 
0.0 0.0 0.0 
0.0 0.0 0.0 
0.0 0.0 0.0 
0.0 0.0 0.0 
0.0 0.0 0.0 
0.0 0.0 0.0 
0.0 0.0 0.0 
0.0 0.0 0.0 
0.0 0.0 0.0 
0.0 0.0 0.0 
0.0 0.0 0.0 
0.0 0.0 0.0 
0.0 0.0 0.0 
0.0 0.0 0.0 
0.0 0.0 0.0 
0.0 0.0 0.0 
0.0 0.0 0.0 
0.0 0.0 0.0 
0.0 0.0 0.0 
0.0 0.0 0.0 
0.0 0.0 0.0 
0.0 0.0 0.0 
0.0 0.0 0.0 
0.0 0.0 0.0 
0.0 0.0 0.0 
0.0 0.0 0.0 
0.0 0.0 0.0 
0.0 0.0 0.0 
0.0 0.0 0.0 
0.0 0.0 0.0 
0.0 0.0 0.0 
0.0 0.0 0.0 
0.0 0.0 0.0 
0.0 0.0 0.0 
0.0 0.0 0.0 
0.0 0.0 0.0 
0.0 0.0 0.0 
0.0 0.0 0.0 
0.0 0.0 0.0 
0.0 0.0 0.0 
0.0 0.0 0.0 
0.0 0.0 0.0 
0.0 0.0 0.0 
0.0 0.0 0.0 
0.0 0.0 0.0 
0.0 0.0 0.0 
0.0 0.0 0.0 
0.0 0.0 0.0 
0.0 0.0 0.0 
0.0 0.0 0.0 
0.0 0.0 0.0 
0.0 0.0 0.0 
0.0 0.0 0.0 
0.0 0.0 0.0 
0.0 0.0 0.0 
0.0 0.0 0.0 
0.0 0.0 0.0 
0.0 0.0 0.0 
0.0 0.0 0.0 
0.0 0.0 0.0 
0.0 0.0 0.0 
0.0 0.0 0.0 
0.0 0.0 0.0 
0.0 0.0 0.0 
0.0 0.0 0.0 
0.0 0.0 0.0 
0.0 0.0 0.0 
0.0 0.0 0.0 
0.0 0.0 0.0 
0.0 0.0 0.0 
0.0 0.0 0.0 
0.0 0.0 0.0 
0.0 0.0 0.0 
0.0 0.0 0.0 
0.0 0.0 0.0 
0.0 0.0 0.0 
0.0 0.0 0.0 
0.0 0.0 0.0 
0.0 0.0 0.0 
0.0 0.0 0.0 
0.0 0.0 0.0 
0.0 0.0 0.0 
0.0 0.0 0.0 
0.0 0.0 0.0 
0.0 0.0 0.0 
0.0 0.0 0.0 
0.0 0.0 0.0 
0.0 0.0 0.0 
0.0 0.0 0.0 
0.0 0.0 0.0 
0.0 0.0 0.0 
0.0 0.0 0.0 
0.0 0.0 0.0 
0.0 0.0 0.0 
0.0 0.0 0.0 
0.0 0.0 0.0 
0.0 0.0 0.0 
0.0 0.0 0.0 
0.0 0.0 0.0 
0.0 0.0 0.0 
0.0 0.0 0.0 
0.0 0.0 0.0 
0.0 0.0 0.0 
0.0 0.0 0.0 
0.0 0.0 0.0 
0.0 0.0 0.0 
0.0 0.0 0.0 
0.0 0.0 0.0 
0.0 0.0 0.0 
0.0 0.0 0.0 
0.0 0.0 0.0 
0.0 0.0 0.0 
0.0 0.0 0.0 
0.0 0.0 0.0 
0.0 0.0 0.0 
0.0 0.0 0.0 
0.0 0.0 0.0 
0.0 0.0 0.0 
0.0 0.0 0.0 
0.0 0.0 0.0 
0.0 0.0 0.0 
0.0 0.0 0.0 
0.0 0.0 0.0 
0.0 0.0 0.0 
0.0 0.0 0.0 
0.0 0.0 0.0 
0.0 0.0 0.0 
0.0 0.0 0.0 
0.0 0.0 0.0 
0.0 0.0 0.0 
0.0 0.0 0.0 
0.0 0.0 0.0 
0.0 0.0 0.0 
0.0 0.0 0.0 
0.0 0.0 0.0 
0.0 0.0 0.0 
0.0 0.0 0.0 
0.0 0.0 0.0 
0.0 0.0 0.0 
0.0 0.0 0.0 
0.0 0.0 0.0 
0.0 0.0 0.0 
0.0 0.0 0.0 
0.0 0.0 0.0 
0.0 0.0 0.0 
0.0 0.0 0.0 
0.0 0.0 0.0 
0.0 0.0 0.0 
0.0 0.0 0.0 
0.0 0.0 0.0 
0.0 0.0 0.0 
0.0 0.0 0.0 
0.0 0.0 0.0 
0.0 0.0 0.0 
0.0 0.0 0.0 
0.0 0.0 0.0 
0.0 0.0 0.0 
0.0 0.0 0.0 
0.0 0.0 0.0 
0.0 0.0 0.0 
0.0 0.0 0.0 
0.0 0.0 0.0 
0.0 0.0 0.0 
0.0 0.0 0.0 
0.0 0.0 0.0 
0.0 0.0 0.0 
0.0 0.0 0.0 
0.0 0.0 0.0 
0.0 0.0 0.0 
0.0 0.0 0.0 
0.0 0.0 0.0 
0.0 0.0 0.0 
0.0 0.0 0.0 
0.0 0.0 0.0 
0.0 0.0 0.0 
0.0 0.0 0.0 
0.0 0.0 0.0 
0.0 0.0 0.0 
0.0 0.0 0.0 
0.0 0.0 0.0 
0.0 0.0 0.0 
0.0 0.0 0.0 
0.0 0.0 0.0 
0.0 0.0 0.0 
0.0 0.0 0.0 
0.0 0.0 0.0 
0.0 0.0 0.0 
0.0 0.0 0.0 
0.0 0.0 0.0 
0.0 0.0 0.0 
0.0 0.0 0.0 
0.0 0.0 0.0 
0.0 0.0 0.0 
0.0 0.0 0.0 
0.0 0.0 0.0 
0.0 0.0 0.0 
0.0 0.0 0.0 
0.0 0.0 0.0 
0.0 0.0 0.0 
0.0 0.0 0.0 
0.0 0.0 0.0 
0.0 0.0 0.0 
0.0 0.0 0.0 
0.0 0.0 0.0 
0.0 0.0 0.0 
0.0 0.0 0.0 
0.0 0.0 0.0 
0.0 0.0 0.0 
0.0 0.0 0.0 
0.0 0.0 0.0 
0.0 0.0 0.0 
0.0 0.0 0.0 
0.0 0.0 0.0 
0.0 0.0 0.0 
0.0 0.0 0.0 
0.0 0.0 0.0 
0.0 0.0 0.0 
0.0 0.0 0.0 
0.0 0.0 0.0 
0.0 0.0 0.0 
0.0 0.0 0.0 
0.0 0.0 0.0 
0.0 0.0 0.0 
0.0 0.0 0.0 
0.0 0.0 0.0 
0.0 0.0 0.0 
0.0 0.0 0.0 
0.0 0.0 0.0 
0.0 0.0 0.0 
0.0 0.0 0.0 
0.0 0.0 0.0 
0.0 0.0 0.0 
0.0 0.0 0.0 
0.0 0.0 0.0 
0.0 0.0 0.0 
0.0 0.0 0.0 
0.0 0.0 0.0 
0.0 0.0 0.0 
0.0 0.0 0.0 
0.0 0.0 0.0 
0.0 0.0 0.0 
0.0 0.0 0.0 
0.0 0.0 0.0 
0.0 0.0 0.0 
0.0 0.0 0.0 
0.0 0.0 0.0 
0.0 0.0 0.0 
0.0 0.0 0.0 
0.0 0.0 0.0 
0.0 0.0 0.0 
0.0 0.0 0.0 
0.0 0.0 0.0 
0.0 0.0 0.0 
0.0 0.0 0.0 
0.0 0.0 0.0 
0.0 0.0 0.0 
0.0 0.0 0.0 
0.0 0.0 0.0 
0.0 0.0 0.0 
0.0 0.0 0.0 
0.0 0.0 0.0 
0.0 0.0 0.0 
0.0 0.0 0.0 
0.0 0.0 0.0 
0.0 0.0 0.0 
0.0 0.0 0.0 
0.0 0.0 0.0 
0.0 0.0 0.0 
0.0 0.0 0.0 
0.0 0.0 0.0 
0.0 0.0 0.0 
0.0 0.0 0.0 
0.0 0.0 0.0 
0.0 0.0 0.0 
0.0 0.0 0.0 
0.0 0.0 0.0 
0.0 0.0 0.0 
0.0 0.0 0.0 
0.0 0.0 0.0 
0.0 0.0 0.0 
0.0 0.0 0.0 
0.0 0.0 0.0 
0.0 0.0 0.0 
0.0 0.0 0.0 
0.0 0.0 0.0 
0.0 0.0 0.0 
0.0 0.0 0.0 
0.0 0.0 0.0 
0.0 0.0 0.0 
0.0 0.0 0.0 
0.0 0.0 0.0 
0.0 0.0 0.0 
0.0 0.0 0.0 
0.0 0.0 0.0 
0.0 0.0 0.0 
0.0 0.0 0.0 
0.0 0.0 0.0 
0.0 0.0 0.0 
0.0 0.0 0.0 
0.0 0.0 0.0 
0.0 0.0 0.0 
0.0 0.0 0.0 
0.0 0.0 0.0 
0.0 0.0 0.0 
0.0 0.0 0.0 
0.0 0.0 0.0 
0.0 0.0 0.0 
0.0 0.0 0.0 
0.0 0.0 0.0 
0.0 0.0 0.0 
0.0 0.0 0.0 
0.0 0.0 0.0 
0.0 0.0 0.0 
0.0 0.0 0.0 
0.0 0.0 0.0 
0.0 0.0 0.0 
0.0 0.0 0.0 
0.0 0.0 0.0 
0.0 0.0 0.0 
0.0 0.0 0.0 
0.0 0.0 0.0 
0.0 0.0 0.0 
0.0 0.0 0.0 
0.0 0.0 0.0 
0.0 0.0 0.0 
0.0 0.0 0.0 
0.0 0.0 0.0 
0.0 0.0 0.0 
0.0 0.0 0.0 
0.0 0.0 0.0 
0.0 0.0 0.0 
0.0 0.0 0.0 
0.0 0.0 0.0 
0.0 0.0 0.0 
0.0 0.0 0.0 
0.0 0.0 0.0 
0.0 0.0 0.0 
0.0 0.0 0.0 
0.0 0.0 0.0 
0.0 0.0 0.0 
0.0 0.0 0.0 
0.0 0.0 0.0 
0.0 0.0 0.0 
0.0 0.0 0.0 
0.0 0.0 0.0 
0.0 0.0 0.0 
0.0 0.0 0.0 
0.0 0.0 0.0 
0.0 0.0 0.0 
0.0 0.0 0.0 
0.0 0.0 0.0 
0.0 0.0 0.0 
0.0 0.0 0.0 
0.0 0.0 0.0 
0.0 0.0 0.0 
0.0 0.0 0.0 
0.0 0.0 0.0 
0.0 0.0 0.0 
0.0 0.0 0.0 
0.0 0.0 0.0 
0.0 0.0 0.0 
0.0 0.0 0.0 
0.0 0.0 0.0 
0.0 0.0 0.0 
0.0 0.0 0.0 
0.0 0.0 0.0 
0.0 0.0 0.0 
0.0 0.0 0.0 
0.0 0.0 0.0 
0.0 0.0 0.0 
0.0 0.0 0.0 
0.0 0.0 0.0 
0.0 0.0 0.0 
0.0 0.0 0.0 
0.0 0.0 0.0 
0.0 0.0 0.0 
0.0 0.0 0.0 
0.0 0.0 0.0 
0.0 0.0 0.0 
0.0 0.0 0.0 
0.0 0.0 0.0 
0.0 0.0 0.0 
0.0 0.0 0.0 
0.0 0.0 0.0 
0.0 0.0 0.0 
0.0 0.0 0.0 
0.0 0.0 0.0 
0.0 0.0 0.0 
0.0 0.0 0.0 
0.0 0.0 0.0 
0.0 0.0 0.0 
0.0 0.0 0.0 
0.0 0.0 0.0 
0.0 0.0 0.0 
0.0 0.0 0.0 
0.0 0.0 0.0 
0.0 0.0 0.0 
0.0 0.0 0.0 
0.0 0.0 0.0 
0.0 0.0 0.0 
0.0 0.0 0.0 
0.0 0.0 0.0 
0.0 0.0 0.0 
0.0 0.0 0.0 
0.0 0.0 0.0 
0.0 0.0 0.0 
0.0 0.0 0.0 
0.0 0.0 0.0 
0.0 0.0 0.0 
0.0 0.0 0.0 
0.0 0.0 0.0 
0.0 0.0 0.0 
0.0 0.0 0.0 
0.0 0.0 0.0 
0.0 0.0 0.0 
0.0 0.0 0.0 
0.0 0.0 0.0 
0.0 0.0 0.0 
0.0 0.0 0.0 
0.0 0.0 0.0 
0.0 0.0 0.0 
0.0 0.0 0.0 
0.0 0.0 0.0 
0.0 0.0 0.0 
0.0 0.0 0.0 
0.0 0.0 0.0 
0.0 0.0 0.0 
0.0 0.0 0.0 
0.0 0.0 0.0 
0.0 0.0 0.0 
0.0 0.0 0.0 
0.0 0.0 0.0 
0.0 0.0 0.0 
0.0 0.0 0.0 
0.0 0.0 0.0 
0.0 0.0 0.0 
0.0 0.0 0.0 
0.0 0.0 0.0 
0.0 0.0 0.0 
0.0 0.0 0.0 
0.0 0.0 0.0 
0.0 0.0 0.0 
0.0 0.0 0.0 
0.0 0.0 0.0 
0.0 0.0 0.0 
0.0 0.0 0.0 
0.0 0.0 0.0 
0.0 0.0 0.0 
0.0 0.0 0.0 
0.0 0.0 0.0 
0.0 0.0 0.0 
0.0 0.0 0.0 
0.0 0.0 0.0 
0.0 0.0 0.0 
0.0 0.0 0.0 
0.0 0.0 0.0 
0.0 0.0 0.0 
0.0 0.0 0.0 
0.0 0.0 0.0 
0.0 0.0 0.0 
0.0 0.0 0.0 
0.0 0.0 0.0 
0.0 0.0 0.0 
0.0 0.0 0.0 
0.0 0.0 0.0 
0.0 0.0 0.0 
0.0 0.0 0.0 
0.0 0.0 0.0 
0.0 0.0 0.0 
0.0 0.0 0.0 
0.0 0.0 0.0 
0.0 0.0 0.0 
0.0 0.0 0.0 
0.0 0.0 0.0 
0.0 0.0 0.0 
0.0 0.0 0.0 
0.0 0.0 0.0 
0.0 0.0 0.0 
0.0 0.0 0.0 
0.0 0.0 0.0 
0.0 0.0 0.0 
0.0 0.0 0.0 
0.0 0.0 0.0 
0.0 0.0 0.0 
0.0 0.0 0.0 
0.0 0.0 0.0 
0.0 0.0 0.0 
0.0 0.0 0.0 
0.0 0.0 0.0 
0.0 0.0 0.0 
0.0 0.0 0.0 
0.0 0.0 0.0 
0.0 0.0 0.0 
0.0 0.0 0.0 
0.0 0.0 0.0 
0.0 0.0 0.0 
0.0 0.0 0.0 
0.0 0.0 0.0 
0.0 0.0 0.0 
0.0 0.0 0.0 
0.0 0.0 0.0 
0.0 0.0 0.0 
0.0 0.0 0.0 
0.0 0.0 0.0 
0.0 0.0 0.0 
0.0 0.0 0.0 
0.0 0.0 0.0 
0.0 0.0 0.0 
0.0 0.0 0.0 
0.0 0.0 0.0 
0.0 0.0 0.0 
0.0 0.0 0.0 
0.0 0.0 0.0 
0.0 0.0 0.0 
0.0 0.0 0.0 
0.0 0.0 0.0 
0.0 0.0 0.0 
0.0 0.0 0.0 
0.0 0.0 0.0 
0.0 0.0 0.0 
0.0 0.0 0.0 
0.0 0.0 0.0 
0.0 0.0 0.0 
0.0 0.0 0.0 
0.0 0.0 0.0 
0.0 0.0 0.0 
0.0 0.0 0.0 
0.0 0.0 0.0 
0.0 0.0 0.0 
0.0 0.0 0.0 
0.0 0.0 0.0 
0.0 0.0 0.0 
0.0 0.0 0.0 
0.0 0.0 0.0 
0.0 0.0 0.0 
0.0 0.0 0.0 
0.0 0.0 0.0 
0.0 0.0 0.0 
0.0 0.0 0.0 
0.0 0.0 0.0 
0.0 0.0 0.0 
0.0 0.0 0.0 
0.0 0.0 0.0 
0.0 0.0 0.0 
0.0 0.0 0.0 
0.0 0.0 0.0 
0.0 0.0 0.0 
0.0 0.0 0.0 
0.0 0.0 0.0 
0.0 0.0 0.0 
0.0 0.0 0.0 
0.0 0.0 0.0 
0.0 0.0 0.0 
0.0 0.0 0.0 
0.0 0.0 0.0 
0.0 0.0 0.0 
0.0 0.0 0.0 
0.0 0.0 0.0 
0.0 0.0 0.0 
0.0 0.0 0.0 
0.0 0.0 0.0 
0.0 0.0 0.0 
0.0 0.0 0.0 
0.0 0.0 0.0 
0.0 0.0 0.0 
0.0 0.0 0.0 
0.0 0.0 0.0 
0.0 0.0 0.0 
0.0 0.0 0.0 
0.0 0.0 0.0 
0.0 0.0 0.0 
0.0 0.0 0.0 
0.0 0.0 0.0 
0.0 0.0 0.0 
0.0 0.0 0.0 
0.0 0.0 0.0 
0.0 0.0 0.0 
0.0 0.0 0.0 
0.0 0.0 0.0 
0.0 0.0 0.0 
0.0 0.0 0.0 
0.0 0.0 0.0 
0.0 0.0 0.0 
0.0 0.0 0.0 
0.0 0.0 0.0 
0.0 0.0 0.0 
0.0 0.0 0.0 
0.0 0.0 0.0 
0.0 0.0 0.0 
0.0 0.0 0.0 
0.0 0.0 0.0 
0.0 0.0 0.0 
0.0 0.0 0.0 
0.0 0.0 0.0 
0.0 0.0 0.0 
0.0 0.0 0.0 
0.0 0.0 0.0 
0.0 0.0 0.0 
0.0 0.0 0.0 
0.0 0.0 0.0 
0.0 0.0 0.0 
0.0 0.0 0.0 
0.0 0.0 0.0 
0.0 0.0 0.0 
0.0 0.0 0.0 
0.0 0.0 0.0 
0.0 0.0 0.0 
0.0 0.0 0.0 
0.0 0.0 0.0 
0.0 0.0 0.0 
0.0 0.0 0.0 
0.0 0.0 0.0 
0.0 0.0 0.0 
0.0 0.0 0.0 
0.0 0.0 0.0 
0.0 0.0 0.0 
0.0 0.0 0.0 
0.0 0.0 0.0 
0.0 0.0 0.0 
0.0 0.0 0.0 
0.0 0.0 0.0 
0.0 0.0 0.0 
0.0 0.0 0.0 
0.0 0.0 0.0 
0.0 0.0 0.0 
0.0 0.0 0.0 
0.0 0.0 0.0 
0.0 0.0 0.0 
0.0 0.0 0.0 
0.0 0.0 0.0 
0.0 0.0 0.0 
0.0 0.0 0.0 
0.0 0.0 0.0 
0.0 0.0 0.0 
0.0 0.0 0.0 
0.0 0.0 0.0 
0.0 0.0 0.0 
0.0 0.0 0.0 
0.0 0.0 0.0 
0.0 0.0 0.0 
0.0 0.0 0.0 
0.0 0.0 0.0 
0.0 0.0 0.0 
0.0 0.0 0.0 
0.0 0.0 0.0 
0.0 0.0 0.0 
0.0 0.0 0.0 
0.0 0.0 0.0 
0.0 0.0 0.0 
0.0 0.0 0.0 
0.0 0.0 0.0 
0.0 0.0 0.0 
0.0 0.0 0.0 
0.0 0.0 0.0 
0.0 0.0 0.0 
0.0 0.0 0.0 
0.0 0.0 0.0 
0.0 0.0 0.0 
0.0 0.0 0.0 
0.0 0.0 0.0 
0.0 0.0 0.0 
0.0 0.0 0.0 
0.0 0.0 0.0 
0.0 0.0 0.0 
0.0 0.0 0.0 
0.0 0.0 0.0 
0.0 0.0 0.0 
0.0 0.0 0.0 
0.0 0.0 0.0 
0.0 0.0 0.0 
0.0 0.0 0.0 
0.0 0.0 0.0 
0.0 0.0 0.0 
0.0 0.0 0.0 
0.0 0.0 0.0 
0.0 0.0 0.0 
0.0 0.0 0.0 
0.0 0.0 0.0 
0.0 0.0 0.0 
0.0 0.0 0.0 
0.0 0.0 0.0 
0.0 0.0 0.0 
0.0 0.0 0.0 
0.0 0.0 0.0 
0.0 0.0 0.0 
0.0 0.0 0.0 
0.0 0.0 0.0 
0.0 0.0 0.0 
0.0 0.0 0.0 
0.0 0.0 0.0 
0.0 0.0 0.0 
0.0 0.0 0.0 
0.0 0.0 0.0 
0.0 0.0 0.0 
0.0 0.0 0.0 
0.0 0.0 0.0 
0.0 0.0 0.0 
0.0 0.0 0.0 
0.0 0.0 0.0 
0.0 0.0 0.0 
0.0 0.0 0.0 
0.0 0.0 0.0 
0.0 0.0 0.0 
0.0 0.0 0.0 
0.0 0.0 0.0 
0.0 0.0 0.0 
0.0 0.0 0.0 
0.0 0.0 0.0 
0.0 0.0 0.0 
0.0 0.0 0.0 
0.0 0.0 0.0 
0.0 0.0 0.0 
0.0 0.0 0.0 
0.0 0.0 0.0 
0.0 0.0 0.0 
0.0 0.0 0.0 
0.0 0.0 0.0 
0.0 0.0 0.0 
0.0 0.0 0.0 
0.0 0.0 0.0 
0.0 0.0 0.0 
0.0 0.0 0.0 

VECTORS node_materi_velocity float
0.0 -2.968491408526e-04 0.0 
0.0 9.982031517183e-03 0.0 
0.0 0.0 0.0 
0.0 0.0 0.0 
0.0 -2.898562752704e-04 0.0 
0.0 -2.770907702777e-04 0.0 
0.0 -2.640278102700e-04 0.0 
0.0 -2.505927654456e-04 0.0 
0.0 -2.360463295325e-04 0.0 
0.0 -2.200992128413e-04 0.0 
0.0 -2.026654852013e-04 0.0 
0.0 -1.837670197501e-04 0.0 
0.0 -1.636408040475e-04 0.0 
0.0 -1.425993212553e-04 0.0 
0.0 -1.211066027863e-04 0.0 
0.0 -9.976281703560e-05 0.0 
0.0 -7.905899175001e-05 0.0 
0.0 -5.924966190538e-05 0.0 
0.0 -4.139082166467e-05 0.0 
0.0 -2.601266435811e-05 0.0 
0.0 -1.361840711446e-05 0.0 
0.0 -4.946363655919e-06 0.0 
0.0 -5.951283828325e-07 0.0 
0.0 0.0 0.0 
0.0 0.0 0.0 
0.0 0.0 0.0 
0.0 0.0 0.0 
0.0 0.0 0.0 
0.0 0.0 0.0 
0.0 0.0 0.0 
0.0 0.0 0.0 
0.0 0.0 0.0 
0.0 0.0 0.0 
0.0 0.0 0.0 
0.0 0.0 0.0 
0.0 0.0 0.0 
0.0 0.0 0.0 
0.0 0.0 0.0 
0.0 0.0 0.0 
0.0 0.0 0.0 
0.0 0.0 0.0 
0.0 0.0 0.0 
0.0 0.0 0.0 
0.0 0.0 0.0 
0.0 0.0 0.0 
0.0 0.0 0.0 
0.0 0.0 0.0 
0.0 0.0 0.0 
0.0 0.0 0.0 
0.0 0.0 0.0 
0.0 0.0 0.0 
0.0 0.0 0.0 
0.0 0.0 0.0 
0.0 0.0 0.0 
0.0 0.0 0.0 
0.0 0.0 0.0 
0.0 0.0 0.0 
0.0 0.0 0.0 
0.0 0.0 0.0 
0.0 0.0 0.0 
0.0 0.0 0.0 
0.0 0.0 0.0 
0.0 0.0 0.0 
0.0 0.0 0.0 
0.0 0.0 0.0 
0.0 0.0 0.0 
0.0 0.0 0.0 
0.0 0.0 0.0 
0.0 0.0 0.0 
0.0 0.0 0.0 
0.0 0.0 0.0 
0.0 0.0 0.0 
0.0 8.961179918494e-03 0.0 
0.0 7.940592957924e-03 0.0 
0.0 6.921329247281e-03 0.0 
0.0 5.904546962701e-03 0.0 
0.0 4.892839693303e-03 0.0 
0.0 3.888344083889e-03 0.0 
0.0 2.893953966693e-03 0.0 
0.0 1.912772451823e-03 0.0 
0.0 9.478857566925e-04 0.0 
4.761218756299e-05 -2.147887618935e-05 0.0 
1.775470034047e-03 8.439026128455e-03 0.0 
7.277683048833e-05 1.032164691058e-04 0.0 
8.259829016424e-05 2.809447323766e-04 0.0 
9.322179401606e-05 5.404666568111e-04 0.0 
1.227337977195e-04 9.264551221887e-04 0.0 
2.020710319963e-04 1.502225298376e-03 0.0 
4.407275307138e-04 2.384520677030e-03 0.0 
1.375436192074e-03 3.820391534314e-03 0.0 
1.192151841289e-03 6.759433263103e-03 0.0 
1.513210032102e-03 8.213380534022e-03 0.0 
0.0 1.204413031901e-02 0.0 
0.0 1.100395602023e-02 0.0 
1.230306219041e-04 9.984510839696e-03 0.0 
2.463836765086e-04 9.989207237935e-03 0.0 
3.661410488273e-04 9.990675332569e-03 0.0 
4.835035838691e-04 9.993629394465e-03 0.0 
5.985911378785e-04 9.996945178128e-03 0.0 
7.112822498404e-04 9.997683279944e-03 0.0 
8.216699789461e-04 9.991464183251e-03 0.0 
9.274234417427e-04 9.972314814591e-03 0.0 
1.031208156878e-03 9.933914727281e-03 0.0 
1.133087571398e-03 9.867598244248e-03 0.0 
1.235117463561e-03 9.758404996396e-03 0.0 
1.341792411478e-03 9.589260280225e-03 0.0 
1.460028657617e-03 9.336432703735e-03 0.0 
1.598867290939e-03 8.967880444769e-03 0.0 
6.748886484486e-05 -9.538823086852e-05 0.0 
9.432156016635e-05 -1.621047876452e-04 0.0 
1.223114599450e-04 -2.167419316942e-04 0.0 
1.491366400366e-04 -2.593598014420e-04 0.0 
1.711288875527e-04 -2.917163497938e-04 0.0 
1.882400004148e-04 -3.146594339580e-04 0.0 
2.001889814230e-04 -3.295870355877e-04 0.0 
2.068342681842e-04 -3.383710161592e-04 0.0 
2.084613942439e-04 -3.421787964683e-04 0.0 
2.053102561825e-04 -3.421238258841e-04 0.0 
1.977304803919e-04 -3.396442272617e-04 0.0 
1.864527738366e-04 -3.350190452703e-04 0.0 
1.716063692231e-04 -3.294731881022e-04 0.0 
1.540421514359e-04 -3.234097470451e-04 0.0 
1.340693394426e-04 -3.174562551872e-04 0.0 
1.120336132887e-04 -3.115932921918e-04 0.0 
8.782427822934e-05 -3.063559562910e-04 0.0 
6.012837495644e-05 -3.076149133904e-04 0.0 
3.024007847136e-05 -3.035590671322e-04 0.0 
1.694207427119e-04 1.204114873297e-02 0.0 
2.705448922862e-04 1.202793162295e-02 0.0 
3.848730285755e-04 1.202448328136e-02 0.0 
5.031193497441e-04 1.202721764702e-02 0.0 
6.180218493023e-04 1.202761988332e-02 0.0 
7.239795287143e-04 1.202352537256e-02 0.0 
8.163879284908e-04 1.201139380384e-02 0.0 
8.901929110920e-04 1.198334946020e-02 0.0 
9.450770610013e-04 1.193428033432e-02 0.0 
9.729882691030e-04 1.185913954162e-02 0.0 
9.670339793553e-04 1.174252783241e-02 0.0 
9.257735346823e-04 1.156784579028e-02 0.0 
8.475201172016e-04 1.131591510176e-02 0.0 
7.341771073324e-04 1.095714272045e-02 0.0 
6.006799045831e-04 1.046208802535e-02 0.0 
4.704730753156e-04 9.751893761604e-03 0.0 
3.782838918044e-04 8.815378132929e-03 0.0 
1.324460597148e-03 9.126874073320e-03 0.0 
1.239774517547e-03 9.731173715446e-03 0.0 
1.185365986265e-03 1.015488108536e-02 0.0 
1.148507058312e-03 1.045569888184e-02 0.0 
1.113380716243e-03 1.066390543441e-02 0.0 
1.071149708654e-03 1.080475544905e-02 0.0 
1.017968418143e-03 1.089613775380e-02 0.0 
9.524311037022e-04 1.095343227924e-02 0.0 
8.746244779334e-04 1.098819248712e-02 0.0 
7.861848130213e-04 1.100580000935e-02 0.0 
6.888475637790e-04 1.101168419625e-02 0.0 
5.844335999994e-04 1.101186713499e-02 0.0 
4.750776631000e-04 1.101003803840e-02 0.0 
3.632026990964e-04 1.100912091901e-02 0.0 
2.485040403091e-04 1.101209654345e-02 0.0 
1.257673831160e-04 1.100925079752e-02 0.0 
6.563238031106e-05 3.806070726077e-05 0.0 
7.846875720215e-05 1.838486612765e-04 0.0 
8.724765498065e-05 3.984599449114e-04 0.0 
1.039031389657e-04 7.130297765270e-04 0.0 
1.491916925495e-04 1.183805215055e-03 0.0 
2.880339885529e-04 1.900246460408e-03 0.0 
7.345181106121e-04 2.997117510044e-03 0.0 
1.480531134470e-03 5.281133174517e-03 0.0 
1.330744150289e-03 7.651446543138e-03 0.0 
1.688313301294e-03 8.408426465769e-03 0.0 
1.374373736800e-04 1.809287416350e-04 0.0 
1.710108985799e-04 2.328782418611e-05 0.0 
2.115158711808e-04 -3.407735006292e-04 0.0 
1.901595134595e-04 -2.825686773261e-04 0.0 
8.843102677028e-05 6.567047561069e-06 0.0 
2.372752178692e-04 7.188129591184e-04 0.0 
2.977696446927e-05 -1.319079989687e-04 0.0 
2.791015923591e-04 5.812219684138e-05 0.0 
6.617510213354e-04 1.867094798273e-03 0.0 
4.138976589498e-04 1.275742114049e-04 0.0 
1.721156280325e-03 4.888586204449e-03 0.0 
4.407365976695e-05 2.147871005776e-06 0.0 
1.587141331342e-04 -3.193421127203e-04 0.0 
5.678227729020e-04 2.708771395350e-04 0.0 
2.127620985076e-03 7.431755700514e-03 0.0 
2.631371047964e-05 -2.116574330328e-04 0.0 
2.856322315167e-05 -7.306630428893e-05 0.0 
6.393575179080e-04 4.411830950258e-04 0.0 
5.240141406492e-04 6.224437585006e-04 0.0 
1.444589819877e-04 8.007502220821e-04 0.0 
2.797157136199e-04 8.435764860599e-04 0.0 
3.819181173686e-04 7.048625226438e-04 0.0 
1.764850793061e-03 8.263856828604e-03 0.0 
1.157074280851e-03 8.983049347349e-03 0.0 
7.844282830579e-04 9.051012415389e-03 0.0 
8.437047117959e-05 5.382643172055e-03 0.0 
2.553494523286e-05 6.931523032978e-07 0.0 
1.305339097246e-04 -1.353769957599e-04 0.0 
9.840646767776e-05 -3.004218804093e-04 0.0 
1.852262194370e-05 -2.038679766159e-05 0.0 
4.161697715675e-04 9.113529927730e-03 0.0 
2.642705959237e-05 -2.581874779587e-04 0.0 
6.740864646648e-04 6.134651839933e-04 0.0 
3.181766466884e-04 8.027920659642e-05 0.0 
4.888083739519e-04 1.856891394512e-04 0.0 
2.356010162025e-04 4.057675429563e-05 0.0 
1.255058450467e-04 1.335091997995e-05 0.0 
2.126346326829e-04 -3.263280718773e-04 0.0 
1.425460697785e-03 8.817845801169e-03 0.0 
7.501274078663e-05 3.928730179408e-06 0.0 
6.713208027421e-05 3.432055327056e-03 0.0 
1.918558967762e-04 -3.330116721506e-04 0.0 
2.918041692061e-05 -1.744564063902e-04 0.0 
7.129752672959e-05 6.534837882385e-04 0.0 
3.759844164735e-04 1.143808707732e-03 0.0 
1.714822196829e-04 3.998580028981e-04 0.0 
1.304052951540e-03 3.046166193517e-03 0.0 
2.031520604466e-03 6.725402953735e-03 0.0 
1.086675398705e-04 3.178152705265e-05 0.0 
9.788337065334e-05 7.309413033978e-03 0.0 
1.131410274500e-05 2.465326082075e-07 0.0 
4.216442347076e-05 -2.933128247711e-04 0.0 
3.810512187855e-05 1.498557077776e-03 0.0 
2.140597627940e-03 7.361193425803e-03 0.0 
2.395309222406e-03 6.496746117783e-03 0.0 
2.269437928689e-03 6.658580076064e-03 0.0 
2.505927139792e-03 5.669945423858e-03 0.0 
2.380871728422e-03 5.643406332891e-03 0.0 
2.523423308816e-03 4.846005795611e-03 0.0 
2.649820911928e-03 4.773789349579e-03 0.0 
2.601304960331e-03 4.068737022128e-03 0.0 
2.710951840077e-03 3.938665537088e-03 0.0 
2.356730311534e-03 4.779835641532e-03 0.0 
2.609502786849e-03 3.345847205260e-03 0.0 
2.696586337325e-03 3.187757927195e-03 0.0 
2.553472767742e-03 2.700517686027e-03 0.0 
2.619579325513e-03 2.541465099165e-03 0.0 
2.715540838142e-03 2.934118439166e-03 0.0 
2.620298667087e-03 2.312350494187e-03 0.0 
2.661086081899e-03 2.608302231232e-03 0.0 
2.555339762345e-03 2.033758967070e-03 0.0 
2.486957197902e-03 1.804457578401e-03 0.0 
2.420736765150e-03 1.574464401557e-03 0.0 
2.432924733961e-03 1.732277746976e-03 0.0 
2.305831745940e-03 1.329649398409e-03 0.0 
2.266500385671e-03 1.430250144733e-03 0.0 
2.154619592333e-03 1.086318465760e-03 0.0 
2.071033863033e-03 1.142984485787e-03 0.0 
1.979845981949e-03 8.569564544829e-04 0.0 
2.028233857232e-03 8.176078784496e-04 0.0 
1.874311168518e-03 6.342166548898e-04 0.0 
1.794640956727e-03 6.505198938257e-04 0.0 
1.710593564247e-03 4.681989660193e-04 0.0 
1.608912843438e-03 4.704229859714e-04 0.0 
1.545538243121e-03 3.227202708601e-04 0.0 
1.614620140060e-03 3.287432737715e-04 0.0 
1.469287768678e-03 2.108562323755e-04 0.0 
1.385053412521e-03 1.983583073342e-04 0.0 
1.327057225482e-03 1.095162062739e-04 0.0 
1.233794441785e-03 9.409300444114e-05 0.0 
1.191803695310e-03 2.407020419494e-05 0.0 
1.094614780541e-03 8.051255199976e-06 0.0 
1.065186404034e-03 -4.728124627563e-05 0.0 
1.138316885560e-03 -2.580725958512e-05 0.0 
1.023993897880e-03 -8.554043172289e-05 0.0 
9.486591057185e-04 -1.061630899864e-04 0.0 
9.176554333163e-04 -1.351066604935e-04 0.0 
9.726654256153e-04 -1.098334983719e-04 0.0 
8.764345870345e-04 -1.519916122315e-04 0.0 
9.133132112130e-04 -1.230536874308e-04 0.0 
8.271311653402e-04 -1.593171025122e-04 0.0 
7.877411489438e-04 -1.866932768353e-04 0.0 
7.465560063578e-04 -1.893804802021e-04 0.0 
7.718848506414e-04 -1.592052942156e-04 0.0 
6.991102452556e-04 -1.857801127647e-04 0.0 
6.710892984389e-04 -2.144703897915e-04 0.0 
6.308414362100e-04 -2.076938010060e-04 0.0 
6.477982366834e-04 -1.772507107874e-04 0.0 
5.860278039968e-04 -1.969071515121e-04 0.0 
5.668971512373e-04 -2.257433993718e-04 0.0 
5.277892346128e-04 -2.130695656820e-04 0.0 
5.387400320957e-04 -1.829857254881e-04 0.0 
4.856443673171e-04 -1.980226975903e-04 0.0 
4.728420269672e-04 -2.263439535488e-04 0.0 
4.354474989105e-04 -2.102213264547e-04 0.0 
4.418941249996e-04 -1.813019321594e-04 0.0 
3.959714015971e-04 -1.929981306855e-04 0.0 
3.970820021410e-04 -1.639832623591e-04 0.0 
3.873021744080e-04 -2.203839450377e-04 0.0 
3.519181204385e-04 -2.027232513882e-04 0.0 
3.418862093174e-04 -2.287232116732e-04 0.0 
3.099433769916e-04 -2.107994992513e-04 0.0 
1.509087273333e-03 2.236065983682e-04 0.0 
2.998521413384e-04 -2.352107300861e-04 0.0 
3.276131570862e-04 -2.522346540027e-04 0.0 
2.703130885412e-04 -2.174796522062e-04 0.0 
2.763977938409e-04 -1.928398698302e-04 0.0 
2.605506097414e-04 -2.403119279132e-04 0.0 
2.329228024347e-04 -2.230204687780e-04 0.0 
2.239889669495e-04 -2.443519929889e-04 0.0 
1.103809687287e-03 8.327631471579e-05 0.0 
2.326088930000e-03 1.396467594417e-03 0.0 
1.978041016654e-04 -2.277467575455e-04 0.0 
1.900881046631e-04 -2.476306363848e-04 0.0 
2.133463941053e-04 -2.635771837659e-04 0.0 
1.814854639446e-04 -2.654835153462e-04 0.0 
2.214107118654e-03 5.515558728266e-03 0.0 
2.160512984350e-03 4.613625298029e-03 0.0 
2.028950443090e-03 5.294484652921e-03 0.0 
1.940983127864e-03 4.368157895790e-03 0.0 
1.824900303242e-03 4.988272515264e-03 0.0 
1.586957380270e-04 -2.504723674059e-04 0.0 
2.422757319771e-03 2.749723260745e-03 0.0 
2.016255026610e-03 3.741148817660e-03 0.0 
2.360093832618e-03 1.868379236355e-03 0.0 
1.657038440684e-03 6.624796686498e-04 0.0 
1.003738925345e-03 -8.012177090222e-05 0.0 
2.037196573913e-04 -2.060478662031e-04 0.0 
1.700542211536e-04 -2.116499439734e-04 0.0 
1.734097012724e-04 -1.897848773437e-04 0.0 
4.394767167795e-04 -1.509192600927e-04 0.0 
3.896592778386e-04 -1.342831691046e-04 0.0 
4.268355382837e-04 -1.201563407696e-04 0.0 
3.729271550364e-04 -1.048591658286e-04 0.0 
4.032086466893e-04 -9.019518602857e-05 0.0 
3.464663045127e-04 -7.680380634908e-05 0.0 
3.212884808912e-04 -9.028282374091e-05 0.0 
2.932579570111e-04 -6.429681467186e-05 0.0 
2.724476272743e-04 -7.668212506305e-05 0.0 
3.683142068389e-04 -6.228455912543e-05 0.0 
4.307295397994e-04 -7.410658205693e-05 0.0 
2.439645298641e-04 -5.287164474427e-05 0.0 
2.268060453126e-04 -6.424653905851e-05 0.0 
1.988568284320e-04 -4.268651507577e-05 0.0 
1.846994154836e-04 -5.307594419256e-05 0.0 
2.063436478141e-04 -7.523022207890e-05 0.0 
1.668937516684e-04 -6.335363815263e-05 0.0 
1.832918953950e-04 -8.581623339826e-05 0.0 
9.268170990252e-04 -9.086904928203e-05 0.0 
1.007021798477e-03 -4.804212570946e-05 0.0 
9.139217541888e-04 -5.743244882056e-05 0.0 
9.790669165158e-04 -1.615881310339e-05 0.0 
8.723576577998e-04 -2.506702145949e-05 0.0 
9.180418222811e-04 1.288204139663e-05 0.0 
8.007911923424e-04 3.833163322024e-06 0.0 
7.681016806713e-04 -2.832075510379e-05 0.0 
2.441165382596e-03 2.132488656976e-03 0.0 
8.431535734461e-04 -1.543546942627e-04 0.0 
8.542318753213e-04 -1.197659498392e-04 0.0 
7.541529852390e-04 -1.664518811188e-04 0.0 
7.467928408602e-04 -1.255422090717e-04 0.0 
6.560248795175e-04 -1.710261934299e-04 0.0 
6.325002929080e-04 -1.231575892559e-04 0.0 
5.537264583338e-04 -1.681386159435e-04 0.0 
5.774444777732e-04 -2.085460780255e-04 0.0 
4.863928307237e-04 -2.058581520641e-04 0.0 
5.089995672715e-04 -2.397207662340e-04 0.0 
4.286995889509e-04 -2.377883261185e-04 0.0 
4.491194386696e-04 -2.655859102315e-04 0.0 
1.890693729038e-03 6.094417401893e-04 0.0 
1.039109837704e-03 2.933022950907e-05 0.0 
9.541502997803e-04 5.279946080087e-05 0.0 
1.089974159200e-03 7.794932080015e-05 0.0 
2.020439906868e-04 -2.805038962771e-04 0.0 
1.463133531154e-04 -4.315500727203e-05 0.0 
3.856322901310e-04 -4.690549778694e-05 0.0 
4.544267679095e-04 -5.694409893808e-05 0.0 
6.889905328085e-04 -6.547820945562e-07 0.0 
1.522935726454e-04 -2.670818978210e-04 0.0 
5.176168732384e-04 -1.130311323077e-04 0.0 
5.939816964569e-04 -5.893489920869e-05 0.0 
1.707152834477e-03 4.043229076789e-03 0.0 
1.610126138782e-03 4.616473605357e-03 0.0 
3.969751504187e-04 -3.096358114305e-05 0.0 
1.295813395526e-04 -2.531584543725e-04 0.0 
2.568966643350e-04 -4.122920778534e-05 0.0 
3.976868225174e-04 -1.972802265774e-04 0.0 
1.305722910730e-04 -5.274351272152e-05 0.0 
1.117745806889e-04 -3.442255240043e-05 0.0 
2.937565492660e-04 -1.026352699598e-04 0.0 
9.766180245066e-04 9.348829897862e-05 0.0 
1.129379002655e-03 1.278381798981e-04 0.0 
5.210542581396e-04 -2.614861161357e-04 0.0 
4.600860065078e-04 -2.826311888735e-04 0.0 
3.968714852692e-04 -2.869285939177e-04 0.0 
4.081265119119e-04 -3.001302414363e-04 0.0 
4.625624377804e-04 -2.905288161360e-04 0.0 
4.090625400538e-04 -3.039290327417e-04 0.0 
3.613181695340e-04 -3.130475534754e-04 0.0 
3.619136155953e-04 -3.141527339831e-04 0.0 
4.035997097283e-04 -3.013132585408e-04 0.0 
3.566907012440e-04 -3.091338100171e-04 0.0 
3.206360428053e-04 -3.211969747528e-04 0.0 
3.152829167856e-04 -3.143832550995e-04 0.0 
1.218484271463e-04 -2.597131328678e-05 0.0 
3.515038324356e-04 -2.308765034652e-04 0.0 
2.725313576084e-03 3.319618358352e-03 0.0 
3.280146346552e-04 -2.393393689736e-05 0.0 
7.009883386422e-04 2.665316586772e-05 0.0 
1.465166698307e-03 3.658967196749e-03 0.0 
1.389293753985e-03 4.194216112298e-03 0.0 
1.487400153933e-03 5.184193694418e-03 0.0 
1.289651889382e-03 4.724214601520e-03 0.0 
1.167839541467e-03 3.734120978627e-03 0.0 
1.091609991838e-03 4.236903639799e-03 0.0 
1.175569643164e-03 5.244002737660e-03 0.0 
9.997386081115e-04 4.732536443938e-03 0.0 
1.054585424619e-03 5.749542885470e-03 0.0 
8.986705340175e-04 5.218584714096e-03 0.0 
8.271226091773e-04 4.206444113180e-03 0.0 
7.449121048683e-04 4.679193952383e-03 0.0 
7.933052050567e-04 5.695806893553e-03 0.0 
6.555141236993e-04 5.146182119359e-03 0.0 
6.868377114571e-04 6.164397874062e-03 0.0 
5.617806677909e-04 5.607884723882e-03 0.0 
5.227376575764e-04 4.594607217066e-03 0.0 
1.262000392462e-04 -2.682887287267e-04 0.0 
6.680352335518e-04 -2.780765154123e-05 0.0 
5.838451163372e-04 -1.996883721282e-06 0.0 
1.422191217237e-04 -1.965436196863e-04 0.0 
1.435590596411e-04 -1.745907292812e-04 0.0 
1.745036929990e-04 -1.666962901323e-04 0.0 
1.416563660491e-04 -1.517133540956e-04 0.0 
4.390414591005e-04 5.055803695854e-03 0.0 
3.985621498798e-04 4.044700927364e-03 0.0 
4.691404028102e-04 -4.176387572529e-05 0.0 
5.403890399362e-04 2.385551599294e-05 0.0 
1.507879393858e-03 3.126018726278e-03 0.0 
9.753005725841e-05 -4.341110586182e-05 0.0 
1.115758088131e-04 -6.253509487465e-05 0.0 
1.458856598690e-03 4.724403639401e-04 0.0 
1.467749677642e-03 6.711106808278e-04 0.0 
1.268751689561e-03 4.773078635583e-04 0.0 
1.231095252915e-03 6.792395285007e-04 0.0 
1.453297746299e-03 9.214265946273e-04 0.0 
1.042820175548e-03 4.857759121734e-04 0.0 
4.972945770763e-04 -8.687653962803e-05 0.0 
6.621353629633e-04 3.672939380470e-03 0.0 
2.341977755614e-04 -2.793109922620e-04 0.0 
2.197684024721e-04 -2.950170178866e-04 0.0 
8.115997143001e-05 -2.696241553228e-05 0.0 
7.280500378117e-04 -5.860072865736e-05 0.0 
2.006610718641e-03 7.659695337650e-04 0.0 
1.840856270450e-03 5.737373630530e-04 0.0 
1.913145049076e-03 7.001733915049e-04 0.0 
1.722978229228e-03 5.254788523028e-04 0.0 
1.746152264926e-03 6.186974639708e-04 0.0 
1.536579148548e-03 4.638838526784e-04 0.0 
1.529895212182e-03 3.918966949245e-04 0.0 
9.800034196159e-04 1.324645966099e-04 0.0 
1.327460904082e-03 3.447482553196e-04 0.0 
4.729876978130e-04 6.075000603605e-03 0.0 
1.161925803808e-03 5.500403427483e-05 0.0 
3.920139313534e-04 -2.933347602996e-04 0.0 
1.475627000383e-04 -2.813068136495e-04 0.0 
2.841204050407e-04 -3.259945067811e-04 0.0 
1.026303543135e-04 -2.557411896123e-04 0.0 
1.052808932751e-04 -2.397438462288e-04 0.0 
3.258217536930e-04 -1.040452863099e-05 0.0 
1.505537681983e-03 5.205167102563e-04 0.0 
1.729214117293e-03 6.966170903817e-04 0.0 
1.171199613311e-03 9.350734083594e-04 0.0 
1.415936994360e-03 1.237835642699e-03 0.0 
8.207914988524e-04 9.884378047858e-05 0.0 
1.858983666979e-03 5.970960678633e-03 0.0 
1.208117115299e-03 6.266263804281e-03 0.0 
1.067706774730e-03 6.775789585133e-03 0.0 
1.037690970368e-04 -2.720715105985e-04 0.0 
2.865734757012e-04 -3.294648059461e-04 0.0 
9.519446470881e-04 3.248471706510e-03 0.0 
6.833046773673e-04 7.069371330566e-06 0.0 
6.269773389810e-04 1.035410609788e-04 0.0 
3.150065983887e-04 -1.844921407828e-04 0.0 
2.797802312279e-04 -2.205121862413e-04 0.0 
3.298686581217e-04 4.490340616640e-03 0.0 
2.886999128987e-04 3.495533029032e-03 0.0 
1.724128321371e-04 -1.428657071052e-04 0.0 
1.381381375481e-04 -1.284481547908e-04 0.0 
4.006385659928e-04 -1.488653334479e-05 0.0 
2.789979324357e-04 -3.175335491342e-04 0.0 
3.366390299869e-04 3.046678625050e-03 0.0 
6.387685176021e-04 -5.389277578311e-05 0.0 
6.830382846910e-04 -8.639768152481e-05 0.0 
1.108799716195e-04 -1.604485324365e-04 0.0 
4.074908998871e-04 4.665614230591e-05 0.0 
3.550234866128e-04 -1.950816780105e-05 0.0 
4.434394110700e-04 -2.843891738376e-04 0.0 
3.047931950401e-04 -3.037870245107e-04 0.0 
7.831517992403e-05 -2.437849163432e-04 0.0 
3.135824763013e-04 1.888994197534e-06 0.0 
9.821719655132e-04 2.767133361430e-03 0.0 
1.340215328809e-03 2.929539702203e-04 0.0 
1.495251540083e-03 3.149817363004e-04 0.0 
1.123577805718e-03 2.553515579909e-04 0.0 
2.547511980819e-04 -3.281018484950e-04 0.0 
2.585919836473e-04 -6.546358185054e-06 0.0 
6.790219108467e-05 -3.521958436627e-05 0.0 
1.445831140236e-03 5.659791439930e-04 0.0 
1.667195119819e-03 7.522711783071e-04 0.0 
7.885343971174e-04 8.776702809327e-05 0.0 
7.361057764065e-04 2.030500226748e-04 0.0 
5.549768447705e-04 2.254214230201e-04 0.0 
6.607426015439e-04 3.475350280395e-04 0.0 
2.724527700128e-03 4.563925224503e-03 0.0 
9.167645509037e-04 1.883320527507e-04 0.0 
2.613738049284e-03 2.885308948198e-03 0.0 
2.641584370972e-03 3.690475516331e-03 0.0 
2.467266548920e-03 3.136255021876e-03 0.0 
1.691379943870e-03 1.213816290584e-03 0.0 
1.681645484749e-03 1.614331959705e-03 0.0 
8.503822240818e-04 -6.963040154062e-05 0.0 
1.097660272452e-03 -2.956692975572e-05 0.0 
2.071437539893e-04 -1.584980029103e-04 0.0 
2.228852354362e-04 -9.929729106335e-05 0.0 
4.823305205808e-04 -1.357211174927e-04 0.0 
7.132893433525e-04 3.208279637152e-03 0.0 
5.423472451271e-04 2.681610003962e-03 0.0 
8.123206850867e-04 6.718342037766e-03 0.0 
6.962893761748e-04 7.186265895361e-03 0.0 
1.912945107304e-04 -2.950890989052e-04 0.0 
2.067834103628e-04 -3.082593107025e-04 0.0 
3.521412418954e-04 -1.467024938365e-04 0.0 
2.656126299490e-04 -1.747188325671e-05 0.0 
1.242976962618e-03 2.728724571510e-03 0.0 
1.225057632204e-03 2.239007299935e-03 0.0 
1.508631039382e-03 2.603440566573e-03 0.0 
3.943478506062e-04 7.495875412391e-07 0.0 
7.488575194376e-04 -1.935060520432e-04 0.0 
8.465643526988e-04 -9.417764790498e-05 0.0 
3.120389106505e-04 -2.590125067705e-04 0.0 
1.631803813814e-03 3.316507214356e-04 0.0 
1.823846286346e-04 -3.073193368719e-04 0.0 
2.336573045066e-03 1.557706683354e-03 0.0 
5.466009151697e-05 -2.054300849557e-05 0.0 
6.281084321152e-05 -1.384969975647e-05 0.0 
7.868830502054e-04 1.240643361414e-04 0.0 
2.436927773885e-03 6.317772857712e-03 0.0 
1.500137003512e-03 2.337417825042e-04 0.0 
1.396657479998e-03 1.460082765550e-04 0.0 
2.448042390909e-03 4.030915873451e-03 0.0 
2.215476474140e-03 3.344800780692e-03 0.0 
2.231824477294e-03 2.593857185716e-03 0.0 
1.942077719631e-03 2.723849485406e-03 0.0 
4.245759120932e-04 -2.739234704658e-04 0.0 
3.750477773165e-04 -2.816402054687e-04 0.0 
1.183043722499e-03 4.039976440675e-04 0.0 
1.068901411995e-03 2.820359438271e-04 0.0 
1.329082071789e-03 5.766210579866e-04 0.0 
1.550070944156e-03 7.695805815996e-04 0.0 
6.253611081811e-04 9.099487326358e-05 0.0 
6.716776182683e-04 7.379384872702e-05 0.0 
7.967879773240e-05 -2.273129431150e-04 0.0 
1.361014501974e-03 1.636790908539e-03 0.0 
7.539252030594e-04 2.281724473221e-03 0.0 
2.592173583589e-03 4.674608268074e-03 0.0 
2.007118355298e-04 -3.291935457517e-06 0.0 
2.101473910203e-04 -1.236389581670e-05 0.0 
2.496458871321e-04 -2.508904735358e-04 0.0 
2.787931304776e-04 -2.861561248589e-04 0.0 
2.310327842710e-04 2.526802265395e-03 0.0 
4.697122147596e-04 3.731755389290e-04 0.0 
5.638664909611e-04 5.199937182748e-04 0.0 
3.958513868273e-04 2.511763238369e-04 0.0 
7.899263389768e-06 -1.852489738878e-06 0.0 
1.817579304450e-04 9.119071443194e-03 0.0 
4.009141233120e-05 -9.355475209084e-06 0.0 
1.950630780965e-03 1.577471421599e-03 0.0 
2.535597716252e-04 2.046246760671e-03 0.0 
1.367363591889e-03 1.631371550959e-04 0.0 
1.271483855762e-03 3.140318727545e-04 0.0 
4.831164104593e-04 -1.909771040784e-05 0.0 
1.852734645276e-04 3.051959084354e-03 0.0 
1.396549757649e-04 1.969695914613e-03 0.0 
1.193655839844e-03 7.280270234778e-03 0.0 
1.048119934032e-03 7.804833157382e-03 0.0 
1.354636020731e-03 6.760327424613e-03 0.0 
3.579875085124e-04 -1.428417403023e-04 0.0 
2.607176476861e-04 -1.158902731653e-04 0.0 
5.090844397151e-04 3.135962582512e-03 0.0 
1.383222163783e-04 -2.169653820635e-04 0.0 
1.088393893492e-04 -2.004109085614e-04 0.0 
2.676482456759e-04 -3.065557783017e-04 0.0 
2.892043303545e-04 -2.907479425717e-04 0.0 
2.034646015361e-04 -1.338236641310e-04 0.0 
2.405733313086e-04 -1.498035830543e-04 0.0 
2.150018736657e-03 1.200075728170e-03 0.0 
2.106100412216e-03 1.300024957156e-03 0.0 
2.096678999608e-03 9.267036239855e-04 0.0 
6.035355238094e-04 -7.806364170994e-05 0.0 
6.351420659268e-04 -1.112921728416e-04 0.0 
7.074096542734e-04 -1.202752888280e-04 0.0 
5.614595586485e-04 2.259033562143e-03 0.0 
3.765690113981e-04 1.661296948263e-03 0.0 
4.789006017386e-04 -2.639757622764e-04 0.0 
5.003190891588e-04 -2.726316998420e-04 0.0 
4.004922106603e-04 -2.608771078501e-04 0.0 
7.356687587547e-04 1.842417777881e-03 0.0 
4.397846141637e-05 -4.910089101923e-06 0.0 
6.664794649268e-05 -8.138354088206e-06 0.0 
1.961444735960e-04 -3.185671671384e-04 0.0 
2.193205066625e-04 -3.196498666976e-04 0.0 
2.929792973643e-04 7.102028776949e-05 0.0 
2.549095635874e-04 5.123690378856e-06 0.0 
1.176585870557e-03 1.798677200314e-03 0.0 
1.463831373526e-03 2.109729755222e-03 0.0 
8.578311328213e-04 1.385787000209e-03 0.0 
5.237969066781e-05 -2.338275826335e-04 0.0 
1.325462823823e-03 2.360261160749e-04 0.0 
2.982263811899e-04 1.308083597900e-05 0.0 
3.859294412986e-04 1.456376925874e-05 0.0 
2.087981943577e-04 1.141823171476e-05 0.0 
9.652446299841e-04 1.669807428101e-04 0.0 
7.310710297226e-04 1.402020801528e-04 0.0 
8.468143417547e-04 2.035944787619e-04 0.0 
2.151770408487e-04 -2.092616594419e-04 0.0 
1.036076221176e-04 2.373196436583e-03 0.0 
8.084341734591e-04 7.743611522773e-03 0.0 
2.003427823656e-04 -2.371628521149e-04 0.0 
6.883313842670e-04 8.245586740035e-03 0.0 
5.872774061763e-04 7.654420565368e-03 0.0 
5.901528303154e-04 8.736466318151e-03 0.0 
5.295549509108e-05 -2.483255122638e-04 0.0 
1.303450422599e-03 7.947441424001e-03 0.0 
1.496686956168e-03 7.258764293582e-03 0.0 
2.049636566071e-04 -3.297663673619e-04 0.0 
5.010322416035e-04 1.369077531270e-03 0.0 
1.774540626926e-04 -3.168213211939e-04 0.0 
1.628363580030e-04 -3.065085758183e-04 0.0 
1.492631182973e-04 -1.387354662317e-06 0.0 
1.614014227168e-04 -7.925095359883e-06 0.0 
1.056907139050e-04 6.720343833648e-07 0.0 
1.222074151409e-04 -4.385288126786e-06 0.0 
1.671454086159e-04 -1.579633110008e-05 0.0 
1.269760145286e-04 -1.078103043707e-05 0.0 
9.187551036114e-04 8.382260083136e-03 0.0 
8.151206148514e-05 -9.561681758867e-07 0.0 
9.188921658484e-05 -6.511347468526e-06 0.0 
5.254053218413e-05 -2.162139870473e-07 0.0 
1.880064167944e-03 3.562657599072e-03 0.0 
7.817538468104e-04 4.954440436908e-04 0.0 
6.813023843412e-04 7.073838415975e-04 0.0 
4.407365313604e-04 7.360564238427e-04 0.0 
1.066283192570e-03 5.005283895921e-04 0.0 
1.397506194010e-03 7.582753008894e-04 0.0 
4.171649252817e-05 -2.786384606783e-05 0.0 
4.874659763232e-05 -4.369643062728e-05 0.0 
4.800302371259e-04 8.194391578941e-03 0.0 
3.525908412157e-04 8.233318594695e-03 0.0 
3.916389252581e-04 7.303033553051e-03 0.0 
2.824862546614e-04 7.411723121011e-03 0.0 
3.106022243022e-04 6.499703590409e-03 0.0 
1.994775730435e-04 6.613022300679e-03 0.0 
2.411613731433e-04 5.702486460839e-03 0.0 
7.488207939770e-04 2.086187124333e-04 0.0 
3.039053573146e-04 3.879326589174e-04 0.0 
2.327064595795e-03 5.193983112307e-03 0.0 
4.757917148424e-04 6.610848101786e-05 0.0 
5.502785045818e-04 5.751603474374e-05 0.0 
1.649224934261e-03 2.121109328189e-03 0.0 
1.280326918826e-03 2.139775270971e-03 0.0 
1.682977819532e-04 4.698288760626e-06 0.0 
9.484350431814e-04 8.067726529388e-05 0.0 
3.846291449163e-04 8.436100895916e-04 0.0 
1.091416631477e-04 -7.032179915196e-05 0.0 
1.784615217855e-04 -1.091678007361e-04 0.0 
1.092168488341e-03 1.832545383182e-04 0.0 
1.963963704389e-03 2.080811901672e-03 0.0 
9.507117348428e-04 6.874997738313e-04 0.0 
8.760146923034e-04 9.596249649015e-04 0.0 
5.536825022121e-04 -4.688183892860e-05 0.0 
2.279534052921e-04 -3.293012381996e-04 0.0 
3.390087859336e-04 1.518214205931e-04 0.0 
3.530765460440e-04 5.604083236018e-03 0.0 
2.257078260808e-04 1.691603089198e-04 0.0 
2.201538960299e-05 -3.442978747735e-05 0.0 
9.681644211351e-04 -1.297882135216e-06 0.0 
1.914281261940e-03 1.185062357022e-03 0.0 
4.735292306838e-04 1.262264725227e-04 0.0 
8.812033260846e-04 3.311378801818e-04 0.0 
2.757023632829e-03 3.682533223913e-03 0.0 
2.602633431543e-03 5.525704322182e-03 0.0 
2.634003997120e-03 5.228473889239e-03 0.0 
9.669552423945e-04 -6.232587911889e-05 0.0 
1.099428799777e-03 1.257835310920e-03 0.0 
7.506200899313e-04 1.293526732573e-03 0.0 
2.537369996735e-03 2.240408651113e-03 0.0 
1.783584267371e-03 2.908101412674e-03 0.0 
1.746149435437e-03 2.374452713831e-03 0.0 
1.377421082210e-03 1.667702479587e-03 0.0 
1.656487307641e-03 1.889779691472e-03 0.0 
2.006923377616e-03 2.571756261997e-03 0.0 
1.917506890905e-03 2.055918467965e-03 0.0 
1.518240979755e-03 1.464820288682e-03 0.0 
1.776632018699e-03 1.601154769118e-03 0.0 
1.230254621665e-03 9.879545879436e-04 0.0 
1.578784742580e-03 1.202863094812e-03 0.0 
1.997742543645e-03 1.683597573549e-03 0.0 
1.817223733554e-03 1.299095318166e-03 0.0 
1.412285272733e-03 9.288789940558e-04 0.0 
2.182334940067e-03 1.727138152979e-03 0.0 
3.973023298896e-04 6.904680403813e-05 0.0 
1.258609783087e-03 1.884582529149e-04 0.0 
2.394127351024e-04 -1.680828198402e-04 0.0 
1.973443842316e-04 -5.591295976200e-05 0.0 
2.147799097919e-03 1.513575952932e-03 0.0 
6.354116009307e-04 5.004802834760e-04 0.0 
5.755027284537e-04 5.992838490985e-04 0.0 
7.228761066612e-04 -6.857859093357e-05 0.0 
5.284414984759e-04 2.247502810250e-04 0.0 
2.726269177450e-03 4.199047140838e-03 0.0 
4.521461817080e-04 -1.580721553429e-04 0.0 
4.574826401898e-04 1.567299434999e-04 0.0 
2.039802143744e-03 3.135789809240e-03 0.0 
2.270192569470e-03 3.302608094785e-03 0.0 
2.243415267592e-03 3.946527796229e-03 0.0 
4.654347817513e-04 6.314492004321e-04 0.0 
1.520584475395e-03 6.203080764220e-03 0.0 
2.880835592273e-04 6.593700106436e-05 0.0 
1.086393013756e-03 7.899489910769e-07 0.0 
1.191728293995e-03 2.803494303130e-05 0.0 
1.181846815075e-03 4.176012980917e-10 0.0 
2.145854855006e-03 2.166721598801e-03 0.0 
1.915582459126e-04 2.829781156909e-05 0.0 
3.346220739037e-04 3.830636402950e-05 0.0 
2.957345755563e-04 2.869681531636e-05 0.0 
4.530946352022e-04 3.376843421649e-05 0.0 
1.478096587471e-04 1.831025203564e-05 0.0 
5.759577029886e-04 3.489706143254e-04 0.0 
5.347457245201e-04 2.861050835396e-04 0.0 
4.563696483638e-04 -2.904569928689e-04 0.0 
5.156136128749e-04 -2.761993018746e-04 0.0 
5.630666085009e-04 -2.574628939951e-04 0.0 
5.811677435881e-04 -2.581679585422e-04 0.0 
5.229009794281e-04 -2.730445423304e-04 0.0 
5.902609808786e-04 -2.516574396540e-04 0.0 
6.530450530043e-04 -2.360965416176e-04 0.0 
5.890873922671e-04 -2.357892156560e-04 0.0 
1.788720309487e-03 1.033278197129e-03 0.0 
1.101757135658e-04 1.103916364212e-05 0.0 
4.629743663542e-04 -1.042654587808e-04 0.0 
5.249155738701e-04 -1.187775130362e-04 0.0 
5.382444068846e-04 -1.512333707661e-04 0.0 
2.419867730209e-04 -1.752287084373e-04 0.0 
2.779738671407e-04 -1.668683357941e-04 0.0 
2.742558609870e-04 -1.402479559184e-04 0.0 
2.070819357569e-04 -1.828356668286e-04 0.0 
1.669581100650e-03 4.266824643914e-04 0.0 
9.631506305157e-05 8.162819054102e-06 0.0 
7.648198630067e-04 -9.206852193282e-05 0.0 
3.152739330539e-04 -1.846940835744e-04 0.0 
1.587156339981e-03 8.583566255692e-03 0.0 
1.824988584441e-03 7.557957513259e-03 0.0 
2.024514444365e-03 7.208402964417e-03 0.0 
2.025604125027e-03 6.401302351737e-03 0.0 
1.626183735597e-03 7.713168494506e-03 0.0 
1.671387337000e-04 -1.189640303468e-04 0.0 
1.320210003987e-04 -1.053895631914e-04 0.0 
1.045561274847e-04 -1.153181625061e-04 0.0 
9.833858068597e-05 -9.311191006923e-05 0.0 
7.205857997951e-05 -1.034082595172e-04 0.0 
7.684687993154e-05 -1.249731756582e-04 0.0 
6.567942799045e-05 -8.199404662466e-05 0.0 
4.141036859729e-05 -9.498772067550e-05 0.0 
1.286324413827e-03 8.933415705466e-03 0.0 
2.044806909000e-04 -3.088177976593e-04 0.0 
2.381106609591e-04 -3.203908156197e-04 0.0 
2.372244129250e-04 -3.323145669373e-04 0.0 
2.667212448278e-04 -3.266003558371e-04 0.0 
2.738354215321e-04 -3.129110826440e-04 0.0 
3.121371023893e-04 -3.190035327843e-04 0.0 
3.147746621696e-04 -3.033702786301e-04 0.0 
2.348728366451e-04 -2.996453467544e-04 0.0 
2.164602441843e-04 -3.361419347525e-04 0.0 
2.338252655267e-04 -3.377957289080e-04 0.0 
2.159893585229e-04 -3.406400683999e-04 0.0 
2.263424567784e-04 -3.387069161547e-04 0.0 
2.533619707441e-04 -3.346398400070e-04 0.0 
2.350891826674e-04 -3.079599064274e-04 0.0 
2.228213555343e-05 3.324504588931e-07 0.0 
2.973905865885e-05 -1.537014913333e-04 0.0 
5.787341387057e-05 -1.659088937596e-04 0.0 
5.680107680237e-05 -1.855424517575e-04 0.0 
8.809111597465e-05 -1.781278392637e-04 0.0 
5.632586175496e-05 -1.465313996598e-04 0.0 
2.799107326921e-05 -1.938212404649e-04 0.0 
5.437482814467e-05 -2.022971598053e-04 0.0 
7.739779678601e-05 -2.962748099061e-04 0.0 
5.611528046961e-05 -2.822216661307e-04 0.0 
2.535335512198e-05 -2.816081197301e-04 0.0 
4.155480225786e-05 -2.707064970877e-04 0.0 
6.773580968275e-05 -2.754249143745e-04 0.0 
8.277869654015e-05 -2.891336341608e-04 0.0 
1.070426138863e-04 -2.947254593149e-04 0.0 
1.202345555207e-04 -3.064233694493e-04 0.0 
1.292263261820e-04 -3.011555588152e-04 0.0 
1.179236779864e-04 -2.877686942119e-04 0.0 
1.401976299816e-04 -3.128188193288e-04 0.0 
7.989265833735e-05 4.382780643936e-03 0.0 
1.538821378037e-04 3.886986197996e-03 0.0 
7.768615538455e-05 4.811961014129e-06 0.0 
1.022950576257e-03 8.989144966763e-03 0.0 
2.034984701902e-04 -3.377833960406e-04 0.0 
1.349048032759e-04 9.661007634625e-04 0.0 
2.160137825379e-04 7.868632531589e-04 0.0 
1.706605637750e-04 7.682142401045e-04 0.0 
1.329567343424e-05 -9.078779942972e-06 0.0 
2.138727916696e-05 -5.185293108197e-06 0.0 
7.248801191034e-05 9.429191506480e-04 0.0 
2.478945589816e-04 -2.609724138414e-04 0.0 
1.243086458394e-03 1.277893451858e-03 0.0 
3.714831433200e-04 2.596752216264e-03 0.0 
4.092456259567e-04 -9.643633049842e-05 0.0 
3.300927545253e-04 -2.871880993083e-04 0.0 
7.846402227602e-05 -5.253640043352e-05 0.0 
2.487258159285e-04 -8.828690021747e-05 0.0 
9.018330397638e-05 -1.934021276738e-05 0.0 
1.461292626948e-04 -7.352642570832e-05 0.0 
1.581075289350e-04 -3.372525454262e-05 0.0 
2.663926162103e-04 2.121069263293e-05 0.0 
7.857151312380e-05 -2.584041311378e-04 0.0 
9.322027989035e-04 6.240369386549e-03 0.0 
5.861593554969e-04 6.630556204972e-03 0.0 
5.974485024644e-04 4.135430181446e-03 0.0 
1.649116211806e-04 -2.319672878463e-04 0.0 
1.096931790628e-04 -1.368605336467e-04 0.0 
1.731537008132e-04 -2.811115666154e-04 0.0 
8.563107447330e-04 3.101250633689e-04 0.0 
2.433296565298e-03 2.438148158584e-03 0.0 
4.894446038192e-04 -1.674306376748e-04 0.0 
2.391962182648e-04 -1.998558300639e-04 0.0 
2.860446870178e-04 -2.571740731071e-04 0.0 
3.459250478725e-04 -2.996733205877e-04 0.0 
1.428694864607e-03 3.166102035225e-04 0.0 
3.555857854960e-04 -1.751680012939e-04 0.0 
3.102738666222e-04 -5.126290761066e-05 0.0 
4.600984655400e-04 3.590766431483e-03 0.0 
1.758306879741e-04 -3.252012133461e-04 0.0 
3.223232516646e-04 -3.764663074692e-05 0.0 
3.409152818752e-04 -1.180667231357e-04 0.0 
1.350471169864e-03 5.736411499119e-03 0.0 
8.235205811658e-04 3.649749580006e-05 0.0 
3.215824343797e-04 -3.229822190846e-04 0.0 
8.983291025380e-04 3.730524487855e-03 0.0 
9.584200825561e-04 1.883154904418e-03 0.0 
1.675312693215e-03 6.627166937164e-03 0.0 
1.657761144709e-04 -2.948283467752e-04 0.0 
9.358490248265e-04 7.281729386479e-03 0.0 
2.414953251576e-04 3.508664629253e-06 0.0 
1.767942882346e-03 3.467917273765e-03 0.0 
1.341388347000e-04 -2.359015010194e-04 0.0 
8.481758194796e-04 -1.277465703924e-04 0.0 
1.863524481637e-03 8.848803125564e-04 0.0 
2.115422225471e-03 7.189843763358e-03 0.0 
3.916878224528e-04 2.185313804058e-03 0.0 
1.383390372204e-03 1.280812451929e-04 0.0 
5.848687949405e-04 2.068430058473e-05 0.0 
8.203564974252e-04 -6.028280650705e-05 0.0 
1.085252560571e-04 -2.218057643634e-04 0.0 
2.126949242731e-04 -2.211885747952e-05 0.0 
1.074865551675e-03 -5.948909862910e-05 0.0 
7.473403178661e-04 2.750142052817e-03 0.0 
1.951381738212e-03 8.195689844261e-04 0.0 
8.205077395559e-04 -1.757528248904e-04 0.0 
1.220965695726e-03 3.229655202729e-03 0.0 
5.936349113346e-04 -1.654055417349e-04 0.0 
8.314132200520e-04 6.859417065922e-05 0.0 
2.204544961079e-03 1.990695377665e-03 0.0 
2.162788575291e-03 1.013503310687e-03 0.0 
2.496142231999e-03 2.000038226170e-03 0.0 
1.757398280718e-03 4.623774959813e-04 0.0 
5.395971631897e-05 -6.211629758202e-05 0.0 
2.645975254836e-04 -2.938841466924e-05 0.0 
3.792955670414e-04 -2.640002435612e-04 0.0 
1.084217022961e-03 3.179510450700e-04 0.0 
1.679192680383e-03 5.603484336590e-03 0.0 
1.288510870646e-03 3.878232651792e-04 0.0 
5.419953223228e-04 1.784963013490e-03 0.0 
1.685274063222e-03 9.055267878592e-04 0.0 
2.085976820649e-04 -3.229094261133e-05 0.0 
9.878026264819e-04 2.319814293117e-03 0.0 
3.148213488611e-04 -1.574541956978e-04 0.0 
2.504851209918e-05 -2.437234582456e-04 0.0 
3.125051418523e-04 -7.507266746030e-05 0.0 
6.663048116009e-04 -2.044979522368e-04 0.0 
1.258916702155e-03 4.516767034690e-05 0.0 
3.078600180996e-04 -1.298452781234e-04 0.0 
1.026060282200e-03 1.281107948335e-03 0.0 
1.653514303462e-04 -2.462627201111e-05 0.0 
4.720285945640e-04 -3.845955484973e-05 0.0 
1.243943851984e-04 9.846520672017e-05 0.0 
2.433275869483e-03 5.844254653325e-03 0.0 
1.272119902477e-04 -1.811395333325e-05 0.0 
7.790834654896e-04 -1.262081957177e-04 0.0 
6.965740229917e-04 5.199473795017e-05 0.0 
4.589686608110e-05 -1.143930529154e-04 0.0 
7.933893984572e-04 2.538607142674e-04 0.0 
1.602386654586e-03 2.782454040547e-03 0.0 
9.412143744848e-05 -1.265101972246e-05 0.0 
5.733801226357e-04 -2.470129789927e-05 0.0 
8.283159699755e-04 -1.832176256819e-06 0.0 
3.007526030864e-04 9.122844128360e-03 0.0 
5.802234096577e-05 -2.357845827642e-06 0.0 
4.834220910525e-04 -1.228816627591e-07 0.0 
1.744921346364e-03 4.496358153852e-04 0.0 
7.121287294761e-04 -1.538547647685e-04 0.0 
1.906182328957e-03 5.917683083718e-03 0.0 
2.645772858734e-04 -1.139031166940e-04 0.0 
2.265863177656e-03 1.211133901717e-03 0.0 
4.073331547163e-04 6.459058462392e-04 0.0 
4.811145561591e-04 1.720868224851e-05 0.0 
2.442926065612e-03 4.078800707826e-03 0.0 
2.343962356961e-04 -1.243001418939e-04 0.0 
1.230869056408e-03 1.129359900003e-04 0.0 
9.343134021101e-05 -2.817851512801e-04 0.0 
2.141132680800e-03 4.392203710049e-03 0.0 
1.955531111700e-04 -1.093729917697e-04 0.0 
6.648742926532e-04 -2.254980757437e-04 0.0 
6.499734169462e-04 -1.446560256351e-04 0.0 
5.644372605627e-04 1.000133007839e-04 0.0 
1.584149826842e-04 -9.567579071213e-05 0.0 
7.325951043601e-04 -2.089571616365e-04 0.0 
1.231372129325e-04 -8.326786339758e-05 0.0 
1.562670712841e-03 3.777826376853e-03 0.0 
2.462693985780e-03 3.374059951288e-03 0.0 
8.873115358257e-05 -7.205898516257e-05 0.0 
2.146072050312e-03 1.073423420173e-03 0.0 
1.419680046449e-04 -2.946641051687e-04 0.0 
1.593193389435e-03 3.280343595354e-04 0.0 
3.164192961099e-05 -1.447392669053e-05 0.0 
3.722791899459e-04 -2.456069046547e-04 0.0 
5.876094736531e-04 -1.328289331532e-04 0.0 
2.236143999245e-03 2.703265669435e-03 0.0 
9.058883719556e-04 2.352414083775e-03 0.0 
5.660401637560e-04 -9.970716743095e-05 0.0 
1.947393944641e-03 9.204125344733e-04 0.0 
1.441156393943e-03 2.390346746081e-04 0.0 
1.290450373888e-03 6.873811438463e-05 0.0 
5.275954075301e-04 -6.761814854351e-05 0.0 
1.006015470668e-03 1.661398612806e-03 0.0 
2.683737492692e-04 -2.769338439639e-04 0.0 
2.522006398791e-04 -2.936623060087e-04 0.0 
7.060777421466e-04 -2.152514644874e-04 0.0 
1.894202703828e-03 9.950139563566e-04 0.0 
5.780931095694e-05 -2.631531373402e-04 0.0 
2.322835032561e-03 2.191217008225e-03 0.0 
2.466988430554e-04 -3.192414114323e-04 0.0 
6.315158054217e-04 -2.385417340939e-04 0.0 
1.146436046820e-03 1.772310294582e-04 0.0 
9.106706760901e-05 6.356691381522e-03 0.0 
6.022684727394e-04 -2.345237097651e-04 0.0 
2.489154750996e-05 -2.283291071769e-04 0.0 
5.381899131309e-04 -2.510132345744e-04 0.0 
1.281864080346e-03 9.223590754263e-05 0.0 
5.078895793636e-04 -2.400423114650e-04 0.0 
4.522203306220e-04 -2.517180403696e-04 0.0 
2.636124388237e-04 1.661391031016e-03 0.0 
4.214009668494e-04 -2.368180489885e-04 0.0 
3.615871473618e-05 7.801279757368e-04 0.0 
9.060577233749e-06 3.875665726833e-07 0.0 
1.142865840714e-04 8.351575712322e-03 0.0 
4.442570925652e-04 1.520503537098e-03 0.0 
1.529594209694e-04 -1.968608789240e-04 0.0 
6.186417044648e-04 9.512730073234e-04 0.0 
3.533100800680e-04 -2.678903132950e-04 0.0 
2.290298114903e-03 1.672910068439e-03 0.0 
2.373376010226e-04 8.307654052112e-03 0.0 
3.092479511394e-04 -2.730130055261e-04 0.0 
1.092768548422e-03 7.446178430440e-04 0.0 
3.532684248034e-04 9.779720664684e-05 0.0 
1.698837094639e-04 4.825454268002e-03 0.0 
5.800861546113e-04 4.094806916933e-05 0.0 
1.285327468242e-03 1.745071487873e-04 0.0 
5.131669661927e-05 2.471967155530e-03 0.0 
6.747033216630e-04 9.207093174868e-03 0.0 
2.163732291426e-04 -3.361485327614e-04 0.0 
2.558068537009e-05 -5.166455808583e-05 0.0 
2.572963702753e-04 9.332479268057e-04 0.0 
3.570879365443e-04 5.348016700714e-04 0.0 
2.562816331301e-04 2.671234715993e-04 0.0 
8.151396166853e-05 -2.105626176652e-04 0.0 
2.589357838213e-04 -3.335464446357e-04 0.0 
2.011865364075e-04 5.421672952347e-04 0.0 
3.833963530985e-04 4.964485978651e-05 0.0 
1.145672121669e-03 8.223680622031e-03 0.0 
1.162227807737e-03 2.233085125354e-04 0.0 
1.534440891383e-04 2.787744142137e-04 0.0 
6.995941180950e-04 1.474768616762e-03 0.0 
6.182633053216e-04 1.391658737530e-04 0.0 
5.088115140573e-05 2.456957029175e-06 0.0 
9.210877719997e-04 1.902752470270e-04 0.0 
1.964285200179e-04 8.665431769203e-05 0.0 
1.813026492468e-03 6.867281329666e-03 0.0 
9.122508205740e-04 3.717740908968e-04 0.0 
2.350877790350e-04 4.028842606174e-03 0.0 
3.554231498700e-05 1.496611115745e-06 0.0 
1.433896664649e-03 8.140516337154e-03 0.0 
1.571377474544e-04 1.553342440705e-03 0.0 
3.385973883541e-04 -2.850276432781e-04 0.0 
7.917408525669e-05 1.509998238076e-03 0.0 
1.994705014513e-03 1.337392444586e-03 0.0 
4.959211835454e-04 7.093023147201e-03 0.0 
2.202016105713e-03 6.296492643279e-03 0.0 
2.559554104192e-05 -2.094248016817e-06 0.0 
1.079835013642e-03 9.696319433177e-04 0.0 
1.757946020603e-04 1.054500748450e-05 0.0 
2.666625969409e-04 4.929477325100e-03 0.0 
1.188958297930e-04 -1.820124867049e-04 0.0 
2.183991322230e-04 -2.697661986414e-04 0.0 
1.353223174080e-04 3.028082502512e-06 0.0 
1.624704533756e-03 1.006386334461e-03 0.0 
4.351348018499e-05 -2.093217340103e-06 0.0 
1.863579949427e-05 -2.707625248662e-04 0.0 
1.886364189404e-04 -3.251262309787e-04 0.0 
1.620704542333e-04 7.884994792831e-06 0.0 
9.665204808004e-04 5.105442659822e-04 0.0 
3.595164011460e-04 -3.058859803065e-04 0.0 
2.364373413393e-04 5.973775904300e-04 0.0 
1.421124940362e-04 -3.907858775765e-05 0.0 
8.960153537755e-04 9.297802833799e-03 0.0 
1.479259358155e-04 -3.083451787377e-04 0.0 
2.758909087869e-05 1.084796413038e-06 0.0 
4.001308431245e-04 1.454710548283e-03 0.0 
8.039202652864e-05 -1.581771066773e-04 0.0 
1.957587674353e-03 7.816641099192e-03 0.0 
5.216001347900e-05 -2.190537121115e-04 0.0 
1.015578659340e-03 3.028423884606e-04 0.0 
2.360737973688e-04 -3.337979755855e-04 0.0 
2.663900239901e-04 1.390831075831e-03 0.0 
2.049467515096e-04 1.563823012895e-05 0.0 
8.302507599119e-04 1.141459991041e-03 0.0 
1.787933702597e-04 3.425110981873e-05 0.0 
1.822627331454e-04 -1.655739181056e-04 0.0 
5.856082897277e-04 1.483883136997e-04 0.0 
3.768447818912e-04 2.468159579047e-05 0.0 
5.143959957318e-04 9.247903379210e-03 0.0 
9.969061964363e-04 1.082581248251e-03 0.0 
8.020242399398e-05 -1.946319629042e-04 0.0 
1.265738635411e-04 -2.802627160951e-04 0.0 
1.523752843767e-05 6.913348095759e-04 0.0 
1.427890691820e-05 -2.918159399990e-04 0.0 
8.859137525520e-05 9.235745347753e-03 0.0 
3.506445788059e-06 1.629026545557e-07 0.0 
8.009958873356e-05 -2.700009108237e-04 0.0 
1.905501856757e-04 7.610189268613e-03 0.0 
9.638600451625e-04 5.747799323878e-04 0.0 
2.011070555734e-05 -1.099834131380e-04 0.0 
1.173918178163e-04 3.109666280091e-03 0.0 
2.882838969943e-04 -3.278649298278e-04 0.0 
1.665952896507e-04 -2.462967848805e-04 0.0 
1.585536700039e-04 5.852712787442e-03 0.0 
5.078914976073e-04 1.040060112608e-04 0.0 
6.559006344901e-04 1.193069694135e-03 0.0 
4.035626316108e-04 6.539218424362e-03 0.0 
2.441240961931e-04 -4.670431251447e-05 0.0 
1.287496514734e-03 7.563444751900e-04 0.0 
8.354843674678e-05 -1.419450823937e-04 0.0 
1.160489476454e-03 4.496370106637e-04 0.0 
4.688086465111e-04 4.487317299902e-05 0.0 
9.657635012064e-05 -1.366861611386e-05 0.0 
1.716807476169e-05 -8.932686367147e-05 0.0 
1.638646920905e-04 -3.152355073526e-04 0.0 
8.432053033264e-05 5.336510389296e-07 0.0 
5.474278387055e-05 -1.301147784037e-04 0.0 
9.569447546756e-04 8.654506029411e-03 0.0 
7.382061994997e-05 1.151915793238e-02 0.0 
1.522953062096e-03 8.919182766795e-03 0.0 
6.087072283403e-05 1.049401904541e-02 0.0 

VECTORS node_materi_displacement float
0.0 7.459612832973e-02 0.0 
0.0 1.425074722733e-01 0.0 
0.0 0.0 0.0 
0.0 0.0 0.0 
0.0 7.479882260625e-02 0.0 
0.0 7.451761122956e-02 0.0 
0.0 7.377208458890e-02 0.0 
0.0 7.257469290862e-02 0.0 
0.0 7.092483439410e-02 0.0 
0.0 6.886500741254e-02 0.0 
0.0 6.641725858063e-02 0.0 
0.0 6.359416897772e-02 0.0 
0.0 6.040866029467e-02 0.0 
0.0 5.686382004138e-02 0.0 
0.0 5.295149500901e-02 0.0 
0.0 4.866681337302e-02 0.0 
0.0 4.400885333755e-02 0.0 
0.0 3.898482813047e-02 0.0 
0.0 3.355015816495e-02 0.0 
0.0 2.770159147802e-02 0.0 
0.0 2.143150107778e-02 0.0 
0.0 1.472402782163e-02 0.0 
0.0 7.572579351994e-03 0.0 
0.0 0.0 0.0 
0.0 0.0 0.0 
0.0 0.0 0.0 
0.0 0.0 0.0 
0.0 0.0 0.0 
0.0 0.0 0.0 
0.0 0.0 0.0 
0.0 0.0 0.0 
0.0 0.0 0.0 
0.0 0.0 0.0 
0.0 0.0 0.0 
0.0 0.0 0.0 
0.0 0.0 0.0 
0.0 0.0 0.0 
0.0 0.0 0.0 
0.0 0.0 0.0 
0.0 0.0 0.0 
0.0 0.0 0.0 
0.0 0.0 0.0 
0.0 0.0 0.0 
0.0 0.0 0.0 
0.0 0.0 0.0 
0.0 0.0 0.0 
0.0 0.0 0.0 
0.0 0.0 0.0 
0.0 0.0 0.0 
0.0 0.0 0.0 
0.0 0.0 0.0 
0.0 0.0 0.0 
0.0 0.0 0.0 
0.0 0.0 0.0 
0.0 0.0 0.0 
0.0 0.0 0.0 
0.0 0.0 0.0 
0.0 0.0 0.0 
0.0 0.0 0.0 
0.0 0.0 0.0 
0.0 0.0 0.0 
0.0 0.0 0.0 
0.0 0.0 0.0 
0.0 0.0 0.0 
0.0 0.0 0.0 
0.0 0.0 0.0 
0.0 0.0 0.0 
0.0 0.0 0.0 
0.0 0.0 0.0 
0.0 0.0 0.0 
0.0 0.0 0.0 
0.0 0.0 0.0 
0.0 1.299361240007e-01 0.0 
0.0 1.169506628591e-01 0.0 
0.0 1.035592420087e-01 0.0 
0.0 8.978521779158e-02 0.0 
0.0 7.563784209672e-02 0.0 
0.0 6.114061682792e-02 0.0 
0.0 4.631050173867e-02 0.0 
0.0 3.116570871848e-02 0.0 
0.0 1.572749780325e-02 0.0 
-1.405627277862e-02 4.744879959231e-02 0.0 
1.856732129507e-02 1.360303613067e-01 0.0 
-6.630820900327e-03 7.231704807613e-02 0.0 
-7.388954054214e-04 9.208542547389e-02 0.0 
4.171116708847e-03 1.087511768437e-01 0.0 
8.212861385443e-03 1.224171776013e-01 0.0 
1.205232967966e-02 1.333973876395e-01 0.0 
1.553457253814e-02 1.415154871658e-01 0.0 
1.823773859094e-02 1.463921646088e-01 0.0 
1.915136208335e-02 1.475455534996e-01 0.0 
1.938343752480e-02 1.435484821471e-01 0.0 
0.0 1.663792717443e-01 0.0 
0.0 1.546597195105e-01 0.0 
1.088095104188e-03 1.425187857076e-01 0.0 
2.171106227396e-03 1.425478848398e-01 0.0 
3.263675474295e-03 1.425790263873e-01 0.0 
4.364233031338e-03 1.426054377142e-01 0.0 
5.473406597360e-03 1.426324024807e-01 0.0 
6.595526434390e-03 1.426250417888e-01 0.0 
7.741076757027e-03 1.425883801924e-01 0.0 
8.899284265690e-03 1.424782978630e-01 0.0 
1.009983391286e-02 1.422914125842e-01 0.0 
1.133972474313e-02 1.419630709693e-01 0.0 
1.262248913944e-02 1.414509504762e-01 0.0 
1.396781181929e-02 1.406967480351e-01 0.0 
1.538929143061e-02 1.396149561365e-01 0.0 
1.690897254902e-02 1.380972426676e-01 0.0 
-1.129710326376e-02 3.332454240584e-02 0.0 
-7.176006039644e-03 2.575224325102e-02 0.0 
-2.719539079213e-03 2.267099063879e-02 0.0 
1.973145992194e-03 2.425168733531e-02 0.0 
5.264582361648e-03 3.265910527479e-02 0.0 
7.023509624985e-03 4.277888963305e-02 0.0 
7.721414780196e-03 4.952522134588e-02 0.0 
7.865226421480e-03 5.477916064217e-02 0.0 
7.426446560768e-03 5.900349373241e-02 0.0 
6.947353342972e-03 6.240732119874e-02 0.0 
6.449057447426e-03 6.518858061839e-02 0.0 
5.857797426681e-03 6.741836513946e-02 0.0 
5.273101577779e-03 6.926873805638e-02 0.0 
4.549462973472e-03 7.078255180140e-02 0.0 
3.819137438103e-03 7.200290452514e-02 0.0 
3.102456703935e-03 7.295144767213e-02 0.0 
2.376649926483e-03 7.368648839000e-02 0.0 
1.632672285477e-03 7.421584143476e-02 0.0 
8.280118201905e-04 7.451050359102e-02 0.0 
1.145916348400e-03 1.664206418325e-01 0.0 
2.218466306043e-03 1.664258090329e-01 0.0 
3.293490436204e-03 1.664544447988e-01 0.0 
4.367105950828e-03 1.664852065872e-01 0.0 
5.432926832679e-03 1.665056338322e-01 0.0 
6.486467715392e-03 1.665033330464e-01 0.0 
7.521797819158e-03 1.664616170019e-01 0.0 
8.534706002089e-03 1.663539836481e-01 0.0 
9.522329247135e-03 1.661538550120e-01 0.0 
1.047819908108e-02 1.658239164218e-01 0.0 
1.139872837776e-02 1.653115731847e-01 0.0 
1.228648433619e-02 1.645546765469e-01 0.0 
1.314837200835e-02 1.634758931235e-01 0.0 
1.400094872087e-02 1.619766798356e-01 0.0 
1.487667474397e-02 1.599198032097e-01 0.0 
1.584701929439e-02 1.571321602949e-01 0.0 
1.691952445446e-02 1.533065535159e-01 0.0 
1.777261131433e-02 1.468447338520e-01 0.0 
1.640761055769e-02 1.492417582702e-01 0.0 
1.512016160787e-02 1.509821131823e-01 0.0 
1.392814841609e-02 1.522644602632e-01 0.0 
1.279244420205e-02 1.531814275338e-01 0.0 
1.168987530162e-02 1.538201103280e-01 0.0 
1.060769482448e-02 1.542502621745e-01 0.0 
9.537295553574e-03 1.545220955357e-01 0.0 
8.471064017973e-03 1.546793133291e-01 0.0 
7.411131658999e-03 1.547645130609e-01 0.0 
6.351735596320e-03 1.547905790718e-01 0.0 
5.295686730699e-03 1.547869129406e-01 0.0 
4.238663709390e-03 1.547617682575e-01 0.0 
3.183683791715e-03 1.547322528126e-01 0.0 
2.128242316399e-03 1.546997291511e-01 0.0 
1.062802400501e-03 1.546444299133e-01 0.0 
-9.909039913719e-03 6.127219369702e-02 0.0 
-3.577510121349e-03 8.258471204309e-02 0.0 
1.844414048966e-03 1.008076904419e-01 0.0 
6.273722691941e-03 1.159424664292e-01 0.0 
1.022091879462e-02 1.283077036711e-01 0.0 
1.390803591458e-02 1.378843992555e-01 0.0 
1.704350505984e-02 1.443785869045e-01 0.0 
1.906747114027e-02 1.474795249479e-01 0.0 
1.941809858024e-02 1.460386408445e-01 0.0 
1.913064514379e-02 1.401078176573e-01 0.0 
3.770047106344e-03 8.132458515121e-02 0.0 
2.925559396601e-03 6.684249953074e-03 0.0 
4.408412177620e-03 6.075373496311e-02 0.0 
-1.986930233215e-04 2.997336031747e-02 0.0 
1.206904575761e-03 6.367641778685e-03 0.0 
1.231973665859e-02 1.121312047212e-01 0.0 
3.186377054924e-05 5.481772466977e-02 0.0 
4.490472536113e-03 7.542888324400e-03 0.0 
1.897553327348e-02 1.305318709090e-01 0.0 
5.411226555348e-03 8.620955148621e-03 0.0 
2.221079291976e-02 1.375067951960e-01 0.0 
3.737426052158e-04 5.937244993547e-03 0.0 
3.644907004184e-03 7.032126374235e-02 0.0 
5.645359319741e-03 1.032164734260e-02 0.0 
2.055319715300e-02 1.287881848196e-01 0.0 
4.191150471977e-06 6.753157742110e-02 0.0 
8.529372579606e-05 4.253019484244e-02 0.0 
5.334389670633e-03 1.192762486411e-02 0.0 
3.808556565122e-03 1.249287027177e-02 0.0 
1.082132261326e-03 1.341772112117e-02 0.0 
2.016597251035e-03 1.443001359673e-02 0.0 
2.710195432150e-03 1.267749357764e-02 0.0 
1.676216262793e-02 1.277840039897e-01 0.0 
1.092428561750e-02 1.307633588481e-01 0.0 
7.196757459241e-03 1.309456538428e-01 0.0 
7.094438486141e-04 8.254254674001e-02 0.0 
1.138137061167e-04 6.528540639365e-03 0.0 
-3.897115592095e-03 3.245272476162e-02 0.0 
2.129789603138e-03 7.348072347861e-02 0.0 
6.950451334403e-05 2.508375378198e-02 0.0 
3.715802086346e-03 1.317791334400e-01 0.0 
2.035654661424e-04 7.316093254293e-02 0.0 
5.167184650691e-03 1.388501626783e-02 0.0 
4.665776912207e-03 7.412221848018e-03 0.0 
5.577179580854e-03 9.324654248167e-03 0.0 
3.996570766422e-03 7.482101127858e-03 0.0 
2.045052134743e-03 6.155686261641e-03 0.0 
2.541881660249e-03 4.605121004483e-02 0.0 
1.366671445260e-02 1.304861609930e-01 0.0 
8.317292286340e-04 7.289052495145e-03 0.0 
5.368811368971e-04 5.440102685755e-02 0.0 
4.297540312150e-03 6.638550264603e-02 0.0 
-9.685475691937e-07 6.197273828964e-02 0.0 
5.378102499415e-04 1.093227754496e-02 0.0 
1.601478813183e-02 1.218756359536e-01 0.0 
8.410671234748e-03 9.838953351935e-02 0.0 
2.128227086657e-02 1.356903996538e-01 0.0 
2.190048238302e-02 1.351495206327e-01 0.0 
-2.368916823280e-03 6.100295900746e-02 0.0 
8.536197620911e-04 1.087078011304e-01 0.0 
3.791579715736e-05 5.206065988893e-03 0.0 
9.822796664988e-04 7.455743123847e-02 0.0 
2.948183501732e-04 2.463790590129e-02 0.0 
1.985373784793e-02 1.240529926440e-01 0.0 
2.140187426330e-02 1.170418307631e-01 0.0 
1.979633247059e-02 1.135317344685e-01 0.0 
2.148515307395e-02 1.052823701975e-01 0.0 
1.989510026697e-02 1.002250886153e-01 0.0 
2.106904129397e-02 9.292552601709e-02 0.0 
2.281820789447e-02 9.755181994276e-02 0.0 
2.200967908035e-02 8.550052529528e-02 0.0 
2.385100931355e-02 8.985511573780e-02 0.0 
1.920049822418e-02 8.752449118726e-02 0.0 
2.263970764371e-02 7.805367125044e-02 0.0 
2.453947823070e-02 8.216857564296e-02 0.0 
2.292982502962e-02 7.069740321374e-02 0.0 
2.485192776979e-02 7.459977976387e-02 0.0 
2.621977387354e-02 8.555181227056e-02 0.0 
2.653496046527e-02 7.782629805243e-02 0.0 
2.762501731145e-02 8.813848356529e-02 0.0 
2.792263272033e-02 8.026668567884e-02 0.0 
2.646004909645e-02 7.038883003133e-02 0.0 
2.781859978813e-02 7.275484749931e-02 0.0 
2.898251092417e-02 8.193510297701e-02 0.0 
2.883229687489e-02 7.437723492982e-02 0.0 
2.968630244886e-02 8.282422229695e-02 0.0 
2.947923828695e-02 7.523829394642e-02 0.0 
3.002718721776e-02 8.295223283038e-02 0.0 
2.975719171687e-02 7.539718192535e-02 0.0 
2.887243418824e-02 6.814020986613e-02 0.0 
2.908231610332e-02 6.838811253287e-02 0.0 
2.966321918970e-02 7.488131547118e-02 0.0 
2.891185978472e-02 6.799939608205e-02 0.0 
2.920218873706e-02 7.372690785846e-02 0.0 
2.836468714132e-02 6.701327532298e-02 0.0 
2.778591738989e-02 6.170640606755e-02 0.0 
2.715366208837e-02 6.095521563290e-02 0.0 
2.744664549073e-02 6.548572408691e-02 0.0 
2.614672375889e-02 5.973186764888e-02 0.0 
2.616711285344e-02 6.347791974942e-02 0.0 
2.477622231404e-02 5.810324646933e-02 0.0 
2.453889801976e-02 6.105303094820e-02 0.0 
2.304254320396e-02 5.613844181458e-02 0.0 
2.309844963475e-02 5.344733560159e-02 0.0 
2.129011177449e-02 5.199192167732e-02 0.0 
2.096105289390e-02 5.394754189182e-02 0.0 
1.915676552140e-02 5.042657316240e-02 0.0 
1.937557178343e-02 4.857655820834e-02 0.0 
1.724557466656e-02 4.765849647590e-02 0.0 
1.738221477512e-02 4.579209098656e-02 0.0 
1.531215202114e-02 4.550667422801e-02 0.0 
1.489262539799e-02 4.684783331251e-02 0.0 
1.306551858486e-02 4.537640646446e-02 0.0 
1.342582890587e-02 4.382736995185e-02 0.0 
1.132637814007e-02 4.432228622692e-02 0.0 
1.070465261131e-02 4.553355571431e-02 0.0 
9.186729806376e-03 4.508874260174e-02 0.0 
9.723624950699e-03 4.352137651205e-02 0.0 
7.807177023761e-03 4.480865999394e-02 0.0 
7.089654517927e-03 4.621133577651e-02 0.0 
5.975535449834e-03 4.638858756484e-02 0.0 
6.588822403664e-03 4.454154828908e-02 0.0 
4.997672124714e-03 4.650649562223e-02 0.0 
4.295755872272e-03 4.829082661431e-02 0.0 
3.578268029188e-03 4.868841735703e-02 0.0 
4.152106394897e-03 4.646422668345e-02 0.0 
2.954589006984e-03 4.888605427089e-02 0.0 
3.410527914142e-03 4.624249171579e-02 0.0 
2.352978177207e-03 5.112500377816e-02 0.0 
1.946937406775e-03 5.145015299469e-02 0.0 
1.374931227118e-03 5.374116188836e-02 0.0 
1.152655565007e-03 5.411018493198e-02 0.0 
2.633190573948e-02 5.599949012633e-02 0.0 
6.755920403973e-04 5.642043766775e-02 0.0 
7.790524103931e-04 5.566344150596e-02 0.0 
5.810287228396e-04 5.679740341767e-02 0.0 
9.510244778458e-04 5.417056084003e-02 0.0 
2.301040945548e-04 5.911310146174e-02 0.0 
2.157489710501e-04 5.944773977480e-02 0.0 
9.453504991804e-06 6.173941302348e-02 0.0 
2.564743686516e-02 6.690125408401e-02 0.0 
2.599733393089e-02 6.328910986814e-02 0.0 
2.788561860144e-05 6.199692516053e-02 0.0 
-3.331769047380e-05 6.422499489434e-02 0.0 
-6.417548481597e-05 6.374093164383e-02 0.0 
6.495270345004e-05 6.614276067999e-02 0.0 
1.813470970149e-02 9.474960110541e-02 0.0 
1.723279725041e-02 8.159649869750e-02 0.0 
1.631975129135e-02 8.874978725398e-02 0.0 
1.519895429745e-02 7.526731747104e-02 0.0 
1.444334603724e-02 8.223924135058e-02 0.0 
4.279271298900e-05 6.650835962551e-02 0.0 
2.079666378937e-02 6.578389355366e-02 0.0 
1.575304721877e-02 6.811481181311e-02 0.0 
2.947310395189e-02 9.088077300425e-02 0.0 
2.961733281079e-02 8.108758624874e-02 0.0 
1.919743137053e-02 4.611338048792e-02 0.0 
1.900053579876e-04 5.945723015157e-02 0.0 
3.120196028141e-05 6.193962205641e-02 0.0 
1.602536278526e-04 5.916166566375e-02 0.0 
4.539023752939e-03 4.377945295180e-02 0.0 
3.694521017208e-03 4.317111351138e-02 0.0 
4.712901320533e-03 4.062092083015e-02 0.0 
3.791430095689e-03 3.964586449219e-02 0.0 
4.664893034960e-03 3.697228261867e-02 0.0 
3.697065411558e-03 3.564342607642e-02 0.0 
2.994548570725e-03 3.849416329978e-02 0.0 
2.867984431530e-03 3.414480363089e-02 0.0 
2.315524299640e-03 3.714768000575e-02 0.0 
4.398531881444e-03 3.281756291238e-02 0.0 
5.535958069089e-03 3.435006275428e-02 0.0 
2.170095108647e-03 3.246635972467e-02 0.0 
1.746997845083e-03 3.559553142414e-02 0.0 
1.594883427843e-03 3.059593122251e-02 0.0 
1.281086859107e-03 3.383753830742e-02 0.0 
1.346291434449e-03 3.869679973819e-02 0.0 
9.826897808741e-04 3.702927954540e-02 0.0 
9.875857715574e-04 4.175132596489e-02 0.0 
1.712843311558e-02 4.329265991361e-02 0.0 
1.860881961874e-02 4.303728057791e-02 0.0 
1.647336166725e-02 4.017118744349e-02 0.0 
1.758977079987e-02 3.935104255271e-02 0.0 
1.540774394058e-02 3.643205538404e-02 0.0 
1.613428788635e-02 3.506022921128e-02 0.0 
1.392684480044e-02 3.207805770999e-02 0.0 
1.327690283873e-02 3.380882975684e-02 0.0 
2.287058721596e-02 6.340307585748e-02 0.0 
1.855123066267e-02 5.165205428585e-02 0.0 
2.022607845292e-02 5.531972561323e-02 0.0 
1.757642424925e-02 5.224010962734e-02 0.0 
1.909539804106e-02 5.609653363232e-02 0.0 
1.624863261209e-02 5.215630150358e-02 0.0 
1.758692830778e-02 5.628841648785e-02 0.0 
1.459397739965e-02 5.138192253364e-02 0.0 
1.311044866378e-02 4.838554659870e-02 0.0 
1.127924183164e-02 4.665974335781e-02 0.0 
9.729649775861e-03 4.510946331411e-02 0.0 
7.727142739063e-03 4.258352575702e-02 0.0 
6.257252468555e-03 4.270598145300e-02 0.0 
2.789480821251e-02 6.155347828185e-02 0.0 
1.836781220372e-02 3.835232493469e-02 0.0 
1.650032809702e-02 3.346576756016e-02 0.0 
1.876065766376e-02 3.708293951713e-02 0.0 
7.145168108140e-05 6.545492309742e-02 0.0 
9.078895773502e-04 3.187587927872e-02 0.0 
5.053831509863e-03 3.000413534736e-02 0.0 
6.351795955683e-03 3.180314026890e-02 0.0 
1.179621293535e-02 2.932756143905e-02 0.0 
2.749420830313e-04 6.828913538424e-02 0.0 
1.571648283742e-02 5.592753743439e-02 0.0 
1.844731859588e-02 6.179811885965e-02 0.0 
1.315341065618e-02 6.843841929973e-02 0.0 
1.256277102414e-02 7.532329823610e-02 0.0 
5.611357976964e-03 2.719111314688e-02 0.0 
1.780413364195e-04 6.854779519909e-02 0.0 
2.587694985581e-03 2.931531822841e-02 0.0 
9.169499259832e-03 4.405821991249e-02 0.0 
6.920767540382e-04 3.515375319921e-02 0.0 
6.167898483340e-04 2.972354819395e-02 0.0 
2.329558968242e-03 4.135471072350e-02 0.0 
1.646487391546e-02 3.157152697077e-02 0.0 
1.877663639755e-02 3.555310565791e-02 0.0 
8.240542865589e-03 4.481449657521e-02 0.0 
5.026521873062e-03 4.383408995405e-02 0.0 
2.936986113428e-03 4.155017564164e-02 0.0 
2.184725762742e-03 4.416950710958e-02 0.0 
4.080224365799e-03 4.552348762674e-02 0.0 
1.672624194355e-03 4.669723237338e-02 0.0 
1.438264530147e-06 4.565958156738e-02 0.0 
-9.301628576061e-05 4.885467192898e-02 0.0 
1.363498340240e-03 4.914319474691e-02 0.0 
-1.129986706095e-05 5.166081803213e-02 0.0 
-1.017829275566e-03 5.180069120023e-02 0.0 
-7.051711038813e-04 5.467680131121e-02 0.0 
7.714730501475e-04 2.627102121956e-02 0.0 
5.503012845396e-03 3.919962798222e-02 0.0 
2.691921376825e-02 9.627759715727e-02 0.0 
4.348167205886e-03 2.510393259146e-02 0.0 
1.206550111740e-02 2.718103479619e-02 0.0 
1.113247517244e-02 6.123595808884e-02 0.0 
1.070614397976e-02 6.806644681882e-02 0.0 
1.182186622942e-02 8.216216167426e-02 0.0 
1.012363804980e-02 7.482532385105e-02 0.0 
8.905284950331e-03 6.051238218289e-02 0.0 
8.479411791472e-03 6.725602799498e-02 0.0 
9.425911690741e-03 8.149958898741e-02 0.0 
7.925655273220e-03 7.391346879277e-02 0.0 
8.645101131076e-03 8.805386907463e-02 0.0 
7.274701056218e-03 8.046560474735e-02 0.0 
6.496447211819e-03 6.613196310961e-02 0.0 
5.967372388290e-03 7.271923506616e-02 0.0 
6.552070012186e-03 8.691843129847e-02 0.0 
5.350456741987e-03 7.921381902139e-02 0.0 
5.775714335252e-03 9.325869463090e-02 0.0 
4.663253580184e-03 8.560980110925e-02 0.0 
4.225648527943e-03 7.137710154322e-02 0.0 
4.837612694752e-04 7.007128279253e-02 0.0 
1.124456921455e-02 3.140284931075e-02 0.0 
9.783083053727e-03 2.673797466949e-02 0.0 
2.971628467920e-05 6.155310179498e-02 0.0 
1.351942135285e-04 5.854716091092e-02 0.0 
3.190897488626e-04 5.604047032718e-02 0.0 
2.452452415451e-04 5.522567681485e-02 0.0 
3.608203179361e-03 7.790354752039e-02 0.0 
3.193671663516e-03 6.343451667487e-02 0.0 
1.622082147005e-02 6.212177457168e-02 0.0 
1.863303771261e-02 6.871554827803e-02 0.0 
1.135862881019e-02 5.435284591697e-02 0.0 
4.652517882468e-04 3.308139126364e-02 0.0 
4.984580583628e-04 3.834266862212e-02 0.0 
2.888335126201e-02 7.913652375431e-02 0.0 
2.890221228297e-02 8.697463047794e-02 0.0 
2.791939011710e-02 8.426780507133e-02 0.0 
2.742975634301e-02 9.268377064756e-02 0.0 
2.840518399502e-02 9.545367374556e-02 0.0 
2.619616094161e-02 8.920544783991e-02 0.0 
6.831792966106e-03 3.584468616478e-02 0.0 
5.163025616554e-03 5.819611982131e-02 0.0 
-1.294118871060e-04 6.290965640955e-02 0.0 
5.617308174031e-05 6.443249375264e-02 0.0 
3.967630895569e-04 2.739093603658e-02 0.0 
1.233654385421e-02 3.543866304677e-02 0.0 
2.736298927098e-02 6.055003366276e-02 0.0 
2.610075224093e-02 5.432292499510e-02 0.0 
2.522282866749e-02 5.257493844442e-02 0.0 
2.369089507820e-02 4.668588962294e-02 0.0 
2.243835922515e-02 4.420175341169e-02 0.0 
2.064470171420e-02 3.863481230386e-02 0.0 
2.188601812191e-02 4.123036890023e-02 0.0 
1.598324586367e-02 2.927315927941e-02 0.0 
1.860943615644e-02 3.343515293221e-02 0.0 
3.984095787245e-03 9.203388528217e-02 0.0 
2.057430833460e-02 4.206194501191e-02 0.0 
1.172559196657e-03 5.129669996603e-02 0.0 
6.896693812959e-04 6.961104139563e-02 0.0 
-1.016255054581e-03 5.526306447888e-02 0.0 
3.122051835870e-04 7.029123317779e-02 0.0 
9.882405325570e-05 6.851285767986e-02 0.0 
4.633435555380e-03 2.202225604447e-02 0.0 
1.898181264729e-02 3.541711595557e-02 0.0 
2.078622752683e-02 4.108319188456e-02 0.0 
2.638376828696e-02 1.017989133914e-01 0.0 
2.738088628532e-02 1.045185845446e-01 0.0 
1.365044056985e-02 2.546706204123e-02 0.0 
1.523762690702e-02 9.588824412939e-02 0.0 
1.005330907501e-02 9.545745624748e-02 0.0 
9.093154419777e-03 1.018711873232e-01 0.0 
6.975228785288e-04 7.167044917651e-02 0.0 
-1.281913097928e-03 5.184294557969e-02 0.0 
7.196807718680e-03 5.273065402903e-02 0.0 
2.085060504347e-02 6.736494251586e-02 0.0 
2.079504078398e-02 7.477148307619e-02 0.0 
6.546185630311e-03 4.089311147306e-02 0.0 
3.138666597239e-03 3.542747085430e-02 0.0 
2.680631665575e-03 6.987034962843e-02 0.0 
2.296481539125e-03 5.536492610195e-02 0.0 
4.742316474737e-04 5.258463057660e-02 0.0 
3.590253905553e-04 5.152228851399e-02 0.0 
6.019386430609e-03 2.432519455039e-02 0.0 
-7.057564157735e-04 5.791149080857e-02 0.0 
2.641293917492e-03 4.867253825140e-02 0.0 
1.042480619921e-02 3.337869186247e-02 0.0 
1.116056054221e-02 3.703513707318e-02 0.0 
9.901203492930e-05 5.774150330573e-02 0.0 
1.584404971469e-02 6.984995201269e-02 0.0 
1.337149113702e-02 6.220246932404e-02 0.0 
2.787434116297e-03 4.908184588397e-02 0.0 
-4.199869594851e-04 5.694773133953e-02 0.0 
1.765880184927e-04 7.018272116535e-02 0.0 
4.722515080589e-03 1.885150785331e-02 0.0 
7.304906667901e-03 4.593260657073e-02 0.0 
1.986836878176e-02 3.621685325247e-02 0.0 
2.271711212401e-02 4.329823100936e-02 0.0 
1.639614327512e-02 2.863037706359e-02 0.0 
-3.072665912006e-04 5.874008522089e-02 0.0 
3.442298796710e-03 1.962677317734e-02 0.0 
2.934400549758e-04 3.082898013592e-02 0.0 
1.709458233399e-02 3.204503638042e-02 0.0 
1.875252986558e-02 3.734528371397e-02 0.0 
2.295656085406e-02 7.248230697514e-02 0.0 
2.278929056652e-02 8.028929088015e-02 0.0 
1.999315982605e-02 8.331116256381e-02 0.0 
2.186642291171e-02 8.899771305413e-02 0.0 
2.441006311735e-02 1.015253173963e-01 0.0 
2.482877536385e-02 7.708414696478e-02 0.0 
2.803891808454e-02 9.822226055643e-02 0.0 
2.694719979012e-02 1.067692306987e-01 0.0 
2.773909073960e-02 1.080780521307e-01 0.0 
2.903138862048e-02 9.755563060314e-02 0.0 
2.801142759610e-02 1.066240226435e-01 0.0 
2.161461459734e-02 5.999428032525e-02 0.0 
2.071858528696e-02 4.636054055309e-02 0.0 
6.124411585041e-04 5.338487749361e-02 0.0 
1.323215812273e-03 4.310589449469e-02 0.0 
5.765405238862e-03 4.144429268924e-02 0.0 
5.457510671729e-03 5.149439360217e-02 0.0 
4.131067781465e-03 4.337112396375e-02 0.0 
6.936213234249e-03 1.007719438259e-01 0.0 
6.040197204562e-03 1.069425366948e-01 0.0 
4.998867856261e-04 6.686693718825e-02 0.0 
6.214477778993e-04 6.564814881482e-02 0.0 
2.764732131953e-03 4.580600740130e-02 0.0 
3.266921909320e-03 2.291478718292e-02 0.0 
9.230905424560e-03 4.688401045632e-02 0.0 
9.043537217009e-03 4.001682606392e-02 0.0 
1.133761597301e-02 4.742738690927e-02 0.0 
6.214822959898e-03 2.137079952296e-02 0.0 
1.587306382612e-02 4.944341111108e-02 0.0 
1.507036790689e-02 4.091072456210e-02 0.0 
2.254739078954e-03 3.603952322746e-02 0.0 
2.665608285901e-02 5.601403595634e-02 0.0 
1.293990069805e-03 6.793362206052e-02 0.0 
2.435428139894e-02 6.029071627027e-02 0.0 
2.377059798174e-04 2.489274108274e-02 0.0 
3.022972116978e-04 2.125566599311e-02 0.0 
1.269985420593e-02 2.256952359068e-02 0.0 
2.255544490734e-02 1.210029161613e-01 0.0 
2.498753354202e-02 5.061510135796e-02 0.0 
2.461264690937e-02 5.088925200309e-02 0.0 
2.625379100088e-02 1.169716795444e-01 0.0 
2.668667735546e-02 1.176476537050e-01 0.0 
2.818198739173e-02 1.085147496438e-01 0.0 
2.675297347627e-02 1.174931638063e-01 0.0 
2.348983819535e-03 5.063141590161e-02 0.0 
1.034763785422e-03 5.307906932979e-02 0.0 
1.468221074013e-02 2.594886614617e-02 0.0 
1.480201018672e-02 2.542656623708e-02 0.0 
1.476458383470e-02 2.787557470335e-02 0.0 
1.635245720281e-02 3.289606730269e-02 0.0 
1.032805311717e-02 1.878483863533e-02 0.0 
1.132995042927e-02 2.189867044465e-02 0.0 
4.229377649436e-05 6.820254243382e-02 0.0 
2.586718629460e-02 1.139773982924e-01 0.0 
5.568258384349e-03 3.792677248592e-02 0.0 
2.547942891117e-02 1.154295029305e-01 0.0 
2.469427534235e-03 1.728508438018e-02 0.0 
2.369895350022e-03 2.060319176666e-02 0.0 
4.584223720724e-04 3.198346578612e-02 0.0 
-3.645690203952e-04 3.531231172478e-02 0.0 
1.809226147485e-03 4.075720243263e-02 0.0 
1.842785014868e-02 9.263570365410e-02 0.0 
2.018608967190e-02 9.834014381498e-02 0.0 
1.656453838114e-02 8.609857327017e-02 0.0 
2.177543376583e-05 1.123613159036e-02 0.0 
1.607391997136e-03 1.318943443214e-01 0.0 
1.674877776526e-04 1.852167223115e-02 0.0 
2.932057472462e-02 9.899759660651e-02 0.0 
1.949344838949e-03 3.334441146045e-02 0.0 
2.311964634413e-02 4.579104577710e-02 0.0 
2.779183157509e-02 7.663810688380e-02 0.0 
7.599446481576e-03 2.658584495487e-02 0.0 
1.469678051396e-03 4.874155232185e-02 0.0 
1.088459793276e-03 3.210182441588e-02 0.0 
1.036306156309e-02 1.088590841079e-01 0.0 
9.306562253023e-03 1.153285620954e-01 0.0 
1.147380689004e-02 1.026293270756e-01 0.0 
1.017560149823e-02 4.787979707666e-02 0.0 
6.649712857315e-03 4.596737446355e-02 0.0 
3.947999612182e-03 5.012234954712e-02 0.0 
-1.798800351668e-05 6.424736402943e-02 0.0 
-1.596642041299e-05 6.357062784793e-02 0.0 
-4.275017215991e-04 6.002085560046e-02 0.0 
-2.297360520718e-04 5.875632746418e-02 0.0 
7.956207965474e-04 4.985147484499e-02 0.0 
1.024689837158e-03 5.065318032456e-02 0.0 
2.351601708757e-02 5.351877991988e-02 0.0 
2.158396469913e-02 4.994650701717e-02 0.0 
2.644959013610e-02 5.893552043384e-02 0.0 
9.395665412447e-03 3.532873740158e-02 0.0 
9.814419135517e-03 3.866818758142e-02 0.0 
1.156783275073e-02 4.007156189223e-02 0.0 
4.205042492398e-03 3.704886481057e-02 0.0 
2.808061274388e-03 2.750403621949e-02 0.0 
4.068847881956e-03 4.859735525719e-02 0.0 
4.849273620831e-03 4.745155000423e-02 0.0 
1.969718958604e-03 5.194314031325e-02 0.0 
5.349708355717e-03 3.135428903555e-02 0.0 
2.040870191180e-04 1.486034193681e-02 0.0 
3.573944820193e-04 1.775773965845e-02 0.0 
1.630694348439e-03 6.656955605595e-02 0.0 
7.018418074266e-04 6.402599043383e-02 0.0 
1.216809405522e-02 7.087735694507e-02 0.0 
9.402992800559e-03 6.231865247015e-02 0.0 
8.691184247751e-03 3.371057359685e-02 0.0 
1.105160234952e-02 4.062462296828e-02 0.0 
6.211104207245e-03 2.549638054039e-02 0.0 
8.756235216263e-05 6.991776964217e-02 0.0 
2.067776302209e-02 3.839486948861e-02 0.0 
4.726437437716e-03 1.586568625659e-02 0.0 
6.323419449291e-03 1.861671047897e-02 0.0 
3.162800300551e-03 1.236370532634e-02 0.0 
1.516526517874e-02 2.679979669178e-02 0.0 
1.142303360319e-02 1.956966383777e-02 0.0 
1.224813133168e-02 2.055861876119e-02 0.0 
5.217764108832e-04 3.138918680901e-02 0.0 
8.188025466367e-04 3.836734137192e-02 0.0 
7.139417263566e-03 1.142691858686e-01 0.0 
-7.530192911889e-04 2.843870025841e-02 0.0 
6.149863740405e-03 1.207182107165e-01 0.0 
5.159822343810e-03 1.130909843168e-01 0.0 
5.308341132771e-03 1.269866138302e-01 0.0 
2.100733122928e-04 7.157712141914e-02 0.0 
1.168896773530e-02 1.180222078134e-01 0.0 
1.297536343314e-02 1.100625011743e-01 0.0 
2.292744089439e-03 6.488435209266e-02 0.0 
3.628455774393e-03 2.332454618316e-02 0.0 
2.329377984689e-03 6.848057362644e-02 0.0 
1.827844917172e-03 6.965274480186e-02 0.0 
1.681058376907e-03 1.458643420795e-02 0.0 
1.647010601039e-03 1.812241944263e-02 0.0 
1.057925228217e-03 1.188559189311e-02 0.0 
1.109632202619e-03 1.583271330900e-02 0.0 
1.535062437534e-03 2.171837088994e-02 0.0 
1.030350643705e-03 1.924532836262e-02 0.0 
8.313872634589e-03 1.225589052227e-01 0.0 
6.510037961376e-04 1.214519115931e-02 0.0 
6.444236581397e-04 1.647271418002e-02 0.0 
3.484451962060e-04 9.445674491146e-03 0.0 
2.477819855103e-02 1.271860542842e-01 0.0 
2.341513802464e-02 9.401707420284e-02 0.0 
2.170611582781e-02 1.036248545162e-01 0.0 
1.763588769644e-02 1.088214383481e-01 0.0 
1.108837948723e-02 2.085563676258e-02 0.0 
1.388945500867e-02 2.840148970284e-02 0.0 
1.663440327671e-04 2.828488862155e-02 0.0 
1.869795954873e-04 3.403217089077e-02 0.0 
4.253026399515e-03 1.201160043555e-01 0.0 
3.108873178022e-03 1.206536447942e-01 0.0 
3.403439106431e-03 1.085441445084e-01 0.0 
2.456153590380e-03 1.100215932303e-01 0.0 
2.649088615618e-03 9.785964841064e-02 0.0 
1.704770075071e-03 9.942046779686e-02 0.0 
2.025407259866e-03 8.697855441253e-02 0.0 
1.019327272098e-02 1.680345261959e-02 0.0 
1.408399466260e-02 9.550482279634e-02 0.0 
2.433953098842e-02 1.261010528065e-01 0.0 
8.002449116801e-03 1.518191762869e-02 0.0 
9.361859259978e-03 1.908335991317e-02 0.0 
2.651301255252e-02 1.160712258894e-01 0.0 
2.377530220083e-02 1.240511947473e-01 0.0 
2.227053619709e-03 1.284458223346e-02 0.0 
2.454466727988e-02 6.992365577306e-02 0.0 
2.735615378614e-03 1.482919350986e-02 0.0 
-4.837315140477e-03 4.163171996773e-02 0.0 
1.274955396040e-03 4.092748682329e-02 0.0 
2.627695132182e-02 7.363996387942e-02 0.0 
2.827636232187e-02 1.080448547205e-01 0.0 
2.497205552695e-02 9.832667478291e-02 0.0 
2.353417918616e-02 1.079415022605e-01 0.0 
8.666847597982e-03 3.134489085165e-02 0.0 
8.688287245612e-04 6.197357806592e-02 0.0 
1.452056015029e-02 7.882110614023e-02 0.0 
2.950225085805e-03 8.558031584462e-02 0.0 
9.844473980384e-03 8.010709432857e-02 0.0 
8.166407217515e-05 3.102813436336e-02 0.0 
2.378849678501e-02 6.363608127796e-02 0.0 
2.989241744629e-02 9.040316415816e-02 0.0 
1.802380294619e-02 7.686139556319e-02 0.0 
2.468376280831e-02 8.514507147750e-02 0.0 
2.551543029255e-02 9.349455552740e-02 0.0 
2.300373935225e-02 1.094445045483e-01 0.0 
2.429830162741e-02 1.130688143664e-01 0.0 
2.255439300108e-02 5.833632267751e-02 0.0 
2.488405668377e-02 1.112997652349e-01 0.0 
2.130145097393e-02 1.184727018797e-01 0.0 
2.872703322666e-02 8.991837462974e-02 0.0 
1.368938378944e-02 5.445125500803e-02 0.0 
1.352893787987e-02 4.745227370908e-02 0.0 
1.052703793786e-02 3.426364562632e-02 0.0 
1.305527581976e-02 4.066954555047e-02 0.0 
1.602205160878e-02 5.391805580275e-02 0.0 
1.566381146443e-02 4.697165248633e-02 0.0 
1.225176010208e-02 3.419482291933e-02 0.0 
1.496075268628e-02 4.022722779883e-02 0.0 
1.018862082883e-02 2.524959655431e-02 0.0 
1.377606377274e-02 3.344299634807e-02 0.0 
1.761934517315e-02 4.608498270839e-02 0.0 
1.668732154263e-02 3.972939415731e-02 0.0 
1.285955053826e-02 2.870628500020e-02 0.0 
2.022806509483e-02 5.201529222292e-02 0.0 
6.574614823407e-03 1.172505559187e-02 0.0 
2.718508294028e-02 6.970062702436e-02 0.0 
3.363493865313e-03 3.751873223204e-02 0.0 
4.241268913590e-03 5.087021996527e-02 0.0 
2.986336336108e-02 9.103891519858e-02 0.0 
5.061130058609e-03 1.234281708227e-02 0.0 
4.268542198962e-03 1.266802207981e-02 0.0 
2.023267050123e-02 6.112098924131e-02 0.0 
5.631253405612e-03 9.788520922996e-03 0.0 
2.579133763177e-02 1.046447765169e-01 0.0 
1.262986859001e-02 4.992353233268e-02 0.0 
5.588450067438e-03 9.078440819259e-03 0.0 
1.604266568359e-02 6.096271769772e-02 0.0 
1.835775539396e-02 6.726022826280e-02 0.0 
1.792697590422e-02 7.445110356265e-02 0.0 
3.330429066402e-03 1.214579595158e-02 0.0 
1.255914726142e-02 9.609966871401e-02 0.0 
4.445118109334e-03 7.224769846758e-03 0.0 
1.977009271586e-02 4.265188674019e-02 0.0 
2.189689439005e-02 4.646668244588e-02 0.0 
2.272154413046e-02 5.023924177379e-02 0.0 
1.824030682064e-02 5.313245841374e-02 0.0 
3.286074626479e-03 6.728118220480e-03 0.0 
5.717590235671e-03 1.255135451830e-02 0.0 
4.996450173300e-03 1.230317458886e-02 0.0 
7.702831509299e-03 1.822451293360e-02 0.0 
2.489826143331e-03 6.449275459965e-03 0.0 
5.064617312982e-03 1.047661989452e-02 0.0 
4.985991744846e-03 9.630192535096e-03 0.0 
3.344803872847e-03 4.732794415291e-02 0.0 
5.793567568406e-03 4.630761778651e-02 0.0 
7.236042036946e-03 4.647139159382e-02 0.0 
8.519653408832e-03 4.606375864987e-02 0.0 
6.919763525286e-03 4.533049389781e-02 0.0 
9.947251339275e-03 4.605602480675e-02 0.0 
1.133810207283e-02 4.652404907502e-02 0.0 
1.150048017191e-02 4.671736778763e-02 0.0 
1.801453976203e-02 3.913273389694e-02 0.0 
1.725164210429e-03 6.080479009881e-03 0.0 
5.776305619826e-03 3.816744959911e-02 0.0 
7.028187395711e-03 3.929477800233e-02 0.0 
6.942900363230e-03 4.218564358153e-02 0.0 
7.719085597012e-04 5.391615552637e-02 0.0 
1.290297926263e-03 5.120242091043e-02 0.0 
1.559622360862e-03 4.787702622962e-02 0.0 
3.993867162739e-04 5.659045792236e-02 0.0 
2.453776666275e-02 4.858000828365e-02 0.0 
1.409309105373e-03 6.095605771386e-03 0.0 
1.307002910555e-02 3.885496839927e-02 0.0 
1.595459829904e-03 5.147617798967e-02 0.0 
1.518635591589e-02 1.292914362008e-01 0.0 
1.626018092801e-02 1.176421086028e-01 0.0 
1.787173128485e-02 1.160559811750e-01 0.0 
1.699885713207e-02 1.039726640436e-01 0.0 
1.448820698404e-02 1.172485191247e-01 0.0 
6.038470335912e-04 4.878269679570e-02 0.0 
4.452001116875e-04 4.746953517286e-02 0.0 
2.615905263635e-04 5.021824590741e-02 0.0 
3.142534127346e-04 4.592634853417e-02 0.0 
1.769028236664e-04 4.867300088739e-02 0.0 
1.363125883927e-04 5.272157078416e-02 0.0 
2.023647384411e-04 4.417315742909e-02 0.0 
9.836264001797e-05 4.742926677470e-02 0.0 
1.225298105303e-02 1.308124587397e-01 0.0 
8.549390429412e-04 3.797225799570e-02 0.0 
-8.038114935168e-04 4.219089083916e-02 0.0 
2.791846934999e-04 4.883878430605e-02 0.0 
-1.428693588363e-03 4.579867753822e-02 0.0 
-1.485351302568e-03 4.034026643404e-02 0.0 
-1.324892537876e-03 4.424191928842e-02 0.0 
-5.055710628022e-04 4.003285714069e-02 0.0 
-1.376720452119e-03 3.540993651796e-02 0.0 
3.558999203814e-03 5.205648404776e-02 0.0 
1.151284119824e-03 5.417001756446e-02 0.0 
4.135959105241e-03 5.691009054158e-02 0.0 
1.885476028527e-03 5.846347889363e-02 0.0 
-3.060440219453e-04 5.582620330364e-02 0.0 
-1.789777834087e-05 6.297401180415e-02 0.0 
8.479870023527e-05 7.461016139205e-03 0.0 
1.564156850606e-05 5.860169323693e-02 0.0 
1.786720651483e-05 6.013505282397e-02 0.0 
-1.135677464081e-05 6.318942462387e-02 0.0 
9.780554695886e-06 6.120415790003e-02 0.0 
4.518188692262e-05 5.696693162635e-02 0.0 
-7.943950877963e-06 6.494175525397e-02 0.0 
-9.408509236569e-06 6.568508345146e-02 0.0 
1.564041382266e-03 7.411717673314e-02 0.0 
9.231925686619e-04 7.421992811849e-02 0.0 
4.551131991509e-04 7.461198579955e-02 0.0 
4.837157766302e-04 7.391089767532e-02 0.0 
7.981665935119e-04 7.349286490852e-02 0.0 
1.357674242865e-03 7.366569685117e-02 0.0 
1.763507637596e-03 7.291641160510e-02 0.0 
2.677830644359e-03 7.263447354552e-02 0.0 
2.102994683029e-03 7.197103475702e-02 0.0 
1.286138415584e-03 7.197896592611e-02 0.0 
3.179692635664e-03 7.161477681810e-02 0.0 
6.517638347680e-04 6.833945588700e-02 0.0 
1.243243289962e-03 6.113596884903e-02 0.0 
9.578923415836e-04 6.478729173963e-03 0.0 
9.539872555844e-03 1.304182508973e-01 0.0 
4.390850590081e-03 6.388280915082e-02 0.0 
1.018736481733e-03 1.613272110596e-02 0.0 
1.570530068776e-03 1.333856860069e-02 0.0 
1.263282374097e-03 1.294294269286e-02 0.0 
4.534595683881e-05 1.836196298687e-02 0.0 
7.407273958020e-05 1.504368548409e-02 0.0 
5.494280994366e-04 1.569828201070e-02 0.0 
-3.518434419864e-05 6.115712527511e-02 0.0 
9.687344512937e-03 2.815743246697e-02 0.0 
2.868757887263e-03 4.189767205259e-02 0.0 
1.344349355165e-02 5.510794639130e-02 0.0 
1.766764437564e-04 5.582826719261e-02 0.0 
3.206556783848e-04 3.629711018617e-02 0.0 
1.793049149212e-03 4.012793796484e-02 0.0 
4.989796546811e-04 2.389719146229e-02 0.0 
7.157058746267e-04 4.015185076015e-02 0.0 
1.132448533500e-03 2.852536105303e-02 0.0 
4.386936547958e-03 1.251069944126e-02 0.0 
4.035141591600e-04 7.168112166571e-02 0.0 
7.808040369172e-03 9.447553678584e-02 0.0 
5.005603931139e-03 9.954512588695e-02 0.0 
4.745731311010e-03 6.483018727131e-02 0.0 
-2.162256781569e-05 6.438772279143e-02 0.0 
1.940523678867e-04 5.394077916079e-02 0.0 
3.779314476086e-04 6.772047059172e-02 0.0 
1.016918225477e-02 1.745386155189e-02 0.0 
2.880888566222e-02 9.939771776713e-02 0.0 
5.499699413023e-03 4.422608510262e-02 0.0 
4.878373643356e-04 5.684754027750e-02 0.0 
2.276241465681e-04 5.842164443615e-02 0.0 
9.666617066160e-05 5.397944947353e-02 0.0 
2.837651288564e-02 7.198104621758e-02 0.0 
2.420062405320e-03 4.881911516391e-02 0.0 
3.417925173549e-03 3.114692692618e-02 0.0 
3.629628121474e-03 5.681623542745e-02 0.0 
3.799675358588e-03 6.865192583620e-02 0.0 
3.926710615963e-03 2.813810279351e-02 0.0 
2.961260988383e-03 4.236828952392e-02 0.0 
1.097603963622e-02 8.889722874864e-02 0.0 
1.424335993630e-02 3.017504122952e-02 0.0 
-1.215742855856e-03 4.843471340465e-02 0.0 
6.918295886849e-03 5.948616881115e-02 0.0 
6.979664527092e-03 3.317137879043e-02 0.0 
1.410035970524e-02 1.029652709275e-01 0.0 
9.801382638856e-04 6.898832217930e-02 0.0 
8.139352750264e-03 1.083324659350e-01 0.0 
3.440081710675e-03 1.624604991879e-02 0.0 
1.354397557743e-02 6.144348512649e-02 0.0 
1.831028124193e-05 6.657333232099e-02 0.0 
1.538588219035e-02 4.352354533521e-02 0.0 
3.000106707291e-02 8.234462348772e-02 0.0 
2.139214068274e-02 1.323168286177e-01 0.0 
2.979312397839e-03 3.562376018648e-02 0.0 
2.563404074158e-02 5.556002460091e-02 0.0 
9.956685984192e-03 2.421300647212e-02 0.0 
1.436735898437e-02 3.766808530473e-02 0.0 
-3.319433567899e-06 6.629559574004e-02 0.0 
2.172031662745e-03 2.398450659721e-02 0.0 
2.120870952479e-02 4.946259962509e-02 0.0 
5.614630251018e-03 4.482418959894e-02 0.0 
2.395299014489e-02 5.018697097491e-02 0.0 
1.674561434795e-02 4.888798569530e-02 0.0 
9.169092025340e-03 5.372219749207e-02 0.0 
8.257852606333e-03 4.285194568615e-02 0.0 
1.415972211307e-02 2.798619973467e-02 0.0 
2.924716058719e-02 9.960265487550e-02 0.0 
2.828412224249e-02 6.724147282738e-02 0.0 
2.481082345194e-02 6.734962167650e-02 0.0 
2.803409691689e-02 6.192098428339e-02 0.0 
1.865334407713e-04 3.942113970420e-02 0.0 
2.967178732126e-03 2.613905401265e-02 0.0 
4.218219667838e-03 3.967878121451e-02 0.0 
2.656804347255e-02 8.100864701846e-02 0.0 
1.353828549903e-02 8.918910403586e-02 0.0 
1.705730555425e-02 3.040646018727e-02 0.0 
3.990301438438e-03 2.978335087208e-02 0.0 
2.956876504789e-02 8.902638586210e-02 0.0 
1.902293264434e-03 2.732547577363e-02 0.0 
7.254617352947e-03 3.955632860833e-02 0.0 
1.957705932337e-03 4.848693941703e-02 0.0 
8.847679924274e-05 7.166746747126e-02 0.0 
1.052141551742e-02 5.413205131489e-02 0.0 
1.465012134256e-02 4.929074931760e-02 0.0 
2.455353015713e-02 5.467952119865e-02 0.0 
2.209021769036e-03 4.512225700100e-02 0.0 
7.625527148948e-03 2.558355260033e-02 0.0 
1.348659490084e-03 2.515542232369e-02 0.0 
7.049555252003e-03 2.922134291175e-02 0.0 
9.944560970480e-04 7.149600456545e-02 0.0 
2.363925454125e-02 1.238754545487e-01 0.0 
9.151174160467e-04 2.280202422953e-02 0.0 
1.343828748520e-02 4.165563867409e-02 0.0 
1.192433405239e-02 2.472791585121e-02 0.0 
8.194979661227e-05 5.131697364328e-02 0.0 
1.009653478379e-02 1.689666428071e-02 0.0 
2.459621926716e-02 1.257399526822e-01 0.0 
5.871330148755e-04 2.027386069063e-02 0.0 
9.350488675691e-03 2.906873240178e-02 0.0 
2.255408607048e-02 6.569031686970e-02 0.0 
2.665964257180e-03 1.319076618914e-01 0.0 
3.355502916138e-04 1.274484563662e-02 0.0 
7.891913551405e-03 2.387566202656e-02 0.0 
2.658106893579e-02 5.547164823338e-02 0.0 
1.162106991366e-02 4.249505363069e-02 0.0 
2.224937971938e-02 1.368469458811e-01 0.0 
1.730132835214e-03 4.421115462678e-02 0.0 
2.732833411504e-02 6.566467174071e-02 0.0 
2.895399640781e-03 1.197503438054e-02 0.0 
8.058250049173e-03 2.147380695038e-02 0.0 
2.004002864031e-02 8.053521465457e-02 0.0 
1.215386778499e-03 4.705766879384e-02 0.0 
2.103635043745e-02 4.130576694452e-02 0.0 
1.081406187541e-03 7.284998984073e-02 0.0 
2.472574116734e-02 1.270709824812e-01 0.0 
9.255190087027e-04 4.597820051458e-02 0.0 
1.297246025790e-02 4.749842793822e-02 0.0 
9.938057461521e-03 4.137982137992e-02 0.0 
9.079535456451e-03 1.570395149968e-02 0.0 
6.873451592886e-04 4.464899718886e-02 0.0 
1.411214146403e-02 4.752295348600e-02 0.0 
4.931518519256e-04 4.309264944935e-02 0.0 
2.201936131391e-02 1.367836522972e-01 0.0 
2.056389302832e-02 7.295271267714e-02 0.0 
3.298241211026e-04 4.133086520271e-02 0.0 
2.515895223097e-02 5.656655123122e-02 0.0 
1.406220212867e-03 7.081072750031e-02 0.0 
2.497647912454e-02 4.990769220066e-02 0.0 
1.231453606583e-04 2.182115389679e-02 0.0 
1.642064224842e-03 5.300706982633e-02 0.0 
8.413736947336e-03 4.036934592355e-02 0.0 
1.846378684263e-02 6.010410079762e-02 0.0 
2.017986429400e-02 1.335349494387e-01 0.0 
8.264550973331e-03 3.728502148148e-02 0.0 
2.232423686387e-02 4.716660730527e-02 0.0 
2.314058203033e-02 4.483581483618e-02 0.0 
2.386223062406e-02 5.074766383209e-02 0.0 
7.806186754184e-03 3.357065541760e-02 0.0 
2.288624203203e-02 1.211917995293e-01 0.0 
-1.200154849090e-04 6.027360287464e-02 0.0 
-2.399201209502e-04 6.168968992543e-02 0.0 
1.237260493109e-02 4.628321925991e-02 0.0 
2.031889872284e-02 4.344110064298e-02 0.0 
4.431203746430e-04 7.288726812015e-02 0.0 
2.066263990456e-02 5.862066986407e-02 0.0 
-1.534550172028e-04 6.111984981094e-02 0.0 
9.789841078415e-03 4.611432275303e-02 0.0 
1.827765261723e-02 3.340149287036e-02 0.0 
7.733170195483e-04 9.595826398613e-02 0.0 
8.370429112911e-03 4.606538910094e-02 0.0 
3.114549992382e-05 6.979148867212e-02 0.0 
6.117806986436e-03 4.707031577107e-02 0.0 
2.268546379549e-02 4.627007532394e-02 0.0 
5.150000737794e-03 4.770698558312e-02 0.0 
3.407507335969e-03 4.963172879428e-02 0.0 
1.995122887195e-03 2.734234601754e-02 0.0 
2.844904607547e-03 5.048464747329e-02 0.0 
2.704527250181e-04 1.301500777626e-02 0.0 
2.540405765379e-05 6.834100996813e-03 0.0 
1.006531273855e-03 1.222271613150e-01 0.0 
1.669727589839e-02 1.284939447694e-01 0.0 
-2.464145173638e-03 2.680952684606e-02 0.0 
2.026324750082e-02 1.122281414589e-01 0.0 
9.031982978966e-04 5.451871348744e-02 0.0 
2.244606022559e-02 5.659516733005e-02 0.0 
2.091577480608e-03 1.216357745645e-01 0.0 
2.084228854434e-04 5.733377689517e-02 0.0 
9.523011715535e-03 2.138116086797e-02 0.0 
4.907768818400e-03 7.762036320090e-03 0.0 
1.401421205893e-03 7.469741548229e-02 0.0 
9.928097606394e-03 2.193716182429e-02 0.0 
2.102658333959e-02 3.997208706881e-02 0.0 
4.050098976278e-04 3.986619203609e-02 0.0 
6.154584482958e-03 1.328734508204e-01 0.0 
2.405637787296e-03 6.199154391591e-02 0.0 
8.930613811948e-05 3.672389504461e-02 0.0 
1.312802798299e-02 1.187168511810e-01 0.0 
1.574901809861e-02 1.021920451626e-01 0.0 
1.192756075409e-02 8.816694657247e-02 0.0 
-9.949083763290e-06 6.599076306906e-02 0.0 
-7.418258403881e-04 5.119287337687e-02 0.0 
1.053262073869e-02 1.055114492399e-01 0.0 
6.532397664331e-03 1.323327893980e-02 0.0 
1.038061588502e-02 1.209776597874e-01 0.0 
1.773744118529e-02 3.165969196268e-02 0.0 
6.275926005941e-03 9.014389678090e-02 0.0 
5.035994113465e-03 2.577967959921e-02 0.0 
9.285821650855e-03 1.533177422691e-02 0.0 
5.021681387539e-04 5.783129154530e-03 0.0 
1.390476940939e-02 2.387561845664e-02 0.0 
7.151904500219e-03 7.109389271699e-02 0.0 
1.548749718512e-02 1.076840624146e-01 0.0 
1.015201294639e-02 1.805401077505e-02 0.0 
1.903007890008e-03 6.320850850668e-02 0.0 
2.555532318849e-04 5.617285915469e-03 0.0 
1.305479373590e-02 1.213654677832e-01 0.0 
1.208547665236e-03 2.555004838711e-02 0.0 
1.424059812717e-03 3.854058514008e-02 0.0 
6.095465252418e-04 2.481304238835e-02 0.0 
1.928235138278e-02 4.530926036195e-02 0.0 
4.290953153072e-03 1.057280944654e-01 0.0 
1.862056332528e-02 1.058224093103e-01 0.0 
9.573302034604e-05 1.180059956675e-02 0.0 
8.590168001587e-03 2.282017540620e-02 0.0 
4.295207096138e-03 6.020136805219e-02 0.0 
2.198473635463e-03 7.613323610800e-02 0.0 
4.124648206551e-05 6.062256934177e-02 0.0 
-9.554817282953e-04 3.028183387743e-02 0.0 
1.648115023245e-03 1.179330889656e-02 0.0 
1.552811175663e-02 3.415669726691e-02 0.0 
2.169590493964e-04 1.195084128449e-02 0.0 
2.248669719076e-04 7.415344694730e-02 0.0 
2.868216946951e-03 6.718524350888e-02 0.0 
2.307669957863e-03 1.086314873051e-02 0.0 
9.398266884141e-03 1.845157749258e-02 0.0 
4.559839774571e-04 4.270921440244e-02 0.0 
1.685497904062e-03 1.038018575756e-02 0.0 
-2.108663275325e-04 5.008767246731e-02 0.0 
8.358779723976e-03 1.340831710432e-01 0.0 
2.444844886280e-03 7.095140486419e-02 0.0 
1.582264490471e-04 5.729892325905e-03 0.0 
2.949366910585e-03 2.432801279632e-02 0.0 
5.301474603936e-05 5.832405137189e-02 0.0 
1.827431984325e-02 1.253243831691e-01 0.0 
2.041508218953e-05 6.803844674069e-02 0.0 
1.339339418341e-02 2.292994776272e-02 0.0 
7.267988461417e-04 5.950895274722e-02 0.0 
1.996094616516e-03 2.304947662751e-02 0.0 
3.271166428583e-03 1.066533164401e-02 0.0 
6.061462694617e-03 2.196149802118e-02 0.0 
2.967542063040e-03 5.237779489397e-03 0.0 
-2.277245597041e-04 3.309945506081e-02 0.0 
8.380396497472e-03 1.364539203358e-02 0.0 
6.310006466009e-03 1.662553523989e-02 0.0 
4.634162627953e-03 1.334192653127e-01 0.0 
7.565137668651e-03 2.293236378037e-02 0.0 
-1.201744061481e-05 6.385625159553e-02 0.0 
8.743308457034e-04 7.094751113857e-02 0.0 
1.158654835263e-04 1.153507060741e-02 0.0 
4.963908435682e-04 7.470076154423e-02 0.0 
7.822098942165e-04 1.333474813065e-01 0.0 
1.144948795091e-05 5.583954305137e-03 0.0 
6.701815003891e-04 7.261833621466e-02 0.0 
1.662016818075e-03 1.126323398332e-01 0.0 
8.821281361909e-03 1.835987177872e-02 0.0 
3.301380237714e-05 5.071513730969e-02 0.0 
9.405410144048e-04 4.957416079749e-02 0.0 
-1.441568520896e-03 4.848005676688e-02 0.0 
-9.816427741371e-04 2.519173359258e-02 0.0 
1.337013311872e-03 8.906098849938e-02 0.0 
7.940588876710e-03 1.330908052569e-02 0.0 
4.707222067652e-03 2.141809174145e-02 0.0 
3.446369345191e-03 9.834496656776e-02 0.0 
7.612424973082e-03 5.481741016800e-02 0.0 
1.221170484964e-02 2.565927358005e-02 0.0 
9.876683509527e-05 5.554558935101e-02 0.0 
1.351152082964e-02 2.440016105552e-02 0.0 
7.995084860585e-03 1.731473784970e-02 0.0 
-5.425241132656e-03 5.196101739726e-02 0.0 
4.349071556779e-05 4.636935604130e-02 0.0 
2.755631761375e-03 6.976981996883e-02 0.0 
7.691553324335e-04 1.067698541571e-02 0.0 
7.083711252726e-05 5.409867356092e-02 0.0 
1.803293654238e-02 1.496640133754e-01 0.0 
5.357228132186e-04 1.605735154549e-01 0.0 
1.801338522202e-02 1.427167181267e-01 0.0 
5.338169477999e-04 1.486364166709e-01 0.0 

TENSORS node_materi_stress float
2.006205237265e-01 -1.480170932391e-01 0.0 
-1.480170932391e-01 -8.533586137928e+00 0.0 
0.0 0.0 -1.245119558330e+00 
-3.241884506919e+01 4.161368721303e-01 0.0 
4.161368721303e-01 -3.981748916462e+01 0.0 
0.0 0.0 -2.127090027014e+01 
-1.663114237760e+02 -2.204870370680e-01 0.0 
-2.204870370680e-01 -3.902240625987e+02 0.0 
0.0 0.0 -1.665606459124e+02 
-9.987910772434e+01 8.781808110778e-01 0.0 
8.781808110778e-01 -2.314862581301e+02 0.0 
0.0 0.0 -9.900960975633e+01 
-3.171351924158e+00 -3.586900548619e-01 0.0 
-3.586900548619e-01 -2.085907915597e+01 0.0 
0.0 0.0 -6.235529532697e+00 
-1.089754015820e+01 -6.486378387477e-01 0.0 
-6.486378387477e-01 -4.044606113980e+01 0.0 
0.0 0.0 -1.500308038940e+01 
-2.001331579919e+01 -6.234082883480e-01 0.0 
-6.234082883480e-01 -5.880096827197e+01 0.0 
0.0 0.0 -2.324428522135e+01 
-2.976428419231e+01 -6.429504396772e-01 0.0 
-6.429504396772e-01 -7.977538530488e+01 0.0 
0.0 0.0 -3.246190084916e+01 
-3.888271465378e+01 -5.808950073105e-01 0.0 
-5.808950073105e-01 -1.001380302713e+02 0.0 
0.0 0.0 -4.130622347754e+01 
-4.782942169149e+01 -5.874167157749e-01 0.0 
-5.874167157749e-01 -1.203368442197e+02 0.0 
0.0 0.0 -5.004987977337e+01 
-5.642534811545e+01 -6.380994431238e-01 0.0 
-6.380994431238e-01 -1.406101252380e+02 0.0 
0.0 0.0 -5.871064200603e+01 
-6.478082645693e+01 -6.102712063526e-01 0.0 
-6.102712063526e-01 -1.609351511129e+02 0.0 
0.0 0.0 -6.731479327094e+01 
-7.306844473984e+01 -5.970356476966e-01 0.0 
-5.970356476966e-01 -1.812561339964e+02 0.0 
0.0 0.0 -7.589737362088e+01 
-8.130179182401e+01 -6.403683458392e-01 0.0 
-6.403683458392e-01 -2.017525353048e+02 0.0 
0.0 0.0 -8.451629813863e+01 
-8.972224342173e+01 -7.482210523780e-01 0.0 
-7.482210523780e-01 -2.226987901658e+02 0.0 
0.0 0.0 -9.332631007625e+01 
-9.834795396923e+01 -6.908098646594e-01 0.0 
-6.908098646594e-01 -2.428381728399e+02 0.0 
0.0 0.0 -1.019558380427e+02 
-1.063056995884e+02 -8.326342641787e-01 0.0 
-8.326342641787e-01 -2.610551030517e+02 0.0 
0.0 0.0 -1.098082407920e+02 
-1.149154773259e+02 -3.719059742813e-01 0.0 
-3.719059742813e-01 -2.810635797809e+02 0.0 
0.0 0.0 -1.183937171320e+02 
-1.240151015654e+02 -3.000595929812e-01 0.0 
-3.000595929812e-01 -3.014026247922e+02 0.0 
0.0 0.0 -1.272253179073e+02 
-1.330267562680e+02 -2.521989948805e-01 0.0 
-2.521989948805e-01 -3.209969245661e+02 0.0 
0.0 0.0 -1.358071042502e+02 
-1.422124062469e+02 -1.860359298722e-01 0.0 
-1.860359298722e-01 -3.406234001300e+02 0.0 
0.0 0.0 -1.444507419131e+02 
-1.515933984802e+02 -1.969023891426e-01 0.0 
-1.969023891426e-01 -3.603019433335e+02 0.0 
0.0 0.0 -1.531686025441e+02 
-1.606935912794e+02 -2.619798755075e-01 0.0 
-2.619798755075e-01 -3.790283775377e+02 0.0 
0.0 0.0 -1.615165906451e+02 
-1.001587811551e+02 1.298001677769e+00 0.0 
1.298001677769e+00 -2.327182109720e+02 0.0 
0.0 0.0 -9.946309763813e+01 
-9.965109685880e+01 2.337891728215e+00 0.0 
2.337891728215e+00 -2.317387986952e+02 0.0 
0.0 0.0 -9.901696866621e+01 
-9.986454990857e+01 3.725945402380e+00 0.0 
3.725945402380e+00 -2.321526148592e+02 0.0 
0.0 0.0 -9.920514943034e+01 
-9.990760611229e+01 4.557510823900e+00 0.0 
4.557510823900e+00 -2.324137267320e+02 0.0 
0.0 0.0 -9.929639985330e+01 
-1.000515580007e+02 5.934387555588e+00 0.0 
5.934387555588e+00 -2.321638981974e+02 0.0 
0.0 0.0 -9.926463685942e+01 
-1.005466535455e+02 7.326640675732e+00 0.0 
7.326640675732e+00 -2.333196596989e+02 0.0 
0.0 0.0 -9.975989397329e+01 
-1.013625000544e+02 8.876528694315e+00 0.0 
8.876528694315e+00 -2.344482679303e+02 0.0 
0.0 0.0 -1.003432303954e+02 
-1.015166634544e+02 1.064386713587e+01 0.0 
1.064386713587e+01 -2.351518114315e+02 0.0 
0.0 0.0 -1.006005424658e+02 
-1.026080610913e+02 1.253210551839e+01 0.0 
1.253210551839e+01 -2.373041026967e+02 0.0 
0.0 0.0 -1.015736491364e+02 
-1.031435427562e+02 1.413677469668e+01 0.0 
1.413677469668e+01 -2.389205102157e+02 0.0 
0.0 0.0 -1.022192158916e+02 
-1.041839259959e+02 1.622436832177e+01 0.0 
1.622436832177e+01 -2.403697120206e+02 0.0 
0.0 0.0 -1.029660914050e+02 
-1.054401778245e+02 1.843043133234e+01 0.0 
1.843043133234e+01 -2.435768103423e+02 0.0 
0.0 0.0 -1.043050964500e+02 
-1.074434165985e+02 2.070301010986e+01 0.0 
2.070301010986e+01 -2.475000464215e+02 0.0 
0.0 0.0 -1.060830389060e+02 
-1.085561107259e+02 2.296095548816e+01 0.0 
2.296095548816e+01 -2.508291496889e+02 0.0 
0.0 0.0 -1.074155781244e+02 
-1.106676293166e+02 2.522384458458e+01 0.0 
2.522384458458e+01 -2.550360646484e+02 0.0 
0.0 0.0 -1.093111081895e+02 
-1.122048614631e+02 2.723320730650e+01 0.0 
2.723320730650e+01 -2.594368237045e+02 0.0 
0.0 0.0 -1.110925055503e+02 
-1.147638425210e+02 2.935969513618e+01 0.0 
2.935969513618e+01 -2.652897107463e+02 0.0 
0.0 0.0 -1.136160659802e+02 
-1.181030339808e+02 3.135706076363e+01 0.0 
3.135706076363e+01 -2.729746511800e+02 0.0 
0.0 0.0 -1.169233055483e+02 
-1.209589108243e+02 3.305231163613e+01 0.0 
3.305231163613e+01 -2.806071214837e+02 0.0 
0.0 0.0 -1.200698096924e+02 
-1.240236202918e+02 3.442879547574e+01 0.0 
3.442879547574e+01 -2.886434852685e+02 0.0 
0.0 0.0 -1.234001316681e+02 
-1.270024092405e+02 3.528045823621e+01 0.0 
3.528045823621e+01 -2.965985747631e+02 0.0 
0.0 0.0 -1.266802952011e+02 
-1.304211428299e+02 3.594575735611e+01 0.0 
3.594575735611e+01 -3.047329112189e+02 0.0 
0.0 0.0 -1.301462162146e+02 
-1.335642584154e+02 3.610393919459e+01 0.0 
3.610393919459e+01 -3.130832196788e+02 0.0 
0.0 0.0 -1.335942434282e+02 
-1.368142037061e+02 3.588471307645e+01 0.0 
3.588471307645e+01 -3.213513371062e+02 0.0 
0.0 0.0 -1.370496622437e+02 
-1.401465847015e+02 3.529116741123e+01 0.0 
3.529116741123e+01 -3.297018678066e+02 0.0 
0.0 0.0 -1.405545357524e+02 
-1.434353647934e+02 3.442234740003e+01 0.0 
3.442234740003e+01 -3.378124852670e+02 0.0 
0.0 0.0 -1.439743550181e+02 
-1.463909266571e+02 3.313865240157e+01 0.0 
3.313865240157e+01 -3.454152385962e+02 0.0 
0.0 0.0 -1.471418495760e+02 
-1.492060847574e+02 3.157027986712e+01 0.0 
3.157027986712e+01 -3.524279179284e+02 0.0 
0.0 0.0 -1.500902008057e+02 
-1.516784361788e+02 2.972143474156e+01 0.0 
2.972143474156e+01 -3.586998915950e+02 0.0 
0.0 0.0 -1.527134983322e+02 
-1.546114408533e+02 2.793847279656e+01 0.0 
2.793847279656e+01 -3.650907477522e+02 0.0 
0.0 0.0 -1.555106565817e+02 
-1.563864111184e+02 2.547383524801e+01 0.0 
2.547383524801e+01 -3.702492661253e+02 0.0 
0.0 0.0 -1.575907031731e+02 
-1.578411782717e+02 2.335399591774e+01 0.0 
2.335399591774e+01 -3.740057009544e+02 0.0 
0.0 0.0 -1.591540637678e+02 
-1.597135851047e+02 2.094450433891e+01 0.0 
2.094450433891e+01 -3.782310491140e+02 0.0 
0.0 0.0 -1.609833902656e+02 
-1.612651810522e+02 1.872334115679e+01 0.0 
1.872334115679e+01 -3.817265871173e+02 0.0 
0.0 0.0 -1.624975304508e+02 
-1.625703856024e+02 1.649850134380e+01 0.0 
1.649850134380e+01 -3.846559000925e+02 0.0 
0.0 0.0 -1.637678857085e+02 
-1.637263934316e+02 1.438486460630e+01 0.0 
1.438486460630e+01 -3.869437249370e+02 0.0 
0.0 0.0 -1.648010355106e+02 
-1.644787333731e+02 1.240170332751e+01 0.0 
1.240170332751e+01 -3.886290205698e+02 0.0 
0.0 0.0 -1.655323261829e+02 
-1.650656435044e+02 1.051376908295e+01 0.0 
1.051376908295e+01 -3.896949302675e+02 0.0 
0.0 0.0 -1.660281721316e+02 
-1.653732167625e+02 8.894709247316e+00 0.0 
8.894709247316e+00 -3.902640171835e+02 0.0 
0.0 0.0 -1.662911701838e+02 
-1.655347952213e+02 7.323791246237e+00 0.0 
7.323791246237e+00 -3.904515652019e+02 0.0 
0.0 0.0 -1.663959081270e+02 
-1.660122593656e+02 6.136547833769e+00 0.0 
6.136547833769e+00 -3.910599488326e+02 0.0 
0.0 0.0 -1.667216624595e+02 
-1.666681604538e+02 4.899227776741e+00 0.0 
4.899227776741e+00 -3.919874157338e+02 0.0 
0.0 0.0 -1.671966728563e+02 
-1.669158166870e+02 4.046567825796e+00 0.0 
4.046567825796e+00 -3.922397475540e+02 0.0 
0.0 0.0 -1.673466692723e+02 
-1.655668520692e+02 3.108965320163e+00 0.0 
3.108965320163e+00 -3.897201188798e+02 0.0 
0.0 0.0 -1.661860912847e+02 
-1.667851512463e+02 2.308554801736e+00 0.0 
2.308554801736e+00 -3.915398255951e+02 0.0 
0.0 0.0 -1.670974930524e+02 
-1.662994538193e+02 1.740428849686e+00 0.0 
1.740428849686e+00 -3.905847794618e+02 0.0 
0.0 0.0 -1.666652699843e+02 
-1.665805661230e+02 1.435040678909e+00 0.0 
1.435040678909e+00 -3.909446295948e+02 0.0 
0.0 0.0 -1.668575587154e+02 
-1.668663071394e+02 7.480012542079e-01 0.0 
7.480012542079e-01 -3.914531707618e+02 0.0 
0.0 0.0 -1.670958433704e+02 
-1.667763496242e+02 4.489439850127e-01 0.0 
4.489439850127e-01 -3.912765317883e+02 0.0 
0.0 0.0 -1.670158644237e+02 
-4.085326384096e+01 3.120134917756e-01 0.0 
3.120134917756e-01 -5.960691185343e+01 0.0 
0.0 0.0 -2.973805270832e+01 
-4.870116366453e+01 3.918635375523e-01 0.0 
3.918635375523e-01 -7.936945549499e+01 0.0 
0.0 0.0 -3.802118574786e+01 
-5.647206326980e+01 4.211090909773e-01 0.0 
4.211090909773e-01 -9.905089740198e+01 0.0 
0.0 0.0 -4.625688820153e+01 
-6.377136385834e+01 4.993344557478e-01 0.0 
4.993344557478e-01 -1.184377707866e+02 0.0 
0.0 0.0 -5.426274039349e+01 
-7.095566468243e+01 5.038997204479e-01 0.0 
5.038997204479e-01 -1.383972196261e+02 0.0 
0.0 0.0 -6.240586529257e+01 
-7.812426122093e+01 5.990904098446e-01 0.0 
5.990904098446e-01 -1.586030585695e+02 0.0 
0.0 0.0 -7.061819593714e+01 
-8.462278285927e+01 5.971423134292e-01 0.0 
5.971423134292e-01 -1.786856466858e+02 0.0 
0.0 0.0 -7.859252886353e+01 
-9.070119296349e+01 7.288935422505e-01 0.0 
7.288935422505e-01 -1.986861849615e+02 0.0 
0.0 0.0 -8.641621337751e+01 
-9.711310108775e+01 8.000659004950e-01 0.0 
8.000659004950e-01 -2.195411932050e+02 0.0 
0.0 0.0 -9.459628828782e+01 
-6.161963618248e+01 2.885024481732e+01 0.0 
2.885024481732e+01 -6.960275871674e+01 0.0 
0.0 0.0 -3.979010262567e+01 
-4.421278040511e+01 6.009754546823e+00 0.0 
6.009754546823e+00 -4.343803034758e+01 0.0 
0.0 0.0 -2.589524322581e+01 
-4.422258302064e+01 3.128408834886e+01 0.0 
3.128408834886e+01 -2.984429170455e+01 0.0 
0.0 0.0 -2.190039060663e+01 
-4.080372769858e+01 2.815806306804e+01 0.0 
2.815806306804e+01 -2.841527326518e+01 0.0 
0.0 0.0 -1.905771190800e+01 
-3.875720350732e+01 2.649586650296e+01 0.0 
2.649586650296e+01 -2.697735361045e+01 0.0 
0.0 0.0 -1.857313340843e+01 
-3.556910152952e+01 2.460903828416e+01 0.0 
2.460903828416e+01 -2.487989383769e+01 0.0 
0.0 0.0 -1.773469861016e+01 
-3.357644067862e+01 2.313867758421e+01 0.0 
2.313867758421e+01 -2.443201892804e+01 0.0 
0.0 0.0 -1.700253788200e+01 
-3.249196766629e+01 2.219498927811e+01 0.0 
2.219498927811e+01 -2.411959611074e+01 0.0 
0.0 0.0 -1.658346913311e+01 
-3.354761070325e+01 2.148205583478e+01 0.0 
2.148205583478e+01 -2.380917954800e+01 0.0 
0.0 0.0 -1.680703707537e+01 
-3.985198001546e+01 1.514406456005e+01 0.0 
1.514406456005e+01 -1.984492260424e+01 0.0 
0.0 0.0 -1.750907078591e+01 
-3.621522049661e+01 7.629593714844e+00 0.0 
7.629593714844e+00 -2.299735331050e+01 0.0 
0.0 0.0 -1.736377214213e+01 
-2.007482559188e+01 8.106709112650e-01 0.0 
8.106709112650e-01 -7.314367039508e+00 0.0 
0.0 0.0 -7.816757789417e+00 
-2.441350250918e+01 5.521747138614e-01 0.0 
5.521747138614e-01 -1.953417705015e+01 0.0 
0.0 0.0 -1.278430386780e+01 
-3.159261508262e+01 -2.481870467603e-01 0.0 
-2.481870467603e-01 -3.715065595722e+01 0.0 
0.0 0.0 -2.022298131195e+01 
-3.221222440559e+01 -3.757386756992e-02 0.0 
-3.757386756992e-02 -3.828565974069e+01 0.0 
0.0 0.0 -2.074936524388e+01 
-3.222189394969e+01 -4.525605248106e-02 0.0 
-4.525605248106e-02 -3.833031151117e+01 0.0 
0.0 0.0 -2.076566163826e+01 
-3.227921006249e+01 -2.123567277474e-02 0.0 
-2.123567277474e-02 -3.812101299318e+01 0.0 
0.0 0.0 -2.072006691670e+01 
-3.368581976407e+01 -4.532020372397e-02 0.0 
-4.532020372397e-02 -4.075764911184e+01 0.0 
0.0 0.0 -2.193304066277e+01 
-3.280886946195e+01 -1.107205785859e-01 0.0 
-1.107205785859e-01 -3.841407603101e+01 0.0 
0.0 0.0 -2.096688364789e+01 
-3.313648710200e+01 -6.050290309727e-02 0.0 
-6.050290309727e-02 -3.825411064373e+01 0.0 
0.0 0.0 -2.101717932372e+01 
-3.347099534466e+01 -1.145191787251e-01 0.0 
-1.145191787251e-01 -3.845827216130e+01 0.0 
0.0 0.0 -2.117878025179e+01 
-3.408937829246e+01 2.795450962568e-02 0.0 
2.795450962568e-02 -3.893923930984e+01 0.0 
0.0 0.0 -2.150858528069e+01 
-3.468033812973e+01 1.557191330262e-01 0.0 
1.557191330262e-01 -3.896911906658e+01 0.0 
0.0 0.0 -2.169483715889e+01 
-3.556432293560e+01 5.186672863999e-01 0.0 
5.186672863999e-01 -3.907547689285e+01 0.0 
0.0 0.0 -2.199193994853e+01 
-3.662908074473e+01 1.079254506012e+00 0.0 
1.079254506012e+00 -3.928504169583e+01 0.0 
0.0 0.0 -2.237423673217e+01 
-3.827003157082e+01 1.948257587791e+00 0.0 
1.948257587791e+00 -3.988378916159e+01 0.0 
0.0 0.0 -2.304614621972e+01 
-4.040723522635e+01 3.392904241622e+00 0.0 
3.392904241622e+00 -4.095231288399e+01 0.0 
0.0 0.0 -2.400786443310e+01 
-8.463453181100e+01 1.387283464493e+01 0.0 
1.387283464493e+01 -9.661938179725e+01 0.0 
0.0 0.0 -5.473730709904e+01 
-1.000368458452e+02 2.436977304014e+00 0.0 
2.436977304014e+00 -1.044508556304e+02 0.0 
0.0 0.0 -6.171338523120e+01 
-1.041733111925e+02 -2.762385002165e+00 0.0 
-2.762385002165e+00 -1.040967248834e+02 0.0 
0.0 0.0 -6.281518117157e+01 
-9.284461464475e+01 -1.043679684251e+01 0.0 
-1.043679684251e+01 -9.586298899744e+01 0.0 
0.0 0.0 -5.694589865746e+01 
-6.046708814377e+01 -1.960189902895e+01 0.0 
-1.960189902895e+01 -5.781539837640e+01 0.0 
0.0 0.0 -3.576195848058e+01 
-3.126080145942e+01 -1.274075363496e+01 0.0 
-1.274075363496e+01 -1.947402713408e+01 0.0 
0.0 0.0 -1.507150126345e+01 
-1.642141336336e+01 -3.229035261792e+00 0.0 
-3.229035261792e+00 -1.015099676468e+01 0.0 
0.0 0.0 -7.692197646515e+00 
-1.062529584335e+01 -1.002216790330e+00 0.0 
-1.002216790330e+00 -8.519165094666e+00 0.0 
0.0 0.0 -4.914446755693e+00 
-7.523800312923e+00 -6.495280715687e-01 0.0 
-6.495280715687e-01 -8.095383952688e+00 0.0 
0.0 0.0 -3.296118385728e+00 
-5.325365897025e+00 -4.988160239265e-01 0.0 
-4.988160239265e-01 -8.269342504263e+00 0.0 
0.0 0.0 -3.175763832145e+00 
-3.998129888832e+00 -2.280842872440e-01 0.0 
-2.280842872440e-01 -8.321978630177e+00 0.0 
0.0 0.0 -3.049571252139e+00 
-3.248549161716e+00 -3.255694010188e-01 0.0 
-3.255694010188e-01 -8.776391124784e+00 0.0 
0.0 0.0 -2.687140972890e+00 
-2.451765410228e+00 -3.195681557593e-01 0.0 
-3.195681557593e-01 -8.521832515186e+00 0.0 
0.0 0.0 -2.333934394073e+00 
-1.587923322912e+00 -3.443677553830e-01 0.0 
-3.443677553830e-01 -7.795259625849e+00 0.0 
0.0 0.0 -1.923643263009e+00 
-8.412580108813e-01 -3.262992600855e-01 0.0 
-3.262992600855e-01 -7.969953396695e+00 0.0 
0.0 0.0 -1.746972263188e+00 
-2.441044799931e-01 -3.001056663497e-01 0.0 
-3.001056663497e-01 -8.241032727878e+00 0.0 
0.0 0.0 -1.578870388606e+00 
2.660922941874e-01 -2.052683652056e-01 0.0 
-2.052683652056e-01 -8.292159106574e+00 0.0 
0.0 0.0 -1.432441438824e+00 
5.393250564870e-01 -1.793748518031e-01 0.0 
-1.793748518031e-01 -7.904618754556e+00 0.0 
0.0 0.0 -1.204362642303e+00 
6.005686844440e-01 -1.454922977845e-02 0.0 
-1.454922977845e-02 -7.294753765833e+00 0.0 
0.0 0.0 -9.829784056371e-01 
-2.005261695081e+01 -1.896450091251e-01 0.0 
-1.896450091251e-01 -9.533808683553e+00 0.0 
0.0 0.0 -8.475927690309e+00 
-1.988608646102e+01 2.270666601472e-02 0.0 
2.270666601472e-02 -9.719016998313e+00 0.0 
0.0 0.0 -8.481531037799e+00 
-1.986025517190e+01 -3.835147197181e-02 0.0 
-3.835147197181e-02 -9.658870229921e+00 0.0 
0.0 0.0 -8.455737620546e+00 
-1.977421933832e+01 -9.691304676983e-02 0.0 
-9.691304676983e-02 -9.666358226832e+00 0.0 
0.0 0.0 -8.432173269546e+00 
-1.965211396396e+01 -1.549624942531e-01 0.0 
-1.549624942531e-01 -9.647233436572e+00 0.0 
0.0 0.0 -8.389804220158e+00 
-1.942061779794e+01 -2.183183730556e-01 0.0 
-2.183183730556e-01 -9.635023784861e+00 0.0 
0.0 0.0 -8.316692474840e+00 
-1.914479723282e+01 -2.732244571564e-01 0.0 
-2.732244571564e-01 -9.635731999462e+00 0.0 
0.0 0.0 -8.234158769683e+00 
-1.881029221304e+01 -2.934450327318e-01 0.0 
-2.934450327318e-01 -9.608634192625e+00 0.0 
0.0 0.0 -8.125677921701e+00 
-1.846694788290e+01 -3.669403383551e-01 0.0 
-3.669403383551e-01 -9.569983280765e+00 0.0 
0.0 0.0 -8.011079349101e+00 
-1.803843351596e+01 -4.192193682360e-01 0.0 
-4.192193682360e-01 -9.585076827472e+00 0.0 
0.0 0.0 -7.887053103030e+00 
-1.766310388362e+01 -3.965762138892e-01 0.0 
-3.965762138892e-01 -9.584398676888e+00 0.0 
0.0 0.0 -7.774250768152e+00 
-1.745077150677e+01 -3.340944660012e-01 0.0 
-3.340944660012e-01 -9.582320149143e+00 0.0 
0.0 0.0 -7.709927496772e+00 
-1.747665580772e+01 -1.789450432236e-01 0.0 
-1.789450432236e-01 -9.645213002477e+00 0.0 
0.0 0.0 -7.736560643059e+00 
-1.799774228296e+01 1.664260788167e-01 0.0 
1.664260788167e-01 -9.710245230437e+00 0.0 
0.0 0.0 -7.912396254020e+00 
-1.941064532243e+01 8.502665549275e-01 0.0 
8.502665549275e-01 -1.022168067435e+01 0.0 
0.0 0.0 -8.489697799033e+00 
-2.261352843266e+01 2.671687829668e+00 0.0 
2.671687829668e+00 -1.015071604458e+01 0.0 
0.0 0.0 -9.429273343170e+00 
-2.852566215781e+01 4.707825304868e+00 0.0 
4.707825304868e+00 -5.380726999745e+00 0.0 
0.0 0.0 -9.684469490099e+00 
-2.977134016100e+01 3.370445557717e+00 0.0 
3.370445557717e+00 -1.865806846993e+01 0.0 
0.0 0.0 -1.412882258928e+01 
-2.894760391004e+01 2.197172979057e+00 0.0 
2.197172979057e+00 -2.198440773181e+01 0.0 
0.0 0.0 -1.487960349255e+01 
-2.627002012096e+01 8.998596783142e-01 0.0 
8.998596783142e-01 -2.030055399868e+01 0.0 
0.0 0.0 -1.357117223589e+01 
-2.520635020317e+01 3.389688005334e-01 0.0 
3.389688005334e-01 -1.996378426183e+01 0.0 
0.0 0.0 -1.315104033950e+01 
-2.457288466910e+01 4.527927648750e-02 0.0 
4.527927648750e-02 -1.981393615647e+01 0.0 
0.0 0.0 -1.291604624767e+01 
-2.423936787777e+01 -1.527083564999e-01 0.0 
-1.527083564999e-01 -1.974092482754e+01 0.0 
0.0 0.0 -1.279408781159e+01 
-2.409563241856e+01 -2.504042077721e-01 0.0 
-2.504042077721e-01 -1.962222878843e+01 0.0 
0.0 0.0 -1.271535836210e+01 
-2.404763148714e+01 -2.206801603723e-01 0.0 
-2.206801603723e-01 -1.956942212207e+01 0.0 
0.0 0.0 -1.268511608276e+01 
-2.412225143680e+01 -2.279241834670e-01 0.0 
-2.279241834670e-01 -1.961723994753e+01 0.0 
0.0 0.0 -1.272184741530e+01 
-2.411551128668e+01 -2.013862997834e-01 0.0 
-2.013862997834e-01 -1.957892392222e+01 0.0 
0.0 0.0 -1.270833056267e+01 
-2.414540190919e+01 -1.759718240352e-01 0.0 
-1.759718240352e-01 -1.956263951021e+01 0.0 
0.0 0.0 -1.271241242582e+01 
-2.418165498544e+01 -1.011101312679e-01 0.0 
-1.011101312679e-01 -1.956565878525e+01 0.0 
0.0 0.0 -1.272419413121e+01 
-2.416822462700e+01 -8.226497206065e-02 0.0 
-8.226497206065e-02 -1.958220992754e+01 0.0 
0.0 0.0 -1.272513036636e+01 
-2.416129538576e+01 1.605999714914e-03 0.0 
1.605999714914e-03 -1.950712613392e+01 0.0 
0.0 0.0 -1.270052645590e+01 
-2.419403484019e+01 1.498878019734e-01 0.0 
1.498878019734e-01 -1.960982324720e+01 0.0 
0.0 0.0 -1.274115742622e+01 
-2.432913660852e+01 -4.238990453183e-01 0.0 
-4.238990453183e-01 -1.976836100418e+01 0.0 
0.0 0.0 -1.282924928381e+01 
-4.712687984213e+01 3.531418404176e+01 0.0 
3.531418404176e+01 -3.938016378808e+01 0.0 
0.0 0.0 -2.645790334869e+01 
-4.216272724620e+01 2.948006778031e+01 0.0 
2.948006778031e+01 -2.916274559045e+01 0.0 
0.0 0.0 -2.040678675191e+01 
-3.965289848729e+01 2.708741124282e+01 0.0 
2.708741124282e+01 -2.758464677745e+01 0.0 
0.0 0.0 -1.826022431611e+01 
-3.750334324473e+01 2.564488725544e+01 0.0 
2.564488725544e+01 -2.654002911809e+01 0.0 
0.0 0.0 -1.870618092479e+01 
-3.546371108744e+01 2.469226326368e+01 0.0 
2.469226326368e+01 -2.536362543808e+01 0.0 
0.0 0.0 -1.784820095766e+01 
-3.327996732971e+01 2.320183187886e+01 0.0 
2.320183187886e+01 -2.446684613583e+01 0.0 
0.0 0.0 -1.692404403966e+01 
-3.237580585818e+01 2.178320910418e+01 0.0 
2.178320910418e+01 -2.394493735881e+01 0.0 
0.0 0.0 -1.649622296510e+01 
-3.766863190560e+01 2.093657267398e+01 0.0 
2.093657267398e+01 -2.361450243982e+01 0.0 
0.0 0.0 -1.798494030363e+01 
-3.714063280686e+01 9.681372583114e+00 0.0 
9.681372583114e+00 -1.644395263862e+01 0.0 
0.0 0.0 -1.563165200506e+01 
-4.133788409715e+01 6.850892858770e+00 0.0 
6.850892858770e+00 -3.460152517107e+01 0.0 
0.0 0.0 -2.238182278047e+01 
-4.189022775143e+01 2.978480951366e+01 0.0 
2.978480951366e+01 -3.950703093829e+01 0.0 
0.0 0.0 -2.292327006934e+01 
-1.537242055857e+02 1.933228861615e+01 0.0 
1.933228861615e+01 -3.722918479726e+02 0.0 
0.0 0.0 -1.574048160675e+02 
-1.060769643309e+01 -1.948801839596e+00 0.0 
-1.948801839596e+00 -1.728609281773e+01 0.0 
0.0 0.0 -8.064091200682e+00 
-6.006109455319e+01 -1.953436030283e+01 0.0 
-1.953436030283e+01 -8.719260419014e+01 0.0 
0.0 0.0 -4.487069436657e+01 
-1.592538172964e+02 9.336387597072e+00 0.0 
9.336387597072e+00 -3.821015151304e+02 0.0 
0.0 0.0 -1.620065997280e+02 
-3.725802585637e+01 2.607535944927e+01 0.0 
2.607535944927e+01 -3.584529160386e+01 0.0 
0.0 0.0 -2.151827510323e+01 
-8.580702778606e+01 -5.428902321974e-01 0.0 
-5.428902321974e-01 -2.130601043692e+02 0.0 
0.0 0.0 -8.926013964657e+01 
-1.459161084955e+02 2.786511103013e+01 0.0 
2.786511103013e+01 -3.531060940759e+02 0.0 
0.0 0.0 -1.493066607714e+02 
-3.516117859546e+01 2.427273792419e+01 0.0 
2.427273792419e+01 -3.456663646121e+01 0.0 
0.0 0.0 -2.051834451700e+01 
-1.368890337489e+02 3.405659278719e+01 0.0 
3.405659278719e+01 -3.258895413242e+02 0.0 
0.0 0.0 -1.384335725219e+02 
-4.248212653885e+01 2.134646795809e+01 0.0 
2.134646795809e+01 -3.515424683626e+01 0.0 
0.0 0.0 -2.289091201253e+01 
-1.621460745941e+02 4.199782606410e+00 0.0 
4.199782606410e+00 -3.845613623719e+02 0.0 
0.0 0.0 -1.636122310898e+02 
-4.041041797083e+00 -5.837970233405e-01 0.0 
-5.837970233405e-01 -1.616843807023e+01 0.0 
0.0 0.0 -5.489333886428e+00 
-1.260172358592e+02 3.491066843762e+01 0.0 
3.491066843762e+01 -2.924460033573e+02 0.0 
0.0 0.0 -1.251389717650e+02 
-5.183766972367e+01 1.010636636830e+01 0.0 
1.010636636830e+01 -5.560493653015e+01 0.0 
0.0 0.0 -3.183278187614e+01 
-5.259444804942e+01 -6.913089043504e-01 0.0 
-6.913089043504e-01 -1.314572424151e+02 0.0 
0.0 0.0 -5.481550713935e+01 
-1.090882809604e+02 -3.341897892451e-01 0.0 
-3.341897892451e-01 -2.680767482596e+02 0.0 
0.0 0.0 -1.127495087660e+02 
-1.183664841166e+02 3.156901067788e+01 0.0 
3.156901067788e+01 -2.679526686878e+02 0.0 
0.0 0.0 -1.154957458413e+02 
-1.092721540864e+02 2.332863626243e+01 0.0 
2.332863626243e+01 -2.444036422046e+02 0.0 
0.0 0.0 -1.057027388873e+02 
-9.904089934116e+01 6.559248815499e+00 0.0 
6.559248815499e+00 -2.248378065099e+02 0.0 
0.0 0.0 -9.676361175532e+01 
-1.008476288400e+02 1.107194938468e+01 0.0 
1.107194938468e+01 -2.259485071684e+02 0.0 
0.0 0.0 -9.763884080250e+01 
-1.045975563076e+02 1.703916360770e+01 0.0 
1.703916360770e+01 -2.342376513401e+02 0.0 
0.0 0.0 -1.012505622943e+02 
-4.995555889810e+01 4.570409920969e+00 0.0 
4.570409920969e+00 -5.971037070398e+01 0.0 
0.0 0.0 -3.249977888062e+01 
-4.354133056280e+01 9.089822387563e-01 0.0 
9.089822387563e-01 -5.701311447784e+01 0.0 
0.0 0.0 -2.976633351219e+01 
-4.194527084805e+01 4.632282615529e-01 0.0 
4.632282615529e-01 -5.799845488014e+01 0.0 
0.0 0.0 -2.958311771846e+01 
-6.752710390633e+01 5.415055446439e-01 0.0 
5.415055446439e-01 -1.285056771591e+02 0.0 
0.0 0.0 -5.840983431962e+01 
-1.621431183795e+02 2.059209335056e+00 0.0 
2.059209335056e+00 -3.830476093832e+02 0.0 
0.0 0.0 -1.631572183288e+02 
-6.979621733695e+01 1.078285666578e+01 0.0 
1.078285666578e+01 -1.066888753218e+02 0.0 
0.0 0.0 -5.376505643476e+01 
-2.517052556557e+00 -3.875847086711e-01 0.0 
-3.875847086711e-01 -1.722633171065e+01 0.0 
0.0 0.0 -5.180584733497e+00 
-1.372422120339e+02 1.403844899718e-01 0.0 
1.403844899718e-01 -3.301798228168e+02 0.0 
0.0 0.0 -1.398266104552e+02 
-3.955657196676e+01 4.534224145151e-02 0.0 
4.534224145151e-02 -5.562814566917e+01 0.0 
0.0 0.0 -2.815541529078e+01 
-2.484473433794e+01 -4.665402061515e-01 0.0 
-4.665402061515e-01 -6.920355519186e+01 0.0 
0.0 0.0 -2.781448685894e+01 
-1.124800010322e+02 2.730601163600e+01 0.0 
2.730601163600e+01 -2.510502789521e+02 0.0 
0.0 0.0 -1.086590839953e+02 
-1.423628526161e+02 3.163875128378e+01 0.0 
3.163875128378e+01 -3.416038285700e+02 0.0 
0.0 0.0 -1.447900043558e+02 
-1.314591878342e+02 3.524715794160e+01 0.0 
3.524715794160e+01 -3.092828255664e+02 0.0 
0.0 0.0 -1.318226040202e+02 
-1.489791308875e+02 2.392699083761e+01 0.0 
2.392699083761e+01 -3.623033300203e+02 0.0 
0.0 0.0 -1.529847382723e+02 
-1.569049661835e+02 1.505983728872e+01 0.0 
1.505983728872e+01 -3.783592144941e+02 0.0 
0.0 0.0 -1.601792542033e+02 
-3.046930789582e+01 -1.211488220695e+01 0.0 
-1.211488220695e+01 -2.435431706111e+01 0.0 
0.0 0.0 -1.608005115261e+01 
-4.575052009569e+01 1.995840297382e+00 0.0 
1.995840297382e+00 -5.711221494532e+01 0.0 
0.0 0.0 -3.045882051230e+01 
-1.588658292357e+02 6.300666249458e+00 0.0 
6.300666249458e+00 -3.803938570928e+02 0.0 
0.0 0.0 -1.613779058986e+02 
-8.115511361779e+01 7.880354251553e-01 0.0 
7.880354251553e-01 -1.681552778294e+02 0.0 
0.0 0.0 -7.439311743417e+01 
-6.583787711973e+00 -8.575895331986e-01 0.0 
-8.575895331986e-01 -1.723708968815e+01 0.0 
0.0 0.0 -6.858988629845e+00 
-6.894824522454e+01 -6.720477545842e-01 0.0 
-6.720477545842e-01 -1.712702276084e+02 0.0 
0.0 0.0 -7.166554184989e+01 
-9.916204312813e+01 4.023068280216e+00 0.0 
4.023068280216e+00 -2.269845717348e+02 0.0 
0.0 0.0 -9.744398445888e+01 
-3.612306870346e+01 2.538266107174e+01 0.0 
2.538266107174e+01 -3.725116955017e+01 0.0 
0.0 0.0 -2.161227147609e+01 
-3.956920984712e+01 2.765444489836e+01 0.0 
2.765444489836e+01 -3.716463663633e+01 0.0 
0.0 0.0 -2.153985916320e+01 
-3.636501493472e+01 2.354274865390e+01 0.0 
2.354274865390e+01 -3.501697602232e+01 0.0 
0.0 0.0 -2.101459728711e+01 
-4.594724493972e+01 1.455156986030e+01 0.0 
1.455156986030e+01 -4.037501796988e+01 0.0 
0.0 0.0 -2.549667887288e+01 
-4.595651012089e+01 3.450883987823e+01 0.0 
3.450883987823e+01 -4.546177459538e+01 0.0 
0.0 0.0 -2.764018282457e+01 
-5.337933264294e+01 2.108110764358e-01 0.0 
2.108110764358e-01 -9.075675859839e+01 0.0 
0.0 0.0 -4.284082737240e+01 
-1.638305061230e+02 1.056904602482e+00 0.0 
1.056904602482e+00 -3.858431166888e+02 0.0 
0.0 0.0 -1.645020868435e+02 
-1.776792353662e+00 -2.487030997054e-01 0.0 
-2.487030997054e-01 -1.640875895474e+01 0.0 
0.0 0.0 -4.591624836226e+00 
-9.347822274716e+01 9.787162009298e-01 0.0 
9.787162009298e-01 -2.078875166575e+02 0.0 
0.0 0.0 -9.000972182141e+01 
-5.533464162500e+01 9.089511667765e+00 0.0 
9.089511667765e+00 -6.394935888375e+01 0.0 
0.0 0.0 -3.538520015262e+01 
-6.080309113123e+01 1.278244246465e+01 0.0 
1.278244246465e+01 -7.646818510730e+01 0.0 
0.0 0.0 -4.078138287156e+01 
-6.323135974449e+01 1.077014922863e+01 0.0 
1.077014922863e+01 -8.350166348585e+01 0.0 
0.0 0.0 -4.361990696910e+01 
-6.925579731317e+01 1.508944601788e+01 0.0 
1.508944601788e+01 -9.891093703954e+01 0.0 
0.0 0.0 -5.005002030581e+01 
-7.219983597365e+01 1.352783460131e+01 0.0 
1.352783460131e+01 -1.065945898704e+02 0.0 
0.0 0.0 -5.323832775322e+01 
-7.702970087215e+01 1.694482841359e+01 0.0 
1.694482841359e+01 -1.208432058300e+02 0.0 
0.0 0.0 -5.896187201064e+01 
-7.415936428728e+01 1.867399681724e+01 0.0 
1.867399681724e+01 -1.141963871334e+02 0.0 
0.0 0.0 -5.610672542621e+01 
-8.152861575354e+01 2.012922559731e+01 0.0 
2.012922559731e+01 -1.361294221286e+02 0.0 
0.0 0.0 -6.489741136466e+01 
-7.834787062428e+01 2.181262242226e+01 0.0 
2.181262242226e+01 -1.303945358674e+02 0.0 
0.0 0.0 -6.222272194749e+01 
-8.008103219269e+01 1.560333409237e+01 0.0 
1.560333409237e+01 -1.286558387237e+02 0.0 
0.0 0.0 -6.222106127491e+01 
-8.553313798561e+01 2.289554850548e+01 0.0 
2.289554850548e+01 -1.521521459785e+02 0.0 
0.0 0.0 -7.090558518922e+01 
-8.216488497690e+01 2.437454876624e+01 0.0 
2.437454876624e+01 -1.472410291262e+02 0.0 
0.0 0.0 -6.842177423092e+01 
-8.925032741405e+01 2.517469553482e+01 0.0 
2.517469553482e+01 -1.687057782060e+02 0.0 
0.0 0.0 -7.698683168602e+01 
-8.575768370714e+01 2.638328270606e+01 0.0 
2.638328270606e+01 -1.644432532380e+02 0.0 
0.0 0.0 -7.466028108354e+01 
-7.853416412922e+01 2.585587431182e+01 0.0 
2.585587431182e+01 -1.434097742310e+02 0.0 
0.0 0.0 -6.618318150807e+01 
-8.198549761924e+01 2.747840654748e+01 0.0 
2.747840654748e+01 -1.610832449404e+02 0.0 
0.0 0.0 -7.252062276790e+01 
-7.467683151154e+01 2.717122843198e+01 0.0 
2.717122843198e+01 -1.404275462110e+02 0.0 
0.0 0.0 -6.413131331677e+01 
-7.802829015636e+01 2.838200300155e+01 0.0 
2.838200300155e+01 -1.584789961738e+02 0.0 
0.0 0.0 -7.055218589905e+01 
-8.537643085912e+01 2.858023549316e+01 0.0 
2.858023549316e+01 -1.786700751176e+02 0.0 
0.0 0.0 -7.881395179300e+01 
-8.134914011401e+01 2.909419504006e+01 0.0 
2.909419504006e+01 -1.763066540084e+02 0.0 
0.0 0.0 -7.689673823674e+01 
-7.392068515490e+01 2.901882458741e+01 0.0 
2.901882458741e+01 -1.564863486397e+02 0.0 
0.0 0.0 -6.872211013838e+01 
-7.716606192092e+01 2.935447517680e+01 0.0 
2.935447517680e+01 -1.743743182280e+02 0.0 
0.0 0.0 -7.506211404468e+01 
-6.981829454481e+01 2.934504125128e+01 0.0 
2.934504125128e+01 -1.549732123530e+02 0.0 
0.0 0.0 -6.703745206933e+01 
-7.299670299503e+01 2.931849246032e+01 0.0 
2.931849246032e+01 -1.728305866490e+02 0.0 
0.0 0.0 -7.334818689321e+01 
-6.579935122392e+01 2.935538719492e+01 0.0 
2.935538719492e+01 -1.537748127564e+02 0.0 
0.0 0.0 -6.547224919411e+01 
-6.887770496859e+01 2.900246698285e+01 0.0 
2.900246698285e+01 -1.715169119282e+02 0.0 
0.0 0.0 -7.171838506904e+01 
-7.624686646084e+01 2.892212258775e+01 0.0 
2.892212258775e+01 -1.901904408302e+02 0.0 
0.0 0.0 -7.953119218731e+01 
-7.201081658889e+01 2.829830137429e+01 0.0 
2.829830137429e+01 -1.886560445489e+02 0.0 
0.0 0.0 -7.780005834134e+01 
-6.483342023425e+01 2.843442088800e+01 0.0 
2.843442088800e+01 -1.703298212476e+02 0.0 
0.0 0.0 -7.014897244454e+01 
-6.784356568084e+01 2.741120933614e+01 0.0 
2.741120933614e+01 -1.871939901911e+02 0.0 
0.0 0.0 -7.611126676159e+01 
-6.091629481000e+01 2.760095730899e+01 0.0 
2.760095730899e+01 -1.692184381709e+02 0.0 
0.0 0.0 -6.864041989428e+01 
-6.377493697390e+01 2.623982743537e+01 0.0 
2.623982743537e+01 -1.857217711749e+02 0.0 
0.0 0.0 -7.444901244463e+01 
-7.103551695044e+01 2.608432008290e+01 0.0 
2.608432008290e+01 -2.033530305755e+02 0.0 
0.0 0.0 -8.191656425778e+01 
-6.686175157835e+01 2.458620088078e+01 0.0 
2.458620088078e+01 -2.014441058684e+02 0.0 
0.0 0.0 -8.009175723404e+01 
-5.979830350372e+01 2.477651067879e+01 0.0 
2.477651067879e+01 -1.841463316298e+02 0.0 
0.0 0.0 -7.278339054004e+01 
-6.278498607089e+01 2.277074836705e+01 0.0 
2.277074836705e+01 -1.993898179182e+02 0.0 
0.0 0.0 -7.825244119672e+01 
-5.593122743061e+01 2.300760460757e+01 0.0 
2.300760460757e+01 -1.824572142029e+02 0.0 
0.0 0.0 -7.111653249006e+01 
-5.884163795653e+01 2.060104705753e+01 0.0 
2.060104705753e+01 -1.971593867988e+02 0.0 
0.0 0.0 -7.640030742661e+01 
-5.218044766035e+01 2.087476025236e+01 0.0 
2.087476025236e+01 -1.806305133831e+02 0.0 
0.0 0.0 -6.944328831304e+01 
-5.502801864885e+01 1.801416105535e+01 0.0 
1.801416105535e+01 -1.946036668274e+02 0.0 
0.0 0.0 -7.448950564286e+01 
-6.220054775846e+01 1.803832400058e+01 0.0 
1.803832400058e+01 -2.107740576585e+02 0.0 
0.0 0.0 -8.149238162508e+01 
-5.843967507979e+01 1.510303782203e+01 0.0 
1.510303782203e+01 -2.074023036311e+02 0.0 
0.0 0.0 -7.935259361326e+01 
-5.141521735279e+01 1.496880865955e+01 0.0 
1.496880865955e+01 -1.916587087235e+02 0.0 
0.0 0.0 -7.252217782290e+01 
-5.492339692707e+01 1.171499193010e+01 0.0 
1.171499193010e+01 -2.033834228584e+02 0.0 
0.0 0.0 -7.709204593564e+01 
-6.239157419058e+01 1.229933406400e+01 0.0 
1.229933406400e+01 -2.190813520301e+02 0.0 
0.0 0.0 -8.404187786620e+01 
-5.902150643058e+01 8.745694086633e+00 0.0 
8.745694086633e+00 -2.139163197189e+02 0.0 
0.0 0.0 -8.148134784483e+01 
-6.684603214654e+01 9.759837245704e+00 0.0 
9.759837245704e+00 -2.297450488913e+02 0.0 
0.0 0.0 -8.857732431135e+01 
-6.362846751181e+01 6.195713483810e+00 0.0 
6.195713483810e+00 -2.234672368177e+02 0.0 
0.0 0.0 -8.572871129884e+01 
-5.609212192332e+01 4.873288438911e+00 0.0 
4.873288438911e+00 -2.078560325611e+02 0.0 
0.0 0.0 -7.878444634531e+01 
-6.086410025445e+01 2.457041696206e+00 0.0 
2.457041696206e+00 -2.162058691849e+02 0.0 
0.0 0.0 -8.272099083181e+01 
-6.862593103973e+01 4.131634221733e+00 0.0 
4.131634221733e+00 -2.322420261063e+02 0.0 
0.0 0.0 -8.986038714381e+01 
-6.595292676655e+01 6.551915783588e-01 0.0 
6.551915783588e-01 -2.239196007115e+02 0.0 
0.0 0.0 -8.656175824342e+01 
-5.859364013982e+01 -1.317591184962e+00 0.0 
-1.317591184962e+00 -2.077999215608e+02 0.0 
0.0 0.0 -7.951806851018e+01 
-6.373830499156e+01 -2.694914153733e+00 0.0 
-2.694914153733e+00 -2.145673262012e+02 0.0 
0.0 0.0 -8.309168935784e+01 
-7.125027785841e+01 -5.710200396457e-01 0.0 
-5.710200396457e-01 -2.312970642668e+02 0.0 
0.0 0.0 -9.036420263757e+01 
-6.898863384465e+01 -3.468186646104e+00 0.0 
-3.468186646104e+00 -2.212150837491e+02 0.0 
0.0 0.0 -8.666111527813e+01 
-6.190648314396e+01 -5.731298204169e+00 0.0 
-5.731298204169e+00 -2.041242306677e+02 0.0 
0.0 0.0 -7.940921414349e+01 
-6.700892684882e+01 -5.973976552517e+00 0.0 
-5.973976552517e+00 -2.102331492237e+02 0.0 
0.0 0.0 -8.277262282176e+01 
-7.429498421193e+01 -3.758326221650e+00 0.0 
-3.758326221650e+00 -2.279865403853e+02 0.0 
0.0 0.0 -9.028445737917e+01 
-7.206634371824e+01 -5.801506638385e+00 0.0 
-5.801506638385e+00 -2.165747258387e+02 0.0 
0.0 0.0 -8.619232086708e+01 
-6.517704103731e+01 -7.947427708302e+00 0.0 
-7.947427708302e+00 -1.983750795297e+02 0.0 
0.0 0.0 -7.866563617010e+01 
-6.991985115789e+01 -7.338483500926e+00 0.0 
-7.338483500926e+00 -2.045254010748e+02 0.0 
0.0 0.0 -8.193357566981e+01 
-7.708328526874e+01 -5.362673099521e+00 0.0 
-5.362673099521e+00 -2.232514384979e+02 0.0 
0.0 0.0 -8.970041712998e+01 
-7.458511736876e+01 -6.552328964503e+00 0.0 
-6.552328964503e+00 -2.110564691703e+02 0.0 
0.0 0.0 -8.529247596173e+01 
-8.203044635167e+01 -4.758186834254e+00 0.0 
-4.758186834254e+00 -2.301698084591e+02 0.0 
0.0 0.0 -9.326007644322e+01 
-6.765097981946e+01 -8.302332697463e+00 0.0 
-8.302332697463e+00 -1.918200947015e+02 0.0 
0.0 0.0 -7.744132235629e+01 
-7.194997778935e+01 -7.233908961574e+00 0.0 
-7.233908961574e+00 -1.984568968212e+02 0.0 
0.0 0.0 -8.072206238317e+01 
-6.513584202035e+01 -8.676597449193e+00 0.0 
-8.676597449193e+00 -1.786978420934e+02 0.0 
0.0 0.0 -7.275010523413e+01 
-6.909691218613e+01 -7.417532095995e+00 0.0 
-7.417532095995e+00 -1.856452106899e+02 0.0 
0.0 0.0 -7.602263686279e+01 
-7.449102888932e+01 2.453302602768e+01 0.0 
2.453302602768e+01 -2.187609213179e+02 0.0 
0.0 0.0 -8.757558506217e+01 
-6.227518864939e+01 -8.477639920529e+00 0.0 
-8.477639920529e+00 -1.654881193412e+02 0.0 
0.0 0.0 -6.792899239719e+01 
-5.878495012657e+01 -9.892501207465e+00 0.0 
-9.892501207465e+00 -1.588353410746e+02 0.0 
0.0 0.0 -6.488608736034e+01 
-6.592222892552e+01 -7.151022002021e+00 0.0 
-7.151022002021e+00 -1.728069406868e+02 0.0 
0.0 0.0 -7.121875088368e+01 
-7.312164296845e+01 -6.226606558480e+00 0.0 
-6.226606558480e+00 -1.930579191150e+02 0.0 
0.0 0.0 -7.945386862502e+01 
-5.894898151734e+01 -7.812672980141e+00 0.0 
-7.812672980141e+00 -1.523569106433e+02 0.0 
0.0 0.0 -6.299176764819e+01 
-6.235855882174e+01 -6.539240487290e+00 0.0 
-6.539240487290e+00 -1.600519577616e+02 0.0 
0.0 0.0 -6.632315497500e+01 
-5.512022543171e+01 -6.844576552808e+00 0.0 
-6.844576552808e+00 -1.394458925715e+02 0.0 
0.0 0.0 -5.796983540097e+01 
-4.969433081042e+01 2.346471833146e+01 0.0 
2.346471833146e+01 -1.651795195725e+02 0.0 
0.0 0.0 -6.406215511489e+01 
-8.883255424656e+01 2.925985283545e+01 0.0 
2.925985283545e+01 -1.960991260736e+02 0.0 
0.0 0.0 -8.507950409605e+01 
-5.837839537597e+01 -5.691888123966e+00 0.0 
-5.691888123966e+00 -1.474858465032e+02 0.0 
0.0 0.0 -6.135927256374e+01 
-5.078364843892e+01 -5.671761134028e+00 0.0 
-5.671761134028e+00 -1.268322779566e+02 0.0 
0.0 0.0 -5.288477791866e+01 
-4.784205661897e+01 -6.747632713292e+00 0.0 
-6.747632713292e+00 -1.186649429624e+02 0.0 
0.0 0.0 -4.955209987442e+01 
-4.305820433800e+01 -5.309237451736e+00 0.0 
-5.309237451736e+00 -1.061354511281e+02 0.0 
0.0 0.0 -4.435809663982e+01 
-7.529327153776e+01 1.258370985511e+01 0.0 
1.258370985511e+01 -1.153928633535e+02 0.0 
0.0 0.0 -5.680584046737e+01 
-8.248027060955e+01 1.445306149103e+01 0.0 
1.445306149103e+01 -1.369272673303e+02 0.0 
0.0 0.0 -6.542226138195e+01 
-7.736043520151e+01 1.150232230746e+01 0.0 
1.150232230746e+01 -1.235326879783e+02 0.0 
0.0 0.0 -5.986793695394e+01 
-8.470626261505e+01 1.361149676657e+01 0.0 
1.361149676657e+01 -1.455082179656e+02 0.0 
0.0 0.0 -6.866434417419e+01 
-7.988849017127e+01 1.088845408432e+01 0.0 
1.088845408432e+01 -1.331657817575e+02 0.0 
0.0 0.0 -6.351628157864e+01 
-4.603243057954e+01 -4.443299768752e+00 0.0 
-4.443299768752e+00 -1.145191976483e+02 0.0 
0.0 0.0 -4.776548846836e+01 
-9.244577803936e+01 2.397191630823e+01 0.0 
2.397191630823e+01 -1.740134676064e+02 0.0 
0.0 0.0 -7.953777369371e+01 
-8.929068315187e+01 1.639699848601e+01 0.0 
1.639699848601e+01 -1.586415967817e+02 0.0 
0.0 0.0 -7.397968398006e+01 
-6.662422409032e+01 2.892287184339e+01 0.0 
2.892287184339e+01 -1.366140232200e+02 0.0 
0.0 0.0 -6.057147419311e+01 
-5.817516266973e+01 2.857534734826e+01 0.0 
2.857534734826e+01 -1.519693865560e+02 0.0 
0.0 0.0 -6.264336476773e+01 
-7.044855633579e+01 1.306491202065e+01 0.0 
1.306491202065e+01 -2.351944581568e+02 0.0 
0.0 0.0 -9.129290434778e+01 
-6.590804890529e+01 -5.366236737900e+00 0.0 
-5.366236737900e+00 -1.679839881335e+02 0.0 
0.0 0.0 -6.976761111165e+01 
-6.181986795578e+01 -4.646963617535e+00 0.0 
-4.646963617535e+00 -1.557147124914e+02 0.0 
0.0 0.0 -6.486037413415e+01 
-6.952562008993e+01 -4.286718870901e+00 0.0 
-4.286718870901e+00 -1.761496675062e+02 0.0 
0.0 0.0 -7.330258627883e+01 
-8.481074242379e+01 -3.396849196111e+00 0.0 
-3.396849196111e+00 -2.419740145642e+02 0.0 
0.0 0.0 -9.763542709639e+01 
-8.997018832500e+01 -2.966918275039e+00 0.0 
-2.966918275039e+00 -2.491668155025e+02 0.0 
0.0 0.0 -1.013411011483e+02 
-9.306583018518e+01 -1.487743951655e+00 0.0 
-1.487743951655e+00 -2.606355202843e+02 0.0 
0.0 0.0 -1.057104051408e+02 
-9.838938187576e+01 -1.222908614968e+00 0.0 
-1.222908614968e+00 -2.680399925569e+02 0.0 
0.0 0.0 -1.095288123298e+02 
-1.018255093648e+02 3.319151234040e-01 0.0 
3.319151234040e-01 -2.792246315764e+02 0.0 
0.0 0.0 -1.139150422824e+02 
-1.072709399858e+02 4.313285272244e-01 0.0 
4.313285272244e-01 -2.868043956377e+02 0.0 
0.0 0.0 -1.178226006870e+02 
-1.036098163980e+02 -8.975271306793e-01 0.0 
-8.975271306793e-01 -2.755109318551e+02 0.0 
0.0 0.0 -1.133362244759e+02 
-1.126009950959e+02 5.807673929398e-01 0.0 
5.807673929398e-01 -2.944103028562e+02 0.0 
0.0 0.0 -1.217033893856e+02 
-1.087209199939e+02 -5.569672463008e-01 0.0 
-5.569672463008e-01 -2.830636696547e+02 0.0 
0.0 0.0 -1.171353768946e+02 
-1.110640305198e+02 2.026867535176e+00 0.0 
2.026867535176e+00 -2.977382779571e+02 0.0 
0.0 0.0 -1.222406925431e+02 
-1.053911434921e+02 2.162703859588e+00 0.0 
2.162703859588e+00 -2.899316910974e+02 0.0 
0.0 0.0 -1.181968503768e+02 
-1.178050662830e+02 7.378053709628e-01 0.0 
7.378053709628e-01 -3.020565926344e+02 0.0 
0.0 0.0 -1.255584976752e+02 
-1.137155604857e+02 -2.391885305039e-01 0.0 
-2.391885305039e-01 -2.906949300870e+02 0.0 
0.0 0.0 -1.209231471718e+02 
-1.228789250584e+02 8.709135952910e-01 0.0 
8.709135952910e-01 -3.097558316547e+02 0.0 
0.0 0.0 -1.293904270139e+02 
-1.185890410622e+02 3.510240124625e-02 0.0 
3.510240124625e-02 -2.984071619319e+02 0.0 
0.0 0.0 -1.246988608983e+02 
-1.096552373166e+02 -9.821837004328e-01 0.0 
-9.821837004328e-01 -2.791239023089e+02 0.0 
0.0 0.0 -1.162337418876e+02 
-1.143148779004e+02 -5.939897899150e-01 0.0 
-5.939897899150e-01 -2.868866236201e+02 0.0 
0.0 0.0 -1.199604504562e+02 
-1.056063816322e+02 -1.478962282112e+00 0.0 
-1.478962282112e+00 -2.674949460730e+02 0.0 
0.0 0.0 -1.115303983116e+02 
-7.521710495200e+01 1.087838968282e+01 0.0 
1.087838968282e+01 -2.459927757911e+02 0.0 
0.0 0.0 -9.596296422293e+01 
-7.905198751279e+01 1.396988589463e+01 0.0 
1.396988589463e+01 -2.516725556319e+02 0.0 
0.0 0.0 -9.881736294340e+01 
-8.411128241419e+01 1.206994728230e+01 0.0 
1.206994728230e+01 -2.625957787746e+02 0.0 
0.0 0.0 -1.036121183566e+02 
-8.818934800477e+01 1.498059663086e+01 0.0 
1.498059663086e+01 -2.684748689514e+02 0.0 
0.0 0.0 -1.065992650868e+02 
-9.353609586382e+01 1.332285623865e+01 0.0 
1.332285623865e+01 -2.795021152477e+02 0.0 
0.0 0.0 -1.115114633335e+02 
-9.785026913895e+01 1.608424426468e+01 0.0 
1.608424426468e+01 -2.855278473774e+02 0.0 
0.0 0.0 -1.146134349549e+02 
-1.034848326625e+02 1.462664975832e+01 0.0 
1.462664975832e+01 -2.966174518831e+02 0.0 
0.0 0.0 -1.196306853637e+02 
-9.916158703370e+01 1.186781581788e+01 0.0 
1.186781581788e+01 -2.898709789012e+02 0.0 
0.0 0.0 -1.163097697805e+02 
-9.279764433752e+01 2.702163583750e+01 0.0 
2.702163583750e+01 -1.855286541566e+02 0.0 
0.0 0.0 -8.309788954823e+01 
-4.805854213349e+01 1.136135865839e+01 0.0 
1.136135865839e+01 -1.881371194992e+02 0.0 
0.0 0.0 -7.045869848981e+01 
-4.508080831553e+01 1.514413092020e+01 0.0 
1.514413092020e+01 -1.762690925756e+02 0.0 
0.0 0.0 -6.600497026735e+01 
-4.186663254983e+01 1.131763615395e+01 0.0 
1.131763615395e+01 -1.734301413851e+02 0.0 
0.0 0.0 -6.418903218048e+01 
-3.957066186403e+01 1.572666233665e+01 0.0 
1.572666233665e+01 -1.613040046965e+02 0.0 
0.0 0.0 -5.986239996817e+01 
-3.645784265643e+01 1.171672155981e+01 0.0 
1.171672155981e+01 -1.593415678275e+02 0.0 
0.0 0.0 -5.833982314518e+01 
-3.506366174375e+01 1.685295282088e+01 0.0 
1.685295282088e+01 -1.467428566506e+02 0.0 
0.0 0.0 -5.414195551832e+01 
-3.215511346871e+01 1.269608007820e+01 0.0 
1.269608007820e+01 -1.459101530429e+02 0.0 
0.0 0.0 -5.296462294363e+01 
-3.377251270455e+01 6.646034658649e+00 0.0 
6.646034658649e+00 -1.565354230025e+02 0.0 
0.0 0.0 -5.666834510410e+01 
-3.013252665726e+01 7.053051260929e+00 0.0 
7.053051260929e+00 -1.443543910873e+02 0.0 
0.0 0.0 -5.204938948586e+01 
-3.214438931124e+01 4.397358030010e-01 0.0 
4.397358030010e-01 -1.519895897981e+02 0.0 
0.0 0.0 -5.471556741364e+01 
-2.903980817580e+01 -4.019276171453e-02 0.0 
-4.019276171453e-02 -1.407304551385e+02 0.0 
0.0 0.0 -5.109229635766e+01 
-3.168230687337e+01 -6.442114932009e+00 0.0 
-6.442114932009e+00 -1.447271601707e+02 0.0 
0.0 0.0 -5.263845398537e+01 
-7.963045112375e+01 2.823683768146e+01 0.0 
2.823683768146e+01 -2.070047754268e+02 0.0 
0.0 0.0 -8.559056796516e+01 
-9.250901935139e+01 1.769320983446e+01 0.0 
1.769320983446e+01 -2.737419446280e+02 0.0 
0.0 0.0 -1.094752891938e+02 
-1.023974065334e+02 1.869281811390e+01 0.0 
1.869281811390e+01 -2.909999186578e+02 0.0 
0.0 0.0 -1.176191975574e+02 
-9.698364572436e+01 2.018634871182e+01 0.0 
2.018634871182e+01 -2.784428840551e+02 0.0 
0.0 0.0 -1.122279589338e+02 
-4.030550666012e+01 -6.172174225456e+00 0.0 
-6.172174225456e+00 -9.782250647694e+01 0.0 
0.0 0.0 -4.103840394112e+01 
-1.233423076358e+02 2.463733695975e-01 0.0 
2.463733695975e-01 -3.062170840875e+02 0.0 
0.0 0.0 -1.284678175170e+02 
-1.150324495532e+02 3.862654909145e+00 0.0 
3.862654909145e+00 -3.082326216830e+02 0.0 
0.0 0.0 -1.265795213709e+02 
-1.091458759674e+02 4.219040339923e+00 0.0 
4.219040339923e+00 -3.000823373270e+02 0.0 
0.0 0.0 -1.223684639883e+02 
-1.093778202018e+02 1.332141321827e+01 0.0 
1.332141321827e+01 -3.071086074218e+02 0.0 
0.0 0.0 -1.245459282871e+02 
-3.791847547341e+01 -3.964481564325e+00 0.0 
-3.964481564325e+00 -9.416938161252e+01 0.0 
0.0 0.0 -3.922635712578e+01 
-3.216550457661e+01 1.867486236370e+01 0.0 
1.867486236370e+01 -1.326305382265e+02 0.0 
0.0 0.0 -4.900427379039e+01 
-3.475817157004e+01 2.157327539200e+01 0.0 
2.157327539200e+01 -1.317523946625e+02 0.0 
0.0 0.0 -4.955316986976e+01 
-8.680670230244e+01 1.292947695125e+01 0.0 
1.292947695125e+01 -1.545254392817e+02 0.0 
0.0 0.0 -7.199964247525e+01 
-8.212934361398e+01 1.041521670153e+01 0.0 
1.041521670153e+01 -1.426638998082e+02 0.0 
0.0 0.0 -6.703797302664e+01 
-1.192510277243e+02 5.888398615296e+00 0.0 
5.888398615296e+00 -3.182705623292e+02 0.0 
0.0 0.0 -1.308564770161e+02 
-4.100313834711e+01 -3.325439916009e+00 0.0 
-3.325439916009e+00 -1.026549125299e+02 0.0 
0.0 0.0 -4.269741526310e+01 
-1.219956088131e+02 1.940174132758e+00 0.0 
1.940174132758e+00 -3.131828813724e+02 0.0 
0.0 0.0 -1.301535470557e+02 
-2.812935941386e+01 8.222910235181e+00 0.0 
8.222910235181e+00 -1.336523906469e+02 0.0 
0.0 0.0 -4.920754845077e+01 
-1.188811963715e+02 -2.877554997489e-01 0.0 
-2.877554997489e-01 -2.947696027171e+02 0.0 
0.0 0.0 -1.236952397266e+02 
-1.279516762184e+02 3.871952995128e-01 0.0 
3.871952995128e-01 -3.141197760454e+02 0.0 
0.0 0.0 -1.322214356791e+02 
-1.000277653205e+02 -1.935279576651e+00 0.0 
-1.935279576651e+00 -2.639567519667e+02 0.0 
0.0 0.0 -1.087953551862e+02 
-1.071061427543e+02 2.114256564708e+01 0.0 
2.114256564708e+01 -2.960055658102e+02 0.0 
0.0 0.0 -1.205335125693e+02 
-1.015900888855e+02 2.244189088173e+01 0.0 
2.244189088173e+01 -2.827171746221e+02 0.0 
0.0 0.0 -1.148921790523e+02 
-3.563467802270e+01 -4.682326237890e+00 0.0 
-4.682326237890e+00 -1.574721420833e+02 0.0 
0.0 0.0 -5.750688436183e+01 
-3.557883885110e+01 -1.070967695952e+01 0.0 
-1.070967695952e+01 -1.474450282868e+02 0.0 
0.0 0.0 -5.443806147579e+01 
-3.287017782038e+01 -1.335017979741e+01 0.0 
-1.335017979741e+01 -1.339620939195e+02 0.0 
0.0 0.0 -4.998302582249e+01 
-3.722886283897e+01 -1.588207223236e+01 0.0 
-1.588207223236e+01 -1.347467788907e+02 0.0 
0.0 0.0 -5.101734516543e+01 
-4.014360939975e+01 -1.281402967299e+01 0.0 
-1.281402967299e+01 -1.500669034581e+02 0.0 
0.0 0.0 -5.665629007613e+01 
-4.091203168811e+01 -1.636486450184e+01 0.0 
-1.636486450184e+01 -1.358563185326e+02 0.0 
0.0 0.0 -5.253212531352e+01 
-3.941270163345e+01 -1.936078532680e+01 0.0 
-1.936078532680e+01 -1.185388483678e+02 0.0 
0.0 0.0 -4.639787497915e+01 
-4.185503161983e+01 -1.807941227426e+01 0.0 
-1.807941227426e+01 -1.195888050627e+02 0.0 
0.0 0.0 -4.768814989445e+01 
-4.468779141172e+01 -1.565120892137e+01 0.0 
-1.565120892137e+01 -1.385042983054e+02 0.0 
0.0 0.0 -5.455762691513e+01 
-4.439461702077e+01 -1.621645164870e+01 0.0 
-1.621645164870e+01 -1.227038436188e+02 0.0 
0.0 0.0 -4.967715799058e+01 
-4.232482016591e+01 -1.731485017690e+01 0.0 
-1.731485017690e+01 -1.019740823669e+02 0.0 
0.0 0.0 -4.216601493209e+01 
-4.325096307178e+01 -1.494517592049e+01 0.0 
-1.494517592049e+01 -1.063567513816e+02 0.0 
0.0 0.0 -4.430821689016e+01 
-1.325814098849e+02 9.877335595438e-01 0.0 
9.877335595438e-01 -3.253514910394e+02 0.0 
0.0 0.0 -1.369798702773e+02 
-2.716354325519e+01 -1.751867959230e-01 0.0 
-1.751867959230e-01 -1.309633398751e+02 0.0 
0.0 0.0 -4.864749003191e+01 
-7.117190706913e+01 2.536807435020e+01 0.0 
2.536807435020e+01 -1.222018825184e+02 0.0 
0.0 0.0 -5.761213687626e+01 
-1.251465667545e+02 5.392047766605e+00 0.0 
5.392047766605e+00 -3.264640254525e+02 0.0 
0.0 0.0 -1.350831776621e+02 
-1.139141191332e+02 1.597467102103e+01 0.0 
1.597467102103e+01 -3.137096347432e+02 0.0 
0.0 0.0 -1.278871261629e+02 
-8.878712087131e+01 1.236508310685e+01 0.0 
1.236508310685e+01 -1.639000917466e+02 0.0 
0.0 0.0 -7.540616378537e+01 
-8.429383686441e+01 1.002717346044e+01 0.0 
1.002717346044e+01 -1.524974061016e+02 0.0 
0.0 0.0 -7.063737288981e+01 
-7.718893658197e+01 8.078757561711e+00 0.0 
8.078757561711e+00 -1.314407907841e+02 0.0 
0.0 0.0 -6.218891820983e+01 
-7.963807812846e+01 7.885433373223e+00 0.0 
7.885433373223e+00 -1.417297608667e+02 0.0 
0.0 0.0 -6.601035169855e+01 
-8.638333142096e+01 9.688459109973e+00 0.0 
9.688459109973e+00 -1.626711978015e+02 0.0 
0.0 0.0 -7.431635876675e+01 
-8.201363605993e+01 7.690207640712e+00 0.0 
7.690207640712e+00 -1.521462606341e+02 0.0 
0.0 0.0 -6.984796900820e+01 
-7.489869016310e+01 6.037795343168e+00 0.0 
6.037795343168e+00 -1.314348112219e+02 0.0 
0.0 0.0 -6.150005041551e+01 
-7.758960367554e+01 5.953415381203e+00 0.0 
5.953415381203e+00 -1.419987069528e+02 0.0 
0.0 0.0 -6.547649318851e+01 
-7.018880969803e+01 4.479791801261e+00 0.0 
4.479791801261e+00 -1.214972184384e+02 0.0 
0.0 0.0 -5.710580844091e+01 
-7.315842050207e+01 4.484819789118e+00 0.0 
4.484819789118e+00 -1.321989171620e+02 0.0 
0.0 0.0 -6.120720129923e+01 
-8.023933282611e+01 5.820372085035e+00 0.0 
5.820372085035e+00 -1.526673622801e+02 0.0 
0.0 0.0 -6.947200853188e+01 
-7.608466677105e+01 4.445755784168e+00 0.0 
4.445755784168e+00 -1.430252503904e+02 0.0 
0.0 0.0 -6.533297514845e+01 
-6.875268396908e+01 3.271766041734e+00 0.0 
3.271766041734e+00 -1.227375657794e+02 0.0 
0.0 0.0 -5.704707492453e+01 
-7.194547999411e+01 3.299839811921e+00 0.0 
3.299839811921e+00 -1.335941574888e+02 0.0 
0.0 0.0 -6.126189124488e+01 
-6.441794315294e+01 2.322659061042e+00 0.0 
2.322659061042e+00 -1.134329748940e+02 0.0 
0.0 0.0 -5.295527541408e+01 
-6.787817972917e+01 2.387444861033e+00 0.0 
2.387444861033e+00 -1.242379988949e+02 0.0 
0.0 0.0 -5.723485358721e+01 
-7.512116834185e+01 3.183363951628e+00 0.0 
3.183363951628e+00 -1.445384828003e+02 0.0 
0.0 0.0 -6.549789534263e+01 
-3.279917405577e+01 -2.858159940119e+00 0.0 
-2.858159940119e+00 -8.304723591249e+01 0.0 
0.0 0.0 -3.435392299048e+01 
-1.050194697184e+02 1.061844116092e+01 0.0 
1.061844116092e+01 -2.997101607640e+02 0.0 
0.0 0.0 -1.210188891447e+02 
-1.155450807364e+02 1.216615781853e+01 0.0 
1.216615781853e+01 -3.172152550620e+02 0.0 
0.0 0.0 -1.294281007395e+02 
-6.550508512014e+01 -3.583280040460e+00 0.0 
-3.583280040460e+00 -1.647005355102e+02 0.0 
0.0 0.0 -6.866168618911e+01 
-7.309464553209e+01 -3.274035972330e+00 0.0 
-3.274035972330e+00 -1.841755776500e+02 0.0 
0.0 0.0 -7.678106695464e+01 
-7.727524308244e+01 -3.858667238812e+00 0.0 
-3.858667238812e+00 -1.963672437427e+02 0.0 
0.0 0.0 -8.169274604755e+01 
-8.127670373170e+01 -2.930912741438e+00 0.0 
-2.930912741438e+00 -2.047186803021e+02 0.0 
0.0 0.0 -8.539861521014e+01 
-7.124933897796e+01 2.282317950832e+00 0.0 
2.282317950832e+00 -1.350924086154e+02 0.0 
0.0 0.0 -6.150252427802e+01 
-7.820245895831e+01 2.933394356974e+00 0.0 
2.933394356974e+00 -1.555385635178e+02 0.0 
0.0 0.0 -6.972230674284e+01 
-3.347560720946e+01 2.388276864252e+01 0.0 
2.388276864252e+01 -1.165115686574e+02 0.0 
0.0 0.0 -4.444718742375e+01 
-3.537272415762e+01 2.536231660956e+01 0.0 
2.536231660956e+01 -1.146552104398e+02 0.0 
0.0 0.0 -4.454045192896e+01 
-9.307088499413e+01 1.486567512546e+01 0.0 
1.486567512546e+01 -1.759578658956e+02 0.0 
0.0 0.0 -8.030862526692e+01 
-1.233449481331e+02 -4.551282957497e-02 0.0 
-4.551282957497e-02 -3.028278014338e+02 0.0 
0.0 0.0 -1.274518248701e+02 
-1.144478510596e+02 -6.277421037791e-01 0.0 
-6.277421037791e-01 -2.833403133015e+02 0.0 
0.0 0.0 -1.189364493083e+02 
-5.462379495172e+01 2.780644432159e+01 0.0 
2.780644432159e+01 -1.511856113997e+02 0.0 
0.0 0.0 -6.134282190542e+01 
-5.214235301689e+01 2.862037306570e+01 0.0 
2.862037306570e+01 -1.334804367400e+02 0.0 
0.0 0.0 -5.528683692708e+01 
-4.908927753241e+01 2.798219531958e+01 0.0 
2.798219531958e+01 -1.329355220645e+02 0.0 
0.0 0.0 -5.420743987908e+01 
-4.681906893938e+01 2.849316875514e+01 0.0 
2.849316875514e+01 -1.144631643856e+02 0.0 
0.0 0.0 -4.798466999749e+01 
-4.955954253638e+01 2.890830250959e+01 0.0 
2.890830250959e+01 -1.150570879848e+02 0.0 
0.0 0.0 -4.898498915636e+01 
-4.440084810235e+01 2.808147154836e+01 0.0 
2.808147154836e+01 -1.140063596996e+02 0.0 
0.0 0.0 -4.712216234059e+01 
-9.955156967497e+01 2.386432288658e+00 0.0 
2.386432288658e+00 -2.818723342133e+02 0.0 
0.0 0.0 -1.140271711665e+02 
-8.287840865176e+01 5.626953805718e+00 0.0 
5.626953805718e+00 -1.635194480431e+02 0.0 
0.0 0.0 -7.351935700847e+01 
-4.518575648276e+01 -7.915840685285e+00 0.0 
-7.915840685285e+00 -1.107456783872e+02 0.0 
0.0 0.0 -4.637943046099e+01 
-3.799840790906e+01 -7.080810463776e+00 0.0 
-7.080810463776e+00 -8.977089151363e+01 0.0 
0.0 0.0 -3.793078982681e+01 
-1.324054017277e+02 4.615197243865e-01 0.0 
4.615197243865e-01 -3.221862098576e+02 0.0 
0.0 0.0 -1.359774834756e+02 
-9.509007204364e+01 9.030022577664e+00 0.0 
9.030022577664e+00 -2.824276701311e+02 0.0 
0.0 0.0 -1.128553226524e+02 
-8.396919438291e+01 2.892948490090e+01 0.0 
2.892948490090e+01 -2.088833343875e+02 0.0 
0.0 0.0 -8.745575863111e+01 
-8.764646297878e+01 2.831050032429e+01 0.0 
2.831050032429e+01 -2.254482470513e+02 0.0 
0.0 0.0 -9.352841300902e+01 
-9.202491132383e+01 2.910114025726e+01 0.0 
2.910114025726e+01 -2.277074574329e+02 0.0 
0.0 0.0 -9.551971062702e+01 
-9.604421188644e+01 2.858422435879e+01 0.0 
2.858422435879e+01 -2.440584139559e+02 0.0 
0.0 0.0 -1.016307877527e+02 
-1.003634226966e+02 2.950533924695e+01 0.0 
2.950533924695e+01 -2.466359881842e+02 0.0 
0.0 0.0 -1.036998232642e+02 
-1.047498253328e+02 2.913661056977e+01 0.0 
2.913661056977e+01 -2.626966408321e+02 0.0 
0.0 0.0 -1.098339398495e+02 
-1.003738895286e+02 2.791214412854e+01 0.0 
2.791214412854e+01 -2.598614737819e+02 0.0 
0.0 0.0 -1.076706089931e+02 
-1.118842525234e+02 2.343978437921e+01 0.0 
2.343978437921e+01 -3.005793567840e+02 0.0 
0.0 0.0 -1.233390827922e+02 
-1.094996795862e+02 2.867179093193e+01 0.0 
2.867179093193e+01 -2.782336259085e+02 0.0 
0.0 0.0 -1.159199916484e+02 
-6.387877729668e+01 1.574985777997e+00 0.0 
1.574985777997e+00 -1.146849741296e+02 0.0 
0.0 0.0 -5.316912542789e+01 
-8.738283391743e+01 1.937659786774e+01 0.0 
1.937659786774e+01 -2.610459173331e+02 0.0 
0.0 0.0 -1.041286253752e+02 
-4.845844482871e+01 -1.434913221144e+01 0.0 
-1.434913221144e+01 -1.425712342878e+02 0.0 
0.0 0.0 -5.690890373494e+01 
-2.941875318566e+01 -3.148153003041e+00 0.0 
-3.148153003041e+00 -7.416884829148e+01 0.0 
0.0 0.0 -3.067628044314e+01 
-3.980265083208e+01 -1.422849148107e+01 0.0 
-1.422849148107e+01 -8.388819099561e+01 0.0 
0.0 0.0 -3.583459415210e+01 
-3.563649676201e+01 -2.386847450048e+00 0.0 
-2.386847450048e+00 -9.080564615228e+01 0.0 
0.0 0.0 -3.753264287429e+01 
-4.428883288182e+01 -2.718303072545e+00 0.0 
-2.718303072545e+00 -1.111625694091e+02 0.0 
0.0 0.0 -4.623542068727e+01 
-1.298323626611e+02 7.392349509291e+00 0.0 
7.392349509291e+00 -3.363780199191e+02 0.0 
0.0 0.0 -1.394631147741e+02 
-1.089091316808e+02 3.023054381325e+01 0.0 
3.023054381325e+01 -2.655092915267e+02 0.0 
0.0 0.0 -1.119255269623e+02 
-1.044029831425e+02 3.022424663089e+01 0.0 
3.022424663089e+01 -2.491724545423e+02 0.0 
0.0 0.0 -1.056726313055e+02 
-4.445615678445e+01 2.845188758920e+01 0.0 
2.845188758920e+01 -9.570727351251e+01 0.0 
0.0 0.0 -4.164902908909e+01 
-4.683933734264e+01 2.862638754904e+01 0.0 
2.862638754904e+01 -9.615425916688e+01 0.0 
0.0 0.0 -4.249807895286e+01 
-1.178113434702e+02 2.229378527077e+01 0.0 
2.229378527077e+01 -3.136312738552e+02 0.0 
0.0 0.0 -1.290327851976e+02 
-7.220702503530e+01 8.745544810865e+00 0.0 
8.745544810865e+00 -1.118124290332e+02 0.0 
0.0 0.0 -5.480583622054e+01 
-6.717738678326e+01 4.412802251113e+00 0.0 
4.412802251113e+00 -1.109545211576e+02 0.0 
0.0 0.0 -5.303957238226e+01 
-6.213436527614e+01 3.059122822057e+00 0.0 
3.059122822057e+00 -1.011540304285e+02 0.0 
0.0 0.0 -4.858651871141e+01 
-2.607639874214e+01 -1.823729307228e+00 0.0 
-1.823729307228e+00 -6.910047893817e+01 0.0 
0.0 0.0 -2.815306330409e+01 
-4.005551011400e+01 -1.703444905976e+01 0.0 
-1.703444905976e+01 -7.988234149743e+01 0.0 
0.0 0.0 -3.405027981858e+01 
-8.847269789186e+01 9.312715884532e+00 0.0 
9.312715884532e+00 -1.730457803538e+02 0.0 
0.0 0.0 -7.805554347370e+01 
-3.758397400999e+01 2.361094026626e+01 0.0 
2.361094026626e+01 -1.311220237809e+02 0.0 
0.0 0.0 -5.021179933726e+01 
-3.754240586426e+01 2.630626767986e+01 0.0 
2.630626767986e+01 -1.135771709860e+02 0.0 
0.0 0.0 -4.493587305507e+01 
-2.792678106953e+01 1.079226597158e+01 0.0 
1.079226597158e+01 -1.240625836098e+02 0.0 
0.0 0.0 -4.694679465289e+01 
-2.825380540531e+01 2.641910873510e-01 0.0 
2.641910873510e-01 -1.239293342851e+02 0.0 
0.0 0.0 -4.751974232218e+01 
-7.459569787150e+01 1.968432883609e+00 0.0 
1.968432883609e+00 -1.457918462496e+02 0.0 
0.0 0.0 -6.571626323633e+01 
-8.135718774660e+01 2.541671482509e+00 0.0 
2.541671482509e+00 -1.661484333940e+02 0.0 
0.0 0.0 -7.385168634219e+01 
-8.531689777624e+01 -3.212162288948e+00 0.0 
-3.212162288948e+00 -2.165347327691e+02 0.0 
0.0 0.0 -9.015548916361e+01 
-8.934232535785e+01 -2.350783887942e+00 0.0 
-2.350783887942e+00 -2.247438943314e+02 0.0 
0.0 0.0 -9.382586590679e+01 
-1.237661578126e+02 8.076209861654e+00 0.0 
8.076209861654e+00 -3.278337336597e+02 0.0 
0.0 0.0 -1.350799674417e+02 
-4.034058243621e+01 -1.227099763884e+01 0.0 
-1.227099763884e+01 -9.060331876840e+01 0.0 
0.0 0.0 -3.869547828092e+01 
-8.489749219232e+01 3.647700880435e+00 0.0 
3.647700880435e+00 -1.760516457912e+02 0.0 
0.0 0.0 -7.788474139507e+01 
-1.009124451028e+02 7.910456801904e+00 0.0 
7.910456801904e+00 -2.916350615849e+02 0.0 
0.0 0.0 -1.173642520063e+02 
-9.133085378407e+01 6.176393912490e+00 0.0 
6.176393912490e+00 -2.742707699501e+02 0.0 
0.0 0.0 -1.092804871202e+02 
-7.706541279995e+01 -2.521509075665e+00 0.0 
-2.521509075665e+00 -1.925574502211e+02 0.0 
0.0 0.0 -8.048685890631e+01 
-3.578607117939e+01 2.748384214444e+01 0.0 
2.748384214444e+01 -9.787818713716e+01 0.0 
0.0 0.0 -3.916524074845e+01 
-3.502649675909e+01 2.679940430035e+01 0.0 
2.679940430035e+01 -1.009694552920e+02 0.0 
0.0 0.0 -4.013401970161e+01 
-4.917176153793e+01 -1.313253144106e+01 0.0 
-1.313253144106e+01 -1.570476140587e+02 0.0 
0.0 0.0 -6.146581267900e+01 
-4.511093249715e+01 -1.290880263632e+01 0.0 
-1.290880263632e+01 -1.122816258262e+02 0.0 
0.0 0.0 -4.681776749701e+01 
-3.908144877771e+01 -1.849527661258e+00 0.0 
-1.849527661258e+00 -9.940366964985e+01 0.0 
0.0 0.0 -4.114553552827e+01 
-1.347393729194e+02 9.534629190249e+00 0.0 
9.534629190249e+00 -3.457465070735e+02 0.0 
0.0 0.0 -1.437457639979e+02 
-9.244515528114e+01 1.136277392105e+01 0.0 
1.136277392105e+01 -1.836683045421e+02 0.0 
0.0 0.0 -8.243403794697e+01 
-1.051467096514e+02 2.718132808634e+01 0.0 
2.718132808634e+01 -2.750838495555e+02 0.0 
0.0 0.0 -1.136691677621e+02 
-9.582855989973e+01 2.653953385090e+01 0.0 
2.653953385090e+01 -2.568683147634e+02 0.0 
0.0 0.0 -1.054090623989e+02 
-1.149376146556e+02 2.808732153336e+01 0.0 
2.808732153336e+01 -2.934373907894e+02 0.0 
0.0 0.0 -1.221125016335e+02 
-3.504253092998e+01 -1.036491489911e+01 0.0 
-1.036491489911e+01 -6.868409262951e+01 0.0 
0.0 0.0 -3.011896366221e+01 
-1.358635515307e+02 6.747944348620e+00 0.0 
6.747944348620e+00 -3.448898658727e+02 0.0 
0.0 0.0 -1.438260252210e+02 
-1.276684827442e+02 1.101495745214e-01 0.0 
1.101495745214e-01 -3.110625001473e+02 0.0 
0.0 0.0 -1.312192948675e+02 
-1.123682253961e+02 3.107539903859e+01 0.0 
3.107539903859e+01 -2.674936934666e+02 0.0 
0.0 0.0 -1.135585756588e+02 
-1.081642712084e+02 3.076318720250e+01 0.0 
3.076318720250e+01 -2.519513840157e+02 0.0 
0.0 0.0 -1.076346965673e+02 
-4.030109383558e+01 2.507252267158e+01 0.0 
2.507252267158e+01 -1.307858916921e+02 0.0 
0.0 0.0 -5.092609565831e+01 
-3.978028508011e+01 2.698030735100e+01 0.0 
2.698030735100e+01 -1.132311033470e+02 0.0 
0.0 0.0 -4.550341652813e+01 
-3.779527049497e+01 2.784974824315e+01 0.0 
2.784974824315e+01 -9.500818143657e+01 0.0 
0.0 0.0 -3.944103557946e+01 
-3.924431196449e+01 2.791437538863e+01 0.0 
2.791437538863e+01 -9.476372652124e+01 0.0 
0.0 0.0 -3.980241154572e+01 
-7.078160563673e+01 2.067367148159e+01 0.0 
2.067367148159e+01 -1.083685874129e+02 0.0 
0.0 0.0 -5.334505791490e+01 
-4.307395780519e+01 2.621702005833e+01 0.0 
2.621702005833e+01 -1.310251852695e+02 0.0 
0.0 0.0 -5.182974292240e+01 
-6.723250235350e+01 2.684850554191e+01 0.0 
2.684850554191e+01 -1.195614719534e+02 0.0 
0.0 0.0 -5.563819229208e+01 
-6.356507666260e+01 2.479819314894e+01 0.0 
2.479819314894e+01 -1.007508815880e+02 0.0 
0.0 0.0 -4.889478747518e+01 
-5.981074421821e+01 2.634717694045e+01 0.0 
2.634717694045e+01 -9.874091015158e+01 0.0 
0.0 0.0 -4.716549631094e+01 
-5.259161463277e+01 2.912414017641e+01 0.0 
2.912414017641e+01 -1.154124278891e+02 0.0 
0.0 0.0 -5.000121275655e+01 
-4.959934218655e+01 2.859998203124e+01 0.0 
2.859998203124e+01 -9.633808524589e+01 0.0 
0.0 0.0 -4.338122822973e+01 
-4.284003407483e+01 1.891532465953e+01 0.0 
1.891532465953e+01 -1.627182424252e+02 0.0 
0.0 0.0 -6.126748295000e+01 
-7.433284193256e+01 1.607347777298e+01 0.0 
1.607347777298e+01 -2.399038941357e+02 0.0 
0.0 0.0 -9.387102082048e+01 
-8.121093565925e+01 -4.133458687435e+00 0.0 
-4.133458687435e+00 -2.085539901497e+02 0.0 
0.0 0.0 -8.652947774269e+01 
-1.010774377595e+02 -2.041634495773e+00 0.0 
-2.041634495773e+00 -2.597830560338e+02 0.0 
0.0 0.0 -1.078581481380e+02 
-8.764618763897e+01 -1.641223677132e+00 0.0 
-1.641223677132e+00 -2.532487704491e+02 0.0 
0.0 0.0 -1.018684874264e+02 
-8.668197113784e+01 7.145055609554e+00 0.0 
7.145055609554e+00 -1.732059292233e+02 0.0 
0.0 0.0 -7.756637010835e+01 
-8.910224209620e+01 6.776876331383e+00 0.0 
6.776876331383e+00 -1.841969431527e+02 0.0 
0.0 0.0 -8.158975557468e+01 
-6.093482532309e+01 2.178083534714e+00 0.0 
2.178083534714e+00 -1.026203948209e+02 0.0 
0.0 0.0 -4.866656604321e+01 
-5.658209456710e+01 1.446290566283e+00 0.0 
1.446290566283e+00 -9.335968581772e+01 0.0 
0.0 0.0 -4.458253411545e+01 
-3.233807584595e+01 -5.106400452025e+00 0.0 
-5.106400452025e+00 -7.703979675346e+01 0.0 
0.0 0.0 -3.241336177982e+01 
-3.015756695622e+01 -5.654395945901e+00 0.0 
-5.654395945901e+00 -6.883842502571e+01 0.0 
0.0 0.0 -2.929670262867e+01 
-8.691189023372e+01 -4.070000305560e+00 0.0 
-4.070000305560e+00 -2.373362719509e+02 0.0 
0.0 0.0 -9.687444865538e+01 
-1.308859787285e+02 4.937313484401e+00 0.0 
4.937313484401e+00 -3.344802981040e+02 0.0 
0.0 0.0 -1.392098830498e+02 
-9.458489100407e+01 1.416307539159e+01 0.0 
1.416307539159e+01 -1.849636284808e+02 0.0 
0.0 0.0 -8.346455584547e+01 
-9.850811093490e+01 1.672232967463e+01 0.0 
1.672232967463e+01 -1.972195765230e+02 0.0 
0.0 0.0 -8.831830623736e+01 
-9.712298370678e+01 1.748422421127e+01 0.0 
1.748422421127e+01 -1.885286969151e+02 0.0 
0.0 0.0 -8.529550418657e+01 
-1.284339986065e+02 1.039335476977e+01 0.0 
1.039335476977e+01 -3.366579604338e+02 0.0 
0.0 0.0 -1.391275877121e+02 
-4.509857160896e+01 7.169438375653e+00 0.0 
7.169438375653e+00 -1.838143760626e+02 0.0 
0.0 0.0 -6.827388430146e+01 
-8.033447584096e+01 8.990664673677e+00 0.0 
8.990664673677e+00 -2.560126530394e+02 0.0 
0.0 0.0 -1.005041386641e+02 
-2.862649820204e+01 -1.053703722896e+01 0.0 
-1.053703722896e+01 -1.246489977287e+02 0.0 
0.0 0.0 -4.723669950228e+01 
-7.882127748999e+01 2.605332353817e+01 0.0 
2.605332353817e+01 -2.210361572055e+02 0.0 
0.0 0.0 -8.955723040863e+01 
-2.370828879305e+01 -3.708640005091e+00 0.0 
-3.708640005091e+00 -5.666358311417e+01 0.0 
0.0 0.0 -2.371156157217e+01 
-9.267924639226e+01 2.890994074835e+01 0.0 
2.890994074835e+01 -1.988062130755e+02 0.0 
0.0 0.0 -8.704563784032e+01 
-1.368502256386e+02 4.512328810115e-01 0.0 
4.512328810115e-01 -3.304551700802e+02 0.0 
0.0 0.0 -1.397916187156e+02 
-1.416488059338e+02 8.685531638295e-01 0.0 
8.685531638295e-01 -3.413021685499e+02 0.0 
0.0 0.0 -1.444852923451e+02 
-1.226064811484e+02 2.464285331552e+01 0.0 
2.464285331552e+01 -3.182531194076e+02 0.0 
0.0 0.0 -1.318578801668e+02 
-5.794002061336e+01 1.491559364900e+01 0.0 
1.491559364900e+01 -6.987795796109e+01 0.0 
0.0 0.0 -3.794539357234e+01 
-8.263876325281e+01 2.465561659539e+01 0.0 
2.465561659539e+01 -2.361617166472e+02 0.0 
0.0 0.0 -9.524014396999e+01 
-7.828960242618e+01 2.281940395700e+01 0.0 
2.281940395700e+01 -2.333936976736e+02 0.0 
0.0 0.0 -9.310499002994e+01 
-5.597041935323e+01 2.395873091820e+01 0.0 
2.395873091820e+01 -7.944767390892e+01 0.0 
0.0 0.0 -4.022542797865e+01 
-5.253773077248e+01 2.554193047200e+01 0.0 
2.554193047200e+01 -7.786677974593e+01 0.0 
0.0 0.0 -3.872135315552e+01 
-5.617551783387e+01 2.745609905020e+01 0.0 
2.745609905020e+01 -9.741615288667e+01 0.0 
0.0 0.0 -4.567750121616e+01 
-4.942484762171e+01 2.678690537694e+01 0.0 
2.678690537694e+01 -7.713217832923e+01 0.0 
0.0 0.0 -3.756710778528e+01 
-5.338102562841e+01 -1.226182724334e+01 0.0 
-1.226182724334e+01 -1.617031311541e+02 0.0 
0.0 0.0 -6.412524703475e+01 
-5.200679075029e+01 -1.283236820236e+01 0.0 
-1.283236820236e+01 -1.475230599974e+02 0.0 
0.0 0.0 -5.945895522430e+01 
-1.183474240870e+02 3.155597844822e+01 0.0 
3.155597844822e+01 -2.856004784385e+02 0.0 
0.0 0.0 -1.207843707577e+02 
-1.188649920210e+02 2.977108834365e+01 0.0 
2.977108834365e+01 -2.963887698747e+02 0.0 
0.0 0.0 -1.241761285687e+02 
-1.158337518430e+02 3.202710035955e+01 0.0 
3.202710035955e+01 -2.708593087378e+02 0.0 
0.0 0.0 -1.156079181742e+02 
-1.118702793741e+02 3.129726486220e+01 0.0 
3.129726486220e+01 -2.555120068253e+02 0.0 
0.0 0.0 -1.098146858598e+02 
-1.290280141171e+02 2.362643162821e+01 0.0 
2.362643162821e+01 -3.311861650648e+02 0.0 
0.0 0.0 -1.376642537545e+02 
-1.238341854709e+02 2.112202347312e+01 0.0 
2.112202347312e+01 -3.257845462091e+02 0.0 
0.0 0.0 -1.344856195040e+02 
-4.738487572184e+01 -2.013009583995e+00 0.0 
-2.013009583995e+00 -1.191545459435e+02 0.0 
0.0 0.0 -4.956182649961e+01 
-4.396651977687e+01 2.775121102498e+01 0.0 
2.775121102498e+01 -7.692270531040e+01 0.0 
0.0 0.0 -3.586676752618e+01 
-9.437889230388e+01 1.084076943757e+01 0.0 
1.084076943757e+01 -1.939524087270e+02 0.0 
0.0 0.0 -8.609939030926e+01 
-5.944145074091e+01 2.176470980020e+01 0.0 
2.176470980020e+01 -8.187486318364e+01 0.0 
0.0 0.0 -4.199489417737e+01 
-1.414684029462e+02 6.087172068927e+00 0.0 
6.087172068927e+00 -3.525195944726e+02 0.0 
0.0 0.0 -1.477963992256e+02 
-1.365019839262e+02 4.527891635345e+00 0.0 
4.527891635345e+00 -3.424261852596e+02 0.0 
0.0 0.0 -1.432784507557e+02 
-3.421478611213e+01 -1.097144066874e+01 0.0 
-1.097144066874e+01 -1.195737995017e+02 0.0 
0.0 0.0 -4.799121618721e+01 
-3.382366204273e+01 -2.149108964271e+01 0.0 
-2.149108964271e+01 -1.099585902664e+02 0.0 
0.0 0.0 -4.391474053586e+01 
-8.789745562304e+01 3.126737222052e+00 0.0 
3.126737222052e+00 -1.870024572610e+02 0.0 
0.0 0.0 -8.206997386522e+01 
-3.800771736909e+01 2.821925019278e+01 0.0 
2.821925019278e+01 -7.575150000089e+01 0.0 
0.0 0.0 -3.372776521100e+01 
-3.847971982145e+01 2.785523100129e+01 0.0 
2.785523100129e+01 -7.524335222171e+01 0.0 
0.0 0.0 -3.371692161295e+01 
-3.765882917714e+01 2.857911536573e+01 0.0 
2.857911536573e+01 -7.642110712455e+01 0.0 
0.0 0.0 -3.352320667777e+01 
-1.560363018067e+02 2.739123854951e-01 0.0 
2.739123854951e-01 -3.693617105132e+02 0.0 
0.0 0.0 -1.572194036960e+02 
-3.915776022832e+01 4.206215608246e-02 0.0 
4.206215608246e-02 -5.518344701915e+01 0.0 
0.0 0.0 -2.790236217424e+01 
-1.462140753158e+02 7.193797709866e-01 0.0 
7.193797709866e-01 -3.497168950485e+02 0.0 
0.0 0.0 -1.483792911093e+02 
-5.597356513172e+01 2.906547488557e+01 0.0 
2.906547488557e+01 -1.159096503587e+02 0.0 
0.0 0.0 -5.116496464714e+01 
-9.135265771445e+01 4.305065489006e+00 0.0 
4.305065489006e+00 -1.970765493133e+02 0.0 
0.0 0.0 -8.612876210832e+01 
-8.690290035967e+01 2.315950111134e+01 0.0 
2.315950111134e+01 -2.507053267120e+02 0.0 
0.0 0.0 -1.008824681215e+02 
-5.109784074526e+01 2.680929291236e+01 0.0 
2.680929291236e+01 -1.501117169276e+02 0.0 
0.0 0.0 -5.996286730186e+01 
-1.175712808495e+02 8.840217215890e+00 0.0 
8.840217215890e+00 -3.189335243542e+02 0.0 
0.0 0.0 -1.305514415611e+02 
-8.419724924775e+01 2.076016200981e+00 0.0 
2.076016200981e+00 -1.759634573229e+02 0.0 
0.0 0.0 -7.764821197118e+01 
-9.092251327800e+01 2.427383942740e+00 0.0 
2.427383942740e+00 -1.984641371905e+02 0.0 
0.0 0.0 -8.641599514054e+01 
-5.877520953583e+01 2.861768674668e+00 0.0 
2.861768674668e+00 -9.060765749668e+01 0.0 
0.0 0.0 -4.441486010975e+01 
-5.336757422513e+01 1.880182169066e+00 0.0 
1.880182169066e+00 -8.050462261547e+01 0.0 
0.0 0.0 -3.976165905218e+01 
-6.379650131329e+01 4.286792255530e+00 0.0 
4.286792255530e+00 -9.992507329538e+01 0.0 
0.0 0.0 -4.871647238260e+01 
-2.928462207258e+01 1.741138545463e+01 0.0 
1.741138545463e+01 -1.218191217992e+02 0.0 
0.0 0.0 -4.587155977837e+01 
-3.184630488525e+01 2.294584133266e+01 0.0 
2.294584133266e+01 -1.083279404477e+02 0.0 
0.0 0.0 -4.305518482598e+01 
-8.545420596330e+01 5.287656091715e+00 0.0 
5.287656091715e+00 -1.743594812531e+02 0.0 
0.0 0.0 -7.754410616493e+01 
-5.734794382925e+01 -3.757770736204e+00 0.0 
-3.757770736204e+00 -1.436682815202e+02 0.0 
0.0 0.0 -5.990486760482e+01 
-6.151653911011e+01 -2.911438631566e+00 0.0 
-2.911438631566e+00 -1.542319973286e+02 0.0 
0.0 0.0 -6.432456093161e+01 
-4.145631980517e+01 -1.063073635309e+01 0.0 
-1.063073635309e+01 -9.697029787747e+01 0.0 
0.0 0.0 -4.111990670287e+01 
-4.713979625044e+01 -1.107597375187e+01 0.0 
-1.107597375187e+01 -1.181829563401e+02 0.0 
0.0 0.0 -4.919682577715e+01 
-8.915983767501e+01 -3.285669995786e+00 0.0 
-3.285669995786e+00 -2.284785219863e+02 0.0 
0.0 0.0 -9.489150789840e+01 
-8.488751547402e+01 -4.164712089829e+00 0.0 
-4.164712089829e+00 -2.207102118687e+02 0.0 
0.0 0.0 -9.127931820282e+01 
-9.638426350882e+01 2.960653700409e+01 0.0 
2.960653700409e+01 -2.159059892325e+02 0.0 
0.0 0.0 -9.328707582240e+01 
-1.000106345954e+02 2.946573590340e+01 0.0 
2.946573590340e+01 -2.189330426056e+02 0.0 
0.0 0.0 -9.528310316033e+01 
-8.825194716182e+01 2.939100273183e+01 0.0 
2.939100273183e+01 -2.109038912845e+02 0.0 
0.0 0.0 -8.934675153389e+01 
-9.713590534196e+01 5.262308646009e+00 0.0 
5.262308646009e+00 -2.829234457402e+02 0.0 
0.0 0.0 -1.136178053246e+02 
-8.792217194110e+01 3.394706574288e+00 0.0 
3.394706574288e+00 -2.654251013893e+02 0.0 
0.0 0.0 -1.056041819991e+02 
-8.233481855273e+01 4.405492162195e+00 0.0 
4.405492162195e+00 -2.572062590344e+02 0.0 
0.0 0.0 -1.014623232761e+02 
-9.229160626002e+01 8.377127479641e+00 0.0 
8.377127479641e+00 -1.935372031021e+02 0.0 
0.0 0.0 -8.534864280862e+01 
-9.531558318708e+01 7.826708599275e+00 0.0 
7.826708599275e+00 -2.069448370744e+02 0.0 
0.0 0.0 -9.027812607843e+01 
-5.442833201860e+01 -1.064064064756e+01 0.0 
-1.064064064756e+01 -1.750600884888e+02 0.0 
0.0 0.0 -6.844652615223e+01 
-4.974388755508e+01 -1.068723263379e+01 0.0 
-1.068723263379e+01 -1.703184056067e+02 0.0 
0.0 0.0 -6.561868794854e+01 
-5.738243579928e+01 -1.114413514836e+01 0.0 
-1.114413514836e+01 -1.668402956764e+02 0.0 
0.0 0.0 -6.686681944272e+01 
-9.792722351081e+01 1.294542854781e+01 0.0 
1.294542854781e+01 -2.047997744313e+02 0.0 
0.0 0.0 -9.041809938265e+01 
-1.509028718097e+02 1.113459538714e+00 0.0 
1.113459538714e+00 -3.601444716082e+02 0.0 
0.0 0.0 -1.529142030254e+02 
-1.464380557763e+02 1.444301639769e+00 0.0 
1.444301639769e+00 -3.520252790681e+02 0.0 
0.0 0.0 -1.491390004533e+02 
-2.131616603669e+01 -3.760201199449e+00 0.0 
-3.760201199449e+00 -4.854371552790e+01 0.0 
0.0 0.0 -2.055586950347e+01 
-2.824788563155e+01 -6.022534739441e+00 0.0 
-6.022534739441e+00 -6.057645379971e+01 0.0 
0.0 0.0 -2.615176484004e+01 
-3.792774934152e+01 2.941899099844e+01 0.0 
2.941899099844e+01 -8.008739459301e+01 0.0 
0.0 0.0 -3.401448754649e+01 
-3.718725022451e+01 3.006907930599e+01 0.0 
3.006907930599e+01 -8.430745883632e+01 0.0 
0.0 0.0 -3.594314129098e+01 
-1.019677974896e+02 1.928234999594e+01 0.0 
1.928234999594e+01 -2.095421949147e+02 0.0 
0.0 0.0 -9.305299772131e+01 
-1.011206455133e+02 2.019455017760e+01 0.0 
2.019455017760e+01 -2.020937928030e+02 0.0 
0.0 0.0 -9.056433149488e+01 
-1.037058997166e+02 1.863104027096e+01 0.0 
1.863104027096e+01 -2.201217498894e+02 0.0 
0.0 0.0 -9.674829488181e+01 
-4.177277397471e+01 -1.297563963634e+00 0.0 
-1.297563963634e+00 -1.061699565557e+02 0.0 
0.0 0.0 -4.398281915912e+01 
-1.005913977171e+02 2.549731213387e+01 0.0 
2.549731213387e+01 -2.717094832154e+02 0.0 
0.0 0.0 -1.112902642798e+02 
-1.394330928966e+02 1.184679341716e+01 0.0 
1.184679341716e+01 -3.535633178818e+02 0.0 
0.0 0.0 -1.474989232335e+02 
-1.327543557100e+02 1.283594787295e+01 0.0 
1.283594787295e+01 -3.441746598596e+02 0.0 
0.0 0.0 -1.426787046709e+02 
-1.471887353387e+02 1.099391411894e+01 0.0 
1.099391411894e+01 -3.648599231620e+02 0.0 
0.0 0.0 -1.532145975502e+02 
-1.164667740619e+02 2.560173849011e+01 0.0 
2.560173849011e+01 -3.046005666110e+02 0.0 
0.0 0.0 -1.259202022019e+02 
-1.270859807702e+02 2.675130149821e+01 0.0 
2.675130149821e+01 -3.221328672242e+02 0.0 
0.0 0.0 -1.343656543983e+02 
-1.251010978820e+02 2.928022403261e+01 0.0 
2.928022403261e+01 -3.113665490901e+02 0.0 
0.0 0.0 -1.305402940916e+02 
-4.077345298705e+01 8.773537631438e-01 0.0 
8.773537631438e-01 -1.214164422706e+02 0.0 
0.0 0.0 -5.049422818707e+01 
-8.849670225913e+01 1.625362970993e+00 0.0 
1.625362970993e+00 -1.911325582879e+02 0.0 
0.0 0.0 -8.348877816412e+01 
-5.230000506963e+01 1.241958956198e+00 0.0 
1.241958956198e+00 -8.169346072486e+01 0.0 
0.0 0.0 -3.979803973835e+01 
-5.124883531840e+01 -7.240215814808e+00 0.0 
-7.240215814808e+00 -1.167708748629e+02 0.0 
0.0 0.0 -5.184821158828e+01 
-4.793623737290e+01 7.248961677666e-01 0.0 
7.248961677666e-01 -7.272614979227e+01 0.0 
0.0 0.0 -3.579871614955e+01 
-5.217220534208e+01 9.071751830935e-01 0.0 
9.071751830935e-01 -8.408879967881e+01 0.0 
0.0 0.0 -4.047830150627e+01 
-4.318300121289e+01 3.846111735368e-01 0.0 
3.846111735368e-01 -6.263146327500e+01 0.0 
0.0 0.0 -3.134433934637e+01 
-3.310045198724e+01 -1.148345593590e+00 0.0 
-1.148345593590e+00 -8.642558489317e+01 0.0 
0.0 0.0 -3.545781106412e+01 
-5.358037066820e+01 2.560480046240e+00 0.0 
2.560480046240e+00 -7.649498692466e+01 0.0 
0.0 0.0 -3.862260727786e+01 
-6.058389639043e+01 4.389159692851e+00 0.0 
4.389159692851e+00 -8.947764651699e+01 0.0 
0.0 0.0 -4.461846287223e+01 
-1.770274222499e+01 -3.355314428413e+00 0.0 
-3.355314428413e+00 -3.695434744106e+01 0.0 
0.0 0.0 -1.603313266082e+01 
-9.909041945401e+01 1.205670295810e+01 0.0 
1.205670295810e+01 -2.145568879026e+02 0.0 
0.0 0.0 -9.369419220698e+01 
-1.471595666763e+01 -2.169215964092e+00 0.0 
-2.169215964092e+00 -3.776589474710e+01 0.0 
0.0 0.0 -1.534455542442e+01 
-1.746107561772e+01 -2.278210081714e+00 0.0 
-2.278210081714e+00 -4.567129101930e+01 0.0 
0.0 0.0 -1.853970999111e+01 
-1.470048363734e+02 5.451536784912e+00 0.0 
5.451536784912e+00 -3.606723077738e+02 0.0 
0.0 0.0 -1.519031432442e+02 
-1.418280162752e+02 4.098645811373e+00 0.0 
4.098645811373e+00 -3.501933625075e+02 0.0 
0.0 0.0 -1.472064136348e+02 
-1.519343817649e+02 4.871690292081e+00 0.0 
4.871690292081e+00 -3.679989686312e+02 0.0 
0.0 0.0 -1.555800051188e+02 
-1.466836975592e+02 3.638685597468e+00 0.0 
3.638685597468e+00 -3.573789845336e+02 0.0 
0.0 0.0 -1.508188046278e+02 
-1.369570196294e+02 2.908673198441e+00 0.0 
2.908673198441e+00 -3.394350881143e+02 0.0 
0.0 0.0 -1.425176323231e+02 
-1.421485593590e+02 2.650642305201e+00 0.0 
2.650642305201e+00 -3.475327543530e+02 0.0 
0.0 0.0 -1.465043941136e+02 
-4.810658386194e+01 1.080143397222e+00 0.0 
1.080143397222e+00 -7.055429110109e+01 0.0 
0.0 0.0 -3.519826248891e+01 
-1.532144269515e+02 3.351837203590e+00 0.0 
3.351837203590e+00 -3.681042420323e+02 0.0 
0.0 0.0 -1.559956006951e+02 
-1.473560268942e+02 2.366515236409e+00 0.0 
2.366515236409e+00 -3.558875870561e+02 0.0 
0.0 0.0 -1.505730841851e+02 
-1.580463922729e+02 2.823246481977e+00 0.0 
2.823246481977e+00 -3.765637623389e+02 0.0 
0.0 0.0 -1.599830463836e+02 
-4.586444624763e+01 2.444102989027e+01 0.0 
2.444102989027e+01 -5.690805358280e+01 0.0 
0.0 0.0 -3.043174994913e+01 
-4.068790120016e+01 2.813387099131e+01 0.0 
2.813387099131e+01 -9.455127382405e+01 0.0 
0.0 0.0 -4.017175250726e+01 
-3.917364114890e+01 2.761680993311e+01 0.0 
2.761680993311e+01 -7.516879489702e+01 0.0 
0.0 0.0 -3.390273081378e+01 
-3.735393781473e+01 2.674442907142e+01 0.0 
2.674442907142e+01 -5.409229770452e+01 0.0 
0.0 0.0 -2.703387065577e+01 
-1.200870427125e+02 3.300692535255e+01 0.0 
3.300692535255e+01 -2.773543552741e+02 0.0 
0.0 0.0 -1.188324193960e+02 
-1.142140743776e+02 3.145832845022e+01 0.0 
3.145832845022e+01 -2.579467158061e+02 0.0 
0.0 0.0 -1.112482370551e+02 
-1.322296490262e+02 1.634207380142e-01 0.0 
1.634207380142e-01 -3.199931456310e+02 0.0 
0.0 0.0 -1.352668383972e+02 
-1.231559679429e+02 -1.048567236386e-01 0.0 
-1.048567236386e-01 -3.003452707764e+02 0.0 
0.0 0.0 -1.266503716158e+02 
-4.741029324837e+01 4.482019289940e-01 0.0 
4.482019289940e-01 -7.383609454892e+01 0.0 
0.0 0.0 -3.597391633919e+01 
-4.662545008162e+01 3.494396683341e-01 0.0 
3.494396683341e-01 -7.278070758244e+01 0.0 
0.0 0.0 -3.542184729922e+01 
-5.396991055992e+01 5.501565916175e-01 0.0 
5.501565916175e-01 -9.070553221843e+01 0.0 
0.0 0.0 -4.300263283350e+01 
-5.265554902595e+01 4.812096972298e-01 0.0 
4.812096972298e-01 -8.826940253163e+01 0.0 
0.0 0.0 -4.187748546727e+01 
-5.979989156991e+01 7.087427906121e-01 0.0 
7.087427906121e-01 -1.063616421436e+02 0.0 
0.0 0.0 -4.944846011405e+01 
-5.855105277145e+01 5.743627322102e-01 0.0 
5.743627322102e-01 -1.036141573173e+02 0.0 
0.0 0.0 -4.824956302662e+01 
-6.566977446756e+01 1.050007038152e+00 0.0 
1.050007038152e+00 -1.221529895856e+02 0.0 
0.0 0.0 -5.594682921594e+01 
-1.289613610031e+02 3.143983156594e+01 0.0 
3.143983156594e+01 -3.142931771273e+02 0.0 
0.0 0.0 -1.325763614391e+02 
-3.827387404013e+01 2.818168931831e+01 0.0 
2.818168931831e+01 -5.658687417351e+01 0.0 
0.0 0.0 -2.772353481760e+01 
-5.155590929901e+01 2.023292709589e+01 0.0 
2.023292709589e+01 -5.967586745356e+01 0.0 
0.0 0.0 -3.296953302577e+01 
-1.353933546985e+02 2.249441399003e+01 0.0 
2.249441399003e+01 -3.431813567618e+02 0.0 
0.0 0.0 -1.431724134381e+02 
-1.292748710037e+02 1.983797082177e+01 0.0 
1.983797082177e+01 -3.360126642601e+02 0.0 
0.0 0.0 -1.391862605791e+02 
-4.629984515509e+01 2.745020949393e+01 0.0 
2.745020949393e+01 -7.671631556636e+01 0.0 
0.0 0.0 -3.650484821643e+01 
-4.052569360772e+01 2.605216673148e+01 0.0 
2.605216673148e+01 -5.671898078598e+01 0.0 
0.0 0.0 -2.877340231811e+01 
-1.482233154367e+02 7.857819186186e+00 0.0 
7.857819186186e+00 -3.649787512187e+02 0.0 
0.0 0.0 -1.535606199966e+02 
-4.437445834780e+01 2.415602558060e+01 0.0 
2.415602558060e+01 -1.478528160888e+02 0.0 
0.0 0.0 -5.726818233097e+01 
-1.027821643382e+02 1.453759876810e+01 0.0 
1.453759876810e+01 -2.286066037297e+02 0.0 
0.0 0.0 -9.901663042037e+01 
-5.836875154056e+01 2.499330632040e+01 0.0 
2.499330632040e+01 -8.665025405577e+01 0.0 
0.0 0.0 -4.430568553832e+01 
-4.192060195843e+01 2.386607562288e+01 0.0 
2.386607562288e+01 -1.021314452888e+02 0.0 
0.0 0.0 -4.459157466857e+01 
-4.760727647788e+01 2.559264489444e+01 0.0 
2.559264489444e+01 -1.487055925042e+02 0.0 
0.0 0.0 -5.849386069462e+01 
-5.282314939479e+01 2.823344258275e+01 0.0 
2.823344258275e+01 -9.672108021151e+01 0.0 
0.0 0.0 -4.446326888189e+01 
-4.238493658757e+01 2.821046059975e+01 0.0 
2.821046059975e+01 -9.473005818562e+01 0.0 
0.0 0.0 -4.073449843196e+01 
-4.066957890264e+01 2.787096822657e+01 0.0 
2.787096822657e+01 -7.640010766263e+01 0.0 
0.0 0.0 -3.472090596958e+01 
-1.069768735168e+02 7.087532663329e+00 0.0 
7.087532663329e+00 -3.007803298767e+02 0.0 
0.0 0.0 -1.219271610181e+02 
-2.736181766629e+01 -6.690038323262e+00 0.0 
-6.690038323262e+00 -5.332323594209e+01 0.0 
0.0 0.0 -2.348693927187e+01 
-3.795781315484e+01 2.896878688040e+01 0.0 
2.896878688040e+01 -7.792045379230e+01 0.0 
0.0 0.0 -3.342918328845e+01 
-6.701631069084e+01 1.319260811835e+00 0.0 
1.319260811835e+00 -1.244581034956e+02 0.0 
0.0 0.0 -5.704232425594e+01 
-4.006652125831e+01 2.972818036219e+01 0.0 
2.972818036219e+01 -5.911036446497e+01 0.0 
0.0 0.0 -2.787592255997e+01 
-1.280827911698e+02 5.812757277503e-03 0.0 
5.812757277503e-03 -3.104832833656e+02 0.0 
0.0 0.0 -1.311698223606e+02 
-4.623978505849e+01 2.146041891484e+01 0.0 
2.146041891484e+01 -1.639692254386e+02 0.0 
0.0 0.0 -6.266270314913e+01 
-5.897243837720e+01 2.932608395879e+01 0.0 
2.932608395879e+01 -1.346146627381e+02 0.0 
0.0 0.0 -5.767613033459e+01 
-3.656128742843e+01 2.777158215520e+01 0.0 
2.777158215520e+01 -9.600351907900e+01 0.0 
0.0 0.0 -3.918704196991e+01 
-4.210468875282e+01 2.761120371875e+01 0.0 
2.761120371875e+01 -1.136346257215e+02 0.0 
0.0 0.0 -4.632179434228e+01 
-7.485133997334e+01 2.362196158610e+01 0.0 
2.362196158610e+01 -1.257356060367e+02 0.0 
0.0 0.0 -5.977608380300e+01 
-6.613382477884e+01 1.704954451692e+01 0.0 
1.704954451692e+01 -9.190063156641e+01 0.0 
0.0 0.0 -4.701033690358e+01 
-6.296132011336e+01 1.931858016967e+01 0.0 
1.931858016967e+01 -8.628686903747e+01 0.0 
0.0 0.0 -4.437445674525e+01 
-4.854362996842e+01 1.829812859106e+01 0.0 
1.829812859106e+01 -1.785717339699e+02 0.0 
0.0 0.0 -6.773460918150e+01 
-4.192644235707e+01 2.776346427949e+01 0.0 
2.776346427949e+01 -7.654020549557e+01 0.0 
0.0 0.0 -3.513999435579e+01 
-3.776424351575e+01 2.631805615680e+01 0.0 
2.631805615680e+01 -5.441570086757e+01 0.0 
0.0 0.0 -2.725398331499e+01 
-7.062793108068e+01 2.821208579148e+01 0.0 
2.821208579148e+01 -1.381729038126e+02 0.0 
0.0 0.0 -6.224025046799e+01 
-9.549177193893e+01 1.825308112996e+01 0.0 
1.825308112996e+01 -1.803494413013e+02 0.0 
0.0 0.0 -8.235236397207e+01 
-9.939475303711e+01 2.091823314355e+01 0.0 
2.091823314355e+01 -1.942106302666e+02 0.0 
0.0 0.0 -8.768161499111e+01 
-1.045774708485e+02 2.273078993958e+01 0.0 
2.273078993958e+01 -2.152856330534e+02 0.0 
0.0 0.0 -9.555893117057e+01 
-1.032970997936e+02 2.351267711579e+01 0.0 
2.351267711579e+01 -2.087439723109e+02 0.0 
0.0 0.0 -9.321232163135e+01 
-9.759089169531e+01 2.185574484677e+01 0.0 
2.185574484677e+01 -1.871837561601e+02 0.0 
0.0 0.0 -8.503239435662e+01 
-1.014726385186e+02 2.437794315565e+01 0.0 
2.437794315565e+01 -2.022407033215e+02 0.0 
0.0 0.0 -9.071400255202e+01 
-1.068531822693e+02 2.586992709470e+01 0.0 
2.586992709470e+01 -2.234763918877e+02 0.0 
0.0 0.0 -9.869887224710e+01 
-1.055369603111e+02 2.668106660741e+01 0.0 
2.668106660741e+01 -2.184614234664e+02 0.0 
0.0 0.0 -9.679951513325e+01 
-1.119750121637e+02 2.868953109631e+01 0.0 
2.868953109631e+01 -2.430128048150e+02 0.0 
0.0 0.0 -1.060963450936e+02 
-1.092966874937e+02 2.884013586284e+01 0.0 
2.884013586284e+01 -2.344164805720e+02 0.0 
0.0 0.0 -1.027139504197e+02 
-1.027839233924e+02 2.726949250666e+01 0.0 
2.726949250666e+01 -2.124062765025e+02 0.0 
0.0 0.0 -9.415705996848e+01 
-1.063356502087e+02 2.896150393887e+01 0.0 
2.896150393887e+01 -2.280578243452e+02 0.0 
0.0 0.0 -9.991804236616e+01 
-1.126966100904e+02 3.054729682033e+01 0.0 
3.054729682033e+01 -2.483843223640e+02 0.0 
0.0 0.0 -1.079242797363e+02 
-9.973381726867e+01 2.789074709087e+01 0.0 
2.789074709087e+01 -2.068828948329e+02 0.0 
0.0 0.0 -9.158501363048e+01 
-1.408758917166e+02 2.503639218503e+01 0.0 
2.503639218503e+01 -3.484006123279e+02 0.0 
0.0 0.0 -1.463829512133e+02 
-5.330031068825e+01 2.509138111971e+01 0.0 
2.509138111971e+01 -1.665540117503e+02 0.0 
0.0 0.0 -6.555629673157e+01 
-3.317607233909e+01 1.257384128286e+01 0.0 
1.257384128286e+01 -1.178812317874e+02 0.0 
0.0 0.0 -4.725088421137e+01 
-3.804193524751e+01 3.146351050887e+01 0.0 
3.146351050887e+01 -9.039683777136e+01 0.0 
0.0 0.0 -3.928769098334e+01 
-6.270963845760e+01 2.928181555153e+01 0.0 
2.928181555153e+01 -1.354760658380e+02 0.0 
0.0 0.0 -5.905571128868e+01 
-1.155497986149e+02 2.978872525399e+01 0.0 
2.978872525399e+01 -2.605436890085e+02 0.0 
0.0 0.0 -1.124280462870e+02 
-1.112671904813e+02 2.540228186601e+01 0.0 
2.540228186601e+01 -2.484004962721e+02 0.0 
0.0 0.0 -1.075003060260e+02 
-3.817463372346e+01 1.997723865290e+01 0.0 
1.997723865290e+01 -1.471598100113e+02 0.0 
0.0 0.0 -5.520033312042e+01 
-1.287179507285e+02 3.529479637787e+01 0.0 
3.529479637787e+01 -3.005354406442e+02 0.0 
0.0 0.0 -1.283760174118e+02 
-6.732860726886e+01 2.279764226977e+01 0.0 
2.279764226977e+01 -1.039399705580e+02 0.0 
0.0 0.0 -5.098057334805e+01 
-2.991068317691e+01 1.442863367902e+01 0.0 
1.442863367902e+01 -1.334193895306e+02 0.0 
0.0 0.0 -4.903173950259e+01 
-1.342453961108e+02 3.487721971081e+01 0.0 
3.487721971081e+01 -3.176191064547e+02 0.0 
0.0 0.0 -1.351593507696e+02 
-9.358446335730e+01 1.916098325112e+01 0.0 
1.916098325112e+01 -1.725415755604e+02 0.0 
0.0 0.0 -7.943781167531e+01 
-9.127763596334e+01 2.023324195419e+01 0.0 
2.023324195419e+01 -1.650560126330e+02 0.0 
0.0 0.0 -7.650009457889e+01 
-8.706351352687e+01 1.738946840523e+01 0.0 
1.738946840523e+01 -1.505538640118e+02 0.0 
0.0 0.0 -7.088521326160e+01 
-1.079576172395e+02 2.130109029050e+01 0.0 
2.130109029050e+01 -2.408781631155e+02 0.0 
0.0 0.0 -1.042507341065e+02 
-6.917764138601e+01 6.122916184940e+00 0.0 
6.122916184940e+00 -1.103892410827e+02 0.0 
0.0 0.0 -5.347006474060e+01 
-1.445805314659e+02 3.014590257861e+01 0.0 
3.014590257861e+01 -3.477360613146e+02 0.0 
0.0 0.0 -1.472949778341e+02 
-8.314539721757e+01 1.681678757191e+01 0.0 
1.681678757191e+01 -2.566821005303e+02 0.0 
0.0 0.0 -1.015482493244e+02 
-7.839797887656e+01 1.874665871583e+01 0.0 
1.874665871583e+01 -2.439506416341e+02 0.0 
0.0 0.0 -9.630458615321e+01 
-6.998788376186e+01 1.829333150285e+01 0.0 
1.829333150285e+01 -2.271833477010e+02 0.0 
0.0 0.0 -8.875136943885e+01 
-9.906496726483e+01 2.519799650658e+01 0.0 
2.519799650658e+01 -1.961023913611e+02 0.0 
0.0 0.0 -8.815020758777e+01 
-1.519562589375e+02 2.151603870004e+01 0.0 
2.151603870004e+01 -3.684815094469e+02 0.0 
0.0 0.0 -1.557313305153e+02 
-1.422279563312e+02 1.900396925970e+01 0.0 
1.900396925970e+01 -3.564247352055e+02 0.0 
0.0 0.0 -1.491958074610e+02 
-1.438566863930e+02 1.703673603964e+01 0.0 
1.703673603964e+01 -3.595826381330e+02 0.0 
0.0 0.0 -1.506317973578e+02 
-1.321405883557e+02 1.653891263562e+01 0.0 
1.653891263562e+01 -3.425926869217e+02 0.0 
0.0 0.0 -1.420199825832e+02 
-1.551936192109e+02 1.707555690237e+01 0.0 
1.707555690237e+01 -3.754288371484e+02 0.0 
0.0 0.0 -1.587867369078e+02 
-1.210665746345e+02 3.311955967404e+01 0.0 
3.311955967404e+01 -2.769243054721e+02 0.0 
0.0 0.0 -1.189972640320e+02 
-1.237288767024e+02 3.429886054736e+01 0.0 
3.429886054736e+01 -2.852792552852e+02 0.0 
0.0 0.0 -1.223024395963e+02 
-4.473804949277e+01 -1.344689574052e+01 0.0 
-1.344689574052e+01 -1.531375352754e+02 0.0 
0.0 0.0 -5.896267543044e+01 
-4.495572593420e+01 -9.939818063947e+00 0.0 
-9.939818063947e+00 -1.660392931529e+02 0.0 
0.0 0.0 -6.289850572613e+01 
-5.057683344221e+01 -7.309656360348e+00 0.0 
-7.309656360348e+00 -1.820943918091e+02 0.0 
0.0 0.0 -6.940136757540e+01 
-4.568973428476e+01 -5.608192838516e+00 0.0 
-5.608192838516e+00 -1.768878656776e+02 0.0 
0.0 0.0 -6.637327998871e+01 
-4.014392914284e+01 -8.062328314798e+00 0.0 
-8.062328314798e+00 -1.619040917924e+02 0.0 
0.0 0.0 -6.021440628058e+01 
-4.101254783117e+01 -2.793485983941e+00 0.0 
-2.793485983941e+00 -1.712449931496e+02 0.0 
0.0 0.0 -6.327726229424e+01 
-4.706476353497e+01 -9.613328457497e-01 0.0 
-9.613328457497e-01 -1.856925595386e+02 0.0 
0.0 0.0 -6.942719692208e+01 
-3.683842493852e+01 1.303229731545e+00 0.0 
1.303229731545e+00 -1.646713877867e+02 0.0 
0.0 0.0 -6.005294381758e+01 
-1.073543976010e+02 3.031701812436e+01 0.0 
3.031701812436e+01 -2.388839438332e+02 0.0 
0.0 0.0 -1.034715024303e+02 
-1.579425631200e+02 1.295232419420e+01 0.0 
1.295232419420e+01 -3.803151882349e+02 0.0 
0.0 0.0 -1.610773254065e+02 
-9.625180951391e+01 3.181892463374e-01 0.0 
3.181892463374e-01 -2.715895504353e+02 0.0 
0.0 0.0 -1.099524079848e+02 
-9.055671285762e+01 4.370858414336e-01 0.0 
4.370858414336e-01 -2.637825598368e+02 0.0 
0.0 0.0 -1.059017818083e+02 
-8.214746634570e+01 -1.618741088510e+00 0.0 
-1.618741088510e+00 -2.458445964298e+02 0.0 
0.0 0.0 -9.799761883266e+01 
-7.716753676499e+01 -5.121605121520e+00 0.0 
-5.121605121520e+00 -2.007459088803e+02 0.0 
0.0 0.0 -8.297403369359e+01 
-8.059865475529e+01 -5.123409718848e+00 0.0 
-5.123409718848e+00 -2.130724285474e+02 0.0 
0.0 0.0 -8.770132499081e+01 
-8.837904609033e+01 -3.919395338528e+00 0.0 
-3.919395338528e+00 -2.327983463060e+02 0.0 
0.0 0.0 -9.595321771891e+01 
-7.347069601216e+01 -4.825334552254e+00 0.0 
-4.825334552254e+00 -1.884094269460e+02 0.0 
0.0 0.0 -7.816403688746e+01 
-9.156591934574e+01 2.748299570820e+01 0.0 
2.748299570820e+01 -2.414551055911e+02 0.0 
0.0 0.0 -9.950630748106e+01 
-1.588286876447e+02 1.118898888462e+01 0.0 
1.118898888462e+01 -3.815783234825e+02 0.0 
0.0 0.0 -1.617221033382e+02 
-8.572965589888e+01 7.424330896647e+00 0.0 
7.424330896647e+00 -2.653912322916e+02 0.0 
0.0 0.0 -1.049362664571e+02 
-7.627515731824e+01 -6.158672546380e+00 0.0 
-6.158672546380e+00 -2.055959114970e+02 0.0 
0.0 0.0 -8.416132064457e+01 
-4.775815492329e+01 3.149305686609e+00 0.0 
3.149305686609e+00 -5.824420890810e+01 0.0 
0.0 0.0 -3.140070914942e+01 
-5.780594605779e+01 5.714115166237e+00 0.0 
5.714115166237e+00 -7.718423299936e+01 0.0 
0.0 0.0 -4.009705371714e+01 
-6.051469943619e+01 8.012363649345e+00 0.0 
8.012363649345e+00 -7.944665600576e+01 0.0 
0.0 0.0 -4.158840663258e+01 
-6.815869451393e+01 9.124009587726e+00 0.0 
9.124009587726e+00 -9.886472480812e+01 0.0 
0.0 0.0 -4.970702579661e+01 
-5.664575611989e+01 4.486939875538e+00 0.0 
4.486939875538e+00 -7.771145263532e+01 0.0 
0.0 0.0 -3.990716262656e+01 
-9.336571778921e+01 -2.487790055123e+00 0.0 
-2.487790055123e+00 -2.364153792853e+02 0.0 
0.0 0.0 -9.853432912237e+01 
-9.751207932917e+01 -1.791253608949e+00 0.0 
-1.791253608949e+00 -2.444789281491e+02 0.0 
0.0 0.0 -1.021973022435e+02 
-9.336790890319e+01 -1.671099534179e+00 0.0 
-1.671099534179e+00 -2.330721862309e+02 0.0 
0.0 0.0 -9.753202854023e+01 
-1.016254512269e+02 -1.194411738320e+00 0.0 
-1.194411738320e+00 -2.526414121782e+02 0.0 
0.0 0.0 -1.058800590215e+02 
-9.716512099905e+01 -1.011750111830e+00 0.0 
-1.011750111830e+00 -2.409548894840e+02 0.0 
0.0 0.0 -1.010360031449e+02 
-8.959944964250e+01 -1.334802257865e+00 0.0 
-1.334802257865e+00 -2.227156907139e+02 0.0 
0.0 0.0 -9.329454210692e+01 
-1.055628257919e+02 -6.710534575229e-01 0.0 
-6.710534575229e-01 -2.605277910697e+02 0.0 
0.0 0.0 -1.094271850585e+02 
-1.003227789139e+02 -6.038284592669e-01 0.0 
-6.038284592669e-01 -2.476976416774e+02 0.0 
0.0 0.0 -1.040061261774e+02 
-4.462134321840e+01 1.467088645513e+00 0.0 
1.467088645513e+00 -5.684769127744e+01 0.0 
0.0 0.0 -3.004071034875e+01 
-4.384183016607e+01 -2.172259507559e+01 0.0 
-2.172259507559e+01 -4.790404633893e+01 0.0 
0.0 0.0 -2.787248087930e+01 
-4.041443878630e+01 -2.390234316787e+01 0.0 
-2.390234316787e+01 -5.722038973069e+01 0.0 
0.0 0.0 -2.897669122049e+01 
-3.419371471333e+01 -1.573476858776e+01 0.0 
-1.573476858776e+01 -4.287107029380e+01 0.0 
0.0 0.0 -2.212840259359e+01 
-3.989548230712e+01 -2.231319281315e+01 0.0 
-2.231319281315e+01 -7.023129882846e+01 0.0 
0.0 0.0 -3.190759180479e+01 
-3.829973067140e+01 -2.534199589383e+01 0.0 
-2.534199589383e+01 -8.779673292315e+01 0.0 
0.0 0.0 -3.757574388995e+01 
-3.932068984748e+01 -2.227518020790e+01 0.0 
-2.227518020790e+01 -9.821328844925e+01 0.0 
0.0 0.0 -4.017615633308e+01 
-3.556182406670e+01 -2.227798516414e+01 0.0 
-2.227798516414e+01 -1.092209719868e+02 0.0 
0.0 0.0 -4.323923629879e+01 
-4.170394271772e+01 -2.717209039959e+01 0.0 
-2.717209039959e+01 -8.421810080721e+01 0.0 
0.0 0.0 -3.835999848995e+01 
-2.073192614058e+01 -5.877020641068e+00 0.0 
-5.877020641068e+00 -1.965331785665e+01 0.0 
0.0 0.0 -1.181909809575e+01 
-2.774088613656e+01 -9.923140566513e+00 0.0 
-9.923140566513e+00 -3.780259908810e+01 0.0 
0.0 0.0 -1.861813371809e+01 
-1.446395372392e+01 -3.193588777721e+00 0.0 
-3.193588777721e+00 -1.769983929051e+01 0.0 
0.0 0.0 -9.131956344696e+00 
-2.227841251318e+01 -6.252868922000e+00 0.0 
-6.252868922000e+00 -3.502295414580e+01 0.0 
0.0 0.0 -1.649291316579e+01 
-3.379644117959e+01 -1.179333458456e+01 0.0 
-1.179333458456e+01 -5.825495104587e+01 0.0 
0.0 0.0 -2.597655096340e+01 
-3.626891622311e+01 -8.026630651587e+00 0.0 
-8.026630651587e+00 -8.226912230001e+01 0.0 
0.0 0.0 -3.514748051507e+01 
-1.609836511360e+02 1.343927834144e+00 0.0 
1.343927834144e+00 -3.804197988657e+02 0.0 
0.0 0.0 -1.620210350005e+02 
-7.707552151515e+01 -6.776670514086e-01 0.0 
-6.776670514086e-01 -1.914211969400e+02 0.0 
0.0 0.0 -8.014901553655e+01 
-7.298643903887e+01 -1.436395115252e+00 0.0 
-1.436395115252e+00 -1.817879012826e+02 0.0 
0.0 0.0 -7.603230209643e+01 
-6.520270987778e+01 -1.489603000124e+00 0.0 
-1.489603000124e+00 -1.621801870538e+02 0.0 
0.0 0.0 -6.781486907948e+01 
-6.935133631313e+01 -2.137214886040e+00 0.0 
-2.137214886040e+00 -1.730783785124e+02 0.0 
0.0 0.0 -7.232891444767e+01 
-8.014177680205e+01 -1.296829774604e+00 0.0 
-1.296829774604e+00 -1.995614393816e+02 0.0 
0.0 0.0 -8.351096485509e+01 
-6.078747809566e+01 -7.631277856304e-01 0.0 
-7.631277856304e-01 -1.512710769070e+02 0.0 
0.0 0.0 -6.321756650081e+01 
-5.783912323093e+01 -1.494217598149e+00 0.0 
-1.494217598149e+00 -1.441404557400e+02 0.0 
0.0 0.0 -6.019387369127e+01 
-2.149868599964e+00 -2.333199823507e-01 0.0 
-2.333199823507e-01 -1.719451230376e+01 0.0 
0.0 0.0 -5.017147510935e+00 
-8.281194491794e+00 -3.556759617267e-01 0.0 
-3.556759617267e-01 -3.380111166347e+01 0.0 
0.0 0.0 -1.214236799145e+01 
-7.516421097007e+00 -2.488508809938e-01 0.0 
-2.488508809938e-01 -3.214986177772e+01 0.0 
0.0 0.0 -1.132399278706e+01 
-1.610600827577e+01 -5.542113669433e-01 0.0 
-5.542113669433e-01 -5.065230248524e+01 0.0 
0.0 0.0 -1.962749322830e+01 
-1.642528949520e+01 -8.152184955182e-01 0.0 
-8.152184955182e-01 -5.033827869713e+01 0.0 
0.0 0.0 -1.962907045770e+01 
-8.901657544284e+00 -6.246063974689e-01 0.0 
-6.246063974689e-01 -3.413529021492e+01 0.0 
0.0 0.0 -1.245570033843e+01 
-9.369321825644e+00 -8.666345961217e-01 0.0 
-8.666345961217e-01 -3.413216449846e+01 0.0 
0.0 0.0 -1.262783384688e+01 
-2.898934395563e+00 -4.585910869384e-01 0.0 
-4.585910869384e-01 -1.704437751055e+01 0.0 
0.0 0.0 -5.305152637650e+00 
-9.933578004208e+00 -1.023423370993e+00 0.0 
-1.023423370993e+00 -3.395916128900e+01 0.0 
0.0 0.0 -1.282706318764e+01 
-1.797263641709e+01 -1.628918573329e+00 0.0 
-1.628918573329e+00 -5.119458692070e+01 0.0 
0.0 0.0 -2.035016700134e+01 
-3.305438654740e+00 -5.143636141864e-01 0.0 
-5.143636141864e-01 -1.646619615622e+01 0.0 
0.0 0.0 -5.344378301382e+00 
-7.469209333761e+01 6.616658422710e-01 0.0 
6.616658422710e-01 -1.486729210258e+02 0.0 
0.0 0.0 -6.660950430903e+01 
-7.837873893624e+01 1.312096345885e+00 0.0 
1.312096345885e+00 -1.596389492282e+02 0.0 
0.0 0.0 -7.100530644935e+01 
-1.595621226846e+02 7.942706433137e+00 0.0 
7.942706433137e+00 -3.822337015721e+02 0.0 
0.0 0.0 -1.621387472770e+02 
-4.344955688769e+01 8.520936251973e-01 0.0 
8.520936251973e-01 -5.852428576804e+01 0.0 
0.0 0.0 -3.019215279672e+01 
-8.474737769004e+00 -1.384111563184e+00 0.0 
-1.384111563184e+00 -1.747283973024e+01 0.0 
0.0 0.0 -7.634381419355e+00 
-9.776188311838e+01 4.999983533832e+00 0.0 
4.999983533832e+00 -2.210004901611e+02 0.0 
0.0 0.0 -9.522871198383e+01 
-1.004911613695e+02 9.403835901661e+00 0.0 
9.403835901661e+00 -2.264844868149e+02 0.0 
0.0 0.0 -9.769269445532e+01 
-9.984712816494e+01 7.846429289628e+00 0.0 
7.846429289628e+00 -2.259244682707e+02 0.0 
0.0 0.0 -9.733147893068e+01 
-1.466509458211e+02 1.952439285275e-01 0.0 
1.952439285275e-01 -3.500046618521e+02 0.0 
0.0 0.0 -1.485966823019e+02 
-1.512570606934e+02 5.174050047849e-01 0.0 
5.174050047849e-01 -3.597178197657e+02 0.0 
0.0 0.0 -1.528924641377e+02 
-9.722390824160e+01 2.764440626425e+00 0.0 
2.764440626425e+00 -2.209810499747e+02 0.0 
0.0 0.0 -9.506148746491e+01 
-5.206445273915e+01 -8.099787044255e+00 0.0 
-8.099787044255e+00 -1.315949628161e+02 0.0 
0.0 0.0 -5.469782466658e+01 
-1.087341611030e+02 2.532868456861e+01 0.0 
2.532868456861e+01 -2.297270146921e+02 0.0 
0.0 0.0 -1.011383527385e+02 
-8.810018371473e+01 4.836547496127e+00 0.0 
4.836547496127e+00 -1.853401609138e+02 0.0 
0.0 0.0 -8.163210338856e+01 
-3.156535906556e+01 2.144645562907e+01 0.0 
2.144645562907e+01 -1.191226691468e+02 0.0 
0.0 0.0 -4.507702361111e+01 
-5.005375433031e+01 -1.239190692548e+01 0.0 
-1.239190692548e+01 -1.329775170526e+02 0.0 
0.0 0.0 -5.450938141488e+01 
-1.187823644749e+02 -3.080153756661e-01 0.0 
-3.080153756661e-01 -2.915942128174e+02 0.0 
0.0 0.0 -1.227129731877e+02 
-1.049030251957e+02 -1.435227597957e+00 0.0 
-1.435227597957e+00 -2.715043841657e+02 0.0 
0.0 0.0 -1.125222228084e+02 
-1.371194420049e+02 9.536937779150e-01 0.0 
9.536937779150e-01 -3.332094804650e+02 0.0 
0.0 0.0 -1.406986767410e+02 
-1.100608288760e+02 -1.004777825023e+00 0.0 
-1.004777825023e+00 -2.753644076204e+02 0.0 
0.0 0.0 -1.152275709489e+02 
-1.278158947153e+02 9.600330362459e-01 0.0 
9.600330362459e-01 -3.175251863462e+02 0.0 
0.0 0.0 -1.332023243185e+02 
-1.445565945363e+02 1.452134806291e+01 0.0 
1.452134806291e+01 -3.613537104809e+02 0.0 
0.0 0.0 -1.513730915052e+02 
-3.051136889236e+01 -1.567730405312e+00 0.0 
-1.567730405312e+00 -7.982703842459e+01 0.0 
0.0 0.0 -3.270152219508e+01 
-6.548809003209e+01 3.179452233989e+00 0.0 
3.179452233989e+00 -1.118496524026e+02 0.0 
0.0 0.0 -5.280132273040e+01 
-6.025121937021e+01 1.551647815271e+00 0.0 
1.551647815271e+00 -1.041628523956e+02 0.0 
0.0 0.0 -4.892422152975e+01 
-7.898512545921e+01 4.300624343853e+00 0.0 
4.300624343853e+00 -1.539343435079e+02 0.0 
0.0 0.0 -6.947584069012e+01 
-5.392301642604e+01 -4.676126831086e+00 0.0 
-4.676126831086e+00 -1.351189046007e+02 0.0 
0.0 0.0 -5.631257630803e+01 
-8.549274211199e+01 -2.049938489686e+00 0.0 
-2.049938489686e+00 -2.138641824959e+02 0.0 
0.0 0.0 -8.940707738238e+01 
-3.489921535681e+01 -4.537678014516e+00 0.0 
-4.537678014516e+00 -8.557461153032e+01 0.0 
0.0 0.0 -3.574214806614e+01 
-1.256676578378e+02 3.324019683166e+01 0.0 
3.324019683166e+01 -2.984430914783e+02 0.0 
0.0 0.0 -1.268332247948e+02 
-6.331976288610e+01 2.794493278579e+01 0.0 
2.794493278579e+01 -1.177795128729e+02 0.0 
0.0 0.0 -5.392978272769e+01 
-7.957416871493e+01 -3.693157424923e+00 0.0 
-3.693157424923e+00 -2.348994076041e+02 0.0 
0.0 0.0 -9.394207289570e+01 
-6.967650286892e+01 -5.935760812193e+00 0.0 
-5.935760812193e+00 -1.804938033227e+02 0.0 
0.0 0.0 -7.465109185749e+01 
-5.572622114217e+01 -9.209789170600e+00 0.0 
-9.209789170600e+00 -1.450694949000e+02 0.0 
0.0 0.0 -5.983871481266e+01 
-4.720178809855e+01 -1.424064944555e+01 0.0 
-1.424064944555e+01 -1.274483859288e+02 0.0 
0.0 0.0 -5.199505220820e+01 
-5.709072446087e+01 2.648714500210e+01 0.0 
2.648714500210e+01 -1.680173474968e+02 0.0 
0.0 0.0 -6.713242158729e+01 
-7.921379866437e+01 -5.676402468547e+00 0.0 
-5.676402468547e+00 -2.180000130626e+02 0.0 
0.0 0.0 -8.876414351809e+01 
-1.165939278770e+02 1.966187816914e+00 0.0 
1.966187816914e+00 -3.054656551343e+02 0.0 
0.0 0.0 -1.262178749034e+02 
-8.185416948332e+01 4.046609193580e+00 0.0 
4.046609193580e+00 -1.649196458354e+02 0.0 
0.0 0.0 -7.363214459562e+01 
-6.083086774037e+00 -9.108016172284e-01 0.0 
-9.108016172284e-01 -1.912853299348e+01 0.0 
0.0 0.0 -7.031283739398e+00 
-1.207626529637e+02 3.573764238461e+00 0.0 
3.573764238461e+00 -3.161719512377e+02 0.0 
0.0 0.0 -1.306803812604e+02 
-9.504428946830e+01 -2.460317146597e+00 0.0 
-2.460317146597e+00 -2.564960363903e+02 0.0 
0.0 0.0 -1.050620977576e+02 
-7.213596411719e+01 6.068636312779e+00 0.0 
6.068636312779e+00 -1.209506072541e+02 0.0 
0.0 0.0 -5.752597141140e+01 
-1.080335562601e+02 1.727617354647e+01 0.0 
1.727617354647e+01 -3.027412026819e+02 0.0 
0.0 0.0 -1.228324276826e+02 
-4.173239452385e+01 -1.984453941666e+01 0.0 
-1.984453941666e+01 -1.000994832510e+02 0.0 
0.0 0.0 -4.091448198463e+01 
-8.438258124762e+01 7.426238661463e+00 0.0 
7.426238661463e+00 -1.626766603836e+02 0.0 
0.0 0.0 -7.371777248937e+01 
-9.934382728651e+01 1.576089866871e+01 0.0 
1.576089866871e+01 -2.052678821574e+02 0.0 
0.0 0.0 -9.098351283318e+01 
-6.623439492610e+01 6.414387165817e+00 0.0 
6.414387165817e+00 -1.000355944160e+02 0.0 
0.0 0.0 -4.948099680263e+01 
-2.629435199800e+01 -3.478495216817e+00 0.0 
-3.478495216817e+00 -6.521510925156e+01 0.0 
0.0 0.0 -2.705283837487e+01 
-5.711532973215e+01 1.989428451254e+00 0.0 
1.989428451254e+00 -9.143863899815e+01 0.0 
0.0 0.0 -4.416619061909e+01 
-1.410096875644e+02 8.660285269685e+00 0.0 
8.660285269685e+00 -3.543174415279e+02 0.0 
0.0 0.0 -1.481981387277e+02 
-9.125686104205e+01 1.556617748141e+01 0.0 
1.556617748141e+01 -1.670640695195e+02 0.0 
0.0 0.0 -7.709627916847e+01 
-4.925917358472e+01 -3.624400792520e+00 0.0 
-3.624400792520e+00 -1.230212851747e+02 0.0 
0.0 0.0 -5.128413762784e+01 
-7.172046819364e+01 7.578861186039e+00 0.0 
7.578861186039e+00 -2.395487650856e+02 0.0 
0.0 0.0 -9.298076998376e+01 
-6.190960292500e+01 2.909430510276e+01 0.0 
2.909430510276e+01 -1.527975623864e+02 0.0 
0.0 0.0 -6.401214959342e+01 
-4.853308015181e+01 1.201311620890e+01 0.0 
1.201311620890e+01 -4.683623232333e+01 0.0 
0.0 0.0 -2.821079374254e+01 
-9.115227409862e+01 6.092798049500e+00 0.0 
6.092798049500e+00 -1.944470512861e+02 0.0 
0.0 0.0 -8.527979761541e+01 
-7.025222350116e+01 2.271068221946e+01 0.0 
2.271068221946e+01 -2.163079970873e+02 0.0 
0.0 0.0 -8.556806617655e+01 
-1.201274690237e+02 1.481524806474e+01 0.0 
1.481524806474e+01 -3.244148393011e+02 0.0 
0.0 0.0 -1.329626924975e+02 
-8.947815315809e+01 1.041961599871e+01 0.0 
1.041961599871e+01 -2.728075256018e+02 0.0 
0.0 0.0 -1.082857036280e+02 
-5.269363927049e+01 -2.874757475082e+00 0.0 
-2.874757475082e+00 -1.317427368310e+02 0.0 
0.0 0.0 -5.493091283045e+01 
-1.317736510260e+02 3.138280927976e+00 0.0 
3.138280927976e+00 -3.318212682611e+02 0.0 
0.0 0.0 -1.386784757861e+02 
-6.608600548559e+01 1.548585842291e+01 0.0 
1.548585842291e+01 -2.234778139305e+02 0.0 
0.0 0.0 -8.646914582482e+01 
-9.059215530290e+01 8.867691109981e+00 0.0 
8.867691109981e+00 -1.835124717394e+02 0.0 
0.0 0.0 -8.183138811268e+01 
-9.625398463617e+01 2.967288749051e+01 0.0 
2.967288749051e+01 -2.300888837434e+02 0.0 
0.0 0.0 -9.750286051386e+01 
-5.176978216106e+01 7.871757035489e+00 0.0 
7.871757035489e+00 -1.985810696399e+02 0.0 
0.0 0.0 -7.470525554028e+01 
-9.056850174085e+01 1.185643973655e+01 0.0 
1.185643973655e+01 -1.735157139842e+02 0.0 
0.0 0.0 -7.882526471750e+01 
-7.665760275820e+01 -1.298450633511e+00 0.0 
-1.298450633511e+00 -2.385212916415e+02 0.0 
0.0 0.0 -9.415366831992e+01 
-1.128308350642e+02 1.982606608559e+01 0.0 
1.982606608559e+01 -3.083998961167e+02 0.0 
0.0 0.0 -1.259692193542e+02 
-5.954677354967e+01 2.867363066205e+01 0.0 
2.867363066205e+01 -1.166511739038e+02 0.0 
0.0 0.0 -5.245938423605e+01 
-8.048336017224e+01 2.929879267993e+01 0.0 
2.929879267993e+01 -1.918378365120e+02 0.0 
0.0 0.0 -8.129635900527e+01 
-8.920049300087e+01 2.787236989203e+01 0.0 
2.787236989203e+01 -1.816642454565e+02 0.0 
0.0 0.0 -8.085942153722e+01 
-7.529981390313e+01 2.729362667623e+01 0.0 
2.729362667623e+01 -2.051759706227e+02 0.0 
0.0 0.0 -8.374273535775e+01 
-1.142671697662e+02 -4.442820944711e-01 0.0 
-4.442820944711e-01 -2.804918770350e+02 0.0 
0.0 0.0 -1.180277140404e+02 
-1.263449018172e+02 3.350232667854e+00 0.0 
3.350232667854e+00 -3.240273495536e+02 0.0 
0.0 0.0 -1.347116754112e+02 
-2.944893684178e+01 -8.228548202346e+00 0.0 
-8.228548202346e+00 -1.338043372924e+02 0.0 
0.0 0.0 -4.972508807776e+01 
-4.608841534159e+01 2.720963933814e+01 0.0 
2.720963933814e+01 -1.320801377797e+02 0.0 
0.0 0.0 -5.305056593640e+01 
-7.462266548909e+01 8.354615743615e+00 0.0 
8.354615743615e+00 -1.214012739353e+02 0.0 
0.0 0.0 -5.840718182731e+01 
-1.135201042321e+02 3.001443891020e+01 0.0 
3.001443891020e+01 -2.809286874733e+02 0.0 
0.0 0.0 -1.179346375116e+02 
-9.619477653073e+01 1.010180907966e+01 0.0 
1.010180907966e+01 -2.042677028208e+02 0.0 
0.0 0.0 -8.973874380545e+01 
-5.542515054283e+01 2.910816297338e+01 0.0 
2.910816297338e+01 -1.340153889732e+02 0.0 
0.0 0.0 -5.643216185480e+01 
-1.272455799659e+02 1.910249177470e+00 0.0 
1.910249177470e+00 -3.208829885929e+02 0.0 
0.0 0.0 -1.340385705676e+02 
-9.591790968098e+01 1.350302560179e+01 0.0 
1.350302560179e+01 -1.941873625403e+02 0.0 
0.0 0.0 -8.663158166639e+01 
-8.381919600329e+01 -4.785886775813e+00 0.0 
-4.785886775813e+00 -2.252847579402e+02 0.0 
0.0 0.0 -9.233118618306e+01 
-3.516996555127e+01 -5.577177611817e-01 0.0 
-5.577177611817e-01 -9.152530664223e+01 0.0 
0.0 0.0 -3.760858165805e+01 
-3.361783122864e+01 2.554655357309e+01 0.0 
2.554655357309e+01 -1.052663913586e+02 0.0 
0.0 0.0 -4.165746836762e+01 
-3.905359057002e+01 6.723057620562e+00 0.0 
6.723057620562e+00 -1.697428929340e+02 0.0 
0.0 0.0 -6.223894505122e+01 
-6.614313197734e+01 2.056436263198e+01 0.0 
2.056436263198e+01 -2.136829592696e+02 0.0 
0.0 0.0 -8.354782737408e+01 
-9.173320209928e+01 -3.358254320622e+00 0.0 
-3.358254320622e+00 -2.447233723783e+02 0.0 
0.0 0.0 -1.005369723433e+02 
-1.064260403712e+02 2.235891890835e+01 0.0 
2.235891890835e+01 -2.259967607775e+02 0.0 
0.0 0.0 -9.932684034459e+01 
-1.323473184397e+02 1.852408965619e+00 0.0 
1.852408965619e+00 -3.286158741892e+02 0.0 
0.0 0.0 -1.378889577887e+02 
-1.132012197398e+02 6.461722792109e+00 0.0 
6.461722792109e+00 -3.097600682494e+02 0.0 
0.0 0.0 -1.264883863968e+02 
-4.351553442851e+01 3.155896491741e+01 0.0 
3.155896491741e+01 -4.152426334504e+01 0.0 
0.0 0.0 -2.480937300776e+01 
-5.471836370812e+01 1.748777757158e+01 0.0 
1.748777757158e+01 -6.376406033967e+01 0.0 
0.0 0.0 -3.514472721434e+01 
-1.373048714579e+02 1.758536722023e+00 0.0 
1.758536722023e+00 -3.364729529702e+02 0.0 
0.0 0.0 -1.417333473284e+02 
-7.691331105628e+01 5.794388950915e+00 0.0 
5.794388950915e+00 -2.486519574556e+02 0.0 
0.0 0.0 -9.726958055357e+01 
-1.186202175810e+02 1.852967203845e+01 0.0 
1.852967203845e+01 -3.197813661406e+02 0.0 
0.0 0.0 -1.311204751165e+02 
-9.245269137623e+01 -8.104342271683e-01 0.0 
-8.104342271683e-01 -2.288238358599e+02 0.0 
0.0 0.0 -9.598295817085e+01 
-1.275991636045e+02 3.268945207822e+01 0.0 
3.268945207822e+01 -3.063845686161e+02 0.0 
0.0 0.0 -1.297951196662e+02 
-4.268332903527e+01 2.560687453861e+01 0.0 
2.560687453861e+01 -5.653963454336e+01 0.0 
0.0 0.0 -2.936688907359e+01 
-1.421516043680e+02 1.598819068765e+00 0.0 
1.598819068765e+00 -3.447004395764e+02 0.0 
0.0 0.0 -1.456556131833e+02 
-1.111561361393e+02 9.621437064985e+00 0.0 
9.621437064985e+00 -3.093998853656e+02 0.0 
0.0 0.0 -1.257668064515e+02 
-4.128142043785e+01 2.233430016995e+01 0.0 
2.233430016995e+01 -1.474657920270e+02 0.0 
0.0 0.0 -5.622416373946e+01 
-3.953323759813e+01 6.857097817179e-02 0.0 
6.857097817179e-02 -5.575776835634e+01 0.0 
0.0 0.0 -2.818730178634e+01 
-1.531986762246e+02 2.029882245562e+00 0.0 
2.029882245562e+00 -3.662226345768e+02 0.0 
0.0 0.0 -1.554263932404e+02 
-1.220409019822e+02 1.126685820373e+01 0.0 
1.126685820373e+01 -3.272244285606e+02 0.0 
0.0 0.0 -1.343795991628e+02 
-8.321843813760e+01 2.730370021461e+01 0.0 
2.730370021461e+01 -2.232339424399e+02 0.0 
0.0 0.0 -9.153571417324e+01 
-7.388325046334e+01 2.565089738340e+00 0.0 
2.565089738340e+00 -2.404290047715e+02 0.0 
0.0 0.0 -9.389367657047e+01 
-4.360003806995e+01 1.753456922409e+01 0.0 
1.753456922409e+01 -3.558762125935e+01 0.0 
0.0 0.0 -2.335629779879e+01 
-9.646894016490e+01 -2.673212214244e+00 0.0 
-2.673212214244e+00 -2.522345835329e+02 0.0 
0.0 0.0 -1.042110571093e+02 
-8.471241871613e+01 2.941221594365e+01 0.0 
2.941221594365e+01 -1.937686287408e+02 0.0 
0.0 0.0 -8.314431423709e+01 
-1.062512712833e+02 1.910977057748e+01 0.0 
1.910977057748e+01 -2.376549558107e+02 0.0 
0.0 0.0 -1.027718681282e+02 
-1.264749016852e+02 1.372535052578e+01 0.0 
1.372535052578e+01 -3.343022002832e+02 0.0 
0.0 0.0 -1.378331305905e+02 
-8.445430290102e+01 1.863690180265e+01 0.0 
1.863690180265e+01 -1.428217397644e+02 0.0 
0.0 0.0 -6.778281279961e+01 
-9.285145732963e+01 -3.116850201044e+00 0.0 
-3.116850201044e+00 -2.403727131415e+02 0.0 
0.0 0.0 -9.956725114134e+01 
-9.172033778484e+01 2.166408335689e+01 0.0 
2.166408335689e+01 -2.648572719569e+02 0.0 
0.0 0.0 -1.065732829225e+02 
-1.701713032772e+01 -1.141756090725e+00 0.0 
-1.141756090725e+00 -5.050549297977e+01 0.0 
0.0 0.0 -1.985678699225e+01 
-4.858517009087e+01 2.264021644771e+01 0.0 
2.264021644771e+01 -5.772363199469e+01 0.0 
0.0 0.0 -3.149264062567e+01 
-9.725043102004e+01 -2.386103132346e+00 0.0 
-2.386103132346e+00 -2.480927523863e+02 0.0 
0.0 0.0 -1.032029550219e+02 
-4.269537957388e+01 2.404663509174e+00 0.0 
2.404663509174e+00 -1.783476017551e+02 0.0 
0.0 0.0 -6.591289439870e+01 
-7.931444433608e+01 1.461353012841e+00 0.0 
1.461353012841e+00 -2.482514617020e+02 0.0 
0.0 0.0 -9.786977181142e+01 
-1.335244055682e+02 2.604057385705e+01 0.0 
2.604057385705e+01 -3.354703234687e+02 0.0 
0.0 0.0 -1.402984187111e+02 
-1.015891124186e+02 -1.746181990239e+00 0.0 
-1.746181990239e+00 -2.559830057907e+02 0.0 
0.0 0.0 -1.068716354628e+02 
-4.911752483521e+01 3.606158333458e+00 0.0 
3.606158333458e+00 -1.927992030985e+02 0.0 
0.0 0.0 -7.217501838011e+01 
-1.058535735479e+02 -1.202654513348e+00 0.0 
-1.202654513348e+00 -2.639768427570e+02 0.0 
0.0 0.0 -1.105491248915e+02 
-3.849986338944e+01 2.298387245054e+01 0.0 
2.298387245054e+01 -3.463526965500e+01 0.0 
0.0 0.0 -2.154053991333e+01 
-8.860847507212e+01 2.150518510717e+01 0.0 
2.150518510717e+01 -1.581619676079e+02 0.0 
0.0 0.0 -7.363113280401e+01 
-1.100714429737e+02 -7.390308608832e-01 0.0 
-7.390308608832e-01 -2.720253932667e+02 0.0 
0.0 0.0 -1.142290508721e+02 
-9.242413122497e+01 2.960101660312e+01 0.0 
2.960101660312e+01 -2.132291739753e+02 0.0 
0.0 0.0 -9.129599156007e+01 
-1.961187844551e+01 -2.083280139787e+00 0.0 
-2.083280139787e+00 -5.285914223473e+01 0.0 
0.0 0.0 -2.134130620407e+01 
-8.708329242895e+01 2.620395927421e+01 0.0 
2.620395927421e+01 -2.388281129741e+02 0.0 
0.0 0.0 -9.737342162092e+01 
-1.416056071111e+02 3.447881740083e-01 0.0 
3.447881740083e-01 -3.397157343748e+02 0.0 
0.0 0.0 -1.439964024458e+02 
-6.125099271801e+01 -9.926786849216e+00 0.0 
-9.926786849216e+00 -1.724411467474e+02 0.0 
0.0 0.0 -6.970764183961e+01 
-8.486295719971e+01 7.718213758758e-01 0.0 
7.718213758758e-01 -2.559463255563e+02 0.0 
0.0 0.0 -1.018427848268e+02 
-9.524889216723e+01 2.289209157863e+01 0.0 
2.289209157863e+01 -1.803417156007e+02 0.0 
0.0 0.0 -8.227718233038e+01 
-3.538594243639e+01 2.375957144936e+01 0.0 
2.375957144936e+01 -3.491290375326e+01 0.0 
0.0 0.0 -2.068965385689e+01 
-9.367388449267e+01 2.754506359680e+00 0.0 
2.754506359680e+00 -2.736223973491e+02 0.0 
0.0 0.0 -1.097888845525e+02 
-1.002760696162e+02 3.003028941835e+01 0.0 
3.003028941835e+01 -2.327207797045e+02 0.0 
0.0 0.0 -9.949905479620e+01 
-9.131598041644e+01 2.497913291188e+01 0.0 
2.497913291188e+01 -2.537754508497e+02 0.0 
0.0 0.0 -1.031274293798e+02 
-7.406453938606e+01 2.073075551338e+01 0.0 
2.073075551338e+01 -2.304408893932e+02 0.0 
0.0 0.0 -9.095162863377e+01 
-1.031121763940e+02 4.656659378130e+00 0.0 
4.656659378130e+00 -2.915961337264e+02 0.0 
0.0 0.0 -1.180124930361e+02 
-3.918763629075e+01 2.633391260586e+01 0.0 
2.633391260586e+01 -5.682058632579e+01 0.0 
0.0 0.0 -2.840246678496e+01 
-4.936537990036e+01 -9.507663209456e+00 0.0 
-9.507663209456e+00 -1.243693221922e+02 0.0 
0.0 0.0 -5.172041062776e+01 
-4.302539825078e+01 -9.152163182626e+00 0.0 
-9.152163182626e+00 -1.035328802503e+02 0.0 
0.0 0.0 -4.356748355033e+01 
-5.367849647079e+01 7.705713579623e-01 0.0 
7.705713579623e-01 -2.006824418337e+02 0.0 
0.0 0.0 -7.590828149134e+01 
-1.040471433269e+02 3.022191135659e+01 0.0 
3.022191135659e+01 -2.356368704970e+02 0.0 
0.0 0.0 -1.015052041472e+02 
-2.420030451931e+01 -8.594707979421e-01 0.0 
-8.594707979421e-01 -6.712305392921e+01 0.0 
0.0 0.0 -2.699700753456e+01 
-9.617240273096e+01 2.613799307705e+01 0.0 
2.613799307705e+01 -1.904552919273e+02 0.0 
0.0 0.0 -8.558830839748e+01 
-3.501131367046e+01 -9.009692931533e+00 0.0 
-9.009692931533e+00 -7.508858175021e+01 0.0 
0.0 0.0 -3.250988496227e+01 
-5.184773427268e+01 -3.377651381255e+00 0.0 
-3.377651381255e+00 -1.921641289313e+02 0.0 
0.0 0.0 -7.280355896120e+01 
-1.061598674504e+02 2.452092543641e+01 0.0 
2.452092543641e+01 -2.866277266269e+02 0.0 
0.0 0.0 -1.174362782232e+02 
-6.079501637062e+01 4.814034413172e-01 0.0 
4.814034413172e-01 -1.099315959584e+02 0.0 
0.0 0.0 -5.081798369872e+01 
-5.683920997215e+01 -4.921299131523e+00 0.0 
-4.921299131523e+00 -1.982002189896e+02 0.0 
0.0 0.0 -7.611182868852e+01 
-4.403275166810e+01 -6.478033067234e-01 0.0 
-6.478033067234e-01 -1.115643138089e+02 0.0 
0.0 0.0 -4.627911964311e+01 
-5.548701344417e+01 -8.116895994290e+00 0.0 
-8.116895994290e+00 -1.872579064873e+02 0.0 
0.0 0.0 -7.242347597943e+01 
-8.257764569541e+01 2.107859745481e+01 0.0 
2.107859745481e+01 -2.474656251373e+02 0.0 
0.0 0.0 -9.861298124981e+01 
-6.037190675650e+01 -8.259593312992e+00 0.0 
-8.259593312992e+00 -1.926743160772e+02 0.0 
0.0 0.0 -7.551386685011e+01 
-5.895424691077e+01 -1.010643232298e+01 0.0 
-1.010643232298e+01 -1.801945056089e+02 0.0 
0.0 0.0 -7.134462575591e+01 
-9.396518598044e+01 5.620761867909e+00 0.0 
5.620761867909e+00 -2.058390044037e+02 0.0 
0.0 0.0 -8.954125711525e+01 
-6.335065841400e+01 -9.287700923800e+00 0.0 
-9.287700923800e+00 -1.857647086187e+02 0.0 
0.0 0.0 -7.433461010980e+01 
-9.844004644822e+01 1.674716715000e+00 0.0 
1.674716715000e+00 -2.244173611396e+02 0.0 
0.0 0.0 -9.645722227633e+01 
-1.617407447085e+02 6.249273630400e-01 0.0 
6.249273630400e-01 -3.813101829413e+02 0.0 
0.0 0.0 -1.625152782949e+02 
-4.545848087232e+01 2.295101172272e-01 0.0 
2.295101172272e-01 -7.078315359249e+01 0.0 
0.0 0.0 -3.447249033944e+01 
-3.459248370511e+01 2.432798387612e+01 0.0 
2.432798387612e+01 -3.190033771585e+01 0.0 
0.0 0.0 -1.954784642629e+01 
-7.253508039915e+01 1.276687503733e+00 0.0 
1.276687503733e+00 -1.114209802457e+02 0.0 
0.0 0.0 -5.606656675664e+01 
-3.837456549574e+01 2.687399190177e+01 0.0 
2.687399190177e+01 -5.972902505692e+01 0.0 
0.0 0.0 -2.903107716580e+01 
-5.541413303680e+01 -1.133977992279e+01 0.0 
-1.133977992279e+01 -1.529299733482e+02 0.0 
0.0 0.0 -6.210323191549e+01 
-9.630699842292e+01 2.843476012506e+01 0.0 
2.843476012506e+01 -2.022820909354e+02 0.0 
0.0 0.0 -8.917672680750e+01 
-4.593017510249e+01 1.654017333588e-01 0.0 
1.654017333588e-01 -7.150003609347e+01 0.0 
0.0 0.0 -3.482906335879e+01 
-5.285682532715e+01 -1.076513190264e+01 0.0 
-1.076513190264e+01 -1.387342360435e+02 0.0 
0.0 0.0 -5.707731841120e+01 
-1.154109016374e+02 3.076393107186e+01 0.0 
3.076393107186e+01 -2.563219327125e+02 0.0 
0.0 0.0 -1.111198503050e+02 
-1.399132334033e+02 3.313498481196e+01 0.0 
3.313498481196e+01 -3.341294135064e+02 0.0 
0.0 0.0 -1.418127940729e+02 
-7.139376910346e+01 1.005258437629e+00 0.0 
1.005258437629e+00 -1.388241308174e+02 0.0 
0.0 0.0 -6.266536997626e+01 
-1.245182809349e+02 1.729816021757e+01 0.0 
1.729816021757e+01 -3.300341936874e+02 0.0 
0.0 0.0 -1.359657423867e+02 
-9.622161405565e+01 2.372401481453e+01 0.0 
2.372401481453e+01 -2.685549818246e+02 0.0 
0.0 0.0 -1.090329787641e+02 
-8.689769752816e+01 8.557069599351e-01 0.0 
8.557069599351e-01 -1.866918100007e+02 0.0 
0.0 0.0 -8.167685225866e+01 
-3.991246727780e+01 4.588325979835e-01 0.0 
4.588325979835e-01 -5.438785861124e+01 0.0 
0.0 0.0 -2.789009776671e+01 
-1.912950555383e+01 -4.265791155654e+00 0.0 
-4.265791155654e+00 -3.420306226174e+01 0.0 
0.0 0.0 -1.556038647080e+01 
-1.189591611362e+02 -1.602357396387e-01 0.0 
-1.602357396387e-01 -2.903947715807e+02 0.0 
0.0 0.0 -1.224061798151e+02 
-3.591837347244e+01 2.538110506160e+01 0.0 
2.538110506160e+01 -3.217743540513e+01 0.0 
0.0 0.0 -2.002874266327e+01 
-3.780178166186e+01 2.751748920312e+01 0.0 
2.751748920312e+01 -5.596104721489e+01 0.0 
0.0 0.0 -2.772884866302e+01 
-3.926188609644e+01 2.884921622651e+01 0.0 
2.884921622651e+01 -5.751922513759e+01 0.0 
0.0 0.0 -2.749247630218e+01 
-5.532277743310e+01 -2.136846564480e+00 0.0 
-2.136846564480e+00 -1.386093204440e+02 0.0 
0.0 0.0 -5.777962936312e+01 
-3.694607303877e+01 -1.642362326939e+01 0.0 
-1.642362326939e+01 -5.975938540014e+01 0.0 
0.0 0.0 -2.725613666253e+01 
-3.829699399613e+01 2.686430137727e+01 0.0 
2.686430137727e+01 -3.665604356325e+01 0.0 
0.0 0.0 -2.180396822108e+01 
-1.401365509603e+02 2.092479787715e+01 0.0 
2.092479787715e+01 -3.517663309893e+02 0.0 
0.0 0.0 -1.471708645849e+02 
-5.075144197503e+01 1.917330567934e+00 0.0 
1.917330567934e+00 -7.255673204263e+01 0.0 
0.0 0.0 -3.659245220530e+01 
-1.104491995828e+02 2.639226112416e+01 0.0 
2.639226112416e+01 -2.898104917617e+02 0.0 
0.0 0.0 -1.196779074034e+02 
-4.065798406274e+01 2.844129605637e+01 0.0 
2.844129605637e+01 -3.815463250874e+01 0.0 
0.0 0.0 -2.166799242446e+01 
-1.006988115591e+02 1.518027846371e+01 0.0 
1.518027846371e+01 -2.148124235070e+02 0.0 
0.0 0.0 -9.425337051984e+01 
-1.327705433038e+02 2.913934883598e+01 0.0 
2.913934883598e+01 -3.281324038116e+02 0.0 
0.0 0.0 -1.378708841346e+02 
-1.614986076939e+02 5.262049083195e+00 0.0 
5.262049083195e+00 -3.842130277727e+02 0.0 
0.0 0.0 -1.633134906400e+02 
-1.209023646526e+02 2.749033592629e+01 0.0 
2.749033592629e+01 -3.083080072931e+02 0.0 
0.0 0.0 -1.283631115837e+02 
-4.075599283223e+01 3.136684856059e+01 0.0 
3.136684856059e+01 -6.162144109418e+01 0.0 
0.0 0.0 -2.942818797484e+01 
-6.449922056639e+01 6.989623725074e+00 0.0 
6.989623725074e+00 -9.278897154596e+01 0.0 
0.0 0.0 -4.678645763371e+01 
-1.234331195473e+02 3.350304361788e+01 0.0 
3.350304361788e+01 -2.898047057444e+02 0.0 
0.0 0.0 -1.235713475875e+02 
-7.738606480602e+01 1.699608310331e+00 0.0 
1.699608310331e+00 -1.548167409298e+02 0.0 
0.0 0.0 -6.926084172074e+01 
-1.628020877367e+02 3.367797666298e+00 0.0 
3.367797666298e+00 -3.852415016962e+02 0.0 
0.0 0.0 -1.640130768299e+02 
-5.236778198381e+01 2.808407297662e+00 0.0 
2.808407297662e+00 -7.096248513866e+01 0.0 
0.0 0.0 -3.659908013674e+01 
-9.378932356404e+01 3.566677098543e+00 0.0 
3.566677098543e+00 -2.078986483897e+02 0.0 
0.0 0.0 -9.010639158613e+01 
-3.166941432479e+01 -1.688209348836e+01 0.0 
-1.688209348836e+01 -1.230586096564e+02 0.0 
0.0 0.0 -4.698841510419e+01 
-9.340458656292e+01 1.767536520718e+00 0.0 
1.767536520718e+00 -2.078342375526e+02 0.0 
0.0 0.0 -8.997164723465e+01 
-1.034091138835e+02 2.928186507363e+01 0.0 
2.928186507363e+01 -2.230247539974e+02 0.0 
0.0 0.0 -9.753016036426e+01 
-5.647436979938e+01 9.097674653332e-01 0.0 
9.097674653332e-01 -9.562378312754e+01 0.0 
0.0 0.0 -4.522944587808e+01 
-6.809201124959e+01 1.066277435171e+01 0.0 
1.066277435171e+01 -9.625289895085e+01 0.0 
0.0 0.0 -4.890347306013e+01 
-1.556068803669e+02 8.859585813119e-01 0.0 
8.859585813119e-01 -3.689027506381e+02 0.0 
0.0 0.0 -1.569528893015e+02 
-1.111951314769e+02 2.751972602135e+01 0.0 
2.751972602135e+01 -2.414748388223e+02 0.0 
0.0 0.0 -1.054009910898e+02 
-4.078820937691e+01 3.347505319073e+01 0.0 
3.347505319073e+01 -6.928433294155e+01 0.0 
0.0 0.0 -3.287606569163e+01 
-7.156408307937e+01 1.254474396893e+00 0.0 
1.254474396893e+00 -1.377800106996e+02 0.0 
0.0 0.0 -6.240322813369e+01 
-6.926060503154e+01 -2.844192261436e+00 0.0 
-2.844192261436e+00 -1.737121337663e+02 0.0 
0.0 0.0 -7.249182163936e+01 
-4.340876230916e+01 -1.903861909029e+01 0.0 
-1.903861909029e+01 -1.072832808512e+02 0.0 
0.0 0.0 -4.649379791006e+01 
-1.509207456014e+02 6.649244419076e+00 0.0 
6.649244419076e+00 -3.681630055372e+02 0.0 
0.0 0.0 -1.553251253416e+02 
-1.098315111197e+02 3.029280645026e+01 0.0 
3.029280645026e+01 -2.424989862828e+02 0.0 
0.0 0.0 -1.052991492208e+02 
-1.545441039819e+02 1.493865874867e+00 0.0 
1.493865874867e+00 -3.680691487819e+02 0.0 
0.0 0.0 -1.563839758292e+02 
-1.565594866070e+01 -3.031205313735e-01 0.0 
-3.031205313735e-01 -4.995569576165e+01 0.0 
0.0 0.0 -1.928349332670e+01 
-1.293166235670e+01 -2.110702938806e+00 0.0 
-2.110702938806e+00 -3.145389352969e+01 0.0 
0.0 0.0 -1.296902638803e+01 
-1.507221416129e+02 9.610396811154e+00 0.0 
9.610396811154e+00 -3.697077113846e+02 0.0 
0.0 0.0 -1.557289558993e+02 
-1.199082145122e+02 3.290194365330e+01 0.0 
3.290194365330e+01 -2.735722142029e+02 0.0 
0.0 0.0 -1.176441286145e+02 
-3.603591812665e+01 -1.907078607957e+01 0.0 
-1.907078607957e+01 -1.197734150580e+02 0.0 
0.0 0.0 -4.606958142243e+01 
-1.031187149906e+02 1.309965935441e+01 0.0 
1.309965935441e+01 -2.331859318701e+02 0.0 
0.0 0.0 -1.004913940582e+02 
-4.408166192501e+01 3.417817638570e+01 0.0 
3.417817638570e+01 -7.603488175378e+01 0.0 
0.0 0.0 -3.697121508521e+01 
-4.002723079923e+01 3.044151370414e-01 0.0 
3.044151370414e-01 -5.236978715943e+01 0.0 
0.0 0.0 -2.731910538760e+01 
-1.016064837800e+01 -1.159144812944e+00 0.0 
-1.159144812944e+00 -3.230429889695e+01 0.0 
0.0 0.0 -1.241637397692e+01 
-1.628346282265e+02 2.692666980299e+00 0.0 
2.692666980299e+00 -3.846224811450e+02 0.0 
0.0 0.0 -1.638371328114e+02 
-9.692594243478e+01 9.231098149897e+00 0.0 
9.231098149897e+00 -2.113889950041e+02 0.0 
0.0 0.0 -9.209448123167e+01 
-7.658214373995e+01 -1.959049524410e+00 0.0 
-1.959049524410e+00 -1.908322026567e+02 0.0 
0.0 0.0 -7.982430391900e+01 
-5.271340324137e+01 6.635817216201e+00 0.0 
6.635817216201e+00 -6.205942807589e+01 0.0 
0.0 0.0 -3.403184939518e+01 
-4.991874164458e+01 -1.410797268601e+00 0.0 
-1.410797268601e+00 -1.253321559681e+02 0.0 
0.0 0.0 -5.217526928381e+01 
-1.214174970178e+02 3.096390567683e+01 0.0 
3.096390567683e+01 -2.972440753319e+02 0.0 
0.0 0.0 -1.251984717049e+02 
-2.820998018381e+01 -7.873073248843e+00 0.0 
-7.873073248843e+00 -4.925154287391e+01 0.0 
0.0 0.0 -2.220678012346e+01 
-9.605481567708e+01 6.834264923514e+00 0.0 
6.834264923514e+00 -2.120205158797e+02 0.0 
0.0 0.0 -9.202259946702e+01 
-1.489900458002e+02 1.317607133164e+01 0.0 
1.317607133164e+01 -3.678667728839e+02 0.0 
0.0 0.0 -1.546570456052e+02 
-1.061214636513e+02 2.097673373145e+01 0.0 
2.097673373145e+01 -2.282008552289e+02 0.0 
0.0 0.0 -9.989669566407e+01 
-1.510225292724e+02 2.652307429809e+01 0.0 
2.652307429809e+01 -3.629315364436e+02 0.0 
0.0 0.0 -1.537862197148e+02 
-4.926734778110e+01 1.094720133230e+01 0.0 
1.094720133230e+01 -1.159125126958e+02 0.0 
0.0 0.0 -5.102153709166e+01 
-1.338367410475e+02 3.104784075779e+01 0.0 
3.104784075779e+01 -3.263188348037e+02 0.0 
0.0 0.0 -1.376466727554e+02 
-1.358947091831e+02 1.487052648151e+01 0.0 
1.487052648151e+01 -3.487158983968e+02 0.0 
0.0 0.0 -1.449831822740e+02 
-3.926756293138e+01 -4.035038002371e-02 0.0 
-4.035038002371e-02 -5.417550970520e+01 0.0 
0.0 0.0 -2.763292179098e+01 
-1.085993788553e+02 2.431766731003e+01 0.0 
2.431766731003e+01 -2.337378121779e+02 0.0 
0.0 0.0 -1.023011573100e+02 
-6.208319915725e+01 -2.161935121771e+00 0.0 
-2.161935121771e+00 -1.548350435315e+02 0.0 
0.0 0.0 -6.467547280662e+01 
-2.540861765839e+01 -2.159137662895e+00 0.0 
-2.159137662895e+00 -6.629738512717e+01 0.0 
0.0 0.0 -2.711180083567e+01 
-9.885398943497e+01 9.234360575042e-01 0.0 
9.234360575042e-01 -2.264114037616e+02 0.0 
0.0 0.0 -9.717961795896e+01 
-1.281686167066e+00 -8.727929137871e-02 0.0 
-8.727929137871e-02 -1.416550198319e+01 0.0 
0.0 0.0 -3.535468577769e+00 
-3.817079776800e+01 9.575125866764e-02 0.0 
9.575125866764e-02 -5.314705613458e+01 0.0 
0.0 0.0 -2.699535617078e+01 
-1.638303516586e+02 1.102565212911e-01 0.0 
1.102565212911e-01 -3.854085401152e+02 0.0 
0.0 0.0 -1.643716675321e+02 
-2.297800071948e+01 -1.289731472641e+00 0.0 
-1.289731472641e+00 -6.326222827707e+01 0.0 
0.0 0.0 -2.547206869897e+01 
-5.139058243163e+01 3.864847479029e-01 0.0 
3.864847479029e-01 -8.517331156427e+01 0.0 
0.0 0.0 -4.056916819877e+01 
-1.182890646915e+02 3.221503169098e+01 0.0 
3.221503169098e+01 -2.668022275048e+02 0.0 
0.0 0.0 -1.151273876589e+02 
-9.457802863176e+01 -3.905077679615e-01 0.0 
-3.905077679615e-01 -2.338692489009e+02 0.0 
0.0 0.0 -9.813418325979e+01 
-8.334281956190e+01 1.539828067677e+00 0.0 
1.539828067677e+00 -1.750609729094e+02 0.0 
0.0 0.0 -7.712113774138e+01 
-4.068460539571e+01 -2.016760271178e+01 0.0 
-2.016760271178e+01 -8.029592008700e+01 0.0 
0.0 0.0 -3.448166028935e+01 
-7.438628899669e+01 -7.358950092052e+00 0.0 
-7.358950092052e+00 -1.084092409176e+02 0.0 
0.0 0.0 -5.558418189199e+01 
-6.478664090317e+01 7.968291017764e-01 0.0 
7.968291017764e-01 -1.203409251479e+02 0.0 
0.0 0.0 -5.513826981533e+01 
-1.365534364927e+02 2.786560269728e+01 0.0 
2.786560269728e+01 -3.376004925442e+02 0.0 
0.0 0.0 -1.418461787111e+02 
-1.032254624265e+02 1.720852010529e+01 0.0 
1.720852010529e+01 -2.227494833020e+02 0.0 
0.0 0.0 -9.739248371853e+01 
-6.041137240393e+01 9.267031656107e-01 0.0 
9.267031656107e-01 -1.065263745665e+02 0.0 
0.0 0.0 -4.968132409112e+01 
-3.567702871547e+01 2.956509921559e+01 0.0 
2.956509921559e+01 -9.031775635120e+01 0.0 
0.0 0.0 -3.798770221555e+01 
-1.152470507437e+02 3.151043953014e+01 0.0 
3.151043953014e+01 -2.585210338746e+02 0.0 
0.0 0.0 -1.117304253855e+02 
-8.299468715882e+01 -1.666856615770e+00 0.0 
-1.666856615770e+00 -2.062658260096e+02 0.0 
0.0 0.0 -8.637815395054e+01 
-1.191634805322e+02 3.244467045064e+01 0.0 
3.244467045064e+01 -2.824119684243e+02 0.0 
0.0 0.0 -1.200726346870e+02 
-1.334064694756e+02 1.872326818500e+01 0.0 
1.872326818500e+01 -3.433230525482e+02 0.0 
0.0 0.0 -1.426188566071e+02 
-5.070461952123e+01 3.412049725560e+01 0.0 
3.412049725560e+01 -5.948835723088e+01 0.0 
0.0 0.0 -3.379605892513e+01 
-1.019044872850e+02 -3.082022097487e-01 0.0 
-3.082022097487e-01 -2.512777679523e+02 0.0 
0.0 0.0 -1.055546765712e+02 
-9.987878158123e+00 -1.210065270701e+00 0.0 
-1.210065270701e+00 -3.022415532867e+01 0.0 
0.0 0.0 -1.168789112145e+01 
-1.549351996182e+02 4.350383254615e+00 0.0 
4.350383254615e+00 -3.723826404209e+02 0.0 
0.0 0.0 -1.577953520117e+02 
-8.648969784436e+01 -1.045137710631e+00 0.0 
-1.045137710631e+00 -2.147526101213e+02 0.0 
0.0 0.0 -8.997269238969e+01 
-2.729871985579e+01 4.547934526354e+00 0.0 
4.547934526354e+00 -7.842886819751e+00 0.0 
0.0 0.0 -1.007689655979e+01 
-2.085723350999e+01 2.783125749088e-02 0.0 
2.783125749088e-02 -1.044358093627e+01 0.0 
0.0 0.0 -8.990244333880e+00 
-3.686715805259e+01 4.726905597172e+00 0.0 
4.726905597172e+00 -2.995721951177e+01 0.0 
0.0 0.0 -1.964731326931e+01 
-2.799676910584e+01 -1.871150988896e-01 0.0 
-1.871150988896e-01 -2.883441822648e+01 0.0 
0.0 0.0 -1.664935619970e+01 

TENSORS node_materi_strain_total float
7.530471613553e-04 1.135482882790e-06 0.0 
1.135482882790e-06 -2.156253221587e-04 0.0 
0.0 0.0 0.0 
-1.086173808209e-03 -1.986493666696e-05 0.0 
-1.986493666696e-05 1.237364935303e-02 0.0 
0.0 0.0 0.0 
7.820145700665e-06 1.772109345142e-05 0.0 
1.772109345142e-05 7.600201393185e-03 0.0 
0.0 0.0 0.0 
-7.913759695938e-05 3.214337825554e-05 0.0 
3.214337825554e-05 1.574234864370e-02 0.0 
0.0 0.0 0.0 
5.953347199188e-04 -8.858215869885e-06 0.0 
-8.858215869885e-06 4.806592558989e-05 0.0 
0.0 0.0 0.0 
4.227648178509e-04 2.615839637110e-06 0.0 
2.615839637110e-06 5.296158740269e-04 0.0 
0.0 0.0 0.0 
2.723118692272e-04 -9.317718293730e-06 0.0 
-9.317718293730e-06 9.665334785903e-04 0.0 
0.0 0.0 0.0 
1.602624219088e-04 -1.753017544364e-05 0.0 
-1.753017544364e-05 1.432955295964e-03 0.0 
0.0 0.0 0.0 
7.083011334719e-05 -2.692601928267e-05 0.0 
-2.692601928267e-05 1.860966163441e-03 0.0 
0.0 0.0 0.0 
2.166849357573e-05 -3.060547092435e-05 0.0 
-3.060547092435e-05 2.258372155458e-03 0.0 
0.0 0.0 0.0 
-2.051612032705e-06 -3.270584325388e-05 0.0 
-3.270584325388e-05 2.638229233079e-03 0.0 
0.0 0.0 0.0 
-5.205200092099e-06 -3.528978412749e-05 0.0 
-3.528978412749e-05 3.004218600968e-03 0.0 
0.0 0.0 0.0 
8.461623148640e-06 -3.471590378026e-05 0.0 
-3.471590378026e-05 3.363387227153e-03 0.0 
0.0 0.0 0.0 
2.737212646127e-05 -2.940472418673e-05 0.0 
-2.940472418673e-05 3.725380420663e-03 0.0 
0.0 0.0 0.0 
4.544017396343e-05 -1.634347199738e-05 0.0 
-1.634347199738e-05 4.101271683179e-03 0.0 
0.0 0.0 0.0 
6.871467521578e-05 -4.455449872034e-06 0.0 
-4.455449872034e-06 4.473290112311e-03 0.0 
0.0 0.0 0.0 
8.867780376047e-05 1.829051314747e-06 0.0 
1.829051314747e-06 4.821847872809e-03 0.0 
0.0 0.0 0.0 
9.593883380036e-05 -1.080349959597e-05 0.0 
-1.080349959597e-05 5.212028372103e-03 0.0 
0.0 0.0 0.0 
9.475797166281e-05 -5.140865887999e-06 0.0 
-5.140865887999e-06 5.629067982866e-03 0.0 
0.0 0.0 0.0 
8.359256469862e-05 8.340260890459e-07 0.0 
8.340260890459e-07 6.046541046117e-03 0.0 
0.0 0.0 0.0 
6.379822170140e-05 4.775777510792e-06 0.0 
4.775777510792e-06 6.478700939024e-03 0.0 
0.0 0.0 0.0 
3.864637740728e-05 1.112599849806e-05 0.0 
1.112599849806e-05 6.922981705352e-03 0.0 
0.0 0.0 0.0 
2.027731222783e-05 1.637781896675e-05 0.0 
1.637781896675e-05 7.349663301125e-03 0.0 
0.0 0.0 0.0 
-5.730311409624e-05 1.212737099483e-04 0.0 
1.212737099483e-04 1.574769283582e-02 0.0 
0.0 0.0 0.0 
-6.354385114789e-05 2.229330352820e-04 0.0 
2.229330352820e-04 1.572437769158e-02 0.0 
0.0 0.0 0.0 
-6.443199512529e-05 3.232757906761e-04 0.0 
3.232757906761e-04 1.572104112618e-02 0.0 
0.0 0.0 0.0 
-6.345027124618e-05 4.532055820390e-04 0.0 
4.532055820390e-04 1.570237076488e-02 0.0 
0.0 0.0 0.0 
-8.034472953104e-05 5.638864251019e-04 0.0 
5.638864251019e-04 1.567267157856e-02 0.0 
0.0 0.0 0.0 
-7.500688752534e-05 7.013101613297e-04 0.0 
7.013101613297e-04 1.565285319676e-02 0.0 
0.0 0.0 0.0 
-8.620373797078e-05 8.491478545658e-04 0.0 
8.491478545658e-04 1.560882133927e-02 0.0 
0.0 0.0 0.0 
-9.042384026636e-05 1.009427780784e-03 0.0 
1.009427780784e-03 1.554372072672e-02 0.0 
0.0 0.0 0.0 
-9.564301932271e-05 1.169469258280e-03 0.0 
1.169469258280e-03 1.548048201999e-02 0.0 
0.0 0.0 0.0 
-8.884816277795e-05 1.357349203029e-03 0.0 
1.357349203029e-03 1.538340431882e-02 0.0 
0.0 0.0 0.0 
-1.169716790802e-04 1.534746520398e-03 0.0 
1.534746520398e-03 1.526677946523e-02 0.0 
0.0 0.0 0.0 
-1.084602616219e-04 1.742105179054e-03 0.0 
1.742105179054e-03 1.513039076877e-02 0.0 
0.0 0.0 0.0 
-1.177110786300e-04 1.956738680554e-03 0.0 
1.956738680554e-03 1.495050001431e-02 0.0 
0.0 0.0 0.0 
-1.099081319892e-04 2.165878932264e-03 0.0 
2.165878932264e-03 1.473920716987e-02 0.0 
0.0 0.0 0.0 
-1.213440791188e-04 2.372834808687e-03 0.0 
2.372834808687e-03 1.449702349106e-02 0.0 
0.0 0.0 0.0 
-1.101122252748e-04 2.570953306768e-03 0.0 
2.570953306768e-03 1.420401027289e-02 0.0 
0.0 0.0 0.0 
-1.146052969260e-04 2.762788676393e-03 0.0 
2.762788676393e-03 1.388077035809e-02 0.0 
0.0 0.0 0.0 
-1.036569421544e-04 2.951616008702e-03 0.0 
2.951616008702e-03 1.351510404445e-02 0.0 
0.0 0.0 0.0 
-8.297570917681e-05 3.107020830532e-03 0.0 
3.107020830532e-03 1.312703431061e-02 0.0 
0.0 0.0 0.0 
-5.851955017418e-05 3.235391671320e-03 0.0 
3.235391671320e-03 1.271355919687e-02 0.0 
0.0 0.0 0.0 
-3.126923536023e-05 3.326443477073e-03 0.0 
3.326443477073e-03 1.226731146365e-02 0.0 
0.0 0.0 0.0 
-2.179877348862e-05 3.378288621567e-03 0.0 
3.378288621567e-03 1.181369930526e-02 0.0 
0.0 0.0 0.0 
3.987920800845e-06 3.393452513796e-03 0.0 
3.393452513796e-03 1.134992706327e-02 0.0 
0.0 0.0 0.0 
2.390760368195e-05 3.366711663544e-03 0.0 
3.366711663544e-03 1.088973714714e-02 0.0 
0.0 0.0 0.0 
4.047054909913e-05 3.305622643510e-03 0.0 
3.305622643510e-03 1.044544065047e-02 0.0 
0.0 0.0 0.0 
6.150858512107e-05 3.214043177539e-03 0.0 
3.214043177539e-03 1.001739011661e-02 0.0 
0.0 0.0 0.0 
7.166259885564e-05 3.082409850977e-03 0.0 
3.082409850977e-03 9.609129528057e-03 0.0 
0.0 0.0 0.0 
9.786217661130e-05 2.922132573827e-03 0.0 
2.922132573827e-03 9.229705374986e-03 0.0 
0.0 0.0 0.0 
1.026362553253e-04 2.731648183575e-03 0.0 
2.731648183575e-03 8.875893964829e-03 0.0 
0.0 0.0 0.0 
9.570819985227e-05 2.530113062369e-03 0.0 
2.530113062369e-03 8.591578423085e-03 0.0 
0.0 0.0 0.0 
1.179939911470e-04 2.316187519191e-03 0.0 
2.316187519191e-03 8.293584709041e-03 0.0 
0.0 0.0 0.0 
1.346312280352e-04 2.084906733680e-03 0.0 
2.084906733680e-03 8.020387988156e-03 0.0 
0.0 0.0 0.0 
1.322010863386e-04 1.830264005364e-03 0.0 
1.830264005364e-03 7.806914155275e-03 0.0 
0.0 0.0 0.0 
1.271125853361e-04 1.597124617972e-03 0.0 
1.597124617972e-03 7.665793680098e-03 0.0 
0.0 0.0 0.0 
1.257789018659e-04 1.373181623241e-03 0.0 
1.373181623241e-03 7.542011284855e-03 0.0 
0.0 0.0 0.0 
1.022619778882e-04 1.154591524465e-03 0.0 
1.154591524465e-03 7.457271561188e-03 0.0 
0.0 0.0 0.0 
1.105557406890e-04 9.616759228159e-04 0.0 
9.616759228159e-04 7.407132454017e-03 0.0 
0.0 0.0 0.0 
8.824517740713e-05 7.779972868573e-04 0.0 
7.779972868573e-04 7.365584914546e-03 0.0 
0.0 0.0 0.0 
9.254723886243e-05 6.200941999972e-04 0.0 
6.200941999972e-04 7.348336081546e-03 0.0 
0.0 0.0 0.0 
7.151061893055e-05 4.794266670621e-04 0.0 
4.794266670621e-04 7.346692364012e-03 0.0 
0.0 0.0 0.0 
5.544984830763e-05 3.649583997907e-04 0.0 
3.649583997907e-04 7.379094245978e-03 0.0 
0.0 0.0 0.0 
4.678112361844e-05 2.733295562547e-04 0.0 
2.733295562547e-04 7.436119488849e-03 0.0 
0.0 0.0 0.0 
4.204373946911e-05 1.965238247407e-04 0.0 
1.965238247407e-04 7.474343679416e-03 0.0 
0.0 0.0 0.0 
3.701359699382e-05 1.297618547414e-04 0.0 
1.297618547414e-04 7.444491802296e-03 0.0 
0.0 0.0 0.0 
2.565688695736e-05 8.482130379830e-05 0.0 
8.482130379830e-05 7.535182451152e-03 0.0 
0.0 0.0 0.0 
1.345524080495e-05 5.300223852401e-05 0.0 
5.300223852401e-05 7.542663806856e-03 0.0 
0.0 0.0 0.0 
8.801964956377e-06 2.658925480166e-05 0.0 
2.658925480166e-05 7.576410346372e-03 0.0 
0.0 0.0 0.0 
7.360952133088e-06 2.000093958793e-05 0.0 
2.000093958793e-05 7.611782827545e-03 0.0 
0.0 0.0 0.0 
4.128244729766e-06 8.265214128295e-06 0.0 
8.265214128295e-06 7.621103847049e-03 0.0 
0.0 0.0 0.0 
-1.060592803490e-03 -1.170183046823e-05 0.0 
-1.170183046823e-05 1.279456523965e-02 0.0 
0.0 0.0 0.0 
-1.035207803770e-03 -9.558593437988e-06 0.0 
-9.558593437988e-06 1.320623538977e-02 0.0 
0.0 0.0 0.0 
-9.871582803291e-04 -5.488962199768e-06 0.0 
-5.488962199768e-06 1.359767963200e-02 0.0 
0.0 0.0 0.0 
-9.187161360405e-04 -1.162821562592e-06 0.0 
-1.162821562592e-06 1.396605601153e-02 0.0 
0.0 0.0 0.0 
-8.274129655150e-04 5.119130148882e-06 0.0 
5.119130148882e-06 1.432423126034e-02 0.0 
0.0 0.0 0.0 
-7.110730259143e-04 9.945249942565e-06 0.0 
9.945249942565e-06 1.466406254586e-02 0.0 
0.0 0.0 0.0 
-5.733346805349e-04 1.493628482432e-05 0.0 
1.493628482432e-05 1.498291427693e-02 0.0 
0.0 0.0 0.0 
-4.050230791542e-04 2.101501252135e-05 0.0 
2.101501252135e-05 1.528314685583e-02 0.0 
0.0 0.0 0.0 
-2.324385493805e-04 2.268149681809e-05 0.0 
2.268149681809e-05 1.557156735497e-02 0.0 
0.0 0.0 0.0 
-1.891892908257e-03 2.500354550835e-03 0.0 
2.500354550835e-03 -2.216830592774e-03 0.0 
0.0 0.0 0.0 
-1.739968099180e-03 5.917883494621e-04 0.0 
5.917883494621e-04 1.241184780278e-02 0.0 
0.0 0.0 0.0 
-1.810215172683e-03 2.912533239883e-03 0.0 
2.912533239883e-03 7.446073645203e-04 0.0 
0.0 0.0 0.0 
-1.752905541048e-03 2.810910560679e-03 0.0 
2.810910560679e-03 2.205608460811e-03 0.0 
0.0 0.0 0.0 
-1.838121082533e-03 2.708184311135e-03 0.0 
2.708184311135e-03 3.752211753701e-03 0.0 
0.0 0.0 0.0 
-1.790080805516e-03 2.480195597057e-03 0.0 
2.480195597057e-03 5.185080901695e-03 0.0 
0.0 0.0 0.0 
-1.646729401373e-03 2.284443449630e-03 0.0 
2.284443449630e-03 6.566894936846e-03 0.0 
0.0 0.0 0.0 
-1.558662039225e-03 2.133977740758e-03 0.0 
2.133977740758e-03 7.981593745658e-03 0.0 
0.0 0.0 0.0 
-1.620571166311e-03 2.034159600470e-03 0.0 
2.034159600470e-03 9.440477402517e-03 0.0 
0.0 0.0 0.0 
-2.084680493254e-03 1.441344265253e-03 0.0 
1.441344265253e-03 1.122580656907e-02 0.0 
0.0 0.0 0.0 
-1.774127457361e-03 7.470481520230e-04 0.0 
7.470481520230e-04 1.195264454089e-02 0.0 
0.0 0.0 0.0 
-1.124915012050e-03 -2.797909302872e-05 0.0 
-2.797909302872e-05 1.168560906676e-02 0.0 
0.0 0.0 0.0 
-1.098479295304e-03 -2.310485420737e-05 0.0 
-2.310485420737e-05 1.193649925974e-02 0.0 
0.0 0.0 0.0 
-1.085245680602e-03 6.004668165666e-06 0.0 
6.004668165666e-06 1.231949425323e-02 0.0 
0.0 0.0 0.0 
-1.086285687574e-03 -8.421472005070e-07 0.0 
-8.421472005070e-07 1.234910854869e-02 0.0 
0.0 0.0 0.0 
-1.093825904468e-03 -1.068298593003e-06 0.0 
-1.068298593003e-06 1.235268279292e-02 0.0 
0.0 0.0 0.0 
-1.103175542596e-03 -4.011082731428e-06 0.0 
-4.011082731428e-06 1.234905167095e-02 0.0 
0.0 0.0 0.0 
-1.114991349640e-03 1.698108558482e-06 0.0 
1.698108558482e-06 1.241031479470e-02 0.0 
0.0 0.0 0.0 
-1.130997125387e-03 -2.678556446259e-06 0.0 
-2.678556446259e-06 1.236498533673e-02 0.0 
0.0 0.0 0.0 
-1.150264414356e-03 -1.858693409614e-06 0.0 
-1.858693409614e-06 1.236454842689e-02 0.0 
0.0 0.0 0.0 
-1.172115103099e-03 5.442316208167e-06 0.0 
5.442316208167e-06 1.237320698421e-02 0.0 
0.0 0.0 0.0 
-1.211923322538e-03 1.739823978832e-05 0.0 
1.739823978832e-05 1.239154151337e-02 0.0 
0.0 0.0 0.0 
-1.254511450089e-03 3.882387222338e-05 0.0 
3.882387222338e-05 1.239547788256e-02 0.0 
0.0 0.0 0.0 
-1.302592008596e-03 7.436217473528e-05 0.0 
7.436217473528e-05 1.239872699987e-02 0.0 
0.0 0.0 0.0 
-1.370018993143e-03 1.295708723990e-04 0.0 
1.295708723990e-04 1.240305378762e-02 0.0 
0.0 0.0 0.0 
-1.453595947202e-03 2.214578772024e-04 0.0 
2.214578772024e-04 1.240396879701e-02 0.0 
0.0 0.0 0.0 
-1.562169217703e-03 3.624038825698e-04 0.0 
3.624038825698e-04 1.240846715178e-02 0.0 
0.0 0.0 0.0 
-2.591092808370e-03 1.202312335894e-03 0.0 
1.202312335894e-03 -3.316797859485e-03 0.0 
0.0 0.0 0.0 
-3.321366586549e-03 2.112046996812e-04 0.0 
2.112046996812e-04 -3.385782617874e-03 0.0 
0.0 0.0 0.0 
-3.584371268477e-03 -2.394067001876e-04 0.0 
-2.394067001876e-04 -3.288119486037e-03 0.0 
0.0 0.0 0.0 
-3.111222052232e-03 -9.045223930173e-04 0.0 
-9.045223930173e-04 -3.083679273302e-03 0.0 
0.0 0.0 0.0 
-2.129497953435e-03 -1.713192570782e-03 0.0 
-1.713192570782e-03 -1.565166300795e-03 0.0 
0.0 0.0 0.0 
-1.341109608821e-03 -1.174886977476e-03 0.0 
-1.174886977476e-03 4.733060113919e-05 0.0 
0.0 0.0 0.0 
-6.156927768212e-04 -3.555627218978e-04 0.0 
-3.555627218978e-04 2.486578125509e-04 0.0 
0.0 0.0 0.0 
-8.724406534633e-05 -1.119647154584e-04 0.0 
-1.119647154584e-04 1.353047205440e-04 0.0 
0.0 0.0 0.0 
2.260204539056e-04 -7.106744234381e-05 0.0 
-7.106744234381e-05 3.774122356563e-05 0.0 
0.0 0.0 0.0 
3.172487270106e-04 -6.596011753359e-05 0.0 
-6.596011753359e-05 -8.680818471681e-06 0.0 
0.0 0.0 0.0 
3.936706873968e-04 -4.814945883505e-05 0.0 
-4.814945883505e-05 -3.479385757373e-05 0.0 
0.0 0.0 0.0 
4.844534257270e-04 -4.379341228494e-05 0.0 
-4.379341228494e-05 -7.140628784556e-05 0.0 
0.0 0.0 0.0 
5.671860955532e-04 -2.186154156455e-05 0.0 
-2.186154156455e-05 -1.164157747055e-04 0.0 
0.0 0.0 0.0 
6.392462714422e-04 -2.842227317627e-05 0.0 
-2.842227317627e-05 -1.516666468423e-04 0.0 
0.0 0.0 0.0 
6.501070714184e-04 -2.717424744807e-05 0.0 
-2.717424744807e-05 -1.589330435900e-04 0.0 
0.0 0.0 0.0 
6.634096098281e-04 -1.915574619045e-05 0.0 
-1.915574619045e-05 -1.635100578484e-04 0.0 
0.0 0.0 0.0 
6.805241059652e-04 -1.167798738988e-05 0.0 
-1.167798738988e-05 -1.718573764972e-04 0.0 
0.0 0.0 0.0 
7.194120790900e-04 5.021359369058e-07 0.0 
5.021359369058e-07 -1.982276787840e-04 0.0 
0.0 0.0 0.0 
7.552252301544e-04 1.974906185435e-05 0.0 
1.974906185435e-05 -2.192578010253e-04 0.0 
0.0 0.0 0.0 
-1.113366350610e-03 1.835495588620e-05 0.0 
1.835495588620e-05 1.173265012403e-02 0.0 
0.0 0.0 0.0 
-1.078332879369e-03 1.716727202593e-07 0.0 
1.716727202593e-07 1.172318332684e-02 0.0 
0.0 0.0 0.0 
-1.078529550283e-03 -9.803653205615e-06 0.0 
-9.803653205615e-06 1.171966445355e-02 0.0 
0.0 0.0 0.0 
-1.076163472802e-03 -1.569019442278e-05 0.0 
-1.569019442278e-05 1.171864222337e-02 0.0 
0.0 0.0 0.0 
-1.069137370313e-03 -1.922601834179e-05 0.0 
-1.922601834179e-05 1.171568076594e-02 0.0 
0.0 0.0 0.0 
-1.060123320042e-03 -2.344825401442e-05 0.0 
-2.344825401442e-05 1.171211526112e-02 0.0 
0.0 0.0 0.0 
-1.046763269347e-03 -2.570273777234e-05 0.0 
-2.570273777234e-05 1.170695498794e-02 0.0 
0.0 0.0 0.0 
-1.033024336704e-03 -2.936329510768e-05 0.0 
-2.936329510768e-05 1.169917141361e-02 0.0 
0.0 0.0 0.0 
-1.015442897153e-03 -3.063088944255e-05 0.0 
-3.063088944255e-05 1.168710852002e-02 0.0 
0.0 0.0 0.0 
-9.971243185276e-04 -2.859329970967e-05 0.0 
-2.859329970967e-05 1.167730642116e-02 0.0 
0.0 0.0 0.0 
-9.814217781216e-04 -2.327398683584e-05 0.0 
-2.327398683584e-05 1.166732236230e-02 0.0 
0.0 0.0 0.0 
-9.732543746253e-04 -1.118603164322e-05 0.0 
-1.118603164322e-05 1.165699651157e-02 0.0 
0.0 0.0 0.0 
-9.808663961183e-04 1.170830873555e-05 0.0 
1.170830873555e-05 1.165079951297e-02 0.0 
0.0 0.0 0.0 
-1.018255096670e-03 4.937001452691e-05 0.0 
4.937001452691e-05 1.164342644055e-02 0.0 
0.0 0.0 0.0 
-1.084144996495e-03 1.438800133615e-04 0.0 
1.438800133615e-04 1.165078346857e-02 0.0 
0.0 0.0 0.0 
-1.291090863116e-03 2.928983720057e-04 0.0 
2.928983720057e-04 1.168194597985e-02 0.0 
0.0 0.0 0.0 
-1.732458853302e-03 4.912690349284e-04 0.0 
4.912690349284e-04 1.177266886684e-02 0.0 
0.0 0.0 0.0 
-1.467729272361e-03 3.665005141798e-04 0.0 
3.665005141798e-04 1.190901283305e-02 0.0 
0.0 0.0 0.0 
-1.367697778229e-03 2.428057920627e-04 0.0 
2.428057920627e-04 1.195613701913e-02 0.0 
0.0 0.0 0.0 
-1.246908757845e-03 1.219373145102e-04 0.0 
1.219373145102e-04 1.193536560023e-02 0.0 
0.0 0.0 0.0 
-1.179979312900e-03 6.194092499834e-05 0.0 
6.194092499834e-05 1.192977536441e-02 0.0 
0.0 0.0 0.0 
-1.140879630558e-03 2.431328664343e-05 0.0 
2.431328664343e-05 1.192957177082e-02 0.0 
0.0 0.0 0.0 
-1.117533583569e-03 2.921449333330e-06 0.0 
2.921449333330e-06 1.193036048895e-02 0.0 
0.0 0.0 0.0 
-1.105229923177e-03 -9.352102025836e-06 0.0 
-9.352102025836e-06 1.193076717191e-02 0.0 
0.0 0.0 0.0 
-1.098487880239e-03 -1.600878329505e-05 0.0 
-1.600878329505e-05 1.193401270588e-02 0.0 
0.0 0.0 0.0 
-1.092050316425e-03 -1.641705695603e-05 0.0 
-1.641705695603e-05 1.193733869170e-02 0.0 
0.0 0.0 0.0 
-1.091330236064e-03 -1.810597434228e-05 0.0 
-1.810597434228e-05 1.193763424974e-02 0.0 
0.0 0.0 0.0 
-1.089126559964e-03 -1.588968573105e-05 0.0 
-1.588968573105e-05 1.193815349034e-02 0.0 
0.0 0.0 0.0 
-1.088200530747e-03 -1.487258042841e-05 0.0 
-1.487258042841e-05 1.193786549605e-02 0.0 
0.0 0.0 0.0 
-1.087696521277e-03 -1.092297111015e-05 0.0 
-1.092297111015e-05 1.193907405644e-02 0.0 
0.0 0.0 0.0 
-1.086056748299e-03 -6.589780925878e-06 0.0 
-6.589780925878e-06 1.193816368573e-02 0.0 
0.0 0.0 0.0 
-1.087643688220e-03 -5.173163913947e-06 0.0 
-5.173163913947e-06 1.194318537860e-02 0.0 
0.0 0.0 0.0 
-1.101000957845e-03 1.891654008820e-05 0.0 
1.891654008820e-05 1.194618272178e-02 0.0 
0.0 0.0 0.0 
-1.786032851624e-03 3.225036946565e-03 0.0 
3.225036946565e-03 -3.927411721371e-04 0.0 
0.0 0.0 0.0 
-1.745235869958e-03 2.856511922406e-03 0.0 
2.856511922406e-03 1.451534472214e-03 0.0 
0.0 0.0 0.0 
-1.788070202275e-03 2.762942583125e-03 0.0 
2.762942583125e-03 2.984925730186e-03 0.0 
0.0 0.0 0.0 
-1.858247042129e-03 2.622449312322e-03 0.0 
2.622449312322e-03 4.500661330506e-03 0.0 
0.0 0.0 0.0 
-1.745277982209e-03 2.441247681068e-03 0.0 
2.441247681068e-03 5.876256595314e-03 0.0 
0.0 0.0 0.0 
-1.595885596945e-03 2.253440018265e-03 0.0 
2.253440018265e-03 7.279768131647e-03 0.0 
0.0 0.0 0.0 
-1.551713828589e-03 2.084213485488e-03 0.0 
2.084213485488e-03 8.700470503889e-03 0.0 
0.0 0.0 0.0 
-1.869240558821e-03 1.979714141649e-03 0.0 
1.979714141649e-03 1.026591410489e-02 0.0 
0.0 0.0 0.0 
-1.989403006793e-03 9.504899197409e-04 0.0 
9.504899197409e-04 1.180388346448e-02 0.0 
0.0 0.0 0.0 
-1.761843679078e-03 6.879338561739e-04 0.0 
6.879338561739e-04 1.222086824310e-02 0.0 
0.0 0.0 0.0 
-1.448995106066e-03 2.997809776218e-03 0.0 
2.997809776218e-03 1.579678437644e-03 0.0 
0.0 0.0 0.0 
3.841033726336e-04 1.663847958494e-03 0.0 
1.663847958494e-03 7.420603823227e-03 0.0 
0.0 0.0 0.0 
-8.384919438971e-05 -2.270726471270e-04 0.0 
-2.270726471270e-04 2.597158600301e-04 0.0 
0.0 0.0 0.0 
-1.295363053924e-03 -1.711017465200e-03 0.0 
-1.711017465200e-03 -2.940930121339e-03 0.0 
0.0 0.0 0.0 
2.630338865232e-04 6.800088793628e-04 0.0 
6.800088793628e-04 7.090375810866e-03 0.0 
0.0 0.0 0.0 
-1.607534103461e-03 2.663904717274e-03 0.0 
2.663904717274e-03 4.770615584569e-03 0.0 
0.0 0.0 0.0 
4.313081845408e-05 -8.062972503074e-05 0.0 
-8.062972503074e-05 3.918387113145e-03 0.0 
0.0 0.0 0.0 
3.499188272651e-04 2.562240081898e-03 0.0 
2.562240081898e-03 8.369492158481e-03 0.0 
0.0 0.0 0.0 
-1.454055460965e-03 2.324843325768e-03 0.0 
2.324843325768e-03 7.494043304574e-03 0.0 
0.0 0.0 0.0 
1.607458034168e-04 3.190456679833e-03 0.0 
3.190456679833e-03 9.979383736042e-03 0.0 
0.0 0.0 0.0 
-1.863589196632e-03 1.994910799890e-03 0.0 
1.994910799890e-03 1.053384547811e-02 0.0 
0.0 0.0 0.0 
1.271406653057e-04 2.185879280454e-04 0.0 
2.185879280454e-04 7.247210307401e-03 0.0 
0.0 0.0 0.0 
4.384326193606e-04 -6.395007191141e-05 0.0 
-6.395007191141e-05 5.522547523917e-05 0.0 
0.0 0.0 0.0 
-8.077311777662e-05 3.286213765845e-03 0.0 
3.286213765845e-03 1.189108231312e-02 0.0 
0.0 0.0 0.0 
-1.888091197274e-03 9.793048568711e-04 0.0 
9.793048568711e-04 1.240652778348e-02 0.0 
0.0 0.0 0.0 
5.974306840943e-06 -7.803477928872e-05 0.0 
-7.803477928872e-05 2.465024553668e-03 0.0 
0.0 0.0 0.0 
9.848495177365e-05 -5.142194055882e-05 0.0 
-5.142194055882e-05 4.943522150503e-03 0.0 
0.0 0.0 0.0 
-2.622807900330e-04 2.965444681357e-03 0.0 
2.965444681357e-03 1.321860648455e-02 0.0 
0.0 0.0 0.0 
-3.332549058029e-04 2.210524254307e-03 0.0 
2.210524254307e-03 1.456736801440e-02 0.0 
0.0 0.0 0.0 
-2.223573214741e-04 6.185840918186e-04 0.0 
6.185840918186e-04 1.556181337464e-02 0.0 
0.0 0.0 0.0 
-3.017288165526e-04 1.060606275606e-03 0.0 
1.060606275606e-03 1.540779981247e-02 0.0 
0.0 0.0 0.0 
-3.184420135819e-04 1.602987061601e-03 0.0 
1.602987061601e-03 1.513197781233e-02 0.0 
0.0 0.0 0.0 
-1.651405546922e-03 4.647311629201e-04 0.0 
4.647311629201e-04 1.277663750006e-02 0.0 
0.0 0.0 0.0 
-1.315906063169e-03 1.105602142351e-04 0.0 
1.105602142351e-04 1.280617933487e-02 0.0 
0.0 0.0 0.0 
-1.178551840093e-03 4.675251520344e-05 0.0 
4.675251520344e-05 1.280553995623e-02 0.0 
0.0 0.0 0.0 
-8.764374725193e-04 3.424283339274e-05 0.0 
3.424283339274e-05 1.415212469547e-02 0.0 
0.0 0.0 0.0 
5.820166319367e-05 6.367441461804e-05 0.0 
6.367441461804e-05 7.338406913844e-03 0.0 
0.0 0.0 0.0 
-1.389367278190e-03 9.345142443672e-04 0.0 
9.345142443672e-04 -3.876472818031e-03 0.0 
0.0 0.0 0.0 
5.613936761520e-04 -3.095621341996e-05 0.0 
-3.095621341996e-05 1.628538865929e-05 0.0 
0.0 0.0 0.0 
8.025243528487e-05 -1.137780244717e-05 0.0 
-1.137780244717e-05 6.239450738140e-03 0.0 
0.0 0.0 0.0 
-1.097135368250e-03 1.801875121039e-05 0.0 
1.801875121039e-05 1.272956292477e-02 0.0 
0.0 0.0 0.0 
2.090745648604e-04 -5.019699024969e-05 0.0 
-5.019699024969e-05 1.203351560124e-03 0.0 
0.0 0.0 0.0 
-3.621727109556e-04 2.574905925409e-03 0.0 
2.574905925409e-03 1.396492863113e-02 0.0 
0.0 0.0 0.0 
2.488710059920e-04 2.947844055043e-03 0.0 
2.947844055043e-03 9.166288448091e-03 0.0 
0.0 0.0 0.0 
3.810250620047e-05 3.313659808931e-03 0.0 
3.313659808931e-03 1.093060658021e-02 0.0 
0.0 0.0 0.0 
4.117182368978e-04 2.155395488217e-03 0.0 
2.155395488217e-03 7.805147889125e-03 0.0 
0.0 0.0 0.0 
3.274722107081e-04 1.225333259700e-03 0.0 
1.225333259700e-03 7.211437430394e-03 0.0 
0.0 0.0 0.0 
-1.137458147040e-03 -1.208413618137e-03 0.0 
-1.208413618137e-03 2.813142747362e-04 0.0 
0.0 0.0 0.0 
-1.454687902327e-03 2.207691984526e-04 0.0 
2.207691984526e-04 1.279890614649e-02 0.0 
0.0 0.0 0.0 
2.193223826521e-04 3.951349144887e-04 0.0 
3.951349144887e-04 7.043801185028e-03 0.0 
0.0 0.0 0.0 
-6.541294622355e-04 5.989863560663e-05 0.0 
5.989863560663e-05 1.481970188371e-02 0.0 
0.0 0.0 0.0 
2.180900251610e-04 -1.021377680025e-04 0.0 
-1.021377680025e-04 1.599246772308e-04 0.0 
0.0 0.0 0.0 
1.784580054583e-06 -8.910368264185e-05 0.0 
-8.910368264185e-05 3.181852333005e-03 0.0 
0.0 0.0 0.0 
-1.726819561440e-04 3.805225197781e-04 0.0 
3.805225197781e-04 1.563877014488e-02 0.0 
0.0 0.0 0.0 
-1.470825245331e-03 2.505934564890e-03 0.0 
2.505934564890e-03 6.105200329581e-03 0.0 
0.0 0.0 0.0 
-1.577748121723e-03 2.866192083119e-03 0.0 
2.866192083119e-03 3.238441396426e-03 0.0 
0.0 0.0 0.0 
-1.505736059573e-03 2.221018594772e-03 0.0 
2.221018594772e-03 8.943354920740e-03 0.0 
0.0 0.0 0.0 
-1.929884861759e-03 1.372834636919e-03 0.0 
1.372834636919e-03 1.172537317845e-02 0.0 
0.0 0.0 0.0 
-1.470119160623e-03 3.207009016415e-03 0.0 
3.207009016415e-03 -1.903154975686e-04 0.0 
0.0 0.0 0.0 
-1.009615875247e-03 1.688440872793e-05 0.0 
1.688440872793e-05 1.343608501604e-02 0.0 
0.0 0.0 0.0 
2.122216661680e-05 1.992385312174e-05 0.0 
1.992385312174e-05 7.474131599228e-03 0.0 
0.0 0.0 0.0 
6.236882349458e-04 -4.314568692738e-06 0.0 
-4.314568692738e-06 -2.971713195530e-05 0.0 
0.0 0.0 0.0 
-3.222664953835e-04 9.409140627991e-05 0.0 
9.409140627991e-05 1.541111522482e-02 0.0 
0.0 0.0 0.0 
-1.871069226870e-03 8.828438774027e-04 0.0 
8.828438774027e-04 1.265246389314e-02 0.0 
0.0 0.0 0.0 
-1.878492741580e-03 1.218730172009e-03 0.0 
1.218730172009e-03 1.258761217542e-02 0.0 
0.0 0.0 0.0 
-1.835004080396e-03 1.042657271396e-03 0.0 
1.042657271396e-03 1.289557343453e-02 0.0 
0.0 0.0 0.0 
-1.806419817063e-03 1.425165864148e-03 0.0 
1.425165864148e-03 1.275395816092e-02 0.0 
0.0 0.0 0.0 
-1.778089661467e-03 1.285910104365e-03 0.0 
1.285910104365e-03 1.310075501875e-02 0.0 
0.0 0.0 0.0 
-1.698223447677e-03 1.598072352991e-03 0.0 
1.598072352991e-03 1.292933655882e-02 0.0 
0.0 0.0 0.0 
-1.697610688324e-03 1.757487266982e-03 0.0 
1.757487266982e-03 1.251858316229e-02 0.0 
0.0 0.0 0.0 
-1.561812277734e-03 1.893204857296e-03 0.0 
1.893204857296e-03 1.268402207716e-02 0.0 
0.0 0.0 0.0 
-1.519440865564e-03 2.051474912973e-03 0.0 
2.051474912973e-03 1.219741861870e-02 0.0 
0.0 0.0 0.0 
-1.667031623625e-03 1.473501091729e-03 0.0 
1.473501091729e-03 1.328838128653e-02 0.0 
0.0 0.0 0.0 
-1.375327380545e-03 2.151418161950e-03 0.0 
2.151418161950e-03 1.237408352647e-02 0.0 
0.0 0.0 0.0 
-1.297571762558e-03 2.293522197761e-03 0.0 
2.293522197761e-03 1.182263822291e-02 0.0 
0.0 0.0 0.0 
-1.154247958102e-03 2.368098043882e-03 0.0 
2.368098043882e-03 1.201721707207e-02 0.0 
0.0 0.0 0.0 
-1.049957925374e-03 2.486118210707e-03 0.0 
2.486118210707e-03 1.141726442009e-02 0.0 
0.0 0.0 0.0 
-1.173369846707e-03 2.437998742530e-03 0.0 
2.437998742530e-03 1.120270625480e-02 0.0 
0.0 0.0 0.0 
-9.019431521497e-04 2.598100586976e-03 0.0 
2.598100586976e-03 1.075714551197e-02 0.0 
0.0 0.0 0.0 
-1.009881280701e-03 2.571237428387e-03 0.0 
2.571237428387e-03 1.052204566614e-02 0.0 
0.0 0.0 0.0 
-7.189591930986e-04 2.695508764158e-03 0.0 
2.695508764158e-03 1.004384109213e-02 0.0 
0.0 0.0 0.0 
-6.254986691767e-04 2.709920769210e-03 0.0 
2.709920769210e-03 1.031240633506e-02 0.0 
0.0 0.0 0.0 
-4.275017918550e-04 2.771748245770e-03 0.0 
2.771748245770e-03 9.574159412802e-03 0.0 
0.0 0.0 0.0 
-5.078291744580e-04 2.772471500691e-03 0.0 
2.772471500691e-03 9.283468648832e-03 0.0 
0.0 0.0 0.0 
-2.048381342281e-04 2.815774405494e-03 0.0 
2.815774405494e-03 8.799229027010e-03 0.0 
0.0 0.0 0.0 
-2.807479623927e-04 2.826621571165e-03 0.0 
2.826621571165e-03 8.490315163997e-03 0.0 
0.0 0.0 0.0 
3.146307639997e-05 2.836677832731e-03 0.0 
2.836677832731e-03 7.997823883838e-03 0.0 
0.0 0.0 0.0 
-4.704142258910e-05 2.855996026489e-03 0.0 
2.855996026489e-03 7.671833622731e-03 0.0 
0.0 0.0 0.0 
2.750354612205e-04 2.835347371920e-03 0.0 
2.835347371920e-03 7.176799932975e-03 0.0 
0.0 0.0 0.0 
3.292798166545e-04 2.806459119027e-03 0.0 
2.806459119027e-03 7.537971080304e-03 0.0 
0.0 0.0 0.0 
5.800740728470e-04 2.774791215024e-03 0.0 
2.774791215024e-03 6.719011348276e-03 0.0 
0.0 0.0 0.0 
5.229393529552e-04 2.814757547784e-03 0.0 
2.814757547784e-03 6.342208592758e-03 0.0 
0.0 0.0 0.0 
8.346943188032e-04 2.720136672057e-03 0.0 
2.720136672057e-03 5.889648233692e-03 0.0 
0.0 0.0 0.0 
7.714289096998e-04 2.771832136194e-03 0.0 
2.771832136194e-03 5.496801050432e-03 0.0 
0.0 0.0 0.0 
1.090283835411e-03 2.639285925313e-03 0.0 
2.639285925313e-03 5.051010570743e-03 0.0 
0.0 0.0 0.0 
1.115046356599e-03 2.586785426339e-03 0.0 
2.586785426339e-03 5.489795092811e-03 0.0 
0.0 0.0 0.0 
1.369780517075e-03 2.465547118244e-03 0.0 
2.465547118244e-03 4.670624566570e-03 0.0 
0.0 0.0 0.0 
1.344981652232e-03 2.527422392614e-03 0.0 
2.527422392614e-03 4.202873675687e-03 0.0 
0.0 0.0 0.0 
1.620752630526e-03 2.308937151484e-03 0.0 
2.308937151484e-03 3.851465576190e-03 0.0 
0.0 0.0 0.0 
1.597217514089e-03 2.380504575148e-03 0.0 
2.380504575148e-03 3.349975326217e-03 0.0 
0.0 0.0 0.0 
1.865490797205e-03 2.111267969266e-03 0.0 
2.111267969266e-03 3.037446052973e-03 0.0 
0.0 0.0 0.0 
1.848911303976e-03 2.191705819880e-03 0.0 
2.191705819880e-03 2.493582609848e-03 0.0 
0.0 0.0 0.0 
2.099701725000e-03 1.860795021238e-03 0.0 
1.860795021238e-03 2.230195834571e-03 0.0 
0.0 0.0 0.0 
2.060845842827e-03 1.814122690424e-03 0.0 
1.814122690424e-03 2.824423187621e-03 0.0 
0.0 0.0 0.0 
2.262072878871e-03 1.513304248338e-03 0.0 
1.513304248338e-03 2.083618328501e-03 0.0 
0.0 0.0 0.0 
2.313826693090e-03 1.547053667966e-03 0.0 
1.547053667966e-03 1.442630344839e-03 0.0 
0.0 0.0 0.0 
2.428090974182e-03 1.150389701268e-03 0.0 
1.150389701268e-03 1.384769027854e-03 0.0 
0.0 0.0 0.0 
2.339112198063e-03 1.174002922823e-03 0.0 
1.174002922823e-03 2.052649462753e-03 0.0 
0.0 0.0 0.0 
2.447719751454e-03 7.846921351808e-04 0.0 
7.846921351808e-04 1.452239149504e-03 0.0 
0.0 0.0 0.0 
2.336675552983e-03 8.643102573544e-04 0.0 
8.643102573544e-04 2.126297743472e-03 0.0 
0.0 0.0 0.0 
2.387486629003e-03 4.697317164435e-04 0.0 
4.697317164435e-04 1.624541777306e-03 0.0 
0.0 0.0 0.0 
2.489572022894e-03 3.473016039609e-04 0.0 
3.473016039609e-04 9.423712761453e-04 0.0 
0.0 0.0 0.0 
2.365870226027e-03 4.620714349541e-05 0.0 
4.620714349541e-05 1.221186387172e-03 0.0 
0.0 0.0 0.0 
2.266272017767e-03 2.153912572152e-04 0.0 
2.153912572152e-04 1.875422770749e-03 0.0 
0.0 0.0 0.0 
2.192838818352e-03 -1.773303654547e-04 0.0 
-1.773303654547e-04 1.560986586224e-03 0.0 
0.0 0.0 0.0 
2.259745644429e-03 -3.896807025459e-04 0.0 
-3.896807025459e-04 9.321176311968e-04 0.0 
0.0 0.0 0.0 
2.042656364315e-03 -5.590431495083e-04 0.0 
-5.590431495083e-04 1.355535299533e-03 0.0 
0.0 0.0 0.0 
1.992274421463e-03 -3.263474165037e-04 0.0 
-3.263474165037e-04 1.938210359071e-03 0.0 
0.0 0.0 0.0 
1.816027602111e-03 -6.507572786866e-04 0.0 
-6.507572786866e-04 1.789430017876e-03 0.0 
0.0 0.0 0.0 
1.818601978028e-03 -9.062729095650e-04 0.0 
-9.062729095650e-04 1.258002160734e-03 0.0 
0.0 0.0 0.0 
1.582167516827e-03 -9.297954494207e-04 0.0 
-9.297954494207e-04 1.729935431465e-03 0.0 
0.0 0.0 0.0 
1.594019609143e-03 -6.805031497317e-04 0.0 
-6.805031497317e-04 2.219965357697e-03 0.0 
0.0 0.0 0.0 
1.364235402371e-03 -9.008855903537e-04 0.0 
-9.008855903537e-04 2.174956938150e-03 0.0 
0.0 0.0 0.0 
1.303969479865e-03 -1.144346726552e-03 0.0 
-1.144346726552e-03 1.743989691991e-03 0.0 
0.0 0.0 0.0 
1.105936205972e-03 -1.058250204250e-03 0.0 
-1.058250204250e-03 2.183815289225e-03 0.0 
0.0 0.0 0.0 
1.168044195159e-03 -8.372845592600e-04 0.0 
-8.372845592600e-04 2.591990164889e-03 0.0 
0.0 0.0 0.0 
9.348486548387e-04 -9.509374664142e-04 0.0 
-9.509374664142e-04 2.585106250252e-03 0.0 
0.0 0.0 0.0 
9.921338752604e-04 -7.530711972566e-04 0.0 
-7.530711972566e-04 2.980716309621e-03 0.0 
0.0 0.0 0.0 
8.367826677566e-04 -1.145299541992e-03 0.0 
-1.145299541992e-03 2.223633941264e-03 0.0 
0.0 0.0 0.0 
7.018374571398e-04 -1.003567841662e-03 0.0 
-1.003567841662e-03 2.596193223383e-03 0.0 
0.0 0.0 0.0 
5.776129460934e-04 -1.159908381404e-03 0.0 
-1.159908381404e-03 2.273901190071e-03 0.0 
0.0 0.0 0.0 
4.843573561762e-04 -9.965377411409e-04 0.0 
-9.965377411409e-04 2.608562559328e-03 0.0 
0.0 0.0 0.0 
1.353726617974e-03 2.422132180970e-03 0.0 
2.422132180970e-03 5.154273404624e-03 0.0 
0.0 0.0 0.0 
3.506731515613e-04 -1.106024565323e-03 0.0 
-1.106024565323e-03 2.312325435731e-03 0.0 
0.0 0.0 0.0 
4.166488911224e-04 -1.290390830997e-03 0.0 
-1.290390830997e-03 1.991800070070e-03 0.0 
0.0 0.0 0.0 
2.982082768828e-04 -9.371707046648e-04 0.0 
-9.371707046648e-04 2.604274222476e-03 0.0 
0.0 0.0 0.0 
4.053850516714e-04 -8.432535523276e-04 0.0 
-8.432535523276e-04 2.915713051364e-03 0.0 
0.0 0.0 0.0 
1.710943607907e-04 -9.985311744974e-04 0.0 
-9.985311744974e-04 2.317857780256e-03 0.0 
0.0 0.0 0.0 
1.529754608216e-04 -8.383251087278e-04 0.0 
-8.383251087278e-04 2.570359803673e-03 0.0 
0.0 0.0 0.0 
4.658434255520e-05 -8.561401799999e-04 0.0 
-8.561401799999e-04 2.280651393059e-03 0.0 
0.0 0.0 0.0 
1.518154908490e-03 2.482529250004e-03 0.0 
2.482529250004e-03 2.861097978845e-03 0.0 
0.0 0.0 0.0 
-3.541150565537e-04 2.779228859708e-03 0.0 
2.779228859708e-03 9.877536426242e-03 0.0 
0.0 0.0 0.0 
5.331918907436e-05 -7.131018415301e-04 0.0 
-7.131018415301e-04 2.499316985851e-03 0.0 
0.0 0.0 0.0 
-2.108764365213e-05 -6.964797979448e-04 0.0 
-6.964797979448e-04 2.193640994322e-03 0.0 
0.0 0.0 0.0 
-5.506933115471e-05 -8.275216017612e-04 0.0 
-8.275216017612e-04 1.998233338609e-03 0.0 
0.0 0.0 0.0 
-7.422112878253e-05 -6.378044057639e-04 0.0 
-6.378044057639e-04 1.881534570949e-03 0.0 
0.0 0.0 0.0 
-1.721905577838e-03 1.188910230761e-03 0.0 
1.188910230761e-03 1.339158095689e-02 0.0 
0.0 0.0 0.0 
-1.593779425776e-03 1.372846345278e-03 0.0 
1.372846345278e-03 1.360963165634e-02 0.0 
0.0 0.0 0.0 
-1.634817402373e-03 1.094509232254e-03 0.0 
1.094509232254e-03 1.366789538639e-02 0.0 
0.0 0.0 0.0 
-1.501833446868e-03 1.293296541128e-03 0.0 
1.293296541128e-03 1.390399298983e-02 0.0 
0.0 0.0 0.0 
-1.533471929568e-03 1.036907525744e-03 0.0 
1.036907525744e-03 1.392759552884e-02 0.0 
0.0 0.0 0.0 
-3.658284557173e-05 -5.383509013324e-04 0.0 
-5.383509013324e-04 2.056702355788e-03 0.0 
0.0 0.0 0.0 
-1.209182054868e-03 2.254587116982e-03 0.0 
2.254587116982e-03 1.255688638895e-02 0.0 
0.0 0.0 0.0 
-1.431148776378e-03 1.554927708601e-03 0.0 
1.554927708601e-03 1.381660408014e-02 0.0 
0.0 0.0 0.0 
-6.003655614338e-04 2.770101242232e-03 0.0 
2.770101242232e-03 9.012133039612e-03 0.0 
0.0 0.0 0.0 
4.262538419969e-04 2.855529112620e-03 0.0 
2.855529112620e-03 5.992456858459e-03 0.0 
0.0 0.0 0.0 
2.226961959186e-03 1.219844423270e-03 0.0 
1.219844423270e-03 2.705785597188e-03 0.0 
0.0 0.0 0.0 
1.336161167310e-04 -6.932367590345e-04 0.0 
-6.932367590345e-04 2.809118061762e-03 0.0 
0.0 0.0 0.0 
5.283063164097e-05 -5.837851269331e-04 0.0 
-5.837851269331e-04 2.711370683392e-03 0.0 
0.0 0.0 0.0 
1.132068503939e-04 -5.621737909233e-04 0.0 
-5.621737909233e-04 3.035854727493e-03 0.0 
0.0 0.0 0.0 
1.190262974840e-03 -6.203645276353e-04 0.0 
-6.203645276353e-04 3.031047371316e-03 0.0 
0.0 0.0 0.0 
1.011225118638e-03 -5.572220825392e-04 0.0 
-5.572220825392e-04 3.406362086621e-03 0.0 
0.0 0.0 0.0 
1.174190129162e-03 -4.119052520733e-04 0.0 
-4.119052520733e-04 3.496388375528e-03 0.0 
0.0 0.0 0.0 
9.939689918691e-04 -3.684029640283e-04 0.0 
-3.684029640283e-04 3.858499559769e-03 0.0 
0.0 0.0 0.0 
1.121957521116e-03 -2.159718014587e-04 0.0 
-2.159718014587e-04 3.984591490772e-03 0.0 
0.0 0.0 0.0 
9.427229127453e-04 -1.911395430947e-04 0.0 
-1.911395430947e-04 4.334336067137e-03 0.0 
0.0 0.0 0.0 
8.286492952754e-04 -3.168317984759e-04 0.0 
-3.168317984759e-04 4.205033347705e-03 0.0 
0.0 0.0 0.0 
7.774356204420e-04 -1.600180741203e-04 0.0 
-1.600180741203e-04 4.671910637588e-03 0.0 
0.0 0.0 0.0 
6.788846608870e-04 -2.625667315556e-04 0.0 
-2.625667315556e-04 4.535343129914e-03 0.0 
0.0 0.0 0.0 
1.035999151859e-03 -3.579491148513e-05 0.0 
-3.579491148513e-05 4.493292904530e-03 0.0 
0.0 0.0 0.0 
1.223889927793e-03 -3.273085376678e-05 0.0 
-3.273085376678e-05 4.148010921304e-03 0.0 
0.0 0.0 0.0 
6.278257709275e-04 -1.268429022795e-04 0.0 
-1.268429022795e-04 4.995354589115e-03 0.0 
0.0 0.0 0.0 
5.450338219993e-04 -2.092576856499e-04 0.0 
-2.092576856499e-04 4.849689100751e-03 0.0 
0.0 0.0 0.0 
4.950025696079e-04 -9.407774420728e-05 0.0 
-9.407774420728e-05 5.304806371798e-03 0.0 
0.0 0.0 0.0 
4.276279596427e-04 -1.600515219861e-04 0.0 
-1.600515219861e-04 5.148172209288e-03 0.0 
0.0 0.0 0.0 
4.549023149469e-04 -2.659914472269e-04 0.0 
-2.659914472269e-04 4.714687553733e-03 0.0 
0.0 0.0 0.0 
3.552757928691e-04 -2.032261295852e-04 0.0 
-2.032261295852e-04 4.997924155641e-03 0.0 
0.0 0.0 0.0 
3.641367397829e-04 -2.968697885671e-04 0.0 
-2.968697885671e-04 4.585301083380e-03 0.0 
0.0 0.0 0.0 
2.206086606081e-03 9.560577599805e-04 0.0 
9.560577599805e-04 2.782864872942e-03 0.0 
0.0 0.0 0.0 
2.092108457415e-03 1.283746476977e-03 0.0 
1.283746476977e-03 3.348669993828e-03 0.0 
0.0 0.0 0.0 
2.055007667741e-03 1.057190039336e-03 0.0 
1.057190039336e-03 3.426735878640e-03 0.0 
0.0 0.0 0.0 
1.933726122700e-03 1.360904321497e-03 0.0 
1.360904321497e-03 3.982465601642e-03 0.0 
0.0 0.0 0.0 
1.880528993214e-03 1.165077814253e-03 0.0 
1.165077814253e-03 4.063146212004e-03 0.0 
0.0 0.0 0.0 
1.749283663337e-03 1.449057537939e-03 0.0 
1.449057537939e-03 4.612362742182e-03 0.0 
0.0 0.0 0.0 
1.678743751842e-03 1.278727152947e-03 0.0 
1.278727152947e-03 4.695765413484e-03 0.0 
0.0 0.0 0.0 
1.783054074932e-03 9.944120432830e-04 0.0 
9.944120432830e-04 4.204881043355e-03 0.0 
0.0 0.0 0.0 
-9.148511609576e-04 2.546241854391e-03 0.0 
2.546241854391e-03 1.163081280540e-02 0.0 
0.0 0.0 0.0 
2.494147364393e-03 1.155932942348e-03 0.0 
1.155932942348e-03 6.972306589177e-04 0.0 
0.0 0.0 0.0 
2.330916093599e-03 1.620051513129e-03 0.0 
1.620051513129e-03 7.919513398808e-04 0.0 
0.0 0.0 0.0 
2.534472627368e-03 1.200835493204e-03 0.0 
1.200835493204e-03 -1.612377851216e-05 0.0 
0.0 0.0 0.0 
2.304701203885e-03 1.745197169491e-03 0.0 
1.745197169491e-03 1.335028148686e-04 0.0 
0.0 0.0 0.0 
2.543144844398e-03 1.300734320819e-03 0.0 
1.300734320819e-03 -7.599764505868e-04 0.0 
0.0 0.0 0.0 
2.220228849916e-03 1.938703893566e-03 0.0 
1.938703893566e-03 -5.251506289681e-04 0.0 
0.0 0.0 0.0 
2.508892975225e-03 1.474524620241e-03 0.0 
1.474524620241e-03 -1.537924410934e-03 0.0 
0.0 0.0 0.0 
2.723873230496e-03 7.070313448844e-04 0.0 
7.070313448844e-04 -1.583602333017e-03 0.0 
0.0 0.0 0.0 
2.739095109112e-03 8.049720920876e-04 0.0 
8.049720920876e-04 -2.490691355908e-03 0.0 
0.0 0.0 0.0 
2.778940032959e-03 -4.979400414457e-05 0.0 
-4.979400414457e-05 -2.239974464787e-03 0.0 
0.0 0.0 0.0 
2.796637754624e-03 -8.398986294762e-05 0.0 
-8.398986294762e-05 -3.186299927799e-03 0.0 
0.0 0.0 0.0 
2.629640658567e-03 -9.159367633405e-04 0.0 
-9.159367633405e-04 -2.623232097646e-03 0.0 
0.0 0.0 0.0 
6.048808889298e-04 2.743217732119e-03 0.0 
2.743217732119e-03 7.116115959271e-03 0.0 
0.0 0.0 0.0 
1.774411053552e-03 1.637825072508e-03 0.0 
1.637825072508e-03 4.588980325344e-03 0.0 
0.0 0.0 0.0 
1.583633466999e-03 1.714213194931e-03 0.0 
1.714213194931e-03 5.209796408206e-03 0.0 
0.0 0.0 0.0 
1.588092207590e-03 1.887489319582e-03 0.0 
1.887489319582e-03 5.230277681866e-03 0.0 
0.0 0.0 0.0 
-1.293522138100e-04 -7.442782524631e-04 0.0 
-7.442782524631e-04 1.707929280801e-03 0.0 
0.0 0.0 0.0 
3.270955952276e-04 -1.168180199346e-04 0.0 
-1.168180199346e-04 5.430744951644e-03 0.0 
0.0 0.0 0.0 
1.100984187231e-03 1.444767249424e-04 0.0 
1.444767249424e-04 4.689925210810e-03 0.0 
0.0 0.0 0.0 
1.291802930748e-03 1.749347715804e-04 0.0 
1.749347715804e-04 4.354611495072e-03 0.0 
0.0 0.0 0.0 
1.568445193908e-03 1.129368559774e-03 0.0 
1.129368559774e-03 4.839844290042e-03 0.0 
0.0 0.0 0.0 
-4.154385051588e-05 -4.670999662057e-04 0.0 
-4.670999662057e-04 1.713044413246e-03 0.0 
0.0 0.0 0.0 
2.049198412980e-03 2.204759961479e-03 0.0 
2.204759961479e-03 -1.166141138066e-03 0.0 
0.0 0.0 0.0 
1.713519437174e-03 2.508602698675e-03 0.0 
2.508602698675e-03 -3.826681076476e-05 0.0 
0.0 0.0 0.0 
-1.387096005095e-03 1.227884552172e-03 0.0 
1.227884552172e-03 1.416862998453e-02 0.0 
0.0 0.0 0.0 
-1.414440197101e-03 9.926659254983e-04 0.0 
9.926659254983e-04 1.416369811498e-02 0.0 
0.0 0.0 0.0 
1.131134550390e-03 3.455583866293e-04 0.0 
3.455583866293e-04 4.929374417538e-03 0.0 
0.0 0.0 0.0 
-9.617292453764e-06 -3.933382392640e-04 0.0 
-3.933382392640e-04 1.880377912212e-03 0.0 
0.0 0.0 0.0 
6.962275122978e-04 -1.896120607817e-05 0.0 
-1.896120607817e-05 5.160177630838e-03 0.0 
0.0 0.0 0.0 
2.627190800147e-03 9.190198866558e-04 0.0 
9.190198866558e-04 -3.297403625933e-03 0.0 
0.0 0.0 0.0 
2.713300202182e-04 -1.478561151759e-04 0.0 
-1.478561151759e-04 5.264957057266e-03 0.0 
0.0 0.0 0.0 
2.432372146827e-04 -7.977779481077e-05 0.0 
-7.977779481077e-05 5.696028267877e-03 0.0 
0.0 0.0 0.0 
7.018896179012e-04 -4.092367828345e-04 0.0 
-4.092367828345e-04 4.097656192274e-03 0.0 
0.0 0.0 0.0 
1.393721612765e-03 1.959042239248e-03 0.0 
1.959042239248e-03 5.841846278426e-03 0.0 
0.0 0.0 0.0 
1.381969510494e-03 2.108326820032e-03 0.0 
2.108326820032e-03 5.896832455421e-03 0.0 
0.0 0.0 0.0 
2.598168575965e-03 -7.118478776036e-04 0.0 
-7.118478776036e-04 -1.722455814437e-03 0.0 
0.0 0.0 0.0 
2.266083059773e-03 -1.475585662729e-03 0.0 
-1.475585662729e-03 -1.821553519570e-03 0.0 
0.0 0.0 0.0 
2.161163364151e-03 -1.734607860913e-03 0.0 
-1.734607860913e-03 -2.526863685134e-03 0.0 
0.0 0.0 0.0 
1.688507072393e-03 -2.103949229857e-03 0.0 
-2.103949229857e-03 -1.541521259062e-03 0.0 
0.0 0.0 0.0 
1.885568036637e-03 -1.741901449507e-03 0.0 
-1.741901449507e-03 -9.890621812538e-04 0.0 
0.0 0.0 0.0 
1.315573867547e-03 -2.163672671113e-03 0.0 
-2.163672671113e-03 -6.851411682001e-04 0.0 
0.0 0.0 0.0 
9.954044069649e-04 -2.434973910238e-03 0.0 
-2.434973910238e-03 -1.028725886356e-03 0.0 
0.0 0.0 0.0 
6.726670062109e-04 -2.346179046181e-03 0.0 
-2.346179046181e-03 -1.939093176786e-04 0.0 
0.0 0.0 0.0 
1.008104255396e-03 -2.076709704421e-03 0.0 
-2.076709704421e-03 7.624372659265e-05 0.0 
0.0 0.0 0.0 
4.573203545864e-04 -2.121591718280e-03 0.0 
-2.121591718280e-03 4.775023822087e-04 0.0 
0.0 0.0 0.0 
5.470770228048e-05 -2.199834019663e-03 0.0 
-2.199834019663e-03 3.639919205703e-04 0.0 
0.0 0.0 0.0 
-1.801287880924e-05 -1.924913010392e-03 0.0 
-1.924913010392e-03 8.706342141587e-04 0.0 
0.0 0.0 0.0 
2.811859968342e-04 -4.159200375988e-05 0.0 
-4.159200375988e-05 5.878987286272e-03 0.0 
0.0 0.0 0.0 
2.575023088034e-03 -5.710946689027e-05 0.0 
-5.710946689027e-05 -3.821248909322e-03 0.0 
0.0 0.0 0.0 
-1.292689542360e-03 2.391567807348e-03 0.0 
2.391567807348e-03 1.100353752291e-02 0.0 
0.0 0.0 0.0 
9.458222391917e-04 3.012330164640e-04 0.0 
3.012330164640e-04 5.247500183396e-03 0.0 
0.0 0.0 0.0 
1.444749844629e-03 1.399866416806e-03 0.0 
1.399866416806e-03 5.328293980521e-03 0.0 
0.0 0.0 0.0 
-1.253216971887e-03 1.174982852944e-03 0.0 
1.174982852944e-03 1.441081833595e-02 0.0 
0.0 0.0 0.0 
-1.281614923049e-03 9.567793195572e-04 0.0 
9.567793195572e-04 1.438216266908e-02 0.0 
0.0 0.0 0.0 
-1.408941828334e-03 7.783961968382e-04 0.0 
7.783961968382e-04 1.410377549063e-02 0.0 
0.0 0.0 0.0 
-1.284181319799e-03 7.585783334307e-04 0.0 
7.585783334307e-04 1.430825235598e-02 0.0 
0.0 0.0 0.0 
-1.135686812368e-03 9.235742951696e-04 0.0 
9.235742951696e-04 1.458412835866e-02 0.0 
0.0 0.0 0.0 
-1.149572706368e-03 7.382038455213e-04 0.0 
7.382038455213e-04 1.450114499262e-02 0.0 
0.0 0.0 0.0 
-1.268294912509e-03 5.852110732384e-04 0.0 
5.852110732384e-04 1.419790040161e-02 0.0 
0.0 0.0 0.0 
-1.147295544910e-03 5.756780721826e-04 0.0 
5.756780721826e-04 1.438676376997e-02 0.0 
0.0 0.0 0.0 
-1.240054848855e-03 4.379544181524e-04 0.0 
4.379544181524e-04 1.405869887287e-02 0.0 
0.0 0.0 0.0 
-1.134239418403e-03 4.377622102720e-04 0.0 
4.377622102720e-04 1.424745317997e-02 0.0 
0.0 0.0 0.0 
-1.019922754863e-03 5.615140686736e-04 0.0 
5.615140686736e-04 1.456861565487e-02 0.0 
0.0 0.0 0.0 
-1.021790600320e-03 4.306447222516e-04 0.0 
4.306447222516e-04 1.442943375178e-02 0.0 
0.0 0.0 0.0 
-1.115941446329e-03 3.235713559871e-04 0.0 
3.235713559871e-04 1.408902652512e-02 0.0 
0.0 0.0 0.0 
-1.018842204588e-03 3.204626280322e-04 0.0 
3.204626280322e-04 1.427450798676e-02 0.0 
0.0 0.0 0.0 
-1.097001371906e-03 2.310358130187e-04 0.0 
2.310358130187e-04 1.391760717954e-02 0.0 
0.0 0.0 0.0 
-1.014357989037e-03 2.300569894907e-04 0.0 
2.300569894907e-04 1.410637720408e-02 0.0 
0.0 0.0 0.0 
-9.167073698792e-04 3.088801836144e-04 0.0 
3.088801836144e-04 1.445479539704e-02 0.0 
0.0 0.0 0.0 
3.099879080139e-05 -3.280759154222e-04 0.0 
-3.280759154222e-04 1.512195171852e-03 0.0 
0.0 0.0 0.0 
1.648866332323e-03 8.511781162742e-04 0.0 
8.511781162742e-04 4.397805369723e-03 0.0 
0.0 0.0 0.0 
1.421997172227e-03 1.002223272960e-03 0.0 
1.002223272960e-03 5.035850763247e-03 0.0 
0.0 0.0 0.0 
4.788100995290e-05 -4.693494289128e-04 0.0 
-4.693494289128e-04 2.922300959298e-03 0.0 
0.0 0.0 0.0 
9.539335820600e-05 -4.446408798887e-04 0.0 
-4.446408798887e-04 3.250299308912e-03 0.0 
0.0 0.0 0.0 
1.719243825586e-04 -5.157779402493e-04 0.0 
-5.157779402493e-04 3.370981430374e-03 0.0 
0.0 0.0 0.0 
1.381613437657e-04 -4.002393583615e-04 0.0 
-4.002393583615e-04 3.601591337469e-03 0.0 
0.0 0.0 0.0 
-9.283816380076e-04 2.195906254567e-04 0.0 
2.195906254567e-04 1.428990378045e-02 0.0 
0.0 0.0 0.0 
-8.126434139077e-04 2.869479041607e-04 0.0 
2.869479041607e-04 1.463096001766e-02 0.0 
0.0 0.0 0.0 
1.394254935713e-03 2.794756804045e-03 0.0 
2.794756804045e-03 -4.878811930940e-04 0.0 
0.0 0.0 0.0 
1.066525098274e-03 2.931424918619e-03 0.0 
2.931424918619e-03 6.667671972626e-04 0.0 
0.0 0.0 0.0 
-1.194105300665e-03 1.409038572345e-03 0.0 
1.409038572345e-03 1.438889353627e-02 0.0 
0.0 0.0 0.0 
2.021242588942e-04 -1.007446856756e-04 0.0 
-1.007446856756e-04 5.517146249189e-03 0.0 
0.0 0.0 0.0 
2.156850694887e-04 -1.586142792129e-04 0.0 
-1.586142792129e-04 5.101997480121e-03 0.0 
0.0 0.0 0.0 
6.592509704790e-04 2.825695270445e-03 0.0 
2.825695270445e-03 5.136105409835e-03 0.0 
0.0 0.0 0.0 
2.804758026921e-04 2.886518513118e-03 0.0 
2.886518513118e-03 5.676003913646e-03 0.0 
0.0 0.0 0.0 
4.863212034599e-04 2.874716303481e-03 0.0 
2.874716303481e-03 4.813885210828e-03 0.0 
0.0 0.0 0.0 
7.000040244781e-05 2.898635466509e-03 0.0 
2.898635466509e-03 5.396598856745e-03 0.0 
0.0 0.0 0.0 
-1.041628600823e-04 2.888963143866e-03 0.0 
2.888963143866e-03 6.250540224801e-03 0.0 
0.0 0.0 0.0 
2.331758717835e-04 2.912095762000e-03 0.0 
2.912095762000e-03 4.532701542043e-03 0.0 
0.0 0.0 0.0 
1.419830523957e-03 -1.565315114606e-05 0.0 
-1.565315114606e-05 3.794946887128e-03 0.0 
0.0 0.0 0.0 
-8.876162149949e-04 5.397195922354e-04 0.0 
5.397195922354e-04 1.474225110975e-02 0.0 
0.0 0.0 0.0 
-1.041486480027e-04 -9.717152131763e-04 0.0 
-9.717152131763e-04 1.799272770445e-03 0.0 
0.0 0.0 0.0 
-2.062849190504e-04 -8.577658673838e-04 0.0 
-8.577658673838e-04 1.537938666624e-03 0.0 
0.0 0.0 0.0 
1.750068806963e-04 -4.959492172260e-05 0.0 
-4.959492172260e-05 5.947487095476e-03 0.0 
0.0 0.0 0.0 
1.841957040379e-03 6.981490087611e-04 0.0 
6.981490087611e-04 3.770221444851e-03 0.0 
0.0 0.0 0.0 
3.571243777233e-04 2.786437986034e-03 0.0 
2.786437986034e-03 7.918390312906e-03 0.0 
0.0 0.0 0.0 
6.024313014611e-04 2.726318415766e-03 0.0 
2.726318415766e-03 7.530253907652e-03 0.0 
0.0 0.0 0.0 
3.626095873636e-04 2.783413583606e-03 0.0 
2.783413583606e-03 8.314450947704e-03 0.0 
0.0 0.0 0.0 
5.758245788100e-04 2.731303643352e-03 0.0 
2.731303643352e-03 7.957587918665e-03 0.0 
0.0 0.0 0.0 
3.481581087595e-04 2.804123488984e-03 0.0 
2.804123488984e-03 8.724600415890e-03 0.0 
0.0 0.0 0.0 
5.240582251432e-04 2.764049376306e-03 0.0 
2.764049376306e-03 8.399072768700e-03 0.0 
0.0 0.0 0.0 
7.505598099188e-04 2.659519429289e-03 0.0 
2.659519429289e-03 7.652061070307e-03 0.0 
0.0 0.0 0.0 
1.190512286105e-03 2.185902705881e-03 0.0 
2.185902705881e-03 6.497158962302e-03 0.0 
0.0 0.0 0.0 
6.583631023223e-04 2.709441228870e-03 0.0 
2.709441228870e-03 8.131370403879e-03 0.0 
0.0 0.0 0.0 
-1.012750636900e-03 1.608014247872e-04 0.0 
1.608014247872e-04 1.392540284473e-02 0.0 
0.0 0.0 0.0 
1.752424072733e-03 1.836750958184e-03 0.0 
1.836750958184e-03 4.623508303335e-03 0.0 
0.0 0.0 0.0 
7.839629640657e-04 -1.897062161511e-03 0.0 
-1.897062161511e-03 7.039467236321e-04 0.0 
0.0 0.0 0.0 
-2.504028984681e-06 -3.698081481868e-04 0.0 
-3.698081481868e-04 1.349949142211e-03 0.0 
0.0 0.0 0.0 
-3.635727108684e-04 -1.783089359742e-03 0.0 
-1.783089359742e-03 8.089048698649e-04 0.0 
0.0 0.0 0.0 
4.562292100924e-05 -2.695413593914e-04 0.0 
-2.695413593914e-04 1.665649260524e-03 0.0 
0.0 0.0 0.0 
5.157379930953e-06 -3.181231097714e-04 0.0 
-3.181231097714e-04 2.051693042970e-03 0.0 
0.0 0.0 0.0 
9.375815668291e-04 4.963138648230e-04 0.0 
4.963138648230e-04 5.516450781082e-03 0.0 
0.0 0.0 0.0 
3.128699768175e-04 2.857835729261e-03 0.0 
2.857835729261e-03 9.150830540497e-03 0.0 
0.0 0.0 0.0 
1.404560707886e-04 2.861902163056e-03 0.0 
2.861902163056e-03 9.472846720120e-03 0.0 
0.0 0.0 0.0 
-3.358856591009e-04 2.862986204994e-03 0.0 
2.862986204994e-03 6.015380014160e-03 0.0 
0.0 0.0 0.0 
-4.806881698246e-04 2.823572945164e-03 0.0 
2.823572945164e-03 6.853857872372e-03 0.0 
0.0 0.0 0.0 
1.167848749819e-03 2.050283153920e-03 0.0 
2.050283153920e-03 6.456197330190e-03 0.0 
0.0 0.0 0.0 
-1.621648720783e-03 8.425035167996e-04 0.0 
8.425035167996e-04 1.365799434569e-02 0.0 
0.0 0.0 0.0 
-1.338516056538e-03 4.337731305132e-04 0.0 
4.337731305132e-04 1.386407314572e-02 0.0 
0.0 0.0 0.0 
-1.284948162323e-03 3.064580638385e-04 0.0 
3.064580638385e-04 1.369817151316e-02 0.0 
0.0 0.0 0.0 
1.354214298367e-04 -2.105054687996e-04 0.0 
-2.105054687996e-04 1.217700185204e-03 0.0 
0.0 0.0 0.0 
-3.326376025270e-04 -2.064809726288e-03 0.0 
-2.064809726288e-03 3.860117317034e-04 0.0 
0.0 0.0 0.0 
-9.823510588208e-04 8.877430913052e-04 0.0 
8.877430913052e-04 1.477373991359e-02 0.0 
0.0 0.0 0.0 
1.406384348235e-03 2.679870581547e-03 0.0 
2.679870581547e-03 1.028269173428e-03 0.0 
0.0 0.0 0.0 
7.972829914755e-04 2.962236797824e-03 0.0 
2.962236797824e-03 1.725881860626e-03 0.0 
0.0 0.0 0.0 
2.185987154700e-03 1.057601284788e-03 0.0 
1.057601284788e-03 -3.725657069686e-03 0.0 
0.0 0.0 0.0 
1.938252393264e-03 1.308805566365e-05 0.0 
1.308805566365e-05 -4.175606826023e-03 0.0 
0.0 0.0 0.0 
-8.392195019378e-04 2.020757038401e-04 0.0 
2.020757038401e-04 1.446796885400e-02 0.0 
0.0 0.0 0.0 
-7.101122019121e-04 2.531900060294e-04 0.0 
2.531900060294e-04 1.479687195798e-02 0.0 
0.0 0.0 0.0 
2.216476853689e-04 -4.538770482130e-04 0.0 
-4.538770482130e-04 3.719256061481e-03 0.0 
0.0 0.0 0.0 
1.748177195255e-04 -3.467836283908e-04 0.0 
-3.467836283908e-04 3.958077910537e-03 0.0 
0.0 0.0 0.0 
1.122646137554e-03 5.642112930981e-04 0.0 
5.642112930981e-04 5.219698307025e-03 0.0 
0.0 0.0 0.0 
-3.267731301330e-04 -1.557605744274e-03 0.0 
-1.557605744274e-03 1.134744698788e-03 0.0 
0.0 0.0 0.0 
-6.659512479543e-04 3.522320441716e-04 0.0 
3.522320441716e-04 1.494482357646e-02 0.0 
0.0 0.0 0.0 
1.684493332356e-03 5.695857530842e-04 0.0 
5.695857530842e-04 4.017018981167e-03 0.0 
0.0 0.0 0.0 
1.850930800770e-03 3.951145273966e-04 0.0 
3.951145273966e-04 3.401835392782e-03 0.0 
0.0 0.0 0.0 
7.196967417777e-05 -3.238965372438e-04 0.0 
-3.238965372438e-04 3.464241478268e-03 0.0 
0.0 0.0 0.0 
5.937953010815e-04 3.143326116071e-03 0.0 
3.143326116071e-03 4.416520126821e-04 0.0 
0.0 0.0 0.0 
9.118254181440e-04 2.999259580606e-03 0.0 
2.999259580606e-03 -7.414861179251e-04 0.0 
0.0 0.0 0.0 
1.256139245456e-03 -1.766977845425e-03 0.0 
-1.766977845425e-03 4.286449382992e-04 0.0 
0.0 0.0 0.0 
-2.853920816157e-05 -1.652485874535e-03 0.0 
-1.652485874535e-03 1.253447131823e-03 0.0 
0.0 0.0 0.0 
4.842299633941e-05 -2.128925648192e-04 0.0 
-2.128925648192e-04 1.837437611038e-03 0.0 
0.0 0.0 0.0 
8.921111886786e-04 7.113942880146e-04 0.0 
7.113942880146e-04 5.831873562781e-03 0.0 
0.0 0.0 0.0 
-9.379316360379e-04 1.079424207309e-03 0.0 
1.079424207309e-03 1.482895533203e-02 0.0 
0.0 0.0 0.0 
8.763956031284e-04 2.570934760293e-03 0.0 
2.570934760293e-03 7.407386843495e-03 0.0 
0.0 0.0 0.0 
9.847194597494e-04 2.538918407577e-03 0.0 
2.538918407577e-03 6.900943676117e-03 0.0 
0.0 0.0 0.0 
7.446635056142e-04 2.637749458117e-03 0.0 
2.637749458117e-03 7.917975621037e-03 0.0 
0.0 0.0 0.0 
-5.303456625297e-04 -1.296199758263e-03 0.0 
-1.296199758263e-03 1.008901508241e-03 0.0 
0.0 0.0 0.0 
7.536609375968e-04 4.334643394720e-04 0.0 
4.334643394720e-04 5.830991287741e-03 0.0 
0.0 0.0 0.0 
1.469785325453e-04 -6.253747274307e-05 0.0 
-6.253747274307e-05 5.755735164590e-03 0.0 
0.0 0.0 0.0 
1.218203193464e-04 2.938915735327e-03 0.0 
2.938915735327e-03 9.870316956102e-03 0.0 
0.0 0.0 0.0 
-3.844154599488e-05 2.907120297294e-03 0.0 
2.907120297294e-03 1.019283077807e-02 0.0 
0.0 0.0 0.0 
1.136688872686e-03 2.774619859043e-03 0.0 
2.774619859043e-03 2.028593606416e-03 0.0 
0.0 0.0 0.0 
5.788375978157e-04 2.949274497604e-03 0.0 
2.949274497604e-03 2.710423477084e-03 0.0 
0.0 0.0 0.0 
1.468436410382e-04 3.081883194702e-03 0.0 
3.081883194702e-03 2.524666370982e-03 0.0 
0.0 0.0 0.0 
1.048520599974e-05 3.007526132191e-03 0.0 
3.007526132191e-03 3.446714932891e-03 0.0 
0.0 0.0 0.0 
-1.648235789164e-03 1.943815164439e-03 0.0 
1.943815164439e-03 1.203923236474e-02 0.0 
0.0 0.0 0.0 
8.996825345864e-04 2.824403637495e-03 0.0 
2.824403637495e-03 2.986958612254e-03 0.0 
0.0 0.0 0.0 
-1.116654169454e-03 2.539931742468e-03 0.0 
2.539931742468e-03 1.030564139916e-02 0.0 
0.0 0.0 0.0 
-1.402426231695e-03 2.335178018096e-03 0.0 
2.335178018096e-03 1.082113135086e-02 0.0 
0.0 0.0 0.0 
-1.223986138348e-03 2.491502195089e-03 0.0 
2.491502195089e-03 1.010226076127e-02 0.0 
0.0 0.0 0.0 
-2.970657489241e-04 2.860483606754e-03 0.0 
2.860483606754e-03 7.095898386419e-03 0.0 
0.0 0.0 0.0 
-6.512860406961e-04 2.776099928971e-03 0.0 
2.776099928971e-03 7.692866682411e-03 0.0 
0.0 0.0 0.0 
2.042376338798e-03 2.073712950548e-03 0.0 
2.073712950548e-03 1.049497917141e-03 0.0 
0.0 0.0 0.0 
2.072053118594e-03 1.534347000572e-03 0.0 
1.534347000572e-03 3.344684196925e-03 0.0 
0.0 0.0 0.0 
2.753766826760e-04 -5.717879648546e-04 0.0 
-5.717879648546e-04 3.467867453803e-03 0.0 
0.0 0.0 0.0 
4.599096996015e-04 -3.786070454840e-04 0.0 
-3.786070454840e-04 4.303146639474e-03 0.0 
0.0 0.0 0.0 
1.367306146649e-03 -4.401758561576e-04 0.0 
-4.401758561576e-04 3.119138616292e-03 0.0 
0.0 0.0 0.0 
-8.622505457299e-04 6.840224324718e-04 0.0 
6.840224324718e-04 1.485962407391e-02 0.0 
0.0 0.0 0.0 
-7.132909578715e-04 6.452697889940e-04 0.0 
6.452697889940e-04 1.502785043558e-02 0.0 
0.0 0.0 0.0 
-1.172570342125e-03 2.234182102490e-04 0.0 
2.234182102490e-04 1.372138361767e-02 0.0 
0.0 0.0 0.0 
-1.140347781951e-03 1.476849512287e-04 0.0 
1.476849512287e-04 1.353428484978e-02 0.0 
0.0 0.0 0.0 
-1.513742941521e-04 -6.055384257827e-04 0.0 
-6.055384257827e-04 1.389470305247e-03 0.0 
0.0 0.0 0.0 
-2.459214139811e-04 -6.722850126605e-04 0.0 
-6.722850126605e-04 1.243894410012e-03 0.0 
0.0 0.0 0.0 
8.351408588566e-04 -6.588248449409e-04 0.0 
-6.588248449409e-04 3.343820381583e-03 0.0 
0.0 0.0 0.0 
7.665738612875e-04 2.646673781698e-04 0.0 
2.646673781698e-04 5.563684820538e-03 0.0 
0.0 0.0 0.0 
-1.041414917741e-03 1.345518050037e-03 0.0 
1.345518050037e-03 1.463107207772e-02 0.0 
0.0 0.0 0.0 
-9.536317215652e-04 1.582840279409e-03 0.0 
1.582840279409e-03 1.458585036657e-02 0.0 
0.0 0.0 0.0 
-1.104652676424e-03 1.653370153257e-03 0.0 
1.653370153257e-03 1.431680199634e-02 0.0 
0.0 0.0 0.0 
1.077546523502e-03 7.993394449686e-04 0.0 
7.993394449686e-04 5.549829476696e-03 0.0 
0.0 0.0 0.0 
2.616853809494e-03 6.812338198103e-04 0.0 
6.812338198103e-04 2.685551092278e-05 0.0 
0.0 0.0 0.0 
2.128937903487e-03 7.285783024104e-04 0.0 
7.285783024104e-04 2.933721007627e-03 0.0 
0.0 0.0 0.0 
2.126033076725e-03 -1.063320209158e-03 0.0 
-1.063320209158e-03 -3.846479002889e-03 0.0 
0.0 0.0 0.0 
1.102749889214e-03 2.550024855697e-03 0.0 
2.550024855697e-03 5.945753393908e-03 0.0 
0.0 0.0 0.0 
-9.497075725906e-05 -4.328142574853e-04 0.0 
-4.328142574853e-04 1.027119627047e-03 0.0 
0.0 0.0 0.0 
-5.329799478255e-04 2.736864986227e-03 0.0 
2.736864986227e-03 1.058821751044e-02 0.0 
0.0 0.0 0.0 
1.221601915725e-04 -2.666102786741e-05 0.0 
-2.666102786741e-05 6.186640217202e-03 0.0 
0.0 0.0 0.0 
1.371920784619e-04 -8.456599267071e-06 0.0 
-8.456599267071e-06 6.388309505152e-03 0.0 
0.0 0.0 0.0 
9.630451783913e-04 2.278227945412e-03 0.0 
2.278227945412e-03 7.090507040028e-03 0.0 
0.0 0.0 0.0 
-1.882110804242e-03 1.417129348716e-03 0.0 
1.417129348716e-03 1.222084047153e-02 0.0 
0.0 0.0 0.0 
1.302591137961e-03 2.400382301406e-03 0.0 
2.400382301406e-03 5.653122047972e-03 0.0 
0.0 0.0 0.0 
1.542064854650e-03 2.233691284773e-03 0.0 
2.233691284773e-03 4.894373927335e-03 0.0 
0.0 0.0 0.0 
-1.507433836693e-03 2.255294906251e-03 0.0 
2.255294906251e-03 1.064738184585e-02 0.0 
0.0 0.0 0.0 
-1.339930349638e-03 2.413869973940e-03 0.0 
2.413869973940e-03 9.923765792642e-03 0.0 
0.0 0.0 0.0 
-1.033480549815e-03 2.613645050375e-03 0.0 
2.613645050375e-03 9.340213776134e-03 0.0 
0.0 0.0 0.0 
-1.169938218171e-03 2.547698071714e-03 0.0 
2.547698071714e-03 9.144222015939e-03 0.0 
0.0 0.0 0.0 
1.025697195004e-03 -1.647027973856e-03 0.0 
-1.647027973856e-03 1.000158389719e-03 0.0 
0.0 0.0 0.0 
6.246347665115e-04 -1.690725854868e-03 0.0 
-1.690725854868e-03 1.212553815433e-03 0.0 
0.0 0.0 0.0 
2.492226825861e-04 2.973990254145e-03 0.0 
2.973990254145e-03 9.631675869937e-03 0.0 
0.0 0.0 0.0 
5.444941351942e-04 2.811081642396e-03 0.0 
2.811081642396e-03 8.615575251156e-03 0.0 
0.0 0.0 0.0 
-1.413607819573e-05 3.016233011291e-03 0.0 
3.016233011291e-03 1.055658566861e-02 0.0 
0.0 0.0 0.0 
-1.732501463171e-04 2.951722830765e-03 0.0 
2.951722830765e-03 1.089214942297e-02 0.0 
0.0 0.0 0.0 
9.123015791016e-04 2.156827686250e-03 0.0 
2.156827686250e-03 7.069092079572e-03 0.0 
0.0 0.0 0.0 
1.111937687065e-03 1.912594846404e-03 0.0 
1.912594846404e-03 6.462674545578e-03 0.0 
0.0 0.0 0.0 
8.548110270642e-06 -2.424697475948e-04 0.0 
-2.424697475948e-04 2.215942565220e-03 0.0 
0.0 0.0 0.0 
-8.420728271200e-04 2.697502688549e-03 0.0 
2.697502688549e-03 7.476717689557e-03 0.0 
0.0 0.0 0.0 
-7.685327296302e-04 1.028425860145e-03 0.0 
1.028425860145e-03 1.501793967249e-02 0.0 
0.0 0.0 0.0 
-1.654735272169e-03 2.046714150236e-03 0.0 
2.046714150236e-03 1.131866376357e-02 0.0 
0.0 0.0 0.0 
5.763249343707e-04 3.718651512575e-04 0.0 
3.718651512575e-04 6.126245340340e-03 0.0 
0.0 0.0 0.0 
6.012110897944e-04 2.322053799897e-04 0.0 
2.322053799897e-04 5.883744006551e-03 0.0 
0.0 0.0 0.0 
1.302738172470e-03 -9.790208385873e-04 0.0 
-9.790208385873e-04 -4.231340361507e-03 0.0 
0.0 0.0 0.0 
1.271583230679e-03 -2.088561837933e-03 0.0 
-2.088561837933e-03 -3.281144967979e-03 0.0 
0.0 0.0 0.0 
-5.520267431731e-04 3.020430674021e-04 0.0 
3.020430674021e-04 1.510713102590e-02 0.0 
0.0 0.0 0.0 
-4.897961935412e-04 3.048008617852e-03 0.0 
3.048008617852e-03 3.339437179452e-03 0.0 
0.0 0.0 0.0 
-5.459004198440e-04 2.935512525099e-03 0.0 
2.935512525099e-03 4.177376517809e-03 0.0 
0.0 0.0 0.0 
-3.766693608283e-04 3.150195714460e-03 0.0 
3.150195714460e-03 2.432421524690e-03 0.0 
0.0 0.0 0.0 
3.031858245491e-05 4.472965095316e-06 0.0 
4.472965095316e-06 7.123473983064e-03 0.0 
0.0 0.0 0.0 
-1.074117807109e-03 3.931746758051e-06 0.0 
3.931746758051e-06 1.270712433271e-02 0.0 
0.0 0.0 0.0 
9.163586447862e-05 5.378726281065e-07 0.0 
5.378726281065e-07 6.626557719256e-03 0.0 
0.0 0.0 0.0 
-5.026839816721e-04 2.816546383032e-03 0.0 
2.816546383032e-03 7.939823697700e-03 0.0 
0.0 0.0 0.0 
-4.885919619072e-04 4.155955180457e-04 0.0 
4.155955180457e-04 1.524246100676e-02 0.0 
0.0 0.0 0.0 
1.451505852949e-03 2.233380212548e-03 0.0 
2.233380212548e-03 5.437115749772e-03 0.0 
0.0 0.0 0.0 
8.927687505866e-04 2.781125382101e-03 0.0 
2.781125382101e-03 4.254981396314e-03 0.0 
0.0 0.0 0.0 
1.305740350598e-03 6.437113254323e-04 0.0 
6.437113254323e-04 4.927912726771e-03 0.0 
0.0 0.0 0.0 
-6.189884434790e-04 1.914341743094e-04 0.0 
1.914341743094e-04 1.494378057202e-02 0.0 
0.0 0.0 0.0 
-4.366239830372e-04 2.404573402599e-04 0.0 
2.404573402599e-04 1.527333276726e-02 0.0 
0.0 0.0 0.0 
-1.354158461237e-03 2.939664884886e-04 0.0 
2.939664884886e-04 1.349377525951e-02 0.0 
0.0 0.0 0.0 
-1.294497968921e-03 1.844563735999e-04 0.0 
1.844563735999e-04 1.329721561080e-02 0.0 
0.0 0.0 0.0 
-1.425757760581e-03 4.261342597774e-04 0.0 
4.261342597774e-04 1.365061339345e-02 0.0 
0.0 0.0 0.0 
2.109929914057e-03 1.893454648111e-03 0.0 
1.893454648111e-03 -2.868639971161e-03 0.0 
0.0 0.0 0.0 
1.380617249634e-03 2.208157085577e-03 0.0 
2.208157085577e-03 -3.028569669290e-03 0.0 
0.0 0.0 0.0 
-7.535359866812e-04 5.068351669687e-04 0.0 
5.068351669687e-04 1.491053085452e-02 0.0 
0.0 0.0 0.0 
8.086020808096e-06 -4.657862314188e-04 0.0 
-4.657862314188e-04 2.583578717472e-03 0.0 
0.0 0.0 0.0 
9.850123208231e-06 -3.527926071789e-04 0.0 
-3.527926071789e-04 2.812140359829e-03 0.0 
0.0 0.0 0.0 
-2.509616824004e-04 -1.336989090749e-03 0.0 
-1.336989090749e-03 1.391310650442e-03 0.0 
0.0 0.0 0.0 
-8.692088543113e-06 -1.404424427171e-03 0.0 
-1.404424427171e-03 1.558953734344e-03 0.0 
0.0 0.0 0.0 
3.241726484848e-04 -4.863307234519e-04 0.0 
-4.863307234519e-04 3.822446788854e-03 0.0 
0.0 0.0 0.0 
4.010424409837e-04 -6.019786388205e-04 0.0 
-6.019786388205e-04 3.547363769312e-03 0.0 
0.0 0.0 0.0 
-2.873158684453e-04 2.804787674348e-03 0.0 
2.804787674348e-03 1.019328822054e-02 0.0 
0.0 0.0 0.0 
-4.442160467376e-04 2.785321641076e-03 0.0 
2.785321641076e-03 1.088330821838e-02 0.0 
0.0 0.0 0.0 
1.206208916995e-04 2.810823651300e-03 0.0 
2.810823651300e-03 8.705288593575e-03 0.0 
0.0 0.0 0.0 
1.673347917482e-03 2.891201902538e-04 0.0 
2.891201902538e-04 3.696549203352e-03 0.0 
0.0 0.0 0.0 
1.807977850805e-03 9.548655003720e-05 0.0 
9.548655003720e-05 3.104034688823e-03 0.0 
0.0 0.0 0.0 
1.989686806448e-03 2.137726062897e-04 0.0 
2.137726062897e-04 2.791203054732e-03 0.0 
0.0 0.0 0.0 
-6.616529290846e-04 7.958961891677e-04 0.0 
7.958961891677e-04 1.511414565953e-02 0.0 
0.0 0.0 0.0 
-4.812490037067e-04 7.476789217657e-04 0.0 
7.476789217657e-04 1.529969821287e-02 0.0 
0.0 0.0 0.0 
1.425781449500e-03 -1.470961509071e-03 0.0 
-1.470961509071e-03 8.272882864487e-04 0.0 
0.0 0.0 0.0 
1.693528518813e-03 -1.482239397841e-03 0.0 
-1.482239397841e-03 2.418953958438e-04 0.0 
0.0 0.0 0.0 
8.415794082914e-04 -1.493654549754e-03 0.0 
-1.493654549754e-03 1.484663282209e-03 0.0 
0.0 0.0 0.0 
-6.954423287395e-04 1.227847785651e-03 0.0 
1.227847785651e-03 1.504841785922e-02 0.0 
0.0 0.0 0.0 
9.555447643154e-05 2.227669497562e-05 0.0 
2.227669497562e-05 6.834365059365e-03 0.0 
0.0 0.0 0.0 
1.426016623082e-04 1.832369129663e-05 0.0 
1.832369129663e-05 6.592173082351e-03 0.0 
0.0 0.0 0.0 
-1.609276001017e-04 -4.506136561232e-04 0.0 
-4.506136561232e-04 8.851531511087e-04 0.0 
0.0 0.0 0.0 
-3.475561377165e-04 -7.375505976863e-04 0.0 
-7.375505976863e-04 1.093913506943e-03 0.0 
0.0 0.0 0.0 
2.251634355921e-05 3.223562869721e-03 0.0 
3.223562869721e-03 3.966988872829e-04 0.0 
0.0 0.0 0.0 
3.222709940599e-04 3.122704655045e-03 0.0 
3.122704655045e-03 -7.655716347397e-04 0.0 
0.0 0.0 0.0 
-8.339494237494e-04 1.823176570006e-03 0.0 
1.823176570006e-03 1.448271858385e-02 0.0 
0.0 0.0 0.0 
-9.860617098372e-04 1.907685360099e-03 0.0 
1.907685360099e-03 1.419189457633e-02 0.0 
0.0 0.0 0.0 
-6.478419377796e-04 1.762663464894e-03 0.0 
1.762663464894e-03 1.475950852274e-02 0.0 
0.0 0.0 0.0 
4.938962895599e-05 -1.422855745155e-04 0.0 
-1.422855745155e-04 1.974719579974e-03 0.0 
0.0 0.0 0.0 
1.104320148473e-03 2.425589351542e-03 0.0 
2.425589351542e-03 6.700334939742e-03 0.0 
0.0 0.0 0.0 
8.116106931156e-04 9.418567610554e-04 0.0 
9.418567610554e-04 6.171745947262e-03 0.0 
0.0 0.0 0.0 
1.005549506730e-03 1.051476855492e-03 0.0 
1.051476855492e-03 5.924006835090e-03 0.0 
0.0 0.0 0.0 
5.977192188122e-04 8.467202032110e-04 0.0 
8.467202032110e-04 6.534423557961e-03 0.0 
0.0 0.0 0.0 
9.816992684153e-04 2.388092888424e-03 0.0 
2.388092888424e-03 7.147232447891e-03 0.0 
0.0 0.0 0.0 
7.465559484549e-04 2.477484429356e-03 0.0 
2.477484429356e-03 7.709592201204e-03 0.0 
0.0 0.0 0.0 
5.617899361262e-04 2.742762757552e-03 0.0 
2.742762757552e-03 8.452512911340e-03 0.0 
0.0 0.0 0.0 
8.524640544364e-04 7.460572618132e-05 0.0 
7.460572618132e-05 -4.523259954989e-03 0.0 
0.0 0.0 0.0 
-4.776085044599e-04 1.475347166308e-04 0.0 
1.475347166308e-04 1.517450873700e-02 0.0 
0.0 0.0 0.0 
-1.193069264873e-03 1.284228556890e-04 0.0 
1.284228556890e-04 1.330772934390e-02 0.0 
0.0 0.0 0.0 
5.194594338922e-05 -6.274853706167e-04 0.0 
-6.274853706167e-04 -4.376638754423e-03 0.0 
0.0 0.0 0.0 
-1.150140363493e-03 7.745668789437e-05 0.0 
7.745668789437e-05 1.311090283483e-02 0.0 
0.0 0.0 0.0 
-1.114790955238e-03 9.307538411730e-05 0.0 
9.307538411730e-05 1.333744137188e-02 0.0 
0.0 0.0 0.0 
-1.125811655679e-03 4.038914631626e-05 0.0 
4.038914631626e-05 1.288829674579e-02 0.0 
0.0 0.0 0.0 
1.155115552016e-04 -1.244612758666e-04 0.0 
-1.244612758666e-04 1.573403796470e-03 0.0 
0.0 0.0 0.0 
-1.413191176476e-03 2.568908819521e-04 0.0 
2.568908819521e-04 1.321410459172e-02 0.0 
0.0 0.0 0.0 
-1.506416287745e-03 4.279856354917e-04 0.0 
4.279856354917e-04 1.343512515693e-02 0.0 
0.0 0.0 0.0 
-1.868747262380e-04 -3.948081319523e-04 0.0 
-3.948081319523e-04 6.486826963878e-04 0.0 
0.0 0.0 0.0 
-4.967833665549e-04 1.149338950751e-03 0.0 
1.149338950751e-03 1.522746920378e-02 0.0 
0.0 0.0 0.0 
3.434804182043e-05 -2.557932381751e-04 0.0 
-2.557932381751e-04 6.294912973862e-04 0.0 
0.0 0.0 0.0 
7.648007967694e-05 -2.683859481925e-04 0.0 
-2.683859481925e-04 7.718239078808e-04 0.0 
0.0 0.0 0.0 
4.446879411188e-04 3.247260872742e-04 0.0 
3.247260872742e-04 6.432624228670e-03 0.0 
0.0 0.0 0.0 
4.606887874719e-04 1.978294340601e-04 0.0 
1.978294340601e-04 6.186211308084e-03 0.0 
0.0 0.0 0.0 
3.084790926837e-04 2.653092890459e-04 0.0 
2.653092890459e-04 6.707659818351e-03 0.0 
0.0 0.0 0.0 
3.292630060251e-04 1.726236664151e-04 0.0 
1.726236664151e-04 6.460843742417e-03 0.0 
0.0 0.0 0.0 
4.509204959403e-04 9.323633160083e-05 0.0 
9.323633160083e-05 5.966365346859e-03 0.0 
0.0 0.0 0.0 
3.315990100266e-04 8.895695600421e-05 0.0 
8.895695600421e-05 6.267359899708e-03 0.0 
0.0 0.0 0.0 
-1.236493560671e-03 1.078261270519e-04 0.0 
1.078261270519e-04 1.308409111683e-02 0.0 
0.0 0.0 0.0 
2.154784300658e-04 1.562950316014e-04 0.0 
1.562950316014e-04 6.817119278994e-03 0.0 
0.0 0.0 0.0 
2.274020267503e-04 7.774803309877e-05 0.0 
7.774803309877e-05 6.561813494059e-03 0.0 
0.0 0.0 0.0 
1.304534992828e-04 1.159008019795e-04 0.0 
1.159008019795e-04 7.104203843529e-03 0.0 
0.0 0.0 0.0 
-1.493542670632e-03 2.303847692788e-03 0.0 
2.303847692788e-03 9.794836134413e-03 0.0 
0.0 0.0 0.0 
-1.131392333374e-04 2.949564697741e-03 0.0 
2.949564697741e-03 4.311328577673e-03 0.0 
0.0 0.0 0.0 
-5.963327574556e-04 2.837819001548e-03 0.0 
2.837819001548e-03 5.011492600317e-03 0.0 
0.0 0.0 0.0 
-1.087640774266e-03 2.752818854339e-03 0.0 
2.752818854339e-03 4.974869066413e-03 0.0 
0.0 0.0 0.0 
-1.069658099457e-04 3.109848005897e-03 0.0 
3.109848005897e-03 1.129128830587e-02 0.0 
0.0 0.0 0.0 
-2.707867660684e-04 2.975170488032e-03 0.0 
2.975170488032e-03 1.152022731650e-02 0.0 
0.0 0.0 0.0 
1.070736820035e-04 -3.212125932838e-05 0.0 
-3.212125932838e-05 5.992311186735e-03 0.0 
0.0 0.0 0.0 
1.208527068774e-04 -5.709680746625e-05 0.0 
-5.709680746625e-05 5.570210354015e-03 0.0 
0.0 0.0 0.0 
-1.098892810354e-03 5.191086048048e-05 0.0 
5.191086048048e-05 1.311562309370e-02 0.0 
0.0 0.0 0.0 
-1.073573360872e-03 3.266821020418e-05 0.0 
3.266821020418e-05 1.308554979701e-02 0.0 
0.0 0.0 0.0 
-1.053114355634e-03 7.434120661952e-05 0.0 
7.434120661952e-05 1.345262968646e-02 0.0 
0.0 0.0 0.0 
-1.035070065427e-03 4.554963659715e-05 0.0 
4.554963659715e-05 1.339782752873e-02 0.0 
0.0 0.0 0.0 
-9.970888063556e-04 8.790372507973e-05 0.0 
8.790372507973e-05 1.375419020369e-02 0.0 
0.0 0.0 0.0 
-9.833375670072e-04 4.976836878391e-05 0.0 
4.976836878391e-05 1.369246554449e-02 0.0 
0.0 0.0 0.0 
-9.277787468664e-04 8.763836873861e-05 0.0 
8.763836873861e-05 1.404345889120e-02 0.0 
0.0 0.0 0.0 
3.680258860426e-04 2.958632106617e-03 0.0 
2.958632106617e-03 9.202409349548e-03 0.0 
0.0 0.0 0.0 
-1.032133780732e-03 3.017567596114e-03 0.0 
3.017567596114e-03 3.271489327994e-03 0.0 
0.0 0.0 0.0 
-1.761867806409e-03 1.901146566943e-03 0.0 
1.901146566943e-03 1.120845313121e-02 0.0 
0.0 0.0 0.0 
8.166002898375e-04 2.022431272711e-03 0.0 
2.022431272711e-03 7.087834760846e-03 0.0 
0.0 0.0 0.0 
1.021922898746e-03 1.767109898630e-03 0.0 
1.767109898630e-03 6.485352262974e-03 0.0 
0.0 0.0 0.0 
-9.893356611189e-04 2.635266818324e-03 0.0 
2.635266818324e-03 8.311194544420e-03 0.0 
0.0 0.0 0.0 
-1.181501856419e-03 2.501697693814e-03 0.0 
2.501697693814e-03 8.160124335570e-03 0.0 
0.0 0.0 0.0 
4.983109192921e-04 5.446008199630e-04 0.0 
5.446008199630e-04 6.507207313048e-03 0.0 
0.0 0.0 0.0 
1.369895911336e-03 2.616456550320e-03 0.0 
2.616456550320e-03 2.410083492553e-03 0.0 
0.0 0.0 0.0 
-3.527073408037e-04 1.378753238735e-03 0.0 
1.378753238735e-03 1.524266072105e-02 0.0 
0.0 0.0 0.0 
-1.216307226770e-03 2.168265697153e-03 0.0 
2.168265697153e-03 -2.961444951179e-03 0.0 
0.0 0.0 0.0 
3.129486714010e-04 2.112353246031e-03 0.0 
2.112353246031e-03 -3.452243932460e-03 0.0 
0.0 0.0 0.0 
1.124954054492e-03 2.710767796587e-03 0.0 
2.710767796587e-03 3.337078766142e-03 0.0 
0.0 0.0 0.0 
-8.427359503213e-04 2.709871488294e-03 0.0 
2.709871488294e-03 8.531870862835e-03 0.0 
0.0 0.0 0.0 
-2.203098261315e-04 2.892010276242e-03 0.0 
2.892010276242e-03 5.165950481722e-03 0.0 
0.0 0.0 0.0 
-6.444333884758e-04 2.802918513577e-03 0.0 
2.802918513577e-03 5.844105565198e-03 0.0 
0.0 0.0 0.0 
1.509563040851e-03 4.745268771854e-04 0.0 
4.745268771854e-04 4.303488151970e-03 0.0 
0.0 0.0 0.0 
-4.355375469656e-04 -8.218760387122e-04 0.0 
-8.218760387122e-04 9.477203152499e-04 0.0 
0.0 0.0 0.0 
-2.171851850635e-04 3.220194512231e-03 0.0 
3.220194512231e-03 1.455154199320e-03 0.0 
0.0 0.0 0.0 
-9.469448123482e-04 1.457483119959e-04 0.0 
1.457483119959e-04 1.409282763307e-02 0.0 
0.0 0.0 0.0 
-8.065233321676e-04 3.173153756946e-03 0.0 
3.173153756946e-03 1.473096708958e-03 0.0 
0.0 0.0 0.0 
9.634757476170e-05 -2.209359282180e-05 0.0 
-2.209359282180e-05 5.812157140973e-03 0.0 
0.0 0.0 0.0 
1.776335339348e-03 2.312499852204e-03 0.0 
2.312499852204e-03 1.961684749617e-03 0.0 
0.0 0.0 0.0 
-1.558466345059e-04 2.867261789331e-03 0.0 
2.867261789331e-03 7.371106527431e-03 0.0 
0.0 0.0 0.0 
3.387640276726e-04 3.149582877168e-03 0.0 
3.149582877168e-03 1.529165163237e-03 0.0 
0.0 0.0 0.0 
3.960957459920e-04 2.934636612605e-03 0.0 
2.934636612605e-03 3.647001297898e-03 0.0 
0.0 0.0 0.0 
-1.428371116451e-03 2.222965817435e-03 0.0 
2.222965817435e-03 1.163683934225e-02 0.0 
0.0 0.0 0.0 
-1.805388477401e-03 1.605460407786e-03 0.0 
1.605460407786e-03 1.236883963068e-02 0.0 
0.0 0.0 0.0 
-1.757435149617e-03 1.819986021698e-03 0.0 
1.819986021698e-03 1.189109683778e-02 0.0 
0.0 0.0 0.0 
2.095830450142e-03 1.944311544125e-03 0.0 
1.944311544125e-03 1.636278721127e-03 0.0 
0.0 0.0 0.0 
-7.253861033967e-04 2.744942464468e-03 0.0 
2.744942464468e-03 6.670202880156e-03 0.0 
0.0 0.0 0.0 
-1.082119113418e-03 2.594020117336e-03 0.0 
2.594020117336e-03 6.547027273273e-03 0.0 
0.0 0.0 0.0 
-8.140416280521e-04 2.683377863314e-03 0.0 
2.683377863314e-03 9.788423160578e-03 0.0 
0.0 0.0 0.0 
-1.227909775400e-03 1.728819820486e-03 0.0 
1.728819820486e-03 1.401171990061e-02 0.0 
0.0 0.0 0.0 
-1.096940551477e-03 1.979024831102e-03 0.0 
1.979024831102e-03 1.385267261377e-02 0.0 
0.0 0.0 0.0 
-8.425934171468e-04 2.144194204627e-03 0.0 
2.144194204627e-03 1.401030276298e-02 0.0 
0.0 0.0 0.0 
-9.458145596856e-04 2.218879698548e-03 0.0 
2.218879698548e-03 1.364362657069e-02 0.0 
0.0 0.0 0.0 
-1.175509440685e-03 2.062653955629e-03 0.0 
2.062653955629e-03 1.346853642777e-02 0.0 
0.0 0.0 0.0 
-1.005267282438e-03 2.293866513217e-03 0.0 
2.293866513217e-03 1.322368166029e-02 0.0 
0.0 0.0 0.0 
-7.648622383869e-04 2.442738283290e-03 0.0 
2.442738283290e-03 1.341078940227e-02 0.0 
0.0 0.0 0.0 
-8.109506456591e-04 2.513030314600e-03 0.0 
2.513030314600e-03 1.294653193992e-02 0.0 
0.0 0.0 0.0 
-5.509463906916e-04 2.694965244692e-03 0.0 
2.694965244692e-03 1.319107311700e-02 0.0 
0.0 0.0 0.0 
-6.148586597785e-04 2.708022994610e-03 0.0 
2.708022994610e-03 1.262878888369e-02 0.0 
0.0 0.0 0.0 
-8.069640956535e-04 2.570662553520e-03 0.0 
2.570662553520e-03 1.241645188049e-02 0.0 
0.0 0.0 0.0 
-6.079538213924e-04 2.729713483192e-03 0.0 
2.729713483192e-03 1.208616909180e-02 0.0 
0.0 0.0 0.0 
-4.519485308780e-04 2.873074966234e-03 0.0 
2.873074966234e-03 1.228588432698e-02 0.0 
0.0 0.0 0.0 
-7.664554199158e-04 2.628709415830e-03 0.0 
2.628709415830e-03 1.185205159131e-02 0.0 
0.0 0.0 0.0 
5.807277630185e-04 2.275864046218e-03 0.0 
2.275864046218e-03 7.692868821363e-03 0.0 
0.0 0.0 0.0 
1.269011247989e-03 2.608190419315e-03 0.0 
2.608190419315e-03 3.753810630793e-03 0.0 
0.0 0.0 0.0 
1.339052244228e-03 1.117176433530e-03 0.0 
1.117176433530e-03 -4.053117177818e-03 0.0 
0.0 0.0 0.0 
3.993732312670e-04 2.922233083782e-03 0.0 
2.922233083782e-03 -2.338342522798e-03 0.0 
0.0 0.0 0.0 
-3.780122477677e-04 2.830663721608e-03 0.0 
2.830663721608e-03 8.204037763667e-03 0.0 
0.0 0.0 0.0 
-2.970404422341e-04 2.805465790376e-03 0.0 
2.805465790376e-03 1.359502313201e-02 0.0 
0.0 0.0 0.0 
-3.540826273593e-04 2.394737141056e-03 0.0 
2.394737141056e-03 1.431778979065e-02 0.0 
0.0 0.0 0.0 
1.922912407116e-03 2.258839597174e-03 0.0 
2.258839597174e-03 4.848835392336e-04 0.0 
0.0 0.0 0.0 
-2.704080074569e-05 3.317347064769e-03 0.0 
3.317347064769e-03 1.141216641216e-02 0.0 
0.0 0.0 0.0 
-1.551547013417e-03 2.143449982184e-03 0.0 
2.143449982184e-03 1.147176401675e-02 0.0 
0.0 0.0 0.0 
2.388528611873e-03 1.701813268232e-03 0.0 
1.701813268232e-03 -2.311378119317e-03 0.0 
0.0 0.0 0.0 
9.690373234202e-05 3.267065947901e-03 0.0 
3.267065947901e-03 1.045487043564e-02 0.0 
0.0 0.0 0.0 
-1.321418639852e-03 1.813983337550e-03 0.0 
1.813983337550e-03 1.367067550787e-02 0.0 
0.0 0.0 0.0 
-1.381181866244e-03 1.908679930114e-03 0.0 
1.908679930114e-03 1.328679334793e-02 0.0 
0.0 0.0 0.0 
-1.510343263081e-03 1.646249905600e-03 0.0 
1.646249905600e-03 1.348071679655e-02 0.0 
0.0 0.0 0.0 
-3.398813197525e-04 2.005015769458e-03 0.0 
2.005015769458e-03 1.479814473470e-02 0.0 
0.0 0.0 0.0 
-1.484171660209e-03 5.975579727870e-04 0.0 
5.975579727870e-04 1.378943691596e-02 0.0 
0.0 0.0 0.0 
2.800519512923e-04 2.782563413947e-03 0.0 
2.782563413947e-03 8.806409045284e-03 0.0 
0.0 0.0 0.0 
1.936769007551e-03 1.577585626765e-03 0.0 
1.577585626765e-03 3.968340916619e-03 0.0 
0.0 0.0 0.0 
1.884487095395e-03 1.806023516545e-03 0.0 
1.806023516545e-03 4.020947448223e-03 0.0 
0.0 0.0 0.0 
1.988081686524e-03 1.797698475226e-03 0.0 
1.797698475226e-03 3.421592763314e-03 0.0 
0.0 0.0 0.0 
-1.019884317894e-03 2.371126401810e-03 0.0 
2.371126401810e-03 1.274351555396e-02 0.0 
0.0 0.0 0.0 
3.864686615760e-04 1.900420075916e-03 0.0 
1.900420075916e-03 7.594504243953e-03 0.0 
0.0 0.0 0.0 
7.131175224276e-04 1.656506970815e-03 0.0 
1.656506970815e-03 6.909914281370e-03 0.0 
0.0 0.0 0.0 
6.964231277877e-04 1.447352933062e-03 0.0 
1.447352933062e-03 6.765067698198e-03 0.0 
0.0 0.0 0.0 
1.003157208065e-03 1.423034327583e-03 0.0 
1.423034327583e-03 6.218424069630e-03 0.0 
0.0 0.0 0.0 
3.697562776195e-04 1.440106913140e-03 0.0 
1.440106913140e-03 7.287283371450e-03 0.0 
0.0 0.0 0.0 
-1.916988651203e-04 3.114359213199e-03 0.0 
3.114359213199e-03 1.281353667089e-02 0.0 
0.0 0.0 0.0 
-1.337536213629e-04 3.224179575710e-03 0.0 
3.224179575710e-03 1.237879952257e-02 0.0 
0.0 0.0 0.0 
1.543481382637e-03 -1.814209974506e-03 0.0 
-1.814209974506e-03 -2.388623398710e-04 0.0 
0.0 0.0 0.0 
1.994877154044e-03 -1.391825569155e-03 0.0 
-1.391825569155e-03 -3.972239745887e-04 0.0 
0.0 0.0 0.0 
2.050940562774e-03 -1.083089519971e-03 0.0 
-1.083089519971e-03 1.904866655753e-04 0.0 
0.0 0.0 0.0 
2.322113199867e-03 -8.675584288050e-04 0.0 
-8.675584288050e-04 -3.731888086944e-04 0.0 
0.0 0.0 0.0 
2.310765562382e-03 -1.152714726409e-03 0.0 
-1.152714726409e-03 -1.075101305245e-03 0.0 
0.0 0.0 0.0 
2.561221387022e-03 -5.040032160585e-04 0.0 
-5.040032160585e-04 -9.056203962299e-04 0.0 
0.0 0.0 0.0 
2.511923814154e-03 -3.094714511413e-04 0.0 
-3.094714511413e-04 -1.561670387366e-04 0.0 
0.0 0.0 0.0 
2.718450922415e-03 2.404283273093e-05 0.0 
2.404283273093e-05 -1.340611437664e-03 0.0 
0.0 0.0 0.0 
-3.579727105456e-04 2.860177809571e-03 0.0 
2.860177809571e-03 1.120051364964e-02 0.0 
0.0 0.0 0.0 
3.125038698224e-04 1.027286562380e-03 0.0 
1.027286562380e-03 7.154961249352e-03 0.0 
0.0 0.0 0.0 
1.313408270869e-03 -2.285118842164e-04 0.0 
-2.285118842164e-04 3.623811290586e-03 0.0 
0.0 0.0 0.0 
1.512323943552e-03 -2.225762030990e-04 0.0 
-2.225762030990e-04 3.252686756805e-03 0.0 
0.0 0.0 0.0 
1.570611033762e-03 -4.442338094308e-04 0.0 
-4.442338094308e-04 2.728110381161e-03 0.0 
0.0 0.0 0.0 
3.364260804490e-04 -7.015618658802e-04 0.0 
-7.015618658802e-04 3.201169641715e-03 0.0 
0.0 0.0 0.0 
4.880831384441e-04 -7.277310253500e-04 0.0 
-7.277310253500e-04 3.253586208498e-03 0.0 
0.0 0.0 0.0 
5.434278538055e-04 -6.000708460242e-04 0.0 
-6.000708460242e-04 3.616735659181e-03 0.0 
0.0 0.0 0.0 
2.097660220080e-04 -6.432638307575e-04 0.0 
-6.432638307575e-04 3.130920493483e-03 0.0 
0.0 0.0 0.0 
8.149072712544e-04 2.641058907542e-03 0.0 
2.641058907542e-03 7.186982419380e-03 0.0 
0.0 0.0 0.0 
2.851268279039e-04 8.434182171506e-04 0.0 
8.434182171506e-04 7.114794014695e-03 0.0 
0.0 0.0 0.0 
2.006827123059e-03 5.415249970363e-04 0.0 
5.415249970363e-04 3.144168629622e-03 0.0 
0.0 0.0 0.0 
5.872486110619e-04 -8.625157688047e-04 0.0 
-8.625157688047e-04 2.937598824018e-03 0.0 
0.0 0.0 0.0 
-1.556801798641e-03 3.214541644949e-04 0.0 
3.214541644949e-04 1.280390795473e-02 0.0 
0.0 0.0 0.0 
-1.668106283217e-03 5.707679108589e-04 0.0 
5.707679108589e-04 1.311361791677e-02 0.0 
0.0 0.0 0.0 
-1.779440476406e-03 7.665020656336e-04 0.0 
7.665020656336e-04 1.305548543121e-02 0.0 
0.0 0.0 0.0 
-1.718669563048e-03 8.690239170548e-04 0.0 
8.690239170548e-04 1.337665682102e-02 0.0 
0.0 0.0 0.0 
-1.577152588410e-03 4.322303890877e-04 0.0 
4.322303890877e-04 1.318559561279e-02 0.0 
0.0 0.0 0.0 
2.573840573288e-04 -3.805859215545e-04 0.0 
-3.805859215545e-04 4.081306414221e-03 0.0 
0.0 0.0 0.0 
2.019382060102e-04 -2.849110972932e-04 0.0 
-2.849110972932e-04 4.323754933090e-03 0.0 
0.0 0.0 0.0 
1.379514963255e-04 -2.474756756027e-04 0.0 
-2.474756756027e-04 4.181405862843e-03 0.0 
0.0 0.0 0.0 
1.580505405332e-04 -2.000753509047e-04 0.0 
-2.000753509047e-04 4.550645238924e-03 0.0 
0.0 0.0 0.0 
1.115843001532e-04 -1.639171798139e-04 0.0 
-1.639171798139e-04 4.380749081388e-03 0.0 
0.0 0.0 0.0 
9.200958596212e-05 -1.987584332664e-04 0.0 
-1.987584332664e-04 4.041835472430e-03 0.0 
0.0 0.0 0.0 
1.241946938466e-04 -1.253570484376e-04 0.0 
-1.253570484376e-04 4.757858400197e-03 0.0 
0.0 0.0 0.0 
9.069538784845e-05 -8.966004975106e-05 0.0 
-8.966004975106e-05 4.543342733171e-03 0.0 
0.0 0.0 0.0 
-1.387662137407e-03 1.532014514239e-04 0.0 
1.532014514239e-04 1.280195367878e-02 0.0 
0.0 0.0 0.0 
-1.319862006178e-03 -1.956034593090e-03 0.0 
-1.956034593090e-03 -8.941753000571e-04 0.0 
0.0 0.0 0.0 
-7.657025577548e-04 -2.352093529932e-03 0.0 
-2.352093529932e-03 -5.801373012319e-04 0.0 
0.0 0.0 0.0 
-8.820145642159e-04 -1.674538135357e-03 0.0 
-1.674538135357e-03 2.959581106735e-04 0.0 
0.0 0.0 0.0 
-3.778618342782e-04 -2.405924022135e-03 0.0 
-2.405924022135e-03 -3.833994634398e-04 0.0 
0.0 0.0 0.0 
3.460456464437e-04 -2.593119452347e-03 0.0 
-2.593119452347e-03 -1.689327491565e-03 0.0 
0.0 0.0 0.0 
5.179377458351e-04 -2.541327791464e-03 0.0 
-2.541327791464e-03 -1.139203836827e-03 0.0 
0.0 0.0 0.0 
1.232744669139e-03 -2.424131083003e-03 0.0 
-2.424131083003e-03 -2.367290728930e-03 0.0 
0.0 0.0 0.0 
-8.475363280493e-05 -2.508400866912e-03 0.0 
-2.508400866912e-03 -2.343012749948e-03 0.0 
0.0 0.0 0.0 
-6.881438237167e-04 -6.275272705452e-04 0.0 
-6.275272705452e-04 3.626239880370e-04 0.0 
0.0 0.0 0.0 
-7.221170922431e-04 -1.111952127559e-03 0.0 
-1.111952127559e-03 5.701202519857e-04 0.0 
0.0 0.0 0.0 
-3.018820952205e-04 -3.560332532442e-04 0.0 
-3.560332532442e-04 3.201129968273e-04 0.0 
0.0 0.0 0.0 
-5.100234533123e-04 -7.305406079824e-04 0.0 
-7.305406079824e-04 6.358179997636e-04 0.0 
0.0 0.0 0.0 
-6.149474699072e-04 -1.413857511840e-03 0.0 
-1.413857511840e-03 7.627983351151e-04 0.0 
0.0 0.0 0.0 
-3.117495126308e-04 -9.879773355996e-04 0.0 
-9.879773355996e-04 1.379150986739e-03 0.0 
0.0 0.0 0.0 
4.185714727787e-05 3.945725437488e-05 0.0 
3.945725437488e-05 7.317667141096e-03 0.0 
0.0 0.0 0.0 
1.975934643298e-05 -8.549848514626e-05 0.0 
-8.549848514626e-05 3.536126520215e-03 0.0 
0.0 0.0 0.0 
1.561918985523e-05 -1.721659508993e-04 0.0 
-1.721659508993e-04 3.349016865319e-03 0.0 
0.0 0.0 0.0 
1.160135785494e-06 -1.740402937802e-04 0.0 
-1.740402937802e-04 3.009071349622e-03 0.0 
0.0 0.0 0.0 
2.128898578625e-05 -2.750410758431e-04 0.0 
-2.750410758431e-04 3.162640784954e-03 0.0 
0.0 0.0 0.0 
3.860826538219e-05 -1.583048773968e-04 0.0 
-1.583048773968e-04 3.666721398438e-03 0.0 
0.0 0.0 0.0 
-5.741153677260e-06 -8.445810096653e-05 0.0 
-8.445810096653e-05 2.827423510568e-03 0.0 
0.0 0.0 0.0 
-2.592719572481e-06 -1.670496715358e-04 0.0 
-1.670496715358e-04 2.684514280114e-03 0.0 
0.0 0.0 0.0 
5.909407684271e-04 -2.260163264772e-05 0.0 
-2.260163264772e-05 2.887520009727e-06 0.0 
0.0 0.0 0.0 
4.509508846056e-04 -4.296633673979e-05 0.0 
-4.296633673979e-05 3.770402376101e-04 0.0 
0.0 0.0 0.0 
4.881736468540e-04 -9.113228055360e-06 0.0 
-9.113228055360e-06 3.285573661529e-04 0.0 
0.0 0.0 0.0 
3.188979714706e-04 -5.488340465093e-05 0.0 
-5.488340465093e-05 7.822496455637e-04 0.0 
0.0 0.0 0.0 
3.071801856320e-04 -9.104346338044e-05 0.0 
-9.104346338044e-05 7.752548006405e-04 0.0 
0.0 0.0 0.0 
4.257709872501e-04 -6.251021891892e-05 0.0 
-6.251021891892e-05 3.887903245162e-04 0.0 
0.0 0.0 0.0 
3.827418011763e-04 -8.209146957828e-05 0.0 
-8.209146957828e-05 4.075407650070e-04 0.0 
0.0 0.0 0.0 
5.290430648939e-04 -4.207954170517e-05 0.0 
-4.207954170517e-05 2.965163555000e-05 0.0 
0.0 0.0 0.0 
3.264394489637e-04 -1.093031309443e-04 0.0 
-1.093031309443e-04 4.338643567576e-04 0.0 
0.0 0.0 0.0 
2.096611211857e-04 -1.704199986133e-04 0.0 
-1.704199986133e-04 8.287904120772e-04 0.0 
0.0 0.0 0.0 
4.914265494370e-04 -5.434591571194e-05 0.0 
-5.434591571194e-05 3.685512087807e-05 0.0 
0.0 0.0 0.0 
-7.744695929754e-04 4.891829988153e-05 0.0 
4.891829988153e-05 1.450132484502e-02 0.0 
0.0 0.0 0.0 
-7.110448700095e-04 1.149968250497e-04 0.0 
1.149968250497e-04 1.468612774663e-02 0.0 
0.0 0.0 0.0 
2.365482936665e-04 5.354896981746e-04 0.0 
5.354896981746e-04 7.086101566328e-03 0.0 
0.0 0.0 0.0 
-1.261484238299e-03 8.202139396945e-05 0.0 
8.202139396945e-05 1.282905703327e-02 0.0 
0.0 0.0 0.0 
5.580822766567e-05 -1.576032608657e-04 0.0 
-1.576032608657e-04 2.162851604442e-04 0.0 
0.0 0.0 0.0 
-2.457558589343e-04 4.789280430916e-04 0.0 
4.789280430916e-04 1.554518288785e-02 0.0 
0.0 0.0 0.0 
-2.612526233540e-04 8.911708443782e-04 0.0 
8.911708443782e-04 1.548958641237e-02 0.0 
0.0 0.0 0.0 
-2.305861105046e-04 7.551611121420e-04 0.0 
7.551611121420e-04 1.553672479336e-02 0.0 
0.0 0.0 0.0 
5.638885080173e-05 -6.704638217137e-07 0.0 
-6.704638217137e-07 6.682603161841e-03 0.0 
0.0 0.0 0.0 
5.614231046480e-05 4.566446451170e-06 0.0 
4.566446451170e-06 6.885655451575e-03 0.0 
0.0 0.0 0.0 
-2.146438836362e-04 2.687715317861e-04 0.0 
2.687715317861e-04 1.557755831893e-02 0.0 
0.0 0.0 0.0 
3.132095318686e-05 -1.014281702925e-03 0.0 
-1.014281702925e-03 2.053754875447e-03 0.0 
0.0 0.0 0.0 
-7.022958440367e-04 2.392625205087e-03 0.0 
2.392625205087e-03 1.380343396239e-02 0.0 
0.0 0.0 0.0 
-6.188555695678e-04 4.664459726348e-04 0.0 
4.664459726348e-04 1.507398180584e-02 0.0 
0.0 0.0 0.0 
1.766158184228e-03 2.471427559662e-03 0.0 
2.471427559662e-03 -1.705157948731e-03 0.0 
0.0 0.0 0.0 
2.662274514317e-04 -1.603081508993e-03 0.0 
-1.603081508993e-03 1.415406062337e-03 0.0 
0.0 0.0 0.0 
1.612755989842e-04 -1.030630673154e-04 0.0 
-1.030630673154e-04 5.339756727691e-03 0.0 
0.0 0.0 0.0 
5.705717683880e-04 -3.352692803626e-04 0.0 
-3.352692803626e-04 4.415267366850e-03 0.0 
0.0 0.0 0.0 
2.002281731989e-04 -2.272247794239e-05 0.0 
-2.272247794239e-05 6.138963125314e-03 0.0 
0.0 0.0 0.0 
2.829777809883e-04 -2.234718591037e-04 0.0 
-2.234718591037e-04 4.851271809824e-03 0.0 
0.0 0.0 0.0 
3.791305443485e-04 -6.512169162741e-05 0.0 
-6.512169162741e-05 5.600004922314e-03 0.0 
0.0 0.0 0.0 
6.887041734263e-04 1.210421106652e-03 0.0 
1.210421106652e-03 6.607500501939e-03 0.0 
0.0 0.0 0.0 
1.225839631520e-04 -1.796604541546e-04 0.0 
-1.796604541546e-04 1.435579638983e-03 0.0 
0.0 0.0 0.0 
-1.205561693676e-03 3.182651220387e-04 0.0 
3.182651220387e-04 1.389587896479e-02 0.0 
0.0 0.0 0.0 
-1.080284538802e-03 1.592264084325e-04 0.0 
1.592264084325e-04 1.373666129745e-02 0.0 
0.0 0.0 0.0 
-9.046909967910e-04 4.146681122221e-04 0.0 
4.146681122221e-04 1.460607505549e-02 0.0 
0.0 0.0 0.0 
-1.670227685972e-06 -5.775406744310e-04 0.0 
-5.775406744310e-04 2.387466787309e-03 0.0 
0.0 0.0 0.0 
1.117325156665e-04 -2.941209896780e-04 0.0 
-2.941209896780e-04 3.833198177016e-03 0.0 
0.0 0.0 0.0 
-8.642206844345e-05 -5.364996974485e-04 0.0 
-5.364996974485e-04 1.551303733641e-03 0.0 
0.0 0.0 0.0 
1.267569088178e-04 3.126955284930e-03 0.0 
3.126955284930e-03 1.030523408617e-02 0.0 
0.0 0.0 0.0 
-9.189730250086e-04 2.658729517164e-03 0.0 
2.658729517164e-03 9.556506535528e-03 0.0 
0.0 0.0 0.0 
1.384740935686e-03 -6.653360442631e-04 0.0 
-6.653360442631e-04 2.635332171355e-03 0.0 
0.0 0.0 0.0 
2.519472099729e-04 -7.834332014542e-04 0.0 
-7.834332014542e-04 2.876061066163e-03 0.0 
0.0 0.0 0.0 
1.907079845941e-04 -1.176982471863e-03 0.0 
-1.176982471863e-03 2.048415099248e-03 0.0 
0.0 0.0 0.0 
3.364294841166e-04 -1.855055478603e-03 0.0 
-1.855055478603e-03 1.002878833594e-03 0.0 
0.0 0.0 0.0 
1.020423712863e-03 2.705309472501e-03 0.0 
2.705309472501e-03 4.636732140842e-03 0.0 
0.0 0.0 0.0 
7.868760046128e-04 -8.337138791368e-04 0.0 
-8.337138791368e-04 2.954474257418e-03 0.0 
0.0 0.0 0.0 
8.593988857924e-04 -2.906843238417e-05 0.0 
-2.906843238417e-05 4.831252387206e-03 0.0 
0.0 0.0 0.0 
-7.853404030795e-04 3.894185058028e-04 0.0 
3.894185058028e-04 1.477793388736e-02 0.0 
0.0 0.0 0.0 
3.015434949349e-04 -9.468104919372e-05 0.0 
-9.468104919372e-05 1.557883009037e-04 0.0 
0.0 0.0 0.0 
9.178683636438e-04 1.259754598848e-04 0.0 
1.259754598848e-04 5.020145725925e-03 0.0 
0.0 0.0 0.0 
8.485182686973e-04 -4.846996843450e-04 0.0 
-4.846996843450e-04 3.761474061045e-03 0.0 
0.0 0.0 0.0 
-1.381348801355e-03 5.924297778727e-04 0.0 
5.924297778727e-04 1.400013780033e-02 0.0 
0.0 0.0 0.0 
1.535401962986e-03 1.547725210600e-03 0.0 
1.547725210600e-03 5.241675728826e-03 0.0 
0.0 0.0 0.0 
2.241388422572e-04 -2.438828492944e-03 0.0 
-2.438828492944e-03 -2.847786606288e-04 0.0 
0.0 0.0 0.0 
-1.008582178047e-03 7.132957476925e-04 0.0 
7.132957476925e-04 1.468409679363e-02 0.0 
0.0 0.0 0.0 
-7.872674001139e-04 1.498271565197e-03 0.0 
1.498271565197e-03 1.481597037511e-02 0.0 
0.0 0.0 0.0 
-1.575059709486e-03 6.126533770181e-04 0.0 
6.126533770181e-04 1.357354517496e-02 0.0 
0.0 0.0 0.0 
-3.324535484669e-05 -4.026348721626e-04 0.0 
-4.026348721626e-04 1.178527294041e-03 0.0 
0.0 0.0 0.0 
-1.240147263989e-03 2.051367800818e-04 0.0 
2.051367800818e-04 1.351099350800e-02 0.0 
0.0 0.0 0.0 
6.957713343684e-04 6.210745905502e-04 0.0 
6.210745905502e-04 6.123006359293e-03 0.0 
0.0 0.0 0.0 
-1.325014530123e-03 1.476062218099e-03 0.0 
1.476062218099e-03 1.411893360327e-02 0.0 
0.0 0.0 0.0 
-1.471382845836e-05 -4.430360968003e-04 0.0 
-4.430360968003e-04 2.236352372820e-03 0.0 
0.0 0.0 0.0 
2.267600628988e-03 5.975897051064e-04 0.0 
5.975897051064e-04 2.287206975970e-03 0.0 
0.0 0.0 0.0 
1.895482399231e-04 2.865649827190e-03 0.0 
2.865649827190e-03 6.838069046645e-03 0.0 
0.0 0.0 0.0 
-1.904708664281e-03 1.141010686777e-03 0.0 
1.141010686777e-03 1.211434615500e-02 0.0 
0.0 0.0 0.0 
-5.660524077906e-04 5.886902802225e-04 0.0 
5.886902802225e-04 1.517974827941e-02 0.0 
0.0 0.0 0.0 
1.599384526785e-03 2.259922485724e-03 0.0 
2.259922485724e-03 4.366586704959e-03 0.0 
0.0 0.0 0.0 
1.318568740398e-03 1.269940740034e-03 0.0 
1.269940740034e-03 5.489982208610e-03 0.0 
0.0 0.0 0.0 
1.968553286283e-03 8.609867607714e-04 0.0 
8.609867607714e-04 3.571105247193e-03 0.0 
0.0 0.0 0.0 
-4.685671027812e-06 -3.503793442279e-04 0.0 
-3.503793442279e-04 2.419682398604e-03 0.0 
0.0 0.0 0.0 
5.872560522524e-04 1.012157381981e-04 0.0 
1.012157381981e-04 5.668186194144e-03 0.0 
0.0 0.0 0.0 
2.181183236046e-03 1.511156204581e-03 0.0 
1.511156204581e-03 2.716556657845e-03 0.0 
0.0 0.0 0.0 
-8.265311186419e-04 8.467245078929e-04 0.0 
8.467245078929e-04 1.495203139245e-02 0.0 
0.0 0.0 0.0 
1.394014511725e-04 2.822798299729e-03 0.0 
2.822798299729e-03 9.081027682179e-03 0.0 
0.0 0.0 0.0 
2.540294375865e-03 7.219650182060e-04 0.0 
7.219650182060e-04 7.561915382149e-04 0.0 
0.0 0.0 0.0 
-1.100778741685e-03 1.127453065087e-03 0.0 
1.127453065087e-03 1.462953557475e-02 0.0 
0.0 0.0 0.0 
1.780583965009e-03 -4.113826324667e-04 0.0 
-4.113826324667e-04 2.330895847059e-03 0.0 
0.0 0.0 0.0 
1.361722532557e-03 1.806413072018e-03 0.0 
1.806413072018e-03 5.834273085837e-03 0.0 
0.0 0.0 0.0 
-7.107631732628e-04 2.750321385899e-03 0.0 
2.750321385899e-03 8.765297432831e-03 0.0 
0.0 0.0 0.0 
8.614399011458e-05 2.818652924507e-03 0.0 
2.818652924507e-03 8.342838885958e-03 0.0 
0.0 0.0 0.0 
-7.907922413419e-04 2.633234503689e-03 0.0 
2.633234503689e-03 1.099843468380e-02 0.0 
0.0 0.0 0.0 
8.587416191453e-04 2.677614332733e-03 0.0 
2.677614332733e-03 6.306142530535e-03 0.0 
0.0 0.0 0.0 
1.257794749800e-04 -8.501307265886e-05 0.0 
-8.501307265886e-05 5.159547758892e-03 0.0 
0.0 0.0 0.0 
7.445816710449e-04 1.140985545552e-04 0.0 
1.140985545552e-04 5.348529900004e-03 0.0 
0.0 0.0 0.0 
2.530445837975e-03 -1.019342585944e-03 0.0 
-1.019342585944e-03 -3.415032261560e-03 0.0 
0.0 0.0 0.0 
6.892463612968e-04 2.858931191937e-03 0.0 
2.858931191937e-03 3.921530262737e-03 0.0 
0.0 0.0 0.0 
-1.519279888585e-03 8.032434523292e-04 0.0 
8.032434523292e-04 1.388653569236e-02 0.0 
0.0 0.0 0.0 
4.475697777243e-04 2.829602298927e-03 0.0 
2.829602298927e-03 8.842141659341e-03 0.0 
0.0 0.0 0.0 
-6.028557529598e-04 9.673641014756e-04 0.0 
9.673641014756e-04 1.518968053372e-02 0.0 
0.0 0.0 0.0 
6.673446361764e-05 2.887996585344e-03 0.0 
2.887996585344e-03 6.527531824553e-03 0.0 
0.0 0.0 0.0 
5.506503843595e-04 -7.253090831151e-06 0.0 
-7.253090831151e-06 5.474369771917e-03 0.0 
0.0 0.0 0.0 
-8.725017811466e-04 1.284931901217e-03 0.0 
1.284931901217e-03 1.484447806371e-02 0.0 
0.0 0.0 0.0 
6.573406458685e-04 -7.149040928092e-04 0.0 
-7.149040928092e-04 3.297133461720e-03 0.0 
0.0 0.0 0.0 
1.013496866884e-04 -6.116856450483e-05 0.0 
-6.116856450483e-05 1.683757022270e-03 0.0 
0.0 0.0 0.0 
1.256622884870e-03 2.712824714754e-03 0.0 
2.712824714754e-03 -1.930886350882e-03 0.0 
0.0 0.0 0.0 
2.677809083168e-03 6.716292963811e-04 0.0 
6.716292963811e-04 -7.474758013975e-04 0.0 
0.0 0.0 0.0 
1.837045157932e-03 2.060771342653e-03 0.0 
2.060771342653e-03 3.588767205277e-03 0.0 
0.0 0.0 0.0 
6.952554408250e-04 -5.619074735534e-04 0.0 
-5.619074735534e-04 3.684321280754e-03 0.0 
0.0 0.0 0.0 
-6.665422970430e-04 2.114725783754e-03 0.0 
2.114725783754e-03 1.433735635511e-02 0.0 
0.0 0.0 0.0 
4.228931035453e-04 5.539947757841e-06 0.0 
5.539947757841e-06 5.776427478992e-03 0.0 
0.0 0.0 0.0 
1.320384433624e-03 4.022324246342e-04 0.0 
4.022324246342e-04 4.613354040816e-03 0.0 
0.0 0.0 0.0 
-1.418192506398e-03 3.057029441565e-03 0.0 
3.057029441565e-03 7.226834762543e-04 0.0 
0.0 0.0 0.0 
-1.841997940250e-03 1.651220231756e-03 0.0 
1.651220231756e-03 1.176961148462e-02 0.0 
0.0 0.0 0.0 
3.125290996041e-04 1.490909229253e-05 0.0 
1.490909229253e-05 6.067097838926e-03 0.0 
0.0 0.0 0.0 
2.147352243669e-03 3.808209603013e-04 0.0 
3.808209603013e-04 2.514894717942e-03 0.0 
0.0 0.0 0.0 
1.290985561180e-03 1.657720210342e-03 0.0 
1.657720210342e-03 5.869107101580e-03 0.0 
0.0 0.0 0.0 
7.547622123868e-05 -1.184811669603e-04 0.0 
-1.184811669603e-04 4.192170494890e-03 0.0 
0.0 0.0 0.0 
2.302573602440e-04 3.063958221923e-03 0.0 
3.063958221923e-03 9.796885154114e-03 0.0 
0.0 0.0 0.0 
-1.310265410827e-03 2.433892651145e-03 0.0 
2.433892651145e-03 8.985392044050e-03 0.0 
0.0 0.0 0.0 
2.192083349340e-04 1.867784012339e-05 0.0 
1.867784012339e-05 6.349750971379e-03 0.0 
0.0 0.0 0.0 
1.488032809049e-03 7.397615379697e-04 0.0 
7.397615379697e-04 4.647121742670e-03 0.0 
0.0 0.0 0.0 
1.636517510706e-03 2.473906268891e-03 0.0 
2.473906268891e-03 1.465815907297e-03 0.0 
0.0 0.0 0.0 
-1.082451175933e-03 1.080594137745e-05 0.0 
1.080594137745e-05 1.272572132616e-02 0.0 
0.0 0.0 0.0 
1.349380548429e-04 6.401858666883e-05 0.0 
6.401858666883e-05 6.891877041337e-03 0.0 
0.0 0.0 0.0 
1.249862860648e-03 8.959553750732e-04 0.0 
8.959553750732e-04 5.287986547073e-03 0.0 
0.0 0.0 0.0 
8.507290022277e-04 2.649531279143e-03 0.0 
2.649531279143e-03 6.739560365924e-03 0.0 
0.0 0.0 0.0 
2.103082511562e-03 2.360078094970e-05 0.0 
2.360078094970e-05 2.179836495605e-03 0.0 
0.0 0.0 0.0 
-1.909234548014e-03 1.642902332664e-03 0.0 
1.642902332664e-03 1.123872602295e-02 0.0 
0.0 0.0 0.0 
5.704736512654e-04 -4.674635839600e-04 0.0 
-4.674635839600e-04 4.003981030489e-03 0.0 
0.0 0.0 0.0 
-1.449384624859e-04 2.808728367795e-03 0.0 
2.808728367795e-03 9.124890249580e-03 0.0 
0.0 0.0 0.0 
-3.195796520545e-04 1.808867454463e-03 0.0 
1.808867454463e-03 1.498315693363e-02 0.0 
0.0 0.0 0.0 
1.152207495319e-03 1.141591373431e-03 0.0 
1.141591373431e-03 5.677447556876e-03 0.0 
0.0 0.0 0.0 
-1.558135891541e-03 1.756191180766e-03 0.0 
1.756191180766e-03 1.310725658337e-02 0.0 
0.0 0.0 0.0 
4.424016876852e-04 -4.923379690126e-04 0.0 
-4.923379690126e-04 3.914462593100e-03 0.0 
0.0 0.0 0.0 
1.546208100655e-03 2.060275519895e-03 0.0 
2.060275519895e-03 5.300047814194e-03 0.0 
0.0 0.0 0.0 
2.754488493529e-04 -1.236585418845e-04 0.0 
-1.236585418845e-04 7.884362142754e-04 0.0 
0.0 0.0 0.0 
-1.632808891887e-03 2.127320967171e-03 0.0 
2.127320967171e-03 1.053784282924e-02 0.0 
0.0 0.0 0.0 
3.538448236656e-04 -3.927856352451e-04 0.0 
-3.927856352451e-04 4.194294412332e-03 0.0 
0.0 0.0 0.0 
2.651380183092e-03 1.215931364123e-04 0.0 
1.215931364123e-04 -5.234420502540e-04 0.0 
0.0 0.0 0.0 
1.913852582782e-03 -1.088258360732e-04 0.0 
-1.088258360732e-04 2.520043650548e-03 0.0 
0.0 0.0 0.0 
7.073024418622e-04 2.401243890815e-03 0.0 
2.401243890815e-03 7.682936597702e-03 0.0 
0.0 0.0 0.0 
2.784076842698e-04 -3.022340264835e-04 0.0 
-3.022340264835e-04 4.457539762442e-03 0.0 
0.0 0.0 0.0 
2.576570683427e-03 2.306559063926e-04 0.0 
2.306559063926e-04 2.306068591065e-04 0.0 
0.0 0.0 0.0 
2.158123559377e-04 -2.212456930853e-04 0.0 
-2.212456930853e-04 4.704517771119e-03 0.0 
0.0 0.0 0.0 
-1.631163362584e-03 2.151531616920e-03 0.0 
2.151531616920e-03 9.739127339222e-03 0.0 
0.0 0.0 0.0 
-1.402443222978e-03 2.021987344431e-03 0.0 
2.021987344431e-03 1.285913083033e-02 0.0 
0.0 0.0 0.0 
1.653613422205e-04 -1.497672889886e-04 0.0 
-1.497672889886e-04 4.937482792858e-03 0.0 
0.0 0.0 0.0 
-9.652884946968e-05 2.814668576560e-03 0.0 
2.814668576560e-03 9.464336087803e-03 0.0 
0.0 0.0 0.0 
1.260061125507e-04 -2.431411841471e-04 0.0 
-2.431411841471e-04 8.978416492090e-04 0.0 
0.0 0.0 0.0 
1.058053178334e-03 2.532908693595e-03 0.0 
2.532908693595e-03 6.416220818072e-03 0.0 
0.0 0.0 0.0 
8.432037747989e-05 -9.565239374107e-06 0.0 
-9.565239374107e-06 6.431021090036e-03 0.0 
0.0 0.0 0.0 
6.944053073234e-04 -1.327963249041e-03 0.0 
-1.327963249041e-03 1.903218762674e-03 0.0 
0.0 0.0 0.0 
1.713979273883e-03 -1.870427448526e-04 0.0 
-1.870427448526e-04 2.880841236165e-03 0.0 
0.0 0.0 0.0 
-1.214183415933e-03 2.154453518547e-03 0.0 
2.154453518547e-03 1.303831421728e-02 0.0 
0.0 0.0 0.0 
-1.448504373473e-03 2.257637686775e-03 0.0 
2.257637686775e-03 8.199098201185e-03 0.0 
0.0 0.0 0.0 
1.616019994581e-03 2.309575778719e-05 0.0 
2.309575778719e-05 3.442355339364e-03 0.0 
0.0 0.0 0.0 
-6.010600942447e-05 2.844869514099e-03 0.0 
2.844869514099e-03 9.820241018136e-03 0.0 
0.0 0.0 0.0 
1.220086928987e-03 2.402045181701e-03 0.0 
2.402045181701e-03 6.166756952120e-03 0.0 
0.0 0.0 0.0 
1.772629871489e-03 2.036842759969e-03 0.0 
2.036842759969e-03 4.150257066906e-03 0.0 
0.0 0.0 0.0 
1.486681806378e-03 2.206342112493e-04 0.0 
2.206342112493e-04 4.019515520634e-03 0.0 
0.0 0.0 0.0 
-1.100523348866e-03 2.562455841156e-03 0.0 
2.562455841156e-03 7.386908159315e-03 0.0 
0.0 0.0 0.0 
1.052362004876e-05 -1.193123465757e-03 0.0 
-1.193123465757e-03 1.815894871439e-03 0.0 
0.0 0.0 0.0 
-1.670007270000e-04 -1.137474002471e-03 0.0 
-1.137474002471e-03 1.600359489419e-03 0.0 
0.0 0.0 0.0 
2.447247651831e-03 -1.279422860389e-04 0.0 
-1.279422860389e-04 5.463617936241e-04 0.0 
0.0 0.0 0.0 
-2.312087324743e-04 2.855761334146e-03 0.0 
2.855761334146e-03 1.053633619984e-02 0.0 
0.0 0.0 0.0 
2.035529862386e-04 -1.081265344676e-04 0.0 
-1.081265344676e-04 1.162002623029e-03 0.0 
0.0 0.0 0.0 
-9.926133398390e-04 2.459027516555e-03 0.0 
2.459027516555e-03 1.221315067246e-02 0.0 
0.0 0.0 0.0 
-4.175576249322e-04 -1.131205898963e-03 0.0 
-1.131205898963e-03 1.205850965537e-03 0.0 
0.0 0.0 0.0 
2.303839027837e-03 -6.165745741223e-04 0.0 
-6.165745741223e-04 2.907381398738e-04 0.0 
0.0 0.0 0.0 
1.171103045579e-03 2.310758678785e-03 0.0 
2.310758678785e-03 6.577651330006e-03 0.0 
0.0 0.0 0.0 
-9.561386201149e-04 2.139239434812e-05 0.0 
2.139239434812e-05 1.380763959904e-02 0.0 
0.0 0.0 0.0 
2.064258770889e-03 -8.089664683342e-04 0.0 
-8.089664683342e-04 7.730129751610e-04 0.0 
0.0 0.0 0.0 
3.974313583088e-05 -6.966968846627e-05 0.0 
-6.966968846627e-05 2.084843190855e-03 0.0 
0.0 0.0 0.0 
1.781728070223e-03 -1.181220212820e-03 0.0 
-1.181220212820e-03 7.406522328252e-04 0.0 
0.0 0.0 0.0 
1.675432931902e-03 2.035841850806e-03 0.0 
2.035841850806e-03 4.718798778991e-03 0.0 
0.0 0.0 0.0 
1.530505308674e-03 -1.192741019791e-03 0.0 
-1.192741019791e-03 1.262899680193e-03 0.0 
0.0 0.0 0.0 
1.194854270752e-03 -1.394179971821e-03 0.0 
-1.394179971821e-03 1.349168975050e-03 0.0 
0.0 0.0 0.0 
-4.269749368117e-04 5.360323202728e-04 0.0 
5.360323202728e-04 1.533823664896e-02 0.0 
0.0 0.0 0.0 
9.993189664737e-04 -1.279307815649e-03 0.0 
-1.279307815649e-03 1.811910152598e-03 0.0 
0.0 0.0 0.0 
-1.794314350764e-04 1.539547885074e-04 0.0 
1.539547885074e-04 1.563017120434e-02 0.0 
0.0 0.0 0.0 
2.264176788664e-05 9.721143755608e-06 0.0 
9.721143755608e-06 7.386573137867e-03 0.0 
0.0 0.0 0.0 
-1.052473565149e-03 4.314874994002e-06 0.0 
4.314874994002e-06 1.303070608267e-02 0.0 
0.0 0.0 0.0 
-1.503685201875e-03 2.374409442104e-03 0.0 
2.374409442104e-03 6.877212898671e-03 0.0 
0.0 0.0 0.0 
-1.427271182351e-03 1.106462503236e-04 0.0 
1.106462503236e-04 -4.034933747624e-03 0.0 
0.0 0.0 0.0 
-9.741663401184e-04 2.696758850797e-03 0.0 
2.696758850797e-03 5.680056246109e-03 0.0 
0.0 0.0 0.0 
5.054945674460e-04 -1.486027025432e-03 0.0 
-1.486027025432e-03 1.631799333549e-03 0.0 
0.0 0.0 0.0 
-6.732812691274e-04 2.685723035385e-03 0.0 
2.685723035385e-03 1.124514507393e-02 0.0 
0.0 0.0 0.0 
-1.059249731554e-03 2.278694875587e-05 0.0 
2.278694875587e-05 1.305240957822e-02 0.0 
0.0 0.0 0.0 
2.177334562437e-04 -1.378593465135e-03 0.0 
-1.378593465135e-03 1.754843309141e-03 0.0 
0.0 0.0 0.0 
-3.977144210694e-04 2.896111721985e-03 0.0 
2.896111721985e-03 1.276839249701e-02 0.0 
0.0 0.0 0.0 
1.942103300114e-04 3.084057485498e-03 0.0 
3.084057485498e-03 9.570435720493e-03 0.0 
0.0 0.0 0.0 
-8.359124401268e-04 9.181087363100e-05 0.0 
9.181087363100e-05 1.433987860397e-02 0.0 
0.0 0.0 0.0 
1.171298846662e-03 1.524962760947e-03 0.0 
1.524962760947e-03 5.958967977517e-03 0.0 
0.0 0.0 0.0 
1.328793711577e-03 2.260016203801e-03 0.0 
2.260016203801e-03 6.000314782424e-03 0.0 
0.0 0.0 0.0 
-5.086137361828e-04 7.201148478129e-05 0.0 
7.201148478129e-05 1.511069773938e-02 0.0 
0.0 0.0 0.0 
-1.144352293610e-03 2.085884642529e-05 0.0 
2.085884642529e-05 1.271659408096e-02 0.0 
0.0 0.0 0.0 
-3.343478293103e-04 -5.059965255381e-04 0.0 
-5.059965255381e-04 6.157179694787e-04 0.0 
0.0 0.0 0.0 
1.028999011682e-04 -3.475006598460e-05 0.0 
-3.475006598460e-05 5.392894962891e-03 0.0 
0.0 0.0 0.0 
-1.604265391973e-03 2.536758978461e-03 0.0 
2.536758978461e-03 5.437553695552e-03 0.0 
0.0 0.0 0.0 
-1.070127001550e-03 2.890539651603e-03 0.0 
2.890539651603e-03 4.085252863966e-03 0.0 
0.0 0.0 0.0 
-9.460346181398e-04 3.103121476294e-03 0.0 
3.103121476294e-03 2.397104981138e-03 0.0 
0.0 0.0 0.0 
-3.436216261995e-06 -2.572155153023e-04 0.0 
-2.572155153023e-04 2.567110067522e-03 0.0 
0.0 0.0 0.0 
-6.429682841704e-04 -1.877626488866e-03 0.0 
-1.877626488866e-03 4.039376108801e-04 0.0 
0.0 0.0 0.0 
-1.611098167807e-03 2.776690600216e-03 0.0 
2.776690600216e-03 4.018831483024e-03 0.0 
0.0 0.0 0.0 
7.177382085987e-04 1.849243165915e-03 0.0 
1.849243165915e-03 7.051026044468e-03 0.0 
0.0 0.0 0.0 
-1.336061747935e-03 1.743745682630e-04 0.0 
1.743745682630e-04 1.313363047795e-02 0.0 
0.0 0.0 0.0 
9.561960729275e-04 2.479426041758e-03 0.0 
2.479426041758e-03 7.244789530584e-03 0.0 
0.0 0.0 0.0 
-1.509880041336e-03 2.931904597587e-03 0.0 
2.931904597587e-03 2.418913975485e-03 0.0 
0.0 0.0 0.0 
-6.080675969243e-04 1.432697213544e-03 0.0 
1.432697213544e-03 1.501905014898e-02 0.0 
0.0 0.0 0.0 
5.199931782245e-04 2.712189668793e-03 0.0 
2.712189668793e-03 8.433698990299e-03 0.0 
0.0 0.0 0.0 
1.485717472779e-04 2.901314063899e-04 0.0 
2.901314063899e-04 7.199679002789e-03 0.0 
0.0 0.0 0.0 
7.727679403313e-04 2.567318358237e-03 0.0 
2.567318358237e-03 7.796184305584e-03 0.0 
0.0 0.0 0.0 
-6.485342325613e-04 3.239852289703e-03 0.0 
3.239852289703e-03 4.787697688720e-04 0.0 
0.0 0.0 0.0 
-1.651365928865e-03 6.578489360562e-04 0.0 
6.578489360562e-04 1.339650692322e-02 0.0 
0.0 0.0 0.0 
1.608259403128e-05 3.146945172356e-03 0.0 
3.146945172356e-03 1.080365903952e-02 0.0 
0.0 0.0 0.0 
-7.699264845172e-04 1.634785655631e-04 0.0 
1.634785655631e-04 1.461298212065e-02 0.0 
0.0 0.0 0.0 
9.634050610039e-05 1.767256452881e-04 0.0 
1.767256452881e-04 7.297975053702e-03 0.0 
0.0 0.0 0.0 
-1.479175038911e-03 2.873529837337e-04 0.0 
2.873529837337e-04 1.309531958399e-02 0.0 
0.0 0.0 0.0 
-3.535143257739e-04 3.487606897471e-04 0.0 
3.487606897471e-04 1.539610686134e-02 0.0 
0.0 0.0 0.0 
1.955479984665e-03 -1.857436987326e-03 0.0 
-1.857436987326e-03 -3.103099841659e-03 0.0 
0.0 0.0 0.0 
-3.285523594572e-04 1.797487239783e-04 0.0 
1.797487239783e-04 1.540934731350e-02 0.0 
0.0 0.0 0.0 
-5.546285705796e-04 2.760863848211e-03 0.0 
2.760863848211e-03 1.151172965155e-02 0.0 
0.0 0.0 0.0 
-1.069069364524e-03 1.088778624317e-04 0.0 
1.088778624317e-04 1.355939231401e-02 0.0 
0.0 0.0 0.0 
-1.787379684142e-03 1.028012197537e-03 0.0 
1.028012197537e-03 1.318757103308e-02 0.0 
0.0 0.0 0.0 
5.340103831175e-05 1.836437882706e-05 0.0 
1.836437882706e-05 7.073930597653e-03 0.0 
0.0 0.0 0.0 
-5.515804399365e-04 2.578665743825e-03 0.0 
2.578665743825e-03 1.361032264516e-02 0.0 
0.0 0.0 0.0 
-3.668543214345e-04 3.238121312246e-03 0.0 
3.238121312246e-03 -8.274662754616e-04 0.0 
0.0 0.0 0.0 
-8.656771915744e-04 1.429969785762e-04 0.0 
1.429969785762e-04 1.432632533022e-02 0.0 
0.0 0.0 0.0 
4.572759925447e-05 -3.773879444224e-04 0.0 
-3.773879444224e-04 3.124720943246e-03 0.0 
0.0 0.0 0.0 
3.343105113246e-04 -1.690097254594e-03 0.0 
-1.690097254594e-03 -3.856898965650e-03 0.0 
0.0 0.0 0.0 
3.953719230464e-04 4.449893189679e-04 0.0 
4.449893189679e-04 6.635061817967e-03 0.0 
0.0 0.0 0.0 
-4.321510128201e-04 2.853655049865e-03 0.0 
2.853655049865e-03 1.177718295031e-02 0.0 
0.0 0.0 0.0 
8.995759075496e-05 4.954566886901e-05 0.0 
4.954566886901e-05 6.991179786093e-03 0.0 
0.0 0.0 0.0 
3.392450390410e-04 -1.476980473022e-05 0.0 
-1.476980473022e-05 7.603460972189e-04 0.0 
0.0 0.0 0.0 
2.065534758502e-05 -2.303386381984e-04 0.0 
-2.303386381984e-04 4.882547145559e-04 0.0 
0.0 0.0 0.0 
4.783453467381e-04 7.085913272901e-04 0.0 
7.085913272901e-04 6.672856824267e-03 0.0 
0.0 0.0 0.0 
-2.103332876622e-04 3.100086458632e-03 0.0 
3.100086458632e-03 1.191690139260e-02 0.0 
0.0 0.0 0.0 
1.450720040759e-03 -2.322727396478e-03 0.0 
-2.322727396478e-03 -1.952980864528e-03 0.0 
0.0 0.0 0.0 
-2.473363560106e-04 1.243193319901e-03 0.0 
1.243193319901e-03 1.538627357708e-02 0.0 
0.0 0.0 0.0 
-5.193579855655e-04 3.043606995853e-03 0.0 
3.043606995853e-03 -1.989939364733e-03 0.0 
0.0 0.0 0.0 
-1.203978893167e-03 4.342943518256e-05 0.0 
4.342943518256e-05 1.269019491393e-02 0.0 
0.0 0.0 0.0 
2.705092864419e-04 -1.400004950207e-04 0.0 
-1.400004950207e-04 4.301954755057e-04 0.0 
0.0 0.0 0.0 
7.098786233919e-05 8.413660785005e-05 0.0 
8.413660785005e-05 7.343712517447e-03 0.0 
0.0 0.0 0.0 
-4.645573201770e-04 8.943623245193e-04 0.0 
8.943623245193e-04 1.530789269795e-02 0.0 
0.0 0.0 0.0 
3.903658785420e-05 -2.316441987772e-04 0.0 
-2.316441987772e-04 3.488426228955e-03 0.0 
0.0 0.0 0.0 
-1.753727247192e-03 6.657436129737e-04 0.0 
6.657436129737e-04 1.273464302343e-02 0.0 
0.0 0.0 0.0 
1.059843899646e-05 -1.558480096404e-04 0.0 
-1.558480096404e-04 2.342133849264e-03 0.0 
0.0 0.0 0.0 
3.793670463509e-04 2.932881443628e-03 0.0 
2.932881443628e-03 9.191982777811e-03 0.0 
0.0 0.0 0.0 
-5.613039307496e-04 -9.523391845337e-04 0.0 
-9.523391845337e-04 8.621735506221e-04 0.0 
0.0 0.0 0.0 
-3.930029561685e-04 6.465971042265e-04 0.0 
6.465971042265e-04 1.539002794066e-02 0.0 
0.0 0.0 0.0 
5.608692593521e-04 1.052297536473e-03 0.0 
1.052297536473e-03 6.737403617467e-03 0.0 
0.0 0.0 0.0 
-5.870766606370e-04 1.986477276839e-03 0.0 
1.986477276839e-03 1.459614531242e-02 0.0 
0.0 0.0 0.0 
2.818745374823e-04 2.408831292552e-03 0.0 
2.408831292552e-03 8.270476376320e-03 0.0 
0.0 0.0 0.0 
1.684993666045e-04 9.543980856103e-04 0.0 
9.543980856103e-04 -4.294846533398e-03 0.0 
0.0 0.0 0.0 
3.814662635270e-04 2.891113583853e-03 0.0 
2.891113583853e-03 8.968423652329e-03 0.0 
0.0 0.0 0.0 
9.167535215781e-04 1.263555060018e-03 0.0 
1.263555060018e-03 6.232348264160e-03 0.0 
0.0 0.0 0.0 
-1.112658064523e-03 2.528579922896e-05 0.0 
2.528579922896e-05 1.270269136627e-02 0.0 
0.0 0.0 0.0 
-5.880612928327e-04 2.313962806880e-03 0.0 
2.313962806880e-03 1.409963683491e-02 0.0 
0.0 0.0 0.0 
-1.711674085803e-07 -2.497484897824e-04 0.0 
-2.497484897824e-04 2.858564136996e-03 0.0 
0.0 0.0 0.0 
9.650178739895e-05 -2.678996609810e-04 0.0 
-2.678996609810e-04 1.176286550657e-03 0.0 
0.0 0.0 0.0 
-1.452517974007e-04 7.388039307043e-05 0.0 
7.388039307043e-05 1.566464999561e-02 0.0 
0.0 0.0 0.0 
6.759991798686e-04 4.931363875419e-06 0.0 
4.931363875419e-06 -9.753098864056e-05 0.0 
0.0 0.0 0.0 
-1.073011800498e-03 -1.931969638213e-06 0.0 
-1.931969638213e-06 1.265969013312e-02 0.0 
0.0 0.0 0.0 
1.232104075628e-05 1.082102431099e-05 0.0 
1.082102431099e-05 7.492169181430e-03 0.0 
0.0 0.0 0.0 
2.066206697480e-04 -1.427245233028e-04 0.0 
-1.427245233028e-04 1.078267962630e-03 0.0 
0.0 0.0 0.0 
-1.031083244372e-03 2.518699485377e-05 0.0 
2.518699485377e-05 1.332883703138e-02 0.0 
0.0 0.0 0.0 
-2.900805854411e-04 3.026791055491e-03 0.0 
3.026791055491e-03 1.238282900318e-02 0.0 
0.0 0.0 0.0 
6.473174699954e-05 -5.061373106212e-05 0.0 
-5.061373106212e-05 4.301954299487e-03 0.0 
0.0 0.0 0.0 
-5.994762028811e-04 1.158875644311e-04 0.0 
1.158875644311e-04 1.493357290498e-02 0.0 
0.0 0.0 0.0 
-2.191225420343e-04 -2.339039547464e-03 0.0 
-2.339039547464e-03 -1.036610147073e-04 0.0 
0.0 0.0 0.0 
-1.629515949074e-03 -6.377756746445e-04 0.0 
-6.377756746445e-04 -3.932051920210e-03 0.0 
0.0 0.0 0.0 
-9.216723273131e-04 5.629384782845e-05 0.0 
5.629384782845e-05 1.400777424572e-02 0.0 
0.0 0.0 0.0 
5.352880109241e-04 2.593198603395e-03 0.0 
2.593198603395e-03 8.180789587052e-03 0.0 
0.0 0.0 0.0 
-5.531511207079e-04 1.621377686031e-03 0.0 
1.621377686031e-03 1.495664722264e-02 0.0 
0.0 0.0 0.0 
-1.022155875024e-03 1.149264364500e-04 0.0 
1.149264364500e-04 1.376436521138e-02 0.0 
0.0 0.0 0.0 
6.421835870297e-04 2.935072421154e-03 0.0 
2.935072421154e-03 -1.742077952333e-03 0.0 
0.0 0.0 0.0 
-3.342141182653e-04 2.972120762345e-03 0.0 
2.972120762345e-03 1.198501098490e-02 0.0 
0.0 0.0 0.0 
6.724586317305e-05 -2.278485045379e-04 0.0 
-2.278485045379e-04 3.745117018580e-03 0.0 
0.0 0.0 0.0 
8.707569015141e-05 3.047953697536e-03 0.0 
3.047953697536e-03 1.026103283968e-02 0.0 
0.0 0.0 0.0 
9.315594794041e-04 1.641383394888e-03 0.0 
1.641383394888e-03 6.513326895367e-03 0.0 
0.0 0.0 0.0 
-1.465706214945e-03 3.047332658785e-03 0.0 
3.047332658785e-03 -1.475321533379e-03 0.0 
0.0 0.0 0.0 
8.039211305988e-05 -3.546335437404e-05 0.0 
-3.546335437404e-05 4.627035589826e-03 0.0 
0.0 0.0 0.0 
2.177012193566e-04 -1.604723802387e-04 0.0 
-1.604723802387e-04 4.109827858762e-04 0.0 
0.0 0.0 0.0 
2.254577848779e-04 2.167377210927e-04 0.0 
2.167377210927e-04 6.881457515518e-03 0.0 
0.0 0.0 0.0 
6.014964688088e-05 -1.539722420560e-04 0.0 
-1.539722420560e-04 3.925446785797e-03 0.0 
0.0 0.0 0.0 
-1.617277079901e-03 4.603878014720e-04 0.0 
4.603878014720e-04 1.187712684153e-02 0.0 
0.0 0.0 0.0 
-1.120527920097e-03 5.512959321517e-06 0.0 
5.512959321517e-06 1.174818052558e-02 0.0 
0.0 0.0 0.0 
-1.613986498377e-03 4.621862820698e-04 0.0 
4.621862820698e-04 1.218135761316e-02 0.0 
0.0 0.0 0.0 
-1.091588421242e-03 2.311558962684e-06 0.0 
2.311558962684e-06 1.213822289578e-02 0.0 
0.0 0.0 0.0 

TENSORS node_materi_strain_plasti float
5.167194390135e-04 2.792726192703e-05 0.0 
2.792726192703e-05 -5.091425601016e-05 0.0 
0.0 0.0 -1.110302485635e-04 
-8.159302679306e-04 -1.118602645032e-04 0.0 
-1.118602645032e-04 4.584923598267e-03 0.0 
0.0 0.0 -6.959116756397e-04 
-1.346400199288e-03 7.365993999463e-05 0.0 
7.365993999463e-05 8.674335535019e-03 0.0 
0.0 0.0 -1.332621093165e-03 
-1.336402199564e-03 -8.793125074240e-05 0.0 
-8.793125074240e-05 8.913629531779e-03 0.0 
0.0 0.0 -1.332621093165e-03 
1.928535311059e-04 4.445651110295e-05 0.0 
4.445651110295e-05 2.423589004168e-04 0.0 
0.0 0.0 -1.369191294062e-04 
-9.495668909469e-05 1.176622379905e-04 0.0 
1.176622379905e-04 8.146285890130e-04 0.0 
0.0 0.0 -1.619080202416e-04 
-2.343145573296e-04 8.942200005953e-05 0.0 
8.942200005953e-05 1.222252270070e-03 0.0 
0.0 0.0 -2.266090766362e-04 
-3.672954214302e-04 7.638439199011e-05 0.0 
7.638439199011e-05 1.767422352355e-03 0.0 
0.0 0.0 -2.937643997455e-04 
-5.002542736311e-04 4.683642936848e-05 0.0 
4.683642936848e-05 2.251732040701e-03 0.0 
0.0 0.0 -3.610469555860e-04 
-5.984940266315e-04 4.060795555227e-05 0.0 
4.060795555227e-05 2.708456263927e-03 0.0 
0.0 0.0 -4.277228197774e-04 
-6.941224007828e-04 4.519221696703e-05 0.0 
4.519221696703e-05 3.166683324582e-03 0.0 
0.0 0.0 -4.940119848999e-04 
-7.849981096782e-04 3.520077417946e-05 0.0 
3.520077417946e-05 3.622095280725e-03 0.0 
0.0 0.0 -5.601824523721e-04 
-8.634318271181e-04 3.405437137357e-05 0.0 
3.405437137357e-05 4.067071864957e-03 0.0 
0.0 0.0 -6.267196139102e-04 
-9.449136089268e-04 5.218773157199e-05 0.0 
5.218773157199e-05 4.520788341368e-03 0.0 
0.0 0.0 -6.936951881209e-04 
-1.027632022584e-03 9.700470508409e-05 0.0 
9.700470508409e-05 5.010143413423e-03 0.0 
0.0 0.0 -7.607197531558e-04 
-1.071044468659e-03 1.108294767969e-04 0.0 
1.108294767969e-04 5.450697122990e-03 0.0 
0.0 0.0 -8.270758575053e-04 
-1.105211944346e-03 1.479813750871e-04 0.0 
1.479813750871e-04 5.811869455564e-03 0.0 
0.0 0.0 -8.903361771248e-04 
-1.161317049125e-03 4.285670301682e-05 0.0 
4.285670301682e-05 6.275431738875e-03 0.0 
0.0 0.0 -9.558084330571e-04 
-1.207984253662e-03 4.172859767407e-05 0.0 
4.172859767407e-05 6.727772586467e-03 0.0 
0.0 0.0 -1.024523475697e-03 
-1.248615658251e-03 4.538254462405e-05 0.0 
4.538254462405e-05 7.165565903975e-03 0.0 
0.0 0.0 -1.091244731156e-03 
-1.288520992697e-03 4.179778286610e-05 0.0 
4.179778286610e-05 7.610376257827e-03 0.0 
0.0 0.0 -1.158330123333e-03 
-1.323945144233e-03 5.638174444750e-05 0.0 
5.638174444750e-05 8.056170868355e-03 0.0 
0.0 0.0 -1.226073836101e-03 
-1.340882067222e-03 7.816548302147e-05 0.0 
7.816548302147e-05 8.489692749980e-03 0.0 
0.0 0.0 -1.289832767750e-03 
-1.333912568024e-03 1.756046241659e-05 0.0 
1.756046241659e-05 8.926507635803e-03 0.0 
0.0 0.0 -1.336902025401e-03 
-1.341531841891e-03 4.063150434003e-05 0.0 
4.063150434003e-05 8.912362216672e-03 0.0 
0.0 0.0 -1.332945767435e-03 
-1.342187123766e-03 7.210449397353e-07 0.0 
7.210449397353e-07 8.901177082135e-03 0.0 
0.0 0.0 -1.334903170087e-03 
-1.344938961940e-03 1.164426212685e-04 0.0 
1.164426212685e-04 8.903433830404e-03 0.0 
0.0 0.0 -1.334459899807e-03 
-1.344212628933e-03 9.914567390186e-05 0.0 
9.914567390186e-05 8.888325984844e-03 0.0 
0.0 0.0 -1.332067731643e-03 
-1.341871993109e-03 1.326692721992e-04 0.0 
1.326692721992e-04 8.883986467254e-03 0.0 
0.0 0.0 -1.335050935171e-03 
-1.332922157688e-03 1.596974021170e-04 0.0 
1.596974021170e-04 8.887152863323e-03 0.0 
0.0 0.0 -1.335055123498e-03 
-1.344556942280e-03 1.739185913509e-04 0.0 
1.739185913509e-04 8.882073809328e-03 0.0 
0.0 0.0 -1.333530254363e-03 
-1.342253888820e-03 1.667068933720e-04 0.0 
1.667068933720e-04 8.882815983630e-03 0.0 
0.0 0.0 -1.336259905589e-03 
-1.344452318304e-03 2.643241252995e-04 0.0 
2.643241252995e-04 8.877541720491e-03 0.0 
0.0 0.0 -1.335712483792e-03 
-1.344739962132e-03 2.572691983564e-04 0.0 
2.572691983564e-04 8.855364652133e-03 0.0 
0.0 0.0 -1.333313947604e-03 
-1.345949101879e-03 2.896022605016e-04 0.0 
2.896022605016e-04 8.845196808155e-03 0.0 
0.0 0.0 -1.335862559377e-03 
-1.335909137164e-03 3.249556087329e-04 0.0 
3.249556087329e-04 8.847942912603e-03 0.0 
0.0 0.0 -1.336097458551e-03 
-1.346297016590e-03 3.518589132456e-04 0.0 
3.518589132456e-04 8.821759431275e-03 0.0 
0.0 0.0 -1.335235043394e-03 
-1.338076461259e-03 3.735365560477e-04 0.0 
3.735365560477e-04 8.793020733369e-03 0.0 
0.0 0.0 -1.334297546486e-03 
-1.346016481544e-03 4.214840137430e-04 0.0 
4.214840137430e-04 8.754866417549e-03 0.0 
0.0 0.0 -1.332308435384e-03 
-1.347150914510e-03 4.365635291823e-04 0.0 
4.365635291823e-04 8.724212055446e-03 0.0 
0.0 0.0 -1.332019584455e-03 
-1.334805935481e-03 4.680081517091e-04 0.0 
4.680081517091e-04 8.718730927757e-03 0.0 
0.0 0.0 -1.333392124151e-03 
-1.340647727227e-03 4.849743108024e-04 0.0 
4.849743108024e-04 8.700750373122e-03 0.0 
0.0 0.0 -1.334727449481e-03 
-1.341060759155e-03 5.031254601797e-04 0.0 
5.031254601797e-04 8.669240053120e-03 0.0 
0.0 0.0 -1.336576889699e-03 
-1.339241076831e-03 5.376075265351e-04 0.0 
5.376075265351e-04 8.637791543921e-03 0.0 
0.0 0.0 -1.335888391555e-03 
-1.332755026613e-03 5.259793014087e-04 0.0 
5.259793014087e-04 8.604247702023e-03 0.0 
0.0 0.0 -1.334783226448e-03 
-1.333664649469e-03 5.288889005307e-04 0.0 
5.288889005307e-04 8.561550836847e-03 0.0 
0.0 0.0 -1.335053869153e-03 
-1.331458992258e-03 5.134063938371e-04 0.0 
5.134063938371e-04 8.519772984337e-03 0.0 
0.0 0.0 -1.334960189349e-03 
-1.329775199773e-03 4.941096024064e-04 0.0 
4.941096024064e-04 8.496416219376e-03 0.0 
0.0 0.0 -1.334889991128e-03 
-1.320977987653e-03 4.615461390730e-04 0.0 
4.615461390730e-04 8.462524191980e-03 0.0 
0.0 0.0 -1.335774086633e-03 
-1.330023044346e-03 4.207866190154e-04 0.0 
4.207866190154e-04 8.427010713301e-03 0.0 
0.0 0.0 -1.336605656894e-03 
-1.315269658186e-03 3.720833040210e-04 0.0 
3.720833040210e-04 8.401189310414e-03 0.0 
0.0 0.0 -1.336508443943e-03 
-1.322412415585e-03 3.115810119469e-04 0.0 
3.115810119469e-04 8.379908734224e-03 0.0 
0.0 0.0 -1.335343284290e-03 
-1.320222320207e-03 2.175575066663e-04 0.0 
2.175575066663e-04 8.369874127435e-03 0.0 
0.0 0.0 -1.337998490269e-03 
-1.323625080933e-03 2.169102620600e-04 0.0 
2.169102620600e-04 8.349200848827e-03 0.0 
0.0 0.0 -1.337247094005e-03 
-1.312935671626e-03 1.217875082846e-04 0.0 
1.217875082846e-04 8.314561017664e-03 0.0 
0.0 0.0 -1.333783489999e-03 
-1.312397425891e-03 3.014725865093e-05 0.0 
3.014725865093e-05 8.298029012834e-03 0.0 
0.0 0.0 -1.334548731617e-03 
-1.314310776006e-03 -5.112989789945e-05 0.0 
-5.112989789945e-05 8.327635469408e-03 0.0 
0.0 0.0 -1.334619746794e-03 
-1.313246555764e-03 -1.133769864441e-04 0.0 
-1.133769864441e-04 8.338916253329e-03 0.0 
0.0 0.0 -1.335242115105e-03 
-1.326565106495e-03 -1.841934828275e-04 0.0 
-1.841934828275e-04 8.356624519228e-03 0.0 
0.0 0.0 -1.335691437541e-03 
-1.316402114403e-03 -2.262767311367e-04 0.0 
-2.262767311367e-04 8.389795272091e-03 0.0 
0.0 0.0 -1.335646478247e-03 
-1.330105212687e-03 -2.663920673302e-04 0.0 
-2.663920673302e-04 8.407666559300e-03 0.0 
0.0 0.0 -1.334931242407e-03 
-1.321109516020e-03 -3.015612028738e-04 0.0 
-3.015612028738e-04 8.428571737695e-03 0.0 
0.0 0.0 -1.334100791702e-03 
-1.335356464641e-03 -3.106038152236e-04 0.0 
-3.106038152236e-04 8.460193799364e-03 0.0 
0.0 0.0 -1.332237298415e-03 
-1.339781698762e-03 -3.337514916052e-04 0.0 
-3.337514916052e-04 8.495913159923e-03 0.0 
0.0 0.0 -1.333749945600e-03 
-1.335675790289e-03 -3.025403687924e-04 0.0 
-3.025403687924e-04 8.551515458499e-03 0.0 
0.0 0.0 -1.336652505695e-03 
-1.332391445612e-03 -3.083574403233e-04 0.0 
-3.083574403233e-04 8.592419009515e-03 0.0 
0.0 0.0 -1.337094627689e-03 
-1.345644529791e-03 -2.793636126787e-04 0.0 
-2.793636126787e-04 8.558237333725e-03 0.0 
0.0 0.0 -1.328990728106e-03 
-1.337312800610e-03 -2.305068913709e-04 0.0 
-2.305068913709e-04 8.630917037025e-03 0.0 
0.0 0.0 -1.335900064369e-03 
-1.350772327614e-03 -1.956698568975e-04 0.0 
-1.956698568975e-04 8.640358950647e-03 0.0 
0.0 0.0 -1.332523500780e-03 
-1.350423109387e-03 -1.955618747409e-04 0.0 
-1.955618747409e-04 8.650889793805e-03 0.0 
0.0 0.0 -1.335219049675e-03 
-1.349098610006e-03 -8.965167155351e-05 0.0 
-8.965167155351e-05 8.690821291703e-03 0.0 
0.0 0.0 -1.336566422126e-03 
-1.352485386629e-03 -6.128652914560e-05 0.0 
-6.128652914560e-05 8.701715469751e-03 0.0 
0.0 0.0 -1.335855682064e-03 
-8.621699259071e-04 -7.748599951090e-05 0.0 
-7.748599951090e-05 5.021330477437e-03 0.0 
0.0 0.0 -7.648954205800e-04 
-9.395078499560e-04 -8.704020005170e-05 0.0 
-8.704020005170e-05 5.517844915676e-03 0.0 
0.0 0.0 -8.298981322982e-04 
-9.977708429922e-04 -8.397016683561e-05 0.0 
-8.397016683561e-05 5.976838802593e-03 0.0 
0.0 0.0 -8.959277352460e-04 
-1.055682188809e-03 -8.887694878813e-05 0.0 
-8.887694878813e-05 6.419904102828e-03 0.0 
0.0 0.0 -9.610467530554e-04 
-1.113418161777e-03 -7.710435791321e-05 0.0 
-7.710435791321e-05 6.878985961880e-03 0.0 
0.0 0.0 -1.026987810050e-03 
-1.153337564853e-03 -8.395183782127e-05 0.0 
-8.395183782127e-05 7.337021217867e-03 0.0 
0.0 0.0 -1.092790196867e-03 
-1.209003093049e-03 -7.363209801243e-05 0.0 
-7.363209801243e-05 7.788251864833e-03 0.0 
0.0 0.0 -1.158290425478e-03 
-1.258139886954e-03 -8.431152228072e-05 0.0 
-8.431152228072e-05 8.217133852926e-03 0.0 
0.0 0.0 -1.224481705251e-03 
-1.303096836171e-03 -9.331509578295e-05 0.0 
-9.331509578295e-05 8.703843568816e-03 0.0 
0.0 0.0 -1.288782062784e-03 
0.0 0.0 0.0 
0.0 0.0 0.0 
0.0 0.0 0.0 
-8.469977810266e-04 1.418859108081e-04 0.0 
1.418859108081e-04 4.555195363259e-03 0.0 
0.0 0.0 -6.945495707198e-04 
1.853815197246e-05 4.024911659637e-04 0.0 
4.024911659637e-04 2.284141119962e-04 0.0 
0.0 0.0 -1.058366845580e-04 
-1.350079007602e-04 7.410901895652e-04 0.0 
7.410901895652e-04 7.622548468714e-04 0.0 
0.0 0.0 -2.667570615628e-04 
-3.852517699685e-04 8.237517617570e-04 0.0 
8.237517617570e-04 1.325012057104e-03 0.0 
0.0 0.0 -2.964167626729e-04 
-5.553115605805e-04 6.948245581935e-04 0.0 
6.948245581935e-04 1.798691708354e-03 0.0 
0.0 0.0 -3.108790080757e-04 
-5.881380717754e-04 5.581827846643e-04 0.0 
5.581827846643e-04 2.268059848630e-03 0.0 
0.0 0.0 -3.778135794433e-04 
-6.253800659574e-04 4.208240066448e-04 0.0 
4.208240066448e-04 2.745027489201e-03 0.0 
0.0 0.0 -4.454545662751e-04 
-6.818527519112e-04 3.447628562435e-04 0.0 
3.447628562435e-04 3.224158216588e-03 0.0 
0.0 0.0 -5.121313000160e-04 
-7.253180741343e-04 2.577173400982e-04 0.0 
2.577173400982e-04 3.696591062479e-03 0.0 
0.0 0.0 -5.770230474411e-04 
-7.652026803153e-04 1.716333934731e-04 0.0 
1.716333934731e-04 4.039411117358e-03 0.0 
0.0 0.0 -6.248674136757e-04 
-6.447713580581e-04 -1.964744773434e-04 0.0 
-1.964744773434e-04 3.837624090659e-03 0.0 
0.0 0.0 -5.822222222222e-04 
-7.172820797178e-04 -1.419199921507e-04 0.0 
-1.419199921507e-04 4.094821602212e-03 0.0 
0.0 0.0 -6.266666666667e-04 
-7.873736608755e-04 5.502842443645e-05 0.0 
5.502842443645e-05 4.508278690252e-03 0.0 
0.0 0.0 -6.874962403976e-04 
-7.839311141629e-04 4.828509311105e-06 0.0 
4.828509311105e-06 4.540282316640e-03 0.0 
0.0 0.0 -6.910932206029e-04 
-7.921436345257e-04 5.707785244044e-06 0.0 
5.707785244044e-06 4.544942356556e-03 0.0 
0.0 0.0 -6.911911970487e-04 
-7.917187874242e-04 -4.341315515235e-06 0.0 
-4.341315515235e-06 4.539101219755e-03 0.0 
0.0 0.0 -6.903356507966e-04 
-7.944928086677e-04 1.125171909579e-05 0.0 
1.125171909579e-05 4.615388457654e-03 0.0 
0.0 0.0 -6.980756478071e-04 
-7.958365436316e-04 1.383445406237e-05 0.0 
1.383445406237e-05 4.547714033445e-03 0.0 
0.0 0.0 -6.911448554634e-04 
-7.903078046097e-04 6.769783050965e-06 0.0 
6.769783050965e-06 4.539714906749e-03 0.0 
0.0 0.0 -6.903833977050e-04 
-7.973486280958e-04 3.073462339535e-05 0.0 
3.073462339535e-05 4.549605953727e-03 0.0 
0.0 0.0 -6.905588330458e-04 
-8.138323735647e-04 2.995103124151e-05 0.0 
2.995103124151e-05 4.557442627231e-03 0.0 
0.0 0.0 -6.922444453805e-04 
-8.207112189752e-04 5.065642805556e-05 0.0 
5.065642805556e-05 4.556711038870e-03 0.0 
0.0 0.0 -6.916098530255e-04 
-8.174854078797e-04 5.882201982790e-05 0.0 
5.882201982790e-05 4.549634587438e-03 0.0 
0.0 0.0 -6.911665914957e-04 
-8.257607627906e-04 7.207096375596e-05 0.0 
7.207096375596e-05 4.539061374169e-03 0.0 
0.0 0.0 -6.911615840689e-04 
-8.256917502379e-04 1.052177725209e-04 0.0 
1.052177725209e-04 4.528909050130e-03 0.0 
0.0 0.0 -6.914992001314e-04 
-8.331385651634e-04 1.367043632585e-04 0.0 
1.367043632585e-04 4.532178590594e-03 0.0 
0.0 0.0 -6.922481495424e-04 
0.0 0.0 0.0 
0.0 0.0 0.0 
0.0 0.0 0.0 
0.0 0.0 0.0 
0.0 0.0 0.0 
0.0 0.0 0.0 
0.0 0.0 0.0 
0.0 0.0 0.0 
0.0 0.0 0.0 
0.0 0.0 0.0 
0.0 0.0 0.0 
0.0 0.0 0.0 
4.834769447441e-06 -2.872264321309e-05 0.0 
-2.872264321309e-05 1.098176460521e-05 0.0 
0.0 0.0 -6.778514593994e-06 
2.621325204595e-05 -1.413766582246e-04 0.0 
-1.413766582246e-04 5.747299694100e-05 0.0 
0.0 0.0 -3.574982278410e-05 
9.658306216209e-05 -1.514259984182e-04 0.0 
-1.514259984182e-04 8.442241842910e-05 0.0 
0.0 0.0 -4.425618980996e-05 
3.269147103475e-04 -5.021185392625e-05 0.0 
-5.021185392625e-05 3.514559889707e-05 0.0 
0.0 0.0 -8.078147856958e-05 
4.744476216527e-04 -2.955001894905e-05 0.0 
-2.955001894905e-05 6.422490925947e-06 0.0 
0.0 0.0 -1.179719326098e-04 
4.179559190719e-04 -4.545879091992e-05 0.0 
-4.545879091992e-05 1.677504639263e-05 0.0 
0.0 0.0 -8.559165356152e-05 
4.071360169644e-04 -5.676430788113e-05 0.0 
-5.676430788113e-05 2.001137970326e-05 0.0 
0.0 0.0 -6.874308561246e-05 
4.446412730432e-04 -3.115479505997e-05 0.0 
-3.115479505997e-05 1.541228328890e-05 0.0 
0.0 0.0 -8.846752904866e-05 
4.870475968622e-04 1.166873053583e-05 0.0 
1.166873053583e-05 -1.464623307350e-05 0.0 
0.0 0.0 -9.035052009108e-05 
5.260775556971e-04 2.845864580513e-06 0.0 
2.845864580513e-06 -4.734498310635e-05 0.0 
0.0 0.0 -8.407298760335e-05 
4.865685389177e-04 2.210043518699e-06 0.0 
2.210043518699e-06 -3.334183635663e-05 0.0 
0.0 0.0 -8.504329730078e-05 
4.576294102847e-04 1.370682311972e-05 0.0 
1.370682311972e-05 -9.748142346333e-06 0.0 
0.0 0.0 -9.010048746351e-05 
4.426858646735e-04 1.222387518921e-05 0.0 
1.222387518921e-05 -8.681697480966e-07 0.0 
0.0 0.0 -9.063198443064e-05 
4.760028646460e-04 3.209591285302e-05 0.0 
3.209591285302e-05 -3.839800523634e-05 0.0 
0.0 0.0 -9.228961388215e-05 
5.262882822880e-04 4.201999020363e-05 0.0 
4.201999020363e-05 -6.741056769732e-05 0.0 
0.0 0.0 -9.169620005938e-05 
-6.978310591440e-04 6.958171335408e-05 0.0 
6.958171335408e-05 3.942110921218e-03 0.0 
0.0 0.0 -5.877777777778e-04 
-6.795677056530e-04 -3.592476668700e-06 0.0 
-3.592476668700e-06 3.922283961936e-03 0.0 
0.0 0.0 -5.896296296296e-04 
-6.797676587958e-04 -1.295971793612e-05 0.0 
-1.295971793612e-05 3.915787798218e-03 0.0 
0.0 0.0 -5.896296296296e-04 
-6.828157764713e-04 -1.458212740545e-05 0.0 
-1.458212740545e-05 3.917456771524e-03 0.0 
0.0 0.0 -5.896296296296e-04 
-6.827001554799e-04 -1.159187101305e-05 0.0 
-1.159187101305e-05 3.916509816548e-03 0.0 
0.0 0.0 -5.896296296296e-04 
-6.874127550026e-04 -9.054656699218e-06 0.0 
-9.054656699218e-06 3.918222493175e-03 0.0 
0.0 0.0 -5.896296296296e-04 
-6.908042321718e-04 -4.046569637573e-06 0.0 
-4.046569637573e-06 3.920276519709e-03 0.0 
0.0 0.0 -5.896296296296e-04 
-6.966540610836e-04 -7.862784541865e-06 0.0 
-7.862784541865e-06 3.919546142279e-03 0.0 
0.0 0.0 -5.896296296296e-04 
-6.988972538529e-04 2.341213096448e-06 0.0 
2.341213096448e-06 3.914065379283e-03 0.0 
0.0 0.0 -5.896296296296e-04 
-7.069676457031e-04 1.547809107489e-05 0.0 
1.547809107489e-05 3.916320329131e-03 0.0 
0.0 0.0 -5.896296296296e-04 
-7.140174710773e-04 2.219190340244e-05 0.0 
2.219190340244e-05 3.916053699579e-03 0.0 
0.0 0.0 -5.896296296296e-04 
-7.186775233889e-04 3.553764415378e-05 0.0 
3.553764415378e-05 3.911122393295e-03 0.0 
0.0 0.0 -5.896296296296e-04 
-7.263544448106e-04 5.443375829652e-05 0.0 
5.443375829652e-05 3.908067902641e-03 0.0 
0.0 0.0 -5.896296296296e-04 
-7.338214037917e-04 6.989284205893e-05 0.0 
6.989284205893e-05 3.891091870360e-03 0.0 
0.0 0.0 -5.896296296296e-04 
-7.272925074305e-04 1.403804905356e-04 0.0 
1.403804905356e-04 3.892740502946e-03 0.0 
0.0 0.0 -5.896296296296e-04 
-7.353545149973e-04 1.227041868691e-04 0.0 
1.227041868691e-04 3.874550379053e-03 0.0 
0.0 0.0 -5.868990929705e-04 
-6.790285409835e-04 1.665150170129e-04 0.0 
1.665150170129e-04 3.709509409522e-03 0.0 
0.0 0.0 -5.794730522163e-04 
-7.306639245541e-04 1.487904650220e-04 0.0 
1.487904650220e-04 3.987541024977e-03 0.0 
0.0 0.0 -6.186195084094e-04 
-7.777639873500e-04 1.047682677556e-04 0.0 
1.047682677556e-04 4.108452618951e-03 0.0 
0.0 0.0 -6.292929119699e-04 
-7.730086078056e-04 8.789895144587e-05 0.0 
8.789895144587e-05 4.091912019672e-03 0.0 
0.0 0.0 -6.266666666667e-04 
-7.618524580481e-04 6.512725790421e-05 0.0 
6.512725790421e-05 4.093546504346e-03 0.0 
0.0 0.0 -6.266666666667e-04 
-7.572869673676e-04 4.077816536235e-05 0.0 
4.077816536235e-05 4.100722229585e-03 0.0 
0.0 0.0 -6.266666666667e-04 
-7.522759778333e-04 3.231234712664e-05 0.0 
3.231234712664e-05 4.105753030330e-03 0.0 
0.0 0.0 -6.266666666667e-04 
-7.456061716167e-04 2.469919196216e-05 0.0 
2.469919196216e-05 4.102695942195e-03 0.0 
0.0 0.0 -6.266666666667e-04 
-7.404032118594e-04 6.233661207773e-06 0.0 
6.233661207773e-06 4.103985895951e-03 0.0 
0.0 0.0 -6.266666666667e-04 
-7.306819678944e-04 6.672744555549e-06 0.0 
6.672744555549e-06 4.108272711165e-03 0.0 
0.0 0.0 -6.266666666667e-04 
-7.293745733164e-04 -1.304990055444e-06 0.0 
-1.304990055444e-06 4.106419007565e-03 0.0 
0.0 0.0 -6.266666666667e-04 
-7.249341380716e-04 -1.277588629320e-06 0.0 
-1.277588629320e-06 4.105173170991e-03 0.0 
0.0 0.0 -6.266666666667e-04 
-7.218872567136e-04 -1.221940477039e-05 0.0 
-1.221940477039e-05 4.104125766063e-03 0.0 
0.0 0.0 -6.266666666667e-04 
-7.226283520212e-04 -7.586680396462e-06 0.0 
-7.586680396462e-06 4.106687618408e-03 0.0 
0.0 0.0 -6.266666666667e-04 
-7.194567743785e-04 -1.345793513568e-05 0.0 
-1.345793513568e-05 4.101402324494e-03 0.0 
0.0 0.0 -6.266666666667e-04 
-7.217276456755e-04 -3.632688016994e-05 0.0 
-3.632688016994e-05 4.111803083088e-03 0.0 
0.0 0.0 -6.266666666667e-04 
-7.310107230365e-04 1.113089146982e-04 0.0 
1.113089146982e-04 4.120905737550e-03 0.0 
0.0 0.0 -6.266666666667e-04 
-1.168972583815e-05 3.289486592247e-04 0.0 
3.289486592247e-04 5.128212323249e-05 0.0 
0.0 0.0 -1.696817031186e-05 
-4.487896732987e-05 6.031454295583e-04 0.0 
6.031454295583e-04 4.769141611533e-04 0.0 
0.0 0.0 -1.851579402100e-04 
-2.477886944410e-04 8.307338841621e-04 0.0 
8.307338841621e-04 1.056772820351e-03 0.0 
0.0 0.0 -3.137502536684e-04 
-5.164548883485e-04 7.997848336998e-04 0.0 
7.997848336998e-04 1.596714724844e-03 0.0 
0.0 0.0 -2.872952472806e-04 
-5.626935448601e-04 6.025030630991e-04 0.0 
6.025030630991e-04 2.056956549032e-03 0.0 
0.0 0.0 -3.440931072323e-04 
-5.892114679697e-04 4.852291775261e-04 0.0 
4.852291775261e-04 2.528395193714e-03 0.0 
0.0 0.0 -4.108392228286e-04 
-6.541158208693e-04 3.926707262510e-04 0.0 
3.926707262510e-04 2.991837282477e-03 0.0 
0.0 0.0 -4.786325096809e-04 
-7.088632208578e-04 3.304223531405e-04 0.0 
3.304223531405e-04 3.462879744444e-03 0.0 
0.0 0.0 -5.455426008747e-04 
-7.267665016451e-04 2.228752584087e-04 0.0 
2.228752584087e-04 3.838191030051e-03 0.0 
0.0 0.0 -6.014751643411e-04 
-7.842817421153e-04 1.883796168278e-04 0.0 
1.883796168278e-04 4.312421836845e-03 0.0 
0.0 0.0 -6.652967104836e-04 
-6.528049956140e-05 8.329192367362e-04 0.0 
8.329192367362e-04 6.721534156509e-04 0.0 
0.0 0.0 -2.600883926098e-04 
-1.238271811776e-03 -2.323410981101e-05 0.0 
-2.323410981101e-05 8.143368057859e-03 0.0 
0.0 0.0 -1.303388942653e-03 
5.998510431380e-05 -1.163529753908e-04 0.0 
-1.163529753908e-04 2.499013313257e-04 0.0 
0.0 0.0 -7.661148810519e-05 
1.270751205327e-05 -3.607914457566e-05 0.0 
-3.607914457566e-05 6.964316184803e-06 0.0 
0.0 0.0 -8.430783530604e-06 
-1.278901467981e-03 -2.582894247670e-04 0.0 
-2.582894247670e-04 8.264882866352e-03 0.0 
0.0 0.0 -1.303360877099e-03 
-5.655990039998e-04 8.080804633426e-04 0.0 
8.080804633426e-04 1.859508276799e-03 0.0 
0.0 0.0 -3.221766324775e-04 
-9.861956324832e-04 -6.715847648061e-05 0.0 
-6.715847648061e-05 4.773589466734e-03 0.0 
0.0 0.0 -7.300567563597e-04 
-1.244927303710e-03 2.945275852412e-04 0.0 
2.945275852412e-04 8.164800639293e-03 0.0 
0.0 0.0 -1.300998267065e-03 
-6.348034790759e-04 4.424120780115e-04 0.0 
4.424120780115e-04 2.761117670990e-03 0.0 
0.0 0.0 -4.497936382440e-04 
-1.277128875373e-03 4.777706098865e-04 0.0 
4.777706098865e-04 8.316029240451e-03 0.0 
0.0 0.0 -1.304014651794e-03 
-7.514819667783e-04 2.897671537100e-04 0.0 
2.897671537100e-04 3.742162088854e-03 0.0 
0.0 0.0 -5.857980290939e-04 
-1.307584739855e-03 -2.907864623538e-04 0.0 
-2.907864623538e-04 8.435582561033e-03 0.0 
0.0 0.0 -1.307658508868e-03 
2.194594038095e-04 -2.670865977714e-05 0.0 
-2.670865977714e-05 1.694259524564e-04 0.0 
0.0 0.0 -9.345456780789e-05 
-1.309138496400e-03 5.212450025025e-04 0.0 
5.212450025025e-04 8.474949316046e-03 0.0 
0.0 0.0 -1.304481600125e-03 
-8.746417822978e-04 2.068395432367e-04 0.0 
2.068395432367e-04 4.729142408164e-03 0.0 
0.0 0.0 -7.203075318094e-04 
-6.505648739721e-04 -3.624268182337e-05 0.0 
-3.624268182337e-05 2.957311441966e-03 0.0 
0.0 0.0 -4.640473930190e-04 
-1.131372666701e-03 -4.491765098181e-05 0.0 
-4.491765098181e-05 5.976165985442e-03 0.0 
0.0 0.0 -9.125512086551e-04 
-1.314763544022e-03 4.589275118802e-04 0.0 
4.589275118802e-04 8.560285468091e-03 0.0 
0.0 0.0 -1.301280071178e-03 
-1.328200349095e-03 3.774182231254e-04 0.0 
3.774182231254e-04 8.674652987533e-03 0.0 
0.0 0.0 -1.304294760550e-03 
-1.328231009146e-03 1.002317222840e-04 0.0 
1.002317222840e-04 8.762903021805e-03 0.0 
0.0 0.0 -1.303238611779e-03 
-1.321361255880e-03 2.020746578681e-04 0.0 
2.020746578681e-04 8.706453928135e-03 0.0 
0.0 0.0 -1.297727402575e-03 
-1.333675382953e-03 2.525190978684e-04 0.0 
2.525190978684e-04 8.729905622316e-03 0.0 
0.0 0.0 -1.305306183856e-03 
-8.907724214169e-04 1.372579395388e-04 0.0 
1.372579395388e-04 4.950739460616e-03 0.0 
0.0 0.0 -7.522011426764e-04 
-8.750579348879e-04 6.356350708577e-05 0.0 
6.356350708577e-05 4.972444393085e-03 0.0 
0.0 0.0 -7.529849494387e-04 
-8.651922808025e-04 1.321213173771e-05 0.0 
1.321213173771e-05 5.002490543075e-03 0.0 
0.0 0.0 -7.580270452736e-04 
-1.081282276580e-03 -2.537529428612e-05 0.0 
-2.537529428612e-05 6.643650052824e-03 0.0 
0.0 0.0 -9.950081682429e-04 
-1.332561184719e-03 -2.295807888403e-04 0.0 
-2.295807888403e-04 8.502002206283e-03 0.0 
0.0 0.0 -1.302874185639e-03 
0.0 0.0 0.0 
0.0 0.0 0.0 
0.0 0.0 0.0 
2.233748649996e-04 5.268922663070e-06 0.0 
5.268922663070e-06 2.031789523429e-04 0.0 
0.0 0.0 -1.071793558177e-04 
-1.266615157062e-03 -4.708891648946e-05 0.0 
-4.708891648946e-05 7.362986267811e-03 0.0 
0.0 0.0 -1.122886395833e-03 
-8.590690058330e-04 2.817818056919e-05 0.0 
2.817818056919e-05 4.956725197885e-03 0.0 
0.0 0.0 -7.500338828344e-04 
-3.077541790528e-04 -1.952701143312e-05 0.0 
-1.952701143312e-05 1.504768126338e-03 0.0 
0.0 0.0 -2.594501920933e-04 
-1.324226706230e-03 4.167698339106e-04 0.0 
4.167698339106e-04 8.547363588762e-03 0.0 
0.0 0.0 -1.293200138473e-03 
-1.268789998251e-03 4.116378875631e-04 0.0 
4.116378875631e-04 8.267843264786e-03 0.0 
0.0 0.0 -1.307307853467e-03 
-1.298127013523e-03 5.178122413189e-04 0.0 
5.178122413189e-04 8.390890810400e-03 0.0 
0.0 0.0 -1.304733450272e-03 
-1.233362636415e-03 1.634458979136e-04 0.0 
1.634458979136e-04 8.121763907804e-03 0.0 
0.0 0.0 -1.297928233296e-03 
-1.261877986510e-03 -1.597052773119e-04 0.0 
-1.597052773119e-04 8.188934025231e-03 0.0 
0.0 0.0 -1.305578568836e-03 
2.734204477331e-05 -3.169143204034e-04 0.0 
-3.169143204034e-04 1.647533136443e-04 0.0 
0.0 0.0 -8.226872593096e-05 
-8.795053511419e-04 9.559274535899e-05 0.0 
9.559274535899e-05 4.954160552764e-03 0.0 
0.0 0.0 -7.500980793755e-04 
-1.291571793349e-03 -3.018456542619e-04 0.0 
-3.018456542619e-04 8.267318175430e-03 0.0 
0.0 0.0 -1.293180865222e-03 
-1.191688283040e-03 -1.679553581366e-05 0.0 
-1.679553581366e-05 7.562043590583e-03 0.0 
0.0 0.0 -1.123598490052e-03 
1.170418686809e-04 -5.562668358397e-05 0.0 
-5.562668358397e-05 2.275676700802e-04 0.0 
0.0 0.0 -7.719741026454e-05 
-8.274582342161e-04 -6.171908782243e-05 0.0 
-6.171908782243e-05 3.848512271059e-03 0.0 
0.0 0.0 -5.937437734062e-04 
-1.335764842081e-03 6.371320431880e-05 0.0 
6.371320431880e-05 8.844549453637e-03 0.0 
0.0 0.0 -1.311981303940e-03 
-6.029700723185e-04 6.122078773443e-04 0.0 
6.122078773443e-04 2.350776615634e-03 0.0 
0.0 0.0 -3.897472533596e-04 
-3.421036135192e-04 9.389470505226e-04 0.0 
9.389470505226e-04 1.298921873387e-03 0.0 
0.0 0.0 -3.268992177355e-04 
-6.932234286341e-04 3.612940895343e-04 0.0 
3.612940895343e-04 3.253564498504e-03 0.0 
0.0 0.0 -5.178568985205e-04 
-8.102727904185e-04 2.233971647189e-04 0.0 
2.233971647189e-04 4.222711404521e-03 0.0 
0.0 0.0 -6.527703211191e-04 
4.313545407662e-05 4.324857872690e-04 0.0 
4.324857872690e-04 1.299055204349e-04 0.0 
0.0 0.0 -7.416041764780e-05 
-9.647575502476e-04 -2.771769126341e-06 0.0 
-2.771769126341e-06 5.776762544034e-03 0.0 
0.0 0.0 -8.684787984471e-04 
-1.350888138525e-03 -1.433490915200e-04 0.0 
-1.433490915200e-04 8.608994521473e-03 0.0 
0.0 0.0 -1.313906642692e-03 
2.667111799043e-04 3.447939989680e-05 0.0 
3.447939989680e-05 1.609209487001e-04 0.0 
0.0 0.0 -1.130249065526e-04 
-1.275593957644e-03 1.853867106532e-05 0.0 
1.853867106532e-05 8.418825182379e-03 0.0 
0.0 0.0 -1.253930875827e-03 
-8.953448143456e-04 1.901723990594e-04 0.0 
1.901723990594e-04 4.929510438704e-03 0.0 
0.0 0.0 -7.532271817479e-04 
-9.242130448013e-04 2.218369834796e-04 0.0 
2.218369834796e-04 5.094044769017e-03 0.0 
0.0 0.0 -7.809350190597e-04 
-9.469027331401e-04 2.184886764960e-04 0.0 
2.184886764960e-04 5.336848493436e-03 0.0 
0.0 0.0 -8.115578932774e-04 
-9.847582339447e-04 2.348277518639e-04 0.0 
2.348277518639e-04 5.535490339246e-03 0.0 
0.0 0.0 -8.428390908522e-04 
-1.013224796440e-03 2.269955445031e-04 0.0 
2.269955445031e-04 5.773109205172e-03 0.0 
0.0 0.0 -8.784658474099e-04 
-1.038385862696e-03 2.590411142921e-04 0.0 
2.590411142921e-04 5.954479327597e-03 0.0 
0.0 0.0 -9.060409163497e-04 
-1.004174411440e-03 2.781484189758e-04 0.0 
2.781484189758e-04 5.703926568537e-03 0.0 
0.0 0.0 -8.711257577415e-04 
-1.054585459025e-03 2.973439443916e-04 0.0 
2.973439443916e-04 6.126110480118e-03 0.0 
0.0 0.0 -9.341442283280e-04 
-1.020905393351e-03 3.220952727550e-04 0.0 
3.220952727550e-04 5.866625374892e-03 0.0 
0.0 0.0 -8.989774131092e-04 
-1.060675836449e-03 2.424242741137e-04 0.0 
2.424242741137e-04 6.211611638975e-03 0.0 
0.0 0.0 -9.415083590319e-04 
-1.069903741450e-03 3.342745829502e-04 0.0 
3.342745829502e-04 6.289952349254e-03 0.0 
0.0 0.0 -9.622976032585e-04 
-1.033366094007e-03 3.621226093725e-04 0.0 
3.621226093725e-04 6.024211968433e-03 0.0 
0.0 0.0 -9.268639294333e-04 
-1.081748877589e-03 3.725821950627e-04 0.0 
3.725821950627e-04 6.448138080981e-03 0.0 
0.0 0.0 -9.903372159162e-04 
-1.042953915019e-03 3.991340856965e-04 0.0 
3.991340856965e-04 6.178329635147e-03 0.0 
0.0 0.0 -9.547708836903e-04 
-9.946320659626e-04 3.943126043460e-04 0.0 
3.943126043460e-04 5.758814307551e-03 0.0 
0.0 0.0 -8.916807130883e-04 
-1.001107217771e-03 4.332773723891e-04 0.0 
4.332773723891e-04 5.906894361937e-03 0.0 
0.0 0.0 -9.194532194038e-04 
-9.524385169357e-04 4.327952618966e-04 0.0 
4.327952618966e-04 5.490022466699e-03 0.0 
0.0 0.0 -8.565021464485e-04 
-9.551941416785e-04 4.714703413802e-04 0.0 
4.714703413802e-04 5.632535536945e-03 0.0 
0.0 0.0 -8.841639842141e-04 
-1.003948910985e-03 4.659340529388e-04 0.0 
4.659340529388e-04 6.052492370979e-03 0.0 
0.0 0.0 -9.471984275390e-04 
-9.534464918986e-04 5.005026845975e-04 0.0 
5.005026845975e-04 5.770878701320e-03 0.0 
0.0 0.0 -9.118195294070e-04 
-9.061256584098e-04 5.150134062317e-04 0.0 
5.150134062317e-04 5.352614190247e-03 0.0 
0.0 0.0 -8.488396520500e-04 
-8.989049191365e-04 5.434397803423e-04 0.0 
5.434397803423e-04 5.483228311018e-03 0.0 
0.0 0.0 -8.764089341820e-04 
-8.533039374695e-04 5.667693254414e-04 0.0 
5.667693254414e-04 5.068208533921e-03 0.0 
0.0 0.0 -8.135623229517e-04 
-8.400733524865e-04 5.914836390070e-04 0.0 
5.914836390070e-04 5.191255654721e-03 0.0 
0.0 0.0 -8.410744910442e-04 
-7.968543408339e-04 6.237249391908e-04 0.0 
6.237249391908e-04 4.777124479860e-03 0.0 
0.0 0.0 -7.781617608290e-04 
-7.768533972697e-04 6.436004668132e-04 0.0 
6.436004668132e-04 4.892920097115e-03 0.0 
0.0 0.0 -8.056965831182e-04 
-8.240566969273e-04 5.997503228454e-04 0.0 
5.997503228454e-04 5.313376653990e-03 0.0 
0.0 0.0 -8.686949506212e-04 
-7.549029941076e-04 6.445435251704e-04 0.0 
6.445435251704e-04 5.007797875212e-03 0.0 
0.0 0.0 -8.332427817419e-04 
-7.080731455591e-04 7.008821416478e-04 0.0 
7.008821416478e-04 4.586577191639e-03 0.0 
0.0 0.0 -7.703313069557e-04 
-6.796342790660e-04 6.889970591832e-04 0.0 
6.889970591832e-04 4.694361205396e-03 0.0 
0.0 0.0 -7.977945042040e-04 
-6.329025767040e-04 7.594983388287e-04 0.0 
7.594983388287e-04 4.271526927018e-03 0.0 
0.0 0.0 -7.349073124327e-04 
-5.970419350956e-04 7.303350951608e-04 0.0 
7.303350951608e-04 4.369967111415e-03 0.0 
0.0 0.0 -7.622392297106e-04 
-6.532929672579e-04 6.522887049741e-04 0.0 
6.522887049741e-04 4.806542372592e-03 0.0 
0.0 0.0 -8.253152238873e-04 
-5.665194748989e-04 6.694860838181e-04 0.0 
6.694860838181e-04 4.478701756150e-03 0.0 
0.0 0.0 -7.896995018144e-04 
-5.068058502527e-04 7.602496009026e-04 0.0 
7.602496009026e-04 4.031209139410e-03 0.0 
0.0 0.0 -7.264132926703e-04 
-4.737449794266e-04 6.709445860115e-04 0.0 
6.709445860115e-04 4.140917238724e-03 0.0 
0.0 0.0 -7.539848323805e-04 
-4.092281239023e-04 7.730243516518e-04 0.0 
7.730243516518e-04 3.680765614921e-03 0.0 
0.0 0.0 -6.903858661722e-04 
-3.744957372966e-04 6.516877818939e-04 0.0 
6.516877818939e-04 3.794607072583e-03 0.0 
0.0 0.0 -7.182351804274e-04 
-3.014418119782e-04 7.651198626849e-04 0.0 
7.651198626849e-04 3.317111817818e-03 0.0 
0.0 0.0 -6.542402593883e-04 
-2.691367924077e-04 5.991354595496e-04 0.0 
5.991354595496e-04 3.436288112929e-03 0.0 
0.0 0.0 -6.821763112594e-04 
-3.572033048063e-04 5.016025540799e-04 0.0 
5.016025540799e-04 3.930238801817e-03 0.0 
0.0 0.0 -7.460902125261e-04 
-2.604633093040e-04 4.087486075233e-04 0.0 
4.087486075233e-04 3.586761049540e-03 0.0 
0.0 0.0 -7.100832486075e-04 
-1.613056217724e-04 4.995138349428e-04 0.0 
4.995138349428e-04 3.072389318551e-03 0.0 
0.0 0.0 -6.458624074531e-04 
-1.669705829229e-04 2.701808013183e-04 0.0 
2.701808013183e-04 3.243787358763e-03 0.0 
0.0 0.0 -6.737786430284e-04 
-2.753947664968e-04 2.161212745525e-04 0.0 
2.161212745525e-04 3.768674846201e-03 0.0 
0.0 0.0 -7.381473126730e-04 
-2.005498486414e-04 5.346396201185e-05 0.0 
5.346396201185e-05 3.452103226554e-03 0.0 
0.0 0.0 -7.017500108595e-04 
-3.129525029214e-04 3.691539212024e-05 0.0 
3.691539212024e-05 3.980008917697e-03 0.0 
0.0 0.0 -7.662494016216e-04 
-2.576506604218e-04 -1.344602376400e-04 0.0 
-1.344602376400e-04 3.691587731914e-03 0.0 
0.0 0.0 -7.297828278826e-04 
-1.426325829897e-04 -1.501001214894e-04 0.0 
-1.501001214894e-04 3.157731231159e-03 0.0 
0.0 0.0 -6.655364893108e-04 
-2.218003623758e-04 -3.334729403515e-04 0.0 
-3.334729403515e-04 3.428848173996e-03 0.0 
0.0 0.0 -6.934067383651e-04 
-3.318343911700e-04 -2.853674173367e-04 0.0 
-2.853674173367e-04 3.952815162001e-03 0.0 
0.0 0.0 -7.577868799165e-04 
-3.144801710965e-04 -4.682272711583e-04 0.0 
-4.682272711583e-04 3.714915939774e-03 0.0 
0.0 0.0 -7.212202614536e-04 
-2.108184981842e-04 -5.509789330318e-04 0.0 
-5.509789330318e-04 3.196953321697e-03 0.0 
0.0 0.0 -6.571136838490e-04 
-3.194748950850e-04 -6.509678457029e-04 0.0 
-6.509678457029e-04 3.509025892108e-03 0.0 
0.0 0.0 -6.848379476561e-04 
-4.134303053585e-04 -5.537180261355e-04 0.0 
-5.537180261355e-04 4.010754256809e-03 0.0 
0.0 0.0 -7.491645792950e-04 
-4.282972412297e-04 -7.003622053819e-04 0.0 
-7.003622053819e-04 3.819503617895e-03 0.0 
0.0 0.0 -7.127097857715e-04 
-3.469063150971e-04 -8.191207970740e-04 0.0 
-8.191207970740e-04 3.332834435183e-03 0.0 
0.0 0.0 -6.486049398320e-04 
-4.603200915782e-04 -8.241016297384e-04 0.0 
-8.241016297384e-04 3.654972315785e-03 0.0 
0.0 0.0 -6.763006240845e-04 
-5.326763552168e-04 -7.095630877107e-04 0.0 
-7.095630877107e-04 4.127629826769e-03 0.0 
0.0 0.0 -7.409416231994e-04 
-5.642434690968e-04 -7.961766967206e-04 0.0 
-7.961766967206e-04 3.962246775740e-03 0.0 
0.0 0.0 -7.042275185679e-04 
-5.048810542407e-04 -9.111393169982e-04 0.0 
-9.111393169982e-04 3.507729400124e-03 0.0 
0.0 0.0 -6.398389559308e-04 
-6.027165900428e-04 -8.444966016725e-04 0.0 
-8.444966016725e-04 3.810620087909e-03 0.0 
0.0 0.0 -6.674633383154e-04 
-6.579291994771e-04 -7.450391146030e-04 0.0 
-7.450391146030e-04 4.258237816838e-03 0.0 
0.0 0.0 -7.324886333286e-04 
-6.885251553241e-04 -7.661379123145e-04 0.0 
-7.661379123145e-04 4.095680745521e-03 0.0 
0.0 0.0 -6.954027321055e-04 
-7.420005201256e-04 -6.813900099092e-04 0.0 
-6.813900099092e-04 4.540296059999e-03 0.0 
0.0 0.0 -7.608997874520e-04 
-6.419229239274e-04 -8.515280830913e-04 0.0 
-8.515280830913e-04 3.660198205629e-03 0.0 
0.0 0.0 -6.302092384919e-04 
-7.165087956100e-04 -7.532581299851e-04 0.0 
-7.532581299851e-04 3.933160643348e-03 0.0 
0.0 0.0 -6.580989212857e-04 
-6.748415764425e-04 -8.158732049488e-04 0.0 
-8.158732049488e-04 3.506981101763e-03 0.0 
0.0 0.0 -5.925517106747e-04 
-7.365832294088e-04 -7.073699189760e-04 0.0 
-7.073699189760e-04 3.765896700508e-03 0.0 
0.0 0.0 -6.207111136070e-04 
-6.332000182986e-04 5.918731838089e-04 0.0 
5.918731838089e-04 4.929291128701e-03 0.0 
0.0 0.0 -8.529317679587e-04 
-6.943116331248e-04 -7.425915444218e-04 0.0 
-7.425915444218e-04 3.344277999279e-03 0.0 
0.0 0.0 -5.549884598765e-04 
-6.397413698948e-04 -8.660814527003e-04 0.0 
-8.660814527003e-04 3.093984914707e-03 0.0 
0.0 0.0 -5.276250340903e-04 
-7.441497249529e-04 -6.348309289793e-04 0.0 
-6.348309289793e-04 3.588685288948e-03 0.0 
0.0 0.0 -5.833260987948e-04 
-7.927694967591e-04 -6.072286345187e-04 0.0 
-6.072286345187e-04 4.017000879105e-03 0.0 
0.0 0.0 -6.493616581942e-04 
-6.966675025981e-04 -6.428656991036e-04 0.0 
-6.428656991036e-04 3.166084591150e-03 0.0 
0.0 0.0 -5.173870653820e-04 
-7.365323002863e-04 -5.431818663254e-04 0.0 
-5.431818663254e-04 3.397457388952e-03 0.0 
0.0 0.0 -5.459094278256e-04 
-6.801980278813e-04 -5.258870908465e-04 0.0 
-5.258870908465e-04 2.971149924429e-03 0.0 
0.0 0.0 -4.798161731008e-04 
-3.522724475006e-04 8.978406558880e-04 0.0 
8.978406558880e-04 3.218246737404e-03 0.0 
0.0 0.0 -6.252159162693e-04 
-1.003922379852e-03 4.867498946042e-04 0.0 
4.867498946042e-04 6.194900288835e-03 0.0 
0.0 0.0 -9.750716696758e-04 
-7.134730581966e-04 -4.396097415729e-04 0.0 
-4.396097415729e-04 3.191992919970e-03 0.0 
0.0 0.0 -5.084495576641e-04 
-6.454975030147e-04 -4.098543326581e-04 0.0 
-4.098543326581e-04 2.756723401947e-03 0.0 
0.0 0.0 -4.423119711188e-04 
-6.169555617155e-04 -4.854535332185e-04 0.0 
-4.854535332185e-04 2.543124995000e-03 0.0 
0.0 0.0 -4.136824817550e-04 
-5.630688119643e-04 -3.553409865602e-04 0.0 
-3.553409865602e-04 2.315573721592e-03 0.0 
0.0 0.0 -3.761903503575e-04 
-1.032297422083e-03 1.966440866369e-04 0.0 
1.966440866369e-04 6.038887422175e-03 0.0 
0.0 0.0 -9.126358703463e-04 
-1.092679819842e-03 2.404953654437e-04 0.0 
2.404953654437e-04 6.471742125457e-03 0.0 
0.0 0.0 -9.772611937912e-04 
-1.065662184042e-03 1.952825978825e-04 0.0 
1.952825978825e-04 6.276115658093e-03 0.0 
0.0 0.0 -9.468612964576e-04 
-1.124488971150e-03 2.272669760496e-04 0.0 
2.272669760496e-04 6.729090336894e-03 0.0 
0.0 0.0 -1.012955122490e-03 
-1.098065280761e-03 1.864830102051e-04 0.0 
1.864830102051e-04 6.541298868571e-03 0.0 
0.0 0.0 -9.835180958883e-04 
-5.915603593799e-04 -3.065298427479e-04 0.0 
-3.065298427479e-04 2.521782196510e-03 0.0 
0.0 0.0 -4.047791634435e-04 
-1.117175513921e-03 3.540420738705e-04 0.0 
3.540420738705e-04 6.717826161917e-03 0.0 
0.0 0.0 -1.026687169009e-03 
-1.146459728684e-03 2.677090129604e-04 0.0 
2.677090129604e-04 6.908937528882e-03 0.0 
0.0 0.0 -1.042264213861e-03 
-8.619810308033e-04 5.269046982762e-04 0.0 
5.269046982762e-04 4.942534175484e-03 0.0 
0.0 0.0 -7.861871271282e-04 
-6.685992335526e-04 7.579980182073e-04 0.0 
7.579980182073e-04 4.174187567995e-03 0.0 
0.0 0.0 -7.076088937226e-04 
-3.823000922578e-04 1.751040962943e-04 0.0 
1.751040962943e-04 4.285393794973e-03 0.0 
0.0 0.0 -8.027518904046e-04 
-7.754697783619e-04 -4.563258168331e-04 0.0 
-4.563258168331e-04 3.623603682734e-03 0.0 
0.0 0.0 -5.745905038755e-04 
-7.478137892348e-04 -3.620965601600e-04 0.0 
-3.620965601600e-04 3.412205611854e-03 0.0 
0.0 0.0 -5.371338854166e-04 
-8.174754817651e-04 -3.813163108904e-04 0.0 
-3.813163108904e-04 3.849101426160e-03 0.0 
0.0 0.0 -6.033452624549e-04 
-7.192525572030e-04 -6.519418612780e-04 0.0 
-6.519418612780e-04 4.714458239345e-03 0.0 
0.0 0.0 -7.980428604176e-04 
-8.008672232585e-04 -6.001783307384e-04 0.0 
-6.001783307384e-04 4.992005436326e-03 0.0 
0.0 0.0 -8.266132305475e-04 
-7.854918836627e-04 -5.659348858598e-04 0.0 
-5.659348858598e-04 5.176434454621e-03 0.0 
0.0 0.0 -8.638188500004e-04 
-8.639017049063e-04 -5.248351014622e-04 0.0 
-5.248351014622e-04 5.448454375514e-03 0.0 
0.0 0.0 -8.924533907576e-04 
-8.555184497349e-04 -4.894755576408e-04 0.0 
-4.894755576408e-04 5.642058910946e-03 0.0 
0.0 0.0 -9.297164513315e-04 
-9.301291339826e-04 -4.570426975750e-04 0.0 
-4.570426975750e-04 5.908844626244e-03 0.0 
0.0 0.0 -9.583747859490e-04 
-9.353789003032e-04 -4.780922276340e-04 0.0 
-4.780922276340e-04 5.711821717037e-03 0.0 
0.0 0.0 -9.210728288235e-04 
-9.984662583326e-04 -4.207024963502e-04 0.0 
-4.207024963502e-04 6.168121907027e-03 0.0 
0.0 0.0 -9.870277070005e-04 
-1.000069004232e-03 -4.285924737525e-04 0.0 
-4.285924737525e-04 5.966651563586e-03 0.0 
0.0 0.0 -9.497007337289e-04 
-9.283284515458e-04 -4.229135290675e-04 0.0 
-4.229135290675e-04 6.110180447664e-03 0.0 
0.0 0.0 -9.956835613869e-04 
-8.527578693464e-04 -4.403303765288e-04 0.0 
-4.403303765288e-04 5.842885643991e-03 0.0 
0.0 0.0 -9.668198671257e-04 
-1.059819806392e-03 -3.815720688592e-04 0.0 
-3.815720688592e-04 6.418981492352e-03 0.0 
0.0 0.0 -1.015681523326e-03 
-1.057949721367e-03 -3.770560260125e-04 0.0 
-3.770560260125e-04 6.213345858748e-03 0.0 
0.0 0.0 -9.783260305704e-04 
-1.113690001508e-03 -3.391138449317e-04 0.0 
-3.391138449317e-04 6.662067817752e-03 0.0 
0.0 0.0 -1.044362401637e-03 
-1.108897527401e-03 -3.261874601882e-04 0.0 
-3.261874601882e-04 6.451449547970e-03 0.0 
0.0 0.0 -1.007007767922e-03 
-1.056102434059e-03 -3.617377197121e-04 0.0 
-3.617377197121e-04 6.006353850389e-03 0.0 
0.0 0.0 -9.408676861799e-04 
-1.103510128039e-03 -3.034940289184e-04 0.0 
-3.034940289184e-04 6.238484304806e-03 0.0 
0.0 0.0 -9.695029660748e-04 
-1.052845247082e-03 -3.373861149014e-04 0.0 
-3.373861149014e-04 5.798954310895e-03 0.0 
0.0 0.0 -9.035672079865e-04 
-4.228503435162e-04 2.652797493901e-05 0.0 
2.652797493901e-05 4.498640496550e-03 0.0 
0.0 0.0 -8.309624794500e-04 
-4.884683166150e-04 1.460460655517e-04 0.0 
1.460460655517e-04 4.796700712876e-03 0.0 
0.0 0.0 -8.675775700443e-04 
-5.309148746778e-04 2.225588307319e-05 0.0 
2.225588307319e-05 5.010085131158e-03 0.0 
0.0 0.0 -8.958500940740e-04 
-5.943549435448e-04 1.251718936452e-04 0.0 
1.251718936452e-04 5.302582402065e-03 0.0 
0.0 0.0 -9.325549191312e-04 
-6.382538609797e-04 2.086054713912e-05 0.0 
2.086054713912e-05 5.516155282354e-03 0.0 
0.0 0.0 -9.609176734917e-04 
-7.011603817707e-04 1.101794033340e-04 0.0 
1.101794033340e-04 5.804703043974e-03 0.0 
0.0 0.0 -9.976363410588e-04 
-7.465959866999e-04 2.216834778625e-05 0.0 
2.216834778625e-05 6.016830116331e-03 0.0 
0.0 0.0 -1.026032504441e-03 
-6.923978724816e-04 -6.826398853254e-05 0.0 
-6.826398853254e-05 5.743653636097e-03 0.0 
0.0 0.0 -9.892761093609e-04 
-1.092308246197e-03 4.087334969491e-04 0.0 
4.087334969491e-04 6.601377400440e-03 0.0 
0.0 0.0 -1.018102500310e-03 
-5.675897396992e-05 3.425637172408e-04 0.0 
3.425637172408e-04 2.708861454988e-03 0.0 
0.0 0.0 -6.095594541484e-04 
-6.420114659775e-05 6.151203334216e-04 0.0 
6.151203334216e-04 2.551183745386e-03 0.0 
0.0 0.0 -5.816898710390e-04 
5.441246620249e-05 4.399473863901e-04 0.0 
4.399473863901e-04 2.161774981432e-03 0.0 
0.0 0.0 -5.454521931755e-04 
2.844502818309e-05 7.644395339616e-04 0.0 
7.644395339616e-04 2.024830997844e-03 0.0 
0.0 0.0 -5.176388733440e-04 
1.652901373793e-04 5.705702379394e-04 0.0 
5.705702379394e-04 1.600345183292e-03 0.0 
0.0 0.0 -4.814163979944e-04 
1.130601457631e-04 9.562292981796e-04 0.0 
9.562292981796e-04 1.494895390825e-03 0.0 
0.0 0.0 -4.537165770244e-04 
2.845119300012e-04 7.483953602617e-04 0.0 
7.483953602617e-04 1.019187802654e-03 0.0 
0.0 0.0 -4.208902240644e-04 
2.929325993539e-04 2.620833489363e-04 0.0 
2.620833489363e-04 1.186149753907e-03 0.0 
0.0 0.0 -4.466351565148e-04 
4.659960569609e-04 3.874152989476e-04 0.0 
3.874152989476e-04 5.352766773023e-04 0.0 
0.0 0.0 -3.736376070058e-04 
4.059265982279e-04 -1.758088808093e-04 0.0 
-1.758088808093e-04 8.092916298160e-04 0.0 
0.0 0.0 -4.168446658567e-04 
5.790431118009e-04 -1.610129805314e-04 0.0 
-1.610129805314e-04 1.533127793959e-04 0.0 
0.0 0.0 -3.063790003961e-04 
4.494391646470e-04 -7.152402717994e-04 0.0 
-7.152402717994e-04 5.082279969168e-04 0.0 
0.0 0.0 -3.640020775467e-04 
-8.080190775198e-04 5.920502661192e-04 0.0 
5.920502661192e-04 5.436356176569e-03 0.0 
0.0 0.0 -8.963565068603e-04 
-6.651558879210e-04 2.088271070434e-04 0.0 
2.088271070434e-04 5.603894024499e-03 0.0 
0.0 0.0 -9.691568884624e-04 
-7.699005087498e-04 1.883379167874e-04 0.0 
1.883379167874e-04 6.102423018858e-03 0.0 
0.0 0.0 -1.034312087004e-03 
-7.384024095732e-04 2.760115291154e-04 0.0 
2.760115291154e-04 5.907746579569e-03 0.0 
0.0 0.0 -1.005320805676e-03 
-5.404221803057e-04 -4.187129725138e-04 0.0 
-4.187129725138e-04 2.110154003912e-03 0.0 
0.0 0.0 -3.475522021424e-04 
-1.152888887005e-03 -2.763407572661e-04 0.0 
-2.763407572661e-04 6.681517292358e-03 0.0 
0.0 0.0 -1.035773625862e-03 
-9.326850124499e-04 -3.805734010338e-04 0.0 
-3.805734010338e-04 6.318938914436e-03 0.0 
0.0 0.0 -1.032922975483e-03 
-8.578946226242e-04 -3.814307824260e-04 0.0 
-3.814307824260e-04 6.050788235921e-03 0.0 
0.0 0.0 -1.003739924893e-03 
-8.007230077279e-04 -5.030783828559e-05 0.0 
-5.030783828559e-05 6.244226135644e-03 0.0 
0.0 0.0 -1.054598834243e-03 
-4.941523760955e-04 -2.470231279283e-04 0.0 
-2.470231279283e-04 2.071816915527e-03 0.0 
0.0 0.0 -3.392587823741e-04 
1.975953042673e-04 1.172543779916e-03 0.0 
1.172543779916e-03 9.666654142640e-04 0.0 
0.0 0.0 -3.922431101850e-04 
5.175793587872e-06 1.277837662737e-03 0.0 
1.277837662737e-03 1.466786264722e-03 0.0 
0.0 0.0 -4.261104576107e-04 
-1.152692083578e-03 2.146597661269e-04 0.0 
2.146597661269e-04 6.983288018661e-03 0.0 
0.0 0.0 -1.048874596840e-03 
-1.125979627456e-03 1.800276227316e-04 0.0 
1.800276227316e-04 6.792196765101e-03 0.0 
0.0 0.0 -1.019458214591e-03 
-9.448287362971e-04 -3.295389867260e-04 0.0 
-3.295389867260e-04 6.536387605041e-03 0.0 
0.0 0.0 -1.070157681403e-03 
-5.240293716215e-04 -2.102668930863e-04 0.0 
-2.102668930863e-04 2.277314558376e-03 0.0 
0.0 0.0 -3.675747464493e-04 
-1.063791247498e-03 -3.742192618344e-04 0.0 
-3.742192618344e-04 6.627422368744e-03 0.0 
0.0 0.0 -1.052997445444e-03 
5.558984473440e-04 4.127353325470e-04 0.0 
4.127353325470e-04 1.463881506699e-05 0.0 
0.0 0.0 -2.445159696047e-04 
-1.144117684349e-03 -2.458346103954e-04 0.0 
-2.458346103954e-04 6.462839923362e-03 0.0 
0.0 0.0 -9.982306137915e-04 
-1.191309827109e-03 -2.266694415371e-04 0.0 
-2.266694415371e-04 6.904200660223e-03 0.0 
0.0 0.0 -1.064501221861e-03 
-9.418341400068e-04 -4.830251057162e-04 0.0 
-4.830251057162e-04 5.517520339527e-03 0.0 
0.0 0.0 -8.838659695519e-04 
-8.408929706273e-04 2.533730996691e-04 0.0 
2.533730996691e-04 6.403362100756e-03 0.0 
0.0 0.0 -1.070909199420e-03 
-8.123210735737e-04 3.267258872306e-04 0.0 
3.267258872306e-04 6.208133296915e-03 0.0 
0.0 0.0 -1.041442769611e-03 
2.640974401389e-04 -6.120925406395e-04 0.0 
-6.120925406395e-04 1.170954425306e-03 0.0 
0.0 0.0 -4.384799197683e-04 
2.270076462303e-04 -1.094827319140e-03 0.0 
-1.094827319140e-03 9.810701092341e-04 0.0 
0.0 0.0 -4.046094527367e-04 
3.640551099348e-04 -1.155184556941e-03 0.0 
-1.155184556941e-03 4.131638396833e-04 0.0 
0.0 0.0 -3.139947606995e-04 
1.171979887630e-04 -1.455005939438e-03 0.0 
-1.455005939438e-03 9.453620887615e-04 0.0 
0.0 0.0 -3.763072820036e-04 
2.556371078842e-05 -1.262704422364e-03 0.0 
-1.262704422364e-03 1.454464914390e-03 0.0 
0.0 0.0 -4.289053338950e-04 
-8.947678599683e-05 -1.490768828574e-03 0.0 
-1.490768828574e-03 1.396555812330e-03 0.0 
0.0 0.0 -3.979758726750e-04 
2.329510608106e-05 -1.514078363831e-03 0.0 
-1.514078363831e-03 9.452166061342e-04 0.0 
0.0 0.0 -3.667276109228e-04 
-2.100553572376e-04 -1.558593298157e-03 0.0 
-1.558593298157e-03 1.402552177449e-03 0.0 
0.0 0.0 -3.771854463149e-04 
-2.665534885264e-04 -1.440543195804e-03 0.0 
-1.440543195804e-03 1.828480576306e-03 0.0 
0.0 0.0 -4.192720002935e-04 
-3.858828221178e-04 -1.432331817451e-03 0.0 
-1.432331817451e-03 1.803183213938e-03 0.0 
0.0 0.0 -3.853829593207e-04 
-2.961455271275e-04 -1.398427341996e-03 0.0 
-1.398427341996e-03 1.416563920223e-03 0.0 
0.0 0.0 -3.646163496721e-04 
-4.654616132702e-04 -1.259328861233e-03 0.0 
-1.259328861233e-03 1.764244007017e-03 0.0 
0.0 0.0 -3.558200702016e-04 
-1.201889062818e-03 -2.543911578407e-04 0.0 
-2.543911578407e-04 7.124942193322e-03 0.0 
0.0 0.0 -1.101875158976e-03 
5.412904168970e-04 -8.385322248721e-05 0.0 
-8.385322248721e-05 -1.404456435363e-04 0.0 
0.0 0.0 -1.717906171546e-04 
-9.463800631761e-04 3.860027273263e-04 0.0 
3.860027273263e-04 5.343793686453e-03 0.0 
0.0 0.0 -8.288706041983e-04 
-1.014362980206e-03 -3.321555799501e-04 0.0 
-3.321555799501e-04 6.794335154877e-03 0.0 
0.0 0.0 -1.099012274073e-03 
-8.569045148225e-04 3.078985663283e-05 0.0 
3.078985663283e-05 6.510332221214e-03 0.0 
0.0 0.0 -1.090660416876e-03 
-1.178566600954e-03 2.066846340334e-04 0.0 
2.066846340334e-04 7.236502688045e-03 0.0 
0.0 0.0 -1.085032576515e-03 
-1.153658343620e-03 1.755152393049e-04 0.0 
1.755152393049e-04 7.044914703598e-03 0.0 
0.0 0.0 -1.055603631703e-03 
-1.098678134952e-03 1.564744163133e-04 0.0 
1.564744163133e-04 6.595940529562e-03 0.0 
0.0 0.0 -9.897378988699e-04 
-1.129113373444e-03 1.503482155027e-04 0.0 
1.503482155027e-04 6.853244331223e-03 0.0 
0.0 0.0 -1.026001677571e-03 
-1.181824965340e-03 1.678156779438e-04 0.0 
1.678156779438e-04 7.301020112961e-03 0.0 
0.0 0.0 -1.091942449670e-03 
-1.157557793781e-03 1.434383666525e-04 0.0 
1.434383666525e-04 7.107529686986e-03 0.0 
0.0 0.0 -1.062342898562e-03 
-1.103342207633e-03 1.238709536611e-04 0.0 
1.238709536611e-04 6.657901312686e-03 0.0 
0.0 0.0 -9.962627399151e-04 
-1.130139591936e-03 1.194308116232e-04 0.0 
1.194308116232e-04 6.908298246914e-03 0.0 
0.0 0.0 -1.032646955902e-03 
-1.072650473166e-03 9.941159075290e-05 0.0 
9.941159075290e-05 6.455574140328e-03 0.0 
0.0 0.0 -9.664557332607e-04 
-1.101356119743e-03 9.815565709695e-05 0.0 
9.815565709695e-05 6.706288769856e-03 0.0 
0.0 0.0 -1.002889032254e-03 
-1.155889062888e-03 1.141636426079e-04 0.0 
1.141636426079e-04 7.157664523701e-03 0.0 
0.0 0.0 -1.069134413525e-03 
-1.129364737971e-03 9.069177524751e-05 0.0 
9.069177524751e-05 6.958007176896e-03 0.0 
0.0 0.0 -1.039387411609e-03 
-1.074512864600e-03 8.003659807365e-05 0.0 
8.003659807365e-05 6.506063569350e-03 0.0 
0.0 0.0 -9.730575354659e-04 
-1.102505706781e-03 6.895302199807e-05 0.0 
6.895302199807e-05 6.755927681467e-03 0.0 
0.0 0.0 -1.009574527126e-03 
-1.046730538131e-03 5.947738879001e-05 0.0 
5.947738879001e-05 6.301429284161e-03 0.0 
0.0 0.0 -9.431603702596e-04 
-1.071542509842e-03 4.629020306893e-05 0.0 
4.629020306893e-05 6.545497453892e-03 0.0 
0.0 0.0 -9.796061197752e-04 
-1.128792209327e-03 6.597728227981e-05 0.0 
6.597728227981e-05 7.006220652052e-03 0.0 
0.0 0.0 -1.046101832713e-03 
-4.073418969283e-04 -1.607374412238e-04 0.0 
-1.607374412238e-04 1.828608037656e-03 0.0 
0.0 0.0 -3.035957800550e-04 
-7.554826328512e-04 -1.381735686785e-04 0.0 
-1.381735686785e-04 5.982792301535e-03 0.0 
0.0 0.0 -1.017732614895e-03 
-8.650297313857e-04 -1.043541426240e-04 0.0 
-1.043541426240e-04 6.483758424389e-03 0.0 
0.0 0.0 -1.083831836677e-03 
-7.928232165852e-04 -3.175969841458e-04 0.0 
-3.175969841458e-04 3.652484692606e-03 0.0 
0.0 0.0 -5.671321338944e-04 
-8.566347672055e-04 -3.217821912401e-04 0.0 
-3.217821912401e-04 4.048954472777e-03 0.0 
0.0 0.0 -6.325382687906e-04 
-8.804918361104e-04 -3.627202257711e-04 0.0 
-3.627202257711e-04 4.282181100263e-03 0.0 
0.0 0.0 -6.695659616924e-04 
-9.177573047803e-04 -2.924538415403e-04 0.0 
-2.924538415403e-04 4.507721826303e-03 0.0 
0.0 0.0 -6.986863204145e-04 
-1.099135465243e-03 4.357947276918e-05 0.0 
4.357947276918e-05 6.797671672464e-03 0.0 
0.0 0.0 -1.015477767897e-03 
-1.160436245727e-03 6.544078644588e-05 0.0 
6.544078644588e-05 7.256684604588e-03 0.0 
0.0 0.0 -1.082739357160e-03 
7.036319334209e-05 1.449833710054e-03 0.0 
1.449833710054e-03 1.011168072104e-03 0.0 
0.0 0.0 -3.730214571323e-04 
-1.313033917885e-04 1.466714958247e-03 0.0 
1.466714958247e-03 1.502828426790e-03 0.0 
0.0 0.0 -4.032920832132e-04 
-1.202425520628e-03 2.413601229435e-04 0.0 
2.413601229435e-04 7.423802842249e-03 0.0 
0.0 0.0 -1.114382729655e-03 
-1.180850422310e-03 -1.936004808914e-04 0.0 
-1.936004808914e-04 6.684429122052e-03 0.0 
0.0 0.0 -1.027045364000e-03 
-1.134320678585e-03 -2.084199271041e-04 0.0 
-2.084199271041e-04 6.243084428302e-03 0.0 
0.0 0.0 -9.609938998495e-04 
-5.952582294012e-04 8.316068584819e-04 0.0 
8.316068584819e-04 3.858437738170e-03 0.0 
0.0 0.0 -6.721935305596e-04 
-6.370100935664e-04 8.121723615139e-04 0.0 
8.121723615139e-04 3.769953827514e-03 0.0 
0.0 0.0 -6.449639573754e-04 
-5.665659749616e-04 8.991854182347e-04 0.0 
8.991854182347e-04 3.453268816289e-03 0.0 
0.0 0.0 -6.093131083769e-04 
-6.122481697245e-04 8.584550154617e-04 0.0 
8.584550154617e-04 3.367517643807e-03 0.0 
0.0 0.0 -5.812298138028e-04 
-6.717347223774e-04 7.671538527367e-04 0.0 
7.671538527367e-04 3.680324616707e-03 0.0 
0.0 0.0 -6.173664885638e-04 
-5.474862438506e-04 9.567364556164e-04 0.0 
9.567364556164e-04 3.048590303343e-03 0.0 
0.0 0.0 -5.448148816535e-04 
-7.720267330795e-04 -4.449545656596e-04 0.0 
-4.449545656596e-04 5.565922562376e-03 0.0 
0.0 0.0 -9.373051277721e-04 
-1.182206612194e-03 1.041005248131e-04 0.0 
1.041005248131e-04 7.409010778114e-03 0.0 
0.0 0.0 -1.105708206284e-03 
-5.928875136439e-04 -5.713513742364e-04 0.0 
-5.713513742364e-04 2.330327898660e-03 0.0 
0.0 0.0 -3.852871208612e-04 
-5.197872744909e-04 -4.881912543796e-04 0.0 
-4.881912543796e-04 1.906337896852e-03 0.0 
0.0 0.0 -3.193625892355e-04 
-1.227873719132e-03 -1.791865956722e-04 0.0 
-1.791865956722e-04 7.126040838435e-03 0.0 
0.0 0.0 -1.093300181677e-03 
-6.499802166189e-04 -1.689058959396e-04 0.0 
-1.689058959396e-04 5.481207367019e-03 0.0 
0.0 0.0 -9.522822042369e-04 
-8.770180670307e-04 5.584319225786e-04 0.0 
5.584319225786e-04 5.741150606381e-03 0.0 
0.0 0.0 -9.319735432435e-04 
-8.671724403427e-04 5.454834419887e-04 0.0 
5.454834419887e-04 5.872286509418e-03 0.0 
0.0 0.0 -9.598347391831e-04 
-9.359860302395e-04 5.226295226197e-04 0.0 
5.226295226197e-04 6.177406845640e-03 0.0 
0.0 0.0 -9.957130113267e-04 
-9.320971335610e-04 5.080083978468e-04 0.0 
5.080083978468e-04 6.315456934145e-03 0.0 
0.0 0.0 -1.023751803962e-03 
-1.000869956237e-03 4.939881751637e-04 0.0 
4.939881751637e-04 6.620841154437e-03 0.0 
0.0 0.0 -1.059873349132e-03 
-1.004419613008e-03 4.777529205192e-04 0.0 
4.777529205192e-04 6.763876066662e-03 0.0 
0.0 0.0 -1.087854580038e-03 
-9.336137141730e-04 4.809338762962e-04 0.0 
4.809338762962e-04 6.463526298401e-03 0.0 
0.0 0.0 -1.051791170495e-03 
-9.097029887622e-04 3.089094526998e-04 0.0 
3.089094526998e-04 6.700162919637e-03 0.0 
0.0 0.0 -1.107463318235e-03 
-1.013980886497e-03 4.491053628713e-04 0.0 
4.491053628713e-04 6.922381498406e-03 0.0 
0.0 0.0 -1.115916943430e-03 
-1.033295848304e-03 4.860531472176e-05 0.0 
4.860531472176e-05 6.321432505072e-03 0.0 
0.0 0.0 -9.487150400336e-04 
-6.387227248277e-04 3.148916192941e-04 0.0 
3.148916192941e-04 5.411845409225e-03 0.0 
0.0 0.0 -9.398448712237e-04 
-3.958753706079e-04 -1.306941406373e-03 0.0 
-1.306941406373e-03 2.210168825673e-03 0.0 
0.0 0.0 -4.474652294669e-04 
-3.867396229061e-04 -1.939364425131e-04 0.0 
-1.939364425131e-04 1.612473113241e-03 0.0 
0.0 0.0 -2.752498982733e-04 
-3.548792531294e-04 -1.099906862766e-03 0.0 
-1.099906862766e-03 1.383653509656e-03 0.0 
0.0 0.0 -3.352047878591e-04 
-4.486846026636e-04 -1.253624941077e-04 0.0 
-1.253624941077e-04 2.009661496099e-03 0.0 
0.0 0.0 -3.299748606085e-04 
-5.597023421830e-04 -1.650736869684e-04 0.0 
-1.650736869684e-04 2.479203026553e-03 0.0 
0.0 0.0 -3.961554456411e-04 
-1.033444219732e-03 -2.887128519644e-04 0.0 
-2.887128519644e-04 7.020027445513e-03 0.0 
0.0 0.0 -1.136360603439e-03 
-1.072616243485e-03 4.757105308921e-04 0.0 
4.757105308921e-04 7.071175993343e-03 0.0 
0.0 0.0 -1.124065295910e-03 
-1.065195527322e-03 4.849349100928e-04 0.0 
4.849349100928e-04 6.917548798149e-03 0.0 
0.0 0.0 -1.095615423988e-03 
-6.465811726499e-04 7.943118945265e-04 0.0 
7.943118945265e-04 3.291375737462e-03 0.0 
0.0 0.0 -5.539799138139e-04 
-6.949762395585e-04 6.852387151617e-04 0.0 
6.852387151617e-04 3.583300335040e-03 0.0 
0.0 0.0 -5.905304635153e-04 
-9.409548518096e-04 2.363101942403e-04 0.0 
2.363101942403e-04 6.893498553700e-03 0.0 
0.0 0.0 -1.136278651916e-03 
-1.031330535355e-03 1.691125997159e-04 0.0 
1.691125997159e-04 6.096244556870e-03 0.0 
0.0 0.0 -9.177848451843e-04 
-1.043451867895e-03 1.026605375003e-04 0.0 
1.026605375003e-04 6.207052540714e-03 0.0 
0.0 0.0 -9.302130594432e-04 
-1.010991519056e-03 8.266817185374e-05 0.0 
8.266817185374e-05 5.998028369178e-03 0.0 
0.0 0.0 -9.001900590098e-04 
-3.040782914078e-04 -1.048978576797e-04 0.0 
-1.048978576797e-04 1.479833111238e-03 0.0 
0.0 0.0 -2.595221258752e-04 
-1.668157979825e-04 -1.176981615551e-03 0.0 
-1.176981615551e-03 1.066881825257e-03 0.0 
0.0 0.0 -3.546314877250e-04 
-1.207894844135e-03 1.612820959581e-04 0.0 
1.612820959581e-04 7.555800088084e-03 0.0 
0.0 0.0 -1.128363834889e-03 
-1.496144498695e-04 1.267178183608e-03 0.0 
1.267178183608e-03 1.924933515505e-03 0.0 
0.0 0.0 -4.615872697407e-04 
-2.777481430259e-04 1.364720531140e-03 0.0 
1.364720531140e-03 1.941765323137e-03 0.0 
0.0 0.0 -4.342639779644e-04 
4.034334735409e-04 2.445431345025e-04 0.0 
2.445431345025e-04 -9.041096436294e-05 0.0 
0.0 0.0 -1.341525039334e-04 
2.051377463425e-04 -1.961701048020e-05 0.0 
-1.961701048020e-05 -5.720414671563e-05 0.0 
0.0 0.0 -6.340011412580e-05 
-1.121483383227e-03 6.295637452115e-05 0.0 
6.295637452115e-05 7.029111019756e-03 0.0 
0.0 0.0 -1.051814883004e-03 
-1.177494848702e-03 6.582362175726e-05 0.0 
6.582362175726e-05 7.492557943411e-03 0.0 
0.0 0.0 -1.117859435171e-03 
-9.333898311745e-04 -3.509792996749e-04 0.0 
-3.509792996749e-04 4.719089492349e-03 0.0 
0.0 0.0 -7.356929296387e-04 
-9.785857666390e-04 -2.860980495383e-04 0.0 
-2.860980495383e-04 4.943354100410e-03 0.0 
0.0 0.0 -7.648299719236e-04 
-9.654424262213e-04 -2.714537898239e-04 0.0 
-2.714537898239e-04 6.765873836397e-03 0.0 
0.0 0.0 -1.107558395918e-03 
-5.027897087658e-04 -9.882385644824e-04 0.0 
-9.882385644824e-04 1.682465534830e-03 0.0 
0.0 0.0 -3.185922720913e-04 
-1.207361177183e-03 7.219593573452e-05 0.0 
7.219593573452e-05 7.710745314262e-03 0.0 
0.0 0.0 -1.149181664990e-03 
-7.221207359935e-04 -2.319743394949e-04 0.0 
-2.319743394949e-04 5.736084564024e-03 0.0 
0.0 0.0 -9.807908033776e-04 
-6.199444920269e-04 -2.803458900383e-04 0.0 
-2.803458900383e-04 5.234294253432e-03 0.0 
0.0 0.0 -9.152404036621e-04 
-8.850179884087e-04 -2.107315013722e-04 0.0 
-2.107315013722e-04 4.277220058387e-03 0.0 
0.0 0.0 -6.604623333687e-04 
-7.131176054971e-05 1.522786260440e-03 0.0 
1.522786260440e-03 1.128166094303e-03 0.0 
0.0 0.0 -3.722456989795e-04 
1.506124378874e-04 1.353289082485e-03 0.0 
1.353289082485e-03 6.471948717885e-04 0.0 
0.0 0.0 -3.185609919049e-04 
-2.939037762269e-04 -1.257650241065e-03 0.0 
-1.257650241065e-03 2.275247472139e-03 0.0 
0.0 0.0 -4.845585894574e-04 
-5.488065046231e-04 -1.067445958774e-03 0.0 
-1.067445958774e-03 2.060865836395e-03 0.0 
0.0 0.0 -3.723415964733e-04 
-4.888098213751e-04 -1.052003350203e-04 0.0 
-1.052003350203e-04 2.216308377581e-03 0.0 
0.0 0.0 -3.583452993329e-04 
-1.062272686561e-03 -2.298804836140e-04 0.0 
-2.298804836140e-04 7.251651551201e-03 0.0 
0.0 0.0 -1.173829981771e-03 
-1.227876715994e-03 1.893009349700e-04 0.0 
1.893009349700e-04 7.743204952100e-03 0.0 
0.0 0.0 -1.157575248917e-03 
-9.423902529627e-04 4.304393189543e-04 0.0 
4.304393189543e-04 6.620906454591e-03 0.0 
0.0 0.0 -1.080172819833e-03 
-8.612685947681e-04 4.776509476654e-04 0.0 
4.776509476654e-04 6.154589150170e-03 0.0 
0.0 0.0 -1.015677837919e-03 
-1.022115058251e-03 4.070298504517e-04 0.0 
4.070298504517e-04 7.083428986968e-03 0.0 
0.0 0.0 -1.144955025780e-03 
-3.834899570330e-04 -7.958142673473e-04 0.0 
-7.958142673473e-04 1.299084562353e-03 0.0 
0.0 0.0 -2.798534577099e-04 
-1.102214544351e-03 -3.027150081502e-04 0.0 
-3.027150081502e-04 7.282068807861e-03 0.0 
0.0 0.0 -1.165794428787e-03 
-1.216895343866e-03 -1.441675384032e-04 0.0 
-1.441675384032e-04 6.902897395280e-03 0.0 
0.0 0.0 -1.056136825731e-03 
-1.138941837453e-03 4.914289706325e-04 0.0 
4.914289706325e-04 7.351648623001e-03 0.0 
0.0 0.0 -1.157598467365e-03 
-1.123764904198e-03 4.819548128218e-04 0.0 
4.819548128218e-04 7.209866110785e-03 0.0 
0.0 0.0 -1.131219827106e-03 
-2.809946016527e-04 1.203335788346e-03 0.0 
1.203335788346e-03 2.340542833527e-03 0.0 
0.0 0.0 -4.968499830348e-04 
-3.877477755505e-04 1.221962387701e-03 0.0 
1.221962387701e-03 2.338693931197e-03 0.0 
0.0 0.0 -4.705806478706e-04 
-4.036150361409e-04 1.336476693924e-03 0.0 
1.336476693924e-03 1.977592500610e-03 0.0 
0.0 0.0 -4.078257031896e-04 
-4.816859073884e-04 1.176560530353e-03 0.0 
1.176560530353e-03 2.343460801890e-03 0.0 
0.0 0.0 -4.438024830152e-04 
-9.732353814622e-04 3.041939387352e-04 0.0 
3.041939387352e-04 5.448266059909e-03 0.0 
0.0 0.0 -8.361670615232e-04 
-3.925437291381e-04 1.104523798212e-03 0.0 
1.104523798212e-03 2.729748532404e-03 0.0 
0.0 0.0 -5.333915535664e-04 
-9.057439282626e-04 4.261225243385e-04 0.0 
4.261225243385e-04 5.077306138642e-03 0.0 
0.0 0.0 -7.939299641313e-04 
-8.975208378586e-04 3.720025570421e-04 0.0 
3.720025570421e-04 4.930717473606e-03 0.0 
0.0 0.0 -7.665196690739e-04 
-8.600171473097e-04 4.161603871668e-04 0.0 
4.161603871668e-04 4.671461707836e-03 0.0 
0.0 0.0 -7.319524942586e-04 
-7.253516315596e-04 6.727829162625e-04 0.0 
6.727829162625e-04 3.972513731187e-03 0.0 
0.0 0.0 -6.527873785750e-04 
-7.385699352999e-04 5.948696391935e-04 0.0 
5.948696391935e-04 3.862508165088e-03 0.0 
0.0 0.0 -6.261871041946e-04 
-1.081656769382e-04 8.687696267767e-04 0.0 
8.687696267767e-04 2.439613486548e-03 0.0 
0.0 0.0 -5.534964465553e-04 
-4.602867709727e-04 2.826245204948e-04 0.0 
2.826245204948e-04 4.601098480980e-03 0.0 
0.0 0.0 -8.390310526140e-04 
-8.925257354332e-04 -4.271097572203e-04 0.0 
-4.271097572203e-04 4.492522403458e-03 0.0 
0.0 0.0 -7.069621042110e-04 
-1.002856146604e-03 -4.033307783673e-04 0.0 
-4.033307783673e-04 5.565178736137e-03 0.0 
0.0 0.0 -8.751042800696e-04 
-7.003078251289e-04 -5.958729416123e-04 0.0 
-5.958729416123e-04 4.895224615458e-03 0.0 
0.0 0.0 -8.350146568664e-04 
-1.207341521713e-03 1.295685592876e-04 0.0 
1.295685592876e-04 7.603516284320e-03 0.0 
0.0 0.0 -1.135109731873e-03 
-1.234147304705e-03 1.158810138817e-04 0.0 
1.158810138817e-04 7.860000857238e-03 0.0 
0.0 0.0 -1.171938512032e-03 
-1.015895156183e-03 6.930194114772e-05 0.0 
6.930194114772e-05 6.052013455342e-03 0.0 
0.0 0.0 -9.065739516476e-04 
-9.767996699331e-04 4.467953763507e-05 0.0 
4.467953763507e-05 5.838511550894e-03 0.0 
0.0 0.0 -8.764137937918e-04 
-4.392150575772e-04 -3.259674398810e-04 0.0 
-3.259674398810e-04 1.665337581441e-03 0.0 
0.0 0.0 -2.813159824896e-04 
-4.247097810398e-04 -3.644747280315e-04 0.0 
-3.644747280315e-04 1.471773465299e-03 0.0 
0.0 0.0 -2.533966087790e-04 
-8.177306416292e-04 -6.121829702514e-04 0.0 
-6.121829702514e-04 4.811548278672e-03 0.0 
0.0 0.0 -7.894497706086e-04 
-1.082360538362e-03 -3.264662476232e-04 0.0 
-3.264662476232e-04 7.048376439915e-03 0.0 
0.0 0.0 -1.127529358476e-03 
-1.227748397910e-03 2.361030321983e-04 0.0 
2.361030321983e-04 7.672982991330e-03 0.0 
0.0 0.0 -1.150095860580e-03 
-1.249888144017e-03 2.671434152154e-04 0.0 
2.671434152154e-04 7.859407510661e-03 0.0 
0.0 0.0 -1.179372829571e-03 
-1.222973776595e-03 2.761414432265e-04 0.0 
2.761414432265e-04 7.603174812567e-03 0.0 
0.0 0.0 -1.143369325255e-03 
-9.935045909858e-04 -2.028359368237e-04 0.0 
-2.028359368237e-04 6.995967624477e-03 0.0 
0.0 0.0 -1.144273392007e-03 
3.495269992969e-05 1.197649878409e-04 0.0 
1.197649878409e-04 2.359795329880e-03 0.0 
0.0 0.0 -5.733740095480e-04 
-4.781962153862e-04 -1.012252719499e-04 0.0 
-1.012252719499e-04 4.730438814657e-03 0.0 
0.0 0.0 -8.590966742019e-04 
3.810975112987e-04 -3.002206319640e-04 0.0 
-3.002206319640e-04 -7.297745490904e-05 0.0 
0.0 0.0 -1.320514527384e-04 
-7.161621287090e-04 5.841402981115e-04 0.0 
5.841402981115e-04 5.248781673340e-03 0.0 
0.0 0.0 -8.884627649733e-04 
-3.115080858313e-04 -2.227975807547e-04 0.0 
-2.227975807547e-04 1.202076532669e-03 0.0 
0.0 0.0 -2.162536877156e-04 
-1.055053453560e-03 4.626735760724e-04 0.0 
4.626735760724e-04 6.476326574185e-03 0.0 
0.0 0.0 -1.010319580236e-03 
-1.255576380871e-03 -1.315357551102e-04 0.0 
-1.315357551102e-04 7.338059588025e-03 0.0 
0.0 0.0 -1.122815839103e-03 
-1.267850494462e-03 -1.674624135979e-04 0.0 
-1.674624135979e-04 7.563446267715e-03 0.0 
0.0 0.0 -1.159213750608e-03 
-1.010702044889e-03 2.850279828007e-04 0.0 
2.850279828007e-04 7.183997457293e-03 0.0 
0.0 0.0 -1.171959308352e-03 
-8.963384137737e-04 2.488891316052e-04 0.0 
2.488891316052e-04 4.875662042004e-03 0.0 
0.0 0.0 -7.470952864203e-04 
-7.058007902936e-04 5.271243929450e-04 0.0 
5.271243929450e-04 5.385179954600e-03 0.0 
0.0 0.0 -9.162722660995e-04 
-6.228080214073e-04 5.120192170004e-04 0.0 
5.120192170004e-04 5.067178617559e-03 0.0 
0.0 0.0 -8.808726170640e-04 
-8.477370711112e-04 3.577431200157e-04 0.0 
3.577431200157e-04 4.525141676784e-03 0.0 
0.0 0.0 -7.048691535495e-04 
-8.132640120407e-04 4.004719993994e-04 0.0 
4.004719993994e-04 4.272493314920e-03 0.0 
0.0 0.0 -6.707530558731e-04 
-8.209482996094e-04 4.682329320479e-04 0.0 
4.682329320479e-04 4.408754927634e-03 0.0 
0.0 0.0 -6.972958566626e-04 
-7.782280701881e-04 4.523325447572e-04 0.0 
4.523325447572e-04 4.016412533301e-03 0.0 
0.0 0.0 -6.359606378414e-04 
-4.177281549139e-04 -1.168672558867e-03 0.0 
-1.168672558867e-03 2.631942087578e-03 0.0 
0.0 0.0 -5.122594947013e-04 
-4.962383683680e-04 -1.157174554661e-03 0.0 
-1.157174554661e-03 2.541178569243e-03 0.0 
0.0 0.0 -4.750188804659e-04 
-1.154021499096e-03 4.782775772644e-04 0.0 
4.782775772644e-04 7.573815285751e-03 0.0 
0.0 0.0 -1.192042136895e-03 
-1.094464537807e-03 4.618413052259e-04 0.0 
4.618413052259e-04 7.386095086857e-03 0.0 
0.0 0.0 -1.178660172201e-03 
-1.187593002781e-03 4.811019602591e-04 0.0 
4.811019602591e-04 7.655964388501e-03 0.0 
0.0 0.0 -1.193029175878e-03 
-1.163263876641e-03 4.785864187479e-04 0.0 
4.785864187479e-04 7.511604884733e-03 0.0 
0.0 0.0 -1.168165168231e-03 
-1.037083014282e-03 2.184072236099e-04 0.0 
2.184072236099e-04 7.374910845912e-03 0.0 
0.0 0.0 -1.200910491468e-03 
-9.753553652922e-04 1.640389574658e-04 0.0 
1.640389574658e-04 7.090218753853e-03 0.0 
0.0 0.0 -1.164168769488e-03 
-6.028560444752e-04 -1.360178339637e-04 0.0 
-1.360178339637e-04 2.675687027615e-03 0.0 
0.0 0.0 -4.227350873389e-04 
-7.047203305141e-04 5.847954661015e-04 0.0 
5.847954661015e-04 3.476801185836e-03 0.0 
0.0 0.0 -5.646260317871e-04 
-1.245127779796e-03 1.777850177793e-04 0.0 
1.777850177793e-04 7.993741479566e-03 0.0 
0.0 0.0 -1.194151889699e-03 
-8.817872830960e-04 3.208786017712e-04 0.0 
3.208786017712e-04 4.774377627364e-03 0.0 
0.0 0.0 -7.390869131010e-04 
-1.164936831278e-03 -3.113795227657e-04 0.0 
-3.113795227657e-04 7.515893028419e-03 0.0 
0.0 0.0 -1.192835421428e-03 
-1.142129895980e-03 -3.204237901470e-04 0.0 
-3.204237901470e-04 7.305220282504e-03 0.0 
0.0 0.0 -1.156047193884e-03 
8.143997684988e-05 -5.632529459351e-05 0.0 
-5.632529459351e-05 -1.764449114255e-05 0.0 
0.0 0.0 -2.734092244600e-05 
2.721987346519e-04 -4.520014711284e-04 0.0 
-4.520014711284e-04 1.905810524669e-05 0.0 
0.0 0.0 -1.248243599565e-04 
-1.231567197499e-03 6.211834964842e-05 0.0 
6.211834964842e-05 7.963702026826e-03 0.0 
0.0 0.0 -1.184588873336e-03 
-5.000595373901e-04 1.204680535621e-03 0.0 
1.204680535621e-03 1.991465428866e-03 0.0 
0.0 0.0 -3.811925308841e-04 
-5.489936022904e-04 1.042785009975e-03 0.0 
1.042785009975e-03 2.300834123338e-03 0.0 
0.0 0.0 -4.158690271831e-04 
-3.842703009259e-04 1.346678098862e-03 0.0 
1.346678098862e-03 1.633275420512e-03 0.0 
0.0 0.0 -3.660215567096e-04 
-1.330527207980e-03 -3.853221662851e-05 0.0 
-3.853221662851e-05 8.239463133450e-03 0.0 
0.0 0.0 -1.258310293365e-03 
-8.465756460554e-04 5.727197951410e-07 0.0 
5.727197951410e-07 4.947192301730e-03 0.0 
0.0 0.0 -7.479256703001e-04 
-1.285435156603e-03 -1.236167483815e-04 0.0 
-1.236167483815e-04 7.770617594905e-03 0.0 
0.0 0.0 -1.189418985649e-03 
-7.744068399611e-04 5.950771192320e-04 0.0 
5.950771192320e-04 4.259141188703e-03 0.0 
0.0 0.0 -6.884682336192e-04 
-1.252365039908e-03 8.497968466370e-05 0.0 
8.497968466370e-05 8.173452803744e-03 0.0 
0.0 0.0 -1.216510697198e-03 
-7.049683277386e-04 4.524468991294e-04 0.0 
4.524468991294e-04 5.539667182357e-03 0.0 
0.0 0.0 -9.449116413281e-04 
-5.109301527551e-04 9.153066593930e-04 0.0 
9.153066593930e-04 3.518995939107e-03 0.0 
0.0 0.0 -6.353966017694e-04 
-8.973844045661e-04 -2.448816665564e-04 0.0 
-2.448816665564e-04 6.506541659943e-03 0.0 
0.0 0.0 -1.078177493492e-03 
-1.200545941931e-03 2.302554044874e-05 0.0 
2.302554044874e-05 7.723131628604e-03 0.0 
0.0 0.0 -1.149140729088e-03 
-1.267685038875e-03 6.016813044477e-05 0.0 
6.016813044477e-05 8.228074956414e-03 0.0 
0.0 0.0 -1.221625961084e-03 
-9.734656256453e-04 9.189307336811e-05 0.0 
9.189307336811e-05 5.749626761027e-03 0.0 
0.0 0.0 -8.638707813346e-04 
-9.480895872449e-04 4.301450456172e-05 0.0 
4.301450456172e-05 5.516146053233e-03 0.0 
0.0 0.0 -8.327709333130e-04 
-1.011335939965e-03 1.092245285963e-04 0.0 
1.092245285963e-04 5.940162525294e-03 0.0 
0.0 0.0 -8.925140200429e-04 
4.463857562194e-04 7.689358174209e-04 0.0 
7.689358174209e-04 8.096987600889e-05 0.0 
0.0 0.0 -2.260095566693e-04 
2.840813490605e-04 4.390350068277e-04 0.0 
4.390350068277e-04 7.817808705326e-06 0.0 
0.0 0.0 -1.250996390425e-04 
-1.210084270230e-03 9.714327804011e-05 0.0 
9.714327804011e-05 7.658599637129e-03 0.0 
0.0 0.0 -1.142090266074e-03 
-7.141279186037e-04 -2.802255352289e-04 0.0 
-2.802255352289e-04 3.181146952729e-03 0.0 
0.0 0.0 -5.006138788623e-04 
-7.694336124780e-04 -2.009358515531e-04 0.0 
-2.009358515531e-04 3.447879024720e-03 0.0 
0.0 0.0 -5.359218444892e-04 
-5.552155606093e-04 -8.313172136283e-04 0.0 
-8.313172136283e-04 1.917610481523e-03 0.0 
0.0 0.0 -3.334096804080e-04 
-5.855222745600e-04 -8.890134040167e-04 0.0 
-8.890134040167e-04 2.304658271308e-03 0.0 
0.0 0.0 -3.985542937016e-04 
-9.453814008689e-04 -4.031453143009e-04 0.0 
-4.031453143009e-04 4.927324523234e-03 0.0 
0.0 0.0 -7.728092966600e-04 
-8.970888917955e-04 -4.820738487373e-04 0.0 
-4.820738487373e-04 4.692923205728e-03 0.0 
0.0 0.0 -7.441750962829e-04 
-1.057585005233e-03 4.777756013197e-04 0.0 
4.777756013197e-04 6.625238408207e-03 0.0 
0.0 0.0 -1.038692069610e-03 
-1.108626014693e-03 4.632490588969e-04 0.0 
4.632490588969e-04 6.908491944325e-03 0.0 
0.0 0.0 -1.074129358999e-03 
-9.418242035971e-04 5.272068290834e-04 0.0 
5.272068290834e-04 6.041038675917e-03 0.0 
0.0 0.0 -9.675620497173e-04 
-6.990392591995e-04 -3.338931181341e-04 0.0 
-3.338931181341e-04 5.500989544803e-03 0.0 
0.0 0.0 -9.439558448496e-04 
-6.028432506679e-04 -3.974427061355e-04 0.0 
-3.974427061355e-04 5.004524485729e-03 0.0 
0.0 0.0 -8.783802297791e-04 
-5.183067816985e-04 -3.360734288677e-04 0.0 
-3.360734288677e-04 4.731806317453e-03 0.0 
0.0 0.0 -8.502765121185e-04 
-1.259796436841e-03 1.397569485309e-04 0.0 
1.397569485309e-04 8.039016122005e-03 0.0 
0.0 0.0 -1.199867006878e-03 
-1.287397602500e-03 1.387283529904e-04 0.0 
1.387283529904e-04 8.359284824254e-03 0.0 
0.0 0.0 -1.242728214876e-03 
-3.379919536494e-04 -1.097545305898e-03 0.0 
-1.097545305898e-03 2.729711593676e-03 0.0 
0.0 0.0 -5.488632449009e-04 
-2.035001513821e-04 -1.112025139158e-03 0.0 
-1.112025139158e-03 2.365560687545e-03 0.0 
0.0 0.0 -5.212126360957e-04 
-5.194133645792e-04 -1.055659007126e-03 0.0 
-1.055659007126e-03 2.949517889644e-03 0.0 
0.0 0.0 -5.390128571062e-04 
-1.267707936259e-03 2.118212896833e-04 0.0 
2.118212896833e-04 8.185373915988e-03 0.0 
0.0 0.0 -1.223056365294e-03 
-1.302765377273e-03 -1.484462634259e-04 0.0 
-1.484462634259e-04 8.004925592989e-03 0.0 
0.0 0.0 -1.224004481682e-03 
-1.287300987604e-03 -2.136982349667e-04 0.0 
-2.136982349667e-04 7.780826338296e-03 0.0 
0.0 0.0 -1.195820777905e-03 
-2.832529258607e-04 -2.494591043419e-04 0.0 
-2.494591043419e-04 1.024201089409e-03 0.0 
0.0 0.0 -1.882176919714e-04 
-3.969707252897e-04 -4.311951738694e-04 0.0 
-4.311951738694e-04 1.271754487823e-03 0.0 
0.0 0.0 -2.310783895037e-04 
2.054226679739e-05 1.347833966380e-03 0.0 
1.347833966380e-03 8.186709947017e-04 0.0 
0.0 0.0 -3.411234323309e-04 
1.823631015032e-04 1.033435563719e-03 0.0 
1.033435563719e-03 3.956751210192e-04 0.0 
0.0 0.0 -2.477306667953e-04 
-1.268592166038e-03 3.040791407146e-04 0.0 
3.040791407146e-04 8.023493563003e-03 0.0 
0.0 0.0 -1.207258722210e-03 
-1.243812686443e-03 3.149820227485e-04 0.0 
3.149820227485e-04 7.787606541598e-03 0.0 
0.0 0.0 -1.172631524865e-03 
-1.292321070540e-03 2.959466161544e-04 0.0 
2.959466161544e-04 8.333939565192e-03 0.0 
0.0 0.0 -1.247471551777e-03 
-5.223015362984e-04 -5.966006200107e-05 0.0 
-5.966006200107e-05 2.388783331191e-03 0.0 
0.0 0.0 -3.801539159394e-04 
-8.682373190693e-04 4.316445998786e-04 0.0 
4.316445998786e-04 6.315487464641e-03 0.0 
0.0 0.0 -1.045322365442e-03 
-1.095327153402e-03 -1.697306701960e-04 0.0 
-1.697306701960e-04 7.466737774382e-03 0.0 
0.0 0.0 -1.207899217314e-03 
-1.032573115176e-03 -1.219439203281e-04 0.0 
-1.219439203281e-04 7.241482983967e-03 0.0 
0.0 0.0 -1.178012378629e-03 
-1.169146255923e-03 -2.121713741949e-04 0.0 
-2.121713741949e-04 7.798947947966e-03 0.0 
0.0 0.0 -1.244624083072e-03 
-9.796999613362e-04 3.385511052295e-04 0.0 
3.385511052295e-04 6.990100956638e-03 0.0 
0.0 0.0 -1.142102124289e-03 
-1.089777783011e-03 3.180765990224e-04 0.0 
3.180765990224e-04 7.453415741070e-03 0.0 
0.0 0.0 -1.205428683694e-03 
-1.118930099946e-03 4.102866827850e-04 0.0 
4.102866827850e-04 7.540265907261e-03 0.0 
0.0 0.0 -1.209323031234e-03 
7.629343076431e-06 -2.863199915616e-06 0.0 
-2.863199915616e-06 -2.105112574007e-06 0.0 
0.0 0.0 -2.367527358182e-06 
-1.243581183883e-03 1.333985162286e-05 0.0 
1.333985162286e-05 8.050404267198e-03 0.0 
0.0 0.0 -1.199992767657e-03 
-9.467227888159e-04 4.157282563709e-05 0.0 
4.157282563709e-05 5.565131892238e-03 0.0 
0.0 0.0 -8.371571859873e-04 
0.0 0.0 0.0 
0.0 0.0 0.0 
0.0 0.0 0.0 
-9.052370495583e-04 2.926470670919e-05 0.0 
2.926470670919e-05 5.359734394624e-03 0.0 
0.0 0.0 -8.070151920887e-04 
-9.464808288455e-04 2.890706983172e-05 0.0 
2.890706983172e-05 5.631422995547e-03 0.0 
0.0 0.0 -8.451615393777e-04 
-8.746039380960e-04 1.411235588614e-05 0.0 
1.411235588614e-05 5.099179134377e-03 0.0 
0.0 0.0 -7.748096441827e-04 
-4.043228169997e-04 -4.987598217760e-05 0.0 
-4.987598217760e-05 1.919858664121e-03 0.0 
0.0 0.0 -3.155299188714e-04 
-9.342623020306e-04 6.996522255594e-05 0.0 
6.996522255594e-05 5.399295489727e-03 0.0 
0.0 0.0 -8.174106193842e-04 
-9.784066260017e-04 9.518359088927e-05 0.0 
9.518359088927e-05 5.690330335138e-03 0.0 
0.0 0.0 -8.556612431672e-04 
-1.892819975809e-04 -2.080284296464e-04 0.0 
-2.080284296464e-04 7.178215811464e-04 0.0 
0.0 0.0 -1.471067669042e-04 
-1.288411893385e-03 2.088493887645e-04 0.0 
2.088493887645e-04 8.418681062039e-03 0.0 
0.0 0.0 -1.259301554906e-03 
-1.756794603790e-04 -1.355890425743e-04 0.0 
-1.355890425743e-04 7.416554994657e-04 0.0 
0.0 0.0 -1.555489432776e-04 
-1.976593762146e-04 -1.418821488879e-04 0.0 
-1.418821488879e-04 9.406849208869e-04 0.0 
0.0 0.0 -1.806578101979e-04 
-1.201046689643e-03 -2.954808681697e-04 0.0 
-2.954808681697e-04 7.775612660441e-03 0.0 
0.0 0.0 -1.221214701962e-03 
-1.189783866574e-03 -3.147730725178e-04 0.0 
-3.147730725178e-04 7.544251850061e-03 0.0 
0.0 0.0 -1.184344882880e-03 
-1.255201532556e-03 -3.138077392023e-04 0.0 
-3.138077392023e-04 7.995797572139e-03 0.0 
0.0 0.0 -1.247726601234e-03 
-1.240131757912e-03 -2.854581707310e-04 0.0 
-2.854581707310e-04 7.755129215709e-03 0.0 
0.0 0.0 -1.211018817991e-03 
-1.178065560448e-03 -3.176973578615e-04 0.0 
-3.176973578615e-04 7.320283461016e-03 0.0 
0.0 0.0 -1.147066289601e-03 
-1.222397278732e-03 -2.815307542264e-04 0.0 
-2.815307542264e-04 7.565615913449e-03 0.0 
0.0 0.0 -1.176490610025e-03 
-9.163713044728e-04 2.842739858528e-05 0.0 
2.842739858528e-05 5.314561917383e-03 0.0 
0.0 0.0 -7.985989294648e-04 
-1.274574997316e-03 -2.683950520862e-04 0.0 
-2.683950520862e-04 8.060277687178e-03 0.0 
0.0 0.0 -1.249018369598e-03 
-1.258852476870e-03 -2.546999081133e-04 0.0 
-2.546999081133e-04 7.798203538470e-03 0.0 
0.0 0.0 -1.207442871744e-03 
-1.315317272271e-03 -2.575611195837e-04 0.0 
-2.575611195837e-04 8.330215412111e-03 0.0 
0.0 0.0 -1.277927415301e-03 
-7.668426714387e-04 3.712502045957e-04 0.0 
3.712502045957e-04 3.884910929190e-03 0.0 
0.0 0.0 -6.108003466767e-04 
-5.473421814769e-04 1.022591756988e-03 0.0 
1.022591756988e-03 2.665785403795e-03 0.0 
0.0 0.0 -4.789358348571e-04 
-5.922456647504e-04 8.887242813561e-04 0.0 
8.887242813561e-04 2.596399578783e-03 0.0 
0.0 0.0 -4.527251363391e-04 
-5.808013297698e-04 8.699366696317e-04 0.0 
8.699366696317e-04 2.240670147384e-03 0.0 
0.0 0.0 -3.875663759467e-04 
-1.238412356123e-03 4.984956173527e-04 0.0 
4.984956173527e-04 8.013994811476e-03 0.0 
0.0 0.0 -1.240180566941e-03 
-1.214337546906e-03 4.975640446935e-04 0.0 
4.975640446935e-04 7.772501925276e-03 0.0 
0.0 0.0 -1.200590015451e-03 
-1.243705293709e-03 -9.256877991256e-05 0.0 
-9.256877991256e-05 7.122808590461e-03 0.0 
0.0 0.0 -1.087555896896e-03 
-1.202734584511e-03 -9.601844950182e-05 0.0 
-9.601844950182e-05 6.680089324953e-03 0.0 
0.0 0.0 -1.020738973070e-03 
-9.185583597048e-04 2.613338660199e-05 0.0 
2.613338660199e-05 5.392223531156e-03 0.0 
0.0 0.0 -8.108182148135e-04 
-9.103297472006e-04 4.766877897124e-06 0.0 
4.766877897124e-06 5.361690236980e-03 0.0 
0.0 0.0 -8.077352941366e-04 
-9.704696328324e-04 5.332193735867e-05 0.0 
5.332193735867e-05 5.783610110985e-03 0.0 
0.0 0.0 -8.678526801547e-04 
-9.618865758326e-04 7.689592341134e-06 0.0 
7.689592341134e-06 5.712312077429e-03 0.0 
0.0 0.0 -8.609153521579e-04 
-1.020016484653e-03 5.295869978670e-05 0.0 
5.295869978670e-05 6.152608316973e-03 0.0 
0.0 0.0 -9.200517378055e-04 
-1.001436562516e-03 -1.946934861068e-08 0.0 
-1.946934861068e-08 6.084870222159e-03 0.0 
0.0 0.0 -9.108947733944e-04 
-1.057814937538e-03 -6.724482469216e-06 0.0 
-6.724482469216e-06 6.510312548520e-03 0.0 
0.0 0.0 -9.726914458129e-04 
-1.190361938599e-03 4.676934084708e-04 0.0 
4.676934084708e-04 7.866637693242e-03 0.0 
0.0 0.0 -1.245087786853e-03 
-4.581667400111e-04 1.150309043721e-03 0.0 
1.150309043721e-03 1.644170079222e-03 0.0 
0.0 0.0 -3.403956918982e-04 
-8.293555136529e-04 2.952524372658e-04 0.0 
2.952524372658e-04 4.373371002006e-03 0.0 
0.0 0.0 -6.783069842581e-04 
-1.085846180975e-03 1.458307871503e-04 0.0 
1.458307871503e-04 7.572950528203e-03 0.0 
0.0 0.0 -1.228261380050e-03 
-1.024461005777e-03 9.563818815218e-05 0.0 
9.563818815218e-05 7.266751936821e-03 0.0 
0.0 0.0 -1.187396807988e-03 
-7.405303751490e-04 5.124973243675e-04 0.0 
5.124973243675e-04 3.741532766096e-03 0.0 
0.0 0.0 -6.000944487132e-04 
-7.031319460548e-04 4.876864875037e-04 0.0 
4.876864875037e-04 3.366473116495e-03 0.0 
0.0 0.0 -5.401620014017e-04 
-1.203049851257e-03 -2.728203523462e-04 0.0 
-2.728203523462e-04 7.833657430654e-03 0.0 
0.0 0.0 -1.238794375355e-03 
-3.075916606640e-04 1.045868666668e-03 0.0 
1.045868666668e-03 2.766977509803e-03 0.0 
0.0 0.0 -5.600314934590e-04 
-1.321820784768e-03 2.376560243328e-04 0.0 
2.376560243328e-04 8.684022372100e-03 0.0 
0.0 0.0 -1.295459716840e-03 
1.477011241759e-06 4.358298770145e-06 0.0 
4.358298770145e-06 8.908916257879e-07 0.0 
0.0 0.0 -1.014815514663e-06 
5.703109316316e-05 8.792005076422e-05 0.0 
8.792005076422e-05 -2.011421540064e-08 0.0 
0.0 0.0 -2.443327669190e-05 
-4.154706477079e-04 9.854771448034e-04 0.0 
9.854771448034e-04 3.145205208474e-03 0.0 
0.0 0.0 -5.969207367497e-04 
-7.802351733359e-04 5.259462622455e-04 0.0 
5.259462622455e-04 4.139237033551e-03 0.0 
0.0 0.0 -6.620222007989e-04 
-5.930037626935e-04 8.942073818617e-04 0.0 
8.942073818617e-04 2.971985586365e-03 0.0 
0.0 0.0 -5.157319100482e-04 
-6.206001126180e-04 7.748692012147e-04 0.0 
7.748692012147e-04 2.918912415158e-03 0.0 
0.0 0.0 -4.917183783407e-04 
-7.966812031951e-04 -2.794519072728e-04 0.0 
-2.794519072728e-04 6.003025537970e-03 0.0 
0.0 0.0 -1.010552660601e-03 
-3.204615651146e-04 -4.841454347256e-04 0.0 
-4.841454347256e-04 1.065843889916e-03 0.0 
0.0 0.0 -2.207468123314e-04 
-1.976838392314e-04 1.419132631860e-03 0.0 
1.419132631860e-03 1.245736136353e-03 0.0 
0.0 0.0 -3.729799092550e-04 
-1.062224956052e-03 6.282474994029e-05 0.0 
6.282474994029e-05 6.566502947635e-03 0.0 
0.0 0.0 -9.796923013958e-04 
-9.725104983260e-05 1.193422917781e-03 0.0 
1.193422917781e-03 9.454912755048e-04 0.0 
0.0 0.0 -3.472462715210e-04 
-1.226995326804e-03 -4.519473023836e-05 0.0 
-4.519473023836e-05 6.918120984331e-03 0.0 
0.0 0.0 -1.055800198362e-03 
-2.361841982036e-04 9.051937591691e-04 0.0 
9.051937591691e-04 2.839450438954e-03 0.0 
0.0 0.0 -5.891999696964e-04 
-7.588500349801e-04 6.513356924725e-04 0.0 
6.513356924725e-04 4.370877970735e-03 0.0 
0.0 0.0 -7.153500975001e-04 
-2.731612567135e-04 1.485424847436e-03 0.0 
1.485424847436e-03 1.576968026293e-03 0.0 
0.0 0.0 -3.843598907912e-04 
-4.773970402082e-04 1.083331247294e-03 0.0 
1.083331247294e-03 2.715302459171e-03 0.0 
0.0 0.0 -5.080103017801e-04 
-9.857070044825e-04 3.514582932795e-04 0.0 
3.514582932795e-04 5.605984683384e-03 0.0 
0.0 0.0 -8.638580894607e-04 
-9.566672598969e-04 2.556664326387e-04 0.0 
2.556664326387e-04 5.284930257865e-03 0.0 
0.0 0.0 -8.086477316853e-04 
-9.204142732436e-04 2.914181473186e-04 0.0 
2.914181473186e-04 5.036403952363e-03 0.0 
0.0 0.0 -7.738406155292e-04 
-1.852699916538e-04 7.169474657993e-04 0.0 
7.169474657993e-04 2.938478129515e-03 0.0 
0.0 0.0 -6.178822433291e-04 
-6.660603751627e-04 6.775511204911e-04 0.0 
6.775511204911e-04 3.201224465995e-03 0.0 
0.0 0.0 -5.288330985435e-04 
-6.329538447596e-04 6.262438341605e-04 0.0 
6.262438341605e-04 2.783574178796e-03 0.0 
0.0 0.0 -4.617239487405e-04 
-9.084122990405e-04 4.766608561051e-04 0.0 
4.766608561051e-04 5.217677913222e-03 0.0 
0.0 0.0 -8.213029907542e-04 
-1.196636206004e-03 2.937722451120e-04 0.0 
2.937722451120e-04 7.346814907567e-03 0.0 
0.0 0.0 -1.107475121065e-03 
-1.218143538823e-03 3.322225839887e-04 0.0 
3.322225839887e-04 7.523071285648e-03 0.0 
0.0 0.0 -1.136341617999e-03 
-1.260255205402e-03 3.483848197279e-04 0.0 
3.483848197279e-04 7.943523748013e-03 0.0 
0.0 0.0 -1.199268560344e-03 
-1.236398534658e-03 3.622286970254e-04 0.0 
3.622286970254e-04 7.698663143048e-03 0.0 
0.0 0.0 -1.164598082371e-03 
-1.187519623503e-03 3.369788044843e-04 0.0 
3.369788044843e-04 7.262535120341e-03 0.0 
0.0 0.0 -1.100413285504e-03 
-1.201927894883e-03 3.622228794556e-04 0.0 
3.622228794556e-04 7.428935513365e-03 0.0 
0.0 0.0 -1.129075729544e-03 
-1.251749756802e-03 4.013558701664e-04 0.0 
4.013558701664e-04 7.861186353057e-03 0.0 
0.0 0.0 -1.193594387005e-03 
-1.212961772203e-03 4.013424172495e-04 0.0 
4.013424172495e-04 7.607641408015e-03 0.0 
0.0 0.0 -1.159256375294e-03 
-1.275748773412e-03 4.170784326894e-04 0.0 
4.170784326894e-04 8.123816889762e-03 0.0 
0.0 0.0 -1.234286862126e-03 
-1.231663961214e-03 4.170891063283e-04 0.0 
4.170891063283e-04 7.767346293695e-03 0.0 
0.0 0.0 -1.187309181180e-03 
-1.180167111311e-03 4.146130725523e-04 0.0 
4.146130725523e-04 7.319280806481e-03 0.0 
0.0 0.0 -1.120864512401e-03 
-1.199520853126e-03 4.394329503130e-04 0.0 
4.394329503130e-04 7.469647570104e-03 0.0 
0.0 0.0 -1.147759711419e-03 
-1.246114513889e-03 4.512851502766e-04 0.0 
4.512851502766e-04 7.897003429628e-03 0.0 
0.0 0.0 -1.207767947030e-03 
-1.142819753357e-03 4.230226692438e-04 0.0 
4.230226692438e-04 7.034885546341e-03 0.0 
0.0 0.0 -1.082593982084e-03 
-1.161095070267e-03 2.120867803638e-04 0.0 
2.120867803638e-04 7.844111974654e-03 0.0 
0.0 0.0 -1.264544343569e-03 
-4.552882566461e-04 8.672081112126e-04 0.0 
8.672081112126e-04 3.584015933420e-03 0.0 
0.0 0.0 -6.621140475474e-04 
8.972285469528e-05 5.488704469766e-05 0.0 
5.488704469766e-05 -2.086067995893e-05 0.0 
0.0 0.0 -2.951236060129e-05 
1.917573457574e-04 3.907910126935e-04 0.0 
3.907910126935e-04 4.076022718458e-05 0.0 
0.0 0.0 -9.965038840371e-05 
-8.122559684108e-04 5.858127476170e-04 0.0 
5.858127476170e-04 4.660958103986e-03 0.0 
0.0 0.0 -7.509174086159e-04 
-1.326294875917e-03 4.475525367279e-04 0.0 
4.475525367279e-04 8.581090605175e-03 0.0 
0.0 0.0 -1.299806302097e-03 
-1.329372981724e-03 3.864120920022e-04 0.0 
3.864120920022e-04 8.651254845127e-03 0.0 
0.0 0.0 -1.301753673823e-03 
-4.221749795591e-05 1.054957827846e-03 0.0 
1.054957827846e-03 1.947401467081e-03 0.0 
0.0 0.0 -4.895692906686e-04 
-1.300820539860e-03 5.169294240401e-04 0.0 
5.169294240401e-04 8.431520987084e-03 0.0 
0.0 0.0 -1.303413959896e-03 
-9.359328158380e-04 3.353086376080e-04 0.0 
3.353086376080e-04 5.191229383814e-03 0.0 
0.0 0.0 -8.012154088905e-04 
4.071496828873e-04 9.026633654341e-04 0.0 
9.026633654341e-04 4.347728874957e-04 0.0 
0.0 0.0 -3.242207140944e-04 
-1.286592464162e-03 4.887471459282e-04 0.0 
4.887471459282e-04 8.354700830031e-03 0.0 
0.0 0.0 -1.304286792737e-03 
-1.166816141077e-03 3.067295782393e-04 0.0 
3.067295782393e-04 7.086165986606e-03 0.0 
0.0 0.0 -1.071440646998e-03 
-1.135318690764e-03 3.102645881689e-04 0.0 
3.102645881689e-04 6.820307156207e-03 0.0 
0.0 0.0 -1.034857077839e-03 
-1.114281868751e-03 2.783252876259e-04 0.0 
2.783252876259e-04 6.647188393663e-03 0.0 
0.0 0.0 -1.006057961993e-03 
-1.324485485700e-03 3.178425552296e-04 0.0 
3.178425552296e-04 8.703712057523e-03 0.0 
0.0 0.0 -1.305867370806e-03 
-1.046143216171e-03 1.338104735178e-04 0.0 
1.338104735178e-04 6.142970752386e-03 0.0 
0.0 0.0 -9.232948652302e-04 
-1.261216399776e-03 3.398370476000e-04 0.0 
3.398370476000e-04 8.240407625413e-03 0.0 
0.0 0.0 -1.306016332489e-03 
-5.621352130883e-04 2.402614077322e-04 0.0 
2.402614077322e-04 5.104076155106e-03 0.0 
0.0 0.0 -9.039903713831e-04 
-5.421821752565e-04 3.626261890118e-04 0.0 
3.626261890118e-04 4.916919296443e-03 0.0 
0.0 0.0 -8.747633066757e-04 
-4.482553543368e-04 4.245528232913e-04 0.0 
4.245528232913e-04 4.423341595392e-03 0.0 
0.0 0.0 -8.101682821885e-04 
-1.166183845535e-03 3.746000758126e-04 0.0 
3.746000758126e-04 7.154603019155e-03 0.0 
0.0 0.0 -1.092245366321e-03 
-1.243382207926e-03 7.139344382452e-05 0.0 
7.139344382452e-05 8.142027759390e-03 0.0 
0.0 0.0 -1.302677999426e-03 
-1.139163622892e-03 1.899260328228e-05 0.0 
1.899260328228e-05 7.738811355617e-03 0.0 
0.0 0.0 -1.248400714067e-03 
-1.139179700515e-03 -5.832838074802e-05 0.0 
-5.832838074802e-05 7.742835606473e-03 0.0 
0.0 0.0 -1.248426544684e-03 
-1.042171814045e-03 -2.067620167567e-05 0.0 
-2.067620167567e-05 7.300450465494e-03 0.0 
0.0 0.0 -1.189114855724e-03 
-1.245046049368e-03 -7.954937012982e-05 0.0 
-7.954937012982e-05 8.162015620032e-03 0.0 
0.0 0.0 -1.303398793257e-03 
-1.319024606982e-03 4.879947495646e-04 0.0 
4.879947495646e-04 8.553889678550e-03 0.0 
0.0 0.0 -1.306665994082e-03 
-1.318629781647e-03 5.032233232110e-04 0.0 
5.032233232110e-04 8.531113616169e-03 0.0 
0.0 0.0 -1.308500709484e-03 
-1.457969009565e-04 -1.297624687323e-03 0.0 
-1.297624687323e-03 1.878942347425e-03 0.0 
0.0 0.0 -4.564773689951e-04 
-5.360535394488e-05 -1.060749340558e-03 0.0 
-1.060749340558e-03 1.980128638088e-03 0.0 
0.0 0.0 -4.934415926888e-04 
-1.381226460422e-04 -8.991719374826e-04 0.0 
-8.991719374826e-04 2.497431923997e-03 0.0 
0.0 0.0 -5.576035839405e-04 
-3.423707423500e-07 -7.630300989339e-04 0.0 
-7.630300989339e-04 2.133066083266e-03 0.0 
0.0 0.0 -5.298816096007e-04 
1.060874476646e-04 -9.079592115861e-04 0.0 
-9.079592115861e-04 1.571356760192e-03 0.0 
0.0 0.0 -4.652367627802e-04 
1.299766153745e-04 -5.238021949006e-04 0.0 
-5.238021949006e-04 1.775343023360e-03 0.0 
0.0 0.0 -5.016361848483e-04 
8.113068861588e-06 -4.523118756860e-04 0.0 
-4.523118756860e-04 2.346566463626e-03 0.0 
0.0 0.0 -5.657331850765e-04 
2.333464364560e-04 -1.778074880060e-04 0.0 
-1.778074880060e-04 1.448473809503e-03 0.0 
0.0 0.0 -4.731795164401e-04 
-1.159968055748e-03 4.654058109210e-04 0.0 
4.654058109210e-04 7.343744264572e-03 0.0 
0.0 0.0 -1.138512926666e-03 
-1.264954689887e-03 -1.904964022353e-04 0.0 
-1.904964022353e-04 8.221334432808e-03 0.0 
0.0 0.0 -1.305779161548e-03 
-7.747711705181e-04 -5.121765711313e-04 0.0 
-5.121765711313e-04 5.367910934867e-03 0.0 
0.0 0.0 -9.007942405787e-04 
-6.889420890608e-04 -5.209139520464e-04 0.0 
-5.209139520464e-04 5.083313389568e-03 0.0 
0.0 0.0 -8.713600568839e-04 
-6.090575816933e-04 -6.078858301865e-04 0.0 
-6.078858301865e-04 4.604339507385e-03 0.0 
0.0 0.0 -8.059887332522e-04 
-8.449920134059e-04 -5.153788440303e-04 0.0 
-5.153788440303e-04 4.260095117302e-03 0.0 
0.0 0.0 -6.781883600425e-04 
-8.428803748540e-04 -5.674043660998e-04 0.0 
-5.674043660998e-04 4.450165882994e-03 0.0 
0.0 0.0 -7.153987595530e-04 
-8.942422948913e-04 -5.207798333702e-04 0.0 
-5.207798333702e-04 4.885926297656e-03 0.0 
0.0 0.0 -7.812419408864e-04 
-8.377845004557e-04 -4.501363391243e-04 0.0 
-4.501363391243e-04 4.061067246097e-03 0.0 
0.0 0.0 -6.407943132712e-04 
-8.608991234260e-04 5.183985589951e-04 0.0 
5.183985589951e-04 6.008926334250e-03 0.0 
0.0 0.0 -9.876394229526e-04 
-1.270638922106e-03 -2.525883056993e-04 0.0 
-2.525883056993e-04 8.245623635122e-03 0.0 
0.0 0.0 -1.305003056577e-03 
-5.449120924268e-04 -2.038340280130e-04 0.0 
-2.038340280130e-04 4.976604129178e-03 0.0 
0.0 0.0 -8.871663004355e-04 
-7.828155216857e-04 -6.575282962370e-04 0.0 
-6.575282962370e-04 4.196243675374e-03 0.0 
0.0 0.0 -6.865966444657e-04 
-8.908351355140e-04 9.702867664421e-05 0.0 
9.702867664421e-05 4.953510345307e-03 0.0 
0.0 0.0 -7.516786372745e-04 
-9.428178873818e-04 1.510891929034e-04 0.0 
1.510891929034e-04 5.341754956276e-03 0.0 
0.0 0.0 -8.094822736869e-04 
-9.489012184647e-04 1.441944320473e-04 0.0 
1.441944320473e-04 5.346848053026e-03 0.0 
0.0 0.0 -8.097394517040e-04 
-9.928370876702e-04 1.565528389037e-04 0.0 
1.565528389037e-04 5.757287346966e-03 0.0 
0.0 0.0 -8.733121467894e-04 
-9.420662265250e-04 8.672453308222e-05 0.0 
8.672453308222e-05 5.390349708032e-03 0.0 
0.0 0.0 -8.155917408702e-04 
-9.920889169566e-04 -3.299549002211e-04 0.0 
-3.299549002211e-04 5.156290872581e-03 0.0 
0.0 0.0 -8.015266587451e-04 
-1.034393455446e-03 -2.593382357018e-04 0.0 
-2.593382357018e-04 5.377589720533e-03 0.0 
0.0 0.0 -8.302790088839e-04 
-1.016724768056e-03 -2.052940986145e-04 0.0 
-2.052940986145e-04 5.161883654298e-03 0.0 
0.0 0.0 -7.937858958383e-04 
-1.069749204098e-03 -1.931193338339e-04 0.0 
-1.931193338339e-04 5.589690211797e-03 0.0 
0.0 0.0 -8.590670690980e-04 
-1.045250008444e-03 -1.524643402440e-04 0.0 
-1.524643402440e-04 5.354709247412e-03 0.0 
0.0 0.0 -8.213578559547e-04 
-9.891061891856e-04 -1.661511418362e-04 0.0 
-1.661511418362e-04 4.952759689804e-03 0.0 
0.0 0.0 -7.608744282309e-04 
-1.097326614700e-03 -1.343981642378e-04 0.0 
-1.343981642378e-04 5.787368511626e-03 0.0 
0.0 0.0 -8.866101721103e-04 
-1.072266853954e-03 -7.465649989587e-05 0.0 
-7.465649989587e-05 5.530930704335e-03 0.0 
0.0 0.0 -8.437388122980e-04 
-8.749604405334e-04 5.210753762548e-05 0.0 
5.210753762548e-05 4.958547900325e-03 0.0 
0.0 0.0 -7.509531518293e-04 
2.931250951271e-05 -1.468193730782e-04 0.0 
-1.468193730782e-04 5.197092075325e-05 0.0 
0.0 0.0 -3.483575582827e-05 
8.911840808785e-05 -5.611142441010e-04 0.0 
-5.611142441010e-04 2.292660682549e-04 0.0 
0.0 0.0 -1.364504898612e-04 
-1.613477578931e-05 -6.217163821683e-04 0.0 
-6.217163821683e-04 4.356228314527e-04 0.0 
0.0 0.0 -1.797805952843e-04 
7.026081585524e-05 -9.442279566568e-04 0.0 
-9.442279566568e-04 4.994486354165e-04 0.0 
0.0 0.0 -2.441611934022e-04 
2.189035585349e-04 -7.936262830972e-04 0.0 
-7.936262830972e-04 2.241675290565e-04 0.0 
0.0 0.0 -1.898876089678e-04 
1.395294056137e-04 -1.221624346892e-03 0.0 
-1.221624346892e-03 5.704290544817e-04 0.0 
0.0 0.0 -3.042679114694e-04 
3.315217795862e-04 -9.867447375553e-04 0.0 
-9.867447375553e-04 2.187882668786e-04 0.0 
0.0 0.0 -2.358471627707e-04 
1.282773509924e-04 -3.069727312294e-04 0.0 
-3.069727312294e-04 5.087018620754e-05 0.0 
0.0 0.0 -7.677751594282e-05 
7.207324065744e-06 -2.363709633052e-04 0.0 
-2.363709633052e-04 2.192194981731e-04 0.0 
0.0 0.0 -7.709394943614e-05 
-1.151589919320e-04 -5.038932235898e-04 0.0 
-5.038932235898e-04 5.668379900610e-04 0.0 
0.0 0.0 -1.836804426236e-04 
6.886756343239e-05 -1.585111183501e-04 0.0 
-1.585111183501e-04 2.318919381609e-04 0.0 
0.0 0.0 -9.135678087991e-05 
-1.673787199121e-04 -3.772506028182e-04 0.0 
-3.772506028182e-04 6.235391984471e-04 0.0 
0.0 0.0 -1.587652100407e-04 
-2.237013217840e-04 -7.835370290226e-04 0.0 
-7.835370290226e-04 9.699234306887e-04 0.0 
0.0 0.0 -2.864776706126e-04 
-5.080022175142e-04 -5.846720249242e-04 0.0 
-5.846720249242e-04 1.713553650264e-03 0.0 
0.0 0.0 -2.934437995798e-04 
-1.342924257900e-03 -1.540329825018e-04 0.0 
-1.540329825018e-04 8.463979425849e-03 0.0 
0.0 0.0 -1.294874803588e-03 
-9.061604714287e-04 -5.353468138170e-05 0.0 
-5.353468138170e-05 4.292677537748e-03 0.0 
0.0 0.0 -6.595503360071e-04 
-8.748353904416e-04 -9.535674848835e-05 0.0 
-9.535674848835e-05 4.090451847143e-03 0.0 
0.0 0.0 -6.264797819744e-04 
-7.893986596546e-04 -8.988273420556e-05 0.0 
-8.988273420556e-05 3.635662269298e-03 0.0 
0.0 0.0 -5.641716646261e-04 
-8.342340843015e-04 -1.796315714393e-04 0.0 
-1.796315714393e-04 3.876399492582e-03 0.0 
0.0 0.0 -5.974662984275e-04 
-9.399601535283e-04 -9.182592719562e-05 0.0 
-9.182592719562e-05 4.459086163681e-03 0.0 
0.0 0.0 -6.865721209800e-04 
-7.450408717977e-04 -3.664071909045e-05 0.0 
-3.664071909045e-05 3.403705623677e-03 0.0 
0.0 0.0 -5.286920563404e-04 
-7.105002771536e-04 -7.510162605901e-05 0.0 
-7.510162605901e-05 3.252942810076e-03 0.0 
0.0 0.0 -5.038291843518e-04 
2.325749099429e-04 -4.761135021306e-06 0.0 
-4.761135021306e-06 2.014467207446e-04 0.0 
0.0 0.0 -1.098683528668e-04 
-2.992668304113e-05 -2.428217344695e-05 0.0 
-2.428217344695e-05 6.247499294921e-04 0.0 
0.0 0.0 -1.462425310096e-04 
1.120520427136e-05 2.490769659488e-05 0.0 
2.490769659488e-05 5.748679317617e-04 0.0 
0.0 0.0 -1.469788961115e-04 
-1.839676854865e-04 -1.370350569834e-05 0.0 
-1.370350569834e-05 1.050348992839e-03 0.0 
0.0 0.0 -1.976702944042e-04 
-1.665493073749e-04 -4.078238753771e-05 0.0 
-4.078238753771e-05 1.038427513794e-03 0.0 
0.0 0.0 -1.960684762570e-04 
-2.740272711721e-05 -1.675532894322e-05 0.0 
-1.675532894322e-05 6.301608269895e-04 0.0 
0.0 0.0 -1.451566722079e-04 
-4.295295916181e-05 -1.396627582879e-05 0.0 
-1.396627582879e-05 6.314478061460e-04 0.0 
0.0 0.0 -1.432903851643e-04 
2.178107760258e-04 -4.669961674357e-06 0.0 
-4.669961674357e-06 1.968060237393e-04 0.0 
0.0 0.0 -1.026933745538e-04 
-6.199861096773e-05 -4.121287758313e-05 0.0 
-4.121287758313e-05 6.332661626784e-04 0.0 
0.0 0.0 -1.376693440338e-04 
-1.958490001476e-04 -5.849411118292e-05 0.0 
-5.849411118292e-05 1.056235548644e-03 0.0 
0.0 0.0 -1.994574706984e-04 
2.194500295117e-04 -1.953547163157e-05 0.0 
-1.953547163157e-05 1.758186835889e-04 0.0 
0.0 0.0 -9.526841721624e-05 
-1.134405852345e-03 -1.685214623059e-05 0.0 
-1.685214623059e-05 7.114171974622e-03 0.0 
0.0 0.0 -1.060427308513e-03 
-1.169096287658e-03 2.563616812788e-06 0.0 
2.563616812788e-06 7.355225522955e-03 0.0 
0.0 0.0 -1.097082233180e-03 
-1.287656187300e-03 -3.057563853945e-04 0.0 
-3.057563853945e-04 8.295106043806e-03 0.0 
0.0 0.0 -1.300897016293e-03 
-8.709102074234e-04 1.634655957137e-05 0.0 
1.634655957137e-05 5.013561359335e-03 0.0 
0.0 0.0 -7.584009903415e-04 
6.085248323127e-05 -7.529385077948e-05 0.0 
-7.529385077948e-05 2.498450074273e-04 0.0 
0.0 0.0 -6.778662807072e-05 
-1.318321890589e-03 9.119227365238e-05 0.0 
9.119227365238e-05 8.702564910127e-03 0.0 
0.0 0.0 -1.292107529982e-03 
-1.321891599576e-03 1.523434658018e-04 0.0 
1.523434658018e-04 8.753789560532e-03 0.0 
0.0 0.0 -1.303172775453e-03 
-1.317386328466e-03 1.502744807486e-04 0.0 
1.502744807486e-04 8.760593080467e-03 0.0 
0.0 0.0 -1.304823151597e-03 
-1.303300137320e-03 -3.518320858820e-05 0.0 
-3.518320858820e-05 7.809809152570e-03 0.0 
0.0 0.0 -1.191058493115e-03 
-1.309915312802e-03 -8.055064126037e-05 0.0 
-8.055064126037e-05 8.016669059363e-03 0.0 
0.0 0.0 -1.224322658093e-03 
-1.321803447330e-03 5.837335499168e-05 0.0 
5.837335499168e-05 8.713282635678e-03 0.0 
0.0 0.0 -1.294569364341e-03 
-6.481855202900e-04 -6.246003181782e-04 0.0 
-6.246003181782e-04 2.746907491681e-03 0.0 
0.0 0.0 -4.512809064328e-04 
-1.269733092336e-03 3.949450849478e-04 0.0 
3.949450849478e-04 8.134082373248e-03 0.0 
0.0 0.0 -1.225740639889e-03 
-1.236917440076e-03 9.455704594097e-05 0.0 
9.455704594097e-05 7.907876475173e-03 0.0 
0.0 0.0 -1.178628832109e-03 
2.863499120991e-04 1.225469476951e-03 0.0 
1.225469476951e-03 5.011020420815e-04 0.0 
0.0 0.0 -3.087973448475e-04 
-5.572892816396e-04 -1.058232484237e-03 0.0 
-1.058232484237e-03 2.439571083886e-03 0.0 
0.0 0.0 -4.373623857420e-04 
-1.169344627949e-03 -1.527368028486e-04 0.0 
-1.527368028486e-04 6.463252890075e-03 0.0 
0.0 0.0 -9.899674718230e-04 
-1.002156622739e-03 -4.217657770794e-04 0.0 
-4.217657770794e-04 5.766816978775e-03 0.0 
0.0 0.0 -9.123979313600e-04 
-1.240362622181e-03 -2.107518773901e-04 0.0 
-2.107518773901e-04 7.344433125846e-03 0.0 
0.0 0.0 -1.130390451587e-03 
-1.097029052933e-03 -2.727822285369e-04 0.0 
-2.727822285369e-04 6.025349028311e-03 0.0 
0.0 0.0 -9.322225209316e-04 
-1.160816713283e-03 -2.966491095374e-04 0.0 
-2.966491095374e-04 6.897592609693e-03 0.0 
0.0 0.0 -1.073123358692e-03 
-1.146188823319e-03 -9.619145093431e-05 0.0 
-9.619145093431e-05 7.734668514319e-03 0.0 
0.0 0.0 -1.244129926109e-03 
-3.611510593238e-04 -8.758097138839e-05 0.0 
-8.758097138839e-05 1.751553404855e-03 0.0 
0.0 0.0 -2.939217362394e-04 
-1.042524547902e-03 8.542519018607e-05 0.0 
8.542519018607e-05 6.249309917826e-03 0.0 
0.0 0.0 -9.364826870394e-04 
-1.011646579925e-03 4.950052888461e-05 0.0 
4.950052888461e-05 6.088183350352e-03 0.0 
0.0 0.0 -9.130351872960e-04 
-1.156492778501e-03 8.389467150956e-05 0.0 
8.389467150956e-05 7.209321502601e-03 0.0 
0.0 0.0 -1.075939795031e-03 
-6.797233321873e-04 -3.445526981405e-04 0.0 
-3.445526981405e-04 2.970604433142e-03 0.0 
0.0 0.0 -4.709579147287e-04 
-9.579355913964e-04 -2.329193078104e-04 0.0 
-2.329193078104e-04 4.740187249377e-03 0.0 
0.0 0.0 -7.304257169629e-04 
-4.699094320929e-04 -2.864685390476e-04 0.0 
-2.864685390476e-04 1.870719163436e-03 0.0 
0.0 0.0 -3.104331955072e-04 
-1.225720132749e-03 4.922764523725e-04 0.0 
4.922764523725e-04 8.004298524687e-03 0.0 
0.0 0.0 -1.251461238623e-03 
-8.642142966185e-04 4.736706847914e-04 0.0 
4.736706847914e-04 4.810262753378e-03 0.0 
0.0 0.0 -7.590395520047e-04 
-6.299061308779e-04 -6.905248015396e-04 0.0 
-6.905248015396e-04 4.426299320179e-03 0.0 
0.0 0.0 -7.694287042311e-04 
-7.912081179997e-04 -5.380011954616e-04 0.0 
-5.380011954616e-04 3.827422774339e-03 0.0 
0.0 0.0 -6.120242822960e-04 
-6.551443874445e-04 -7.576014874881e-04 0.0 
-7.576014874881e-04 2.929641818478e-03 0.0 
0.0 0.0 -4.894362539292e-04 
-4.890802463817e-04 -1.241731719978e-03 0.0 
-1.241731719978e-03 2.147525315431e-03 0.0 
0.0 0.0 -4.100935076628e-04 
-5.488809187293e-04 8.195138113053e-04 0.0 
8.195138113053e-04 3.940420057434e-03 0.0 
0.0 0.0 -6.990242139688e-04 
-7.645737241242e-04 -6.835179970588e-04 0.0 
-6.835179970588e-04 4.369038504805e-03 0.0 
0.0 0.0 -7.237531747479e-04 
-9.990166317683e-04 -3.989427530334e-04 0.0 
-3.989427530334e-04 6.371965153356e-03 0.0 
0.0 0.0 -1.024340108609e-03 
-1.185317591363e-03 7.742475138516e-05 0.0 
7.742475138516e-05 7.460446495103e-03 0.0 
0.0 0.0 -1.112552678551e-03 
1.197712392318e-04 -3.148981806786e-05 0.0 
-3.148981806786e-05 2.711258731277e-04 0.0 
0.0 0.0 -9.959518537181e-05 
-1.003340353985e-03 -3.675015482303e-04 0.0 
-3.675015482303e-04 6.579336743889e-03 0.0 
0.0 0.0 -1.061672265243e-03 
-8.749171253014e-04 -5.429443966133e-04 0.0 
-5.429443966133e-04 5.259260617559e-03 0.0 
0.0 0.0 -8.552253422611e-04 
-1.075058534600e-03 1.329625948637e-04 0.0 
1.329625948637e-04 6.404878824914e-03 0.0 
0.0 0.0 -9.599091010803e-04 
-8.098069298724e-04 1.009136731454e-04 0.0 
1.009136731454e-04 6.303475721426e-03 0.0 
0.0 0.0 -1.062640036239e-03 
-7.822393088759e-05 -1.437936820334e-03 0.0 
-1.437936820334e-03 1.036179245632e-03 0.0 
0.0 0.0 -3.732485265440e-04 
-1.183046367818e-03 1.393767940647e-04 0.0 
1.393767940647e-04 7.358067127657e-03 0.0 
0.0 0.0 -1.098747615487e-03 
-1.275160361241e-03 2.646540278175e-04 0.0 
2.646540278175e-04 8.092932724066e-03 0.0 
0.0 0.0 -1.212453547082e-03 
-1.010608018996e-03 1.134796452945e-04 0.0 
1.134796452945e-04 5.876477578498e-03 0.0 
0.0 0.0 -8.875094802107e-04 
-3.432304284614e-04 -2.023305734104e-04 0.0 
-2.023305734104e-04 1.413096543350e-03 0.0 
0.0 0.0 -2.442495876194e-04 
-9.871354508553e-04 6.543929527951e-05 0.0 
6.543929527951e-05 5.785148960874e-03 0.0 
0.0 0.0 -8.692469099983e-04 
-1.129933755956e-03 -2.589669323117e-04 0.0 
-2.589669323117e-04 7.495462082173e-03 0.0 
0.0 0.0 -1.202705989510e-03 
-1.175984421816e-03 2.539870060864e-04 0.0 
2.539870060864e-04 7.167724276723e-03 0.0 
0.0 0.0 -1.078220320736e-03 
-6.238127593336e-04 -2.578427228971e-04 0.0 
-2.578427228971e-04 2.729809833616e-03 0.0 
0.0 0.0 -4.336020471383e-04 
-3.693103125981e-04 -1.184898620339e-04 0.0 
-1.184898620339e-04 4.215512874596e-03 0.0 
0.0 0.0 -7.943514531093e-04 
-7.354883692347e-04 6.882867699016e-04 0.0 
6.882867699016e-04 4.480048918178e-03 0.0 
0.0 0.0 -7.428158978947e-04 
-8.300346150545e-04 1.997478973446e-04 0.0 
1.997478973446e-04 4.462946677923e-03 0.0 
0.0 0.0 -6.865907729104e-04 
-1.263662037140e-03 1.212955651983e-04 0.0 
1.212955651983e-04 8.095770653682e-03 0.0 
0.0 0.0 -1.206557591227e-03 
-5.452830500886e-04 5.833267200760e-04 0.0 
5.833267200760e-04 4.601923753795e-03 0.0 
0.0 0.0 -8.172945450071e-04 
-9.138715469007e-04 -2.809485115349e-05 0.0 
-2.809485115349e-05 6.748408724194e-03 0.0 
0.0 0.0 -1.120054252910e-03 
-5.855153319979e-04 -8.409325156636e-05 0.0 
-8.409325156636e-05 5.239197065772e-03 0.0 
0.0 0.0 -9.240809108919e-04 
-6.615538158736e-04 -2.024673927750e-04 0.0 
-2.024673927750e-04 2.941778370234e-03 0.0 
0.0 0.0 -4.629711029823e-04 
-1.130081472427e-03 -3.415372177863e-04 0.0 
-3.415372177863e-04 7.089023572073e-03 0.0 
0.0 0.0 -1.118919378802e-03 
-3.597542210602e-04 3.380969491909e-04 0.0 
3.380969491909e-04 4.095727105777e-03 0.0 
0.0 0.0 -7.743986277066e-04 
-1.231879397795e-03 1.563825567224e-04 0.0 
1.563825567224e-04 7.806451874477e-03 0.0 
0.0 0.0 -1.164614768973e-03 
-1.000367767849e-03 5.022961011040e-04 0.0 
5.022961011040e-04 6.477016694026e-03 0.0 
0.0 0.0 -1.031533309622e-03 
-8.496720980242e-05 7.949215026050e-05 0.0 
7.949215026050e-05 2.913474260951e-03 0.0 
0.0 0.0 -6.375205594687e-04 
-1.204201749293e-03 1.997899091721e-04 0.0 
1.997899091721e-04 7.486324816343e-03 0.0 
0.0 0.0 -1.121170216299e-03 
-5.130508831761e-04 -5.977004884583e-04 0.0 
-5.977004884583e-04 4.307094875234e-03 0.0 
0.0 0.0 -7.773091661689e-04 
-8.763670238880e-04 1.763080225343e-04 0.0 
1.763080225343e-04 6.599584220336e-03 0.0 
0.0 0.0 -1.099429584637e-03 
-8.205770634544e-04 5.305467903750e-04 0.0 
5.305467903750e-04 4.538492374159e-03 0.0 
0.0 0.0 -7.240542973723e-04 
-8.884268788469e-04 5.588484511591e-04 0.0 
5.588484511591e-04 5.612213355160e-03 0.0 
0.0 0.0 -9.041109700986e-04 
-1.050324174142e-03 4.352582260935e-04 0.0 
4.352582260935e-04 6.327572321714e-03 0.0 
0.0 0.0 -9.824247929831e-04 
-7.337998657639e-04 6.243333749199e-04 0.0 
6.243333749199e-04 5.125520163039e-03 0.0 
0.0 0.0 -8.608216255090e-04 
-1.153567602020e-03 -9.301724894271e-05 0.0 
-9.301724894271e-05 6.238376526397e-03 0.0 
0.0 0.0 -9.534332399069e-04 
-1.070854558502e-03 -3.525098866510e-04 0.0 
-3.525098866510e-04 6.838133072795e-03 0.0 
0.0 0.0 -1.090315851396e-03 
5.426530316348e-04 -6.124034834809e-04 0.0 
-6.124034834809e-04 -4.758177895351e-06 0.0 
0.0 0.0 -2.305263658883e-04 
-4.860442792995e-04 1.001524898596e-03 0.0 
1.001524898596e-03 3.110766909182e-03 0.0 
0.0 0.0 -5.719042557127e-04 
-1.067589445178e-03 1.583535090986e-04 0.0 
1.583535090986e-04 6.341569706464e-03 0.0 
0.0 0.0 -9.536514739466e-04 
-1.085608803619e-03 4.567018534179e-04 0.0 
4.567018534179e-04 7.206759563006e-03 0.0 
0.0 0.0 -1.150585697120e-03 
-1.272662540904e-03 1.837479624771e-04 0.0 
1.837479624771e-04 8.251575577157e-03 0.0 
0.0 0.0 -1.229329624135e-03 
-7.006581247961e-04 7.305782553014e-04 0.0 
7.305782553014e-04 4.076422328874e-03 0.0 
0.0 0.0 -6.801182747099e-04 
-1.119652443645e-03 -3.456160390905e-04 0.0 
-3.456160390905e-04 6.872141672148e-03 0.0 
0.0 0.0 -1.081576975854e-03 
-1.253042370701e-03 2.293393647918e-04 0.0 
2.293393647918e-04 7.917666161319e-03 0.0 
0.0 0.0 -1.185355684152e-03 
-8.328019205503e-04 -6.002544778108e-04 0.0 
-6.002544778108e-04 4.632328502255e-03 0.0 
0.0 0.0 -7.524367508395e-04 
-4.433075112401e-04 -2.566605040482e-05 0.0 
-2.566605040482e-05 2.036859959460e-03 0.0 
0.0 0.0 -3.333104686742e-04 
3.205177984844e-04 9.975801435051e-04 0.0 
9.975801435051e-04 2.379341149770e-04 0.0 
0.0 0.0 -2.393365343406e-04 
1.591584715393e-04 1.779286051982e-04 0.0 
1.779286051982e-04 1.786654556165e-03 0.0 
0.0 0.0 -5.092532232582e-04 
-4.531066397313e-04 5.570531624296e-04 0.0 
5.570531624296e-04 4.269383883647e-03 0.0 
0.0 0.0 -7.817448632792e-04 
-8.859078879477e-04 -5.417175315324e-04 0.0 
-5.417175315324e-04 5.072763910333e-03 0.0 
0.0 0.0 -8.181699076277e-04 
-1.293553667002e-03 3.539056233938e-04 0.0 
3.539056233938e-04 8.270227580961e-03 0.0 
0.0 0.0 -1.242275372262e-03 
-1.167568761218e-03 -3.100043251916e-04 0.0 
-3.100043251916e-04 7.110149870389e-03 0.0 
0.0 0.0 -1.110186454522e-03 
-8.720271584818e-04 -3.155671013640e-04 0.0 
-3.155671013640e-04 6.271566388977e-03 0.0 
0.0 0.0 -1.040857148505e-03 
3.090009603171e-05 6.438382974465e-04 0.0 
6.438382974465e-04 3.706853633849e-04 0.0 
0.0 0.0 -1.721080540357e-04 
-8.582532174726e-04 2.712256844373e-04 0.0 
2.712256844373e-04 4.619700861909e-03 0.0 
0.0 0.0 -7.126371066839e-04 
-1.210346144101e-03 -2.749948472322e-04 0.0 
-2.749948472322e-04 7.344160972203e-03 0.0 
0.0 0.0 -1.139074001596e-03 
-4.392212359222e-04 -2.427188308892e-04 0.0 
-2.427188308892e-04 4.468278991880e-03 0.0 
0.0 0.0 -8.223634564932e-04 
-9.190954487653e-04 1.036306006856e-04 0.0 
1.036306006856e-04 6.792229327511e-03 0.0 
0.0 0.0 -1.126725356868e-03 
-1.012271879397e-03 -9.648706787801e-05 0.0 
-9.648706787801e-05 5.106630196527e-03 0.0 
0.0 0.0 -7.817916451012e-04 
-1.209813015887e-03 4.617447502893e-04 0.0 
4.617447502893e-04 7.951412152162e-03 0.0 
0.0 0.0 -1.249754184115e-03 
-7.319316117329e-04 4.292603822642e-04 0.0 
4.292603822642e-04 3.626422685243e-03 0.0 
0.0 0.0 -5.757576642514e-04 
-1.253262516526e-03 -2.397729583392e-04 0.0 
-2.397729583392e-04 7.583908034255e-03 0.0 
0.0 0.0 -1.168790087466e-03 
-8.256776309677e-04 -1.881926819914e-04 0.0 
-1.881926819914e-04 6.244322400387e-03 0.0 
0.0 0.0 -1.047452346298e-03 
-1.833871752581e-04 1.076533841658e-03 0.0 
1.076533841658e-03 2.371953294675e-03 0.0 
0.0 0.0 -5.248669331578e-04 
-8.489436119586e-04 9.726246538456e-06 0.0 
9.726246538456e-06 4.964532206226e-03 0.0 
0.0 0.0 -7.498068730476e-04 
-1.301937909208e-03 -2.238090825597e-04 0.0 
-2.238090825597e-04 8.094251106337e-03 0.0 
0.0 0.0 -1.243807156011e-03 
-9.340333835081e-04 -1.610113385009e-04 0.0 
-1.610113385009e-04 6.744276922541e-03 0.0 
0.0 0.0 -1.114542488500e-03 
-7.941362751269e-04 5.664211877541e-04 0.0 
5.664211877541e-04 5.563587855978e-03 0.0 
0.0 0.0 -9.240346875991e-04 
-4.168495056098e-04 -3.974139927462e-04 0.0 
-3.974139927462e-04 4.226500375937e-03 0.0 
0.0 0.0 -7.856950878877e-04 
-7.739148085239e-04 2.464793331539e-04 0.0 
2.464793331539e-04 3.977512213385e-03 0.0 
0.0 0.0 -6.191377506773e-04 
-9.472802509339e-04 -4.715703841177e-04 0.0 
-4.715703841177e-04 5.324567248990e-03 0.0 
0.0 0.0 -8.467704336814e-04 
-9.485585464614e-04 5.193393053567e-04 0.0 
5.193393053567e-04 5.905682896343e-03 0.0 
0.0 0.0 -9.395224721591e-04 
-1.324920476103e-03 3.053746754946e-04 0.0 
3.053746754946e-04 8.723243834592e-03 0.0 
0.0 0.0 -1.306889097489e-03 
-9.807951782906e-04 -9.587801094059e-05 0.0 
-9.587801094059e-05 6.970713904845e-03 0.0 
0.0 0.0 -1.148622835147e-03 
-1.082939420670e-03 2.819860490732e-04 0.0 
2.819860490732e-04 6.381972856138e-03 0.0 
0.0 0.0 -9.696660045843e-04 
-9.493777168521e-04 -4.444219031776e-04 0.0 
-4.444219031776e-04 5.127854127799e-03 0.0 
0.0 0.0 -8.097439408559e-04 
-7.160311725792e-04 3.654432579295e-04 0.0 
3.654432579295e-04 5.714883805619e-03 0.0 
0.0 0.0 -9.749840279683e-04 
-1.676636515260e-04 -4.941269470984e-05 0.0 
-4.941269470984e-05 1.033199140519e-03 0.0 
0.0 0.0 -1.970089232863e-04 
-7.962185908535e-04 3.303377500728e-04 0.0 
3.303377500728e-04 4.131190544581e-03 0.0 
0.0 0.0 -6.447622526173e-04 
-1.000272012546e-03 -3.719800608836e-04 0.0 
-3.719800608836e-04 5.362836932527e-03 0.0 
0.0 0.0 -8.382314227178e-04 
1.017392588855e-04 -1.736220687656e-04 0.0 
-1.736220687656e-04 2.043177635858e-03 0.0 
0.0 0.0 -5.374563060555e-04 
-5.079147546005e-04 -4.709528610388e-04 0.0 
-4.709528610388e-04 4.508844721117e-03 0.0 
0.0 0.0 -8.136389561866e-04 
-1.114056657132e-03 2.887883130746e-04 0.0 
2.887883130746e-04 7.664610237433e-03 0.0 
0.0 0.0 -1.234277959947e-03 
-1.046296347188e-03 -3.017965079923e-04 0.0 
-3.017965079923e-04 5.590796710732e-03 0.0 
0.0 0.0 -8.668853676281e-04 
-2.327182499333e-05 -1.637556316808e-04 0.0 
-1.637556316808e-04 2.609999917965e-03 0.0 
0.0 0.0 -6.015264011954e-04 
-1.086733608739e-03 -2.340312705235e-04 0.0 
-2.340312705235e-04 5.809878777498e-03 0.0 
0.0 0.0 -8.955981815692e-04 
-7.133441625448e-04 3.191920090799e-04 0.0 
3.191920090799e-04 3.492826899708e-03 0.0 
0.0 0.0 -5.519888345566e-04 
-1.102733663682e-03 3.164092702850e-04 0.0 
3.164092702850e-04 6.555228391521e-03 0.0 
0.0 0.0 -9.983267706061e-04 
-1.119318067822e-03 -1.714358954242e-04 0.0 
-1.714358954242e-04 6.018884976543e-03 0.0 
0.0 0.0 -9.243533921793e-04 
-1.001908002250e-03 4.984942752457e-04 0.0 
4.984942752457e-04 6.334427631463e-03 0.0 
0.0 0.0 -1.003151257071e-03 
-2.279098310875e-04 -1.251804773978e-04 0.0 
-1.251804773978e-04 1.119603241316e-03 0.0 
0.0 0.0 -2.040322045631e-04 
-7.855046317287e-04 5.237977796601e-04 0.0 
5.237977796601e-04 5.697841480735e-03 0.0 
0.0 0.0 -9.517466134248e-04 
-1.278300960589e-03 -7.889376224299e-05 0.0 
-7.889376224299e-05 7.564162797006e-03 0.0 
0.0 0.0 -1.155419075730e-03 
-6.039386638838e-04 -9.352834442183e-04 0.0 
-9.352834442183e-04 3.237374525321e-03 0.0 
0.0 0.0 -5.654343806685e-04 
-5.996382576729e-04 -5.078678615237e-04 0.0 
-5.078678615237e-04 4.794693511813e-03 0.0 
0.0 0.0 -8.420324705410e-04 
-1.153622144798e-03 3.409444967982e-04 0.0 
3.409444967982e-04 6.992756961225e-03 0.0 
0.0 0.0 -1.063653581392e-03 
-6.588103306477e-04 3.969496556601e-04 0.0 
3.969496556601e-04 3.002666315313e-03 0.0 
0.0 0.0 -4.839843007303e-04 
-6.880791710433e-04 -4.312562534369e-04 0.0 
-4.312562534369e-04 5.283404868934e-03 0.0 
0.0 0.0 -9.074658271045e-04 
-1.060052777402e-03 4.844888623504e-04 0.0 
4.844888623504e-04 6.770757776904e-03 0.0 
0.0 0.0 -1.067288052377e-03 
-7.837482685475e-04 4.743739920089e-04 0.0 
4.743739920089e-04 5.847117456295e-03 0.0 
0.0 0.0 -9.801762873724e-04 
-5.364910550697e-04 4.803545642860e-04 0.0 
4.803545642860e-04 4.747968314780e-03 0.0 
0.0 0.0 -8.455731917576e-04 
-7.785051872343e-04 -3.658858697108e-04 0.0 
-3.658858697108e-04 5.776530662371e-03 0.0 
0.0 0.0 -9.738262179588e-04 
-6.715128569437e-04 5.603668306290e-04 0.0 
5.603668306290e-04 3.116619739403e-03 0.0 
0.0 0.0 -5.057041985798e-04 
-6.174255134183e-04 -7.382519752092e-04 0.0 
-7.382519752092e-04 2.524949954393e-03 0.0 
0.0 0.0 -4.238464704258e-04 
-5.725994882734e-04 -6.885730532868e-04 0.0 
-6.885730532868e-04 2.123374709043e-03 0.0 
0.0 0.0 -3.586180353125e-04 
-1.087968519769e-04 -3.894502741245e-04 0.0 
-3.894502741245e-04 2.894305128247e-03 0.0 
0.0 0.0 -6.294631353604e-04 
-1.113989301634e-03 4.730580331504e-04 0.0 
4.730580331504e-04 7.064599777148e-03 0.0 
0.0 0.0 -1.103081964739e-03 
-2.909493422495e-04 -6.727813062534e-05 0.0 
-6.727813062534e-05 1.456560370235e-03 0.0 
0.0 0.0 -2.521214004998e-04 
-1.130223577437e-03 3.874695664211e-04 0.0 
3.874695664211e-04 6.879711460710e-03 0.0 
0.0 0.0 -1.054898413167e-03 
-4.747914815808e-04 -7.007316897934e-04 0.0 
-7.007316897934e-04 1.510403036883e-03 0.0 
0.0 0.0 -2.740243446916e-04 
-1.059034309075e-04 -6.476895754937e-04 0.0 
-6.476895754937e-04 2.671993736935e-03 0.0 
0.0 0.0 -5.935709857392e-04 
-8.832674525435e-04 3.712236152595e-04 0.0 
3.712236152595e-04 6.508434955568e-03 0.0 
0.0 0.0 -1.077081564483e-03 
-1.023005590377e-03 -4.065847446542e-05 0.0 
-4.065847446542e-05 6.235882102629e-03 0.0 
0.0 0.0 -9.315431351609e-04 
-2.271455064543e-04 -7.649077538712e-04 0.0 
-7.649077538712e-04 3.005124294304e-03 0.0 
0.0 0.0 -6.211106552582e-04 
-5.539372237771e-04 -2.705347043382e-05 0.0 
-2.705347043382e-05 2.503628127068e-03 0.0 
0.0 0.0 -3.989951351066e-04 
-2.711318037513e-04 -9.555117866304e-04 0.0 
-9.555117866304e-04 2.849172517321e-03 0.0 
0.0 0.0 -5.850331209179e-04 
-6.241921201683e-04 4.180601427792e-04 0.0 
4.180601427792e-04 5.227484326245e-03 0.0 
0.0 0.0 -9.098959706900e-04 
-3.942802621189e-04 -9.538191986641e-04 0.0 
-9.538191986641e-04 3.188718869022e-03 0.0 
0.0 0.0 -6.124823626799e-04 
-4.550624226044e-04 -1.036578340992e-03 0.0 
-1.036578340992e-03 3.064317854104e-03 0.0 
0.0 0.0 -5.760838601101e-04 
-1.286542940212e-03 9.779925010804e-05 0.0 
9.779925010804e-05 8.362389009926e-03 0.0 
0.0 0.0 -1.242975171717e-03 
-5.556616817437e-04 -9.487474711726e-04 0.0 
-9.487474711726e-04 3.373317672553e-03 0.0 
0.0 0.0 -6.030381679152e-04 
-1.312957018488e-03 1.762534641485e-05 0.0 
1.762534641485e-05 8.791531742823e-03 0.0 
0.0 0.0 -1.305370344976e-03 
-1.342889913941e-03 -8.887845541572e-05 0.0 
-8.887845541572e-05 8.517788746463e-03 0.0 
0.0 0.0 -1.298405437673e-03 
-9.001399359898e-04 -3.115200366471e-05 0.0 
-3.115200366471e-05 5.327299192951e-03 0.0 
0.0 0.0 -7.997855503562e-04 
-6.119585369169e-04 5.319683456807e-04 0.0 
5.319683456807e-04 2.524442221547e-03 0.0 
0.0 0.0 -4.121418992062e-04 
0.0 0.0 0.0 
0.0 0.0 0.0 
0.0 0.0 0.0 
-6.013216908629e-04 7.353591052882e-04 0.0 
7.353591052882e-04 2.570270979253e-03 0.0 
0.0 0.0 -4.369243393394e-04 
-5.755877201232e-04 -1.006492197580e-03 0.0 
-1.006492197580e-03 2.831071537896e-03 0.0 
0.0 0.0 -5.013603847490e-04 
-1.101076468124e-03 4.427543157598e-04 0.0 
4.427543157598e-04 6.753747619027e-03 0.0 
0.0 0.0 -1.045752072333e-03 
-9.001350944238e-04 1.690426372956e-05 0.0 
1.690426372956e-05 5.335483219367e-03 0.0 
0.0 0.0 -8.029817139903e-04 
-6.111138971153e-04 -8.912307338130e-04 0.0 
-8.912307338130e-04 2.695444832232e-03 0.0 
0.0 0.0 -4.630712860745e-04 
-1.275916597091e-03 4.598087248478e-04 0.0 
4.598087248478e-04 8.197933557976e-03 0.0 
0.0 0.0 -1.250093291501e-03 
-1.277155987315e-03 4.247176035906e-04 0.0 
4.247176035906e-04 8.290214574666e-03 0.0 
0.0 0.0 -1.306737725957e-03 
-1.108220863065e-03 9.376951406301e-06 0.0 
9.376951406301e-06 6.884195681395e-03 0.0 
0.0 0.0 -1.028769680629e-03 
-9.736500693663e-04 5.157775084853e-05 0.0 
5.157775084853e-05 6.985202160712e-03 0.0 
0.0 0.0 -1.152835590205e-03 
-7.921204258207e-04 4.078698397503e-04 0.0 
4.078698397503e-04 6.023879636983e-03 0.0 
0.0 0.0 -1.010595862668e-03 
-1.241857793517e-03 -4.299570159508e-06 0.0 
-4.299570159508e-06 7.958618347353e-03 0.0 
0.0 0.0 -1.185717314024e-03 
-8.475222208266e-04 -3.781329079989e-05 0.0 
-3.781329079989e-05 4.928212699674e-03 0.0 
0.0 0.0 -7.451086181774e-04 
-1.664286133127e-04 -2.725892507630e-04 0.0 
-2.725892507630e-04 6.325537652716e-04 0.0 
0.0 0.0 -1.414044378648e-04 
-1.183800202695e-03 -4.172593709851e-05 0.0 
-4.172593709851e-05 6.467154125527e-03 0.0 
0.0 0.0 -9.879584850274e-04 
-5.708971627680e-04 6.741264129118e-04 0.0 
6.741264129118e-04 2.024843560255e-03 0.0 
0.0 0.0 -3.437331075899e-04 
-5.495900722021e-04 1.011381174664e-03 0.0 
1.011381174664e-03 1.944401710747e-03 0.0 
0.0 0.0 -3.524505972177e-04 
-2.853835512823e-04 1.205712139992e-03 0.0 
1.205712139992e-03 1.304597058130e-03 0.0 
0.0 0.0 -3.593644486456e-04 
-7.020460695734e-04 -1.440442927613e-04 0.0 
-1.440442927613e-04 3.119459023260e-03 0.0 
0.0 0.0 -4.856826860430e-04 
-8.782495870591e-05 -9.084916110393e-04 0.0 
-9.084916110393e-04 7.572036747300e-04 0.0 
0.0 0.0 -2.846511604759e-04 
-4.893890858810e-04 8.969022950391e-04 0.0 
8.969022950391e-04 1.589417859757e-03 0.0 
0.0 0.0 -3.076864852448e-04 
-1.137014357475e-03 7.152136645660e-05 0.0 
7.152136645660e-05 7.697731072351e-03 0.0 
0.0 0.0 -1.245112051941e-03 
-9.139609418570e-04 1.641183808410e-05 0.0 
1.641183808410e-05 5.327038428336e-03 0.0 
0.0 0.0 -8.050116406322e-04 
-9.540345071131e-04 3.841934886618e-04 0.0 
3.841934886618e-04 6.790550876670e-03 0.0 
0.0 0.0 -1.110409235593e-03 
-1.902162665021e-04 9.339845454039e-04 0.0 
9.339845454039e-04 9.942126500714e-04 0.0 
0.0 0.0 -3.261355004832e-04 
-1.296828862309e-03 2.341461600450e-04 0.0 
2.341461600450e-04 8.351041898143e-03 0.0 
0.0 0.0 -1.247366155457e-03 
-1.168645139073e-03 3.735588726833e-04 0.0 
3.735588726833e-04 7.817174461527e-03 0.0 
0.0 0.0 -1.246608778627e-03 
-1.314967464086e-03 -3.318256949741e-04 0.0 
-3.318256949741e-04 8.403481236488e-03 0.0 
0.0 0.0 -1.306249356034e-03 
-1.050201848033e-03 3.696451559178e-04 0.0 
3.696451559178e-04 7.268871172990e-03 0.0 
0.0 0.0 -1.176371721005e-03 
6.114555871551e-05 1.042784162236e-03 0.0 
1.042784162236e-03 5.736687994652e-04 0.0 
0.0 0.0 -2.720632963632e-04 
-9.766098877979e-04 1.041630930997e-04 0.0 
1.041630930997e-04 5.685157012225e-03 0.0 
0.0 0.0 -8.603500797662e-04 
-1.246724541881e-03 4.866961176123e-04 0.0 
4.866961176123e-04 8.045633532487e-03 0.0 
0.0 0.0 -1.250827372426e-03 
-1.145993633532e-03 3.235835733547e-05 0.0 
3.235835733547e-05 7.250949289083e-03 0.0 
0.0 0.0 -1.080253149739e-03 
-1.318596932855e-03 -2.303003049155e-04 0.0 
-2.303003049155e-04 8.477981163117e-03 0.0 
0.0 0.0 -1.309985050881e-03 
-9.104561560587e-04 8.791536920609e-05 0.0 
8.791536920609e-05 5.249520802984e-03 0.0 
0.0 0.0 -7.979019438933e-04 
-1.287101829326e-03 7.929734908006e-05 0.0 
7.929734908006e-05 8.412586601378e-03 0.0 
0.0 0.0 -1.252774941638e-03 
4.187865149814e-04 -7.886444366699e-04 0.0 
-7.886444366699e-04 6.898920111237e-05 0.0 
0.0 0.0 -2.090467354688e-04 
-1.285197150188e-03 5.312445103222e-05 0.0 
5.312445103222e-05 8.412445019205e-03 0.0 
0.0 0.0 -1.254166199180e-03 
-1.155435508235e-03 4.462044169920e-04 0.0 
4.462044169920e-04 7.190167035892e-03 0.0 
0.0 0.0 -1.110316242656e-03 
-9.785241987209e-04 6.006269753900e-05 0.0 
6.006269753900e-05 5.897359505691e-03 0.0 
0.0 0.0 -8.840149073763e-04 
-9.814056690218e-04 2.078101741112e-04 0.0 
2.078101741112e-04 5.639397818750e-03 0.0 
0.0 0.0 -8.570326279659e-04 
-1.319590243869e-03 -1.168373964399e-04 0.0 
-1.168373964399e-04 8.200864803592e-03 0.0 
0.0 0.0 -1.256337174517e-03 
-1.298927049123e-03 3.872456439500e-04 0.0 
3.872456439500e-04 8.256979916972e-03 0.0 
0.0 0.0 -1.249505442739e-03 
1.588810044440e-04 6.739000714330e-04 0.0 
6.739000714330e-04 2.144145137498e-04 0.0 
0.0 0.0 -1.599837935116e-04 
-1.096094038579e-03 6.855172835755e-05 0.0 
6.855172835755e-05 6.864639960432e-03 0.0 
0.0 0.0 -1.024357608964e-03 
-8.327401503038e-04 -2.617825635292e-04 0.0 
-2.617825635292e-04 3.865808984588e-03 0.0 
0.0 0.0 -5.984289768806e-04 
4.595402762325e-05 -8.016720020432e-05 0.0 
-8.016720020432e-05 3.015012832340e-06 0.0 
0.0 0.0 -2.098673162382e-05 
-1.235862100260e-03 -2.625570613708e-04 0.0 
-2.625570613708e-04 7.934382526740e-03 0.0 
0.0 0.0 -1.249521112489e-03 
-1.211535382329e-03 4.565569816846e-04 0.0 
4.565569816846e-04 7.603855218494e-03 0.0 
0.0 0.0 -1.172189067419e-03 
-1.321360973485e-03 -1.598454139055e-04 0.0 
-1.598454139055e-04 8.157812717265e-03 0.0 
0.0 0.0 -1.251863004148e-03 
-1.704574328015e-04 2.300128264431e-05 0.0 
2.300128264431e-05 1.030856563870e-03 0.0 
0.0 0.0 -1.953152674555e-04 
-1.117901966883e-04 -9.482210033707e-05 0.0 
-9.482210033707e-05 5.817955991869e-04 0.0 
0.0 0.0 -1.292073282250e-04 
-1.214101423412e-03 -2.486194593532e-04 0.0 
-2.486194593532e-04 7.945028851660e-03 0.0 
0.0 0.0 -1.258522865334e-03 
-1.271219324857e-03 4.971693506933e-04 0.0 
4.971693506933e-04 8.177840067003e-03 0.0 
0.0 0.0 -1.257106814994e-03 
2.594232538172e-04 -1.339851872499e-03 0.0 
-1.339851872499e-03 5.141638941498e-04 0.0 
0.0 0.0 -3.217126346404e-04 
-1.334345376368e-03 2.157790183719e-04 0.0 
2.157790183719e-04 8.827191171129e-03 0.0 
0.0 0.0 -1.314710167832e-03 
5.758992691219e-05 1.629967515181e-04 0.0 
1.629967515181e-04 3.408863824387e-05 0.0 
0.0 0.0 -3.929081363831e-05 
-8.415723991859e-04 3.409357994461e-05 0.0 
3.409357994461e-05 4.862419417103e-03 0.0 
0.0 0.0 -7.389643750272e-04 
-5.632071603276e-05 -7.908255579780e-05 0.0 
-7.908255579780e-05 5.951715054384e-04 0.0 
0.0 0.0 -1.313337839019e-04 
-1.324427323831e-03 -2.984557275517e-04 0.0 
-2.984557275517e-04 8.505668996389e-03 0.0 
0.0 0.0 -1.308531455474e-03 
-1.300676432775e-03 1.886676363898e-04 0.0 
1.886676363898e-04 8.425576722081e-03 0.0 
0.0 0.0 -1.254845750201e-03 
-8.984019564796e-04 -1.237198133233e-04 0.0 
-1.237198133233e-04 4.265458849472e-03 0.0 
0.0 0.0 -6.564513288157e-04 
-8.888014077326e-04 1.812789084724e-04 0.0 
1.812789084724e-04 4.952376261473e-03 0.0 
0.0 0.0 -7.541421605440e-04 
-6.276097559503e-04 -6.715782605664e-05 0.0 
-6.715782605664e-05 2.832069501594e-03 0.0 
0.0 0.0 -4.426424662127e-04 
-1.151816338705e-03 4.986859032723e-04 0.0 
4.986859032723e-04 7.600283655027e-03 0.0 
0.0 0.0 -1.203498912175e-03 
-2.674740073154e-04 -5.400123392678e-04 0.0 
-5.400123392678e-04 9.299090651865e-04 0.0 
0.0 0.0 -2.264474151299e-04 
-1.303841109802e-03 1.085882883771e-04 0.0 
1.085882883771e-04 8.492357544012e-03 0.0 
0.0 0.0 -1.260296891839e-03 
-1.191687690371e-03 -1.792572912051e-04 0.0 
-1.792572912051e-04 7.902409115589e-03 0.0 
0.0 0.0 -1.261416966621e-03 
-1.308215205254e-03 3.369873735607e-04 0.0 
3.369873735607e-04 8.413847692259e-03 0.0 
0.0 0.0 -1.260618436842e-03 
-1.275370929010e-03 2.203297067690e-04 0.0 
2.203297067690e-04 8.294911698725e-03 0.0 
0.0 0.0 -1.317725628150e-03 
1.222313271005e-05 1.128127362180e-05 0.0 
1.128127362180e-05 -2.314647535049e-06 0.0 
0.0 0.0 -4.246493646427e-06 
-1.211818034300e-03 4.006014363556e-04 0.0 
4.006014363556e-04 7.983414665776e-03 0.0 
0.0 0.0 -1.263090216482e-03 
-1.073154055867e-03 -5.044780342709e-05 0.0 
-5.044780342709e-05 7.404491594172e-03 0.0 
0.0 0.0 -1.202239909569e-03 
-8.482969471247e-04 5.756566432870e-05 0.0 
5.756566432870e-05 4.934073378721e-03 0.0 
0.0 0.0 -7.439744481034e-04 
-1.294789794099e-03 4.128632800208e-04 0.0 
4.128632800208e-04 8.301439097425e-03 0.0 
0.0 0.0 -1.252574368527e-03 
-7.632240259174e-04 -1.247615584578e-04 0.0 
-1.247615584578e-04 3.481612275262e-03 0.0 
0.0 0.0 -5.383891422301e-04 
-3.003096040968e-04 -1.615487937268e-04 0.0 
-1.615487937268e-04 1.430206630076e-03 0.0 
0.0 0.0 -2.492021827984e-04 
-1.313629829914e-03 -1.230146382652e-05 0.0 
-1.230146382652e-05 8.822541585775e-03 0.0 
0.0 0.0 -1.313490227100e-03 
3.602911660346e-04 2.499113825648e-05 0.0 
2.499113825648e-05 9.061185613920e-05 0.0 
0.0 0.0 -1.203802049064e-04 
-8.447146323437e-04 -2.046082411215e-05 0.0 
-2.046082411215e-05 4.909462012842e-03 0.0 
0.0 0.0 -7.402411036050e-04 
-1.348085845692e-03 2.530918264864e-06 0.0 
2.530918264864e-06 8.606464988216e-03 0.0 
0.0 0.0 -1.313492844077e-03 
-2.497229854947e-04 -6.189559134780e-05 0.0 
-6.189559134780e-05 1.337406434444e-03 0.0 
0.0 0.0 -2.401910970207e-04 
-9.421911629794e-04 -1.661669992897e-05 0.0 
-1.661669992897e-05 5.655702660019e-03 0.0 
0.0 0.0 -8.489638187885e-04 
-1.276280445523e-03 4.696432845470e-04 0.0 
4.696432845470e-04 8.231682282445e-03 0.0 
0.0 0.0 -1.260211869575e-03 
-1.042131282941e-03 -3.353944901092e-05 0.0 
-3.353944901092e-05 5.231045184564e-03 0.0 
0.0 0.0 -7.986629621775e-04 
-1.208709146256e-03 -3.512840286861e-05 0.0 
-3.512840286861e-05 7.690123470060e-03 0.0 
0.0 0.0 -1.148445367820e-03 
-1.362273016930e-05 -1.182361291552e-03 0.0 
-1.182361291552e-03 7.884965128820e-04 0.0 
0.0 0.0 -3.320887640197e-04 
0.0 0.0 0.0 
0.0 0.0 0.0 
0.0 0.0 0.0 
-1.052359765526e-03 -2.552934865100e-05 0.0 
-2.552934865100e-05 6.469023319650e-03 0.0 
0.0 0.0 -9.668795991591e-04 
-1.182130655930e-03 3.563594059290e-04 0.0 
3.563594059290e-04 7.870829341615e-03 0.0 
0.0 0.0 -1.258714341260e-03 
-1.311624000118e-03 2.599452204782e-04 0.0 
2.599452204782e-04 8.471619375797e-03 0.0 
0.0 0.0 -1.263997700767e-03 
-1.012178473530e-03 6.922432419418e-05 0.0 
6.922432419418e-05 6.158161253950e-03 0.0 
0.0 0.0 -9.199601189493e-04 
2.647470927745e-04 7.455276449397e-04 0.0 
7.455276449397e-04 1.486685304712e-04 0.0 
0.0 0.0 -1.771781242482e-04 
-1.250478637346e-03 4.824320061321e-04 0.0 
4.824320061321e-04 7.958988352162e-03 0.0 
0.0 0.0 -1.221038716794e-03 
-9.320485300336e-04 -1.667751956757e-04 0.0 
-1.667751956757e-04 4.597200132756e-03 0.0 
0.0 0.0 -7.060606045914e-04 
-1.200656783891e-03 4.721645169611e-04 0.0 
4.721645169611e-04 7.751960834764e-03 0.0 
0.0 0.0 -1.208939113964e-03 
-1.070653970758e-03 3.740030437558e-05 0.0 
3.740030437558e-05 7.401065294209e-03 0.0 
0.0 0.0 -1.203806565432e-03 
-6.718951696684e-06 1.804457932660e-04 0.0 
1.804457932660e-04 2.170203577161e-05 0.0 
0.0 0.0 -6.421321746396e-06 
-1.092227246100e-03 -1.750499239164e-05 0.0 
-1.750499239164e-05 5.615262148534e-03 0.0 
0.0 0.0 -8.562696210230e-04 
-5.708960077967e-05 -1.112001135559e-04 0.0 
-1.112001135559e-04 5.586929987395e-04 0.0 
0.0 0.0 -1.274563633148e-04 
-1.286136249812e-03 -3.205909886145e-04 0.0 
-3.205909886145e-04 8.133690929480e-03 0.0 
0.0 0.0 -1.263714160583e-03 
-9.761535132734e-04 -1.267872809360e-04 0.0 
-1.267872809360e-04 4.804162128704e-03 0.0 
0.0 0.0 -7.344436328926e-04 
-7.151118319353e-04 1.324669517094e-04 0.0 
1.324669517094e-04 3.821521253579e-03 0.0 
0.0 0.0 -5.903927710216e-04 
-6.853888581673e-04 6.201834011282e-06 0.0 
6.201834011282e-06 3.914136364457e-03 0.0 
0.0 0.0 -5.933333333333e-04 
-7.741251423872e-04 1.050422606297e-04 0.0 
1.050422606297e-04 4.286196800977e-03 0.0 
0.0 0.0 -6.525251918948e-04 
-7.681459693767e-04 3.705640173290e-05 0.0 
3.705640173290e-05 4.300928271438e-03 0.0 
0.0 0.0 -6.600000000000e-04 

SCALARS node_materi_plasti_kappa_shear float
LOOKUP_TABLE default
4.018595016637e-04
3.089753889168e-03
5.782851735544e-03
5.918183804685e-03
3.534406101045e-04
5.777185496190e-04
8.655346567894e-04
1.225178696612e-03
1.561289241519e-03
1.871659154863e-03
2.181083715770e-03
2.488964856422e-03
2.787137593187e-03
3.091771098928e-03
3.420472284368e-03
3.710467865470e-03
3.939561491463e-03
4.240577622205e-03
4.533842638206e-03
4.816933074020e-03
5.104668969230e-03
5.391975952764e-03
5.664103688175e-03
5.924781152092e-03
5.917884078783e-03
5.912198488963e-03
5.915363934694e-03
5.905144694759e-03
5.903457440159e-03
5.903348825921e-03
5.903761712110e-03
5.904265203747e-03
5.905318048855e-03
5.891395232290e-03
5.888128140164e-03
5.888680312796e-03
5.877931512601e-03
5.860031142375e-03
5.843163873243e-03
5.826784160533e-03
5.822850206754e-03
5.815960623432e-03
5.800025919692e-03
5.784362356774e-03
5.761776212317e-03
5.737855144386e-03
5.711749137531e-03
5.696108572039e-03
5.671644922163e-03
5.650827538949e-03
5.628366488181e-03
5.614080868870e-03
5.604140386821e-03
5.593036124330e-03
5.565915778014e-03
5.555192109801e-03
5.573004876633e-03
5.580306717995e-03
5.596307166112e-03
5.614091302201e-03
5.629810666475e-03
5.640837494200e-03
5.663093814390e-03
5.686920133380e-03
5.716693701825e-03
5.739758391817e-03
5.726679333637e-03
5.759394314008e-03
5.766547388258e-03
5.773558049937e-03
5.793695355299e-03
5.800384027879e-03
3.373278433029e-03
3.702017582457e-03
4.003145076898e-03
4.293988028575e-03
4.595203178701e-03
4.888984289506e-03
5.184208240141e-03
5.464856448975e-03
5.776378587400e-03
0.0
3.081614032412e-03
4.378618974846e-04
9.313671065223e-04
1.273596264124e-03
1.475817609515e-03
1.691520661011e-03
1.947957693993e-03
2.239903850629e-03
2.528647895383e-03
2.742854806992e-03
2.582817307193e-03
2.763613688910e-03
3.033283060944e-03
3.047551184854e-03
3.052691208087e-03
3.048980415926e-03
3.100970999415e-03
3.055386088565e-03
3.048944342912e-03
3.057111577284e-03
3.066860764030e-03
3.068512091509e-03
3.063486917503e-03
3.060147944086e-03
3.055345893607e-03
3.060924048497e-03
0.0
0.0
0.0
0.0
3.010556392942e-05
1.524327839584e-04
1.995857095858e-04
2.767971837970e-04
3.769179784358e-04
3.253807271213e-04
3.117581124918e-04
3.606568275965e-04
3.857262083461e-04
3.906419353076e-04
3.716692121618e-04
3.690405021818e-04
3.649158742688e-04
3.835236345727e-04
4.051871358796e-04
2.654296263480e-03
2.631452292418e-03
2.627647902689e-03
2.629523799064e-03
2.628928514106e-03
2.631309323151e-03
2.633495747967e-03
2.634830306158e-03
2.632329855894e-03
2.636092431393e-03
2.638097921796e-03
2.636804831690e-03
2.637677962194e-03
2.630582008335e-03
2.632511552265e-03
2.623476072829e-03
2.511713711435e-03
2.696529334491e-03
2.782001887569e-03
2.769038020761e-03
2.765913210012e-03
2.768177298346e-03
2.769449690573e-03
2.765618434112e-03
2.764713207464e-03
2.764281696244e-03
2.762786239059e-03
2.760748228383e-03
2.759266427299e-03
2.760944420823e-03
2.756978941966e-03
2.764313748951e-03
2.781014989081e-03
3.335656243226e-04
6.987967846243e-04
1.138663496479e-03
1.416159959173e-03
1.577549707535e-03
1.821953157934e-03
2.097239974907e-03
2.389074674071e-03
2.612242248473e-03
2.917242865590e-03
9.738600395070e-04
5.435588587201e-03
2.909988311951e-04
3.769847250247e-05
5.523350165746e-03
1.570944169196e-03
3.259014405966e-03
5.458606763578e-03
1.964336709912e-03
5.566973844380e-03
2.569306611317e-03
5.632953359091e-03
2.974125210141e-04
5.671758588449e-03
3.203440197606e-03
2.038890301766e-03
4.045860618713e-03
5.716180375961e-03
5.780776132195e-03
5.820339983969e-03
5.787783236705e-03
5.807930197893e-03
3.336276229903e-03
3.342041558882e-03
3.361792062102e-03
4.441169448529e-03
5.674307051814e-03
0.0
3.209899088955e-04
4.945795996265e-03
3.327462179656e-03
1.042267579418e-03
5.707024864185e-03
5.532622783009e-03
5.619797893241e-03
5.423578043402e-03
5.471772884167e-03
3.436383270430e-04
3.333005330644e-03
5.529223749368e-03
5.037839075619e-03
2.638587871684e-04
2.642361659730e-03
5.873210275008e-03
1.763677943653e-03
1.340334044123e-03
2.263467496582e-03
2.874799860949e-03
4.513320056197e-04
3.869122312403e-03
5.743109238437e-03
3.383599394524e-04
5.592525333234e-03
3.331816214928e-03
3.445762685372e-03
3.598635432457e-03
3.735913935782e-03
3.890935618439e-03
4.012600674009e-03
3.849474617287e-03
4.126514031565e-03
3.959165169884e-03
4.176038116471e-03
4.235988580971e-03
4.064707878218e-03
4.341402437136e-03
4.167240197337e-03
3.894151677151e-03
3.992834958239e-03
3.721936449487e-03
3.816849981585e-03
4.088667098279e-03
3.907021233887e-03
3.638494610824e-03
3.722863223661e-03
3.459179651477e-03
3.537390187834e-03
3.278134638251e-03
3.349761859775e-03
3.611638012721e-03
3.416809574398e-03
3.159803868816e-03
3.218051688491e-03
2.967054440755e-03
3.013255720382e-03
3.274741419647e-03
3.060407839341e-03
2.799033525006e-03
2.837141687482e-03
2.575225456547e-03
2.604333461748e-03
2.339006943104e-03
2.356936139518e-03
2.652093179226e-03
2.407825459181e-03
2.096105658174e-03
2.161022888784e-03
2.499076110119e-03
2.280206439540e-03
2.629068977315e-03
2.442266900798e-03
2.092139772061e-03
2.292183785288e-03
2.630236405014e-03
2.506325631077e-03
2.190661895186e-03
2.422274426006e-03
2.721982461051e-03
2.641933182030e-03
2.372758104436e-03
2.584384885052e-03
2.850333968712e-03
2.779077813445e-03
2.534557373612e-03
2.709557774217e-03
2.962454448322e-03
2.875190167875e-03
3.136631662821e-03
2.629761375739e-03
2.778979644167e-03
2.533618166994e-03
2.669371918058e-03
3.335780224915e-03
2.417052975495e-03
2.301133563289e-03
2.544153619348e-03
2.809569658580e-03
2.280488059570e-03
2.403129281843e-03
2.126768242516e-03
2.337020972949e-03
4.180692697777e-03
2.249003779132e-03
1.959755581014e-03
1.842529391951e-03
1.658290441270e-03
4.057689887828e-03
4.345234894460e-03
4.214494829484e-03
4.512207963410e-03
4.386116896851e-03
1.781237856866e-03
4.515858041588e-03
4.632785065629e-03
3.375865563346e-03
2.914340702826e-03
2.837997481989e-03
2.532048550751e-03
2.378710134929e-03
2.668313152737e-03
3.233044162886e-03
3.411145406702e-03
3.516648249659e-03
3.695606962542e-03
3.809881520442e-03
3.987932871345e-03
3.868387923180e-03
4.160380401702e-03
4.035401995459e-03
4.109927676280e-03
3.929071965478e-03
4.326541573449e-03
4.196853341751e-03
4.486612097014e-03
4.352559495553e-03
4.065464170358e-03
4.216259007439e-03
3.932665926102e-03
2.974206145827e-03
3.176937453123e-03
3.316135238148e-03
3.514584502752e-03
3.655690360847e-03
3.851432524779e-03
3.992906615051e-03
3.810423676568e-03
4.443438443787e-03
1.828572061533e-03
1.806415762240e-03
1.513365747016e-03
1.563989916259e-03
1.243214007741e-03
1.411260727777e-03
1.087408529277e-03
9.280634857496e-04
7.696745497683e-04
7.727047061156e-04
6.380213861808e-04
9.424950275726e-04
3.683920707972e-03
3.721810168106e-03
4.055539867157e-03
3.931687734683e-03
1.545289606018e-03
4.502587431745e-03
4.237803823005e-03
4.054767645798e-03
4.147689587509e-03
1.469037962723e-03
1.381279309045e-03
1.636872751770e-03
4.676612476866e-03
4.548915297300e-03
4.373011447568e-03
1.596671411329e-03
4.457517107573e-03
6.726180917699e-04
4.361759767158e-03
4.647438517847e-03
3.749070434487e-03
4.262666346844e-03
4.139562493484e-03
1.058263721451e-03
1.328795762681e-03
1.257951778391e-03
1.615059101371e-03
1.617776829754e-03
1.784704992927e-03
1.664404533731e-03
1.851897133188e-03
1.923512677117e-03
1.920863832566e-03
1.732826179112e-03
1.789080397445e-03
4.789640175199e-03
4.933105548269e-04
3.623293427982e-03
4.549397453839e-03
4.326717748868e-03
4.840106465985e-03
4.712783082347e-03
4.418649943636e-03
4.585859736983e-03
4.878747721020e-03
4.750919794657e-03
4.456475978691e-03
4.618929314417e-03
4.321775629010e-03
4.485087669046e-03
4.780485262660e-03
4.648645754832e-03
4.352908180169e-03
4.515438133183e-03
4.218119818909e-03
4.376442562231e-03
4.677698654010e-03
1.280455175298e-03
3.975684030661e-03
4.313430537097e-03
2.531248625096e-03
2.795187276442e-03
2.950421176089e-03
3.091354176801e-03
4.540325048563e-03
4.842133621751e-03
1.627886023255e-03
1.806948227217e-03
4.964897247722e-03
4.505647349825e-03
4.219641279943e-03
2.730984817609e-03
2.680252985846e-03
2.508656173216e-03
2.453261305901e-03
2.619408054872e-03
2.295804407583e-03
3.740263927181e-03
4.943332949813e-03
1.736869985241e-03
1.441819622179e-03
4.792252417499e-03
3.639826983595e-03
3.882064491805e-03
3.960472891563e-03
4.161603615821e-03
4.245857029619e-03
4.449138486875e-03
4.538270851724e-03
4.336412104351e-03
4.467009293726e-03
4.637465802825e-03
4.227760771006e-03
3.603493058884e-03
2.015316274690e-03
1.151528373984e-03
1.494680084950e-03
1.401763515938e-03
1.725734234278e-03
4.692766413527e-03
4.744201478353e-03
4.646812231519e-03
2.391216520205e-03
2.541437442855e-03
4.590954612420e-03
4.090617543142e-03
4.159541705089e-03
4.020881279016e-03
1.028169191453e-03
1.414727337198e-03
5.043491496533e-03
1.828932906125e-03
1.917980713017e-03
4.157180774186e-04
1.730461438410e-04
4.691724722002e-03
4.992960999119e-03
3.232526540781e-03
3.376337074583e-03
4.517813292037e-03
1.573664134280e-03
5.136914764881e-03
3.818178697522e-03
3.485662865048e-03
2.929371560799e-03
1.726704283358e-03
1.445214139706e-03
2.001081890038e-03
1.816948000307e-03
1.537558582793e-03
4.841861112859e-03
5.166500773962e-03
4.432736485775e-03
4.128543821065e-03
4.737743923515e-03
1.242267063270e-03
4.872712079514e-03
4.648563616368e-03
4.934717953700e-03
4.841015803806e-03
1.998284811115e-03
2.023831337705e-03
1.929656289699e-03
2.012827717834e-03
3.685637869250e-03
2.160195855781e-03
3.453630867072e-03
3.353268669804e-03
3.189580292168e-03
2.780580474833e-03
2.697012491619e-03
1.850761695031e-03
3.058179809856e-03
3.092459470665e-03
3.782098167745e-03
3.330348654579e-03
5.071602464651e-03
5.237586080772e-03
4.054791370477e-03
3.911736450825e-03
1.227723328770e-03
1.121568548935e-03
3.305144710569e-03
4.722576138819e-03
5.125546474561e-03
5.249094215458e-03
5.084093944170e-03
4.665047890294e-03
1.576387794071e-03
3.131769936580e-03
4.332121020711e-04
3.548502236301e-03
8.886689387002e-04
4.364114879908e-03
4.929747689709e-03
5.074378233997e-03
4.790835636385e-03
3.303647652991e-03
3.622953727387e-03
3.407028331039e-03
3.087385769992e-03
2.928470296600e-03
3.025957624230e-03
2.770242371404e-03
2.146257545189e-03
2.105072283453e-03
5.074226657025e-03
4.945890381019e-03
5.132442016699e-03
5.036778597884e-03
4.913108523956e-03
4.718978319234e-03
1.854189815065e-03
2.451969709865e-03
5.326205974981e-03
3.245806195750e-03
5.032929921038e-03
4.895632072523e-03
8.703516401932e-05
5.025155932237e-04
5.299729360747e-03
1.862195518962e-03
1.925793576571e-03
1.786850721610e-03
5.508894573325e-03
3.317615670200e-03
5.206554443836e-03
2.947814730022e-03
5.436495255461e-03
3.710224019945e-03
2.542778381884e-03
4.340023150483e-03
5.139724345049e-03
5.473155703650e-03
3.856151046115e-03
3.706636097451e-03
3.986363479487e-03
8.597848081307e-04
4.948557720353e-04
5.105588847389e-03
2.215579397184e-03
2.383580716268e-03
1.610091948116e-03
1.853488942061e-03
3.371371645262e-03
3.226095624709e-03
4.460118615317e-03
4.646317835839e-03
4.077799721508e-03
3.673670130341e-03
3.349970931866e-03
3.156166832522e-03
5.356340387661e-03
5.560199060828e-03
2.148566688317e-03
1.947252295954e-03
2.277219304698e-03
5.452662980312e-03
5.357012637058e-03
5.217066698957e-03
7.819578528788e-04
1.028971749725e-03
1.479365826605e-03
1.088843442230e-03
5.358763484459e-03
5.206986646545e-03
5.554350471510e-03
1.646365469631e-03
4.227084436487e-03
4.981659535795e-03
4.824566320776e-03
5.205837116450e-03
4.665431215243e-03
4.979351549170e-03
5.045785100976e-03
6.553725280406e-06
5.354913579491e-03
3.735880701652e-03
0.0
3.596581939605e-03
3.776236102998e-03
3.431628553560e-03
1.322961065373e-03
3.627378963851e-03
3.821605526455e-03
5.613183195734e-04
5.602994573649e-03
5.605292770001e-04
6.792338181859e-04
5.201033617940e-03
5.054577875216e-03
5.350694268135e-03
5.195925285154e-03
4.911596497334e-03
5.072562886383e-03
3.571136890228e-03
5.391533904623e-03
5.225263310295e-03
5.570873285067e-03
2.672019548462e-03
2.112700823482e-03
2.016942320669e-03
1.807045388934e-03
5.367508392991e-03
5.211741918196e-03
4.791087967570e-03
4.504528282397e-03
3.617380192862e-03
3.592243224651e-03
3.871542763848e-03
3.825760515629e-03
4.113486033420e-03
4.067343757730e-03
4.345783660312e-03
5.267440361509e-03
1.658829135304e-03
2.980180790998e-03
5.045745089381e-03
4.837810433997e-03
2.604840179930e-03
2.359528337880e-03
5.236949940379e-03
2.139698474170e-03
5.776025953178e-03
4.548865527363e-06
9.778909536363e-05
2.339238525722e-03
2.860933532174e-03
2.233233218599e-03
2.157897013088e-03
4.004695448910e-03
9.235095768594e-04
1.682665914814e-03
4.384602592843e-03
1.382892764948e-03
4.658101181556e-03
2.105930324669e-03
3.025966663440e-03
1.860371278765e-03
2.156903041045e-03
3.791766830717e-03
3.575521711054e-03
3.414449332742e-03
2.082739350568e-03
2.302944948856e-03
2.030320299130e-03
3.548903922870e-03
4.919586046203e-03
5.037796762255e-03
5.310613898604e-03
5.154282845663e-03
4.869442501820e-03
4.979196796726e-03
5.263482143390e-03
5.097588445123e-03
5.433286767238e-03
5.203085790594e-03
4.911819673152e-03
5.013424306316e-03
5.289013913456e-03
4.727439554445e-03
5.236156713520e-03
2.555895745055e-03
9.111497954274e-05
4.210174297477e-04
3.201712461661e-03
5.730004135783e-03
5.767445976811e-03
1.691075707631e-03
5.643473628579e-03
3.519780408461e-03
1.047073323882e-03
5.592957634279e-03
4.751520745494e-03
4.579435651060e-03
4.463201836768e-03
5.793236110746e-03
4.123046406902e-03
5.509305537426e-03
3.389446893060e-03
3.279327038173e-03
2.961278145953e-03
4.801619878836e-03
5.436694213567e-03
5.157649565966e-03
5.160321964187e-03
4.861485784402e-03
5.448713258893e-03
5.717599457513e-03
5.706213826985e-03
1.828494135708e-03
1.709398695910e-03
1.898258451700e-03
1.622333472901e-03
1.412743391040e-03
1.316736111381e-03
1.628168335130e-03
1.039665837843e-03
4.929832743955e-03
5.492129088288e-03
3.625564248662e-03
3.432597322909e-03
3.134856267973e-03
2.952066020253e-03
3.078747520708e-03
3.351373813983e-03
2.815770384213e-03
4.041389319165e-03
5.510043080626e-03
3.303884447530e-03
2.928688293770e-03
3.336341398281e-03
3.593836274312e-03
3.598511107039e-03
3.869249033601e-03
3.623805167776e-03
3.516608453604e-03
3.658527646077e-03
3.515347475486e-03
3.794985028764e-03
3.639781273070e-03
3.373627075467e-03
3.921733030934e-03
3.752559113767e-03
3.333440693931e-03
1.541531548536e-04
5.940250931269e-04
7.027142990941e-04
1.021409890230e-03
8.359819815989e-04
1.303920167999e-03
1.039423496534e-03
3.284076278483e-04
3.019271284436e-04
6.566057884129e-04
3.288717913001e-04
5.940028616349e-04
1.062033452019e-03
1.367334253023e-03
5.652286702244e-03
2.938936405259e-03
2.805289880450e-03
2.499233211098e-03
2.662705054473e-03
3.052456379495e-03
2.341669267002e-03
2.236323217213e-03
3.271422925251e-04
4.419598349489e-04
4.410447408450e-04
7.207625795544e-04
7.074768685298e-04
4.420400412776e-04
4.449633113941e-04
3.145644272533e-04
4.504548672275e-04
7.268015370500e-04
3.062409538729e-04
4.745527215494e-03
4.902505264739e-03
5.544916367284e-03
3.368924595429e-03
2.544811655954e-04
5.780998861492e-03
5.813842834379e-03
5.817013326087e-03
5.233971751005e-03
5.365637462079e-03
5.788240472877e-03
2.014050555547e-03
5.434538857935e-03
5.267458791713e-03
1.311421764019e-03
2.008026884127e-03
4.362324178154e-03
3.910057017267e-03
4.933262515921e-03
4.079022426720e-03
4.641099795521e-03
5.158355521769e-03
1.213464950072e-03
4.185417172818e-03
4.076798602367e-03
4.811798339392e-03
2.086149546152e-03
3.238993663622e-03
1.348867022610e-03
5.359250132040e-03
3.285416912687e-03
3.046769336548e-03
2.677719312106e-03
2.168475210699e-03
1.957305737071e-03
2.768223087164e-03
3.036664388310e-03
4.286179880856e-03
4.975421168353e-03
3.166773246265e-04
4.414552831620e-03
3.582806630633e-03
4.292263749295e-03
4.187531334711e-03
1.624964030413e-03
4.913094015127e-03
5.399859365631e-03
3.948537402346e-03
1.019982226970e-03
3.882948642930e-03
5.011342776407e-03
4.799927772923e-03
1.909455734444e-03
2.789026983488e-03
3.096861197051e-03
3.026441214717e-03
5.391810110936e-03
3.115333052868e-03
4.488935570888e-03
3.471918703046e-03
2.042934957486e-03
4.758450757248e-03
2.730164700612e-03
5.205251802628e-03
4.359423513210e-03
1.928746000249e-03
5.001431347950e-03
2.931441338209e-03
4.390043822392e-03
3.117148399214e-03
3.803735016467e-03
4.266483966727e-03
3.482072113493e-03
4.216350577803e-03
4.589726999369e-03
7.822158450212e-04
2.336975079915e-03
4.252864040516e-03
4.830810690924e-03
5.492998307562e-03
2.853919931406e-03
4.620197000946e-03
5.283300374483e-03
3.195345026289e-03
1.407849422888e-03
1.052568637253e-03
1.231938885888e-03
2.888387059379e-03
3.468984859371e-03
5.520066455693e-03
4.776767016044e-03
4.191097730844e-03
7.054263323161e-04
3.137270481220e-03
4.930209733183e-03
2.967745864271e-03
4.518076980286e-03
3.471719766141e-03
5.320909655121e-03
2.513659337608e-03
5.087932046228e-03
4.157539429140e-03
1.929448282595e-03
3.328255837959e-03
5.415880323612e-03
4.493880815661e-03
3.756679585458e-03
2.829619919497e-03
2.715238429679e-03
3.628276273172e-03
3.993174405771e-03
5.804322562982e-03
4.644362204700e-03
4.291233033703e-03
3.502523749532e-03
3.813462889229e-03
7.047390220056e-04
2.825859966298e-03
3.651715310585e-03
1.384942781952e-03
3.032571676708e-03
5.114951343620e-03
3.797843583975e-03
1.739058177563e-03
3.939088055833e-03
2.408697712716e-03
4.407302233334e-03
4.073717321279e-03
4.269608694399e-03
7.894202949830e-04
3.833002126981e-03
5.075427847676e-03
2.404246341971e-03
3.233663163957e-03
4.694223929722e-03
2.107126776239e-03
3.545482769992e-03
4.553232214609e-03
3.920507140127e-03
3.187539066147e-03
3.865534957540e-03
2.217505343363e-03
1.917452006600e-03
1.657786857477e-03
1.956380160446e-03
4.746672213180e-03
1.005389459169e-03
4.623386601130e-03
1.307883538802e-03
1.891532021104e-03
4.345633367676e-03
4.169109331877e-03
2.143128441899e-03
1.729669733719e-03
2.136474112095e-03
3.495395175694e-03
2.347008504077e-03
2.321698774103e-03
5.562109209316e-03
2.479278600157e-03
5.832033053261e-03
5.683459550606e-03
3.569571471478e-03
1.841669118824e-03
0.0
1.939425135395e-03
2.198379986357e-03
4.544915456455e-03
3.572687871250e-03
2.077081277084e-03
5.482725273702e-03
5.548817509373e-03
4.594253848124e-03
4.650854355195e-03
4.026711817750e-03
5.298348689818e-03
3.310673635212e-03
5.319704039765e-04
4.366888493405e-03
1.596020396402e-03
1.727925572495e-03
1.537504339033e-03
2.155926239816e-03
1.066640011348e-03
1.470469770676e-03
5.133441966827e-03
3.576035110635e-03
4.538549050418e-03
1.190734353883e-03
5.563426082931e-03
5.226029974004e-03
5.618784336637e-03
4.858869215134e-03
1.131768423013e-03
3.817527287724e-03
5.388671225134e-03
4.831755994393e-03
5.661150035348e-03
3.527768805689e-03
5.594510040717e-03
8.645247776374e-04
5.592056671628e-03
4.830647828208e-03
3.948871847594e-03
3.795468355754e-03
5.483498521481e-03
5.518494078473e-03
7.078378622743e-04
4.578727725803e-03
2.665021533502e-03
8.704557035292e-05
5.306855478618e-03
5.101857700586e-03
5.457161495010e-03
7.154962728763e-04
4.367291898862e-04
5.308036467257e-03
5.475077044311e-03
1.415797628064e-03
5.866481278788e-03
1.720779943565e-04
3.266292359391e-03
4.330017662913e-04
5.682371966829e-03
5.607182569852e-03
2.919687531898e-03
3.339776257796e-03
1.951427265437e-03
5.094079203513e-03
8.720869757284e-04
5.646101319162e-03
5.274827266557e-03
5.610655463052e-03
5.543108792546e-03
1.443335536967e-05
5.340000167234e-03
4.934198621273e-03
3.315096198721e-03
5.545224744200e-03
2.394333441960e-03
1.003430899199e-03
5.853061777030e-03
3.607200523448e-04
3.294611847680e-03
5.738597030996e-03
9.205396441291e-04
3.785517905279e-03
5.505285211454e-03
3.560630679607e-03
5.121626185149e-03
1.319457347623e-03
0.0
4.321439572445e-03
5.262500811899e-03
5.642111831980e-03
4.116674015646e-03
7.838175614556e-04
5.331973850864e-03
3.136604846599e-03
5.194131730829e-03
4.931303994474e-03
1.827325788130e-04
3.813324024854e-03
4.130724803800e-04
5.442551602023e-03
3.274124271133e-03
2.588979310392e-03
2.642045162662e-03
2.890176481776e-03
2.907269203429e-03

SCALARS node_materi_plasti_phimob float
LOOKUP_TABLE default
1.902953845882e+01
-1.111004332512e+01
2.060254052516e+01
1.834273329391e+01
-2.712410848918e+01
-1.475753130868e+00
6.279084080536e+00
1.068429807583e+01
1.327883290476e+01
1.496975250083e+01
1.630476946703e+01
1.739310483831e+01
1.825187007335e+01
1.897690894741e+01
1.957845067855e+01
1.992993068757e+01
2.015510615886e+01
2.039967901369e+01
2.054475421605e+01
2.062039121102e+01
2.065887584254e+01
2.066484917808e+01
2.064202031944e+01
1.839296578708e+01
1.838608083807e+01
1.840928242738e+01
1.843808494447e+01
1.844407031254e+01
1.850905635989e+01
1.856521537944e+01
1.866345924149e+01
1.878216091803e+01
1.891675744622e+01
1.903717023182e+01
1.924411139623e+01
1.945051904953e+01
1.972677289703e+01
1.995200157963e+01
2.029180412865e+01
2.056870525951e+01
2.083362664150e+01
2.114156415290e+01
2.139207301285e+01
2.157972151284e+01
2.166992536491e+01
2.176898730298e+01
2.180192049944e+01
2.179307606048e+01
2.175498858471e+01
2.171051000314e+01
2.163534115370e+01
2.155667874487e+01
2.143002868762e+01
2.137596030962e+01
2.130713861779e+01
2.120453353389e+01
2.112287342868e+01
2.105120395925e+01
2.097095548851e+01
2.092343477538e+01
2.086665324353e+01
2.082914091277e+01
2.079237933071e+01
2.074728096287e+01
2.070059789030e+01
2.067349115934e+01
2.069051427956e+01
2.063140052717e+01
2.063353322190e+01
2.061596436817e+01
2.060800106524e+01
2.060842676800e+01
-4.406029585060e-01
5.444249771741e+00
9.089296835788e+00
1.156463362532e+01
1.344768579235e+01
1.488902013154e+01
1.606278213121e+01
1.703469162053e+01
1.785898417704e+01
1.635503089170e+01
-4.749224648828e+00
3.151967322709e+01
2.642206632174e+01
2.416241556196e+01
2.189027081970e+01
1.888761732704e+01
1.681736716524e+01
1.515355250149e+01
6.724706105865e+00
-7.254510795990e+00
-2.893040287880e+01
-2.413145707049e+01
-1.328048181450e+01
-1.286485459688e+01
-1.279585666433e+01
-1.290760948036e+01
-1.122090195513e+01
-1.276741372181e+01
-1.284448485228e+01
-1.270852835444e+01
-1.243470405285e+01
-1.226345792643e+01
-1.198524957682e+01
-1.138620729207e+01
-1.020361029087e+01
-8.220722895412e+00
9.173631238129e+00
7.337755313040e+00
7.827170485045e+00
9.047947332721e+00
8.713712823190e+00
-5.765283852508e+00
-3.537187053538e+01
-5.190724662100e+01
-5.883663433482e+01
-5.972941990137e+01
-5.966575140448e+01
-5.800360787947e+01
-7.724551915480e+00
8.999999999681e+01
8.953226829702e+01
8.919798812409e+01
8.854794909470e+01
8.790042539524e+01
8.765536470688e+01
-2.980148314457e+01
-3.056667638120e+01
-3.060488210112e+01
-3.077515987441e+01
-3.101180967942e+01
-3.146976812063e+01
-3.202986401149e+01
-3.271849719303e+01
-3.344060817039e+01
-3.438110013922e+01
-3.526609421395e+01
-3.586440043428e+01
-3.601136849385e+01
-3.509071198163e+01
-3.216331241081e+01
-2.521102740431e+01
-9.462363767526e+00
-1.688180671253e+01
-1.923816027834e+01
-2.312622820104e+01
-2.468080915859e+01
-2.548405615406e+01
-2.577671449460e+01
-2.579715587314e+01
-2.573805742779e+01
-2.553460028855e+01
-2.543559581655e+01
-2.531522590557e+01
-2.524285928907e+01
-2.516683595008e+01
-2.520627792008e+01
-2.525026534465e+01
-2.475148544621e+01
3.322595965515e+01
2.849625503029e+01
2.487802634734e+01
2.276046669836e+01
2.169680130745e+01
1.897106269245e+01
1.587770080679e+01
1.447694570154e+01
1.647198060559e-01
-5.725125924016e+00
2.465524608269e+01
2.166168762327e+01
-3.882870578590e+01
1.185043235035e+01
2.119320191141e+01
2.029207867896e+01
1.932756118890e+01
2.198576120179e+01
1.749579399467e+01
2.196612411312e+01
1.165575646132e+01
2.084668023889e+01
1.037602588219e+01
2.137296088746e+01
1.058575453515e+00
1.573695151604e+01
2.029802761637e+01
2.032103050429e+01
1.899748895026e+01
1.808040854337e+01
1.810686497948e+01
1.849927866595e+01
-1.045339956869e+00
-2.234851398011e+00
-1.596429217945e+00
1.257354374974e+01
2.072010355300e+01
1.066230845365e+01
3.593552920169e+01
2.065419014688e+01
-2.221125140474e+00
8.757874546266e+00
1.944241352340e+01
2.199788747431e+01
2.176283567089e+01
2.192493501902e+01
2.143774200974e+01
-7.219717938344e+00
-2.418657791873e+00
2.107821253624e+01
1.548999762439e+01
-3.878727355888e+01
1.787594831536e+01
1.816048698730e+01
1.875877444937e+01
2.227952376404e+01
1.562457881399e+01
1.760204602207e+00
2.995443223691e+01
7.711294264681e+00
2.066212057137e+01
3.487720968648e+01
1.742121234380e+01
2.222511151912e+00
5.875244683036e+00
6.267171512144e+00
9.424949022487e+00
9.894968170813e+00
1.186923833912e+01
1.167078201439e+01
1.352837791250e+01
1.350532138981e+01
1.227892059169e+01
1.492618735516e+01
1.499045634772e+01
1.609332056649e+01
1.619831115076e+01
1.518028428082e+01
1.643604826381e+01
1.554287899524e+01
1.717059470222e+01
1.783128685584e+01
1.878908909340e+01
1.833713464204e+01
1.984125800021e+01
1.954453090142e+01
2.092660800137e+01
2.074338042602e+01
2.202048210388e+01
2.204876141757e+01
2.305797583531e+01
2.311175556208e+01
2.406480863952e+01
2.417428327853e+01
2.504853316283e+01
2.478912158526e+01
2.568823650437e+01
2.600282568376e+01
2.655817953651e+01
2.692362321273e+01
2.738404536173e+01
2.780340424057e+01
2.814875402540e+01
2.757571449616e+01
2.820100524167e+01
2.882542365425e+01
2.870460644511e+01
2.801287248323e+01
2.833785571084e+01
2.763375873617e+01
2.779161515055e+01
2.846159863716e+01
2.773693846235e+01
2.713127398537e+01
2.693502638115e+01
2.742274907087e+01
2.649399703835e+01
2.611765741771e+01
2.560047941044e+01
2.578866545706e+01
2.486069143699e+01
2.477881713656e+01
2.404696816936e+01
2.389404637126e+01
2.313700304212e+01
2.335213302622e+01
2.251888072757e+01
2.276386975031e+01
2.206438311613e+01
2.157283777600e+01
2.085817432237e+01
2.053660291737e+01
2.529837336977e+01
1.956555041069e+01
1.979723589441e+01
1.945161685392e+01
2.031616919934e+01
1.823867272652e+01
1.835074901151e+01
1.692102017864e+01
2.714015481669e+01
1.923552545161e+01
1.726603587315e+01
1.563924107938e+01
1.495482550894e+01
1.341693632795e+01
1.068016863425e+01
1.282652889029e+01
1.139953455350e+01
1.343894518883e+01
1.229349182078e+01
1.437713556626e+01
1.609521071478e+01
1.450753335999e+01
1.785490877590e+01
2.305264546490e+01
2.730841129237e+01
1.847682867961e+01
1.757670149228e+01
1.863009783247e+01
2.340577978412e+01
2.284874711592e+01
2.333198315811e+01
2.280798116295e+01
2.315841498059e+01
2.267015646530e+01
2.235385950350e+01
2.224382294554e+01
2.196511211954e+01
2.290778234926e+01
2.341723336092e+01
2.187620058125e+01
2.163606703960e+01
2.156316691377e+01
2.136173795920e+01
2.135118153605e+01
2.112577487334e+01
2.103435129359e+01
2.693167315009e+01
2.660618582599e+01
2.623711461989e+01
2.590982405611e+01
2.554686052718e+01
2.521864981104e+01
2.485774395892e+01
2.511028588498e+01
1.707080200540e+01
2.937258305030e+01
2.937524622897e+01
2.998745330377e+01
2.978628463329e+01
3.049582924166e+01
2.995484570286e+01
3.069302388480e+01
3.095962646307e+01
3.086662810501e+01
3.078428009595e+01
3.046429895364e+01
2.991525515723e+01
2.294552350604e+01
2.549538547129e+01
2.481664192118e+01
2.502002987079e+01
1.224892479817e+01
2.113799428669e+01
2.306163745232e+01
2.357714022999e+01
2.443435676545e+01
1.191502237165e+01
2.953547144091e+01
2.870180893532e+01
1.408314828406e+01
1.312784005879e+01
2.312553992803e+01
1.313494930945e+01
2.206156556540e+01
3.012309350659e+01
2.094653105782e+01
2.096398957764e+01
2.196894631301e+01
2.436745609258e+01
2.450098493512e+01
2.993844947096e+01
2.865536752138e+01
2.800073176283e+01
2.616752768034e+01
2.698339053504e+01
2.448158372065e+01
2.251833624476e+01
2.095693918224e+01
2.291351989576e+01
1.975514459717e+01
1.606994901938e+01
1.580842077299e+01
2.109328021659e+01
2.963385983868e+01
1.394929134861e+01
2.265781032219e+01
2.416269101383e+01
1.473247528630e+01
1.393208604900e+01
1.213589501715e+01
1.311488478760e+01
1.470017827743e+01
1.400104670361e+01
1.226333257894e+01
1.326897972424e+01
1.134368999838e+01
1.249079007866e+01
1.416205957262e+01
1.349628105996e+01
1.165312631248e+01
1.277303568285e+01
1.070825270603e+01
1.195374856798e+01
1.374203576208e+01
1.037792966359e+01
2.462602738882e+01
2.396771270378e+01
1.792670957378e+01
1.878173133394e+01
1.942810697237e+01
1.945723478833e+01
1.302074630539e+01
1.459599200095e+01
2.755977273465e+01
2.673215833000e+01
1.551387907211e+01
2.081562355292e+01
2.073602258348e+01
2.412079110831e+01
2.277658311020e+01
2.378646008043e+01
2.212044540748e+01
2.118219753512e+01
2.300130788824e+01
2.398182088669e+01
1.496511910539e+01
1.417343026713e+01
1.079882251015e+01
2.084394956138e+01
2.526884597849e+01
2.203863714498e+01
2.280656211641e+01
2.201526128250e+01
2.265817537649e+01
2.198998162517e+01
2.250891927323e+01
2.311565003951e+01
2.389454028106e+01
2.285619033206e+01
1.096941165049e+01
2.567499598894e+01
2.165976751784e+01
8.454265391661e+00
1.100003831274e+01
1.178183370635e+01
1.410064415639e+01
2.263751536011e+01
2.196707334664e+01
2.139105408618e+01
2.028108241018e+01
1.936458350419e+01
2.370328996450e+01
9.956145780014e+00
1.002633600632e+01
8.800360101495e+00
7.867482820512e+00
1.129760709952e+01
1.540933201683e+01
2.765223048878e+01
2.570664056070e+01
2.866792903995e+01
2.740375779006e+01
1.391970732775e+01
1.529949354251e+01
1.998367573611e+01
1.996958498793e+01
2.309939813568e+01
1.168411716442e+01
1.584401409304e+01
2.472677094203e+01
2.531109864014e+01
1.885992723413e+01
2.471200317115e+01
2.528136572422e+01
2.393563323924e+01
1.582454373078e+01
1.295779113662e+01
2.254512983368e+01
1.599437534215e+01
2.338785323695e+01
2.376890400393e+01
2.300058590090e+01
6.412684052580e+00
2.221210829481e+01
2.073660775049e+01
2.149750797291e+01
2.088286799882e+01
2.663652506524e+01
2.471832420001e+01
2.326771234012e+01
2.242976349935e+01
1.170826806765e+01
2.567024945197e+01
1.453667265768e+01
1.243976870030e+01
1.339308285548e+01
2.004782098963e+01
1.818254400160e+01
2.896056815281e+01
2.685862290765e+01
2.006377972613e+01
2.125199070301e+01
2.392709932940e+01
1.551382841307e+01
1.617909903511e+01
9.215729841377e+00
7.855659129424e+00
8.345620259307e+00
5.965404356769e+00
2.227287184072e+01
2.223661237523e+01
1.603656794250e+01
1.670016045463e+01
1.626183695042e+01
2.299785867154e+01
2.972387367806e+01
2.644935283953e+01
2.831098205026e+01
2.446941075980e+01
2.404018565005e+00
1.847954411713e+01
2.075005751723e+01
2.081673250996e+01
2.328484805082e+01
5.817149077030e+00
2.487154229338e+01
2.560169295481e+01
1.074157219086e+01
1.240633770278e+01
1.504617543193e+01
1.445541887311e+01
2.282396955697e+01
2.079029538755e+01
2.194224732093e+01
2.260065575362e+01
2.118758693137e+01
2.048422057605e+01
2.303460873449e+01
2.344320492280e+01
1.488659895348e+01
1.742193198110e+01
1.656827903123e+01
9.860773802922e+00
2.181871627267e+01
2.185955831782e+01
2.391671656931e+01
2.524173863222e+01
1.644108033403e+01
2.068005543760e+01
1.997112491812e+01
2.131175705652e+01
2.064754462799e+01
-2.309755277305e+00
2.071984466464e+01
1.873154902219e+01
1.689189914725e+01
2.508067098226e+01
2.514743552569e+01
2.359475373063e+01
1.587920101075e+01
1.700688142558e+01
6.970938056112e+00
5.067266324165e+00
8.394947031586e+00
2.880450898737e+01
2.690708178432e+01
1.567890591377e+01
1.671984447165e+01
1.729858262545e+01
1.246416895710e+01
1.594143697818e+01
2.052397867211e+01
2.069575525062e+01
1.967267876464e+01
1.909907988661e+01
2.117457807066e+01
2.471424628343e+01
2.521991991214e+01
2.587362527162e+01
1.664115451291e+01
1.728675050322e+01
2.452459458313e+01
2.572552431411e+01
2.196716102998e+01
1.708269092401e+01
2.076841445822e+01
2.087168072116e+01
-1.625405770710e+00
3.222771804345e+00
2.247649515526e+01
2.406999870209e+01
1.733081424977e+01
1.698908633855e+01
1.777746083654e+01
1.375464291189e+01
2.396053194304e+01
2.238759708607e+01
2.287555993323e+01
2.190378102221e+01
2.344309068641e+01
2.288298814329e+01
2.258162861596e+01
1.960856858305e+01
1.668766457340e+01
5.522712710491e+00
1.520015414707e+01
3.497462339906e+00
6.225712239280e+00
4.298350516816e-01
1.146228429968e+01
3.818019206733e+00
6.585189956637e+00
-1.053457908162e+01
1.757300050014e+01
-7.811610963753e+00
-1.808081612350e+00
2.150119696658e+01
2.154111401015e+01
2.123934431699e+01
2.127460834551e+01
2.151045998273e+01
2.125483249037e+01
2.727267590188e+00
2.102314019948e+01
2.103210739056e+01
2.088502330359e+01
1.198426391167e+01
2.177834718833e+01
1.930654863438e+01
1.791658440876e+01
2.101222263419e+01
2.023476618684e+01
2.068007847220e+01
2.061530499743e+01
3.870461960505e+00
3.710824221594e+00
7.608604303580e+00
7.210813893699e+00
1.004343505113e+01
9.694927200762e+00
1.189459089231e+01
2.226922689990e+01
1.952578652266e+01
7.286606426330e+00
2.274266256042e+01
2.316014750677e+01
1.616142419297e+01
1.557483632298e+01
2.167006671334e+01
2.709330694159e+01
1.822134613395e+01
1.479113436242e+01
2.090622065377e+01
2.612404174816e+01
1.670085670160e+01
2.097982939028e+01
1.900696882151e+01
2.418039028082e+01
5.500312397381e-01
2.173463828992e+01
1.206019000446e+01
2.078274927255e+01
2.060215761842e+01
2.806630357766e+01
2.046615082752e+01
2.412037593366e+01
2.386764544959e+01
1.365847318660e+01
9.209806574653e+00
9.386605118459e+00
2.862916865298e+01
1.829585799531e+01
1.703054907353e+01
1.649909274074e+01
1.585807647453e+01
1.666919353039e+01
1.764202857830e+01
1.741058388429e+01
1.641292769270e+01
1.722291691184e+01
1.807962433871e+01
1.795747545885e+01
1.898462276001e+01
1.871730795749e+01
1.787258235517e+01
1.864937510311e+01
1.949359081401e+01
1.784566021054e+01
2.231991056186e+01
2.618240569831e+01
2.454998145616e+01
2.551392012626e+01
1.919181868211e+01
1.997933764471e+01
1.921345536879e+01
2.903064724646e+01
2.157206452981e+01
1.198996992118e+01
3.000950340436e+01
2.187482027514e+01
1.549827756750e+01
1.520051621719e+01
1.406866452746e+01
1.879972327882e+01
9.803903349053e+00
2.196515661495e+01
2.617696144256e+01
2.631931774787e+01
2.695888519872e+01
1.709472090193e+01
2.176603454580e+01
2.238249754918e+01
2.225942853783e+01
2.300136983836e+01
2.156698191519e+01
2.078871246025e+01
2.113644901031e+01
2.533838494737e+01
2.710431528159e+01
2.702075378180e+01
2.825806491626e+01
2.857546267076e+01
2.945321129364e+01
2.890016891479e+01
3.045803848057e+01
1.967372053973e+01
2.135438175057e+01
2.371104657005e+01
2.432291939488e+01
2.459370184383e+01
2.016712735968e+01
2.091421385514e+01
2.130204096411e+01
1.940448079617e+01
2.338039674660e+01
2.126147190738e+01
2.589817811519e+01
2.119823787362e+01
-1.934062612697e+00
3.975711421401e+00
4.849388164502e+00
8.214450789551e+00
3.994019570718e+00
2.040999062018e+01
2.033941596188e+01
1.997834820278e+01
2.029650277330e+01
1.999184635631e+01
1.961899882218e+01
2.026793154102e+01
2.002446956886e+01
-2.441340357320e+00
1.044807557944e+01
1.276170034456e+01
1.910222879071e+00
1.298177998185e+01
2.021034284782e+01
1.944936742985e+01
2.397002325057e+01
1.978317011588e+01
-2.430714561190e+01
-5.763061415304e+00
-3.463861927127e+01
-1.066795931745e+01
3.945293055098e+00
9.222673992029e+00
2.070296406319e+01
1.865533218252e+01
1.837889129371e+01
1.749584567916e+01
1.807613842601e+01
1.899983202355e+01
1.692336696315e+01
1.655014329275e+01
3.582470434769e+01
-7.657242521363e+00
-9.400813627048e+00
3.320918586062e+00
2.926094513989e+00
-7.831361648972e+00
-8.348536804764e+00
3.591713119490e+01
-9.294646860758e+00
2.286627793241e+00
3.531430021230e+01
1.422069918775e+01
1.497115472045e+01
2.112862585706e+01
-1.554504791795e+00
-3.896349398575e+01
1.792336591827e+01
1.812590508610e+01
1.810603634821e+01
2.066766140032e+01
2.067470508900e+01
1.794218417260e+01
1.654012568493e+01
1.823543503730e+01
1.631855518845e+01
2.823604111318e+01
1.847404699153e+01
2.065249094200e+01
2.163032591476e+01
2.094014166541e+01
2.086640092421e+01
2.130209843020e+01
2.218576169754e+01
1.028891696147e+01
1.033189335539e+01
9.589549278836e+00
1.437830647654e+01
1.622745786153e+01
1.954332954992e+01
1.039812375220e+01
2.176490066389e+01
1.578509328231e+01
2.404772226902e+01
1.940316250540e+01
1.817322902042e+01
1.894334635926e+01
2.519694732775e+01
2.202166132486e+01
2.245716459308e+01
1.515973567573e+01
-3.414947236966e+01
2.259637697130e+01
2.237229262878e+01
1.112080228022e+01
2.452853547048e+01
1.715850852380e+01
1.479704822808e+01
1.711232157237e+01
8.321873020906e+00
5.841354045876e+00
7.350282638964e+00
2.209042096110e+01
1.499369155367e+01
1.515926432850e+01
2.711859043477e+01
2.191858106643e+01
7.134668168632e-01
1.675311869561e+01
2.610088825121e+01
2.375071181085e+01
2.578106846618e+01
1.582422776383e+01
2.182191835388e+01
2.753883633827e+01
1.605317523025e+01
2.128473296736e+01
2.903607834631e+01
1.537246818954e+01
2.532739740317e+01
2.413655941577e+01
1.729898099288e+01
2.106216220091e+01
1.724510259634e+01
2.386899067127e+01
2.047994949920e+01
2.218432376761e+01
2.928454727437e+01
2.474601770725e+01
1.108009307394e+01
2.237117001069e+01
1.709975983284e+01
2.168500776230e+01
2.171891478339e+01
1.655791698438e+01
2.162209762688e+01
1.223524409034e+01
2.630531562263e+01
3.038678428107e+01
2.686842890791e+01
2.186515077926e+01
1.805947694951e+01
2.142743094061e+01
2.363443093426e+01
2.663943163621e+01
6.194761181165e+00
2.118930762612e+01
2.651853045239e+01
2.383780517860e+01
1.966409682953e+01
2.199697004811e+01
1.430172731374e+01
2.101426603050e+01
2.412148805196e+01
2.806218037041e+01
-2.117916969694e+00
2.087093021574e+01
2.347622348027e+01
2.363235435608e+01
2.641569176173e+01
5.352805206223e+00
2.152740311502e+01
2.011239227098e+01
1.864222848126e+01
2.328509570673e+01
1.371581945969e+01
2.104278079511e+01
2.512080945614e+01
2.537723575911e+00
9.364255536621e+00
2.084298036276e+01
2.978921767664e+01
2.568903631499e+01
2.269442506180e+01
2.069505969523e+01
2.912752316254e+01
2.058859611064e+01
1.456646395341e+01
1.500022689351e+01
2.050721144527e+01
2.037543481800e+01
2.162165699738e+00
2.412447858176e+01
2.068996212021e+01
2.132456889801e+01
2.498639981987e+01
1.621574799802e+01
1.629460679368e+01
2.458554474693e+01
2.063516361891e+01
2.442687344484e+01
2.630636470556e+01
2.413627385768e+01
1.647925586187e+01
1.618361107500e+01
1.333475555322e+01
2.832804539740e+01
2.007956398316e+01
8.139589507891e+00
1.704192757012e+01
7.670268871723e+00
2.786784433268e+01
2.398405539472e+01
1.056230722827e+01
2.680551732428e+01
1.426930983218e+01
2.585177667865e+01
2.571901298472e+01
2.480283816979e+01
2.351956122416e+01
1.728929980809e+01
2.270373483972e+01
1.804705335554e+01
2.064934330457e+01
3.232354003876e+00
1.862408473232e+01
1.010515724801e+01
1.756860188481e+01
2.019171985419e+01
1.799603735190e+01
3.432700466293e+00
1.823189708943e+01
1.972788558734e+01
2.198023024184e+01
1.344391472087e+01
2.345990325999e+01
2.454255913077e+01
1.649181916354e+01
-2.737500326122e+00
-1.242967097015e+01
2.049623735770e+01
2.057280709238e+01
1.878760798933e+01
2.001582257382e+01
1.632994083228e+01
6.670056894997e+00
2.134049119869e+01
2.248030225164e+01
3.088408886576e+00
2.348483334370e+01
2.304213937814e+01
1.756631000733e+01
2.247721562135e+01
2.093263958125e+01
2.300667753411e+01
2.253400322222e+01
7.190222042823e+00
2.149835476185e+01
1.459184161611e+01
2.078858719300e+01
2.398332980286e+00
1.741260742364e+01
2.737349729723e+01
1.743254510990e+01
1.874038630537e+01
8.361644146146e+00
8.134976770859e+00
2.068201759858e+01
1.887306108365e+01
2.531937600437e+01
1.331937314983e+01
1.824745609577e+01
1.868364996733e+01
2.144209212554e+01
1.948834371728e+01
2.079092496282e+01
3.370343214841e+00
-1.405132693608e+01
2.164687374986e+01
2.069406513489e+01
2.465068002502e+01
1.841741709198e+01
2.497928235096e+01
-3.821150833814e+00
-1.175709329411e+01
2.073376915434e+01
1.747934888766e+01
1.873423279185e+01
4.884015968866e-01
1.536798528219e+01
2.227237058302e+01
-6.886160932673e-01
1.754121270233e+01
2.188609952843e+01
1.814322961503e+01
2.177313871360e+01
1.637799481384e+01
2.228849640203e+01
2.273329117679e+01
-2.755370669040e+00
1.840866758063e+01
1.720431899245e+01
6.954084377105e+00
1.812952661216e+01
1.649707978377e+01
-3.060551190960e+00
2.062877110784e+01
6.897930718833e+00
6.659985095297e+00
2.031867587488e+01
1.975955514771e+01
1.589276381152e+01
1.304954181699e+01
1.030000004874e+01
1.174681672157e+01
2.243500751784e+01
1.791096390173e+01
1.002116922042e+01
2.534210803865e+01
2.007968663091e+01
1.916399797871e+01
2.159196971380e+01
2.291717909929e+01
2.503275837760e+01
2.006881177986e+01
-1.385112533305e+01
2.107787378070e+01
1.938121178642e+01
-1.299389784796e+01
-2.843906192255e+01
-9.717107225377e+00
-1.901512680579e+01

SCALARS node_materi_stress_average_a_sig float
LOOKUP_TABLE default
-3.192695057511e+00
-3.116907816798e+01
-2.410320440957e+02
-1.434583252036e+02
-1.008865353761e+01
-2.211556056247e+01
-3.401952309750e+01
-4.733385678211e+01
-6.010898946756e+01
-7.273871522820e+01
-8.524870511982e+01
-9.767692361358e+01
-1.100739841190e+02
-1.225235417558e+02
-1.352491145546e+02
-1.477139882839e+02
-1.590563478107e+02
-1.714575914130e+02
-1.842143480883e+02
-1.966102616948e+02
-2.090955160967e+02
-2.216879814526e+02
-2.337461864874e+02
-1.441133632551e+02
-1.434689547401e+02
-1.437407713994e+02
-1.438725775659e+02
-1.438266976858e+02
-1.445420690725e+02
-1.453846661267e+02
-1.457563391173e+02
-1.471619376415e+02
-1.480944229545e+02
-1.491732431405e+02
-1.511073615389e+02
-1.536755006420e+02
-1.556002795131e+02
-1.583382673848e+02
-1.609113969060e+02
-1.645565397492e+02
-1.693336635697e+02
-1.738786140002e+02
-1.786890790761e+02
-1.834270930683e+02
-1.884334234211e+02
-1.934139071741e+02
-1.984050676853e+02
-2.034676627535e+02
-2.084074016929e+02
-2.129826716098e+02
-2.172414011639e+02
-2.210306087020e+02
-2.250709483957e+02
-2.280754601389e+02
-2.303336476646e+02
-2.329760081614e+02
-2.351630995401e+02
-2.369980571345e+02
-2.384903846264e+02
-2.395466933753e+02
-2.402629153012e+02
-2.406428013766e+02
-2.407940895167e+02
-2.412646235525e+02
-2.419507496813e+02
-2.421674111711e+02
-2.404910207446e+02
-2.418074899646e+02
-2.411831677551e+02
-2.414609181444e+02
-2.418051070905e+02
-2.416895819454e+02
-4.339940946757e+01
-5.536393496913e+01
-6.725994962444e+01
-7.882395834615e+01
-9.058624986704e+01
-1.024485052425e+02
-1.139669861362e+02
-1.252678637675e+02
-1.370835275269e+02
-5.700416584163e+01
-3.784868465950e+01
-3.198908844394e+01
-2.942557095725e+01
-2.810256350873e+01
-2.606123132579e+01
-2.500366582955e+01
-2.439834430338e+01
-2.472127577554e+01
-2.573532446854e+01
-2.552544864975e+01
-1.173531680694e+01
-1.891066114238e+01
-2.965541745060e+01
-3.041574979672e+01
-3.043928903304e+01
-3.037342999079e+01
-3.212550317956e+01
-3.072994304695e+01
-3.080259235648e+01
-3.103601591925e+01
-3.151240096100e+01
-3.178143145173e+01
-3.221057992566e+01
-3.276278639091e+01
-3.373332231738e+01
-3.512247084782e+01
-7.866374023576e+01
-8.873369556893e+01
-9.036173908247e+01
-8.188450076655e+01
-5.134814833358e+01
-2.193544328565e+01
-1.142153592485e+01
-8.019635897902e+00
-6.305100883780e+00
-5.590157411144e+00
-5.123226590383e+00
-4.904027086463e+00
-4.435844106495e+00
-3.768942070590e+00
-3.519394556921e+00
-3.354669198826e+00
-3.152836083737e+00
-2.856552113457e+00
-2.559054495675e+00
-1.268745110822e+01
-1.269554483238e+01
-1.265828767412e+01
-1.262425027823e+01
-1.256305054023e+01
-1.245744468588e+01
-1.233822933399e+01
-1.218153477579e+01
-1.201600350426e+01
-1.183685448215e+01
-1.167391777622e+01
-1.158100638423e+01
-1.161947648442e+01
-1.187346125581e+01
-1.270734126527e+01
-1.406450594013e+01
-1.453028621588e+01
-2.085274374007e+01
-2.193720504480e+01
-2.004724878518e+01
-1.944039160150e+01
-1.910095569108e+01
-1.892479350563e+01
-1.881107318969e+01
-1.876738989732e+01
-1.882044626655e+01
-1.880092192386e+01
-1.880681794841e+01
-1.882383596730e+01
-1.882518830697e+01
-1.878964932519e+01
-1.884833850454e+01
-1.897558229883e+01
-3.765498232630e+01
-3.057741986286e+01
-2.849925652695e+01
-2.758318442921e+01
-2.622517916106e+01
-2.489028583507e+01
-2.427232206069e+01
-2.642269154968e+01
-2.307207915018e+01
-3.277374401623e+01
-3.477350958635e+01
-2.278069565419e+02
-1.198596015050e+01
-6.404146436997e+01
-2.344539773850e+02
-3.154053085449e+01
-1.293757572673e+02
-2.161096211143e+02
-3.008205319122e+01
-2.004040491983e+02
-3.350909512922e+01
-2.367732226853e+02
-8.566271251248e+00
-1.812007369938e+02
-4.642512937665e+01
-7.962239920128e+01
-1.633048459953e+02
-1.672716328819e+02
-1.531261783928e+02
-1.402141058688e+02
-1.414783256036e+02
-1.466952566474e+02
-4.738856949424e+01
-4.344025951761e+01
-4.317561448222e+01
-8.481420512834e+01
-2.361159820305e+02
-7.675004969784e+01
-8.307989666902e+00
-2.024162151020e+02
-4.111337764223e+01
-4.062092546292e+01
-1.573964546599e+02
-2.095855618473e+02
-1.908548724736e+02
-2.214223997267e+02
-2.318144782936e+02
-2.363455870318e+01
-4.444051851777e+01
-2.335458640757e+02
-1.079011696271e+02
-1.022662200999e+01
-1.039613382276e+02
-1.411968664406e+02
-3.166216990991e+01
-3.275790188221e+01
-3.079886274805e+01
-3.727298059416e+01
-3.968615584695e+01
-6.232563953791e+01
-2.380585698851e+02
-7.592392048208e+00
-1.304584870754e+02
-5.155640022046e+01
-5.935088637003e+01
-6.345097673315e+01
-7.273891821951e+01
-7.734425119910e+01
-8.561159290425e+01
-8.148749228231e+01
-9.418514974895e+01
-9.032170947971e+01
-9.031931073042e+01
-1.028636230511e+02
-9.927589611133e+01
-1.116476457687e+02
-1.082870726762e+02
-9.604237328944e+01
-1.051964551092e+02
-9.307856367978e+01
-1.023531574097e+02
-1.142868192566e+02
-1.115175107864e+02
-9.970971464433e+01
-1.088674980645e+02
-9.727631965570e+01
-1.063918255124e+02
-9.501547105815e+01
-1.040376673219e+02
-1.153228331594e+02
-1.128223064930e+02
-1.017707379755e+02
-1.103829408779e+02
-9.959171762507e+01
-1.079819068645e+02
-1.187683705946e+02
-1.161325382269e+02
-1.055760085578e+02
-1.134757483953e+02
-1.031683247079e+02
-1.108004440607e+02
-1.007514164522e+02
-1.080403970397e+02
-1.181556623473e+02
-1.150648574414e+02
-1.051987012997e+02
-1.117996219070e+02
-1.218382680290e+02
-1.181397246648e+02
-1.283894684497e+02
-1.242748052094e+02
-1.142442002766e+02
-1.199303200904e+02
-1.302427814300e+02
-1.254780952405e+02
-1.153038767369e+02
-1.204657735169e+02
-1.309705149209e+02
-1.256216109573e+02
-1.151466426517e+02
-1.200048996314e+02
-1.308553273255e+02
-1.249444634747e+02
-1.140725855790e+02
-1.187929426342e+02
-1.300117136322e+02
-1.236446875003e+02
-1.351534437513e+02
-1.123041322924e+02
-1.170429789979e+02
-1.055279297826e+02
-1.102549199129e+02
-1.269425117565e+02
-9.856410012927e+01
-9.416879285383e+01
-1.033159734987e+02
-1.152111435695e+02
-9.143255326961e+01
-9.624455718611e+01
-8.417865113473e+01
-9.297866849928e+01
-1.233370614721e+02
-8.907450481429e+01
-7.683356810473e+01
-7.201969981861e+01
-6.451725070196e+01
-8.249732511954e+01
-9.494326644059e+01
-8.692035337791e+01
-9.962627491828e+01
-9.219018450248e+01
-6.943903889874e+01
-1.153323397798e+02
-1.073039879712e+02
-8.793657383449e+01
-9.092930466450e+01
-1.323119729468e+02
-1.012198827168e+02
-9.413165152711e+01
-1.063259579583e+02
-1.414733946948e+02
-1.468260349919e+02
-1.531372518701e+02
-1.586527289208e+02
-1.649883944079e+02
-1.706326454368e+02
-1.641523242430e+02
-1.762382291126e+02
-1.696399888478e+02
-1.770143336733e+02
-1.711732283221e+02
-1.818067188642e+02
-1.751112125815e+02
-1.873417279090e+02
-1.805650212975e+02
-1.683376271710e+02
-1.737206506589e+02
-1.615439086723e+02
-1.390576149887e+02
-1.431806353627e+02
-1.501063931818e+02
-1.544211606810e+02
-1.615165581483e+02
-1.659971838237e+02
-1.732443233031e+02
-1.684474452385e+02
-1.204747293474e+02
-1.022181200408e+02
-9.578495705284e+01
-9.316193537180e+01
-8.691235550958e+01
-8.471307787637e+01
-7.864949130424e+01
-7.700996315176e+01
-8.232542693704e+01
-7.551210241014e+01
-7.961651550766e+01
-7.362085322397e+01
-7.634930700983e+01
-1.240752648386e+02
-1.585754177244e+02
-1.703388409162e+02
-1.625514962377e+02
-5.972213902606e+01
-1.860090697468e+02
-1.832815308690e+02
-1.771988924276e+02
-1.803441186369e+02
-5.710473807057e+01
-7.126677219782e+01
-7.202124536743e+01
-1.044439280198e+02
-9.727707214959e+01
-1.894593556899e+02
-6.211848871336e+01
-1.884440124137e+02
-7.032976617051e+01
-1.791153462717e+02
-1.914309626476e+02
-1.575932908245e+02
-1.745484070446e+02
-1.663998141866e+02
-8.353790148927e+01
-7.915397620455e+01
-7.227176585412e+01
-7.433099563171e+01
-8.228893431134e+01
-7.643349184473e+01
-6.811647499347e+01
-6.971066219234e+01
-7.924990554408e+01
-7.225853954337e+01
-6.215497248829e+01
-6.463864378119e+01
-1.983042570672e+02
-6.892479105406e+01
-8.366197548793e+01
-1.955645899564e+02
-1.851702933464e+02
-1.093644588011e+02
-1.024762052853e+02
-9.027288185865e+01
-9.579273023124e+01
-1.077902959964e+02
-1.013359552341e+02
-8.927785060019e+01
-9.502160127230e+01
-8.293061219243e+01
-8.885484632111e+01
-1.007929012127e+02
-9.481429743665e+01
-8.284577489099e+01
-8.893384290927e+01
-7.693539782034e+01
-8.311701073708e+01
-9.505251549491e+01
-5.006677765291e+01
-1.752495065424e+02
-1.873961455126e+02
-9.962243560649e+01
-1.113504300456e+02
-1.184450776242e+02
-1.237979997480e+02
-8.928142395714e+01
-1.011544430730e+02
-6.481145443020e+01
-6.485612884214e+01
-1.164457920522e+02
-1.845415248123e+02
-1.722415378898e+02
-8.905074275227e+01
-8.030320889467e+01
-7.874407982533e+01
-6.975563444082e+01
-7.120053989252e+01
-6.850979004752e+01
-1.651503583516e+02
-1.066390712345e+02
-6.743695511032e+01
-5.523336308317e+01
-1.968563650203e+02
-1.634576882757e+02
-1.267694291338e+02
-1.355410410130e+02
-1.384173597946e+02
-1.472444711983e+02
-1.502330780483e+02
-1.590934686714e+02
-1.559686574345e+02
-1.786008973665e+02
-1.678844323811e+02
-7.724429228472e+01
-1.508524588752e+02
-8.264619428380e+01
-4.475462730676e+01
-5.317514532660e+01
-5.465826192953e+01
-6.722894099273e+01
-2.018911657848e+02
-1.621146500566e+02
-1.530826896634e+02
-6.060415312868e+01
-6.183055848746e+01
-1.868251341743e+02
-7.960843009634e+01
-7.705716010771e+01
-7.062497147203e+01
-4.110998032813e+01
-5.132937714333e+01
-1.131913405731e+02
-7.297259904271e+01
-6.535181663511e+01
-6.631205311075e+01
-6.656762733753e+01
-9.536793578581e+01
-1.071191024943e+02
-1.306690399030e+02
-1.359706951987e+02
-1.955599529713e+02
-5.654645982851e+01
-1.129446264595e+02
-1.699705862313e+02
-1.582940369515e+02
-1.167032406425e+02
-5.760983302167e+01
-5.870999058423e+01
-8.922839609188e+01
-6.807010860680e+01
-5.987688465194e+01
-2.080772146636e+02
-1.195158325901e+02
-1.646332423230e+02
-1.527019790207e+02
-1.768291690262e+02
-4.461519574057e+01
-2.081931475415e+02
-1.899834259197e+02
-1.644734981738e+02
-1.559167839305e+02
-7.400436039534e+01
-6.617160165174e+01
-5.741482917033e+01
-5.793681667715e+01
-7.749841698819e+01
-7.530962866569e+01
-8.081072219967e+01
-7.107024857525e+01
-6.857238356024e+01
-7.266841842612e+01
-6.310621855406e+01
-8.894191981667e+01
-1.360359189629e+02
-1.254314678506e+02
-1.562395473104e+02
-1.475878151715e+02
-1.124847568232e+02
-1.182963136079e+02
-7.074059539575e+01
-6.484143816676e+01
-4.726374479308e+01
-4.276423153687e+01
-1.403742036133e+02
-2.015253866274e+02
-1.210043584435e+02
-1.280153312317e+02
-1.236490616028e+02
-2.014065155841e+02
-9.906227732433e+01
-1.456170891815e+02
-6.683739847769e+01
-1.298048883680e+02
-3.469447782646e+01
-1.261770324360e+02
-2.023656714781e+02
-2.091454222763e+02
-1.909058269076e+02
-5.525445738226e+01
-1.380135412900e+02
-1.349294300433e+02
-5.854784041360e+01
-5.637528789131e+01
-6.642305731223e+01
-5.470804457874e+01
-9.306980127242e+01
-8.632960199065e+01
-1.749107577611e+02
-1.798099634881e+02
-1.674336595850e+02
-1.590656573531e+02
-1.992928109788e+02
-1.947014503947e+02
-7.203374938833e+01
-5.225199753781e+01
-1.248102304467e+02
-6.110373603397e+01
-2.139281322148e+02
-2.074022066472e+02
-6.725993393369e+01
-6.256566428167e+01
-1.189899622498e+02
-4.916232752699e+01
-4.914666455204e+01
-4.920104765982e+01
-2.275391386720e+02
-4.074785647390e+01
-2.147700871579e+02
-7.434939337920e+01
-1.248526563787e+02
-1.461635650644e+02
-8.705747499158e+01
-1.890187489216e+02
-1.126029728473e+02
-1.252675485363e+02
-6.459924238075e+01
-5.787795196426e+01
-7.081268233042e+01
-6.565843455004e+01
-6.107647671964e+01
-1.124525977938e+02
-8.697369765141e+01
-9.335769912344e+01
-5.984884146184e+01
-7.150652612255e+01
-1.375099558532e+02
-1.322923485152e+02
-1.351924428546e+02
-1.380755934538e+02
-1.295008633267e+02
-1.645590521356e+02
-1.529838184432e+02
-1.470011336211e+02
-1.237258173902e+02
-1.308461821133e+02
-9.931164888656e+01
-9.522699370344e+01
-9.702985030614e+01
-1.310483657749e+02
-2.213205154811e+02
-2.158674450993e+02
-3.013858368935e+01
-3.832536809043e+01
-5.067654382700e+01
-5.247928345060e+01
-1.348543300419e+02
-1.312595899371e+02
-1.401919814959e+02
-6.397518322984e+01
-1.611970484041e+02
-2.134984446706e+02
-2.065359067468e+02
-2.217544186836e+02
-1.823291809583e+02
-1.945281674642e+02
-1.890026470212e+02
-7.089470781490e+01
-1.210393462371e+02
-5.793050184428e+01
-7.328930725651e+01
-5.215370110491e+01
-5.891310217572e+01
-4.571960127809e+01
-5.166128264818e+01
-5.623265495691e+01
-6.489333525988e+01
-2.356340744229e+01
-1.357804998545e+02
-2.260880227972e+01
-2.722402554271e+01
-2.198600957971e+02
-2.130759308058e+02
-2.251711185050e+02
-2.182938289069e+02
-2.063032466889e+02
-2.120619026085e+02
-5.128637915065e+01
-2.257714232263e+02
-2.179388993785e+02
-2.315310669985e+02
-4.440141659318e+01
-5.847030917715e+01
-4.941505561990e+01
-3.949336872501e+01
-1.720912724608e+02
-1.611363424129e+02
-1.958298776848e+02
-1.833838701117e+02
-5.240676804549e+01
-5.160933498776e+01
-6.255935853728e+01
-6.093414567495e+01
-7.186999794251e+01
-7.013825770512e+01
-8.125653108969e+01
-1.919436331898e+02
-4.086142767708e+01
-4.806710325945e+01
-2.072490416328e+02
-2.014912652810e+02
-5.317366964596e+01
-4.200602557060e+01
-2.222542288840e+02
-8.316515225585e+01
-1.434684661628e+02
-6.310823037822e+01
-6.288120730526e+01
-8.493557655889e+01
-6.466916616273e+01
-5.928316440172e+01
-5.059686417829e+01
-1.765614548039e+02
-3.472399762675e+01
-4.976915007853e+01
-8.283891281414e+01
-4.235093609442e+01
-1.899119656320e+02
-9.095723788207e+01
-8.375441048330e+01
-5.725061615911e+01
-6.735370293885e+01
-8.678767660433e+01
-6.834826441628e+01
-6.454088196536e+01
-9.828332437328e+01
-5.120221406948e+01
-3.981130923277e+01
-9.034702845377e+01
-1.193978590708e+02
-1.270956660983e+02
-1.384740116908e+02
-1.350844645786e+02
-1.232690140707e+02
-1.314757814640e+02
-1.430094821347e+02
-1.402659663036e+02
-1.536947206908e+02
-1.488090394951e+02
-1.364490866211e+02
-1.447705056400e+02
-1.563350707302e+02
-1.327339085774e+02
-2.118864850859e+02
-9.513687305672e+01
-6.610272944594e+01
-5.590882133407e+01
-8.574713852809e+01
-1.628405113035e+02
-1.557226642598e+02
-8.017825895172e+01
-1.858764695948e+02
-7.408305039163e+01
-7.078727073670e+01
-1.956746177784e+02
-1.151879501977e+02
-1.109445810584e+02
-1.028341969334e+02
-1.510288381538e+02
-7.767898240309e+01
-2.132038568715e+02
-1.471252490241e+02
-1.395510688880e+02
-1.286408669672e+02
-1.277725220712e+02
-2.253896996333e+02
-2.159494996659e+02
-2.180237072946e+02
-2.055844192868e+02
-2.298030644223e+02
-1.723293813795e+02
-1.771035238613e+02
-8.561275339952e+01
-9.129784160441e+01
-1.006908642756e+02
-9.631695998369e+01
-8.742080907195e+01
-9.184493442501e+01
-1.007281733319e+02
-8.718758551428e+01
-1.499032812881e+02
-2.331116922538e+02
-1.592645893113e+02
-1.534136848343e+02
-1.419965605361e+02
-1.202958264463e+02
-1.271241360978e+02
-1.390435367051e+02
-1.133480532819e+02
-1.441757774726e+02
-2.340430381551e+02
-1.520190515492e+02
-1.220107964866e+02
-4.580102432694e+01
-5.836241092476e+01
-6.051658735818e+01
-7.224348170622e+01
-5.808812379393e+01
-1.427718087323e+02
-1.480627699072e+02
-1.413240412248e+02
-1.533823074756e+02
-1.463853378760e+02
-1.352032274878e+02
-1.585059339734e+02
-1.506755155896e+02
-4.383658161486e+01
-3.987278579477e+01
-4.220383991249e+01
-3.306439586691e+01
-4.734479098012e+01
-5.455740249483e+01
-5.923671154327e+01
-6.267401078411e+01
-5.476068067162e+01
-1.740144736432e+01
-2.805387298092e+01
-1.376524978637e+01
-2.459809327492e+01
-3.934264772962e+01
-5.122850634606e+01
-2.344748283341e+02
-1.162152446639e+02
-1.102688808060e+02
-9.839925533702e+01
-1.049195430911e+02
-1.210713936796e+02
-9.175870716784e+01
-8.739115088739e+01
-8.120509471554e+00
-1.807489138224e+01
-1.699675855393e+01
-2.879526799644e+01
-2.879754621668e+01
-1.849754936588e+01
-1.870977339033e+01
-8.416154847920e+00
-1.890660082695e+01
-2.983913011304e+01
-8.372004370781e+00
-9.665817289082e+01
-1.030076648713e+02
-2.346448571779e+02
-4.405533181748e+01
-1.119398630620e+01
-1.379970284211e+02
-1.415561142132e+02
-1.410343584554e+02
-2.150840966584e+02
-2.212891148656e+02
-1.377554818938e+02
-7.945241340728e+01
-1.465331761779e+02
-1.183574826724e+02
-6.525501727449e+01
-7.918021759927e+01
-1.776965168266e+02
-1.629765440566e+02
-2.036758664036e+02
-1.668842691484e+02
-1.928478017933e+02
-2.190944655075e+02
-4.767997650401e+01
-7.671302172168e+01
-7.111276443186e+01
-1.007984365524e+02
-8.178483244493e+01
-1.295880006634e+02
-5.207199165109e+01
-1.836479913703e+02
-7.834301949556e+01
-1.361385497382e+02
-1.082737993497e+02
-8.687814361829e+01
-7.554840874517e+01
-9.741349784831e+01
-1.286593184150e+02
-1.827591526382e+02
-1.068019866381e+02
-1.074763450230e+01
-1.892049951539e+02
-1.522008078721e+02
-8.353751426091e+01
-1.778690622082e+02
-6.091545325316e+01
-1.069256713735e+02
-1.318650740924e+02
-7.191699538158e+01
-3.952076654148e+01
-6.424005311646e+01
-2.145084226067e+02
-1.118057365767e+02
-7.452153212910e+01
-1.347500010877e+02
-9.290643830161e+01
-4.119336873923e+01
-1.236263743334e+02
-1.240427622550e+02
-1.925016669408e+02
-1.568571274626e+02
-7.978909631065e+01
-2.007577983577e+02
-1.253443217470e+02
-1.186453383850e+02
-1.412819096311e+02
-1.083520357804e+02
-1.143031601475e+02
-1.364441875732e+02
-1.823999835117e+02
-7.621911056318e+01
-1.178725185632e+02
-1.172413866649e+02
-1.214061732945e+02
-1.709289202805e+02
-1.950279755940e+02
-7.099278740398e+01
-7.707303968591e+01
-8.481037375056e+01
-1.707944764057e+02
-1.300670743857e+02
-8.195756712360e+01
-1.940557130421e+02
-1.255789512959e+02
-1.338117133755e+02
-5.476795128385e+01
-6.018056365162e+01
-9.034514285176e+01
-1.211246395403e+02
-1.456645156069e+02
-1.439165471644e+02
-1.996173834725e+02
-1.831498914620e+02
-3.661639026044e+01
-5.120905042071e+01
-2.051703905855e+02
-1.409449496885e+02
-1.898406862793e+02
-1.390864951357e+02
-1.879262839623e+02
-4.286328421741e+01
-2.108358857092e+02
-1.821076093188e+02
-8.165712540144e+01
-4.115943591360e+01
-2.249492346806e+02
-1.945483099019e+02
-1.326626982502e+02
-1.360686439351e+02
-3.418131904270e+01
-1.509715269357e+02
-1.205417872314e+02
-1.488926984074e+02
-1.995367441863e+02
-9.835295182166e+01
-1.442638072042e+02
-1.543836308881e+02
-2.912647009991e+01
-4.593381423708e+01
-1.495153794761e+02
-9.565195857590e+01
-1.418118926165e+02
-2.030977159160e+02
-1.548145845573e+02
-1.046972487713e+02
-1.601265137322e+02
-3.155855765259e+01
-1.068005251613e+02
-1.654419623708e+02
-1.323164322534e+02
-3.127077562811e+01
-1.410949423413e+02
-2.084392479772e+02
-1.011332604350e+02
-1.475506891943e+02
-1.192892633661e+02
-3.032950001551e+01
-1.590283887981e+02
-1.441653013723e+02
-1.494062868820e+02
-1.318190191377e+02
-1.709069343855e+02
-4.147022980050e+01
-7.515170424010e+01
-6.337525401714e+01
-1.100897399319e+02
-1.470630726570e+02
-3.944012199436e+01
-1.240720010186e+02
-4.753659346098e+01
-1.056051407217e+02
-1.700746241002e+02
-7.384819867593e+01
-1.103837525501e+02
-6.729206170672e+01
-1.050561319703e+02
-1.428854173608e+02
-1.095200298946e+02
-1.034977927585e+02
-1.297818158331e+02
-1.078166590475e+02
-1.397715432880e+02
-2.351887353149e+02
-5.023804160142e+01
-2.868022261575e+01
-8.000754246716e+01
-4.237822257282e+01
-9.014911276682e+01
-1.292552720553e+02
-5.075309151825e+01
-8.288945992729e+01
-1.609508948850e+02
-2.052851469942e+02
-9.096108996571e+01
-1.968394056696e+02
-1.579365248814e+02
-1.184221199292e+02
-4.073014121858e+01
-2.296431809546e+01
-1.772533708440e+02
-2.937485051362e+01
-4.049722584659e+01
-4.142452917873e+01
-8.390390908006e+01
-4.132053170048e+01
-3.225233526015e+01
-2.130245821781e+02
-5.330020874099e+01
-1.733125329160e+02
-3.349353633198e+01
-1.365882018620e+02
-1.995912770834e+02
-2.363417087022e+02
-1.858578278431e+02
-4.393520730042e+01
-6.802488324869e+01
-1.789363909597e+02
-1.004878824855e+02
-2.373522220876e+02
-5.330978241974e+01
-1.305981211800e+02
-6.723881302846e+01
-1.304034904501e+02
-1.413213427484e+02
-6.577586626833e+01
-7.108279442019e+01
-2.271541734355e+02
-1.526903204630e+02
-4.764953600336e+01
-9.058244063755e+01
-1.051548534791e+02
-6.572861369014e+01
-2.248029588267e+02
-1.525432155411e+02
-2.263324095310e+02
-2.829837924968e+01
-1.911819409148e+01
-2.253862696323e+02
-1.703748524432e+02
-6.729297153569e+01
-1.455986803063e+02
-5.236258625467e+01
-3.990537444875e+01
-1.829377375062e+01
-2.370980807276e+02
-1.334698062235e+02
-1.157462167719e+02
-4.960156023748e+01
-7.580872229884e+01
-1.812866813515e+02
-3.322276772706e+01
-1.333659770079e+02
-2.238379547631e+02
-1.447396715148e+02
-2.225800951436e+02
-7.206713252285e+01
-1.992674162022e+02
-2.098645966179e+02
-4.035866480919e+01
-1.482127827810e+02
-9.386457183178e+01
-3.960593454041e+01
-1.408150037185e+02
-6.327552242674e+00
-3.943773669112e+01
-2.378701864353e+02
-3.723743256517e+01
-5.904435406489e+01
-1.667395599517e+02
-1.421938202641e+02
-1.118416434042e+02
-5.182072859069e+01
-7.945990393543e+01
-8.008861195547e+01
-2.053333692493e+02
-1.411224764823e+02
-7.220635702050e+01
-5.466082909408e+01
-1.618328366680e+02
-1.252128890397e+02
-1.738826945478e+02
-2.064494595436e+02
-4.799634522575e+01
-1.529123106028e+02
-1.729997486941e+01
-2.283710640169e+02
-1.304050001184e+02
-1.507283441177e+01
-1.343035292672e+01
-2.882389694456e+01
-2.449351451067e+01

SCALARS node_materi_stress_size_dev_sd_sig float
LOOKUP_TABLE default
6.623939659412e+00
1.321655006286e+01
1.827225105519e+02
1.078206653634e+02
1.337740674871e+01
2.265568514766e+01
3.044957955201e+01
3.978874838053e+01
4.906218235093e+01
5.832262133243e+01
6.782887203935e+01
7.750071209560e+01
8.720700668056e+01
9.706614650244e+01
1.071390823391e+02
1.165348813936e+02
1.249525492463e+02
1.342629313451e+02
1.435443175860e+02
1.523550301976e+02
1.610960915399e+02
1.697706211849e+02
1.779349557717e+02
1.085349720730e+02
1.081595144338e+02
1.084110872500e+02
1.086325514745e+02
1.085169803537e+02
1.092238971957e+02
1.098025169474e+02
1.105184561939e+02
1.118170703549e+02
1.130229674823e+02
1.140280479519e+02
1.162149054384e+02
1.185863510487e+02
1.210696821405e+02
1.236895336699e+02
1.266680836556e+02
1.301744971228e+02
1.344596886368e+02
1.388227910824e+02
1.431985874460e+02
1.473131010771e+02
1.512368639888e+02
1.552034337033e+02
1.588997505734e+02
1.624611584182e+02
1.657964255904e+02
1.688318681604e+02
1.714842483867e+02
1.737714309702e+02
1.759824909945e+02
1.778163220493e+02
1.790367795442e+02
1.803515763995e+02
1.814474309183e+02
1.823441141824e+02
1.829535937371e+02
1.834297411609e+02
1.836203489723e+02
1.836801985891e+02
1.835856384275e+02
1.836668867233e+02
1.838875913935e+02
1.838896447885e+02
1.828209743293e+02
1.834131023927e+02
1.829955941183e+02
1.830907617261e+02
1.832838230614e+02
1.832070280585e+02
2.135400113518e+01
3.036009884356e+01
3.960462229920e+01
4.898557781633e+01
5.887181506134e+01
6.898470204106e+01
7.938294952015e+01
8.997565185672e+01
1.010116197665e+02
4.627120414839e+01
1.693698796761e+01
4.704709060402e+01
4.270513651787e+01
4.012056046888e+01
3.704505137908e+01
3.476541525594e+01
3.334504178634e+01
3.262405136958e+01
2.757414423698e+01
1.742690024371e+01
1.028404993409e+01
8.295304845543e+00
1.220759517951e+01
1.259383251679e+01
1.261067322679e+01
1.252379178238e+01
1.344763664136e+01
1.259800308296e+01
1.251933779769e+01
1.257816905647e+01
1.272307475029e+01
1.272220085133e+01
1.278018141643e+01
1.295143200123e+01
1.342449706511e+01
1.443862413262e+01
3.626900468357e+01
3.341803725644e+01
3.396297621880e+01
3.398984497263e+01
3.371021494435e+01
2.155894665790e+01
7.834178042124e+00
4.323201333301e+00
3.819435936170e+00
3.684437340342e+00
3.987724732968e+00
4.781462675261e+00
5.025349898311e+00
4.960885185596e+00
5.507659443639e+00
6.073363947964e+00
6.414494549393e+00
6.309440489444e+00
5.907157135161e+00
9.055384497088e+00
8.850002842169e+00
8.861670805623e+00
8.801333812099e+00
8.730453665465e+00
8.584462372698e+00
8.403901285072e+00
8.196489331911e+00
7.994148248720e+00
7.712490247036e+00
7.467153972981e+00
7.325119742189e+00
7.303789701895e+00
7.611291145384e+00
8.387324763778e+00
1.114292375773e+01
1.863851280408e+01
1.234053823048e+01
1.042174640900e+01
9.074475686348e+00
8.561889830250e+00
8.289001938318e+00
8.157387025439e+00
8.115890797852e+00
8.100349446659e+00
8.126550624260e+00
8.127172299315e+00
8.140973883946e+00
8.153686452784e+00
8.145266157789e+00
8.151489241044e+00
8.154687103506e+00
8.211323410707e+00
5.207927476768e+01
4.447258954687e+01
4.120113731759e+01
3.864737248293e+01
3.709019062985e+01
3.479478510026e+01
3.279112296486e+01
3.289730835983e+01
2.201531669843e+01
1.668972055400e+01
4.458421059042e+01
1.790756097034e+02
7.277893269662e+00
4.101852637841e+01
1.813224152600e+02
3.887820810385e+01
1.025239307439e+02
1.723679992159e+02
3.627265000321e+01
1.610615066540e+02
3.327628311709e+01
1.811031543164e+02
9.403181559051e+00
1.449177668468e+02
2.303862713574e+01
6.351140704032e+01
1.283458332641e+02
1.311576604545e+02
1.165855222660e+02
1.040691912850e+02
1.046572579760e+02
1.099171218700e+02
2.053946443507e+01
1.930961824972e+01
2.015974880890e+01
5.390330093033e+01
1.799787475240e+02
4.129817157331e+01
1.109742685741e+01
1.564886198983e+02
1.951960642345e+01
3.507556297309e+01
1.210582275324e+02
1.677742555372e+02
1.533706635319e+02
1.758527196461e+02
1.807539693657e+02
1.994600648572e+01
1.912439882944e+01
1.800806809036e+02
7.395904697020e+01
8.673452195482e+00
8.246408328093e+01
1.052289959519e+02
3.795650088879e+01
4.148727943725e+01
3.539814131747e+01
2.543704288721e+01
5.098529827496e+01
3.561055638200e+01
1.810051601916e+02
1.098534640154e+01
9.487261434783e+01
2.438455841084e+01
3.109210423296e+01
3.205217352501e+01
4.083228564697e+01
4.276853380207e+01
5.098409030118e+01
4.965070898544e+01
5.989701915956e+01
5.907908535039e+01
5.339430136310e+01
6.927793784229e+01
6.880156087837e+01
7.890610223634e+01
7.863845311373e+01
6.912909565916e+01
7.899314841944e+01
6.996459466130e+01
7.977585425206e+01
8.872991739165e+01
8.943883904919e+01
8.082744709403e+01
9.034544236452e+01
8.197271847934e+01
9.132564394957e+01
8.308141409376e+01
9.228485028891e+01
1.004296259338e+02
1.012150143144e+02
9.317554388781e+01
1.019158092743e+02
9.394294579085e+01
1.024658713219e+02
1.102353353502e+02
1.105150416572e+02
1.028202349100e+02
1.105824401043e+02
1.029761549120e+02
1.104072470574e+02
1.029151070283e+02
1.099008382569e+02
1.170645139121e+02
1.160352728137e+02
1.090132179192e+02
1.144622010374e+02
1.213311218960e+02
1.190165148563e+02
1.258414236477e+02
1.227993967876e+02
1.159729769806e+02
1.189722991743e+02
1.259577736288e+02
1.214467600166e+02
1.142613907077e+02
1.161225869253e+02
1.236181537780e+02
1.178447410699e+02
1.099744748027e+02
1.113881922997e+02
1.196151766448e+02
1.129656764026e+02
1.042960212239e+02
1.058534511196e+02
1.147936495338e+02
1.077238096051e+02
1.168353427834e+02
9.833598159726e+01
1.004264538595e+02
9.061075703297e+01
9.305679078436e+01
1.180477532139e+02
8.293346747170e+01
8.054178285977e+01
8.578923350212e+01
9.585285855724e+01
7.548452662721e+01
7.874299267827e+01
6.840656809774e+01
9.499393424807e+01
9.828935718702e+01
7.202128332707e+01
6.177662666046e+01
5.793264434112e+01
5.152992115942e+01
4.594308125036e+01
5.663262582990e+01
4.927773484785e+01
6.047269060311e+01
5.375537952060e+01
5.558163941289e+01
7.998641119318e+01
6.788417771532e+01
7.242668044320e+01
8.504070062700e+01
1.282023241549e+02
8.216574567182e+01
7.573982424876e+01
8.577243308130e+01
1.235146765716e+02
1.256690378359e+02
1.319779753221e+02
1.342139882243e+02
1.401719499829e+02
1.424775567501e+02
1.365650828393e+02
1.448760155848e+02
1.390446655546e+02
1.480948390598e+02
1.457624998465e+02
1.473811208240e+02
1.416526833626e+02
1.500017866681e+02
1.443912136438e+02
1.357717417919e+02
1.386594679309e+02
1.298474302215e+02
1.326822029753e+02
1.350607108019e+02
1.395073523603e+02
1.418825980508e+02
1.462786431459e+02
1.486246176970e+02
1.529366382835e+02
1.501473675462e+02
8.863069404990e+01
1.076204262462e+02
1.019516737755e+02
1.008454256957e+02
9.487733837581e+01
9.417054174132e+01
8.777866648872e+01
8.752001480551e+01
9.279619818747e+01
8.630502052468e+01
9.006613458450e+01
8.365827724799e+01
8.553290562601e+01
1.092170091629e+02
1.437533299901e+02
1.505102583937e+02
1.451805515438e+02
4.747543615797e+01
1.472691647734e+02
1.533481994778e+02
1.509090141949e+02
1.567603562035e+02
4.574900224807e+01
8.054527121284e+01
7.994981991090e+01
6.485525355933e+01
5.848738666024e+01
1.581934895530e+02
4.988341279576e+01
1.529067777214e+02
7.982486885599e+01
1.416884387100e+02
1.502938211063e+02
1.304442590892e+02
1.520260682168e+02
1.462543751213e+02
9.210023323199e+01
8.603912593642e+01
7.881258941208e+01
7.793998883386e+01
8.576428555626e+01
7.680976087463e+01
6.773256192798e+01
6.635123687671e+01
7.619220498253e+01
6.600751686427e+01
5.457071513305e+01
5.529806698295e+01
1.556377973118e+02
7.748557075421e+01
6.005829440796e+01
1.606533840173e+02
1.593472501214e+02
6.968872547188e+01
6.362011251185e+01
5.277525945943e+01
5.815955431566e+01
6.912603322037e+01
6.375587044959e+01
5.318350977560e+01
5.877518795732e+01
4.854682488180e+01
5.412675634926e+01
6.451480965794e+01
5.986462145900e+01
4.976898650804e+01
5.541356302718e+01
4.554772842244e+01
5.103374846334e+01
6.115441720697e+01
4.060926888198e+01
1.535876784455e+02
1.602245353266e+02
7.989618568787e+01
8.935035903656e+01
9.564168416983e+01
9.923663833548e+01
5.662055829731e+01
6.700458887677e+01
7.218250327415e+01
7.105237938178e+01
7.639335462102e+01
1.448996280760e+02
1.361075630683e+02
8.579092146589e+01
7.671324357859e+01
7.735743610445e+01
6.798930426894e+01
6.750289015755e+01
6.845252105947e+01
1.433603540418e+02
7.042859533556e+01
5.421717222526e+01
4.346883187847e+01
1.535192525234e+02
1.468048689727e+02
1.085999466501e+02
1.172400361298e+02
1.168714757502e+02
1.253360680241e+02
1.252476646350e+02
1.334587358842e+02
1.333243134993e+02
1.532402375178e+02
1.411742546012e+02
4.652973745350e+01
1.382208858530e+02
7.638073021070e+01
3.630987491399e+01
4.275171853811e+01
4.442006129848e+01
5.396219513670e+01
1.651839588401e+02
1.336712336512e+02
1.252105448585e+02
5.891776802246e+01
5.844260460413e+01
1.586716158983e+02
4.312790413927e+01
4.315589385767e+01
3.883971806421e+01
3.440945020893e+01
4.267650366535e+01
7.484345562282e+01
7.916260090998e+01
6.999927371367e+01
7.359695732397e+01
7.156309029390e+01
6.213716887215e+01
7.257946902002e+01
1.053172244864e+02
1.088215271171e+02
1.626006797711e+02
4.519195073487e+01
7.762051670593e+01
1.498794464675e+02
1.428751001663e+02
9.300193992045e+01
6.283902502653e+01
6.425148304196e+01
8.555505887603e+01
5.715521320169e+01
4.850280229639e+01
1.692679147290e+02
8.050867024014e+01
1.407585531904e+02
1.331560174427e+02
1.483231298132e+02
3.310515632387e+01
1.677848598750e+02
1.483123114342e+02
1.336106667708e+02
1.254067550759e+02
7.842143560732e+01
6.923977278994e+01
6.060083685636e+01
5.994090737754e+01
4.935857692808e+01
7.790591145409e+01
6.132967815248e+01
5.156471102780e+01
5.323071113388e+01
6.663603897608e+01
5.754811778590e+01
9.513034803061e+01
1.299631408989e+02
1.020408985478e+02
1.269378306793e+02
1.298186440431e+02
7.532756399131e+01
8.145188944466e+01
4.011515431522e+01
3.600158207556e+01
3.717624766783e+01
3.292582997985e+01
1.191017217952e+02
1.630917243427e+02
8.123545206181e+01
8.828946725898e+01
8.363845673986e+01
1.664711688900e+02
1.055733233977e+02
1.365497804136e+02
7.354250210112e+01
1.178978299115e+02
2.741296057422e+01
9.797925770969e+01
1.568920412163e+02
1.618753840929e+02
1.599479102445e+02
3.107430734268e+01
1.254782560697e+02
1.252757608191e+02
4.389986914914e+01
4.574989511360e+01
5.480544577404e+01
4.753569456788e+01
8.616394209573e+01
7.729208031399e+01
1.427334939727e+02
1.489048912421e+02
1.345243218504e+02
1.261506947972e+02
1.650681499823e+02
1.634722401117e+02
5.780162778427e+01
4.986008576976e+01
8.625706270589e+01
4.179420938285e+01
1.700162322021e+02
1.655632086460e+02
6.663895879670e+01
6.590738161036e+01
8.351695612040e+01
5.159735746522e+01
5.084019642617e+01
5.247362016098e+01
1.736989140626e+02
1.938878394105e+01
1.652856331749e+02
6.551371932859e+01
8.874202942420e+01
1.325288988615e+02
8.625848862598e+01
1.598665521003e+02
7.779390156453e+01
8.976942477467e+01
3.367708038084e+01
2.945471050549e+01
3.770615034055e+01
7.399263562388e+01
6.681986231918e+01
7.639304145518e+01
6.966293398561e+01
7.469548658414e+01
4.788617219336e+01
5.929168391197e+01
1.115837681425e+02
1.085435169167e+02
1.073773961590e+02
1.074919745209e+02
1.080182430079e+02
1.456241903262e+02
1.383616202968e+02
1.357921276875e+02
8.645749974913e+01
9.392396207775e+01
9.450629875006e+01
9.387501658558e+01
8.719866792076e+01
9.231612606347e+01
1.700371680048e+02
1.667820529678e+02
2.316658301349e+01
2.859029439206e+01
5.510089006396e+01
5.769421189959e+01
9.565966030194e+01
9.163833280927e+01
1.014967352619e+02
5.173401046088e+01
1.402745739501e+02
1.724542690094e+02
1.696921005952e+02
1.760075734763e+02
1.542109571444e+02
1.608794585676e+02
1.555276253943e+02
6.226921159860e+01
8.595004842849e+01
3.046722525617e+01
5.423090593292e+01
2.663736336658e+01
3.194907266631e+01
2.234702269226e+01
4.264095486718e+01
2.721805658221e+01
3.274995449326e+01
1.711391185415e+01
9.805032777885e+01
1.882059356380e+01
2.283450489401e+01
1.726660180070e+02
1.680769064706e+02
1.750822783006e+02
1.704466203670e+02
1.631518058995e+02
1.659881500771e+02
2.534806592715e+01
1.743969152619e+02
1.690004028561e+02
1.776781945894e+02
3.935017020166e+01
5.946357383663e+01
5.034034425562e+01
4.246732811018e+01
1.371137344955e+02
1.266571101363e+02
1.520836655691e+02
1.432692614854e+02
2.747036912618e+01
2.711724728158e+01
3.534199448600e+01
3.434196927542e+01
4.288462403728e+01
4.164941671672e+01
5.057917889804e+01
1.563252266412e+02
4.488880212025e+01
3.454872614717e+01
1.695837422734e+02
1.672728853378e+02
4.885062180193e+01
4.184728826152e+01
1.751946573621e+02
8.675766237642e+01
1.063133429128e+02
4.668571465228e+01
5.876749060091e+01
8.642423389208e+01
5.630440615554e+01
5.897241360114e+01
5.069503088148e+01
1.528323106324e+02
2.481769662328e+01
5.364120917779e+01
5.149229700018e+01
4.757260159552e+01
1.476852360203e+02
9.514242360660e+01
7.484000599359e+01
6.163318968980e+01
6.889510034673e+01
5.920335820922e+01
3.995370856740e+01
4.035446388056e+01
1.025823227207e+02
5.027592415955e+01
4.195766112431e+01
7.111955914659e+01
7.953184913570e+01
8.775175998298e+01
9.961968889750e+01
9.641124397407e+01
8.462769332701e+01
9.358393877784e+01
1.052812328458e+02
1.031199514453e+02
1.167477536390e+02
1.125971759790e+02
1.008895627477e+02
1.100149828508e+02
1.207777270198e+02
9.917710063836e+01
1.709472612368e+02
9.478855921845e+01
6.660910666655e+01
6.135809528846e+01
7.369514470409e+01
1.268797673934e+02
1.190857563985e+02
8.759514610916e+01
1.490353086522e+02
5.010237135494e+01
8.051926349706e+01
1.572861915232e+02
7.595069419418e+01
7.293851222235e+01
6.443140431247e+01
1.141214054440e+02
4.246511181638e+01
1.702046005329e+02
1.368904552526e+02
1.311949080661e+02
1.241420835819e+02
9.128472271440e+01
1.778929579242e+02
1.742025110892e+02
1.751052488198e+02
1.695664193699e+02
1.799997307151e+02
1.364041740860e+02
1.410915459365e+02
8.545292419055e+01
9.347726198912e+01
1.011130314907e+02
1.000715466643e+02
9.302178996992e+01
9.859016112754e+01
1.052630415692e+02
9.632477968185e+01
1.171414489999e+02
1.812284266194e+02
1.379108444804e+02
1.356099204064e+02
1.277007288579e+02
9.888196512404e+01
1.056332621811e+02
1.150841163781e+02
9.224367813510e+01
1.254474252699e+02
1.813961507217e+02
1.399091325558e+02
1.028915033325e+02
1.964353666017e+01
2.744988410802e+01
2.906921861086e+01
3.741340692287e+01
2.753121986377e+01
1.148016242444e+02
1.181588176609e+02
1.124314825197e+02
1.216160305309e+02
1.158647456213e+02
1.072289003868e+02
1.249842240038e+02
1.188589591367e+02
1.909281507805e+01
3.417607424573e+01
3.932302385603e+01
2.668722650008e+01
4.258343230190e+01
5.423997807135e+01
5.719697141462e+01
6.536067602964e+01
5.276215856494e+01
1.078908597522e+01
1.952194238080e+01
7.604906865797e+00
1.606080094909e+01
2.907324625549e+01
3.968327313186e+01
1.787569635061e+02
9.213872440320e+01
8.764257263248e+01
7.816559600001e+01
8.355841447578e+01
9.617728505450e+01
7.291570901272e+01
6.955546850682e+01
1.130158447756e+01
1.945965949541e+01
1.875626456883e+01
2.689627601697e+01
2.650407520195e+01
1.933660478697e+01
1.906793860334e+01
1.072310095812e+01
1.860511445118e+01
2.631000533015e+01
1.004398766854e+01
6.396749769529e+01
6.957931085345e+01
1.811165181659e+02
2.008376088642e+01
7.957426061030e+00
1.019194296486e+02
1.048809929254e+02
1.045743432559e+02
1.652492286030e+02
1.695453691451e+02
1.020164941045e+02
6.490723081798e+01
1.081376660854e+02
8.244829404853e+01
7.323775894203e+01
6.825151400202e+01
1.395239847387e+02
1.330435415973e+02
1.586715484326e+02
1.329183111280e+02
1.527515154335e+02
1.755035913742e+02
3.946472257828e+01
4.418788395824e+01
4.132103742094e+01
6.570647532681e+01
6.567626817638e+01
1.032946162311e+02
4.153522143268e+01
1.482476750482e+02
6.275969977096e+01
1.214950934334e+02
8.891812661901e+01
7.250825319384e+01
6.676444661015e+01
9.450349686169e+01
1.099212773468e+02
1.504638514709e+02
7.164526784386e+01
1.036667001469e+01
1.557422105748e+02
1.279786177449e+02
4.774926101842e+01
1.552289046609e+02
5.559701691718e+01
6.949407368720e+01
9.281011599133e+01
3.753145770226e+01
3.185571188490e+01
3.466122277063e+01
1.717430658121e+02
7.186861513692e+01
5.963775540822e+01
1.296728571949e+02
8.411651232833e+01
2.330000962855e+01
8.726304940941e+01
1.179752009118e+02
1.631655055289e+02
1.433901705676e+02
6.377932503994e+01
1.606548649481e+02
1.230147684607e+02
8.066761987654e+01
1.165836966560e+02
1.122446654146e+02
7.489520633614e+01
1.256424723795e+02
1.571191310071e+02
6.419966785975e+01
9.961662199383e+01
8.839672983608e+01
1.097797521961e+02
1.342144845348e+02
1.581730295942e+02
7.911330712711e+01
7.774082567951e+01
4.774317886496e+01
1.414418389638e+02
9.210609731658e+01
7.589533953309e+01
1.554287849786e+02
8.642020877682e+01
1.123966780460e+02
4.505829870150e+01
6.623192939680e+01
9.907160751669e+01
1.176767247951e+02
1.215742348801e+02
1.055025309183e+02
1.580605378709e+02
1.556180819216e+02
4.693642080717e+01
3.224361584375e+01
1.608618504657e+02
1.329493814343e+02
1.615292423530e+02
1.099396674521e+02
1.522765887146e+02
4.099575186841e+01
1.639842360009e+02
1.568338779015e+02
8.720926339217e+01
1.959697677816e+01
1.730548539706e+02
1.635066806132e+02
1.176022875723e+02
1.286467851059e+02
2.868437335412e+01
1.241997273008e+02
9.886678838439e+01
1.120469869974e+02
1.663846970474e+02
6.164290032390e+01
1.178870779786e+02
1.391244337330e+02
2.631032055817e+01
3.714479489100e+01
1.208525999808e+02
1.026593659231e+02
1.310362316108e+02
1.663217587873e+02
1.239863904233e+02
1.092463468247e+02
1.272448549641e+02
3.485004084857e+01
7.066896786415e+01
1.305747938817e+02
1.075796652572e+02
2.663197198070e+01
1.255145302568e+02
1.607898303074e+02
8.865698859644e+01
1.333032995206e+02
8.199592201763e+01
3.561651730104e+01
1.408641239553e+02
1.164776697701e+02
1.328798438679e+02
1.248660293233e+02
1.483347664153e+02
4.240943309077e+01
6.178288824251e+01
5.085885888519e+01
1.120661665636e+02
1.166101842687e+02
3.398389669752e+01
8.962428721295e+01
3.611295881352e+01
1.071497924016e+02
1.471158348084e+02
4.475769685971e+01
1.086358732337e+02
5.425321043121e+01
1.020337565876e+02
1.319951147670e+02
1.030681047024e+02
9.541812896744e+01
9.354151699191e+01
9.667830171374e+01
1.037060599369e+02
1.789645138126e+02
2.633635859170e+01
3.622741870829e+01
4.023769305464e+01
4.404144399111e+01
7.868740637677e+01
9.819300365618e+01
2.659559400072e+01
7.013302317672e+01
1.246815854696e+02
1.646175146270e+02
5.896117013825e+01
1.651522092293e+02
1.398656062633e+02
8.370315976807e+01
1.877470653840e+01
1.523900618592e+01
1.385909707047e+02
3.776801417911e+01
4.386172671765e+01
4.606921872827e+01
6.709078428461e+01
3.311201027895e+01
4.010586362135e+01
1.725524395981e+02
2.576453654082e+01
1.476257058962e+02
4.278683512830e+01
9.828630037559e+01
1.627742053592e+02
1.812620085033e+02
1.550172189856e+02
5.001122131483e+01
3.427055250187e+01
1.438144368678e+02
6.682981558927e+01
1.811912688412e+02
2.464806588749e+01
9.484345852712e+01
7.321967356467e+01
9.489690090939e+01
1.083757694607e+02
3.743296303970e+01
3.690244918432e+01
1.736129730858e+02
1.155659669732e+02
5.453949063685e+01
5.819384824304e+01
8.409251013140e+01
5.761841980097e+01
1.758586894992e+02
1.182524436621e+02
1.736090744026e+02
2.665187314269e+01
1.540016405017e+01
1.773140473076e+02
1.346929175794e+02
7.006441601410e+01
1.088758169328e+02
5.658746389909e+01
1.771936621958e+01
1.731108329069e+01
1.807212674159e+02
9.638048466947e+01
9.203145910958e+01
2.225682084051e+01
6.070735029595e+01
1.486400034391e+02
2.296458619936e+01
9.685736144228e+01
1.774252682928e+02
1.065273409261e+02
1.759504377527e+02
5.590033155405e+01
1.617043260838e+02
1.714732961594e+02
1.881604362931e+01
1.103373357668e+02
7.475831390022e+01
3.285459585812e+01
1.048485707043e+02
9.731659012163e+00
1.855752525144e+01
1.806973146848e+02
3.197455222291e+01
3.290796064673e+01
1.307647536276e+02
1.123085234259e+02
7.758300224866e+01
4.526541128063e+01
3.927039694559e+01
4.978140698668e+01
1.667599413664e+02
1.029744167851e+02
4.273265651050e+01
6.048127380766e+01
1.265500302028e+02
9.932597159307e+01
1.406187451735e+02
1.698385300052e+02
5.166687417045e+01
1.205010237196e+02
1.596637713358e+01
1.764962977298e+02
1.033442268390e+02
1.637288090125e+01
9.153986868851e+00
1.395977902015e+01
9.628970950035e+00

SCALARS node_materi_strain_total_average_a_ept float
LOOKUP_TABLE default
1.791406130655e-04
3.762491848275e-03
2.536007179629e-03
5.221070348913e-03
2.144668818362e-04
3.174602306259e-04
4.129484492725e-04
5.310725726242e-04
6.439320922629e-04
7.600135496779e-04
8.787258736820e-04
9.996711336252e-04
1.123949616767e-03
1.250917515708e-03
1.382237285714e-03
1.514001595842e-03
1.636841892190e-03
1.769322401968e-03
1.907941984843e-03
2.043377870272e-03
2.180833053575e-03
2.320542694253e-03
2.456646871118e-03
5.230129907240e-03
5.220277946810e-03
5.218869710351e-03
5.212973497877e-03
5.197442283009e-03
5.192615436413e-03
5.174205867101e-03
5.151098962150e-03
5.128279666889e-03
5.098185385348e-03
5.049935928716e-03
5.007310169050e-03
4.944262978559e-03
4.876433012626e-03
4.791893137314e-03
4.697966015872e-03
4.588721687055e-03
4.470482367431e-03
4.348019533812e-03
4.218346548899e-03
4.078680742763e-03
3.930633510592e-03
3.784638328024e-03
3.637881583608e-03
3.495303733190e-03
3.359632900576e-03
3.226930708971e-03
3.109189183866e-03
2.992843406718e-03
2.895762207646e-03
2.803859566729e-03
2.718339738730e-03
2.646371747205e-03
2.597635421811e-03
2.555930062240e-03
2.519844513025e-03
2.505896064902e-03
2.484610030651e-03
2.480294440136e-03
2.472734327647e-03
2.478181364762e-03
2.494300204156e-03
2.505462472962e-03
2.493835133097e-03
2.520279779370e-03
2.518706349220e-03
2.528404103776e-03
2.539714593226e-03
2.541744030593e-03
3.911324145386e-03
4.057009195332e-03
4.203507117223e-03
4.349113291830e-03
4.498939431608e-03
4.650996506648e-03
4.803193198797e-03
4.959374592225e-03
5.113042935198e-03
-1.369574500344e-03
3.557293234534e-03
-3.552026027210e-04
1.509009732543e-04
6.380302237229e-04
1.131666698726e-03
1.640055178491e-03
2.140977235478e-03
2.606635412069e-03
3.047042025271e-03
3.392839027844e-03
3.520231351571e-03
3.612673321479e-03
3.744749524209e-03
3.754274287039e-03
3.752952296150e-03
3.748625376117e-03
3.765107815020e-03
3.744662737114e-03
3.738094670843e-03
3.733697293704e-03
3.726539396943e-03
3.713655477491e-03
3.698711663758e-03
3.677678264824e-03
3.650124283268e-03
3.615432644692e-03
-1.969296889285e-03
-2.235716401474e-03
-2.290830251505e-03
-2.064967108511e-03
-1.231554751410e-03
-4.312596692273e-04
-1.223449880901e-04
1.602021839922e-05
8.792055915707e-05
1.028559695130e-04
1.196256099410e-04
1.376823792938e-04
1.502567736159e-04
1.625265415333e-04
1.637246759428e-04
1.666331839932e-04
1.695555764893e-04
1.737281334353e-04
1.786558097097e-04
3.539761257805e-03
3.548283482490e-03
3.547044967757e-03
3.547492916857e-03
3.548847798543e-03
3.550663980360e-03
3.553397239532e-03
3.555382358970e-03
3.557221874289e-03
3.560060700878e-03
3.561966861394e-03
3.561247378982e-03
3.556644372285e-03
3.541723781294e-03
3.522212824024e-03
3.463618372245e-03
3.346736671178e-03
3.480427853564e-03
3.529479746967e-03
3.562818947462e-03
3.583265350504e-03
3.596230713421e-03
3.604275635126e-03
3.608512416245e-03
3.611841608546e-03
3.615096125093e-03
3.615434671224e-03
3.616342310127e-03
3.616554988433e-03
3.617125845054e-03
3.617368979144e-03
3.618513896794e-03
3.615060587980e-03
-7.262580079205e-04
-9.790046591477e-05
3.989518426369e-04
8.808047627921e-04
1.376992871035e-03
1.894627511567e-03
2.382918891767e-03
2.798891182022e-03
3.271493485895e-03
3.486341521339e-03
4.356111052585e-05
2.601569065287e-03
5.862222188012e-05
-1.412097725088e-03
2.451136565797e-03
1.054360493703e-03
1.320505977200e-03
2.906470328582e-03
2.013329281203e-03
3.380043179820e-03
2.890085427160e-03
2.458116990902e-03
1.645526981999e-04
3.936769731782e-03
3.506145528736e-03
8.236662868364e-04
1.680669034092e-03
4.318775231507e-03
4.744704369532e-03
5.113152017722e-03
5.035356998639e-03
4.937845266250e-03
3.708410651046e-03
3.830091090567e-03
3.875662705378e-03
4.425229074318e-03
2.465536192346e-03
-1.755280032074e-03
1.925596882704e-04
2.106567724475e-03
3.877475852174e-03
4.708087083280e-04
4.534251973392e-03
3.138386484694e-03
3.656236362136e-03
2.738955375341e-03
2.512969880367e-03
-2.853812907680e-04
3.781406081389e-03
2.421041189227e-03
4.721857473826e-03
1.260049007973e-04
1.061212304353e-03
5.155362729578e-03
1.544791694750e-03
5.535644249009e-04
2.479206287056e-03
3.265162772230e-03
-5.534782193972e-04
4.142156380265e-03
2.498451255282e-03
1.979903676635e-04
5.029616243146e-03
3.593798222091e-03
3.569706477947e-03
3.686856451379e-03
3.649179447952e-03
3.774221785762e-03
3.743704370380e-03
3.606990824656e-03
3.707403266477e-03
3.559325917711e-03
3.873783220968e-03
3.666252048642e-03
3.508355486784e-03
3.620989704657e-03
3.455768831573e-03
3.343112136030e-03
3.285067453273e-03
3.170721461814e-03
3.108293966344e-03
3.228969221962e-03
3.048885873649e-03
2.925213158125e-03
2.864796964261e-03
2.736522400535e-03
2.676428986746e-03
2.541597400047e-03
2.483945131398e-03
2.622416965653e-03
2.433028473708e-03
2.288382648571e-03
2.241447517498e-03
2.089409986711e-03
2.047098135385e-03
2.201613816470e-03
2.013468361215e-03
1.849285109306e-03
1.824072735572e-03
1.649064280102e-03
1.634312283393e-03
1.447497971275e-03
1.443299186524e-03
1.628423010149e-03
1.448563735791e-03
1.252152345976e-03
1.270953334012e-03
1.463920553605e-03
1.299986300319e-03
1.487657765485e-03
1.337342802103e-03
1.143981099680e-03
1.195685537733e-03
1.380564929505e-03
1.251275134859e-03
1.063954425209e-03
1.132730554616e-03
1.310161593511e-03
1.201819206662e-03
1.025534712921e-03
1.104034316098e-03
1.271328322280e-03
1.179730780173e-03
1.015986390619e-03
1.096583831732e-03
1.253344786683e-03
1.173318301697e-03
1.324283394961e-03
1.020138869674e-03
1.099343560174e-03
9.505047120547e-04
1.030973305168e-03
2.169333340866e-03
8.876661957643e-04
8.028163203976e-04
9.674941664530e-04
1.107032701012e-03
8.296507136823e-04
9.077784214981e-04
7.757452452048e-04
1.459750962445e-03
3.174473789896e-03
8.508787249750e-04
7.241844502232e-04
6.477213358181e-04
6.024378140556e-04
3.889891793019e-03
4.005284076856e-03
4.011025994672e-03
4.134053180989e-03
4.131374533090e-03
6.733731700722e-04
3.782568111359e-03
4.128485101252e-03
2.803922492726e-03
2.139570233485e-03
1.644249185458e-03
9.809113928309e-04
9.214004383442e-04
1.049687192629e-03
1.407103448719e-03
1.472529068420e-03
1.556859501563e-03
1.617489517213e-03
1.702183003962e-03
1.759019659961e-03
1.677894214327e-03
1.816448752677e-03
1.738075930267e-03
1.843097352130e-03
1.790633616366e-03
1.874393453348e-03
1.798240974250e-03
1.933269647135e-03
1.858600056310e-03
1.723196622893e-03
1.784399982837e-03
1.649812607721e-03
1.662983826341e-03
1.813592817081e-03
1.827247848794e-03
1.972063908114e-03
1.981225068406e-03
2.120548801840e-03
2.124836388442e-03
1.995978372762e-03
3.571987214813e-03
1.063792674437e-03
1.040955811160e-03
8.394496162852e-04
8.127346729180e-04
5.943894646038e-04
5.650260736494e-04
3.236561880971e-04
3.800902991596e-04
8.280125106804e-05
1.796551893908e-04
-1.298873910582e-04
2.136186973460e-06
2.573665616067e-03
2.121130459632e-03
2.264476625068e-03
2.272789963152e-03
5.261923556636e-04
1.919280182290e-03
1.930303132680e-03
1.882138141940e-03
2.136096494650e-03
5.571668542433e-04
2.943524249715e-04
5.584175421365e-04
4.260511326480e-03
4.249752639294e-03
2.020169655976e-03
6.235868732528e-04
1.952135047712e-03
-2.234042752619e-04
1.845429025828e-03
1.979755160853e-03
1.599848603392e-03
2.411855963730e-03
2.426267321972e-03
2.919042538424e-04
1.481765134012e-04
-1.219001069943e-04
4.899527111017e-05
2.988352851277e-04
2.101442331156e-04
-1.110715979715e-05
1.595858961774e-04
3.614493273296e-04
3.116075789317e-04
1.395665409502e-04
2.842071117832e-04
2.053391094369e-03
-4.154086070959e-04
3.236949326850e-03
2.064440807529e-03
2.257681275050e-03
4.385867121355e-03
4.366849248676e-03
4.231611220767e-03
4.341357012059e-03
4.482813848764e-03
4.450524095416e-03
4.309868496366e-03
4.413156075019e-03
4.272881341337e-03
4.371071253855e-03
4.516230966669e-03
4.469214383821e-03
4.324361692931e-03
4.418555260722e-03
4.273535269210e-03
4.364006405015e-03
4.512696009054e-03
5.143979875513e-04
2.015557234015e-03
2.152615978491e-03
9.900606564171e-04
1.115230889039e-03
1.180968604311e-03
1.246584227078e-03
4.453840714146e-03
4.606105534583e-03
3.021245808731e-04
5.777640985123e-04
4.398262745203e-03
1.906423502694e-03
1.772560849870e-03
1.931785460105e-03
1.985493238779e-03
1.766735471429e-03
1.822199753064e-03
2.048792454906e-03
1.588625804609e-03
1.738259137028e-03
4.618211631585e-03
5.650413741473e-04
4.438845825246e-04
2.040831325391e-03
1.870726161743e-03
2.758504896876e-03
2.710895069704e-03
2.892353511689e-03
2.844470832492e-03
3.024252841550e-03
2.974376997948e-03
2.800873626742e-03
2.562557082802e-03
2.929911168734e-03
4.304217402609e-03
2.125310792023e-03
4.959698958993e-04
4.491483710756e-04
1.484440529988e-04
5.704240605112e-04
6.856168076337e-04
2.151344115970e-03
3.154566839105e-03
3.204434263636e-03
1.893164785020e-03
2.124389900849e-03
2.541348693336e-03
4.012115208302e-03
4.175185696395e-03
4.137741116947e-03
4.510405383470e-04
1.779137639211e-05
4.597129618255e-03
8.115511738877e-04
8.410549507006e-04
-5.132233049955e-04
-7.457848109195e-04
4.542916450686e-03
4.695586585357e-03
1.313634582283e-03
1.377631876688e-03
2.114114814860e-03
2.693238562182e-04
4.759624109501e-03
1.900504104508e-03
1.750922064517e-03
1.178737050815e-03
3.451491045879e-04
5.677976673963e-05
5.615947279184e-04
4.083026412205e-04
6.286202024592e-04
2.241328250486e-03
4.630341231998e-03
2.761260815541e-03
2.628554378622e-03
2.887546375551e-03
1.595186152372e-04
2.194884075113e-03
1.967571232379e-03
3.330712425150e-03
3.384796410691e-03
1.055094159700e-03
1.096420358300e-03
8.905033373402e-04
1.152400046297e-03
3.463665525191e-03
1.295547048947e-03
3.062995743236e-03
3.139568373056e-03
2.959424874307e-03
2.266277545832e-03
2.347193547238e-03
1.030624751980e-03
1.805579105173e-03
1.247748045493e-03
1.587685446358e-03
1.495481587647e-03
4.665791176059e-03
4.771519825904e-03
4.182937758515e-03
4.131312355943e-03
4.126986703649e-04
3.326576653436e-04
1.392987080147e-03
2.110086227275e-03
4.529885719992e-03
4.544072881669e-03
4.404049773304e-03
2.209125333399e-03
8.812364401389e-04
1.687552970371e-03
-5.734819753881e-04
2.349501094374e-03
3.107162899294e-04
3.351745854206e-03
2.102933469591e-03
2.175167194538e-03
2.684517406140e-03
3.446243222429e-03
2.318571061978e-03
2.145479593995e-03
3.046649336387e-03
2.861278481001e-03
2.768911075440e-03
2.658094599256e-03
6.752851949076e-04
6.123961939815e-04
3.293632850841e-03
3.053356462117e-03
3.514149863473e-03
3.572966425550e-03
2.660464552891e-03
2.524870744215e-03
7.414968918303e-04
2.211548287479e-03
4.749802314285e-03
3.221309497133e-03
2.234190091570e-03
2.161651698782e-03
-9.762007296789e-04
-6.698539124331e-04
4.851701427574e-03
9.498803286369e-04
1.210492032655e-03
6.852507212872e-04
2.384597521840e-03
3.877668841866e-03
2.239397861245e-03
2.479046572009e-03
4.917956348284e-03
2.296207200907e-03
1.715916715633e-03
2.077884359123e-03
4.774930709515e-03
4.945569594742e-03
4.046538932758e-03
4.000905880625e-03
4.074951877624e-03
-2.529033523682e-04
-5.493174732189e-04
4.718998289281e-03
8.638882460935e-04
9.406634943458e-04
3.801163226804e-04
5.167538819335e-04
1.382206479113e-03
1.316135403432e-03
3.301990784032e-03
3.479697390549e-03
2.941969828425e-03
1.789965706945e-03
1.637337513210e-03
1.593629953727e-03
4.817497576815e-03
4.939483069722e-03
7.510232453162e-04
6.451413048857e-04
7.754142301667e-04
4.784325176826e-03
2.309973178599e-03
2.244924914886e-03
2.414085170024e-04
2.487857897422e-04
1.397384102807e-04
-1.477668802266e-04
4.549589720033e-03
4.401944288832e-03
4.703888861654e-03
6.747030696434e-04
2.601551696072e-03
2.327785546793e-03
2.309852113940e-03
2.377380925591e-03
2.709643905436e-03
2.818716049886e-03
3.004767615822e-03
-1.223598633517e-03
4.898966744179e-03
4.038220026341e-03
-1.441564270344e-03
3.986920823779e-03
4.074216805547e-03
3.920828363369e-03
5.629717838905e-04
3.933637805080e-03
3.976236289729e-03
1.539359900499e-04
4.910228612407e-03
2.212797797355e-04
2.827679958526e-04
2.292437389930e-03
2.215633365185e-03
2.338712970345e-03
2.263368916147e-03
2.139095280933e-03
2.199652969911e-03
3.949199185388e-03
2.344199236353e-03
2.263071840270e-03
2.411552447604e-03
2.767097821260e-03
1.399396448112e-03
1.471719947620e-03
1.295742764049e-03
3.728107498643e-03
3.749813516812e-03
2.033128289580e-03
1.897021020298e-03
4.005576761116e-03
4.003992145380e-03
4.133171776941e-03
4.120919154434e-03
4.252367132445e-03
4.236375992494e-03
4.371893381445e-03
3.190145078530e-03
7.464518490875e-04
3.148861774934e-03
2.634811683561e-03
2.502425053907e-03
2.440619627767e-03
2.326207493050e-03
2.335172744113e-03
1.259993134630e-03
4.963317793417e-03
-1.392584059317e-03
-1.046431753686e-03
1.487344273545e-03
2.563044970838e-03
1.648546885197e-03
1.733224058907e-03
1.937683730940e-03
1.707275894281e-04
4.126563380855e-04
4.381960940241e-03
2.221911255968e-04
1.969501571912e-03
1.246006696321e-03
2.405086630975e-03
6.226430636364e-04
1.347699014630e-03
3.402822741933e-03
3.521150384426e-03
3.377887229387e-03
1.244036390423e-03
1.981605592253e-03
1.821636053285e-03
2.991460510842e-03
4.261270041735e-03
4.251910687429e-03
4.389236448611e-03
4.232604003668e-03
4.097675662361e-03
4.072804792616e-03
4.215309054629e-03
4.045193764754e-03
4.213375575436e-03
4.004643407969e-03
3.869829261611e-03
3.826071756801e-03
3.944645265367e-03
3.695198723797e-03
2.757865528127e-03
1.674273959594e-03
-9.046883111967e-04
-6.463230971770e-04
2.608675171966e-03
4.432660896591e-03
4.654569054430e-03
8.025986487833e-04
3.795041870472e-03
3.306739001112e-03
2.571683085224e-05
3.517258055994e-03
4.116418956005e-03
3.968537160563e-03
3.990124511157e-03
4.819421138314e-03
4.101755085252e-03
3.028820332192e-03
1.968369974723e-03
1.968478181206e-03
1.803224816613e-03
3.907877078689e-03
2.660324301843e-03
2.541010601266e-03
2.487163608662e-03
2.407193759232e-03
2.552346549690e-03
4.207279268591e-03
4.081681967069e-03
4.348730142553e-04
5.325510598185e-04
7.471424094499e-04
6.496414637242e-04
4.118880857123e-04
5.518669969307e-04
7.852522584726e-04
4.592798282503e-04
3.614180313033e-03
2.489155039725e-03
1.645739853818e-03
1.588336900119e-03
1.432907138307e-03
1.179198574055e-03
1.247223115647e-03
1.386721170995e-03
1.113562171830e-03
2.667296563545e-03
2.466640280866e-03
1.716998584227e-03
1.174949145026e-03
3.749035385363e-03
3.815170544517e-03
3.758681651600e-03
3.885995752658e-03
3.869481008126e-03
1.446230157183e-03
1.508564379700e-03
1.439785786389e-03
1.569565259819e-03
1.497444460514e-03
1.377948352798e-03
1.627351031348e-03
1.544679373673e-03
3.804763847125e-03
-7.380124354118e-04
-4.486132863289e-04
-1.953521511808e-04
-2.537537659060e-04
-4.477606150406e-04
-2.070886969972e-04
-3.781820199305e-04
-8.092554609176e-04
-1.085066118932e-04
-5.066561341915e-05
6.076967202260e-06
4.193151548374e-05
4.928362173596e-05
3.558004913694e-04
2.453174762791e-03
1.185295288883e-03
1.121545351725e-03
1.003410495136e-03
1.061309923580e-03
1.235109887940e-03
9.405607856304e-04
8.939738535139e-04
1.979427628123e-04
2.759970407386e-04
2.722436710023e-04
3.670492056781e-04
3.608116620908e-04
2.715204372554e-04
2.634275220611e-04
1.862315668146e-04
2.534346019071e-04
3.461505110876e-04
1.760938901050e-04
4.575618417348e-03
4.658360958875e-03
2.440883286665e-03
3.855857598323e-03
9.069779603663e-05
5.099809009638e-03
5.076111263006e-03
5.102046227617e-03
2.246330670881e-03
2.313932587346e-03
5.120971478432e-03
6.950252762112e-04
4.367046039450e-03
4.818375412091e-03
2.033341183240e-05
5.605445045895e-04
1.833677442225e-03
1.661946378413e-03
2.113063766171e-03
1.711416530271e-03
1.993045155554e-03
2.432068225122e-03
5.193878673782e-04
4.230105757038e-03
4.218792252884e-03
4.567128019567e-03
7.952655198744e-04
1.314976897561e-03
4.882938883992e-04
3.477330331664e-03
2.879177836840e-03
1.340024369014e-03
1.042669425379e-03
7.463743612807e-04
4.464361059036e-04
1.885718617902e-03
1.247116754010e-03
1.896883757666e-03
4.664197828094e-03
1.524439319462e-04
1.979338029856e-03
1.536664109914e-03
4.206262999660e-03
2.259025897271e-03
-2.021327279052e-05
4.558504871862e-03
4.676234324999e-03
3.999495155156e-03
3.817606463981e-04
4.090282081336e-03
2.272925897887e-03
4.264639691050e-03
7.405461814539e-04
1.518269201653e-03
2.342539095523e-03
3.403212496907e-03
4.871231957205e-03
1.988657077248e-03
2.269516983003e-03
1.846552844492e-03
8.049989091922e-04
2.085147415465e-03
1.632579964631e-03
4.708500091268e-03
3.073476377784e-03
1.098828638027e-03
4.509585611023e-03
1.370493270689e-03
2.398665206131e-03
2.684844753189e-03
2.809660958691e-03
3.402547480820e-03
2.388294716560e-03
1.761775744624e-03
2.031037190350e-03
-2.948621411949e-04
1.536925541345e-03
4.122418601258e-03
3.096570479022e-03
4.862274926920e-03
2.198088762724e-03
2.008340052092e-03
4.657325427520e-03
1.318158035863e-03
5.950355696529e-04
-2.247544886705e-04
6.434444272568e-04
1.808604121070e-03
1.459858907193e-03
4.556938019355e-03
2.066440194179e-03
1.977912824813e-03
-2.318363433812e-04
3.309204514790e-03
2.126542312843e-03
1.554082320537e-03
2.386697554253e-03
1.422548905376e-03
3.342380838119e-03
2.558375544407e-03
2.189653102104e-03
2.045051517240e-03
1.034111139334e-03
3.881090050075e-03
2.342271698727e-03
2.179283135907e-03
2.530096456051e-03
1.427639669056e-03
3.109830491646e-03
1.524818227251e-03
2.993317262365e-03
4.887859093857e-03
2.276551684065e-03
3.849706897278e-03
1.452288093595e-03
2.282085304950e-03
3.546283545427e-04
2.968344645785e-03
1.516046411999e-03
7.093127109459e-04
1.477965411110e-03
2.796746346521e-03
1.578649148904e-03
9.357258475111e-04
1.640110042352e-03
2.702654658879e-03
3.818895869119e-03
1.700948045026e-03
3.122602412778e-03
3.412825872532e-04
2.491424665468e-03
2.171780489172e-03
8.658746899993e-04
1.531606836682e-03
3.941376933782e-03
2.250197942571e-03
1.686125111315e-03
3.253378336237e-03
2.462281293702e-03
1.974295646132e-03
1.835399109004e-03
2.095461603483e-03
6.088061638292e-04
4.777862541396e-04
9.978698151516e-04
3.435042489123e-03
4.551852030891e-04
3.740179110873e-03
2.627644468682e-04
8.648590559036e-04
2.582918125195e-03
4.283833659642e-03
9.457572486833e-04
7.081954422287e-04
8.407934343493e-04
2.131410570298e-03
9.311349962888e-04
8.480077486005e-04
4.970420570715e-03
9.370763730240e-04
5.150246589754e-03
2.469738301918e-03
3.992744172508e-03
1.791175898932e-03
-1.820734976658e-03
1.568629968663e-03
7.124313003317e-04
3.523954601602e-03
3.997719948890e-03
6.575255884616e-04
4.123559358645e-03
3.254882016835e-03
4.501322054616e-03
2.376755608060e-03
2.443036164667e-03
4.867361334400e-03
3.857413929118e-03
9.379004672279e-05
1.831931621353e-03
1.277762767860e-03
1.005041954139e-03
4.836901209994e-04
8.545579504200e-04
-7.967689109677e-05
8.025777717388e-04
2.589588084356e-03
3.932522910005e-03
2.733661867837e-03
3.030113113832e-04
4.803660850686e-03
2.984564056174e-03
2.449416916689e-03
2.856317415305e-03
-5.658815456310e-05
3.915046998119e-03
3.606580544517e-03
4.614351878712e-03
2.464771853267e-03
3.872048181693e-03
5.014197511854e-03
-3.825399523312e-04
5.026931651348e-03
3.652367026989e-03
4.163440983160e-03
3.800063782978e-03
2.375777211988e-03
4.352914068409e-03
-3.981068656321e-04
4.486882712882e-03
1.056816180834e-03
-1.174196151442e-03
2.343477913671e-03
3.781677312497e-03
2.360379125616e-03
3.665303787533e-04
1.696366873803e-04
2.383734057002e-03
3.902189368311e-03
-1.674202745897e-04
5.046312407024e-03
-8.364324500996e-04
3.828738673586e-03
2.335682539825e-04
2.471566793262e-03
4.947778459259e-03
1.175820938937e-03
3.660305258745e-03
7.842440960869e-04
3.190449941387e-03
1.002898732908e-04
4.999008328163e-03
2.432757625606e-03
4.669689550594e-03
2.850783637934e-03
-1.375449055598e-03
3.116629971952e-03
2.383033928579e-03
3.863344433915e-03
4.503858514024e-03
9.527976565290e-04
4.242627793520e-04
5.173132732736e-03
1.928227304093e-04
3.862226110872e-03
2.501496740729e-03
4.282962107927e-04
4.099251262336e-03
4.030916139246e-03
1.455562015495e-03
4.778032234033e-03
-1.075945189139e-04
-1.853855956428e-03
4.362033972802e-03
2.905359199325e-03
4.801165367309e-03
4.247403112118e-03
-3.666314551010e-04
3.883598955543e-03
1.270787627251e-03
3.449369509945e-03
2.481628791591e-03
-9.803425827748e-04
1.569142567629e-03
2.095613350776e-04
2.368971766799e-03
1.328532144226e-03
3.419949920542e-03
3.542550868495e-03
3.522457038260e-03
3.682211491514e-03

SCALARS node_materi_strain_total_size_dev_sd_ept float
LOOKUP_TABLE default
7.192376572980e-04
1.057443740158e-02
6.202398987535e-03
1.288608331525e-02
4.678702466568e-04
3.960981650811e-04
7.049362338798e-04
1.110650847939e-03
1.491883497168e-03
1.835681322774e-03
2.155439527455e-03
2.455569202451e-03
2.743185630558e-03
3.030932842255e-03
3.330358645064e-03
3.624704586710e-03
3.901324545865e-03
4.217009859644e-03
4.557928304981e-03
4.903210006547e-03
5.263989291764e-03
5.636901775200e-03
5.992758690877e-03
1.288253668280e-02
1.286878332862e-02
1.287068362154e-02
1.286289182513e-02
1.285436916500e-02
1.284956598123e-02
1.283618400375e-02
1.280827302319e-02
1.278640022935e-02
1.274234411245e-02
1.270014065768e-02
1.264084190102e-02
1.256390663370e-02
1.246192497619e-02
1.235120986083e-02
1.219725298118e-02
1.203269805510e-02
1.183795668293e-02
1.161538850163e-02
1.136618615473e-02
1.107752007082e-02
1.077218618012e-02
1.043462689079e-02
1.007739521450e-02
9.711421410312e-03
9.335450469506e-03
8.950070468569e-03
8.559999049620e-03
8.175848365891e-03
7.840344876763e-03
7.479440737534e-03
7.132342421598e-03
6.830466173002e-03
6.605984793496e-03
6.408640623772e-03
6.264077802573e-03
6.155398416019e-03
6.078678054330e-03
6.026612669087e-03
6.007949496530e-03
6.024644986545e-03
6.064889042122e-03
6.092027390876e-03
6.066124254044e-03
6.143174395722e-03
6.153530027596e-03
6.182637240868e-03
6.212056135238e-03
6.220931551325e-03
1.090553350007e-02
1.122935974432e-02
1.152662209186e-02
1.179620291808e-02
1.204769263379e-02
1.227376256486e-02
1.247416868396e-02
1.264726514844e-02
1.281011874648e-02
3.920451437928e-03
1.094618090008e-02
4.518684784162e-03
4.865337559444e-03
5.559231870112e-03
6.208879536253e-03
6.942899078667e-03
7.841660379081e-03
8.924171140141e-03
1.032793189151e-02
1.061109474240e-02
1.003216688453e-02
1.022416321395e-02
1.052987758511e-02
1.055446700188e-02
1.056083693477e-02
1.056217444448e-02
1.061748624696e-02
1.058794286820e-02
1.059646722397e-02
1.061360813690e-02
1.064698910414e-02
1.067009721067e-02
1.069555200583e-02
1.073174357984e-02
1.077493612174e-02
1.083785233544e-02
2.995267796694e-03
2.754801500038e-03
2.833790492839e-03
2.834225566204e-03
2.881732696631e-03
2.000894620277e-03
8.055141918345e-04
2.241007522574e-04
1.985465539742e-04
2.787212482318e-04
3.433556519868e-04
4.321578332711e-04
5.181479127970e-04
5.949870489631e-04
6.074195317604e-04
6.199047351254e-04
6.377095631079e-04
6.828646010864e-04
7.235091481325e-04
1.006506870744e-02
1.004115940298e-02
1.003839474757e-02
1.003648732170e-02
1.003085279096e-02
1.002381967518e-02
1.001348759761e-02
1.000086217764e-02
9.982986724930e-03
9.966608286276e-03
9.951274260334e-03
9.939094190126e-03
9.937522064116e-03
9.948852973392e-03
9.986970470978e-03
1.011515693007e-02
1.041527231604e-02
1.038784515657e-02
1.037140477878e-02
1.029351418718e-02
1.025671453557e-02
1.023810750119e-02
1.022790258139e-02
1.022256464115e-02
1.022211563394e-02
1.022185932170e-02
1.022177407457e-02
1.022117484807e-02
1.022051101614e-02
1.022125303147e-02
1.021974966936e-02
1.022456702455e-02
1.023319164475e-02
4.750108788921e-03
4.630698412533e-03
5.186250319841e-03
5.927568150803e-03
6.618718848022e-03
7.411411370188e-03
8.352184574519e-03
9.655061537584e-03
1.062959277003e-02
1.081371759088e-02
4.750053155649e-03
6.359653430476e-03
4.090199198120e-04
3.193765332161e-03
5.765694123369e-03
6.016700714089e-03
3.183930280898e-03
7.613033648838e-03
7.544817488150e-03
9.257315535507e-03
9.865922264072e-03
5.874245988224e-03
3.495990085443e-04
1.079390091396e-02
1.106913395939e-02
2.013276468813e-03
3.997430895427e-03
1.168043725303e-02
1.243203305957e-02
1.282777456045e-02
1.279361740761e-02
1.269134922882e-02
1.118680595727e-02
1.103383395560e-02
1.096872487521e-02
1.192917281718e-02
5.968844627028e-03
3.075872675437e-03
4.539900298084e-04
5.062070934156e-03
1.086929945628e-02
9.120439172930e-04
1.211331329241e-02
8.480208762465e-03
1.006658341561e-02
6.919225047260e-03
6.014141517875e-03
2.012249551889e-03
1.109632811613e-02
5.691324918087e-03
1.237621957462e-02
2.153409011135e-04
2.600298390870e-03
1.285135210232e-02
6.696048828461e-03
5.337378121401e-03
8.583547872223e-03
1.062987854337e-02
4.674213257836e-03
1.140508204726e-02
6.094022599050e-03
5.218302370359e-04
1.271742567866e-02
1.124270484623e-02
1.125694935172e-02
1.144808241901e-02
1.140347599974e-02
1.163461491560e-02
1.153747849323e-02
1.125802740271e-02
1.136915150604e-02
1.102254132110e-02
1.177641258006e-02
1.113294464580e-02
1.072628922354e-02
1.084559227859e-02
1.039186659589e-02
1.025845522988e-02
9.882050891279e-03
9.736293199291e-03
9.324307323174e-03
9.494503012073e-03
8.906477850870e-03
8.726010600908e-03
8.288810300457e-03
8.104207886626e-03
7.653093668067e-03
7.469505914394e-03
7.010744680445e-03
7.214613402911e-03
6.566707648478e-03
6.374379190767e-03
5.925428004011e-03
5.751445805667e-03
5.297287484264e-03
5.497525446202e-03
4.866899748970e-03
4.689273337468e-03
4.259258583247e-03
4.116892461366e-03
3.688917103478e-03
3.599697891958e-03
3.171482207293e-03
3.294123510516e-03
2.782733881333e-03
2.741909897870e-03
2.369395880233e-03
2.451977009651e-03
2.064442026308e-03
2.199063958623e-03
1.847989948495e-03
1.844231823344e-03
1.674489953211e-03
1.740145867790e-03
1.615872808522e-03
1.697939545159e-03
1.669054801047e-03
1.670105336680e-03
1.736052388473e-03
1.837764789603e-03
1.888992983181e-03
1.883211795896e-03
2.009843642833e-03
2.064996434274e-03
2.150451766181e-03
2.184539232919e-03
2.288067514588e-03
2.396257972475e-03
2.268507279979e-03
2.370954049562e-03
2.341935229952e-03
2.415917578383e-03
5.100444809880e-03
2.356384398362e-03
2.353197543378e-03
2.412387899003e-03
2.532056188498e-03
2.308875497409e-03
2.358716600226e-03
2.205481996499e-03
4.052648554698e-03
9.105355451934e-03
2.257093925965e-03
2.051668678110e-03
2.026554791488e-03
1.808445763148e-03
1.182085614215e-02
1.197517094851e-02
1.198394361475e-02
1.215115507021e-02
1.213569286071e-02
1.857609214099e-03
1.124190280209e-02
1.210987893381e-02
8.563875202255e-03
6.218202490455e-03
2.673202189873e-03
2.446137869778e-03
2.342860624090e-03
2.560425521806e-03
2.331063719537e-03
2.596506543849e-03
2.582895948833e-03
2.880732143477e-03
2.921774243270e-03
3.235091001902e-03
3.181782975551e-03
3.547380513044e-03
3.479278725220e-03
3.327839294745e-03
3.014454765295e-03
3.852253685766e-03
3.768701632480e-03
4.146215725755e-03
4.046553254288e-03
3.697093174646e-03
3.954215292291e-03
3.628801456603e-03
2.478447553491e-03
3.003191942076e-03
2.860834275559e-03
3.411208284077e-03
3.314302452391e-03
3.878561232448e-03
3.820195104081e-03
3.299428443374e-03
1.052626127049e-02
2.446282698074e-03
2.838789102444e-03
2.682125325883e-03
3.072341780446e-03
3.060894141400e-03
3.429953572755e-03
3.562855762165e-03
3.239392298519e-03
3.870604273715e-03
3.556420143087e-03
4.235231558199e-03
3.933728924355e-03
6.795896569051e-03
4.009318354695e-03
4.488135935070e-03
4.637494011047e-03
1.791931771061e-03
4.310030847150e-03
3.474349026727e-03
3.172580728284e-03
3.840095710056e-03
1.562468271590e-03
3.875706672965e-03
3.819463019311e-03
1.229770879570e-02
1.226379077436e-02
3.684258731377e-03
1.636692323103e-03
3.959847377341e-03
4.394822961874e-03
4.197653009505e-03
4.556132117638e-03
3.152750883487e-03
5.127784443170e-03
5.283203322074e-03
3.236535880117e-03
3.569597584767e-03
4.126598735499e-03
3.751445993150e-03
3.214676430973e-03
3.380921483951e-03
3.729200003050e-03
3.379761971416e-03
3.042301240801e-03
3.024591777436e-03
3.123393350348e-03
2.815419604012e-03
4.689965021961e-03
4.552089320386e-03
1.013679212530e-02
3.978262560457e-03
4.371029238873e-03
1.242159072266e-02
1.237383837382e-02
1.218169942468e-02
1.228755253099e-02
1.246618239346e-02
1.238035214231e-02
1.217164707144e-02
1.226907615505e-02
1.203311320064e-02
1.213840603046e-02
1.235825125942e-02
1.223527247575e-02
1.199396008115e-02
1.210099659192e-02
1.184147987441e-02
1.195788428952e-02
1.220159827636e-02
1.307343453946e-03
3.364676467702e-03
3.935670869455e-03
2.458058776864e-03
2.690304203401e-03
2.782277310304e-03
2.940920791420e-03
1.206853724711e-02
1.229802561262e-02
4.186820784885e-03
4.215106680382e-03
1.242589145842e-02
4.426816488119e-03
4.086722331652e-03
5.620312531722e-03
6.093694704615e-03
5.529369232466e-03
5.997592733103e-03
6.571123764370e-03
5.476236104235e-03
2.711714614921e-03
1.243868115124e-02
2.044229705998e-03
1.813348507269e-03
4.786770516286e-03
2.843123360319e-03
7.451769485863e-03
7.063031598268e-03
7.723939158207e-03
7.368973854108e-03
8.032917765029e-03
7.717398702206e-03
7.051864053040e-03
5.786764117888e-03
7.448599317655e-03
1.180742817425e-02
4.200510616392e-03
2.751339709142e-03
1.220935015441e-03
2.660680481309e-03
1.394855968343e-03
1.732531196357e-03
4.232977534009e-03
8.385473241686e-03
8.679304351308e-03
6.476015534339e-03
7.043611279175e-03
5.663772342524e-03
1.192891332595e-02
1.191989684867e-02
1.175228160916e-02
9.896691910924e-04
2.964048185160e-03
1.254606623800e-02
3.927189984219e-03
4.363702758874e-03
4.483961074119e-03
4.418627880613e-03
1.217348806543e-02
1.238685954134e-02
3.019452706993e-03
3.200601660280e-03
3.966586590737e-03
2.455420839817e-03
1.249309059563e-02
2.964298835862e-03
2.472544361645e-03
2.836847454929e-03
4.466683757627e-03
4.400303568418e-03
2.657043052770e-03
2.556018425064e-03
1.511184360865e-03
4.555010242797e-03
1.260110175571e-02
6.781089610926e-03
6.384122103461e-03
7.221532653576e-03
2.140812424272e-03
4.526775736019e-03
4.641540927480e-03
9.023941080576e-03
9.296635608821e-03
4.179068470386e-03
4.633732373360e-03
4.797136938822e-03
5.097676239197e-03
1.091905194257e-02
4.544286056274e-03
9.602595426542e-03
1.001993648149e-02
9.470712442673e-03
7.169150099863e-03
7.647867695432e-03
3.269060362203e-03
3.226206785786e-03
2.843447624437e-03
3.384233929953e-03
2.297099440168e-03
1.253709915020e-02
1.260458704437e-02
1.171581051866e-02
1.154632650679e-02
1.475105046676e-03
1.476381236224e-03
2.631626176849e-03
4.280762811652e-03
1.253850305705e-02
1.251884243909e-02
1.238835660804e-02
4.312643807606e-03
2.333896125141e-03
2.378495984767e-03
4.537628496155e-03
5.745679080081e-03
1.071921964269e-03
9.678464587183e-03
5.002386868060e-03
5.160950111711e-03
6.321668302847e-03
1.101262988789e-02
5.389887534954e-03
4.743665840163e-03
9.897756848651e-03
9.347156450693e-03
8.886470092131e-03
8.761888035382e-03
2.471789544098e-03
2.540172412315e-03
8.830428981885e-03
7.896835677521e-03
9.622332158862e-03
9.889186153089e-03
6.234898028475e-03
5.585131061129e-03
1.838098136052e-03
7.516022756845e-03
1.267133015860e-02
1.039701260989e-02
4.812980748522e-03
4.590154984918e-03
4.319656006191e-03
4.445323894068e-03
1.257360652959e-02
5.221650710217e-03
5.530558428097e-03
4.949476205307e-03
5.803957683786e-03
1.084047147711e-02
5.373542274335e-03
7.792454226555e-03
1.266324977982e-02
5.082063432965e-03
5.053524411929e-03
3.723600410512e-03
1.246487580051e-02
1.265721130178e-02
1.161744879404e-02
1.142532155793e-02
1.178641224501e-02
4.433887709265e-03
4.463743339592e-03
1.251393927016e-02
2.206796160648e-03
2.345764746705e-03
2.267232121624e-03
2.360958389726e-03
3.075343599029e-03
2.876237840302e-03
9.327910459376e-03
9.891151458331e-03
8.101388688384e-03
2.649494015554e-03
2.208942784322e-03
2.054774013524e-03
1.266953970735e-02
1.273714781890e-02
2.313570061172e-03
2.464142362320e-03
2.360230307611e-03
1.269978103256e-02
5.541727227803e-03
5.325287698956e-03
1.020129850224e-03
1.489872709428e-03
4.569683979562e-03
4.486314979371e-03
1.244974919303e-02
1.230972687194e-02
1.257366472918e-02
1.605233449643e-03
6.129988990013e-03
4.926214735053e-03
4.723340299314e-03
5.247285918294e-03
6.436313395298e-03
6.959564309551e-03
7.727884074043e-03
4.087312902804e-03
1.259117678361e-02
1.138553452753e-02
3.702812216657e-03
1.120464109697e-02
1.137320093644e-02
1.101182193339e-02
1.252641990411e-03
1.141582831721e-02
1.164932857840e-02
8.344875426949e-04
1.274494162538e-02
6.175801325291e-04
7.111611373681e-04
5.101126183062e-03
4.881866840704e-03
5.368417136742e-03
5.151892593963e-03
4.700111159344e-03
4.989004422912e-03
1.122306050099e-02
5.484760005005e-03
5.268464203467e-03
5.750377442834e-03
9.263607393173e-03
5.488650758259e-03
5.922771766586e-03
6.004286805245e-03
1.025429597613e-02
1.040715799485e-02
4.849792754024e-03
4.500255837309e-03
1.118474802810e-02
1.114856261472e-02
1.143870717100e-02
1.138557763298e-02
1.165931000058e-02
1.160236504293e-02
1.186400087589e-02
8.473235032019e-03
5.320507482348e-03
1.030613045070e-02
6.185304868203e-03
5.528388709403e-03
8.128599492579e-03
8.016659816219e-03
5.179396263942e-03
4.076034704275e-03
1.274211359064e-02
3.719467791079e-03
4.201778107755e-03
4.523445749209e-03
8.275399247202e-03
5.942213996214e-03
6.424124198810e-03
3.159950575458e-03
1.533422142594e-03
4.732134062084e-03
1.191395128698e-02
4.776002160891e-03
4.706869492022e-03
3.611272264140e-03
7.310715070488e-03
4.596716067925e-03
5.023227697491e-03
1.061140047946e-02
1.114482514518e-02
1.081115600413e-02
3.160336764983e-03
6.950318522066e-03
6.894733852660e-03
9.166810639127e-03
1.222041021518e-02
1.211183975291e-02
1.218185104760e-02
1.196432845836e-02
1.187095367403e-02
1.168917231828e-02
1.179244402145e-02
1.148086212626e-02
1.164371186627e-02
1.124364844897e-02
1.109546505281e-02
1.083657175035e-02
1.099889321182e-02
1.067311231059e-02
6.859965228591e-03
4.571347553059e-03
4.273359722270e-03
4.631742273253e-03
7.940962450376e-03
1.190414699647e-02
1.231255341911e-02
3.493554500863e-03
1.044226163837e-02
1.050684800398e-02
4.103399867657e-03
9.672012886565e-03
1.201581757921e-02
1.176795638101e-02
1.190243079295e-02
1.254831953079e-02
1.194120189511e-02
8.099094385142e-03
3.585096312025e-03
3.823353610256e-03
3.516865966762e-03
1.135197444219e-02
6.619446313308e-03
5.862872848540e-03
5.646490831574e-03
5.132390311088e-03
6.151879042541e-03
1.142446237497e-02
1.113835052794e-02
2.907707351775e-03
2.675975837275e-03
2.216786601896e-03
2.402226625559e-03
2.940072685553e-03
2.640903298513e-03
2.162367041447e-03
2.924988321014e-03
1.013676411271e-02
5.900346267425e-03
2.614594790571e-03
2.323302144722e-03
2.035785849498e-03
2.678342744086e-03
2.686361248243e-03
2.885701627493e-03
2.637077833669e-03
6.702519048070e-03
5.819910388657e-03
2.378108009209e-03
2.514099879627e-03
1.115367909486e-02
1.147756623174e-02
1.150669786744e-02
1.175143773936e-02
1.148051995133e-02
3.276927659327e-03
3.474289130756e-03
3.377384297517e-03
3.663714923611e-03
3.539792581046e-03
3.275314426244e-03
3.839173806928e-03
3.675345370319e-03
1.106498449043e-02
2.925703467006e-03
3.373986662736e-03
2.521747298874e-03
3.416656639729e-03
3.977517221373e-03
3.788678079814e-03
4.295053306903e-03
4.014518469240e-03
1.165031319279e-03
1.819797860053e-03
6.685908288278e-04
1.313960751165e-03
2.225021616133e-03
1.889884034852e-03
5.958096920000e-03
2.881740171341e-03
2.738950204851e-03
2.468723134639e-03
2.602865513373e-03
2.986631543139e-03
2.314013663789e-03
2.205644367425e-03
4.823867588445e-04
3.473976882479e-04
3.522494925260e-04
5.616577625547e-04
5.669235665479e-04
3.450852958585e-04
3.433316212170e-04
4.245710426167e-04
3.549761265796e-04
6.553447609953e-04
3.946367141292e-04
1.216898351169e-02
1.229281908545e-02
5.741825082663e-03
1.102663087297e-02
2.736660993928e-04
1.281201370962e-02
1.281730059116e-02
1.282540045157e-02
5.433448368335e-03
5.599338586417e-03
1.281318948585e-02
2.197099094849e-03
1.205255350615e-02
1.258542127042e-02
4.271012337168e-03
2.504268675936e-03
4.298038719586e-03
3.429103636551e-03
4.932836583306e-03
3.863671093752e-03
4.426690614083e-03
5.414678871137e-03
1.153767834150e-03
1.187729061823e-02
1.168413283753e-02
1.232573805383e-02
2.114181915093e-03
3.113103597557e-03
1.508105810049e-03
9.460134083941e-03
9.024412381242e-03
2.088260349497e-03
2.510231308731e-03
2.309052916420e-03
2.720936754150e-03
5.148800255011e-03
2.464213678745e-03
3.645099731285e-03
1.241141244720e-02
2.518134607744e-04
3.784540654582e-03
2.873069468729e-03
1.206382956427e-02
4.394762368495e-03
3.467835090220e-03
1.246264892796e-02
1.261034896800e-02
1.181036602047e-02
1.130061035328e-03
1.157488015022e-02
4.821638259748e-03
1.228397386266e-02
1.936188125597e-03
2.042579537925e-03
6.837875872223e-03
1.087398467611e-02
1.265905143776e-02
4.469377885875e-03
4.433046935460e-03
2.807368680706e-03
2.038711971797e-03
4.410235188858e-03
2.951012455250e-03
1.261627369341e-02
8.371505591983e-03
2.108344138490e-03
1.252071238587e-02
1.818590286970e-03
5.015825231804e-03
8.416589854551e-03
7.862404592322e-03
1.003627309752e-02
6.142658451692e-03
4.164090137668e-03
4.100228616875e-03
4.459023329668e-03
5.011388521126e-03
1.206032668009e-02
8.101286316093e-03
1.272934656572e-02
6.693234728939e-03
4.262834287844e-03
1.262338496244e-02
2.666972007803e-03
1.338129540869e-03
4.458106694576e-03
2.718361857844e-03
3.864504550276e-03
2.880194326561e-03
1.235520715453e-02
4.553623738383e-03
3.407875434584e-03
4.589461312062e-03
1.070127393613e-02
4.831278149965e-03
1.995081635251e-03
4.951783399353e-03
3.396635030068e-03
9.016270190336e-03
8.640941860006e-03
5.097484212177e-03
3.515361897960e-03
3.722777557948e-03
1.085943541008e-02
5.573658050012e-03
4.108844849997e-03
6.401662403526e-03
1.749654856750e-03
1.031209281705e-02
3.133550191952e-03
8.496039937135e-03
1.262804918517e-02
4.540858056631e-03
1.165914439146e-02
3.110644286497e-03
4.831873005557e-03
5.922860736296e-04
9.814783520663e-03
3.336267782576e-03
2.413297468441e-03
1.866545623651e-03
6.898866977597e-03
3.557170642510e-03
2.042437690449e-03
3.769227890708e-03
9.211755816713e-03
1.147819939581e-02
3.971305632829e-03
8.727872381547e-03
7.686423259388e-04
6.041277052371e-03
5.216841352266e-03
2.319956084649e-03
2.066272646475e-03
1.158239450721e-02
8.020415185007e-03
2.435845656105e-03
8.992991698821e-03
5.733119397215e-03
4.119560333989e-03
2.891023530928e-03
7.465724725456e-03
2.243376318059e-03
2.119409077279e-03
1.825661039751e-03
9.590622132221e-03
8.907782561953e-04
1.096691132000e-02
1.995131331343e-03
1.977014866746e-03
5.941531164714e-03
1.168384932959e-02
1.866600253516e-03
1.689152457626e-03
2.095920377978e-03
4.442376441880e-03
2.044892965109e-03
2.231156160865e-03
1.272412002629e-02
2.218237450221e-03
1.283770742247e-02
6.021905224437e-03
1.109418860365e-02
7.155964891945e-03
2.897766552955e-03
6.354152632737e-03
2.410844538795e-03
1.020186471898e-02
1.111499662224e-02
2.372952398045e-03
1.135577934701e-02
8.880935077431e-03
1.206490885748e-02
4.958362787098e-03
5.484481706905e-03
1.255104084659e-02
1.088040673473e-02
9.882167464802e-04
4.362155339814e-03
6.333475885856e-03
5.613784260927e-03
5.019756088012e-03
2.128750261797e-03
2.758349334365e-03
5.677523398001e-03
6.078948728959e-03
1.131122956149e-02
6.578576718595e-03
5.004754153228e-03
1.268153711055e-02
7.706279864315e-03
5.833255872834e-03
7.077023356638e-03
4.651182237116e-03
1.170795279406e-02
9.874389371267e-03
1.226004706154e-02
5.925106279131e-03
1.135174990533e-02
1.272720773925e-02
4.462540137199e-03
1.272047267229e-02
1.039485046063e-02
1.153347369826e-02
1.165756920546e-02
5.754221770936e-03
1.191639940851e-02
4.616781840898e-03
1.206803800548e-02
2.588481019337e-03
4.069899360304e-03
5.301012080554e-03
1.059585943389e-02
5.672338835638e-03
5.390882327471e-04
5.085285331700e-04
5.358495277837e-03
1.075158618048e-02
4.077347098978e-03
1.278647106888e-02
4.545087540648e-03
1.088653594439e-02
3.657612754293e-04
5.968532777191e-03
1.275561151984e-02
2.851367187576e-03
1.122228218976e-02
1.920719680811e-03
8.444118745179e-03
1.685862094837e-03
1.276218375409e-02
5.492441446792e-03
1.248464254325e-02
7.463529130858e-03
3.823646149944e-03
8.255608256278e-03
5.083226590485e-03
1.085455498919e-02
1.220656373270e-02
2.360649793606e-03
9.982516632116e-04
1.285026721057e-02
5.958137339303e-04
1.080133068011e-02
6.112325842813e-03
8.341352090444e-04
1.132743198170e-02
1.109038657083e-02
3.487139537017e-03
1.244624663073e-02
3.311531754656e-03
2.935902660563e-03
1.183180189375e-02
7.438943021979e-03
1.265351480236e-02
1.167936937022e-02
4.502585891983e-03
1.077831937244e-02
3.047876275424e-03
9.390525573635e-03
5.495822488933e-03
4.473715040453e-03
3.745905944859e-03
3.688571286506e-04
5.537432395476e-03
3.188286746211e-03
1.044114307159e-02
1.008099148394e-02
1.068618487937e-02
1.038518110728e-02


CELL_DATA 1996

SCALARS element_number int
LOOKUP_TABLE default
407
408
409
410
411
412
413
414
415
416
417
418
419
420
421
422
423
424
425
426
427
428
429
430
431
432
433
434
435
436
437
438
439
440
441
442
443
444
445
446
447
448
449
450
451
452
453
454
455
456
457
458
459
460
461
462
463
464
465
466
467
468
469
470
471
472
473
474
475
476
477
478
479
480
481
482
483
484
485
486
487
488
489
490
491
492
493
494
495
496
497
498
499
500
501
502
503
504
505
506
507
508
509
510
511
512
513
514
515
516
517
518
519
520
521
522
523
524
525
526
527
528
529
530
531
532
533
534
535
536
537
538
539
540
541
542
543
544
545
546
547
548
549
550
551
552
553
554
555
556
557
558
559
560
561
562
563
564
565
566
567
568
569
570
571
572
573
574
575
576
577
578
579
580
581
582
583
584
585
586
587
588
589
590
591
592
593
594
595
596
597
598
599
600
601
602
603
604
605
606
607
608
609
610
611
612
613
614
615
616
617
618
619
620
621
622
623
624
625
626
627
628
629
630
631
632
633
634
635
636
637
638
639
640
641
642
643
644
645
646
647
648
649
650
651
652
653
654
655
656
657
658
659
660
661
662
663
664
665
666
667
668
669
670
671
672
673
674
675
676
677
678
679
680
681
682
683
684
685
686
687
688
689
690
691
692
693
694
695
696
697
698
699
700
701
702
703
704
705
706
707
708
709
710
711
712
713
714
715
716
717
718
719
720
721
722
723
724
725
726
727
728
729
730
731
732
733
734
735
736
737
738
739
740
741
742
743
744
745
746
747
748
749
750
751
752
753
754
755
756
757
758
759
760
761
762
763
764
765
766
767
768
769
770
771
772
773
774
775
776
777
778
779
780
781
782
783
784
785
786
787
788
789
790
791
792
793
794
795
796
797
798
799
800
801
802
803
804
805
806
807
808
809
810
811
812
813
814
815
816
817
818
819
820
821
822
823
824
825
826
827
828
829
830
831
832
833
834
835
836
837
838
839
840
841
842
843
844
845
846
847
848
849
850
851
852
853
854
855
856
857
858
859
860
861
862
863
864
865
866
867
868
869
870
871
872
873
874
875
876
877
878
879
880
881
882
883
884
885
886
887
888
889
890
891
892
893
894
895
896
897
898
899
900
901
902
903
904
905
906
907
908
909
910
911
912
913
914
915
916
917
918
919
920
921
922
923
924
925
926
927
928
929
930
931
932
933
934
935
936
937
938
939
940
941
942
943
944
945
946
947
948
949
950
951
952
953
954
955
956
957
958
959
960
961
962
963
964
965
966
967
968
969
970
971
972
973
974
975
976
977
978
979
980
981
982
983
984
985
986
987
988
989
990
991
992
993
994
995
996
997
998
999
1000
1001
1002
1003
1004
1005
1006
1007
1008
1009
1010
1011
1012
1013
1014
1015
1016
1017
1018
1019
1020
1021
1022
1023
1024
1025
1026
1027
1028
1029
1030
1031
1032
1033
1034
1035
1036
1037
1038
1039
1040
1041
1042
1043
1044
1045
1046
1047
1048
1049
1050
1051
1052
1053
1054
1055
1056
1057
1058
1059
1060
1061
1062
1063
1064
1065
1066
1067
1068
1069
1070
1071
1072
1073
1074
1075
1076
1077
1078
1079
1080
1081
1082
1083
1084
1085
1086
1087
1088
1089
1090
1091
1092
1093
1094
1095
1096
1097
1098
1099
1100
1101
1102
1103
1104
1105
1106
1107
1108
1109
1110
1111
1112
1113
1114
1115
1116
1117
1118
1119
1120
1121
1122
1123
1124
1125
1126
1127
1128
1129
1130
1131
1132
1133
1134
1135
1136
1137
1138
1139
1140
1141
1142
1143
1144
1145
1146
1147
1148
1149
1150
1151
1152
1153
1154
1155
1156
1157
1158
1159
1160
1161
1162
1163
1164
1165
1166
1167
1168
1169
1170
1171
1172
1173
1174
1175
1176
1177
1178
1179
1180
1181
1182
1183
1184
1185
1186
1187
1188
1189
1190
1191
1192
1193
1194
1195
1196
1197
1198
1199
1200
1201
1202
1203
1204
1205
1206
1207
1208
1209
1210
1211
1212
1213
1214
1215
1216
1217
1218
1219
1220
1221
1222
1223
1224
1225
1226
1227
1228
1229
1230
1231
1232
1233
1234
1235
1236
1237
1238
1239
1240
1241
1242
1243
1244
1245
1246
1247
1248
1249
1250
1251
1252
1253
1254
1255
1256
1257
1258
1259
1260
1261
1262
1263
1264
1265
1266
1267
1268
1269
1270
1271
1272
1273
1274
1275
1276
1277
1278
1279
1280
1281
1282
1283
1284
1285
1286
1287
1288
1289
1290
1291
1292
1293
1294
1295
1296
1297
1298
1299
1300
1301
1302
1303
1304
1305
1306
1307
1308
1309
1310
1311
1312
1313
1314
1315
1316
1317
1318
1319
1320
1321
1322
1323
1324
1325
1326
1327
1328
1329
1330
1331
1332
1333
1334
1335
1336
1337
1338
1339
1340
1341
1342
1343
1344
1345
1346
1347
1348
1349
1350
1351
1352
1353
1354
1355
1356
1357
1358
1359
1360
1361
1362
1363
1364
1365
1366
1367
1368
1369
1370
1371
1372
1373
1374
1375
1376
1377
1378
1379
1380
1381
1382
1383
1384
1385
1386
1387
1388
1389
1390
1391
1392
1393
1394
1395
1396
1397
1398
1399
1400
1401
1402
1403
1404
1405
1406
1407
1408
1409
1410
1411
1412
1413
1414
1415
1416
1417
1418
1419
1420
1421
1422
1423
1424
1425
1426
1427
1428
1429
1430
1431
1432
1433
1434
1435
1436
1437
1438
1439
1440
1441
1442
1443
1444
1445
1446
1447
1448
1449
1450
1451
1452
1453
1454
1455
1456
1457
1458
1459
1460
1461
1462
1463
1464
1465
1466
1467
1468
1469
1470
1471
1472
1473
1474
1475
1476
1477
1478
1479
1480
1481
1482
1483
1484
1485
1486
1487
1488
1489
1490
1491
1492
1493
1494
1495
1496
1497
1498
1499
1500
1501
1502
1503
1504
1505
1506
1507
1508
1509
1510
1511
1512
1513
1514
1515
1516
1517
1518
1519
1520
1521
1522
1523
1524
1525
1526
1527
1528
1529
1530
1531
1532
1533
1534
1535
1536
1537
1538
1539
1540
1541
1542
1543
1544
1545
1546
1547
1548
1549
1550
1551
1552
1553
1554
1555
1556
1557
1558
1559
1560
1561
1562
1563
1564
1565
1566
1567
1568
1569
1570
1571
1572
1573
1574
1575
1576
1577
1578
1579
1580
1581
1582
1583
1584
1585
1586
1587
1588
1589
1590
1591
1592
1593
1594
1595
1596
1597
1598
1599
1600
1601
1602
1603
1604
1605
1606
1607
1608
1609
1610
1611
1612
1613
1614
1615
1616
1617
1618
1619
1620
1621
1622
1623
1624
1625
1626
1627
1628
1629
1630
1631
1632
1633
1634
1635
1636
1637
1638
1639
1640
1641
1642
1643
1644
1645
1646
1647
1648
1649
1650
1651
1652
1653
1654
1655
1656
1657
1658
1659
1660
1661
1662
1663
1664
1665
1666
1667
1668
1669
1670
1671
1672
1673
1674
1675
1676
1677
1678
1679
1680
1681
1682
1683
1684
1685
1686
1687
1688
1689
1690
1691
1692
1693
1694
1695
1696
1697
1698
1699
1700
1701
1702
1703
1704
1705
1706
1707
1708
1709
1710
1711
1712
1713
1714
1715
1716
1717
1718
1719
1720
1721
1722
1723
1724
1725
1726
1727
1728
1729
1730
1731
1732
1733
1734
1735
1736
1737
1738
1739
1740
1741
1742
1743
1744
1745
1746
1747
1748
1749
1750
1751
1752
1753
1754
1755
1756
1757
1758
1759
1760
1761
1762
1763
1764
1765
1766
1767
1768
1769
1770
1771
1772
1773
1774
1775
1776
1777
1778
1779
1780
1781
1782
1783
1784
1785
1786
1787
1788
1789
1790
1791
1792
1793
1794
1795
1796
1797
1798
1799
1800
1801
1802
1803
1804
1805
1806
1807
1808
1809
1810
1811
1812
1813
1814
1815
1816
1817
1818
1819
1820
1821
1822
1823
1824
1825
1826
1827
1828
1829
1830
1831
1832
1833
1834
1835
1836
1837
1838
1839
1840
1841
1842
1843
1844
1845
1846
1847
1848
1849
1850
1851
1852
1853
1854
1855
1856
1857
1858
1859
1860
1861
1862
1863
1864
1865
1866
1867
1868
1869
1870
1871
1872
1873
1874
1875
1876
1877
1878
1879
1880
1881
1882
1883
1884
1885
1886
1887
1888
1889
1890
1891
1892
1893
1894
1895
1896
1897
1898
1899
1900
1901
1902
1903
1904
1905
1906
1907
1908
1909
1910
1911
1912
1913
1914
1915
1916
1917
1918
1919
1920
1921
1922
1923
1924
1925
1926
1927
1928
1929
1930
1931
1932
1933
1934
1935
1936
1937
1938
1939
1940
1941
1942
1943
1944
1945
1946
1947
1948
1949
1950
1951
1952
1953
1954
1955
1956
1957
1958
1959
1960
1961
1962
1963
1964
1965
1966
1967
1968
1969
1970
1971
1972
1973
1974
1975
1976
1977
1978
1979
1980
1981
1982
1983
1984
1985
1986
1987
1988
1989
1990
1991
1992
1993
1994
1995
1996
1997
1998
1999
2000
2001
2002
2003
2004
2005
2006
2007
2008
2009
2010
2011
2012
2013
2014
2015
2016
2017
2018
2019
2020
2021
2022
2023
2024
2025
2026
2027
2028
2029
2030
2031
2032
2033
2034
2035
2036
2037
2038
2039
2040
2041
2042
2043
2044
2045
2046
2047
2048
2049
2050
2051
2052
2053
2054
2055
2056
2057
2058
2059
2060
2061
2062
2063
2064
2065
2066
2067
2068
2069
2070
2071
2072
2073
2074
2075
2076
2077
2078
2079
2080
2081
2082
2083
2084
2085
2086
2087
2088
2089
2090
2091
2092
2093
2094
2095
2096
2097
2098
2099
2100
2101
2102
2103
2104
2105
2106
2107
2108
2109
2110
2111
2112
2113
2114
2115
2116
2117
2118
2119
2120
2121
2122
2123
2124
2125
2126
2127
2128
2129
2130
2131
2132
2133
2134
2135
2136
2137
2138
2139
2140
2141
2142
2143
2144
2145
2146
2147
2148
2149
2150
2151
2152
2153
2154
2155
2156
2157
2158
2159
2160
2161
2162
2163
2164
2165
2166
2167
2168
2169
2170
2171
2172
2173
2174
2175
2176
2177
2178
2179
2180
2181
2182
2183
2184
2185
2186
2187
2188
2189
2190
2191
2192
2193
2194
2195
2196
2197
2198
2199
2200
2201
2202
2203
2204
2205
2206
2207
2208
2209
2210
2211
2212
2213
2214
2215
2216
2217
2218
2219
2220
2221
2222
2223
2224
2225
2226
2227
2228
2229
2230
2231
2232
2233
2234
2235
2236
2237
2238
2239
2240
2241
2242
2243
2244
2245
2246
2247
2248
2249
2250
2251
2252
2253
2254
2255
2256
2257
2258
2259
2260
2261
2262
2263
2264
2265
2266
2267
2268
2269
2270
2271
2272
2273
2274
2275
2276
2277
2278
2279
2280
2281
2282
2283
2284
2285
2286
2287
2288
2289
2290
2291
2292
2293
2294
2295
2296
2297
2298
2299
2300
2301
2302
2303
2304
2305
2306
2307
2308
2309
2310
2311
2312
2313
2314
2315
2316
2317
2318
2319
2320
2321
2322
2323
2324
2325
2754
2755
2756
2757
2758
2759
2760
2761
2762
2763
2764
2765
2766
2767
2768
2769
2770
2771
2772
2773
2774
2775
2776
2777
2778
2779
2780
2781
2782
2783
2784
2785
2786
2787
2788
2789
2790
2791
2792
2793
2794
2795
2796
2797
2798
2799
2800
2801
2802
2803
2804
2805
2806
2807
2808
2809
2810
2811
2812
2813
2814
2815
2816
2817
2818
2819
2820
2821
2822
2823
2824
2825
2826
2827
2828
2829
2830

SCALARS element_group int
LOOKUP_TABLE default
0
0
0
0
0
0
0
0
0
0
0
0
0
0
0
0
0
0
0
0
0
0
0
0
0
0
0
0
0
0
0
0
0
0
0
0
0
0
0
0
0
0
0
0
0
0
0
0
0
0
0
0
0
0
0
0
0
0
0
0
0
0
0
0
0
0
0
0
0
0
0
0
0
0
0
0
0
0
0
0
0
0
0
0
0
0
0
0
0
0
0
0
0
0
0
0
0
0
0
0
0
0
0
0
0
0
0
0
0
0
0
0
0
0
0
0
0
0
0
0
0
0
0
0
0
0
0
0
0
0
0
0
0
0
0
0
0
0
0
0
0
0
0
0
0
0
0
0
0
0
0
0
0
0
0
0
0
0
0
0
0
0
0
0
0
0
0
0
0
0
0
0
0
0
0
0
0
0
0
0
0
0
0
0
0
0
0
0
0
0
0
0
0
0
0
0
0
0
0
0
0
0
0
0
0
0
0
0
0
0
0
0
0
0
0
0
0
0
0
0
0
0
0
0
0
0
0
0
0
0
0
0
0
0
0
0
0
0
0
0
0
0
0
0
0
0
0
0
0
0
0
0
0
0
0
0
0
0
0
0
0
0
0
0
0
0
0
0
0
0
0
0
0
0
0
0
0
0
0
0
0
0
0
0
0
0
0
0
0
0
0
0
0
0
0
0
0
0
0
0
0
0
0
0
0
0
0
0
0
0
0
0
0
0
0
0
0
0
0
0
0
0
0
0
0
0
0
0
0
0
0
0
0
0
0
0
0
0
0
0
0
0
0
0
0
0
0
0
0
0
0
0
0
0
0
0
0
0
0
0
0
0
0
0
0
0
0
0
0
0
0
0
0
0
0
0
0
0
0
0
0
0
0
0
0
0
0
0
0
0
0
0
0
0
0
0
0
0
0
0
0
0
0
0
0
0
0
0
0
0
0
0
0
0
0
0
0
0
0
0
0
0
0
0
0
0
0
0
0
0
0
0
0
0
0
0
0
0
0
0
0
0
0
0
0
0
0
0
0
0
0
0
0
0
0
0
0
0
0
0
0
0
0
0
0
0
0
0
0
0
0
0
0
0
0
0
0
0
0
0
0
0
0
0
0
0
0
0
0
0
0
0
0
0
0
0
0
0
0
0
0
0
0
0
0
0
0
0
0
0
0
0
0
0
0
0
0
0
0
0
0
0
0
0
0
0
0
0
0
0
0
0
0
0
0
0
0
0
0
0
0
0
0
0
0
0
0
0
0
0
0
0
0
0
0
0
0
0
0
0
0
0
0
0
0
0
0
0
0
0
0
0
0
0
0
0
0
0
0
0
0
0
0
0
0
0
0
0
0
0
0
0
0
0
0
0
0
0
0
0
0
0
0
0
0
0
0
0
0
0
0
0
0
0
0
0
0
0
0
0
0
0
0
0
0
0
0
0
0
0
0
0
0
0
0
0
0
0
0
0
0
0
0
0
0
0
0
0
0
0
0
0
0
0
0
0
0
0
0
0
0
0
0
0
0
0
0
0
0
0
0
0
0
0
0
0
0
0
0
0
0
0
0
0
0
0
0
0
0
0
0
0
0
0
0
0
0
0
0
0
0
0
0
0
0
0
0
0
0
0
0
0
0
0
0
0
0
0
0
0
0
0
0
0
0
0
0
0
0
0
0
0
0
0
0
0
0
0
0
0
0
0
0
0
0
0
0
0
0
0
0
0
0
0
0
0
0
0
0
0
0
0
0
0
0
0
0
0
0
0
0
0
0
0
0
0
0
0
0
0
0
0
0
0
0
0
0
0
0
0
0
0
0
0
0
0
0
0
0
0
0
0
0
0
0
0
0
0
0
0
0
0
0
0
0
0
0
0
0
0
0
0
0
0
0
0
0
0
0
0
0
0
0
0
0
0
0
0
0
0
0
0
0
0
0
0
0
0
0
0
0
0
0
0
0
0
0
0
0
0
0
0
0
0
0
0
0
0
0
0
0
0
0
0
0
0
0
0
0
0
0
0
0
0
0
0
0
0
0
0
0
0
0
0
0
0
0
0
0
0
0
0
0
0
0
0
0
0
0
0
0
0
0
0
0
0
0
0
0
0
0
0
0
0
0
0
0
0
0
0
0
0
0
0
0
0
0
0
0
0
0
0
0
0
0
0
0
0
0
0
0
0
0
0
0
0
0
0
0
0
0
0
0
0
0
0
0
0
0
0
0
0
0
0
0
0
0
0
0
0
0
0
0
0
0
0
0
0
0
0
0
0
0
0
0
0
0
0
0
0
0
0
0
0
0
0
0
0
0
0
0
0
0
0
0
0
0
0
0
0
0
0
0
0
0
0
0
0
0
0
0
0
0
0
0
0
0
0
0
0
0
0
0
0
0
0
0
0
0
0
0
0
0
0
0
0
0
0
0
0
0
0
0
0
0
0
0
0
0
0
0
0
0
0
0
0
0
0
0
0
0
0
0
0
0
0
0
0
0
0
0
0
0
0
0
0
0
0
0
0
0
0
0
0
0
0
0
0
0
0
0
0
0
0
0
0
0
0
0
0
0
0
0
0
0
0
0
0
0
0
0
0
0
0
0
0
0
0
0
0
0
0
0
0
0
0
0
0
0
0
0
0
0
0
0
0
0
0
0
0
0
0
0
0
0
0
0
0
0
0
0
0
0
0
0
0
0
0
0
0
0
0
0
0
0
0
0
0
0
0
0
0
0
0
0
0
0
0
0
0
0
0
0
0
0
0
0
0
0
0
0
0
0
0
0
0
0
0
0
0
0
0
0
0
0
0
0
0
0
0
0
0
0
0
0
0
0
0
0
0
0
0
0
0
0
0
0
0
0
0
0
0
0
0
0
0
0
0
0
0
0
0
0
0
0
0
0
0
0
0
0
0
0
0
0
0
0
0
0
0
0
0
0
0
0
0
0
0
0
0
0
0
0
0
0
0
0
0
0
0
0
0
0
0
0
0
0
0
0
0
0
0
0
0
0
0
0
0
0
0
0
0
0
0
0
0
0
0
0
0
0
0
0
0
0
0
0
0
0
0
0
0
0
0
0
0
0
0
0
0
0
0
0
0
0
0
0
0
0
0
0
0
0
0
0
0
0
0
0
0
0
0
0
0
0
0
0
0
0
0
0
0
0
0
0
0
0
0
0
0
0
0
0
0
0
0
0
0
0
0
0
0
0
0
0
0
0
0
0
0
0
0
0
0
0
0
0
0
0
0
0
0
0
0
0
0
0
0
0
0
0
0
0
0
0
0
0
0
0
0
0
0
0
0
0
0
0
0
0
0
0
0
0
0
0
0
0
0
0
0
0
0
0
0
0
0
0
0
0
0
0
0
0
0
0
0
0
0
0
0
0
0
0
0
0
0
0
0
0
0
0
0
0
0
0
0
0
0
0
0
0
0
0
0
0
0
0
0
0
0
0
0
0
0
0
0
0
0
0
0
0
0
0
0
0
0
0
0
0
0
0
0
0
0
0
0
0
0
0
0
0
0
0
0
0
0
0
0
0
0
0
0
0
0
0
0
0
0
0
0
0
0
0
0
0
0
0
0
0
0
0
0
0
0
0
0
0
0
0
0
0
0
0
0
0
0
0
0
0
0
0
0
0
0
0
0
0
0
0
0
0
0
0
0
0
0
0
0
0
0
0
0
0
0
0
0
0
0
0
0
0
0
0
0
0
0
0
0
0
0
0
0
0
0
0
0
0
0
0
0
0
0
0
0
0
0
0
0
0
0
0
0
0
0
0
0
0
0
0
0
0
0
0
0
0
0
0
0
0
0
0
0
0
0
0
0
0
0
0
0
0
0
0
0
0
0
0
0
0
0
0
0
0
0
0
0
0
0
0
0
0
0
0
0
0
0
0
0
0
0
0
0
0
0
0
0
0
0
0
0
0
0
0
0
0
0
0
0
0
0
0
0
0
0
0
0
0
0
0
0
0
0
0
0
0
0
0
0
0
0
0
0
0
0
0
0
0
0
0
0
0
0
0
0
0
0
0
0
0
0
0
0
0
0
0
0
0
0
0
0
0
0
0
0
0
0
0
0
0
0
0
0
0
0
0
0
0
0
0
0
0
0
0
0
0
0
0
0
0
0
0
0
0
0
0
0
0
0
0
0
0
0
0
0
0
0
0
0
0
0
0
0
0
0
0
0
0
0
0
0
0
0
0
0
0
0
0
0
0
0
0
0
0
0
0
0
0
0
0
0
0
0
0
0
0
0
0
0
0
0
0
0
0
0
0
0
0
0
0
0
0
0
0
0
0
0
0
0
0
0
0
0
0
0
0
0
0
0
0
0
0
0
0
0
0
0
0
0
0
0
0
0
0
0
0
0
0
0
0
0
0
0
0
0
0
0
0
0
0
0
0
0
0
0
0
0
0
0
0
0
0
0
0
0
0
0
0
0
0
0
0
0
0
0
0
0
0
0
0
0
0
0
0
0
0
0
0
0
0
0
0
0
0
0
0
0
0
0
0
0
0
0
0
0
0
0
0
0
0
0
0
0
0
0
0
0


VECTORS element_materi_velocity float
5.236205329900e-04 1.319279659134e-03 0.0 
5.817487369565e-04 1.129536149210e-03 0.0 
8.350079135012e-04 6.432059888151e-04 0.0 
1.230935783765e-04 1.488652501988e-03 0.0 
9.966085379670e-04 8.392079402427e-03 0.0 
2.121745179011e-04 -9.365701122114e-05 0.0 
7.603979469280e-04 8.346736892733e-03 0.0 
4.784542174329e-04 9.437127129661e-04 0.0 
8.372058533761e-04 8.392294673766e-03 0.0 
1.818674407852e-04 1.521896654946e-03 0.0 
4.521767324647e-05 -8.334935719636e-05 0.0 
3.580057727031e-04 9.377043527935e-04 0.0 
1.868113248088e-05 -2.297324850777e-06 0.0 
1.599394461660e-03 7.199699908417e-03 0.0 
1.532340700689e-05 -4.867162786422e-07 0.0 
1.003077620314e-04 1.049915126530e-03 0.0 
1.248949705759e-03 8.621302158939e-03 0.0 
2.261973015247e-04 -1.310469645805e-04 0.0 
4.573062188013e-05 -2.565553758542e-04 0.0 
3.481035559421e-05 -2.500788161560e-04 0.0 
2.173590045750e-04 1.557912851716e-03 0.0 
8.578849546530e-04 1.960302498285e-03 0.0 
1.064076920483e-03 2.051195989184e-03 0.0 
3.168494795663e-04 1.628509929022e-05 0.0 
1.971179411699e-03 5.888915894430e-03 0.0 
4.940078915370e-05 -7.239221616520e-05 0.0 
1.777308333113e-03 8.407849224139e-03 0.0 
6.520359504614e-04 1.966845460352e-04 0.0 
2.089553895590e-03 5.737115244308e-03 0.0 
2.565219163033e-04 1.664325291363e-05 0.0 
2.891344047264e-04 -3.008124953777e-04 0.0 
2.001060078578e-04 -3.335204785177e-04 0.0 
9.818337454126e-04 8.193556049124e-04 0.0 
1.351267051556e-05 -2.694308316568e-05 0.0 
1.099888576630e-04 1.071136633486e-06 0.0 
2.936094905704e-05 4.267990428993e-07 0.0 
2.670987435427e-05 2.895274753302e-07 0.0 
3.695650203115e-04 5.857734645054e-05 0.0 
6.211490966190e-04 9.313501557049e-03 0.0 
5.677133213085e-04 9.327104958497e-03 0.0 
1.681707178457e-03 3.374312672157e-03 0.0 
1.114716547027e-04 5.359099111941e-06 0.0 
2.651832302736e-04 5.985939748082e-04 0.0 
1.957885112114e-03 7.872286884483e-03 0.0 
6.434314687181e-05 2.114573556630e-03 0.0 
2.873932767554e-04 4.883005414078e-04 0.0 
2.625004628849e-04 -2.995708514191e-04 0.0 
7.362894308428e-05 1.793917250811e-03 0.0 
2.258213961681e-04 -3.096179866778e-04 0.0 
1.518922452138e-03 7.704149708414e-03 0.0 
1.395588841650e-03 2.656131835012e-03 0.0 
4.346123261936e-05 -2.419588510477e-04 0.0 
3.649950915898e-04 -2.926140725008e-04 0.0 
1.489703439655e-03 3.202148870306e-03 0.0 
7.085257171011e-04 8.342785186449e-04 0.0 
7.111759095998e-05 -2.189764242973e-04 0.0 
3.410658342565e-05 -2.352933826854e-04 0.0 
2.741816802495e-05 -2.756014373559e-05 0.0 
1.050413717447e-04 -2.805417853635e-04 0.0 
1.211133591533e-04 1.057642330802e-03 0.0 
1.917179784444e-04 -2.662105536160e-04 0.0 
7.953884730253e-04 1.776785331807e-04 0.0 
1.117668867023e-03 7.672709035638e-04 0.0 
3.376294838899e-04 -2.980946340716e-04 0.0 
3.061871267057e-05 -2.223962219949e-06 0.0 
1.163422747440e-03 2.512785182754e-03 0.0 
1.951124014131e-04 -2.510752785456e-04 0.0 
9.874602293315e-04 7.245851753378e-04 0.0 
2.640778579556e-04 -3.295787317610e-04 0.0 
7.208491546494e-04 3.320519367174e-04 0.0 
7.371829739252e-05 -6.223722772604e-05 0.0 
1.282097149721e-04 2.812033631972e-04 0.0 
8.525962839249e-04 2.551072717204e-04 0.0 
8.451118373994e-06 -2.828517217594e-04 0.0 
6.268293443073e-05 -2.106378298607e-04 0.0 
4.409144258487e-04 1.332539010273e-03 0.0 
8.661564023635e-04 9.876576818951e-04 0.0 
2.118111827831e-04 2.383527315776e-04 0.0 
1.160888795214e-04 -2.800343069685e-04 0.0 
1.937359806504e-04 3.152519629037e-04 0.0 
2.746852838286e-04 -3.300330509114e-04 0.0 
1.202065608373e-03 8.384723797794e-03 0.0 
8.061288606449e-04 1.607340047884e-03 0.0 
6.188760679440e-04 1.560375022648e-03 0.0 
9.675746874901e-04 7.822940875666e-03 0.0 
8.876794339657e-04 7.802533664130e-03 0.0 
4.276233310713e-05 -5.249242876504e-05 0.0 
7.338463200995e-06 -3.394442450004e-05 0.0 
2.167637505424e-03 1.867317578251e-03 0.0 
1.072247543986e-03 8.339219582059e-03 0.0 
2.082784519800e-04 -3.345660987213e-04 0.0 
2.083846682469e-03 7.227874713224e-03 0.0 
1.862845421009e-04 4.247094357391e-03 0.0 
2.238780284799e-04 4.594591399759e-03 0.0 
2.555157540950e-04 5.161575374118e-04 0.0 
2.705655721173e-04 4.795822271750e-05 0.0 
1.341223833692e-03 8.340457822207e-03 0.0 
1.271020849152e-04 4.179444092422e-06 0.0 
1.294760037686e-04 6.759708905393e-03 0.0 
9.993086801523e-04 8.607327156974e-04 0.0 
9.459070112148e-04 8.889735961233e-03 0.0 
1.973059311345e-05 -5.050883165723e-07 0.0 
1.187047505906e-03 1.598587860478e-04 0.0 
7.568073690147e-04 1.565477336443e-04 0.0 
7.593505680116e-04 2.939076436320e-04 0.0 
2.489396397121e-04 -3.109824150060e-04 0.0 
2.210829407073e-05 -9.579333247234e-06 0.0 
1.914144604554e-04 3.655929296175e-03 0.0 
2.098376803349e-04 -2.970106072466e-04 0.0 
3.704879235910e-05 -1.932990371020e-07 0.0 
2.315445118408e-03 2.016947939393e-03 0.0 
1.321075401339e-05 -2.877601116665e-04 0.0 
1.207420709063e-03 2.285815546625e-04 0.0 
2.328541956280e-03 6.450623758132e-03 0.0 
1.052754450389e-04 -1.868504115100e-04 0.0 
8.360096038291e-04 7.848361934434e-04 0.0 
1.074875721102e-03 6.175050715018e-04 0.0 
7.719486869910e-05 2.352573863983e-06 0.0 
1.626370431242e-04 7.177541534423e-03 0.0 
9.250952524003e-04 5.562399098985e-04 0.0 
2.313242516700e-04 -3.227308387765e-04 0.0 
2.122541076994e-03 7.278804867020e-03 0.0 
1.521824733825e-04 3.349537187480e-03 0.0 
9.019257828142e-04 4.374526120153e-04 0.0 
1.655391690922e-04 6.522151063223e-05 0.0 
2.124793201851e-03 5.167956635358e-03 0.0 
9.237764310594e-05 -1.910569035764e-04 0.0 
1.922823763361e-03 5.066157666072e-03 0.0 
3.390617655209e-04 9.366772025865e-04 0.0 
2.090442285552e-04 3.410767185180e-05 0.0 
6.945676596400e-05 -7.205644312308e-05 0.0 
9.710569097731e-05 1.474204434445e-03 0.0 
1.865413323368e-03 1.757538427659e-03 0.0 
1.914117709690e-03 4.281149171190e-03 0.0 
1.198660588306e-04 1.856486006534e-06 0.0 
1.278237326349e-05 -2.216738758131e-06 0.0 
6.039011207577e-05 -5.278304288094e-05 0.0 
2.039713148811e-03 1.882992900312e-03 0.0 
1.746402198110e-04 1.269854182861e-05 0.0 
1.851755452761e-03 2.308590238422e-03 0.0 
2.544144525704e-04 1.072124813842e-03 0.0 
8.668754820909e-04 4.273165983698e-04 0.0 
1.704840973760e-03 7.069205587112e-03 0.0 
4.217019009858e-04 5.578295845159e-03 0.0 
1.764944707800e-03 1.938751063189e-03 0.0 
1.721297053703e-03 4.076356726791e-03 0.0 
2.100991613321e-03 1.693914250732e-03 0.0 
9.607282999832e-04 2.791403260009e-04 0.0 
7.158209963293e-04 8.834564110097e-03 0.0 
1.151529319572e-03 1.516630353163e-04 0.0 
1.951519907746e-04 -3.293014234970e-04 0.0 
1.807247902566e-04 8.089806344349e-03 0.0 
4.193039093572e-05 -2.640157041289e-04 0.0 
2.263953689915e-03 5.921213573122e-03 0.0 
1.384296569917e-04 1.020673813700e-05 0.0 
7.745665914796e-04 3.913723173040e-04 0.0 
3.211422420180e-05 -4.326359206349e-05 0.0 
3.450332285913e-04 6.632236843442e-04 0.0 
1.252408779628e-03 1.959214314401e-04 0.0 
4.162636166364e-04 8.513746700455e-03 0.0 
1.048137739603e-03 1.157360394426e-04 0.0 
3.062701469429e-05 -2.090819013999e-05 0.0 
2.431344821432e-04 -3.255481660423e-04 0.0 
3.104020703638e-05 -9.671565002605e-06 0.0 
2.650815586053e-03 4.700709766050e-03 0.0 
4.235692212787e-05 -1.252636954816e-06 0.0 
1.777940385130e-04 8.592767069209e-03 0.0 
8.446912177983e-04 2.408399852025e-04 0.0 
2.193406233140e-03 6.586500456806e-03 0.0 
2.904722217022e-05 -8.579362954530e-05 0.0 
3.117693731683e-04 7.960391032556e-04 0.0 
1.006803050534e-03 5.421856595815e-05 0.0 
3.739955544221e-04 5.050075849504e-03 0.0 
4.701986681417e-04 8.851941628627e-03 0.0 
1.031050020735e-03 2.298458787130e-04 0.0 
2.088255843073e-03 5.945689716587e-03 0.0 
1.744331319157e-03 9.326242450283e-04 0.0 
1.059556391291e-04 -1.735296194684e-04 0.0 
5.053289592434e-04 1.446633768283e-04 0.0 
8.356585038734e-04 3.656842538380e-04 0.0 
7.253195937031e-04 8.727606046075e-04 0.0 
9.312103804094e-05 -1.655844927925e-04 0.0 
5.063593287673e-04 2.388713901658e-05 0.0 
1.731229769493e-03 2.542470951381e-03 0.0 
5.802268733888e-04 7.982377575879e-04 0.0 
2.501402546829e-03 5.796833800092e-03 0.0 
1.149289789021e-03 2.717458187142e-04 0.0 
1.809920746958e-04 1.142747338853e-03 0.0 
2.268252058007e-03 2.539903509660e-03 0.0 
2.115340832964e-05 -1.464650143170e-05 0.0 
2.438897367092e-04 3.516380444716e-04 0.0 
8.822875383975e-04 -2.425348664422e-05 0.0 
2.155477477071e-03 2.013845393525e-03 0.0 
7.474757185185e-05 -6.239630206994e-05 0.0 
1.808176180721e-03 3.022987041675e-03 0.0 
5.133062080492e-04 -1.464062998996e-05 0.0 
1.397067555475e-04 -3.013882809072e-04 0.0 
9.713597064984e-04 9.913132947010e-04 0.0 
2.253552854492e-03 4.446662911930e-03 0.0 
3.936607770678e-04 -2.342696328936e-04 0.0 
5.468824433418e-04 -8.940354427772e-06 0.0 
2.165322826256e-03 6.721158561253e-03 0.0 
1.899204761491e-03 6.413181453345e-03 0.0 
2.373237756857e-04 1.337909927424e-05 0.0 
2.878887958088e-04 -2.690403075324e-04 0.0 
2.044371407630e-03 1.280540931914e-03 0.0 
2.697722374836e-03 3.736380338507e-03 0.0 
2.140061092851e-03 4.100433970640e-03 0.0 
2.694933624900e-03 4.663815418193e-03 0.0 
2.553151150064e-03 5.249112270213e-03 0.0 
1.224886313521e-03 8.672531060590e-05 0.0 
1.929674475177e-03 1.109439036880e-03 0.0 
1.393790315526e-04 -1.049555318827e-04 0.0 
7.484254955665e-04 1.068141568266e-03 0.0 
1.048881035130e-03 1.050844561394e-03 0.0 
2.004237046941e-03 1.425369910518e-03 0.0 
2.099835248385e-03 2.308635245400e-03 0.0 
3.104034326836e-04 -1.112682269760e-04 0.0 
5.029425024118e-04 -3.481303472872e-05 0.0 
5.281930210577e-04 8.726253758767e-03 0.0 
9.149718114307e-04 2.584906896728e-05 0.0 
4.846835900012e-04 -5.434060077710e-05 0.0 
1.723831475857e-04 -3.190860139642e-04 0.0 
2.099824145982e-03 3.607822141043e-03 0.0 
1.661365043996e-04 -3.199262778063e-04 0.0 
1.297060029378e-04 -2.945294527319e-04 0.0 
2.255247044683e-04 4.433193190167e-04 0.0 
2.699262398343e-04 -2.871146975148e-04 0.0 
1.946547145908e-03 3.261680013191e-03 0.0 
2.696844053032e-04 -2.969886756274e-04 0.0 
4.027964678149e-04 1.764080723175e-04 0.0 
3.316792354343e-04 -3.183444351148e-04 0.0 
2.337028441284e-04 -3.156170615191e-04 0.0 
5.499428224790e-04 1.196536637065e-05 0.0 
2.653342377337e-03 4.188043641747e-03 0.0 
3.659135905160e-05 -2.223618661044e-06 0.0 
1.023881459057e-04 -1.003623419268e-04 0.0 
5.518278048118e-04 1.517296521739e-04 0.0 
1.055529629654e-03 3.000989592685e-05 0.0 
1.510646169224e-03 2.347779546569e-03 0.0 
5.367263451024e-04 -3.022694907857e-05 0.0 
4.605065467620e-05 -4.964211338837e-07 0.0 
2.373865101599e-03 2.942349627156e-03 0.0 
6.497860320087e-04 -8.355702646607e-05 0.0 
5.161272545163e-04 5.029638954825e-06 0.0 
3.603454161358e-05 -6.228238665226e-05 0.0 
2.237479297205e-03 1.790883522317e-03 0.0 
2.318844634225e-03 3.775978866280e-03 0.0 
6.835619789347e-04 1.637162220716e-04 0.0 
1.009911481357e-03 -1.852416868471e-05 0.0 
4.747858207605e-04 2.009414064599e-04 0.0 
2.730834391011e-03 4.061707995168e-03 0.0 
2.070221620852e-04 4.803292266739e-04 0.0 
1.949613202203e-03 1.070975718455e-03 0.0 
1.131676417436e-03 -2.843198020431e-05 0.0 
4.080866678666e-04 7.910247908896e-03 0.0 
2.662904100889e-04 -3.325503635296e-04 0.0 
2.653721709597e-03 5.106034478641e-03 0.0 
6.667208268285e-04 -4.014803960390e-05 0.0 
4.064597720590e-04 -1.324500753812e-04 0.0 
3.107217270004e-04 -2.915180155891e-04 0.0 
1.855927392109e-03 3.372389168033e-03 0.0 
2.736202128788e-03 3.733732907701e-03 0.0 
1.002746841531e-03 3.782882791417e-04 0.0 
1.686719396366e-03 2.993153084338e-03 0.0 
2.297149069113e-03 2.369220622590e-03 0.0 
2.443586798217e-03 2.182312015350e-03 0.0 
5.370934541303e-05 8.961046485448e-07 0.0 
1.118124213067e-03 -2.968520359451e-05 0.0 
2.604064709306e-03 2.578006610181e-03 0.0 
1.319596167819e-03 2.730334430639e-04 0.0 
1.157078460507e-03 -5.105230410422e-07 0.0 
5.078298377601e-04 -1.464139678647e-04 0.0 
1.871451273956e-03 7.676739102093e-03 0.0 
9.936002507157e-04 -7.192340512696e-05 0.0 
5.447387394821e-04 -2.620626993734e-04 0.0 
2.323010184832e-03 3.126644571836e-03 0.0 
9.744811157860e-05 -1.309566714245e-04 0.0 
2.658994014533e-03 4.954472965422e-03 0.0 
7.007230801432e-04 -1.057594630871e-04 0.0 
5.469652032003e-04 8.454101649815e-05 0.0 
4.974218235885e-04 -1.773563077835e-04 0.0 
2.721520603410e-03 3.602985562732e-03 0.0 
2.164300970139e-04 -3.317387127743e-04 0.0 
1.292126765370e-03 1.377487287386e-03 0.0 
1.125260526734e-03 -2.473459111159e-07 0.0 
2.735940170136e-03 4.148501863085e-03 0.0 
1.958369051278e-03 7.055887609804e-03 0.0 
2.717123270591e-04 -1.561550779294e-04 0.0 
5.668008770951e-04 -2.496442571486e-04 0.0 
4.818498079054e-04 -2.820681824466e-04 0.0 
9.086878606705e-04 1.170329002798e-03 0.0 
2.391937540288e-03 3.585156251300e-03 0.0 
1.228855135816e-03 1.143581453993e-03 0.0 
9.232820744781e-04 -9.608497298148e-05 0.0 
9.285006292038e-04 -4.441805426491e-05 0.0 
3.112372515291e-04 -1.477413847502e-04 0.0 
1.357452686738e-03 2.344755879238e-04 0.0 
2.858986364596e-04 1.306673390941e-04 0.0 
3.665056230343e-04 4.072425358664e-04 0.0 
4.364993551985e-04 3.713151558231e-04 0.0 
1.971468108873e-03 9.616070842753e-04 0.0 
5.813662875344e-04 -9.837454025744e-05 0.0 
4.723401142112e-04 9.582594191188e-06 0.0 
2.584598613660e-03 2.294156616471e-03 0.0 
5.269129908351e-04 -7.124330241389e-05 0.0 
5.013470813585e-04 -2.723872824465e-04 0.0 
2.332645119665e-03 2.099074257535e-03 0.0 
3.309045456868e-04 1.300956916568e-03 0.0 
8.005247669062e-04 -4.668038957700e-05 0.0 
1.293365576214e-03 1.227696842129e-04 0.0 
3.464929943950e-04 8.983261688950e-05 0.0 
9.110516793127e-05 1.055372400520e-05 0.0 
5.345037130677e-04 -2.561441964702e-05 0.0 
2.258131105403e-03 1.604068444673e-03 0.0 
3.568936431395e-04 -1.748713692209e-04 0.0 
7.710754660812e-04 -7.031735236574e-05 0.0 
1.042252142323e-03 -3.385195673151e-05 0.0 
5.003590100278e-04 -2.799242201137e-04 0.0 
2.660211998780e-03 3.298467607627e-03 0.0 
3.702344758362e-04 2.116918992883e-04 0.0 
8.171356467544e-04 -1.049795201505e-04 0.0 
1.063691694895e-03 -2.560636882470e-05 0.0 
3.518312279548e-04 3.272275409145e-05 0.0 
1.452818599731e-03 5.707895319252e-03 0.0 
5.177688347687e-04 -5.098651410728e-05 0.0 
5.618105536913e-04 3.153773299962e-04 0.0 
1.408563888663e-03 6.233273229318e-03 0.0 
3.390832908093e-04 1.368131401587e-04 0.0 
4.519278570054e-04 -2.414793286745e-05 0.0 
4.051050736322e-04 2.633845697837e-04 0.0 
1.737829680193e-03 6.067203984129e-03 0.0 
2.304599479188e-03 1.844178959465e-03 0.0 
3.898229863005e-04 3.374281738944e-04 0.0 
2.518964436934e-03 3.619215470553e-03 0.0 
2.666712569089e-03 2.937743179260e-03 0.0 
2.700646832042e-03 2.954013009583e-03 0.0 
1.735278995181e-03 8.176289230218e-04 0.0 
2.904600997132e-04 9.476805163493e-05 0.0 
2.147242449798e-03 6.071117907761e-03 0.0 
2.557855067516e-03 5.690650356377e-03 0.0 
8.905231139325e-04 -8.390741016624e-05 0.0 
2.516460227408e-04 -3.027259969126e-04 0.0 
2.455760190098e-03 4.633169084611e-03 0.0 
6.506084075736e-04 2.586688245782e-04 0.0 
3.565044052899e-04 8.823230883595e-03 0.0 
4.781818996730e-04 -2.857283702932e-04 0.0 
7.733503905344e-04 -8.791706718197e-05 0.0 
2.105639363610e-03 3.003384722007e-03 0.0 
6.393533200526e-04 1.773375022246e-04 0.0 
2.574196323059e-03 3.237346495468e-03 0.0 
1.024160576250e-03 -2.113699660726e-05 0.0 
5.033398437616e-04 -1.514617086445e-04 0.0 
2.020867353052e-04 4.873873588693e-05 0.0 
2.012539453905e-03 3.210435955057e-03 0.0 
5.585104791039e-04 -2.280186866385e-04 0.0 
3.980574558186e-04 -2.477673538311e-04 0.0 
5.619684688876e-04 6.544779945717e-04 0.0 
5.647737690882e-04 4.135680950811e-04 0.0 
1.973409805783e-03 1.817157980490e-03 0.0 
2.353172984083e-03 1.676969042688e-03 0.0 
1.430188785020e-03 1.965891835899e-03 0.0 
2.376928471323e-03 3.503990558673e-03 0.0 
1.423864207050e-04 2.295818862157e-05 0.0 
3.649296947145e-04 5.211003170000e-05 0.0 
1.946664588203e-03 1.941264945295e-03 0.0 
2.184469993602e-03 3.461641900085e-03 0.0 
5.221430142665e-04 -1.672165779763e-04 0.0 
1.285197537508e-03 8.452465104958e-04 0.0 
5.679478748267e-04 -1.347757791690e-04 0.0 
6.784393377619e-04 -1.399086639192e-04 0.0 
2.161777782207e-03 1.362270194484e-03 0.0 
8.105802377102e-04 -8.217632544828e-05 0.0 
2.654528113342e-04 -1.783123046872e-04 0.0 
1.803186706898e-03 2.278662889100e-03 0.0 
5.397137392261e-04 -2.456653660086e-04 0.0 
1.527881572339e-03 6.020102378059e-04 0.0 
2.528134870439e-03 2.521288585965e-03 0.0 
1.322532206706e-03 6.092193576289e-04 0.0 
4.249230396129e-04 3.138877928339e-04 0.0 
4.165297310395e-04 4.042496776973e-04 0.0 
9.990026455671e-04 9.536635263898e-04 0.0 
5.151635004452e-04 -1.352440004317e-04 0.0 
1.594817771862e-03 3.065792188872e-03 0.0 
4.735134821191e-04 2.832577619287e-04 0.0 
7.850592338069e-04 -1.372533466766e-04 0.0 
4.026068375793e-04 -1.660647074075e-04 0.0 
1.486198993694e-03 1.496319503648e-03 0.0 
1.679442886673e-03 7.951564087819e-03 0.0 
1.625029949664e-03 6.144577345992e-03 0.0 
2.366456168379e-04 2.273925332831e-05 0.0 
1.999100405755e-03 1.569943681565e-03 0.0 
2.695100150711e-03 4.425460037057e-03 0.0 
2.665641862376e-03 2.618257054862e-03 0.0 
4.454086116497e-04 -1.870701779948e-04 0.0 
2.378432310164e-04 -3.370474950232e-04 0.0 
1.198737970720e-03 1.219425240239e-04 0.0 
1.686864080283e-03 5.944741828156e-04 0.0 
1.292485879131e-03 1.603031882301e-04 0.0 
1.527534262987e-04 1.220160886824e-04 0.0 
3.422386737117e-04 7.649358422919e-03 0.0 
2.498120904663e-04 -3.112523653872e-04 0.0 
6.168903520948e-04 4.482198276745e-05 0.0 
4.926988624902e-05 6.103417345213e-06 0.0 
1.097003266904e-03 5.409452819468e-05 0.0 
2.478290142611e-03 6.113407765892e-03 0.0 
2.887255378150e-05 -2.665521666375e-04 0.0 
1.821026602266e-03 9.918231524794e-04 0.0 
1.144072969871e-03 6.180685811897e-05 0.0 
2.723050269432e-03 3.268136530091e-03 0.0 
3.675228324740e-04 1.856607410249e-04 0.0 
2.560600115157e-03 4.131999885952e-03 0.0 
2.508544831014e-03 2.002148455053e-03 0.0 
2.898818646785e-04 -1.814674297329e-04 0.0 
1.856511948851e-03 2.806114645248e-03 0.0 
4.900734869350e-04 -1.195880297699e-04 0.0 
3.654214237926e-04 1.652091401867e-04 0.0 
2.131191726360e-04 1.470610316753e-04 0.0 
1.746713802164e-04 2.074812528335e-04 0.0 
2.246954882216e-04 2.044883946644e-04 0.0 
2.677235500326e-03 2.887780488509e-03 0.0 
1.930958318933e-03 2.693999595023e-03 0.0 
1.784386434975e-03 1.495871812493e-03 0.0 
1.384047558952e-03 7.572589346519e-04 0.0 
1.346811451323e-03 1.031445215229e-03 0.0 
2.294216423476e-04 -1.859734017766e-04 0.0 
1.860305858721e-03 2.172484807145e-03 0.0 
3.154303380472e-04 1.141396943170e-04 0.0 
1.585348893426e-03 2.540423911490e-03 0.0 
1.146682370520e-03 2.794297543240e-05 0.0 
1.664521692111e-03 2.464094627242e-03 0.0 
1.744471866776e-03 5.086328932491e-04 0.0 
1.574935960938e-03 5.351143395204e-04 0.0 
1.563961640328e-03 1.790744065478e-03 0.0 
4.105515964367e-04 -4.871967073476e-06 0.0 
4.887137934599e-04 1.007747076332e-03 0.0 
1.180889039341e-03 5.474411014108e-04 0.0 
9.442479552296e-04 3.226611405679e-04 0.0 
2.525269283756e-04 -1.893081361105e-04 0.0 
4.230106327153e-04 -2.985664280505e-04 0.0 
1.799027066680e-04 1.762395488284e-05 0.0 
7.172058375016e-04 1.314527039157e-04 0.0 
1.919859009962e-04 1.163235381085e-04 0.0 
7.488317965183e-04 7.651100937811e-04 0.0 
2.335085621857e-03 1.497392430039e-03 0.0 
2.253856936094e-04 -3.390475711542e-04 0.0 
1.892742576340e-04 9.029237984499e-05 0.0 
2.323970727988e-04 2.996399992823e-05 0.0 
4.426648753993e-04 -2.949716139155e-04 0.0 
1.034856589325e-03 4.653788465584e-06 0.0 
1.890617171955e-04 4.135306596858e-05 0.0 
2.119888746492e-04 -3.411974551658e-04 0.0 
1.398452655298e-03 5.402863027754e-04 0.0 
2.469667087152e-03 1.780167038534e-03 0.0 
2.164051280346e-03 1.219851032093e-03 0.0 
2.443462854438e-03 1.947021878148e-03 0.0 
4.738030568357e-04 6.557937694050e-05 0.0 
1.629361246506e-04 6.189637981705e-05 0.0 
8.820148514953e-04 -1.267612446961e-04 0.0 
2.780665215730e-04 -1.910290489548e-04 0.0 
6.996875052824e-05 5.751179562729e-07 0.0 
2.179492288274e-04 -3.400401617279e-04 0.0 
2.129792890355e-03 2.887502483938e-03 0.0 
3.002490620303e-04 -3.117616313528e-04 0.0 
2.450838016289e-03 5.237615344569e-03 0.0 
1.208563814975e-04 1.719521191840e-05 0.0 
1.379658863166e-04 4.252473713496e-05 0.0 
2.732626015685e-03 3.312090007144e-03 0.0 
2.595557757730e-04 -3.199674180336e-04 0.0 
2.447900023930e-04 -1.992855551744e-04 0.0 
2.842312562497e-04 -3.195049904218e-04 0.0 
2.291466135923e-04 -2.129038932182e-05 0.0 
1.725665239161e-03 8.135126865852e-03 0.0 
2.501289931247e-03 5.897465287941e-03 0.0 
1.060588822295e-04 2.675973553214e-05 0.0 
1.546266924454e-03 8.371526850456e-03 0.0 
3.298163074668e-04 4.179643196442e-04 0.0 
1.640818180687e-03 4.480193372063e-04 0.0 
1.457302484098e-03 6.740724160805e-03 0.0 
6.756409073709e-04 5.742738678544e-04 0.0 
1.095809551756e-03 2.837473759166e-05 0.0 
3.599127587738e-04 -1.047835794203e-04 0.0 
9.303386411969e-05 1.937406561379e-05 0.0 
2.118038669769e-04 1.668267611587e-04 0.0 
1.918342428179e-04 1.997612830328e-04 0.0 
4.573801417395e-04 -1.200476390144e-04 0.0 
1.947370981402e-04 -1.928894701251e-04 0.0 
1.498821435578e-03 4.198245178113e-04 0.0 
4.310061837757e-04 -1.048723285263e-04 0.0 
7.853367206750e-05 1.352558476521e-05 0.0 
6.058918045868e-04 -9.336670628395e-06 0.0 
5.647765679649e-04 -2.609566468422e-04 0.0 
5.532826549880e-04 -2.639433848040e-04 0.0 
1.304408101965e-03 6.254334242671e-03 0.0 
7.856051953751e-05 8.130027874026e-06 0.0 
2.473521062373e-04 -3.264352461314e-04 0.0 
5.700363285997e-05 7.762608062037e-06 0.0 
4.907674501325e-04 -2.797626648618e-04 0.0 
1.782485748400e-04 9.536836117987e-05 0.0 
1.797917006593e-03 1.395185328842e-03 0.0 
2.104283403170e-04 -3.403966270091e-04 0.0 
1.386345106353e-03 3.676941467390e-04 0.0 
1.413856021815e-03 2.656155530929e-03 0.0 
1.761471661586e-04 7.491676034167e-05 0.0 
2.651806276914e-03 2.595978010839e-03 0.0 
1.455120693692e-03 3.332774671484e-04 0.0 
3.009707825215e-04 1.887860344910e-05 0.0 
3.611504282207e-04 3.359053785411e-05 0.0 
4.742197006558e-04 -2.736655453187e-04 0.0 
5.263331035115e-04 -2.687646319039e-04 0.0 
2.184086615140e-04 -3.185122283855e-04 0.0 
1.524942133966e-04 5.224331449998e-05 0.0 
4.596695603010e-04 -1.225132060497e-04 0.0 
4.260342756861e-04 -1.107821873713e-05 0.0 
1.384924466499e-03 7.322177714065e-03 0.0 
3.503551932381e-04 -2.895005417882e-04 0.0 
5.398941119637e-04 -2.691372675824e-04 0.0 
2.612241503777e-03 2.318137230830e-03 0.0 
9.602785307578e-05 2.197900035479e-05 0.0 
1.849984433428e-04 -1.797722781015e-04 0.0 
4.608169615951e-04 -7.264240687435e-05 0.0 
1.882932702398e-03 7.138976677328e-04 0.0 
6.751966682971e-04 -1.059883810648e-04 0.0 
6.081579258237e-04 -2.486406466046e-04 0.0 
4.950615057668e-04 -1.033065038150e-04 0.0 
1.879337140104e-03 7.974522202883e-04 0.0 
1.987068595632e-03 8.154819999722e-04 0.0 
1.027744765561e-03 5.335967037003e-05 0.0 
1.704715788137e-03 5.297139486055e-04 0.0 
3.257118101613e-04 -1.994056114047e-04 0.0 
6.996054711552e-04 6.612582013423e-05 0.0 
2.166659371377e-04 -1.962464543652e-04 0.0 
1.564909284305e-03 3.778536318721e-04 0.0 
1.036140332091e-03 -5.257694212247e-05 0.0 
1.062735191090e-04 1.386602540725e-05 0.0 
1.383016094488e-03 2.170615840703e-03 0.0 
3.269369991459e-04 -2.968828148022e-04 0.0 
6.385274863754e-05 9.432603856362e-06 0.0 
2.671225160133e-04 3.009700117732e-05 0.0 
1.315301693263e-03 1.339891726831e-04 0.0 
2.293232355224e-04 -3.263444848115e-04 0.0 
6.883025887246e-05 6.400660898742e-06 0.0 
1.593352608429e-03 1.977311628297e-03 0.0 
4.344695897207e-04 -2.920531417491e-04 0.0 
4.183528168225e-05 4.450306659985e-06 0.0 
4.323041842810e-04 -8.952240895544e-05 0.0 
1.596320807660e-03 1.355327964329e-03 0.0 
2.586127161088e-03 5.323146365207e-03 0.0 
1.058754916491e-03 -5.639259976235e-05 0.0 
4.704172803932e-04 -1.513570050867e-04 0.0 
7.253027285031e-04 -7.902231070500e-05 0.0 
2.347690548246e-03 4.268388048529e-03 0.0 
2.133444380921e-03 2.221788155018e-03 0.0 
1.065323728787e-03 9.975859989229e-05 0.0 
3.282424680739e-04 7.071486754824e-03 0.0 
3.005383679621e-04 -1.961111508853e-04 0.0 
9.787395255003e-04 8.684485934100e-06 0.0 
4.489719749673e-04 -2.740961355266e-04 0.0 
2.259848997263e-04 -8.760480445324e-05 0.0 
2.078278312639e-04 -3.346999954998e-04 0.0 
8.138015748092e-04 1.597163678396e-04 0.0 
4.667093828642e-04 -2.824926221828e-04 0.0 
2.535113238234e-04 -1.639668757619e-04 0.0 
1.466626474773e-03 2.439782701899e-04 0.0 
4.636661610766e-04 -8.841619348860e-05 0.0 
1.252136325291e-03 6.768953821224e-03 0.0 
4.130176840506e-04 -2.930123975593e-04 0.0 
3.672523785527e-05 3.679721214041e-06 0.0 
2.386497748351e-03 1.545463848981e-03 0.0 
2.170605622780e-04 -1.473750833652e-04 0.0 
2.242317241315e-03 1.282072669634e-03 0.0 
2.299012861063e-04 -1.611767648006e-04 0.0 
2.130946236305e-04 -3.383843397705e-04 0.0 
2.559723786845e-03 5.096580189683e-03 0.0 
6.758853554920e-05 -1.765263949269e-04 0.0 
1.509846381839e-04 -3.185235596980e-04 0.0 
1.846867597085e-04 -1.560200000492e-04 0.0 
4.235961992800e-04 -5.931872626065e-05 0.0 
3.894068796156e-04 3.078065757599e-03 0.0 
7.504376609232e-04 -1.128506688262e-04 0.0 
7.184226006570e-04 -9.958049742854e-05 0.0 
2.319952660456e-03 6.748758225336e-03 0.0 
1.451469816415e-03 8.996890779029e-03 0.0 
5.768663564296e-04 8.877140156268e-04 0.0 
2.068499812438e-03 1.028753135343e-03 0.0 
1.427697069534e-04 -3.178949405203e-04 0.0 
2.203976998976e-04 -3.119563612759e-04 0.0 
2.291699742120e-04 -3.354174101993e-04 0.0 
2.889420102544e-04 -2.802315973539e-04 0.0 
1.703822922601e-03 8.389552387544e-04 0.0 
4.468886828584e-04 3.107827076753e-03 0.0 
2.447297046972e-04 -3.091215997803e-05 0.0 
2.441447118908e-04 -2.485454449145e-04 0.0 
2.041735928817e-04 -8.678124884684e-05 0.0 
3.695229643001e-04 -4.082650535339e-06 0.0 
3.547324177806e-04 -2.042162902752e-04 0.0 
4.795163586452e-05 -1.753025839691e-04 0.0 
3.622653729784e-05 -2.025919444343e-04 0.0 
6.158202994062e-05 4.909955538391e-06 0.0 
3.210502101719e-05 2.720939684701e-06 0.0 
4.797944476146e-05 -1.553805949176e-04 0.0 
1.943403958875e-04 -1.450624580488e-04 0.0 
4.495475918813e-04 -1.355989061183e-04 0.0 
3.595012243649e-04 9.464730926328e-06 0.0 
2.205469985008e-04 -3.037454116722e-04 0.0 
3.744784900348e-04 -1.875154770628e-05 0.0 
1.180642060182e-04 -2.945499041140e-04 0.0 
1.962431275817e-04 -1.693433199570e-04 0.0 
2.642676864787e-04 -1.523066249223e-04 0.0 
9.607592603474e-05 -2.947603246284e-04 0.0 
3.893096315001e-05 -1.646889304944e-04 0.0 
1.303424847381e-03 2.213708355607e-03 0.0 
1.221125027506e-04 -3.118243056094e-04 0.0 
1.604011930220e-03 8.727951929343e-03 0.0 
1.607915580539e-03 8.856056659036e-03 0.0 
7.721694053027e-04 -4.906809675607e-05 0.0 
1.810159458295e-05 -2.027147195663e-04 0.0 
4.200097515056e-04 -2.838824682010e-04 0.0 
4.066763055015e-04 1.082346784739e-04 0.0 
1.502514154912e-04 -9.368904862251e-06 0.0 
6.008672529582e-04 2.175147154400e-04 0.0 
8.129136850226e-04 3.715082746062e-03 0.0 
6.687876464385e-04 4.543242633350e-04 0.0 
2.174125228539e-04 -3.262391574197e-04 0.0 
2.304855833452e-03 3.024970996095e-03 0.0 
1.070411004662e-03 9.302036347131e-03 0.0 
9.938607249595e-04 9.631791502878e-03 0.0 
1.315005083150e-04 -3.122328146551e-04 0.0 
1.188344985297e-04 -3.007681291931e-04 0.0 
5.513529747008e-05 -2.761176925309e-04 0.0 
2.165293867845e-04 -2.744640241017e-04 0.0 
8.619432033464e-05 -2.952767748254e-04 0.0 
3.861396162769e-05 -1.440469633206e-04 0.0 
1.885896973041e-04 -2.943676082598e-04 0.0 
2.284099733455e-04 -2.563005301987e-04 0.0 
3.016133811631e-04 5.935424429089e-03 0.0 
1.334123524275e-03 9.388503692597e-03 0.0 
1.578765815884e-03 8.537113598726e-04 0.0 
4.007507977759e-04 -7.552877573697e-05 0.0 
2.641886840024e-04 6.841483004033e-03 0.0 
9.330357756405e-06 -1.934179151388e-04 0.0 
6.887659556417e-05 -2.822600715553e-04 0.0 
7.200459417930e-05 2.622877510530e-04 0.0 
1.652431653859e-04 5.434799130729e-04 0.0 
1.283914094391e-03 7.329346361131e-03 0.0 
1.192162088692e-03 9.261354432354e-03 0.0 
4.638899273875e-05 -1.938869506759e-04 0.0 
1.050398485876e-04 5.229881540622e-04 0.0 
2.318129095495e-04 -2.679535299564e-04 0.0 
1.462992469692e-03 9.169753079884e-03 0.0 
1.315634191724e-03 9.169888834344e-03 0.0 
2.305413222501e-03 4.539034231936e-03 0.0 
1.551449272504e-04 2.104830668107e-04 0.0 
1.288914487710e-04 5.183591644211e-04 0.0 
1.085612123616e-04 -3.005235697245e-04 0.0 
1.102248788290e-04 -3.061461806835e-04 0.0 
2.074161302071e-04 -3.154921148462e-04 0.0 
2.890170256629e-04 -1.548568291368e-04 0.0 
1.419407199699e-05 -5.372187596682e-06 0.0 
1.701416803496e-04 -2.778816095206e-04 0.0 
1.003022921384e-04 3.900607389663e-03 0.0 
2.017851079993e-04 -3.166017678315e-04 0.0 
6.832856133682e-04 -6.629706198843e-05 0.0 
2.003545381736e-04 -3.235248471410e-04 0.0 
1.879498596225e-04 -3.050645271370e-04 0.0 
6.405719581424e-04 -9.191783202544e-05 0.0 
5.781241704019e-05 -8.966047648867e-06 0.0 
2.504137234963e-04 6.271737450642e-03 0.0 
2.289888667890e-03 2.340900240655e-03 0.0 
7.209725793192e-05 -2.892100367325e-04 0.0 
1.654383032527e-04 -7.423209908641e-05 0.0 
2.416267063678e-05 3.143063835493e-04 0.0 
4.792851287998e-05 5.321343129622e-04 0.0 
1.218176482929e-03 9.519806315370e-03 0.0 
7.213956506783e-04 -3.824304510079e-05 0.0 
5.688685459168e-05 2.560714133682e-04 0.0 
1.386976564239e-03 2.813206075319e-04 0.0 
4.100781261648e-05 -2.781787609828e-04 0.0 
5.855916690879e-05 -2.906031002693e-04 0.0 
4.121101968745e-05 -2.857142035440e-04 0.0 
9.726805640202e-06 -1.739547433959e-04 0.0 
1.119874609948e-05 1.929943557002e-07 0.0 
1.270170729285e-05 1.453071762097e-03 0.0 
5.989686507107e-05 -2.990675160225e-04 0.0 
1.983867437604e-05 -1.427362705191e-04 0.0 
3.771367581667e-06 8.217753606916e-08 0.0 
1.593902692876e-05 3.418675873969e-07 0.0 
5.537239405161e-05 3.793002858399e-06 0.0 
5.475437650565e-05 4.886087836431e-03 0.0 
2.237736009140e-05 3.404784459213e-03 0.0 
7.427378517810e-06 1.108168196310e-07 0.0 
8.511648410952e-06 2.310507677659e-07 0.0 
4.900824620385e-05 3.901060018294e-03 0.0 
4.417762563286e-05 -3.014956017646e-04 0.0 
7.724601706148e-04 9.680053292861e-03 0.0 
1.107123336376e-03 9.594854106293e-03 0.0 
8.787618089770e-05 -3.010175488688e-04 0.0 
1.469121992232e-05 7.159570019253e-07 0.0 
5.089963205706e-05 2.913563731179e-06 0.0 
2.500424692888e-05 1.309576726469e-06 0.0 
7.511681665726e-05 -3.034152265292e-04 0.0 
9.942145306526e-05 -3.061237096307e-04 0.0 
2.947700892343e-05 2.189015853690e-06 0.0 
2.589538512818e-05 1.603987004710e-06 0.0 
2.812349039320e-05 5.393343276020e-03 0.0 
4.219381347546e-04 9.699278218255e-03 0.0 
2.663088611245e-05 4.387988140376e-03 0.0 
3.262779021778e-05 7.390445079728e-03 0.0 
1.837240762859e-04 9.697596506942e-03 0.0 
1.614542179311e-04 -3.240750159558e-04 0.0 
1.920130503349e-04 -3.358916482275e-04 0.0 
2.021797355882e-04 -3.398504830621e-04 0.0 
2.084291738691e-04 -3.416920409939e-04 0.0 
9.925654823089e-06 -1.318713076701e-04 0.0 
9.913019552952e-06 -1.533138722120e-04 0.0 
1.976949491194e-04 -3.368130984843e-04 0.0 
9.521074383890e-06 -7.045831931477e-05 0.0 
2.067748658512e-04 -3.402269075180e-04 0.0 
1.273060391229e-04 2.349541742146e-04 0.0 
4.815299399590e-05 2.669167406940e-04 0.0 
9.323857120664e-05 2.811921620200e-04 0.0 
8.809019864122e-06 -2.576026845581e-04 0.0 
8.771236826548e-06 -2.114740436918e-04 0.0 
4.496826775865e-05 3.220335878208e-04 0.0 
6.174207314565e-06 -2.000595637805e-05 0.0 
2.376584224320e-05 2.178279294128e-04 0.0 
4.431891144747e-06 -9.214516904449e-06 0.0 
2.633087796589e-06 -2.464660592543e-06 0.0 
1.963982519315e-05 -1.639329005904e-04 0.0 
9.312126175455e-05 5.889503285149e-04 0.0 
6.873411000185e-05 5.398615172337e-04 0.0 
1.060609845931e-05 -1.436132823967e-05 0.0 
7.064978941336e-06 -5.292544445923e-06 0.0 
9.585662944919e-05 -5.282753372333e-05 0.0 
2.097612860968e-04 -3.306856807392e-04 0.0 
1.638241513041e-04 -1.770239655857e-04 0.0 
1.298861705614e-04 -3.067992491978e-04 0.0 
1.387762794285e-04 -1.032088322131e-05 0.0 
2.187374875891e-04 -1.721874593920e-04 0.0 
1.079354372706e-04 -2.657802615153e-05 0.0 
2.186700562401e-04 -2.849439688086e-04 0.0 
1.509100994878e-04 -3.031726199082e-04 0.0 
7.321403122686e-05 -1.377608887069e-05 0.0 
1.628576303951e-04 -1.537584504444e-04 0.0 
3.799085566406e-05 -1.846066995376e-04 0.0 
9.437261869844e-05 -2.690839356670e-05 0.0 
1.428453541367e-04 2.464950478517e-03 0.0 
1.905716339661e-05 -1.840148888684e-04 0.0 
4.123447361531e-04 -4.493772595602e-05 0.0 
2.958308858105e-04 -8.986673958794e-05 0.0 
1.132260523815e-04 -5.289657115266e-05 0.0 
8.129875687303e-05 -4.372236355387e-05 0.0 
8.171794780021e-04 -1.468575084069e-04 0.0 
2.045955300438e-03 2.466172857598e-03 0.0 
1.453095506750e-03 2.792295939056e-04 0.0 
1.855097649591e-04 -7.480003120993e-05 0.0 
6.621030205284e-05 -2.045170792811e-05 0.0 
5.278842708172e-05 -3.559328702046e-05 0.0 
2.872152570235e-04 -3.003635817947e-04 0.0 
2.737438619610e-04 2.539909217038e-03 0.0 
3.413003642551e-04 3.528970860482e-03 0.0 
5.524868245392e-04 8.195092820820e-03 0.0 
2.059497028701e-04 -6.418423510999e-05 0.0 
1.478651018120e-04 -6.320785886082e-05 0.0 
1.853204081878e-04 2.516152421454e-03 0.0 
2.350020538991e-04 3.024764792927e-03 0.0 
3.186534373441e-04 -1.036616056121e-04 0.0 
4.896023898637e-05 -9.371754689160e-06 0.0 
7.341824384977e-04 3.695887710267e-03 0.0 
3.749282658782e-05 -3.533002139082e-05 0.0 
1.001257641995e-04 -6.082848693826e-06 0.0 
3.205606483107e-04 2.563225867328e-03 0.0 
5.800108163555e-04 5.116224686769e-03 0.0 
3.948920122564e-04 -6.109887965643e-05 0.0 
1.124975290471e-04 -2.495478300712e-04 0.0 
2.996913480871e-04 -3.119012762481e-04 0.0 
2.068095456218e-04 -3.226611337326e-04 0.0 
2.221064299307e-04 -3.315948578557e-04 0.0 
2.854572423855e-04 3.023004639826e-03 0.0 
5.252078235323e-05 -1.458272782038e-05 0.0 
2.220916227447e-04 -3.381925773535e-04 0.0 
1.737459963120e-03 1.707297841922e-03 0.0 
6.572993888727e-04 7.695424400255e-03 0.0 
1.266454536502e-04 -3.451629098641e-05 0.0 
6.790741801055e-05 -2.757500279804e-05 0.0 
4.000386333567e-04 -2.721469279282e-04 0.0 
5.475959170994e-05 -2.787547964322e-05 0.0 
6.219205402529e-04 8.212157874518e-03 0.0 
9.704339865885e-04 3.167057723552e-05 0.0 
7.531393675137e-05 -2.561243210487e-06 0.0 
6.121678856097e-05 -2.419793370802e-04 0.0 
1.297665172542e-04 -3.879449701101e-06 0.0 
4.534470888522e-04 4.565037280095e-03 0.0 
8.775829031052e-05 -2.369472352290e-04 0.0 
3.080300933066e-04 -2.939076887969e-04 0.0 
8.448719579860e-05 -1.145665325605e-04 0.0 
7.641545338668e-04 6.192848935127e-03 0.0 
2.114821871638e-04 -2.189383641755e-04 0.0 
3.390435736334e-04 4.010191524346e-03 0.0 
4.912699415681e-04 5.579563007780e-03 0.0 
1.810053891244e-04 -1.318844671943e-04 0.0 
6.503760366434e-05 -4.381747180902e-05 0.0 
8.219740659103e-05 -3.519770192012e-05 0.0 
3.891574223673e-04 4.530281746619e-03 0.0 
1.420187706433e-04 -2.722258133991e-04 0.0 
1.507357785781e-04 -1.410090719972e-04 0.0 
9.107103666018e-04 1.411698918538e-04 0.0 
5.267615418603e-04 4.106934609998e-03 0.0 
1.532397062297e-04 -1.643334578364e-04 0.0 
2.716433308229e-04 -8.920143174679e-05 0.0 
1.736039773448e-04 -7.225448612966e-06 0.0 
5.078532614893e-04 5.086098545600e-03 0.0 
2.482010530696e-04 -2.268881064063e-04 0.0 
1.742250164434e-04 -3.102164112947e-04 0.0 
4.375930807307e-04 -2.136422349200e-04 0.0 
7.805137287264e-05 -2.005077601871e-05 0.0 
6.347108343158e-04 5.639488239101e-03 0.0 
5.971612552242e-05 -9.346334227246e-05 0.0 
7.723480782402e-04 7.216073151967e-03 0.0 
3.466809319957e-04 -7.800689259417e-06 0.0 
1.457659572156e-04 -1.176005827763e-04 0.0 
9.682153645912e-05 -3.493202459818e-05 0.0 
9.540880917088e-05 -2.464233173948e-04 0.0 
1.102318303849e-04 -5.374162246579e-06 0.0 
1.592299011284e-04 -1.300926307476e-04 0.0 
7.012455610808e-05 -2.349751473639e-04 0.0 
1.298292275533e-04 -1.390073475110e-04 0.0 
1.823945266057e-04 -2.024942291734e-04 0.0 
2.091411552393e-04 -2.518532710465e-04 0.0 
7.869219621864e-05 -9.283807207037e-05 0.0 
1.687170634438e-04 -3.246721713895e-04 0.0 
1.847131195289e-04 -3.310773102557e-04 0.0 
1.294257875270e-04 -6.293501110149e-05 0.0 
1.194705777041e-04 -2.590627909039e-04 0.0 
1.859789383220e-04 -6.388660147469e-05 0.0 
2.272918363517e-04 -7.592122045162e-05 0.0 
2.855514197912e-04 -2.070396737626e-04 0.0 
3.841014474419e-04 -3.012606096192e-04 0.0 
6.392573171477e-04 3.187609673861e-03 0.0 
2.340620427036e-04 -7.283584848060e-05 0.0 
1.530626275457e-04 -1.869730754371e-04 0.0 
3.353855693658e-04 5.239805905925e-06 0.0 
1.108664968655e-04 -2.653671429792e-04 0.0 
7.318159242396e-04 6.689668602396e-03 0.0 
7.310183113003e-04 7.725154719390e-03 0.0 
2.059487745218e-04 -2.994551424981e-04 0.0 
2.254906188330e-04 -1.104257151031e-05 0.0 
9.085105837688e-04 4.719188423738e-03 0.0 
1.360249838147e-04 -2.628430269734e-04 0.0 
6.740297399557e-04 2.739151750704e-03 0.0 
6.056987157094e-04 2.716307734419e-03 0.0 
1.468568834083e-04 -2.569042398665e-04 0.0 
8.045893219981e-04 6.301092197065e-04 0.0 
1.989586162456e-04 -2.698548651297e-04 0.0 
1.132923096734e-04 -4.352572366126e-05 0.0 
1.116385695231e-04 -1.046065452556e-04 0.0 
1.529133963725e-03 2.050628316214e-03 0.0 
5.711890159352e-04 3.163503988981e-03 0.0 
1.479264652856e-04 -5.308405271539e-05 0.0 
1.659688400891e-04 -5.319486320574e-05 0.0 
2.043689679631e-04 -2.902033376897e-04 0.0 
1.295534082924e-04 -4.344035746466e-05 0.0 
8.235684160210e-04 4.701407593220e-03 0.0 
9.165109605007e-05 -1.039461106975e-04 0.0 
7.118856800710e-04 5.668795628991e-03 0.0 
7.447233590030e-04 4.186192482011e-03 0.0 
1.079058778372e-03 -5.694559664570e-05 0.0 
5.222104692399e-04 3.620719731814e-03 0.0 
1.207431722438e-04 -1.496741400596e-04 0.0 
1.249050884772e-04 -1.163852934961e-04 0.0 
1.501985197519e-04 -2.083863152411e-04 0.0 
3.231171692473e-04 -2.387228652540e-04 0.0 
7.312438112081e-04 5.173727655098e-03 0.0 
4.261509479734e-04 -1.654014848704e-04 0.0 
1.767564355449e-04 -2.545288397123e-04 0.0 
1.951041708645e-04 -3.113819382376e-04 0.0 
8.122959479808e-04 5.197861853344e-03 0.0 
1.949733209043e-04 -2.588971118323e-04 0.0 
1.387850849730e-04 -2.880138546278e-06 0.0 
5.919000945800e-04 4.625406505957e-03 0.0 
1.420897697322e-04 -3.428385836714e-05 0.0 
2.048517109611e-04 2.343163051270e-05 0.0 
1.320317991032e-04 -1.622508719378e-04 0.0 
1.641582582056e-04 -2.610125935244e-04 0.0 
1.934875165759e-04 -3.035559154932e-04 0.0 
2.034540964094e-04 -5.333633277561e-05 0.0 
5.403092403669e-04 6.104480510820e-03 0.0 
1.853277216411e-04 -3.142359417347e-04 0.0 
1.905259934034e-04 -2.151481892407e-04 0.0 
6.994739604630e-05 -2.501715199149e-04 0.0 
8.459428963490e-04 6.218172772623e-03 0.0 
1.618943480499e-04 -1.993261470011e-04 0.0 
2.493264961718e-04 -7.640518811301e-05 0.0 
1.297935758171e-04 -2.046399701037e-04 0.0 
3.984332151356e-04 3.560715327966e-03 0.0 
2.039603910926e-04 -2.399097956397e-04 0.0 
2.647063837367e-04 -5.279922240049e-05 0.0 
2.838131243839e-04 -3.092921173155e-04 0.0 
2.477394008170e-04 -6.460010295528e-05 0.0 
9.703206215970e-05 -1.257172906037e-04 0.0 
1.805545909502e-04 -4.316257127031e-05 0.0 
6.360601088454e-04 -2.377506856718e-04 0.0 
8.650568245377e-05 -2.526434123645e-04 0.0 
6.232420459493e-04 7.157080888567e-03 0.0 
6.417807753675e-04 -7.278469967262e-05 0.0 
1.603354060516e-03 7.463723791123e-04 0.0 
6.115925782483e-04 6.134279600972e-03 0.0 
3.220003865660e-04 -3.059478667326e-04 0.0 
1.146090727694e-03 5.753269809137e-03 0.0 
9.499032149135e-05 -2.620722771162e-04 0.0 
1.804139185353e-04 -1.528009464650e-05 0.0 
6.782845963219e-04 -4.676705199390e-05 0.0 
1.006914161162e-03 7.474569352655e-05 0.0 
4.934586050579e-04 2.200646838123e-03 0.0 
4.186571776339e-04 -1.351195899889e-04 0.0 
1.576699911656e-04 -2.765000926953e-04 0.0 
3.468939801468e-04 -9.064859863954e-05 0.0 
1.867074482825e-04 -5.681061978844e-06 0.0 
3.972125402544e-04 -2.829661454114e-04 0.0 
1.630400991780e-04 -4.331873533573e-05 0.0 
6.659582436773e-04 4.653602084396e-03 0.0 
3.915252884591e-04 -3.064650084219e-04 0.0 
2.956646883922e-04 -7.708725449194e-05 0.0 
1.103160849535e-03 7.286964325765e-03 0.0 
9.782831568822e-05 -2.296208512357e-04 0.0 
2.182386236832e-04 -2.317064064374e-04 0.0 
1.793181896498e-03 5.843118382449e-04 0.0 
2.232091345362e-04 -5.326823295951e-05 0.0 
1.520204894843e-03 1.124359509303e-03 0.0 
1.621681550269e-03 4.204474076170e-04 0.0 
9.843315222492e-04 5.233554681168e-03 0.0 
6.564288143763e-04 6.660406658132e-03 0.0 
1.156493243291e-03 6.774107874731e-03 0.0 
1.174624813652e-04 -1.268756169812e-04 0.0 
2.840730827505e-04 -1.598405944637e-05 0.0 
4.009904466698e-04 -1.050702308756e-04 0.0 
8.522012944574e-04 7.247894315673e-03 0.0 
1.528557127648e-03 1.263990817291e-03 0.0 
1.028666815593e-03 1.179303584955e-04 0.0 
2.698900380498e-04 -6.461686149306e-05 0.0 
6.681653234320e-04 4.162521171433e-03 0.0 
2.933695356237e-04 -2.211632938479e-04 0.0 
2.545955002391e-04 -2.269373496325e-04 0.0 
1.888307340768e-04 -2.855681872659e-04 0.0 
3.726630526803e-04 -7.642785050103e-05 0.0 
2.252795593636e-04 -2.096413883483e-04 0.0 
9.618195858465e-04 5.736165662038e-03 0.0 
1.110136438216e-03 6.263865424961e-03 0.0 
9.632391873912e-04 -1.043363189016e-04 0.0 
2.648299519136e-04 -2.528194716206e-04 0.0 
7.189902352056e-04 -1.543400945401e-04 0.0 
2.391541263752e-04 -2.358947965600e-04 0.0 
2.769052798737e-04 -2.310007700685e-04 0.0 
1.855610518149e-04 -2.756996594129e-04 0.0 
3.502705129223e-04 -2.176734889047e-05 0.0 
4.062403583052e-04 -2.078678007260e-04 0.0 
5.895561017143e-04 3.648110714809e-03 0.0 
4.543286637424e-04 -1.965153187348e-04 0.0 
3.742007020795e-04 -9.061938606876e-05 0.0 
4.087393322530e-04 -1.497285638521e-04 0.0 
1.393799468894e-03 1.729102486612e-04 0.0 
1.689775791344e-04 -2.712256599275e-04 0.0 
2.416388163754e-04 -9.103392299761e-06 0.0 
2.092005337101e-04 -1.713334960649e-06 0.0 
2.005478255775e-03 7.976155164185e-04 0.0 
3.172272425491e-04 -2.249111470036e-04 0.0 
3.964739903862e-04 -1.197662252343e-04 0.0 
8.747261793259e-04 5.718253664733e-03 0.0 
2.619690335490e-04 -2.033917840334e-04 0.0 
1.333030714671e-03 4.212600334176e-04 0.0 
1.842679425030e-04 -2.357815605922e-04 0.0 
3.648765601566e-04 -3.007139636348e-04 0.0 
3.345825689158e-04 -2.140819874376e-04 0.0 
1.712318212902e-04 -2.433567638790e-04 0.0 
1.230003558426e-04 -2.429346005403e-04 0.0 
3.796275072917e-04 -1.483229751000e-04 0.0 
3.203375808050e-04 -7.712781492062e-05 0.0 
1.614080125783e-03 6.716224708939e-04 0.0 
1.779632770112e-04 -3.298978155729e-04 0.0 
5.945887971480e-04 -2.101147839633e-04 0.0 
4.954252096324e-04 -2.124787389404e-04 0.0 
3.603688347213e-04 -2.172768026997e-04 0.0 
1.018164999417e-03 6.255233952384e-03 0.0 
4.116491762459e-04 -1.794277750680e-04 0.0 
1.775899813332e-04 -2.237879964551e-04 0.0 
3.783972321479e-04 -2.053684423705e-04 0.0 
4.604660909987e-04 4.076691525304e-03 0.0 
1.577626862375e-04 -2.201942046277e-04 0.0 
1.703323670362e-04 -3.028854198218e-04 0.0 
1.767414420048e-04 -2.903430040986e-04 0.0 
3.709955855141e-04 -2.915494287853e-04 0.0 
3.045033284808e-04 -2.482064857320e-04 0.0 
5.508523569018e-04 -1.976541475608e-04 0.0 
4.244376751691e-04 -1.948404630999e-04 0.0 
2.928004180873e-04 -3.193037703382e-04 0.0 
1.621641717741e-04 -2.857489090134e-04 0.0 
1.564194708260e-03 6.696337331655e-03 0.0 
1.525820646359e-04 -2.394470520905e-04 0.0 
3.702073584016e-04 -3.393433860912e-05 0.0 
1.660301354734e-03 6.119437548696e-04 0.0 
2.654025904112e-03 4.260397302932e-03 0.0 
1.033985384689e-03 3.249908682189e-03 0.0 
1.515449378588e-03 6.994909392978e-04 0.0 
1.023841625057e-03 -8.495434290796e-05 0.0 
1.870226350738e-03 7.128132799673e-04 0.0 
3.308698869450e-04 -3.149046799565e-04 0.0 
3.409259463295e-04 -1.875284454189e-04 0.0 
1.173404305879e-03 4.207148794535e-05 0.0 
4.435916520667e-04 -2.910967488153e-04 0.0 
2.971099745157e-04 -3.255520958267e-04 0.0 
2.474773697469e-04 -2.134519836827e-04 0.0 
4.646446310649e-04 -2.115293258646e-04 0.0 
5.173912113419e-04 -1.980259962535e-04 0.0 
1.457908907530e-04 -2.282780569764e-04 0.0 
4.569384818661e-04 -1.665506099756e-04 0.0 
5.602380632823e-04 -2.119067055220e-04 0.0 
6.592499727163e-04 -1.902415415194e-04 0.0 
2.821491460326e-04 -2.442322437021e-04 0.0 
8.137501769378e-04 -1.651820441375e-05 0.0 
1.076631225298e-03 5.242027355689e-03 0.0 
7.055851833508e-04 -1.965436609194e-04 0.0 
3.041427906651e-04 -1.362827457113e-05 0.0 
3.740680088559e-04 -3.081999341803e-04 0.0 
2.735356839496e-04 8.796020630432e-06 0.0 
5.046096677440e-04 -1.828130202511e-04 0.0 
1.337953443579e-03 6.761280906937e-04 0.0 
2.487677908466e-03 1.804226982342e-03 0.0 
3.392995553007e-04 -3.077301285681e-04 0.0 
2.672346988084e-03 3.490756889848e-03 0.0 
1.325304662893e-03 2.697916865908e-03 0.0 
5.568731167717e-04 -1.665415459964e-04 0.0 
9.857893608087e-04 1.507546187876e-04 0.0 
2.623212810193e-03 2.809913570795e-03 0.0 
1.771734626349e-03 7.326266250106e-04 0.0 
3.066797882105e-04 -3.205249122111e-04 0.0 
5.404433817582e-04 1.351701799581e-03 0.0 
2.726231785194e-04 -3.238766348034e-04 0.0 
5.659159458975e-04 6.580612149621e-05 0.0 
4.240851351626e-04 2.639342867611e-03 0.0 
7.083758156772e-04 -1.892772957986e-05 0.0 
8.934575029389e-04 6.746813603598e-03 0.0 
1.070464726798e-03 3.739832108312e-03 0.0 
6.215558256300e-04 -1.939505544352e-04 0.0 
9.791926076159e-04 -7.301098196457e-05 0.0 
8.239219757758e-04 2.297091870844e-03 0.0 
2.868094959895e-04 -5.226297668929e-05 0.0 
1.185610508128e-03 4.735040326326e-03 0.0 
5.986621812079e-04 -5.961275214055e-05 0.0 
3.464134532149e-04 -3.148278395843e-04 0.0 
1.282261728278e-03 4.217517230815e-03 0.0 
7.023942611267e-04 2.402385737121e-04 0.0 
2.227950302527e-04 5.535317349416e-07 0.0 
3.678251025105e-04 -1.902964611226e-04 0.0 
9.785861994866e-04 6.765962786053e-03 0.0 
1.017225244530e-03 7.287450709665e-03 0.0 
4.723276987120e-04 -1.822517558081e-04 0.0 
3.416847926580e-04 -6.345042436172e-05 0.0 
3.587565828782e-04 -4.894556255309e-05 0.0 
1.798184179453e-04 -2.990789275174e-04 0.0 
6.140838769198e-04 -1.541074662098e-04 0.0 
7.818573407798e-04 -1.693009589766e-04 0.0 
6.670136599681e-04 -2.026481011874e-04 0.0 
1.527715317055e-03 3.699178201180e-04 0.0 
6.635420678059e-04 1.831073260790e-03 0.0 
1.697411726100e-03 1.803506149373e-03 0.0 
4.810398357650e-04 2.667628796844e-03 0.0 
1.774552069861e-03 1.468539890629e-03 0.0 
1.560066308881e-03 3.609404999938e-03 0.0 
3.166660427154e-04 -6.412117621054e-05 0.0 
6.169317329458e-04 2.264712876150e-03 0.0 
1.495606682234e-03 4.664961137358e-03 0.0 
3.828797297447e-04 -1.773831314462e-04 0.0 
8.304356337728e-04 -1.660006638597e-04 0.0 
1.183033807562e-03 4.231746406649e-03 0.0 
8.960139385536e-04 2.765776513720e-03 0.0 
9.083967732756e-04 4.223168348324e-03 0.0 
1.088972747704e-03 4.737814273799e-03 0.0 
2.467858488176e-04 -1.974139791422e-05 0.0 
7.059434084339e-04 8.787750082306e-05 0.0 
3.053168387563e-04 -2.635081696700e-05 0.0 
3.450436392676e-04 -1.044029042351e-04 0.0 
2.078891107628e-03 3.766554029938e-03 0.0 
7.302566879310e-04 9.943849031731e-06 0.0 
2.039250379608e-03 4.240977337160e-03 0.0 
1.408053040932e-04 -2.465107742660e-04 0.0 
7.391837007516e-04 -1.781219623941e-04 0.0 
7.328739497464e-04 -1.334460831047e-04 0.0 
9.666701563940e-04 -4.054446254447e-05 0.0 
4.930577546936e-04 -2.555975975337e-04 0.0 
7.871427735473e-04 -1.784636198499e-04 0.0 
9.231554655322e-04 -9.447931055421e-06 0.0 
2.377462530504e-03 2.722753455392e-03 0.0 
3.682696765108e-04 -1.619512524965e-04 0.0 
1.562392436570e-03 5.663586265076e-03 0.0 
8.663995801483e-04 8.910358444108e-03 0.0 
9.950147368214e-05 2.152407117627e-04 0.0 
3.678339049167e-04 -1.190696860230e-04 0.0 
6.469569608992e-04 -1.015310578569e-05 0.0 
1.425664949415e-03 1.611791874306e-03 0.0 
9.479564118611e-04 -9.801483587170e-05 0.0 
3.609052672031e-04 -1.330174620256e-04 0.0 
1.244719309442e-03 5.748892680353e-03 0.0 
1.173172228932e-04 4.462615348735e-04 0.0 
7.526278019407e-04 -8.380791292108e-06 0.0 
8.957677353043e-04 -8.082638200252e-05 0.0 
2.504767054500e-03 2.819904042886e-03 0.0 
3.336371083753e-04 -5.039803249434e-05 0.0 
4.265838299153e-04 -2.981960301047e-04 0.0 
3.453233921503e-04 -3.616202181040e-05 0.0 
2.936331850506e-04 -1.668956601402e-06 0.0 
8.637302241411e-04 -2.783938913615e-06 0.0 
9.965592341626e-04 4.233321523864e-03 0.0 
1.399190481691e-03 3.431996401548e-04 0.0 
2.753030208326e-04 -4.480740728931e-06 0.0 
1.546373848515e-04 7.860992859447e-04 0.0 
1.375841071060e-03 5.214939931686e-03 0.0 
8.277329033040e-04 1.437490530348e-04 0.0 
9.806279138215e-04 3.738633278055e-03 0.0 
9.217821095014e-04 -3.288609446115e-05 0.0 
8.722929878626e-04 -1.447874673915e-04 0.0 
2.111379828007e-04 -1.224989325982e-04 0.0 
3.154302206841e-04 -2.119602768298e-04 0.0 
7.863195879189e-04 3.229648725941e-03 0.0 
1.159816613441e-04 -2.324837038705e-04 0.0 
2.424157136731e-04 1.276613073721e-03 0.0 
1.596484196653e-03 4.604197999686e-04 0.0 
4.368680263260e-04 2.176073585428e-03 0.0 
3.774314417277e-04 -3.103764400667e-04 0.0 
1.960797002566e-03 7.695936626074e-04 0.0 
1.388781932433e-03 4.700874802745e-03 0.0 
2.989790759826e-04 -1.425158099132e-04 0.0 
4.767532344390e-04 -2.699010717469e-04 0.0 
8.845779970675e-04 1.189254487126e-04 0.0 
3.095973176287e-04 -3.245479999278e-04 0.0 
3.928357404999e-04 -3.057022758844e-04 0.0 
3.482714065030e-04 -3.167275021810e-04 0.0 
9.492535505638e-04 -6.544787460402e-05 0.0 
2.909226454892e-04 4.257850155571e-04 0.0 
4.635041802007e-04 2.050620645237e-03 0.0 
1.947479126701e-04 -1.413594955203e-05 0.0 
9.031560374936e-04 -1.318748149142e-04 0.0 
1.704739707469e-03 5.069410152404e-03 0.0 
3.926300813013e-04 -2.219816853871e-04 0.0 
2.546253319388e-04 5.605296847183e-06 0.0 
3.347106975934e-04 -3.194439759402e-04 0.0 
1.185622872615e-04 -2.130606849961e-04 0.0 
8.985709010757e-04 3.405966599919e-05 0.0 
5.728009158091e-04 -1.817661395784e-04 0.0 
8.625593228912e-04 1.184575710766e-04 0.0 
1.131929629356e-03 4.270116069339e-04 0.0 
1.908393678940e-03 3.859074662405e-03 0.0 
5.909434804306e-04 7.696573433616e-05 0.0 
1.271897567470e-03 5.234876279433e-03 0.0 
1.472604915263e-03 1.544164477338e-03 0.0 
1.358475382673e-03 3.694279503925e-03 0.0 
1.405341018261e-03 3.171236831512e-03 0.0 
4.653343006684e-04 -8.374377951047e-05 0.0 
1.961460049846e-04 -2.340204373031e-05 0.0 
1.488195530358e-03 4.156552304801e-03 0.0 
1.193026800930e-03 6.453609454361e-06 0.0 
1.138002418075e-03 3.287891745958e-03 0.0 
4.994850509710e-04 7.538338610653e-05 0.0 
5.391879222769e-04 -1.941809486777e-04 0.0 
1.269954357118e-04 -2.248908824821e-04 0.0 
9.258043143250e-04 1.082655586890e-04 0.0 
1.715852389718e-05 -2.508345672167e-04 0.0 
1.543148717286e-03 2.874399256691e-04 0.0 
7.751000373835e-04 2.232794166327e-05 0.0 
1.142151559126e-03 2.283628925288e-03 0.0 
1.086491545194e-03 1.807823833486e-03 0.0 
8.474511985964e-04 1.773756683957e-05 0.0 
1.123659067569e-03 3.243636514262e-03 0.0 
1.012613135877e-03 -7.966158932829e-05 0.0 
1.808916040144e-03 7.116278462595e-04 0.0 
1.464613085361e-03 5.643050880690e-03 0.0 
1.602764582956e-03 1.143612469011e-03 0.0 
1.625158262286e-03 7.530076676965e-03 0.0 
1.772315186289e-03 7.937216921050e-03 0.0 
1.017089967545e-03 -8.314812263440e-05 0.0 
1.863801440139e-03 8.093069431579e-03 0.0 
1.468627252281e-03 2.011188858091e-04 0.0 
1.250885120859e-03 7.589313830332e-05 0.0 
8.157306118204e-04 -1.487563223734e-04 0.0 
4.353589768155e-04 -2.783818976742e-04 0.0 
9.208044079543e-04 -1.282929326781e-04 0.0 
8.177367226712e-04 2.760112744183e-03 0.0 
1.508375873373e-03 1.351309881915e-03 0.0 
2.364862920880e-04 -4.213059838031e-05 0.0 
7.443452190796e-04 1.046343299612e-04 0.0 
6.091536506716e-04 -1.798544680115e-04 0.0 
1.309703118883e-03 3.205782323663e-03 0.0 
8.628733986776e-04 -1.367057867785e-04 0.0 
1.531576178303e-04 -1.706787784942e-05 0.0 
1.259366330393e-03 3.719330764551e-03 0.0 
1.660991703560e-03 3.545721692277e-03 0.0 
8.202719452987e-04 -3.789019435678e-05 0.0 
9.714382522705e-04 -1.101601968628e-04 0.0 
1.560194313170e-03 5.943709815437e-04 0.0 
2.554198542445e-03 2.050189013219e-03 0.0 
4.216946678963e-04 -2.898966747425e-04 0.0 
5.242789585895e-04 -2.180416654412e-04 0.0 
1.208150856095e-03 3.697635937943e-04 0.0 
2.054233143838e-03 9.202942662308e-04 0.0 
1.153590737871e-04 -1.180211041295e-05 0.0 
1.594148557189e-03 4.106223292965e-03 0.0 
9.222518153220e-04 -1.323105903656e-04 0.0 
2.088692764514e-03 9.020588228127e-04 0.0 
6.582825554637e-04 1.556089478597e-05 0.0 
8.658713558307e-04 3.243046082394e-03 0.0 
1.480702777281e-03 6.316237934289e-04 0.0 
1.787692216868e-03 5.520905843496e-03 0.0 
4.536287840393e-04 -6.157001509787e-06 0.0 
8.961020432393e-04 -1.138897690351e-04 0.0 
6.192348146954e-04 6.010878256297e-06 0.0 
1.623583982476e-03 3.732208368837e-04 0.0 
9.018811169166e-04 2.309788477476e-03 0.0 
1.315145402839e-03 6.155766763928e-04 0.0 
8.602808681043e-04 -7.063096774420e-05 0.0 
4.746973289821e-04 -2.277890814722e-04 0.0 
1.263751346203e-03 2.976845945103e-04 0.0 
1.585170409069e-03 2.946668645251e-04 0.0 
9.634361456382e-04 -1.089367274009e-04 0.0 
8.688786364712e-04 -4.759409226237e-05 0.0 
4.232141036585e-04 -2.810322311252e-05 0.0 
4.622728649640e-04 -2.476983341947e-04 0.0 
8.738524237345e-04 -1.042644225265e-04 0.0 
2.619853963972e-03 3.078040939494e-03 0.0 
1.044075480937e-04 -1.242544017475e-05 0.0 
2.538072491950e-03 2.458157147389e-03 0.0 
1.464645088271e-03 4.001762676409e-04 0.0 
2.640586529086e-03 3.784416588159e-03 0.0 
2.470074059010e-03 5.386452517454e-03 0.0 
2.411260964351e-03 1.591796524792e-03 0.0 
7.746274457242e-04 8.041059995494e-05 0.0 
2.260630902243e-04 -3.187966929206e-05 0.0 
1.714059758834e-03 4.549325065803e-03 0.0 
1.013769615860e-03 1.835983068187e-03 0.0 
2.591516393692e-03 4.562844055773e-03 0.0 
7.820546927076e-04 -1.714375424749e-04 0.0 
1.173313373932e-03 2.940452523792e-04 0.0 
6.810869477494e-04 2.272276513176e-03 0.0 
1.393245122121e-03 1.494845612808e-04 0.0 
1.530998394023e-03 2.544020348384e-04 0.0 
8.604389154394e-04 -1.550713932155e-04 0.0 
1.805359614895e-03 3.959768082115e-03 0.0 
1.609983917797e-03 1.013589891023e-03 0.0 
1.421386025133e-03 1.809624047184e-04 0.0 
1.535440495721e-03 8.326880211047e-04 0.0 
9.207271814463e-04 7.162731014624e-05 0.0 
8.881788492424e-04 2.314163783408e-04 0.0 
8.282278251781e-04 -1.714792379858e-04 0.0 
3.144409914380e-04 -2.368003988257e-04 0.0 
1.222159175428e-03 1.729838301290e-03 0.0 
1.852097328925e-03 1.325450023068e-03 0.0 
6.699667943686e-04 -1.585871670637e-04 0.0 
1.013097853156e-03 2.469939935267e-04 0.0 
1.824345421861e-03 4.466553162614e-03 0.0 
2.772560188136e-04 -4.062684335508e-05 0.0 
1.117201626628e-03 -5.053262293574e-06 0.0 
2.804883430035e-04 -2.434717221825e-04 0.0 
7.293057496898e-05 -7.715739879437e-06 0.0 
1.931079584929e-03 6.870887578429e-04 0.0 
1.150074072754e-03 1.062411635662e-04 0.0 
1.378137514906e-03 4.968311661056e-04 0.0 
2.217219034488e-04 -2.324383283642e-04 0.0 
2.990648812568e-04 -3.943265100894e-05 0.0 
7.448322513347e-04 -2.111379861994e-05 0.0 
1.904278137771e-03 5.417905948939e-03 0.0 
2.887312844130e-04 -1.154612215924e-04 0.0 
8.715325866355e-04 -1.542836992051e-04 0.0 
1.398464783742e-04 -1.784041859381e-05 0.0 
1.547009363553e-03 2.629997007693e-04 0.0 
8.041729441465e-04 -1.745378570654e-04 0.0 
1.975179434970e-03 7.310063841346e-04 0.0 
2.801593094201e-04 -2.653530350551e-04 0.0 
1.794091847744e-03 6.147832359262e-04 0.0 
8.696947003327e-04 5.263037575338e-05 0.0 
1.143436622460e-03 5.897826521546e-04 0.0 
1.596089698486e-03 5.343660089685e-04 0.0 
6.109455605470e-04 -2.162777486394e-04 0.0 
2.171396801203e-04 -4.261636747712e-05 0.0 
5.989842556619e-04 1.811921672660e-03 0.0 
4.136137276038e-04 7.572743388782e-05 0.0 
8.762742478037e-04 8.697541670548e-05 0.0 
1.075832395825e-03 -5.287631252788e-05 0.0 
1.920204012722e-03 6.799600961076e-04 0.0 
8.365089597251e-05 -1.337652885935e-05 0.0 
6.493410866405e-05 -1.142581626969e-04 0.0 
1.668569880901e-03 5.360200563174e-04 0.0 
1.592239657699e-03 5.134717212122e-03 0.0 
1.803648403423e-04 -2.423784857418e-05 0.0 
2.841778023658e-04 -2.816897622429e-05 0.0 
3.610211411604e-04 9.409016462886e-03 0.0 
2.429647366800e-04 9.410374269829e-03 0.0 
2.528577624787e-03 2.932029384011e-03 0.0 
1.825659849585e-03 5.997965356203e-04 0.0 
2.453961124127e-04 -1.004957693249e-04 0.0 
2.383206390990e-03 1.586210618724e-03 0.0 
1.429711708512e-03 1.658987067054e-04 0.0 
4.370179910842e-04 2.521957075182e-05 0.0 
1.131768994968e-03 -1.633943388860e-05 0.0 
2.630837573616e-04 4.502561229610e-04 0.0 
2.390224763629e-03 6.275090539235e-03 0.0 
1.453921804738e-03 1.875146919789e-04 0.0 
3.141772830803e-04 -1.168490904063e-04 0.0 
5.957319385415e-04 -1.825702957996e-04 0.0 
3.408494587508e-04 -1.597748969427e-04 0.0 
1.912720239377e-03 6.497162123358e-04 0.0 
2.207746637855e-03 1.143157058286e-03 0.0 
1.931611291399e-03 4.883638354658e-03 0.0 
2.270893570574e-03 1.384750001980e-03 0.0 
2.197564064646e-03 1.352602456226e-03 0.0 
5.569997429918e-05 -2.697615162674e-04 0.0 
3.285603558037e-04 -1.724387601887e-04 0.0 
1.763645089677e-03 1.101468478488e-03 0.0 
2.578673408200e-03 2.284617939841e-03 0.0 
2.518962313369e-03 2.224663994104e-03 0.0 
6.395100486139e-04 6.110154047364e-05 0.0 
8.349504033060e-06 -2.434541844079e-04 0.0 
4.084288303267e-04 -2.721715825701e-04 0.0 
1.780767671161e-03 5.215977056301e-04 0.0 
3.026897163519e-04 -1.696722050221e-04 0.0 
1.886717620680e-03 7.376209083705e-03 0.0 
1.977118837280e-03 7.676675309880e-03 0.0 
2.043482185101e-03 4.758755948914e-03 0.0 
4.111365051266e-04 -5.256945800825e-05 0.0 
2.822310549867e-04 -1.279987835786e-04 0.0 
6.084201575082e-04 -1.816861105393e-05 0.0 
4.190381982207e-04 -2.557914933037e-04 0.0 
5.549232325323e-04 1.793882897241e-04 0.0 
1.150581761609e-03 2.759398022452e-03 0.0 
2.261447228469e-04 -1.359757963597e-04 0.0 
1.909353136144e-04 -3.320124323274e-05 0.0 
1.061325440279e-04 -2.880931016023e-04 0.0 
5.886103808166e-04 -4.182530420366e-05 0.0 
1.840801059425e-03 5.686786303534e-04 0.0 
8.131528214464e-05 -2.821145666051e-04 0.0 
1.063646762574e-03 2.772200952425e-03 0.0 
3.864996628093e-04 -2.442216910483e-04 0.0 
2.534466032329e-03 2.038948766253e-03 0.0 
2.115214008285e-03 9.724765516324e-04 0.0 
6.863457371384e-04 -1.722951961069e-04 0.0 
5.294167715674e-04 -1.017870733651e-04 0.0 
1.063066557219e-03 2.310564589682e-03 0.0 
4.931055841720e-04 -7.047959570321e-05 0.0 
1.667940744864e-03 3.742571637295e-04 0.0 
1.694203995008e-03 4.197732452574e-04 0.0 
9.187999096295e-05 1.285101123675e-04 0.0 
3.476127700425e-04 -2.512964179323e-04 0.0 
1.384183641092e-03 3.988184577258e-04 0.0 
2.420341782924e-03 5.089749256678e-03 0.0 
1.228291062241e-03 3.382024881087e-04 0.0 
7.667183481534e-04 3.100140772234e-05 0.0 
2.053524755922e-03 2.443646799799e-03 0.0 
1.325697425042e-03 4.374458731676e-04 0.0 
2.226656994811e-03 6.979790773861e-03 0.0 
1.443542567059e-03 4.574079427046e-04 0.0 
1.741052625711e-04 -3.367934720983e-05 0.0 
1.751786239155e-03 4.833518809432e-04 0.0 
3.249408696187e-04 -1.446673225525e-04 0.0 
3.336388472901e-04 -1.315381650318e-04 0.0 
1.289104245979e-03 1.686180061048e-03 0.0 
5.502564848026e-04 -1.342799389852e-04 0.0 
2.065877717055e-03 8.656935743007e-04 0.0 
1.221341827652e-03 3.225782500574e-05 0.0 
4.411435042974e-04 -4.212241164362e-05 0.0 
1.323121433280e-03 9.425504060456e-05 0.0 
6.400888321737e-04 -2.219284145455e-04 0.0 
7.968225603984e-04 -1.041514551852e-04 0.0 
7.231051054259e-04 -1.881519617996e-04 0.0 
2.439890824989e-03 1.787400829308e-03 0.0 
6.933455412306e-04 -2.078340266746e-04 0.0 
2.337562957602e-03 1.394021965897e-03 0.0 
7.332216204373e-04 6.479425244547e-05 0.0 
7.838359414032e-04 5.236213480315e-05 0.0 
1.259259207649e-03 5.958469360524e-05 0.0 
2.134523515365e-03 5.141222893072e-03 0.0 
1.502236498430e-04 -2.548849329566e-05 0.0 
1.357226487764e-04 -2.593684038755e-05 0.0 
3.074793973509e-04 -2.981904829416e-05 0.0 
2.246008052656e-03 1.227008305436e-03 0.0 
8.134433166636e-05 -7.173404339544e-06 0.0 
1.215785630489e-03 1.812654930772e-03 0.0 
2.176115274341e-04 -1.109901415756e-04 0.0 
1.134335053602e-04 1.544142032105e-04 0.0 
1.143939516142e-04 -1.891209544750e-05 0.0 
6.332580562972e-04 -1.946900745641e-04 0.0 
5.312193821930e-05 -1.042630110360e-04 0.0 
1.215191842435e-03 1.384271062285e-04 0.0 
2.243783471513e-03 4.969673222609e-03 0.0 
2.317236386203e-03 5.312933567563e-03 0.0 
1.797671118707e-03 5.071516838519e-04 0.0 
1.606496816857e-03 5.855234183757e-03 0.0 
1.756149027904e-03 6.764844193530e-03 0.0 
1.020510561904e-04 -1.932084859221e-05 0.0 
5.303100494541e-04 -8.473395186749e-05 0.0 
6.898372668986e-04 -1.395953597439e-04 0.0 
6.267279579299e-04 -3.546724174120e-05 0.0 
7.997147118702e-04 -1.377200201086e-04 0.0 
6.921608921191e-04 -1.806586755952e-04 0.0 
1.476359440178e-03 6.776187629986e-03 0.0 
2.385412265634e-03 5.990643944271e-03 0.0 
3.044257761408e-04 9.700908899621e-03 0.0 
7.403609809332e-04 3.838179987265e-05 0.0 
1.196345761008e-03 1.447687165224e-05 0.0 
5.290335662111e-04 8.668499269522e-05 0.0 
4.267283788538e-05 -2.096026041798e-05 0.0 
8.246078792227e-04 -1.160441380050e-04 0.0 
6.748402991158e-05 -3.028469094405e-06 0.0 
6.835048166725e-04 -2.235172596660e-04 0.0 
6.941304468302e-04 1.214265723594e-04 0.0 
1.711374480299e-03 4.145546776007e-04 0.0 
1.586008676723e-03 3.565661867424e-04 0.0 
4.212331276524e-04 5.063491712407e-06 0.0 
3.671558578904e-04 -2.315713537885e-04 0.0 
2.175110250852e-03 1.050446945463e-03 0.0 
7.543656818691e-04 -1.464227515672e-04 0.0 
2.244827832963e-03 1.184762203605e-03 0.0 
8.550951367581e-04 5.553737237678e-05 0.0 
1.420623585950e-03 2.633475089945e-04 0.0 
7.277079417910e-04 -1.662800572496e-04 0.0 
2.690198836893e-04 -1.016084289571e-04 0.0 
2.330810562916e-03 1.371749233894e-03 0.0 
1.421915453223e-04 1.082648926500e-06 0.0 
1.211839392716e-03 5.842496161625e-05 0.0 
1.865245732596e-04 1.455811227489e-04 0.0 
1.517689397181e-04 -2.902664218645e-04 0.0 
2.406195856685e-04 -1.125001832171e-04 0.0 
1.781267727251e-03 7.897669343873e-04 0.0 
2.441026561987e-03 4.568214048323e-03 0.0 
1.414053285485e-03 3.548128034895e-03 0.0 
1.357777182388e-04 2.153019487464e-04 0.0 
8.235891688997e-05 5.768623447307e-05 0.0 
1.588119375878e-03 4.649181918606e-03 0.0 
6.641750457155e-04 -1.254078291015e-04 0.0 
1.887188154687e-04 -1.207202287492e-04 0.0 
2.268217181950e-03 3.922640121397e-03 0.0 
5.989502955540e-04 -2.435094459513e-04 0.0 
5.595217370931e-04 -1.171045378734e-04 0.0 
1.825490448618e-03 5.442716395425e-04 0.0 
1.160923006472e-03 8.196311502508e-05 0.0 
1.812211093941e-03 1.214291365738e-03 0.0 
3.589247514740e-04 -6.367238858659e-05 0.0 
2.497418093305e-04 -1.381172269555e-04 0.0 
1.737022758514e-04 -1.080042709429e-04 0.0 
2.674376650896e-04 -2.650267769708e-04 0.0 
2.221175945141e-03 7.096565081367e-03 0.0 
2.522551444920e-03 4.331181175189e-03 0.0 
1.586535832436e-05 -4.249505574262e-05 0.0 
9.441755021249e-05 -2.885480815853e-04 0.0 
1.894930813945e-04 -2.144284634936e-04 0.0 
2.356860750062e-04 -2.988797434409e-04 0.0 
1.525249055943e-04 -1.066764614168e-04 0.0 
7.421379984835e-04 -2.036339676531e-04 0.0 
5.919167191702e-04 -2.513908622104e-04 0.0 
6.147408885996e-04 -2.376482436846e-04 0.0 
2.005767473337e-04 -9.816217207709e-05 0.0 
2.498318030800e-03 3.156543472431e-03 0.0 
1.378577320051e-04 -9.477773910036e-05 0.0 
7.802813309533e-04 -1.904677544541e-04 0.0 
2.169538075859e-03 1.070420315292e-03 0.0 
1.411344681139e-03 7.782240684912e-03 0.0 
1.085272823031e-03 1.458446019887e-04 0.0 
1.178322646724e-04 -9.392311221939e-05 0.0 
1.790866630831e-04 -9.695500529335e-05 0.0 
6.694556413350e-04 2.201343186360e-03 0.0 
7.079076823144e-04 -2.063674448270e-04 0.0 
1.034023157337e-04 -8.281291954313e-05 0.0 
5.847917959620e-05 5.881293838759e-03 0.0 
6.298347942079e-05 6.862477887594e-03 0.0 
9.814864780358e-04 2.798565929112e-03 0.0 
1.626120469246e-04 -8.500614993957e-05 0.0 
5.058032013428e-04 -2.625402322309e-04 0.0 
2.736660817149e-04 1.960350670374e-04 0.0 
6.588938063164e-04 1.050241700630e-04 0.0 
2.644483403890e-04 -3.144435796227e-04 0.0 
5.083266980777e-04 -2.516771027719e-04 0.0 
1.254680916076e-03 6.300298831952e-05 0.0 
1.472879346461e-03 4.293117028561e-03 0.0 
8.424972075300e-05 -8.238831395215e-05 0.0 
1.706841932987e-05 -2.200285843504e-04 0.0 
2.268448259678e-03 6.838839873217e-03 0.0 
1.425604861038e-04 -8.415669327268e-05 0.0 
6.304688549881e-04 -1.624374260525e-04 0.0 
2.577431275188e-04 -1.261504048354e-04 0.0 
1.726394666844e-04 -6.805311608524e-05 0.0 
7.861353156992e-05 3.004562920893e-03 0.0 
6.000023533956e-04 -2.226536367143e-04 0.0 
5.393498615847e-04 3.180026799018e-05 0.0 
1.509867107820e-03 2.940169234813e-04 0.0 
1.269474281468e-04 -7.310979466018e-05 0.0 
1.078147251094e-04 -7.262064781160e-05 0.0 
6.972392998370e-04 -2.201017225805e-04 0.0 
2.480623220649e-04 -3.321798880292e-04 0.0 
1.717504934427e-04 -2.814884667839e-05 0.0 
9.292366155724e-05 -6.237682682358e-05 0.0 
4.501553628367e-04 1.054985661483e-05 0.0 
4.257628177919e-04 -2.621728728952e-04 0.0 
2.064710929377e-03 9.398986761948e-04 0.0 
9.520214534587e-04 1.404253552100e-03 0.0 
2.207393238990e-03 1.223322247586e-03 0.0 
1.395997543189e-04 6.383443704842e-06 0.0 
1.231974803602e-04 -1.919025327545e-04 0.0 
1.205290491206e-05 2.600426585789e-04 0.0 
3.020192411250e-06 1.291888575611e-07 0.0 
3.809552802381e-05 8.417782862913e-03 0.0 
5.028402803145e-04 -2.264852768986e-04 0.0 
1.669231945483e-03 4.014508797707e-04 0.0 
7.673201211179e-04 -1.927386795234e-04 0.0 
1.568601590396e-04 -2.986670092541e-04 0.0 
1.019462518524e-04 7.782106762621e-05 0.0 
3.422611348655e-04 2.147819017112e-03 0.0 
2.557833910987e-03 3.596214726225e-03 0.0 
2.014562882355e-03 7.743991751591e-03 0.0 
2.557220279177e-04 7.512380601724e-05 0.0 
1.664668653638e-05 -2.360329649850e-04 0.0 
2.238150238306e-04 5.935880441442e-05 0.0 
2.502308337241e-03 3.840532560414e-03 0.0 
4.147168800559e-04 -2.224744401603e-04 0.0 
1.656639516538e-03 3.697736321187e-04 0.0 
4.776506456510e-04 -2.393681017945e-04 0.0 
3.186794590907e-04 3.020774847845e-04 0.0 
4.247045027106e-04 -2.498043990694e-04 0.0 
2.433021706691e-03 2.547152651665e-03 0.0 
4.213114448639e-05 -1.479080346506e-05 0.0 
5.691185123692e-04 -2.370934479037e-04 0.0 
2.081161577203e-03 1.064637227605e-03 0.0 
1.472887235217e-04 -2.199665318329e-04 0.0 
6.695609486691e-04 -2.227545294576e-04 0.0 
2.171086648777e-03 2.859210008739e-03 0.0 
3.472595187832e-04 -2.421882567769e-04 0.0 
3.762833560149e-04 -2.701358755380e-04 0.0 
1.575044735587e-03 2.978089544917e-04 0.0 
3.443238910231e-04 -3.126456888554e-04 0.0 
3.407708470117e-04 1.388845847735e-03 0.0 
4.646807008178e-04 1.762614931927e-03 0.0 
3.300570627645e-04 -2.643793242746e-04 0.0 
6.242416521754e-04 -1.295923772099e-04 0.0 
1.310919149415e-03 8.066234330814e-05 0.0 
2.014949244388e-03 9.378016463574e-04 0.0 
1.300602637555e-03 9.784785085997e-04 0.0 
6.937113377605e-04 2.578017423617e-03 0.0 
1.113822796603e-04 4.863626027998e-03 0.0 
1.102538694978e-03 4.829745128252e-04 0.0 
7.154423054836e-04 -2.093204298078e-04 0.0 
1.721964296330e-04 2.096211549228e-04 0.0 
1.155486257473e-03 1.518674944088e-03 0.0 
5.731629306241e-04 -1.498226152181e-04 0.0 
2.244323857395e-03 1.510213902983e-03 0.0 
6.104059339780e-04 -1.476301668410e-04 0.0 
2.724489619105e-04 -7.922241771337e-05 0.0 
6.015725844974e-04 -9.635432732748e-05 0.0 
3.769018362061e-04 4.319699559726e-04 0.0 
1.243737963706e-03 3.796873411094e-05 0.0 
5.962639011120e-04 -1.146094244752e-04 0.0 
1.511495595630e-03 2.669369388826e-04 0.0 
4.098756251559e-04 6.072767421329e-03 0.0 
3.076352650812e-04 -2.608072442120e-04 0.0 
2.383718811543e-04 1.089449714604e-04 0.0 
5.657236983652e-04 -8.179631922813e-05 0.0 
4.538969862886e-04 5.969506040630e-04 0.0 
1.834663983212e-04 -1.905654854905e-04 0.0 
2.980727283261e-05 1.961098895043e-03 0.0 
3.948292563116e-05 2.932658816426e-03 0.0 
2.180771857006e-04 -3.385429831818e-04 0.0 
5.616044778506e-04 -6.418787639401e-05 0.0 
2.515907215699e-04 -2.833023807449e-04 0.0 
2.501553612708e-04 -2.724057500224e-04 0.0 
1.836263922763e-03 8.892325563790e-04 0.0 
1.436218996448e-03 2.119712040694e-04 0.0 
1.875996600048e-03 8.121995364270e-04 0.0 
6.349578588666e-04 -2.291786112168e-04 0.0 
6.615255697940e-04 9.733907210980e-03 0.0 
9.600707119305e-05 3.922924565350e-06 0.0 
2.353889393042e-04 -2.893301053858e-04 0.0 
6.219810960647e-04 2.942851187393e-05 0.0 
1.356832742030e-03 1.142758787108e-04 0.0 
6.311210639060e-05 -2.566275935806e-04 0.0 
2.409201909832e-03 1.935145650528e-03 0.0 
7.467916324828e-04 -1.971084071750e-04 0.0 
2.487076733640e-04 -3.353273378502e-04 0.0 
6.219095340047e-04 -2.442687447512e-04 0.0 
8.526895123365e-06 -5.076834721863e-05 0.0 
2.439157727633e-03 2.341407783742e-03 0.0 
2.601493245243e-04 -3.216256030205e-04 0.0 
3.580598007858e-05 -1.064547289096e-04 0.0 
2.050107284234e-03 1.165038213894e-03 0.0 
1.030561365473e-03 1.588921229594e-04 0.0 
3.753604935581e-04 -2.581247752666e-04 0.0 
3.445509048954e-05 -2.196800841071e-04 0.0 
1.322990644744e-03 1.023274328274e-04 0.0 
3.035568920300e-05 6.394189197168e-03 0.0 
2.542938138580e-04 -3.308204558034e-04 0.0 
7.524566464196e-04 2.891960979056e-04 0.0 
7.964443597459e-04 6.945258035956e-04 0.0 
1.342400468002e-04 7.757059338304e-03 0.0 
6.066306739220e-04 1.386932161411e-03 0.0 
7.693612564394e-04 5.115905174651e-04 0.0 
6.347330691294e-04 -2.188959668542e-04 0.0 
5.376588812439e-04 -2.389329818037e-04 0.0 
3.031922243049e-04 3.874967846170e-05 0.0 
1.259382969534e-04 -1.647808874430e-04 0.0 
8.297182503320e-06 -2.281582165169e-04 0.0 
2.622971630544e-05 -9.809933249499e-05 0.0 
3.510674757000e-04 -2.552439573175e-04 0.0 
5.338585369302e-04 -2.603692761371e-04 0.0 
2.057684619547e-04 8.595053360376e-04 0.0 
2.608241597661e-04 1.086953949864e-03 0.0 
1.214259461371e-03 7.817130760270e-03 0.0 
6.635462001909e-04 -2.299632467330e-04 0.0 
8.990600515269e-05 -2.198937750479e-04 0.0 
1.275968653457e-03 2.507628662769e-04 0.0 
3.165160372423e-05 1.534942678317e-06 0.0 
4.196463073078e-05 2.128562402861e-06 0.0 
5.341919884046e-04 -2.262850921729e-04 0.0 
1.495180366010e-03 8.223843544276e-03 0.0 
1.732991643286e-04 -2.267735053064e-04 0.0 
1.552968500355e-04 4.941639849813e-04 0.0 
3.288093885683e-04 -3.094199305737e-04 0.0 
1.807882977475e-04 6.580033436267e-04 0.0 
1.348628384078e-03 1.337937797312e-04 0.0 
4.518989481513e-04 -2.632057577039e-04 0.0 
5.678416647904e-04 -2.476666127782e-04 0.0 
2.440216997819e-04 -2.851892234182e-04 0.0 
9.077204551772e-05 2.651609957402e-03 0.0 
4.796701705748e-04 -2.519120380370e-04 0.0 
2.962184512563e-04 2.101463335984e-03 0.0 
2.363537188204e-04 3.525444906520e-03 0.0 
3.621557554884e-05 5.743490421283e-04 0.0 
6.791559992916e-06 2.113663936303e-07 0.0 
7.072331824159e-05 7.867193901408e-03 0.0 
4.488211081462e-04 -2.382933476356e-04 0.0 
3.114540377048e-04 1.640991765294e-03 0.0 
4.432301642424e-04 -2.244611096640e-04 0.0 
1.184743832900e-05 4.988703719150e-07 0.0 
1.244932509942e-04 2.468826294084e-04 0.0 
1.373913212673e-04 3.590307873411e-04 0.0 
6.089795607283e-04 5.015294728775e-05 0.0 
1.108565659592e-03 8.731958312048e-03 0.0 
1.759418358301e-04 2.016613540237e-03 0.0 
1.997205128375e-03 1.038500739666e-03 0.0 
8.724678105688e-04 1.658193566633e-04 0.0 
1.998087896044e-03 1.454541971910e-03 0.0 
4.558634486431e-04 7.530149426398e-03 0.0 
3.308835952442e-04 -2.760304727098e-04 0.0 
3.528168706366e-04 -2.789062060240e-04 0.0 
1.376026168825e-04 5.353603409166e-03 0.0 
1.016186736574e-03 1.935215007909e-04 0.0 
1.773768586118e-03 8.349459457521e-03 0.0 
2.399493781847e-04 8.849856541222e-03 0.0 
2.908048989666e-04 7.984231922606e-03 0.0 
5.210762756159e-04 7.647278430503e-03 0.0 
3.098098098274e-04 -2.767320916358e-04 0.0 
3.095150120064e-04 -2.836496824687e-04 0.0 
2.712065330544e-04 1.273447421399e-03 0.0 
5.183560789517e-04 6.599526651926e-03 0.0 
2.850657641694e-04 5.380670356608e-05 0.0 
1.361279521245e-03 9.587866439705e-04 0.0 
2.374337797322e-03 1.743551659321e-03 0.0 
8.819389423777e-04 1.892579271432e-03 0.0 
1.244449536845e-04 -1.723505828076e-04 0.0 
1.233181136220e-04 -1.929890049842e-04 0.0 
1.681106449636e-04 1.478145268540e-06 0.0 
2.144771607759e-04 -2.839934075740e-04 0.0 
4.314375055226e-05 -2.270701339740e-04 0.0 
1.177561416011e-04 3.259906888228e-05 0.0 
1.502095302888e-05 -2.643259376983e-04 0.0 
2.968936817749e-04 8.554605591722e-03 0.0 
3.752246642166e-04 2.904894844110e-05 0.0 
1.965815163812e-04 -3.244865884930e-04 0.0 
1.489458996438e-04 -3.135020369289e-04 0.0 
1.720510183197e-04 4.803180254967e-04 0.0 
9.487964572586e-04 9.419754205051e-03 0.0 
4.072806263557e-04 1.361083349278e-03 0.0 
3.956090245045e-04 4.427479893834e-05 0.0 
8.340378719265e-04 9.446759810813e-03 0.0 
1.552520212798e-04 -1.659372642632e-04 0.0 
6.260693730107e-05 1.077681788154e-03 0.0 
1.387015227415e-04 -2.854112116378e-04 0.0 
4.460531377237e-04 1.791680352896e-03 0.0 
9.196363626229e-06 3.615988043460e-07 0.0 
1.276110205021e-03 1.140802273314e-03 0.0 
3.715881468882e-04 -2.786521602523e-04 0.0 
1.754732937502e-03 7.379469112477e-03 0.0 
7.545218545795e-05 -1.674046132335e-04 0.0 
1.211375559460e-03 2.121885526895e-04 0.0 
1.526316542063e-04 3.079110222004e-05 0.0 
1.345528352016e-04 4.365073703311e-03 0.0 
1.381314621541e-04 2.494262137145e-05 0.0 
2.489460499442e-04 -2.689375990120e-04 0.0 
5.653163621876e-05 1.080763176037e-07 0.0 
3.881714661090e-04 -2.976482718868e-04 0.0 
6.854823645775e-05 -2.695263208461e-04 0.0 
1.989484042556e-04 1.673328091394e-05 0.0 
7.178388914948e-04 1.052898730561e-03 0.0 
3.740329092864e-04 9.366884037637e-04 0.0 
6.510625120818e-04 8.729715411018e-03 0.0 
2.284108587608e-03 6.199493017411e-03 0.0 
3.303806019637e-04 2.233737386764e-04 0.0 
8.775287655243e-04 5.561227965857e-04 0.0 
6.379277631367e-05 -1.941571914890e-04 0.0 
2.249427539469e-04 -1.034520488371e-05 0.0 
1.091302828180e-03 1.891734282679e-04 0.0 
5.321635724931e-04 9.746159317268e-03 0.0 
9.548892544301e-04 1.441974730521e-03 0.0 
5.079176145891e-06 5.464068554228e-04 0.0 
5.079176145891e-06 2.304449365253e-04 0.0 
1.483966179652e-05 -2.974080493279e-04 0.0 
4.759635639401e-06 -2.928404520407e-04 0.0 
2.953045841840e-05 9.392985594476e-03 0.0 
7.054066571978e-05 9.734095901544e-03 0.0 
1.168815262686e-06 5.430088485189e-08 0.0 
1.168815262686e-06 -1.440752427589e-07 0.0 
2.726556183698e-05 -2.889122948334e-04 0.0 
1.686304810489e-04 -2.627417545495e-04 0.0 
5.606125588115e-05 -4.196472418650e-06 0.0 
9.444336217710e-04 2.644990149070e-04 0.0 
1.188476666080e-04 -2.735409851401e-04 0.0 
9.601333565289e-05 -1.602601754581e-06 0.0 
1.524376597112e-05 -8.048405323680e-05 0.0 
1.662922334220e-05 -1.209993382977e-04 0.0 
3.557471339857e-04 6.214335083596e-03 0.0 
3.073344779211e-04 -3.232835605656e-04 0.0 
1.350648895336e-03 2.165226464901e-04 0.0 
1.288218487242e-04 -2.875651718252e-04 0.0 
1.013738624764e-04 -1.464180494923e-04 0.0 
1.156304622106e-03 7.494255898292e-04 0.0 
1.710556553976e-05 2.426231191349e-03 0.0 
3.192817870257e-05 -1.187614883407e-04 0.0 
2.241713377935e-04 7.211644896768e-03 0.0 
1.066614647895e-03 3.879199060334e-04 0.0 
1.802709952585e-03 1.125685658725e-03 0.0 
2.130367847210e-03 1.436775823394e-03 0.0 
7.234712848538e-04 9.418596290067e-03 0.0 
1.294520038846e-03 1.501934312945e-04 0.0 
1.133462520282e-03 1.343797225391e-03 0.0 
6.140616729307e-05 -2.267314126200e-04 0.0 
2.104625235045e-04 -3.382351431437e-04 0.0 
1.263121446396e-03 4.732045995747e-04 0.0 
6.592161720817e-04 3.986532432908e-05 0.0 
2.890474147372e-04 -3.244896061497e-04 0.0 
1.898662508704e-04 5.460217838761e-03 0.0 
3.044352032376e-05 -3.558715259706e-07 0.0 
1.162377750828e-03 3.648877659024e-04 0.0 
9.973372600988e-04 3.202335822652e-04 0.0 
1.804796950725e-05 -6.132684142671e-05 0.0 
1.432385596565e-04 -7.285606254856e-05 0.0 
1.764072868481e-04 1.014502754683e-03 0.0 
4.635555474217e-04 4.759903090917e-04 0.0 
1.887873067312e-03 6.942180398221e-03 0.0 
1.364615818024e-03 1.922263261637e-04 0.0 
3.448822859470e-04 1.745813942717e-03 0.0 
2.701852050712e-04 3.950647521708e-05 0.0 
2.433284874243e-04 -3.345522468270e-04 0.0 
2.262631610966e-04 -3.362178081672e-04 0.0 
1.327704897964e-04 5.985545761909e-04 0.0 
3.165359337022e-04 5.007967059253e-03 0.0 
9.962620235828e-05 -2.109264301967e-04 0.0 
8.240506166225e-04 1.487337199587e-03 0.0 
7.216013760476e-05 -2.638527264339e-04 0.0 
4.698221908409e-04 5.775645851604e-05 0.0 
1.129149298515e-03 7.769594671397e-03 0.0 
4.081745037458e-04 9.512736047125e-05 0.0 
1.208673647421e-03 2.572046802489e-04 0.0 
2.084044891702e-03 6.635399319811e-03 0.0 
1.557279038809e-04 9.155348520565e-06 0.0 
6.403549740092e-04 1.074920846861e-03 0.0 
5.114597395714e-05 1.262894430529e-03 0.0 
1.077633447611e-04 3.193930305006e-04 0.0 
8.076885011105e-04 1.879000229253e-03 0.0 
6.431668976673e-04 2.607378371243e-04 0.0 
4.674945013971e-04 5.067802250976e-05 0.0 
1.068964461818e-03 2.229784391845e-04 0.0 
1.696038380191e-05 8.189856763917e-07 0.0 
2.155779356494e-03 1.579146888668e-03 0.0 
8.444340027711e-05 -3.515643048506e-05 0.0 
2.481057936565e-04 5.426609861346e-05 0.0 
1.618071180015e-03 1.078120215561e-03 0.0 
1.782440950887e-03 6.488469648488e-03 0.0 
2.902474418003e-05 -5.545005444700e-06 0.0 
9.638266398241e-04 2.164070945933e-04 0.0 
5.975844716844e-05 1.712826357960e-06 0.0 
2.845521166851e-04 4.004905417282e-03 0.0 
3.583588830646e-04 7.602173638886e-05 0.0 
1.906211871147e-04 5.363982727570e-06 0.0 
2.041213245829e-04 7.603963712282e-06 0.0 
7.203040460239e-05 -2.024972467916e-04 0.0 
2.653865825132e-05 1.214827373840e-06 0.0 
1.381893925420e-03 8.630592614596e-03 0.0 
2.139101011169e-04 2.042130488923e-03 0.0 
2.385927416304e-04 -3.357149105824e-04 0.0 
1.354243014872e-04 2.844940600343e-03 0.0 
2.869668387094e-04 5.412015673985e-03 0.0 
1.466305153875e-05 -2.764871382913e-04 0.0 
3.433106220153e-04 -2.693467978699e-04 0.0 
1.963175245405e-03 1.223565199623e-03 0.0 
2.986201130941e-04 1.028383429167e-03 0.0 
1.074788943797e-04 1.950963529757e-03 0.0 
4.504767835097e-04 8.738050296205e-05 0.0 
5.564526484062e-04 7.125999972514e-03 0.0 
1.854410012302e-04 -3.277797054918e-04 0.0 
2.000456633445e-04 -1.476081795606e-04 0.0 
1.806403898690e-04 -3.223829218395e-04 0.0 
2.395928002476e-04 -3.304003540934e-04 0.0 
6.994030599823e-05 9.710716525204e-07 0.0 
9.160681163165e-05 -1.535235738358e-04 0.0 
3.655513826316e-05 -5.453270775941e-06 0.0 
1.280387483931e-03 1.237448561286e-03 0.0 
2.265664984263e-03 5.818485901479e-03 0.0 
1.348913370526e-04 -1.843822785575e-04 0.0 
1.617657570784e-04 -5.504025391074e-07 0.0 
3.430556131334e-04 2.015201922738e-05 0.0 
5.073494139126e-04 1.226111313497e-04 0.0 
9.763503472537e-04 3.771787216432e-04 0.0 
1.603643679084e-03 9.326466108262e-04 0.0 
2.268001439345e-04 -3.330825821822e-04 0.0 
2.227959339069e-04 -2.526065080973e-04 0.0 
5.137996269801e-05 -5.047220176744e-06 0.0 
2.851465229137e-05 -2.743590472280e-04 0.0 
6.211933164758e-06 -2.706270351380e-04 0.0 
1.362855090430e-04 4.693058041911e-05 0.0 
1.874116517430e-04 -3.201715731036e-04 0.0 
1.156055146851e-04 7.538287136001e-06 0.0 
6.896963260742e-04 3.558421630189e-04 0.0 
3.072300950889e-04 1.745845303635e-03 0.0 
4.190177870731e-04 1.088215756477e-04 0.0 
4.146295931163e-04 1.881801576591e-05 0.0 
4.574905043231e-04 6.569080725056e-03 0.0 
7.881244711310e-05 1.991258634767e-04 0.0 
3.763203608640e-04 -3.063545917394e-04 0.0 
8.817029248214e-04 9.753860610547e-03 0.0 
2.713136418811e-04 -3.293372434335e-04 0.0 
1.391166306597e-04 -3.074398522939e-04 0.0 
1.770801203718e-05 5.926495721119e-07 0.0 
1.915650970593e-03 7.762966964071e-03 0.0 
8.042224620911e-05 -2.757369921594e-04 0.0 
6.486376738472e-05 -1.568724666989e-04 0.0 
8.217087501610e-04 4.571430939699e-04 0.0 
5.011952413652e-04 1.832902374639e-03 0.0 
6.065665607708e-04 7.984509833246e-04 0.0 
4.428285070110e-05 -2.110027683165e-04 0.0 
2.122841696988e-04 -1.809727991292e-04 0.0 
8.029746521444e-05 1.220880817157e-06 0.0 
1.713208105795e-05 4.904875951042e-04 0.0 
4.189007673936e-06 1.834897424130e-07 0.0 
6.762598644221e-05 8.849500326189e-03 0.0 
3.129906578859e-04 2.486303457992e-05 0.0 
9.243334199378e-05 -2.746191909007e-04 0.0 
7.713049450471e-04 1.516997738438e-03 0.0 
1.568349203467e-04 -3.143075996035e-04 0.0 
1.468761033741e-04 1.334277125034e-05 0.0 
7.934417275872e-04 1.015003899292e-03 0.0 
1.637527215518e-04 -1.367062382005e-04 0.0 
1.124330313994e-03 3.242338658223e-04 0.0 
2.772063446992e-04 4.482886849305e-03 0.0 
1.938365232510e-04 9.865985126726e-04 0.0 
5.959779008657e-05 1.141703660624e-05 0.0 
1.113304029308e-04 5.864015780339e-03 0.0 
6.915211575571e-04 4.032852100843e-04 0.0 
1.010965637556e-03 1.407081713230e-03 0.0 
2.259025598494e-04 5.152472684647e-03 0.0 
1.072625680232e-03 6.138895578534e-04 0.0 
7.503153892367e-05 -1.861007513085e-04 0.0 
4.713564503895e-04 9.451687567135e-03 0.0 
7.270811418198e-04 1.868671682983e-04 0.0 
1.778088343874e-05 1.045925881348e-03 0.0 
2.889446962011e-05 -2.962292773008e-04 0.0 
1.311266425348e-04 9.446442543547e-03 0.0 
3.801903059276e-06 -7.615718223850e-07 0.0 
1.334455342752e-04 -2.766194194904e-04 0.0 
4.188417852057e-04 3.898265708167e-05 0.0 
1.205804579014e-03 1.342725726566e-03 0.0 
2.248204816005e-04 1.284324109643e-03 0.0 
8.748006629804e-05 -2.668255175200e-04 0.0 
2.057543608283e-04 -3.069075493066e-05 0.0 
6.703568519114e-06 -1.102842776533e-04 0.0 
1.128020119647e-04 3.476235935048e-03 0.0 
1.460144632108e-04 -2.407995060056e-04 0.0 
4.817173021917e-04 8.479460210059e-04 0.0 
1.997308720635e-04 6.056073849653e-03 0.0 
2.988132690251e-04 -3.267706516195e-04 0.0 
3.686012603904e-04 6.780651855941e-03 0.0 
5.625658361694e-04 1.516014109266e-04 0.0 
1.242626010634e-05 -9.969103128169e-05 0.0 
9.029209010074e-05 1.872453939985e-05 0.0 
9.018525833723e-05 -2.018684963769e-04 0.0 
9.002949858039e-05 -1.345929305662e-04 0.0 
5.722691587230e-06 -8.938289081903e-05 0.0 
6.011332626309e-04 1.147404640658e-04 0.0 
4.694853669826e-05 -1.361847256774e-04 0.0 
5.916217662773e-05 -1.231603356591e-04 0.0 
1.680517042620e-04 -3.128551347883e-04 0.0 
1.040728864595e-04 -1.059867568164e-06 0.0 
1.311800896160e-03 5.307457375478e-04 0.0 
2.705129338776e-04 -3.888442986530e-05 0.0 
2.983378835080e-05 9.900066210294e-04 0.0 
6.822095470525e-06 -4.340068372131e-07 0.0 
1.282119632572e-04 8.902130834423e-03 0.0 
1.496994368855e-04 6.274142156548e-03 0.0 
6.487236079076e-05 -1.395304201524e-04 0.0 
7.171270018296e-05 -1.323443454852e-04 0.0 
4.347220480697e-05 -1.254719434292e-04 0.0 
5.330577685681e-04 4.777909230403e-05 0.0 
2.779310521723e-04 -3.302920601365e-04 0.0 
1.133940789606e-03 4.660107198491e-04 0.0 
2.367913471199e-04 7.776522147245e-03 0.0 
5.791376233179e-04 1.124233611180e-03 0.0 
5.006631454416e-04 3.986322546161e-05 0.0 
4.303742468048e-04 6.978425041538e-03 0.0 
1.441495440408e-03 8.972032679022e-04 0.0 
6.190752775505e-04 1.277913217222e-04 0.0 
4.714127873854e-04 1.030362953594e-04 0.0 
1.157854613424e-04 -6.988558939620e-06 0.0 
1.436569080834e-03 8.403353701800e-04 0.0 
1.217174396515e-03 6.750546806872e-04 0.0 
1.582089953030e-04 -3.100297539696e-04 0.0 
7.342210834346e-05 -1.488845295769e-04 0.0 
1.159435024348e-04 -4.102300100782e-05 0.0 
1.221213944210e-03 7.533344672112e-04 0.0 
1.812307220456e-04 1.135416535798e-02 0.0 
2.294898917691e-04 1.169372563312e-02 0.0 
2.940838772306e-04 1.134971636180e-02 0.0 
3.395402066527e-04 1.168717860777e-02 0.0 
4.077177969240e-04 1.134788074626e-02 0.0 
4.543566804732e-04 1.168724632226e-02 0.0 
5.208768709478e-04 1.134970760681e-02 0.0 
5.685249330152e-04 1.168890155511e-02 0.0 
6.304343376936e-04 1.135039040486e-02 0.0 
6.769496472652e-04 1.168760981738e-02 0.0 
7.330039685049e-04 1.134700319272e-02 0.0 
7.755174234088e-04 1.168023972858e-02 0.0 
8.257324064818e-04 1.133512876677e-02 0.0 
9.802092873646e-04 8.873260108346e-03 0.0 
8.604017725054e-04 1.166097858372e-02 0.0 
9.057494975759e-04 1.130832474219e-02 0.0 
6.019005739319e-04 9.073925974648e-03 0.0 
9.292336919318e-04 1.162368735792e-02 0.0 
9.718255276155e-04 1.126128345579e-02 0.0 
1.102714568189e-03 9.030716122982e-03 0.0 
9.786779160825e-04 1.156318587658e-02 0.0 
1.020702131967e-03 1.118667758149e-02 0.0 
1.003723985704e-03 1.146880760769e-02 0.0 
1.050521468084e-03 1.107039623862e-02 0.0 
1.002062743427e-03 1.132475968570e-02 0.0 
1.266966312356e-03 8.173111035524e-03 0.0 
1.062553769746e-03 1.089581670218e-02 0.0 
9.739335700652e-04 1.111315325796e-02 0.0 
9.223544035996e-04 1.080931296919e-02 0.0 
1.060464387259e-03 1.064216502299e-02 0.0 
8.582105098208e-04 1.038346815375e-02 0.0 
1.053105870381e-03 1.028106584042e-02 0.0 
7.985378590156e-04 9.780285286758e-03 0.0 
1.054971673093e-03 9.773378604706e-03 0.0 
8.886575989231e-04 8.373776901826e-03 0.0 
2.460687331666e-05 1.152241475720e-02 0.0 
1.230029152593e-04 1.152318582095e-02 0.0 
8.108045422062e-05 1.186814566145e-02 0.0 
6.652933435531e-05 1.117745491671e-02 0.0 
9.670599611275e-04 7.742085979723e-03 0.0 
1.657673484431e-04 1.066861939356e-02 0.0 
2.059727795739e-04 1.032860487370e-02 0.0 
2.860301386380e-04 1.067014156680e-02 0.0 
3.252424748108e-04 1.032966782984e-02 0.0 
4.014738036746e-04 1.066994476333e-02 0.0 
4.415740985988e-04 1.033144758848e-02 0.0 
5.143382823228e-04 1.067184485595e-02 0.0 
5.555094405823e-04 1.033414723586e-02 0.0 
6.239574338856e-04 1.067349883646e-02 0.0 
6.662403171660e-04 1.033543755144e-02 0.0 
7.287715422136e-04 1.067172249518e-02 0.0 
7.730456806026e-04 1.033164915752e-02 0.0 
1.512732537897e-03 9.029794203565e-03 0.0 
8.274930899669e-04 1.066181889324e-02 0.0 
1.538037280844e-03 9.046026762890e-03 0.0 
8.745726328741e-04 1.031732382832e-02 0.0 
9.181596744594e-04 1.063797986032e-02 0.0 
9.703542341078e-04 1.028655394037e-02 0.0 
1.000535892908e-03 1.059449492011e-02 0.0 
1.060754715473e-03 1.023255024178e-02 0.0 
1.074068566065e-03 1.052283048237e-02 0.0 
1.146451581204e-03 1.014358622990e-02 0.0 
1.362396058931e-03 9.259076851854e-03 0.0 
1.139882629486e-03 1.040902195995e-02 0.0 
1.230096863761e-03 1.000385690368e-02 0.0 
1.201226728678e-03 1.023628819883e-02 0.0 
1.316776042469e-03 9.793797288601e-03 0.0 
1.414753978273e-03 9.486398077954e-03 0.0 
1.264633900731e-03 9.982337556979e-03 0.0 
1.341335931583e-03 9.617978415191e-03 0.0 
1.662245465813e-03 8.588878453673e-03 0.0 
1.511908986846e-03 8.818161101961e-03 0.0 
2.029024094468e-05 1.049333552761e-02 0.0 
1.032229092847e-04 1.049592689421e-02 0.0 
6.130044824606e-05 1.015352046743e-02 0.0 
6.221270198333e-05 1.083574195439e-02 0.0 
1.508661310182e-03 8.582893691037e-03 0.0 

VECTORS element_materi_displacement float
0.0 0.0 0.0 
0.0 0.0 0.0 
0.0 0.0 0.0 
0.0 0.0 0.0 
0.0 0.0 0.0 
0.0 0.0 0.0 
0.0 0.0 0.0 
0.0 0.0 0.0 
0.0 0.0 0.0 
0.0 0.0 0.0 
0.0 0.0 0.0 
0.0 0.0 0.0 
0.0 0.0 0.0 
0.0 0.0 0.0 
0.0 0.0 0.0 
0.0 0.0 0.0 
0.0 0.0 0.0 
0.0 0.0 0.0 
0.0 0.0 0.0 
0.0 0.0 0.0 
0.0 0.0 0.0 
0.0 0.0 0.0 
0.0 0.0 0.0 
0.0 0.0 0.0 
0.0 0.0 0.0 
0.0 0.0 0.0 
0.0 0.0 0.0 
0.0 0.0 0.0 
0.0 0.0 0.0 
0.0 0.0 0.0 
0.0 0.0 0.0 
0.0 0.0 0.0 
0.0 0.0 0.0 
0.0 0.0 0.0 
0.0 0.0 0.0 
0.0 0.0 0.0 
0.0 0.0 0.0 
0.0 0.0 0.0 
0.0 0.0 0.0 
0.0 0.0 0.0 
0.0 0.0 0.0 
0.0 0.0 0.0 
0.0 0.0 0.0 
0.0 0.0 0.0 
0.0 0.0 0.0 
0.0 0.0 0.0 
0.0 0.0 0.0 
0.0 0.0 0.0 
0.0 0.0 0.0 
0.0 0.0 0.0 
0.0 0.0 0.0 
0.0 0.0 0.0 
0.0 0.0 0.0 
0.0 0.0 0.0 
0.0 0.0 0.0 
0.0 0.0 0.0 
0.0 0.0 0.0 
0.0 0.0 0.0 
0.0 0.0 0.0 
0.0 0.0 0.0 
0.0 0.0 0.0 
0.0 0.0 0.0 
0.0 0.0 0.0 
0.0 0.0 0.0 
0.0 0.0 0.0 
0.0 0.0 0.0 
0.0 0.0 0.0 
0.0 0.0 0.0 
0.0 0.0 0.0 
0.0 0.0 0.0 
0.0 0.0 0.0 
0.0 0.0 0.0 
0.0 0.0 0.0 
0.0 0.0 0.0 
0.0 0.0 0.0 
0.0 0.0 0.0 
0.0 0.0 0.0 
0.0 0.0 0.0 
0.0 0.0 0.0 
0.0 0.0 0.0 
0.0 0.0 0.0 
0.0 0.0 0.0 
0.0 0.0 0.0 
0.0 0.0 0.0 
0.0 0.0 0.0 
0.0 0.0 0.0 
0.0 0.0 0.0 
0.0 0.0 0.0 
0.0 0.0 0.0 
0.0 0.0 0.0 
0.0 0.0 0.0 
0.0 0.0 0.0 
0.0 0.0 0.0 
0.0 0.0 0.0 
0.0 0.0 0.0 
0.0 0.0 0.0 
0.0 0.0 0.0 
0.0 0.0 0.0 
0.0 0.0 0.0 
0.0 0.0 0.0 
0.0 0.0 0.0 
0.0 0.0 0.0 
0.0 0.0 0.0 
0.0 0.0 0.0 
0.0 0.0 0.0 
0.0 0.0 0.0 
0.0 0.0 0.0 
0.0 0.0 0.0 
0.0 0.0 0.0 
0.0 0.0 0.0 
0.0 0.0 0.0 
0.0 0.0 0.0 
0.0 0.0 0.0 
0.0 0.0 0.0 
0.0 0.0 0.0 
0.0 0.0 0.0 
0.0 0.0 0.0 
0.0 0.0 0.0 
0.0 0.0 0.0 
0.0 0.0 0.0 
0.0 0.0 0.0 
0.0 0.0 0.0 
0.0 0.0 0.0 
0.0 0.0 0.0 
0.0 0.0 0.0 
0.0 0.0 0.0 
0.0 0.0 0.0 
0.0 0.0 0.0 
0.0 0.0 0.0 
0.0 0.0 0.0 
0.0 0.0 0.0 
0.0 0.0 0.0 
0.0 0.0 0.0 
0.0 0.0 0.0 
0.0 0.0 0.0 
0.0 0.0 0.0 
0.0 0.0 0.0 
0.0 0.0 0.0 
0.0 0.0 0.0 
0.0 0.0 0.0 
0.0 0.0 0.0 
0.0 0.0 0.0 
0.0 0.0 0.0 
0.0 0.0 0.0 
0.0 0.0 0.0 
0.0 0.0 0.0 
0.0 0.0 0.0 
0.0 0.0 0.0 
0.0 0.0 0.0 
0.0 0.0 0.0 
0.0 0.0 0.0 
0.0 0.0 0.0 
0.0 0.0 0.0 
0.0 0.0 0.0 
0.0 0.0 0.0 
0.0 0.0 0.0 
0.0 0.0 0.0 
0.0 0.0 0.0 
0.0 0.0 0.0 
0.0 0.0 0.0 
0.0 0.0 0.0 
0.0 0.0 0.0 
0.0 0.0 0.0 
0.0 0.0 0.0 
0.0 0.0 0.0 
0.0 0.0 0.0 
0.0 0.0 0.0 
0.0 0.0 0.0 
0.0 0.0 0.0 
0.0 0.0 0.0 
0.0 0.0 0.0 
0.0 0.0 0.0 
0.0 0.0 0.0 
0.0 0.0 0.0 
0.0 0.0 0.0 
0.0 0.0 0.0 
0.0 0.0 0.0 
0.0 0.0 0.0 
0.0 0.0 0.0 
0.0 0.0 0.0 
0.0 0.0 0.0 
0.0 0.0 0.0 
0.0 0.0 0.0 
0.0 0.0 0.0 
0.0 0.0 0.0 
0.0 0.0 0.0 
0.0 0.0 0.0 
0.0 0.0 0.0 
0.0 0.0 0.0 
0.0 0.0 0.0 
0.0 0.0 0.0 
0.0 0.0 0.0 
0.0 0.0 0.0 
0.0 0.0 0.0 
0.0 0.0 0.0 
0.0 0.0 0.0 
0.0 0.0 0.0 
0.0 0.0 0.0 
0.0 0.0 0.0 
0.0 0.0 0.0 
0.0 0.0 0.0 
0.0 0.0 0.0 
0.0 0.0 0.0 
0.0 0.0 0.0 
0.0 0.0 0.0 
0.0 0.0 0.0 
0.0 0.0 0.0 
0.0 0.0 0.0 
0.0 0.0 0.0 
0.0 0.0 0.0 
0.0 0.0 0.0 
0.0 0.0 0.0 
0.0 0.0 0.0 
0.0 0.0 0.0 
0.0 0.0 0.0 
0.0 0.0 0.0 
0.0 0.0 0.0 
0.0 0.0 0.0 
0.0 0.0 0.0 
0.0 0.0 0.0 
0.0 0.0 0.0 
0.0 0.0 0.0 
0.0 0.0 0.0 
0.0 0.0 0.0 
0.0 0.0 0.0 
0.0 0.0 0.0 
0.0 0.0 0.0 
0.0 0.0 0.0 
0.0 0.0 0.0 
0.0 0.0 0.0 
0.0 0.0 0.0 
0.0 0.0 0.0 
0.0 0.0 0.0 
0.0 0.0 0.0 
0.0 0.0 0.0 
0.0 0.0 0.0 
0.0 0.0 0.0 
0.0 0.0 0.0 
0.0 0.0 0.0 
0.0 0.0 0.0 
0.0 0.0 0.0 
0.0 0.0 0.0 
0.0 0.0 0.0 
0.0 0.0 0.0 
0.0 0.0 0.0 
0.0 0.0 0.0 
0.0 0.0 0.0 
0.0 0.0 0.0 
0.0 0.0 0.0 
0.0 0.0 0.0 
0.0 0.0 0.0 
0.0 0.0 0.0 
0.0 0.0 0.0 
0.0 0.0 0.0 
0.0 0.0 0.0 
0.0 0.0 0.0 
0.0 0.0 0.0 
0.0 0.0 0.0 
0.0 0.0 0.0 
0.0 0.0 0.0 
0.0 0.0 0.0 
0.0 0.0 0.0 
0.0 0.0 0.0 
0.0 0.0 0.0 
0.0 0.0 0.0 
0.0 0.0 0.0 
0.0 0.0 0.0 
0.0 0.0 0.0 
0.0 0.0 0.0 
0.0 0.0 0.0 
0.0 0.0 0.0 
0.0 0.0 0.0 
0.0 0.0 0.0 
0.0 0.0 0.0 
0.0 0.0 0.0 
0.0 0.0 0.0 
0.0 0.0 0.0 
0.0 0.0 0.0 
0.0 0.0 0.0 
0.0 0.0 0.0 
0.0 0.0 0.0 
0.0 0.0 0.0 
0.0 0.0 0.0 
0.0 0.0 0.0 
0.0 0.0 0.0 
0.0 0.0 0.0 
0.0 0.0 0.0 
0.0 0.0 0.0 
0.0 0.0 0.0 
0.0 0.0 0.0 
0.0 0.0 0.0 
0.0 0.0 0.0 
0.0 0.0 0.0 
0.0 0.0 0.0 
0.0 0.0 0.0 
0.0 0.0 0.0 
0.0 0.0 0.0 
0.0 0.0 0.0 
0.0 0.0 0.0 
0.0 0.0 0.0 
0.0 0.0 0.0 
0.0 0.0 0.0 
0.0 0.0 0.0 
0.0 0.0 0.0 
0.0 0.0 0.0 
0.0 0.0 0.0 
0.0 0.0 0.0 
0.0 0.0 0.0 
0.0 0.0 0.0 
0.0 0.0 0.0 
0.0 0.0 0.0 
0.0 0.0 0.0 
0.0 0.0 0.0 
0.0 0.0 0.0 
0.0 0.0 0.0 
0.0 0.0 0.0 
0.0 0.0 0.0 
0.0 0.0 0.0 
0.0 0.0 0.0 
0.0 0.0 0.0 
0.0 0.0 0.0 
0.0 0.0 0.0 
0.0 0.0 0.0 
0.0 0.0 0.0 
0.0 0.0 0.0 
0.0 0.0 0.0 
0.0 0.0 0.0 
0.0 0.0 0.0 
0.0 0.0 0.0 
0.0 0.0 0.0 
0.0 0.0 0.0 
0.0 0.0 0.0 
0.0 0.0 0.0 
0.0 0.0 0.0 
0.0 0.0 0.0 
0.0 0.0 0.0 
0.0 0.0 0.0 
0.0 0.0 0.0 
0.0 0.0 0.0 
0.0 0.0 0.0 
0.0 0.0 0.0 
0.0 0.0 0.0 
0.0 0.0 0.0 
0.0 0.0 0.0 
0.0 0.0 0.0 
0.0 0.0 0.0 
0.0 0.0 0.0 
0.0 0.0 0.0 
0.0 0.0 0.0 
0.0 0.0 0.0 
0.0 0.0 0.0 
0.0 0.0 0.0 
0.0 0.0 0.0 
0.0 0.0 0.0 
0.0 0.0 0.0 
0.0 0.0 0.0 
0.0 0.0 0.0 
0.0 0.0 0.0 
0.0 0.0 0.0 
0.0 0.0 0.0 
0.0 0.0 0.0 
0.0 0.0 0.0 
0.0 0.0 0.0 
0.0 0.0 0.0 
0.0 0.0 0.0 
0.0 0.0 0.0 
0.0 0.0 0.0 
0.0 0.0 0.0 
0.0 0.0 0.0 
0.0 0.0 0.0 
0.0 0.0 0.0 
0.0 0.0 0.0 
0.0 0.0 0.0 
0.0 0.0 0.0 
0.0 0.0 0.0 
0.0 0.0 0.0 
0.0 0.0 0.0 
0.0 0.0 0.0 
0.0 0.0 0.0 
0.0 0.0 0.0 
0.0 0.0 0.0 
0.0 0.0 0.0 
0.0 0.0 0.0 
0.0 0.0 0.0 
0.0 0.0 0.0 
0.0 0.0 0.0 
0.0 0.0 0.0 
0.0 0.0 0.0 
0.0 0.0 0.0 
0.0 0.0 0.0 
0.0 0.0 0.0 
0.0 0.0 0.0 
0.0 0.0 0.0 
0.0 0.0 0.0 
0.0 0.0 0.0 
0.0 0.0 0.0 
0.0 0.0 0.0 
0.0 0.0 0.0 
0.0 0.0 0.0 
0.0 0.0 0.0 
0.0 0.0 0.0 
0.0 0.0 0.0 
0.0 0.0 0.0 
0.0 0.0 0.0 
0.0 0.0 0.0 
0.0 0.0 0.0 
0.0 0.0 0.0 
0.0 0.0 0.0 
0.0 0.0 0.0 
0.0 0.0 0.0 
0.0 0.0 0.0 
0.0 0.0 0.0 
0.0 0.0 0.0 
0.0 0.0 0.0 
0.0 0.0 0.0 
0.0 0.0 0.0 
0.0 0.0 0.0 
0.0 0.0 0.0 
0.0 0.0 0.0 
0.0 0.0 0.0 
0.0 0.0 0.0 
0.0 0.0 0.0 
0.0 0.0 0.0 
0.0 0.0 0.0 
0.0 0.0 0.0 
0.0 0.0 0.0 
0.0 0.0 0.0 
0.0 0.0 0.0 
0.0 0.0 0.0 
0.0 0.0 0.0 
0.0 0.0 0.0 
0.0 0.0 0.0 
0.0 0.0 0.0 
0.0 0.0 0.0 
0.0 0.0 0.0 
0.0 0.0 0.0 
0.0 0.0 0.0 
0.0 0.0 0.0 
0.0 0.0 0.0 
0.0 0.0 0.0 
0.0 0.0 0.0 
0.0 0.0 0.0 
0.0 0.0 0.0 
0.0 0.0 0.0 
0.0 0.0 0.0 
0.0 0.0 0.0 
0.0 0.0 0.0 
0.0 0.0 0.0 
0.0 0.0 0.0 
0.0 0.0 0.0 
0.0 0.0 0.0 
0.0 0.0 0.0 
0.0 0.0 0.0 
0.0 0.0 0.0 
0.0 0.0 0.0 
0.0 0.0 0.0 
0.0 0.0 0.0 
0.0 0.0 0.0 
0.0 0.0 0.0 
0.0 0.0 0.0 
0.0 0.0 0.0 
0.0 0.0 0.0 
0.0 0.0 0.0 
0.0 0.0 0.0 
0.0 0.0 0.0 
0.0 0.0 0.0 
0.0 0.0 0.0 
0.0 0.0 0.0 
0.0 0.0 0.0 
0.0 0.0 0.0 
0.0 0.0 0.0 
0.0 0.0 0.0 
0.0 0.0 0.0 
0.0 0.0 0.0 
0.0 0.0 0.0 
0.0 0.0 0.0 
0.0 0.0 0.0 
0.0 0.0 0.0 
0.0 0.0 0.0 
0.0 0.0 0.0 
0.0 0.0 0.0 
0.0 0.0 0.0 
0.0 0.0 0.0 
0.0 0.0 0.0 
0.0 0.0 0.0 
0.0 0.0 0.0 
0.0 0.0 0.0 
0.0 0.0 0.0 
0.0 0.0 0.0 
0.0 0.0 0.0 
0.0 0.0 0.0 
0.0 0.0 0.0 
0.0 0.0 0.0 
0.0 0.0 0.0 
0.0 0.0 0.0 
0.0 0.0 0.0 
0.0 0.0 0.0 
0.0 0.0 0.0 
0.0 0.0 0.0 
0.0 0.0 0.0 
0.0 0.0 0.0 
0.0 0.0 0.0 
0.0 0.0 0.0 
0.0 0.0 0.0 
0.0 0.0 0.0 
0.0 0.0 0.0 
0.0 0.0 0.0 
0.0 0.0 0.0 
0.0 0.0 0.0 
0.0 0.0 0.0 
0.0 0.0 0.0 
0.0 0.0 0.0 
0.0 0.0 0.0 
0.0 0.0 0.0 
0.0 0.0 0.0 
0.0 0.0 0.0 
0.0 0.0 0.0 
0.0 0.0 0.0 
0.0 0.0 0.0 
0.0 0.0 0.0 
0.0 0.0 0.0 
0.0 0.0 0.0 
0.0 0.0 0.0 
0.0 0.0 0.0 
0.0 0.0 0.0 
0.0 0.0 0.0 
0.0 0.0 0.0 
0.0 0.0 0.0 
0.0 0.0 0.0 
0.0 0.0 0.0 
0.0 0.0 0.0 
0.0 0.0 0.0 
0.0 0.0 0.0 
0.0 0.0 0.0 
0.0 0.0 0.0 
0.0 0.0 0.0 
0.0 0.0 0.0 
0.0 0.0 0.0 
0.0 0.0 0.0 
0.0 0.0 0.0 
0.0 0.0 0.0 
0.0 0.0 0.0 
0.0 0.0 0.0 
0.0 0.0 0.0 
0.0 0.0 0.0 
0.0 0.0 0.0 
0.0 0.0 0.0 
0.0 0.0 0.0 
0.0 0.0 0.0 
0.0 0.0 0.0 
0.0 0.0 0.0 
0.0 0.0 0.0 
0.0 0.0 0.0 
0.0 0.0 0.0 
0.0 0.0 0.0 
0.0 0.0 0.0 
0.0 0.0 0.0 
0.0 0.0 0.0 
0.0 0.0 0.0 
0.0 0.0 0.0 
0.0 0.0 0.0 
0.0 0.0 0.0 
0.0 0.0 0.0 
0.0 0.0 0.0 
0.0 0.0 0.0 
0.0 0.0 0.0 
0.0 0.0 0.0 
0.0 0.0 0.0 
0.0 0.0 0.0 
0.0 0.0 0.0 
0.0 0.0 0.0 
0.0 0.0 0.0 
0.0 0.0 0.0 
0.0 0.0 0.0 
0.0 0.0 0.0 
0.0 0.0 0.0 
0.0 0.0 0.0 
0.0 0.0 0.0 
0.0 0.0 0.0 
0.0 0.0 0.0 
0.0 0.0 0.0 
0.0 0.0 0.0 
0.0 0.0 0.0 
0.0 0.0 0.0 
0.0 0.0 0.0 
0.0 0.0 0.0 
0.0 0.0 0.0 
0.0 0.0 0.0 
0.0 0.0 0.0 
0.0 0.0 0.0 
0.0 0.0 0.0 
0.0 0.0 0.0 
0.0 0.0 0.0 
0.0 0.0 0.0 
0.0 0.0 0.0 
0.0 0.0 0.0 
0.0 0.0 0.0 
0.0 0.0 0.0 
0.0 0.0 0.0 
0.0 0.0 0.0 
0.0 0.0 0.0 
0.0 0.0 0.0 
0.0 0.0 0.0 
0.0 0.0 0.0 
0.0 0.0 0.0 
0.0 0.0 0.0 
0.0 0.0 0.0 
0.0 0.0 0.0 
0.0 0.0 0.0 
0.0 0.0 0.0 
0.0 0.0 0.0 
0.0 0.0 0.0 
0.0 0.0 0.0 
0.0 0.0 0.0 
0.0 0.0 0.0 
0.0 0.0 0.0 
0.0 0.0 0.0 
0.0 0.0 0.0 
0.0 0.0 0.0 
0.0 0.0 0.0 
0.0 0.0 0.0 
0.0 0.0 0.0 
0.0 0.0 0.0 
0.0 0.0 0.0 
0.0 0.0 0.0 
0.0 0.0 0.0 
0.0 0.0 0.0 
0.0 0.0 0.0 
0.0 0.0 0.0 
0.0 0.0 0.0 
0.0 0.0 0.0 
0.0 0.0 0.0 
0.0 0.0 0.0 
0.0 0.0 0.0 
0.0 0.0 0.0 
0.0 0.0 0.0 
0.0 0.0 0.0 
0.0 0.0 0.0 
0.0 0.0 0.0 
0.0 0.0 0.0 
0.0 0.0 0.0 
0.0 0.0 0.0 
0.0 0.0 0.0 
0.0 0.0 0.0 
0.0 0.0 0.0 
0.0 0.0 0.0 
0.0 0.0 0.0 
0.0 0.0 0.0 
0.0 0.0 0.0 
0.0 0.0 0.0 
0.0 0.0 0.0 
0.0 0.0 0.0 
0.0 0.0 0.0 
0.0 0.0 0.0 
0.0 0.0 0.0 
0.0 0.0 0.0 
0.0 0.0 0.0 
0.0 0.0 0.0 
0.0 0.0 0.0 
0.0 0.0 0.0 
0.0 0.0 0.0 
0.0 0.0 0.0 
0.0 0.0 0.0 
0.0 0.0 0.0 
0.0 0.0 0.0 
0.0 0.0 0.0 
0.0 0.0 0.0 
0.0 0.0 0.0 
0.0 0.0 0.0 
0.0 0.0 0.0 
0.0 0.0 0.0 
0.0 0.0 0.0 
0.0 0.0 0.0 
0.0 0.0 0.0 
0.0 0.0 0.0 
0.0 0.0 0.0 
0.0 0.0 0.0 
0.0 0.0 0.0 
0.0 0.0 0.0 
0.0 0.0 0.0 
0.0 0.0 0.0 
0.0 0.0 0.0 
0.0 0.0 0.0 
0.0 0.0 0.0 
0.0 0.0 0.0 
0.0 0.0 0.0 
0.0 0.0 0.0 
0.0 0.0 0.0 
0.0 0.0 0.0 
0.0 0.0 0.0 
0.0 0.0 0.0 
0.0 0.0 0.0 
0.0 0.0 0.0 
0.0 0.0 0.0 
0.0 0.0 0.0 
0.0 0.0 0.0 
0.0 0.0 0.0 
0.0 0.0 0.0 
0.0 0.0 0.0 
0.0 0.0 0.0 
0.0 0.0 0.0 
0.0 0.0 0.0 
0.0 0.0 0.0 
0.0 0.0 0.0 
0.0 0.0 0.0 
0.0 0.0 0.0 
0.0 0.0 0.0 
0.0 0.0 0.0 
0.0 0.0 0.0 
0.0 0.0 0.0 
0.0 0.0 0.0 
0.0 0.0 0.0 
0.0 0.0 0.0 
0.0 0.0 0.0 
0.0 0.0 0.0 
0.0 0.0 0.0 
0.0 0.0 0.0 
0.0 0.0 0.0 
0.0 0.0 0.0 
0.0 0.0 0.0 
0.0 0.0 0.0 
0.0 0.0 0.0 
0.0 0.0 0.0 
0.0 0.0 0.0 
0.0 0.0 0.0 
0.0 0.0 0.0 
0.0 0.0 0.0 
0.0 0.0 0.0 
0.0 0.0 0.0 
0.0 0.0 0.0 
0.0 0.0 0.0 
0.0 0.0 0.0 
0.0 0.0 0.0 
0.0 0.0 0.0 
0.0 0.0 0.0 
0.0 0.0 0.0 
0.0 0.0 0.0 
0.0 0.0 0.0 
0.0 0.0 0.0 
0.0 0.0 0.0 
0.0 0.0 0.0 
0.0 0.0 0.0 
0.0 0.0 0.0 
0.0 0.0 0.0 
0.0 0.0 0.0 
0.0 0.0 0.0 
0.0 0.0 0.0 
0.0 0.0 0.0 
0.0 0.0 0.0 
0.0 0.0 0.0 
0.0 0.0 0.0 
0.0 0.0 0.0 
0.0 0.0 0.0 
0.0 0.0 0.0 
0.0 0.0 0.0 
0.0 0.0 0.0 
0.0 0.0 0.0 
0.0 0.0 0.0 
0.0 0.0 0.0 
0.0 0.0 0.0 
0.0 0.0 0.0 
0.0 0.0 0.0 
0.0 0.0 0.0 
0.0 0.0 0.0 
0.0 0.0 0.0 
0.0 0.0 0.0 
0.0 0.0 0.0 
0.0 0.0 0.0 
0.0 0.0 0.0 
0.0 0.0 0.0 
0.0 0.0 0.0 
0.0 0.0 0.0 
0.0 0.0 0.0 
0.0 0.0 0.0 
0.0 0.0 0.0 
0.0 0.0 0.0 
0.0 0.0 0.0 
0.0 0.0 0.0 
0.0 0.0 0.0 
0.0 0.0 0.0 
0.0 0.0 0.0 
0.0 0.0 0.0 
0.0 0.0 0.0 
0.0 0.0 0.0 
0.0 0.0 0.0 
0.0 0.0 0.0 
0.0 0.0 0.0 
0.0 0.0 0.0 
0.0 0.0 0.0 
0.0 0.0 0.0 
0.0 0.0 0.0 
0.0 0.0 0.0 
0.0 0.0 0.0 
0.0 0.0 0.0 
0.0 0.0 0.0 
0.0 0.0 0.0 
0.0 0.0 0.0 
0.0 0.0 0.0 
0.0 0.0 0.0 
0.0 0.0 0.0 
0.0 0.0 0.0 
0.0 0.0 0.0 
0.0 0.0 0.0 
0.0 0.0 0.0 
0.0 0.0 0.0 
0.0 0.0 0.0 
0.0 0.0 0.0 
0.0 0.0 0.0 
0.0 0.0 0.0 
0.0 0.0 0.0 
0.0 0.0 0.0 
0.0 0.0 0.0 
0.0 0.0 0.0 
0.0 0.0 0.0 
0.0 0.0 0.0 
0.0 0.0 0.0 
0.0 0.0 0.0 
0.0 0.0 0.0 
0.0 0.0 0.0 
0.0 0.0 0.0 
0.0 0.0 0.0 
0.0 0.0 0.0 
0.0 0.0 0.0 
0.0 0.0 0.0 
0.0 0.0 0.0 
0.0 0.0 0.0 
0.0 0.0 0.0 
0.0 0.0 0.0 
0.0 0.0 0.0 
0.0 0.0 0.0 
0.0 0.0 0.0 
0.0 0.0 0.0 
0.0 0.0 0.0 
0.0 0.0 0.0 
0.0 0.0 0.0 
0.0 0.0 0.0 
0.0 0.0 0.0 
0.0 0.0 0.0 
0.0 0.0 0.0 
0.0 0.0 0.0 
0.0 0.0 0.0 
0.0 0.0 0.0 
0.0 0.0 0.0 
0.0 0.0 0.0 
0.0 0.0 0.0 
0.0 0.0 0.0 
0.0 0.0 0.0 
0.0 0.0 0.0 
0.0 0.0 0.0 
0.0 0.0 0.0 
0.0 0.0 0.0 
0.0 0.0 0.0 
0.0 0.0 0.0 
0.0 0.0 0.0 
0.0 0.0 0.0 
0.0 0.0 0.0 
0.0 0.0 0.0 
0.0 0.0 0.0 
0.0 0.0 0.0 
0.0 0.0 0.0 
0.0 0.0 0.0 
0.0 0.0 0.0 
0.0 0.0 0.0 
0.0 0.0 0.0 
0.0 0.0 0.0 
0.0 0.0 0.0 
0.0 0.0 0.0 
0.0 0.0 0.0 
0.0 0.0 0.0 
0.0 0.0 0.0 
0.0 0.0 0.0 
0.0 0.0 0.0 
0.0 0.0 0.0 
0.0 0.0 0.0 
0.0 0.0 0.0 
0.0 0.0 0.0 
0.0 0.0 0.0 
0.0 0.0 0.0 
0.0 0.0 0.0 
0.0 0.0 0.0 
0.0 0.0 0.0 
0.0 0.0 0.0 
0.0 0.0 0.0 
0.0 0.0 0.0 
0.0 0.0 0.0 
0.0 0.0 0.0 
0.0 0.0 0.0 
0.0 0.0 0.0 
0.0 0.0 0.0 
0.0 0.0 0.0 
0.0 0.0 0.0 
0.0 0.0 0.0 
0.0 0.0 0.0 
0.0 0.0 0.0 
0.0 0.0 0.0 
0.0 0.0 0.0 
0.0 0.0 0.0 
0.0 0.0 0.0 
0.0 0.0 0.0 
0.0 0.0 0.0 
0.0 0.0 0.0 
0.0 0.0 0.0 
0.0 0.0 0.0 
0.0 0.0 0.0 
0.0 0.0 0.0 
0.0 0.0 0.0 
0.0 0.0 0.0 
0.0 0.0 0.0 
0.0 0.0 0.0 
0.0 0.0 0.0 
0.0 0.0 0.0 
0.0 0.0 0.0 
0.0 0.0 0.0 
0.0 0.0 0.0 
0.0 0.0 0.0 
0.0 0.0 0.0 
0.0 0.0 0.0 
0.0 0.0 0.0 
0.0 0.0 0.0 
0.0 0.0 0.0 
0.0 0.0 0.0 
0.0 0.0 0.0 
0.0 0.0 0.0 
0.0 0.0 0.0 
0.0 0.0 0.0 
0.0 0.0 0.0 
0.0 0.0 0.0 
0.0 0.0 0.0 
0.0 0.0 0.0 
0.0 0.0 0.0 
0.0 0.0 0.0 
0.0 0.0 0.0 
0.0 0.0 0.0 
0.0 0.0 0.0 
0.0 0.0 0.0 
0.0 0.0 0.0 
0.0 0.0 0.0 
0.0 0.0 0.0 
0.0 0.0 0.0 
0.0 0.0 0.0 
0.0 0.0 0.0 
0.0 0.0 0.0 
0.0 0.0 0.0 
0.0 0.0 0.0 
0.0 0.0 0.0 
0.0 0.0 0.0 
0.0 0.0 0.0 
0.0 0.0 0.0 
0.0 0.0 0.0 
0.0 0.0 0.0 
0.0 0.0 0.0 
0.0 0.0 0.0 
0.0 0.0 0.0 
0.0 0.0 0.0 
0.0 0.0 0.0 
0.0 0.0 0.0 
0.0 0.0 0.0 
0.0 0.0 0.0 
0.0 0.0 0.0 
0.0 0.0 0.0 
0.0 0.0 0.0 
0.0 0.0 0.0 
0.0 0.0 0.0 
0.0 0.0 0.0 
0.0 0.0 0.0 
0.0 0.0 0.0 
0.0 0.0 0.0 
0.0 0.0 0.0 
0.0 0.0 0.0 
0.0 0.0 0.0 
0.0 0.0 0.0 
0.0 0.0 0.0 
0.0 0.0 0.0 
0.0 0.0 0.0 
0.0 0.0 0.0 
0.0 0.0 0.0 
0.0 0.0 0.0 
0.0 0.0 0.0 
0.0 0.0 0.0 
0.0 0.0 0.0 
0.0 0.0 0.0 
0.0 0.0 0.0 
0.0 0.0 0.0 
0.0 0.0 0.0 
0.0 0.0 0.0 
0.0 0.0 0.0 
0.0 0.0 0.0 
0.0 0.0 0.0 
0.0 0.0 0.0 
0.0 0.0 0.0 
0.0 0.0 0.0 
0.0 0.0 0.0 
0.0 0.0 0.0 
0.0 0.0 0.0 
0.0 0.0 0.0 
0.0 0.0 0.0 
0.0 0.0 0.0 
0.0 0.0 0.0 
0.0 0.0 0.0 
0.0 0.0 0.0 
0.0 0.0 0.0 
0.0 0.0 0.0 
0.0 0.0 0.0 
0.0 0.0 0.0 
0.0 0.0 0.0 
0.0 0.0 0.0 
0.0 0.0 0.0 
0.0 0.0 0.0 
0.0 0.0 0.0 
0.0 0.0 0.0 
0.0 0.0 0.0 
0.0 0.0 0.0 
0.0 0.0 0.0 
0.0 0.0 0.0 
0.0 0.0 0.0 
0.0 0.0 0.0 
0.0 0.0 0.0 
0.0 0.0 0.0 
0.0 0.0 0.0 
0.0 0.0 0.0 
0.0 0.0 0.0 
0.0 0.0 0.0 
0.0 0.0 0.0 
0.0 0.0 0.0 
0.0 0.0 0.0 
0.0 0.0 0.0 
0.0 0.0 0.0 
0.0 0.0 0.0 
0.0 0.0 0.0 
0.0 0.0 0.0 
0.0 0.0 0.0 
0.0 0.0 0.0 
0.0 0.0 0.0 
0.0 0.0 0.0 
0.0 0.0 0.0 
0.0 0.0 0.0 
0.0 0.0 0.0 
0.0 0.0 0.0 
0.0 0.0 0.0 
0.0 0.0 0.0 
0.0 0.0 0.0 
0.0 0.0 0.0 
0.0 0.0 0.0 
0.0 0.0 0.0 
0.0 0.0 0.0 
0.0 0.0 0.0 
0.0 0.0 0.0 
0.0 0.0 0.0 
0.0 0.0 0.0 
0.0 0.0 0.0 
0.0 0.0 0.0 
0.0 0.0 0.0 
0.0 0.0 0.0 
0.0 0.0 0.0 
0.0 0.0 0.0 
0.0 0.0 0.0 
0.0 0.0 0.0 
0.0 0.0 0.0 
0.0 0.0 0.0 
0.0 0.0 0.0 
0.0 0.0 0.0 
0.0 0.0 0.0 
0.0 0.0 0.0 
0.0 0.0 0.0 
0.0 0.0 0.0 
0.0 0.0 0.0 
0.0 0.0 0.0 
0.0 0.0 0.0 
0.0 0.0 0.0 
0.0 0.0 0.0 
0.0 0.0 0.0 
0.0 0.0 0.0 
0.0 0.0 0.0 
0.0 0.0 0.0 
0.0 0.0 0.0 
0.0 0.0 0.0 
0.0 0.0 0.0 
0.0 0.0 0.0 
0.0 0.0 0.0 
0.0 0.0 0.0 
0.0 0.0 0.0 
0.0 0.0 0.0 
0.0 0.0 0.0 
0.0 0.0 0.0 
0.0 0.0 0.0 
0.0 0.0 0.0 
0.0 0.0 0.0 
0.0 0.0 0.0 
0.0 0.0 0.0 
0.0 0.0 0.0 
0.0 0.0 0.0 
0.0 0.0 0.0 
0.0 0.0 0.0 
0.0 0.0 0.0 
0.0 0.0 0.0 
0.0 0.0 0.0 
0.0 0.0 0.0 
0.0 0.0 0.0 
0.0 0.0 0.0 
0.0 0.0 0.0 
0.0 0.0 0.0 
0.0 0.0 0.0 
0.0 0.0 0.0 
0.0 0.0 0.0 
0.0 0.0 0.0 
0.0 0.0 0.0 
0.0 0.0 0.0 
0.0 0.0 0.0 
0.0 0.0 0.0 
0.0 0.0 0.0 
0.0 0.0 0.0 
0.0 0.0 0.0 
0.0 0.0 0.0 
0.0 0.0 0.0 
0.0 0.0 0.0 
0.0 0.0 0.0 
0.0 0.0 0.0 
0.0 0.0 0.0 
0.0 0.0 0.0 
0.0 0.0 0.0 
0.0 0.0 0.0 
0.0 0.0 0.0 
0.0 0.0 0.0 
0.0 0.0 0.0 
0.0 0.0 0.0 
0.0 0.0 0.0 
0.0 0.0 0.0 
0.0 0.0 0.0 
0.0 0.0 0.0 
0.0 0.0 0.0 
0.0 0.0 0.0 
0.0 0.0 0.0 
0.0 0.0 0.0 
0.0 0.0 0.0 
0.0 0.0 0.0 
0.0 0.0 0.0 
0.0 0.0 0.0 
0.0 0.0 0.0 
0.0 0.0 0.0 
0.0 0.0 0.0 
0.0 0.0 0.0 
0.0 0.0 0.0 
0.0 0.0 0.0 
0.0 0.0 0.0 
0.0 0.0 0.0 
0.0 0.0 0.0 
0.0 0.0 0.0 
0.0 0.0 0.0 
0.0 0.0 0.0 
0.0 0.0 0.0 
0.0 0.0 0.0 
0.0 0.0 0.0 
0.0 0.0 0.0 
0.0 0.0 0.0 
0.0 0.0 0.0 
0.0 0.0 0.0 
0.0 0.0 0.0 
0.0 0.0 0.0 
0.0 0.0 0.0 
0.0 0.0 0.0 
0.0 0.0 0.0 
0.0 0.0 0.0 
0.0 0.0 0.0 
0.0 0.0 0.0 
0.0 0.0 0.0 
0.0 0.0 0.0 
0.0 0.0 0.0 
0.0 0.0 0.0 
0.0 0.0 0.0 
0.0 0.0 0.0 
0.0 0.0 0.0 
0.0 0.0 0.0 
0.0 0.0 0.0 
0.0 0.0 0.0 
0.0 0.0 0.0 
0.0 0.0 0.0 
0.0 0.0 0.0 
0.0 0.0 0.0 
0.0 0.0 0.0 
0.0 0.0 0.0 
0.0 0.0 0.0 
0.0 0.0 0.0 
0.0 0.0 0.0 
0.0 0.0 0.0 
0.0 0.0 0.0 
0.0 0.0 0.0 
0.0 0.0 0.0 
0.0 0.0 0.0 
0.0 0.0 0.0 
0.0 0.0 0.0 
0.0 0.0 0.0 
0.0 0.0 0.0 
0.0 0.0 0.0 
0.0 0.0 0.0 
0.0 0.0 0.0 
0.0 0.0 0.0 
0.0 0.0 0.0 
0.0 0.0 0.0 
0.0 0.0 0.0 
0.0 0.0 0.0 
0.0 0.0 0.0 
0.0 0.0 0.0 
0.0 0.0 0.0 
0.0 0.0 0.0 
0.0 0.0 0.0 
0.0 0.0 0.0 
0.0 0.0 0.0 
0.0 0.0 0.0 
0.0 0.0 0.0 
0.0 0.0 0.0 
0.0 0.0 0.0 
0.0 0.0 0.0 
0.0 0.0 0.0 
0.0 0.0 0.0 
0.0 0.0 0.0 
0.0 0.0 0.0 
0.0 0.0 0.0 
0.0 0.0 0.0 
0.0 0.0 0.0 
0.0 0.0 0.0 
0.0 0.0 0.0 
0.0 0.0 0.0 
0.0 0.0 0.0 
0.0 0.0 0.0 
0.0 0.0 0.0 
0.0 0.0 0.0 
0.0 0.0 0.0 
0.0 0.0 0.0 
0.0 0.0 0.0 
0.0 0.0 0.0 
0.0 0.0 0.0 
0.0 0.0 0.0 
0.0 0.0 0.0 
0.0 0.0 0.0 
0.0 0.0 0.0 
0.0 0.0 0.0 
0.0 0.0 0.0 
0.0 0.0 0.0 
0.0 0.0 0.0 
0.0 0.0 0.0 
0.0 0.0 0.0 
0.0 0.0 0.0 
0.0 0.0 0.0 
0.0 0.0 0.0 
0.0 0.0 0.0 
0.0 0.0 0.0 
0.0 0.0 0.0 
0.0 0.0 0.0 
0.0 0.0 0.0 
0.0 0.0 0.0 
0.0 0.0 0.0 
0.0 0.0 0.0 
0.0 0.0 0.0 
0.0 0.0 0.0 
0.0 0.0 0.0 
0.0 0.0 0.0 
0.0 0.0 0.0 
0.0 0.0 0.0 
0.0 0.0 0.0 
0.0 0.0 0.0 
0.0 0.0 0.0 
0.0 0.0 0.0 
0.0 0.0 0.0 
0.0 0.0 0.0 
0.0 0.0 0.0 
0.0 0.0 0.0 
0.0 0.0 0.0 
0.0 0.0 0.0 
0.0 0.0 0.0 
0.0 0.0 0.0 
0.0 0.0 0.0 
0.0 0.0 0.0 
0.0 0.0 0.0 
0.0 0.0 0.0 
0.0 0.0 0.0 
0.0 0.0 0.0 
0.0 0.0 0.0 
0.0 0.0 0.0 
0.0 0.0 0.0 
0.0 0.0 0.0 
0.0 0.0 0.0 
0.0 0.0 0.0 
0.0 0.0 0.0 
0.0 0.0 0.0 
0.0 0.0 0.0 
0.0 0.0 0.0 
0.0 0.0 0.0 
0.0 0.0 0.0 
0.0 0.0 0.0 
0.0 0.0 0.0 
0.0 0.0 0.0 
0.0 0.0 0.0 
0.0 0.0 0.0 
0.0 0.0 0.0 
0.0 0.0 0.0 
0.0 0.0 0.0 
0.0 0.0 0.0 
0.0 0.0 0.0 
0.0 0.0 0.0 
0.0 0.0 0.0 
0.0 0.0 0.0 
0.0 0.0 0.0 
0.0 0.0 0.0 
0.0 0.0 0.0 
0.0 0.0 0.0 
0.0 0.0 0.0 
0.0 0.0 0.0 
0.0 0.0 0.0 
0.0 0.0 0.0 
0.0 0.0 0.0 
0.0 0.0 0.0 
0.0 0.0 0.0 
0.0 0.0 0.0 
0.0 0.0 0.0 
0.0 0.0 0.0 
0.0 0.0 0.0 
0.0 0.0 0.0 
0.0 0.0 0.0 
0.0 0.0 0.0 
0.0 0.0 0.0 
0.0 0.0 0.0 
0.0 0.0 0.0 
0.0 0.0 0.0 
0.0 0.0 0.0 
0.0 0.0 0.0 
0.0 0.0 0.0 
0.0 0.0 0.0 
0.0 0.0 0.0 
0.0 0.0 0.0 
0.0 0.0 0.0 
0.0 0.0 0.0 
0.0 0.0 0.0 
0.0 0.0 0.0 
0.0 0.0 0.0 
0.0 0.0 0.0 
0.0 0.0 0.0 
0.0 0.0 0.0 
0.0 0.0 0.0 
0.0 0.0 0.0 
0.0 0.0 0.0 
0.0 0.0 0.0 
0.0 0.0 0.0 
0.0 0.0 0.0 
0.0 0.0 0.0 
0.0 0.0 0.0 
0.0 0.0 0.0 
0.0 0.0 0.0 
0.0 0.0 0.0 
0.0 0.0 0.0 
0.0 0.0 0.0 
0.0 0.0 0.0 
0.0 0.0 0.0 
0.0 0.0 0.0 
0.0 0.0 0.0 
0.0 0.0 0.0 
0.0 0.0 0.0 
0.0 0.0 0.0 
0.0 0.0 0.0 
0.0 0.0 0.0 
0.0 0.0 0.0 
0.0 0.0 0.0 
0.0 0.0 0.0 
0.0 0.0 0.0 
0.0 0.0 0.0 
0.0 0.0 0.0 
0.0 0.0 0.0 
0.0 0.0 0.0 
0.0 0.0 0.0 
0.0 0.0 0.0 
0.0 0.0 0.0 
0.0 0.0 0.0 
0.0 0.0 0.0 
0.0 0.0 0.0 
0.0 0.0 0.0 
0.0 0.0 0.0 
0.0 0.0 0.0 
0.0 0.0 0.0 
0.0 0.0 0.0 
0.0 0.0 0.0 
0.0 0.0 0.0 
0.0 0.0 0.0 
0.0 0.0 0.0 
0.0 0.0 0.0 
0.0 0.0 0.0 
0.0 0.0 0.0 
0.0 0.0 0.0 
0.0 0.0 0.0 
0.0 0.0 0.0 
0.0 0.0 0.0 
0.0 0.0 0.0 
0.0 0.0 0.0 
0.0 0.0 0.0 
0.0 0.0 0.0 
0.0 0.0 0.0 
0.0 0.0 0.0 
0.0 0.0 0.0 
0.0 0.0 0.0 
0.0 0.0 0.0 
0.0 0.0 0.0 
0.0 0.0 0.0 
0.0 0.0 0.0 
0.0 0.0 0.0 
0.0 0.0 0.0 
0.0 0.0 0.0 
0.0 0.0 0.0 
0.0 0.0 0.0 
0.0 0.0 0.0 
0.0 0.0 0.0 
0.0 0.0 0.0 
0.0 0.0 0.0 
0.0 0.0 0.0 
0.0 0.0 0.0 
0.0 0.0 0.0 
0.0 0.0 0.0 
0.0 0.0 0.0 
0.0 0.0 0.0 
0.0 0.0 0.0 
0.0 0.0 0.0 
0.0 0.0 0.0 
0.0 0.0 0.0 
0.0 0.0 0.0 
0.0 0.0 0.0 
0.0 0.0 0.0 
0.0 0.0 0.0 
0.0 0.0 0.0 
0.0 0.0 0.0 
0.0 0.0 0.0 
0.0 0.0 0.0 
0.0 0.0 0.0 
0.0 0.0 0.0 
0.0 0.0 0.0 
0.0 0.0 0.0 
0.0 0.0 0.0 
0.0 0.0 0.0 
0.0 0.0 0.0 
0.0 0.0 0.0 
0.0 0.0 0.0 
0.0 0.0 0.0 
0.0 0.0 0.0 
0.0 0.0 0.0 
0.0 0.0 0.0 
0.0 0.0 0.0 
0.0 0.0 0.0 
0.0 0.0 0.0 
0.0 0.0 0.0 
0.0 0.0 0.0 
0.0 0.0 0.0 
0.0 0.0 0.0 
0.0 0.0 0.0 
0.0 0.0 0.0 
0.0 0.0 0.0 
0.0 0.0 0.0 
0.0 0.0 0.0 
0.0 0.0 0.0 
0.0 0.0 0.0 
0.0 0.0 0.0 
0.0 0.0 0.0 
0.0 0.0 0.0 
0.0 0.0 0.0 
0.0 0.0 0.0 
0.0 0.0 0.0 
0.0 0.0 0.0 
0.0 0.0 0.0 
0.0 0.0 0.0 
0.0 0.0 0.0 
0.0 0.0 0.0 
0.0 0.0 0.0 
0.0 0.0 0.0 
0.0 0.0 0.0 
0.0 0.0 0.0 
0.0 0.0 0.0 
0.0 0.0 0.0 
0.0 0.0 0.0 
0.0 0.0 0.0 
0.0 0.0 0.0 
0.0 0.0 0.0 
0.0 0.0 0.0 
0.0 0.0 0.0 
0.0 0.0 0.0 
0.0 0.0 0.0 
0.0 0.0 0.0 
0.0 0.0 0.0 
0.0 0.0 0.0 
0.0 0.0 0.0 
0.0 0.0 0.0 
0.0 0.0 0.0 
0.0 0.0 0.0 
0.0 0.0 0.0 
0.0 0.0 0.0 
0.0 0.0 0.0 
0.0 0.0 0.0 
0.0 0.0 0.0 
0.0 0.0 0.0 
0.0 0.0 0.0 
0.0 0.0 0.0 
0.0 0.0 0.0 
0.0 0.0 0.0 
0.0 0.0 0.0 
0.0 0.0 0.0 
0.0 0.0 0.0 
0.0 0.0 0.0 
0.0 0.0 0.0 
0.0 0.0 0.0 
0.0 0.0 0.0 
0.0 0.0 0.0 
0.0 0.0 0.0 
0.0 0.0 0.0 
0.0 0.0 0.0 
0.0 0.0 0.0 
0.0 0.0 0.0 
0.0 0.0 0.0 
0.0 0.0 0.0 
0.0 0.0 0.0 
0.0 0.0 0.0 
0.0 0.0 0.0 
0.0 0.0 0.0 
0.0 0.0 0.0 
0.0 0.0 0.0 
0.0 0.0 0.0 
0.0 0.0 0.0 
0.0 0.0 0.0 
0.0 0.0 0.0 
0.0 0.0 0.0 
0.0 0.0 0.0 
0.0 0.0 0.0 
0.0 0.0 0.0 
0.0 0.0 0.0 
0.0 0.0 0.0 
0.0 0.0 0.0 
0.0 0.0 0.0 
0.0 0.0 0.0 
0.0 0.0 0.0 
0.0 0.0 0.0 
0.0 0.0 0.0 
0.0 0.0 0.0 
0.0 0.0 0.0 
0.0 0.0 0.0 
0.0 0.0 0.0 
0.0 0.0 0.0 
0.0 0.0 0.0 
0.0 0.0 0.0 
0.0 0.0 0.0 
0.0 0.0 0.0 
0.0 0.0 0.0 
0.0 0.0 0.0 
0.0 0.0 0.0 
0.0 0.0 0.0 
0.0 0.0 0.0 
0.0 0.0 0.0 
0.0 0.0 0.0 
0.0 0.0 0.0 
0.0 0.0 0.0 
0.0 0.0 0.0 
0.0 0.0 0.0 
0.0 0.0 0.0 
0.0 0.0 0.0 
0.0 0.0 0.0 
0.0 0.0 0.0 
0.0 0.0 0.0 
0.0 0.0 0.0 
0.0 0.0 0.0 
0.0 0.0 0.0 
0.0 0.0 0.0 
0.0 0.0 0.0 
0.0 0.0 0.0 
0.0 0.0 0.0 
0.0 0.0 0.0 
0.0 0.0 0.0 
0.0 0.0 0.0 
0.0 0.0 0.0 
0.0 0.0 0.0 
0.0 0.0 0.0 
0.0 0.0 0.0 
0.0 0.0 0.0 
0.0 0.0 0.0 
0.0 0.0 0.0 
0.0 0.0 0.0 
0.0 0.0 0.0 
0.0 0.0 0.0 
0.0 0.0 0.0 
0.0 0.0 0.0 
0.0 0.0 0.0 
0.0 0.0 0.0 
0.0 0.0 0.0 
0.0 0.0 0.0 
0.0 0.0 0.0 
0.0 0.0 0.0 
0.0 0.0 0.0 
0.0 0.0 0.0 
0.0 0.0 0.0 
0.0 0.0 0.0 
0.0 0.0 0.0 
0.0 0.0 0.0 
0.0 0.0 0.0 
0.0 0.0 0.0 
0.0 0.0 0.0 
0.0 0.0 0.0 
0.0 0.0 0.0 
0.0 0.0 0.0 
0.0 0.0 0.0 
0.0 0.0 0.0 
0.0 0.0 0.0 
0.0 0.0 0.0 
0.0 0.0 0.0 
0.0 0.0 0.0 
0.0 0.0 0.0 
0.0 0.0 0.0 
0.0 0.0 0.0 
0.0 0.0 0.0 
0.0 0.0 0.0 
0.0 0.0 0.0 
0.0 0.0 0.0 
0.0 0.0 0.0 
0.0 0.0 0.0 
0.0 0.0 0.0 
0.0 0.0 0.0 
0.0 0.0 0.0 
0.0 0.0 0.0 
0.0 0.0 0.0 
0.0 0.0 0.0 
0.0 0.0 0.0 
0.0 0.0 0.0 
0.0 0.0 0.0 
0.0 0.0 0.0 
0.0 0.0 0.0 
0.0 0.0 0.0 
0.0 0.0 0.0 
0.0 0.0 0.0 
0.0 0.0 0.0 
0.0 0.0 0.0 
0.0 0.0 0.0 
0.0 0.0 0.0 
0.0 0.0 0.0 
0.0 0.0 0.0 
0.0 0.0 0.0 
0.0 0.0 0.0 
0.0 0.0 0.0 
0.0 0.0 0.0 
0.0 0.0 0.0 
0.0 0.0 0.0 
0.0 0.0 0.0 
0.0 0.0 0.0 
0.0 0.0 0.0 
0.0 0.0 0.0 
0.0 0.0 0.0 
0.0 0.0 0.0 
0.0 0.0 0.0 
0.0 0.0 0.0 
0.0 0.0 0.0 
0.0 0.0 0.0 
0.0 0.0 0.0 
0.0 0.0 0.0 
0.0 0.0 0.0 
0.0 0.0 0.0 
0.0 0.0 0.0 
0.0 0.0 0.0 
0.0 0.0 0.0 
0.0 0.0 0.0 
0.0 0.0 0.0 
0.0 0.0 0.0 
0.0 0.0 0.0 
0.0 0.0 0.0 
0.0 0.0 0.0 
0.0 0.0 0.0 
0.0 0.0 0.0 
0.0 0.0 0.0 
0.0 0.0 0.0 
0.0 0.0 0.0 
0.0 0.0 0.0 
0.0 0.0 0.0 
0.0 0.0 0.0 
0.0 0.0 0.0 
0.0 0.0 0.0 
0.0 0.0 0.0 
0.0 0.0 0.0 
0.0 0.0 0.0 
0.0 0.0 0.0 
0.0 0.0 0.0 
0.0 0.0 0.0 
0.0 0.0 0.0 
0.0 0.0 0.0 
0.0 0.0 0.0 
0.0 0.0 0.0 
0.0 0.0 0.0 
0.0 0.0 0.0 
0.0 0.0 0.0 
0.0 0.0 0.0 
0.0 0.0 0.0 
0.0 0.0 0.0 
0.0 0.0 0.0 
0.0 0.0 0.0 
0.0 0.0 0.0 
0.0 0.0 0.0 
0.0 0.0 0.0 
0.0 0.0 0.0 
0.0 0.0 0.0 
0.0 0.0 0.0 
0.0 0.0 0.0 
0.0 0.0 0.0 
0.0 0.0 0.0 
0.0 0.0 0.0 
0.0 0.0 0.0 
0.0 0.0 0.0 
0.0 0.0 0.0 
0.0 0.0 0.0 
0.0 0.0 0.0 
0.0 0.0 0.0 
0.0 0.0 0.0 
0.0 0.0 0.0 
0.0 0.0 0.0 
0.0 0.0 0.0 
0.0 0.0 0.0 
0.0 0.0 0.0 
0.0 0.0 0.0 
0.0 0.0 0.0 
0.0 0.0 0.0 
0.0 0.0 0.0 
0.0 0.0 0.0 
0.0 0.0 0.0 
0.0 0.0 0.0 
0.0 0.0 0.0 
0.0 0.0 0.0 
0.0 0.0 0.0 
0.0 0.0 0.0 
0.0 0.0 0.0 
0.0 0.0 0.0 
0.0 0.0 0.0 
0.0 0.0 0.0 
0.0 0.0 0.0 
0.0 0.0 0.0 
0.0 0.0 0.0 
0.0 0.0 0.0 
0.0 0.0 0.0 
0.0 0.0 0.0 
0.0 0.0 0.0 
0.0 0.0 0.0 
0.0 0.0 0.0 
0.0 0.0 0.0 
0.0 0.0 0.0 
0.0 0.0 0.0 
0.0 0.0 0.0 
0.0 0.0 0.0 
0.0 0.0 0.0 
0.0 0.0 0.0 
0.0 0.0 0.0 
0.0 0.0 0.0 
0.0 0.0 0.0 
0.0 0.0 0.0 
0.0 0.0 0.0 
0.0 0.0 0.0 
0.0 0.0 0.0 
0.0 0.0 0.0 
0.0 0.0 0.0 
0.0 0.0 0.0 
0.0 0.0 0.0 
0.0 0.0 0.0 
0.0 0.0 0.0 
0.0 0.0 0.0 
0.0 0.0 0.0 
0.0 0.0 0.0 
0.0 0.0 0.0 
0.0 0.0 0.0 
0.0 0.0 0.0 
0.0 0.0 0.0 
0.0 0.0 0.0 
0.0 0.0 0.0 
0.0 0.0 0.0 
0.0 0.0 0.0 
0.0 0.0 0.0 
0.0 0.0 0.0 
0.0 0.0 0.0 
0.0 0.0 0.0 
0.0 0.0 0.0 
0.0 0.0 0.0 
0.0 0.0 0.0 
0.0 0.0 0.0 
0.0 0.0 0.0 
0.0 0.0 0.0 
0.0 0.0 0.0 
0.0 0.0 0.0 
0.0 0.0 0.0 
0.0 0.0 0.0 
0.0 0.0 0.0 
0.0 0.0 0.0 
0.0 0.0 0.0 
0.0 0.0 0.0 
0.0 0.0 0.0 
0.0 0.0 0.0 
0.0 0.0 0.0 
0.0 0.0 0.0 
0.0 0.0 0.0 
0.0 0.0 0.0 
0.0 0.0 0.0 
0.0 0.0 0.0 
0.0 0.0 0.0 
0.0 0.0 0.0 
0.0 0.0 0.0 
0.0 0.0 0.0 
0.0 0.0 0.0 
0.0 0.0 0.0 
0.0 0.0 0.0 
0.0 0.0 0.0 
0.0 0.0 0.0 
0.0 0.0 0.0 
0.0 0.0 0.0 
0.0 0.0 0.0 
0.0 0.0 0.0 
0.0 0.0 0.0 
0.0 0.0 0.0 
0.0 0.0 0.0 
0.0 0.0 0.0 
0.0 0.0 0.0 
0.0 0.0 0.0 
0.0 0.0 0.0 
0.0 0.0 0.0 
0.0 0.0 0.0 
0.0 0.0 0.0 
0.0 0.0 0.0 
0.0 0.0 0.0 
0.0 0.0 0.0 
0.0 0.0 0.0 
0.0 0.0 0.0 
0.0 0.0 0.0 
0.0 0.0 0.0 
0.0 0.0 0.0 
0.0 0.0 0.0 
0.0 0.0 0.0 
0.0 0.0 0.0 
0.0 0.0 0.0 
0.0 0.0 0.0 
0.0 0.0 0.0 
0.0 0.0 0.0 
0.0 0.0 0.0 
0.0 0.0 0.0 
0.0 0.0 0.0 
0.0 0.0 0.0 
0.0 0.0 0.0 
0.0 0.0 0.0 
0.0 0.0 0.0 
0.0 0.0 0.0 
0.0 0.0 0.0 
0.0 0.0 0.0 
0.0 0.0 0.0 
0.0 0.0 0.0 
0.0 0.0 0.0 
0.0 0.0 0.0 
0.0 0.0 0.0 
0.0 0.0 0.0 
0.0 0.0 0.0 
0.0 0.0 0.0 
0.0 0.0 0.0 
0.0 0.0 0.0 
0.0 0.0 0.0 
0.0 0.0 0.0 
0.0 0.0 0.0 
0.0 0.0 0.0 
0.0 0.0 0.0 
0.0 0.0 0.0 
0.0 0.0 0.0 
0.0 0.0 0.0 
0.0 0.0 0.0 
0.0 0.0 0.0 
0.0 0.0 0.0 
0.0 0.0 0.0 
0.0 0.0 0.0 
0.0 0.0 0.0 
0.0 0.0 0.0 
0.0 0.0 0.0 
0.0 0.0 0.0 
0.0 0.0 0.0 
0.0 0.0 0.0 
0.0 0.0 0.0 
0.0 0.0 0.0 
0.0 0.0 0.0 
0.0 0.0 0.0 
0.0 0.0 0.0 
0.0 0.0 0.0 
0.0 0.0 0.0 
0.0 0.0 0.0 
0.0 0.0 0.0 
0.0 0.0 0.0 
0.0 0.0 0.0 
0.0 0.0 0.0 
0.0 0.0 0.0 
0.0 0.0 0.0 
0.0 0.0 0.0 
0.0 0.0 0.0 
0.0 0.0 0.0 
0.0 0.0 0.0 
0.0 0.0 0.0 
0.0 0.0 0.0 
0.0 0.0 0.0 
0.0 0.0 0.0 
0.0 0.0 0.0 
0.0 0.0 0.0 
0.0 0.0 0.0 
0.0 0.0 0.0 
0.0 0.0 0.0 
0.0 0.0 0.0 
0.0 0.0 0.0 
0.0 0.0 0.0 
0.0 0.0 0.0 
0.0 0.0 0.0 
0.0 0.0 0.0 
0.0 0.0 0.0 
0.0 0.0 0.0 
0.0 0.0 0.0 
0.0 0.0 0.0 
0.0 0.0 0.0 
0.0 0.0 0.0 
0.0 0.0 0.0 
0.0 0.0 0.0 
0.0 0.0 0.0 
0.0 0.0 0.0 
0.0 0.0 0.0 
0.0 0.0 0.0 
0.0 0.0 0.0 
0.0 0.0 0.0 
0.0 0.0 0.0 
0.0 0.0 0.0 
0.0 0.0 0.0 
0.0 0.0 0.0 
0.0 0.0 0.0 
0.0 0.0 0.0 
0.0 0.0 0.0 
0.0 0.0 0.0 
0.0 0.0 0.0 
0.0 0.0 0.0 
0.0 0.0 0.0 
0.0 0.0 0.0 
0.0 0.0 0.0 
0.0 0.0 0.0 
0.0 0.0 0.0 
0.0 0.0 0.0 
0.0 0.0 0.0 
0.0 0.0 0.0 
0.0 0.0 0.0 
0.0 0.0 0.0 
0.0 0.0 0.0 
0.0 0.0 0.0 
0.0 0.0 0.0 
0.0 0.0 0.0 
0.0 0.0 0.0 
0.0 0.0 0.0 
0.0 0.0 0.0 
0.0 0.0 0.0 
0.0 0.0 0.0 
0.0 0.0 0.0 
0.0 0.0 0.0 
0.0 0.0 0.0 
0.0 0.0 0.0 
0.0 0.0 0.0 
0.0 0.0 0.0 
0.0 0.0 0.0 
0.0 0.0 0.0 
0.0 0.0 0.0 
0.0 0.0 0.0 
0.0 0.0 0.0 
0.0 0.0 0.0 
0.0 0.0 0.0 
0.0 0.0 0.0 
0.0 0.0 0.0 
0.0 0.0 0.0 
0.0 0.0 0.0 
0.0 0.0 0.0 
0.0 0.0 0.0 
0.0 0.0 0.0 
0.0 0.0 0.0 
0.0 0.0 0.0 
0.0 0.0 0.0 
0.0 0.0 0.0 
0.0 0.0 0.0 
0.0 0.0 0.0 
0.0 0.0 0.0 
0.0 0.0 0.0 
0.0 0.0 0.0 
0.0 0.0 0.0 
0.0 0.0 0.0 
0.0 0.0 0.0 
0.0 0.0 0.0 
0.0 0.0 0.0 
0.0 0.0 0.0 
0.0 0.0 0.0 
0.0 0.0 0.0 
0.0 0.0 0.0 
0.0 0.0 0.0 
0.0 0.0 0.0 
0.0 0.0 0.0 
0.0 0.0 0.0 
0.0 0.0 0.0 
0.0 0.0 0.0 
0.0 0.0 0.0 
0.0 0.0 0.0 
0.0 0.0 0.0 
0.0 0.0 0.0 
0.0 0.0 0.0 

TENSORS element_materi_stress float
-3.642235995614e+01 2.655092078447e+01 0.0 
2.655092078447e+01 -4.541930426848e+01 0.0 
0.0 0.0 -2.415249926738e+01 
-3.689091093246e+01 2.541856502521e+01 0.0 
2.541856502521e+01 -4.672770376322e+01 0.0 
0.0 0.0 -2.468558440870e+01 
-1.129499183696e+02 2.891609755349e+01 0.0 
2.891609755349e+01 -2.532233116409e+02 0.0 
0.0 0.0 -1.094519690032e+02 
-9.456982082422e+01 3.496668337520e+00 0.0 
3.496668337520e+00 -2.094778373102e+02 0.0 
0.0 0.0 -9.081429744032e+01 
-4.784552240155e+01 1.076417291279e-01 0.0 
1.076417291279e-01 -6.971263989471e+01 0.0 
0.0 0.0 -3.486744868888e+01 
-3.845951714830e+01 3.188658867096e+01 0.0 
3.188658867096e+01 -1.038983425799e+02 0.0 
0.0 0.0 -4.339011573937e+01 
-4.682554368871e+01 -3.999173278297e-01 0.0 
-3.999173278297e-01 -6.985230715596e+01 0.0 
0.0 0.0 -3.460335525340e+01 
-3.942572609848e+01 2.774094839033e+01 0.0 
2.774094839033e+01 -5.251347652454e+01 0.0 
0.0 0.0 -2.718176078690e+01 
-4.812232913758e+01 2.071114956070e+00 0.0 
2.071114956070e+00 -7.078211070805e+01 0.0 
0.0 0.0 -3.527133195369e+01 
-9.387052614348e+01 3.589503303864e+00 0.0 
3.589503303864e+00 -2.077657496538e+02 0.0 
0.0 0.0 -9.009088273920e+01 
-1.043198279808e+02 -1.172591898827e+00 0.0 
-1.172591898827e+00 -2.571982857886e+02 0.0 
0.0 0.0 -1.080554341308e+02 
-3.371549273093e+01 2.461827610576e+01 0.0 
2.461827610576e+01 -3.937403881447e+01 0.0 
0.0 0.0 -2.152685946362e+01 
-1.560615478904e+02 -2.894865737702e-01 0.0 
-2.894865737702e-01 -3.698151376795e+02 0.0 
0.0 0.0 -1.573630056710e+02 
-6.025821833086e+01 3.938036170860e+00 0.0 
3.938036170860e+00 -8.881171185675e+01 0.0 
0.0 0.0 -4.432097905628e+01 
-1.603017200582e+02 1.663921473360e+00 0.0 
1.663921473360e+00 -3.780211444645e+02 0.0 
0.0 0.0 -1.610968593568e+02 
-9.577224610286e+01 2.825538304503e+00 0.0 
2.825538304503e+00 -2.177045069074e+02 0.0 
0.0 0.0 -9.364302590307e+01 
-4.787408686392e+01 1.676695434690e+00 0.0 
1.676695434690e+00 -6.615026918911e+01 0.0 
0.0 0.0 -3.380730681591e+01 
-2.973044140531e+01 1.673191277926e+01 0.0 
1.673191277926e+01 -1.077485965101e+02 0.0 
0.0 0.0 -4.358306816088e+01 
-2.818223565299e+01 -2.618214201094e-01 0.0 
-2.618214201094e-01 -7.733886996708e+01 0.0 
0.0 0.0 -3.125633168602e+01 
-3.037002556351e+01 -1.274810199172e+00 0.0 
-1.274810199172e+00 -8.019539828716e+01 0.0 
0.0 0.0 -3.276962715520e+01 
-9.582683331516e+01 5.800287700600e+00 0.0 
5.800287700600e+00 -2.091259226054e+02 0.0 
0.0 0.0 -9.108582677616e+01 
-3.522351406524e+01 2.391468268498e+01 0.0 
2.391468268498e+01 -4.330712060344e+01 0.0 
0.0 0.0 -2.315919040060e+01 
-3.923318702876e+01 2.654443572177e+01 0.0 
2.654443572177e+01 -4.827028554349e+01 0.0 
0.0 0.0 -2.585104177168e+01 
-1.394752638301e+02 1.396144611577e+01 0.0 
1.396144611577e+01 -3.531040088637e+02 0.0 
0.0 0.0 -1.473737818082e+02 
-7.119403278163e+01 8.426013265167e+00 0.0 
8.426013265167e+00 -1.106419794885e+02 0.0 
0.0 0.0 -5.415080368104e+01 
-1.103396624718e+02 1.920820064461e-01 0.0 
1.920820064461e-01 -2.711738776998e+02 0.0 
0.0 0.0 -1.140540620515e+02 
-4.687523978851e+01 6.144637314089e+00 0.0 
6.144637314089e+00 -5.247974729793e+01 0.0 
0.0 0.0 -2.940649612593e+01 
-1.311125032971e+02 3.384514774972e+01 0.0 
3.384514774972e+01 -3.175067334886e+02 0.0 
0.0 0.0 -1.341857710357e+02 
-7.518594615334e+01 1.236088945189e+01 0.0 
1.236088945189e+01 -1.128305463569e+02 0.0 
0.0 0.0 -5.600494775308e+01 
-1.437699153352e+02 1.221090299714e+01 0.0 
1.221090299714e+01 -3.610193219807e+02 0.0 
0.0 0.0 -1.510367711948e+02 
-3.673006476440e+01 -2.290188772695e+01 0.0 
-2.290188772695e+01 -9.890113649763e+01 0.0 
0.0 0.0 -3.977627371298e+01 
-1.009623283399e+01 -1.940011444122e+00 0.0 
-1.940011444122e+00 -2.636540403814e+01 0.0 
0.0 0.0 -1.053849106164e+01 
-1.152325408397e+02 2.955432698513e+01 0.0 
2.955432698513e+01 -2.526000579121e+02 0.0 
0.0 0.0 -1.099497796255e+02 
-1.327134248833e+02 8.782698735984e-01 0.0 
8.782698735984e-01 -3.201821739985e+02 0.0 
0.0 0.0 -1.354686796646e+02 
-1.532545153398e+02 6.613312128314e+00 0.0 
6.613312128314e+00 -3.705432039086e+02 0.0 
0.0 0.0 -1.567393157745e+02 
-1.633211915226e+02 1.654195652215e+00 0.0 
1.654195652215e+00 -3.870826416448e+02 0.0 
0.0 0.0 -1.647211499502e+02 
-1.637563612247e+02 4.460192859771e+00 0.0 
4.460192859771e+00 -3.870215043061e+02 0.0 
0.0 0.0 -1.648333596593e+02 
-1.411801034755e+02 2.264469509011e+01 0.0 
2.264469509011e+01 -3.522901550418e+02 0.0 
0.0 0.0 -1.476410775552e+02 
-3.871436857859e+01 1.425111489816e+00 0.0 
1.425111489816e+00 -5.126238171288e+01 0.0 
0.0 0.0 -2.659302508744e+01 
-3.829505392172e+01 -1.309194195068e+00 0.0 
-1.309194195068e+00 -5.172689399779e+01 0.0 
0.0 0.0 -2.660658437585e+01 
-4.250767932014e+01 2.594565388845e+01 0.0 
2.594565388845e+01 -4.683252572585e+01 0.0 
0.0 0.0 -2.640206151380e+01 
-1.562638970352e+02 8.321582622320e+00 0.0 
8.321582622320e+00 -3.750500329352e+02 0.0 
0.0 0.0 -1.589941789911e+02 
-3.726597620133e+01 2.675283894877e+01 0.0 
2.675283894877e+01 -4.624613566019e+01 0.0 
0.0 0.0 -2.465363355845e+01 
-4.985268020602e+01 5.982982909505e+00 0.0 
5.982982909505e+00 -5.262381269925e+01 0.0 
0.0 0.0 -3.034294787158e+01 
-9.121809051234e+01 1.376645585964e+00 0.0 
1.376645585964e+00 -1.978124187131e+02 0.0 
0.0 0.0 -8.630915276762e+01 
-3.816488507887e+01 2.772088744691e+01 0.0 
2.772088744691e+01 -4.650377446963e+01 0.0 
0.0 0.0 -2.500059786455e+01 
-3.345404603048e+01 -2.639509245011e+01 0.0 
-2.639509245011e+01 -9.735085248261e+01 0.0 
0.0 0.0 -4.032338528852e+01 
-8.981789498858e+01 1.266221064774e+00 0.0 
1.266221064774e+00 -1.988659883919e+02 0.0 
0.0 0.0 -8.620516501415e+01 
-3.478664754227e+01 -2.458699583552e+01 0.0 
-2.458699583552e+01 -5.664137913059e+01 0.0 
0.0 0.0 -2.887834329484e+01 
-5.800773924824e+01 4.855977928433e+00 0.0 
4.855977928433e+00 -8.018297260264e+01 0.0 
0.0 0.0 -4.105721355526e+01 
-4.071908753462e+01 2.667434369417e+01 0.0 
2.667434369417e+01 -4.859386901195e+01 0.0 
0.0 0.0 -2.639388696397e+01 
-3.777720896506e+01 -5.532590329902e-01 0.0 
-5.532590329902e-01 -9.738742774498e+01 0.0 
0.0 0.0 -4.014939101301e+01 
-3.549797766037e+01 -1.877082177336e+01 0.0 
-1.877082177336e+01 -1.289336319956e+02 0.0 
0.0 0.0 -4.947807954235e+01 
-3.819917308603e+01 2.285245070230e+01 0.0 
2.285245070230e+01 -4.374555794279e+01 0.0 
0.0 0.0 -2.418341930864e+01 
-1.063886054387e+02 2.280744522132e+01 0.0 
2.280744522132e+01 -2.352913617661e+02 0.0 
0.0 0.0 -1.021039901614e+02 
-5.158639885340e+01 -1.164339436411e+00 0.0 
-1.164339436411e+00 -1.293773641956e+02 0.0 
0.0 0.0 -5.388912891470e+01 
-3.948601280294e+01 -1.492289498502e+00 0.0 
-1.492289498502e+00 -1.006779183318e+02 0.0 
0.0 0.0 -4.164917934042e+01 
-1.323370985615e+02 -7.093007521661e-01 0.0 
-7.093007521661e-01 -3.200833868807e+02 0.0 
0.0 0.0 -1.353261456327e+02 
-2.110087504120e+01 -1.789642543380e+00 0.0 
-1.789642543380e+00 -5.940464662139e+01 0.0 
0.0 0.0 -2.375165649878e+01 
-9.670326482915e+01 4.790519673228e+00 0.0 
4.790519673228e+00 -2.181434414853e+02 0.0 
0.0 0.0 -9.405401189433e+01 
-5.775484102349e+01 -2.303196182676e+01 0.0 
-2.303196182676e+01 -9.785129287484e+01 0.0 
0.0 0.0 -4.771174045269e+01 
-1.251581059072e+02 2.752257553258e+01 0.0 
2.752257553258e+01 -3.172414696393e+02 0.0 
0.0 0.0 -1.323198726640e+02 
-4.386396428241e+01 2.762908717960e+01 0.0 
2.762908717960e+01 -1.042706030367e+02 0.0 
0.0 0.0 -4.404037019572e+01 
-3.115296251301e+01 -1.812038313409e+01 0.0 
-1.812038313409e+01 -1.132108054574e+02 0.0 
0.0 0.0 -4.304325490493e+01 
-1.558294892767e+02 2.001623810134e+00 0.0 
2.001623810134e+00 -3.698244468770e+02 0.0 
0.0 0.0 -1.572961808461e+02 
-3.621715591721e+01 2.331507853333e+01 0.0 
2.331507853333e+01 -4.312146766385e+01 0.0 
0.0 0.0 -2.340158707432e+01 
-4.873769067130e+01 -9.222094395014e+00 0.0 
-9.222094395014e+00 -1.206038495645e+02 0.0 
0.0 0.0 -5.203734895340e+01 
-1.180017271935e+02 3.159675183211e+01 0.0 
3.159675183211e+01 -2.584203994939e+02 0.0 
0.0 0.0 -1.125266380062e+02 
-3.547053892720e+01 -1.127850015502e+01 0.0 
-1.127850015502e+01 -7.125766424982e+01 0.0 
0.0 0.0 -3.064687756151e+01 
-1.235311930598e+02 3.296714408693e+01 0.0 
3.296714408693e+01 -2.871724928825e+02 0.0 
0.0 0.0 -1.228111057827e+02 
-1.149117922089e+02 2.879406378032e-01 0.0 
2.879406378032e-01 -2.821629177813e+02 0.0 
0.0 0.0 -1.187224129971e+02 
-1.014726732187e+02 1.492256345232e+01 0.0 
1.492256345232e+01 -2.381029041770e+02 0.0 
0.0 0.0 -1.014726732187e+02 
-1.259240392960e+02 3.066807316849e+01 0.0 
3.066807316849e+01 -3.037786188672e+02 0.0 
0.0 0.0 -1.285107974490e+02 
-5.934770856464e+00 -1.153925011871e+00 0.0 
-1.153925011871e+00 -3.002008029766e+01 0.0 
0.0 0.0 -1.038645534624e+01 
-5.379411210229e+01 -2.324309401925e+00 0.0 
-2.324309401925e+00 -1.347573842401e+02 0.0 
0.0 0.0 -5.616544890271e+01 
-9.966667550188e+01 1.160591062069e+01 0.0 
1.160591062069e+01 -2.150694934394e+02 0.0 
0.0 0.0 -9.402085068238e+01 
-1.120397849335e+02 2.496705710288e+01 0.0 
2.496705710288e+01 -2.402882390009e+02 0.0 
0.0 0.0 -1.052984071803e+02 
-4.022019695123e+01 2.883285253658e+01 0.0 
2.883285253658e+01 -4.775142875135e+01 0.0 
0.0 0.0 -2.435869254809e+01 
-2.232318358926e+01 -1.775881855371e+00 0.0 
-1.775881855371e+00 -5.928397977633e+01 0.0 
0.0 0.0 -2.408214900968e+01 
-3.976151248203e+01 2.855592373026e+01 0.0 
2.855592373026e+01 -4.778036219570e+01 0.0 
0.0 0.0 -2.430384694841e+01 
-3.864062900981e+01 -1.507784636950e+01 0.0 
-1.507784636950e+01 -7.121950231250e+01 0.0 
0.0 0.0 -3.105877685900e+01 
-4.819865027605e+01 1.288528820451e+00 0.0 
1.288528820451e+00 -6.550948606775e+01 0.0 
0.0 0.0 -3.371244090314e+01 
-3.924403081025e+01 2.716366210833e+01 0.0 
2.716366210833e+01 -4.916991515183e+01 0.0 
0.0 0.0 -2.612418378862e+01 
-3.357041065232e+01 2.361702756164e+01 0.0 
2.361702756164e+01 -3.948111181569e+01 0.0 
0.0 0.0 -2.151545674040e+01 
-5.357153360331e+01 2.594057728051e+00 0.0 
2.594057728051e+00 -8.131755306216e+01 0.0 
0.0 0.0 -4.006672599964e+01 
-5.166201726674e+01 3.481662994623e-01 0.0 
3.481662994623e-01 -8.046659938942e+01 0.0 
0.0 0.0 -3.923858499685e+01 
-1.188467811645e+02 6.205572205961e-01 0.0 
6.205572205961e-01 -2.903368435680e+02 0.0 
0.0 0.0 -1.223550874197e+02 
-1.286519131837e+02 -8.462870469765e-01 0.0 
-8.462870469765e-01 -3.116660954387e+02 0.0 
0.0 0.0 -1.316954025867e+02 
-1.008443523831e+02 2.840790683628e+01 0.0 
2.840790683628e+01 -2.025668840340e+02 0.0 
0.0 0.0 -9.062337092514e+01 
-4.947786176671e+01 2.617406109395e+00 0.0 
2.617406109395e+00 -6.959363268196e+01 0.0 
0.0 0.0 -3.532144833460e+01 
-1.618660672714e+01 -2.602549533793e+00 0.0 
-2.602549533793e+00 -2.616609324880e+01 0.0 
0.0 0.0 -1.265947433579e+01 
-5.776280072008e+01 7.821489657245e+00 0.0 
7.821489657245e+00 -7.118382631200e+01 0.0 
0.0 0.0 -3.828398810963e+01 
-7.463394854361e+01 1.533009919181e+00 0.0 
1.533009919181e+00 -1.495499917309e+02 0.0 
0.0 0.0 -6.685518208237e+01 
-7.459756714898e+01 1.005486870865e+00 0.0 
1.005486870865e+00 -1.461517762826e+02 0.0 
0.0 0.0 -6.582480302947e+01 
-1.084286911647e+02 1.662549423331e+01 0.0 
1.662549423331e+01 -2.421552668078e+02 0.0 
0.0 0.0 -1.047751873918e+02 
-1.479751545347e+02 2.617153058092e+01 0.0 
2.617153058092e+01 -3.571312610391e+02 0.0 
0.0 0.0 -1.511319246722e+02 
-4.997535464302e+01 2.507064799002e+00 0.0 
2.507064799002e+00 -6.547685514051e+01 0.0 
0.0 0.0 -3.423566293506e+01 
-1.525850088177e+02 7.756479244681e+00 0.0 
7.756479244681e+00 -3.736755205944e+02 0.0 
0.0 0.0 -1.574781588236e+02 
-5.719960127531e+01 8.572739019265e-01 0.0 
8.572739019265e-01 -1.003746582325e+02 0.0 
0.0 0.0 -4.687227785233e+01 
-4.297156136544e+01 2.901545809912e+01 0.0 
2.901545809912e+01 -8.657289465680e+01 0.0 
0.0 0.0 -3.846333680667e+01 
-4.445696929978e+01 1.560291384900e+00 0.0 
1.560291384900e+00 -6.080809593312e+01 0.0 
0.0 0.0 -3.117951956987e+01 
-1.598012630139e+02 2.442307610050e-01 0.0 
2.442307610050e-01 -3.776802064809e+02 0.0 
0.0 0.0 -1.608444408484e+02 
-1.018528451367e+02 2.457812091054e+01 0.0 
2.457812091054e+01 -2.782398226636e+02 0.0 
0.0 0.0 -1.136278003401e+02 
-1.275159936359e+02 2.890712733743e+01 0.0 
2.890712733743e+01 -3.185552226114e+02 0.0 
0.0 0.0 -1.334213648742e+02 
-4.020109203475e+01 2.809475760174e+01 0.0 
2.809475760174e+01 -1.043579931878e+02 0.0 
0.0 0.0 -4.296772556676e+01 
-4.736201623067e+01 -2.934556518478e+01 0.0 
-2.934556518478e+01 -7.759478411292e+01 0.0 
0.0 0.0 -3.654090165550e+01 
-1.465235297416e+02 1.259696535254e+00 0.0 
1.259696535254e+00 -3.497209608845e+02 0.0 
0.0 0.0 -1.484733471879e+02 
-8.119232575301e+01 1.496872518115e+00 0.0 
1.496872518115e+00 -1.657076968420e+02 0.0 
0.0 0.0 -7.367000677850e+01 
-5.389342457932e+01 -3.412102147248e+01 0.0 
-3.412102147248e+01 -7.549720766050e+01 0.0 
0.0 0.0 -3.921561652618e+01 
-1.594012809454e+02 2.625867501212e+00 0.0 
2.625867501212e+00 -3.763032862992e+02 0.0 
0.0 0.0 -1.603113701734e+02 
-9.544760715881e+01 2.589271905719e+01 0.0 
2.589271905719e+01 -1.951928724562e+02 0.0 
0.0 0.0 -8.679214388449e+01 
-3.661880424665e+00 6.488895789728e-01 0.0 
6.488895789728e-01 -2.188323728500e+01 0.0 
0.0 0.0 -6.633250332458e+00 
-5.067104920017e+01 2.518755725101e+01 0.0 
2.518755725101e+01 -1.577350568560e+02 0.0 
0.0 0.0 -6.212183181686e+01 
-5.553893289010e+01 1.668650350435e+01 0.0 
1.668650350435e+01 -5.952936648049e+01 0.0 
0.0 0.0 -3.412048981118e+01 
-6.545413196086e+01 -2.305238100175e+00 0.0 
-2.305238100175e+00 -1.644605433504e+02 0.0 
0.0 0.0 -6.857440259337e+01 
-3.997617408060e+01 2.707673876491e+01 0.0 
2.707673876491e+01 -8.403428136461e+01 0.0 
0.0 0.0 -3.680313663356e+01 
-4.465457900127e+01 2.896570374479e+01 0.0 
2.896570374479e+01 -1.047516938031e+02 0.0 
0.0 0.0 -4.442188184132e+01 
-1.573456225968e+02 4.770029539879e+00 0.0 
4.770029539879e+00 -3.768279148625e+02 0.0 
0.0 0.0 -1.598520612378e+02 
-5.491516220788e+01 -3.798065662705e-01 0.0 
-3.798065662705e-01 -9.370675794815e+01 0.0 
0.0 0.0 -4.418657604681e+01 
-4.199301497562e+01 2.767655293849e+01 0.0 
2.767655293849e+01 -1.040933050898e+02 0.0 
0.0 0.0 -4.342589601961e+01 
-2.853629859642e+01 -6.059779833971e+00 0.0 
-6.059779833971e+00 -6.331075377581e+01 0.0 
0.0 0.0 -2.715411571167e+01 
-5.838571937435e+01 8.700380496914e+00 0.0 
8.700380496914e+00 -7.386287814316e+01 0.0 
0.0 0.0 -3.927457925525e+01 
-8.055886211292e+01 1.793088637205e+00 0.0 
1.793088637205e+00 -1.669819924805e+02 0.0 
0.0 0.0 -7.386225637804e+01 
-4.239553978014e+01 2.852440980707e+01 0.0 
2.852440980707e+01 -1.043238269191e+02 0.0 
0.0 0.0 -4.361581000977e+01 
-4.244117049931e+01 3.133061356860e+01 0.0 
3.133061356860e+01 -5.173817395840e+01 0.0 
0.0 0.0 -2.709777837675e+01 
-4.899760407606e+01 2.244036781242e+01 0.0 
2.244036781242e+01 -4.985510290939e+01 0.0 
0.0 0.0 -2.925581209563e+01 
-6.535641831218e+01 -2.756176609490e+00 0.0 
-2.756176609490e+00 -1.632173073778e+02 0.0 
0.0 0.0 -6.817211770699e+01 
-4.355701871265e+01 1.938644096590e+01 0.0 
1.938644096590e+01 -4.447435297406e+01 0.0 
0.0 0.0 -2.600941150601e+01 
-9.976722169594e+01 1.165213933275e+01 0.0 
1.165213933275e+01 -2.239350991906e+02 0.0 
0.0 0.0 -9.671069626596e+01 
-4.128483084184e+01 3.437380126060e+01 0.0 
3.437380126060e+01 -7.609604166482e+01 0.0 
0.0 0.0 -3.468267370834e+01 
-1.093415681581e+02 -1.352130231988e+00 0.0 
-1.352130231988e+00 -2.696919124283e+02 0.0 
0.0 0.0 -1.133100441759e+02 
-9.373263779749e+01 1.591538707261e+00 0.0 
1.591538707261e+00 -2.092001826100e+02 0.0 
0.0 0.0 -9.047984612226e+01 
-5.286281433330e+01 2.778266877255e+01 0.0 
2.778266877255e+01 -1.060250621705e+02 0.0 
0.0 0.0 -4.726636295113e+01 
-4.627759410841e+01 2.410423297371e+01 0.0 
2.410423297371e+01 -4.844689507780e+01 0.0 
0.0 0.0 -2.801734675586e+01 
-1.517053376577e+02 5.156252161649e+00 0.0 
5.156252161649e+00 -3.699212310480e+02 0.0 
0.0 0.0 -1.560879706117e+02 
-1.565146042545e+02 1.582967699907e+00 0.0 
1.582967699907e+00 -3.705183969644e+02 0.0 
0.0 0.0 -1.577099003657e+02 
-1.182985506578e+02 -1.044180598623e+00 0.0 
-1.044180598623e+00 -2.901663766060e+02 0.0 
0.0 0.0 -1.221394781791e+02 
-5.597992236912e+01 2.980969957314e+01 0.0 
2.980969957314e+01 -1.069002510157e+02 0.0 
0.0 0.0 -4.846405201545e+01 
-1.502794150015e+02 1.230609169672e+01 0.0 
1.230609169672e+01 -3.721373283839e+02 0.0 
0.0 0.0 -1.563250230156e+02 
-4.954815300995e+01 2.660335038016e+01 0.0 
2.660335038016e+01 -8.660345629902e+01 0.0 
0.0 0.0 -4.044548279269e+01 
-9.656627111820e+01 8.158857009101e+00 0.0 
8.158857009101e+00 -2.162748858993e+02 0.0 
0.0 0.0 -9.345234710526e+01 
-1.229732163471e+02 3.453018404737e+01 0.0 
3.453018404737e+01 -2.844626874742e+02 0.0 
0.0 0.0 -1.218307711464e+02 
-6.301612597621e+01 7.021214670823e+00 0.0 
7.021214670823e+00 -8.909161999311e+01 0.0 
0.0 0.0 -4.523232379080e+01 
-6.721077199784e+01 1.078559715542e+00 0.0 
1.078559715542e+00 -1.247955652374e+02 0.0 
0.0 0.0 -5.720190117058e+01 
-4.952735500859e+01 2.933336031244e+01 0.0 
2.933336031244e+01 -8.675848185792e+01 0.0 
0.0 0.0 -4.048575105995e+01 
-4.238445228131e+01 2.170853040484e+01 0.0 
2.170853040484e+01 -4.493367821822e+01 0.0 
0.0 0.0 -2.579543914986e+01 
-5.951728800854e+01 2.812112556385e+01 0.0 
2.812112556385e+01 -1.255928651182e+02 0.0 
0.0 0.0 -5.513304593803e+01 
-4.342152816734e+01 2.772903771914e+01 0.0 
2.772903771914e+01 -1.230338291525e+02 0.0 
0.0 0.0 -4.953660719595e+01 
-4.418771947094e+01 1.306789348698e+00 0.0 
1.306789348698e+00 -6.345104776155e+01 0.0 
0.0 0.0 -3.189163016975e+01 
-4.971360665022e+01 2.532553578520e+01 0.0 
2.532553578520e+01 -1.573518694263e+02 0.0 
0.0 0.0 -6.171964282296e+01 
-1.141516928302e+01 -1.106524725354e+00 0.0 
-1.106524725354e+00 -2.517318875333e+01 0.0 
0.0 0.0 -1.095194928435e+01 
-4.877372413419e+01 2.666144303961e-01 0.0 
2.666144303961e-01 -7.839970554233e+01 0.0 
0.0 0.0 -3.775202890296e+01 
-2.083933414314e+01 -6.664358043246e-01 0.0 
-6.664358043246e-01 -6.015796751838e+01 0.0 
0.0 0.0 -2.389919049846e+01 
-5.259008716906e+01 1.949461568997e+01 0.0 
1.949461568997e+01 -5.457984213210e+01 0.0 
0.0 0.0 -3.175097879035e+01 
-1.553989408783e+02 1.145949854300e+01 0.0 
1.145949854300e+01 -3.743999961513e+02 0.0 
0.0 0.0 -1.585396811089e+02 
-4.054749316177e+01 2.767716321504e+01 0.0 
2.767716321504e+01 -1.044619575474e+02 0.0 
0.0 0.0 -4.310283521276e+01 
-1.233023103082e+02 -9.581232092097e-01 0.0 
-9.581232092097e-01 -3.003826778278e+02 0.0 
0.0 0.0 -1.267054964408e+02 
-3.782975666234e+01 2.703028549398e+01 0.0 
2.703028549398e+01 -4.574399429419e+01 0.0 
0.0 0.0 -2.467212528696e+01 
-1.004972159423e+02 2.368073075841e+01 0.0 
2.368073075841e+01 -2.775450961617e+02 0.0 
0.0 0.0 -1.130126936312e+02 
-4.328619050717e+01 2.043047282941e-01 0.0 
2.043047282941e-01 -6.483479047515e+01 0.0 
0.0 0.0 -3.203629429470e+01 
-4.743823412199e+01 2.407073232554e+01 0.0 
2.407073232554e+01 -1.568283896003e+02 0.0 
0.0 0.0 -6.087998711668e+01 
-1.370156598597e+02 1.171053884908e+00 0.0 
1.171053884908e+00 -3.298947756653e+02 0.0 
0.0 0.0 -1.396731306575e+02 
-3.442532752594e+01 -9.504746084427e+00 0.0 
-9.504746084427e+00 -6.419731551638e+01 0.0 
0.0 0.0 -2.862296308259e+01 
-1.461353806521e+02 -4.023482879836e-01 0.0 
-4.023482879836e-01 -3.493042887634e+02 0.0 
0.0 0.0 -1.482319008246e+02 
-6.300936987859e+01 2.007767867863e+01 0.0 
2.007767867863e+01 -9.238869721876e+01 0.0 
0.0 0.0 -4.621942012921e+01 
-1.570173569414e+02 1.887782570716e+00 0.0 
1.887782570716e+00 -3.746113893650e+02 0.0 
0.0 0.0 -1.590886238919e+02 
-4.251010144056e+01 -1.553952769156e-02 0.0 
-1.553952769156e-02 -6.381294336016e+01 0.0 
0.0 0.0 -3.149691344021e+01 
-4.179236225412e+01 2.649496989287e+01 0.0 
2.649496989287e+01 -1.223712142094e+02 0.0 
0.0 0.0 -4.884907293907e+01 
-4.809666744671e+01 1.315718192072e+01 0.0 
1.315718192072e+01 -4.923568798887e+01 0.0 
0.0 0.0 -2.879970663067e+01 
-1.047144808932e+02 1.612671101098e-01 0.0 
1.612671101098e-01 -2.586120980070e+02 0.0 
0.0 0.0 -1.085979736701e+02 
-3.778354677455e+01 2.688454171723e+01 0.0 
2.688454171723e+01 -4.578361708933e+01 0.0 
0.0 0.0 -2.467014915917e+01 
-4.608179020832e+01 2.346752052363e+01 0.0 
2.346752052363e+01 -1.561351102854e+02 0.0 
0.0 0.0 -6.026507014812e+01 
-7.157348490861e+01 2.780038437583e+00 0.0 
2.780038437583e+00 -1.360000998866e+02 0.0 
0.0 0.0 -6.187207543856e+01 
-4.296124724347e+01 -3.878647187194e-01 0.0 
-3.878647187194e-01 -6.358170251720e+01 0.0 
0.0 0.0 -3.156288492820e+01 
-4.569712505459e+01 2.580576369826e+01 0.0 
2.580576369826e+01 -1.399253004690e+02 0.0 
0.0 0.0 -5.528672765707e+01 
-4.550856607709e+01 1.594603678320e+01 0.0 
1.594603678320e+01 -4.476213001763e+01 0.0 
0.0 0.0 -2.668120882841e+01 
-1.073066543912e+02 2.958087603157e+01 0.0 
2.958087603157e+01 -2.451563556386e+02 0.0 
0.0 0.0 -1.053389030090e+02 
-7.325786334721e+01 -2.342879771923e+00 0.0 
-2.342879771923e+00 -1.826726221976e+02 0.0 
0.0 0.0 -7.637914566346e+01 
-1.349662909992e+02 3.136588788464e+01 0.0 
3.136588788464e+01 -3.231442863210e+02 0.0 
0.0 0.0 -1.370331731961e+02 
-1.255174246345e+02 3.537776262529e+01 0.0 
3.537776262529e+01 -2.917388982728e+02 0.0 
0.0 0.0 -1.247768968722e+02 
-3.980053697793e+01 2.827766116342e+01 0.0 
2.827766116342e+01 -6.758933358606e+01 0.0 
0.0 0.0 -3.181696116920e+01 
-7.334628998130e+01 -2.447997033054e+00 0.0 
-2.447997033054e+00 -1.829039851855e+02 0.0 
0.0 0.0 -7.647508255005e+01 
-1.268680397850e+02 1.594948449423e+01 0.0 
1.594948449423e+01 -3.337961133102e+02 0.0 
0.0 0.0 -1.377992459286e+02 
-4.610945436928e+01 2.800667283546e+01 0.0 
2.800667283546e+01 -6.691607910106e+01 0.0 
0.0 0.0 -3.350766004110e+01 
-3.678570696559e+01 2.580468765314e+01 0.0 
2.580468765314e+01 -6.437734172840e+01 0.0 
0.0 0.0 -2.994891460820e+01 
-5.786859716350e+01 1.593434159460e+01 0.0 
1.593434159460e+01 -7.438655773758e+01 0.0 
0.0 0.0 -3.927654647033e+01 
-4.788468977576e+01 2.735569331669e+01 0.0 
2.735569331669e+01 -1.410852970065e+02 0.0 
0.0 0.0 -5.629099603467e+01 
-9.468205326763e+01 5.221592959705e+00 0.0 
5.221592959705e+00 -2.143650814144e+02 0.0 
0.0 0.0 -9.231414040461e+01 
-9.448814062878e+01 2.289811268511e+01 0.0 
2.289811268511e+01 -1.838499653993e+02 0.0 
0.0 0.0 -8.310143180842e+01 
-1.416894320281e+02 -7.436259817148e-01 0.0 
-7.436259817148e-01 -3.397480801520e+02 0.0 
0.0 0.0 -1.440312536541e+02 
-3.965523393412e+01 2.861945953040e+01 0.0 
2.861945953040e+01 -4.699008980438e+01 0.0 
0.0 0.0 -2.487960505584e+01 
-4.255728008483e+01 2.116576016829e+01 0.0 
2.116576016829e+01 -1.552301271266e+02 0.0 
0.0 0.0 -5.893622216343e+01 
-9.839474245018e+01 2.511872112034e+01 0.0 
2.511872112034e+01 -2.003370534005e+02 0.0 
0.0 0.0 -8.921953875519e+01 
-7.963916018059e+01 2.624602357330e+01 0.0 
2.624602357330e+01 -7.880960816197e+01 0.0 
0.0 0.0 -4.780258885528e+01 
-4.615429067531e+01 2.480358263879e+01 0.0 
2.480358263879e+01 -6.684799246984e+01 0.0 
0.0 0.0 -3.350068494354e+01 
-1.180715534269e+02 1.091723738088e+01 0.0 
1.091723738088e+01 -3.192347622783e+02 0.0 
0.0 0.0 -1.307918947116e+02 
-1.346737477209e+01 -1.173424354350e+00 0.0 
-1.173424354350e+00 -4.246018988206e+01 0.0 
0.0 0.0 -1.637826939625e+01 
-1.099074173967e+02 2.498436840106e+01 0.0 
2.498436840106e+01 -2.393219557966e+02 0.0 
0.0 0.0 -1.043688119580e+02 
-8.184346290533e+01 1.467835985053e+01 0.0 
1.467835985053e+01 -1.383502420530e+02 0.0 
0.0 0.0 -6.565811148750e+01 
-6.229212008466e+01 -9.779821481684e+00 0.0 
-9.779821481684e+00 -1.811067865798e+02 0.0 
0.0 0.0 -7.261967199935e+01 
-1.150599397518e+02 1.003406817868e+01 0.0 
1.003406817868e+01 -3.178610845789e+02 0.0 
0.0 0.0 -1.294763072992e+02 
-6.626857226279e+01 1.064598696270e+01 0.0 
1.064598696270e+01 -9.036826077155e+01 0.0 
0.0 0.0 -4.659104991030e+01 
-7.069015817797e+01 9.315077535193e+00 0.0 
9.315077535193e+00 -1.031886619319e+02 0.0 
0.0 0.0 -5.176364603296e+01 
-1.460718417842e+02 1.276625193920e+01 0.0 
1.276625193920e+01 -3.617647290767e+02 0.0 
0.0 0.0 -1.519509712583e+02 
-5.167906798391e+01 -1.056771071132e+01 0.0 
-1.056771071132e+01 -1.340376581913e+02 0.0 
0.0 0.0 -5.531501785255e+01 
-6.267547959256e+01 2.847930154172e+01 0.0 
2.847930154172e+01 -1.442186440481e+02 0.0 
0.0 0.0 -6.166823709220e+01 
-6.734258766845e+01 2.318908064372e+01 0.0 
2.318908064372e+01 -1.109657729823e+02 0.0 
0.0 0.0 -5.309250819523e+01 
-8.789806180840e+01 1.714904232874e+01 0.0 
1.714904232874e+01 -1.488493562520e+02 0.0 
0.0 0.0 -7.062422541811e+01 
-6.781026863051e+01 2.241172591381e+01 0.0 
2.241172591381e+01 -9.797660350078e+01 0.0 
0.0 0.0 -4.933606163939e+01 
-5.974673583869e+01 2.118791949193e+01 0.0 
2.118791949193e+01 -7.514884569807e+01 0.0 
0.0 0.0 -4.006867446103e+01 
-8.730879853951e+01 2.143663826505e+01 0.0 
2.143663826505e+01 -2.562663040997e+02 0.0 
0.0 0.0 -1.026725307917e+02 
-1.042674799067e+02 3.095917816957e+01 0.0 
3.095917816957e+01 -2.290631624366e+02 0.0 
0.0 0.0 -9.959919270299e+01 
-5.716278727271e+01 2.464476633995e+01 0.0 
2.464476633995e+01 -9.348411070815e+01 0.0 
0.0 0.0 -4.631787649942e+01 
-3.896994650423e+01 2.712809727674e+01 0.0 
2.712809727674e+01 -6.743726968237e+01 0.0 
0.0 0.0 -3.152216485598e+01 
-4.154397618344e+01 2.727931518549e+01 0.0 
2.727931518549e+01 -8.556351957460e+01 0.0 
0.0 0.0 -3.773224872741e+01 
-5.894851325081e+01 3.029344705261e+01 0.0 
3.029344705261e+01 -1.257741684265e+02 0.0 
0.0 0.0 -5.501680450320e+01 
-9.999627453616e+01 2.527218131300e+01 0.0 
2.527218131300e+01 -1.924369616537e+02 0.0 
0.0 0.0 -8.732997085697e+01 
-3.217245840404e+01 2.401516385018e+01 0.0 
2.401516385018e+01 -1.206370864718e+02 0.0 
0.0 0.0 -4.645153120498e+01 
-1.137022097243e+02 8.398006431603e+00 0.0 
8.398006431603e+00 -3.106516036999e+02 0.0 
0.0 0.0 -1.269061440273e+02 
-4.316534911089e+01 1.228753326271e+00 0.0 
1.228753326271e+00 -6.241132979645e+01 0.0 
0.0 0.0 -3.127300367220e+01 
-4.449591161350e+01 2.252761203020e+01 0.0 
2.252761203020e+01 -1.563276446789e+02 0.0 
0.0 0.0 -5.984706688772e+01 
-1.096827418721e+02 5.976204955312e+00 0.0 
5.976204955312e+00 -3.015432026901e+02 0.0 
0.0 0.0 -1.229677833687e+02 
-8.926862885292e+00 -2.605919307596e-01 0.0 
-2.605919307596e-01 -2.839507683134e+01 0.0 
0.0 0.0 -1.079658191499e+01 
-8.867707439313e+01 1.660907924036e+01 0.0 
1.660907924036e+01 -1.603251574672e+02 0.0 
0.0 0.0 -7.430066955810e+01 
-7.030607978151e+00 -1.372867454670e+00 0.0 
-1.372867454670e+00 -2.398834075876e+01 0.0 
0.0 0.0 -8.666926073119e+00 
-1.502362475322e+01 -1.371386362767e+00 0.0 
-1.371386362767e+00 -4.309292157950e+01 0.0 
0.0 0.0 -1.703496389982e+01 
-3.802217040919e+01 2.735743377172e+01 0.0 
2.735743377172e+01 -4.662457397774e+01 0.0 
0.0 0.0 -2.443410157673e+01 
-4.567268889470e+01 -1.050111347951e+01 0.0 
-1.050111347951e+01 -1.132423273033e+02 0.0 
0.0 0.0 -4.727450485938e+01 
-9.432151203760e+01 1.886771095618e+01 0.0 
1.886771095618e+01 -1.704689185797e+02 0.0 
0.0 0.0 -7.903712918520e+01 
-4.463101017113e+01 -9.785076792629e+00 0.0 
-9.785076792629e+00 -1.081377177303e+02 0.0 
0.0 0.0 -4.543061837042e+01 
-3.819515293680e+01 2.888055100371e+01 0.0 
2.888055100371e+01 -8.737876496650e+01 0.0 
0.0 0.0 -3.658534617870e+01 
-4.329944096962e+01 -2.256849104739e+01 0.0 
-2.256849104739e+01 -1.107116716254e+02 0.0 
0.0 0.0 -4.447636737775e+01 
-3.431768104894e+01 -8.569707968897e+00 0.0 
-8.569707968897e+00 -7.177144003995e+01 0.0 
0.0 0.0 -3.134315007549e+01 
-1.197381377465e+02 1.254988445735e+01 0.0 
1.254988445735e+01 -3.254480949471e+02 0.0 
0.0 0.0 -1.331558698081e+02 
-6.376168964739e+01 2.468041544834e+01 0.0 
2.468041544834e+01 -9.296626801461e+01 0.0 
0.0 0.0 -4.661838729860e+01 
-1.553929533330e+02 3.764495391535e-01 0.0 
3.764495391535e-01 -3.697656303488e+02 0.0 
0.0 0.0 -1.571475751045e+02 
-6.249902119662e+01 1.097330388099e+01 0.0 
1.097330388099e+01 -1.096787810630e+02 0.0 
0.0 0.0 -5.219504020274e+01 
-3.789574370278e+01 2.736767775327e+01 0.0 
2.736767775327e+01 -1.054605158997e+02 0.0 
0.0 0.0 -4.260687788075e+01 
-4.963000796487e+01 2.158503500258e+01 0.0 
2.158503500258e+01 -1.727997640658e+02 0.0 
0.0 0.0 -6.632893160921e+01 
-4.241028922627e+01 2.535854347248e+01 0.0 
2.535854347248e+01 -6.630178300867e+01 0.0 
0.0 0.0 -3.221362167048e+01 
-1.105392961396e+02 7.571100499127e+00 0.0 
7.571100499127e+00 -3.092180285165e+02 0.0 
0.0 0.0 -1.255271973968e+02 
-1.578163276757e+02 1.589035484300e+00 0.0 
1.589035484300e+00 -3.765327973894e+02 0.0 
0.0 0.0 -1.599047375195e+02 
-9.337876357261e+01 2.395531849956e+01 0.0 
2.395531849956e+01 -1.702252865011e+02 0.0 
0.0 0.0 -7.868121502211e+01 
-3.456429233327e+01 1.945818886251e+01 0.0 
1.945818886251e+01 -1.386353648013e+02 0.0 
0.0 0.0 -5.155989714038e+01 
-1.223561047803e+02 1.329360227254e+01 0.0 
1.329360227254e+01 -3.265773655763e+02 0.0 
0.0 0.0 -1.342800411070e+02 
-1.138646639361e+02 -1.369961601061e+00 0.0 
-1.369961601061e+00 -2.794193341267e+02 0.0 
0.0 0.0 -1.175851994188e+02 
-6.273892324011e+01 3.012500029385e+01 0.0 
3.012500029385e+01 -1.267885496841e+02 0.0 
0.0 0.0 -5.645824187727e+01 
-8.625127708732e+01 1.752813959281e+01 0.0 
1.752813959281e+01 -1.524776561512e+02 0.0 
0.0 0.0 -7.121867997154e+01 
-1.314781316231e+02 3.025122162700e+01 0.0 
3.025122162700e+01 -3.201448676258e+02 0.0 
0.0 0.0 -1.350868997747e+02 
-4.844975138112e+01 2.064265478408e+01 0.0 
2.064265478408e+01 -1.721008374359e+02 0.0 
0.0 0.0 -6.576517664511e+01 
-3.624665875199e+01 2.839912731313e+01 0.0 
2.839912731313e+01 -8.528377912585e+01 0.0 
0.0 0.0 -3.605913136335e+01 
-7.536835893399e+01 2.343358406249e+01 0.0 
2.343358406249e+01 -1.200240332741e+02 0.0 
0.0 0.0 -5.821771766244e+01 
-1.063696542453e+02 1.422333309696e+01 0.0 
1.422333309696e+01 -2.402859245929e+02 0.0 
0.0 0.0 -1.035966736515e+02 
-6.190089743713e+01 3.022297300808e+01 0.0 
3.022297300808e+01 -1.442036422267e+02 0.0 
0.0 0.0 -6.143136189913e+01 
-6.598193674941e+01 1.780473825347e+01 0.0 
1.780473825347e+01 -2.189864314534e+02 0.0 
0.0 0.0 -8.509051046084e+01 
-5.077475178705e+01 7.473700152039e-01 0.0 
7.473700152039e-01 -8.221550212466e+01 0.0 
0.0 0.0 -3.949707617351e+01 
-3.827758550165e+01 -1.534904574698e+01 0.0 
-1.534904574698e+01 -6.889196737728e+01 0.0 
0.0 0.0 -2.962290448984e+01 
-6.564514015693e+01 1.761253262004e+01 0.0 
1.761253262004e+01 -9.597472181615e+01 0.0 
0.0 0.0 -4.808595859192e+01 
-3.779173534309e+01 2.188850837724e+01 0.0 
2.188850837724e+01 -1.405285178828e+02 0.0 
0.0 0.0 -5.309607596778e+01 
-3.157829149838e+01 1.981631762276e+01 0.0 
1.981631762276e+01 -1.308226322211e+02 0.0 
0.0 0.0 -4.953842790564e+01 
-3.509675636619e+01 -2.375974076046e+01 0.0 
-2.375974076046e+01 -1.224284638695e+02 0.0 
0.0 0.0 -4.789966130473e+01 
-9.070057913826e+01 1.581118224857e+01 0.0 
1.581118224857e+01 -1.683659993817e+02 0.0 
0.0 0.0 -7.731997355599e+01 
-7.152524073202e+01 2.530341675363e+01 0.0 
2.530341675363e+01 -1.154016793134e+02 0.0 
0.0 0.0 -5.567807601363e+01 
-4.427011711879e+01 2.714688407664e+01 0.0 
2.714688407664e+01 -1.232589333125e+02 0.0 
0.0 0.0 -4.985871512938e+01 
-9.622119885566e+01 1.795070079331e+01 0.0 
1.795070079331e+01 -1.788028040339e+02 0.0 
0.0 0.0 -8.210720086688e+01 
-9.705714197058e+01 2.624561192262e+01 0.0 
2.624561192262e+01 -1.859067667593e+02 0.0 
0.0 0.0 -8.448917261895e+01 
-6.671075614534e+01 2.960120432745e+01 0.0 
2.960120432745e+01 -1.282431351786e+02 0.0 
0.0 0.0 -5.808616739718e+01 
-1.592446302886e+02 3.415597190733e+00 0.0 
3.415597190733e+00 -3.773637826347e+02 0.0 
0.0 0.0 -1.605825238770e+02 
-6.982924955576e+01 1.606350038087e+01 0.0 
1.606350038087e+01 -2.317340691125e+02 0.0 
0.0 0.0 -9.006899560047e+01 
-7.081762314499e+01 2.868427507057e+01 0.0 
2.868427507057e+01 -1.302316832715e+02 0.0 
0.0 0.0 -5.991479192496e+01 
-5.338362583541e+01 2.684779693968e+01 0.0 
2.684779693968e+01 -1.589809508345e+02 0.0 
0.0 0.0 -6.330937300098e+01 
-7.428035660445e+01 1.832904640922e+01 0.0 
1.832904640922e+01 -2.356561577982e+02 0.0 
0.0 0.0 -9.258095432079e+01 
-3.187882164094e+01 1.578886521067e+01 0.0 
1.578886521067e+01 -1.410410422919e+02 0.0 
0.0 0.0 -5.147595917986e+01 
-5.444863664024e+01 5.210531224371e+00 0.0 
5.210531224371e+00 -6.795988473325e+01 0.0 
0.0 0.0 -3.632255641204e+01 
-5.124255609751e+01 1.746392653192e+01 0.0 
1.746392653192e+01 -1.863859257216e+02 0.0 
0.0 0.0 -7.088854454574e+01 
-4.046284467813e+01 -5.565785424196e+00 0.0 
-5.565785424196e+00 -1.651668193662e+02 0.0 
0.0 0.0 -6.128889921329e+01 
-9.057011651888e+01 2.042071403821e+01 0.0 
2.042071403821e+01 -1.680818593952e+02 0.0 
0.0 0.0 -7.719559277424e+01 
-1.117654140558e+02 4.399176480498e+00 0.0 
4.399176480498e+00 -1.013697561668e+02 0.0 
0.0 0.0 -6.421429223911e+01 
-7.150565698833e+01 2.031170114682e+01 0.0 
2.031170114682e+01 -1.038563791283e+02 0.0 
0.0 0.0 -5.220861083498e+01 
-3.828895034616e+01 1.765563344462e+01 0.0 
1.765563344462e+01 -1.550260745487e+02 0.0 
0.0 0.0 -5.759450746847e+01 
-3.496267100492e+01 2.668405162935e+01 0.0 
2.668405162935e+01 -1.040790919538e+02 0.0 
0.0 0.0 -4.131252888763e+01 
-2.946540474834e+01 1.098740464163e+01 0.0 
1.098740464163e+01 -1.384223103841e+02 0.0 
0.0 0.0 -4.963657248054e+01 
-7.811306271644e+01 2.213311558537e+01 0.0 
2.213311558537e+01 -1.358586170048e+02 0.0 
0.0 0.0 -6.379150391637e+01 
-1.956500986460e+01 -4.043480780053e+00 0.0 
-4.043480780053e+00 -4.260859794500e+01 0.0 
0.0 0.0 -1.825208234288e+01 
-4.369764390728e+01 2.728422815949e+01 0.0 
2.728422815949e+01 -8.606388653755e+01 0.0 
0.0 0.0 -3.852845913345e+01 
-7.823772326097e+01 1.656365076091e+01 0.0 
1.656365076091e+01 -2.482503687530e+02 0.0 
0.0 0.0 -9.754642760419e+01 
-7.052248705621e+01 2.112353618047e+01 0.0 
2.112353618047e+01 -1.139408023181e+02 0.0 
0.0 0.0 -5.493898681228e+01 
-6.329863178468e+01 8.061428716558e+00 0.0 
8.061428716558e+00 -8.821436391554e+01 0.0 
0.0 0.0 -4.505389871007e+01 
-3.164544641158e+01 2.046759061976e+01 0.0 
2.046759061976e+01 -1.244372466397e+02 0.0 
0.0 0.0 -4.817244346666e+01 
-3.624158560386e+01 -1.953697857598e+00 0.0 
-1.953697857598e+00 -1.641753571819e+02 0.0 
0.0 0.0 -5.972508283574e+01 
-4.075386528676e+01 -1.103748520301e+01 0.0 
-1.103748520301e+01 -1.558407910451e+02 0.0 
0.0 0.0 -5.857839689956e+01 
-4.075527830422e+01 2.844853886974e+01 0.0 
2.844853886974e+01 -6.720334711134e+01 0.0 
0.0 0.0 -3.198758762467e+01 
-8.946199935744e+01 2.130495547473e+01 0.0 
2.130495547473e+01 -1.548455176490e+02 0.0 
0.0 0.0 -7.289225510192e+01 
-4.471500892734e+01 2.934220871127e+01 0.0 
2.934220871127e+01 -8.693631001755e+01 0.0 
0.0 0.0 -3.909539568347e+01 
-4.846082913734e+01 1.592566632741e+01 0.0 
1.592566632741e+01 -1.844459881222e+02 0.0 
0.0 0.0 -6.947204517787e+01 
-4.622396909832e+01 1.937393098026e+01 0.0 
1.937393098026e+01 -1.712218690389e+02 0.0 
0.0 0.0 -6.483375144117e+01 
-2.666016383117e+01 1.459416362127e+01 0.0 
1.459416362127e+01 -1.116597745282e+02 0.0 
0.0 0.0 -4.257503337732e+01 
-5.696554687511e+01 2.488578455126e+01 0.0 
2.488578455126e+01 -1.757291573007e+02 0.0 
0.0 0.0 -6.940841125273e+01 
-3.804766511530e+01 2.897078134430e+01 0.0 
2.897078134430e+01 -6.827606895525e+01 0.0 
0.0 0.0 -3.022653482131e+01 
-1.155314888910e+02 2.617424543076e+01 0.0 
2.617424543076e+01 -2.573415961417e+02 0.0 
0.0 0.0 -1.114619255098e+02 
-1.187446869066e+02 3.059375397789e+01 0.0 
3.059375397789e+01 -2.669265040405e+02 0.0 
0.0 0.0 -1.153013572841e+02 
-6.577190483871e+01 2.834988032997e+01 0.0 
2.834988032997e+01 -1.622718417892e+02 0.0 
0.0 0.0 -6.801312398838e+01 
-3.492261630562e+01 1.936236572858e+01 0.0 
1.936236572858e+01 -1.409647315313e+02 0.0 
0.0 0.0 -5.236620435109e+01 
-3.264596330917e+01 2.545396618192e+01 0.0 
2.545396618192e+01 -1.053635290296e+02 0.0 
0.0 0.0 -4.100284770165e+01 
-7.457828937970e+01 2.690324415953e+01 0.0 
2.690324415953e+01 -1.481288576075e+02 0.0 
0.0 0.0 -6.641214409615e+01 
-3.140144632769e+01 2.125987193850e+01 0.0 
2.125987193850e+01 -1.230013265801e+02 0.0 
0.0 0.0 -4.592083187235e+01 
-3.469914531497e+01 -7.745967753374e+00 0.0 
-7.745967753374e+00 -1.540075910110e+02 0.0 
0.0 0.0 -5.621202089778e+01 
-6.329115189725e+01 2.757054003963e+01 0.0 
2.757054003963e+01 -1.263705539272e+02 0.0 
0.0 0.0 -5.649851174732e+01 
-1.001434092123e+02 9.181525616706e+00 0.0 
9.181525616706e+00 -2.186381123439e+02 0.0 
0.0 0.0 -9.523445646688e+01 
-4.139218350035e+01 2.038919548749e+01 0.0 
2.038919548749e+01 -1.557314133971e+02 0.0 
0.0 0.0 -5.873707906922e+01 
-8.673899045049e+01 2.121021976762e+01 0.0 
2.121021976762e+01 -2.559848439445e+02 0.0 
0.0 0.0 -1.024171503185e+02 
-3.886326201226e+01 2.959540603824e+01 0.0 
2.959540603824e+01 -8.964702923798e+01 0.0 
0.0 0.0 -3.671613684406e+01 
-1.583740919304e+02 1.690523811747e+01 0.0 
1.690523811747e+01 -3.828478822314e+02 0.0 
0.0 0.0 -1.619665922485e+02 
-3.548545424667e+01 2.386365879560e+01 0.0 
2.386365879560e+01 -1.253322544718e+02 0.0 
0.0 0.0 -4.784531261554e+01 
-6.657511249558e+01 2.827312750334e+01 0.0 
2.827312750334e+01 -1.451805047067e+02 0.0 
0.0 0.0 -6.312668516069e+01 
-2.967546405930e+01 1.523416705456e+01 0.0 
1.523416705456e+01 -1.336242537962e+02 0.0 
0.0 0.0 -5.007509136777e+01 
-8.898852456254e+01 8.208769634449e+00 0.0 
8.208769634449e+00 -2.734267302090e+02 0.0 
0.0 0.0 -1.083245764315e+02 
-5.207507469514e+01 1.868380457910e+01 0.0 
1.868380457910e+01 -1.870168418589e+02 0.0 
0.0 0.0 -7.132757496620e+01 
-3.912486975955e+01 -1.039057813566e+01 0.0 
-1.039057813566e+01 -1.570646048366e+02 0.0 
0.0 0.0 -5.845684237884e+01 
-6.743626493893e+01 2.709517129985e+01 0.0 
2.709517129985e+01 -1.117224681007e+02 0.0 
0.0 0.0 -5.334761991188e+01 
-1.261773345124e+02 3.569837666030e+01 0.0 
3.569837666030e+01 -2.895122276255e+02 0.0 
0.0 0.0 -1.243068686414e+02 
-4.286718854262e+01 1.655134034625e+01 0.0 
1.655134034625e+01 -1.694944813665e+02 0.0 
0.0 0.0 -6.330850097275e+01 
-7.910427454001e+01 1.628878143420e+01 0.0 
1.628878143420e+01 -2.485628434345e+02 0.0 
0.0 0.0 -9.790013539236e+01 
-3.432469221180e+01 2.685784731805e+01 0.0 
2.685784731805e+01 -8.785312147067e+01 0.0 
0.0 0.0 -3.563553156210e+01 
-7.147088498273e+01 5.711674910571e+00 0.0 
5.711674910571e+00 -1.198525600347e+02 0.0 
0.0 0.0 -5.699703350522e+01 
-1.063727475823e+02 5.185200419244e+00 0.0 
5.185200419244e+00 -2.999924628777e+02 0.0 
0.0 0.0 -1.215095631380e+02 
-3.803371049843e+01 2.838182499203e+01 0.0 
2.838182499203e+01 -8.518982331174e+01 0.0 
0.0 0.0 -3.656706014305e+01 
-6.987437182711e+01 6.406136865164e+00 0.0 
6.406136865164e+00 -1.115377084146e+02 0.0 
0.0 0.0 -5.402362407251e+01 
-1.334590468718e+02 3.743228010499e+01 0.0 
3.743228010499e+01 -3.130376261632e+02 0.0 
0.0 0.0 -1.335490019105e+02 
-1.170608121876e+02 6.881283909851e+00 0.0 
6.881283909851e+00 -3.182694797873e+02 0.0 
0.0 0.0 -1.301990875925e+02 
-1.240114613772e+02 3.431141228054e+01 0.0 
3.431141228054e+01 -2.818023985611e+02 0.0 
0.0 0.0 -1.213441579815e+02 
-7.259267260971e+01 8.859703317988e+00 0.0 
8.859703317988e+00 -1.117532853760e+02 0.0 
0.0 0.0 -5.490378739572e+01 
-9.689304657463e+01 2.886699534089e+01 0.0 
2.886699534089e+01 -1.966623570090e+02 0.0 
0.0 0.0 -8.766662107509e+01 
-3.759057537951e+01 2.869528850517e+01 0.0 
2.869528850517e+01 -6.617370490801e+01 0.0 
0.0 0.0 -3.072928408626e+01 
-6.003306970438e+01 2.651696241939e+01 0.0 
2.651696241939e+01 -9.054735910605e+01 0.0 
0.0 0.0 -4.477412864313e+01 
-7.109575025159e+01 2.538880392583e+01 0.0 
2.538880392583e+01 -1.296767265023e+02 0.0 
0.0 0.0 -5.983174302615e+01 
-7.495280614070e+01 2.740462564221e+01 0.0 
2.740462564221e+01 -1.331359779858e+02 0.0 
0.0 0.0 -6.202663523795e+01 
-5.817275550035e+01 2.983298080431e+01 0.0 
2.983298080431e+01 -1.434234063821e+02 0.0 
0.0 0.0 -6.007884856474e+01 
-1.386541058605e+02 3.663860817982e+01 0.0 
3.663860817982e+01 -3.289390908501e+02 0.0 
0.0 0.0 -1.398779590132e+02 
-7.025457255529e+01 1.017874462103e+01 0.0 
1.017874462103e+01 -1.048788988714e+02 0.0 
0.0 0.0 -5.214004142802e+01 
-6.368780901195e+01 1.868728271904e+01 0.0 
1.868728271904e+01 -8.184578825349e+01 0.0 
0.0 0.0 -4.326007917963e+01 
-4.480959940111e+01 1.769878834361e+01 0.0 
1.769878834361e+01 -1.702589416419e+02 0.0 
0.0 0.0 -6.412056231290e+01 
-4.026756587501e+01 -9.997528686643e+00 0.0 
-9.997528686643e+00 -9.271022262657e+01 0.0 
0.0 0.0 -3.949333655048e+01 
-5.626692892962e+01 2.378708253421e+01 0.0 
2.378708253421e+01 -7.143205202711e+01 0.0 
0.0 0.0 -3.790969428702e+01 
-3.907579492633e+01 2.735102071650e+01 0.0 
2.735102071650e+01 -1.043848639399e+02 0.0 
0.0 0.0 -4.263819765988e+01 
-4.336818649708e+01 3.488920468749e-01 0.0 
3.488920468749e-01 -6.456011471111e+01 0.0 
0.0 0.0 -3.197849036246e+01 
-4.571951570205e+01 -1.233218984961e+01 0.0 
-1.233218984961e+01 -1.594484740761e+02 0.0 
0.0 0.0 -6.115039693345e+01 
-3.918998382176e+01 1.831293263129e+01 0.0 
1.831293263129e+01 -1.543726219800e+02 0.0 
0.0 0.0 -5.766878174054e+01 
-9.292304079286e+01 1.934729694090e+01 0.0 
1.934729694090e+01 -1.749875391449e+02 0.0 
0.0 0.0 -7.997317398133e+01 
-3.760628406261e+01 2.742726805052e+01 0.0 
2.742726805052e+01 -1.037743783968e+02 0.0 
0.0 0.0 -4.201419873783e+01 
-6.342202960594e+01 2.491846966222e+01 0.0 
2.491846966222e+01 -1.086941671819e+02 0.0 
0.0 0.0 -5.123485903634e+01 
-8.287623898078e+01 1.453912314466e+01 0.0 
1.453912314466e+01 -2.599021919949e+02 0.0 
0.0 0.0 -1.024335292927e+02 
-8.141653601371e+01 -3.025960079031e+00 0.0 
-3.025960079031e+00 -2.431773044377e+02 0.0 
0.0 0.0 -9.697815213541e+01 
-1.461476745626e+02 3.259673253535e+01 0.0 
3.259673253535e+01 -3.511857344626e+02 0.0 
0.0 0.0 -1.488000227076e+02 
-4.949886210387e+01 2.705532440376e+01 0.0 
2.705532440376e+01 -6.811857201435e+01 0.0 
0.0 0.0 -3.488523023547e+01 
-3.325728896230e+01 3.080583343795e+00 0.0 
3.080583343795e+00 -1.587305275351e+02 0.0 
0.0 0.0 -5.719634494921e+01 
-6.247265350382e+01 -9.756521608581e+00 0.0 
-9.756521608581e+00 -1.773913037836e+02 0.0 
0.0 0.0 -7.155918718621e+01 
-3.848872018423e+01 2.787730820136e+01 0.0 
2.787730820136e+01 -6.552606934352e+01 0.0 
0.0 0.0 -3.080443685833e+01 
-3.840713056731e+01 2.772084963507e+01 0.0 
2.772084963507e+01 -8.524491111207e+01 0.0 
0.0 0.0 -3.669561250381e+01 
-1.035486370113e+02 2.737970693303e+01 0.0 
2.737970693303e+01 -2.080806980708e+02 0.0 
0.0 0.0 -9.308880052463e+01 
-6.989408178920e+01 3.021359884646e+01 0.0 
3.021359884646e+01 -1.466613489369e+02 0.0 
0.0 0.0 -6.456662921782e+01 
-4.399610291936e+01 2.826639859801e+01 0.0 
2.826639859801e+01 -6.732445256432e+01 0.0 
0.0 0.0 -3.299616664510e+01 
-5.581269442349e+01 2.417787923326e+01 0.0 
2.417787923326e+01 -8.780059516180e+01 0.0 
0.0 0.0 -4.268398687559e+01 
-1.533195201441e+02 2.400482802875e+01 0.0 
2.400482802875e+01 -3.722077352972e+02 0.0 
0.0 0.0 -1.572581766324e+02 
-1.412397473768e+02 2.377552081318e+01 0.0 
2.377552081318e+01 -3.529018983533e+02 0.0 
0.0 0.0 -1.478424937190e+02 
-1.009048669920e+02 2.427364506541e+01 0.0 
2.427364506541e+01 -2.060029028828e+02 0.0 
0.0 0.0 -9.167233096243e+01 
-9.226898502106e+01 2.001130460844e+01 0.0 
2.001130460844e+01 -1.626907527241e+02 0.0 
0.0 0.0 -7.608792132356e+01 
-8.031461274568e+01 -2.494736918791e+00 0.0 
-2.494736918791e+00 -2.379599344431e+02 0.0 
0.0 0.0 -9.508236415662e+01 
-4.711067938616e+01 2.949607927547e+01 0.0 
2.949607927547e+01 -1.057127506310e+02 0.0 
0.0 0.0 -4.544702900515e+01 
-3.149903823370e+01 1.588555024737e+01 0.0 
1.588555024737e+01 -1.387266007271e+02 0.0 
0.0 0.0 -5.066769168824e+01 
-3.602180058632e+01 1.470766367786e+01 0.0 
1.470766367786e+01 -1.534192830172e+02 0.0 
0.0 0.0 -5.643232508105e+01 
-6.580251415797e+01 3.039889135384e+01 0.0 
3.039889135384e+01 -1.453016630443e+02 0.0 
0.0 0.0 -6.293125316069e+01 
-8.601290683826e+01 9.598726970275e+00 0.0 
9.598726970275e+00 -2.649788310637e+02 0.0 
0.0 0.0 -1.048975213706e+02 
-7.805505932946e+01 -4.772125931207e+00 0.0 
-4.772125931207e+00 -2.038125943698e+02 0.0 
0.0 0.0 -8.416029610977e+01 
-9.897208493625e+01 2.116186183572e+01 0.0 
2.116186183572e+01 -1.971148181797e+02 0.0 
0.0 0.0 -8.842607093478e+01 
-3.537334329922e+01 -1.514318348440e+00 0.0 
-1.514318348440e+00 -1.586034004562e+02 0.0 
0.0 0.0 -5.779302312662e+01 
-5.460942729681e+01 2.911958155013e+01 0.0 
2.911958155013e+01 -1.427340358221e+02 0.0 
0.0 0.0 -5.880303893566e+01 
-6.708810025240e+01 2.660323676102e+01 0.0 
2.660323676102e+01 -1.275755707557e+02 0.0 
0.0 0.0 -5.799910130243e+01 
-4.916611478490e+01 2.911700770667e+01 0.0 
2.911700770667e+01 -1.241605626486e+02 0.0 
0.0 0.0 -5.159800323004e+01 
-1.221913778334e+02 3.270919822498e+01 0.0 
3.270919822498e+01 -2.746492639521e+02 0.0 
0.0 0.0 -1.186521925356e+02 
-1.162311106562e+02 2.811246669879e+01 0.0 
2.811246669879e+01 -2.614156990691e+02 0.0 
0.0 0.0 -1.128940429176e+02 
-1.132920627056e+02 2.790686325088e+01 0.0 
2.790686325088e+01 -2.413766616106e+02 0.0 
0.0 0.0 -1.060006172949e+02 
-8.829213291462e+01 -3.132704886537e-01 0.0 
-3.132704886537e-01 -2.557955925514e+02 0.0 
0.0 0.0 -1.028263176398e+02 
-9.242677377485e+01 1.511363852836e+01 0.0 
1.511363852836e+01 -1.766702185393e+02 0.0 
0.0 0.0 -8.032909769424e+01 
-3.791343102766e+01 2.817157063346e+01 0.0 
2.817157063346e+01 -8.595572794539e+01 0.0 
0.0 0.0 -3.676074769192e+01 
-4.155254542832e+01 1.414873030337e+01 0.0 
1.414873030337e+01 -1.684091679837e+02 0.0 
0.0 0.0 -6.258851402361e+01 
-2.740174736512e+01 1.179759275543e+01 0.0 
1.179759275543e+01 -1.251962281864e+02 0.0 
0.0 0.0 -4.571686046585e+01 
-4.696933704787e+01 2.934259437877e+01 0.0 
2.934259437877e+01 -8.704930981736e+01 0.0 
0.0 0.0 -3.980559405957e+01 
-5.332804801671e+01 3.962604922923e+00 0.0 
3.962604922923e+00 -6.707814748439e+01 0.0 
0.0 0.0 -3.572185865033e+01 
-6.858158847587e+01 5.753621613537e+00 0.0 
5.753621613537e+00 -1.096223138805e+02 0.0 
0.0 0.0 -5.306117070690e+01 
-1.468519867669e+02 1.674202494276e+01 0.0 
1.674202494276e+01 -3.667156137767e+02 0.0 
0.0 0.0 -1.536702801631e+02 
-1.017060640606e+02 2.676989707026e+01 0.0 
2.676989707026e+01 -2.163470391974e+02 0.0 
0.0 0.0 -9.501593097740e+01 
-7.383772205441e+01 1.914894896593e+01 0.0 
1.914894896593e+01 -1.184389844402e+02 0.0 
0.0 0.0 -5.728301194838e+01 
-7.838028103704e+01 2.577456327440e+01 0.0 
2.577456327440e+01 -1.504268540841e+02 0.0 
0.0 0.0 -6.824214053633e+01 
-2.960210069333e+01 1.074105507434e+01 0.0 
1.074105507434e+01 -1.405475901508e+02 0.0 
0.0 0.0 -5.217362037023e+01 
-2.952579457094e+01 -1.004652669134e+01 0.0 
-1.004652669134e+01 -4.726169258469e+01 0.0 
0.0 0.0 -2.135056721893e+01 
-5.319193638357e+01 2.338048614105e+01 0.0 
2.338048614105e+01 -1.742530135148e+02 0.0 
0.0 0.0 -6.783348496951e+01 
-6.088044849813e+01 2.904621075771e+01 0.0 
2.904621075771e+01 -1.610965647370e+02 0.0 
0.0 0.0 -6.619310397052e+01 
-5.587609918503e+01 2.492112605007e+01 0.0 
2.492112605007e+01 -1.752740225696e+02 0.0 
0.0 0.0 -6.894503652640e+01 
-4.176223745873e+01 3.191102953879e+01 0.0 
3.191102953879e+01 -5.167944551852e+01 0.0 
0.0 0.0 -2.714029126185e+01 
-4.962439341003e+01 1.297054883118e-01 0.0 
1.297054883118e-01 -8.110769452611e+01 0.0 
0.0 0.0 -3.881962638084e+01 
-3.748775179538e+01 -8.589956119127e+00 0.0 
-8.589956119127e+00 -8.584642312093e+01 0.0 
0.0 0.0 -3.660025247490e+01 
-3.769944112465e+01 2.514949488574e+01 0.0 
2.514949488574e+01 -1.237875151336e+02 0.0 
0.0 0.0 -4.804608687747e+01 
-1.641350148739e+02 1.736911566851e+01 0.0 
1.736911566851e+01 -3.843150347059e+02 0.0 
0.0 0.0 -1.641350148739e+02 
-9.259181141716e+01 1.993515241762e+01 0.0 
1.993515241762e+01 -2.701226189778e+02 0.0 
0.0 0.0 -1.084143291185e+02 
-6.006119854662e+01 1.347963636671e+01 0.0 
1.347963636671e+01 -7.939182100983e+01 0.0 
0.0 0.0 -4.143590586693e+01 
-1.978040059654e+01 -1.049190914414e+00 0.0 
-1.049190914414e+00 -5.929016796069e+01 0.0 
0.0 0.0 -2.332117056717e+01 
-5.893174975272e+01 2.843400292812e+01 0.0 
2.843400292812e+01 -1.434709918291e+02 0.0 
0.0 0.0 -6.032082247456e+01 
-5.211040953353e+01 2.295900021075e+01 0.0 
2.295900021075e+01 -1.737089705426e+02 0.0 
0.0 0.0 -6.734581402284e+01 
-7.890009771828e+01 2.591076909866e+01 0.0 
2.591076909866e+01 -1.368798340835e+02 0.0 
0.0 0.0 -6.433397954054e+01 
-1.281835857376e+02 3.646898749789e+01 0.0 
3.646898749789e+01 -2.972072263268e+02 0.0 
0.0 0.0 -1.272172436193e+02 
-5.939481841050e+01 2.238905942013e+01 0.0 
2.238905942013e+01 -8.960925414240e+01 0.0 
0.0 0.0 -4.430122176587e+01 
-7.403749858719e+01 2.972679438070e+01 0.0 
2.972679438070e+01 -1.484181291758e+02 0.0 
0.0 0.0 -6.633668832889e+01 
-7.545407849986e+01 -6.624964092969e+00 0.0 
-6.624964092969e+00 -2.023127357321e+02 0.0 
0.0 0.0 -8.293004426959e+01 
-9.498577173097e+01 1.857829343280e+01 0.0 
1.857829343280e+01 -1.824001651169e+02 0.0 
0.0 0.0 -8.281578105437e+01 
-8.991129944536e+01 -1.046545110488e+00 0.0 
-1.046545110488e+00 -2.615932811207e+02 0.0 
0.0 0.0 -1.050513741698e+02 
-1.313731312291e+02 3.738607081880e+01 0.0 
3.738607081880e+01 -3.051213733819e+02 0.0 
0.0 0.0 -1.305483513833e+02 
-1.177450911999e+02 3.164520738525e+01 0.0 
3.164520738525e+01 -2.760718794664e+02 0.0 
0.0 0.0 -1.177450911999e+02 
-1.072621330726e+02 2.367868785224e+01 0.0 
2.367868785224e+01 -2.516116438360e+02 0.0 
0.0 0.0 -1.072621330726e+02 
-1.111742077472e+02 2.776855474999e+01 0.0 
2.776855474999e+01 -2.607398180767e+02 0.0 
0.0 0.0 -1.111742077472e+02 
-8.198853892133e+01 2.444372436378e+01 0.0 
2.444372436378e+01 -1.534729358259e+02 0.0 
0.0 0.0 -7.023844242417e+01 
-9.833039616816e+01 2.155221432807e+01 0.0 
2.155221432807e+01 -1.843769203295e+02 0.0 
0.0 0.0 -8.441219494929e+01 
-1.046997578824e+02 2.653113755527e+01 0.0 
2.653113755527e+01 -2.226071850022e+02 0.0 
0.0 0.0 -9.779208286538e+01 
-4.938699889591e+01 2.805028430749e+01 0.0 
2.805028430749e+01 -1.240685018409e+02 0.0 
0.0 0.0 -5.163665022105e+01 
-4.653175056192e+01 2.794917708428e+01 0.0 
2.794917708428e+01 -1.051875631584e+02 0.0 
0.0 0.0 -4.511579411611e+01 
-7.437176312970e+01 -4.547747120287e+00 0.0 
-4.547747120287e+00 -1.912691803529e+02 0.0 
0.0 0.0 -7.929228304479e+01 
-1.022597705277e+02 2.426687304005e+01 0.0 
2.426687304005e+01 -1.991670386516e+02 0.0 
0.0 0.0 -9.002804275378e+01 
-1.359927087574e+02 3.724929296895e+01 0.0 
3.724929296895e+01 -3.210042391432e+02 0.0 
0.0 0.0 -1.366990843702e+02 
-9.660085945214e+01 1.773290984484e+01 0.0 
1.773290984484e+01 -1.900039565280e+02 0.0 
0.0 0.0 -8.558144479403e+01 
-8.316314243614e+01 1.905185113804e+01 0.0 
1.905185113804e+01 -2.527412452900e+02 0.0 
0.0 0.0 -1.003713163179e+02 
-1.001207104189e+02 2.057768950408e+01 0.0 
2.057768950408e+01 -1.920548041676e+02 0.0 
0.0 0.0 -8.725265437596e+01 
-9.161463383845e+01 2.910061989851e+01 0.0 
2.910061989851e+01 -2.348591029481e+02 0.0 
0.0 0.0 -9.754212103596e+01 
-5.816001184754e+01 2.736402925114e+01 0.0 
2.736402925114e+01 -1.604265478312e+02 0.0 
0.0 0.0 -6.517596790362e+01 
-4.620771639707e+01 2.713293136500e+01 0.0 
2.713293136500e+01 -8.639364056718e+01 0.0 
0.0 0.0 -3.938040708927e+01 
-3.681501136903e+01 2.769774809668e+01 0.0 
2.769774809668e+01 -1.105864805566e+02 0.0 
0.0 0.0 -4.307856087389e+01 
-9.966917774575e+01 1.488595061530e+01 0.0 
1.488595061530e+01 -2.225860038516e+02 0.0 
0.0 0.0 -9.627655447922e+01 
-4.673207728563e+01 2.770085031680e+01 0.0 
2.770085031680e+01 -1.238148743533e+02 0.0 
0.0 0.0 -5.076408549167e+01 
-1.235680930320e+02 3.132018561974e+01 0.0 
3.132018561974e+01 -2.946906682590e+02 0.0 
0.0 0.0 -1.250776283873e+02 
-7.231609860977e+01 -6.568054549575e+00 0.0 
-6.568054549575e+00 -1.899638887438e+02 0.0 
0.0 0.0 -7.828399620608e+01 
-4.599338614338e+01 -1.539439193241e+01 0.0 
-1.539439193241e+01 -1.459277173428e+02 0.0 
0.0 0.0 -5.717633104584e+01 
-1.530605883208e+02 1.495297760772e+01 0.0 
1.495297760772e+01 -3.707610257033e+02 0.0 
0.0 0.0 -1.567464842072e+02 
-3.975851680212e+01 2.599872218925e+01 0.0 
2.599872218925e+01 -1.227768419968e+02 0.0 
0.0 0.0 -4.836060763967e+01 
-1.211201798959e+02 3.320031524260e+01 0.0 
3.320031524260e+01 -2.839470864238e+02 0.0 
0.0 0.0 -1.211201798959e+02 
-1.082028869825e+02 2.453387627161e+01 0.0 
2.453387627161e+01 -2.399111276872e+02 0.0 
0.0 0.0 -1.040342044009e+02 
-7.384760047636e+01 2.830933270271e+01 0.0 
2.830933270271e+01 -1.646366846500e+02 0.0 
0.0 0.0 -7.114528553790e+01 
-2.156170479402e+01 -5.893015545901e+00 0.0 
-5.893015545901e+00 -2.506404273187e+01 0.0 
0.0 0.0 -1.392614186006e+01 
-1.280502955170e+02 3.498469268644e+01 0.0 
3.498469268644e+01 -3.001173562063e+02 0.0 
0.0 0.0 -1.280502955170e+02 
-1.503853282520e+02 1.936204118508e+01 0.0 
1.936204118508e+01 -3.647558465366e+02 0.0 
0.0 0.0 -1.541423524366e+02 
-3.894975671084e+01 -1.440044556985e+01 0.0 
-1.440044556985e+01 -1.431562288777e+02 0.0 
0.0 0.0 -5.423179567656e+01 
-8.828119951722e+01 1.725826200651e+01 0.0 
1.725826200651e+01 -2.655513425769e+02 0.0 
0.0 0.0 -1.057497626282e+02 
-1.481174792435e+02 3.059665502689e+01 0.0 
3.059665502689e+01 -3.572914064346e+02 0.0 
0.0 0.0 -1.512226657034e+02 
-8.829570555308e+00 -8.690770975917e-01 0.0 
-8.690770975917e-01 -9.479093250840e+00 0.0 
0.0 0.0 -6.062512284632e+00 
-5.213973047648e+01 2.757218646884e+01 0.0 
2.757218646884e+01 -1.423421109434e+02 0.0 
0.0 0.0 -5.794455242597e+01 
-7.795354427251e+01 2.784694303863e+01 0.0 
2.784694303863e+01 -1.662922465389e+02 0.0 
0.0 0.0 -7.287373724343e+01 
-6.977182422168e+01 2.847978954226e+01 0.0 
2.847978954226e+01 -1.633570510223e+02 0.0 
0.0 0.0 -6.953866257320e+01 
-7.053531897444e+01 2.775376004964e+01 0.0 
2.775376004964e+01 -1.464400468867e+02 0.0 
0.0 0.0 -6.469260975835e+01 
-3.705933039646e+01 2.741566951520e+01 0.0 
2.741566951520e+01 -1.073166993426e+02 0.0 
0.0 0.0 -4.250523822009e+01 
-1.353937266306e+02 3.541302891570e+01 0.0 
3.541302891570e+01 -3.172520288048e+02 0.0 
0.0 0.0 -1.353937266306e+02 
-4.785456412251e+01 1.404745163725e+01 0.0 
1.404745163725e+01 -1.837661961165e+02 0.0 
0.0 0.0 -6.908622807170e+01 
-2.647461787119e+01 4.201099815264e+00 0.0 
4.201099815264e+00 -1.180535644781e+02 0.0 
0.0 0.0 -4.542810966185e+01 
-1.564467061885e+02 3.785186918511e+00 0.0 
3.785186918511e+00 -3.764030715553e+02 0.0 
0.0 0.0 -1.594549333231e+02 
-1.408371807099e+01 -3.750051315999e+00 0.0 
-3.750051315999e+00 -2.649370817900e+01 0.0 
0.0 0.0 -1.177322787500e+01 
-5.237263305784e+01 2.553221393107e+01 0.0 
2.553221393107e+01 -8.672419557089e+01 0.0 
0.0 0.0 -4.132904858862e+01 
-3.448167602640e+01 -2.336900907233e+01 0.0 
-2.336900907233e+01 -9.824542493955e+01 0.0 
0.0 0.0 -4.059303415760e+01 
-5.446916174068e+01 1.846610322794e+01 0.0 
1.846610322794e+01 -6.970406200091e+01 0.0 
0.0 0.0 -3.685196712248e+01 
-1.552849059330e+02 2.150908679856e+01 0.0 
2.150908679856e+01 -3.763628321195e+02 0.0 
0.0 0.0 -1.590943214158e+02 
-1.427294725139e+02 3.424307670916e+01 0.0 
3.424307670916e+01 -3.343687691991e+02 0.0 
0.0 0.0 -1.427294725139e+02 
-7.467879268308e+01 2.382734783598e+01 0.0 
2.382734783598e+01 -1.323086702260e+02 0.0 
0.0 0.0 -6.169623887272e+01 
-3.390675850526e+01 -2.405662328309e+01 0.0 
-2.405662328309e+01 -6.693364869506e+01 0.0 
0.0 0.0 -3.035533416698e+01 
-3.026891853283e+01 9.507849098105e+00 0.0 
9.507849098105e+00 -1.238924170740e+02 0.0 
0.0 0.0 -4.859111664875e+01 
-4.386382247120e+01 -2.598379764575e+01 0.0 
-2.598379764575e+01 -8.775455081113e+01 0.0 
0.0 0.0 -3.786553435813e+01 
-1.323976260138e+02 4.602397753148e+00 0.0 
4.602397753148e+00 -3.339006161675e+02 0.0 
0.0 0.0 -1.394894726544e+02 
-5.325923961412e+01 4.735360082491e+00 0.0 
4.735360082491e+00 -6.864451785265e+01 0.0 
0.0 0.0 -3.617112724003e+01 
-6.681647996480e+01 1.656707892185e+01 0.0 
1.656707892185e+01 -8.843986827398e+01 0.0 
0.0 0.0 -4.617690447163e+01 
-1.493013301375e+02 3.186451831934e+01 0.0 
3.186451831934e+01 -3.497031036542e+02 0.0 
0.0 0.0 -1.493013301375e+02 
-5.096792591202e+01 3.646183078495e+00 0.0 
3.646183078495e+00 -6.753467394107e+01 0.0 
0.0 0.0 -3.515077995593e+01 
-1.125794893696e+02 2.354559204543e+01 0.0 
2.354559204543e+01 -2.526134825146e+02 0.0 
0.0 0.0 -1.091578915653e+02 
-9.590742062537e+01 2.700943357714e+01 0.0 
2.700943357714e+01 -2.505597527836e+02 0.0 
0.0 0.0 -1.035401520227e+02 
-6.313069249885e+01 3.768074328672e+00 0.0 
3.768074328672e+00 -9.899033362646e+01 0.0 
0.0 0.0 -4.823630783759e+01 
-3.914038286499e+01 2.776524094427e+01 0.0 
2.776524094427e+01 -8.482817219675e+01 0.0 
0.0 0.0 -3.679056651852e+01 
-8.720980457028e+01 1.719905694712e+01 0.0 
1.719905694712e+01 -2.650846111326e+02 0.0 
0.0 0.0 -1.052883247109e+02 
-2.821960727748e+01 1.901090782356e+01 0.0 
1.901090782356e+01 -1.089747555914e+02 0.0 
0.0 0.0 -4.087241434865e+01 
-1.547485797209e+02 2.831806045113e+01 0.0 
2.831806045113e+01 -3.624133526822e+02 0.0 
0.0 0.0 -1.547485797209e+02 
-1.143726329093e+02 2.971677668064e+01 0.0 
2.971677668064e+01 -2.682028101216e+02 0.0 
0.0 0.0 -1.143726329093e+02 
-1.092092659861e+02 2.581860047073e+01 0.0 
2.581860047073e+01 -2.561549539676e+02 0.0 
0.0 0.0 -1.092092659861e+02 
-9.379269053002e+01 -2.506541944619e-01 0.0 
-2.506541944619e-01 -2.634083327250e+02 0.0 
0.0 0.0 -1.067603069765e+02 
-7.039108800121e+01 -4.052803599197e+00 0.0 
-4.052803599197e+00 -1.787175857246e+02 0.0 
0.0 0.0 -7.433260211776e+01 
-5.708319190964e+01 2.806418750440e+01 0.0 
2.806418750440e+01 -1.601239189507e+02 0.0 
0.0 0.0 -6.476213325812e+01 
-9.553438874657e+01 -1.067800279264e+00 0.0 
-1.067800279264e+00 -2.691051315595e+02 0.0 
0.0 0.0 -1.089918560918e+02 
-1.590607948771e+02 2.426354383669e+01 0.0 
2.426354383669e+01 -3.724751880465e+02 0.0 
0.0 0.0 -1.590607948771e+02 
-3.438348486387e+01 2.360705864956e+01 0.0 
2.360705864956e+01 -1.220521727075e+02 0.0 
0.0 0.0 -4.653069727141e+01 
-4.024640861141e+01 -5.537901654249e+00 0.0 
-5.537901654249e+00 -1.688057108667e+02 0.0 
0.0 0.0 -6.231563584344e+01 
-4.481704315730e+01 -7.804568026260e+00 0.0 
-7.804568026260e+00 -1.732099763725e+02 0.0 
0.0 0.0 -6.500810585895e+01 
-6.652741580787e+01 3.982333686061e+00 0.0 
3.982333686061e+00 -1.097183746940e+02 0.0 
0.0 0.0 -5.247373715057e+01 
-1.599640099664e+02 1.468254773657e+01 0.0 
1.468254773657e+01 -3.853291107111e+02 0.0 
0.0 0.0 -1.631879362033e+02 
-4.578927623649e+01 -2.357922758667e+01 0.0 
-2.357922758667e+01 -6.212579001955e+01 0.0 
0.0 0.0 -3.090313727309e+01 
-1.627126295870e+02 1.953081033038e+01 0.0 
1.953081033038e+01 -3.809961357031e+02 0.0 
0.0 0.0 -1.627126295870e+02 
-4.390177710080e+01 -1.162154162268e+01 0.0 
-1.162154162268e+01 -1.606123788351e+02 0.0 
0.0 0.0 -6.095424678076e+01 
-1.247733464670e+02 3.438769452430e+01 0.0 
3.438769452430e+01 -2.924711417563e+02 0.0 
0.0 0.0 -1.247733464670e+02 
-1.075099865671e+02 2.940958552476e+01 0.0 
2.940958552476e+01 -2.244987993101e+02 0.0 
0.0 0.0 -9.920263576314e+01 
-7.705055843184e+00 -6.051661708417e-01 0.0 
-6.051661708417e-01 -7.123571034010e+00 0.0 
0.0 0.0 -1.787667506776e+00 
-5.450969746547e+01 2.643601094799e+01 0.0 
2.643601094799e+01 -1.593689371468e+02 0.0 
0.0 0.0 -6.376359038369e+01 
-9.793660750682e+01 1.717308186410e+01 0.0 
1.717308186410e+01 -1.877092324797e+02 0.0 
0.0 0.0 -8.529375199596e+01 
-1.318400017436e+02 3.546650856308e+01 0.0 
3.546650856308e+01 -3.089600040685e+02 0.0 
0.0 0.0 -1.318400017436e+02 
-8.230446827487e+01 2.777421565586e+01 0.0 
2.777421565586e+01 -1.542343731809e+02 0.0 
0.0 0.0 -7.056165243673e+01 
-1.001642445956e+02 2.615049074684e+01 0.0 
2.615049074684e+01 -2.658345270500e+02 0.0 
0.0 0.0 -1.093996314937e+02 
-3.863076005074e+01 3.053230761481e+01 0.0 
3.053230761481e+01 -9.387456290970e+01 0.0 
0.0 0.0 -3.914126375605e+01 
-1.402385345342e+02 1.696228711512e+01 0.0 
1.696228711512e+01 -3.520484714050e+02 0.0 
0.0 0.0 -1.472861017818e+02 
-4.873600247318e+01 -1.186291831340e+01 0.0 
-1.186291831340e+01 -1.649529261195e+02 0.0 
0.0 0.0 -6.370667857779e+01 
-5.059470867931e+01 -9.393779031167e+00 0.0 
-9.393779031167e+00 -1.753612911681e+02 0.0 
0.0 0.0 -6.738679995421e+01 
-4.962359495983e+01 -2.551408639619e+01 0.0 
-2.551408639619e+01 -4.870456333132e+01 0.0 
0.0 0.0 -2.860584712704e+01 
-1.390561757302e+02 3.499181734471e+01 0.0 
3.499181734471e+01 -3.257977433705e+02 0.0 
0.0 0.0 -1.390561757302e+02 
-2.953773311537e+01 1.744056676930e+01 0.0 
1.744056676930e+01 -1.244865339493e+02 0.0 
0.0 0.0 -4.564899661340e+01 
-1.242252396423e+02 1.007970001025e+01 0.0 
1.007970001025e+01 -3.287182451928e+02 0.0 
0.0 0.0 -1.354830454506e+02 
-6.067408612728e+01 4.817282964410e+00 0.0 
4.817282964410e+00 -8.956219062494e+01 0.0 
0.0 0.0 -4.467088302567e+01 
-5.140737188437e+01 -1.285831920460e+01 0.0 
-1.285831920460e+01 -1.385468602602e+02 0.0 
0.0 0.0 -5.658626964338e+01 
-4.557644120623e+01 -8.096251718300e+00 0.0 
-8.096251718300e+00 -1.705390336290e+02 0.0 
0.0 0.0 -6.443464245058e+01 
-7.823623911523e+01 2.887185851936e+01 0.0 
2.887185851936e+01 -1.509651778150e+02 0.0 
0.0 0.0 -6.836042507908e+01 
-1.521692495721e+02 3.024958874665e+01 0.0 
3.024958874665e+01 -3.563949156683e+02 0.0 
0.0 0.0 -1.521692495721e+02 
-7.271164794421e+01 -5.142818027079e+00 0.0 
-5.142818027079e+00 -1.858622071052e+02 0.0 
0.0 0.0 -7.717215651482e+01 
-1.059592861418e+02 3.725523945920e+00 0.0 
3.725523945920e+00 -2.918495604483e+02 0.0 
0.0 0.0 -1.189426539770e+02 
-6.884064960201e+01 2.779939176656e+01 0.0 
2.779939176656e+01 -1.796356131269e+02 0.0 
0.0 0.0 -7.414287881869e+01 
-8.833661688550e+01 5.281277090343e+00 0.0 
5.281277090343e+00 -2.664712678955e+02 0.0 
0.0 0.0 -1.060423654343e+02 
-4.598409606220e+01 -3.274351333618e+00 0.0 
-3.274351333618e+00 -1.792595179387e+02 0.0 
0.0 0.0 -6.717308420026e+01 
-9.683373824296e+01 1.760671606260e+00 0.0 
1.760671606260e+00 -2.737424716086e+02 0.0 
0.0 0.0 -1.107728629555e+02 
-6.481886465275e+01 2.975534026816e+01 0.0 
2.975534026816e+01 -1.621354448079e+02 0.0 
0.0 0.0 -6.768629283821e+01 
-9.208928548560e+01 3.039774820762e+01 0.0 
3.039774820762e+01 -2.206025688006e+02 0.0 
0.0 0.0 -9.340755628587e+01 
-9.679344664013e+01 1.798260536919e+01 0.0 
1.798260536919e+01 -2.821763728071e+02 0.0 
0.0 0.0 -1.132909458342e+02 
-6.480186173578e+01 2.711464643051e+01 0.0 
2.711464643051e+01 -1.784091258852e+02 0.0 
0.0 0.0 -7.256329628629e+01 
-7.106279172677e+01 -7.687459428771e+00 0.0 
-7.687459428771e+00 -1.947954612330e+02 0.0 
0.0 0.0 -7.935747588793e+01 
-3.733177848850e+01 2.521039157101e+01 0.0 
2.521039157101e+01 -1.215846825352e+02 0.0 
0.0 0.0 -4.727493830710e+01 
-6.887271981212e+01 -6.196034800254e+00 0.0 
-6.196034800254e+00 -1.776132876867e+02 0.0 
0.0 0.0 -7.354580224964e+01 
-9.585791368426e+01 2.827701710686e+01 0.0 
2.827701710686e+01 -2.508580377865e+02 0.0 
0.0 0.0 -1.036147854412e+02 
-7.407943184696e+01 1.375733669458e+01 0.0 
1.375733669458e+01 -2.433278674176e+02 0.0 
0.0 0.0 -9.482218977938e+01 
-1.569478986957e+02 1.927009747149e+01 0.0 
1.927009747149e+01 -3.798685909429e+02 0.0 
0.0 0.0 -1.606449468916e+02 
-1.018647439269e+02 1.973007345990e+01 0.0 
1.973007345990e+01 -2.001899673590e+02 0.0 
0.0 0.0 -9.021641338579e+01 
-4.618621855356e+01 -1.378897183854e+01 0.0 
-1.378897183854e+01 -1.220163332603e+02 0.0 
0.0 0.0 -5.006076554416e+01 
-1.611432197940e+02 2.179361588778e+01 0.0 
2.179361588778e+01 -3.773341795194e+02 0.0 
0.0 0.0 -1.611432197940e+02 
-1.452223363689e+02 1.910780830516e+01 0.0 
1.910780830516e+01 -3.637028070036e+02 0.0 
0.0 0.0 -1.522775430117e+02 
-5.976848594539e+01 2.299519833553e+01 0.0 
2.299519833553e+01 -1.913170092631e+02 0.0 
0.0 0.0 -7.492564856256e+01 
-3.101833924330e+01 -1.633156072094e+01 0.0 
-1.633156072094e+01 -3.132217309468e+01 0.0 
0.0 0.0 -1.857658380549e+01 
-1.607913494108e+02 1.262698504875e+01 0.0 
1.262698504875e+01 -3.870490767226e+02 0.0 
0.0 0.0 -1.639521278400e+02 
-1.038056765542e+02 2.309581490630e+01 0.0 
2.309581490630e+01 -2.057455389964e+02 0.0 
0.0 0.0 -9.246536466518e+01 
-4.361799141957e+01 -1.444258195652e+01 0.0 
-1.444258195652e+01 -1.465516758402e+02 0.0 
0.0 0.0 -5.665090017792e+01 
-1.652020500030e+02 1.522115024542e+01 0.0 
1.522115024542e+01 -3.868047833403e+02 0.0 
0.0 0.0 -1.652020500030e+02 
-1.025052301493e+02 1.697972381698e+00 0.0 
1.697972381698e+00 -2.816945766088e+02 0.0 
0.0 0.0 -1.148599420274e+02 
-4.946033120456e+01 2.799835230998e+01 0.0 
2.799835230998e+01 -1.056159211927e+02 0.0 
0.0 0.0 -4.612287571918e+01 
-6.908666400444e+01 1.563903532708e+01 0.0 
1.563903532708e+01 -1.018952109168e+02 0.0 
0.0 0.0 -5.089456247636e+01 
-7.046601578723e+01 1.543855095810e+01 0.0 
1.543855095810e+01 -2.318920582983e+02 0.0 
0.0 0.0 -9.030742222566e+01 
-8.558810020611e+01 -2.290528734471e+00 0.0 
-2.290528734471e+00 -2.450996364288e+02 0.0 
0.0 0.0 -9.880632099048e+01 
-9.168782353152e+01 8.231692985121e+00 0.0 
8.231692985121e+00 -2.745742867636e+02 0.0 
0.0 0.0 -1.094786330885e+02 
-8.544221994598e+01 1.836088481049e+01 0.0 
1.836088481049e+01 -1.406300194234e+02 0.0 
0.0 0.0 -6.742167181082e+01 
-5.615495913373e+01 2.715128838579e+01 0.0 
2.715128838579e+01 -1.064564554058e+02 0.0 
0.0 0.0 -4.838342436185e+01 
-1.013856719129e+02 2.034522163000e+01 0.0 
2.034522163000e+01 -2.870488747088e+02 0.0 
0.0 0.0 -1.161303639865e+02 
-5.690539343615e+01 7.372030035092e-01 0.0 
7.372030035092e-01 -9.807791094871e+01 0.0 
0.0 0.0 -4.609499131546e+01 
-7.406231233714e+01 -5.942545143615e+00 0.0 
-5.942545143615e+00 -1.964423479281e+02 0.0 
0.0 0.0 -8.075139807956e+01 
-9.221828020079e+01 1.544169898399e+01 0.0 
1.544169898399e+01 -2.767699284068e+02 0.0 
0.0 0.0 -1.102964625823e+02 
-5.453490047259e+01 -1.191319751950e+01 0.0 
-1.191319751950e+01 -1.674098495927e+02 0.0 
0.0 0.0 -6.618342501958e+01 
-1.041333727185e+02 -2.318913917317e+00 0.0 
-2.318913917317e+00 -2.687552579259e+02 0.0 
0.0 0.0 -1.114665891933e+02 
-1.008435290602e+01 -1.350523430301e+00 0.0 
-1.350523430301e+00 -8.891181466569e+00 0.0 
0.0 0.0 -5.292660311778e+00 
-4.024766040070e+01 2.651510565513e+01 0.0 
2.651510565513e+01 -1.217213283513e+02 0.0 
0.0 0.0 -4.819069662559e+01 
-5.024586987995e+01 -1.249022351202e+01 0.0 
-1.249022351202e+01 -1.631287366804e+02 0.0 
0.0 0.0 -6.361238196810e+01 
-7.981129880527e+01 -5.605619940505e+00 0.0 
-5.605619940505e+00 -2.100776861149e+02 0.0 
0.0 0.0 -8.656669547606e+01 
-6.374231822392e+01 2.458936605955e+01 0.0 
2.458936605955e+01 -1.931084919451e+02 0.0 
0.0 0.0 -7.665524305071e+01 
-9.893350996928e+01 8.154910742811e-01 0.0 
8.154910742811e-01 -2.799935089895e+02 0.0 
0.0 0.0 -1.132781056876e+02 
-6.483217873078e+01 4.716980870925e+00 0.0 
4.716980870925e+00 -1.017315479512e+02 0.0 
0.0 0.0 -4.956911800459e+01 
-4.977968173813e+01 -1.436078999339e+01 0.0 
-1.436078999339e+01 -1.491801553559e+02 0.0 
0.0 0.0 -5.928795112822e+01 
-1.660131203255e+02 1.325089583691e+01 0.0 
1.325089583691e+01 -3.886972807595e+02 0.0 
0.0 0.0 -1.660131203255e+02 
-7.725606682971e+01 3.026251850631e+01 0.0 
3.026251850631e+01 -1.664696356500e+02 0.0 
0.0 0.0 -7.271771074391e+01 
-8.412276753167e+01 -4.685286246294e+00 0.0 
-4.685286246294e+00 -2.178903448856e+02 0.0 
0.0 0.0 -9.020393372518e+01 
-7.301863412806e+01 3.039550755905e+01 0.0 
3.039550755905e+01 -1.647020217576e+02 0.0 
0.0 0.0 -7.091619676569e+01 
-8.206311614836e+01 -3.726299252601e+00 0.0 
-3.726299252601e+00 -2.114331059887e+02 0.0 
0.0 0.0 -8.764886664111e+01 
-1.408647878083e+01 -1.050960769848e+00 0.0 
-1.050960769848e+00 -9.542742783419e+00 0.0 
0.0 0.0 -7.663012448524e+00 
-7.491403799994e+01 1.814897948258e+01 0.0 
1.814897948258e+01 -1.109753919812e+02 0.0 
0.0 0.0 -5.536682899434e+01 
-6.891730644828e+01 -2.574689160414e+00 0.0 
-2.574689160414e+00 -1.717670698748e+02 0.0 
0.0 0.0 -7.180531289692e+01 
-1.965941510031e-01 -3.002883652844e-01 0.0 
-3.002883652844e-01 -9.029729699642e+00 0.0 
0.0 0.0 -2.367360826238e+00 
-8.043557123996e+01 -4.607199169011e+00 0.0 
-4.607199169011e+00 -2.058306170505e+02 0.0 
0.0 0.0 -8.547985648714e+01 
-1.085272325961e+02 2.561832895652e+00 0.0 
2.561832895652e+00 -2.983865887340e+02 0.0 
0.0 0.0 -1.216741463990e+02 
-8.414870430850e+01 3.533584791147e+00 0.0 
3.533584791147e+00 -1.745579545894e+02 0.0 
0.0 0.0 -7.721199766936e+01 
-8.268871979319e+01 6.463084990908e+00 0.0 
6.463084990908e+00 -2.576859253165e+02 0.0 
0.0 0.0 -1.017123935329e+02 
-8.517056127843e+01 5.295785135322e+00 0.0 
5.295785135322e+00 -2.651371159654e+02 0.0 
0.0 0.0 -1.046923031731e+02 
-5.907890590058e+01 1.406998994461e+01 0.0 
1.406998994461e+01 -6.765198066904e+01 0.0 
0.0 0.0 -3.761926597089e+01 
-4.252694692229e+01 1.665136878095e+00 0.0 
1.665136878095e+00 -4.813327261820e+01 0.0 
0.0 0.0 -2.679806586215e+01 
-1.034200956815e+02 1.914159845127e+01 0.0 
1.914159845127e+01 -2.286972585474e+02 0.0 
0.0 0.0 -9.923520626867e+01 
-6.887348709548e+01 3.020148739366e+01 0.0 
3.020148739366e+01 -1.632960344080e+02 0.0 
0.0 0.0 -6.925085645104e+01 
-1.853920174698e+00 -3.179696572280e-01 0.0 
-3.179696572280e-01 -7.092270568260e+00 0.0 
0.0 0.0 -1.559824322727e+00 
-3.109564158947e+01 -5.796264011169e+00 0.0 
-5.796264011169e+00 -7.121400645028e+01 0.0 
0.0 0.0 -3.029289441192e+01 
-2.647595009034e+01 -9.753214663634e+00 0.0 
-9.753214663634e+00 -2.764409679836e+01 0.0 
0.0 0.0 -1.615760842535e+01 
-5.101054405198e+01 -1.009163951485e+01 0.0 
-1.009163951485e+01 -1.291505001663e+02 0.0 
0.0 0.0 -5.364831326547e+01 
-1.084790263387e+02 3.169842044064e+01 0.0 
3.169842044064e+01 -2.457910496384e+02 0.0 
0.0 0.0 -1.058810227931e+02 
-8.612608145183e+01 5.401111730740e+00 0.0 
5.401111730740e+00 -1.757194377437e+02 0.0 
0.0 0.0 -7.815365575866e+01 
-1.256853780934e+02 1.923042907346e+00 0.0 
1.923042907346e+00 -3.219245051114e+02 0.0 
0.0 0.0 -1.338829649614e+02 
-5.606991371245e+01 -6.897971057360e+00 0.0 
-6.897971057360e+00 -1.424512301367e+02 0.0 
0.0 0.0 -5.915634315474e+01 
-1.063801899524e+02 -7.004000968244e-01 0.0 
-7.004000968244e-01 -2.700795507757e+02 0.0 
0.0 0.0 -1.125379222184e+02 
-1.280604242393e+02 8.358987012229e+00 0.0 
8.358987012229e+00 -3.362662956484e+02 0.0 
0.0 0.0 -1.388980159663e+02 
-2.618691087707e+01 3.652774433441e+00 0.0 
3.652774433441e+00 -1.264370286143e+02 0.0 
0.0 0.0 -4.695285857663e+01 
-6.914088791004e+01 -1.654709673405e-01 0.0 
-1.654709673405e-01 -1.719247790989e+02 0.0 
0.0 0.0 -7.191970010270e+01 
-5.675239749889e+01 -1.803828912910e+00 0.0 
-1.803828912910e+00 -1.410914389587e+02 0.0 
0.0 0.0 -5.895315093729e+01 
-1.616984593784e+02 1.059022498911e+01 0.0 
1.059022498911e+01 -3.882550248213e+02 0.0 
0.0 0.0 -1.645860452599e+02 
-1.666317303831e+02 1.132722909688e+01 0.0 
1.132722909688e+01 -3.901407042273e+02 0.0 
0.0 0.0 -1.666317303831e+02 
-7.684828245253e+01 -3.476693571352e-01 0.0 
-3.476693571352e-01 -1.911828701926e+02 0.0 
0.0 0.0 -8.000934579354e+01 
-8.616720184978e+01 -2.769363690001e+00 0.0 
-2.769363690001e+00 -2.191755721667e+02 0.0 
0.0 0.0 -9.120283220496e+01 
-8.687636672401e+01 -2.920383455686e+00 0.0 
-2.920383455686e+00 -2.504184754308e+02 0.0 
0.0 0.0 -1.007884526464e+02 
-1.327574250960e+02 1.078783428076e+01 0.0 
1.078783428076e+01 -3.449940630412e+02 0.0 
0.0 0.0 -1.429254464412e+02 
-3.525660683923e+01 -7.752149032642e+00 0.0 
-7.752149032642e+00 -7.918623346464e+01 0.0 
0.0 0.0 -3.393285209116e+01 
-1.232064742069e+02 6.159088589582e+00 0.0 
6.159088589582e+00 -3.267791829061e+02 0.0 
0.0 0.0 -1.345956971339e+02 
-1.322337065732e+01 -1.387663211327e+00 0.0 
-1.387663211327e+00 -4.296778010431e+01 0.0 
0.0 0.0 -1.645734522849e+01 
-7.808907261837e+01 -3.502819831759e+00 0.0 
-3.502819831759e+00 -1.990753030951e+02 0.0 
0.0 0.0 -8.274931271404e+01 
-8.574595667041e+01 -3.664272414546e+00 0.0 
-3.664272414546e+00 -2.237360339477e+02 0.0 
0.0 0.0 -9.244459718542e+01 
-5.268597701924e+00 -5.614828705930e-01 0.0 
-5.614828705930e-01 -2.568026405621e+01 0.0 
0.0 0.0 -9.030480007705e+00 
-7.317147817523e+01 -1.789189948349e+00 0.0 
-1.789189948349e+00 -1.813016811100e+02 0.0 
0.0 0.0 -7.594194778558e+01 
-9.768771872430e+01 1.720494077711e+01 0.0 
1.720494077711e+01 -1.977960025508e+02 0.0 
0.0 0.0 -8.824511638253e+01 
-1.022661205613e+00 -3.054007975926e-01 0.0 
-3.054007975926e-01 -7.594448006275e+00 0.0 
0.0 0.0 -1.405769410894e+00 
-4.465152330890e+01 2.606429174776e+00 0.0 
2.606429174776e+00 -4.886112123021e+01 0.0 
0.0 0.0 -2.765379336173e+01 
-4.396997446609e+01 3.704726124723e+00 0.0 
3.704726124723e+00 -5.059039640475e+01 0.0 
0.0 0.0 -2.796811126125e+01 
-9.538087887449e+01 1.119061857609e+01 0.0 
1.119061857609e+01 -2.819273018051e+02 0.0 
0.0 0.0 -1.127924542039e+02 
-5.654831821737e+01 4.193087486318e-01 0.0 
4.193087486318e-01 -1.408869177484e+02 0.0 
0.0 0.0 -5.883057078972e+01 
-4.811612324416e+01 -1.372547735156e+01 0.0 
-1.372547735156e+01 -1.510623407637e+02 0.0 
0.0 0.0 -5.935353920236e+01 
-3.500816777763e+01 2.788241571652e+01 0.0 
2.788241571652e+01 -8.650226318548e+01 0.0 
0.0 0.0 -3.605312928893e+01 
-1.411363430373e+02 2.707641988745e+00 0.0 
2.707641988745e+00 -3.481236394061e+02 0.0 
0.0 0.0 -1.463779947330e+02 
-1.296541658148e+02 3.311495213779e+01 0.0 
3.311495213779e+01 -3.058638522832e+02 0.0 
0.0 0.0 -1.302554054294e+02 
-8.507645872107e+01 7.497370267502e+00 0.0 
7.497370267502e+00 -1.637020848292e+02 0.0 
0.0 0.0 -7.423356306509e+01 
-3.920065059837e+01 2.826063617143e+01 0.0 
2.826063617143e+01 -8.494281002846e+01 0.0 
0.0 0.0 -3.684303818805e+01 
-2.651069927736e+01 -6.520416038795e+00 0.0 
-6.520416038795e+00 -4.956045551790e+01 0.0 
0.0 0.0 -2.194428054915e+01 
-5.636649920315e+01 2.783926485727e+01 0.0 
2.783926485727e+01 -8.871389035586e+01 0.0 
0.0 0.0 -4.312411686770e+01 
-3.966013236475e+01 3.630910324165e-01 0.0 
3.630910324165e-01 -4.849742280792e+01 0.0 
0.0 0.0 -2.604726655180e+01 
-3.784418323302e+01 4.009750911912e-01 0.0 
4.009750911912e-01 -4.824836732443e+01 0.0 
0.0 0.0 -2.542776516724e+01 
3.528073476670e-01 -3.555273254361e-01 0.0 
-3.555273254361e-01 -9.223141615549e+00 0.0 
0.0 0.0 -2.275323055942e+00 
-5.752653365951e+00 -6.837594350498e-01 0.0 
-6.837594350498e-01 -2.554235445703e+01 0.0 
0.0 0.0 -9.275232386305e+00 
-1.269077172093e+01 -3.288567538488e-01 0.0 
-3.288567538488e-01 -4.216817309022e+01 0.0 
0.0 0.0 -1.605768344334e+01 
-4.441557338069e+01 -7.793209816129e+00 0.0 
-7.793209816129e+00 -1.080112539344e+02 0.0 
0.0 0.0 -4.532804819452e+01 
-5.434686540608e+00 -4.134678877370e-01 0.0 
-4.134678877370e-01 -2.575689439699e+01 0.0 
0.0 0.0 -8.364518589238e+00 
-8.085916292089e+01 -1.658339733769e+00 0.0 
-1.658339733769e+00 -2.015621798898e+02 0.0 
0.0 0.0 -8.432640284320e+01 
-4.871603643673e+01 -1.268252910022e+01 0.0 
-1.268252910022e+01 -6.030975325638e+01 0.0 
0.0 0.0 -3.327607227308e+01 
-5.125993894282e+01 -8.077327901130e+00 0.0 
-8.077327901130e+00 -1.286529762085e+02 0.0 
0.0 0.0 -5.357387454541e+01 
-6.286475236454e+01 7.553291992343e-01 0.0 
7.553291992343e-01 -1.150405820830e+02 0.0 
0.0 0.0 -5.297160033427e+01 
-4.028127392261e+01 1.325035483648e+00 0.0 
1.325035483648e+00 -4.861289538526e+01 0.0 
0.0 0.0 -2.626825079236e+01 
-1.120170924911e+02 3.191550575520e+01 0.0 
3.191550575520e+01 -2.490226292220e+02 0.0 
0.0 0.0 -1.079119165139e+02 
-1.047183843440e+02 6.744383441962e-01 0.0 
6.744383441962e-01 -2.877295962906e+02 0.0 
0.0 0.0 -1.173343941904e+02 
-5.577510058582e+01 2.685493216446e-01 0.0 
2.685493216446e-01 -9.721566073427e+01 0.0 
0.0 0.0 -4.549722839603e+01 
-6.055689183736e+01 -1.160358847701e+00 0.0 
-1.160358847701e+00 -1.506756813669e+02 0.0 
0.0 0.0 -6.296977196129e+01 
-1.204334347830e+01 -6.571056813198e-01 0.0 
-6.571056813198e-01 -4.272186624758e+01 0.0 
0.0 0.0 -1.602956291776e+01 
-9.969832985129e+01 9.732369628220e+00 0.0 
9.732369628220e+00 -2.339627696530e+02 0.0 
0.0 0.0 -9.969832985129e+01 
-1.047180478385e+02 1.078216577407e+01 0.0 
1.078216577407e+01 -2.365142350699e+02 0.0 
0.0 0.0 -1.019696848725e+02 
-5.774026288784e+01 2.029944817948e+00 0.0 
2.029944817948e+00 -8.801028446104e+01 0.0 
0.0 0.0 -4.332516420466e+01 
-4.028055498145e+01 6.026555658289e-01 0.0 
6.026555658289e-01 -4.812757172672e+01 0.0 
0.0 0.0 -2.612243801245e+01 
-6.150159452702e+01 -6.244060023563e-01 0.0 
-6.244060023563e-01 -1.528846338271e+02 0.0 
0.0 0.0 -6.391586850624e+01 
-1.032972904945e+02 7.536486419398e+00 0.0 
7.536486419398e+00 -2.344927487656e+02 0.0 
0.0 0.0 -1.009370117780e+02 
-4.876454012238e+01 -6.889488344024e+00 0.0 
-6.889488344024e+00 -1.214165021815e+02 0.0 
0.0 0.0 -5.065431269115e+01 
-4.181524576567e+01 2.280119982875e+00 0.0 
2.280119982875e+00 -4.921352032211e+01 0.0 
0.0 0.0 -2.690862982633e+01 
-4.163473414967e+01 9.985924944919e-01 0.0 
9.985924944919e-01 -4.807997657316e+01 0.0 
0.0 0.0 -2.651441321685e+01 
-5.150310780157e+01 2.126335652758e+01 0.0 
2.126335652758e+01 -6.772201563421e+01 0.0 
0.0 0.0 -3.536753703073e+01 
-1.058267097355e+02 2.165858656682e+01 0.0 
2.165858656682e+01 -2.482623227161e+02 0.0 
0.0 0.0 -1.058267097355e+02 
-1.049325618507e+02 8.986428008645e+00 0.0 
8.986428008645e+00 -2.359832810616e+02 0.0 
0.0 0.0 -1.018747528737e+02 
-5.678625733643e+00 -5.650691132534e-01 0.0 
-5.650691132534e-01 -2.554212983541e+01 0.0 
0.0 0.0 -8.398002848947e+00 
6.165273542268e-01 -3.046116007278e-01 0.0 
-3.046116007278e-01 -9.279182835055e+00 0.0 
0.0 0.0 -2.091886638111e+00 
-2.779295335287e+01 -6.025999709013e+00 0.0 
-6.025999709013e+00 -5.898256367030e+01 0.0 
0.0 0.0 -2.562008531153e+01 
-8.304708221891e+01 -5.409033639520e+00 0.0 
-5.409033639520e+00 -2.222199009571e+02 0.0 
0.0 0.0 -9.118009495281e+01 
-1.512862778252e+02 -6.639029352222e-01 0.0 
-6.639029352222e-01 -3.598023918697e+02 0.0 
0.0 0.0 -1.529266009085e+02 
-8.784915602104e+01 -2.263038998983e+01 0.0 
-2.263038998983e+01 -7.746751808362e+01 0.0 
0.0 0.0 -4.987104406580e+01 
-7.806365448288e+01 1.546691708771e+00 0.0 
1.546691708771e+00 -1.583627287593e+02 0.0 
0.0 0.0 -7.052791497264e+01 
-3.119520550470e+01 -9.938159652314e+00 0.0 
-9.938159652314e+00 -1.060245086562e+01 0.0 
0.0 0.0 -1.312024695183e+01 
-9.453882794405e+01 6.910210489473e+00 0.0 
6.910210489473e+00 -2.823442474394e+02 0.0 
0.0 0.0 -1.126649226150e+02 
-1.775112690001e+01 -4.791323255775e+00 0.0 
-4.791323255775e+00 -1.215070674743e+01 0.0 
0.0 0.0 -7.955497735664e+00 
-4.483607197354e+01 -2.349277799680e+01 0.0 
-2.349277799680e+01 -3.566892378919e+01 0.0 
0.0 0.0 -2.413875910284e+01 
-9.071643432541e+01 4.169837571044e+00 0.0 
4.169837571044e+00 -2.734277790821e+02 0.0 
0.0 0.0 -1.088432640222e+02 
-1.459851189299e+02 2.902244808276e-01 0.0 
2.902244808276e-01 -3.505255689118e+02 0.0 
0.0 0.0 -1.485532063525e+02 
-6.312127145172e+01 1.193565975792e+00 0.0 
1.193565975792e+00 -1.140740686884e+02 0.0 
0.0 0.0 -5.275860204203e+01 
-5.959839664930e+01 2.926413011606e+01 0.0 
2.926413011606e+01 -1.077983682720e+02 0.0 
0.0 0.0 -4.981902947638e+01 
-4.740995520063e+00 -2.988128731830e-01 0.0 
-2.988128731830e-01 -2.569309149434e+01 0.0 
0.0 0.0 -8.845056380110e+00 
-1.107909583461e+02 -1.997502016313e-01 0.0 
-1.997502016313e-01 -2.777295260548e+02 0.0 
0.0 0.0 -1.161561453203e+02 
-9.824083696885e+01 3.006018378171e+00 0.0 
3.006018378171e+00 -2.305619529273e+02 0.0 
0.0 0.0 -9.824083696885e+01 
-1.020809815389e+02 4.019723885261e+00 0.0 
4.019723885261e+00 -2.329282854752e+02 0.0 
0.0 0.0 -1.001027801042e+02 
-3.918967258573e+01 7.489197584328e-01 0.0 
7.489197584328e-01 -4.828831501891e+01 0.0 
0.0 0.0 -2.584339628139e+01 
-9.868704347171e+01 9.666686841832e+00 0.0 
9.666686841832e+00 -2.905690665086e+02 0.0 
0.0 0.0 -1.163768329941e+02 
-9.945660846130e+01 7.910788446080e+00 0.0 
7.910788446080e+00 -2.333987530764e+02 0.0 
0.0 0.0 -9.945660846130e+01 
-1.007218636666e+02 2.738968153547e+01 0.0 
2.738968153547e+01 -2.663287757740e+02 0.0 
0.0 0.0 -1.097151918322e+02 
-1.121632799811e+01 -5.495099526723e-01 0.0 
-5.495099526723e-01 -4.158498385952e+01 0.0 
0.0 0.0 -1.544039355729e+01 
-4.847630704845e+00 -3.018796495201e-01 0.0 
-3.018796495201e-01 -2.547029100866e+01 0.0 
0.0 0.0 -8.086603107517e+00 
-4.148097528512e+00 2.109140183718e-03 0.0 
2.109140183718e-03 -2.516826428047e+01 0.0 
0.0 0.0 -8.394908542695e+00 
-6.894089800073e+01 -1.111972326849e+00 0.0 
-1.111972326849e+00 -1.710475062406e+02 0.0 
0.0 0.0 -7.159652127239e+01 
-1.655618497734e+02 1.748819164333e+00 0.0 
1.748819164333e+00 -3.904142420613e+02 0.0 
0.0 0.0 -1.663928275504e+02 
-9.433081079381e+01 1.124813103660e+00 0.0 
1.124813103660e+00 -2.099603896031e+02 0.0 
0.0 0.0 -9.088736011908e+01 
9.996446945765e-01 -6.025898877643e-02 0.0 
-6.025898877643e-02 -9.219786945150e+00 0.0 
0.0 0.0 -1.748337789091e+00 
-8.130976932343e+01 4.083313470426e-01 0.0 
4.083313470426e-01 -2.017595546989e+02 0.0 
0.0 0.0 -8.452079720670e+01 
-1.674538416866e+02 1.039401523587e+00 0.0 
1.039401523587e+00 -3.920589639353e+02 0.0 
0.0 0.0 -1.674538416866e+02 
-1.650160720964e+02 1.566959851254e+00 0.0 
1.566959851254e+00 -3.900289965423e+02 0.0 
0.0 0.0 -1.661135205916e+02 
-1.621634705532e+02 8.962810426578e+00 0.0 
8.962810426578e+00 -3.888942988372e+02 0.0 
0.0 0.0 -1.649173308171e+02 
-7.094023464528e+01 -4.711554105374e-01 0.0 
-4.711554105374e-01 -1.383622378691e+02 0.0 
0.0 0.0 -6.239074175432e+01 
-8.160120247756e+01 9.755776923039e-01 0.0 
9.755776923039e-01 -1.688550996210e+02 0.0 
0.0 0.0 -7.473689062957e+01 
-1.667260069091e+02 1.516901348808e+00 0.0 
1.516901348808e+00 -3.903606827879e+02 0.0 
0.0 0.0 -1.667260069091e+02 
-1.671562824522e+02 2.137425348995e+00 0.0 
2.137425348995e+00 -3.913646590552e+02 0.0 
0.0 0.0 -1.671562824522e+02 
-7.803575083820e+01 -1.765865317098e-01 0.0 
-1.765865317098e-01 -1.584376211330e+02 0.0 
0.0 0.0 -7.054201159135e+01 
4.831208749271e-01 -3.429372507317e-01 0.0 
-3.429372507317e-01 -6.717111139046e+00 0.0 
0.0 0.0 -7.660461383257e-01 
-3.682450084413e+01 8.181492678146e-02 0.0 
8.181492678146e-02 -4.734061835855e+01 0.0 
0.0 0.0 -2.484953576080e+01 
-3.842794627489e+01 3.278026475961e-01 0.0 
3.278026475961e-01 -4.829373758872e+01 0.0 
0.0 0.0 -2.561650515908e+01 
9.892468711982e-01 -1.905721789868e-01 0.0 
-1.905721789868e-01 -9.250051797943e+00 0.0 
0.0 0.0 -1.959665200166e+00 
-1.676360677735e+02 4.378696385605e+00 0.0 
4.378696385605e+00 -3.924841581381e+02 0.0 
0.0 0.0 -1.676360677735e+02 
-1.625194788803e+02 7.265038595582e+00 0.0 
7.265038595582e+00 -3.891565797773e+02 0.0 
0.0 0.0 -1.651028175973e+02 
-1.669954678011e+02 6.608870990623e+00 0.0 
6.608870990623e+00 -3.909894248691e+02 0.0 
0.0 0.0 -1.669954678011e+02 
1.352095999573e-01 -1.349283159012e-01 0.0 
-1.349283159012e-01 -7.776958179473e+00 0.0 
0.0 0.0 -1.098703999491e+00 
-3.261795885933e-01 -2.903046007289e-01 0.0 
-2.903046007289e-01 -7.849467342305e+00 0.0 
0.0 0.0 -1.238955116814e+00 
-1.668667407517e+02 9.623853162868e+00 0.0 
9.623853162868e+00 -3.906890617539e+02 0.0 
0.0 0.0 -1.668667407517e+02 
-1.670894389826e+02 8.097464152504e+00 0.0 
8.097464152504e+00 -3.912086909593e+02 0.0 
0.0 0.0 -1.670894389826e+02 
-6.719092905499e+01 9.845745029415e-01 0.0 
9.845745029415e-01 -1.283129660546e+02 0.0 
0.0 0.0 -5.825116853287e+01 
-3.601314873819e+01 -9.525939767570e-02 0.0 
-9.525939767570e-02 -4.700344375491e+01 0.0 
0.0 0.0 -2.450497774793e+01 
-7.473583034703e+01 9.982800689398e-01 0.0 
9.982800689398e-01 -1.485164549547e+02 0.0 
0.0 0.0 -6.657568559051e+01 
-5.215488692701e+01 9.008123335095e-01 0.0 
9.008123335095e-01 -8.849411739763e+01 0.0 
0.0 0.0 -4.179470129739e+01 
-3.614302330137e+01 -8.114983186618e-02 0.0 
-8.114983186618e-02 -4.716429171542e+01 0.0 
0.0 0.0 -2.459219450504e+01 
-2.713255643033e+00 -4.148452436365e-01 0.0 
-4.148452436365e-01 -7.263778609646e+00 0.0 
0.0 0.0 -1.843744640061e+00 
-4.003003637321e+00 8.401946553948e-03 0.0 
8.401946553948e-03 -7.900066194880e+00 0.0 
0.0 0.0 -2.256391537260e+00 
-4.680827969194e+00 -2.023839874843e-01 0.0 
-2.023839874843e-01 -7.747115052410e+00 0.0 
0.0 0.0 -2.526500937256e+00 
-6.036774540277e+00 -4.743409462727e-01 0.0 
-4.743409462727e-01 -7.683487573213e+00 0.0 
0.0 0.0 -2.038175365777e+00 
-8.540171069771e+01 -1.206473353839e+00 0.0 
-1.206473353839e+00 -2.120367651267e+02 0.0 
0.0 0.0 -8.883154274733e+01 
-7.719389545090e+01 -1.122963030721e+00 0.0 
-1.122963030721e+00 -1.914612860886e+02 0.0 
0.0 0.0 -8.019655446187e+01 
-3.310558059982e+00 -4.902708208017e-01 0.0 
-4.902708208017e-01 -9.318754643241e+00 0.0 
0.0 0.0 -4.365821281902e+00 
-1.107063147116e+02 -1.029745406384e+00 0.0 
-1.029745406384e+00 -2.715783717074e+02 0.0 
0.0 0.0 -1.142854059257e+02 
-5.258495181602e+00 -8.197231380226e-01 0.0 
-8.197231380226e-01 -9.377424887166e+00 0.0 
0.0 0.0 -4.962615193404e+00 
-1.026504136044e+02 1.712504727967e+01 0.0 
1.712504727967e+01 -2.408509650770e+02 0.0 
0.0 0.0 -1.026504136044e+02 
-9.888606168056e+01 6.532647161719e+00 0.0 
6.532647161719e+00 -2.320674772546e+02 0.0 
0.0 0.0 -9.888606168056e+01 
-1.001336126736e+02 1.141706600532e+01 0.0 
1.141706600532e+01 -2.349784295717e+02 0.0 
0.0 0.0 -1.001336126736e+02 
-2.504674446416e+01 -1.279792178585e+00 0.0 
-1.279792178585e+00 -6.920385810256e+01 0.0 
0.0 0.0 -2.787518077002e+01 
-5.217083429162e+01 -1.173248230302e+00 0.0 
-1.173248230302e+00 -1.302677765986e+02 0.0 
0.0 0.0 -5.433158326707e+01 
-9.846909516713e+01 5.192972933611e+00 0.0 
5.192972933611e+00 -2.310945553900e+02 0.0 
0.0 0.0 -9.846909516712e+01 
-1.377149307370e+02 -7.885798112635e-01 0.0 
-7.885798112635e-01 -3.311425042612e+02 0.0 
0.0 0.0 -1.402572304995e+02 
-9.927183121796e+01 4.152093943708e+00 0.0 
4.152093943708e+00 -2.329676061752e+02 0.0 
0.0 0.0 -9.927183121796e+01 
-1.469395618702e+02 -8.040177048218e-01 0.0 
-8.040177048218e-01 -3.506996801859e+02 0.0 
0.0 0.0 -1.488917726168e+02 
-1.563564862425e+02 -8.755133938075e-01 0.0 
-8.755133938075e-01 -3.701773077372e+02 0.0 
0.0 0.0 -1.575601381939e+02 
-7.307054076789e+01 4.438284144805e-01 0.0 
4.438284144805e-01 -1.812596096601e+02 0.0 
0.0 0.0 -7.589904512838e+01 
-1.027995171543e+02 6.077542571433e+00 0.0 
6.077542571433e+00 -2.333296619476e+02 0.0 
0.0 0.0 -1.004387537306e+02 
-1.019818919518e+02 4.327465594382e+00 0.0 
4.327465594382e+00 -2.331790186309e+02 0.0 
0.0 0.0 -1.001482731748e+02 
-1.419827261336e+02 1.034489726469e+00 0.0 
1.034489726469e+00 -3.400280159429e+02 0.0 
0.0 0.0 -1.442032226230e+02 
-1.514841473278e+02 1.088823931202e+00 0.0 
1.088823931202e+00 -3.600288420772e+02 0.0 
0.0 0.0 -1.530538968215e+02 
-1.194507536550e+02 4.979629931995e-01 0.0 
4.979629931995e-01 -2.934582381098e+02 0.0 
0.0 0.0 -1.234726975294e+02 
-2.142876028404e+01 -3.545259099301e+00 0.0 
-3.545259099301e+00 -9.411102080036e+00 0.0 
0.0 0.0 -9.828434892103e+00 
-7.376699225906e+01 -3.035431374285e+00 0.0 
-3.035431374285e+00 -1.867360860254e+02 0.0 
0.0 0.0 -7.775092348535e+01 
-5.909000770063e+00 -5.371782495705e-01 0.0 
-5.371782495705e-01 -2.508500831396e+01 0.0 
0.0 0.0 -8.384701485703e+00 
-1.425077764019e+02 3.961130923319e+00 0.0 
3.961130923319e+00 -3.488899107277e+02 0.0 
0.0 0.0 -1.470193061389e+02 
-7.638788456736e+01 -5.509783934946e+00 0.0 
-5.509783934946e+00 -1.979189977117e+02 0.0 
0.0 0.0 -8.189206468372e+01 
-1.319413537118e+02 -7.211909723045e-02 0.0 
-7.211909723045e-02 -3.232834270834e+02 0.0 
0.0 0.0 -1.361674342386e+02 
-4.112973243606e+01 -6.285802577459e+00 0.0 
-6.285802577459e+00 -1.001692590489e+02 0.0 
0.0 0.0 -4.198969744548e+01 
-1.574796424513e+01 -2.411702556184e+00 0.0 
-2.411702556184e+00 -4.160948735243e+01 0.0 
0.0 0.0 -1.680723547927e+01 
-1.421794650733e+02 1.938761227634e+00 0.0 
1.938761227634e+00 -3.429572312833e+02 0.0 
0.0 0.0 -1.451410089070e+02 
-8.216785135980e+01 -2.530243468810e+00 0.0 
-2.530243468810e+00 -2.070416152887e+02 0.0 
0.0 0.0 -8.636283999454e+01 
-6.452097696060e+01 -1.850999254939e+00 0.0 
-1.850999254939e+00 -1.610055238100e+02 0.0 
0.0 0.0 -6.725795023118e+01 
-1.330566079763e+02 1.450863006136e+00 0.0 
1.450863006136e+00 -3.241019551348e+02 0.0 
0.0 0.0 -1.367475689333e+02 
-8.704917552291e+01 1.337614104992e+00 0.0 
1.337614104992e+00 -1.869477323184e+02 0.0 
0.0 0.0 -8.179907235240e+01 
-6.484468953271e+01 4.415175554924e-01 0.0 
4.415175554924e-01 -1.610822657311e+02 0.0 
0.0 0.0 -6.737808657914e+01 
-1.155939952353e+02 5.529099163033e+00 0.0 
5.529099163033e+00 -3.099812387754e+02 0.0 
0.0 0.0 -1.272725702032e+02 
-1.028537698739e+02 -1.957618668442e+00 0.0 
-1.957618668442e+00 -2.727563912389e+02 0.0 
0.0 0.0 -1.122830483339e+02 
-1.181925377836e+02 -1.197730915265e+00 0.0 
-1.197730915265e+00 -2.925507183927e+02 0.0 
0.0 0.0 -1.228229768529e+02 
-1.227255880823e+02 -9.046910571173e-01 0.0 
-9.046910571173e-01 -3.010057614210e+02 0.0 
0.0 0.0 -1.267194048510e+02 
-4.494012326128e+01 1.249280856335e+01 0.0 
1.249280856335e+01 -1.812397802230e+02 0.0 
0.0 0.0 -6.745397104527e+01 
-5.286569251403e+01 2.872028807242e+01 0.0 
2.872028807242e+01 -8.758277452020e+01 0.0 
0.0 0.0 -4.173454011027e+01 
-5.974258637702e+01 2.654591155208e+01 0.0 
2.654591155208e+01 -1.767562806240e+02 0.0 
0.0 0.0 -7.054966010031e+01 
-1.089141172951e+02 -1.869589661473e+00 0.0 
-1.869589661473e+00 -2.765657288384e+02 0.0 
0.0 0.0 -1.152439538400e+02 
-1.374247615051e+02 1.495154861894e+00 0.0 
1.495154861894e+00 -3.322053048659e+02 0.0 
0.0 0.0 -1.404890199113e+02 
-1.272136259880e+02 -8.032425075718e-01 0.0 
-8.032425075718e-01 -3.097227606306e+02 0.0 
0.0 0.0 -1.306809159856e+02 
-4.395978300251e+01 -1.228949953824e+01 0.0 
-1.228949953824e+01 -1.072377238000e+02 0.0 
0.0 0.0 -4.495925204075e+01 
-8.759877792475e+01 2.926948000912e+00 0.0 
2.926948000912e+00 -1.860050994700e+02 0.0 
0.0 0.0 -8.168116321843e+01 
-8.074610294689e+01 2.326571681737e+00 0.0 
2.326571681737e+00 -1.652275986328e+02 0.0 
0.0 0.0 -7.339211047390e+01 
-4.740001963087e+01 -3.617305428138e-01 0.0 
-3.617305428138e-01 -7.368309799483e+01 0.0 
0.0 0.0 -3.592493528771e+01 
-1.129911439998e+02 -1.249315082372e+00 0.0 
-1.249315082372e+00 -2.881560356850e+02 0.0 
0.0 0.0 -1.199441539054e+02 
-1.136087545688e+02 -1.490069458778e+00 0.0 
-1.490069458778e+00 -2.845212567936e+02 0.0 
0.0 0.0 -1.190390034087e+02 
-8.834683984860e+01 3.270583196200e+00 0.0 
3.270583196200e+00 -1.882676681763e+02 0.0 
0.0 0.0 -8.258435240747e+01 
-8.419559542437e+01 2.039832323279e+00 0.0 
2.039832323279e+00 -1.763347110018e+02 0.0 
0.0 0.0 -7.775909192785e+01 
-1.008158747605e+02 -1.007518380014e+00 0.0 
-1.007518380014e+00 -2.668533803765e+02 0.0 
0.0 0.0 -1.099007765411e+02 
-1.466064248511e+02 1.781919691824e+00 0.0 
1.781919691824e+00 -3.509825723196e+02 0.0 
0.0 0.0 -1.488766991512e+02 
-8.217381916799e+01 5.479702981373e+00 0.0 
5.479702981373e+00 -1.621263095534e+02 0.0 
0.0 0.0 -7.289003861642e+01 
-1.277909059399e+02 8.382320101167e-01 0.0 
8.382320101167e-01 -3.099679597217e+02 0.0 
0.0 0.0 -1.309276596985e+02 
-1.478200335167e+02 3.805048371179e+00 0.0 
3.805048371179e+00 -3.575814413657e+02 0.0 
0.0 0.0 -1.512204424647e+02 
-8.895105581573e+01 4.990644487372e+00 0.0 
4.990644487372e+00 -1.870667346547e+02 0.0 
0.0 0.0 -8.240533714113e+01 
-7.255210431512e+01 3.704328890598e+00 0.0 
3.704328890598e+00 -1.349236096571e+02 0.0 
0.0 0.0 -6.184271419166e+01 
-1.117032177519e+02 3.500964515781e+00 0.0 
3.500964515781e+00 -2.999363155128e+02 0.0 
0.0 0.0 -1.230918599794e+02 
-4.026257758708e+01 -3.688747163708e+00 0.0 
-3.688747163708e+00 -1.008144121618e+02 0.0 
0.0 0.0 -4.192309692466e+01 
-4.234022174529e+01 -1.409697148803e+01 0.0 
-1.409697148803e+01 -1.011550953901e+02 0.0 
0.0 0.0 -4.264859514061e+01 
-2.123403992422e+01 -3.163040874801e+00 0.0 
-3.163040874801e+00 -4.861950334403e+01 0.0 
0.0 0.0 -2.055606298048e+01 
-3.179882048303e+01 -1.256890411718e+01 0.0 
-1.256890411718e+01 -3.393490624759e+01 0.0 
0.0 0.0 -1.839369640354e+01 
-8.542343705599e+01 3.825226839778e+00 0.0 
3.825226839778e+00 -1.771069099366e+02 0.0 
0.0 0.0 -7.835910409777e+01 
-1.411325150362e+02 -1.763049866719e-01 0.0 
-1.763049866719e-01 -3.396506041845e+02 0.0 
0.0 0.0 -1.438349357662e+02 
-2.051719429919e+01 -6.993261766143e+00 0.0 
-6.993261766143e+00 -2.849587776391e+01 0.0 
0.0 0.0 -1.357917609318e+01 
-1.060176072823e+02 2.651271706679e+01 0.0 
2.651271706679e+01 -2.137192107882e+02 0.0 
0.0 0.0 -9.552104542117e+01 
-5.179242562350e+01 9.013627361301e-02 0.0 
9.013627361301e-02 -8.267095457916e+01 0.0 
0.0 0.0 -3.993901406080e+01 
-1.286605369570e+02 1.409304956366e+00 0.0 
1.409304956366e+00 -3.163075986864e+02 0.0 
0.0 0.0 -1.330904406930e+02 
-1.317606040892e+02 -5.127845735593e-01 0.0 
-5.127845735593e-01 -3.202967838463e+02 0.0 
0.0 0.0 -1.352172163807e+02 
-5.228085182207e+01 -1.259379013122e+01 0.0 
-1.259379013122e+01 -1.561946010476e+02 0.0 
0.0 0.0 -6.214263586090e+01 
-1.325138328162e+02 1.117379090820e+00 0.0 
1.117379090820e+00 -3.209520268004e+02 0.0 
0.0 0.0 -1.356397578850e+02 
-4.840564015468e+01 1.756898351390e+00 0.0 
1.756898351390e+00 -7.404677490081e+01 0.0 
0.0 0.0 -3.633572451664e+01 
-9.795957376276e+01 1.834248328233e+01 0.0 
1.834248328233e+01 -2.827467938667e+02 0.0 
0.0 0.0 -1.138119102888e+02 
-1.521851701310e+02 1.849338355097e+00 0.0 
1.849338355097e+00 -3.653480513944e+02 0.0 
0.0 0.0 -1.548599664576e+02 
-3.805491644961e+01 -2.130954826317e+00 0.0 
-2.130954826317e+00 -9.707181023533e+01 0.0 
0.0 0.0 -4.013801800548e+01 
-1.472867890792e+02 5.048928617226e+00 0.0 
5.048928617226e+00 -3.596101797294e+02 0.0 
0.0 0.0 -1.516690906426e+02 
-7.574473009581e+01 3.452041567252e+00 0.0 
3.452041567252e+00 -1.459465027142e+02 0.0 
0.0 0.0 -6.610736984301e+01 
-4.357792055644e+01 -3.139716474046e+00 0.0 
-3.139716474046e+00 -1.093509017084e+02 0.0 
0.0 0.0 -4.547864667945e+01 
-4.868749804943e+01 -1.180267231883e+01 0.0 
-1.180267231883e+01 -1.234714316332e+02 0.0 
0.0 0.0 -5.124767890478e+01 
-9.267914320424e+01 -2.230382116191e+00 0.0 
-2.230382116191e+00 -2.309726737887e+02 0.0 
0.0 0.0 -9.669554509788e+01 
-6.378952573189e+01 1.755024199997e+00 0.0 
1.755024199997e+00 -1.120217665073e+02 0.0 
0.0 0.0 -5.234338767175e+01 
-6.155312130635e+01 -6.692671829706e+00 0.0 
-6.692671829706e+00 -1.572040019102e+02 0.0 
0.0 0.0 -6.522713696495e+01 
-7.886390990275e+01 3.260384425196e+00 0.0 
3.260384425196e+00 -1.568623950149e+02 0.0 
0.0 0.0 -7.031789147529e+01 
-6.832763714505e+01 2.906940948080e+00 0.0 
2.906940948080e+00 -1.251788736949e+02 0.0 
0.0 0.0 -5.765195325199e+01 
-8.842931067125e+01 -3.812691196879e+00 0.0 
-3.812691196879e+00 -2.259265502703e+02 0.0 
0.0 0.0 -9.390675828246e+01 
-1.234836335989e+02 7.176167428607e-01 0.0 
7.176167428607e-01 -3.014950063045e+02 0.0 
0.0 0.0 -1.270935919710e+02 
-1.283136118908e+02 1.046619751696e+00 0.0 
1.046619751696e+00 -3.129026618810e+02 0.0 
0.0 0.0 -1.319648821315e+02 
-7.383909188179e+01 1.596542440645e+00 0.0 
1.596542440645e+00 -1.447600855122e+02 0.0 
0.0 0.0 -6.517975321819e+01 
-3.331406770959e+01 -2.506522451548e+00 0.0 
-2.506522451548e+00 -8.428647382827e+01 0.0 
0.0 0.0 -3.488016246136e+01 
-8.457562364149e+01 -3.666008026718e+00 0.0 
-3.666008026718e+00 -2.141546280495e+02 0.0 
0.0 0.0 -8.921907550731e+01 
-1.163983378662e+02 2.358948807470e+01 0.0 
2.358948807470e+01 -3.091756557867e+02 0.0 
0.0 0.0 -1.272721980959e+02 
-7.963488916356e+01 4.537513530906e+00 0.0 
4.537513530906e+00 -1.553045461069e+02 0.0 
0.0 0.0 -7.008183058113e+01 
-7.648032307323e+01 -4.333491561928e+00 0.0 
-4.333491561928e+00 -1.936576338916e+02 0.0 
0.0 0.0 -8.064138708944e+01 
-1.056827853753e+02 -5.221696118073e-01 0.0 
-5.221696118073e-01 -2.742837292488e+02 0.0 
0.0 0.0 -1.135899543872e+02 
-1.424537813430e+02 5.655394759347e+00 0.0 
5.655394759347e+00 -3.520428157258e+02 0.0 
0.0 0.0 -1.479489791207e+02 
-7.080031783868e+01 1.879784595888e+00 0.0 
1.879784595888e+00 -1.338733246473e+02 0.0 
0.0 0.0 -6.100209274580e+01 
-3.224005195391e+01 -8.448638528862e+00 0.0 
-8.448638528862e+00 -1.210003759794e+02 0.0 
0.0 0.0 -4.808348326894e+01 
-1.790663723895e+01 -1.761725026328e+00 0.0 
-1.761725026328e+00 -4.678483482199e+01 0.0 
0.0 0.0 -1.900744161828e+01 
-2.845965326423e+01 4.018132900457e+00 0.0 
4.018132900457e+00 -1.383201679163e+02 0.0 
0.0 0.0 -4.933428611960e+01 
-1.365645502070e+02 -1.184362925299e-01 0.0 
-1.184362925299e-01 -3.314917297343e+02 0.0 
0.0 0.0 -1.400168839824e+02 
-6.724889728250e+01 1.884971820679e+00 0.0 
1.884971820679e+00 -1.229128806403e+02 0.0 
0.0 0.0 -5.664853337685e+01 
-1.020256603332e+02 1.526375525122e-01 0.0 
1.526375525122e-01 -2.515369148927e+02 0.0 
0.0 0.0 -1.056687725678e+02 
-5.604116573167e+01 8.177238159473e-01 0.0 
8.177238159473e-01 -9.215897411497e+01 0.0 
0.0 0.0 -4.406004195399e+01 
-1.302780480496e+02 9.268821046257e+00 0.0 
9.268821046257e+00 -3.373959004803e+02 0.0 
0.0 0.0 -1.399021845590e+02 
-9.266577643439e+01 -3.053064950840e+00 0.0 
-3.053064950840e+00 -2.340753551385e+02 0.0 
0.0 0.0 -9.762233947185e+01 
-1.273122746978e+02 -5.922984073180e-01 0.0 
-5.922984073180e-01 -3.121188236833e+02 0.0 
0.0 0.0 -1.314293295143e+02 
-3.984167383433e+01 -1.446484054218e+00 0.0 
-1.446484054218e+00 -1.011562030338e+02 0.0 
0.0 0.0 -4.189936306043e+01 
-1.467306543774e+02 2.192663942628e+00 0.0 
2.192663942628e+00 -3.572106506447e+02 0.0 
0.0 0.0 -1.507823915066e+02 
-9.012582789518e+01 -1.887468182270e+00 0.0 
-1.887468182270e+00 -2.270794137889e+02 0.0 
0.0 0.0 -9.476157250523e+01 
-4.326338122477e+01 -8.137041383429e-01 0.0 
-8.137041383429e-01 -1.097356593747e+02 0.0 
0.0 0.0 -4.549971217983e+01 
-8.588984987088e+01 -1.586151903358e+00 0.0 
-1.586151903358e+00 -2.151975935780e+02 0.0 
0.0 0.0 -8.992623303465e+01 
-6.511812904629e+01 -5.586632786195e+00 0.0 
-5.586632786195e+00 -1.653409349167e+02 0.0 
0.0 0.0 -6.873771918888e+01 
-5.165503914223e+01 -5.670921996460e+00 0.0 
-5.670921996460e+00 -1.293587087372e+02 0.0 
0.0 0.0 -5.390412436383e+01 
-1.009196724934e+02 -1.815640887807e+00 0.0 
-1.815640887807e+00 -2.505253609514e+02 0.0 
0.0 0.0 -1.050335100334e+02 
-1.555822504857e+00 -7.577359588367e-02 0.0 
-7.577359588367e-02 -9.584200098975e+00 0.0 
0.0 0.0 -3.010487682774e+00 
-2.656425765033e+00 -5.170245218527e-01 0.0 
-5.170245218527e-01 -9.711588342537e+00 0.0 
0.0 0.0 -3.657460522026e+00 
-1.151324378658e+02 1.973177386127e-01 0.0 
1.973177386127e-01 -2.855380666970e+02 0.0 
0.0 0.0 -1.198011513688e+02 
-3.653501639404e+01 -2.013177933521e+00 0.0 
-2.013177933521e+00 -9.284391099888e+01 0.0 
0.0 0.0 -3.841367821787e+01 
-1.150722247361e+02 3.222846426064e-01 0.0 
3.222846426064e-01 -2.893836288796e+02 0.0 
0.0 0.0 -1.209367560847e+02 
-1.104403751976e+02 -7.716808721650e-02 0.0 
-7.716808721650e-02 -2.818032117488e+02 0.0 
0.0 0.0 -1.172730760839e+02 
-6.824247867023e+01 -7.709705408488e+00 0.0 
-7.709705408488e+00 -1.821925798246e+02 0.0 
0.0 0.0 -7.473051754845e+01 
-4.351589629355e+01 -1.588818318039e+01 0.0 
-1.588818318039e+01 -1.314080954703e+02 0.0 
0.0 0.0 -5.207719752916e+01 
-8.745552815185e+01 7.224516832961e+00 0.0 
7.224516832961e+00 -1.745702698081e+02 0.0 
0.0 0.0 -7.820773938798e+01 
-3.143257377954e+01 2.729499855914e+01 0.0 
2.729499855914e+01 -9.553625655352e+01 0.0 
0.0 0.0 -3.941414672639e+01 
-6.878044734981e+01 -4.549825298208e+00 0.0 
-4.549825298208e+00 -1.738736652863e+02 0.0 
0.0 0.0 -7.239623379085e+01 
-1.350365523810e+02 1.155611300023e+01 0.0 
1.155611300023e+01 -3.458661838647e+02 0.0 
0.0 0.0 -1.438708208737e+02 
-3.152052248995e+01 -3.237277214969e+00 0.0 
-3.237277214969e+00 -7.997849131204e+01 0.0 
0.0 0.0 -3.304970414060e+01 
-6.150175483121e+01 2.760978494014e+00 0.0 
2.760978494014e+00 -1.039944420810e+02 0.0 
0.0 0.0 -4.924885907365e+01 
-5.328851941898e+01 2.027641749103e+00 0.0 
2.027641749103e+00 -8.367751310891e+01 0.0 
0.0 0.0 -4.068980975837e+01 
-3.311260864877e+01 -5.113208057526e+00 0.0 
-5.113208057526e+00 -7.891779737441e+01 0.0 
0.0 0.0 -3.320912180695e+01 
-1.370144926129e+02 6.125121341177e+00 0.0 
6.125121341177e+00 -3.441521648705e+02 0.0 
0.0 0.0 -1.439499972450e+02 
-7.826394006490e+01 6.184613139830e+00 0.0 
6.184613139830e+00 -1.431657459292e+02 0.0 
0.0 0.0 -6.602890579822e+01 
-3.724557116375e+01 -4.218319712253e+00 0.0 
-4.218319712253e+00 -9.250656382260e+01 0.0 
0.0 0.0 -3.852564049590e+01 
-9.120853441265e+01 8.726675386339e+00 0.0 
8.726675386339e+00 -1.841716520401e+02 0.0 
0.0 0.0 -8.221405593584e+01 
-8.811475389245e+01 6.906618915428e+00 0.0 
6.906618915428e+00 -1.824543176559e+02 0.0 
0.0 0.0 -8.077072146450e+01 
-4.167943814983e+01 -3.019103383310e+00 0.0 
-3.019103383310e+00 -1.043173747301e+02 0.0 
0.0 0.0 -4.339904386397e+01 
-4.085032582006e+01 2.889922287158e+01 0.0 
2.889922287158e+01 -8.465757116276e+01 0.0 
0.0 0.0 -3.725236909485e+01 
-4.387344088392e+01 -5.289507729440e+00 0.0 
-5.289507729440e+00 -1.083411742870e+02 0.0 
0.0 0.0 -4.526438455127e+01 
-1.240749226892e+02 8.770606573553e-01 0.0 
8.770606573553e-01 -3.049306051152e+02 0.0 
0.0 0.0 -1.283016583413e+02 
-9.683825296908e+01 -2.391659254140e+00 0.0 
-2.391659254140e+00 -2.423436964351e+02 0.0 
0.0 0.0 -1.013545848213e+02 
-1.001538784141e+02 2.054352485433e+01 0.0 
2.054352485433e+01 -2.035715348095e+02 0.0 
0.0 0.0 -9.071762396708e+01 
-8.484017775435e+01 5.193151138044e+00 0.0 
5.193151138044e+00 -1.731155994779e+02 0.0 
0.0 0.0 -7.698673316967e+01 
-1.196141640433e+02 6.365282978151e-01 0.0 
6.365282978151e-01 -2.971007227350e+02 0.0 
0.0 0.0 -1.246144660335e+02 
-1.178890484131e+02 -9.633423580291e-01 0.0 
-9.633423580291e-01 -2.960188784195e+02 0.0 
0.0 0.0 -1.237723780498e+02 
-3.726725969323e+01 -6.998035662933e+00 0.0 
-6.998035662933e+00 -8.743988034814e+01 0.0 
0.0 0.0 -3.701214201241e+01 
-1.226643612782e+02 -7.496393182328e-01 0.0 
-7.496393182328e-01 -3.039762465691e+02 0.0 
0.0 0.0 -1.275921823542e+02 
-7.541173009994e+01 4.125791424469e+00 0.0 
4.125791424469e+00 -1.416073773531e+02 0.0 
0.0 0.0 -6.470573223590e+01 
-9.800899310860e+01 -4.960164341422e-01 0.0 
-4.960164341422e-01 -2.432602852737e+02 0.0 
0.0 0.0 -1.019807835147e+02 
-6.936054999441e+01 3.732582903769e+00 0.0 
3.732582903769e+00 -1.241196090878e+02 0.0 
0.0 0.0 -5.764404772467e+01 
-8.093734776085e+01 6.039196585930e+00 0.0 
6.039196585930e+00 -1.539627470311e+02 0.0 
0.0 0.0 -7.007002843760e+01 
-6.206075480295e+01 1.574569527622e+01 0.0 
1.574569527622e+01 -2.156095140972e+02 0.0 
0.0 0.0 -8.290108067003e+01 
-8.119442305340e+01 3.842619081671e+00 0.0 
3.842619081671e+00 -1.635011373396e+02 0.0 
0.0 0.0 -7.300866811790e+01 
-8.082033885313e+01 -3.446475488013e+00 0.0 
-3.446475488013e+00 -2.033851308402e+02 0.0 
0.0 0.0 -8.486164090799e+01 
-9.403211596955e+01 -1.111624236968e+00 0.0 
-1.111624236968e+00 -2.350912444180e+02 0.0 
0.0 0.0 -9.833700811627e+01 
-6.113578546417e+01 -5.033557829025e+00 0.0 
-5.033557829025e+00 -1.536331785428e+02 0.0 
0.0 0.0 -6.403068920208e+01 
-6.340216700148e+01 -8.493728264156e+00 0.0 
-8.493728264156e+00 -1.695452032483e+02 0.0 
0.0 0.0 -6.948421107493e+01 
-7.129346690981e+01 2.878697101939e+00 0.0 
2.878697101939e+00 -1.321502303353e+02 0.0 
0.0 0.0 -6.063310917354e+01 
-8.289584801871e+01 -3.910126226206e+00 0.0 
-3.910126226206e+00 -2.336256995039e+02 0.0 
0.0 0.0 -9.455646425678e+01 
-4.683634774875e+01 -4.320189938968e+00 0.0 
-4.320189938968e+00 -1.166467552191e+02 0.0 
0.0 0.0 -4.864493089035e+01 
-2.425995176329e+01 -3.471513828050e+00 0.0 
-3.471513828050e+00 -5.795531965849e+01 0.0 
0.0 0.0 -2.426458142653e+01 
-7.382189936876e+01 4.831663042401e+00 0.0 
4.831663042401e+00 -1.335528920939e+02 0.0 
0.0 0.0 -6.181243743880e+01 
-4.708380724179e+01 -6.765340492570e+00 0.0 
-6.765340492570e+00 -1.162090424261e+02 0.0 
0.0 0.0 -4.858785490037e+01 
-1.465527269777e+02 3.857620293913e+00 0.0 
3.857620293913e+00 -3.591263806944e+02 0.0 
0.0 0.0 -1.513037323016e+02 
-7.449092481738e+01 2.844918579774e+00 0.0 
2.844918579774e+00 -1.430936919071e+02 0.0 
0.0 0.0 -6.487538501734e+01 
-1.271705259354e+02 -1.319753061982e-01 0.0 
-1.319753061982e-01 -3.153410658630e+02 0.0 
0.0 0.0 -1.323534775395e+02 
-1.517921346776e+02 1.721388760624e+01 0.0 
1.721388760624e+01 -3.680648755300e+02 0.0 
0.0 0.0 -1.555571030623e+02 
-7.772623559167e+01 -2.023105999802e+00 0.0 
-2.023105999802e+00 -1.948754801647e+02 0.0 
0.0 0.0 -8.138051472692e+01 
-4.232255667747e+01 -5.457603911556e+00 0.0 
-5.457603911556e+00 -1.040508273989e+02 0.0 
0.0 0.0 -4.351201522290e+01 
-2.942763954367e+01 -5.767241037008e+00 0.0 
-5.767241037008e+00 -6.677462953615e+01 0.0 
0.0 0.0 -2.846068072394e+01 
-1.193180265940e+02 1.067847510589e+00 0.0 
1.067847510589e+00 -3.008832188669e+02 0.0 
0.0 0.0 -1.256603736383e+02 
-6.335980175274e+01 1.063269769458e+00 0.0 
1.063269769458e+00 -1.138800122014e+02 0.0 
0.0 0.0 -5.277194418623e+01 
-2.069257888141e+01 -4.134931005828e+00 0.0 
-4.134931005828e+00 -4.711163368521e+01 0.0 
0.0 0.0 -1.994126376998e+01 
-6.270873107143e+01 -4.456264736208e+00 0.0 
-4.456264736208e+00 -1.581856044135e+02 0.0 
0.0 0.0 -6.586830064549e+01 
-3.481966687353e+01 -6.591778350757e-01 0.0 
-6.591778350757e-01 -8.993862177891e+01 0.0 
0.0 0.0 -3.702748659573e+01 
-6.615036994707e+01 3.645586547928e+00 0.0 
3.645586547928e+00 -1.133401693309e+02 0.0 
0.0 0.0 -5.344716178338e+01 
-6.638541593902e+01 -3.352802140442e+00 0.0 
-3.352802140442e+00 -1.663675259787e+02 0.0 
0.0 0.0 -6.942588257531e+01 
-1.079844067692e+02 -1.582321664504e+00 0.0 
-1.582321664504e+00 -2.804217339391e+02 0.0 
0.0 0.0 -1.161218422125e+02 
-6.137482100355e+01 -2.549082333031e+00 0.0 
-2.549082333031e+00 -1.541058360073e+02 0.0 
0.0 0.0 -6.424419710325e+01 
-8.251687510205e+01 4.283229481664e+00 0.0 
4.283229481664e+00 -1.663455774640e+02 0.0 
0.0 0.0 -7.425873576982e+01 
-5.434271658249e+01 -6.923422539000e+00 0.0 
-6.923422539000e+00 -1.367800758626e+02 0.0 
0.0 0.0 -5.693683773352e+01 
-1.185100224382e+02 1.929225733429e+00 0.0 
1.929225733429e+00 -3.045335628707e+02 0.0 
0.0 0.0 -1.265130755927e+02 
-4.303998276191e+01 -1.165450199949e+01 0.0 
-1.165450199949e+01 -1.019994693118e+02 0.0 
0.0 0.0 -4.311183562211e+01 
-1.144533677035e+02 8.084772809558e-01 0.0 
8.084772809558e-01 -2.932835148628e+02 0.0 
0.0 0.0 -1.219210647699e+02 
-8.988418983207e+01 -9.965291361312e-01 0.0 
-9.965291361312e-01 -2.239000864541e+02 0.0 
0.0 0.0 -9.373528288586e+01 
-1.222085934426e+02 -2.442242511795e-01 0.0 
-2.442242511795e-01 -3.074432174886e+02 0.0 
0.0 0.0 -1.284955432794e+02 
-4.215806433185e+01 -4.773598735731e-01 0.0 
-4.773598735731e-01 -1.781930620441e+02 0.0 
0.0 0.0 -6.570533791278e+01 
-3.493113372759e+01 -2.907128639551e+00 0.0 
-2.907128639551e+00 -8.916882176800e+01 0.0 
0.0 0.0 -3.682998664868e+01 
-5.724209076053e+01 2.064239258723e+00 0.0 
2.064239258723e+00 -9.476637250289e+01 0.0 
0.0 0.0 -4.520253897902e+01 
-9.753485873954e+01 7.169560203636e+00 0.0 
7.169560203636e+00 -2.836699225545e+02 0.0 
0.0 0.0 -1.139614343882e+02 
-5.536688750719e+01 2.811862844838e+01 0.0 
2.811862844838e+01 -1.428557172805e+02 0.0 
0.0 0.0 -5.906678143631e+01 
-6.498032004095e+01 2.885373141497e+00 0.0 
2.885373141497e+00 -1.146592925281e+02 0.0 
0.0 0.0 -5.349188377072e+01 
-4.645189087018e+01 -1.382019863476e+01 0.0 
-1.382019863476e+01 -1.178097015620e+02 0.0 
0.0 0.0 -4.887847772966e+01 
-6.954834779130e+01 4.076831149219e+00 0.0 
4.076831149219e+00 -1.202604510515e+02 0.0 
0.0 0.0 -5.654263965284e+01 
-3.072805653905e+01 -1.028269694323e+00 0.0 
-1.028269694323e+00 -8.087203763922e+01 0.0 
0.0 0.0 -3.308002825348e+01 
-1.376022630079e+02 4.301095879574e+00 0.0 
4.301095879574e+00 -3.416297230293e+02 0.0 
0.0 0.0 -1.433695958112e+02 
-1.012573338775e+02 9.972156939026e+00 0.0 
9.972156939026e+00 -2.917243880609e+02 0.0 
0.0 0.0 -1.174945165815e+02 
-1.025048615322e+02 2.092091479596e+01 0.0 
2.092091479596e+01 -2.876385295586e+02 0.0 
0.0 0.0 -1.166430173273e+02 
-9.340681244227e+01 8.365847426105e+00 0.0 
8.365847426105e+00 -1.956482525674e+02 0.0 
0.0 0.0 -8.631651950290e+01 
-9.077141001960e+01 -1.950931664409e+00 0.0 
-1.950931664409e+00 -2.522786386864e+02 0.0 
0.0 0.0 -1.025150146118e+02 
-3.433171206445e+01 -4.812371689713e+00 0.0 
-4.812371689713e+00 -8.399061721099e+01 0.0 
0.0 0.0 -3.509669878263e+01 
-1.043652999887e+02 2.066315603013e-01 0.0 
2.066315603013e-01 -2.782820928550e+02 0.0 
0.0 0.0 -1.143942178531e+02 
-1.409249410192e+02 4.407066360524e+00 0.0 
4.407066360524e+00 -3.511182084887e+02 0.0 
0.0 0.0 -1.472129448524e+02 
-5.331877417605e+01 -1.295487445550e+01 0.0 
-1.295487445550e+01 -1.534303965920e+02 0.0 
0.0 0.0 -6.162475123041e+01 
-1.240552091878e+02 1.277363945863e+00 0.0 
1.277363945863e+00 -3.085579922521e+02 0.0 
0.0 0.0 -1.293839604320e+02 
-7.672693664545e+01 4.753539574766e+00 0.0 
4.753539574766e+00 -1.443649233053e+02 0.0 
0.0 0.0 -6.592755798523e+01 
-3.941225266764e+01 -1.702359921702e+01 0.0 
-1.702359921702e+01 -1.275991095682e+02 0.0 
0.0 0.0 -4.970340867074e+01 
-1.094705109568e+02 5.104886597542e-01 0.0 
5.104886597542e-01 -2.857535553820e+02 0.0 
0.0 0.0 -1.181672199016e+02 
-5.922930459999e+01 3.458762444532e+00 0.0 
3.458762444532e+00 -9.179858997726e+01 0.0 
0.0 0.0 -4.490836837317e+01 
-4.844733076501e+01 -1.705804376238e+00 0.0 
-1.705804376238e+00 -1.215478208082e+02 0.0 
0.0 0.0 -5.059854547198e+01 
-5.928583463999e+01 -5.623113040630e+00 0.0 
-5.623113040630e+00 -1.502155171003e+02 0.0 
0.0 0.0 -6.245040552209e+01 
-6.779725154850e+01 2.892028282714e+01 0.0 
2.892028282714e+01 -1.794221316450e+02 0.0 
0.0 0.0 -7.376581495804e+01 
-1.171060426501e+02 -4.026511404747e-01 0.0 
-4.026511404747e-01 -2.996218654195e+02 0.0 
0.0 0.0 -1.246183724209e+02 
-4.966195240688e+01 2.984176465044e+01 0.0 
2.984176465044e+01 -1.060725642777e+02 0.0 
0.0 0.0 -4.632035500537e+01 
-6.371255656636e+01 2.787349139300e+01 0.0 
2.787349139300e+01 -1.781096314977e+02 0.0 
0.0 0.0 -7.214665641922e+01 
-7.251166117318e+01 4.120694477533e+00 0.0 
4.120694477533e+00 -1.308752902384e+02 0.0 
0.0 0.0 -6.061608542348e+01 
-5.962661103669e+01 9.170238062957e-01 0.0 
9.170238062957e-01 -1.028898585194e+02 0.0 
0.0 0.0 -4.835494086684e+01 
-6.157542577969e+01 2.479325936336e+00 0.0 
2.479325936336e+00 -9.992518061398e+01 0.0 
0.0 0.0 -4.805018191810e+01 
-8.876475833563e+01 -2.800386027500e+00 0.0 
-2.800386027500e+00 -2.228651310157e+02 0.0 
0.0 0.0 -9.308896680540e+01 
-1.314387833114e+02 6.600878179679e+00 0.0 
6.600878179679e+00 -3.361598376704e+02 0.0 
0.0 0.0 -1.398795862945e+02 
-9.913871691825e+01 -6.063368991843e-02 0.0 
-6.063368991843e-02 -2.708488832351e+02 0.0 
0.0 0.0 -1.105962800460e+02 
-5.786045517412e+01 2.587024244432e+00 0.0 
2.587024244432e+00 -9.322325987187e+01 0.0 
0.0 0.0 -4.492511451380e+01 
-1.107447802719e+02 2.924386711070e+01 0.0 
2.924386711070e+01 -2.310267172547e+02 0.0 
0.0 0.0 -1.021314492580e+02 
-1.072468436039e+02 2.332572530913e+01 0.0 
2.332572530913e+01 -2.920892719791e+02 0.0 
0.0 0.0 -1.194008346749e+02 
-1.118806792850e+02 -5.986594737615e-01 0.0 
-5.986594737615e-01 -2.918830932568e+02 0.0 
0.0 0.0 -1.207291317625e+02 
-7.831661984147e+01 4.045646975502e+00 0.0 
4.045646975502e+00 -1.525133322239e+02 0.0 
0.0 0.0 -6.884898561962e+01 
-6.690874977559e+01 -7.037806739306e+00 0.0 
-7.037806739306e+00 -1.762894511775e+02 0.0 
0.0 0.0 -7.255946028592e+01 
-6.330588211617e+01 -6.484471093119e+00 0.0 
-6.484471093119e+00 -1.631822851137e+02 0.0 
0.0 0.0 -6.754645016896e+01 
-3.553146716611e+01 -4.416675166465e+00 0.0 
-4.416675166465e+00 -8.727299649028e+01 0.0 
0.0 0.0 -3.644133909692e+01 
-1.079706032910e+02 1.718608338379e+00 0.0 
1.718608338379e+00 -2.893347236326e+02 0.0 
0.0 0.0 -1.187915980771e+02 
-6.680450419435e+01 -5.213012675840e+00 0.0 
-5.213012675840e+00 -1.708425141495e+02 0.0 
0.0 0.0 -7.089410550315e+01 
-7.084100044309e+01 4.859114196103e+00 0.0 
4.859114196103e+00 -1.227514700366e+02 0.0 
0.0 0.0 -5.767774114391e+01 
-6.778654857833e+01 4.851271651018e+00 0.0 
4.851271651018e+00 -1.120779469794e+02 0.0 
0.0 0.0 -5.355934866731e+01 
-6.689887525075e+01 1.218528288250e+01 0.0 
1.218528288250e+01 -2.273856540572e+02 0.0 
0.0 0.0 -8.788535879238e+01 
-5.481922991244e+01 -9.142012096845e+00 0.0 
-9.142012096845e+00 -1.414584558738e+02 0.0 
0.0 0.0 -5.848330573588e+01 
-3.950350245903e+01 1.298367361653e+01 0.0 
1.298367361653e+01 -1.671023992829e+02 0.0 
0.0 0.0 -6.158177052259e+01 
-5.810790957026e+01 -7.874702782266e+00 0.0 
-7.874702782266e+00 -1.492168473838e+02 0.0 
0.0 0.0 -6.179742708621e+01 
-6.138233152356e+01 -8.584433044007e+00 0.0 
-8.584433044007e+00 -1.619033790014e+02 0.0 
0.0 0.0 -6.658571315749e+01 
-3.961556640069e+01 -6.249814400310e+00 0.0 
-6.249814400310e+00 -9.570047475296e+01 0.0 
0.0 0.0 -4.019481234609e+01 
-1.256890947773e+02 7.157738362947e+00 0.0 
7.157738362947e+00 -3.280400585325e+02 0.0 
0.0 0.0 -1.357187459930e+02 
-6.898166443829e+01 -8.061486531304e+00 0.0 
-8.061486531304e+00 -2.004465581560e+02 0.0 
0.0 0.0 -8.042846677830e+01 
-8.354695923402e+01 5.779508320500e+00 0.0 
5.779508320500e+00 -1.648284301644e+02 0.0 
0.0 0.0 -7.411261681952e+01 
-7.120390621895e+01 -6.820150100711e+00 0.0 
-6.820150100711e+00 -2.128812780079e+02 0.0 
0.0 0.0 -8.482555526806e+01 
-1.010857327400e+02 -9.710943546672e-01 0.0 
-9.710943546672e-01 -2.766348781316e+02 0.0 
0.0 0.0 -1.129161832615e+02 
-8.398963908263e+01 -4.456603671176e+00 0.0 
-4.456603671176e+00 -2.387621832413e+02 0.0 
0.0 0.0 -9.642554669718e+01 
-6.269478441588e+01 2.472167752427e+01 0.0 
2.472167752427e+01 -1.926930280759e+02 0.0 
0.0 0.0 -7.621634374754e+01 
-3.861750707536e+01 -3.772968237572e+00 0.0 
-3.772968237572e+00 -9.586443268433e+01 0.0 
0.0 0.0 -3.994458192791e+01 
-1.350846774641e+02 4.971950369816e+00 0.0 
4.971950369816e+00 -3.430331240608e+02 0.0 
0.0 0.0 -1.430353404575e+02 
-1.422243668883e+02 7.938267210151e+00 0.0 
7.938267210151e+00 -3.550128797015e+02 0.0 
0.0 0.0 -1.487711739769e+02 
-8.820101048809e+01 2.822735654209e+01 0.0 
2.822735654209e+01 -2.182615289880e+02 0.0 
0.0 0.0 -9.153876184284e+01 
-6.419976759015e+01 -8.942389941316e+00 0.0 
-8.942389941316e+00 -1.747206828763e+02 0.0 
0.0 0.0 -7.127613513994e+01 
-9.228140817266e+01 -2.676060426188e+00 0.0 
-2.676060426188e+00 -2.577536600690e+02 0.0 
0.0 0.0 -1.046105204725e+02 
-6.810029186256e+01 2.787042454373e+00 0.0 
2.787042454373e+00 -1.212407273210e+02 0.0 
0.0 0.0 -5.640230575506e+01 
-7.059983036423e+01 -5.742244225023e+00 0.0 
-5.742244225023e+00 -1.836233680914e+02 0.0 
0.0 0.0 -7.586695953667e+01 
-5.124071071439e+01 2.828267020703e+01 0.0 
2.828267020703e+01 -1.421181177038e+02 0.0 
0.0 0.0 -5.760764852546e+01 
-5.475391449047e+01 -4.562330151359e+00 0.0 
-4.562330151359e+00 -1.374763414396e+02 0.0 
0.0 0.0 -5.726907677902e+01 
-4.863731995126e+01 -1.480863805664e+01 0.0 
-1.480863805664e+01 -1.338165468115e+02 0.0 
0.0 0.0 -5.433616002883e+01 
-7.010537301687e+01 -7.185285914474e+00 0.0 
-7.185285914474e+00 -1.894307410998e+02 0.0 
0.0 0.0 -7.746083423499e+01 
-5.003006542780e+01 -5.788361685812e+00 0.0 
-5.788361685812e+00 -1.245227440551e+02 0.0 
0.0 0.0 -5.196584284486e+01 
-4.497959364271e+01 -2.338787270080e+00 0.0 
-2.338787270080e+00 -1.129049334241e+02 0.0 
0.0 0.0 -4.696535812003e+01 
-8.776661717300e+01 -3.268661410910e+00 0.0 
-3.268661410910e+00 -2.406235264867e+02 0.0 
0.0 0.0 -9.811704309790e+01 
-1.065370084007e+02 -8.004062742201e-01 0.0 
-8.004062742201e-01 -2.842226337561e+02 0.0 
0.0 0.0 -1.168278926470e+02 
-1.081006754667e+02 2.975647656417e+01 0.0 
2.975647656417e+01 -2.583101654915e+02 0.0 
0.0 0.0 -1.095232522875e+02 
-3.086218082793e+00 -4.680856277576e-01 0.0 
-4.680856277576e-01 -8.717518836936e+00 0.0 
0.0 0.0 -2.147570859385e+00 
-6.296491903184e+01 -4.466819291806e+00 0.0 
-4.466819291806e+00 -2.117236176602e+02 0.0 
0.0 0.0 -8.200656100763e+01 
-6.612182660489e+01 -7.161462163215e+00 0.0 
-7.161462163215e+00 -2.063843017562e+02 0.0 
0.0 0.0 -8.135183850832e+01 
-6.666603816099e+01 -8.777555735834e+00 0.0 
-8.777555735834e+00 -1.876423159664e+02 0.0 
0.0 0.0 -7.589250623822e+01 
-6.488262087271e+01 2.660218370842e+00 0.0 
2.660218370842e+00 -1.104818003550e+02 0.0 
0.0 0.0 -5.220932636830e+01 
-7.621893563658e+01 -6.274206560499e+00 0.0 
-6.274206560499e+00 -2.196529602416e+02 0.0 
0.0 0.0 -8.836156876344e+01 
-5.762605416510e+01 -5.893526446892e+00 0.0 
-5.893526446892e+00 -1.450535382928e+02 0.0 
0.0 0.0 -6.040387773738e+01 
-7.296069745785e+01 -6.816204145106e+00 0.0 
-6.816204145106e+00 -2.024060818110e+02 0.0 
0.0 0.0 -8.221003378067e+01 
-7.750404382055e+01 2.681596545350e+00 0.0 
2.681596545350e+00 -1.540892217690e+02 0.0 
0.0 0.0 -6.907797967686e+01 
-5.794509204867e+01 -3.558997766448e+00 0.0 
-3.558997766448e+00 -1.457074928040e+02 0.0 
0.0 0.0 -6.069577545580e+01 
-2.302608271966e+01 -4.025544474050e+00 0.0 
-4.025544474050e+00 -5.503294708015e+01 0.0 
0.0 0.0 -2.301770893994e+01 
-3.175263741261e+01 -5.252358128937e+00 0.0 
-5.252358128937e+00 -7.551134286875e+01 0.0 
0.0 0.0 -3.177919408441e+01 
-4.738287356909e+01 -1.435683023118e+01 0.0 
-1.435683023118e+01 -1.365298707331e+02 0.0 
0.0 0.0 -5.477382329066e+01 
-5.774949373636e+01 -9.915033727137e+00 0.0 
-9.915033727137e+00 -1.545407333937e+02 0.0 
0.0 0.0 -6.328706813901e+01 
-6.819853598339e+01 -4.986583707410e+00 0.0 
-4.986583707410e+00 -2.181387819231e+02 0.0 
0.0 0.0 -8.550119537196e+01 
-7.553188372156e+01 -5.898471405400e+00 0.0 
-5.898471405400e+00 -2.149287918902e+02 0.0 
0.0 0.0 -8.673820268354e+01 
-4.131723693782e+01 -1.342228739174e+01 0.0 
-1.342228739174e+01 -9.525681098633e+01 0.0 
0.0 0.0 -4.019654530624e+01 
-2.954640202162e+01 -2.721880464100e+00 0.0 
-2.721880464100e+00 -7.510780517463e+01 0.0 
0.0 0.0 -3.099626215887e+01 
-6.666906577713e+01 6.616686853422e+00 0.0 
6.616686853422e+00 -1.004785435953e+02 0.0 
0.0 0.0 -4.974428281172e+01 
-5.000954232810e+01 -3.400035659682e+00 0.0 
-3.400035659682e+00 -1.250352044451e+02 0.0 
0.0 0.0 -5.211342403195e+01 
-1.186277950537e+02 4.154824539568e+00 0.0 
4.154824539568e+00 -3.167192333203e+02 0.0 
0.0 0.0 -1.302041085122e+02 
-1.043509311795e+02 2.898306926539e+01 0.0 
2.898306926539e+01 -2.558568827747e+02 0.0 
0.0 0.0 -1.076623441863e+02 
-7.900740457446e+01 2.145626317778e+01 0.0 
2.145626317778e+01 -1.259186357581e+02 0.0 
0.0 0.0 -6.107781209976e+01 
-8.776270104509e+01 9.356735171138e+00 0.0 
9.356735171138e+00 -1.721992640006e+02 0.0 
0.0 0.0 -7.758858951371e+01 
-1.115472437969e+02 3.023538836296e+01 0.0 
3.023538836296e+01 -2.610089005028e+02 0.0 
0.0 0.0 -1.113668432899e+02 
-6.234571155356e+01 1.475596161060e+01 0.0 
1.475596161060e+01 -2.155180706418e+02 0.0 
0.0 0.0 -8.295913465861e+01 
-9.615440172975e+01 2.846022231350e+01 0.0 
2.846022231350e+01 -2.370362942953e+02 0.0 
0.0 0.0 -9.955720880753e+01 
-4.492258309030e+01 -1.641453064325e+01 0.0 
-1.641453064325e+01 -1.133306387553e+02 0.0 
0.0 0.0 -4.676168534600e+01 
-7.721228855189e+01 -5.724847668960e+00 0.0 
-5.724847668960e+00 -2.091415724121e+02 0.0 
0.0 0.0 -8.550615828918e+01 
-5.591337681619e+01 2.107535002727e+01 0.0 
2.107535002727e+01 -1.893754567174e+02 0.0 
0.0 0.0 -7.318665006009e+01 
-3.445568434501e+01 -1.312823959003e+01 0.0 
-1.312823959003e+01 -1.410706606025e+02 0.0 
0.0 0.0 -5.221672079688e+01 
-4.201347797726e+01 -1.636792894159e+01 0.0 
-1.636792894159e+01 -9.117493090026e+01 0.0 
0.0 0.0 -3.819911919231e+01 
-6.509410110334e+01 -7.347471502181e+00 0.0 
-7.347471502181e+00 -1.696505809121e+02 0.0 
0.0 0.0 -7.002340460463e+01 
-7.080761485399e+01 -6.589455081380e+00 0.0 
-6.589455081380e+00 -2.085053133442e+02 0.0 
0.0 0.0 -8.339387845946e+01 
-7.288204179919e+01 -4.742775092477e+00 0.0 
-4.742775092477e+00 -2.201773457030e+02 0.0 
0.0 0.0 -8.751781625064e+01 
-5.317343009609e+01 -4.853509276321e+00 0.0 
-4.853509276321e+00 -1.329181065679e+02 0.0 
0.0 0.0 -5.542746099918e+01 
-7.874309049168e+01 -4.852521424717e+00 0.0 
-4.852521424717e+00 -2.316594540939e+02 0.0 
0.0 0.0 -9.272076337569e+01 
-6.771355054692e+01 -4.719329653968e+00 0.0 
-4.719329653968e+00 -2.136670748856e+02 0.0 
0.0 0.0 -8.401418762976e+01 
-6.526092977795e+01 -1.373588840518e+00 0.0 
-1.373588840518e+00 -2.221714878265e+02 0.0 
0.0 0.0 -8.582972528134e+01 
-6.000862226916e+01 -7.892447807249e+00 0.0 
-7.892447807249e+00 -1.559292663504e+02 0.0 
0.0 0.0 -6.438136658585e+01 
-9.939392422638e+01 1.409411554105e+01 0.0 
1.409411554105e+01 -2.886069268452e+02 0.0 
0.0 0.0 -1.160002553215e+02 
-7.556267932954e+01 6.310620962849e+00 0.0 
6.310620962849e+00 -1.325363519693e+02 0.0 
0.0 0.0 -6.202970938965e+01 
-6.023706218106e+01 1.679186315055e-01 0.0 
1.679186315055e-01 -2.152255437107e+02 0.0 
0.0 0.0 -8.223878176751e+01 
-1.292259184801e+02 5.573684331146e+00 0.0 
5.573684331146e+00 -3.349990568291e+02 0.0 
0.0 0.0 -1.388674925928e+02 
-4.580754020806e+01 -1.679770724850e+01 0.0 
-1.679770724850e+01 -1.303590362550e+02 0.0 
0.0 0.0 -5.244997293891e+01 
-1.394875589528e+02 9.798212169828e+00 0.0 
9.798212169828e+00 -3.546316004640e+02 0.0 
0.0 0.0 -1.478357478250e+02 
-7.347662530745e+01 -5.074634512935e+00 0.0 
-5.074634512935e+00 -2.247396689713e+02 0.0 
0.0 0.0 -8.906488828363e+01 
-1.147887035816e+02 3.102848420780e+01 0.0 
3.102848420780e+01 -2.654553626485e+02 0.0 
0.0 0.0 -1.136732198690e+02 
-8.150566589246e+01 2.980549482054e+01 0.0 
2.980549482054e+01 -1.687182680993e+02 0.0 
0.0 0.0 -7.466718019752e+01 
-4.314505376287e+01 -1.581093870755e+01 0.0 
-1.581093870755e+01 -1.159710029454e+02 0.0 
0.0 0.0 -4.733481701248e+01 
-8.265591755713e+01 2.425080792400e+01 0.0 
2.425080792400e+01 -1.417511816284e+02 0.0 
0.0 0.0 -6.692212975567e+01 
-9.407146340535e+01 1.446165219551e+01 0.0 
1.446165219551e+01 -1.855752196805e+02 0.0 
0.0 0.0 -8.349400492576e+01 
-7.594792484475e+01 -2.865841244335e+00 0.0 
-2.865841244335e+00 -2.360279267868e+02 0.0 
0.0 0.0 -9.319275548947e+01 
-4.423895406456e+01 2.581058698996e+01 0.0 
2.581058698996e+01 -1.393076416670e+02 0.0 
0.0 0.0 -5.466397871945e+01 
-8.614765786549e+01 2.645654702109e+01 0.0 
2.645654702109e+01 -1.582734480801e+02 0.0 
0.0 0.0 -7.292633178366e+01 
-6.186144536835e+01 2.797065327792e+01 0.0 
2.797065327792e+01 -1.612800472834e+02 0.0 
0.0 0.0 -6.654244779551e+01 
-4.132879202422e+01 -1.610612865759e+01 0.0 
-1.610612865759e+01 -9.461725865070e+01 0.0 
0.0 0.0 -4.002918080595e+01 
-9.906665556382e+01 1.255288733828e+01 0.0 
1.255288733828e+01 -2.151389774790e+02 0.0 
0.0 0.0 -9.386168991284e+01 
-4.004523011616e+01 -1.311825737097e+01 0.0 
-1.311825737097e+01 -7.980297887406e+01 0.0 
0.0 0.0 -3.487706518758e+01 
-1.300790859837e+02 2.236618483865e+01 0.0 
2.236618483865e+01 -3.350238471407e+02 0.0 
0.0 0.0 -1.391308799373e+02 
-8.738618066305e+01 4.815390842004e+00 0.0 
4.815390842004e+00 -1.839113510911e+02 0.0 
0.0 0.0 -8.098925952624e+01 
-1.052987565854e+02 1.278122028018e+01 0.0 
1.278122028018e+01 -2.990989630112e+02 0.0 
0.0 0.0 -1.209193158790e+02 
-6.026568052261e+01 1.502163905963e+00 0.0 
1.502163905963e+00 -1.009837570197e+02 0.0 
0.0 0.0 -4.797483126270e+01 
-8.711819876432e+01 9.669500286243e+00 0.0 
9.669500286243e+00 -1.634744829261e+02 0.0 
0.0 0.0 -7.477780450713e+01 
-6.958054005091e+01 -1.888336353273e+00 0.0 
-1.888336353273e+00 -2.238795946777e+02 0.0 
0.0 0.0 -8.763804041858e+01 
-7.531548461414e+01 1.322311903336e+01 0.0 
1.322311903336e+01 -2.437444942460e+02 0.0 
0.0 0.0 -9.531799365804e+01 
-9.375612393107e+01 1.096427187762e+01 0.0 
1.096427187762e+01 -1.933216125482e+02 0.0 
0.0 0.0 -8.572332094378e+01 
-1.159007322281e+02 6.308501092999e-01 0.0 
6.308501092999e-01 -3.031386599252e+02 0.0 
0.0 0.0 -1.253118176460e+02 
-8.034305985721e+01 8.021231854218e+00 0.0 
8.021231854218e+00 -1.426666741309e+02 0.0 
0.0 0.0 -6.650292019644e+01 
-1.003165423061e+02 5.892091680417e+00 0.0 
5.892091680417e+00 -2.910941574425e+02 0.0 
0.0 0.0 -1.170232099246e+02 
-4.033930881859e+01 -1.757871205589e+01 0.0 
-1.757871205589e+01 -1.113377414751e+02 0.0 
0.0 0.0 -4.510311508811e+01 
-8.506291527036e+01 1.002453325071e+01 0.0 
1.002453325071e+01 -1.531448796001e+02 0.0 
0.0 0.0 -7.106233846113e+01 
-1.297056322030e+02 3.475101511564e+01 0.0 
3.475101511564e+01 -3.095331441313e+02 0.0 
0.0 0.0 -1.313716329003e+02 
-1.408128128825e+02 6.723956019932e+00 0.0 
6.723956019932e+00 -3.540351012682e+02 0.0 
0.0 0.0 -1.480543742452e+02 
-7.369267782174e+01 -7.212100876300e+00 0.0 
-7.212100876300e+00 -2.073252084051e+02 0.0 
0.0 0.0 -8.390536586804e+01 
-6.268857654447e+01 3.622587928723e+00 0.0 
3.622587928723e+00 -1.022999903522e+02 0.0 
0.0 0.0 -4.909657006902e+01 
-5.664371528166e+01 1.282570600893e+00 0.0 
1.282570600893e+00 -9.034067429346e+01 0.0 
0.0 0.0 -4.369531687254e+01 
-7.790604752497e+01 -4.420562879592e+00 0.0 
-4.420562879592e+00 -2.267604472497e+02 0.0 
0.0 0.0 -9.099994843239e+01 
-1.103599782275e+02 6.211262904153e-01 0.0 
6.211262904153e-01 -2.954217335048e+02 0.0 
0.0 0.0 -1.213345135197e+02 
-1.143866771926e+02 2.278041112529e+00 0.0 
2.278041112529e+00 -3.062799325226e+02 0.0 
0.0 0.0 -1.257999829146e+02 
-2.693684261134e+01 -3.090884659284e+00 0.0 
-3.090884659284e+00 -6.632213390304e+01 0.0 
0.0 0.0 -2.757769295431e+01 
-3.508527265744e+01 1.404831496435e+01 0.0 
1.404831496435e+01 -1.536850852781e+02 0.0 
0.0 0.0 -5.623110738067e+01 
-6.311995639721e+01 3.809448471743e+00 0.0 
3.809448471743e+00 -2.238054331647e+02 0.0 
0.0 0.0 -8.567761686858e+01 
-6.418509358456e+01 -8.426664063028e-01 0.0 
-8.426664063028e-01 -2.166519146309e+02 0.0 
0.0 0.0 -8.385110246465e+01 
-6.085969830254e+01 2.614317851719e+01 0.0 
2.614317851719e+01 -1.771448401238e+02 0.0 
0.0 0.0 -7.100136152791e+01 
-9.868069948947e+01 1.253837012629e+01 0.0 
1.253837012629e+01 -2.049281248877e+02 0.0 
0.0 0.0 -9.068264731315e+01 
-1.027876510287e+02 2.392306058280e+01 0.0 
2.392306058280e+01 -2.119146360312e+02 0.0 
0.0 0.0 -9.401068611797e+01 
-8.963141362312e+01 6.694155437331e+00 0.0 
6.694155437331e+00 -1.850809317022e+02 0.0 
0.0 0.0 -8.201370359759e+01 
-5.256849912789e+01 3.000998504868e+01 0.0 
3.000998504868e+01 -1.061860958697e+02 0.0 
0.0 0.0 -4.722637849928e+01 
-8.813159330678e+01 1.249411006248e+01 0.0 
1.249411006248e+01 -1.640596129705e+02 0.0 
0.0 0.0 -7.525736188319e+01 
-1.133070172667e+02 1.813105603138e+00 0.0 
1.813105603138e+00 -2.969303119463e+02 0.0 
0.0 0.0 -1.226711987639e+02 
-9.207880822525e+01 8.421198968050e+00 0.0 
8.421198968050e+00 -1.932232499382e+02 0.0 
0.0 0.0 -8.519061744902e+01 
-8.287792044626e+01 1.038798700980e+01 0.0 
1.038798700980e+01 -1.429469590332e+02 0.0 
0.0 0.0 -6.734746384385e+01 
-8.012484513655e+01 -5.051504268410e+00 0.0 
-5.051504268410e+00 -2.215792145181e+02 0.0 
0.0 0.0 -9.011121789639e+01 
-5.861050581416e+01 6.222244169155e+00 0.0 
6.222244169155e+00 -2.154456026755e+02 0.0 
0.0 0.0 -8.181683254690e+01 
-8.131810648112e+01 7.583138588892e+00 0.0 
7.583138588892e+00 -1.511432623877e+02 0.0 
0.0 0.0 -6.933841066066e+01 
-9.323411371839e+01 1.124468898060e+01 0.0 
1.124468898060e+01 -1.844369397210e+02 0.0 
0.0 0.0 -8.290131603182e+01 
-7.957270114192e+01 5.595558111108e+00 0.0 
5.595558111108e+00 -1.514399089849e+02 0.0 
0.0 0.0 -6.890378303804e+01 
-7.691443219077e+01 5.711194727443e+00 0.0 
5.711194727443e+00 -1.408222044951e+02 0.0 
0.0 0.0 -6.492099100576e+01 
-1.302848683626e+02 3.356176268438e+00 0.0 
3.356176268438e+00 -3.327158698451e+02 0.0 
0.0 0.0 -1.385002214623e+02 
-1.241574705422e+02 2.345955256110e+01 0.0 
2.345955256110e+01 -3.229986005785e+02 0.0 
0.0 0.0 -1.337468213362e+02 
-1.245420294150e+02 3.713993957979e+00 0.0 
3.713993957979e+00 -3.247735451298e+02 0.0 
0.0 0.0 -1.343946723634e+02 
-9.761643440736e+01 -2.336739681456e+00 0.0 
-2.336739681456e+00 -2.651975375221e+02 0.0 
0.0 0.0 -1.084441915788e+02 
-4.836379899671e+01 2.302885503204e+01 0.0 
2.302885503204e+01 -6.626865799071e+01 0.0 
0.0 0.0 -3.398973709623e+01 
-1.095857228651e+02 1.554142809500e+01 0.0 
1.554142809500e+01 -3.057791138756e+02 0.0 
0.0 0.0 -1.242094510222e+02 
-8.415550500715e+01 1.381695916564e+01 0.0 
1.381695916564e+01 -1.465763632920e+02 0.0 
0.0 0.0 -6.881956048973e+01 
-4.531663314527e+01 -4.674504033185e+00 0.0 
-4.674504033185e+00 -1.125422800418e+02 0.0 
0.0 0.0 -4.695767395612e+01 
-6.630029403458e+01 2.758880603840e+00 0.0 
2.758880603840e+00 -2.249091166852e+02 0.0 
0.0 0.0 -8.696282321593e+01 
-7.633870641846e+01 3.643557209341e+00 0.0 
3.643557209341e+00 -2.482254414513e+02 0.0 
0.0 0.0 -9.696924436094e+01 
-8.424123898516e+01 1.436310168838e+01 0.0 
1.436310168838e+01 -2.604450529574e+02 0.0 
0.0 0.0 -1.030058875828e+02 
-3.146552124881e+01 -3.284130206651e+00 0.0 
-3.284130206651e+00 -1.509993462688e+02 0.0 
0.0 0.0 -5.418849023547e+01 
-6.104100893422e+01 4.794540159766e+00 0.0 
4.794540159766e+00 -2.161284253058e+02 0.0 
0.0 0.0 -8.275083027201e+01 
-9.368698398826e+01 1.558000906265e+01 0.0 
1.558000906265e+01 -2.774221338671e+02 0.0 
0.0 0.0 -1.109327353566e+02 
-5.969492644514e+01 2.622940893859e+01 0.0 
2.622940893859e+01 -1.072212331953e+02 0.0 
0.0 0.0 -4.967484789214e+01 
-8.118679306257e+01 -5.588018868320e+00 0.0 
-5.588018868320e+00 -2.267752667628e+02 0.0 
0.0 0.0 -9.198861794762e+01 
-7.533924475434e+01 8.481302538275e+00 0.0 
8.481302538275e+00 -1.218539869445e+02 0.0 
0.0 0.0 -5.875796950965e+01 
-4.298113146271e+01 -2.004117142771e-01 0.0 
-2.004117142771e-01 -6.023874761911e+01 0.0 
0.0 0.0 -3.056596372454e+01 
-4.023400308825e+01 2.852652180571e+01 0.0 
2.852652180571e+01 -2.869311550532e+01 0.0 
0.0 0.0 -1.938694748200e+01 
-9.584869902768e+01 -1.499555097879e+00 0.0 
-1.499555097879e+00 -2.595229035289e+02 0.0 
0.0 0.0 -1.062114807670e+02 
-1.089575723258e+02 1.110763609753e+01 0.0 
1.110763609753e+01 -3.079300184645e+02 0.0 
0.0 0.0 -1.246662772371e+02 
-1.045931118458e+02 2.288523509349e+01 0.0 
2.288523509349e+01 -2.183664125038e+02 0.0 
0.0 0.0 -9.648785730487e+01 
-7.009916605101e+01 1.067847849717e+01 0.0 
1.067847849717e+01 -2.376899349420e+02 0.0 
0.0 0.0 -9.193673029790e+01 
-8.916335647446e+01 -3.949697379672e+00 0.0 
-3.949697379672e+00 -2.460599810030e+02 0.0 
0.0 0.0 -1.001670012432e+02 
-7.279440401159e+01 6.370070213116e+00 0.0 
6.370070213116e+00 -1.220136256556e+02 0.0 
0.0 0.0 -5.804240890016e+01 
-3.844820417449e+01 2.643853510782e+01 0.0 
2.643853510782e+01 -2.705255140007e+01 0.0 
0.0 0.0 -1.806394122370e+01 
-1.030958174804e+02 1.239797969178e+01 0.0 
1.239797969178e+01 -2.980823981615e+02 0.0 
0.0 0.0 -1.199534646926e+02 
-8.052554592447e+01 1.126403689871e+01 0.0 
1.126403689871e+01 -2.547470985867e+02 0.0 
0.0 0.0 -1.001817933534e+02 
-6.353524592714e+01 2.840107653197e+01 0.0 
2.840107653197e+01 -1.094682159086e+02 0.0 
0.0 0.0 -5.150103855071e+01 
-1.172453223117e+02 3.368026609756e+00 0.0 
3.368026609756e+00 -3.077273662793e+02 0.0 
0.0 0.0 -1.270918065773e+02 
-4.185796459426e+01 -1.559523968976e+01 0.0 
-1.559523968976e+01 -1.438206613107e+02 0.0 
0.0 0.0 -5.530358777150e+01 
-1.213557794896e+02 5.151167228308e+00 0.0 
5.151167228308e+00 -3.180924212330e+02 0.0 
0.0 0.0 -1.314344602168e+02 
-1.341998902948e+02 7.515834744814e+00 0.0 
7.515834744814e+00 -3.449547250607e+02 0.0 
0.0 0.0 -1.433463846066e+02 
-9.749704995092e+01 1.382919664731e+01 0.0 
1.382919664731e+01 -2.877458129808e+02 0.0 
0.0 0.0 -1.151728588795e+02 
-8.271220815294e+01 7.797810868459e+00 0.0 
7.797810868459e+00 -1.531527401002e+02 0.0 
0.0 0.0 -7.035948447594e+01 
-1.052544643062e+02 2.890897236954e+01 0.0 
2.890897236954e+01 -2.694093237576e+02 0.0 
0.0 0.0 -1.119991364191e+02 
-1.363947501579e+02 8.678929980998e+00 0.0 
8.678929980998e+00 -3.460991957061e+02 0.0 
0.0 0.0 -1.443481837592e+02 
-3.648128121284e+01 2.490584328462e+01 0.0 
2.490584328462e+01 -2.613448880449e+01 0.0 
0.0 0.0 -1.838473100520e+01 
-7.791949027562e+01 8.204779049600e+00 0.0 
8.204779049600e+00 -1.322718146967e+02 0.0 
0.0 0.0 -6.265739149169e+01 
-1.227228980303e+02 2.675083210470e+01 0.0 
2.675083210470e+01 -3.142953290942e+02 0.0 
0.0 0.0 -1.307054681373e+02 
-8.367581091320e+01 7.358369519018e+00 0.0 
7.358369519018e+00 -1.616181997644e+02 0.0 
0.0 0.0 -7.318820320329e+01 
-8.783214635642e+01 1.270138489897e+01 0.0 
1.270138489897e+01 -2.707585639051e+02 0.0 
0.0 0.0 -1.071772130785e+02 
-6.372927287979e+01 8.615962854863e+00 0.0 
8.615962854863e+00 -2.221772025722e+02 0.0 
0.0 0.0 -8.537194263559e+01 
-9.210461016029e+01 -3.738614088285e+00 0.0 
-3.738614088285e+00 -2.376640111132e+02 0.0 
0.0 0.0 -9.853058638204e+01 
-2.691808336684e+01 6.603800285181e+00 0.0 
6.603800285181e+00 -1.301636336025e+02 0.0 
0.0 0.0 -4.847723146715e+01 
-8.606273248105e+01 7.035449273723e+00 0.0 
7.035449273723e+00 -1.722109414532e+02 0.0 
0.0 0.0 -7.708210218028e+01 
-4.862390090532e+01 -3.990279096978e+00 0.0 
-3.990279096978e+00 -1.212011453183e+02 0.0 
0.0 0.0 -5.054751386708e+01 
-3.398037375290e+01 2.324714586186e+01 0.0 
2.324714586186e+01 -2.484260112664e+01 0.0 
0.0 0.0 -1.724689246386e+01 
-1.004549068301e+02 2.954492138060e+01 0.0 
2.954492138060e+01 -2.536500407625e+02 0.0 
0.0 0.0 -1.058314842778e+02 
-9.116476671317e+01 6.276968238431e+00 0.0 
6.276968238431e+00 -1.943122877050e+02 0.0 
0.0 0.0 -8.524311632546e+01 
-4.354334183250e+01 -1.888098193362e+01 0.0 
-1.888098193362e+01 -1.287499092104e+02 0.0 
0.0 0.0 -5.069769679675e+01 
-7.199509568304e+01 2.967531767206e+01 0.0 
2.967531767206e+01 -1.808192925321e+02 0.0 
0.0 0.0 -7.544431646453e+01 
-7.895567908826e+01 7.742094343755e+00 0.0 
7.742094343755e+00 -1.408423743556e+02 0.0 
0.0 0.0 -6.553941603315e+01 
-8.920985834940e+01 -3.299895464841e+00 0.0 
-3.299895464841e+00 -2.358440107621e+02 0.0 
0.0 0.0 -9.711616073345e+01 
-3.556562799121e+01 -8.030057837084e+00 0.0 
-8.030057837084e+00 -1.518803382157e+02 0.0 
0.0 0.0 -5.583378986207e+01 
-4.304611688985e+01 2.494665639462e+01 0.0 
2.494665639462e+01 -1.397917977677e+02 0.0 
0.0 0.0 -5.445137439727e+01 
-4.066256036084e+01 -1.790708702137e+01 0.0 
-1.790708702137e+01 -9.033388855021e+01 0.0 
0.0 0.0 -3.784765243737e+01 
-3.571548818003e+01 -1.689452866837e+01 0.0 
-1.689452866837e+01 -1.258842848857e+02 0.0 
0.0 0.0 -4.807993191971e+01 
-3.734554746794e+01 -1.868075944882e+01 0.0 
-1.868075944882e+01 -1.084369979981e+02 0.0 
0.0 0.0 -4.311936914936e+01 
-7.869525610971e+01 1.164785337261e+01 0.0 
1.164785337261e+01 -2.540528837408e+02 0.0 
0.0 0.0 -9.942444195514e+01 
-1.122202862460e+02 2.128877004867e+01 0.0 
2.128877004867e+01 -2.495768909822e+02 0.0 
0.0 0.0 -1.081391531685e+02 
-3.143006704436e+01 2.175486001950e+01 0.0 
2.175486001950e+01 -2.345599985297e+01 0.0 
0.0 0.0 -1.606582006920e+01 
-1.359361942059e+02 3.021193329432e+00 0.0 
3.021193329432e+00 -3.406274364598e+02 0.0 
0.0 0.0 -1.425690891997e+02 
-5.122341334127e+01 1.242070175621e+01 0.0 
1.242070175621e+01 -1.960220550542e+02 0.0 
0.0 0.0 -7.377364051863e+01 
-8.061571161421e+01 1.086496292728e+01 0.0 
1.086496292728e+01 -1.330745054014e+02 0.0 
0.0 0.0 -6.370706510470e+01 
-2.745028022412e+01 3.893739192864e+00 0.0 
3.893739192864e+00 -1.377890752174e+02 0.0 
0.0 0.0 -5.099257380452e+01 
-1.413737635990e+02 1.070980716814e+01 0.0 
1.070980716814e+01 -3.553643369230e+02 0.0 
0.0 0.0 -1.486214301566e+02 
-4.468219872423e+01 -1.951471374172e+01 0.0 
-1.951471374172e+01 -1.110500358697e+02 0.0 
0.0 0.0 -4.505533672281e+01 
-5.700659297218e+01 -4.062187793522e+00 0.0 
-4.062187793522e+00 -1.421190339476e+02 0.0 
0.0 0.0 -5.933768807595e+01 
-1.020929445561e+02 1.644790216685e+01 0.0 
1.644790216685e+01 -2.938682258607e+02 0.0 
0.0 0.0 -1.183883511250e+02 
-7.495016459112e+01 -2.385385853955e+00 0.0 
-2.385385853955e+00 -2.308755844845e+02 0.0 
0.0 0.0 -9.134772472268e+01 
-1.179277438170e+02 2.454057149017e+01 0.0 
2.454057149017e+01 -3.100029715243e+02 0.0 
0.0 0.0 -1.279792146024e+02 
-4.635976045267e+01 2.847442840639e+01 0.0 
2.847442840639e+01 -1.237955247200e+02 0.0 
0.0 0.0 -5.064658555179e+01 
-8.999136652668e+01 1.612801697655e+01 0.0 
1.612801697655e+01 -1.572637857175e+02 0.0 
0.0 0.0 -7.377654567326e+01 
-1.288597449421e+02 2.132484375207e+01 0.0 
2.132484375207e+01 -3.342790064599e+02 0.0 
0.0 0.0 -1.385416254206e+02 
-7.422921779821e+01 5.736823152161e+00 0.0 
5.736823152161e+00 -1.303095600292e+02 0.0 
0.0 0.0 -6.096163334823e+01 
-1.073643038693e+02 2.574321723640e+01 0.0 
2.574321723640e+01 -2.201553895024e+02 0.0 
0.0 0.0 -9.785590801151e+01 
-8.954910655323e+01 1.224051670071e+01 0.0 
1.224051670071e+01 -1.639944549563e+02 0.0 
0.0 0.0 -7.566306845285e+01 
-9.383802093258e+01 1.462671441836e+01 0.0 
1.462671441836e+01 -1.755151340858e+02 0.0 
0.0 0.0 -8.040594650551e+01 
-3.375337183635e+01 2.231195428779e+01 0.0 
2.231195428779e+01 -1.275629942790e+02 0.0 
0.0 0.0 -4.794595903742e+01 
-1.311118139854e+02 1.769200438842e+00 0.0 
1.769200438842e+00 -3.296858567416e+02 0.0 
0.0 0.0 -1.378393012181e+02 
-8.364945784005e+01 1.003539730529e+01 0.0 
1.003539730529e+01 -1.521358450699e+02 0.0 
0.0 0.0 -7.033559087299e+01 
-6.603785995031e+01 1.844070739685e+01 0.0 
1.844070739685e+01 -2.191368154784e+02 0.0 
0.0 0.0 -8.515240262861e+01 
-3.076396933392e+01 2.044950658341e+01 0.0 
2.044950658341e+01 -2.289411787331e+01 0.0 
0.0 0.0 -1.569742616217e+01 
-1.358663608958e+02 2.496319981532e+01 0.0 
2.496319981532e+01 -3.407095362342e+02 0.0 
0.0 0.0 -1.425727691390e+02 
-3.185697269831e+01 9.337086651891e+00 0.0 
9.337086651891e+00 -1.515996658226e+02 0.0 
0.0 0.0 -5.463699155627e+01 
-5.345194139084e+01 -2.489289418878e+00 0.0 
-2.489289418878e+00 -1.335260412514e+02 0.0 
0.0 0.0 -5.569339479267e+01 
-1.116780804092e+02 2.124273696137e+01 0.0 
2.124273696137e+01 -3.045447956694e+02 0.0 
0.0 0.0 -1.244668628236e+02 
-3.003750901485e+01 5.368618123897e-01 0.0 
5.368618123897e-01 -8.043370327718e+01 0.0 
0.0 0.0 -3.274136368761e+01 
-6.678572033951e+01 2.639475596226e+01 0.0 
2.639475596226e+01 -1.944429919886e+02 0.0 
0.0 0.0 -7.796861369843e+01 
-1.076896990775e+02 1.503300312982e+01 0.0 
1.503300312982e+01 -3.048762701533e+02 0.0 
0.0 0.0 -1.233697907692e+02 
-9.890694934183e+01 1.616368466875e+01 0.0 
1.616368466875e+01 -1.961065491211e+02 0.0 
0.0 0.0 -8.810404953887e+01 
-1.028044860147e+02 1.886266342888e+01 0.0 
1.886266342888e+01 -2.089527749770e+02 0.0 
0.0 0.0 -9.312717829750e+01 
-1.036467823749e+02 1.686417544493e+01 0.0 
1.686417544493e+01 -2.946141892822e+02 0.0 
0.0 0.0 -1.190782914971e+02 
-9.137012497659e+01 1.176433521048e+01 0.0 
1.176433521048e+01 -1.741453742999e+02 0.0 
0.0 0.0 -7.925464978294e+01 
-5.489730460885e+01 1.567668761412e+01 0.0 
1.567668761412e+01 -1.998401275716e+02 0.0 
0.0 0.0 -7.602122965415e+01 
-1.004862768037e+02 3.083284274302e+01 0.0 
3.083284274302e+01 -2.399469888084e+02 0.0 
0.0 0.0 -1.017299796836e+02 
-4.179276215161e+01 1.942510678326e+01 0.0 
1.942510678326e+01 -2.441473468884e+01 0.0 
0.0 0.0 -1.946224905213e+01 
-1.081306791922e+02 2.827286287947e+01 0.0 
2.827286287947e+01 -2.374289446030e+02 0.0 
0.0 0.0 -1.032678871385e+02 
-3.708758209594e+01 8.858701119783e+00 0.0 
8.858701119783e+00 -2.553763842607e+01 0.0 
0.0 0.0 -1.838756615660e+01 
-3.922563036705e+01 6.485445167168e+00 0.0 
6.485445167168e+00 -3.202648201047e+01 0.0 
0.0 0.0 -2.097563371325e+01 
-6.583236446464e+01 1.310670405821e+01 0.0 
1.310670405821e+01 -2.271267399797e+02 0.0 
0.0 0.0 -8.748773133332e+01 
-4.328173707533e+01 5.632139066191e+00 0.0 
5.632139066191e+00 -4.236201681410e+01 0.0 
0.0 0.0 -2.529312616683e+01 
-7.822825682888e+01 2.479412004856e+01 0.0 
2.479412004856e+01 -2.275003752174e+02 0.0 
0.0 0.0 -9.131858961388e+01 
-5.872705671999e+01 2.271446688072e+01 0.0 
2.271446688072e+01 -1.908148126099e+02 0.0 
0.0 0.0 -7.446256079897e+01 
-6.885797894299e+01 6.389608217765e+00 0.0 
6.389608217765e+00 -2.320399400322e+02 0.0 
0.0 0.0 -8.986937569255e+01 
-3.095429798226e+01 -9.934273319629e+00 0.0 
-9.934273319629e+00 -1.398933949858e+02 0.0 
0.0 0.0 -5.049477260177e+01 
-6.205401869806e+01 9.824169404937e+00 0.0 
9.824169404937e+00 -2.217297675222e+02 0.0 
0.0 0.0 -8.473513586609e+01 
-8.984978683462e+01 8.974127421233e+00 0.0 
8.974127421233e+00 -1.826097085408e+02 0.0 
0.0 0.0 -8.133784861263e+01 
-1.073061124269e+02 2.614532591325e+01 0.0 
2.614532591325e+01 -2.293318267994e+02 0.0 
0.0 0.0 -1.005913817679e+02 
-1.213134602092e+02 6.567482309683e-01 0.0 
6.567482309683e-01 -3.108764243343e+02 0.0 
0.0 0.0 -1.292569653631e+02 
-1.225982481728e+02 2.241776273775e+01 0.0 
2.241776273775e+01 -3.221153563619e+02 0.0 
0.0 0.0 -1.330140813604e+02 
-7.052409286370e+01 -2.362665016210e+00 0.0 
-2.362665016210e+00 -2.290058488636e+02 0.0 
0.0 0.0 -8.945898251820e+01 
-9.000304829899e+01 1.200036910503e+01 0.0 
1.200036910503e+01 -1.734298822042e+02 0.0 
0.0 0.0 -7.862987915094e+01 
-6.641208210247e+01 7.342477029569e+00 0.0 
7.342477029569e+00 -2.312068171555e+02 0.0 
0.0 0.0 -8.888566977739e+01 
-1.364026303335e+02 1.595511407314e+00 0.0 
1.595511407314e+00 -3.375069857784e+02 0.0 
0.0 0.0 -1.417728848336e+02 
-8.566794198830e+01 9.732512152370e+00 0.0 
9.732512152370e+00 -1.619199235947e+02 0.0 
0.0 0.0 -7.387635967491e+01 
-9.202085103840e+01 1.532485368393e+01 0.0 
1.532485368393e+01 -1.662177776177e+02 0.0 
0.0 0.0 -7.707158859684e+01 
-9.311310156390e+01 1.107627397632e+01 0.0 
1.107627397632e+01 -2.809412170756e+02 0.0 
0.0 0.0 -1.118162955918e+02 
-5.820923448982e+01 1.264909019566e+01 0.0 
1.264909019566e+01 -2.113450163561e+02 0.0 
0.0 0.0 -8.046627525378e+01 
-1.087786725283e+02 3.142043466413e+01 0.0 
3.142043466413e+01 -2.587600200229e+02 0.0 
0.0 0.0 -1.098616077654e+02 
-8.185850369109e+01 2.713768309054e+01 0.0 
2.713768309054e+01 -1.683512978062e+02 0.0 
0.0 0.0 -7.466294044920e+01 
-3.704441218638e+01 -1.438203805401e+01 0.0 
-1.438203805401e+01 -1.419773938605e+02 0.0 
0.0 0.0 -5.329266779665e+01 
-3.156554614348e+01 4.139214868803e+00 0.0 
4.139214868803e+00 -1.500818996638e+02 0.0 
0.0 0.0 -5.395002009415e+01 
-4.889727148036e+01 2.674602881175e+01 0.0 
2.674602881175e+01 -1.413819420180e+02 0.0 
0.0 0.0 -5.668376404952e+01 
-7.296622793956e+01 2.823338446667e+01 0.0 
2.823338446667e+01 -1.809432449051e+02 0.0 
0.0 0.0 -7.577284185340e+01 
-1.415311193293e+02 1.368246497049e+00 0.0 
1.368246497049e+00 -3.455604249237e+02 0.0 
0.0 0.0 -1.457274632759e+02 
-8.755149829623e+01 1.279339104923e+01 0.0 
1.279339104923e+01 -1.542656211928e+02 0.0 
0.0 0.0 -7.214513584671e+01 
-5.900924068665e+01 1.127479623211e+01 0.0 
1.127479623211e+01 -2.113828636235e+02 0.0 
0.0 0.0 -8.071763129303e+01 
-8.397038082340e+01 3.018148683084e+01 0.0 
3.018148683084e+01 -2.013387168280e+02 0.0 
0.0 0.0 -8.519272929541e+01 
-1.136092419084e+02 1.377595407239e+01 0.0 
1.377595407239e+01 -3.153939670208e+02 0.0 
0.0 0.0 -1.283009626788e+02 
-8.919557607556e+01 9.272873928966e+00 0.0 
9.272873928966e+00 -1.739360871698e+02 0.0 
0.0 0.0 -7.853949897360e+01 
-1.124048321732e+02 3.219856545437e+01 0.0 
3.219856545437e+01 -2.616765765507e+02 0.0 
0.0 0.0 -1.118244226172e+02 
-7.403637553583e+01 8.223396546341e+00 0.0 
8.223396546341e+00 -1.212265023690e+02 0.0 
0.0 0.0 -5.817886337146e+01 
-1.218285739763e+02 9.193975063625e+00 0.0 
9.193975063625e+00 -3.275090266503e+02 0.0 
0.0 0.0 -1.344012801880e+02 
-7.188277789716e+01 9.912652805190e+00 0.0 
9.912652805190e+00 -2.382809170986e+02 0.0 
0.0 0.0 -9.264910849873e+01 
-1.157198100457e+02 1.432426107273e+01 0.0 
1.432426107273e+01 -3.163671839973e+02 0.0 
0.0 0.0 -1.292260982129e+02 
-6.780674203407e+01 2.589226112817e+01 0.0 
2.589226112817e+01 -1.947683908699e+02 0.0 
0.0 0.0 -7.837253987119e+01 
-9.689532993188e+01 1.326158763803e+01 0.0 
1.326158763803e+01 -1.949968330485e+02 0.0 
0.0 0.0 -8.716764889412e+01 
-1.170829556453e+02 3.332491437504e+01 0.0 
3.332491437504e+01 -2.666377433013e+02 0.0 
0.0 0.0 -1.147162096840e+02 
-8.368013801235e+01 9.787149529509e+00 0.0 
9.787149529509e+00 -2.640330366451e+02 0.0 
0.0 0.0 -1.039139523972e+02 
-2.984548239589e+01 3.095413428453e+00 0.0 
3.095413428453e+00 -1.471547125861e+02 0.0 
0.0 0.0 -5.256484629439e+01 
-1.093836452430e+02 2.686718537841e+01 0.0 
2.686718537841e+01 -2.838960995764e+02 0.0 
0.0 0.0 -1.175839234458e+02 
-7.442069743422e+01 2.636240025143e+01 0.0 
2.636240025143e+01 -2.121433208399e+02 0.0 
0.0 0.0 -8.556920548223e+01 
-5.481263680928e+01 1.427841809040e+01 0.0 
1.427841809040e+01 -1.994919597551e+02 0.0 
0.0 0.0 -7.589137896931e+01 
-8.969336909702e+01 1.265615730560e+01 0.0 
1.265615730560e+01 -2.715380368123e+02 0.0 
0.0 0.0 -1.079694217728e+02 
-1.197659485495e+02 7.709378601756e+00 0.0 
7.709378601756e+00 -3.195732979435e+02 0.0 
0.0 0.0 -1.314017739479e+02 
-3.135915381771e+01 -2.878348267955e+00 0.0 
-2.878348267955e+00 -1.463676522787e+02 0.0 
0.0 0.0 -5.260067978199e+01 
-7.478439911552e+01 8.544197489877e+00 0.0 
8.544197489877e+00 -2.474413261326e+02 0.0 
0.0 0.0 -9.626771757444e+01 
-8.518403508274e+01 2.305232860454e+01 0.0 
2.305232860454e+01 -1.572101581343e+02 0.0 
0.0 0.0 -7.231825796511e+01 
-1.427474280210e+02 2.854205462921e+00 0.0 
2.854205462921e+00 -3.463745372007e+02 0.0 
0.0 0.0 -1.463365895665e+02 
-8.892716881243e+01 2.514820424652e+01 0.0 
2.514820424652e+01 -1.742786822110e+02 0.0 
0.0 0.0 -7.856175530702e+01 
-1.046043871299e+02 2.758202959028e+01 0.0 
2.758202959028e+01 -2.688571605511e+02 0.0 
0.0 0.0 -1.116384643043e+02 
-8.110475790926e+01 2.045301481796e+01 0.0 
2.045301481796e+01 -1.403757630985e+02 0.0 
0.0 0.0 -6.604415630234e+01 
-7.111996345258e+01 1.377491496985e+01 0.0 
1.377491496985e+01 -1.083848852433e+02 0.0 
0.0 0.0 -5.345145460876e+01 
-8.527419353282e+01 2.797849044452e+01 0.0 
2.797849044452e+01 -1.860404271020e+02 0.0 
0.0 0.0 -8.099438619044e+01 
-1.175291843836e+02 2.000744784104e+01 0.0 
2.000744784104e+01 -3.168480981868e+02 0.0 
0.0 0.0 -1.299131847711e+02 
-1.279086308495e+02 3.212755259513e+00 0.0 
3.212755259513e+00 -3.231594720567e+02 0.0 
0.0 0.0 -1.349204308719e+02 
-8.151107354253e+01 1.046485439932e+01 0.0 
1.046485439932e+01 -1.426834185113e+02 0.0 
0.0 0.0 -6.685834761616e+01 
-9.964144061646e+01 1.646795511344e+01 0.0 
1.646795511344e+01 -2.071776803288e+02 0.0 
0.0 0.0 -9.164573628356e+01 
-7.660470010209e+01 1.733905280324e+01 0.0 
1.733905280324e+01 -1.240937205761e+02 0.0 
0.0 0.0 -5.980952620345e+01 
-4.488435764374e+01 1.003502941521e+01 0.0 
1.003502941521e+01 -1.806508576039e+02 0.0 
0.0 0.0 -6.726056457429e+01 
-1.148015709834e+02 2.982602503333e+01 0.0 
2.982602503333e+01 -2.878955763972e+02 0.0 
0.0 0.0 -1.204091442142e+02 
-9.515749378829e+01 1.077582168157e+01 0.0 
1.077582168157e+01 -1.949231912940e+02 0.0 
0.0 0.0 -8.662420552469e+01 
-6.678347156803e+01 2.274308131009e+01 0.0 
2.274308131009e+01 -2.080816838297e+02 0.0 
0.0 0.0 -8.205954661933e+01 
-7.097480333514e+01 2.438027729897e+01 0.0 
2.438027729897e+01 -2.103019996070e+02 0.0 
0.0 0.0 -8.398304088263e+01 
-5.167179192666e+01 1.054389809134e+01 0.0 
1.054389809134e+01 -1.957912222571e+02 0.0 
0.0 0.0 -7.383890425514e+01 
-8.618039691843e+01 1.306867265777e+01 0.0 
1.306867265777e+01 -1.550638318270e+02 0.0 
0.0 0.0 -7.197326862362e+01 
-5.248091482735e+01 2.836795982718e+01 0.0 
2.836795982718e+01 -1.245794560960e+02 0.0 
0.0 0.0 -5.271811127701e+01 
-8.251187192899e+01 2.275519594994e+01 0.0 
2.275519594994e+01 -2.420236758358e+02 0.0 
0.0 0.0 -9.696066432944e+01 
-5.218495914007e+01 2.974454991270e+01 0.0 
2.974454991270e+01 -1.247216919048e+02 0.0 
0.0 0.0 -5.267199531346e+01 
-1.068440655712e+02 1.892615515285e+01 0.0 
1.892615515285e+01 -2.994341021346e+02 0.0 
0.0 0.0 -1.214834503117e+02 
-1.247651213709e+02 3.084425219277e+01 0.0 
3.084425219277e+01 -3.057984860242e+02 0.0 
0.0 0.0 -1.287690822185e+02 
-5.611193619604e+01 7.413944643854e+00 0.0 
7.413944643854e+00 -2.064950618154e+02 0.0 
0.0 0.0 -7.838209940342e+01 
-2.737218642354e+01 -6.635628969584e+00 0.0 
-6.635628969584e+00 -1.261658736157e+02 0.0 
0.0 0.0 -4.725526048671e+01 
-1.019183275542e+02 1.982597339368e+01 0.0 
1.982597339368e+01 -2.118799203483e+02 0.0 
0.0 0.0 -9.373947437075e+01 
-5.596435370064e+01 2.837592330260e+01 0.0 
2.837592330260e+01 -1.249794595518e+02 0.0 
0.0 0.0 -5.388314397574e+01 
-7.322960398544e+01 5.638911972595e-01 0.0 
5.638911972595e-01 -2.390572810161e+02 0.0 
0.0 0.0 -9.328606550045e+01 
-1.191540427127e+02 2.794278263882e+01 0.0 
2.794278263882e+01 -3.023487090456e+02 0.0 
0.0 0.0 -1.260508255275e+02 
-8.544480071229e+01 1.343097985480e+01 0.0 
1.343097985480e+01 -1.448623735710e+02 0.0 
0.0 0.0 -6.869215228497e+01 
-1.226554290603e+02 3.288422555993e+00 0.0 
3.288422555993e+00 -3.154646639361e+02 0.0 
0.0 0.0 -1.310360278989e+02 
-5.490406557126e+01 2.030271691038e+01 0.0 
2.030271691038e+01 -1.887812096780e+02 0.0 
0.0 0.0 -7.270558257477e+01 
-2.624897428352e+01 -3.643335175998e+00 0.0 
-3.643335175998e+00 -1.243001409610e+02 0.0 
0.0 0.0 -4.728325239968e+01 
-1.475280778586e+02 2.684231814080e+00 0.0 
2.684231814080e+00 -3.553843495957e+02 0.0 
0.0 0.0 -1.504737282363e+02 
-7.619580863447e+01 2.764966308205e+01 0.0 
2.764966308205e+01 -1.979280223448e+02 0.0 
0.0 0.0 -8.183714929380e+01 
-9.704939519520e+01 2.230029027648e+01 0.0 
2.230029027648e+01 -2.740376302238e+02 0.0 
0.0 0.0 -1.109261076257e+02 
-1.128525849270e+02 3.004589959391e+01 0.0 
3.004589959391e+01 -2.749056501764e+02 0.0 
0.0 0.0 -1.159274705310e+02 
-4.129702806882e+01 -9.035372733599e-01 0.0 
-9.035372733599e-01 -1.239270928852e+02 0.0 
0.0 0.0 -5.142071051091e+01 
-1.200950881679e+02 2.075595732880e+00 0.0 
2.075595732880e+00 -3.141111952142e+02 0.0 
0.0 0.0 -1.298618850146e+02 
-3.782065699611e+01 2.215897311421e+01 0.0 
2.215897311421e+01 -1.386648674577e+02 0.0 
0.0 0.0 -5.254565733614e+01 
-7.844021271984e+01 1.135201783223e+01 0.0 
1.135201783223e+01 -1.236080532391e+02 0.0 
0.0 0.0 -6.021447978767e+01 
-9.727879298837e+01 -1.904858219398e+00 0.0 
-1.904858219398e+00 -2.551630457974e+02 0.0 
0.0 0.0 -1.053325516357e+02 
-5.461406430877e+01 9.123047214883e+00 0.0 
9.123047214883e+00 -2.062674201045e+02 0.0 
0.0 0.0 -7.786444532397e+01 
-1.378991421952e+02 2.981252689716e+00 0.0 
2.981252689716e+00 -3.384471126781e+02 0.0 
0.0 0.0 -1.425038764620e+02 
-7.874598085660e+01 2.432939925884e+01 0.0 
2.432939925884e+01 -2.276185021790e+02 0.0 
0.0 0.0 -9.150934491068e+01 
-4.777700250547e+01 8.628262486978e+00 0.0 
8.628262486978e+00 -1.913526057406e+02 0.0 
0.0 0.0 -7.133888247381e+01 
-7.963047404297e+01 2.964969249971e+01 0.0 
2.964969249971e+01 -1.995346485073e+02 0.0 
0.0 0.0 -8.334953676508e+01 
-3.227014212991e+01 -1.943934216888e+01 0.0 
-1.943934216888e+01 -1.211950259734e+02 0.0 
0.0 0.0 -4.714789706416e+01 
-9.609408537943e+01 3.005023065016e+01 0.0 
3.005023065016e+01 -2.373215458702e+02 0.0 
0.0 0.0 -9.962468937490e+01 
-1.081895471379e+02 1.953684791620e+01 0.0 
1.953684791620e+01 -3.001354877192e+02 0.0 
0.0 0.0 -1.220975104571e+02 
-1.183563709175e+02 3.247305273772e+01 0.0 
3.247305273772e+01 -2.671263579498e+02 0.0 
0.0 0.0 -1.152448186602e+02 
-1.048430430431e+02 3.062364287199e+01 0.0 
3.062364287199e+01 -2.563903813240e+02 0.0 
0.0 0.0 -1.079700273101e+02 
-3.649972106022e+01 4.592773243885e+00 0.0 
4.592773243885e+00 -1.630046105891e+02 0.0 
0.0 0.0 -5.945129949478e+01 
-1.235668254118e+02 2.033691594661e+00 0.0 
2.033691594661e+00 -3.121410950623e+02 0.0 
0.0 0.0 -1.303123761422e+02 
-9.559513606142e+01 1.054733653808e+01 0.0 
1.054733653808e+01 -2.034948753701e+02 0.0 
0.0 0.0 -8.932700342946e+01 
-1.407584104175e+02 2.736861759595e+01 0.0 
2.736861759595e+01 -3.449102983873e+02 0.0 
0.0 0.0 -1.453006126414e+02 
-1.129773334962e+02 2.209464003316e+01 0.0 
2.209464003316e+01 -3.052778208106e+02 0.0 
0.0 0.0 -1.250765462920e+02 
-5.831240821428e+01 1.751237414519e+01 0.0 
1.751237414519e+01 -2.026091333648e+02 0.0 
0.0 0.0 -7.787646247372e+01 
-8.766825825873e+01 2.975317082149e+01 0.0 
2.975317082149e+01 -2.183266013048e+02 0.0 
0.0 0.0 -9.139845786906e+01 
-1.411833867105e+02 5.000054159265e-01 0.0 
5.000054159265e-01 -3.421801873842e+02 0.0 
0.0 0.0 -1.446090722284e+02 
-9.345003326900e+01 -2.465625957937e-01 0.0 
-2.465625957937e-01 -2.318166276781e+02 0.0 
0.0 0.0 -9.717999828413e+01 
-1.002517980439e+02 2.808202763762e+01 0.0 
2.808202763762e+01 -2.532638360325e+02 0.0 
0.0 0.0 -1.056546902229e+02 
-7.657039994459e+01 7.944707518266e+00 0.0 
7.944707518266e+00 -1.308770496402e+02 0.0 
0.0 0.0 -6.183423487544e+01 
-1.329812910104e+02 3.117458552855e+00 0.0 
3.117458552855e+00 -3.307744130025e+02 0.0 
0.0 0.0 -1.387267112039e+02 
-1.269510212051e+02 4.855760789317e+00 0.0 
4.855760789317e+00 -3.260472470474e+02 0.0 
0.0 0.0 -1.354994804758e+02 
-3.595517156374e+01 7.630144071689e-02 0.0 
7.630144071689e-02 -4.728146500398e+01 0.0 
0.0 0.0 -2.457099097032e+01 
-3.583513237828e+01 -1.278862926716e-01 0.0 
-1.278862926716e-01 -4.722478008584e+01 0.0 
0.0 0.0 -2.451797373924e+01 
-8.995253030059e+01 2.522809381092e+01 0.0 
2.522809381092e+01 -1.637442058970e+02 0.0 
0.0 0.0 -7.570902085928e+01 
-9.194242660141e+01 2.771811300870e+01 0.0 
2.771811300870e+01 -2.346962053384e+02 0.0 
0.0 0.0 -9.759158958194e+01 
-1.019074022940e+02 -1.280220499312e+00 0.0 
-1.280220499312e+00 -2.626232496973e+02 0.0 
0.0 0.0 -1.089591955974e+02 
-8.900426359252e+01 2.997964215551e+01 0.0 
2.997964215551e+01 -1.889123856480e+02 0.0 
0.0 0.0 -8.297499477215e+01 
-7.438702329348e+01 2.264391217871e+01 0.0 
2.264391217871e+01 -2.249648903000e+02 0.0 
0.0 0.0 -8.940557407804e+01 
-1.310742145294e+02 1.405408362450e+01 0.0 
1.405408362450e+01 -3.418298759282e+02 0.0 
0.0 0.0 -1.414712271373e+02 
-5.873670270605e+01 1.844545655138e+01 0.0 
1.844545655138e+01 -2.029887627693e+02 0.0 
0.0 0.0 -7.811763964260e+01 
-1.093868660550e+02 1.900457300327e+01 0.0 
1.900457300327e+01 -2.452185403836e+02 0.0 
0.0 0.0 -1.059816219316e+02 
-6.368126530744e+01 1.188940791234e+01 0.0 
1.188940791234e+01 -8.680790615871e+01 0.0 
0.0 0.0 -4.474675143985e+01 
-7.018941158760e+01 2.468804712955e+01 0.0 
2.468804712955e+01 -2.100364397644e+02 0.0 
0.0 0.0 -8.366775540559e+01 
-9.426556010516e+01 -3.388940772661e+00 0.0 
-3.388940772661e+00 -2.535448427039e+02 0.0 
0.0 0.0 -1.039431208427e+02 
-3.314517083355e+01 1.012925875327e+01 0.0 
1.012925875327e+01 -1.519862137537e+02 0.0 
0.0 0.0 -5.513941537619e+01 
-8.468516762752e+01 -4.174166479668e+00 0.0 
-4.174166479668e+00 -2.285710847636e+02 0.0 
0.0 0.0 -9.357687571735e+01 
-8.389468615486e+01 2.760171636070e+01 0.0 
2.760171636070e+01 -2.162461745434e+02 0.0 
0.0 0.0 -8.964225820949e+01 
-7.710680864983e+01 2.843959434486e+01 0.0 
2.843959434486e+01 -1.823600672625e+02 0.0 
0.0 0.0 -7.744006277369e+01 
-7.928276690295e+01 1.099451294595e+01 0.0 
1.099451294595e+01 -1.335398374533e+02 0.0 
0.0 0.0 -6.344678130687e+01 
-9.257884515689e+01 2.826051110709e+01 0.0 
2.826051110709e+01 -2.057669761353e+02 0.0 
0.0 0.0 -8.910374638765e+01 
-9.653846266253e+01 3.031832045778e+01 0.0 
3.031832045778e+01 -2.090732799448e+02 0.0 
0.0 0.0 -9.128352278220e+01 
-2.002461303746e+01 -3.274442771636e-01 0.0 
-3.274442771636e-01 -5.934723598681e+01 0.0 
0.0 0.0 -2.341155470728e+01 
-7.838101978596e+01 -6.307776649622e+00 0.0 
-6.307776649622e+00 -2.146077315140e+02 0.0 
0.0 0.0 -8.749662538998e+01 
-5.541363652932e+01 3.015085591960e+01 0.0 
3.015085591960e+01 -1.250410703464e+02 0.0 
0.0 0.0 -5.373641206272e+01 
-8.552642765452e+01 2.620645907906e+01 0.0 
2.620645907906e+01 -1.709266217391e+02 0.0 
0.0 0.0 -7.653591481810e+01 
-8.965184071422e+01 2.827054587006e+01 0.0 
2.827054587006e+01 -1.754734583910e+02 0.0 
0.0 0.0 -7.913758973155e+01 
-1.234492079300e+02 1.873807343760e+01 0.0 
1.873807343760e+01 -3.279333011442e+02 0.0 
0.0 0.0 -1.350147527223e+02 
-3.420859909791e+01 -1.185920952836e+00 0.0 
-1.185920952836e+00 -8.968859453489e+01 0.0 
0.0 0.0 -3.676915808984e+01 
-3.223618479341e+01 -1.041923471803e+01 0.0 
-1.041923471803e+01 -1.395501010265e+02 0.0 
0.0 0.0 -5.155253904569e+01 
-7.196812912557e+01 2.690410368347e+01 0.0 
2.690410368347e+01 -1.963474260685e+02 0.0 
0.0 0.0 -8.009466655823e+01 
-8.147845300781e+01 -4.664442294339e+00 0.0 
-4.664442294339e+00 -2.162756201628e+02 0.0 
0.0 0.0 -8.892622195118e+01 
-4.723975244101e+01 1.377787996310e+01 0.0 
1.377787996310e+01 -3.754544505556e+01 0.0 
0.0 0.0 -2.503555924897e+01 
-4.969281759861e+01 1.133587893339e+01 0.0 
1.133587893339e+01 -4.621817878848e+01 0.0 
0.0 0.0 -2.837329891613e+01 
-8.318273962282e+01 1.422983899871e+01 0.0 
1.422983899871e+01 -1.357431159329e+02 0.0 
0.0 0.0 -6.527775666671e+01 
-3.075239616781e+01 2.270941255461e+01 0.0 
2.270941255461e+01 -1.072228270273e+02 0.0 
0.0 0.0 -4.088961244167e+01 
-9.097559408796e+01 -4.116373772042e+00 0.0 
-4.116373772042e+00 -2.418005623169e+02 0.0 
0.0 0.0 -9.943284692147e+01 
-1.114389197684e+02 1.168749483235e+01 0.0 
1.168749483235e+01 -3.091077828077e+02 0.0 
0.0 0.0 -1.257640107728e+02 
-2.851305540682e+01 -4.106645242707e+00 0.0 
-4.106645242707e+00 -1.396721282489e+02 0.0 
0.0 0.0 -5.116045238521e+01 
-1.324095882987e+02 3.251763251795e+01 0.0 
3.251763251795e+01 -3.145765689496e+02 0.0 
0.0 0.0 -1.336958471745e+02 
-9.516825054423e+01 1.381588060233e+01 0.0 
1.381588060233e+01 -1.846948452155e+02 0.0 
0.0 0.0 -8.355892872791e+01 
-8.998776623238e+01 -2.771053577264e+00 0.0 
-2.771053577264e+00 -2.312645108002e+02 0.0 
0.0 0.0 -9.597568310977e+01 
-1.265914583290e+02 6.716409879838e-01 0.0 
6.716409879838e-01 -3.186606703598e+02 0.0 
0.0 0.0 -1.331756386066e+02 
-1.379572485531e+01 -1.012983850515e+00 0.0 
-1.012983850515e+00 -4.250415534668e+01 0.0 
0.0 0.0 -1.648996406060e+01 
-1.073499154674e+02 9.023269524239e+00 0.0 
9.023269524239e+00 -3.011469082806e+02 0.0 
0.0 0.0 -1.221490471244e+02 
-7.526796493974e+01 2.884104921448e+01 0.0 
2.884104921448e+01 -1.977837815762e+02 0.0 
0.0 0.0 -8.151552395477e+01 
-1.342536338510e+01 -8.279199759878e-01 0.0 
-8.279199759878e-01 -4.240332190332e+01 0.0 
0.0 0.0 -1.634860558653e+01 
-9.165253808379e+01 1.158502464841e+01 0.0 
1.158502464841e+01 -1.829098036344e+02 0.0 
0.0 0.0 -8.196870251546e+01 
-2.861122394604e+01 -4.263448581399e+00 0.0 
-4.263448581399e+00 -1.350789945833e+02 0.0 
0.0 0.0 -4.990093976023e+01 
-8.560706594267e+01 2.910565966564e+01 0.0 
2.910565966564e+01 -1.715951450172e+02 0.0 
0.0 0.0 -7.676066328797e+01 
-7.624323593557e+01 3.016119145543e+01 0.0 
3.016119145543e+01 -1.823251005386e+02 0.0 
0.0 0.0 -7.717050094226e+01 
-7.170539912838e+01 1.298551796130e+00 0.0 
1.298551796130e+00 -2.329866268177e+02 0.0 
0.0 0.0 -9.100760778382e+01 
-9.304088338019e+01 1.082160766700e+00 0.0 
1.082160766700e+00 -2.719923775595e+02 0.0 
0.0 0.0 -1.091099782819e+02 
-9.552161350145e+01 1.391015135954e+01 0.0 
1.391015135954e+01 -1.944601405780e+02 0.0 
0.0 0.0 -8.659452622385e+01 
-1.024891414360e+02 2.901318644733e+00 0.0 
2.901318644733e+00 -2.902030708163e+02 0.0 
0.0 0.0 -1.174076636757e+02 
-7.525028548493e+01 2.571375530202e+01 0.0 
2.571375530202e+01 -2.123542449672e+02 0.0 
0.0 0.0 -8.588135913563e+01 
-7.097485307474e+01 2.776247055456e+01 0.0 
2.776247055456e+01 -1.961072351805e+02 0.0 
0.0 0.0 -7.972462647658e+01 
-4.171235787904e+01 3.010572056888e+01 0.0 
3.010572056888e+01 -2.916151227216e+01 0.0 
0.0 0.0 -2.073064063396e+01 
-2.644257469353e+01 -4.302357136041e+00 0.0 
-4.302357136041e+00 -1.301454336173e+02 0.0 
0.0 0.0 -4.830607609625e+01 
-1.094947496781e+02 3.026532118805e+01 0.0 
3.026532118805e+01 -2.723381244379e+02 0.0 
0.0 0.0 -1.141498622348e+02 
-7.790756658273e+01 1.673966904309e+01 0.0 
1.673966904309e+01 -1.186155668064e+02 0.0 
0.0 0.0 -5.855694001674e+01 
-1.134592601768e+02 2.858121203199e+01 0.0 
2.858121203199e+01 -2.870054707310e+02 0.0 
0.0 0.0 -1.197394192723e+02 
-4.047674724370e+01 2.365121499981e+01 0.0 
2.365121499981e+01 -1.401143869685e+02 0.0 
0.0 0.0 -5.377734026366e+01 
-9.686966074448e+01 2.201918186584e+01 0.0 
2.201918186584e+01 -1.902034699215e+02 0.0 
0.0 0.0 -8.572193919980e+01 
-1.137794911354e+02 3.158849573399e+01 0.0 
3.158849573399e+01 -2.754625129777e+02 0.0 
0.0 0.0 -1.163726012339e+02 
-5.140468016742e+01 1.063580776470e+01 0.0 
1.063580776470e+01 -5.646223361612e+01 0.0 
0.0 0.0 -3.196007413506e+01 
-1.088500672715e+02 2.872172075008e+01 0.0 
2.872172075008e+01 -2.716803018844e+02 0.0 
0.0 0.0 -1.137591107468e+02 
-1.284826039228e+02 2.099176870167e+00 0.0 
2.099176870167e+00 -3.197849227310e+02 0.0 
0.0 0.0 -1.340802579962e+02 
-8.752583522666e+01 2.679777278675e+01 0.0 
2.679777278675e+01 -2.323190786695e+02 0.0 
0.0 0.0 -9.555347416884e+01 
-8.611359503017e+01 -4.860006126891e+00 0.0 
-4.860006126891e+00 -2.341901994817e+02 0.0 
0.0 0.0 -9.569113835356e+01 
-9.255581203462e+01 -2.579451567898e+00 0.0 
-2.579451567898e+00 -2.477975732075e+02 0.0 
0.0 0.0 -1.017060155726e+02 
-1.060653533132e+02 2.275713000875e+01 0.0 
2.275713000875e+01 -2.148625736057e+02 0.0 
0.0 0.0 -9.587837807568e+01 
-8.421064051608e+01 -8.407159567937e-01 0.0 
-8.407159567937e-01 -2.539546042154e+02 0.0 
0.0 0.0 -1.010495734195e+02 
-8.045035652943e+01 2.816348635056e+01 0.0 
2.816348635056e+01 -1.995923361532e+02 0.0 
0.0 0.0 -8.361280780480e+01 
-7.391932865976e+01 1.863030280811e+01 0.0 
1.863030280811e+01 -2.355566998751e+02 0.0 
0.0 0.0 -9.244280856045e+01 
-1.126228585231e+02 4.620262434891e+00 0.0 
4.620262434891e+00 -3.085303624976e+02 0.0 
0.0 0.0 -1.259459663062e+02 
-6.604111597810e+01 2.266274655663e+01 0.0 
2.266274655663e+01 -2.077499834998e+02 0.0 
0.0 0.0 -8.173732984338e+01 
-3.867632300591e+01 3.565857768041e+00 0.0 
3.565857768041e+00 -1.716449394580e+02 0.0 
0.0 0.0 -6.269637873917e+01 
-7.982939938932e+01 6.747925663807e+00 0.0 
6.747925663807e+00 -2.565445044315e+02 0.0 
0.0 0.0 -1.005121711462e+02 
-4.163833363381e+01 8.411447768662e+00 0.0 
8.411447768662e+00 -1.771318382346e+02 0.0 
0.0 0.0 -6.523105156053e+01 
-8.900889250317e+01 2.747444278223e+01 0.0 
2.747444278223e+01 -1.884029270326e+02 0.0 
0.0 0.0 -8.282354586074e+01 
-4.251585631793e+01 5.336848595956e+00 0.0 
5.336848595956e+00 -1.768195436895e+02 0.0 
0.0 0.0 -6.540062000224e+01 
-8.486104350200e+01 3.034393090932e+01 0.0 
3.034393090932e+01 -1.863247033119e+02 0.0 
0.0 0.0 -8.095572404416e+01 
-1.189304190437e+02 2.083603840828e+01 0.0 
2.083603840828e+01 -3.176244237445e+02 0.0 
0.0 0.0 -1.305664528365e+02 
-1.125144607524e+02 1.755526716202e+01 0.0 
1.755526716202e+01 -3.110794441044e+02 0.0 
0.0 0.0 -1.266781714570e+02 
-6.269500179794e+01 2.078731959507e+01 0.0 
2.078731959507e+01 -2.056823902306e+02 0.0 
0.0 0.0 -8.011321760857e+01 
-7.687691302847e+01 1.165066135080e+01 0.0 
1.165066135080e+01 -1.248325953991e+02 0.0 
0.0 0.0 -6.011285252826e+01 
-1.317267848477e+02 6.494132856788e-01 0.0 
6.494132856788e-01 -3.265211405852e+02 0.0 
0.0 0.0 -1.370743776299e+02 
-1.332516509557e+02 2.110443673144e+00 0.0 
2.110443673144e+00 -3.275027791574e+02 0.0 
0.0 0.0 -1.378263290339e+02 
-3.408536625720e+01 2.560953550153e+01 0.0 
2.560953550153e+01 -9.061346797488e+01 0.0 
0.0 0.0 -3.649241825606e+01 
-8.865476066767e+01 2.843615045492e+01 0.0 
2.843615045492e+01 -2.033042443479e+02 0.0 
0.0 0.0 -8.718770150466e+01 
-1.469863418685e+02 9.437245884840e-01 0.0 
9.437245884840e-01 -3.545894878313e+02 0.0 
0.0 0.0 -1.500727489099e+02 
-4.057833902010e+01 2.615420036913e+01 0.0 
2.615420036913e+01 -6.670202692360e+01 0.0 
0.0 0.0 -3.178410978311e+01 
-9.804013732998e+01 -1.748443445820e+00 0.0 
-1.748443445820e+00 -2.507666465094e+02 0.0 
0.0 0.0 -1.042420351518e+02 
-4.454182077132e+01 2.980796096634e+01 0.0 
2.980796096634e+01 -2.963360899388e+01 0.0 
0.0 0.0 -2.110277213977e+01 
-1.366731033989e+02 5.876587236275e-01 0.0 
5.876587236275e-01 -3.344317232761e+02 0.0 
0.0 0.0 -1.409314480025e+02 
-3.631037652946e+01 8.597291090257e+00 0.0 
8.597291090257e+00 -1.638096206506e+02 0.0 
0.0 0.0 -5.963599915400e+01 
-9.590722358581e+01 -1.434536189558e+00 0.0 
-1.434536189558e+00 -2.376174743196e+02 0.0 
0.0 0.0 -9.965740937164e+01 
-9.592146504058e+01 2.166928675387e+01 0.0 
2.166928675387e+01 -2.734497152047e+02 0.0 
0.0 0.0 -1.104113540736e+02 
-8.092494128512e+01 1.519350725174e+01 0.0 
1.519350725174e+01 -1.272119310528e+02 0.0 
0.0 0.0 -6.204106170138e+01 
-7.492825285475e+01 1.277024372800e+01 0.0 
1.277024372800e+01 -1.166092629118e+02 0.0 
0.0 0.0 -5.706125472997e+01 
-7.956083517784e+01 2.678729586220e+01 0.0 
2.678729586220e+01 -2.142937060855e+02 0.0 
0.0 0.0 -8.775636237901e+01 
-4.285191910579e+01 2.005455783414e+01 0.0 
2.005455783414e+01 -2.488938478622e+01 0.0 
0.0 0.0 -1.992239116760e+01 
-4.516081440852e+01 1.607500368501e+01 0.0 
1.607500368501e+01 -3.058936419906e+01 0.0 
0.0 0.0 -2.232505358227e+01 
-1.377912883506e+02 2.023088407554e+00 0.0 
2.023088407554e+00 -3.352423521703e+02 0.0 
0.0 0.0 -1.415100921563e+02 
-1.000528588796e+02 4.033427694057e+00 0.0 
4.033427694057e+00 -2.834530158575e+02 0.0 
0.0 0.0 -1.146517624211e+02 
-7.975954172202e+01 3.334950274211e+00 0.0 
3.334950274211e+00 -2.495994813063e+02 0.0 
0.0 0.0 -9.840770690850e+01 
-1.044771922819e+02 8.495451974632e+00 0.0 
8.495451974632e+00 -2.998307457313e+02 0.0 
0.0 0.0 -1.208923814040e+02 
-7.121110533787e+01 5.282280083950e+00 0.0 
5.282280083950e+00 -2.399924687179e+02 0.0 
0.0 0.0 -9.296107221673e+01 
-3.868093287280e+01 9.834127256569e+00 0.0 
9.834127256569e+00 -1.660468049824e+02 0.0 
0.0 0.0 -6.101832135657e+01 
-3.552430603961e+01 1.130500826384e+01 0.0 
1.130500826384e+01 -1.895539266974e+01 0.0 
0.0 0.0 -1.594390961280e+01 
-6.991637314980e+01 1.451725949355e+01 0.0 
1.451725949355e+01 -9.696235966331e+01 0.0 
0.0 0.0 -4.966361984393e+01 
-3.610535512727e+01 -1.264948774259e-02 0.0 
-1.264948774259e-02 -4.747544949644e+01 0.0 
0.0 0.0 -2.467424138711e+01 
-1.140679036616e+02 1.821984545897e+01 0.0 
1.821984545897e+01 -3.118735989716e+02 0.0 
0.0 0.0 -1.273824507900e+02 
-6.207362412774e+01 2.028097238037e+01 0.0 
2.028097238037e+01 -2.053136887879e+02 0.0 
0.0 0.0 -7.981619387468e+01 
-1.337455493381e+02 2.380359419844e+01 0.0 
2.380359419844e+01 -3.394890936908e+02 0.0 
0.0 0.0 -1.415703929087e+02 
-1.365067709919e+02 -6.335972980223e-01 0.0 
-6.335972980223e-01 -3.293379640873e+02 0.0 
0.0 0.0 -1.393534205238e+02 
-7.717446576586e+01 8.001951489882e+00 0.0 
8.001951489882e+00 -2.483311213766e+02 0.0 
0.0 0.0 -9.725167614274e+01 
-1.528660684988e+02 3.378528143722e+00 0.0 
3.378528143722e+00 -3.658715796209e+02 0.0 
0.0 0.0 -1.552212944359e+02 
-4.712134844233e+01 1.654388013955e+00 0.0 
1.654388013955e+00 -1.859906226253e+02 0.0 
0.0 0.0 -6.953359132029e+01 
-1.270509481927e+02 2.476882878126e+01 0.0 
2.476882878126e+01 -3.264040066149e+02 0.0 
0.0 0.0 -1.356364864423e+02 
-7.877681561597e+01 2.775308544066e+01 0.0 
2.775308544066e+01 -2.141694298584e+02 0.0 
0.0 0.0 -8.748387364230e+01 
-9.140799694228e+01 2.579291338516e+01 0.0 
2.579291338516e+01 -2.477376964351e+02 0.0 
0.0 0.0 -1.013437080132e+02 
-1.286957763043e+02 1.238351925155e+01 0.0 
1.238351925155e+01 -3.365939482051e+02 0.0 
0.0 0.0 -1.391869173528e+02 
-6.626621099949e+01 -8.498845856555e+00 0.0 
-8.498845856555e+00 -1.830673840296e+02 0.0 
0.0 0.0 -7.440007850874e+01 
-8.460644430821e+01 2.845489167107e+01 0.0 
2.845489167107e+01 -2.013279415902e+02 0.0 
0.0 0.0 -8.538031576954e+01 
-7.423746963297e+01 4.627534267600e+00 0.0 
4.627534267600e+00 -2.411322834399e+02 0.0 
0.0 0.0 -9.421092592185e+01 
-8.052293478701e+01 3.039210542683e+01 0.0 
3.039210542683e+01 -1.840828566995e+02 0.0 
0.0 0.0 -7.898173744595e+01 
-4.094574318859e+01 2.411304521967e+01 0.0 
2.411304521967e+01 -1.387263125333e+02 0.0 
0.0 0.0 -5.350161671658e+01 
-9.545794784441e+01 2.475270840547e+01 0.0 
2.475270840547e+01 -2.624455963432e+02 0.0 
0.0 0.0 -1.069710632563e+02 
-6.802878189280e+01 1.922053685498e+00 0.0 
1.922053685498e+00 -2.315729145980e+02 0.0 
0.0 0.0 -8.948050894724e+01 
-9.926980881988e+01 -2.830571807584e+00 0.0 
-2.830571807584e+00 -2.611391224346e+02 0.0 
0.0 0.0 -1.077226793764e+02 
-8.124432665455e+01 2.832779252103e+01 0.0 
2.832779252103e+01 -1.839946433487e+02 0.0 
0.0 0.0 -7.917169100097e+01 
-4.542704436424e+01 3.632975002987e+01 0.0 
3.632975002987e+01 -5.629566451379e+01 0.0 
0.0 0.0 -3.024388308044e+01 
-8.244675889295e+01 1.900298065693e+01 0.0 
1.900298065693e+01 -2.524274464445e+02 0.0 
0.0 0.0 -1.000622616012e+02 
-4.134760153450e+01 3.002804332035e+01 0.0 
3.002804332035e+01 -4.934140043890e+01 0.0 
0.0 0.0 -2.528092620672e+01 
-2.565080761567e+01 -3.975964103022e+00 0.0 
-3.975964103022e+00 -6.406904276322e+01 0.0 
0.0 0.0 -2.651595511367e+01 
-9.568044503987e+01 -3.416193354672e+00 0.0 
-3.416193354672e+00 -2.493515405740e+02 0.0 
0.0 0.0 -1.031095956841e+02 
-1.045888813266e+02 3.135240558240e+01 0.0 
3.135240558240e+01 -2.427076483349e+02 0.0 
0.0 0.0 -1.037889588984e+02 
-7.943974958223e+01 1.587733987037e+01 0.0 
1.587733987037e+01 -1.305180100946e+02 0.0 
0.0 0.0 -6.258732790305e+01 
-3.669474208396e+01 2.401198846894e+01 0.0 
2.401198846894e+01 -2.587108341250e+01 0.0 
0.0 0.0 -1.836974764894e+01 
-1.042832538141e+02 1.916167371409e+01 0.0 
1.916167371409e+01 -2.446609255662e+02 0.0 
0.0 0.0 -1.042832538141e+02 
-4.320244232423e+01 3.205755943011e+01 0.0 
3.205755943011e+01 -2.911582373814e+01 0.0 
0.0 0.0 -2.201626005275e+01 
-3.802901287333e+01 2.339993878668e+01 0.0 
2.339993878668e+01 -2.376643527244e+01 0.0 
0.0 0.0 -1.813863444373e+01 
-8.171476521875e+01 2.414298273044e+00 0.0 
2.414298273044e+00 -2.561183222711e+02 0.0 
0.0 0.0 -1.009499262470e+02 
-9.414736960471e+01 -1.937011175992e+00 0.0 
-1.937011175992e+00 -2.389501426820e+02 0.0 
0.0 0.0 -9.952925368600e+01 
-5.281189684983e+01 2.561804537460e+01 0.0 
2.561804537460e+01 -6.957476738195e+01 0.0 
0.0 0.0 -3.631599926953e+01 
-5.110784716109e+01 -5.493917864072e+00 0.0 
-5.493917864072e+00 -1.893927801505e+02 0.0 
0.0 0.0 -7.175018819349e+01 
-9.105158264653e+01 1.980214231578e+00 0.0 
1.980214231578e+00 -2.656170319654e+02 0.0 
0.0 0.0 -1.066005843836e+02 
-8.323293779261e+01 2.889160906961e+01 0.0 
2.889160906961e+01 -2.162423195035e+02 0.0 
0.0 0.0 -8.944257718884e+01 
-9.157668764856e+01 1.963390778168e+01 0.0 
1.963390778168e+01 -2.696332780541e+02 0.0 
0.0 0.0 -1.079629897108e+02 
-1.053217015583e+02 2.837487969632e+01 0.0 
2.837487969632e+01 -2.321651896825e+02 0.0 
0.0 0.0 -1.008460673723e+02 
-3.555075449798e+01 2.738957471642e+01 0.0 
2.738957471642e+01 -1.156662718128e+02 0.0 
0.0 0.0 -4.556673131992e+01 
-8.759418745601e+01 -4.535741107763e+00 0.0 
-4.535741107763e+00 -2.298595894753e+02 0.0 
0.0 0.0 -9.483613307938e+01 
-9.655954845327e+01 -3.025239398804e+00 0.0 
-3.025239398804e+00 -2.456569751556e+02 0.0 
0.0 0.0 -1.022649570827e+02 
-5.306127516060e+01 -8.240461538009e+00 0.0 
-8.240461538009e+00 -1.349341630818e+02 0.0 
0.0 0.0 -5.599863147272e+01 
-5.431376612343e+01 8.888729210867e+00 0.0 
8.888729210867e+00 -6.419264024901e+01 0.0 
0.0 0.0 -3.515192191173e+01 
-8.219218751330e+01 1.978901431242e+01 0.0 
1.978901431242e+01 -1.324716602783e+02 0.0 
0.0 0.0 -6.399915433748e+01 
-1.237010941422e+02 8.320856683023e-01 0.0 
8.320856683023e-01 -3.006174063260e+02 0.0 
0.0 0.0 -1.268955501405e+02 
-1.249695863971e+01 -9.888490959930e-01 0.0 
-9.888490959930e-01 -4.255630319109e+01 0.0 
0.0 0.0 -1.611597854924e+01 
-5.108099614923e+01 -7.432348216713e+00 0.0 
-7.432348216713e+00 -1.181697737460e+02 0.0 
0.0 0.0 -5.215362227738e+01 
-3.918825019060e+01 -7.454178091043e+00 0.0 
-7.454178091043e+00 -9.288640809767e+01 0.0 
0.0 0.0 -3.922239748648e+01 
-9.826647367647e+01 -1.211265425951e+00 0.0 
-1.211265425951e+00 -2.468038386769e+02 0.0 
0.0 0.0 -1.031210937060e+02 
-5.381081664342e+01 3.220732223010e+00 0.0 
3.220732223010e+00 -2.007752350393e+02 0.0 
0.0 0.0 -7.597581550481e+01 
-5.111297733455e+01 -5.469910892076e+00 0.0 
-5.469910892076e+00 -1.855471288849e+02 0.0 
0.0 0.0 -7.059803186584e+01 
-4.098228769958e+01 4.818023958838e-02 0.0 
4.818023958838e-02 -1.718694915002e+02 0.0 
0.0 0.0 -6.345553375994e+01 
-1.003230792223e+02 -2.785635660693e+00 0.0 
-2.785635660693e+00 -2.571220907207e+02 0.0 
0.0 0.0 -1.068335509829e+02 
-8.797732656164e+01 2.161211415809e+01 0.0 
2.161211415809e+01 -1.619023890413e+02 0.0 
0.0 0.0 -7.456391468089e+01 
-1.009300544236e+02 -2.404835126757e+00 0.0 
-2.404835126757e+00 -2.537624618079e+02 0.0 
0.0 0.0 -1.060077548695e+02 
-5.138641612228e+01 5.216414099848e+00 0.0 
5.216414099848e+00 -2.002166480285e+02 0.0 
0.0 0.0 -7.508091924522e+01 
-8.838500237737e+01 3.051842467876e+01 0.0 
3.051842467876e+01 -2.035773831469e+02 0.0 
0.0 0.0 -8.718871565727e+01 
-5.476357636021e+01 2.338899911309e+00 0.0 
2.338899911309e+00 -7.884012679590e+01 0.0 
0.0 0.0 -3.968111094683e+01 
-1.060843124237e+02 2.243270041037e+01 0.0 
2.243270041037e+01 -2.914377329528e+02 0.0 
0.0 0.0 -1.188566136130e+02 
-1.023398025019e+02 -5.750726590388e-01 0.0 
-5.750726590388e-01 -2.547969724179e+02 0.0 
0.0 0.0 -1.067410324760e+02 
-1.023278413497e+02 -1.081675024482e+00 0.0 
-1.081675024482e+00 -2.583966481366e+02 0.0 
0.0 0.0 -1.078173468459e+02 
-3.527834936649e+01 2.388311102694e+01 0.0 
2.388311102694e+01 -2.583785450567e+01 0.0 
0.0 0.0 -1.793486116165e+01 
-5.889423214983e+01 8.396069725491e-01 0.0 
8.396069725491e-01 -2.090914737412e+02 0.0 
0.0 0.0 -7.999571176732e+01 
-1.052154229744e+02 -1.857403909319e+00 0.0 
-1.857403909319e+00 -2.618817633335e+02 0.0 
0.0 0.0 -1.097291558923e+02 
-6.396777672038e+01 -3.708451000517e-01 0.0 
-3.708451000517e-01 -1.188009781429e+02 0.0 
0.0 0.0 -5.443062645898e+01 
-5.710591708276e+01 -5.217590249311e-01 0.0 
-5.217590249311e-01 -1.004592066459e+02 0.0 
0.0 0.0 -4.686953711859e+01 
-3.559596165258e+01 2.395312394125e+01 0.0 
2.395312394125e+01 -2.587576022952e+01 0.0 
0.0 0.0 -1.804151656463e+01 
-1.049021036277e+02 -2.236723047567e+00 0.0 
-2.236723047567e+00 -2.650761319119e+02 0.0 
0.0 0.0 -1.105934706619e+02 
-5.534737610939e+01 -9.748132749748e+00 0.0 
-9.748132749748e+00 -1.800723160833e+02 0.0 
0.0 0.0 -7.022590765781e+01 
-3.992721624437e+01 2.975890682296e+01 0.0 
2.975890682296e+01 -6.885880427256e+01 0.0 
0.0 0.0 -3.040798251430e+01 
-1.289407108113e+02 2.578963670456e+01 0.0 
2.578963670456e+01 -3.275253970633e+02 0.0 
0.0 0.0 -1.365398323624e+02 
-3.935182522508e+01 -1.146785498240e+01 0.0 
-1.146785498240e+01 -8.589023067528e+01 0.0 
0.0 0.0 -3.712414515860e+01 
-5.459483393212e+01 -9.430457226708e+00 0.0 
-9.430457226708e+00 -1.828756817501e+02 0.0 
0.0 0.0 -7.084115470466e+01 
-7.834056340508e+01 2.090212052179e+01 0.0 
2.090212052179e+01 -2.390719316440e+02 0.0 
0.0 0.0 -9.482374851474e+01 
-3.318412069186e+01 1.998467245200e+01 0.0 
1.998467245200e+01 -2.266233735819e+01 0.0 
0.0 0.0 -1.635393741501e+01 
-1.064305633142e+02 -3.067728547417e-02 0.0 
-3.067728547417e-02 -2.630403946576e+02 0.0 
0.0 0.0 -1.104412873915e+02 
-4.801832378276e+01 5.908734560940e-01 0.0 
5.908734560940e-01 -1.207860574588e+02 0.0 
0.0 0.0 -5.024131437248e+01 
-6.086693094453e+01 1.179981243150e+01 0.0 
1.179981243150e+01 -7.232489428320e+01 0.0 
0.0 0.0 -3.955754756832e+01 
-1.065486529808e+02 -5.173539178714e-01 0.0 
-5.173539178714e-01 -2.662019790550e+02 0.0 
0.0 0.0 -1.114251896107e+02 
-7.720110134411e+01 3.360269787378e-01 0.0 
3.360269787378e-01 -2.406815463993e+02 0.0 
0.0 0.0 -9.496479432302e+01 
-9.370159775926e+01 -2.491055632457e+00 0.0 
-2.491055632457e+00 -2.433299803771e+02 0.0 
0.0 0.0 -1.007094734409e+02 
-3.969838338641e+01 2.916845022877e+01 0.0 
2.916845022877e+01 -8.148029680194e+01 0.0 
0.0 0.0 -3.754799411441e+01 
-8.422404150329e+01 1.581586266419e+00 0.0 
1.581586266419e+00 -1.777769820990e+02 0.0 
0.0 0.0 -7.820030708068e+01 
-6.254409159812e+01 -4.218699696267e+00 0.0 
-4.218699696267e+00 -2.073607568502e+02 0.0 
0.0 0.0 -8.057145453450e+01 
-1.245794560563e+02 1.531930344835e+01 0.0 
1.531930344835e+01 -3.328635688837e+02 0.0 
0.0 0.0 -1.368329074820e+02 
-9.136139266526e+01 2.687439192560e+01 0.0 
2.687439192560e+01 -2.480052551916e+02 0.0 
0.0 0.0 -1.014099943571e+02 
-1.093820658666e+02 -1.782088062900e+00 0.0 
-1.782088062900e+00 -2.731194852101e+02 0.0 
0.0 0.0 -1.143504653230e+02 
-1.107054425404e+02 -7.917340420175e-02 0.0 
-7.917340420175e-02 -2.740983947179e+02 0.0 
0.0 0.0 -1.150411511775e+02 
-4.861068825043e+01 9.403736768250e-01 0.0 
9.403736768250e-01 -1.928813017912e+02 0.0 
0.0 0.0 -7.204759701249e+01 
-3.553898695074e+01 -1.105582714794e+01 0.0 
-1.105582714794e+01 -5.949773659735e+01 0.0 
0.0 0.0 -2.697279541074e+01 
-3.820797996621e+01 3.450536968982e+01 0.0 
3.450536968982e+01 -8.483739132806e+01 0.0 
0.0 0.0 -3.831499089960e+01 
-1.138238686462e+02 -1.402740972119e+00 0.0 
-1.402740972119e+00 -2.812769766815e+02 0.0 
0.0 0.0 -1.181302535983e+02 
-1.262334636537e+02 1.177874707513e+01 0.0 
1.177874707513e+01 -3.355703840749e+02 0.0 
0.0 0.0 -1.381411543186e+02 
-5.860556246807e+01 -1.094529665059e+01 0.0 
-1.094529665059e+01 -1.722057054130e+02 0.0 
0.0 0.0 -6.884338036433e+01 
-9.225955948827e+01 2.856610846060e+01 0.0 
2.856610846060e+01 -2.203152083531e+02 0.0 
0.0 0.0 -9.337243035241e+01 
-3.849676745063e+01 2.589958147146e+01 0.0 
2.589958147146e+01 -6.547125428002e+01 0.0 
0.0 0.0 -3.079040651920e+01 
-9.262221902747e+01 3.056039194135e+01 0.0 
3.056039194135e+01 -2.062460198967e+02 0.0 
0.0 0.0 -8.926047167725e+01 
-1.518821537944e+02 8.588804721562e+00 0.0 
8.588804721562e+00 -3.734621277414e+02 0.0 
0.0 0.0 -1.572032844608e+02 
-1.178526779029e+02 -1.372763638887e+00 0.0 
-1.372763638887e+00 -1.026641030042e+02 0.0 
0.0 0.0 -6.643190528258e+01 
-9.884498625501e+01 1.893716631612e+00 0.0 
1.893716631612e+00 -2.319716345950e+02 0.0 
0.0 0.0 -9.884498625501e+01 
-1.671112236490e+02 6.164521489136e-01 0.0 
6.164521489136e-01 -3.912595218477e+02 0.0 
0.0 0.0 -1.671112236490e+02 
-4.447602177078e+01 7.613051704709e-01 0.0 
7.613051704709e-01 -6.862385833250e+01 0.0 
0.0 0.0 -3.352996403098e+01 
-6.607271477419e+01 -7.077791755837e+00 0.0 
-7.077791755837e+00 -2.025817232760e+02 0.0 
0.0 0.0 -8.019633141506e+01 
-8.708171575741e+01 2.792021749480e+01 0.0 
2.792021749480e+01 -2.323969649239e+02 0.0 
0.0 0.0 -9.544360420441e+01 
-4.905748190712e+01 6.304975676030e+00 0.0 
6.304975676030e+00 -1.913634598932e+02 0.0 
0.0 0.0 -7.172628254009e+01 
-2.085333960710e+01 -1.804339471508e+00 0.0 
-1.804339471508e+00 -5.524738371957e+01 0.0 
0.0 0.0 -2.243021699800e+01 
-4.775294885864e+01 3.168898504759e+01 0.0 
3.168898504759e+01 -3.125553910336e+01 0.0 
0.0 0.0 -2.295427113318e+01 
-9.188720040259e+01 5.997054415605e+00 0.0 
5.997054415605e+00 -1.959616259912e+02 0.0 
0.0 0.0 -8.595464791814e+01 
-8.632426050230e+01 2.277693171737e+01 0.0 
2.277693171737e+01 -1.479291780711e+02 0.0 
0.0 0.0 -6.987603157203e+01 
-5.325411147665e+01 1.007565329004e+01 0.0 
1.007565329004e+01 -5.674256904413e+01 0.0 
0.0 0.0 -3.259900415623e+01 
-1.414622415241e+02 3.572920368183e+01 0.0 
3.572920368183e+01 -3.368017991367e+02 0.0 
0.0 0.0 -1.430792121982e+02 
-3.914043786336e+01 6.231113040211e-01 0.0 
6.231113040211e-01 -1.007687976774e+02 0.0 
0.0 0.0 -4.157277066222e+01 
-1.437570694914e+02 3.425667707628e+01 0.0 
3.425667707628e+01 -3.442757246693e+02 0.0 
0.0 0.0 -1.460098382482e+02 
-8.393838391984e+01 1.896107675507e+01 0.0 
1.896107675507e+01 -1.459875749898e+02 0.0 
0.0 0.0 -6.857778767288e+01 
-6.873914777544e+01 -7.880082434293e+00 0.0 
-7.880082434293e+00 -1.962514416661e+02 0.0 
0.0 0.0 -7.909717683245e+01 
-8.313248925509e+01 2.567222063362e+01 0.0 
2.567222063362e+01 -2.299821555983e+02 0.0 
0.0 0.0 -9.353439345602e+01 
-5.941790069125e+01 -9.275634645545e+00 0.0 
-9.275634645545e+00 -1.882118745550e+02 0.0 
0.0 0.0 -7.388893257388e+01 
-3.830174212424e+01 2.860349438221e+01 0.0 
2.860349438221e+01 -6.687487366549e+01 0.0 
0.0 0.0 -3.041876066303e+01 
-5.795783982054e+01 -1.072955741441e+01 0.0 
-1.072955741441e+01 -1.752714554359e+02 0.0 
0.0 0.0 -6.956878857693e+01 
-9.182076520196e+01 2.389224677306e+01 0.0 
2.389224677306e+01 -1.784521920401e+02 0.0 
0.0 0.0 -8.068188717263e+01 
-1.417628693931e+02 1.417550191609e+00 0.0 
1.417550191609e+00 -3.402883366966e+02 0.0 
0.0 0.0 -1.442153618269e+02 
-5.599728408221e+01 -6.660075057429e+00 0.0 
-6.660075057429e+00 -1.947511815998e+02 0.0 
0.0 0.0 -7.482453970462e+01 
-9.620132302959e+01 2.874487183100e+01 0.0 
2.874487183100e+01 -2.227529677260e+02 0.0 
0.0 0.0 -9.528628722668e+01 
-7.541245532225e+01 -2.991011621068e+00 0.0 
-2.991011621068e+00 -1.126007065619e+02 0.0 
0.0 0.0 -5.690520408847e+01 
-5.305024916518e+01 -1.604265910946e+00 0.0 
-1.604265910946e+00 -1.994063914697e+02 0.0 
0.0 0.0 -7.533699219046e+01 
-9.619039700248e+01 2.278704107004e+01 0.0 
2.278704107004e+01 -1.772527507333e+02 0.0 
0.0 0.0 -8.163294432074e+01 
-6.017549535309e+01 -1.016177898282e+01 0.0 
-1.016177898282e+01 -1.677807253402e+02 0.0 
0.0 0.0 -6.798686620798e+01 
-5.674911796874e+01 -1.148256391382e+01 0.0 
-1.148256391382e+01 -1.583128617312e+02 0.0 
0.0 0.0 -6.411859390999e+01 
-8.260139629310e+01 2.648908034244e+01 0.0 
2.648908034244e+01 -2.299492897901e+02 0.0 
0.0 0.0 -9.336520582495e+01 
-3.491728019486e+01 -1.900221905102e+01 0.0 
-1.900221905102e+01 -1.074493510398e+02 0.0 
0.0 0.0 -4.180103396574e+01 
-3.455981297228e+01 2.362133541740e+01 0.0 
2.362133541740e+01 -2.465673394058e+01 0.0 
0.0 0.0 -1.736496407386e+01 
-3.622069963410e+01 2.530308414372e+01 0.0 
2.530308414372e+01 -2.614781683762e+01 0.0 
0.0 0.0 -1.831055494152e+01 
-5.427201972341e+01 -1.127672513353e+01 0.0 
-1.127672513353e+01 -1.479938578523e+02 0.0 
0.0 0.0 -6.027976327272e+01 
-8.536227188005e+01 2.459868175642e+00 0.0 
2.459868175642e+00 -2.576675120487e+02 0.0 
0.0 0.0 -1.025089351786e+02 
-7.013261895850e+01 2.072273609444e+01 0.0 
2.072273609444e+01 -2.221849651325e+02 0.0 
0.0 0.0 -8.729527522729e+01 
-9.642192275943e+01 3.078015225210e+01 0.0 
3.078015225210e+01 -2.231792203810e+02 0.0 
0.0 0.0 -9.548034294214e+01 
-1.100106251381e+02 2.820104259055e+01 0.0 
2.820104259055e+01 -2.434435608776e+02 0.0 
0.0 0.0 -1.056362558047e+02 
-3.076748658803e+01 2.094699678788e+01 0.0 
2.094699678788e+01 -2.306493397359e+01 0.0 
0.0 0.0 -1.574972616849e+01 
-7.137298428073e+01 1.534195360380e+00 0.0 
1.534195360380e+00 -1.387668533745e+02 0.0 
0.0 0.0 -6.264195129658e+01 
-1.183594348015e+02 3.134693538768e+01 0.0 
3.134693538768e+01 -2.788869443893e+02 0.0 
0.0 0.0 -1.187739137573e+02 
-4.471839764570e+01 4.300066311078e+00 0.0 
4.300066311078e+00 -1.855679512135e+02 0.0 
0.0 0.0 -6.868590465777e+01 
-4.056106061880e+01 2.968184503751e+01 0.0 
2.968184503751e+01 -4.937923609725e+01 0.0 
0.0 0.0 -2.500323119134e+01 
-4.234997936952e+01 2.832691327948e+01 0.0 
2.832691327948e+01 -6.800291545236e+01 0.0 
0.0 0.0 -3.270586844657e+01 
-8.270295103939e+01 -1.719218434560e-01 0.0 
-1.719218434560e-01 -2.481522161446e+02 0.0 
0.0 0.0 -9.885655015521e+01 
-9.593267879170e+01 2.793021378990e+01 0.0 
2.793021378990e+01 -2.083829611315e+02 0.0 
0.0 0.0 -9.089469197696e+01 
-7.861938186612e+01 -3.409168218463e-01 0.0 
-3.409168218463e-01 -2.463846271703e+02 0.0 
0.0 0.0 -9.710120271093e+01 
-3.282353321680e+01 2.563047122802e+01 0.0 
2.563047122802e+01 -9.437827985051e+01 0.0 
0.0 0.0 -3.779995510629e+01 
-9.417202808681e+01 4.498557865522e+00 0.0 
4.498557865522e+00 -2.749637652449e+02 0.0 
0.0 0.0 -1.103407379995e+02 
-3.790863731482e+01 2.809357227345e+01 0.0 
2.809357227345e+01 -6.635422821582e+01 0.0 
0.0 0.0 -3.087885965919e+01 
-6.987857105145e+01 2.049169376855e+01 0.0 
2.049169376855e+01 -2.220299124884e+02 0.0 
0.0 0.0 -8.717254506194e+01 
-8.723091525009e+01 1.544400470131e+00 0.0 
1.544400470131e+00 -2.639019617932e+02 0.0 
0.0 0.0 -1.049398631130e+02 
-8.691476366054e+01 2.447493186362e+01 0.0 
2.447493186362e+01 -2.448973159057e+02 0.0 
0.0 0.0 -9.914362386986e+01 
-6.366079873158e+01 1.963663402939e+00 0.0 
1.963663402939e+00 -1.140353612160e+02 0.0 
0.0 0.0 -5.290884798427e+01 
-5.703963779052e+01 -9.501069143036e+00 0.0 
-9.501069143036e+00 -1.495166925093e+02 0.0 
0.0 0.0 -6.156689908994e+01 
-4.029538708568e+01 3.109665311141e+01 0.0 
3.109665311141e+01 -7.105524827449e+01 0.0 
0.0 0.0 -3.197816807810e+01 
-9.649503871285e+01 3.388277130093e+00 0.0 
3.388277130093e+00 -2.818062316737e+02 0.0 
0.0 0.0 -1.130903811160e+02 
-3.744861528697e+01 2.725495593812e+01 0.0 
2.725495593812e+01 -6.532754613716e+01 0.0 
0.0 0.0 -3.043284842724e+01 
-4.854209317226e+01 9.806037053913e+00 0.0 
9.806037053913e+00 -1.201251011838e+02 0.0 
0.0 0.0 -5.200794663284e+01 
-8.969211710770e+01 8.261625600333e-02 0.0 
8.261625600333e-02 -1.967559047170e+02 0.0 
0.0 0.0 -8.553440654741e+01 
-8.418649511129e+01 -1.634020191044e-01 0.0 
-1.634020191044e-01 -1.778595798721e+02 0.0 
0.0 0.0 -7.821382249501e+01 
-1.812191440824e+01 -3.529888084810e+00 0.0 
-3.529888084810e+00 -2.482059650451e+01 0.0 
0.0 0.0 -1.279463077914e+01 
-1.035805298810e+02 6.455527425343e+00 0.0 
6.455527425343e+00 -2.925788184432e+02 0.0 
0.0 0.0 -1.184478044973e+02 
-4.635688472678e+01 -8.293592684882e+00 0.0 
-8.293592684882e+00 -1.141948349960e+02 0.0 
0.0 0.0 -4.776551591685e+01 
-4.841181858420e+01 -9.351461328163e+00 0.0 
-9.351461328163e+00 -1.206564494144e+02 0.0 
0.0 0.0 -5.032048039959e+01 
-1.038649681485e+02 2.933786681045e+01 0.0 
2.933786681045e+01 -2.422139635761e+02 0.0 
0.0 0.0 -1.034236795174e+02 
-8.683030994877e+01 2.509097210892e+01 0.0 
2.509097210892e+01 -2.449811409550e+02 0.0 
0.0 0.0 -9.914343527113e+01 
-1.001124615503e+02 2.900025096620e+01 0.0 
2.900025096620e+01 -2.394530218216e+02 0.0 
0.0 0.0 -1.014696450116e+02 
-5.730094785230e+01 -3.086766062347e+00 0.0 
-3.086766062347e+00 -2.008076202504e+02 0.0 
0.0 0.0 -7.703257043081e+01 
-3.652723322335e+01 -3.980093415537e-02 0.0 
-3.980093415537e-02 -4.728967301975e+01 0.0 
0.0 0.0 -2.474507187293e+01 
-1.567514418389e+02 7.252863557157e+00 0.0 
7.252863557157e+00 -3.754170863293e+02 0.0 
0.0 0.0 -1.592505584505e+02 
-4.203598964646e+01 -8.881489361055e+00 0.0 
-8.881489361055e+00 -1.000257707481e+02 0.0 
0.0 0.0 -4.221852811836e+01 
-1.202501286005e+02 1.697260084338e+01 0.0 
1.697260084338e+01 -3.226201076477e+02 0.0 
0.0 0.0 -1.324610708745e+02 
-7.397969962126e+01 2.280357004733e+01 0.0 
2.280357004733e+01 -2.248300199976e+02 0.0 
0.0 0.0 -8.924291588566e+01 
-2.939865841874e+01 -2.010050247877e+00 0.0 
-2.010050247877e+00 -7.662138134556e+01 0.0 
0.0 0.0 -3.140601192929e+01 
-9.239639554392e+01 2.668059775756e+01 0.0 
2.668059775756e+01 -1.912885719987e+02 0.0 
0.0 0.0 -8.470549026279e+01 
-5.559204782982e+01 2.371855337831e+00 0.0 
2.371855337831e+00 -2.080752225019e+02 0.0 
0.0 0.0 -7.870018109951e+01 
-3.202454003823e+01 -1.197120100120e+01 0.0 
-1.197120100120e+01 -4.649048895432e+01 0.0 
0.0 0.0 -2.240497311862e+01 
-4.640143933689e+01 -3.466173406591e+00 0.0 
-3.466173406591e+00 -1.839658263737e+02 0.0 
0.0 0.0 -6.871017971319e+01 
-1.196922973704e+02 -8.859774002693e-01 0.0 
-8.859774002693e-01 -2.919243726118e+02 0.0 
0.0 0.0 -1.230850009946e+02 
-9.346980722109e+01 2.727075275278e+01 0.0 
2.727075275278e+01 -1.802759828737e+02 0.0 
0.0 0.0 -8.172373702844e+01 
-3.594899783097e+01 -9.866112600374e+00 0.0 
-9.866112600374e+00 -7.951532737289e+01 0.0 
0.0 0.0 -3.421468327036e+01 
-9.696841418284e+01 -5.350694230450e-02 0.0 
-5.350694230450e-02 -2.384897379366e+02 0.0 
0.0 0.0 -1.002374456358e+02 
-9.989787029364e+01 2.878893761934e+01 0.0 
2.878893761934e+01 -2.255788353053e+02 0.0 
0.0 0.0 -9.724301167968e+01 
-1.119701970203e+02 2.550748402950e+01 0.0 
2.550748402950e+01 -2.962257127918e+02 0.0 
0.0 0.0 -1.220587729436e+02 
-5.622858921245e+01 -1.135708117155e+01 0.0 
-1.135708117155e+01 -1.616658466473e+02 0.0 
0.0 0.0 -6.496833075792e+01 
-4.811559904398e+01 -1.749290248195e+00 0.0 
-1.749290248195e+00 -1.209017245772e+02 0.0 
0.0 0.0 -5.030519708634e+01 
-7.813645462034e+01 2.083410984007e+01 0.0 
2.083410984007e+01 -2.389718072214e+02 0.0 
0.0 0.0 -9.473247855252e+01 
-6.015538579964e+01 8.842739643536e-01 0.0 
8.842739643536e-01 -1.081993681624e+02 0.0 
0.0 0.0 -5.010642618862e+01 
-3.373976920018e+01 -1.729408070728e+01 0.0 
-1.729408070728e+01 -5.034005990717e+01 0.0 
0.0 0.0 -2.444905406171e+01 
-1.276685720983e+02 3.513438145402e+01 0.0 
3.513438145402e+01 -3.013569579079e+02 0.0 
0.0 0.0 -1.283076590018e+02 
-1.098076348308e+02 2.724219810178e+01 0.0 
2.724219810178e+01 -2.476601863841e+02 0.0 
0.0 0.0 -1.068403463644e+02 
-4.942784606885e+01 8.948727057041e-01 0.0 
8.948727057041e-01 -8.051542061138e+01 0.0 
0.0 0.0 -3.858298000407e+01 
-1.027021700174e+02 1.510938884805e+01 0.0 
1.510938884805e+01 -2.172023921510e+02 0.0 
0.0 0.0 -9.557136865050e+01 
-1.152993287259e+02 3.023539679093e+01 0.0 
3.023539679093e+01 -2.635487590126e+02 0.0 
0.0 0.0 -1.132544263215e+02 
-5.789425590600e+01 -3.379374334230e+00 0.0 
-3.379374334230e+00 -2.056165855618e+02 0.0 
0.0 0.0 -7.865325244034e+01 
-6.115416222030e+01 -7.166948583345e+00 0.0 
-7.166948583345e+00 -1.967930852118e+02 0.0 
0.0 0.0 -7.698417422963e+01 
-1.438479610476e+02 2.147760992796e+01 0.0 
2.147760992796e+01 -3.599055918752e+02 0.0 
0.0 0.0 -1.507260658768e+02 
-7.049244557696e+01 4.284519070430e+00 0.0 
4.284519070430e+00 -1.093187077202e+02 0.0 
0.0 0.0 -5.449395817192e+01 
-4.329910700008e+01 -1.179875373116e+00 0.0 
-1.179875373116e+00 -1.099566986018e+02 0.0 
0.0 0.0 -4.557674168056e+01 
-9.800106650738e+01 -1.276240387534e+00 0.0 
-1.276240387534e+00 -2.427313391200e+02 0.0 
0.0 0.0 -1.018197216882e+02 
-6.007088715455e+01 -1.000667199410e+01 0.0 
-1.000667199410e+01 -1.636348341037e+02 0.0 
0.0 0.0 -6.671171637748e+01 
-4.963759108785e+01 -9.006800573723e+00 0.0 
-9.006800573723e+00 -1.777827847540e+02 0.0 
0.0 0.0 -6.782611275255e+01 
-3.568206834729e+01 2.457306355584e+01 0.0 
2.457306355584e+01 -2.448124593426e+01 0.0 
0.0 0.0 -1.764899428446e+01 
-3.786680448101e+01 2.648143591717e+01 0.0 
2.648143591717e+01 -2.722432841328e+01 0.0 
0.0 0.0 -1.912733986828e+01 
-5.583657751910e+01 3.264943575871e+00 0.0 
3.264943575871e+00 -8.191569619334e+01 0.0 
0.0 0.0 -4.092568211373e+01 
-5.211294478608e+01 -1.144874151495e+00 0.0 
-1.144874151495e+00 -1.938650264587e+02 0.0 
0.0 0.0 -7.339339137344e+01 
-5.151612804100e+01 -3.138666273921e+00 0.0 
-3.138666273921e+00 -1.290632921338e+02 0.0 
0.0 0.0 -5.377382605244e+01 
-1.046442919487e+02 2.539161018603e+01 0.0 
2.539161018603e+01 -2.801729538842e+02 0.0 
0.0 0.0 -1.150451737499e+02 
-1.648160438280e+02 4.956511206935e+00 0.0 
4.956511206935e+00 -3.911892262897e+02 0.0 
0.0 0.0 -1.664015810353e+02 
-1.634889405355e+02 6.438296773000e+00 0.0 
6.438296773000e+00 -3.899015588551e+02 0.0 
0.0 0.0 -1.656171498172e+02 
-6.106489138437e+01 -7.155916942196e+00 0.0 
-7.155916942196e+00 -2.004496677984e+02 0.0 
0.0 0.0 -7.805436775483e+01 
-5.031858358097e+01 2.071490028932e+00 0.0 
2.071490028932e+00 -6.534931113800e+01 0.0 
0.0 0.0 -3.430036841569e+01 
-7.372805904989e+01 -2.286321717716e-01 0.0 
-2.286321717716e-01 -1.092781475958e+02 0.0 
0.0 0.0 -5.588414595081e+01 
-4.030018376599e+01 2.732582961452e+01 0.0 
2.732582961452e+01 -2.707617872218e+01 0.0 
0.0 0.0 -1.900166455754e+01 
-4.034766066348e+01 -2.323890512688e+01 0.0 
-2.323890512688e+01 -1.133190291702e+02 0.0 
0.0 0.0 -4.488395741373e+01 
-3.850552593989e+01 2.630558369515e+01 0.0 
2.630558369515e+01 -2.668226784068e+01 0.0 
0.0 0.0 -1.908001732514e+01 
-8.249430826412e+01 2.308551567739e+01 0.0 
2.308551567739e+01 -2.420714174696e+02 0.0 
0.0 0.0 -9.696971772011e+01 
-5.342994158753e+01 -1.143832735168e+01 0.0 
-1.143832735168e+01 -1.699158935156e+02 0.0 
0.0 0.0 -6.660375053095e+01 
-5.619083323317e+01 -6.688961774790e+00 0.0 
-6.688961774790e+00 -1.912723895246e+02 0.0 
0.0 0.0 -7.383896682734e+01 
-4.000430022598e+01 -2.860022881812e+01 0.0 
-2.860022881812e+01 -9.929061201582e+01 0.0 
0.0 0.0 -4.191026905592e+01 
-8.398478994537e+01 1.277544403241e+00 0.0 
1.277544403241e+00 -1.806037140386e+02 0.0 
0.0 0.0 -7.897655119520e+01 
-5.992693753678e+01 -9.450810724320e+00 0.0 
-9.450810724320e+00 -1.851338638719e+02 0.0 
0.0 0.0 -7.311824042259e+01 
-9.010187964666e+01 4.281498709893e+00 0.0 
4.281498709893e+00 -1.948238614128e+02 0.0 
0.0 0.0 -8.507772231783e+01 
-8.091107911807e+01 2.511547029805e+00 0.0 
2.511547029805e+00 -1.652018800047e+02 0.0 
0.0 0.0 -7.343388773683e+01 
-1.018674673526e+02 2.113940174864e+00 0.0 
2.113940174864e+00 -2.326828085633e+02 0.0 
0.0 0.0 -9.996508277477e+01 
-1.660338560827e+02 5.881500901236e-01 0.0 
5.881500901236e-01 -3.910410265022e+02 0.0 
0.0 0.0 -1.667224647755e+02 
-4.947258229582e+01 -4.865268913236e-01 0.0 
-4.865268913236e-01 -8.099039075484e+01 0.0 
0.0 0.0 -3.873889191520e+01 
-6.438729936043e+01 -8.798967151365e+00 0.0 
-8.798967151365e+00 -1.904282408622e+02 0.0 
0.0 0.0 -7.604466206679e+01 
-3.218913531068e+01 2.254755147337e+01 0.0 
2.254755147337e+01 -2.379672171690e+01 0.0 
0.0 0.0 -1.639575710827e+01 
-6.425488993913e+01 -8.781255452470e+00 0.0 
-8.781255452470e+00 -1.941390233844e+02 0.0 
0.0 0.0 -7.711817399706e+01 
-1.677004785346e+02 3.717944086293e+00 0.0 
3.717944086293e+00 -3.926344499140e+02 0.0 
0.0 0.0 -1.677004785346e+02 
-4.289464303697e+01 2.875345641323e+01 0.0 
2.875345641323e+01 -2.831537907584e+01 0.0 
0.0 0.0 -1.962545213434e+01 
-4.122795431686e+01 2.762948763545e+01 0.0 
2.762948763545e+01 -2.746406371790e+01 0.0 
0.0 0.0 -1.855599561697e+01 
-1.244772954119e+02 1.952361323721e+01 0.0 
1.952361323721e+01 -3.284626780885e+02 0.0 
0.0 0.0 -1.354819920501e+02 
-4.680661261573e+01 1.195119931555e+00 0.0 
1.195119931555e+00 -6.550019948683e+01 0.0 
0.0 0.0 -3.329204363077e+01 
-9.005321004360e+01 2.456322240748e+00 0.0 
2.456322240748e+00 -1.966284268985e+02 0.0 
0.0 0.0 -8.560449108263e+01 
-1.004668608828e+02 3.096618906798e+01 0.0 
3.096618906798e+01 -2.260178563871e+02 0.0 
0.0 0.0 -9.754541518096e+01 
-1.206924739092e+02 2.547156244520e+01 0.0 
2.547156244520e+01 -3.129882667334e+02 0.0 
0.0 0.0 -1.297042221928e+02 
-1.045161145401e+02 2.998256435147e+01 0.0 
2.998256435147e+01 -2.186141212027e+02 0.0 
0.0 0.0 -9.653907072284e+01 
-5.161768770163e+01 -4.354705631538e-02 0.0 
-4.354705631538e-02 -8.438942324544e+01 0.0 
0.0 0.0 -4.040213328412e+01 
-5.426242908018e+01 -1.116780604590e+01 0.0 
-1.116780604590e+01 -1.438486701345e+02 0.0 
0.0 0.0 -5.903332976439e+01 
-5.090175508145e+01 -1.274783127783e+01 0.0 
-1.274783127783e+01 -1.421237696200e+02 0.0 
0.0 0.0 -5.750765741045e+01 
-6.748731392460e+01 -2.675874098751e-02 0.0 
-2.675874098751e-02 -1.279228603356e+02 0.0 
0.0 0.0 -5.822305227805e+01 
-1.164729336175e+02 2.753284239469e+01 0.0 
2.753284239469e+01 -2.994405423475e+02 0.0 
0.0 0.0 -1.243740427895e+02 
-4.670447577780e+01 3.954887385722e+00 0.0 
3.954887385722e+00 -5.027457421423e+01 0.0 
0.0 0.0 -2.869371499761e+01 
-4.302862871044e+01 6.145963076166e-02 0.0 
6.145963076166e-02 -6.400913244425e+01 0.0 
0.0 0.0 -3.171132834641e+01 
-4.979222697642e+01 6.010572002285e-01 0.0 
6.010572002285e-01 -7.997047526119e+01 0.0 
0.0 0.0 -3.852881067128e+01 
-5.266680675751e+01 1.750127751037e+00 0.0 
1.750127751037e+00 -8.573681568870e+01 0.0 
0.0 0.0 -4.112108673386e+01 
-2.737820719830e+01 -1.436201172635e+01 0.0 
-1.436201172635e+01 -1.153993903375e+02 0.0 
0.0 0.0 -4.407897369397e+01 
-4.887725333287e+01 -1.198584086718e+01 0.0 
-1.198584086718e+01 -1.278580374075e+02 0.0 
0.0 0.0 -5.262058722211e+01 
-9.884952174564e+01 7.410881473203e+00 0.0 
7.410881473203e+00 -2.179145984942e+02 0.0 
0.0 0.0 -9.462923607195e+01 
-6.077224350494e+01 2.236600909043e+00 0.0 
2.236600909043e+00 -1.051527962155e+02 0.0 
0.0 0.0 -4.937751191612e+01 
-1.457297716381e+02 2.526671582943e+01 0.0 
2.526671582943e+01 -3.558733295740e+02 0.0 
0.0 0.0 -1.500809303636e+02 
-1.146842959104e+02 3.138231951628e+01 0.0 
3.138231951628e+01 -2.474936763842e+02 0.0 
0.0 0.0 -1.082533916884e+02 
-9.301233564674e+01 2.949651419760e+01 0.0 
2.949651419760e+01 -1.922987485606e+02 0.0 
0.0 0.0 -8.519332526220e+01 
-9.980736389327e+01 1.519944390385e+01 0.0 
1.519944390385e+01 -2.048518462919e+02 0.0 
0.0 0.0 -9.099776305555e+01 
-7.223698888533e+01 -3.558430793028e+00 0.0 
-3.558430793028e+00 -1.812044960373e+02 0.0 
0.0 0.0 -7.563244547680e+01 
-6.577715493088e+01 -3.870481835325e+00 0.0 
-3.870481835325e+00 -1.655169027515e+02 0.0 
0.0 0.0 -6.898821730470e+01 
-1.464242237898e+02 6.061052126171e+00 0.0 
6.061052126171e+00 -3.605191829369e+02 0.0 
0.0 0.0 -1.516830220180e+02 
-4.072322169759e+01 -1.998363863652e+01 0.0 
-1.998363863652e+01 -9.893376944080e+01 0.0 
0.0 0.0 -4.329147511873e+01 
-4.613702951547e+01 -6.793494806414e-01 0.0 
-6.793494806414e-01 -1.162946862067e+02 0.0 
0.0 0.0 -4.832951471666e+01 
-1.461143803422e+02 3.329476180908e+01 0.0 
3.329476180908e+01 -3.422668874652e+02 0.0 
0.0 0.0 -1.461143803422e+02 
-1.965689093040e+01 7.294072611551e-01 0.0 
7.294072611551e-01 -5.780492122998e+01 0.0 
0.0 0.0 -2.283854364812e+01 
-4.290695131198e+01 6.530853109143e-02 0.0 
6.530853109143e-02 -6.399566839639e+01 0.0 
0.0 0.0 -3.167078591251e+01 
-1.367019880119e+02 1.699934649702e+01 0.0 
1.699934649702e+01 -3.514163934485e+02 0.0 
0.0 0.0 -1.460355144381e+02 
-1.891143766460e+01 -4.111177601972e+00 0.0 
-4.111177601972e+00 -4.018718924024e+01 0.0 
0.0 0.0 -1.732958807145e+01 
-6.000480473746e+00 -5.880894747025e-01 0.0 
-5.880894747025e-01 -2.376031334281e+01 0.0 
0.0 0.0 -8.047193388391e+00 
-1.061022697958e+02 1.291482300908e+01 0.0 
1.291482300908e+01 -2.385611766412e+02 0.0 
0.0 0.0 -1.029990339311e+02 
-3.805561653225e+01 -2.798699022034e-01 0.0 
-2.798699022034e-01 -4.730964224730e+01 0.0 
0.0 0.0 -2.520957763387e+01 
-9.865722602802e+01 9.549871577633e+00 0.0 
9.549871577633e+00 -2.150474794043e+02 0.0 
0.0 0.0 -9.371141162971e+01 
-1.390019106258e+02 1.862054386853e+01 0.0 
1.862054386853e+01 -3.496484154188e+02 0.0 
0.0 0.0 -1.461950978134e+02 
-3.766023209676e+01 3.489731674942e-01 0.0 
3.489731674942e-01 -4.704646324304e+01 0.0 
0.0 0.0 -2.501200860194e+01 
-7.063683562052e+01 6.871012050229e+00 0.0 
6.871012050229e+00 -1.077903219081e+02 0.0 
0.0 0.0 -5.458918489246e+01 
-9.430336710635e+01 2.297656597399e+00 0.0 
2.297656597399e+00 -2.143117760298e+02 0.0 
0.0 0.0 -9.218454294085e+01 
-2.417099851917e+01 -1.410190514065e+00 0.0 
-1.410190514065e+00 -6.362093225033e+01 0.0 
0.0 0.0 -2.593757923085e+01 
-9.292740900801e+01 8.131709090002e+00 0.0 
8.131709090002e+00 -2.018778189320e+02 0.0 
0.0 0.0 -8.804156838201e+01 
-1.674893769948e+02 2.603528682372e+00 0.0 
2.603528682372e+00 -3.921418796544e+02 0.0 
0.0 0.0 -1.674893769948e+02 
-1.095793809061e+02 2.716930568894e+01 0.0 
2.716930568894e+01 -2.330437597267e+02 0.0 
0.0 0.0 -1.023869421898e+02 
-2.884367772742e+01 -1.144005533902e+01 0.0 
-1.144005533902e+01 -1.276912444109e+02 0.0 
0.0 0.0 -4.808178390626e+01 
-6.062365177425e+01 5.913072328298e+00 0.0 
5.913072328298e+00 -8.593173143127e+01 0.0 
0.0 0.0 -4.356661496166e+01 
-7.362389950605e+01 -1.235703418607e+00 0.0 
-1.235703418607e+00 -1.840742199253e+02 0.0 
0.0 0.0 -7.690943582941e+01 
-1.060108302517e+02 2.616829461774e+01 0.0 
2.616829461774e+01 -2.808401022793e+02 0.0 
0.0 0.0 -1.156552797593e+02 
-1.513092817110e+02 2.901916317275e+01 0.0 
2.901916317275e+01 -3.633804812757e+02 0.0 
0.0 0.0 -1.540069288960e+02 
-7.500410543152e+01 5.385698577829e-01 0.0 
5.385698577829e-01 -1.495916300643e+02 0.0 
0.0 0.0 -6.697872064874e+01 
-1.523219773501e+02 2.567976714154e+01 0.0 
2.567976714154e+01 -3.687942010306e+02 0.0 
0.0 0.0 -1.559348535142e+02 
-3.183211758385e+01 -1.497932384814e+01 0.0 
-1.497932384814e+01 -1.151446506884e+02 0.0 
0.0 0.0 -4.626672363071e+01 
-1.583332345848e+02 4.008188396758e+00 0.0 
4.008188396758e+00 -3.775259996777e+02 0.0 
0.0 0.0 -1.603577702788e+02 
-3.264451657243e+01 -1.515465558044e+01 0.0 
-1.515465558044e+01 -1.257267972375e+02 0.0 
0.0 0.0 -4.699831204224e+01 
-2.041544575720e+01 -1.415760269682e+00 0.0 
-1.415760269682e+00 -5.778524255339e+01 0.0 
0.0 0.0 -2.306020649318e+01 
-1.496205137428e+02 1.520918372188e+01 0.0 
1.520918372188e+01 -3.701341482975e+02 0.0 
0.0 0.0 -1.555263986121e+02 
-1.092046017920e+02 2.104737271634e+01 0.0 
2.104737271634e+01 -2.330060029223e+02 0.0 
0.0 0.0 -1.022631814143e+02 
-1.017661284115e+02 1.344357379250e+01 0.0 
1.344357379250e+01 -2.247747570487e+02 0.0 
0.0 0.0 -9.756226563808e+01 
-4.311757588060e+01 -4.321713883750e-01 0.0 
-4.321713883750e-01 -6.265830124724e+01 0.0 
0.0 0.0 -3.133276313835e+01 
-6.573785645243e+01 1.001670764618e+01 0.0 
1.001670764618e+01 -9.300151906900e+01 0.0 
0.0 0.0 -4.722181265643e+01 
-3.770541484266e+01 2.872466035667e+01 0.0 
2.872466035667e+01 -6.685979213605e+01 0.0 
0.0 0.0 -3.058597008338e+01 
-1.208664438897e+02 3.322172968194e+01 0.0 
3.322172968194e+01 -2.692223813565e+02 0.0 
0.0 0.0 -1.166266475739e+02 
-6.163204878469e+01 -2.424232507077e+00 0.0 
-2.424232507077e+00 -1.530462140364e+02 0.0 
0.0 0.0 -6.400347884633e+01 
-3.286254690562e+01 2.881421257633e+01 0.0 
2.881421257633e+01 -7.411385730847e+01 0.0 
0.0 0.0 -3.219144183832e+01 
-1.105438039281e+02 2.475822189188e+01 0.0 
2.475822189188e+01 -2.954778929123e+02 0.0 
0.0 0.0 -1.214065090521e+02 
-3.616067712996e+01 1.408743381797e-01 0.0 
1.408743381797e-01 -4.665026466192e+01 0.0 
0.0 0.0 -2.444328253756e+01 
-1.020007567589e+02 1.893339481937e+01 0.0 
1.893339481937e+01 -2.179496196351e+02 0.0 
0.0 0.0 -9.558511291821e+01 
-1.007355814277e+02 8.868636541512e-01 0.0 
8.868636541512e-01 -2.305863702113e+02 0.0 
0.0 0.0 -9.899658549172e+01 
-9.902263402094e+01 8.694979680044e-01 0.0 
8.694979680044e-01 -2.323861460489e+02 0.0 
0.0 0.0 -9.902263402094e+01 
3.186455387975e-01 2.750005452090e-01 0.0 
2.750005452090e-01 -6.393252390594e+00 0.0 
0.0 0.0 -8.033561972652e-01 
8.259550865545e-02 -5.710347316872e-01 0.0 
-5.710347316872e-01 -1.067391988526e+01 0.0 
0.0 0.0 -1.686882919395e+00 
-3.657450908269e+01 6.354804131345e-01 0.0 
6.354804131345e-01 -4.914964531494e+01 0.0 
0.0 0.0 -2.531724631929e+01 
-3.534054354867e+01 -1.114679694800e-01 0.0 
-1.114679694800e-01 -4.664886893589e+01 0.0 
0.0 0.0 -2.419682374537e+01 
-1.672652096726e+02 2.492221364244e-01 0.0 
2.492221364244e-01 -3.916188225695e+02 0.0 
0.0 0.0 -1.672652096726e+02 
-1.653576378793e+02 -6.901962105605e-01 0.0 
-6.901962105605e-01 -3.888293026279e+02 0.0 
0.0 0.0 -1.658560821522e+02 
-4.147731097727e+00 -8.135408655755e-01 0.0 
-8.135408655755e-01 -2.310320258722e+01 0.0 
0.0 0.0 -7.174320558404e+00 
-7.142988756099e+01 -4.756620791156e+00 0.0 
-4.756620791156e+00 -1.130960838247e+02 0.0 
0.0 0.0 -5.585821776291e+01 
-1.507752797837e+02 1.100005616415e+00 0.0 
1.100005616415e+00 -3.602655519364e+02 0.0 
0.0 0.0 -1.529122495160e+02 
-1.227512631624e+02 3.018691316082e+01 0.0 
3.018691316082e+01 -3.051343649825e+02 0.0 
0.0 0.0 -1.279656884435e+02 
-2.868133539381e+01 -1.711673532628e+00 0.0 
-1.711673532628e+00 -7.472975699173e+01 0.0 
0.0 0.0 -3.062332771566e+01 
-1.517405595733e+02 4.406837250223e+00 0.0 
4.406837250223e+00 -3.652966969533e+02 0.0 
0.0 0.0 -1.547111769580e+02 
-1.053251968334e+02 7.961638119012e-02 0.0 
7.961638119012e-02 -2.588672754638e+02 0.0 
0.0 0.0 -1.088577416891e+02 
-9.020284985090e+01 5.285856381733e-01 0.0 
5.285856381733e-01 -2.237232140218e+02 0.0 
0.0 0.0 -9.377781916181e+01 
-6.355741561546e+01 7.387644032012e-01 0.0 
7.387644032012e-01 -1.150866129382e+02 0.0 
0.0 0.0 -5.319320856609e+01 
-4.061095171457e+01 -2.036779962370e+01 0.0 
-2.036779962370e+01 -8.957209705287e+01 0.0 
0.0 0.0 -3.696258454501e+01 
-9.621623664874e+01 2.560084730012e+01 0.0 
2.560084730012e+01 -2.629243748502e+02 0.0 
0.0 0.0 -1.073421834497e+02 
-2.236903960622e+01 -2.435953616614e+00 0.0 
-2.435953616614e+00 -5.991403809601e+01 0.0 
0.0 0.0 -2.428492331067e+01 
-8.198761117234e+01 -1.260881350825e+00 0.0 
-1.260881350825e+00 -2.041800948960e+02 0.0 
0.0 0.0 -8.545031182049e+01 
-1.136029889670e+02 2.994634601933e+01 0.0 
2.994634601933e+01 -2.558028191503e+02 0.0 
0.0 0.0 -1.104217424352e+02 
-8.808065098895e+01 9.792512670882e-01 0.0 
9.792512670882e-01 -1.893422605645e+02 0.0 
0.0 0.0 -8.282687346603e+01 
-9.013756656191e+01 -1.017229089468e+00 0.0 
-1.017229089468e+00 -2.224763457911e+02 0.0 
0.0 0.0 -9.338417370591e+01 
-5.526676170594e+01 1.137233034318e+00 0.0 
1.137233034318e+00 -9.443238216296e+01 0.0 
0.0 0.0 -4.450974316067e+01 
-1.212784364627e+02 3.317216412607e+01 0.0 
3.317216412607e+01 -2.910869087637e+02 0.0 
0.0 0.0 -1.233096035679e+02 
-1.081938323898e+02 3.111158112106e+01 0.0 
3.111158112106e+01 -2.339551011850e+02 0.0 
0.0 0.0 -1.022446800724e+02 
-1.006118150858e+02 3.020983977531e+01 0.0 
3.020983977531e+01 -2.131458118144e+02 0.0 
0.0 0.0 -9.372728807005e+01 
-3.701543923550e+01 3.423447393381e-02 0.0 
3.423447393381e-02 -4.727788931477e+01 0.0 
0.0 0.0 -2.488799856508e+01 
-9.172668983470e+01 2.373415729663e+01 0.0 
2.373415729663e+01 -2.597718602147e+02 0.0 
0.0 0.0 -1.050495650148e+02 
-1.036627722654e+02 2.237654742475e+01 0.0 
2.237654742475e+01 -2.227195981441e+02 0.0 
0.0 0.0 -9.751471112286e+01 
-4.591809489043e+01 -2.115826805010e+00 0.0 
-2.115826805010e+00 -1.158522374406e+02 0.0 
0.0 0.0 -4.813109969929e+01 
-1.131570584212e+01 -2.249730454880e+00 0.0 
-2.249730454880e+00 -2.586224651168e+01 0.0 
0.0 0.0 -1.075338570614e+01 
-1.167998741414e+02 3.204590701315e+01 0.0 
3.204590701315e+01 -2.759002281505e+02 0.0 
0.0 0.0 -1.174100306876e+02 
-1.182820186861e+02 1.630519452664e+01 0.0 
1.630519452664e+01 -3.217147507903e+02 0.0 
0.0 0.0 -1.315990308429e+02 
-3.772399689224e+01 -2.139603988825e+01 0.0 
-2.139603988825e+01 -8.044089450579e+01 0.0 
0.0 0.0 -3.465058251364e+01 
-6.866303360573e+01 1.468158135690e+00 0.0 
1.468158135690e+00 -1.294180247717e+02 0.0 
0.0 0.0 -5.902431751322e+01 
-1.585579235497e+02 1.952510364318e+00 0.0 
1.952510364318e+00 -3.748643869619e+02 0.0 
0.0 0.0 -1.596266931535e+02 
-1.172783634109e+02 2.968453875293e+01 0.0 
2.968453875293e+01 -2.889357027411e+02 0.0 
0.0 0.0 -1.214642198456e+02 
-1.228751255000e+02 3.303465829776e+01 0.0 
3.303465829776e+01 -2.982216780012e+02 0.0 
0.0 0.0 -1.259290410503e+02 
-1.143478198957e+02 8.000048838093e-01 0.0 
8.000048838093e-01 -2.796879950237e+02 0.0 
0.0 0.0 -1.178107444758e+02 
-4.244690442876e+01 2.930661422962e+01 0.0 
2.930661422962e+01 -9.804552278950e+01 0.0 
0.0 0.0 -4.349990401654e+01 
-3.454395502843e+01 2.434820801202e+01 0.0 
2.434820801202e+01 -2.402394677432e+01 0.0 
0.0 0.0 -1.717037054082e+01 
-3.819281942683e+01 2.825239511751e+01 0.0 
2.825239511751e+01 -6.559060451233e+01 0.0 
0.0 0.0 -3.073502718175e+01 
-6.187746851672e+01 6.401693722783e+00 0.0 
6.401693722783e+00 -8.527675257906e+01 0.0 
0.0 0.0 -4.374626632873e+01 
-9.111523173092e+01 2.308094586758e+01 0.0 
2.308094586758e+01 -2.593990218526e+02 0.0 
0.0 0.0 -1.047542760750e+02 
-9.415089206991e+01 7.261171341378e+00 0.0 
7.261171341378e+00 -2.039479035786e+02 0.0 
0.0 0.0 -8.902963869456e+01 
-1.477566184545e+02 2.094905037211e+01 0.0 
2.094905037211e+01 -3.603228713335e+02 0.0 
0.0 0.0 -1.520238469364e+02 
-3.634013302666e+01 -1.488162373086e+01 0.0 
-1.488162373086e+01 -5.185939569545e+01 0.0 
0.0 0.0 -2.429033559236e+01 
-2.328032997636e+01 -6.523336914007e+00 0.0 
-6.523336914007e+00 -4.333207962957e+01 0.0 
0.0 0.0 -1.933394917641e+01 
-3.752322258147e+01 2.572323478655e+01 0.0 
2.572323478655e+01 -2.680333070910e+01 0.0 
0.0 0.0 -1.865379444404e+01 
-7.031623226339e+01 5.228984742143e-01 0.0 
5.228984742143e-01 -1.348393963655e+02 0.0 
0.0 0.0 -6.114668858867e+01 
-5.711594154856e+01 -1.862317890953e+00 0.0 
-1.862317890953e+00 -1.429990875267e+02 0.0 
0.0 0.0 -5.963450872259e+01 
-1.023783906622e+02 1.733977032230e+01 0.0 
1.733977032230e+01 -2.149477048513e+02 0.0 
0.0 0.0 -9.479782865405e+01 
-2.634154010630e+01 -4.753127684952e-01 0.0 
-4.753127684952e-01 -7.148762620406e+01 0.0 
0.0 0.0 -2.894874989311e+01 
-1.351350855173e+02 1.989203963086e+01 0.0 
1.989203963086e+01 -3.438836973411e+02 0.0 
0.0 0.0 -1.433056348575e+02 
-5.343750769758e+01 1.220654402397e+00 0.0 
1.220654402397e+00 -8.026464578328e+01 0.0 
0.0 0.0 -3.971064604426e+01 
-1.404757767869e+02 2.929514441490e+01 0.0 
2.929514441490e+01 -3.376988524489e+02 0.0 
0.0 0.0 -1.430523887708e+02 
-1.107117481485e+02 2.838002830175e+01 0.0 
2.838002830175e+01 -2.848614172907e+02 0.0 
0.0 0.0 -1.182719496318e+02 
-6.461005162785e+01 9.124219801460e+00 0.0 
9.124219801460e+00 -8.702187051346e+01 0.0 
0.0 0.0 -4.508957664239e+01 
-1.518034635517e+02 1.119894596998e+01 0.0 
1.119894596998e+01 -3.733665942791e+02 0.0 
0.0 0.0 -1.571510173493e+02 
-1.064915264906e+02 1.862452704511e+01 0.0 
1.862452704511e+01 -2.301212079640e+02 0.0 
0.0 0.0 -1.005838203364e+02 
-9.738563729097e+01 1.270689164435e+00 0.0 
1.270689164435e+00 -2.165302649019e+02 0.0 
0.0 0.0 -9.377477065787e+01 
-3.928253697053e+01 2.719421098519e+01 0.0 
2.719421098519e+01 -2.823732521438e+01 0.0 
0.0 0.0 -1.816073610765e+01 
-9.646236213126e+01 1.324606545856e+01 0.0 
1.324606545856e+01 -2.032107064737e+02 0.0 
0.0 0.0 -8.950192058149e+01 
-1.265869068323e+02 3.313901206813e+01 0.0 
3.313901206813e+01 -2.971822490961e+02 0.0 
0.0 0.0 -1.267307467785e+02 
-1.338379827395e+02 2.083402265028e+01 0.0 
2.083402265028e+01 -3.439355116140e+02 0.0 
0.0 0.0 -1.429320483061e+02 
-1.143115896026e+02 2.612256935290e+01 0.0 
2.612256935290e+01 -2.980700418564e+02 0.0 
0.0 0.0 -1.233144894377e+02 
-1.675523697601e+02 5.362475737684e+00 0.0 
5.362475737684e+00 -3.922888627736e+02 0.0 
0.0 0.0 -1.675523697601e+02 
-9.899571889470e+01 2.742439988912e+01 0.0 
2.742439988912e+01 -2.119140950983e+02 0.0 
0.0 0.0 -9.287294419790e+01 
-5.663524099953e+01 2.095861944673e+01 0.0 
2.095861944673e+01 -7.286670343891e+01 0.0 
0.0 0.0 -3.940232623206e+01 
-3.740472957331e+01 2.946095056381e+01 0.0 
2.946095056381e+01 -6.981833670994e+01 0.0 
0.0 0.0 -3.038929021731e+01 
-1.108293553339e+02 3.095923411095e+01 0.0 
3.095923411095e+01 -2.392928520755e+02 0.0 
0.0 0.0 -1.046366622228e+02 
-6.628869838682e+01 6.297060368271e+00 0.0 
6.297060368271e+00 -1.004560917945e+02 0.0 
0.0 0.0 -4.962343705438e+01 
-1.510210237966e+02 1.617503590525e+00 0.0 
1.617503590525e+00 -3.591457424325e+02 0.0 
0.0 0.0 -1.526500298687e+02 
-1.212630912434e+02 2.938533849493e+01 0.0 
2.938533849493e+01 -3.035525005703e+02 0.0 
0.0 0.0 -1.270446775441e+02 
-1.593220957332e+02 4.619640931186e+00 0.0 
4.619640931186e+00 -3.783273010036e+02 0.0 
0.0 0.0 -1.608948190210e+02 
-7.800300203150e+01 1.286466595258e+00 0.0 
1.286466595258e+00 -1.561571057735e+02 0.0 
0.0 0.0 -6.984803234152e+01 
-1.430886337576e+02 2.790530471686e+01 0.0 
2.790530471686e+01 -3.442711646204e+02 0.0 
0.0 0.0 -1.458079395134e+02 
-1.473707448491e+02 9.614592358485e+00 0.0 
9.614592358485e+00 -3.630964133535e+02 0.0 
0.0 0.0 -1.527401474608e+02 
-1.459061636035e+02 8.718591345743e+00 0.0 
8.718591345743e+00 -3.623548768558e+02 0.0 
0.0 0.0 -1.520783121378e+02 
-5.939337101081e+01 -1.356860525205e+00 0.0 
-1.356860525205e+00 -1.482535242287e+02 0.0 
0.0 0.0 -6.189406857185e+01 
-1.654109037530e+02 4.043063005492e+00 0.0 
4.043063005492e+00 -3.916006346099e+02 0.0 
0.0 0.0 -1.667034615089e+02 
-4.877365608660e+01 2.268603820631e+00 0.0 
2.268603820631e+00 -6.496316001624e+01 0.0 
0.0 0.0 -3.372104483085e+01 
-9.176687344092e+01 4.241510731395e+00 0.0 
4.241510731395e+00 -1.976719280831e+02 0.0 
0.0 0.0 -8.643164045720e+01 
-2.709701325854e+01 -7.774394979945e+00 0.0 
-7.774394979945e+00 -4.316560524515e+01 0.0 
0.0 0.0 -1.977896208518e+01 
-8.712686695437e+01 2.082575597269e+00 0.0 
2.082575597269e+00 -1.823025204363e+02 0.0 
0.0 0.0 -8.042881621719e+01 
-6.993071895448e+01 1.395572050133e+00 0.0 
1.395572050133e+00 -1.314091067427e+02 0.0 
0.0 0.0 -6.000194770915e+01 
-1.142153761514e+01 5.278514432422e-01 0.0 
5.278514432422e-01 -4.192397763837e+01 0.0 
0.0 0.0 -1.560365457605e+01 
-3.204690448344e+01 -1.483954819688e+01 0.0 
-1.483954819688e+01 -1.306881218676e+02 0.0 
0.0 0.0 -4.934873727292e+01 
-1.028155008323e+02 2.858792560850e+01 0.0 
2.858792560850e+01 -2.283542050013e+02 0.0 
0.0 0.0 -9.895091175006e+01 
-9.688834834607e+01 9.581669373226e+00 0.0 
9.581669373226e+00 -2.175336368615e+02 0.0 
0.0 0.0 -9.392659556228e+01 
-9.178339563119e+01 2.411577069720e+00 0.0 
2.411577069720e+00 -2.002629758293e+02 0.0 
0.0 0.0 -8.721391143815e+01 
-1.376606029802e+02 2.658126041786e+01 0.0 
2.658126041786e+01 -3.436026255570e+02 0.0 
0.0 0.0 -1.439789685612e+02 
-5.552624912538e+01 1.433800066115e-01 0.0 
1.433800066115e-01 -9.362878240648e+01 0.0 
0.0 0.0 -4.434650945956e+01 
-8.021336692491e+00 -1.100107633616e+00 0.0 
-1.100107633616e+00 -2.495353615677e+01 0.0 
0.0 0.0 -9.383818091890e+00 
-3.972537976839e+01 2.179983493903e+01 0.0 
2.179983493903e+01 -1.117716732672e+02 0.0 
0.0 0.0 -4.702207754651e+01 
-1.130433350965e+01 -2.581160556059e+00 0.0 
-2.581160556059e+00 -2.854946992902e+01 0.0 
0.0 0.0 -1.155614103160e+01 
-2.882610422888e+01 -7.366046035949e+00 0.0 
-7.366046035949e+00 -5.783353316657e+01 0.0 
0.0 0.0 -2.537939746049e+01 
-4.858450736731e+01 3.934609143193e+01 0.0 
3.934609143193e+01 -5.713196454932e+01 0.0 
0.0 0.0 -3.216539278967e+01 
-8.008256176868e+01 -2.570793093011e+00 0.0 
-2.570793093011e+00 -1.986803422262e+02 0.0 
0.0 0.0 -8.322887119847e+01 
-1.506262381657e+02 7.795842661805e-02 0.0 
7.795842661805e-02 -3.589298258943e+02 0.0 
0.0 0.0 -1.524668192180e+02 
-1.080640381024e+02 2.572593608000e+01 0.0 
2.572593608000e+01 -2.326935284782e+02 0.0 
0.0 0.0 -1.018272699742e+02 
-7.358900334961e+01 1.334821272719e+01 0.0 
1.334821272719e+01 -1.059939455288e+02 0.0 
0.0 0.0 -5.347488466352e+01 
-6.957688603342e+01 -2.143930806730e+00 0.0 
-2.143930806730e+00 -1.747061044948e+02 0.0 
0.0 0.0 -7.288489715846e+01 
-1.471377159029e+02 7.019575005724e+00 0.0 
7.019575005724e+00 -3.612820067774e+02 0.0 
0.0 0.0 -1.521259168041e+02 
-1.367847557597e+02 1.337783928355e+01 0.0 
1.337783928355e+01 -3.521941871103e+02 0.0 
0.0 0.0 -1.462936828610e+02 
-1.357380611175e+02 3.108943003248e+01 0.0 
3.108943003248e+01 -3.340482613109e+02 0.0 
0.0 0.0 -1.405358967285e+02 
-1.221310474158e+02 3.194848253669e+01 0.0 
3.194848253669e+01 -2.881270175247e+02 0.0 
0.0 0.0 -1.226774194822e+02 
-1.095258255949e+02 2.974704206023e+01 0.0 
2.974704206023e+01 -2.477522095157e+02 0.0 
0.0 0.0 -1.067834105332e+02 
-2.630746650453e+01 -6.645761166379e+00 0.0 
-6.645761166379e+00 -4.242875973089e+01 0.0 
0.0 0.0 -1.956879648446e+01 
-4.140040265276e+01 -1.841446701718e+01 0.0 
-1.841446701718e+01 -1.118755105229e+02 0.0 
0.0 0.0 -4.774523024889e+01 
-1.509770063019e+02 2.152581283730e+00 0.0 
2.152581283730e+00 -3.608387852975e+02 0.0 
0.0 0.0 -1.531447374798e+02 
-1.208460215843e+01 -4.038304992365e-01 0.0 
-4.038304992365e-01 -4.136528649582e+01 0.0 
0.0 0.0 -1.563496659628e+01 
-1.533631200299e+01 -1.319839947614e+00 0.0 
-1.319839947614e+00 -4.939412548337e+01 0.0 
0.0 0.0 -1.901913124591e+01 
-4.288267110404e+01 3.450947981425e+01 0.0 
3.450947981425e+01 -5.567730022393e+01 0.0 
0.0 0.0 -2.983048450105e+01 
-1.500603463376e+01 -1.654544177029e+00 0.0 
-1.654544177029e+00 -3.840608356910e+01 0.0 
0.0 0.0 -1.562363546086e+01 
-1.566481822658e+02 9.931049660001e+00 0.0 
9.931049660001e+00 -3.762585446933e+02 0.0 
0.0 0.0 -1.594720180877e+02 
-1.219919932647e+02 3.312693148826e+01 0.0 
3.312693148826e+01 -2.805948838723e+02 0.0 
0.0 0.0 -1.203760631411e+02 
-9.269319111987e+01 5.512048022253e+00 0.0 
5.512048022253e+00 -2.034682076484e+02 0.0 
0.0 0.0 -8.844841963048e+01 
-1.387572036008e+02 3.073000532433e+01 0.0 
3.073000532433e+01 -3.327112948743e+02 0.0 
0.0 0.0 -1.410405495425e+02 
-1.325794496162e+02 1.472630123094e+01 0.0 
1.472630123094e+01 -3.425913678625e+02 0.0 
0.0 0.0 -1.421512452436e+02 
-5.994141064794e+01 2.008799229181e-01 0.0 
2.008799229181e-01 -1.050672362124e+02 0.0 
0.0 0.0 -4.910259405812e+01 
-1.015883008045e+02 1.326442754077e+01 0.0 
1.326442754077e+01 -2.383727018772e+02 0.0 
0.0 0.0 -1.015883008045e+02 
-4.165511115573e+01 -2.013773181159e+01 0.0 
-2.013773181159e+01 -1.300008754474e+02 0.0 
0.0 0.0 -5.021285066562e+01 
-3.698220460464e+01 9.309274929366e-02 0.0 
9.309274929366e-02 -4.644598675460e+01 0.0 
0.0 0.0 -2.462845740777e+01 
-4.434927053735e+01 -2.156938776787e+01 0.0 
-2.156938776787e+01 -7.379284903204e+01 0.0 
0.0 0.0 -3.322190845517e+01 
-6.225443706595e+00 -9.871286128969e-01 0.0 
-9.871286128969e-01 -2.460671339711e+01 0.0 
0.0 0.0 -9.431866729293e+00 
-1.657097942919e+02 2.184710373839e+00 0.0 
2.184710373839e+00 -3.911129380757e+02 0.0 
0.0 0.0 -1.666468197103e+02 
-5.669950358147e+01 7.210525533734e+00 0.0 
7.210525533734e+00 -7.193172978878e+01 0.0 
0.0 0.0 -3.818937001108e+01 
-1.995219959221e+01 -1.334224015107e+00 0.0 
-1.334224015107e+00 -5.760383240148e+01 0.0 
0.0 0.0 -2.286680959811e+01 
-7.621677974107e+01 -2.505647839664e+00 0.0 
-2.505647839664e+00 -1.904767874937e+02 0.0 
0.0 0.0 -7.960807017045e+01 
-1.223223008268e+02 3.406104572550e+01 0.0 
3.406104572550e+01 -2.783770722770e+02 0.0 
0.0 0.0 -1.198098119311e+02 
-9.601331957949e+01 9.710715091920e+00 0.0 
9.710715091920e+00 -2.038479274787e+02 0.0 
0.0 0.0 -8.955837411746e+01 
-1.044945206123e+02 2.112462191445e+01 0.0 
2.112462191445e+01 -2.331130210102e+02 0.0 
0.0 0.0 -1.008822624867e+02 
-5.396121546188e+01 -4.316682394204e-01 0.0 
-4.316682394204e-01 -1.348095391487e+02 0.0 
0.0 0.0 -5.623122638319e+01 
-4.121163004522e+01 2.734760445779e+00 0.0 
2.734760445779e+00 -1.213838927551e+02 0.0 
0.0 0.0 -5.070848978358e+01 
-1.564665737096e+02 5.425340310486e+00 0.0 
5.425340310486e+00 -3.767433028519e+02 0.0 
0.0 0.0 -1.595629629684e+02 
-1.026087231894e+02 1.130790433692e+00 0.0 
1.130790433692e+00 -2.337968522720e+02 0.0 
0.0 0.0 -1.005216726384e+02 
-1.659526155509e+02 4.811576697000e-01 0.0 
4.811576697000e-01 -3.909512509477e+02 0.0 
0.0 0.0 -1.666711599496e+02 
-4.150926066941e+01 -4.607451082788e-01 0.0 
-4.607451082788e-01 -6.104723191286e+01 0.0 
0.0 0.0 -3.036694777468e+01 
-1.423331379983e+02 1.519506177156e+01 0.0 
1.519506177156e+01 -3.555476676344e+02 0.0 
0.0 0.0 -1.489642416898e+02 
-2.133166045277e+01 -8.969170633702e-01 0.0 
-8.969170633702e-01 -5.856069841465e+01 0.0 
0.0 0.0 -2.356770766022e+01 
-9.980720570382e+01 1.548438664438e+01 0.0 
1.548438664438e+01 -2.140633717736e+02 0.0 
0.0 0.0 -9.376117324322e+01 
-6.749490031705e+00 -7.509180058655e-01 0.0 
-7.509180058655e-01 -2.338426591157e+01 0.0 
0.0 0.0 -9.000290707986e+00 
-1.552085431373e+02 1.338792630326e+01 0.0 
1.338792630326e+01 -3.742783366808e+02 0.0 
0.0 0.0 -1.584460639455e+02 
-1.093766871345e+02 2.264122511039e+01 0.0 
2.264122511039e+01 -2.364507479590e+02 0.0 
0.0 0.0 -1.033482305280e+02 
-4.622080029912e+01 1.352436217255e+01 0.0 
1.352436217255e+01 -1.184915743647e+02 0.0 
0.0 0.0 -5.077998660289e+01 
-1.182586937199e+02 3.124534500417e+01 0.0 
3.124534500417e+01 -2.901500120675e+02 0.0 
0.0 0.0 -1.221226117362e+02 
-7.497846624097e+01 2.364266928761e+00 0.0 
2.364266928761e+00 -1.461319949449e+02 0.0 
0.0 0.0 -6.593313835577e+01 
-9.598051531924e+01 7.075134381339e+00 0.0 
7.075134381339e+00 -2.174825423269e+02 0.0 
0.0 0.0 -9.363891729384e+01 
-1.577764611281e+02 2.647819476580e+01 0.0 
2.647819476580e+01 -3.694784092989e+02 0.0 
0.0 0.0 -1.577764611281e+02 
-6.420338481200e+01 1.599022656119e+00 0.0 
1.599022656119e+00 -1.188681671776e+02 0.0 
0.0 0.0 -5.452146559689e+01 
-1.189246994061e+02 3.205012738793e+01 0.0 
3.205012738793e+01 -2.735129798531e+02 0.0 
0.0 0.0 -1.173313037777e+02 
-1.055307519587e+02 2.113705409671e+01 0.0 
2.113705409671e+01 -2.204848846182e+02 0.0 
0.0 0.0 -9.740469097307e+01 
-6.799743078905e+01 9.841476604923e-01 0.0 
9.841476604923e-01 -1.303677791622e+02 0.0 
0.0 0.0 -5.910956298537e+01 
-1.167064588994e+02 3.124329331439e+01 0.0 
3.124329331439e+01 -2.639937919010e+02 0.0 
0.0 0.0 -1.138100752401e+02 
-6.550344463603e+01 -1.297820108618e+00 0.0 
-1.297820108618e+00 -1.624529016756e+02 0.0 
0.0 0.0 -6.798690389349e+01 
-3.575548725088e+01 1.256793492183e-01 0.0 
1.256793492183e-01 -4.650735755266e+01 0.0 
0.0 0.0 -2.427885344106e+01 
-1.287880944344e+02 2.973517370956e+01 0.0 
2.973517370956e+01 -3.191132616356e+02 0.0 
0.0 0.0 -1.339704068210e+02 
-9.627291104171e+01 3.885209436738e-01 0.0 
3.885209436738e-01 -2.180768198005e+02 0.0 
0.0 0.0 -9.390491925266e+01 
9.999396396073e-01 2.428901618736e-02 0.0 
2.428901618736e-02 -8.773897767860e+00 0.0 
0.0 0.0 -1.379532881320e+00 
-3.538984581264e+01 -2.311010833509e-01 0.0 
-2.311010833509e-01 -4.679700987584e+01 0.0 
0.0 0.0 -2.425605670654e+01 
-1.603666497162e+02 7.797699778455e-01 0.0 
7.797699778455e-01 -3.780785222481e+02 0.0 
0.0 0.0 -1.611335515893e+02 
-2.949853118349e+01 -3.461988795796e+00 0.0 
-3.461988795796e+00 -7.393821852141e+01 0.0 
0.0 0.0 -3.063102491147e+01 
-1.346716671586e+02 1.849352515636e+01 0.0 
1.849352515636e+01 -3.484872789940e+02 0.0 
0.0 0.0 -1.445476838458e+02 
-1.091840326983e+02 2.472648734985e+01 0.0 
2.472648734985e+01 -2.264481402608e+02 0.0 
0.0 0.0 -1.002896518877e+02 
-9.859995813073e+01 6.912089399398e+00 0.0 
6.912089399398e+00 -2.172893273502e+02 0.0 
0.0 0.0 -9.436678564429e+01 
-2.684915768893e+01 -2.326443246552e+00 0.0 
-2.326443246552e+00 -7.087374181179e+01 0.0 
0.0 0.0 -2.891686985021e+01 
-4.241122195708e+01 3.446214539564e+01 0.0 
3.446214539564e+01 -8.623190159337e+01 0.0 
0.0 0.0 -3.777120743695e+01 
-9.356216971660e+01 -1.566775441469e+00 0.0 
-1.566775441469e+00 -2.323363913488e+02 0.0 
0.0 0.0 -9.736956831962e+01 
-8.081953729353e+01 9.643454342527e-01 0.0 
9.643454342527e-01 -1.676396554924e+02 0.0 
0.0 0.0 -7.413775783579e+01 
-1.192548003522e+02 -3.923379746539e+00 0.0 
-3.923379746539e+00 -9.702536508402e+01 0.0 
0.0 0.0 -6.510843414368e+01 
-1.017055994126e+02 1.743748120250e+01 0.0 
1.743748120250e+01 -2.276549114205e+02 0.0 
0.0 0.0 -9.840815324993e+01 
-6.144143963985e+01 5.032692075733e-01 0.0 
5.032692075733e-01 -1.126083760654e+02 0.0 
0.0 0.0 -5.181494471158e+01 
-4.379366790587e+01 -2.002838561698e+01 0.0 
-2.002838561698e+01 -9.049220840976e+01 0.0 
0.0 0.0 -3.802558167545e+01 
-5.657541596578e+01 5.590448402915e-01 0.0 
5.590448402915e-01 -9.867501746893e+01 0.0 
0.0 0.0 -4.617513003041e+01 
-1.344222144618e+02 3.343337309556e+01 0.0 
3.343337309556e+01 -3.255764885720e+02 0.0 
0.0 0.0 -1.375996109101e+02 
-9.859610497092e+01 1.042119614833e+00 0.0 
1.042119614833e+00 -2.434584651870e+02 0.0 
0.0 0.0 -1.022163710474e+02 
-4.959368983486e+01 3.453890126323e+01 0.0 
3.453890126323e+01 -3.189270307677e+01 0.0 
0.0 0.0 -2.519205720365e+01 
-5.853071304254e+01 -2.974585858464e+00 0.0 
-2.974585858464e+00 -1.472052703389e+02 0.0 
0.0 0.0 -6.132079501443e+01 
-8.560970460791e+01 -2.209207032290e+00 0.0 
-2.209207032290e+00 -2.136570581916e+02 0.0 
0.0 0.0 -8.938002883987e+01 
-1.028855872202e+02 -1.547773767342e+00 0.0 
-1.547773767342e+00 -2.527196619838e+02 0.0 
0.0 0.0 -1.062815747612e+02 
-1.329902116696e+02 2.793150544423e+01 0.0 
2.793150544423e+01 -3.308905194988e+02 0.0 
0.0 0.0 -1.387642193505e+02 
-8.354852086268e+01 -1.897660264909e-01 0.0 
-1.897660264909e-01 -2.081684388810e+02 0.0 
0.0 0.0 -8.711508792312e+01 
-8.906329637289e+01 -1.445430138854e+00 0.0 
-1.445430138854e+00 -2.208485972594e+02 0.0 
0.0 0.0 -9.257356808968e+01 
-1.445929285671e+01 -2.622343088547e+00 0.0 
-2.622343088547e+00 -3.734826964596e+01 0.0 
0.0 0.0 -1.514226875080e+01 
-1.507000628864e+02 3.514910862669e+00 0.0 
3.514910862669e+00 -3.651428297404e+02 0.0 
0.0 0.0 -1.543528677880e+02 
-1.152727131400e+02 3.098511094181e+01 0.0 
3.098511094181e+01 -2.754095204075e+02 0.0 
0.0 0.0 -1.168046700642e+02 
-3.885526771832e+01 3.162366831883e+01 0.0 
3.162366831883e+01 -1.013284864501e+02 0.0 
0.0 0.0 -4.276175996982e+01 
-9.563009749503e+01 1.341507287999e+00 0.0 
1.341507287999e+00 -2.172108304752e+02 0.0 
0.0 0.0 -9.345227839106e+01 
-1.602096454740e+02 -2.686709669539e-01 0.0 
-2.686709669539e-01 -3.775648021828e+02 0.0 
0.0 0.0 -1.609323342970e+02 
-4.203982972661e+01 6.465900413133e-01 0.0 
6.465900413133e-01 -6.209252463339e+01 0.0 
0.0 0.0 -3.083970630800e+01 
-6.213803253366e+01 4.404542504874e-01 0.0 
4.404542504874e-01 -1.128871973893e+02 0.0 
0.0 0.0 -5.210756897689e+01 
-8.373672713247e+01 -2.044449452849e+00 0.0 
-2.044449452849e+00 -2.079526813796e+02 0.0 
0.0 0.0 -8.710682255362e+01 
-8.691033056889e+01 -8.807025279313e-01 0.0 
-8.807025279313e-01 -2.150991009115e+02 0.0 
0.0 0.0 -9.020282944413e+01 
-8.918961428489e+01 -6.653404070310e-01 0.0 
-6.653404070310e-01 -2.216942321748e+02 0.0 
0.0 0.0 -9.286515393791e+01 
-1.286705684400e+02 1.767389113604e+01 0.0 
1.767389113604e+01 -3.368369502320e+02 0.0 
0.0 0.0 -1.392522556016e+02 
-3.694513992852e+01 -1.747640066213e+01 0.0 
-1.747640066213e+01 -6.718155143455e+01 0.0 
0.0 0.0 -2.954764425748e+01 
-1.203353315012e+02 3.407168763547e+01 0.0 
3.407168763547e+01 -2.815361672753e+02 0.0 
0.0 0.0 -1.201614496329e+02 
-4.856941804132e+01 1.351013536653e-02 0.0 
1.351013536653e-02 -7.881229155652e+01 0.0 
0.0 0.0 -3.781451287935e+01 
-1.057445898633e+02 1.715643531214e+01 0.0 
1.715643531214e+01 -2.269602205003e+02 0.0 
0.0 0.0 -9.941144310909e+01 
-1.308502184142e+02 1.799435811378e+01 0.0 
1.799435811378e+01 -3.377071064821e+02 0.0 
0.0 0.0 -1.401671974689e+02 
-5.832182105887e+01 1.171163258704e+00 0.0 
1.171163258704e+00 -9.976764499674e+01 0.0 
0.0 0.0 -4.702683981668e+01 
-1.116208449789e+02 2.995537037920e+01 0.0 
2.995537037920e+01 -2.503833214804e+02 0.0 
0.0 0.0 -1.082012499378e+02 
-1.315433591833e+02 2.667795287642e+01 0.0 
2.667795287642e+01 -3.296638587924e+02 0.0 
0.0 0.0 -1.379621653927e+02 
-1.374843748728e+02 3.023199003103e+01 0.0 
3.023199003103e+01 -3.395742942526e+02 0.0 
0.0 0.0 -1.427176007376e+02 
-4.688026423932e+01 3.792836368433e+01 0.0 
3.792836368433e+01 -6.853361691630e+01 0.0 
0.0 0.0 -3.560414097635e+01 
-1.134975068625e+02 3.160873133382e+01 0.0 
3.160873133382e+01 -2.514452437577e+02 0.0 
0.0 0.0 -1.090828251861e+02 
-1.170989468179e+02 3.197715460655e+01 0.0 
3.197715460655e+01 -2.668784917431e+02 0.0 
0.0 0.0 -1.147932315683e+02 
-1.277313703875e+01 -1.043605873665e+00 0.0 
-1.043605873665e+00 -3.800482349572e+01 0.0 
0.0 0.0 -1.483338816034e+01 
-7.964118770264e+01 -1.035106237713e+00 0.0 
-1.035106237713e+00 -1.980256784528e+02 0.0 
0.0 0.0 -8.290005984663e+01 
-5.182939516512e+01 3.783051045179e+01 0.0 
3.783051045179e+01 -6.701679817310e+01 0.0 
0.0 0.0 -3.661637742391e+01 
-1.173114961599e+02 3.276764801676e+01 0.0 
3.276764801676e+01 -2.599043204908e+02 0.0 
0.0 0.0 -1.127647449952e+02 
-2.066940367701e+01 4.773184699048e-01 0.0 
4.773184699048e-01 -1.148086215693e+01 0.0 
0.0 0.0 -9.245079750181e+00 
-1.977820261237e+01 -7.800406437819e-02 0.0 
-7.800406437819e-02 -9.730588370616e+00 0.0 
0.0 0.0 -8.452637294895e+00 
-2.005899450993e+01 1.171661972652e-01 0.0 
1.171661972652e-01 -9.817282995860e+00 0.0 
0.0 0.0 -8.562883251736e+00 
-1.982106226075e+01 2.895786515711e-02 0.0 
2.895786515711e-02 -9.609179628464e+00 0.0 
0.0 0.0 -8.429072566764e+00 
-1.997638119470e+01 -5.533832803560e-02 0.0 
-5.533832803560e-02 -9.696076739947e+00 0.0 
0.0 0.0 -8.501737380395e+00 
-1.978332206024e+01 -8.867395303693e-02 0.0 
-8.867395303693e-02 -9.671354321351e+00 0.0 
0.0 0.0 -8.436402914479e+00 
-1.991892259396e+01 -6.672683054545e-02 0.0 
-6.672683054545e-02 -9.720506387241e+00 0.0 
0.0 0.0 -8.491828694361e+00 
-1.962041336076e+01 -1.353383567271e-01 0.0 
-1.353383567271e-01 -9.607213971902e+00 0.0 
0.0 0.0 -8.368288199798e+00 
-1.997603111898e+01 -1.094605612032e-01 0.0 
-1.094605612032e-01 -9.742309989516e+00 0.0 
0.0 0.0 -8.515502332549e+00 
-1.935989741213e+01 -2.200885648290e-01 0.0 
-2.200885648290e-01 -9.592176348297e+00 0.0 
0.0 0.0 -8.285622128128e+00 
-1.991815227538e+01 -1.377169347157e-01 0.0 
-1.377169347157e-01 -9.774950820961e+00 0.0 
0.0 0.0 -8.507930928901e+00 
-1.898380370631e+01 -2.971496196221e-01 0.0 
-2.971496196221e-01 -9.537944185325e+00 0.0 
0.0 0.0 -8.156524367492e+00 
-1.994279151417e+01 -1.592406407854e-01 0.0 
-1.592406407854e-01 -9.832518151485e+00 0.0 
0.0 0.0 -8.532592899695e+00 
-2.575246307873e+01 4.904941533797e+00 0.0 
4.904941533797e+00 -1.321230119958e+01 0.0 
0.0 0.0 -1.128942928349e+01 
-1.850779647797e+01 -3.632831110616e-01 0.0 
-3.632831110616e-01 -9.536733661577e+00 0.0 
0.0 0.0 -8.013359041863e+00 
-1.991044024880e+01 -1.140206024557e-01 0.0 
-1.140206024557e-01 -9.901290135356e+00 0.0 
0.0 0.0 -8.543519115248e+00 
-1.761025481212e+01 1.228859500513e+00 0.0 
1.228859500513e+00 -5.698103814712e+00 0.0 
0.0 0.0 -6.592507588051e+00 
-1.801263991236e+01 -4.030313846779e-01 0.0 
-4.030313846779e-01 -9.387878780943e+00 0.0 
0.0 0.0 -7.820155607992e+00 
-2.000453758374e+01 -1.883229091791e-01 0.0 
-1.883229091791e-01 -9.956674713761e+00 0.0 
0.0 0.0 -8.588363689250e+00 
-2.983660243798e+01 3.074470605430e+00 0.0 
3.074470605430e+00 -1.110037558604e+01 0.0 
0.0 0.0 -1.188109340721e+01 
-1.738366615261e+01 -5.094667212084e-01 0.0 
-5.094667212084e-01 -9.365396347592e+00 0.0 
0.0 0.0 -7.624718750061e+00 
-2.007884042791e+01 -1.996521714063e-01 0.0 
-1.996521714063e-01 -1.005244761275e+01 0.0 
0.0 0.0 -8.639386412199e+00 
-1.665279396736e+01 -5.485392120932e-01 0.0 
-5.485392120932e-01 -9.337386522075e+00 0.0 
0.0 0.0 -7.397054146831e+00 
-2.035665883251e+01 -1.223389963493e-01 0.0 
-1.223389963493e-01 -1.018094354125e+01 0.0 
0.0 0.0 -8.761280712129e+00 
-1.597985885099e+01 -5.188504332250e-01 0.0 
-5.188504332250e-01 -9.234865967336e+00 0.0 
0.0 0.0 -7.164417445496e+00 
-3.710436263580e+01 8.954906015957e+00 0.0 
8.954906015957e+00 -1.313724335236e+01 0.0 
0.0 0.0 -1.467248179645e+01 
-2.094018545106e+01 -4.593377196028e-02 0.0 
-4.593377196028e-02 -1.032408313236e+01 0.0 
0.0 0.0 -8.979280575024e+00 
-1.543227021825e+01 -4.374991928184e-01 0.0 
-4.374991928184e-01 -9.188011347737e+00 0.0 
0.0 0.0 -6.986084469797e+00 
-1.517616726882e+01 -1.977930887133e-01 0.0 
-1.977930887133e-01 -9.259470712440e+00 0.0 
0.0 0.0 -6.930691394379e+00 
-2.182152993608e+01 9.845715186077e-02 0.0 
9.845715186077e-02 -1.048815694725e+01 0.0 
0.0 0.0 -9.292906065000e+00 
-1.561368920048e+01 2.317636821455e-01 0.0 
2.317636821455e-01 -9.210901574783e+00 0.0 
0.0 0.0 -7.047377232580e+00 
-2.320337037958e+01 4.653076430180e-01 0.0 
4.653076430180e-01 -1.066036340409e+01 0.0 
0.0 0.0 -9.759120135100e+00 
-1.725479340180e+01 1.478479678932e+00 0.0 
1.478479678932e+00 -1.059208357797e+01 0.0 
0.0 0.0 -7.954063093931e+00 
-2.536345336500e+01 8.405563037053e-01 0.0 
8.405563037053e-01 -1.086205687030e+01 0.0 
0.0 0.0 -1.046765307059e+01 
-2.872779889649e+01 3.103031055148e+00 0.0 
3.103031055148e+00 6.761010876473e-01 0.0 
0.0 0.0 -7.753167571151e+00 
-2.108210099116e+01 1.434883438797e+00 0.0 
1.434883438797e+00 -9.350035398902e+00 0.0 
0.0 0.0 -8.729640917019e+00 
-2.069531132127e+01 -1.344352825760e+00 0.0 
-1.344352825760e+00 -1.164508552656e+01 0.0 
0.0 0.0 -9.302119054346e+00 
-1.906755019260e+01 1.864583837329e-01 0.0 
1.864583837329e-01 -5.278698680115e+00 0.0 
0.0 0.0 -6.903874661815e+00 
-2.258397153494e+01 -1.656639668065e-01 0.0 
-1.656639668065e-01 -1.550050413952e+01 0.0 
0.0 0.0 -1.102534270234e+01 
-3.923893276482e+01 9.791585358943e+00 0.0 
9.791585358943e+00 -1.112017827217e+01 0.0 
0.0 0.0 -1.470773331110e+01 
-2.779938433994e+01 3.782994911769e-01 0.0 
3.782994911769e-01 -2.811748370376e+01 0.0 
0.0 0.0 -1.637506041311e+01 
-2.847636966300e+01 -3.950154788489e-03 0.0 
-3.950154788489e-03 -2.927543322590e+01 0.0 
0.0 0.0 -1.692554086667e+01 
-2.838185423891e+01 8.496872659936e-03 0.0 
8.496872659936e-03 -2.923728903016e+01 0.0 
0.0 0.0 -1.688574298072e+01 
-2.833161172467e+01 -8.304311010620e-03 0.0 
-8.304311010620e-03 -2.933671489037e+01 0.0 
0.0 0.0 -1.690049798451e+01 
-2.839786838560e+01 -8.134229774659e-02 0.0 
-8.134229774659e-02 -2.934621351871e+01 0.0 
0.0 0.0 -1.692322457129e+01 
-2.852820815864e+01 -1.502822614278e-01 0.0 
-1.502822614278e-01 -2.953858240261e+01 0.0 
0.0 0.0 -1.702003716837e+01 
-2.840464536887e+01 -5.122616157155e-02 0.0 
-5.122616157155e-02 -2.952052619537e+01 0.0 
0.0 0.0 -1.697755146927e+01 
-2.881309372841e+01 -9.719990337138e-02 0.0 
-9.719990337138e-02 -2.950590339164e+01 0.0 
0.0 0.0 -1.709569913602e+01 
-2.835682374168e+01 -1.467089741887e-01 0.0 
-1.467089741887e-01 -2.929749277582e+01 0.0 
0.0 0.0 -1.689629495525e+01 
-2.893348802479e+01 -2.903232472800e-01 0.0 
-2.903232472800e-01 -2.957093422311e+01 0.0 
0.0 0.0 -1.715132667437e+01 
-2.832801888221e+01 -1.515326619950e-01 0.0 
-1.515326619950e-01 -2.939797290357e+01 0.0 
0.0 0.0 -1.691779753573e+01 
-2.922453656174e+01 -2.987160288002e-01 0.0 
-2.987160288002e-01 -2.960736836632e+01 0.0 
0.0 0.0 -1.724957147842e+01 
-3.651975483864e+01 5.204995330552e+00 0.0 
5.204995330552e+00 -3.400994057638e+01 0.0 
0.0 0.0 -2.075890862450e+01 
-2.829576478025e+01 -1.639619127822e-01 0.0 
-1.639619127822e-01 -2.932278910568e+01 0.0 
0.0 0.0 -1.688556616578e+01 
-3.767010342041e+01 2.803602018816e+00 0.0 
2.803602018816e+00 -3.100109577237e+01 0.0 
0.0 0.0 -2.020135975783e+01 
-2.983168372446e+01 -4.242203205706e-01 0.0 
-4.242203205706e-01 -2.976143803418e+01 0.0 
0.0 0.0 -1.747793652759e+01 
-2.824503187518e+01 -1.428185131466e-01 0.0 
-1.428185131466e-01 -2.934867059691e+01 0.0 
0.0 0.0 -1.687811074163e+01 
-2.986725209841e+01 -3.342741769148e-01 0.0 
-3.342741769148e-01 -2.963552801035e+01 0.0 
0.0 0.0 -1.745083403263e+01 
-2.824588720432e+01 -1.416133758597e-01 0.0 
-1.416133758597e-01 -2.918649049511e+01 0.0 
0.0 0.0 -1.682971330983e+01 
-3.049086857938e+01 -4.482541606753e-01 0.0 
-4.482541606753e-01 -2.977388963251e+01 0.0 
0.0 0.0 -1.767942746356e+01 
-2.836999456338e+01 -1.511590830394e-02 0.0 
-1.511590830394e-02 -2.939847392884e+01 0.0 
0.0 0.0 -1.693054054767e+01 
-3.132299179353e+01 -2.816931047217e-01 0.0 
-2.816931047217e-01 -2.993272650377e+01 0.0 
0.0 0.0 -1.797671548919e+01 
-3.238190824950e+01 3.401544670942e+00 0.0 
3.401544670942e+00 -2.723845160081e+01 0.0 
0.0 0.0 -1.748610795509e+01 
-2.865492768192e+01 2.510892538752e-01 0.0 
2.510892538752e-01 -2.954357085654e+01 0.0 
0.0 0.0 -1.705954956154e+01 
-3.230233748012e+01 7.005983267399e-02 0.0 
7.005983267399e-02 -2.999537701945e+01 0.0 
0.0 0.0 -1.828931434987e+01 
-2.920333971799e+01 6.376497739104e-01 0.0 
6.376497739104e-01 -2.960477642187e+01 0.0 
0.0 0.0 -1.724243484196e+01 
-3.364534065968e+01 4.975250848707e-01 0.0 
4.975250848707e-01 -3.015040840813e+01 0.0 
0.0 0.0 -1.873872472034e+01 
-3.534266998864e+01 1.317131402166e+00 0.0 
1.317131402166e+00 -3.046001929071e+01 0.0 
0.0 0.0 -1.934080678381e+01 
-3.019543523595e+01 1.283613757337e+00 0.0 
1.283613757337e+00 -3.002726931362e+01 0.0 
0.0 0.0 -1.766681136487e+01 
-3.188094791667e+01 2.432441204216e+00 0.0 
2.432441204216e+00 -3.090804432396e+01 0.0 
0.0 0.0 -1.843669767219e+01 
-4.203583603022e+01 6.224271898571e+00 0.0 
6.224271898571e+00 -3.484703022890e+01 0.0 
0.0 0.0 -2.266485987774e+01 
-3.653113309199e+01 4.076810488622e+00 0.0 
4.076810488622e+00 -2.373345564101e+01 0.0 
0.0 0.0 -1.767937661990e+01 
-2.785158650512e+01 1.242131802605e+00 0.0 
1.242131802605e+00 -2.949677909132e+01 0.0 
0.0 0.0 -1.680450967893e+01 
-2.809039777245e+01 -1.586343021275e+00 0.0 
-1.586343021275e+00 -2.807684092745e+01 0.0 
0.0 0.0 -1.645017160997e+01 
-2.990874114029e+01 -1.015967577385e-01 0.0 
-1.015967577385e-01 -3.397466331632e+01 0.0 
0.0 0.0 -1.876502133698e+01 
-2.613635100551e+01 -3.026524191504e-01 0.0 
-3.026524191504e-01 -2.378938957085e+01 0.0 
0.0 0.0 -1.457772217290e+01 
-3.726015041973e+01 7.350811598671e+00 0.0 
7.350811598671e+00 -2.842198754344e+01 0.0 
0.0 0.0 -1.930464138895e+01 

TENSORS element_materi_strain_total float
-1.287932139735e-03 2.713334338531e-03 0.0 
2.713334338531e-03 6.426596500488e-03 0.0 
0.0 0.0 0.0 
-1.212544693170e-03 2.407312711525e-03 0.0 
2.407312711525e-03 6.210404037996e-03 0.0 
0.0 0.0 0.0 
-3.070145254825e-04 2.706148842870e-03 0.0 
2.706148842870e-03 1.331484189294e-02 0.0 
0.0 0.0 0.0 
-3.657652427800e-04 2.421812877178e-04 0.0 
2.421812877178e-04 1.542771165063e-02 0.0 
0.0 0.0 0.0 
-1.240384658019e-03 1.479940884634e-04 0.0 
1.479940884634e-04 1.308165702021e-02 0.0 
0.0 0.0 0.0 
7.855432803991e-04 2.958500589864e-03 0.0 
2.958500589864e-03 -3.153071260000e-03 0.0 
0.0 0.0 0.0 
-1.152555205606e-03 1.153511633379e-04 0.0 
1.153511633379e-04 1.306945470811e-02 0.0 
0.0 0.0 0.0 
-1.267676860651e-03 2.810875437303e-03 0.0 
2.810875437303e-03 5.663344660622e-03 0.0 
0.0 0.0 0.0 
-1.233859615911e-03 5.491097200834e-05 0.0 
5.491097200834e-05 1.307613395582e-02 0.0 
0.0 0.0 0.0 
-3.559411308676e-04 4.649211433508e-04 0.0 
4.649211433508e-04 1.539473201150e-02 0.0 
0.0 0.0 0.0 
1.118301315590e-04 -7.348708488944e-05 0.0 
-7.348708488944e-05 4.738244115494e-03 0.0 
0.0 0.0 0.0 
-1.261596216829e-03 2.472469413086e-03 0.0 
2.472469413086e-03 5.423742328987e-03 0.0 
0.0 0.0 0.0 
4.567507191533e-05 4.164243683940e-05 0.0 
4.164243683940e-05 7.120883600566e-03 0.0 
0.0 0.0 0.0 
-1.501075955691e-03 4.939785665797e-04 0.0 
4.939785665797e-04 1.339724041215e-02 0.0 
0.0 0.0 0.0 
2.768830560962e-05 -6.226001251939e-06 0.0 
-6.226001251939e-06 7.289875699881e-03 0.0 
0.0 0.0 0.0 
-2.198931601874e-04 3.808395757420e-04 0.0 
3.808395757420e-04 1.552234327411e-02 0.0 
0.0 0.0 0.0 
-1.359142907527e-03 1.829113100374e-04 0.0 
1.829113100374e-04 1.298420084620e-02 0.0 
0.0 0.0 0.0 
1.200560985483e-03 1.450099107536e-03 0.0 
1.450099107536e-03 -3.533569908844e-03 0.0 
0.0 0.0 0.0 
1.921134159202e-04 -9.485790711710e-05 0.0 
-9.485790711710e-05 1.363468914352e-03 0.0 
0.0 0.0 0.0 
1.113115412950e-04 -8.570992028932e-05 0.0 
-8.570992028932e-05 1.460412086165e-03 0.0 
0.0 0.0 0.0 
-4.374682503756e-04 4.345385487830e-04 0.0 
4.345385487830e-04 1.540042204110e-02 0.0 
0.0 0.0 0.0 
-1.207676781178e-03 2.348210977601e-03 0.0 
2.348210977601e-03 7.527824073615e-03 0.0 
0.0 0.0 0.0 
-1.339125710844e-03 2.500227757465e-03 0.0 
2.500227757465e-03 8.072968109201e-03 0.0 
0.0 0.0 0.0 
8.082955664197e-04 1.063425858402e-03 0.0 
1.063425858402e-03 6.226734382057e-03 0.0 
0.0 0.0 0.0 
-1.586269118398e-03 9.296128961775e-04 0.0 
9.296128961775e-04 1.355023615540e-02 0.0 
0.0 0.0 0.0 
1.073003917251e-04 -1.038998856595e-04 0.0 
-1.038998856595e-04 4.960805038891e-03 0.0 
0.0 0.0 0.0 
-1.658348746050e-03 5.985608927425e-04 0.0 
5.985608927425e-04 1.254043839721e-02 0.0 
0.0 0.0 0.0 
3.044579900160e-04 3.178106817674e-03 0.0 
3.178106817674e-03 9.721371448458e-03 0.0 
0.0 0.0 0.0 
-1.794285649460e-03 1.045324388473e-03 0.0 
1.045324388473e-03 1.354067025142e-02 0.0 
0.0 0.0 0.0 
7.124189624843e-04 1.049433857024e-03 0.0 
1.049433857024e-03 6.486217600619e-03 0.0 
0.0 0.0 0.0 
8.759900352664e-04 -2.528790223878e-03 0.0 
-2.528790223878e-03 -2.145556728924e-03 0.0 
0.0 0.0 0.0 
9.177211253530e-05 -2.048656642880e-04 0.0 
-2.048656642880e-04 3.359484075958e-04 0.0 
0.0 0.0 0.0 
-5.251952487194e-04 2.811214084983e-03 0.0 
2.811214084983e-03 1.347957314467e-02 0.0 
0.0 0.0 0.0 
8.285333420432e-05 -3.216160458221e-05 0.0 
-3.216160458221e-05 6.020966051202e-03 0.0 
0.0 0.0 0.0 
3.343653430601e-04 3.145474200449e-04 0.0 
3.145474200449e-04 6.716696910414e-03 0.0 
0.0 0.0 0.0 
7.387932698388e-05 1.952772242826e-04 0.0 
1.952772242826e-04 7.383645194202e-03 0.0 
0.0 0.0 0.0 
7.417506099139e-05 4.945450603273e-05 0.0 
4.945450603273e-05 7.374652329958e-03 0.0 
0.0 0.0 0.0 
6.719027192141e-04 2.132330472331e-03 0.0 
2.132330472331e-03 7.403663007963e-03 0.0 
0.0 0.0 0.0 
-1.146950123595e-03 -2.813576290426e-05 0.0 
-2.813576290426e-05 1.264230717615e-02 0.0 
0.0 0.0 0.0 
-1.107352171405e-03 7.027401783809e-05 0.0 
7.027401783809e-05 1.265816693767e-02 0.0 
0.0 0.0 0.0 
-1.561008110208e-03 2.373391662881e-03 0.0 
2.373391662881e-03 9.725261770490e-03 0.0 
0.0 0.0 0.0 
2.768030483795e-04 5.908736421924e-04 0.0 
5.908736421924e-04 6.804891092761e-03 0.0 
0.0 0.0 0.0 
-1.300264378356e-03 2.869664681174e-03 0.0 
2.869664681174e-03 4.046955153571e-03 0.0 
0.0 0.0 0.0 
-1.823180857903e-03 6.204493283174e-04 0.0 
6.204493283174e-04 1.265386402038e-02 0.0 
0.0 0.0 0.0 
-4.840502972404e-04 7.991098008885e-05 0.0 
7.991098008885e-05 1.527216228788e-02 0.0 
0.0 0.0 0.0 
-1.398650845506e-03 2.844897192807e-03 0.0 
2.844897192807e-03 4.044903149604e-03 0.0 
0.0 0.0 0.0 
8.927221547383e-04 -2.427743865258e-03 0.0 
-2.427743865258e-03 -2.841045652810e-03 0.0 
0.0 0.0 0.0 
-3.313126382811e-04 1.557116507992e-04 0.0 
1.557116507992e-04 1.528916750125e-02 0.0 
0.0 0.0 0.0 
-5.094649976325e-04 -2.132916140949e-03 0.0 
-2.132916140949e-03 -1.135303021568e-03 0.0 
0.0 0.0 0.0 
-1.583867198161e-03 3.844550325584e-04 0.0 
3.844550325584e-04 1.325728688877e-02 0.0 
0.0 0.0 0.0 
-1.415849583685e-03 2.475967259244e-03 0.0 
2.475967259244e-03 8.846777555405e-03 0.0 
0.0 0.0 0.0 
1.092297644278e-04 -9.795879548100e-05 0.0 
-9.795879548100e-05 1.790912928653e-03 0.0 
0.0 0.0 0.0 
1.849180921712e-03 -2.201845031030e-03 0.0 
-2.201845031030e-03 -2.745850557226e-03 0.0 
0.0 0.0 0.0 
-1.363886666141e-03 2.221876635673e-03 0.0 
2.221876635673e-03 9.018302567344e-03 0.0 
0.0 0.0 0.0 
-3.831913565633e-04 2.147986286432e-03 0.0 
2.147986286432e-03 1.442196666967e-02 0.0 
0.0 0.0 0.0 
8.101160708707e-06 -2.247665121006e-04 0.0 
-2.247665121006e-04 2.400295700288e-03 0.0 
0.0 0.0 0.0 
4.978558220126e-05 -9.070901746822e-05 0.0 
-9.070901746822e-05 1.876529916961e-03 0.0 
0.0 0.0 0.0 
9.798011506978e-05 -1.270077935116e-06 0.0 
-1.270077935116e-06 6.021813566998e-03 0.0 
0.0 0.0 0.0 
2.287621891368e-04 -1.861397074849e-04 0.0 
-1.861397074849e-04 9.716484012847e-04 0.0 
0.0 0.0 0.0 
-2.598698214182e-04 3.492431348229e-04 0.0 
3.492431348229e-04 1.552279513023e-02 0.0 
0.0 0.0 0.0 
-8.704020494698e-04 -1.996103358319e-03 0.0 
-1.996103358319e-03 -3.452847631155e-03 0.0 
0.0 0.0 0.0 
7.272630752122e-04 2.687412332741e-03 0.0 
2.687412332741e-03 8.080686227215e-03 0.0 
0.0 0.0 0.0 
-4.683193551325e-05 2.920912812648e-03 0.0 
2.920912812648e-03 5.263259319759e-03 0.0 
0.0 0.0 0.0 
1.691492809128e-03 -2.145516310480e-03 0.0 
-2.145516310480e-03 -2.327278342646e-03 0.0 
0.0 0.0 0.0 
6.522462403424e-05 2.411019879955e-06 0.0 
2.411019879955e-06 7.062724265937e-03 0.0 
0.0 0.0 0.0 
-1.279355909551e-03 2.272566089929e-03 0.0 
2.272566089929e-03 8.259523216771e-03 0.0 
0.0 0.0 0.0 
2.859703844487e-04 -7.992481809012e-04 0.0 
-7.992481809012e-04 -4.872194754653e-03 0.0 
0.0 0.0 0.0 
-5.154261512705e-04 2.931189057481e-03 0.0 
2.931189057481e-03 1.314649487693e-02 0.0 
0.0 0.0 0.0 
-4.184194767135e-04 -1.509758706845e-03 0.0 
-1.509758706845e-03 8.036230460344e-04 0.0 
0.0 0.0 0.0 
-5.548221766105e-05 3.098931381738e-03 0.0 
3.098931381738e-03 1.148562206972e-02 0.0 
0.0 0.0 0.0 
1.399779034481e-04 -1.309638946171e-04 0.0 
-1.309638946171e-04 5.139464485770e-03 0.0 
0.0 0.0 0.0 
0.0 1.413707427483e-03 0.0 
1.413707427483e-03 1.532681909333e-02 0.0 
0.0 0.0 0.0 
2.644692289235e-04 2.880960197995e-03 0.0 
2.880960197995e-03 9.358966641415e-03 0.0 
0.0 0.0 0.0 
4.940688104476e-04 -5.435316290846e-06 0.0 
-5.435316290846e-06 2.812113766906e-04 0.0 
0.0 0.0 0.0 
-1.033189919486e-05 -1.897195109447e-04 0.0 
-1.897195109447e-04 2.521241092592e-03 0.0 
0.0 0.0 0.0 
-5.223789600142e-04 1.013391031224e-03 0.0 
1.013391031224e-03 1.530917215843e-02 0.0 
0.0 0.0 0.0 
-6.434027636212e-04 2.351028047802e-03 0.0 
2.351028047802e-03 1.426607744268e-02 0.0 
0.0 0.0 0.0 
-1.255946515441e-03 3.025350364467e-03 0.0 
3.025350364467e-03 2.407021135475e-03 0.0 
0.0 0.0 0.0 
1.121287025621e-04 -1.980571699793e-04 0.0 
-1.980571699793e-04 1.050592645714e-03 0.0 
0.0 0.0 0.0 
-1.201369416091e-03 3.055543028827e-03 0.0 
3.055543028827e-03 2.408276131326e-03 0.0 
0.0 0.0 0.0 
-5.890178701461e-04 -1.744060662979e-03 0.0 
-1.744060662979e-03 8.407169141569e-04 0.0 
0.0 0.0 0.0 
-1.361531642907e-03 1.574446928472e-04 0.0 
1.574446928472e-04 1.301259231876e-02 0.0 
0.0 0.0 0.0 
-1.335495159425e-03 2.589788674470e-03 0.0 
2.589788674470e-03 7.323915687961e-03 0.0 
0.0 0.0 0.0 
-1.226570606119e-03 2.310337765911e-03 0.0 
2.310337765911e-03 6.869522817093e-03 0.0 
0.0 0.0 0.0 
-1.309254852836e-03 1.288725508140e-04 0.0 
1.288725508140e-04 1.330363568345e-02 0.0 
0.0 0.0 0.0 
-1.192429307066e-03 1.645975852111e-04 0.0 
1.645975852111e-04 1.330326934043e-02 0.0 
0.0 0.0 0.0 
1.073535589804e-04 -8.088773262095e-05 0.0 
-8.088773262095e-05 5.361067155550e-03 0.0 
0.0 0.0 0.0 
9.134455148763e-05 1.549275547776e-05 0.0 
1.549275547776e-05 5.848566686912e-03 0.0 
0.0 0.0 0.0 
-9.593851344304e-04 2.565517620151e-03 0.0 
2.565517620151e-03 1.230870715034e-02 0.0 
0.0 0.0 0.0 
-1.345306040203e-03 1.078807115954e-04 0.0 
1.078807115954e-04 1.307403035464e-02 0.0 
0.0 0.0 0.0 
-3.020977487157e-04 -2.647926830551e-04 0.0 
-2.647926830551e-04 5.169255736317e-04 0.0 
0.0 0.0 0.0 
-1.825093464136e-03 7.694661592335e-04 0.0 
7.694661592335e-04 1.297518566766e-02 0.0 
0.0 0.0 0.0 
-7.567886351858e-04 8.977051598609e-05 0.0 
8.977051598609e-05 1.452467233671e-02 0.0 
0.0 0.0 0.0 
-8.394267269097e-04 1.590528661023e-04 0.0 
1.590528661023e-04 1.447230406130e-02 0.0 
0.0 0.0 0.0 
-3.509150372407e-04 1.565278546069e-03 0.0 
1.565278546069e-03 1.526860701083e-02 0.0 
0.0 0.0 0.0 
3.309191594096e-04 2.298435996704e-03 0.0 
2.298435996704e-03 8.024929452828e-03 0.0 
0.0 0.0 0.0 
-1.476490883242e-03 1.994550238435e-04 0.0 
1.994550238435e-04 1.302354078049e-02 0.0 
0.0 0.0 0.0 
4.324903618200e-04 5.163224208602e-04 0.0 
5.163224208602e-04 6.837177169772e-03 0.0 
0.0 0.0 0.0 
-9.790513807668e-04 9.727352714726e-07 0.0 
9.727352714726e-07 1.362465785855e-02 0.0 
0.0 0.0 0.0 
-4.999642954218e-04 2.859426879973e-03 0.0 
2.859426879973e-03 5.911657129936e-03 0.0 
0.0 0.0 0.0 
-1.259428022026e-03 6.479927455958e-05 0.0 
6.479927455958e-05 1.286966867425e-02 0.0 
0.0 0.0 0.0 
2.993377620597e-05 5.082412422460e-05 0.0 
5.082412422460e-05 7.286306618837e-03 0.0 
0.0 0.0 0.0 
1.238025244937e-03 2.202498953034e-03 0.0 
2.202498953034e-03 6.296819804918e-03 0.0 
0.0 0.0 0.0 
6.168286615009e-04 2.577685361726e-03 0.0 
2.577685361726e-03 8.098836116875e-03 0.0 
0.0 0.0 0.0 
2.606924182831e-04 2.922770306326e-03 0.0 
2.922770306326e-03 3.544958434284e-03 0.0 
0.0 0.0 0.0 
-5.359425134093e-04 -2.973249120577e-03 0.0 
-2.973249120577e-03 -1.332295289155e-03 0.0 
0.0 0.0 0.0 
6.142791678165e-05 -2.820007840596e-05 0.0 
-2.820007840596e-05 6.657523380784e-03 0.0 
0.0 0.0 0.0 
-7.322300064619e-04 1.844261775332e-04 0.0 
1.844261775332e-04 1.478706289337e-02 0.0 
0.0 0.0 0.0 
-1.145246924436e-03 -3.065392628009e-03 0.0 
-3.065392628009e-03 -2.049129577630e-03 0.0 
0.0 0.0 0.0 
8.034014767611e-05 7.173768735689e-05 0.0 
7.173768735689e-05 7.129575529069e-03 0.0 
0.0 0.0 0.0 
-8.161031057433e-04 2.538551177992e-03 0.0 
2.538551177992e-03 1.175063469658e-02 0.0 
0.0 0.0 0.0 
6.138528467887e-04 8.741992397787e-06 0.0 
8.741992397787e-06 6.568067660129e-05 0.0 
0.0 0.0 0.0 
1.158785153553e-03 2.748377294856e-03 0.0 
2.748377294856e-03 3.516053627550e-03 0.0 
0.0 0.0 0.0 
-2.006821322556e-03 1.494694643200e-03 0.0 
1.494694643200e-03 1.215864729181e-02 0.0 
0.0 0.0 0.0 
3.484149532218e-05 -3.346087525923e-04 0.0 
-3.346087525923e-04 3.006853654540e-03 0.0 
0.0 0.0 0.0 
-3.692886221693e-04 2.843154621721e-03 0.0 
2.843154621721e-03 5.076017214742e-03 0.0 
0.0 0.0 0.0 
-6.306008926082e-05 2.856363815776e-03 0.0 
2.856363815776e-03 5.268118787370e-03 0.0 
0.0 0.0 0.0 
1.991984334004e-04 3.181656630972e-04 0.0 
3.181656630972e-04 6.965234924408e-03 0.0 
0.0 0.0 0.0 
-1.005434472532e-03 6.499709933745e-05 0.0 
6.499709933745e-05 1.350132084696e-02 0.0 
0.0 0.0 0.0 
8.226054587213e-05 2.993910395528e-03 0.0 
2.993910395528e-03 4.403879623317e-03 0.0 
0.0 0.0 0.0 
-2.986830564464e-04 -8.891232901915e-04 0.0 
-8.891232901915e-04 1.087841255016e-03 0.0 
0.0 0.0 0.0 
-1.786461855986e-03 9.092099793166e-04 0.0 
9.092099793166e-04 1.272005071662e-02 0.0 
0.0 0.0 0.0 
-6.145042824586e-04 1.238927485017e-04 0.0 
1.238927485017e-04 1.480562274928e-02 0.0 
0.0 0.0 0.0 
8.954479572720e-05 2.866361477144e-03 0.0 
2.866361477144e-03 4.410002789504e-03 0.0 
0.0 0.0 0.0 
-1.043641410832e-03 3.167271260809e-03 0.0 
3.167271260809e-03 5.765623062690e-04 0.0 
0.0 0.0 0.0 
-1.871298383442e-03 2.019988132338e-03 0.0 
2.019988132338e-03 1.114414469894e-02 0.0 
0.0 0.0 0.0 
-2.481255525377e-06 -3.011268981530e-04 0.0 
-3.011268981530e-04 2.977680683752e-03 0.0 
0.0 0.0 0.0 
-1.666362185323e-03 1.895991740866e-03 0.0 
1.895991740866e-03 1.057796160846e-02 0.0 
0.0 0.0 0.0 
-2.880219923408e-04 1.197144859631e-03 0.0 
1.197144859631e-03 1.531130191061e-02 0.0 
0.0 0.0 0.0 
-1.550742277946e-04 3.448156451198e-03 0.0 
3.448156451198e-03 -6.883198695193e-04 0.0 
0.0 0.0 0.0 
1.467066219836e-04 -1.018383527696e-04 0.0 
-1.018383527696e-04 4.957456870916e-03 0.0 
0.0 0.0 0.0 
-3.280512997774e-04 2.763945168902e-04 0.0 
2.763945168902e-04 1.542872128618e-02 0.0 
0.0 0.0 0.0 
-5.857865208068e-04 2.776971123338e-03 0.0 
2.776971123338e-03 7.816676386103e-03 0.0 
0.0 0.0 0.0 
-1.746609085937e-03 2.180873857901e-03 0.0 
2.180873857901e-03 1.046099571758e-02 0.0 
0.0 0.0 0.0 
4.029887219692e-04 4.179647215122e-04 0.0 
4.179647215122e-04 6.718768296622e-03 0.0 
0.0 0.0 0.0 
3.655705858452e-05 -3.077665174642e-05 0.0 
-3.077665174642e-05 7.134786764532e-03 0.0 
0.0 0.0 0.0 
1.426353382648e-04 -6.297670975963e-05 0.0 
-6.297670975963e-05 5.361545719857e-03 0.0 
0.0 0.0 0.0 
-7.573004602884e-04 2.776075727182e-03 0.0 
2.776075727182e-03 8.642360454433e-03 0.0 
0.0 0.0 0.0 
5.985144835154e-04 9.991683991232e-04 0.0 
9.991683991232e-04 6.870922712648e-03 0.0 
0.0 0.0 0.0 
-9.163037480795e-04 2.636700781290e-03 0.0 
2.636700781290e-03 8.424505818216e-03 0.0 
0.0 0.0 0.0 
-2.636761036863e-04 7.751732680205e-04 0.0 
7.751732680205e-04 1.541763572610e-02 0.0 
0.0 0.0 0.0 
-1.132307909308e-04 3.288529470815e-03 0.0 
3.288529470815e-03 1.169715081487e-02 0.0 
0.0 0.0 0.0 
-1.678582187199e-03 5.408118116605e-04 0.0 
5.408118116605e-04 1.340830973991e-02 0.0 
0.0 0.0 0.0 
-9.453322640294e-04 2.123933590388e-04 0.0 
2.123933590388e-04 1.411353319878e-02 0.0 
0.0 0.0 0.0 
-9.148566922602e-04 2.729652393200e-03 0.0 
2.729652393200e-03 8.420598831236e-03 0.0 
0.0 0.0 0.0 
-1.596690339646e-03 2.116621346410e-03 0.0 
2.116621346410e-03 9.803716825789e-03 0.0 
0.0 0.0 0.0 
-4.588905908878e-04 2.808113842847e-03 0.0 
2.808113842847e-03 8.072792029684e-03 0.0 
0.0 0.0 0.0 
6.173740654756e-04 2.861233557699e-03 0.0 
2.861233557699e-03 3.789729419492e-03 0.0 
0.0 0.0 0.0 
-1.173130066797e-03 2.832621692290e-05 0.0 
2.832621692290e-05 1.290850812906e-02 0.0 
0.0 0.0 0.0 
1.269619273282e-03 2.546447442665e-03 0.0 
2.546447442665e-03 3.540392527846e-03 0.0 
0.0 0.0 0.0 
-3.181242724060e-05 -1.543819735672e-04 0.0 
-1.543819735672e-04 4.129488053184e-04 0.0 
0.0 0.0 0.0 
-1.058353499088e-03 2.022111896159e-05 0.0 
2.022111896159e-05 1.319082534362e-02 0.0 
0.0 0.0 0.0 
1.910649363890e-04 -7.407428739368e-05 0.0 
-7.407428739368e-05 1.046958185181e-03 0.0 
0.0 0.0 0.0 
-1.965097968979e-03 1.748696786406e-03 0.0 
1.748696786406e-03 1.167375404806e-02 0.0 
0.0 0.0 0.0 
3.302730404680e-04 8.914942687711e-04 0.0 
8.914942687711e-04 6.833865110555e-03 0.0 
0.0 0.0 0.0 
1.950100786399e-04 3.060386043109e-03 0.0 
3.060386043109e-03 3.534879393058e-03 0.0 
0.0 0.0 0.0 
1.100171036743e-04 -1.547924889090e-05 0.0 
-1.547924889090e-05 5.603328134020e-03 0.0 
0.0 0.0 0.0 
-1.371693598406e-03 2.687653593381e-03 0.0 
2.687653593381e-03 4.818463468430e-03 0.0 
0.0 0.0 0.0 
1.280837466864e-03 2.370045784329e-03 0.0 
2.370045784329e-03 6.281584409238e-03 0.0 
0.0 0.0 0.0 
-1.087404979308e-03 2.658117198192e-05 0.0 
2.658117198192e-05 1.292689468787e-02 0.0 
0.0 0.0 0.0 
1.390567568424e-03 2.685622270124e-03 0.0 
2.685622270124e-03 2.599855535044e-03 0.0 
0.0 0.0 0.0 
8.502137466460e-05 -4.513585070342e-05 0.0 
-4.513585070342e-05 6.209885717185e-03 0.0 
0.0 0.0 0.0 
-6.212287529271e-04 -1.069174441393e-03 0.0 
-1.069174441393e-03 1.124740369870e-03 0.0 
0.0 0.0 0.0 
8.136544111892e-05 2.712808857877e-05 0.0 
2.712808857877e-05 6.651620958205e-03 0.0 
0.0 0.0 0.0 
-1.592332833879e-03 1.983405725977e-03 0.0 
1.983405725977e-03 1.141129577291e-02 0.0 
0.0 0.0 0.0 
1.052939332926e-04 5.712313900549e-05 0.0 
5.712313900549e-05 7.138075499958e-03 0.0 
0.0 0.0 0.0 
-1.057093042175e-03 1.304056397757e-05 0.0 
1.304056397757e-05 1.288916995584e-02 0.0 
0.0 0.0 0.0 
6.912660866831e-04 2.947088415051e-03 0.0 
2.947088415051e-03 2.826365395537e-03 0.0 
0.0 0.0 0.0 
-1.802432146854e-03 1.329200453440e-03 0.0 
1.329200453440e-03 1.182988239953e-02 0.0 
0.0 0.0 0.0 
7.989574056522e-05 -7.684130428502e-05 0.0 
-7.684130428502e-05 4.743685090077e-03 0.0 
0.0 0.0 0.0 
-1.350803334117e-03 2.833400315454e-03 0.0 
2.833400315454e-03 4.858791359324e-03 0.0 
0.0 0.0 0.0 
1.536355340737e-03 2.402551897971e-03 0.0 
2.402551897971e-03 2.637557613290e-03 0.0 
0.0 0.0 0.0 
-9.321500740268e-04 1.461757012861e-04 0.0 
1.461757012861e-04 1.429781544011e-02 0.0 
0.0 0.0 0.0 
-1.104458071838e-03 5.005354813513e-05 0.0 
5.005354813513e-05 1.290456583644e-02 0.0 
0.0 0.0 0.0 
9.613413804521e-04 2.837710652471e-03 0.0 
2.837710652471e-03 3.127574144700e-03 0.0 
0.0 0.0 0.0 
-1.783585953980e-03 1.578231016964e-03 0.0 
1.578231016964e-03 1.131446298754e-02 0.0 
0.0 0.0 0.0 
-1.750273006057e-04 2.901941460679e-03 0.0 
2.901941460679e-03 1.072138968049e-02 0.0 
0.0 0.0 0.0 
3.457664019435e-05 -3.421238433856e-04 0.0 
-3.421238433856e-04 3.270964405932e-03 0.0 
0.0 0.0 0.0 
2.266244810392e-04 2.961210690402e-03 0.0 
2.961210690402e-03 9.472991726196e-03 0.0 
0.0 0.0 0.0 
-7.027732924891e-05 3.309043915043e-03 0.0 
3.309043915043e-03 1.126275310593e-02 0.0 
0.0 0.0 0.0 
-8.531614591157e-04 2.793806720285e-03 0.0 
2.793806720285e-03 5.781541516284e-03 0.0 
0.0 0.0 0.0 
4.951935363229e-05 -2.686609656767e-04 0.0 
-2.686609656767e-04 3.357595430491e-03 0.0 
0.0 0.0 0.0 
1.127323094725e-03 1.260914830133e-03 0.0 
1.260914830133e-03 5.821296398326e-03 0.0 
0.0 0.0 0.0 
-1.246693598908e-03 2.585896467992e-03 0.0 
2.585896467992e-03 9.060274689878e-03 0.0 
0.0 0.0 0.0 
-7.606076066561e-04 2.708914849871e-03 0.0 
2.708914849871e-03 4.967520800350e-03 0.0 
0.0 0.0 0.0 
-1.755353447268e-03 1.596972824736e-03 0.0 
1.596972824736e-03 1.183884009073e-02 0.0 
0.0 0.0 0.0 
8.641023491103e-04 2.775704056520e-03 0.0 
2.775704056520e-03 4.087570360835e-03 0.0 
0.0 0.0 0.0 
-2.356268075470e-04 5.662542997417e-04 0.0 
5.662542997417e-04 1.544969533077e-02 0.0 
0.0 0.0 0.0 
-1.065868864313e-03 2.260716662654e-03 0.0 
2.260716662654e-03 1.266657337621e-02 0.0 
0.0 0.0 0.0 
7.603188897409e-05 2.121059597639e-05 0.0 
2.121059597639e-05 6.455409532523e-03 0.0 
0.0 0.0 0.0 
-1.374115633995e-03 2.966662612583e-03 0.0 
2.966662612583e-03 3.261011253232e-03 0.0 
0.0 0.0 0.0 
1.818563493625e-03 2.207363848141e-03 0.0 
2.207363848141e-03 1.723339255310e-03 0.0 
0.0 0.0 0.0 
-8.560084118074e-04 2.469714640937e-03 0.0 
2.469714640937e-03 1.233156779673e-02 0.0 
0.0 0.0 0.0 
-2.759169514861e-03 2.274655376353e-03 0.0 
2.274655376353e-03 -2.455044434409e-03 0.0 
0.0 0.0 0.0 
-1.245356825433e-03 2.428046763518e-03 0.0 
2.428046763518e-03 9.063285939395e-03 0.0 
0.0 0.0 0.0 
1.297970905374e-03 7.305500568236e-04 0.0 
7.305500568236e-04 4.970509107455e-03 0.0 
0.0 0.0 0.0 
2.963513912260e-04 -1.745388573874e-04 0.0 
-1.745388573874e-04 6.330855112437e-04 0.0 
0.0 0.0 0.0 
-4.968215484089e-04 2.479165313290e-03 0.0 
2.479165313290e-03 1.389522733061e-02 0.0 
0.0 0.0 0.0 
-1.510325268742e-03 1.495483691555e-03 0.0 
1.495483691555e-03 1.340132670195e-02 0.0 
0.0 0.0 0.0 
9.017793199864e-04 -1.211941270076e-03 0.0 
-1.211941270076e-03 2.052660396314e-03 0.0 
0.0 0.0 0.0 
1.459658793121e-03 9.110484811217e-04 0.0 
9.110484811217e-04 4.958049342607e-03 0.0 
0.0 0.0 0.0 
-1.843837615872e-03 1.015098126274e-03 0.0 
1.015098126274e-03 1.304538109108e-02 0.0 
0.0 0.0 0.0 
-1.754090963079e-03 8.116283246642e-04 0.0 
8.116283246642e-04 1.351471761458e-02 0.0 
0.0 0.0 0.0 
5.976489836883e-04 9.441471274243e-04 0.0 
9.441471274243e-04 6.460666142342e-03 0.0 
0.0 0.0 0.0 
1.356762818889e-04 -1.221596640319e-03 0.0 
-1.221596640319e-03 1.936894610507e-03 0.0 
0.0 0.0 0.0 
-1.272951523938e-04 2.867661832623e-03 0.0 
2.867661832623e-03 7.514382166500e-03 0.0 
0.0 0.0 0.0 
-1.357590336428e-03 2.277314711773e-03 0.0 
2.277314711773e-03 1.093267258921e-02 0.0 
0.0 0.0 0.0 
-1.614051783999e-03 1.521395218329e-03 0.0 
1.521395218329e-03 1.371522996227e-02 0.0 
0.0 0.0 0.0 
-1.748038678110e-03 2.010139665971e-03 0.0 
2.010139665971e-03 1.196130834830e-02 0.0 
0.0 0.0 0.0 
-1.855960274217e-03 1.903986680367e-03 0.0 
1.903986680367e-03 1.184058421174e-02 0.0 
0.0 0.0 0.0 
1.620527297780e-03 1.940897880247e-03 0.0 
1.940897880247e-03 5.011419196008e-03 0.0 
0.0 0.0 0.0 
-4.330238969437e-04 2.814771371894e-03 0.0 
2.814771371894e-03 1.104825284560e-02 0.0 
0.0 0.0 0.0 
-9.398922670186e-04 2.135879749462e-03 0.0 
2.135879749462e-03 -3.113774140281e-03 0.0 
0.0 0.0 0.0 
-7.768410809998e-04 2.762884535003e-03 0.0 
2.762884535003e-03 5.777470215290e-03 0.0 
0.0 0.0 0.0 
-4.468037308016e-04 2.818369170923e-03 0.0 
2.818369170923e-03 5.917994725352e-03 0.0 
0.0 0.0 0.0 
-4.086369036265e-04 2.845926740324e-03 0.0 
2.845926740324e-03 8.067416793662e-03 0.0 
0.0 0.0 0.0 
-1.185220926115e-03 2.269584097823e-03 0.0 
2.269584097823e-03 1.312961876363e-02 0.0 
0.0 0.0 0.0 
1.886250580662e-03 2.405757354985e-03 0.0 
2.405757354985e-03 -3.250314591052e-03 0.0 
0.0 0.0 0.0 
1.331464548422e-03 4.787188040569e-04 0.0 
4.787188040569e-04 4.612993716288e-03 0.0 
0.0 0.0 0.0 
-1.131769525836e-03 -2.843484699226e-06 0.0 
-2.843484699226e-06 1.287873632278e-02 0.0 
0.0 0.0 0.0 
1.632600625517e-03 2.567225203344e-03 0.0 
2.567225203344e-03 1.673587607979e-03 0.0 
0.0 0.0 0.0 
1.318166444726e-03 2.355018260721e-04 0.0 
2.355018260721e-04 4.319451471332e-03 0.0 
0.0 0.0 0.0 
2.168924637345e-04 -1.354786585275e-04 0.0 
-1.354786585275e-04 4.024498822151e-04 0.0 
0.0 0.0 0.0 
-1.341396489919e-03 1.679346409602e-03 0.0 
1.679346409602e-03 1.359291168308e-02 0.0 
0.0 0.0 0.0 
3.446909828748e-04 -1.463938634817e-04 0.0 
-1.463938634817e-04 2.138129694593e-04 0.0 
0.0 0.0 0.0 
1.722087268967e-04 -1.460822093911e-04 0.0 
-1.460822093911e-04 6.915051944629e-04 0.0 
0.0 0.0 0.0 
-1.244303331984e-03 2.966731290805e-03 0.0 
2.966731290805e-03 3.260931661409e-03 0.0 
0.0 0.0 0.0 
-7.668305038266e-05 -1.215979660835e-03 0.0 
-1.215979660835e-03 1.721770441689e-03 0.0 
0.0 0.0 0.0 
-1.427970744357e-03 1.685135659909e-03 0.0 
1.685135659909e-03 1.391783574174e-02 0.0 
0.0 0.0 0.0 
-1.294489419144e-04 -1.343616544448e-03 0.0 
-1.343616544448e-03 1.477647569710e-03 0.0 
0.0 0.0 0.0 
6.447666821341e-06 3.284199595283e-03 0.0 
3.284199595283e-03 1.479791167490e-03 0.0 
0.0 0.0 0.0 
5.956210109825e-04 -2.711409600754e-03 0.0 
-2.711409600754e-03 -1.131303423200e-03 0.0 
0.0 0.0 0.0 
-4.915844005976e-04 -9.454154463039e-04 0.0 
-9.454154463039e-04 1.278295928477e-03 0.0 
0.0 0.0 0.0 
1.364463279150e-03 1.145985182714e-03 0.0 
1.145985182714e-03 5.344503170796e-03 0.0 
0.0 0.0 0.0 
-1.627844157574e-03 2.220251124240e-03 0.0 
2.220251124240e-03 1.140211180687e-02 0.0 
0.0 0.0 0.0 
8.483049851460e-05 6.819148541283e-05 0.0 
6.819148541283e-05 7.066334830319e-03 0.0 
0.0 0.0 0.0 
-8.930116861363e-04 9.510196696859e-04 0.0 
9.510196696859e-04 -4.512451286350e-03 0.0 
0.0 0.0 0.0 
4.796188691467e-04 3.174045259971e-03 0.0 
3.174045259971e-03 1.594701106995e-03 0.0 
0.0 0.0 0.0 
1.763616560347e-03 2.411387071108e-03 0.0 
2.411387071108e-03 2.193905110484e-03 0.0 
0.0 0.0 0.0 
-1.028797680590e-03 2.518177117562e-03 0.0 
2.518177117562e-03 8.198449741787e-03 0.0 
0.0 0.0 0.0 
1.508148691896e-03 6.502608879242e-04 0.0 
6.502608879242e-04 4.601017685230e-03 0.0 
0.0 0.0 0.0 
1.234534421564e-04 1.107373083292e-04 0.0 
1.107373083292e-04 7.147296765804e-03 0.0 
0.0 0.0 0.0 
-1.376178198971e-03 2.147928146583e-03 0.0 
2.147928146583e-03 1.294518828589e-02 0.0 
0.0 0.0 0.0 
1.982133194378e-03 2.132075954859e-03 0.0 
2.132075954859e-03 2.387975048417e-04 0.0 
0.0 0.0 0.0 
1.221876552763e-03 9.959499659736e-04 0.0 
9.959499659736e-04 5.345537147012e-03 0.0 
0.0 0.0 0.0 
1.107030354779e-04 -2.951186052641e-05 0.0 
-2.951186052641e-05 5.176947282371e-03 0.0 
0.0 0.0 0.0 
-6.268235070084e-04 2.799395013686e-03 0.0 
2.799395013686e-03 8.882961123045e-03 0.0 
0.0 0.0 0.0 
-1.401905359437e-03 1.765091292438e-03 0.0 
1.765091292438e-03 1.321620812692e-02 0.0 
0.0 0.0 0.0 
3.796233341300e-04 2.739617661508e-03 0.0 
2.739617661508e-03 8.716208062220e-03 0.0 
0.0 0.0 0.0 
1.895798562984e-03 2.081480865416e-03 0.0 
2.081480865416e-03 2.241677344679e-03 0.0 
0.0 0.0 0.0 
-3.380254276997e-05 3.098929922651e-03 0.0 
3.098929922651e-03 2.484223362601e-03 0.0 
0.0 0.0 0.0 
-1.619352104589e-03 2.104061879230e-03 0.0 
2.104061879230e-03 1.211165641315e-02 0.0 
0.0 0.0 0.0 
-2.665444883339e-04 1.404016122730e-03 0.0 
1.404016122730e-03 1.537381460242e-02 0.0 
0.0 0.0 0.0 
-6.040670147767e-05 2.856903960666e-03 0.0 
2.856903960666e-03 7.515472312867e-03 0.0 
0.0 0.0 0.0 
2.055366987861e-03 1.654125244051e-03 0.0 
1.654125244051e-03 3.132949893452e-03 0.0 
0.0 0.0 0.0 
-1.089787963962e-03 4.867211169392e-05 0.0 
4.867211169392e-05 1.327894800535e-02 0.0 
0.0 0.0 0.0 
-5.430827897746e-04 -1.897891797731e-03 0.0 
-1.897891797731e-03 4.349040001712e-04 0.0 
0.0 0.0 0.0 
-1.666568828118e-03 1.757780103038e-03 0.0 
1.757780103038e-03 1.200063195714e-02 0.0 
0.0 0.0 0.0 
1.707700074563e-03 2.610537020644e-03 0.0 
2.610537020644e-03 1.681864543068e-04 0.0 
0.0 0.0 0.0 
2.178027533038e-03 2.227471571181e-03 0.0 
2.227471571181e-03 -2.767068767106e-03 0.0 
0.0 0.0 0.0 
1.688011427809e-03 -2.365944470483e-03 0.0 
-2.365944470483e-03 -3.479202993210e-03 0.0 
0.0 0.0 0.0 
-1.251212781086e-03 1.601626984575e-03 0.0 
1.601626984575e-03 1.392785804727e-02 0.0 
0.0 0.0 0.0 
-1.504551623910e-03 2.285229469246e-03 0.0 
2.285229469246e-03 1.154430306561e-02 0.0 
0.0 0.0 0.0 
5.226870311432e-04 2.949979876304e-03 0.0 
2.949979876304e-03 3.776072355511e-03 0.0 
0.0 0.0 0.0 
-1.319777816111e-03 1.597072900893e-03 0.0 
1.597072900893e-03 1.422569415371e-02 0.0 
0.0 0.0 0.0 
-1.174201859505e-03 2.361829748144e-03 0.0 
2.361829748144e-03 1.264711637257e-02 0.0 
0.0 0.0 0.0 
-8.421536599540e-04 2.726469847184e-03 0.0 
2.726469847184e-03 9.661335131871e-03 0.0 
0.0 0.0 0.0 
1.263564491607e-04 1.945406066421e-04 0.0 
1.945406066421e-04 7.057103257429e-03 0.0 
0.0 0.0 0.0 
2.134846139446e-03 1.670271243646e-03 0.0 
1.670271243646e-03 3.002550772410e-03 0.0 
0.0 0.0 0.0 
-1.047744433226e-03 2.621016716266e-03 0.0 
2.621016716266e-03 1.040569285363e-02 0.0 
0.0 0.0 0.0 
1.029532049938e-03 2.672093704249e-03 0.0 
2.672093704249e-03 4.448354200350e-03 0.0 
0.0 0.0 0.0 
1.952386364096e-03 1.665139565445e-03 0.0 
1.665139565445e-03 3.728642694467e-03 0.0 
0.0 0.0 0.0 
2.347549677317e-03 1.987782319528e-03 0.0 
1.987782319528e-03 -2.031698730253e-03 0.0 
0.0 0.0 0.0 
-1.727705911091e-03 5.399722767214e-04 0.0 
5.399722767214e-04 1.300483982324e-02 0.0 
0.0 0.0 0.0 
2.161727204510e-03 1.714876239833e-03 0.0 
1.714876239833e-03 1.950665636029e-03 0.0 
0.0 0.0 0.0 
2.434655343144e-03 -9.537563038162e-04 0.0 
-9.537563038162e-04 -1.276791752529e-03 0.0 
0.0 0.0 0.0 
-1.251128515319e-03 2.029334292801e-03 0.0 
2.029334292801e-03 1.296653526130e-02 0.0 
0.0 0.0 0.0 
-4.121097224112e-03 3.812619616432e-04 0.0 
3.812619616432e-04 -2.982897857696e-03 0.0 
0.0 0.0 0.0 
-1.818572776357e-03 1.806621871576e-03 0.0 
1.806621871576e-03 1.244045624445e-02 0.0 
0.0 0.0 0.0 
2.179542147609e-03 2.110230652073e-03 0.0 
2.110230652073e-03 -2.559134328903e-04 0.0 
0.0 0.0 0.0 
7.192627856740e-04 2.957545786374e-03 0.0 
2.957545786374e-03 1.623625196633e-03 0.0 
0.0 0.0 0.0 
2.613175178892e-03 1.189488891953e-03 0.0 
1.189488891953e-03 -1.898143300085e-03 0.0 
0.0 0.0 0.0 
-1.353093035943e-03 2.181490584301e-03 0.0 
2.181490584301e-03 1.174521055632e-02 0.0 
0.0 0.0 0.0 
-2.022159688575e-04 -5.672031101254e-04 0.0 
-5.672031101254e-04 7.385741605683e-04 0.0 
0.0 0.0 0.0 
-5.687176406706e-04 2.770619740129e-03 0.0 
2.770619740129e-03 6.753653149611e-03 0.0 
0.0 0.0 0.0 
2.021136446991e-03 1.684665063209e-03 0.0 
1.684665063209e-03 3.630887014677e-03 0.0 
0.0 0.0 0.0 
-1.478924450604e-03 2.084359195898e-03 0.0 
2.084359195898e-03 1.157889251763e-02 0.0 
0.0 0.0 0.0 
-1.737760033441e-03 7.689156963390e-04 0.0 
7.689156963390e-04 1.318879720838e-02 0.0 
0.0 0.0 0.0 
1.833278719364e-03 1.902248469316e-03 0.0 
1.902248469316e-03 -4.071142478331e-03 0.0 
0.0 0.0 0.0 
2.729155318989e-03 -2.652484541701e-04 0.0 
-2.652484541701e-04 -1.384630795769e-03 0.0 
0.0 0.0 0.0 
2.074554776335e-03 -1.642857069985e-03 0.0 
-1.642857069985e-03 -1.422131462645e-03 0.0 
0.0 0.0 0.0 
-9.205411423466e-04 2.739869153555e-03 0.0 
2.739869153555e-03 6.599952589582e-03 0.0 
0.0 0.0 0.0 
-1.551029875311e-03 1.896507712358e-03 0.0 
1.896507712358e-03 1.319288973874e-02 0.0 
0.0 0.0 0.0 
-6.088573831935e-04 2.821432810079e-03 0.0 
2.821432810079e-03 6.746272951750e-03 0.0 
0.0 0.0 0.0 
2.290314543331e-03 1.794834226846e-03 0.0 
1.794834226846e-03 1.069974867638e-03 0.0 
0.0 0.0 0.0 
2.011077452878e-03 2.204990227244e-03 0.0 
2.204990227244e-03 1.300041565959e-03 0.0 
0.0 0.0 0.0 
1.945595880986e-03 1.506068420540e-03 0.0 
1.506068420540e-03 -2.942180027195e-03 0.0 
0.0 0.0 0.0 
1.263979565359e-03 2.664924796016e-03 0.0 
2.664924796016e-03 3.955160060308e-03 0.0 
0.0 0.0 0.0 
-4.769891257053e-04 3.181831341318e-03 0.0 
3.181831341318e-03 1.468644495684e-03 0.0 
0.0 0.0 0.0 
-3.640322373565e-04 2.465922447593e-03 0.0 
2.465922447593e-03 1.448166627005e-02 0.0 
0.0 0.0 0.0 
-3.438158907781e-04 2.863781735421e-03 0.0 
2.863781735421e-03 1.388475475061e-02 0.0 
0.0 0.0 0.0 
1.990472019151e-04 2.874453526461e-03 0.0 
2.874453526461e-03 6.998834340497e-03 0.0 
0.0 0.0 0.0 
2.019847622048e-03 2.372592356412e-03 0.0 
2.372592356412e-03 -9.186210758392e-04 0.0 
0.0 0.0 0.0 
1.012382355255e-03 2.907926134899e-03 0.0 
2.907926134899e-03 5.431039380872e-04 0.0 
0.0 0.0 0.0 
-7.892245810268e-04 2.651766037206e-03 0.0 
2.651766037206e-03 9.922379402125e-03 0.0 
0.0 0.0 0.0 
1.751397113156e-03 2.412102271194e-03 0.0 
2.412102271194e-03 -2.488997517581e-04 0.0 
0.0 0.0 0.0 
2.518681761272e-03 -9.800895909745e-04 0.0 
-9.800895909745e-04 -1.527691203635e-03 0.0 
0.0 0.0 0.0 
-6.780532686582e-04 2.728995497174e-03 0.0 
2.728995497174e-03 8.895884088203e-03 0.0 
0.0 0.0 0.0 
-4.865855728289e-04 8.564442850565e-04 0.0 
8.564442850565e-04 1.540023505024e-02 0.0 
0.0 0.0 0.0 
1.900513980537e-03 2.380651754766e-03 0.0 
2.380651754766e-03 7.191827898507e-04 0.0 
0.0 0.0 0.0 
1.615802678771e-03 2.143710120612e-03 0.0 
2.143710120612e-03 4.987058333342e-03 0.0 
0.0 0.0 0.0 
2.274284791841e-04 3.307875930020e-03 0.0 
3.307875930020e-03 4.004112340907e-04 0.0 
0.0 0.0 0.0 
3.773367055977e-04 1.409303727783e-03 0.0 
1.409303727783e-03 7.542605682836e-03 0.0 
0.0 0.0 0.0 
1.413480343329e-03 2.901795599507e-03 0.0 
2.901795599507e-03 -3.257850341299e-04 0.0 
0.0 0.0 0.0 
-3.554972922185e-04 2.819347996699e-03 0.0 
2.819347996699e-03 8.345296097702e-03 0.0 
0.0 0.0 0.0 
2.469357830633e-03 1.577166365737e-03 0.0 
1.577166365737e-03 -3.768870089601e-03 0.0 
0.0 0.0 0.0 
2.007677198772e-03 7.340987797633e-04 0.0 
7.340987797633e-04 3.428468482584e-03 0.0 
0.0 0.0 0.0 
2.058241398382e-03 2.072449378344e-03 0.0 
2.072449378344e-03 1.894344454891e-03 0.0 
0.0 0.0 0.0 
2.189342149863e-03 -1.327739672281e-03 0.0 
-1.327739672281e-03 -7.446803476978e-04 0.0 
0.0 0.0 0.0 
-1.347672454984e-03 2.457896170793e-03 0.0 
2.457896170793e-03 1.090947392562e-02 0.0 
0.0 0.0 0.0 
-1.755586505225e-04 3.346470186464e-03 0.0 
3.346470186464e-03 1.271688518312e-02 0.0 
0.0 0.0 0.0 
2.262360630087e-03 1.921642745069e-03 0.0 
1.921642745069e-03 4.110594262596e-04 0.0 
0.0 0.0 0.0 
2.002686596306e-03 1.423317252344e-03 0.0 
1.423317252344e-03 3.667767587424e-03 0.0 
0.0 0.0 0.0 
4.091031911457e-04 3.095469242467e-03 0.0 
3.095469242467e-03 4.285766852088e-04 0.0 
0.0 0.0 0.0 
-1.365208419983e-03 6.692888864083e-04 0.0 
6.692888864083e-04 1.395822137317e-02 0.0 
0.0 0.0 0.0 
1.511242576844e-03 3.957150509130e-04 0.0 
3.957150509130e-04 4.298446455780e-03 0.0 
0.0 0.0 0.0 
-1.898435023205e-04 3.000600291756e-03 0.0 
3.000600291756e-03 3.393980732737e-03 0.0 
0.0 0.0 0.0 
-1.503867057307e-03 5.239751620825e-04 0.0 
5.239751620825e-04 1.383798557863e-02 0.0 
0.0 0.0 0.0 
1.196376240253e-05 3.524006956878e-03 0.0 
3.524006956878e-03 1.134996165894e-02 0.0 
0.0 0.0 0.0 
1.304550095293e-03 5.571532505029e-04 0.0 
5.571532505029e-04 4.902386322985e-03 0.0 
0.0 0.0 0.0 
-2.489271275304e-04 3.217934049823e-03 0.0 
3.217934049823e-03 1.313400842788e-02 0.0 
0.0 0.0 0.0 
-1.650988656917e-03 7.428492138706e-04 0.0 
7.428492138706e-04 1.373638916302e-02 0.0 
0.0 0.0 0.0 
-8.683934843164e-04 2.623461623207e-03 0.0 
2.623461623207e-03 1.173401543802e-02 0.0 
0.0 0.0 0.0 
-7.586569996582e-04 3.037982347344e-03 0.0 
3.037982347344e-03 3.319338849111e-03 0.0 
0.0 0.0 0.0 
-1.463301364824e-03 2.402974831794e-03 0.0 
2.402974831794e-03 1.072149082223e-02 0.0 
0.0 0.0 0.0 
-1.079852018758e-03 2.496709761169e-03 0.0 
2.496709761169e-03 1.042358749458e-02 0.0 
0.0 0.0 0.0 
-1.230566448857e-03 2.488138480540e-03 0.0 
2.488138480540e-03 1.109558388095e-02 0.0 
0.0 0.0 0.0 
1.739718873386e-04 2.859355040543e-03 0.0 
2.859355040543e-03 6.679955431765e-03 0.0 
0.0 0.0 0.0 
1.214116472974e-04 3.427444951939e-03 0.0 
3.427444951939e-03 1.045322653709e-02 0.0 
0.0 0.0 0.0 
-1.683215539235e-03 1.052961560842e-03 0.0 
1.052961560842e-03 1.328479346922e-02 0.0 
0.0 0.0 0.0 
-1.926356836112e-03 1.667631130097e-03 0.0 
1.667631130097e-03 1.229392064587e-02 0.0 
0.0 0.0 0.0 
2.157823538768e-03 1.797238327067e-03 0.0 
1.797238327067e-03 1.360968457570e-03 0.0 
0.0 0.0 0.0 
-3.180526993076e-04 -1.132758755135e-03 0.0 
-1.132758755135e-03 1.516370594312e-03 0.0 
0.0 0.0 0.0 
-1.743756340523e-03 2.136139195500e-03 0.0 
2.136139195500e-03 1.123801419880e-02 0.0 
0.0 0.0 0.0 
3.246098210468e-04 3.084885926483e-03 0.0 
3.084885926483e-03 2.591591415391e-03 0.0 
0.0 0.0 0.0 
-1.090101800943e-03 1.472945420170e-05 0.0 
1.472945420170e-05 1.291395737830e-02 0.0 
0.0 0.0 0.0 
1.720434687582e-03 -1.796435893962e-03 0.0 
-1.796435893962e-03 -6.725279147183e-04 0.0 
0.0 0.0 0.0 
2.103918936895e-03 1.930390800998e-03 0.0 
1.930390800998e-03 7.823960078954e-04 0.0 
0.0 0.0 0.0 
-1.209381040743e-03 1.936197957487e-03 0.0 
1.936197957487e-03 1.339336262954e-02 0.0 
0.0 0.0 0.0 
4.648648603844e-04 2.948794542538e-03 0.0 
2.948794542538e-03 2.608718710568e-03 0.0 
0.0 0.0 0.0 
-1.175953531163e-03 2.449899097030e-03 0.0 
2.449899097030e-03 1.021702323602e-02 0.0 
0.0 0.0 0.0 
2.046563353750e-03 1.445579119983e-03 0.0 
1.445579119983e-03 3.638159735010e-03 0.0 
0.0 0.0 0.0 
1.516308234006e-03 -4.779051079343e-04 0.0 
-4.779051079343e-04 2.859236724052e-03 0.0 
0.0 0.0 0.0 
2.935865298339e-04 3.019432464212e-03 0.0 
3.019432464212e-03 9.225141075039e-03 0.0 
0.0 0.0 0.0 
-1.423689299561e-03 2.469552736560e-03 0.0 
2.469552736560e-03 9.832565078829e-03 0.0 
0.0 0.0 0.0 
2.822288244139e-03 3.803741546328e-04 0.0 
3.803741546328e-04 -1.877327762581e-03 0.0 
0.0 0.0 0.0 
7.861586213400e-04 -1.434799263797e-03 0.0 
-1.434799263797e-03 1.650130894007e-03 0.0 
0.0 0.0 0.0 
-8.426129248538e-04 2.818144401700e-03 0.0 
2.818144401700e-03 4.952260963927e-03 0.0 
0.0 0.0 0.0 
-2.342326913257e-04 3.062677370515e-03 0.0 
3.062677370515e-03 3.387285068317e-03 0.0 
0.0 0.0 0.0 
-9.790869915648e-04 2.472564594386e-03 0.0 
2.472564594386e-03 1.283509254216e-02 0.0 
0.0 0.0 0.0 
-5.221818107181e-04 2.797184027921e-03 0.0 
2.797184027921e-03 9.140163630865e-03 0.0 
0.0 0.0 0.0 
-1.112436535467e-03 2.626104213406e-03 0.0 
2.626104213406e-03 8.189630169786e-03 0.0 
0.0 0.0 0.0 
-1.270668435999e-03 2.377450954803e-03 0.0 
2.377450954803e-03 1.002000685278e-02 0.0 
0.0 0.0 0.0 
4.038936841055e-04 2.148477070542e-03 0.0 
2.148477070542e-03 8.010767163194e-03 0.0 
0.0 0.0 0.0 
6.864867382874e-04 2.059083719130e-03 0.0 
2.059083719130e-03 7.429476033487e-03 0.0 
0.0 0.0 0.0 
-8.589188540560e-04 2.392348666916e-03 0.0 
2.392348666916e-03 1.285112447247e-02 0.0 
0.0 0.0 0.0 
-1.511179430113e-03 1.785914579498e-03 0.0 
1.785914579498e-03 1.357565346335e-02 0.0 
0.0 0.0 0.0 
1.451558205008e-03 -6.532732158877e-04 0.0 
-6.532732158877e-04 2.481497261426e-03 0.0 
0.0 0.0 0.0 
-2.098845946839e-04 2.871629906799e-03 0.0 
2.871629906799e-03 6.127476315840e-03 0.0 
0.0 0.0 0.0 
2.302485106651e-03 1.749236360150e-03 0.0 
1.749236360150e-03 -8.217063154060e-04 0.0 
0.0 0.0 0.0 
2.381573518490e-03 1.547549294319e-03 0.0 
1.547549294319e-03 -1.709985831356e-04 0.0 
0.0 0.0 0.0 
-2.909300404713e-04 2.843536903469e-03 0.0 
2.843536903469e-03 8.341378371407e-03 0.0 
0.0 0.0 0.0 
1.991611778889e-03 6.659244894931e-04 0.0 
6.659244894931e-04 3.263647117361e-03 0.0 
0.0 0.0 0.0 
3.804505726008e-04 -7.922956231763e-04 0.0 
-7.922956231763e-04 3.083667988695e-03 0.0 
0.0 0.0 0.0 
-9.889129089585e-04 2.103902396530e-03 0.0 
2.103902396530e-03 1.356938048114e-02 0.0 
0.0 0.0 0.0 
2.679618537731e-03 -4.255858336942e-04 0.0 
-4.255858336942e-04 -1.751118892058e-03 0.0 
0.0 0.0 0.0 
4.063400120724e-04 2.834340636498e-03 0.0 
2.834340636498e-03 5.831774813785e-03 0.0 
0.0 0.0 0.0 
-8.844953296020e-04 2.621910809467e-03 0.0 
2.621910809467e-03 9.681822414421e-03 0.0 
0.0 0.0 0.0 
2.162429874850e-04 2.858063889306e-03 0.0 
2.858063889306e-03 5.533324740894e-03 0.0 
0.0 0.0 0.0 
-3.109708264631e-04 3.066292363298e-03 0.0 
3.066292363298e-03 1.351970990891e-02 0.0 
0.0 0.0 0.0 
-3.303366758244e-04 2.675831435674e-03 0.0 
2.675831435674e-03 1.418222184202e-02 0.0 
0.0 0.0 0.0 
-6.654559689253e-04 2.509081440901e-03 0.0 
2.509081440901e-03 1.389172337443e-02 0.0 
0.0 0.0 0.0 
1.422896810724e-03 -4.170602149013e-04 0.0 
-4.170602149013e-04 2.995220709452e-03 0.0 
0.0 0.0 0.0 
-1.131224539149e-03 1.535945137950e-03 0.0 
1.535945137950e-03 1.423273889502e-02 0.0 
0.0 0.0 0.0 
-1.643856592584e-04 3.184043224813e-03 0.0 
3.184043224813e-03 2.474782897603e-03 0.0 
0.0 0.0 0.0 
2.398717643281e-03 1.423028176389e-03 0.0 
1.423028176389e-03 4.867994769999e-04 0.0 
0.0 0.0 0.0 
2.413695277189e-03 1.378548549979e-03 0.0 
1.378548549979e-03 -2.624305525926e-03 0.0 
0.0 0.0 0.0 
-7.484236055575e-04 2.771328246224e-03 0.0 
2.771328246224e-03 7.567902781720e-03 0.0 
0.0 0.0 0.0 
-1.646529985674e-03 3.891423299534e-04 0.0 
3.891423299534e-04 1.304701847607e-02 0.0 
0.0 0.0 0.0 
-1.459581819770e-03 6.768412138873e-04 0.0 
6.768412138873e-04 1.374219335748e-02 0.0 
0.0 0.0 0.0 
6.874817928035e-04 1.407253679061e-03 0.0 
1.407253679061e-03 6.971438689008e-03 0.0 
0.0 0.0 0.0 
-6.251955743610e-04 2.636587254960e-03 0.0 
2.636587254960e-03 1.197701792887e-02 0.0 
0.0 0.0 0.0 
-1.557957897209e-03 1.899928270922e-03 0.0 
1.899928270922e-03 1.214244870776e-02 0.0 
0.0 0.0 0.0 
-9.686062558791e-04 2.534145829261e-03 0.0 
2.534145829261e-03 1.064943597439e-02 0.0 
0.0 0.0 0.0 
2.684425120928e-03 1.404740864111e-03 0.0 
1.404740864111e-03 -3.114388760202e-03 0.0 
0.0 0.0 0.0 
-6.826274795636e-04 -1.208299677235e-03 0.0 
-1.208299677235e-03 6.360338485296e-04 0.0 
0.0 0.0 0.0 
1.513001966997e-03 2.555824850555e-03 0.0 
2.555824850555e-03 3.079273985222e-03 0.0 
0.0 0.0 0.0 
5.310898179576e-04 2.797188143704e-03 0.0 
2.797188143704e-03 6.166014973266e-03 0.0 
0.0 0.0 0.0 
1.379149478808e-03 2.461474427547e-03 0.0 
2.461474427547e-03 3.983629383479e-03 0.0 
0.0 0.0 0.0 
-9.862502958002e-04 3.195784700479e-03 0.0 
3.195784700479e-03 5.771306003330e-04 0.0 
0.0 0.0 0.0 
-1.043031301102e-03 5.860823741210e-05 0.0 
5.860823741210e-05 1.326270794525e-02 0.0 
0.0 0.0 0.0 
-2.846803168423e-04 -1.185063125105e-03 0.0 
-1.185063125105e-03 1.316580392443e-03 0.0 
0.0 0.0 0.0 
1.126384126151e-03 2.974005588056e-03 0.0 
2.974005588056e-03 8.058747032305e-04 0.0 
0.0 0.0 0.0 
0.0 1.467925877122e-03 0.0 
1.467925877122e-03 7.604593888396e-03 0.0 
0.0 0.0 0.0 
1.667289266045e-03 1.759934247414e-03 0.0 
1.759934247414e-03 4.935811347372e-03 0.0 
0.0 0.0 0.0 
-1.775462700511e-03 1.376457892406e-03 0.0 
1.376457892406e-03 1.232894690558e-02 0.0 
0.0 0.0 0.0 
3.248695837215e-04 -3.491849792627e-05 0.0 
-3.491849792627e-05 9.469322469697e-04 0.0 
0.0 0.0 0.0 
1.014442670881e-04 2.900560196705e-03 0.0 
2.900560196705e-03 6.674643001879e-03 0.0 
0.0 0.0 0.0 
1.635768741151e-03 2.293341967598e-03 0.0 
2.293341967598e-03 3.115603101182e-03 0.0 
0.0 0.0 0.0 
-1.378401112441e-03 2.338535525372e-03 0.0 
2.338535525372e-03 1.172536931930e-02 0.0 
0.0 0.0 0.0 
-9.380770608070e-05 3.450226639685e-03 0.0 
3.450226639685e-03 1.225983949597e-02 0.0 
0.0 0.0 0.0 
-1.442195545195e-03 2.202732172947e-03 0.0 
2.202732172947e-03 1.074401572522e-02 0.0 
0.0 0.0 0.0 
-7.431479344585e-04 2.729888699036e-03 0.0 
2.729888699036e-03 9.912150995433e-03 0.0 
0.0 0.0 0.0 
5.266405397761e-04 -7.846289637685e-04 0.0 
-7.846289637685e-04 3.081702145278e-03 0.0 
0.0 0.0 0.0 
-1.136666561000e-03 1.861433938998e-03 0.0 
1.861433938998e-03 1.377664655586e-02 0.0 
0.0 0.0 0.0 
1.469380759401e-03 -2.626417438135e-04 0.0 
-2.626417438135e-04 3.354379419132e-03 0.0 
0.0 0.0 0.0 
-6.539632046587e-05 3.509605544564e-03 0.0 
3.509605544564e-03 1.181494575990e-02 0.0 
0.0 0.0 0.0 
0.0 2.978998697866e-03 0.0 
2.978998697866e-03 1.332200350283e-02 0.0 
0.0 0.0 0.0 
0.0 2.230580822653e-03 0.0 
2.230580822653e-03 1.463355282854e-02 0.0 
0.0 0.0 0.0 
0.0 2.615027328815e-03 0.0 
2.615027328815e-03 1.405395760206e-02 0.0 
0.0 0.0 0.0 
-1.112945735657e-03 2.402515801581e-03 0.0 
2.402515801581e-03 1.132288443081e-02 0.0 
0.0 0.0 0.0 
-1.301917572977e-03 1.935871479808e-03 0.0 
1.935871479808e-03 1.376764297363e-02 0.0 
0.0 0.0 0.0 
-6.412295369782e-04 2.609413138755e-03 0.0 
2.609413138755e-03 1.252783974479e-02 0.0 
0.0 0.0 0.0 
1.702684110301e-04 2.933240132341e-03 0.0 
2.933240132341e-03 5.524331734396e-03 0.0 
0.0 0.0 0.0 
-2.029720149912e-04 2.886145649543e-03 0.0 
2.886145649543e-03 6.125619642321e-03 0.0 
0.0 0.0 0.0 
2.453525587180e-04 -7.402389033034e-04 0.0 
-7.402389033034e-04 3.037784681213e-03 0.0 
0.0 0.0 0.0 
-1.146141130552e-03 2.180793988529e-03 0.0 
2.180793988529e-03 1.355886286565e-02 0.0 
0.0 0.0 0.0 
7.172281104584e-05 3.493665337213e-03 0.0 
3.493665337213e-03 1.088941338720e-02 0.0 
0.0 0.0 0.0 
-1.028075205179e-03 1.780956982688e-03 0.0 
1.780956982688e-03 1.411521910806e-02 0.0 
0.0 0.0 0.0 
1.822965756573e-03 1.701324622672e-03 0.0 
1.701324622672e-03 4.331055518440e-03 0.0 
0.0 0.0 0.0 
-1.203755544666e-03 1.846692455853e-03 0.0 
1.846692455853e-03 1.410706579698e-02 0.0 
0.0 0.0 0.0 
6.202226839807e-04 2.691817835897e-03 0.0 
2.691817835897e-03 7.743816791832e-03 0.0 
0.0 0.0 0.0 
6.772550383860e-04 2.854234464464e-03 0.0 
2.854234464464e-03 5.301030245129e-03 0.0 
0.0 0.0 0.0 
-7.169257114091e-04 2.715069936495e-03 0.0 
2.715069936495e-03 7.573708015617e-03 0.0 
0.0 0.0 0.0 
1.052800393741e-03 3.165908690309e-03 0.0 
3.165908690309e-03 -7.148299269970e-04 0.0 
0.0 0.0 0.0 
-3.228221337535e-04 1.462146039763e-03 0.0 
1.462146039763e-03 1.509831182462e-02 0.0 
0.0 0.0 0.0 
3.532676356297e-04 2.951602242186e-03 0.0 
2.951602242186e-03 4.663082242210e-03 0.0 
0.0 0.0 0.0 
1.847667992823e-04 2.940285437719e-03 0.0 
2.940285437719e-03 9.852616567009e-03 0.0 
0.0 0.0 0.0 
3.521024942792e-04 -7.522733343303e-04 0.0 
-7.522733343303e-04 3.038989066470e-03 0.0 
0.0 0.0 0.0 
1.199743226402e-03 -2.169638203270e-03 0.0 
-2.169638203270e-03 -4.525151190354e-04 0.0 
0.0 0.0 0.0 
3.849467579136e-04 1.265010577894e-03 0.0 
1.265010577894e-03 6.920640926201e-03 0.0 
0.0 0.0 0.0 
8.897070871099e-04 2.984898866399e-03 0.0 
2.984898866399e-03 1.843698665362e-03 0.0 
0.0 0.0 0.0 
0.0 3.124129743908e-03 0.0 
3.124129743908e-03 1.292509100113e-02 0.0 
0.0 0.0 0.0 
-4.035327307907e-04 2.305653473017e-03 0.0 
2.305653473017e-03 1.417895514488e-02 0.0 
0.0 0.0 0.0 
-2.729986915644e-04 2.814178704515e-03 0.0 
2.814178704515e-03 8.644052484530e-03 0.0 
0.0 0.0 0.0 
-6.438626574200e-04 -5.962356567523e-04 0.0 
-5.962356567523e-04 6.701367004867e-04 0.0 
0.0 0.0 0.0 
0.0 3.293528707945e-03 0.0 
3.293528707945e-03 1.204339348861e-02 0.0 
0.0 0.0 0.0 
3.920703666318e-04 1.680540762947e-03 0.0 
1.680540762947e-03 7.193808136735e-03 0.0 
0.0 0.0 0.0 
1.701426481681e-03 -1.815289880029e-03 0.0 
-1.815289880029e-03 -5.087595891107e-04 0.0 
0.0 0.0 0.0 
1.848014119875e-03 1.492980434811e-03 0.0 
1.492980434811e-03 4.286847260454e-03 0.0 
0.0 0.0 0.0 
3.079087659759e-04 2.818264097515e-03 0.0 
2.818264097515e-03 8.867743667081e-03 0.0 
0.0 0.0 0.0 
-2.398117167919e-04 -7.532001512461e-05 0.0 
-7.532001512461e-05 1.978210400115e-04 0.0 
0.0 0.0 0.0 
5.432660736995e-04 2.904201696760e-03 0.0 
2.904201696760e-03 4.961994766494e-03 0.0 
0.0 0.0 0.0 
-4.948391304183e-04 2.751916096104e-03 0.0 
2.751916096104e-03 9.431556384590e-03 0.0 
0.0 0.0 0.0 
-3.909487243259e-05 2.856674922697e-03 0.0 
2.856674922697e-03 7.829329717479e-03 0.0 
0.0 0.0 0.0 
-5.774838300454e-04 2.749215070729e-03 0.0 
2.749215070729e-03 9.147158165984e-03 0.0 
0.0 0.0 0.0 
7.210827036637e-04 3.224763413439e-03 0.0 
3.224763413439e-03 4.970633417651e-04 0.0 
0.0 0.0 0.0 
0.0 3.324618972320e-03 0.0 
3.324618972320e-03 1.111706086360e-02 0.0 
0.0 0.0 0.0 
2.375258439530e-03 1.355446266633e-03 0.0 
1.355446266633e-03 1.138540818842e-03 0.0 
0.0 0.0 0.0 
1.870694979395e-03 3.716023408230e-04 0.0 
3.716023408230e-04 -3.815339613283e-03 0.0 
0.0 0.0 0.0 
2.306022622114e-04 2.032447126747e-04 0.0 
2.032447126747e-04 7.029249877688e-03 0.0 
0.0 0.0 0.0 
-2.468045442954e-04 -4.711742982333e-04 0.0 
-4.711742982333e-04 3.815780330212e-04 0.0 
0.0 0.0 0.0 
-1.087482109546e-03 2.518343428073e-03 0.0 
2.518343428073e-03 9.251515707535e-03 0.0 
0.0 0.0 0.0 
9.124776236729e-04 -2.365764018941e-03 0.0 
-2.365764018941e-03 -1.965421158083e-03 0.0 
0.0 0.0 0.0 
-1.666322481626e-03 1.833770002386e-03 0.0 
1.833770002386e-03 1.127596086586e-02 0.0 
0.0 0.0 0.0 
3.966032590159e-04 1.873413916791e-03 0.0 
1.873413916791e-03 7.805298320631e-03 0.0 
0.0 0.0 0.0 
0.0 3.207572297489e-03 0.0 
3.207572297489e-03 1.022035822370e-02 0.0 
0.0 0.0 0.0 
-1.235904371221e-03 2.344118250565e-03 0.0 
2.344118250565e-03 1.111560418149e-02 0.0 
0.0 0.0 0.0 
-1.907708397364e-06 -2.393040565444e-03 0.0 
-2.393040565444e-03 -8.584822190385e-04 0.0 
0.0 0.0 0.0 
1.591988997916e-03 8.245738994372e-04 0.0 
8.245738994372e-04 -4.483254466079e-03 0.0 
0.0 0.0 0.0 
-6.706571320902e-05 -2.870128919988e-03 0.0 
-2.870128919988e-03 -9.931639013814e-04 0.0 
0.0 0.0 0.0 
6.195861156351e-04 1.301245223455e-04 0.0 
1.301245223455e-04 5.620745996894e-03 0.0 
0.0 0.0 0.0 
-1.620648272880e-03 4.894656960656e-04 0.0 
4.894656960656e-04 1.291696156795e-02 0.0 
0.0 0.0 0.0 
-1.940547044606e-03 1.453752892434e-03 0.0 
1.453752892434e-03 1.267621007689e-02 0.0 
0.0 0.0 0.0 
0.0 2.962860331572e-03 0.0 
2.962860331572e-03 9.413814031634e-03 0.0 
0.0 0.0 0.0 
-1.524643618668e-03 3.480586024141e-04 0.0 
3.480586024141e-04 1.295352312159e-02 0.0 
0.0 0.0 0.0 
-3.297243959676e-04 2.231143465593e-03 0.0 
2.231143465593e-03 1.473446377368e-02 0.0 
0.0 0.0 0.0 
7.729437610182e-04 2.686492702456e-03 0.0 
2.686492702456e-03 7.404646878811e-03 0.0 
0.0 0.0 0.0 
-1.411517782978e-03 4.840596157351e-04 0.0 
4.840596157351e-04 1.362145796805e-02 0.0 
0.0 0.0 0.0 
-3.273513716424e-04 2.984600283900e-03 0.0 
2.984600283900e-03 4.218844291389e-03 0.0 
0.0 0.0 0.0 
1.879247771813e-03 1.717647267569e-03 0.0 
1.717647267569e-03 4.255328383709e-03 0.0 
0.0 0.0 0.0 
1.766652381832e-03 2.265715626246e-03 0.0 
2.265715626246e-03 -1.859100826088e-03 0.0 
0.0 0.0 0.0 
0.0 2.592575527514e-03 0.0 
2.592575527514e-03 8.709777209119e-03 0.0 
0.0 0.0 0.0 
0.0 2.809556964942e-03 0.0 
2.809556964942e-03 1.370359872160e-02 0.0 
0.0 0.0 0.0 
0.0 2.422001155816e-03 0.0 
2.422001155816e-03 1.437585137459e-02 0.0 
0.0 0.0 0.0 
1.229047009260e-03 -4.017580454936e-04 0.0 
-4.017580454936e-04 3.376339892831e-03 0.0 
0.0 0.0 0.0 
1.394682528546e-04 -6.591326203169e-04 0.0 
-6.591326203169e-04 2.969402928275e-03 0.0 
0.0 0.0 0.0 
7.800697778066e-04 2.745419831536e-03 0.0 
2.745419831536e-03 5.317104285990e-03 0.0 
0.0 0.0 0.0 
1.267181528098e-03 -2.551848949569e-04 0.0 
-2.551848949569e-04 3.725114396558e-03 0.0 
0.0 0.0 0.0 
0.0 2.179762248655e-03 0.0 
2.179762248655e-03 8.161597795865e-03 0.0 
0.0 0.0 0.0 
1.406558275572e-03 2.622512989438e-03 0.0 
2.622512989438e-03 8.567210379902e-04 0.0 
0.0 0.0 0.0 
2.511486293641e-03 -7.286835004748e-04 0.0 
-7.286835004748e-04 -7.806188253875e-04 0.0 
0.0 0.0 0.0 
2.233883634036e-03 -1.024281673915e-03 0.0 
-1.024281673915e-03 -1.443175282355e-04 0.0 
0.0 0.0 0.0 
-1.330880021341e-03 4.971060819870e-04 0.0 
4.971060819870e-04 1.384047907820e-02 0.0 
0.0 0.0 0.0 
3.067859336647e-04 1.166631688910e-03 0.0 
1.166631688910e-03 7.457332058269e-03 0.0 
0.0 0.0 0.0 
-1.002675332269e-03 -2.496771902588e-03 0.0 
-2.496771902588e-03 -2.602677270643e-04 0.0 
0.0 0.0 0.0 
0.0 1.690897217459e-03 0.0 
1.690897217459e-03 7.726645139785e-03 0.0 
0.0 0.0 0.0 
1.856866719027e-03 -1.478401679771e-03 0.0 
-1.478401679771e-03 -3.623430346156e-05 0.0 
0.0 0.0 0.0 
0.0 3.235575083588e-03 0.0 
3.235575083588e-03 1.249870140636e-02 0.0 
0.0 0.0 0.0 
-7.808789247790e-04 2.670178071929e-03 0.0 
2.670178071929e-03 1.251848612002e-02 0.0 
0.0 0.0 0.0 
4.387798607122e-04 -6.960754058560e-05 0.0 
-6.960754058560e-05 -2.607581092495e-05 0.0 
0.0 0.0 0.0 
9.133977385634e-04 2.810504009409e-03 0.0 
2.810504009409e-03 4.428054128127e-03 0.0 
0.0 0.0 0.0 
-1.181640157736e-03 1.521486260412e-03 0.0 
1.521486260412e-03 1.449430474001e-02 0.0 
0.0 0.0 0.0 
0.0 3.331731612192e-03 0.0 
3.331731612192e-03 1.158275866728e-02 0.0 
0.0 0.0 0.0 
-1.113795156184e-03 2.520538567863e-03 0.0 
2.520538567863e-03 1.130735974185e-02 0.0 
0.0 0.0 0.0 
9.353464761626e-04 2.595894941991e-03 0.0 
2.595894941991e-03 7.132050364751e-03 0.0 
0.0 0.0 0.0 
5.248557239748e-04 3.249588451490e-03 0.0 
3.249588451490e-03 -7.998857259052e-04 0.0 
0.0 0.0 0.0 
7.465378310656e-04 1.467349838193e-03 0.0 
1.467349838193e-03 6.525962293099e-03 0.0 
0.0 0.0 0.0 
1.556095580086e-03 -1.507167503347e-03 0.0 
-1.507167503347e-03 6.046998406917e-04 0.0 
0.0 0.0 0.0 
1.832862683719e-03 -1.440932274077e-03 0.0 
-1.440932274077e-03 -8.688951384273e-05 0.0 
0.0 0.0 0.0 
-1.600906216235e-03 -2.498314373154e-03 0.0 
-2.498314373154e-03 -3.592774865960e-04 0.0 
0.0 0.0 0.0 
0.0 3.281850681100e-03 0.0 
3.281850681100e-03 1.066273719063e-02 0.0 
0.0 0.0 0.0 
2.094298883876e-03 2.022847412641e-03 0.0 
2.022847412641e-03 -1.432663632329e-03 0.0 
0.0 0.0 0.0 
1.132356350761e-03 6.527889371520e-04 0.0 
6.527889371520e-04 5.251333623427e-03 0.0 
0.0 0.0 0.0 
-1.512926449181e-03 3.524016609011e-04 0.0 
3.524016609011e-04 1.345646544145e-02 0.0 
0.0 0.0 0.0 
3.688186113568e-04 -1.793168234498e-03 0.0 
-1.793168234498e-03 1.107700214871e-03 0.0 
0.0 0.0 0.0 
2.135873050039e-03 -1.283162220922e-03 0.0 
-1.283162220922e-03 -6.986942395760e-04 0.0 
0.0 0.0 0.0 
-9.432939464579e-04 2.635647745879e-03 0.0 
2.635647745879e-03 1.063559439119e-02 0.0 
0.0 0.0 0.0 
0.0 2.784104925697e-03 0.0 
2.784104925697e-03 9.050161018286e-03 0.0 
0.0 0.0 0.0 
1.731259020621e-04 -5.534874498867e-04 0.0 
-5.534874498867e-04 3.206628600184e-03 0.0 
0.0 0.0 0.0 
1.261901285443e-03 9.420330219125e-06 0.0 
9.420330219125e-06 4.078106813152e-03 0.0 
0.0 0.0 0.0 
5.134539785421e-04 2.832939746676e-03 0.0 
2.832939746676e-03 6.519676730567e-03 0.0 
0.0 0.0 0.0 
1.832011016055e-03 1.885450503732e-04 0.0 
1.885450503732e-04 3.107193310712e-03 0.0 
0.0 0.0 0.0 
2.411955624024e-03 -6.924756074457e-04 0.0 
-6.924756074457e-04 -5.051907513620e-04 0.0 
0.0 0.0 0.0 
1.359436962064e-03 -1.957777015448e-04 0.0 
-1.957777015448e-04 3.527699224921e-03 0.0 
0.0 0.0 0.0 
2.830073193858e-04 2.827877157828e-03 0.0 
2.827877157828e-03 7.004678625156e-03 0.0 
0.0 0.0 0.0 
1.530337480209e-04 2.800017639965e-03 0.0 
2.800017639965e-03 8.893470389025e-03 0.0 
0.0 0.0 0.0 
1.706902237865e-03 1.769088134269e-03 0.0 
1.769088134269e-03 4.877489005434e-03 0.0 
0.0 0.0 0.0 
7.627161261718e-04 2.800766174523e-03 0.0 
2.800766174523e-03 5.677717878131e-03 0.0 
0.0 0.0 0.0 
6.310802856466e-04 -9.249752074871e-04 0.0 
-9.249752074871e-04 2.768507717294e-03 0.0 
0.0 0.0 0.0 
1.103860220387e-03 2.734130743606e-03 0.0 
2.734130743606e-03 1.878672780970e-03 0.0 
0.0 0.0 0.0 
2.078905270126e-04 -6.857548906509e-04 0.0 
-6.857548906509e-04 2.973012716455e-03 0.0 
0.0 0.0 0.0 
8.080201621130e-04 2.603800116971e-03 0.0 
2.603800116971e-03 7.418903957578e-03 0.0 
0.0 0.0 0.0 
2.188143787087e-03 1.394339942459e-03 0.0 
1.394339942459e-03 2.997604865896e-03 0.0 
0.0 0.0 0.0 
3.813377560082e-04 1.632550759336e-03 0.0 
1.632550759336e-03 7.666142012114e-03 0.0 
0.0 0.0 0.0 
-1.082874250727e-03 1.764676332261e-03 0.0 
1.764676332261e-03 1.441329941962e-02 0.0 
0.0 0.0 0.0 
2.023122341541e-04 -1.668358525173e-03 0.0 
-1.668358525173e-03 1.339062995996e-03 0.0 
0.0 0.0 0.0 
0.0 1.926480881843e-03 0.0 
1.926480881843e-03 7.888799005409e-03 0.0 
0.0 0.0 0.0 
7.471742007519e-04 1.647088236790e-03 0.0 
1.647088236790e-03 7.113450299952e-03 0.0 
0.0 0.0 0.0 
1.565881031023e-03 2.457636584260e-03 0.0 
2.457636584260e-03 3.575085760157e-03 0.0 
0.0 0.0 0.0 
-9.433185785857e-04 -1.618269076880e-03 0.0 
-1.618269076880e-03 4.648019360312e-04 0.0 
0.0 0.0 0.0 
3.316672220670e-04 9.772269830466e-04 0.0 
9.772269830466e-04 7.407114862328e-03 0.0 
0.0 0.0 0.0 
-1.063772914535e-03 2.089350453156e-03 0.0 
2.089350453156e-03 1.394378364146e-02 0.0 
0.0 0.0 0.0 
1.368699998828e-03 -1.814414057790e-03 0.0 
-1.814414057790e-03 2.236733192522e-04 0.0 
0.0 0.0 0.0 
0.0 1.242315264817e-03 0.0 
1.242315264817e-03 7.478834283334e-03 0.0 
0.0 0.0 0.0 
1.169238202471e-03 -1.939013282378e-04 0.0 
-1.939013282378e-04 3.889988026692e-03 0.0 
0.0 0.0 0.0 
-3.822125612171e-04 2.836503607935e-03 0.0 
2.836503607935e-03 6.966201207426e-03 0.0 
0.0 0.0 0.0 
-1.704822678704e-03 1.570518557165e-03 0.0 
1.570518557165e-03 1.247287195415e-02 0.0 
0.0 0.0 0.0 
2.133119377635e-03 1.368348936331e-03 0.0 
1.368348936331e-03 3.040652246674e-03 0.0 
0.0 0.0 0.0 
1.254103591866e-03 -6.245257568422e-04 0.0 
-6.245257568422e-04 2.881828986757e-03 0.0 
0.0 0.0 0.0 
1.854394112403e-03 5.051872505632e-04 0.0 
5.051872505632e-04 3.466735223965e-03 0.0 
0.0 0.0 0.0 
-1.683201246276e-03 1.630268242175e-03 0.0 
1.630268242175e-03 1.338297084176e-02 0.0 
0.0 0.0 0.0 
-7.820645529972e-04 2.692180651905e-03 0.0 
2.692180651905e-03 8.653898825241e-03 0.0 
0.0 0.0 0.0 
1.518178113185e-03 2.006033981163e-03 0.0 
2.006033981163e-03 5.519030562409e-03 0.0 
0.0 0.0 0.0 
-1.048517421405e-03 6.148924377910e-05 0.0 
6.148924377910e-05 1.359271513815e-02 0.0 
0.0 0.0 0.0 
4.576206834528e-04 -9.408936110276e-04 0.0 
-9.408936110276e-04 2.771875798824e-03 0.0 
0.0 0.0 0.0 
1.878309953539e-03 1.510389488365e-03 0.0 
1.510389488365e-03 4.272424816109e-03 0.0 
0.0 0.0 0.0 
1.159146502678e-03 -1.727366050153e-03 0.0 
-1.727366050153e-03 6.343048695421e-04 0.0 
0.0 0.0 0.0 
5.274582758654e-04 -3.027364772703e-04 0.0 
-3.027364772703e-04 4.502195963090e-03 0.0 
0.0 0.0 0.0 
-1.438116412844e-04 -1.752033390695e-04 0.0 
-1.752033390695e-04 9.722008623192e-05 0.0 
0.0 0.0 0.0 
8.418853133867e-04 2.807208928829e-03 0.0 
2.807208928829e-03 2.847208241362e-03 0.0 
0.0 0.0 0.0 
1.413717182302e-03 -1.811080132215e-03 0.0 
-1.811080132215e-03 1.318956784768e-05 0.0 
0.0 0.0 0.0 
4.366387857730e-04 -6.527065364839e-04 0.0 
-6.527065364839e-04 3.372747508893e-03 0.0 
0.0 0.0 0.0 
1.315126627959e-03 2.587029285877e-03 0.0 
2.587029285877e-03 4.414481428954e-03 0.0 
0.0 0.0 0.0 
1.386165163921e-03 -6.180759125180e-05 0.0 
-6.180759125180e-05 3.869346783382e-03 0.0 
0.0 0.0 0.0 
-1.439554141425e-03 3.646871575528e-04 0.0 
3.646871575528e-04 1.368971363395e-02 0.0 
0.0 0.0 0.0 
9.386874422350e-04 -2.028848607661e-03 0.0 
-2.028848607661e-03 2.595959595335e-04 0.0 
0.0 0.0 0.0 
0.0 1.054827619669e-03 0.0 
1.054827619669e-03 7.435648341960e-03 0.0 
0.0 0.0 0.0 
-4.363236495432e-04 2.792446405843e-03 0.0 
2.792446405843e-03 9.425730231587e-03 0.0 
0.0 0.0 0.0 
3.568657720523e-04 -5.307098999891e-04 0.0 
-5.307098999891e-04 3.644228726090e-03 0.0 
0.0 0.0 0.0 
-2.037850669513e-04 2.828806871687e-03 0.0 
2.828806871687e-03 8.641670682001e-03 0.0 
0.0 0.0 0.0 
3.121791173026e-04 -6.553804392543e-04 0.0 
-6.553804392543e-04 3.373834848779e-03 0.0 
0.0 0.0 0.0 
-5.567004154667e-04 -9.108326672014e-05 0.0 
-9.108326672014e-05 3.347698863250e-04 0.0 
0.0 0.0 0.0 
-1.836461717901e-03 1.614089817740e-03 0.0 
1.614089817740e-03 1.283675342733e-02 0.0 
0.0 0.0 0.0 
5.785411109960e-06 -1.925246470597e-04 0.0 
-1.925246470597e-04 3.178970105872e-03 0.0 
0.0 0.0 0.0 
4.637746746508e-04 -1.688926814326e-05 0.0 
-1.688926814326e-05 -9.637883658020e-05 0.0 
0.0 0.0 0.0 
2.381619499392e-04 -4.925524027641e-04 0.0 
-4.925524027641e-04 3.545547435911e-03 0.0 
0.0 0.0 0.0 
1.264593063378e-03 1.212322225333e-04 0.0 
1.212322225333e-04 4.403387114490e-03 0.0 
0.0 0.0 0.0 
-6.599305525214e-04 4.455060567295e-04 0.0 
4.455060567295e-04 1.493077770469e-02 0.0 
0.0 0.0 0.0 
1.999650511471e-03 3.287941963157e-04 0.0 
3.287941963157e-04 2.842790959821e-03 0.0 
0.0 0.0 0.0 
2.021478293122e-03 4.210953857882e-04 0.0 
4.210953857882e-04 3.065816888809e-03 0.0 
0.0 0.0 0.0 
-2.013266024002e-03 1.255106873573e-03 0.0 
1.255106873573e-03 1.248906245694e-02 0.0 
0.0 0.0 0.0 
-1.516389883240e-03 1.785485575230e-04 0.0 
1.785485575230e-04 1.266768801586e-02 0.0 
0.0 0.0 0.0 
-3.628990102419e-04 1.798367689830e-03 0.0 
1.798367689830e-03 1.484504448154e-02 0.0 
0.0 0.0 0.0 
3.643102932571e-05 2.836745013017e-03 0.0 
2.836745013017e-03 7.831604827637e-03 0.0 
0.0 0.0 0.0 
7.303255353686e-04 -3.611454216554e-05 0.0 
-3.611454216554e-05 -1.864998889161e-04 0.0 
0.0 0.0 0.0 
-2.425057468616e-04 -8.158203866887e-04 0.0 
-8.158203866887e-04 1.253670354443e-03 0.0 
0.0 0.0 0.0 
-8.493352631924e-04 -9.777362245266e-04 0.0 
-9.777362245266e-04 6.336154699593e-04 0.0 
0.0 0.0 0.0 
5.382216112837e-05 -1.378269241776e-03 0.0 
-1.378269241776e-03 1.660230289424e-03 0.0 
0.0 0.0 0.0 
-2.345611700503e-04 2.885576699719e-03 0.0 
2.885576699719e-03 1.072213608553e-02 0.0 
0.0 0.0 0.0 
-7.610841762724e-04 4.133555266999e-04 0.0 
4.133555266999e-04 1.493498828967e-02 0.0 
0.0 0.0 0.0 
7.103771552579e-04 8.731366193203e-05 0.0 
8.731366193203e-05 5.403157315778e-03 0.0 
0.0 0.0 0.0 
8.167435636808e-05 -9.901219726965e-04 0.0 
-9.901219726965e-04 2.183910430522e-03 0.0 
0.0 0.0 0.0 
3.983187232299e-04 -3.407061344979e-04 0.0 
-3.407061344979e-04 4.509145824396e-03 0.0 
0.0 0.0 0.0 
1.079137410299e-03 7.019956917672e-04 0.0 
7.019956917672e-04 5.508955107040e-03 0.0 
0.0 0.0 0.0 
2.568643106345e-03 3.463821350592e-04 0.0 
3.463821350592e-04 -3.566451000473e-03 0.0 
0.0 0.0 0.0 
4.354524217431e-06 -1.641931126426e-04 0.0 
-1.641931126426e-04 3.178460666479e-03 0.0 
0.0 0.0 0.0 
-6.919365000968e-06 -1.000895060455e-04 0.0 
-1.000895060455e-04 2.642543229800e-03 0.0 
0.0 0.0 0.0 
2.647355322214e-04 7.842120131427e-04 0.0 
7.842120131427e-04 7.365401195872e-03 0.0 
0.0 0.0 0.0 
0.0 8.529731657321e-04 0.0 
8.529731657321e-04 7.378634157763e-03 0.0 
0.0 0.0 0.0 
2.190314982875e-05 -1.569141761318e-04 0.0 
-1.569141761318e-04 3.514296218650e-03 0.0 
0.0 0.0 0.0 
2.522943653611e-04 -5.311159267330e-04 0.0 
-5.311159267330e-04 3.644899677269e-03 0.0 
0.0 0.0 0.0 
1.312100474635e-03 -4.571642679606e-04 0.0 
-4.571642679606e-04 3.247825965526e-03 0.0 
0.0 0.0 0.0 
1.033122153004e-03 9.341666189334e-04 0.0 
9.341666189334e-04 5.855152428597e-03 0.0 
0.0 0.0 0.0 
-3.452656423300e-04 -8.259650573445e-04 0.0 
-8.259650573445e-04 1.413653716063e-03 0.0 
0.0 0.0 0.0 
1.114766454764e-03 4.846728065133e-04 0.0 
4.846728065133e-04 5.205836998116e-03 0.0 
0.0 0.0 0.0 
3.528930662102e-04 -1.284563482567e-04 0.0 
-1.284563482567e-04 5.997258419306e-04 0.0 
0.0 0.0 0.0 
2.009259373807e-04 -6.044927616537e-04 0.0 
-6.044927616537e-04 3.298700278531e-03 0.0 
0.0 0.0 0.0 
4.449117360317e-04 -6.763926855467e-04 0.0 
-6.763926855467e-04 3.435310588212e-03 0.0 
0.0 0.0 0.0 
4.036701373549e-04 -4.582196588753e-05 0.0 
-4.582196588753e-05 2.195496562372e-04 0.0 
0.0 0.0 0.0 
1.272912676220e-05 -1.024977653815e-04 0.0 
-1.024977653815e-04 3.359823004967e-03 0.0 
0.0 0.0 0.0 
-8.843240896431e-04 1.720083305335e-03 0.0 
1.720083305335e-03 1.441955566158e-02 0.0 
0.0 0.0 0.0 
7.166807341683e-04 -2.213112371786e-05 0.0 
-2.213112371786e-05 -1.814391314110e-04 0.0 
0.0 0.0 0.0 
-1.611119420069e-03 2.811629211407e-04 0.0 
2.811629211407e-04 1.267429261751e-02 0.0 
0.0 0.0 0.0 
-1.519681118415e-03 3.810107653608e-04 0.0 
3.810107653608e-04 1.254541165297e-02 0.0 
0.0 0.0 0.0 
1.823094438417e-03 8.168752263069e-04 0.0 
8.168752263069e-04 3.896004294985e-03 0.0 
0.0 0.0 0.0 
-1.879475970190e-06 -6.462108353084e-05 0.0 
-6.462108353084e-05 2.643849264401e-03 0.0 
0.0 0.0 0.0 
1.100488766608e-03 -1.712990721382e-03 0.0 
-1.712990721382e-03 8.364060729280e-04 0.0 
0.0 0.0 0.0 
1.399746834996e-04 3.158013285293e-03 0.0 
3.158013285293e-03 1.495586803938e-03 0.0 
0.0 0.0 0.0 
4.352159895338e-04 1.703365519049e-04 0.0 
1.703365519049e-04 6.205196723774e-03 0.0 
0.0 0.0 0.0 
6.204718306257e-05 3.105718290897e-03 0.0 
3.105718290897e-03 1.050003899841e-02 0.0 
0.0 0.0 0.0 
-1.024846586227e-03 6.160264820066e-04 0.0 
6.160264820066e-04 1.472400267578e-02 0.0 
0.0 0.0 0.0 
-2.933248883250e-04 2.913836854959e-03 0.0 
2.913836854959e-03 4.227594553561e-03 0.0 
0.0 0.0 0.0 
-4.923724652248e-04 -6.492620817926e-04 0.0 
-6.492620817926e-04 9.339029319235e-04 0.0 
0.0 0.0 0.0 
-1.286304266002e-03 2.540854920345e-03 0.0 
2.540854920345e-03 9.998934154283e-03 0.0 
0.0 0.0 0.0 
-1.287823367884e-03 4.873035948051e-05 0.0 
4.873035948051e-05 1.263450905118e-02 0.0 
0.0 0.0 0.0 
-1.200549647175e-03 3.409844139967e-05 0.0 
3.409844139967e-05 1.258699551834e-02 0.0 
0.0 0.0 0.0 
5.033149447182e-04 -2.327707646079e-05 0.0 
-2.327707646079e-05 -1.088601104431e-04 0.0 
0.0 0.0 0.0 
3.530710735067e-04 -6.248531598486e-05 0.0 
-6.248531598486e-05 2.409001465367e-04 0.0 
0.0 0.0 0.0 
3.053824323671e-04 -6.341906741666e-05 0.0 
-6.341906741666e-05 6.196308253694e-04 0.0 
0.0 0.0 0.0 
-1.431074531504e-04 -8.343246109242e-04 0.0 
-8.343246109242e-04 1.868303599520e-03 0.0 
0.0 0.0 0.0 
5.715842185734e-04 -3.927469408778e-05 0.0 
-3.927469408778e-05 1.559979755010e-04 0.0 
0.0 0.0 0.0 
3.020124925390e-05 -9.500715448517e-05 0.0 
-9.500715448517e-05 3.719010922921e-03 0.0 
0.0 0.0 0.0 
-1.338130227515e-03 -1.099152522019e-03 0.0 
-1.099152522019e-03 -1.850361702087e-03 0.0 
0.0 0.0 0.0 
-1.491026209910e-05 -8.816771143563e-04 0.0 
-8.816771143563e-04 2.149568937272e-03 0.0 
0.0 0.0 0.0 
-9.362235497489e-04 1.075427018427e-04 0.0 
1.075427018427e-04 1.392124344325e-02 0.0 
0.0 0.0 0.0 
-1.345322679852e-03 1.564396579941e-04 0.0 
1.564396579941e-04 1.258106571101e-02 0.0 
0.0 0.0 0.0 
-3.624942719571e-04 2.902369170365e-03 0.0 
2.902369170365e-03 1.136770721615e-02 0.0 
0.0 0.0 0.0 
1.185086643472e-03 -6.832276861454e-05 0.0 
-6.832276861454e-05 4.223977734318e-03 0.0 
0.0 0.0 0.0 
-9.875091598762e-04 7.057728467482e-05 0.0 
7.057728467482e-05 1.357869944112e-02 0.0 
0.0 0.0 0.0 
-9.272885904243e-06 -1.722101184128e-05 0.0 
-1.722101184128e-05 2.823089602915e-03 0.0 
0.0 0.0 0.0 
4.396519014982e-04 -7.597979547157e-05 0.0 
-7.597979547157e-05 5.608496994012e-04 0.0 
0.0 0.0 0.0 
0.0 9.172302123830e-04 0.0 
9.172302123830e-04 1.558013864712e-02 0.0 
0.0 0.0 0.0 
-2.712715207991e-04 1.027538422430e-03 0.0 
1.027538422430e-03 1.554457379050e-02 0.0 
0.0 0.0 0.0 
-1.355801111256e-03 3.345758804059e-04 0.0 
3.345758804059e-04 1.345757866045e-02 0.0 
0.0 0.0 0.0 
-1.366784422431e-03 7.118985122691e-05 0.0 
7.118985122691e-05 1.264146869429e-02 0.0 
0.0 0.0 0.0 
-2.679242038450e-06 -1.481710154328e-04 0.0 
-1.481710154328e-04 2.847550067886e-03 0.0 
0.0 0.0 0.0 
-2.250206625760e-04 7.089741031259e-04 0.0 
7.089741031259e-04 1.565300829763e-02 0.0 
0.0 0.0 0.0 
-2.841142196308e-05 -9.684879990870e-04 0.0 
-9.684879990870e-04 1.926936312045e-03 0.0 
0.0 0.0 0.0 
-1.421479611318e-03 2.423468798726e-04 0.0 
2.423468798726e-04 1.256396392939e-02 0.0 
0.0 0.0 0.0 
-1.423397819999e-03 1.199860694657e-04 0.0 
1.199860694657e-04 1.265196847048e-02 0.0 
0.0 0.0 0.0 
-1.541145709905e-03 2.090054268064e-03 0.0 
2.090054268064e-03 1.060438198806e-02 0.0 
0.0 0.0 0.0 
0.0 2.035912508546e-03 0.0 
2.035912508546e-03 1.484960490738e-02 0.0 
0.0 0.0 0.0 
-2.586112139124e-04 8.670415919907e-04 0.0 
8.670415919907e-04 1.560819323450e-02 0.0 
0.0 0.0 0.0 
5.477717062303e-04 -5.226318972615e-05 0.0 
-5.226318972615e-05 1.637184959802e-04 0.0 
0.0 0.0 0.0 
5.477413178643e-04 -1.978208553411e-05 0.0 
-1.978208553411e-05 -1.224204409477e-04 0.0 
0.0 0.0 0.0 
-3.913724238617e-04 -6.151012131382e-04 0.0 
-6.151012131382e-04 1.096253369296e-03 0.0 
0.0 0.0 0.0 
6.006783418275e-04 -6.542628164808e-04 0.0 
-6.542628164808e-04 3.431156467539e-03 0.0 
0.0 0.0 0.0 
4.760189204012e-05 3.363654623953e-05 0.0 
3.363654623953e-05 6.906650250612e-03 0.0 
0.0 0.0 0.0 
-3.291436369454e-03 -1.961300465785e-03 0.0 
-1.961300465785e-03 -2.152458158394e-03 0.0 
0.0 0.0 0.0 
-7.251129926831e-04 3.481026128394e-05 0.0 
3.481026128394e-05 1.466334068330e-02 0.0 
0.0 0.0 0.0 
-1.566496407915e-03 -8.613071698672e-04 0.0 
-8.613071698672e-04 7.216990294419e-04 0.0 
0.0 0.0 0.0 
1.861588460804e-03 5.844178766933e-04 0.0 
5.844178766933e-04 3.683141947924e-03 0.0 
0.0 0.0 0.0 
-6.979051552112e-04 -5.842290380178e-04 0.0 
-5.842290380178e-04 1.129718158794e-04 0.0 
0.0 0.0 0.0 
-1.758927263337e-03 -2.079124724543e-03 0.0 
-2.079124724543e-03 -6.926790419037e-04 0.0 
0.0 0.0 0.0 
1.849362556182e-03 2.922216727786e-04 0.0 
2.922216727786e-04 3.373515341705e-03 0.0 
0.0 0.0 0.0 
1.296310944254e-04 3.588454931447e-05 0.0 
3.588454931447e-05 6.610083819870e-03 0.0 
0.0 0.0 0.0 
-9.910157834631e-04 6.704420350118e-05 0.0 
6.704420350118e-05 1.389184637127e-02 0.0 
0.0 0.0 0.0 
-9.614466597370e-04 2.697167582597e-03 0.0 
2.697167582597e-03 9.443888076378e-03 0.0 
0.0 0.0 0.0 
4.400223136931e-04 -3.538316805291e-05 0.0 
-3.538316805291e-05 2.027440315082e-04 0.0 
0.0 0.0 0.0 
3.113634379366e-04 -2.666395220734e-04 0.0 
-2.666395220734e-04 4.791757206995e-03 0.0 
0.0 0.0 0.0 
0.0 2.749620048794e-04 0.0 
2.749620048794e-04 1.571245118060e-02 0.0 
0.0 0.0 0.0 
-1.932959853759e-04 3.079168871450e-04 0.0 
3.079168871450e-04 1.571936852915e-02 0.0 
0.0 0.0 0.0 
-1.282764396312e-03 9.918771797844e-05 0.0 
9.918771797844e-05 1.258109801877e-02 0.0 
0.0 0.0 0.0 
1.823664943262e-03 8.727342072041e-04 0.0 
8.727342072041e-04 4.058308663346e-03 0.0 
0.0 0.0 0.0 
0.0 7.631717593238e-04 0.0 
7.631717593238e-04 1.563813213621e-02 0.0 
0.0 0.0 0.0 
9.385417285086e-04 2.495394034377e-03 0.0 
2.495394034377e-03 7.146629022538e-03 0.0 
0.0 0.0 0.0 
4.528265765074e-04 -3.553969143130e-05 0.0 
-3.553969143130e-05 5.369904239516e-04 0.0 
0.0 0.0 0.0 
6.086744068754e-04 -3.129529522315e-05 0.0 
-3.129529522315e-05 1.419737655843e-04 0.0 
0.0 0.0 0.0 
4.591476766924e-04 -1.618100284314e-05 0.0 
-1.618100284314e-05 2.000526798460e-04 0.0 
0.0 0.0 0.0 
-1.118373980646e-06 -1.635074492311e-05 0.0 
-1.635074492311e-05 3.185508683046e-03 0.0 
0.0 0.0 0.0 
2.640589486913e-05 9.167996460007e-06 0.0 
9.167996460007e-06 7.572107204090e-03 0.0 
0.0 0.0 0.0 
-3.207917045784e-04 -1.684781226508e-05 0.0 
-1.684781226508e-05 1.543821091523e-02 0.0 
0.0 0.0 0.0 
6.095981309771e-04 -1.017670567220e-05 0.0 
-1.017670567220e-05 -1.544891242300e-04 0.0 
0.0 0.0 0.0 
2.721930932648e-05 -7.077484846147e-05 0.0 
-7.077484846147e-05 3.718975976337e-03 0.0 
0.0 0.0 0.0 
0.0 2.771315269382e-05 0.0 
2.771315269382e-05 7.610363621556e-03 0.0 
0.0 0.0 0.0 
4.036572241484e-05 5.040972645739e-05 0.0 
5.040972645739e-05 7.542721816045e-03 0.0 
0.0 0.0 0.0 
2.776417165873e-04 6.205584046745e-04 0.0 
6.205584046745e-04 7.348216077667e-03 0.0 
0.0 0.0 0.0 
-8.273704424901e-04 7.016385279771e-05 0.0 
7.016385279771e-05 1.432809281736e-02 0.0 
0.0 0.0 0.0 
-6.499666231791e-04 -2.222400825463e-05 0.0 
-2.222400825463e-05 1.483011508924e-02 0.0 
0.0 0.0 0.0 
0.0 4.288661525116e-05 0.0 
4.288661525116e-05 7.546760213471e-03 0.0 
0.0 0.0 0.0 
0.0 6.571037386347e-05 0.0 
6.571037386347e-05 7.538509391052e-03 0.0 
0.0 0.0 0.0 
-7.098993667873e-04 7.765862064310e-05 0.0 
7.765862064310e-05 1.466484727954e-02 0.0 
0.0 0.0 0.0 
8.046604652865e-04 1.812173036835e-05 0.0 
1.812173036835e-05 -2.437551374455e-04 0.0 
0.0 0.0 0.0 
-1.145550322637e-03 1.530389647398e-05 0.0 
1.530389647398e-05 1.256600584510e-02 0.0 
0.0 0.0 0.0 
-1.239890830261e-03 6.526844144953e-05 0.0 
6.526844144953e-05 1.259936446941e-02 0.0 
0.0 0.0 0.0 
5.717878994376e-04 -1.304131596484e-05 0.0 
-1.304131596484e-05 -1.324627536285e-04 0.0 
0.0 0.0 0.0 
0.0 2.347958633038e-04 0.0 
2.347958633038e-04 7.459896433811e-03 0.0 
0.0 0.0 0.0 
2.145318567917e-04 4.760643247224e-04 0.0 
4.760643247224e-04 7.346770418102e-03 0.0 
0.0 0.0 0.0 
0.0 4.192981628438e-04 0.0 
4.192981628438e-04 7.349233896965e-03 0.0 
0.0 0.0 0.0 
7.439776410063e-04 -6.438616885429e-06 0.0 
-6.438616885429e-06 -1.964387746767e-04 0.0 
0.0 0.0 0.0 
7.258067774516e-04 -1.555402931939e-05 0.0 
-1.555402931939e-05 -1.866706011864e-04 0.0 
0.0 0.0 0.0 
0.0 6.968066816970e-04 0.0 
6.968066816970e-04 7.352719390002e-03 0.0 
0.0 0.0 0.0 
0.0 5.429175136200e-04 0.0 
5.429175136200e-04 7.344072776968e-03 0.0 
0.0 0.0 0.0 
-8.815153662785e-04 -2.920759979029e-05 0.0 
-2.920759979029e-05 1.414737569486e-02 0.0 
0.0 0.0 0.0 
-1.100557557043e-03 1.070165146650e-05 0.0 
1.070165146650e-05 1.254503028248e-02 0.0 
0.0 0.0 0.0 
-7.733530877764e-04 -2.559886256077e-05 0.0 
-2.559886256077e-05 1.449722526880e-02 0.0 
0.0 0.0 0.0 
-1.016041561140e-03 -3.347946817317e-05 0.0 
-3.347946817317e-05 1.339142085037e-02 0.0 
0.0 0.0 0.0 
-1.083011123208e-03 7.224644788662e-07 0.0 
7.224644788662e-07 1.253712257647e-02 0.0 
0.0 0.0 0.0 
7.236386043072e-04 -3.226300922000e-05 0.0 
-3.226300922000e-05 -1.721212150307e-04 0.0 
0.0 0.0 0.0 
5.912600207449e-04 -4.339532938472e-05 0.0 
-4.339532938472e-05 -9.471981624676e-05 0.0 
0.0 0.0 0.0 
4.982958955457e-04 -5.856290931760e-05 0.0 
-5.856290931760e-05 -8.049800663579e-05 0.0 
0.0 0.0 0.0 
4.790932177965e-04 -6.827477132122e-05 0.0 
-6.827477132122e-05 -5.852155838970e-05 0.0 
0.0 0.0 0.0 
3.683198310900e-05 -4.576841636225e-06 0.0 
-4.576841636225e-06 3.912325032365e-03 0.0 
0.0 0.0 0.0 
1.806508694835e-05 -1.286248246250e-05 0.0 
-1.286248246250e-05 3.544840253287e-03 0.0 
0.0 0.0 0.0 
9.145614589978e-05 -4.249013780282e-05 0.0 
-4.249013780282e-05 7.083625016135e-05 0.0 
0.0 0.0 0.0 
9.292610082490e-05 9.235221813054e-06 0.0 
9.235221813054e-06 5.024025207078e-03 0.0 
0.0 0.0 0.0 
-2.564293231055e-05 -7.104267196196e-05 0.0 
-7.104267196196e-05 1.129771096104e-04 0.0 
0.0 0.0 0.0 
0.0 1.625253587643e-03 0.0 
1.625253587643e-03 1.520491229153e-02 0.0 
0.0 0.0 0.0 
0.0 6.317846215396e-04 0.0 
6.317846215396e-04 1.566741915646e-02 0.0 
0.0 0.0 0.0 
0.0 1.083514707540e-03 0.0 
1.083514707540e-03 1.550644974253e-02 0.0 
0.0 0.0 0.0 
2.158542888828e-04 -9.071902877592e-06 0.0 
-9.071902877592e-06 1.197391680278e-03 0.0 
0.0 0.0 0.0 
4.997525776318e-06 -1.627543438953e-05 0.0 
-1.627543438953e-05 2.447748831920e-03 0.0 
0.0 0.0 0.0 
0.0 4.950037449360e-04 0.0 
4.950037449360e-04 1.567776850373e-02 0.0 
0.0 0.0 0.0 
7.657980840392e-05 1.917092737158e-05 0.0 
1.917092737158e-05 6.270090400237e-03 0.0 
0.0 0.0 0.0 
0.0 3.869484800040e-04 0.0 
3.869484800040e-04 1.573130366878e-02 0.0 
0.0 0.0 0.0 
5.176676630780e-05 2.523720997104e-05 0.0 
2.523720997104e-05 6.707473256137e-03 0.0 
0.0 0.0 0.0 
2.571581559985e-05 3.396703742417e-05 0.0 
3.396703742417e-05 7.151448469625e-03 0.0 
0.0 0.0 0.0 
8.438156478219e-06 -7.493448395515e-05 0.0 
-7.493448395515e-05 3.359812745127e-03 0.0 
0.0 0.0 0.0 
-2.410341885931e-04 5.648709088301e-04 0.0 
5.648709088301e-04 1.567282707549e-02 0.0 
0.0 0.0 0.0 
-1.903508137385e-04 4.776645211769e-04 0.0 
4.776645211769e-04 1.569804012212e-02 0.0 
0.0 0.0 0.0 
6.304809039248e-05 -3.008080481025e-05 0.0 
-3.008080481025e-05 6.458539160697e-03 0.0 
0.0 0.0 0.0 
3.845655031420e-05 -2.582625190104e-05 0.0 
-2.582625190104e-05 6.910023390294e-03 0.0 
0.0 0.0 0.0 
1.796309065030e-04 -1.436874075453e-04 0.0 
-1.436874075453e-04 5.309697414565e-03 0.0 
0.0 0.0 0.0 
-1.005361533968e-03 -3.072557886060e-04 0.0 
-3.072557886060e-04 5.357815355413e-04 0.0 
0.0 0.0 0.0 
1.131162781534e-04 -5.312621619956e-04 0.0 
-5.312621619956e-04 3.203790155021e-03 0.0 
0.0 0.0 0.0 
5.056786128754e-04 -7.253845880725e-05 0.0 
-7.253845880725e-05 1.860108535849e-04 0.0 
0.0 0.0 0.0 
3.560757229459e-04 1.053186374356e-04 0.0 
1.053186374356e-04 6.211977814579e-03 0.0 
0.0 0.0 0.0 
2.918329540200e-04 -6.164763587332e-04 0.0 
-6.164763587332e-04 3.299993756239e-03 0.0 
0.0 0.0 0.0 
2.554321840715e-04 -2.539064838171e-05 0.0 
-2.539064838171e-05 5.912340652061e-03 0.0 
0.0 0.0 0.0 
-1.109607416049e-04 -8.786241931254e-04 0.0 
-8.786241931254e-04 1.670995647408e-03 0.0 
0.0 0.0 0.0 
8.487446387373e-05 -2.029038172748e-04 0.0 
-2.029038172748e-04 6.892023873599e-04 0.0 
0.0 0.0 0.0 
1.538793570410e-04 -2.448219473771e-05 0.0 
-2.448219473771e-05 6.365542252513e-03 0.0 
0.0 0.0 0.0 
1.635308862797e-04 -4.813617005595e-04 0.0 
-4.813617005595e-04 3.544231612964e-03 0.0 
0.0 0.0 0.0 
-8.471612758298e-06 -1.043483933307e-04 0.0 
-1.043483933307e-04 3.003451381467e-03 0.0 
0.0 0.0 0.0 
1.946122609455e-04 -7.281782168450e-05 0.0 
-7.281782168450e-05 5.920252601913e-03 0.0 
0.0 0.0 0.0 
-4.919891117569e-04 2.337465003765e-04 0.0 
2.337465003765e-04 1.511149259371e-02 0.0 
0.0 0.0 0.0 
-5.224340391408e-06 -7.229759561808e-05 0.0 
-7.229759561808e-05 3.004057516942e-03 0.0 
0.0 0.0 0.0 
1.132443352787e-03 1.955530711400e-04 0.0 
1.955530711400e-04 4.646181142300e-03 0.0 
0.0 0.0 0.0 
7.809298165384e-04 -3.042605960446e-04 0.0 
-3.042605960446e-04 4.306916750720e-03 0.0 
0.0 0.0 0.0 
2.451009728417e-04 -1.124120135491e-04 0.0 
-1.124120135491e-04 5.304486885617e-03 0.0 
0.0 0.0 0.0 
1.806699631988e-04 -6.747458562265e-05 0.0 
-6.747458562265e-05 5.544567701926e-03 0.0 
0.0 0.0 0.0 
2.501021766598e-03 1.428119336767e-03 0.0 
1.428119336767e-03 2.843649919757e-04 0.0 
0.0 0.0 0.0 
-1.100103727496e-03 2.647648252850e-03 0.0 
2.647648252850e-03 9.233184861780e-03 0.0 
0.0 0.0 0.0 
1.123254066856e-03 2.594105445838e-03 0.0 
2.594105445838e-03 4.846691617732e-03 0.0 
0.0 0.0 0.0 
4.176025147897e-04 -2.318802413303e-04 0.0 
-2.318802413303e-04 4.785769814453e-03 0.0 
0.0 0.0 0.0 
1.367605470737e-04 -5.312892498802e-05 0.0 
-5.312892498802e-05 6.173463891330e-03 0.0 
0.0 0.0 0.0 
1.312056813705e-04 -2.863973686101e-05 0.0 
-2.863973686101e-05 5.774328888200e-03 0.0 
0.0 0.0 0.0 
-1.291799019005e-04 -1.439030550125e-03 0.0 
-1.439030550125e-03 1.494031670586e-03 0.0 
0.0 0.0 0.0 
-5.447667706889e-04 3.993972625668e-04 0.0 
3.993972625668e-04 1.509322737314e-02 0.0 
0.0 0.0 0.0 
-7.051019246750e-04 3.374658966391e-04 0.0 
3.374658966391e-04 1.479004036361e-02 0.0 
0.0 0.0 0.0 
-1.099526788707e-03 9.698150779478e-05 0.0 
9.698150779478e-05 1.312508314921e-02 0.0 
0.0 0.0 0.0 
5.059257277913e-04 -1.879963383401e-04 0.0 
-1.879963383401e-04 4.924636292204e-03 0.0 
0.0 0.0 0.0 
3.236680758441e-04 -1.682937246130e-04 0.0 
-1.682937246130e-04 5.052840779081e-03 0.0 
0.0 0.0 0.0 
-5.616072760442e-04 2.015063606805e-04 0.0 
2.015063606805e-04 1.512196263388e-02 0.0 
0.0 0.0 0.0 
-6.160763055653e-04 2.965562304611e-04 0.0 
2.965562304611e-04 1.495739842251e-02 0.0 
0.0 0.0 0.0 
7.504522282020e-04 -4.365351454059e-04 0.0 
-4.365351454059e-04 3.984894506415e-03 0.0 
0.0 0.0 0.0 
1.031052348199e-04 -2.062054300465e-05 0.0 
-2.062054300465e-05 6.615217572228e-03 0.0 
0.0 0.0 0.0 
-8.790756466085e-04 6.318387718858e-04 0.0 
6.318387718858e-04 1.472163455018e-02 0.0 
0.0 0.0 0.0 
1.014550358338e-04 -5.816754773192e-05 0.0 
-5.816754773192e-05 5.774301110533e-03 0.0 
0.0 0.0 0.0 
2.532152686823e-04 8.069694109769e-05 0.0 
8.069694109769e-05 6.526703765499e-03 0.0 
0.0 0.0 0.0 
-6.257192260414e-04 3.692243471671e-04 0.0 
3.692243471671e-04 1.509877935887e-02 0.0 
0.0 0.0 0.0 
-1.021121561616e-03 2.501855929542e-04 0.0 
2.501855929542e-04 1.428822405874e-02 0.0 
0.0 0.0 0.0 
1.076355208071e-03 -3.005987249037e-06 0.0 
-3.005987249037e-06 4.423259055792e-03 0.0 
0.0 0.0 0.0 
-1.609117810875e-05 -3.198578059281e-04 0.0 
-3.198578059281e-04 1.868722437196e-03 0.0 
0.0 0.0 0.0 
-1.875504636516e-04 -1.696342728094e-03 0.0 
-1.696342728094e-03 1.217760183878e-03 0.0 
0.0 0.0 0.0 
-1.688187333071e-04 -5.105811680026e-04 0.0 
-5.105811680026e-04 9.135172025023e-04 0.0 
0.0 0.0 0.0 
-1.010760990327e-03 -1.381106262300e-03 0.0 
-1.381106262300e-03 2.119088181196e-04 0.0 
0.0 0.0 0.0 
-6.700935073500e-04 2.594195538548e-04 0.0 
2.594195538548e-04 1.496113862429e-02 0.0 
0.0 0.0 0.0 
1.204227122527e-04 1.284967354420e-05 0.0 
1.284967354420e-05 6.400163263903e-03 0.0 
0.0 0.0 0.0 
-5.628930980615e-04 -8.327787420491e-04 0.0 
-8.327787420491e-04 3.624481320446e-04 0.0 
0.0 0.0 0.0 
-9.736640345989e-04 2.394280822020e-03 0.0 
2.394280822020e-03 1.332577205399e-02 0.0 
0.0 0.0 0.0 
-1.110593561998e-03 1.309167155110e-04 0.0 
1.309167155110e-04 1.332766316671e-02 0.0 
0.0 0.0 0.0 
2.675812533079e-04 -1.033827858849e-04 0.0 
-1.033827858849e-04 5.658096153034e-03 0.0 
0.0 0.0 0.0 
1.559606584511e-04 -2.250789640185e-05 0.0 
-2.250789640185e-05 5.964125189980e-03 0.0 
0.0 0.0 0.0 
8.949477313640e-04 -1.563961725785e-03 0.0 
-1.563961725785e-03 1.337897368169e-03 0.0 
0.0 0.0 0.0 
1.177415883173e-04 -6.478482766841e-05 0.0 
-6.478482766841e-05 5.970402006481e-03 0.0 
0.0 0.0 0.0 
-1.148853343243e-03 3.066027998536e-05 0.0 
3.066027998536e-05 1.312361672611e-02 0.0 
0.0 0.0 0.0 
1.666702972174e-03 1.576910862621e-03 0.0 
1.576910862621e-03 4.905981138984e-03 0.0 
0.0 0.0 0.0 
1.991370162915e-04 1.410100701861e-04 0.0 
1.410100701861e-04 6.812431746872e-03 0.0 
0.0 0.0 0.0 
4.563550119419e-05 -1.637049191294e-04 0.0 
-1.637049191294e-04 1.804062429543e-03 0.0 
0.0 0.0 0.0 
3.627776871142e-04 1.982703602494e-04 0.0 
1.982703602494e-04 6.449620019705e-03 0.0 
0.0 0.0 0.0 
-9.190005068250e-04 2.342935298756e-04 0.0 
2.342935298756e-04 1.446933824847e-02 0.0 
0.0 0.0 0.0 
-1.995056216675e-06 -2.489089298459e-04 0.0 
-2.489089298459e-04 2.040643026747e-03 0.0 
0.0 0.0 0.0 
6.439857687801e-05 -1.618921954687e-03 0.0 
-1.618921954687e-03 1.332890336324e-03 0.0 
0.0 0.0 0.0 
1.196131459897e-04 -1.807457974216e-04 0.0 
-1.807457974216e-04 4.203931176705e-03 0.0 
0.0 0.0 0.0 
-1.097171391548e-03 2.857292634738e-04 0.0 
2.857292634738e-04 1.390931071591e-02 0.0 
0.0 0.0 0.0 
1.112479188123e-04 -7.293590410245e-04 0.0 
-7.293590410245e-04 2.659319182864e-03 0.0 
0.0 0.0 0.0 
-8.162260981667e-04 2.077206257111e-04 0.0 
2.077206257111e-04 1.464834178405e-02 0.0 
0.0 0.0 0.0 
-1.013022709934e-03 1.640675730105e-04 0.0 
1.640675730105e-04 1.411179733797e-02 0.0 
0.0 0.0 0.0 
2.868771034832e-04 -4.190960169629e-04 0.0 
-4.190960169629e-04 3.900407272807e-03 0.0 
0.0 0.0 0.0 
1.324495231407e-04 -9.642986893311e-05 0.0 
-9.642986893311e-05 5.546691115931e-03 0.0 
0.0 0.0 0.0 
1.638437807936e-04 -9.538792097136e-05 0.0 
-9.538792097136e-05 5.734296085024e-03 0.0 
0.0 0.0 0.0 
-8.350864337374e-04 2.733673603862e-04 0.0 
2.733673603862e-04 1.446336045225e-02 0.0 
0.0 0.0 0.0 
2.424351104313e-05 -3.924261510496e-04 0.0 
-3.924261510496e-04 1.529596169979e-03 0.0 
0.0 0.0 0.0 
1.905135676366e-04 -3.808675204552e-04 0.0 
-3.808675204552e-04 3.779625217538e-03 0.0 
0.0 0.0 0.0 
1.116480098819e-03 2.301286353754e-03 0.0 
2.301286353754e-03 6.785007724310e-03 0.0 
0.0 0.0 0.0 
-9.096385593331e-04 3.326056606702e-04 0.0 
3.326056606702e-04 1.462396195301e-02 0.0 
0.0 0.0 0.0 
1.426853415365e-04 -4.315111646360e-04 0.0 
-4.315111646360e-04 3.426990499633e-03 0.0 
0.0 0.0 0.0 
6.139816299844e-04 -3.651002332341e-04 0.0 
-3.651002332341e-04 4.317747900651e-03 0.0 
0.0 0.0 0.0 
4.835636352940e-04 2.303554113152e-04 0.0 
2.303554113152e-04 6.164921089671e-03 0.0 
0.0 0.0 0.0 
-9.256978394934e-04 2.872462291428e-04 0.0 
2.872462291428e-04 1.428357800509e-02 0.0 
0.0 0.0 0.0 
1.429013442040e-03 -7.413652498496e-04 0.0 
-7.413652498496e-04 -4.315885908119e-03 0.0 
0.0 0.0 0.0 
5.822766164543e-05 -3.144725932586e-04 0.0 
-3.144725932586e-04 8.189662898828e-04 0.0 
0.0 0.0 0.0 
2.785397014673e-03 3.340161105756e-04 0.0 
3.340161105756e-04 -2.938352260518e-03 0.0 
0.0 0.0 0.0 
1.793535251586e-04 -1.242155730729e-06 0.0 
-1.242155730729e-06 6.165386231067e-03 0.0 
0.0 0.0 0.0 
-1.014730819754e-03 2.911806346945e-04 0.0 
2.911806346945e-04 1.409951234747e-02 0.0 
0.0 0.0 0.0 
1.015451064028e-04 -1.491466047172e-04 0.0 
-1.491466047172e-04 4.573195154682e-03 0.0 
0.0 0.0 0.0 
-1.140769067045e-03 1.898225185878e-04 0.0 
1.898225185878e-04 1.352983486524e-02 0.0 
0.0 0.0 0.0 
9.533384335150e-04 5.739868490221e-04 0.0 
5.739868490221e-04 5.528159022265e-03 0.0 
0.0 0.0 0.0 
2.268444648457e-04 -3.162174119965e-04 0.0 
-3.162174119965e-04 4.140179098219e-03 0.0 
0.0 0.0 0.0 
2.195105117551e-04 -5.248481055916e-05 0.0 
-5.248481055916e-05 5.727398573544e-03 0.0 
0.0 0.0 0.0 
5.040628057307e-05 -2.721897558525e-04 0.0 
-2.721897558525e-04 1.860571567467e-03 0.0 
0.0 0.0 0.0 
3.103611088673e-04 1.651002996712e-04 0.0 
1.651002996712e-04 6.530185270138e-03 0.0 
0.0 0.0 0.0 
1.985082395135e-04 -4.182687218033e-04 0.0 
-4.182687218033e-04 3.900825152396e-03 0.0 
0.0 0.0 0.0 
4.313713206638e-05 -2.080115044667e-04 0.0 
-2.080115044667e-04 2.034011244987e-03 0.0 
0.0 0.0 0.0 
1.269451861956e-04 -3.707505973353e-04 0.0 
-3.707505973353e-04 3.778396396058e-03 0.0 
0.0 0.0 0.0 
9.922002965190e-05 -5.952355846331e-04 0.0 
-5.952355846331e-04 2.877795659756e-03 0.0 
0.0 0.0 0.0 
1.182254120380e-06 -8.183127958480e-04 0.0 
-8.183127958480e-04 2.139573335350e-03 0.0 
0.0 0.0 0.0 
1.403736977585e-04 -1.429212340728e-04 0.0 
-1.429212340728e-04 4.571627940480e-03 0.0 
0.0 0.0 0.0 
3.932238334501e-04 6.898703708990e-06 0.0 
6.898703708990e-06 -5.277352591282e-05 0.0 
0.0 0.0 0.0 
2.774044075338e-04 -4.776458828746e-05 0.0 
-4.776458828746e-05 4.853535882976e-06 0.0 
0.0 0.0 0.0 
2.389011770605e-04 -2.012371917851e-04 0.0 
-2.012371917851e-04 5.058400168459e-03 0.0 
0.0 0.0 0.0 
5.053929641452e-05 -3.299469101134e-04 0.0 
-3.299469101134e-04 1.694576437596e-03 0.0 
0.0 0.0 0.0 
3.873529026777e-04 -2.354607335935e-04 0.0 
-2.354607335935e-04 4.932626703942e-03 0.0 
0.0 0.0 0.0 
4.927557453276e-04 -2.971687583292e-04 0.0 
-2.971687583292e-04 4.633750724313e-03 0.0 
0.0 0.0 0.0 
4.207222776638e-04 -8.994862959192e-04 0.0 
-8.994862959192e-04 2.759383125725e-03 0.0 
0.0 0.0 0.0 
8.175484854946e-04 -1.977650410419e-03 0.0 
-1.977650410419e-03 5.770610529354e-04 0.0 
0.0 0.0 0.0 
-8.745252216074e-04 5.847818545493e-04 0.0 
5.847818545493e-04 1.489172396249e-02 0.0 
0.0 0.0 0.0 
1.003332210985e-03 2.517013949282e-03 0.0 
2.517013949282e-03 -2.471018680257e-03 0.0 
0.0 0.0 0.0 
8.527494091592e-05 -4.736920965248e-04 0.0 
-4.736920965248e-04 3.084894745496e-03 0.0 
0.0 0.0 0.0 
8.914907191819e-04 8.168365284724e-04 0.0 
8.168365284724e-04 5.844691186469e-03 0.0 
0.0 0.0 0.0 
3.195017625846e-05 -2.596410937936e-04 0.0 
-2.596410937936e-04 1.469210105026e-03 0.0 
0.0 0.0 0.0 
-1.173261369855e-03 1.704890689791e-04 0.0 
1.704890689791e-04 1.373478125974e-02 0.0 
0.0 0.0 0.0 
-1.195292022030e-03 8.408743172630e-05 0.0 
8.408743172630e-05 1.333430411620e-02 0.0 
0.0 0.0 0.0 
-1.425198329399e-04 -7.201861556359e-04 0.0 
-7.201861556359e-04 1.394366305519e-03 0.0 
0.0 0.0 0.0 
6.324034761227e-04 2.804197453183e-04 0.0 
2.804197453183e-04 5.842524195653e-03 0.0 
0.0 0.0 0.0 
-1.158977118966e-03 4.921629959635e-04 0.0 
4.921629959635e-04 1.441622542072e-02 0.0 
0.0 0.0 0.0 
-4.774405087282e-05 -3.895198365224e-04 0.0 
-3.895198365224e-04 1.707544202641e-03 0.0 
0.0 0.0 0.0 
-8.477097361584e-04 7.366855172413e-04 0.0 
7.366855172413e-04 1.499985689796e-02 0.0 
0.0 0.0 0.0 
-6.977894125040e-04 7.530809542612e-04 0.0 
7.530809542612e-04 1.499638522733e-02 0.0 
0.0 0.0 0.0 
-4.144542022133e-06 -4.773784196202e-04 0.0 
-4.773784196202e-04 1.884338698633e-03 0.0 
0.0 0.0 0.0 
-4.249745602960e-04 2.878293131809e-03 0.0 
2.878293131809e-03 5.072770815208e-03 0.0 
0.0 0.0 0.0 
-6.032022895508e-05 -7.554874492839e-04 0.0 
-7.554874492839e-04 1.855498120305e-03 0.0 
0.0 0.0 0.0 
2.239894182730e-04 -1.330213758057e-04 0.0 
-1.330213758057e-04 5.482430834455e-03 0.0 
0.0 0.0 0.0 
1.777116069273e-04 -2.236880085626e-04 0.0 
-2.236880085626e-04 4.364474096954e-03 0.0 
0.0 0.0 0.0 
-8.866178067257e-04 2.036898262266e-03 0.0 
2.036898262266e-03 1.395151623351e-02 0.0 
0.0 0.0 0.0 
-7.463998125743e-04 6.020850443508e-04 0.0 
6.020850443508e-04 1.488925126256e-02 0.0 
0.0 0.0 0.0 
2.980228175469e-04 -1.806030587541e-04 0.0 
-1.806030587541e-04 5.215932883728e-03 0.0 
0.0 0.0 0.0 
3.936450084197e-04 -1.364794971468e-04 0.0 
-1.364794971468e-04 5.208617545645e-03 0.0 
0.0 0.0 0.0 
-2.336849731215e-04 -7.263750503674e-04 0.0 
-7.263750503674e-04 1.567394644686e-03 0.0 
0.0 0.0 0.0 
2.982976597432e-04 -9.156932654859e-05 0.0 
-9.156932654859e-05 5.475650792253e-03 0.0 
0.0 0.0 0.0 
-1.016625740812e-03 5.071567622781e-04 0.0 
5.071567622781e-04 1.441398936672e-02 0.0 
0.0 0.0 0.0 
1.244620746013e-04 -2.245878598007e-04 0.0 
-2.245878598007e-04 4.364932959658e-03 0.0 
0.0 0.0 0.0 
-1.118679687843e-03 2.582548850356e-04 0.0 
2.582548850356e-04 1.410369553525e-02 0.0 
0.0 0.0 0.0 
-1.029766214841e-03 4.752749548347e-04 0.0 
4.752749548347e-04 1.459344792971e-02 0.0 
0.0 0.0 0.0 
2.217847258680e-03 1.676388193138e-03 0.0 
1.676388193138e-03 2.364368769132e-03 0.0 
0.0 0.0 0.0 
-7.809436103079e-04 4.762037783653e-04 0.0 
4.762037783653e-04 1.476319611924e-02 0.0 
0.0 0.0 0.0 
1.110737182819e-04 -3.227755659652e-04 0.0 
-3.227755659652e-04 3.656416438244e-03 0.0 
0.0 0.0 0.0 
1.557148308649e-04 -3.158302389621e-04 0.0 
-3.158302389621e-04 4.140557814235e-03 0.0 
0.0 0.0 0.0 
2.627320958304e-05 -4.886235965844e-04 0.0 
-4.886235965844e-04 2.757471460679e-03 0.0 
0.0 0.0 0.0 
4.123074998954e-04 -1.235027721999e-03 0.0 
-1.235027721999e-03 2.131649154271e-03 0.0 
0.0 0.0 0.0 
-1.016887741548e-03 3.882923490038e-04 0.0 
3.882923490038e-04 1.426377267192e-02 0.0 
0.0 0.0 0.0 
1.058863461890e-03 -7.859376433609e-04 0.0 
-7.859376433609e-04 2.814269101902e-03 0.0 
0.0 0.0 0.0 
-2.355115010255e-05 -6.406353637380e-04 0.0 
-6.406353637380e-04 2.038895374118e-03 0.0 
0.0 0.0 0.0 
-9.776936394101e-05 -4.956860718165e-04 0.0 
-4.956860718165e-04 1.080126707540e-03 0.0 
0.0 0.0 0.0 
-1.140448311157e-03 3.646624212389e-04 0.0 
3.646624212389e-04 1.426695123217e-02 0.0 
0.0 0.0 0.0 
-8.484887488103e-05 -7.068396410679e-04 0.0 
-7.068396410679e-04 2.049519727163e-03 0.0 
0.0 0.0 0.0 
4.305984908457e-04 2.820368832198e-04 0.0 
2.820368832198e-04 6.441056602434e-03 0.0 
0.0 0.0 0.0 
-9.144357384140e-04 3.824892247638e-04 0.0 
3.824892247638e-04 1.444396889354e-02 0.0 
0.0 0.0 0.0 
3.485007779178e-04 -5.072984057877e-05 0.0 
-5.072984057877e-05 5.649639591737e-03 0.0 
0.0 0.0 0.0 
3.874346533939e-04 1.458596857643e-03 0.0 
1.458596857643e-03 7.018279030144e-03 0.0 
0.0 0.0 0.0 
9.421936266385e-05 -4.141696012176e-04 0.0 
-4.141696012176e-04 3.423887860379e-03 0.0 
0.0 0.0 0.0 
-9.043935839292e-05 -5.360360747443e-04 0.0 
-5.360360747443e-04 1.893905913864e-03 0.0 
0.0 0.0 0.0 
-2.560954739524e-04 -5.609511913392e-04 0.0 
-5.609511913392e-04 1.225296007209e-03 0.0 
0.0 0.0 0.0 
4.622922447035e-04 -1.794999346813e-04 0.0 
-1.794999346813e-04 5.079134743659e-03 0.0 
0.0 0.0 0.0 
-1.013992702741e-03 2.157704895492e-04 0.0 
2.157704895492e-04 1.392684715828e-02 0.0 
0.0 0.0 0.0 
-1.487973166171e-04 -3.848108849429e-04 0.0 
-3.848108849429e-04 8.392246877074e-04 0.0 
0.0 0.0 0.0 
7.742077080497e-05 -6.880217117514e-04 0.0 
-6.880217117514e-04 2.653169977092e-03 0.0 
0.0 0.0 0.0 
1.124110356991e-04 -1.723989029654e-04 0.0 
-1.723989029654e-04 1.637084120438e-03 0.0 
0.0 0.0 0.0 
-1.208842248769e-03 2.589292730659e-04 0.0 
2.589292730659e-04 1.391278698061e-02 0.0 
0.0 0.0 0.0 
6.903569872541e-05 -5.602328321828e-04 0.0 
-5.602328321828e-04 2.872616276228e-03 0.0 
0.0 0.0 0.0 
6.353137637978e-04 -2.448789872433e-04 0.0 
-2.448789872433e-04 4.624573276885e-03 0.0 
0.0 0.0 0.0 
2.563278856105e-05 -4.470135142406e-04 0.0 
-4.470135142406e-04 2.753131794101e-03 0.0 
0.0 0.0 0.0 
-7.900955064490e-04 3.023791480726e-04 0.0 
3.023791480726e-04 1.479497803415e-02 0.0 
0.0 0.0 0.0 
9.335227889817e-06 -7.384534077803e-04 0.0 
-7.384534077803e-04 2.355224173364e-03 0.0 
0.0 0.0 0.0 
6.675445456097e-04 -1.275892194343e-04 0.0 
-1.275892194343e-04 4.918410544746e-03 0.0 
0.0 0.0 0.0 
-1.938480219061e-04 -1.591267755326e-03 0.0 
-1.591267755326e-03 1.201340048914e-03 0.0 
0.0 0.0 0.0 
5.847873232812e-04 -2.262307150552e-04 0.0 
-2.262307150552e-04 4.766846587419e-03 0.0 
0.0 0.0 0.0 
9.982729147295e-05 -2.612348690771e-04 0.0 
-2.612348690771e-04 4.005655344726e-03 0.0 
0.0 0.0 0.0 
4.600258198342e-04 -8.272901746031e-05 0.0 
-8.272901746031e-05 5.367485226815e-03 0.0 
0.0 0.0 0.0 
2.668029439690e-03 -1.190228253956e-04 0.0 
-1.190228253956e-04 -5.863607248590e-04 0.0 
0.0 0.0 0.0 
4.094308472036e-05 -2.121413766555e-04 0.0 
-2.121413766555e-04 1.648253277048e-03 0.0 
0.0 0.0 0.0 
-1.141588009029e-03 1.021243642321e-04 0.0 
1.021243642321e-04 1.354908678890e-02 0.0 
0.0 0.0 0.0 
1.686750366052e-03 3.792199281831e-04 0.0 
3.792199281831e-04 3.714609643579e-03 0.0 
0.0 0.0 0.0 
3.286408309386e-04 2.913307309573e-03 0.0 
2.913307309573e-03 5.821135119105e-03 0.0 
0.0 0.0 0.0 
-1.097582300685e-03 1.718914175929e-04 0.0 
1.718914175929e-04 1.392830431695e-02 0.0 
0.0 0.0 0.0 
7.263232745669e-05 -1.900993733804e-03 0.0 
-1.900993733804e-03 9.355975552394e-04 0.0 
0.0 0.0 0.0 
-1.233034795640e-03 5.046654856409e-04 0.0 
5.046654856409e-04 1.403871785127e-02 0.0 
0.0 0.0 0.0 
1.159898661978e-04 -2.234712140051e-04 0.0 
-2.234712140051e-04 1.452561738815e-03 0.0 
0.0 0.0 0.0 
4.802679761606e-04 1.085040277425e-04 0.0 
1.085040277425e-04 5.935747764088e-03 0.0 
0.0 0.0 0.0 
1.681323088614e-03 6.755807120359e-04 0.0 
6.755807120359e-04 4.088670056304e-03 0.0 
0.0 0.0 0.0 
1.483418168217e-03 1.837014703622e-03 0.0 
1.837014703622e-03 5.542663186042e-03 0.0 
0.0 0.0 0.0 
-6.762875648741e-04 6.903789707299e-04 0.0 
6.903789707299e-04 1.516820067900e-02 0.0 
0.0 0.0 0.0 
1.070417467453e-03 -5.727521496346e-04 0.0 
-5.727521496346e-04 3.266586829617e-03 0.0 
0.0 0.0 0.0 
-9.549958988919e-05 -4.511408431318e-04 0.0 
-4.511408431318e-04 1.543824633632e-03 0.0 
0.0 0.0 0.0 
8.770155063800e-04 -3.246385116164e-04 0.0 
-3.246385116164e-04 4.098763354737e-03 0.0 
0.0 0.0 0.0 
5.618757397532e-04 3.293220644165e-04 0.0 
3.293220644165e-04 6.149124713788e-03 0.0 
0.0 0.0 0.0 
7.487202171275e-04 -1.835836188049e-03 0.0 
-1.835836188049e-03 8.562047240768e-04 0.0 
0.0 0.0 0.0 
3.565260544300e-04 -1.381436106945e-04 0.0 
-1.381436106945e-04 5.376532743465e-03 0.0 
0.0 0.0 0.0 
-1.027197678353e-03 3.523730817412e-04 0.0 
3.523730817412e-04 1.444787441361e-02 0.0 
0.0 0.0 0.0 
1.090190894954e-03 -2.139653532725e-03 0.0 
-2.139653532725e-03 -9.073380580071e-05 0.0 
0.0 0.0 0.0 
7.230744063897e-04 -2.758130274238e-04 0.0 
-2.758130274238e-04 4.440353686377e-03 0.0 
0.0 0.0 0.0 
-1.353339000544e-03 2.413226939504e-04 0.0 
2.413226939504e-04 1.350839123013e-02 0.0 
0.0 0.0 0.0 
1.489901578844e-05 -3.136820200605e-04 0.0 
-3.136820200605e-04 2.237435443240e-03 0.0 
0.0 0.0 0.0 
8.214198309897e-05 -8.310444200779e-04 0.0 
-8.310444200779e-04 2.424351680733e-03 0.0 
0.0 0.0 0.0 
6.071434103854e-04 2.755024983036e-03 0.0 
2.755024983036e-03 6.530332781720e-03 0.0 
0.0 0.0 0.0 
5.891281270944e-04 -1.197713802504e-04 0.0 
-1.197713802504e-04 5.069192980026e-03 0.0 
0.0 0.0 0.0 
-3.729458133178e-04 2.855407617073e-03 0.0 
2.855407617073e-03 6.963497501404e-03 0.0 
0.0 0.0 0.0 
8.651336192225e-04 2.688575154974e-03 0.0 
2.688575154974e-03 5.693910367532e-03 0.0 
0.0 0.0 0.0 
-1.128360187038e-03 5.084207950814e-04 0.0 
5.084207950814e-04 1.422985435824e-02 0.0 
0.0 0.0 0.0 
-1.080582661750e-03 2.086696083360e-04 0.0 
2.086696083360e-04 1.373003890190e-02 0.0 
0.0 0.0 0.0 
-1.283048665634e-03 3.544823925195e-04 0.0 
3.544823925195e-04 1.369037894557e-02 0.0 
0.0 0.0 0.0 
1.503800280971e-04 -2.787672797924e-04 0.0 
-2.787672797924e-04 4.008883784779e-03 0.0 
0.0 0.0 0.0 
7.965104171384e-04 3.160204748756e-04 0.0 
3.160204748756e-04 5.537949918753e-03 0.0 
0.0 0.0 0.0 
1.046150636303e-03 -3.686802206444e-04 0.0 
-3.686802206444e-04 3.743306498371e-03 0.0 
0.0 0.0 0.0 
-1.243510371582e-03 1.617674632626e-04 0.0 
1.617674632626e-04 1.353337907757e-02 0.0 
0.0 0.0 0.0 
-7.915384862571e-04 2.618805561077e-03 0.0 
2.618805561077e-03 1.306902949571e-02 0.0 
0.0 0.0 0.0 
1.274483885652e-03 2.068145072282e-03 0.0 
2.068145072282e-03 6.204022264232e-03 0.0 
0.0 0.0 0.0 
7.352210253304e-04 -1.591168303328e-04 0.0 
-1.591168303328e-04 4.755620577436e-03 0.0 
0.0 0.0 0.0 
-8.998179152083e-04 4.961087644131e-04 0.0 
4.961087644131e-04 1.459056689657e-02 0.0 
0.0 0.0 0.0 
3.496746782778e-04 -1.054290260476e-03 0.0 
-1.054290260476e-03 2.459198941508e-03 0.0 
0.0 0.0 0.0 
1.928164294933e-04 -9.599272273269e-04 0.0 
-9.599272273269e-04 2.459288407675e-03 0.0 
0.0 0.0 0.0 
-7.755179862612e-05 -6.391287774941e-04 0.0 
-6.391287774941e-04 1.553052243364e-03 0.0 
0.0 0.0 0.0 
9.885849620803e-04 -1.786547740425e-04 0.0 
-1.786547740425e-04 4.241824930380e-03 0.0 
0.0 0.0 0.0 
1.664492012496e-04 -8.019167058303e-04 0.0 
-8.019167058303e-04 2.722007906128e-03 0.0 
0.0 0.0 0.0 
-1.247405855337e-03 3.686103429655e-04 0.0 
3.686103429655e-04 1.408005668709e-02 0.0 
0.0 0.0 0.0 
-1.346869197243e-03 3.681113616356e-04 0.0 
3.681113616356e-04 1.388691391070e-02 0.0 
0.0 0.0 0.0 
2.272239051976e-03 1.024342885802e-03 0.0 
1.024342885802e-03 2.393264349014e-03 0.0 
0.0 0.0 0.0 
1.267053730680e-04 -1.039552186372e-03 0.0 
-1.039552186372e-03 2.190786330563e-03 0.0 
0.0 0.0 0.0 
2.502094346950e-03 1.538341348096e-03 0.0 
1.538341348096e-03 -4.523260059177e-04 0.0 
0.0 0.0 0.0 
1.200824959531e-04 -8.772313692404e-04 0.0 
-8.772313692404e-04 2.431279801113e-03 0.0 
0.0 0.0 0.0 
2.861477972840e-04 -9.889050696560e-04 0.0 
-9.889050696560e-04 2.463202833236e-03 0.0 
0.0 0.0 0.0 
-1.504880874023e-04 -6.317294335836e-04 0.0 
-6.317294335836e-04 1.732331429522e-03 0.0 
0.0 0.0 0.0 
9.718937588992e-04 3.623534401847e-04 0.0 
3.623534401847e-04 5.224349165916e-03 0.0 
0.0 0.0 0.0 
1.020189855810e-03 -1.014975856652e-03 0.0 
-1.014975856652e-03 2.392719411581e-03 0.0 
0.0 0.0 0.0 
-8.961124791297e-04 4.482281633790e-04 0.0 
4.482281633790e-04 1.476688205698e-02 0.0 
0.0 0.0 0.0 
1.284026273183e-03 -8.926232913530e-04 0.0 
-8.926232913530e-04 2.371261702815e-03 0.0 
0.0 0.0 0.0 
1.075503154270e-03 -2.310868222563e-04 0.0 
-2.310868222563e-04 4.083337358312e-03 0.0 
0.0 0.0 0.0 
1.127066744349e-03 -6.109775802596e-04 0.0 
-6.109775802596e-04 3.180623827165e-03 0.0 
0.0 0.0 0.0 
1.422499143386e-03 2.399363816144e-03 0.0 
2.399363816144e-03 4.442193803494e-03 0.0 
0.0 0.0 0.0 
-3.567907296131e-05 -5.560984721659e-04 0.0 
-5.560984721659e-04 1.719056860725e-03 0.0 
0.0 0.0 0.0 
7.312832323316e-04 3.666461936084e-04 0.0 
3.666461936084e-04 5.825750268813e-03 0.0 
0.0 0.0 0.0 
6.088294049948e-04 4.303453347129e-04 0.0 
4.303453347129e-04 6.156191103038e-03 0.0 
0.0 0.0 0.0 
3.356276282693e-04 2.806693259667e-03 0.0 
2.806693259667e-03 8.110503978095e-03 0.0 
0.0 0.0 0.0 
5.000853496999e-04 -1.058454525419e-03 0.0 
-1.058454525419e-03 2.458946010677e-03 0.0 
0.0 0.0 0.0 
1.120243659221e-03 -4.158919337497e-04 0.0 
-4.158919337497e-04 3.619156670265e-03 0.0 
0.0 0.0 0.0 
-1.113619297107e-03 3.855599441048e-04 0.0 
3.855599441048e-04 1.407764201487e-02 0.0 
0.0 0.0 0.0 
2.947737422556e-04 -8.899434857435e-04 0.0 
-8.899434857435e-04 2.758660183190e-03 0.0 
0.0 0.0 0.0 
6.351771823458e-04 2.805470984005e-03 0.0 
2.805470984005e-03 4.976674219484e-03 0.0 
0.0 0.0 0.0 
1.713206242049e-05 -6.839202591749e-04 0.0 
-6.839202591749e-04 2.346759087887e-03 0.0 
0.0 0.0 0.0 
4.690208263660e-04 -2.059567440779e-03 0.0 
-2.059567440779e-03 5.917693433666e-04 0.0 
0.0 0.0 0.0 
5.469608623161e-04 -1.101126546516e-03 0.0 
-1.101126546516e-03 2.433463761937e-03 0.0 
0.0 0.0 0.0 
-4.577538135986e-05 -5.907173200598e-04 0.0 
-5.907173200598e-04 2.231874268048e-03 0.0 
0.0 0.0 0.0 
1.136089401532e-05 -3.941455820104e-04 0.0 
-3.941455820104e-04 2.059204231679e-03 0.0 
0.0 0.0 0.0 
8.946118577227e-04 -6.985992462076e-04 0.0 
-6.985992462076e-04 3.195420718470e-03 0.0 
0.0 0.0 0.0 
8.978495887140e-04 -1.971188996629e-04 0.0 
-1.971188996629e-04 4.427263009297e-03 0.0 
0.0 0.0 0.0 
1.454492229991e-04 2.906258296731e-03 0.0 
2.906258296731e-03 9.672711859999e-03 0.0 
0.0 0.0 0.0 
5.846958489022e-04 -4.022031918265e-05 0.0 
-4.022031918265e-05 -1.243525831729e-04 0.0 
0.0 0.0 0.0 
1.981906216479e-03 -6.493369466178e-04 0.0 
-6.493369466178e-04 1.489455757681e-03 0.0 
0.0 0.0 0.0 
1.496359031122e-03 -9.466014930465e-04 0.0 
-9.466014930465e-04 1.936356556479e-03 0.0 
0.0 0.0 0.0 
7.529979284431e-04 -1.069720918640e-03 0.0 
-1.069720918640e-03 2.427857081024e-03 0.0 
0.0 0.0 0.0 
-1.202610662022e-03 3.730205278477e-04 0.0 
3.730205278477e-04 1.388587685300e-02 0.0 
0.0 0.0 0.0 
1.094165851787e-03 -8.123410624515e-04 0.0 
-8.123410624515e-04 2.770379115406e-03 0.0 
0.0 0.0 0.0 
2.263717141959e-05 -6.078122093716e-04 0.0 
-6.078122093716e-04 2.557077813163e-03 0.0 
0.0 0.0 0.0 
7.723791955869e-04 -1.084933127889e-03 0.0 
-1.084933127889e-03 2.404896951374e-03 0.0 
0.0 0.0 0.0 
-8.103500135932e-04 3.664608642795e-04 0.0 
3.664608642795e-04 1.461970122341e-02 0.0 
0.0 0.0 0.0 
2.239690966088e-05 -5.627848270751e-04 0.0 
-5.627848270751e-04 2.550092913432e-03 0.0 
0.0 0.0 0.0 
-9.082364390722e-05 -3.645134674994e-04 0.0 
-3.645134674994e-04 9.884540720941e-04 0.0 
0.0 0.0 0.0 
-1.638272794909e-04 -5.101380438047e-04 0.0 
-5.101380438047e-04 1.386062632852e-03 0.0 
0.0 0.0 0.0 
6.293120465635e-04 -1.767479600778e-03 0.0 
-1.767479600778e-03 1.102643188952e-03 0.0 
0.0 0.0 0.0 
3.366838716330e-04 -1.164020592697e-03 0.0 
-1.164020592697e-03 2.182276796270e-03 0.0 
0.0 0.0 0.0 
1.749010411939e-03 -7.051999686970e-04 0.0 
-7.051999686970e-04 1.949586643313e-03 0.0 
0.0 0.0 0.0 
1.009881065285e-03 -1.003588064718e-03 0.0 
-1.003588064718e-03 2.391294397591e-03 0.0 
0.0 0.0 0.0 
-1.975906684639e-04 -1.830250868985e-03 0.0 
-1.830250868985e-03 8.492882925051e-04 0.0 
0.0 0.0 0.0 
4.513417709129e-06 -4.307626145112e-04 0.0 
-4.307626145112e-04 1.373494601751e-03 0.0 
0.0 0.0 0.0 
-1.611966639510e-03 5.217463782281e-04 0.0 
5.217463782281e-04 1.362172154049e-02 0.0 
0.0 0.0 0.0 
-3.962467404195e-06 -5.361573484430e-04 0.0 
-5.361573484430e-04 2.223318414540e-03 0.0 
0.0 0.0 0.0 
1.110820799434e-03 2.844653856779e-04 0.0 
2.844653856779e-04 4.953032920385e-03 0.0 
0.0 0.0 0.0 
3.361707041558e-04 2.847455459132e-03 0.0 
2.847455459132e-03 8.932006761698e-03 0.0 
0.0 0.0 0.0 
-1.685673037998e-03 1.919628554012e-03 0.0 
1.919628554012e-03 1.259706743064e-02 0.0 
0.0 0.0 0.0 
-9.581104520930e-04 9.961096869443e-04 0.0 
9.961096869443e-04 1.471597399412e-02 0.0 
0.0 0.0 0.0 
9.561915370604e-07 2.945111492145e-03 0.0 
2.945111492145e-03 1.037639725109e-02 0.0 
0.0 0.0 0.0 
2.239526976499e-03 1.336561930150e-03 0.0 
1.336561930150e-03 2.415140493167e-03 0.0 
0.0 0.0 0.0 
3.447954236051e-04 2.812995359560e-03 0.0 
2.812995359560e-03 8.512764594759e-03 0.0 
0.0 0.0 0.0 
1.409322110122e-04 -2.221680189357e-03 0.0 
-2.221680189357e-03 4.101913093781e-04 0.0 
0.0 0.0 0.0 
6.474108761518e-04 -9.436833817887e-04 0.0 
-9.436833817887e-04 2.775395704330e-03 0.0 
0.0 0.0 0.0 
1.812347283237e-03 2.292015695072e-03 0.0 
2.292015695072e-03 2.736323507144e-03 0.0 
0.0 0.0 0.0 
2.087045853222e-03 -1.678808292537e-03 0.0 
-1.678808292537e-03 -1.327100893602e-03 0.0 
0.0 0.0 0.0 
-1.909463078793e-04 -2.125706691665e-03 0.0 
-2.125706691665e-03 3.769009056684e-04 0.0 
0.0 0.0 0.0 
2.451147363225e-04 -8.304718888668e-04 0.0 
-8.304718888668e-04 2.725911843521e-03 0.0 
0.0 0.0 0.0 
1.192445167837e-03 -1.097835753254e-03 0.0 
-1.097835753254e-03 1.964688499787e-03 0.0 
0.0 0.0 0.0 
1.445132467691e-03 -9.027705873079e-04 0.0 
-9.027705873079e-04 1.983154330847e-03 0.0 
0.0 0.0 0.0 
-2.244966085274e-05 -4.838520824617e-04 0.0 
-4.838520824617e-04 2.415678226784e-03 0.0 
0.0 0.0 0.0 
1.319026108849e-03 -6.708297677540e-04 0.0 
-6.708297677540e-04 2.795149516926e-03 0.0 
0.0 0.0 0.0 
1.668585634784e-03 -9.044829332570e-04 0.0 
-9.044829332570e-04 1.535926647030e-03 0.0 
0.0 0.0 0.0 
2.164061109160e-03 -2.968152317488e-04 0.0 
-2.968152317488e-04 1.612077871762e-03 0.0 
0.0 0.0 0.0 
2.191397125779e-04 -1.135449221693e-03 0.0 
-1.135449221693e-03 2.178678878426e-03 0.0 
0.0 0.0 0.0 
1.742462595500e-03 1.119004711872e-03 0.0 
1.119004711872e-03 4.385720680974e-03 0.0 
0.0 0.0 0.0 
-1.282048395849e-03 5.048979957429e-04 0.0 
5.048979957429e-04 1.423077357691e-02 0.0 
0.0 0.0 0.0 
2.359324327653e-03 -1.076411429193e-04 0.0 
-1.076411429193e-04 1.203018538434e-03 0.0 
0.0 0.0 0.0 
9.227954125903e-04 4.273326157627e-04 0.0 
4.273326157627e-04 5.520367001899e-03 0.0 
0.0 0.0 0.0 
6.337554844627e-04 -2.330053414659e-03 0.0 
-2.330053414659e-03 -5.961904732910e-05 0.0 
0.0 0.0 0.0 
8.266877739158e-04 8.431305760773e-04 0.0 
8.431305760773e-04 6.157013943491e-03 0.0 
0.0 0.0 0.0 
1.525147064430e-03 -7.070948912385e-04 0.0 
-7.070948912385e-04 2.384693384278e-03 0.0 
0.0 0.0 0.0 
-7.517931095846e-05 3.046089637927e-03 0.0 
3.046089637927e-03 1.108206246674e-02 0.0 
0.0 0.0 0.0 
-6.524034601856e-04 2.732059167213e-03 0.0 
2.732059167213e-03 1.017651483605e-02 0.0 
0.0 0.0 0.0 
2.764808588025e-04 -1.940765336586e-03 0.0 
-1.940765336586e-03 9.404997031406e-04 0.0 
0.0 0.0 0.0 
-1.481891468814e-03 2.180956371164e-03 0.0 
2.180956371164e-03 1.228378169749e-02 0.0 
0.0 0.0 0.0 
-9.892225620795e-04 1.474318078841e-03 0.0 
1.474318078841e-03 1.449949539702e-02 0.0 
0.0 0.0 0.0 
1.729465119640e-03 -4.687215612736e-04 0.0 
-4.687215612736e-04 2.451502115995e-03 0.0 
0.0 0.0 0.0 
1.105308602132e-03 2.670745062883e-03 0.0 
2.670745062883e-03 3.151026400879e-03 0.0 
0.0 0.0 0.0 
-1.246159151982e-03 2.390134202612e-03 0.0 
2.390134202612e-03 1.192113826108e-02 0.0 
0.0 0.0 0.0 
4.402254652884e-04 2.874749080937e-03 0.0 
2.874749080937e-03 6.154830567705e-03 0.0 
0.0 0.0 0.0 
-2.129815380113e-04 -1.959445205526e-03 0.0 
-1.959445205526e-03 8.704682408112e-04 0.0 
0.0 0.0 0.0 
-4.756790004363e-04 1.302795636730e-03 0.0 
1.302795636730e-03 1.516020355228e-02 0.0 
0.0 0.0 0.0 
-5.724804039965e-04 -1.529314022452e-03 0.0 
-1.529314022452e-03 1.112431820014e-03 0.0 
0.0 0.0 0.0 
9.634356121664e-04 1.913843605059e-03 0.0 
1.913843605059e-03 6.787480582275e-03 0.0 
0.0 0.0 0.0 
-6.135260542275e-04 5.639008514977e-04 0.0 
5.639008514977e-04 1.505330666500e-02 0.0 
0.0 0.0 0.0 
1.627065163710e-03 9.652613274396e-04 0.0 
9.652613274396e-04 4.528397483815e-03 0.0 
0.0 0.0 0.0 
-1.171867603953e-03 2.737716741251e-04 0.0 
2.737716741251e-04 1.370820880697e-02 0.0 
0.0 0.0 0.0 
-1.163562244060e-03 8.173660568771e-04 0.0 
8.173660568771e-04 1.464572557613e-02 0.0 
0.0 0.0 0.0 
1.884867984511e-03 -5.858740136565e-04 0.0 
-5.858740136565e-04 1.660885810546e-03 0.0 
0.0 0.0 0.0 
2.142247322198e-03 1.102427718122e-03 0.0 
1.102427718122e-03 3.039079742689e-03 0.0 
0.0 0.0 0.0 
-7.411268459836e-04 1.146871256906e-03 0.0 
1.146871256906e-03 1.494512466380e-02 0.0 
0.0 0.0 0.0 
8.203293374154e-04 -4.582370383592e-05 0.0 
-4.582370383592e-05 4.904751991726e-03 0.0 
0.0 0.0 0.0 
-1.306415776704e-03 6.663307727194e-04 0.0 
6.663307727194e-04 1.435766700607e-02 0.0 
0.0 0.0 0.0 
1.691645872336e-03 4.722884632337e-04 0.0 
4.722884632337e-04 3.977726204341e-03 0.0 
0.0 0.0 0.0 
4.061842613805e-04 -2.199833517877e-03 0.0 
-2.199833517877e-03 4.051119317603e-04 0.0 
0.0 0.0 0.0 
-1.315244610301e-03 8.526402298818e-04 0.0 
8.526402298818e-04 1.445454842686e-02 0.0 
0.0 0.0 0.0 
1.987858058614e-04 3.260516015748e-03 0.0 
3.260516015748e-03 1.024350761249e-02 0.0 
0.0 0.0 0.0 
6.881632574953e-04 5.508236905020e-04 0.0 
5.508236905020e-04 6.128471791570e-03 0.0 
0.0 0.0 0.0 
8.601955946945e-04 -8.969678676522e-04 0.0 
-8.969678676522e-04 2.767038124341e-03 0.0 
0.0 0.0 0.0 
-1.289024494867e-03 2.496989701232e-04 0.0 
2.496989701232e-04 1.371070244620e-02 0.0 
0.0 0.0 0.0 
-1.234796953629e-03 2.521124369546e-04 0.0 
2.521124369546e-04 1.350676569338e-02 0.0 
0.0 0.0 0.0 
1.242302409959e-03 -8.583875259220e-04 0.0 
-8.583875259220e-04 2.409587154693e-03 0.0 
0.0 0.0 0.0 
9.967894458345e-04 -6.069148695797e-05 0.0 
-6.069148695797e-05 4.569763734152e-03 0.0 
0.0 0.0 0.0 
1.069587598588e-03 1.008401240982e-04 0.0 
1.008401240982e-04 4.741998319373e-03 0.0 
0.0 0.0 0.0 
-3.456640678201e-05 -4.764513360550e-04 0.0 
-4.764513360550e-04 1.210649997849e-03 0.0 
0.0 0.0 0.0 
2.455791510322e-03 1.720538743585e-03 0.0 
1.720538743585e-03 -1.222461871379e-03 0.0 
0.0 0.0 0.0 
2.418362691401e-03 3.086737809327e-04 0.0 
3.086737809327e-04 1.508259597251e-03 0.0 
0.0 0.0 0.0 
2.103789151071e-03 -4.591892806051e-04 0.0 
-4.591892806051e-04 1.263786075393e-03 0.0 
0.0 0.0 0.0 
1.012309078654e-03 2.744809047962e-03 0.0 
2.744809047962e-03 4.825028552545e-03 0.0 
0.0 0.0 0.0 
-7.321813183323e-04 1.091243545591e-03 0.0 
1.091243545591e-03 1.513667564923e-02 0.0 
0.0 0.0 0.0 
-8.234217349711e-04 2.346067338699e-03 0.0 
2.346067338699e-03 1.333085305708e-02 0.0 
0.0 0.0 0.0 
-7.231497875754e-04 5.372376375194e-04 0.0 
5.372376375194e-04 1.505556073369e-02 0.0 
0.0 0.0 0.0 
-5.595111529257e-04 2.827074266631e-03 0.0 
2.827074266631e-03 7.812112872366e-03 0.0 
0.0 0.0 0.0 
-1.205464319884e-03 1.290188666699e-03 0.0 
1.290188666699e-03 1.429147981306e-02 0.0 
0.0 0.0 0.0 
8.205948191931e-04 -1.546467640322e-04 0.0 
-1.546467640322e-04 4.585064015946e-03 0.0 
0.0 0.0 0.0 
-6.554300176614e-04 9.119502552269e-04 0.0 
9.119502552269e-04 1.507888674188e-02 0.0 
0.0 0.0 0.0 
-1.455586042426e-03 8.872466454362e-04 0.0 
8.872466454362e-04 1.425141578795e-02 0.0 
0.0 0.0 0.0 
8.522803658684e-04 -8.928188191216e-04 0.0 
-8.928188191216e-04 2.784309501216e-03 0.0 
0.0 0.0 0.0 
2.513547637582e-03 6.064506401363e-04 0.0 
6.064506401363e-04 1.236800938269e-03 0.0 
0.0 0.0 0.0 
-1.130933630914e-03 8.322528714822e-04 0.0 
8.322528714822e-04 1.445629868997e-02 0.0 
0.0 0.0 0.0 
-9.702928306538e-04 9.610479278627e-04 0.0 
9.610479278627e-04 1.490524876329e-02 0.0 
0.0 0.0 0.0 
-1.010245221724e-03 6.466244450732e-04 0.0 
6.466244450732e-04 1.454239398611e-02 0.0 
0.0 0.0 0.0 
-1.135827588217e-03 6.580147388329e-04 0.0 
6.580147388329e-04 1.435805723703e-02 0.0 
0.0 0.0 0.0 
7.381286260786e-04 2.255371666140e-04 0.0 
2.255371666140e-04 5.604422394469e-03 0.0 
0.0 0.0 0.0 
1.019713028480e-03 2.040213696265e-03 0.0 
2.040213696265e-03 6.768256582607e-03 0.0 
0.0 0.0 0.0 
9.208079459615e-04 2.494506488294e-04 0.0 
2.494506488294e-04 5.277609380903e-03 0.0 
0.0 0.0 0.0 
9.425742254281e-04 -3.626246107016e-04 0.0 
-3.626246107016e-04 3.972008778683e-03 0.0 
0.0 0.0 0.0 
-1.387902363007e-03 2.254599789456e-03 0.0 
2.254599789456e-03 9.883191474396e-03 0.0 
0.0 0.0 0.0 
1.526111277733e-03 1.252527701249e-03 0.0 
1.252527701249e-03 5.013035785566e-03 0.0 
0.0 0.0 0.0 
-1.434252781403e-03 1.414919843010e-03 0.0 
1.414919843010e-03 1.372958797218e-02 0.0 
0.0 0.0 0.0 
-5.162417414872e-05 -4.491808813895e-04 0.0 
-4.491808813895e-04 2.067881465527e-03 0.0 
0.0 0.0 0.0 
2.223312594275e-03 -4.776832425904e-05 0.0 
-4.776832425904e-05 1.566941827408e-03 0.0 
0.0 0.0 0.0 
2.156899969379e-03 2.523865260995e-04 0.0 
2.523865260995e-04 2.453293577058e-03 0.0 
0.0 0.0 0.0 
1.992195277783e-03 1.193929300207e-03 0.0 
1.193929300207e-03 3.674724300570e-03 0.0 
0.0 0.0 0.0 
2.780132470192e-03 -4.048307448715e-04 0.0 
-4.048307448715e-04 -2.264302665298e-03 0.0 
0.0 0.0 0.0 
2.372286102375e-03 2.058884905640e-04 0.0 
2.058884905640e-04 1.305294276972e-03 0.0 
0.0 0.0 0.0 
1.818514961732e-03 1.294419957061e-03 0.0 
1.294419957061e-03 4.304776661594e-03 0.0 
0.0 0.0 0.0 
-9.834819831089e-04 2.585675466477e-03 0.0 
2.585675466477e-03 9.459861031585e-03 0.0 
0.0 0.0 0.0 
9.258149699454e-04 -7.177528321382e-04 0.0 
-7.177528321382e-04 3.139295593567e-03 0.0 
0.0 0.0 0.0 
-1.552888241707e-03 7.094365803808e-04 0.0 
7.094365803808e-04 1.395504167796e-02 0.0 
0.0 0.0 0.0 
-1.183604908168e-03 8.578229125491e-05 0.0 
8.578229125491e-05 1.287018202684e-02 0.0 
0.0 0.0 0.0 
-1.658116128395e-03 2.815589422091e-03 0.0 
2.815589422091e-03 1.691946841333e-03 0.0 
0.0 0.0 0.0 
9.023267696133e-04 -5.074956852013e-04 0.0 
-5.074956852013e-04 3.634424698243e-03 0.0 
0.0 0.0 0.0 
1.610101478723e-03 1.007781666944e-03 0.0 
1.007781666944e-03 4.689065354272e-03 0.0 
0.0 0.0 0.0 
-7.538217989209e-04 2.265084022296e-03 0.0 
2.265084022296e-03 1.373375774006e-02 0.0 
0.0 0.0 0.0 
2.319629540064e-03 1.068365376736e-03 0.0 
1.068365376736e-03 2.420434606615e-03 0.0 
0.0 0.0 0.0 
9.526842134715e-04 -5.376159001826e-04 0.0 
-5.376159001826e-04 3.541959775964e-03 0.0 
0.0 0.0 0.0 
-1.397709517944e-03 5.135863037437e-04 0.0 
5.135863037437e-04 1.403823545465e-02 0.0 
0.0 0.0 0.0 
-1.750840001244e-03 2.737591123990e-03 0.0 
2.737591123990e-03 3.245298550834e-03 0.0 
0.0 0.0 0.0 
1.739678417574e-03 1.155569302985e-03 0.0 
1.155569302985e-03 4.499090330891e-03 0.0 
0.0 0.0 0.0 
2.091699841282e-03 8.662031933287e-04 0.0 
8.662031933287e-04 3.116399621663e-03 0.0 
0.0 0.0 0.0 
-1.164207248992e-03 2.592157900084e-03 0.0 
2.592157900084e-03 1.019624847071e-02 0.0 
0.0 0.0 0.0 
8.995910531056e-04 -4.934576145017e-06 0.0 
-4.934576145017e-06 4.758933653167e-03 0.0 
0.0 0.0 0.0 
1.540604271139e-03 -2.190277888249e-03 0.0 
-2.190277888249e-03 -1.259172879749e-03 0.0 
0.0 0.0 0.0 
9.521051011265e-04 1.677755334538e-04 0.0 
1.677755334538e-04 4.971692712521e-03 0.0 
0.0 0.0 0.0 
8.883114401763e-04 6.199197500849e-04 0.0 
6.199197500849e-04 5.802774855922e-03 0.0 
0.0 0.0 0.0 
1.831927910283e-03 1.321312229674e-03 0.0 
1.321312229674e-03 4.354876514761e-03 0.0 
0.0 0.0 0.0 
-1.168314757667e-03 6.439474624014e-04 0.0 
6.439474624014e-04 1.454327804081e-02 0.0 
0.0 0.0 0.0 
7.087491349511e-04 2.635789563517e-03 0.0 
2.635789563517e-03 7.896561073075e-03 0.0 
0.0 0.0 0.0 
7.743839010301e-04 5.096177273702e-04 0.0 
5.096177273702e-04 5.817217642375e-03 0.0 
0.0 0.0 0.0 
-1.822538236099e-03 2.593301157080e-03 0.0 
2.593301157080e-03 4.748608238907e-03 0.0 
0.0 0.0 0.0 
-1.435694390852e-03 6.868510902642e-04 0.0 
6.868510902642e-04 1.416195403362e-02 0.0 
0.0 0.0 0.0 
8.435363027890e-04 2.384318059119e-03 0.0 
2.384318059119e-03 7.433955106373e-03 0.0 
0.0 0.0 0.0 
-9.923822406470e-04 8.113111708148e-04 0.0 
8.113111708148e-04 1.464584340569e-02 0.0 
0.0 0.0 0.0 
2.018759069519e-03 1.228127628555e-03 0.0 
1.228127628555e-03 3.717860836117e-03 0.0 
0.0 0.0 0.0 
2.356696366954e-03 6.339952996715e-04 0.0 
6.339952996715e-04 1.806477946495e-03 0.0 
0.0 0.0 0.0 
3.997241974407e-04 -4.348764261915e-04 0.0 
-4.348764261915e-04 4.005969171979e-03 0.0 
0.0 0.0 0.0 
2.428352411475e-03 6.421399772532e-04 0.0 
6.421399772532e-04 -4.189959209233e-03 0.0 
0.0 0.0 0.0 
-8.495566712744e-04 7.817210148867e-04 0.0 
7.817210148867e-04 1.482414112969e-02 0.0 
0.0 0.0 0.0 
-2.763567646569e-05 -3.599545649312e-04 0.0 
-3.599545649312e-04 2.243581551492e-03 0.0 
0.0 0.0 0.0 
-1.666964406857e-03 2.353337808899e-03 0.0 
2.353337808899e-03 6.125548060389e-03 0.0 
0.0 0.0 0.0 
5.674997024592e-04 2.714172056554e-03 0.0 
2.714172056554e-03 8.176044175809e-03 0.0 
0.0 0.0 0.0 
-5.615939480941e-04 7.040542725536e-04 0.0 
7.040542725536e-04 1.516598074842e-02 0.0 
0.0 0.0 0.0 
9.345592538352e-04 -2.522851530306e-03 0.0 
-2.522851530306e-03 -8.754337500337e-04 0.0 
0.0 0.0 0.0 
3.514347637859e-04 2.796009446205e-03 0.0 
2.796009446205e-03 7.356152443663e-03 0.0 
0.0 0.0 0.0 
-1.262066109325e-03 8.496238934860e-04 0.0 
8.496238934860e-04 1.425509469561e-02 0.0 
0.0 0.0 0.0 
5.926815913186e-04 -6.606349648729e-04 0.0 
-6.606349648729e-04 3.490796292509e-03 0.0 
0.0 0.0 0.0 
2.446768024460e-03 -1.241576338095e-03 0.0 
-1.241576338095e-03 -2.130199577335e-03 0.0 
0.0 0.0 0.0 
1.180919759389e-03 2.822435208035e-03 0.0 
2.822435208035e-03 2.179848071557e-03 0.0 
0.0 0.0 0.0 
-1.148759536330e-04 -2.182795157378e-03 0.0 
-2.182795157378e-03 3.858959887830e-04 0.0 
0.0 0.0 0.0 
1.426919077270e-03 -2.144324992099e-03 0.0 
-2.144324992099e-03 -9.242318654712e-04 0.0 
0.0 0.0 0.0 
6.713786018195e-04 -2.375138925347e-03 0.0 
-2.375138925347e-03 -2.781643816889e-04 0.0 
0.0 0.0 0.0 
2.180814407367e-03 1.142885528748e-03 0.0 
1.142885528748e-03 3.074683731380e-03 0.0 
0.0 0.0 0.0 
-3.531332358899e-04 2.014444482930e-03 0.0 
2.014444482930e-03 1.494844663277e-02 0.0 
0.0 0.0 0.0 
-1.521572698921e-03 2.165517663924e-03 0.0 
2.165517663924e-03 7.537525614479e-03 0.0 
0.0 0.0 0.0 
5.717089458828e-04 1.974733699287e-04 0.0 
1.974733699287e-04 5.920725648831e-03 0.0 
0.0 0.0 0.0 
2.463823708150e-03 1.370445473191e-03 0.0 
1.370445473191e-03 9.933053227122e-04 0.0 
0.0 0.0 0.0 
-1.583368427155e-03 9.300749808139e-04 0.0 
9.300749808139e-04 1.403451663991e-02 0.0 
0.0 0.0 0.0 
2.841626451113e-03 4.732652944729e-04 0.0 
4.732652944729e-04 -3.772054118876e-03 0.0 
0.0 0.0 0.0 
7.137013549838e-04 7.124963326634e-04 0.0 
7.124963326634e-04 6.149647261499e-03 0.0 
0.0 0.0 0.0 
2.999335408138e-04 -2.509543356172e-03 0.0 
-2.509543356172e-03 -2.646168529795e-04 0.0 
0.0 0.0 0.0 
-9.365236209535e-06 -3.775172465846e-04 0.0 
-3.775172465846e-04 2.616647562941e-03 0.0 
0.0 0.0 0.0 
1.682746667854e-03 1.588198631329e-03 0.0 
1.588198631329e-03 4.904413705031e-03 0.0 
0.0 0.0 0.0 
1.663804386149e-03 -6.459586739857e-04 0.0 
-6.459586739857e-04 2.069358410322e-03 0.0 
0.0 0.0 0.0 
1.061098131656e-03 2.168628630377e-03 0.0 
2.168628630377e-03 6.802507404534e-03 0.0 
0.0 0.0 0.0 
4.143553115898e-04 2.854356765062e-03 0.0 
2.854356765062e-03 4.675053454348e-03 0.0 
0.0 0.0 0.0 
-1.518008077507e-03 1.427142136180e-03 0.0 
1.427142136180e-03 1.401620107426e-02 0.0 
0.0 0.0 0.0 
1.011143068317e-03 2.034093533623e-03 0.0 
2.034093533623e-03 6.768809584323e-03 0.0 
0.0 0.0 0.0 
-1.254733400700e-03 6.637711427504e-04 0.0 
6.637711427504e-04 1.416395128373e-02 0.0 
0.0 0.0 0.0 
-8.988168701755e-04 2.328079992079e-03 0.0 
2.328079992079e-03 1.372512163875e-02 0.0 
0.0 0.0 0.0 
-1.300864762118e-03 1.059670468232e-03 0.0 
1.059670468232e-03 1.451480746068e-02 0.0 
0.0 0.0 0.0 
-1.257448029798e-03 1.282632467482e-03 0.0 
1.282632467482e-03 1.453050655773e-02 0.0 
0.0 0.0 0.0 
1.779612074831e-03 2.683999048948e-03 0.0 
2.683999048948e-03 -1.543257322808e-03 0.0 
0.0 0.0 0.0 
5.560447060320e-04 8.151824890297e-05 0.0 
8.151824890297e-05 5.711292113462e-03 0.0 
0.0 0.0 0.0 
-1.248176739523e-03 1.060810864091e-03 0.0 
1.060810864091e-03 1.429956012365e-02 0.0 
0.0 0.0 0.0 
2.009354687744e-03 1.946793386682e-03 0.0 
1.946793386682e-03 3.092462472866e-03 0.0 
0.0 0.0 0.0 
-1.492591700389e-03 2.014641467428e-03 0.0 
2.014641467428e-03 8.957800912816e-03 0.0 
0.0 0.0 0.0 
7.345874891134e-04 2.170523066966e-03 0.0 
2.170523066966e-03 7.374024306512e-03 0.0 
0.0 0.0 0.0 
2.711275239976e-03 1.176757306635e-03 0.0 
1.176757306635e-03 -2.138990921056e-03 0.0 
0.0 0.0 0.0 
6.028114105883e-06 -4.349261215662e-04 0.0 
-4.349261215662e-04 2.408450346898e-03 0.0 
0.0 0.0 0.0 
1.312914312061e-03 2.071050106452e-03 0.0 
2.071050106452e-03 6.131397357926e-03 0.0 
0.0 0.0 0.0 
1.629132694940e-04 -2.744674680878e-05 0.0 
-2.744674680878e-05 1.451615693087e-03 0.0 
0.0 0.0 0.0 
1.163870418820e-03 2.538051870692e-03 0.0 
2.538051870692e-03 5.273531362021e-03 0.0 
0.0 0.0 0.0 
1.614782795520e-03 1.420834913319e-03 0.0 
1.420834913319e-03 4.990165552100e-03 0.0 
0.0 0.0 0.0 
-1.010731723214e-03 1.436721646677e-03 0.0 
1.436721646677e-03 1.473688040084e-02 0.0 
0.0 0.0 0.0 
-9.099582859790e-04 1.691010476475e-03 0.0 
1.691010476475e-03 1.468039884688e-02 0.0 
0.0 0.0 0.0 
1.617499514441e-03 1.403114058585e-03 0.0 
1.403114058585e-03 4.931703616611e-03 0.0 
0.0 0.0 0.0 
-1.138518662244e-03 1.012393109616e-03 0.0 
1.012393109616e-03 1.471467394517e-02 0.0 
0.0 0.0 0.0 
2.271446637804e-03 1.715925112582e-03 0.0 
1.715925112582e-03 1.721768365931e-03 0.0 
0.0 0.0 0.0 
1.473301060790e-04 2.824929119727e-03 0.0 
2.824929119727e-03 9.277557429059e-03 0.0 
0.0 0.0 0.0 
-2.114604694110e-03 1.894496747446e-03 0.0 
1.894496747446e-03 1.056096653002e-02 0.0 
0.0 0.0 0.0 
-4.652910191784e-04 2.757832708008e-03 0.0 
2.757832708008e-03 1.220797468663e-02 0.0 
0.0 0.0 0.0 
-1.796686716808e-03 9.544329802371e-04 0.0 
9.544329802371e-04 1.178217828204e-02 0.0 
0.0 0.0 0.0 
-1.709732575565e-03 7.221343675245e-04 0.0 
7.221343675245e-04 1.213625323403e-02 0.0 
0.0 0.0 0.0 
2.306392676157e-03 1.361241680171e-03 0.0 
1.361241680171e-03 2.343677772238e-03 0.0 
0.0 0.0 0.0 
-1.722028356026e-03 6.689391450894e-04 0.0 
6.689391450894e-04 1.234632239140e-02 0.0 
0.0 0.0 0.0 
1.371143538767e-03 2.327148723780e-03 0.0 
2.327148723780e-03 5.407347715680e-03 0.0 
0.0 0.0 0.0 
1.677156583316e-03 2.222733925857e-03 0.0 
2.222733925857e-03 3.609936220119e-03 0.0 
0.0 0.0 0.0 
2.263274066443e-03 3.587222277781e-04 0.0 
3.587222277781e-04 1.971445012552e-03 0.0 
0.0 0.0 0.0 
2.505826609868e-03 -1.257211223070e-03 0.0 
-1.257211223070e-03 -2.326307462950e-03 0.0 
0.0 0.0 0.0 
2.437828190617e-03 1.007968258683e-03 0.0 
1.007968258683e-03 1.749246290356e-03 0.0 
0.0 0.0 0.0 
-8.036109947291e-04 9.604797943601e-04 0.0 
9.604797943601e-04 1.490472621858e-02 0.0 
0.0 0.0 0.0 
-6.212659704995e-04 2.590769104445e-03 0.0 
2.590769104445e-03 1.307033333041e-02 0.0 
0.0 0.0 0.0 
6.592829747407e-04 -2.892352083477e-05 0.0 
-2.892352083477e-05 5.225084203670e-03 0.0 
0.0 0.0 0.0 
1.072980105425e-03 2.159726178734e-03 0.0 
2.159726178734e-03 6.750170615359e-03 0.0 
0.0 0.0 0.0 
1.947990978801e-03 -4.136911359056e-04 0.0 
-4.136911359056e-04 2.031366838364e-03 0.0 
0.0 0.0 0.0 
-1.063447634358e-03 1.245560706136e-03 0.0 
1.245560706136e-03 1.453427133637e-02 0.0 
0.0 0.0 0.0 
2.400752909266e-03 7.046598595786e-04 0.0 
7.046598595786e-04 1.918972892298e-03 0.0 
0.0 0.0 0.0 
4.228762478615e-04 8.359942416923e-05 0.0 
8.359942416923e-05 6.011135840823e-03 0.0 
0.0 0.0 0.0 
-1.107751274599e-03 1.030683816216e-03 0.0 
1.030683816216e-03 1.451754951971e-02 0.0 
0.0 0.0 0.0 
-1.399632195342e-03 1.349660822683e-03 0.0 
1.349660822683e-03 1.428483581479e-02 0.0 
0.0 0.0 0.0 
1.942358891128e-03 1.037027483890e-03 0.0 
1.037027483890e-03 3.861764806118e-03 0.0 
0.0 0.0 0.0 
2.397349711927e-03 1.351425540596e-03 0.0 
1.351425540596e-03 1.677478270254e-03 0.0 
0.0 0.0 0.0 
1.284130450077e-04 2.875774576169e-03 0.0 
2.875774576169e-03 9.674780811541e-03 0.0 
0.0 0.0 0.0 
-6.908461060445e-04 2.671774839509e-03 0.0 
2.671774839509e-03 1.018485054341e-02 0.0 
0.0 0.0 0.0 
1.963621333483e-03 -2.052971461710e-03 0.0 
-2.052971461710e-03 -2.195890517250e-03 0.0 
0.0 0.0 0.0 
2.776865511637e-03 3.052591629809e-04 0.0 
3.052591629809e-04 -1.999856914742e-03 0.0 
0.0 0.0 0.0 
7.556180300097e-04 2.874602243566e-03 0.0 
2.874602243566e-03 4.073181841536e-03 0.0 
0.0 0.0 0.0 
2.668384743687e-04 2.844059341335e-03 0.0 
2.844059341335e-03 7.349852630329e-03 0.0 
0.0 0.0 0.0 
3.069619680784e-04 8.429649186202e-05 0.0 
8.429649186202e-05 6.301908901467e-03 0.0 
0.0 0.0 0.0 
-1.443900345642e-03 1.111033945021e-03 0.0 
1.111033945021e-03 1.429428472422e-02 0.0 
0.0 0.0 0.0 
2.381336581206e-03 9.624772415366e-04 0.0 
9.624772415366e-04 1.737089601486e-03 0.0 
0.0 0.0 0.0 
1.390485966610e-04 2.797803775250e-03 0.0 
2.797803775250e-03 8.523615005386e-03 0.0 
0.0 0.0 0.0 
1.508598153674e-03 1.283199282604e-03 0.0 
1.283199282604e-03 5.146715506783e-03 0.0 
0.0 0.0 0.0 
-1.006147590741e-03 7.801439109721e-04 0.0 
7.801439109721e-04 1.482492152371e-02 0.0 
0.0 0.0 0.0 
-5.264412201733e-05 2.964024857022e-03 0.0 
2.964024857022e-03 1.037451717832e-02 0.0 
0.0 0.0 0.0 
-1.486644420254e-03 8.923286399690e-04 0.0 
8.923286399690e-04 1.381014794029e-02 0.0 
0.0 0.0 0.0 
1.259951511845e-03 7.927960161339e-04 0.0 
7.927960161339e-04 5.229235905238e-03 0.0 
0.0 0.0 0.0 
2.232907259024e-03 7.465298636549e-04 0.0 
7.465298636549e-04 2.469390376052e-03 0.0 
0.0 0.0 0.0 
1.399116672031e-03 1.111872077421e-03 0.0 
1.111872077421e-03 5.162761278924e-03 0.0 
0.0 0.0 0.0 
1.062009200955e-03 2.683144746536e-03 0.0 
2.683144746536e-03 5.252420095678e-03 0.0 
0.0 0.0 0.0 
-9.138381988083e-04 1.161222599187e-03 0.0 
1.161222599187e-03 1.494410761350e-02 0.0 
0.0 0.0 0.0 
-1.931950158681e-04 3.029248523753e-03 0.0 
3.029248523753e-03 1.108320383780e-02 0.0 
0.0 0.0 0.0 
2.117426879374e-03 9.214197107110e-04 0.0 
9.214197107110e-04 3.222869009652e-03 0.0 
0.0 0.0 0.0 
2.863432588566e-03 4.195702162698e-04 0.0 
4.195702162698e-04 -2.854415978845e-03 0.0 
0.0 0.0 0.0 
8.276188395757e-04 2.634738927282e-03 0.0 
2.634738927282e-03 7.646909767054e-03 0.0 
0.0 0.0 0.0 
1.161225529642e-03 2.497796103373e-03 0.0 
2.497796103373e-03 5.720573422731e-03 0.0 
0.0 0.0 0.0 
2.320389625214e-03 1.330794688710e-03 0.0 
1.330794688710e-03 1.781527057883e-03 0.0 
0.0 0.0 0.0 
1.929150531120e-03 9.905748744641e-04 0.0 
9.905748744641e-04 3.753877772458e-03 0.0 
0.0 0.0 0.0 
1.151728080695e-03 4.146702236308e-04 0.0 
4.146702236308e-04 4.921518768318e-03 0.0 
0.0 0.0 0.0 
2.751302845491e-03 -5.735509801851e-04 0.0 
-5.735509801851e-04 -2.692824575199e-03 0.0 
0.0 0.0 0.0 
2.269221266552e-03 8.099348792929e-04 0.0 
8.099348792929e-04 2.577201159253e-03 0.0 
0.0 0.0 0.0 
-1.212940070512e-03 2.267500701534e-03 0.0 
2.267500701534e-03 1.193744507246e-02 0.0 
0.0 0.0 0.0 
2.432544535960e-04 1.494332140472e-05 0.0 
1.494332140472e-05 6.311926775442e-03 0.0 
0.0 0.0 0.0 
-9.777283374139e-04 2.465276135195e-03 0.0 
2.465276135195e-03 1.154148294277e-02 0.0 
0.0 0.0 0.0 
7.107996228088e-04 2.720967194241e-03 0.0 
2.720967194241e-03 7.884159971817e-03 0.0 
0.0 0.0 0.0 
-1.418677648829e-03 2.022783818209e-03 0.0 
2.022783818209e-03 1.230434690682e-02 0.0 
0.0 0.0 0.0 
-1.678471017877e-03 1.412889741394e-03 0.0 
1.412889741394e-03 1.286736742331e-02 0.0 
0.0 0.0 0.0 
-4.112712322594e-04 2.758588666888e-03 0.0 
2.758588666888e-03 9.727896217921e-03 0.0 
0.0 0.0 0.0 
1.274122000743e-03 1.930492978146e-03 0.0 
1.930492978146e-03 6.132373758682e-03 0.0 
0.0 0.0 0.0 
5.855514145461e-04 2.360598336913e-06 0.0 
2.360598336913e-06 5.417448325812e-03 0.0 
0.0 0.0 0.0 
-1.373401862147e-03 1.098899032573e-03 0.0 
1.098899032573e-03 1.406148603868e-02 0.0 
0.0 0.0 0.0 
-7.459135107400e-04 1.653421908715e-03 0.0 
1.653421908715e-03 1.468446715309e-02 0.0 
0.0 0.0 0.0 
-1.582176021773e-03 1.734136530477e-03 0.0 
1.734136530477e-03 1.262190120943e-02 0.0 
0.0 0.0 0.0 
2.541861176800e-03 9.097105497404e-04 0.0 
9.097105497404e-04 3.673391813448e-04 0.0 
0.0 0.0 0.0 
5.884836011232e-04 2.703747092128e-03 0.0 
2.703747092128e-03 8.379835586798e-03 0.0 
0.0 0.0 0.0 
-7.967317012866e-04 9.093665546702e-04 0.0 
9.093665546702e-04 1.507965584286e-02 0.0 
0.0 0.0 0.0 
1.575302860967e-03 2.388537567465e-03 0.0 
2.388537567465e-03 4.083420191493e-03 0.0 
0.0 0.0 0.0 
1.326695563216e-03 2.527543016137e-03 0.0 
2.527543016137e-03 4.891976075907e-03 0.0 
0.0 0.0 0.0 
2.470968729904e-03 9.216970179929e-04 0.0 
9.216970179929e-04 1.063497975175e-03 0.0 
0.0 0.0 0.0 
-1.330231771544e-03 1.344925326314e-03 0.0 
1.344925326314e-03 1.402627363458e-02 0.0 
0.0 0.0 0.0 
-2.753964945812e-05 2.911398143214e-03 0.0 
2.911398143214e-03 6.378853847639e-03 0.0 
0.0 0.0 0.0 
1.483453616709e-03 2.319231969953e-03 0.0 
2.319231969953e-03 5.143467622248e-03 0.0 
0.0 0.0 0.0 
1.809650092688e-05 2.875957414227e-03 0.0 
2.875957414227e-03 6.383462307203e-03 0.0 
0.0 0.0 0.0 
1.507070276928e-03 1.840422238424e-03 0.0 
1.840422238424e-03 5.501486037911e-03 0.0 
0.0 0.0 0.0 
4.232434256131e-04 2.811003163478e-03 0.0 
2.811003163478e-03 8.862736768111e-03 0.0 
0.0 0.0 0.0 
2.462232243676e-03 5.317631254756e-04 0.0 
5.317631254756e-04 1.128104180801e-03 0.0 
0.0 0.0 0.0 
2.299491893656e-03 -6.947507029470e-04 0.0 
-6.947507029470e-04 -3.972919370742e-03 0.0 
0.0 0.0 0.0 
-7.602488903680e-04 1.977022837769e-03 0.0 
1.977022837769e-03 1.428943219331e-02 0.0 
0.0 0.0 0.0 
-2.459782614975e-04 2.865116597869e-03 0.0 
2.865116597869e-03 7.227583649952e-03 0.0 
0.0 0.0 0.0 
2.085319212921e-03 -8.841213422756e-05 0.0 
-8.841213422756e-05 2.197487288446e-03 0.0 
0.0 0.0 0.0 
7.150558912177e-04 2.727350664220e-03 0.0 
2.727350664220e-03 8.154409104839e-03 0.0 
0.0 0.0 0.0 
-1.569945536011e-03 1.172599519743e-03 0.0 
1.172599519743e-03 1.405341988187e-02 0.0 
0.0 0.0 0.0 
7.342796462173e-04 -1.105052632989e-06 0.0 
-1.105052632989e-06 5.092213403296e-03 0.0 
0.0 0.0 0.0 
1.927695277758e-03 1.999559941744e-03 0.0 
1.999559941744e-03 2.779642140710e-03 0.0 
0.0 0.0 0.0 
2.009972635102e-03 -3.236719307349e-04 0.0 
-3.236719307349e-04 -4.276282388680e-03 0.0 
0.0 0.0 0.0 
1.630888368986e-04 3.113993142168e-06 0.0 
3.113993142168e-06 6.616012380131e-03 0.0 
0.0 0.0 0.0 
5.570427122947e-04 2.794703307222e-03 0.0 
2.794703307222e-03 6.906653343305e-03 0.0 
0.0 0.0 0.0 
1.458217178813e-03 1.987674082879e-03 0.0 
1.987674082879e-03 5.598617557488e-03 0.0 
0.0 0.0 0.0 
3.085398764731e-04 2.934665953244e-03 0.0 
2.934665953244e-03 9.372542064317e-03 0.0 
0.0 0.0 0.0 
8.773858116478e-04 -7.830656369119e-05 0.0 
-7.830656369119e-05 -4.677542144371e-03 0.0 
0.0 0.0 0.0 
8.848090129885e-04 9.279098929908e-05 0.0 
9.279098929908e-05 5.076787524948e-03 0.0 
0.0 0.0 0.0 
1.663666108715e-03 2.389151399706e-03 0.0 
2.389151399706e-03 1.256651911397e-03 0.0 
0.0 0.0 0.0 
-1.703736168220e-03 9.789089482341e-04 0.0 
9.789089482341e-04 1.380105836417e-02 0.0 
0.0 0.0 0.0 
6.170209353273e-04 -5.117837772399e-04 0.0 
-5.117837772399e-04 3.891789069896e-03 0.0 
0.0 0.0 0.0 
2.534677488688e-03 9.654982455810e-04 0.0 
9.654982455810e-04 1.055715939615e-03 0.0 
0.0 0.0 0.0 
3.401037437238e-04 1.472994178944e-05 0.0 
1.472994178944e-05 6.022247805742e-03 0.0 
0.0 0.0 0.0 
1.302381892413e-03 2.487966249462e-03 0.0 
2.487966249462e-03 5.383268139290e-03 0.0 
0.0 0.0 0.0 
2.611950365374e-03 9.501790097615e-04 0.0 
9.501790097615e-04 3.363356634569e-04 0.0 
0.0 0.0 0.0 
3.872724836844e-04 2.770064035343e-03 0.0 
2.770064035343e-03 7.726406430675e-03 0.0 
0.0 0.0 0.0 
1.699172896971e-03 -1.836652745587e-03 0.0 
-1.836652745587e-03 -4.002283278301e-03 0.0 
0.0 0.0 0.0 
3.777678148147e-04 2.766070264591e-03 0.0 
2.766070264591e-03 8.519020183199e-03 0.0 
0.0 0.0 0.0 
1.454960478955e-03 1.673644599323e-03 0.0 
1.673644599323e-03 5.526745375833e-03 0.0 
0.0 0.0 0.0 
-2.831225195546e-04 2.980331113917e-03 0.0 
2.980331113917e-03 1.168245869726e-02 0.0 
0.0 0.0 0.0 
3.364704990023e-04 2.801307982428e-03 0.0 
2.801307982428e-03 8.938382026435e-03 0.0 
0.0 0.0 0.0 
2.708402085946e-03 3.190935978555e-04 0.0 
3.190935978555e-04 -1.130036725416e-03 0.0 
0.0 0.0 0.0 
5.309906295088e-04 -9.942574776941e-05 0.0 
-9.942574776941e-05 5.236972641393e-03 0.0 
0.0 0.0 0.0 
-5.672526867957e-04 1.101546081483e-03 0.0 
1.101546081483e-03 1.513620689716e-02 0.0 
0.0 0.0 0.0 
4.878046887198e-04 2.413384349924e-03 0.0 
2.413384349924e-03 7.996027007956e-03 0.0 
0.0 0.0 0.0 
1.266264920547e-03 1.931587333544e-03 0.0 
1.931587333544e-03 6.152478262034e-03 0.0 
0.0 0.0 0.0 
2.125877063106e-03 1.668730024850e-03 0.0 
1.668730024850e-03 2.541427014638e-03 0.0 
0.0 0.0 0.0 
3.943335037841e-04 2.757418725706e-03 0.0 
2.757418725706e-03 8.116818558995e-03 0.0 
0.0 0.0 0.0 
1.955866784231e-04 2.532189307232e-05 0.0 
2.532189307232e-05 6.356626480378e-03 0.0 
0.0 0.0 0.0 
8.433722200163e-05 -1.777366641582e-04 0.0 
-1.777366641582e-04 4.203675719841e-03 0.0 
0.0 0.0 0.0 
5.464141049001e-04 2.771982748465e-03 0.0 
2.771982748465e-03 8.167871500190e-03 0.0 
0.0 0.0 0.0 
-1.382207765710e-03 8.679300850539e-04 0.0 
8.679300850539e-04 1.404092537549e-02 0.0 
0.0 0.0 0.0 
4.550423331080e-04 1.014109944977e-05 0.0 
1.014109944977e-05 5.722841824429e-03 0.0 
0.0 0.0 0.0 
7.803094700920e-04 1.499300397734e-04 0.0 
1.499300397734e-04 5.293852764637e-03 0.0 
0.0 0.0 0.0 
-1.089752812854e-03 4.080975335279e-06 0.0 
4.080975335279e-06 1.254899442787e-02 0.0 
0.0 0.0 0.0 
-1.079128834929e-03 7.250038472300e-06 0.0 
7.250038472300e-06 1.254343260716e-02 0.0 
0.0 0.0 0.0 
-1.338678661155e-03 2.267125311850e-03 0.0 
2.267125311850e-03 1.246235813761e-02 0.0 
0.0 0.0 0.0 
5.700994056872e-04 2.757286252146e-03 0.0 
2.757286252146e-03 7.734127982153e-03 0.0 
0.0 0.0 0.0 
5.002508221870e-04 -4.225492812233e-04 0.0 
-4.225492812233e-04 4.210794247558e-03 0.0 
0.0 0.0 0.0 
-5.690649216257e-04 2.741832636200e-03 0.0 
2.741832636200e-03 1.045137644441e-02 0.0 
0.0 0.0 0.0 
1.545724695701e-03 2.339581839920e-03 0.0 
2.339581839920e-03 4.604330536588e-03 0.0 
0.0 0.0 0.0 
1.041697399007e-03 1.248065388176e-03 0.0 
1.248065388176e-03 5.962899024053e-03 0.0 
0.0 0.0 0.0 
2.053222768438e-03 1.993229430076e-03 0.0 
1.993229430076e-03 2.493327395229e-03 0.0 
0.0 0.0 0.0 
-3.253807848658e-04 1.781202899333e-03 0.0 
1.781202899333e-03 1.513281151201e-02 0.0 
0.0 0.0 0.0 
-1.768289670451e-03 1.215186480912e-03 0.0 
1.215186480912e-03 1.268646255736e-02 0.0 
0.0 0.0 0.0 
1.415188488104e-03 2.352757153148e-03 0.0 
2.352757153148e-03 4.918144537548e-03 0.0 
0.0 0.0 0.0 
7.952827241895e-04 -4.585590002071e-04 0.0 
-4.585590002071e-04 3.882046837361e-03 0.0 
0.0 0.0 0.0 
2.623081138191e-03 1.023344099595e-03 0.0 
1.023344099595e-03 -1.114545327422e-03 0.0 
0.0 0.0 0.0 
7.139937943283e-04 -7.762464520074e-04 0.0 
-7.762464520074e-04 3.149627595044e-03 0.0 
0.0 0.0 0.0 
5.748606267453e-04 2.767573946427e-03 0.0 
2.767573946427e-03 7.312932439502e-03 0.0 
0.0 0.0 0.0 
2.690185549170e-05 2.838936437403e-03 0.0 
2.838936437403e-03 8.165789276515e-03 0.0 
0.0 0.0 0.0 
-1.483735163621e-03 1.148634033129e-03 0.0 
1.148634033129e-03 1.380494430810e-02 0.0 
0.0 0.0 0.0 
-3.291052920783e-04 2.779796938620e-03 0.0 
2.779796938620e-03 1.003568732554e-02 0.0 
0.0 0.0 0.0 
-4.922306290603e-04 2.767874084078e-03 0.0 
2.767874084078e-03 1.073257468955e-02 0.0 
0.0 0.0 0.0 
3.075092497811e-04 -9.443519214578e-05 0.0 
-9.443519214578e-05 9.525063130074e-04 0.0 
0.0 0.0 0.0 
7.215604266886e-04 -7.748139221126e-04 0.0 
-7.748139221126e-04 3.111179026009e-03 0.0 
0.0 0.0 0.0 
-1.942070551283e-04 2.867401407799e-03 0.0 
2.867401407799e-03 7.227141239729e-03 0.0 
0.0 0.0 0.0 
-8.553008352244e-04 2.571535047895e-03 0.0 
2.571535047895e-03 1.088923424782e-02 0.0 
0.0 0.0 0.0 
-9.938183357842e-04 2.566709509097e-03 0.0 
2.566709509097e-03 1.152148689622e-02 0.0 
0.0 0.0 0.0 
1.190801334144e-03 1.772263815719e-03 0.0 
1.772263815719e-03 6.163950699092e-03 0.0 
0.0 0.0 0.0 
1.020197073496e-04 -1.607187664456e-05 0.0 
-1.607187664456e-05 1.649858514526e-03 0.0 
0.0 0.0 0.0 
2.485412073670e-03 -1.522635226011e-03 0.0 
-1.522635226011e-03 -3.050852606456e-03 0.0 
0.0 0.0 0.0 
8.083656269808e-04 2.751212132497e-03 0.0 
2.751212132497e-03 6.083972156027e-03 0.0 
0.0 0.0 0.0 
5.391788546554e-04 -8.060995266439e-04 0.0 
-8.060995266439e-04 3.116932552370e-03 0.0 
0.0 0.0 0.0 
-2.089625268613e-03 1.194238502595e-03 0.0 
1.194238502595e-03 1.204310892231e-02 0.0 
0.0 0.0 0.0 
-2.004236177091e-03 9.938834256220e-04 0.0 
9.938834256220e-04 1.230255964409e-02 0.0 
0.0 0.0 0.0 
-1.674827351120e-03 1.251558388391e-03 0.0 
1.251558388391e-03 1.379353106800e-02 0.0 
0.0 0.0 0.0 
1.355857333968e-03 2.696809079415e-03 0.0 
2.696809079415e-03 -6.376190609581e-04 0.0 
0.0 0.0 0.0 
6.428070764426e-04 -5.177324598912e-04 0.0 
-5.177324598912e-04 3.804676878304e-03 0.0 
0.0 0.0 0.0 
1.476766257574e-03 8.407022635891e-04 0.0 
8.407022635891e-04 4.715188285870e-03 0.0 
0.0 0.0 0.0 
2.808401927720e-03 -4.958160678105e-04 0.0 
-4.958160678105e-04 -3.274905698641e-03 0.0 
0.0 0.0 0.0 
1.274549467849e-04 3.033200410507e-03 0.0 
3.033200410507e-03 9.980298888024e-03 0.0 
0.0 0.0 0.0 
-1.088387290345e-03 1.217509626987e-03 0.0 
1.217509626987e-03 1.474730817428e-02 0.0 
0.0 0.0 0.0 
3.613334820156e-04 -5.560272372452e-04 0.0 
-5.560272372452e-04 3.730616413694e-03 0.0 
0.0 0.0 0.0 
5.169902482216e-04 -9.189223072371e-06 0.0 
-9.189223072371e-06 5.532579522737e-03 0.0 
0.0 0.0 0.0 
2.350268895199e-04 -1.049930617861e-04 0.0 
-1.049930617861e-04 6.509518562263e-04 0.0 
0.0 0.0 0.0 
1.511375144279e-03 5.609990179269e-04 0.0 
5.609990179269e-04 4.330763660124e-03 0.0 
0.0 0.0 0.0 
6.430039450929e-04 2.718857674508e-03 0.0 
2.718857674508e-03 6.917280634374e-03 0.0 
0.0 0.0 0.0 
2.956794181448e-04 -8.007275418533e-05 0.0 
-8.007275418533e-05 6.232019913186e-04 0.0 
0.0 0.0 0.0 
-9.057028264445e-04 1.198900663338e-03 0.0 
1.198900663338e-03 1.474860301230e-02 0.0 
0.0 0.0 0.0 
2.729665700182e-03 -6.614237510083e-04 0.0 
-6.614237510083e-04 -3.585246934713e-03 0.0 
0.0 0.0 0.0 
-8.398166131079e-04 2.654961491448e-03 0.0 
2.654961491448e-03 1.087639817316e-02 0.0 
0.0 0.0 0.0 
1.014870385976e-04 2.814844410249e-03 0.0 
2.814844410249e-03 8.168696169066e-03 0.0 
0.0 0.0 0.0 
2.037758299810e-03 -2.295305742794e-04 0.0 
-2.295305742794e-04 1.885279649998e-03 0.0 
0.0 0.0 0.0 
1.589846892963e-03 -3.772502607941e-05 0.0 
-3.772502607941e-05 3.503563505412e-03 0.0 
0.0 0.0 0.0 
-8.392522666557e-04 1.416365774097e-03 0.0 
1.416365774097e-03 1.473797060007e-02 0.0 
0.0 0.0 0.0 
1.468558582392e-03 1.562657868883e-04 0.0 
1.562657868883e-04 4.055214918964e-03 0.0 
0.0 0.0 0.0 
1.073679497858e-03 2.632079980518e-03 0.0 
2.632079980518e-03 5.700733477467e-03 0.0 
0.0 0.0 0.0 
9.027979291041e-04 2.642096840777e-03 0.0 
2.642096840777e-03 6.099536123064e-03 0.0 
0.0 0.0 0.0 
-1.673520233876e-03 2.859048449931e-03 0.0 
2.859048449931e-03 9.671702790295e-04 0.0 
0.0 0.0 0.0 
2.582358965434e-03 -4.482697541716e-04 0.0 
-4.482697541716e-04 -3.840862821895e-03 0.0 
0.0 0.0 0.0 
4.901367081571e-04 2.769907358352e-03 0.0 
2.769907358352e-03 8.617141750163e-03 0.0 
0.0 0.0 0.0 
-1.816099374599e-03 1.470049336607e-03 0.0 
1.470049336607e-03 1.319212885163e-02 0.0 
0.0 0.0 0.0 
6.243907073180e-04 2.791497237699e-03 0.0 
2.791497237699e-03 8.363614274370e-03 0.0 
0.0 0.0 0.0 
1.430137284021e-03 2.748885747830e-03 0.0 
2.748885747830e-03 1.203508152674e-03 0.0 
0.0 0.0 0.0 
-1.044237014337e-03 2.180124165316e-03 0.0 
2.180124165316e-03 1.314585874889e-02 0.0 
0.0 0.0 0.0 
2.745970227342e-04 2.881851486795e-03 0.0 
2.881851486795e-03 9.376434391204e-03 0.0 
0.0 0.0 0.0 
-1.815404495006e-03 1.111912728282e-03 0.0 
1.111912728282e-03 1.221562543824e-02 0.0 
0.0 0.0 0.0 
4.930287135319e-04 2.805958917798e-03 0.0 
2.805958917798e-03 8.610837187784e-03 0.0 
0.0 0.0 0.0 
4.105883482848e-04 -7.385116200989e-05 0.0 
-7.385116200989e-05 5.543473116159e-03 0.0 
0.0 0.0 0.0 
8.098279989344e-04 2.687946965070e-03 0.0 
2.687946965070e-03 6.950547954153e-03 0.0 
0.0 0.0 0.0 
7.759508663927e-04 -6.173668747377e-04 0.0 
-6.173668747377e-04 3.483108836848e-03 0.0 
0.0 0.0 0.0 
7.477894512791e-04 -6.053677643716e-04 0.0 
-6.053677643716e-04 3.553509769605e-03 0.0 
0.0 0.0 0.0 
-9.547985613565e-04 2.039865289758e-03 0.0 
2.039865289758e-03 1.427483470650e-02 0.0 
0.0 0.0 0.0 
1.676964215596e-03 -2.462379224990e-04 0.0 
-2.462379224990e-04 2.969179614290e-03 0.0 
0.0 0.0 0.0 
3.116034271955e-04 2.819074173811e-03 0.0 
2.819074173811e-03 7.720065464782e-03 0.0 
0.0 0.0 0.0 
1.934763580732e-03 1.928956370947e-03 0.0 
1.928956370947e-03 3.695600953928e-03 0.0 
0.0 0.0 0.0 
1.305154855762e-03 3.316353926294e-04 0.0 
3.316353926294e-04 4.625327510193e-03 0.0 
0.0 0.0 0.0 
1.664559585120e-03 2.170752056072e-03 0.0 
2.170752056072e-03 4.114714007651e-03 0.0 
0.0 0.0 0.0 
2.759195045038e-03 4.004561368104e-04 0.0 
4.004561368104e-04 -1.000424922686e-03 0.0 
0.0 0.0 0.0 
2.166150843695e-03 5.940498802940e-04 0.0 
5.940498802940e-04 2.797553105191e-03 0.0 
0.0 0.0 0.0 
2.668139441226e-03 9.685408565173e-04 0.0 
9.685408565173e-04 -4.242497466950e-04 0.0 
0.0 0.0 0.0 
-5.895896818370e-04 2.700307814003e-03 0.0 
2.700307814003e-03 1.045740179544e-02 0.0 
0.0 0.0 0.0 
2.634789374360e-03 3.670527477819e-04 0.0 
3.670527477819e-04 -3.306164979215e-04 0.0 
0.0 0.0 0.0 
-3.670442972133e-04 2.789045251837e-03 0.0 
2.789045251837e-03 9.723556519325e-03 0.0 
0.0 0.0 0.0 
1.212411078541e-03 1.784661449610e-03 0.0 
1.784661449610e-03 6.155176066492e-03 0.0 
0.0 0.0 0.0 
1.455506439626e-03 1.677669833062e-03 0.0 
1.677669833062e-03 5.537379014071e-03 0.0 
0.0 0.0 0.0 
1.819116579346e-03 2.214598959103e-03 0.0 
2.214598959103e-03 3.283443474225e-03 0.0 
0.0 0.0 0.0 
-1.566050963421e-03 1.213016739123e-03 0.0 
1.213016739123e-03 1.351693217123e-02 0.0 
0.0 0.0 0.0 
3.917577000723e-04 7.809606220875e-06 0.0 
7.809606220875e-06 5.826286764062e-03 0.0 
0.0 0.0 0.0 
3.073845655517e-04 -5.308612524184e-05 0.0 
-5.308612524184e-05 5.836612091647e-03 0.0 
0.0 0.0 0.0 
7.058349682130e-04 2.856059400415e-03 0.0 
2.856059400415e-03 -7.339205958043e-04 0.0 
0.0 0.0 0.0 
-1.382994456142e-04 2.808384516940e-03 0.0 
2.808384516940e-03 9.293616915306e-03 0.0 
0.0 0.0 0.0 
2.051028405301e-04 8.565045559319e-05 0.0 
8.565045559319e-05 6.596704963173e-03 0.0 
0.0 0.0 0.0 
-9.134457183781e-04 2.617143725277e-03 0.0 
2.617143725277e-03 7.393397220471e-03 0.0 
0.0 0.0 0.0 
3.899339934585e-04 -4.489350757051e-04 0.0 
-4.489350757051e-04 4.108661544153e-03 0.0 
0.0 0.0 0.0 
-1.904071247604e-03 2.894897895197e-03 0.0 
2.894897895197e-03 1.695486296279e-03 0.0 
0.0 0.0 0.0 
2.857121666024e-04 2.076131771998e-05 0.0 
2.076131771998e-05 6.103604695199e-03 0.0 
0.0 0.0 0.0 
2.701327163086e-03 1.037359747608e-03 0.0 
1.037359747608e-03 -1.240856346886e-03 0.0 
0.0 0.0 0.0 
9.917455416542e-05 -1.083649187130e-04 0.0 
-1.083649187130e-04 4.367131536960e-03 0.0 
0.0 0.0 0.0 
1.489697252861e-03 2.170068104879e-03 0.0 
2.170068104879e-03 5.576725943846e-03 0.0 
0.0 0.0 0.0 
-1.763168405973e-03 1.340704191258e-03 0.0 
1.340704191258e-03 1.350118206244e-02 0.0 
0.0 0.0 0.0 
-1.657655835591e-03 1.307638452310e-03 0.0 
1.307638452310e-03 1.321260668268e-02 0.0 
0.0 0.0 0.0 
8.218619761269e-04 2.712240659865e-03 0.0 
2.712240659865e-03 6.510143188496e-03 0.0 
0.0 0.0 0.0 
-2.160995613808e-03 1.772018384140e-03 0.0 
1.772018384140e-03 1.127558060985e-02 0.0 
0.0 0.0 0.0 
-2.141881115318e-03 1.432208081870e-03 0.0 
1.432208081870e-03 1.170885243121e-02 0.0 
0.0 0.0 0.0 
2.225050335536e-04 -3.772394019204e-05 0.0 
-3.772394019204e-05 6.113630533953e-03 0.0 
0.0 0.0 0.0 
1.453074256958e-03 3.570529489229e-05 0.0 
3.570529489229e-05 3.735750076936e-03 0.0 
0.0 0.0 0.0 
1.947766294291e-03 -1.380525174236e-05 0.0 
-1.380525174236e-05 2.498644653868e-03 0.0 
0.0 0.0 0.0 
1.674277062052e-03 7.450085204326e-04 0.0 
7.450085204326e-04 4.307202374732e-03 0.0 
0.0 0.0 0.0 
2.301931461511e-03 4.517537389913e-04 0.0 
4.517537389913e-04 2.161576383025e-03 0.0 
0.0 0.0 0.0 
2.595001389351e-03 9.372726917137e-04 0.0 
9.372726917137e-04 -3.586705687807e-04 0.0 
0.0 0.0 0.0 
-1.831284036212e-03 1.158976639808e-03 0.0 
1.158976639808e-03 1.141135380172e-02 0.0 
0.0 0.0 0.0 
-1.909926772839e-03 1.284557695243e-03 0.0 
1.284557695243e-03 1.298408352649e-02 0.0 
0.0 0.0 0.0 
-1.092569246900e-03 4.671391782946e-06 0.0 
4.671391782946e-06 1.255075043240e-02 0.0 
0.0 0.0 0.0 
1.386915881518e-03 1.522889227980e-03 0.0 
1.522889227980e-03 5.559647109312e-03 0.0 
0.0 0.0 0.0 
1.903406291134e-03 1.945469863745e-03 0.0 
1.945469863745e-03 3.322003580410e-03 0.0 
0.0 0.0 0.0 
8.218055666500e-04 2.264604826159e-03 0.0 
2.264604826159e-03 7.354597472461e-03 0.0 
0.0 0.0 0.0 
1.090382967652e-04 5.270484929575e-06 0.0 
5.270484929575e-06 6.203135831012e-03 0.0 
0.0 0.0 0.0 
2.137516811132e-03 5.139376613427e-04 0.0 
5.139376613427e-04 2.624656032639e-03 0.0 
0.0 0.0 0.0 
1.567406133234e-04 5.989091844889e-05 0.0 
5.989091844889e-05 6.821204811900e-03 0.0 
0.0 0.0 0.0 
2.543085053633e-03 -1.050544091277e-04 0.0 
-1.050544091277e-04 -1.174509024710e-04 0.0 
0.0 0.0 0.0 
8.705962150355e-04 2.383603634740e-03 0.0 
2.383603634740e-03 7.372707473419e-03 0.0 
0.0 0.0 0.0 
9.027407397095e-04 2.609198708236e-03 0.0 
2.609198708236e-03 6.525189603783e-03 0.0 
0.0 0.0 0.0 
1.007665655045e-03 2.581094993536e-03 0.0 
2.581094993536e-03 6.638521416515e-03 0.0 
0.0 0.0 0.0 
1.069220995921e-03 8.974528773527e-04 0.0 
8.974528773527e-04 5.609608609405e-03 0.0 
0.0 0.0 0.0 
6.526828242142e-04 -1.268631923482e-03 0.0 
-1.268631923482e-03 2.062591103013e-03 0.0 
0.0 0.0 0.0 
7.751729403260e-05 2.827414623551e-03 0.0 
2.827414623551e-03 8.520438199910e-03 0.0 
0.0 0.0 0.0 
2.121963864827e-03 1.440037587648e-04 0.0 
1.440037587648e-04 2.209498249914e-03 0.0 
0.0 0.0 0.0 
-1.396942712909e-04 2.813844126776e-03 0.0 
2.813844126776e-03 8.958429200087e-03 0.0 
0.0 0.0 0.0 
1.373623571821e-03 2.550159659560e-03 0.0 
2.550159659560e-03 2.218625726567e-03 0.0 
0.0 0.0 0.0 
1.171350526154e-03 2.478837770339e-03 0.0 
2.478837770339e-03 6.412372497571e-03 0.0 
0.0 0.0 0.0 
2.268787428143e-03 7.696236108321e-05 0.0 
7.696236108321e-05 1.834815554347e-03 0.0 
0.0 0.0 0.0 
6.536703731657e-04 -3.791819448754e-04 0.0 
-3.791819448754e-04 4.202542088602e-03 0.0 
0.0 0.0 0.0 
-2.031289815103e-04 2.806433886738e-03 0.0 
2.806433886738e-03 8.959702287342e-03 0.0 
0.0 0.0 0.0 
-1.054041618195e-03 3.431150264166e-03 0.0 
3.431150264166e-03 -4.890458930821e-04 0.0 
0.0 0.0 0.0 
1.829966062772e-03 1.935510963058e-03 0.0 
1.935510963058e-03 4.299380942026e-03 0.0 
0.0 0.0 0.0 
-1.156939253697e-03 3.121289072700e-03 0.0 
3.121289072700e-03 1.524798941530e-03 0.0 
0.0 0.0 0.0 
-3.268347782381e-05 -3.364928976916e-04 0.0 
-3.364928976916e-04 1.152919494795e-03 0.0 
0.0 0.0 0.0 
5.239300759843e-04 -4.227869255801e-04 0.0 
-4.227869255801e-04 4.103054700255e-03 0.0 
0.0 0.0 0.0 
-5.779265791384e-05 2.863537464236e-03 0.0 
2.863537464236e-03 1.000609332911e-02 0.0 
0.0 0.0 0.0 
-1.571739610572e-03 1.596862636469e-03 0.0 
1.596862636469e-03 1.304007257872e-02 0.0 
0.0 0.0 0.0 
-1.772278077159e-03 2.152654379055e-03 0.0 
2.152654379055e-03 9.650707087073e-03 0.0 
0.0 0.0 0.0 
0.0 1.819859050187e-03 0.0 
1.819859050187e-03 1.505344850277e-02 0.0 
0.0 0.0 0.0 
-1.756490207483e-03 2.867193609034e-03 0.0 
2.867193609034e-03 2.986320758813e-04 0.0 
0.0 0.0 0.0 
-1.896273260968e-03 2.109462722575e-03 0.0 
2.109462722575e-03 1.052385157697e-02 0.0 
0.0 0.0 0.0 
1.980314754370e-03 1.056197309039e-04 0.0 
1.056197309039e-04 2.779478938122e-03 0.0 
0.0 0.0 0.0 
2.879409705561e-04 -4.461588335896e-04 0.0 
-4.461588335896e-04 4.008559471288e-03 0.0 
0.0 0.0 0.0 
-1.583535623710e-03 2.322418014401e-03 0.0 
2.322418014401e-03 1.055638148802e-02 0.0 
0.0 0.0 0.0 
2.240706393585e-03 -7.591885586348e-04 0.0 
-7.591885586348e-04 4.380251257461e-04 0.0 
0.0 0.0 0.0 
1.555418020563e-03 -1.760146097557e-04 0.0 
-1.760146097557e-04 3.166078067627e-03 0.0 
0.0 0.0 0.0 
6.452435896349e-04 2.695866769352e-03 0.0 
2.695866769352e-03 7.323279719276e-03 0.0 
0.0 0.0 0.0 
1.694548281415e-03 1.965190768147e-03 0.0 
1.965190768147e-03 4.908054432452e-03 0.0 
0.0 0.0 0.0 
-4.302169298875e-04 2.782197993316e-03 0.0 
2.782197993316e-03 1.165501687919e-02 0.0 
0.0 0.0 0.0 
1.422500897821e-03 2.931722619541e-03 0.0 
2.931722619541e-03 -1.991238083095e-03 0.0 
0.0 0.0 0.0 
4.943257527270e-04 -5.406550344035e-04 0.0 
-5.406550344035e-04 3.727444530202e-03 0.0 
0.0 0.0 0.0 
3.178752983730e-04 -3.369920380350e-04 0.0 
-3.369920380350e-04 4.267828084961e-03 0.0 
0.0 0.0 0.0 
7.586854449526e-05 -1.166644280502e-03 0.0 
-1.166644280502e-03 1.931959574690e-03 0.0 
0.0 0.0 0.0 
-1.801299720969e-03 9.733037820106e-04 0.0 
9.733037820106e-04 1.254218309726e-02 0.0 
0.0 0.0 0.0 
-1.704392943340e-03 1.760406055259e-03 0.0 
1.760406055259e-03 1.301779586248e-02 0.0 
0.0 0.0 0.0 
9.443530830033e-05 -4.097583326841e-05 0.0 
-4.097583326841e-05 5.603967296174e-03 0.0 
0.0 0.0 0.0 
4.040179342359e-04 -9.852893582839e-05 0.0 
-9.852893582839e-05 5.703985931311e-04 0.0 
0.0 0.0 0.0 
9.296093110578e-05 -6.441368454484e-04 0.0 
-6.441368454484e-04 -4.526793992982e-03 0.0 
0.0 0.0 0.0 
-1.884082698456e-04 -1.022841243021e-03 0.0 
-1.022841243021e-03 1.496334934695e-03 0.0 
0.0 0.0 0.0 
2.262582672012e-04 -3.467825069397e-04 0.0 
-3.467825069397e-04 4.270039405657e-03 0.0 
0.0 0.0 0.0 
2.464340103160e-03 5.223158778975e-05 0.0 
5.223158778975e-05 6.131760155024e-04 0.0 
0.0 0.0 0.0 
2.158642075226e-03 -9.731556337218e-04 0.0 
-9.731556337218e-04 -2.013553208502e-05 0.0 
0.0 0.0 0.0 
2.612046302644e-03 -2.648326050487e-04 0.0 
-2.648326050487e-04 -9.001295274719e-04 0.0 
0.0 0.0 0.0 
4.195663068838e-04 -3.339283786272e-04 0.0 
-3.339283786272e-04 4.385027557389e-03 0.0 
0.0 0.0 0.0 
-1.256368733809e-03 2.135879729026e-03 0.0 
2.135879729026e-03 1.248715064246e-02 0.0 
0.0 0.0 0.0 
2.489152848848e-04 -2.487864793340e-04 0.0 
-2.487864793340e-04 4.512601541141e-03 0.0 
0.0 0.0 0.0 
2.608690811533e-03 5.216927288174e-04 0.0 
5.216927288174e-04 5.355012787760e-04 0.0 
0.0 0.0 0.0 
-9.898107331929e-05 2.807247800928e-03 0.0 
2.807247800928e-03 9.293598375509e-03 0.0 
0.0 0.0 0.0 
-1.417143700952e-03 3.312725589480e-04 0.0 
3.312725589480e-04 1.325657869068e-02 0.0 
0.0 0.0 0.0 
1.313215387515e-03 2.215540725955e-03 0.0 
2.215540725955e-03 6.185778599629e-03 0.0 
0.0 0.0 0.0 
1.761847813373e-04 -2.581619379642e-04 0.0 
-2.581619379642e-04 4.514677642339e-03 0.0 
0.0 0.0 0.0 
3.080281752816e-04 -3.558230593223e-04 0.0 
-3.558230593223e-04 4.389720644220e-03 0.0 
0.0 0.0 0.0 
-1.702318053889e-03 2.186822306618e-03 0.0 
2.186822306618e-03 8.190663208673e-03 0.0 
0.0 0.0 0.0 
2.305600401423e-03 -2.476929943283e-04 0.0 
-2.476929943283e-04 9.082531164166e-04 0.0 
0.0 0.0 0.0 
1.921588689244e-04 -1.702439365111e-04 0.0 
-1.702439365111e-04 4.742337513397e-03 0.0 
0.0 0.0 0.0 
-9.205816447792e-04 5.591648806662e-05 0.0 
5.591648806662e-05 1.397676812256e-02 0.0 
0.0 0.0 0.0 
-9.913818827837e-04 4.720993453797e-05 0.0 
4.720993453797e-05 1.362759382846e-02 0.0 
0.0 0.0 0.0 
-1.710454420513e-03 2.188405737303e-03 0.0 
2.188405737303e-03 8.927018185030e-03 0.0 
0.0 0.0 0.0 
3.299412805757e-04 -2.522413955512e-04 0.0 
-2.522413955512e-04 4.650385452826e-03 0.0 
0.0 0.0 0.0 
1.555255832526e-03 -1.481506375390e-03 0.0 
-1.481506375390e-03 4.990784959191e-04 0.0 
0.0 0.0 0.0 
-5.351575132070e-04 3.275153655215e-03 0.0 
3.275153655215e-03 1.469928495459e-03 0.0 
0.0 0.0 0.0 
8.135802166236e-04 2.271804815750e-03 0.0 
2.271804815750e-03 7.398693916173e-03 0.0 
0.0 0.0 0.0 
-4.505602125316e-04 -1.330197814354e-03 0.0 
-1.330197814354e-03 1.341893626684e-03 0.0 
0.0 0.0 0.0 
1.673320766276e-03 -1.221337057067e-03 0.0 
-1.221337057067e-03 1.016927289686e-03 0.0 
0.0 0.0 0.0 
1.745704361208e-03 1.920544513937e-03 0.0 
1.920544513937e-03 4.440117565800e-03 0.0 
0.0 0.0 0.0 
-1.596843721385e-03 1.935182954926e-03 0.0 
1.935182954926e-03 9.712924207662e-03 0.0 
0.0 0.0 0.0 
1.374122136504e-04 -1.808491285169e-04 0.0 
-1.808491285169e-04 4.745821280719e-03 0.0 
0.0 0.0 0.0 
2.237557762186e-05 -5.994982751715e-05 0.0 
-5.994982751715e-05 2.267540652884e-03 0.0 
0.0 0.0 0.0 
-1.972091288941e-03 1.038573110720e-03 0.0 
1.038573110720e-03 1.280280795850e-02 0.0 
0.0 0.0 0.0 
2.394277993025e-04 -2.727786797189e-04 0.0 
-2.727786797189e-04 4.654663445848e-03 0.0 
0.0 0.0 0.0 
1.833648943578e-03 -3.437614092043e-04 0.0 
-3.437614092043e-04 2.242164695308e-03 0.0 
0.0 0.0 0.0 
4.851626244853e-04 -5.507471149500e-04 0.0 
-5.507471149500e-04 3.811029198317e-03 0.0 
0.0 0.0 0.0 
-5.668934887637e-05 2.612453108400e-03 0.0 
2.612453108400e-03 -2.162940805405e-03 0.0 
0.0 0.0 0.0 
-6.109385995097e-04 4.530482762663e-05 0.0 
4.530482762663e-05 1.497218853641e-02 0.0 
0.0 0.0 0.0 
1.905692301904e-03 -8.431642386816e-04 0.0 
-8.431642386816e-04 1.083987621668e-03 0.0 
0.0 0.0 0.0 
1.244127997284e-03 1.426648093766e-03 0.0 
1.426648093766e-03 5.829867578045e-03 0.0 
0.0 0.0 0.0 
1.047392210513e-03 2.478488588250e-03 0.0 
2.478488588250e-03 6.657184797752e-03 0.0 
0.0 0.0 0.0 
2.545649152104e-04 -1.796406408807e-04 0.0 
-1.796406408807e-04 4.899583805734e-03 0.0 
0.0 0.0 0.0 
1.836224859670e-04 -1.978624841027e-04 0.0 
-1.978624841027e-04 4.903242678254e-03 0.0 
0.0 0.0 0.0 
2.598925633031e-03 2.314577581521e-05 0.0 
2.314577581521e-05 1.400902974800e-04 0.0 
0.0 0.0 0.0 
-7.719436605913e-04 -1.270427225576e-03 0.0 
-1.270427225576e-03 9.653640700700e-04 0.0 
0.0 0.0 0.0 
1.367265368932e-04 3.065799658103e-03 0.0 
3.065799658103e-03 -2.254565036708e-03 0.0 
0.0 0.0 0.0 
1.922899593496e-04 -1.168459374145e-04 0.0 
-1.168459374145e-04 5.136573928094e-03 0.0 
0.0 0.0 0.0 
1.190498404862e-03 1.047934853034e-03 0.0 
1.047934853034e-03 5.614979170718e-03 0.0 
0.0 0.0 0.0 
9.523878073610e-04 -1.592887300524e-03 0.0 
-1.592887300524e-03 1.177735590259e-03 0.0 
0.0 0.0 0.0 
1.174791565322e-04 2.825764808441e-03 0.0 
2.825764808441e-03 8.890105613524e-03 0.0 
0.0 0.0 0.0 
-8.149089721304e-04 2.634613642356e-03 0.0 
2.634613642356e-03 6.621329064504e-03 0.0 
0.0 0.0 0.0 
-3.099051505311e-04 2.797725147762e-03 0.0 
2.797725147762e-03 1.003308513495e-02 0.0 
0.0 0.0 0.0 
4.975735084984e-04 6.547637215585e-04 0.0 
6.547637215585e-04 6.820608755289e-03 0.0 
0.0 0.0 0.0 
-4.456466960430e-03 -1.189728487035e-04 0.0 
-1.189728487035e-04 -2.900168926826e-03 0.0 
0.0 0.0 0.0 
0.0 1.635019918405e-04 0.0 
1.635019918405e-04 1.573642635766e-02 0.0 
0.0 0.0 0.0 
0.0 1.414967258777e-05 0.0 
1.414967258777e-05 7.612980009299e-03 0.0 
0.0 0.0 0.0 
-1.051154875213e-03 -3.206547589105e-05 0.0 
-3.206547589105e-05 1.298546114156e-02 0.0 
0.0 0.0 0.0 
1.400733072881e-03 -1.162563240367e-03 0.0 
-1.162563240367e-03 1.507615642575e-03 0.0 
0.0 0.0 0.0 
8.707633664353e-04 2.595200831319e-03 0.0 
2.595200831319e-03 6.965457517393e-03 0.0 
0.0 0.0 0.0 
2.553246616018e-03 4.409599816075e-04 0.0 
4.409599816075e-04 4.179941914659e-04 0.0 
0.0 0.0 0.0 
1.179152612147e-04 -2.974508734140e-04 0.0 
-2.974508734140e-04 9.595829649047e-04 0.0 
0.0 0.0 0.0 
-2.000635076691e-03 3.011357660685e-03 0.0 
3.011357660685e-03 9.680197386501e-04 0.0 
0.0 0.0 0.0 
-5.796784920532e-04 4.897787560608e-04 0.0 
4.897787560608e-04 1.521544601560e-02 0.0 
0.0 0.0 0.0 
-1.543407700150e-03 2.034263039917e-03 0.0 
2.034263039917e-03 1.276941870199e-02 0.0 
0.0 0.0 0.0 
-1.972312410550e-03 8.726831866493e-04 0.0 
8.726831866493e-04 1.254341367296e-02 0.0 
0.0 0.0 0.0 
1.845257553632e-04 3.335204910986e-03 0.0 
3.335204910986e-03 1.002805559279e-02 0.0 
0.0 0.0 0.0 
7.283825536297e-05 -4.911503033709e-05 0.0 
-4.911503033709e-05 1.873212994229e-03 0.0 
0.0 0.0 0.0 
2.149877965669e-04 3.185016897219e-03 0.0 
3.185016897219e-03 9.609818019203e-03 0.0 
0.0 0.0 0.0 
-1.436546314311e-03 1.888011145900e-03 0.0 
1.888011145900e-03 1.279360235163e-02 0.0 
0.0 0.0 0.0 
9.206668824988e-04 -1.221594155215e-03 0.0 
-1.221594155215e-03 2.001078704279e-03 0.0 
0.0 0.0 0.0 
1.053936342525e-03 2.596733741017e-03 0.0 
2.596733741017e-03 6.162744212442e-03 0.0 
0.0 0.0 0.0 
1.426966817918e-03 -1.195172361439e-03 0.0 
-1.195172361439e-03 1.522817135492e-03 0.0 
0.0 0.0 0.0 
-6.448033291310e-04 3.181925930412e-03 0.0 
3.181925930412e-03 2.419829872076e-03 0.0 
0.0 0.0 0.0 
1.079996185588e-03 -1.343604693600e-03 0.0 
-1.343604693600e-03 1.635130603374e-03 0.0 
0.0 0.0 0.0 
-1.043796011456e-03 2.354043103632e-03 0.0 
2.354043103632e-03 1.213293151894e-02 0.0 
0.0 0.0 0.0 
9.303734657484e-05 -3.766467662000e-05 0.0 
-3.766467662000e-05 6.408551120506e-03 0.0 
0.0 0.0 0.0 
1.985794390580e-03 -9.025460901784e-04 0.0 
-9.025460901784e-04 9.589224341371e-04 0.0 
0.0 0.0 0.0 
-8.007085227957e-05 2.829264376951e-03 0.0 
2.829264376951e-03 9.637272550145e-03 0.0 
0.0 0.0 0.0 
-1.603961773594e-03 -2.592210071592e-04 0.0 
-2.592210071592e-04 -4.392522094217e-03 0.0 
0.0 0.0 0.0 
2.429575922024e-03 -3.012914321490e-04 0.0 
-3.012914321490e-04 5.592145414823e-04 0.0 
0.0 0.0 0.0 
-1.362466976543e-03 2.039033746104e-03 0.0 
2.039033746104e-03 1.337611086776e-02 0.0 
0.0 0.0 0.0 
6.006432119920e-04 -1.226488652370e-03 0.0 
-1.226488652370e-03 2.128900029501e-03 0.0 
0.0 0.0 0.0 
6.042038376339e-04 -1.630345673203e-03 0.0 
-1.630345673203e-03 1.348518088159e-03 0.0 
0.0 0.0 0.0 
1.122535333135e-03 2.476374351579e-03 0.0 
2.476374351579e-03 6.182011507734e-03 0.0 
0.0 0.0 0.0 
1.055043164653e-03 -2.317049901578e-03 0.0 
-2.317049901578e-03 -1.183030467208e-03 0.0 
0.0 0.0 0.0 
-1.737839171605e-03 2.253572715208e-03 0.0 
2.253572715208e-03 6.788166395313e-03 0.0 
0.0 0.0 0.0 
-1.730699466259e-03 2.348382566087e-03 0.0 
2.348382566087e-03 7.514808425624e-03 0.0 
0.0 0.0 0.0 
4.066990393656e-04 -1.352586366418e-03 0.0 
-1.352586366418e-03 1.871617031424e-03 0.0 
0.0 0.0 0.0 
1.753945547245e-03 -1.186377718264e-04 0.0 
-1.186377718264e-04 2.823529166928e-03 0.0 
0.0 0.0 0.0 
1.784061444982e-03 2.166108749737e-03 0.0 
2.166108749737e-03 3.842629903750e-03 0.0 
0.0 0.0 0.0 
-6.939573160614e-05 2.819624808339e-03 0.0 
2.819624808339e-03 9.638337937391e-03 0.0 
0.0 0.0 0.0 
-4.063409730963e-04 2.725713593364e-03 0.0 
2.725713593364e-03 1.275314978675e-02 0.0 
0.0 0.0 0.0 
-1.452095364864e-03 2.049593251732e-03 0.0 
2.049593251732e-03 8.216592413820e-03 0.0 
0.0 0.0 0.0 
-8.342633634574e-04 1.591364543600e-05 0.0 
1.591364543600e-05 1.433226019643e-02 0.0 
0.0 0.0 0.0 
4.172651460199e-05 3.016761998087e-03 0.0 
3.016761998087e-03 1.074576714880e-02 0.0 
0.0 0.0 0.0 
2.691135883185e-03 4.509597734535e-04 0.0 
4.509597734535e-04 -2.056697261145e-04 0.0 
0.0 0.0 0.0 
-1.076671035417e-03 3.127571146400e-03 0.0 
3.127571146400e-03 1.525000444205e-03 0.0 
0.0 0.0 0.0 
-9.924877512377e-04 2.684750269764e-03 0.0 
2.684750269764e-03 7.382014800139e-03 0.0 
0.0 0.0 0.0 
1.626473617596e-03 -4.022048340890e-04 0.0 
-4.022048340890e-04 2.612025861749e-03 0.0 
0.0 0.0 0.0 
-4.785393666495e-04 2.744429157154e-03 0.0 
2.744429157154e-03 1.073548817673e-02 0.0 
0.0 0.0 0.0 
1.882120744287e-03 -1.939581803423e-04 0.0 
-1.939581803423e-04 2.578957160618e-03 0.0 
0.0 0.0 0.0 
1.009759089557e-03 2.717411707520e-03 0.0 
2.717411707520e-03 -1.778690739353e-03 0.0 
0.0 0.0 0.0 
1.643279732974e-03 9.037376859729e-05 0.0 
9.037376859729e-05 3.405213829696e-03 0.0 
0.0 0.0 0.0 
-7.722725441159e-04 3.107206202732e-03 0.0 
3.107206202732e-03 3.322921182533e-03 0.0 
0.0 0.0 0.0 
1.841772359266e-03 1.920905040583e-03 0.0 
1.920905040583e-03 3.877349792762e-03 0.0 
0.0 0.0 0.0 
1.788953498008e-03 1.479684939667e-05 0.0 
1.479684939667e-05 3.135277545775e-03 0.0 
0.0 0.0 0.0 
1.246026162349e-03 2.469559655868e-03 0.0 
2.469559655868e-03 5.891405456594e-03 0.0 
0.0 0.0 0.0 
-1.004360165766e-03 1.014298303209e-04 0.0 
1.014298303209e-04 1.390565961746e-02 0.0 
0.0 0.0 0.0 
2.501741239016e-04 -1.334631909593e-03 0.0 
-1.334631909593e-03 1.869894405031e-03 0.0 
0.0 0.0 0.0 
-3.374365495384e-04 3.307726961578e-03 0.0 
3.307726961578e-03 4.431867413959e-04 0.0 
0.0 0.0 0.0 
1.665547566021e-03 2.114382696720e-04 0.0 
2.114382696720e-04 3.708249010734e-03 0.0 
0.0 0.0 0.0 
-7.584948783487e-04 2.938273969575e-03 0.0 
2.938273969575e-03 4.139959883248e-03 0.0 
0.0 0.0 0.0 
3.003739665834e-04 8.498565446725e-04 0.0 
8.498565446725e-04 -4.683403511861e-03 0.0 
0.0 0.0 0.0 
-3.922843071030e-04 1.001831341380e-04 0.0 
1.001831341380e-04 1.526643663207e-02 0.0 
0.0 0.0 0.0 
-5.680441926443e-04 8.732314703647e-05 0.0 
8.732314703647e-05 1.497383472134e-02 0.0 
0.0 0.0 0.0 
-4.509950837764e-04 -3.727586273526e-04 0.0 
-3.727586273526e-04 5.829189076252e-04 0.0 
0.0 0.0 0.0 
1.503501411328e-03 2.891790390580e-04 0.0 
2.891790390580e-04 3.999981190057e-03 0.0 
0.0 0.0 0.0 
-7.254134608936e-05 -1.137044306579e-03 0.0 
-1.137044306579e-03 1.705146644733e-03 0.0 
0.0 0.0 0.0 
-5.300087074800e-05 -1.039206664533e-03 0.0 
-1.039206664533e-03 1.939367667589e-03 0.0 
0.0 0.0 0.0 
-3.205674052398e-05 2.878212973912e-03 0.0 
2.878212973912e-03 1.000512896436e-02 0.0 
0.0 0.0 0.0 
1.290006284395e-03 2.322012857795e-03 0.0 
2.322012857795e-03 5.911231846287e-03 0.0 
0.0 0.0 0.0 
1.431660044040e-04 2.853458062344e-03 0.0 
2.853458062344e-03 9.273930129315e-03 0.0 
0.0 0.0 0.0 
2.144562641639e-03 -7.023901795338e-04 0.0 
-7.023901795338e-04 6.354148553072e-04 0.0 
0.0 0.0 0.0 
-1.122119837030e-03 1.350407686188e-05 0.0 
1.350407686188e-05 1.255989651194e-02 0.0 
0.0 0.0 0.0 
2.178227784206e-04 4.662018829782e-04 0.0 
4.662018829782e-04 6.835481862695e-03 0.0 
0.0 0.0 0.0 
-2.168700544607e-04 -9.726035048086e-04 0.0 
-9.726035048086e-04 1.684886751373e-03 0.0 
0.0 0.0 0.0 
1.267783245521e-03 1.391024973566e-03 0.0 
1.391024973566e-03 5.634749318789e-03 0.0 
0.0 0.0 0.0 
1.611470085837e-03 2.141797548005e-03 0.0 
2.141797548005e-03 4.636281052727e-03 0.0 
0.0 0.0 0.0 
1.223680726734e-04 -1.321372102175e-04 0.0 
-1.321372102175e-04 1.384482299668e-03 0.0 
0.0 0.0 0.0 
-7.268781863963e-04 2.618943872385e-03 0.0 
2.618943872385e-03 1.112931035919e-02 0.0 
0.0 0.0 0.0 
2.516335239035e-03 1.657830509824e-04 0.0 
1.657830509824e-04 8.353509665504e-04 0.0 
0.0 0.0 0.0 
-7.362017576582e-04 -1.332917926231e-03 0.0 
-1.332917926231e-03 7.893058532782e-04 0.0 
0.0 0.0 0.0 
2.480838522237e-03 -5.035919363510e-04 0.0 
-5.035919363510e-04 -9.017597552019e-05 0.0 
0.0 0.0 0.0 
9.849405520046e-05 1.006048012665e-05 0.0 
1.006048012665e-05 5.434669965511e-03 0.0 
0.0 0.0 0.0 
-1.106185516091e-03 2.464508808470e-03 0.0 
2.464508808470e-03 1.210794649959e-02 0.0 
0.0 0.0 0.0 
-3.586090102483e-04 -1.368261276431e-03 0.0 
-1.368261276431e-03 1.085754220730e-03 0.0 
0.0 0.0 0.0 
7.066297137692e-05 -9.719735581037e-05 0.0 
-9.719735581037e-05 4.365054719602e-03 0.0 
0.0 0.0 0.0 
-2.480972080950e-04 2.828946099862e-03 0.0 
2.828946099862e-03 1.036042642457e-02 0.0 
0.0 0.0 0.0 
1.064881900929e-03 2.290765346467e-03 0.0 
2.290765346467e-03 6.874240423179e-03 0.0 
0.0 0.0 0.0 
7.317822664614e-04 -1.396328641617e-03 0.0 
-1.396328641617e-03 1.758567149285e-03 0.0 
0.0 0.0 0.0 
9.500649044814e-06 -9.202112549393e-05 0.0 
-9.202112549393e-05 2.266832482248e-03 0.0 
0.0 0.0 0.0 
1.718007396908e-03 2.142744336607e-03 0.0 
2.142744336607e-03 4.409563132469e-03 0.0 
0.0 0.0 0.0 
-9.540513970639e-04 -3.019735296411e-05 0.0 
-3.019735296411e-05 1.377402421717e-02 0.0 
0.0 0.0 0.0 
-6.282149233583e-04 -1.849600807285e-03 0.0 
-1.849600807285e-03 3.965086593793e-04 0.0 
0.0 0.0 0.0 
6.593398019272e-05 3.303186318081e-03 0.0 
3.303186318081e-03 1.075020736189e-02 0.0 
0.0 0.0 0.0 
-2.952461619614e-04 2.575800750743e-03 0.0 
2.575800750743e-03 1.366766037331e-02 0.0 
0.0 0.0 0.0 
-1.027358979304e-03 -1.526301235637e-05 0.0 
-1.526301235637e-05 1.322969253453e-02 0.0 
0.0 0.0 0.0 
-6.578044844512e-04 1.313416348526e-03 0.0 
1.313416348526e-03 1.515961390896e-02 0.0 
0.0 0.0 0.0 
-1.913461094515e-04 2.892105076802e-03 0.0 
2.892105076802e-03 1.287458029785e-02 0.0 
0.0 0.0 0.0 
2.215621422765e-03 -5.198791857401e-04 0.0 
-5.198791857401e-04 1.023018660147e-03 0.0 
0.0 0.0 0.0 
1.636448841872e-03 -1.180952774806e-03 0.0 
-1.180952774806e-03 1.012747735340e-03 0.0 
0.0 0.0 0.0 
6.914012758759e-04 1.875980154459e-03 0.0 
1.875980154459e-03 7.321273755393e-03 0.0 
0.0 0.0 0.0 
-1.386535575103e-03 3.713249861039e-04 0.0 
3.713249861039e-04 -4.274281069099e-03 0.0 
0.0 0.0 0.0 
3.763237732901e-05 -1.559115086638e-05 0.0 
-1.559115086638e-05 2.059826981569e-03 0.0 
0.0 0.0 0.0 
8.106382302131e-05 -3.292303009138e-05 0.0 
-3.292303009138e-05 4.472745782211e-03 0.0 
0.0 0.0 0.0 
4.933855999465e-04 -1.429589742905e-03 0.0 
-1.429589742905e-03 1.766463003926e-03 0.0 
0.0 0.0 0.0 
1.946373115221e-03 -1.174348422244e-03 0.0 
-1.174348422244e-03 4.575282879085e-04 0.0 
0.0 0.0 0.0 
-1.840057869147e-03 2.407519929461e-03 0.0 
2.407519929461e-03 5.402013063895e-03 0.0 
0.0 0.0 0.0 
-1.861223228470e-03 2.530639529675e-03 0.0 
2.530639529675e-03 6.098600323271e-03 0.0 
0.0 0.0 0.0 
-1.409301540269e-03 2.401750466817e-04 0.0 
2.401750466817e-04 1.330777540400e-02 0.0 
0.0 0.0 0.0 
2.368708612311e-03 -4.598297043431e-04 0.0 
-4.598297043431e-04 2.220858243127e-04 0.0 
0.0 0.0 0.0 
-1.507701114389e-05 -2.767522876620e-04 0.0 
-2.767522876620e-04 2.405585133597e-03 0.0 
0.0 0.0 0.0 
1.053043493144e-03 2.510880774189e-03 0.0 
2.510880774189e-03 6.959675441814e-03 0.0 
0.0 0.0 0.0 
1.403433708553e-04 2.633179951542e-04 0.0 
2.633179951542e-04 7.434835177758e-03 0.0 
0.0 0.0 0.0 
1.663495449229e-04 3.537022262222e-04 0.0 
3.537022262222e-04 7.374421985991e-03 0.0 
0.0 0.0 0.0 
1.733184482546e-03 -9.571544738491e-04 0.0 
-9.571544738491e-04 1.466972768549e-03 0.0 
0.0 0.0 0.0 
-1.500981017271e-03 2.751035673275e-04 0.0 
2.751035673275e-04 1.300974629755e-02 0.0 
0.0 0.0 0.0 
-1.546472468587e-03 -1.981478822021e-05 0.0 
-1.981478822021e-05 -3.776167379725e-03 0.0 
0.0 0.0 0.0 
-1.971167560708e-03 2.704803656628e-03 0.0 
2.704803656628e-03 4.006823180947e-03 0.0 
0.0 0.0 0.0 
9.957514498169e-04 -2.714640391234e-03 0.0 
-2.714640391234e-03 -1.918994421787e-03 0.0 
0.0 0.0 0.0 
-1.959847204643e-03 2.591888627096e-03 0.0 
2.591888627096e-03 4.748862223288e-03 0.0 
0.0 0.0 0.0 
1.522589793975e-03 2.131643290375e-03 0.0 
2.131643290375e-03 5.165253504300e-03 0.0 
0.0 0.0 0.0 
1.298492144885e-03 -1.449125857246e-03 0.0 
-1.449125857246e-03 1.158401713339e-03 0.0 
0.0 0.0 0.0 
1.893175474861e-03 -1.126630557237e-03 0.0 
-1.126630557237e-03 4.987091539606e-04 0.0 
0.0 0.0 0.0 
5.668285207441e-04 -2.719188098183e-03 0.0 
-2.719188098183e-03 -3.086431524201e-03 0.0 
0.0 0.0 0.0 
-4.943717948185e-04 1.396371041066e-04 0.0 
1.396371041066e-04 1.503477123840e-02 0.0 
0.0 0.0 0.0 
1.312377870548e-03 -1.439266211220e-03 0.0 
-1.439266211220e-03 1.050317509514e-03 0.0 
0.0 0.0 0.0 
-4.731949162907e-04 5.169102976539e-04 0.0 
5.169102976539e-04 1.521059280120e-02 0.0 
0.0 0.0 0.0 
-6.997607830570e-04 1.658270259963e-04 0.0 
1.658270259963e-04 1.478152770305e-02 0.0 
0.0 0.0 0.0 
-1.906315534437e-04 2.303351091262e-04 0.0 
2.303351091262e-04 1.572425553647e-02 0.0 
0.0 0.0 0.0 
2.208285639926e-05 1.813999348219e-05 0.0 
1.813999348219e-05 7.612004851779e-03 0.0 
0.0 0.0 0.0 
-1.038426974956e-03 3.686916375025e-05 0.0 
3.686916375025e-05 1.324182417737e-02 0.0 
0.0 0.0 0.0 
1.098904798212e-03 -1.345023406899e-03 0.0 
-1.345023406899e-03 1.550611298320e-03 0.0 
0.0 0.0 0.0 
-1.535384625656e-03 2.246419824783e-03 0.0 
2.246419824783e-03 6.786970354838e-03 0.0 
0.0 0.0 0.0 
1.208407991217e-03 -1.118884104306e-03 0.0 
-1.118884104306e-03 1.981849019295e-03 0.0 
0.0 0.0 0.0 
0.0 1.703178992057e-04 0.0 
1.703178992057e-04 7.487475930585e-03 0.0 
0.0 0.0 0.0 
-1.911922675484e-03 2.831726420444e-03 0.0 
2.831726420444e-03 2.463707502183e-03 0.0 
0.0 0.0 0.0 
-1.924692786315e-03 2.765820785883e-03 0.0 
2.765820785883e-03 3.248307600806e-03 0.0 
0.0 0.0 0.0 
1.135970919442e-03 1.660114533563e-03 0.0 
1.660114533563e-03 6.173039109935e-03 0.0 
0.0 0.0 0.0 
-1.280263208002e-03 1.378166303690e-04 0.0 
1.378166303690e-04 1.296494062939e-02 0.0 
0.0 0.0 0.0 
-4.251551222116e-04 3.467974880962e-04 0.0 
3.467974880962e-04 1.525204664681e-02 0.0 
0.0 0.0 0.0 
-2.644860786273e-04 2.825119398813e-03 0.0 
2.825119398813e-03 1.036068319850e-02 0.0 
0.0 0.0 0.0 
9.161300050347e-04 2.475066284381e-03 0.0 
2.475066284381e-03 7.409953198142e-03 0.0 
0.0 0.0 0.0 
-7.513199122892e-04 2.709486158588e-03 0.0 
2.709486158588e-03 1.196150038368e-02 0.0 
0.0 0.0 0.0 
-1.057940595213e-03 9.844147567049e-05 0.0 
9.844147567049e-05 1.333713017951e-02 0.0 
0.0 0.0 0.0 
2.950905062451e-04 -1.553748021551e-03 0.0 
-1.553748021551e-03 1.523271420132e-03 0.0 
0.0 0.0 0.0 
5.018061550235e-04 -1.553563706897e-03 0.0 
-1.553563706897e-03 1.522359308370e-03 0.0 
0.0 0.0 0.0 
-8.676824912084e-04 9.866556551330e-05 0.0 
9.866556551330e-05 1.415222612106e-02 0.0 
0.0 0.0 0.0 
8.346371448993e-04 2.455996425908e-03 0.0 
2.455996425908e-03 7.523426415477e-03 0.0 
0.0 0.0 0.0 
-1.690493022893e-03 4.228910829327e-04 0.0 
4.228910829327e-04 1.265894751850e-02 0.0 
0.0 0.0 0.0 
-1.079133479291e-03 1.332878792774e-05 0.0 
1.332878792774e-05 1.289689856199e-02 0.0 
0.0 0.0 0.0 
-1.067093239238e-03 2.664328539073e-05 0.0 
2.664328539073e-05 1.323049621607e-02 0.0 
0.0 0.0 0.0 
-1.121361747613e-03 4.548969278631e-05 0.0 
4.548969278631e-05 1.335800347475e-02 0.0 
0.0 0.0 0.0 
1.927358388499e-03 -1.443405395303e-03 0.0 
-1.443405395303e-03 -3.327941649218e-03 0.0 
0.0 0.0 0.0 
1.649386249325e-04 -1.430728611154e-03 0.0 
-1.430728611154e-03 1.667152098328e-03 0.0 
0.0 0.0 0.0 
-4.141863459199e-04 7.561947397546e-04 0.0 
7.561947397546e-04 1.543401380206e-02 0.0 
0.0 0.0 0.0 
-1.081139277767e-03 1.046228264905e-04 0.0 
1.046228264905e-04 1.374449569309e-02 0.0 
0.0 0.0 0.0 
4.373469550039e-04 2.375905565222e-03 0.0 
2.375905565222e-03 8.003971680455e-03 0.0 
0.0 0.0 0.0 
-6.038730183818e-04 2.866194894528e-03 0.0 
2.866194894528e-03 1.269625346821e-02 0.0 
0.0 0.0 0.0 
-7.393497957019e-04 2.686949287306e-03 0.0 
2.686949287306e-03 1.111677663099e-02 0.0 
0.0 0.0 0.0 
-8.358059802011e-04 1.364055416727e-03 0.0 
1.364055416727e-03 1.494409721455e-02 0.0 
0.0 0.0 0.0 
7.815043882387e-05 -3.636725921902e-04 0.0 
-3.636725921902e-04 3.280095176472e-03 0.0 
0.0 0.0 0.0 
2.215563478947e-05 -3.929968711762e-04 0.0 
-3.929968711762e-04 2.983554062816e-03 0.0 
0.0 0.0 0.0 
4.688220372313e-04 4.503275463525e-04 0.0 
4.503275463525e-04 6.378704001656e-03 0.0 
0.0 0.0 0.0 
2.225819631658e-04 -1.731915348499e-03 0.0 
-1.731915348499e-03 -3.613871434323e-03 0.0 
0.0 0.0 0.0 
4.632637342539e-05 -1.106319791149e-04 0.0 
-1.106319791149e-04 2.165116117239e-03 0.0 
0.0 0.0 0.0 
0.0 3.099352324141e-03 0.0 
3.099352324141e-03 9.803756533333e-03 0.0 
0.0 0.0 0.0 
2.653949183207e-04 -2.529966933510e-05 0.0 
-2.529966933510e-05 9.566821148315e-04 0.0 
0.0 0.0 0.0 
-1.064020880681e-03 2.077500054474e-05 0.0 
2.077500054474e-05 1.290029454924e-02 0.0 
0.0 0.0 0.0 
9.348791609680e-04 1.425556001212e-03 0.0 
1.425556001212e-03 6.520227172084e-03 0.0 
0.0 0.0 0.0 
-2.025778528556e-04 -4.125702428352e-04 0.0 
-4.125702428352e-04 6.889617931749e-04 0.0 
0.0 0.0 0.0 
4.670317059421e-04 -1.055385528560e-04 0.0 
-1.055385528560e-04 1.749001148361e-04 0.0 
0.0 0.0 0.0 
-2.869290579681e-04 1.170569008426e-03 0.0 
1.170569008426e-03 1.548541705672e-02 0.0 
0.0 0.0 0.0 
-1.216634724786e-03 3.283025191852e-05 0.0 
3.283025191852e-05 1.259159798488e-02 0.0 
0.0 0.0 0.0 
-4.561288558492e-04 1.028488613605e-03 0.0 
1.028488613605e-03 1.531094200273e-02 0.0 
0.0 0.0 0.0 
7.209790088134e-04 1.642486634560e-03 0.0 
1.642486634560e-03 6.673830319008e-03 0.0 
0.0 0.0 0.0 
-1.202019302191e-03 1.239168506299e-05 0.0 
1.239168506299e-05 1.257810660378e-02 0.0 
0.0 0.0 0.0 
-1.390796396431e-03 5.954877110199e-04 0.0 
5.954877110199e-04 -3.691199258656e-03 0.0 
0.0 0.0 0.0 
-2.048699438889e-04 1.687713410018e-04 0.0 
1.687713410018e-04 1.550805677538e-02 0.0 
0.0 0.0 0.0 
8.642926967939e-05 -2.857281390893e-04 0.0 
-2.857281390893e-04 1.150277458853e-03 0.0 
0.0 0.0 0.0 
-4.734885471578e-04 8.438393649014e-04 0.0 
8.438393649014e-04 1.521832485175e-02 0.0 
0.0 0.0 0.0 
0.0 1.039977894446e-04 0.0 
1.039977894446e-04 7.532193754439e-03 0.0 
0.0 0.0 0.0 
-6.898433795159e-04 2.480916468620e-03 0.0 
2.480916468620e-03 1.350408929161e-02 0.0 
0.0 0.0 0.0 
2.338992680157e-03 -1.354739990455e-03 0.0 
-1.354739990455e-03 -3.079740999154e-03 0.0 
0.0 0.0 0.0 
-1.604388156206e-03 5.940628131205e-04 0.0 
5.940628131205e-04 1.322604435348e-02 0.0 
0.0 0.0 0.0 
1.688976427539e-05 -2.445343142546e-04 0.0 
-2.445343142546e-04 3.346120049717e-03 0.0 
0.0 0.0 0.0 
1.015128115210e-03 2.364576402006e-03 0.0 
2.364576402006e-03 6.970672923204e-03 0.0 
0.0 0.0 0.0 
2.871245995568e-04 2.601014591917e-03 0.0 
2.601014591917e-03 8.604324417057e-03 0.0 
0.0 0.0 0.0 
-7.768183046578e-04 1.205622816892e-04 0.0 
1.205622816892e-04 1.452218282469e-02 0.0 
0.0 0.0 0.0 
3.539819734411e-04 2.372051241242e-03 0.0 
2.372051241242e-03 8.258522688179e-03 0.0 
0.0 0.0 0.0 
1.250999190728e-03 -1.298208066838e-03 0.0 
-1.298208066838e-03 -4.085552949186e-03 0.0 
0.0 0.0 0.0 
1.553355359500e-04 1.390347845976e-04 0.0 
1.390347845976e-04 7.085992212440e-03 0.0 
0.0 0.0 0.0 
1.823946566015e-03 -2.018244233201e-03 0.0 
-2.018244233201e-03 -1.762539967766e-03 0.0 
0.0 0.0 0.0 
2.001049640385e-04 -1.035918034079e-04 0.0 
-1.035918034079e-04 9.858269715328e-04 0.0 
0.0 0.0 0.0 
5.879813278531e-04 1.194367884036e-03 0.0 
1.194367884036e-03 6.944327221371e-03 0.0 
0.0 0.0 0.0 
-6.465108324757e-04 1.958607412433e-03 0.0 
1.958607412433e-03 1.475454263596e-02 0.0 
0.0 0.0 0.0 
-3.951862414103e-04 1.189912549845e-03 0.0 
1.189912549845e-03 1.531125505494e-02 0.0 
0.0 0.0 0.0 
-1.120417981286e-03 7.539831988282e-05 0.0 
7.539831988282e-05 1.290187016280e-02 0.0 
0.0 0.0 0.0 
-1.739327894547e-03 1.066509348075e-03 0.0 
1.066509348075e-03 1.305504252403e-02 0.0 
0.0 0.0 0.0 
-6.648153009740e-04 3.114093266259e-03 0.0 
3.114093266259e-03 2.416562999259e-03 0.0 
0.0 0.0 0.0 
-3.850186662799e-04 3.082680811115e-03 0.0 
3.082680811115e-03 1.273928807421e-02 0.0 
0.0 0.0 0.0 
-1.919757312674e-06 -1.932964844354e-04 0.0 
-1.932964844354e-04 2.845694711650e-03 0.0 
0.0 0.0 0.0 
3.211337665365e-04 2.883256755895e-03 0.0 
2.883256755895e-03 -8.385102405352e-04 0.0 
0.0 0.0 0.0 
1.114530158021e-03 2.421124860918e-03 0.0 
2.421124860918e-03 6.856811819867e-03 0.0 
0.0 0.0 0.0 
-1.109173566022e-03 6.979208728967e-06 0.0 
6.979208728967e-06 1.253405279878e-02 0.0 
0.0 0.0 0.0 
-5.975495034910e-04 1.870924602041e-03 0.0 
1.870924602041e-03 1.455195208339e-02 0.0 
0.0 0.0 0.0 
-1.582751939188e-04 -1.485084044811e-05 0.0 
-1.485084044811e-05 1.572749780325e-02 0.0 
0.0 0.0 0.0 
0.0 7.913759695919e-05 0.0 
7.913759695919e-05 1.575719948415e-02 0.0 
0.0 0.0 0.0 
8.280118201904e-04 3.215228948218e-05 0.0 
3.215228948218e-05 -2.285563677952e-04 0.0 
0.0 0.0 0.0 
6.780825025201e-04 -2.988132371660e-05 0.0 
-2.988132371660e-05 -2.026942765222e-04 0.0 
0.0 0.0 0.0 
-1.068518586591e-03 -2.928395677286e-05 0.0 
-2.928395677286e-05 1.257134827264e-02 0.0 
0.0 0.0 0.0 
-1.088095104188e-03 4.131541630757e-06 0.0 
4.131541630757e-06 1.252409379343e-02 0.0 
0.0 0.0 0.0 
0.0 7.820145700632e-06 0.0 
7.820145700632e-06 7.627823434387e-03 0.0 
0.0 0.0 0.0 
1.564029140133e-05 2.762204120221e-05 0.0 
2.762204120221e-05 7.572579351983e-03 0.0 
0.0 0.0 0.0 
6.270453248571e-04 4.670695501196e-06 0.0 
4.670695501196e-06 6.337692234859e-05 0.0 
0.0 0.0 0.0 
-1.349544715834e-03 -4.122404685668e-04 0.0 
-4.122404685668e-04 -4.526912224442e-03 0.0 
0.0 0.0 0.0 
1.105465700233e-04 5.987660480599e-05 0.0 
5.987660480599e-05 6.794269339322e-03 0.0 
0.0 0.0 0.0 
5.274910976305e-04 2.964367775333e-03 0.0 
2.964367775333e-03 8.891575127824e-03 0.0 
0.0 0.0 0.0 
1.290311165918e-04 -2.746232574074e-04 0.0 
-2.746232574074e-04 1.322661621616e-03 0.0 
0.0 0.0 0.0 
2.333413692972e-04 1.704378063402e-04 0.0 
1.704378063402e-04 6.678168822895e-03 0.0 
0.0 0.0 0.0 
9.034291688770e-05 -3.374246963684e-05 0.0 
-3.374246963684e-05 4.783558375891e-03 0.0 
0.0 0.0 0.0 
4.400259795911e-05 -6.489719259678e-05 0.0 
-6.489719259678e-05 4.106808381189e-03 0.0 
0.0 0.0 0.0 
-1.008353656071e-03 1.278417104541e-04 0.0 
1.278417104541e-04 1.392180552617e-02 0.0 
0.0 0.0 0.0 
2.959731199326e-05 -2.430791751841e-03 0.0 
-2.430791751841e-03 -2.109660624433e-04 0.0 
0.0 0.0 0.0 
1.167019560955e-03 2.333801344010e-03 0.0 
2.333801344010e-03 6.431075344087e-03 0.0 
0.0 0.0 0.0 
1.569471527882e-04 -2.587914947818e-04 0.0 
-2.587914947818e-04 1.008318532844e-03 0.0 
0.0 0.0 0.0 
8.624148660163e-05 -2.987265435959e-04 0.0 
-2.987265435959e-04 3.654188156745e-03 0.0 
0.0 0.0 0.0 
-2.842816079360e-04 2.878786898618e-03 0.0 
2.878786898618e-03 1.240058847808e-02 0.0 
0.0 0.0 0.0 
-5.019932257811e-04 -2.029028430890e-05 0.0 
-2.029028430890e-05 1.514479302020e-02 0.0 
0.0 0.0 0.0 
6.928145756135e-05 -6.530405649009e-05 0.0 
-6.530405649009e-05 4.105206612443e-03 0.0 
0.0 0.0 0.0 
-1.034465022088e-03 1.326683259327e-05 0.0 
1.326683259327e-05 1.351557358920e-02 0.0 
0.0 0.0 0.0 
1.920494589984e-04 3.165081934154e-03 0.0 
3.165081934154e-03 1.009154496669e-02 0.0 
0.0 0.0 0.0 
-5.544940932697e-04 2.818937143804e-03 0.0 
2.818937143804e-03 1.165031952222e-02 0.0 
0.0 0.0 0.0 
-6.481914733457e-04 2.741901612176e-03 0.0 
2.741901612176e-03 1.137484588831e-02 0.0 
0.0 0.0 0.0 
-1.159143459343e-03 1.520138136311e-05 0.0 
1.520138136311e-05 1.257038842487e-02 0.0 
0.0 0.0 0.0 
1.398455914291e-03 2.154112162606e-03 0.0 
2.154112162606e-03 5.718411422029e-03 0.0 
0.0 0.0 0.0 
-5.798519841133e-04 2.175942712210e-03 0.0 
2.175942712210e-03 1.409171760768e-02 0.0 
0.0 0.0 0.0 
2.223420420888e-06 -1.826972314328e-04 0.0 
-1.826972314328e-04 2.177684842462e-03 0.0 
0.0 0.0 0.0 
-1.893410696052e-05 -3.038654987685e-04 0.0 
-3.038654987685e-04 3.415216283018e-04 0.0 
0.0 0.0 0.0 
6.803080367690e-05 2.945491643806e-03 0.0 
2.945491643806e-03 1.006050162551e-02 0.0 
0.0 0.0 0.0 
1.364307713809e-03 1.528722402119e-03 0.0 
1.528722402119e-03 5.625450610577e-03 0.0 
0.0 0.0 0.0 
1.041393729362e-04 -2.379509955914e-03 0.0 
-2.379509955914e-03 -5.715474236851e-04 0.0 
0.0 0.0 0.0 
-9.275804681310e-04 5.727819918666e-05 0.0 
5.727819918666e-05 1.417545918263e-02 0.0 
0.0 0.0 0.0 
4.623951490634e-05 5.230981293821e-05 0.0 
5.230981293821e-05 7.146715038976e-03 0.0 
0.0 0.0 0.0 
4.149654263419e-04 2.859874871397e-03 0.0 
2.859874871397e-03 9.043541707531e-03 0.0 
0.0 0.0 0.0 
3.016093905959e-04 3.090680451898e-03 0.0 
3.090680451898e-03 9.624549767290e-03 0.0 
0.0 0.0 0.0 
9.639634537573e-05 -5.170620072760e-05 0.0 
-5.170620072760e-05 5.177389943720e-03 0.0 
0.0 0.0 0.0 
9.125996427395e-05 2.539906566567e-03 0.0 
2.539906566567e-03 -3.555401222741e-03 0.0 
0.0 0.0 0.0 
-1.707646311301e-03 2.439765704631e-03 0.0 
2.439765704631e-03 5.404621402282e-03 0.0 
0.0 0.0 0.0 
-8.193857645684e-04 2.895542269948e-03 0.0 
2.895542269948e-03 4.138314346411e-03 0.0 
0.0 0.0 0.0 
-1.671605340010e-03 6.430486529536e-04 0.0 
6.430486529536e-04 1.329804607148e-02 0.0 
0.0 0.0 0.0 
1.398726829555e-03 2.329570873946e-03 0.0 
2.329570873946e-03 5.697271770428e-03 0.0 
0.0 0.0 0.0 
-4.929249433857e-04 6.076675513435e-04 0.0 
6.076675513435e-04 1.529349663252e-02 0.0 
0.0 0.0 0.0 
4.348433838270e-04 1.897627668913e-03 0.0 
1.897627668913e-03 7.347079082359e-03 0.0 
0.0 0.0 0.0 
-8.577822975632e-04 -1.723744538562e-03 0.0 
-1.723744538562e-03 3.291815076158e-04 0.0 
0.0 0.0 0.0 
-4.725116999151e-04 -8.011288020399e-04 0.0 
-8.011288020399e-04 6.745998953532e-04 0.0 
0.0 0.0 0.0 
-1.792355685646e-03 2.682158152788e-03 0.0 
2.682158152788e-03 4.004513529323e-03 0.0 
0.0 0.0 0.0 
-8.605016502075e-04 2.033957278965e-04 0.0 
2.033957278965e-04 1.428596971807e-02 0.0 
0.0 0.0 0.0 
3.036767757925e-06 -3.394438245629e-04 0.0 
-3.394438245629e-04 2.606394353457e-03 0.0 
0.0 0.0 0.0 
-7.097418634949e-04 1.562529676376e-03 0.0 
1.562529676376e-03 1.489654946228e-02 0.0 
0.0 0.0 0.0 
2.081572786292e-04 -1.496628065239e-04 0.0 
-1.496628065239e-04 1.238773054430e-03 0.0 
0.0 0.0 0.0 
8.320461119269e-04 1.824713239160e-03 0.0 
1.824713239160e-03 6.763555050517e-03 0.0 
0.0 0.0 0.0 
-1.283906308295e-03 2.285557598215e-04 0.0 
2.285557598215e-04 1.330881368297e-02 0.0 
0.0 0.0 0.0 
2.868387051225e-04 2.718580480933e-03 0.0 
2.718580480933e-03 8.732271098072e-03 0.0 
0.0 0.0 0.0 
7.950739464282e-04 2.552910320403e-03 0.0 
2.552910320403e-03 7.662495391737e-03 0.0 
0.0 0.0 0.0 
-1.803460297711e-03 8.316758999342e-04 0.0 
8.316758999342e-04 1.325933697667e-02 0.0 
0.0 0.0 0.0 
5.226356592150e-04 8.217640592998e-04 0.0 
8.217640592998e-04 6.853330408048e-03 0.0 
0.0 0.0 0.0 
-5.623205580347e-04 1.803782488385e-03 0.0 
1.803782488385e-03 1.490360499606e-02 0.0 
0.0 0.0 0.0 
-3.313520696850e-04 1.557482234026e-04 0.0 
1.557482234026e-04 1.552272921231e-02 0.0 
0.0 0.0 0.0 
-1.688677819266e-03 2.785415839504e-03 0.0 
2.785415839504e-03 2.461171038918e-03 0.0 
0.0 0.0 0.0 
-6.520241244252e-04 1.351537326969e-03 0.0 
1.351537326969e-03 1.494478176753e-02 0.0 
0.0 0.0 0.0 
1.694730049917e-05 3.130762978197e-03 0.0 
3.130762978197e-03 1.097695721121e-02 0.0 
0.0 0.0 0.0 
9.406727328616e-04 1.795567579267e-03 0.0 
1.795567579267e-03 6.770942026045e-03 0.0 
0.0 0.0 0.0 
9.247635798619e-04 2.571067467125e-03 0.0 
2.571067467125e-03 7.495655191404e-03 0.0 
0.0 0.0 0.0 
0.0 3.218748103061e-04 0.0 
3.218748103061e-04 7.413626854977e-03 0.0 
0.0 0.0 0.0 
-5.783353083546e-04 2.698652660084e-03 0.0 
2.698652660084e-03 1.138043395035e-02 0.0 
0.0 0.0 0.0 
-1.493519279848e-03 1.816413685384e-03 0.0 
1.816413685384e-03 -2.422068844139e-03 0.0 
0.0 0.0 0.0 
-2.118636577056e-04 3.198885291455e-03 0.0 
3.198885291455e-03 4.392598932235e-04 0.0 
0.0 0.0 0.0 
-5.948205678591e-04 2.821998712352e-03 0.0 
2.821998712352e-03 1.219701855238e-02 0.0 
0.0 0.0 0.0 
-1.548162997829e-03 6.996930778823e-04 0.0 
6.996930778823e-04 1.353541683667e-02 0.0 
0.0 0.0 0.0 
6.422648234827e-05 -1.603166279830e-05 0.0 
-1.603166279830e-05 6.842467754750e-03 0.0 
0.0 0.0 0.0 
6.169851754787e-04 2.636682277541e-03 0.0 
2.636682277541e-03 8.168548684393e-03 0.0 
0.0 0.0 0.0 
1.394106911992e-04 2.311706787848e-04 0.0 
2.311706787848e-04 7.026518423867e-03 0.0 
0.0 0.0 0.0 
-7.534145926587e-04 2.521507035138e-04 0.0 
2.521507035138e-04 1.464278485040e-02 0.0 
0.0 0.0 0.0 
2.770289401697e-04 2.567775175708e-03 0.0 
2.567775175708e-03 8.405891918080e-03 0.0 
0.0 0.0 0.0 
5.154948166255e-04 6.187493835625e-04 0.0 
6.187493835625e-04 6.424407277251e-03 0.0 
0.0 0.0 0.0 
5.945732358994e-04 7.148406591180e-04 0.0 
7.148406591180e-04 6.415519327140e-03 0.0 
0.0 0.0 0.0 
-1.476983461757e-06 -2.357698136008e-04 0.0 
-2.357698136008e-04 2.728423718001e-03 0.0 
0.0 0.0 0.0 
1.261312184073e-04 1.844577117125e-04 0.0 
1.844577117125e-04 7.475658673853e-03 0.0 
0.0 0.0 0.0 
-1.417392394931e-03 2.464787359911e-04 0.0 
2.464787359911e-04 1.292944526246e-02 0.0 
0.0 0.0 0.0 
-4.944614771788e-04 3.085815087528e-04 0.0 
3.085815087528e-04 1.525701245474e-02 0.0 
0.0 0.0 0.0 
-5.633392549035e-04 -9.336465862813e-04 0.0 
-9.336465862813e-04 8.696406135655e-04 0.0 
0.0 0.0 0.0 
-6.167513390090e-04 1.340841766161e-04 0.0 
1.340841766161e-04 1.504139700836e-02 0.0 
0.0 0.0 0.0 
-9.416923265876e-04 1.214591531320e-04 0.0 
1.214591531320e-04 1.420376648765e-02 0.0 
0.0 0.0 0.0 
4.385392426269e-04 6.864417870671e-06 0.0 
6.864417870671e-06 5.621096047288e-04 0.0 
0.0 0.0 0.0 
2.237843680686e-03 -1.633170726206e-03 0.0 
-1.633170726206e-03 -3.658584508499e-03 0.0 
0.0 0.0 0.0 
-3.652137063311e-04 2.814007521296e-03 0.0 
2.814007521296e-03 1.104826128553e-02 0.0 
0.0 0.0 0.0 
-2.873713288971e-04 9.035972863885e-04 0.0 
9.035972863885e-04 1.538674202578e-02 0.0 
0.0 0.0 0.0 
-4.471758456533e-04 1.421178877978e-04 0.0 
1.421178877978e-04 1.529806179237e-02 0.0 
0.0 0.0 0.0 
6.522178414299e-04 2.566761265487e-03 0.0 
2.566761265487e-03 7.998709209621e-03 0.0 
0.0 0.0 0.0 
-1.066822280840e-03 1.522797443943e-04 0.0 
1.522797443943e-04 1.354119492561e-02 0.0 
0.0 0.0 0.0 
2.884598914927e-04 -1.199289146849e-04 0.0 
-1.199289146849e-04 2.296808806732e-04 0.0 
0.0 0.0 0.0 
7.147286058855e-04 1.917522212103e-03 0.0 
1.917522212103e-03 -3.962716893849e-03 0.0 
0.0 0.0 0.0 
5.437036556089e-06 -1.798797039008e-04 0.0 
-1.798797039008e-04 4.168469471808e-04 0.0 
0.0 0.0 0.0 
-4.393926707014e-04 -1.030262876884e-03 0.0 
-1.030262876884e-03 9.614955227297e-04 0.0 
0.0 0.0 0.0 
-1.422989930062e-03 3.409994590767e-03 0.0 
3.409994590767e-03 -1.773378499774e-03 0.0 
0.0 0.0 0.0 
5.000671904654e-05 -2.571466486752e-04 0.0 
-2.571466486752e-04 3.606542879612e-03 0.0 
0.0 0.0 0.0 
8.765796975707e-05 3.756635606861e-05 0.0 
3.756635606861e-05 6.841325645947e-03 0.0 
0.0 0.0 0.0 
-5.821614405607e-04 2.516315973879e-03 0.0 
2.516315973879e-03 1.350856704181e-02 0.0 
0.0 0.0 0.0 
-1.867057073347e-03 1.173816052561e-03 0.0 
1.173816052561e-03 1.329330110438e-02 0.0 
0.0 0.0 0.0 
5.891378714251e-05 -4.535376627678e-04 0.0 
-4.535376627678e-04 3.082137416470e-03 0.0 
0.0 0.0 0.0 
4.547357157907e-04 3.741300231364e-04 0.0 
3.741300231364e-04 6.405177759091e-03 0.0 
0.0 0.0 0.0 
9.647736787666e-04 1.215182904674e-03 0.0 
1.215182904674e-03 6.262095989415e-03 0.0 
0.0 0.0 0.0 
4.800153212998e-04 2.937879721690e-03 0.0 
2.937879721690e-03 8.885429126729e-03 0.0 
0.0 0.0 0.0 
5.695822550966e-05 2.986943712981e-03 0.0 
2.986943712981e-03 1.039348901054e-02 0.0 
0.0 0.0 0.0 
-2.575829941664e-04 2.909040189390e-03 0.0 
2.909040189390e-03 1.136715134787e-02 0.0 
0.0 0.0 0.0 
-5.593323676365e-04 -7.262304318872e-04 0.0 
-7.262304318872e-04 8.397676513918e-04 0.0 
0.0 0.0 0.0 
5.498850583308e-04 -1.595920474822e-03 0.0 
-1.595920474822e-03 -4.030495500383e-03 0.0 
0.0 0.0 0.0 
1.028774370380e-04 1.022730218253e-05 0.0 
1.022730218253e-05 6.810504221889e-03 0.0 
0.0 0.0 0.0 
3.317350500578e-04 -2.691369159188e-05 0.0 
-2.691369159188e-05 5.904798789031e-04 0.0 
0.0 0.0 0.0 
3.356864004782e-04 6.418417331504e-06 0.0 
6.418417331504e-06 7.455266406613e-04 0.0 
0.0 0.0 0.0 
-9.010367735846e-04 3.213816682293e-03 0.0 
3.213816682293e-03 -4.482683630355e-04 0.0 
0.0 0.0 0.0 
4.377008997247e-05 -2.849323560038e-04 0.0 
-2.849323560038e-04 6.928351464324e-04 0.0 
0.0 0.0 0.0 
2.614495134523e-04 7.328388129116e-04 0.0 
7.328388129116e-04 6.850418353607e-03 0.0 
0.0 0.0 0.0 
-1.567216715213e-04 3.076460850320e-03 0.0 
3.076460850320e-03 1.204554224965e-02 0.0 
0.0 0.0 0.0 
-4.254412214079e-04 6.295026123601e-04 0.0 
6.295026123601e-04 1.529469888120e-02 0.0 
0.0 0.0 0.0 
2.177976831290e-04 2.863294434630e-03 0.0 
2.863294434630e-03 9.131257337866e-03 0.0 
0.0 0.0 0.0 
9.673862414064e-04 1.150698020554e-03 0.0 
1.150698020554e-03 5.975470430349e-03 0.0 
0.0 0.0 0.0 
-1.018656701162e-03 1.665244703136e-04 0.0 
1.665244703136e-04 1.375008406278e-02 0.0 
0.0 0.0 0.0 
0.0 1.254324058874e-03 0.0 
1.254324058874e-03 1.544957926072e-02 0.0 
0.0 0.0 0.0 
1.288905333230e-03 -2.539068511347e-03 0.0 
-2.539068511347e-03 -1.780191430536e-03 0.0 
0.0 0.0 0.0 
-1.158207508663e-03 2.134367311682e-05 0.0 
2.134367311682e-05 1.254141927987e-02 0.0 
0.0 0.0 0.0 
-6.714467013719e-04 -2.446491981589e-03 0.0 
-2.446491981589e-03 -1.344416884852e-05 0.0 
0.0 0.0 0.0 
2.784338230670e-04 -7.171759583879e-05 0.0 
-7.171759583879e-05 2.519585927867e-04 0.0 
0.0 0.0 0.0 
7.697066087209e-05 8.475574808680e-05 0.0 
8.475574808680e-05 7.534844207964e-03 0.0 
0.0 0.0 0.0 
-1.738785536184e-03 6.738842352993e-04 0.0 
6.738842352993e-04 1.285937182020e-02 0.0 
0.0 0.0 0.0 
2.947531479622e-04 -1.287621676554e-04 0.0 
-1.287621676554e-04 9.095130032137e-04 0.0 
0.0 0.0 0.0 
3.205316293764e-05 -1.723316899258e-04 0.0 
-1.723316899258e-04 3.516431146231e-03 0.0 
0.0 0.0 0.0 
-2.270910631156e-04 3.213509283123e-03 0.0 
3.213509283123e-03 1.226046175913e-02 0.0 
0.0 0.0 0.0 
-6.192122961519e-04 8.394420726451e-04 0.0 
8.394420726451e-04 1.522321955927e-02 0.0 
0.0 0.0 0.0 
-3.470204439396e-04 1.991619057415e-03 0.0 
1.991619057415e-03 1.465676597685e-02 0.0 
0.0 0.0 0.0 
7.770929573825e-06 -1.352516987554e-04 0.0 
-1.352516987554e-04 2.521632860757e-03 0.0 
0.0 0.0 0.0 
8.230611773246e-04 2.370125719675e-04 0.0 
2.370125719675e-04 -4.452679706522e-03 0.0 
0.0 0.0 0.0 
2.461284432895e-04 2.525570647747e-04 0.0 
2.525570647747e-04 6.983436649730e-03 0.0 
0.0 0.0 0.0 
-1.719093422887e-04 1.211815410453e-04 0.0 
1.211815410453e-04 1.574945266564e-02 0.0 
0.0 0.0 0.0 
1.238473418930e-05 2.825824096480e-06 0.0 
2.825824096480e-06 7.622508097461e-03 0.0 
0.0 0.0 0.0 
-1.062104948664e-03 2.624394125921e-05 0.0 
2.624394125921e-05 1.282688630475e-02 0.0 
0.0 0.0 0.0 
6.750311277430e-04 1.278272985473e-03 0.0 
1.278272985473e-03 6.441048704900e-03 0.0 
0.0 0.0 0.0 
1.944535171174e-04 -1.434546243667e-04 0.0 
-1.434546243667e-04 1.004903440478e-03 0.0 
0.0 0.0 0.0 
-5.821590563782e-04 1.556534968591e-03 0.0 
1.556534968591e-03 1.489585741983e-02 0.0 
0.0 0.0 0.0 
2.382359149389e-04 -8.951444147646e-05 0.0 
-8.951444147646e-05 2.639133446634e-04 0.0 
0.0 0.0 0.0 
3.077825392195e-04 1.074370414758e-03 0.0 
1.074370414758e-03 6.924884410354e-03 0.0 
0.0 0.0 0.0 
-5.755610009905e-04 2.195893446156e-03 0.0 
2.195893446156e-03 1.447579256760e-02 0.0 
0.0 0.0 0.0 
3.951294796603e-04 1.172111388288e-03 0.0 
1.172111388288e-03 -4.684233296102e-03 0.0 
0.0 0.0 0.0 
3.883000882627e-04 2.868523921518e-03 0.0 
2.868523921518e-03 9.041280644992e-03 0.0 
0.0 0.0 0.0 
-8.379381628298e-04 1.296441042467e-04 0.0 
1.296441042467e-04 1.446954087909e-02 0.0 
0.0 0.0 0.0 
-2.220223369328e-04 6.604112106368e-04 0.0 
6.604112106368e-04 1.546936556364e-02 0.0 
0.0 0.0 0.0 
0.0 2.396749067675e-03 0.0 
2.396749067675e-03 8.460633643079e-03 0.0 
0.0 0.0 0.0 
-9.272115269022e-04 -5.994951666880e-06 0.0 
-5.994951666880e-06 1.397602522057e-02 0.0 
0.0 0.0 0.0 
-1.493426369371e-04 3.022835411082e-03 0.0 
3.022835411082e-03 1.249136704118e-02 0.0 
0.0 0.0 0.0 
-7.687415222882e-04 1.915341866153e-03 0.0 
1.915341866153e-03 1.454167329830e-02 0.0 
0.0 0.0 0.0 
-8.488270913373e-04 1.014330415035e-04 0.0 
1.014330415035e-04 1.420004550500e-02 0.0 
0.0 0.0 0.0 
-2.613041196398e-04 2.933774411234e-03 0.0 
2.933774411234e-03 1.208959997688e-02 0.0 
0.0 0.0 0.0 
9.891491494995e-06 -2.417081097801e-04 0.0 
-2.417081097801e-04 3.000301164378e-03 0.0 
0.0 0.0 0.0 
-1.110536987515e-03 1.965706141839e-06 0.0 
1.965706141839e-06 1.253793493568e-02 0.0 
0.0 0.0 0.0 
5.085687151059e-04 2.854510445824e-03 0.0 
2.854510445824e-03 8.732488621261e-03 0.0 
0.0 0.0 0.0 
-2.182487496444e-04 9.974314316746e-05 0.0 
9.974314316746e-05 1.554899334645e-02 0.0 
0.0 0.0 0.0 
6.330034049864e-04 8.973165712529e-06 0.0 
8.973165712529e-06 -1.854618978353e-04 0.0 
0.0 0.0 0.0 
-1.073517726405e-03 8.090800435013e-06 0.0 
8.090800435013e-06 1.252503917373e-02 0.0 
0.0 0.0 0.0 
1.947582968231e-05 -1.245562172611e-05 0.0 
-1.245562172611e-05 7.324962081767e-03 0.0 
0.0 0.0 0.0 
-2.027304626728e-06 -3.222982436470e-04 0.0 
-3.222982436470e-04 1.349582494258e-03 0.0 
0.0 0.0 0.0 
9.805424514273e-04 1.625596197943e-03 0.0 
1.625596197943e-03 6.631160884029e-03 0.0 
0.0 0.0 0.0 
-8.166974372292e-04 2.258024488078e-03 0.0 
2.258024488078e-03 1.406620664867e-02 0.0 
0.0 0.0 0.0 
-4.104399331960e-04 5.792094070374e-04 0.0 
5.792094070374e-04 1.545856482386e-02 0.0 
0.0 0.0 0.0 
1.356344409924e-04 -1.881512145602e-04 0.0 
-1.881512145602e-04 1.252323343497e-03 0.0 
0.0 0.0 0.0 
1.279534769345e-04 3.457398113261e-03 0.0 
3.457398113261e-03 -1.650116831620e-03 0.0 
0.0 0.0 0.0 
5.548594082216e-05 2.044361824085e-05 0.0 
2.044361824085e-05 4.284681635983e-03 0.0 
0.0 0.0 0.0 
-6.608149986096e-04 1.365189653043e-04 0.0 
1.365189653043e-04 1.481388499245e-02 0.0 
0.0 0.0 0.0 
-4.692685071407e-03 -3.400262447001e-04 0.0 
-3.400262447001e-04 -2.571667437068e-03 0.0 
0.0 0.0 0.0 
-3.137443232949e-04 1.635548116111e-03 0.0 
1.635548116111e-03 1.501558547660e-02 0.0 
0.0 0.0 0.0 
-9.213332619306e-04 7.107291326555e-05 0.0 
7.107291326555e-05 1.386839235740e-02 0.0 
0.0 0.0 0.0 
-1.368214584330e-04 -2.423292166174e-03 0.0 
-2.423292166174e-03 -2.095172322437e-04 0.0 
0.0 0.0 0.0 
-1.010913267570e-03 9.292720622644e-05 0.0 
9.292720622644e-05 1.361883130218e-02 0.0 
0.0 0.0 0.0 
3.213262639703e-04 3.060265655611e-03 0.0 
3.060265655611e-03 9.376735113568e-03 0.0 
0.0 0.0 0.0 
6.789369125637e-05 -6.380436962498e-05 0.0 
-6.380436962498e-05 4.477228665493e-03 0.0 
0.0 0.0 0.0 
-2.178618417328e-03 3.397922639893e-03 0.0 
3.397922639893e-03 2.965229074816e-04 0.0 
0.0 0.0 0.0 
-4.869332238089e-06 -2.768411429426e-04 0.0 
-2.768411429426e-04 2.740720407198e-03 0.0 
0.0 0.0 0.0 
9.592738334985e-05 -2.324710823020e-04 0.0 
-2.324710823020e-04 3.895648941548e-03 0.0 
0.0 0.0 0.0 
8.276439356880e-05 2.999440176803e-05 0.0 
2.999440176803e-05 4.657960035458e-03 0.0 
0.0 0.0 0.0 
5.978101227146e-04 2.507304452830e-03 0.0 
2.507304452830e-03 7.976884506580e-03 0.0 
0.0 0.0 0.0 
4.676146141658e-05 -1.443778263892e-04 0.0 
-1.443778263892e-04 3.816399053640e-03 0.0 
0.0 0.0 0.0 
8.178345177456e-05 -1.428138514336e-04 0.0 
-1.428138514336e-04 4.061970567370e-03 0.0 
0.0 0.0 0.0 
3.055831563126e-05 -2.351852324171e-04 0.0 
-2.351852324171e-04 6.066248308987e-04 0.0 
0.0 0.0 0.0 
2.778061583923e-04 2.262783428891e-04 0.0 
2.262783428891e-04 6.689913803412e-03 0.0 
0.0 0.0 0.0 
1.331330899390e-04 3.007279084994e-03 0.0 
3.007279084994e-03 1.006684819692e-02 0.0 
0.0 0.0 0.0 
7.487393911354e-04 3.100281579814e-03 0.0 
3.100281579814e-03 -1.972053269898e-03 0.0 
0.0 0.0 0.0 
-1.778257011519e-04 8.419052462837e-05 0.0 
8.419052462837e-05 1.554010667856e-02 0.0 
0.0 0.0 0.0 
1.410434850846e-05 2.829273228177e-05 0.0 
2.829273228177e-05 7.312972941553e-03 0.0 
0.0 0.0 0.0 
-1.072822636644e-03 -1.884217474318e-05 0.0 
-1.884217474318e-05 1.285108312105e-02 0.0 
0.0 0.0 0.0 
-9.645538883933e-04 6.044751284362e-05 0.0 
6.044751284362e-05 1.386676834693e-02 0.0 
0.0 0.0 0.0 
5.401662947713e-05 -1.656510420952e-04 0.0 
-1.656510420952e-04 3.818749410457e-03 0.0 
0.0 0.0 0.0 
7.056902118396e-05 -1.975483352058e-04 0.0 
-1.975483352058e-04 3.880131084393e-03 0.0 
0.0 0.0 0.0 
4.761767055217e-05 -1.194701551563e-04 0.0 
-1.194701551563e-04 4.049983813122e-03 0.0 
0.0 0.0 0.0 
1.068610681937e-03 1.636156619011e-03 0.0 
1.636156619011e-03 6.253146109981e-03 0.0 
0.0 0.0 0.0 
-4.210812352963e-04 -2.015111881801e-03 0.0 
-2.015111881801e-03 4.871698136844e-04 0.0 
0.0 0.0 0.0 
-1.479312736696e-05 3.134972111745e-03 0.0 
3.134972111745e-03 1.069278039874e-02 0.0 
0.0 0.0 0.0 
-1.029804248850e-03 4.271293573289e-05 0.0 
4.271293573289e-05 1.320677284259e-02 0.0 
0.0 0.0 0.0 
-5.977898023366e-04 1.548493180691e-03 0.0 
1.548493180691e-03 1.507163875840e-02 0.0 
0.0 0.0 0.0 
9.469925219812e-04 1.507109943656e-03 0.0 
1.507109943656e-03 6.237555137774e-03 0.0 
0.0 0.0 0.0 
-1.068495584550e-03 8.590896493507e-05 0.0 
8.590896493507e-05 1.362544554829e-02 0.0 
0.0 0.0 0.0 
-3.299795531746e-04 2.884477066121e-03 0.0 
2.884477066121e-03 1.189780208699e-02 0.0 
0.0 0.0 0.0 
6.344343836544e-04 2.536928783339e-03 0.0 
2.536928783339e-03 7.965216805836e-03 0.0 
0.0 0.0 0.0 
5.149487666518e-04 2.787223339614e-03 0.0 
2.787223339614e-03 8.557245495143e-03 0.0 
0.0 0.0 0.0 
-9.298928704561e-04 3.320613242417e-03 0.0 
3.320613242417e-03 -1.767753451307e-03 0.0 
0.0 0.0 0.0 
-4.258119385631e-04 2.905279194210e-03 0.0 
2.905279194210e-03 1.189578931323e-02 0.0 
0.0 0.0 0.0 
-2.205295612109e-04 3.107913622385e-03 0.0 
3.107913622385e-03 1.172619485778e-02 0.0 
0.0 0.0 0.0 
2.581284196037e-04 -1.957897052909e-04 0.0 
-1.957897052909e-04 5.681129021446e-04 0.0 
0.0 0.0 0.0 
4.671393937916e-05 -2.155473753535e-04 0.0 
-2.155473753535e-04 3.615441638727e-03 0.0 
0.0 0.0 0.0 
-1.303510577033e-03 3.291719135466e-03 0.0 
3.291719135466e-03 -1.709929779157e-03 0.0 
0.0 0.0 0.0 
-4.334454187381e-04 3.029159517776e-03 0.0 
3.029159517776e-03 1.231566868959e-02 0.0 
0.0 0.0 0.0 
-1.097725973932e-03 -3.073541215719e-06 0.0 
-3.073541215719e-06 1.177453618472e-02 0.0 
0.0 0.0 0.0 
-1.072549957643e-03 1.098280766738e-05 0.0 
1.098280766738e-05 1.172577592880e-02 0.0 
0.0 0.0 0.0 
-1.087424550302e-03 -3.625693664571e-06 0.0 
-3.625693664571e-06 1.172410875076e-02 0.0 
0.0 0.0 0.0 
-1.075024130161e-03 -6.842095842035e-06 0.0 
-6.842095842035e-06 1.171966530096e-02 0.0 
0.0 0.0 0.0 
-1.086949006066e-03 -8.255236516369e-06 0.0 
-8.255236516369e-06 1.171950876393e-02 0.0 
0.0 0.0 0.0 
-1.073615514624e-03 -1.431362725844e-05 0.0 
-1.431362725844e-05 1.171981929577e-02 0.0 
0.0 0.0 0.0 
-1.089054021931e-03 -1.279420209025e-05 0.0 
-1.279420209025e-05 1.172039048934e-02 0.0 
0.0 0.0 0.0 
-1.065820881852e-03 -1.996275391964e-05 0.0 
-1.996275391964e-05 1.171571688501e-02 0.0 
0.0 0.0 0.0 
-1.088050346374e-03 -1.327226395069e-05 0.0 
-1.327226395069e-05 1.171816541719e-02 0.0 
0.0 0.0 0.0 
-1.053540882712e-03 -2.444303715506e-05 0.0 
-2.444303715506e-05 1.171315999562e-02 0.0 
0.0 0.0 0.0 
-1.091498973646e-03 -1.551472835176e-05 0.0 
-1.551472835176e-05 1.171749324931e-02 0.0 
0.0 0.0 0.0 
-1.035330103766e-03 -3.038699653646e-05 0.0 
-3.038699653646e-05 1.170569253844e-02 0.0 
0.0 0.0 0.0 
-1.092051521343e-03 -1.319321729168e-05 0.0 
-1.319321729168e-05 1.171517661142e-02 0.0 
0.0 0.0 0.0 
-1.461874615996e-03 4.320368063445e-04 0.0 
4.320368063445e-04 1.174890088031e-02 0.0 
0.0 0.0 0.0 
-1.012908182932e-03 -3.352799948887e-05 0.0 
-3.352799948887e-05 1.169999581397e-02 0.0 
0.0 0.0 0.0 
-1.098541582134e-03 -1.642820948277e-05 0.0 
-1.642820948277e-05 1.171278372340e-02 0.0 
0.0 0.0 0.0 
-1.072505160070e-03 1.920778726315e-04 0.0 
1.920778726315e-04 1.149401554857e-02 0.0 
0.0 0.0 0.0 
-9.876232450456e-04 -3.813367635142e-05 0.0 
-3.813367635142e-05 1.168473470348e-02 0.0 
0.0 0.0 0.0 
-1.102835612471e-03 -1.341132219423e-05 0.0 
-1.341132219423e-05 1.170589584749e-02 0.0 
0.0 0.0 0.0 
-1.659639125978e-03 3.447697264195e-04 0.0 
3.447697264195e-04 1.188560908773e-02 0.0 
0.0 0.0 0.0 
-9.558698339420e-04 -4.034766978201e-05 0.0 
-4.034766978201e-05 1.167069500909e-02 0.0 
0.0 0.0 0.0 
-1.114973824958e-03 -7.121235116178e-06 0.0 
-7.121235116178e-06 1.170400329166e-02 0.0 
0.0 0.0 0.0 
-9.205292966832e-04 -3.831099423083e-05 0.0 
-3.831099423083e-05 1.165722096274e-02 0.0 
0.0 0.0 0.0 
-1.135980079251e-03 -3.165361040125e-07 0.0 
-3.165361040125e-07 1.170435712133e-02 0.0 
0.0 0.0 0.0 
-8.877559584305e-04 -3.119443017268e-05 0.0 
-3.119443017268e-05 1.164038900284e-02 0.0 
0.0 0.0 0.0 
-2.041694772585e-03 8.755925843770e-04 0.0 
8.755925843770e-04 1.209692521996e-02 0.0 
0.0 0.0 0.0 
-1.170119493282e-03 1.290547062131e-05 0.0 
1.290547062131e-05 1.170669165684e-02 0.0 
0.0 0.0 0.0 
-8.618876721634e-04 -1.526913537828e-05 0.0 
-1.526913537828e-05 1.162390887503e-02 0.0 
0.0 0.0 0.0 
-8.525767125154e-04 1.446970086547e-05 0.0 
1.446970086547e-05 1.161188977178e-02 0.0 
0.0 0.0 0.0 
-1.228134803676e-03 3.592436071944e-05 0.0 
3.592436071944e-05 1.171659989211e-02 0.0 
0.0 0.0 0.0 
-8.757260231032e-04 6.979554806304e-05 0.0 
6.979554806304e-05 1.158549050970e-02 0.0 
0.0 0.0 0.0 
-1.326462554393e-03 6.384479465223e-05 0.0 
6.384479465223e-05 1.173289904017e-02 0.0 
0.0 0.0 0.0 
-9.703445504190e-04 2.027090826274e-04 0.0 
2.027090826274e-04 1.159925840281e-02 0.0 
0.0 0.0 0.0 
-1.406364415963e-03 1.591354093940e-04 0.0 
1.591354093940e-04 1.176760149319e-02 0.0 
0.0 0.0 0.0 
-1.893033770951e-03 3.418439425348e-04 0.0 
3.418439425348e-04 1.216866571727e-02 0.0 
0.0 0.0 0.0 
-1.103913675699e-03 -5.565679194572e-05 0.0 
-5.565679194572e-05 1.171955223379e-02 0.0 
0.0 0.0 0.0 
-1.137273122463e-03 6.581195120485e-05 0.0 
6.581195120485e-05 1.177862248285e-02 0.0 
0.0 0.0 0.0 
-1.145916348400e-03 -3.013941117288e-07 0.0 
-3.013941117288e-07 1.165166589973e-02 0.0 
0.0 0.0 0.0 
-1.095008533826e-03 1.219807213867e-05 0.0 
1.219807213867e-05 1.184288148596e-02 0.0 
0.0 0.0 0.0 
-2.231837628886e-03 9.398852896187e-04 0.0 
9.398852896187e-04 1.165532533467e-02 0.0 
0.0 0.0 0.0 
-1.097725973932e-03 -2.499080897505e-05 0.0 
-2.499080897505e-05 1.212731994012e-02 0.0 
0.0 0.0 0.0 
-1.083011123208e-03 -4.128253283084e-06 0.0 
-4.128253283084e-06 1.215355602494e-02 0.0 
0.0 0.0 0.0 
-1.087424550302e-03 -6.203494012643e-06 0.0 
-6.203494012643e-06 1.215381544228e-02 0.0 
0.0 0.0 0.0 
-1.092569246900e-03 -7.365030641427e-06 0.0 
-7.365030641427e-06 1.215597420890e-02 0.0 
0.0 0.0 0.0 
-1.086949006066e-03 -7.247134878225e-06 0.0 
-7.247134878225e-06 1.215590964757e-02 0.0 
0.0 0.0 0.0 
-1.100557557043e-03 -1.125164462309e-05 0.0 
-1.125164462309e-05 1.215943775830e-02 0.0 
0.0 0.0 0.0 
-1.089054021931e-03 -1.167598129454e-05 0.0 
-1.167598129454e-05 1.215937838374e-02 0.0 
0.0 0.0 0.0 
-1.109173566022e-03 -2.078543680824e-05 0.0 
-2.078543680824e-05 1.215847586671e-02 0.0 
0.0 0.0 0.0 
-1.088050346374e-03 -1.074484450709e-05 0.0 
-1.074484450709e-05 1.215506593429e-02 0.0 
0.0 0.0 0.0 
-1.122119837030e-03 -1.920449929996e-05 0.0 
-1.920449929996e-05 1.216423833737e-02 0.0 
0.0 0.0 0.0 
-1.091498973646e-03 -1.215874112174e-05 0.0 
-1.215874112174e-05 1.216079800829e-02 0.0 
0.0 0.0 0.0 
-1.145550322637e-03 -2.871745295482e-05 0.0 
-2.871745295482e-05 1.216858489280e-02 0.0 
0.0 0.0 0.0 
-1.574155737737e-03 4.388250229779e-04 0.0 
4.388250229779e-04 1.217777329699e-02 0.0 
0.0 0.0 0.0 
-1.092051521343e-03 -8.664709797253e-06 0.0 
-8.664709797253e-06 1.215806019817e-02 0.0 
0.0 0.0 0.0 
-1.658348746050e-03 3.193975351313e-04 0.0 
3.193975351313e-04 1.229953753960e-02 0.0 
0.0 0.0 0.0 
-1.158207508663e-03 -2.280925235941e-05 0.0 
-2.280925235941e-05 1.217511374159e-02 0.0 
0.0 0.0 0.0 
-1.098541582134e-03 -3.878953316217e-06 0.0 
-3.878953316217e-06 1.216290206169e-02 0.0 
0.0 0.0 0.0 
-1.200549647175e-03 -2.893026351038e-05 0.0 
-2.893026351038e-05 1.218121331890e-02 0.0 
0.0 0.0 0.0 
-1.102835612471e-03 4.729725084746e-06 0.0 
4.729725084746e-06 1.215654658031e-02 0.0 
0.0 0.0 0.0 
-1.239890830261e-03 -1.950726517417e-05 0.0 
-1.950726517417e-05 1.219062014205e-02 0.0 
0.0 0.0 0.0 
-1.114973824958e-03 1.954515502683e-05 0.0 
1.954515502683e-05 1.215684216087e-02 0.0 
0.0 0.0 0.0 
-1.282764396312e-03 -2.740667167271e-06 0.0 
-2.740667167271e-06 1.220347380997e-02 0.0 
0.0 0.0 0.0 
-1.406364415963e-03 3.734060031568e-04 0.0 
3.734060031568e-04 1.198311912646e-02 0.0 
0.0 0.0 0.0 
-1.135980079251e-03 4.647297359144e-05 0.0 
4.647297359144e-05 1.215626558712e-02 0.0 
0.0 0.0 0.0 
-1.345322679852e-03 2.682729654925e-05 0.0 
2.682729654925e-05 1.221849040188e-02 0.0 
0.0 0.0 0.0 
-1.170119493282e-03 9.118494537525e-05 0.0 
9.118494537525e-05 1.215123685492e-02 0.0 
0.0 0.0 0.0 
-1.421479611318e-03 8.207789707989e-05 0.0 
8.207789707989e-05 1.223587781264e-02 0.0 
0.0 0.0 0.0 
-1.519681118415e-03 1.773267881879e-04 0.0 
1.773267881879e-04 1.225992967461e-02 0.0 
0.0 0.0 0.0 
-1.228134803676e-03 1.648220115724e-04 0.0 
1.648220115724e-04 1.214433709493e-02 0.0 
0.0 0.0 0.0 
-1.326462554393e-03 2.752362310636e-04 0.0 
2.752362310636e-04 1.214653812778e-02 0.0 
0.0 0.0 0.0 
-1.771401839944e-03 6.236633353267e-04 0.0 
6.236633353267e-04 1.232158530093e-02 0.0 
0.0 0.0 0.0 
-1.704023999863e-03 4.128507668176e-04 0.0 
4.128507668176e-04 1.224295272825e-02 0.0 
0.0 0.0 0.0 
-1.099986437867e-03 -5.442140864351e-05 0.0 
-5.442140864351e-05 1.215224723719e-02 0.0 
0.0 0.0 0.0 
-1.083263609089e-03 5.809285575538e-05 0.0 
5.809285575538e-05 1.212242015503e-02 0.0 
0.0 0.0 0.0 
-1.088095104188e-03 1.140771177810e-07 0.0 
1.140771177810e-07 1.224690810888e-02 0.0 
0.0 0.0 0.0 
-1.095008533826e-03 5.460711621082e-06 0.0 
5.460711621082e-06 1.203131608202e-02 0.0 
0.0 0.0 0.0 
-1.659639125978e-03 7.061320966635e-04 0.0 
7.061320966635e-04 1.197553615988e-02 0.0 
0.0 0.0 0.0 

TENSORS element_materi_strain_plasti float
-6.466164772809e-04 8.245090744215e-04 0.0 
8.245090744215e-04 2.707374572581e-03 0.0 
0.0 0.0 -4.220722639049e-04 
-5.850828050599e-04 4.087408186800e-04 0.0 
4.087408186800e-04 2.442724633431e-03 0.0 
0.0 0.0 -4.303330772826e-04 
-1.282095494807e-03 4.001741098009e-04 0.0 
4.001741098009e-04 8.226379453025e-03 0.0 
0.0 0.0 -1.278236581085e-03 
-1.295884943363e-03 -1.217266030679e-04 0.0 
-1.217266030679e-04 8.480174258718e-03 0.0 
0.0 0.0 -1.255598393855e-03 
-9.118044046819e-04 2.773302772114e-04 0.0 
2.773302772114e-04 5.301634366726e-03 0.0 
0.0 0.0 -7.961861350945e-04 
2.510626383067e-04 3.899924767601e-04 0.0 
3.899924767601e-04 -1.017744063530e-06 0.0 
0.0 0.0 -1.071620975328e-04 
-8.944012644099e-04 3.000213301662e-04 0.0 
3.000213301662e-04 5.255597081572e-03 0.0 
0.0 0.0 -8.011023898636e-04 
-6.111001276048e-04 8.133198202813e-04 0.0 
8.133198202813e-04 2.541489709150e-03 0.0 
0.0 0.0 -4.045669272905e-04 
-9.178969371214e-04 -2.491713150355e-04 0.0 
-2.491713150355e-04 5.331335701126e-03 0.0 
0.0 0.0 -7.977904104816e-04 
-1.281432177268e-03 3.076617140319e-04 0.0 
3.076617140319e-04 8.397045163972e-03 0.0 
0.0 0.0 -1.253060141438e-03 
-1.093573439511e-03 5.627509268443e-05 0.0 
5.627509268443e-05 5.667510059544e-03 0.0 
0.0 0.0 -8.816510380685e-04 
-5.787511837025e-04 6.777709678412e-04 0.0 
6.777709678412e-04 2.088119972159e-03 0.0 
0.0 0.0 -3.735031833740e-04 
-1.326305648993e-03 1.334625464656e-04 0.0 
1.334625464656e-04 8.251440389062e-03 0.0 
0.0 0.0 -1.259187713256e-03 
-9.724653634380e-04 3.053641968768e-04 0.0 
3.053641968768e-04 5.663135226582e-03 0.0 
0.0 0.0 -8.526168115438e-04 
-1.330762641967e-03 -3.008650578863e-04 0.0 
-3.008650578863e-04 8.383102825445e-03 0.0 
0.0 0.0 -1.289538875031e-03 
-1.321345684109e-03 2.719191787034e-04 0.0 
2.719191787034e-04 8.617215783831e-03 0.0 
0.0 0.0 -1.285984941237e-03 
-9.140896497734e-04 7.519541139523e-05 0.0 
7.519541139523e-05 5.296976735505e-03 0.0 
0.0 0.0 -7.740676797406e-04 
0.0 0.0 0.0 
0.0 0.0 0.0 
0.0 0.0 0.0 
-3.519099227855e-04 -1.443334347486e-04 0.0 
-1.443334347486e-04 1.817532010240e-03 0.0 
0.0 0.0 -2.776016825098e-04 
-3.997644766498e-04 4.954726061119e-05 0.0 
4.954726061119e-05 1.673764597630e-03 0.0 
0.0 0.0 -3.031105466646e-04 
-1.276969282696e-03 -1.363061038713e-04 0.0 
-1.363061038713e-04 8.471794626493e-03 0.0 
0.0 0.0 -1.250388265701e-03 
-6.432162703731e-04 5.512102898043e-04 0.0 
5.512102898043e-04 2.885045796034e-03 0.0 
0.0 0.0 -4.811142067971e-04 
-6.884954101540e-04 3.994199898237e-04 0.0 
3.994199898237e-04 3.234457200495e-03 0.0 
0.0 0.0 -5.091556215902e-04 
-1.086615628820e-03 -2.931322765965e-04 0.0 
-2.931322765965e-04 7.458132473520e-03 0.0 
0.0 0.0 -1.210372970477e-03 
-1.022288100468e-03 3.987168263927e-04 0.0 
3.987168263927e-04 6.009421001038e-03 0.0 
0.0 0.0 -9.130988374533e-04 
-1.132573975630e-03 -2.410939857696e-04 0.0 
-2.410939857696e-04 6.073086075411e-03 0.0 
0.0 0.0 -9.179597371190e-04 
-8.591992327558e-04 1.320513177097e-04 0.0 
1.320513177097e-04 4.879471040969e-03 0.0 
0.0 0.0 -7.148082707961e-04 
-1.227939719405e-03 4.897213587292e-04 0.0 
4.897213587292e-04 8.231185118654e-03 0.0 
0.0 0.0 -1.266047838742e-03 
-1.043323281561e-03 -5.190539471628e-05 0.0 
-5.190539471628e-05 6.052750555350e-03 0.0 
0.0 0.0 -9.113908267906e-04 
-1.155289536852e-03 -1.768880545786e-05 0.0 
-1.768880545786e-05 7.700571454284e-03 0.0 
0.0 0.0 -1.237914324842e-03 
3.591818895870e-04 -1.087919908418e-03 0.0 
-1.087919908418e-03 2.306926407283e-04 0.0 
0.0 0.0 -2.528033701351e-04 
-5.253251415500e-05 -7.346267826167e-05 0.0 
-7.346267826167e-05 5.706227414438e-04 0.0 
0.0 0.0 -1.059755802940e-04 
-1.328657286874e-03 4.996781592111e-04 0.0 
4.996781592111e-04 8.531045122136e-03 0.0 
0.0 0.0 -1.261301343383e-03 
-1.246135843572e-03 -2.165566539215e-04 0.0 
-2.165566539215e-04 7.113329539199e-03 0.0 
0.0 0.0 -1.090200430068e-03 
-1.222640564805e-03 -5.172125954847e-04 0.0 
-5.172125954847e-04 8.023175699372e-03 0.0 
0.0 0.0 -1.254989870190e-03 
-1.362336754091e-03 1.038272021812e-04 0.0 
1.038272021812e-04 8.593232231463e-03 0.0 
0.0 0.0 -1.314886350686e-03 
-1.333817909252e-03 -6.741910836282e-04 0.0 
-6.741910836282e-04 8.572481383167e-03 0.0 
0.0 0.0 -1.314653105918e-03 
-1.152787385481e-03 3.395804623759e-04 0.0 
3.395804623759e-04 7.780236807800e-03 0.0 
0.0 0.0 -1.264739017786e-03 
-8.345100331917e-04 -3.032908507100e-04 0.0 
-3.032908507100e-04 4.793915913410e-03 0.0 
0.0 0.0 -7.380763454961e-04 
-8.314689275844e-04 3.674750294880e-04 0.0 
3.674750294880e-04 4.862282802739e-03 0.0 
0.0 0.0 -7.371174501546e-04 
-7.446435526587e-04 2.495366517639e-04 0.0 
2.495366517639e-04 3.730189536197e-03 0.0 
0.0 0.0 -5.794556523337e-04 
-1.240577876015e-03 -2.606603701506e-04 0.0 
-2.606603701506e-04 7.945807599574e-03 0.0 
0.0 0.0 -1.280756488215e-03 
-5.279799311040e-04 1.102170611227e-03 0.0 
1.102170611227e-03 1.773978523889e-03 0.0 
0.0 0.0 -3.207852484642e-04 
-8.673432961900e-04 2.038482856540e-04 0.0 
2.038482856540e-04 4.641456270313e-03 0.0 
0.0 0.0 -7.350059072715e-04 
-1.271467539957e-03 -7.879660805606e-05 0.0 
-7.879660805606e-05 8.302426141521e-03 0.0 
0.0 0.0 -1.212858513926e-03 
-5.775885694842e-04 8.848405614820e-04 0.0 
8.848405614820e-04 1.777381832978e-03 0.0 
0.0 0.0 -3.198426158856e-04 
2.130878448261e-04 -2.803383724960e-04 0.0 
-2.803383724960e-04 -1.640750498909e-05 0.0 
0.0 0.0 -8.429157421588e-05 
-1.252952730617e-03 9.194498370430e-05 0.0 
9.194498370430e-05 8.113365198973e-03 0.0 
0.0 0.0 -1.234743356787e-03 
1.618564024127e-06 -4.086337075162e-06 0.0 
-4.086337075162e-06 6.435399236629e-07 0.0 
0.0 0.0 -9.694731204813e-07 
-9.377652680597e-04 -7.279277581159e-05 0.0 
-7.279277581159e-05 5.473641853479e-03 0.0 
0.0 0.0 -8.229436299569e-04 
-7.184238485782e-04 3.283816114982e-04 0.0 
3.283816114982e-04 3.500159598670e-03 0.0 
0.0 0.0 -5.440916476828e-04 
-4.407403860860e-04 -1.000193585770e-04 0.0 
-1.000193585770e-04 2.276874889741e-03 0.0 
0.0 0.0 -3.443810396916e-04 
3.693556118723e-04 -1.150080954677e-03 0.0 
-1.150080954677e-03 2.564828416198e-04 0.0 
0.0 0.0 -2.682164800680e-04 
-6.981340931129e-04 4.826618162809e-04 0.0 
4.826618162809e-04 3.375109354798e-03 0.0 
0.0 0.0 -5.489460876789e-04 
-1.294047200749e-03 3.426820678350e-04 0.0 
3.426820678350e-04 8.360890520438e-03 0.0 
0.0 0.0 -1.282189168212e-03 
-6.426921289281e-04 -2.477141885566e-04 0.0 
-2.477141885566e-04 2.972149177427e-03 0.0 
0.0 0.0 -4.512233509908e-04 
-5.071100590753e-04 7.724547813732e-05 0.0 
7.724547813732e-05 2.167123717160e-03 0.0 
0.0 0.0 -3.694212080277e-04 
-1.248804674603e-03 1.204053078386e-04 0.0 
1.204053078386e-04 7.152497866114e-03 0.0 
0.0 0.0 -1.087734043504e-03 
-2.199405617637e-04 -6.207470745057e-05 0.0 
-6.207470745057e-05 1.342683867831e-03 0.0 
0.0 0.0 -2.189683579105e-04 
-1.315587936217e-03 -1.318704737137e-04 0.0 
-1.318704737137e-04 8.629398526663e-03 0.0 
0.0 0.0 -1.285320035817e-03 
0.0 0.0 0.0 
0.0 0.0 0.0 
0.0 0.0 0.0 
-1.104248090582e-03 6.042449065024e-04 0.0 
6.042449065024e-04 7.502345308807e-03 0.0 
0.0 0.0 -1.210824713543e-03 
-6.118289487359e-04 1.052783847498e-03 0.0 
1.052783847498e-03 3.133960488999e-03 0.0 
0.0 0.0 -5.497085007362e-04 
3.930006713422e-04 -1.150166211052e-03 0.0 
-1.150166211052e-03 2.323329664583e-04 0.0 
0.0 0.0 -2.680001304859e-04 
-1.319367167403e-03 -3.421260873299e-04 0.0 
-3.421260873299e-04 8.223808012733e-03 0.0 
0.0 0.0 -1.257478522087e-03 
-6.824305458781e-04 5.038519007458e-04 0.0 
5.038519007458e-04 3.122644429912e-03 0.0 
0.0 0.0 -5.137572693775e-04 
0.0 0.0 0.0 
0.0 0.0 0.0 
0.0 0.0 0.0 
-1.302579274791e-03 3.856077973971e-04 0.0 
3.856077973971e-04 8.474035595977e-03 0.0 
0.0 0.0 -1.261660853087e-03 
-3.055720632183e-04 -1.064577386819e-03 0.0 
-1.064577386819e-03 1.239084830307e-03 0.0 
0.0 0.0 -3.052032381971e-04 
-1.275451108923e-03 4.835577884085e-04 0.0 
4.835577884085e-04 8.123671911160e-03 0.0 
0.0 0.0 -1.282376455277e-03 
-1.145904955508e-03 -3.118374997867e-04 0.0 
-3.118374997867e-04 6.272168097955e-03 0.0 
0.0 0.0 -9.556290573178e-04 
-1.338499280800e-03 2.408371898962e-04 0.0 
2.408371898962e-04 8.775782511843e-03 0.0 
0.0 0.0 -1.338499280800e-03 
-1.192625588921e-03 4.461210467852e-04 0.0 
4.461210467852e-04 7.634783606740e-03 0.0 
0.0 0.0 -1.232909111256e-03 
-2.127254236185e-05 1.891430361426e-04 0.0 
1.891430361426e-04 5.160571140730e-04 0.0 
0.0 0.0 -1.295286970291e-04 
-6.935849542252e-04 2.344127444435e-05 0.0 
2.344127444435e-05 2.990888035910e-03 0.0 
0.0 0.0 -4.777371989943e-04 
-1.295701123542e-03 1.509088819434e-05 0.0 
1.509088819434e-05 8.469943460322e-03 0.0 
0.0 0.0 -1.262626981217e-03 
-1.324502073679e-03 3.744328644392e-04 0.0 
3.744328644392e-04 8.596934185840e-03 0.0 
0.0 0.0 -1.265352048664e-03 
-2.411922616665e-04 1.053006289260e-03 0.0 
1.053006289260e-03 1.157414957781e-03 0.0 
0.0 0.0 -3.599094611647e-04 
-2.769907565586e-04 -8.829481836090e-05 0.0 
-8.829481836090e-05 1.134623594574e-03 0.0 
0.0 0.0 -2.366757893512e-04 
-2.181753936334e-04 1.161392611074e-03 0.0 
1.161392611074e-03 1.149876313961e-03 0.0 
0.0 0.0 -3.564703237892e-04 
-2.758740996359e-04 -8.746279552454e-04 0.0 
-8.746279552454e-04 1.152039496951e-03 0.0 
0.0 0.0 -3.439500825601e-04 
-8.978965614641e-04 9.154439014956e-05 0.0 
9.154439014956e-05 5.029293334098e-03 0.0 
0.0 0.0 -7.918363975426e-04 
-6.733819819602e-04 4.712092501630e-04 0.0 
4.712092501630e-04 3.018715837704e-03 0.0 
0.0 0.0 -4.749402310763e-04 
-6.256408849580e-04 5.270574211380e-04 0.0 
5.270574211380e-04 2.559551606748e-03 0.0 
0.0 0.0 -4.438329512050e-04 
-9.725152992593e-04 -1.918915712341e-04 0.0 
-1.918915712341e-04 5.553894553160e-03 0.0 
0.0 0.0 -8.336771054075e-04 
-9.515395304919e-04 2.688463451821e-04 0.0 
2.688463451821e-04 5.521722972354e-03 0.0 
0.0 0.0 -8.358076868167e-04 
-1.183410575090e-03 -2.693387168119e-04 0.0 
-2.693387168119e-04 6.452199734420e-03 0.0 
0.0 0.0 -9.867109252839e-04 
-1.231001359755e-03 1.776752657648e-04 0.0 
1.776752657648e-04 6.972617785685e-03 0.0 
0.0 0.0 -1.058576829647e-03 
-1.159508113008e-03 2.069980553471e-04 0.0 
2.069980553471e-04 7.153965750682e-03 0.0 
0.0 0.0 -1.085941371602e-03 
-9.167398449037e-04 -2.379223024375e-04 0.0 
-2.379223024375e-04 5.214431434648e-03 0.0 
0.0 0.0 -7.983229688164e-04 
-9.629239381275e-05 -7.847678025284e-05 0.0 
-7.847678025284e-05 3.293444492904e-04 0.0 
0.0 0.0 -9.987945234756e-05 
-9.298280525188e-04 1.832074445445e-04 0.0 
1.832074445445e-04 5.072594773826e-03 0.0 
0.0 0.0 -7.928983479555e-04 
-1.152068192651e-03 -8.618068735251e-05 0.0 
-8.618068735251e-05 7.066072062095e-03 0.0 
0.0 0.0 -1.069439317440e-03 
-1.125567912536e-03 1.438213412546e-04 0.0 
1.438213412546e-04 7.130378012797e-03 0.0 
0.0 0.0 -1.046447409317e-03 
-1.354248964991e-03 2.488047583645e-04 0.0 
2.488047583645e-04 9.041954327214e-03 0.0 
0.0 0.0 -1.319970921405e-03 
-1.236862548615e-03 6.047335938228e-05 0.0 
6.047335938228e-05 8.106142459015e-03 0.0 
0.0 0.0 -1.294194962782e-03 
-9.013588349204e-04 -3.564785080674e-05 0.0 
-3.564785080674e-05 5.032133509131e-03 0.0 
0.0 0.0 -7.889745663688e-04 
-1.254766552398e-03 -3.118115606911e-04 0.0 
-3.118115606911e-04 8.236373731402e-03 0.0 
0.0 0.0 -1.263183913703e-03 
-9.880175404899e-04 -1.466486724576e-04 0.0 
-1.466486724576e-04 5.952185502159e-03 0.0 
0.0 0.0 -9.040008563810e-04 
-6.291314004619e-04 6.895076894316e-04 0.0 
6.895076894316e-04 3.149500208419e-03 0.0 
0.0 0.0 -5.198799001330e-04 
-8.730449846052e-04 -1.408519575968e-04 0.0 
-1.408519575968e-04 5.083535477325e-03 0.0 
0.0 0.0 -7.643292725053e-04 
-1.347992785810e-03 5.931491654167e-05 0.0 
5.931491654167e-05 8.400156878011e-03 0.0 
0.0 0.0 -1.287517816355e-03 
-8.262228282774e-04 1.447902815746e-04 0.0 
1.447902815746e-04 6.297334361413e-03 0.0 
0.0 0.0 -1.043751955586e-03 
-1.104569420112e-03 1.448019849648e-04 0.0 
1.448019849648e-04 7.556047747294e-03 0.0 
0.0 0.0 -1.209599240962e-03 
-4.538367894760e-04 9.757826283503e-04 0.0 
9.757826283503e-04 2.565554738313e-03 0.0 
0.0 0.0 -4.747543016519e-04 
2.029884590449e-04 -8.599336091252e-04 0.0 
-8.599336091252e-04 2.611091082078e-04 0.0 
0.0 0.0 -1.988989573940e-04 
-1.297459135418e-03 -2.747475562559e-04 0.0 
-2.747475562559e-04 7.787009671767e-03 0.0 
0.0 0.0 -1.189902873528e-03 
-1.189086276409e-03 1.093944519264e-04 0.0 
1.093944519264e-04 7.587261230545e-03 0.0 
0.0 0.0 -1.108790581071e-03 
7.624507231963e-05 -2.164748674539e-04 0.0 
-2.164748674539e-04 4.178589710884e-05 0.0 
0.0 0.0 -5.058470118363e-05 
-1.283662232086e-03 -3.116749921630e-04 0.0 
-3.116749921630e-04 8.203749873262e-03 0.0 
0.0 0.0 -1.285127980003e-03 
-1.117454671525e-03 5.890310527375e-04 0.0 
5.890310527375e-04 6.771147145683e-03 0.0 
0.0 0.0 -1.051491716222e-03 
2.129630744421e-04 -9.499020889305e-05 0.0 
-9.499020889305e-05 2.730652041404e-04 0.0 
0.0 0.0 -1.433710470045e-04 
-4.646091997464e-04 1.130911332871e-03 0.0 
1.130911332871e-03 3.315295093012e-03 0.0 
0.0 0.0 -6.309931931857e-04 
-8.659480951891e-04 9.706201231431e-05 0.0 
9.706201231431e-05 4.691930850523e-03 0.0 
0.0 0.0 -7.153918394734e-04 
-8.128195131981e-04 -2.696429011542e-04 0.0 
-2.696429011542e-04 3.582326768313e-03 0.0 
0.0 0.0 -5.772375537024e-04 
-5.795319369569e-04 9.930078575254e-04 0.0 
9.930078575254e-04 2.722691248666e-03 0.0 
0.0 0.0 -4.852398935310e-04 
-5.900753072712e-04 6.920056491215e-04 0.0 
6.920056491215e-04 3.182816884513e-03 0.0 
0.0 0.0 -5.471823052058e-04 
-1.301859315623e-03 -1.904737940513e-04 0.0 
-1.904737940513e-04 8.142812636608e-03 0.0 
0.0 0.0 -1.283833066805e-03 
-9.523212659311e-04 1.958273368285e-04 0.0 
1.958273368285e-04 5.865970295395e-03 0.0 
0.0 0.0 -8.766975940251e-04 
-5.541698138184e-04 1.190551615049e-03 0.0 
1.190551615049e-03 2.836925707114e-03 0.0 
0.0 0.0 -5.122473358773e-04 
-4.084206622420e-04 -7.278847424947e-04 0.0 
-7.278847424947e-04 1.354708172608e-03 0.0 
0.0 0.0 -2.295267891405e-04 
-9.046551402062e-04 3.103540058347e-04 0.0 
3.103540058347e-04 5.221480629983e-03 0.0 
0.0 0.0 -7.744920945421e-04 
-1.163420538902e-03 -6.301653344554e-05 0.0 
-6.301653344554e-05 7.412623996309e-03 0.0 
0.0 0.0 -1.129288753466e-03 
-5.271843801054e-04 7.884919210617e-04 0.0 
7.884919210617e-04 2.864417005275e-03 0.0 
0.0 0.0 -5.109724225979e-04 
5.534592465795e-05 9.039028363928e-04 0.0 
9.039028363928e-04 4.831251439840e-04 0.0 
0.0 0.0 -2.307733151323e-04 
-8.073832098114e-04 1.503125105248e-04 0.0 
1.503125105248e-04 4.217521397372e-03 0.0 
0.0 0.0 -6.470401313397e-04 
-8.043937078593e-04 -1.245165173277e-04 0.0 
-1.245165173277e-04 3.751204721582e-03 0.0 
0.0 0.0 -5.578851714504e-04 
-7.622885537649e-04 4.316670476422e-04 0.0 
4.316670476422e-04 3.890857300125e-03 0.0 
0.0 0.0 -6.167189930163e-04 
-1.313795093192e-03 3.745855682538e-04 0.0 
3.745855682538e-04 8.614675897131e-03 0.0 
0.0 0.0 -1.290671971449e-03 
1.991130479106e-04 9.381873505590e-04 0.0 
9.381873505590e-04 3.095528624407e-04 0.0 
0.0 0.0 -2.179996758648e-04 
-1.118912346163e-03 3.069253467211e-05 0.0 
3.069253467211e-05 5.953637467028e-03 0.0 
0.0 0.0 -9.216843799351e-04 
-1.302832962065e-03 2.769223245220e-04 0.0 
2.769223245220e-04 8.470819943817e-03 0.0 
0.0 0.0 -1.256690274141e-03 
-7.596340248727e-04 7.382796594352e-04 0.0 
7.382796594352e-04 4.031537584483e-03 0.0 
0.0 0.0 -6.588732905211e-04 
-7.779772953584e-04 1.836806670251e-04 0.0 
1.836806670251e-04 3.983301519145e-03 0.0 
0.0 0.0 -6.139229799761e-04 
-1.231803605678e-03 -5.782093166128e-05 0.0 
-5.782093166128e-05 8.028152931577e-03 0.0 
0.0 0.0 -1.254964138299e-03 
-1.328106245368e-03 -3.359343714767e-04 0.0 
-3.359343714767e-04 8.269862829300e-03 0.0 
0.0 0.0 -1.261070974318e-03 
-1.177616370787e-03 5.503788424212e-05 0.0 
5.503788424212e-05 6.447345049328e-03 0.0 
0.0 0.0 -9.873713238705e-04 
-7.975389004980e-04 3.851368616877e-04 0.0 
3.851368616877e-04 4.370903509068e-03 0.0 
0.0 0.0 -6.916138708610e-04 
-1.195768822005e-03 -1.347190958518e-04 0.0 
-1.347190958518e-04 8.136693957771e-03 0.0 
0.0 0.0 -1.270330610962e-03 
-7.600104695776e-04 6.621541633523e-04 0.0 
6.621541633523e-04 3.915062890853e-03 0.0 
0.0 0.0 -6.326048069937e-04 
-1.276977184880e-03 1.361446544635e-04 0.0 
1.361446544635e-04 8.444479482518e-03 0.0 
0.0 0.0 -1.283174495648e-03 
-1.281656246909e-03 5.918270400850e-04 0.0 
5.918270400850e-04 8.394460336114e-03 0.0 
0.0 0.0 -1.267437373369e-03 
-9.916900482218e-04 -1.353869196216e-04 0.0 
-1.353869196216e-04 5.594925371490e-03 0.0 
0.0 0.0 -8.543707170918e-04 
-1.059679930627e-03 2.378363673836e-04 0.0 
2.378363673836e-04 6.573353481791e-03 0.0 
0.0 0.0 -9.817831382938e-04 
-7.605699351815e-04 3.748556655775e-04 0.0 
3.748556655775e-04 3.967103975153e-03 0.0 
0.0 0.0 -6.293189184696e-04 
-7.420000060583e-04 4.704307559795e-04 0.0 
4.704307559795e-04 3.646692949105e-03 0.0 
0.0 0.0 -5.830241378053e-04 
-8.001161774359e-04 7.418992546282e-04 0.0 
7.418992546282e-04 4.429271101410e-03 0.0 
0.0 0.0 -7.211932326589e-04 
-4.509036314279e-04 9.161005774141e-04 0.0 
9.161005774141e-04 2.969896787124e-03 0.0 
0.0 0.0 -5.383041810906e-04 
-8.768683131663e-04 -1.698577199285e-04 0.0 
-1.698577199285e-04 5.218733852389e-03 0.0 
0.0 0.0 -7.693993191400e-04 
-3.984078038155e-04 7.031353492297e-04 0.0 
7.031353492297e-04 3.390130310364e-03 0.0 
0.0 0.0 -6.275039421266e-04 
-8.830553488541e-05 -1.169663280731e-04 0.0 
-1.169663280731e-04 3.137961635653e-04 0.0 
0.0 0.0 -9.663884086279e-05 
-9.202478516251e-04 -5.770930012148e-06 0.0 
-5.770930012148e-06 5.620779502953e-03 0.0 
0.0 0.0 -8.171079392438e-04 
-3.114395398576e-04 -3.263303537109e-05 0.0 
-3.263303537109e-05 1.213615237241e-03 0.0 
0.0 0.0 -2.373169254524e-04 
-8.400103073364e-04 1.183268532165e-04 0.0 
1.183268532165e-04 4.465364634510e-03 0.0 
0.0 0.0 -6.809683978454e-04 
-1.226720591274e-03 -2.033245432446e-04 0.0 
-2.033245432446e-04 7.901279716244e-03 0.0 
0.0 0.0 -1.284796145094e-03 
-5.032521871548e-04 1.323397128945e-03 0.0 
1.323397128945e-03 2.524146629484e-03 0.0 
0.0 0.0 -4.767992880414e-04 
-1.206015416419e-03 1.351161918146e-04 0.0 
1.351161918146e-04 6.706761080456e-03 0.0 
0.0 0.0 -1.021089721936e-03 
-5.854397783758e-04 6.900577011398e-04 0.0 
6.900577011398e-04 2.034319527358e-03 0.0 
0.0 0.0 -3.540742325023e-04 
-8.487428613626e-04 6.354315705334e-04 0.0 
6.354315705334e-04 6.259047629254e-03 0.0 
0.0 0.0 -1.044905595188e-03 
-9.023795236384e-04 1.774952439286e-05 0.0 
1.774952439286e-05 5.056579998417e-03 0.0 
0.0 0.0 -7.899655494116e-04 
-3.675306969511e-04 1.198984270489e-03 0.0 
1.198984270489e-03 2.958001668599e-03 0.0 
0.0 0.0 -5.931463391684e-04 
-1.266256333575e-03 -2.932543747909e-04 0.0 
-2.932543747909e-04 7.348938270472e-03 0.0 
0.0 0.0 -1.120963572432e-03 
-3.905834582402e-04 -4.908595614848e-04 0.0 
-4.908595614848e-04 1.232002034576e-03 0.0 
0.0 0.0 -2.722262904030e-04 
-1.289444217002e-03 1.239965470747e-04 0.0 
1.239965470747e-04 7.777003841897e-03 0.0 
0.0 0.0 -1.189111243166e-03 
-9.083262515729e-04 4.866804809917e-04 0.0 
4.866804809917e-04 4.963586243701e-03 0.0 
0.0 0.0 -7.711223959738e-04 
-1.340203078278e-03 -2.129693675799e-04 0.0 
-2.129693675799e-04 8.439560912258e-03 0.0 
0.0 0.0 -1.265987209193e-03 
-8.868772565118e-04 2.877464608834e-05 0.0 
2.877464608834e-05 5.056912107765e-03 0.0 
0.0 0.0 -7.842605076999e-04 
-4.245977401382e-04 1.301715382003e-03 0.0 
1.301715382003e-03 2.484999694538e-03 0.0 
0.0 0.0 -5.042822341261e-04 
-8.141088315077e-04 3.778227072886e-04 0.0 
3.778227072886e-04 4.370548075301e-03 0.0 
0.0 0.0 -6.840799553763e-04 
-1.128956121950e-03 -1.816355743224e-04 0.0 
-1.816355743224e-04 5.879621026637e-03 0.0 
0.0 0.0 -8.722824885218e-04 
-5.657686865338e-04 1.006813399921e-03 0.0 
1.006813399921e-03 2.114854539436e-03 0.0 
0.0 0.0 -3.514598124168e-04 
-2.840077947560e-04 7.374002385130e-04 0.0 
7.374002385130e-04 3.016923521918e-03 0.0 
0.0 0.0 -5.911455407098e-04 
-1.107826402130e-03 -1.895219266089e-04 0.0 
-1.895219266089e-04 6.838398808500e-03 0.0 
0.0 0.0 -1.016465148841e-03 
-8.846022414820e-04 1.673369808483e-04 0.0 
1.673369808483e-04 5.274165376609e-03 0.0 
0.0 0.0 -7.680022369673e-04 
-4.363801896578e-04 1.202422263910e-03 0.0 
1.202422263910e-03 2.876866297868e-03 0.0 
0.0 0.0 -5.666226778950e-04 
-8.017363352442e-04 3.924823248397e-04 0.0 
3.924823248397e-04 4.130177357856e-03 0.0 
0.0 0.0 -6.498546761489e-04 
-1.141214369151e-03 6.765310758862e-04 0.0 
6.765310758862e-04 7.271411604946e-03 0.0 
0.0 0.0 -1.136725521675e-03 
-8.548535662047e-04 -2.781485263044e-04 0.0 
-2.781485263044e-04 4.164865359686e-03 0.0 
0.0 0.0 -6.189190723244e-04 
-1.237707508229e-03 4.856674807990e-04 0.0 
4.856674807990e-04 7.956457412847e-03 0.0 
0.0 0.0 -1.285202198870e-03 
-1.271584492805e-03 4.859423083683e-04 0.0 
4.859423083683e-04 8.362652585957e-03 0.0 
0.0 0.0 -1.265486236287e-03 
-6.208228587870e-04 6.861521722427e-04 0.0 
6.861521722427e-04 2.794482215749e-03 0.0 
0.0 0.0 -4.595713030950e-04 
-8.601834141272e-04 -1.130024456241e-04 0.0 
-1.130024456241e-04 3.988529893684e-03 0.0 
0.0 0.0 -6.385407451345e-04 
-9.728705791535e-04 -2.427476520657e-04 0.0 
-2.427476520657e-04 7.014843591236e-03 0.0 
0.0 0.0 -1.152822474774e-03 
-7.582637832037e-04 3.173029778375e-04 0.0 
3.173029778375e-04 3.850177976745e-03 0.0 
0.0 0.0 -6.037256927378e-04 
-5.932602371824e-04 9.450171731982e-04 0.0 
9.450171731982e-04 2.345539596427e-03 0.0 
0.0 0.0 -4.251746348339e-04 
-8.883854653183e-04 4.319931064094e-04 0.0 
4.319931064094e-04 4.807571306798e-03 0.0 
0.0 0.0 -7.443430781256e-04 
-4.655628622191e-04 8.097546048135e-04 0.0 
8.097546048135e-04 3.367415080588e-03 0.0 
0.0 0.0 -6.011186688906e-04 
-1.309467600587e-03 2.274324864678e-04 0.0 
2.274324864678e-04 8.467271508597e-03 0.0 
0.0 0.0 -1.279059907835e-03 
-1.139712663312e-03 5.524271265546e-04 0.0 
5.524271265546e-04 6.895093066062e-03 0.0 
0.0 0.0 -1.060691896764e-03 
-1.282894195515e-03 1.713163621167e-04 0.0 
1.713163621167e-04 7.580646218946e-03 0.0 
0.0 0.0 -1.155968210243e-03 
-4.263760736077e-04 9.726189065638e-04 0.0 
9.726189065638e-04 1.483303861492e-03 0.0 
0.0 0.0 -3.328149423972e-04 
-1.567783780417e-04 7.459959337790e-04 0.0 
7.459959337790e-04 2.633807870816e-03 0.0 
0.0 0.0 -5.558335581882e-04 
-1.150277857659e-03 5.855176210150e-04 0.0 
5.855176210150e-04 7.056066340815e-03 0.0 
0.0 0.0 -1.089453766084e-03 
0.0 0.0 0.0 
0.0 0.0 0.0 
0.0 0.0 0.0 
-7.560981228119e-04 5.568058696449e-04 0.0 
5.568058696449e-04 3.796632807166e-03 0.0 
0.0 0.0 -6.073871274648e-04 
-8.851342185419e-04 -4.312210323728e-04 0.0 
-4.312210323728e-04 6.519433320506e-03 0.0 
0.0 0.0 -1.080675545910e-03 
-1.164869828715e-04 -1.456841600207e-04 0.0 
-1.456841600207e-04 9.923335266216e-04 0.0 
0.0 0.0 -1.605608400042e-04 
-1.274326596506e-03 6.277067703956e-04 0.0 
6.277067703956e-04 8.332587857653e-03 0.0 
0.0 0.0 -1.257517519450e-03 
-1.082557255636e-03 4.467183423513e-04 0.0 
4.467183423513e-04 6.398503814141e-03 0.0 
0.0 0.0 -9.749624431058e-04 
-5.927975267284e-04 -7.287134833264e-04 0.0 
-7.287134833264e-04 3.408230795765e-03 0.0 
0.0 0.0 -5.995223474422e-04 
-8.718953006962e-04 8.285847793953e-05 0.0 
8.285847793953e-05 6.481498684251e-03 0.0 
0.0 0.0 -1.082135573042e-03 
-9.644421873602e-04 1.848918456793e-04 0.0 
1.848918456793e-04 5.622214910538e-03 0.0 
0.0 0.0 -8.259898420369e-04 
-9.976541713563e-04 8.643209894895e-06 0.0 
8.643209894895e-06 5.944166007327e-03 0.0 
0.0 0.0 -8.838609275114e-04 
-1.149666595734e-03 -3.245227479459e-04 0.0 
-3.245227479459e-04 7.662117469895e-03 0.0 
0.0 0.0 -1.237791025003e-03 
-6.377976835771e-04 -6.114567573414e-04 0.0 
-6.114567573414e-04 2.689173763955e-03 0.0 
0.0 0.0 -4.583583101839e-04 
-7.880409547895e-04 7.989113980148e-04 0.0 
7.989113980148e-04 4.542855302031e-03 0.0 
0.0 0.0 -7.480401524272e-04 
-9.214234162491e-04 5.351887786335e-04 0.0 
5.351887786335e-04 5.111262659093e-03 0.0 
0.0 0.0 -7.988399675000e-04 
-1.125534786672e-03 7.028976634264e-05 0.0 
7.028976634264e-05 6.721724443554e-03 0.0 
0.0 0.0 -1.008548823165e-03 
-9.505406595461e-04 1.355801735478e-04 0.0 
1.355801735478e-04 5.273089753614e-03 0.0 
0.0 0.0 -8.035999206669e-04 
-8.920793708860e-04 1.354006487991e-04 0.0 
1.354006487991e-04 4.845817227354e-03 0.0 
0.0 0.0 -7.415510827328e-04 
-6.524274381720e-04 1.661117945530e-04 0.0 
1.661117945530e-04 5.489508378744e-03 0.0 
0.0 0.0 -9.414312740916e-04 
-1.133549865804e-03 2.632851943964e-04 0.0 
2.632851943964e-04 7.143578184647e-03 0.0 
0.0 0.0 -1.105110859848e-03 
0.0 0.0 0.0 
0.0 0.0 0.0 
0.0 0.0 0.0 
-5.963424256803e-04 8.235655420392e-04 0.0 
8.235655420392e-04 2.727118741511e-03 0.0 
0.0 0.0 -4.649757541953e-04 
-6.413935052421e-04 9.083237096949e-04 0.0 
9.083237096949e-04 3.060885376631e-03 0.0 
0.0 0.0 -5.249394872960e-04 
-7.860598654059e-04 4.409893248632e-04 0.0 
4.409893248632e-04 4.491993588337e-03 0.0 
0.0 0.0 -7.181710532390e-04 
-1.182550884137e-03 1.586567680609e-04 0.0 
1.586567680609e-04 7.254490089636e-03 0.0 
0.0 0.0 -1.095076276885e-03 
4.583279132942e-04 6.488863092727e-04 0.0 
6.488863092727e-04 -1.405418918227e-05 0.0 
0.0 0.0 -1.904030246194e-04 
-8.562318666799e-04 -4.982168400307e-04 0.0 
-4.982168400307e-04 6.277290697447e-03 0.0 
0.0 0.0 -1.043355442177e-03 
-8.774345447710e-04 -2.186708792855e-04 0.0 
-2.186708792855e-04 5.055368522856e-03 0.0 
0.0 0.0 -7.763349569542e-04 
-2.555112241128e-04 1.229664321452e-03 0.0 
1.229664321452e-03 2.574406854457e-03 0.0 
0.0 0.0 -5.576783925304e-04 
-8.394427967850e-04 -5.648718734432e-04 0.0 
-5.648718734432e-04 6.055308780542e-03 0.0 
0.0 0.0 -1.006238978475e-03 
-7.021339785738e-05 -2.257880490566e-04 0.0 
-2.257880490566e-04 5.234298020475e-04 0.0 
0.0 0.0 -1.250635456846e-04 
-1.135452312747e-03 4.797857508760e-04 0.0 
4.797857508760e-04 6.834881249119e-03 0.0 
0.0 0.0 -1.040010908530e-03 
8.624072222387e-05 -5.482403482058e-05 0.0 
-5.482403482058e-05 4.623552898900e-04 0.0 
0.0 0.0 -1.166360257537e-04 
-1.840491842350e-04 -5.445744923588e-05 0.0 
-5.445744923588e-05 7.493422687288e-04 0.0 
0.0 0.0 -1.819418517600e-04 
-3.913654307844e-04 1.191507394513e-03 0.0 
1.191507394513e-03 1.470311877001e-03 0.0 
0.0 0.0 -3.246947309473e-04 
-6.091026736672e-04 -6.117663185554e-04 0.0 
-6.117663185554e-04 2.275310364661e-03 0.0 
0.0 0.0 -3.935955730116e-04 
-1.177121720242e-03 9.986808741326e-05 0.0 
9.986808741326e-05 7.155425965963e-03 0.0 
0.0 0.0 -1.073797489760e-03 
-5.625078577902e-04 -9.911531115061e-04 0.0 
-9.911531115061e-04 2.166295973773e-03 0.0 
0.0 0.0 -3.637595386041e-04 
-2.431075708166e-04 1.562437016590e-03 0.0 
1.562437016590e-03 1.376800568989e-03 0.0 
0.0 0.0 -3.890718233399e-04 
1.128852675938e-04 -1.510947419960e-03 0.0 
-1.510947419960e-03 7.754974600039e-04 0.0 
0.0 0.0 -3.807354546848e-04 
-5.007957256990e-04 -4.054148446658e-04 0.0 
-4.054148446658e-04 1.463133010542e-03 0.0 
0.0 0.0 -2.670040094673e-04 
-9.159310068133e-04 1.166570594862e-04 0.0 
1.166570594862e-04 6.711157580750e-03 0.0 
0.0 0.0 -1.117524173959e-03 
-9.108885203266e-04 1.625635707661e-04 0.0 
1.625635707661e-04 5.002433540525e-03 0.0 
0.0 0.0 -7.687972329812e-04 
-1.323980336649e-03 7.113171737239e-05 0.0 
7.113171737239e-05 8.245489008711e-03 0.0 
0.0 0.0 -1.256743614961e-03 
0.0 0.0 0.0 
0.0 0.0 0.0 
0.0 0.0 0.0 
-3.330839468946e-04 1.604359709376e-03 0.0 
1.604359709376e-03 1.727019779997e-03 0.0 
0.0 0.0 -4.044045206172e-04 
-3.067142002033e-04 1.081368075103e-03 0.0 
1.081368075103e-03 3.044773964149e-03 0.0 
0.0 0.0 -6.230907113744e-04 
-7.160262700323e-04 6.408733665596e-04 0.0 
6.408733665596e-04 3.506266837881e-03 0.0 
0.0 0.0 -5.709397776106e-04 
-8.360378415299e-04 -1.180231066695e-05 0.0 
-1.180231066695e-05 6.234265106431e-03 0.0 
0.0 0.0 -1.045235091131e-03 
-1.333473067012e-03 -5.395820062031e-05 0.0 
-5.395820062031e-05 8.405361436706e-03 0.0 
0.0 0.0 -1.275930989368e-03 
-1.131889764436e-03 1.436010865761e-04 0.0 
1.436010865761e-04 6.812686989612e-03 0.0 
0.0 0.0 -1.029499106509e-03 
5.269662907404e-05 8.913991735483e-04 0.0 
8.913991735483e-04 1.741226620489e-03 0.0 
0.0 0.0 -4.564841486881e-04 
-9.276981546427e-04 -3.123244619600e-04 0.0 
-3.123244619600e-04 6.731635440410e-03 0.0 
0.0 0.0 -1.116166892424e-03 
-1.162987388940e-03 1.784362897977e-04 0.0 
1.784362897977e-04 6.231822734238e-03 0.0 
0.0 0.0 -9.512440159151e-04 
-8.362061665926e-04 3.771233097708e-04 0.0 
3.771233097708e-04 4.773003845214e-03 0.0 
0.0 0.0 -7.537083776970e-04 
-1.102280810414e-03 4.919717221224e-04 0.0 
4.919717221224e-04 6.560511914991e-03 0.0 
0.0 0.0 -1.003200534345e-03 
-1.172867451038e-03 2.356902410022e-04 0.0 
2.356902410022e-04 7.744999640819e-03 0.0 
0.0 0.0 -1.239730878702e-03 
-2.254924367537e-04 5.849015682570e-04 0.0 
5.849015682570e-04 3.115409937203e-03 0.0 
0.0 0.0 -6.206208101913e-04 
-3.928189268474e-04 1.275344444358e-03 0.0 
1.275344444358e-03 1.843263560049e-03 0.0 
0.0 0.0 -3.752687577596e-04 
-9.992253787165e-04 1.463025209614e-04 0.0 
1.463025209614e-04 5.687199852232e-03 0.0 
0.0 0.0 -8.662621843288e-04 
-1.349788229223e-03 3.426545086550e-04 0.0 
3.426545086550e-04 9.036920857709e-03 0.0 
0.0 0.0 -1.323568725688e-03 
-7.650406542385e-04 4.751592665984e-04 0.0 
4.751592665984e-04 4.601158149833e-03 0.0 
0.0 0.0 -7.453270327204e-04 
-3.775537039009e-04 2.220958575008e-04 0.0 
2.220958575008e-04 4.208109464666e-03 0.0 
0.0 0.0 -7.768443034385e-04 
-9.417507759690e-04 -3.219991258082e-05 0.0 
-3.219991258082e-05 5.716819141930e-03 0.0 
0.0 0.0 -8.293613651800e-04 
-1.509886751970e-04 -1.135282332652e-03 0.0 
-1.135282332652e-03 1.017427284165e-03 0.0 
0.0 0.0 -3.579782397794e-04 
-9.508294649730e-04 4.627212186017e-04 0.0 
4.627212186017e-04 5.212868888400e-03 0.0 
0.0 0.0 -8.060563724883e-04 
-7.773528700208e-05 1.427065922566e-03 0.0 
1.427065922566e-03 1.665502982993e-03 0.0 
0.0 0.0 -4.590591740919e-04 
3.797527258111e-04 1.020114754415e-03 0.0 
1.020114754415e-03 1.842831286956e-04 0.0 
0.0 0.0 -2.417296519314e-04 
4.052395816326e-04 -6.135338758200e-04 0.0 
-6.135338758200e-04 -1.137161459365e-06 0.0 
0.0 0.0 -1.731867515028e-04 
-1.167546277040e-03 4.626490460642e-04 0.0 
4.626490460642e-04 7.101376568989e-03 0.0 
0.0 0.0 -1.075985979751e-03 
-9.623797546726e-04 1.845333678616e-04 0.0 
1.845333678616e-04 5.429528329259e-03 0.0 
0.0 0.0 -8.312490730234e-04 
-5.046075129470e-04 1.194499845990e-03 0.0 
1.194499845990e-03 2.882799900291e-03 0.0 
0.0 0.0 -5.429493831729e-04 
-1.206327788760e-03 8.269099761282e-05 0.0 
8.269099761282e-05 7.415962584707e-03 0.0 
0.0 0.0 -1.109763131677e-03 
-1.142751356386e-03 1.744200963682e-04 0.0 
1.744200963682e-04 6.974478761757e-03 0.0 
0.0 0.0 -1.057773507355e-03 
-8.833943353455e-04 3.220642776102e-04 0.0 
3.220642776102e-04 5.046401869676e-03 0.0 
0.0 0.0 -7.887050335656e-04 
-1.278006429871e-03 -2.029556331096e-04 0.0 
-2.029556331096e-04 8.153709597249e-03 0.0 
0.0 0.0 -1.288412101370e-03 
-4.271610777015e-04 5.562024212731e-04 0.0 
5.562024212731e-04 4.316314637617e-03 0.0 
0.0 0.0 -8.078958932737e-04 
-9.266589239438e-04 2.700924202998e-04 0.0 
2.700924202998e-04 5.312918686649e-03 0.0 
0.0 0.0 -8.238265297874e-04 
-4.963470151794e-04 6.905692722870e-04 0.0 
6.905692722870e-04 3.767490595173e-03 0.0 
0.0 0.0 -6.656476441012e-04 
-4.749686160319e-04 1.532444199585e-04 0.0 
1.532444199585e-04 4.696915836540e-03 0.0 
0.0 0.0 -8.413031780454e-04 
2.625503227397e-04 1.238828002540e-03 0.0 
1.238828002540e-03 6.651443892644e-04 0.0 
0.0 0.0 -3.865807678710e-04 
-9.465847814334e-04 1.767858078852e-04 0.0 
1.767858078852e-04 5.036126749418e-03 0.0 
0.0 0.0 -7.898058234521e-04 
-1.895610884557e-04 4.026718807994e-04 0.0 
4.026718807994e-04 3.226201886936e-03 0.0 
0.0 0.0 -6.486359607860e-04 
1.616252847495e-04 -9.427764674384e-04 0.0 
-9.427764674384e-04 1.519153345857e-03 0.0 
0.0 0.0 -4.681053320140e-04 
-1.124321372716e-03 5.190781523116e-04 0.0 
5.190781523116e-04 6.737556221388e-03 0.0 
0.0 0.0 -1.032318248600e-03 
0.0 0.0 0.0 
0.0 0.0 0.0 
0.0 0.0 0.0 
-9.848011893069e-04 9.254887770331e-05 0.0 
9.254887770331e-05 5.522315715833e-03 0.0 
0.0 0.0 -8.386390795737e-04 
1.936986156422e-05 1.160151507078e-03 0.0 
1.160151507078e-03 1.716486351178e-03 0.0 
0.0 0.0 -4.870240021111e-04 
-2.325836748457e-04 1.289855956993e-03 0.0 
1.289855956993e-03 1.788704446122e-03 0.0 
0.0 0.0 -4.015254440178e-04 
4.595658441768e-04 4.744943126908e-04 0.0 
4.744943126908e-04 7.528832652437e-04 0.0 
0.0 0.0 -4.054414645912e-04 
-1.008402327414e-03 5.265744671369e-04 0.0 
5.265744671369e-04 5.786538932645e-03 0.0 
0.0 0.0 -8.965110541436e-04 
-2.494216096235e-04 -4.335362183750e-04 0.0 
-4.335362183750e-04 9.422411490062e-04 0.0 
0.0 0.0 -1.609926926485e-04 
-6.820720035477e-04 8.119732659470e-04 0.0 
8.119732659470e-04 3.361151585438e-03 0.0 
0.0 0.0 -5.613503766092e-04 
-5.249648680804e-04 4.982973278599e-04 0.0 
4.982973278599e-04 4.821038106347e-03 0.0 
0.0 0.0 -8.726802719924e-04 
-9.620382926610e-04 5.073054538474e-04 0.0 
5.073054538474e-04 5.367475776694e-03 0.0 
0.0 0.0 -8.336838631977e-04 
-9.866522304222e-04 1.405170818081e-04 0.0 
1.405170818081e-04 5.654603971252e-03 0.0 
0.0 0.0 -8.301023967811e-04 
2.987392461190e-04 2.567812312072e-04 0.0 
2.567812312072e-04 -6.027321301994e-05 0.0 
0.0 0.0 -1.021997284710e-04 
2.232246709604e-04 -1.918559463565e-04 0.0 
-1.918559463565e-04 1.424673883171e-03 0.0 
0.0 0.0 -4.706942212664e-04 
9.862482380878e-05 -1.372550038116e-03 0.0 
-1.372550038116e-03 1.318021718147e-03 0.0 
0.0 0.0 -4.311372127493e-04 
-6.563785485795e-04 5.486582363547e-04 0.0 
5.486582363547e-04 3.058796699974e-03 0.0 
0.0 0.0 -4.957039317942e-04 
-1.115649045089e-03 1.001564757614e-04 0.0 
1.001564757614e-04 6.632881085886e-03 0.0 
0.0 0.0 -1.000663671924e-03 
-6.796028561542e-04 5.568827768722e-04 0.0 
5.568827768722e-04 3.430251503350e-03 0.0 
0.0 0.0 -5.577786207633e-04 
-1.458115086374e-04 8.292196236090e-04 0.0 
8.292196236090e-04 2.768893991105e-03 0.0 
0.0 0.0 -6.151539951222e-04 
-1.886011553539e-04 1.051832417911e-03 0.0 
1.051832417911e-03 2.651380485181e-03 0.0 
0.0 0.0 -5.868308051845e-04 
4.119056616429e-04 4.824818133927e-04 0.0 
4.824818133927e-04 -5.163543584123e-05 0.0 
0.0 0.0 -1.544015253436e-04 
-5.103402652263e-04 1.016313603146e-03 0.0 
1.016313603146e-03 3.773155867782e-03 0.0 
0.0 0.0 -6.959382511914e-04 
-1.626884107157e-04 1.342060582958e-03 0.0 
1.342060582958e-03 1.124683386977e-03 0.0 
0.0 0.0 -3.635305771564e-04 
-1.332783064049e-03 3.949756871870e-04 0.0 
3.949756871870e-04 8.970989248616e-03 0.0 
0.0 0.0 -1.321446319728e-03 
-1.363423366848e-03 4.246461146743e-04 0.0 
4.246461146743e-04 8.919856195938e-03 0.0 
0.0 0.0 -1.318029376683e-03 
-7.707229978672e-04 8.349277957258e-04 0.0 
8.349277957258e-04 4.657152987880e-03 0.0 
0.0 0.0 -7.755312068111e-04 
8.477148352467e-05 1.389041319869e-03 0.0 
1.389041319869e-03 1.180405502280e-03 0.0 
0.0 0.0 -4.232985079168e-04 
-7.785189424599e-05 1.403831464932e-03 0.0 
1.403831464932e-03 1.344103223027e-03 0.0 
0.0 0.0 -3.659709354871e-04 
-9.354111606034e-04 6.403030867596e-04 0.0 
6.403030867596e-04 5.396292848320e-03 0.0 
0.0 0.0 -8.539191708179e-04 
9.999732188838e-05 1.139160073047e-03 0.0 
1.139160073047e-03 1.275333839354e-03 0.0 
0.0 0.0 -3.930530440640e-04 
2.202450365264e-04 -6.175447713642e-04 0.0 
-6.175447713642e-04 1.218766433543e-03 0.0 
0.0 0.0 -4.339875075689e-04 
-8.457389435740e-04 6.790973874792e-04 0.0 
6.790973874792e-04 4.708791579724e-03 0.0 
0.0 0.0 -7.563811545761e-04 
-1.327783261122e-03 1.214241298840e-04 0.0 
1.214241298840e-04 8.708921592335e-03 0.0 
0.0 0.0 -1.266640259566e-03 
-1.253349979010e-04 1.227176291700e-03 0.0 
1.227176291700e-03 2.155279357023e-03 0.0 
0.0 0.0 -5.226246958029e-04 
-6.857827131982e-04 6.109821481705e-04 0.0 
6.109821481705e-04 5.443563599872e-03 0.0 
0.0 0.0 -9.428115367421e-04 
1.005352414744e-05 1.485881480078e-03 0.0 
1.485881480078e-03 9.313511271753e-04 0.0 
0.0 0.0 -4.034591362812e-04 
-1.256876494634e-03 -1.116338181287e-04 0.0 
-1.116338181287e-04 8.512233064138e-03 0.0 
0.0 0.0 -1.322863172658e-03 
-5.368107279651e-05 1.667223674443e-03 0.0 
1.667223674443e-03 1.192784921883e-03 0.0 
0.0 0.0 -3.959736908235e-04 
-8.401524306230e-04 7.380205594863e-04 0.0 
7.380205594863e-04 4.834030021030e-03 0.0 
0.0 0.0 -7.835188407615e-04 
5.148731166168e-04 5.137437753511e-04 0.0 
5.137437753511e-04 -7.966675073375e-05 0.0 
0.0 0.0 -1.865170139499e-04 
-5.892765440231e-04 4.534415622219e-05 0.0 
4.534415622219e-05 5.187712345136e-03 0.0 
0.0 0.0 -9.211625808215e-04 
-2.619705547916e-04 9.063726296434e-04 0.0 
9.063726296434e-04 3.144147236726e-03 0.0 
0.0 0.0 -6.516619296807e-04 
5.136778266446e-05 -8.544458010471e-04 0.0 
-8.544458010471e-04 1.672478035934e-03 0.0 
0.0 0.0 -4.625367401933e-04 
-9.230469363571e-04 2.192959829449e-04 0.0 
2.192959829449e-04 5.165828729947e-03 0.0 
0.0 0.0 -7.963903837170e-04 
-1.338316942917e-03 5.052217518095e-04 0.0 
5.052217518095e-04 8.833234944730e-03 0.0 
0.0 0.0 -1.324865334549e-03 
-6.025361920258e-05 9.743864967892e-04 0.0 
9.743864967892e-04 2.246037318888e-03 0.0 
0.0 0.0 -5.510338386786e-04 
-4.966114613551e-04 2.324572275960e-05 0.0 
2.324572275960e-05 4.887340644677e-03 0.0 
0.0 0.0 -8.703234504572e-04 
-4.984372673971e-05 1.535578283139e-03 0.0 
1.535578283139e-03 1.001433575544e-03 0.0 
0.0 0.0 -3.453408408593e-04 
-1.068497402403e-03 3.485541216510e-04 0.0 
3.485541216510e-04 6.344714792472e-03 0.0 
0.0 0.0 -9.576894438039e-04 
-8.089599515326e-04 -1.073379708431e-04 0.0 
-1.073379708431e-04 5.996798576901e-03 0.0 
0.0 0.0 -1.008345180213e-03 
-4.736853950805e-04 1.081684251561e-03 0.0 
1.081684251561e-03 2.201297944192e-03 0.0 
0.0 0.0 -4.109515902261e-04 
-1.055848474588e-03 -6.244673246336e-05 0.0 
-6.244673246336e-05 6.209225770776e-03 0.0 
0.0 0.0 -9.257128893455e-04 
-1.318413144677e-03 5.597520288916e-04 0.0 
5.597520288916e-04 8.736177841961e-03 0.0 
0.0 0.0 -1.322580803729e-03 
-9.099621181087e-04 -7.844937670166e-05 0.0 
-7.844937670166e-05 6.486423483438e-03 0.0 
0.0 0.0 -1.075861678316e-03 
-1.339852007458e-03 4.885566376854e-04 0.0 
4.885566376854e-04 8.877779505668e-03 0.0 
0.0 0.0 -1.322091174222e-03 
-1.037601774292e-03 -4.998348071014e-05 0.0 
-4.998348071014e-05 6.134914618430e-03 0.0 
0.0 0.0 -9.196498359204e-04 
-1.117033596766e-03 2.433107206605e-04 0.0 
2.433107206605e-04 6.851288038562e-03 0.0 
0.0 0.0 -1.048263655743e-03 
-5.132028134043e-04 1.102114687126e-03 0.0 
1.102114687126e-03 1.849180492075e-03 0.0 
0.0 0.0 -3.491910591611e-04 
-8.752311967057e-04 2.096761775609e-04 0.0 
2.096761775609e-04 4.753971328354e-03 0.0 
0.0 0.0 -7.343713905235e-04 
-9.300305532746e-04 5.926935085268e-04 0.0 
5.926935085268e-04 5.253991145748e-03 0.0 
0.0 0.0 -8.263924940540e-04 
-9.692706598054e-04 2.261418497641e-04 0.0 
2.261418497641e-04 5.579447270465e-03 0.0 
0.0 0.0 -8.589723558544e-04 
-7.013973697775e-04 5.476600750058e-04 0.0 
5.476600750058e-04 4.307373761106e-03 0.0 
0.0 0.0 -7.101745248689e-04 
-1.306990612628e-03 5.041978193775e-04 0.0 
5.041978193775e-04 8.672501482610e-03 0.0 
0.0 0.0 -1.322334986692e-03 
-9.943643695485e-04 3.416073873728e-04 0.0 
3.416073873728e-04 5.867113055505e-03 0.0 
0.0 0.0 -8.810748613436e-04 
-9.323244271653e-04 9.613325556177e-05 0.0 
9.613325556177e-05 5.115490294310e-03 0.0 
0.0 0.0 -7.763708431881e-04 
-1.001832059306e-04 5.266866745758e-04 0.0 
5.266866745758e-04 2.724835239940e-03 0.0 
0.0 0.0 -5.843899590101e-04 
-5.790296725673e-04 -5.326125379184e-04 0.0 
-5.326125379184e-04 1.882091514832e-03 0.0 
0.0 0.0 -3.280768480529e-04 
-8.597084284199e-04 1.491840850699e-04 0.0 
1.491840850699e-04 4.593177939361e-03 0.0 
0.0 0.0 -7.069124235890e-04 
-4.246089693938e-04 1.428928262105e-03 0.0 
1.428928262105e-03 2.122954743528e-03 0.0 
0.0 0.0 -4.404772202000e-04 
-8.726090169173e-04 -3.101571305491e-05 0.0 
-3.101571305491e-05 5.309765821533e-03 0.0 
0.0 0.0 -7.696142143080e-04 
-7.647244692160e-05 -1.455292213990e-03 0.0 
-1.455292213990e-03 1.759408115361e-03 0.0 
0.0 0.0 -4.595640944490e-04 
-1.784270519959e-05 6.865399459055e-04 0.0 
6.865399459055e-04 2.226340647437e-03 0.0 
0.0 0.0 -5.202658224677e-04 
-1.156111700983e-03 5.188644452185e-04 0.0 
5.188644452185e-04 7.007873302369e-03 0.0 
0.0 0.0 -1.069052450572e-03 
-3.544111730508e-04 1.143529289652e-03 0.0 
1.143529289652e-03 2.186339618849e-03 0.0 
0.0 0.0 -4.372567615832e-04 
-8.838010647401e-04 5.805967859428e-04 0.0 
5.805967859428e-04 4.846530847442e-03 0.0 
0.0 0.0 -7.640689829422e-04 
-5.498264973309e-04 3.710435615581e-04 0.0 
3.710435615581e-04 5.012164832543e-03 0.0 
0.0 0.0 -9.014246907137e-04 
-6.358980608267e-04 -4.313104688366e-04 0.0 
-4.313104688366e-04 4.627036023584e-03 0.0 
0.0 0.0 -8.035328976187e-04 
-1.261046308643e-03 3.887646222973e-04 0.0 
3.887646222973e-04 8.565225437675e-03 0.0 
0.0 0.0 -1.324762665914e-03 
-7.961969453534e-04 2.495159098011e-04 0.0 
2.495159098011e-04 4.113140991581e-03 0.0 
0.0 0.0 -6.390224077203e-04 
3.053061856643e-04 2.267805296744e-04 0.0 
2.267805296744e-04 1.077273840324e-03 0.0 
0.0 0.0 -4.422638729430e-04 
-5.704666668683e-04 -1.178468115440e-03 0.0 
-1.178468115440e-03 3.201154498828e-03 0.0 
0.0 0.0 -5.691257024010e-04 
-5.951122843918e-04 8.042220484985e-04 0.0 
8.042220484985e-04 2.449547643677e-03 0.0 
0.0 0.0 -4.184705811166e-04 
-5.000320666269e-04 1.320407470952e-03 0.0 
1.320407470952e-03 2.143724443106e-03 0.0 
0.0 0.0 -4.141309408042e-04 
-1.196454144110e-03 1.993133203818e-04 0.0 
1.993133203818e-04 7.413315256709e-03 0.0 
0.0 0.0 -1.123886314723e-03 
-8.766172246535e-04 3.573442557890e-04 0.0 
3.573442557890e-04 5.175634424808e-03 0.0 
0.0 0.0 -8.161479701220e-04 
-7.263474599636e-04 3.526993364896e-04 0.0 
3.526993364896e-04 3.570072660402e-03 0.0 
0.0 0.0 -5.672387349321e-04 
-8.352265289735e-04 5.640695091739e-04 0.0 
5.640695091739e-04 4.443467777814e-03 0.0 
0.0 0.0 -7.023794137935e-04 
-1.258131779879e-03 1.361172827669e-04 0.0 
1.361172827669e-04 8.496942290822e-03 0.0 
0.0 0.0 -1.320675234999e-03 
-1.143815948478e-03 -2.922836025446e-06 0.0 
-2.922836025446e-06 7.935052382313e-03 0.0 
0.0 0.0 -1.258064670439e-03 
-1.185356167607e-03 5.772655224951e-04 0.0 
5.772655224951e-04 7.334174599953e-03 0.0 
0.0 0.0 -1.126590436115e-03 
-1.146342777142e-03 1.032030268662e-04 0.0 
1.032030268662e-04 6.902588040038e-03 0.0 
0.0 0.0 -1.037522200811e-03 
-6.004564824823e-04 -8.741253658515e-04 0.0 
-8.741253658515e-04 4.400886106663e-03 0.0 
0.0 0.0 -7.721428985420e-04 
-6.499827822082e-04 6.306060725170e-04 0.0 
6.306060725170e-04 3.517235102446e-03 0.0 
0.0 0.0 -5.842812205453e-04 
2.208852054121e-04 7.449773440899e-04 0.0 
7.449773440899e-04 1.272300042131e-03 0.0 
0.0 0.0 -4.203166018452e-04 
1.283124150736e-04 5.457702178093e-04 0.0 
5.457702178093e-04 1.800318710438e-03 0.0 
0.0 0.0 -4.843489805398e-04 
-8.229602156181e-04 4.179326389389e-04 0.0 
4.179326389389e-04 4.894594765891e-03 0.0 
0.0 0.0 -7.808727949117e-04 
-5.351512224979e-04 -3.319303625282e-04 0.0 
-3.319303625282e-04 5.022677570586e-03 0.0 
0.0 0.0 -8.900964085843e-04 
-8.296790490015e-04 -7.574227516101e-04 0.0 
-7.574227516101e-04 4.266073095582e-03 0.0 
0.0 0.0 -6.810091006415e-04 
-1.209161835961e-03 5.397487415350e-04 0.0 
5.397487415350e-04 7.456423275886e-03 0.0 
0.0 0.0 -1.134236807130e-03 
2.970140770782e-04 -5.886898203256e-04 0.0 
-5.886898203256e-04 1.178529551260e-03 0.0 
0.0 0.0 -4.395655422792e-04 
-6.321441937111e-04 6.212871376415e-04 0.0 
6.212871376415e-04 4.001931118120e-03 0.0 
0.0 0.0 -6.750378637491e-04 
-8.881105026694e-04 6.325939136900e-04 0.0 
6.325939136900e-04 4.979851951469e-03 0.0 
0.0 0.0 -7.913284153978e-04 
-6.067465934174e-04 6.691797761234e-04 0.0 
6.691797761234e-04 3.597583737962e-03 0.0 
0.0 0.0 -6.122259156574e-04 
-1.324329620218e-03 4.629903675986e-04 0.0 
4.629903675986e-04 8.904888157841e-03 0.0 
0.0 0.0 -1.320088186226e-03 
-1.359586791555e-03 4.788353102242e-04 0.0 
4.788353102242e-04 8.942288232093e-03 0.0 
0.0 0.0 -1.318462653075e-03 
-1.290025244180e-03 1.809732516489e-04 0.0 
1.809732516489e-04 8.380056929833e-03 0.0 
0.0 0.0 -1.256494544188e-03 
-6.742581298534e-04 -7.798202117693e-04 0.0 
-7.798202117693e-04 4.873866166937e-03 0.0 
0.0 0.0 -8.375255977276e-04 
-1.194824314076e-03 4.521929309845e-04 0.0 
4.521929309845e-04 7.360058874814e-03 0.0 
0.0 0.0 -1.112065035246e-03 
-4.430818055785e-04 1.485014206495e-03 0.0 
1.485014206495e-03 1.784679357047e-03 0.0 
0.0 0.0 -3.785953687517e-04 
2.729854799726e-05 3.936097668604e-04 0.0 
3.936097668604e-04 2.328364048534e-03 0.0 
0.0 0.0 -5.483018170244e-04 
5.295881833206e-04 7.121810223511e-04 0.0 
7.121810223511e-04 1.629388308909e-04 0.0 
0.0 0.0 -2.967972918049e-04 
-7.211884972610e-04 4.566068001278e-04 0.0 
4.566068001278e-04 3.698308171073e-03 0.0 
0.0 0.0 -5.936226173563e-04 
-9.121582442551e-04 9.143313993339e-05 0.0 
9.143313993339e-05 5.030258123682e-03 0.0 
0.0 0.0 -7.914980036671e-04 
-1.035929216748e-03 3.563880147614e-04 0.0 
3.563880147614e-04 6.090521981813e-03 0.0 
0.0 0.0 -9.214502702889e-04 
-1.168840555119e-03 -8.744363195648e-05 0.0 
-8.744363195648e-05 8.066384051930e-03 0.0 
0.0 0.0 -1.265403586923e-03 
-1.162609015209e-03 6.330590177409e-04 0.0 
6.330590177409e-04 7.197897661744e-03 0.0 
0.0 0.0 -1.117224974728e-03 
-9.919773035698e-04 4.807053877499e-04 0.0 
4.807053877499e-04 5.626646372679e-03 0.0 
0.0 0.0 -8.687609488834e-04 
-9.791621869581e-04 6.007006909595e-04 0.0 
6.007006909595e-04 5.670050972566e-03 0.0 
0.0 0.0 -8.891947744737e-04 
4.804557488344e-04 9.476988486698e-04 0.0 
9.476988486698e-04 9.767658471986e-05 0.0 
0.0 0.0 -2.477710000947e-04 
-2.208441256582e-04 -6.752013946383e-04 0.0 
-6.752013946383e-04 8.882775518556e-04 0.0 
0.0 0.0 -2.467363499356e-04 
-4.153429420500e-04 1.059032103328e-03 0.0 
1.059032103328e-03 3.417216683434e-03 0.0 
0.0 0.0 -6.594106982652e-04 
-6.669546155335e-04 5.596997560711e-04 0.0 
5.596997560711e-04 4.411048143991e-03 0.0 
0.0 0.0 -7.376142925499e-04 
-4.466823138591e-04 6.032870064143e-04 0.0 
6.032870064143e-04 3.840807050757e-03 0.0 
0.0 0.0 -6.931905564144e-04 
6.417191678250e-05 8.603242808997e-04 0.0 
8.603242808997e-04 4.417253736716e-04 0.0 
0.0 0.0 -2.168131244803e-04 
-9.528466809374e-04 9.473419018348e-05 0.0 
9.473419018348e-05 5.427141204722e-03 0.0 
0.0 0.0 -8.462285223656e-04 
-5.049741343807e-04 -8.812005228938e-04 0.0 
-8.812005228938e-04 1.770302560701e-03 0.0 
0.0 0.0 -2.972104253142e-04 
-2.017300964170e-04 1.588765395916e-03 0.0 
1.588765395916e-03 1.677129549565e-03 0.0 
0.0 0.0 -4.314049239902e-04 
-1.341153861134e-03 -7.479496163087e-05 0.0 
-7.479496163087e-05 8.257374884626e-03 0.0 
0.0 0.0 -1.341153861134e-03 
-6.757643640114e-04 6.444207577368e-05 0.0 
6.444207577368e-05 5.692433792017e-03 0.0 
0.0 0.0 -9.717687626070e-04 
-9.402714050330e-04 4.164454812488e-04 0.0 
4.164454812488e-04 5.059115903313e-03 0.0 
0.0 0.0 -7.790007367612e-04 
-1.996455075654e-04 1.120227626459e-04 0.0 
1.120227626459e-04 1.363834974093e-03 0.0 
0.0 0.0 -2.176483604987e-04 
-7.316139978666e-04 8.725598858698e-04 0.0 
8.725598858698e-04 4.250250205740e-03 0.0 
0.0 0.0 -7.126719623954e-04 
-3.416312472277e-04 6.071238986655e-04 0.0 
6.071238986655e-04 3.482434275960e-03 0.0 
0.0 0.0 -6.569982659716e-04 
-1.010067214733e-03 1.858710736428e-04 0.0 
1.858710736428e-04 5.842461225268e-03 0.0 
0.0 0.0 -8.940630110299e-04 
-1.333890643160e-03 5.791621130684e-04 0.0 
5.791621130684e-04 8.805315107962e-03 0.0 
0.0 0.0 -1.323832587333e-03 
-8.707338927728e-04 5.246940464045e-04 0.0 
5.246940464045e-04 4.704277736275e-03 0.0 
0.0 0.0 -7.366500567795e-04 
-9.271217876491e-04 3.071330387493e-04 0.0 
3.071330387493e-04 5.453258810761e-03 0.0 
0.0 0.0 -8.513774089097e-04 
-8.050460189817e-04 -4.209308180889e-04 0.0 
-4.209308180889e-04 4.202095383354e-03 0.0 
0.0 0.0 -6.837695253815e-04 
-1.187192617587e-03 5.026303496447e-04 0.0 
5.026303496447e-04 7.280339694805e-03 0.0 
0.0 0.0 -1.105258581891e-03 
-7.119244178252e-04 -3.438823351423e-04 0.0 
-3.438823351423e-04 5.099696206057e-03 0.0 
0.0 0.0 -8.691653677727e-04 
-1.316090240167e-03 5.389588138701e-04 0.0 
5.389588138701e-04 8.780826577697e-03 0.0 
0.0 0.0 -1.322174839672e-03 
-1.340103718614e-03 4.728281156223e-04 0.0 
4.728281156223e-04 8.628873091994e-03 0.0 
0.0 0.0 -1.340103718614e-03 
-1.341028575724e-03 3.568557509173e-04 0.0 
3.568557509173e-04 8.716110367900e-03 0.0 
0.0 0.0 -1.341028575724e-03 
-1.338044909071e-03 4.168385009661e-04 0.0 
4.168385009661e-04 8.630348436964e-03 0.0 
0.0 0.0 -1.338044909071e-03 
-1.019072052988e-03 5.681193801066e-04 0.0 
5.681193801066e-04 5.940654999783e-03 0.0 
0.0 0.0 -9.244680137507e-04 
-1.198675717763e-03 1.360258094172e-04 0.0 
1.360258094172e-04 7.335887667339e-03 0.0 
0.0 0.0 -1.103002250422e-03 
-1.198479165231e-03 6.200957679300e-04 0.0 
6.200957679300e-04 7.509008113829e-03 0.0 
0.0 0.0 -1.155914796392e-03 
-6.394343852437e-04 1.004430984718e-03 0.0 
1.004430984718e-03 3.542163334784e-03 0.0 
0.0 0.0 -6.147330147620e-04 
-6.675475430971e-04 9.277672711453e-04 0.0 
9.277672711453e-04 3.456421744926e-03 0.0 
0.0 0.0 -5.872917534094e-04 
-8.247859078912e-04 -6.922016390902e-04 0.0 
-6.922016390902e-04 4.077408079033e-03 0.0 
0.0 0.0 -6.436934073013e-04 
-1.217910302125e-03 1.553299834490e-04 0.0 
1.553299834490e-04 7.518311075799e-03 0.0 
0.0 0.0 -1.131852245309e-03 
-1.311936692750e-03 5.307865598084e-04 0.0 
5.307865598084e-04 8.695029491200e-03 0.0 
0.0 0.0 -1.322440284024e-03 
-1.214240069695e-03 4.882095922708e-04 0.0 
4.882095922708e-04 7.535305569948e-03 0.0 
0.0 0.0 -1.141180801552e-03 
-5.747438901480e-04 1.003283814169e-04 0.0 
1.003283814169e-04 5.194431951746e-03 0.0 
0.0 0.0 -9.063345769726e-04 
-1.227388762698e-03 1.265853976664e-04 0.0 
1.265853976664e-04 7.592479060989e-03 0.0 
0.0 0.0 -1.138864741757e-03 
-8.838474672112e-04 3.395282227197e-04 0.0 
3.395282227197e-04 6.126324240512e-03 0.0 
0.0 0.0 -9.903545940741e-04 
-6.357684789507e-04 9.653705253964e-04 0.0 
9.653705253964e-04 4.033111277517e-03 0.0 
0.0 0.0 -7.049739924763e-04 
-7.219643329354e-04 7.270984363887e-04 0.0 
7.270984363887e-04 3.640512255542e-03 0.0 
0.0 0.0 -5.967387615352e-04 
1.271449544166e-04 1.530874377193e-03 0.0 
1.530874377193e-03 7.660888374693e-04 0.0 
0.0 0.0 -3.828144822368e-04 
-1.311008186282e-03 3.440606395408e-04 0.0 
3.440606395408e-04 8.440809804770e-03 0.0 
0.0 0.0 -1.282213402295e-03 
-5.754210014705e-04 1.101723762793e-03 0.0 
1.101723762793e-03 3.231346314138e-03 0.0 
0.0 0.0 -5.792479259103e-04 
-1.176826657867e-03 4.517387013496e-04 0.0 
4.517387013496e-04 7.668341186852e-03 0.0 
0.0 0.0 -1.230767059693e-03 
-8.116549819174e-04 -3.660838800677e-04 0.0 
-3.660838800677e-04 4.013024169842e-03 0.0 
0.0 0.0 -6.465396845166e-04 
-1.917368362491e-04 -1.670915138255e-03 0.0 
-1.670915138255e-03 1.673857297907e-03 0.0 
0.0 0.0 -4.222915044375e-04 
-1.218810452461e-03 -6.182829621563e-05 0.0 
-6.182829621563e-05 7.834853919449e-03 0.0 
0.0 0.0 -1.284312900220e-03 
-3.227899414303e-04 1.463352553329e-03 0.0 
1.463352553329e-03 2.102017459643e-03 0.0 
0.0 0.0 -4.669824892858e-04 
-1.341987455608e-03 4.935381790995e-04 0.0 
4.935381790995e-04 8.595598521703e-03 0.0 
0.0 0.0 -1.341987455608e-03 
-1.324901016307e-03 3.587683922887e-04 0.0 
3.587683922887e-04 8.344464300183e-03 0.0 
0.0 0.0 -1.282654109251e-03 
-8.850522684098e-04 7.214064072268e-04 0.0 
7.214064072268e-04 5.245748206413e-03 0.0 
0.0 0.0 -8.462542048450e-04 
-8.057611890132e-05 -1.710152855484e-04 0.0 
-1.710152855484e-04 3.103213667799e-04 0.0 
0.0 0.0 -9.846224909082e-05 
-1.340954708392e-03 5.230440169069e-04 0.0 
5.230440169069e-04 8.529172830874e-03 0.0 
0.0 0.0 -1.340954708391e-03 
-1.218199846518e-03 4.994387147231e-06 0.0 
4.994387147231e-06 7.808383985296e-03 0.0 
0.0 0.0 -1.284661450484e-03 
-4.838292351495e-05 -1.134502527952e-03 0.0 
-1.134502527952e-03 1.589566893982e-03 0.0 
0.0 0.0 -4.253660281670e-04 
-6.012411031331e-04 -5.471211505199e-06 0.0 
-5.471211505199e-06 5.388600975266e-03 0.0 
0.0 0.0 -9.353130867196e-04 
-1.284222320321e-03 3.331079903689e-04 0.0 
3.331079903689e-04 8.551492227036e-03 0.0 
0.0 0.0 -1.323014926434e-03 
0.0 0.0 0.0 
0.0 0.0 0.0 
0.0 0.0 0.0 
-6.023691884067e-04 1.029224405588e-03 0.0 
1.029224405588e-03 3.627406800571e-03 0.0 
0.0 0.0 -6.425506931502e-04 
-9.361925531562e-04 6.770287321789e-04 0.0 
6.770287321789e-04 5.532046743254e-03 0.0 
0.0 0.0 -8.816033652580e-04 
-8.298014528126e-04 7.768529914015e-04 0.0 
7.768529914015e-04 4.954128457589e-03 0.0 
0.0 0.0 -8.109139232486e-04 
-8.897770840316e-04 6.877783995216e-04 0.0 
6.877783995216e-04 5.117343312454e-03 0.0 
0.0 0.0 -8.186613860469e-04 
-1.469792992645e-04 1.697477444243e-03 0.0 
1.697477444243e-03 1.268784698810e-03 0.0 
0.0 0.0 -3.960833248805e-04 
-1.341360672448e-03 5.109795992512e-04 0.0 
5.109795992512e-04 8.445730971081e-03 0.0 
0.0 0.0 -1.341360672448e-03 
-7.719693981543e-05 2.760009161414e-04 0.0 
2.760009161414e-04 2.850848330235e-03 0.0 
0.0 0.0 -6.123778370825e-04 
1.753729935007e-04 1.501404700023e-05 0.0 
1.501404700023e-05 -5.243892185942e-05 0.0 
0.0 0.0 -5.268603070342e-05 
-1.302465582654e-03 -2.496096405259e-04 0.0 
-2.496096405259e-04 8.365120953103e-03 0.0 
0.0 0.0 -1.272354826527e-03 
-1.485058388714e-04 -2.923397016935e-04 0.0 
-2.923397016935e-04 5.768067641682e-04 0.0 
0.0 0.0 -1.019437782286e-04 
-7.982614346128e-04 6.111031080938e-04 0.0 
6.111031080938e-04 4.181968739078e-03 0.0 
0.0 0.0 -6.678899790658e-04 
2.246133581427e-04 -6.808997986787e-04 0.0 
-6.808997986787e-04 1.445508393424e-04 0.0 
0.0 0.0 -1.582132274936e-04 
-8.489872345980e-04 4.667487785959e-04 0.0 
4.667487785959e-04 4.536973076965e-03 0.0 
0.0 0.0 -7.094882865497e-04 
-1.255369180247e-03 1.858612183135e-05 0.0 
1.858612183135e-05 8.476379217670e-03 0.0 
0.0 0.0 -1.321823097425e-03 
-1.341255375116e-03 4.796779653900e-04 0.0 
4.796779653900e-04 8.398188684786e-03 0.0 
0.0 0.0 -1.341255375116e-03 
-9.721290586981e-04 5.581628762271e-04 0.0 
5.581628762271e-04 5.522703984207e-03 0.0 
0.0 0.0 -8.613793510407e-04 
1.600321873614e-04 -6.162664284866e-04 0.0 
-6.162664284866e-04 1.802849776087e-04 0.0 
0.0 0.0 -1.458502135586e-04 
3.109225001714e-06 1.120621869489e-06 0.0 
1.120621869489e-06 -8.787071989509e-07 0.0 
0.0 0.0 -9.559362011844e-07 
1.535176122475e-04 -1.236399581379e-03 0.0 
-1.236399581379e-03 5.447751134409e-04 0.0 
0.0 0.0 -2.992683110093e-04 
-1.116873810569e-03 -5.374998991881e-04 0.0 
-5.374998991881e-04 7.110713391746e-03 0.0 
0.0 0.0 -1.121833217354e-03 
-9.101085565852e-04 1.581356444995e-04 0.0 
1.581356444995e-04 5.291968435283e-03 0.0 
0.0 0.0 -7.704300227928e-04 
-9.627171074924e-04 3.587877174801e-05 0.0 
3.587877174801e-05 5.332601127641e-03 0.0 
0.0 0.0 -8.109332722942e-04 
-1.342502730507e-03 4.025374877915e-04 0.0 
4.025374877915e-04 8.333596175980e-03 0.0 
0.0 0.0 -1.342502730507e-03 
-9.258687689408e-04 6.411213788910e-05 0.0 
6.411213788910e-05 5.298171403091e-03 0.0 
0.0 0.0 -7.720444664677e-04 
-1.356038484680e-03 3.810509766439e-04 0.0 
3.810509766439e-04 8.994012411350e-03 0.0 
0.0 0.0 -1.322852565091e-03 
-9.095582700075e-04 6.913502515422e-04 0.0 
6.913502515422e-04 6.199031272495e-03 0.0 
0.0 0.0 -1.020998643257e-03 
-1.011415993933e-03 3.149863478337e-04 0.0 
3.149863478337e-04 5.896378527379e-03 0.0 
0.0 0.0 -8.907448815977e-04 
-5.714615022677e-04 1.156558804127e-03 0.0 
1.156558804127e-03 2.460117787699e-03 0.0 
0.0 0.0 -4.477608806526e-04 
-6.254234584821e-04 4.541246643039e-04 0.0 
4.541246643039e-04 5.320880420055e-03 0.0 
0.0 0.0 -9.378661514434e-04 
3.838669366307e-04 1.236207229742e-03 0.0 
1.236207229742e-03 2.839536722242e-04 0.0 
0.0 0.0 -2.862088323664e-04 
-1.340754991027e-03 2.766872434976e-04 0.0 
2.766872434976e-04 8.283487658048e-03 0.0 
0.0 0.0 -1.340754991027e-03 
-1.339984467612e-03 4.682059719065e-04 0.0 
4.682059719065e-04 8.622431533437e-03 0.0 
0.0 0.0 -1.339984467612e-03 
-1.340417744004e-03 3.687782300389e-04 0.0 
3.687782300389e-04 8.691962583590e-03 0.0 
0.0 0.0 -1.340417744004e-03 
-7.614631425941e-04 -7.600693639472e-04 0.0 
-7.600693639472e-04 5.166067953467e-03 0.0 
0.0 0.0 -8.666500598261e-04 
-8.083534389449e-04 -6.157792834396e-04 0.0 
-6.157792834396e-04 3.875634950425e-03 0.0 
0.0 0.0 -6.062238016986e-04 
-5.875577080076e-04 6.263804956418e-04 0.0 
6.263804956418e-04 4.098789747432e-03 0.0 
0.0 0.0 -7.021192356133e-04 
-7.972896345738e-04 -3.252844081748e-04 0.0 
-3.252844081748e-04 5.374062371917e-03 0.0 
0.0 0.0 -8.981573260837e-04 
-1.339627896631e-03 1.538435656171e-04 0.0 
1.538435656171e-04 8.249387984378e-03 0.0 
0.0 0.0 -1.339627896631e-03 
-7.499431316127e-05 1.153135812952e-03 0.0 
1.153135812952e-03 1.745463721331e-03 0.0 
0.0 0.0 -4.287941800800e-04 
9.963389295364e-05 -4.974640475465e-04 0.0 
-4.974640475465e-04 1.806583108532e-03 0.0 
0.0 0.0 -4.991860405784e-04 
-4.325429609303e-05 -6.957715566116e-04 0.0 
-6.957715566116e-04 2.198402972482e-03 0.0 
0.0 0.0 -5.272458293186e-04 
-1.040852931917e-03 3.039409917234e-04 0.0 
3.039409917234e-04 6.156930146379e-03 0.0 
0.0 0.0 -9.279583942086e-04 
-1.296158163173e-03 -2.117115631842e-04 0.0 
-2.117115631842e-04 8.526713660580e-03 0.0 
0.0 0.0 -1.323537156312e-03 
5.620572206728e-05 -9.064776901539e-04 0.0 
-9.064776901539e-04 4.833799193028e-04 0.0 
0.0 0.0 -2.312509891586e-04 
-1.340775759057e-03 -3.546022348328e-06 0.0 
-3.546022348328e-06 8.220355043040e-03 0.0 
0.0 0.0 -1.340775759057e-03 
-1.115561951243e-04 -9.424028116119e-04 0.0 
-9.424028116119e-04 2.079879554815e-03 0.0 
0.0 0.0 -4.905422085546e-04 
-1.342877878941e-03 5.106164496302e-04 0.0 
5.106164496302e-04 8.578886692927e-03 0.0 
0.0 0.0 -1.342877878941e-03 
-1.213674372651e-03 2.426946528992e-04 0.0 
2.426946528992e-04 7.585431715108e-03 0.0 
0.0 0.0 -1.152765850879e-03 
7.551303923517e-04 -3.431961155864e-05 0.0 
-3.431961155864e-05 -8.356761588733e-06 0.0 
0.0 0.0 -1.964897908492e-04 
-5.576622204016e-04 1.038766121166e-03 0.0 
1.038766121166e-03 3.693734829533e-03 0.0 
0.0 0.0 -6.690559060524e-04 
-1.231945608432e-03 6.630499771306e-05 0.0 
6.630499771306e-05 7.672705385687e-03 0.0 
0.0 0.0 -1.146019594970e-03 
-1.341220131281e-03 5.159350734491e-04 0.0 
5.159350734491e-04 8.502743697499e-03 0.0 
0.0 0.0 -1.341220131281e-03 
-1.018091222593e-03 2.268797553762e-04 0.0 
2.268797553762e-04 5.997567393014e-03 0.0 
0.0 0.0 -9.220067723808e-04 
-9.140544266384e-04 6.590381545290e-04 0.0 
6.590381545290e-04 6.350398110146e-03 0.0 
0.0 0.0 -1.049000704964e-03 
1.948485511646e-04 1.206910249746e-03 0.0 
1.206910249746e-03 4.719329916516e-04 0.0 
0.0 0.0 -2.857635183498e-04 
-1.092933677572e-03 -5.430090234950e-06 0.0 
-5.430090234950e-06 7.417148133219e-03 0.0 
0.0 0.0 -1.228682347183e-03 
-2.597655749325e-04 -9.580958323714e-04 0.0 
-9.580958323714e-04 2.468405464320e-03 0.0 
0.0 0.0 -5.184025592846e-04 
-1.467448334793e-04 -1.253609516085e-03 0.0 
-1.253609516085e-03 2.277465230796e-03 0.0 
0.0 0.0 -5.242929400402e-04 
8.350711239017e-05 -5.741871043008e-04 0.0 
-5.741871043008e-04 2.364507936714e-04 0.0 
0.0 0.0 -1.371248168835e-04 
-1.341079611575e-03 4.984530224516e-04 0.0 
4.984530224516e-04 8.418558490732e-03 0.0 
0.0 0.0 -1.341079611575e-03 
3.309852724411e-04 1.022663251937e-03 0.0 
1.022663251937e-03 7.457111261596e-04 0.0 
0.0 0.0 -3.670041082731e-04 
-9.538216450079e-04 -4.415701274725e-04 0.0 
-4.415701274725e-04 6.798030040948e-03 0.0 
0.0 0.0 -1.110501492391e-03 
-9.815143922996e-04 -1.301923920288e-04 0.0 
-1.301923920288e-04 5.716261133104e-03 0.0 
0.0 0.0 -8.555322119248e-04 
-5.211778943541e-04 -1.357561140200e-03 0.0 
-1.357561140200e-03 2.381396269316e-03 0.0 
0.0 0.0 -4.411586999297e-04 
5.027865284565e-06 -1.162974144005e-03 0.0 
-1.162974144005e-03 1.893137919142e-03 0.0 
0.0 0.0 -4.964677435772e-04 
-9.740976170288e-04 2.668400150695e-04 0.0 
2.668400150695e-04 5.727433876448e-03 0.0 
0.0 0.0 -8.867075537039e-04 
-1.342259935407e-03 3.249478019742e-04 0.0 
3.249478019742e-04 8.304746317588e-03 0.0 
0.0 0.0 -1.342259935407e-03 
-8.513383339797e-04 -2.155531084130e-04 0.0 
-2.155531084130e-04 4.042684079104e-03 0.0 
0.0 0.0 -6.378868265889e-04 
-8.326579327741e-04 -6.269168235212e-04 0.0 
-6.269168235212e-04 5.839362625743e-03 0.0 
0.0 0.0 -9.693340058278e-04 
-7.491524898005e-04 8.473182538136e-04 0.0 
8.473182538136e-04 4.765927930056e-03 0.0 
0.0 0.0 -8.030799362305e-04 
-5.836032186753e-04 -5.383312615796e-04 0.0 
-5.383312615796e-04 5.022073810354e-03 0.0 
0.0 0.0 -8.811160271665e-04 
4.293152286994e-05 -8.173969837308e-04 0.0 
-8.173969837308e-04 2.098601697323e-03 0.0 
0.0 0.0 -5.326451291888e-04 
-7.517931783722e-04 -6.967384815080e-04 0.0 
-6.967384815080e-04 5.353981326588e-03 0.0 
0.0 0.0 -9.031726653527e-04 
-7.384492594484e-04 4.981620025079e-04 0.0 
4.981620025079e-04 4.715692557206e-03 0.0 
0.0 0.0 -7.729461360948e-04 
-9.594660891244e-04 3.310922572756e-04 0.0 
3.310922572756e-04 6.288208991268e-03 0.0 
0.0 0.0 -9.982497011217e-04 
-7.260155598219e-04 4.211913378779e-04 0.0 
4.211913378779e-04 5.817009197579e-03 0.0 
0.0 0.0 -1.003134534203e-03 
-6.776109950317e-04 9.016603010913e-04 0.0 
9.016603010913e-04 4.450317334473e-03 0.0 
0.0 0.0 -7.676694601592e-04 
-7.429113511031e-04 -5.174574473206e-04 0.0 
-5.174574473206e-04 3.948133648233e-03 0.0 
0.0 0.0 -6.551190094499e-04 
-2.218900255169e-04 1.098460281572e-03 0.0 
1.098460281572e-03 2.169381084645e-03 0.0 
0.0 0.0 -4.640097282922e-04 
-8.062369115313e-04 -2.975304159245e-04 0.0 
-2.975304159245e-04 3.811084005570e-03 0.0 
0.0 0.0 -6.091269606258e-04 
-8.824461864644e-04 3.062506020875e-04 0.0 
3.062506020875e-04 6.271794679198e-03 0.0 
0.0 0.0 -1.018204129641e-03 
-4.460788929649e-04 4.040748578588e-04 0.0 
4.040748578588e-04 4.503525698480e-03 0.0 
0.0 0.0 -8.365169925761e-04 
-1.261002707828e-03 -7.504870971913e-05 0.0 
-7.504870971913e-05 8.505176480558e-03 0.0 
0.0 0.0 -1.321929620191e-03 
-1.247677519614e-03 1.094732648068e-04 0.0 
1.094732648068e-04 7.850453942976e-03 0.0 
0.0 0.0 -1.174325249119e-03 
-5.404813862772e-04 -9.466285983316e-04 0.0 
-9.466285983316e-04 2.223885193950e-03 0.0 
0.0 0.0 -4.069995479128e-04 
-1.341047338368e-03 7.540167646977e-05 0.0 
7.540167646977e-05 8.197352777791e-03 0.0 
0.0 0.0 -1.341047338368e-03 
-1.130691151971e-03 -1.784363264905e-05 0.0 
-1.784363264905e-05 8.053842301100e-03 0.0 
0.0 0.0 -1.266414110344e-03 
-4.715184922734e-04 9.294387903624e-04 0.0 
9.294387903624e-04 3.876101003561e-03 0.0 
0.0 0.0 -7.237787631415e-04 
3.035840363915e-05 -4.057342954642e-04 0.0 
-4.057342954642e-04 2.137280708151e-04 0.0 
0.0 0.0 -1.046084890518e-04 
-1.265736625837e-03 -2.342234423567e-04 0.0 
-2.342234423567e-04 8.560274388960e-03 0.0 
0.0 0.0 -1.323469717371e-03 
-1.248103745975e-03 1.754263225543e-04 0.0 
1.754263225543e-04 7.767855351365e-03 0.0 
0.0 0.0 -1.167157861819e-03 
-2.143426304924e-04 -1.125447243117e-03 0.0 
-1.125447243117e-03 2.012406359622e-03 0.0 
0.0 0.0 -4.535238702637e-04 
-1.341709311525e-03 -1.537021795728e-04 0.0 
-1.537021795728e-04 8.247140811223e-03 0.0 
0.0 0.0 -1.341709311524e-03 
-8.340634901946e-04 -6.821178693031e-04 0.0 
-6.821178693031e-04 5.639816405277e-03 0.0 
0.0 0.0 -9.325599965574e-04 
-7.159156796781e-04 8.199594821406e-04 0.0 
8.199594821406e-04 3.747642167749e-03 0.0 
0.0 0.0 -6.229492605273e-04 
-9.690599654105e-04 4.302709909689e-04 0.0 
4.302709909689e-04 5.467189617691e-03 0.0 
0.0 0.0 -8.408860858065e-04 
-3.919357097026e-04 6.068237325882e-05 0.0 
6.068237325882e-05 4.381455962217e-03 0.0 
0.0 0.0 -8.054665293395e-04 
-6.923438558252e-04 -8.520265330426e-04 0.0 
-8.520265330426e-04 4.695093275442e-03 0.0 
0.0 0.0 -8.008683130455e-04 
-6.056515233478e-04 -4.164522829612e-04 0.0 
-4.164522829612e-04 5.267235237804e-03 0.0 
0.0 0.0 -9.181754741429e-04 
-1.093523269899e-03 7.798311719689e-05 0.0 
7.798311719689e-05 6.464920900132e-03 0.0 
0.0 0.0 -9.721028620036e-04 
-8.031200443167e-04 6.781379836070e-04 0.0 
6.781379836070e-04 4.309322447368e-03 0.0 
0.0 0.0 -6.945885048819e-04 
-7.991042375162e-04 4.855628797920e-04 0.0 
4.855628797920e-04 6.126908297853e-03 0.0 
0.0 0.0 -1.039409037654e-03 
-9.955657075652e-04 -4.803366383392e-06 0.0 
-4.803366383392e-06 6.069270927012e-03 0.0 
0.0 0.0 -8.839498032872e-04 
-7.742968154824e-04 -8.517460638285e-04 0.0 
-8.517460638285e-04 4.014337168077e-03 0.0 
0.0 0.0 -6.521967345917e-04 
-6.549358325978e-04 3.442178195061e-04 0.0 
3.442178195061e-04 5.516212137862e-03 0.0 
0.0 0.0 -9.664699797409e-04 
-3.659361313914e-04 -1.389777863593e-03 0.0 
-1.389777863593e-03 2.536314572587e-03 0.0 
0.0 0.0 -5.155438399970e-04 
-1.017459211522e-03 -2.035278755390e-04 0.0 
-2.035278755390e-04 5.749338419273e-03 0.0 
0.0 0.0 -9.093720595694e-04 
2.256137386907e-04 -1.163159502201e-04 0.0 
-1.163159502201e-04 1.137935582799e-04 0.0 
0.0 0.0 -4.585464485956e-05 
-3.462420398140e-04 1.018466210769e-03 0.0 
1.018466210769e-03 2.570297332312e-03 0.0 
0.0 0.0 -4.997308803768e-04 
-2.322903734365e-04 -1.457188189013e-03 0.0 
-1.457188189013e-03 2.158535862862e-03 0.0 
0.0 0.0 -4.875765080988e-04 
-8.614851687078e-04 -3.337722832802e-04 0.0 
-3.337722832802e-04 4.446512628758e-03 0.0 
0.0 0.0 -7.126562430121e-04 
-5.635163873739e-04 9.119017880977e-04 0.0 
9.119017880977e-04 4.220442908307e-03 0.0 
0.0 0.0 -7.595228636782e-04 
-7.920931595490e-04 -2.649669687123e-04 0.0 
-2.649669687123e-04 5.573841345894e-03 0.0 
0.0 0.0 -9.350600278798e-04 
-1.013052504013e-03 -8.823570252137e-05 0.0 
-8.823570252137e-05 6.008966805305e-03 0.0 
0.0 0.0 -8.962969588583e-04 
-3.359179918489e-04 -1.568493616469e-03 0.0 
-1.568493616469e-03 2.089144442065e-03 0.0 
0.0 0.0 -4.505554202764e-04 
-1.341827844788e-03 -1.871667057256e-04 0.0 
-1.871667057256e-04 8.296019085882e-03 0.0 
0.0 0.0 -1.341827844788e-03 
-9.219930325587e-04 3.393896039245e-04 0.0 
3.393896039245e-04 5.591653643792e-03 0.0 
0.0 0.0 -8.789935771182e-04 
-9.115582794458e-04 -2.493035172872e-04 0.0 
-2.493035172872e-04 4.677595953812e-03 0.0 
0.0 0.0 -7.413896480605e-04 
-8.652400327000e-04 3.890590998056e-04 0.0 
3.890590998056e-04 5.305115327796e-03 0.0 
0.0 0.0 -8.436662038215e-04 
-8.817818309206e-04 -6.648690080579e-04 0.0 
-6.648690080579e-04 4.510392914982e-03 0.0 
0.0 0.0 -7.098625721847e-04 
0.0 0.0 0.0 
0.0 0.0 0.0 
0.0 0.0 0.0 
-1.015724792628e-03 8.235652516452e-05 0.0 
8.235652516452e-05 5.775865579893e-03 0.0 
0.0 0.0 -8.733545218784e-04 
-8.401387806922e-04 6.123016035238e-05 0.0 
6.123016035238e-05 3.850164849745e-03 0.0 
0.0 0.0 -5.956302995864e-04 
2.119608216236e-04 1.827144702945e-05 0.0 
1.827144702945e-05 -6.337242555222e-05 0.0 
0.0 0.0 -6.368074117344e-05 
-9.031369501237e-04 -1.865236162329e-04 0.0 
-1.865236162329e-04 4.464828183770e-03 0.0 
0.0 0.0 -7.041275119738e-04 
-8.760607814048e-04 -2.015865901798e-04 0.0 
-2.015865901798e-04 6.047567037496e-03 0.0 
0.0 0.0 -1.001254648526e-03 
-1.205696135514e-03 2.785240829935e-04 0.0 
2.785240829935e-04 7.656838420364e-03 0.0 
0.0 0.0 -1.146946825052e-03 
-5.022948978825e-04 -4.626796724593e-04 0.0 
-4.626796724593e-04 4.761985454285e-03 0.0 
0.0 0.0 -8.532270185794e-04 
-5.545620008577e-04 -7.574531854601e-05 0.0 
-7.574531854601e-05 4.939516714005e-03 0.0 
0.0 0.0 -8.841559964380e-04 
-9.029537400273e-04 7.141549008008e-05 0.0 
7.141549008008e-05 4.945239925053e-03 0.0 
0.0 0.0 -7.495231765994e-04 
-8.844827213453e-04 6.847338950965e-05 0.0 
6.847338950965e-05 4.625730514937e-03 0.0 
0.0 0.0 -7.312625299844e-04 
-1.286320179804e-03 2.788583147739e-04 0.0 
2.788583147739e-04 8.406193484283e-03 0.0 
0.0 0.0 -1.286111585339e-03 
-8.045597696771e-04 4.385655444655e-04 0.0 
4.385655444655e-04 5.012857215938e-03 0.0 
0.0 0.0 -8.082854548548e-04 
6.621891051064e-04 -1.711434374491e-05 0.0 
-1.711434374491e-05 -4.360569155907e-05 0.0 
0.0 0.0 -9.362473743294e-05 
-4.298982998579e-04 -6.269550114416e-04 0.0 
-6.269550114416e-04 1.549337747066e-03 0.0 
0.0 0.0 -2.569639750501e-04 
-5.557804512661e-05 -2.649152406900e-04 0.0 
-2.649152406900e-04 2.900758507811e-04 0.0 
0.0 0.0 -1.004990595662e-04 
-6.031978273067e-04 -1.007320967644e-03 0.0 
-1.007320967644e-03 2.552633295107e-03 0.0 
0.0 0.0 -4.284133232656e-04 
-1.143923933864e-03 2.767605230601e-04 0.0 
2.767605230601e-04 7.311015416728e-03 0.0 
0.0 0.0 -1.134523071099e-03 
-1.214790267536e-03 -1.094816465951e-04 0.0 
-1.094816465951e-04 7.712260942966e-03 0.0 
0.0 0.0 -1.144649651339e-03 
-1.087508141976e-03 -1.587001134092e-04 0.0 
-1.587001134092e-04 6.822768700719e-03 0.0 
0.0 0.0 -1.087427768671e-03 
-6.685965332887e-04 -7.845956287838e-04 0.0 
-7.845956287838e-04 2.990542570396e-03 0.0 
0.0 0.0 -4.827803379924e-04 
-1.041668217069e-03 -5.600095855462e-04 0.0 
-5.600095855462e-04 5.820984951314e-03 0.0 
0.0 0.0 -9.063168105749e-04 
-1.002226704218e-03 -4.489969858519e-05 0.0 
-4.489969858519e-05 6.971386371707e-03 0.0 
0.0 0.0 -1.142106164841e-03 
5.911862038656e-04 5.961670165533e-05 0.0 
5.961670165533e-05 -1.764561884350e-04 0.0 
0.0 0.0 -1.777414351845e-04 
-8.306874199400e-04 -2.997045909462e-04 0.0 
-2.997045909462e-04 3.873272421704e-03 0.0 
0.0 0.0 -5.942115541274e-04 
-6.956533125248e-04 1.124846661467e-04 0.0 
1.124846661467e-04 3.135833764917e-03 0.0 
0.0 0.0 -4.980019828625e-04 
-1.307918774452e-03 -2.672149718263e-04 0.0 
-2.672149718263e-04 8.583156667318e-03 0.0 
0.0 0.0 -1.322396863610e-03 
-1.341641872583e-03 -2.574400453278e-04 0.0 
-2.574400453278e-04 8.313092341430e-03 0.0 
0.0 0.0 -1.341641872583e-03 
-9.100844780323e-04 -2.535656636935e-04 0.0 
-2.535656636935e-04 4.283598396940e-03 0.0 
0.0 0.0 -6.580288049735e-04 
-9.226849417219e-04 -5.822088138657e-04 0.0 
-5.822088138657e-04 4.742725005737e-03 0.0 
0.0 0.0 -7.385580096348e-04 
-7.259593438489e-04 -4.081287369355e-04 0.0 
-4.081287369355e-04 4.909588067259e-03 0.0 
0.0 0.0 -8.323457052078e-04 
-1.025384663725e-03 -1.558037465637e-06 0.0 
-1.558037465637e-06 7.232536331843e-03 0.0 
0.0 0.0 -1.177278300149e-03 
-5.185769804223e-04 -3.082242823645e-04 0.0 
-3.082242823645e-04 1.649765607481e-03 0.0 
0.0 0.0 -2.880367495917e-04 
-9.770068768367e-04 -9.822974250100e-05 0.0 
-9.822974250100e-05 6.742502940673e-03 0.0 
0.0 0.0 -1.104707344597e-03 
-8.864038043829e-05 -1.638440655004e-05 0.0 
-1.638440655004e-05 9.863844244365e-04 0.0 
0.0 0.0 -1.612556504808e-04 
-8.754272683905e-04 -6.018300858025e-04 0.0 
-6.018300858025e-04 4.312432546832e-03 0.0 
0.0 0.0 -6.724657308136e-04 
-8.826884309659e-04 -7.176448192389e-04 0.0 
-7.176448192389e-04 4.701849927849e-03 0.0 
0.0 0.0 -7.470513223635e-04 
-3.546308527174e-05 5.679765794383e-06 0.0 
5.679765794383e-06 2.993710717870e-04 0.0 
0.0 0.0 -1.131034227923e-04 
-8.541374211011e-04 1.051307269510e-04 0.0 
1.051307269510e-04 4.063038016891e-03 0.0 
0.0 0.0 -6.267591816330e-04 
-1.242827358992e-03 4.579768759709e-04 0.0 
4.579768759709e-04 7.784562517271e-03 0.0 
0.0 0.0 -1.176862138969e-03 
5.856171802454e-04 8.673890813667e-06 0.0 
8.673890813667e-06 6.976119991761e-06 0.0 
0.0 0.0 -9.786084279852e-05 
-8.702582028195e-04 1.105447853201e-04 0.0 
1.105447853201e-04 4.607072405037e-03 0.0 
0.0 0.0 -7.322753781719e-04 
-8.459002629386e-04 1.198690024363e-04 0.0 
1.198690024363e-04 4.870014320209e-03 0.0 
0.0 0.0 -7.130472889423e-04 
-6.411087712709e-04 -3.059567672411e-04 0.0 
-3.059567672411e-04 5.528224217795e-03 0.0 
0.0 0.0 -9.552000144736e-04 
-6.940260095912e-04 -2.019223501579e-04 0.0 
-2.019223501579e-04 3.181147651246e-03 0.0 
0.0 0.0 -4.943513106837e-04 
-3.551699552598e-04 -1.046898701828e-03 0.0 
-1.046898701828e-03 2.386678131376e-03 0.0 
0.0 0.0 -4.817493388239e-04 
-2.903941216122e-04 1.483074513055e-03 0.0 
1.483074513055e-03 1.457235103792e-03 0.0 
0.0 0.0 -3.398054741319e-04 
-1.199955943827e-03 -1.286515075727e-04 0.0 
-1.286515075727e-04 7.503949585872e-03 0.0 
0.0 0.0 -1.180895453064e-03 
-1.276254635442e-03 4.715115445783e-04 0.0 
4.715115445783e-04 8.059382999082e-03 0.0 
0.0 0.0 -1.286194385238e-03 
-1.186217889961e-03 -6.749121568718e-05 0.0 
-6.749121568718e-05 7.409362913807e-03 0.0 
0.0 0.0 -1.101088927253e-03 
-5.347000365982e-04 9.291634402025e-04 0.0 
9.291634402025e-04 2.503086312716e-03 0.0 
0.0 0.0 -4.457015571677e-04 
-3.190037393042e-04 -1.683187168607e-04 0.0 
-1.683187168607e-04 9.740026393817e-04 0.0 
0.0 0.0 -2.223875638571e-04 
-8.385442436262e-04 2.562372654306e-04 0.0 
2.562372654306e-04 4.497930936177e-03 0.0 
0.0 0.0 -6.999131133628e-04 
-8.425527780140e-04 3.452494000883e-05 0.0 
3.452494000883e-05 4.643700331840e-03 0.0 
0.0 0.0 -7.345111139194e-04 
-8.389403033821e-04 -1.305466340479e-06 0.0 
-1.305466340479e-06 4.908724598573e-03 0.0 
0.0 0.0 -7.144802219087e-04 
2.118993314013e-04 1.507058348733e-05 0.0 
1.507058348733e-05 -6.339593750257e-05 0.0 
0.0 0.0 -6.364431167088e-05 
-5.587289192583e-05 -6.452329894431e-06 0.0 
-6.452329894431e-06 2.977317204857e-04 0.0 
0.0 0.0 -1.036537836685e-04 
-1.659582098733e-04 -6.983629749951e-05 0.0 
-6.983629749951e-05 7.156238265913e-04 0.0 
0.0 0.0 -1.795416262981e-04 
-6.042827533109e-04 -3.178261870528e-04 0.0 
-3.178261870528e-04 2.298196668838e-03 0.0 
0.0 0.0 -3.820941496288e-04 
1.745656339544e-04 -6.881620967810e-06 0.0 
-6.881620967810e-06 5.205015129475e-04 0.0 
0.0 0.0 -1.430998070712e-04 
-9.621077650285e-04 9.743124488288e-05 0.0 
9.743124488288e-05 4.540703172736e-03 0.0 
0.0 0.0 -6.918148876825e-04 
0.0 0.0 0.0 
0.0 0.0 0.0 
0.0 0.0 0.0 
-6.636885702572e-04 -3.632840591834e-04 0.0 
-3.632840591834e-04 2.727769964994e-03 0.0 
0.0 0.0 -4.482372226011e-04 
-1.037073112810e-03 8.416167581821e-05 0.0 
8.416167581821e-05 6.231636848545e-03 0.0 
0.0 0.0 -9.582560723523e-04 
-8.428951159850e-04 8.320649882269e-05 0.0 
8.320649882269e-05 4.895786071823e-03 0.0 
0.0 0.0 -7.120344407548e-04 
-1.176195464104e-03 2.727173431630e-04 0.0 
2.727173431630e-04 7.571205441829e-03 0.0 
0.0 0.0 -1.169483110168e-03 
-8.724458015180e-04 -2.535481835564e-04 0.0 
-2.535481835564e-04 5.840199633402e-03 0.0 
0.0 0.0 -9.641449249716e-04 
-9.956049472303e-04 9.460602026458e-05 0.0 
9.460602026458e-05 5.823804297189e-03 0.0 
0.0 0.0 -8.988447104697e-04 
-7.453270263773e-04 1.666868432523e-04 0.0 
1.666868432523e-04 3.393805001824e-03 0.0 
0.0 0.0 -5.269378630653e-04 
-6.611997545445e-05 -3.806127284770e-05 0.0 
-3.806127284770e-05 9.766559638682e-04 0.0 
0.0 0.0 -1.602995255322e-04 
-1.340974968048e-03 1.475163558745e-04 0.0 
1.475163558745e-04 8.789407210591e-03 0.0 
0.0 0.0 -1.340974968048e-03 
-1.353375445294e-03 1.861681106883e-04 0.0 
1.861681106883e-04 9.067632799309e-03 0.0 
0.0 0.0 -1.320295381545e-03 
-9.653313430370e-04 3.172946590342e-04 0.0 
3.172946590342e-04 5.653212768820e-03 0.0 
0.0 0.0 -8.588387843224e-04 
-8.723549553050e-04 3.791940437681e-05 0.0 
3.791940437681e-05 4.638744233564e-03 0.0 
0.0 0.0 -7.326073368542e-04 
-7.433675000171e-04 -1.881116571238e-04 0.0 
-1.881116571238e-04 3.464526545461e-03 0.0 
0.0 0.0 -5.314511797787e-04 
-1.343039576571e-03 1.116238935560e-04 0.0 
1.116238935560e-04 9.058435864628e-03 0.0 
0.0 0.0 -1.322576402756e-03 
-6.088517818817e-04 -7.427980185432e-04 0.0 
-7.427980185432e-04 2.573085079122e-03 0.0 
0.0 0.0 -4.166600706249e-04 
-8.421343191380e-04 8.947296271355e-05 0.0 
8.947296271355e-05 4.867861189812e-03 0.0 
0.0 0.0 -7.125614225629e-04 
-8.442475580862e-04 6.688277321944e-05 0.0 
6.688277321944e-05 4.629764896323e-03 0.0 
0.0 0.0 -7.312775522649e-04 
-8.183075665077e-04 4.944600713478e-04 0.0 
4.944600713478e-04 4.297011605974e-03 0.0 
0.0 0.0 -6.755779900756e-04 
-1.341823989366e-03 3.176700121755e-04 0.0 
3.176700121755e-04 8.755155514573e-03 0.0 
0.0 0.0 -1.341823989366e-03 
-1.316183787817e-03 1.764356624828e-04 0.0 
1.764356624828e-04 9.061441417317e-03 0.0 
0.0 0.0 -1.322582685247e-03 
1.706419388007e-04 -6.581066488368e-06 0.0 
-6.581066488368e-06 5.083643028934e-04 0.0 
0.0 0.0 -1.414504174366e-04 
2.407344509661e-04 1.323517305793e-05 0.0 
1.323517305793e-05 -7.208659109850e-05 0.0 
0.0 0.0 -7.227765422896e-05 
-4.260081866660e-04 -1.856958100474e-04 0.0 
-1.856958100474e-04 1.223914747001e-03 0.0 
0.0 0.0 -2.229509930541e-04 
-8.539532720431e-04 -3.709598021116e-04 0.0 
-3.709598021116e-04 4.637819177533e-03 0.0 
0.0 0.0 -7.497705102653e-04 
-1.319228459702e-03 1.823496012509e-04 0.0 
1.823496012509e-04 8.037185883931e-03 0.0 
0.0 0.0 -1.224669017856e-03 
0.0 0.0 0.0 
0.0 0.0 0.0 
0.0 0.0 0.0 
-1.164534197096e-03 -1.984727069524e-04 0.0 
-1.984727069524e-04 7.327097077271e-03 0.0 
0.0 0.0 -1.092518628634e-03 
0.0 0.0 0.0 
0.0 0.0 0.0 
0.0 0.0 0.0 
-6.586480689669e-04 -2.893406478862e-05 0.0 
-2.893406478862e-05 5.445033550024e-03 0.0 
0.0 0.0 -9.493083249531e-04 
6.413544779552e-05 -3.379620450346e-04 0.0 
-3.379620450346e-04 1.394736970074e-04 0.0 
0.0 0.0 -8.691392457031e-05 
1.450430834232e-05 -8.616792963926e-05 0.0 
-8.616792963926e-05 3.294529381564e-05 0.0 
0.0 0.0 -2.033554378198e-05 
-6.338862404721e-04 -1.383285000905e-04 0.0 
-1.383285000905e-04 5.212576859225e-03 0.0 
0.0 0.0 -9.122568895951e-04 
-1.285900318349e-03 2.146352195215e-05 0.0 
2.146352195215e-05 7.759528202279e-03 0.0 
0.0 0.0 -1.192963836147e-03 
-1.029044917040e-03 -7.279636213487e-05 0.0 
-7.279636213487e-05 6.446740060124e-03 0.0 
0.0 0.0 -9.361271490834e-04 
-8.407421483093e-04 3.218859450769e-04 0.0 
3.218859450769e-04 4.639661762171e-03 0.0 
0.0 0.0 -7.268406435589e-04 
-3.072399208747e-05 -1.897210475410e-05 0.0 
-1.897210475410e-05 2.991997316549e-04 0.0 
0.0 0.0 -1.150610312432e-04 
-1.088521664505e-03 -4.986556758640e-04 0.0 
-4.986556758640e-04 6.052818965112e-03 0.0 
0.0 0.0 -9.349022313484e-04 
-1.337797817327e-03 2.888082420915e-05 0.0 
2.888082420915e-05 8.797778454419e-03 0.0 
0.0 0.0 -1.337797817327e-03 
-1.344206616167e-03 -8.091836582187e-05 0.0 
-8.091836582187e-05 9.064612422815e-03 0.0 
0.0 0.0 -1.322354755130e-03 
-8.386635614455e-04 6.856267782852e-05 0.0 
6.856267782852e-05 4.896920748213e-03 0.0 
0.0 0.0 -7.125764448434e-04 
-6.958258556129e-04 6.990936182405e-05 0.0 
6.990936182405e-05 5.692375670829e-03 0.0 
0.0 0.0 -9.863757069361e-04 
-1.341607717199e-03 1.551401879936e-04 0.0 
1.551401879936e-04 8.810609962061e-03 0.0 
0.0 0.0 -1.341607717199e-03 
-8.875903164710e-04 2.432432692731e-04 0.0 
2.432432692731e-04 6.412529175352e-03 0.0 
0.0 0.0 -1.046710270629e-03 
-7.224987108801e-05 2.416900893393e-05 0.0 
2.416900893393e-05 9.236508622773e-04 0.0 
0.0 0.0 -1.589907658001e-04 
1.844060408699e-04 -1.026478452949e-05 0.0 
-1.026478452949e-05 5.130263938471e-04 0.0 
0.0 0.0 -1.435574244405e-04 
-2.891409061342e-05 -3.272758998480e-05 0.0 
-3.272758998480e-05 3.203427987140e-04 0.0 
0.0 0.0 -1.200048127433e-04 
-8.246082063499e-04 1.600403801409e-04 0.0 
1.600403801409e-04 3.844559296729e-03 0.0 
0.0 0.0 -5.933358154923e-04 
-1.368440753648e-03 -2.847926622310e-04 0.0 
-2.847926622310e-04 8.814363085181e-03 0.0 
0.0 0.0 -1.322828574513e-03 
-1.280689091558e-03 -2.286632291646e-04 0.0 
-2.286632291646e-04 8.487923234130e-03 0.0 
0.0 0.0 -1.258329778789e-03 
2.856807825424e-04 -9.908519956483e-06 0.0 
-9.908519956483e-06 -8.557676066988e-05 0.0 
0.0 0.0 -8.575886651679e-05 
-9.449458894061e-04 -2.123271304103e-04 0.0 
-2.123271304103e-04 4.512069341782e-03 0.0 
0.0 0.0 -6.938761155152e-04 
-1.344798314370e-03 -1.247366253674e-04 0.0 
-1.247366253674e-04 8.595631148609e-03 0.0 
0.0 0.0 -1.344798314369e-03 
-1.373531731671e-03 -1.707869213026e-04 0.0 
-1.707869213026e-04 8.832402882049e-03 0.0 
0.0 0.0 -1.318785251170e-03 
-1.282177360506e-03 -3.124369979244e-04 0.0 
-3.124369979244e-04 8.610103347005e-03 0.0 
0.0 0.0 -1.321151187552e-03 
-1.113562773683e-03 2.219946434219e-04 0.0 
2.219946434219e-04 6.878878469590e-03 0.0 
0.0 0.0 -1.027148381742e-03 
-1.180769122149e-03 -2.135481498419e-04 0.0 
-2.135481498419e-04 7.573759840694e-03 0.0 
0.0 0.0 -1.125709525796e-03 
-1.338030260144e-03 -1.771563366243e-04 0.0 
-1.771563366243e-04 8.542675147626e-03 0.0 
0.0 0.0 -1.338030260144e-03 
-1.340754991027e-03 -2.390663127656e-04 0.0 
-2.390663127656e-04 8.545998822267e-03 0.0 
0.0 0.0 -1.340754991027e-03 
-1.152960594027e-03 1.859255734492e-04 0.0 
1.859255734492e-04 7.333872638941e-03 0.0 
0.0 0.0 -1.092518628634e-03 
6.040404689232e-04 9.568591753019e-05 0.0 
9.568591753019e-05 -6.408932826674e-05 0.0 
0.0 0.0 -9.235885521468e-05 
-8.216739313019e-04 1.642653897250e-05 0.0 
1.642653897250e-05 4.866544847831e-03 0.0 
0.0 0.0 -7.139539158865e-04 
-8.429301589013e-04 7.371775731573e-05 0.0 
7.371775731573e-05 4.924292125164e-03 0.0 
0.0 0.0 -7.133642253441e-04 
2.432336519054e-04 6.949879094711e-06 0.0 
6.949879094711e-06 -7.294262653964e-05 0.0 
0.0 0.0 -7.298186801390e-05 
-1.342313591240e-03 -2.893823135638e-04 0.0 
-2.893823135638e-04 8.501007321383e-03 0.0 
0.0 0.0 -1.342313591240e-03 
-1.327713446301e-03 -3.071447071229e-04 0.0 
-3.071447071229e-04 8.654446540322e-03 0.0 
0.0 0.0 -1.318355947622e-03 
-1.337959751097e-03 -3.069413126871e-04 0.0 
-3.069413126871e-04 8.377273660842e-03 0.0 
0.0 0.0 -1.337959751097e-03 
5.382873424725e-04 1.051034098534e-05 0.0 
1.051034098534e-05 3.447207322761e-05 0.0 
0.0 0.0 -9.875111991497e-05 
5.465365996427e-04 1.921140548757e-05 0.0 
1.921140548757e-05 3.586604406774e-05 0.0 
0.0 0.0 -1.001629653630e-04 
-1.340754991027e-03 -2.745211848364e-04 0.0 
-2.745211848364e-04 8.326750669152e-03 0.0 
0.0 0.0 -1.340754991027e-03 
-1.340396196526e-03 -3.177254258607e-04 0.0 
-3.177254258607e-04 8.348861196928e-03 0.0 
0.0 0.0 -1.340396196526e-03 
-1.100408733265e-03 -2.290747800904e-04 0.0 
-2.290747800904e-04 6.654648242085e-03 0.0 
0.0 0.0 -9.936726122374e-04 
-8.156679351147e-04 3.791493186346e-05 0.0 
3.791493186346e-05 4.866771241895e-03 0.0 
0.0 0.0 -7.124851972278e-04 
-1.126282978383e-03 -2.242329370711e-04 0.0 
-2.242329370711e-04 7.103431173965e-03 0.0 
0.0 0.0 -1.060142436171e-03 
-9.808195587630e-04 -2.230997408213e-04 0.0 
-2.230997408213e-04 5.708119715060e-03 0.0 
0.0 0.0 -8.626607521899e-04 
-7.941305620824e-04 1.551089981454e-05 0.0 
1.551089981454e-05 4.869359917574e-03 0.0 
0.0 0.0 -7.121912678902e-04 
7.040827403612e-04 7.380490456996e-06 0.0 
7.380490456996e-06 -3.505683220774e-05 0.0 
0.0 0.0 -9.491348420367e-05 
6.357527662839e-04 -8.824699617213e-05 0.0 
-8.824699617213e-05 3.733323429846e-05 0.0 
0.0 0.0 -1.068803031330e-04 
5.856552846093e-04 -8.204592747125e-05 0.0 
-8.204592747125e-05 2.270090481132e-05 0.0 
0.0 0.0 -9.934895370439e-05 
6.682124726064e-04 -5.433044528850e-05 0.0 
-5.433044528850e-05 2.762423436657e-05 0.0 
0.0 0.0 -1.574260069802e-04 
-9.875526380001e-04 1.999683647263e-04 0.0 
1.999683647263e-04 4.756922496595e-03 0.0 
0.0 0.0 -7.271325101417e-04 
-9.022422993743e-04 1.689219604000e-04 0.0 
1.689219604000e-04 4.293373185727e-03 0.0 
0.0 0.0 -6.600769387058e-04 
0.0 0.0 0.0 
0.0 0.0 0.0 
0.0 0.0 0.0 
-1.139432736752e-03 1.969596473993e-04 0.0 
1.969596473993e-04 6.092355855196e-03 0.0 
0.0 0.0 -9.221709323543e-04 
0.0 0.0 0.0 
0.0 0.0 0.0 
0.0 0.0 0.0 
-1.341471640605e-03 2.821656468085e-04 0.0 
2.821656468085e-04 8.748357117342e-03 0.0 
0.0 0.0 -1.341471640605e-03 
-1.340968685557e-03 1.312437350478e-04 0.0 
1.312437350478e-04 8.782913575074e-03 0.0 
0.0 0.0 -1.340968685557e-03 
-1.339320413496e-03 1.880713074898e-04 0.0 
1.880713074898e-04 8.789181418084e-03 0.0 
0.0 0.0 -1.339320413496e-03 
-2.891904725790e-04 2.036868385329e-04 0.0 
2.036868385329e-04 1.487086439737e-03 0.0 
0.0 0.0 -2.599136149544e-04 
-6.430141663801e-04 1.708121578067e-04 0.0 
1.708121578067e-04 2.925097320677e-03 0.0 
0.0 0.0 -4.607467809507e-04 
-1.337132911908e-03 8.989218137943e-05 0.0 
8.989218137943e-05 8.798780956337e-03 0.0 
0.0 0.0 -1.337132911908e-03 
-1.268709771428e-03 1.750290220288e-04 0.0 
1.750290220288e-04 7.410750387042e-03 0.0 
0.0 0.0 -1.124956933753e-03 
-1.344556937803e-03 5.420067643192e-05 0.0 
5.420067643192e-05 8.841140369170e-03 0.0 
0.0 0.0 -1.344556937803e-03 
-1.309963082983e-03 1.898374887779e-04 0.0 
1.898374887779e-04 7.848623061347e-03 0.0 
0.0 0.0 -1.192538251246e-03 
-1.338506523092e-03 2.196897297750e-04 0.0 
2.196897297750e-04 8.286254789378e-03 0.0 
0.0 0.0 -1.259905836238e-03 
-8.634449756302e-04 -2.267992264203e-04 0.0 
-2.267992264203e-04 4.063283112415e-03 0.0 
0.0 0.0 -6.267460875326e-04 
-1.354536289335e-03 7.630110527830e-05 0.0 
7.630110527830e-05 9.083283423121e-03 0.0 
0.0 0.0 -1.318101597465e-03 
-1.353127036110e-03 2.052350059942e-04 0.0 
2.052350059942e-04 9.070380165704e-03 0.0 
0.0 0.0 -1.321689849711e-03 
-1.286890123680e-03 -2.394731622084e-04 0.0 
-2.394731622084e-04 7.571755325092e-03 0.0 
0.0 0.0 -1.157495185000e-03 
-1.323365826624e-03 -2.403819852103e-04 0.0 
-2.403819852103e-04 8.033634754339e-03 0.0 
0.0 0.0 -1.225777420818e-03 
-1.161453211646e-03 -3.736884005785e-04 0.0 
-3.736884005785e-04 6.493225178424e-03 0.0 
0.0 0.0 -9.925156490314e-04 
0.0 0.0 0.0 
0.0 0.0 0.0 
0.0 0.0 0.0 
-8.671818712195e-04 -5.363828857818e-04 0.0 
-5.363828857818e-04 4.105500038503e-03 0.0 
0.0 0.0 -6.350241097613e-04 
1.538446466672e-04 -5.196602102228e-05 0.0 
-5.196602102228e-05 5.032465276658e-04 0.0 
0.0 0.0 -1.372732375194e-04 
-1.212742551210e-03 -4.759587518373e-04 0.0 
-4.759587518373e-04 7.564630454968e-03 0.0 
0.0 0.0 -1.177819030284e-03 
-8.605651419967e-04 -2.779235020759e-04 0.0 
-2.779235020759e-04 4.247159815615e-03 0.0 
0.0 0.0 -6.753691525988e-04 
-1.209845026625e-03 -3.828065324347e-05 0.0 
-3.828065324347e-05 7.089490121300e-03 0.0 
0.0 0.0 -1.099016898379e-03 
-5.359685570494e-04 -6.677092728244e-04 0.0 
-6.677092728244e-04 2.153205781578e-03 0.0 
0.0 0.0 -3.504775146279e-04 
-1.805242587165e-04 1.222080852242e-05 0.0 
1.222080852242e-05 7.550645308543e-04 0.0 
0.0 0.0 -1.735952156319e-04 
-1.264456075116e-03 -3.850163355986e-04 0.0 
-3.850163355986e-04 7.592925326403e-03 0.0 
0.0 0.0 -1.161668299909e-03 
-9.012428398998e-04 -5.241478665253e-04 0.0 
-5.241478665253e-04 4.532812848754e-03 0.0 
0.0 0.0 -7.012080445024e-04 
-8.068122859681e-04 1.121430841948e-04 0.0 
1.121430841948e-04 3.618999234990e-03 0.0 
0.0 0.0 -5.611363230934e-04 
-1.221373729773e-03 -3.971185644326e-04 0.0 
-3.971185644326e-04 7.158861497178e-03 0.0 
0.0 0.0 -1.096102707776e-03 
-1.225888037185e-03 2.356398892211e-04 0.0 
2.356398892211e-04 7.926332987898e-03 0.0 
0.0 0.0 -1.188907866872e-03 
-7.850590963075e-04 -2.211249008548e-04 0.0 
-2.211249008548e-04 3.627921543623e-03 0.0 
0.0 0.0 -5.602736785587e-04 
-9.153466014746e-04 -5.672710459790e-04 0.0 
-5.672710459790e-04 6.328544019957e-03 0.0 
0.0 0.0 -1.035646790376e-03 
-9.544485914901e-04 -2.692006228927e-04 0.0 
-2.692006228927e-04 5.706833288183e-03 0.0 
0.0 0.0 -9.181742748318e-04 
-1.151482432891e-03 -1.721733511891e-05 0.0 
-1.721733511891e-05 6.426989542900e-03 0.0 
0.0 0.0 -9.952786863929e-04 
-1.189685403522e-03 2.186394532171e-05 0.0 
2.186394532171e-05 6.656907816596e-03 0.0 
0.0 0.0 -1.024224580100e-03 
-2.906015399770e-05 6.908185225539e-04 0.0 
6.908185225539e-04 2.388123543614e-03 0.0 
0.0 0.0 -5.788817793163e-04 
-8.005376655691e-04 3.171132398136e-04 0.0 
3.171132398136e-04 4.241491794382e-03 0.0 
0.0 0.0 -6.651338130661e-04 
-5.426647513542e-04 5.869195559815e-04 0.0 
5.869195559815e-04 4.187651392435e-03 0.0 
0.0 0.0 -7.293057621918e-04 
-1.068839531754e-03 -1.396982746719e-04 0.0 
-1.396982746719e-04 5.983670003937e-03 0.0 
0.0 0.0 -9.378562126457e-04 
-1.253909417431e-03 -3.654180260376e-04 0.0 
-3.654180260376e-04 7.384129283890e-03 0.0 
0.0 0.0 -1.125100902632e-03 
-1.223048658493e-03 8.194922759041e-05 0.0 
8.194922759041e-05 6.885373196445e-03 0.0 
0.0 0.0 -1.053755873404e-03 
-5.843499511654e-04 -7.478811802874e-04 0.0 
-7.478811802874e-04 2.078474299742e-03 0.0 
0.0 0.0 -3.685493992842e-04 
-1.215420929976e-03 2.914568716421e-04 0.0 
2.914568716421e-04 7.912104441246e-03 0.0 
0.0 0.0 -1.183514100502e-03 
-1.184839979766e-03 2.716593684437e-04 0.0 
2.716593684437e-04 7.456605698874e-03 0.0 
0.0 0.0 -1.117084069417e-03 
-9.160676408920e-04 2.566629763440e-04 0.0 
2.566629763440e-04 5.389449650205e-03 0.0 
0.0 0.0 -8.110481619253e-04 
-1.072043250355e-03 -1.594447290691e-04 0.0 
-1.594447290691e-04 6.194419037886e-03 0.0 
0.0 0.0 -9.753747863247e-04 
-1.113512703567e-03 -7.830874303778e-05 0.0 
-7.830874303778e-05 6.209473753146e-03 0.0 
0.0 0.0 -9.665592132828e-04 
-1.247553885459e-03 -1.638883659802e-04 0.0 
-1.638883659802e-04 8.032779373469e-03 0.0 
0.0 0.0 -1.185362187646e-03 
-1.209218779800e-03 2.395415248872e-04 0.0 
2.395415248872e-04 7.733666527183e-03 0.0 
0.0 0.0 -1.150972777267e-03 
-9.235989750770e-04 -6.984337716094e-04 0.0 
-6.984337716094e-04 5.520417486699e-03 0.0 
0.0 0.0 -8.866930489607e-04 
-1.284523920474e-03 -3.501071659254e-04 0.0 
-3.501071659254e-04 7.805517890163e-03 0.0 
0.0 0.0 -1.190872049285e-03 
-1.177897572884e-03 3.138623603337e-04 0.0 
3.138623603337e-04 7.354283994280e-03 0.0 
0.0 0.0 -1.103416240745e-03 
-1.224145241381e-03 -2.616286438841e-04 0.0 
-2.616286438841e-04 6.885317791912e-03 0.0 
0.0 0.0 -1.053748284807e-03 
-1.251504070725e-03 -4.981478354757e-04 0.0 
-4.981478354757e-04 7.817749108824e-03 0.0 
0.0 0.0 -1.210017230578e-03 
-1.240161038229e-03 -1.265963501437e-04 0.0 
-1.265963501437e-04 7.971776447579e-03 0.0 
0.0 0.0 -1.181737430652e-03 
-1.104792332721e-03 -1.417124884619e-04 0.0 
-1.417124884619e-04 6.803117520475e-03 0.0 
0.0 0.0 -1.011817915138e-03 
-9.092260506378e-04 -6.128458239001e-04 0.0 
-6.128458239001e-04 6.116526816133e-03 0.0 
0.0 0.0 -9.985655989920e-04 
-5.244393316962e-04 -3.327701467076e-07 0.0 
-3.327701467076e-07 2.217192403788e-03 0.0 
0.0 0.0 -3.644364776638e-04 
-5.557520001356e-04 -9.492103982613e-04 0.0 
-9.492103982613e-04 1.854328414375e-03 0.0 
0.0 0.0 -3.414758422231e-04 
-2.976977379688e-04 -4.729019177062e-04 0.0 
-4.729019177062e-04 1.065430610337e-03 0.0 
0.0 0.0 -1.876370064529e-04 
-1.394869518500e-05 -5.836024776206e-04 0.0 
-5.836024776206e-04 3.988673203720e-04 0.0 
0.0 0.0 -1.649651250801e-04 
-1.208849354757e-03 -1.442002111852e-04 0.0 
-1.442002111852e-04 7.751975943977e-03 0.0 
0.0 0.0 -1.150998037120e-03 
-1.270626804187e-03 5.625887811154e-05 0.0 
5.625887811154e-05 7.521765115722e-03 0.0 
0.0 0.0 -1.156839719840e-03 
-1.128430539847e-04 -4.533921113002e-04 0.0 
-4.533921113002e-04 5.125802596057e-04 0.0 
0.0 0.0 -1.512448671109e-04 
-1.224260673069e-03 1.930240191298e-04 0.0 
1.930240191298e-04 7.672098389018e-03 0.0 
0.0 0.0 -1.160298666437e-03 
-9.269777591648e-04 2.462098102623e-04 0.0 
2.462098102623e-04 5.566246555216e-03 0.0 
0.0 0.0 -8.436798659344e-04 
-1.183821186611e-03 -4.510450975400e-04 0.0 
-4.510450975400e-04 6.938898886609e-03 0.0 
0.0 0.0 -1.067477449466e-03 
-1.234042430495e-03 4.386686661325e-05 0.0 
4.386686661325e-05 7.085000705368e-03 0.0 
0.0 0.0 -1.090430023688e-03 
-4.688031105262e-04 -9.449998288247e-04 0.0 
-9.449998288247e-04 2.708853865005e-03 0.0 
0.0 0.0 -5.090628918580e-04 
-1.241127751091e-03 -3.232486977457e-04 0.0 
-3.232486977457e-04 7.146083644213e-03 0.0 
0.0 0.0 -1.087955833448e-03 
-9.128116180444e-04 -2.432084876036e-04 0.0 
-2.432084876036e-04 5.398327604704e-03 0.0 
0.0 0.0 -8.100176300978e-04 
-7.075550094797e-04 -2.554204369629e-05 0.0 
-2.554204369629e-05 5.888227624213e-03 0.0 
0.0 0.0 -1.000388816061e-03 
-1.275643571196e-03 -3.853184117788e-05 0.0 
-3.853184117788e-05 7.999890426169e-03 0.0 
0.0 0.0 -1.242964905849e-03 
-4.891437223720e-04 4.195566496952e-05 0.0 
4.195566496952e-05 2.125578513997e-03 0.0 
0.0 0.0 -3.542437553904e-04 
-1.232067324065e-03 -4.786069064869e-04 0.0 
-4.786069064869e-04 7.807210147599e-03 0.0 
0.0 0.0 -1.215045542354e-03 
-1.132051344136e-03 -1.297668119058e-04 0.0 
-1.297668119058e-04 7.059354268222e-03 0.0 
0.0 0.0 -1.048288725887e-03 
-5.597857793191e-04 4.639966247623e-05 0.0 
4.639966247623e-05 2.420049368412e-03 0.0 
0.0 0.0 -3.930611257745e-04 
-5.609737831535e-04 -1.192047374110e-03 0.0 
-1.192047374110e-03 2.290088636828e-03 0.0 
0.0 0.0 -4.034900192350e-04 
-1.019435653485e-03 2.510797196313e-05 0.0 
2.510797196313e-05 5.114500101547e-03 0.0 
0.0 0.0 -7.909606353592e-04 
-1.046153520856e-03 2.672543322815e-04 0.0 
2.672543322815e-04 6.254372891690e-03 0.0 
0.0 0.0 -9.409807611877e-04 
-7.501439557546e-04 -2.986549649001e-04 0.0 
-2.986549649001e-04 3.375633566619e-03 0.0 
0.0 0.0 -5.429771841545e-04 
-1.160690986180e-03 -1.496920489451e-04 0.0 
-1.496920489451e-04 7.303854633305e-03 0.0 
0.0 0.0 -1.085119818393e-03 
-1.069476201499e-03 -1.757346183128e-04 0.0 
-1.757346183128e-04 6.567285104211e-03 0.0 
0.0 0.0 -9.816794289629e-04 
-9.579280571301e-04 -1.773255598002e-04 0.0 
-1.773255598002e-04 4.907486764764e-03 0.0 
0.0 0.0 -7.700930343086e-04 
-1.202171244896e-03 -3.172466399621e-04 0.0 
-3.172466399621e-04 6.703539097156e-03 0.0 
0.0 0.0 -1.021757709120e-03 
-1.211296574698e-03 -3.721899322367e-04 0.0 
-3.721899322367e-04 6.940479911899e-03 0.0 
0.0 0.0 -1.058696934625e-03 
-1.135291475184e-03 2.700006977273e-04 0.0 
2.700006977273e-04 6.997454425646e-03 0.0 
0.0 0.0 -1.050681058959e-03 
-4.173596233207e-04 -3.503884104976e-04 0.0 
-3.503884104976e-04 1.875894239502e-03 0.0 
0.0 0.0 -3.058749225436e-04 
-9.447771700352e-04 -1.262936496125e-04 0.0 
-1.262936496125e-04 4.694024374325e-03 0.0 
0.0 0.0 -7.328582426338e-04 
-9.670495794898e-04 5.137281078932e-04 0.0 
5.137281078932e-04 6.920842306521e-03 0.0 
0.0 0.0 -1.141128458404e-03 
-1.159905672637e-03 -1.212910240168e-04 0.0 
-1.212910240168e-04 7.261813298966e-03 0.0 
0.0 0.0 -1.078198857115e-03 
-8.846237530489e-04 -1.118837918711e-04 0.0 
-1.118837918711e-04 4.234828904613e-03 0.0 
0.0 0.0 -6.666835465145e-04 
-9.866099674588e-04 -6.396910670883e-04 0.0 
-6.396910670883e-04 5.776957758952e-03 0.0 
0.0 0.0 -9.153036164073e-04 
-1.180273166295e-03 -5.195576023231e-04 0.0 
-5.195576023231e-04 7.573511676705e-03 0.0 
0.0 0.0 -1.187586327529e-03 
-1.090487437882e-03 2.486631283317e-04 0.0 
2.486631283317e-04 6.750183946417e-03 0.0 
0.0 0.0 -1.013969106439e-03 
4.266683345687e-05 -1.829982136319e-05 0.0 
-1.829982136319e-05 -1.175196824510e-05 0.0 
0.0 0.0 -1.324922794790e-05 
-2.207289874608e-04 -3.235795152871e-04 0.0 
-3.235795152871e-04 1.003256593638e-03 0.0 
0.0 0.0 -1.835536028976e-04 
6.095472518787e-04 -2.844414826135e-05 0.0 
-2.844414826135e-05 2.461208838896e-04 0.0 
0.0 0.0 -3.667149153293e-04 
-1.247686431213e-03 1.804464591039e-05 0.0 
1.804464591039e-05 7.316811787833e-03 0.0 
0.0 0.0 -1.127837695838e-03 
-1.073532930030e-03 2.556328204713e-04 0.0 
2.556328204713e-04 6.504084694261e-03 0.0 
0.0 0.0 -9.775003154318e-04 
-1.065496431756e-03 -3.247503852032e-04 0.0 
-3.247503852032e-04 5.643495466523e-03 0.0 
0.0 0.0 -8.513051444990e-04 
-9.769664875946e-04 2.379062424114e-04 0.0 
2.379062424114e-04 5.801214914582e-03 0.0 
0.0 0.0 -8.745614812816e-04 
-1.019950067796e-03 -4.586219499737e-04 0.0 
-4.586219499737e-04 7.042194348422e-03 0.0 
0.0 0.0 -1.139196670502e-03 
-1.001595776578e-03 -1.032368991806e-04 0.0 
-1.032368991806e-04 5.128573561517e-03 0.0 
0.0 0.0 -7.988714448434e-04 
-1.198933731184e-03 -2.304563849884e-06 0.0 
-2.304563849884e-06 6.870961844438e-03 0.0 
0.0 0.0 -1.061632825506e-03 
-4.894390167554e-04 -2.936556089740e-04 0.0 
-2.936556089740e-04 2.281659796893e-03 0.0 
0.0 0.0 -3.615122310665e-04 
-1.252320573339e-03 -4.986115071304e-05 0.0 
-4.986115071304e-05 7.805865228042e-03 0.0 
0.0 0.0 -1.211531131004e-03 
-9.705690281363e-04 -5.093762920131e-04 0.0 
-5.093762920131e-04 4.972659776742e-03 0.0 
0.0 0.0 -7.673127347790e-04 
-5.395948498915e-04 -2.749809582872e-04 0.0 
-2.749809582872e-04 2.502960479934e-03 0.0 
0.0 0.0 -3.889166325194e-04 
-9.539878925134e-04 -4.665681980887e-04 0.0 
-4.665681980887e-04 4.746329446601e-03 0.0 
0.0 0.0 -7.311132045151e-04 
-7.861451495527e-04 -2.221214863257e-04 0.0 
-2.221214863257e-04 3.593397886981e-03 0.0 
0.0 0.0 -5.716673668464e-04 
-6.390151670991e-04 -6.536657789763e-04 0.0 
-6.536657789763e-04 2.791763486177e-03 0.0 
0.0 0.0 -4.452767020142e-04 
-1.072653987371e-03 2.886861907429e-05 0.0 
2.886861907429e-05 5.536656976787e-03 0.0 
0.0 0.0 -8.564950983273e-04 
2.053402963574e-04 2.693149737115e-05 0.0 
2.693149737115e-05 -6.111100134196e-05 0.0 
0.0 0.0 -6.181255500660e-05 
1.464512989776e-04 -5.911592787118e-06 0.0 
-5.911592787118e-06 -4.332551876097e-05 0.0 
0.0 0.0 -4.419676295000e-05 
-1.129321225881e-03 -4.366761249298e-04 0.0 
-4.366761249298e-04 6.278524906094e-03 0.0 
0.0 0.0 -9.636005660098e-04 
-4.459230001805e-04 -3.109429784165e-04 0.0 
-3.109429784165e-04 2.087500805873e-03 0.0 
0.0 0.0 -3.336449385292e-04 
-1.093345380725e-03 -5.267841385720e-04 0.0 
-5.267841385720e-04 6.263877748210e-03 0.0 
0.0 0.0 -9.724388998541e-04 
-1.043259012928e-03 -5.809617148742e-04 0.0 
-5.809617148742e-04 6.025832941714e-03 0.0 
0.0 0.0 -9.438473481109e-04 
-7.593501897991e-04 -4.626236543671e-04 0.0 
-4.626236543671e-04 3.770567817408e-03 0.0 
0.0 0.0 -6.177757646845e-04 
-3.406532554668e-04 -1.201349069570e-03 0.0 
-1.201349069570e-03 1.971960000255e-03 0.0 
0.0 0.0 -4.162223005415e-04 
-1.210770017431e-03 -8.268587528123e-05 0.0 
-8.268587528123e-05 7.661732423863e-03 0.0 
0.0 0.0 -1.137719822027e-03 
2.217423052273e-04 3.028948149786e-04 0.0 
3.028948149786e-04 -1.208394326889e-05 0.0 
0.0 0.0 -8.985358369644e-05 
-8.285748112363e-04 -1.587478080269e-04 0.0 
-1.587478080269e-04 3.819529826762e-03 0.0 
0.0 0.0 -6.004815939294e-04 
-1.049679539983e-03 -3.693865297615e-04 0.0 
-3.693865297615e-04 7.240151455212e-03 0.0 
0.0 0.0 -1.175533656463e-03 
-3.983359874590e-04 4.184586300730e-05 0.0 
4.184586300730e-05 1.714439103962e-03 0.0 
0.0 0.0 -2.977570873278e-04 
-1.020229649597e-03 -1.375914676709e-04 0.0 
-1.375914676709e-04 6.101662351483e-03 0.0 
0.0 0.0 -9.088859120638e-04 
-9.450324784717e-04 -1.832830397253e-04 0.0 
-1.832830397253e-04 5.623770961517e-03 0.0 
0.0 0.0 -8.416286270284e-04 
-4.351237697251e-04 -5.540829146340e-04 0.0 
-5.540829146340e-04 1.723099038299e-03 0.0 
0.0 0.0 -2.842394630762e-04 
-1.127395628762e-03 -5.008482085009e-04 0.0 
-5.008482085009e-04 7.317936875090e-03 0.0 
0.0 0.0 -1.158722036769e-03 
-1.133506044246e-03 -8.767361897690e-05 0.0 
-8.767361897690e-05 6.959505034578e-03 0.0 
0.0 0.0 -1.034898561726e-03 
-4.951489600236e-04 -4.786425625421e-05 0.0 
-4.786425625421e-05 2.022039619189e-03 0.0 
0.0 0.0 -3.364655670308e-04 
-1.234708714507e-03 -3.925269914934e-05 0.0 
-3.925269914934e-05 7.851562311589e-03 0.0 
0.0 0.0 -1.166520446339e-03 
-1.230308234664e-03 3.090146298482e-04 0.0 
3.090146298482e-04 7.789607374426e-03 0.0 
0.0 0.0 -1.169001632583e-03 
-5.233675107163e-04 -4.314455861334e-04 0.0 
-4.314455861334e-04 2.327927411805e-03 0.0 
0.0 0.0 -3.701904734684e-04 
-5.932851689167e-04 7.473876325445e-04 0.0 
7.473876325445e-04 2.806018980480e-03 0.0 
0.0 0.0 -4.801335248058e-04 
-5.599793527513e-04 -5.941268921314e-04 0.0 
-5.941268921314e-04 2.361270480637e-03 0.0 
0.0 0.0 -3.791106726259e-04 
-1.172251179922e-03 -4.180665988864e-04 0.0 
-4.180665988864e-04 6.718010438057e-03 0.0 
0.0 0.0 -1.029923508343e-03 
-1.041340644124e-03 -3.282174640750e-05 0.0 
-3.282174640750e-05 5.343281569417e-03 0.0 
0.0 0.0 -8.276368238623e-04 
-1.238338552957e-03 5.129188831147e-04 0.0 
5.129188831147e-04 7.705442663502e-03 0.0 
0.0 0.0 -1.169529464977e-03 
-1.205798657677e-03 3.040238914407e-04 0.0 
3.040238914407e-04 7.606656415098e-03 0.0 
0.0 0.0 -1.140030709108e-03 
-1.136504455291e-03 -4.715376891294e-04 0.0 
-4.715376891294e-04 6.495059726217e-03 0.0 
0.0 0.0 -1.001167767022e-03 
-1.120337032388e-03 -1.059796522353e-04 0.0 
-1.059796522353e-04 6.426005632212e-03 0.0 
0.0 0.0 -1.004093472296e-03 
-5.274441073591e-04 -2.397572524931e-04 0.0 
-2.397572524931e-04 1.862294635062e-03 0.0 
0.0 0.0 -3.158693332420e-04 
-1.161634108540e-03 -5.320117127017e-05 0.0 
-5.320117127017e-05 6.648981173758e-03 0.0 
0.0 0.0 -1.032853941699e-03 
-1.125917341076e-03 2.991763443149e-04 0.0 
2.991763443149e-04 6.905438798140e-03 0.0 
0.0 0.0 -1.037144748481e-03 
-1.044631038411e-03 -3.631995376833e-04 0.0 
-3.631995376833e-04 5.407625222663e-03 0.0 
0.0 0.0 -8.248712778174e-04 
-1.078523674622e-03 -1.304712665821e-04 0.0 
-1.304712665821e-04 6.557738951195e-03 0.0 
0.0 0.0 -9.752741834902e-04 
-1.159347625089e-03 -9.624416522510e-05 0.0 
-9.624416522510e-05 7.210996352120e-03 0.0 
0.0 0.0 -1.071415751597e-03 
-3.318515090644e-04 6.235225383972e-04 0.0 
6.235225383972e-04 3.802912303128e-03 0.0 
0.0 0.0 -7.435371925968e-04 
-1.181769783394e-03 2.863535825742e-04 0.0 
2.863535825742e-04 7.408927706841e-03 0.0 
0.0 0.0 -1.110258267496e-03 
-9.356896319010e-04 -4.816204734149e-05 0.0 
-4.816204734149e-05 4.523878489702e-03 0.0 
0.0 0.0 -6.965171720950e-04 
-1.013439798328e-03 -4.389789435164e-04 0.0 
-4.389789435164e-04 5.194362623047e-03 0.0 
0.0 0.0 -7.960639764766e-04 
-7.588476473929e-04 -1.047638361378e-04 0.0 
-1.047638361378e-04 3.390478407872e-03 0.0 
0.0 0.0 -5.342291996904e-04 
-6.729613587978e-04 -9.978092115441e-04 0.0 
-9.978092115441e-04 3.336051263368e-03 0.0 
0.0 0.0 -5.581583723280e-04 
-1.100329888420e-03 2.776105336716e-04 0.0 
2.776105336716e-04 6.705832396393e-03 0.0 
0.0 0.0 -1.007339817349e-03 
-7.155066052029e-04 -8.941200741794e-04 0.0 
-8.941200741794e-04 4.520636252880e-03 0.0 
0.0 0.0 -7.637833264599e-04 
-5.880444497108e-04 -5.324378047215e-04 0.0 
-5.324378047215e-04 2.570561499900e-03 0.0 
0.0 0.0 -4.077494273363e-04 
-3.167379964521e-04 -3.896430801043e-04 0.0 
-3.896430801043e-04 1.286713823890e-03 0.0 
0.0 0.0 -2.185673950299e-04 
-1.104743277708e-03 -1.081634182050e-04 0.0 
-1.081634182050e-04 6.759513962222e-03 0.0 
0.0 0.0 -1.005115000480e-03 
-6.259157449930e-04 -2.410202634238e-04 0.0 
-2.410202634238e-04 2.506664290233e-03 0.0 
0.0 0.0 -4.107160730352e-04 
-1.199872170886e-03 -1.045804178386e-04 0.0 
-1.045804178386e-04 7.736983325214e-03 0.0 
0.0 0.0 -1.218716866995e-03 
-1.124972404341e-03 2.718592290333e-04 0.0 
2.718592290333e-04 6.955187210285e-03 0.0 
0.0 0.0 -1.043883448597e-03 
-1.171061824699e-03 -7.858396141652e-05 0.0 
-7.858396141652e-05 6.870002089505e-03 0.0 
0.0 0.0 -1.070373463590e-03 
-1.223592225032e-03 -6.654680312814e-05 0.0 
-6.654680312814e-05 7.796071319491e-03 0.0 
0.0 0.0 -1.284729618418e-03 
-8.862225412837e-04 -4.776674958030e-04 0.0 
-4.776674958030e-04 4.314456893826e-03 0.0 
0.0 0.0 -6.637377122259e-04 
-5.666876201447e-04 -1.260874714856e-04 0.0 
-1.260874714856e-04 2.263003673050e-03 0.0 
0.0 0.0 -3.731618544808e-04 
-4.219134531154e-04 -1.222472695970e-04 0.0 
-1.222472695970e-04 1.397809828057e-03 0.0 
0.0 0.0 -2.496210768721e-04 
-1.097286575279e-03 -5.440934378647e-04 0.0 
-5.440934378647e-04 6.473058930747e-03 0.0 
0.0 0.0 -1.009908742814e-03 
-1.043727317765e-03 2.472408857258e-04 0.0 
2.472408857258e-04 6.306661261885e-03 0.0 
0.0 0.0 -9.473489374553e-04 
-2.695681844680e-04 -5.290039554231e-05 0.0 
-5.290039554231e-05 9.382689285882e-04 0.0 
0.0 0.0 -1.858848441742e-04 
-7.364560019705e-04 -6.036242025600e-04 0.0 
-6.036242025600e-04 3.440005901319e-03 0.0 
0.0 0.0 -5.400474096907e-04 
-4.035403746382e-04 -2.305403145177e-04 0.0 
-2.305403145177e-04 2.024884021199e-03 0.0 
0.0 0.0 -3.246070344129e-04 
-1.046680963677e-03 -1.140431221757e-04 0.0 
-1.140431221757e-04 6.307213054075e-03 0.0 
0.0 0.0 -9.387834224272e-04 
-7.632592856577e-04 -5.393132933556e-04 0.0 
-5.393132933556e-04 3.657861775186e-03 0.0 
0.0 0.0 -5.687878759048e-04 
-1.016724206552e-03 -2.154888859726e-04 0.0 
-2.154888859726e-04 5.955453979487e-03 0.0 
0.0 0.0 -9.467935652645e-04 
-7.568020148065e-04 -4.521860907560e-04 0.0 
-4.521860907560e-04 3.415229586271e-03 0.0 
0.0 0.0 -5.337555413937e-04 
-1.189199624854e-03 -1.376681473433e-04 0.0 
-1.376681473433e-04 7.515170933533e-03 0.0 
0.0 0.0 -1.114809527198e-03 
-6.923550043241e-04 -2.768469088006e-04 0.0 
-2.768469088006e-04 2.945508556802e-03 0.0 
0.0 0.0 -4.768663991247e-04 
-1.044644236131e-03 -5.895775659962e-04 0.0 
-5.895775659962e-04 6.433247658548e-03 0.0 
0.0 0.0 -1.018590841688e-03 
-5.377186267121e-04 -1.162421830740e-03 0.0 
-1.162421830740e-03 1.924594638442e-03 0.0 
0.0 0.0 -3.376433569222e-04 
-1.043635089924e-03 -5.925974921427e-04 0.0 
-5.925974921427e-04 6.227817584456e-03 0.0 
0.0 0.0 -9.812220007866e-04 
-9.943565397434e-04 -3.497380212248e-04 0.0 
-3.497380212248e-04 4.987357588882e-03 0.0 
0.0 0.0 -7.604224332210e-04 
-1.126398211161e-03 -1.231258313828e-04 0.0 
-1.231258313828e-04 6.641179692916e-03 0.0 
0.0 0.0 -1.041555045145e-03 
9.223743664251e-05 -1.553032727052e-04 0.0 
-1.553032727052e-04 2.018845935385e-03 0.0 
0.0 0.0 -5.350282927002e-04 
-4.513551852745e-04 7.961954421125e-05 0.0 
7.961954421125e-05 1.942718085049e-03 0.0 
0.0 0.0 -3.277310168338e-04 
-9.768870302484e-04 -1.535527430477e-04 0.0 
-1.535527430477e-04 5.889109902335e-03 0.0 
0.0 0.0 -8.787268422831e-04 
-6.833158998415e-04 -4.842839122641e-04 0.0 
-4.842839122641e-04 5.519329349180e-03 0.0 
0.0 0.0 -9.464297096767e-04 
-6.696248071327e-04 9.527190214271e-04 0.0 
9.527190214271e-04 3.942995259938e-03 0.0 
0.0 0.0 -6.776081642141e-04 
-1.047238839157e-03 -1.563485093405e-04 0.0 
-1.563485093405e-04 6.341652196106e-03 0.0 
0.0 0.0 -9.453210152248e-04 
-5.135632802951e-04 -1.406486370917e-03 0.0 
-1.406486370917e-03 1.993823835031e-03 0.0 
0.0 0.0 -3.758914132629e-04 
-1.070153882220e-03 3.026802387506e-04 0.0 
3.026802387506e-04 6.407668419037e-03 0.0 
0.0 0.0 -9.642804585795e-04 
-3.826150946160e-04 -2.687090143275e-04 0.0 
-2.687090143275e-04 1.814458781029e-03 0.0 
0.0 0.0 -2.947674122297e-04 
-1.169970312209e-03 -5.285152303079e-04 0.0 
-5.285152303079e-04 7.359319887074e-03 0.0 
0.0 0.0 -1.150402778756e-03 
-7.093705364921e-04 -3.773457786927e-04 0.0 
-3.773457786927e-04 5.766663180528e-03 0.0 
0.0 0.0 -9.834711240942e-04 
-7.789396793629e-04 4.773750927831e-05 0.0 
4.773750927831e-05 6.190226744614e-03 0.0 
0.0 0.0 -1.037051012011e-03 
-1.266259122541e-03 -6.932227906498e-05 0.0 
-6.932227906498e-05 8.127793637496e-03 0.0 
0.0 0.0 -1.204463612412e-03 
-7.768385389529e-04 -8.073428107716e-04 0.0 
-8.073428107716e-04 4.980090398291e-03 0.0 
0.0 0.0 -8.294769417472e-04 
-4.699473644088e-04 -6.813726004672e-05 0.0 
-6.813726004672e-05 1.813879272209e-03 0.0 
0.0 0.0 -3.081489256106e-04 
-9.161062287207e-04 -6.850931603516e-04 0.0 
-6.850931603516e-04 5.713761905663e-03 0.0 
0.0 0.0 -9.239488535170e-04 
-1.173047693050e-03 -1.052473736579e-04 0.0 
-1.052473736579e-04 7.508097487322e-03 0.0 
0.0 0.0 -1.189963100592e-03 
-4.497409859123e-04 -1.426160803811e-03 0.0 
-1.426160803811e-03 2.458822638814e-03 0.0 
0.0 0.0 -4.786098583285e-04 
-1.143974714499e-03 -4.976969720053e-04 0.0 
-4.976969720053e-04 6.710156245847e-03 0.0 
0.0 0.0 -1.038675661098e-03 
-1.132883010551e-03 -1.192006961438e-04 0.0 
-1.192006961438e-04 7.009605316192e-03 0.0 
0.0 0.0 -1.041631482750e-03 
-1.897791220570e-04 -1.328549867833e-03 0.0 
-1.328549867833e-03 1.573915984256e-03 0.0 
0.0 0.0 -3.880698300753e-04 
-9.832169528241e-04 -6.401107558717e-04 0.0 
-6.401107558717e-04 5.975097252107e-03 0.0 
0.0 0.0 -9.525765839929e-04 
-9.785039199354e-04 -1.168734358181e-04 0.0 
-1.168734358181e-04 5.790498942477e-03 0.0 
0.0 0.0 -8.663127257150e-04 
-5.996048706546e-04 -3.316912815730e-04 0.0 
-3.316912815730e-04 2.740125406625e-03 0.0 
0.0 0.0 -4.280652785065e-04 
-7.035123059792e-04 -6.874159131133e-04 0.0 
-6.874159131133e-04 3.217847307373e-03 0.0 
0.0 0.0 -5.113914792957e-04 
-7.105655773308e-04 4.972009427012e-04 0.0 
4.972009427012e-04 4.827811336805e-03 0.0 
0.0 0.0 -8.004334922225e-04 
-1.074750193164e-03 -1.697498961518e-04 0.0 
-1.697498961518e-04 6.403492678198e-03 0.0 
0.0 0.0 -1.012809740122e-03 
-7.035308576129e-04 5.382426947374e-04 0.0 
5.382426947374e-04 3.806026837703e-03 0.0 
0.0 0.0 -6.201901524263e-04 
-6.308101104936e-04 5.457451351616e-04 0.0 
5.457451351616e-04 4.514197146446e-03 0.0 
0.0 0.0 -7.649884091348e-04 
-1.098080609149e-03 3.025878807238e-04 0.0 
3.025878807238e-04 6.656267622990e-03 0.0 
0.0 0.0 -1.000670320419e-03 
-1.014704614523e-03 2.583884235807e-04 0.0 
2.583884235807e-04 6.049064620228e-03 0.0 
0.0 0.0 -9.110000341593e-04 
-1.009261189838e-03 2.792149560740e-04 0.0 
2.792149560740e-04 5.955274274962e-03 0.0 
0.0 0.0 -8.984003255416e-04 
-9.871449342436e-04 -7.213431481816e-05 0.0 
-7.213431481816e-05 4.924174820230e-03 0.0 
0.0 0.0 -7.627602282935e-04 
-1.065656897570e-03 -5.121112680600e-04 0.0 
-5.121112680600e-04 7.066736918301e-03 0.0 
0.0 0.0 -1.130631056169e-03 
-8.421677165309e-04 -7.268506017030e-04 0.0 
-7.268506017030e-04 5.443918430101e-03 0.0 
0.0 0.0 -8.953295484280e-04 
-9.945000348060e-04 -1.248826091764e-04 0.0 
-1.248826091764e-04 5.857149722276e-03 0.0 
0.0 0.0 -8.720525204519e-04 
-1.238633943108e-03 1.686741563001e-04 0.0 
1.686741563001e-04 7.876441362665e-03 0.0 
0.0 0.0 -1.193584144721e-03 
-8.522957180035e-04 9.316442431589e-05 0.0 
9.316442431589e-05 6.488948212224e-03 0.0 
0.0 0.0 -1.073433710836e-03 
-1.015779217143e-03 -2.144660185469e-04 0.0 
-2.144660185469e-04 6.157749518334e-03 0.0 
0.0 0.0 -9.841343610905e-04 
-1.152967284980e-03 2.909720530725e-04 0.0 
2.909720530725e-04 7.156656236309e-03 0.0 
0.0 0.0 -1.073677668998e-03 
-7.263162190416e-04 -8.886940194724e-04 0.0 
-8.886940194724e-04 3.588121008828e-03 0.0 
0.0 0.0 -5.862626530915e-04 
-7.235359723586e-04 -7.958794651799e-04 0.0 
-7.958794651799e-04 3.410683047674e-03 0.0 
0.0 0.0 -5.488365039436e-04 
-4.694757851361e-04 -5.127005261343e-04 0.0 
-5.127005261343e-04 1.922171349029e-03 0.0 
0.0 0.0 -3.130684191733e-04 
-9.104943950573e-04 -6.552016600707e-04 0.0 
-6.552016600707e-04 5.911258485735e-03 0.0 
0.0 0.0 -9.612598090090e-04 
-7.654832124176e-04 -7.002445478485e-04 0.0 
-7.002445478485e-04 3.645865785489e-03 0.0 
0.0 0.0 -5.775003002374e-04 
-1.075243583964e-03 -1.050257747268e-04 0.0 
-1.050257747268e-04 6.505297040680e-03 0.0 
0.0 0.0 -9.686535345556e-04 
-1.046091552134e-03 -1.046643629052e-04 0.0 
-1.046643629052e-04 6.253743570569e-03 0.0 
0.0 0.0 -9.322463471790e-04 
-3.156258732897e-04 -6.342992802894e-05 0.0 
-6.342992802894e-05 4.063447682096e-03 0.0 
0.0 0.0 -7.690363516573e-04 
-6.768678335791e-04 -4.944889426237e-04 0.0 
-4.944889426237e-04 2.924353115240e-03 0.0 
0.0 0.0 -4.860199686152e-04 
7.378566886559e-05 8.261792693270e-04 0.0 
8.261792693270e-04 1.831438910589e-03 0.0 
0.0 0.0 -5.148587792422e-04 
-7.140205863396e-04 -3.895142562213e-04 0.0 
-3.895142562213e-04 3.153467660833e-03 0.0 
0.0 0.0 -5.143448975765e-04 
-7.166082742774e-04 -4.898417450174e-04 0.0 
-4.898417450174e-04 3.345585253682e-03 0.0 
0.0 0.0 -5.517963299543e-04 
-5.453825262275e-04 -1.801577044467e-04 0.0 
-1.801577044467e-04 2.063785108327e-03 0.0 
0.0 0.0 -3.446931235564e-04 
-9.991919087570e-04 -5.159677692080e-04 0.0 
-5.159677692080e-04 6.812973713771e-03 0.0 
0.0 0.0 -1.101849228969e-03 
-6.361621297383e-04 -6.326273812119e-04 0.0 
-6.326273812119e-04 3.840813039186e-03 0.0 
0.0 0.0 -6.642957827475e-04 
-1.186458515100e-03 -1.053251154620e-04 0.0 
-1.053251154620e-04 7.463739247015e-03 0.0 
0.0 0.0 -1.107989045227e-03 
-5.978205852498e-04 -6.030872319160e-04 0.0 
-6.030872319160e-04 3.997835835114e-03 0.0 
0.0 0.0 -7.013039408444e-04 
-8.766496605348e-04 -2.938506230370e-04 0.0 
-2.938506230370e-04 5.643098139245e-03 0.0 
0.0 0.0 -9.268471029391e-04 
-7.458770769302e-04 -4.494771908485e-04 0.0 
-4.494771908485e-04 4.730820068739e-03 0.0 
0.0 0.0 -7.951651613512e-04 
-5.061128914291e-04 5.136368614140e-04 0.0 
5.136368614140e-04 4.289096613620e-03 0.0 
0.0 0.0 -7.567435594048e-04 
-4.924031779586e-04 -4.582157831525e-04 0.0 
-4.582157831525e-04 2.128157277405e-03 0.0 
0.0 0.0 -3.417109511102e-04 
-1.119466152649e-03 -1.285123435513e-04 0.0 
-1.285123435513e-04 7.241871223374e-03 0.0 
0.0 0.0 -1.161691925552e-03 
-1.157276862038e-03 -5.152756470004e-04 0.0 
-5.152756470004e-04 7.595110461611e-03 0.0 
0.0 0.0 -1.198716319349e-03 
-9.186810373389e-04 7.206447187045e-04 0.0 
7.206447187045e-04 5.929294122594e-03 0.0 
0.0 0.0 -9.650368815299e-04 
-7.024384046348e-04 -5.668947943432e-04 0.0 
-5.668947943432e-04 3.521466880882e-03 0.0 
0.0 0.0 -5.892385666867e-04 
-8.092329254756e-04 -3.679333936268e-04 0.0 
-3.679333936268e-04 5.184879506691e-03 0.0 
0.0 0.0 -8.609535187098e-04 
-1.070645862318e-03 2.880325294516e-04 0.0 
2.880325294516e-04 6.451710160525e-03 0.0 
0.0 0.0 -9.708520278613e-04 
-7.765899253724e-04 -7.845646391497e-04 0.0 
-7.845646391497e-04 3.835907640370e-03 0.0 
0.0 0.0 -6.148791393494e-04 
-5.560475869297e-04 7.086124654578e-04 0.0 
7.086124654578e-04 3.695652655845e-03 0.0 
0.0 0.0 -6.394234923164e-04 
-6.747584532598e-04 -5.770366254477e-04 0.0 
-5.770366254477e-04 3.009985049056e-03 0.0 
0.0 0.0 -4.739097840058e-04 
-4.381090568186e-04 -1.552304285074e-03 0.0 
-1.552304285074e-03 2.041510460725e-03 0.0 
0.0 0.0 -4.132304097957e-04 
-7.141863963918e-04 -9.568035345241e-04 0.0 
-9.568035345241e-04 3.752753679619e-03 0.0 
0.0 0.0 -6.236739531379e-04 
-6.528961987011e-04 -1.781186145787e-04 0.0 
-1.781186145787e-04 2.715857529516e-03 0.0 
0.0 0.0 -4.393534411964e-04 
-5.596275213697e-04 -3.829013705402e-04 0.0 
-3.829013705402e-04 2.536190508459e-03 0.0 
0.0 0.0 -3.988888273503e-04 
-7.947060353366e-04 -8.306305145241e-04 0.0 
-8.306305145241e-04 4.800715564885e-03 0.0 
0.0 0.0 -7.922809795675e-04 
-9.495117069836e-04 -2.555007117944e-04 0.0 
-2.555007117944e-04 5.904688651206e-03 0.0 
0.0 0.0 -9.554846610150e-04 
-1.106451546740e-03 6.547273223382e-04 0.0 
6.547273223382e-04 7.113693437201e-03 0.0 
0.0 0.0 -1.128610778606e-03 
5.517197538679e-04 6.942037793557e-07 0.0 
6.942037793557e-07 5.222913432921e-05 0.0 
0.0 0.0 -1.143255210630e-04 
-3.502562365249e-04 -5.244252159893e-04 0.0 
-5.244252159893e-04 3.531851922803e-03 0.0 
0.0 0.0 -6.818868151027e-04 
-4.968184483203e-04 -6.518828778024e-04 0.0 
-6.518828778024e-04 3.693766435261e-03 0.0 
0.0 0.0 -6.732431144785e-04 
-6.734388902022e-04 -6.179988430693e-04 0.0 
-6.179988430693e-04 3.684173063462e-03 0.0 
0.0 0.0 -6.268095852860e-04 
-1.038674892423e-03 2.849365380829e-04 0.0 
2.849365380829e-04 6.200994707550e-03 0.0 
0.0 0.0 -9.344164207832e-04 
-6.877399303223e-04 -5.371529877498e-04 0.0 
-5.371529877498e-04 4.282013621242e-03 0.0 
0.0 0.0 -7.295442444478e-04 
-7.236126278911e-04 -1.940798346154e-04 0.0 
-1.940798346154e-04 3.162977138653e-03 0.0 
0.0 0.0 -5.055050897130e-04 
-6.903954199582e-04 -9.883908706268e-04 0.0 
-9.883908706268e-04 3.912237901394e-03 0.0 
0.0 0.0 -6.611654675676e-04 
-1.160544064243e-03 2.681116606983e-04 0.0 
2.681116606983e-04 7.207667667947e-03 0.0 
0.0 0.0 -1.080452943103e-03 
-7.185620229440e-04 -5.086767079658e-04 0.0 
-5.086767079658e-04 3.228512561114e-03 0.0 
0.0 0.0 -5.025663706543e-04 
-3.033530584322e-04 -3.126589283008e-05 0.0 
-3.126589283008e-05 1.124202721504e-03 0.0 
0.0 0.0 -2.132551421006e-04 
-4.445863950683e-04 -1.098673452603e-04 0.0 
-1.098673452603e-04 1.624443337862e-03 0.0 
0.0 0.0 -2.784575373548e-04 
-4.556609783406e-04 -1.046441961485e-03 0.0 
-1.046441961485e-03 2.312897280805e-03 0.0 
0.0 0.0 -4.444240490352e-04 
-6.671697262521e-04 -6.094353393578e-04 0.0 
-6.094353393578e-04 3.102567689836e-03 0.0 
0.0 0.0 -5.239304829885e-04 
-4.604694554278e-04 -5.460587614430e-04 0.0 
-5.460587614430e-04 3.852686059404e-03 0.0 
0.0 0.0 -7.099160536912e-04 
-6.597409171735e-04 -9.847744191674e-04 0.0 
-9.847744191674e-04 4.070104714955e-03 0.0 
0.0 0.0 -6.984076724203e-04 
-4.347846215514e-04 -1.333971923402e-03 0.0 
-1.333971923402e-03 1.612936656771e-03 0.0 
0.0 0.0 -3.343205611582e-04 
-3.976613437580e-04 -3.897326152451e-04 0.0 
-3.897326152451e-04 1.671878635782e-03 0.0 
0.0 0.0 -2.765202162382e-04 
-1.033660003461e-03 -1.033996314703e-04 0.0 
-1.033996314703e-04 5.926247048388e-03 0.0 
0.0 0.0 -8.885078876198e-04 
-6.226964712633e-04 -4.829751825411e-04 0.0 
-4.829751825411e-04 2.780306463648e-03 0.0 
0.0 0.0 -4.363975895258e-04 
-9.598608129298e-04 -1.512388155027e-04 0.0 
-1.512388155027e-04 6.520728160314e-03 0.0 
0.0 0.0 -1.067401112627e-03 
-1.044199175907e-03 6.711789122637e-04 0.0 
6.711789122637e-04 6.814869566682e-03 0.0 
0.0 0.0 -1.093380752811e-03 
-1.033158695296e-03 1.201714905428e-04 0.0 
1.201714905428e-04 5.943900742884e-03 0.0 
0.0 0.0 -9.013836717722e-04 
-1.202438437016e-03 3.703852775580e-04 0.0 
3.703852775580e-04 7.497052002657e-03 0.0 
0.0 0.0 -1.126084317643e-03 
-1.147719962247e-03 6.494223347106e-04 0.0 
6.494223347106e-04 7.391690108111e-03 0.0 
0.0 0.0 -1.164310864388e-03 
-2.878547429469e-04 1.154238477974e-04 0.0 
1.154238477974e-04 3.877857573592e-03 0.0 
0.0 0.0 -7.408850503417e-04 
-9.791568623396e-04 6.928855181129e-04 0.0 
6.928855181129e-04 6.367692588182e-03 0.0 
0.0 0.0 -1.029042339204e-03 
-3.868820834042e-04 -1.598175067219e-03 0.0 
-1.598175067219e-03 1.640588266591e-03 0.0 
0.0 0.0 -3.684254322556e-04 
-7.608485108981e-04 -8.950598342909e-04 0.0 
-8.950598342909e-04 4.184728790858e-03 0.0 
0.0 0.0 -6.894573431515e-04 
-3.726378683448e-04 9.309707187506e-04 0.0 
9.309707187506e-04 3.521132831243e-03 0.0 
0.0 0.0 -6.879681371099e-04 
1.475700378225e-04 -1.082055056136e-03 0.0 
-1.082055056136e-03 1.153328364632e-03 0.0 
0.0 0.0 -4.001859895708e-04 
-2.322378270667e-04 -1.414305700121e-03 0.0 
-1.414305700121e-03 1.285051000812e-03 0.0 
0.0 0.0 -3.718692805502e-04 
-7.624977688682e-04 -3.873820506890e-04 0.0 
-3.873820506890e-04 3.581246965727e-03 0.0 
0.0 0.0 -5.804062017457e-04 
-5.687072458126e-04 -1.053499292402e-03 0.0 
-1.053499292402e-03 3.769545573336e-03 0.0 
0.0 0.0 -6.703429011759e-04 
-5.303660715231e-04 -9.834601585863e-04 0.0 
-9.834601585863e-04 3.928073668805e-03 0.0 
0.0 0.0 -7.070647534220e-04 
-6.858142190642e-04 -1.264292236945e-04 0.0 
-1.264292236945e-04 2.925987856864e-03 0.0 
0.0 0.0 -4.680152132766e-04 
-6.589899224581e-04 -5.005558218906e-04 0.0 
-5.005558218906e-04 4.450521373462e-03 0.0 
0.0 0.0 -7.666177146937e-04 
-4.231487579380e-04 -9.909487264928e-04 0.0 
-9.909487264928e-04 3.613001704936e-03 0.0 
0.0 0.0 -6.790125122095e-04 
-3.369199789232e-04 -3.555417311412e-04 0.0 
-3.555417311412e-04 3.718100603305e-03 0.0 
0.0 0.0 -7.183521444552e-04 
-6.803758157452e-04 -9.028741567956e-04 0.0 
-9.028741567956e-04 3.171875899076e-03 0.0 
0.0 0.0 -5.205443542100e-04 
-6.888642757158e-04 -2.049706033719e-04 0.0 
-2.049706033719e-04 5.802071078045e-03 0.0 
0.0 0.0 -9.921115096417e-04 
-1.107658319106e-03 -8.404497540785e-05 0.0 
-8.404497540785e-05 6.709473481144e-03 0.0 
0.0 0.0 -9.984673180475e-04 
-2.379293217191e-04 -2.443881819662e-04 0.0 
-2.443881819662e-04 3.409073247204e-03 0.0 
0.0 0.0 -6.904379518788e-04 
-1.046303389369e-03 -1.114400525399e-04 0.0 
-1.114400525399e-04 6.996162598283e-03 0.0 
0.0 0.0 -1.133495712197e-03 
-3.268910950442e-04 -1.748504239578e-03 0.0 
-1.748504239578e-03 1.649599373731e-03 0.0 
0.0 0.0 -3.849690761666e-04 
-1.105326955299e-03 -1.209562394880e-05 0.0 
-1.209562394880e-05 7.506917461540e-03 0.0 
0.0 0.0 -1.208505026952e-03 
-5.639712272191e-04 -5.345864669018e-04 0.0 
-5.345864669018e-04 4.155944038547e-03 0.0 
0.0 0.0 -7.381355003807e-04 
-1.181963174499e-03 7.139086798359e-04 0.0 
7.139086798359e-04 7.734753846791e-03 0.0 
0.0 0.0 -1.203459118631e-03 
-9.741416899861e-04 2.978325655321e-04 0.0 
2.978325655321e-04 5.872577927131e-03 0.0 
0.0 0.0 -9.144069900286e-04 
-4.654888822043e-04 -1.140967963864e-03 0.0 
-1.140967963864e-03 1.931638852762e-03 0.0 
0.0 0.0 -3.788569260403e-04 
-1.047582909248e-03 1.584393688340e-04 0.0 
1.584393688340e-04 6.105623494628e-03 0.0 
0.0 0.0 -9.292863832265e-04 
-1.220879085669e-03 4.419497771274e-04 0.0 
4.419497771274e-04 7.616026390278e-03 0.0 
0.0 0.0 -1.148369591821e-03 
-5.398601850951e-04 -4.406973068625e-04 0.0 
-4.406973068625e-04 4.330390544396e-03 0.0 
0.0 0.0 -7.747733155264e-04 
-3.603331338578e-04 8.676550475076e-04 0.0 
8.676550475076e-04 2.963522800416e-03 0.0 
0.0 0.0 -5.621395992319e-04 
-1.057553285601e-03 1.944669215669e-04 0.0 
1.944669215669e-04 6.263161490160e-03 0.0 
0.0 0.0 -9.572423940436e-04 
-7.057059362099e-04 9.012515937016e-04 0.0 
9.012515937016e-04 4.348665847300e-03 0.0 
0.0 0.0 -7.402445244775e-04 
-4.362988120307e-04 -1.127161443736e-03 0.0 
-1.127161443736e-03 1.552148016574e-03 0.0 
0.0 0.0 -3.359502462693e-04 
-1.283659217910e-03 4.297574681589e-04 0.0 
4.297574681589e-04 8.390487106861e-03 0.0 
0.0 0.0 -1.259077240559e-03 
-4.445080952730e-04 -7.847967672699e-04 0.0 
-7.847967672699e-04 1.460661056520e-03 0.0 
0.0 0.0 -3.199353184197e-04 
-1.015479846412e-03 -4.911816191570e-05 0.0 
-4.911816191570e-05 7.389564650234e-03 0.0 
0.0 0.0 -1.194426649262e-03 
-1.235108043989e-03 2.931339570481e-04 0.0 
2.931339570481e-04 7.856142431297e-03 0.0 
0.0 0.0 -1.175981821618e-03 
-7.472334457018e-04 -2.848888603521e-04 0.0 
-2.848888603521e-04 6.030064979728e-03 0.0 
0.0 0.0 -1.020516803968e-03 
-1.010840280569e-03 2.871682712165e-04 0.0 
2.871682712165e-04 5.990467797945e-03 0.0 
0.0 0.0 -9.041796124736e-04 
-1.188290086785e-03 -4.131460252783e-05 0.0 
-4.131460252783e-05 7.360236208895e-03 0.0 
0.0 0.0 -1.094228678348e-03 
-3.956150081579e-04 -8.444363927456e-04 0.0 
-8.444363927456e-04 3.798159061747e-03 0.0 
0.0 0.0 -7.154996274706e-04 
-4.250562518241e-04 -8.715186287138e-05 0.0 
-8.715186287138e-05 4.576837397274e-03 0.0 
0.0 0.0 -8.337527902170e-04 
-1.236732889268e-03 3.932687216903e-04 0.0 
3.932687216903e-04 7.932024372295e-03 0.0 
0.0 0.0 -1.191782302182e-03 
-1.016762164362e-03 -2.009947599505e-04 0.0 
-2.009947599505e-04 6.362580938042e-03 0.0 
0.0 0.0 -1.021464098896e-03 
-1.135162035509e-03 -5.768530929233e-05 0.0 
-5.768530929233e-05 6.910041935378e-03 0.0 
0.0 0.0 -1.028225029406e-03 
-7.343430317228e-04 -7.671896480506e-05 0.0 
-7.671896480506e-05 5.717453709460e-03 0.0 
0.0 0.0 -9.780777104595e-04 
-3.572725597686e-04 -1.352690279400e-03 0.0 
-1.352690279400e-03 1.583802329561e-03 0.0 
0.0 0.0 -3.505936111242e-04 
-1.159722748538e-03 -3.230530369319e-05 0.0 
-3.230530369319e-05 7.104974861712e-03 0.0 
0.0 0.0 -1.057861461704e-03 
-1.213686028729e-03 4.975227447854e-04 0.0 
4.975227447854e-04 8.277647080915e-03 0.0 
0.0 0.0 -1.268085107495e-03 
-1.141634375887e-03 -6.383832911746e-05 0.0 
-6.383832911746e-05 7.496062386317e-03 0.0 
0.0 0.0 -1.202195648613e-03 
-7.172722051064e-04 -5.438382500790e-04 0.0 
-5.438382500790e-04 4.116936776522e-03 0.0 
0.0 0.0 -6.923681691211e-04 
-1.013061704463e-03 -1.285173007321e-04 0.0 
-1.285173007321e-04 6.040176746182e-03 0.0 
0.0 0.0 -9.020111041354e-04 
-9.803558555424e-04 2.819126364211e-04 0.0 
2.819126364211e-04 5.747481973327e-03 0.0 
0.0 0.0 -8.677534307045e-04 
-6.277772364563e-04 -9.505441527148e-04 0.0 
-9.505441527148e-04 4.228315103377e-03 0.0 
0.0 0.0 -7.352749011056e-04 
-9.471295400473e-04 -2.290448642546e-04 0.0 
-2.290448642546e-04 6.104893151692e-03 0.0 
0.0 0.0 -9.927925938930e-04 
-9.496787292750e-04 -1.931802113086e-04 0.0 
-1.931802113086e-04 6.308676304586e-03 0.0 
0.0 0.0 -1.030113165296e-03 
-3.367468350593e-04 -4.171493311675e-04 0.0 
-4.171493311675e-04 1.462207300335e-03 0.0 
0.0 0.0 -2.466400652194e-04 
1.723252799301e-04 1.006036226683e-03 0.0 
1.006036226683e-03 1.258635118435e-03 0.0 
0.0 0.0 -4.508272210452e-04 
-2.636139264689e-04 -4.295683990350e-05 0.0 
-4.295683990350e-05 3.648292398008e-03 0.0 
0.0 0.0 -7.269793770173e-04 
-2.881552402748e-04 -7.723163841178e-04 0.0 
-7.723163841178e-04 3.494059092135e-03 0.0 
0.0 0.0 -6.875569550716e-04 
-5.987135522067e-04 9.581338196100e-04 0.0 
9.581338196100e-04 4.121697912248e-03 0.0 
0.0 0.0 -7.320784846625e-04 
-1.264443641134e-03 9.169602624826e-06 0.0 
9.169602624826e-06 8.228641212544e-03 0.0 
0.0 0.0 -1.225426844749e-03 
-1.225437596415e-03 5.454708430458e-04 0.0 
5.454708430458e-04 7.618255897701e-03 0.0 
0.0 0.0 -1.162686153705e-03 
-1.236580353686e-03 -8.584500076514e-05 0.0 
-8.584500076514e-05 7.903871079557e-03 0.0 
0.0 0.0 -1.173632101657e-03 
-7.521471418708e-04 4.524177914914e-04 0.0 
4.524177914914e-04 4.089944836528e-03 0.0 
0.0 0.0 -6.556197767577e-04 
-1.172411158405e-03 4.147315892345e-04 0.0 
4.147315892345e-04 7.176351707369e-03 0.0 
0.0 0.0 -1.082713561900e-03 
-9.808832725520e-04 -6.235651659416e-04 0.0 
-6.235651659416e-04 6.175367423925e-03 0.0 
0.0 0.0 -9.899156953211e-04 
-1.256868554146e-03 3.642260226585e-04 0.0 
3.642260226585e-04 8.010570571666e-03 0.0 
0.0 0.0 -1.198415070424e-03 
-1.131244473165e-03 -2.609112415896e-05 0.0 
-2.609112415896e-05 6.847199996424e-03 0.0 
0.0 0.0 -1.021631336281e-03 
-7.398403296460e-04 -9.100435650523e-04 0.0 
-9.100435650523e-04 4.351978419830e-03 0.0 
0.0 0.0 -7.266350563285e-04 
-1.966131980491e-04 1.343789576191e-04 0.0 
1.343789576191e-04 3.379385752975e-03 0.0 
0.0 0.0 -6.989458521267e-04 
-1.152804453403e-03 3.500950542230e-04 0.0 
3.500950542230e-04 7.051163395974e-03 0.0 
0.0 0.0 -1.060111126929e-03 
-1.235067592862e-03 -2.698356757779e-05 0.0 
-2.698356757779e-05 7.807694952398e-03 0.0 
0.0 0.0 -1.160283895044e-03 
-1.152447904070e-03 3.233521508878e-04 0.0 
3.233521508878e-04 7.106400049278e-03 0.0 
0.0 0.0 -1.066842251349e-03 
-1.126824314787e-03 3.260890582423e-04 0.0 
3.260890582423e-04 6.856832929645e-03 0.0 
0.0 0.0 -1.030428295937e-03 
-1.098624795041e-03 -1.306628866347e-04 0.0 
-1.306628866347e-04 7.036525786255e-03 0.0 
0.0 0.0 -1.124756152480e-03 
-9.788942539780e-04 1.410494860673e-05 0.0 
1.410494860673e-05 7.171321125896e-03 0.0 
0.0 0.0 -1.167530213646e-03 
-1.029227773633e-03 -1.448576550575e-04 0.0 
-1.448576550575e-04 6.777818390463e-03 0.0 
0.0 0.0 -1.096139997395e-03 
-8.853909467236e-04 -3.202143432842e-04 0.0 
-3.202143432842e-04 5.450131718365e-03 0.0 
0.0 0.0 -8.895595506238e-04 
-7.841401063913e-04 5.175313733597e-04 0.0 
5.175313733597e-04 4.039507771945e-03 0.0 
0.0 0.0 -6.419897747600e-04 
-7.984394936658e-04 -1.887921339689e-04 0.0 
-1.887921339689e-04 6.295485930606e-03 0.0 
0.0 0.0 -1.057160997780e-03 
-1.115933343197e-03 4.349000973092e-04 0.0 
4.349000973092e-04 6.664037002129e-03 0.0 
0.0 0.0 -1.010795753303e-03 
-5.956699057430e-04 -8.811439702695e-05 0.0 
-8.811439702695e-05 2.473036601140e-03 0.0 
0.0 0.0 -4.018221946533e-04 
-2.915622310354e-04 -5.737426198503e-04 0.0 
-5.737426198503e-04 3.731241780433e-03 0.0 
0.0 0.0 -7.241222962603e-04 
-4.504794563628e-04 -1.267768640868e-04 0.0 
-1.267768640868e-04 4.437238068048e-03 0.0 
0.0 0.0 -8.193994707270e-04 
-5.327307368017e-04 -1.017456922387e-04 0.0 
-1.017456922387e-04 5.084928060617e-03 0.0 
0.0 0.0 -8.986564694586e-04 
3.950181268846e-04 -2.404122539236e-04 0.0 
-2.404122539236e-04 7.824137722745e-04 0.0 
0.0 0.0 -4.157903644632e-04 
-2.054344188629e-04 -4.192766465647e-04 0.0 
-4.192766465647e-04 3.464515105753e-03 0.0 
0.0 0.0 -6.962026719631e-04 
-6.398120247413e-04 -1.116949900707e-04 0.0 
-1.116949900707e-04 5.588791715487e-03 0.0 
0.0 0.0 -9.636952012155e-04 
-8.444842612221e-04 6.249200502653e-04 0.0 
6.249200502653e-04 4.582153886631e-03 0.0 
0.0 0.0 -7.294090860403e-04 
-7.683331433156e-04 -4.669157271009e-04 0.0 
-4.669157271009e-04 4.555612432421e-03 0.0 
0.0 0.0 -7.579899565570e-04 
-1.071508205892e-03 -5.121927920590e-05 0.0 
-5.121927920590e-05 6.390736393491e-03 0.0 
0.0 0.0 -9.556638187253e-04 
-8.714266706773e-04 2.063026129845e-04 0.0 
2.063026129845e-04 5.095248433608e-03 0.0 
0.0 0.0 -7.638029664831e-04 
-6.864860403863e-05 6.865817311915e-04 0.0 
6.865817311915e-04 5.756289586921e-04 0.0 
0.0 0.0 -2.172772948515e-04 
-8.538627514522e-04 -7.550684867704e-04 0.0 
-7.550684867704e-04 5.254936553017e-03 0.0 
0.0 0.0 -8.580817703278e-04 
-8.031553766191e-04 9.023974365030e-05 0.0 
9.023974365030e-05 6.192888911591e-03 0.0 
0.0 0.0 -1.051835763028e-03 
-1.248237691654e-03 5.633939617195e-04 0.0 
5.633939617195e-04 7.887034516043e-03 0.0 
0.0 0.0 -1.196871286280e-03 
-3.729352427207e-04 2.857944806302e-04 0.0 
2.857944806302e-04 4.199383336330e-03 0.0 
0.0 0.0 -7.999758813884e-04 
-8.246860114036e-04 -3.906175878888e-04 0.0 
-3.906175878888e-04 5.000590526334e-03 0.0 
0.0 0.0 -8.237210115815e-04 
-1.081299147246e-03 -7.697289611938e-05 0.0 
-7.697289611938e-05 6.459732028031e-03 0.0 
0.0 0.0 -9.620958722924e-04 
-2.880056971411e-04 8.925028292911e-04 0.0 
8.925028292911e-04 1.145866698786e-03 0.0 
0.0 0.0 -3.038018182983e-04 
-7.446793118804e-04 1.621554593950e-04 0.0 
1.621554593950e-04 5.956534969945e-03 0.0 
0.0 0.0 -1.023361637732e-03 
-4.737891057000e-04 -2.200266757859e-04 0.0 
-2.200266757859e-04 4.791461031182e-03 0.0 
0.0 0.0 -8.619475031457e-04 
-8.828155885906e-04 2.614625346270e-04 0.0 
2.614625346270e-04 4.904715470600e-03 0.0 
0.0 0.0 -7.615729788896e-04 
-9.809961927394e-04 -5.936604313144e-04 0.0 
-5.936604313144e-04 6.379528294436e-03 0.0 
0.0 0.0 -1.027225276160e-03 
-1.932500912873e-05 -1.677380896941e-03 0.0 
-1.677380896941e-03 1.233986358287e-03 0.0 
0.0 0.0 -3.946419382404e-04 
-9.859370989770e-04 -5.573179193325e-04 0.0 
-5.573179193325e-04 6.591591148133e-03 0.0 
0.0 0.0 -1.064556537081e-03 
-1.075263487039e-03 -6.290518893134e-05 0.0 
-6.290518893134e-05 7.229861812646e-03 0.0 
0.0 0.0 -1.170878753521e-03 
-6.948674803166e-04 2.455637071472e-04 0.0 
2.455637071472e-04 5.729378568502e-03 0.0 
0.0 0.0 -9.948919501216e-04 
-1.162320360260e-03 -6.372562573002e-05 0.0 
-6.372562573002e-05 7.161310363851e-03 0.0 
0.0 0.0 -1.064574987933e-03 
-9.584753352366e-04 2.606905829813e-04 0.0 
2.606905829813e-04 6.727836890182e-03 0.0 
0.0 0.0 -1.082686220397e-03 
-1.082949588594e-03 -4.851124086325e-04 0.0 
-4.851124086325e-04 7.296469259281e-03 0.0 
0.0 0.0 -1.168035910845e-03 
-5.459113610208e-04 8.695894781593e-04 0.0 
8.695894781593e-04 1.682549247342e-03 0.0 
0.0 0.0 -2.917408095836e-04 
-1.104897704515e-03 -4.845952140229e-05 0.0 
-4.845952140229e-05 6.655011128943e-03 0.0 
0.0 0.0 -9.919185416031e-04 
-1.022193057884e-03 1.318252200891e-04 0.0 
1.318252200891e-04 7.257050403107e-03 0.0 
0.0 0.0 -1.173906618061e-03 
-1.179945511942e-03 3.471716249997e-04 0.0 
3.471716249997e-04 7.305593288174e-03 0.0 
0.0 0.0 -1.096489272820e-03 
-5.875834666640e-04 2.546818746217e-04 0.0 
2.546818746217e-04 5.224796690614e-03 0.0 
0.0 0.0 -9.297700869391e-04 
-2.515263867691e-04 -2.254429621664e-04 0.0 
-2.254429621664e-04 3.754254559254e-03 0.0 
0.0 0.0 -7.325247082200e-04 
-9.641389493889e-04 -2.217264104135e-04 0.0 
-2.217264104135e-04 5.113633075458e-03 0.0 
0.0 0.0 -8.069452076110e-04 
4.285236195004e-04 1.396212384085e-04 0.0 
1.396212384085e-04 -1.219952762883e-04 0.0 
0.0 0.0 -1.313692899480e-04 
-1.204146700831e-03 3.439641556613e-04 0.0 
3.439641556613e-04 7.554548687955e-03 0.0 
0.0 0.0 -1.132911322290e-03 
-6.253175333027e-04 -2.826075305287e-05 0.0 
-2.826075305287e-05 2.680000675139e-03 0.0 
0.0 0.0 -4.309687334850e-04 
-5.749579867921e-04 6.771703350766e-04 0.0 
6.771703350766e-04 2.115308728038e-03 0.0 
0.0 0.0 -3.582286249851e-04 
-9.529535044554e-04 3.072244071368e-04 0.0 
3.072244071368e-04 6.570888144221e-03 0.0 
0.0 0.0 -1.054483161448e-03 
-1.255167442230e-03 3.201007171124e-04 0.0 
3.201007171124e-04 8.070344212991e-03 0.0 
0.0 0.0 -1.206783194404e-03 
-8.215496895040e-05 -1.772999525451e-03 0.0 
-1.772999525451e-03 1.193950944070e-03 0.0 
0.0 0.0 -3.966701258844e-04 
-7.833558623484e-04 4.482971625863e-04 0.0 
4.482971625863e-04 5.133302818514e-03 0.0 
0.0 0.0 -8.358581584049e-04 
-1.123137751770e-03 3.572847673877e-04 0.0 
3.572847673877e-04 6.794615582447e-03 0.0 
0.0 0.0 -1.023814440555e-03 
-8.765385540671e-04 -7.492880491734e-04 0.0 
-7.492880491734e-04 4.884441485584e-03 0.0 
0.0 0.0 -7.840072721007e-04 
2.874574446344e-04 -1.091275984428e-03 0.0 
-1.091275984428e-03 9.021895657290e-04 0.0 
0.0 0.0 -4.027365510179e-04 
-3.368056399330e-04 1.320783307670e-03 0.0 
1.320783307670e-03 2.512908282168e-03 0.0 
0.0 0.0 -5.292697486782e-04 
-2.272190685037e-04 -1.261695231052e-03 0.0 
-1.261695231052e-03 1.204255834380e-03 0.0 
0.0 0.0 -3.563018015714e-04 
-5.481856080812e-06 -1.360265015014e-03 0.0 
-1.360265015014e-03 1.114057395476e-03 0.0 
0.0 0.0 -3.608158092454e-04 
-1.672715856143e-04 -1.512279546231e-03 0.0 
-1.512279546231e-03 1.180506359655e-03 0.0 
0.0 0.0 -3.382523083772e-04 
-4.805060594133e-04 2.668098062439e-04 0.0 
2.668098062439e-04 4.715407643663e-03 0.0 
0.0 0.0 -8.647910268431e-04 
-1.323581223665e-03 3.388354907586e-04 0.0 
3.388354907586e-04 9.015003947055e-03 0.0 
0.0 0.0 -1.324146187826e-03 
-6.144383844702e-04 5.601929244688e-04 0.0 
5.601929244688e-04 2.582601934857e-03 0.0 
0.0 0.0 -4.244337567297e-04 
-1.156564282164e-03 -1.287267705775e-04 0.0 
-1.287267705775e-04 7.284536477905e-03 0.0 
0.0 0.0 -1.153422328581e-03 
-1.335800596959e-04 5.879693086389e-04 0.0 
5.879693086389e-04 2.932124141139e-03 0.0 
0.0 0.0 -6.430507458085e-04 
-1.103593163525e-03 -2.311027910085e-05 0.0 
-2.311027910085e-05 6.594057391582e-03 0.0 
0.0 0.0 -9.856407671940e-04 
6.097401795475e-04 2.716157955159e-04 0.0 
2.716157955159e-04 -1.627804699296e-04 0.0 
0.0 0.0 -1.915541612648e-04 
-1.121189365028e-03 -4.313739104837e-04 0.0 
-4.313739104837e-04 7.519397857683e-03 0.0 
0.0 0.0 -1.206759618350e-03 
-1.369628119913e-04 -1.636536330447e-03 0.0 
-1.636536330447e-03 1.233538073419e-03 0.0 
0.0 0.0 -4.045577262616e-04 
-7.109907021558e-04 -5.092194229215e-05 0.0 
-5.092194229215e-05 3.143336407810e-03 0.0 
0.0 0.0 -4.995972236199e-04 
-7.610689947692e-04 3.254275537369e-04 0.0 
3.254275537369e-04 6.017676875730e-03 0.0 
0.0 0.0 -1.031547093314e-03 
-5.009347095537e-04 -8.784504666191e-04 0.0 
-8.784504666191e-04 4.097798542798e-03 0.0 
0.0 0.0 -7.436172176343e-04 
-9.490922030985e-04 8.355820245776e-05 0.0 
8.355820245776e-05 6.977686204134e-03 0.0 
0.0 0.0 -1.139062866688e-03 
-5.334594474911e-04 7.731459396832e-04 0.0 
7.731459396832e-04 3.293236008727e-03 0.0 
0.0 0.0 -5.762899171568e-04 
-1.157169932203e-03 5.876132975745e-05 0.0 
5.876132975745e-05 6.976179943537e-03 0.0 
0.0 0.0 -1.044446328659e-03 
-1.026845760321e-03 3.718808168871e-04 0.0 
3.718808168871e-04 7.294887320679e-03 0.0 
0.0 0.0 -1.198892520503e-03 
-1.098955546930e-03 3.331596057930e-04 0.0 
3.331596057930e-04 6.603659082882e-03 0.0 
0.0 0.0 -9.940794652285e-04 
-1.269540035819e-03 1.940023298487e-04 0.0 
1.940023298487e-04 7.944098741491e-03 0.0 
0.0 0.0 -1.194784139986e-03 
-1.184726223875e-03 -2.348624992810e-06 0.0 
-2.348624992810e-06 7.294407597930e-03 0.0 
0.0 0.0 -1.087318097122e-03 
-1.210012004909e-03 2.996776911562e-05 0.0 
2.996776911562e-05 7.486490191622e-03 0.0 
0.0 0.0 -1.116677092124e-03 
1.863822195981e-04 1.500592688013e-03 0.0 
1.500592688013e-03 6.610975863953e-04 0.0 
0.0 0.0 -3.632056311400e-04 
-1.142912226621e-03 -1.436249115933e-04 0.0 
-1.436249115933e-04 7.061947710655e-03 0.0 
0.0 0.0 -1.115908039155e-03 
-1.147672819159e-03 3.821528619329e-04 0.0 
3.821528619329e-04 6.988478452450e-03 0.0 
0.0 0.0 -1.053364550114e-03 
-4.264879333549e-04 6.971974912426e-04 0.0 
6.971974912426e-04 4.141626674137e-03 0.0 
0.0 0.0 -7.792489223127e-04 
-6.776919640089e-04 4.847017937331e-04 0.0 
4.847017937331e-04 3.056038122043e-03 0.0 
0.0 0.0 -4.908673385051e-04 
-1.078927379078e-03 1.409149927546e-05 0.0 
1.409149927546e-05 7.640444635147e-03 0.0 
0.0 0.0 -1.232292820449e-03 
3.227356576489e-04 7.350862602758e-04 0.0 
7.350862602758e-04 8.113095771019e-04 0.0 
0.0 0.0 -4.142712813041e-04 
-6.537509052586e-04 -4.383754105270e-04 0.0 
-4.383754105270e-04 2.983336896445e-03 0.0 
0.0 0.0 -4.655197245388e-04 
-9.005107576278e-04 4.600258062660e-04 0.0 
4.600258062660e-04 6.613923225017e-03 0.0 
0.0 0.0 -1.105063927110e-03 
-3.654007350969e-04 -1.479495410984e-04 0.0 
-1.479495410984e-04 1.815899396191e-03 0.0 
0.0 0.0 -2.939799329518e-04 
-5.977371900919e-04 5.010127079244e-04 0.0 
5.010127079244e-04 4.620714897895e-03 0.0 
0.0 0.0 -7.924235178053e-04 
-8.040024099011e-04 2.359492841355e-04 0.0 
2.359492841355e-04 6.229578808837e-03 0.0 
0.0 0.0 -1.059843925468e-03 
-1.255635553756e-03 7.173795077006e-05 0.0 
7.173795077006e-05 7.907591642771e-03 0.0 
0.0 0.0 -1.181155146799e-03 
-1.282202030770e-03 1.124926252761e-04 0.0 
1.124926252761e-04 8.112071435222e-03 0.0 
0.0 0.0 -1.210943746944e-03 
-7.487229487199e-04 -1.168956266195e-04 0.0 
-1.168956266195e-04 6.087931342049e-03 0.0 
0.0 0.0 -1.028825005900e-03 
-1.212248021085e-03 -1.436521725134e-05 0.0 
-1.436521725134e-05 7.552882477900e-03 0.0 
0.0 0.0 -1.123737208958e-03 
-2.386760142168e-04 7.145577053840e-04 0.0 
7.145577053840e-04 3.288051445445e-03 0.0 
0.0 0.0 -6.793824814286e-04 
-1.022910334669e-03 3.054988306638e-04 0.0 
3.054988306638e-04 6.728691543712e-03 0.0 
0.0 0.0 -1.062452857821e-03 
-7.369445152822e-04 4.219749857923e-04 0.0 
4.219749857923e-04 3.529735228100e-03 0.0 
0.0 0.0 -5.576509564599e-04 
-1.225600923705e-03 6.150358502408e-04 0.0 
6.150358502408e-04 7.637406645108e-03 0.0 
0.0 0.0 -1.181751882508e-03 
-8.003950005641e-04 3.733577663785e-04 0.0 
3.733577663785e-04 4.007249233080e-03 0.0 
0.0 0.0 -6.243763318321e-04 
-7.858165178840e-04 3.201249060732e-04 0.0 
3.201249060732e-04 4.232155620723e-03 0.0 
0.0 0.0 -6.577503189808e-04 
-3.421685830446e-04 4.506546569180e-04 0.0 
4.506546569180e-04 3.987712693438e-03 0.0 
0.0 0.0 -7.717627972493e-04 
-8.541855867529e-04 3.616408520390e-04 0.0 
3.616408520390e-04 4.495910448337e-03 0.0 
0.0 0.0 -6.911701761307e-04 
-6.466553023066e-04 3.566499724765e-04 0.0 
3.566499724765e-04 5.190189138744e-03 0.0 
0.0 0.0 -8.833033330409e-04 
-4.075558796588e-04 5.082935923898e-04 0.0 
5.082935923898e-04 3.946901844573e-03 0.0 
0.0 0.0 -7.209687761305e-04 
-3.183347553168e-04 -3.900876355230e-04 0.0 
-3.900876355230e-04 3.990865140146e-03 0.0 
0.0 0.0 -7.606211034647e-04 
4.197691498195e-04 -7.924817374046e-04 0.0 
-7.924817374046e-04 5.841418248199e-04 0.0 
0.0 0.0 -3.925496596906e-04 
-2.632176995851e-04 3.130804871778e-04 0.0 
3.130804871778e-04 3.673894068274e-03 0.0 
0.0 0.0 -7.353490689725e-04 
-1.228427596361e-03 3.654441690398e-04 0.0 
3.654441690398e-04 7.753036613507e-03 0.0 
0.0 0.0 -1.162517914204e-03 
-1.234586540092e-03 6.496817172604e-04 0.0 
6.496817172604e-04 7.840810725913e-03 0.0 
0.0 0.0 -1.195263893373e-03 
-1.079254607357e-03 -1.716834017040e-04 0.0 
-1.716834017040e-04 6.610697418479e-03 0.0 
0.0 0.0 -1.050100468764e-03 
-9.999924356562e-04 4.337068162590e-04 0.0 
4.337068162590e-04 7.101876474641e-03 0.0 
0.0 0.0 -1.170266998156e-03 
-4.393592797757e-04 -4.178536690016e-04 0.0 
-4.178536690016e-04 4.023524415681e-03 0.0 
0.0 0.0 -7.463264885205e-04 
-1.196792592392e-03 4.110574340668e-04 0.0 
4.110574340668e-04 7.430663622206e-03 0.0 
0.0 0.0 -1.119019617531e-03 
-3.103812770642e-04 1.366237006987e-04 0.0 
1.366237006987e-04 3.912213435347e-03 0.0 
0.0 0.0 -7.634232545038e-04 
-1.186941185396e-03 -1.093564622626e-04 0.0 
-1.093564622626e-04 7.299889317220e-03 0.0 
0.0 0.0 -1.144395376583e-03 
-1.175446045210e-03 3.743988593539e-04 0.0 
3.743988593539e-04 7.239811730626e-03 0.0 
0.0 0.0 -1.089631904438e-03 
-1.184480952279e-03 4.301367348574e-05 0.0 
4.301367348574e-05 7.231184503722e-03 0.0 
0.0 0.0 -1.080451501872e-03 
-6.366755747078e-04 1.541674785508e-04 0.0 
1.541674785508e-04 5.452650900242e-03 0.0 
0.0 0.0 -9.580909834143e-04 
-2.389238927474e-04 5.103421139427e-04 0.0 
5.103421139427e-04 3.464348160629e-03 0.0 
0.0 0.0 -7.073300717972e-04 
-1.091479932409e-03 3.053404772209e-04 0.0 
3.053404772209e-04 7.161436277653e-03 0.0 
0.0 0.0 -1.126038590206e-03 
-9.842000416471e-04 6.396846099915e-04 0.0 
6.396846099915e-04 5.813603015757e-03 0.0 
0.0 0.0 -9.169694165663e-04 
1.883793847700e-04 -1.613056327393e-03 0.0 
-1.613056327393e-03 7.099727485344e-04 0.0 
0.0 0.0 -3.670597958229e-04 
4.158840995285e-04 -1.069455846307e-04 0.0 
-1.069455846307e-04 9.093131002263e-04 0.0 
0.0 0.0 -4.209936697170e-04 
-5.253520320544e-04 1.113226159763e-03 0.0 
1.113226159763e-03 3.274387380493e-03 0.0 
0.0 0.0 -6.061407060701e-04 
-8.148800044768e-04 7.943320417803e-04 0.0 
7.943320417803e-04 5.072587073095e-03 0.0 
0.0 0.0 -8.384786063130e-04 
-1.230266496445e-03 -6.856974243120e-05 0.0 
-6.856974243120e-05 7.537797729461e-03 0.0 
0.0 0.0 -1.173545322487e-03 
-1.159784806983e-03 4.546774843699e-06 0.0 
4.546774843699e-06 7.042624556690e-03 0.0 
0.0 0.0 -1.051102540299e-03 
-2.045778073669e-04 -2.934353049160e-05 0.0 
-2.934353049160e-05 3.544788899175e-03 0.0 
0.0 0.0 -7.045205360201e-04 
-9.013823451461e-04 3.641498331546e-04 0.0 
3.641498331546e-04 5.853350218943e-03 0.0 
0.0 0.0 -9.344940742331e-04 
-8.532834150583e-04 1.785665259931e-04 0.0 
1.785665259931e-04 6.467721788847e-03 0.0 
0.0 0.0 -1.088599101970e-03 
-1.213199839846e-03 -4.701032574329e-05 0.0 
-4.701032574329e-05 7.611187462875e-03 0.0 
0.0 0.0 -1.130578931274e-03 
-1.163123546776e-03 3.469650352866e-04 0.0 
3.469650352866e-04 7.457428311297e-03 0.0 
0.0 0.0 -1.160781586281e-03 
-1.064121038643e-03 3.592685452389e-04 0.0 
3.592685452389e-04 6.295822569873e-03 0.0 
0.0 0.0 -9.517943393003e-04 
-9.431187375283e-04 -8.030312093777e-06 0.0 
-8.030312093777e-06 6.723807310886e-03 0.0 
0.0 0.0 -1.113435711030e-03 
-3.640285380992e-04 -2.251334255899e-04 0.0 
-2.251334255899e-04 4.276860424883e-03 0.0 
0.0 0.0 -7.971871449875e-04 
-8.575470034421e-04 -2.591277644309e-04 0.0 
-2.591277644309e-04 6.522660233149e-03 0.0 
0.0 0.0 -1.086118700983e-03 
-6.488096190532e-04 8.782975641900e-04 0.0 
8.782975641900e-04 4.555098411154e-03 0.0 
0.0 0.0 -7.951163407912e-04 
-1.259477151619e-03 2.377000778179e-05 0.0 
2.377000778179e-05 7.994105241717e-03 0.0 
0.0 0.0 -1.188704642750e-03 
-1.188566355983e-03 2.821785558319e-04 0.0 
2.821785558319e-04 7.789552889991e-03 0.0 
0.0 0.0 -1.200489323427e-03 
-5.291595357548e-04 1.464001696405e-04 0.0 
1.464001696405e-04 4.944674619640e-03 0.0 
0.0 0.0 -8.929891684399e-04 
5.077877396978e-04 3.026021049410e-04 0.0 
3.026021049410e-04 3.943566526323e-04 0.0 
0.0 0.0 -3.866333109986e-04 
-9.967575789130e-04 6.124990556396e-04 0.0 
6.124990556396e-04 6.815699392306e-03 0.0 
0.0 0.0 -1.113685640909e-03 
-6.605390437865e-04 4.261094964972e-04 0.0 
4.261094964972e-04 5.059149157301e-03 0.0 
0.0 0.0 -8.555605426019e-04 
-1.830081198130e-04 1.866635750844e-04 0.0 
1.866635750844e-04 3.368216116446e-03 0.0 
0.0 0.0 -6.765734244908e-04 
-5.817203437329e-04 -2.125841840423e-04 0.0 
-2.125841840423e-04 5.299242741235e-03 0.0 
0.0 0.0 -9.269463096178e-04 
-9.296871453603e-04 -5.069518437094e-04 0.0 
-5.069518437094e-04 6.554705833196e-03 0.0 
0.0 0.0 -1.072977024862e-03 
5.145493605139e-04 -6.481882605914e-04 0.0 
-6.481882605914e-04 5.138628621790e-04 0.0 
0.0 0.0 -3.958212347391e-04 
-4.207868633399e-04 1.388755270071e-04 0.0 
1.388755270071e-04 4.431893145968e-03 0.0 
0.0 0.0 -8.281205301186e-04 
-1.057518774056e-03 5.392644449481e-04 0.0 
5.392644449481e-04 6.206831668111e-03 0.0 
0.0 0.0 -9.596127204057e-04 
-1.238644968873e-03 -4.648423040969e-04 0.0 
-4.648423040969e-04 7.603472997752e-03 0.0 
0.0 0.0 -1.170838755190e-03 
-1.067041670428e-03 5.715302009941e-04 0.0 
5.715302009941e-04 6.356528225694e-03 0.0 
0.0 0.0 -9.876491701491e-04 
-9.841945622355e-04 6.610492595006e-04 0.0 
6.610492595006e-04 6.661208694162e-03 0.0 
0.0 0.0 -1.085374163265e-03 
-1.045085745863e-03 5.003784013052e-04 0.0 
5.003784013052e-04 6.049842854282e-03 0.0 
0.0 0.0 -9.316602363005e-04 
-1.022837492668e-03 4.381275546802e-04 0.0 
4.381275546802e-04 5.716010034056e-03 0.0 
0.0 0.0 -8.756372412555e-04 
-9.850681647526e-04 6.675723233926e-04 0.0 
6.675723233926e-04 5.952563133260e-03 0.0 
0.0 0.0 -9.447135688329e-04 
-9.326630633240e-04 3.930283305116e-04 0.0 
3.930283305116e-04 6.810995827980e-03 0.0 
0.0 0.0 -1.133505030480e-03 
-1.106660061021e-03 -5.521563816417e-04 0.0 
-5.521563816417e-04 6.894855264338e-03 0.0 
0.0 0.0 -1.084522140297e-03 
-1.120799229937e-03 3.838899692646e-04 0.0 
3.838899692646e-04 6.737454909863e-03 0.0 
0.0 0.0 -1.017300281410e-03 
-1.265839226480e-03 4.523982644349e-04 0.0 
4.523982644349e-04 8.063487692737e-03 0.0 
0.0 0.0 -1.212886757924e-03 
-1.030324522425e-03 4.628372417255e-04 0.0 
4.628372417255e-04 5.887641382241e-03 0.0 
0.0 0.0 -9.037302385344e-04 
2.653135269755e-05 8.001600084414e-05 0.0 
8.001600084414e-05 2.476344782206e-03 0.0 
0.0 0.0 -5.760585567884e-04 
-1.044239643313e-03 2.376498451470e-04 0.0 
2.376498451470e-04 7.187723140536e-03 0.0 
0.0 0.0 -1.146733564437e-03 
-1.253924981079e-03 -4.907598213233e-05 0.0 
-4.907598213233e-05 8.057805599269e-03 0.0 
0.0 0.0 -1.196744929305e-03 
-5.355464959753e-04 8.349410411799e-04 0.0 
8.349410411799e-04 4.335085481445e-03 0.0 
0.0 0.0 -7.869228524964e-04 
-6.233378135021e-04 8.291713004523e-04 0.0 
8.291713004523e-04 4.669146782253e-03 0.0 
0.0 0.0 -8.226527892688e-04 
-9.042297380501e-05 1.578503348626e-05 0.0 
1.578503348626e-05 3.015977975308e-03 0.0 
0.0 0.0 -6.402419685743e-04 
-1.145557266538e-03 4.246140586136e-04 0.0 
4.246140586136e-04 6.921583184568e-03 0.0 
0.0 0.0 -1.046609947212e-03 
-6.981713726155e-04 9.056832497172e-04 0.0 
9.056832497172e-04 3.852457966674e-03 0.0 
0.0 0.0 -6.500746975200e-04 
-6.825381544126e-04 6.942299752500e-04 0.0 
6.942299752500e-04 5.269578602974e-03 0.0 
0.0 0.0 -9.137630964162e-04 
-6.717413934869e-04 5.961928435860e-04 0.0 
5.961928435860e-04 3.907642713709e-03 0.0 
0.0 0.0 -6.476280927198e-04 
-8.299310340804e-04 4.003109170218e-04 0.0 
4.003109170218e-04 6.314977660297e-03 0.0 
0.0 0.0 -1.068254633495e-03 
-1.134995185088e-03 2.756692802088e-04 0.0 
2.756692802088e-04 7.594750376581e-03 0.0 
0.0 0.0 -1.211228670573e-03 
-1.360533559688e-04 -2.215574873168e-04 0.0 
-2.215574873168e-04 3.223027219763e-03 0.0 
0.0 0.0 -6.682047883386e-04 
4.373904628404e-04 -2.393257178328e-04 0.0 
-2.393257178328e-04 -1.132865459339e-04 0.0 
0.0 0.0 -1.389016786742e-04 
-1.258599255868e-03 5.175436206336e-04 0.0 
5.175436206336e-04 7.974357198458e-03 0.0 
0.0 0.0 -1.207184308065e-03 
-7.509449296831e-04 8.117398232865e-04 0.0 
8.117398232865e-04 4.141196512392e-03 0.0 
0.0 0.0 -6.853381776776e-04 
-4.357225566231e-04 -2.745654093134e-04 0.0 
-2.745654093134e-04 4.218247831069e-03 0.0 
0.0 0.0 -7.828151049093e-04 
-1.060590658414e-03 6.112856710438e-04 0.0 
6.112856710438e-04 7.289270463529e-03 0.0 
0.0 0.0 -1.177925372349e-03 
-1.133119087327e-03 1.716253131945e-05 0.0 
1.716253131945e-05 6.790529249754e-03 0.0 
0.0 0.0 -1.015069748350e-03 
-1.047918274143e-03 -5.722033483047e-04 0.0 
-5.722033483047e-04 6.640384232334e-03 0.0 
0.0 0.0 -1.055879354346e-03 
-3.002045645479e-04 4.799822856897e-04 0.0 
4.799822856897e-04 3.594772661625e-03 0.0 
0.0 0.0 -6.851017020021e-04 
1.437633437549e-04 -1.583243096343e-05 0.0 
-1.583243096343e-05 -4.287346076813e-05 0.0 
0.0 0.0 -4.323852128003e-05 
-1.294332022630e-03 -4.590388614896e-04 0.0 
-4.590388614896e-04 7.891763322768e-03 0.0 
0.0 0.0 -1.202131160132e-03 
-7.979241755137e-04 7.967983468878e-04 0.0 
7.967983468878e-04 5.189819245057e-03 0.0 
0.0 0.0 -8.660506973337e-04 
-7.515738742409e-04 1.099645178349e-04 0.0 
1.099645178349e-04 5.981619188890e-03 0.0 
0.0 0.0 -1.007142642412e-03 
-1.115772722662e-03 6.613759768766e-04 0.0 
6.613759768766e-04 7.287802445254e-03 0.0 
0.0 0.0 -1.157822513452e-03 
0.0 0.0 0.0 
0.0 0.0 0.0 
0.0 0.0 0.0 
-1.020410346766e-03 -1.741879484343e-04 0.0 
-1.741879484343e-04 6.569036879710e-03 0.0 
0.0 0.0 -1.058763633038e-03 
-1.044584882710e-04 9.374141262810e-04 0.0 
9.374141262810e-04 2.179572843365e-03 0.0 
0.0 0.0 -4.919579008500e-04 
-1.074016419554e-03 -9.865194451982e-06 0.0 
-9.865194451982e-06 6.344021920267e-03 0.0 
0.0 0.0 -9.498437721210e-04 
-9.305727240655e-04 -6.933921297842e-04 0.0 
-6.933921297842e-04 5.329347824549e-03 0.0 
0.0 0.0 -8.496012432876e-04 
-1.513106441094e-04 3.496683072490e-04 0.0 
3.496683072490e-04 3.137268859880e-03 0.0 
0.0 0.0 -6.709551114794e-04 
-1.200608795278e-03 -4.872905826385e-04 0.0 
-4.872905826385e-04 7.367763642178e-03 0.0 
0.0 0.0 -1.141635569211e-03 
-6.896908437113e-04 7.588366273899e-04 0.0 
7.588366273899e-04 5.123258515759e-03 0.0 
0.0 0.0 -8.859145181037e-04 
-3.682506920307e-05 4.047925217802e-04 0.0 
4.047925217802e-04 2.589749957424e-03 0.0 
0.0 0.0 -6.067458373204e-04 
-8.340011645670e-04 4.008480374015e-04 0.0 
4.008480374015e-04 5.557081142302e-03 0.0 
0.0 0.0 -8.989548790023e-04 
3.022096838876e-04 -3.038195152345e-04 0.0 
-3.038195152345e-04 -5.124151784210e-05 0.0 
0.0 0.0 -1.075577854481e-04 
-9.546355211556e-04 3.234338831530e-04 0.0 
3.234338831530e-04 6.429567223705e-03 0.0 
0.0 0.0 -1.026417656363e-03 
-8.158927749848e-04 -3.909777349408e-05 0.0 
-3.909777349408e-05 6.386420010715e-03 0.0 
0.0 0.0 -1.065496432940e-03 
-1.247055565640e-03 3.319997532961e-04 0.0 
3.319997532961e-04 7.921779384989e-03 0.0 
0.0 0.0 -1.233600908384e-03 
-1.025284337354e-03 2.945178670449e-04 0.0 
2.945178670449e-04 6.877652576001e-03 0.0 
0.0 0.0 -1.090749533212e-03 
2.434503745851e-04 -1.578934998957e-04 0.0 
-1.578934998957e-04 1.529841444305e-03 0.0 
0.0 0.0 -4.758149136988e-04 
-1.100855494631e-03 -5.513580386133e-04 0.0 
-5.513580386133e-04 6.680884096093e-03 0.0 
0.0 0.0 -1.047231727503e-03 
-1.252169978070e-03 3.748871630309e-04 0.0 
3.748871630309e-04 8.183246127380e-03 0.0 
0.0 0.0 -1.228155452712e-03 
-1.172998084832e-03 8.287498321717e-05 0.0 
8.287498321717e-05 7.902166307926e-03 0.0 
0.0 0.0 -1.267145247477e-03 
-8.845763971731e-04 3.343706134047e-05 0.0 
3.343706134047e-05 6.685188464531e-03 0.0 
0.0 0.0 -1.102242875413e-03 
-2.824655770355e-04 3.019818645340e-04 0.0 
3.019818645340e-04 3.719180698001e-03 0.0 
0.0 0.0 -7.127912709901e-04 
-8.914221389397e-04 3.576211756874e-04 0.0 
3.576211756874e-04 5.989320852496e-03 0.0 
0.0 0.0 -9.624716764950e-04 
-1.265622827008e-03 -3.602381928261e-05 0.0 
-3.602381928261e-05 7.525688479598e-03 0.0 
0.0 0.0 -1.164316760544e-03 
-1.026823558190e-03 -3.127358117122e-04 0.0 
-3.127358117122e-04 5.188290229651e-03 0.0 
0.0 0.0 -7.878971455476e-04 
-9.790335059978e-04 6.764140397440e-04 0.0 
6.764140397440e-04 6.506573428341e-03 0.0 
0.0 0.0 -1.057196955382e-03 
-1.092783271967e-03 3.587775336083e-04 0.0 
3.587775336083e-04 6.543365283594e-03 0.0 
0.0 0.0 -9.877098122506e-04 
-1.155871143424e-03 -5.200772835953e-04 0.0 
-5.200772835953e-04 7.131963810306e-03 0.0 
0.0 0.0 -1.112977059762e-03 
-1.053791982519e-03 -5.418051239347e-04 0.0 
-5.418051239347e-04 6.849369446006e-03 0.0 
0.0 0.0 -1.093234982489e-03 
-8.344751970142e-04 -5.063632387036e-06 0.0 
-5.063632387036e-06 4.624983012521e-03 0.0 
0.0 0.0 -7.313513689239e-04 
-8.293658591313e-04 3.666703434100e-05 0.0 
3.666703434100e-05 4.623218336322e-03 0.0 
0.0 0.0 -7.310574395863e-04 
-1.097030069405e-03 1.613810298079e-04 0.0 
1.613810298079e-04 6.539696336596e-03 0.0 
0.0 0.0 -9.927888931629e-04 
-9.125545325387e-04 7.100995827850e-04 0.0 
7.100995827850e-04 6.060357295598e-03 0.0 
0.0 0.0 -9.930598132463e-04 
-9.889474269995e-04 -6.231936758992e-04 0.0 
-6.231936758992e-04 5.582412655685e-03 0.0 
0.0 0.0 -8.780428295617e-04 
-1.024071250989e-03 2.871939654452e-04 0.0 
2.871939654452e-04 6.293682207182e-03 0.0 
0.0 0.0 -9.775429604617e-04 
-6.061110354643e-04 7.542189021973e-04 0.0 
7.542189021973e-04 4.796279324774e-03 0.0 
0.0 0.0 -8.502279965035e-04 
-1.039665177067e-03 6.008961477257e-05 0.0 
6.008961477257e-05 7.149947818513e-03 0.0 
0.0 0.0 -1.180288150054e-03 
-3.419429553988e-04 7.892463912468e-04 0.0 
7.892463912468e-04 3.645374748844e-03 0.0 
0.0 0.0 -7.154845226688e-04 
-1.354053466570e-03 2.682798114320e-04 0.0 
2.682798114320e-04 9.013564030942e-03 0.0 
0.0 0.0 -1.323793839065e-03 
-9.392924140877e-04 3.695422570173e-04 0.0 
3.695422570173e-04 5.310514062737e-03 0.0 
0.0 0.0 -8.119939454945e-04 
-5.728660710208e-04 4.262528038404e-04 0.0 
4.262528038404e-04 4.737723853376e-03 0.0 
0.0 0.0 -8.199314282332e-04 
-8.958346709753e-04 -3.297015998196e-04 0.0 
-3.297015998196e-04 5.260659561238e-03 0.0 
0.0 0.0 -8.523954645778e-04 
2.690092700999e-04 2.909500152897e-04 0.0 
2.909500152897e-04 1.354854423747e-03 0.0 
0.0 0.0 -4.479040077299e-04 
-8.117880315537e-04 -8.289707142058e-04 0.0 
-8.289707142058e-04 4.623452632362e-03 0.0 
0.0 0.0 -7.551671247638e-04 
-8.525904846397e-04 7.508503903319e-04 0.0 
7.508503903319e-04 5.621343722007e-03 0.0 
0.0 0.0 -9.293281999836e-04 
-8.758111121474e-04 7.483431883641e-04 0.0 
7.483431883641e-04 5.371889788881e-03 0.0 
0.0 0.0 -8.738309435711e-04 
-1.092742745582e-03 3.915524889603e-04 0.0 
3.915524889603e-04 6.485907170089e-03 0.0 
0.0 0.0 -9.814596669550e-04 
-1.035952161766e-03 6.611052853446e-04 0.0 
6.611052853446e-04 6.380857888035e-03 0.0 
0.0 0.0 -1.008022096355e-03 
-1.077652724168e-03 2.805726221407e-04 0.0 
2.805726221407e-04 6.715783923999e-03 0.0 
0.0 0.0 -1.040850218070e-03 
-2.023974518503e-04 -1.321133762499e-04 0.0 
-1.321133762499e-04 1.384394093772e-03 0.0 
0.0 0.0 -2.163717569139e-04 
-7.893601242255e-04 -4.562798916239e-04 0.0 
-4.562798916239e-04 4.381521976835e-03 0.0 
0.0 0.0 -7.209013985657e-04 
-7.313998078972e-04 5.086544562021e-04 0.0 
5.086544562021e-04 4.197814066076e-03 0.0 
0.0 0.0 -6.825522065409e-04 
-1.028318523239e-03 6.006171887521e-04 0.0 
6.006171887521e-04 6.085692307244e-03 0.0 
0.0 0.0 -9.521954671713e-04 
-1.067646735267e-03 2.331910673829e-04 0.0 
2.331910673829e-04 6.426373394987e-03 0.0 
0.0 0.0 -9.850634846466e-04 
-9.716546386639e-04 2.965949022534e-04 0.0 
2.965949022534e-04 6.988702290933e-03 0.0 
0.0 0.0 -1.160108757481e-03 
-4.472950566148e-04 1.734158785359e-04 0.0 
1.734158785359e-04 1.999281221139e-03 0.0 
0.0 0.0 -3.273996513303e-04 
5.013762340144e-04 -1.239269767564e-03 0.0 
-1.239269767564e-03 2.218446430556e-04 0.0 
0.0 0.0 -3.099518044586e-04 
-7.265319955109e-04 8.390462931927e-04 0.0 
8.390462931927e-04 4.877510016991e-03 0.0 
0.0 0.0 -8.305977116616e-04 
-8.244303094237e-04 -8.036957222691e-04 0.0 
-8.036957222691e-04 4.446645084886e-03 0.0 
0.0 0.0 -7.181358556540e-04 
-8.207218427826e-04 3.111449193729e-07 0.0 
3.111449193729e-07 4.297525914166e-03 0.0 
0.0 0.0 -6.554599841463e-04 
-8.454650530547e-04 2.288116945552e-05 0.0 
2.288116945552e-05 4.550895634799e-03 0.0 
0.0 0.0 -6.889204951115e-04 
-1.102411452052e-03 3.661135033764e-05 0.0 
3.661135033764e-05 6.536305471285e-03 0.0 
0.0 0.0 -9.793492904611e-04 
1.401876311920e-04 1.457319982698e-03 0.0 
1.457319982698e-03 8.276000244946e-04 0.0 
0.0 0.0 -3.371109590423e-04 
-9.056307504124e-04 -3.219601326285e-04 0.0 
-3.219601326285e-04 5.073216074597e-03 0.0 
0.0 0.0 -8.154759146177e-04 
-8.139515461008e-04 -3.444279104295e-04 0.0 
-3.444279104295e-04 6.262709696181e-03 0.0 
0.0 0.0 -1.049209916622e-03 
5.784646720155e-04 -2.798136268851e-04 0.0 
-2.798136268851e-04 4.491531344292e-05 0.0 
0.0 0.0 -2.671628509107e-04 
-1.269607203850e-03 4.300111845681e-04 0.0 
4.300111845681e-04 8.005085435650e-03 0.0 
0.0 0.0 -1.285586381397e-03 
-1.234701409080e-03 4.026661623699e-05 0.0 
4.026661623699e-05 7.724712803764e-03 0.0 
0.0 0.0 -1.152455342817e-03 
-9.332307083252e-04 -6.317385210980e-04 0.0 
-6.317385210980e-04 4.943755293323e-03 0.0 
0.0 0.0 -7.756113943005e-04 
-1.132361128818e-03 -1.347962173953e-04 0.0 
-1.347962173953e-04 6.852501733015e-03 0.0 
0.0 0.0 -1.078722419643e-03 
-1.782286125890e-04 -3.440225614963e-05 0.0 
-3.440225614963e-05 7.356149739106e-04 0.0 
0.0 0.0 -1.797547709840e-04 
-7.836878423569e-04 -4.420353483476e-04 0.0 
-4.420353483476e-04 6.015976224596e-03 0.0 
0.0 0.0 -1.012471576362e-03 
-7.618878641414e-04 4.386001518409e-04 0.0 
4.386001518409e-04 5.252415903850e-03 0.0 
0.0 0.0 -8.634366945984e-04 
-1.365202202974e-04 -1.663937919944e-05 0.0 
-1.663937919944e-05 7.240163383166e-04 0.0 
0.0 0.0 -1.788519809851e-04 
-1.221296204116e-03 3.897303876191e-04 0.0 
3.897303876191e-04 7.675470665632e-03 0.0 
0.0 0.0 -1.154859126927e-03 
6.541694671517e-04 -5.838497479074e-04 0.0 
-5.838497479074e-04 -1.165985658389e-04 0.0 
0.0 0.0 -2.303875291341e-04 
-1.022773715161e-03 2.649419741859e-04 0.0 
2.649419741859e-04 6.147018606592e-03 0.0 
0.0 0.0 -9.496453321265e-04 
-8.501477431051e-04 4.017489682252e-04 0.0 
4.017489682252e-04 5.430956065029e-03 0.0 
0.0 0.0 -8.712718144564e-04 
-3.870813166907e-04 -6.841434598879e-04 0.0 
-6.841434598879e-04 4.009053170529e-03 0.0 
0.0 0.0 -7.519815330289e-04 
-7.080628147866e-04 -2.630245850535e-04 0.0 
-2.630245850535e-04 5.293137348391e-03 0.0 
0.0 0.0 -9.052548162676e-04 
-1.248469741651e-03 4.216386458729e-04 0.0 
4.216386458729e-04 7.872413297340e-03 0.0 
0.0 0.0 -1.182898372388e-03 
-7.959805508824e-04 -1.903636579771e-04 0.0 
-1.903636579771e-04 5.775075989453e-03 0.0 
0.0 0.0 -9.716005391689e-04 
-7.058567601375e-04 8.071090420181e-04 0.0 
8.071090420181e-04 4.993912000440e-03 0.0 
0.0 0.0 -8.581765416018e-04 
-6.834773769761e-04 4.720321187624e-04 0.0 
4.720321187624e-04 4.941232986507e-03 0.0 
0.0 0.0 -8.279616112546e-04 
1.200725464497e-05 4.997720012563e-04 0.0 
4.997720012563e-04 2.980647594779e-04 0.0 
0.0 0.0 -1.328880060527e-04 
5.267325684764e-04 -1.507976047628e-04 0.0 
-1.507976047628e-04 -1.515568147922e-04 0.0 
0.0 0.0 -1.607896087218e-04 
-1.031637425544e-03 2.938257107745e-04 0.0 
2.938257107745e-04 7.016823171402e-03 0.0 
0.0 0.0 -1.118331045454e-03 
-1.047581819557e-03 3.855603907833e-05 0.0 
3.855603907833e-05 6.024362043911e-03 0.0 
0.0 0.0 -9.085367473448e-04 
-1.068580773740e-03 6.289177231850e-04 0.0 
6.289177231850e-04 7.124997701846e-03 0.0 
0.0 0.0 -1.148691026115e-03 
-2.168784888490e-04 1.398227562360e-03 0.0 
1.398227562360e-03 2.112550911132e-03 0.0 
0.0 0.0 -4.942977111402e-04 
-1.176051745943e-03 5.435901405529e-04 0.0 
5.435901405529e-04 7.176283028080e-03 0.0 
0.0 0.0 -1.097950598811e-03 
-1.105546950119e-03 2.883637130323e-04 0.0 
2.883637130323e-04 7.335184708628e-03 0.0 
0.0 0.0 -1.155407764312e-03 
-8.481473499091e-04 3.802854440166e-04 0.0 
3.802854440166e-04 4.634623972028e-03 0.0 
0.0 0.0 -7.179420443741e-04 
-1.053414342459e-03 6.334862389143e-04 0.0 
6.334862389143e-04 6.950110385841e-03 0.0 
0.0 0.0 -1.120992621467e-03 
-1.150488405997e-03 -5.115596481821e-04 0.0 
-5.115596481821e-04 6.921289775542e-03 0.0 
0.0 0.0 -1.075946734593e-03 
-8.430169137080e-04 7.309466471044e-04 0.0 
7.309466471044e-04 5.750606817071e-03 0.0 
0.0 0.0 -9.571162043194e-04 
-8.407412319889e-04 -3.923326874810e-04 0.0 
-3.923326874810e-04 4.820090656330e-03 0.0 
0.0 0.0 -7.866383436874e-04 
-8.661293961769e-04 -7.636305903076e-04 0.0 
-7.636305903076e-04 5.068827859701e-03 0.0 
0.0 0.0 -8.209012074946e-04 
-1.276631957823e-03 1.351613779989e-04 0.0 
1.351613779989e-04 8.067600813718e-03 0.0 
0.0 0.0 -1.204704583718e-03 
-6.220699559740e-04 -3.467517458204e-04 0.0 
-3.467517458204e-04 4.812375804049e-03 0.0 
0.0 0.0 -8.396599866114e-04 
-8.640312315529e-04 7.564773801915e-04 0.0 
7.564773801915e-04 5.496513579944e-03 0.0 
0.0 0.0 -9.015555482168e-04 
-5.139647083066e-04 6.286602551559e-04 0.0 
6.286602551559e-04 4.638431100819e-03 0.0 
0.0 0.0 -8.433600309793e-04 
-8.878790724241e-04 -1.375747034556e-04 0.0 
-1.375747034556e-04 6.258870962336e-03 0.0 
0.0 0.0 -1.038364586984e-03 
-4.800211114771e-04 4.132947089942e-04 0.0 
4.132947089942e-04 4.403087062058e-03 0.0 
0.0 0.0 -7.842421616061e-04 
1.708764263770e-04 1.828302604937e-04 0.0 
1.828302604937e-04 1.696323968062e-03 0.0 
0.0 0.0 -5.065804551108e-04 
-4.825363659521e-04 1.845931219475e-05 0.0 
1.845931219475e-05 4.680497453253e-03 0.0 
0.0 0.0 -8.561803240471e-04 
8.082119994225e-05 4.790974331332e-04 0.0 
4.790974331332e-04 2.023860804843e-03 0.0 
0.0 0.0 -5.426160209679e-04 
-1.033438603377e-03 6.383788790857e-04 0.0 
6.383788790857e-04 6.235509335954e-03 0.0 
0.0 0.0 -9.799122972177e-04 
1.114946380246e-04 -1.909482610686e-04 0.0 
-1.909482610686e-04 2.113077183239e-03 0.0 
0.0 0.0 -5.399485503623e-04 
-9.706412986079e-04 3.184758127264e-04 0.0 
3.184758127264e-04 6.013389094156e-03 0.0 
0.0 0.0 -9.420580210740e-04 
-9.265946290547e-04 -4.225709154865e-05 0.0 
-4.225709154865e-05 6.885841307398e-03 0.0 
0.0 0.0 -1.130549445556e-03 
-8.685442447111e-04 3.124266913747e-04 0.0 
3.124266913747e-04 6.514082051094e-03 0.0 
0.0 0.0 -1.096529089934e-03 
-4.417150057457e-04 8.260625217284e-04 0.0 
8.260625217284e-04 3.995231427087e-03 0.0 
0.0 0.0 -7.512528815036e-04 
-1.059191105034e-03 4.065855107728e-04 0.0 
4.065855107728e-04 6.228287830528e-03 0.0 
0.0 0.0 -9.460253849645e-04 
-1.179141908394e-03 -9.694575707592e-05 0.0 
-9.694575707592e-05 7.087490944073e-03 0.0 
0.0 0.0 -1.107441567342e-03 
-1.193835214950e-03 -4.719824871619e-04 0.0 
-4.719824871619e-04 7.155436910273e-03 0.0 
0.0 0.0 -1.104747680386e-03 
1.944125303692e-04 1.273132647232e-03 0.0 
1.273132647232e-03 5.121470870520e-04 0.0 
0.0 0.0 -3.028112646091e-04 
-9.836336619932e-04 6.878362883605e-04 0.0 
6.878362883605e-04 6.089006481299e-03 0.0 
0.0 0.0 -9.724793438395e-04 
-1.268204156625e-03 7.721982515826e-06 0.0 
7.721982515826e-06 7.786698253164e-03 0.0 
0.0 0.0 -1.205818386895e-03 
-6.870681417228e-04 7.008927199053e-04 0.0 
7.008927199053e-04 3.265237971609e-03 0.0 
0.0 0.0 -5.357889572170e-04 
-9.885170178391e-04 -5.948066208015e-04 0.0 
-5.948066208015e-04 5.380783060798e-03 0.0 
0.0 0.0 -8.409532000723e-04 
-7.799555259594e-05 6.230825562270e-04 0.0 
6.230825562270e-04 5.570487652900e-04 0.0 
0.0 0.0 -2.053085197260e-04 
-1.219579480668e-03 -6.033820998881e-05 0.0 
-6.033820998881e-05 7.313003609483e-03 0.0 
0.0 0.0 -1.136235114959e-03 
2.012100085966e-04 5.845223729044e-04 0.0 
5.845223729044e-04 1.434306137738e-03 0.0 
0.0 0.0 -4.785631936960e-04 
-1.042459381450e-03 3.192310209748e-05 0.0 
3.192310209748e-05 5.237687487302e-03 0.0 
0.0 0.0 -8.166178341775e-04 
-7.748148319910e-04 5.841265057534e-04 0.0 
5.841265057534e-04 5.931280080680e-03 0.0 
0.0 0.0 -1.008721701990e-03 
-1.070450976463e-03 4.786712554869e-05 0.0 
4.786712554869e-05 6.281594191104e-03 0.0 
0.0 0.0 -9.438854677472e-04 
-1.019990029507e-03 4.017679917675e-04 0.0 
4.017679917675e-04 5.968797618871e-03 0.0 
0.0 0.0 -9.108073647307e-04 
-7.821076712380e-04 7.813500369489e-04 0.0 
7.813500369489e-04 5.311710917371e-03 0.0 
0.0 0.0 -8.936906232635e-04 
-7.622603984916e-04 6.791341036292e-05 0.0 
6.791341036292e-05 3.813852506224e-03 0.0 
0.0 0.0 -5.884905393267e-04 
-7.846644250761e-04 7.808219167046e-05 0.0 
7.808219167046e-05 4.065403212213e-03 0.0 
0.0 0.0 -6.218825813656e-04 
-1.233191643352e-03 -4.261165376934e-04 0.0 
-4.261165376934e-04 7.382821542764e-03 0.0 
0.0 0.0 -1.133400347077e-03 
-7.515727621129e-04 -6.277168771854e-04 0.0 
-6.277168771854e-04 5.560136738189e-03 0.0 
0.0 0.0 -9.394087121358e-04 
-4.848945124793e-04 -6.056685510147e-04 0.0 
-6.056685510147e-04 4.517787566476e-03 0.0 
0.0 0.0 -8.164864906097e-04 
-7.633590365807e-04 1.747203192895e-05 0.0 
1.747203192895e-05 5.952051370355e-03 0.0 
0.0 0.0 -1.014986374720e-03 
-3.745762426959e-04 -1.208773656876e-05 0.0 
-1.208773656876e-05 4.169816033916e-03 0.0 
0.0 0.0 -7.915105747055e-04 
1.470981817100e-04 1.699633256222e-04 0.0 
1.699633256222e-04 1.922517798804e-03 0.0 
0.0 0.0 -5.119962057136e-04 
-7.251559287553e-04 3.584185138835e-04 0.0 
3.584185138835e-04 3.747261506519e-03 0.0 
0.0 0.0 -5.908395828668e-04 
-9.989176313813e-04 5.279041160423e-05 0.0 
5.279041160423e-05 5.610761613461e-03 0.0 
0.0 0.0 -8.442294783838e-04 
-8.140722277822e-04 1.153536144127e-05 0.0 
1.153536144127e-05 4.902728731460e-03 0.0 
0.0 0.0 -7.121995050294e-04 
-8.606102061483e-04 -1.123280902614e-04 0.0 
-1.123280902614e-04 6.585165240131e-03 0.0 
0.0 0.0 -1.093598669875e-03 
-3.829181500835e-04 3.755711815579e-04 0.0 
3.755711815579e-04 4.064228922124e-03 0.0 
0.0 0.0 -7.486350631497e-04 
-1.089919498544e-03 4.032533245885e-04 0.0 
4.032533245885e-04 7.584210826506e-03 0.0 
0.0 0.0 -1.233571955743e-03 
-1.258849103109e-03 1.203645015164e-04 0.0 
1.203645015164e-04 7.318640773608e-03 0.0 
0.0 0.0 -1.121177773779e-03 
-4.277541990728e-04 -3.591296022275e-04 0.0 
-3.591296022275e-04 4.511429067315e-03 0.0 
0.0 0.0 -8.252461108756e-04 
-1.288851597356e-03 -4.658297080141e-04 0.0 
-4.658297080141e-04 8.043612715449e-03 0.0 
0.0 0.0 -1.241472629463e-03 
3.242839641495e-05 -4.968694073408e-04 0.0 
-4.968694073408e-04 2.366486634827e-03 0.0 
0.0 0.0 -5.682622744621e-04 
-1.077966235092e-03 4.739436140623e-04 0.0 
4.739436140623e-04 7.389804662751e-03 0.0 
0.0 0.0 -1.204482468497e-03 
-7.429375265798e-04 4.078626067565e-04 0.0 
4.078626067565e-04 5.376339153074e-03 0.0 
0.0 0.0 -8.910665706739e-04 
-8.382327257171e-04 6.914183336446e-04 0.0 
6.914183336446e-04 5.885419181804e-03 0.0 
0.0 0.0 -9.848034212814e-04 
-9.867962554531e-04 -3.515709155634e-04 0.0 
-3.515709155634e-04 7.009894236266e-03 0.0 
0.0 0.0 -1.146785027167e-03 
-6.480751664788e-04 -1.064130565160e-03 0.0 
-1.064130565160e-03 3.485571623010e-03 0.0 
0.0 0.0 -5.958228065582e-04 
-9.264979844569e-04 7.226480241174e-04 0.0 
7.226480241174e-04 5.798649245259e-03 0.0 
0.0 0.0 -9.369464185080e-04 
-3.976862535672e-04 -5.140984221878e-04 0.0 
-5.140984221878e-04 4.248707874465e-03 0.0 
0.0 0.0 -7.886172400246e-04 
-9.126908566727e-04 3.597233129020e-04 0.0 
3.597233129020e-04 5.721921232905e-03 0.0 
0.0 0.0 -9.065670216064e-04 
-2.413614743732e-04 9.207248143764e-04 0.0 
9.207248143764e-04 2.576101931259e-03 0.0 
0.0 0.0 -5.268093404353e-04 
-8.396821970539e-04 6.672060837292e-04 0.0 
6.672060837292e-04 6.048287273264e-03 0.0 
0.0 0.0 -1.013229387512e-03 
-3.452329379355e-04 -1.792312499866e-04 0.0 
-1.792312499866e-04 3.927967745038e-03 0.0 
0.0 0.0 -7.548706880268e-04 
-9.599399109740e-04 -2.677314431030e-04 0.0 
-2.677314431030e-04 5.510906117541e-03 0.0 
0.0 0.0 -8.810281692460e-04 
-9.326422123301e-04 7.027170698306e-04 0.0 
7.027170698306e-04 5.663041666324e-03 0.0 
0.0 0.0 -9.091416541300e-04 
1.310354464969e-04 5.651438564875e-04 0.0 
5.651438564875e-04 1.741573510573e-04 0.0 
0.0 0.0 -1.307969132375e-04 
-6.049604556670e-04 5.771719455814e-04 0.0 
5.771719455814e-04 5.135535656328e-03 0.0 
0.0 0.0 -9.082496170556e-04 
-8.264119998562e-05 1.037717303205e-03 0.0 
1.037717303205e-03 8.249845298322e-04 0.0 
0.0 0.0 -3.181471413628e-04 
-3.486990110529e-04 1.618131580726e-05 0.0 
1.618131580726e-05 1.379681923450e-03 0.0 
0.0 0.0 -2.410360834028e-04 
-9.637368636999e-04 -2.534336696837e-04 0.0 
-2.534336696837e-04 5.310722216845e-03 0.0 
0.0 0.0 -8.438072171805e-04 
-1.086820871417e-03 2.926579608564e-04 0.0 
2.926579608564e-04 7.015412211803e-03 0.0 
0.0 0.0 -1.098354823938e-03 
-1.049951667635e-03 4.416530287396e-04 0.0 
4.416530287396e-04 6.131491265693e-03 0.0 
0.0 0.0 -9.387552692590e-04 
-7.056421761476e-04 1.432307568262e-04 0.0 
1.432307568262e-04 3.346065552913e-03 0.0 
0.0 0.0 -5.215302833573e-04 
-1.342322198460e-03 3.183613232645e-04 0.0 
3.183613232645e-04 8.773669276182e-03 0.0 
0.0 0.0 -1.342322198460e-03 
3.836307119602e-05 1.777435835148e-04 0.0 
1.777435835148e-04 5.796280456300e-05 0.0 
0.0 0.0 -4.128251818244e-05 
-7.274210317143e-04 1.629360554580e-04 0.0 
1.629360554580e-04 3.588533030425e-03 0.0 
0.0 0.0 -5.549805679787e-04 
-5.340066039334e-04 -2.072389055199e-04 0.0 
-2.072389055199e-04 4.712236291548e-03 0.0 
0.0 0.0 -8.472740691906e-04 
-9.827474692013e-04 -5.565690633406e-04 0.0 
-5.565690633406e-04 5.178751046310e-03 0.0 
0.0 0.0 -8.042584860449e-04 
-8.272148132873e-04 2.043748305373e-04 0.0 
2.043748305373e-04 4.358943672927e-03 0.0 
0.0 0.0 -6.733236465360e-04 
-1.391682779442e-04 -5.660980208305e-04 0.0 
-5.660980208305e-04 2.708178146588e-03 0.0 
0.0 0.0 -5.908717820549e-04 
-6.655440375533e-04 -6.952663529849e-04 0.0 
-6.952663529849e-04 5.066823485387e-03 0.0 
0.0 0.0 -8.733819075714e-04 
-8.196031050189e-04 3.838546333042e-04 0.0 
3.838546333042e-04 5.685766128825e-03 0.0 
0.0 0.0 -9.266779469803e-04 
-6.990167424859e-04 5.271708541357e-04 0.0 
5.271708541357e-04 5.638282256463e-03 0.0 
0.0 0.0 -9.734188451722e-04 
-1.186630910785e-03 6.460835059358e-04 0.0 
6.460835059358e-04 7.362442267771e-03 0.0 
0.0 0.0 -1.144302277022e-03 
2.969246869216e-04 1.115918954902e-03 0.0 
1.115918954902e-03 3.039667145196e-04 0.0 
0.0 0.0 -2.575248863319e-04 
-9.117889324076e-04 -2.951149434616e-04 0.0 
-2.951149434616e-04 4.877432515646e-03 0.0 
0.0 0.0 -7.784793977761e-04 
-1.012208946591e-03 -1.496092469439e-04 0.0 
-1.496092469439e-04 5.343186025449e-03 0.0 
0.0 0.0 -8.356154970834e-04 
-6.331046465697e-04 -9.049418944168e-04 0.0 
-9.049418944168e-04 2.758073297942e-03 0.0 
0.0 0.0 -4.544023106810e-04 
-8.924169308789e-04 4.058945008041e-04 0.0 
4.058945008041e-04 4.880366770900e-03 0.0 
0.0 0.0 -7.518103749233e-04 
-1.063894881261e-03 9.071629636426e-05 0.0 
9.071629636426e-05 6.191505659791e-03 0.0 
0.0 0.0 -9.362314798257e-04 
-1.205869425098e-03 -2.261798490425e-04 0.0 
-2.261798490425e-04 6.678201842620e-03 0.0 
0.0 0.0 -1.023451880212e-03 
-7.015472354662e-05 -2.565736168466e-05 0.0 
-2.565736168466e-05 9.612203433626e-04 0.0 
0.0 0.0 -1.605242656235e-04 
0.0 0.0 0.0 
0.0 0.0 0.0 
0.0 0.0 0.0 
-5.147384921578e-04 -7.536249502610e-04 0.0 
-7.536249502610e-04 1.966691460963e-03 0.0 
0.0 0.0 -3.233707900025e-04 
-1.027484224102e-03 -4.836123400480e-04 0.0 
-4.836123400480e-04 5.407088060702e-03 0.0 
0.0 0.0 -8.330087554115e-04 
-8.882847245791e-05 -4.537970764089e-04 0.0 
-4.537970764089e-04 2.924964268328e-03 0.0 
0.0 0.0 -6.322020076307e-04 
-9.059460685547e-05 -9.981933794838e-04 0.0 
-9.981933794838e-04 2.441338825064e-03 0.0 
0.0 0.0 -5.605319560360e-04 
1.602068840710e-04 -5.380164516261e-04 0.0 
-5.380164516261e-04 1.784200169895e-03 0.0 
0.0 0.0 -5.041580933422e-04 
-1.016808142495e-03 -1.850132427343e-04 0.0 
-1.850132427343e-04 5.546831112907e-03 0.0 
0.0 0.0 -8.721335634590e-04 
-1.089492890547e-03 5.256596706488e-04 0.0 
5.256596706488e-04 6.464473810732e-03 0.0 
0.0 0.0 -9.956198530692e-04 
-1.055480845035e-03 -8.073487003007e-05 0.0 
-8.073487003007e-05 5.564073531230e-03 0.0 
0.0 0.0 -8.643287579461e-04 
-7.969352206199e-05 1.392070136612e-04 0.0 
1.392070136612e-04 2.839214225501e-03 0.0 
0.0 0.0 -6.348607296063e-04 
-9.652452647080e-04 3.246353242036e-04 0.0 
3.246353242036e-04 6.148089658116e-03 0.0 
0.0 0.0 -9.699423737970e-04 
-9.336187348190e-04 2.571357999357e-04 0.0 
2.571357999357e-04 5.466318221896e-03 0.0 
0.0 0.0 -8.236220363599e-04 
-8.699149514131e-04 5.427467141130e-04 0.0 
5.427467141130e-04 6.422709640429e-03 0.0 
0.0 0.0 -1.076197569190e-03 
-1.067019444508e-03 -4.166446150284e-04 0.0 
-4.166446150284e-04 5.628158977285e-03 0.0 
0.0 0.0 -8.617642947636e-04 
-1.037211549759e-03 -5.241557810677e-04 0.0 
-5.241557810677e-04 5.613837274242e-03 0.0 
0.0 0.0 -8.694825820363e-04 
-6.540642588821e-04 2.339053685670e-04 0.0 
2.339053685670e-04 2.854376740045e-03 0.0 
0.0 0.0 -4.548485160793e-04 
-1.830897456311e-04 -6.409178638984e-04 0.0 
-6.409178638984e-04 3.204685697947e-03 0.0 
0.0 0.0 -6.598952468721e-04 
-1.092100602406e-03 -1.853786207342e-05 0.0 
-1.853786207342e-05 5.772593500168e-03 0.0 
0.0 0.0 -8.930692851043e-04 
-1.055598751707e-03 1.761127934755e-04 0.0 
1.761127934755e-04 6.440216787672e-03 0.0 
0.0 0.0 -9.615701295831e-04 
-1.001453888758e-03 1.848581000640e-04 0.0 
1.848581000640e-04 6.057549413992e-03 0.0 
0.0 0.0 -8.972249362023e-04 
-6.770179440789e-04 2.249366581215e-04 0.0 
2.249366581215e-04 3.121369932688e-03 0.0 
0.0 0.0 -4.879487645214e-04 
-1.064022376908e-03 -1.167841295241e-04 0.0 
-1.167841295241e-04 5.775583557860e-03 0.0 
0.0 0.0 -9.007118478549e-04 
-2.859853618183e-04 -1.273336407491e-03 0.0 
-1.273336407491e-03 2.641008784054e-03 0.0 
0.0 0.0 -5.517684601482e-04 
-1.131468898778e-04 1.392096794452e-03 0.0 
1.392096794452e-03 1.091258670637e-03 0.0 
0.0 0.0 -4.029896332773e-04 
-1.047918758114e-03 7.340593604257e-05 0.0 
7.340593604257e-05 7.456724692606e-03 0.0 
0.0 0.0 -1.202908440308e-03 
-5.627131210403e-04 -6.726340984242e-04 0.0 
-6.726340984242e-04 1.683903901649e-03 0.0 
0.0 0.0 -3.052185142707e-04 
-3.169146226738e-04 -8.080615281722e-04 0.0 
-8.080615281722e-04 2.922160059008e-03 0.0 
0.0 0.0 -5.822209219963e-04 
-5.594905133051e-04 2.180548040984e-04 0.0 
2.180548040984e-04 5.015163126877e-03 0.0 
0.0 0.0 -8.766521650092e-04 
-6.622241155769e-04 4.063560181712e-04 0.0 
4.063560181712e-04 3.270370974807e-03 0.0 
0.0 0.0 -5.239962781855e-04 
-1.100749507766e-03 -3.563808608849e-04 0.0 
-3.563808608849e-04 5.849825024464e-03 0.0 
0.0 0.0 -8.905656347129e-04 
-5.985345031535e-04 -2.223177207573e-04 0.0 
-2.223177207573e-04 2.732572505037e-03 0.0 
0.0 0.0 -4.282508963332e-04 
-9.076266712888e-04 3.184539997902e-05 0.0 
3.184539997902e-05 5.036430824459e-03 0.0 
0.0 0.0 -7.823486082854e-04 
-1.081370140730e-03 -4.558826803401e-04 0.0 
-4.558826803401e-04 5.841011814907e-03 0.0 
0.0 0.0 -8.981647654366e-04 
-4.858836919803e-04 -7.457674947231e-04 0.0 
-7.457674947231e-04 4.297440458521e-03 0.0 
0.0 0.0 -7.800125773855e-04 
-9.348538294518e-04 -6.697112536075e-04 0.0 
-6.697112536075e-04 5.140798604724e-03 0.0 
0.0 0.0 -8.126672281948e-04 
8.703935028516e-05 1.690415104804e-04 0.0 
1.690415104804e-04 1.245018223099e-05 0.0 
0.0 0.0 -4.263837107835e-05 
-1.241448931941e-03 -1.835319642593e-04 0.0 
-1.835319642593e-04 7.812891284508e-03 0.0 
0.0 0.0 -1.152567315725e-03 
-3.081364130084e-04 -9.550871966768e-04 0.0 
-9.550871966768e-04 3.298658843063e-03 0.0 
0.0 0.0 -6.514572604261e-04 
-9.718772757445e-04 1.979502564842e-04 0.0 
1.979502564842e-04 7.009305473662e-03 0.0 
0.0 0.0 -1.154039482800e-03 
-8.056057162638e-04 2.987492427290e-04 0.0 
2.987492427290e-04 5.959106481257e-03 0.0 
0.0 0.0 -9.821191134873e-04 
-1.105426206004e-03 -5.038601752530e-05 0.0 
-5.038601752530e-05 5.994681172748e-03 0.0 
0.0 0.0 -9.293965016571e-04 
-1.119004413752e-03 -3.820015781438e-04 0.0 
-3.820015781438e-04 6.058753668650e-03 0.0 
0.0 0.0 -9.268654845074e-04 
-3.123142997184e-05 -1.167065523526e-04 0.0 
-1.167065523526e-04 2.573595127563e-03 0.0 
0.0 0.0 -5.989583036242e-04 
-3.157644098559e-04 -6.245110788433e-04 0.0 
-6.245110788433e-04 1.110181514534e-03 0.0 
0.0 0.0 -2.862240160649e-04 
8.762727446402e-05 1.506685699699e-04 0.0 
1.506685699699e-04 5.297682451360e-06 0.0 
0.0 0.0 -3.982498153516e-05 
-1.139236581336e-03 9.449893671701e-06 0.0 
9.449893671701e-06 6.206332100994e-03 0.0 
0.0 0.0 -9.583065114985e-04 
-9.895576341864e-04 5.422021304530e-05 0.0 
5.422021304530e-05 6.999392542925e-03 0.0 
0.0 0.0 -1.148056181429e-03 
-4.775145294270e-04 -1.288589848279e-03 0.0 
-1.288589848279e-03 2.885723426917e-03 0.0 
0.0 0.0 -5.426247857783e-04 
-9.796725008080e-04 7.000708170444e-04 0.0 
7.000708170444e-04 6.228639819323e-03 0.0 
0.0 0.0 -1.000702849114e-03 
-6.472337897981e-04 7.799664963271e-04 0.0 
7.799664963271e-04 2.970737159620e-03 0.0 
0.0 0.0 -5.002094317253e-04 
-1.024167741003e-03 2.983156923563e-04 0.0 
2.983156923563e-04 6.439902929080e-03 0.0 
0.0 0.0 -1.005614027492e-03 
-1.230125729383e-03 -1.791987086205e-04 0.0 
-1.791987086205e-04 8.178224384408e-03 0.0 
0.0 0.0 -1.266534580134e-03 
0.0 0.0 0.0 
0.0 0.0 0.0 
0.0 0.0 0.0 
-1.341620833825e-03 -1.240232465015e-06 0.0 
-1.240232465015e-06 8.838044206910e-03 0.0 
0.0 0.0 -1.341620833825e-03 
-1.340051318819e-03 -7.855236063614e-05 0.0 
-7.855236063614e-05 8.625114056382e-03 0.0 
0.0 0.0 -1.340051318819e-03 
-8.980163173550e-04 -1.960905146637e-04 0.0 
-1.960905146637e-04 5.236321733421e-03 0.0 
0.0 0.0 -7.955197795907e-04 
-4.661383092836e-04 -1.098309243055e-03 0.0 
-1.098309243055e-03 3.461471777819e-03 0.0 
0.0 0.0 -6.428246066218e-04 
-8.082931774475e-04 3.508972968720e-04 0.0 
3.508972968720e-04 5.820381814417e-03 0.0 
0.0 0.0 -9.543595451431e-04 
-1.549769366622e-05 -2.109424872969e-04 0.0 
-2.109424872969e-04 2.675607327827e-03 0.0 
0.0 0.0 -6.041149214933e-04 
-2.283359273976e-04 -2.821495717667e-04 0.0 
-2.821495717667e-04 1.216165341166e-03 0.0 
0.0 0.0 -2.095884814006e-04 
5.244130076390e-06 5.299579131201e-04 0.0 
5.299579131201e-04 3.292147719476e-04 0.0 
0.0 0.0 -1.433395294388e-04 
-1.275023357737e-03 -5.993191991654e-05 0.0 
-5.993191991654e-05 8.163058981243e-03 0.0 
0.0 0.0 -1.209499414335e-03 
-1.082712059579e-03 1.205245821570e-04 0.0 
1.205245821570e-04 6.373245931173e-03 0.0 
0.0 0.0 -9.648175333861e-04 
-9.046820331639e-04 -1.080196974862e-06 0.0 
-1.080196974862e-06 4.867817697865e-03 0.0 
0.0 0.0 -7.224789237173e-04 
-1.279272833011e-03 4.773478504551e-04 0.0 
4.773478504551e-04 8.632757308161e-03 0.0 
0.0 0.0 -1.323661129950e-03 
-4.995343539176e-04 -2.062360200378e-04 0.0 
-2.062360200378e-04 2.288215934898e-03 0.0 
0.0 0.0 -3.615704333793e-04 
-1.305160647697e-03 4.322097678811e-04 0.0 
4.322097678811e-04 8.590809380930e-03 0.0 
0.0 0.0 -1.324908485340e-03 
-1.072336849723e-03 4.894356542548e-04 0.0 
4.894356542548e-04 6.310526310337e-03 0.0 
0.0 0.0 -9.670422101491e-04 
-6.106684104583e-04 -1.077307355153e-03 0.0 
-1.077307355153e-03 3.630162810958e-03 0.0 
0.0 0.0 -6.336394413500e-04 
-7.688592567693e-04 7.436159055388e-04 0.0 
7.436159055388e-04 5.436722305107e-03 0.0 
0.0 0.0 -9.212972352143e-04 
-4.366727405360e-04 -7.825680509829e-04 0.0 
-7.825680509829e-04 3.244703639757e-03 0.0 
0.0 0.0 -6.094834619596e-04 
-3.265911223950e-04 1.405912834574e-03 0.0 
1.405912834574e-03 1.452640584362e-03 0.0 
0.0 0.0 -3.649795199019e-04 
-4.990879049153e-04 -8.274194353689e-04 0.0 
-8.274194353689e-04 3.123468955199e-03 0.0 
0.0 0.0 -5.728018649490e-04 
-1.102176339442e-03 5.667634332671e-04 0.0 
5.667634332671e-04 6.620528006741e-03 0.0 
0.0 0.0 -1.023749757194e-03 
-1.274902778913e-03 -3.210380531188e-04 0.0 
-3.210380531188e-04 7.572738005346e-03 0.0 
0.0 0.0 -1.155390781228e-03 
-2.640863970045e-04 -6.506791704026e-04 0.0 
-6.506791704026e-04 3.044637194059e-03 0.0 
0.0 0.0 -6.181853003094e-04 
-1.037039327620e-03 6.760843031957e-04 0.0 
6.760843031957e-04 6.523249431128e-03 0.0 
0.0 0.0 -1.036271578259e-03 
0.0 0.0 0.0 
0.0 0.0 0.0 
0.0 0.0 0.0 
-1.285700230911e-04 -3.245101064007e-04 0.0 
-3.245101064007e-04 2.885767451406e-03 0.0 
0.0 0.0 -6.266282162577e-04 
-1.167206438241e-03 1.283137067331e-04 0.0 
1.283137067331e-04 7.080432372571e-03 0.0 
0.0 0.0 -1.066385360782e-03 
-6.379492421497e-04 -6.916022810517e-04 0.0 
-6.916022810517e-04 3.261870100237e-03 0.0 
0.0 0.0 -5.616069800515e-04 
-5.397721604140e-04 -1.270380268010e-03 0.0 
-1.270380268010e-03 2.784654802048e-03 0.0 
0.0 0.0 -5.052880831394e-04 
-7.290893412698e-04 3.613081104682e-04 0.0 
3.613081104682e-04 5.503308908361e-03 0.0 
0.0 0.0 -9.187611816440e-04 
1.265644672670e-04 -1.340381834312e-03 0.0 
-1.340381834312e-03 6.478378418571e-04 0.0 
0.0 0.0 -3.318867039103e-04 
-6.343393029067e-04 4.127806247347e-04 0.0 
4.127806247347e-04 2.352701282119e-03 0.0 
0.0 0.0 -3.867203691650e-04 
-5.980790938116e-04 3.108972139281e-04 0.0 
3.108972139281e-04 2.666414110552e-03 0.0 
0.0 0.0 -4.195921675762e-04 
-6.113097074720e-04 -7.505403763561e-04 0.0 
-7.505403763561e-04 2.857444945758e-03 0.0 
0.0 0.0 -4.973376392308e-04 
-5.765164058635e-04 -6.636526940974e-04 0.0 
-6.636526940974e-04 4.795423287764e-03 0.0 
0.0 0.0 -8.444178005646e-04 
-5.181015510014e-04 7.402765764373e-04 0.0 
7.402765764373e-04 4.473477357902e-03 0.0 
0.0 0.0 -8.147327860212e-04 
-1.021689517365e-03 3.040232263138e-04 0.0 
3.040232263138e-04 6.577677469830e-03 0.0 
0.0 0.0 -1.033897369924e-03 
-1.251489828841e-03 5.632464710330e-04 0.0 
5.632464710330e-04 7.903464121438e-03 0.0 
0.0 0.0 -1.224260864640e-03 
-6.076375545199e-04 4.683737268985e-04 0.0 
4.683737268985e-04 2.798103792701e-03 0.0 
0.0 0.0 -4.570814260163e-04 
-1.106194698900e-03 -2.340999049272e-04 0.0 
-2.340999049272e-04 6.875726326228e-03 0.0 
0.0 0.0 -1.028620860735e-03 
-1.222609548103e-03 6.000551956434e-04 0.0 
6.000551956434e-04 7.771092725331e-03 0.0 
0.0 0.0 -1.228414553209e-03 
4.319177178305e-05 1.565747196534e-04 0.0 
1.565747196534e-04 2.280131923741e-03 0.0 
0.0 0.0 -5.707601703556e-04 
-5.280303941059e-05 1.110289152965e-03 0.0 
1.110289152965e-03 8.099165551708e-04 0.0 
0.0 0.0 -3.244772210401e-04 
-6.896815476543e-04 4.595022377507e-04 0.0 
4.595022377507e-04 3.325524470954e-03 0.0 
0.0 0.0 -5.330167430730e-04 
-5.818026759286e-04 -7.746098819789e-04 0.0 
-7.746098819789e-04 4.581482398683e-03 0.0 
0.0 0.0 -8.082977034869e-04 
-1.084938189841e-03 6.476212573913e-04 0.0 
6.476212573913e-04 6.662130643566e-03 0.0 
0.0 0.0 -1.043024347135e-03 
-5.304647567233e-04 -3.288241115645e-04 0.0 
-3.288241115645e-04 4.511932891327e-03 0.0 
0.0 0.0 -8.108276944599e-04 
3.467916788336e-04 9.922084021829e-04 0.0 
9.922084021829e-04 1.937891863132e-04 0.0 
0.0 0.0 -2.316775136343e-04 
-6.676153210682e-04 -5.990024928293e-04 0.0 
-5.990024928293e-04 5.284713461811e-03 0.0 
0.0 0.0 -9.096068616062e-04 
-5.138764303910e-04 1.344859878066e-03 0.0 
1.344859878066e-03 1.832201827426e-03 0.0 
0.0 0.0 -3.508512830963e-04 
-4.693960867252e-04 2.899164946168e-04 0.0 
2.899164946168e-04 4.538651858574e-03 0.0 
0.0 0.0 -8.123573650817e-04 
-6.214317139948e-04 -2.381023826960e-04 0.0 
-2.381023826960e-04 5.000123203670e-03 0.0 
0.0 0.0 -8.756097305517e-04 
-7.629475729046e-04 6.967977887081e-04 0.0 
6.967977887081e-04 5.582110193462e-03 0.0 
0.0 0.0 -9.491391837787e-04 
-1.021932421091e-03 -1.375086625343e-04 0.0 
-1.375086625343e-04 6.258245616270e-03 0.0 
0.0 0.0 -9.494079867578e-04 
-6.355506189440e-04 -1.022411834394e-03 0.0 
-1.022411834394e-03 2.931807144820e-03 0.0 
0.0 0.0 -4.933620968966e-04 
6.896550266056e-05 1.225367383845e-03 0.0 
1.225367383845e-03 6.646895526308e-04 0.0 
0.0 0.0 -3.144235951249e-04 
-7.142483767440e-04 -1.644248298722e-04 0.0 
-1.644248298722e-04 5.495494976155e-03 0.0 
0.0 0.0 -9.415329344942e-04 
-5.361770105980e-04 1.152355576541e-03 0.0 
1.152355576541e-03 2.110820043480e-03 0.0 
0.0 0.0 -3.857152600925e-04 
0.0 0.0 0.0 
0.0 0.0 0.0 
0.0 0.0 0.0 
-1.255338616422e-03 1.860461172355e-04 0.0 
1.860461172355e-04 8.124850663151e-03 0.0 
0.0 0.0 -1.223389224544e-03 
-1.207848204117e-03 2.029693107177e-04 0.0 
2.029693107177e-04 7.752368092309e-03 0.0 
0.0 0.0 -1.157435638217e-03 
-8.808053059829e-05 -1.336699866714e-04 0.0 
-1.336699866714e-04 3.185750404010e-04 0.0 
0.0 0.0 -9.878336134402e-05 
-7.608266853487e-04 -5.406000089435e-04 0.0 
-5.406000089435e-04 5.776368912984e-03 0.0 
0.0 0.0 -9.758309632658e-04 
-5.833464932258e-04 -8.365325477788e-04 0.0 
-8.365325477788e-04 2.366888082298e-03 0.0 
0.0 0.0 -3.887237773309e-04 
-6.380037561636e-04 -4.574933655184e-04 0.0 
-4.574933655184e-04 2.507620922393e-03 0.0 
0.0 0.0 -4.195855280820e-04 
-1.094549564148e-03 6.711957006790e-04 0.0 
6.711957006790e-04 6.969957179569e-03 0.0 
0.0 0.0 -1.100737838324e-03 
-7.238835271569e-04 2.949238833770e-04 0.0 
2.949238833770e-04 5.642634368299e-03 0.0 
0.0 0.0 -9.467522836136e-04 
-1.039311302789e-03 6.802059572137e-04 0.0 
6.802059572137e-04 6.671189751840e-03 0.0 
0.0 0.0 -1.064854740548e-03 
-1.894001647684e-04 -8.697409082608e-04 0.0 
-8.697409082608e-04 2.974808611893e-03 0.0 
0.0 0.0 -6.238888496032e-04 
-8.115909482746e-04 3.390698231069e-05 0.0 
3.390698231069e-05 4.912143948728e-03 0.0 
0.0 0.0 -7.105917616147e-04 
-1.280305692054e-03 -3.247592506175e-04 0.0 
-3.247592506175e-04 7.975043847607e-03 0.0 
0.0 0.0 -1.281538364137e-03 
-5.868717402319e-04 -4.057488537009e-04 0.0 
-4.057488537009e-04 2.082970857728e-03 0.0 
0.0 0.0 -3.541816848729e-04 
-9.117200011925e-04 -1.598675323878e-04 0.0 
-1.598675323878e-04 6.764763677517e-03 0.0 
0.0 0.0 -1.121221582973e-03 
-5.590520355925e-04 3.309762878068e-04 0.0 
3.309762878068e-04 4.865889443216e-03 0.0 
0.0 0.0 -8.477100451819e-04 
-3.408380194667e-04 8.413428919704e-05 0.0 
8.413428919704e-05 1.600517951916e-03 0.0 
0.0 0.0 -2.892354545592e-04 
-1.075499676593e-03 6.132508001275e-04 0.0 
6.132508001275e-04 6.500844839128e-03 0.0 
0.0 0.0 -1.015166614560e-03 
-1.491725305372e-04 -7.955548992598e-05 0.0 
-7.955548992598e-05 3.115280814632e-03 0.0 
0.0 0.0 -6.628028861993e-04 
-1.315718485168e-04 -5.908276789213e-04 0.0 
-5.908276789213e-04 6.660589264853e-04 0.0 
0.0 0.0 -2.290658905579e-04 
-1.579860261374e-05 -4.063804822263e-04 0.0 
-4.063804822263e-04 2.360331977056e-03 0.0 
0.0 0.0 -5.632129589051e-04 
-1.187081976134e-03 1.736903763000e-04 0.0 
1.736903763000e-04 6.532498131095e-03 0.0 
0.0 0.0 -9.915417172310e-04 
-1.109173126604e-03 2.020871397918e-04 0.0 
2.020871397918e-04 6.702082758585e-03 0.0 
0.0 0.0 -1.020980360542e-03 
-4.812617878824e-04 -1.026396368797e-03 0.0 
-1.026396368797e-03 1.558368541222e-03 0.0 
0.0 0.0 -2.729600395538e-04 
-1.020281891755e-03 -1.851201749546e-04 0.0 
-1.851201749546e-04 5.386783464776e-03 0.0 
0.0 0.0 -8.076288038732e-04 
-1.089791995769e-03 6.678096790371e-04 0.0 
6.678096790371e-04 6.824575659747e-03 0.0 
0.0 0.0 -1.071782534217e-03 
-9.193547229402e-04 1.602334611530e-04 0.0 
1.602334611530e-04 6.776867929495e-03 0.0 
0.0 0.0 -1.109893377180e-03 
-5.608358153244e-04 -8.240965468318e-04 0.0 
-8.240965468318e-04 2.993251789866e-03 0.0 
0.0 0.0 -5.351738145117e-04 
-6.136579298705e-04 1.191680586993e-04 0.0 
1.191680586993e-04 2.664357051373e-03 0.0 
0.0 0.0 -4.333934152438e-04 
-5.989414354875e-04 6.742429676008e-04 0.0 
6.742429676008e-04 4.956197001293e-03 0.0 
0.0 0.0 -8.786267582723e-04 
-1.011039081455e-03 -2.136688597495e-04 0.0 
-2.136688597495e-04 6.164847278727e-03 0.0 
0.0 0.0 -9.278975173457e-04 
-2.430528072630e-05 -7.015609586409e-04 0.0 
-7.015609586409e-04 4.939718425864e-04 0.0 
0.0 0.0 -2.012856693686e-04 
-1.258632814515e-03 5.164131841311e-04 0.0 
5.164131841311e-04 8.325970250847e-03 0.0 
0.0 0.0 -1.269179263065e-03 
-1.319279019144e-03 4.296204971761e-04 0.0 
4.296204971761e-04 8.281943168671e-03 0.0 
0.0 0.0 -1.281197857596e-03 
-9.262453737932e-04 -1.856372937015e-04 0.0 
-1.856372937015e-04 5.467657039050e-03 0.0 
0.0 0.0 -8.387747867703e-04 
-1.294839307706e-03 7.871963389556e-06 0.0 
7.871963389556e-06 8.477109428305e-03 0.0 
0.0 0.0 -1.255037608383e-03 
-1.299621148244e-03 5.434080431767e-04 0.0 
5.434080431767e-04 8.249757004039e-03 0.0 
0.0 0.0 -1.285499913836e-03 
-2.377664936208e-04 -4.540001535470e-04 0.0 
-4.540001535470e-04 3.213325829595e-03 0.0 
0.0 0.0 -6.542748834104e-04 
-3.508305791302e-04 -1.119634461832e-03 0.0 
-1.119634461832e-03 3.128022697751e-03 0.0 
0.0 0.0 -6.153450468602e-04 
-1.170236808513e-03 2.917458807146e-05 0.0 
2.917458807146e-05 8.079333353292e-03 0.0 
0.0 0.0 -1.265535665854e-03 
0.0 0.0 0.0 
0.0 0.0 0.0 
0.0 0.0 0.0 
-5.539334103609e-04 1.733294296074e-04 0.0 
1.733294296074e-04 2.467698966066e-03 0.0 
0.0 0.0 -3.941707820484e-04 
-1.082833857300e-03 1.553689403231e-04 0.0 
1.553689403231e-04 5.370486721227e-03 0.0 
0.0 0.0 -8.329475646481e-04 
-6.135075657535e-04 -1.124689673499e-03 0.0 
-1.124689673499e-03 3.074168344220e-03 0.0 
0.0 0.0 -5.313546330462e-04 
-1.846585695015e-04 -7.875180783751e-04 0.0 
-7.875180783751e-04 2.568069228426e-03 0.0 
0.0 0.0 -5.546931404481e-04 
-5.968432958156e-04 5.557088425757e-04 0.0 
5.557088425757e-04 1.865682370622e-03 0.0 
0.0 0.0 -3.196518454468e-04 
-5.899426228830e-04 4.711635003752e-04 0.0 
4.711635003752e-04 2.207717411959e-03 0.0 
0.0 0.0 -3.528063275151e-04 
-9.460265979009e-04 -8.557345978762e-05 0.0 
-8.557345978762e-05 5.600872725538e-03 0.0 
0.0 0.0 -8.290026594306e-04 
-7.188891017228e-05 -7.212145557604e-04 0.0 
-7.212145557604e-04 2.661537409605e-03 0.0 
0.0 0.0 -5.962921515785e-04 
-6.690915239770e-04 -9.469087844433e-06 0.0 
-9.469087844433e-06 2.860475934858e-03 0.0 
0.0 0.0 -4.583473518421e-04 
-9.261983765854e-04 6.205491161324e-04 0.0 
6.205491161324e-04 6.527766796007e-03 0.0 
0.0 0.0 -1.077832113627e-03 
-1.322048612324e-03 -3.324926188937e-04 0.0 
-3.324926188937e-04 8.713395146875e-03 0.0 
0.0 0.0 -1.324978758543e-03 
-1.338720177887e-03 -4.085669882089e-04 0.0 
-4.085669882089e-04 8.670321911685e-03 0.0 
0.0 0.0 -1.320624918399e-03 
-3.849795069765e-04 -6.739500110508e-04 0.0 
-6.739500110508e-04 3.380834248484e-03 0.0 
0.0 0.0 -6.457427040837e-04 
-9.004898588244e-04 1.911488629734e-04 0.0 
1.911488629734e-04 5.018763151201e-03 0.0 
0.0 0.0 -7.877541558771e-04 
0.0 0.0 0.0 
0.0 0.0 0.0 
0.0 0.0 0.0 
-4.359472798887e-04 6.731301800727e-04 0.0 
6.731301800727e-04 1.407239997486e-03 0.0 
0.0 0.0 -3.106513839132e-04 
2.755733972267e-04 -1.401203893809e-03 0.0 
-1.401203893809e-03 4.875020493235e-04 0.0 
0.0 0.0 -3.270323342358e-04 
-5.716509711487e-04 6.241427470327e-04 0.0 
6.241427470327e-04 1.685665452150e-03 0.0 
0.0 0.0 -2.953478464511e-04 
-6.435501651802e-04 2.617971966709e-04 0.0 
2.617971966709e-04 5.324938194352e-03 0.0 
0.0 0.0 -9.116044729693e-04 
-3.892042169670e-04 -9.156083068677e-04 0.0 
-9.156083068677e-04 2.815259890772e-03 0.0 
0.0 0.0 -5.459662534218e-04 
-2.243152923797e-04 -1.093841073510e-03 0.0 
-1.093841073510e-03 2.791137140625e-03 0.0 
0.0 0.0 -5.879858557453e-04 
2.757241657395e-04 -4.810032012259e-04 0.0 
-4.810032012259e-04 1.809007699405e-05 0.0 
0.0 0.0 -1.259203897429e-04 
-1.236651515782e-03 5.783317831820e-05 0.0 
5.783317831820e-05 7.720546241133e-03 0.0 
0.0 0.0 -1.176327079312e-03 
-4.101458141136e-04 -1.240391896891e-03 0.0 
-1.240391896891e-03 2.995120791313e-03 0.0 
0.0 0.0 -5.792774345575e-04 
-1.250725797448e-03 2.916941522596e-04 0.0 
2.916941522596e-04 8.087181627586e-03 0.0 
0.0 0.0 -1.212957849656e-03 
-1.169197980018e-03 -1.036807665068e-04 0.0 
-1.036807665068e-04 7.436974066249e-03 0.0 
0.0 0.0 -1.117460450001e-03 
-1.345176874521e-03 9.425392127595e-05 0.0 
9.425392127595e-05 9.101263988686e-03 0.0 
0.0 0.0 -1.319418651152e-03 
-1.362446196829e-03 -6.566602865703e-05 0.0 
-6.566602865703e-05 8.851718670119e-03 0.0 
0.0 0.0 -1.324849633189e-03 
-9.396876737499e-04 1.580696553299e-04 0.0 
1.580696553299e-04 5.609093298548e-03 0.0 
0.0 0.0 -8.315138651140e-04 
-5.177493296675e-04 -1.164892507562e-03 0.0 
-1.164892507562e-03 3.321630420665e-03 0.0 
0.0 0.0 -6.063493599945e-04 
-5.551169256274e-04 5.845973941815e-04 0.0 
5.845973941815e-04 2.336169535734e-03 0.0 
0.0 0.0 -3.884917441798e-04 
-5.432002518243e-04 -7.156839301842e-04 0.0 
-7.156839301842e-04 3.555258553905e-03 0.0 
0.0 0.0 -6.367902913543e-04 
-1.343328350294e-03 -3.038078432126e-04 0.0 
-3.038078432126e-04 8.521823212692e-03 0.0 
0.0 0.0 -1.343328350294e-03 
-1.737665181201e-04 6.795203959292e-04 0.0 
6.795203959292e-04 8.236163112488e-04 0.0 
0.0 0.0 -2.785070541980e-04 
-2.927518060600e-04 7.425303816206e-04 0.0 
7.425303816206e-04 1.136932491594e-03 0.0 
0.0 0.0 -3.329621070679e-04 
-9.737974110450e-04 -6.386389399084e-05 0.0 
-6.386389399084e-05 7.060307194164e-03 0.0 
0.0 0.0 -1.156027955174e-03 
-8.805235058694e-04 6.847913926848e-05 0.0 
6.847913926848e-05 5.301659598337e-03 0.0 
0.0 0.0 -7.715229432315e-04 
-1.258879221168e-03 2.678324544629e-04 0.0 
2.678324544629e-04 8.150871359494e-03 0.0 
0.0 0.0 -1.219279742240e-03 
-1.080906081071e-03 2.827660258438e-04 0.0 
2.827660258438e-04 6.867060617251e-03 0.0 
0.0 0.0 -1.069611963270e-03 
-1.039924564934e-03 5.350617449269e-04 0.0 
5.350617449269e-04 7.190727662860e-03 0.0 
0.0 0.0 -1.175036385391e-03 
-1.173553033698e-03 2.219944962555e-04 0.0 
2.219944962555e-04 7.297927893888e-03 0.0 
0.0 0.0 -1.113576918908e-03 
-9.402009665324e-04 2.044311077690e-04 0.0 
2.044311077690e-04 5.536177417769e-03 0.0 
0.0 0.0 -8.542750875040e-04 
-5.858259911149e-04 -1.171742995146e-03 0.0 
-1.171742995146e-03 2.676462786012e-03 0.0 
0.0 0.0 -4.674384380614e-04 
-5.422750806607e-04 -8.975033256362e-04 0.0 
-8.975033256362e-04 2.600446559473e-03 0.0 
0.0 0.0 -4.715697005044e-04 
-1.061085808578e-03 2.019693127978e-04 0.0 
2.019693127978e-04 6.591258911724e-03 0.0 
0.0 0.0 -9.963059934038e-04 
-9.926320276344e-04 1.396335034036e-04 0.0 
1.396335034036e-04 7.047433757094e-03 0.0 
0.0 0.0 -1.142506377625e-03 
-8.640826483478e-04 1.602683523403e-04 0.0 
1.602683523403e-04 4.592644147598e-03 0.0 
0.0 0.0 -7.345222264051e-04 
-8.659076808803e-04 1.600457319012e-05 0.0 
1.600457319012e-05 5.296211653200e-03 0.0 
0.0 0.0 -7.676068998053e-04 
-9.151607957151e-04 -5.089667725815e-05 0.0 
-5.089667725815e-05 5.629549572959e-03 0.0 
0.0 0.0 -8.242303029217e-04 
-9.674728246486e-04 -2.123760912739e-04 0.0 
-2.123760912739e-04 5.717004610309e-03 0.0 
0.0 0.0 -8.467401457521e-04 
3.499479768906e-04 -3.973954247046e-04 0.0 
-3.973954247046e-04 -4.658979670494e-05 0.0 
0.0 0.0 -1.300106486510e-04 
-5.930015542773e-04 -7.839114719970e-04 0.0 
-7.839114719970e-04 2.465147057737e-03 0.0 
0.0 0.0 -4.335179088089e-04 
-1.317738620986e-03 2.278366908206e-04 0.0 
2.278366908206e-04 8.695066743648e-03 0.0 
0.0 0.0 -1.269310366786e-03 
-1.008653577782e-03 -1.784318379198e-04 0.0 
-1.784318379198e-04 6.114212471042e-03 0.0 
0.0 0.0 -9.150577043801e-04 
-1.235075525051e-03 3.722470533434e-04 0.0 
3.722470533434e-04 8.051470811527e-03 0.0 
0.0 0.0 -1.295322057178e-03 
-1.262105533747e-03 2.927877395666e-04 0.0 
2.927877395666e-04 8.092325804024e-03 0.0 
0.0 0.0 -1.215577547940e-03 
-1.074267791218e-03 2.611694470269e-04 0.0 
2.611694470269e-04 6.569995446378e-03 0.0 
0.0 0.0 -1.012565562176e-03 
-1.287214307820e-03 9.354055678567e-05 0.0 
9.354055678567e-05 8.149418825250e-03 0.0 
0.0 0.0 -1.214907066889e-03 
-8.465721316982e-04 -1.105505135888e-04 0.0 
-1.105505135888e-04 3.950044235392e-03 0.0 
0.0 0.0 -6.304496659280e-04 
-8.228220456719e-04 -1.151102242294e-04 0.0 
-1.151102242294e-04 3.762441621980e-03 0.0 
0.0 0.0 -5.666856080635e-04 
-1.213791714024e-03 -1.499272758312e-04 0.0 
-1.499272758312e-04 7.648587280659e-03 0.0 
0.0 0.0 -1.226851238141e-03 
0.0 0.0 0.0 
0.0 0.0 0.0 
0.0 0.0 0.0 
-5.508530862849e-04 -1.035100482519e-04 0.0 
-1.035100482519e-04 2.701800587875e-03 0.0 
0.0 0.0 -4.071640756073e-04 
-1.342405754833e-03 4.276126013738e-04 0.0 
4.276126013738e-04 8.356626582993e-03 0.0 
0.0 0.0 -1.342405754833e-03 
-2.369285988354e-04 -1.770299306038e-04 0.0 
-1.770299306038e-04 1.161644229230e-03 0.0 
0.0 0.0 -2.265802816212e-04 
-8.772316900263e-04 3.022985570029e-05 0.0 
3.022985570029e-05 5.030285682320e-03 0.0 
0.0 0.0 -7.870118106326e-04 
-1.087488399424e-03 -9.544139039346e-05 0.0 
-9.544139039346e-05 7.678102904648e-03 0.0 
0.0 0.0 -1.213461936786e-03 
-2.217204533164e-04 -1.125363679953e-04 0.0 
-1.125363679953e-04 8.293133150009e-04 0.0 
0.0 0.0 -1.562362318669e-04 
1.575931452750e-04 -1.091415967636e-04 0.0 
-1.091415967636e-04 4.514811203493e-04 0.0 
0.0 0.0 -1.320567747312e-04 
-1.342371808075e-03 1.025686952786e-04 0.0 
1.025686952786e-04 9.039344740884e-03 0.0 
0.0 0.0 -1.324389858384e-03 
-8.327656305072e-04 1.141712868856e-04 0.0 
1.141712868856e-04 4.641243707897e-03 0.0 
0.0 0.0 -7.294542769151e-04 
-1.288909957265e-03 4.016661537540e-04 0.0 
4.016661537540e-04 8.513544320093e-03 0.0 
0.0 0.0 -1.261418349269e-03 
-1.134288891980e-03 5.741233190871e-05 0.0 
5.741233190871e-05 7.407101021319e-03 0.0 
0.0 0.0 -1.231858344535e-03 
-8.347679035328e-04 -3.570531223968e-05 0.0 
-3.570531223968e-05 4.629434413509e-03 0.0 
0.0 0.0 -7.289279708929e-04 
0.0 0.0 0.0 
0.0 0.0 0.0 
0.0 0.0 0.0 
-1.305379233758e-03 -6.071779487898e-05 0.0 
-6.071779487898e-05 8.461113597457e-03 0.0 
0.0 0.0 -1.284140717546e-03 
-3.100289480378e-04 -3.270232557407e-04 0.0 
-3.270232557407e-04 1.355870936008e-03 0.0 
0.0 0.0 -2.433545560381e-04 
-1.282233343865e-03 2.781824875359e-04 0.0 
2.781824875359e-04 8.180219452641e-03 0.0 
0.0 0.0 -1.232184317627e-03 
-1.343095105526e-03 -2.432827260553e-04 0.0 
-2.432827260553e-04 8.545412507579e-03 0.0 
0.0 0.0 -1.343095105526e-03 
-1.292199045367e-03 2.524866178233e-04 0.0 
2.524866178233e-04 8.014541847179e-03 0.0 
0.0 0.0 -1.225700354592e-03 
4.686342162084e-04 -7.265370554805e-04 0.0 
-7.265370554805e-04 5.162950173452e-06 0.0 
0.0 0.0 -2.030559284494e-04 
-9.540260339352e-04 1.631930893359e-04 0.0 
1.631930893359e-04 5.653552826698e-03 0.0 
0.0 0.0 -8.279144014868e-04 
-8.950557039055e-04 -2.748800359507e-04 0.0 
-2.748800359507e-04 4.199615522516e-03 0.0 
0.0 0.0 -6.271989868224e-04 
-8.983235361331e-04 1.933150702715e-04 0.0 
1.933150702715e-04 6.546966492063e-03 0.0 
0.0 0.0 -1.077599360682e-03 
-1.273669225217e-03 1.720409005563e-04 0.0 
1.720409005563e-04 8.518730660981e-03 0.0 
0.0 0.0 -1.326997735404e-03 
-1.142899871982e-03 1.477724546960e-04 0.0 
1.477724546960e-04 7.166026161736e-03 0.0 
0.0 0.0 -1.061614915164e-03 
-1.285004601792e-03 2.929428446180e-04 0.0 
2.929428446180e-04 8.490810498827e-03 0.0 
0.0 0.0 -1.325870641008e-03 
0.0 0.0 0.0 
0.0 0.0 0.0 
0.0 0.0 0.0 
-1.297780734717e-03 -4.166830862430e-04 0.0 
-4.166830862430e-04 8.366714279713e-03 0.0 
0.0 0.0 -1.277656510522e-03 
2.368160629241e-04 -1.409681499125e-03 0.0 
-1.409681499125e-03 7.013780298968e-04 0.0 
0.0 0.0 -3.431348957073e-04 
-2.589194545670e-04 3.821483992917e-05 0.0 
3.821483992917e-05 1.124631262589e-03 0.0 
0.0 0.0 -2.298118214877e-04 
-1.194197405020e-03 -2.475227437211e-04 0.0 
-2.475227437211e-04 8.105636908586e-03 0.0 
0.0 0.0 -1.270335377537e-03 
-1.315524425911e-03 2.690035540339e-04 0.0 
2.690035540339e-04 8.643806800304e-03 0.0 
0.0 0.0 -1.270603359501e-03 
-1.320702306464e-03 4.960564232440e-05 0.0 
4.960564232440e-05 8.625092567998e-03 0.0 
0.0 0.0 -1.289850838753e-03 
-8.753308640926e-04 2.257063470840e-04 0.0 
2.257063470840e-04 5.095730312348e-03 0.0 
0.0 0.0 -7.762633204682e-04 
-9.835570351374e-04 3.967893708127e-04 0.0 
3.967893708127e-04 5.483942639045e-03 0.0 
0.0 0.0 -8.489529362435e-04 
-3.868195665134e-04 1.249245404028e-03 0.0 
1.249245404028e-03 1.493087960549e-03 0.0 
0.0 0.0 -3.390228113434e-04 
-1.290611125717e-03 4.069284773612e-04 0.0 
4.069284773612e-04 8.488337706707e-03 0.0 
0.0 0.0 -1.273041473476e-03 
-7.431920671866e-04 3.360733235591e-05 0.0 
3.360733235591e-05 3.408921231342e-03 0.0 
0.0 0.0 -5.357483711987e-04 
2.011032744506e-04 7.720499985605e-04 0.0 
7.720499985605e-04 2.146802318038e-04 0.0 
0.0 0.0 -1.781929312519e-04 
-9.370458151346e-04 5.508245939114e-04 0.0 
5.508245939114e-04 6.747683680752e-03 0.0 
0.0 0.0 -1.110141529071e-03 
-8.032989009541e-04 -1.045980115988e-05 0.0 
-1.045980115988e-05 4.870464455063e-03 0.0 
0.0 0.0 -7.096328662732e-04 
-1.279256756890e-03 4.600607687250e-04 0.0 
4.600607687250e-04 8.175326591168e-03 0.0 
0.0 0.0 -1.237729719596e-03 
-1.329072194852e-03 -1.834247142824e-04 0.0 
-1.834247142824e-04 8.977472730193e-03 0.0 
0.0 0.0 -1.321509982054e-03 
-1.343732204276e-03 7.562212797617e-06 0.0 
7.562212797617e-06 8.849786333364e-03 0.0 
0.0 0.0 -1.343732204276e-03 
6.465688167897e-04 1.663781779480e-05 0.0 
1.663781779480e-05 -3.978289505741e-05 0.0 
0.0 0.0 -8.420285294201e-05 
3.868700612373e-04 3.921670605925e-05 0.0 
3.921670605925e-05 -6.204561696291e-05 0.0 
0.0 0.0 -1.378576441850e-04 
-8.247124983758e-04 -1.687178518224e-04 0.0 
-1.687178518224e-04 4.737962601015e-03 0.0 
0.0 0.0 -7.318233512793e-04 
-8.319071836255e-04 2.758419797137e-05 0.0 
2.758419797137e-05 4.882188569804e-03 0.0 
0.0 0.0 -7.096011290571e-04 
-1.343732204276e-03 -2.755821224564e-05 0.0 
-2.755821224564e-05 8.606219025581e-03 0.0 
0.0 0.0 -1.343732204276e-03 
-1.349068194299e-03 1.748780922349e-04 0.0 
1.748780922349e-04 8.742452044457e-03 0.0 
0.0 0.0 -1.321509982054e-03 
2.267983165528e-04 1.503551410355e-04 0.0 
1.503551410355e-04 3.801820683437e-04 0.0 
0.0 0.0 -1.379425883790e-04 
0.0 0.0 0.0 
0.0 0.0 0.0 
0.0 0.0 0.0 
-1.304839210467e-03 -7.091443056662e-05 0.0 
-7.091443056662e-05 7.889011230752e-03 0.0 
0.0 0.0 -1.230181737024e-03 
-1.133789878205e-03 6.963372694564e-04 0.0 
6.963372694564e-04 7.661762773916e-03 0.0 
0.0 0.0 -1.209364118140e-03 
-3.105423637276e-04 -2.525564358258e-04 0.0 
-2.525564358258e-04 1.694140784916e-03 0.0 
0.0 0.0 -2.712674790923e-04 
-1.264304018708e-03 -4.229761773583e-04 0.0 
-4.229761773583e-04 7.912894217144e-03 0.0 
0.0 0.0 -1.240191881334e-03 
-1.104648569634e-03 -8.128511201330e-05 0.0 
-8.128511201330e-05 5.687324916732e-03 0.0 
0.0 0.0 -8.888375990210e-04 
-1.026907705388e-03 -2.214158958103e-04 0.0 
-2.214158958103e-04 5.060294452777e-03 0.0 
0.0 0.0 -7.610796297342e-04 
-1.050200639505e-03 1.276309243533e-04 0.0 
1.276309243533e-04 6.471471583772e-03 0.0 
0.0 0.0 -9.400782610458e-04 
-2.965318753647e-05 -1.331164902240e-03 0.0 
-1.331164902240e-03 9.056852696167e-04 0.0 
0.0 0.0 -3.754423208915e-04 
-8.088866268099e-04 2.301224893319e-04 0.0 
2.301224893319e-04 6.098327421906e-03 0.0 
0.0 0.0 -1.011657465016e-03 
-2.272445053013e-04 -9.535102935050e-05 0.0 
-9.535102935050e-05 1.388764162386e-03 0.0 
0.0 0.0 -2.181484037039e-04 
-9.136007493904e-04 -3.789003197154e-04 0.0 
-3.789003197154e-04 4.494388172482e-03 0.0 
0.0 0.0 -6.997415131527e-04 
-1.249092671204e-03 5.668738205519e-04 0.0 
5.668738205519e-04 7.979681115669e-03 0.0 
0.0 0.0 -1.240519096027e-03 
-1.238391952882e-03 -2.103174549131e-04 0.0 
-2.103174549131e-04 8.038627661496e-03 0.0 
0.0 0.0 -1.191726112421e-03 
-9.811853638777e-04 4.571159586099e-05 0.0 
4.571159586099e-05 4.872542694396e-03 0.0 
0.0 0.0 -7.690942022927e-04 
-9.767560317632e-04 -1.705867274286e-04 0.0 
-1.705867274286e-04 5.944945665690e-03 0.0 
0.0 0.0 -8.745659502648e-04 
-1.201104368766e-03 5.803220864547e-04 0.0 
5.803220864547e-04 7.939240582663e-03 0.0 
0.0 0.0 -1.217119345310e-03 
-1.179845702415e-03 2.452002266232e-04 0.0 
2.452002266232e-04 7.438662012216e-03 0.0 
0.0 0.0 -1.140944809982e-03 
-1.127959464392e-03 2.474309966313e-04 0.0 
2.474309966313e-04 7.001139959042e-03 0.0 
0.0 0.0 -1.076426999079e-03 
-8.393109454079e-04 2.446878724435e-05 0.0 
2.446878724435e-05 4.620539471492e-03 0.0 
0.0 0.0 -7.312123441678e-04 
-7.325714353874e-04 1.943037271298e-04 0.0 
1.943037271298e-04 5.805049329063e-03 0.0 
0.0 0.0 -9.763781674015e-04 
-1.278424948200e-03 4.732838707970e-04 0.0 
4.732838707970e-04 8.049805466019e-03 0.0 
0.0 0.0 -1.231404929774e-03 
-6.063671140810e-04 1.348850002822e-06 0.0 
1.348850002822e-06 2.558361798436e-03 0.0 
0.0 0.0 -4.167967844002e-04 
-7.171547725390e-05 -2.177777186911e-04 0.0 
-2.177777186911e-04 5.764019490181e-04 0.0 
0.0 0.0 -1.015157820784e-04 
-1.170824655935e-03 3.363594053323e-04 0.0 
3.363594053323e-04 7.539332247117e-03 0.0 
0.0 0.0 -1.185975225609e-03 
-9.133715629689e-04 2.312110862865e-04 0.0 
2.312110862865e-04 6.719277881344e-03 0.0 
0.0 0.0 -1.123538223191e-03 
1.132049243546e-04 -1.050372997865e-03 0.0 
-1.050372997865e-03 4.871548077874e-04 0.0 
0.0 0.0 -2.572970280609e-04 
-1.081558890546e-03 -1.399243451463e-04 0.0 
-1.399243451463e-04 6.772240372319e-03 0.0 
0.0 0.0 -9.893338170986e-04 
-1.329126769976e-03 -2.338155039388e-04 0.0 
-2.338155039388e-04 8.188960966632e-03 0.0 
0.0 0.0 -1.282739585886e-03 
-1.129882241773e-03 5.744296922873e-04 0.0 
5.744296922873e-04 7.355375345581e-03 0.0 
0.0 0.0 -1.182073443778e-03 
-1.178192896547e-03 4.553534655183e-04 0.0 
4.553534655183e-04 7.891430484162e-03 0.0 
0.0 0.0 -1.215129606110e-03 
-1.157436434489e-03 -2.420799146488e-04 0.0 
-2.420799146488e-04 6.201441230335e-03 0.0 
0.0 0.0 -9.537126495859e-04 
0.0 0.0 0.0 
0.0 0.0 0.0 
0.0 0.0 0.0 
-5.231800249051e-04 6.591753538455e-04 0.0 
6.591753538455e-04 1.847843507099e-03 0.0 
0.0 0.0 -3.212443691966e-04 
-5.564787132596e-04 8.940027195274e-04 0.0 
8.940027195274e-04 2.137708509351e-03 0.0 
0.0 0.0 -3.834349432650e-04 
-9.473774776597e-04 1.764703939582e-04 0.0 
1.764703939582e-04 5.384019631323e-03 0.0 
0.0 0.0 -8.471429939415e-04 
-7.614839710960e-04 6.584444641784e-04 0.0 
6.584444641784e-04 5.752238999582e-03 0.0 
0.0 0.0 -9.781602908260e-04 
-1.285624241878e-03 -4.326792981855e-05 0.0 
-4.326792981855e-05 8.288168648148e-03 0.0 
0.0 0.0 -1.236541257690e-03 
-1.217308294029e-03 1.640866066604e-04 0.0 
1.640866066604e-04 7.793774931469e-03 0.0 
0.0 0.0 -1.282325209426e-03 
-8.954075940437e-05 -8.680076304404e-04 0.0 
-8.680076304404e-04 7.337139848585e-04 0.0 
0.0 0.0 -2.760742394804e-04 
-3.009716750380e-04 -4.715458723185e-04 0.0 
-4.715458723185e-04 9.308600569539e-04 0.0 
0.0 0.0 -1.704796444516e-04 
-4.318023328758e-04 9.056222759074e-04 0.0 
9.056222759074e-04 1.421929475039e-03 0.0 
0.0 0.0 -2.747970858071e-04 
-1.085049996288e-03 3.161557202625e-04 0.0 
3.161557202625e-04 6.749947888276e-03 0.0 
0.0 0.0 -1.019242131223e-03 
-7.105673598930e-04 -3.560858813606e-04 0.0 
-3.560858813606e-04 3.243394900527e-03 0.0 
0.0 0.0 -4.953283059016e-04 
-1.294058250345e-03 1.194991635526e-04 0.0 
1.194991635526e-04 8.278027413572e-03 0.0 
0.0 0.0 -1.241298427557e-03 
-2.801916649698e-04 -2.169380665087e-04 0.0 
-2.169380665087e-04 1.598671665654e-03 0.0 
0.0 0.0 -2.623907620756e-04 
-1.097220766083e-03 2.014729423047e-04 0.0 
2.014729423047e-04 7.397517373048e-03 0.0 
0.0 0.0 -1.221152601860e-03 
-9.286181991470e-04 2.455314232276e-04 0.0 
2.455314232276e-04 5.488935049062e-03 0.0 
0.0 0.0 -8.343732341398e-04 
-1.223283272536e-03 3.593359299497e-04 0.0 
3.593359299497e-04 7.932879470025e-03 0.0 
0.0 0.0 -1.286815605725e-03 
-9.712654839318e-04 1.866157351704e-04 0.0 
1.866157351704e-04 6.891208363551e-03 0.0 
0.0 0.0 -1.111121968474e-03 
-9.581999826764e-04 8.182036761545e-05 0.0 
8.182036761545e-05 5.388937206970e-03 0.0 
0.0 0.0 -8.465141837044e-04 
-1.209961591988e-03 -2.976225161964e-04 0.0 
-2.976225161964e-04 8.170684166123e-03 0.0 
0.0 0.0 -1.269142588751e-03 
-1.323046623582e-03 3.793136222843e-04 0.0 
3.793136222843e-04 8.658663539059e-03 0.0 
0.0 0.0 -1.272727265576e-03 
-1.289749640490e-03 9.124365830308e-05 0.0 
9.124365830308e-05 8.709454540694e-03 0.0 
0.0 0.0 -1.271339345674e-03 
-1.626085801218e-04 8.571684415748e-04 0.0 
8.571684415748e-04 8.875192706734e-04 0.0 
0.0 0.0 -3.044868356389e-04 
-1.267095409920e-03 4.070899744542e-04 0.0 
4.070899744542e-04 8.089876134210e-03 0.0 
0.0 0.0 -1.218309553141e-03 
-1.282164121305e-03 5.174305312528e-04 0.0 
5.174305312528e-04 8.083053308233e-03 0.0 
0.0 0.0 -1.286645293131e-03 
-1.059215435768e-03 -2.009543418023e-05 0.0 
-2.009543418023e-05 7.573607372665e-03 0.0 
0.0 0.0 -1.211735819529e-03 
-9.987418032593e-04 6.142229130813e-04 0.0 
6.142229130813e-04 6.982246170553e-03 0.0 
0.0 0.0 -1.143254064081e-03 
-1.342665167303e-03 -2.857461739196e-04 0.0 
-2.857461739196e-04 8.440143907241e-03 0.0 
0.0 0.0 -1.342665167303e-03 
-1.126760089934e-03 6.437426727216e-04 0.0 
6.437426727216e-04 6.937086787485e-03 0.0 
0.0 0.0 -1.079065255302e-03 
0.0 0.0 0.0 
0.0 0.0 0.0 
0.0 0.0 0.0 
6.191816026709e-05 1.291205818517e-03 0.0 
1.291205818517e-03 7.179353342320e-04 0.0 
0.0 0.0 -3.342229262139e-04 
-1.235056862706e-03 2.777301788060e-04 0.0 
2.777301788060e-04 7.736779237008e-03 0.0 
0.0 0.0 -1.176936364471e-03 
-9.923017078165e-04 3.078956919309e-04 0.0 
3.078956919309e-04 5.849121224287e-03 0.0 
0.0 0.0 -8.884613587993e-04 
-1.298948170332e-03 -3.124306146209e-04 0.0 
-3.124306146209e-04 7.977511740223e-03 0.0 
0.0 0.0 -1.221994126432e-03 
-1.061095181676e-03 1.799058826279e-04 0.0 
1.799058826279e-04 7.334426391334e-03 0.0 
0.0 0.0 -1.177009544428e-03 
-1.289141827740e-03 -3.383964038360e-04 0.0 
-3.383964038360e-04 8.125835853115e-03 0.0 
0.0 0.0 -1.292249833993e-03 
-1.132172011691e-03 2.813138638496e-04 0.0 
2.813138638496e-04 7.272270790879e-03 0.0 
0.0 0.0 -1.085521458831e-03 
-1.247617681667e-03 2.986308671608e-04 0.0 
2.986308671608e-04 7.907076372021e-03 0.0 
0.0 0.0 -1.288973456333e-03 
-1.183175849056e-03 -4.290305750124e-04 0.0 
-4.290305750124e-04 7.735436170610e-03 0.0 
0.0 0.0 -1.233322439334e-03 
-1.175389870133e-03 -8.154118169286e-05 0.0 
-8.154118169286e-05 7.695545006504e-03 0.0 
0.0 0.0 -1.235043566395e-03 
-7.287005066558e-04 -2.363504694994e-04 0.0 
-2.363504694994e-04 3.412626924282e-03 0.0 
0.0 0.0 -5.104964012366e-04 
-1.311532395302e-03 -3.318821641935e-04 0.0 
-3.318821641935e-04 8.754426494470e-03 0.0 
0.0 0.0 -1.325641941534e-03 
-8.790480836699e-04 9.973280973964e-05 0.0 
9.973280973964e-05 5.256747279211e-03 0.0 
0.0 0.0 -7.662153309039e-04 
-1.249481013832e-03 -1.180321759362e-04 0.0 
-1.180321759362e-04 8.200814515591e-03 0.0 
0.0 0.0 -1.217406395242e-03 
-1.652940304057e-04 -5.197313760388e-04 0.0 
-5.197313760388e-04 7.163944105236e-04 0.0 
0.0 0.0 -2.361858771934e-04 
-1.199456095747e-03 -9.281141696113e-05 0.0 
-9.281141696113e-05 7.932283218576e-03 0.0 
0.0 0.0 -1.163202487293e-03 
-1.073812189916e-03 1.019150907596e-06 0.0 
1.019150907596e-06 6.842466406292e-03 0.0 
0.0 0.0 -9.926133712568e-04 
-8.677292434787e-05 -7.776541442063e-05 0.0 
-7.776541442063e-05 9.098025117225e-04 0.0 
0.0 0.0 -1.628620303624e-04 
5.265410319422e-04 -6.941530982861e-04 0.0 
-6.941530982861e-04 -3.231659341298e-05 0.0 
0.0 0.0 -2.118104736554e-04 
-1.137863848184e-03 6.727746037847e-04 0.0 
6.727746037847e-04 7.103743294949e-03 0.0 
0.0 0.0 -1.107581195644e-03 
-1.316054950297e-03 1.463718814179e-04 0.0 
1.463718814179e-04 8.450854861123e-03 0.0 
0.0 0.0 -1.285368862661e-03 
-1.275071184009e-03 -1.337709164893e-04 0.0 
-1.337709164893e-04 8.307471815085e-03 0.0 
0.0 0.0 -1.223917301752e-03 
-1.160153297854e-03 5.261040585439e-04 0.0 
5.261040585439e-04 7.939180437513e-03 0.0 
0.0 0.0 -1.264779455601e-03 
-9.786681000752e-04 2.797069543092e-04 0.0 
2.797069543092e-04 5.828399650514e-03 0.0 
0.0 0.0 -8.807565902733e-04 
6.088519586403e-05 -4.917250620978e-05 0.0 
-4.917250620978e-05 4.869793999348e-04 0.0 
0.0 0.0 -1.094929743475e-04 
6.111566355022e-05 5.640636810902e-05 0.0 
5.640636810902e-05 -1.157323767526e-05 0.0 
0.0 0.0 -2.123246823212e-05 
-1.420251948107e-04 8.764175524857e-05 0.0 
8.764175524857e-05 4.773240057954e-04 0.0 
0.0 0.0 -1.256389127973e-04 
-3.632499277279e-04 -7.837444408696e-04 0.0 
-7.837444408696e-04 1.194209396961e-03 0.0 
0.0 0.0 -2.225718436208e-04 
0.0 0.0 0.0 
0.0 0.0 0.0 
0.0 0.0 0.0 
-8.980038842560e-04 -6.868916122841e-05 0.0 
-6.868916122841e-05 4.504377363934e-03 0.0 
0.0 0.0 -6.753304527203e-04 
-1.294165048711e-03 6.161991819009e-05 0.0 
6.161991819009e-05 7.969168976077e-03 0.0 
0.0 0.0 -1.222305993939e-03 
-1.264474650052e-03 5.734696938905e-04 0.0 
5.734696938905e-04 8.077312517039e-03 0.0 
0.0 0.0 -1.222833113937e-03 
-1.006464770387e-03 3.394189907578e-05 0.0 
3.394189907578e-05 5.834781281692e-03 0.0 
0.0 0.0 -8.826313165011e-04 
-8.266334947460e-04 -5.354606523691e-04 0.0 
-5.354606523691e-04 3.869366937566e-03 0.0 
0.0 0.0 -5.988529843847e-04 
-1.198642937147e-03 -4.684662880526e-04 0.0 
-4.684662880526e-04 7.783754842457e-03 0.0 
0.0 0.0 -1.221067908166e-03 
-1.068035990990e-03 1.115403335333e-04 0.0 
1.115403335333e-04 7.531635864011e-03 0.0 
0.0 0.0 -1.208702654310e-03 
-1.208049507468e-03 4.869249044164e-04 0.0 
4.869249044164e-04 8.191633662499e-03 0.0 
0.0 0.0 -1.272252409145e-03 
-1.227816291176e-03 4.361504529360e-04 0.0 
4.361504529360e-04 7.755209047765e-03 0.0 
0.0 0.0 -1.237422270938e-03 
-1.191139084829e-03 6.619264216726e-04 0.0 
6.619264216726e-04 7.533865048847e-03 0.0 
0.0 0.0 -1.171232062679e-03 
-1.920899935495e-04 -3.005289282689e-04 0.0 
-3.005289282689e-04 6.978999469600e-04 0.0 
0.0 0.0 -2.167756943188e-04 
0.0 0.0 0.0 
0.0 0.0 0.0 
0.0 0.0 0.0 
-1.308655472056e-03 -3.526594848147e-04 0.0 
-3.526594848147e-04 8.026041467974e-03 0.0 
0.0 0.0 -1.223662873675e-03 
-1.521155326843e-04 1.616990335056e-05 0.0 
1.616990335056e-05 7.009749630609e-04 0.0 
0.0 0.0 -1.761523314621e-04 
-1.768246005743e-04 2.416090922495e-04 0.0 
2.416090922495e-04 1.018026141244e-03 0.0 
0.0 0.0 -1.933333333332e-04 
1.266269026244e-04 4.459901967828e-04 0.0 
4.459901967828e-04 1.149333659383e-04 0.0 
0.0 0.0 -1.035258293840e-04 
-1.677849962930e-04 -2.830770546558e-04 0.0 
-2.830770546558e-04 8.015651116380e-04 0.0 
0.0 0.0 -1.580296812506e-04 
-1.271854076500e-03 -2.557043152436e-04 0.0 
-2.557043152436e-04 7.945254530657e-03 0.0 
0.0 0.0 -1.288571152055e-03 
-1.306788030849e-03 4.109202426763e-04 0.0 
4.109202426763e-04 8.216249132470e-03 0.0 
0.0 0.0 -1.290113636706e-03 
-1.294468783320e-03 3.035835675296e-04 0.0 
3.035835675296e-04 8.293038568859e-03 0.0 
0.0 0.0 -1.236907757659e-03 
-1.272697522653e-03 4.000546130429e-04 0.0 
4.000546130429e-04 7.992915461605e-03 0.0 
0.0 0.0 -1.292605224168e-03 
-1.039048517881e-03 -2.511628389219e-04 0.0 
-2.511628389219e-04 7.217306455236e-03 0.0 
0.0 0.0 -1.176879138244e-03 
-9.963056410622e-04 2.982297539881e-04 0.0 
2.982297539881e-04 6.108837095234e-03 0.0 
0.0 0.0 -9.170130443517e-04 
-1.345069444888e-03 2.094806773474e-04 0.0 
2.094806773474e-04 8.819921791921e-03 0.0 
0.0 0.0 -1.345069444888e-03 
1.552293122710e-04 -1.587596842018e-03 0.0 
-1.587596842018e-03 7.594496357434e-04 0.0 
0.0 0.0 -3.920052634347e-04 
-7.958568066072e-04 2.655126968941e-05 0.0 
2.655126968941e-05 4.862635053177e-03 0.0 
0.0 0.0 -7.083073883397e-04 
-3.709027017310e-05 -1.154290083415e-03 0.0 
-1.154290083415e-03 8.071251517729e-04 0.0 
0.0 0.0 -3.300149492570e-04 
-8.078687300304e-05 2.766710122456e-05 0.0 
2.766710122456e-05 2.705585081320e-04 0.0 
0.0 0.0 -8.133070076957e-05 
-1.328088305276e-03 -2.091716352919e-04 0.0 
-2.091716352919e-04 8.801339781229e-03 0.0 
0.0 0.0 -1.323850096553e-03 
-9.077000763770e-04 9.794404475146e-05 0.0 
9.794404475146e-05 5.306610706151e-03 0.0 
0.0 0.0 -7.731261162940e-04 
-1.693805322071e-04 -2.625883935893e-05 0.0 
-2.625883935893e-05 1.305243597625e-03 0.0 
0.0 0.0 -2.115341463249e-04 
-9.189085389785e-04 8.964891235688e-05 0.0 
8.964891235688e-05 4.273021875062e-03 0.0 
0.0 0.0 -6.570498647039e-04 
-1.286146232063e-03 5.231039738263e-04 0.0 
5.231039738263e-04 8.474365430469e-03 0.0 
0.0 0.0 -1.276804206569e-03 
-1.288400651325e-03 -4.306470642739e-06 0.0 
-4.306470642739e-06 8.274343384212e-03 0.0 
0.0 0.0 -1.228616961883e-03 
-1.323624610775e-03 3.216369829918e-04 0.0 
3.216369829918e-04 8.408100187569e-03 0.0 
0.0 0.0 -1.289666537713e-03 
-6.585033223124e-04 -1.956809026779e-04 0.0 
-1.956809026779e-04 3.104860358543e-03 0.0 
0.0 0.0 -4.695399720401e-04 
0.0 0.0 0.0 
0.0 0.0 0.0 
0.0 0.0 0.0 
-1.295369683638e-03 -4.352781909349e-04 0.0 
-4.352781909349e-04 8.328377963407e-03 0.0 
0.0 0.0 -1.273144391159e-03 
-1.316384665971e-03 4.635940691717e-05 0.0 
4.635940691717e-05 9.091692367136e-03 0.0 
0.0 0.0 -1.325353038101e-03 
-1.373672636792e-03 -7.774901455504e-05 0.0 
-7.774901455504e-05 8.873813327291e-03 0.0 
0.0 0.0 -1.323783523096e-03 
-8.637809619907e-04 1.323503679534e-04 0.0 
1.323503679534e-04 5.089707097874e-03 0.0 
0.0 0.0 -7.673431308700e-04 
-1.131532193974e-03 -7.726473612601e-05 0.0 
-7.726473612601e-05 7.445464928452e-03 0.0 
0.0 0.0 -1.231867668451e-03 
-2.317572587520e-04 -1.314436244158e-04 0.0 
-1.314436244158e-04 1.130415722071e-03 0.0 
0.0 0.0 -2.324200178898e-04 
-1.299745087394e-03 4.291095854891e-04 0.0 
4.291095854891e-04 8.286657472724e-03 0.0 
0.0 0.0 -1.241575510934e-03 
-4.846130298420e-05 -4.886976193625e-05 0.0 
-4.886976193625e-05 2.622595636012e-04 0.0 
0.0 0.0 -9.162782597871e-05 
-1.263516092246e-03 -1.718330630488e-04 0.0 
-1.718330630488e-04 7.907025787409e-03 0.0 
0.0 0.0 -1.290713494763e-03 
-1.321680158597e-03 4.673078731777e-04 0.0 
4.673078731777e-04 8.597815189326e-03 0.0 
0.0 0.0 -1.268585396830e-03 
0.0 0.0 0.0 
0.0 0.0 0.0 
0.0 0.0 0.0 
-1.124591088079e-03 3.211880423142e-04 0.0 
3.211880423142e-04 7.458066064736e-03 0.0 
0.0 0.0 -1.178018281593e-03 
-1.107869427890e-03 -1.505180591586e-04 0.0 
-1.505180591586e-04 7.012739571933e-03 0.0 
0.0 0.0 -1.053859681778e-03 
-1.308771083341e-03 9.446579517484e-05 0.0 
9.446579517484e-05 8.493525012630e-03 0.0 
0.0 0.0 -1.289687241943e-03 
-1.346242744377e-03 2.039443759450e-04 0.0 
2.039443759450e-04 8.307404063276e-03 0.0 
0.0 0.0 -1.346242744377e-03 
-1.050842893348e-03 -2.891538303944e-04 0.0 
-2.891538303944e-04 6.421171579649e-03 0.0 
0.0 0.0 -9.627310317561e-04 
-1.303758961951e-03 4.903154082554e-04 0.0 
4.903154082554e-04 8.278630388455e-03 0.0 
0.0 0.0 -1.292510612804e-03 
-1.300990074097e-03 1.669276888751e-04 0.0 
1.669276888751e-04 8.244189692926e-03 0.0 
0.0 0.0 -1.236507170568e-03 
-1.088170666265e-03 3.228048852164e-05 0.0 
3.228048852164e-05 6.587667922864e-03 0.0 
0.0 0.0 -1.009625451247e-03 
-1.257890102395e-03 4.520446479729e-04 0.0 
4.520446479729e-04 7.985706155656e-03 0.0 
0.0 0.0 -1.247605899893e-03 
-7.721939041237e-04 -2.584607340664e-04 0.0 
-2.584607340664e-04 3.598089332548e-03 0.0 
0.0 0.0 -5.668522599723e-04 
-8.446801208318e-04 -1.785300824749e-05 0.0 
-1.785300824749e-05 4.608085736335e-03 0.0 
0.0 0.0 -7.287847301676e-04 
-1.179784032877e-03 5.549241153248e-04 0.0 
5.549241153248e-04 7.775803262496e-03 0.0 
0.0 0.0 -1.239219007812e-03 
-1.299529222104e-03 1.321426560981e-04 0.0 
1.321426560981e-04 8.646134742124e-03 0.0 
0.0 0.0 -1.286506427510e-03 
3.282555611512e-04 1.373623528592e-05 0.0 
1.373623528592e-05 -9.835947976779e-05 0.0 
0.0 0.0 -9.852689202146e-05 
-8.370484008237e-04 5.623912198418e-05 0.0 
5.623912198418e-05 4.626828224470e-03 0.0 
0.0 0.0 -7.284590636140e-04 
-1.335071484274e-03 -1.600713729454e-04 0.0 
-1.600713729454e-04 8.440371416104e-03 0.0 
0.0 0.0 -1.288082484959e-03 
-3.767414468585e-04 -4.451842935600e-05 0.0 
-4.451842935600e-05 1.577633672495e-03 0.0 
0.0 0.0 -2.765646858065e-04 
-1.088631360797e-03 4.564803545026e-05 0.0 
4.564803545026e-05 7.667059339477e-03 0.0 
0.0 0.0 -1.213252366005e-03 
-1.271794335805e-03 2.301245021833e-04 0.0 
2.301245021833e-04 8.183403677429e-03 0.0 
0.0 0.0 -1.225943235494e-03 
-1.312602819485e-03 -3.967668182090e-05 0.0 
-3.967668182090e-05 8.691988746778e-03 0.0 
0.0 0.0 -1.269037835114e-03 
-3.083660169777e-04 2.694773361529e-05 0.0 
2.694773361529e-05 1.528069924280e-03 0.0 
0.0 0.0 -2.647987373252e-04 
3.113151605038e-04 9.413576912784e-04 0.0 
9.413576912784e-04 1.991549585730e-04 0.0 
0.0 0.0 -2.187729081758e-04 
-1.068435724364e-03 3.124616463362e-04 0.0 
3.124616463362e-04 5.213213290896e-03 0.0 
0.0 0.0 -7.939471195916e-04 
-1.202568648909e-03 1.058847220047e-04 0.0 
1.058847220047e-04 7.572272609772e-03 0.0 
0.0 0.0 -1.120841203304e-03 
0.0 0.0 0.0 
0.0 0.0 0.0 
0.0 0.0 0.0 
-1.320199164535e-03 2.485994904543e-04 0.0 
2.485994904543e-04 8.472368730029e-03 0.0 
0.0 0.0 -1.292233508669e-03 
-1.037229848653e-03 5.491249721839e-05 0.0 
5.491249721839e-05 6.181123680978e-03 0.0 
0.0 0.0 -9.501928138396e-04 
-2.112219927373e-05 -1.374997492072e-03 0.0 
-1.374997492072e-03 9.175924767207e-04 0.0 
0.0 0.0 -3.842015474773e-04 
-1.012609583766e-03 8.895330680236e-05 0.0 
8.895330680236e-05 5.872726185200e-03 0.0 
0.0 0.0 -9.030544305944e-04 
-1.225691657466e-03 3.254133079920e-04 0.0 
3.254133079920e-04 8.211721301461e-03 0.0 
0.0 0.0 -1.271643562581e-03 
-1.073143154962e-03 -3.082428058209e-04 0.0 
-3.082428058209e-04 5.482950483311e-03 0.0 
0.0 0.0 -8.272804529250e-04 
-7.343224871047e-05 8.091023941593e-04 0.0 
8.091023941593e-04 9.588356513447e-05 0.0 
0.0 0.0 -9.621992753141e-06 
-7.676399437614e-04 -3.808740375144e-05 0.0 
-3.808740375144e-05 3.237219166554e-03 0.0 
0.0 0.0 -5.209635072927e-04 
-9.628338005869e-04 -8.201294567373e-05 0.0 
-8.201294567373e-05 4.764994978367e-03 0.0 
0.0 0.0 -7.319997505002e-04 
-1.071554526652e-03 3.282695898754e-04 0.0 
3.282695898754e-04 5.655927594763e-03 0.0 
0.0 0.0 -8.599999999992e-04 
-1.135384068353e-03 1.731479619930e-04 0.0 
1.731479619930e-04 7.715574497297e-03 0.0 
0.0 0.0 -1.232780192057e-03 
-9.798919804233e-04 -2.558628748534e-04 0.0 
-2.558628748534e-04 4.608642650891e-03 0.0 
0.0 0.0 -7.175509632692e-04 
-9.821029958470e-04 -3.508647879924e-05 0.0 
-3.508647879924e-05 4.890525845077e-03 0.0 
0.0 0.0 -7.596628988333e-04 
-1.837560013843e-04 -1.583099615282e-05 0.0 
-1.583099615282e-05 7.060885550868e-04 0.0 
0.0 0.0 -1.551230728613e-04 
-1.279400136320e-03 -1.566945304177e-04 0.0 
-1.566945304177e-04 7.936225660633e-03 0.0 
0.0 0.0 -1.240629869904e-03 
-1.185998620198e-03 6.438056067403e-04 0.0 
6.438056067403e-04 7.550199019485e-03 0.0 
0.0 0.0 -1.186362110037e-03 
2.427830448571e-04 7.191273176983e-04 0.0 
7.191273176983e-04 1.478022189351e-04 0.0 
0.0 0.0 -1.673936844824e-04 
-1.279430862365e-03 -6.414688066309e-05 0.0 
-6.414688066309e-05 8.547621756056e-03 0.0 
0.0 0.0 -1.290349483557e-03 
-1.338884708819e-03 1.031550988355e-04 0.0 
1.031550988355e-04 8.369469127644e-03 0.0 
0.0 0.0 -1.290356026000e-03 
-8.661241169029e-04 -1.497599566473e-04 0.0 
-1.497599566473e-04 5.210623571048e-03 0.0 
0.0 0.0 -7.639788432047e-04 
-1.031081386504e-03 4.454962226943e-05 0.0 
4.454962226943e-05 6.379322053578e-03 0.0 
0.0 0.0 -9.358343396975e-04 
-9.489099175762e-04 2.306915430345e-05 0.0 
2.306915430345e-05 4.686801294291e-03 0.0 
0.0 0.0 -7.108516105536e-04 
-9.490845872611e-04 -2.424415655702e-04 0.0 
-2.424415655702e-04 4.770889395299e-03 0.0 
0.0 0.0 -7.343037059241e-04 
-1.020778085259e-03 -1.236146397605e-04 0.0 
-1.236146397605e-04 5.063951457963e-03 0.0 
0.0 0.0 -7.498489858827e-04 
-1.029397936689e-03 2.088387744417e-04 0.0 
2.088387744417e-04 7.190812739883e-03 0.0 
0.0 0.0 -1.180929064624e-03 
-9.345291821784e-05 -1.000980982166e-03 0.0 
-1.000980982166e-03 8.249248585122e-04 0.0 
0.0 0.0 -3.134879744119e-04 
-1.217539983379e-03 3.641850333419e-04 0.0 
3.641850333419e-04 7.975823276789e-03 0.0 
0.0 0.0 -1.217816617926e-03 
-9.353852917844e-04 8.308411466891e-05 0.0 
8.308411466891e-05 5.379160797006e-03 0.0 
0.0 0.0 -8.376728236383e-04 
-1.321070874734e-03 1.232042406106e-04 0.0 
1.232042406106e-04 8.662379723599e-03 0.0 
0.0 0.0 -1.272153791098e-03 
-1.041736228558e-03 -1.048021857426e-04 0.0 
-1.048021857426e-04 7.166745997700e-03 0.0 
0.0 0.0 -1.181257232468e-03 
-9.798440822242e-04 -3.118370163861e-05 0.0 
-3.118370163861e-05 6.079525789277e-03 0.0 
0.0 0.0 -8.902468719969e-04 
-1.234647512165e-03 5.766899331800e-04 0.0 
5.766899331800e-04 7.752454878246e-03 0.0 
0.0 0.0 -1.201032862555e-03 
-1.158629351689e-03 4.496790680983e-04 0.0 
4.496790680983e-04 7.611289473110e-03 0.0 
0.0 0.0 -1.236767197193e-03 
-1.208868880085e-03 3.342350738492e-04 0.0 
3.342350738492e-04 8.181025928136e-03 0.0 
0.0 0.0 -1.270271405117e-03 
3.097542277649e-05 6.697677954974e-05 0.0 
6.697677954974e-05 7.281263968879e-06 0.0 
0.0 0.0 -1.639572289087e-05 
-1.241892221072e-03 3.317116238901e-04 0.0 
3.317116238901e-04 7.798927866879e-03 0.0 
0.0 0.0 -1.198686027802e-03 
-1.247779771289e-03 6.731204463031e-04 0.0 
6.731204463031e-04 8.074479962319e-03 0.0 
0.0 0.0 -1.227078865044e-03 
-6.925802389634e-05 -2.106877258132e-04 0.0 
-2.106877258132e-04 8.393317830722e-04 0.0 
0.0 0.0 -1.488313462956e-04 
-9.198582411310e-04 -2.516763361700e-04 0.0 
-2.516763361700e-04 4.361749592167e-03 0.0 
0.0 0.0 -6.841365946973e-04 
8.862067450555e-06 2.614979262087e-05 0.0 
2.614979262087e-05 5.345349754714e-06 0.0 
0.0 0.0 -6.088893087973e-06 
-1.270183579808e-03 3.785933793144e-04 0.0 
3.785933793144e-04 8.183372897712e-03 0.0 
0.0 0.0 -1.230789928678e-03 
-7.120623447180e-04 -8.888228388160e-05 0.0 
-8.888228388160e-05 3.852748437753e-03 0.0 
0.0 0.0 -6.044444444444e-04 
-6.732231856846e-04 3.548631982699e-05 0.0 
3.548631982699e-05 4.032087244247e-03 0.0 
0.0 0.0 -5.822222222222e-04 
-6.955393523700e-04 -2.756019485512e-05 0.0 
-2.756019485512e-05 3.717267839696e-03 0.0 
0.0 0.0 -6.044444444444e-04 
-6.699405789043e-04 -1.870355497797e-05 0.0 
-1.870355497797e-05 4.017496801865e-03 0.0 
0.0 0.0 -5.822222222222e-04 
-6.969243199369e-04 -6.918496173234e-06 0.0 
-6.918496173234e-06 3.707462619531e-03 0.0 
0.0 0.0 -6.044444444444e-04 
-6.724380775462e-04 -1.325710265715e-05 0.0 
-1.325710265715e-05 4.022403973257e-03 0.0 
0.0 0.0 -5.822222222222e-04 
-7.031503284102e-04 -1.402242021930e-05 0.0 
-1.402242021930e-05 3.711320333832e-03 0.0 
0.0 0.0 -6.044444444444e-04 
-6.728589234574e-04 -1.646685933992e-05 0.0 
-1.646685933992e-05 4.018646007482e-03 0.0 
0.0 0.0 -5.822222222222e-04 
-6.992489626615e-04 -7.571363959488e-06 0.0 
-7.571363959488e-06 3.708933191906e-03 0.0 
0.0 0.0 -6.044444444444e-04 
-6.759925803209e-04 -1.073738973976e-05 0.0 
-1.073738973976e-05 4.021950250257e-03 0.0 
0.0 0.0 -5.822222222222e-04 
-7.070575680629e-04 -7.158521352799e-06 0.0 
-7.158521352799e-06 3.711746084396e-03 0.0 
0.0 0.0 -6.044444444444e-04 
-6.791881166240e-04 -9.268059005098e-06 0.0 
-9.268059005098e-06 4.020971144871e-03 0.0 
0.0 0.0 -5.822222222222e-04 
-7.076120858666e-04 1.215276486099e-06 0.0 
1.215276486099e-06 3.712281244356e-03 0.0 
0.0 0.0 -6.044444444444e-04 
-7.999876507941e-04 1.388374683100e-05 0.0 
1.388374683100e-05 3.980152954303e-03 0.0 
0.0 0.0 -5.915759637188e-04 
-6.856124940247e-04 -4.086926393719e-06 0.0 
-4.086926393719e-06 4.027577169899e-03 0.0 
0.0 0.0 -5.822222222222e-04 
-7.178528616705e-04 -1.309284787321e-05 0.0 
-1.309284787321e-05 3.714901656250e-03 0.0 
0.0 0.0 -6.044444444444e-04 
-6.869874754798e-04 1.711534318409e-04 0.0 
1.711534318409e-04 3.792214840593e-03 0.0 
0.0 0.0 -5.693537414966e-04 
-6.864968275557e-04 -6.408579358670e-06 0.0 
-6.408579358670e-06 4.016159600688e-03 0.0 
0.0 0.0 -5.822222222222e-04 
-7.178783193932e-04 5.819993202574e-06 0.0 
5.819993202574e-06 3.708927247396e-03 0.0 
0.0 0.0 -6.044444444444e-04 
-7.079394544223e-04 1.566312145644e-04 0.0 
1.566312145644e-04 3.702391321003e-03 0.0 
0.0 0.0 -6.044444444444e-04 
-6.923166146099e-04 7.612225445440e-06 0.0 
7.612225445440e-06 4.017109289765e-03 0.0 
0.0 0.0 -5.822222222222e-04 
-7.279989213735e-04 2.036390614473e-05 0.0 
2.036390614473e-05 3.710913040149e-03 0.0 
0.0 0.0 -6.044444444444e-04 
-7.005874011261e-04 1.845814163449e-05 0.0 
1.845814163449e-05 4.020938657480e-03 0.0 
0.0 0.0 -5.822222222222e-04 
-7.354917532623e-04 2.057235382585e-05 0.0 
2.057235382585e-05 3.711839010969e-03 0.0 
0.0 0.0 -6.044444444444e-04 
-7.059732588437e-04 2.754521474697e-05 0.0 
2.754521474697e-05 4.015383430286e-03 0.0 
0.0 0.0 -5.822222222222e-04 
-7.002855080047e-04 1.990014593216e-04 0.0 
1.990014593216e-04 3.872918840521e-03 0.0 
0.0 0.0 -6.026870748299e-04 
-7.379521818036e-04 3.377279504907e-05 0.0 
3.377279504907e-05 3.707685656258e-03 0.0 
0.0 0.0 -6.044444444444e-04 
-7.121071295194e-04 4.529492266530e-05 0.0 
4.529492266530e-05 4.010298093341e-03 0.0 
0.0 0.0 -5.822222222222e-04 
-7.201910256190e-04 6.322353710792e-05 0.0 
6.322353710792e-05 4.009272868238e-03 0.0 
0.0 0.0 -5.822222222222e-04 
-7.467651792935e-04 5.478281511635e-05 0.0 
5.478281511635e-05 3.704632746345e-03 0.0 
0.0 0.0 -6.044444444444e-04 
-7.155345414404e-04 9.941872455418e-05 0.0 
9.941872455418e-05 3.968551508246e-03 0.0 
0.0 0.0 -5.822222222222e-04 
-7.657386443158e-04 4.703626451468e-05 0.0 
4.703626451468e-05 3.695451234596e-03 0.0 
0.0 0.0 -6.044444444444e-04 
-7.465034792929e-04 1.491483542401e-04 0.0 
1.491483542401e-04 4.023442400313e-03 0.0 
0.0 0.0 -5.822222222222e-04 
-7.198395015582e-04 1.725743928124e-04 0.0 
1.725743928124e-04 3.686227600280e-03 0.0 
0.0 0.0 -6.044444444444e-04 
-6.731866934627e-04 1.458291688440e-04 0.0 
1.458291688440e-04 3.640798378899e-03 0.0 
0.0 0.0 -5.979543040412e-04 
-6.267004692735e-04 -3.600267132829e-04 0.0 
-3.600267132829e-04 3.813319755553e-03 0.0 
0.0 0.0 -5.933333333333e-04 
-7.431964593305e-04 3.646450588748e-04 0.0 
3.646450588748e-04 4.021679577105e-03 0.0 
0.0 0.0 -5.933333333333e-04 
-6.628422468428e-04 -3.292224140382e-05 0.0 
-3.292224140382e-05 3.861928425764e-03 0.0 
0.0 0.0 -5.711111111111e-04 
-7.088162572225e-04 5.311123185713e-05 0.0 
5.311123185713e-05 3.959617699405e-03 0.0 
0.0 0.0 -6.155555555556e-04 
-6.769114540080e-04 1.825624503540e-04 0.0 
1.825624503540e-04 3.695515009073e-03 0.0 
0.0 0.0 -5.711111111111e-04 
-7.565067891625e-04 -1.155535297541e-04 0.0 
-1.155535297541e-04 4.407218847534e-03 0.0 
0.0 0.0 -6.488888888889e-04 
-7.530504053033e-04 -7.571813069496e-06 0.0 
-7.571813069496e-06 4.174991140514e-03 0.0 
0.0 0.0 -6.711111111111e-04 
-7.399837968145e-04 -1.387977928634e-05 0.0 
-1.387977928634e-05 4.486504988785e-03 0.0 
0.0 0.0 -6.488888888889e-04 
-7.729838338639e-04 -1.329064737435e-05 0.0 
-1.329064737435e-05 4.184890785187e-03 0.0 
0.0 0.0 -6.711111111111e-04 
-7.413687643813e-04 -3.949381470416e-07 0.0 
-3.949381470416e-07 4.494790911899e-03 0.0 
0.0 0.0 -6.488888888889e-04 
-7.742938489980e-04 3.545636067961e-06 0.0 
3.545636067961e-06 4.195489456373e-03 0.0 
0.0 0.0 -6.711111111111e-04 
-7.475947728547e-04 -1.447276125001e-05 0.0 
-1.447276125001e-05 4.508658415556e-03 0.0 
0.0 0.0 -6.488888888889e-04 
-7.647771457920e-04 -2.472289036545e-05 0.0 
-2.472289036545e-05 4.185138013304e-03 0.0 
0.0 0.0 -6.711111111111e-04 
-7.436934071060e-04 3.939866511849e-06 0.0 
3.939866511849e-06 4.492058634297e-03 0.0 
0.0 0.0 -6.488888888889e-04 
-7.721102977711e-04 1.191369759528e-05 0.0 
1.191369759528e-05 4.191715436034e-03 0.0 
0.0 0.0 -6.711111111111e-04 
-7.515020125074e-04 1.948179168996e-06 0.0 
1.948179168996e-06 4.504635429055e-03 0.0 
0.0 0.0 -6.488888888889e-04 
-7.788311265265e-04 -5.657460917598e-06 0.0 
-5.657460917598e-06 4.190705067530e-03 0.0 
0.0 0.0 -6.711111111111e-04 
-8.662964799625e-04 -2.454914467333e-05 0.0 
-2.454914467333e-05 4.459732268515e-03 0.0 
0.0 0.0 -6.580807474504e-04 
-7.520565303110e-04 1.109064528774e-05 0.0 
1.109064528774e-05 4.498175075181e-03 0.0 
0.0 0.0 -6.488888888889e-04 
-8.155020730708e-04 1.528373870012e-04 0.0 
1.528373870012e-04 4.186625771973e-03 0.0 
0.0 0.0 -6.711111111111e-04 
-7.586605293786e-04 2.791301751342e-05 0.0 
2.791301751342e-05 4.190794983268e-03 0.0 
0.0 0.0 -6.711111111111e-04 
-7.622973061150e-04 1.699730231297e-05 0.0 
1.699730231297e-05 4.505906138033e-03 0.0 
0.0 0.0 -6.488888888889e-04 
-7.955711925846e-04 8.033031112494e-08 0.0 
8.033031112494e-08 4.188331241414e-03 0.0 
0.0 0.0 -6.711111111111e-04 
-7.623227638377e-04 3.400576865185e-05 0.0 
3.400576865185e-05 4.489689491926e-03 0.0 
0.0 0.0 -6.488888888889e-04 
-8.006770446683e-04 3.868285750203e-05 0.0 
3.868285750203e-05 4.189917974469e-03 0.0 
0.0 0.0 -6.711111111111e-04 
-7.724433658179e-04 4.171040082635e-05 0.0 
4.171040082635e-05 4.499618609463e-03 0.0 
0.0 0.0 -6.488888888889e-04 
-7.971982277132e-04 4.334547048389e-05 0.0 
4.334547048389e-05 4.190772542348e-03 0.0 
0.0 0.0 -6.711111111111e-04 
-7.512535823419e-04 1.572109300169e-04 0.0 
1.572109300169e-04 4.272969555894e-03 0.0 
0.0 0.0 -6.358585252281e-04 
-7.799361977067e-04 4.942380984451e-05 0.0 
4.942380984451e-05 4.500436321571e-03 0.0 
0.0 0.0 -6.488888888889e-04 
-8.019717863413e-04 4.151088876834e-05 0.0 
4.151088876834e-05 4.184126944351e-03 0.0 
0.0 0.0 -6.711111111111e-04 
-7.823966262481e-04 7.184392993936e-05 0.0 
7.184392993936e-05 4.484862014071e-03 0.0 
0.0 0.0 -6.488888888889e-04 
-8.006840076862e-04 7.791811278218e-05 0.0 
7.791811278218e-05 4.176001510023e-03 0.0 
0.0 0.0 -6.711111111111e-04 
-8.039640851074e-04 1.263508000003e-04 0.0 
1.263508000003e-04 4.174705869658e-03 0.0 
0.0 0.0 -6.711111111111e-04 
-7.912096237380e-04 1.071509718730e-04 0.0 
1.071509718730e-04 4.477799006040e-03 0.0 
0.0 0.0 -6.488888888889e-04 
-8.101830887602e-04 1.288493200629e-04 0.0 
1.288493200629e-04 4.489610393156e-03 0.0 
0.0 0.0 -6.488888888889e-04 
-7.617757652904e-04 1.684528749010e-04 0.0 
1.684528749010e-04 4.355354044839e-03 0.0 
0.0 0.0 -6.691918585615e-04 
-7.171747419539e-04 1.190543822742e-04 0.0 
1.190543822742e-04 4.056731334660e-03 0.0 
0.0 0.0 -6.469696363393e-04 
-8.025731129306e-04 -3.241456630719e-04 0.0 
-3.241456630719e-04 4.358910586267e-03 0.0 
0.0 0.0 -6.600000000000e-04 
-7.344440083408e-04 3.911518351984e-04 0.0 
3.911518351984e-04 4.236731495882e-03 0.0 
0.0 0.0 -6.600000000000e-04 
-8.045282767906e-04 1.783825891024e-05 0.0 
1.783825891024e-05 4.360632635982e-03 0.0 
0.0 0.0 -6.822222222222e-04 
-7.310384794447e-04 6.338117589491e-05 0.0 
6.338117589491e-05 4.247438367621e-03 0.0 
0.0 0.0 -6.377777777778e-04 
-7.412727877556e-04 1.381235162240e-04 0.0 
1.381235162240e-04 4.183483937710e-03 0.0 
0.0 0.0 -6.377777777778e-04 

SCALARS element_materi_plasti_kappa_shear float
LOOKUP_TABLE default
2.048251484052e-03
1.753493670412e-03
5.503175940454e-03
5.633931869583e-03
3.565227349428e-03
4.312193749308e-04
3.536826958687e-03
1.942063469917e-03
3.582504689508e-03
5.588174946625e-03
3.844209359202e-03
1.631469581520e-03
5.512057153720e-03
3.809200862045e-03
5.604521952288e-03
5.734301458091e-03
3.547028291065e-03
0.0
1.240065727301e-03
1.171297693899e-03
5.622446392520e-03
2.066758337528e-03
2.250687853245e-03
4.978061567755e-03
4.048291547957e-03
4.106723662793e-03
3.275000549148e-03
5.494131578830e-03
4.059702375831e-03
5.136982028010e-03
1.134770329222e-03
3.832632936293e-04
5.695120532744e-03
4.786861567557e-03
5.372391993924e-03
5.735141668293e-03
5.753517229623e-03
5.201200685639e-03
3.236338684528e-03
3.281036968799e-03
2.549446708275e-03
5.321786045187e-03
1.684174276636e-03
3.149604634892e-03
5.511212370387e-03
1.565690788834e-03
3.220151479938e-04
5.403179619290e-03
4.290285994607e-06
3.669652725762e-03
2.409350294786e-03
1.545192749097e-03
1.201581906209e-03
2.359715905779e-03
5.581390730101e-03
2.049040073899e-03
1.507776831990e-03
4.806180650684e-03
9.040347839122e-04
5.734539432203e-03
0.0
5.036447355686e-03
2.389363153128e-03
1.200719454992e-03
5.502622384469e-03
2.208078500699e-03
0.0
5.645939813078e-03
1.388688876148e-03
5.450080675048e-03
4.240450452081e-03
5.844447616816e-03
5.127619557211e-03
3.940968838014e-04
2.067872878458e-03
5.628694369718e-03
5.723406412390e-03
1.349407449673e-03
8.084468878613e-04
1.429030436915e-03
1.215963319167e-03
3.393097464491e-03
2.129508046084e-03
1.864830702236e-03
3.733526205207e-03
3.714125906962e-03
4.361075697200e-03
4.690746124938e-03
4.783172209268e-03
3.514212606547e-03
2.589608648574e-04
3.431550400288e-03
4.721859888672e-03
4.746077057757e-03
5.997543046696e-03
5.411150761547e-03
3.393913313148e-03
5.491004293201e-03
3.985594967259e-03
2.258571385844e-03
3.410992711845e-03
5.611034212900e-03
4.179507938013e-03
5.032886742806e-03
2.003062331599e-03
8.956760759699e-04
5.221382607798e-03
5.045193140480e-03
2.261908350145e-04
5.486842463624e-03
4.573653062054e-03
3.479980613032e-04
2.502076270832e-03
3.167763418157e-03
2.487000496226e-03
2.126059688753e-03
2.273861626040e-03
5.451016480833e-03
3.919789090778e-03
2.281181173819e-03
1.213076248653e-03
3.513689619667e-03
4.941959880695e-03
2.106608397091e-03
9.726897685995e-04
2.859921274722e-03
2.565005698292e-03
2.680460766149e-03
5.737782286007e-03
9.785758943601e-04
4.027728111069e-03
5.636355074510e-03
2.835365156538e-03
2.709046400113e-03
5.353249069116e-03
5.532349028915e-03
4.348743351020e-03
2.978900291729e-03
5.411429688504e-03
2.744221608962e-03
5.616125922486e-03
5.613692443859e-03
3.766204035722e-03
4.391065799997e-03
2.718404295077e-03
2.533253388883e-03
3.087137023846e-03
2.200470782986e-03
3.492820352654e-03
2.363376362537e-03
2.621382727248e-04
3.747049311015e-03
8.605114628174e-04
3.020514546332e-03
5.290806449770e-03
2.186313469297e-03
4.518027699077e-03
1.606142966517e-03
4.209701847449e-03
3.408465456370e-03
2.321856290079e-03
4.941287181334e-03
1.029170670083e-03
5.207270841351e-03
3.386399557435e-03
5.629077659096e-03
3.402534046100e-03
2.143777464895e-03
2.980585492464e-03
3.978529564445e-03
1.797981043136e-03
2.131947395522e-03
4.565545625096e-03
3.526561441315e-03
2.292273163024e-03
2.831954602171e-03
4.902639283245e-03
2.846109516762e-03
5.344131269157e-03
5.581762834167e-03
2.045482988632e-03
2.739998364567e-03
4.670836610536e-03
2.636378907130e-03
1.901753547339e-03
3.276383508295e-03
2.394214224877e-03
5.640432630144e-03
4.649191975422e-03
5.084010659975e-03
1.450852845402e-03
1.891185196908e-03
4.756649167095e-03
0.0
2.645910748192e-03
4.353987082835e-03
6.693198157630e-04
5.577145383260e-03
4.311674069402e-03
2.424063329831e-03
4.308254875087e-03
3.768016172911e-03
3.975429040763e-03
5.123403257528e-03
1.968551576487e-03
3.168679698929e-03
3.489417411141e-03
4.497775965736e-03
3.554143506731e-03
3.272990497602e-03
3.636148199777e-03
4.777873359821e-03
0.0
2.054332000673e-03
2.292338041600e-03
3.059823040950e-03
4.848669964181e-03
7.411939793981e-04
4.203239612195e-03
3.403528574950e-03
2.120618832016e-03
4.069098148087e-03
4.246264766717e-04
4.599464078276e-03
3.476148306084e-04
5.410341703711e-04
1.592193211171e-03
1.719248331945e-03
4.782293510667e-03
1.815734887217e-03
1.844404593867e-03
1.618505664870e-03
1.146822852731e-03
4.464359441945e-03
3.377702223347e-03
5.506088258921e-03
0.0
2.009805297429e-03
2.302243100894e-03
2.481153461484e-03
4.143768537590e-03
5.606441244158e-03
4.559795208237e-03
1.455328493326e-03
4.488396010045e-03
4.213382192652e-03
3.236971907541e-03
4.423237357451e-03
5.173514376653e-03
2.134179776736e-03
1.811135889082e-03
3.825403090103e-03
5.999008670889e-03
3.128792099484e-03
2.778892560238e-03
3.812433277429e-03
1.356034459876e-03
3.547869395678e-03
1.821956586395e-03
1.071898620409e-03
6.878759182499e-04
4.770342255613e-03
3.657761913000e-03
2.301185800403e-03
4.951131887675e-03
4.665409177491e-03
3.411799966359e-03
5.452188912108e-03
2.908585602061e-03
3.583300261965e-03
2.605219249823e-03
3.100950466365e-03
1.347698524684e-03
3.414342947476e-03
2.155049212513e-03
1.385737165103e-03
4.542488046730e-03
0.0
3.716563633638e-03
1.636449720064e-03
1.774524551335e-03
8.033729531877e-04
3.926631031118e-03
7.929613934373e-04
2.439400741018e-03
3.230296274809e-03
3.653257839111e-03
3.792551444783e-03
3.394897168044e-04
9.779464977480e-04
1.639638944485e-03
2.170597973029e-03
4.441924025952e-03
2.403845489855e-03
2.012179680430e-03
2.055407645936e-03
5.690441180567e-04
2.724975474439e-03
1.566269675286e-03
5.958720739140e-03
5.939193914372e-03
3.244445123059e-03
1.612814842720e-03
1.675996184199e-03
3.688319290741e-03
1.425607672630e-03
1.036406456605e-03
3.253099720127e-03
5.778400585500e-03
1.895871873376e-03
3.666527252036e-03
1.635469508028e-03
5.660443835014e-03
1.865154342382e-03
3.342266076335e-03
6.537557986608e-04
3.435463054255e-03
2.276354288028e-03
1.404210939028e-03
3.486331641573e-03
5.890375541845e-03
1.783256592408e-03
3.221814678744e-03
1.690872941280e-03
4.262668196764e-03
3.989554513863e-03
1.870987437432e-03
4.157903845114e-03
5.833143474624e-03
4.319705339619e-03
5.914245466119e-03
4.107732014025e-03
4.587246752330e-03
1.718940221779e-03
3.216971996294e-03
3.590070658515e-03
3.756282744682e-03
2.945710028405e-03
5.788099092437e-03
3.944002213719e-03
3.448909530710e-03
1.863265499764e-03
1.455277505311e-03
3.108638757878e-03
2.053960887931e-03
3.540174196265e-03
1.877423184664e-03
1.615583361797e-03
4.717172209803e-03
1.879339039984e-03
3.325468032698e-03
3.338062058546e-03
3.118061036031e-03
5.704944762881e-03
2.801276760200e-03
7.929235320681e-04
2.475643465383e-03
1.888885188254e-03
2.000012791094e-03
4.954048188006e-03
3.495259464146e-03
2.461309541375e-03
3.062435080318e-03
5.651875251926e-03
5.274977967438e-03
4.935750800823e-03
4.617112825186e-03
3.065607714073e-03
2.469090313365e-03
1.133689513580e-03
1.302424423879e-03
3.315397022365e-03
3.332601828915e-03
2.997347446124e-03
5.010744987465e-03
1.001431061527e-03
2.758819764694e-03
3.419306053386e-03
2.519448693487e-03
5.922741708314e-03
5.955236189705e-03
5.576307705796e-03
3.343577244616e-03
4.936203495640e-03
1.952709186338e-03
1.572206337787e-03
8.348386301079e-04
2.556685105345e-03
3.397790353165e-03
4.097341444589e-03
5.360765443340e-03
4.855340331116e-03
3.816589750238e-03
3.860243568889e-03
1.042497557085e-03
9.358115372942e-04
2.519797185523e-03
3.004979550758e-03
2.619929927174e-03
9.216036177596e-04
3.654326841485e-03
1.535889856870e-03
1.965274985910e-03
5.542217875605e-03
3.765591558978e-03
3.443419406157e-03
9.148022967595e-04
3.000502477848e-03
2.382905503139e-03
3.927650911988e-03
5.879566310260e-03
3.223720713770e-03
3.674901719203e-03
2.887355925381e-03
4.891146742092e-03
3.418978839809e-03
5.856068981647e-03
5.774980459743e-03
5.817447372982e-03
5.770330115021e-03
4.031402203216e-03
4.901935106937e-03
5.053219238746e-03
2.608302338338e-03
2.534090737438e-03
2.864377718296e-03
5.021604322951e-03
5.804877108405e-03
5.054229152364e-03
3.432032663523e-03
5.068372728808e-03
4.092526629085e-03
2.882253780089e-03
2.587573265554e-03
1.635529725769e-03
5.632439227330e-03
2.459501711046e-03
5.142282866551e-03
2.763464966764e-03
2.028101785969e-03
5.246511047736e-03
2.055425638514e-03
5.758655944435e-03
5.581996474530e-03
3.601464432629e-03
2.874317802878e-04
5.722474487266e-03
5.230794359339e-03
1.560316552400e-03
3.558601806016e-03
5.699626342238e-03
0.0
2.660857434825e-03
3.779907730678e-03
3.423227498078e-03
3.515796245568e-03
1.920364726314e-03
5.673636790495e-03
1.884624729070e-03
1.324523675438e-04
5.578498981548e-03
5.002872014388e-04
2.903489307071e-03
7.102088304152e-04
3.105385424469e-03
5.637939698663e-03
5.643493109987e-03
3.759896198982e-03
6.466604743843e-04
2.581016059912e-06
1.306561031608e-03
4.781936084338e-03
3.544667014514e-03
3.591768567503e-03
5.600982036969e-03
3.550458207037e-03
5.978204257671e-03
4.194064998041e-03
3.966369650588e-03
2.069110227023e-03
3.555873876722e-03
1.287977702152e-03
5.563443599679e-03
5.770828452205e-03
5.803925315002e-03
3.535689664887e-03
2.718540240995e-03
2.810036151372e-03
3.607200195359e-03
5.538358032675e-03
1.640374573165e-03
1.295740147429e-03
1.612091026105e-03
4.134625190794e-03
5.683102620147e-03
9.751937677048e-04
5.520122581297e-03
1.677390207142e-03
5.751046272795e-03
5.068488904679e-03
5.986160827208e-04
2.695519082935e-03
5.116907936890e-03
5.706785168037e-03
4.029434435152e-03
4.284615340903e-03
1.266337359964e-03
4.952953356985e-03
1.912176692629e-03
1.970550124934e-03
6.041211163242e-04
5.656733513692e-03
1.182133657821e-03
4.542952953281e-03
3.833323984522e-03
2.139158319596e-03
1.714726693588e-03
3.853402172132e-03
5.579172664692e-03
2.774393020232e-03
3.942313972036e-03
3.310099650091e-03
3.368941039505e-03
1.606723124076e-03
3.637032700867e-03
3.197994162511e-03
4.208731222359e-03
3.883013032915e-03
3.120071939876e-03
2.732828783826e-03
1.823514764933e-03
2.627670573605e-03
4.181475254094e-03
3.004073412555e-03
5.656674172997e-03
5.232907453581e-03
1.823811427346e-03
5.507514049442e-03
5.342333532244e-03
2.747952667688e-03
4.382088383837e-04
5.694608369003e-03
5.185125812822e-03
1.765229900577e-03
5.538258443366e-03
3.827720443377e-03
2.679180912128e-03
3.704599732640e-03
2.883358424601e-03
3.255701293151e-03
3.509234741566e-03
4.329946724555e-03
2.998532943868e-03
4.098742247155e-03
4.047052255275e-03
2.859932710936e-03
3.672333583242e-03
2.211642543694e-03
3.881327088903e-03
2.317754686702e-04
2.007422663305e-03
2.062503183499e-03
3.040900024033e-03
2.964066277893e-03
3.726763647670e-03
4.021852142269e-03
2.125448120930e-03
5.567560434823e-03
3.763638072718e-03
3.188675817690e-03
3.577463415310e-03
3.136039882304e-03
0.0
3.881554513065e-03
2.640906468370e-03
1.601175916693e-04
3.049084665278e-03
4.039018151325e-03
5.107511769800e-03
3.179382722343e-03
3.272183804054e-03
3.333812579699e-03
3.138774507408e-03
5.602858950170e-03
3.388266387592e-03
4.889835681516e-04
1.262830355438e-03
3.403732711760e-04
2.039797041705e-03
4.886593675055e-03
5.135074580473e-03
4.569733804699e-03
2.205347307067e-03
3.963428270317e-03
4.644691033612e-03
4.480010223363e-04
2.667099209261e-03
2.160248377513e-03
5.721042981994e-03
5.580105102775e-03
2.939481999310e-03
3.271315706566e-03
3.310083848978e-03
4.812160421875e-03
1.230172725071e-03
4.495251994924e-03
6.428633528680e-04
2.999374668151e-03
3.265631012540e-03
2.192679874259e-04
2.777613716051e-03
5.213183738870e-03
4.661553375830e-04
3.125223871850e-03
3.264611202798e-03
3.668691180679e-03
2.191299816666e-03
1.929490898902e-03
1.801992614561e-03
5.021357309615e-03
5.413378247578e-03
4.938730896674e-03
1.962629389648e-03
7.396549693112e-04
3.052559415623e-03
3.136955965337e-03
3.283077438816e-03
1.598687307509e-04
2.193472717883e-04
5.176799582362e-04
1.646399827615e-03
4.476010659487e-04
3.103497725519e-03
0.0
1.933359932912e-03
4.174873570305e-03
3.277162825819e-03
5.055738530347e-03
3.910516641519e-03
3.910699350519e-03
2.335203039295e-03
6.321407009922e-04
5.850638891353e-03
6.009929428425e-03
3.804106063636e-03
3.142498704503e-03
2.378074668671e-03
6.000434500276e-03
1.932646254916e-03
3.261134435714e-03
3.129035808385e-03
2.954670140417e-03
5.838142907149e-03
5.995969196951e-03
4.354125543212e-04
1.813212541407e-04
9.186762200650e-04
3.162862848184e-03
5.377931686408e-03
0.0
4.886021985717e-03
0.0
3.610910406558e-03
3.669816600871e-04
9.031669178812e-05
3.461382625694e-03
5.195804270535e-03
4.290192669085e-03
3.148248508174e-03
2.197475915269e-04
4.109795966881e-03
5.851848957564e-03
6.003781657386e-03
3.276367122740e-03
3.775548124396e-03
5.863438389457e-03
4.268339267121e-03
6.020741917649e-04
4.453789533022e-04
2.347376138707e-04
2.636386499780e-03
5.872831094669e-03
5.638106297545e-03
2.150234363879e-04
3.087998710897e-03
5.740465009782e-03
5.879140074132e-03
5.731117611362e-03
4.595061384764e-03
5.043133831470e-03
5.707378045359e-03
5.713124045283e-03
4.886059613206e-03
4.831364360602e-04
3.253485872106e-03
3.293767224568e-03
1.826916767147e-04
5.690406926254e-03
5.768685902520e-03
5.617484584069e-03
4.524110312699e-04
4.596449148217e-04
5.588283914655e-03
5.603110956582e-03
4.452788727497e-03
3.251601896083e-03
4.737759423841e-03
3.834702661819e-03
3.246459497800e-03
5.228246461019e-04
4.912700086981e-04
4.440043287774e-04
5.321378525866e-04
3.250169139528e-03
2.937145446359e-03
0.0
4.118703550062e-03
0.0
5.832195033359e-03
5.846499430745e-03
5.850716816551e-03
1.037380994288e-03
2.016748291347e-03
5.852662976723e-03
4.973191529565e-03
5.880964851940e-03
5.257570989653e-03
5.538666694917e-03
2.787880833422e-03
6.016271676808e-03
6.012463975421e-03
5.083244388473e-03
5.379690173722e-03
4.387421699504e-03
0.0
2.857162677749e-03
4.252814149356e-04
5.079913712272e-03
2.910266083999e-03
4.760106554014e-03
1.643649883448e-03
5.383120855226e-04
5.098955867833e-03
3.125495581336e-03
2.489884669676e-03
4.818967528395e-03
5.278656552725e-03
2.495305030192e-03
4.255398696545e-03
3.844899893988e-03
4.331079183945e-03
4.483284984887e-03
1.722961733981e-03
2.890176896868e-03
2.847631786202e-03
4.036906121347e-03
4.963877593991e-03
4.634026856991e-03
1.657361628813e-03
5.268660436221e-03
4.977116357189e-03
3.619668627054e-03
4.170717328187e-03
4.186883659402e-03
5.342654512254e-03
5.152017188017e-03
3.775019514809e-03
5.233037882857e-03
4.914729909785e-03
4.640974992131e-03
5.247897151359e-03
5.303240859678e-03
4.541244193091e-03
4.128098936937e-03
1.538774070067e-03
1.637170348017e-03
8.927698521496e-04
6.525183474627e-04
5.158931490191e-03
5.044076979222e-03
5.868956833529e-04
5.121589647054e-03
3.733179451095e-03
4.678226682694e-03
4.762287906690e-03
2.074136809097e-03
4.809627862755e-03
3.622602601676e-03
3.895447150765e-03
5.345962366384e-03
1.472811966339e-03
5.235843009349e-03
4.707105507548e-03
1.674998648871e-03
1.997272543898e-03
3.477442011437e-03
4.193455430159e-03
2.343630985594e-03
4.867641149368e-03
4.387482060233e-03
3.338211884839e-03
4.524321097962e-03
4.677832988923e-03
4.679006337696e-03
1.339663578638e-03
3.198638979897e-03
4.633717260275e-03
4.840387351562e-03
2.897016443790e-03
3.936845676204e-03
5.082736818756e-03
4.511744960806e-03
3.674133562234e-05
7.677090780190e-04
5.119753373391e-04
4.910516809545e-03
4.354991661180e-03
3.826914815962e-03
3.891439679493e-03
4.711856603342e-03
3.483739004670e-03
4.620031677450e-03
1.591598461033e-03
5.218249190632e-03
3.412412426767e-03
1.736686848489e-03
3.262202328444e-03
2.478917580480e-03
2.035103586398e-03
3.755154455874e-03
1.564516804578e-04
1.127981756129e-04
4.252374733298e-03
1.464746990371e-03
4.246030270520e-03
4.094375942875e-03
2.616673579752e-03
1.812766898726e-03
5.102254688752e-03
3.465488540583e-04
2.625027282395e-03
4.837002714089e-03
1.192572476611e-03
4.082383260840e-03
3.767466409166e-03
1.326156531730e-03
4.910591653427e-03
4.645125771512e-03
1.410538395916e-03
5.226535373693e-03
5.199234746316e-03
1.660825990561e-03
2.070362284012e-03
1.741360747490e-03
4.534233564243e-03
3.626195608604e-03
5.169455195403e-03
5.078103462266e-03
4.392922361779e-03
4.325015664707e-03
1.344427675979e-03
4.473065100284e-03
4.621187335039e-03
3.681381110048e-03
4.381240135388e-03
4.808400950473e-03
2.590644772933e-03
4.947620929573e-03
3.085734269789e-03
3.550246213813e-03
2.335827574008e-03
2.490782004144e-03
4.488879741826e-03
3.165999505287e-03
1.852051741299e-03
9.795830009428e-04
4.513242120104e-03
1.766306002376e-03
5.166203144739e-03
4.649805208552e-03
4.614388070238e-03
5.225667178668e-03
2.979037457551e-03
1.585841628710e-03
1.011992460365e-03
4.379665078225e-03
4.223445145250e-03
6.765581779648e-04
2.432707948999e-03
1.398956561073e-03
4.216513153533e-03
2.555838114567e-03
4.011146820245e-03
2.390150431536e-03
5.006027676208e-03
2.059652164516e-03
4.350001019912e-03
1.794811250637e-03
4.222069039725e-03
3.406036415107e-03
4.462021920913e-03
1.339917336666e-03
1.350299010952e-03
3.939048831294e-03
3.691324572910e-03
2.830557802011e-03
4.239747352825e-03
1.991260803131e-03
4.297758287115e-03
1.272590086592e-03
4.947061823839e-03
3.839114394118e-03
4.100469873386e-03
5.406352818554e-03
3.435279919526e-03
1.276251192001e-03
3.890812531652e-03
5.018055530162e-03
2.209550982896e-03
4.531906710769e-03
4.676467859059e-03
1.712191406574e-03
4.059355262125e-03
3.877866350654e-03
1.909658390552e-03
2.315039142321e-03
3.261954618660e-03
4.303145841247e-03
2.635421671348e-03
3.059028444222e-03
4.459399445595e-03
4.056901073063e-03
3.999117941319e-03
3.350783493908e-03
4.741842824469e-03
3.716486713275e-03
3.922920566098e-03
5.252343855285e-03
4.304735037625e-03
4.138095280470e-03
4.783696522489e-03
2.607621039471e-03
2.469838949813e-03
1.432823964346e-03
4.007204605408e-03
2.590823974833e-03
4.347452842024e-03
4.183394403681e-03
2.669547662572e-03
2.085784252471e-03
1.474019061621e-03
2.212107321881e-03
2.350809507915e-03
1.463075537230e-03
4.569504511566e-03
2.669001313969e-03
4.972812165115e-03
2.750604982809e-03
3.790160523716e-03
3.207941504412e-03
2.889645016640e-03
1.541106990513e-03
4.841361927259e-03
5.091339779464e-03
4.032052527629e-03
2.472525954974e-03
3.495149155929e-03
4.324118500003e-03
2.732643322525e-03
2.578422691737e-03
2.150698556139e-03
2.106845042594e-03
2.726649439388e-03
1.894721435353e-03
1.784390543315e-03
3.334917325845e-03
3.967235808941e-03
4.797201624805e-03
4.779022984785e-04
2.400918837851e-03
2.556449603619e-03
2.577694805080e-03
4.159825931864e-03
2.931072335017e-03
2.192293877224e-03
2.827325159198e-03
4.815904702500e-03
2.276675714296e-03
8.000720813987e-04
1.154840506689e-03
1.907795704096e-03
2.221538328191e-03
2.622719745119e-03
2.913483858149e-03
1.764083930753e-03
1.225103944880e-03
3.978408581491e-03
1.973233867528e-03
4.352924711069e-03
4.600918209764e-03
3.992519858041e-03
5.014455028265e-03
4.977573847805e-03
2.548565445421e-03
4.312209701199e-03
1.977881610171e-03
2.972886214248e-03
2.522487306746e-03
1.343329153242e-03
1.686644144900e-03
2.487335316614e-03
2.744769011227e-03
2.804656212940e-03
2.029273826370e-03
3.023258905964e-03
2.603498899914e-03
2.484258941744e-03
2.359041018273e-03
3.843548607210e-03
4.482822863784e-03
2.260889845850e-03
4.670023540639e-03
2.097337949930e-03
5.002347225511e-03
2.827679967364e-03
5.203491602561e-03
3.947077556837e-03
1.774963125665e-03
4.099246498151e-03
5.100371074435e-03
2.915547663855e-03
2.161634842982e-03
4.202460859535e-03
3.063723291001e-03
1.589122566935e-03
5.594818322494e-03
1.323577671794e-03
4.905374215111e-03
5.240056690777e-03
4.004250475148e-03
4.022036132739e-03
4.908739948371e-03
2.656489500895e-03
3.014023661640e-03
5.295279977407e-03
4.266560699203e-03
4.614700973159e-03
3.798037729663e-03
1.755388368310e-03
4.742604083367e-03
5.518069405150e-03
5.004957839638e-03
2.836493463262e-03
4.042556476747e-03
3.862526569830e-03
2.990307102709e-03
4.091149418794e-03
4.218450148723e-03
1.096098833511e-03
1.326857373094e-03
2.403878583947e-03
2.433427464003e-03
2.925956778214e-03
5.469614393342e-03
5.117047102826e-03
5.259865256129e-03
2.804866215072e-03
4.812380906171e-03
4.181034339560e-03
5.346185944049e-03
4.575117160927e-03
3.073764877658e-03
2.227900412936e-03
4.723026116701e-03
5.199457669429e-03
4.754736712479e-03
4.593382364392e-03
4.706207203460e-03
4.760938801400e-03
4.529156841862e-03
3.673004527565e-03
2.793183285108e-03
4.176641122849e-03
4.482872570103e-03
1.720752477746e-03
2.523073950019e-03
2.936964334964e-03
3.355527503238e-03
6.764221038374e-04
2.312131514981e-03
3.694823953479e-03
3.162738673778e-03
3.106094428709e-03
4.275586722866e-03
3.420444478414e-03
8.056313501550e-04
3.608028323112e-03
4.113825723424e-03
5.289575565494e-03
2.786040332148e-03
3.385556211389e-03
4.320502265356e-03
1.220460717409e-03
3.955179298540e-03
3.165570628649e-03
3.317308554295e-03
4.304146306300e-03
1.881742204703e-03
4.432932293431e-03
4.823215265074e-03
3.806542070162e-03
4.778108728743e-03
4.481570645652e-03
4.886746565618e-03
1.498086320626e-03
4.448193879400e-03
4.826216477314e-03
4.887560636574e-03
3.468158111994e-03
2.473653699252e-03
3.471604947544e-03
3.515654411098e-04
5.048129172683e-03
1.854985291829e-03
1.640845901064e-03
4.384273219759e-03
5.379705512614e-03
1.962931709496e-03
3.460402464098e-03
4.556944250926e-03
3.383719843055e-03
1.271639043889e-03
2.155596217495e-03
1.530379692595e-03
1.562946298421e-03
1.725992673060e-03
3.128123404018e-03
5.978757202265e-03
1.878932715142e-03
4.874265144995e-03
2.021312508689e-03
4.410645559788e-03
5.446402050903e-04
5.032053835528e-03
1.857540691758e-03
2.167450437020e-03
4.007316872521e-03
2.865792508923e-03
4.633094935503e-03
2.352487737097e-03
4.663962013380e-03
4.869204411424e-03
4.429689118342e-03
5.301599282418e-03
4.867555126114e-03
4.994292368552e-03
1.585731642834e-03
4.731482311295e-03
4.686031286375e-03
2.832067385881e-03
2.158927091379e-03
5.079003029780e-03
9.596911832810e-04
2.094098399874e-03
4.422688948064e-03
1.248071604353e-03
3.111224166074e-03
4.143397073039e-03
5.269510986050e-03
5.404504160547e-03
4.032131518506e-03
5.035214563043e-03
2.288963266599e-03
4.497236254835e-03
2.449891336582e-03
5.141368132138e-03
2.751749660152e-03
2.878729614698e-03
2.670941398415e-03
3.064327322831e-03
3.458691017845e-03
2.658280149013e-03
2.653753714281e-03
9.811593336372e-04
2.441082358799e-03
5.179437752949e-03
5.268578940823e-03
4.434728242993e-03
4.747389467129e-03
2.702179599475e-03
4.975773677779e-03
2.582283479392e-03
4.888861475010e-03
4.848446586375e-03
4.829227704648e-03
3.615324373437e-03
2.341624150185e-03
4.784583869030e-03
3.957491419921e-03
1.700601644229e-03
7.020950745825e-04
2.481218771102e-03
3.497363371298e-03
5.046415826891e-03
4.704605430921e-03
2.322695645322e-03
3.926363227239e-03
4.300034730448e-03
5.071297943610e-03
4.988482903574e-03
4.232489050894e-03
4.476485377380e-03
2.821806331728e-03
4.336206174646e-03
3.171626869689e-03
5.322298740710e-03
5.194634648291e-03
3.273686732189e-03
5.984151931342e-04
4.585743008913e-03
3.386888275759e-03
2.214504551746e-03
3.505745048799e-03
4.392421827443e-03
8.649412715447e-04
2.929672516780e-03
4.200855765301e-03
5.106738436651e-03
4.301405107970e-03
4.492473167653e-03
4.094600791655e-03
3.873742424529e-03
4.049253002460e-03
4.546913092459e-03
4.646225374320e-03
4.523702894857e-03
5.390087395959e-03
3.985020216099e-03
1.618655921059e-03
4.788488793259e-03
5.359924628782e-03
3.005660619524e-03
3.223226449347e-03
1.971525089256e-03
4.648699280585e-03
2.766011387022e-03
3.573201295524e-03
2.703531881720e-03
4.214659544868e-03
5.069771484117e-03
2.121431133427e-03
4.058193802695e-04
5.341003982022e-03
2.920796651996e-03
2.806031036896e-03
4.893352200413e-03
4.541058644014e-03
4.477853504311e-03
2.415871683082e-03
1.091173224409e-04
5.297107160487e-03
3.566992170965e-03
3.964772993216e-03
4.908749566295e-03
0.0
4.396335016970e-03
1.721264210827e-03
4.247426129010e-03
3.657351708374e-03
2.094475387503e-03
4.954039962137e-03
3.497476297263e-03
1.752352387144e-03
3.730384878291e-03
3.763523260525e-04
4.296335070821e-03
4.232332728487e-03
5.300157964833e-03
4.591233936654e-03
1.028298279476e-03
4.511210016349e-03
5.453521427974e-03
5.267588892161e-03
4.434702429965e-03
2.462650568201e-03
4.009248660887e-03
5.046804183108e-03
3.535212461732e-03
4.396897747975e-03
4.393389450935e-03
4.800902351973e-03
4.606296382436e-03
3.122680214006e-03
3.120274423476e-03
4.382256899136e-03
4.111044512030e-03
3.813633009546e-03
4.221320453715e-03
3.279774802709e-03
4.769766446077e-03
2.542727818688e-03
5.983048558159e-03
3.591210545370e-03
3.168624506568e-03
3.557292247720e-03
9.531416278352e-04
3.230009085735e-03
3.834311612934e-03
3.683361306900e-03
4.361379102542e-03
4.324884584529e-03
4.497716242812e-03
9.296305416927e-04
3.000738260246e-03
2.877206011432e-03
4.129391706328e-03
4.309346871824e-03
4.660717579237e-03
1.390083491195e-03
1.337430359801e-03
3.372007376568e-03
3.118387867984e-03
2.908488767762e-03
3.071482520293e-03
4.375276169838e-03
1.579296571718e-03
3.441254145347e-03
4.169540997438e-03
5.233780527266e-04
5.376588438414e-03
5.149299469470e-03
3.407577951504e-03
4.596633708749e-03
5.291684185247e-04
4.017860612446e-03
3.529401166009e-03
5.097626183355e-04
5.132298664917e-03
7.847782572497e-04
4.127046447011e-03
3.654659147826e-03
2.736631618381e-03
3.532903553380e-03
5.264031271081e-03
3.850209962935e-03
3.431861875086e-03
3.323620881928e-03
5.457679815637e-04
4.250590229059e-04
4.681238603658e-03
4.043631383605e-03
4.795280597812e-03
2.001212315519e-03
4.830518942522e-03
4.896214853729e-03
3.151597474926e-03
4.683508434643e-03
4.666996016599e-03
3.909137558089e-03
3.276352252530e-03
3.497938959203e-03
5.375951367089e-03
3.220959364287e-03
3.760026043850e-03
3.137860209432e-03
4.172566943858e-03
2.940253828481e-03
1.143043258969e-03
3.094440534048e-03
1.421741084883e-03
4.229813709731e-03
1.395709131982e-03
4.036588971796e-03
4.570721815773e-03
4.340933322801e-03
2.781057843546e-03
4.194893651729e-03
4.753168581798e-03
4.818117472809e-03
1.337755850323e-03
4.137746118188e-03
5.209940225679e-03
2.346590375691e-03
3.683805328027e-03
7.449910221543e-04
4.902778118811e-03
1.132231217255e-03
3.562582783365e-03
3.984078078079e-03
4.208916939956e-03
4.023939684233e-03
3.635866043279e-03
2.594201963328e-03
2.755506096816e-03
4.964224152630e-03
3.752359726194e-03
3.049378824758e-03
3.951824469440e-03
2.751998479851e-03
1.270610342764e-03
2.569385874887e-03
3.772607831583e-03
3.271605333460e-03
4.369076492911e-03
2.705575969413e-03
5.066065955323e-03
4.914430261524e-03
2.994647378897e-03
5.394625854804e-03
1.628019428153e-03
4.948546199405e-03
3.599675338089e-03
3.985333370223e-03
4.676994841526e-03
2.599416272208e-03
3.952410327413e-03
2.849041735521e-03
3.845590045576e-03
1.946537266926e-03
4.082691990806e-03
2.599671966463e-03
3.723013565829e-03
3.865662068831e-03
5.887470109934e-04
3.453775351858e-03
1.200495782290e-03
9.684342886303e-04
3.597379235346e-03
4.690298881192e-03
4.138119897075e-03
2.292437587727e-03
5.849140828973e-03
1.853697180041e-04
2.448985812848e-03
3.130150269506e-03
3.550843563428e-03
2.957877931277e-03
1.876075245636e-03
3.442132234492e-03
3.806568376354e-03
3.777536702449e-03
4.965844843458e-03
1.161492389179e-03
3.317749060185e-03
3.622478808600e-03
2.112089838123e-03
3.317999481308e-03
4.153535609678e-03
4.505816054949e-03
6.237202834362e-04
0.0
1.573012222717e-03
3.691965033318e-03
1.969230988537e-03
1.898292932230e-03
1.294352397267e-03
3.753016074334e-03
4.366198405172e-03
3.768697917664e-03
1.871438903480e-03
4.121048902823e-03
3.672677354322e-03
4.305538666813e-03
3.830322098392e-03
3.828543141580e-03
1.984443132618e-03
2.202423137924e-03
3.907189118964e-03
4.304428646692e-03
4.049985857339e-03
2.152295599124e-03
3.904305982153e-03
2.181745308855e-03
1.601820863611e-03
4.956049478681e-03
1.401476559850e-03
2.111889315513e-03
3.321047263052e-03
2.268346872781e-03
3.969667780703e-03
1.889119106674e-03
3.396365532197e-03
3.971070620537e-03
2.946304068913e-03
3.537025974587e-03
1.811375157662e-04
5.205294236013e-03
2.387586220924e-03
4.665614783562e-03
3.968807703245e-03
4.049703598051e-03
4.107544981389e-03
1.695791505847e-03
1.026663475019e-03
1.642477002780e-04
4.189723483469e-03
4.659166707092e-03
2.346343365981e-03
4.226192121581e-03
2.191228217425e-03
4.314363055978e-03
5.445403603490e-03
0.0
5.877232482387e-03
5.753927133567e-03
3.517916756623e-03
2.567108847699e-03
3.885798105456e-03
1.761253100682e-03
8.753437067106e-04
5.824479928858e-04
5.430593790634e-03
4.272773126407e-03
3.281421806576e-03
5.755399577457e-03
1.584674166795e-03
5.735458500835e-03
4.260634587508e-03
2.681067374150e-03
3.703032091483e-03
2.313425682848e-03
1.747876205062e-03
2.269306335304e-03
4.472296584069e-03
5.084185534072e-03
2.122483088170e-03
4.416764738030e-03
0.0
1.927997949303e-03
4.734679441239e-03
2.334640526172e-03
2.293466231138e-03
3.672079540127e-03
1.427206149762e-03
1.708336649171e-03
1.861547325864e-03
2.108699433633e-03
3.250126257064e-03
3.062054677212e-03
4.401537229797e-03
5.307742241175e-03
1.980497234217e-03
4.592105580899e-03
5.228738582180e-03
1.508615138678e-03
1.258398003978e-03
2.320259230208e-03
3.145384584978e-03
4.507488684930e-03
3.013439603112e-03
1.036494360999e-03
3.559288459622e-03
1.877421539577e-03
3.009312651742e-03
3.329936939808e-03
3.782961951353e-03
4.184693822016e-03
2.263846250652e-03
1.320964814853e-03
3.656275706454e-03
1.881021925859e-03
0.0
5.409655559408e-03
5.162683398980e-03
2.729094268368e-04
3.875711687704e-03
1.849949503547e-03
1.815075747793e-03
4.705943890402e-03
3.753312262213e-03
4.510634549489e-03
2.148267383418e-03
3.276008673573e-03
5.353793394855e-03
1.533498694127e-03
4.496561684191e-03
3.235629882712e-03
1.109441694527e-03
4.399839461738e-03
2.050705679004e-03
7.682699673756e-04
1.606426913977e-03
4.404965734731e-03
4.489139406804e-03
1.520865044627e-03
3.643992042795e-03
4.612769071813e-03
4.502280914076e-03
2.204419621287e-03
1.846579794431e-03
3.359329712729e-03
4.124746711535e-03
7.891390788467e-04
5.560751100390e-03
5.548964266607e-03
3.671227968295e-03
5.630388145665e-03
5.535998868057e-03
2.170965590618e-03
2.370185578734e-03
5.368043001177e-03
0.0
1.709110066567e-03
3.659126116834e-03
2.387294836944e-03
1.879148258664e-03
1.458848135816e-03
1.621284849436e-03
3.747506275773e-03
1.892131702059e-03
1.979788942566e-03
4.392042265884e-03
5.804343183406e-03
5.787944820255e-03
2.351876001022e-03
3.390799711467e-03
0.0
1.230366790518e-03
1.463542949792e-03
1.380432272447e-03
3.535543274713e-03
2.106380670562e-03
2.153393122630e-03
5.222734221172e-04
5.154439084150e-03
2.367565598648e-03
5.388275058918e-03
4.954992804617e-03
6.024570796398e-03
5.886693922548e-03
3.753433328928e-03
2.527170991278e-03
1.725379432797e-03
2.498420104998e-03
5.703744763384e-03
9.120404607057e-04
1.119100263323e-03
4.692417281221e-03
3.538901703328e-03
5.427938698995e-03
4.594213998741e-03
4.821231617115e-03
4.878843592402e-03
3.720203756123e-03
2.190074141244e-03
2.006325653896e-03
4.404135688044e-03
4.687878422867e-03
3.117837671459e-03
3.529702774384e-03
3.752961490192e-03
3.830800216791e-03
4.743220089301e-04
1.891519218785e-03
5.771465514508e-03
4.089532321688e-03
5.391930956668e-03
5.395352371543e-03
4.403465603732e-03
5.428295798469e-03
2.711349306453e-03
2.579117857356e-03
5.122665484976e-03
0.0
1.840758435860e-03
5.616042079043e-03
8.237432765106e-04
3.385098086166e-03
5.098464473505e-03
5.994795909040e-04
3.983112400915e-04
5.989580935828e-03
3.133104392698e-03
5.665785838847e-03
4.960111850706e-03
3.124857482388e-03
0.0
5.632893496604e-03
9.982363891210e-04
5.455855807356e-03
5.714313673249e-03
5.360106047106e-03
8.140468256158e-04
3.782530279231e-03
2.880362090628e-03
4.355508239889e-03
5.671711904199e-03
4.776155304540e-03
5.663484683731e-03
0.0
5.589551347142e-03
1.512890600852e-03
7.914478455334e-04
5.397054391263e-03
5.743402050252e-03
5.733536642357e-03
3.426595864351e-03
3.717007925183e-03
1.646038233533e-03
5.655472529231e-03
2.339881504149e-03
8.036133470504e-04
4.521262599813e-03
3.249064134649e-03
5.466053350078e-03
5.951132079152e-03
5.885235530218e-03
4.854921181183e-04
3.182268852091e-04
3.189601210708e-03
3.264417416490e-03
5.744673122169e-03
5.821030348919e-03
4.049503436329e-04
0.0
5.287127657436e-03
5.147388720085e-03
1.173728759617e-03
5.308389383186e-03
3.861412420017e-03
3.447396140137e-03
4.313090326591e-03
1.487039342624e-03
4.054223007771e-03
9.352616087626e-04
3.085786119638e-03
5.355845819130e-03
5.346807489972e-03
3.320434685778e-03
3.970741636665e-03
5.313594699531e-03
4.970757498224e-03
4.685070856500e-03
3.121604600955e-03
3.851714109814e-03
5.392942080288e-03
1.774965986013e-03
4.406585063081e-04
5.044417363226e-03
4.474595389771e-03
1.114377206921e-03
4.510176921097e-03
5.486912845254e-03
4.947561165270e-03
5.266766084571e-03
4.198063581823e-03
0.0
1.470518372103e-03
1.753101937549e-03
3.631135606701e-03
3.881045925371e-03
5.513487264780e-03
5.223998920856e-03
1.020852490991e-03
8.247746946980e-04
1.369961284446e-03
4.515742145024e-03
2.251628283077e-03
5.512574297706e-03
1.101239483144e-03
4.944710226892e-03
3.686457503037e-03
5.316904859013e-03
4.584108386174e-03
3.633631005452e-03
5.441228742427e-03
5.760973095862e-03
5.768457653903e-03
1.076429508706e-03
5.403578302253e-03
5.433000637951e-03
5.028809833893e-03
4.690494387880e-03
5.655330995816e-03
4.686381379503e-03
0.0
1.396280660218e-03
5.170660034106e-03
3.932337476204e-03
5.342833454285e-03
4.884276764452e-03
5.447158665415e-03
4.847067005331e-03
5.305854444718e-03
5.181492536697e-03
5.139590615884e-03
2.342515450525e-03
5.825123485814e-03
3.511800923746e-03
5.448173838807e-03
7.428025292534e-04
5.262596336557e-03
4.547206860874e-03
6.035790654862e-04
8.086025518277e-04
4.796988799160e-03
5.631992981559e-03
5.519397513834e-03
5.310091205385e-03
3.912116890080e-03
3.336829723450e-04
7.216677684816e-05
3.636648382109e-04
1.164636641950e-03
0.0
3.057585890836e-03
5.327921971227e-03
5.411971840112e-03
3.914684461503e-03
2.701530490713e-03
5.213565150943e-03
5.007366373899e-03
5.467264405238e-03
5.207424473042e-03
5.074998992932e-03
6.015575377216e-04
0.0
5.376601054342e-03
4.998770260557e-04
7.354796995695e-04
4.650576109338e-04
6.246802752465e-04
5.332466837785e-03
5.508668632613e-03
5.527152150685e-03
5.370182133116e-03
4.813648012505e-03
4.090345476850e-03
5.872497858860e-03
1.688844706779e-03
3.242062731608e-03
1.296527781915e-03
2.048831776387e-04
5.850745223492e-03
3.550974671321e-03
8.641995463890e-04
2.926275799080e-03
5.656777809006e-03
5.503877635999e-03
5.618051296971e-03
2.129346423962e-03
0.0
5.566911874099e-03
6.011875443670e-03
5.902551827901e-03
3.412317331757e-03
4.981747800379e-03
7.975484814361e-04
5.534656444521e-03
1.991551371557e-04
5.305266967479e-03
5.730842396305e-03
0.0
4.981060490428e-03
4.675346069498e-03
5.654646432844e-03
5.577265656584e-03
4.298496663279e-03
5.550848395389e-03
5.494928221657e-03
4.409266495861e-03
5.352947711999e-03
2.479552746464e-03
3.115289873894e-03
5.217348424536e-03
5.739897385503e-03
2.469328534604e-04
3.124201721815e-03
5.632614020689e-03
1.101480850632e-03
5.091661295346e-03
5.450633370530e-03
5.763755232995e-03
1.048262864143e-03
9.819337037052e-04
3.563851573438e-03
5.043841388328e-03
0.0
5.651156742465e-03
4.142985444651e-03
1.530326117569e-03
3.945008028744e-03
5.471691496627e-03
3.728983518662e-03
8.153271549637e-04
2.244711810372e-03
3.243419354848e-03
3.838568504311e-03
5.141366330765e-03
3.163902532595e-03
3.328394715870e-03
5.059368158880e-04
5.311799105867e-03
5.084872395273e-03
7.504975414657e-04
5.677168446605e-03
5.592115835301e-03
3.482521557627e-03
4.251403145156e-03
3.187364706085e-03
3.251257493807e-03
3.439701907309e-03
4.794833467625e-03
1.169016289084e-03
5.320349723071e-03
3.618781519640e-03
5.751198579347e-03
4.781103524799e-03
4.050232424032e-03
5.211038119852e-03
5.105861927613e-03
5.449330151016e-03
7.104254593758e-05
5.217846714948e-03
5.418217703554e-03
5.880291415762e-04
2.994215514378e-03
2.729319316386e-05
5.459819003965e-03
2.606499819159e-03
2.690961257714e-03
2.522000530317e-03
2.681395089224e-03
2.516611695707e-03
2.684936923134e-03
2.520724084807e-03
2.682910389250e-03
2.518155025397e-03
2.685720127669e-03
2.522107693972e-03
2.686100147812e-03
2.522572435250e-03
2.701698277203e-03
2.691814660839e-03
2.527183984821e-03
2.558519512118e-03
2.685492272813e-03
2.523715955889e-03
2.521830125806e-03
2.687781338981e-03
2.527976907291e-03
2.692519047907e-03
2.530769531241e-03
2.691005186238e-03
2.620190236794e-03
2.529256469091e-03
2.690152839742e-03
2.692355677766e-03
2.530525369073e-03
2.668560171641e-03
2.530830175599e-03
2.711856376190e-03
2.517118108963e-03
2.475509215453e-03
2.579121291386e-03
2.733210654048e-03
2.586513323000e-03
2.669335382215e-03
2.501112406734e-03
2.952964194819e-03
2.821859864007e-03
2.991596827692e-03
2.833511162691e-03
2.996758346163e-03
2.839990296122e-03
3.006645179008e-03
2.831291115803e-03
2.995872769527e-03
2.837184649027e-03
3.005449104704e-03
2.838583631022e-03
3.016774272030e-03
3.001904421592e-03
2.851312415787e-03
2.832771918756e-03
3.009442756207e-03
2.842210225621e-03
3.000234049433e-03
2.844919680408e-03
3.009082672670e-03
2.844437144164e-03
2.872310885887e-03
3.011912840164e-03
2.842005763748e-03
3.004113999591e-03
2.837696132236e-03
2.839675268708e-03
3.003734450339e-03
3.017107183080e-03
2.932857225621e-03
2.738763543566e-03
2.957508157439e-03
2.875589959643e-03
2.947488772035e-03
2.848489924599e-03
2.817296966531e-03

SCALARS element_materi_plasti_phimob float
LOOKUP_TABLE default
1.803047031691e+01
1.591567162371e+01
1.970821387132e+01
1.746423727225e+01
2.673649704786e+00
2.700757229332e+01
2.905151853762e+00
1.804558817246e+01
3.098369201730e+00
1.741156770578e+01
2.018434118514e+01
1.653491258640e+01
2.067701270405e+01
6.537788960731e+00
2.063004412029e+01
1.787291353756e+01
1.433775804577e+00
2.479635293627e+01
1.075215509894e+01
1.063546467625e+01
1.736801893512e+01
1.433353720877e+01
1.667930265950e+01
2.240027531983e+01
9.911954608946e+00
2.035565048252e+01
-1.974650800140e+00
2.234502318211e+01
1.035437314976e+01
2.221403342800e+01
2.130148978327e+01
-1.870102370871e+01
1.924171796429e+01
2.060660568893e+01
2.123636705982e+01
2.083285521167e+01
2.077880399031e+01
2.241675831380e+01
-3.752981432606e+00
-3.433827922450e+00
1.497847995198e+01
2.111870934457e+01
1.793116889984e+01
-1.924828753418e+00
1.694719154231e+01
1.910964708142e+01
2.522401938081e+01
1.713803348972e+01
1.583678334458e+01
4.808417667232e+00
1.634850264600e+01
1.299264442525e+01
2.670522891181e+01
1.173567796727e+01
1.856463093989e+01
1.569178498483e+01
1.322242552962e+01
2.066793620011e+01
6.163870564361e+00
1.784358688405e+01
1.175441468144e+01
2.290449420414e+01
2.134849180469e+01
2.573301672884e+01
2.071948869857e+01
1.304883589390e+01
1.551172931201e+01
1.950858363487e+01
7.727950024051e+00
2.118996175672e+01
2.051481648003e+01
1.917152667659e+01
2.190369612250e+01
-8.729488394076e+00
1.609507673906e+01
1.755993102870e+01
1.851510887274e+01
1.990239817799e+01
5.096658375122e+00
1.963503578356e+01
8.727317264092e+00
1.094963179052e+00
1.752171988160e+01
1.474272767308e+01
5.486509474084e+00
5.449108987048e+00
2.051464311926e+01
2.060256926089e+01
1.757013575458e+01
2.524712331169e+00
-2.066310986687e+01
3.318751389304e+00
1.435554099807e+01
1.398470773780e+01
1.854237270558e+01
2.182145643054e+01
9.390263701131e-01
2.160136158301e+01
9.347035995580e+00
2.004522667518e+01
-1.391597930857e-01
2.068021043929e+01
2.418905178411e+01
2.266820894083e+01
2.356151988764e+01
1.741342054190e+01
2.066713584659e+01
1.528847787124e+01
1.955595403588e+01
2.064676639098e+01
1.737399305850e+01
-2.196493738390e+01
2.600001514588e+01
5.479123508938e+00
1.787268273753e+01
1.957358837482e+01
2.186000077408e+01
2.102952844772e+01
8.270441227846e+00
2.229970853951e+01
4.562283940048e+00
4.201128468575e+00
1.546810813435e+01
2.265567006237e+01
2.218961795188e+01
8.873265024026e+00
1.768412860913e+01
5.827913615433e+00
1.806890297988e+01
2.516052585620e+01
2.042230355437e+01
1.750178893905e+01
1.770554946271e+01
1.148316522275e+01
2.142394007879e+01
2.066092800061e+01
2.061290773152e+01
1.781942683030e+01
2.196399868849e+01
1.528847338464e+01
1.779215503128e+01
2.125093268564e+01
6.680993999136e+00
1.214208247384e+01
1.744787762416e+01
9.141748138360e+00
1.835680101794e+01
2.478798038631e+01
9.919899049187e-01
2.640673786828e+01
-2.192328539113e+01
5.324927495997e+00
6.771571171275e+00
6.316377974592e+00
2.127581232417e+01
2.313085181486e+01
2.059093555454e+01
1.822835201266e+01
2.436232345499e+01
1.664039493828e+00
2.701687184838e+01
2.067162461813e+01
5.081937045117e+00
2.069768732583e+01
1.039577436463e+01
2.089392520751e+01
1.397799580468e+00
2.494669651041e+01
1.930338288954e+00
2.024977267440e+01
1.800457388749e+01
2.738241577750e+01
1.314723800728e+01
1.224240782082e+00
2.566575636846e+01
2.901711966025e+00
2.022668339985e+01
1.846496791406e+01
2.185212461160e+01
2.147215801030e+01
1.880380788931e+01
1.847740744178e+01
2.324502101520e+01
1.586367681561e+01
1.716666970625e+01
6.994884580577e+00
2.536976114874e+01
1.777865190067e+01
1.652765826304e+01
2.067718316721e+01
1.990484546798e+01
2.836433179198e+01
1.740082621370e+01
1.059512802095e+01
1.250182068810e+01
2.356738111324e+01
-9.306626475011e-01
1.861207861183e+01
1.310200950889e+01
2.237999009778e+01
2.404491978193e+01
7.356841162757e+00
8.865962393072e+00
2.189338659065e+01
1.769434605754e+01
2.015994263065e+01
1.282627743237e+01
1.384389011549e+01
1.128103327418e+01
8.975266936606e+00
2.536933373550e+01
1.945569702000e+01
1.222793755017e+01
1.791127203232e+01
1.918430613724e+01
1.959125682217e+01
1.682532474704e+01
2.916384652255e+01
2.364315161614e+01
7.449160324248e-01
2.792886346491e+01
2.361690184749e+01
-1.479447485586e+01
1.475187267925e+01
-2.058472196921e+01
-1.757993411492e+00
1.856357138876e+01
1.525597260081e+01
1.527819843682e+01
1.415727497195e+01
2.255084093675e+01
2.011185170701e+01
6.843644125185e+00
2.381942471344e+01
1.165455197445e+01
2.078112376393e+01
1.067333765665e+01
2.460011003630e+01
2.787538779719e+01
1.438220581349e+01
2.417265604615e+01
2.091064889827e+01
1.577457213265e+01
2.937833588679e+01
2.341704842574e+01
2.045937562747e+01
1.828024591152e+01
1.435730898666e+01
2.215955188800e+01
2.810493626388e+01
2.296396093805e+01
1.308461822877e+01
1.852593616391e+01
2.107768989052e+01
2.723649966502e+01
6.085650238917e+00
8.768981435620e+00
1.000116710959e+01
2.858989320970e+01
2.985607084494e+01
2.753441979435e+01
1.519092125900e+01
1.332190840090e+01
2.412315403597e+01
1.568500831108e+01
1.672093653246e+01
1.690333556200e+01
2.075658979085e+01
2.732054600951e+01
1.548563617105e+01
2.548793968697e+01
2.657513284440e+01
3.051089477238e+01
1.852756564850e+00
2.845080905957e+01
2.874739225536e+01
1.553214597882e+01
6.252428036789e+00
1.112495929537e+01
2.974578591728e+01
2.569670967181e+01
3.054094469323e+01
1.410343777791e+01
-4.529638008691e+00
1.822812211704e+01
2.664062074059e+01
1.246027408058e+01
6.665003962279e+00
2.877065833045e+01
3.065491474186e+01
2.742767966659e+01
1.852361182016e+01
1.466549953052e+01
1.953474614795e+01
2.915508868096e+01
2.874188637053e+01
2.718075769071e+01
2.594174702111e+01
2.051107694663e+01
1.923464162495e+01
2.003573383213e+01
2.162358809769e+01
2.957043767912e+01
2.667647540331e+01
1.625261959185e+01
2.894910256000e+01
2.999070043559e+01
1.688118637197e+01
1.767798917845e+01
2.885036591218e+01
2.547238704300e+01
2.308743644862e+01
2.158549598653e+01
2.788759812547e+01
1.885712651015e+01
3.031410605074e+01
2.587749747086e+01
2.837449165870e+01
2.841978366931e+01
1.367910402137e+01
2.119457937965e+01
2.956743272247e+01
2.639957354585e+01
2.327310429576e+01
1.106816230832e+01
2.419283352267e+01
2.189987649233e+01
1.000577513944e+01
2.192644376407e+01
2.358576271477e+01
2.078678582141e+01
9.980350629261e+00
1.756475567129e+01
2.028572139876e+01
1.221712108512e+01
1.463988750520e+01
1.490421744442e+01
2.223558569765e+01
2.212592400161e+01
9.330440720029e+00
8.671504445171e+00
2.894779988425e+01
1.159954524154e+01
9.691953667358e+00
2.372781477683e+01
1.542148813511e+00
2.582258525024e+01
2.929159223544e+01
1.577149573273e+01
2.451015365570e+01
1.328703761136e+01
2.642254497372e+01
2.449356604316e+01
2.213164069800e+01
1.381867152389e+01
3.139628549120e+01
2.170016938670e+01
1.882877850423e+01
2.114111264284e+01
1.760638452815e+01
1.865604299635e+01
1.695355725313e+01
1.154634690291e+01
2.192900125522e+01
2.251564277044e+01
1.748719512722e+01
1.493589469942e+01
2.417786555525e+01
2.116419012427e+01
3.032172460547e+01
3.012513562949e+01
1.990553920021e+01
2.584171919690e+01
2.034345845356e+01
1.691611719659e+01
3.011174212635e+01
2.330626658174e+01
1.538133504319e+01
2.284897490958e+01
2.031356647039e+01
1.972394050218e+01
1.861847397590e+01
2.402753507435e+01
1.566070115518e+01
2.190435814148e+01
2.966174338415e+01
2.918386408850e+01
1.854455299522e+01
1.337730562719e+00
9.787252038616e+00
2.227110090023e+01
1.813511973583e+01
1.229755641745e+01
1.574496980893e+01
3.084968988973e+01
3.479707118371e-01
2.693641230711e+01
2.344354718074e+01
2.632158216049e+01
2.335746749103e+01
5.959092009668e+00
1.017691066640e+01
2.685128568243e+01
2.081145087921e+01
2.526754466410e+01
6.782501733914e+00
7.117057557193e+00
2.143316820603e+01
2.722310330166e+01
1.465624734403e+01
2.154031460067e+01
1.097452007716e+01
1.742011477291e+01
2.099967669605e+01
1.608804935150e+01
2.424485392713e+01
2.168370875825e+01
2.122003736400e+01
2.017299708643e+01
2.070310585628e+01
1.552142086781e+01
1.616415450529e+01
1.823056467136e+01
2.223489589008e+01
2.040953357174e+01
1.957121960652e+01
1.699101185500e+01
2.206084422757e+01
1.643732019189e+01
2.591901361013e+01
1.646896129687e+01
2.288860597074e+01
2.390108401018e+01
1.703275426679e+01
2.632436886020e+01
1.809144467759e+01
2.326611894217e+01
2.165499464180e+01
2.011723764504e+01
2.368514136944e+01
2.148210056391e+01
2.588948295440e+01
2.141786927328e+01
1.879404424548e+01
1.926282099884e+01
-1.753460012199e+01
2.163507955223e+01
2.163803911722e+01
2.650381172424e+01
2.572328241449e+01
2.209977735251e+01
-5.493700502117e+01
2.372818835430e+01
1.810840510055e+01
2.044838529268e+01
1.755151530345e+01
2.544539494614e+01
2.168953036062e+01
2.907758803186e+01
2.681066636428e+01
2.113225905811e+01
-1.875708443117e+01
1.345574377734e+01
2.278388791958e+01
7.472575797325e+00
2.179203399113e+01
2.159791726970e+01
1.432435328742e+01
1.712165912692e+01
2.645430882595e+01
1.741758033445e+01
2.189381273949e+01
2.069565930221e+00
8.641658743207e+00
2.143588505823e+01
1.753121898377e+00
1.908185684704e+01
2.315387243403e+01
8.360766820839e+00
2.071448715825e+01
2.595673337056e+01
2.712840872678e+01
2.123176117723e+01
2.096727609012e+01
2.044836602750e+01
2.344029155366e+01
1.878750293957e+01
2.448856985974e+01
2.361955255258e+01
2.104357306136e+01
2.783548615083e+01
2.949406036379e+01
2.815826877266e+01
9.939683694482e+00
2.144311156097e+01
1.092452290941e+01
2.087272507376e+01
2.680478996307e+01
2.156377038562e+01
1.829246322742e+01
-6.028040098180e+01
2.495461387138e+01
1.613956164183e+01
2.169098778425e+01
1.593049693230e+01
2.354892082429e+01
2.455167921875e+01
2.229379081999e+01
2.535398989194e+01
2.604730440035e+01
1.279840242518e+01
2.165538691014e+01
2.911555613740e+01
2.312591514033e+01
6.755290668563e+00
1.921829476724e+01
2.737315963389e+01
1.622994345004e+01
2.133849770488e+01
1.926101788508e+01
2.348406128155e+01
2.280484111412e+01
2.524329171502e+01
2.837365490014e+01
2.379136090355e+01
2.235622134981e+01
2.142912000935e+01
2.525852361045e+01
2.387930256159e+01
2.133876217168e+01
2.669210136353e+01
1.921338516719e+01
2.335604765257e+01
2.713638308277e+01
2.168444433308e+01
1.680567184880e+01
1.806848485069e+01
2.094884153679e+01
2.241558439621e+01
2.662869361330e+01
2.475413719379e+00
2.138126840271e+01
1.719017399902e+01
2.476756122038e+01
2.075666501201e+01
2.324954208205e+01
1.918868675081e+01
1.003704812067e+01
2.707948122278e+01
2.354014760399e+01
2.529613247319e+01
1.342101117506e+01
1.613968585876e+01
2.478429971564e+01
8.920886173520e+00
2.052899852331e+01
2.571263815277e+01
2.330585628639e+01
2.151885317962e+01
-5.197912274689e+01
2.567427741511e+01
2.444642015684e+01
2.074753917028e+01
2.569489505696e+01
2.392067840134e+01
8.749363447951e+00
2.237102404803e+01
2.071308989256e+01
1.902390868017e+01
2.054796971260e+01
2.013727041028e+01
2.021858199644e+01
-4.346221613431e+01
1.118468230949e+01
1.801860965913e+01
8.999999999681e+01
1.991888326781e+01
2.352540985286e+01
1.580679650083e+01
2.586305197754e+01
2.595241306819e+01
5.247138953485e+00
-6.119474898940e+00
1.829484215036e+01
2.124513744438e+01
8.999999999681e+01
6.716356735780e+00
-9.670024045741e+00
1.676945059800e+01
2.033473909401e+01
1.575413404083e+01
2.211125636929e+01
1.723594826363e+01
2.113239435825e+01
2.297711287961e+01
2.913685034069e+01
1.793733884032e+01
1.632962805094e+01
2.127971744906e+01
2.067594603086e+01
1.869674529683e+01
2.010348420128e+01
2.381620177410e+01
2.287197047915e+01
8.499552620254e+00
2.307212528328e+01
-1.288016113463e-01
1.958903189244e+01
2.084947425150e+01
-1.579583664305e+01
1.825163785532e+01
1.684275855373e+01
8.999999999681e+01
-5.468730881531e+00
-4.035640631751e+00
2.521559134810e+01
1.634275859451e+01
2.336894783188e+01
2.346523907287e+01
2.147823157840e+01
2.160393127457e+01
1.485438909810e+01
2.111740538161e+01
-5.210841084781e-01
1.407982878365e+01
-5.686174107332e+00
-5.472059394149e+00
8.859680489745e+01
-1.655863146329e+01
-5.367826908494e-01
1.379386261516e+01
-1.585200330241e+01
1.909705574820e+01
2.941670605541e+00
1.622027521670e+01
1.120554918358e+01
-5.584753508919e+00
1.990803292230e+01
2.333810086804e+01
8.900815664152e+00
1.691140283767e+01
7.419644558582e-01
1.875154996221e+01
1.836990438503e+01
6.558802418241e+00
-6.013730771762e+00
1.700641215475e+01
1.830862437572e+01
1.533820028407e+01
-5.176588287028e+00
-6.226095667506e+00
8.463754128652e+00
1.992546475763e+01
1.829295632911e+01
-1.650266773344e+01
8.759396437866e+01
3.027808630844e+00
2.145790870117e+01
2.067549433385e+01
9.774297454223e+00
1.490278123925e+01
-1.869527344357e+00
2.532216267231e+01
-2.885149462297e+01
1.342517040980e+01
2.532883433281e+01
2.082300909122e+01
1.102033186882e+01
1.631653996683e+01
-1.521598513056e+01
2.095090372958e+01
1.843884268886e+01
1.827351602800e+01
-5.682611395081e+00
2.519519672954e+01
1.865113984700e+01
2.359867128778e+01
4.224969156682e-01
-1.576941829691e+01
-1.558573038138e+01
1.785320212362e+01
2.073292222047e+01
1.750051720989e+01
8.614178552873e+01
1.898414609833e+01
2.056350155711e+01
2.078755524942e+01
2.122194341388e+01
1.348114779542e+01
1.553036872568e+01
2.055146932693e+01
2.056157508936e+01
1.490709424605e+01
8.808536188329e+01
-5.845437661918e+00
-5.566495927547e+00
8.616971851359e+01
2.058473962485e+01
2.115825086641e+01
2.059770405194e+01
8.947412877370e+01
8.999999999681e+01
2.064429625065e+01
2.062118307377e+01
1.263231215876e+01
-5.893187452395e+00
1.422959742288e+01
7.485992540913e+00
-5.817107102416e+00
8.999999999681e+01
-6.103225107859e+01
-6.157424833883e+01
-6.129249700148e+01
1.930768357931e+01
1.863889716458e+01
-5.639075479602e+01
2.031981450771e+01
-5.632151436380e+01
1.939761131329e+01
1.856740485697e+01
1.886892337722e+01
8.907053823976e+00
1.566014696891e+01
1.850183634654e+01
2.065199868324e+01
1.851548856528e+01
2.067483632075e+01
2.065818500365e+01
1.826351093185e+01
1.826296973412e+01
1.829692992160e+01
2.064979252364e+01
2.066152620985e+01
2.069909587029e+01
-2.528499423630e+01
1.898910877950e+01
-1.762668290676e+01
2.131058706983e+01
2.000472728622e+01
2.102721580396e+01
1.271444003641e+01
-3.630826005405e+00
2.086405905881e+01
1.953423988026e+01
1.753529058741e+01
2.089386531316e+01
1.651579156914e+01
1.741470955364e+01
2.312081476662e+01
2.224271539032e+01
2.087247365167e+01
2.076650542640e+01
2.984182467015e+01
1.580412704905e+01
2.538635852630e+01
2.125337286566e+01
2.079863830597e+01
2.070098767006e+01
1.490612243560e+01
1.640646073419e+01
1.529499621059e+01
4.101532306859e+00
2.153943086098e+01
2.104033261804e+01
1.651577029871e+01
1.593513225911e+01
2.208743740443e+01
2.075779270890e+01
1.492405932758e+01
2.061165169448e+01
2.109600615593e+01
1.639554716474e+01
1.292481225727e+01
2.298560767966e+01
1.301450435182e+01
1.460930420490e+01
-1.292378497307e+00
-2.586107570993e+00
1.590577956997e+01
2.076660313100e+01
-1.286040893719e+01
1.767937812303e+01
6.038725571937e+00
2.102810837424e+01
2.079519782321e+01
2.231868892630e+01
2.071376407974e+01
4.103718503244e+00
2.505359061539e+01
2.096607339304e+01
1.279037349046e+01
2.135983333150e+01
1.387262624786e+01
1.398634012467e+01
1.677871271722e+01
1.989850989951e+01
1.060263176977e+01
1.813022385400e+01
1.469438390874e+01
1.209530822327e+01
2.040290278972e+01
2.066070421471e+01
2.078248728885e+01
1.391535611704e+01
1.065075334871e+01
1.987797986383e+01
2.369060815982e+01
1.448622552553e+01
1.927636012915e+01
2.174002204846e+01
2.159545210465e+01
1.295186676303e+01
2.427824014144e+01
-8.013102727823e-01
3.034766121134e+01
2.089029276384e+01
1.187749067007e+01
2.007035683121e+01
7.758621262208e+00
2.267154302681e+01
2.030900671673e+01
2.090321587325e+01
1.319050464098e+01
2.123975285339e+01
2.006456441376e+01
1.415003331749e+01
1.961773420070e+01
1.829959840510e+01
1.592916666560e+01
2.022540241412e+01
-5.509640808558e+01
-5.490132490215e+01
2.081266411554e+01
1.209949527835e+01
2.121278346403e+01
2.145025448773e+01
2.029160432008e+01
2.204435520992e+01
1.558195613526e+01
2.689956636151e+01
1.851076537938e+01
2.254538741801e+01
9.990556896104e+00
9.505376608230e+00
6.129535382958e+00
8.879368498031e+00
2.192570194991e+01
1.337729093628e+01
1.180069620186e+01
1.606504873949e+01
1.615320836994e+01
1.336206981645e+01
2.075196017340e+01
1.375424892738e+01
2.086996320704e+01
2.025775181306e+01
1.718770483309e+01
1.564894358590e+01
2.102218386046e+01
2.127507270224e+01
1.043374477372e+01
2.106156889416e+01
1.343028595471e+01
2.006331178042e+01
1.184698539809e+01
1.426181406874e+01
2.797473017901e+01
1.511266846571e+01
1.941327020291e+01
2.006115037926e+01
1.745606778191e+01
1.989852903504e+01
1.269192241855e+01
2.292679972745e+01
1.463907736279e+01
3.100742806825e+00
1.264625785810e+01
1.469319934475e+01
2.143381582304e+01
1.367259863527e+01
2.122538280446e+01
2.156729882820e+01
1.902382445313e+01
1.322282495301e+01
5.568596848881e+00
2.144888568911e+01
1.095597365415e+01
-1.847387392461e+00
1.774353170983e+01
1.192658563326e+01
1.058291115049e+01
1.793259360616e+01
2.186071391658e+01
1.734358722540e+01
1.525450437791e+01
1.667910058518e+01
2.196588618612e+01
1.365822423606e+01
2.173180173657e+01
1.970229099110e+01
2.147860595426e+01
2.996156590708e+01
1.170290961282e+01
8.201704001313e+00
2.472375757931e+01
2.264415616222e+01
1.091703984012e+01
1.692641394020e+01
1.127177740218e+01
1.069303145799e+01
2.158659986765e+01
2.470649517695e+01
2.461955705410e+01
1.671226737205e+01
2.298094617589e+01
1.025366720280e+01
2.246115732361e+01
2.177357536036e+01
2.141277249203e+01
2.121564908455e+01
1.362440471786e+01
2.367210283765e+01
2.206727368616e+01
7.334634984827e+00
1.507484783398e+01
1.750382378834e+01
2.340138800932e+01
2.178531554661e+01
2.028185944236e+01
2.441074105794e+01
1.242103871542e+01
9.499991949898e+00
8.689011997936e+00
1.988707435333e+01
2.229412591582e+01
2.291803697126e+01
7.795489575241e+00
1.837725728914e+01
2.413131173489e+01
2.214814593914e+01
1.432300134181e+01
1.971507126570e+01
1.861154681873e+01
1.080510776361e+01
2.276426604171e+01
1.868673000194e+01
1.152181772761e+01
1.023369380349e+01
2.746079318187e+01
1.779434452401e+01
3.032601791093e+01
1.795780655241e+01
1.926107610731e+01
1.199214467272e+01
2.271179000796e+01
2.289354082395e+01
1.505094017303e+01
2.385607046556e+01
2.306099136792e+01
2.326226653000e+01
2.604367772439e+01
1.220012270706e+01
2.216779804221e+01
2.191037017833e+01
2.182508684611e+01
2.055018564197e+01
2.321686992119e+01
1.154804927987e+01
1.961603955803e+01
2.434602397253e+01
1.645542697449e+01
1.985355702795e+01
2.079499558151e+01
1.543947554345e+01
1.430724649482e+01
2.242363264373e+01
2.257201828371e+01
2.139010155263e+01
-5.807724765766e+01
2.640472027100e+01
2.466716674678e+01
2.178646594991e+01
1.022358070762e+01
2.316729245051e+01
1.708410832706e+01
2.181038190459e+01
1.454408514355e+01
1.694430912361e+01
2.222016135353e+00
8.205450407383e+00
2.090794849720e+01
1.939712632108e+01
2.548194169036e+01
2.272872592640e+01
1.313469427259e+01
8.932249759615e+00
8.469910184123e+00
1.537368200846e+01
2.308057360584e+01
2.190498327432e+01
1.300106527042e+01
1.542634308551e+01
2.095098775418e+01
2.776543162497e+01
2.186828407733e+01
1.737024130123e+01
2.140216072828e+01
2.752473083978e+01
2.836995088808e+01
1.294013364962e+01
1.921436305367e+01
2.336853591702e+01
2.422359836837e+01
1.606774519208e+01
2.390831689331e+01
2.503608002795e+01
2.693216981804e+01
1.857131409307e+01
2.502293795927e+01
1.239023163392e+01
2.779484547986e+01
2.259712427387e+01
2.094093468912e+01
2.240052928079e+01
2.464084482436e+01
2.077910692541e+01
1.794575640129e+01
1.868537907230e+01
1.451182021157e+01
1.615755773962e+01
2.524357248048e+01
2.628510810919e+01
1.575736145672e+01
2.278523315687e+01
1.412449184671e+01
1.763703440694e+01
9.345642819358e+00
2.305840929854e+01
1.628871325819e+01
2.457721130947e+01
9.049348682322e+00
1.473064935510e+01
2.571169213274e+01
2.677002673021e+01
1.659580612435e+01
2.237292385995e+01
1.319309649773e+01
2.475484957172e+01
1.963640028251e+01
1.395364993202e+01
2.206280691710e+01
2.205853422628e+01
2.230426032002e+01
9.065652584435e+00
7.255586530657e+00
2.352559269407e+01
2.282581605666e+01
2.299460629867e+01
6.181453264212e+00
3.058765449899e+01
2.792202952018e+01
2.657690561227e+01
2.492245500098e+01
1.703350391047e+01
1.766055712716e+01
1.621803595898e+01
1.917584290993e+01
1.483973043346e+01
2.233668971820e+01
1.665329054287e+01
1.311914986584e+01
2.220908293993e+01
2.854940038347e+01
1.399275087166e+01
1.599972411490e+01
1.412451805029e+01
1.323041707419e+01
2.217605639683e+01
2.328244109898e+01
2.260043561939e+01
2.269255493279e+01
9.981697944914e+00
2.435785024282e+01
1.365139207708e+01
1.422568371341e+01
2.694601113128e+01
2.657722339618e+01
2.608998946651e+01
3.100925867428e+01
2.769548623738e+01
2.541366287811e+01
1.448112715593e+01
2.259414421025e+01
1.113155360298e+01
-2.048720334351e-01
2.722368936806e+01
2.249827646090e+01
2.450460169041e+01
1.782750119814e+01
2.754745420826e+01
2.271049096383e+01
1.127448569188e+01
2.405194342846e+01
2.497100686470e+01
2.634544296249e+01
1.474703559393e+01
2.253829715084e+01
2.535653201176e+01
2.266281251027e+01
2.252781243636e+01
2.538367158722e+01
1.407038193535e+01
2.300541859642e+01
2.224469713237e+01
2.151656615331e+01
1.221671967346e+01
2.307796781902e+01
1.478898448761e+01
2.609682645107e+01
2.768060940229e+01
2.091622258770e+01
2.979453546283e+01
1.550430880803e+01
1.503042149205e+01
1.883440949009e+01
2.267613066820e+01
1.676018278852e+01
2.232530110633e+01
2.236907767469e+01
1.311310457697e+01
2.144839217850e+01
2.911668859234e+01
2.666167792234e+01
1.420892589948e+01
2.534661327446e+01
2.102739504112e+01
2.681859715686e+01
1.879026240248e+01
1.634602867949e+01
2.179275135566e+01
2.922999661795e+01
1.225016162799e+01
3.090638945852e+01
2.214839396048e+01
1.813950113673e+01
1.655655043669e+01
2.500770158223e+01
2.490507990056e+01
2.351478435496e+01
2.380319497537e+01
1.432892559228e+01
2.316902765418e+01
1.221998717373e+01
1.787814192983e+01
1.469029698890e+01
1.542153433061e+01
2.874511289111e+01
2.174852596708e+01
1.398975952383e+01
2.730595496532e+01
1.343910476493e+01
2.259966409954e+01
3.140036089585e+01
1.595080707017e+01
2.412325450410e+01
1.093303550908e+01
2.514134972349e+01
2.467036304900e+01
1.658425720079e+01
1.722640484278e+01
2.474063405050e+01
1.537112101382e+01
2.860409041243e+01
2.146330556155e+01
1.146341886995e+01
1.904581015991e+01
-6.032092574553e+00
-6.920336013947e+00
2.785632932835e+01
-5.208503945589e+00
2.519467873526e+01
2.690721705407e+01
2.707806793799e+01
2.971252685971e+01
2.828230517668e+01
1.607058406875e+01
1.836407301418e+01
2.197805630160e+01
2.344962210832e+01
2.606336244001e+01
1.544447969031e+01
2.782409742200e+01
2.143720673367e+01
1.472655540645e+01
1.486418913198e+01
2.567977109879e+01
2.855837147439e+01
2.149970494576e+01
1.706672889671e+01
2.731465868595e+01
3.081020509464e+01
2.472625932865e+01
2.172402694256e+01
2.119142705729e+01
1.400905075066e+01
2.815400411315e+01
2.138802713106e+01
2.426579959269e+01
1.543970698911e+01
2.108532994627e+01
1.116456046941e+01
2.347365575315e+01
2.700729302592e+01
2.392967089263e+01
2.473539961130e+01
1.654052205903e+01
2.070577336052e+01
2.638753849380e+01
3.125090684525e+01
2.321547431122e+01
2.480853739337e+01
2.843496912273e+01
2.568429318861e+01
2.316392976929e+01
3.012728234395e+01
2.710122481679e+01
1.539245042829e+01
2.105321756950e+01
1.651249031975e+01
2.295351006158e+01
1.403343043272e+01
1.037514566583e+01
1.866696440807e+01
2.388273357626e+01
2.179856382410e+01
1.323223850905e+01
1.725042274902e+01
1.237938067295e+01
2.952286022995e+01
2.270079698484e+01
1.658611223328e+01
2.624096081582e+01
2.536761817041e+01
2.884208931508e+01
1.423240387251e+01
2.110568941894e+01
2.531262088242e+01
2.189701676330e+01
2.457940940235e+01
2.231760463419e+01
2.835260716207e+01
2.852591362795e+01
1.751017459419e+01
1.974041709008e+01
2.642289364827e+01
2.288128068979e+01
1.332127700672e+01
2.214270685137e+01
2.771777558225e+01
2.855888231794e+01
2.096134892733e+01
2.275742000855e+01
2.473549677064e+01
2.196110226618e+01
1.919287730672e+01
2.252655392145e+01
2.832791031734e+01
1.133910426583e+01
2.165328622545e+01
2.900820802738e+01
2.125401507211e+01
2.499099602832e+01
2.972113943684e+01
2.231835791659e+01
2.730338723135e+01
2.214791318621e+01
2.438106926254e+01
2.037410637543e+01
2.205664673077e+01
3.040240859059e+01
2.164799777746e+01
1.712394373563e+01
2.221059585624e+01
2.396690414439e+01
2.786843863648e+01
2.223739049708e+01
2.097007015071e+01
1.979242814962e+01
2.249875692083e+01
1.216668007536e+01
2.150160867974e+01
2.225555632721e+01
-5.703277270526e+00
-5.713720794174e+00
1.571194733271e+01
2.258377307895e+01
2.136438359011e+01
1.847414410363e+01
2.578749235612e+01
2.303088160880e+01
2.787691880297e+01
1.869889288693e+01
7.287878163628e+00
2.564091753515e+01
2.224248854337e+01
3.079656384289e+01
2.178771648655e+01
2.267849084103e+01
2.066561159330e+01
1.245360904571e+01
1.921438302555e+01
1.899353002560e+01
6.907523034693e+00
2.183260326414e+01
2.079443032569e+01
1.665597140831e+01
1.681212591967e+01
2.355556354774e+01
1.221280489444e+01
2.891400140280e+01
2.374925061230e+01
2.108722585828e+01
1.377003258609e+00
6.869306185301e-01
1.264606353868e+01
2.677597856784e+01
2.172549098827e+01
2.409061071852e+01
3.061177307033e+01
2.174002831987e+01
1.596962038246e+01
2.065405690207e+01
2.163873615036e+01
-1.234761540526e+00
2.417131194388e+01
2.326587759287e+01
-9.957874367268e-01
1.603273565530e+01
2.954178079243e+01
1.698817908659e+01
2.133921632504e+01
2.616940669614e+01
2.455178792857e+01
1.664195831118e+01
2.411164749619e+01
2.446905462832e+01
2.421276998469e+01
3.010875679193e+01
2.989768934966e+01
2.248186248797e+01
1.154679231402e+01
2.278007955033e+01
2.761670620886e+01
1.669403449158e+01
2.199339409272e+01
1.727741240096e+00
2.238660877006e+01
2.137946036481e+01
2.336660299470e+01
2.211873927263e+01
2.200250746732e+01
1.752468526645e+01
2.493142749798e+01
2.178446963800e+01
2.670475737000e+01
2.360400613522e+01
2.644264284832e+01
3.069520033983e+01
2.655825450447e+01
3.038460492302e+01
1.784594823873e+01
2.969888826533e+01
1.936599573021e+01
2.371105436113e+01
2.429818574792e+01
2.708588516317e+01
1.169210271206e+01
2.135355864296e+01
2.115993373015e+01
2.296794389179e+01
1.998561293426e+01
2.098191894872e+01
1.603661367188e+01
2.095596618976e+01
2.815631893088e+01
2.112369368473e+01
3.095193486324e+01
1.990106906298e+01
2.490210357827e+01
1.202371538952e+01
1.095761912269e+01
2.356848536125e+01
1.249696799814e+01
4.067888699614e+00
2.099534690200e+01
2.403138930892e+01
2.572201385027e+01
2.468204870802e+01
2.723892234322e+01
3.018766870442e+01
-2.050916065897e+00
9.023281132093e+00
-5.611516932506e+00
2.407325913070e+01
2.719174472816e+01
2.281861772831e+01
2.071450657067e+01
2.646193706271e+01
2.090400121890e+01
2.889572134156e+01
2.308782614521e+01
2.394850584820e+01
2.385987978709e+01
2.299311035901e+01
2.117327889426e+01
2.086121643948e+01
2.641179343020e+01
2.033443207858e+01
2.728490452720e+01
2.421729947666e+01
2.719081954934e+01
2.184772826602e+01
1.962350424012e+01
2.741546924679e+01
2.608259314355e+01
2.106073401242e+01
6.012397459069e+00
2.139945942589e+01
2.085730090545e+01
1.262237603999e+01
1.957545942819e+01
1.963582998848e+01
3.444497611798e+01
1.952132492331e+01
2.588375762251e+01
2.051923583927e+01
1.155573728396e+01
2.780492185786e+01
2.439055103773e+01
2.308450931594e+01
2.545475740981e+01
1.913327944967e+01
2.779511951100e+01
2.115690947086e+01
2.073552626482e+01
1.695361309603e+01
2.354180314148e+00
1.310705303247e+01
2.053324731155e+01
1.294781630683e-01
1.351233095764e+01
1.150003456301e+01
2.042870769681e+01
2.829862169194e+01
2.720559236635e+01
2.948767959359e+01
2.114088747442e+01
1.537980565268e+01
2.060546910008e+01
2.927292753570e+01
2.050359220320e+01
4.578965438336e+00
2.426364602718e+01
2.037441006535e+01
2.079004382058e+01
1.951196734445e+01
2.746270959300e+01
2.050860578806e+01
1.165323872937e+01
9.373547978621e+00
1.959989218366e+01
2.093850551306e+01
2.487378709897e+01
2.048699508927e+01
2.288827971758e+01
1.028693619107e+01
2.559925305547e+01
2.599378877858e+01
1.244609331134e+01
2.034953477877e+01
1.504050622114e+01
4.938110189836e+00
2.067210577602e+01
2.540641977106e+01
2.117407019438e+01
2.118041671073e+01
1.604850241366e+01
2.594506028070e+01
2.358561536598e+01
2.403260499517e+01
2.078389379302e+01
2.058709214128e+01
2.928211919280e+01
4.380451969089e+00
2.741647834748e+01
2.066091592907e+01
2.336122544855e+01
2.239953041291e+01
2.104042579479e+01
1.656837016690e+01
1.970605250792e+01
2.171519350070e+01
6.774564748037e+00
1.845502078946e+01
2.055657711895e+01
2.892486064711e+00
2.413841424964e+01
2.365737164049e+01
2.901949860077e+01
3.494557249624e+00
3.000528677136e+01
1.681084486974e+01
1.452767007297e+01
1.543965540418e+00
2.213572729386e+01
1.341508950739e+01
2.216432376061e+01
1.412166799345e+01
2.234264102631e+01
2.416865097588e+01
2.453605133202e+01
1.985941967874e+01
2.314549854542e+01
1.645634437517e+01
2.071163519280e+01
2.667948155478e+01
2.034059138400e+01
8.912098087306e+00
2.837997440785e+01
1.594075237501e+01
2.094559083151e+01
2.071366322963e+01
2.443071968469e+01
2.235112126086e+01
1.978006627379e+01
2.251878318059e+01
1.969057064914e+01
2.504142758262e+01
2.657392540443e+01
2.067633408380e+01
1.925188806268e+01
1.459410547178e+01
1.348865839288e+01
2.131351932529e+01
2.999625061245e+01
2.082487207496e+01
1.773599158255e+01
2.468824441174e+01
1.861298596144e+01
2.565770541518e+01
2.453081835547e+01
2.461316524588e+01
1.943151412026e+01
2.661042033805e+01
2.520904297399e+01
2.459764440722e+01
1.095839490548e+01
1.862863003078e+01
2.191041933403e+01
2.471733198649e+01
1.860721599186e+01
1.558819746516e+01
1.699971505570e+01
1.605413507195e+01
-2.153382105750e+01
2.414753898434e+01
1.472991137250e+01
1.569837272515e+01
2.067874874039e+01
2.470259402237e+01
2.123092827738e+01
2.692862521690e+01
-5.816945690356e+00
2.105030686072e+01
1.276579456949e+01
2.365873928517e+01
2.591939054739e+01
9.676482473888e+00
1.743211757688e+01
2.860054881237e+01
6.369895641961e-01
2.894365346073e+01
2.049844607570e+01
1.672932948630e+01
9.069901262521e+00
1.973671977357e+01
1.975443732232e+01
2.364363690541e+01
2.152541567895e+01
1.505435587295e+01
2.603590579489e+01
1.040834998783e+01
5.815827925303e+00
2.182713729323e+01
1.960951764002e+01
5.836477135527e+00
1.756642136781e+01
2.038899586375e+01
2.739343411536e+01
2.504970306908e+01
2.247371938172e+01
8.986273154294e+00
1.420860431245e+01
2.000455788587e+01
2.022296849889e+01
2.682685437350e+01
2.206855455577e+01
2.417030268223e+01
5.365310568249e+00
2.794429868641e+01
1.571908430093e+01
2.379785420646e+01
2.092430559765e+01
2.105139038826e+01
2.561694753886e+01
7.636619100122e-01
8.252213667734e+00
2.567372588035e+01
2.249730202680e+01
2.400325656471e+01
2.536006941280e+01
2.413802139232e+01
2.608158092010e+01
2.316728199125e+01
1.629752830160e+01
2.387665977367e+01
1.685529529635e+01
1.527855078448e+01
1.826437903590e+01
2.070392451967e+01
5.954270709597e+00
2.302160588864e+01
1.804837621725e+01
2.363250409345e+01
2.058059206109e+01
2.730839461877e+01
2.584802063516e+01
2.343863350148e+01
1.328553434943e+00
1.696883409490e+01
2.002707832242e+01
2.327560756969e+01
1.824448010801e+01
6.525363886910e+00
1.882729665565e+01
2.017040441288e+01
1.253975922823e+01
2.314657126596e+01
-4.072335449561e+00
1.380859489629e+00
5.616009897740e+00
6.747490982510e+00
2.752627931737e+01
1.778108854550e+01
1.770032782071e+01
9.801484157714e+00
2.205237094271e+01
1.910586433446e+01
1.773627334784e+01
1.703980782285e+01
1.858238637749e+01
1.800930056480e+01
2.159082073235e+01
1.750156140089e+01
1.467487754954e+01
2.153132119057e+01
6.188783987146e+00
1.398004875900e+00
2.287584887615e+01
-6.111533990163e+00
-2.031921158636e+01
1.842474987873e+01
-6.111055718897e+00
1.758476757624e+01
2.239565884718e+01
-6.194988555484e+00
8.710422655898e+00
1.777961170662e+01
6.366892870541e+00
1.717259817275e+01
2.056980585517e+01
1.844062548362e+01
2.868829857368e+01
6.076421996817e+00
1.856330904675e+01
2.362152179807e+01
2.190755832724e+01
1.431491603003e+01
2.193354130910e+01
2.463529292716e+01
2.091775710933e+01
2.666967614304e+01
5.591619298037e+00
2.201006930046e+01
1.818546521276e+01
1.801468693925e+01
8.156528226173e-01
7.744210078817e+00
2.030624124535e+01
2.015225664071e+01
1.702555925965e+01
2.396883182980e+01
2.382415239854e+01
-6.151467027911e+00
1.780915760584e+01
1.822915241477e+01
1.845631417306e+01
8.873697660720e+01
-5.067789968957e+01
-4.647975013292e+00
-5.982098177234e+00
2.055906291615e+01
2.064601813417e+01
-1.975249624503e+01
9.574695924150e+00
2.079790191847e+01
2.259781052425e+01
9.216444547310e+00
2.105354303572e+01
2.013646237973e+01
1.959114235292e+01
1.112359119570e+01
1.549633514164e+01
2.416552143428e+01
5.580794383329e+00
1.915076369333e+01
1.995972498759e+01
1.660384259599e+01
1.944416040035e+01
8.389478159093e+00
2.200285260540e+01
1.910125234922e+01
1.844461461893e+01
-5.925217235186e+00
2.479077819961e+01
1.810066201941e+01
1.469750315898e+01
-2.013031284025e+01
2.144940351039e+01
2.395013478262e+01
1.548749361865e+01
1.261179069599e+01
2.066797874374e+01
2.225871302472e+01
2.227527110529e+01
2.038077645765e+01
2.216536793915e+01
2.208569175002e+01
1.941774982993e+01
5.852789511517e+00
2.484557633334e+01
1.719173315881e+01
2.181457199269e+01
4.501704337068e+00
-3.557611422659e+00
2.276157737708e+01
1.311749362841e+01
1.661365544912e+01
1.754394754909e+01
9.138185970514e+00
2.269647322603e+01
5.128504919467e+00
2.184087443152e+01
2.316078019552e+01
6.520631181258e+00
2.177673572789e+01
1.813198574595e+01
1.766842503474e+01
2.473411497839e+01
1.712285767544e+01
2.146912710528e+01
2.298574729181e+01
2.335812019762e+01
2.059274844841e+01
1.818547693500e+01
8.232927178913e+00
2.152525468776e+01
1.904509793785e+01
8.474942313571e+00
2.066997232303e+01
2.268706302642e+01
2.082704556979e+01
1.468811852218e+01
2.179169505525e+01
2.169547742814e+01
2.186761058298e+01
1.684987016428e+01
2.085514179208e+01
9.015935157392e-01
1.691450504732e+01
-2.972609583198e+00
1.615257615823e+01
1.272698063696e+01
5.608145709876e-01
2.805374045730e+01
1.933321437138e+01
1.787087563054e+01
1.707486637940e+01
2.260656970137e+01
8.161102069818e+00
-1.977500147668e+01
2.184244547863e+01
-1.581712764045e+01
2.870221195346e+00
3.023703747524e+01
1.890687055624e+01
2.071537730624e+01
1.845497035440e+01
9.722760711431e+00
1.830794288500e+01
2.154403137284e+01
2.278980496414e+01
2.254526827450e+01
2.143768125125e+01
2.001744317562e+01
-4.163532624915e+00
1.953161949123e+01
2.081369518043e+01
-7.563544716088e-01
3.741414430486e+00
2.601914188018e+01
-6.629686182000e+00
2.117935150959e+01
2.093776797122e+01
1.724920213940e+01
2.186933262301e+01
2.283697302868e+01
9.863226488469e+00
1.905280949815e+01
2.394773507877e+01
-6.455678068171e+00
1.112359597636e+01
-1.876510912416e+01
2.076282063699e+01
3.382344726561e+00
5.848030422919e+00
1.880570706391e+01
2.079047394201e+01
1.709051388035e+01
1.852044830265e+01
1.599431338782e+01
1.862545680140e+01
2.117081903566e+01
1.826756239872e+01
2.070964026890e+01
4.336800730625e-01
2.213294740619e+01
5.315511282371e+00
1.761353580128e+01
-2.174350305931e+01
2.134900963455e+01
1.841035890061e+01
1.712345166812e+01
2.232636213834e+01
1.395565378286e+01
1.789101468546e+01
2.115076655840e+01
1.164614619378e+01
2.079178778270e+01
1.779071805328e+01
1.281202996311e+01
2.026347796804e+01
1.745186357372e+01
-6.160715209344e+00
2.253977725322e+01
1.784728290645e+01
8.614375563016e+01
-5.893199805108e+00
2.062185782050e+01
8.509631709224e+00
2.307819273274e+01
1.802144415368e+01
1.767378570726e+01
8.596306620322e+00
2.506556691824e+01
1.983652610342e+01
1.549710404974e+01
7.794848619791e+00
1.830155771334e+01
1.099086300543e+01
1.396704221685e+01
9.089436221007e+00
2.232855197141e+01
1.994422437014e+01
3.499586537224e+01
1.701017335547e+01
1.948884385818e+01
2.000904158916e+01
2.255466122209e+01
1.927621542754e+01
1.951767887497e+01
-6.979679438966e+00
2.120570220422e+01
2.159940561623e+01
2.624575672822e+01
1.784732116779e+01
2.060727639949e+01
7.868369677697e-01
1.094552448441e+01
1.920539875424e+01
1.931424115971e+01
1.959252471566e+01
2.322605817501e+01
9.173242131436e+00
2.147050558575e+01
5.478601458022e+00
1.796379269898e+01
2.290023844970e+01
9.071197291456e+00
1.985071353602e+01
2.263365716292e+01
2.258845444756e+01
2.684585403289e+01
1.978227585530e+01
2.054763186700e+01
-5.153247341923e+00
1.891786985057e+01
2.485210782871e+01
1.995433392822e+01
-2.938608640089e+01
-3.078107335736e+01
-3.024709674960e+01
-3.067185903664e+01
-3.038475877911e+01
-3.075802848762e+01
-3.050227498171e+01
-3.106517615391e+01
-3.039342859495e+01
-3.157682428941e+01
-3.051227136132e+01
-3.232020871114e+01
-3.047484885450e+01
-1.850753418028e+01
-3.329453446882e+01
-3.055552328504e+01
-3.348214236746e+01
-3.430543382524e+01
-3.037835616217e+01
-1.337157108750e+01
-3.563803452378e+01
-3.025307073605e+01
-3.725219515783e+01
-2.974940630747e+01
-3.879668117654e+01
-9.161228770987e-02
-2.867907564605e+01
-4.011744448026e+01
-4.081320861937e+01
-2.710345238193e+01
-3.974192115171e+01
-2.471700617382e+01
-3.548286198198e+01
-2.126515409874e+01
1.056974436113e-01
-2.783898373153e+01
-2.901695079395e+01
-3.002182202607e+01
-2.687849113864e+01
4.989353621270e+00
-2.097697723057e+01
-2.004183657477e+01
-2.006852175472e+01
-1.993642442270e+01
-1.992900677772e+01
-1.970172713013e+01
-1.972521954418e+01
-1.981334051823e+01
-1.995771594146e+01
-1.962003515291e+01
-1.983108009337e+01
-1.956576649709e+01
-9.148154408102e+00
-1.990939938188e+01
-1.074794610199e+01
-1.909563894916e+01
-1.987765679189e+01
-1.923908120435e+01
-2.007229329806e+01
-1.857212038567e+01
-1.986906013310e+01
-1.787672894544e+01
-1.404686097686e+01
-1.965982568770e+01
-1.688148225630e+01
-1.913786585030e+01
-1.541707895094e+01
-1.349368535186e+01
-1.762993764208e+01
-1.500007903717e+01
-5.784454072974e+00
-9.888959443575e+00
-1.869799154049e+01
-1.914004524195e+01
-1.511210856946e+01
-2.311036187127e+01
-7.235432686544e+00


