# vtk DataFile Version 2.0
Calculation C:\Users\johan\Documents\GitHub\TOCHNOG\standsicherheit_phiC at time 1.146985220195e+01 
ASCII
DATASET UNSTRUCTURED_GRID
Field FieldData 1
Time 1 1 double
1.146985220195e+01

POINTS 1028 float
0.0 0.0 0.0 
5.000000000000e+01 -1.000000000000e+01 0.0 
0.0 -2.000000000000e+01 0.0 
5.000000000000e+01 -2.000000000000e+01 0.0 
0.0 -9.999999999991e-01 0.0 
0.0 -1.999999999998e+00 0.0 
0.0 -2.999999999997e+00 0.0 
0.0 -3.999999999994e+00 0.0 
0.0 -4.999999999991e+00 0.0 
0.0 -5.999999999988e+00 0.0 
0.0 -6.999999999985e+00 0.0 
0.0 -7.999999999982e+00 0.0 
0.0 -8.999999999983e+00 0.0 
0.0 -9.999999999985e+00 0.0 
0.0 -1.099999999999e+01 0.0 
0.0 -1.199999999999e+01 0.0 
0.0 -1.299999999999e+01 0.0 
0.0 -1.399999999999e+01 0.0 
0.0 -1.499999999999e+01 0.0 
0.0 -1.599999999999e+01 0.0 
0.0 -1.700000000000e+01 0.0 
0.0 -1.800000000000e+01 0.0 
0.0 -1.900000000000e+01 0.0 
4.900000000001e+01 -2.000000000000e+01 0.0 
4.800000000001e+01 -2.000000000000e+01 0.0 
4.700000000002e+01 -2.000000000000e+01 0.0 
4.600000000003e+01 -2.000000000000e+01 0.0 
4.500000000004e+01 -2.000000000000e+01 0.0 
4.400000000004e+01 -2.000000000000e+01 0.0 
4.300000000005e+01 -2.000000000000e+01 0.0 
4.200000000006e+01 -2.000000000000e+01 0.0 
4.100000000006e+01 -2.000000000000e+01 0.0 
4.000000000007e+01 -2.000000000000e+01 0.0 
3.900000000008e+01 -2.000000000000e+01 0.0 
3.800000000009e+01 -2.000000000000e+01 0.0 
3.700000000009e+01 -2.000000000000e+01 0.0 
3.600000000010e+01 -2.000000000000e+01 0.0 
3.500000000011e+01 -2.000000000000e+01 0.0 
3.400000000011e+01 -2.000000000000e+01 0.0 
3.300000000012e+01 -2.000000000000e+01 0.0 
3.200000000013e+01 -2.000000000000e+01 0.0 
3.100000000013e+01 -2.000000000000e+01 0.0 
3.000000000013e+01 -2.000000000000e+01 0.0 
2.900000000013e+01 -2.000000000000e+01 0.0 
2.800000000013e+01 -2.000000000000e+01 0.0 
2.700000000013e+01 -2.000000000000e+01 0.0 
2.600000000013e+01 -2.000000000000e+01 0.0 
2.500000000013e+01 -2.000000000000e+01 0.0 
2.400000000013e+01 -2.000000000000e+01 0.0 
2.300000000013e+01 -2.000000000000e+01 0.0 
2.200000000013e+01 -2.000000000000e+01 0.0 
2.100000000013e+01 -2.000000000000e+01 0.0 
2.000000000013e+01 -2.000000000000e+01 0.0 
1.900000000013e+01 -2.000000000000e+01 0.0 
1.800000000013e+01 -2.000000000000e+01 0.0 
1.700000000012e+01 -2.000000000000e+01 0.0 
1.600000000011e+01 -2.000000000000e+01 0.0 
1.500000000011e+01 -2.000000000000e+01 0.0 
1.400000000010e+01 -2.000000000000e+01 0.0 
1.300000000009e+01 -2.000000000000e+01 0.0 
1.200000000009e+01 -2.000000000000e+01 0.0 
1.100000000008e+01 -2.000000000000e+01 0.0 
1.000000000007e+01 -2.000000000000e+01 0.0 
9.000000000064e+00 -2.000000000000e+01 0.0 
8.000000000057e+00 -2.000000000000e+01 0.0 
7.000000000050e+00 -2.000000000000e+01 0.0 
6.000000000043e+00 -2.000000000000e+01 0.0 
5.000000000036e+00 -2.000000000000e+01 0.0 
4.000000000028e+00 -2.000000000000e+01 0.0 
3.000000000021e+00 -2.000000000000e+01 0.0 
2.000000000014e+00 -2.000000000000e+01 0.0 
1.000000000007e+00 -2.000000000000e+01 0.0 
5.000000000000e+01 -1.100000000000e+01 0.0 
5.000000000000e+01 -1.200000000000e+01 0.0 
5.000000000000e+01 -1.300000000000e+01 0.0 
5.000000000000e+01 -1.400000000000e+01 0.0 
5.000000000000e+01 -1.500000000000e+01 0.0 
5.000000000000e+01 -1.600000000000e+01 0.0 
5.000000000000e+01 -1.700000000000e+01 0.0 
5.000000000000e+01 -1.800000000000e+01 0.0 
5.000000000000e+01 -1.900000000000e+01 0.0 
2.000000000000e+01 0.0 0.0 
3.500000000000e+01 -1.000000000000e+01 0.0 
2.150000000000e+01 -1.000000000000e+00 0.0 
2.300000000000e+01 -2.000000000000e+00 0.0 
2.450000000000e+01 -3.000000000000e+00 0.0 
2.600000000000e+01 -4.000000000000e+00 0.0 
2.750000000000e+01 -5.000000000000e+00 0.0 
2.900000000000e+01 -6.000000000000e+00 0.0 
3.050000000000e+01 -7.000000000000e+00 0.0 
3.200000000000e+01 -8.000000000000e+00 0.0 
3.350000000000e+01 -9.000000000000e+00 0.0 
4.900000000000e+01 -1.000000000000e+01 0.0 
4.800000000000e+01 -1.000000000000e+01 0.0 
4.700000000000e+01 -1.000000000000e+01 0.0 
4.600000000000e+01 -1.000000000000e+01 0.0 
4.500000000000e+01 -1.000000000000e+01 0.0 
4.400000000000e+01 -1.000000000000e+01 0.0 
4.300000000000e+01 -1.000000000000e+01 0.0 
4.200000000000e+01 -1.000000000000e+01 0.0 
4.100000000000e+01 -1.000000000000e+01 0.0 
4.000000000000e+01 -1.000000000000e+01 0.0 
3.900000000000e+01 -1.000000000000e+01 0.0 
3.800000000000e+01 -1.000000000000e+01 0.0 
3.700000000000e+01 -1.000000000000e+01 0.0 
3.600000000000e+01 -1.000000000000e+01 0.0 
1.900000000000e+01 0.0 0.0 
1.800000000000e+01 0.0 0.0 
1.700000000000e+01 0.0 0.0 
1.600000000000e+01 0.0 0.0 
1.500000000000e+01 0.0 0.0 
1.400000000000e+01 0.0 0.0 
1.300000000000e+01 0.0 0.0 
1.200000000000e+01 0.0 0.0 
1.100000000000e+01 0.0 0.0 
1.000000000000e+01 0.0 0.0 
9.000000000000e+00 0.0 0.0 
8.000000000000e+00 0.0 0.0 
7.000000000000e+00 0.0 0.0 
6.000000000000e+00 0.0 0.0 
5.000000000000e+00 0.0 0.0 
4.000000000000e+00 0.0 0.0 
3.000000000000e+00 0.0 0.0 
2.000000000000e+00 0.0 0.0 
1.000000000000e+00 0.0 0.0 
2.075000000000e+01 -5.000000000006e-01 0.0 
2.225000000000e+01 -1.500000000000e+00 0.0 
2.375000000000e+01 -2.500000000000e+00 0.0 
2.525000000000e+01 -3.500000000000e+00 0.0 
2.675000000000e+01 -4.500000000000e+00 0.0 
2.825000000000e+01 -5.500000000000e+00 0.0 
2.975000000000e+01 -6.500000000000e+00 0.0 
3.125000000000e+01 -7.500000000000e+00 0.0 
3.275000000000e+01 -8.500000000000e+00 0.0 
3.425000000000e+01 -9.500000000000e+00 0.0 
2.226951693683e+01 -2.403913980114e+00 0.0 
1.650149491944e+01 -1.913490915758e+01 0.0 
1.050042386896e+01 -8.504605092970e-01 0.0 
1.553146524712e+01 -8.281255032105e-01 0.0 
1.150000000008e+01 -1.913397459621e+01 0.0 
2.530060260647e+01 -4.428336431260e+00 0.0 
8.651114563942e-01 -1.052096295641e+01 0.0 
2.050000000013e+01 -1.913397459622e+01 0.0 
2.819198729811e+01 -6.399519052838e+00 0.0 
2.445670302931e+01 -1.915649188023e+01 0.0 
3.117591465718e+01 -8.394293040695e+00 0.0 
7.465053044742e+00 -1.920411160581e+01 0.0 
6.398295709691e+00 -8.230098819370e-01 0.0 
2.849659607461e+01 -1.914296187762e+01 0.0 
3.418732642882e+01 -1.040265792588e+01 0.0 
8.386450935063e-01 -6.533605142809e+00 0.0 
9.178661865596e-01 -1.329769195597e+01 0.0 
3.149448624493e+01 -1.910466733764e+01 0.0 
3.552916747426e+01 -1.914628590759e+01 0.0 
4.449210346537e+01 -1.914359085008e+01 0.0 
4.140975975145e+01 -1.906941860733e+01 0.0 
3.847475958753e+01 -1.916622382724e+01 0.0 
3.653774794640e+01 -1.088712800241e+01 0.0 
4.047886341787e+01 -1.090139014048e+01 0.0 
4.348006339825e+01 -1.092792621489e+01 0.0 
4.919519968029e+01 -1.451526755068e+01 0.0 
4.500000000032e+00 -1.913397459621e+01 0.0 
1.856136921614e+01 -8.212235170404e-01 0.0 
3.499895312306e+00 -8.661165539723e-01 0.0 
9.076088696565e-01 -1.642306201891e+01 0.0 
4.655174095477e+01 -1.086183387525e+01 0.0 
9.430688970604e-01 -3.496112672958e+00 0.0 
3.353992337063e+01 -1.901202090820e+01 0.0 
2.249746016977e+01 -1.921262287282e+01 0.0 
2.650122741777e+01 -1.916123026018e+01 0.0 
1.863571384842e+01 -1.908325534840e+01 0.0 
1.450089971693e+01 -1.917691901860e+01 0.0 
1.350044695317e+01 -8.659695299584e-01 0.0 
3.849987469880e+01 -1.084154983397e+01 0.0 
9.454419857884e+00 -1.900818879936e+01 0.0 
4.917398660523e+01 -1.645692866081e+01 0.0 
8.500000000000e+00 -8.660254037844e-01 0.0 
8.660319230785e-01 -8.500111697188e+00 0.0 
4.649022621545e+01 -1.930506220113e+01 0.0 
2.667688107845e+01 -5.420288124331e+00 0.0 
2.379251615665e+01 -3.412225477429e+00 0.0 
2.966631491830e+01 -7.389030232731e+00 0.0 
3.267915035995e+01 -9.396934932445e+00 0.0 
2.074836922338e+01 -1.320054020319e+00 0.0 
4.915985743621e+01 -1.261973384855e+01 0.0 
2.527129768623e+00 -1.931592414663e+01 0.0 
1.538676247410e+00 -8.436956619311e-01 0.0 
4.908096641539e+01 -1.842484004551e+01 0.0 
3.478612492673e+01 -1.090889364140e+01 0.0 
3.409757055860e+01 -1.131991530427e+01 0.0 
3.501895309466e+01 -1.177687842717e+01 0.0 
3.407758073088e+01 -1.224293381580e+01 0.0 
3.484541875390e+01 -1.277051428430e+01 0.0 
3.400322025842e+01 -1.319022775640e+01 0.0 
3.321672625034e+01 -1.266779191233e+01 0.0 
3.315244139236e+01 -1.360984106532e+01 0.0 
3.236335186892e+01 -1.308463225210e+01 0.0 
3.478337442841e+01 -1.372341158982e+01 0.0 
3.230105923633e+01 -1.403023731610e+01 0.0 
3.150954055289e+01 -1.350301767700e+01 0.0 
3.144604792090e+01 -1.444931742516e+01 0.0 
3.065653897123e+01 -1.392357262981e+01 0.0 
3.071897610812e+01 -1.297447031198e+01 0.0 
2.986790411740e+01 -1.339226181535e+01 0.0 
2.993181466745e+01 -1.244703272398e+01 0.0 
2.908023061869e+01 -1.286254537734e+01 0.0 
2.901619051372e+01 -1.380881655279e+01 0.0 
2.822986160390e+01 -1.327695262116e+01 0.0 
2.829453476870e+01 -1.233265343811e+01 0.0 
2.744542905518e+01 -1.274510491105e+01 0.0 
2.751120089246e+01 -1.180368086886e+01 0.0 
2.666218649885e+01 -1.221619339205e+01 0.0 
2.672371209234e+01 -1.127125228527e+01 0.0 
2.587763216302e+01 -1.168539979114e+01 0.0 
2.581165585299e+01 -1.262994410089e+01 0.0 
2.502890882577e+01 -1.209827323619e+01 0.0 
2.509631327757e+01 -1.115492410304e+01 0.0 
2.424662989877e+01 -1.156630981079e+01 0.0 
2.431704046904e+01 -1.062389179334e+01 0.0 
2.346445438728e+01 -1.103427680694e+01 0.0 
2.339382552877e+01 -1.197964871788e+01 0.0 
2.260936050780e+01 -1.144513277642e+01 0.0 
2.268075012022e+01 -1.049911928216e+01 0.0 
2.182525737661e+01 -1.090920811464e+01 0.0 
2.189682319817e+01 -9.961716944568e+00 0.0 
2.104174127792e+01 -1.037266986667e+01 0.0 
2.111304367575e+01 -9.424179358711e+00 0.0 
2.025306185381e+01 -9.832727364719e+00 0.0 
2.018141124247e+01 -1.079140628871e+01 0.0 
1.938594498257e+01 -1.025147354112e+01 0.0 
1.946106490453e+01 -9.288010758448e+00 0.0 
1.858929958352e+01 -9.706319802516e+00 0.0 
1.851540991219e+01 -1.067205988724e+01 0.0 
1.771485303178e+01 -1.012504443115e+01 0.0 
1.764134552256e+01 -1.109360378538e+01 0.0 
1.683745148095e+01 -1.054496365337e+01 0.0 
1.691852964353e+01 -9.582555261178e+00 0.0 
1.603603813062e+01 -1.000160132379e+01 0.0 
1.595824239350e+01 -1.096750698862e+01 0.0 
1.515080624291e+01 -1.041639501931e+01 0.0 
1.523171602559e+01 -9.451711491453e+00 0.0 
1.434621060709e+01 -9.871956467464e+00 0.0 
1.426777178765e+01 -1.083749501371e+01 0.0 
1.345775282374e+01 -1.028803175500e+01 0.0 
1.354103873368e+01 -9.324918457162e+00 0.0 
1.265072018622e+01 -9.742612837270e+00 0.0 
1.257285762070e+01 -1.071557782384e+01 0.0 
1.175874815690e+01 -1.015972324288e+01 0.0 
1.184203019714e+01 -9.193604071377e+00 0.0 
1.094927709905e+01 -9.612103238656e+00 0.0 
1.086938022910e+01 -1.058685085646e+01 0.0 
1.005424098961e+01 -1.002939116380e+01 0.0 
9.977974613295e+00 -1.101324897989e+01 0.0 
1.012915646404e+01 -9.051815821181e+00 0.0 
9.237127782494e+00 -9.471239055559e+00 0.0 
9.308426593771e+00 -8.483376461131e+00 0.0 
8.418806073345e+00 -8.910712374517e+00 0.0 
2.253688464062e+01 -1.239459402279e+01 0.0 
8.495126726666e+00 -7.921646665254e+00 0.0 
9.389727383206e+00 -7.512103628377e+00 0.0 
7.601560812974e+00 -8.349460349344e+00 0.0 
7.525680547759e+00 -9.339736686940e+00 0.0 
7.677888324502e+00 -7.359727833346e+00 0.0 
6.782001206724e+00 -7.788454494773e+00 0.0 
6.858778622885e+00 -6.797338062822e+00 0.0 
2.196596590865e+01 -8.979025665442e+00 0.0 
2.816540108272e+01 -1.422634142353e+01 0.0 
5.961601194403e+00 -7.226824010712e+00 0.0 
6.038171749656e+00 -6.234825887079e+00 0.0 
6.936257279557e+00 -5.805287640737e+00 0.0 
6.115068918323e+00 -5.242109758768e+00 0.0 
3.564391741903e+01 -1.329240553876e+01 0.0 
3.558115605778e+01 -1.425902892003e+01 0.0 
3.645445282201e+01 -1.381970786460e+01 0.0 
3.639744204358e+01 -1.479198128612e+01 0.0 
3.727266909778e+01 -1.435399586226e+01 0.0 
5.216667013081e+00 -5.671788584287e+00 0.0 
3.220697293295e+01 -1.499594545107e+01 0.0 
3.551112158269e+01 -1.523479869250e+01 0.0 
2.836056961467e+01 -1.139032434851e+01 0.0 
2.516730388602e+01 -1.021382726837e+01 0.0 
1.844436907403e+01 -1.164097215196e+01 0.0 
5.885434318740e+00 -8.218694781467e+00 0.0 
5.064071066867e+00 -7.656614643901e+00 0.0 
4.988089103470e+00 -8.649722082718e+00 0.0 
1.079421050408e+01 -1.157014985435e+01 0.0 
9.902420005256e+00 -1.199903342656e+01 0.0 
1.071994252214e+01 -1.255727909771e+01 0.0 
9.826974788171e+00 -1.298659581767e+01 0.0 
1.064607883789e+01 -1.354595476388e+01 0.0 
9.751541265343e+00 -1.397556905071e+01 0.0 
8.932296185869e+00 -1.341553353988e+01 0.0 
8.856399248106e+00 -1.440570715508e+01 0.0 
8.036186803543e+00 -1.384470558472e+01 0.0 
1.057112875118e+01 -1.453516759081e+01 0.0 
1.146582585687e+01 -1.410539926903e+01 0.0 
7.959894480382e+00 -1.483563350928e+01 0.0 
7.138792279156e+00 -1.427465094140e+01 0.0 
7.062506792418e+00 -1.526615385482e+01 0.0 
6.240693558277e+00 -1.470508863040e+01 0.0 
6.316957575451e+00 -1.371212581281e+01 0.0 
5.418183007107e+00 -1.414253605022e+01 0.0 
5.494748364428e+00 -1.314886770603e+01 0.0 
1.756825565873e+01 -1.206433872514e+01 0.0 
1.837565773345e+01 -1.261356468266e+01 0.0 
1.749574831391e+01 -1.303769280014e+01 0.0 
1.830539187332e+01 -1.358828364284e+01 0.0 
1.742278925170e+01 -1.401367746928e+01 0.0 
1.823303007798e+01 -1.456432294258e+01 0.0 
1.734941694138e+01 -1.499213734361e+01 0.0 
1.653760041637e+01 -1.443920312098e+01 0.0 
3.056237977307e+01 -1.487132260174e+01 0.0 
1.866469084762e+01 -8.742953000418e+00 0.0 
1.953669694916e+01 -8.326038909849e+00 0.0 
1.874194303780e+01 -7.780688158966e+00 0.0 
1.961032016741e+01 -7.366854697285e+00 0.0 
1.881715755159e+01 -6.821102209649e+00 0.0 
1.968369797150e+01 -6.407747217358e+00 0.0 
1.889237123259e+01 -5.858375520026e+00 0.0 
1.802038875366e+01 -6.276202618170e+00 0.0 
1.809793837984e+01 -5.307629520489e+00 0.0 
1.721985207997e+01 -5.728242054488e+00 0.0 
1.729850893523e+01 -4.756990819347e+00 0.0 
1.641745664240e+01 -5.174636548624e+00 0.0 
2.495978509456e+01 -1.304406404294e+01 0.0 
1.911567814831e+01 -1.413854250293e+01 0.0 
1.904387332608e+01 -1.511463127723e+01 0.0 
1.992115934240e+01 -1.468788025898e+01 0.0 
7.013706899628e+00 -4.812582868662e+00 0.0 
5.342091874585e+00 -1.513658157269e+01 0.0 
1.139098043784e+01 -1.509488509480e+01 0.0 
1.228151810610e+01 -1.465617481983e+01 0.0 
1.646373110164e+01 -1.541993323337e+01 0.0 
5.293328636712e+00 -4.678385108584e+00 0.0 
1.975965862987e+01 -5.448124345648e+00 0.0 
2.054318374236e+01 -5.992561293251e+00 0.0 
3.721453439063e+01 -1.533216152738e+01 0.0 
3.809302733893e+01 -1.489235527381e+01 0.0 
1.220852788900e+01 -1.565304565230e+01 0.0 
4.394120899730e+00 -5.108397613210e+00 0.0 
8.779354620288e+00 -1.539524721159e+01 0.0 
1.817791047702e+01 -4.338570146253e+00 0.0 
4.518860013839e+00 -1.457343189307e+01 0.0 
4.442712140414e+00 -1.556841391069e+01 0.0 
8.115343466391e+00 -1.285760324283e+01 0.0 
1.985334703171e+01 -1.566478400426e+01 0.0 
2.071953850276e+01 -1.522074243119e+01 0.0 
1.634012953883e+01 -6.154777738301e+00 0.0 
1.553479994708e+01 -5.593730508879e+00 0.0 
1.561265946942e+01 -4.617761762647e+00 0.0 
1.470674212978e+01 -5.064576488228e+00 0.0 
1.464498299883e+01 -6.026514471420e+00 0.0 
1.383271561817e+01 -5.467796261169e+00 0.0 
1.389241253067e+01 -4.504338666645e+00 0.0 
1.301868735463e+01 -4.907185188626e+00 0.0 
1.294514184846e+01 -5.888160903592e+00 0.0 
1.212955968622e+01 -5.328262335277e+00 0.0 
1.220721122383e+01 -4.341264976687e+00 0.0 
1.131324345897e+01 -4.766773516508e+00 0.0 
5.266597955397e+00 -1.613148974258e+01 0.0 
1.737805990867e+01 -3.786677807525e+00 0.0 
3.078438094513e+01 -1.203225297748e+01 0.0 
1.131569882285e+01 -1.608511932110e+01 0.0 
1.728478341782e+01 -1.596017432313e+01 0.0 
3.803465906019e+01 -1.587509751228e+01 0.0 
3.891681276677e+01 -1.543395196905e+01 0.0 
3.897340985302e+01 -1.444710288980e+01 0.0 
3.980095968193e+01 -1.499059496613e+01 0.0 
3.974334598189e+01 -1.597921884150e+01 0.0 
4.062964983717e+01 -1.553518690417e+01 0.0 
4.068729602479e+01 -1.454434445295e+01 0.0 
4.151772679790e+01 -1.508974196007e+01 0.0 
4.157505195739e+01 -1.409694289912e+01 0.0 
4.240699932656e+01 -1.464347955968e+01 0.0 
4.234898051011e+01 -1.563721375790e+01 0.0 
4.323934606035e+01 -1.519082036405e+01 0.0 
4.329740528208e+01 -1.419587509788e+01 0.0 
4.413056841369e+01 -1.474359631875e+01 0.0 
4.418850110108e+01 -1.374786684042e+01 0.0 
4.502219770667e+01 -1.429605103525e+01 0.0 
4.496411937907e+01 -1.529215882720e+01 0.0 
4.490027319897e+00 -4.154167794594e+00 0.0 
1.565080385988e+01 -1.486411982419e+01 0.0 
1.557610691279e+01 -1.584855627870e+01 0.0 
4.195350646612e+00 -8.089117689096e+00 0.0 
4.124027797830e+00 -9.082831955007e+00 0.0 
4.917944318925e+00 -9.643530901533e+00 0.0 
4.020105689502e+00 -1.007439673661e+01 0.0 
4.587185899277e+01 -1.484039992728e+01 0.0 
4.580078661551e+01 -1.584043391042e+01 0.0 
2.061956522375e+01 -5.046701343981e+00 0.0 
2.139572955529e+01 -5.579553449826e+00 0.0 
3.715344357292e+01 -1.631485124583e+01 0.0 
3.618886196443e+00 -1.500471207167e+01 0.0 
3.695606940204e+00 -1.400939692294e+01 0.0 
2.438890661143e+01 -9.686110599723e+00 0.0 
2.523267572778e+01 -9.276766000622e+00 0.0 
2.446094171539e+01 -8.751904591412e+00 0.0 
2.529089822738e+01 -8.321495612547e+00 0.0 
2.606882688827e+01 -8.864724051119e+00 0.0 
2.452116646430e+01 -7.792756462004e+00 0.0 
1.235543269617e+01 -1.365845617339e+01 0.0 
4.318116874181e+01 -1.618567469992e+01 0.0 
7.835066111909e+00 -5.376366223896e+00 0.0 
7.905687335704e+00 -4.382539065697e+00 0.0 
3.542640009567e+00 -1.600035116542e+01 0.0 
1.572431503071e+01 -1.388358386695e+01 0.0 
2.574684696680e+01 -1.357896141127e+01 0.0 
2.488842657651e+01 -1.399674354505e+01 0.0 
2.568301775611e+01 -1.453552048595e+01 0.0 
2.481535572009e+01 -1.495542756508e+01 0.0 
2.561729699688e+01 -1.549784648532e+01 0.0 
2.474623061296e+01 -1.592058894178e+01 0.0 
2.394234041695e+01 -1.537572575827e+01 0.0 
2.065825452567e+01 -1.621899055217e+01 0.0 
2.387180528935e+01 -1.634552264687e+01 0.0 
4.585364400844e+01 -1.383912334080e+01 0.0 
1.998744432052e+01 -1.370317155541e+01 0.0 
1.205356951443e+01 -6.313580285498e+00 0.0 
5.396543905849e+00 -3.731818611283e+00 0.0 
1.139652573295e+01 -3.745819399350e+00 0.0 
3.574124306703e+00 -4.551456826011e+00 0.0 
3.494140761930e+00 -5.539787055649e+00 0.0 
1.213651452413e+01 -1.664505033022e+01 0.0 
2.555045568519e+01 -1.646529356744e+01 0.0 
2.641671114986e+01 -1.603899382371e+01 0.0 
2.612920721894e+01 -7.906435260873e+00 0.0 
2.690339829698e+01 -8.456969591431e+00 0.0 
1.978024383368e+01 -1.664410216353e+01 0.0 
3.732829979082e+01 -1.336926601859e+01 0.0 
4.074336584605e+01 -1.355133328401e+01 0.0 
4.163204691081e+01 -1.310280943992e+01 0.0 
3.773826114429e+00 -3.493444309145e+00 0.0 
1.228783001032e+01 -3.374822835872e+00 0.0 
4.057110462520e+01 -1.652588478000e+01 0.0 
2.132535497898e+01 -6.523623360525e+00 0.0 
2.216932532211e+01 -6.110044769206e+00 0.0 
1.825781152128e+01 -3.370146817147e+00 0.0 
1.745679445888e+01 -2.812942552063e+00 0.0 
4.666517057280e+01 -1.539981381543e+01 0.0 
4.660575894464e+01 -1.639014410186e+01 0.0 
4.838230979954e+00 -1.063643436446e+01 0.0 
3.938942630206e+00 -1.106778981745e+01 0.0 
1.302967218620e+01 -1.621373452436e+01 0.0 
1.049548003190e+01 -4.204825123240e+00 0.0 
4.573571907195e+01 -1.683820511148e+01 0.0 
1.483686335807e+01 -1.430849689310e+01 0.0 
1.490982658890e+01 -1.332679386284e+01 0.0 
3.190805600162e+00 -9.510968358545e+00 0.0 
2.146625721848e+01 -4.642437303115e+00 0.0 
2.069866208266e+01 -4.111852942193e+00 0.0 
1.286859345584e+01 -6.873252723348e+00 0.0 
1.041794493184e+01 -5.194814260291e+00 0.0 
2.671081808965e+00 -4.976806516331e+00 0.0 
1.295786792925e+01 -1.720506531799e+01 0.0 
3.968438206511e+01 -1.696869067241e+01 0.0 
2.308550456051e+01 -1.579963151273e+01 0.0 
2.315593682844e+01 -1.482967445235e+01 0.0 
2.299471449450e+01 -1.677069968132e+01 0.0 
1.057344714696e+01 -3.214252277840e+00 0.0 
1.124057603753e+01 -1.707713739755e+01 0.0 
2.718402535754e+00 -1.543629882103e+01 0.0 
2.638549692805e+01 -1.696744916809e+01 0.0 
2.723416349007e+01 -1.658104204545e+01 0.0 
2.210193351704e+01 -7.046769643417e+00 0.0 
2.295180925161e+01 -6.657397605239e+00 0.0 
2.301355235833e+01 -5.709111896800e+00 0.0 
2.379052718281e+01 -6.254965406962e+00 0.0 
3.243528601237e+01 -1.214181853533e+01 0.0 
2.287977995457e+01 -7.583722368300e+00 0.0 
2.999876029544e+01 -1.150837653096e+01 0.0 
3.084435366963e+01 -1.109693775882e+01 0.0 
3.006650579669e+01 -1.057778994262e+01 0.0 
2.683802665066e+01 -9.386863216633e+00 0.0 
2.768641973621e+01 -8.988883915666e+00 0.0 
2.040296980397e+01 -7.903629133404e+00 0.0 
1.925235024054e+01 -1.218872783130e+01 0.0 
5.735667000424e+00 -1.020577277283e+01 0.0 
6.396559909872e+00 -1.272326295703e+01 0.0 
1.161199420714e+01 -1.212812778229e+01 0.0 
4.229046132615e+01 -1.663084237572e+01 0.0 
4.312275399692e+01 -1.718087491556e+01 0.0 
4.335502068163e+01 -1.320039231514e+01 0.0 
4.424630298089e+01 -1.275160688731e+01 0.0 
7.090116643816e+00 -3.818998061530e+00 0.0 
7.989472176569e+00 -3.389238711200e+00 0.0 
9.085824861778e+00 -1.144036167408e+01 0.0 
1.041972423731e+01 -1.651614080893e+01 0.0 
3.797525112640e+01 -1.686052038746e+01 0.0 
3.709114253394e+01 -1.730125999865e+01 0.0 
3.626966748340e+01 -1.675477052919e+01 0.0 
1.385164591440e+01 -1.677597757552e+01 0.0 
1.787152588784e+01 -8.198993896093e+00 0.0 
1.668849729812e+01 -1.248560611628e+01 0.0 
1.659546177905e+01 -3.232482605530e+00 0.0 
2.332214717345e+01 -1.292598167641e+01 0.0 
7.168238450786e+00 -2.824711686516e+00 0.0 
2.894878403906e+01 -1.475427524446e+01 0.0 
2.646763248247e+00 -1.643270107952e+01 0.0 
3.467431944285e+00 -1.699648837348e+01 0.0 
2.059475877282e+01 -1.719473628526e+01 0.0 
3.333868355437e+01 -1.080596971682e+01 0.0 
2.246451062637e+01 -1.334557761546e+01 0.0 
2.167821896388e+01 -1.280847834858e+01 0.0 
3.089653185767e+01 -1.017198487212e+01 0.0 
3.012604365669e+01 -9.657298805968e+00 0.0 
2.929627299435e+01 -1.006100135274e+01 0.0 
2.936201435219e+01 -9.136748899251e+00 0.0 
1.198219052702e+01 -7.291887238230e+00 0.0 
1.116702076035e+01 -6.731976101053e+00 0.0 
2.551388807505e+01 -1.746927036981e+01 0.0 
2.378639090370e+01 -1.728678807149e+01 0.0 
2.718543627188e+01 -1.748668016909e+01 0.0 
2.804681050301e+01 -1.712626668293e+01 0.0 
1.970737034667e+01 -1.762317646822e+01 0.0 
1.889535776135e+01 -1.707158098231e+01 0.0 
2.593777711283e+00 -5.971157087874e+00 0.0 
2.773468281110e+01 -8.067164273938e+00 0.0 
4.051205884347e+01 -1.751819982458e+01 0.0 
3.166903145421e+01 -1.068032992414e+01 0.0 
1.033042452886e+01 -1.748285844336e+01 0.0 
9.519274604626e+00 -1.694349240233e+01 0.0 
1.668308673328e+01 -2.255861778986e+00 0.0 
1.570531902832e+01 -2.676795860126e+00 0.0 
4.655826903379e+01 -1.736656245706e+01 0.0 
2.384148070773e+01 -5.328744256413e+00 0.0 
2.460255123641e+01 -5.852182672816e+00 0.0 
2.306638135119e+01 -4.798935440613e+00 0.0 
8.467720450578e-01 -1.849576263072e+01 0.0 
4.849657322345e+01 -1.084860705506e+01 0.0 
2.565860899507e+00 -1.742859793981e+01 0.0 
2.764418872564e+01 -9.927142821799e+00 0.0 
4.565165880064e+01 -1.785336695404e+01 0.0 
2.162231831329e+01 -1.376528337468e+01 0.0 
2.360646352969e+01 -9.136041963102e+00 0.0 
1.392738739903e+01 -1.578285505772e+01 0.0 
4.756405947478e+01 -1.683706841809e+01 0.0 
4.740895034054e+01 -1.793766756892e+01 0.0 
4.080779328826e+01 -1.257387192544e+01 0.0 
4.168907939671e+01 -1.210739129181e+01 0.0 
3.991197722154e+01 -1.300815793917e+01 0.0 
1.905536506762e+01 -3.940076697685e+00 0.0 
1.923879596617e+01 -2.875000734166e+00 0.0 
4.401386745746e+01 -1.673483229438e+01 0.0 
4.247233362525e+00 -7.094581653070e+00 0.0 
3.286051630211e+00 -7.635300020553e+00 0.0 
9.609533347623e+00 -4.594311677967e+00 0.0 
9.523554636369e+00 -5.595597029530e+00 0.0 
5.660336628893e+00 -1.119290329628e+01 0.0 
6.558070063295e+00 -1.076385809362e+01 0.0 
2.809866407414e+01 -1.518037766799e+01 0.0 
2.888868674504e+01 -1.570360690070e+01 0.0 
2.654431550819e+01 -1.411217777162e+01 0.0 
1.402158265969e+01 -1.375404617952e+01 0.0 
1.409592494026e+01 -1.277071998942e+01 0.0 
1.499355196178e+01 -1.235270737023e+01 0.0 
4.221535326155e+01 -1.759335617494e+01 0.0 
4.305583287033e+01 -1.822663146802e+01 0.0 
1.280748808359e+01 -7.834332838285e+00 0.0 
1.368988389326e+01 -7.420529606172e+00 0.0 
1.110091796060e+01 -7.683966794328e+00 0.0 
3.963446145980e+01 -1.794331310122e+01 0.0 
3.423932362213e+00 -1.796415590455e+01 0.0 
4.280814572302e+00 -1.752272834860e+01 0.0 
8.050136380041e+00 -2.421582378631e+00 0.0 
8.888674091650e+00 -2.984264211327e+00 0.0 
2.152839430898e+01 -3.732609965436e+00 0.0 
2.077799585292e+01 -3.183896021866e+00 0.0 
3.618719395821e+01 -1.770276572576e+01 0.0 
3.538165138340e+01 -1.718709995539e+01 0.0 
3.702925326420e+01 -1.828844288807e+01 0.0 
1.756739438711e+00 -5.353284859169e+00 0.0 
2.233710191104e+01 -1.527265621324e+01 0.0 
1.389483555057e+01 -1.771797164730e+01 0.0 
1.475634224300e+01 -1.728357428390e+01 0.0 
1.298797563052e+01 -1.825968924755e+01 0.0 
2.145331271866e+01 -1.673705379077e+01 0.0 
2.133282821169e+01 -1.769400773673e+01 0.0 
2.292139194136e+01 -1.774915400288e+01 0.0 
1.750750053243e+01 -1.861475593469e+00 0.0 
4.830478841772e+01 -1.752611802221e+01 0.0 
4.341203507805e+01 -1.220326745522e+01 0.0 
1.685254151866e+01 -1.443085301632e+00 0.0 
4.431538535165e+01 -1.171841387375e+01 0.0 
4.511308610496e+01 -1.229557320599e+01 0.0 
4.510133242889e+01 -1.123680627466e+01 0.0 
1.846818030617e+00 -4.410877617069e+00 0.0 
3.995468694584e+01 -1.186571542989e+01 0.0 
3.901387459804e+01 -1.242507616755e+01 0.0 
8.966735877533e+00 -1.837818700423e+00 0.0 
4.049310011091e+01 -1.848269508791e+01 0.0 
7.278862053803e+00 -1.918523922691e+00 0.0 
6.429715522129e+00 -2.316676521184e+00 0.0 
9.443505505022e+00 -1.792198868094e+01 0.0 
8.620386951051e+00 -1.737590365556e+01 0.0 
8.571868171503e+00 -1.834436667826e+01 0.0 
7.758629848526e+00 -1.775677907213e+01 0.0 
7.806648388584e+00 -1.680761266021e+01 0.0 
6.908555145436e+00 -1.723746463044e+01 0.0 
4.251709122090e+01 -1.156937480156e+01 0.0 
6.931136405615e+00 -1.832465719263e+01 0.0 
6.015545461353e+00 -1.768865355295e+01 0.0 
5.960535926343e+00 -1.872011001764e+01 0.0 
3.023253444786e+01 -8.761960642196e+00 0.0 
2.454622702599e+01 -6.749421992767e+00 0.0 
2.537499741604e+01 -6.347634963783e+00 0.0 
2.544077378460e+01 -5.431358513649e+00 0.0 
2.801367161747e+01 -1.820907270221e+01 0.0 
2.884507806914e+01 -1.762032095326e+01 0.0 
1.821474531936e+00 -1.588901260460e+01 0.0 
1.821006262604e+00 -1.489370287756e+01 0.0 
4.599962488908e+01 -1.176478780598e+01 0.0 
4.705457470007e+01 -1.172182804229e+01 0.0 
4.667668314802e+01 -1.263464558483e+01 0.0 
4.759648056504e+01 -1.252380987933e+01 0.0 
4.728041618103e+01 -1.341928568376e+01 0.0 
4.825209352360e+01 -1.330491640804e+01 0.0 
4.778118233428e+01 -1.420151961695e+01 0.0 
2.388192727579e+01 -1.826934810142e+01 0.0 
2.381714684947e+01 -4.385917965223e+00 0.0 
3.172733219247e+01 -9.758744265248e+00 0.0 
1.882012070658e+01 -1.805540597212e+01 0.0 
1.805667505243e+01 -1.742221226236e+01 0.0 
2.852599958080e+01 -8.597196079481e+00 0.0 
2.856486123437e+01 -7.661382718527e+00 0.0 
1.111792842875e+01 -1.818223852980e+01 0.0 
2.203322722466e+01 -7.986646678802e+00 0.0 
3.955703676900e+01 -1.903246763601e+01 0.0 
1.944842206513e+01 -8.038750575182e-01 0.0 
1.909882767783e+01 -1.746322740933e+00 0.0 
2.281147422941e+01 -8.525912918334e+00 0.0 
2.850633001468e+01 -9.533271335986e+00 0.0 
2.532883344309e+01 -7.308951659710e+00 0.0 
2.620475466461e+01 -6.979208585400e+00 0.0 
1.396278270396e+01 -1.475095389807e+01 0.0 
9.791001166724e+00 -2.554159793552e+00 0.0 
2.229293380421e+01 -4.269762271052e+00 0.0 
4.677238984118e+01 -1.430071795514e+01 0.0 
2.228658385918e+01 -3.344747535984e+00 0.0 
8.940223674553e-01 -1.543595733415e+01 0.0 
2.118566862474e+01 -8.435876987696e+00 0.0 
2.678325936437e+01 -1.032621195706e+01 0.0 
2.223400220487e+01 -5.179046761770e+00 0.0 
2.375370625384e+01 -7.251580562134e+00 0.0 
3.156971327386e+01 -1.255534750737e+01 0.0 
3.328226391312e+01 -1.172914813316e+01 0.0 
3.250948774219e+01 -1.120157009348e+01 0.0 
2.032993445717e+01 -8.867880112202e+00 0.0 
2.697226974856e+01 -7.536633082045e+00 0.0 
2.707377810386e+01 -6.590835263295e+00 0.0 
2.914099246827e+01 -1.191678458549e+01 0.0 
3.544824072239e+01 -1.621126558525e+01 0.0 
3.456511855436e+01 -1.665054783843e+01 0.0 
3.448395810225e+01 -1.759117813016e+01 0.0 
3.368378673938e+01 -1.708037781328e+01 0.0 
3.375560452567e+01 -1.610973066913e+01 0.0 
3.288001547988e+01 -1.654324255651e+01 0.0 
3.282475929147e+01 -1.749725654692e+01 0.0 
3.199880906313e+01 -1.697294088625e+01 0.0 
3.197001272932e+01 -1.811667776864e+01 0.0 
3.111884713021e+01 -1.742166785755e+01 0.0 
3.120418962865e+01 -1.642155709385e+01 0.0 
3.034666704371e+01 -1.683123833816e+01 0.0 
3.026224379976e+01 -1.772592851714e+01 0.0 
3.046632362943e+01 -1.582232843075e+01 0.0 
1.961344017324e+01 -1.857459447985e+01 0.0 
2.274975894774e+01 -9.532738811922e+00 0.0 
1.833923246887e+01 -2.396746883672e+00 0.0 
1.988859500848e+01 -2.249244376594e+00 0.0 
2.758045562861e+01 -1.086434261689e+01 0.0 
3.247300178163e+01 -1.909930104252e+01 0.0 
3.461947482503e+01 -1.911879848019e+01 0.0 
2.047161538662e+01 -6.941478180358e+00 0.0 
2.750230940214e+01 -1.915490590764e+01 0.0 
3.165081350803e+01 -1.161860780120e+01 0.0 
1.897456727641e+01 -4.889634688522e+00 0.0 
2.549338539756e+01 -1.914858252089e+01 0.0 
3.462873135081e+01 -1.567482276144e+01 0.0 
3.384432415243e+01 -1.512280684518e+01 0.0 
3.471433767690e+01 -1.469086942990e+01 0.0 
3.651470373046e+01 -1.918207952149e+01 0.0 
3.901742690249e+01 -1.345028556517e+01 0.0 
2.153224102692e+01 -1.920169709333e+01 0.0 
1.918382939341e+01 -1.316226275662e+01 0.0 
2.005389162382e+01 -1.271962165174e+01 0.0 
2.011472087878e+01 -1.175029352900e+01 0.0 
3.210679478412e+01 -1.598038618242e+01 0.0 
1.752175226543e+01 -1.914713022656e+01 0.0 
1.696897240059e+01 -1.832772588765e+01 0.0 
1.599682523337e+01 -1.832599992024e+01 0.0 
1.644507199462e+01 -1.743697981535e+01 0.0 
1.549987712903e+01 -1.915192375101e+01 0.0 
3.050250861901e+01 -1.918943550234e+01 0.0 
2.949944061527e+01 -1.922950455235e+01 0.0 
1.375892575273e+01 -6.447160534926e+00 0.0 
1.457223670180e+01 -7.006709243857e+00 0.0 
1.450818793236e+01 -7.965943451779e+00 0.0 
1.538804712402e+01 -7.553409623699e+00 0.0 
1.545817644768e+01 -6.580929593419e+00 0.0 
1.626506893751e+01 -7.129032608911e+00 0.0 
1.619833811522e+01 -8.086588580887e+00 0.0 
1.714448609609e+01 -6.697429609777e+00 0.0 
2.887616543568e+01 -1.668015232137e+01 0.0 
1.349814589130e+01 -1.918225301544e+01 0.0 
1.153887772210e+01 -1.311384581217e+01 0.0 
1.242708159886e+01 -1.267046795531e+01 0.0 
1.249799674267e+01 -1.169005616014e+01 0.0 
6.631723893693e+00 -9.774184881867e+00 0.0 
7.451471631867e+00 -1.033148796006e+01 0.0 
7.377795355458e+00 -1.132196345268e+01 0.0 
5.810931797536e+00 -9.211654212252e+00 0.0 
2.402683899133e+01 -1.441378562320e+01 0.0 
1.249768692036e+01 -1.917388426624e+01 0.0 
1.580373499437e+01 -1.290751860664e+01 0.0 
8.344650507834e+00 -9.898403995170e+00 0.0 
3.750622115305e+01 -1.086526401533e+01 0.0 
3.699391251667e+01 -1.171695900794e+01 0.0 
3.606517829518e+01 -1.173717504500e+01 0.0 
3.650257641795e+01 -1.270047380221e+01 0.0 
3.808951488918e+01 -1.183518714175e+01 0.0 
4.760380962420e+00 -1.162484888315e+01 0.0 
3.861210370848e+00 -1.205657631736e+01 0.0 
3.038284309476e+00 -1.149851280664e+01 0.0 
2.961598794889e+00 -1.248856794980e+01 0.0 
2.138953225512e+00 -1.193212674534e+01 0.0 
2.227383593457e+00 -1.096258903918e+01 0.0 
2.043265419276e+00 -1.292158472959e+01 0.0 
1.252449446028e+00 -1.225502002753e+01 0.0 
3.949985210740e+01 -1.086594001795e+01 0.0 
1.453499444792e+01 -8.768805922472e-01 0.0 
1.403518950933e+01 -1.749965556633e+00 0.0 
1.300715031023e+01 -1.714737233040e+00 0.0 
1.350929389899e+01 -2.527443911291e+00 0.0 
1.449600910711e+01 -2.595486162864e+00 0.0 
1.395693872901e+01 -3.484211041558e+00 0.0 
1.495105865208e+01 -3.364609636216e+00 0.0 
1.508822528740e+01 -1.766586020494e+00 0.0 
1.250223858430e+01 -8.634590186802e-01 0.0 
1.200279523409e+01 -1.709044504992e+00 0.0 
1.150086239419e+01 -8.592789190668e-01 0.0 
1.101482754194e+01 -1.677730591922e+00 0.0 
1.148018564526e+01 -2.659323866909e+00 0.0 
8.800552119754e+00 -3.989875954728e+00 0.0 
3.452790439430e+00 -1.901136170646e+01 0.0 
8.658451825200e-01 -9.503462241795e+00 0.0 
1.694787786797e+00 -9.000589234502e+00 0.0 
1.703436717094e+00 -8.038819004041e+00 0.0 
2.594197971110e+00 -8.563955242845e+00 0.0 
1.630513735412e+00 -9.907244747511e+00 0.0 
8.566859292791e-01 -7.512203837972e+00 0.0 
1.685461277022e+00 -7.164280248030e+00 0.0 
2.506394468801e+00 -8.623386730818e-01 0.0 
2.007475081581e+00 -1.727729545205e+00 0.0 
9.211534699767e-01 -1.628791366312e+00 0.0 
1.500000000020e+00 -2.598063549486e+00 0.0 
2.482078929963e+00 -2.553580088725e+00 0.0 
2.999795253092e+00 -1.732169015019e+00 0.0 
3.999712607169e+00 -1.728832897453e+00 0.0 
4.499752199340e+00 -8.656478679175e-01 0.0 
4.964377774841e+00 -1.730129617941e+00 0.0 
4.425017908337e+00 -2.597541756243e+00 0.0 
5.446573195014e+00 -8.410144840023e-01 0.0 
4.915722346614e+01 -1.550640962770e+01 0.0 
4.826794919243e+01 -1.600000000000e+01 0.0 
1.053139533193e+01 -1.911782884365e+01 0.0 
4.156049861949e+01 -1.095160998589e+01 0.0 
9.494526624416e+00 -8.650570090219e-01 0.0 
4.555762166964e+01 -1.897098103585e+01 0.0 
4.250656411371e+01 -1.914387356218e+01 0.0 
4.350906466345e+01 -1.917234727395e+01 0.0 
8.759665722424e-01 -1.746422130609e+01 0.0 
1.698936011838e+00 -1.795012186674e+01 0.0 
4.742476811029e+01 -1.900090177972e+01 0.0 
7.749196752349e+00 -6.368049313489e+00 0.0 
3.361572113416e+01 -1.798765193915e+01 0.0 
4.484660149212e+01 -1.728661231383e+01 0.0 
1.984038172228e+01 -4.502575320116e+00 0.0 
1.035080352627e+01 -6.166639575753e+00 0.0 
2.753558010652e+00 -1.444909521181e+01 0.0 
7.217069543032e+00 -1.328635391078e+01 0.0 
4.364336727739e+00 -1.655585677381e+01 0.0 
4.595208426108e+00 -1.357919665443e+01 0.0 
6.164967006980e+00 -1.569873454630e+01 0.0 
1.487855768353e+01 -1.826523774028e+01 0.0 
2.791876456372e+00 -4.019632415181e+00 0.0 
4.246464893515e+01 -1.364898659620e+01 0.0 
4.503855590351e+01 -1.329552780944e+01 0.0 
4.407239109604e+01 -1.573900004093e+01 0.0 
5.141054449252e+00 -6.664290382472e+00 0.0 
3.141083947149e+00 -1.055790764912e+01 0.0 
6.196463198741e+00 -4.256497932609e+00 0.0 
2.599618716181e+01 -1.836893455464e+01 0.0 
2.923057372337e+01 -1.098461757645e+01 0.0 
1.168343877486e+01 -1.114079645041e+01 0.0 
6.706222096238e+00 -8.780364234441e+00 0.0 
8.567858614669e+00 -6.943121440850e+00 0.0 
1.123755132901e+01 -5.753525820030e+00 0.0 
2.353456234423e+01 -1.008536320953e+01 0.0 
9.162073319168e+00 -1.045593739109e+01 0.0 
9.676343469685e+00 -1.496493008366e+01 0.0 
4.490637882905e+01 -1.628778970202e+01 0.0 
7.398129387772e+00 -9.639977982323e-01 0.0 
1.049641705805e+01 -1.552503975272e+01 0.0 
9.010356286268e+00 -1.242805042052e+01 0.0 
3.985573925497e+01 -1.399863651620e+01 0.0 
1.816196318262e+01 -1.554066497931e+01 0.0 
1.306332244168e+01 -3.963646550326e+00 0.0 
4.145850903932e+01 -1.608094559275e+01 0.0 
3.794664933633e+01 -1.779020121986e+01 0.0 
3.819614412903e+01 -1.290749321016e+01 0.0 
6.270014188119e+00 -3.255093186826e+00 0.0 
4.251165370388e+01 -1.263870364997e+01 0.0 
1.207347709171e+01 -1.763942826023e+01 0.0 
3.633240829927e+01 -1.577330481104e+01 0.0 
4.319052668832e+00 -6.101812561904e+00 0.0 
1.676492415806e+01 -1.151547901392e+01 0.0 
2.594059220037e+01 -1.074225223009e+01 0.0 
3.340750911501e+01 -9.898764354137e+00 0.0 
4.397619591281e+01 -1.769773736461e+01 0.0 
2.175611595028e+01 -1.185718747128e+01 0.0 
1.641818733106e+01 -1.640685203215e+01 0.0 
1.661211421753e+01 -1.346121366338e+01 0.0 
3.428853504935e+00 -6.551993389271e+00 0.0 
8.700728832502e+00 -1.638460872825e+01 0.0 
1.931369795309e+01 -1.121629383702e+01 0.0 
4.139798872363e+01 -1.706922153459e+01 0.0 
2.647837478700e+01 -1.507353829290e+01 0.0 
1.779469616424e+01 -9.161615782908e+00 0.0 
3.885879219319e+01 -1.642026488918e+01 0.0 
1.338194936770e+01 -1.125916521471e+01 0.0 
1.897071181111e+01 -1.609204322578e+01 0.0 
2.844308548793e+01 -1.046221003096e+01 0.0 
2.659854702194e+01 -1.316109415760e+01 0.0 
2.979604503271e+01 -1.433296157755e+01 0.0 
2.417694041347e+01 -1.251231397779e+01 0.0 
1.807401327411e+00 -1.388891148480e+01 0.0 
9.599810618782e+00 -1.595439365034e+01 0.0 
1.652144692160e+01 -4.205392788472e+00 0.0 
2.367839450246e+01 -8.188385218643e+00 0.0 
3.814894930468e+01 -1.390748338767e+01 0.0 
2.466448215774e+01 -1.685878545680e+01 0.0 
4.134044524611e+01 -1.806610045954e+01 0.0 
2.600511411958e+01 -9.801774120648e+00 0.0 
7.882158050716e+00 -1.582364037353e+01 0.0 
3.881607873422e+01 -1.737970515013e+01 0.0 
8.270182347708e+00 -1.088622154920e+01 0.0 
8.672520392520e-01 -4.532984309881e+00 0.0 
1.993447205337e+01 -3.579061902667e+00 0.0 
1.794616079549e+01 -7.238038888498e+00 0.0 
2.097277068165e+01 -1.132450168636e+01 0.0 
8.194803300681e+00 -1.187214224265e+01 0.0 
3.522279404911e+01 -1.823342818178e+01 0.0 
6.984481050295e+00 -1.625271465557e+01 0.0 
1.309433007797e+01 -1.521718594215e+01 0.0 
2.150246167611e+01 -1.885399038185e+00 0.0 
3.250689370209e+01 -1.028789870535e+01 0.0 
6.085886272238e+00 -1.668342132851e+01 0.0 
1.588455661727e+01 -1.193498985921e+01 0.0 
1.809323400821e+01 -1.651110084195e+01 0.0 
1.348885082381e+00 -1.136065576512e+01 0.0 
2.497670221995e+01 -1.834631276173e+01 0.0 
2.937062818424e+01 -8.233711194470e+00 0.0 
5.185823744469e+00 -1.711566910207e+01 0.0 
1.477497877209e+01 -1.530177014512e+01 0.0 
2.125346158933e+01 -7.473003997367e+00 0.0 
4.751561118290e+01 -1.084897772632e+01 0.0 
5.056026576843e+00 -1.825750475525e+01 0.0 
1.473948554523e+01 -1.634577436309e+01 0.0 
2.410566630936e+01 -1.345970002612e+01 0.0 
1.507337507513e+01 -1.138527895328e+01 0.0 
3.189857338687e+01 -8.887781229006e+00 0.0 
7.298712468334e+00 -1.230231046246e+01 0.0 
2.738235495295e+01 -1.368931690364e+01 0.0 
3.750141041969e+01 -1.920449893070e+01 0.0 
1.557271965640e+01 -1.683317951731e+01 0.0 
3.393731848929e+01 -1.413034777044e+01 0.0 
6.482156824153e+00 -1.174575135362e+01 0.0 
2.077971718439e+01 -1.421279621836e+01 0.0 
3.455084320178e+00 -2.562590040585e+00 0.0 
3.099056096250e+01 -9.270280416035e+00 0.0 
5.580176125418e+00 -1.217387969259e+01 0.0 
1.707247630389e+01 -7.660651981710e+00 0.0 
1.418658814174e+01 -1.180390575393e+01 0.0 
2.049103025389e+01 -1.811296706038e+01 0.0 
4.680386172316e+00 -1.260396879301e+01 0.0 
1.699679896554e+01 -8.624561788199e+00 0.0 
3.779470168555e+00 -1.303424899720e+01 0.0 
3.036589870126e+01 -7.879832518349e+00 0.0 
3.306993001774e+01 -1.457671062095e+01 0.0 
2.840150110165e+00 -1.346530088269e+01 0.0 
2.732011135052e+01 -1.464591214560e+01 0.0 
5.423639259568e+00 -2.659711955016e+00 0.0 
2.324455961696e+01 -1.387269388211e+01 0.0 
1.752768355571e+00 -1.693128613594e+01 0.0 
1.020244783051e+01 -8.076834012808e+00 0.0 
1.330873875224e+01 -1.222417528206e+01 0.0 
3.297727364880e+01 -1.555480372087e+01 0.0 
2.890929955439e+01 -6.868664170731e+00 0.0 
1.323294664622e+01 -1.320754260334e+01 0.0 
2.726532861246e+01 -1.560593120806e+01 0.0 
2.240020643398e+01 -1.429299177247e+01 0.0 
2.090445823633e+01 -1.228128621332e+01 0.0 
1.315809881502e+01 -1.420739326938e+01 0.0 
2.781328038068e+01 -7.181956082300e+00 0.0 
8.614200829057e+00 -5.936933226306e+00 0.0 
8.714765730069e+00 -4.979270529687e+00 0.0 
1.611881701099e+01 -9.041973294003e+00 0.0 
2.806830314340e+01 -1.614622947108e+01 0.0 
2.084435391396e+00 -3.385085422913e+00 0.0 
3.133211811152e+01 -1.542347619750e+01 0.0 
9.693114650768e+00 -3.590281506442e+00 0.0 
1.531883592202e+01 -8.504584946143e+00 0.0 
2.151589117094e+01 -1.578915763018e+01 0.0 
4.918943882696e+01 -1.355538828056e+01 0.0 
1.443236615188e+01 -8.918701794549e+00 0.0 
8.276250966452e-01 -5.537685192197e+00 0.0 
1.362790867918e+01 -8.374718262212e+00 0.0 
2.083767477370e+01 -1.324843956035e+01 0.0 
1.273834678703e+01 -8.790890389337e+00 0.0 
1.192275845670e+01 -8.242261327467e+00 0.0 
4.477236023583e+01 -1.824312396664e+01 0.0 
1.102989384254e+01 -8.649855800911e+00 0.0 
4.849096516045e+01 -1.917293752213e+01 0.0 
1.588996752238e+00 -1.910230934687e+01 0.0 
4.904245197583e+01 -1.159839008158e+01 0.0 
2.753852929608e+01 -5.782128488093e+00 0.0 
1.756133602833e+01 -8.306130313187e-01 0.0 
2.615423700951e+01 -6.153865090092e+00 0.0 
1.028818761294e+01 -7.122020845892e+00 0.0 
2.970818901196e+01 -1.527821347593e+01 0.0 
4.801461623449e+01 -1.164472570985e+01 0.0 
9.455722100419e+00 -6.546069291118e+00 0.0 
3.089099236677e+01 -1.835339328261e+01 0.0 
2.350000000013e+01 -1.920825896750e+01 0.0 
4.830620531887e+01 -1.506626155470e+01 0.0 
1.725381944701e+01 -1.688794487850e+01 0.0 
2.156246225273e+01 -1.475893794002e+01 0.0 
4.919319648787e+01 -1.742767505896e+01 0.0 
4.437935623576e+01 -1.077662927266e+01 0.0 
1.001520521978e+01 -1.652692675208e+00 0.0 
9.067160240050e-01 -1.441937727541e+01 0.0 
2.603365149390e+01 -4.755996613848e+00 0.0 
2.458344439002e+01 -4.873645517696e+00 0.0 
2.304312390142e+01 -3.836552768096e+00 0.0 
2.546923202198e+00 -6.902480355749e+00 0.0 
1.251534969393e+01 -2.490989965776e+00 0.0 
2.454061833377e+01 -3.933354231935e+00 0.0 
1.788186558740e+01 -1.827424884923e+01 0.0 
4.090785243552e+01 -1.166553231904e+01 0.0 
2.230128851568e+01 -1.623015738726e+01 0.0 
2.302362347568e+01 -2.916239960270e+00 0.0 
3.878119254461e+01 -1.830091164002e+01 0.0 
2.210081359958e+01 -1.829238229150e+01 0.0 
8.443704882233e+00 -1.921993252862e+01 0.0 
2.218405824691e+01 -1.724557581508e+01 0.0 
2.151157503963e+01 -2.790636689331e+00 0.0 
3.741658958955e+01 -1.250400191722e+01 0.0 
2.697247663737e+01 -1.838290202309e+01 0.0 
4.743362342862e+01 -1.585850773010e+01 0.0 
6.671345075358e+00 -1.924977576322e+01 0.0 
3.900825404537e+01 -1.157220003875e+01 0.0 
4.649692961375e+01 -1.836335837481e+01 0.0 
1.578831424832e+01 -3.678284023361e+00 0.0 
4.814208768888e+01 -1.841249298770e+01 0.0 
2.964123298315e+01 -1.625739458193e+01 0.0 
4.580760351902e+01 -1.284294554687e+01 0.0 
3.561520879615e+01 -1.245548941949e+01 0.0 
2.555418095658e+00 -1.841101588290e+01 0.0 
3.288468366144e+01 -1.834258164109e+01 0.0 
2.065894391445e+01 -2.240688571739e+00 0.0 
4.739171429915e+01 -1.496536413446e+01 0.0 
3.478086729185e+00 -8.576434653209e+00 0.0 
1.606010630246e+01 -1.588421807951e+00 0.0 
1.018329200594e+01 -1.834320874317e+01 0.0 
2.957213339430e+01 -1.720496954591e+01 0.0 
4.142712790164e+00 -1.837794506222e+01 0.0 
6.698721532573e-01 -2.499999999997e+00 0.0 
8.037039123140e+00 -1.571229354954e+00 0.0 
1.203541361428e+01 -1.847784298001e+01 0.0 
2.899968332038e+01 -1.848264722179e+01 0.0 
1.469229460948e+01 -4.219485753730e+00 0.0 
4.049590781957e+01 -1.932812501995e+01 0.0 
1.996211678340e+01 -1.506329754720e+00 0.0 
4.250588298353e+01 -1.067383247529e+01 0.0 
5.831497011152e+00 -1.635396227234e+00 0.0 
5.317606125670e+00 -1.923927974868e+01 0.0 
4.208546426993e+01 -1.842830665025e+01 0.0 
2.327553405011e+00 -9.459409929662e+00 0.0 
3.568351902251e+01 -1.096637218582e+01 0.0 
1.682104374890e+00 -6.231413350963e+00 0.0 
2.451812238018e+01 -1.766524914339e+01 0.0 
1.058003429638e+01 -2.391839617098e+00 0.0 
4.399988753123e+01 -1.851998776342e+01 0.0 
1.400000000010e+01 -1.852293523028e+01 0.0 
3.604719565984e+01 -1.850662876800e+01 0.0 
1.951297136734e+01 -1.938092349694e+01 0.0 
1.821365318472e+01 -1.531276353287e+00 0.0 
2.298031859732e+01 -1.854635324722e+01 0.0 
1.552168066204e+01 -1.764280741977e+01 0.0 
4.572957713638e+01 -1.073347898229e+01 0.0 
3.429637429624e+01 -1.838861552790e+01 0.0 
2.427434426052e+00 -7.705577451869e+00 0.0 
4.662792031485e+00 -3.359424455416e+00 0.0 
4.926794919243e+01 -1.926794919243e+01 0.0 
7.320508075690e-01 -7.320508075688e-01 0.0 
4.926794919243e+01 -1.073205080757e+01 0.0 
7.320508075705e-01 -1.926794919243e+01 0.0 
2.917460242467e+00 -3.202866455310e+00 0.0 
4.838200575963e+01 -1.232674147454e+01 0.0 
2.998445708009e+01 -1.854403752148e+01 0.0 
5.949940090766e-01 -1.152762038165e+01 0.0 
4.844763495759e+01 -1.678092548787e+01 0.0 
1.301685480160e+01 -3.170056592566e+00 0.0 
1.650046335855e+01 -6.731535384067e-01 0.0 
4.854881540991e+01 -1.405224059779e+01 0.0 
2.119545114693e+01 -1.846813384545e+01 0.0 
3.797852849897e+01 -1.857978513215e+01 0.0 
4.649823708745e+01 -1.338351810816e+01 0.0 
2.012685900976e+01 -2.889659035009e+00 0.0 
2.953271913273e+01 -1.791558075192e+01 0.0 
2.408509097292e+00 -1.021949208421e+01 0.0 
2.642589566221e+01 -1.773216561448e+01 0.0 
1.730010270775e+01 -1.763165076721e+01 0.0 
2.017406551304e+01 -8.513536440582e-01 0.0 
5.254761581934e-01 -1.249999999999e+01 0.0 
6.640448215642e+00 -1.545337834885e+00 0.0 
7.843361506349e+00 -1.852719839527e+01 0.0 
1.588442191088e+00 -1.066158564320e+01 0.0 

CELLS 1919 7676 
3 179 649 925 
3 649 179 927 
3 659 152 670 
3 772 537 961 
3 539 599 765 
3 629 542 668 
3 159 581 583 
3 179 606 927 
3 581 159 599 
3 532 767 961 
3 151 726 727 
3 606 179 941 
3 771 923 967 
3 588 719 809 
3 923 185 967 
3 178 772 961 
3 587 158 728 
3 542 629 667 
3 166 586 908 
3 586 166 846 
3 767 532 920 
3 897 143 903 
3 624 897 903 
3 574 573 783 
3 273 429 718 
3 726 151 835 
3 105 82 988 
3 618 144 860 
3 271 273 718 
3 783 573 993 
3 523 733 735 
3 176 589 766 
3 659 670 968 
3 19 164 639 
3 174 593 595 
3 602 66 959 
3 66 602 985 
3 621 170 665 
3 585 96 938 
3 96 585 999 
3 861 603 887 
3 139 625 764 
3 942 140 946 
3 82 188 988 
3 580 187 937 
3 619 942 946 
3 733 523 736 
3 187 580 963 
3 729 730 736 
3 719 588 960 
3 181 624 861 
3 571 586 846 
3 349 962 980 
3 181 861 887 
3 671 153 851 
3 944 516 989 
3 571 846 915 
3 164 609 639 
3 432 760 878 
3 767 178 961 
3 138 972 1013 
3 952 578 954 
3 398 426 632 
3 962 735 980 
3 743 562 967 
3 624 181 897 
3 972 582 1013 
3 152 659 932 
3 459 420 741 
3 148 607 673 
3 835 778 889 
3 33 32 627 
3 618 860 990 
3 4 5 753 
3 750 944 989 
3 590 155 841 
3 671 851 1000 
3 638 943 950 
3 760 432 1002 
3 943 180 950 
3 420 433 741 
3 158 587 948 
3 143 649 903 
3 649 143 925 
3 599 539 811 
3 581 599 811 
3 610 835 940 
3 18 19 639 
3 664 661 909 
3 539 765 948 
3 766 589 939 
3 190 717 988 
3 763 934 958 
3 958 934 970 
3 156 33 627 
3 665 170 995 
3 587 728 960 
3 764 625 973 
3 184 616 913 
3 632 426 633 
3 765 599 983 
3 185 743 967 
3 346 912 936 
3 577 952 954 
3 467 465 643 
3 730 733 736 
3 770 771 893 
3 536 763 958 
3 138 729 736 
3 866 161 985 
3 311 664 909 
3 4 753 1004 
3 534 630 666 
3 501 817 855 
3 545 747 971 
3 605 632 633 
3 400 398 632 
3 174 595 953 
3 616 184 1008 
3 604 400 632 
3 635 565 910 
3 188 190 988 
3 763 536 1011 
3 400 604 643 
3 955 854 969 
3 620 870 879 
3 747 545 1001 
3 870 145 879 
3 155 590 981 
3 567 955 969 
3 726 835 889 
3 537 772 963 
3 474 531 631 
3 145 603 879 
3 593 174 973 
3 771 528 923 
3 610 778 835 
3 631 531 831 
3 575 703 993 
3 507 623 631 
3 557 768 769 
3 607 148 979 
3 809 719 956 
3 416 388 637 
3 623 474 631 
3 603 145 887 
3 531 669 831 
3 643 469 838 
3 159 583 938 
3 630 265 666 
3 589 176 977 
3 924 930 1008 
3 754 166 908 
3 182 620 855 
3 703 575 712 
3 604 467 643 
3 639 610 940 
3 606 140 942 
3 912 572 936 
3 165 611 612 
3 626 265 630 
3 609 164 893 
3 459 635 910 
3 771 530 893 
3 646 519 674 
3 161 866 975 
3 924 529 930 
3 465 469 643 
3 817 182 855 
3 151 727 1024 
3 140 606 941 
3 265 626 640 
3 388 439 637 
3 611 165 999 
3 469 630 838 
3 620 182 870 
3 513 702 907 
3 747 448 971 
3 144 618 933 
3 673 607 957 
3 605 633 927 
3 448 747 987 
3 690 820 874 
3 623 507 861 
3 606 605 927 
3 646 501 855 
3 630 534 838 
3 154 767 920 
3 277 686 896 
3 164 770 893 
3 619 180 943 
3 475 640 864 
3 661 686 909 
3 81 106 628 
3 507 603 861 
3 863 535 867 
3 759 891 984 
3 774 167 1000 
3 272 197 679 
3 894 253 921 
3 383 863 867 
3 717 190 966 
3 718 429 956 
3 573 575 993 
3 904 795 931 
3 641 212 669 
3 471 361 674 
3 278 272 679 
3 468 646 674 
3 519 646 855 
3 417 877 917 
3 702 551 907 
3 628 162 629 
3 633 649 927 
3 633 426 648 
3 531 641 669 
3 686 656 896 
3 542 541 847 
3 535 634 853 
3 585 611 999 
3 640 626 864 
3 331 853 902 
3 591 801 1025 
3 677 278 679 
3 801 147 1025 
3 759 760 891 
3 180 619 946 
3 904 547 905 
3 651 278 677 
3 547 546 905 
3 527 636 642 
3 353 734 806 
3 565 742 910 
3 820 383 874 
3 519 471 674 
3 562 743 975 
3 106 162 628 
3 436 466 642 
3 226 265 640 
3 624 623 861 
3 634 535 863 
3 602 866 985 
3 888 277 896 
3 335 317 672 
3 383 867 874 
3 835 151 940 
3 669 279 831 
3 678 679 875 
3 578 952 997 
3 226 640 647 
3 466 527 642 
3 196 468 644 
3 627 32 981 
3 212 641 816 
3 685 228 824 
3 612 611 613 
3 741 433 945 
3 468 645 646 
3 435 335 672 
3 541 675 776 
3 523 735 962 
3 278 651 813 
3 361 644 674 
3 400 643 838 
3 651 490 813 
3 686 277 909 
3 279 650 792 
3 146 600 959 
3 476 685 824 
3 204 470 650 
3 534 666 797 
3 476 684 685 
3 318 334 675 
3 716 157 717 
3 230 227 647 
3 347 698 699 
3 678 888 896 
3 106 107 162 
3 468 194 645 
3 317 315 672 
3 391 436 642 
3 320 318 675 
3 199 196 644 
3 589 635 939 
3 427 517 648 
3 476 683 684 
3 644 468 674 
3 716 717 718 
3 437 542 667 
3 347 699 701 
3 348 351 698 
3 633 648 649 
3 678 875 888 
3 426 427 648 
3 313 230 647 
3 640 475 647 
3 437 541 542 
3 666 222 797 
3 566 636 638 
3 37 153 671 
3 39 167 670 
3 213 212 816 
3 334 317 335 
3 390 391 449 
3 205 204 650 
3 334 335 390 
3 347 348 698 
3 279 792 831 
3 768 557 986 
3 672 475 864 
3 877 533 917 
3 566 449 636 
3 171 57 691 
3 390 335 391 
3 210 279 669 
3 437 341 541 
3 713 406 821 
3 227 226 647 
3 351 695 698 
3 470 361 471 
3 42 692 693 
3 315 313 475 
3 476 304 683 
3 450 449 566 
3 681 366 804 
3 853 634 902 
3 466 467 525 
3 540 681 804 
3 169 45 673 
3 443 535 853 
3 41 152 692 
3 809 429 839 
3 664 311 929 
3 527 525 619 
3 472 471 504 
3 204 361 470 
3 204 202 361 
3 280 816 842 
3 144 47 676 
3 271 718 966 
3 645 501 646 
3 475 313 647 
3 546 742 905 
3 504 519 620 
3 466 465 467 
3 165 612 865 
3 351 694 695 
3 315 475 672 
3 655 677 678 
3 436 465 466 
3 470 471 472 
3 304 306 683 
3 479 706 793 
3 50 168 682 
3 507 505 603 
3 319 321 701 
3 560 894 921 
3 526 605 606 
3 525 467 526 
3 661 658 686 
3 210 208 279 
3 517 623 624 
3 472 504 505 
3 54 170 687 
3 170 621 947 
3 658 656 686 
3 678 677 679 
3 706 246 793 
3 398 399 426 
3 318 317 334 
3 316 315 317 
3 212 210 669 
3 493 713 821 
3 261 707 708 
3 654 652 655 
3 321 347 701 
3 395 280 396 
3 650 470 792 
3 397 396 398 
3 152 40 670 
3 167 38 671 
3 167 774 968 
3 479 705 706 
3 490 392 813 
3 466 525 527 
3 314 313 315 
3 541 341 675 
3 427 474 517 
3 715 716 719 
3 681 809 839 
3 691 689 783 
3 662 661 664 
3 196 194 468 
3 203 202 204 
3 341 320 675 
3 738 740 741 
3 265 224 666 
3 218 216 280 
3 224 222 666 
3 135 854 955 
3 612 613 614 
3 742 546 910 
3 391 435 436 
3 57 56 691 
3 325 327 417 
3 189 501 645 
3 166 754 976 
3 816 641 842 
3 226 224 265 
3 202 199 644 
3 148 43 693 
3 504 471 519 
3 208 205 650 
3 261 708 714 
3 652 651 677 
3 479 704 705 
3 44 148 673 
3 41 40 152 
3 37 36 153 
3 39 38 167 
3 201 199 202 
3 655 652 677 
3 660 658 661 
3 398 396 399 
3 426 399 427 
3 710 707 794 
3 654 655 656 
3 46 169 676 
3 569 490 651 
3 683 417 684 
3 569 651 652 
3 410 408 711 
3 218 280 395 
3 517 474 623 
3 390 449 450 
3 156 627 951 
3 397 398 400 
3 791 510 860 
3 707 261 794 
3 352 355 694 
3 171 691 783 
3 436 464 465 
3 42 41 692 
3 167 671 1000 
3 209 208 210 
3 738 739 740 
3 44 43 148 
3 136 687 688 
3 351 352 694 
3 306 325 683 
3 142 51 682 
3 114 137 739 
3 395 396 397 
3 207 205 208 
3 211 210 212 
3 279 208 650 
3 449 391 642 
3 46 45 169 
3 312 230 313 
3 438 437 667 
3 600 146 1026 
3 739 137 740 
3 506 505 507 
3 733 734 735 
3 620 519 855 
3 136 55 687 
3 48 47 144 
3 361 202 644 
3 730 732 733 
3 579 438 667 
3 733 732 734 
3 823 521 836 
3 715 157 716 
3 191 189 645 
3 50 49 168 
3 173 715 719 
3 153 36 680 
3 413 410 711 
3 540 588 681 
3 526 604 605 
3 325 417 683 
3 541 776 847 
3 52 51 142 
3 40 39 670 
3 38 37 671 
3 479 287 704 
3 282 284 710 
3 218 395 797 
3 287 289 704 
3 54 53 170 
3 391 335 435 
3 698 697 699 
3 695 696 697 
3 430 540 804 
3 58 171 703 
3 730 731 732 
3 56 55 136 
3 694 559 695 
3 43 42 693 
3 660 661 662 
3 113 114 739 
3 395 534 797 
3 489 392 490 
3 45 44 673 
3 201 202 203 
3 456 413 457 
3 450 566 567 
3 689 688 690 
3 451 558 559 
3 695 559 696 
3 729 172 730 
3 47 46 676 
3 675 334 776 
3 443 491 535 
3 540 587 588 
3 777 509 796 
3 695 697 698 
3 203 204 205 
3 51 50 682 
3 284 386 710 
3 295 331 401 
3 215 213 216 
3 554 447 555 
3 699 697 700 
3 704 401 705 
3 216 213 816 
3 552 409 826 
3 325 326 327 
3 217 216 218 
3 254 256 714 
3 436 435 464 
3 282 710 794 
3 457 413 711 
3 281 304 476 
3 56 136 691 
3 568 490 569 
3 452 777 796 
3 55 54 687 
3 136 688 689 
3 223 222 224 
3 730 172 731 
3 59 703 712 
3 653 652 654 
3 355 451 694 
3 58 57 171 
3 289 295 704 
3 427 473 474 
3 194 191 645 
3 281 476 824 
3 285 479 793 
3 447 406 713 
3 679 197 875 
3 506 631 831 
3 327 345 346 
3 614 613 615 
3 256 261 714 
3 306 308 325 
3 451 508 558 
3 478 300 779 
3 112 113 737 
3 465 464 469 
3 451 559 694 
3 707 549 708 
3 221 219 222 
3 295 401 704 
3 430 538 540 
3 355 418 451 
3 59 58 703 
3 207 208 209 
3 477 548 549 
3 209 210 211 
3 477 549 707 
3 737 113 739 
3 193 191 194 
3 746 745 747 
3 147 119 761 
3 386 441 477 
3 295 330 331 
3 775 445 800 
3 555 713 857 
3 555 447 713 
3 189 149 501 
3 173 103 715 
3 570 680 873 
3 211 212 213 
3 119 120 761 
3 565 485 742 
3 731 737 738 
3 547 904 931 
3 463 513 907 
3 543 775 800 
3 340 823 836 
3 264 262 773 
3 302 300 478 
3 443 454 491 
3 360 341 437 
3 177 745 746 
3 150 749 750 
3 139 60 712 
3 60 59 712 
3 745 744 748 
3 477 441 548 
3 285 287 479 
3 491 573 574 
3 485 404 742 
3 338 423 443 
3 759 757 760 
3 386 477 710 
3 708 549 709 
3 163 756 757 
3 177 744 745 
3 489 490 568 
3 120 121 758 
3 104 157 715 
3 104 105 157 
3 406 310 821 
3 150 10 749 
3 451 418 508 
3 636 449 642 
3 596 594 597 
3 676 169 791 
3 480 374 807 
3 526 467 604 
3 589 565 635 
3 472 505 506 
3 100 158 765 
3 99 100 765 
3 120 758 761 
3 758 757 759 
3 752 754 755 
3 328 269 403 
3 163 751 756 
3 744 141 748 
3 138 110 729 
3 269 264 773 
3 617 615 637 
3 102 103 173 
3 513 608 702 
3 289 294 295 
3 614 615 616 
3 10 11 749 
3 752 755 756 
3 30 29 768 
3 155 30 768 
3 540 538 587 
3 158 101 728 
3 749 746 750 
3 28 154 769 
3 403 269 773 
3 103 104 715 
3 102 173 728 
3 504 620 879 
3 36 35 680 
3 768 29 769 
3 163 757 758 
3 121 163 758 
3 564 485 565 
3 708 709 845 
3 770 528 771 
3 109 110 138 
3 175 762 763 
3 111 172 729 
3 446 406 447 
3 111 112 172 
3 110 111 729 
3 553 447 554 
3 499 562 563 
3 616 615 617 
3 792 506 831 
3 751 752 756 
3 301 302 781 
3 25 24 772 
3 178 25 772 
3 101 102 728 
3 382 310 406 
3 29 28 769 
3 456 457 572 
3 752 753 754 
3 751 186 752 
3 752 186 753 
3 11 12 177 
3 185 69 743 
3 80 79 187 
3 123 186 751 
3 13 141 744 
3 70 69 185 
3 68 161 743 
3 61 139 764 
3 76 160 762 
3 78 77 175 
3 69 68 743 
3 68 67 161 
3 175 77 762 
3 123 124 186 
3 97 98 159 
3 100 101 158 
3 163 122 751 
3 65 64 146 
3 174 62 764 
3 63 62 174 
3 122 123 751 
3 121 122 163 
3 61 60 139 
3 62 61 764 
3 76 75 160 
3 94 95 165 
3 77 76 762 
3 74 73 184 
3 92 93 529 
3 118 119 147 
3 116 117 176 
3 115 116 766 
3 114 115 137 
3 13 14 141 
3 12 13 744 
3 116 176 766 
3 16 17 151 
3 137 115 766 
3 34 33 156 
3 28 27 154 
3 31 30 155 
3 6 7 166 
3 9 10 150 
3 27 26 767 
3 19 20 164 
3 26 25 178 
3 20 21 770 
3 21 22 528 
3 177 12 744 
3 154 27 767 
3 26 178 767 
3 164 20 770 
3 21 528 770 
3 393 394 778 
3 172 112 737 
3 284 385 386 
3 758 759 761 
3 596 597 598 
3 477 707 710 
3 359 343 780 
3 328 403 404 
3 891 592 984 
3 499 563 780 
3 386 387 441 
3 177 746 749 
3 343 405 780 
3 536 537 580 
3 11 177 749 
3 331 330 338 
3 293 291 344 
3 393 342 394 
3 461 393 778 
3 312 313 314 
3 506 507 631 
3 222 219 797 
3 301 300 302 
3 405 498 499 
3 609 461 610 
3 452 546 547 
3 524 445 532 
3 440 389 445 
3 585 584 611 
3 299 297 300 
3 342 301 781 
3 536 524 537 
3 440 524 536 
3 344 291 803 
3 499 530 562 
3 402 374 480 
3 609 610 639 
3 600 598 601 
3 532 445 775 
3 379 377 380 
3 295 294 330 
3 339 421 422 
3 358 444 452 
3 564 565 589 
3 731 172 737 
3 440 445 524 
3 499 498 530 
3 738 737 739 
3 657 656 658 
3 583 483 584 
3 329 343 359 
3 405 461 498 
3 508 509 560 
3 498 461 609 
3 583 584 585 
3 325 308 326 
3 600 601 602 
3 571 453 586 
3 595 594 596 
3 388 380 389 
3 422 453 516 
3 452 547 777 
3 724 722 725 
3 376 378 482 
3 263 267 282 
3 439 389 440 
3 379 388 416 
3 548 441 720 
3 610 461 778 
3 405 393 461 
3 388 389 439 
3 381 333 419 
3 441 387 442 
3 414 500 576 
3 380 787 800 
3 386 385 387 
3 293 344 779 
3 593 521 594 
3 379 380 388 
3 522 438 579 
3 496 591 592 
3 322 320 341 
3 405 499 780 
3 378 377 379 
3 726 724 727 
3 482 483 581 
3 443 423 454 
3 720 442 721 
3 343 393 405 
3 422 421 453 
3 596 598 600 
3 441 442 720 
3 516 453 571 
3 442 387 789 
3 282 283 284 
3 268 264 269 
3 723 724 726 
3 118 147 801 
3 176 117 801 
3 394 342 781 
3 339 381 421 
3 299 300 301 
3 300 297 779 
3 256 260 261 
3 355 356 418 
3 402 480 481 
3 668 542 1018 
3 284 384 385 
3 491 454 573 
3 421 381 432 
3 482 378 483 
3 581 483 583 
3 484 404 485 
3 520 487 521 
3 373 371 374 
3 339 333 381 
3 556 480 825 
3 481 480 556 
3 276 333 339 
3 605 604 632 
3 270 269 328 
3 343 342 393 
3 721 722 723 
3 569 652 653 
3 402 481 543 
3 329 301 342 
3 299 301 329 
3 328 404 484 
3 329 342 343 
3 373 374 375 
3 723 722 724 
3 376 377 378 
3 375 374 402 
3 228 229 824 
3 787 543 800 
3 387 448 789 
3 721 442 722 
3 384 283 544 
3 258 255 259 
3 376 375 377 
3 250 252 285 
3 268 270 276 
3 496 485 564 
3 373 375 376 
3 268 269 270 
3 593 594 595 
3 380 377 787 
3 329 359 782 
3 136 689 691 
3 387 385 448 
3 276 270 333 
3 484 485 496 
3 298 297 299 
3 379 416 786 
3 496 564 591 
3 282 267 283 
3 586 453 784 
3 376 482 785 
3 284 283 384 
3 297 293 779 
3 384 544 545 
3 445 389 800 
3 267 264 268 
3 292 296 340 
3 452 444 546 
3 296 293 297 
3 725 722 789 
3 298 299 782 
3 699 700 881 
3 453 421 784 
3 584 483 786 
3 446 447 553 
3 396 280 842 
3 378 379 786 
3 358 452 796 
3 370 372 430 
3 421 432 784 
3 597 594 823 
3 382 406 446 
3 327 326 345 
3 481 556 557 
3 285 286 287 
3 419 333 790 
3 290 288 291 
3 520 521 593 
3 508 418 509 
3 299 329 782 
3 377 375 787 
3 352 354 355 
3 292 291 293 
3 538 431 539 
3 422 516 822 
3 263 264 267 
3 215 216 217 
3 296 297 298 
3 427 399 473 
3 217 218 219 
3 372 371 373 
3 483 378 786 
3 430 431 538 
3 722 442 789 
3 460 362 487 
3 287 288 289 
3 482 581 811 
3 659 658 660 
3 346 345 414 
3 292 293 296 
3 375 402 787 
3 256 258 260 
3 260 262 263 
3 328 484 790 
3 289 290 294 
3 263 282 794 
3 372 373 785 
3 430 372 431 
3 232 234 281 
3 773 262 795 
3 314 315 316 
3 263 262 264 
3 260 258 262 
3 270 328 790 
3 338 362 423 
3 251 249 253 
3 402 543 787 
3 247 249 250 
3 289 288 290 
3 285 252 286 
3 221 222 223 
3 333 270 790 
3 460 487 520 
3 460 520 625 
3 407 409 552 
3 256 255 258 
3 287 286 288 
3 373 376 785 
3 261 260 794 
3 395 397 534 
3 267 268 788 
3 418 356 796 
3 254 255 256 
3 268 276 788 
3 339 422 814 
3 286 252 486 
3 290 291 292 
3 425 462 463 
3 117 118 801 
3 243 241 244 
3 247 245 248 
3 254 253 255 
3 431 372 785 
3 250 251 252 
3 283 267 788 
3 251 253 254 
3 389 380 800 
3 544 283 788 
3 496 592 810 
3 790 484 810 
3 509 418 796 
3 258 259 795 
3 243 245 246 
3 250 249 251 
3 358 420 444 
3 419 790 810 
3 681 588 809 
3 788 276 814 
3 338 330 362 
3 411 424 425 
3 195 194 196 
3 434 368 455 
3 463 512 513 
3 229 232 824 
3 409 411 826 
3 356 357 358 
3 254 714 798 
3 225 224 226 
3 348 350 351 
3 420 357 433 
3 260 263 794 
3 247 248 249 
3 246 245 247 
3 544 788 814 
3 250 285 793 
3 243 244 245 
3 239 241 242 
3 262 258 795 
3 309 307 310 
3 370 371 372 
3 239 237 240 
3 423 362 460 
3 355 354 356 
3 573 454 575 
3 246 247 793 
3 513 607 608 
3 206 205 207 
3 356 358 796 
3 198 196 199 
3 488 392 489 
3 246 706 829 
3 469 626 630 
3 200 199 201 
3 280 216 816 
3 358 357 420 
3 590 561 627 
3 444 420 459 
3 621 515 622 
3 775 543 818 
3 332 310 382 
3 785 482 811 
3 369 368 434 
3 242 241 243 
3 281 303 304 
3 518 455 561 
3 292 340 799 
3 367 369 370 
3 446 553 634 
3 356 354 357 
3 367 365 368 
3 676 791 860 
3 460 625 812 
3 251 254 798 
3 431 785 811 
3 539 431 811 
3 247 250 793 
3 294 290 799 
3 330 294 802 
3 484 496 810 
3 316 317 318 
3 235 237 238 
3 239 240 241 
3 219 218 797 
3 518 561 590 
3 654 656 657 
3 543 481 818 
3 474 473 531 
3 364 336 392 
3 290 292 799 
3 556 825 841 
3 337 365 366 
3 252 251 798 
3 235 233 236 
3 367 368 369 
3 434 455 518 
3 374 371 807 
3 370 369 371 
3 521 487 836 
3 514 428 515 
3 487 362 802 
3 291 288 803 
3 603 505 879 
3 309 332 363 
3 274 272 278 
3 276 339 814 
3 238 237 239 
3 555 857 869 
3 304 305 306 
3 321 323 347 
3 235 236 237 
3 306 307 308 
3 472 506 792 
3 486 252 798 
3 366 681 839 
3 599 159 983 
3 84 126 135 
3 288 286 803 
3 332 382 383 
3 653 654 774 
3 281 234 303 
3 286 486 803 
3 370 430 804 
3 85 127 180 
3 309 310 332 
3 305 303 493 
3 470 472 792 
3 294 799 802 
3 351 350 352 
3 362 330 802 
3 454 423 812 
3 308 307 309 
3 371 369 807 
3 415 413 456 
3 423 460 812 
3 86 128 140 
3 366 367 804 
3 576 500 577 
3 369 434 807 
3 306 305 307 
3 234 233 235 
3 876 548 880 
3 360 437 438 
3 480 807 825 
3 814 422 822 
3 87 129 179 
3 412 410 413 
3 481 557 818 
3 352 353 354 
3 214 213 215 
3 366 365 367 
3 845 709 850 
3 347 323 348 
3 469 464 626 
3 433 357 806 
3 352 350 353 
3 354 353 806 
3 304 303 305 
3 680 35 873 
3 88 130 143 
3 594 521 823 
3 231 230 312 
3 275 337 839 
3 322 341 360 
3 575 454 812 
3 357 354 806 
3 545 544 822 
3 326 308 805 
3 243 246 829 
3 414 428 500 
3 397 400 838 
3 274 278 813 
3 514 515 621 
3 367 370 804 
3 654 657 774 
3 365 364 828 
3 364 392 488 
3 334 390 776 
3 597 823 843 
3 337 364 365 
3 228 685 849 
3 89 131 181 
3 514 621 665 
3 319 318 320 
3 544 814 822 
3 414 345 428 
3 166 7 846 
3 220 219 221 
3 309 363 805 
3 488 489 808 
3 489 568 570 
3 308 309 805 
3 455 368 828 
3 229 227 230 
3 411 425 826 
3 90 132 145 
3 660 662 663 
3 91 133 182 
3 134 91 817 
3 232 281 824 
3 82 134 149 
3 502 257 503 
3 223 224 225 
3 235 238 815 
3 348 323 349 
3 232 233 234 
3 434 518 825 
3 657 658 659 
3 340 296 843 
3 500 428 514 
3 242 243 829 
3 364 488 828 
3 234 235 815 
3 598 597 852 
3 368 365 828 
3 392 336 813 
3 310 307 821 
3 229 231 232 
3 425 424 462 
3 203 205 206 
3 348 349 350 
3 319 320 321 
3 534 397 838 
3 211 213 214 
3 601 598 856 
3 337 336 364 
3 232 231 233 
3 407 552 832 
3 363 332 820 
3 807 434 825 
3 463 462 512 
3 429 275 839 
3 535 491 867 
3 303 234 815 
3 332 383 820 
3 217 219 220 
3 561 455 844 
3 513 512 607 
3 305 493 821 
3 321 320 322 
3 415 456 458 
3 220 257 495 
3 229 230 231 
3 307 305 821 
3 338 443 853 
3 321 322 323 
3 493 303 815 
3 198 199 200 
3 601 856 862 
3 200 201 311 
3 412 413 415 
3 195 196 198 
3 192 191 193 
3 206 207 266 
3 515 428 830 
3 823 340 843 
3 275 336 337 
3 489 570 808 
3 193 194 195 
3 312 314 492 
3 415 458 511 
3 825 518 841 
3 221 223 819 
3 220 221 257 
3 231 312 827 
3 336 274 813 
3 473 399 842 
3 502 503 533 
3 399 396 842 
3 345 326 830 
3 511 578 618 
3 236 233 827 
3 360 438 494 
3 568 569 851 
3 531 473 641 
3 869 242 882 
3 511 458 578 
3 275 274 336 
3 799 340 836 
3 225 226 227 
3 494 438 522 
3 862 563 866 
3 214 215 324 
3 327 346 877 
3 462 424 510 
3 522 579 582 
3 802 799 836 
3 435 672 864 
3 273 275 429 
3 344 850 871 
3 233 231 827 
3 598 852 856 
3 495 257 502 
3 312 492 827 
3 214 324 407 
3 494 522 523 
3 409 410 411 
3 326 805 830 
3 608 607 979 
3 411 412 424 
3 319 701 848 
3 296 298 843 
3 518 590 841 
3 665 142 883 
3 428 345 830 
3 228 227 229 
3 407 408 409 
3 780 563 862 
3 724 725 859 
3 411 410 412 
3 337 366 839 
3 597 843 852 
3 487 802 836 
3 94 165 865 
3 529 93 865 
3 198 200 277 
3 409 408 410 
3 478 779 871 
3 206 266 497 
3 503 257 819 
3 690 874 998 
3 225 227 228 
3 34 156 873 
3 190 189 191 
3 257 221 819 
3 344 803 850 
3 316 318 319 
3 486 798 845 
3 407 324 408 
3 209 211 832 
3 273 274 275 
3 497 266 550 
3 497 550 551 
3 755 754 908 
3 798 714 845 
3 641 473 842 
3 201 203 833 
3 311 201 833 
3 622 515 858 
3 7 8 846 
3 349 323 837 
3 215 217 834 
3 714 708 845 
3 91 182 817 
3 149 134 817 
3 273 272 274 
3 390 450 776 
3 850 709 871 
3 383 382 863 
3 323 322 837 
3 144 676 860 
3 828 488 844 
3 549 548 876 
3 843 298 852 
3 760 757 878 
3 446 634 863 
3 324 215 834 
3 756 755 878 
3 455 828 844 
3 322 360 837 
3 203 206 833 
3 211 214 832 
3 239 242 869 
3 705 401 898 
3 488 808 844 
3 401 331 902 
3 220 495 834 
3 217 220 834 
3 126 83 854 
3 360 494 837 
3 412 415 840 
3 192 193 197 
3 415 511 840 
3 464 435 864 
3 656 655 896 
3 510 424 840 
3 501 149 817 
3 424 412 840 
3 298 782 852 
3 711 408 868 
3 486 845 850 
3 803 486 850 
3 569 653 851 
3 706 705 895 
3 214 407 832 
3 685 684 901 
3 331 338 853 
3 819 223 849 
3 848 701 881 
3 713 493 857 
3 492 314 848 
3 206 497 833 
3 492 848 881 
3 266 207 872 
3 515 830 858 
3 830 805 858 
3 223 225 849 
3 271 272 273 
3 852 782 856 
3 782 359 856 
3 450 567 847 
3 266 872 890 
3 601 862 866 
3 517 624 903 
3 478 876 880 
3 135 126 854 
3 856 359 862 
3 316 319 848 
3 727 724 859 
3 877 346 936 
3 271 197 272 
3 192 197 271 
3 324 834 868 
3 90 145 870 
3 182 133 870 
3 359 780 862 
3 898 401 902 
3 555 869 882 
3 382 446 863 
3 815 238 857 
3 314 316 848 
3 133 90 870 
3 190 191 192 
3 93 94 865 
3 805 363 858 
3 225 228 849 
3 514 665 883 
3 498 609 893 
3 493 815 857 
3 602 601 866 
3 881 700 885 
3 577 500 883 
3 834 495 868 
3 457 711 892 
3 491 574 867 
3 255 253 894 
3 832 552 872 
3 857 238 869 
3 209 832 872 
3 626 464 864 
3 572 457 900 
3 238 239 869 
3 779 344 871 
3 207 209 872 
3 969 183 982 
3 684 417 917 
3 638 135 955 
3 419 810 891 
3 478 871 876 
3 425 463 899 
3 197 193 875 
3 89 181 887 
3 35 34 873 
3 83 125 183 
3 145 132 887 
3 554 555 882 
3 548 720 880 
3 505 504 879 
3 911 696 914 
3 895 705 898 
3 408 324 868 
3 417 327 877 
3 662 964 974 
3 776 450 847 
3 709 549 876 
3 880 720 884 
3 773 795 904 
3 188 149 189 
3 193 195 875 
3 18 639 940 
3 757 756 878 
3 582 579 926 
3 742 404 905 
3 720 721 884 
3 236 885 906 
3 697 696 911 
3 701 699 881 
3 302 478 880 
3 198 277 888 
3 884 721 886 
3 236 827 885 
3 872 552 890 
3 588 587 960 
3 346 414 912 
3 721 723 886 
3 302 880 884 
3 88 143 897 
3 240 237 906 
3 886 723 889 
3 160 75 913 
3 74 184 913 
3 181 131 897 
3 781 302 884 
3 559 558 916 
3 638 636 943 
3 500 514 883 
3 546 444 910 
3 916 558 918 
3 901 684 917 
3 132 89 887 
3 723 726 889 
3 9 150 915 
3 188 189 190 
3 781 884 886 
3 242 829 882 
3 871 709 876 
3 629 668 982 
3 937 175 1011 
3 244 241 914 
3 820 690 935 
3 457 892 900 
3 394 781 886 
3 394 886 889 
3 885 700 906 
3 459 741 991 
3 668 969 982 
3 778 394 889 
3 867 574 874 
3 508 560 919 
3 552 826 890 
3 649 648 903 
3 550 266 890 
3 625 139 978 
3 107 108 926 
3 24 23 922 
3 71 70 923 
3 73 72 924 
3 248 245 918 
3 711 868 892 
3 827 492 885 
3 810 592 891 
3 83 183 854 
3 775 818 920 
3 195 198 888 
3 82 149 188 
3 48 144 933 
3 846 8 915 
3 168 49 933 
3 875 195 888 
3 253 249 921 
3 868 495 892 
3 248 918 919 
3 527 619 943 
3 919 560 921 
3 277 200 909 
3 530 498 893 
3 244 914 916 
3 550 890 899 
3 926 108 1013 
3 240 906 911 
3 655 678 896 
3 259 255 894 
3 560 509 928 
3 495 502 892 
3 734 353 980 
3 87 179 925 
3 143 130 925 
3 259 928 931 
3 554 882 895 
3 819 849 901 
3 890 826 899 
3 659 660 932 
3 131 88 897 
3 762 160 934 
3 607 512 957 
3 492 881 885 
3 135 638 950 
3 648 517 903 
3 829 706 895 
3 497 551 929 
3 882 829 895 
3 542 847 1018 
3 553 554 898 
3 619 525 942 
3 849 685 901 
3 554 895 898 
3 892 502 900 
3 416 637 1017 
3 795 259 931 
3 566 638 955 
3 553 898 902 
3 526 606 942 
3 926 579 996 
3 187 79 937 
3 78 175 937 
3 740 137 939 
3 634 553 902 
3 403 904 905 
3 403 773 904 
3 899 463 907 
3 502 533 900 
3 826 425 899 
3 240 911 914 
3 96 97 938 
3 174 764 973 
3 404 403 905 
3 363 820 935 
3 503 819 901 
3 586 784 908 
3 311 833 929 
3 237 236 906 
3 738 741 945 
3 700 697 911 
3 17 18 940 
3 200 311 909 
3 444 459 910 
3 727 859 1010 
3 551 550 907 
3 414 576 912 
3 894 560 928 
3 915 150 989 
3 503 901 917 
3 75 74 913 
3 732 731 945 
3 791 169 957 
3 670 167 968 
3 184 924 1008 
3 627 561 951 
3 692 152 932 
3 241 240 914 
3 244 916 918 
3 688 687 947 
3 162 107 926 
3 8 9 915 
3 727 1010 1024 
3 259 894 928 
3 696 559 916 
3 86 140 941 
3 179 129 941 
3 587 538 948 
3 906 700 911 
3 822 516 944 
3 456 572 949 
3 146 64 953 
3 63 174 953 
3 245 244 918 
3 173 719 960 
3 582 926 1013 
3 85 180 946 
3 735 734 980 
3 140 128 946 
3 533 503 917 
3 558 508 919 
3 914 696 916 
3 736 523 972 
3 580 937 1011 
3 918 558 919 
3 532 775 920 
3 440 536 958 
3 772 24 922 
3 70 185 923 
3 184 73 924 
3 248 919 921 
3 130 87 925 
3 249 248 921 
3 66 65 959 
3 84 135 950 
3 180 127 950 
3 622 858 935 
3 765 158 948 
3 537 524 961 
3 550 899 907 
3 576 577 954 
3 662 664 964 
3 613 611 965 
3 928 777 931 
3 509 777 928 
3 934 160 1014 
3 949 576 954 
3 157 105 988 
3 529 865 930 
3 612 614 930 
3 611 584 965 
3 494 523 962 
3 777 547 931 
3 557 769 992 
3 786 416 965 
3 142 665 995 
3 660 663 932 
3 833 497 929 
3 844 808 951 
3 448 385 971 
3 384 545 971 
3 625 520 973 
3 138 736 972 
3 571 915 989 
3 49 48 933 
3 6 166 976 
3 865 612 930 
3 689 690 998 
3 564 589 977 
3 147 761 984 
3 31 155 981 
3 99 765 983 
3 841 155 986 
3 688 947 1022 
3 159 98 983 
3 162 926 996 
3 772 922 963 
3 419 891 1002 
3 557 556 986 
3 67 66 985 
3 657 659 968 
3 349 837 962 
3 719 716 956 
3 747 745 987 
3 572 912 949 
3 52 142 995 
3 763 762 934 
3 170 53 995 
3 523 522 972 
3 600 602 959 
3 350 349 980 
3 755 908 1007 
3 171 783 993 
3 680 570 994 
3 590 627 981 
3 583 585 938 
3 190 192 966 
3 636 527 943 
3 692 932 1009 
3 750 746 1001 
3 567 969 1018 
3 912 576 949 
3 95 96 999 
3 570 568 994 
3 3 80 1003 
3 23 3 1003 
3 124 0 1004 
3 0 4 1004 
3 72 1 1005 
3 1 92 1005 
3 2 71 1006 
3 22 2 1006 
3 753 186 1004 
3 109 138 1013 
3 866 563 975 
3 511 618 990 
3 432 381 1002 
3 596 600 1026 
3 16 151 1024 
3 141 14 1010 
3 637 615 1017 
3 806 734 1012 
3 572 900 936 
3 891 760 1002 
3 789 448 1020 
3 932 663 1009 
3 79 78 937 
3 859 141 1010 
3 614 616 1008 
3 510 791 1021 
3 964 702 974 
3 929 551 964 
3 97 159 938 
3 533 877 936 
3 851 653 1000 
3 516 571 989 
3 137 766 939 
3 462 510 1021 
3 858 363 935 
3 734 732 1012 
3 617 934 1014 
3 743 161 975 
3 510 840 990 
3 860 510 990 
3 151 17 940 
3 628 629 982 
3 129 86 941 
3 525 526 942 
3 716 718 956 
3 900 533 936 
3 818 557 992 
3 687 170 947 
3 731 738 945 
3 740 939 991 
3 128 85 946 
3 637 439 970 
3 545 822 944 
3 808 570 1016 
3 908 784 1007 
3 621 622 947 
3 538 539 948 
3 682 168 952 
3 458 456 949 
3 718 717 966 
3 712 575 978 
3 570 873 1016 
3 922 187 963 
3 127 84 950 
3 561 844 951 
3 169 673 957 
3 947 622 1022 
3 458 949 954 
3 64 63 953 
3 664 929 964 
3 81 628 1023 
3 567 566 955 
3 663 662 974 
3 429 809 956 
3 530 771 967 
3 578 458 954 
3 146 953 1026 
3 439 440 958 
3 142 682 1015 
3 812 625 978 
3 575 812 978 
3 944 750 1001 
3 65 146 959 
3 728 173 960 
3 524 532 961 
3 741 740 991 
3 536 580 1011 
3 617 637 970 
3 753 5 976 
3 837 494 962 
3 551 702 964 
3 155 768 986 
3 580 537 963 
3 883 142 1015 
3 584 786 965 
3 176 801 977 
3 667 629 996 
3 801 591 977 
3 635 459 991 
3 125 81 1023 
3 448 987 1020 
3 562 530 967 
3 774 657 968 
3 192 271 966 
3 385 384 971 
3 520 593 973 
3 574 783 998 
3 952 168 997 
3 791 957 1021 
3 702 608 974 
3 939 635 991 
3 522 582 972 
3 563 562 975 
3 754 753 976 
3 5 6 976 
3 854 183 969 
3 591 564 977 
3 139 712 978 
3 148 693 979 
3 920 818 992 
3 168 933 997 
3 874 574 998 
3 965 416 1017 
3 32 31 981 
3 353 350 980 
3 98 99 983 
3 732 945 1012 
3 761 759 984 
3 161 67 985 
3 717 157 988 
3 878 755 1007 
3 745 748 987 
3 979 693 1009 
3 556 841 986 
3 153 680 994 
3 150 750 989 
3 579 667 996 
3 953 595 1026 
3 922 23 1003 
3 71 923 1006 
3 924 72 1005 
3 783 689 998 
3 432 878 1007 
3 951 808 1016 
3 147 984 1025 
3 703 171 993 
3 851 153 994 
3 629 162 996 
3 840 511 990 
3 439 958 970 
3 769 154 992 
3 53 52 995 
3 160 913 1014 
3 693 692 1009 
3 568 851 994 
3 934 617 970 
3 979 1009 1019 
3 746 747 1001 
3 165 95 999 
3 618 578 997 
3 80 187 1003 
3 186 124 1004 
3 92 529 1005 
3 528 22 1006 
3 381 419 1002 
3 690 688 1022 
3 653 774 1000 
3 154 920 992 
3 784 432 1007 
3 969 668 1018 
3 14 15 1010 
3 175 763 1011 
3 108 109 1013 
3 873 156 1016 
3 616 617 1014 
3 433 806 1012 
3 615 613 1017 
3 933 618 997 
3 1010 15 1024 
3 183 125 1023 
3 545 944 1001 
3 725 789 1020 
3 15 16 1024 
3 577 883 1015 
3 748 141 1027 
3 859 725 1027 
3 592 591 1025 
3 595 596 1026 
3 512 462 1021 
3 847 567 1018 
3 187 922 1003 
3 923 528 1006 
3 529 924 1005 
3 913 616 1014 
3 1020 748 1027 
3 725 1020 1027 
3 141 859 1027 
3 622 935 1022 
3 945 433 1012 
3 957 512 1021 
3 930 614 1008 
3 156 951 1016 
3 935 690 1022 
3 613 965 1017 
3 663 974 1019 
3 952 577 1015 
3 682 952 1015 
3 982 183 1023 
3 974 608 1019 
3 608 979 1019 
3 984 592 1025 
3 987 748 1020 
3 628 982 1023 
3 1009 663 1019 

CELL_TYPES 1919
5
5
5
5
5
5
5
5
5
5
5
5
5
5
5
5
5
5
5
5
5
5
5
5
5
5
5
5
5
5
5
5
5
5
5
5
5
5
5
5
5
5
5
5
5
5
5
5
5
5
5
5
5
5
5
5
5
5
5
5
5
5
5
5
5
5
5
5
5
5
5
5
5
5
5
5
5
5
5
5
5
5
5
5
5
5
5
5
5
5
5
5
5
5
5
5
5
5
5
5
5
5
5
5
5
5
5
5
5
5
5
5
5
5
5
5
5
5
5
5
5
5
5
5
5
5
5
5
5
5
5
5
5
5
5
5
5
5
5
5
5
5
5
5
5
5
5
5
5
5
5
5
5
5
5
5
5
5
5
5
5
5
5
5
5
5
5
5
5
5
5
5
5
5
5
5
5
5
5
5
5
5
5
5
5
5
5
5
5
5
5
5
5
5
5
5
5
5
5
5
5
5
5
5
5
5
5
5
5
5
5
5
5
5
5
5
5
5
5
5
5
5
5
5
5
5
5
5
5
5
5
5
5
5
5
5
5
5
5
5
5
5
5
5
5
5
5
5
5
5
5
5
5
5
5
5
5
5
5
5
5
5
5
5
5
5
5
5
5
5
5
5
5
5
5
5
5
5
5
5
5
5
5
5
5
5
5
5
5
5
5
5
5
5
5
5
5
5
5
5
5
5
5
5
5
5
5
5
5
5
5
5
5
5
5
5
5
5
5
5
5
5
5
5
5
5
5
5
5
5
5
5
5
5
5
5
5
5
5
5
5
5
5
5
5
5
5
5
5
5
5
5
5
5
5
5
5
5
5
5
5
5
5
5
5
5
5
5
5
5
5
5
5
5
5
5
5
5
5
5
5
5
5
5
5
5
5
5
5
5
5
5
5
5
5
5
5
5
5
5
5
5
5
5
5
5
5
5
5
5
5
5
5
5
5
5
5
5
5
5
5
5
5
5
5
5
5
5
5
5
5
5
5
5
5
5
5
5
5
5
5
5
5
5
5
5
5
5
5
5
5
5
5
5
5
5
5
5
5
5
5
5
5
5
5
5
5
5
5
5
5
5
5
5
5
5
5
5
5
5
5
5
5
5
5
5
5
5
5
5
5
5
5
5
5
5
5
5
5
5
5
5
5
5
5
5
5
5
5
5
5
5
5
5
5
5
5
5
5
5
5
5
5
5
5
5
5
5
5
5
5
5
5
5
5
5
5
5
5
5
5
5
5
5
5
5
5
5
5
5
5
5
5
5
5
5
5
5
5
5
5
5
5
5
5
5
5
5
5
5
5
5
5
5
5
5
5
5
5
5
5
5
5
5
5
5
5
5
5
5
5
5
5
5
5
5
5
5
5
5
5
5
5
5
5
5
5
5
5
5
5
5
5
5
5
5
5
5
5
5
5
5
5
5
5
5
5
5
5
5
5
5
5
5
5
5
5
5
5
5
5
5
5
5
5
5
5
5
5
5
5
5
5
5
5
5
5
5
5
5
5
5
5
5
5
5
5
5
5
5
5
5
5
5
5
5
5
5
5
5
5
5
5
5
5
5
5
5
5
5
5
5
5
5
5
5
5
5
5
5
5
5
5
5
5
5
5
5
5
5
5
5
5
5
5
5
5
5
5
5
5
5
5
5
5
5
5
5
5
5
5
5
5
5
5
5
5
5
5
5
5
5
5
5
5
5
5
5
5
5
5
5
5
5
5
5
5
5
5
5
5
5
5
5
5
5
5
5
5
5
5
5
5
5
5
5
5
5
5
5
5
5
5
5
5
5
5
5
5
5
5
5
5
5
5
5
5
5
5
5
5
5
5
5
5
5
5
5
5
5
5
5
5
5
5
5
5
5
5
5
5
5
5
5
5
5
5
5
5
5
5
5
5
5
5
5
5
5
5
5
5
5
5
5
5
5
5
5
5
5
5
5
5
5
5
5
5
5
5
5
5
5
5
5
5
5
5
5
5
5
5
5
5
5
5
5
5
5
5
5
5
5
5
5
5
5
5
5
5
5
5
5
5
5
5
5
5
5
5
5
5
5
5
5
5
5
5
5
5
5
5
5
5
5
5
5
5
5
5
5
5
5
5
5
5
5
5
5
5
5
5
5
5
5
5
5
5
5
5
5
5
5
5
5
5
5
5
5
5
5
5
5
5
5
5
5
5
5
5
5
5
5
5
5
5
5
5
5
5
5
5
5
5
5
5
5
5
5
5
5
5
5
5
5
5
5
5
5
5
5
5
5
5
5
5
5
5
5
5
5
5
5
5
5
5
5
5
5
5
5
5
5
5
5
5
5
5
5
5
5
5
5
5
5
5
5
5
5
5
5
5
5
5
5
5
5
5
5
5
5
5
5
5
5
5
5
5
5
5
5
5
5
5
5
5
5
5
5
5
5
5
5
5
5
5
5
5
5
5
5
5
5
5
5
5
5
5
5
5
5
5
5
5
5
5
5
5
5
5
5
5
5
5
5
5
5
5
5
5
5
5
5
5
5
5
5
5
5
5
5
5
5
5
5
5
5
5
5
5
5
5
5
5
5
5
5
5
5
5
5
5
5
5
5
5
5
5
5
5
5
5
5
5
5
5
5
5
5
5
5
5
5
5
5
5
5
5
5
5
5
5
5
5
5
5
5
5
5
5
5
5
5
5
5
5
5
5
5
5
5
5
5
5
5
5
5
5
5
5
5
5
5
5
5
5
5
5
5
5
5
5
5
5
5
5
5
5
5
5
5
5
5
5
5
5
5
5
5
5
5
5
5
5
5
5
5
5
5
5
5
5
5
5
5
5
5
5
5
5
5
5
5
5
5
5
5
5
5
5
5
5
5
5
5
5
5
5
5
5
5
5
5
5
5
5
5
5
5
5
5
5
5
5
5
5
5
5
5
5
5
5
5
5
5
5
5
5
5
5
5
5
5
5
5
5
5
5
5
5
5
5
5
5
5
5
5
5
5
5
5
5
5
5
5
5
5
5
5
5
5
5
5
5
5
5
5
5
5
5
5
5
5
5
5
5
5
5
5
5
5
5
5
5
5
5
5
5
5
5
5
5
5
5
5
5
5
5
5
5
5
5
5
5
5
5
5
5
5
5
5
5
5
5
5
5
5
5
5
5
5
5
5
5
5
5
5
5
5
5
5
5
5
5
5
5
5
5
5
5
5
5
5
5
5
5
5
5
5
5
5
5
5
5
5
5
5
5
5
5
5
5
5
5
5
5
5
5
5
5
5
5
5
5
5
5
5
5
5
5
5
5
5
5
5
5
5
5
5
5
5
5
5
5
5
5
5
5
5
5
5
5
5
5
5
5
5
5
5
5
5
5
5
5
5
5
5
5
5
5
5
5
5
5
5
5
5
5
5
5
5
5
5
5
5
5
5
5
5
5
5
5
5
5
5
5
5
5
5
5
5
5
5
5
5
5
5
5
5
5
5
5
5
5
5
5
5
5
5
5
5
5
5
5
5
5
5
5
5
5
5
5
5
5
5
5
5
5
5
5
5
5
5
5
5
5
5
5
5
5
5
5
5
5
5
5
5
5
5
5
5
5
5
5
5
5
5
5
5
5
5
5
5
5
5
5
5
5
5
5
5
5
5
5
5
5
5
5
5
5
5
5
5
5
5
5
5
5
5
5
5
5
5
5
5
5
5
5
5
5
5
5
5
5
5
5
5
5
5
5
5
5
5
5
5
5
5
5
5
5
5
5
5
5
5
5
5
5
5
5
5
5
5
5
5
5
5
5
5
5
5
5
5
5
5
5
5
5
5
5
5
5
5
5
5
5
5
5
5
5
5
5
5
5
5
5
5
5
5
5
5
5
5
5
5
5
5
5
5
5
5
5
5
5
5
5
5
5
5
5
5
5
5
5
5
5
5
5
5
5
5
5
5
5
5
5
5
5
5
5
5
5
5
5
5
5
5
5
5
5
5
5
5
5
5
5
5
5
5
5
5
5
5
5
5
5
5
5
5
5
5
5
5
5
5
5
5
5
5
5
5
5
5
5
5
5
5
5
5
5
5
5
5
5
5
5
5
5
5
5
5
5
5
5
5
5
5
5
5
5
5
5
5
5
5
5
5
5
5
5
5
5
5
5
5
5
5
5
5
5
5
5
5
5
5
5
5
5
5
5
5
5
5
5
5
5
5
5
5
5
5
5
5
5
5
5
5
5
5
5
5
5
5
5
5
5
5
5
5
5
5
5
5
5
5
5
5
5
5
5
5
5
5
5
5
5
5
5
5
5
5
5
5
5
5
5
5
5
5
5
5
5
5
5
5
5
5
5
5
5
5
5
5
5
5
5
5
5
5
5
5
5
5
5
5
5
5
5
5
5

POINT_DATA 1028

VECTORS coord float
0.0 0.0 0.0 
5.000000000000e+01 -1.000000000000e+01 0.0 
0.0 -2.000000000000e+01 0.0 
5.000000000000e+01 -2.000000000000e+01 0.0 
0.0 -9.999999999991e-01 0.0 
0.0 -1.999999999998e+00 0.0 
0.0 -2.999999999997e+00 0.0 
0.0 -3.999999999994e+00 0.0 
0.0 -4.999999999991e+00 0.0 
0.0 -5.999999999988e+00 0.0 
0.0 -6.999999999985e+00 0.0 
0.0 -7.999999999982e+00 0.0 
0.0 -8.999999999983e+00 0.0 
0.0 -9.999999999985e+00 0.0 
0.0 -1.099999999999e+01 0.0 
0.0 -1.199999999999e+01 0.0 
0.0 -1.299999999999e+01 0.0 
0.0 -1.399999999999e+01 0.0 
0.0 -1.499999999999e+01 0.0 
0.0 -1.599999999999e+01 0.0 
0.0 -1.700000000000e+01 0.0 
0.0 -1.800000000000e+01 0.0 
0.0 -1.900000000000e+01 0.0 
4.900000000001e+01 -2.000000000000e+01 0.0 
4.800000000001e+01 -2.000000000000e+01 0.0 
4.700000000002e+01 -2.000000000000e+01 0.0 
4.600000000003e+01 -2.000000000000e+01 0.0 
4.500000000004e+01 -2.000000000000e+01 0.0 
4.400000000004e+01 -2.000000000000e+01 0.0 
4.300000000005e+01 -2.000000000000e+01 0.0 
4.200000000006e+01 -2.000000000000e+01 0.0 
4.100000000006e+01 -2.000000000000e+01 0.0 
4.000000000007e+01 -2.000000000000e+01 0.0 
3.900000000008e+01 -2.000000000000e+01 0.0 
3.800000000009e+01 -2.000000000000e+01 0.0 
3.700000000009e+01 -2.000000000000e+01 0.0 
3.600000000010e+01 -2.000000000000e+01 0.0 
3.500000000011e+01 -2.000000000000e+01 0.0 
3.400000000011e+01 -2.000000000000e+01 0.0 
3.300000000012e+01 -2.000000000000e+01 0.0 
3.200000000013e+01 -2.000000000000e+01 0.0 
3.100000000013e+01 -2.000000000000e+01 0.0 
3.000000000013e+01 -2.000000000000e+01 0.0 
2.900000000013e+01 -2.000000000000e+01 0.0 
2.800000000013e+01 -2.000000000000e+01 0.0 
2.700000000013e+01 -2.000000000000e+01 0.0 
2.600000000013e+01 -2.000000000000e+01 0.0 
2.500000000013e+01 -2.000000000000e+01 0.0 
2.400000000013e+01 -2.000000000000e+01 0.0 
2.300000000013e+01 -2.000000000000e+01 0.0 
2.200000000013e+01 -2.000000000000e+01 0.0 
2.100000000013e+01 -2.000000000000e+01 0.0 
2.000000000013e+01 -2.000000000000e+01 0.0 
1.900000000013e+01 -2.000000000000e+01 0.0 
1.800000000013e+01 -2.000000000000e+01 0.0 
1.700000000012e+01 -2.000000000000e+01 0.0 
1.600000000011e+01 -2.000000000000e+01 0.0 
1.500000000011e+01 -2.000000000000e+01 0.0 
1.400000000010e+01 -2.000000000000e+01 0.0 
1.300000000009e+01 -2.000000000000e+01 0.0 
1.200000000009e+01 -2.000000000000e+01 0.0 
1.100000000008e+01 -2.000000000000e+01 0.0 
1.000000000007e+01 -2.000000000000e+01 0.0 
9.000000000064e+00 -2.000000000000e+01 0.0 
8.000000000057e+00 -2.000000000000e+01 0.0 
7.000000000050e+00 -2.000000000000e+01 0.0 
6.000000000043e+00 -2.000000000000e+01 0.0 
5.000000000036e+00 -2.000000000000e+01 0.0 
4.000000000028e+00 -2.000000000000e+01 0.0 
3.000000000021e+00 -2.000000000000e+01 0.0 
2.000000000014e+00 -2.000000000000e+01 0.0 
1.000000000007e+00 -2.000000000000e+01 0.0 
5.000000000000e+01 -1.100000000000e+01 0.0 
5.000000000000e+01 -1.200000000000e+01 0.0 
5.000000000000e+01 -1.300000000000e+01 0.0 
5.000000000000e+01 -1.400000000000e+01 0.0 
5.000000000000e+01 -1.500000000000e+01 0.0 
5.000000000000e+01 -1.600000000000e+01 0.0 
5.000000000000e+01 -1.700000000000e+01 0.0 
5.000000000000e+01 -1.800000000000e+01 0.0 
5.000000000000e+01 -1.900000000000e+01 0.0 
2.000000000000e+01 0.0 0.0 
3.500000000000e+01 -1.000000000000e+01 0.0 
2.150000000000e+01 -1.000000000000e+00 0.0 
2.300000000000e+01 -2.000000000000e+00 0.0 
2.450000000000e+01 -3.000000000000e+00 0.0 
2.600000000000e+01 -4.000000000000e+00 0.0 
2.750000000000e+01 -5.000000000000e+00 0.0 
2.900000000000e+01 -6.000000000000e+00 0.0 
3.050000000000e+01 -7.000000000000e+00 0.0 
3.200000000000e+01 -8.000000000000e+00 0.0 
3.350000000000e+01 -9.000000000000e+00 0.0 
4.900000000000e+01 -1.000000000000e+01 0.0 
4.800000000000e+01 -1.000000000000e+01 0.0 
4.700000000000e+01 -1.000000000000e+01 0.0 
4.600000000000e+01 -1.000000000000e+01 0.0 
4.500000000000e+01 -1.000000000000e+01 0.0 
4.400000000000e+01 -1.000000000000e+01 0.0 
4.300000000000e+01 -1.000000000000e+01 0.0 
4.200000000000e+01 -1.000000000000e+01 0.0 
4.100000000000e+01 -1.000000000000e+01 0.0 
4.000000000000e+01 -1.000000000000e+01 0.0 
3.900000000000e+01 -1.000000000000e+01 0.0 
3.800000000000e+01 -1.000000000000e+01 0.0 
3.700000000000e+01 -1.000000000000e+01 0.0 
3.600000000000e+01 -1.000000000000e+01 0.0 
1.900000000000e+01 0.0 0.0 
1.800000000000e+01 0.0 0.0 
1.700000000000e+01 0.0 0.0 
1.600000000000e+01 0.0 0.0 
1.500000000000e+01 0.0 0.0 
1.400000000000e+01 0.0 0.0 
1.300000000000e+01 0.0 0.0 
1.200000000000e+01 0.0 0.0 
1.100000000000e+01 0.0 0.0 
1.000000000000e+01 0.0 0.0 
9.000000000000e+00 0.0 0.0 
8.000000000000e+00 0.0 0.0 
7.000000000000e+00 0.0 0.0 
6.000000000000e+00 0.0 0.0 
5.000000000000e+00 0.0 0.0 
4.000000000000e+00 0.0 0.0 
3.000000000000e+00 0.0 0.0 
2.000000000000e+00 0.0 0.0 
1.000000000000e+00 0.0 0.0 
2.075000000000e+01 -5.000000000006e-01 0.0 
2.225000000000e+01 -1.500000000000e+00 0.0 
2.375000000000e+01 -2.500000000000e+00 0.0 
2.525000000000e+01 -3.500000000000e+00 0.0 
2.675000000000e+01 -4.500000000000e+00 0.0 
2.825000000000e+01 -5.500000000000e+00 0.0 
2.975000000000e+01 -6.500000000000e+00 0.0 
3.125000000000e+01 -7.500000000000e+00 0.0 
3.275000000000e+01 -8.500000000000e+00 0.0 
3.425000000000e+01 -9.500000000000e+00 0.0 
2.226951693683e+01 -2.403913980114e+00 0.0 
1.650149491944e+01 -1.913490915758e+01 0.0 
1.050042386896e+01 -8.504605092970e-01 0.0 
1.553146524712e+01 -8.281255032105e-01 0.0 
1.150000000008e+01 -1.913397459621e+01 0.0 
2.530060260647e+01 -4.428336431260e+00 0.0 
8.651114563942e-01 -1.052096295641e+01 0.0 
2.050000000013e+01 -1.913397459622e+01 0.0 
2.819198729811e+01 -6.399519052838e+00 0.0 
2.445670302931e+01 -1.915649188023e+01 0.0 
3.117591465718e+01 -8.394293040695e+00 0.0 
7.465053044742e+00 -1.920411160581e+01 0.0 
6.398295709691e+00 -8.230098819370e-01 0.0 
2.849659607461e+01 -1.914296187762e+01 0.0 
3.418732642882e+01 -1.040265792588e+01 0.0 
8.386450935063e-01 -6.533605142809e+00 0.0 
9.178661865596e-01 -1.329769195597e+01 0.0 
3.149448624493e+01 -1.910466733764e+01 0.0 
3.552916747426e+01 -1.914628590759e+01 0.0 
4.449210346537e+01 -1.914359085008e+01 0.0 
4.140975975145e+01 -1.906941860733e+01 0.0 
3.847475958753e+01 -1.916622382724e+01 0.0 
3.653774794640e+01 -1.088712800241e+01 0.0 
4.047886341787e+01 -1.090139014048e+01 0.0 
4.348006339825e+01 -1.092792621489e+01 0.0 
4.919519968029e+01 -1.451526755068e+01 0.0 
4.500000000032e+00 -1.913397459621e+01 0.0 
1.856136921614e+01 -8.212235170404e-01 0.0 
3.499895312306e+00 -8.661165539723e-01 0.0 
9.076088696565e-01 -1.642306201891e+01 0.0 
4.655174095477e+01 -1.086183387525e+01 0.0 
9.430688970604e-01 -3.496112672958e+00 0.0 
3.353992337063e+01 -1.901202090820e+01 0.0 
2.249746016977e+01 -1.921262287282e+01 0.0 
2.650122741777e+01 -1.916123026018e+01 0.0 
1.863571384842e+01 -1.908325534840e+01 0.0 
1.450089971693e+01 -1.917691901860e+01 0.0 
1.350044695317e+01 -8.659695299584e-01 0.0 
3.849987469880e+01 -1.084154983397e+01 0.0 
9.454419857884e+00 -1.900818879936e+01 0.0 
4.917398660523e+01 -1.645692866081e+01 0.0 
8.500000000000e+00 -8.660254037844e-01 0.0 
8.660319230785e-01 -8.500111697188e+00 0.0 
4.649022621545e+01 -1.930506220113e+01 0.0 
2.667688107845e+01 -5.420288124331e+00 0.0 
2.379251615665e+01 -3.412225477429e+00 0.0 
2.966631491830e+01 -7.389030232731e+00 0.0 
3.267915035995e+01 -9.396934932445e+00 0.0 
2.074836922338e+01 -1.320054020319e+00 0.0 
4.915985743621e+01 -1.261973384855e+01 0.0 
2.527129768623e+00 -1.931592414663e+01 0.0 
1.538676247410e+00 -8.436956619311e-01 0.0 
4.908096641539e+01 -1.842484004551e+01 0.0 
3.478612492673e+01 -1.090889364140e+01 0.0 
3.409757055860e+01 -1.131991530427e+01 0.0 
3.501895309466e+01 -1.177687842717e+01 0.0 
3.407758073088e+01 -1.224293381580e+01 0.0 
3.484541875390e+01 -1.277051428430e+01 0.0 
3.400322025842e+01 -1.319022775640e+01 0.0 
3.321672625034e+01 -1.266779191233e+01 0.0 
3.315244139236e+01 -1.360984106532e+01 0.0 
3.236335186892e+01 -1.308463225210e+01 0.0 
3.478337442841e+01 -1.372341158982e+01 0.0 
3.230105923633e+01 -1.403023731610e+01 0.0 
3.150954055289e+01 -1.350301767700e+01 0.0 
3.144604792090e+01 -1.444931742516e+01 0.0 
3.065653897123e+01 -1.392357262981e+01 0.0 
3.071897610812e+01 -1.297447031198e+01 0.0 
2.986790411740e+01 -1.339226181535e+01 0.0 
2.993181466745e+01 -1.244703272398e+01 0.0 
2.908023061869e+01 -1.286254537734e+01 0.0 
2.901619051372e+01 -1.380881655279e+01 0.0 
2.822986160390e+01 -1.327695262116e+01 0.0 
2.829453476870e+01 -1.233265343811e+01 0.0 
2.744542905518e+01 -1.274510491105e+01 0.0 
2.751120089246e+01 -1.180368086886e+01 0.0 
2.666218649885e+01 -1.221619339205e+01 0.0 
2.672371209234e+01 -1.127125228527e+01 0.0 
2.587763216302e+01 -1.168539979114e+01 0.0 
2.581165585299e+01 -1.262994410089e+01 0.0 
2.502890882577e+01 -1.209827323619e+01 0.0 
2.509631327757e+01 -1.115492410304e+01 0.0 
2.424662989877e+01 -1.156630981079e+01 0.0 
2.431704046904e+01 -1.062389179334e+01 0.0 
2.346445438728e+01 -1.103427680694e+01 0.0 
2.339382552877e+01 -1.197964871788e+01 0.0 
2.260936050780e+01 -1.144513277642e+01 0.0 
2.268075012022e+01 -1.049911928216e+01 0.0 
2.182525737661e+01 -1.090920811464e+01 0.0 
2.189682319817e+01 -9.961716944568e+00 0.0 
2.104174127792e+01 -1.037266986667e+01 0.0 
2.111304367575e+01 -9.424179358711e+00 0.0 
2.025306185381e+01 -9.832727364719e+00 0.0 
2.018141124247e+01 -1.079140628871e+01 0.0 
1.938594498257e+01 -1.025147354112e+01 0.0 
1.946106490453e+01 -9.288010758448e+00 0.0 
1.858929958352e+01 -9.706319802516e+00 0.0 
1.851540991219e+01 -1.067205988724e+01 0.0 
1.771485303178e+01 -1.012504443115e+01 0.0 
1.764134552256e+01 -1.109360378538e+01 0.0 
1.683745148095e+01 -1.054496365337e+01 0.0 
1.691852964353e+01 -9.582555261178e+00 0.0 
1.603603813062e+01 -1.000160132379e+01 0.0 
1.595824239350e+01 -1.096750698862e+01 0.0 
1.515080624291e+01 -1.041639501931e+01 0.0 
1.523171602559e+01 -9.451711491453e+00 0.0 
1.434621060709e+01 -9.871956467464e+00 0.0 
1.426777178765e+01 -1.083749501371e+01 0.0 
1.345775282374e+01 -1.028803175500e+01 0.0 
1.354103873368e+01 -9.324918457162e+00 0.0 
1.265072018622e+01 -9.742612837270e+00 0.0 
1.257285762070e+01 -1.071557782384e+01 0.0 
1.175874815690e+01 -1.015972324288e+01 0.0 
1.184203019714e+01 -9.193604071377e+00 0.0 
1.094927709905e+01 -9.612103238656e+00 0.0 
1.086938022910e+01 -1.058685085646e+01 0.0 
1.005424098961e+01 -1.002939116380e+01 0.0 
9.977974613295e+00 -1.101324897989e+01 0.0 
1.012915646404e+01 -9.051815821181e+00 0.0 
9.237127782494e+00 -9.471239055559e+00 0.0 
9.308426593771e+00 -8.483376461131e+00 0.0 
8.418806073345e+00 -8.910712374517e+00 0.0 
2.253688464062e+01 -1.239459402279e+01 0.0 
8.495126726666e+00 -7.921646665254e+00 0.0 
9.389727383206e+00 -7.512103628377e+00 0.0 
7.601560812974e+00 -8.349460349344e+00 0.0 
7.525680547759e+00 -9.339736686940e+00 0.0 
7.677888324502e+00 -7.359727833346e+00 0.0 
6.782001206724e+00 -7.788454494773e+00 0.0 
6.858778622885e+00 -6.797338062822e+00 0.0 
2.196596590865e+01 -8.979025665442e+00 0.0 
2.816540108272e+01 -1.422634142353e+01 0.0 
5.961601194403e+00 -7.226824010712e+00 0.0 
6.038171749656e+00 -6.234825887079e+00 0.0 
6.936257279557e+00 -5.805287640737e+00 0.0 
6.115068918323e+00 -5.242109758768e+00 0.0 
3.564391741903e+01 -1.329240553876e+01 0.0 
3.558115605778e+01 -1.425902892003e+01 0.0 
3.645445282201e+01 -1.381970786460e+01 0.0 
3.639744204358e+01 -1.479198128612e+01 0.0 
3.727266909778e+01 -1.435399586226e+01 0.0 
5.216667013081e+00 -5.671788584287e+00 0.0 
3.220697293295e+01 -1.499594545107e+01 0.0 
3.551112158269e+01 -1.523479869250e+01 0.0 
2.836056961467e+01 -1.139032434851e+01 0.0 
2.516730388602e+01 -1.021382726837e+01 0.0 
1.844436907403e+01 -1.164097215196e+01 0.0 
5.885434318740e+00 -8.218694781467e+00 0.0 
5.064071066867e+00 -7.656614643901e+00 0.0 
4.988089103470e+00 -8.649722082718e+00 0.0 
1.079421050408e+01 -1.157014985435e+01 0.0 
9.902420005256e+00 -1.199903342656e+01 0.0 
1.071994252214e+01 -1.255727909771e+01 0.0 
9.826974788171e+00 -1.298659581767e+01 0.0 
1.064607883789e+01 -1.354595476388e+01 0.0 
9.751541265343e+00 -1.397556905071e+01 0.0 
8.932296185869e+00 -1.341553353988e+01 0.0 
8.856399248106e+00 -1.440570715508e+01 0.0 
8.036186803543e+00 -1.384470558472e+01 0.0 
1.057112875118e+01 -1.453516759081e+01 0.0 
1.146582585687e+01 -1.410539926903e+01 0.0 
7.959894480382e+00 -1.483563350928e+01 0.0 
7.138792279156e+00 -1.427465094140e+01 0.0 
7.062506792418e+00 -1.526615385482e+01 0.0 
6.240693558277e+00 -1.470508863040e+01 0.0 
6.316957575451e+00 -1.371212581281e+01 0.0 
5.418183007107e+00 -1.414253605022e+01 0.0 
5.494748364428e+00 -1.314886770603e+01 0.0 
1.756825565873e+01 -1.206433872514e+01 0.0 
1.837565773345e+01 -1.261356468266e+01 0.0 
1.749574831391e+01 -1.303769280014e+01 0.0 
1.830539187332e+01 -1.358828364284e+01 0.0 
1.742278925170e+01 -1.401367746928e+01 0.0 
1.823303007798e+01 -1.456432294258e+01 0.0 
1.734941694138e+01 -1.499213734361e+01 0.0 
1.653760041637e+01 -1.443920312098e+01 0.0 
3.056237977307e+01 -1.487132260174e+01 0.0 
1.866469084762e+01 -8.742953000418e+00 0.0 
1.953669694916e+01 -8.326038909849e+00 0.0 
1.874194303780e+01 -7.780688158966e+00 0.0 
1.961032016741e+01 -7.366854697285e+00 0.0 
1.881715755159e+01 -6.821102209649e+00 0.0 
1.968369797150e+01 -6.407747217358e+00 0.0 
1.889237123259e+01 -5.858375520026e+00 0.0 
1.802038875366e+01 -6.276202618170e+00 0.0 
1.809793837984e+01 -5.307629520489e+00 0.0 
1.721985207997e+01 -5.728242054488e+00 0.0 
1.729850893523e+01 -4.756990819347e+00 0.0 
1.641745664240e+01 -5.174636548624e+00 0.0 
2.495978509456e+01 -1.304406404294e+01 0.0 
1.911567814831e+01 -1.413854250293e+01 0.0 
1.904387332608e+01 -1.511463127723e+01 0.0 
1.992115934240e+01 -1.468788025898e+01 0.0 
7.013706899628e+00 -4.812582868662e+00 0.0 
5.342091874585e+00 -1.513658157269e+01 0.0 
1.139098043784e+01 -1.509488509480e+01 0.0 
1.228151810610e+01 -1.465617481983e+01 0.0 
1.646373110164e+01 -1.541993323337e+01 0.0 
5.293328636712e+00 -4.678385108584e+00 0.0 
1.975965862987e+01 -5.448124345648e+00 0.0 
2.054318374236e+01 -5.992561293251e+00 0.0 
3.721453439063e+01 -1.533216152738e+01 0.0 
3.809302733893e+01 -1.489235527381e+01 0.0 
1.220852788900e+01 -1.565304565230e+01 0.0 
4.394120899730e+00 -5.108397613210e+00 0.0 
8.779354620288e+00 -1.539524721159e+01 0.0 
1.817791047702e+01 -4.338570146253e+00 0.0 
4.518860013839e+00 -1.457343189307e+01 0.0 
4.442712140414e+00 -1.556841391069e+01 0.0 
8.115343466391e+00 -1.285760324283e+01 0.0 
1.985334703171e+01 -1.566478400426e+01 0.0 
2.071953850276e+01 -1.522074243119e+01 0.0 
1.634012953883e+01 -6.154777738301e+00 0.0 
1.553479994708e+01 -5.593730508879e+00 0.0 
1.561265946942e+01 -4.617761762647e+00 0.0 
1.470674212978e+01 -5.064576488228e+00 0.0 
1.464498299883e+01 -6.026514471420e+00 0.0 
1.383271561817e+01 -5.467796261169e+00 0.0 
1.389241253067e+01 -4.504338666645e+00 0.0 
1.301868735463e+01 -4.907185188626e+00 0.0 
1.294514184846e+01 -5.888160903592e+00 0.0 
1.212955968622e+01 -5.328262335277e+00 0.0 
1.220721122383e+01 -4.341264976687e+00 0.0 
1.131324345897e+01 -4.766773516508e+00 0.0 
5.266597955397e+00 -1.613148974258e+01 0.0 
1.737805990867e+01 -3.786677807525e+00 0.0 
3.078438094513e+01 -1.203225297748e+01 0.0 
1.131569882285e+01 -1.608511932110e+01 0.0 
1.728478341782e+01 -1.596017432313e+01 0.0 
3.803465906019e+01 -1.587509751228e+01 0.0 
3.891681276677e+01 -1.543395196905e+01 0.0 
3.897340985302e+01 -1.444710288980e+01 0.0 
3.980095968193e+01 -1.499059496613e+01 0.0 
3.974334598189e+01 -1.597921884150e+01 0.0 
4.062964983717e+01 -1.553518690417e+01 0.0 
4.068729602479e+01 -1.454434445295e+01 0.0 
4.151772679790e+01 -1.508974196007e+01 0.0 
4.157505195739e+01 -1.409694289912e+01 0.0 
4.240699932656e+01 -1.464347955968e+01 0.0 
4.234898051011e+01 -1.563721375790e+01 0.0 
4.323934606035e+01 -1.519082036405e+01 0.0 
4.329740528208e+01 -1.419587509788e+01 0.0 
4.413056841369e+01 -1.474359631875e+01 0.0 
4.418850110108e+01 -1.374786684042e+01 0.0 
4.502219770667e+01 -1.429605103525e+01 0.0 
4.496411937907e+01 -1.529215882720e+01 0.0 
4.490027319897e+00 -4.154167794594e+00 0.0 
1.565080385988e+01 -1.486411982419e+01 0.0 
1.557610691279e+01 -1.584855627870e+01 0.0 
4.195350646612e+00 -8.089117689096e+00 0.0 
4.124027797830e+00 -9.082831955007e+00 0.0 
4.917944318925e+00 -9.643530901533e+00 0.0 
4.020105689502e+00 -1.007439673661e+01 0.0 
4.587185899277e+01 -1.484039992728e+01 0.0 
4.580078661551e+01 -1.584043391042e+01 0.0 
2.061956522375e+01 -5.046701343981e+00 0.0 
2.139572955529e+01 -5.579553449826e+00 0.0 
3.715344357292e+01 -1.631485124583e+01 0.0 
3.618886196443e+00 -1.500471207167e+01 0.0 
3.695606940204e+00 -1.400939692294e+01 0.0 
2.438890661143e+01 -9.686110599723e+00 0.0 
2.523267572778e+01 -9.276766000622e+00 0.0 
2.446094171539e+01 -8.751904591412e+00 0.0 
2.529089822738e+01 -8.321495612547e+00 0.0 
2.606882688827e+01 -8.864724051119e+00 0.0 
2.452116646430e+01 -7.792756462004e+00 0.0 
1.235543269617e+01 -1.365845617339e+01 0.0 
4.318116874181e+01 -1.618567469992e+01 0.0 
7.835066111909e+00 -5.376366223896e+00 0.0 
7.905687335704e+00 -4.382539065697e+00 0.0 
3.542640009567e+00 -1.600035116542e+01 0.0 
1.572431503071e+01 -1.388358386695e+01 0.0 
2.574684696680e+01 -1.357896141127e+01 0.0 
2.488842657651e+01 -1.399674354505e+01 0.0 
2.568301775611e+01 -1.453552048595e+01 0.0 
2.481535572009e+01 -1.495542756508e+01 0.0 
2.561729699688e+01 -1.549784648532e+01 0.0 
2.474623061296e+01 -1.592058894178e+01 0.0 
2.394234041695e+01 -1.537572575827e+01 0.0 
2.065825452567e+01 -1.621899055217e+01 0.0 
2.387180528935e+01 -1.634552264687e+01 0.0 
4.585364400844e+01 -1.383912334080e+01 0.0 
1.998744432052e+01 -1.370317155541e+01 0.0 
1.205356951443e+01 -6.313580285498e+00 0.0 
5.396543905849e+00 -3.731818611283e+00 0.0 
1.139652573295e+01 -3.745819399350e+00 0.0 
3.574124306703e+00 -4.551456826011e+00 0.0 
3.494140761930e+00 -5.539787055649e+00 0.0 
1.213651452413e+01 -1.664505033022e+01 0.0 
2.555045568519e+01 -1.646529356744e+01 0.0 
2.641671114986e+01 -1.603899382371e+01 0.0 
2.612920721894e+01 -7.906435260873e+00 0.0 
2.690339829698e+01 -8.456969591431e+00 0.0 
1.978024383368e+01 -1.664410216353e+01 0.0 
3.732829979082e+01 -1.336926601859e+01 0.0 
4.074336584605e+01 -1.355133328401e+01 0.0 
4.163204691081e+01 -1.310280943992e+01 0.0 
3.773826114429e+00 -3.493444309145e+00 0.0 
1.228783001032e+01 -3.374822835872e+00 0.0 
4.057110462520e+01 -1.652588478000e+01 0.0 
2.132535497898e+01 -6.523623360525e+00 0.0 
2.216932532211e+01 -6.110044769206e+00 0.0 
1.825781152128e+01 -3.370146817147e+00 0.0 
1.745679445888e+01 -2.812942552063e+00 0.0 
4.666517057280e+01 -1.539981381543e+01 0.0 
4.660575894464e+01 -1.639014410186e+01 0.0 
4.838230979954e+00 -1.063643436446e+01 0.0 
3.938942630206e+00 -1.106778981745e+01 0.0 
1.302967218620e+01 -1.621373452436e+01 0.0 
1.049548003190e+01 -4.204825123240e+00 0.0 
4.573571907195e+01 -1.683820511148e+01 0.0 
1.483686335807e+01 -1.430849689310e+01 0.0 
1.490982658890e+01 -1.332679386284e+01 0.0 
3.190805600162e+00 -9.510968358545e+00 0.0 
2.146625721848e+01 -4.642437303115e+00 0.0 
2.069866208266e+01 -4.111852942193e+00 0.0 
1.286859345584e+01 -6.873252723348e+00 0.0 
1.041794493184e+01 -5.194814260291e+00 0.0 
2.671081808965e+00 -4.976806516331e+00 0.0 
1.295786792925e+01 -1.720506531799e+01 0.0 
3.968438206511e+01 -1.696869067241e+01 0.0 
2.308550456051e+01 -1.579963151273e+01 0.0 
2.315593682844e+01 -1.482967445235e+01 0.0 
2.299471449450e+01 -1.677069968132e+01 0.0 
1.057344714696e+01 -3.214252277840e+00 0.0 
1.124057603753e+01 -1.707713739755e+01 0.0 
2.718402535754e+00 -1.543629882103e+01 0.0 
2.638549692805e+01 -1.696744916809e+01 0.0 
2.723416349007e+01 -1.658104204545e+01 0.0 
2.210193351704e+01 -7.046769643417e+00 0.0 
2.295180925161e+01 -6.657397605239e+00 0.0 
2.301355235833e+01 -5.709111896800e+00 0.0 
2.379052718281e+01 -6.254965406962e+00 0.0 
3.243528601237e+01 -1.214181853533e+01 0.0 
2.287977995457e+01 -7.583722368300e+00 0.0 
2.999876029544e+01 -1.150837653096e+01 0.0 
3.084435366963e+01 -1.109693775882e+01 0.0 
3.006650579669e+01 -1.057778994262e+01 0.0 
2.683802665066e+01 -9.386863216633e+00 0.0 
2.768641973621e+01 -8.988883915666e+00 0.0 
2.040296980397e+01 -7.903629133404e+00 0.0 
1.925235024054e+01 -1.218872783130e+01 0.0 
5.735667000424e+00 -1.020577277283e+01 0.0 
6.396559909872e+00 -1.272326295703e+01 0.0 
1.161199420714e+01 -1.212812778229e+01 0.0 
4.229046132615e+01 -1.663084237572e+01 0.0 
4.312275399692e+01 -1.718087491556e+01 0.0 
4.335502068163e+01 -1.320039231514e+01 0.0 
4.424630298089e+01 -1.275160688731e+01 0.0 
7.090116643816e+00 -3.818998061530e+00 0.0 
7.989472176569e+00 -3.389238711200e+00 0.0 
9.085824861778e+00 -1.144036167408e+01 0.0 
1.041972423731e+01 -1.651614080893e+01 0.0 
3.797525112640e+01 -1.686052038746e+01 0.0 
3.709114253394e+01 -1.730125999865e+01 0.0 
3.626966748340e+01 -1.675477052919e+01 0.0 
1.385164591440e+01 -1.677597757552e+01 0.0 
1.787152588784e+01 -8.198993896093e+00 0.0 
1.668849729812e+01 -1.248560611628e+01 0.0 
1.659546177905e+01 -3.232482605530e+00 0.0 
2.332214717345e+01 -1.292598167641e+01 0.0 
7.168238450786e+00 -2.824711686516e+00 0.0 
2.894878403906e+01 -1.475427524446e+01 0.0 
2.646763248247e+00 -1.643270107952e+01 0.0 
3.467431944285e+00 -1.699648837348e+01 0.0 
2.059475877282e+01 -1.719473628526e+01 0.0 
3.333868355437e+01 -1.080596971682e+01 0.0 
2.246451062637e+01 -1.334557761546e+01 0.0 
2.167821896388e+01 -1.280847834858e+01 0.0 
3.089653185767e+01 -1.017198487212e+01 0.0 
3.012604365669e+01 -9.657298805968e+00 0.0 
2.929627299435e+01 -1.006100135274e+01 0.0 
2.936201435219e+01 -9.136748899251e+00 0.0 
1.198219052702e+01 -7.291887238230e+00 0.0 
1.116702076035e+01 -6.731976101053e+00 0.0 
2.551388807505e+01 -1.746927036981e+01 0.0 
2.378639090370e+01 -1.728678807149e+01 0.0 
2.718543627188e+01 -1.748668016909e+01 0.0 
2.804681050301e+01 -1.712626668293e+01 0.0 
1.970737034667e+01 -1.762317646822e+01 0.0 
1.889535776135e+01 -1.707158098231e+01 0.0 
2.593777711283e+00 -5.971157087874e+00 0.0 
2.773468281110e+01 -8.067164273938e+00 0.0 
4.051205884347e+01 -1.751819982458e+01 0.0 
3.166903145421e+01 -1.068032992414e+01 0.0 
1.033042452886e+01 -1.748285844336e+01 0.0 
9.519274604626e+00 -1.694349240233e+01 0.0 
1.668308673328e+01 -2.255861778986e+00 0.0 
1.570531902832e+01 -2.676795860126e+00 0.0 
4.655826903379e+01 -1.736656245706e+01 0.0 
2.384148070773e+01 -5.328744256413e+00 0.0 
2.460255123641e+01 -5.852182672816e+00 0.0 
2.306638135119e+01 -4.798935440613e+00 0.0 
8.467720450578e-01 -1.849576263072e+01 0.0 
4.849657322345e+01 -1.084860705506e+01 0.0 
2.565860899507e+00 -1.742859793981e+01 0.0 
2.764418872564e+01 -9.927142821799e+00 0.0 
4.565165880064e+01 -1.785336695404e+01 0.0 
2.162231831329e+01 -1.376528337468e+01 0.0 
2.360646352969e+01 -9.136041963102e+00 0.0 
1.392738739903e+01 -1.578285505772e+01 0.0 
4.756405947478e+01 -1.683706841809e+01 0.0 
4.740895034054e+01 -1.793766756892e+01 0.0 
4.080779328826e+01 -1.257387192544e+01 0.0 
4.168907939671e+01 -1.210739129181e+01 0.0 
3.991197722154e+01 -1.300815793917e+01 0.0 
1.905536506762e+01 -3.940076697685e+00 0.0 
1.923879596617e+01 -2.875000734166e+00 0.0 
4.401386745746e+01 -1.673483229438e+01 0.0 
4.247233362525e+00 -7.094581653070e+00 0.0 
3.286051630211e+00 -7.635300020553e+00 0.0 
9.609533347623e+00 -4.594311677967e+00 0.0 
9.523554636369e+00 -5.595597029530e+00 0.0 
5.660336628893e+00 -1.119290329628e+01 0.0 
6.558070063295e+00 -1.076385809362e+01 0.0 
2.809866407414e+01 -1.518037766799e+01 0.0 
2.888868674504e+01 -1.570360690070e+01 0.0 
2.654431550819e+01 -1.411217777162e+01 0.0 
1.402158265969e+01 -1.375404617952e+01 0.0 
1.409592494026e+01 -1.277071998942e+01 0.0 
1.499355196178e+01 -1.235270737023e+01 0.0 
4.221535326155e+01 -1.759335617494e+01 0.0 
4.305583287033e+01 -1.822663146802e+01 0.0 
1.280748808359e+01 -7.834332838285e+00 0.0 
1.368988389326e+01 -7.420529606172e+00 0.0 
1.110091796060e+01 -7.683966794328e+00 0.0 
3.963446145980e+01 -1.794331310122e+01 0.0 
3.423932362213e+00 -1.796415590455e+01 0.0 
4.280814572302e+00 -1.752272834860e+01 0.0 
8.050136380041e+00 -2.421582378631e+00 0.0 
8.888674091650e+00 -2.984264211327e+00 0.0 
2.152839430898e+01 -3.732609965436e+00 0.0 
2.077799585292e+01 -3.183896021866e+00 0.0 
3.618719395821e+01 -1.770276572576e+01 0.0 
3.538165138340e+01 -1.718709995539e+01 0.0 
3.702925326420e+01 -1.828844288807e+01 0.0 
1.756739438711e+00 -5.353284859169e+00 0.0 
2.233710191104e+01 -1.527265621324e+01 0.0 
1.389483555057e+01 -1.771797164730e+01 0.0 
1.475634224300e+01 -1.728357428390e+01 0.0 
1.298797563052e+01 -1.825968924755e+01 0.0 
2.145331271866e+01 -1.673705379077e+01 0.0 
2.133282821169e+01 -1.769400773673e+01 0.0 
2.292139194136e+01 -1.774915400288e+01 0.0 
1.750750053243e+01 -1.861475593469e+00 0.0 
4.830478841772e+01 -1.752611802221e+01 0.0 
4.341203507805e+01 -1.220326745522e+01 0.0 
1.685254151866e+01 -1.443085301632e+00 0.0 
4.431538535165e+01 -1.171841387375e+01 0.0 
4.511308610496e+01 -1.229557320599e+01 0.0 
4.510133242889e+01 -1.123680627466e+01 0.0 
1.846818030617e+00 -4.410877617069e+00 0.0 
3.995468694584e+01 -1.186571542989e+01 0.0 
3.901387459804e+01 -1.242507616755e+01 0.0 
8.966735877533e+00 -1.837818700423e+00 0.0 
4.049310011091e+01 -1.848269508791e+01 0.0 
7.278862053803e+00 -1.918523922691e+00 0.0 
6.429715522129e+00 -2.316676521184e+00 0.0 
9.443505505022e+00 -1.792198868094e+01 0.0 
8.620386951051e+00 -1.737590365556e+01 0.0 
8.571868171503e+00 -1.834436667826e+01 0.0 
7.758629848526e+00 -1.775677907213e+01 0.0 
7.806648388584e+00 -1.680761266021e+01 0.0 
6.908555145436e+00 -1.723746463044e+01 0.0 
4.251709122090e+01 -1.156937480156e+01 0.0 
6.931136405615e+00 -1.832465719263e+01 0.0 
6.015545461353e+00 -1.768865355295e+01 0.0 
5.960535926343e+00 -1.872011001764e+01 0.0 
3.023253444786e+01 -8.761960642196e+00 0.0 
2.454622702599e+01 -6.749421992767e+00 0.0 
2.537499741604e+01 -6.347634963783e+00 0.0 
2.544077378460e+01 -5.431358513649e+00 0.0 
2.801367161747e+01 -1.820907270221e+01 0.0 
2.884507806914e+01 -1.762032095326e+01 0.0 
1.821474531936e+00 -1.588901260460e+01 0.0 
1.821006262604e+00 -1.489370287756e+01 0.0 
4.599962488908e+01 -1.176478780598e+01 0.0 
4.705457470007e+01 -1.172182804229e+01 0.0 
4.667668314802e+01 -1.263464558483e+01 0.0 
4.759648056504e+01 -1.252380987933e+01 0.0 
4.728041618103e+01 -1.341928568376e+01 0.0 
4.825209352360e+01 -1.330491640804e+01 0.0 
4.778118233428e+01 -1.420151961695e+01 0.0 
2.388192727579e+01 -1.826934810142e+01 0.0 
2.381714684947e+01 -4.385917965223e+00 0.0 
3.172733219247e+01 -9.758744265248e+00 0.0 
1.882012070658e+01 -1.805540597212e+01 0.0 
1.805667505243e+01 -1.742221226236e+01 0.0 
2.852599958080e+01 -8.597196079481e+00 0.0 
2.856486123437e+01 -7.661382718527e+00 0.0 
1.111792842875e+01 -1.818223852980e+01 0.0 
2.203322722466e+01 -7.986646678802e+00 0.0 
3.955703676900e+01 -1.903246763601e+01 0.0 
1.944842206513e+01 -8.038750575182e-01 0.0 
1.909882767783e+01 -1.746322740933e+00 0.0 
2.281147422941e+01 -8.525912918334e+00 0.0 
2.850633001468e+01 -9.533271335986e+00 0.0 
2.532883344309e+01 -7.308951659710e+00 0.0 
2.620475466461e+01 -6.979208585400e+00 0.0 
1.396278270396e+01 -1.475095389807e+01 0.0 
9.791001166724e+00 -2.554159793552e+00 0.0 
2.229293380421e+01 -4.269762271052e+00 0.0 
4.677238984118e+01 -1.430071795514e+01 0.0 
2.228658385918e+01 -3.344747535984e+00 0.0 
8.940223674553e-01 -1.543595733415e+01 0.0 
2.118566862474e+01 -8.435876987696e+00 0.0 
2.678325936437e+01 -1.032621195706e+01 0.0 
2.223400220487e+01 -5.179046761770e+00 0.0 
2.375370625384e+01 -7.251580562134e+00 0.0 
3.156971327386e+01 -1.255534750737e+01 0.0 
3.328226391312e+01 -1.172914813316e+01 0.0 
3.250948774219e+01 -1.120157009348e+01 0.0 
2.032993445717e+01 -8.867880112202e+00 0.0 
2.697226974856e+01 -7.536633082045e+00 0.0 
2.707377810386e+01 -6.590835263295e+00 0.0 
2.914099246827e+01 -1.191678458549e+01 0.0 
3.544824072239e+01 -1.621126558525e+01 0.0 
3.456511855436e+01 -1.665054783843e+01 0.0 
3.448395810225e+01 -1.759117813016e+01 0.0 
3.368378673938e+01 -1.708037781328e+01 0.0 
3.375560452567e+01 -1.610973066913e+01 0.0 
3.288001547988e+01 -1.654324255651e+01 0.0 
3.282475929147e+01 -1.749725654692e+01 0.0 
3.199880906313e+01 -1.697294088625e+01 0.0 
3.197001272932e+01 -1.811667776864e+01 0.0 
3.111884713021e+01 -1.742166785755e+01 0.0 
3.120418962865e+01 -1.642155709385e+01 0.0 
3.034666704371e+01 -1.683123833816e+01 0.0 
3.026224379976e+01 -1.772592851714e+01 0.0 
3.046632362943e+01 -1.582232843075e+01 0.0 
1.961344017324e+01 -1.857459447985e+01 0.0 
2.274975894774e+01 -9.532738811922e+00 0.0 
1.833923246887e+01 -2.396746883672e+00 0.0 
1.988859500848e+01 -2.249244376594e+00 0.0 
2.758045562861e+01 -1.086434261689e+01 0.0 
3.247300178163e+01 -1.909930104252e+01 0.0 
3.461947482503e+01 -1.911879848019e+01 0.0 
2.047161538662e+01 -6.941478180358e+00 0.0 
2.750230940214e+01 -1.915490590764e+01 0.0 
3.165081350803e+01 -1.161860780120e+01 0.0 
1.897456727641e+01 -4.889634688522e+00 0.0 
2.549338539756e+01 -1.914858252089e+01 0.0 
3.462873135081e+01 -1.567482276144e+01 0.0 
3.384432415243e+01 -1.512280684518e+01 0.0 
3.471433767690e+01 -1.469086942990e+01 0.0 
3.651470373046e+01 -1.918207952149e+01 0.0 
3.901742690249e+01 -1.345028556517e+01 0.0 
2.153224102692e+01 -1.920169709333e+01 0.0 
1.918382939341e+01 -1.316226275662e+01 0.0 
2.005389162382e+01 -1.271962165174e+01 0.0 
2.011472087878e+01 -1.175029352900e+01 0.0 
3.210679478412e+01 -1.598038618242e+01 0.0 
1.752175226543e+01 -1.914713022656e+01 0.0 
1.696897240059e+01 -1.832772588765e+01 0.0 
1.599682523337e+01 -1.832599992024e+01 0.0 
1.644507199462e+01 -1.743697981535e+01 0.0 
1.549987712903e+01 -1.915192375101e+01 0.0 
3.050250861901e+01 -1.918943550234e+01 0.0 
2.949944061527e+01 -1.922950455235e+01 0.0 
1.375892575273e+01 -6.447160534926e+00 0.0 
1.457223670180e+01 -7.006709243857e+00 0.0 
1.450818793236e+01 -7.965943451779e+00 0.0 
1.538804712402e+01 -7.553409623699e+00 0.0 
1.545817644768e+01 -6.580929593419e+00 0.0 
1.626506893751e+01 -7.129032608911e+00 0.0 
1.619833811522e+01 -8.086588580887e+00 0.0 
1.714448609609e+01 -6.697429609777e+00 0.0 
2.887616543568e+01 -1.668015232137e+01 0.0 
1.349814589130e+01 -1.918225301544e+01 0.0 
1.153887772210e+01 -1.311384581217e+01 0.0 
1.242708159886e+01 -1.267046795531e+01 0.0 
1.249799674267e+01 -1.169005616014e+01 0.0 
6.631723893693e+00 -9.774184881867e+00 0.0 
7.451471631867e+00 -1.033148796006e+01 0.0 
7.377795355458e+00 -1.132196345268e+01 0.0 
5.810931797536e+00 -9.211654212252e+00 0.0 
2.402683899133e+01 -1.441378562320e+01 0.0 
1.249768692036e+01 -1.917388426624e+01 0.0 
1.580373499437e+01 -1.290751860664e+01 0.0 
8.344650507834e+00 -9.898403995170e+00 0.0 
3.750622115305e+01 -1.086526401533e+01 0.0 
3.699391251667e+01 -1.171695900794e+01 0.0 
3.606517829518e+01 -1.173717504500e+01 0.0 
3.650257641795e+01 -1.270047380221e+01 0.0 
3.808951488918e+01 -1.183518714175e+01 0.0 
4.760380962420e+00 -1.162484888315e+01 0.0 
3.861210370848e+00 -1.205657631736e+01 0.0 
3.038284309476e+00 -1.149851280664e+01 0.0 
2.961598794889e+00 -1.248856794980e+01 0.0 
2.138953225512e+00 -1.193212674534e+01 0.0 
2.227383593457e+00 -1.096258903918e+01 0.0 
2.043265419276e+00 -1.292158472959e+01 0.0 
1.252449446028e+00 -1.225502002753e+01 0.0 
3.949985210740e+01 -1.086594001795e+01 0.0 
1.453499444792e+01 -8.768805922472e-01 0.0 
1.403518950933e+01 -1.749965556633e+00 0.0 
1.300715031023e+01 -1.714737233040e+00 0.0 
1.350929389899e+01 -2.527443911291e+00 0.0 
1.449600910711e+01 -2.595486162864e+00 0.0 
1.395693872901e+01 -3.484211041558e+00 0.0 
1.495105865208e+01 -3.364609636216e+00 0.0 
1.508822528740e+01 -1.766586020494e+00 0.0 
1.250223858430e+01 -8.634590186802e-01 0.0 
1.200279523409e+01 -1.709044504992e+00 0.0 
1.150086239419e+01 -8.592789190668e-01 0.0 
1.101482754194e+01 -1.677730591922e+00 0.0 
1.148018564526e+01 -2.659323866909e+00 0.0 
8.800552119754e+00 -3.989875954728e+00 0.0 
3.452790439430e+00 -1.901136170646e+01 0.0 
8.658451825200e-01 -9.503462241795e+00 0.0 
1.694787786797e+00 -9.000589234502e+00 0.0 
1.703436717094e+00 -8.038819004041e+00 0.0 
2.594197971110e+00 -8.563955242845e+00 0.0 
1.630513735412e+00 -9.907244747511e+00 0.0 
8.566859292791e-01 -7.512203837972e+00 0.0 
1.685461277022e+00 -7.164280248030e+00 0.0 
2.506394468801e+00 -8.623386730818e-01 0.0 
2.007475081581e+00 -1.727729545205e+00 0.0 
9.211534699767e-01 -1.628791366312e+00 0.0 
1.500000000020e+00 -2.598063549486e+00 0.0 
2.482078929963e+00 -2.553580088725e+00 0.0 
2.999795253092e+00 -1.732169015019e+00 0.0 
3.999712607169e+00 -1.728832897453e+00 0.0 
4.499752199340e+00 -8.656478679175e-01 0.0 
4.964377774841e+00 -1.730129617941e+00 0.0 
4.425017908337e+00 -2.597541756243e+00 0.0 
5.446573195014e+00 -8.410144840023e-01 0.0 
4.915722346614e+01 -1.550640962770e+01 0.0 
4.826794919243e+01 -1.600000000000e+01 0.0 
1.053139533193e+01 -1.911782884365e+01 0.0 
4.156049861949e+01 -1.095160998589e+01 0.0 
9.494526624416e+00 -8.650570090219e-01 0.0 
4.555762166964e+01 -1.897098103585e+01 0.0 
4.250656411371e+01 -1.914387356218e+01 0.0 
4.350906466345e+01 -1.917234727395e+01 0.0 
8.759665722424e-01 -1.746422130609e+01 0.0 
1.698936011838e+00 -1.795012186674e+01 0.0 
4.742476811029e+01 -1.900090177972e+01 0.0 
7.749196752349e+00 -6.368049313489e+00 0.0 
3.361572113416e+01 -1.798765193915e+01 0.0 
4.484660149212e+01 -1.728661231383e+01 0.0 
1.984038172228e+01 -4.502575320116e+00 0.0 
1.035080352627e+01 -6.166639575753e+00 0.0 
2.753558010652e+00 -1.444909521181e+01 0.0 
7.217069543032e+00 -1.328635391078e+01 0.0 
4.364336727739e+00 -1.655585677381e+01 0.0 
4.595208426108e+00 -1.357919665443e+01 0.0 
6.164967006980e+00 -1.569873454630e+01 0.0 
1.487855768353e+01 -1.826523774028e+01 0.0 
2.791876456372e+00 -4.019632415181e+00 0.0 
4.246464893515e+01 -1.364898659620e+01 0.0 
4.503855590351e+01 -1.329552780944e+01 0.0 
4.407239109604e+01 -1.573900004093e+01 0.0 
5.141054449252e+00 -6.664290382472e+00 0.0 
3.141083947149e+00 -1.055790764912e+01 0.0 
6.196463198741e+00 -4.256497932609e+00 0.0 
2.599618716181e+01 -1.836893455464e+01 0.0 
2.923057372337e+01 -1.098461757645e+01 0.0 
1.168343877486e+01 -1.114079645041e+01 0.0 
6.706222096238e+00 -8.780364234441e+00 0.0 
8.567858614669e+00 -6.943121440850e+00 0.0 
1.123755132901e+01 -5.753525820030e+00 0.0 
2.353456234423e+01 -1.008536320953e+01 0.0 
9.162073319168e+00 -1.045593739109e+01 0.0 
9.676343469685e+00 -1.496493008366e+01 0.0 
4.490637882905e+01 -1.628778970202e+01 0.0 
7.398129387772e+00 -9.639977982323e-01 0.0 
1.049641705805e+01 -1.552503975272e+01 0.0 
9.010356286268e+00 -1.242805042052e+01 0.0 
3.985573925497e+01 -1.399863651620e+01 0.0 
1.816196318262e+01 -1.554066497931e+01 0.0 
1.306332244168e+01 -3.963646550326e+00 0.0 
4.145850903932e+01 -1.608094559275e+01 0.0 
3.794664933633e+01 -1.779020121986e+01 0.0 
3.819614412903e+01 -1.290749321016e+01 0.0 
6.270014188119e+00 -3.255093186826e+00 0.0 
4.251165370388e+01 -1.263870364997e+01 0.0 
1.207347709171e+01 -1.763942826023e+01 0.0 
3.633240829927e+01 -1.577330481104e+01 0.0 
4.319052668832e+00 -6.101812561904e+00 0.0 
1.676492415806e+01 -1.151547901392e+01 0.0 
2.594059220037e+01 -1.074225223009e+01 0.0 
3.340750911501e+01 -9.898764354137e+00 0.0 
4.397619591281e+01 -1.769773736461e+01 0.0 
2.175611595028e+01 -1.185718747128e+01 0.0 
1.641818733106e+01 -1.640685203215e+01 0.0 
1.661211421753e+01 -1.346121366338e+01 0.0 
3.428853504935e+00 -6.551993389271e+00 0.0 
8.700728832502e+00 -1.638460872825e+01 0.0 
1.931369795309e+01 -1.121629383702e+01 0.0 
4.139798872363e+01 -1.706922153459e+01 0.0 
2.647837478700e+01 -1.507353829290e+01 0.0 
1.779469616424e+01 -9.161615782908e+00 0.0 
3.885879219319e+01 -1.642026488918e+01 0.0 
1.338194936770e+01 -1.125916521471e+01 0.0 
1.897071181111e+01 -1.609204322578e+01 0.0 
2.844308548793e+01 -1.046221003096e+01 0.0 
2.659854702194e+01 -1.316109415760e+01 0.0 
2.979604503271e+01 -1.433296157755e+01 0.0 
2.417694041347e+01 -1.251231397779e+01 0.0 
1.807401327411e+00 -1.388891148480e+01 0.0 
9.599810618782e+00 -1.595439365034e+01 0.0 
1.652144692160e+01 -4.205392788472e+00 0.0 
2.367839450246e+01 -8.188385218643e+00 0.0 
3.814894930468e+01 -1.390748338767e+01 0.0 
2.466448215774e+01 -1.685878545680e+01 0.0 
4.134044524611e+01 -1.806610045954e+01 0.0 
2.600511411958e+01 -9.801774120648e+00 0.0 
7.882158050716e+00 -1.582364037353e+01 0.0 
3.881607873422e+01 -1.737970515013e+01 0.0 
8.270182347708e+00 -1.088622154920e+01 0.0 
8.672520392520e-01 -4.532984309881e+00 0.0 
1.993447205337e+01 -3.579061902667e+00 0.0 
1.794616079549e+01 -7.238038888498e+00 0.0 
2.097277068165e+01 -1.132450168636e+01 0.0 
8.194803300681e+00 -1.187214224265e+01 0.0 
3.522279404911e+01 -1.823342818178e+01 0.0 
6.984481050295e+00 -1.625271465557e+01 0.0 
1.309433007797e+01 -1.521718594215e+01 0.0 
2.150246167611e+01 -1.885399038185e+00 0.0 
3.250689370209e+01 -1.028789870535e+01 0.0 
6.085886272238e+00 -1.668342132851e+01 0.0 
1.588455661727e+01 -1.193498985921e+01 0.0 
1.809323400821e+01 -1.651110084195e+01 0.0 
1.348885082381e+00 -1.136065576512e+01 0.0 
2.497670221995e+01 -1.834631276173e+01 0.0 
2.937062818424e+01 -8.233711194470e+00 0.0 
5.185823744469e+00 -1.711566910207e+01 0.0 
1.477497877209e+01 -1.530177014512e+01 0.0 
2.125346158933e+01 -7.473003997367e+00 0.0 
4.751561118290e+01 -1.084897772632e+01 0.0 
5.056026576843e+00 -1.825750475525e+01 0.0 
1.473948554523e+01 -1.634577436309e+01 0.0 
2.410566630936e+01 -1.345970002612e+01 0.0 
1.507337507513e+01 -1.138527895328e+01 0.0 
3.189857338687e+01 -8.887781229006e+00 0.0 
7.298712468334e+00 -1.230231046246e+01 0.0 
2.738235495295e+01 -1.368931690364e+01 0.0 
3.750141041969e+01 -1.920449893070e+01 0.0 
1.557271965640e+01 -1.683317951731e+01 0.0 
3.393731848929e+01 -1.413034777044e+01 0.0 
6.482156824153e+00 -1.174575135362e+01 0.0 
2.077971718439e+01 -1.421279621836e+01 0.0 
3.455084320178e+00 -2.562590040585e+00 0.0 
3.099056096250e+01 -9.270280416035e+00 0.0 
5.580176125418e+00 -1.217387969259e+01 0.0 
1.707247630389e+01 -7.660651981710e+00 0.0 
1.418658814174e+01 -1.180390575393e+01 0.0 
2.049103025389e+01 -1.811296706038e+01 0.0 
4.680386172316e+00 -1.260396879301e+01 0.0 
1.699679896554e+01 -8.624561788199e+00 0.0 
3.779470168555e+00 -1.303424899720e+01 0.0 
3.036589870126e+01 -7.879832518349e+00 0.0 
3.306993001774e+01 -1.457671062095e+01 0.0 
2.840150110165e+00 -1.346530088269e+01 0.0 
2.732011135052e+01 -1.464591214560e+01 0.0 
5.423639259568e+00 -2.659711955016e+00 0.0 
2.324455961696e+01 -1.387269388211e+01 0.0 
1.752768355571e+00 -1.693128613594e+01 0.0 
1.020244783051e+01 -8.076834012808e+00 0.0 
1.330873875224e+01 -1.222417528206e+01 0.0 
3.297727364880e+01 -1.555480372087e+01 0.0 
2.890929955439e+01 -6.868664170731e+00 0.0 
1.323294664622e+01 -1.320754260334e+01 0.0 
2.726532861246e+01 -1.560593120806e+01 0.0 
2.240020643398e+01 -1.429299177247e+01 0.0 
2.090445823633e+01 -1.228128621332e+01 0.0 
1.315809881502e+01 -1.420739326938e+01 0.0 
2.781328038068e+01 -7.181956082300e+00 0.0 
8.614200829057e+00 -5.936933226306e+00 0.0 
8.714765730069e+00 -4.979270529687e+00 0.0 
1.611881701099e+01 -9.041973294003e+00 0.0 
2.806830314340e+01 -1.614622947108e+01 0.0 
2.084435391396e+00 -3.385085422913e+00 0.0 
3.133211811152e+01 -1.542347619750e+01 0.0 
9.693114650768e+00 -3.590281506442e+00 0.0 
1.531883592202e+01 -8.504584946143e+00 0.0 
2.151589117094e+01 -1.578915763018e+01 0.0 
4.918943882696e+01 -1.355538828056e+01 0.0 
1.443236615188e+01 -8.918701794549e+00 0.0 
8.276250966452e-01 -5.537685192197e+00 0.0 
1.362790867918e+01 -8.374718262212e+00 0.0 
2.083767477370e+01 -1.324843956035e+01 0.0 
1.273834678703e+01 -8.790890389337e+00 0.0 
1.192275845670e+01 -8.242261327467e+00 0.0 
4.477236023583e+01 -1.824312396664e+01 0.0 
1.102989384254e+01 -8.649855800911e+00 0.0 
4.849096516045e+01 -1.917293752213e+01 0.0 
1.588996752238e+00 -1.910230934687e+01 0.0 
4.904245197583e+01 -1.159839008158e+01 0.0 
2.753852929608e+01 -5.782128488093e+00 0.0 
1.756133602833e+01 -8.306130313187e-01 0.0 
2.615423700951e+01 -6.153865090092e+00 0.0 
1.028818761294e+01 -7.122020845892e+00 0.0 
2.970818901196e+01 -1.527821347593e+01 0.0 
4.801461623449e+01 -1.164472570985e+01 0.0 
9.455722100419e+00 -6.546069291118e+00 0.0 
3.089099236677e+01 -1.835339328261e+01 0.0 
2.350000000013e+01 -1.920825896750e+01 0.0 
4.830620531887e+01 -1.506626155470e+01 0.0 
1.725381944701e+01 -1.688794487850e+01 0.0 
2.156246225273e+01 -1.475893794002e+01 0.0 
4.919319648787e+01 -1.742767505896e+01 0.0 
4.437935623576e+01 -1.077662927266e+01 0.0 
1.001520521978e+01 -1.652692675208e+00 0.0 
9.067160240050e-01 -1.441937727541e+01 0.0 
2.603365149390e+01 -4.755996613848e+00 0.0 
2.458344439002e+01 -4.873645517696e+00 0.0 
2.304312390142e+01 -3.836552768096e+00 0.0 
2.546923202198e+00 -6.902480355749e+00 0.0 
1.251534969393e+01 -2.490989965776e+00 0.0 
2.454061833377e+01 -3.933354231935e+00 0.0 
1.788186558740e+01 -1.827424884923e+01 0.0 
4.090785243552e+01 -1.166553231904e+01 0.0 
2.230128851568e+01 -1.623015738726e+01 0.0 
2.302362347568e+01 -2.916239960270e+00 0.0 
3.878119254461e+01 -1.830091164002e+01 0.0 
2.210081359958e+01 -1.829238229150e+01 0.0 
8.443704882233e+00 -1.921993252862e+01 0.0 
2.218405824691e+01 -1.724557581508e+01 0.0 
2.151157503963e+01 -2.790636689331e+00 0.0 
3.741658958955e+01 -1.250400191722e+01 0.0 
2.697247663737e+01 -1.838290202309e+01 0.0 
4.743362342862e+01 -1.585850773010e+01 0.0 
6.671345075358e+00 -1.924977576322e+01 0.0 
3.900825404537e+01 -1.157220003875e+01 0.0 
4.649692961375e+01 -1.836335837481e+01 0.0 
1.578831424832e+01 -3.678284023361e+00 0.0 
4.814208768888e+01 -1.841249298770e+01 0.0 
2.964123298315e+01 -1.625739458193e+01 0.0 
4.580760351902e+01 -1.284294554687e+01 0.0 
3.561520879615e+01 -1.245548941949e+01 0.0 
2.555418095658e+00 -1.841101588290e+01 0.0 
3.288468366144e+01 -1.834258164109e+01 0.0 
2.065894391445e+01 -2.240688571739e+00 0.0 
4.739171429915e+01 -1.496536413446e+01 0.0 
3.478086729185e+00 -8.576434653209e+00 0.0 
1.606010630246e+01 -1.588421807951e+00 0.0 
1.018329200594e+01 -1.834320874317e+01 0.0 
2.957213339430e+01 -1.720496954591e+01 0.0 
4.142712790164e+00 -1.837794506222e+01 0.0 
6.698721532573e-01 -2.499999999997e+00 0.0 
8.037039123140e+00 -1.571229354954e+00 0.0 
1.203541361428e+01 -1.847784298001e+01 0.0 
2.899968332038e+01 -1.848264722179e+01 0.0 
1.469229460948e+01 -4.219485753730e+00 0.0 
4.049590781957e+01 -1.932812501995e+01 0.0 
1.996211678340e+01 -1.506329754720e+00 0.0 
4.250588298353e+01 -1.067383247529e+01 0.0 
5.831497011152e+00 -1.635396227234e+00 0.0 
5.317606125670e+00 -1.923927974868e+01 0.0 
4.208546426993e+01 -1.842830665025e+01 0.0 
2.327553405011e+00 -9.459409929662e+00 0.0 
3.568351902251e+01 -1.096637218582e+01 0.0 
1.682104374890e+00 -6.231413350963e+00 0.0 
2.451812238018e+01 -1.766524914339e+01 0.0 
1.058003429638e+01 -2.391839617098e+00 0.0 
4.399988753123e+01 -1.851998776342e+01 0.0 
1.400000000010e+01 -1.852293523028e+01 0.0 
3.604719565984e+01 -1.850662876800e+01 0.0 
1.951297136734e+01 -1.938092349694e+01 0.0 
1.821365318472e+01 -1.531276353287e+00 0.0 
2.298031859732e+01 -1.854635324722e+01 0.0 
1.552168066204e+01 -1.764280741977e+01 0.0 
4.572957713638e+01 -1.073347898229e+01 0.0 
3.429637429624e+01 -1.838861552790e+01 0.0 
2.427434426052e+00 -7.705577451869e+00 0.0 
4.662792031485e+00 -3.359424455416e+00 0.0 
4.926794919243e+01 -1.926794919243e+01 0.0 
7.320508075690e-01 -7.320508075688e-01 0.0 
4.926794919243e+01 -1.073205080757e+01 0.0 
7.320508075705e-01 -1.926794919243e+01 0.0 
2.917460242467e+00 -3.202866455310e+00 0.0 
4.838200575963e+01 -1.232674147454e+01 0.0 
2.998445708009e+01 -1.854403752148e+01 0.0 
5.949940090766e-01 -1.152762038165e+01 0.0 
4.844763495759e+01 -1.678092548787e+01 0.0 
1.301685480160e+01 -3.170056592566e+00 0.0 
1.650046335855e+01 -6.731535384067e-01 0.0 
4.854881540991e+01 -1.405224059779e+01 0.0 
2.119545114693e+01 -1.846813384545e+01 0.0 
3.797852849897e+01 -1.857978513215e+01 0.0 
4.649823708745e+01 -1.338351810816e+01 0.0 
2.012685900976e+01 -2.889659035009e+00 0.0 
2.953271913273e+01 -1.791558075192e+01 0.0 
2.408509097292e+00 -1.021949208421e+01 0.0 
2.642589566221e+01 -1.773216561448e+01 0.0 
1.730010270775e+01 -1.763165076721e+01 0.0 
2.017406551304e+01 -8.513536440582e-01 0.0 
5.254761581934e-01 -1.249999999999e+01 0.0 
6.640448215642e+00 -1.545337834885e+00 0.0 
7.843361506349e+00 -1.852719839527e+01 0.0 
1.588442191088e+00 -1.066158564320e+01 0.0 

SCALARS node_number int
LOOKUP_TABLE default
1
2
3
4
5
6
7
8
9
10
11
12
13
14
15
16
17
18
19
20
21
22
23
24
25
26
27
28
29
30
31
32
33
34
35
36
37
38
39
40
41
42
43
44
45
46
47
48
49
50
51
52
53
54
55
56
57
58
59
60
61
62
63
64
65
66
67
68
69
70
71
72
73
74
75
76
77
78
79
80
81
82
84
85
86
87
88
89
90
91
92
93
104
105
106
107
108
109
110
111
112
113
114
115
116
117
118
119
120
121
122
123
124
125
126
127
128
129
130
131
132
133
134
135
136
362
363
364
365
366
367
368
369
370
371
372
373
374
375
376
377
378
379
380
381
382
383
384
385
386
387
388
389
390
391
392
393
394
395
396
397
398
399
400
401
402
403
404
405
406
407
408
409
410
411
412
413
414
415
416
417
418
419
420
421
422
423
424
425
426
427
428
429
430
431
432
433
434
435
436
437
438
439
440
441
442
443
444
445
446
447
448
449
450
451
452
453
454
455
456
457
458
459
460
461
462
463
464
465
466
467
468
469
470
471
472
473
474
475
476
477
478
479
480
481
482
483
484
485
486
487
488
489
490
491
492
493
494
495
496
497
498
499
500
501
502
503
504
505
506
507
508
509
510
511
512
513
514
515
516
517
518
519
520
521
522
523
524
525
526
527
528
529
530
531
532
533
534
535
536
537
538
539
540
541
542
543
544
545
546
547
548
549
550
551
552
553
554
555
556
557
558
559
560
561
562
563
564
565
566
567
568
569
570
571
572
573
574
575
576
577
578
579
580
581
582
583
584
585
586
587
588
589
590
591
592
593
594
595
596
597
598
599
600
601
602
603
604
605
606
607
608
609
610
611
612
613
614
615
616
617
618
619
620
621
622
623
624
625
626
627
628
629
630
631
632
633
634
635
636
637
638
639
640
641
642
643
644
645
646
647
648
649
650
651
652
653
654
655
656
657
658
659
660
661
662
663
664
665
666
667
668
669
670
671
672
673
674
675
676
677
678
679
680
681
682
683
684
685
686
687
688
689
690
691
692
693
694
695
696
697
698
699
700
701
702
703
704
705
706
707
708
709
710
711
712
713
714
715
716
717
718
719
720
721
722
723
724
725
726
727
728
729
730
731
732
733
734
735
736
737
738
739
740
741
742
743
744
745
746
747
748
749
750
751
752
753
754
755
756
757
758
759
760
761
762
763
764
765
766
767
768
769
770
771
772
773
774
775
776
777
778
779
780
781
782
783
784
785
786
787
788
789
790
791
792
793
794
795
796
797
798
799
800
801
802
803
804
805
806
807
808
809
810
811
812
813
814
815
816
817
818
819
820
821
822
823
824
825
826
827
828
829
830
831
832
833
834
835
836
837
838
839
840
841
842
843
844
845
846
847
848
849
850
851
852
853
854
855
856
857
858
859
860
861
862
863
864
865
866
867
868
869
870
871
872
873
874
875
876
877
878
879
880
881
882
883
884
885
886
887
888
889
890
891
892
893
894
895
896
897
898
899
900
901
902
903
904
905
906
907
908
909
910
911
912
913
914
915
916
917
918
919
920
921
922
923
924
925
926
927
928
929
930
931
932
933
934
935
936
937
938
939
940
941
942
943
944
945
946
947
948
949
950
951
952
953
954
955
956
957
958
959
960
961
962
963
964
965
966
967
968
969
970
971
972
973
974
975
976
977
978
979
980
981
982
983
984
985
986
987
988
989
990
991
992
993
994
995
996
997
998
999
1000
1001
1002
1003
1004
1005
1006
1007
1008
1009
1010
1011
1012
1013
1014
1015
1016
1017
1018
1019
1020
1021
1022
1023
1024
1025
1026
1027
1028
1029
1030
1031
1032
1033
1034
1035
1036
1037
1038
1039
1040
1041
1042
1043
1044
1045
1046
1047
1048
1049
1050
1051
1052
1053
1054
1055
1056
1057
1058
1059
1060
1061
1062
1063
1064
1065
1066
1067
1068
1069
1070
1071
1072
1073
1074
1075
1076
1077
1078
1079
1080
1081
1082
1083
1084
1085
1086
1087
1088
1089
1090
1091
1092
1093
1094
1095
1096
1097
1098
1099
1100
1101
1102
1103
1104
1105
1106
1107
1108
1109
1110
1111
1112
1113
1114
1115
1116
1117
1118
1119
1120
1121
1122
1123
1124
1125
1126
1127
1128
1129
1130
1131
1132
1133
1134
1135
1136
1137
1138
1139
1140
1141
1142
1143
1144
1145
1146
1147
1148
1149
1150
1151
1152
1153
1154
1155
1156
1157
1158
1159
1160
1161
1162
1163
1164
1165
1166
1167
1168
1169
1170
1171
1172
1173
1174
1175
1176
1177
1178
1179
1180
1181
1182
1183
1184
1185
1186
1187
1188
1189
1190
1191
1192
1193
1194
1195
1196
1197
1198
1199
1200
1201
1202
1203
1204
1205
1206
1207
1208
1209
1210
1211
1212
1213
1214
1215
1216
1217
1218
1219
1220
1221
1222
1223
1224
1225
1226
1227
1228
1229
1230
1231
1232
1233
1234
1235
1236
1237
1238
1239
1240
1241
1242
1243
1244
1245
1246
1247
1248
1249
1250
1251
1252
1253
1254
1255
1256
1257
1258
1259
1260
1261
1262
1263
1264

VECTORS node_mesh_deformation float
0.0 7.172517689927e-02 0.0 
0.000000000000e+00 1.629015387850e-01 0.0 
0.0 0.000000000000e+00 0.0 
0.000000000000e+00 0.000000000000e+00 0.0 
0.0 7.231320130914e-02 0.0 
0.0 7.309185693155e-02 0.0 
0.0 7.335885609214e-02 0.0 
0.0 7.306470016416e-02 0.0 
0.0 7.212125534532e-02 0.0 
0.0 7.045913093047e-02 0.0 
0.0 6.809324672318e-02 0.0 
0.0 6.513736384199e-02 0.0 
0.0 6.173687242083e-02 0.0 
0.0 5.791848347843e-02 0.0 
0.0 5.368713713939e-02 0.0 
0.0 4.908779963066e-02 0.0 
0.0 4.412777885473e-02 0.0 
0.0 3.883716228767e-02 0.0 
0.0 3.316708535455e-02 0.0 
0.0 2.715126074868e-02 0.0 
0.0 2.085398128366e-02 0.0 
0.0 1.428710065843e-02 0.0 
0.0 7.363476613115e-03 0.0 
0.000000000000e+00 0.000000000000e+00 0.0 
0.000000000000e+00 0.000000000000e+00 0.0 
0.000000000000e+00 0.000000000000e+00 0.0 
0.000000000000e+00 0.000000000000e+00 0.0 
0.000000000000e+00 0.000000000000e+00 0.0 
0.000000000000e+00 0.000000000000e+00 0.0 
0.000000000000e+00 0.000000000000e+00 0.0 
0.000000000000e+00 0.000000000000e+00 0.0 
0.000000000000e+00 0.000000000000e+00 0.0 
0.000000000000e+00 0.000000000000e+00 0.0 
0.000000000000e+00 0.000000000000e+00 0.0 
0.000000000000e+00 0.000000000000e+00 0.0 
0.000000000000e+00 0.000000000000e+00 0.0 
0.000000000000e+00 0.000000000000e+00 0.0 
0.000000000000e+00 0.000000000000e+00 0.0 
0.000000000000e+00 0.000000000000e+00 0.0 
0.000000000000e+00 0.000000000000e+00 0.0 
0.000000000000e+00 0.000000000000e+00 0.0 
0.000000000000e+00 0.000000000000e+00 0.0 
0.000000000000e+00 0.000000000000e+00 0.0 
0.000000000000e+00 0.000000000000e+00 0.0 
0.000000000000e+00 0.000000000000e+00 0.0 
0.000000000000e+00 0.000000000000e+00 0.0 
0.000000000000e+00 0.000000000000e+00 0.0 
0.000000000000e+00 0.000000000000e+00 0.0 
0.000000000000e+00 0.000000000000e+00 0.0 
0.000000000000e+00 0.000000000000e+00 0.0 
0.000000000000e+00 0.000000000000e+00 0.0 
0.000000000000e+00 0.000000000000e+00 0.0 
0.000000000000e+00 0.000000000000e+00 0.0 
0.000000000000e+00 0.000000000000e+00 0.0 
0.000000000000e+00 0.000000000000e+00 0.0 
0.000000000000e+00 0.000000000000e+00 0.0 
0.000000000000e+00 0.000000000000e+00 0.0 
0.000000000000e+00 0.000000000000e+00 0.0 
0.000000000000e+00 0.000000000000e+00 0.0 
0.000000000000e+00 0.000000000000e+00 0.0 
0.000000000000e+00 0.000000000000e+00 0.0 
0.000000000000e+00 0.000000000000e+00 0.0 
0.000000000000e+00 0.000000000000e+00 0.0 
0.000000000000e+00 0.000000000000e+00 0.0 
0.000000000000e+00 0.000000000000e+00 0.0 
0.000000000000e+00 0.000000000000e+00 0.0 
0.000000000000e+00 0.000000000000e+00 0.0 
0.000000000000e+00 0.000000000000e+00 0.0 
0.000000000000e+00 0.000000000000e+00 0.0 
0.000000000000e+00 0.000000000000e+00 0.0 
0.000000000000e+00 0.000000000000e+00 0.0 
0.000000000000e+00 0.000000000000e+00 0.0 
0.000000000000e+00 1.482166322027e-01 0.0 
0.000000000000e+00 1.331098150463e-01 0.0 
0.000000000000e+00 1.176028807465e-01 0.0 
0.000000000000e+00 1.017226529111e-01 0.0 
0.000000000000e+00 8.548696071200e-02 0.0 
0.000000000000e+00 6.892707350011e-02 0.0 
0.000000000000e+00 5.207006329672e-02 0.0 
0.000000000000e+00 3.494567611902e-02 0.0 
0.000000000000e+00 1.758671811225e-02 0.0 
-1.994226460042e-03 7.856004981639e-02 0.0 
2.580740696611e-02 1.521094897965e-01 0.0 
1.827040722592e-03 8.896346698018e-02 0.0 
5.902057424347e-03 1.012687134223e-01 0.0 
1.073223568243e-02 1.144403722616e-01 0.0 
1.656992374401e-02 1.274018908706e-01 0.0 
2.277859458306e-02 1.387857057518e-01 0.0 
2.844330133131e-02 1.471444114462e-01 0.0 
3.231160282418e-02 1.527563875827e-01 0.0 
3.363453474995e-02 1.560626883553e-01 0.0 
3.181428756405e-02 1.566109378976e-01 0.0 
1.604660814444e-03 1.629809369935e-01 0.0 
3.146511050488e-03 1.629915903974e-01 0.0 
4.700543474236e-03 1.630623835766e-01 0.0 
6.262997457888e-03 1.631631268372e-01 0.0 
7.830978638822e-03 1.632423408985e-01 0.0 
9.392291795962e-03 1.633151603523e-01 0.0 
1.095122740681e-02 1.633317808950e-01 0.0 
1.249640935863e-02 1.632590463708e-01 0.0 
1.403464200293e-02 1.630359755409e-01 0.0 
1.557088644014e-02 1.626171927942e-01 0.0 
1.710168545814e-02 1.618577729097e-01 0.0 
1.868503879921e-02 1.606454344074e-01 0.0 
2.042740899798e-02 1.588338280180e-01 0.0 
2.256119674261e-02 1.565211314433e-01 0.0 
-8.463540493615e-04 7.274951089211e-02 0.0 
7.256520916172e-04 6.784424415183e-02 0.0 
2.496166466685e-03 6.387600025623e-02 0.0 
4.410972806301e-03 6.088421608456e-02 0.0 
6.212840716348e-03 5.891769602942e-02 0.0 
7.898984371399e-03 5.793084469536e-02 0.0 
9.386095178050e-03 5.787945306363e-02 0.0 
1.057041004582e-02 5.866547696837e-02 0.0 
1.137211054520e-02 6.008880038691e-02 0.0 
1.178656377976e-02 6.189426479869e-02 0.0 
1.187529832935e-02 6.382261186619e-02 0.0 
1.175197271632e-02 6.577986012186e-02 0.0 
1.150440330779e-02 6.762620639429e-02 0.0 
1.063680387288e-02 6.917678643852e-02 0.0 
8.713817887620e-03 6.989580887078e-02 0.0 
7.122176321980e-03 7.049382700864e-02 0.0 
5.437057782181e-03 7.092298514021e-02 0.0 
3.774775600876e-03 7.122737627232e-02 0.0 
1.729850958715e-03 7.161589436353e-02 0.0 
-2.180033065358e-05 8.350343678137e-02 0.0 
3.812102374972e-03 9.494299652097e-02 0.0 
8.228701514220e-03 1.077658329825e-01 0.0 
1.357565751619e-02 1.210442173770e-01 0.0 
1.969135645787e-02 1.336018775899e-01 0.0 
2.588448003734e-02 1.434902783034e-01 0.0 
3.068037861704e-02 1.502157849261e-01 0.0 
3.334313757449e-02 1.546765182977e-01 0.0 
3.317889317324e-02 1.566505633310e-01 0.0 
2.949854790795e-02 1.554537267327e-01 0.0 
9.052402789333e-03 9.318587422710e-02 0.0 
3.120740610306e-03 7.982505537925e-03 0.0 
1.040605228537e-02 6.076916583985e-02 0.0 
6.962968667271e-03 5.922928279912e-02 0.0 
1.548043165089e-03 7.288910190674e-03 0.0 
2.043753240892e-02 1.170526367922e-01 0.0 
-1.326401096513e-04 5.569208754984e-02 0.0 
4.746335207582e-03 8.804593846026e-03 0.0 
3.161065822022e-02 1.359363759116e-01 0.0 
6.168471420992e-03 9.489843032469e-03 0.0 
3.533042384994e-02 1.444412321138e-01 0.0 
6.892590102145e-04 6.356760789338e-03 0.0 
9.705120902903e-03 6.877547691070e-02 0.0 
7.700633714865e-03 1.061079266511e-02 0.0 
2.863518358261e-02 1.414229286989e-01 0.0 
3.260615346925e-04 6.916526319082e-02 0.0 
-2.012526327262e-04 4.254545431533e-02 0.0 
8.927204506456e-03 1.199791951653e-02 0.0 
7.073352816690e-03 1.314243436990e-02 0.0 
1.642116586424e-03 1.496976783593e-02 0.0 
3.206083618494e-03 1.600738842809e-02 0.0 
4.656679615351e-03 1.385389718024e-02 0.0 
2.294943346115e-02 1.445617323904e-01 0.0 
1.521057690618e-02 1.495727790705e-01 0.0 
1.019111866960e-02 1.497017090569e-01 0.0 
1.020618160645e-03 9.340468349950e-02 0.0 
3.512743509333e-04 6.647318441694e-03 0.0 
3.621853902754e-03 6.992666573289e-02 0.0 
5.916923521016e-03 7.122919542225e-02 0.0 
-9.901329645756e-05 2.453931322343e-02 0.0 
5.319497284887e-03 1.504633255211e-01 0.0 
1.202635996958e-03 7.324133737060e-02 0.0 
9.613500631040e-03 1.414252775150e-02 0.0 
5.057541297770e-03 8.414547388981e-03 0.0 
6.837385493725e-03 9.865074746369e-03 0.0 
4.182197822125e-03 8.886407384793e-03 0.0 
2.298060557756e-03 7.290522912378e-03 0.0 
8.950143132932e-03 5.725204930626e-02 0.0 
1.879391531779e-02 1.489002959144e-01 0.0 
1.248489152212e-03 8.056952728577e-03 0.0 
7.824586077945e-04 6.125636807966e-02 0.0 
1.031231245766e-02 6.476746894293e-02 0.0 
8.135149557109e-06 6.338503769249e-02 0.0 
8.053918085338e-04 1.220453483289e-02 0.0 
2.667092435714e-02 1.269300653871e-01 0.0 
1.427306129264e-02 1.049775288606e-01 0.0 
3.473335530046e-02 1.412934399886e-01 0.0 
3.319190341313e-02 1.448196010134e-01 0.0 
4.261177749665e-03 8.275882809640e-02 0.0 
1.221242701192e-03 1.235624699255e-01 0.0 
1.542461567960e-04 5.155985955476e-03 0.0 
2.515540793692e-03 7.203360012150e-02 0.0 
4.336190253511e-04 2.758718178739e-02 0.0 
2.781930633439e-02 1.374434052043e-01 0.0 
3.019001820702e-02 1.281782351618e-01 0.0 
2.820521745037e-02 1.257619458316e-01 0.0 
3.073548519480e-02 1.150328742608e-01 0.0 
2.878896633526e-02 1.104506216193e-01 0.0 
3.052642678166e-02 1.012373235422e-01 0.0 
3.262111985103e-02 1.053229608149e-01 0.0 
3.189854667072e-02 9.209272496498e-02 0.0 
3.407589765450e-02 9.597346381101e-02 0.0 
2.815504822272e-02 9.611242849057e-02 0.0 
3.288517571097e-02 8.313428107016e-02 0.0 
3.514694711472e-02 8.687427156606e-02 0.0 
3.351862133849e-02 7.441965402694e-02 0.0 
3.585979993576e-02 7.803781240866e-02 0.0 
3.708406583620e-02 8.990340466872e-02 0.0 
3.787877911128e-02 8.103640303844e-02 0.0 
3.868086013376e-02 9.223338268331e-02 0.0 
3.955320581908e-02 8.335451651336e-02 0.0 
3.836662645687e-02 7.249940306112e-02 0.0 
4.011911938294e-02 7.485955756251e-02 0.0 
4.087317792969e-02 8.504487793083e-02 0.0 
4.150314282379e-02 7.662495200646e-02 0.0 
4.181920312542e-02 8.611320802604e-02 0.0 
4.247817705270e-02 7.773607381870e-02 0.0 
4.235558503705e-02 8.651253205150e-02 0.0 
4.289773489160e-02 7.796911118106e-02 0.0 
4.270759313872e-02 6.959659955594e-02 0.0 
4.300347969649e-02 6.983020331763e-02 0.0 
4.272122687119e-02 7.737152161661e-02 0.0 
4.273180895685e-02 6.938853317820e-02 0.0 
4.201677535509e-02 7.615671949435e-02 0.0 
4.196119771021e-02 6.845163286152e-02 0.0 
4.209574185421e-02 6.221266062088e-02 0.0 
4.114174394711e-02 6.173029514123e-02 0.0 
4.074628991235e-02 6.717132046600e-02 0.0 
3.974064840959e-02 6.099419473586e-02 0.0 
3.913160682586e-02 6.566204625927e-02 0.0 
3.793883928175e-02 6.008447939209e-02 0.0 
3.716643129999e-02 6.400881498792e-02 0.0 
3.578050390939e-02 5.907953020130e-02 0.0 
3.492627485472e-02 5.637791971471e-02 0.0 
3.272068393852e-02 5.592577071936e-02 0.0 
3.333364428958e-02 5.806089690024e-02 0.0 
3.027752656136e-02 5.547244483206e-02 0.0 
2.890183478723e-02 5.380088402976e-02 0.0 
2.661046811292e-02 5.377750484839e-02 0.0 
2.513013260296e-02 5.197671085399e-02 0.0 
2.303383289381e-02 5.230965987114e-02 0.0 
2.418825929439e-02 5.377277046702e-02 0.0 
2.081294365926e-02 5.263670608409e-02 0.0 
1.976241391090e-02 5.084173349013e-02 0.0 
1.773357150659e-02 5.148189999735e-02 0.0 
1.851193223818e-02 5.299941355940e-02 0.0 
1.563886967417e-02 5.211510692207e-02 0.0 
1.493710662810e-02 5.027416677790e-02 0.0 
1.302234373517e-02 5.117452689079e-02 0.0 
1.352130891415e-02 5.277808120126e-02 0.0 
1.109224342707e-02 5.207870268146e-02 0.0 
1.065231811424e-02 5.014610280805e-02 0.0 
8.883755719975e-03 5.131202895425e-02 0.0 
9.193992987365e-03 5.303834585181e-02 0.0 
7.171217222121e-03 5.251282510350e-02 0.0 
6.894071866947e-03 5.045288038346e-02 0.0 
5.351697206939e-03 5.191866557222e-02 0.0 
5.124233082830e-03 4.950361537153e-02 0.0 
5.577846762712e-03 5.386533661903e-02 0.0 
3.963201243895e-03 5.351374883903e-02 0.0 
4.231750345527e-03 5.543559716338e-02 0.0 
2.839098205520e-03 5.532233816428e-02 0.0 
3.936274921470e-02 5.692675733289e-02 0.0 
3.258176621479e-03 5.726755592154e-02 0.0 
4.605703962991e-03 5.699203110176e-02 0.0 
2.080265596136e-03 5.740079343346e-02 0.0 
1.651058305561e-03 5.507975277335e-02 0.0 
2.680794962585e-03 5.938657135279e-02 0.0 
1.693134854845e-03 5.973340431092e-02 0.0 
2.471043427337e-03 6.173472096473e-02 0.0 
3.732397193910e-02 7.048189085971e-02 0.0 
3.857663005456e-02 6.429564113641e-02 0.0 
1.619843696305e-03 6.223032132360e-02 0.0 
2.522983832243e-03 6.417571650430e-02 0.0 
3.407992174080e-03 6.340992311154e-02 0.0 
3.589986280025e-03 6.577022604799e-02 0.0 
2.650120130789e-02 1.051589042402e-01 0.0 
2.554256571486e-02 9.020446541427e-02 0.0 
2.405132935284e-02 9.905863025549e-02 0.0 
2.274427514600e-02 8.365979937898e-02 0.0 
2.144738869465e-02 9.215926562176e-02 0.0 
2.713873667474e-03 6.656058074212e-02 0.0 
3.085978699553e-02 6.972092876519e-02 0.0 
2.373443380274e-02 7.497836374904e-02 0.0 
4.083389817389e-02 9.490580484889e-02 0.0 
4.166625001569e-02 8.452147693415e-02 0.0 
2.703685722411e-02 5.160759670317e-02 0.0 
8.862236827003e-04 5.989303585569e-02 0.0 
9.192325988323e-04 6.248795831863e-02 0.0 
2.971322839862e-04 5.979527687284e-02 0.0 
6.572886257723e-03 4.786521534562e-02 0.0 
4.889124906732e-03 4.656358554533e-02 0.0 
6.197317598270e-03 4.470139429219e-02 0.0 
4.631925753777e-03 4.304993620249e-02 0.0 
5.761510715868e-03 4.092382746268e-02 0.0 
4.343989138414e-03 3.892011232936e-02 0.0 
3.340860618291e-03 4.124157581157e-02 0.0 
3.196855820942e-03 3.675810445922e-02 0.0 
2.319883936718e-03 3.925970155024e-02 0.0 
5.261201150340e-03 3.649814815359e-02 0.0 
6.794502497073e-03 3.870030629071e-02 0.0 
2.296303784936e-03 3.444291552563e-02 0.0 
1.542862093699e-03 3.710700001421e-02 0.0 
1.609176738738e-03 3.198783131910e-02 0.0 
9.717703227947e-04 3.480963333025e-02 0.0 
7.928688015975e-04 3.971779228746e-02 0.0 
3.456312767698e-04 3.758055388906e-02 0.0 
1.214983609952e-04 4.232622253580e-02 0.0 
2.340123238198e-02 4.947473605518e-02 0.0 
2.490726157255e-02 4.866674136465e-02 0.0 
2.140886779599e-02 4.625191034608e-02 0.0 
2.248169758224e-02 4.496414192088e-02 0.0 
1.916446703878e-02 4.226515220427e-02 0.0 
1.978334367579e-02 4.045917200250e-02 0.0 
1.666364379943e-02 3.749216162848e-02 0.0 
1.615115691732e-02 3.958465300422e-02 0.0 
3.385399731451e-02 6.582165853762e-02 0.0 
3.066986848600e-02 5.709982439717e-02 0.0 
3.235046334431e-02 6.069994877838e-02 0.0 
2.964618467972e-02 5.916194149073e-02 0.0 
3.015310430106e-02 6.361968283182e-02 0.0 
2.744121475723e-02 6.155494461903e-02 0.0 
2.719339050629e-02 6.651481983150e-02 0.0 
2.445721222240e-02 6.401710478617e-02 0.0 
2.465981739522e-02 5.969687967715e-02 0.0 
2.171755523752e-02 6.174648705729e-02 0.0 
2.183836254894e-02 5.810191454282e-02 0.0 
1.901180274263e-02 5.974338755466e-02 0.0 
1.902239923261e-02 5.682052807596e-02 0.0 
4.243381318532e-02 6.190707002543e-02 0.0 
2.320931978205e-02 4.345253508824e-02 0.0 
2.001205887480e-02 3.836618380753e-02 0.0 
2.351870002372e-02 4.165231226480e-02 0.0 
4.498644073345e-03 6.478131099644e-02 0.0 
5.605348955715e-04 3.239416476885e-02 0.0 
6.041269259935e-03 3.393627307977e-02 0.0 
7.684678198130e-03 3.638850370033e-02 0.0 
1.383668169190e-02 3.453599045773e-02 0.0 
3.863718278146e-03 6.801138675269e-02 0.0 
2.365930021222e-02 6.928710398551e-02 0.0 
2.640125705821e-02 7.237985901736e-02 0.0 
1.985144572366e-02 7.636316454078e-02 0.0 
1.877955967988e-02 8.461679565660e-02 0.0 
6.640758210681e-03 3.121458303511e-02 0.0 
2.948505772278e-03 6.878593408277e-02 0.0 
2.987726397729e-03 3.167387385739e-02 0.0 
1.821663991033e-02 6.382104503050e-02 0.0 
4.626123280449e-05 3.532457304271e-02 0.0 
2.891945404251e-04 2.986940829281e-02 0.0 
2.315475394983e-03 4.349684513469e-02 0.0 
1.979628441183e-02 3.593874225208e-02 0.0 
2.342350028041e-02 3.959803571305e-02 0.0 
2.104679957841e-02 5.573693247728e-02 0.0 
1.817724635205e-02 5.510094096285e-02 0.0 
1.628853025207e-02 5.586663535005e-02 0.0 
1.544052933659e-02 5.466273221029e-02 0.0 
1.634202858239e-02 5.453258572296e-02 0.0 
1.372421050905e-02 5.473727900784e-02 0.0 
1.301416501701e-02 5.483886334313e-02 0.0 
1.149544992568e-02 5.527161374736e-02 0.0 
1.167219317352e-02 5.521386179563e-02 0.0 
9.736603396538e-03 5.606022505029e-02 0.0 
9.778786895110e-03 5.623983380859e-02 0.0 
8.340954782859e-03 5.731899616538e-02 0.0 
7.293632871601e-04 2.673398527148e-02 0.0 
1.563877655886e-02 6.148521768661e-02 0.0 
3.746996225876e-02 1.014565824512e-01 0.0 
5.174462904051e-03 2.847649682924e-02 0.0 
1.395324360123e-02 3.199405123700e-02 0.0 
1.692698549872e-02 6.849040052700e-02 0.0 
1.609697191522e-02 7.655680032298e-02 0.0 
1.748694043895e-02 9.278517977158e-02 0.0 
1.505104237329e-02 8.451410020112e-02 0.0 
1.345275077045e-02 6.807469311097e-02 0.0 
1.265806941840e-02 7.592397822495e-02 0.0 
1.386162584640e-02 9.233028628802e-02 0.0 
1.170236436280e-02 8.364348208944e-02 0.0 
1.258862694826e-02 9.995819438329e-02 0.0 
1.063755815296e-02 9.121020008452e-02 0.0 
9.620241567681e-03 7.472689668075e-02 0.0 
8.752989644186e-03 8.229080722046e-02 0.0 
9.503837133281e-03 9.863709879087e-02 0.0 
7.786698636345e-03 8.973457305658e-02 0.0 
8.326309700763e-03 1.059177611328e-01 0.0 
6.745475225451e-03 9.705881376916e-02 0.0 
6.164201257327e-03 8.070905346694e-02 0.0 
4.093770940375e-03 6.996500062399e-02 0.0 
1.343237352028e-02 3.692246133374e-02 0.0 
1.130509809912e-02 3.158546925118e-02 0.0 
4.047537551255e-04 6.239028296944e-02 0.0 
-7.434803475448e-05 5.936202715835e-02 0.0 
-1.458191264563e-04 5.667402788019e-02 0.0 
-3.698870307591e-04 5.588246756529e-02 0.0 
5.231340245771e-03 8.816552906174e-02 0.0 
4.667023931489e-03 7.159715443195e-02 0.0 
2.254920867334e-02 7.527615442963e-02 0.0 
2.530340045525e-02 7.895693743687e-02 0.0 
1.747257050337e-02 6.035936888952e-02 0.0 
-1.183261236468e-04 3.295149965725e-02 0.0 
-3.577482733048e-04 3.826486499860e-02 0.0 
4.056057410565e-02 8.253981006281e-02 0.0 
3.984238068391e-02 9.124078936451e-02 0.0 
3.837965644387e-02 8.856493323898e-02 0.0 
3.727031327346e-02 9.765375512293e-02 0.0 
3.872339210515e-02 1.005655327617e-01 0.0 
3.548349796004e-02 9.426834694728e-02 0.0 
8.616273097291e-03 4.084693768143e-02 0.0 
7.659056346078e-03 6.564745281538e-02 0.0 
4.358349315355e-03 6.247792881170e-02 0.0 
5.431548074385e-03 6.363824696689e-02 0.0 
1.076837975491e-04 2.727041481497e-02 0.0 
1.533585554177e-02 4.147948798494e-02 0.0 
4.170080184125e-02 6.080474879933e-02 0.0 
3.944749644806e-02 5.454083546204e-02 0.0 
3.826052643210e-02 5.255481260530e-02 0.0 
3.432365695936e-02 4.759335737704e-02 0.0 
3.261262230419e-02 4.478517394429e-02 0.0 
2.829335409317e-02 4.020389429246e-02 0.0 
2.995045447091e-02 4.316860654766e-02 0.0 
1.908240955398e-02 3.309336549728e-02 0.0 
2.418072285665e-02 3.567346742263e-02 0.0 
5.738106679182e-03 1.044210543568e-01 0.0 
2.696201935780e-02 4.653826588613e-02 0.0 
9.639834961016e-03 5.575443778030e-02 0.0 
5.064736274624e-03 6.899536583588e-02 0.0 
8.743836125547e-03 5.769221016755e-02 0.0 
3.147505091191e-03 7.076275240480e-02 0.0 
2.106128882268e-03 6.928117777540e-02 0.0 
5.461801404813e-03 2.534301935282e-02 0.0 
2.605711070918e-02 3.658713516164e-02 0.0 
3.033709827047e-02 4.135865410424e-02 0.0 
3.637045380541e-02 1.071852842336e-01 0.0 
3.763455455701e-02 1.102365596395e-01 0.0 
1.576840115749e-02 2.932981646906e-02 0.0 
2.226042608178e-02 1.079136670675e-01 0.0 
1.456170709925e-02 1.084869801145e-01 0.0 
1.306101293252e-02 1.159650565891e-01 0.0 
4.454949433154e-03 7.168261449596e-02 0.0 
9.803365344144e-03 5.649482223687e-02 0.0 
1.090984172032e-02 5.928898559034e-02 0.0 
2.906222505982e-02 7.568893488777e-02 0.0 
2.801392389827e-02 8.281837681948e-02 0.0 
1.438681643852e-02 6.576195120292e-02 0.0 
1.204442075718e-02 6.312687922652e-02 0.0 
3.896344975665e-03 7.893423814501e-02 0.0 
3.359807216995e-03 6.237640296144e-02 0.0 
-3.777224857808e-04 5.310581132069e-02 0.0 
-5.313075003701e-04 5.195656095522e-02 0.0 
7.018331429082e-03 2.827832983650e-02 0.0 
7.523038237418e-03 5.893181253198e-02 0.0 
3.888125005268e-03 5.477500784005e-02 0.0 
1.273209087223e-02 3.908082556992e-02 0.0 
1.426662257402e-02 4.320726973249e-02 0.0 
-2.212981743859e-04 5.865436402132e-02 0.0 
2.147326911224e-02 8.167111416949e-02 0.0 
1.858549173185e-02 7.773088284843e-02 0.0 
1.167879014914e-02 5.498394022411e-02 0.0 
6.922228236125e-03 5.835343766859e-02 0.0 
2.191790892585e-03 7.109397247100e-02 0.0 
5.485731257835e-03 2.195866794303e-02 0.0 
1.123079398968e-02 5.143564764846e-02 0.0 
2.585968176921e-02 3.889961796912e-02 0.0 
3.105920318513e-02 4.559360879940e-02 0.0 
2.030026107687e-02 3.131405909334e-02 0.0 
8.197271063025e-03 5.937781232908e-02 0.0 
4.163788362307e-03 2.230616794117e-02 0.0 
-2.023802197710e-04 3.050632069751e-02 0.0 
2.363446494693e-02 3.282093963426e-02 0.0 
2.757249266910e-02 3.738306988125e-02 0.0 
3.159987603197e-02 7.911023010094e-02 0.0 
3.068090907496e-02 8.677146504755e-02 0.0 
2.726707715528e-02 9.035398612327e-02 0.0 
3.001632267065e-02 9.483786030202e-02 0.0 
3.439980751399e-02 1.086304834935e-01 0.0 
3.402443844541e-02 8.251027099523e-02 0.0 
3.867914844371e-02 1.031158464368e-01 0.0 
3.707706412579e-02 1.126819298633e-01 0.0 
3.789889677362e-02 1.136717953902e-01 0.0 
3.967422629586e-02 1.028394561207e-01 0.0 
3.829323847397e-02 1.122746549204e-01 0.0 
3.273089161012e-02 6.588313838019e-02 0.0 
2.870354012045e-02 5.115171547489e-02 0.0 
1.461073192655e-05 5.401055618277e-02 0.0 
6.140872465190e-04 4.413149968414e-02 0.0 
8.024541000241e-03 4.622241725226e-02 0.0 
8.185159379650e-03 5.797856397639e-02 0.0 
6.198279585526e-03 4.874833284747e-02 0.0 
9.956405473027e-03 1.146469016718e-01 0.0 
8.636822410438e-03 1.217435971558e-01 0.0 
5.742867426497e-03 6.585229488301e-02 0.0 
6.665478457278e-03 6.453417306062e-02 0.0 
3.597524400659e-03 4.842572931570e-02 0.0 
3.966230366503e-03 2.563996834153e-02 0.0 
1.432372554033e-02 5.217653352288e-02 0.0 
1.427287119069e-02 4.418102375678e-02 0.0 
1.767562975117e-02 5.219357744184e-02 0.0 
7.121776321632e-03 2.509578197615e-02 0.0 
2.787850539761e-02 5.626179316839e-02 0.0 
2.006607444462e-02 4.738719101717e-02 0.0 
1.325872502730e-02 5.958634639794e-02 0.0 
3.996526249021e-02 5.662671211783e-02 0.0 
7.065499477591e-03 6.661518640174e-02 0.0 
3.638762984905e-02 6.133320370752e-02 0.0 
-3.536530863713e-06 2.460263220431e-02 0.0 
2.658458750582e-04 2.118154085539e-02 0.0 
1.454964348302e-02 2.584631084567e-02 0.0 
3.134743885435e-02 1.310578096255e-01 0.0 
3.585717038901e-02 5.239920688910e-02 0.0 
3.528022959495e-02 5.312007756187e-02 0.0 
3.603807018383e-02 1.234799300717e-01 0.0 
3.671670268352e-02 1.237121434321e-01 0.0 
3.835690668955e-02 1.139617378055e-01 0.0 
3.712180684144e-02 1.232882160401e-01 0.0 
9.534382156808e-03 5.518573111547e-02 0.0 
7.785441108311e-03 5.621676213190e-02 0.0 
1.903719723418e-02 2.730366120825e-02 0.0 
1.827630828714e-02 2.758758237689e-02 0.0 
2.057437207579e-02 2.837136719712e-02 0.0 
2.430078409352e-02 3.282237340837e-02 0.0 
1.149931857675e-02 2.184328927132e-02 0.0 
1.275606558552e-02 2.558249308176e-02 0.0 
1.357731702176e-03 6.939502422036e-02 0.0 
3.685225074645e-02 1.196632375109e-01 0.0 
8.588785890275e-03 4.244314549364e-02 0.0 
3.511915387319e-02 1.226198851617e-01 0.0 
3.113666523218e-03 1.936749466957e-02 0.0 
2.985862282797e-03 2.271433216226e-02 0.0 
1.010688070851e-02 6.097458905961e-02 0.0 
1.126818071159e-02 5.790611487848e-02 0.0 
2.661013050826e-03 4.578669928126e-02 0.0 
2.643881918348e-02 9.843408982497e-02 0.0 
2.932270275672e-02 1.033804059640e-01 0.0 
2.333966193031e-02 9.346358540098e-02 0.0 
7.035885347062e-05 1.093739362021e-02 0.0 
2.320948212891e-03 1.505339393852e-01 0.0 
1.681818057797e-04 1.828911887219e-02 0.0 
4.006657330766e-02 1.040662527603e-01 0.0 
2.892982334096e-03 3.740235249256e-02 0.0 
3.156056752564e-02 4.880501027053e-02 0.0 
3.900278031456e-02 8.025605246464e-02 0.0 
8.859192921385e-03 3.113949849600e-02 0.0 
2.149082209364e-03 5.483166982990e-02 0.0 
1.601135255754e-03 3.599929653712e-02 0.0 
1.478782230360e-02 1.240618339104e-01 0.0 
1.320218240948e-02 1.316020341410e-01 0.0 
1.651111326404e-02 1.167183605817e-01 0.0 
1.703941399704e-02 6.870866504908e-02 0.0 
1.247589752685e-02 7.135014741829e-02 0.0 
5.860534645706e-03 5.643569025314e-02 0.0 
1.047247756280e-03 6.497942658448e-02 0.0 
4.411662535784e-04 6.468627083397e-02 0.0 
6.380435472126e-03 6.020547238059e-02 0.0 
5.635795603286e-03 5.933845468062e-02 0.0 
-1.002783274302e-04 5.047414896894e-02 0.0 
5.050486352642e-04 5.154133401413e-02 0.0 
3.623528858001e-02 5.332819170305e-02 0.0 
3.359338197632e-02 4.982786298973e-02 0.0 
4.036667574103e-02 5.900290855098e-02 0.0 
1.178699429096e-02 4.106649427494e-02 0.0 
1.299666758288e-02 4.480659350382e-02 0.0 
1.562405327742e-02 4.662183296591e-02 0.0 
6.387985803499e-03 4.154435910174e-02 0.0 
4.269094804449e-03 3.077417198525e-02 0.0 
1.161705388467e-02 5.442724586829e-02 0.0 
1.403089910335e-02 5.447586273529e-02 0.0 
7.600491404968e-03 5.532752910456e-02 0.0 
8.410604437501e-03 3.491019774545e-02 0.0 
3.499837864980e-04 1.482489372026e-02 0.0 
5.153605646377e-04 1.789913274655e-02 0.0 
7.961259852632e-03 6.514368123169e-02 0.0 
7.572755394845e-03 6.303461795201e-02 0.0 
1.699799041947e-02 8.417518414439e-02 0.0 
1.400526175178e-02 8.009269508938e-02 0.0 
1.401475760172e-02 3.681612075770e-02 0.0 
1.753625822623e-02 4.419743342021e-02 0.0 
1.022509713840e-02 2.790352969138e-02 0.0 
1.322008005697e-03 7.117152049591e-02 0.0 
2.693796092292e-02 4.145830631159e-02 0.0 
5.382061516283e-03 1.868149546249e-02 0.0 
7.113036730011e-03 2.203403043431e-02 0.0 
3.700208721977e-03 1.444390733892e-02 0.0 
1.804652346958e-02 3.013179319553e-02 0.0 
1.300494202513e-02 2.232439196469e-02 0.0 
1.442157102266e-02 2.284369804505e-02 0.0 
8.561699749880e-03 6.434409675086e-02 0.0 
1.197515493232e-03 4.307443655023e-02 0.0 
1.016191584760e-02 1.302969310346e-01 0.0 
7.470119343136e-03 6.230471508515e-02 0.0 
8.749281189232e-03 1.377307303160e-01 0.0 
7.364185768829e-03 1.288154902696e-01 0.0 
7.561038146051e-03 1.449688179880e-01 0.0 
1.898283116557e-03 7.234268901308e-02 0.0 
1.649045558479e-02 1.346628117779e-01 0.0 
1.850805065833e-02 1.251873378865e-01 0.0 
9.043398561035e-03 6.356001387229e-02 0.0 
5.724130303562e-03 2.594445513179e-02 0.0 
8.361880062431e-03 6.692508195854e-02 0.0 
7.450639380427e-03 6.831184815330e-02 0.0 
2.267659764879e-03 1.609521121766e-02 0.0 
2.216516961830e-03 1.967042029528e-02 0.0 
1.591545732950e-03 1.291783780349e-02 0.0 
1.630453384847e-03 1.693635240805e-02 0.0 
1.979499368209e-03 2.316740930853e-02 0.0 
1.435110681630e-03 2.022107939358e-02 0.0 
1.176125630986e-02 1.399917231079e-01 0.0 
1.099418253621e-03 1.283006406990e-02 0.0 
1.022710502506e-03 1.706081168775e-02 0.0 
7.181693199731e-04 9.794401170684e-03 0.0 
3.623604516046e-02 1.333151548565e-01 0.0 
3.231556903222e-02 9.930997426641e-02 0.0 
3.178619873723e-02 1.084561585775e-01 0.0 
2.727765577971e-02 1.135387367302e-01 0.0 
1.547728845925e-02 2.124344225411e-02 0.0 
2.102264595572e-02 2.834788484991e-02 0.0 
-2.024197435919e-04 2.784434327489e-02 0.0 
-3.481235779308e-04 3.365143379813e-02 0.0 
6.071263099599e-03 1.369146824458e-01 0.0 
4.448499807886e-03 1.374828766325e-01 0.0 
4.871503433542e-03 1.234539890816e-01 0.0 
3.518417482617e-03 1.251234886271e-01 0.0 
3.804555731683e-03 1.110754692755e-01 0.0 
2.447726425544e-03 1.128438974790e-01 0.0 
2.916977301815e-03 9.852481318779e-02 0.0 
1.198199403515e-02 1.845587902323e-02 0.0 
2.089391797495e-02 1.017101104746e-01 0.0 
3.445053165002e-02 1.337816064652e-01 0.0 
8.679918972209e-03 1.788066151125e-02 0.0 
1.034761543494e-02 2.254447051193e-02 0.0 
3.723498748313e-02 1.217631261035e-01 0.0 
3.605922251376e-02 1.295345015664e-01 0.0 
2.816553841388e-03 1.461637545633e-02 0.0 
3.471081854060e-02 7.504702749173e-02 0.0 
4.520070967907e-03 1.631234157821e-02 0.0 
2.721724868451e-03 7.479456997887e-02 0.0 
7.415929855060e-03 7.197611209390e-02 0.0 
3.690901985401e-02 7.785660496208e-02 0.0 
3.849261265372e-02 1.135211174913e-01 0.0 
3.449863677520e-02 1.035030179950e-01 0.0 
3.421514233694e-02 1.130382497192e-01 0.0 
1.042164936261e-02 3.657041822596e-02 0.0 
8.474181002741e-03 6.143840670650e-02 0.0 
2.016971808182e-02 8.867196674478e-02 0.0 
4.255741783425e-03 9.695182247371e-02 0.0 
1.468586843279e-02 9.112239269730e-02 0.0 
-1.969823100549e-04 3.055890074338e-02 0.0 
3.512435887553e-02 6.821200313355e-02 0.0 
4.142097203086e-02 9.490098402420e-02 0.0 
2.441810383935e-02 8.588010367838e-02 0.0 
3.332604034837e-02 9.064623145174e-02 0.0 
3.594645784139e-02 9.910898236207e-02 0.0 
3.248000356525e-02 1.183804103149e-01 0.0 
3.380412632837e-02 1.210946748735e-01 0.0 
3.487412787909e-02 6.237855699960e-02 0.0 
3.589532403703e-02 1.168635754543e-01 0.0 
3.317648365797e-02 1.236999280424e-01 0.0 
3.994641157569e-02 9.389538338069e-02 0.0 
2.106456197894e-02 5.964241122926e-02 0.0 
2.110012149316e-02 5.134919482051e-02 0.0 
1.712113609639e-02 3.673423225655e-02 0.0 
2.075930065632e-02 4.333343797901e-02 0.0 
2.457187581365e-02 5.795667017399e-02 0.0 
2.441525412013e-02 4.969742894817e-02 0.0 
2.005932767466e-02 3.564313640485e-02 0.0 
2.392926388254e-02 4.171276418031e-02 0.0 
1.768218614497e-02 2.545630481216e-02 0.0 
2.292895122202e-02 3.358900447734e-02 0.0 
2.756298024699e-02 4.745321889882e-02 0.0 
2.698517812521e-02 3.979727588032e-02 0.0 
2.090667433972e-02 2.853266206310e-02 0.0 
3.099797181789e-02 5.333457037437e-02 0.0 
7.050327690518e-03 1.376486367851e-02 0.0 
3.926566388936e-02 7.260677594481e-02 0.0 
1.044609336759e-02 6.740326628120e-02 0.0 
9.455412327352e-03 7.594138220214e-02 0.0 
4.134258724920e-02 9.527416599865e-02 0.0 
8.937082066836e-03 1.243890799502e-02 0.0 
8.021059146991e-03 1.312928997660e-02 0.0 
2.983597596685e-02 6.924262362600e-02 0.0 
7.246092673483e-03 1.022219163572e-02 0.0 
3.585318337200e-02 1.111089453315e-01 0.0 
2.089369435259e-02 6.646505813967e-02 0.0 
6.578175416024e-03 9.789822297012e-03 0.0 
2.435147529108e-02 6.636886107465e-02 0.0 
2.746456880379e-02 7.272637685442e-02 0.0 
2.668710178722e-02 8.144161314176e-02 0.0 
6.101834143536e-03 1.295541972745e-02 0.0 
1.826131800075e-02 1.089337783324e-01 0.0 
4.761412860109e-03 8.344169923994e-03 0.0 
2.611455075598e-02 4.770214195151e-02 0.0 
3.006537706159e-02 5.058930920751e-02 0.0 
3.281030243301e-02 5.375525284021e-02 0.0 
2.788499071553e-02 5.586360465805e-02 0.0 
3.452681102491e-03 8.018145049117e-03 0.0 
6.160012320723e-03 1.496634926422e-02 0.0 
5.458710381983e-03 1.467863264097e-02 0.0 
8.518249817680e-03 2.170372367724e-02 0.0 
2.713132687360e-03 7.695076242953e-03 0.0 
7.872013860766e-03 1.058769457525e-02 0.0 
7.223170607389e-03 9.817973495313e-03 0.0 
1.401337488404e-02 5.471195832732e-02 0.0 
1.663605835162e-02 5.446103872123e-02 0.0 
1.654955832355e-02 5.414297066326e-02 0.0 
1.939899091093e-02 5.442132124202e-02 0.0 
1.918240163480e-02 5.469335655287e-02 0.0 
2.207573700933e-02 5.502148624699e-02 0.0 
2.219260166228e-02 5.451366251436e-02 0.0 
2.394466922422e-02 5.664294388518e-02 0.0 
2.831354803462e-02 3.864519884395e-02 0.0 
1.994016869114e-03 7.141071735465e-03 0.0 
7.456220502263e-03 4.279360960215e-02 0.0 
9.418116141381e-03 4.458583761507e-02 0.0 
1.009436769694e-02 4.766619300552e-02 0.0 
7.061593318900e-04 5.464456809634e-02 0.0 
1.404610523426e-03 5.238083368863e-02 0.0 
1.310131739447e-03 4.927580806381e-02 0.0 
3.580197461188e-04 5.714964362814e-02 0.0 
3.544585666979e-02 4.976705978463e-02 0.0 
1.729511614244e-03 7.075369173293e-03 0.0 
1.703030716358e-02 4.529842272352e-02 0.0 
2.561871141427e-03 5.303376117077e-02 0.0 
2.081967678107e-02 1.470418935497e-01 0.0 
2.293160188405e-02 1.330301062622e-01 0.0 
2.536600207028e-02 1.301423637414e-01 0.0 
2.460134910515e-02 1.166019018285e-01 0.0 
2.044222199951e-02 1.332473240953e-01 0.0 
-4.415286492607e-04 4.916758985238e-02 0.0 
-5.784641615985e-04 4.767571255450e-02 0.0 
-5.059145876074e-04 5.060050530277e-02 0.0 
-5.590025817805e-04 4.603332314339e-02 0.0 
-4.055613504708e-04 4.901217369680e-02 0.0 
-3.515274545665e-04 5.334965218436e-02 0.0 
-4.233945575192e-04 4.422070851619e-02 0.0 
-2.551072323944e-04 4.773335370710e-02 0.0 
1.695627553532e-02 1.495350462010e-01 0.0 
8.052444349937e-03 5.772173507120e-02 0.0 
9.453845274109e-03 5.673783937745e-02 0.0 
9.613154632016e-03 5.684790520911e-02 0.0 
1.028120485871e-02 5.601115827535e-02 0.0 
1.072409297714e-02 5.628047884917e-02 0.0 
1.179578789174e-02 5.519165971517e-02 0.0 
1.252406845706e-02 5.605664507226e-02 0.0 
9.188611097123e-03 5.772877561717e-02 0.0 
9.650740774910e-03 5.773107529197e-02 0.0 
9.656126764527e-03 5.782503800355e-02 0.0 
1.014445857724e-02 5.899435881314e-02 0.0 
9.603460087865e-03 5.949361709570e-02 0.0 
9.141888705233e-03 5.805274901332e-02 0.0 
6.333885365880e-03 6.231796093180e-02 0.0 
2.941441626172e-04 7.472490369896e-03 0.0 
-7.285866873741e-05 5.977270396735e-02 0.0 
-6.432394105671e-05 6.136063537106e-02 0.0 
1.137311304487e-04 6.460229518365e-02 0.0 
1.481438651174e-05 6.239669444583e-02 0.0 
-1.830900706539e-04 5.796693410057e-02 0.0 
1.316331303305e-04 6.652397611184e-02 0.0 
3.685742200179e-04 6.720800468647e-02 0.0 
4.311536689284e-03 7.160223387392e-02 0.0 
3.111294989556e-03 7.265421770976e-02 0.0 
1.461911216410e-03 7.276463874202e-02 0.0 
2.173302047549e-03 7.313749510528e-02 0.0 
3.512468405673e-03 7.278134939180e-02 0.0 
4.710190281816e-03 7.214262704364e-02 0.0 
6.137323615254e-03 7.154422264535e-02 0.0 
7.403640239183e-03 7.067628785870e-02 0.0 
7.444661322610e-03 7.093104033553e-02 0.0 
6.004426936734e-03 7.142026863182e-02 0.0 
8.961096377903e-03 7.015705235024e-02 0.0 
9.447721600822e-04 7.714173825544e-02 0.0 
1.807303785839e-03 6.892713034760e-02 0.0 
1.338828498199e-03 7.305949392997e-03 0.0 
1.338059104661e-02 1.491858461173e-01 0.0 
1.044562003000e-02 6.276482915833e-02 0.0 
1.529224676403e-03 1.801501237580e-02 0.0 
2.457068481796e-03 1.483162220546e-02 0.0 
1.943295118643e-03 1.441828778208e-02 0.0 
2.363157543017e-05 1.787886155189e-02 0.0 
1.318300984690e-04 1.472609632237e-02 0.0 
8.166437940673e-04 1.754361098955e-02 0.0 
3.436908974972e-03 6.108303142391e-02 0.0 
1.635607407595e-02 2.956579823480e-02 0.0 
4.257707417132e-03 4.708434299908e-02 0.0 
1.978017285342e-02 7.183742573667e-02 0.0 
6.465754591957e-03 5.758515033514e-02 0.0 
-3.978975073120e-04 3.601460856403e-02 0.0 
1.435089127123e-03 4.168832591704e-02 0.0 
4.623136148787e-04 2.403288203379e-02 0.0 
-1.881247050912e-04 4.035364852825e-02 0.0 
1.096435140903e-03 2.941155861333e-02 0.0 
4.875828601563e-03 1.485543178535e-02 0.0 
3.067992660584e-03 7.211681997917e-02 0.0 
1.127669622399e-02 1.073901632141e-01 0.0 
7.185562910102e-03 1.131339101470e-01 0.0 
6.975429812130e-03 7.323028197979e-02 0.0 
1.721901080606e-03 6.472503710554e-02 0.0 
-4.111452615003e-04 5.458454064908e-02 0.0 
4.788638613384e-03 6.701241787530e-02 0.0 
1.279150548767e-02 1.841084036914e-02 0.0 
3.950921079165e-02 1.041773786687e-01 0.0 
8.498904102337e-03 4.905318931777e-02 0.0 
1.099637142459e-03 5.738100639587e-02 0.0 
3.806606364126e-03 5.890010239280e-02 0.0 
8.025065760778e-03 5.686667727038e-02 0.0 
4.085371158460e-02 7.451859737917e-02 0.0 
3.755753668083e-03 5.120212978949e-02 0.0 
3.999960713696e-03 3.415748901868e-02 0.0 
5.341107027256e-03 6.405788406709e-02 0.0 
9.877457957048e-03 6.693537240321e-02 0.0 
4.674832428471e-03 3.140712582781e-02 0.0 
3.465686494199e-03 4.511856376302e-02 0.0 
1.605903585754e-02 1.007723778318e-01 0.0 
1.682149650582e-02 3.513847766743e-02 0.0 
1.102992133295e-02 5.539309348312e-02 0.0 
1.035834648040e-02 6.707989678103e-02 0.0 
1.111600628159e-02 3.670052119870e-02 0.0 
2.035196647437e-02 1.166157782947e-01 0.0 
6.112025433183e-03 6.792516445318e-02 0.0 
1.161982901221e-02 1.234500153207e-01 0.0 
4.112178372099e-03 1.872900353392e-02 0.0 
2.062984251990e-02 6.798410887654e-02 0.0 
1.906007093838e-03 6.710245872767e-02 0.0 
2.167392511681e-02 5.018706280584e-02 0.0 
4.229889724976e-02 8.590279964656e-02 0.0 
3.123029072642e-02 1.436097745578e-01 0.0 
4.463663394347e-03 3.997103027336e-02 0.0 
3.831341999087e-02 5.697060483519e-02 0.0 
1.131486039267e-02 2.867623971050e-02 0.0 
1.822479648750e-02 4.385813672327e-02 0.0 
1.213812522826e-03 6.726635836816e-02 0.0 
2.671026809976e-03 2.598486162844e-02 0.0 
3.098076804878e-02 5.380335847287e-02 0.0 
8.528832467348e-03 5.034374181675e-02 0.0 
3.648968006326e-02 4.990184436060e-02 0.0 
2.767574122768e-02 5.506900890710e-02 0.0 
1.402867374665e-02 6.015332180306e-02 0.0 
1.239521559401e-02 4.901143314786e-02 0.0 
1.652711619215e-02 3.241737580543e-02 0.0 
3.998964548609e-02 1.044360805361e-01 0.0 
4.181665375510e-02 6.856657960176e-02 0.0 
3.628493054876e-02 6.959021412072e-02 0.0 
4.254708176434e-02 6.231874494413e-02 0.0 
-3.979313245837e-04 3.921911540640e-02 0.0 
3.561167399521e-03 2.875555332679e-02 0.0 
1.641471750571e-02 5.814253350632e-02 0.0 
3.643992555783e-02 8.564880228721e-02 0.0 
1.990875857419e-02 1.006085201377e-01 0.0 
2.217770819014e-02 3.222449006963e-02 0.0 
6.163842108009e-03 3.328666657580e-02 0.0 
4.089524212200e-02 9.343678769460e-02 0.0 
2.194255587010e-03 2.907597561623e-02 0.0 
1.133119421852e-02 4.406494066150e-02 0.0 
2.404088969262e-03 5.033402937335e-02 0.0 
8.825523926259e-04 7.255030950084e-02 0.0 
1.578880594427e-02 7.409463756722e-02 0.0 
2.683088570470e-02 5.779932286496e-02 0.0 
3.681816324414e-02 5.675931539166e-02 0.0 
2.331200752186e-03 4.717604904697e-02 0.0 
1.284774488030e-02 2.743165354141e-02 0.0 
1.585524096543e-03 2.636747083179e-02 0.0 
8.376877622467e-03 3.387028739181e-02 0.0 
6.712559080839e-03 8.768368326091e-02 0.0 
3.303233478031e-02 1.326098050576e-01 0.0 
1.128857760233e-03 2.356077016433e-02 0.0 
1.851247737970e-02 4.841313249756e-02 0.0 
1.361030592987e-02 2.902511440938e-02 0.0 
-2.424314892886e-04 5.189677013881e-02 0.0 
1.224361281113e-02 1.822181970307e-02 0.0 
3.651189541722e-02 1.313999784227e-01 0.0 
7.940155130841e-04 2.066755499877e-02 0.0 
1.100733775055e-02 3.416889434173e-02 0.0 
3.237630973314e-02 7.208764301048e-02 0.0 
3.829653614879e-03 1.505681833722e-01 0.0 
6.671116393582e-04 1.304361984155e-02 0.0 
9.026873003776e-03 2.817466625095e-02 0.0 
4.001475899475e-02 5.587263329349e-02 0.0 
1.677402705516e-02 4.936307878412e-02 0.0 
3.464702745013e-02 1.449245033961e-01 0.0 
1.339251280027e-03 4.573786526401e-02 0.0 
4.041134568086e-02 6.677618985263e-02 0.0 
5.145154431197e-03 1.293428681049e-02 0.0 
9.073088275997e-03 2.547715204584e-02 0.0 
2.944106825188e-02 8.746354173886e-02 0.0 
4.992506564685e-04 4.804321542829e-02 0.0 
2.747173113787e-02 4.524233324729e-02 0.0 
4.833111879008e-03 7.213946554316e-02 0.0 
3.552528417354e-02 1.338703171933e-01 0.0 
-4.382119269053e-05 4.657879955129e-02 0.0 
2.499629839904e-02 5.555985720823e-02 0.0 
1.406206504209e-02 4.784673470402e-02 0.0 
1.002407921163e-02 1.815925711659e-02 0.0 
-3.633262359131e-04 4.492161118885e-02 0.0 
2.495808512957e-02 5.473584635963e-02 0.0 
-5.143835136776e-04 4.312200091047e-02 0.0 
3.540143242355e-02 1.428151462982e-01 0.0 
3.031677937710e-02 7.829267548113e-02 0.0 
-5.332890254772e-04 4.120962988944e-02 0.0 
3.851853420009e-02 5.644092141573e-02 0.0 
6.502257889363e-03 6.986407919048e-02 0.0 
3.596327787159e-02 5.136821860308e-02 0.0 
-7.385102392066e-06 2.140185108618e-02 0.0 
5.819475430002e-03 5.541968393957e-02 0.0 
1.162849610518e-02 4.628993495639e-02 0.0 
2.784715911205e-02 6.415336450618e-02 0.0 
3.335831881522e-02 1.389764680424e-01 0.0 
1.069577897964e-02 4.289552266665e-02 0.0 
3.422742504168e-02 4.667552896843e-02 0.0 
3.161140151357e-02 4.744791581191e-02 0.0 
3.426545397819e-02 5.355252255297e-02 0.0 
9.606321262549e-03 3.876585932064e-02 0.0 
3.510047453271e-02 1.265935259551e-01 0.0 
4.492359239022e-03 6.035079456167e-02 0.0 
5.330989912952e-03 6.140467233664e-02 0.0 
2.166989160410e-02 5.381724628367e-02 0.0 
3.146965082437e-02 4.287957613653e-02 0.0 
2.648822458727e-03 7.285628143777e-02 0.0 
3.104605960413e-02 6.121613088259e-02 0.0 
7.284177211703e-03 6.087411421995e-02 0.0 
1.911801674826e-02 5.393736686055e-02 0.0 
2.270696839172e-02 3.696575421900e-02 0.0 
1.111385070466e-03 1.088359100466e-01 0.0 
1.619404309989e-02 5.338956599539e-02 0.0 
5.776799523648e-04 7.120447740088e-02 0.0 
1.388338507752e-02 5.385738670155e-02 0.0 
3.100018305838e-02 4.980378610076e-02 0.0 
1.143398370696e-02 5.347589131554e-02 0.0 
9.416265467328e-03 5.429976569033e-02 0.0 
2.989844030203e-03 3.061877511790e-02 0.0 
7.407122644452e-03 5.410583557581e-02 0.0 
4.027837880187e-04 1.453976687655e-02 0.0 
1.236748204430e-04 6.699405667966e-03 0.0 
1.443403740623e-03 1.392513781743e-01 0.0 
2.842664764592e-02 1.337878403501e-01 0.0 
4.722225247235e-03 6.536331279752e-02 0.0 
3.113353569307e-02 1.170839613003e-01 0.0 
6.126486601540e-03 5.661690407787e-02 0.0 
3.389589558741e-02 5.776347136127e-02 0.0 
2.999356116099e-03 1.385910832854e-01 0.0 
5.060015122286e-03 5.828400956278e-02 0.0 
1.573811021342e-02 2.134661879640e-02 0.0 
5.438725908729e-03 8.683183035235e-03 0.0 
2.026219097445e-03 8.441842585672e-02 0.0 
1.114466450432e-02 2.598455912960e-02 0.0 
2.738070699942e-02 4.343707176121e-02 0.0 
5.923679427724e-04 4.477190331868e-02 0.0 
8.750754790981e-03 1.518858671544e-01 0.0 
9.505360313502e-03 6.145800164922e-02 0.0 
-2.182159057119e-04 3.644719640612e-02 0.0 
2.230626570968e-02 1.235820720351e-01 0.0 
2.391987469486e-02 1.073701697565e-01 0.0 
1.751942385752e-02 9.634539204591e-02 0.0 
6.997223788985e-04 6.731368511597e-02 0.0 
9.797516784122e-03 5.671540553418e-02 0.0 
1.739323838295e-02 1.109419204308e-01 0.0 
7.018677894678e-03 1.571651801087e-02 0.0 
1.462848811547e-02 1.381770123922e-01 0.0 
2.208571837835e-02 3.477830055534e-02 0.0 
1.160358594943e-02 9.890245128657e-02 0.0 
8.098924522400e-03 2.852669051590e-02 0.0 
1.044264504877e-02 1.741558983757e-02 0.0 
8.177377550744e-04 6.290071743788e-03 0.0 
1.645954016389e-02 2.669519847650e-02 0.0 
1.172718988298e-02 8.612859236418e-02 0.0 
2.222418540323e-02 1.216854212045e-01 0.0 
1.332027131466e-02 1.871066983108e-02 0.0 
2.766840448928e-03 7.130371287015e-02 0.0 
5.485736615132e-04 5.915107742307e-03 0.0 
1.830005443455e-02 1.383862860154e-01 0.0 
1.790068650706e-03 2.861073235363e-02 0.0 
1.409753064901e-02 5.698578573029e-02 0.0 
8.992065675955e-04 2.778705317751e-02 0.0 
3.049517686163e-02 4.529977265940e-02 0.0 
6.143411865430e-03 1.202418172540e-01 0.0 
2.685360371152e-02 1.177603445817e-01 0.0 
2.397094840139e-04 1.165223553480e-02 0.0 
1.515044367260e-02 2.327348560621e-02 0.0 
9.116912212399e-03 8.090773774606e-02 0.0 
3.181081319461e-03 8.608901533331e-02 0.0 
6.713270712000e-05 6.163515605804e-02 0.0 
8.372309594261e-03 5.983891924138e-02 0.0 
2.192105080946e-03 1.319773794099e-02 0.0 
2.480322287977e-02 3.382086263122e-02 0.0 
4.608107487503e-04 1.206036000533e-02 0.0 
9.707445805872e-04 7.323326843904e-02 0.0 
9.140861184367e-03 6.555243141160e-02 0.0 
2.813356822529e-03 1.251815315661e-02 0.0 
1.373052833744e-02 1.863797187747e-02 0.0 
1.401199764368e-02 5.504684910051e-02 0.0 
2.769470134098e-03 1.144055299590e-02 0.0 
5.778420131062e-03 7.729012959824e-02 0.0 
1.177572808232e-02 1.534241478425e-01 0.0 
8.145354940361e-03 6.964046437393e-02 0.0 
3.784090361876e-04 5.918690263005e-03 0.0 
4.545645088108e-03 2.716386202945e-02 0.0 
-1.724642235761e-04 5.936045510711e-02 0.0 
2.543136133598e-02 1.403925566724e-01 0.0 
7.901916296731e-04 6.953741356021e-02 0.0 
1.661451603219e-02 2.467867944676e-02 0.0 
8.940800608185e-03 5.994249323460e-02 0.0 
3.018668364064e-03 2.577905812800e-02 0.0 
3.710858543151e-03 1.257137364092e-02 0.0 
1.030265873524e-02 2.368506710899e-02 0.0 
3.096903612583e-03 6.174940568162e-03 0.0 
6.932347627451e-03 6.769665381580e-02 0.0 
9.503517418217e-03 1.527249857160e-02 0.0 
7.003907654116e-03 1.976964574606e-02 0.0 
6.623779442727e-03 1.524304096784e-01 0.0 
1.309026809425e-02 2.417297374614e-02 0.0 
2.987067907845e-04 6.517321598509e-02 0.0 
5.160359238382e-03 7.051289500796e-02 0.0 
1.715255793471e-04 1.288702251766e-02 0.0 
1.167077233045e-03 7.211859233976e-02 0.0 
1.127604873616e-03 1.522150909778e-01 0.0 
4.445683201082e-05 5.449073760893e-03 0.0 
3.714449997977e-03 7.245909995178e-02 0.0 
2.381307162771e-03 1.281261696683e-01 0.0 
1.367303261580e-02 1.843319085688e-02 0.0 
-1.150213853036e-04 5.127472631695e-02 0.0 
1.370318667121e-03 5.577629823033e-02 0.0 
1.047246755582e-02 5.585091521691e-02 0.0 
5.446658359730e-03 6.172657903568e-02 0.0 
1.923669626699e-03 1.009031432106e-01 0.0 
8.750404705332e-03 1.531724260527e-02 0.0 
7.761748658744e-03 2.352829310359e-02 0.0 
4.947806917620e-03 1.116727928322e-01 0.0 
1.252749497581e-02 7.644665577489e-02 0.0 
1.894886674528e-02 2.560293672514e-02 0.0 
-2.991402658377e-04 5.637902677067e-02 0.0 
1.795672693903e-02 2.526830937943e-02 0.0 
8.780288591673e-03 2.056461602502e-02 0.0 
2.338345923405e-03 7.928655816055e-02 0.0 
-1.094047993480e-04 4.662837113746e-02 0.0 
8.663555362370e-03 6.823946479055e-02 0.0 
1.231201504976e-03 1.147355902945e-02 0.0 
-2.442051296461e-04 5.487605061296e-02 0.0 

VECTORS node_bounda_dof_materi_velocity_x float
1.000000000000e+00 0.0 0.0 
1.000000000000e+00 0.0 0.0 
1.000000000000e+00 0.0 0.0 
1.000000000000e+00 0.0 0.0 
1.000000000000e+00 0.0 0.0 
1.000000000000e+00 0.0 0.0 
1.000000000000e+00 0.0 0.0 
1.000000000000e+00 0.0 0.0 
1.000000000000e+00 0.0 0.0 
1.000000000000e+00 0.0 0.0 
1.000000000000e+00 0.0 0.0 
1.000000000000e+00 0.0 0.0 
1.000000000000e+00 0.0 0.0 
1.000000000000e+00 0.0 0.0 
1.000000000000e+00 0.0 0.0 
1.000000000000e+00 0.0 0.0 
1.000000000000e+00 0.0 0.0 
1.000000000000e+00 0.0 0.0 
1.000000000000e+00 0.0 0.0 
1.000000000000e+00 0.0 0.0 
1.000000000000e+00 0.0 0.0 
1.000000000000e+00 0.0 0.0 
1.000000000000e+00 0.0 0.0 
1.000000000000e+00 0.0 0.0 
1.000000000000e+00 0.0 0.0 
1.000000000000e+00 0.0 0.0 
1.000000000000e+00 0.0 0.0 
1.000000000000e+00 0.0 0.0 
1.000000000000e+00 0.0 0.0 
1.000000000000e+00 0.0 0.0 
1.000000000000e+00 0.0 0.0 
1.000000000000e+00 0.0 0.0 
1.000000000000e+00 0.0 0.0 
1.000000000000e+00 0.0 0.0 
1.000000000000e+00 0.0 0.0 
1.000000000000e+00 0.0 0.0 
1.000000000000e+00 0.0 0.0 
1.000000000000e+00 0.0 0.0 
1.000000000000e+00 0.0 0.0 
1.000000000000e+00 0.0 0.0 
1.000000000000e+00 0.0 0.0 
1.000000000000e+00 0.0 0.0 
1.000000000000e+00 0.0 0.0 
1.000000000000e+00 0.0 0.0 
1.000000000000e+00 0.0 0.0 
1.000000000000e+00 0.0 0.0 
1.000000000000e+00 0.0 0.0 
1.000000000000e+00 0.0 0.0 
1.000000000000e+00 0.0 0.0 
1.000000000000e+00 0.0 0.0 
1.000000000000e+00 0.0 0.0 
1.000000000000e+00 0.0 0.0 
1.000000000000e+00 0.0 0.0 
1.000000000000e+00 0.0 0.0 
1.000000000000e+00 0.0 0.0 
1.000000000000e+00 0.0 0.0 
1.000000000000e+00 0.0 0.0 
1.000000000000e+00 0.0 0.0 
1.000000000000e+00 0.0 0.0 
1.000000000000e+00 0.0 0.0 
1.000000000000e+00 0.0 0.0 
1.000000000000e+00 0.0 0.0 
1.000000000000e+00 0.0 0.0 
1.000000000000e+00 0.0 0.0 
1.000000000000e+00 0.0 0.0 
1.000000000000e+00 0.0 0.0 
1.000000000000e+00 0.0 0.0 
1.000000000000e+00 0.0 0.0 
1.000000000000e+00 0.0 0.0 
1.000000000000e+00 0.0 0.0 
1.000000000000e+00 0.0 0.0 
1.000000000000e+00 0.0 0.0 
1.000000000000e+00 0.0 0.0 
1.000000000000e+00 0.0 0.0 
1.000000000000e+00 0.0 0.0 
1.000000000000e+00 0.0 0.0 
1.000000000000e+00 0.0 0.0 
1.000000000000e+00 0.0 0.0 
1.000000000000e+00 0.0 0.0 
1.000000000000e+00 0.0 0.0 
1.000000000000e+00 0.0 0.0 
0.0 0.0 0.0 
0.0 0.0 0.0 
0.0 0.0 0.0 
0.0 0.0 0.0 
0.0 0.0 0.0 
0.0 0.0 0.0 
0.0 0.0 0.0 
0.0 0.0 0.0 
0.0 0.0 0.0 
0.0 0.0 0.0 
0.0 0.0 0.0 
0.0 0.0 0.0 
0.0 0.0 0.0 
0.0 0.0 0.0 
0.0 0.0 0.0 
0.0 0.0 0.0 
0.0 0.0 0.0 
0.0 0.0 0.0 
0.0 0.0 0.0 
0.0 0.0 0.0 
0.0 0.0 0.0 
0.0 0.0 0.0 
0.0 0.0 0.0 
0.0 0.0 0.0 
0.0 0.0 0.0 
0.0 0.0 0.0 
0.0 0.0 0.0 
0.0 0.0 0.0 
0.0 0.0 0.0 
0.0 0.0 0.0 
0.0 0.0 0.0 
0.0 0.0 0.0 
0.0 0.0 0.0 
0.0 0.0 0.0 
0.0 0.0 0.0 
0.0 0.0 0.0 
0.0 0.0 0.0 
0.0 0.0 0.0 
0.0 0.0 0.0 
0.0 0.0 0.0 
0.0 0.0 0.0 
0.0 0.0 0.0 
0.0 0.0 0.0 
0.0 0.0 0.0 
0.0 0.0 0.0 
0.0 0.0 0.0 
0.0 0.0 0.0 
0.0 0.0 0.0 
0.0 0.0 0.0 
0.0 0.0 0.0 
0.0 0.0 0.0 
0.0 0.0 0.0 
0.0 0.0 0.0 
0.0 0.0 0.0 
0.0 0.0 0.0 
0.0 0.0 0.0 
0.0 0.0 0.0 
0.0 0.0 0.0 
0.0 0.0 0.0 
0.0 0.0 0.0 
0.0 0.0 0.0 
0.0 0.0 0.0 
0.0 0.0 0.0 
0.0 0.0 0.0 
0.0 0.0 0.0 
0.0 0.0 0.0 
0.0 0.0 0.0 
0.0 0.0 0.0 
0.0 0.0 0.0 
0.0 0.0 0.0 
0.0 0.0 0.0 
0.0 0.0 0.0 
0.0 0.0 0.0 
0.0 0.0 0.0 
0.0 0.0 0.0 
0.0 0.0 0.0 
0.0 0.0 0.0 
0.0 0.0 0.0 
0.0 0.0 0.0 
0.0 0.0 0.0 
0.0 0.0 0.0 
0.0 0.0 0.0 
0.0 0.0 0.0 
0.0 0.0 0.0 
0.0 0.0 0.0 
0.0 0.0 0.0 
0.0 0.0 0.0 
0.0 0.0 0.0 
0.0 0.0 0.0 
0.0 0.0 0.0 
0.0 0.0 0.0 
0.0 0.0 0.0 
0.0 0.0 0.0 
0.0 0.0 0.0 
0.0 0.0 0.0 
0.0 0.0 0.0 
0.0 0.0 0.0 
0.0 0.0 0.0 
0.0 0.0 0.0 
0.0 0.0 0.0 
0.0 0.0 0.0 
0.0 0.0 0.0 
0.0 0.0 0.0 
0.0 0.0 0.0 
0.0 0.0 0.0 
0.0 0.0 0.0 
0.0 0.0 0.0 
0.0 0.0 0.0 
0.0 0.0 0.0 
0.0 0.0 0.0 
0.0 0.0 0.0 
0.0 0.0 0.0 
0.0 0.0 0.0 
0.0 0.0 0.0 
0.0 0.0 0.0 
0.0 0.0 0.0 
0.0 0.0 0.0 
0.0 0.0 0.0 
0.0 0.0 0.0 
0.0 0.0 0.0 
0.0 0.0 0.0 
0.0 0.0 0.0 
0.0 0.0 0.0 
0.0 0.0 0.0 
0.0 0.0 0.0 
0.0 0.0 0.0 
0.0 0.0 0.0 
0.0 0.0 0.0 
0.0 0.0 0.0 
0.0 0.0 0.0 
0.0 0.0 0.0 
0.0 0.0 0.0 
0.0 0.0 0.0 
0.0 0.0 0.0 
0.0 0.0 0.0 
0.0 0.0 0.0 
0.0 0.0 0.0 
0.0 0.0 0.0 
0.0 0.0 0.0 
0.0 0.0 0.0 
0.0 0.0 0.0 
0.0 0.0 0.0 
0.0 0.0 0.0 
0.0 0.0 0.0 
0.0 0.0 0.0 
0.0 0.0 0.0 
0.0 0.0 0.0 
0.0 0.0 0.0 
0.0 0.0 0.0 
0.0 0.0 0.0 
0.0 0.0 0.0 
0.0 0.0 0.0 
0.0 0.0 0.0 
0.0 0.0 0.0 
0.0 0.0 0.0 
0.0 0.0 0.0 
0.0 0.0 0.0 
0.0 0.0 0.0 
0.0 0.0 0.0 
0.0 0.0 0.0 
0.0 0.0 0.0 
0.0 0.0 0.0 
0.0 0.0 0.0 
0.0 0.0 0.0 
0.0 0.0 0.0 
0.0 0.0 0.0 
0.0 0.0 0.0 
0.0 0.0 0.0 
0.0 0.0 0.0 
0.0 0.0 0.0 
0.0 0.0 0.0 
0.0 0.0 0.0 
0.0 0.0 0.0 
0.0 0.0 0.0 
0.0 0.0 0.0 
0.0 0.0 0.0 
0.0 0.0 0.0 
0.0 0.0 0.0 
0.0 0.0 0.0 
0.0 0.0 0.0 
0.0 0.0 0.0 
0.0 0.0 0.0 
0.0 0.0 0.0 
0.0 0.0 0.0 
0.0 0.0 0.0 
0.0 0.0 0.0 
0.0 0.0 0.0 
0.0 0.0 0.0 
0.0 0.0 0.0 
0.0 0.0 0.0 
0.0 0.0 0.0 
0.0 0.0 0.0 
0.0 0.0 0.0 
0.0 0.0 0.0 
0.0 0.0 0.0 
0.0 0.0 0.0 
0.0 0.0 0.0 
0.0 0.0 0.0 
0.0 0.0 0.0 
0.0 0.0 0.0 
0.0 0.0 0.0 
0.0 0.0 0.0 
0.0 0.0 0.0 
0.0 0.0 0.0 
0.0 0.0 0.0 
0.0 0.0 0.0 
0.0 0.0 0.0 
0.0 0.0 0.0 
0.0 0.0 0.0 
0.0 0.0 0.0 
0.0 0.0 0.0 
0.0 0.0 0.0 
0.0 0.0 0.0 
0.0 0.0 0.0 
0.0 0.0 0.0 
0.0 0.0 0.0 
0.0 0.0 0.0 
0.0 0.0 0.0 
0.0 0.0 0.0 
0.0 0.0 0.0 
0.0 0.0 0.0 
0.0 0.0 0.0 
0.0 0.0 0.0 
0.0 0.0 0.0 
0.0 0.0 0.0 
0.0 0.0 0.0 
0.0 0.0 0.0 
0.0 0.0 0.0 
0.0 0.0 0.0 
0.0 0.0 0.0 
0.0 0.0 0.0 
0.0 0.0 0.0 
0.0 0.0 0.0 
0.0 0.0 0.0 
0.0 0.0 0.0 
0.0 0.0 0.0 
0.0 0.0 0.0 
0.0 0.0 0.0 
0.0 0.0 0.0 
0.0 0.0 0.0 
0.0 0.0 0.0 
0.0 0.0 0.0 
0.0 0.0 0.0 
0.0 0.0 0.0 
0.0 0.0 0.0 
0.0 0.0 0.0 
0.0 0.0 0.0 
0.0 0.0 0.0 
0.0 0.0 0.0 
0.0 0.0 0.0 
0.0 0.0 0.0 
0.0 0.0 0.0 
0.0 0.0 0.0 
0.0 0.0 0.0 
0.0 0.0 0.0 
0.0 0.0 0.0 
0.0 0.0 0.0 
0.0 0.0 0.0 
0.0 0.0 0.0 
0.0 0.0 0.0 
0.0 0.0 0.0 
0.0 0.0 0.0 
0.0 0.0 0.0 
0.0 0.0 0.0 
0.0 0.0 0.0 
0.0 0.0 0.0 
0.0 0.0 0.0 
0.0 0.0 0.0 
0.0 0.0 0.0 
0.0 0.0 0.0 
0.0 0.0 0.0 
0.0 0.0 0.0 
0.0 0.0 0.0 
0.0 0.0 0.0 
0.0 0.0 0.0 
0.0 0.0 0.0 
0.0 0.0 0.0 
0.0 0.0 0.0 
0.0 0.0 0.0 
0.0 0.0 0.0 
0.0 0.0 0.0 
0.0 0.0 0.0 
0.0 0.0 0.0 
0.0 0.0 0.0 
0.0 0.0 0.0 
0.0 0.0 0.0 
0.0 0.0 0.0 
0.0 0.0 0.0 
0.0 0.0 0.0 
0.0 0.0 0.0 
0.0 0.0 0.0 
0.0 0.0 0.0 
0.0 0.0 0.0 
0.0 0.0 0.0 
0.0 0.0 0.0 
0.0 0.0 0.0 
0.0 0.0 0.0 
0.0 0.0 0.0 
0.0 0.0 0.0 
0.0 0.0 0.0 
0.0 0.0 0.0 
0.0 0.0 0.0 
0.0 0.0 0.0 
0.0 0.0 0.0 
0.0 0.0 0.0 
0.0 0.0 0.0 
0.0 0.0 0.0 
0.0 0.0 0.0 
0.0 0.0 0.0 
0.0 0.0 0.0 
0.0 0.0 0.0 
0.0 0.0 0.0 
0.0 0.0 0.0 
0.0 0.0 0.0 
0.0 0.0 0.0 
0.0 0.0 0.0 
0.0 0.0 0.0 
0.0 0.0 0.0 
0.0 0.0 0.0 
0.0 0.0 0.0 
0.0 0.0 0.0 
0.0 0.0 0.0 
0.0 0.0 0.0 
0.0 0.0 0.0 
0.0 0.0 0.0 
0.0 0.0 0.0 
0.0 0.0 0.0 
0.0 0.0 0.0 
0.0 0.0 0.0 
0.0 0.0 0.0 
0.0 0.0 0.0 
0.0 0.0 0.0 
0.0 0.0 0.0 
0.0 0.0 0.0 
0.0 0.0 0.0 
0.0 0.0 0.0 
0.0 0.0 0.0 
0.0 0.0 0.0 
0.0 0.0 0.0 
0.0 0.0 0.0 
0.0 0.0 0.0 
0.0 0.0 0.0 
0.0 0.0 0.0 
0.0 0.0 0.0 
0.0 0.0 0.0 
0.0 0.0 0.0 
0.0 0.0 0.0 
0.0 0.0 0.0 
0.0 0.0 0.0 
0.0 0.0 0.0 
0.0 0.0 0.0 
0.0 0.0 0.0 
0.0 0.0 0.0 
0.0 0.0 0.0 
0.0 0.0 0.0 
0.0 0.0 0.0 
0.0 0.0 0.0 
0.0 0.0 0.0 
0.0 0.0 0.0 
0.0 0.0 0.0 
0.0 0.0 0.0 
0.0 0.0 0.0 
0.0 0.0 0.0 
0.0 0.0 0.0 
0.0 0.0 0.0 
0.0 0.0 0.0 
0.0 0.0 0.0 
0.0 0.0 0.0 
0.0 0.0 0.0 
0.0 0.0 0.0 
0.0 0.0 0.0 
0.0 0.0 0.0 
0.0 0.0 0.0 
0.0 0.0 0.0 
0.0 0.0 0.0 
0.0 0.0 0.0 
0.0 0.0 0.0 
0.0 0.0 0.0 
0.0 0.0 0.0 
0.0 0.0 0.0 
0.0 0.0 0.0 
0.0 0.0 0.0 
0.0 0.0 0.0 
0.0 0.0 0.0 
0.0 0.0 0.0 
0.0 0.0 0.0 
0.0 0.0 0.0 
0.0 0.0 0.0 
0.0 0.0 0.0 
0.0 0.0 0.0 
0.0 0.0 0.0 
0.0 0.0 0.0 
0.0 0.0 0.0 
0.0 0.0 0.0 
0.0 0.0 0.0 
0.0 0.0 0.0 
0.0 0.0 0.0 
0.0 0.0 0.0 
0.0 0.0 0.0 
0.0 0.0 0.0 
0.0 0.0 0.0 
0.0 0.0 0.0 
0.0 0.0 0.0 
0.0 0.0 0.0 
0.0 0.0 0.0 
0.0 0.0 0.0 
0.0 0.0 0.0 
0.0 0.0 0.0 
0.0 0.0 0.0 
0.0 0.0 0.0 
0.0 0.0 0.0 
0.0 0.0 0.0 
0.0 0.0 0.0 
0.0 0.0 0.0 
0.0 0.0 0.0 
0.0 0.0 0.0 
0.0 0.0 0.0 
0.0 0.0 0.0 
0.0 0.0 0.0 
0.0 0.0 0.0 
0.0 0.0 0.0 
0.0 0.0 0.0 
0.0 0.0 0.0 
0.0 0.0 0.0 
0.0 0.0 0.0 
0.0 0.0 0.0 
0.0 0.0 0.0 
0.0 0.0 0.0 
0.0 0.0 0.0 
0.0 0.0 0.0 
0.0 0.0 0.0 
0.0 0.0 0.0 
0.0 0.0 0.0 
0.0 0.0 0.0 
0.0 0.0 0.0 
0.0 0.0 0.0 
0.0 0.0 0.0 
0.0 0.0 0.0 
0.0 0.0 0.0 
0.0 0.0 0.0 
0.0 0.0 0.0 
0.0 0.0 0.0 
0.0 0.0 0.0 
0.0 0.0 0.0 
0.0 0.0 0.0 
0.0 0.0 0.0 
0.0 0.0 0.0 
0.0 0.0 0.0 
0.0 0.0 0.0 
0.0 0.0 0.0 
0.0 0.0 0.0 
0.0 0.0 0.0 
0.0 0.0 0.0 
0.0 0.0 0.0 
0.0 0.0 0.0 
0.0 0.0 0.0 
0.0 0.0 0.0 
0.0 0.0 0.0 
0.0 0.0 0.0 
0.0 0.0 0.0 
0.0 0.0 0.0 
0.0 0.0 0.0 
0.0 0.0 0.0 
0.0 0.0 0.0 
0.0 0.0 0.0 
0.0 0.0 0.0 
0.0 0.0 0.0 
0.0 0.0 0.0 
0.0 0.0 0.0 
0.0 0.0 0.0 
0.0 0.0 0.0 
0.0 0.0 0.0 
0.0 0.0 0.0 
0.0 0.0 0.0 
0.0 0.0 0.0 
0.0 0.0 0.0 
0.0 0.0 0.0 
0.0 0.0 0.0 
0.0 0.0 0.0 
0.0 0.0 0.0 
0.0 0.0 0.0 
0.0 0.0 0.0 
0.0 0.0 0.0 
0.0 0.0 0.0 
0.0 0.0 0.0 
0.0 0.0 0.0 
0.0 0.0 0.0 
0.0 0.0 0.0 
0.0 0.0 0.0 
0.0 0.0 0.0 
0.0 0.0 0.0 
0.0 0.0 0.0 
0.0 0.0 0.0 
0.0 0.0 0.0 
0.0 0.0 0.0 
0.0 0.0 0.0 
0.0 0.0 0.0 
0.0 0.0 0.0 
0.0 0.0 0.0 
0.0 0.0 0.0 
0.0 0.0 0.0 
0.0 0.0 0.0 
0.0 0.0 0.0 
0.0 0.0 0.0 
0.0 0.0 0.0 
0.0 0.0 0.0 
0.0 0.0 0.0 
0.0 0.0 0.0 
0.0 0.0 0.0 
0.0 0.0 0.0 
0.0 0.0 0.0 
0.0 0.0 0.0 
0.0 0.0 0.0 
0.0 0.0 0.0 
0.0 0.0 0.0 
0.0 0.0 0.0 
0.0 0.0 0.0 
0.0 0.0 0.0 
0.0 0.0 0.0 
0.0 0.0 0.0 
0.0 0.0 0.0 
0.0 0.0 0.0 
0.0 0.0 0.0 
0.0 0.0 0.0 
0.0 0.0 0.0 
0.0 0.0 0.0 
0.0 0.0 0.0 
0.0 0.0 0.0 
0.0 0.0 0.0 
0.0 0.0 0.0 
0.0 0.0 0.0 
0.0 0.0 0.0 
0.0 0.0 0.0 
0.0 0.0 0.0 
0.0 0.0 0.0 
0.0 0.0 0.0 
0.0 0.0 0.0 
0.0 0.0 0.0 
0.0 0.0 0.0 
0.0 0.0 0.0 
0.0 0.0 0.0 
0.0 0.0 0.0 
0.0 0.0 0.0 
0.0 0.0 0.0 
0.0 0.0 0.0 
0.0 0.0 0.0 
0.0 0.0 0.0 
0.0 0.0 0.0 
0.0 0.0 0.0 
0.0 0.0 0.0 
0.0 0.0 0.0 
0.0 0.0 0.0 
0.0 0.0 0.0 
0.0 0.0 0.0 
0.0 0.0 0.0 
0.0 0.0 0.0 
0.0 0.0 0.0 
0.0 0.0 0.0 
0.0 0.0 0.0 
0.0 0.0 0.0 
0.0 0.0 0.0 
0.0 0.0 0.0 
0.0 0.0 0.0 
0.0 0.0 0.0 
0.0 0.0 0.0 
0.0 0.0 0.0 
0.0 0.0 0.0 
0.0 0.0 0.0 
0.0 0.0 0.0 
0.0 0.0 0.0 
0.0 0.0 0.0 
0.0 0.0 0.0 
0.0 0.0 0.0 
0.0 0.0 0.0 
0.0 0.0 0.0 
0.0 0.0 0.0 
0.0 0.0 0.0 
0.0 0.0 0.0 
0.0 0.0 0.0 
0.0 0.0 0.0 
0.0 0.0 0.0 
0.0 0.0 0.0 
0.0 0.0 0.0 
0.0 0.0 0.0 
0.0 0.0 0.0 
0.0 0.0 0.0 
0.0 0.0 0.0 
0.0 0.0 0.0 
0.0 0.0 0.0 
0.0 0.0 0.0 
0.0 0.0 0.0 
0.0 0.0 0.0 
0.0 0.0 0.0 
0.0 0.0 0.0 
0.0 0.0 0.0 
0.0 0.0 0.0 
0.0 0.0 0.0 
0.0 0.0 0.0 
0.0 0.0 0.0 
0.0 0.0 0.0 
0.0 0.0 0.0 
0.0 0.0 0.0 
0.0 0.0 0.0 
0.0 0.0 0.0 
0.0 0.0 0.0 
0.0 0.0 0.0 
0.0 0.0 0.0 
0.0 0.0 0.0 
0.0 0.0 0.0 
0.0 0.0 0.0 
0.0 0.0 0.0 
0.0 0.0 0.0 
0.0 0.0 0.0 
0.0 0.0 0.0 
0.0 0.0 0.0 
0.0 0.0 0.0 
0.0 0.0 0.0 
0.0 0.0 0.0 
0.0 0.0 0.0 
0.0 0.0 0.0 
0.0 0.0 0.0 
0.0 0.0 0.0 
0.0 0.0 0.0 
0.0 0.0 0.0 
0.0 0.0 0.0 
0.0 0.0 0.0 
0.0 0.0 0.0 
0.0 0.0 0.0 
0.0 0.0 0.0 
0.0 0.0 0.0 
0.0 0.0 0.0 
0.0 0.0 0.0 
0.0 0.0 0.0 
0.0 0.0 0.0 
0.0 0.0 0.0 
0.0 0.0 0.0 
0.0 0.0 0.0 
0.0 0.0 0.0 
0.0 0.0 0.0 
0.0 0.0 0.0 
0.0 0.0 0.0 
0.0 0.0 0.0 
0.0 0.0 0.0 
0.0 0.0 0.0 
0.0 0.0 0.0 
0.0 0.0 0.0 
0.0 0.0 0.0 
0.0 0.0 0.0 
0.0 0.0 0.0 
0.0 0.0 0.0 
0.0 0.0 0.0 
0.0 0.0 0.0 
0.0 0.0 0.0 
0.0 0.0 0.0 
0.0 0.0 0.0 
0.0 0.0 0.0 
0.0 0.0 0.0 
0.0 0.0 0.0 
0.0 0.0 0.0 
0.0 0.0 0.0 
0.0 0.0 0.0 
0.0 0.0 0.0 
0.0 0.0 0.0 
0.0 0.0 0.0 
0.0 0.0 0.0 
0.0 0.0 0.0 
0.0 0.0 0.0 
0.0 0.0 0.0 
0.0 0.0 0.0 
0.0 0.0 0.0 
0.0 0.0 0.0 
0.0 0.0 0.0 
0.0 0.0 0.0 
0.0 0.0 0.0 
0.0 0.0 0.0 
0.0 0.0 0.0 
0.0 0.0 0.0 
0.0 0.0 0.0 
0.0 0.0 0.0 
0.0 0.0 0.0 
0.0 0.0 0.0 
0.0 0.0 0.0 
0.0 0.0 0.0 
0.0 0.0 0.0 
0.0 0.0 0.0 
0.0 0.0 0.0 
0.0 0.0 0.0 
0.0 0.0 0.0 
0.0 0.0 0.0 
0.0 0.0 0.0 
0.0 0.0 0.0 
0.0 0.0 0.0 
0.0 0.0 0.0 
0.0 0.0 0.0 
0.0 0.0 0.0 
0.0 0.0 0.0 
0.0 0.0 0.0 
0.0 0.0 0.0 
0.0 0.0 0.0 
0.0 0.0 0.0 
0.0 0.0 0.0 
0.0 0.0 0.0 
0.0 0.0 0.0 
0.0 0.0 0.0 
0.0 0.0 0.0 
0.0 0.0 0.0 
0.0 0.0 0.0 
0.0 0.0 0.0 
0.0 0.0 0.0 
0.0 0.0 0.0 
0.0 0.0 0.0 
0.0 0.0 0.0 
0.0 0.0 0.0 
0.0 0.0 0.0 
0.0 0.0 0.0 
0.0 0.0 0.0 
0.0 0.0 0.0 
0.0 0.0 0.0 
0.0 0.0 0.0 
0.0 0.0 0.0 
0.0 0.0 0.0 
0.0 0.0 0.0 
0.0 0.0 0.0 
0.0 0.0 0.0 
0.0 0.0 0.0 
0.0 0.0 0.0 
0.0 0.0 0.0 
0.0 0.0 0.0 
0.0 0.0 0.0 
0.0 0.0 0.0 
0.0 0.0 0.0 
0.0 0.0 0.0 
0.0 0.0 0.0 
0.0 0.0 0.0 
0.0 0.0 0.0 
0.0 0.0 0.0 
0.0 0.0 0.0 
0.0 0.0 0.0 
0.0 0.0 0.0 
0.0 0.0 0.0 
0.0 0.0 0.0 
0.0 0.0 0.0 
0.0 0.0 0.0 
0.0 0.0 0.0 
0.0 0.0 0.0 
0.0 0.0 0.0 
0.0 0.0 0.0 
0.0 0.0 0.0 
0.0 0.0 0.0 
0.0 0.0 0.0 
0.0 0.0 0.0 
0.0 0.0 0.0 
0.0 0.0 0.0 
0.0 0.0 0.0 
0.0 0.0 0.0 
0.0 0.0 0.0 
0.0 0.0 0.0 
0.0 0.0 0.0 
0.0 0.0 0.0 
0.0 0.0 0.0 
0.0 0.0 0.0 
0.0 0.0 0.0 
0.0 0.0 0.0 
0.0 0.0 0.0 
0.0 0.0 0.0 
0.0 0.0 0.0 
0.0 0.0 0.0 
0.0 0.0 0.0 
0.0 0.0 0.0 
0.0 0.0 0.0 
0.0 0.0 0.0 
0.0 0.0 0.0 
0.0 0.0 0.0 
0.0 0.0 0.0 
0.0 0.0 0.0 
0.0 0.0 0.0 
0.0 0.0 0.0 
0.0 0.0 0.0 
0.0 0.0 0.0 
0.0 0.0 0.0 
0.0 0.0 0.0 
0.0 0.0 0.0 
0.0 0.0 0.0 
0.0 0.0 0.0 
0.0 0.0 0.0 
0.0 0.0 0.0 
0.0 0.0 0.0 
0.0 0.0 0.0 
0.0 0.0 0.0 
0.0 0.0 0.0 
0.0 0.0 0.0 
0.0 0.0 0.0 
0.0 0.0 0.0 
0.0 0.0 0.0 
0.0 0.0 0.0 
0.0 0.0 0.0 
0.0 0.0 0.0 
0.0 0.0 0.0 
0.0 0.0 0.0 
0.0 0.0 0.0 
0.0 0.0 0.0 
0.0 0.0 0.0 
0.0 0.0 0.0 
0.0 0.0 0.0 
0.0 0.0 0.0 
0.0 0.0 0.0 
0.0 0.0 0.0 
0.0 0.0 0.0 
0.0 0.0 0.0 
0.0 0.0 0.0 
0.0 0.0 0.0 
0.0 0.0 0.0 
0.0 0.0 0.0 
0.0 0.0 0.0 
0.0 0.0 0.0 
0.0 0.0 0.0 
0.0 0.0 0.0 
0.0 0.0 0.0 
0.0 0.0 0.0 
0.0 0.0 0.0 
0.0 0.0 0.0 
0.0 0.0 0.0 
0.0 0.0 0.0 
0.0 0.0 0.0 
0.0 0.0 0.0 
0.0 0.0 0.0 
0.0 0.0 0.0 
0.0 0.0 0.0 
0.0 0.0 0.0 
0.0 0.0 0.0 
0.0 0.0 0.0 
0.0 0.0 0.0 
0.0 0.0 0.0 
0.0 0.0 0.0 
0.0 0.0 0.0 
0.0 0.0 0.0 
0.0 0.0 0.0 
0.0 0.0 0.0 
0.0 0.0 0.0 
0.0 0.0 0.0 
0.0 0.0 0.0 
0.0 0.0 0.0 
0.0 0.0 0.0 
0.0 0.0 0.0 
0.0 0.0 0.0 
0.0 0.0 0.0 
0.0 0.0 0.0 
0.0 0.0 0.0 
0.0 0.0 0.0 
0.0 0.0 0.0 
0.0 0.0 0.0 
0.0 0.0 0.0 
0.0 0.0 0.0 
0.0 0.0 0.0 
0.0 0.0 0.0 
0.0 0.0 0.0 
0.0 0.0 0.0 
0.0 0.0 0.0 
0.0 0.0 0.0 
0.0 0.0 0.0 
0.0 0.0 0.0 
0.0 0.0 0.0 
0.0 0.0 0.0 
0.0 0.0 0.0 
0.0 0.0 0.0 
0.0 0.0 0.0 
0.0 0.0 0.0 
0.0 0.0 0.0 
0.0 0.0 0.0 
0.0 0.0 0.0 
0.0 0.0 0.0 
0.0 0.0 0.0 
0.0 0.0 0.0 
0.0 0.0 0.0 
0.0 0.0 0.0 
0.0 0.0 0.0 
0.0 0.0 0.0 
0.0 0.0 0.0 
0.0 0.0 0.0 
0.0 0.0 0.0 
0.0 0.0 0.0 
0.0 0.0 0.0 
0.0 0.0 0.0 
0.0 0.0 0.0 
0.0 0.0 0.0 
0.0 0.0 0.0 
0.0 0.0 0.0 
0.0 0.0 0.0 
0.0 0.0 0.0 
0.0 0.0 0.0 
0.0 0.0 0.0 
0.0 0.0 0.0 
0.0 0.0 0.0 
0.0 0.0 0.0 
0.0 0.0 0.0 
0.0 0.0 0.0 
0.0 0.0 0.0 
0.0 0.0 0.0 
0.0 0.0 0.0 
0.0 0.0 0.0 
0.0 0.0 0.0 
0.0 0.0 0.0 
0.0 0.0 0.0 
0.0 0.0 0.0 
0.0 0.0 0.0 
0.0 0.0 0.0 
0.0 0.0 0.0 
0.0 0.0 0.0 
0.0 0.0 0.0 
0.0 0.0 0.0 
0.0 0.0 0.0 
0.0 0.0 0.0 
0.0 0.0 0.0 
0.0 0.0 0.0 
0.0 0.0 0.0 
0.0 0.0 0.0 
0.0 0.0 0.0 
0.0 0.0 0.0 
0.0 0.0 0.0 
0.0 0.0 0.0 
0.0 0.0 0.0 
0.0 0.0 0.0 
0.0 0.0 0.0 
0.0 0.0 0.0 
0.0 0.0 0.0 
0.0 0.0 0.0 
0.0 0.0 0.0 
0.0 0.0 0.0 
0.0 0.0 0.0 
0.0 0.0 0.0 
0.0 0.0 0.0 
0.0 0.0 0.0 
0.0 0.0 0.0 
0.0 0.0 0.0 
0.0 0.0 0.0 
0.0 0.0 0.0 
0.0 0.0 0.0 
0.0 0.0 0.0 
0.0 0.0 0.0 
0.0 0.0 0.0 
0.0 0.0 0.0 
0.0 0.0 0.0 
0.0 0.0 0.0 
0.0 0.0 0.0 
0.0 0.0 0.0 
0.0 0.0 0.0 
0.0 0.0 0.0 

VECTORS node_bounda_dof_materi_velocity_y float
0.0 0.0 0.0 
0.0 0.0 0.0 
0.0 1.000000000000e+00 0.0 
0.0 1.000000000000e+00 0.0 
0.0 0.0 0.0 
0.0 0.0 0.0 
0.0 0.0 0.0 
0.0 0.0 0.0 
0.0 0.0 0.0 
0.0 0.0 0.0 
0.0 0.0 0.0 
0.0 0.0 0.0 
0.0 0.0 0.0 
0.0 0.0 0.0 
0.0 0.0 0.0 
0.0 0.0 0.0 
0.0 0.0 0.0 
0.0 0.0 0.0 
0.0 0.0 0.0 
0.0 0.0 0.0 
0.0 0.0 0.0 
0.0 0.0 0.0 
0.0 0.0 0.0 
0.0 1.000000000000e+00 0.0 
0.0 1.000000000000e+00 0.0 
0.0 1.000000000000e+00 0.0 
0.0 1.000000000000e+00 0.0 
0.0 1.000000000000e+00 0.0 
0.0 1.000000000000e+00 0.0 
0.0 1.000000000000e+00 0.0 
0.0 1.000000000000e+00 0.0 
0.0 1.000000000000e+00 0.0 
0.0 1.000000000000e+00 0.0 
0.0 1.000000000000e+00 0.0 
0.0 1.000000000000e+00 0.0 
0.0 1.000000000000e+00 0.0 
0.0 1.000000000000e+00 0.0 
0.0 1.000000000000e+00 0.0 
0.0 1.000000000000e+00 0.0 
0.0 1.000000000000e+00 0.0 
0.0 1.000000000000e+00 0.0 
0.0 1.000000000000e+00 0.0 
0.0 1.000000000000e+00 0.0 
0.0 1.000000000000e+00 0.0 
0.0 1.000000000000e+00 0.0 
0.0 1.000000000000e+00 0.0 
0.0 1.000000000000e+00 0.0 
0.0 1.000000000000e+00 0.0 
0.0 1.000000000000e+00 0.0 
0.0 1.000000000000e+00 0.0 
0.0 1.000000000000e+00 0.0 
0.0 1.000000000000e+00 0.0 
0.0 1.000000000000e+00 0.0 
0.0 1.000000000000e+00 0.0 
0.0 1.000000000000e+00 0.0 
0.0 1.000000000000e+00 0.0 
0.0 1.000000000000e+00 0.0 
0.0 1.000000000000e+00 0.0 
0.0 1.000000000000e+00 0.0 
0.0 1.000000000000e+00 0.0 
0.0 1.000000000000e+00 0.0 
0.0 1.000000000000e+00 0.0 
0.0 1.000000000000e+00 0.0 
0.0 1.000000000000e+00 0.0 
0.0 1.000000000000e+00 0.0 
0.0 1.000000000000e+00 0.0 
0.0 1.000000000000e+00 0.0 
0.0 1.000000000000e+00 0.0 
0.0 1.000000000000e+00 0.0 
0.0 1.000000000000e+00 0.0 
0.0 1.000000000000e+00 0.0 
0.0 1.000000000000e+00 0.0 
0.0 0.0 0.0 
0.0 0.0 0.0 
0.0 0.0 0.0 
0.0 0.0 0.0 
0.0 0.0 0.0 
0.0 0.0 0.0 
0.0 0.0 0.0 
0.0 0.0 0.0 
0.0 0.0 0.0 
0.0 0.0 0.0 
0.0 0.0 0.0 
0.0 0.0 0.0 
0.0 0.0 0.0 
0.0 0.0 0.0 
0.0 0.0 0.0 
0.0 0.0 0.0 
0.0 0.0 0.0 
0.0 0.0 0.0 
0.0 0.0 0.0 
0.0 0.0 0.0 
0.0 0.0 0.0 
0.0 0.0 0.0 
0.0 0.0 0.0 
0.0 0.0 0.0 
0.0 0.0 0.0 
0.0 0.0 0.0 
0.0 0.0 0.0 
0.0 0.0 0.0 
0.0 0.0 0.0 
0.0 0.0 0.0 
0.0 0.0 0.0 
0.0 0.0 0.0 
0.0 0.0 0.0 
0.0 0.0 0.0 
0.0 0.0 0.0 
0.0 0.0 0.0 
0.0 0.0 0.0 
0.0 0.0 0.0 
0.0 0.0 0.0 
0.0 0.0 0.0 
0.0 0.0 0.0 
0.0 0.0 0.0 
0.0 0.0 0.0 
0.0 0.0 0.0 
0.0 0.0 0.0 
0.0 0.0 0.0 
0.0 0.0 0.0 
0.0 0.0 0.0 
0.0 0.0 0.0 
0.0 0.0 0.0 
0.0 0.0 0.0 
0.0 0.0 0.0 
0.0 0.0 0.0 
0.0 0.0 0.0 
0.0 0.0 0.0 
0.0 0.0 0.0 
0.0 0.0 0.0 
0.0 0.0 0.0 
0.0 0.0 0.0 
0.0 0.0 0.0 
0.0 0.0 0.0 
0.0 0.0 0.0 
0.0 0.0 0.0 
0.0 0.0 0.0 
0.0 0.0 0.0 
0.0 0.0 0.0 
0.0 0.0 0.0 
0.0 0.0 0.0 
0.0 0.0 0.0 
0.0 0.0 0.0 
0.0 0.0 0.0 
0.0 0.0 0.0 
0.0 0.0 0.0 
0.0 0.0 0.0 
0.0 0.0 0.0 
0.0 0.0 0.0 
0.0 0.0 0.0 
0.0 0.0 0.0 
0.0 0.0 0.0 
0.0 0.0 0.0 
0.0 0.0 0.0 
0.0 0.0 0.0 
0.0 0.0 0.0 
0.0 0.0 0.0 
0.0 0.0 0.0 
0.0 0.0 0.0 
0.0 0.0 0.0 
0.0 0.0 0.0 
0.0 0.0 0.0 
0.0 0.0 0.0 
0.0 0.0 0.0 
0.0 0.0 0.0 
0.0 0.0 0.0 
0.0 0.0 0.0 
0.0 0.0 0.0 
0.0 0.0 0.0 
0.0 0.0 0.0 
0.0 0.0 0.0 
0.0 0.0 0.0 
0.0 0.0 0.0 
0.0 0.0 0.0 
0.0 0.0 0.0 
0.0 0.0 0.0 
0.0 0.0 0.0 
0.0 0.0 0.0 
0.0 0.0 0.0 
0.0 0.0 0.0 
0.0 0.0 0.0 
0.0 0.0 0.0 
0.0 0.0 0.0 
0.0 0.0 0.0 
0.0 0.0 0.0 
0.0 0.0 0.0 
0.0 0.0 0.0 
0.0 0.0 0.0 
0.0 0.0 0.0 
0.0 0.0 0.0 
0.0 0.0 0.0 
0.0 0.0 0.0 
0.0 0.0 0.0 
0.0 0.0 0.0 
0.0 0.0 0.0 
0.0 0.0 0.0 
0.0 0.0 0.0 
0.0 0.0 0.0 
0.0 0.0 0.0 
0.0 0.0 0.0 
0.0 0.0 0.0 
0.0 0.0 0.0 
0.0 0.0 0.0 
0.0 0.0 0.0 
0.0 0.0 0.0 
0.0 0.0 0.0 
0.0 0.0 0.0 
0.0 0.0 0.0 
0.0 0.0 0.0 
0.0 0.0 0.0 
0.0 0.0 0.0 
0.0 0.0 0.0 
0.0 0.0 0.0 
0.0 0.0 0.0 
0.0 0.0 0.0 
0.0 0.0 0.0 
0.0 0.0 0.0 
0.0 0.0 0.0 
0.0 0.0 0.0 
0.0 0.0 0.0 
0.0 0.0 0.0 
0.0 0.0 0.0 
0.0 0.0 0.0 
0.0 0.0 0.0 
0.0 0.0 0.0 
0.0 0.0 0.0 
0.0 0.0 0.0 
0.0 0.0 0.0 
0.0 0.0 0.0 
0.0 0.0 0.0 
0.0 0.0 0.0 
0.0 0.0 0.0 
0.0 0.0 0.0 
0.0 0.0 0.0 
0.0 0.0 0.0 
0.0 0.0 0.0 
0.0 0.0 0.0 
0.0 0.0 0.0 
0.0 0.0 0.0 
0.0 0.0 0.0 
0.0 0.0 0.0 
0.0 0.0 0.0 
0.0 0.0 0.0 
0.0 0.0 0.0 
0.0 0.0 0.0 
0.0 0.0 0.0 
0.0 0.0 0.0 
0.0 0.0 0.0 
0.0 0.0 0.0 
0.0 0.0 0.0 
0.0 0.0 0.0 
0.0 0.0 0.0 
0.0 0.0 0.0 
0.0 0.0 0.0 
0.0 0.0 0.0 
0.0 0.0 0.0 
0.0 0.0 0.0 
0.0 0.0 0.0 
0.0 0.0 0.0 
0.0 0.0 0.0 
0.0 0.0 0.0 
0.0 0.0 0.0 
0.0 0.0 0.0 
0.0 0.0 0.0 
0.0 0.0 0.0 
0.0 0.0 0.0 
0.0 0.0 0.0 
0.0 0.0 0.0 
0.0 0.0 0.0 
0.0 0.0 0.0 
0.0 0.0 0.0 
0.0 0.0 0.0 
0.0 0.0 0.0 
0.0 0.0 0.0 
0.0 0.0 0.0 
0.0 0.0 0.0 
0.0 0.0 0.0 
0.0 0.0 0.0 
0.0 0.0 0.0 
0.0 0.0 0.0 
0.0 0.0 0.0 
0.0 0.0 0.0 
0.0 0.0 0.0 
0.0 0.0 0.0 
0.0 0.0 0.0 
0.0 0.0 0.0 
0.0 0.0 0.0 
0.0 0.0 0.0 
0.0 0.0 0.0 
0.0 0.0 0.0 
0.0 0.0 0.0 
0.0 0.0 0.0 
0.0 0.0 0.0 
0.0 0.0 0.0 
0.0 0.0 0.0 
0.0 0.0 0.0 
0.0 0.0 0.0 
0.0 0.0 0.0 
0.0 0.0 0.0 
0.0 0.0 0.0 
0.0 0.0 0.0 
0.0 0.0 0.0 
0.0 0.0 0.0 
0.0 0.0 0.0 
0.0 0.0 0.0 
0.0 0.0 0.0 
0.0 0.0 0.0 
0.0 0.0 0.0 
0.0 0.0 0.0 
0.0 0.0 0.0 
0.0 0.0 0.0 
0.0 0.0 0.0 
0.0 0.0 0.0 
0.0 0.0 0.0 
0.0 0.0 0.0 
0.0 0.0 0.0 
0.0 0.0 0.0 
0.0 0.0 0.0 
0.0 0.0 0.0 
0.0 0.0 0.0 
0.0 0.0 0.0 
0.0 0.0 0.0 
0.0 0.0 0.0 
0.0 0.0 0.0 
0.0 0.0 0.0 
0.0 0.0 0.0 
0.0 0.0 0.0 
0.0 0.0 0.0 
0.0 0.0 0.0 
0.0 0.0 0.0 
0.0 0.0 0.0 
0.0 0.0 0.0 
0.0 0.0 0.0 
0.0 0.0 0.0 
0.0 0.0 0.0 
0.0 0.0 0.0 
0.0 0.0 0.0 
0.0 0.0 0.0 
0.0 0.0 0.0 
0.0 0.0 0.0 
0.0 0.0 0.0 
0.0 0.0 0.0 
0.0 0.0 0.0 
0.0 0.0 0.0 
0.0 0.0 0.0 
0.0 0.0 0.0 
0.0 0.0 0.0 
0.0 0.0 0.0 
0.0 0.0 0.0 
0.0 0.0 0.0 
0.0 0.0 0.0 
0.0 0.0 0.0 
0.0 0.0 0.0 
0.0 0.0 0.0 
0.0 0.0 0.0 
0.0 0.0 0.0 
0.0 0.0 0.0 
0.0 0.0 0.0 
0.0 0.0 0.0 
0.0 0.0 0.0 
0.0 0.0 0.0 
0.0 0.0 0.0 
0.0 0.0 0.0 
0.0 0.0 0.0 
0.0 0.0 0.0 
0.0 0.0 0.0 
0.0 0.0 0.0 
0.0 0.0 0.0 
0.0 0.0 0.0 
0.0 0.0 0.0 
0.0 0.0 0.0 
0.0 0.0 0.0 
0.0 0.0 0.0 
0.0 0.0 0.0 
0.0 0.0 0.0 
0.0 0.0 0.0 
0.0 0.0 0.0 
0.0 0.0 0.0 
0.0 0.0 0.0 
0.0 0.0 0.0 
0.0 0.0 0.0 
0.0 0.0 0.0 
0.0 0.0 0.0 
0.0 0.0 0.0 
0.0 0.0 0.0 
0.0 0.0 0.0 
0.0 0.0 0.0 
0.0 0.0 0.0 
0.0 0.0 0.0 
0.0 0.0 0.0 
0.0 0.0 0.0 
0.0 0.0 0.0 
0.0 0.0 0.0 
0.0 0.0 0.0 
0.0 0.0 0.0 
0.0 0.0 0.0 
0.0 0.0 0.0 
0.0 0.0 0.0 
0.0 0.0 0.0 
0.0 0.0 0.0 
0.0 0.0 0.0 
0.0 0.0 0.0 
0.0 0.0 0.0 
0.0 0.0 0.0 
0.0 0.0 0.0 
0.0 0.0 0.0 
0.0 0.0 0.0 
0.0 0.0 0.0 
0.0 0.0 0.0 
0.0 0.0 0.0 
0.0 0.0 0.0 
0.0 0.0 0.0 
0.0 0.0 0.0 
0.0 0.0 0.0 
0.0 0.0 0.0 
0.0 0.0 0.0 
0.0 0.0 0.0 
0.0 0.0 0.0 
0.0 0.0 0.0 
0.0 0.0 0.0 
0.0 0.0 0.0 
0.0 0.0 0.0 
0.0 0.0 0.0 
0.0 0.0 0.0 
0.0 0.0 0.0 
0.0 0.0 0.0 
0.0 0.0 0.0 
0.0 0.0 0.0 
0.0 0.0 0.0 
0.0 0.0 0.0 
0.0 0.0 0.0 
0.0 0.0 0.0 
0.0 0.0 0.0 
0.0 0.0 0.0 
0.0 0.0 0.0 
0.0 0.0 0.0 
0.0 0.0 0.0 
0.0 0.0 0.0 
0.0 0.0 0.0 
0.0 0.0 0.0 
0.0 0.0 0.0 
0.0 0.0 0.0 
0.0 0.0 0.0 
0.0 0.0 0.0 
0.0 0.0 0.0 
0.0 0.0 0.0 
0.0 0.0 0.0 
0.0 0.0 0.0 
0.0 0.0 0.0 
0.0 0.0 0.0 
0.0 0.0 0.0 
0.0 0.0 0.0 
0.0 0.0 0.0 
0.0 0.0 0.0 
0.0 0.0 0.0 
0.0 0.0 0.0 
0.0 0.0 0.0 
0.0 0.0 0.0 
0.0 0.0 0.0 
0.0 0.0 0.0 
0.0 0.0 0.0 
0.0 0.0 0.0 
0.0 0.0 0.0 
0.0 0.0 0.0 
0.0 0.0 0.0 
0.0 0.0 0.0 
0.0 0.0 0.0 
0.0 0.0 0.0 
0.0 0.0 0.0 
0.0 0.0 0.0 
0.0 0.0 0.0 
0.0 0.0 0.0 
0.0 0.0 0.0 
0.0 0.0 0.0 
0.0 0.0 0.0 
0.0 0.0 0.0 
0.0 0.0 0.0 
0.0 0.0 0.0 
0.0 0.0 0.0 
0.0 0.0 0.0 
0.0 0.0 0.0 
0.0 0.0 0.0 
0.0 0.0 0.0 
0.0 0.0 0.0 
0.0 0.0 0.0 
0.0 0.0 0.0 
0.0 0.0 0.0 
0.0 0.0 0.0 
0.0 0.0 0.0 
0.0 0.0 0.0 
0.0 0.0 0.0 
0.0 0.0 0.0 
0.0 0.0 0.0 
0.0 0.0 0.0 
0.0 0.0 0.0 
0.0 0.0 0.0 
0.0 0.0 0.0 
0.0 0.0 0.0 
0.0 0.0 0.0 
0.0 0.0 0.0 
0.0 0.0 0.0 
0.0 0.0 0.0 
0.0 0.0 0.0 
0.0 0.0 0.0 
0.0 0.0 0.0 
0.0 0.0 0.0 
0.0 0.0 0.0 
0.0 0.0 0.0 
0.0 0.0 0.0 
0.0 0.0 0.0 
0.0 0.0 0.0 
0.0 0.0 0.0 
0.0 0.0 0.0 
0.0 0.0 0.0 
0.0 0.0 0.0 
0.0 0.0 0.0 
0.0 0.0 0.0 
0.0 0.0 0.0 
0.0 0.0 0.0 
0.0 0.0 0.0 
0.0 0.0 0.0 
0.0 0.0 0.0 
0.0 0.0 0.0 
0.0 0.0 0.0 
0.0 0.0 0.0 
0.0 0.0 0.0 
0.0 0.0 0.0 
0.0 0.0 0.0 
0.0 0.0 0.0 
0.0 0.0 0.0 
0.0 0.0 0.0 
0.0 0.0 0.0 
0.0 0.0 0.0 
0.0 0.0 0.0 
0.0 0.0 0.0 
0.0 0.0 0.0 
0.0 0.0 0.0 
0.0 0.0 0.0 
0.0 0.0 0.0 
0.0 0.0 0.0 
0.0 0.0 0.0 
0.0 0.0 0.0 
0.0 0.0 0.0 
0.0 0.0 0.0 
0.0 0.0 0.0 
0.0 0.0 0.0 
0.0 0.0 0.0 
0.0 0.0 0.0 
0.0 0.0 0.0 
0.0 0.0 0.0 
0.0 0.0 0.0 
0.0 0.0 0.0 
0.0 0.0 0.0 
0.0 0.0 0.0 
0.0 0.0 0.0 
0.0 0.0 0.0 
0.0 0.0 0.0 
0.0 0.0 0.0 
0.0 0.0 0.0 
0.0 0.0 0.0 
0.0 0.0 0.0 
0.0 0.0 0.0 
0.0 0.0 0.0 
0.0 0.0 0.0 
0.0 0.0 0.0 
0.0 0.0 0.0 
0.0 0.0 0.0 
0.0 0.0 0.0 
0.0 0.0 0.0 
0.0 0.0 0.0 
0.0 0.0 0.0 
0.0 0.0 0.0 
0.0 0.0 0.0 
0.0 0.0 0.0 
0.0 0.0 0.0 
0.0 0.0 0.0 
0.0 0.0 0.0 
0.0 0.0 0.0 
0.0 0.0 0.0 
0.0 0.0 0.0 
0.0 0.0 0.0 
0.0 0.0 0.0 
0.0 0.0 0.0 
0.0 0.0 0.0 
0.0 0.0 0.0 
0.0 0.0 0.0 
0.0 0.0 0.0 
0.0 0.0 0.0 
0.0 0.0 0.0 
0.0 0.0 0.0 
0.0 0.0 0.0 
0.0 0.0 0.0 
0.0 0.0 0.0 
0.0 0.0 0.0 
0.0 0.0 0.0 
0.0 0.0 0.0 
0.0 0.0 0.0 
0.0 0.0 0.0 
0.0 0.0 0.0 
0.0 0.0 0.0 
0.0 0.0 0.0 
0.0 0.0 0.0 
0.0 0.0 0.0 
0.0 0.0 0.0 
0.0 0.0 0.0 
0.0 0.0 0.0 
0.0 0.0 0.0 
0.0 0.0 0.0 
0.0 0.0 0.0 
0.0 0.0 0.0 
0.0 0.0 0.0 
0.0 0.0 0.0 
0.0 0.0 0.0 
0.0 0.0 0.0 
0.0 0.0 0.0 
0.0 0.0 0.0 
0.0 0.0 0.0 
0.0 0.0 0.0 
0.0 0.0 0.0 
0.0 0.0 0.0 
0.0 0.0 0.0 
0.0 0.0 0.0 
0.0 0.0 0.0 
0.0 0.0 0.0 
0.0 0.0 0.0 
0.0 0.0 0.0 
0.0 0.0 0.0 
0.0 0.0 0.0 
0.0 0.0 0.0 
0.0 0.0 0.0 
0.0 0.0 0.0 
0.0 0.0 0.0 
0.0 0.0 0.0 
0.0 0.0 0.0 
0.0 0.0 0.0 
0.0 0.0 0.0 
0.0 0.0 0.0 
0.0 0.0 0.0 
0.0 0.0 0.0 
0.0 0.0 0.0 
0.0 0.0 0.0 
0.0 0.0 0.0 
0.0 0.0 0.0 
0.0 0.0 0.0 
0.0 0.0 0.0 
0.0 0.0 0.0 
0.0 0.0 0.0 
0.0 0.0 0.0 
0.0 0.0 0.0 
0.0 0.0 0.0 
0.0 0.0 0.0 
0.0 0.0 0.0 
0.0 0.0 0.0 
0.0 0.0 0.0 
0.0 0.0 0.0 
0.0 0.0 0.0 
0.0 0.0 0.0 
0.0 0.0 0.0 
0.0 0.0 0.0 
0.0 0.0 0.0 
0.0 0.0 0.0 
0.0 0.0 0.0 
0.0 0.0 0.0 
0.0 0.0 0.0 
0.0 0.0 0.0 
0.0 0.0 0.0 
0.0 0.0 0.0 
0.0 0.0 0.0 
0.0 0.0 0.0 
0.0 0.0 0.0 
0.0 0.0 0.0 
0.0 0.0 0.0 
0.0 0.0 0.0 
0.0 0.0 0.0 
0.0 0.0 0.0 
0.0 0.0 0.0 
0.0 0.0 0.0 
0.0 0.0 0.0 
0.0 0.0 0.0 
0.0 0.0 0.0 
0.0 0.0 0.0 
0.0 0.0 0.0 
0.0 0.0 0.0 
0.0 0.0 0.0 
0.0 0.0 0.0 
0.0 0.0 0.0 
0.0 0.0 0.0 
0.0 0.0 0.0 
0.0 0.0 0.0 
0.0 0.0 0.0 
0.0 0.0 0.0 
0.0 0.0 0.0 
0.0 0.0 0.0 
0.0 0.0 0.0 
0.0 0.0 0.0 
0.0 0.0 0.0 
0.0 0.0 0.0 
0.0 0.0 0.0 
0.0 0.0 0.0 
0.0 0.0 0.0 
0.0 0.0 0.0 
0.0 0.0 0.0 
0.0 0.0 0.0 
0.0 0.0 0.0 
0.0 0.0 0.0 
0.0 0.0 0.0 
0.0 0.0 0.0 
0.0 0.0 0.0 
0.0 0.0 0.0 
0.0 0.0 0.0 
0.0 0.0 0.0 
0.0 0.0 0.0 
0.0 0.0 0.0 
0.0 0.0 0.0 
0.0 0.0 0.0 
0.0 0.0 0.0 
0.0 0.0 0.0 
0.0 0.0 0.0 
0.0 0.0 0.0 
0.0 0.0 0.0 
0.0 0.0 0.0 
0.0 0.0 0.0 
0.0 0.0 0.0 
0.0 0.0 0.0 
0.0 0.0 0.0 
0.0 0.0 0.0 
0.0 0.0 0.0 
0.0 0.0 0.0 
0.0 0.0 0.0 
0.0 0.0 0.0 
0.0 0.0 0.0 
0.0 0.0 0.0 
0.0 0.0 0.0 
0.0 0.0 0.0 
0.0 0.0 0.0 
0.0 0.0 0.0 
0.0 0.0 0.0 
0.0 0.0 0.0 
0.0 0.0 0.0 
0.0 0.0 0.0 
0.0 0.0 0.0 
0.0 0.0 0.0 
0.0 0.0 0.0 
0.0 0.0 0.0 
0.0 0.0 0.0 
0.0 0.0 0.0 
0.0 0.0 0.0 
0.0 0.0 0.0 
0.0 0.0 0.0 
0.0 0.0 0.0 
0.0 0.0 0.0 
0.0 0.0 0.0 
0.0 0.0 0.0 
0.0 0.0 0.0 
0.0 0.0 0.0 
0.0 0.0 0.0 
0.0 0.0 0.0 
0.0 0.0 0.0 
0.0 0.0 0.0 
0.0 0.0 0.0 
0.0 0.0 0.0 
0.0 0.0 0.0 
0.0 0.0 0.0 
0.0 0.0 0.0 
0.0 0.0 0.0 
0.0 0.0 0.0 
0.0 0.0 0.0 
0.0 0.0 0.0 
0.0 0.0 0.0 
0.0 0.0 0.0 
0.0 0.0 0.0 
0.0 0.0 0.0 
0.0 0.0 0.0 
0.0 0.0 0.0 
0.0 0.0 0.0 
0.0 0.0 0.0 
0.0 0.0 0.0 
0.0 0.0 0.0 
0.0 0.0 0.0 
0.0 0.0 0.0 
0.0 0.0 0.0 
0.0 0.0 0.0 
0.0 0.0 0.0 
0.0 0.0 0.0 
0.0 0.0 0.0 
0.0 0.0 0.0 
0.0 0.0 0.0 
0.0 0.0 0.0 
0.0 0.0 0.0 
0.0 0.0 0.0 
0.0 0.0 0.0 
0.0 0.0 0.0 
0.0 0.0 0.0 
0.0 0.0 0.0 
0.0 0.0 0.0 
0.0 0.0 0.0 
0.0 0.0 0.0 
0.0 0.0 0.0 
0.0 0.0 0.0 
0.0 0.0 0.0 
0.0 0.0 0.0 
0.0 0.0 0.0 
0.0 0.0 0.0 
0.0 0.0 0.0 
0.0 0.0 0.0 
0.0 0.0 0.0 
0.0 0.0 0.0 
0.0 0.0 0.0 
0.0 0.0 0.0 
0.0 0.0 0.0 
0.0 0.0 0.0 
0.0 0.0 0.0 
0.0 0.0 0.0 
0.0 0.0 0.0 
0.0 0.0 0.0 
0.0 0.0 0.0 
0.0 0.0 0.0 
0.0 0.0 0.0 
0.0 0.0 0.0 
0.0 0.0 0.0 
0.0 0.0 0.0 
0.0 0.0 0.0 
0.0 0.0 0.0 
0.0 0.0 0.0 
0.0 0.0 0.0 
0.0 0.0 0.0 
0.0 0.0 0.0 
0.0 0.0 0.0 
0.0 0.0 0.0 
0.0 0.0 0.0 
0.0 0.0 0.0 
0.0 0.0 0.0 
0.0 0.0 0.0 
0.0 0.0 0.0 
0.0 0.0 0.0 
0.0 0.0 0.0 
0.0 0.0 0.0 
0.0 0.0 0.0 
0.0 0.0 0.0 
0.0 0.0 0.0 
0.0 0.0 0.0 
0.0 0.0 0.0 
0.0 0.0 0.0 
0.0 0.0 0.0 
0.0 0.0 0.0 
0.0 0.0 0.0 
0.0 0.0 0.0 
0.0 0.0 0.0 
0.0 0.0 0.0 
0.0 0.0 0.0 
0.0 0.0 0.0 
0.0 0.0 0.0 
0.0 0.0 0.0 
0.0 0.0 0.0 
0.0 0.0 0.0 
0.0 0.0 0.0 
0.0 0.0 0.0 
0.0 0.0 0.0 
0.0 0.0 0.0 
0.0 0.0 0.0 
0.0 0.0 0.0 
0.0 0.0 0.0 
0.0 0.0 0.0 
0.0 0.0 0.0 
0.0 0.0 0.0 
0.0 0.0 0.0 
0.0 0.0 0.0 
0.0 0.0 0.0 
0.0 0.0 0.0 
0.0 0.0 0.0 
0.0 0.0 0.0 
0.0 0.0 0.0 
0.0 0.0 0.0 
0.0 0.0 0.0 
0.0 0.0 0.0 
0.0 0.0 0.0 
0.0 0.0 0.0 
0.0 0.0 0.0 
0.0 0.0 0.0 
0.0 0.0 0.0 
0.0 0.0 0.0 
0.0 0.0 0.0 
0.0 0.0 0.0 
0.0 0.0 0.0 
0.0 0.0 0.0 
0.0 0.0 0.0 
0.0 0.0 0.0 
0.0 0.0 0.0 
0.0 0.0 0.0 
0.0 0.0 0.0 
0.0 0.0 0.0 
0.0 0.0 0.0 
0.0 0.0 0.0 
0.0 0.0 0.0 
0.0 0.0 0.0 
0.0 0.0 0.0 
0.0 0.0 0.0 
0.0 0.0 0.0 
0.0 0.0 0.0 
0.0 0.0 0.0 
0.0 0.0 0.0 
0.0 0.0 0.0 
0.0 0.0 0.0 
0.0 0.0 0.0 
0.0 0.0 0.0 
0.0 0.0 0.0 
0.0 0.0 0.0 
0.0 0.0 0.0 
0.0 0.0 0.0 
0.0 0.0 0.0 
0.0 0.0 0.0 
0.0 0.0 0.0 
0.0 0.0 0.0 
0.0 0.0 0.0 
0.0 0.0 0.0 
0.0 0.0 0.0 
0.0 0.0 0.0 
0.0 0.0 0.0 
0.0 0.0 0.0 
0.0 0.0 0.0 
0.0 0.0 0.0 
0.0 0.0 0.0 
0.0 0.0 0.0 
0.0 0.0 0.0 
0.0 0.0 0.0 
0.0 0.0 0.0 
0.0 0.0 0.0 
0.0 0.0 0.0 
0.0 0.0 0.0 
0.0 0.0 0.0 
0.0 0.0 0.0 
0.0 0.0 0.0 
0.0 0.0 0.0 
0.0 0.0 0.0 
0.0 0.0 0.0 
0.0 0.0 0.0 
0.0 0.0 0.0 
0.0 0.0 0.0 
0.0 0.0 0.0 
0.0 0.0 0.0 
0.0 0.0 0.0 
0.0 0.0 0.0 
0.0 0.0 0.0 
0.0 0.0 0.0 
0.0 0.0 0.0 
0.0 0.0 0.0 
0.0 0.0 0.0 
0.0 0.0 0.0 
0.0 0.0 0.0 
0.0 0.0 0.0 
0.0 0.0 0.0 
0.0 0.0 0.0 
0.0 0.0 0.0 
0.0 0.0 0.0 
0.0 0.0 0.0 
0.0 0.0 0.0 
0.0 0.0 0.0 
0.0 0.0 0.0 
0.0 0.0 0.0 
0.0 0.0 0.0 
0.0 0.0 0.0 
0.0 0.0 0.0 
0.0 0.0 0.0 
0.0 0.0 0.0 
0.0 0.0 0.0 
0.0 0.0 0.0 
0.0 0.0 0.0 
0.0 0.0 0.0 
0.0 0.0 0.0 
0.0 0.0 0.0 
0.0 0.0 0.0 
0.0 0.0 0.0 
0.0 0.0 0.0 
0.0 0.0 0.0 
0.0 0.0 0.0 
0.0 0.0 0.0 
0.0 0.0 0.0 
0.0 0.0 0.0 
0.0 0.0 0.0 
0.0 0.0 0.0 
0.0 0.0 0.0 
0.0 0.0 0.0 
0.0 0.0 0.0 
0.0 0.0 0.0 
0.0 0.0 0.0 
0.0 0.0 0.0 
0.0 0.0 0.0 
0.0 0.0 0.0 
0.0 0.0 0.0 
0.0 0.0 0.0 
0.0 0.0 0.0 
0.0 0.0 0.0 
0.0 0.0 0.0 
0.0 0.0 0.0 
0.0 0.0 0.0 
0.0 0.0 0.0 
0.0 0.0 0.0 
0.0 0.0 0.0 
0.0 0.0 0.0 
0.0 0.0 0.0 
0.0 0.0 0.0 
0.0 0.0 0.0 
0.0 0.0 0.0 
0.0 0.0 0.0 
0.0 0.0 0.0 
0.0 0.0 0.0 
0.0 0.0 0.0 
0.0 0.0 0.0 
0.0 0.0 0.0 
0.0 0.0 0.0 
0.0 0.0 0.0 
0.0 0.0 0.0 
0.0 0.0 0.0 
0.0 0.0 0.0 
0.0 0.0 0.0 
0.0 0.0 0.0 
0.0 0.0 0.0 
0.0 0.0 0.0 
0.0 0.0 0.0 
0.0 0.0 0.0 
0.0 0.0 0.0 
0.0 0.0 0.0 
0.0 0.0 0.0 
0.0 0.0 0.0 
0.0 0.0 0.0 
0.0 0.0 0.0 
0.0 0.0 0.0 
0.0 0.0 0.0 
0.0 0.0 0.0 

SCALARS node_boundary float
LOOKUP_TABLE default
1.000000000000e+00 
1.000000000000e+00 
1.000000000000e+00 
1.000000000000e+00 
1.000000000000e+00 
1.000000000000e+00 
1.000000000000e+00 
1.000000000000e+00 
1.000000000000e+00 
1.000000000000e+00 
1.000000000000e+00 
1.000000000000e+00 
1.000000000000e+00 
1.000000000000e+00 
1.000000000000e+00 
1.000000000000e+00 
1.000000000000e+00 
1.000000000000e+00 
1.000000000000e+00 
1.000000000000e+00 
1.000000000000e+00 
1.000000000000e+00 
1.000000000000e+00 
1.000000000000e+00 
1.000000000000e+00 
1.000000000000e+00 
1.000000000000e+00 
1.000000000000e+00 
1.000000000000e+00 
1.000000000000e+00 
1.000000000000e+00 
1.000000000000e+00 
1.000000000000e+00 
1.000000000000e+00 
1.000000000000e+00 
1.000000000000e+00 
1.000000000000e+00 
1.000000000000e+00 
1.000000000000e+00 
1.000000000000e+00 
1.000000000000e+00 
1.000000000000e+00 
1.000000000000e+00 
1.000000000000e+00 
1.000000000000e+00 
1.000000000000e+00 
1.000000000000e+00 
1.000000000000e+00 
1.000000000000e+00 
1.000000000000e+00 
1.000000000000e+00 
1.000000000000e+00 
1.000000000000e+00 
1.000000000000e+00 
1.000000000000e+00 
1.000000000000e+00 
1.000000000000e+00 
1.000000000000e+00 
1.000000000000e+00 
1.000000000000e+00 
1.000000000000e+00 
1.000000000000e+00 
1.000000000000e+00 
1.000000000000e+00 
1.000000000000e+00 
1.000000000000e+00 
1.000000000000e+00 
1.000000000000e+00 
1.000000000000e+00 
1.000000000000e+00 
1.000000000000e+00 
1.000000000000e+00 
1.000000000000e+00 
1.000000000000e+00 
1.000000000000e+00 
1.000000000000e+00 
1.000000000000e+00 
1.000000000000e+00 
1.000000000000e+00 
1.000000000000e+00 
1.000000000000e+00 
1.000000000000e+00 
1.000000000000e+00 
1.000000000000e+00 
1.000000000000e+00 
1.000000000000e+00 
1.000000000000e+00 
1.000000000000e+00 
1.000000000000e+00 
1.000000000000e+00 
1.000000000000e+00 
1.000000000000e+00 
1.000000000000e+00 
1.000000000000e+00 
1.000000000000e+00 
1.000000000000e+00 
1.000000000000e+00 
1.000000000000e+00 
1.000000000000e+00 
1.000000000000e+00 
1.000000000000e+00 
1.000000000000e+00 
1.000000000000e+00 
1.000000000000e+00 
1.000000000000e+00 
1.000000000000e+00 
1.000000000000e+00 
1.000000000000e+00 
1.000000000000e+00 
1.000000000000e+00 
1.000000000000e+00 
1.000000000000e+00 
1.000000000000e+00 
1.000000000000e+00 
1.000000000000e+00 
1.000000000000e+00 
1.000000000000e+00 
1.000000000000e+00 
1.000000000000e+00 
1.000000000000e+00 
1.000000000000e+00 
1.000000000000e+00 
1.000000000000e+00 
1.000000000000e+00 
1.000000000000e+00 
1.000000000000e+00 
1.000000000000e+00 
1.000000000000e+00 
1.000000000000e+00 
1.000000000000e+00 
1.000000000000e+00 
1.000000000000e+00 
1.000000000000e+00 
1.000000000000e+00 
1.000000000000e+00 
0.0
0.0
0.0
0.0
0.0
0.0
0.0
0.0
0.0
0.0
0.0
0.0
0.0
0.0
0.0
0.0
0.0
0.0
0.0
0.0
0.0
0.0
0.0
0.0
0.0
0.0
0.0
0.0
0.0
0.0
0.0
0.0
0.0
0.0
0.0
0.0
0.0
0.0
0.0
0.0
0.0
0.0
0.0
0.0
0.0
0.0
0.0
0.0
0.0
0.0
0.0
0.0
0.0
0.0
0.0
0.0
0.0
0.0
0.0
0.0
0.0
0.0
0.0
0.0
0.0
0.0
0.0
0.0
0.0
0.0
0.0
0.0
0.0
0.0
0.0
0.0
0.0
0.0
0.0
0.0
0.0
0.0
0.0
0.0
0.0
0.0
0.0
0.0
0.0
0.0
0.0
0.0
0.0
0.0
0.0
0.0
0.0
0.0
0.0
0.0
0.0
0.0
0.0
0.0
0.0
0.0
0.0
0.0
0.0
0.0
0.0
0.0
0.0
0.0
0.0
0.0
0.0
0.0
0.0
0.0
0.0
0.0
0.0
0.0
0.0
0.0
0.0
0.0
0.0
0.0
0.0
0.0
0.0
0.0
0.0
0.0
0.0
0.0
0.0
0.0
0.0
0.0
0.0
0.0
0.0
0.0
0.0
0.0
0.0
0.0
0.0
0.0
0.0
0.0
0.0
0.0
0.0
0.0
0.0
0.0
0.0
0.0
0.0
0.0
0.0
0.0
0.0
0.0
0.0
0.0
0.0
0.0
0.0
0.0
0.0
0.0
0.0
0.0
0.0
0.0
0.0
0.0
0.0
0.0
0.0
0.0
0.0
0.0
0.0
0.0
0.0
0.0
0.0
0.0
0.0
0.0
0.0
0.0
0.0
0.0
0.0
0.0
0.0
0.0
0.0
0.0
0.0
0.0
0.0
0.0
0.0
0.0
0.0
0.0
0.0
0.0
0.0
0.0
0.0
0.0
0.0
0.0
0.0
0.0
0.0
0.0
0.0
0.0
0.0
0.0
0.0
0.0
0.0
0.0
0.0
0.0
0.0
0.0
0.0
0.0
0.0
0.0
0.0
0.0
0.0
0.0
0.0
0.0
0.0
0.0
0.0
0.0
0.0
0.0
0.0
0.0
0.0
0.0
0.0
0.0
0.0
0.0
0.0
0.0
0.0
0.0
0.0
0.0
0.0
0.0
0.0
0.0
0.0
0.0
0.0
0.0
0.0
0.0
0.0
0.0
0.0
0.0
0.0
0.0
0.0
0.0
0.0
0.0
0.0
0.0
0.0
0.0
0.0
0.0
0.0
0.0
0.0
0.0
0.0
0.0
0.0
0.0
0.0
0.0
0.0
0.0
0.0
0.0
0.0
0.0
0.0
0.0
0.0
0.0
0.0
0.0
0.0
0.0
0.0
0.0
0.0
0.0
0.0
0.0
0.0
0.0
0.0
0.0
0.0
0.0
0.0
0.0
0.0
0.0
0.0
0.0
0.0
0.0
0.0
0.0
0.0
0.0
0.0
0.0
0.0
0.0
0.0
0.0
0.0
0.0
0.0
0.0
0.0
0.0
0.0
0.0
0.0
0.0
0.0
0.0
0.0
0.0
0.0
0.0
0.0
0.0
0.0
0.0
0.0
0.0
0.0
0.0
0.0
0.0
0.0
0.0
0.0
0.0
0.0
0.0
0.0
0.0
0.0
0.0
0.0
0.0
0.0
0.0
0.0
0.0
0.0
0.0
0.0
0.0
0.0
0.0
0.0
0.0
0.0
0.0
0.0
0.0
0.0
0.0
0.0
0.0
0.0
0.0
0.0
0.0
0.0
0.0
0.0
0.0
0.0
0.0
0.0
0.0
0.0
0.0
0.0
0.0
0.0
0.0
0.0
0.0
0.0
0.0
0.0
0.0
0.0
0.0
0.0
0.0
0.0
0.0
0.0
0.0
0.0
0.0
0.0
0.0
0.0
0.0
0.0
0.0
0.0
0.0
0.0
0.0
0.0
0.0
0.0
0.0
0.0
0.0
0.0
0.0
0.0
0.0
0.0
0.0
0.0
0.0
0.0
0.0
0.0
0.0
0.0
0.0
0.0
0.0
0.0
0.0
0.0
0.0
0.0
0.0
0.0
0.0
0.0
0.0
0.0
0.0
0.0
0.0
0.0
0.0
0.0
0.0
0.0
0.0
0.0
0.0
0.0
0.0
0.0
0.0
0.0
0.0
0.0
0.0
0.0
0.0
0.0
0.0
0.0
0.0
0.0
0.0
0.0
0.0
0.0
0.0
0.0
0.0
0.0
0.0
0.0
0.0
0.0
0.0
0.0
0.0
0.0
0.0
0.0
0.0
0.0
0.0
0.0
0.0
0.0
0.0
0.0
0.0
0.0
0.0
0.0
0.0
0.0
0.0
0.0
0.0
0.0
0.0
0.0
0.0
0.0
0.0
0.0
0.0
0.0
0.0
0.0
0.0
0.0
0.0
0.0
0.0
0.0
0.0
0.0
0.0
0.0
0.0
0.0
0.0
0.0
0.0
0.0
0.0
0.0
0.0
0.0
0.0
0.0
0.0
0.0
0.0
0.0
0.0
0.0
0.0
0.0
0.0
0.0
0.0
0.0
0.0
0.0
0.0
0.0
0.0
0.0
0.0
0.0
0.0
0.0
0.0
0.0
0.0
0.0
0.0
0.0
0.0
0.0
0.0
0.0
0.0
0.0
0.0
0.0
0.0
0.0
0.0
0.0
0.0
0.0
0.0
0.0
0.0
0.0
0.0
0.0
0.0
0.0
0.0
0.0
0.0
0.0
0.0
0.0
0.0
0.0
0.0
0.0
0.0
0.0
0.0
0.0
0.0
0.0
0.0
0.0
0.0
0.0
0.0
0.0
0.0
0.0
0.0
0.0
0.0
0.0
0.0
0.0
0.0
0.0
0.0
0.0
0.0
0.0
0.0
0.0
0.0
0.0
0.0
0.0
0.0
0.0
0.0
0.0
0.0
0.0
0.0
0.0
0.0
0.0
0.0
0.0
0.0
0.0
0.0
0.0
0.0
0.0
0.0
0.0
0.0
0.0
0.0
0.0
0.0
0.0
0.0
0.0
0.0
0.0
0.0
0.0
0.0
0.0
0.0
0.0
0.0
0.0
0.0
0.0
0.0
0.0
0.0
0.0
0.0
0.0
0.0
0.0
0.0
0.0
0.0
0.0
0.0
0.0
0.0
0.0
0.0
0.0
0.0
0.0
0.0
0.0
0.0
0.0
0.0
0.0
0.0
0.0
0.0
0.0
0.0
0.0
0.0
0.0
0.0
0.0
0.0
0.0
0.0
0.0
0.0
0.0
0.0
0.0
0.0
0.0
0.0
0.0
0.0
0.0
0.0
0.0
0.0
0.0
0.0
0.0
0.0
0.0
0.0
0.0
0.0
0.0
0.0
0.0
0.0
0.0
0.0
0.0
0.0
0.0
0.0
0.0
0.0
0.0
0.0
0.0
0.0
0.0
0.0
0.0
0.0
0.0
0.0
0.0
0.0
0.0
0.0
0.0
0.0
0.0
0.0
0.0
0.0
0.0
0.0
0.0
0.0
0.0
0.0
0.0
0.0
0.0
0.0
0.0
0.0
0.0
0.0
0.0
0.0
0.0
0.0
0.0
0.0
0.0
0.0
0.0
0.0
0.0
0.0
0.0
0.0
0.0
0.0
0.0
0.0
0.0
0.0
0.0
0.0
0.0
0.0
0.0
0.0
0.0
0.0
0.0
0.0
0.0
0.0
0.0
0.0
0.0
0.0
0.0
0.0
0.0
0.0
0.0
0.0
0.0
0.0
0.0
0.0
0.0
0.0
0.0
0.0
0.0
0.0
0.0
0.0
0.0
0.0
0.0
0.0
0.0
0.0
0.0
0.0
0.0
0.0
0.0
0.0
0.0
0.0
0.0
0.0
0.0
0.0
0.0
0.0
0.0
0.0
0.0

VECTORS node_force_gravity float
0.0 -1.962000000000e+01 0.0 
0.0 -1.962000000000e+01 0.0 
0.0 -1.962000000000e+01 0.0 
0.0 -1.962000000000e+01 0.0 
0.0 -1.962000000000e+01 0.0 
0.0 -1.962000000000e+01 0.0 
0.0 -1.962000000000e+01 0.0 
0.0 -1.962000000000e+01 0.0 
0.0 -1.962000000000e+01 0.0 
0.0 -1.962000000000e+01 0.0 
0.0 -1.962000000000e+01 0.0 
0.0 -1.962000000000e+01 0.0 
0.0 -1.962000000000e+01 0.0 
0.0 -1.962000000000e+01 0.0 
0.0 -1.962000000000e+01 0.0 
0.0 -1.962000000000e+01 0.0 
0.0 -1.962000000000e+01 0.0 
0.0 -1.962000000000e+01 0.0 
0.0 -1.962000000000e+01 0.0 
0.0 -1.962000000000e+01 0.0 
0.0 -1.962000000000e+01 0.0 
0.0 -1.962000000000e+01 0.0 
0.0 -1.962000000000e+01 0.0 
0.0 -1.962000000000e+01 0.0 
0.0 -1.962000000000e+01 0.0 
0.0 -1.962000000000e+01 0.0 
0.0 -1.962000000000e+01 0.0 
0.0 -1.962000000000e+01 0.0 
0.0 -1.962000000000e+01 0.0 
0.0 -1.962000000000e+01 0.0 
0.0 -1.962000000000e+01 0.0 
0.0 -1.962000000000e+01 0.0 
0.0 -1.962000000000e+01 0.0 
0.0 -1.962000000000e+01 0.0 
0.0 -1.962000000000e+01 0.0 
0.0 -1.962000000000e+01 0.0 
0.0 -1.962000000000e+01 0.0 
0.0 -1.962000000000e+01 0.0 
0.0 -1.962000000000e+01 0.0 
0.0 -1.962000000000e+01 0.0 
0.0 -1.962000000000e+01 0.0 
0.0 -1.962000000000e+01 0.0 
0.0 -1.962000000000e+01 0.0 
0.0 -1.962000000000e+01 0.0 
0.0 -1.962000000000e+01 0.0 
0.0 -1.962000000000e+01 0.0 
0.0 -1.962000000000e+01 0.0 
0.0 -1.962000000000e+01 0.0 
0.0 -1.962000000000e+01 0.0 
0.0 -1.962000000000e+01 0.0 
0.0 -1.962000000000e+01 0.0 
0.0 -1.962000000000e+01 0.0 
0.0 -1.962000000000e+01 0.0 
0.0 -1.962000000000e+01 0.0 
0.0 -1.962000000000e+01 0.0 
0.0 -1.962000000000e+01 0.0 
0.0 -1.962000000000e+01 0.0 
0.0 -1.962000000000e+01 0.0 
0.0 -1.962000000000e+01 0.0 
0.0 -1.962000000000e+01 0.0 
0.0 -1.962000000000e+01 0.0 
0.0 -1.962000000000e+01 0.0 
0.0 -1.962000000000e+01 0.0 
0.0 -1.962000000000e+01 0.0 
0.0 -1.962000000000e+01 0.0 
0.0 -1.962000000000e+01 0.0 
0.0 -1.962000000000e+01 0.0 
0.0 -1.962000000000e+01 0.0 
0.0 -1.962000000000e+01 0.0 
0.0 -1.962000000000e+01 0.0 
0.0 -1.962000000000e+01 0.0 
0.0 -1.962000000000e+01 0.0 
0.0 -1.962000000000e+01 0.0 
0.0 -1.962000000000e+01 0.0 
0.0 -1.962000000000e+01 0.0 
0.0 -1.962000000000e+01 0.0 
0.0 -1.962000000000e+01 0.0 
0.0 -1.962000000000e+01 0.0 
0.0 -1.962000000000e+01 0.0 
0.0 -1.962000000000e+01 0.0 
0.0 -1.962000000000e+01 0.0 
0.0 -1.962000000000e+01 0.0 
0.0 -1.962000000000e+01 0.0 
0.0 -1.962000000000e+01 0.0 
0.0 -1.962000000000e+01 0.0 
0.0 -1.962000000000e+01 0.0 
0.0 -1.962000000000e+01 0.0 
0.0 -1.962000000000e+01 0.0 
0.0 -1.962000000000e+01 0.0 
0.0 -1.962000000000e+01 0.0 
0.0 -1.962000000000e+01 0.0 
0.0 -1.962000000000e+01 0.0 
0.0 -1.962000000000e+01 0.0 
0.0 -1.962000000000e+01 0.0 
0.0 -1.962000000000e+01 0.0 
0.0 -1.962000000000e+01 0.0 
0.0 -1.962000000000e+01 0.0 
0.0 -1.962000000000e+01 0.0 
0.0 -1.962000000000e+01 0.0 
0.0 -1.962000000000e+01 0.0 
0.0 -1.962000000000e+01 0.0 
0.0 -1.962000000000e+01 0.0 
0.0 -1.962000000000e+01 0.0 
0.0 -1.962000000000e+01 0.0 
0.0 -1.962000000000e+01 0.0 
0.0 -1.962000000000e+01 0.0 
0.0 -1.962000000000e+01 0.0 
0.0 -1.962000000000e+01 0.0 
0.0 -1.962000000000e+01 0.0 
0.0 -1.962000000000e+01 0.0 
0.0 -1.962000000000e+01 0.0 
0.0 -1.962000000000e+01 0.0 
0.0 -1.962000000000e+01 0.0 
0.0 -1.962000000000e+01 0.0 
0.0 -1.962000000000e+01 0.0 
0.0 -1.962000000000e+01 0.0 
0.0 -1.962000000000e+01 0.0 
0.0 -1.962000000000e+01 0.0 
0.0 -1.962000000000e+01 0.0 
0.0 -1.962000000000e+01 0.0 
0.0 -1.962000000000e+01 0.0 
0.0 -1.962000000000e+01 0.0 
0.0 -1.962000000000e+01 0.0 
0.0 -1.962000000000e+01 0.0 
0.0 -1.962000000000e+01 0.0 
0.0 -1.962000000000e+01 0.0 
0.0 -1.962000000000e+01 0.0 
0.0 -1.962000000000e+01 0.0 
0.0 -1.962000000000e+01 0.0 
0.0 -1.962000000000e+01 0.0 
0.0 -1.962000000000e+01 0.0 
0.0 -1.962000000000e+01 0.0 
0.0 -1.962000000000e+01 0.0 
0.0 -1.962000000000e+01 0.0 
0.0 -1.962000000000e+01 0.0 
0.0 -1.962000000000e+01 0.0 
0.0 -1.962000000000e+01 0.0 
0.0 -1.962000000000e+01 0.0 
0.0 -1.962000000000e+01 0.0 
0.0 -1.962000000000e+01 0.0 
0.0 -1.962000000000e+01 0.0 
0.0 -1.962000000000e+01 0.0 
0.0 -1.962000000000e+01 0.0 
0.0 -1.962000000000e+01 0.0 
0.0 -1.962000000000e+01 0.0 
0.0 -1.962000000000e+01 0.0 
0.0 -1.962000000000e+01 0.0 
0.0 -1.962000000000e+01 0.0 
0.0 -1.962000000000e+01 0.0 
0.0 -1.962000000000e+01 0.0 
0.0 -1.962000000000e+01 0.0 
0.0 -1.962000000000e+01 0.0 
0.0 -1.962000000000e+01 0.0 
0.0 -1.962000000000e+01 0.0 
0.0 -1.962000000000e+01 0.0 
0.0 -1.962000000000e+01 0.0 
0.0 -1.962000000000e+01 0.0 
0.0 -1.962000000000e+01 0.0 
0.0 -1.962000000000e+01 0.0 
0.0 -1.962000000000e+01 0.0 
0.0 -1.962000000000e+01 0.0 
0.0 -1.962000000000e+01 0.0 
0.0 -1.962000000000e+01 0.0 
0.0 -1.962000000000e+01 0.0 
0.0 -1.962000000000e+01 0.0 
0.0 -1.962000000000e+01 0.0 
0.0 -1.962000000000e+01 0.0 
0.0 -1.962000000000e+01 0.0 
0.0 -1.962000000000e+01 0.0 
0.0 -1.962000000000e+01 0.0 
0.0 -1.962000000000e+01 0.0 
0.0 -1.962000000000e+01 0.0 
0.0 -1.962000000000e+01 0.0 
0.0 -1.962000000000e+01 0.0 
0.0 -1.962000000000e+01 0.0 
0.0 -1.962000000000e+01 0.0 
0.0 -1.962000000000e+01 0.0 
0.0 -1.962000000000e+01 0.0 
0.0 -1.962000000000e+01 0.0 
0.0 -1.962000000000e+01 0.0 
0.0 -1.962000000000e+01 0.0 
0.0 -1.962000000000e+01 0.0 
0.0 -1.962000000000e+01 0.0 
0.0 -1.962000000000e+01 0.0 
0.0 -1.962000000000e+01 0.0 
0.0 -1.962000000000e+01 0.0 
0.0 -1.962000000000e+01 0.0 
0.0 -1.962000000000e+01 0.0 
0.0 -1.962000000000e+01 0.0 
0.0 -1.962000000000e+01 0.0 
0.0 -1.962000000000e+01 0.0 
0.0 -1.962000000000e+01 0.0 
0.0 -1.962000000000e+01 0.0 
0.0 -1.962000000000e+01 0.0 
0.0 -1.962000000000e+01 0.0 
0.0 -1.962000000000e+01 0.0 
0.0 -1.962000000000e+01 0.0 
0.0 -1.962000000000e+01 0.0 
0.0 -1.962000000000e+01 0.0 
0.0 -1.962000000000e+01 0.0 
0.0 -1.962000000000e+01 0.0 
0.0 -1.962000000000e+01 0.0 
0.0 -1.962000000000e+01 0.0 
0.0 -1.962000000000e+01 0.0 
0.0 -1.962000000000e+01 0.0 
0.0 -1.962000000000e+01 0.0 
0.0 -1.962000000000e+01 0.0 
0.0 -1.962000000000e+01 0.0 
0.0 -1.962000000000e+01 0.0 
0.0 -1.962000000000e+01 0.0 
0.0 -1.962000000000e+01 0.0 
0.0 -1.962000000000e+01 0.0 
0.0 -1.962000000000e+01 0.0 
0.0 -1.962000000000e+01 0.0 
0.0 -1.962000000000e+01 0.0 
0.0 -1.962000000000e+01 0.0 
0.0 -1.962000000000e+01 0.0 
0.0 -1.962000000000e+01 0.0 
0.0 -1.962000000000e+01 0.0 
0.0 -1.962000000000e+01 0.0 
0.0 -1.962000000000e+01 0.0 
0.0 -1.962000000000e+01 0.0 
0.0 -1.962000000000e+01 0.0 
0.0 -1.962000000000e+01 0.0 
0.0 -1.962000000000e+01 0.0 
0.0 -1.962000000000e+01 0.0 
0.0 -1.962000000000e+01 0.0 
0.0 -1.962000000000e+01 0.0 
0.0 -1.962000000000e+01 0.0 
0.0 -1.962000000000e+01 0.0 
0.0 -1.962000000000e+01 0.0 
0.0 -1.962000000000e+01 0.0 
0.0 -1.962000000000e+01 0.0 
0.0 -1.962000000000e+01 0.0 
0.0 -1.962000000000e+01 0.0 
0.0 -1.962000000000e+01 0.0 
0.0 -1.962000000000e+01 0.0 
0.0 -1.962000000000e+01 0.0 
0.0 -1.962000000000e+01 0.0 
0.0 -1.962000000000e+01 0.0 
0.0 -1.962000000000e+01 0.0 
0.0 -1.962000000000e+01 0.0 
0.0 -1.962000000000e+01 0.0 
0.0 -1.962000000000e+01 0.0 
0.0 -1.962000000000e+01 0.0 
0.0 -1.962000000000e+01 0.0 
0.0 -1.962000000000e+01 0.0 
0.0 -1.962000000000e+01 0.0 
0.0 -1.962000000000e+01 0.0 
0.0 -1.962000000000e+01 0.0 
0.0 -1.962000000000e+01 0.0 
0.0 -1.962000000000e+01 0.0 
0.0 -1.962000000000e+01 0.0 
0.0 -1.962000000000e+01 0.0 
0.0 -1.962000000000e+01 0.0 
0.0 -1.962000000000e+01 0.0 
0.0 -1.962000000000e+01 0.0 
0.0 -1.962000000000e+01 0.0 
0.0 -1.962000000000e+01 0.0 
0.0 -1.962000000000e+01 0.0 
0.0 -1.962000000000e+01 0.0 
0.0 -1.962000000000e+01 0.0 
0.0 -1.962000000000e+01 0.0 
0.0 -1.962000000000e+01 0.0 
0.0 -1.962000000000e+01 0.0 
0.0 -1.962000000000e+01 0.0 
0.0 -1.962000000000e+01 0.0 
0.0 -1.962000000000e+01 0.0 
0.0 -1.962000000000e+01 0.0 
0.0 -1.962000000000e+01 0.0 
0.0 -1.962000000000e+01 0.0 
0.0 -1.962000000000e+01 0.0 
0.0 -1.962000000000e+01 0.0 
0.0 -1.962000000000e+01 0.0 
0.0 -1.962000000000e+01 0.0 
0.0 -1.962000000000e+01 0.0 
0.0 -1.962000000000e+01 0.0 
0.0 -1.962000000000e+01 0.0 
0.0 -1.962000000000e+01 0.0 
0.0 -1.962000000000e+01 0.0 
0.0 -1.962000000000e+01 0.0 
0.0 -1.962000000000e+01 0.0 
0.0 -1.962000000000e+01 0.0 
0.0 -1.962000000000e+01 0.0 
0.0 -1.962000000000e+01 0.0 
0.0 -1.962000000000e+01 0.0 
0.0 -1.962000000000e+01 0.0 
0.0 -1.962000000000e+01 0.0 
0.0 -1.962000000000e+01 0.0 
0.0 -1.962000000000e+01 0.0 
0.0 -1.962000000000e+01 0.0 
0.0 -1.962000000000e+01 0.0 
0.0 -1.962000000000e+01 0.0 
0.0 -1.962000000000e+01 0.0 
0.0 -1.962000000000e+01 0.0 
0.0 -1.962000000000e+01 0.0 
0.0 -1.962000000000e+01 0.0 
0.0 -1.962000000000e+01 0.0 
0.0 -1.962000000000e+01 0.0 
0.0 -1.962000000000e+01 0.0 
0.0 -1.962000000000e+01 0.0 
0.0 -1.962000000000e+01 0.0 
0.0 -1.962000000000e+01 0.0 
0.0 -1.962000000000e+01 0.0 
0.0 -1.962000000000e+01 0.0 
0.0 -1.962000000000e+01 0.0 
0.0 -1.962000000000e+01 0.0 
0.0 -1.962000000000e+01 0.0 
0.0 -1.962000000000e+01 0.0 
0.0 -1.962000000000e+01 0.0 
0.0 -1.962000000000e+01 0.0 
0.0 -1.962000000000e+01 0.0 
0.0 -1.962000000000e+01 0.0 
0.0 -1.962000000000e+01 0.0 
0.0 -1.962000000000e+01 0.0 
0.0 -1.962000000000e+01 0.0 
0.0 -1.962000000000e+01 0.0 
0.0 -1.962000000000e+01 0.0 
0.0 -1.962000000000e+01 0.0 
0.0 -1.962000000000e+01 0.0 
0.0 -1.962000000000e+01 0.0 
0.0 -1.962000000000e+01 0.0 
0.0 -1.962000000000e+01 0.0 
0.0 -1.962000000000e+01 0.0 
0.0 -1.962000000000e+01 0.0 
0.0 -1.962000000000e+01 0.0 
0.0 -1.962000000000e+01 0.0 
0.0 -1.962000000000e+01 0.0 
0.0 -1.962000000000e+01 0.0 
0.0 -1.962000000000e+01 0.0 
0.0 -1.962000000000e+01 0.0 
0.0 -1.962000000000e+01 0.0 
0.0 -1.962000000000e+01 0.0 
0.0 -1.962000000000e+01 0.0 
0.0 -1.962000000000e+01 0.0 
0.0 -1.962000000000e+01 0.0 
0.0 -1.962000000000e+01 0.0 
0.0 -1.962000000000e+01 0.0 
0.0 -1.962000000000e+01 0.0 
0.0 -1.962000000000e+01 0.0 
0.0 -1.962000000000e+01 0.0 
0.0 -1.962000000000e+01 0.0 
0.0 -1.962000000000e+01 0.0 
0.0 -1.962000000000e+01 0.0 
0.0 -1.962000000000e+01 0.0 
0.0 -1.962000000000e+01 0.0 
0.0 -1.962000000000e+01 0.0 
0.0 -1.962000000000e+01 0.0 
0.0 -1.962000000000e+01 0.0 
0.0 -1.962000000000e+01 0.0 
0.0 -1.962000000000e+01 0.0 
0.0 -1.962000000000e+01 0.0 
0.0 -1.962000000000e+01 0.0 
0.0 -1.962000000000e+01 0.0 
0.0 -1.962000000000e+01 0.0 
0.0 -1.962000000000e+01 0.0 
0.0 -1.962000000000e+01 0.0 
0.0 -1.962000000000e+01 0.0 
0.0 -1.962000000000e+01 0.0 
0.0 -1.962000000000e+01 0.0 
0.0 -1.962000000000e+01 0.0 
0.0 -1.962000000000e+01 0.0 
0.0 -1.962000000000e+01 0.0 
0.0 -1.962000000000e+01 0.0 
0.0 -1.962000000000e+01 0.0 
0.0 -1.962000000000e+01 0.0 
0.0 -1.962000000000e+01 0.0 
0.0 -1.962000000000e+01 0.0 
0.0 -1.962000000000e+01 0.0 
0.0 -1.962000000000e+01 0.0 
0.0 -1.962000000000e+01 0.0 
0.0 -1.962000000000e+01 0.0 
0.0 -1.962000000000e+01 0.0 
0.0 -1.962000000000e+01 0.0 
0.0 -1.962000000000e+01 0.0 
0.0 -1.962000000000e+01 0.0 
0.0 -1.962000000000e+01 0.0 
0.0 -1.962000000000e+01 0.0 
0.0 -1.962000000000e+01 0.0 
0.0 -1.962000000000e+01 0.0 
0.0 -1.962000000000e+01 0.0 
0.0 -1.962000000000e+01 0.0 
0.0 -1.962000000000e+01 0.0 
0.0 -1.962000000000e+01 0.0 
0.0 -1.962000000000e+01 0.0 
0.0 -1.962000000000e+01 0.0 
0.0 -1.962000000000e+01 0.0 
0.0 -1.962000000000e+01 0.0 
0.0 -1.962000000000e+01 0.0 
0.0 -1.962000000000e+01 0.0 
0.0 -1.962000000000e+01 0.0 
0.0 -1.962000000000e+01 0.0 
0.0 -1.962000000000e+01 0.0 
0.0 -1.962000000000e+01 0.0 
0.0 -1.962000000000e+01 0.0 
0.0 -1.962000000000e+01 0.0 
0.0 -1.962000000000e+01 0.0 
0.0 -1.962000000000e+01 0.0 
0.0 -1.962000000000e+01 0.0 
0.0 -1.962000000000e+01 0.0 
0.0 -1.962000000000e+01 0.0 
0.0 -1.962000000000e+01 0.0 
0.0 -1.962000000000e+01 0.0 
0.0 -1.962000000000e+01 0.0 
0.0 -1.962000000000e+01 0.0 
0.0 -1.962000000000e+01 0.0 
0.0 -1.962000000000e+01 0.0 
0.0 -1.962000000000e+01 0.0 
0.0 -1.962000000000e+01 0.0 
0.0 -1.962000000000e+01 0.0 
0.0 -1.962000000000e+01 0.0 
0.0 -1.962000000000e+01 0.0 
0.0 -1.962000000000e+01 0.0 
0.0 -1.962000000000e+01 0.0 
0.0 -1.962000000000e+01 0.0 
0.0 -1.962000000000e+01 0.0 
0.0 -1.962000000000e+01 0.0 
0.0 -1.962000000000e+01 0.0 
0.0 -1.962000000000e+01 0.0 
0.0 -1.962000000000e+01 0.0 
0.0 -1.962000000000e+01 0.0 
0.0 -1.962000000000e+01 0.0 
0.0 -1.962000000000e+01 0.0 
0.0 -1.962000000000e+01 0.0 
0.0 -1.962000000000e+01 0.0 
0.0 -1.962000000000e+01 0.0 
0.0 -1.962000000000e+01 0.0 
0.0 -1.962000000000e+01 0.0 
0.0 -1.962000000000e+01 0.0 
0.0 -1.962000000000e+01 0.0 
0.0 -1.962000000000e+01 0.0 
0.0 -1.962000000000e+01 0.0 
0.0 -1.962000000000e+01 0.0 
0.0 -1.962000000000e+01 0.0 
0.0 -1.962000000000e+01 0.0 
0.0 -1.962000000000e+01 0.0 
0.0 -1.962000000000e+01 0.0 
0.0 -1.962000000000e+01 0.0 
0.0 -1.962000000000e+01 0.0 
0.0 -1.962000000000e+01 0.0 
0.0 -1.962000000000e+01 0.0 
0.0 -1.962000000000e+01 0.0 
0.0 -1.962000000000e+01 0.0 
0.0 -1.962000000000e+01 0.0 
0.0 -1.962000000000e+01 0.0 
0.0 -1.962000000000e+01 0.0 
0.0 -1.962000000000e+01 0.0 
0.0 -1.962000000000e+01 0.0 
0.0 -1.962000000000e+01 0.0 
0.0 -1.962000000000e+01 0.0 
0.0 -1.962000000000e+01 0.0 
0.0 -1.962000000000e+01 0.0 
0.0 -1.962000000000e+01 0.0 
0.0 -1.962000000000e+01 0.0 
0.0 -1.962000000000e+01 0.0 
0.0 -1.962000000000e+01 0.0 
0.0 -1.962000000000e+01 0.0 
0.0 -1.962000000000e+01 0.0 
0.0 -1.962000000000e+01 0.0 
0.0 -1.962000000000e+01 0.0 
0.0 -1.962000000000e+01 0.0 
0.0 -1.962000000000e+01 0.0 
0.0 -1.962000000000e+01 0.0 
0.0 -1.962000000000e+01 0.0 
0.0 -1.962000000000e+01 0.0 
0.0 -1.962000000000e+01 0.0 
0.0 -1.962000000000e+01 0.0 
0.0 -1.962000000000e+01 0.0 
0.0 -1.962000000000e+01 0.0 
0.0 -1.962000000000e+01 0.0 
0.0 -1.962000000000e+01 0.0 
0.0 -1.962000000000e+01 0.0 
0.0 -1.962000000000e+01 0.0 
0.0 -1.962000000000e+01 0.0 
0.0 -1.962000000000e+01 0.0 
0.0 -1.962000000000e+01 0.0 
0.0 -1.962000000000e+01 0.0 
0.0 -1.962000000000e+01 0.0 
0.0 -1.962000000000e+01 0.0 
0.0 -1.962000000000e+01 0.0 
0.0 -1.962000000000e+01 0.0 
0.0 -1.962000000000e+01 0.0 
0.0 -1.962000000000e+01 0.0 
0.0 -1.962000000000e+01 0.0 
0.0 -1.962000000000e+01 0.0 
0.0 -1.962000000000e+01 0.0 
0.0 -1.962000000000e+01 0.0 
0.0 -1.962000000000e+01 0.0 
0.0 -1.962000000000e+01 0.0 
0.0 -1.962000000000e+01 0.0 
0.0 -1.962000000000e+01 0.0 
0.0 -1.962000000000e+01 0.0 
0.0 -1.962000000000e+01 0.0 
0.0 -1.962000000000e+01 0.0 
0.0 -1.962000000000e+01 0.0 
0.0 -1.962000000000e+01 0.0 
0.0 -1.962000000000e+01 0.0 
0.0 -1.962000000000e+01 0.0 
0.0 -1.962000000000e+01 0.0 
0.0 -1.962000000000e+01 0.0 
0.0 -1.962000000000e+01 0.0 
0.0 -1.962000000000e+01 0.0 
0.0 -1.962000000000e+01 0.0 
0.0 -1.962000000000e+01 0.0 
0.0 -1.962000000000e+01 0.0 
0.0 -1.962000000000e+01 0.0 
0.0 -1.962000000000e+01 0.0 
0.0 -1.962000000000e+01 0.0 
0.0 -1.962000000000e+01 0.0 
0.0 -1.962000000000e+01 0.0 
0.0 -1.962000000000e+01 0.0 
0.0 -1.962000000000e+01 0.0 
0.0 -1.962000000000e+01 0.0 
0.0 -1.962000000000e+01 0.0 
0.0 -1.962000000000e+01 0.0 
0.0 -1.962000000000e+01 0.0 
0.0 -1.962000000000e+01 0.0 
0.0 -1.962000000000e+01 0.0 
0.0 -1.962000000000e+01 0.0 
0.0 -1.962000000000e+01 0.0 
0.0 -1.962000000000e+01 0.0 
0.0 -1.962000000000e+01 0.0 
0.0 -1.962000000000e+01 0.0 
0.0 -1.962000000000e+01 0.0 
0.0 -1.962000000000e+01 0.0 
0.0 -1.962000000000e+01 0.0 
0.0 -1.962000000000e+01 0.0 
0.0 -1.962000000000e+01 0.0 
0.0 -1.962000000000e+01 0.0 
0.0 -1.962000000000e+01 0.0 
0.0 -1.962000000000e+01 0.0 
0.0 -1.962000000000e+01 0.0 
0.0 -1.962000000000e+01 0.0 
0.0 -1.962000000000e+01 0.0 
0.0 -1.962000000000e+01 0.0 
0.0 -1.962000000000e+01 0.0 
0.0 -1.962000000000e+01 0.0 
0.0 -1.962000000000e+01 0.0 
0.0 -1.962000000000e+01 0.0 
0.0 -1.962000000000e+01 0.0 
0.0 -1.962000000000e+01 0.0 
0.0 -1.962000000000e+01 0.0 
0.0 -1.962000000000e+01 0.0 
0.0 -1.962000000000e+01 0.0 
0.0 -1.962000000000e+01 0.0 
0.0 -1.962000000000e+01 0.0 
0.0 -1.962000000000e+01 0.0 
0.0 -1.962000000000e+01 0.0 
0.0 -1.962000000000e+01 0.0 
0.0 -1.962000000000e+01 0.0 
0.0 -1.962000000000e+01 0.0 
0.0 -1.962000000000e+01 0.0 
0.0 -1.962000000000e+01 0.0 
0.0 -1.962000000000e+01 0.0 
0.0 -1.962000000000e+01 0.0 
0.0 -1.962000000000e+01 0.0 
0.0 -1.962000000000e+01 0.0 
0.0 -1.962000000000e+01 0.0 
0.0 -1.962000000000e+01 0.0 
0.0 -1.962000000000e+01 0.0 
0.0 -1.962000000000e+01 0.0 
0.0 -1.962000000000e+01 0.0 
0.0 -1.962000000000e+01 0.0 
0.0 -1.962000000000e+01 0.0 
0.0 -1.962000000000e+01 0.0 
0.0 -1.962000000000e+01 0.0 
0.0 -1.962000000000e+01 0.0 
0.0 -1.962000000000e+01 0.0 
0.0 -1.962000000000e+01 0.0 
0.0 -1.962000000000e+01 0.0 
0.0 -1.962000000000e+01 0.0 
0.0 -1.962000000000e+01 0.0 
0.0 -1.962000000000e+01 0.0 
0.0 -1.962000000000e+01 0.0 
0.0 -1.962000000000e+01 0.0 
0.0 -1.962000000000e+01 0.0 
0.0 -1.962000000000e+01 0.0 
0.0 -1.962000000000e+01 0.0 
0.0 -1.962000000000e+01 0.0 
0.0 -1.962000000000e+01 0.0 
0.0 -1.962000000000e+01 0.0 
0.0 -1.962000000000e+01 0.0 
0.0 -1.962000000000e+01 0.0 
0.0 -1.962000000000e+01 0.0 
0.0 -1.962000000000e+01 0.0 
0.0 -1.962000000000e+01 0.0 
0.0 -1.962000000000e+01 0.0 
0.0 -1.962000000000e+01 0.0 
0.0 -1.962000000000e+01 0.0 
0.0 -1.962000000000e+01 0.0 
0.0 -1.962000000000e+01 0.0 
0.0 -1.962000000000e+01 0.0 
0.0 -1.962000000000e+01 0.0 
0.0 -1.962000000000e+01 0.0 
0.0 -1.962000000000e+01 0.0 
0.0 -1.962000000000e+01 0.0 
0.0 -1.962000000000e+01 0.0 
0.0 -1.962000000000e+01 0.0 
0.0 -1.962000000000e+01 0.0 
0.0 -1.962000000000e+01 0.0 
0.0 -1.962000000000e+01 0.0 
0.0 -1.962000000000e+01 0.0 
0.0 -1.962000000000e+01 0.0 
0.0 -1.962000000000e+01 0.0 
0.0 -1.962000000000e+01 0.0 
0.0 -1.962000000000e+01 0.0 
0.0 -1.962000000000e+01 0.0 
0.0 -1.962000000000e+01 0.0 
0.0 -1.962000000000e+01 0.0 
0.0 -1.962000000000e+01 0.0 
0.0 -1.962000000000e+01 0.0 
0.0 -1.962000000000e+01 0.0 
0.0 -1.962000000000e+01 0.0 
0.0 -1.962000000000e+01 0.0 
0.0 -1.962000000000e+01 0.0 
0.0 -1.962000000000e+01 0.0 
0.0 -1.962000000000e+01 0.0 
0.0 -1.962000000000e+01 0.0 
0.0 -1.962000000000e+01 0.0 
0.0 -1.962000000000e+01 0.0 
0.0 -1.962000000000e+01 0.0 
0.0 -1.962000000000e+01 0.0 
0.0 -1.962000000000e+01 0.0 
0.0 -1.962000000000e+01 0.0 
0.0 -1.962000000000e+01 0.0 
0.0 -1.962000000000e+01 0.0 
0.0 -1.962000000000e+01 0.0 
0.0 -1.962000000000e+01 0.0 
0.0 -1.962000000000e+01 0.0 
0.0 -1.962000000000e+01 0.0 
0.0 -1.962000000000e+01 0.0 
0.0 -1.962000000000e+01 0.0 
0.0 -1.962000000000e+01 0.0 
0.0 -1.962000000000e+01 0.0 
0.0 -1.962000000000e+01 0.0 
0.0 -1.962000000000e+01 0.0 
0.0 -1.962000000000e+01 0.0 
0.0 -1.962000000000e+01 0.0 
0.0 -1.962000000000e+01 0.0 
0.0 -1.962000000000e+01 0.0 
0.0 -1.962000000000e+01 0.0 
0.0 -1.962000000000e+01 0.0 
0.0 -1.962000000000e+01 0.0 
0.0 -1.962000000000e+01 0.0 
0.0 -1.962000000000e+01 0.0 
0.0 -1.962000000000e+01 0.0 
0.0 -1.962000000000e+01 0.0 
0.0 -1.962000000000e+01 0.0 
0.0 -1.962000000000e+01 0.0 
0.0 -1.962000000000e+01 0.0 
0.0 -1.962000000000e+01 0.0 
0.0 -1.962000000000e+01 0.0 
0.0 -1.962000000000e+01 0.0 
0.0 -1.962000000000e+01 0.0 
0.0 -1.962000000000e+01 0.0 
0.0 -1.962000000000e+01 0.0 
0.0 -1.962000000000e+01 0.0 
0.0 -1.962000000000e+01 0.0 
0.0 -1.962000000000e+01 0.0 
0.0 -1.962000000000e+01 0.0 
0.0 -1.962000000000e+01 0.0 
0.0 -1.962000000000e+01 0.0 
0.0 -1.962000000000e+01 0.0 
0.0 -1.962000000000e+01 0.0 
0.0 -1.962000000000e+01 0.0 
0.0 -1.962000000000e+01 0.0 
0.0 -1.962000000000e+01 0.0 
0.0 -1.962000000000e+01 0.0 
0.0 -1.962000000000e+01 0.0 
0.0 -1.962000000000e+01 0.0 
0.0 -1.962000000000e+01 0.0 
0.0 -1.962000000000e+01 0.0 
0.0 -1.962000000000e+01 0.0 
0.0 -1.962000000000e+01 0.0 
0.0 -1.962000000000e+01 0.0 
0.0 -1.962000000000e+01 0.0 
0.0 -1.962000000000e+01 0.0 
0.0 -1.962000000000e+01 0.0 
0.0 -1.962000000000e+01 0.0 
0.0 -1.962000000000e+01 0.0 
0.0 -1.962000000000e+01 0.0 
0.0 -1.962000000000e+01 0.0 
0.0 -1.962000000000e+01 0.0 
0.0 -1.962000000000e+01 0.0 
0.0 -1.962000000000e+01 0.0 
0.0 -1.962000000000e+01 0.0 
0.0 -1.962000000000e+01 0.0 
0.0 -1.962000000000e+01 0.0 
0.0 -1.962000000000e+01 0.0 
0.0 -1.962000000000e+01 0.0 
0.0 -1.962000000000e+01 0.0 
0.0 -1.962000000000e+01 0.0 
0.0 -1.962000000000e+01 0.0 
0.0 -1.962000000000e+01 0.0 
0.0 -1.962000000000e+01 0.0 
0.0 -1.962000000000e+01 0.0 
0.0 -1.962000000000e+01 0.0 
0.0 -1.962000000000e+01 0.0 
0.0 -1.962000000000e+01 0.0 
0.0 -1.962000000000e+01 0.0 
0.0 -1.962000000000e+01 0.0 
0.0 -1.962000000000e+01 0.0 
0.0 -1.962000000000e+01 0.0 
0.0 -1.962000000000e+01 0.0 
0.0 -1.962000000000e+01 0.0 
0.0 -1.962000000000e+01 0.0 
0.0 -1.962000000000e+01 0.0 
0.0 -1.962000000000e+01 0.0 
0.0 -1.962000000000e+01 0.0 
0.0 -1.962000000000e+01 0.0 
0.0 -1.962000000000e+01 0.0 
0.0 -1.962000000000e+01 0.0 
0.0 -1.962000000000e+01 0.0 
0.0 -1.962000000000e+01 0.0 
0.0 -1.962000000000e+01 0.0 
0.0 -1.962000000000e+01 0.0 
0.0 -1.962000000000e+01 0.0 
0.0 -1.962000000000e+01 0.0 
0.0 -1.962000000000e+01 0.0 
0.0 -1.962000000000e+01 0.0 
0.0 -1.962000000000e+01 0.0 
0.0 -1.962000000000e+01 0.0 
0.0 -1.962000000000e+01 0.0 
0.0 -1.962000000000e+01 0.0 
0.0 -1.962000000000e+01 0.0 
0.0 -1.962000000000e+01 0.0 
0.0 -1.962000000000e+01 0.0 
0.0 -1.962000000000e+01 0.0 
0.0 -1.962000000000e+01 0.0 
0.0 -1.962000000000e+01 0.0 
0.0 -1.962000000000e+01 0.0 
0.0 -1.962000000000e+01 0.0 
0.0 -1.962000000000e+01 0.0 
0.0 -1.962000000000e+01 0.0 
0.0 -1.962000000000e+01 0.0 
0.0 -1.962000000000e+01 0.0 
0.0 -1.962000000000e+01 0.0 
0.0 -1.962000000000e+01 0.0 
0.0 -1.962000000000e+01 0.0 
0.0 -1.962000000000e+01 0.0 
0.0 -1.962000000000e+01 0.0 
0.0 -1.962000000000e+01 0.0 
0.0 -1.962000000000e+01 0.0 
0.0 -1.962000000000e+01 0.0 
0.0 -1.962000000000e+01 0.0 
0.0 -1.962000000000e+01 0.0 
0.0 -1.962000000000e+01 0.0 
0.0 -1.962000000000e+01 0.0 
0.0 -1.962000000000e+01 0.0 
0.0 -1.962000000000e+01 0.0 
0.0 -1.962000000000e+01 0.0 
0.0 -1.962000000000e+01 0.0 
0.0 -1.962000000000e+01 0.0 
0.0 -1.962000000000e+01 0.0 
0.0 -1.962000000000e+01 0.0 
0.0 -1.962000000000e+01 0.0 
0.0 -1.962000000000e+01 0.0 
0.0 -1.962000000000e+01 0.0 
0.0 -1.962000000000e+01 0.0 
0.0 -1.962000000000e+01 0.0 
0.0 -1.962000000000e+01 0.0 
0.0 -1.962000000000e+01 0.0 
0.0 -1.962000000000e+01 0.0 
0.0 -1.962000000000e+01 0.0 
0.0 -1.962000000000e+01 0.0 
0.0 -1.962000000000e+01 0.0 
0.0 -1.962000000000e+01 0.0 
0.0 -1.962000000000e+01 0.0 
0.0 -1.962000000000e+01 0.0 
0.0 -1.962000000000e+01 0.0 
0.0 -1.962000000000e+01 0.0 
0.0 -1.962000000000e+01 0.0 
0.0 -1.962000000000e+01 0.0 
0.0 -1.962000000000e+01 0.0 
0.0 -1.962000000000e+01 0.0 
0.0 -1.962000000000e+01 0.0 
0.0 -1.962000000000e+01 0.0 
0.0 -1.962000000000e+01 0.0 
0.0 -1.962000000000e+01 0.0 
0.0 -1.962000000000e+01 0.0 
0.0 -1.962000000000e+01 0.0 
0.0 -1.962000000000e+01 0.0 
0.0 -1.962000000000e+01 0.0 
0.0 -1.962000000000e+01 0.0 
0.0 -1.962000000000e+01 0.0 
0.0 -1.962000000000e+01 0.0 
0.0 -1.962000000000e+01 0.0 
0.0 -1.962000000000e+01 0.0 
0.0 -1.962000000000e+01 0.0 
0.0 -1.962000000000e+01 0.0 
0.0 -1.962000000000e+01 0.0 
0.0 -1.962000000000e+01 0.0 
0.0 -1.962000000000e+01 0.0 
0.0 -1.962000000000e+01 0.0 
0.0 -1.962000000000e+01 0.0 
0.0 -1.962000000000e+01 0.0 
0.0 -1.962000000000e+01 0.0 
0.0 -1.962000000000e+01 0.0 
0.0 -1.962000000000e+01 0.0 
0.0 -1.962000000000e+01 0.0 
0.0 -1.962000000000e+01 0.0 
0.0 -1.962000000000e+01 0.0 
0.0 -1.962000000000e+01 0.0 
0.0 -1.962000000000e+01 0.0 
0.0 -1.962000000000e+01 0.0 
0.0 -1.962000000000e+01 0.0 
0.0 -1.962000000000e+01 0.0 
0.0 -1.962000000000e+01 0.0 
0.0 -1.962000000000e+01 0.0 
0.0 -1.962000000000e+01 0.0 
0.0 -1.962000000000e+01 0.0 
0.0 -1.962000000000e+01 0.0 
0.0 -1.962000000000e+01 0.0 
0.0 -1.962000000000e+01 0.0 
0.0 -1.962000000000e+01 0.0 
0.0 -1.962000000000e+01 0.0 
0.0 -1.962000000000e+01 0.0 
0.0 -1.962000000000e+01 0.0 
0.0 -1.962000000000e+01 0.0 
0.0 -1.962000000000e+01 0.0 
0.0 -1.962000000000e+01 0.0 
0.0 -1.962000000000e+01 0.0 
0.0 -1.962000000000e+01 0.0 
0.0 -1.962000000000e+01 0.0 
0.0 -1.962000000000e+01 0.0 
0.0 -1.962000000000e+01 0.0 
0.0 -1.962000000000e+01 0.0 
0.0 -1.962000000000e+01 0.0 
0.0 -1.962000000000e+01 0.0 
0.0 -1.962000000000e+01 0.0 
0.0 -1.962000000000e+01 0.0 
0.0 -1.962000000000e+01 0.0 
0.0 -1.962000000000e+01 0.0 
0.0 -1.962000000000e+01 0.0 
0.0 -1.962000000000e+01 0.0 
0.0 -1.962000000000e+01 0.0 
0.0 -1.962000000000e+01 0.0 
0.0 -1.962000000000e+01 0.0 
0.0 -1.962000000000e+01 0.0 
0.0 -1.962000000000e+01 0.0 
0.0 -1.962000000000e+01 0.0 
0.0 -1.962000000000e+01 0.0 
0.0 -1.962000000000e+01 0.0 
0.0 -1.962000000000e+01 0.0 
0.0 -1.962000000000e+01 0.0 
0.0 -1.962000000000e+01 0.0 
0.0 -1.962000000000e+01 0.0 
0.0 -1.962000000000e+01 0.0 
0.0 -1.962000000000e+01 0.0 
0.0 -1.962000000000e+01 0.0 
0.0 -1.962000000000e+01 0.0 
0.0 -1.962000000000e+01 0.0 
0.0 -1.962000000000e+01 0.0 
0.0 -1.962000000000e+01 0.0 
0.0 -1.962000000000e+01 0.0 
0.0 -1.962000000000e+01 0.0 
0.0 -1.962000000000e+01 0.0 
0.0 -1.962000000000e+01 0.0 
0.0 -1.962000000000e+01 0.0 
0.0 -1.962000000000e+01 0.0 
0.0 -1.962000000000e+01 0.0 
0.0 -1.962000000000e+01 0.0 
0.0 -1.962000000000e+01 0.0 
0.0 -1.962000000000e+01 0.0 
0.0 -1.962000000000e+01 0.0 
0.0 -1.962000000000e+01 0.0 
0.0 -1.962000000000e+01 0.0 
0.0 -1.962000000000e+01 0.0 
0.0 -1.962000000000e+01 0.0 
0.0 -1.962000000000e+01 0.0 
0.0 -1.962000000000e+01 0.0 
0.0 -1.962000000000e+01 0.0 
0.0 -1.962000000000e+01 0.0 
0.0 -1.962000000000e+01 0.0 
0.0 -1.962000000000e+01 0.0 
0.0 -1.962000000000e+01 0.0 
0.0 -1.962000000000e+01 0.0 
0.0 -1.962000000000e+01 0.0 
0.0 -1.962000000000e+01 0.0 
0.0 -1.962000000000e+01 0.0 
0.0 -1.962000000000e+01 0.0 
0.0 -1.962000000000e+01 0.0 
0.0 -1.962000000000e+01 0.0 
0.0 -1.962000000000e+01 0.0 
0.0 -1.962000000000e+01 0.0 
0.0 -1.962000000000e+01 0.0 
0.0 -1.962000000000e+01 0.0 
0.0 -1.962000000000e+01 0.0 
0.0 -1.962000000000e+01 0.0 
0.0 -1.962000000000e+01 0.0 
0.0 -1.962000000000e+01 0.0 
0.0 -1.962000000000e+01 0.0 
0.0 -1.962000000000e+01 0.0 
0.0 -1.962000000000e+01 0.0 
0.0 -1.962000000000e+01 0.0 
0.0 -1.962000000000e+01 0.0 
0.0 -1.962000000000e+01 0.0 
0.0 -1.962000000000e+01 0.0 
0.0 -1.962000000000e+01 0.0 
0.0 -1.962000000000e+01 0.0 
0.0 -1.962000000000e+01 0.0 
0.0 -1.962000000000e+01 0.0 
0.0 -1.962000000000e+01 0.0 
0.0 -1.962000000000e+01 0.0 
0.0 -1.962000000000e+01 0.0 
0.0 -1.962000000000e+01 0.0 
0.0 -1.962000000000e+01 0.0 
0.0 -1.962000000000e+01 0.0 
0.0 -1.962000000000e+01 0.0 
0.0 -1.962000000000e+01 0.0 
0.0 -1.962000000000e+01 0.0 
0.0 -1.962000000000e+01 0.0 
0.0 -1.962000000000e+01 0.0 
0.0 -1.962000000000e+01 0.0 
0.0 -1.962000000000e+01 0.0 
0.0 -1.962000000000e+01 0.0 
0.0 -1.962000000000e+01 0.0 
0.0 -1.962000000000e+01 0.0 
0.0 -1.962000000000e+01 0.0 
0.0 -1.962000000000e+01 0.0 
0.0 -1.962000000000e+01 0.0 
0.0 -1.962000000000e+01 0.0 
0.0 -1.962000000000e+01 0.0 
0.0 -1.962000000000e+01 0.0 
0.0 -1.962000000000e+01 0.0 
0.0 -1.962000000000e+01 0.0 
0.0 -1.962000000000e+01 0.0 
0.0 -1.962000000000e+01 0.0 
0.0 -1.962000000000e+01 0.0 
0.0 -1.962000000000e+01 0.0 
0.0 -1.962000000000e+01 0.0 
0.0 -1.962000000000e+01 0.0 
0.0 -1.962000000000e+01 0.0 
0.0 -1.962000000000e+01 0.0 
0.0 -1.962000000000e+01 0.0 
0.0 -1.962000000000e+01 0.0 
0.0 -1.962000000000e+01 0.0 
0.0 -1.962000000000e+01 0.0 
0.0 -1.962000000000e+01 0.0 
0.0 -1.962000000000e+01 0.0 
0.0 -1.962000000000e+01 0.0 
0.0 -1.962000000000e+01 0.0 
0.0 -1.962000000000e+01 0.0 
0.0 -1.962000000000e+01 0.0 
0.0 -1.962000000000e+01 0.0 
0.0 -1.962000000000e+01 0.0 
0.0 -1.962000000000e+01 0.0 
0.0 -1.962000000000e+01 0.0 
0.0 -1.962000000000e+01 0.0 
0.0 -1.962000000000e+01 0.0 
0.0 -1.962000000000e+01 0.0 
0.0 -1.962000000000e+01 0.0 
0.0 -1.962000000000e+01 0.0 
0.0 -1.962000000000e+01 0.0 
0.0 -1.962000000000e+01 0.0 
0.0 -1.962000000000e+01 0.0 
0.0 -1.962000000000e+01 0.0 
0.0 -1.962000000000e+01 0.0 
0.0 -1.962000000000e+01 0.0 
0.0 -1.962000000000e+01 0.0 
0.0 -1.962000000000e+01 0.0 
0.0 -1.962000000000e+01 0.0 
0.0 -1.962000000000e+01 0.0 
0.0 -1.962000000000e+01 0.0 
0.0 -1.962000000000e+01 0.0 
0.0 -1.962000000000e+01 0.0 
0.0 -1.962000000000e+01 0.0 
0.0 -1.962000000000e+01 0.0 
0.0 -1.962000000000e+01 0.0 
0.0 -1.962000000000e+01 0.0 
0.0 -1.962000000000e+01 0.0 
0.0 -1.962000000000e+01 0.0 
0.0 -1.962000000000e+01 0.0 
0.0 -1.962000000000e+01 0.0 
0.0 -1.962000000000e+01 0.0 
0.0 -1.962000000000e+01 0.0 
0.0 -1.962000000000e+01 0.0 
0.0 -1.962000000000e+01 0.0 
0.0 -1.962000000000e+01 0.0 
0.0 -1.962000000000e+01 0.0 
0.0 -1.962000000000e+01 0.0 
0.0 -1.962000000000e+01 0.0 
0.0 -1.962000000000e+01 0.0 
0.0 -1.962000000000e+01 0.0 
0.0 -1.962000000000e+01 0.0 
0.0 -1.962000000000e+01 0.0 
0.0 -1.962000000000e+01 0.0 
0.0 -1.962000000000e+01 0.0 
0.0 -1.962000000000e+01 0.0 
0.0 -1.962000000000e+01 0.0 
0.0 -1.962000000000e+01 0.0 
0.0 -1.962000000000e+01 0.0 
0.0 -1.962000000000e+01 0.0 
0.0 -1.962000000000e+01 0.0 
0.0 -1.962000000000e+01 0.0 
0.0 -1.962000000000e+01 0.0 
0.0 -1.962000000000e+01 0.0 
0.0 -1.962000000000e+01 0.0 
0.0 -1.962000000000e+01 0.0 
0.0 -1.962000000000e+01 0.0 
0.0 -1.962000000000e+01 0.0 
0.0 -1.962000000000e+01 0.0 
0.0 -1.962000000000e+01 0.0 
0.0 -1.962000000000e+01 0.0 
0.0 -1.962000000000e+01 0.0 
0.0 -1.962000000000e+01 0.0 
0.0 -1.962000000000e+01 0.0 
0.0 -1.962000000000e+01 0.0 
0.0 -1.962000000000e+01 0.0 
0.0 -1.962000000000e+01 0.0 
0.0 -1.962000000000e+01 0.0 
0.0 -1.962000000000e+01 0.0 
0.0 -1.962000000000e+01 0.0 
0.0 -1.962000000000e+01 0.0 
0.0 -1.962000000000e+01 0.0 
0.0 -1.962000000000e+01 0.0 
0.0 -1.962000000000e+01 0.0 
0.0 -1.962000000000e+01 0.0 
0.0 -1.962000000000e+01 0.0 
0.0 -1.962000000000e+01 0.0 
0.0 -1.962000000000e+01 0.0 
0.0 -1.962000000000e+01 0.0 
0.0 -1.962000000000e+01 0.0 
0.0 -1.962000000000e+01 0.0 
0.0 -1.962000000000e+01 0.0 
0.0 -1.962000000000e+01 0.0 
0.0 -1.962000000000e+01 0.0 
0.0 -1.962000000000e+01 0.0 

VECTORS node_rhside_materi_fixed float
5.810780170481e-01 0.0 0.0 
1.440324705878e+01 0.0 0.0 
-8.949897551884e+01 -2.001297636453e+02 0.0 
4.272777531002e+01 -1.027076933777e+02 0.0 
3.510790592623e-02 0.0 0.0 
-8.190446507682e+00 0.0 0.0 
-1.708719094513e+01 0.0 0.0 
-2.685209902832e+01 0.0 0.0 
-3.630211182534e+01 0.0 0.0 
-4.572409193119e+01 0.0 0.0 
-5.530057520888e+01 0.0 0.0 
-6.605012787199e+01 0.0 0.0 
-7.684536092208e+01 0.0 0.0 
-8.689211625605e+01 0.0 0.0 
-9.706165826436e+01 0.0 0.0 
-1.067873263808e+02 0.0 0.0 
-1.156970226926e+02 0.0 0.0 
-1.253362125707e+02 0.0 0.0 
-1.350193852475e+02 0.0 0.0 
-1.448066673027e+02 0.0 0.0 
-1.543917166756e+02 0.0 0.0 
-1.638341426688e+02 0.0 0.0 
-1.734889886444e+02 0.0 0.0 
1.719278024343e+00 -2.039732451600e+02 0.0 
3.040242479343e+00 -2.057069014949e+02 0.0 
7.497267719290e+00 -2.049712270074e+02 0.0 
6.602053974556e+00 -2.053824471212e+02 0.0 
1.107472454609e+01 -2.072612620055e+02 0.0 
1.316237795670e+01 -2.072069030631e+02 0.0 
1.572057873961e+01 -2.094079066574e+02 0.0 
1.894319923552e+01 -2.117972680996e+02 0.0 
2.431392276281e+01 -2.137005840307e+02 0.0 
2.453164315790e+01 -2.152491752572e+02 0.0 
3.165932139162e+01 -2.224277213200e+02 0.0 
3.536498800746e+01 -2.246031578362e+02 0.0 
3.949386514764e+01 -2.317838742110e+02 0.0 
4.244840994866e+01 -2.362972899494e+02 0.0 
4.630369432597e+01 -2.441556260009e+02 0.0 
4.825741685066e+01 -2.520025159796e+02 0.0 
4.875038331373e+01 -2.571444339041e+02 0.0 
4.816021434268e+01 -2.652180439069e+02 0.0 
4.660323921063e+01 -2.703301443699e+02 0.0 
4.564551115496e+01 -2.771049631921e+02 0.0 
4.454038618271e+01 -2.844286560083e+02 0.0 
4.307072428131e+01 -2.914495188744e+02 0.0 
4.172525907409e+01 -2.982276243777e+02 0.0 
3.996892545969e+01 -3.049402023008e+02 0.0 
3.838258347942e+01 -3.111193128114e+02 0.0 
3.672858500402e+01 -3.170178490055e+02 0.0 
3.479927434129e+01 -3.234658533166e+02 0.0 
3.254156265941e+01 -3.297210205861e+02 0.0 
3.062810875420e+01 -3.352369612643e+02 0.0 
2.815342542263e+01 -3.410757258696e+02 0.0 
2.574120225457e+01 -3.471740705378e+02 0.0 
2.350664525296e+01 -3.518070717391e+02 0.0 
2.101297099167e+01 -3.570056136634e+02 0.0 
1.888211002205e+01 -3.612416539729e+02 0.0 
1.689749806440e+01 -3.653456334849e+02 0.0 
1.464816597734e+01 -3.692219848744e+02 0.0 
1.292800540400e+01 -3.729334694966e+02 0.0 
1.105271232057e+01 -3.759924054970e+02 0.0 
9.572595383030e+00 -3.793387774424e+02 0.0 
8.297872664963e+00 -3.821465621282e+02 0.0 
6.936894722432e+00 -3.847543295908e+02 0.0 
5.672290125232e+00 -3.872002907471e+02 0.0 
4.935373503517e+00 -3.896446433761e+02 0.0 
3.960498170446e+00 -3.918125131436e+02 0.0 
2.951387185138e+00 -3.935658865442e+02 0.0 
2.514349901542e+00 -3.956408223273e+02 0.0 
2.334474905753e+00 -3.971990553303e+02 0.0 
1.208460205539e+00 -3.987779653825e+02 0.0 
6.872719591527e-01 -3.994141529614e+02 0.0 
3.290219870063e+01 0.0 0.0 
4.095983494647e+01 0.0 0.0 
4.836803214883e+01 0.0 0.0 
5.523599307765e+01 0.0 0.0 
6.180001645283e+01 0.0 0.0 
6.828879427381e+01 0.0 0.0 
7.374617395906e+01 0.0 0.0 
7.821480388902e+01 0.0 0.0 
8.398273372179e+01 0.0 0.0 
0.0 0.0 0.0 
0.0 0.0 0.0 
0.0 0.0 0.0 
0.0 0.0 0.0 
0.0 0.0 0.0 
0.0 0.0 0.0 
0.0 0.0 0.0 
0.0 0.0 0.0 
0.0 0.0 0.0 
0.0 0.0 0.0 
0.0 0.0 0.0 
0.0 0.0 0.0 
0.0 0.0 0.0 
0.0 0.0 0.0 
0.0 0.0 0.0 
0.0 0.0 0.0 
0.0 0.0 0.0 
0.0 0.0 0.0 
0.0 0.0 0.0 
0.0 0.0 0.0 
0.0 0.0 0.0 
0.0 0.0 0.0 
0.0 0.0 0.0 
0.0 0.0 0.0 
0.0 0.0 0.0 
0.0 0.0 0.0 
0.0 0.0 0.0 
0.0 0.0 0.0 
0.0 0.0 0.0 
0.0 0.0 0.0 
0.0 0.0 0.0 
0.0 0.0 0.0 
0.0 0.0 0.0 
0.0 0.0 0.0 
0.0 0.0 0.0 
0.0 0.0 0.0 
0.0 0.0 0.0 
0.0 0.0 0.0 
0.0 0.0 0.0 
0.0 0.0 0.0 
0.0 0.0 0.0 
0.0 0.0 0.0 
0.0 0.0 0.0 
0.0 0.0 0.0 
0.0 0.0 0.0 
0.0 0.0 0.0 
0.0 0.0 0.0 
0.0 0.0 0.0 
0.0 0.0 0.0 
0.0 0.0 0.0 
0.0 0.0 0.0 
0.0 0.0 0.0 
0.0 0.0 0.0 
0.0 0.0 0.0 
0.0 0.0 0.0 
0.0 0.0 0.0 
0.0 0.0 0.0 
0.0 0.0 0.0 
0.0 0.0 0.0 
0.0 0.0 0.0 
0.0 0.0 0.0 
0.0 0.0 0.0 
0.0 0.0 0.0 
0.0 0.0 0.0 
0.0 0.0 0.0 
0.0 0.0 0.0 
0.0 0.0 0.0 
0.0 0.0 0.0 
0.0 0.0 0.0 
0.0 0.0 0.0 
0.0 0.0 0.0 
0.0 0.0 0.0 
0.0 0.0 0.0 
0.0 0.0 0.0 
0.0 0.0 0.0 
0.0 0.0 0.0 
0.0 0.0 0.0 
0.0 0.0 0.0 
0.0 0.0 0.0 
0.0 0.0 0.0 
0.0 0.0 0.0 
0.0 0.0 0.0 
0.0 0.0 0.0 
0.0 0.0 0.0 
0.0 0.0 0.0 
0.0 0.0 0.0 
0.0 0.0 0.0 
0.0 0.0 0.0 
0.0 0.0 0.0 
0.0 0.0 0.0 
0.0 0.0 0.0 
0.0 0.0 0.0 
0.0 0.0 0.0 
0.0 0.0 0.0 
0.0 0.0 0.0 
0.0 0.0 0.0 
0.0 0.0 0.0 
0.0 0.0 0.0 
0.0 0.0 0.0 
0.0 0.0 0.0 
0.0 0.0 0.0 
0.0 0.0 0.0 
0.0 0.0 0.0 
0.0 0.0 0.0 
0.0 0.0 0.0 
0.0 0.0 0.0 
0.0 0.0 0.0 
0.0 0.0 0.0 
0.0 0.0 0.0 
0.0 0.0 0.0 
0.0 0.0 0.0 
0.0 0.0 0.0 
0.0 0.0 0.0 
0.0 0.0 0.0 
0.0 0.0 0.0 
0.0 0.0 0.0 
0.0 0.0 0.0 
0.0 0.0 0.0 
0.0 0.0 0.0 
0.0 0.0 0.0 
0.0 0.0 0.0 
0.0 0.0 0.0 
0.0 0.0 0.0 
0.0 0.0 0.0 
0.0 0.0 0.0 
0.0 0.0 0.0 
0.0 0.0 0.0 
0.0 0.0 0.0 
0.0 0.0 0.0 
0.0 0.0 0.0 
0.0 0.0 0.0 
0.0 0.0 0.0 
0.0 0.0 0.0 
0.0 0.0 0.0 
0.0 0.0 0.0 
0.0 0.0 0.0 
0.0 0.0 0.0 
0.0 0.0 0.0 
0.0 0.0 0.0 
0.0 0.0 0.0 
0.0 0.0 0.0 
0.0 0.0 0.0 
0.0 0.0 0.0 
0.0 0.0 0.0 
0.0 0.0 0.0 
0.0 0.0 0.0 
0.0 0.0 0.0 
0.0 0.0 0.0 
0.0 0.0 0.0 
0.0 0.0 0.0 
0.0 0.0 0.0 
0.0 0.0 0.0 
0.0 0.0 0.0 
0.0 0.0 0.0 
0.0 0.0 0.0 
0.0 0.0 0.0 
0.0 0.0 0.0 
0.0 0.0 0.0 
0.0 0.0 0.0 
0.0 0.0 0.0 
0.0 0.0 0.0 
0.0 0.0 0.0 
0.0 0.0 0.0 
0.0 0.0 0.0 
0.0 0.0 0.0 
0.0 0.0 0.0 
0.0 0.0 0.0 
0.0 0.0 0.0 
0.0 0.0 0.0 
0.0 0.0 0.0 
0.0 0.0 0.0 
0.0 0.0 0.0 
0.0 0.0 0.0 
0.0 0.0 0.0 
0.0 0.0 0.0 
0.0 0.0 0.0 
0.0 0.0 0.0 
0.0 0.0 0.0 
0.0 0.0 0.0 
0.0 0.0 0.0 
0.0 0.0 0.0 
0.0 0.0 0.0 
0.0 0.0 0.0 
0.0 0.0 0.0 
0.0 0.0 0.0 
0.0 0.0 0.0 
0.0 0.0 0.0 
0.0 0.0 0.0 
0.0 0.0 0.0 
0.0 0.0 0.0 
0.0 0.0 0.0 
0.0 0.0 0.0 
0.0 0.0 0.0 
0.0 0.0 0.0 
0.0 0.0 0.0 
0.0 0.0 0.0 
0.0 0.0 0.0 
0.0 0.0 0.0 
0.0 0.0 0.0 
0.0 0.0 0.0 
0.0 0.0 0.0 
0.0 0.0 0.0 
0.0 0.0 0.0 
0.0 0.0 0.0 
0.0 0.0 0.0 
0.0 0.0 0.0 
0.0 0.0 0.0 
0.0 0.0 0.0 
0.0 0.0 0.0 
0.0 0.0 0.0 
0.0 0.0 0.0 
0.0 0.0 0.0 
0.0 0.0 0.0 
0.0 0.0 0.0 
0.0 0.0 0.0 
0.0 0.0 0.0 
0.0 0.0 0.0 
0.0 0.0 0.0 
0.0 0.0 0.0 
0.0 0.0 0.0 
0.0 0.0 0.0 
0.0 0.0 0.0 
0.0 0.0 0.0 
0.0 0.0 0.0 
0.0 0.0 0.0 
0.0 0.0 0.0 
0.0 0.0 0.0 
0.0 0.0 0.0 
0.0 0.0 0.0 
0.0 0.0 0.0 
0.0 0.0 0.0 
0.0 0.0 0.0 
0.0 0.0 0.0 
0.0 0.0 0.0 
0.0 0.0 0.0 
0.0 0.0 0.0 
0.0 0.0 0.0 
0.0 0.0 0.0 
0.0 0.0 0.0 
0.0 0.0 0.0 
0.0 0.0 0.0 
0.0 0.0 0.0 
0.0 0.0 0.0 
0.0 0.0 0.0 
0.0 0.0 0.0 
0.0 0.0 0.0 
0.0 0.0 0.0 
0.0 0.0 0.0 
0.0 0.0 0.0 
0.0 0.0 0.0 
0.0 0.0 0.0 
0.0 0.0 0.0 
0.0 0.0 0.0 
0.0 0.0 0.0 
0.0 0.0 0.0 
0.0 0.0 0.0 
0.0 0.0 0.0 
0.0 0.0 0.0 
0.0 0.0 0.0 
0.0 0.0 0.0 
0.0 0.0 0.0 
0.0 0.0 0.0 
0.0 0.0 0.0 
0.0 0.0 0.0 
0.0 0.0 0.0 
0.0 0.0 0.0 
0.0 0.0 0.0 
0.0 0.0 0.0 
0.0 0.0 0.0 
0.0 0.0 0.0 
0.0 0.0 0.0 
0.0 0.0 0.0 
0.0 0.0 0.0 
0.0 0.0 0.0 
0.0 0.0 0.0 
0.0 0.0 0.0 
0.0 0.0 0.0 
0.0 0.0 0.0 
0.0 0.0 0.0 
0.0 0.0 0.0 
0.0 0.0 0.0 
0.0 0.0 0.0 
0.0 0.0 0.0 
0.0 0.0 0.0 
0.0 0.0 0.0 
0.0 0.0 0.0 
0.0 0.0 0.0 
0.0 0.0 0.0 
0.0 0.0 0.0 
0.0 0.0 0.0 
0.0 0.0 0.0 
0.0 0.0 0.0 
0.0 0.0 0.0 
0.0 0.0 0.0 
0.0 0.0 0.0 
0.0 0.0 0.0 
0.0 0.0 0.0 
0.0 0.0 0.0 
0.0 0.0 0.0 
0.0 0.0 0.0 
0.0 0.0 0.0 
0.0 0.0 0.0 
0.0 0.0 0.0 
0.0 0.0 0.0 
0.0 0.0 0.0 
0.0 0.0 0.0 
0.0 0.0 0.0 
0.0 0.0 0.0 
0.0 0.0 0.0 
0.0 0.0 0.0 
0.0 0.0 0.0 
0.0 0.0 0.0 
0.0 0.0 0.0 
0.0 0.0 0.0 
0.0 0.0 0.0 
0.0 0.0 0.0 
0.0 0.0 0.0 
0.0 0.0 0.0 
0.0 0.0 0.0 
0.0 0.0 0.0 
0.0 0.0 0.0 
0.0 0.0 0.0 
0.0 0.0 0.0 
0.0 0.0 0.0 
0.0 0.0 0.0 
0.0 0.0 0.0 
0.0 0.0 0.0 
0.0 0.0 0.0 
0.0 0.0 0.0 
0.0 0.0 0.0 
0.0 0.0 0.0 
0.0 0.0 0.0 
0.0 0.0 0.0 
0.0 0.0 0.0 
0.0 0.0 0.0 
0.0 0.0 0.0 
0.0 0.0 0.0 
0.0 0.0 0.0 
0.0 0.0 0.0 
0.0 0.0 0.0 
0.0 0.0 0.0 
0.0 0.0 0.0 
0.0 0.0 0.0 
0.0 0.0 0.0 
0.0 0.0 0.0 
0.0 0.0 0.0 
0.0 0.0 0.0 
0.0 0.0 0.0 
0.0 0.0 0.0 
0.0 0.0 0.0 
0.0 0.0 0.0 
0.0 0.0 0.0 
0.0 0.0 0.0 
0.0 0.0 0.0 
0.0 0.0 0.0 
0.0 0.0 0.0 
0.0 0.0 0.0 
0.0 0.0 0.0 
0.0 0.0 0.0 
0.0 0.0 0.0 
0.0 0.0 0.0 
0.0 0.0 0.0 
0.0 0.0 0.0 
0.0 0.0 0.0 
0.0 0.0 0.0 
0.0 0.0 0.0 
0.0 0.0 0.0 
0.0 0.0 0.0 
0.0 0.0 0.0 
0.0 0.0 0.0 
0.0 0.0 0.0 
0.0 0.0 0.0 
0.0 0.0 0.0 
0.0 0.0 0.0 
0.0 0.0 0.0 
0.0 0.0 0.0 
0.0 0.0 0.0 
0.0 0.0 0.0 
0.0 0.0 0.0 
0.0 0.0 0.0 
0.0 0.0 0.0 
0.0 0.0 0.0 
0.0 0.0 0.0 
0.0 0.0 0.0 
0.0 0.0 0.0 
0.0 0.0 0.0 
0.0 0.0 0.0 
0.0 0.0 0.0 
0.0 0.0 0.0 
0.0 0.0 0.0 
0.0 0.0 0.0 
0.0 0.0 0.0 
0.0 0.0 0.0 
0.0 0.0 0.0 
0.0 0.0 0.0 
0.0 0.0 0.0 
0.0 0.0 0.0 
0.0 0.0 0.0 
0.0 0.0 0.0 
0.0 0.0 0.0 
0.0 0.0 0.0 
0.0 0.0 0.0 
0.0 0.0 0.0 
0.0 0.0 0.0 
0.0 0.0 0.0 
0.0 0.0 0.0 
0.0 0.0 0.0 
0.0 0.0 0.0 
0.0 0.0 0.0 
0.0 0.0 0.0 
0.0 0.0 0.0 
0.0 0.0 0.0 
0.0 0.0 0.0 
0.0 0.0 0.0 
0.0 0.0 0.0 
0.0 0.0 0.0 
0.0 0.0 0.0 
0.0 0.0 0.0 
0.0 0.0 0.0 
0.0 0.0 0.0 
0.0 0.0 0.0 
0.0 0.0 0.0 
0.0 0.0 0.0 
0.0 0.0 0.0 
0.0 0.0 0.0 
0.0 0.0 0.0 
0.0 0.0 0.0 
0.0 0.0 0.0 
0.0 0.0 0.0 
0.0 0.0 0.0 
0.0 0.0 0.0 
0.0 0.0 0.0 
0.0 0.0 0.0 
0.0 0.0 0.0 
0.0 0.0 0.0 
0.0 0.0 0.0 
0.0 0.0 0.0 
0.0 0.0 0.0 
0.0 0.0 0.0 
0.0 0.0 0.0 
0.0 0.0 0.0 
0.0 0.0 0.0 
0.0 0.0 0.0 
0.0 0.0 0.0 
0.0 0.0 0.0 
0.0 0.0 0.0 
0.0 0.0 0.0 
0.0 0.0 0.0 
0.0 0.0 0.0 
0.0 0.0 0.0 
0.0 0.0 0.0 
0.0 0.0 0.0 
0.0 0.0 0.0 
0.0 0.0 0.0 
0.0 0.0 0.0 
0.0 0.0 0.0 
0.0 0.0 0.0 
0.0 0.0 0.0 
0.0 0.0 0.0 
0.0 0.0 0.0 
0.0 0.0 0.0 
0.0 0.0 0.0 
0.0 0.0 0.0 
0.0 0.0 0.0 
0.0 0.0 0.0 
0.0 0.0 0.0 
0.0 0.0 0.0 
0.0 0.0 0.0 
0.0 0.0 0.0 
0.0 0.0 0.0 
0.0 0.0 0.0 
0.0 0.0 0.0 
0.0 0.0 0.0 
0.0 0.0 0.0 
0.0 0.0 0.0 
0.0 0.0 0.0 
0.0 0.0 0.0 
0.0 0.0 0.0 
0.0 0.0 0.0 
0.0 0.0 0.0 
0.0 0.0 0.0 
0.0 0.0 0.0 
0.0 0.0 0.0 
0.0 0.0 0.0 
0.0 0.0 0.0 
0.0 0.0 0.0 
0.0 0.0 0.0 
0.0 0.0 0.0 
0.0 0.0 0.0 
0.0 0.0 0.0 
0.0 0.0 0.0 
0.0 0.0 0.0 
0.0 0.0 0.0 
0.0 0.0 0.0 
0.0 0.0 0.0 
0.0 0.0 0.0 
0.0 0.0 0.0 
0.0 0.0 0.0 
0.0 0.0 0.0 
0.0 0.0 0.0 
0.0 0.0 0.0 
0.0 0.0 0.0 
0.0 0.0 0.0 
0.0 0.0 0.0 
0.0 0.0 0.0 
0.0 0.0 0.0 
0.0 0.0 0.0 
0.0 0.0 0.0 
0.0 0.0 0.0 
0.0 0.0 0.0 
0.0 0.0 0.0 
0.0 0.0 0.0 
0.0 0.0 0.0 
0.0 0.0 0.0 
0.0 0.0 0.0 
0.0 0.0 0.0 
0.0 0.0 0.0 
0.0 0.0 0.0 
0.0 0.0 0.0 
0.0 0.0 0.0 
0.0 0.0 0.0 
0.0 0.0 0.0 
0.0 0.0 0.0 
0.0 0.0 0.0 
0.0 0.0 0.0 
0.0 0.0 0.0 
0.0 0.0 0.0 
0.0 0.0 0.0 
0.0 0.0 0.0 
0.0 0.0 0.0 
0.0 0.0 0.0 
0.0 0.0 0.0 
0.0 0.0 0.0 
0.0 0.0 0.0 
0.0 0.0 0.0 
0.0 0.0 0.0 
0.0 0.0 0.0 
0.0 0.0 0.0 
0.0 0.0 0.0 
0.0 0.0 0.0 
0.0 0.0 0.0 
0.0 0.0 0.0 
0.0 0.0 0.0 
0.0 0.0 0.0 
0.0 0.0 0.0 
0.0 0.0 0.0 
0.0 0.0 0.0 
0.0 0.0 0.0 
0.0 0.0 0.0 
0.0 0.0 0.0 
0.0 0.0 0.0 
0.0 0.0 0.0 
0.0 0.0 0.0 
0.0 0.0 0.0 
0.0 0.0 0.0 
0.0 0.0 0.0 
0.0 0.0 0.0 
0.0 0.0 0.0 
0.0 0.0 0.0 
0.0 0.0 0.0 
0.0 0.0 0.0 
0.0 0.0 0.0 
0.0 0.0 0.0 
0.0 0.0 0.0 
0.0 0.0 0.0 
0.0 0.0 0.0 
0.0 0.0 0.0 
0.0 0.0 0.0 
0.0 0.0 0.0 
0.0 0.0 0.0 
0.0 0.0 0.0 
0.0 0.0 0.0 
0.0 0.0 0.0 
0.0 0.0 0.0 
0.0 0.0 0.0 
0.0 0.0 0.0 
0.0 0.0 0.0 
0.0 0.0 0.0 
0.0 0.0 0.0 
0.0 0.0 0.0 
0.0 0.0 0.0 
0.0 0.0 0.0 
0.0 0.0 0.0 
0.0 0.0 0.0 
0.0 0.0 0.0 
0.0 0.0 0.0 
0.0 0.0 0.0 
0.0 0.0 0.0 
0.0 0.0 0.0 
0.0 0.0 0.0 
0.0 0.0 0.0 
0.0 0.0 0.0 
0.0 0.0 0.0 
0.0 0.0 0.0 
0.0 0.0 0.0 
0.0 0.0 0.0 
0.0 0.0 0.0 
0.0 0.0 0.0 
0.0 0.0 0.0 
0.0 0.0 0.0 
0.0 0.0 0.0 
0.0 0.0 0.0 
0.0 0.0 0.0 
0.0 0.0 0.0 
0.0 0.0 0.0 
0.0 0.0 0.0 
0.0 0.0 0.0 
0.0 0.0 0.0 
0.0 0.0 0.0 
0.0 0.0 0.0 
0.0 0.0 0.0 
0.0 0.0 0.0 
0.0 0.0 0.0 
0.0 0.0 0.0 
0.0 0.0 0.0 
0.0 0.0 0.0 
0.0 0.0 0.0 
0.0 0.0 0.0 
0.0 0.0 0.0 
0.0 0.0 0.0 
0.0 0.0 0.0 
0.0 0.0 0.0 
0.0 0.0 0.0 
0.0 0.0 0.0 
0.0 0.0 0.0 
0.0 0.0 0.0 
0.0 0.0 0.0 
0.0 0.0 0.0 
0.0 0.0 0.0 
0.0 0.0 0.0 
0.0 0.0 0.0 
0.0 0.0 0.0 
0.0 0.0 0.0 
0.0 0.0 0.0 
0.0 0.0 0.0 
0.0 0.0 0.0 
0.0 0.0 0.0 
0.0 0.0 0.0 
0.0 0.0 0.0 
0.0 0.0 0.0 
0.0 0.0 0.0 
0.0 0.0 0.0 
0.0 0.0 0.0 
0.0 0.0 0.0 
0.0 0.0 0.0 
0.0 0.0 0.0 
0.0 0.0 0.0 
0.0 0.0 0.0 
0.0 0.0 0.0 
0.0 0.0 0.0 
0.0 0.0 0.0 
0.0 0.0 0.0 
0.0 0.0 0.0 
0.0 0.0 0.0 
0.0 0.0 0.0 
0.0 0.0 0.0 
0.0 0.0 0.0 
0.0 0.0 0.0 
0.0 0.0 0.0 
0.0 0.0 0.0 
0.0 0.0 0.0 
0.0 0.0 0.0 
0.0 0.0 0.0 
0.0 0.0 0.0 
0.0 0.0 0.0 
0.0 0.0 0.0 
0.0 0.0 0.0 
0.0 0.0 0.0 
0.0 0.0 0.0 
0.0 0.0 0.0 
0.0 0.0 0.0 
0.0 0.0 0.0 
0.0 0.0 0.0 
0.0 0.0 0.0 
0.0 0.0 0.0 
0.0 0.0 0.0 
0.0 0.0 0.0 
0.0 0.0 0.0 
0.0 0.0 0.0 
0.0 0.0 0.0 
0.0 0.0 0.0 
0.0 0.0 0.0 
0.0 0.0 0.0 
0.0 0.0 0.0 
0.0 0.0 0.0 
0.0 0.0 0.0 
0.0 0.0 0.0 
0.0 0.0 0.0 
0.0 0.0 0.0 
0.0 0.0 0.0 
0.0 0.0 0.0 
0.0 0.0 0.0 
0.0 0.0 0.0 
0.0 0.0 0.0 
0.0 0.0 0.0 
0.0 0.0 0.0 
0.0 0.0 0.0 
0.0 0.0 0.0 
0.0 0.0 0.0 
0.0 0.0 0.0 
0.0 0.0 0.0 
0.0 0.0 0.0 
0.0 0.0 0.0 
0.0 0.0 0.0 
0.0 0.0 0.0 
0.0 0.0 0.0 
0.0 0.0 0.0 
0.0 0.0 0.0 
0.0 0.0 0.0 
0.0 0.0 0.0 
0.0 0.0 0.0 
0.0 0.0 0.0 
0.0 0.0 0.0 
0.0 0.0 0.0 
0.0 0.0 0.0 
0.0 0.0 0.0 
0.0 0.0 0.0 
0.0 0.0 0.0 
0.0 0.0 0.0 
0.0 0.0 0.0 
0.0 0.0 0.0 
0.0 0.0 0.0 
0.0 0.0 0.0 
0.0 0.0 0.0 
0.0 0.0 0.0 
0.0 0.0 0.0 
0.0 0.0 0.0 
0.0 0.0 0.0 
0.0 0.0 0.0 
0.0 0.0 0.0 
0.0 0.0 0.0 
0.0 0.0 0.0 
0.0 0.0 0.0 
0.0 0.0 0.0 
0.0 0.0 0.0 
0.0 0.0 0.0 
0.0 0.0 0.0 
0.0 0.0 0.0 
0.0 0.0 0.0 
0.0 0.0 0.0 
0.0 0.0 0.0 
0.0 0.0 0.0 
0.0 0.0 0.0 
0.0 0.0 0.0 
0.0 0.0 0.0 
0.0 0.0 0.0 
0.0 0.0 0.0 
0.0 0.0 0.0 
0.0 0.0 0.0 
0.0 0.0 0.0 
0.0 0.0 0.0 
0.0 0.0 0.0 
0.0 0.0 0.0 
0.0 0.0 0.0 
0.0 0.0 0.0 
0.0 0.0 0.0 
0.0 0.0 0.0 
0.0 0.0 0.0 
0.0 0.0 0.0 
0.0 0.0 0.0 
0.0 0.0 0.0 
0.0 0.0 0.0 
0.0 0.0 0.0 
0.0 0.0 0.0 
0.0 0.0 0.0 
0.0 0.0 0.0 
0.0 0.0 0.0 
0.0 0.0 0.0 
0.0 0.0 0.0 
0.0 0.0 0.0 
0.0 0.0 0.0 
0.0 0.0 0.0 
0.0 0.0 0.0 
0.0 0.0 0.0 
0.0 0.0 0.0 
0.0 0.0 0.0 
0.0 0.0 0.0 
0.0 0.0 0.0 
0.0 0.0 0.0 
0.0 0.0 0.0 
0.0 0.0 0.0 
0.0 0.0 0.0 
0.0 0.0 0.0 
0.0 0.0 0.0 
0.0 0.0 0.0 
0.0 0.0 0.0 
0.0 0.0 0.0 
0.0 0.0 0.0 
0.0 0.0 0.0 
0.0 0.0 0.0 
0.0 0.0 0.0 
0.0 0.0 0.0 
0.0 0.0 0.0 
0.0 0.0 0.0 
0.0 0.0 0.0 
0.0 0.0 0.0 
0.0 0.0 0.0 
0.0 0.0 0.0 
0.0 0.0 0.0 
0.0 0.0 0.0 
0.0 0.0 0.0 
0.0 0.0 0.0 
0.0 0.0 0.0 
0.0 0.0 0.0 
0.0 0.0 0.0 
0.0 0.0 0.0 
0.0 0.0 0.0 
0.0 0.0 0.0 
0.0 0.0 0.0 
0.0 0.0 0.0 
0.0 0.0 0.0 
0.0 0.0 0.0 
0.0 0.0 0.0 
0.0 0.0 0.0 
0.0 0.0 0.0 
0.0 0.0 0.0 
0.0 0.0 0.0 
0.0 0.0 0.0 
0.0 0.0 0.0 
0.0 0.0 0.0 
0.0 0.0 0.0 
0.0 0.0 0.0 
0.0 0.0 0.0 
0.0 0.0 0.0 
0.0 0.0 0.0 
0.0 0.0 0.0 
0.0 0.0 0.0 
0.0 0.0 0.0 
0.0 0.0 0.0 
0.0 0.0 0.0 
0.0 0.0 0.0 
0.0 0.0 0.0 
0.0 0.0 0.0 
0.0 0.0 0.0 
0.0 0.0 0.0 
0.0 0.0 0.0 
0.0 0.0 0.0 
0.0 0.0 0.0 
0.0 0.0 0.0 
0.0 0.0 0.0 
0.0 0.0 0.0 
0.0 0.0 0.0 
0.0 0.0 0.0 
0.0 0.0 0.0 
0.0 0.0 0.0 
0.0 0.0 0.0 
0.0 0.0 0.0 
0.0 0.0 0.0 
0.0 0.0 0.0 
0.0 0.0 0.0 
0.0 0.0 0.0 
0.0 0.0 0.0 
0.0 0.0 0.0 
0.0 0.0 0.0 
0.0 0.0 0.0 
0.0 0.0 0.0 
0.0 0.0 0.0 
0.0 0.0 0.0 
0.0 0.0 0.0 
0.0 0.0 0.0 
0.0 0.0 0.0 
0.0 0.0 0.0 
0.0 0.0 0.0 
0.0 0.0 0.0 
0.0 0.0 0.0 
0.0 0.0 0.0 
0.0 0.0 0.0 
0.0 0.0 0.0 
0.0 0.0 0.0 
0.0 0.0 0.0 
0.0 0.0 0.0 
0.0 0.0 0.0 
0.0 0.0 0.0 
0.0 0.0 0.0 
0.0 0.0 0.0 
0.0 0.0 0.0 
0.0 0.0 0.0 
0.0 0.0 0.0 
0.0 0.0 0.0 
0.0 0.0 0.0 
0.0 0.0 0.0 
0.0 0.0 0.0 
0.0 0.0 0.0 
0.0 0.0 0.0 
0.0 0.0 0.0 
0.0 0.0 0.0 
0.0 0.0 0.0 
0.0 0.0 0.0 
0.0 0.0 0.0 
0.0 0.0 0.0 
0.0 0.0 0.0 
0.0 0.0 0.0 
0.0 0.0 0.0 
0.0 0.0 0.0 
0.0 0.0 0.0 
0.0 0.0 0.0 
0.0 0.0 0.0 
0.0 0.0 0.0 
0.0 0.0 0.0 
0.0 0.0 0.0 
0.0 0.0 0.0 
0.0 0.0 0.0 
0.0 0.0 0.0 
0.0 0.0 0.0 
0.0 0.0 0.0 
0.0 0.0 0.0 
0.0 0.0 0.0 
0.0 0.0 0.0 
0.0 0.0 0.0 
0.0 0.0 0.0 
0.0 0.0 0.0 
0.0 0.0 0.0 
0.0 0.0 0.0 
0.0 0.0 0.0 
0.0 0.0 0.0 
0.0 0.0 0.0 
0.0 0.0 0.0 
0.0 0.0 0.0 
0.0 0.0 0.0 
0.0 0.0 0.0 
0.0 0.0 0.0 
0.0 0.0 0.0 
0.0 0.0 0.0 
0.0 0.0 0.0 
0.0 0.0 0.0 
0.0 0.0 0.0 
0.0 0.0 0.0 
0.0 0.0 0.0 
0.0 0.0 0.0 
0.0 0.0 0.0 
0.0 0.0 0.0 
0.0 0.0 0.0 
0.0 0.0 0.0 
0.0 0.0 0.0 
0.0 0.0 0.0 
0.0 0.0 0.0 
0.0 0.0 0.0 
0.0 0.0 0.0 
0.0 0.0 0.0 
0.0 0.0 0.0 
0.0 0.0 0.0 
0.0 0.0 0.0 
0.0 0.0 0.0 
0.0 0.0 0.0 
0.0 0.0 0.0 
0.0 0.0 0.0 
0.0 0.0 0.0 

VECTORS node_materi_velocity float
0.0 -1.892672459293e-01 0.0 
0.0 1.061100086806e-02 0.0 
0.0 0.0 0.0 
0.0 0.0 0.0 
0.0 -1.758404459490e-01 0.0 
0.0 -1.407277664435e-01 0.0 
0.0 -1.067078191089e-01 0.0 
0.0 -7.628229300107e-02 0.0 
0.0 -5.746629559077e-02 0.0 
0.0 -4.754167428643e-02 0.0 
0.0 -4.302820926728e-02 0.0 
0.0 -4.456067161463e-02 0.0 
0.0 -4.748437029329e-02 0.0 
0.0 -5.091133166042e-02 0.0 
0.0 -5.441095374782e-02 0.0 
0.0 -5.316062880164e-02 0.0 
0.0 -5.143089575115e-02 0.0 
0.0 -4.924074877246e-02 0.0 
0.0 -4.684791824140e-02 0.0 
0.0 -3.945676144826e-02 0.0 
0.0 -2.845870484067e-02 0.0 
0.0 -1.721237014857e-02 0.0 
0.0 -7.780310759102e-03 0.0 
0.0 0.0 0.0 
0.0 0.0 0.0 
0.0 0.0 0.0 
0.0 0.0 0.0 
0.0 0.0 0.0 
0.0 0.0 0.0 
0.0 0.0 0.0 
0.0 0.0 0.0 
0.0 0.0 0.0 
0.0 0.0 0.0 
0.0 0.0 0.0 
0.0 0.0 0.0 
0.0 0.0 0.0 
0.0 0.0 0.0 
0.0 0.0 0.0 
0.0 0.0 0.0 
0.0 0.0 0.0 
0.0 0.0 0.0 
0.0 0.0 0.0 
0.0 0.0 0.0 
0.0 0.0 0.0 
0.0 0.0 0.0 
0.0 0.0 0.0 
0.0 0.0 0.0 
0.0 0.0 0.0 
0.0 0.0 0.0 
0.0 0.0 0.0 
0.0 0.0 0.0 
0.0 0.0 0.0 
0.0 0.0 0.0 
0.0 0.0 0.0 
0.0 0.0 0.0 
0.0 0.0 0.0 
0.0 0.0 0.0 
0.0 0.0 0.0 
0.0 0.0 0.0 
0.0 0.0 0.0 
0.0 0.0 0.0 
0.0 0.0 0.0 
0.0 0.0 0.0 
0.0 0.0 0.0 
0.0 0.0 0.0 
0.0 0.0 0.0 
0.0 0.0 0.0 
0.0 0.0 0.0 
0.0 0.0 0.0 
0.0 0.0 0.0 
0.0 0.0 0.0 
0.0 0.0 0.0 
0.0 8.443358940562e-03 0.0 
0.0 6.357458239237e-03 0.0 
0.0 4.409838043439e-03 0.0 
0.0 2.634990800938e-03 0.0 
0.0 1.118634760431e-03 0.0 
0.0 -7.505601227813e-05 0.0 
0.0 -8.643693856269e-04 0.0 
0.0 -1.160667379320e-03 0.0 
0.0 -8.934864388768e-04 0.0 
2.124897066803e-01 -2.689355507289e-01 0.0 
1.017821710469e-01 1.834948104554e-02 0.0 
2.125231669315e-01 -2.741148302586e-01 0.0 
2.208520870297e-01 -2.595571878392e-01 0.0 
2.474082029562e-01 -2.167252676860e-01 0.0 
2.890730300570e-01 -1.651461688594e-01 0.0 
3.294485336058e-01 -1.192744390940e-01 0.0 
3.501456189815e-01 -7.241683672844e-02 0.0 
3.405089761284e-01 -2.637677715037e-02 0.0 
2.961141507847e-01 4.515893297901e-03 0.0 
2.147700128390e-01 3.164208312884e-02 0.0 
5.171521486930e-03 1.069955795747e-02 0.0 
1.035242196655e-02 1.091394283768e-02 0.0 
1.555621270248e-02 1.128773445215e-02 0.0 
2.078235980301e-02 1.182150454705e-02 0.0 
2.602926614064e-02 1.246361258304e-02 0.0 
3.126940255479e-02 1.320103531391e-02 0.0 
3.649465112415e-02 1.398973938442e-02 0.0 
4.167257856572e-02 1.474822600925e-02 0.0 
4.681853039767e-02 1.539407708170e-02 0.0 
5.192930299590e-02 1.581636632992e-02 0.0 
5.708765053859e-02 1.581342040100e-02 0.0 
6.268662817804e-02 1.558556204279e-02 0.0 
6.945079597765e-02 1.575080118866e-02 0.0 
7.925079141510e-02 2.849485600904e-02 0.0 
2.095663048095e-01 -2.621027807429e-01 0.0 
2.035491113288e-01 -2.544617286785e-01 0.0 
1.957267880955e-01 -2.485882005166e-01 0.0 
1.876481889578e-01 -2.446099830586e-01 0.0 
1.800924439144e-01 -2.422740743524e-01 0.0 
1.736419625692e-01 -2.413299887263e-01 0.0 
1.699713856422e-01 -2.381366344027e-01 0.0 
1.679021015582e-01 -2.300575182618e-01 0.0 
1.647024665310e-01 -2.175002927281e-01 0.0 
1.607683376092e-01 -2.043556991340e-01 0.0 
1.570955821014e-01 -1.917254046209e-01 0.0 
1.537918640425e-01 -1.802651910698e-01 0.0 
1.509044891122e-01 -1.707606142612e-01 0.0 
1.329225822395e-01 -1.723635002709e-01 0.0 
1.071910938907e-01 -1.816844029224e-01 0.0 
1.060449718630e-01 -1.783957102186e-01 0.0 
9.036089696837e-02 -1.838664542273e-01 0.0 
6.134414184848e-02 -1.895316562829e-01 0.0 
3.485723079518e-02 -1.919850496095e-01 0.0 
2.117714015915e-01 -2.728803943293e-01 0.0 
2.147039630637e-01 -2.690905530595e-01 0.0 
2.321618257276e-01 -2.436756039301e-01 0.0 
2.674509339029e-01 -1.885370076157e-01 0.0 
3.104779614724e-01 -1.401806161472e-01 0.0 
3.447219052101e-01 -9.388051617004e-02 0.0 
3.495775827187e-01 -5.104408770425e-02 0.0 
3.228636206606e-01 -1.694856634342e-02 0.0 
2.595650168172e-01 2.348090855836e-02 0.0 
1.610892486633e-01 3.250330220860e-02 0.0 
2.253835235059e-01 -2.689549859948e-01 0.0 
7.771137509163e-03 -9.064718368410e-03 0.0 
1.518455388112e-01 -2.092161784011e-01 0.0 
1.813803750215e-01 -2.406400580086e-01 0.0 
-2.637830938451e-04 -6.735453740477e-03 0.0 
3.029965211960e-01 -1.866323520920e-01 0.0 
-5.680387712180e-03 -5.334942169450e-02 0.0 
1.483858303226e-02 -8.932274435106e-03 0.0 
3.492323633414e-01 -9.685460901364e-02 0.0 
1.912615878016e-02 -7.674204725793e-03 0.0 
2.785925937232e-01 -2.451466890252e-02 0.0 
-1.212993480634e-04 -5.818726004694e-03 0.0 
1.401259994564e-01 -1.650927460872e-01 0.0 
2.432110114093e-02 -7.101135896317e-03 0.0 
1.003474386373e-01 7.329191217864e-03 0.0 
1.430239593749e-03 -4.507837278731e-02 0.0 
-5.859597619341e-03 -5.103985741663e-02 0.0 
2.750307953873e-02 -5.811242191271e-03 0.0 
3.978343798774e-02 -8.905065685048e-03 0.0 
6.560624213485e-03 -2.684264920492e-03 0.0 
1.494388663095e-02 -3.149312507470e-03 0.0 
2.661300117559e-02 -5.710443398244e-03 0.0 
6.605415135145e-02 1.513865568377e-02 0.0 
4.908341635813e-02 1.365962214077e-02 0.0 
3.328094206170e-02 1.152804462196e-02 0.0 
3.202579245174e-03 1.826643898685e-03 0.0 
2.214592385648e-03 -6.521011711939e-03 0.0 
2.029633776483e-01 -2.563511232354e-01 0.0 
1.016271134035e-01 -1.750466320486e-01 0.0 
3.089643293634e-03 -3.306530573386e-02 0.0 
1.743199816534e-02 9.596495787504e-03 0.0 
2.631476833228e-02 -9.446306416218e-02 0.0 
4.463363660643e-02 -1.149808540016e-02 0.0 
1.578587307227e-02 -7.814001125005e-03 0.0 
2.111867753677e-02 -7.702466134345e-03 0.0 
1.264068051144e-02 -9.763192786548e-03 0.0 
3.281418930970e-03 -7.757405663120e-03 0.0 
1.668729805910e-01 -2.385860292521e-01 0.0 
5.918802387063e-02 1.393541538408e-02 0.0 
-9.798153442965e-04 -7.322643841842e-03 0.0 
2.472665424380e-03 -5.179764817284e-04 0.0 
1.450792058633e-01 -1.847709811045e-01 0.0 
-3.914051760929e-03 -4.647144782342e-02 0.0 
3.361072411490e-03 -2.288720548169e-03 0.0 
3.391605224616e-01 -1.422281578242e-01 0.0 
2.583673242700e-01 -2.423933971806e-01 0.0 
3.301739009075e-01 -5.641596937655e-02 0.0 
1.965338459694e-01 1.028871905944e-02 0.0 
2.120379908096e-01 -2.731217305354e-01 0.0 
3.897752317630e-03 5.167362523885e-03 0.0 
1.955465406140e-03 -5.299437835319e-03 0.0 
5.153444748039e-02 -1.808962150957e-01 0.0 
1.472640426080e-03 -1.217574976894e-03 0.0 
8.837265908760e-02 6.266980426610e-03 0.0 
9.221125284161e-02 4.226534232748e-03 0.0 
8.487819061880e-02 3.682966198925e-03 0.0 
9.323510815198e-02 4.812381486172e-04 0.0 
8.754053641454e-02 6.144892813234e-04 0.0 
9.548161513177e-02 -3.772636131662e-03 0.0 
1.023516034016e-01 -5.374978764665e-03 0.0 
1.041177792228e-01 -9.972319784154e-03 0.0 
1.117506842210e-01 -1.295387963331e-02 0.0 
8.862632028756e-02 -2.651057319958e-03 0.0 
1.130581661797e-01 -1.752254241451e-02 0.0 
1.210225254988e-01 -2.208034662530e-02 0.0 
1.222989063506e-01 -2.624956793147e-02 0.0 
1.305962174012e-01 -3.146992976155e-02 0.0 
1.282692189190e-01 -2.725958448514e-02 0.0 
1.383834583063e-01 -3.699918563268e-02 0.0 
1.354039541388e-01 -3.193679740678e-02 0.0 
1.459080337815e-01 -4.328706610234e-02 0.0 
1.490882363609e-01 -4.841507782780e-02 0.0 
1.566251436978e-01 -5.498799472091e-02 0.0 
1.533181929655e-01 -4.963714346198e-02 0.0 
1.639181119959e-01 -6.111204079274e-02 0.0 
1.603528923011e-01 -5.631671824941e-02 0.0 
1.683538110126e-01 -7.286029996332e-02 0.0 
1.641181557550e-01 -7.021244664001e-02 0.0 
1.719493340321e-01 -8.515150323752e-02 0.0 
1.768604407300e-01 -8.760015924429e-02 0.0 
1.799634258741e-01 -9.914118252742e-02 0.0 
1.749879976790e-01 -9.762269806600e-02 0.0 
1.820628904300e-01 -1.118170665330e-01 0.0 
1.767549529884e-01 -1.116819076619e-01 0.0 
1.825469978366e-01 -1.263922312503e-01 0.0 
1.865883096235e-01 -1.233634664467e-01 0.0 
1.824920311849e-01 -1.358982956415e-01 0.0 
1.810565105893e-01 -1.428417005688e-01 0.0 
1.764276726368e-01 -1.488381246430e-01 0.0 
1.778653048081e-01 -1.596131114983e-01 0.0 
1.692573389518e-01 -1.611353874799e-01 0.0 
1.736733344524e-01 -1.750180539424e-01 0.0 
1.618454529994e-01 -1.720794540465e-01 0.0 
1.360617801636e-01 -1.423642299154e-01 0.0 
1.330498958393e-01 -1.545898099978e-01 0.0 
1.547835712818e-01 -1.816529452525e-01 0.0 
1.299980917979e-01 -1.652047238676e-01 0.0 
1.240109107441e-01 -1.511124741334e-01 0.0 
1.198444921498e-01 -1.590353683797e-01 0.0 
1.043953130700e-01 -1.378363458590e-01 0.0 
1.017121969097e-01 -1.449222725950e-01 0.0 
1.166698175922e-01 -1.643655626727e-01 0.0 
1.002462767332e-01 -1.494235203172e-01 0.0 
8.845476252285e-02 -1.337638290648e-01 0.0 
8.831432131200e-02 -1.376000371347e-01 0.0 
1.004712872197e-01 -1.514911580857e-01 0.0 
8.957184318617e-02 -1.393633592181e-01 0.0 
7.831080588917e-02 -1.270581530896e-01 0.0 
8.043375741526e-02 -1.289496785162e-01 0.0 
9.164872432648e-02 -1.401472055646e-01 0.0 
8.282665116101e-02 -1.302794010835e-01 0.0 
7.209082146519e-02 -1.194544500878e-01 0.0 
7.439149102979e-02 -1.211599776761e-01 0.0 
8.463627747108e-02 -1.320282143912e-01 0.0 
7.564452763437e-02 -1.231802036549e-01 0.0 
6.446718799074e-02 -1.107012456785e-01 0.0 
6.453152293798e-02 -1.123211535837e-01 0.0 
5.144924573754e-02 -9.697285433989e-02 0.0 
7.526651732897e-02 -1.261501893590e-01 0.0 
6.238569161052e-02 -1.146701312974e-01 0.0 
7.263440608311e-02 -1.304740050854e-01 0.0 
5.745625326913e-02 -1.182297143691e-01 0.0 
1.404711982569e-01 -1.003791730750e-01 0.0 
6.752972518502e-02 -1.359471421842e-01 0.0 
8.064446298714e-02 -1.445650532911e-01 0.0 
5.008883372306e-02 -1.226416036940e-01 0.0 
3.786972525262e-02 -1.015110461544e-01 0.0 
6.136381099180e-02 -1.410141538313e-01 0.0 
4.269786946337e-02 -1.254566872519e-01 0.0 
5.713475970322e-02 -1.425595772346e-01 0.0 
1.722345335648e-01 -1.650751851176e-01 0.0 
1.608599507303e-01 -6.091650058581e-02 0.0 
3.861016735083e-02 -1.235096516499e-01 0.0 
5.668558340070e-02 -1.386127897534e-01 0.0 
7.145322953062e-02 -1.555571237092e-01 0.0 
7.572151380930e-02 -1.493653963204e-01 0.0 
8.143805252705e-02 1.755236929075e-03 0.0 
8.136567253792e-02 -1.379415209320e-03 0.0 
7.479719412665e-02 2.753079193938e-03 0.0 
7.359494770373e-02 -3.212597324895e-04 0.0 
6.765878143067e-02 3.156039882229e-03 0.0 
6.088847032374e-02 -1.287264350752e-01 0.0 
1.134965098984e-01 -2.222062779898e-02 0.0 
7.984265005576e-02 -4.632631702106e-03 0.0 
1.498251380968e-01 -4.438049224365e-02 0.0 
1.706485158263e-01 -9.661972207093e-02 0.0 
1.076168805170e-01 -1.288147364700e-01 0.0 
2.090300744797e-02 -1.050806365170e-01 0.0 
1.779821557019e-02 -9.974216227239e-02 0.0 
-1.460506340132e-03 -8.211536366202e-02 0.0 
5.145393540849e-02 -9.665887241291e-02 0.0 
3.684041309690e-02 -8.050174323750e-02 0.0 
3.718310475135e-02 -8.108992477843e-02 0.0 
2.232238903005e-02 -6.393324937675e-02 0.0 
2.303135730091e-02 -6.489128089505e-02 0.0 
1.027392721273e-02 -4.911440295733e-02 0.0 
9.159506856240e-03 -4.766307550123e-02 0.0 
1.456650073647e-03 -3.650884520947e-02 0.0 
6.949302462304e-04 -3.550962430760e-02 0.0 
1.115981832160e-02 -4.977359683595e-02 0.0 
2.350993893341e-02 -6.469176865833e-02 0.0 
-1.958770776560e-03 -2.900563172780e-02 0.0 
-1.759175452441e-03 -2.932234982196e-02 0.0 
-1.638786292846e-03 -2.536508520348e-02 0.0 
-8.458321236783e-04 -2.679856020120e-02 0.0 
-1.835491267295e-03 -3.034343254901e-02 0.0 
-8.381446401058e-04 -2.910521080361e-02 0.0 
-3.425149470073e-03 -3.328071703360e-02 0.0 
9.243188259053e-02 -1.195404155878e-01 0.0 
9.499420592512e-02 -1.100145423959e-01 0.0 
8.068219918163e-02 -1.017171175810e-01 0.0 
8.222272710768e-02 -9.185544234541e-02 0.0 
6.962657947155e-02 -8.499289426368e-02 0.0 
7.002677140774e-02 -7.510565729762e-02 0.0 
5.878494853091e-02 -6.914974478437e-02 0.0 
5.866631932987e-02 -7.864530766600e-02 0.0 
1.324530864130e-01 -3.621571358391e-02 0.0 
1.484534357433e-01 -1.893632214460e-01 0.0 
1.640937524190e-01 -1.994273430378e-01 0.0 
1.593642571929e-01 -2.075501577280e-01 0.0 
1.639740764114e-01 -2.084919219878e-01 0.0 
1.619670425689e-01 -2.171628169928e-01 0.0 
1.630239880172e-01 -2.154940625887e-01 0.0 
1.635431945027e-01 -2.230392538118e-01 0.0 
1.625281506438e-01 -2.203718651125e-01 0.0 
1.674308606876e-01 -2.248039358192e-01 0.0 
1.649221305125e-01 -2.201076407701e-01 0.0 
1.712789314381e-01 -2.253624644483e-01 0.0 
1.667384202957e-01 -2.191424737058e-01 0.0 
1.875690345746e-01 -1.020843905187e-01 0.0 
8.303134384569e-02 -8.154079875638e-02 0.0 
6.945406316557e-02 -6.511051690231e-02 0.0 
8.272310489667e-02 -7.105742634752e-02 0.0 
8.592094351085e-02 -1.633916732362e-01 0.0 
9.989000835859e-04 -2.556575069565e-02 0.0 
1.218990276444e-02 -4.911573793250e-02 0.0 
2.421629010614e-02 -6.292476999502e-02 0.0 
4.823449603763e-02 -6.298042378716e-02 0.0 
8.275060965285e-02 -1.391332952895e-01 0.0 
1.662208324206e-01 -2.240428939043e-01 0.0 
1.666587286612e-01 -2.110847610709e-01 0.0 
6.551396588928e-02 1.706383090428e-04 0.0 
6.023704111444e-02 2.802558909510e-03 0.0 
1.350575169365e-02 -4.681157331287e-02 0.0 
6.603630071022e-02 -1.166591171592e-01 0.0 
-2.075932941275e-03 -2.882427373779e-02 0.0 
1.760075314755e-01 -2.297408738494e-01 0.0 
5.769837966822e-04 -2.908335617410e-02 0.0 
2.919969027183e-03 -2.499421387757e-02 0.0 
7.424782779007e-03 -4.591563186720e-02 0.0 
6.763089198881e-02 -5.518986881672e-02 0.0 
8.123013018821e-02 -6.101009081192e-02 0.0 
1.568382537262e-01 -2.094378443261e-01 0.0 
1.573581133457e-01 -2.080761171528e-01 0.0 
1.670694695284e-01 -2.190309435724e-01 0.0 
1.550655294370e-01 -2.083608885071e-01 0.0 
1.420175803448e-01 -1.926269127035e-01 0.0 
1.394349929147e-01 -1.926210509300e-01 0.0 
1.504543493116e-01 -2.086067556475e-01 0.0 
1.355264195511e-01 -1.932509096607e-01 0.0 
1.255072669006e-01 -1.789214164825e-01 0.0 
1.221147435429e-01 -1.808605692161e-01 0.0 
1.313835386492e-01 -1.947090917134e-01 0.0 
1.176923327066e-01 -1.838173753359e-01 0.0 
2.175755590643e-03 -2.182107301892e-02 0.0 
1.796797187570e-01 -2.327186101995e-01 0.0 
1.249887283597e-01 -2.332874284991e-02 0.0 
4.289475435826e-03 -3.545386355360e-02 0.0 
4.767360580923e-02 -5.395552940937e-02 0.0 
5.716263475851e-02 -1.307268410721e-05 0.0 
5.259740606214e-02 1.993189007219e-03 0.0 
5.509399313183e-02 4.786194461555e-03 0.0 
4.813195993058e-02 3.516620341030e-03 0.0 
4.478187407519e-02 8.934312241462e-04 0.0 
4.107995624980e-02 2.189871496656e-03 0.0 
4.381338173228e-02 4.662978720364e-03 0.0 
3.742413372276e-02 3.109905863288e-03 0.0 
3.964403686806e-02 5.460781884089e-03 0.0 
3.377897226325e-02 3.764697509880e-03 0.0 
3.112343044153e-02 1.611775653556e-03 0.0 
2.801809438746e-02 2.169152605364e-03 0.0 
3.011783850354e-02 4.272621084988e-03 0.0 
2.478438212526e-02 2.653286962579e-03 0.0 
2.641802192804e-02 4.715947813980e-03 0.0 
2.142445076952e-02 3.129577619818e-03 0.0 
1.968087697013e-02 1.237349506997e-03 0.0 
8.729882605496e-02 -1.296768291404e-01 0.0 
4.823540273938e-02 -7.188672777486e-02 0.0 
3.765862162514e-02 -5.586740305503e-02 0.0 
-2.758037558866e-03 -7.373662912798e-02 0.0 
-1.895877146392e-02 -6.190053025457e-02 0.0 
-1.505351243265e-02 -6.524387048316e-02 0.0 
-2.406761106910e-02 -5.749886718451e-02 0.0 
1.660345841478e-02 1.772425953074e-03 0.0 
1.491919944536e-02 1.013005211316e-04 0.0 
1.802354421308e-01 -2.275987639099e-01 0.0 
1.818005712724e-01 -2.103867103610e-01 0.0 
6.181320528903e-02 -2.589760321884e-03 0.0 
1.643293415759e-03 -2.976514768041e-02 0.0 
-2.711855446695e-03 -3.545160155076e-02 0.0 
1.723717970939e-01 -1.122353095101e-01 0.0 
1.659856968377e-01 -9.540372296948e-02 0.0 
1.685379214683e-01 -1.128184511253e-01 0.0 
1.741035230362e-01 -9.995557962013e-02 0.0 
1.666616639640e-01 -8.129971931073e-02 0.0 
1.794086690739e-01 -1.210530177131e-01 0.0 
3.668502971515e-02 -7.938926406373e-02 0.0 
2.506144587146e-02 2.530330086040e-04 0.0 
8.221066608773e-02 -1.663255373290e-01 0.0 
9.357065104229e-02 -1.730218687280e-01 0.0 
4.672182415754e-03 -2.503540176987e-02 0.0 
5.812686416843e-02 -8.753582551389e-02 0.0 
1.851256216400e-01 -9.189671646646e-02 0.0 
1.297601597158e-01 -6.493668835238e-02 0.0 
1.235772507770e-01 -5.454254413808e-02 0.0 
1.269442552261e-01 -6.315933962048e-02 0.0 
1.197718144298e-01 -5.315012341128e-02 0.0 
9.621808840075e-02 -4.491470303791e-02 0.0 
1.032844693210e-01 -5.404263710453e-02 0.0 
6.421900643266e-02 -4.564489513095e-02 0.0 
8.119490380405e-02 -4.080547979201e-02 0.0 
1.823388633331e-02 3.679183299785e-03 0.0 
9.837064116056e-02 -8.881177533690e-02 0.0 
1.127397440570e-01 -1.671714689356e-01 0.0 
1.005035496160e-01 -1.465477136695e-01 0.0 
1.258776265278e-01 -1.981113341983e-01 0.0 
6.654573965501e-02 -1.081957945821e-01 0.0 
4.536221673278e-02 -9.164565256999e-02 0.0 
5.844447537839e-03 -3.251875058138e-02 0.0 
8.761743761342e-02 -3.646021627174e-02 0.0 
1.098365042504e-01 -4.442493508928e-02 0.0 
2.114879208858e-01 -9.963153575602e-02 0.0 
1.945638338639e-01 -7.651310607273e-02 0.0 
5.279436386491e-02 -4.092166112722e-02 0.0 
6.837753575680e-02 6.406218457160e-03 0.0 
4.548105208508e-02 7.176805549749e-03 0.0 
4.102626085068e-02 7.840802544802e-03 0.0 
8.827427331958e-02 -1.291316308416e-01 0.0 
1.401143903984e-01 -2.087803263090e-01 0.0 
3.696901421837e-02 -1.257261346388e-04 0.0 
1.674360042182e-01 -1.950522968762e-01 0.0 
1.820704934052e-01 -1.939663538718e-01 0.0 
1.893068279788e-01 -2.408615340363e-01 0.0 
1.877086656823e-01 -2.382379960138e-01 0.0 
1.235514643046e-02 6.770838359295e-04 0.0 
1.072347027380e-02 -7.068539086448e-04 0.0 
-1.797733050692e-02 -5.343989430162e-02 0.0 
-2.180843852332e-02 -5.377138350616e-02 0.0 
1.496531170468e-02 -4.286226995428e-02 0.0 
1.117782896608e-01 -1.882804028297e-01 0.0 
1.262684857874e-02 -1.287130215641e-03 0.0 
4.789459199318e-02 -8.000682788234e-02 0.0 
5.771886669697e-02 -9.525823090073e-02 0.0 
-1.895690657370e-02 -5.410509343672e-02 0.0 
2.196029749624e-01 -2.421409193138e-01 0.0 
2.100590330666e-01 -2.571486329008e-01 0.0 
1.149867117124e-01 -1.651743128864e-01 0.0 
1.045127937084e-01 -1.750222669261e-01 0.0 
4.260893012290e-02 -8.626715421448e-02 0.0 
7.353004384142e-03 -2.834117575056e-02 0.0 
3.979921463322e-02 -1.629681726309e-03 0.0 
8.833640188821e-02 -4.914614772855e-02 0.0 
1.092295173891e-01 -6.331006542742e-02 0.0 
6.700222989758e-02 -3.577947296134e-02 0.0 
1.186334174996e-01 -2.013159769064e-01 0.0 
1.634353642711e-04 -2.429921336129e-02 0.0 
2.557145097350e-03 -3.143257221024e-02 0.0 
7.852205689837e-02 -3.026453099052e-02 0.0 
9.729182466907e-02 -3.737764496270e-02 0.0 
1.678164484873e-01 -1.783699155889e-01 0.0 
1.828139760033e-01 -1.728366897120e-01 0.0 
2.305458333851e-01 -2.093485930583e-01 0.0 
2.336264336962e-01 -1.820676667168e-01 0.0 
1.091670439314e-01 -7.663024242802e-03 0.0 
1.689154066363e-01 -1.578921288554e-01 0.0 
1.322927955800e-01 -2.591813660641e-02 0.0 
1.216245271381e-01 -1.989801090908e-02 0.0 
1.302068970816e-01 -1.745972475808e-02 0.0 
1.587903009510e-01 -6.526702226647e-02 0.0 
1.768556786045e-01 -5.555446264943e-02 0.0 
1.667684313326e-01 -1.960191604322e-01 0.0 
1.107510237075e-01 -1.184387324473e-01 0.0 
-5.227413500029e-03 -6.348197446106e-02 0.0 
-2.750363185487e-03 -3.521338689057e-02 0.0 
5.040071435058e-02 -9.594704687881e-02 0.0 
2.737402893640e-02 -3.112039276076e-04 0.0 
2.107890476208e-02 -1.339338043820e-03 0.0 
3.154746439707e-02 6.467068555156e-03 0.0 
2.753443378909e-02 6.862318344747e-03 0.0 
1.010888133064e-01 -1.674621246311e-01 0.0 
1.068676920745e-01 -1.764730240390e-01 0.0 
3.528865213134e-02 -7.960650923374e-02 0.0 
-1.050500009920e-03 -2.677530645423e-02 0.0 
5.237648814848e-02 -2.653381733915e-03 0.0 
5.627178347237e-02 -5.069932630698e-03 0.0 
6.660578562406e-02 -6.120838424903e-03 0.0 
1.621798888013e-02 -3.741742290692e-02 0.0 
1.438426972094e-01 -1.944151160333e-01 0.0 
7.894827820407e-02 -1.106960679482e-01 0.0 
1.814157097195e-01 -2.339453426505e-01 0.0 
1.389634828085e-01 -8.722254902584e-02 0.0 
1.157578241149e-01 -1.695232686684e-01 0.0 
1.524029342044e-01 -5.414192609997e-02 0.0 
5.753837298458e-03 -2.551676815712e-02 0.0 
5.917375014333e-03 -2.014909803274e-02 0.0 
4.799804125964e-02 -3.230282752040e-02 0.0 
9.779911347547e-02 2.582865369343e-03 0.0 
1.382830030516e-01 -9.416302745930e-02 0.0 
1.379665927786e-01 -1.063973000027e-01 0.0 
1.331239777868e-01 -1.997702193048e-02 0.0 
1.632422250250e-01 -1.813369249962e-02 0.0 
1.393270479700e-01 -3.125739137044e-02 0.0 
1.942716678529e-01 -4.041320048705e-02 0.0 
1.030935794922e-01 -1.540843821657e-01 0.0 
1.010941495036e-01 -1.575005543902e-01 0.0 
6.223369959795e-02 -2.482543660932e-02 0.0 
5.948580278445e-02 -2.871665442550e-02 0.0 
6.742239548132e-02 -2.463733788190e-02 0.0 
8.463145672473e-02 -2.987697550969e-02 0.0 
3.778884448001e-02 -2.776435070917e-02 0.0 
4.239455528934e-02 -3.614109243728e-02 0.0 
2.207873743659e-02 -6.646300143795e-02 0.0 
2.495196291531e-01 -7.833804479181e-02 0.0 
3.116856306810e-02 -2.149489789873e-03 0.0 
1.137696652490e-01 -1.153498244200e-02 0.0 
-2.040295087800e-03 -1.873885953866e-02 0.0 
-2.765038701575e-03 -2.116037562914e-02 0.0 
1.837126355810e-01 -2.385975660084e-01 0.0 
1.752696228933e-01 -2.358672723952e-01 0.0 
8.614150828720e-03 -1.696762207659e-03 0.0 
2.880330987397e-01 -2.220450604054e-01 0.0 
2.959664389339e-01 -1.909137772414e-01 0.0 
2.763784549342e-01 -2.470474513403e-01 0.0 
2.187627576930e-03 -1.201793152526e-02 0.0 
7.570010028167e-03 8.925608208960e-03 0.0 
6.440028007514e-03 -1.937864001122e-02 0.0 
1.516684460571e-01 -4.896583300796e-02 0.0 
9.764632145102e-03 -2.332768565969e-03 0.0 
1.151651520856e-01 -8.459215699413e-02 0.0 
1.724275589707e-01 -1.304581011651e-01 0.0 
2.609708542316e-02 -5.359491017351e-02 0.0 
6.821968603836e-03 -1.020777469921e-03 0.0 
5.222165182117e-03 -1.596412300001e-03 0.0 
4.630578805251e-02 9.588247282087e-03 0.0 
4.182923505455e-02 1.017485002062e-02 0.0 
5.115613163420e-02 8.826389429702e-03 0.0 
1.889375956049e-01 -2.409192470088e-01 0.0 
2.035873116499e-01 -2.529206325068e-01 0.0 
1.938706387979e-02 -9.046426178392e-04 0.0 
1.845696335913e-02 -8.928458940343e-02 0.0 
-5.427594830246e-03 -5.826684030486e-02 0.0 
1.001079495540e-01 -1.799614141808e-01 0.0 
9.321547392735e-02 -1.685548372821e-01 0.0 
-8.776047664407e-03 -4.816955822618e-02 0.0 
5.271727931767e-03 -6.086479719995e-02 0.0 
1.641026235473e-01 -6.624196561148e-02 0.0 
1.542722409133e-01 -5.954191084738e-02 0.0 
1.809092043418e-01 -8.192588294589e-02 0.0 
4.773392218013e-02 -8.669037590279e-02 0.0 
5.797656380811e-02 -1.012787352528e-01 0.0 
6.733133011122e-02 -1.096866926708e-01 0.0 
2.253358558013e-02 -1.787846431967e-03 0.0 
1.560952836877e-02 -2.483632071753e-03 0.0 
1.038943476763e-01 -1.522497652038e-01 0.0 
1.160904596831e-01 -1.646724060299e-01 0.0 
9.342868289374e-02 -1.459582589380e-01 0.0 
3.293942097225e-02 -4.034474824827e-03 0.0 
5.359595824572e-03 -1.464417054273e-02 0.0 
4.612738862533e-03 -1.639246006237e-02 0.0 
1.213959437393e-01 -1.781812328935e-01 0.0 
1.135453223703e-01 -1.854684691163e-01 0.0 
2.451213100741e-01 -2.707654700566e-01 0.0 
2.236696703760e-01 -2.749260556591e-01 0.0 
6.082359534704e-02 -8.719676664427e-03 0.0 
7.192594761826e-02 -1.099856725232e-02 0.0 
4.839336522747e-02 -7.219168919596e-03 0.0 
1.914590592102e-02 -6.403001414366e-02 0.0 
9.380123230069e-02 -5.790234549464e-02 0.0 
9.262152663587e-03 -2.389834092253e-02 0.0 
1.777917037624e-02 -3.211183871290e-02 0.0 
2.931942926326e-03 -1.573746265666e-02 0.0 
5.975566054258e-02 -3.719910923636e-02 0.0 
4.218659006987e-02 -2.511821768582e-02 0.0 
4.606838052482e-02 -2.349843572363e-02 0.0 
1.919081335259e-01 -2.440450412978e-01 0.0 
3.832286907962e-03 -1.263728847853e-03 0.0 
3.248631781570e-02 8.693820653709e-03 0.0 
1.884314403581e-01 -2.428144000513e-01 0.0 
2.824360731997e-02 9.116649036572e-03 0.0 
2.362259857710e-02 7.307282885880e-03 0.0 
2.461241578029e-02 9.636586152064e-03 0.0 
3.507279179606e-02 -8.534099534532e-02 0.0 
5.163849279800e-02 1.165984164338e-02 0.0 
5.691226211983e-02 1.046111015451e-02 0.0 
1.322692831359e-01 -1.895494437662e-01 0.0 
2.338343014496e-02 -3.584658118946e-03 0.0 
1.287624894967e-01 -1.708333490567e-01 0.0 
1.233831276738e-01 -1.627632103346e-01 0.0 
-2.101466034346e-03 -1.473008535858e-02 0.0 
-2.484060067574e-03 -1.744472260311e-02 0.0 
-1.480365468873e-03 -1.156683649837e-02 0.0 
-1.411967239533e-03 -1.475726099731e-02 0.0 
-2.075708057073e-03 -1.964449024795e-02 0.0 
-4.102093424052e-04 -1.699869057747e-02 0.0 
3.781694541879e-02 1.083087725244e-02 0.0 
2.950270117425e-05 -1.136313560022e-02 0.0 
1.382688834075e-03 -1.471729517412e-02 0.0 
1.358528995547e-03 -8.935404049036e-03 0.0 
2.427798013653e-01 -2.860115475534e-02 0.0 
2.346624507317e-01 -1.538913047258e-01 0.0 
2.986545187397e-01 -1.619056289713e-01 0.0 
3.263871564673e-01 -1.792733258831e-01 0.0 
4.971262594625e-02 -1.620000116190e-02 0.0 
7.263069356722e-02 -2.295700951986e-02 0.0 
3.260167039815e-03 -3.324386769860e-02 0.0 
-2.386321805693e-03 -4.090159783065e-02 0.0 
1.962873065586e-02 7.929375362326e-03 0.0 
1.440353942876e-02 7.511873652189e-03 0.0 
1.559182656217e-02 5.773354622726e-03 0.0 
1.127993861964e-02 5.648486184670e-03 0.0 
1.211127731015e-02 3.990611643897e-03 0.0 
7.801878292391e-03 3.971087436901e-03 0.0 
9.220806598346e-03 2.455032672476e-03 0.0 
3.779936712831e-02 -1.710986485061e-02 0.0 
2.889879698026e-01 -2.386512435030e-01 0.0 
1.660570380603e-01 -1.048300614676e-02 0.0 
2.774967617435e-02 -2.259008100849e-02 0.0 
3.348544312790e-02 -3.153396778069e-02 0.0 
2.245909575813e-01 -5.675540310182e-02 0.0 
3.021113916909e-01 -7.645790858931e-02 0.0 
-1.033518051617e-03 -1.422803209026e-02 0.0 
1.680402499483e-01 -1.711150208058e-01 0.0 
2.240884414309e-02 -6.804255684658e-03 0.0 
2.080747654652e-01 -2.641404976770e-01 0.0 
2.046050816308e-01 -2.580139893650e-01 0.0 
1.703839595112e-01 -1.516793735831e-01 0.0 
1.572808409290e-01 -3.939028611310e-02 0.0 
2.264746155322e-01 -1.259253962777e-01 0.0 
2.852901840854e-01 -1.310829142858e-01 0.0 
3.703688957930e-02 -7.072948764602e-02 0.0 
1.244307104516e-01 -1.980072301675e-01 0.0 
2.634920533488e-01 -2.615075798402e-01 0.0 
1.347762980743e-02 2.506784257799e-03 0.0 
2.449828460329e-01 -2.662135937648e-01 0.0 
-3.654901688220e-04 -4.195605698210e-02 0.0 
1.693788574444e-01 -1.816132835100e-01 0.0 
1.586284883302e-01 -6.703363751424e-02 0.0 
2.253075757475e-01 -2.280367005530e-01 0.0 
1.822194259121e-01 -1.455123815796e-01 0.0 
1.188032815100e-01 -1.812762825977e-02 0.0 
9.897911807458e-02 -3.725912214758e-04 0.0 
1.030388813257e-01 -5.685807811937e-04 0.0 
1.690769581124e-01 -1.884052692908e-01 0.0 
2.695457916614e-01 -1.029524605571e-01 0.0 
3.315129821330e-01 -1.235770138568e-01 0.0 
1.428637386609e-01 -3.826604944904e-02 0.0 
7.666308638284e-02 -7.823047926756e-03 0.0 
8.275161304845e-02 -1.315083389290e-02 0.0 
7.819326977103e-02 -1.620301324606e-02 0.0 
8.907704436571e-02 -1.963157220272e-02 0.0 
9.334696032434e-02 -1.605094565505e-02 0.0 
1.007058370090e-01 -2.401401311851e-02 0.0 
9.547371704062e-02 -2.862272102386e-02 0.0 
1.085117086262e-01 -3.206185605090e-02 0.0 
8.256460709201e-02 -2.586028830540e-02 0.0 
1.087257601917e-01 -3.487070879961e-02 0.0 
1.216771869945e-01 -3.642174610784e-02 0.0 
1.269036749700e-01 -4.367121765278e-02 0.0 
7.160055736138e-02 -1.887716801309e-02 0.0 
1.332409020546e-01 -4.139038281062e-02 0.0 
2.239150425028e-02 -1.557349104422e-02 0.0 
1.751039195908e-01 -1.465127225811e-01 0.0 
1.968866472698e-01 -2.476703030474e-01 0.0 
2.107173406469e-01 -2.653111825438e-01 0.0 
1.556589948731e-01 -5.200432571473e-02 0.0 
3.475745447380e-02 -1.228641654626e-02 0.0 
4.192000238499e-02 -1.146629888209e-02 0.0 
1.647066681404e-01 -2.025526161172e-01 0.0 
2.262885182553e-02 -7.434934182211e-03 0.0 
1.150428511378e-01 -1.443773943728e-02 0.0 
1.699190945722e-01 -2.290824405832e-01 0.0 
2.030250160920e-02 -7.675441617217e-03 0.0 
8.644653309646e-02 -9.798540226216e-03 0.0 
9.576077296590e-02 -1.197979781465e-02 0.0 
8.829504939127e-02 -6.154678694543e-03 0.0 
3.745028415458e-02 -8.657005772223e-03 0.0 
5.635797308373e-02 7.663853227770e-03 0.0 
1.486102132495e-02 -8.135735138344e-03 0.0 
9.710885423040e-02 -9.960439743986e-02 0.0 
1.134190291969e-01 -1.074563559854e-01 0.0 
1.326131395963e-01 -1.304267899764e-01 0.0 
1.122890003304e-01 -2.710203683657e-02 0.0 
9.812768613655e-03 -9.322887173991e-03 0.0 
1.798665201167e-02 -1.942652140043e-02 0.0 
1.408214372746e-02 -1.889660349112e-02 0.0 
2.576518278931e-02 -3.161881171533e-02 0.0 
5.460140140651e-03 -8.384450928664e-03 0.0 
2.513121634335e-02 -6.151564400655e-03 0.0 
2.295803557267e-02 -6.193715457232e-03 0.0 
1.277956316752e-01 -1.779222483993e-01 0.0 
1.284393231816e-01 -1.780400226303e-01 0.0 
1.159036269129e-01 -1.654412284758e-01 0.0 
1.276318181136e-01 -1.789954424803e-01 0.0 
1.425340257999e-01 -1.932239670474e-01 0.0 
1.416944436444e-01 -1.949166793002e-01 0.0 
1.264209602844e-01 -1.798024115883e-01 0.0 
1.559738328705e-01 -2.113359959459e-01 0.0 
9.255745970223e-02 -2.883813615986e-02 0.0 
1.748554800196e-03 -7.035637246490e-03 0.0 
3.690659031494e-02 -8.086693718627e-02 0.0 
4.917188094043e-02 -9.450574377679e-02 0.0 
6.097810898867e-02 -1.077693468778e-01 0.0 
1.588631410037e-02 -8.212765546701e-02 0.0 
2.522330766225e-02 -7.982652018735e-02 0.0 
1.324327721150e-02 -5.981655389395e-02 0.0 
5.624201282462e-03 -8.428330336804e-02 0.0 
1.326840158920e-01 -7.301069437290e-02 0.0 
4.542835136379e-04 -6.794877220320e-03 0.0 
6.770225698990e-02 -1.028419022005e-01 0.0 
4.526050972116e-02 -9.880384079247e-02 0.0 
6.359961071417e-02 1.376117622258e-02 0.0 
6.857362814820e-02 1.217984024037e-02 0.0 
7.658842926295e-02 7.495726609258e-03 0.0 
7.475716785837e-02 6.313609179114e-03 0.0 
6.226642092033e-02 1.188724708200e-02 0.0 
-1.448846525404e-02 -4.518847472825e-02 0.0 
-1.495514837934e-02 -4.947833228197e-02 0.0 
-1.880186508617e-02 -5.579658372403e-02 0.0 
-1.712187106936e-02 -5.153448676285e-02 0.0 
-1.360750695244e-02 -5.432975263711e-02 0.0 
-1.419132097406e-02 -5.582918243227e-02 0.0 
-1.273132151713e-02 -5.265644904634e-02 0.0 
-7.871893887096e-03 -5.324135491543e-02 0.0 
5.423085181102e-02 1.400973098560e-02 0.0 
1.741862677652e-01 -2.389341427965e-01 0.0 
1.669762309347e-01 -2.349387377132e-01 0.0 
1.578117676068e-01 -2.361735644031e-01 0.0 
1.634808021648e-01 -2.320588090209e-01 0.0 
1.685971898467e-01 -2.321291332948e-01 0.0 
1.608235629623e-01 -2.251556805833e-01 0.0 
1.669043931639e-01 -2.293044044276e-01 0.0 
1.749054452206e-01 -2.365678629116e-01 0.0 
1.617021382306e-01 -2.339603493633e-01 0.0 
1.484969277913e-01 -2.265336912105e-01 0.0 
1.564697524988e-01 -2.224541139139e-01 0.0 
1.424429046533e-01 -2.138510179059e-01 0.0 
1.311590439801e-01 -2.137758904789e-01 0.0 
1.001963684277e-01 -1.807703502097e-01 0.0 
3.095289312880e-03 -7.579707040936e-03 0.0 
-5.046612179466e-03 -4.976789126170e-02 0.0 
-9.153609001213e-03 -4.943814995066e-02 0.0 
-6.211635547149e-03 -4.664781510930e-02 0.0 
-1.296349188086e-02 -5.033467062654e-02 0.0 
-9.965523501853e-03 -5.230429919625e-02 0.0 
-1.687449661494e-03 -4.414697324613e-02 0.0 
-2.188554361544e-03 -4.509028303341e-02 0.0 
7.971979980242e-02 -1.765434931574e-01 0.0 
6.619422515672e-02 -1.527239461272e-01 0.0 
3.159663923892e-02 -1.555299367383e-01 0.0 
4.810176799324e-02 -1.247925821013e-01 0.0 
7.171081411689e-02 -1.356649215950e-01 0.0 
8.901720762813e-02 -1.572675729566e-01 0.0 
1.019612387139e-01 -1.684151998676e-01 0.0 
1.053335864240e-01 -1.786631834699e-01 0.0 
1.194089211740e-01 -1.591896677977e-01 0.0 
1.085742490277e-01 -1.483790549797e-01 0.0 
1.259134737289e-01 -1.695319195063e-01 0.0 
2.974274557533e-03 4.549423032834e-04 0.0 
5.692190350184e-03 -1.535251683066e-04 0.0 
-7.315911978772e-04 -6.741300742724e-03 0.0 
4.336435739668e-02 1.293633483217e-02 0.0 
1.477188899193e-01 -1.965886091854e-01 0.0 
5.996448812108e-03 -2.992755161620e-03 0.0 
1.069725961771e-02 -2.940659428552e-03 0.0 
8.092764394523e-03 -2.783508969349e-03 0.0 
3.535931289888e-03 -2.228462467292e-02 0.0 
5.031586748107e-03 -1.660676962455e-02 0.0 
3.054350701034e-03 -1.398973920500e-03 0.0 
7.197070262195e-02 -1.556802588814e-01 0.0 
8.419678595856e-02 -2.213680031717e-02 0.0 
1.422468776748e-02 -1.811041789489e-03 0.0 
1.810914562173e-01 -2.388715499517e-01 0.0 
9.760531359728e-02 -1.625804205227e-01 0.0 
-3.008808412058e-03 -3.805855796172e-02 0.0 
-4.568616564045e-04 -3.470778965016e-02 0.0 
4.308151436691e-03 -2.091670046279e-02 0.0 
-3.223621552350e-03 -3.359618920918e-02 0.0 
1.177150330719e-04 -2.325664646565e-02 0.0 
9.990242377158e-03 -1.849400685726e-02 0.0 
6.026714108048e-02 -1.082071940655e-01 0.0 
3.557015719283e-02 6.027446941013e-03 0.0 
2.287016752154e-02 5.191624394557e-03 0.0 
2.248848500017e-02 7.451849609611e-04 0.0 
3.861782378731e-02 -1.159751238746e-01 0.0 
-1.962506640218e-02 -5.702474884721e-02 0.0 
9.343969851175e-02 -1.556955313010e-01 0.0 
4.063239859408e-02 -1.539803415276e-02 0.0 
1.396472540129e-01 -3.333387246961e-02 0.0 
6.301474149517e-02 -1.093465071374e-01 0.0 
2.860576931940e-02 -1.046502571450e-01 0.0 
7.583118611463e-02 -1.510040623359e-01 0.0 
1.092776925407e-01 -1.703675148287e-01 0.0 
1.768820664118e-01 -1.279687914856e-01 0.0 
4.966414102279e-02 -9.745121604029e-02 0.0 
2.127916535896e-03 -3.718319198354e-02 0.0 
1.731328933560e-02 -4.380532020585e-04 0.0 
1.416092235280e-01 -1.729162382837e-01 0.0 
3.020465585708e-03 -3.695665360727e-02 0.0 
2.091029925749e-02 -6.236407266952e-02 0.0 
5.015882602239e-02 6.203919606522e-03 0.0 
5.807871335293e-02 -5.958439395643e-02 0.0 
1.450104487841e-01 -2.072247233584e-01 0.0 
3.411249507458e-02 9.001298767834e-04 0.0 
4.564202610479e-02 -4.961993153232e-03 0.0 
6.210518686835e-02 8.935621357480e-03 0.0 
1.099347172973e-01 -1.598548810195e-01 0.0 
3.679394599344e-02 8.356921476709e-03 0.0 
1.581003197474e-03 -2.068417431699e-02 0.0 
7.094282678117e-02 -3.323168583611e-03 0.0 
4.277622571969e-02 -1.034305979702e-01 0.0 
9.004500579072e-02 -1.276589474556e-01 0.0 
1.676988397432e-01 -8.312003656784e-02 0.0 
1.488234680726e-01 1.338404780697e-02 0.0 
1.542508998824e-02 -2.120992450694e-03 0.0 
1.403467184995e-01 -1.146728203331e-01 0.0 
3.713815754266e-02 -4.728214698394e-02 0.0 
6.866394752144e-02 -9.442450929083e-02 0.0 
2.153097697969e-02 -7.554051568215e-02 0.0 
-2.965262806331e-03 -2.300790617891e-02 0.0 
1.284052192122e-01 -1.413611452808e-01 0.0 
2.945034386733e-02 -1.016521276782e-03 0.0 
1.163472233546e-01 -4.563870540790e-02 0.0 
1.274583220872e-01 -1.734039483949e-01 0.0 
4.855613068953e-02 -6.631480853556e-04 0.0 
6.972981617888e-02 -1.175783146267e-01 0.0 
5.611954595638e-02 -5.013655707896e-02 0.0 
1.452994852212e-01 -3.913131080787e-02 0.0 
1.732427508735e-01 -7.621011611332e-02 0.0 
1.409902845083e-01 -4.199728966776e-02 0.0 
1.882336798846e-01 -1.121920517587e-01 0.0 
-1.070114131519e-02 -4.877146365112e-02 0.0 
-1.844792507921e-03 -2.825071511064e-02 0.0 
1.729446991122e-01 -2.256689513795e-01 0.0 
1.695918259921e-01 -1.337569243347e-01 0.0 
6.185023147314e-02 5.793145065559e-03 0.0 
7.358374457211e-02 -3.293717168820e-02 0.0 
2.310730881915e-02 -2.487059675322e-03 0.0 
1.625417662881e-01 -8.038629355903e-02 0.0 
-2.495593606033e-03 -2.425834776397e-02 0.0 
4.275251206989e-02 -3.059177474687e-03 0.0 
3.169527159880e-02 -7.906412095355e-02 0.0 
1.395401464245e-02 -6.905621342024e-02 0.0 
2.052773321113e-01 -2.574195248640e-01 0.0 
1.564053612368e-01 -2.114423434301e-01 0.0 
1.386832650151e-01 -1.289488317545e-01 0.0 
1.822115643636e-02 -6.069790597402e-02 0.0 
6.641528423704e-02 -1.527370891586e-02 0.0 
-1.049005125453e-03 -2.141638849793e-02 0.0 
2.505715000360e-02 -5.913257245777e-02 0.0 
2.165198146735e-01 -2.743759220527e-01 0.0 
1.269237508338e-01 3.598365402312e-03 0.0 
8.767088890585e-04 -1.933118768800e-02 0.0 
7.763686553259e-02 -1.181667741877e-01 0.0 
4.579892334679e-02 -4.492535636940e-02 0.0 
-8.812347057455e-03 -5.425316458920e-02 0.0 
3.879445377770e-02 -1.553784902920e-02 0.0 
2.733841513052e-01 -5.567382012723e-02 0.0 
2.918031998994e-03 -1.770179423005e-02 0.0 
3.751767270581e-02 -6.384939903702e-02 0.0 
1.662834016643e-01 -1.876112608080e-01 0.0 
1.253390347208e-02 9.206591308336e-03 0.0 
2.908827777144e-03 -1.195414836020e-02 0.0 
2.666478127908e-02 -4.671227405287e-02 0.0 
1.352756657100e-01 -7.557996502654e-02 0.0 
7.728528022070e-02 -1.236405457057e-01 0.0 
2.416757533457e-01 -6.938685425005e-03 0.0 
4.469567285325e-03 -4.458114809952e-02 0.0 
1.680765766658e-01 -6.707580018290e-02 0.0 
3.034685417879e-02 -7.221061316603e-03 0.0 
2.730694614438e-02 -4.015381340677e-02 0.0 
9.629974810944e-02 -7.764384615649e-03 0.0 
-7.575413699998e-04 -4.503689442757e-02 0.0 
9.878284303804e-02 -7.835325304988e-02 0.0 
8.768579724536e-02 -1.487375839609e-01 0.0 
2.044332387927e-01 -2.405174003240e-02 0.0 
-7.397388714941e-03 -3.845286353070e-02 0.0 
1.417119810386e-01 -1.960427851115e-01 0.0 
6.797715339724e-02 -1.145478053809e-01 0.0 
3.251000477454e-02 -2.094378498825e-02 0.0 
-7.848226915320e-03 -3.960121651127e-02 0.0 
1.260826038500e-01 -1.782420166633e-01 0.0 
-9.304618595397e-03 -4.179077557792e-02 0.0 
3.094282788216e-01 -3.334902221681e-02 0.0 
1.046651027776e-01 -1.450428664583e-02 0.0 
-9.893542472848e-03 -4.605207312455e-02 0.0 
1.732699036640e-01 -7.365271725808e-02 0.0 
1.183505266755e-01 -1.511114307993e-01 0.0 
1.366083769071e-01 -8.311458418536e-02 0.0 
5.832138993259e-03 -2.525013967899e-02 0.0 
8.392026884053e-02 -1.388447701250e-01 0.0 
5.923470331819e-02 -1.054242490393e-01 0.0 
1.036996566207e-01 -1.913257196487e-02 0.0 
3.441438281725e-01 -7.662955357947e-02 0.0 
4.823565485864e-02 -9.159819983537e-02 0.0 
1.084627214888e-01 -3.940764519324e-02 0.0 
1.134036415090e-01 -7.350663041778e-02 0.0 
1.359634993155e-01 -1.186072414712e-01 0.0 
3.662891308799e-02 -7.593984144542e-02 0.0 
3.170601051631e-01 -9.857009610318e-02 0.0 
8.323442277415e-02 -1.635960499540e-01 0.0 
9.080844574121e-02 -1.733888237712e-01 0.0 
1.151078966105e-01 -1.667425930650e-01 0.0 
1.005935047808e-01 -3.395403053192e-02 0.0 
5.311101567691e-02 -1.124201832326e-01 0.0 
1.229815518347e-01 -3.114022091174e-02 0.0 
1.086577786183e-01 -1.902804354972e-01 0.0 
1.151768611395e-01 -1.666325390587e-01 0.0 
7.748498739511e-02 -5.087174277758e-02 0.0 
3.536387258675e-03 3.425429259889e-03 0.0 
1.017494844204e-01 -1.516879011158e-01 0.0 
5.726178026490e-03 -5.299146826681e-02 0.0 
1.033212059889e-01 -1.516551991420e-01 0.0 
1.148625452060e-01 -9.594200720140e-02 0.0 
9.335384847593e-02 -1.409548182893e-01 0.0 
9.410109743380e-02 -1.427751073015e-01 0.0 
1.062981748314e-02 -2.693512470845e-03 0.0 
8.509158485368e-02 -1.346362657396e-01 0.0 
1.511677182565e-03 -9.282789197666e-04 0.0 
2.016232468969e-03 -6.824768244635e-03 0.0 
4.678127835740e-03 7.238323409406e-03 0.0 
3.472573395366e-01 -1.183334587134e-01 0.0 
1.961141001281e-01 -2.487014031002e-01 0.0 
3.266319962351e-01 -1.518053053482e-01 0.0 
9.114301008562e-02 -1.507644257466e-01 0.0 
1.434280621241e-01 -4.759597998925e-02 0.0 
9.705246131104e-03 7.348885628906e-03 0.0 
8.711578495087e-02 -1.571896926578e-01 0.0 
5.308972476106e-02 -1.253642739160e-02 0.0 
1.684851998982e-02 -7.609946599530e-03 0.0 
6.378506636677e-03 1.012949524421e-03 0.0 
3.636442339249e-02 -3.963702296236e-02 0.0 
9.693641244500e-02 -6.750522382419e-02 0.0 
1.893498600907e-03 -1.090050802813e-03 0.0 
2.870577626397e-02 1.117184257360e-02 0.0 
1.381085612781e-01 -2.013014150939e-01 0.0 
-6.145000827178e-03 -4.841483967436e-02 0.0 
3.169337504239e-01 -1.640027471748e-01 0.0 
3.090661569920e-01 -2.105731418780e-01 0.0 
2.652073125902e-01 -2.576033753025e-01 0.0 
3.553965407973e-03 -5.247738740709e-02 0.0 
1.465776832985e-01 -2.245431067312e-01 0.0 
2.812146878665e-01 -2.150483486296e-01 0.0 
2.157577068663e-02 -1.998487460324e-02 0.0 
4.643745007958e-02 1.168974309129e-02 0.0 
7.426317632075e-02 -4.363412109122e-02 0.0 
2.402633734495e-01 -2.590343221850e-01 0.0 
3.504504166267e-02 -5.009453089732e-03 0.0 
3.313281112455e-02 -1.778108600631e-02 0.0 
-5.452723251935e-04 -5.687204863973e-03 0.0 
5.346383238038e-02 -3.008357124680e-02 0.0 
2.261474455928e-01 -2.740383092226e-01 0.0 
6.722448686738e-02 9.721056495386e-03 0.0 
4.233855577942e-02 -1.533419743613e-02 0.0 
8.730851903088e-03 2.085541139002e-06 0.0 
3.927683349092e-04 -5.565836423609e-03 0.0 
5.695932672819e-02 1.249069845892e-02 0.0 
6.108997641091e-03 -2.288948913336e-03 0.0 
1.724685384075e-01 -2.266981382272e-01 0.0 
3.047905042246e-03 -1.335047693165e-03 0.0 
1.417741850040e-01 -5.204788084925e-02 0.0 
1.962823301412e-02 5.747603768877e-03 0.0 
8.121666897226e-02 3.928945615861e-03 0.0 
4.761550034482e-03 -1.235862641113e-02 0.0 
7.103206907462e-02 -2.300094346627e-02 0.0 
2.158166826883e-01 -2.735199520899e-01 0.0 
1.004721049939e-02 1.285863811750e-03 0.0 
-1.486548361755e-02 -5.607533734716e-02 0.0 
1.820262728628e-01 -2.397421594465e-01 0.0 
-1.507820057372e-03 -1.236130246200e-02 0.0 
8.256667387694e-02 -2.329413350156e-02 0.0 
3.914977512904e-03 -1.158063724485e-02 0.0 
2.188280480516e-02 -1.251332065778e-01 0.0 
1.345558615899e-01 -1.789545634330e-01 0.0 
5.203284428192e-04 -1.268240244577e-02 0.0 
4.489397874021e-02 -1.313857304942e-02 0.0 
1.625811143883e-01 -2.202844193089e-01 0.0 
1.583978132794e-02 -3.743531640742e-03 0.0 
2.099592322666e-01 -2.678034996630e-01 0.0 
3.857953899023e-02 1.286443839323e-02 0.0 
1.311988526604e-01 -1.581096025427e-01 0.0 
1.367807825926e-03 -5.641837162007e-03 0.0 
1.753970823284e-02 -2.582030646458e-03 0.0 
-1.362760747339e-02 -5.226324642611e-02 0.0 
7.743855279309e-02 7.914457266559e-03 0.0 
6.541055712515e-03 -5.037187567529e-02 0.0 
5.369357603892e-02 -2.343727021872e-02 0.0 
1.286204798638e-01 -2.054092774305e-01 0.0 
1.110195502455e-02 -2.667619952147e-03 0.0 
5.351507398261e-03 -1.437035496731e-02 0.0 
5.533951162159e-02 -1.149770261766e-02 0.0 
9.504994336271e-03 -6.447872352832e-03 0.0 
1.984958633808e-01 -2.507944307302e-01 0.0 
2.994905127082e-02 -1.465694307056e-02 0.0 
1.874859385430e-02 -2.791933893109e-02 0.0 
2.173205067858e-02 1.035393131856e-02 0.0 
6.998064999866e-02 -1.812467338230e-02 0.0 
-6.204684971742e-03 -4.947794328423e-02 0.0 
1.024704320531e-01 -1.401085270874e-01 0.0 
6.367112015081e-04 -7.708684330050e-04 0.0 
2.315548821419e-02 -1.802249688527e-01 0.0 
3.697867194025e-03 9.065194183454e-03 0.0 
8.608427586949e-04 -5.500900971429e-03 0.0 
7.134807181754e-02 -1.288751290524e-01 0.0 
7.650804626833e-03 5.867417594174e-03 0.0 
4.543026291605e-02 -1.215365088470e-02 0.0 
-3.716491800804e-03 -5.387319655836e-02 0.0 
4.321651687883e-03 -8.157472743247e-04 0.0 
1.521535964503e-01 -2.177720846363e-01 0.0 
1.889509342312e-01 -2.440994283435e-01 0.0 
6.083573966416e-03 2.615552485514e-03 0.0 
2.801269070843e-02 -1.626386365521e-02 0.0 
3.712845927622e-02 -6.840099740961e-03 0.0 
1.574810710969e-02 4.346507830424e-03 0.0 
2.143936653572e-01 -2.659212134049e-01 0.0 
6.494792283043e-02 -1.839863850504e-02 0.0 
-1.493865668944e-02 -5.482366214210e-02 0.0 
5.831629673700e-02 -2.199927614186e-02 0.0 
2.742126721945e-02 -2.886996999938e-02 0.0 
2.103545042358e-01 -2.696484516604e-01 0.0 
-3.324835693763e-03 -5.243971193842e-02 0.0 
1.330377698100e-01 -1.655007567514e-01 0.0 
-7.983002043386e-04 -1.022277843642e-02 0.0 
-1.011088080593e-02 -5.470317896345e-02 0.0 

VECTORS node_materi_displacement float
0.0 7.172517689927e-02 0.0 
0.0 1.629015387850e-01 0.0 
0.0 0.0 0.0 
0.0 0.0 0.0 
0.0 7.231320130914e-02 0.0 
0.0 7.309185693155e-02 0.0 
0.0 7.335885609214e-02 0.0 
0.0 7.306470016416e-02 0.0 
0.0 7.212125534532e-02 0.0 
0.0 7.045913093048e-02 0.0 
0.0 6.809324672318e-02 0.0 
0.0 6.513736384200e-02 0.0 
0.0 6.173687242083e-02 0.0 
0.0 5.791848347844e-02 0.0 
0.0 5.368713713939e-02 0.0 
0.0 4.908779963066e-02 0.0 
0.0 4.412777885473e-02 0.0 
0.0 3.883716228767e-02 0.0 
0.0 3.316708535455e-02 0.0 
0.0 2.715126074868e-02 0.0 
0.0 2.085398128366e-02 0.0 
0.0 1.428710065843e-02 0.0 
0.0 7.363476613114e-03 0.0 
0.0 0.0 0.0 
0.0 0.0 0.0 
0.0 0.0 0.0 
0.0 0.0 0.0 
0.0 0.0 0.0 
0.0 0.0 0.0 
0.0 0.0 0.0 
0.0 0.0 0.0 
0.0 0.0 0.0 
0.0 0.0 0.0 
0.0 0.0 0.0 
0.0 0.0 0.0 
0.0 0.0 0.0 
0.0 0.0 0.0 
0.0 0.0 0.0 
0.0 0.0 0.0 
0.0 0.0 0.0 
0.0 0.0 0.0 
0.0 0.0 0.0 
0.0 0.0 0.0 
0.0 0.0 0.0 
0.0 0.0 0.0 
0.0 0.0 0.0 
0.0 0.0 0.0 
0.0 0.0 0.0 
0.0 0.0 0.0 
0.0 0.0 0.0 
0.0 0.0 0.0 
0.0 0.0 0.0 
0.0 0.0 0.0 
0.0 0.0 0.0 
0.0 0.0 0.0 
0.0 0.0 0.0 
0.0 0.0 0.0 
0.0 0.0 0.0 
0.0 0.0 0.0 
0.0 0.0 0.0 
0.0 0.0 0.0 
0.0 0.0 0.0 
0.0 0.0 0.0 
0.0 0.0 0.0 
0.0 0.0 0.0 
0.0 0.0 0.0 
0.0 0.0 0.0 
0.0 0.0 0.0 
0.0 0.0 0.0 
0.0 0.0 0.0 
0.0 0.0 0.0 
0.0 0.0 0.0 
0.0 1.482166322027e-01 0.0 
0.0 1.331098150463e-01 0.0 
0.0 1.176028807465e-01 0.0 
0.0 1.017226529111e-01 0.0 
0.0 8.548696071200e-02 0.0 
0.0 6.892707350011e-02 0.0 
0.0 5.207006329672e-02 0.0 
0.0 3.494567611902e-02 0.0 
0.0 1.758671811225e-02 0.0 
-1.994226460042e-03 7.856004981639e-02 0.0 
2.580740696611e-02 1.521094897965e-01 0.0 
1.827040722591e-03 8.896346698018e-02 0.0 
5.902057424345e-03 1.012687134223e-01 0.0 
1.073223568243e-02 1.144403722616e-01 0.0 
1.656992374401e-02 1.274018908706e-01 0.0 
2.277859458306e-02 1.387857057518e-01 0.0 
2.844330133132e-02 1.471444114462e-01 0.0 
3.231160282418e-02 1.527563875827e-01 0.0 
3.363453474995e-02 1.560626883553e-01 0.0 
3.181428756404e-02 1.566109378976e-01 0.0 
1.604660814447e-03 1.629809369935e-01 0.0 
3.146511050490e-03 1.629915903974e-01 0.0 
4.700543474237e-03 1.630623835766e-01 0.0 
6.262997457889e-03 1.631631268372e-01 0.0 
7.830978638823e-03 1.632423408985e-01 0.0 
9.392291795964e-03 1.633151603523e-01 0.0 
1.095122740682e-02 1.633317808950e-01 0.0 
1.249640935863e-02 1.632590463708e-01 0.0 
1.403464200293e-02 1.630359755409e-01 0.0 
1.557088644014e-02 1.626171927942e-01 0.0 
1.710168545814e-02 1.618577729097e-01 0.0 
1.868503879920e-02 1.606454344074e-01 0.0 
2.042740899798e-02 1.588338280180e-01 0.0 
2.256119674262e-02 1.565211314433e-01 0.0 
-8.463540493624e-04 7.274951089211e-02 0.0 
7.256520916177e-04 6.784424415183e-02 0.0 
2.496166466683e-03 6.387600025623e-02 0.0 
4.410972806300e-03 6.088421608456e-02 0.0 
6.212840716348e-03 5.891769602942e-02 0.0 
7.898984371399e-03 5.793084469536e-02 0.0 
9.386095178049e-03 5.787945306363e-02 0.0 
1.057041004582e-02 5.866547696837e-02 0.0 
1.137211054520e-02 6.008880038691e-02 0.0 
1.178656377977e-02 6.189426479869e-02 0.0 
1.187529832935e-02 6.382261186619e-02 0.0 
1.175197271632e-02 6.577986012186e-02 0.0 
1.150440330779e-02 6.762620639429e-02 0.0 
1.063680387288e-02 6.917678643852e-02 0.0 
8.713817887620e-03 6.989580887078e-02 0.0 
7.122176321981e-03 7.049382700864e-02 0.0 
5.437057782181e-03 7.092298514021e-02 0.0 
3.774775600875e-03 7.122737627232e-02 0.0 
1.729850958715e-03 7.161589436353e-02 0.0 
-2.180033065429e-05 8.350343678137e-02 0.0 
3.812102374972e-03 9.494299652097e-02 0.0 
8.228701514221e-03 1.077658329825e-01 0.0 
1.357565751619e-02 1.210442173770e-01 0.0 
1.969135645787e-02 1.336018775899e-01 0.0 
2.588448003734e-02 1.434902783034e-01 0.0 
3.068037861704e-02 1.502157849261e-01 0.0 
3.334313757450e-02 1.546765182977e-01 0.0 
3.317889317324e-02 1.566505633310e-01 0.0 
2.949854790795e-02 1.554537267327e-01 0.0 
9.052402789333e-03 9.318587422710e-02 0.0 
3.120740610305e-03 7.982505537923e-03 0.0 
1.040605228537e-02 6.076916583985e-02 0.0 
6.962968667271e-03 5.922928279912e-02 0.0 
1.548043165089e-03 7.288910190673e-03 0.0 
2.043753240892e-02 1.170526367922e-01 0.0 
-1.326401096513e-04 5.569208754984e-02 0.0 
4.746335207581e-03 8.804593846027e-03 0.0 
3.161065822022e-02 1.359363759116e-01 0.0 
6.168471420993e-03 9.489843032468e-03 0.0 
3.533042384994e-02 1.444412321138e-01 0.0 
6.892590102145e-04 6.356760789336e-03 0.0 
9.705120902903e-03 6.877547691070e-02 0.0 
7.700633714865e-03 1.061079266511e-02 0.0 
2.863518358261e-02 1.414229286989e-01 0.0 
3.260615346925e-04 6.916526319082e-02 0.0 
-2.012526327262e-04 4.254545431534e-02 0.0 
8.927204506457e-03 1.199791951653e-02 0.0 
7.073352816693e-03 1.314243436990e-02 0.0 
1.642116586425e-03 1.496976783593e-02 0.0 
3.206083618492e-03 1.600738842809e-02 0.0 
4.656679615353e-03 1.385389718025e-02 0.0 
2.294943346115e-02 1.445617323904e-01 0.0 
1.521057690618e-02 1.495727790705e-01 0.0 
1.019111866959e-02 1.497017090569e-01 0.0 
1.020618160645e-03 9.340468349950e-02 0.0 
3.512743509335e-04 6.647318441692e-03 0.0 
3.621853902752e-03 6.992666573289e-02 0.0 
5.916923521016e-03 7.122919542225e-02 0.0 
-9.901329645753e-05 2.453931322343e-02 0.0 
5.319497284888e-03 1.504633255211e-01 0.0 
1.202635996958e-03 7.324133737060e-02 0.0 
9.613500631041e-03 1.414252775150e-02 0.0 
5.057541297771e-03 8.414547388980e-03 0.0 
6.837385493725e-03 9.865074746367e-03 0.0 
4.182197822123e-03 8.886407384791e-03 0.0 
2.298060557756e-03 7.290522912376e-03 0.0 
8.950143132931e-03 5.725204930626e-02 0.0 
1.879391531779e-02 1.489002959144e-01 0.0 
1.248489152212e-03 8.056952728577e-03 0.0 
7.824586077954e-04 6.125636807966e-02 0.0 
1.031231245765e-02 6.476746894293e-02 0.0 
8.135149557120e-06 6.338503769249e-02 0.0 
8.053918085318e-04 1.220453483289e-02 0.0 
2.667092435714e-02 1.269300653871e-01 0.0 
1.427306129264e-02 1.049775288606e-01 0.0 
3.473335530046e-02 1.412934399886e-01 0.0 
3.319190341313e-02 1.448196010134e-01 0.0 
4.261177749667e-03 8.275882809640e-02 0.0 
1.221242701190e-03 1.235624699255e-01 0.0 
1.542461567958e-04 5.155985955475e-03 0.0 
2.515540793692e-03 7.203360012150e-02 0.0 
4.336190253539e-04 2.758718178738e-02 0.0 
2.781930633439e-02 1.374434052043e-01 0.0 
3.019001820702e-02 1.281782351618e-01 0.0 
2.820521745037e-02 1.257619458316e-01 0.0 
3.073548519479e-02 1.150328742608e-01 0.0 
2.878896633526e-02 1.104506216193e-01 0.0 
3.052642678166e-02 1.012373235422e-01 0.0 
3.262111985103e-02 1.053229608149e-01 0.0 
3.189854667072e-02 9.209272496498e-02 0.0 
3.407589765450e-02 9.597346381101e-02 0.0 
2.815504822272e-02 9.611242849057e-02 0.0 
3.288517571096e-02 8.313428107016e-02 0.0 
3.514694711472e-02 8.687427156606e-02 0.0 
3.351862133849e-02 7.441965402694e-02 0.0 
3.585979993577e-02 7.803781240866e-02 0.0 
3.708406583620e-02 8.990340466872e-02 0.0 
3.787877911128e-02 8.103640303844e-02 0.0 
3.868086013376e-02 9.223338268331e-02 0.0 
3.955320581908e-02 8.335451651336e-02 0.0 
3.836662645688e-02 7.249940306112e-02 0.0 
4.011911938294e-02 7.485955756251e-02 0.0 
4.087317792969e-02 8.504487793083e-02 0.0 
4.150314282379e-02 7.662495200646e-02 0.0 
4.181920312542e-02 8.611320802604e-02 0.0 
4.247817705270e-02 7.773607381870e-02 0.0 
4.235558503705e-02 8.651253205150e-02 0.0 
4.289773489160e-02 7.796911118106e-02 0.0 
4.270759313872e-02 6.959659955594e-02 0.0 
4.300347969649e-02 6.983020331763e-02 0.0 
4.272122687119e-02 7.737152161661e-02 0.0 
4.273180895685e-02 6.938853317820e-02 0.0 
4.201677535509e-02 7.615671949435e-02 0.0 
4.196119771021e-02 6.845163286152e-02 0.0 
4.209574185421e-02 6.221266062089e-02 0.0 
4.114174394711e-02 6.173029514124e-02 0.0 
4.074628991235e-02 6.717132046600e-02 0.0 
3.974064840959e-02 6.099419473586e-02 0.0 
3.913160682586e-02 6.566204625927e-02 0.0 
3.793883928175e-02 6.008447939209e-02 0.0 
3.716643129999e-02 6.400881498792e-02 0.0 
3.578050390939e-02 5.907953020130e-02 0.0 
3.492627485472e-02 5.637791971471e-02 0.0 
3.272068393852e-02 5.592577071936e-02 0.0 
3.333364428958e-02 5.806089690023e-02 0.0 
3.027752656136e-02 5.547244483206e-02 0.0 
2.890183478724e-02 5.380088402976e-02 0.0 
2.661046811292e-02 5.377750484839e-02 0.0 
2.513013260296e-02 5.197671085399e-02 0.0 
2.303383289381e-02 5.230965987114e-02 0.0 
2.418825929439e-02 5.377277046702e-02 0.0 
2.081294365925e-02 5.263670608409e-02 0.0 
1.976241391090e-02 5.084173349013e-02 0.0 
1.773357150659e-02 5.148189999735e-02 0.0 
1.851193223818e-02 5.299941355940e-02 0.0 
1.563886967417e-02 5.211510692207e-02 0.0 
1.493710662810e-02 5.027416677790e-02 0.0 
1.302234373517e-02 5.117452689079e-02 0.0 
1.352130891415e-02 5.277808120126e-02 0.0 
1.109224342707e-02 5.207870268146e-02 0.0 
1.065231811424e-02 5.014610280805e-02 0.0 
8.883755719975e-03 5.131202895425e-02 0.0 
9.193992987366e-03 5.303834585181e-02 0.0 
7.171217222121e-03 5.251282510350e-02 0.0 
6.894071866946e-03 5.045288038346e-02 0.0 
5.351697206938e-03 5.191866557222e-02 0.0 
5.124233082830e-03 4.950361537153e-02 0.0 
5.577846762712e-03 5.386533661903e-02 0.0 
3.963201243895e-03 5.351374883903e-02 0.0 
4.231750345527e-03 5.543559716338e-02 0.0 
2.839098205521e-03 5.532233816428e-02 0.0 
3.936274921470e-02 5.692675733289e-02 0.0 
3.258176621479e-03 5.726755592154e-02 0.0 
4.605703962991e-03 5.699203110176e-02 0.0 
2.080265596136e-03 5.740079343346e-02 0.0 
1.651058305561e-03 5.507975277335e-02 0.0 
2.680794962585e-03 5.938657135279e-02 0.0 
1.693134854845e-03 5.973340431092e-02 0.0 
2.471043427337e-03 6.173472096473e-02 0.0 
3.732397193910e-02 7.048189085971e-02 0.0 
3.857663005456e-02 6.429564113641e-02 0.0 
1.619843696304e-03 6.223032132360e-02 0.0 
2.522983832243e-03 6.417571650430e-02 0.0 
3.407992174080e-03 6.340992311154e-02 0.0 
3.589986280025e-03 6.577022604799e-02 0.0 
2.650120130789e-02 1.051589042402e-01 0.0 
2.554256571486e-02 9.020446541427e-02 0.0 
2.405132935285e-02 9.905863025549e-02 0.0 
2.274427514600e-02 8.365979937898e-02 0.0 
2.144738869465e-02 9.215926562176e-02 0.0 
2.713873667475e-03 6.656058074212e-02 0.0 
3.085978699554e-02 6.972092876519e-02 0.0 
2.373443380274e-02 7.497836374904e-02 0.0 
4.083389817389e-02 9.490580484889e-02 0.0 
4.166625001569e-02 8.452147693415e-02 0.0 
2.703685722411e-02 5.160759670317e-02 0.0 
8.862236827005e-04 5.989303585569e-02 0.0 
9.192325988327e-04 6.248795831863e-02 0.0 
2.971322839860e-04 5.979527687284e-02 0.0 
6.572886257723e-03 4.786521534562e-02 0.0 
4.889124906733e-03 4.656358554533e-02 0.0 
6.197317598269e-03 4.470139429219e-02 0.0 
4.631925753777e-03 4.304993620249e-02 0.0 
5.761510715867e-03 4.092382746268e-02 0.0 
4.343989138415e-03 3.892011232936e-02 0.0 
3.340860618291e-03 4.124157581157e-02 0.0 
3.196855820943e-03 3.675810445922e-02 0.0 
2.319883936718e-03 3.925970155024e-02 0.0 
5.261201150340e-03 3.649814815359e-02 0.0 
6.794502497073e-03 3.870030629071e-02 0.0 
2.296303784936e-03 3.444291552563e-02 0.0 
1.542862093699e-03 3.710700001421e-02 0.0 
1.609176738738e-03 3.198783131910e-02 0.0 
9.717703227947e-04 3.480963333025e-02 0.0 
7.928688015971e-04 3.971779228746e-02 0.0 
3.456312767698e-04 3.758055388906e-02 0.0 
1.214983609951e-04 4.232622253580e-02 0.0 
2.340123238198e-02 4.947473605518e-02 0.0 
2.490726157255e-02 4.866674136465e-02 0.0 
2.140886779599e-02 4.625191034608e-02 0.0 
2.248169758224e-02 4.496414192088e-02 0.0 
1.916446703878e-02 4.226515220427e-02 0.0 
1.978334367579e-02 4.045917200251e-02 0.0 
1.666364379943e-02 3.749216162848e-02 0.0 
1.615115691732e-02 3.958465300422e-02 0.0 
3.385399731451e-02 6.582165853762e-02 0.0 
3.066986848600e-02 5.709982439717e-02 0.0 
3.235046334431e-02 6.069994877838e-02 0.0 
2.964618467972e-02 5.916194149073e-02 0.0 
3.015310430107e-02 6.361968283182e-02 0.0 
2.744121475723e-02 6.155494461903e-02 0.0 
2.719339050629e-02 6.651481983150e-02 0.0 
2.445721222240e-02 6.401710478617e-02 0.0 
2.465981739522e-02 5.969687967715e-02 0.0 
2.171755523752e-02 6.174648705729e-02 0.0 
2.183836254894e-02 5.810191454282e-02 0.0 
1.901180274263e-02 5.974338755466e-02 0.0 
1.902239923261e-02 5.682052807596e-02 0.0 
4.243381318532e-02 6.190707002543e-02 0.0 
2.320931978205e-02 4.345253508824e-02 0.0 
2.001205887480e-02 3.836618380753e-02 0.0 
2.351870002372e-02 4.165231226480e-02 0.0 
4.498644073345e-03 6.478131099644e-02 0.0 
5.605348955713e-04 3.239416476885e-02 0.0 
6.041269259934e-03 3.393627307977e-02 0.0 
7.684678198130e-03 3.638850370033e-02 0.0 
1.383668169190e-02 3.453599045773e-02 0.0 
3.863718278146e-03 6.801138675269e-02 0.0 
2.365930021222e-02 6.928710398551e-02 0.0 
2.640125705821e-02 7.237985901736e-02 0.0 
1.985144572366e-02 7.636316454078e-02 0.0 
1.877955967988e-02 8.461679565660e-02 0.0 
6.640758210681e-03 3.121458303511e-02 0.0 
2.948505772278e-03 6.878593408277e-02 0.0 
2.987726397729e-03 3.167387385739e-02 0.0 
1.821663991033e-02 6.382104503050e-02 0.0 
4.626123280446e-05 3.532457304271e-02 0.0 
2.891945404254e-04 2.986940829282e-02 0.0 
2.315475394984e-03 4.349684513469e-02 0.0 
1.979628441183e-02 3.593874225208e-02 0.0 
2.342350028041e-02 3.959803571305e-02 0.0 
2.104679957841e-02 5.573693247728e-02 0.0 
1.817724635205e-02 5.510094096285e-02 0.0 
1.628853025207e-02 5.586663535005e-02 0.0 
1.544052933659e-02 5.466273221029e-02 0.0 
1.634202858239e-02 5.453258572296e-02 0.0 
1.372421050905e-02 5.473727900784e-02 0.0 
1.301416501701e-02 5.483886334313e-02 0.0 
1.149544992568e-02 5.527161374736e-02 0.0 
1.167219317351e-02 5.521386179563e-02 0.0 
9.736603396539e-03 5.606022505029e-02 0.0 
9.778786895110e-03 5.623983380859e-02 0.0 
8.340954782860e-03 5.731899616538e-02 0.0 
7.293632871598e-04 2.673398527148e-02 0.0 
1.563877655886e-02 6.148521768661e-02 0.0 
3.746996225876e-02 1.014565824512e-01 0.0 
5.174462904052e-03 2.847649682924e-02 0.0 
1.395324360123e-02 3.199405123700e-02 0.0 
1.692698549872e-02 6.849040052700e-02 0.0 
1.609697191522e-02 7.655680032298e-02 0.0 
1.748694043895e-02 9.278517977158e-02 0.0 
1.505104237328e-02 8.451410020112e-02 0.0 
1.345275077045e-02 6.807469311097e-02 0.0 
1.265806941840e-02 7.592397822495e-02 0.0 
1.386162584639e-02 9.233028628802e-02 0.0 
1.170236436280e-02 8.364348208944e-02 0.0 
1.258862694826e-02 9.995819438329e-02 0.0 
1.063755815296e-02 9.121020008452e-02 0.0 
9.620241567683e-03 7.472689668075e-02 0.0 
8.752989644189e-03 8.229080722046e-02 0.0 
9.503837133280e-03 9.863709879086e-02 0.0 
7.786698636347e-03 8.973457305658e-02 0.0 
8.326309700766e-03 1.059177611328e-01 0.0 
6.745475225453e-03 9.705881376916e-02 0.0 
6.164201257325e-03 8.070905346694e-02 0.0 
4.093770940375e-03 6.996500062398e-02 0.0 
1.343237352028e-02 3.692246133374e-02 0.0 
1.130509809912e-02 3.158546925118e-02 0.0 
4.047537551257e-04 6.239028296943e-02 0.0 
-7.434803475417e-05 5.936202715834e-02 0.0 
-1.458191264561e-04 5.667402788019e-02 0.0 
-3.698870307587e-04 5.588246756529e-02 0.0 
5.231340245771e-03 8.816552906174e-02 0.0 
4.667023931492e-03 7.159715443195e-02 0.0 
2.254920867334e-02 7.527615442963e-02 0.0 
2.530340045525e-02 7.895693743687e-02 0.0 
1.747257050336e-02 6.035936888952e-02 0.0 
-1.183261236470e-04 3.295149965725e-02 0.0 
-3.577482733050e-04 3.826486499860e-02 0.0 
4.056057410565e-02 8.253981006281e-02 0.0 
3.984238068391e-02 9.124078936451e-02 0.0 
3.837965644387e-02 8.856493323898e-02 0.0 
3.727031327346e-02 9.765375512293e-02 0.0 
3.872339210515e-02 1.005655327617e-01 0.0 
3.548349796004e-02 9.426834694728e-02 0.0 
8.616273097291e-03 4.084693768143e-02 0.0 
7.659056346077e-03 6.564745281538e-02 0.0 
4.358349315355e-03 6.247792881170e-02 0.0 
5.431548074385e-03 6.363824696689e-02 0.0 
1.076837975491e-04 2.727041481497e-02 0.0 
1.533585554177e-02 4.147948798494e-02 0.0 
4.170080184125e-02 6.080474879933e-02 0.0 
3.944749644806e-02 5.454083546204e-02 0.0 
3.826052643210e-02 5.255481260530e-02 0.0 
3.432365695936e-02 4.759335737704e-02 0.0 
3.261262230419e-02 4.478517394429e-02 0.0 
2.829335409317e-02 4.020389429246e-02 0.0 
2.995045447091e-02 4.316860654766e-02 0.0 
1.908240955398e-02 3.309336549728e-02 0.0 
2.418072285665e-02 3.567346742263e-02 0.0 
5.738106679180e-03 1.044210543568e-01 0.0 
2.696201935780e-02 4.653826588613e-02 0.0 
9.639834961016e-03 5.575443778030e-02 0.0 
5.064736274625e-03 6.899536583588e-02 0.0 
8.743836125547e-03 5.769221016755e-02 0.0 
3.147505091191e-03 7.076275240480e-02 0.0 
2.106128882268e-03 6.928117777540e-02 0.0 
5.461801404814e-03 2.534301935282e-02 0.0 
2.605711070918e-02 3.658713516163e-02 0.0 
3.033709827047e-02 4.135865410424e-02 0.0 
3.637045380541e-02 1.071852842336e-01 0.0 
3.763455455701e-02 1.102365596395e-01 0.0 
1.576840115749e-02 2.932981646906e-02 0.0 
2.226042608178e-02 1.079136670675e-01 0.0 
1.456170709926e-02 1.084869801145e-01 0.0 
1.306101293253e-02 1.159650565891e-01 0.0 
4.454949433154e-03 7.168261449596e-02 0.0 
9.803365344144e-03 5.649482223687e-02 0.0 
1.090984172032e-02 5.928898559034e-02 0.0 
2.906222505982e-02 7.568893488777e-02 0.0 
2.801392389827e-02 8.281837681948e-02 0.0 
1.438681643852e-02 6.576195120292e-02 0.0 
1.204442075718e-02 6.312687922652e-02 0.0 
3.896344975669e-03 7.893423814501e-02 0.0 
3.359807216993e-03 6.237640296144e-02 0.0 
-3.777224857805e-04 5.310581132069e-02 0.0 
-5.313075003703e-04 5.195656095522e-02 0.0 
7.018331429082e-03 2.827832983650e-02 0.0 
7.523038237417e-03 5.893181253198e-02 0.0 
3.888125005265e-03 5.477500784005e-02 0.0 
1.273209087223e-02 3.908082556992e-02 0.0 
1.426662257402e-02 4.320726973249e-02 0.0 
-2.212981743861e-04 5.865436402132e-02 0.0 
2.147326911224e-02 8.167111416949e-02 0.0 
1.858549173185e-02 7.773088284843e-02 0.0 
1.167879014914e-02 5.498394022411e-02 0.0 
6.922228236124e-03 5.835343766859e-02 0.0 
2.191790892585e-03 7.109397247100e-02 0.0 
5.485731257835e-03 2.195866794302e-02 0.0 
1.123079398968e-02 5.143564764847e-02 0.0 
2.585968176921e-02 3.889961796912e-02 0.0 
3.105920318512e-02 4.559360879940e-02 0.0 
2.030026107687e-02 3.131405909334e-02 0.0 
8.197271063025e-03 5.937781232908e-02 0.0 
4.163788362307e-03 2.230616794117e-02 0.0 
-2.023802197709e-04 3.050632069751e-02 0.0 
2.363446494693e-02 3.282093963426e-02 0.0 
2.757249266910e-02 3.738306988125e-02 0.0 
3.159987603197e-02 7.911023010094e-02 0.0 
3.068090907496e-02 8.677146504755e-02 0.0 
2.726707715528e-02 9.035398612326e-02 0.0 
3.001632267065e-02 9.483786030202e-02 0.0 
3.439980751399e-02 1.086304834935e-01 0.0 
3.402443844541e-02 8.251027099523e-02 0.0 
3.867914844371e-02 1.031158464368e-01 0.0 
3.707706412578e-02 1.126819298633e-01 0.0 
3.789889677361e-02 1.136717953902e-01 0.0 
3.967422629586e-02 1.028394561207e-01 0.0 
3.829323847397e-02 1.122746549204e-01 0.0 
3.273089161012e-02 6.588313838019e-02 0.0 
2.870354012045e-02 5.115171547489e-02 0.0 
1.461073192634e-05 5.401055618277e-02 0.0 
6.140872465194e-04 4.413149968414e-02 0.0 
8.024541000241e-03 4.622241725226e-02 0.0 
8.185159379651e-03 5.797856397640e-02 0.0 
6.198279585529e-03 4.874833284747e-02 0.0 
9.956405473029e-03 1.146469016718e-01 0.0 
8.636822410436e-03 1.217435971558e-01 0.0 
5.742867426497e-03 6.585229488301e-02 0.0 
6.665478457278e-03 6.453417306062e-02 0.0 
3.597524400658e-03 4.842572931570e-02 0.0 
3.966230366503e-03 2.563996834153e-02 0.0 
1.432372554033e-02 5.217653352288e-02 0.0 
1.427287119069e-02 4.418102375678e-02 0.0 
1.767562975117e-02 5.219357744184e-02 0.0 
7.121776321633e-03 2.509578197615e-02 0.0 
2.787850539761e-02 5.626179316839e-02 0.0 
2.006607444463e-02 4.738719101717e-02 0.0 
1.325872502729e-02 5.958634639794e-02 0.0 
3.996526249021e-02 5.662671211783e-02 0.0 
7.065499477591e-03 6.661518640174e-02 0.0 
3.638762984905e-02 6.133320370753e-02 0.0 
-3.536530863548e-06 2.460263220432e-02 0.0 
2.658458750583e-04 2.118154085539e-02 0.0 
1.454964348302e-02 2.584631084567e-02 0.0 
3.134743885436e-02 1.310578096255e-01 0.0 
3.585717038902e-02 5.239920688910e-02 0.0 
3.528022959495e-02 5.312007756187e-02 0.0 
3.603807018383e-02 1.234799300717e-01 0.0 
3.671670268352e-02 1.237121434321e-01 0.0 
3.835690668955e-02 1.139617378055e-01 0.0 
3.712180684144e-02 1.232882160401e-01 0.0 
9.534382156808e-03 5.518573111547e-02 0.0 
7.785441108310e-03 5.621676213190e-02 0.0 
1.903719723418e-02 2.730366120825e-02 0.0 
1.827630828714e-02 2.758758237689e-02 0.0 
2.057437207579e-02 2.837136719713e-02 0.0 
2.430078409352e-02 3.282237340837e-02 0.0 
1.149931857675e-02 2.184328927132e-02 0.0 
1.275606558552e-02 2.558249308176e-02 0.0 
1.357731702176e-03 6.939502422036e-02 0.0 
3.685225074645e-02 1.196632375109e-01 0.0 
8.588785890272e-03 4.244314549363e-02 0.0 
3.511915387319e-02 1.226198851617e-01 0.0 
3.113666523218e-03 1.936749466957e-02 0.0 
2.985862282797e-03 2.271433216226e-02 0.0 
1.010688070851e-02 6.097458905961e-02 0.0 
1.126818071159e-02 5.790611487848e-02 0.0 
2.661013050827e-03 4.578669928126e-02 0.0 
2.643881918348e-02 9.843408982497e-02 0.0 
2.932270275672e-02 1.033804059640e-01 0.0 
2.333966193031e-02 9.346358540098e-02 0.0 
7.035885347066e-05 1.093739362022e-02 0.0 
2.320948212892e-03 1.505339393852e-01 0.0 
1.681818057797e-04 1.828911887219e-02 0.0 
4.006657330766e-02 1.040662527603e-01 0.0 
2.892982334096e-03 3.740235249256e-02 0.0 
3.156056752564e-02 4.880501027053e-02 0.0 
3.900278031456e-02 8.025605246464e-02 0.0 
8.859192921385e-03 3.113949849600e-02 0.0 
2.149082209364e-03 5.483166982990e-02 0.0 
1.601135255752e-03 3.599929653713e-02 0.0 
1.478782230360e-02 1.240618339104e-01 0.0 
1.320218240948e-02 1.316020341410e-01 0.0 
1.651111326404e-02 1.167183605817e-01 0.0 
1.703941399704e-02 6.870866504908e-02 0.0 
1.247589752685e-02 7.135014741829e-02 0.0 
5.860534645707e-03 5.643569025314e-02 0.0 
1.047247756280e-03 6.497942658448e-02 0.0 
4.411662535782e-04 6.468627083397e-02 0.0 
6.380435472126e-03 6.020547238059e-02 0.0 
5.635795603287e-03 5.933845468062e-02 0.0 
-1.002783274306e-04 5.047414896894e-02 0.0 
5.050486352638e-04 5.154133401413e-02 0.0 
3.623528858001e-02 5.332819170304e-02 0.0 
3.359338197632e-02 4.982786298973e-02 0.0 
4.036667574103e-02 5.900290855098e-02 0.0 
1.178699429096e-02 4.106649427494e-02 0.0 
1.299666758288e-02 4.480659350382e-02 0.0 
1.562405327742e-02 4.662183296591e-02 0.0 
6.387985803501e-03 4.154435910174e-02 0.0 
4.269094804450e-03 3.077417198525e-02 0.0 
1.161705388467e-02 5.442724586829e-02 0.0 
1.403089910335e-02 5.447586273529e-02 0.0 
7.600491404968e-03 5.532752910456e-02 0.0 
8.410604437498e-03 3.491019774545e-02 0.0 
3.499837864981e-04 1.482489372026e-02 0.0 
5.153605646375e-04 1.789913274655e-02 0.0 
7.961259852631e-03 6.514368123169e-02 0.0 
7.572755394845e-03 6.303461795201e-02 0.0 
1.699799041947e-02 8.417518414439e-02 0.0 
1.400526175178e-02 8.009269508938e-02 0.0 
1.401475760172e-02 3.681612075770e-02 0.0 
1.753625822623e-02 4.419743342021e-02 0.0 
1.022509713840e-02 2.790352969138e-02 0.0 
1.322008005697e-03 7.117152049591e-02 0.0 
2.693796092292e-02 4.145830631159e-02 0.0 
5.382061516282e-03 1.868149546249e-02 0.0 
7.113036730011e-03 2.203403043431e-02 0.0 
3.700208721978e-03 1.444390733892e-02 0.0 
1.804652346958e-02 3.013179319553e-02 0.0 
1.300494202513e-02 2.232439196469e-02 0.0 
1.442157102266e-02 2.284369804505e-02 0.0 
8.561699749879e-03 6.434409675086e-02 0.0 
1.197515493233e-03 4.307443655024e-02 0.0 
1.016191584761e-02 1.302969310346e-01 0.0 
7.470119343136e-03 6.230471508515e-02 0.0 
8.749281189230e-03 1.377307303160e-01 0.0 
7.364185768827e-03 1.288154902696e-01 0.0 
7.561038146054e-03 1.449688179880e-01 0.0 
1.898283116557e-03 7.234268901308e-02 0.0 
1.649045558479e-02 1.346628117779e-01 0.0 
1.850805065833e-02 1.251873378865e-01 0.0 
9.043398561034e-03 6.356001387229e-02 0.0 
5.724130303564e-03 2.594445513179e-02 0.0 
8.361880062430e-03 6.692508195854e-02 0.0 
7.450639380427e-03 6.831184815330e-02 0.0 
2.267659764879e-03 1.609521121767e-02 0.0 
2.216516961831e-03 1.967042029528e-02 0.0 
1.591545732951e-03 1.291783780349e-02 0.0 
1.630453384846e-03 1.693635240805e-02 0.0 
1.979499368209e-03 2.316740930854e-02 0.0 
1.435110681630e-03 2.022107939358e-02 0.0 
1.176125630986e-02 1.399917231079e-01 0.0 
1.099418253621e-03 1.283006406990e-02 0.0 
1.022710502506e-03 1.706081168775e-02 0.0 
7.181693199732e-04 9.794401170685e-03 0.0 
3.623604516046e-02 1.333151548565e-01 0.0 
3.231556903222e-02 9.930997426641e-02 0.0 
3.178619873723e-02 1.084561585775e-01 0.0 
2.727765577971e-02 1.135387367302e-01 0.0 
1.547728845925e-02 2.124344225412e-02 0.0 
2.102264595572e-02 2.834788484991e-02 0.0 
-2.024197435920e-04 2.784434327489e-02 0.0 
-3.481235779308e-04 3.365143379812e-02 0.0 
6.071263099603e-03 1.369146824458e-01 0.0 
4.448499807887e-03 1.374828766325e-01 0.0 
4.871503433543e-03 1.234539890816e-01 0.0 
3.518417482620e-03 1.251234886271e-01 0.0 
3.804555731684e-03 1.110754692755e-01 0.0 
2.447726425541e-03 1.128438974790e-01 0.0 
2.916977301815e-03 9.852481318779e-02 0.0 
1.198199403515e-02 1.845587902323e-02 0.0 
2.089391797495e-02 1.017101104746e-01 0.0 
3.445053165002e-02 1.337816064652e-01 0.0 
8.679918972210e-03 1.788066151125e-02 0.0 
1.034761543494e-02 2.254447051193e-02 0.0 
3.723498748313e-02 1.217631261035e-01 0.0 
3.605922251376e-02 1.295345015664e-01 0.0 
2.816553841388e-03 1.461637545633e-02 0.0 
3.471081854060e-02 7.504702749173e-02 0.0 
4.520070967909e-03 1.631234157822e-02 0.0 
2.721724868450e-03 7.479456997887e-02 0.0 
7.415929855061e-03 7.197611209390e-02 0.0 
3.690901985401e-02 7.785660496208e-02 0.0 
3.849261265372e-02 1.135211174913e-01 0.0 
3.449863677521e-02 1.035030179950e-01 0.0 
3.421514233694e-02 1.130382497192e-01 0.0 
1.042164936261e-02 3.657041822596e-02 0.0 
8.474181002742e-03 6.143840670650e-02 0.0 
2.016971808183e-02 8.867196674478e-02 0.0 
4.255741783422e-03 9.695182247371e-02 0.0 
1.468586843279e-02 9.112239269730e-02 0.0 
-1.969823100549e-04 3.055890074338e-02 0.0 
3.512435887553e-02 6.821200313355e-02 0.0 
4.142097203086e-02 9.490098402420e-02 0.0 
2.441810383935e-02 8.588010367838e-02 0.0 
3.332604034837e-02 9.064623145174e-02 0.0 
3.594645784139e-02 9.910898236207e-02 0.0 
3.248000356526e-02 1.183804103149e-01 0.0 
3.380412632837e-02 1.210946748735e-01 0.0 
3.487412787909e-02 6.237855699960e-02 0.0 
3.589532403703e-02 1.168635754543e-01 0.0 
3.317648365797e-02 1.236999280424e-01 0.0 
3.994641157569e-02 9.389538338069e-02 0.0 
2.106456197894e-02 5.964241122926e-02 0.0 
2.110012149316e-02 5.134919482051e-02 0.0 
1.712113609639e-02 3.673423225655e-02 0.0 
2.075930065631e-02 4.333343797901e-02 0.0 
2.457187581365e-02 5.795667017399e-02 0.0 
2.441525412013e-02 4.969742894817e-02 0.0 
2.005932767466e-02 3.564313640485e-02 0.0 
2.392926388254e-02 4.171276418031e-02 0.0 
1.768218614498e-02 2.545630481216e-02 0.0 
2.292895122202e-02 3.358900447734e-02 0.0 
2.756298024699e-02 4.745321889882e-02 0.0 
2.698517812521e-02 3.979727588032e-02 0.0 
2.090667433972e-02 2.853266206310e-02 0.0 
3.099797181789e-02 5.333457037437e-02 0.0 
7.050327690519e-03 1.376486367851e-02 0.0 
3.926566388936e-02 7.260677594481e-02 0.0 
1.044609336759e-02 6.740326628120e-02 0.0 
9.455412327352e-03 7.594138220214e-02 0.0 
4.134258724920e-02 9.527416599866e-02 0.0 
8.937082066836e-03 1.243890799502e-02 0.0 
8.021059146990e-03 1.312928997659e-02 0.0 
2.983597596685e-02 6.924262362600e-02 0.0 
7.246092673483e-03 1.022219163572e-02 0.0 
3.585318337200e-02 1.111089453315e-01 0.0 
2.089369435259e-02 6.646505813967e-02 0.0 
6.578175416024e-03 9.789822297013e-03 0.0 
2.435147529108e-02 6.636886107464e-02 0.0 
2.746456880379e-02 7.272637685442e-02 0.0 
2.668710178723e-02 8.144161314176e-02 0.0 
6.101834143536e-03 1.295541972745e-02 0.0 
1.826131800074e-02 1.089337783324e-01 0.0 
4.761412860108e-03 8.344169923994e-03 0.0 
2.611455075598e-02 4.770214195151e-02 0.0 
3.006537706159e-02 5.058930920751e-02 0.0 
3.281030243301e-02 5.375525284021e-02 0.0 
2.788499071553e-02 5.586360465805e-02 0.0 
3.452681102491e-03 8.018145049116e-03 0.0 
6.160012320723e-03 1.496634926422e-02 0.0 
5.458710381982e-03 1.467863264096e-02 0.0 
8.518249817679e-03 2.170372367724e-02 0.0 
2.713132687359e-03 7.695076242953e-03 0.0 
7.872013860767e-03 1.058769457525e-02 0.0 
7.223170607390e-03 9.817973495312e-03 0.0 
1.401337488404e-02 5.471195832732e-02 0.0 
1.663605835162e-02 5.446103872122e-02 0.0 
1.654955832355e-02 5.414297066326e-02 0.0 
1.939899091093e-02 5.442132124202e-02 0.0 
1.918240163480e-02 5.469335655287e-02 0.0 
2.207573700933e-02 5.502148624699e-02 0.0 
2.219260166228e-02 5.451366251436e-02 0.0 
2.394466922422e-02 5.664294388518e-02 0.0 
2.831354803462e-02 3.864519884395e-02 0.0 
1.994016869114e-03 7.141071735464e-03 0.0 
7.456220502263e-03 4.279360960215e-02 0.0 
9.418116141381e-03 4.458583761507e-02 0.0 
1.009436769694e-02 4.766619300552e-02 0.0 
7.061593318896e-04 5.464456809634e-02 0.0 
1.404610523426e-03 5.238083368863e-02 0.0 
1.310131739447e-03 4.927580806381e-02 0.0 
3.580197461188e-04 5.714964362814e-02 0.0 
3.544585666979e-02 4.976705978463e-02 0.0 
1.729511614243e-03 7.075369173292e-03 0.0 
1.703030716358e-02 4.529842272352e-02 0.0 
2.561871141427e-03 5.303376117077e-02 0.0 
2.081967678107e-02 1.470418935497e-01 0.0 
2.293160188405e-02 1.330301062622e-01 0.0 
2.536600207028e-02 1.301423637414e-01 0.0 
2.460134910515e-02 1.166019018285e-01 0.0 
2.044222199951e-02 1.332473240953e-01 0.0 
-4.415286492603e-04 4.916758985238e-02 0.0 
-5.784641615985e-04 4.767571255450e-02 0.0 
-5.059145876076e-04 5.060050530277e-02 0.0 
-5.590025817804e-04 4.603332314339e-02 0.0 
-4.055613504709e-04 4.901217369680e-02 0.0 
-3.515274545666e-04 5.334965218436e-02 0.0 
-4.233945575192e-04 4.422070851619e-02 0.0 
-2.551072323945e-04 4.773335370710e-02 0.0 
1.695627553532e-02 1.495350462010e-01 0.0 
8.052444349937e-03 5.772173507120e-02 0.0 
9.453845274108e-03 5.673783937745e-02 0.0 
9.613154632016e-03 5.684790520911e-02 0.0 
1.028120485871e-02 5.601115827535e-02 0.0 
1.072409297714e-02 5.628047884917e-02 0.0 
1.179578789174e-02 5.519165971517e-02 0.0 
1.252406845706e-02 5.605664507226e-02 0.0 
9.188611097123e-03 5.772877561717e-02 0.0 
9.650740774911e-03 5.773107529197e-02 0.0 
9.656126764527e-03 5.782503800355e-02 0.0 
1.014445857724e-02 5.899435881314e-02 0.0 
9.603460087865e-03 5.949361709570e-02 0.0 
9.141888705233e-03 5.805274901332e-02 0.0 
6.333885365881e-03 6.231796093180e-02 0.0 
2.941441626171e-04 7.472490369897e-03 0.0 
-7.285866873743e-05 5.977270396735e-02 0.0 
-6.432394105663e-05 6.136063537106e-02 0.0 
1.137311304487e-04 6.460229518365e-02 0.0 
1.481438651180e-05 6.239669444583e-02 0.0 
-1.830900706539e-04 5.796693410057e-02 0.0 
1.316331303305e-04 6.652397611183e-02 0.0 
3.685742200180e-04 6.720800468647e-02 0.0 
4.311536689284e-03 7.160223387392e-02 0.0 
3.111294989557e-03 7.265421770976e-02 0.0 
1.461911216410e-03 7.276463874202e-02 0.0 
2.173302047548e-03 7.313749510528e-02 0.0 
3.512468405673e-03 7.278134939180e-02 0.0 
4.710190281816e-03 7.214262704364e-02 0.0 
6.137323615254e-03 7.154422264535e-02 0.0 
7.403640239183e-03 7.067628785870e-02 0.0 
7.444661322610e-03 7.093104033553e-02 0.0 
6.004426936734e-03 7.142026863182e-02 0.0 
8.961096377903e-03 7.015705235024e-02 0.0 
9.447721600852e-04 7.714173825544e-02 0.0 
1.807303785838e-03 6.892713034760e-02 0.0 
1.338828498199e-03 7.305949392997e-03 0.0 
1.338059104660e-02 1.491858461173e-01 0.0 
1.044562003000e-02 6.276482915833e-02 0.0 
1.529224676407e-03 1.801501237580e-02 0.0 
2.457068481796e-03 1.483162220546e-02 0.0 
1.943295118643e-03 1.441828778208e-02 0.0 
2.363157543019e-05 1.787886155189e-02 0.0 
1.318300984690e-04 1.472609632237e-02 0.0 
8.166437940685e-04 1.754361098955e-02 0.0 
3.436908974971e-03 6.108303142391e-02 0.0 
1.635607407595e-02 2.956579823480e-02 0.0 
4.257707417131e-03 4.708434299908e-02 0.0 
1.978017285342e-02 7.183742573667e-02 0.0 
6.465754591957e-03 5.758515033514e-02 0.0 
-3.978975073122e-04 3.601460856403e-02 0.0 
1.435089127124e-03 4.168832591704e-02 0.0 
4.623136148789e-04 2.403288203379e-02 0.0 
-1.881247050911e-04 4.035364852825e-02 0.0 
1.096435140903e-03 2.941155861333e-02 0.0 
4.875828601563e-03 1.485543178535e-02 0.0 
3.067992660584e-03 7.211681997917e-02 0.0 
1.127669622399e-02 1.073901632141e-01 0.0 
7.185562910106e-03 1.131339101470e-01 0.0 
6.975429812129e-03 7.323028197979e-02 0.0 
1.721901080607e-03 6.472503710554e-02 0.0 
-4.111452615002e-04 5.458454064908e-02 0.0 
4.788638613384e-03 6.701241787530e-02 0.0 
1.279150548767e-02 1.841084036914e-02 0.0 
3.950921079165e-02 1.041773786687e-01 0.0 
8.498904102337e-03 4.905318931777e-02 0.0 
1.099637142459e-03 5.738100639587e-02 0.0 
3.806606364127e-03 5.890010239280e-02 0.0 
8.025065760778e-03 5.686667727038e-02 0.0 
4.085371158460e-02 7.451859737917e-02 0.0 
3.755753668083e-03 5.120212978949e-02 0.0 
3.999960713695e-03 3.415748901868e-02 0.0 
5.341107027258e-03 6.405788406709e-02 0.0 
9.877457957047e-03 6.693537240320e-02 0.0 
4.674832428471e-03 3.140712582781e-02 0.0 
3.465686494198e-03 4.511856376302e-02 0.0 
1.605903585754e-02 1.007723778318e-01 0.0 
1.682149650581e-02 3.513847766743e-02 0.0 
1.102992133295e-02 5.539309348312e-02 0.0 
1.035834648040e-02 6.707989678103e-02 0.0 
1.111600628159e-02 3.670052119870e-02 0.0 
2.035196647437e-02 1.166157782947e-01 0.0 
6.112025433184e-03 6.792516445318e-02 0.0 
1.161982901221e-02 1.234500153207e-01 0.0 
4.112178372098e-03 1.872900353392e-02 0.0 
2.062984251989e-02 6.798410887654e-02 0.0 
1.906007093838e-03 6.710245872767e-02 0.0 
2.167392511681e-02 5.018706280584e-02 0.0 
4.229889724976e-02 8.590279964656e-02 0.0 
3.123029072642e-02 1.436097745578e-01 0.0 
4.463663394344e-03 3.997103027336e-02 0.0 
3.831341999087e-02 5.697060483519e-02 0.0 
1.131486039267e-02 2.867623971050e-02 0.0 
1.822479648750e-02 4.385813672327e-02 0.0 
1.213812522826e-03 6.726635836816e-02 0.0 
2.671026809976e-03 2.598486162844e-02 0.0 
3.098076804878e-02 5.380335847287e-02 0.0 
8.528832467351e-03 5.034374181675e-02 0.0 
3.648968006326e-02 4.990184436060e-02 0.0 
2.767574122768e-02 5.506900890710e-02 0.0 
1.402867374665e-02 6.015332180306e-02 0.0 
1.239521559401e-02 4.901143314786e-02 0.0 
1.652711619216e-02 3.241737580543e-02 0.0 
3.998964548609e-02 1.044360805361e-01 0.0 
4.181665375510e-02 6.856657960176e-02 0.0 
3.628493054876e-02 6.959021412072e-02 0.0 
4.254708176434e-02 6.231874494413e-02 0.0 
-3.979313245837e-04 3.921911540640e-02 0.0 
3.561167399521e-03 2.875555332679e-02 0.0 
1.641471750572e-02 5.814253350632e-02 0.0 
3.643992555783e-02 8.564880228721e-02 0.0 
1.990875857419e-02 1.006085201377e-01 0.0 
2.217770819014e-02 3.222449006963e-02 0.0 
6.163842108006e-03 3.328666657580e-02 0.0 
4.089524212200e-02 9.343678769460e-02 0.0 
2.194255587011e-03 2.907597561623e-02 0.0 
1.133119421852e-02 4.406494066150e-02 0.0 
2.404088969262e-03 5.033402937335e-02 0.0 
8.825523926259e-04 7.255030950084e-02 0.0 
1.578880594427e-02 7.409463756722e-02 0.0 
2.683088570470e-02 5.779932286496e-02 0.0 
3.681816324414e-02 5.675931539166e-02 0.0 
2.331200752186e-03 4.717604904698e-02 0.0 
1.284774488031e-02 2.743165354141e-02 0.0 
1.585524096544e-03 2.636747083179e-02 0.0 
8.376877622467e-03 3.387028739181e-02 0.0 
6.712559080839e-03 8.768368326091e-02 0.0 
3.303233478031e-02 1.326098050576e-01 0.0 
1.128857760233e-03 2.356077016433e-02 0.0 
1.851247737970e-02 4.841313249756e-02 0.0 
1.361030592987e-02 2.902511440938e-02 0.0 
-2.424314892886e-04 5.189677013881e-02 0.0 
1.224361281113e-02 1.822181970307e-02 0.0 
3.651189541722e-02 1.313999784227e-01 0.0 
7.940155130840e-04 2.066755499877e-02 0.0 
1.100733775055e-02 3.416889434173e-02 0.0 
3.237630973314e-02 7.208764301048e-02 0.0 
3.829653614882e-03 1.505681833722e-01 0.0 
6.671116393585e-04 1.304361984156e-02 0.0 
9.026873003777e-03 2.817466625095e-02 0.0 
4.001475899475e-02 5.587263329349e-02 0.0 
1.677402705516e-02 4.936307878412e-02 0.0 
3.464702745013e-02 1.449245033961e-01 0.0 
1.339251280027e-03 4.573786526401e-02 0.0 
4.041134568086e-02 6.677618985263e-02 0.0 
5.145154431197e-03 1.293428681049e-02 0.0 
9.073088275997e-03 2.547715204584e-02 0.0 
2.944106825188e-02 8.746354173887e-02 0.0 
4.992506564689e-04 4.804321542829e-02 0.0 
2.747173113787e-02 4.524233324729e-02 0.0 
4.833111879008e-03 7.213946554316e-02 0.0 
3.552528417354e-02 1.338703171933e-01 0.0 
-4.382119269086e-05 4.657879955129e-02 0.0 
2.499629839904e-02 5.555985720823e-02 0.0 
1.406206504209e-02 4.784673470402e-02 0.0 
1.002407921163e-02 1.815925711659e-02 0.0 
-3.633262359132e-04 4.492161118885e-02 0.0 
2.495808512957e-02 5.473584635963e-02 0.0 
-5.143835136775e-04 4.312200091047e-02 0.0 
3.540143242355e-02 1.428151462982e-01 0.0 
3.031677937709e-02 7.829267548113e-02 0.0 
-5.332890254773e-04 4.120962988944e-02 0.0 
3.851853420008e-02 5.644092141573e-02 0.0 
6.502257889364e-03 6.986407919048e-02 0.0 
3.596327787159e-02 5.136821860308e-02 0.0 
-7.385102392061e-06 2.140185108618e-02 0.0 
5.819475430003e-03 5.541968393957e-02 0.0 
1.162849610518e-02 4.628993495639e-02 0.0 
2.784715911205e-02 6.415336450617e-02 0.0 
3.335831881522e-02 1.389764680424e-01 0.0 
1.069577897964e-02 4.289552266665e-02 0.0 
3.422742504168e-02 4.667552896843e-02 0.0 
3.161140151357e-02 4.744791581191e-02 0.0 
3.426545397819e-02 5.355252255297e-02 0.0 
9.606321262549e-03 3.876585932064e-02 0.0 
3.510047453271e-02 1.265935259551e-01 0.0 
4.492359239022e-03 6.035079456167e-02 0.0 
5.330989912953e-03 6.140467233664e-02 0.0 
2.166989160410e-02 5.381724628367e-02 0.0 
3.146965082436e-02 4.287957613653e-02 0.0 
2.648822458727e-03 7.285628143777e-02 0.0 
3.104605960413e-02 6.121613088259e-02 0.0 
7.284177211704e-03 6.087411421995e-02 0.0 
1.911801674826e-02 5.393736686055e-02 0.0 
2.270696839172e-02 3.696575421900e-02 0.0 
1.111385070466e-03 1.088359100466e-01 0.0 
1.619404309989e-02 5.338956599539e-02 0.0 
5.776799523648e-04 7.120447740088e-02 0.0 
1.388338507752e-02 5.385738670155e-02 0.0 
3.100018305838e-02 4.980378610076e-02 0.0 
1.143398370696e-02 5.347589131554e-02 0.0 
9.416265467327e-03 5.429976569033e-02 0.0 
2.989844030205e-03 3.061877511790e-02 0.0 
7.407122644453e-03 5.410583557581e-02 0.0 
4.027837880219e-04 1.453976687655e-02 0.0 
1.236748204429e-04 6.699405667967e-03 0.0 
1.443403740626e-03 1.392513781743e-01 0.0 
2.842664764592e-02 1.337878403501e-01 0.0 
4.722225247237e-03 6.536331279752e-02 0.0 
3.113353569307e-02 1.170839613003e-01 0.0 
6.126486601539e-03 5.661690407787e-02 0.0 
3.389589558741e-02 5.776347136127e-02 0.0 
2.999356116099e-03 1.385910832854e-01 0.0 
5.060015122286e-03 5.828400956278e-02 0.0 
1.573811021342e-02 2.134661879640e-02 0.0 
5.438725908728e-03 8.683183035233e-03 0.0 
2.026219097445e-03 8.441842585672e-02 0.0 
1.114466450432e-02 2.598455912960e-02 0.0 
2.738070699942e-02 4.343707176121e-02 0.0 
5.923679427689e-04 4.477190331868e-02 0.0 
8.750754790980e-03 1.518858671544e-01 0.0 
9.505360313503e-03 6.145800164922e-02 0.0 
-2.182159057119e-04 3.644719640612e-02 0.0 
2.230626570968e-02 1.235820720351e-01 0.0 
2.391987469486e-02 1.073701697565e-01 0.0 
1.751942385752e-02 9.634539204591e-02 0.0 
6.997223788984e-04 6.731368511597e-02 0.0 
9.797516784121e-03 5.671540553418e-02 0.0 
1.739323838295e-02 1.109419204308e-01 0.0 
7.018677894679e-03 1.571651801087e-02 0.0 
1.462848811547e-02 1.381770123922e-01 0.0 
2.208571837835e-02 3.477830055534e-02 0.0 
1.160358594943e-02 9.890245128657e-02 0.0 
8.098924522398e-03 2.852669051590e-02 0.0 
1.044264504877e-02 1.741558983757e-02 0.0 
8.177377550749e-04 6.290071743787e-03 0.0 
1.645954016389e-02 2.669519847649e-02 0.0 
1.172718988298e-02 8.612859236418e-02 0.0 
2.222418540323e-02 1.216854212045e-01 0.0 
1.332027131466e-02 1.871066983108e-02 0.0 
2.766840448929e-03 7.130371287015e-02 0.0 
5.485736615136e-04 5.915107742307e-03 0.0 
1.830005443455e-02 1.383862860154e-01 0.0 
1.790068650704e-03 2.861073235363e-02 0.0 
1.409753064901e-02 5.698578573029e-02 0.0 
8.992065675922e-04 2.778705317751e-02 0.0 
3.049517686163e-02 4.529977265940e-02 0.0 
6.143411865432e-03 1.202418172540e-01 0.0 
2.685360371152e-02 1.177603445817e-01 0.0 
2.397094840140e-04 1.165223553480e-02 0.0 
1.515044367261e-02 2.327348560622e-02 0.0 
9.116912212397e-03 8.090773774606e-02 0.0 
3.181081319460e-03 8.608901533331e-02 0.0 
6.713270711995e-05 6.163515605804e-02 0.0 
8.372309594261e-03 5.983891924138e-02 0.0 
2.192105080945e-03 1.319773794099e-02 0.0 
2.480322287977e-02 3.382086263122e-02 0.0 
4.608107487499e-04 1.206036000532e-02 0.0 
9.707445805872e-04 7.323326843904e-02 0.0 
9.140861184368e-03 6.555243141160e-02 0.0 
2.813356822529e-03 1.251815315661e-02 0.0 
1.373052833744e-02 1.863797187747e-02 0.0 
1.401199764368e-02 5.504684910051e-02 0.0 
2.769470134099e-03 1.144055299590e-02 0.0 
5.778420131060e-03 7.729012959824e-02 0.0 
1.177572808232e-02 1.534241478425e-01 0.0 
8.145354940360e-03 6.964046437393e-02 0.0 
3.784090361873e-04 5.918690263004e-03 0.0 
4.545645088105e-03 2.716386202945e-02 0.0 
-1.724642235760e-04 5.936045510711e-02 0.0 
2.543136133598e-02 1.403925566724e-01 0.0 
7.901916296732e-04 6.953741356021e-02 0.0 
1.661451603219e-02 2.467867944676e-02 0.0 
8.940800608186e-03 5.994249323460e-02 0.0 
3.018668364063e-03 2.577905812800e-02 0.0 
3.710858543151e-03 1.257137364092e-02 0.0 
1.030265873524e-02 2.368506710899e-02 0.0 
3.096903612582e-03 6.174940568162e-03 0.0 
6.932347627452e-03 6.769665381580e-02 0.0 
9.503517418217e-03 1.527249857160e-02 0.0 
7.003907654116e-03 1.976964574606e-02 0.0 
6.623779442727e-03 1.524304096784e-01 0.0 
1.309026809424e-02 2.417297374614e-02 0.0 
2.987067907845e-04 6.517321598509e-02 0.0 
5.160359238382e-03 7.051289500796e-02 0.0 
1.715255793503e-04 1.288702251766e-02 0.0 
1.167077233045e-03 7.211859233976e-02 0.0 
1.127604873618e-03 1.522150909778e-01 0.0 
4.445683201078e-05 5.449073760894e-03 0.0 
3.714449997977e-03 7.245909995178e-02 0.0 
2.381307162773e-03 1.281261696683e-01 0.0 
1.367303261580e-02 1.843319085688e-02 0.0 
-1.150213853036e-04 5.127472631695e-02 0.0 
1.370318667120e-03 5.577629823033e-02 0.0 
1.047246755582e-02 5.585091521691e-02 0.0 
5.446658359732e-03 6.172657903568e-02 0.0 
1.923669626696e-03 1.009031432106e-01 0.0 
8.750404705331e-03 1.531724260527e-02 0.0 
7.761748658741e-03 2.352829310359e-02 0.0 
4.947806917623e-03 1.116727928322e-01 0.0 
1.252749497580e-02 7.644665577489e-02 0.0 
1.894886674528e-02 2.560293672514e-02 0.0 
-2.991402658375e-04 5.637902677067e-02 0.0 
1.795672693903e-02 2.526830937943e-02 0.0 
8.780288591673e-03 2.056461602502e-02 0.0 
2.338345923405e-03 7.928655816055e-02 0.0 
-1.094047993479e-04 4.662837113746e-02 0.0 
8.663555362370e-03 6.823946479055e-02 0.0 
1.231201504976e-03 1.147355902945e-02 0.0 
-2.442051296460e-04 5.487605061297e-02 0.0 

TENSORS node_materi_stress float
9.976158839668e-01 -9.492308669873e-02 0.0 
-9.492308669873e-02 -8.690034308123e+00 0.0 
0.0 0.0 1.000000000000e+00 
-2.896987290427e+01 1.162806622120e-01 0.0 
1.162806622120e-01 -8.847309156935e+00 0.0 
0.0 0.0 -1.094515461836e+01 
-1.775084277929e+02 -1.344364440635e-01 0.0 
-1.344364440635e-01 -3.915638546075e+02 0.0 
0.0 0.0 -1.775075451484e+02 
-8.488851709624e+01 1.186731485833e+00 0.0 
1.186731485833e+00 -1.947431190265e+02 0.0 
0.0 0.0 -8.348949083681e+01 
-7.190176860008e-01 -1.429918627475e-01 0.0 
-1.429918627475e-01 -2.107725886248e+01 0.0 
0.0 0.0 -4.199233538971e+00 
-8.236103926304e+00 -4.396714824412e-01 0.0 
-4.396714824412e-01 -4.011252133828e+01 0.0 
0.0 0.0 -1.410458757938e+01 
-1.716698090128e+01 -3.383535912690e-01 0.0 
-3.383535912690e-01 -5.864709221552e+01 0.0 
0.0 0.0 -2.234422193504e+01 
-2.675699375577e+01 -3.092317361027e-01 0.0 
-3.092317361027e-01 -7.855369038320e+01 0.0 
0.0 0.0 -3.119320524169e+01 
-3.624277959140e+01 -3.326653169284e-01 0.0 
-3.326653169284e-01 -9.823248945470e+01 0.0 
0.0 0.0 -3.994258071383e+01 
-4.568308801136e+01 -4.282996941568e-01 0.0 
-4.282996941568e-01 -1.178258895621e+02 0.0 
0.0 0.0 -4.865269327204e+01 
-5.525153875783e+01 -6.343779827557e-01 0.0 
-6.343779827557e-01 -1.375895199947e+02 0.0 
0.0 0.0 -5.745231762577e+01 
-6.584482773551e+01 -7.369352295072e-01 0.0 
-7.369352295072e-01 -1.579549424425e+02 0.0 
0.0 0.0 -6.673993105340e+01 
-7.657397107597e+01 -7.638439175234e-01 0.0 
-7.638439175234e-01 -1.783872839270e+02 0.0 
0.0 0.0 -7.608837650090e+01 
-8.662587317121e+01 -8.122932152145e-01 0.0 
-8.122932152145e-01 -1.991058373800e+02 0.0 
0.0 0.0 -8.531951316535e+01 
-9.643523942658e+01 -9.220750929540e-01 0.0 
-9.220750929540e-01 -2.203162896152e+02 0.0 
0.0 0.0 -9.505548926794e+01 
-1.062336747046e+02 -8.632941341430e-01 0.0 
-8.632941341430e-01 -2.408562581066e+02 0.0 
0.0 0.0 -1.049217348691e+02 
-1.149947461930e+02 -1.057601842854e+00 0.0 
-1.057601842854e+00 -2.594939600232e+02 0.0 
0.0 0.0 -1.138959128718e+02 
-1.242552413236e+02 -6.217896586267e-01 0.0 
-6.217896586267e-01 -2.800451820057e+02 0.0 
0.0 0.0 -1.237933213664e+02 
-1.339889733728e+02 -5.670213425009e-01 0.0 
-5.670213425009e-01 -3.010703512604e+02 0.0 
0.0 0.0 -1.339198727866e+02 
-1.437027048898e+02 -4.869374934959e-01 0.0 
-4.869374934959e-01 -3.213757573890e+02 0.0 
0.0 0.0 -1.436996997934e+02 
-1.534095972918e+02 -2.961306560556e-01 0.0 
-2.961306560556e-01 -3.415306569678e+02 0.0 
0.0 0.0 -1.534076117071e+02 
-1.630395326064e+02 -1.864387576479e-01 0.0 
-1.864387576479e-01 -3.615210478787e+02 0.0 
0.0 0.0 -1.630370243705e+02 
-1.720728833953e+02 -1.780886258812e-01 0.0 
-1.780886258812e-01 -3.802756889242e+02 0.0 
0.0 0.0 -1.720707547361e+02 
-8.501823200939e+01 2.103144918039e+00 0.0 
2.103144918039e+00 -1.960682155302e+02 0.0 
0.0 0.0 -8.392593426189e+01 
-8.457715102803e+01 3.817674404493e+00 0.0 
3.817674404493e+00 -1.951079209197e+02 0.0 
0.0 0.0 -8.350552158431e+01 
-8.503048458871e+01 5.963335423182e+00 0.0 
5.963335423182e+00 -1.955820257112e+02 0.0 
0.0 0.0 -8.378375308996e+01 
-8.530781313062e+01 7.585652101182e+00 0.0 
7.585652101182e+00 -1.959217186489e+02 0.0 
0.0 0.0 -8.396885953385e+01 
-8.606496483894e+01 9.805593997381e+00 0.0 
9.805593997381e+00 -1.958294672040e+02 0.0 
0.0 0.0 -8.416832961287e+01 
-8.715441761272e+01 1.220906704699e+01 0.0 
1.220906704699e+01 -1.972189666159e+02 0.0 
0.0 0.0 -8.491201526857e+01 
-8.903424205568e+01 1.487107419378e+01 0.0 
1.487107419378e+01 -1.988125867638e+02 0.0 
0.0 0.0 -8.596799959569e+01 
-9.032461757643e+01 1.786919465275e+01 0.0 
1.786919465275e+01 -1.999901659302e+02 0.0 
0.0 0.0 -8.674809791888e+01 
-9.349241506025e+01 2.125576369383e+01 0.0 
2.125576369383e+01 -2.033612575002e+02 0.0 
0.0 0.0 -8.880647861128e+01 
-9.538975926070e+01 2.409139051640e+01 0.0 
2.409139051640e+01 -2.055484797464e+02 0.0 
0.0 0.0 -9.033857431097e+01 
-9.936952486633e+01 2.792181395346e+01 0.0 
2.792181395346e+01 -2.085293549240e+02 0.0 
0.0 0.0 -9.259720807640e+01 
-1.044782765163e+02 3.188586280289e+01 0.0 
3.188586280289e+01 -2.132301574128e+02 0.0 
0.0 0.0 -9.579047670127e+01 
-1.108139699388e+02 3.592901166048e+01 0.0 
3.592901166048e+01 -2.198650543030e+02 0.0 
0.0 0.0 -1.000071475663e+02 
-1.160936467572e+02 3.923964018009e+01 0.0 
3.923964018009e+01 -2.250675232663e+02 0.0 
0.0 0.0 -1.034148381691e+02 
-1.226288687781e+02 4.264815239797e+01 0.0 
4.264815239797e+01 -2.326688602897e+02 0.0 
0.0 0.0 -1.080105593520e+02 
-1.276005711590e+02 4.482945734085e+01 0.0 
4.482945734085e+01 -2.394863763541e+02 0.0 
0.0 0.0 -1.118431724206e+02 
-1.313727012175e+02 4.570474107122e+01 0.0 
4.570474107122e+01 -2.468679952049e+02 0.0 
0.0 0.0 -1.154691976768e+02 
-1.354892527207e+02 4.614706211326e+01 0.0 
4.614706211326e+01 -2.563107604169e+02 0.0 
0.0 0.0 -1.198772604069e+02 
-1.375948087894e+02 4.560635001753e+01 0.0 
4.560635001753e+01 -2.630938629137e+02 0.0 
0.0 0.0 -1.227669166753e+02 
-1.398074886446e+02 4.474895848369e+01 0.0 
4.474895848369e+01 -2.707262250377e+02 0.0 
0.0 0.0 -1.259674881743e+02 
-1.417132380702e+02 4.358281622096e+01 0.0 
4.358281622096e+01 -2.780386591088e+02 0.0 
0.0 0.0 -1.289642712691e+02 
-1.434415537067e+02 4.229118414932e+01 0.0 
4.229118414932e+01 -2.848958893222e+02 0.0 
0.0 0.0 -1.317553871839e+02 
-1.452271398593e+02 4.086512463956e+01 0.0 
4.086512463956e+01 -2.918613712395e+02 0.0 
0.0 0.0 -1.346003135041e+02 
-1.468965587214e+02 3.924418270923e+01 0.0 
3.924418270923e+01 -2.986202748936e+02 0.0 
0.0 0.0 -1.373403169379e+02 
-1.484688066034e+02 3.762327176128e+01 0.0 
3.762327176128e+01 -3.048675971512e+02 0.0 
0.0 0.0 -1.398824181677e+02 
-1.500893223164e+02 3.593052034149e+01 0.0 
3.593052034149e+01 -3.110739094583e+02 0.0 
0.0 0.0 -1.424268788963e+02 
-1.518925666885e+02 3.399497616568e+01 0.0 
3.399497616568e+01 -3.177642544897e+02 0.0 
0.0 0.0 -1.451881002528e+02 
-1.534631813899e+02 3.193572305866e+01 0.0 
3.193572305866e+01 -3.238187776010e+02 0.0 
0.0 0.0 -1.476669925531e+02 
-1.548372408320e+02 2.978171221000e+01 0.0 
2.978171221000e+01 -3.292661726745e+02 0.0 
0.0 0.0 -1.498846116299e+02 
-1.568255982346e+02 2.764582554123e+01 0.0 
2.764582554123e+01 -3.357641294806e+02 0.0 
0.0 0.0 -1.526434678587e+02 
-1.582129965162e+02 2.503333287710e+01 0.0 
2.503333287710e+01 -3.411439002045e+02 0.0 
0.0 0.0 -1.548434390008e+02 
-1.593916957833e+02 2.283760056518e+01 0.0 
2.283760056518e+01 -3.454333762479e+02 0.0 
0.0 0.0 -1.566211141074e+02 
-1.610441691579e+02 2.041026586642e+01 0.0 
2.041026586642e+01 -3.506889508742e+02 0.0 
0.0 0.0 -1.588668842719e+02 
-1.623913353343e+02 1.827911180157e+01 0.0 
1.827911180157e+01 -3.548757519093e+02 0.0 
0.0 0.0 -1.606659479804e+02 
-1.638681866109e+02 1.622961495971e+01 0.0 
1.622961495971e+01 -3.591129865550e+02 0.0 
0.0 0.0 -1.625235673368e+02 
-1.652572063736e+02 1.415924597963e+01 0.0 
1.415924597963e+01 -3.630182267479e+02 0.0 
0.0 0.0 -1.642447034739e+02 
-1.665755593381e+02 1.235287098064e+01 0.0 
1.235287098064e+01 -3.665215877474e+02 0.0 
0.0 0.0 -1.658122173882e+02 
-1.676486855771e+02 1.058917498595e+01 0.0 
1.058917498595e+01 -3.693839124062e+02 0.0 
0.0 0.0 -1.670916118291e+02 
-1.687720115567e+02 9.095655707601e+00 0.0 
9.095655707601e+00 -3.721753132593e+02 0.0 
0.0 0.0 -1.683642689853e+02 
-1.697183917196e+02 7.661460547681e+00 0.0 
7.661460547681e+00 -3.745072359886e+02 0.0 
0.0 0.0 -1.694300280571e+02 
-1.709750766348e+02 6.405210818494e+00 0.0 
6.405210818494e+00 -3.773860951180e+02 0.0 
0.0 0.0 -1.707744717303e+02 
-1.723503849242e+02 5.221693273679e+00 0.0 
5.221693273679e+00 -3.804527694487e+02 0.0 
0.0 0.0 -1.722185369768e+02 
-1.734816406620e+02 4.531021666580e+00 0.0 
4.531021666580e+00 -3.829036873504e+02 0.0 
0.0 0.0 -1.733830828344e+02 
-1.731721154413e+02 3.382010402205e+00 0.0 
3.382010402205e+00 -3.823842550615e+02 0.0 
0.0 0.0 -1.731135930969e+02 
-1.751003599415e+02 2.638821039825e+00 0.0 
2.638821039825e+00 -3.864654210323e+02 0.0 
0.0 0.0 -1.750672209147e+02 
-1.754619467493e+02 2.103465678163e+00 0.0 
2.103465678163e+00 -3.872523706528e+02 0.0 
0.0 0.0 -1.754406040822e+02 
-1.765586947740e+02 1.706842811467e+00 0.0 
1.706842811467e+00 -3.895503053165e+02 0.0 
0.0 0.0 -1.765441976152e+02 
-1.775031434745e+02 1.008555708031e+00 0.0 
1.008555708031e+00 -3.915404405542e+02 0.0 
0.0 0.0 -1.774982154583e+02 
-1.778176555071e+02 5.749478634094e-01 0.0 
5.749478634094e-01 -3.922031482881e+02 0.0 
0.0 0.0 -1.778159044777e+02 
-3.337280760818e+01 2.267761287570e-01 0.0 
2.267761287570e-01 -2.052059709330e+01 0.0 
0.0 0.0 -1.576802141045e+01 
-4.089372181965e+01 3.672663591501e-01 0.0 
3.672663591501e-01 -4.021744301752e+01 0.0 
0.0 0.0 -2.393334945115e+01 
-4.829953977499e+01 4.288512273638e-01 0.0 
4.288512273638e-01 -5.993227594242e+01 0.0 
0.0 0.0 -3.206954471522e+01 
-5.511833592690e+01 5.420883831063e-01 0.0 
5.420883831063e-01 -7.941270509430e+01 0.0 
0.0 0.0 -3.995931230636e+01 
-6.167019956255e+01 5.808309646593e-01 0.0 
5.808309646593e-01 -9.956697431661e+01 0.0 
0.0 0.0 -4.797115216375e+01 
-6.805882022169e+01 7.199656812421e-01 0.0 
7.199656812421e-01 -1.200811618044e+02 0.0 
0.0 0.0 -5.604199460784e+01 
-7.354914224321e+01 7.520614409305e-01 0.0 
7.520614409305e-01 -1.405727760764e+02 0.0 
0.0 0.0 -6.383657549589e+01 
-7.833067577425e+01 9.444491709410e-01 0.0 
9.444491709410e-01 -1.610405306454e+02 0.0 
0.0 0.0 -7.141136192588e+01 
-8.348302220327e+01 1.042908919836e+00 0.0 
1.042908919836e+00 -1.826131889004e+02 0.0 
0.0 0.0 -7.942886333111e+01 
-1.920241963137e+01 6.322405090712e+00 0.0 
6.322405090712e+00 -7.176356505361e+00 0.0 
0.0 0.0 -7.896087740967e+00 
-4.901974252580e+01 1.367718911773e+01 0.0 
1.367718911773e+01 -2.123566908498e+01 0.0 
0.0 0.0 -2.067662348323e+01 
-2.179957356224e+01 1.359762502775e+01 0.0 
1.359762502775e+01 -1.593838194606e+01 0.0 
0.0 0.0 -1.095724599129e+01 
-2.218500862229e+01 1.446575157689e+01 0.0 
1.446575157689e+01 -1.861747353707e+01 0.0 
0.0 0.0 -1.184074464781e+01 
-2.144632492630e+01 1.445319935736e+01 0.0 
1.445319935736e+01 -1.874358420935e+01 0.0 
0.0 0.0 -1.165697274069e+01 
-1.992645175806e+01 1.396686508680e+01 0.0 
1.396686508680e+01 -1.770465082965e+01 0.0 
0.0 0.0 -1.088933077631e+01 
-1.967894854777e+01 1.394038115566e+01 0.0 
1.394038115566e+01 -1.747981603649e+01 0.0 
0.0 0.0 -1.074762937528e+01 
-2.033983357330e+01 1.409106656026e+01 0.0 
1.409106656026e+01 -1.777498157340e+01 0.0 
0.0 0.0 -1.103444454401e+01 
-2.100854699228e+01 1.427874587693e+01 0.0 
1.427874587693e+01 -1.823950749851e+01 0.0 
0.0 0.0 -1.137441634724e+01 
-2.259189686177e+01 1.445650884989e+01 0.0 
1.445650884989e+01 -1.820561744954e+01 0.0 
0.0 0.0 -1.183925429339e+01 
-2.799480658869e+01 1.486126379148e+01 0.0 
1.486126379148e+01 -1.851595914700e+01 0.0 
0.0 0.0 -1.355322972071e+01 
-2.832743779965e+01 -1.875440737595e-02 0.0 
-1.875440737595e-02 -7.376649387151e+00 0.0 
0.0 0.0 -1.031122615604e+01 
-2.843650298664e+01 9.384848402520e-02 0.0 
9.384848402520e-02 -8.130379828910e+00 0.0 
0.0 0.0 -1.057006484467e+01 
-2.849734500924e+01 -4.876683020000e-02 0.0 
-4.876683020000e-02 -8.169384860335e+00 0.0 
0.0 0.0 -1.060001896087e+01 
-2.844949461983e+01 -2.515083809882e-03 0.0 
-2.515083809882e-03 -7.517283098226e+00 0.0 
0.0 0.0 -1.039003331542e+01 
-2.979664976239e+01 6.095624284330e-04 0.0 
6.095624284330e-04 -1.011071172023e+01 0.0 
0.0 0.0 -1.157220844479e+01 
-2.891746494843e+01 -8.882687512780e-02 0.0 
-8.882687512780e-02 -8.113371549661e+00 0.0 
0.0 0.0 -1.070925094943e+01 
-2.896455814550e+01 3.444112874550e-02 0.0 
3.444112874550e-02 -7.744651786598e+00 0.0 
0.0 0.0 -1.061276297963e+01 
-2.903060056264e+01 -1.537109151510e-01 0.0 
-1.537109151510e-01 -8.041062907285e+00 0.0 
0.0 0.0 -1.072149904098e+01 
-2.954334153632e+01 3.999475367090e-02 0.0 
3.999475367090e-02 -9.004980113846e+00 0.0 
0.0 0.0 -1.116449649505e+01 
-2.980592087874e+01 5.189275898736e-02 0.0 
5.189275898736e-02 -8.714576000972e+00 0.0 
0.0 0.0 -1.115614906391e+01 
-3.056020225872e+01 4.757602248132e-01 0.0 
4.757602248132e-01 -8.628536475842e+00 0.0 
0.0 0.0 -1.135662162037e+01 
-3.251849842361e+01 1.302245789300e+00 0.0 
1.302245789300e+00 -8.984019714528e+00 0.0 
0.0 0.0 -1.205075544144e+01 
-3.664920657413e+01 2.724138985461e+00 0.0 
2.724138985461e+00 -9.251377391990e+00 0.0 
0.0 0.0 -1.337017518983e+01 
-4.293751824910e+01 6.353033329742e+00 0.0 
6.353033329742e+00 -1.214247685556e+01 0.0 
0.0 0.0 -1.612399853140e+01 
-2.264855534559e+01 3.096927572952e+00 0.0 
3.096927572952e+00 -6.345533978577e+00 0.0 
0.0 0.0 -8.612126638867e+00 
-2.705971249638e+01 1.377004470422e+00 0.0 
1.377004470422e+00 -7.139563953964e+00 0.0 
0.0 0.0 -1.017665366270e+01 
-2.970788195405e+01 2.383450291978e-01 0.0 
2.383450291978e-01 -6.899156351270e+00 0.0 
0.0 0.0 -1.088252999934e+01 
-2.980894537761e+01 1.232116256844e-01 0.0 
1.232116256844e-01 -6.824002834642e+00 0.0 
0.0 0.0 -1.089002657941e+01 
-2.790661465963e+01 -5.648746891291e-01 0.0 
-5.648746891291e-01 -7.739750359636e+00 0.0 
0.0 0.0 -1.061668796083e+01 
-2.547262952967e+01 -1.447241636175e+00 0.0 
-1.447241636175e+00 -8.202393886755e+00 0.0 
0.0 0.0 -1.002949037184e+01 
-2.178942317828e+01 -2.109333585855e+00 0.0 
-2.109333585855e+00 -8.140742016967e+00 0.0 
0.0 0.0 -8.904541619535e+00 
-1.697601762664e+01 -2.591480734300e+00 0.0 
-2.591480734300e+00 -8.186887277246e+00 0.0 
0.0 0.0 -7.473620130915e+00 
-1.156039420958e+01 -2.626488303151e+00 0.0 
-2.626488303151e+00 -8.442770994108e+00 0.0 
0.0 0.0 -5.924253942035e+00 
-6.757857897910e+00 -2.170033610330e+00 0.0 
-2.170033610330e+00 -8.613691679435e+00 0.0 
0.0 0.0 -4.535411264128e+00 
-2.788015335706e+00 -1.512727416099e+00 0.0 
-1.512727416099e+00 -8.747861225943e+00 0.0 
0.0 0.0 -3.386438792140e+00 
-4.803171226913e-01 -8.968458435556e-01 0.0 
-8.968458435556e-01 -9.499151464607e+00 0.0 
0.0 0.0 -2.930509820858e+00 
9.333509421105e-01 -1.842186141815e-01 0.0 
-1.842186141815e-01 -8.942474297771e+00 0.0 
0.0 0.0 -1.323694523990e+00 
9.984105623721e-01 6.454009356773e-02 0.0 
6.454009356773e-02 -7.799569538917e+00 0.0 
0.0 0.0 3.768395255694e-01 
9.357041386670e-01 8.722596905493e-03 0.0 
8.722596905493e-03 -7.865328218248e+00 0.0 
0.0 0.0 9.629832996274e-01 
9.354406454120e-01 -1.067218846711e-01 0.0 
-1.067218846711e-01 -8.236499980407e+00 0.0 
0.0 0.0 9.629832996274e-01 
9.994916211001e-01 2.524609207508e-02 0.0 
2.524609207508e-02 -8.349742630842e+00 0.0 
0.0 0.0 1.000000000000e+00 
9.995834272737e-01 1.559563176602e-02 0.0 
1.559563176602e-02 -7.885624500823e+00 0.0 
0.0 0.0 1.000000000000e+00 
9.997485255457e-01 -1.773996804355e-02 0.0 
-1.773996804355e-02 -7.033594950869e+00 0.0 
0.0 0.0 1.000000000000e+00 
-1.977405022340e+01 1.080065360284e+01 0.0 
1.080065360284e+01 -1.123407755433e+01 0.0 
0.0 0.0 -8.994837380106e+00 
-2.226577875974e+01 1.438034731971e+01 0.0 
1.438034731971e+01 -1.814614822643e+01 0.0 
0.0 0.0 -1.172357809585e+01 
-2.192901881992e+01 1.447063589172e+01 0.0 
1.447063589172e+01 -1.871750556545e+01 0.0 
0.0 0.0 -1.179395731561e+01 
-2.094373905408e+01 1.435169342755e+01 0.0 
1.435169342755e+01 -1.875790935638e+01 0.0 
0.0 0.0 -1.151049452314e+01 
-2.035560428282e+01 1.415113186184e+01 0.0 
1.415113186184e+01 -1.798887340613e+01 0.0 
0.0 0.0 -1.110334330669e+01 
-1.971171131496e+01 1.399098883376e+01 0.0 
1.399098883376e+01 -1.769561264617e+01 0.0 
0.0 0.0 -1.082219718834e+01 
-2.034911256881e+01 1.413729111021e+01 0.0 
1.413729111021e+01 -1.798939340499e+01 0.0 
0.0 0.0 -1.110155179214e+01 
-2.141284230648e+01 1.430541402850e+01 0.0 
1.430541402850e+01 -1.811450730361e+01 0.0 
0.0 0.0 -1.145820488303e+01 
-2.443153797062e+01 1.459894203813e+01 0.0 
1.459894203813e+01 -1.814059709117e+01 0.0 
0.0 0.0 -1.237164051854e+01 
-3.680108551688e+01 1.467671387759e+01 0.0 
1.467671387759e+01 -1.917977031543e+01 0.0 
0.0 0.0 -1.639425674969e+01 
-2.280911381327e+01 1.471718698474e+01 0.0 
1.471718698474e+01 -2.618347545417e+01 0.0 
0.0 0.0 -1.429777678023e+01 
-1.575012661698e+02 1.874072694551e+01 0.0 
1.874072694551e+01 -3.442873283026e+02 0.0 
0.0 0.0 -1.556339711829e+02 
-9.894798101392e+00 -3.794879683911e+00 0.0 
-3.794879683911e+00 -1.727456561756e+01 0.0 
0.0 0.0 -8.138109140542e+00 
-2.468434206411e+01 -6.505385215668e-01 0.0 
-6.505385215668e-01 -1.538936745932e+01 0.0 
0.0 0.0 -1.200902058760e+01 
-1.640692689790e+02 9.314168194639e+00 0.0 
9.314168194639e+00 -3.623138364833e+02 0.0 
0.0 0.0 -1.636295176794e+02 
-2.311590014920e+01 1.592991906243e+01 0.0 
1.592991906243e+01 -2.816591278165e+01 0.0 
0.0 0.0 -1.498454387926e+01 
-9.194904460143e+01 -7.867972104979e-01 0.0 
-7.867972104979e-01 -2.106691759921e+02 0.0 
0.0 0.0 -9.054134418414e+01 
-1.509751290357e+02 2.777136350700e+01 0.0 
2.777136350700e+01 -3.229970456836e+02 0.0 
0.0 0.0 -1.465909990501e+02 
-2.513990786331e+01 1.650221404892e+01 0.0 
1.650221404892e+01 -2.885547131914e+01 0.0 
0.0 0.0 -1.579861375473e+01 
-1.449587579433e+02 3.601783561888e+01 0.0 
3.601783561888e+01 -2.994027491400e+02 0.0 
0.0 0.0 -1.369647263434e+02 
-2.976102985115e+01 1.782016863727e+01 0.0 
1.782016863727e+01 -3.036595202533e+01 0.0 
0.0 0.0 -1.763809456294e+01 
-1.691930260681e+02 4.436024344010e+00 0.0 
4.436024344010e+00 -3.740017678575e+02 0.0 
0.0 0.0 -1.690949094022e+02 
-6.199346770344e-01 -4.017216298453e-01 0.0 
-4.017216298453e-01 -1.633625199477e+01 0.0 
0.0 0.0 -4.249593934637e+00 
-1.381589505959e+02 4.204695578614e+01 0.0 
4.204695578614e+01 -2.727765382466e+02 0.0 
0.0 0.0 -1.260981031710e+02 
-5.258700377081e+01 1.942375174673e+01 0.0 
1.942375174673e+01 -3.346634419716e+01 0.0 
0.0 0.0 -2.541600439039e+01 
-5.099113718286e+01 -2.063281206388e-01 0.0 
-2.063281206388e-01 -1.288395573062e+02 0.0 
0.0 0.0 -5.354920834673e+01 
-1.179787791221e+02 -7.818894966670e-01 0.0 
-7.818894966670e-01 -2.666869974838e+02 0.0 
0.0 0.0 -1.173599746846e+02 
-1.319814683929e+02 4.485771430124e+01 0.0 
4.485771430124e+01 -2.507707488817e+02 0.0 
0.0 0.0 -1.169358694378e+02 
-1.148051300985e+02 3.921382713822e+01 0.0 
3.921382713822e+01 -2.217914387200e+02 0.0 
0.0 0.0 -1.019309102639e+02 
-8.632263851008e+01 1.082237346398e+01 0.0 
1.082237346398e+01 -1.888170602047e+02 0.0 
0.0 0.0 -8.214190961445e+01 
-9.107531799999e+01 1.876011781138e+01 0.0 
1.876011781138e+01 -1.918385324954e+02 0.0 
0.0 0.0 -8.449117454163e+01 
-1.005118552787e+02 2.933704119163e+01 0.0 
2.933704119163e+01 -2.049223613697e+02 0.0 
0.0 0.0 -9.172931489941e+01 
-4.645456299231e+01 6.305231157733e+00 0.0 
6.305231157733e+00 -2.032430276946e+01 0.0 
0.0 0.0 -1.963365972853e+01 
-3.567222268587e+01 5.192912193937e-01 0.0 
5.192912193937e-01 -1.766262706924e+01 0.0 
0.0 0.0 -1.560045492653e+01 
-3.433106934244e+01 3.275731852637e-01 0.0 
3.275731852637e-01 -1.879399209444e+01 0.0 
0.0 0.0 -1.553751843106e+01 
-5.859450222766e+01 7.136544376952e-01 0.0 
7.136544376952e-01 -8.954384638707e+01 0.0 
0.0 0.0 -4.404150458442e+01 
-1.713106208053e+02 2.212209336805e+00 0.0 
2.212209336805e+00 -3.786248053718e+02 0.0 
0.0 0.0 -1.712862535849e+02 
-2.299618750576e+01 2.967979825678e+00 0.0 
2.967979825678e+00 -1.461385365049e+01 0.0 
0.0 0.0 -1.128327622059e+01 
-8.639633362737e-02 -2.569659676528e-02 0.0 
-2.569659676528e-02 -1.712587458639e+01 0.0 
0.0 0.0 -3.198715573999e+00 
-1.481207750432e+02 -3.747293603658e-01 0.0 
-3.747293603658e-01 -3.305463566159e+02 0.0 
0.0 0.0 -1.481173049208e+02 
-3.201102463695e+01 -5.808983780088e-03 0.0 
-5.808983780088e-03 -1.647691648750e+01 0.0 
0.0 0.0 -1.414638233733e+01 
-2.189215993598e+01 1.700095887671e-02 0.0 
1.700095887671e-02 -6.847469154514e+01 0.0 
0.0 0.0 -2.671005544434e+01 
-1.233812747236e+02 4.338421707590e+01 0.0 
4.338421707590e+01 -2.324679352700e+02 0.0 
0.0 0.0 -1.081898429078e+02 
-1.485601363807e+02 3.225665267894e+01 0.0 
3.225665267894e+01 -3.126433394815e+02 0.0 
0.0 0.0 -1.424399620381e+02 
-1.418198868819e+02 3.929589756215e+01 0.0 
3.929589756215e+01 -2.867986854148e+02 0.0 
0.0 0.0 -1.318467808340e+02 
-1.535013771892e+02 2.336314684610e+01 0.0 
2.336314684610e+01 -3.324629080050e+02 0.0 
0.0 0.0 -1.504895712531e+02 
-1.605858300939e+02 1.470971948388e+01 0.0 
1.470971948388e+01 -3.529797005305e+02 0.0 
0.0 0.0 -1.594625913424e+02 
-2.021801794986e+01 -3.082472588822e+00 0.0 
-3.082472588822e+00 -1.644626873876e+01 0.0 
0.0 0.0 -1.098848763080e+01 
-3.841766668659e+01 1.784096512943e+00 0.0 
1.784096512943e+00 -1.761754247143e+01 0.0 
0.0 0.0 -1.641056274741e+01 
-1.651180054053e+02 6.391033968840e+00 0.0 
6.391033968840e+00 -3.652027553552e+02 0.0 
0.0 0.0 -1.649096287593e+02 
-7.066658211942e+01 1.145419872936e+00 0.0 
1.145419872936e+00 -1.298114998229e+02 0.0 
0.0 0.0 -5.974342458270e+01 
-4.315597084393e+00 -2.258194590328e+00 0.0 
-2.258194590328e+00 -1.772119477288e+01 0.0 
0.0 0.0 -6.611906356688e+00 
-7.140621562874e+01 -7.274012893833e-01 0.0 
-7.274012893833e-01 -1.684786434615e+02 0.0 
0.0 0.0 -7.156545772708e+01 
-8.539877576365e+01 6.582906409692e+00 0.0 
6.582906409692e+00 -1.905785899849e+02 0.0 
0.0 0.0 -8.239320972458e+01 
-2.460783568132e+01 1.652649147586e+01 0.0 
1.652649147586e+01 -3.077988552460e+01 0.0 
0.0 0.0 -1.621631636178e+01 
-2.300598449548e+01 1.581606097882e+01 0.0 
1.581606097882e+01 -2.812358672665e+01 0.0 
0.0 0.0 -1.493887136664e+01 
-2.695970750671e+01 1.709124848720e+01 0.0 
1.709124848720e+01 -2.989868033298e+01 0.0 
0.0 0.0 -1.665751635190e+01 
-3.572272163069e+01 1.879030001464e+01 0.0 
1.879030001464e+01 -3.052387263322e+01 0.0 
0.0 0.0 -1.947397827917e+01 
-2.078814731537e+01 1.117121784421e+01 0.0 
1.117121784421e+01 -1.865671570168e+01 0.0 
0.0 0.0 -1.148272693880e+01 
-4.538310751955e+01 2.508874169655e-01 0.0 
2.508874169655e-01 -5.158841318091e+01 0.0 
0.0 0.0 -2.869145621014e+01 
-1.743599028643e+02 1.241297849693e+00 0.0 
1.241297849693e+00 -3.850017909541e+02 0.0 
0.0 0.0 -1.743506837435e+02 
2.782600937037e-01 -2.367366674648e-01 0.0 
-2.367366674648e-01 -1.593655620172e+01 0.0 
0.0 0.0 -2.498417555534e+00 
-8.049723880205e+01 1.570511764951e+00 0.0 
1.570511764951e+00 -1.705140853009e+02 0.0 
0.0 0.0 -7.490339723088e+01 
-5.593563658652e+01 1.722208979193e+01 0.0 
1.722208979193e+01 -3.457117259980e+01 0.0 
0.0 0.0 -2.675204275590e+01 
-6.400267296503e+01 2.283658329394e+01 0.0 
2.283658329394e+01 -5.419175466601e+01 0.0 
0.0 0.0 -3.505832828931e+01 
-6.622331544736e+01 1.906178460190e+01 0.0 
1.906178460190e+01 -5.490337825756e+01 0.0 
0.0 0.0 -3.593800811148e+01 
-7.205081707254e+01 2.476500934805e+01 0.0 
2.476500934805e+01 -7.718578567115e+01 0.0 
0.0 0.0 -4.437098082311e+01 
-7.453437678723e+01 2.249487138091e+01 0.0 
2.249487138091e+01 -8.052097616909e+01 0.0 
0.0 0.0 -4.611660588689e+01 
-7.944568996149e+01 2.667150426417e+01 0.0 
2.667150426417e+01 -9.978314606190e+01 0.0 
0.0 0.0 -5.336865080702e+01 
-7.683149398912e+01 2.813952296158e+01 0.0 
2.813952296158e+01 -9.737822551536e+01 0.0 
0.0 0.0 -5.186291585134e+01 
-8.418061611920e+01 2.978063675743e+01 0.0 
2.978063675743e+01 -1.190245038992e+02 0.0 
0.0 0.0 -6.056153600551e+01 
-8.130853488404e+01 3.055474300925e+01 0.0 
3.055474300925e+01 -1.167588373437e+02 0.0 
0.0 0.0 -5.902021166831e+01 
-8.233866541530e+01 2.497281909876e+01 0.0 
2.497281909876e+01 -1.039700554043e+02 0.0 
0.0 0.0 -5.549261624588e+01 
-8.883951741311e+01 3.220668851748e+01 0.0 
3.220668851748e+01 -1.378805007105e+02 0.0 
0.0 0.0 -6.761600543709e+01 
-8.589277606316e+01 3.251283280677e+01 0.0 
3.251283280677e+01 -1.354408332193e+02 0.0 
0.0 0.0 -6.600008278475e+01 
-9.362978532028e+01 3.425761790584e+01 0.0 
3.425761790584e+01 -1.562644795571e+02 0.0 
0.0 0.0 -7.456827946322e+01 
-9.068358131935e+01 3.419298605561e+01 0.0 
3.419298605561e+01 -1.536528613078e+02 0.0 
0.0 0.0 -7.290093278815e+01 
-8.298319836701e+01 3.255054699570e+01 0.0 
3.255054699570e+01 -1.334752764929e+02 0.0 
0.0 0.0 -6.453754245798e+01 
-8.768497693420e+01 3.385823696717e+01 0.0 
3.385823696717e+01 -1.513710231234e+02 0.0 
0.0 0.0 -7.131680001728e+01 
-8.002977572895e+01 3.235026520536e+01 0.0 
3.235026520536e+01 -1.316170522568e+02 0.0 
0.0 0.0 -6.309404839572e+01 
-8.463369721807e+01 3.328654113656e+01 0.0 
3.328654113656e+01 -1.493713142467e+02 0.0 
0.0 0.0 -6.980150343944e+01 
-9.258268280104e+01 3.484121351910e+01 0.0 
3.484121351910e+01 -1.687310024437e+02 0.0 
0.0 0.0 -7.799410557342e+01 
-8.940486977822e+01 3.386890704511e+01 0.0 
3.386890704511e+01 -1.666526723437e+02 0.0 
0.0 0.0 -7.641726263658e+01 
-8.143178991899e+01 3.246421908007e+01 0.0 
3.246421908007e+01 -1.476780252092e+02 0.0 
0.0 0.0 -6.833294453846e+01 
-8.600964160220e+01 3.260908281822e+01 0.0 
3.260908281822e+01 -1.644820955838e+02 0.0 
0.0 0.0 -7.474752115580e+01 
-7.809009282423e+01 3.138730066891e+01 0.0 
3.138730066891e+01 -1.461328251077e+02 0.0 
0.0 0.0 -6.686687537957e+01 
-8.257926439094e+01 3.101965228848e+01 0.0 
3.101965228848e+01 -1.612485610747e+02 0.0 
0.0 0.0 -7.274834763969e+01 
-7.469139163382e+01 2.995140420969e+01 0.0 
2.995140420969e+01 -1.434114750963e+02 0.0 
0.0 0.0 -6.503086001903e+01 
-7.918509441743e+01 2.912537733370e+01 0.0 
2.912537733370e+01 -1.576874147839e+02 0.0 
0.0 0.0 -7.066175276040e+01 
-8.702534681958e+01 3.003924259972e+01 0.0 
3.003924259972e+01 -1.750660860704e+02 0.0 
0.0 0.0 -7.822742986699e+01 
-8.344942124120e+01 2.768756760918e+01 0.0 
2.768756760918e+01 -1.716450195349e+02 0.0 
0.0 0.0 -7.612833223282e+01 
-7.576467885976e+01 2.688236774214e+01 0.0 
2.688236774214e+01 -1.547332299608e+02 0.0 
0.0 0.0 -6.874937264618e+01 
-7.984836541204e+01 2.505128128629e+01 0.0 
2.505128128629e+01 -1.684093464251e+02 0.0 
0.0 0.0 -7.407731355115e+01 
-7.231096384840e+01 2.440205981590e+01 0.0 
2.440205981590e+01 -1.518685294295e+02 0.0 
0.0 0.0 -6.685384798338e+01 
-7.620602155412e+01 2.224044015815e+01 0.0 
2.224044015815e+01 -1.649564149339e+02 0.0 
0.0 0.0 -7.194873094639e+01 
-8.297006727385e+01 2.218462959308e+01 0.0 
2.218462959308e+01 -1.803840729319e+02 0.0 
0.0 0.0 -7.860624206172e+01 
-7.936677168538e+01 1.928835730543e+01 0.0 
1.928835730543e+01 -1.763697517334e+02 0.0 
0.0 0.0 -7.632095702565e+01 
-7.248426424765e+01 1.930582896230e+01 0.0 
1.930582896230e+01 -1.610358986870e+02 0.0 
0.0 0.0 -6.965604888040e+01 
-7.576344926617e+01 1.637462600052e+01 0.0 
1.637462600052e+01 -1.719314740848e+02 0.0 
0.0 0.0 -7.390847700529e+01 
-6.870285122155e+01 1.631622435864e+01 0.0 
1.631622435864e+01 -1.565604395998e+02 0.0 
0.0 0.0 -6.717898724642e+01 
-7.218898148354e+01 1.353685447143e+01 0.0 
1.353685447143e+01 -1.670401644115e+02 0.0 
0.0 0.0 -7.136874376851e+01 
-6.488222020612e+01 1.334817993691e+01 0.0 
1.334817993691e+01 -1.514720164194e+02 0.0 
0.0 0.0 -6.450627098765e+01 
-6.859098836763e+01 1.082201292902e+01 0.0 
1.082201292902e+01 -1.615887416388e+02 0.0 
0.0 0.0 -6.865391900192e+01 
-7.709078588519e+01 1.218038290101e+01 0.0 
1.218038290101e+01 -1.786390374868e+02 0.0 
0.0 0.0 -7.631894701158e+01 
-7.369898437870e+01 9.765254045611e+00 0.0 
9.765254045611e+00 -1.731088489208e+02 0.0 
0.0 0.0 -7.364234998985e+01 
-6.503281007167e+01 8.307290003898e+00 0.0 
8.307290003898e+00 -1.557088593682e+02 0.0 
0.0 0.0 -6.582250083196e+01 
-7.022622172309e+01 7.496355793097e+00 0.0 
7.496355793097e+00 -1.670503403647e+02 0.0 
0.0 0.0 -7.078296862634e+01 
-7.921968153131e+01 9.190607919928e+00 0.0 
9.190607919928e+00 -1.850565593549e+02 0.0 
0.0 0.0 -7.888287226587e+01 
-7.566699827170e+01 7.035355622011e+00 0.0 
7.035355622011e+00 -1.786488181263e+02 0.0 
0.0 0.0 -7.589474491940e+01 
-8.455984340936e+01 8.557848029513e+00 0.0 
8.557848029513e+00 -1.965805508400e+02 0.0 
0.0 0.0 -8.404099165571e+01 
-8.091404806009e+01 6.489030306381e+00 0.0 
6.489030306381e+00 -1.898286041622e+02 0.0 
0.0 0.0 -8.084264208423e+01 
-7.205928929870e+01 5.073889318675e+00 0.0 
5.073889318675e+00 -1.718409669019e+02 0.0 
0.0 0.0 -7.277007686018e+01 
-7.719282736349e+01 4.611116277430e+00 0.0 
4.611116277430e+00 -1.826713139383e+02 0.0 
0.0 0.0 -7.755924239054e+01 
-8.599351694111e+01 5.893842269437e+00 0.0 
5.893842269437e+00 -2.006307366353e+02 0.0 
0.0 0.0 -8.576398155335e+01 
-8.216735842594e+01 4.124573258429e+00 0.0 
4.124573258429e+00 -1.931479956348e+02 0.0 
0.0 0.0 -8.224538453884e+01 
-7.337816514046e+01 2.937936578366e+00 0.0 
2.937936578366e+00 -1.751117104365e+02 0.0 
0.0 0.0 -7.414696267309e+01 
-7.827038550618e+01 2.551393762949e+00 0.0 
2.551393762949e+00 -1.853429798331e+02 0.0 
0.0 0.0 -7.868400960179e+01 
-8.708224322202e+01 3.652648486125e+00 0.0 
3.652648486125e+00 -2.034707410417e+02 0.0 
0.0 0.0 -8.700942975670e+01 
-8.309324812947e+01 2.164516560044e+00 0.0 
2.164516560044e+00 -1.954147240288e+02 0.0 
0.0 0.0 -8.323037110229e+01 
-7.428718800071e+01 1.161504659895e+00 0.0 
1.161504659895e+00 -1.772213373009e+02 0.0 
0.0 0.0 -7.505255759049e+01 
-7.901620158463e+01 8.417035535460e-01 0.0 
8.417035535460e-01 -1.870598392350e+02 0.0 
0.0 0.0 -7.942302316165e+01 
-8.786574239086e+01 1.747967284606e+00 0.0 
1.747967284606e+00 -2.053712877687e+02 0.0 
0.0 0.0 -8.786062502405e+01 
-8.366850805912e+01 4.777547079655e-01 0.0 
4.777547079655e-01 -1.967327427885e+02 0.0 
0.0 0.0 -8.381580011003e+01 
-7.484001403418e+01 -3.425907786869e-01 0.0 
-3.425907786869e-01 -1.784081655399e+02 0.0 
0.0 0.0 -7.557445387221e+01 
-7.938312214871e+01 -6.622440700054e-01 0.0 
-6.622440700054e-01 -1.878315755709e+02 0.0 
0.0 0.0 -7.977035095789e+01 
-8.827894154613e+01 6.930831982332e-02 0.0 
6.930831982332e-02 -2.063104345392e+02 0.0 
0.0 0.0 -8.829513086333e+01 
-8.386905995606e+01 -1.008864959162e+00 0.0 
-1.008864959162e+00 -1.971297720658e+02 0.0 
0.0 0.0 -8.400713794258e+01 
-9.282437756599e+01 -3.561942400010e-01 0.0 
-3.561942400010e-01 -2.157439804886e+02 0.0 
0.0 0.0 -9.281908598460e+01 
-7.492909862562e+01 -1.658197081324e+00 0.0 
-1.658197081324e+00 -1.785175782254e+02 0.0 
0.0 0.0 -7.563400305530e+01 
-7.932798604754e+01 -1.930494607492e+00 0.0 
-1.930494607492e+00 -1.876258127608e+02 0.0 
0.0 0.0 -7.969291981144e+01 
-7.032494379226e+01 -2.509852852396e+00 0.0 
-2.509852852396e+00 -1.688456638643e+02 0.0 
0.0 0.0 -7.135118229696e+01 
-7.468370684239e+01 -2.698420485030e+00 0.0 
-2.698420485030e+00 -1.778742653172e+02 0.0 
0.0 0.0 -7.536739164789e+01 
-8.709440434957e+01 2.006996342718e+01 0.0 
2.006996342718e+01 -1.924582453351e+02 0.0 
0.0 0.0 -8.355885363209e+01 
-6.562939893250e+01 -3.194119290277e+00 0.0 
-3.194119290277e+00 -1.589585168855e+02 0.0 
0.0 0.0 -6.697637474540e+01 
-6.139394923964e+01 -3.090086902495e+00 0.0 
-3.090086902495e+00 -1.501710029961e+02 0.0 
0.0 0.0 -6.306948567072e+01 
-6.994165425089e+01 -3.311786012005e+00 0.0 
-3.311786012005e+00 -1.679016685385e+02 0.0 
0.0 0.0 -7.095299683683e+01 
-7.906091867411e+01 -2.894634241271e+00 0.0 
-2.894634241271e+00 -1.869389420996e+02 0.0 
0.0 0.0 -7.940459171609e+01 
-6.080588998557e+01 -3.695080630391e+00 0.0 
-3.695080630391e+00 -1.488022589891e+02 0.0 
0.0 0.0 -6.248244469239e+01 
-6.504078732552e+01 -3.729608010139e+00 0.0 
-3.729608010139e+00 -1.576066200161e+02 0.0 
0.0 0.0 -6.639422220249e+01 
-5.577253987576e+01 -3.934032361730e+00 0.0 
-3.934032361730e+00 -1.382470641123e+02 0.0 
0.0 0.0 -5.780588119643e+01 
-6.117484773676e+01 1.610270022897e+01 0.0 
1.610270022897e+01 -1.402595236906e+02 0.0 
0.0 0.0 -6.003031142820e+01 
-9.765828720119e+01 3.538901215414e+01 0.0 
3.538901215414e+01 -1.854900005671e+02 0.0 
0.0 0.0 -8.462031043055e+01 
-5.988307725536e+01 -3.799289677892e+00 0.0 
-3.799289677892e+00 -1.468412895289e+02 0.0 
0.0 0.0 -6.161731003528e+01 
-5.034172496318e+01 -3.664519304712e+00 0.0 
-3.664519304712e+00 -1.270001318143e+02 0.0 
0.0 0.0 -5.280255703325e+01 
-4.633403110657e+01 -3.965479069469e+00 0.0 
-3.965479069469e+00 -1.185547341270e+02 0.0 
0.0 0.0 -4.906662957007e+01 
-4.070666506866e+01 -3.403360844353e+00 0.0 
-3.403360844353e+00 -1.069891233072e+02 0.0 
0.0 0.0 -4.390873651276e+01 
-7.735243341781e+01 2.080091223245e+01 0.0 
2.080091223245e+01 -8.636331445588e+01 0.0 
0.0 0.0 -4.871472436211e+01 
-8.433755250757e+01 2.321816598708e+01 0.0 
2.321816598708e+01 -1.093447815260e+02 0.0 
0.0 0.0 -5.770470021008e+01 
-7.869396892250e+01 1.872530015444e+01 0.0 
1.872530015444e+01 -9.190453948720e+01 0.0 
0.0 0.0 -5.077955252291e+01 
-8.591556006168e+01 2.174704304926e+01 0.0 
2.174704304926e+01 -1.155393098440e+02 0.0 
0.0 0.0 -6.003646097170e+01 
-8.039784132330e+01 1.732716960242e+01 0.0 
1.732716960242e+01 -9.984422245025e+01 0.0 
0.0 0.0 -5.367261913206e+01 
-4.457305890177e+01 -2.953333388227e+00 0.0 
-2.953333388227e+00 -1.151692241675e+02 0.0 
0.0 0.0 -4.752268492077e+01 
-9.650408247428e+01 3.404895583175e+01 0.0 
3.404895583175e+01 -1.594887725589e+02 0.0 
0.0 0.0 -7.639785650995e+01 
-9.108106046457e+01 2.583441856830e+01 0.0 
2.583441856830e+01 -1.323004247225e+02 0.0 
0.0 0.0 -6.661444555611e+01 
-7.360515226925e+01 3.118004733383e+01 0.0 
3.118004733383e+01 -1.286857814144e+02 0.0 
0.0 0.0 -6.028728010510e+01 
-6.806096252380e+01 2.593466314753e+01 0.0 
2.593466314753e+01 -1.377740872928e+02 0.0 
0.0 0.0 -6.135051494498e+01 
-8.813831592551e+01 1.080062059527e+01 0.0 
1.080062059527e+01 -2.029067202202e+02 0.0 
0.0 0.0 -8.716237467978e+01 
-6.923721544026e+01 -3.708493849573e+00 0.0 
-3.708493849573e+00 -1.663407707437e+02 0.0 
0.0 0.0 -7.027339585519e+01 
-6.394051990468e+01 -3.599053221270e+00 0.0 
-3.599053221270e+00 -1.553300924922e+02 0.0 
0.0 0.0 -6.538118371907e+01 
-7.342731908947e+01 -3.548860453149e+00 0.0 
-3.548860453149e+00 -1.750885741674e+02 0.0 
0.0 0.0 -7.415476797705e+01 
-9.721061243178e+01 8.082535368005e-01 0.0 
8.082535368005e-01 -2.248358519801e+02 0.0 
0.0 0.0 -9.720074765326e+01 
-1.017858116958e+02 3.179087265788e-01 0.0 
3.179087265788e-01 -2.343475500166e+02 0.0 
0.0 0.0 -1.017803240638e+02 
-1.061480069612e+02 1.556179397956e+00 0.0 
1.556179397956e+00 -2.433504385688e+02 0.0 
0.0 0.0 -1.061252426977e+02 
-1.107410893192e+02 1.012427185694e+00 0.0 
1.012427185694e+00 -2.529177986863e+02 0.0 
0.0 0.0 -1.107287282588e+02 
-1.150775304841e+02 2.317967486546e+00 0.0 
2.317967486546e+00 -2.618288652563e+02 0.0 
0.0 0.0 -1.150354235251e+02 
-1.197023899246e+02 1.744725649315e+00 0.0 
1.744725649315e+00 -2.714812291628e+02 0.0 
0.0 0.0 -1.196768739348e+02 
-1.153183416029e+02 5.333499564835e-01 0.0 
5.333499564835e-01 -2.624365781706e+02 0.0 
0.0 0.0 -1.153112742368e+02 
-1.243424232699e+02 1.277003378285e+00 0.0 
1.277003378285e+00 -2.811441461014e+02 0.0 
0.0 0.0 -1.243266880368e+02 
-1.199213500377e+02 1.669183271427e-01 0.0 
1.669183271427e-01 -2.719983784805e+02 0.0 
0.0 0.0 -1.199161792490e+02 
-1.240023885341e+02 3.110980769041e+00 0.0 
3.110980769041e+00 -2.802783339908e+02 0.0 
0.0 0.0 -1.239346735531e+02 
-1.193014944989e+02 3.780175951268e+00 0.0 
3.780175951268e+00 -2.704185627290e+02 0.0 
0.0 0.0 -1.192010776524e+02 
-1.290001454831e+02 9.142593569802e-01 0.0 
9.142593569802e-01 -2.908304937506e+02 0.0 
0.0 0.0 -1.289898698980e+02 
-1.245384326657e+02 -1.056591731206e-01 0.0 
-1.056591731206e-01 -2.815847202592e+02 0.0 
0.0 0.0 -1.245336380105e+02 
-1.336469256912e+02 6.129478401538e-01 0.0 
6.129478401538e-01 -3.004872515232e+02 0.0 
0.0 0.0 -1.336398750571e+02 
-1.291392155030e+02 -3.183785196706e-01 0.0 
-3.183785196706e-01 -2.911354119876e+02 0.0 
0.0 0.0 -1.291342081511e+02 
-1.199651584713e+02 -9.654638712767e-01 0.0 
-9.654638712767e-01 -2.720735607993e+02 0.0 
0.0 0.0 -1.199548625184e+02 
-1.244998815408e+02 -1.082153048136e+00 0.0 
-1.082153048136e+00 -2.814848668812e+02 0.0 
0.0 0.0 -1.244886434326e+02 
-1.152939774025e+02 -1.629072432174e+00 0.0 
-1.629072432174e+00 -2.623417851432e+02 0.0 
0.0 0.0 -1.152725368471e+02 
-9.337266956699e+01 1.000977577265e+01 0.0 
1.000977577265e+01 -2.143445265004e+02 0.0 
0.0 0.0 -9.254237768788e+01 
-9.695744443382e+01 1.231560971854e+01 0.0 
1.231560971854e+01 -2.205767115607e+02 0.0 
0.0 0.0 -9.573381985901e+01 
-1.022010221850e+02 1.146680927824e+01 0.0 
1.146680927824e+01 -2.321119087858e+02 0.0 
0.0 0.0 -1.011885115799e+02 
-1.057947734659e+02 1.382698506835e+01 0.0 
1.382698506835e+01 -2.382668420333e+02 0.0 
0.0 0.0 -1.043577577771e+02 
-1.110134250087e+02 1.289568052584e+01 0.0 
1.289568052584e+01 -2.498411854520e+02 0.0 
0.0 0.0 -1.098170723406e+02 
-1.146055448259e+02 1.530091343094e+01 0.0 
1.530091343094e+01 -2.559102036213e+02 0.0 
0.0 0.0 -1.129578576163e+02 
-1.197843243512e+02 1.428478936878e+01 0.0 
1.428478936878e+01 -2.674914429095e+02 0.0 
0.0 0.0 -1.184064518071e+02 
-1.161284916514e+02 1.194246889785e+01 0.0 
1.194246889785e+01 -2.611087378652e+02 0.0 
0.0 0.0 -1.151429758501e+02 
-9.868600248561e+01 3.606266877872e+01 0.0 
3.606266877872e+01 -1.741534531801e+02 0.0 
0.0 0.0 -8.145183669970e+01 
-6.142509290176e+01 5.964830777048e+00 0.0 
5.964830777048e+00 -1.493080771231e+02 0.0 
0.0 0.0 -6.281995100746e+01 
-5.716938044221e+01 7.707352166254e+00 0.0 
7.707352166254e+00 -1.394750488101e+02 0.0 
0.0 0.0 -5.859332877568e+01 
-5.331689622260e+01 5.156062865797e+00 0.0 
5.156062865797e+00 -1.326679954927e+02 0.0 
0.0 0.0 -5.539546751458e+01 
-4.961536184448e+01 7.585052935927e+00 0.0 
7.585052935927e+00 -1.236100988587e+02 0.0 
0.0 0.0 -5.156763821096e+01 
-4.557850680762e+01 4.924976105990e+00 0.0 
4.924976105990e+00 -1.165622082021e+02 0.0 
0.0 0.0 -4.824221450293e+01 
-4.200440262545e+01 7.463521408193e+00 0.0 
7.463521408193e+00 -1.075974104365e+02 0.0 
0.0 0.0 -4.448054391859e+01 
-3.786540775711e+01 4.867593100295e+00 0.0 
4.867593100295e+00 -1.004353402740e+02 0.0 
0.0 0.0 -4.109022440934e+01 
-4.148735675578e+01 2.503847016302e+00 0.0 
2.503847016302e+00 -1.088393214384e+02 0.0 
0.0 0.0 -4.469800345825e+01 
-3.364324765900e+01 2.459720926167e+00 0.0 
2.459720926167e+00 -9.251401671710e+01 0.0 
0.0 0.0 -3.744717931283e+01 
-3.736648345961e+01 3.424586640418e-01 0.0 
3.424586640418e-01 -1.005746284168e+02 0.0 
0.0 0.0 -4.098233356293e+01 
-2.936687906869e+01 1.978553169905e-01 0.0 
1.978553169905e-01 -8.395705307593e+01 0.0 
0.0 0.0 -3.359717964339e+01 
-3.321564478740e+01 -1.502702548104e+00 0.0 
-1.502702548104e+00 -9.185653229304e+01 0.0 
0.0 0.0 -3.712165312413e+01 
-9.027034828189e+01 2.771502444864e+01 0.0 
2.771502444864e+01 -1.877551911375e+02 0.0 
0.0 0.0 -8.306787172575e+01 
-1.093174147229e+02 1.632283008371e+01 0.0 
1.632283008371e+01 -2.439683863541e+02 0.0 
0.0 0.0 -1.073564921171e+02 
-1.181375239904e+02 1.786227591659e+01 0.0 
1.786227591659e+01 -2.615351515767e+02 0.0 
0.0 0.0 -1.159347265844e+02 
-1.127478151234e+02 1.893076151106e+01 0.0 
1.893076151106e+01 -2.491551747410e+02 0.0 
0.0 0.0 -1.101578949848e+02 
-3.675856250637e+01 -3.812053153605e+00 0.0 
-3.812053153605e+00 -9.861202137429e+01 0.0 
0.0 0.0 -4.021117516420e+01 
-1.337159482818e+02 -4.925971807323e-01 0.0 
-4.925971807323e-01 -3.006350892274e+02 0.0 
0.0 0.0 -1.337103752013e+02 
-1.281973070866e+02 4.648597291528e+00 0.0 
4.648597291528e+00 -2.887625295803e+02 0.0 
0.0 0.0 -1.280565870442e+02 
-1.234107947277e+02 5.401902397502e+00 0.0 
5.401902397502e+00 -2.786613480230e+02 0.0 
0.0 0.0 -1.232166758550e+02 
-1.248757682789e+02 1.326048421500e+01 0.0 
1.326048421500e+01 -2.787833339137e+02 0.0 
0.0 0.0 -1.237325880442e+02 
-3.494616026349e+01 -2.580213338571e+00 0.0 
-2.580213338571e+00 -9.521612328112e+01 0.0 
0.0 0.0 -3.864868506338e+01 
-3.435593908052e+01 7.313542042841e+00 0.0 
7.313542042841e+00 -9.145022441748e+01 0.0 
0.0 0.0 -3.734184904940e+01 
-3.833039992847e+01 9.897123128494e+00 0.0 
9.897123128494e+00 -9.758531824565e+01 0.0 
0.0 0.0 -4.037471545224e+01 
-8.711161849813e+01 2.048802969748e+01 0.0 
2.048802969748e+01 -1.227463937074e+02 0.0 
0.0 0.0 -6.255740366166e+01 
-8.161332626281e+01 1.629142093483e+01 0.0 
1.629142093483e+01 -1.081468433118e+02 0.0 
0.0 0.0 -5.652805087238e+01 
-1.323121653538e+02 6.347234173543e+00 0.0 
6.347234173543e+00 -2.969658270078e+02 0.0 
0.0 0.0 -1.320611548377e+02 
-3.875056028848e+01 -2.109597111830e+00 0.0 
-2.109597111830e+00 -1.032416772596e+02 0.0 
0.0 0.0 -4.219767126444e+01 
-1.333771200200e+02 2.079980257669e+00 0.0 
2.079980257669e+00 -2.998520915324e+02 0.0 
0.0 0.0 -1.333456754680e+02 
-2.577691571223e+01 2.471672591701e+00 0.0 
2.471672591701e+00 -7.610406495961e+01 0.0 
0.0 0.0 -3.016429420155e+01 
-1.290055263154e+02 -1.171112104510e+00 0.0 
-1.171112104510e+00 -2.908364202260e+02 0.0 
0.0 0.0 -1.289935458444e+02 
-1.382839322485e+02 -6.075006598613e-01 0.0 
-6.075006598613e-01 -3.101176016211e+02 0.0 
0.0 0.0 -1.382781178571e+02 
-1.108617946825e+02 -5.238267847266e-01 0.0 
-5.238267847266e-01 -2.531858622779e+02 0.0 
0.0 0.0 -1.108551150065e+02 
-1.216226454872e+02 2.052861835588e+01 0.0 
2.052861835588e+01 -2.667490863236e+02 0.0 
0.0 0.0 -1.187627441328e+02 
-1.161416902062e+02 2.161748237849e+01 0.0 
2.161748237849e+01 -2.539421503313e+02 0.0 
0.0 0.0 -1.128174466207e+02 
-4.177089508882e+01 -7.533160620301e-01 0.0 
-7.533160620301e-01 -1.097216042951e+02 0.0 
0.0 0.0 -4.504774981516e+01 
-3.774291126731e+01 -1.983419503202e+00 0.0 
-1.983419503202e+00 -1.011960838759e+02 0.0 
0.0 0.0 -4.128169854296e+01 
-2.928217307699e+01 -2.809447065210e+00 0.0 
-2.809447065210e+00 -8.335302117343e+01 0.0 
0.0 0.0 -3.339055827512e+01 
-3.429039678640e+01 -3.193373317542e+00 0.0 
-3.193373317542e+00 -9.365277394903e+01 0.0 
0.0 0.0 -3.798295122063e+01 
-4.284807806083e+01 -2.074073167431e+00 0.0 
-2.074073167431e+00 -1.117885483378e+02 0.0 
0.0 0.0 -4.599098791958e+01 
-3.865645789321e+01 -3.289559481200e+00 0.0 
-3.289559481200e+00 -1.027655183823e+02 0.0 
0.0 0.0 -4.202659288264e+01 
-2.983788051239e+01 -4.478902170805e+00 0.0 
-4.478902170805e+00 -8.381959390122e+01 0.0 
0.0 0.0 -3.369724232408e+01 
-3.457445104530e+01 -4.118765728884e+00 0.0 
-4.118765728884e+00 -9.392491676535e+01 0.0 
0.0 0.0 -3.814981034320e+01 
-4.357906017166e+01 -3.019216215705e+00 0.0 
-3.019216215705e+00 -1.131043567831e+02 0.0 
0.0 0.0 -4.660502508644e+01 
-3.930325756720e+01 -3.886821775891e+00 0.0 
-3.886821775891e+00 -1.039095993946e+02 0.0 
0.0 0.0 -4.256385708853e+01 
-3.031917706038e+01 -4.911607363412e+00 0.0 
-4.911607363412e+00 -8.461231610572e+01 0.0 
0.0 0.0 -3.407944794983e+01 
-3.481553914078e+01 -4.455025182857e+00 0.0 
-4.455025182857e+00 -9.428919655752e+01 0.0 
0.0 0.0 -3.833142070949e+01 
-1.429004007929e+02 1.563064385646e-01 0.0 
1.563064385646e-01 -3.197064046947e+02 0.0 
0.0 0.0 -1.428961771372e+02 
-2.187135644825e+01 3.023497812369e-01 0.0 
3.023497812369e-01 -6.742569531673e+01 0.0 
0.0 0.0 -2.638911552949e+01 
-7.569859761040e+01 3.116540001752e+01 0.0 
3.116540001752e+01 -1.133854430155e+02 0.0 
0.0 0.0 -5.632521218776e+01 
-1.370893071979e+02 5.570130449388e+00 0.0 
5.570130449388e+00 -3.070744360477e+02 0.0 
0.0 0.0 -1.369004343573e+02 
-1.284332386231e+02 1.564912598633e+01 0.0 
1.564912598633e+01 -2.848887467805e+02 0.0 
0.0 0.0 -1.268739406832e+02 
-8.790944422042e+01 1.950627618070e+01 0.0 
1.950627618070e+01 -1.307505524818e+02 0.0 
0.0 0.0 -6.519799901067e+01 
-8.256186236179e+01 1.557637778389e+01 0.0 
1.557637778389e+01 -1.171228424933e+02 0.0 
0.0 0.0 -5.950541145653e+01 
-7.559159805588e+01 1.225463322884e+01 0.0 
1.225463322884e+01 -9.483434440775e+01 0.0 
0.0 0.0 -5.072778273909e+01 
-7.691142520900e+01 1.192326999365e+01 0.0 
1.192326999365e+01 -1.047183279348e+02 0.0 
0.0 0.0 -5.408892594313e+01 
-8.323781522201e+01 1.508496598047e+01 0.0 
1.508496598047e+01 -1.266946992016e+02 0.0 
0.0 0.0 -6.257975432707e+01 
-7.802068293764e+01 1.169889774716e+01 0.0 
1.169889774716e+01 -1.148574163871e+02 0.0 
0.0 0.0 -5.746342979744e+01 
-7.108449643544e+01 8.773906794899e+00 0.0 
8.773906794899e+00 -9.332865241486e+01 0.0 
0.0 0.0 -4.892394465509e+01 
-7.272279703028e+01 8.776262006372e+00 0.0 
8.776262006372e+00 -1.038137617008e+02 0.0 
0.0 0.0 -5.256096761932e+01 
-6.531901709638e+01 6.193039235391e+00 0.0 
6.193039235391e+00 -8.274052112419e+01 0.0 
0.0 0.0 -4.401786146617e+01 
-6.746196720677e+01 6.376571965240e+00 0.0 
6.376571965240e+00 -9.346391715436e+01 0.0 
0.0 0.0 -4.787776530834e+01 
-7.420005533242e+01 8.740571584501e+00 0.0 
8.740571584501e+00 -1.144517152705e+02 0.0 
0.0 0.0 -5.619553118086e+01 
-6.943894789527e+01 6.491104133064e+00 0.0 
6.491104133064e+00 -1.043555999890e+02 0.0 
0.0 0.0 -5.173836436527e+01 
-6.233848637397e+01 4.474275654035e+00 0.0 
4.474275654035e+00 -8.371596077282e+01 0.0 
0.0 0.0 -4.341633414404e+01 
-6.478542699678e+01 4.673022807574e+00 0.0 
4.673022807574e+00 -9.466207869018e+01 0.0 
0.0 0.0 -4.743425170609e+01 
-5.743941175792e+01 3.045458154330e+00 0.0 
3.045458154330e+00 -7.427824427895e+01 0.0 
0.0 0.0 -3.911529681106e+01 
-6.033098181406e+01 3.272879935378e+00 0.0 
3.272879935378e+00 -8.517021067179e+01 0.0 
0.0 0.0 -4.325035774575e+01 
-6.711970275286e+01 4.658794924503e+00 0.0 
4.658794924503e+00 -1.057334833818e+02 0.0 
0.0 0.0 -5.145595584039e+01 
-2.944249497283e+01 -1.731787149130e+00 0.0 
-1.731787149130e+00 -8.396499953307e+01 0.0 
0.0 0.0 -3.362224835177e+01 
-1.211880721757e+02 1.098291544649e+01 0.0 
1.098291544649e+01 -2.721751865659e+02 0.0 
0.0 0.0 -1.203854633517e+02 
-1.299988364930e+02 1.224575540570e+01 0.0 
1.224575540570e+01 -2.900441828665e+02 0.0 
0.0 0.0 -1.290589135627e+02 
-6.813757691134e+01 -3.223786303123e+00 0.0 
-3.223786303123e+00 -1.641354664858e+02 0.0 
0.0 0.0 -6.928191301913e+01 
-7.755141171083e+01 -3.205814156434e+00 0.0 
-3.205814156434e+00 -1.834738000426e+02 0.0 
0.0 0.0 -7.790756352603e+01 
-8.279760620570e+01 -3.433828228818e+00 0.0 
-3.433828228818e+00 -1.946009631594e+02 0.0 
0.0 0.0 -8.289416368857e+01 
-8.716661757042e+01 -3.167559641861e+00 0.0 
-3.167559641861e+00 -2.035975401954e+02 0.0 
0.0 0.0 -8.707233333059e+01 
-6.304138186142e+01 3.254186875050e+00 0.0 
3.254186875050e+00 -9.614423430090e+01 0.0 
0.0 0.0 -4.735568484869e+01 
-6.929782314981e+01 4.420464653195e+00 0.0 
4.420464653195e+00 -1.169025068905e+02 0.0 
0.0 0.0 -5.546009901208e+01 
-3.072413893652e+01 9.541369357278e+00 0.0 
9.541369357278e+00 -8.141413091315e+01 0.0 
0.0 0.0 -3.324148095490e+01 
-3.447972010665e+01 1.193248131786e+01 0.0 
1.193248131786e+01 -8.653090381576e+01 0.0 
0.0 0.0 -3.590318717672e+01 
-9.295596456842e+01 2.357708312481e+01 0.0 
2.357708312481e+01 -1.455288502986e+02 0.0 
0.0 0.0 -7.114544446011e+01 
-1.335370148243e+02 -1.179436008744e+00 0.0 
-1.179436008744e+00 -3.002457762782e+02 0.0 
0.0 0.0 -1.335256412755e+02 
-1.242002789871e+02 -1.651493171317e+00 0.0 
-1.651493171317e+00 -2.808360223778e+02 0.0 
0.0 0.0 -1.241803082701e+02 
-6.466622397222e+01 2.356515456606e+01 0.0 
2.356515456606e+01 -1.351742069814e+02 0.0 
0.0 0.0 -5.955212928610e+01 
-6.060723164755e+01 2.507063456319e+01 0.0 
2.507063456319e+01 -1.207670549997e+02 0.0 
0.0 0.0 -5.401228599417e+01 
-5.721682174954e+01 2.282676814079e+01 0.0 
2.282676814079e+01 -1.183488934737e+02 0.0 
0.0 0.0 -5.226971456698e+01 
-5.259064685444e+01 2.380372288256e+01 0.0 
2.380372288256e+01 -1.029597957306e+02 0.0 
0.0 0.0 -4.626513277550e+01 
-5.602789808305e+01 2.583755422366e+01 0.0 
2.583755422366e+01 -1.050061468172e+02 0.0 
0.0 0.0 -4.791021347007e+01 
-4.911631317430e+01 2.163365072536e+01 0.0 
2.163365072536e+01 -1.006698183203e+02 0.0 
0.0 0.0 -4.453583944838e+01 
-1.144797456705e+02 4.474277132611e+00 0.0 
4.474277132611e+00 -2.602772156624e+02 0.0 
0.0 0.0 -1.143366536754e+02 
-7.557992768268e+01 8.608642796580e+00 0.0 
8.608642796580e+00 -1.253697807777e+02 0.0 
0.0 0.0 -5.988491253810e+01 
-4.227362357672e+01 -4.251505021913e+00 0.0 
-4.251505021913e+00 -1.099781284201e+02 0.0 
0.0 0.0 -4.527552559904e+01 
-3.281922193515e+01 -4.257075560737e+00 0.0 
-4.257075560737e+00 -9.018835460116e+01 0.0 
0.0 0.0 -3.650227296089e+01 
-1.428519766149e+02 -6.464832850066e-01 0.0 
-6.464832850066e-01 -3.196009351339e+02 0.0 
0.0 0.0 -1.428461470901e+02 
-1.123934327188e+02 9.727571112613e+00 0.0 
9.727571112613e+00 -2.543222534455e+02 0.0 
0.0 0.0 -1.117224773038e+02 
-9.395188787124e+01 3.013302108473e+01 0.0 
3.013302108473e+01 -1.916387669692e+02 0.0 
0.0 0.0 -8.542956771514e+01 
-9.733911059437e+01 2.788603760999e+01 0.0 
2.788603760999e+01 -2.039859078963e+02 0.0 
0.0 0.0 -9.046431429198e+01 
-1.009113031560e+02 3.016512973787e+01 0.0 
3.016512973787e+01 -2.081670643621e+02 0.0 
0.0 0.0 -9.298488738559e+01 
-1.060026054124e+02 2.925171993573e+01 0.0 
2.925171993573e+01 -2.215992673234e+02 0.0 
0.0 0.0 -9.900678175491e+01 
-1.094802407030e+02 3.142340352981e+01 0.0 
3.142340352981e+01 -2.258626086989e+02 0.0 
0.0 0.0 -1.015233326588e+02 
-1.150400351328e+02 3.095831428152e+01 0.0 
3.095831428152e+01 -2.394541650190e+02 0.0 
0.0 0.0 -1.077493363168e+02 
-1.115553451377e+02 2.860281498805e+01 0.0 
2.860281498805e+01 -2.352387547731e+02 0.0 
0.0 0.0 -1.052460741243e+02 
-1.250609695496e+02 2.326765897561e+01 0.0 
2.326765897561e+01 -2.715483964139e+02 0.0 
0.0 0.0 -1.214407557800e+02 
-1.205000296128e+02 3.027979524191e+01 0.0 
3.027979524191e+01 -2.528737714164e+02 0.0 
0.0 0.0 -1.138869955170e+02 
-5.609634810745e+01 2.116576480189e+00 0.0 
2.116576480189e+00 -7.554379533126e+01 0.0 
0.0 0.0 -3.909204303161e+01 
-1.038528656011e+02 1.731381933494e+01 0.0 
1.731381933494e+01 -2.315282236039e+02 0.0 
0.0 0.0 -1.015357642182e+02 
-4.835489797093e+01 -2.924066725176e+00 0.0 
-2.924066725176e+00 -1.230737054422e+02 0.0 
0.0 0.0 -5.102858102394e+01 
-2.538216719139e+01 -2.085331331205e+00 0.0 
-2.085331331205e+00 -7.541088699638e+01 0.0 
0.0 0.0 -2.983791625633e+01 
-2.542974087527e+01 -5.280199490425e+00 0.0 
-5.280199490425e+00 -7.405237176165e+01 0.0 
0.0 0.0 -2.944463379108e+01 
-3.253204121774e+01 -9.256358342462e-01 0.0 
-9.256358342462e-01 -9.043922000894e+01 0.0 
0.0 0.0 -3.649137836800e+01 
-4.239050355500e+01 -1.504927667984e+00 0.0 
-1.504927667984e+00 -1.108856618011e+02 0.0 
0.0 0.0 -4.558284960683e+01 
-1.411958561413e+02 7.345258082585e+00 0.0 
7.345258082585e+00 -3.152068781543e+02 0.0 
0.0 0.0 -1.408792661401e+02 
-1.185252215077e+02 3.310988073321e+01 0.0 
3.310988073321e+01 -2.438155367100e+02 0.0 
0.0 0.0 -1.103002111799e+02 
-1.129502904640e+02 3.349801785990e+01 0.0 
3.349801785990e+01 -2.301234077908e+02 0.0 
0.0 0.0 -1.040365910637e+02 
-4.693068159772e+01 2.359243740205e+01 0.0 
2.359243740205e+01 -8.654161466634e+01 0.0 
0.0 0.0 -3.964168887922e+01 
-5.051001063474e+01 2.543159465940e+01 0.0 
2.543159465940e+01 -8.871809057835e+01 0.0 
0.0 0.0 -4.136843036393e+01 
-1.304412882673e+02 2.207265789788e+01 0.0 
2.207265789788e+01 -2.842660844150e+02 0.0 
0.0 0.0 -1.273243228196e+02 
-7.258599572816e+01 1.391228331597e+01 0.0 
1.391228331597e+01 -7.666356872024e+01 0.0 
0.0 0.0 -4.437486933452e+01 
-6.298419324489e+01 5.959983565058e+00 0.0 
5.959983565058e+00 -7.218668419934e+01 0.0 
0.0 0.0 -4.015126323327e+01 
-5.675015551335e+01 3.816017317267e+00 0.0 
3.816017317267e+00 -6.201426572283e+01 0.0 
0.0 0.0 -3.522932637086e+01 
-2.194646100101e+01 -3.470079786982e-01 0.0 
-3.470079786982e-01 -6.854019219245e+01 0.0 
0.0 0.0 -2.674599595804e+01 
-2.138198101720e+01 -5.887353437754e+00 0.0 
-5.887353437754e+00 -6.496245212357e+01 0.0 
0.0 0.0 -2.550332994223e+01 
-8.376393333896e+01 1.463291001032e+01 0.0 
1.463291001032e+01 -1.366881034135e+02 0.0 
0.0 0.0 -6.573561102574e+01 
-4.215230845311e+01 1.251145236994e+01 0.0 
1.251145236994e+01 -1.028385051215e+02 0.0 
0.0 0.0 -4.309724407237e+01 
-3.809749358996e+01 1.435501057409e+01 0.0 
1.435501057409e+01 -9.081102683456e+01 0.0 
0.0 0.0 -3.827255612735e+01 
-2.052342935142e+01 2.931630222571e+00 0.0 
2.931630222571e+00 -5.954229432059e+01 0.0 
0.0 0.0 -2.361971710160e+01 
-1.893332130559e+01 1.244642726330e+00 0.0 
1.244642726330e+00 -5.055874593455e+01 0.0 
0.0 0.0 -2.044762017204e+01 
-6.568583239862e+01 2.940447444553e+00 0.0 
2.940447444553e+00 -1.069802135011e+02 0.0 
0.0 0.0 -5.139981376990e+01 
-7.157991785519e+01 3.931093741458e+00 0.0 
3.931093741458e+00 -1.277114421994e+02 0.0 
0.0 0.0 -5.938740801639e+01 
-9.217021796993e+01 -3.063319790641e+00 0.0 
-3.063319790641e+00 -2.141514951386e+02 0.0 
0.0 0.0 -9.208871349884e+01 
-9.656584779157e+01 -2.783757598855e+00 0.0 
-2.783757598855e+00 -2.232498067125e+02 0.0 
0.0 0.0 -9.646386946542e+01 
-1.363420283530e+02 8.213429101230e+00 0.0 
8.213429101230e+00 -3.048525463433e+02 0.0 
0.0 0.0 -1.359351732386e+02 
-3.028842063225e+01 -4.935688396660e+00 0.0 
-4.935688396660e+00 -8.453053079386e+01 0.0 
0.0 0.0 -3.404568542783e+01 
-7.502843228499e+01 5.691578062766e+00 0.0 
5.691578062766e+00 -1.378966525151e+02 0.0 
0.0 0.0 -6.347752544002e+01 
-1.173766151099e+02 8.860422612131e+00 0.0 
8.860422612131e+00 -2.650800250886e+02 0.0 
0.0 0.0 -1.168397788810e+02 
-1.085600848823e+02 7.681895366997e+00 0.0 
7.681895366997e+00 -2.471014299632e+02 0.0 
0.0 0.0 -1.081288241998e+02 
-8.189414422453e+01 -2.881547571372e+00 0.0 
-2.881547571372e+00 -1.912929637580e+02 0.0 
0.0 0.0 -8.156126929257e+01 
-2.641888433141e+01 1.093387781709e+01 0.0 
1.093387781709e+01 -6.980977701078e+01 0.0 
0.0 0.0 -2.846859840266e+01 
-2.313712920013e+01 8.909738167279e+00 0.0 
8.909738167279e+00 -6.487310272124e+01 0.0 
0.0 0.0 -2.600306957641e+01 
-5.261799792205e+01 -1.998273623819e+00 0.0 
-1.998273623819e+00 -1.321205809033e+02 0.0 
0.0 0.0 -5.502157364759e+01 
-3.942174063348e+01 -4.272447115109e+00 0.0 
-4.272447115109e+00 -1.040128475189e+02 0.0 
0.0 0.0 -4.263037644572e+01 
-3.627370634517e+01 -3.627473077877e-01 0.0 
-3.627473077877e-01 -9.827306273085e+01 0.0 
0.0 0.0 -3.996403072281e+01 
-1.451678746520e+02 9.302775798066e+00 0.0 
9.302775798066e+00 -3.229080595139e+02 0.0 
0.0 0.0 -1.446741621787e+02 
-8.837905538740e+01 1.811872092764e+01 0.0 
1.811872092764e+01 -1.487552187672e+02 0.0 
0.0 0.0 -7.074028224638e+01 
-1.170965253569e+02 2.778673243151e+01 0.0 
2.778673243151e+01 -2.488143113857e+02 0.0 
0.0 0.0 -1.114608249792e+02 
-1.081371099648e+02 2.608781641065e+01 0.0 
2.608781641065e+01 -2.311996290881e+02 0.0 
0.0 0.0 -1.028217252318e+02 
-1.260019636149e+02 2.931819719521e+01 0.0 
2.931819719521e+01 -2.665357598815e+02 0.0 
0.0 0.0 -1.201170861744e+02 
-2.133467874416e+01 -5.637748398754e+00 0.0 
-5.637748398754e+00 -6.510751534804e+01 0.0 
0.0 0.0 -2.553265822766e+01 
-1.461097650515e+02 6.557628926664e+00 0.0 
6.557628926664e+00 -3.256245358705e+02 0.0 
0.0 0.0 -1.458634780188e+02 
-1.380607210824e+02 -1.072817428820e+00 0.0 
-1.072817428820e+00 -3.096429821034e+02 0.0 
0.0 0.0 -1.380512567627e+02 
-1.216482867355e+02 3.520592371300e+01 0.0 
3.520592371300e+01 -2.472853185750e+02 0.0 
0.0 0.0 -1.124435111827e+02 
-1.163921156144e+02 3.552191924760e+01 0.0 
3.552191924760e+01 -2.342635789358e+02 0.0 
0.0 0.0 -1.065014582831e+02 
-4.583075597438e+01 1.511713702497e+01 0.0 
1.511713702497e+01 -1.072634910871e+02 0.0 
0.0 0.0 -4.552827411844e+01 
-4.173857170096e+01 1.678620029628e+01 0.0 
1.678620029628e+01 -9.459988032836e+01 0.0 
0.0 0.0 -4.050153560879e+01 
-3.318948717397e+01 1.517741697066e+01 0.0 
1.517741697066e+01 -7.736949771555e+01 0.0 
0.0 0.0 -3.276769546686e+01 
-3.648705673492e+01 1.731586248140e+01 0.0 
1.731586248140e+01 -8.013526426144e+01 0.0 
0.0 0.0 -3.458669629891e+01 
-7.399843222519e+01 2.896070503932e+01 0.0 
2.896070503932e+01 -9.575818429074e+01 0.0 
0.0 0.0 -5.052698495478e+01 
-4.961839051196e+01 1.776976063594e+01 0.0 
1.776976063594e+01 -1.113120888686e+02 0.0 
0.0 0.0 -4.787914381417e+01 
-7.250053764807e+01 3.111592210828e+01 0.0 
3.111592210828e+01 -1.118260558831e+02 0.0 
0.0 0.0 -5.489797805936e+01 
-6.853019986213e+01 3.042535304991e+01 0.0 
3.042535304991e+01 -9.341310559955e+01 0.0 
0.0 0.0 -4.818299163850e+01 
-6.485633512903e+01 3.046541751992e+01 0.0 
3.046541751992e+01 -9.274492945825e+01 0.0 
0.0 0.0 -4.688037937618e+01 
-5.916610839859e+01 2.752316809189e+01 0.0 
2.752316809189e+01 -1.071361815205e+02 0.0 
0.0 0.0 -4.949068697572e+01 
-5.392776788591e+01 2.711146700242e+01 0.0 
2.711146700242e+01 -9.040972235225e+01 0.0 
0.0 0.0 -4.290124707145e+01 
-5.352842025660e+01 1.038791080910e+01 0.0 
1.038791080910e+01 -1.298223835302e+02 0.0 
0.0 0.0 -5.460524113604e+01 
-9.162589236693e+01 1.319162060601e+01 0.0 
1.319162060601e+01 -2.087285754688e+02 0.0 
0.0 0.0 -9.014879336571e+01 
-8.776688787693e+01 -3.138495130262e+00 0.0 
-3.138495130262e+00 -2.049900696947e+02 0.0 
0.0 0.0 -8.771406414201e+01 
-1.108073014915e+02 -1.567484945325e+00 0.0 
-1.567484945325e+00 -2.530282849498e+02 0.0 
0.0 0.0 -1.107861719933e+02 
-1.014842427903e+02 2.114861777258e+00 0.0 
2.114861777258e+00 -2.336186035494e+02 0.0 
0.0 0.0 -1.014453089223e+02 
-7.981026000012e+01 1.115928923899e+01 0.0 
1.115928923899e+01 -1.356607162125e+02 0.0 
0.0 0.0 -6.424129286378e+01 
-8.068497978189e+01 1.073170687507e+01 0.0 
1.073170687507e+01 -1.467336691505e+02 0.0 
0.0 0.0 -6.782559467973e+01 
-5.439654527558e+01 2.694687310414e+00 0.0 
2.694687310414e+00 -6.340842524374e+01 0.0 
0.0 0.0 -3.494149115580e+01 
-4.951754130355e+01 1.678879572574e+00 0.0 
1.678879572574e+00 -5.411546173215e+01 0.0 
0.0 0.0 -3.068990091071e+01 
-2.708120071493e+01 -3.541407611458e+00 0.0 
-3.541407611458e+00 -7.847108337690e+01 0.0 
0.0 0.0 -3.126568522755e+01 
-2.315135574425e+01 -4.125776404236e+00 0.0 
-4.125776404236e+00 -6.992975254386e+01 0.0 
0.0 0.0 -2.752433248643e+01 
-9.733788740028e+01 -7.651051258547e-01 0.0 
-7.651051258547e-01 -2.251032001146e+02 0.0 
0.0 0.0 -9.732903755381e+01 
-1.418513695955e+02 4.881040421251e+00 0.0 
4.881040421251e+00 -3.171046839278e+02 0.0 
0.0 0.0 -1.417093368260e+02 
-9.296068121508e+01 2.259404019470e+01 0.0 
2.259404019470e+01 -1.530405818072e+02 0.0 
0.0 0.0 -7.340037890670e+01 
-9.770643953065e+01 2.677670118464e+01 0.0 
2.677670118464e+01 -1.680136699827e+02 0.0 
0.0 0.0 -7.931603285401e+01 
-9.781568819490e+01 2.765639377854e+01 0.0 
2.765639377854e+01 -1.610818662357e+02 0.0 
0.0 0.0 -7.726926632919e+01 
-1.401916760118e+02 1.026398665313e+01 0.0 
1.026398665313e+01 -3.121943366785e+02 0.0 
0.0 0.0 -1.395734510186e+02 
-5.781655563856e+01 3.872858161732e+00 0.0 
3.872858161732e+00 -1.425168363437e+02 0.0 
0.0 0.0 -5.970001759468e+01 
-9.853823040728e+01 9.246447600416e+00 0.0 
9.246447600416e+00 -2.255401749112e+02 0.0 
0.0 0.0 -9.786132098215e+01 
-1.880056116421e+01 -1.301016686651e+00 0.0 
-1.301016686651e+00 -5.819976120907e+01 0.0 
0.0 0.0 -2.270009671198e+01 
-9.045556514016e+01 2.275434297312e+01 0.0 
2.275434297312e+01 -1.963932729803e+02 0.0 
0.0 0.0 -8.584142616306e+01 
-1.776659838398e+01 -3.258375592469e+00 0.0 
-3.258375592469e+00 -5.836254090086e+01 0.0 
0.0 0.0 -2.243874178545e+01 
-1.008288305726e+02 3.657993835549e+01 0.0 
3.657993835549e+01 -1.880354700949e+02 0.0 
0.0 0.0 -8.631105803695e+01 
-1.474941900530e+02 -5.970711422227e-01 0.0 
-5.970711422227e-01 -3.292389011838e+02 0.0 
0.0 0.0 -1.474885585257e+02 
-1.521098816131e+02 -6.663733388528e-02 0.0 
-6.663733388528e-02 -3.388266677387e+02 0.0 
0.0 0.0 -1.521060282456e+02 
-1.337637440227e+02 2.480400049341e+01 0.0 
2.480400049341e+01 -2.887999113437e+02 0.0 
0.0 0.0 -1.298783591049e+02 
-6.317714567395e+01 2.542354727070e+01 0.0 
2.542354727070e+01 -5.525598823378e+01 0.0 
0.0 0.0 -3.512994017232e+01 
-9.584001713709e+01 2.174039055118e+01 0.0 
2.174039055118e+01 -2.096408999143e+02 0.0 
0.0 0.0 -9.181537511162e+01 
-9.256708247494e+01 1.908013321223e+01 0.0 
1.908013321223e+01 -2.055460376133e+02 0.0 
0.0 0.0 -8.942014297143e+01 
-5.914623639929e+01 2.905719776797e+01 0.0 
2.905719776797e+01 -7.393168301101e+01 0.0 
0.0 0.0 -3.952337582309e+01 
-5.472151136699e+01 2.819895633292e+01 0.0 
2.819895633292e+01 -7.321789327730e+01 0.0 
0.0 0.0 -3.798182139329e+01 
-6.106900593345e+01 2.975744337836e+01 0.0 
2.975744337836e+01 -9.190727992486e+01 0.0 
0.0 0.0 -4.549288575749e+01 
-5.082199736883e+01 2.691847665304e+01 0.0 
2.691847665304e+01 -7.251711450165e+01 0.0 
0.0 0.0 -3.660173356114e+01 
-5.728783496558e+01 -2.034496857711e+00 0.0 
-2.034496857711e+00 -1.418218832438e+02 0.0 
0.0 0.0 -5.933291546281e+01 
-5.288854531291e+01 -2.883442162450e+00 0.0 
-2.883442162450e+00 -1.325202736254e+02 0.0 
0.0 0.0 -5.522264568148e+01 
-1.280200771289e+02 3.492427367816e+01 0.0 
3.492427367816e+01 -2.625643112105e+02 0.0 
0.0 0.0 -1.194820671623e+02 
-1.291291365954e+02 3.177434561283e+01 0.0 
3.177434561283e+01 -2.700661157973e+02 0.0 
0.0 0.0 -1.222814138922e+02 
-1.250210603076e+02 3.722892415812e+01 0.0 
3.722892415812e+01 -2.513315502078e+02 0.0 
0.0 0.0 -1.148553908537e+02 
-1.200461011084e+02 3.759451429176e+01 0.0 
3.759451429176e+01 -2.386671713244e+02 0.0 
0.0 0.0 -1.091209345815e+02 
-1.391063991442e+02 2.350187586019e+01 0.0 
2.350187586019e+01 -3.015570698849e+02 0.0 
0.0 0.0 -1.357625135725e+02 
-1.355148991994e+02 2.079056735991e+01 0.0 
2.079056735991e+01 -2.962089959619e+02 0.0 
0.0 0.0 -1.328563050063e+02 
-4.573246773017e+01 -8.783361951330e-01 0.0 
-8.783361951330e-01 -1.179018428670e+02 0.0 
0.0 0.0 -4.869029317916e+01 
-4.393488448724e+01 2.393909960755e+01 0.0 
2.393909960755e+01 -7.151720020936e+01 0.0 
0.0 0.0 -3.423562540898e+01 
-8.844690037887e+01 1.750343081418e+01 0.0 
1.750343081418e+01 -1.585975245272e+02 0.0 
0.0 0.0 -7.371332747181e+01 
-6.393310773676e+01 2.930091394678e+01 0.0 
2.930091394678e+01 -7.428654429899e+01 0.0 
0.0 0.0 -4.106589561073e+01 
-1.506826298833e+02 5.837821327606e+00 0.0 
5.837821327606e+00 -3.352893679458e+02 0.0 
0.0 0.0 -1.504920785903e+02 
-1.466336730554e+02 4.303985123969e+00 0.0 
4.303985123969e+00 -3.271357376387e+02 0.0 
0.0 0.0 -1.465250815292e+02 
-1.919472225986e+01 7.609740725547e-02 0.0 
7.609740725547e-02 -4.113700027467e+01 0.0 
0.0 0.0 -1.769951676036e+01 
-1.712157545941e+01 -2.913196978795e+00 0.0 
-2.913196978795e+00 -4.804398698364e+01 0.0 
0.0 0.0 -1.914966873291e+01 
-7.699571131494e+01 4.949317233466e+00 0.0 
4.949317233466e+00 -1.491161892408e+02 0.0 
0.0 0.0 -6.743357016672e+01 
-2.884133136396e+01 1.609658781151e+01 0.0 
1.609658781151e+01 -6.275902076262e+01 0.0 
0.0 0.0 -2.708010563797e+01 
-3.141781851678e+01 1.765821047616e+01 0.0 
1.765821047616e+01 -6.422811042575e+01 0.0 
0.0 0.0 -2.829377868276e+01 
-2.589924800712e+01 1.435945460059e+01 0.0 
1.435945460059e+01 -6.048499954398e+01 0.0 
0.0 0.0 -2.551527426533e+01 
-1.673227063155e+02 1.965303970403e-01 0.0 
1.965303970403e-01 -3.704104644865e+02 0.0 
0.0 0.0 -1.673193643772e+02 
-3.162090892448e+01 1.682228739102e-01 0.0 
1.682228739102e-01 -1.586165332036e+01 0.0 
0.0 0.0 -1.384476867345e+01 
-1.568784625142e+02 -5.933004321512e-02 0.0 
-5.933004321512e-02 -3.487269385649e+02 0.0 
0.0 0.0 -1.568747949872e+02 
-6.241217306676e+01 2.902997768469e+01 0.0 
2.902997768469e+01 -1.090967119532e+02 0.0 
0.0 0.0 -5.105266550598e+01 
-8.020907867621e+01 6.906666715004e+00 0.0 
6.906666715004e+00 -1.595630531231e+02 0.0 
0.0 0.0 -7.153163953980e+01 
-1.014989771531e+02 2.090947365869e+01 0.0 
2.090947365869e+01 -2.229693048742e+02 0.0 
0.0 0.0 -9.798806785483e+01 
-6.103673192361e+01 2.103071637786e+01 0.0 
2.103071637786e+01 -1.318878231214e+02 0.0 
0.0 0.0 -5.747736651350e+01 
-1.314409859900e+02 9.155552204786e+00 0.0 
9.155552204786e+00 -2.943274460294e+02 0.0 
0.0 0.0 -1.309202151821e+02 
-7.362504612283e+01 3.191886498512e+00 0.0 
3.191886498512e+00 -1.377824469145e+02 0.0 
0.0 0.0 -6.302224791121e+01 
-7.897714832857e+01 3.909039816860e+00 0.0 
3.909039816860e+00 -1.608914511627e+02 0.0 
0.0 0.0 -7.156057984739e+01 
-5.355150202948e+01 3.403396363533e+00 0.0 
3.403396363533e+00 -5.140248439584e+01 0.0 
0.0 0.0 -3.108619592760e+01 
-4.710124150967e+01 1.942803950573e+00 0.0 
1.942803950573e+00 -4.121738242855e+01 0.0 
0.0 0.0 -2.609558718147e+01 
-6.006918579811e+01 5.686308869294e+00 0.0 
5.686308869294e+00 -6.115369242541e+01 0.0 
0.0 0.0 -3.596686346706e+01 
-2.295041343729e+01 4.954847833540e+00 0.0 
4.954847833540e+00 -6.787527615818e+01 0.0 
0.0 0.0 -2.684770687864e+01 
-1.971536279626e+01 5.385164526365e+00 0.0 
5.385164526365e+00 -4.885274370125e+01 0.0 
0.0 0.0 -2.017043194925e+01 
-7.683481490475e+01 8.235054969828e+00 0.0 
8.235054969828e+00 -1.363319455986e+02 0.0 
0.0 0.0 -6.355002815100e+01 
-5.827038161798e+01 -2.960142155995e+00 0.0 
-2.960142155995e+00 -1.436676876241e+02 0.0 
0.0 0.0 -6.018142077264e+01 
-6.301208711678e+01 -2.628810328045e+00 0.0 
-2.628810328045e+00 -1.533759764066e+02 0.0 
0.0 0.0 -6.451641905701e+01 
-3.442009784322e+01 -4.730727861044e+00 0.0 
-4.730727861044e+00 -9.332907060317e+01 0.0 
0.0 0.0 -3.792475053392e+01 
-4.354564345209e+01 -4.195946485380e+00 0.0 
-4.195946485380e+00 -1.126625476199e+02 0.0 
0.0 0.0 -4.646245732160e+01 
-9.698144764646e+01 -2.672396810841e+00 0.0 
-2.672396810841e+00 -2.242071930593e+02 0.0 
0.0 0.0 -9.692187366666e+01 
-9.255936718604e+01 -2.616899241021e+00 0.0 
-2.616899241021e+00 -2.150276620104e+02 0.0 
0.0 0.0 -9.250006112101e+01 
-1.048504687260e+02 3.606569828984e+01 0.0 
3.606569828984e+01 -2.034882952912e+02 0.0 
0.0 0.0 -9.261666865945e+01 
-1.080300518890e+02 3.756764264548e+01 0.0 
3.756764264548e+01 -2.066340356540e+02 0.0 
0.0 0.0 -9.456820921057e+01 
-9.767408082397e+01 3.227211542228e+01 0.0 
3.227211542228e+01 -1.958872818585e+02 0.0 
0.0 0.0 -8.794346255480e+01 
-1.135054989819e+02 6.908534253236e+00 0.0 
6.908534253236e+00 -2.576589385930e+02 0.0 
0.0 0.0 -1.131687430486e+02 
-1.046597563849e+02 5.823292284777e+00 0.0 
5.823292284777e+00 -2.395407680749e+02 0.0 
0.0 0.0 -1.044029163515e+02 
-9.977189834684e+01 6.514500727518e+00 0.0 
6.514500727518e+00 -2.291582840359e+02 0.0 
0.0 0.0 -9.943860825263e+01 
-8.407184959253e+01 1.346451201308e+01 0.0 
1.346451201308e+01 -1.568214320185e+02 0.0 
0.0 0.0 -7.186798448332e+01 
-8.519452804039e+01 1.277234300128e+01 0.0 
1.277234300128e+01 -1.705237597902e+02 0.0 
0.0 0.0 -7.631548634917e+01 
-6.148302995992e+01 -1.008640580142e+00 0.0 
-1.008640580142e+00 -1.506453814935e+02 0.0 
0.0 0.0 -6.323852343602e+01 
-5.670693766356e+01 -9.274726808459e-01 0.0 
-9.274726808459e-01 -1.407310441540e+02 0.0 
0.0 0.0 -5.883139454526e+01 
-6.172710283405e+01 -2.128476566853e+00 0.0 
-2.128476566853e+00 -1.510353071319e+02 0.0 
0.0 0.0 -6.342872298980e+01 
-9.244765663929e+01 2.113409859274e+01 0.0 
2.113409859274e+01 -1.709759666928e+02 0.0 
0.0 0.0 -7.862708699962e+01 
-1.612070267750e+02 5.099778683396e-01 0.0 
5.099778683396e-01 -3.577096890229e+02 0.0 
0.0 0.0 -1.612022335692e+02 
-1.565203359094e+02 6.991977949369e-01 0.0 
6.991977949369e-01 -3.479749809952e+02 0.0 
0.0 0.0 -1.565139124457e+02 
-1.463198842050e+01 -3.794651757592e+00 0.0 
-3.794651757592e+00 -4.998885037595e+01 0.0 
0.0 0.0 -1.898625163894e+01 
-1.919969108892e+01 -4.649743738858e+00 0.0 
-4.649743738858e+00 -6.098541719381e+01 0.0 
0.0 0.0 -2.365553248482e+01 
-2.121529401775e+01 1.071388622924e+01 0.0 
1.071388622924e+01 -5.340429288204e+01 0.0 
0.0 0.0 -2.198587606994e+01 
-2.013686154403e+01 8.999106513686e+00 0.0 
8.999106513686e+00 -4.884625016341e+01 0.0 
0.0 0.0 -2.029493351223e+01 
-1.022328532624e+02 3.085019302140e+01 0.0 
3.085019302140e+01 -1.831549343250e+02 0.0 
0.0 0.0 -8.521633627622e+01 
-1.028371114822e+02 3.163362617699e+01 0.0 
3.163362617699e+01 -1.778415095123e+02 0.0 
0.0 0.0 -8.380358629836e+01 
-1.019688012406e+02 3.053762212031e+01 0.0 
3.053762212031e+01 -1.923796211285e+02 0.0 
0.0 0.0 -8.792536254995e+01 
-3.911601872546e+01 -5.989323643009e-02 0.0 
-5.989323643009e-02 -1.042058313422e+02 0.0 
0.0 0.0 -4.259655502030e+01 
-1.137306683526e+02 2.526727993994e+01 0.0 
2.526727993994e+01 -2.446404676403e+02 0.0 
0.0 0.0 -1.090097078198e+02 
-1.485060026111e+02 1.149553134422e+01 0.0 
1.149553134422e+01 -3.290888835107e+02 0.0 
0.0 0.0 -1.477687235218e+02 
-1.434354709941e+02 1.254180672951e+01 0.0 
1.254180672951e+01 -3.180471821181e+02 0.0 
0.0 0.0 -1.425307210975e+02 
-1.544815645927e+02 1.067526124823e+01 0.0 
1.067526124823e+01 -3.418756955218e+02 0.0 
0.0 0.0 -1.538682728767e+02 
-1.283258186421e+02 2.590965728462e+01 0.0 
2.590965728462e+01 -2.758314429929e+02 0.0 
0.0 0.0 -1.238945370654e+02 
-1.369333806903e+02 2.735839678194e+01 0.0 
2.735839678194e+01 -2.929679104733e+02 0.0 
0.0 0.0 -1.322637860083e+02 
-1.347526977156e+02 3.081612068737e+01 0.0 
3.081612068737e+01 -2.839555457720e+02 0.0 
0.0 0.0 -1.286249849292e+02 
-1.998481969438e+01 1.925657438501e+00 0.0 
1.925657438501e+00 -3.375190857649e+01 0.0 
0.0 0.0 -1.572101848126e+01 
-7.672984003753e+01 2.533884855544e+00 0.0 
2.533884855544e+00 -1.532632467444e+02 0.0 
0.0 0.0 -6.859792603457e+01 
-4.535204130495e+01 1.281614503970e+00 0.0 
1.281614503970e+00 -4.242739311636e+01 0.0 
0.0 0.0 -2.593383032639e+01 
-2.218405747185e+01 1.024590491300e+00 0.0 
1.024590491300e+00 -2.657176320704e+01 0.0 
0.0 0.0 -1.436713699462e+01 
-4.058420801520e+01 6.731583935907e-01 0.0 
6.731583935907e-01 -3.351082442499e+01 0.0 
0.0 0.0 -2.182850973206e+01 
-4.478586400276e+01 9.917642580234e-01 0.0 
9.917642580234e-01 -4.487674692427e+01 0.0 
0.0 0.0 -2.649878327811e+01 
-3.567099132396e+01 3.374929479120e-01 0.0 
3.374929479120e-01 -2.349203926523e+01 0.0 
0.0 0.0 -1.734890917676e+01 
-2.987407395810e+01 5.183673763474e-02 0.0 
5.183673763474e-02 -8.502346396257e+01 0.0 
0.0 0.0 -3.406926137620e+01 
-4.806604903828e+01 2.779900374978e+00 0.0 
2.779900374978e+00 -3.719147587966e+01 0.0 
0.0 0.0 -2.517725747538e+01 
-5.715251682347e+01 5.771504636736e+00 0.0 
5.771504636736e+00 -5.073817944007e+01 0.0 
0.0 0.0 -3.196720887906e+01 
-1.105915009972e+01 -4.356745298345e+00 0.0 
-4.356745298345e+00 -3.759008573437e+01 0.0 
0.0 0.0 -1.430538400900e+01 
-9.118445759657e+01 2.004022871469e+01 0.0 
2.004022871469e+01 -1.802577268371e+02 0.0 
0.0 0.0 -8.103265533011e+01 
-9.652651686969e+00 -2.624891162103e+00 0.0 
-2.624891162103e+00 -3.914845955838e+01 0.0 
0.0 0.0 -1.423890251646e+01 
-1.254090407202e+01 -2.188233555654e+00 0.0 
-2.188233555654e+00 -4.725552979981e+01 0.0 
0.0 0.0 -1.753893016155e+01 
-1.555172566006e+02 5.212054566296e+00 0.0 
5.212054566296e+00 -3.454544021484e+02 0.0 
0.0 0.0 -1.553683896650e+02 
-1.513029809203e+02 3.718780750745e+00 0.0 
3.718780750745e+00 -3.369175737559e+02 0.0 
0.0 0.0 -1.512230726250e+02 
-1.599293543870e+02 4.660758610205e+00 0.0 
4.660758610205e+00 -3.547123949069e+02 0.0 
0.0 0.0 -1.598124643859e+02 
-1.556599832791e+02 3.237883626389e+00 0.0 
3.237883626389e+00 -3.460257752672e+02 0.0 
0.0 0.0 -1.556005397628e+02 
-1.470065681365e+02 2.465975827449e+00 0.0 
2.465975827449e+00 -3.281252961157e+02 0.0 
0.0 0.0 -1.469680080333e+02 
-1.518410763564e+02 2.161370101317e+00 0.0 
2.161370101317e+00 -3.381876497933e+02 0.0 
0.0 0.0 -1.518108996851e+02 
-4.097653489217e+01 9.489103517900e-01 0.0 
9.489103517900e-01 -3.127726238466e+01 0.0 
0.0 0.0 -2.127613918305e+01 
-1.617378835329e+02 3.187255203134e+00 0.0 
3.187255203134e+00 -3.586552792223e+02 0.0 
0.0 0.0 -1.616822187294e+02 
-1.568264967064e+02 1.849805006161e+00 0.0 
1.849805006161e+00 -3.485590539541e+02 0.0 
0.0 0.0 -1.568033227695e+02 
-1.665958696070e+02 2.805975388915e+00 0.0 
2.805975388915e+00 -3.687746893480e+02 0.0 
0.0 0.0 -1.665512916604e+02 
-4.141465219804e+01 2.319110942558e+01 0.0 
2.319110942558e+01 -5.235214059923e+01 0.0 
0.0 0.0 -2.773003783918e+01 
-3.971673681113e+01 1.946073999432e+01 0.0 
1.946073999432e+01 -8.206664083508e+01 0.0 
0.0 0.0 -3.613501329386e+01 
-3.432806066807e+01 1.927706538014e+01 0.0 
1.927706538014e+01 -6.596093592810e+01 0.0 
0.0 0.0 -2.968669897885e+01 
-2.751572452177e+01 1.780768715150e+01 0.0 
1.780768715150e+01 -4.614795545388e+01 0.0 
0.0 0.0 -2.169910399270e+01 
-1.300389249489e+02 3.958680263497e+01 0.0 
3.958680263497e+01 -2.584649753529e+02 0.0 
0.0 0.0 -1.188057114158e+02 
-1.228456713053e+02 3.939725411673e+01 0.0 
3.939725411673e+01 -2.414679907941e+02 0.0 
0.0 0.0 -1.109415918817e+02 
-1.428369141462e+02 -7.904935747513e-01 0.0 
-7.904935747513e-01 -3.195670457964e+02 0.0 
0.0 0.0 -1.428302331147e+02 
-1.332277333258e+02 -1.077273135869e+00 0.0 
-1.077273135869e+00 -2.996088910721e+02 0.0 
0.0 0.0 -1.332180474436e+02 
-3.986285221827e+01 4.676168762493e-01 0.0 
4.676168762493e-01 -3.466065579494e+01 0.0 
0.0 0.0 -2.195705240396e+01 
-3.895877967066e+01 3.829857174799e-01 0.0 
3.829857174799e-01 -3.361382518776e+01 0.0 
0.0 0.0 -2.137178145753e+01 
-4.622469379983e+01 6.878715368676e-01 0.0 
6.878715368676e-01 -5.153251680517e+01 0.0 
0.0 0.0 -2.892716318150e+01 
-4.478280215000e+01 5.862259829284e-01 0.0 
5.862259829284e-01 -4.906202521991e+01 0.0 
0.0 0.0 -2.775344821097e+01 
-5.171987425066e+01 9.653296928016e-01 0.0 
9.653296928016e-01 -6.720779510400e+01 0.0 
0.0 0.0 -3.527830080640e+01 
-5.037457665156e+01 7.366340339711e-01 0.0 
7.366340339711e-01 -6.446739622116e+01 0.0 
0.0 0.0 -3.405259186181e+01 
-5.716980966173e+01 1.407698690615e+00 0.0 
1.407698690615e+00 -8.312334587217e+01 0.0 
0.0 0.0 -4.168794666017e+01 
-1.379499489653e+02 3.350917614649e+01 0.0 
3.350917614649e+01 -2.873487482542e+02 0.0 
0.0 0.0 -1.307675068630e+02 
-2.503099343767e+01 1.649154502260e+01 0.0 
1.649154502260e+01 -4.612882350714e+01 0.0 
0.0 0.0 -2.094794508344e+01 
-4.975142959342e+01 2.539813535945e+01 0.0 
2.539813535945e+01 -5.326448517422e+01 0.0 
0.0 0.0 -3.050477443029e+01 
-1.441334795131e+02 2.211427298324e+01 0.0 
2.211427298324e+01 -3.135059306046e+02 0.0 
0.0 0.0 -1.412813029621e+02 
-1.399297387323e+02 1.945990282472e+01 0.0 
1.945990282472e+01 -3.066272765948e+02 0.0 
0.0 0.0 -1.376784745556e+02 
-4.717863447806e+01 2.542758705251e+01 0.0 
2.542758705251e+01 -7.183993179719e+01 0.0 
0.0 0.0 -3.530556988257e+01 
-3.592051293433e+01 2.126191054997e+01 0.0 
2.126191054997e+01 -5.158891845373e+01 0.0 
0.0 0.0 -2.585282941642e+01 
-1.559196505150e+02 7.610761724898e+00 0.0 
7.610761724898e+00 -3.457945431630e+02 0.0 
0.0 0.0 -1.556097838749e+02 
-5.339067277686e+01 1.561226978908e+01 0.0 
1.561226978908e+01 -1.236007366546e+02 0.0 
0.0 0.0 -5.269742282942e+01 
-9.615833999087e+01 2.479036931001e+01 0.0 
2.479036931001e+01 -1.969279353235e+02 0.0 
0.0 0.0 -8.781224183409e+01 
-2.045723075795e+01 5.309727559820e+00 0.0 
5.309727559820e+00 -1.359480192112e+01 0.0 
0.0 0.0 -1.017731538282e+01 
-2.052791263812e+01 5.131989682386e+00 0.0 
5.131989682386e+00 -2.970274633851e+01 0.0 
0.0 0.0 -1.478149234783e+01 
-5.715753869983e+01 1.833604476466e+01 0.0 
1.833604476466e+01 -1.278396259819e+02 0.0 
0.0 0.0 -5.509914940452e+01 
-5.739653685274e+01 2.861683647958e+01 0.0 
2.861683647958e+01 -9.115568765540e+01 0.0 
0.0 0.0 -4.416566735244e+01 
-4.326976953352e+01 2.158929176080e+01 0.0 
2.158929176080e+01 -8.425645602285e+01 0.0 
0.0 0.0 -3.785786766691e+01 
-3.781177221784e+01 2.103726049300e+01 0.0 
2.103726049300e+01 -6.822208288478e+01 0.0 
0.0 0.0 -3.141015653078e+01 
-1.224300609542e+02 8.020019049701e+00 0.0 
8.020019049701e+00 -2.759150657089e+02 0.0 
0.0 0.0 -1.220050424774e+02 
-1.614830585805e+01 -5.450739270774e+00 0.0 
-5.450739270774e+00 -5.284345033234e+01 0.0 
0.0 0.0 -2.029752685712e+01 
-2.327035997550e+01 1.263012801036e+01 0.0 
1.263012801036e+01 -5.739128537522e+01 0.0 
0.0 0.0 -2.379849360522e+01 
-5.874795955121e+01 1.881915323251e+00 0.0 
1.881915323251e+00 -8.542890287194e+01 0.0 
0.0 0.0 -4.285305872695e+01 
-2.281073865195e+01 1.414654742364e+01 0.0 
1.414654742364e+01 -4.231312033566e+01 0.0 
0.0 0.0 -1.913715769628e+01 
-1.383943986587e+02 -5.536867382229e-01 0.0 
-5.536867382229e-01 -3.103487228321e+02 0.0 
0.0 0.0 -1.383891662008e+02 
-5.741291976559e+01 1.326595426907e+01 0.0 
1.326595426907e+01 -1.354046899015e+02 0.0 
0.0 0.0 -5.744528290012e+01 
-6.696559680037e+01 2.885731420539e+01 0.0 
2.885731420539e+01 -1.253903925369e+02 0.0 
0.0 0.0 -5.730679680119e+01 
-2.982958671031e+01 1.306208982416e+01 0.0 
1.306208982416e+01 -7.387249245725e+01 0.0 
0.0 0.0 -3.071062375027e+01 
-4.549581551766e+01 1.927299330909e+01 0.0 
1.927299330909e+01 -9.796112364617e+01 0.0 
0.0 0.0 -4.263708174915e+01 
-7.841694128362e+01 3.094759965764e+01 0.0 
3.094759965764e+01 -1.149089764724e+02 0.0 
0.0 0.0 -5.759777532681e+01 
-6.939449559268e+01 2.638723507538e+01 0.0 
2.638723507538e+01 -7.549854395238e+01 0.0 
0.0 0.0 -4.306791186352e+01 
-6.820817775787e+01 2.815641783131e+01 0.0 
2.815641783131e+01 -7.533578141847e+01 0.0 
0.0 0.0 -4.266318775290e+01 
-6.102479406001e+01 1.046999568328e+01 0.0 
1.046999568328e+01 -1.457432042912e+02 0.0 
0.0 0.0 -6.163039950535e+01 
-4.052274517266e+01 2.236512320482e+01 0.0 
2.236512320482e+01 -6.978487428912e+01 0.0 
0.0 0.0 -3.269228583853e+01 
-3.063695211852e+01 1.918962045816e+01 0.0 
1.918962045816e+01 -4.807825775351e+01 0.0 
0.0 0.0 -2.321456296161e+01 
-7.685884986647e+01 3.192242156579e+01 0.0 
3.192242156579e+01 -1.299678071247e+02 0.0 
0.0 0.0 -6.164799709736e+01 
-9.721261789137e+01 2.853826424061e+01 0.0 
2.853826424061e+01 -1.550843850268e+02 0.0 
0.0 0.0 -7.528910087544e+01 
-1.019920012086e+02 3.226413654194e+01 0.0 
3.226413654194e+01 -1.723026562401e+02 0.0 
0.0 0.0 -8.188839723462e+01 
-1.076207673064e+02 3.539204965627e+01 0.0 
3.539204965627e+01 -1.944334919116e+02 0.0 
0.0 0.0 -9.021981640015e+01 
-1.071106785815e+02 3.593020831886e+01 0.0 
3.593020831886e+01 -1.899109817645e+02 0.0 
0.0 0.0 -8.870649810382e+01 
-1.009397756076e+02 3.309153075908e+01 0.0 
3.309153075908e+01 -1.677076370182e+02 0.0 
0.0 0.0 -8.019422378775e+01 
-1.061488100190e+02 3.625456072245e+01 0.0 
3.625456072245e+01 -1.854268974608e+02 0.0 
0.0 0.0 -8.707271224394e+01 
-1.117198483485e+02 3.905983397844e+01 0.0 
3.905983397844e+01 -2.067829588889e+02 0.0 
0.0 0.0 -9.571181349147e+01 
-1.121368116220e+02 3.953782236392e+01 0.0 
3.953782236392e+01 -2.044803820512e+02 0.0 
0.0 0.0 -9.506046548243e+01 
-1.210024959305e+02 4.253600255652e+01 0.0 
4.253600255652e+01 -2.279975384984e+02 0.0 
0.0 0.0 -1.058908036025e+02 
-1.171723532879e+02 4.115328569616e+01 0.0 
4.115328569616e+01 -2.204544430110e+02 0.0 
0.0 0.0 -1.020526279615e+02 
-1.096143528690e+02 3.903597124599e+01 0.0 
3.903597124599e+01 -1.995386738681e+02 0.0 
0.0 0.0 -9.258907434736e+01 
-1.138804593398e+02 3.977619985093e+01 0.0 
3.977619985093e+01 -2.148887974309e+02 0.0 
0.0 0.0 -9.907949811500e+01 
-1.214182132751e+02 4.110658097775e+01 0.0 
4.110658097775e+01 -2.337076492018e+02 0.0 
0.0 0.0 -1.079546864249e+02 
-1.070914276310e+02 3.842463190223e+01 0.0 
3.842463190223e+01 -1.951530197702e+02 0.0 
0.0 0.0 -9.038281421025e+01 
-1.476816200360e+02 2.483353248182e+01 0.0 
2.483353248182e+01 -3.187383668455e+02 0.0 
0.0 0.0 -1.441358224039e+02 
-6.496638741048e+01 1.894768758488e+01 0.0 
1.894768758488e+01 -1.446740050848e+02 0.0 
0.0 0.0 -6.249211774860e+01 
-2.003462668949e+01 3.343773325061e+00 0.0 
3.343773325061e+00 -4.231433693544e+01 0.0 
0.0 0.0 -1.830468908748e+01 
-2.041798998542e+01 6.933424844134e+00 0.0 
6.933424844134e+00 -3.667240458743e+01 0.0 
0.0 0.0 -1.672711837185e+01 
-7.026552529624e+01 3.019098943164e+01 0.0 
3.019098943164e+01 -1.275773352825e+02 0.0 
0.0 0.0 -5.895285817363e+01 
-1.289299881679e+02 4.476834204509e+01 0.0 
4.476834204509e+01 -2.431247072416e+02 0.0 
0.0 0.0 -1.134581612002e+02 
-1.203077111792e+02 4.200406173739e+01 0.0 
4.200406173739e+01 -2.284075560983e+02 0.0 
0.0 0.0 -1.058706355565e+02 
-4.593286753486e+01 1.017183928863e+01 0.0 
1.017183928863e+01 -1.137351622372e+02 0.0 
0.0 0.0 -4.750040893161e+01 
-1.398775825426e+02 4.077071724124e+01 0.0 
4.077071724124e+01 -2.794762222828e+02 0.0 
0.0 0.0 -1.288348535334e+02 
-7.167495535024e+01 2.963930874389e+01 0.0 
2.963930874389e+01 -9.434391478156e+01 0.0 
0.0 0.0 -4.940566103954e+01 
-3.010416101770e+01 4.845981776949e+00 0.0 
4.845981776949e+00 -8.414763290321e+01 0.0 
0.0 0.0 -3.387553817628e+01 
-1.433833434590e+02 3.770054822988e+01 0.0 
3.770054822988e+01 -2.931582649575e+02 0.0 
0.0 0.0 -1.344225183112e+02 
-9.601840362535e+01 2.958345805117e+01 0.0 
2.958345805117e+01 -1.497841896756e+02 0.0 
0.0 0.0 -7.334077799029e+01 
-9.412798944061e+01 3.062997819363e+01 0.0 
3.062997819363e+01 -1.450168881749e+02 0.0 
0.0 0.0 -7.134346328465e+01 
-8.933697338744e+01 2.716799540717e+01 0.0 
2.716799540717e+01 -1.268912383965e+02 0.0 
0.0 0.0 -6.446846353518e+01 
-1.105339327047e+02 3.636185122929e+01 0.0 
3.636185122929e+01 -2.159423943122e+02 0.0 
0.0 0.0 -9.844245746927e+01 
-6.706500174822e+01 8.856082537730e+00 0.0 
8.856082537730e+00 -7.258067193629e+01 0.0 
0.0 0.0 -4.149370210535e+01 
-1.498964538589e+02 3.037571390391e+01 0.0 
3.037571390391e+01 -3.178439958559e+02 0.0 
0.0 0.0 -1.445650979437e+02 
-1.004592044673e+02 1.475747363368e+01 0.0 
1.475747363368e+01 -2.263293597725e+02 0.0 
0.0 0.0 -9.874237942959e+01 
-9.499528624168e+01 1.569227292833e+01 0.0 
1.569227292833e+01 -2.139755578610e+02 0.0 
0.0 0.0 -9.294993208733e+01 
-8.604310332439e+01 1.395502817702e+01 0.0 
1.395502817702e+01 -1.963048994189e+02 0.0 
0.0 0.0 -8.442286996372e+01 
-1.042215143453e+02 3.632929356792e+01 0.0 
3.632929356792e+01 -1.816458026406e+02 0.0 
0.0 0.0 -8.536019509579e+01 
-1.559149443831e+02 2.089893564952e+01 0.0 
2.089893564952e+01 -3.394910913579e+02 0.0 
0.0 0.0 -1.535590348231e+02 
-1.495793355927e+02 1.849343300393e+01 0.0 
1.849343300393e+01 -3.277228082977e+02 0.0 
0.0 0.0 -1.476735545581e+02 
-1.510079057598e+02 1.657239899133e+01 0.0 
1.657239899133e+01 -3.319030351306e+02 0.0 
0.0 0.0 -1.494969450382e+02 
-1.425212770818e+02 1.615162050685e+01 0.0 
1.615162050685e+01 -3.142728792570e+02 0.0 
0.0 0.0 -1.410065153929e+02 
-1.589246978583e+02 1.663549699362e+01 0.0 
1.663549699362e+01 -3.485124642751e+02 0.0 
0.0 0.0 -1.574702908963e+02 
-1.343823324704e+02 4.415498424798e+01 0.0 
4.415498424798e+01 -2.586838086268e+02 0.0 
0.0 0.0 -1.202888719642e+02 
-1.367047101157e+02 4.332944271522e+01 0.0 
4.332944271522e+01 -2.664117455029e+02 0.0 
0.0 0.0 -1.235561764898e+02 
-4.771942462401e+01 -2.085965237243e+00 0.0 
-2.085965237243e+00 -1.219223625982e+02 0.0 
0.0 0.0 -5.049253616665e+01 
-5.181640630017e+01 -8.553489795700e-01 0.0 
-8.553489795700e-01 -1.305790072332e+02 0.0 
0.0 0.0 -5.431862406001e+01 
-6.073546597601e+01 3.434318984152e-01 0.0 
3.434318984152e-01 -1.491215363551e+02 0.0 
0.0 0.0 -6.255710069932e+01 
-5.569884913421e+01 4.669900013502e-01 0.0 
4.669900013502e-01 -1.386633502860e+02 0.0 
0.0 0.0 -5.790865982605e+01 
-4.665938442685e+01 -8.290787542929e-01 0.0 
-8.290787542929e-01 -1.198759197067e+02 0.0 
0.0 0.0 -4.956059124006e+01 
-5.054657818047e+01 4.598577911790e-01 0.0 
4.598577911790e-01 -1.279633993449e+02 0.0 
0.0 0.0 -5.315299325760e+01 
-5.948801879941e+01 1.905506476456e+00 0.0 
1.905506476456e+00 -1.464085859789e+02 0.0 
0.0 0.0 -6.136898143349e+01 
-4.563906293870e+01 9.070688258215e-01 0.0 
9.070688258215e-01 -1.177381924140e+02 0.0 
0.0 0.0 -4.861317660581e+01 
-1.147928907313e+02 3.809658228533e+01 0.0 
3.809658228533e+01 -2.246034753477e+02 0.0 
0.0 0.0 -1.028411096652e+02 
-1.619072518631e+02 1.268709557893e+01 0.0 
1.268709557893e+01 -3.566334335103e+02 0.0 
0.0 0.0 -1.610799880509e+02 
-1.103926505205e+02 2.941026515094e+00 0.0 
2.941026515094e+00 -2.520277991077e+02 0.0 
0.0 0.0 -1.103261184394e+02 
-1.055828794372e+02 3.561844369296e+00 0.0 
3.561844369296e+00 -2.419445127961e+02 0.0 
0.0 0.0 -1.054844636114e+02 
-9.672545490963e+01 2.653796931807e+00 0.0 
2.653796931807e+00 -2.236728969506e+02 0.0 
0.0 0.0 -9.666495490898e+01 
-8.344070527932e+01 -3.038381727433e+00 0.0 
-3.038381727433e+00 -1.960172498175e+02 0.0 
0.0 0.0 -8.353302381301e+01 
-8.817651681308e+01 -2.432645272766e+00 0.0 
-2.432645272766e+00 -2.059467564676e+02 0.0 
0.0 0.0 -8.814957587091e+01 
-9.725618639956e+01 -1.957679989642e+00 0.0 
-1.957679989642e+00 -2.248568802845e+02 0.0 
0.0 0.0 -9.722239970257e+01 
-7.856362711707e+01 -3.468322874581e+00 0.0 
-3.468322874581e+00 -1.857959172446e+02 0.0 
0.0 0.0 -7.890786330851e+01 
-1.025172937798e+02 2.684508097060e+01 0.0 
2.684508097060e+01 -2.175048010178e+02 0.0 
0.0 0.0 -9.654263571179e+01 
-1.631244460238e+02 1.108404589426e+01 0.0 
1.108404589426e+01 -3.597786300904e+02 0.0 
0.0 0.0 -1.624981783950e+02 
-1.036009293921e+02 8.470553334678e+00 0.0 
8.470553334678e+00 -2.364570295812e+02 0.0 
0.0 0.0 -1.030561900443e+02 
-8.374789001020e+01 -2.201221821147e+00 0.0 
-2.201221821147e+00 -1.967755806283e+02 0.0 
0.0 0.0 -8.386304021332e+01 
-4.175505863828e+01 3.469722029894e+00 0.0 
3.469722029894e+00 -1.880631449353e+01 0.0 
0.0 0.0 -1.776841193954e+01 
-5.625041969857e+01 8.467957826949e+00 0.0 
8.467957826949e+00 -3.904370834971e+01 0.0 
0.0 0.0 -2.818823841448e+01 
-6.262442709274e+01 1.366958527105e+01 0.0 
1.366958527105e+01 -4.480892757025e+01 0.0 
0.0 0.0 -3.183000639890e+01 
-6.945072200401e+01 1.511581019362e+01 0.0 
1.511581019362e+01 -6.479785422990e+01 0.0 
0.0 0.0 -3.987457287017e+01 
-5.333192851809e+01 5.872308582011e+00 0.0 
5.872308582011e+00 -3.905041069176e+01 0.0 
0.0 0.0 -2.731470176296e+01 
-1.014229389996e+02 -2.587722276196e+00 0.0 
-2.587722276196e+00 -2.334452094159e+02 0.0 
0.0 0.0 -1.013690098585e+02 
-1.058181737415e+02 -2.416900819620e+00 0.0 
-2.416900819620e+00 -2.425945632370e+02 0.0 
0.0 0.0 -1.057722845434e+02 
-1.009792530459e+02 -2.397013431491e+00 0.0 
-2.397013431491e+00 -2.316849189303e+02 0.0 
0.0 0.0 -1.005191210080e+02 
-1.101412993147e+02 -2.057667653717e+00 0.0 
-2.057667653717e+00 -2.512324593100e+02 0.0 
0.0 0.0 -1.099275046792e+02 
-1.051328306388e+02 -1.738016918283e+00 0.0 
-1.738016918283e+00 -2.393047277782e+02 0.0 
0.0 0.0 -1.041799371983e+02 
-9.654767797170e+01 -1.952248108315e+00 0.0 
-1.952248108315e+00 -2.208879066262e+02 0.0 
0.0 0.0 -9.531209614355e+01 
-1.142538592552e+02 -1.470171449237e+00 0.0 
-1.470171449237e+00 -2.591582981968e+02 0.0 
0.0 0.0 -1.137384016966e+02 
-1.084776161461e+02 -1.123205379265e+00 0.0 
-1.123205379265e+00 -2.458927612717e+02 0.0 
0.0 0.0 -1.073455978818e+02 
-3.689442404737e+01 1.129302450643e+00 0.0 
1.129302450643e+00 -1.738477063679e+01 0.0 
0.0 0.0 -1.588375840525e+01 
-2.267741159835e+01 -1.979137745789e+00 0.0 
-1.979137745789e+00 -1.635453188454e+01 0.0 
0.0 0.0 -1.169944285106e+01 
-1.726186855648e+01 -4.477144771918e+00 0.0 
-4.477144771918e+00 -3.203447527154e+01 0.0 
0.0 0.0 -1.451684597391e+01 
-1.555427071242e+01 -5.635977267701e+00 0.0 
-5.635977267701e+00 -3.218970282861e+01 0.0 
0.0 0.0 -1.405174152549e+01 
-1.514612416452e+01 -6.306259859186e+00 0.0 
-6.306259859186e+00 -4.724016265695e+01 0.0 
0.0 0.0 -1.831588604644e+01 
-1.588235397328e+01 -4.829998337290e+00 0.0 
-4.829998337290e+00 -4.795511992509e+01 0.0 
0.0 0.0 -1.875124216951e+01 
-2.047363502974e+01 -5.264704808734e+00 0.0 
-5.264704808734e+00 -6.353591211502e+01 0.0 
0.0 0.0 -2.480286414343e+01 
-1.897592670722e+01 -4.395041684004e+00 0.0 
-4.395041684004e+00 -6.023766030991e+01 0.0 
0.0 0.0 -2.336407610514e+01 
-1.892688287935e+01 -2.805055434018e+00 0.0 
-2.805055434018e+00 -3.191853116141e+01 0.0 
0.0 0.0 -1.499405056261e+01 
-1.692517903550e+01 -3.878293671337e+00 0.0 
-3.878293671337e+00 -1.640958839246e+01 0.0 
0.0 0.0 -9.991136131642e+00 
-1.379531047853e+01 -6.112026564064e+00 0.0 
-6.112026564064e+00 -3.292745435704e+01 0.0 
0.0 0.0 -1.375358979837e+01 
-1.327113509102e+01 -4.262230076629e+00 0.0 
-4.262230076629e+00 -1.677620945612e+01 0.0 
0.0 0.0 -9.009404689283e+00 
-1.264579041664e+01 -6.190872067439e+00 0.0 
-6.190872067439e+00 -3.371126940587e+01 0.0 
0.0 0.0 -1.364196739048e+01 
-1.625526620663e+01 -6.329072762216e+00 0.0 
-6.329072762216e+00 -5.199369181875e+01 0.0 
0.0 0.0 -2.007468740761e+01 
-2.893078968299e+01 -4.680849248793e+00 0.0 
-4.680849248793e+00 -8.182017308563e+01 0.0 
0.0 0.0 -3.282528883059e+01 
-1.709463188659e+02 1.360717977837e+00 0.0 
1.360717977837e+00 -3.779065754771e+02 0.0 
0.0 0.0 -1.709343281647e+02 
-8.155844693898e+01 -8.440271753507e-01 0.0 
-8.440271753507e-01 -1.887747714132e+02 0.0 
0.0 0.0 -8.069996550566e+01 
-7.664468941549e+01 -1.643767462795e+00 0.0 
-1.643767462795e+00 -1.793849510143e+02 0.0 
0.0 0.0 -7.640889212895e+01 
-6.674582098804e+01 -1.444705824480e+00 0.0 
-1.444705824480e+00 -1.598369330325e+02 0.0 
0.0 0.0 -6.757482620615e+01 
-7.231254161763e+01 -2.216567912816e+00 0.0 
-2.216567912816e+00 -1.714950366552e+02 0.0 
0.0 0.0 -7.274227348184e+01 
-8.543368475878e+01 -1.638700121596e+00 0.0 
-1.638700121596e+00 -1.972741743973e+02 0.0 
0.0 0.0 -8.441235774683e+01 
-6.077218488358e+01 -6.066287911494e-01 0.0 
-6.066287911494e-01 -1.484983764349e+02 0.0 
0.0 0.0 -6.238116839555e+01 
-5.730908235112e+01 -1.043284956966e+00 0.0 
-1.043284956966e+00 -1.416753763587e+02 0.0 
0.0 0.0 -5.929533761293e+01 
-2.059903436588e-02 -5.175096570184e-02 0.0 
-5.175096570184e-02 -1.704637699099e+01 0.0 
0.0 0.0 -3.064052345771e+00 
-4.903787929062e+00 -1.466339876840e-01 0.0 
-1.466339876840e-01 -3.323021437225e+01 0.0 
0.0 0.0 -1.096787058489e+01 
-4.376123445386e+00 -1.706385568536e-01 0.0 
-1.706385568536e-01 -3.210605131028e+01 0.0 
0.0 0.0 -9.973085336039e+00 
-1.311924924877e+01 -5.455256425245e-02 0.0 
-5.455256425245e-02 -5.028575797896e+01 0.0 
0.0 0.0 -1.862150216832e+01 
-1.281695980813e+01 -1.639472744356e-01 0.0 
-1.639472744356e-01 -4.965398127324e+01 0.0 
0.0 0.0 -1.834128232441e+01 
-5.173036749069e+00 -1.342440719571e-01 0.0 
-1.342440719571e-01 -3.378899669406e+01 0.0 
0.0 0.0 -1.135509948311e+01 
-5.095071947020e+00 1.940947536045e-01 0.0 
1.940947536045e-01 -3.361782628636e+01 0.0 
0.0 0.0 -1.124490802913e+01 
1.254978917779e-01 2.244707929039e-01 0.0 
2.244707929039e-01 -1.655607031576e+01 0.0 
0.0 0.0 -2.792115626736e+00 
-5.185683323971e+00 -7.940373564992e-02 0.0 
-7.940373564992e-02 -3.372670283241e+01 0.0 
0.0 0.0 -1.117746540083e+01 
-1.346509696886e+01 -2.984764030159e-01 0.0 
-2.984764030159e-01 -5.094193081951e+01 0.0 
0.0 0.0 -1.892210833651e+01 
1.752668637010e-01 8.820828928388e-02 0.0 
8.820828928388e-02 -1.631214565783e+01 0.0 
0.0 0.0 -3.186220173561e+00 
-6.506657558162e+01 9.290410326241e-01 0.0 
9.290410326241e-01 -1.099726959041e+02 0.0 
0.0 0.0 -5.211178144572e+01 
-6.832185558126e+01 1.941683720166e+00 0.0 
1.941683720166e+00 -1.210782731770e+02 0.0 
0.0 0.0 -5.642003862749e+01 
-1.649670214202e+02 8.040786576602e+00 0.0 
8.040786576602e+00 -3.645288265306e+02 0.0 
0.0 0.0 -1.646414539325e+02 
-3.570900813594e+01 6.163917157823e-01 0.0 
6.163917157823e-01 -1.925643734646e+01 0.0 
0.0 0.0 -1.608963364472e+01 
-6.874313549647e+00 -3.103912896212e+00 0.0 
-3.103912896212e+00 -1.770069386805e+01 0.0 
0.0 0.0 -7.356665869149e+00 
-8.478728262140e+01 8.202892142447e+00 0.0 
8.202892142447e+00 -1.844978601318e+02 0.0 
0.0 0.0 -8.038554282598e+01 
-8.942575955484e+01 1.576647739272e+01 0.0 
1.576647739272e+01 -1.915635505212e+02 0.0 
0.0 0.0 -8.390376849774e+01 
-8.774447303178e+01 1.312350103735e+01 0.0 
1.312350103735e+01 -1.903502815517e+02 0.0 
0.0 0.0 -8.302842637504e+01 
-1.578687561498e+02 -1.285311160975e-01 0.0 
-1.285311160975e-01 -3.507850170599e+02 0.0 
0.0 0.0 -1.578658047747e+02 
-1.622982569370e+02 1.105369008827e-01 0.0 
1.105369008827e-01 -3.599776990295e+02 0.0 
0.0 0.0 -1.622943049249e+02 
-8.353262195695e+01 4.520781974819e+00 0.0 
4.520781974819e+00 -1.841638913287e+02 0.0 
0.0 0.0 -7.990895398568e+01 
-5.157384361639e+01 -4.024586715192e+00 0.0 
-4.024586715192e+00 -1.294700669443e+02 0.0 
0.0 0.0 -5.391317316821e+01 
-1.145613520352e+02 3.982988201806e+01 0.0 
3.982988201806e+01 -2.122826809190e+02 0.0 
0.0 0.0 -9.835535208383e+01 
-7.814437247924e+01 7.658587131925e+00 0.0 
7.658587131925e+00 -1.475042051251e+02 0.0 
0.0 0.0 -6.729457328131e+01 
-2.681243578525e+01 7.184125359436e+00 0.0 
7.184125359436e+00 -7.542805274009e+01 0.0 
0.0 0.0 -3.027214655760e+01 
-4.835509887777e+01 -3.595834106527e+00 0.0 
-3.595834106527e+00 -1.228973626500e+02 0.0 
0.0 0.0 -5.097573845832e+01 
-1.286598565593e+02 -1.488565764613e+00 0.0 
-1.488565764613e+00 -2.901071720162e+02 0.0 
0.0 0.0 -1.286440956529e+02 
-1.154187266446e+02 -7.916552466150e-01 0.0 
-7.916552466150e-01 -2.626396982293e+02 0.0 
0.0 0.0 -1.154099421527e+02 
-1.474486044437e+02 1.386188542922e-02 0.0 
1.386188542922e-02 -3.291501483974e+02 0.0 
0.0 0.0 -1.474448858181e+02 
-1.197641960932e+02 -1.647935721546e+00 0.0 
-1.647935721546e+00 -2.716239828527e+02 0.0 
0.0 0.0 -1.197433752717e+02 
-1.382790279565e+02 3.560130724630e-01 0.0 
3.560130724630e-01 -3.101090708612e+02 0.0 
0.0 0.0 -1.382737501922e+02 
-1.519215413134e+02 1.413086536352e+01 0.0 
1.413086536352e+01 -3.350898294407e+02 0.0 
0.0 0.0 -1.508299732755e+02 
-2.683216703921e+01 1.874831828488e-02 0.0 
1.874831828488e-02 -7.868334401246e+01 0.0 
0.0 0.0 -3.125465331550e+01 
-5.968283328856e+01 4.167429983468e+00 0.0 
4.167429983468e+00 -7.276451737307e+01 0.0 
0.0 0.0 -3.933420519849e+01 
-5.288274558466e+01 1.960167191463e+00 0.0 
1.960167191463e+00 -6.495759524121e+01 0.0 
0.0 0.0 -3.495210224776e+01 
-7.129608421889e+01 6.436455776341e+00 0.0 
6.436455776341e+00 -1.153765621641e+02 0.0 
0.0 0.0 -5.560179391489e+01 
-5.426087447139e+01 -3.327449104651e+00 0.0 
-3.327449104651e+00 -1.352476981455e+02 0.0 
0.0 0.0 -5.645257178508e+01 
-9.195466920660e+01 -2.611832388883e+00 0.0 
-2.611832388883e+00 -2.124970408898e+02 0.0 
0.0 0.0 -9.131462355883e+01 
-3.100917015958e+01 -3.030471370873e+00 0.0 
-3.030471370873e+00 -8.687476093409e+01 0.0 
0.0 0.0 -3.496517932810e+01 
-1.353519685059e+02 3.714060687702e+01 0.0 
3.714060687702e+01 -2.756508878076e+02 0.0 
0.0 0.0 -1.261200039825e+02 
-6.916787745972e+01 3.078497165922e+01 0.0 
3.078497165922e+01 -1.106756845014e+02 0.0 
0.0 0.0 -5.355306858834e+01 
-9.256982658881e+01 1.294488044019e+00 0.0 
1.294488044019e+00 -2.151752768060e+02 0.0 
0.0 0.0 -9.255145021363e+01 
-7.425516927417e+01 -3.434438773655e+00 0.0 
-3.434438773655e+00 -1.768453443825e+02 0.0 
0.0 0.0 -7.493015409701e+01 
-5.656519665756e+01 -3.672520861965e+00 0.0 
-3.672520861965e+00 -1.399794741995e+02 0.0 
0.0 0.0 -5.856340125713e+01 
-4.392926325531e+01 -3.662318493197e+00 0.0 
-3.662318493197e+00 -1.136476306769e+02 0.0 
0.0 0.0 -4.687306817966e+01 
-6.874083113180e+01 2.175650886768e+01 0.0 
2.175650886768e+01 -1.486062823668e+02 0.0 
0.0 0.0 -6.480413404958e+01 
-8.833588681382e+01 -1.357798947142e+00 0.0 
-1.357798947142e+00 -2.063825886339e+02 0.0 
0.0 0.0 -8.833824794589e+01 
-1.286806837379e+02 2.540136688795e+00 0.0 
2.540136688795e+00 -2.900584567323e+02 0.0 
0.0 0.0 -1.286350293762e+02 
-7.306384618736e+01 6.192044580052e+00 0.0 
6.192044580052e+00 -1.265223123821e+02 0.0 
0.0 0.0 -5.947584757085e+01 
-3.000334348269e+00 -1.508860278409e+00 0.0 
-1.508860278409e+00 -1.989043754711e+01 0.0 
0.0 0.0 -6.690653083697e+00 
-1.329348466596e+02 3.964229468994e+00 0.0 
3.964229468994e+00 -2.987205700196e+02 0.0 
0.0 0.0 -1.328340430110e+02 
-1.063224309059e+02 -1.409078753934e-01 0.0 
-1.409078753934e-01 -2.437674481252e+02 0.0 
0.0 0.0 -1.063175146262e+02 
-6.924425042034e+01 8.763299740810e+00 0.0 
8.763299740810e+00 -8.298031823499e+01 0.0 
0.0 0.0 -4.526737059660e+01 
-1.233519847598e+02 1.672027556186e+01 0.0 
1.672027556186e+01 -2.734438157837e+02 0.0 
0.0 0.0 -1.215013646839e+02 
-2.604074211035e+01 -5.183764154444e+00 0.0 
-5.183764154444e+00 -7.541564883050e+01 0.0 
0.0 0.0 -3.003691728226e+01 
-7.901042464074e+01 1.143375656621e+01 0.0 
1.143375656621e+01 -1.252255723752e+02 0.0 
0.0 0.0 -6.087079910479e+01 
-9.657872271357e+01 2.556944928769e+01 0.0 
2.556944928769e+01 -1.744810948158e+02 0.0 
0.0 0.0 -8.091794525880e+01 
-6.479786411683e+01 9.392323615710e+00 0.0 
9.392323615710e+00 -6.239469095736e+01 0.0 
0.0 0.0 -3.775776652226e+01 
-2.139288324645e+01 -2.671760379205e+00 0.0 
-2.671760379205e+00 -6.679392139207e+01 0.0 
0.0 0.0 -2.605604139155e+01 
-5.083397758890e+01 2.273083074494e+00 0.0 
2.273083074494e+00 -5.218240627363e+01 0.0 
0.0 0.0 -3.050491515876e+01 
-1.500518432579e+02 8.380531910919e+00 0.0 
8.380531910919e+00 -3.333665658961e+02 0.0 
0.0 0.0 -1.496619203085e+02 
-9.225195705529e+01 2.461965277263e+01 0.0 
2.461965277263e+01 -1.384462372558e+02 0.0 
0.0 0.0 -6.880945829334e+01 
-4.844802569437e+01 -2.506919812977e+00 0.0 
-2.506919812977e+00 -1.233298122930e+02 0.0 
0.0 0.0 -5.113335139622e+01 
-8.971866079618e+01 7.861985530903e+00 0.0 
7.861985530903e+00 -2.076871148290e+02 0.0 
0.0 0.0 -8.919810569885e+01 
-7.139017868550e+01 2.811483003904e+01 0.0 
2.811483003904e+01 -1.402624802848e+02 0.0 
0.0 0.0 -6.309579769108e+01 
-4.240920639608e+01 1.928755898735e+01 0.0 
1.928755898735e+01 -3.079925638988e+01 0.0 
0.0 0.0 -2.156253883579e+01 
-8.115641402620e+01 9.792819441777e+00 0.0 
9.792819441777e+00 -1.571039391959e+02 0.0 
0.0 0.0 -7.107810596664e+01 
-8.374992295826e+01 1.736172476435e+01 0.0 
1.736172476435e+01 -1.882422380461e+02 0.0 
0.0 0.0 -8.121932097173e+01 
-1.335693746553e+02 1.460827101178e+01 0.0 
1.460827101178e+01 -2.963158238200e+02 0.0 
0.0 0.0 -1.322585543598e+02 
-1.073443253933e+02 1.060649953783e+01 0.0 
1.060649953783e+01 -2.433511091864e+02 0.0 
0.0 0.0 -1.065143775582e+02 
-5.227041623899e+01 -2.025996528224e+00 0.0 
-2.025996528224e+00 -1.313598290703e+02 0.0 
0.0 0.0 -5.468907359278e+01 
-1.423973230503e+02 2.911152822526e+00 0.0 
2.911152822526e+00 -3.185099482851e+02 0.0 
0.0 0.0 -1.423436675004e+02 
-8.268911497318e+01 1.151224483282e+01 0.0 
1.151224483282e+01 -1.909698417227e+02 0.0 
0.0 0.0 -8.173620083148e+01 
-8.422586405716e+01 1.410049562443e+01 0.0 
1.410049562443e+01 -1.469391152287e+02 0.0 
0.0 0.0 -6.894949378576e+01 
-1.044660141520e+02 3.222980905103e+01 0.0 
3.222980905103e+01 -2.125279442176e+02 0.0 
0.0 0.0 -9.555820444513e+01 
-6.668702090459e+01 5.421104131071e+00 0.0 
5.421104131071e+00 -1.605197410560e+02 0.0 
0.0 0.0 -6.776202858819e+01 
-8.820105338444e+01 1.874356101893e+01 0.0 
1.874356101893e+01 -1.393146739039e+02 0.0 
0.0 0.0 -6.785471818649e+01 
-9.191443505804e+01 3.163983239310e+00 0.0 
3.163983239310e+00 -2.136027149441e+02 0.0 
0.0 0.0 -9.182715425381e+01 
-1.268942311522e+02 1.935362187934e+01 0.0 
1.935362187934e+01 -2.789968367053e+02 0.0 
0.0 0.0 -1.244581883726e+02 
-6.579956524815e+01 3.008792516342e+01 0.0 
3.008792516342e+01 -1.098841293624e+02 0.0 
0.0 0.0 -5.230510838316e+01 
-9.056477363008e+01 3.204448971077e+01 0.0 
3.204448971077e+01 -1.789345476043e+02 0.0 
0.0 0.0 -8.044979637030e+01 
-9.564885990748e+01 3.558563660131e+01 0.0 
3.558563660131e+01 -1.711951606839e+02 0.0 
0.0 0.0 -7.965320617741e+01 
-8.659762475265e+01 2.501932263857e+01 0.0 
2.501932263857e+01 -1.841012827388e+02 0.0 
0.0 0.0 -8.081795099888e+01 
-1.235911647338e+02 -1.343318093305e+00 0.0 
-1.343318093305e+00 -2.794254154655e+02 0.0 
0.0 0.0 -1.234985014682e+02 
-1.376693693459e+02 3.402177946030e+00 0.0 
3.402177946030e+00 -3.086334692530e+02 0.0 
0.0 0.0 -1.375958430347e+02 
-2.507872263536e+01 -1.718303535253e+00 0.0 
-1.718303535253e+00 -7.488757339825e+01 0.0 
0.0 0.0 -2.958988881008e+01 
-5.355426852931e+01 2.040261625995e+01 0.0 
2.040261625995e+01 -1.151990809665e+02 0.0 
0.0 0.0 -5.022600484875e+01 
-7.401106479420e+01 1.286817947887e+01 0.0 
1.286817947887e+01 -8.536293306016e+01 0.0 
0.0 0.0 -4.741219935631e+01 
-1.238563852333e+02 3.260342677999e+01 0.0 
3.260342677999e+01 -2.568877438969e+02 0.0 
0.0 0.0 -1.162830505168e+02 
-8.829805366103e+01 1.652144584864e+01 0.0 
1.652144584864e+01 -1.686832902531e+02 0.0 
0.0 0.0 -7.669440317422e+01 
-6.385144089764e+01 2.713516022742e+01 0.0 
2.713516022742e+01 -1.228371331003e+02 0.0 
0.0 0.0 -5.560657219939e+01 
-1.380544875229e+02 1.691472249959e+00 0.0 
1.691472249959e+00 -3.095919621422e+02 0.0 
0.0 0.0 -1.380326439435e+02 
-9.243104075204e+01 2.174294543220e+01 0.0 
2.174294543220e+01 -1.611055013958e+02 0.0 
0.0 0.0 -7.566096264434e+01 
-9.280823423421e+01 -1.682295532145e+00 0.0 
-1.682295532145e+00 -2.156444548781e+02 0.0 
0.0 0.0 -9.278148261828e+01 
-3.230909584653e+01 7.961938023190e-02 0.0 
7.961938023190e-02 -9.007890328865e+01 0.0 
0.0 0.0 -3.631639974055e+01 
-2.121031660194e+01 7.137209420585e+00 0.0 
7.137209420585e+00 -5.916128923945e+01 0.0 
0.0 0.0 -2.371148175242e+01 
-4.947311681421e+01 2.883643966738e+00 0.0 
2.883643966738e+00 -1.253886054408e+02 0.0 
0.0 0.0 -5.205851667651e+01 
-8.042556440196e+01 1.472000610425e+01 0.0 
1.472000610425e+01 -1.836581561216e+02 0.0 
0.0 0.0 -7.882511615708e+01 
-1.018336454158e+02 -1.134886450806e+00 0.0 
-1.134886450806e+00 -2.344205050751e+02 0.0 
0.0 0.0 -1.018195918620e+02 
-1.082887321245e+02 3.587512315914e+01 0.0 
3.587512315914e+01 -2.033520790644e+02 0.0 
0.0 0.0 -9.357778329809e+01 
-1.427091411726e+02 1.352299144847e+00 0.0 
1.352299144847e+00 -3.192754448249e+02 0.0 
0.0 0.0 -1.426938968452e+02 
-1.274593790263e+02 7.191972692942e+00 0.0 
7.191972692942e+00 -2.866442024432e+02 0.0 
0.0 0.0 -1.271280334638e+02 
-2.196809021989e+01 1.328937473954e+01 0.0 
1.328937473954e+01 -2.348938365913e+01 0.0 
0.0 0.0 -1.323724216370e+01 
-5.612081163727e+01 2.616077847664e+01 0.0 
2.616077847664e+01 -5.399912649668e+01 0.0 
0.0 0.0 -3.263598144018e+01 
-1.474167575874e+02 1.088387243951e+00 0.0 
1.088387243951e+00 -3.290608771060e+02 0.0 
0.0 0.0 -1.474055109437e+02 
-9.480298389120e+01 7.194000363882e+00 0.0 
7.194000363882e+00 -2.185660387117e+02 0.0 
0.0 0.0 -9.437975684428e+01 
-1.318925284037e+02 1.809530988276e+01 0.0 
1.809530988276e+01 -2.905662518887e+02 0.0 
0.0 0.0 -1.298442647686e+02 
-9.964478020858e+01 -1.305594106507e+00 0.0 
-1.305594106507e+00 -2.267493084343e+02 0.0 
0.0 0.0 -9.812585885082e+01 
-1.367818182118e+02 3.562424441243e+01 0.0 
3.562424441243e+01 -2.814806855314e+02 0.0 
0.0 0.0 -1.284800772767e+02 
-3.847231468603e+01 2.221631099454e+01 0.0 
2.221631099454e+01 -5.203450200686e+01 0.0 
0.0 0.0 -2.675204500787e+01 
-1.522165955612e+02 8.645966246921e-01 0.0 
8.645966246921e-01 -3.390336552427e+02 0.0 
0.0 0.0 -1.522080109419e+02 
-1.262833450561e+02 1.007099637921e+01 0.0 
1.007099637921e+01 -2.832174319642e+02 0.0 
0.0 0.0 -1.256316858844e+02 
-4.971722438350e+01 1.289692494256e+01 0.0 
1.289692494256e+01 -1.190387536292e+02 0.0 
0.0 0.0 -5.022679340380e+01 
-3.195930644244e+01 1.111481987967e-01 0.0 
1.111481987967e-01 -1.666571754040e+01 0.0 
0.0 0.0 -1.418750719485e+01 
-1.626329938254e+02 1.633368101053e+00 0.0 
1.633368101053e+00 -3.606328071116e+02 0.0 
0.0 0.0 -1.626160983320e+02 
-1.351603629998e+02 1.129463072256e+01 0.0 
1.129463072256e+01 -3.012733815263e+02 0.0 
0.0 0.0 -1.343874523263e+02 
-9.385600078611e+01 2.538252868550e+01 0.0 
2.538252868550e+01 -2.001494914086e+02 0.0 
0.0 0.0 -8.810115796350e+01 
-9.098491964681e+01 5.328683544106e+00 0.0 
5.328683544106e+00 -2.111985338499e+02 0.0 
0.0 0.0 -9.074338700897e+01 
-3.206625104451e+01 1.824250530840e+01 0.0 
1.824250530840e+01 -3.036681311673e+01 0.0 
0.0 0.0 -1.832991924837e+01 
-1.063290699305e+02 -1.415866213632e+00 0.0 
-1.415866213632e+00 -2.437385088397e+02 0.0 
0.0 0.0 -1.063102649284e+02 
-9.419490403275e+01 3.386772892128e+01 0.0 
3.386772892128e+01 -1.826621176118e+02 0.0 
0.0 0.0 -8.269970152125e+01 
-1.051991171414e+02 3.302422053549e+01 0.0 
3.302422053549e+01 -2.105092643174e+02 0.0 
0.0 0.0 -9.499260605763e+01 
-1.385344180608e+02 1.354727231043e+01 0.0 
1.354727231043e+01 -3.073059914933e+02 0.0 
0.0 0.0 -1.374455097782e+02 
-8.697569707448e+01 2.856995428078e+01 0.0 
2.856995428078e+01 -1.222509008365e+02 0.0 
0.0 0.0 -6.236797937329e+01 
-1.016894791676e+02 -2.124868646790e+00 0.0 
-2.124868646790e+00 -2.340484608352e+02 0.0 
0.0 0.0 -1.016517745404e+02 
-1.071353218881e+02 1.994354767162e+01 0.0 
1.994354767162e+01 -2.361680583465e+02 0.0 
0.0 0.0 -1.041112594704e+02 
-1.294043592932e+01 5.001550021420e-02 0.0 
5.001550021420e-02 -4.991265800278e+01 0.0 
0.0 0.0 -1.845592817963e+01 
-4.494778467538e+01 2.421082042486e+01 0.0 
2.421082042486e+01 -5.264970407116e+01 0.0 
0.0 0.0 -2.887924662396e+01 
-1.061430240459e+02 -2.156778473471e+00 0.0 
-2.156778473471e+00 -2.432959058075e+02 0.0 
0.0 0.0 -1.061058944635e+02 
-5.421030437963e+01 2.045873048303e+00 0.0 
2.045873048303e+00 -1.354180036679e+02 0.0 
0.0 0.0 -5.648849241425e+01 
-9.587392058335e+01 4.745888992803e+00 0.0 
4.745888992803e+00 -2.215236025118e+02 0.0 
0.0 0.0 -9.568940122021e+01 
-1.421477095623e+02 2.618370125156e+01 0.0 
2.618370125156e+01 -3.055213488336e+02 0.0 
0.0 0.0 -1.380399939233e+02 
-1.106002230089e+02 -2.116201129329e+00 0.0 
-2.116201129329e+00 -2.525578615442e+02 0.0 
0.0 0.0 -1.105659196837e+02 
-6.312001027808e+01 3.561268125940e+00 0.0 
3.561268125940e+00 -1.536460318741e+02 0.0 
0.0 0.0 -6.462981264565e+01 
-1.150064850956e+02 -2.021789006187e+00 0.0 
-2.021789006187e+00 -2.617180939620e+02 0.0 
0.0 0.0 -1.149763158753e+02 
-2.823798788554e+01 1.744487890874e+01 0.0 
1.744487890874e+01 -3.021765263083e+01 0.0 
0.0 0.0 -1.713669215491e+01 
-9.168682498423e+01 3.156718650099e+01 0.0 
3.156718650099e+01 -1.410083743351e+02 0.0 
0.0 0.0 -6.940855979579e+01 
-1.192566721498e+02 -1.767829666383e+00 0.0 
-1.767829666383e+00 -2.705636044251e+02 0.0 
0.0 0.0 -1.192336584363e+02 
-1.013548455420e+02 3.426567177910e+01 0.0 
3.426567177910e+01 -1.999993225804e+02 0.0 
0.0 0.0 -9.043290268995e+01 
-1.512635913948e+01 -1.501458390074e+00 0.0 
-1.501458390074e+00 -5.399488796126e+01 0.0 
0.0 0.0 -2.033637413022e+01 
-9.915033445661e+01 2.431836377063e+01 0.0 
2.431836377063e+01 -2.136174590821e+02 0.0 
0.0 0.0 -9.418430042963e+01 
-1.525002551906e+02 -4.289117248603e-01 0.0 
-4.289117248603e-01 -3.396348128222e+02 0.0 
0.0 0.0 -1.524956603747e+02 
-6.602100098913e+01 -2.299060353673e+00 0.0 
-2.299060353673e+00 -1.599336133995e+02 0.0 
0.0 0.0 -6.738638431658e+01 
-1.007110299216e+02 4.157134632501e+00 0.0 
4.157134632501e+00 -2.317112957753e+02 0.0 
0.0 0.0 -1.005738857238e+02 
-9.899848570293e+01 3.366139686218e+01 0.0 
3.366139686218e+01 -1.633260172417e+02 0.0 
0.0 0.0 -7.829735088339e+01 
-2.587672993241e+01 1.674003458739e+01 0.0 
1.674003458739e+01 -2.932915310858e+01 0.0 
0.0 0.0 -1.616176491230e+01 
-1.095601558983e+02 5.152465805256e+00 0.0 
5.152465805256e+00 -2.499050612882e+02 0.0 
0.0 0.0 -1.093653878761e+02 
-1.080423872924e+02 3.426936241059e+01 0.0 
3.426936241059e+01 -2.168304212810e+02 0.0 
0.0 0.0 -9.811957731278e+01 
-1.047838167809e+02 2.355594023312e+01 0.0 
2.355594023312e+01 -2.270746522148e+02 0.0 
0.0 0.0 -1.003905788683e+02 
-8.932094245155e+01 1.648204152973e+01 0.0 
1.648204152973e+01 -2.011377061296e+02 0.0 
0.0 0.0 -8.697443481406e+01 
-1.184884177808e+02 6.161823107622e+00 0.0 
6.161823107622e+00 -2.682411127495e+02 0.0 
0.0 0.0 -1.182288731117e+02 
-3.384264780859e+01 2.040695854694e+01 0.0 
2.040695854694e+01 -5.126910220159e+01 0.0 
0.0 0.0 -2.513352500305e+01 
-4.746268115480e+01 -4.135333431403e+00 0.0 
-4.135333431403e+00 -1.208616068695e+02 0.0 
0.0 0.0 -5.009728640728e+01 
-3.831407947648e+01 -4.479815818810e+00 0.0 
-4.479815818810e+00 -1.016075821707e+02 0.0 
0.0 0.0 -4.157649849415e+01 
-6.837418387812e+01 3.297957618146e+00 0.0 
3.297957618146e+00 -1.646362432046e+02 0.0 
0.0 0.0 -6.950312812483e+01 
-1.115851112474e+02 3.633068679803e+01 0.0 
3.633068679803e+01 -2.208549060824e+02 0.0 
0.0 0.0 -1.005796371808e+02 
-2.086623938424e+01 8.077961722523e-02 0.0 
8.077961722523e-02 -6.635123606523e+01 0.0 
0.0 0.0 -2.576524263484e+01 
-1.016406510881e+02 3.637308617147e+01 0.0 
3.637308617147e+01 -1.776844104195e+02 0.0 
0.0 0.0 -8.339751845227e+01 
-2.511532334813e+01 -5.133481977088e+00 0.0 
-5.133481977088e+00 -7.350524698947e+01 0.0 
0.0 0.0 -2.918617110128e+01 
-6.460151481909e+01 1.736865814125e+00 0.0 
1.736865814125e+00 -1.570522878904e+02 0.0 
0.0 0.0 -6.609614081285e+01 
-1.194911905447e+02 2.431867118769e+01 0.0 
2.431867118769e+01 -2.583616586512e+02 0.0 
0.0 0.0 -1.153431105782e+02 
-5.242640549358e+01 5.807446869820e-01 0.0 
5.807446869820e-01 -7.085080316679e+01 0.0 
0.0 0.0 -3.658316259811e+01 
-6.951521040606e+01 1.463081951685e+00 0.0 
1.463081951685e+00 -1.672863731984e+02 0.0 
0.0 0.0 -7.064047508135e+01 
-4.165263807285e+01 3.696111245533e-02 0.0 
3.696111245533e-02 -1.094679670441e+02 0.0 
0.0 0.0 -4.493618153508e+01 
-6.553477051258e+01 1.487041768142e-01 0.0 
1.487041768142e-01 -1.590900443980e+02 0.0 
0.0 0.0 -6.698744447317e+01 
-9.826474957309e+01 1.826544594767e+01 0.0 
1.826544594767e+01 -2.186850750800e+02 0.0 
0.0 0.0 -9.554385680540e+01 
-7.024045892606e+01 -7.172298183520e-02 0.0 
-7.172298183520e-02 -1.688615828511e+02 0.0 
0.0 0.0 -7.133061253314e+01 
-6.607655859059e+01 -1.173810688377e+00 0.0 
-1.173810688377e+00 -1.601738914796e+02 0.0 
0.0 0.0 -6.747513502104e+01 
-8.258446987608e+01 9.091497206540e+00 0.0 
9.091497206540e+00 -1.688191458658e+02 0.0 
0.0 0.0 -7.502108472256e+01 
-7.053883030953e+01 -1.393029348693e+00 0.0 
-1.393029348693e+00 -1.694239751718e+02 0.0 
0.0 0.0 -7.158884164439e+01 
-8.443300505996e+01 2.689815903753e+00 0.0 
2.689815903753e+00 -1.876824616662e+02 0.0 
0.0 0.0 -8.123464001784e+01 
-1.727622959790e+02 6.730246221713e-01 0.0 
6.730246221713e-01 -3.817001403107e+02 0.0 
0.0 0.0 -1.727579608231e+02 
-3.783642074117e+01 2.316236893842e-01 0.0 
2.316236893842e-01 -3.156520113257e+01 0.0 
0.0 0.0 -2.042048656212e+01 
-2.255486554674e+01 1.550911275490e+01 0.0 
1.550911275490e+01 -2.575818151466e+01 0.0 
0.0 0.0 -1.409391411842e+01 
-2.460431618794e+01 1.522571544955e+00 0.0 
1.522571544955e+00 -1.647555652600e+01 0.0 
0.0 0.0 -1.218851434361e+01 
-3.096360413349e+01 1.909437422126e+01 0.0 
1.909437422126e+01 -5.197248786390e+01 0.0 
0.0 0.0 -2.448082759922e+01 
-5.719727493083e+01 -2.950379304810e+00 0.0 
-2.950379304810e+00 -1.414707461756e+02 0.0 
0.0 0.0 -5.920040633192e+01 
-1.040117122191e+02 3.760775336524e+01 0.0 
3.760775336524e+01 -1.911828158687e+02 0.0 
0.0 0.0 -8.821860582677e+01 
-3.824083026207e+01 2.312669565540e-01 0.0 
2.312669565540e-01 -3.227252229001e+01 0.0 
0.0 0.0 -2.075400576562e+01 
-5.250137640632e+01 -3.669451513756e+00 0.0 
-3.669451513756e+00 -1.315159489410e+02 0.0 
0.0 0.0 -5.480519760420e+01 
-1.255385292851e+02 4.259307371752e+01 0.0 
4.259307371752e+01 -2.402988483226e+02 0.0 
0.0 0.0 -1.114369437998e+02 
-1.469011486739e+02 3.432715396167e+01 0.0 
3.432715396167e+01 -3.062178549025e+02 0.0 
0.0 0.0 -1.398117425103e+02 
-6.222080575012e+01 1.440232855395e+00 0.0 
1.440232855395e+00 -9.993477473888e+01 0.0 
0.0 0.0 -4.824667414670e+01 
-1.366470883542e+02 1.700477187464e+01 0.0 
1.700477187464e+01 -3.013647077177e+02 0.0 
0.0 0.0 -1.349004686051e+02 
-1.104806061736e+02 2.264194047341e+01 0.0 
2.264194047341e+01 -2.406029382040e+02 0.0 
0.0 0.0 -1.066405500174e+02 
-7.528619408195e+01 1.303784410560e+00 0.0 
1.303784410560e+00 -1.487041174417e+02 0.0 
0.0 0.0 -6.679709345708e+01 
-3.227822494488e+01 3.455010037134e-01 0.0 
3.455010037134e-01 -1.522776640743e+01 0.0 
0.0 0.0 -1.385179740569e+01 
-1.147564027332e+01 -5.328879197405e+00 0.0 
-5.328879197405e+00 -3.410646712366e+01 0.0 
0.0 0.0 -1.339765939458e+01 
-1.285655687567e+02 -6.673428979642e-01 0.0 
-6.673428979642e-01 -2.896609879655e+02 0.0 
0.0 0.0 -1.284259992110e+02 
-2.189316653735e+01 1.531815018910e+01 0.0 
1.531815018910e+01 -2.511794508122e+01 0.0 
0.0 0.0 -1.370333348557e+01 
-2.652703807897e+01 1.726063743724e+01 0.0 
1.726063743724e+01 -4.674123690968e+01 0.0 
0.0 0.0 -2.158048249659e+01 
-2.372053703875e+01 1.560085023653e+01 0.0 
1.560085023653e+01 -4.477729132327e+01 0.0 
0.0 0.0 -2.014934850861e+01 
-5.501078693686e+01 -1.457762340214e+00 0.0 
-1.457762340214e+00 -1.370766562397e+02 0.0 
0.0 0.0 -5.722623295297e+01 
-1.500366114608e+01 -6.577197424391e+00 0.0 
-6.577197424391e+00 -4.793688740904e+01 0.0 
0.0 0.0 -1.848216456654e+01 
-2.297055588633e+01 1.590294776440e+01 0.0 
1.590294776440e+01 -2.838692112649e+01 0.0 
0.0 0.0 -1.500724310385e+01 
-1.477838378838e+02 2.048448820638e+01 0.0 
2.048448820638e+01 -3.225437914544e+02 0.0 
0.0 0.0 -1.454061764665e+02 
-4.427967151474e+01 1.825860451259e+00 0.0 
1.825860451259e+00 -3.325059513061e+01 0.0 
0.0 0.0 -2.285907999361e+01 
-1.226011250472e+02 2.687646886416e+01 0.0 
2.687646886416e+01 -2.621653726669e+02 0.0 
0.0 0.0 -1.175907014415e+02 
-2.296687746321e+01 1.539360846597e+01 0.0 
1.539360846597e+01 -2.736529428310e+01 0.0 
0.0 0.0 -1.469965152389e+01 
-9.570019243684e+01 2.490247726601e+01 0.0 
2.490247726601e+01 -1.830817432825e+02 0.0 
0.0 0.0 -8.323458071579e+01 
-1.410749649305e+02 2.995587841204e+01 0.0 
2.995587841204e+01 -2.990019312171e+02 0.0 
0.0 0.0 -1.355718218059e+02 
-1.679847001375e+02 5.427262203260e+00 0.0 
5.427262203260e+00 -3.713416080935e+02 0.0 
0.0 0.0 -1.678372849976e+02 
-1.316059467879e+02 2.835881387473e+01 0.0 
2.835881387473e+01 -2.801405505094e+02 0.0 
0.0 0.0 -1.263617577650e+02 
-2.210027730364e+01 1.216305793136e+01 0.0 
1.216305793136e+01 -3.847688673856e+01 0.0 
0.0 0.0 -1.777314921266e+01 
-6.387047621398e+01 1.061828827861e+01 0.0 
1.061828827861e+01 -5.550292520423e+01 0.0 
0.0 0.0 -3.541202042546e+01 
-1.335568592504e+02 3.859117521703e+01 0.0 
3.859117521703e+01 -2.688125801082e+02 0.0 
0.0 0.0 -1.233133254226e+02 
-6.789924409520e+01 2.545761272991e+00 0.0 
2.545761272991e+00 -1.161820340777e+02 0.0 
0.0 0.0 -5.482438345188e+01 
-1.702925974820e+02 3.720687229241e+00 0.0 
3.720687229241e+00 -3.763686741254e+02 0.0 
0.0 0.0 -1.702218431109e+02 
-4.712199053377e+01 3.082406899819e+00 0.0 
3.082406899819e+00 -3.165404965810e+01 0.0 
0.0 0.0 -2.323281205756e+01 
-8.133430190425e+01 5.794815076739e+00 0.0 
5.794815076739e+00 -1.706451005368e+02 0.0 
0.0 0.0 -7.519382073230e+01 
-2.102909683220e+01 -3.244352771630e+00 0.0 
-3.244352771630e+00 -6.590413653690e+01 0.0 
0.0 0.0 -2.567997001073e+01 
-8.050795577004e+01 2.885920074084e+00 0.0 
2.885920074084e+00 -1.704621154202e+02 0.0 
0.0 0.0 -7.489102135708e+01 
-1.111187181042e+02 3.883300732175e+01 0.0 
3.883300732175e+01 -2.105170376112e+02 0.0 
0.0 0.0 -9.677651783171e+01 
-4.889585557413e+01 1.133900666701e+00 0.0 
1.133900666701e+00 -5.643370226988e+01 0.0 
0.0 0.0 -3.119886735320e+01 
-7.031362217587e+01 1.825191330305e+01 0.0 
1.825191330305e+01 -6.576708932799e+01 0.0 
0.0 0.0 -4.042421345116e+01 
-1.662147248005e+02 5.506185375735e-01 0.0 
5.506185375735e-01 -3.681060216847e+02 0.0 
0.0 0.0 -1.662100031339e+02 
-1.199389451895e+02 4.265485921801e+01 0.0 
4.265485921801e+01 -2.254194106928e+02 0.0 
0.0 0.0 -1.047638186566e+02 
-2.099253688895e+01 9.520368592431e+00 0.0 
9.520368592431e+00 -3.366094066805e+01 0.0 
0.0 0.0 -1.599604326710e+01 
-6.271859678229e+01 1.882899872725e+00 0.0 
1.882899872725e+00 -9.888243836606e+01 0.0 
0.0 0.0 -4.808031054450e+01 
-7.256681026776e+01 -2.886185285331e+00 0.0 
-2.886185285331e+00 -1.728818313186e+02 0.0 
0.0 0.0 -7.323459247590e+01 
-2.109020177713e+01 -7.207563483488e-01 0.0 
-7.207563483488e-01 -2.925466226220e+01 0.0 
0.0 0.0 -1.489589898276e+01 
-1.583672479299e+02 6.465106683579e+00 0.0 
6.465106683579e+00 -3.511506992038e+02 0.0 
0.0 0.0 -1.581467431838e+02 
-1.176880483733e+02 3.953222157082e+01 0.0 
3.953222157082e+01 -2.283001643273e+02 0.0 
0.0 0.0 -1.049840844201e+02 
-1.643226870704e+02 1.074885148727e+00 0.0 
1.074885148727e+00 -3.641676809007e+02 0.0 
0.0 0.0 -1.643145776660e+02 
-1.286847715240e+01 -9.968408168284e-02 0.0 
-9.968408168284e-02 -4.974759293250e+01 0.0 
0.0 0.0 -1.838482102547e+01 
-8.263486322275e+00 -3.247778991377e+00 0.0 
-3.247778991377e+00 -3.250733917015e+01 0.0 
0.0 0.0 -1.191316613757e+01 
-1.574384897467e+02 9.354933353518e+00 0.0 
9.354933353518e+00 -3.484828505599e+02 0.0 
0.0 0.0 -1.569775051726e+02 
-1.303691201599e+02 4.130395642316e+01 0.0 
4.130395642316e+01 -2.555422208346e+02 0.0 
0.0 0.0 -1.179628839859e+02 
-2.611997062143e+01 -4.093129521080e+00 0.0 
-4.093129521080e+00 -7.618204313320e+01 0.0 
0.0 0.0 -3.029060412639e+01 
-9.468493765257e+01 2.256097032867e+01 0.0 
2.256097032867e+01 -2.008312525207e+02 0.0 
0.0 0.0 -8.845689732628e+01 
-2.006396901308e+01 7.802051363537e+00 0.0 
7.802051363537e+00 -2.362650742824e+01 0.0 
0.0 0.0 -1.278894691744e+01 
-3.212934016673e+01 9.989331868964e-02 0.0 
9.989331868964e-02 -1.316078433703e+01 0.0 
0.0 0.0 -1.318703735113e+01 
-5.614337162733e+00 -9.630019811951e-01 0.0 
-9.630019811951e-01 -3.323155350772e+01 0.0 
0.0 0.0 -1.142953680580e+01 
-1.714022941568e+02 2.801688184160e+00 0.0 
2.801688184160e+00 -3.787615305782e+02 0.0 
0.0 0.0 -1.713605047578e+02 
-8.725943688932e+01 1.524555025166e+01 0.0 
1.524555025166e+01 -1.756014876204e+02 0.0 
0.0 0.0 -7.845827735292e+01 
-8.121294039913e+01 -2.281416355707e+00 0.0 
-2.281416355707e+00 -1.888601337597e+02 0.0 
0.0 0.0 -8.062192224766e+01 
-5.345374746529e+01 1.174294095645e+01 0.0 
1.174294095645e+01 -2.737613342537e+01 0.0 
0.0 0.0 -2.384896426720e+01 
-4.819780164416e+01 -4.152771042232e-01 0.0 
-4.152771042232e-01 -1.230541044636e+02 0.0 
0.0 0.0 -5.097557183232e+01 
-1.312452231682e+02 3.372209935396e+01 0.0 
3.372209935396e+01 -2.719139762628e+02 0.0 
0.0 0.0 -1.235700722789e+02 
-1.450338307174e+01 -6.246949758299e+00 0.0 
-6.246949758299e+00 -4.763200918844e+01 0.0 
0.0 0.0 -1.824061767806e+01 
-8.476010440866e+01 1.113553472970e+01 0.0 
1.113553472970e+01 -1.755370888733e+02 0.0 
0.0 0.0 -7.768915798458e+01 
-1.553629992796e+02 1.275674451055e+01 0.0 
1.275674451055e+01 -3.429194722046e+02 0.0 
0.0 0.0 -1.544941489931e+02 
-1.061157924752e+02 3.420227547945e+01 0.0 
3.420227547945e+01 -2.031308140302e+02 0.0 
0.0 0.0 -9.271906670313e+01 
-1.545768733839e+02 2.595952167359e+01 0.0 
2.595952167359e+01 -3.325243441281e+02 0.0 
0.0 0.0 -1.508591819851e+02 
-2.156312599246e+01 3.103188234449e+00 0.0 
3.103188234449e+00 -2.759796510805e+01 0.0 
0.0 0.0 -1.445018163708e+01 
-1.417493441143e+02 3.223412775352e+01 0.0 
3.223412775352e+01 -2.976078365477e+02 0.0 
0.0 0.0 -1.353378460773e+02 
-1.455030418843e+02 1.452650904539e+01 0.0 
1.452650904539e+01 -3.214376569926e+02 0.0 
0.0 0.0 -1.443051031419e+02 
-3.174777769220e+01 -6.743931424813e-02 0.0 
-6.743931424813e-02 -1.500504977868e+01 0.0 
0.0 0.0 -1.362584824127e+01 
-1.126293679982e+02 3.869437964306e+01 0.0 
3.869437964306e+01 -2.136949157295e+02 0.0 
0.0 0.0 -9.828081891466e+01 
-6.300380607454e+01 -2.006271122755e+00 0.0 
-2.006271122755e+00 -1.529759878496e+02 0.0 
0.0 0.0 -6.439393817723e+01 
-2.130976632667e+01 -1.097015624800e+00 0.0 
-1.097015624800e+00 -6.717978961124e+01 0.0 
0.0 0.0 -2.614686678138e+01 
-8.450133075956e+01 1.430684738796e+00 0.0 
1.430684738796e+00 -1.896335487909e+02 0.0 
0.0 0.0 -8.184046386512e+01 
6.472634310301e-01 -1.517229246422e-01 0.0 
-1.517229246422e-01 -1.422712715579e+01 0.0 
0.0 0.0 -1.103374265488e+00 
-3.092743882403e+01 5.748304020085e-02 0.0 
5.748304020085e-02 -1.387181512498e+01 0.0 
0.0 0.0 -1.303977618471e+01 
-1.750426603281e+02 1.876841218813e-01 0.0 
1.876841218813e-01 -3.864434232269e+02 0.0 
0.0 0.0 -1.750413117020e+02 
-1.906809945417e+01 -1.546936548063e-01 0.0 
-1.546936548063e-01 -6.261427020692e+01 0.0 
0.0 0.0 -2.410471089833e+01 
-4.355707928189e+01 4.512448296681e-01 0.0 
4.512448296681e-01 -4.597046319351e+01 0.0 
0.0 0.0 -2.645826274262e+01 
-1.287972070237e+02 4.221896867282e+01 0.0 
4.221896867282e+01 -2.495077079754e+02 0.0 
0.0 0.0 -1.154900747992e+02 
-1.020144748718e+02 -6.149188365887e-01 0.0 
-6.149188365887e-01 -2.317397060339e+02 0.0 
0.0 0.0 -1.005273010539e+02 
-7.245335596793e+01 2.257330385563e+00 0.0 
2.257330385563e+00 -1.367888462546e+02 0.0 
0.0 0.0 -6.237266066675e+01 
-1.866872788684e+01 -6.080226815931e+00 0.0 
-6.080226815931e+00 -5.896793873119e+01 0.0 
0.0 0.0 -2.289099998541e+01 
-2.585748926199e+01 4.022194976226e-01 0.0 
4.022194976226e-01 -1.401077324605e+01 0.0 
0.0 0.0 -1.197775138995e+01 
-5.619366744876e+01 1.044350323853e+00 0.0 
1.044350323853e+00 -8.129317606599e+01 0.0 
0.0 0.0 -4.084605305442e+01 
-1.442217745095e+02 2.836336037290e+01 0.0 
2.836336037290e+01 -3.077324918716e+02 0.0 
0.0 0.0 -1.394330925585e+02 
-9.918826966998e+01 2.844138293442e+01 0.0 
2.844138293442e+01 -1.930795092411e+02 0.0 
0.0 0.0 -8.732966786293e+01 
-5.256616772618e+01 1.248715621291e+00 0.0 
1.248715621291e+00 -6.737699311401e+01 0.0 
0.0 0.0 -3.558294825206e+01 
-2.032767450706e+01 7.454177217961e+00 0.0 
7.454177217961e+00 -4.552820822378e+01 0.0 
0.0 0.0 -1.935676481925e+01 
-1.244282060320e+02 4.075494344394e+01 0.0 
4.075494344394e+01 -2.421980360445e+02 0.0 
0.0 0.0 -1.116933995001e+02 
-8.875834157280e+01 -2.141230144252e+00 0.0 
-2.141230144252e+00 -2.043868658406e+02 0.0 
0.0 0.0 -8.758253369835e+01 
-1.286807093899e+02 3.678879439830e+01 0.0 
3.678879439830e+01 -2.607912934377e+02 0.0 
0.0 0.0 -1.191204364682e+02 
-1.431612219654e+02 1.834106640167e+01 0.0 
1.834106640167e+01 -3.142645892296e+02 0.0 
0.0 0.0 -1.412118630729e+02 
-1.957600835579e+01 8.442860865867e+00 0.0 
8.442860865867e+00 -1.301178226083e+01 0.0 
0.0 0.0 -9.643416162091e+00 
-1.101809639826e+02 -5.558204593353e-01 0.0 
-5.558204593353e-01 -2.494690954918e+02 0.0 
0.0 0.0 -1.090665622063e+02 
-5.925011356674e+00 -1.520975774043e+00 0.0 
-1.520975774043e+00 -3.134319006569e+01 0.0 
0.0 0.0 -1.088201197622e+01 
-1.628202988795e+02 4.216785538083e+00 0.0 
4.216785538083e+00 -3.607895660738e+02 0.0 
0.0 0.0 -1.627279517387e+02 
-9.279304216977e+01 -1.507553679083e+00 0.0 
-1.507553679083e+00 -2.126103338592e+02 0.0 
0.0 0.0 -9.138827269780e+01 

TENSORS node_materi_strain_total float
1.662054053616e-03 -6.074412367574e-06 0.0 
-6.074412367574e-06 -6.173612157813e-04 0.0 
0.0 0.0 0.0 
-1.572498858620e-03 -2.550542456044e-05 0.0 
-2.550542456044e-05 1.468113198586e-02 0.0 
0.0 0.0 0.0 
3.036458094918e-05 3.520643331750e-05 0.0 
3.520643331750e-05 7.403524898789e-03 0.0 
0.0 0.0 0.0 
-1.171541493958e-04 5.425656819980e-05 0.0 
5.425656819980e-05 1.759535912525e-02 0.0 
0.0 0.0 0.0 
1.591013582954e-03 -1.452684319571e-05 0.0 
-1.452684319571e-05 -6.958459482277e-04 0.0 
0.0 0.0 0.0 
1.524963559362e-03 -1.105468410462e-05 0.0 
-1.105468410462e-05 -5.127914925930e-04 0.0 
0.0 0.0 0.0 
1.357173539664e-03 4.668612925930e-06 0.0 
4.668612925930e-06 -7.416187575678e-06 0.0 
0.0 0.0 0.0 
1.149438759471e-03 1.089599568183e-05 0.0 
1.089599568183e-05 6.389664042358e-04 0.0 
0.0 0.0 0.0 
8.628043615836e-04 -6.182076195826e-07 0.0 
-6.182076195826e-07 1.318078739210e-03 0.0 
0.0 0.0 0.0 
5.467460408865e-04 -8.046364775492e-06 0.0 
-8.046364775492e-06 2.024300850016e-03 0.0 
0.0 0.0 0.0 
2.726429472542e-04 -1.978222951812e-05 0.0 
-1.978222951812e-05 2.672250863912e-03 0.0 
0.0 0.0 0.0 
8.169304737408e-05 -3.133324903964e-05 0.0 
-3.133324903964e-05 3.177313410704e-03 0.0 
0.0 0.0 0.0 
-3.731971892218e-05 -3.370405409220e-05 0.0 
-3.370405409220e-05 3.606394599074e-03 0.0 
0.0 0.0 0.0 
-1.184527947691e-04 -2.887651790632e-05 0.0 
-2.887651790632e-05 4.020093509201e-03 0.0 
0.0 0.0 0.0 
-1.717772353096e-04 -1.759040340442e-05 0.0 
-1.759040340442e-05 4.418072429236e-03 0.0 
0.0 0.0 0.0 
-2.005342219333e-04 -8.912293844809e-06 0.0 
-8.912293844809e-06 4.782214419895e-03 0.0 
0.0 0.0 0.0 
-2.146375015897e-04 -6.025435190654e-06 0.0 
-6.025435190654e-06 5.110558194746e-03 0.0 
0.0 0.0 0.0 
-2.308432095467e-04 -2.076255609525e-05 0.0 
-2.076255609525e-05 5.466195187696e-03 0.0 
0.0 0.0 0.0 
-2.300405882806e-04 -1.790734781071e-05 0.0 
-1.790734781071e-05 5.826437838415e-03 0.0 
0.0 0.0 0.0 
-1.619278113858e-04 -1.053843567898e-05 0.0 
-1.053843567898e-05 6.136947140175e-03 0.0 
0.0 0.0 0.0 
-3.900058833528e-05 3.071125182944e-06 0.0 
3.071125182944e-06 6.420498312150e-03 0.0 
0.0 0.0 0.0 
5.523863092627e-05 1.980211716998e-05 0.0 
1.980211716998e-05 6.740057210788e-03 0.0 
0.0 0.0 0.0 
7.102051347604e-05 3.136718525665e-05 0.0 
3.136718525665e-05 7.132173781481e-03 0.0 
0.0 0.0 0.0 
-8.582011154627e-05 1.790501577569e-04 0.0 
1.790501577569e-04 1.759302138678e-02 0.0 
0.0 0.0 0.0 
-9.417430764055e-05 3.294483486528e-04 0.0 
3.294483486528e-04 1.756967563002e-02 0.0 
0.0 0.0 0.0 
-9.825914260742e-05 4.861295148851e-04 0.0 
4.861295148851e-04 1.756063396002e-02 0.0 
0.0 0.0 0.0 
-9.605414089453e-05 6.759614798954e-04 0.0 
6.759614798954e-04 1.753228815154e-02 0.0 
0.0 0.0 0.0 
-1.266852853549e-04 8.532726742377e-04 0.0 
8.532726742377e-04 1.749353979763e-02 0.0 
0.0 0.0 0.0 
-1.228873374721e-04 1.074200601675e-03 0.0 
1.074200601675e-03 1.745035077410e-02 0.0 
0.0 0.0 0.0 
-1.460497240718e-04 1.319411620232e-03 0.0 
1.319411620232e-03 1.737187693839e-02 0.0 
0.0 0.0 0.0 
-1.564115987546e-04 1.593811473346e-03 0.0 
1.593811473346e-03 1.726350700437e-02 0.0 
0.0 0.0 0.0 
-1.894709492276e-04 1.901445137239e-03 0.0 
1.901445137239e-03 1.712218238583e-02 0.0 
0.0 0.0 0.0 
-1.532287690904e-04 2.232596377598e-03 0.0 
2.232596377598e-03 1.693720452746e-02 0.0 
0.0 0.0 0.0 
-2.524975046238e-04 2.594490968275e-03 0.0 
2.594490968275e-03 1.673962023688e-02 0.0 
0.0 0.0 0.0 
-2.459984283821e-04 3.059368273742e-03 0.0 
3.059368273742e-03 1.644042033606e-02 0.0 
0.0 0.0 0.0 
-2.703318792787e-04 3.541682013942e-03 0.0 
3.541682013942e-03 1.604726372369e-02 0.0 
0.0 0.0 0.0 
-2.329528857557e-04 4.003737956801e-03 0.0 
4.003737956801e-03 1.561205585544e-02 0.0 
0.0 0.0 0.0 
-2.589614131254e-04 4.437587643689e-03 0.0 
4.437587643689e-03 1.513211023809e-02 0.0 
0.0 0.0 0.0 
-1.791385310669e-04 4.802234642387e-03 0.0 
4.802234642387e-03 1.458716475565e-02 0.0 
0.0 0.0 0.0 
-5.653261757258e-05 4.986946766913e-03 0.0 
4.986946766913e-03 1.406531054653e-02 0.0 
0.0 0.0 0.0 
-1.481637169983e-05 5.035825614730e-03 0.0 
5.035825614730e-03 1.360787264394e-02 0.0 
0.0 0.0 0.0 
7.405519385347e-05 4.970152893575e-03 0.0 
4.970152893575e-03 1.323429320520e-02 0.0 
0.0 0.0 0.0 
8.849408053346e-05 4.814245875332e-03 0.0 
4.814245875332e-03 1.290351727159e-02 0.0 
0.0 0.0 0.0 
1.050889307618e-04 4.637153686645e-03 0.0 
4.637153686645e-03 1.255862600279e-02 0.0 
0.0 0.0 0.0 
1.172216201114e-04 4.430780462663e-03 0.0 
4.430780462663e-03 1.223873150765e-02 0.0 
0.0 0.0 0.0 
1.184772643410e-04 4.228399659617e-03 0.0 
4.228399659617e-03 1.192865419904e-02 0.0 
0.0 0.0 0.0 
1.189384973846e-04 4.006149762949e-03 0.0 
4.006149762949e-03 1.162971899256e-02 0.0 
0.0 0.0 0.0 
1.125845272940e-04 3.795329826668e-03 0.0 
3.795329826668e-03 1.137653569326e-02 0.0 
0.0 0.0 0.0 
1.260503024415e-04 3.588636085616e-03 0.0 
3.588636085616e-03 1.111244948384e-02 0.0 
0.0 0.0 0.0 
1.170944763098e-04 3.360151103300e-03 0.0 
3.360151103300e-03 1.082725152636e-02 0.0 
0.0 0.0 0.0 
1.256041766046e-04 3.127568415282e-03 0.0 
3.127568415282e-03 1.056812523054e-02 0.0 
0.0 0.0 0.0 
1.296348728779e-04 2.896634681825e-03 0.0 
2.896634681825e-03 1.030610684102e-02 0.0 
0.0 0.0 0.0 
1.168427434752e-04 2.650366215516e-03 0.0 
2.650366215516e-03 1.007547111340e-02 0.0 
0.0 0.0 0.0 
1.197541907522e-04 2.416406921844e-03 0.0 
2.416406921844e-03 9.817464572862e-03 0.0 
0.0 0.0 0.0 
1.365280394544e-04 2.186862587148e-03 0.0 
2.186862587148e-03 9.542254226173e-03 0.0 
0.0 0.0 0.0 
1.237075194210e-04 1.937244555717e-03 0.0 
1.937244555717e-03 9.313498970838e-03 0.0 
0.0 0.0 0.0 
1.163692831731e-04 1.723854028547e-03 0.0 
1.723854028547e-03 9.150683235227e-03 0.0 
0.0 0.0 0.0 
1.134908414409e-04 1.528377434093e-03 0.0 
1.528377434093e-03 8.966094119774e-03 0.0 
0.0 0.0 0.0 
9.643115320583e-05 1.324778871995e-03 0.0 
1.324778871995e-03 8.795196850285e-03 0.0 
0.0 0.0 0.0 
9.444578419160e-05 1.155969693681e-03 0.0 
1.155969693681e-03 8.648594010515e-03 0.0 
0.0 0.0 0.0 
8.646157217710e-05 9.906494925650e-04 0.0 
9.906494925650e-04 8.490040358446e-03 0.0 
0.0 0.0 0.0 
8.114980783147e-05 8.456138262206e-04 0.0 
8.456138262206e-04 8.348210454014e-03 0.0 
0.0 0.0 0.0 
7.487032371752e-05 7.160277871530e-04 0.0 
7.160277871530e-04 8.201431138176e-03 0.0 
0.0 0.0 0.0 
5.990623788047e-05 5.891247793389e-04 0.0 
5.891247793389e-04 8.095661562049e-03 0.0 
0.0 0.0 0.0 
4.895916400479e-05 4.901177672595e-04 0.0 
4.901177672595e-04 8.026310300623e-03 0.0 
0.0 0.0 0.0 
4.395293173006e-05 4.144192767770e-04 0.0 
4.144192767770e-04 7.933281888187e-03 0.0 
0.0 0.0 0.0 
6.431705613535e-05 3.077202726508e-04 0.0 
3.077202726508e-04 7.743267858655e-03 0.0 
0.0 0.0 0.0 
3.076438425098e-05 2.445350074977e-04 0.0 
2.445350074977e-04 7.730823611458e-03 0.0 
0.0 0.0 0.0 
3.186166008828e-05 1.928826119971e-04 0.0 
1.928826119971e-04 7.616601909296e-03 0.0 
0.0 0.0 0.0 
2.089582910703e-05 1.350460138865e-04 0.0 
1.350460138865e-04 7.548478336899e-03 0.0 
0.0 0.0 0.0 
2.380057215690e-05 9.902210410128e-05 0.0 
9.902210410128e-05 7.496895223401e-03 0.0 
0.0 0.0 0.0 
2.512378442421e-05 5.095948886762e-05 0.0 
5.095948886762e-05 7.452337568749e-03 0.0 
0.0 0.0 0.0 
-1.525300652740e-03 -1.961862743572e-05 0.0 
-1.961862743572e-05 1.491730380463e-02 0.0 
0.0 0.0 0.0 
-1.482970013049e-03 -1.264195159107e-05 0.0 
-1.264195159107e-05 1.532609214089e-02 0.0 
0.0 0.0 0.0 
-1.415181962840e-03 -6.081905311273e-06 0.0 
-6.081905311273e-06 1.570915074096e-02 0.0 
0.0 0.0 0.0 
-1.320970884815e-03 8.058947824286e-07 0.0 
8.058947824286e-07 1.606413059304e-02 0.0 
0.0 0.0 0.0 
-1.194564351159e-03 9.679305261775e-06 0.0 
9.679305261775e-06 1.640073235859e-02 0.0 
0.0 0.0 0.0 
-1.033320840886e-03 1.780971285251e-05 0.0 
1.780971285251e-05 1.670997855899e-02 0.0 
0.0 0.0 0.0 
-8.369348014753e-04 2.552630681319e-05 0.0 
2.552630681319e-05 1.698783034614e-02 0.0 
0.0 0.0 0.0 
-5.937948484291e-04 3.617627339967e-05 0.0 
3.617627339967e-05 1.723738228844e-02 0.0 
0.0 0.0 0.0 
-3.426955206581e-04 3.993612359698e-05 0.0 
3.993612359698e-05 1.746304237361e-02 0.0 
0.0 0.0 0.0 
-9.680088960689e-04 5.641457028966e-04 0.0 
5.641457028966e-04 5.624745789239e-04 0.0 
0.0 0.0 0.0 
-3.199756003002e-03 2.042012012655e-03 0.0 
2.042012012655e-03 1.507374957792e-02 0.0 
0.0 0.0 0.0 
-9.789967356348e-04 1.366062295846e-03 0.0 
1.366062295846e-03 1.276436341009e-03 0.0 
0.0 0.0 0.0 
-1.006087792265e-03 1.937335416391e-03 0.0 
1.937335416391e-03 2.613209970609e-03 0.0 
0.0 0.0 0.0 
-9.782958764731e-04 2.135634968294e-03 0.0 
2.135634968294e-03 4.020274991495e-03 0.0 
0.0 0.0 0.0 
-9.180410402313e-04 2.075830359721e-03 0.0 
2.075830359721e-03 5.362528788842e-03 0.0 
0.0 0.0 0.0 
-8.681160648237e-04 1.811904203079e-03 0.0 
1.811904203079e-03 6.738491284360e-03 0.0 
0.0 0.0 0.0 
-9.063843678576e-04 2.003699459937e-03 0.0 
2.003699459937e-03 8.176339445016e-03 0.0 
0.0 0.0 0.0 
-1.017689181614e-03 2.767769149232e-03 0.0 
2.767769149232e-03 9.651333738717e-03 0.0 
0.0 0.0 0.0 
-1.302144067189e-03 3.660181650461e-03 0.0 
3.660181650461e-03 1.128106351844e-02 0.0 
0.0 0.0 0.0 
-2.106174237769e-03 4.255602865099e-03 0.0 
4.255602865099e-03 1.329582606783e-02 0.0 
0.0 0.0 0.0 
-1.568591133932e-03 1.421976113383e-05 0.0 
1.421976113383e-05 1.468094450925e-02 0.0 
0.0 0.0 0.0 
-1.544631899175e-03 1.726191186508e-05 0.0 
1.726191186508e-05 1.466803202099e-02 0.0 
0.0 0.0 0.0 
-1.554442467205e-03 7.513500155023e-07 0.0 
7.513500155023e-07 1.466969923589e-02 0.0 
0.0 0.0 0.0 
-1.567702465867e-03 -2.263032463888e-06 0.0 
-2.263032463888e-06 1.466781167368e-02 0.0 
0.0 0.0 0.0 
-1.571308853293e-03 5.054831769534e-06 0.0 
5.054831769534e-06 1.472031310602e-02 0.0 
0.0 0.0 0.0 
-1.576234948311e-03 -2.766830622422e-06 0.0 
-2.766830622422e-06 1.468545483499e-02 0.0 
0.0 0.0 0.0 
-1.579157640229e-03 -5.988078602467e-06 0.0 
-5.988078602467e-06 1.467500936812e-02 0.0 
0.0 0.0 0.0 
-1.577219435800e-03 -3.644734436071e-06 0.0 
-3.644734436071e-06 1.468368714392e-02 0.0 
0.0 0.0 0.0 
-1.593702187058e-03 2.635398454378e-06 0.0 
2.635398454378e-06 1.470890903926e-02 0.0 
0.0 0.0 0.0 
-1.623461184228e-03 1.022977484538e-05 0.0 
1.022977484538e-05 1.471296831788e-02 0.0 
0.0 0.0 0.0 
-1.657974012069e-03 4.607364775851e-05 0.0 
4.607364775851e-05 1.471694124292e-02 0.0 
0.0 0.0 0.0 
-1.777627446637e-03 1.125726031061e-04 0.0 
1.125726031061e-04 1.474052128824e-02 0.0 
0.0 0.0 0.0 
-2.012158937936e-03 2.378559928635e-04 0.0 
2.378559928635e-04 1.483337419930e-02 0.0 
0.0 0.0 0.0 
-2.697446296640e-03 7.402266062125e-04 0.0 
7.402266062125e-04 1.523074488930e-02 0.0 
0.0 0.0 0.0 
-1.212599345561e-03 2.604500074850e-04 0.0 
2.604500074850e-04 6.754163072097e-04 0.0 
0.0 0.0 0.0 
-1.467645506550e-03 1.169790025891e-04 0.0 
1.169790025891e-04 7.627827929773e-04 0.0 
0.0 0.0 0.0 
-1.628815831801e-03 2.407254590996e-05 0.0 
2.407254590996e-05 8.162700591239e-04 0.0 
0.0 0.0 0.0 
-1.631765067373e-03 2.230250688308e-07 0.0 
2.230250688308e-07 8.175815711740e-04 0.0 
0.0 0.0 0.0 
-1.501696596782e-03 -6.440563456749e-05 0.0 
-6.440563456749e-05 7.676396278093e-04 0.0 
0.0 0.0 0.0 
-1.349484332415e-03 -1.284967971169e-04 0.0 
-1.284967971169e-04 7.045225267604e-04 0.0 
0.0 0.0 0.0 
-1.124344799988e-03 -1.825293270661e-04 0.0 
-1.825293270661e-04 6.090020704398e-04 0.0 
0.0 0.0 0.0 
-8.252659230596e-04 -2.252655154021e-04 0.0 
-2.252655154021e-04 4.727399459330e-04 0.0 
0.0 0.0 0.0 
-4.887749283133e-04 -2.295057374606e-04 0.0 
-2.295057374606e-04 3.151526625871e-04 0.0 
0.0 0.0 0.0 
-1.885153327474e-04 -1.920168041478e-04 0.0 
-1.920168041478e-04 1.783990565886e-04 0.0 
0.0 0.0 0.0 
5.564978139250e-05 -1.392354549985e-04 0.0 
-1.392354549985e-04 7.700152781516e-05 0.0 
0.0 0.0 0.0 
2.018945879506e-04 -7.540094103979e-05 0.0 
-7.540094103979e-05 8.186022840584e-06 0.0 
0.0 0.0 0.0 
5.169653361208e-04 -5.718575528056e-06 0.0 
-5.718575528056e-06 -1.182778650986e-04 0.0 
0.0 0.0 0.0 
1.181345884970e-03 9.738767820850e-06 0.0 
9.738767820850e-06 -3.893948767318e-04 0.0 
0.0 0.0 0.0 
1.714896704131e-03 7.055651592136e-06 0.0 
7.055651592136e-06 -6.140248050408e-04 0.0 
0.0 0.0 0.0 
1.587813237875e-03 -5.748835408721e-06 0.0 
-5.748835408721e-06 -5.623831780804e-04 0.0 
0.0 0.0 0.0 
1.654910761890e-03 6.747303836115e-06 0.0 
6.747303836115e-06 -5.954003411847e-04 0.0 
0.0 0.0 0.0 
1.857407418965e-03 8.099323335246e-06 0.0 
8.099323335246e-06 -6.870090890183e-04 0.0 
0.0 0.0 0.0 
1.822391648813e-03 -4.879137644064e-06 0.0 
-4.879137644064e-06 -6.689085179175e-04 0.0 
0.0 0.0 0.0 
-9.371360801879e-04 9.853896010228e-04 0.0 
9.853896010228e-04 7.863749353732e-04 0.0 
0.0 0.0 0.0 
-1.003040359828e-03 1.713342489834e-03 0.0 
1.713342489834e-03 1.919085745116e-03 0.0 
0.0 0.0 0.0 
-1.001886278256e-03 2.073374194866e-03 0.0 
2.073374194866e-03 3.322898351518e-03 0.0 
0.0 0.0 0.0 
-9.347489323446e-04 2.098532206671e-03 0.0 
2.098532206671e-03 4.702876914393e-03 0.0 
0.0 0.0 0.0 
-9.280130783664e-04 2.037545839294e-03 0.0 
2.037545839294e-03 6.089227302603e-03 0.0 
0.0 0.0 0.0 
-8.566909841573e-04 1.940112134259e-03 0.0 
1.940112134259e-03 7.464121855121e-03 0.0 
0.0 0.0 0.0 
-9.294940721962e-04 2.336774556184e-03 0.0 
2.336774556184e-03 8.896703749110e-03 0.0 
0.0 0.0 0.0 
-1.112194201064e-03 3.223029705355e-03 0.0 
3.223029705355e-03 1.043954338108e-02 0.0 
0.0 0.0 0.0 
-1.596829998952e-03 4.018693643943e-03 0.0 
4.018693643943e-03 1.222122615774e-02 0.0 
0.0 0.0 0.0 
-3.057282407563e-03 3.905769264226e-03 0.0 
3.905769264226e-03 1.463345624793e-02 0.0 
0.0 0.0 0.0 
-7.828307962083e-04 1.521135744393e-03 0.0 
1.521135744393e-03 2.269531768435e-03 0.0 
0.0 0.0 0.0 
3.615935595381e-04 1.809382550320e-03 0.0 
1.809382550320e-03 8.850497227231e-03 0.0 
0.0 0.0 0.0 
-1.521749913852e-04 -3.345522183437e-04 0.0 
-3.345522183437e-04 2.943630233552e-04 0.0 
0.0 0.0 0.0 
-1.097164400353e-03 -7.093967069224e-05 0.0 
-7.093967069224e-05 7.467492496682e-04 0.0 
0.0 0.0 0.0 
2.471190748333e-04 8.946918478772e-04 0.0 
8.946918478772e-04 8.111832257946e-03 0.0 
0.0 0.0 0.0 
-7.171538656854e-04 1.963807606123e-03 0.0 
1.963807606123e-03 4.954962696539e-03 0.0 
0.0 0.0 0.0 
-1.443746993514e-04 -7.239484377148e-05 0.0 
-7.239484377148e-05 4.225691266791e-03 0.0 
0.0 0.0 0.0 
4.355925716028e-04 2.780145190278e-03 0.0 
2.780145190278e-03 9.692203719121e-03 0.0 
0.0 0.0 0.0 
-7.593173587077e-04 2.232510590313e-03 0.0 
2.232510590313e-03 7.578158117697e-03 0.0 
0.0 0.0 0.0 
3.638295425691e-04 3.710616638152e-03 0.0 
3.710616638152e-03 1.085519838201e-02 0.0 
0.0 0.0 0.0 
-1.099753717573e-03 3.654802941361e-03 0.0 
3.654802941361e-03 1.056412955832e-02 0.0 
0.0 0.0 0.0 
1.422773217800e-04 4.208064041124e-04 0.0 
4.208064041124e-04 7.729233446405e-03 0.0 
0.0 0.0 0.0 
6.115525595139e-04 -3.220379111122e-05 0.0 
-3.220379111122e-05 -4.792890192716e-05 0.0 
0.0 0.0 0.0 
3.239491182614e-04 4.553629219078e-03 0.0 
4.553629219078e-03 1.205963957112e-02 0.0 
0.0 0.0 0.0 
-2.954327965166e-03 2.752378663470e-03 0.0 
2.752378663470e-03 1.436619546084e-02 0.0 
0.0 0.0 0.0 
3.774051131093e-04 -1.442330852020e-05 0.0 
-1.442330852020e-05 2.389824010695e-03 0.0 
0.0 0.0 0.0 
-2.128966662659e-04 -6.193111683694e-05 0.0 
-6.193111683694e-05 5.221678401156e-03 0.0 
0.0 0.0 0.0 
4.174196522407e-05 4.930109892920e-03 0.0 
4.930109892920e-03 1.326462966541e-02 0.0 
0.0 0.0 0.0 
-7.049226772690e-04 3.756763108515e-03 0.0 
3.756763108515e-03 1.566231987989e-02 0.0 
0.0 0.0 0.0 
-3.539983625006e-04 9.318235677947e-04 0.0 
9.318235677947e-04 1.742171666995e-02 0.0 
0.0 0.0 0.0 
-5.311515885064e-04 1.644557746798e-03 0.0 
1.644557746798e-03 1.721751000773e-02 0.0 
0.0 0.0 0.0 
-6.543049105793e-04 2.611566187303e-03 0.0 
2.611566187303e-03 1.670951063947e-02 0.0 
0.0 0.0 0.0 
-2.425852130605e-03 5.877990284360e-04 0.0 
5.877990284360e-04 1.515642199133e-02 0.0 
0.0 0.0 0.0 
-1.738903647665e-03 5.081592786191e-05 0.0 
5.081592786191e-05 1.494291367617e-02 0.0 
0.0 0.0 0.0 
-1.625401095444e-03 2.218292691022e-05 0.0 
2.218292691022e-05 1.493395635931e-02 0.0 
0.0 0.0 0.0 
-1.263859383293e-03 4.452345125086e-05 0.0 
4.452345125086e-05 1.624214107928e-02 0.0 
0.0 0.0 0.0 
8.863640133738e-05 1.981777592021e-04 0.0 
1.981777592021e-04 7.450135773163e-03 0.0 
0.0 0.0 0.0 
-1.009972156716e-03 2.480784376273e-04 0.0 
2.480784376273e-04 7.453038566363e-04 0.0 
0.0 0.0 0.0 
1.553126490021e-03 6.630428816381e-06 0.0 
6.630428816381e-06 -6.557558607952e-04 0.0 
0.0 0.0 0.0 
-5.368295675867e-05 -3.491289057316e-05 0.0 
-3.491289057316e-05 6.244221037978e-03 0.0 
0.0 0.0 0.0 
-1.556443368763e-03 9.302961516417e-06 0.0 
9.302961516417e-06 1.485476144749e-02 0.0 
0.0 0.0 0.0 
1.244876710571e-03 5.150622506618e-06 0.0 
5.150622506618e-06 3.232810631706e-04 0.0 
0.0 0.0 0.0 
-5.796129934542e-04 4.387060187602e-03 0.0 
4.387060187602e-03 1.461961700484e-02 0.0 
0.0 0.0 0.0 
3.609491459780e-04 3.259141378132e-03 0.0 
3.259141378132e-03 1.034056070980e-02 0.0 
0.0 0.0 0.0 
3.464485406679e-04 4.142097120039e-03 0.0 
4.142097120039e-03 1.141920250463e-02 0.0 
0.0 0.0 0.0 
4.451611247800e-04 2.313305815332e-03 0.0 
2.313305815332e-03 9.211320220702e-03 0.0 
0.0 0.0 0.0 
3.056667297314e-04 1.403545196761e-03 0.0 
1.403545196761e-03 8.535097976449e-03 0.0 
0.0 0.0 0.0 
-8.040391293792e-04 -2.658970204700e-04 0.0 
-2.658970204700e-04 6.440806330486e-04 0.0 
0.0 0.0 0.0 
-1.904608780650e-03 1.617425072686e-04 0.0 
1.617425072686e-04 1.496697944628e-02 0.0 
0.0 0.0 0.0 
2.303515736905e-04 6.098094902644e-04 0.0 
6.098094902644e-04 7.773470627877e-03 0.0 
0.0 0.0 0.0 
-9.519745289811e-04 8.411419478676e-05 0.0 
8.411419478676e-05 1.684855911481e-02 0.0 
0.0 0.0 0.0 
1.996808210118e-04 -2.031212241418e-04 0.0 
-2.031212241418e-04 1.423628993159e-04 0.0 
0.0 0.0 0.0 
1.611962626498e-05 -6.627718648223e-05 0.0 
-6.627718648223e-05 3.387567595722e-03 0.0 
0.0 0.0 0.0 
-2.625055847537e-04 5.660044910026e-04 0.0 
5.660044910026e-04 1.749871095777e-02 0.0 
0.0 0.0 0.0 
-6.555325502386e-04 2.117147448364e-03 0.0 
2.117147448364e-03 6.187448083344e-03 0.0 
0.0 0.0 0.0 
-7.502925697376e-04 1.800294659902e-03 0.0 
1.800294659902e-03 3.590067986354e-03 0.0 
0.0 0.0 0.0 
-8.309084564734e-04 2.851847786241e-03 0.0 
2.851847786241e-03 8.979629152252e-03 0.0 
0.0 0.0 0.0 
-1.817761133345e-03 3.989801498592e-03 0.0 
3.989801498592e-03 1.247780244658e-02 0.0 
0.0 0.0 0.0 
-8.183655252097e-04 9.804172938194e-04 0.0 
9.804172938194e-04 1.127740202027e-03 0.0 
0.0 0.0 0.0 
-1.447731494249e-03 1.765483146159e-05 0.0 
1.765483146159e-05 1.555352426148e-02 0.0 
0.0 0.0 0.0 
6.182122010165e-05 1.058559405261e-04 0.0 
1.058559405261e-04 7.386272496590e-03 0.0 
0.0 0.0 0.0 
1.778381218764e-03 -3.463052416335e-05 0.0 
-3.463052416335e-05 -7.619727318425e-04 0.0 
0.0 0.0 0.0 
-4.748813325667e-04 1.360441506520e-04 0.0 
1.360441506520e-04 1.733913096669e-02 0.0 
0.0 0.0 0.0 
-2.703192519083e-03 1.717923919059e-03 0.0 
1.717923919059e-03 1.462738139981e-02 0.0 
0.0 0.0 0.0 
-2.508558456098e-03 1.982603536949e-03 0.0 
1.982603536949e-03 1.403830958465e-02 0.0 
0.0 0.0 0.0 
-2.619368923962e-03 1.662887170520e-03 0.0 
1.662887170520e-03 1.471508774826e-02 0.0 
0.0 0.0 0.0 
-2.405006868465e-03 2.142245339740e-03 0.0 
2.142245339740e-03 1.417561588068e-02 0.0 
0.0 0.0 0.0 
-2.464874941221e-03 1.949618081899e-03 0.0 
1.949618081899e-03 1.476542218342e-02 0.0 
0.0 0.0 0.0 
-2.266131881572e-03 2.307814971200e-03 0.0 
2.307814971200e-03 1.431615348320e-02 0.0 
0.0 0.0 0.0 
-2.168495443539e-03 2.435187062168e-03 0.0 
2.435187062168e-03 1.366581712449e-02 0.0 
0.0 0.0 0.0 
-2.050344390585e-03 2.576479388235e-03 0.0 
2.576479388235e-03 1.386507435060e-02 0.0 
0.0 0.0 0.0 
-1.936122936554e-03 2.645263917666e-03 0.0 
2.645263917666e-03 1.319035470511e-02 0.0 
0.0 0.0 0.0 
-2.322688936342e-03 2.159567438465e-03 0.0 
2.159567438465e-03 1.488186535968e-02 0.0 
0.0 0.0 0.0 
-1.842218155279e-03 2.785853512365e-03 0.0 
2.785853512365e-03 1.343257426159e-02 0.0 
0.0 0.0 0.0 
-1.727596141235e-03 2.814613554916e-03 0.0 
2.814613554916e-03 1.276015475504e-02 0.0 
0.0 0.0 0.0 
-1.654005928682e-03 2.964577214552e-03 0.0 
2.964577214552e-03 1.302911329816e-02 0.0 
0.0 0.0 0.0 
-1.544340629681e-03 2.959903951554e-03 0.0 
2.959903951554e-03 1.236516566911e-02 0.0 
0.0 0.0 0.0 
-1.602676657952e-03 2.819324808453e-03 0.0 
2.819324808453e-03 1.206675001399e-02 0.0 
0.0 0.0 0.0 
-1.422525548365e-03 2.932810405519e-03 0.0 
2.932810405519e-03 1.168519887757e-02 0.0 
0.0 0.0 0.0 
-1.471026724318e-03 2.803402351912e-03 0.0 
2.803402351912e-03 1.136517441939e-02 0.0 
0.0 0.0 0.0 
-1.288960451704e-03 2.884072963051e-03 0.0 
2.884072963051e-03 1.098789214822e-02 0.0 
0.0 0.0 0.0 
-1.267965393507e-03 3.018423322529e-03 0.0 
3.018423322529e-03 1.134239325567e-02 0.0 
0.0 0.0 0.0 
-1.128672439371e-03 2.933667736083e-03 0.0 
2.933667736083e-03 1.064374966453e-02 0.0 
0.0 0.0 0.0 
-1.138452067569e-03 2.812956142800e-03 0.0 
2.812956142800e-03 1.026627115573e-02 0.0 
0.0 0.0 0.0 
-9.540295829989e-04 2.843094950670e-03 0.0 
2.843094950670e-03 9.918804730007e-03 0.0 
0.0 0.0 0.0 
-9.580248405422e-04 2.734887021648e-03 0.0 
2.734887021648e-03 9.515739740177e-03 0.0 
0.0 0.0 0.0 
-6.758460977513e-04 2.810533647371e-03 0.0 
2.810533647371e-03 9.130894565345e-03 0.0 
0.0 0.0 0.0 
-6.592322787043e-04 2.735112959275e-03 0.0 
2.735112959275e-03 8.686563901835e-03 0.0 
0.0 0.0 0.0 
-2.871530556326e-04 2.811924701766e-03 0.0 
2.811924701766e-03 8.241775399187e-03 0.0 
0.0 0.0 0.0 
-3.018487661078e-04 2.867630797926e-03 0.0 
2.867630797926e-03 8.703467691106e-03 0.0 
0.0 0.0 0.0 
1.112087984073e-04 2.789936820840e-03 0.0 
2.789936820840e-03 7.789443881525e-03 0.0 
0.0 0.0 0.0 
8.559352059878e-05 2.727784321596e-03 0.0 
2.727784321596e-03 7.348316082045e-03 0.0 
0.0 0.0 0.0 
4.882912110695e-04 2.635380681366e-03 0.0 
2.635380681366e-03 6.906181240879e-03 0.0 
0.0 0.0 0.0 
3.907142530020e-04 2.556092665828e-03 0.0 
2.556092665828e-03 6.520260137331e-03 0.0 
0.0 0.0 0.0 
8.211261588224e-04 2.423379674430e-03 0.0 
2.423379674430e-03 6.073598888871e-03 0.0 
0.0 0.0 0.0 
1.523113003870e-03 2.673894111022e-03 0.0 
2.673894111022e-03 5.924865753241e-03 0.0 
0.0 0.0 0.0 
1.874860571839e-03 2.415541838675e-03 0.0 
2.415541838675e-03 5.090573933710e-03 0.0 
0.0 0.0 0.0 
1.124746611499e-03 2.171939493408e-03 0.0 
2.171939493408e-03 5.282080553345e-03 0.0 
0.0 0.0 0.0 
2.195037483750e-03 2.128941489255e-03 0.0 
2.128941489255e-03 4.299918584036e-03 0.0 
0.0 0.0 0.0 
1.405564709140e-03 1.895169802545e-03 0.0 
1.895169802545e-03 4.531593224416e-03 0.0 
0.0 0.0 0.0 
2.478703467006e-03 1.827611687429e-03 0.0 
1.827611687429e-03 3.560747040155e-03 0.0 
0.0 0.0 0.0 
1.658897847489e-03 1.603855003807e-03 0.0 
1.603855003807e-03 3.830546867717e-03 0.0 
0.0 0.0 0.0 
2.712244383826e-03 1.514595138255e-03 0.0 
1.514595138255e-03 2.884558646697e-03 0.0 
0.0 0.0 0.0 
3.421612150749e-03 1.805483727686e-03 0.0 
1.805483727686e-03 2.630149104119e-03 0.0 
0.0 0.0 0.0 
3.529699193854e-03 1.470745027846e-03 0.0 
1.470745027846e-03 2.076737518862e-03 0.0 
0.0 0.0 0.0 
2.882536089451e-03 1.199343521399e-03 0.0 
1.199343521399e-03 2.281158849107e-03 0.0 
0.0 0.0 0.0 
3.572967695013e-03 1.141311385201e-03 0.0 
1.141311385201e-03 1.602630003870e-03 0.0 
0.0 0.0 0.0 
3.681330149170e-03 1.363294909339e-03 0.0 
1.363294909339e-03 1.908003145595e-03 0.0 
0.0 0.0 0.0 
3.647854680351e-03 1.045969537129e-03 0.0 
1.045969537129e-03 1.523358046962e-03 0.0 
0.0 0.0 0.0 
3.450419690894e-03 1.213502812591e-03 0.0 
1.213502812591e-03 2.143460730931e-03 0.0 
0.0 0.0 0.0 
3.398369307851e-03 9.221257494716e-04 0.0 
9.221257494716e-04 1.791382882559e-03 0.0 
0.0 0.0 0.0 
3.569773761857e-03 7.518749237570e-04 0.0 
7.518749237570e-04 1.203475971399e-03 0.0 
0.0 0.0 0.0 
3.309088410096e-03 6.538274998923e-04 0.0 
6.538274998923e-04 1.495808859441e-03 0.0 
0.0 0.0 0.0 
3.092500939955e-03 8.016622119847e-04 0.0 
8.016622119847e-04 2.134270854794e-03 0.0 
0.0 0.0 0.0 
3.008680217122e-03 5.598372780433e-04 0.0 
5.598372780433e-04 1.843036136503e-03 0.0 
0.0 0.0 0.0 
3.188352890696e-03 4.110696339196e-04 0.0 
4.110696339196e-04 1.249442341243e-03 0.0 
0.0 0.0 0.0 
2.898345843429e-03 3.430513463265e-04 0.0 
3.430513463265e-04 1.597286031427e-03 0.0 
0.0 0.0 0.0 
2.730572444205e-03 4.765624460248e-04 0.0 
4.765624460248e-04 2.179308325266e-03 0.0 
0.0 0.0 0.0 
2.632215805030e-03 2.801384278374e-04 0.0 
2.801384278374e-04 1.930781488516e-03 0.0 
0.0 0.0 0.0 
2.761809470660e-03 1.498187546661e-04 0.0 
1.498187546661e-04 1.393058052567e-03 0.0 
0.0 0.0 0.0 
2.506542955243e-03 1.046111969698e-04 0.0 
1.046111969698e-04 1.725676864376e-03 0.0 
0.0 0.0 0.0 
2.388765619052e-03 2.194652183801e-04 0.0 
2.194652183801e-04 2.256738297083e-03 0.0 
0.0 0.0 0.0 
2.268834019054e-03 5.716087500054e-05 0.0 
5.716087500054e-05 2.051540875158e-03 0.0 
0.0 0.0 0.0 
2.337368606228e-03 -5.180917419665e-05 0.0 
-5.180917419665e-05 1.574322503472e-03 0.0 
0.0 0.0 0.0 
2.099686741183e-03 -8.597563102812e-05 0.0 
-8.597563102812e-05 1.908031530902e-03 0.0 
0.0 0.0 0.0 
2.036776953182e-03 9.024891855868e-06 0.0 
9.024891855868e-06 2.384774549738e-03 0.0 
0.0 0.0 0.0 
1.863172666322e-03 -1.208482140017e-04 0.0 
-1.208482140017e-04 2.251373460070e-03 0.0 
0.0 0.0 0.0 
1.797499153866e-03 -3.773312498882e-05 0.0 
-3.773312498882e-05 2.734506681995e-03 0.0 
0.0 0.0 0.0 
1.867958866530e-03 -2.066089603105e-04 0.0 
-2.066089603105e-04 1.834757907804e-03 0.0 
0.0 0.0 0.0 
1.626484283454e-03 -2.268338045330e-04 0.0 
-2.268338045330e-04 2.192141368403e-03 0.0 
0.0 0.0 0.0 
1.568571175787e-03 -2.994571024438e-04 0.0 
-2.994571024438e-04 1.839165402783e-03 0.0 
0.0 0.0 0.0 
1.325531240016e-03 -3.046576552015e-04 0.0 
-3.046576552015e-04 2.208027308185e-03 0.0 
0.0 0.0 0.0 
2.765614299896e-03 2.777864606812e-03 0.0 
2.777864606812e-03 4.700188212247e-03 0.0 
0.0 0.0 0.0 
1.225855919020e-03 -3.592967341145e-04 0.0 
-3.592967341145e-04 1.899360243947e-03 0.0 
0.0 0.0 0.0 
1.455042523416e-03 -3.686813277297e-04 0.0 
-3.686813277297e-04 1.548547743607e-03 0.0 
0.0 0.0 0.0 
9.986757504556e-04 -3.532530295971e-04 0.0 
-3.532530295971e-04 2.261264260840e-03 0.0 
0.0 0.0 0.0 
1.068970456997e-03 -3.094358882737e-04 0.0 
-3.094358882737e-04 2.599874957120e-03 0.0 
0.0 0.0 0.0 
8.977511977775e-04 -3.882747616422e-04 0.0 
-3.882747616422e-04 1.957642619441e-03 0.0 
0.0 0.0 0.0 
7.055550988827e-04 -3.734998273563e-04 0.0 
-3.734998273563e-04 2.296828438329e-03 0.0 
0.0 0.0 0.0 
6.389752120917e-04 -3.864362504149e-04 0.0 
-3.864362504149e-04 1.969045680339e-03 0.0 
0.0 0.0 0.0 
1.051686611131e-03 1.779828580047e-03 0.0 
1.779828580047e-03 4.345680363377e-03 0.0 
0.0 0.0 0.0 
-1.133043139036e-03 3.069790905721e-03 0.0 
3.069790905721e-03 1.103398374964e-02 0.0 
0.0 0.0 0.0 
5.032348455456e-04 -3.602839715911e-04 0.0 
-3.602839715911e-04 2.267007730724e-03 0.0 
0.0 0.0 0.0 
4.933743418698e-04 -3.455967029262e-04 0.0 
-3.455967029262e-04 1.905423545138e-03 0.0 
0.0 0.0 0.0 
5.661442042056e-04 -3.805963385984e-04 0.0 
-3.805963385984e-04 1.662996237017e-03 0.0 
0.0 0.0 0.0 
4.721347196113e-04 -3.153492962120e-04 0.0 
-3.153492962120e-04 1.566511305222e-03 0.0 
0.0 0.0 0.0 
-2.472591255095e-03 1.793032548257e-03 0.0 
1.793032548257e-03 1.522212618345e-02 0.0 
0.0 0.0 0.0 
-2.305954445719e-03 2.012657634742e-03 0.0 
2.012657634742e-03 1.536096583208e-02 0.0 
0.0 0.0 0.0 
-2.415081725599e-03 1.618621057917e-03 0.0 
1.618621057917e-03 1.563086037456e-02 0.0 
0.0 0.0 0.0 
-2.243251118729e-03 1.883533334084e-03 0.0 
1.883533334084e-03 1.577688897827e-02 0.0 
0.0 0.0 0.0 
-2.314658352332e-03 1.497078936764e-03 0.0 
1.497078936764e-03 1.596761658227e-02 0.0 
0.0 0.0 0.0 
4.463702291643e-04 -2.754935160026e-04 0.0 
-2.754935160026e-04 1.775289643289e-03 0.0 
0.0 0.0 0.0 
-1.742150164059e-03 2.946972581355e-03 0.0 
2.946972581355e-03 1.366821133450e-02 0.0 
0.0 0.0 0.0 
-2.120152237613e-03 2.240631706805e-03 0.0 
2.240631706805e-03 1.550571894711e-02 0.0 
0.0 0.0 0.0 
-1.157441069743e-03 2.702889815524e-03 0.0 
2.702889815524e-03 9.902067539860e-03 0.0 
0.0 0.0 0.0 
7.904245180316e-05 2.667333397767e-03 0.0 
2.667333397767e-03 6.894152032186e-03 0.0 
0.0 0.0 0.0 
3.456810238564e-03 1.522760330535e-03 0.0 
1.522760330535e-03 2.558899951728e-03 0.0 
0.0 0.0 0.0 
5.039145121215e-04 -3.560115828998e-04 0.0 
-3.560115828998e-04 2.652699150376e-03 0.0 
0.0 0.0 0.0 
3.615220593805e-04 -3.297005320332e-04 0.0 
-3.297005320332e-04 2.580213091855e-03 0.0 
0.0 0.0 0.0 
3.078202292532e-04 -3.304094661193e-04 0.0 
-3.304094661193e-04 3.004898326181e-03 0.0 
0.0 0.0 0.0 
1.922249768927e-03 9.923397823887e-05 0.0 
9.923397823887e-05 2.921394636023e-03 0.0 
0.0 0.0 0.0 
1.679090400440e-03 4.299897957320e-05 0.0 
4.299897957320e-05 3.275239388007e-03 0.0 
0.0 0.0 0.0 
1.762902092710e-03 1.844968117962e-04 0.0 
1.844968117962e-04 3.508075139512e-03 0.0 
0.0 0.0 0.0 
1.517414273498e-03 1.203392231358e-04 0.0 
1.203392231358e-04 3.863045436189e-03 0.0 
0.0 0.0 0.0 
1.566426621777e-03 2.645695526675e-04 0.0 
2.645695526675e-04 4.135998134302e-03 0.0 
0.0 0.0 0.0 
1.324888742581e-03 1.959508690480e-04 0.0 
1.959508690480e-04 4.483830943497e-03 0.0 
0.0 0.0 0.0 
1.269680191745e-03 6.506294137069e-05 0.0 
6.506294137069e-05 4.222349855105e-03 0.0 
0.0 0.0 0.0 
1.093565570067e-03 1.399418748187e-04 0.0 
1.399418748187e-04 4.820299023667e-03 0.0 
0.0 0.0 0.0 
1.031921195975e-03 2.316724626842e-05 0.0 
2.316724626842e-05 4.569420665337e-03 0.0 
0.0 0.0 0.0 
1.344020387125e-03 3.418178470431e-04 0.0 
3.418178470431e-04 4.792681095850e-03 0.0 
0.0 0.0 0.0 
1.584035152363e-03 4.240012964175e-04 0.0 
4.240012964175e-04 4.452632153016e-03 0.0 
0.0 0.0 0.0 
8.828042113314e-04 9.678100457555e-05 0.0 
9.678100457555e-05 5.132619209206e-03 0.0 
0.0 0.0 0.0 
8.180142831640e-04 -7.012216795484e-06 0.0 
-7.012216795484e-06 4.889781107408e-03 0.0 
0.0 0.0 0.0 
6.994498972701e-04 6.274628105097e-05 0.0 
6.274628105097e-05 5.415378068498e-03 0.0 
0.0 0.0 0.0 
6.376347724096e-04 -2.995613893149e-05 0.0 
-2.995613893149e-05 5.178037073094e-03 0.0 
0.0 0.0 0.0 
7.111389400368e-04 -9.345422959866e-05 0.0 
-9.345422959866e-05 4.700588014805e-03 0.0 
0.0 0.0 0.0 
5.338754072269e-04 -1.040311235698e-04 0.0 
-1.040311235698e-04 4.994190586671e-03 0.0 
0.0 0.0 0.0 
5.520145412142e-04 -1.580919352651e-04 0.0 
-1.580919352651e-04 4.577196816486e-03 0.0 
0.0 0.0 0.0 
3.157783862803e-03 1.349629844810e-03 0.0 
1.349629844810e-03 2.871557723194e-03 0.0 
0.0 0.0 0.0 
3.124432091279e-03 1.646591207195e-03 0.0 
1.646591207195e-03 3.332362600157e-03 0.0 
0.0 0.0 0.0 
2.839832113428e-03 1.472559355567e-03 0.0 
1.472559355567e-03 3.627987765247e-03 0.0 
0.0 0.0 0.0 
2.767549138377e-03 1.756954817368e-03 0.0 
1.756954817368e-03 4.131981837581e-03 0.0 
0.0 0.0 0.0 
2.495184213865e-03 1.579339732707e-03 0.0 
1.579339732707e-03 4.416712827155e-03 0.0 
0.0 0.0 0.0 
2.381957924824e-03 1.849973446707e-03 0.0 
1.849973446707e-03 4.964922050773e-03 0.0 
0.0 0.0 0.0 
2.133038234775e-03 1.671993992754e-03 0.0 
1.671993992754e-03 5.226758231410e-03 0.0 
0.0 0.0 0.0 
2.235721289547e-03 1.415172236381e-03 0.0 
1.415172236381e-03 4.702995448655e-03 0.0 
0.0 0.0 0.0 
-1.496473450866e-03 3.122543380866e-03 0.0 
3.122543380866e-03 1.265772609667e-02 0.0 
0.0 0.0 0.0 
2.995515895764e-03 8.860441104274e-04 0.0 
8.860441104274e-04 1.753664102487e-03 0.0 
0.0 0.0 0.0 
2.056233872223e-03 9.945785949529e-04 0.0 
9.945785949529e-04 2.596977953038e-03 0.0 
0.0 0.0 0.0 
2.197497577524e-03 6.918347059322e-04 0.0 
6.918347059322e-04 2.065136397190e-03 0.0 
0.0 0.0 0.0 
1.448435638915e-03 8.777095669752e-04 0.0 
8.777095669752e-04 2.673530245073e-03 0.0 
0.0 0.0 0.0 
1.539269285620e-03 5.813439541511e-04 0.0 
5.813439541511e-04 2.206778560220e-03 0.0 
0.0 0.0 0.0 
1.045759529911e-03 7.982641274137e-04 0.0 
7.982641274137e-04 2.554869627370e-03 0.0 
0.0 0.0 0.0 
1.061528676725e-03 5.160904923807e-04 0.0 
5.160904923807e-04 2.164909405996e-03 0.0 
0.0 0.0 0.0 
1.617075390141e-03 3.012243310553e-04 0.0 
3.012243310553e-04 1.775399703491e-03 0.0 
0.0 0.0 0.0 
1.076775725807e-03 2.566655789154e-04 0.0 
2.566655789154e-04 1.800853961581e-03 0.0 
0.0 0.0 0.0 
1.673354500754e-03 3.606093101662e-05 0.0 
3.606093101662e-05 1.383317058225e-03 0.0 
0.0 0.0 0.0 
1.085831786076e-03 9.879710418760e-06 0.0 
9.879710418760e-06 1.464654996394e-03 0.0 
0.0 0.0 0.0 
1.687173558952e-03 -2.059892305863e-04 0.0 
-2.059892305863e-04 1.043879790718e-03 0.0 
0.0 0.0 0.0 
6.945743160361e-04 3.051766043177e-03 0.0 
3.051766043177e-03 7.734655209508e-03 0.0 
0.0 0.0 0.0 
2.645970390454e-03 2.046783812103e-03 0.0 
2.046783812103e-03 4.701784835623e-03 0.0 
0.0 0.0 0.0 
2.224502197449e-03 2.128517331678e-03 0.0 
2.128517331678e-03 5.575712820517e-03 0.0 
0.0 0.0 0.0 
2.485209418028e-03 2.338804891013e-03 0.0 
2.338804891013e-03 5.324190821614e-03 0.0 
0.0 0.0 0.0 
4.969329758255e-04 -3.560998378358e-04 0.0 
-3.560998378358e-04 1.366433306163e-03 0.0 
0.0 0.0 0.0 
4.858387886964e-04 -4.781014313348e-05 0.0 
-4.781014313348e-05 5.444709084055e-03 0.0 
0.0 0.0 0.0 
1.334793774238e-03 5.023683929450e-04 0.0 
5.023683929450e-04 5.143356266354e-03 0.0 
0.0 0.0 0.0 
1.574673963819e-03 5.977676481738e-04 0.0 
5.977676481738e-04 4.806839700327e-03 0.0 
0.0 0.0 0.0 
1.889951843625e-03 1.507707461227e-03 0.0 
1.507707461227e-03 5.501449412459e-03 0.0 
0.0 0.0 0.0 
4.701001752460e-04 -2.378096566307e-04 0.0 
-2.378096566307e-04 1.401270136591e-03 0.0 
0.0 0.0 0.0 
7.422819755100e-04 7.355885361764e-04 0.0 
7.355885361764e-04 2.346688846578e-03 0.0 
0.0 0.0 0.0 
7.767169194511e-04 1.026625719309e-03 0.0 
1.026625719309e-03 2.718555945809e-03 0.0 
0.0 0.0 0.0 
-2.128552304099e-03 1.772516098506e-03 0.0 
1.772516098506e-03 1.612318084026e-02 0.0 
0.0 0.0 0.0 
-2.172517175239e-03 1.407641625618e-03 0.0 
1.407641625618e-03 1.624636685371e-02 0.0 
0.0 0.0 0.0 
1.298687153546e-03 6.771180407876e-04 0.0 
6.771180407876e-04 5.533262644318e-03 0.0 
0.0 0.0 0.0 
4.656674431683e-04 -1.956414729308e-04 0.0 
-1.956414729308e-04 1.595138990264e-03 0.0 
0.0 0.0 0.0 
9.090328635126e-04 2.157743478703e-04 0.0 
2.157743478703e-04 5.426220257429e-03 0.0 
0.0 0.0 0.0 
6.507808253009e-04 2.367152414694e-04 0.0 
2.367152414694e-04 1.717707827305e-03 0.0 
0.0 0.0 0.0 
3.807551785900e-04 -1.102024896143e-04 0.0 
-1.102024896143e-04 5.269500027177e-03 0.0 
0.0 0.0 0.0 
3.594249333743e-04 -5.856323825550e-05 0.0 
-5.856323825550e-05 5.687947111576e-03 0.0 
0.0 0.0 0.0 
1.170419493666e-03 -4.888426059449e-05 0.0 
-4.888426059449e-05 4.016501722514e-03 0.0 
0.0 0.0 0.0 
2.039386476012e-03 2.408678593325e-03 0.0 
2.408678593325e-03 6.228618127867e-03 0.0 
0.0 0.0 0.0 
2.292875373430e-03 2.627552762094e-03 0.0 
2.627552762094e-03 5.988043405417e-03 0.0 
0.0 0.0 0.0 
2.366847269425e-03 -1.135901082221e-04 0.0 
-1.135901082221e-04 8.136922878503e-04 0.0 
0.0 0.0 0.0 
2.316133661616e-03 -3.165557518461e-04 0.0 
-3.165557518461e-04 5.262536855881e-04 0.0 
0.0 0.0 0.0 
1.627537244501e-03 -3.922366422690e-04 0.0 
-3.922366422690e-04 7.871394234542e-04 0.0 
0.0 0.0 0.0 
2.166892860547e-03 -5.016919173436e-04 0.0 
-5.016919173436e-04 3.320248939025e-04 0.0 
0.0 0.0 0.0 
2.766550435764e-03 -3.599821299596e-04 0.0 
-3.599821299596e-04 1.348859259626e-04 0.0 
0.0 0.0 0.0 
2.479793903167e-03 -5.368211354901e-04 0.0 
-5.368211354901e-04 1.022253307487e-04 0.0 
0.0 0.0 0.0 
1.936692387235e-03 -6.707046798721e-04 0.0 
-6.707046798721e-04 2.625999533150e-04 0.0 
0.0 0.0 0.0 
2.087024556586e-03 -6.330668861124e-04 0.0 
-6.330668861124e-04 1.615399014159e-04 0.0 
0.0 0.0 0.0 
2.430470550624e-03 -4.791209018493e-04 0.0 
-4.791209018493e-04 2.051103189529e-04 0.0 
0.0 0.0 0.0 
1.986245985683e-03 -5.701391936713e-04 0.0 
-5.701391936713e-04 3.320505598861e-04 0.0 
0.0 0.0 0.0 
1.600398966664e-03 -6.828720185623e-04 0.0 
-6.828720185623e-04 3.267126396901e-04 0.0 
0.0 0.0 0.0 
1.499284911985e-03 -5.935673616899e-04 0.0 
-5.935673616899e-04 5.142612164322e-04 0.0 
0.0 0.0 0.0 
4.168982054030e-04 1.322489412357e-05 0.0 
1.322489412357e-05 5.912761504593e-03 0.0 
0.0 0.0 0.0 
5.869948649934e-04 2.413625874961e-05 0.0 
2.413625874961e-05 1.443977763232e-03 0.0 
0.0 0.0 0.0 
-1.683279392509e-03 2.700266118500e-03 0.0 
2.700266118500e-03 1.178035099063e-02 0.0 
0.0 0.0 0.0 
1.074633071348e-03 5.813523033922e-04 0.0 
5.813523033922e-04 5.845117265647e-03 0.0 
0.0 0.0 0.0 
1.753958918108e-03 1.755248143998e-03 0.0 
1.755248143998e-03 6.055172950064e-03 0.0 
0.0 0.0 0.0 
-1.967658242572e-03 1.687403523271e-03 0.0 
1.687403523271e-03 1.641460073486e-02 0.0 
0.0 0.0 0.0 
-1.997279819230e-03 1.346734925288e-03 0.0 
1.346734925288e-03 1.648349166900e-02 0.0 
0.0 0.0 0.0 
-2.152711224151e-03 1.061361310382e-03 0.0 
1.061361310382e-03 1.627127275001e-02 0.0 
0.0 0.0 0.0 
-1.978717804972e-03 1.032231400841e-03 0.0 
1.032231400841e-03 1.647034227249e-02 0.0 
0.0 0.0 0.0 
-1.791395922998e-03 1.303636433312e-03 0.0 
1.303636433312e-03 1.668498830731e-02 0.0 
0.0 0.0 0.0 
-1.784037697945e-03 1.012153835286e-03 0.0 
1.012153835286e-03 1.664760931142e-02 0.0 
0.0 0.0 0.0 
-1.923174912363e-03 7.595708198568e-04 0.0 
7.595708198568e-04 1.638760914941e-02 0.0 
0.0 0.0 0.0 
-1.749148071526e-03 7.598688724814e-04 0.0 
7.598688724814e-04 1.655480845932e-02 0.0 
0.0 0.0 0.0 
-1.846634777458e-03 5.359356880804e-04 0.0 
5.359356880804e-04 1.625176293273e-02 0.0 
0.0 0.0 0.0 
-1.698108746309e-03 5.530012010661e-04 0.0 
5.530012010661e-04 1.641903225584e-02 0.0 
0.0 0.0 0.0 
-1.560797640738e-03 7.568130508230e-04 0.0 
7.568130508230e-04 1.670980511825e-02 0.0 
0.0 0.0 0.0 
-1.534914438336e-03 5.614101074309e-04 0.0 
5.614101074309e-04 1.657453656651e-02 0.0 
0.0 0.0 0.0 
-1.642597953898e-03 3.895167021880e-04 0.0 
3.895167021880e-04 1.625279590715e-02 0.0 
0.0 0.0 0.0 
-1.505505034625e-03 4.030353048184e-04 0.0 
4.030353048184e-04 1.641569012768e-02 0.0 
0.0 0.0 0.0 
-1.592327257330e-03 2.644745839572e-04 0.0 
2.644745839572e-04 1.606957187115e-02 0.0 
0.0 0.0 0.0 
-1.479439023021e-03 2.791113980641e-04 0.0 
2.791113980641e-04 1.624045981692e-02 0.0 
0.0 0.0 0.0 
-1.357036743950e-03 4.029007396308e-04 0.0 
4.029007396308e-04 1.656935569926e-02 0.0 
0.0 0.0 0.0 
5.260909415070e-04 -1.598619941224e-04 0.0 
-1.598619941224e-04 1.191797891438e-03 0.0 
0.0 0.0 0.0 
1.982860329125e-03 1.263672796158e-03 0.0 
1.263672796158e-03 4.993053300838e-03 0.0 
0.0 0.0 0.0 
1.634415187785e-03 1.355713438023e-03 0.0 
1.355713438023e-03 5.798499919540e-03 0.0 
0.0 0.0 0.0 
2.277490787818e-04 -3.000168326276e-04 0.0 
-3.000168326276e-04 2.904358724450e-03 0.0 
0.0 0.0 0.0 
1.187114090942e-04 -2.959674083111e-04 0.0 
-2.959674083111e-04 3.351622791407e-03 0.0 
0.0 0.0 0.0 
2.634313724949e-04 -3.127179431155e-04 0.0 
-3.127179431155e-04 3.430523192072e-03 0.0 
0.0 0.0 0.0 
4.581631619318e-05 -2.799898361955e-04 0.0 
-2.799898361955e-04 3.800095036434e-03 0.0 
0.0 0.0 0.0 
-1.357167170968e-03 2.785638050629e-04 0.0 
2.785638050629e-04 1.640243817223e-02 0.0 
0.0 0.0 0.0 
-1.202284544417e-03 3.853699952337e-04 0.0 
3.853699952337e-04 1.671546839729e-02 0.0 
0.0 0.0 0.0 
6.747582037202e-04 9.913685163191e-04 0.0 
9.913685163191e-04 2.322936175951e-03 0.0 
0.0 0.0 0.0 
7.610842038555e-04 1.315882436365e-03 0.0 
1.315882436365e-03 2.675780915349e-03 0.0 
0.0 0.0 0.0 
-1.890466587306e-03 2.041253568633e-03 0.0 
2.041253568633e-03 1.626539600627e-02 0.0 
0.0 0.0 0.0 
2.508987922744e-04 -1.103017049679e-04 0.0 
-1.103017049679e-04 5.523403814318e-03 0.0 
0.0 0.0 0.0 
2.114861448794e-04 -1.504914279913e-04 0.0 
-1.504914279913e-04 5.170305541436e-03 0.0 
0.0 0.0 0.0 
3.426037808556e-04 2.485631755427e-03 0.0 
2.485631755427e-03 6.097010284520e-03 0.0 
0.0 0.0 0.0 
4.565283504926e-05 2.617567531039e-03 0.0 
2.617567531039e-03 6.459711603752e-03 0.0 
0.0 0.0 0.0 
2.862705045305e-04 2.435821273168e-03 0.0 
2.435821273168e-03 5.674995305394e-03 0.0 
0.0 0.0 0.0 
1.918064754938e-04 2.714683528093e-03 0.0 
2.714683528093e-03 5.868875548505e-03 0.0 
0.0 0.0 0.0 
-1.233008934139e-04 2.815187548271e-03 0.0 
2.815187548271e-03 6.757671135412e-03 0.0 
0.0 0.0 0.0 
4.445761849191e-04 2.528670415228e-03 0.0 
2.528670415228e-03 5.054310456954e-03 0.0 
0.0 0.0 0.0 
1.830319837725e-03 5.138423323983e-04 0.0 
5.138423323983e-04 4.106219478972e-03 0.0 
0.0 0.0 0.0 
-1.360315573362e-03 7.435333947592e-04 0.0 
7.435333947592e-04 1.684950271277e-02 0.0 
0.0 0.0 0.0 
6.522620799609e-04 -4.179108396623e-04 0.0 
-4.179108396623e-04 1.419196419923e-03 0.0 
0.0 0.0 0.0 
5.265084153116e-04 -3.998385927892e-04 0.0 
-3.998385927892e-04 1.174646555833e-03 0.0 
0.0 0.0 0.0 
2.624408139632e-04 -6.197106270714e-05 0.0 
-6.197106270714e-05 5.905549503136e-03 0.0 
0.0 0.0 0.0 
2.297343982666e-03 1.165424538018e-03 0.0 
1.165424538018e-03 4.230530873836e-03 0.0 
0.0 0.0 0.0 
2.528382737331e-04 3.149318397801e-03 0.0 
3.149318397801e-03 8.660869846783e-03 0.0 
0.0 0.0 0.0 
1.664392062304e-03 3.485753627461e-03 0.0 
3.485753627461e-03 7.281782312273e-03 0.0 
0.0 0.0 0.0 
1.255143085814e-03 3.622861764898e-03 0.0 
3.622861764898e-03 8.171663691869e-03 0.0 
0.0 0.0 0.0 
2.057336714653e-03 3.748809804293e-03 0.0 
3.748809804293e-03 7.316114362769e-03 0.0 
0.0 0.0 0.0 
1.702435341119e-03 3.909942685087e-03 0.0 
3.909942685087e-03 8.156208095136e-03 0.0 
0.0 0.0 0.0 
1.803617804135e-03 3.784944551462e-03 0.0 
3.784944551462e-03 7.986518095759e-03 0.0 
0.0 0.0 0.0 
2.136736975638e-03 3.591287275280e-03 0.0 
3.591287275280e-03 7.169528496017e-03 0.0 
0.0 0.0 0.0 
1.839113558164e-03 2.689136026642e-03 0.0 
2.689136026642e-03 6.908836890561e-03 0.0 
0.0 0.0 0.0 
1.667513559400e-03 3.570830605287e-03 0.0 
3.570830605287e-03 8.061358930695e-03 0.0 
0.0 0.0 0.0 
-1.463959729709e-03 1.875233826587e-04 0.0 
1.875233826587e-04 1.605353501339e-02 0.0 
0.0 0.0 0.0 
2.907086817385e-03 2.258493777104e-03 0.0 
2.258493777104e-03 4.448210901374e-03 0.0 
0.0 0.0 0.0 
2.207352381719e-03 -4.310612780702e-04 0.0 
-4.310612780702e-04 5.073163456771e-04 0.0 
0.0 0.0 0.0 
4.951488557858e-04 -1.979249778853e-04 0.0 
-1.979249778853e-04 1.035696921982e-03 0.0 
0.0 0.0 0.0 
1.146854589796e-03 -6.537768130602e-04 0.0 
-6.537768130602e-04 4.780959617551e-04 0.0 
0.0 0.0 0.0 
6.019098798999e-04 -8.235046315820e-05 0.0 
-8.235046315820e-05 1.325033473597e-03 0.0 
0.0 0.0 0.0 
4.487796762381e-04 -1.349272949921e-04 0.0 
-1.349272949921e-04 1.818990026797e-03 0.0 
0.0 0.0 0.0 
1.012917621176e-03 7.572101263489e-04 0.0 
7.572101263489e-04 6.267455675262e-03 0.0 
0.0 0.0 0.0 
1.485871614789e-03 3.948918135318e-03 0.0 
3.948918135318e-03 8.793151835058e-03 0.0 
0.0 0.0 0.0 
1.391995771056e-03 4.068459025863e-03 0.0 
4.068459025863e-03 8.942870606364e-03 0.0 
0.0 0.0 0.0 
2.736387573592e-04 3.121790272281e-03 0.0 
3.121790272281e-03 5.991150842732e-03 0.0 
0.0 0.0 0.0 
-1.607793857663e-04 3.049717319122e-03 0.0 
3.049717319122e-03 6.989105125528e-03 0.0 
0.0 0.0 0.0 
1.588994928145e-03 2.464182380774e-03 0.0 
2.464182380774e-03 7.139934290253e-03 0.0 
0.0 0.0 0.0 
-2.432439826836e-03 1.204982824213e-03 0.0 
1.204982824213e-03 1.579339557941e-02 0.0 
0.0 0.0 0.0 
-1.978929518468e-03 5.159599584013e-04 0.0 
5.159599584013e-04 1.607491904253e-02 0.0 
0.0 0.0 0.0 
-1.863580360820e-03 3.316259575577e-04 0.0 
3.316259575577e-04 1.589347049863e-02 0.0 
0.0 0.0 0.0 
8.620924153626e-04 -4.261247187157e-05 0.0 
-4.261247187157e-05 7.020736768013e-04 0.0 
0.0 0.0 0.0 
1.091206908448e-03 -7.166829293716e-04 0.0 
-7.166829293716e-04 4.728466074931e-04 0.0 
0.0 0.0 0.0 
-1.563957551566e-03 1.264890966386e-03 0.0 
1.264890966386e-03 1.685796926018e-02 0.0 
0.0 0.0 0.0 
7.768663375911e-04 1.330981966747e-03 0.0 
1.330981966747e-03 3.147682613785e-03 0.0 
0.0 0.0 0.0 
7.896827796278e-04 1.649664368545e-03 0.0 
1.649664368545e-03 3.116990417861e-03 0.0 
0.0 0.0 0.0 
2.856967136327e-04 2.614461543579e-04 0.0 
2.614461543579e-04 1.475915247953e-03 0.0 
0.0 0.0 0.0 
1.333117776899e-04 1.089458551409e-04 0.0 
1.089458551409e-04 1.220703548484e-03 0.0 
0.0 0.0 0.0 
-1.229038187583e-03 2.643484621804e-04 0.0 
2.643484621804e-04 1.655721653370e-02 0.0 
0.0 0.0 0.0 
-1.049809088849e-03 3.474967564552e-04 0.0 
3.474967564552e-04 1.685049695672e-02 0.0 
0.0 0.0 0.0 
2.467903576569e-04 -2.817564721116e-04 0.0 
-2.817564721116e-04 3.836553382217e-03 0.0 
0.0 0.0 0.0 
3.306394473374e-05 -2.525161036109e-04 0.0 
-2.525161036109e-04 4.181199867704e-03 0.0 
0.0 0.0 0.0 
1.233459601648e-03 8.660039383032e-04 0.0 
8.660039383032e-04 5.970896768932e-03 0.0 
0.0 0.0 0.0 
1.059787442371e-03 -5.782202302744e-04 0.0 
-5.782202302744e-04 6.537997189650e-04 0.0 
0.0 0.0 0.0 
-9.981490325187e-04 4.937437793438e-04 0.0 
4.937437793438e-04 1.698587966553e-02 0.0 
0.0 0.0 0.0 
2.042450871850e-03 1.030877029336e-03 0.0 
1.030877029336e-03 4.538587939914e-03 0.0 
0.0 0.0 0.0 
2.324300156926e-03 9.284940563580e-04 0.0 
9.284940563580e-04 3.810851328528e-03 0.0 
0.0 0.0 0.0 
-1.550877911513e-05 -2.428278926364e-04 0.0 
-2.428278926364e-04 3.678920384345e-03 0.0 
0.0 0.0 0.0 
6.622724398391e-04 1.195977616396e-03 0.0 
1.195977616396e-03 2.329732152372e-03 0.0 
0.0 0.0 0.0 
4.762209958525e-04 8.677402715707e-04 0.0 
8.677402715707e-04 2.049287368559e-03 0.0 
0.0 0.0 0.0 
2.587473375753e-03 -3.143573565779e-04 0.0 
-3.143573565779e-04 4.427806679227e-04 0.0 
0.0 0.0 0.0 
1.316255533360e-03 -5.268773679677e-04 0.0 
-5.268773679677e-04 7.930687211920e-04 0.0 
0.0 0.0 0.0 
6.595328289822e-04 -3.346221394964e-05 0.0 
-3.346221394964e-05 1.465493447021e-03 0.0 
0.0 0.0 0.0 
9.231566835276e-04 9.523157636406e-04 0.0 
9.523157636406e-04 6.735642200867e-03 0.0 
0.0 0.0 0.0 
-1.526614960071e-03 1.566496196623e-03 0.0 
1.566496196623e-03 1.685553361395e-02 0.0 
0.0 0.0 0.0 
1.980116064827e-03 3.353209877044e-03 0.0 
3.353209877044e-03 7.260029461189e-03 0.0 
0.0 0.0 0.0 
2.468484635583e-03 3.363010509056e-03 0.0 
3.363010509056e-03 6.337882745969e-03 0.0 
0.0 0.0 0.0 
1.517557589216e-03 3.350408923316e-03 0.0 
3.350408923316e-03 8.159312338360e-03 0.0 
0.0 0.0 0.0 
6.912072805620e-04 -5.756527067833e-04 0.0 
-5.756527067833e-04 6.320179052471e-04 0.0 
0.0 0.0 0.0 
8.078783685623e-04 6.607216298071e-04 0.0 
6.607216298071e-04 6.558616514315e-03 0.0 
0.0 0.0 0.0 
1.416661377474e-04 -1.001050664659e-04 0.0 
-1.001050664659e-04 5.757884771791e-03 0.0 
0.0 0.0 0.0 
1.201819085313e-03 4.126199400019e-03 0.0 
4.126199400019e-03 9.543754565576e-03 0.0 
0.0 0.0 0.0 
1.127442328187e-03 4.234047664965e-03 0.0 
4.234047664965e-03 9.691677016503e-03 0.0 
0.0 0.0 0.0 
7.310134715793e-04 1.634681258394e-03 0.0 
1.634681258394e-03 3.650381206373e-03 0.0 
0.0 0.0 0.0 
7.518556510022e-04 1.974512576196e-03 0.0 
1.974512576196e-03 3.655404047018e-03 0.0 
0.0 0.0 0.0 
8.824665999064e-04 1.958359954881e-03 0.0 
1.958359954881e-03 3.106433141688e-03 0.0 
0.0 0.0 0.0 
8.902471646477e-04 2.352425033204e-03 0.0 
2.352425033204e-03 3.649410902538e-03 0.0 
0.0 0.0 0.0 
-2.042088213149e-03 2.507681196525e-03 0.0 
2.507681196525e-03 1.295800394668e-02 0.0 
0.0 0.0 0.0 
6.323052803075e-04 1.931072337197e-03 0.0 
1.931072337197e-03 4.240869147839e-03 0.0 
0.0 0.0 0.0 
-1.528847985391e-03 2.696245225032e-03 0.0 
2.696245225032e-03 1.105725515913e-02 0.0 
0.0 0.0 0.0 
-1.767155931042e-03 2.636094825848e-03 0.0 
2.636094825848e-03 1.149653228626e-02 0.0 
0.0 0.0 0.0 
-1.547502478541e-03 2.676491747158e-03 0.0 
2.676491747158e-03 1.070281069204e-02 0.0 
0.0 0.0 0.0 
-5.377916786796e-04 2.719319081598e-03 0.0 
2.719319081598e-03 7.731875988309e-03 0.0 
0.0 0.0 0.0 
-6.260554006090e-04 2.870474048849e-03 0.0 
2.870474048849e-03 8.023876806423e-03 0.0 
0.0 0.0 0.0 
1.340267588961e-03 1.182448043374e-03 0.0 
1.182448043374e-03 3.181805247695e-03 0.0 
0.0 0.0 0.0 
3.410472225339e-03 1.844134481807e-03 0.0 
1.844134481807e-03 3.044293068797e-03 0.0 
0.0 0.0 0.0 
5.192497874107e-04 -3.010100637704e-04 0.0 
-3.010100637704e-04 3.428550281405e-03 0.0 
0.0 0.0 0.0 
7.675718621302e-04 -1.552066006193e-04 0.0 
-1.552066006193e-04 4.243283281779e-03 0.0 
0.0 0.0 0.0 
2.002713671450e-03 2.537645843741e-04 0.0 
2.537645843741e-04 3.163883938404e-03 0.0 
0.0 0.0 0.0 
-1.349566912361e-03 9.652463191894e-04 0.0 
9.652463191894e-04 1.695037369829e-02 0.0 
0.0 0.0 0.0 
-1.115972278873e-03 9.255497526098e-04 0.0 
9.255497526098e-04 1.707694477667e-02 0.0 
0.0 0.0 0.0 
-1.689880218164e-03 2.381067597587e-04 0.0 
2.381067597587e-04 1.588668065446e-02 0.0 
0.0 0.0 0.0 
-1.627261896239e-03 1.459553606863e-04 0.0 
1.459553606863e-04 1.568377817929e-02 0.0 
0.0 0.0 0.0 
4.441220218618e-04 -3.195204336122e-04 0.0 
-3.195204336122e-04 1.065301477335e-03 0.0 
0.0 0.0 0.0 
4.404793685783e-04 -3.662433582571e-04 0.0 
-3.662433582571e-04 9.095662474445e-04 0.0 
0.0 0.0 0.0 
1.547703096256e-03 -8.036559713504e-05 0.0 
-8.036559713504e-05 3.101931743157e-03 0.0 
0.0 0.0 0.0 
8.680375503055e-04 4.998314997020e-04 0.0 
4.998314997020e-04 6.134532037873e-03 0.0 
0.0 0.0 0.0 
-1.695629469338e-03 1.958070095394e-03 0.0 
1.958070095394e-03 1.655589335739e-02 0.0 
0.0 0.0 0.0 
-1.594977670951e-03 2.319233594368e-03 0.0 
2.319233594368e-03 1.638637661330e-02 0.0 
0.0 0.0 0.0 
-1.780259483106e-03 2.395228113400e-03 0.0 
2.395228113400e-03 1.605374878978e-02 0.0 
0.0 0.0 0.0 
1.142729312751e-03 1.072270101396e-03 0.0 
1.072270101396e-03 6.442198840201e-03 0.0 
0.0 0.0 0.0 
3.053228727616e-03 5.884861210525e-04 0.0 
5.884861210525e-04 1.297523891794e-03 0.0 
0.0 0.0 0.0 
2.864936313021e-03 1.196811526594e-03 0.0 
1.196811526594e-03 3.187168124592e-03 0.0 
0.0 0.0 0.0 
4.622062167127e-04 -1.307167887851e-04 0.0 
-1.307167887851e-04 1.225975272808e-03 0.0 
0.0 0.0 0.0 
2.450031516741e-03 3.060086651024e-03 0.0 
3.060086651024e-03 5.507341487830e-03 0.0 
0.0 0.0 0.0 
4.138619245444e-04 -2.856391277247e-04 0.0 
-2.856391277247e-04 7.433955637272e-04 0.0 
0.0 0.0 0.0 
-1.265924885817e-03 3.170621543239e-03 0.0 
3.170621543239e-03 1.170796994831e-02 0.0 
0.0 0.0 0.0 
1.596767414551e-04 -5.599164811782e-05 0.0 
-5.599164811782e-05 6.131026357975e-03 0.0 
0.0 0.0 0.0 
2.282005098289e-04 -7.549482045241e-06 0.0 
-7.549482045241e-06 6.333064684103e-03 0.0 
0.0 0.0 0.0 
1.372999157132e-03 2.723408778598e-03 0.0 
2.723408778598e-03 7.831204689008e-03 0.0 
0.0 0.0 0.0 
-2.506226252496e-03 2.540961731984e-03 0.0 
2.540961731984e-03 1.334114996834e-02 0.0 
0.0 0.0 0.0 
3.047034279717e-03 3.024078193467e-03 0.0 
3.024078193467e-03 4.848879749731e-03 0.0 
0.0 0.0 0.0 
3.267167912323e-03 2.701075327952e-03 0.0 
2.701075327952e-03 4.141098732542e-03 0.0 
0.0 0.0 0.0 
-1.627174457211e-03 2.930158791605e-03 0.0 
2.930158791605e-03 1.106629037628e-02 0.0 
0.0 0.0 0.0 
-1.274289444203e-03 3.089596074282e-03 0.0 
3.089596074282e-03 1.017562211279e-02 0.0 
0.0 0.0 0.0 
-1.286607857932e-03 2.732113581024e-03 0.0 
2.732113581024e-03 9.875412214958e-03 0.0 
0.0 0.0 0.0 
-9.176194053220e-04 3.199109040145e-03 0.0 
3.199109040145e-03 9.251949072223e-03 0.0 
0.0 0.0 0.0 
2.317867982579e-03 -2.962075437623e-04 0.0 
-2.962075437623e-04 7.946796019850e-04 0.0 
0.0 0.0 0.0 
1.946110358181e-03 -3.959777065665e-04 0.0 
-3.959777065665e-04 8.603464800428e-04 0.0 
0.0 0.0 0.0 
1.050523030777e-03 3.934335932848e-03 0.0 
3.934335932848e-03 9.694442985607e-03 0.0 
0.0 0.0 0.0 
1.242936187787e-03 3.577275968210e-03 0.0 
3.577275968210e-03 8.920715996915e-03 0.0 
0.0 0.0 0.0 
9.792095307598e-04 4.292685256297e-03 0.0 
4.292685256297e-03 1.027358434997e-02 0.0 
0.0 0.0 0.0 
9.047336890897e-04 4.406450467387e-03 0.0 
4.406450467387e-03 1.043471807835e-02 0.0 
0.0 0.0 0.0 
1.162649655086e-03 2.502907338297e-03 0.0 
2.502907338297e-03 8.028593907282e-03 0.0 
0.0 0.0 0.0 
1.378630102716e-03 2.254807292758e-03 0.0 
2.254807292758e-03 7.352059621944e-03 0.0 
0.0 0.0 0.0 
4.483095155455e-04 -8.255689046817e-05 0.0 
-8.255689046817e-05 2.016423201161e-03 0.0 
0.0 0.0 0.0 
-2.108328923631e-04 3.218762796571e-03 0.0 
3.218762796571e-03 7.320289562262e-03 0.0 
0.0 0.0 0.0 
-1.267394448293e-03 1.511883524865e-03 0.0 
1.511883524865e-03 1.702388371213e-02 0.0 
0.0 0.0 0.0 
-1.965460434341e-03 2.703388038267e-03 0.0 
2.703388038267e-03 1.194106010706e-02 0.0 
0.0 0.0 0.0 
6.185635460761e-04 5.747268131189e-04 0.0 
5.747268131189e-04 6.812587375374e-03 0.0 
0.0 0.0 0.0 
6.807075923275e-04 4.308225238547e-04 0.0 
4.308225238547e-04 6.413060013300e-03 0.0 
0.0 0.0 0.0 
-1.199019596633e-04 3.359374741303e-06 0.0 
3.359374741303e-06 1.024973826323e-03 0.0 
0.0 0.0 0.0 
2.495349740499e-04 -2.813783925433e-04 0.0 
-2.813783925433e-04 1.036707608263e-03 0.0 
0.0 0.0 0.0 
-8.240584503580e-04 4.298190302982e-04 0.0 
4.298190302982e-04 1.710987781857e-02 0.0 
0.0 0.0 0.0 
5.122305975366e-04 2.007031788613e-03 0.0 
2.007031788613e-03 3.575132407665e-03 0.0 
0.0 0.0 0.0 
5.465142850341e-04 2.408642506265e-03 0.0 
2.408642506265e-03 4.124540826487e-03 0.0 
0.0 0.0 0.0 
4.287118811464e-04 1.601893791282e-03 0.0 
1.601893791282e-03 3.094946165730e-03 0.0 
0.0 0.0 0.0 
7.858150509169e-05 1.914562093384e-05 0.0 
1.914562093384e-05 6.925068514939e-03 0.0 
0.0 0.0 0.0 
-1.541161301857e-03 1.309888370862e-05 0.0 
1.309888370862e-05 1.484269565018e-02 0.0 
0.0 0.0 0.0 
1.395111340751e-04 -6.043603523514e-06 0.0 
-6.043603523514e-06 6.546547832540e-03 0.0 
0.0 0.0 0.0 
-9.219799485367e-04 2.601422633985e-03 0.0 
2.601422633985e-03 8.684475703956e-03 0.0 
0.0 0.0 0.0 
-7.430111016420e-04 6.004048150081e-04 0.0 
6.004048150081e-04 1.722419118712e-02 0.0 
0.0 0.0 0.0 
2.982722904761e-03 2.808193333074e-03 0.0 
2.808193333074e-03 4.857363570735e-03 0.0 
0.0 0.0 0.0 
5.615194376907e-04 2.258538966721e-03 0.0 
2.258538966721e-03 5.347811734047e-03 0.0 
0.0 0.0 0.0 
1.468524133412e-03 9.888641961171e-04 0.0 
9.888641961171e-04 5.652242630180e-03 0.0 
0.0 0.0 0.0 
-9.113466740258e-04 2.682400875825e-04 0.0 
2.682400875825e-04 1.696540508994e-02 0.0 
0.0 0.0 0.0 
-6.475336713367e-04 3.451924594761e-04 0.0 
3.451924594761e-04 1.723586162997e-02 0.0 
0.0 0.0 0.0 
-1.937979547721e-03 2.997535659839e-04 0.0 
2.997535659839e-04 1.569711010325e-02 0.0 
0.0 0.0 0.0 
-1.819241745258e-03 1.593929610012e-04 0.0 
1.593929610012e-04 1.547265162738e-02 0.0 
0.0 0.0 0.0 
-2.087669284810e-03 4.944069361503e-04 0.0 
4.944069361503e-04 1.587397580804e-02 0.0 
0.0 0.0 0.0 
4.181283287659e-04 4.457115845679e-04 0.0 
4.457115845679e-04 1.758565743671e-03 0.0 
0.0 0.0 0.0 
3.207872179627e-05 4.659000205807e-04 0.0 
4.659000205807e-04 1.435553972873e-03 0.0 
0.0 0.0 0.0 
-1.153300472536e-03 7.117185087652e-04 0.0 
7.117185087652e-04 1.697947462822e-02 0.0 
0.0 0.0 0.0 
3.139862933361e-04 -2.686167775441e-04 0.0 
-2.686167775441e-04 2.449460924609e-03 0.0 
0.0 0.0 0.0 
1.919199744627e-04 -2.245647433679e-04 0.0 
-2.245647433679e-04 2.812214066813e-03 0.0 
0.0 0.0 0.0 
9.124802467877e-04 -5.186246514747e-04 0.0 
-5.186246514747e-04 9.109737486663e-04 0.0 
0.0 0.0 0.0 
1.113654316831e-03 -4.810003266539e-04 0.0 
-4.810003266539e-04 1.100369685995e-03 0.0 
0.0 0.0 0.0 
5.292026098191e-04 -2.582932850949e-04 0.0 
-2.582932850949e-04 3.815228919224e-03 0.0 
0.0 0.0 0.0 
8.190329015360e-04 -2.642300016947e-04 0.0 
-2.642300016947e-04 3.395426349021e-03 0.0 
0.0 0.0 0.0 
-6.124098617829e-04 3.452965355675e-03 0.0 
3.452965355675e-03 1.097488330235e-02 0.0 
0.0 0.0 0.0 
-7.609019105614e-04 3.574905165645e-03 0.0 
3.574905165645e-03 1.164750691053e-02 0.0 
0.0 0.0 0.0 
-1.315890237886e-04 3.221817734652e-03 0.0 
3.221817734652e-03 9.514841009818e-03 0.0 
0.0 0.0 0.0 
2.071747131346e-03 8.097013764956e-04 0.0 
8.097013764956e-04 4.128332450511e-03 0.0 
0.0 0.0 0.0 
2.321648528007e-03 7.080250407624e-04 0.0 
7.080250407624e-04 3.438593076235e-03 0.0 
0.0 0.0 0.0 
2.576352675625e-03 8.173680646825e-04 0.0 
8.173680646825e-04 3.123112487583e-03 0.0 
0.0 0.0 0.0 
-1.063172589930e-03 1.161838511838e-03 0.0 
1.161838511838e-03 1.713335885058e-02 0.0 
0.0 0.0 0.0 
-7.736605743161e-04 1.106045101156e-03 0.0 
1.106045101156e-03 1.725763444192e-02 0.0 
0.0 0.0 0.0 
2.623284993798e-03 -1.592679907459e-04 0.0 
-1.592679907459e-04 8.060586375800e-04 0.0 
0.0 0.0 0.0 
2.895768240389e-03 -1.618474387192e-04 0.0 
-1.618474387192e-04 4.623292060494e-04 0.0 
0.0 0.0 0.0 
2.057121143504e-03 -2.896129285530e-04 0.0 
-2.896129285530e-04 1.143774063045e-03 0.0 
0.0 0.0 0.0 
-1.189255593258e-03 1.828471069691e-03 0.0 
1.828471069691e-03 1.698785451976e-02 0.0 
0.0 0.0 0.0 
1.704568329315e-04 5.394466661607e-05 0.0 
5.394466661607e-05 6.790511454901e-03 0.0 
0.0 0.0 0.0 
2.525071373123e-04 5.729671095666e-05 0.0 
5.729671095666e-05 6.584428938439e-03 0.0 
0.0 0.0 0.0 
3.799939538454e-04 -3.370967181484e-04 0.0 
-3.370967181484e-04 5.985270477784e-04 0.0 
0.0 0.0 0.0 
4.463453006731e-04 -4.232351866233e-04 0.0 
-4.232351866233e-04 7.474393783495e-04 0.0 
0.0 0.0 0.0 
1.760823942709e-04 9.923773702978e-04 0.0 
9.923773702978e-04 2.268863754487e-03 0.0 
0.0 0.0 0.0 
3.199023340583e-05 7.798642234867e-04 0.0 
7.798642234867e-04 1.877556487840e-03 0.0 
0.0 0.0 0.0 
-1.476251441321e-03 2.673794720880e-03 0.0 
2.673794720880e-03 1.616167237314e-02 0.0 
0.0 0.0 0.0 
-1.649943087640e-03 2.741573034214e-03 0.0 
2.741573034214e-03 1.578523478140e-02 0.0 
0.0 0.0 0.0 
-1.216708780635e-03 2.646895465083e-03 0.0 
2.646895465083e-03 1.646556694034e-02 0.0 
0.0 0.0 0.0 
7.044177367438e-04 9.339639259063e-07 0.0 
9.339639259063e-07 1.586736908678e-03 0.0 
0.0 0.0 0.0 
2.283026497719e-03 3.130979662321e-03 0.0 
3.130979662321e-03 6.481430218239e-03 0.0 
0.0 0.0 0.0 
8.126784681230e-04 1.164228198132e-03 0.0 
1.164228198132e-03 7.228095570081e-03 0.0 
0.0 0.0 0.0 
1.047277313272e-03 1.305593742297e-03 0.0 
1.305593742297e-03 6.946947983804e-03 0.0 
0.0 0.0 0.0 
5.781178370616e-04 1.054044547781e-03 0.0 
1.054044547781e-03 7.608533686572e-03 0.0 
0.0 0.0 0.0 
1.610666319958e-03 2.938183776087e-03 0.0 
2.938183776087e-03 7.603914046379e-03 0.0 
0.0 0.0 0.0 
1.112108807659e-03 2.942107965679e-03 0.0 
2.942107965679e-03 8.522665762322e-03 0.0 
0.0 0.0 0.0 
1.036296556568e-03 3.348157585166e-03 0.0 
3.348157585166e-03 9.067198729203e-03 0.0 
0.0 0.0 0.0 
-3.706701013559e-04 1.604989405924e-04 0.0 
1.604989405924e-04 9.215361192196e-04 0.0 
0.0 0.0 0.0 
-7.024089075893e-04 2.112051407252e-04 0.0 
2.112051407252e-04 1.715403405864e-02 0.0 
0.0 0.0 0.0 
-1.682979944847e-03 1.102825541387e-04 0.0 
1.102825541387e-04 1.546058916704e-02 0.0 
0.0 0.0 0.0 
-6.739051196658e-04 7.302559555379e-05 0.0 
7.302559555379e-05 8.387926485157e-04 0.0 
0.0 0.0 0.0 
-1.616663661620e-03 5.813234010554e-05 0.0 
5.813234010554e-05 1.524755792776e-02 0.0 
0.0 0.0 0.0 
-1.582682231302e-03 8.509821680667e-05 0.0 
8.509821680667e-05 1.547393820050e-02 0.0 
0.0 0.0 0.0 
-1.582762560378e-03 2.703000006769e-05 0.0 
2.703000006769e-05 1.501451637884e-02 0.0 
0.0 0.0 0.0 
9.785913453959e-04 1.162002647420e-05 0.0 
1.162002647420e-05 9.391807279000e-04 0.0 
0.0 0.0 0.0 
-1.975791485843e-03 2.356026157860e-04 0.0 
2.356026157860e-04 1.541527410874e-02 0.0 
0.0 0.0 0.0 
-2.178728735744e-03 4.924537524377e-04 0.0 
4.924537524377e-04 1.566565532858e-02 0.0 
0.0 0.0 0.0 
2.822344666828e-04 -3.773535414859e-04 0.0 
-3.773535414859e-04 4.307959936573e-04 0.0 
0.0 0.0 0.0 
-8.701542932482e-04 1.738545207182e-03 0.0 
1.738545207182e-03 1.713417709395e-02 0.0 
0.0 0.0 0.0 
3.878817377489e-04 -2.339239022890e-04 0.0 
-2.339239022890e-04 4.178376917507e-04 0.0 
0.0 0.0 0.0 
4.409840550294e-04 -1.983438995476e-04 0.0 
-1.983438995476e-04 5.438019662956e-04 0.0 
0.0 0.0 0.0 
4.712506242838e-04 5.126157260830e-04 0.0 
5.126157260830e-04 7.066580231963e-03 0.0 
0.0 0.0 0.0 
5.282918338166e-04 3.630661786639e-04 0.0 
3.630661786639e-04 6.655385613445e-03 0.0 
0.0 0.0 0.0 
3.474045803168e-04 4.426010753406e-04 0.0 
4.426010753406e-04 7.257039856121e-03 0.0 
0.0 0.0 0.0 
4.031031980481e-04 3.188385342019e-04 0.0 
3.188385342019e-04 6.848897550792e-03 0.0 
0.0 0.0 0.0 
5.655818751632e-04 2.405838753133e-04 0.0 
2.405838753133e-04 6.276319296403e-03 0.0 
0.0 0.0 0.0 
4.326404526962e-04 2.119186014814e-04 0.0 
2.119186014814e-04 6.509640818595e-03 0.0 
0.0 0.0 0.0 
-1.711030034594e-03 7.491109046159e-05 0.0 
7.491109046159e-05 1.523259654909e-02 0.0 
0.0 0.0 0.0 
2.675150911479e-04 3.102252693637e-04 0.0 
3.102252693637e-04 7.155304756878e-03 0.0 
0.0 0.0 0.0 
3.109616702611e-04 1.773660100351e-04 0.0 
1.773660100351e-04 6.738188903190e-03 0.0 
0.0 0.0 0.0 
1.911415185580e-04 2.673553544337e-04 0.0 
2.673553544337e-04 7.354315292064e-03 0.0 
0.0 0.0 0.0 
-8.606599330765e-04 3.581257473739e-03 0.0 
3.581257473739e-03 9.692087999505e-03 0.0 
0.0 0.0 0.0 
7.829851512684e-04 2.701014844603e-03 0.0 
2.701014844603e-03 4.309244991204e-03 0.0 
0.0 0.0 0.0 
5.036668771183e-04 2.792485477610e-03 0.0 
2.792485477610e-03 4.766403278539e-03 0.0 
0.0 0.0 0.0 
-1.739424073887e-04 2.196457670608e-03 0.0 
2.196457670608e-03 5.018576439572e-03 0.0 
0.0 0.0 0.0 
6.952733427257e-04 4.462346735229e-03 0.0 
4.462346735229e-03 1.112639383670e-02 0.0 
0.0 0.0 0.0 
6.939551699615e-04 4.561948646926e-03 0.0 
4.561948646926e-03 1.112903149034e-02 0.0 
0.0 0.0 0.0 
2.587261895894e-05 -7.196788053075e-05 0.0 
-7.196788053075e-05 6.007918747907e-03 0.0 
0.0 0.0 0.0 
-5.203233568433e-05 -9.493786051069e-05 0.0 
-9.493786051069e-05 5.687395789223e-03 0.0 
0.0 0.0 0.0 
-1.557417392759e-03 4.412016647285e-05 0.0 
4.412016647285e-05 1.524380115127e-02 0.0 
0.0 0.0 0.0 
-1.526967727988e-03 2.906645869893e-05 0.0 
2.906645869893e-05 1.520950418993e-02 0.0 
0.0 0.0 0.0 
-1.503318040721e-03 7.551449360162e-05 0.0 
7.551449360162e-05 1.557752188369e-02 0.0 
0.0 0.0 0.0 
-1.479813068367e-03 4.725064282980e-05 0.0 
4.725064282980e-05 1.552057129347e-02 0.0 
0.0 0.0 0.0 
-1.431239600844e-03 9.882810286836e-05 0.0 
9.882810286836e-05 1.587227858578e-02 0.0 
0.0 0.0 0.0 
-1.412025229428e-03 5.675900484050e-05 0.0 
5.675900484050e-05 1.580656437670e-02 0.0 
0.0 0.0 0.0 
-1.338932128226e-03 1.072544811989e-04 0.0 
1.072544811989e-04 1.614714550967e-02 0.0 
0.0 0.0 0.0 
7.799578605577e-04 3.592981406847e-03 0.0 
3.592981406847e-03 9.864599346238e-03 0.0 
0.0 0.0 0.0 
-2.130878641270e-04 1.633339701444e-03 0.0 
1.633339701444e-03 3.687400565358e-03 0.0 
0.0 0.0 0.0 
-1.619107059097e-03 3.456162225139e-03 0.0 
3.456162225139e-03 1.154367527489e-02 0.0 
0.0 0.0 0.0 
9.560298387121e-04 2.291180178930e-03 0.0 
2.291180178930e-03 8.219754282055e-03 0.0 
0.0 0.0 0.0 
1.175465445408e-03 2.058261625034e-03 0.0 
2.058261625034e-03 7.525584345587e-03 0.0 
0.0 0.0 0.0 
-5.684198693603e-04 3.218892364231e-03 0.0 
3.218892364231e-03 8.294614693875e-03 0.0 
0.0 0.0 0.0 
-4.187138201173e-04 3.162566234897e-03 0.0 
3.162566234897e-03 7.983272874088e-03 0.0 
0.0 0.0 0.0 
5.014276314877e-04 7.489622734333e-04 0.0 
7.489622734333e-04 7.372879385627e-03 0.0 
0.0 0.0 0.0 
8.665013774859e-04 1.696405167777e-03 0.0 
1.696405167777e-03 4.013487697415e-03 0.0 
0.0 0.0 0.0 
-6.630952490889e-04 2.183955044991e-03 0.0 
2.183955044991e-03 1.695467970962e-02 0.0 
0.0 0.0 0.0 
-8.812911549273e-04 4.573664136590e-04 0.0 
4.573664136590e-04 7.334109441868e-04 0.0 
0.0 0.0 0.0 
-4.917981613768e-04 4.505413944684e-04 0.0 
4.505413944684e-04 1.030673949841e-03 0.0 
0.0 0.0 0.0 
7.351685023095e-04 1.985918638575e-03 0.0 
1.985918638575e-03 4.638109869560e-03 0.0 
0.0 0.0 0.0 
-9.910140113975e-04 2.784822523826e-03 0.0 
2.784822523826e-03 8.994411024852e-03 0.0 
0.0 0.0 0.0 
5.654802852306e-04 2.956979833141e-03 0.0 
2.956979833141e-03 5.098659179542e-03 0.0 
0.0 0.0 0.0 
4.063799888157e-04 3.168536542490e-03 0.0 
3.168536542490e-03 5.515944817167e-03 0.0 
0.0 0.0 0.0 
1.789204586601e-03 9.051239632305e-04 0.0 
9.051239632305e-04 4.866374834309e-03 0.0 
0.0 0.0 0.0 
4.123200078658e-04 -4.874120182329e-04 0.0 
-4.874120182329e-04 6.408975849660e-04 0.0 
0.0 0.0 0.0 
3.173816170399e-04 1.268348807854e-03 0.0 
1.268348807854e-03 2.667327786685e-03 0.0 
0.0 0.0 0.0 
-1.371114112065e-03 1.773772850774e-04 0.0 
1.773772850774e-04 1.620396868624e-02 0.0 
0.0 0.0 0.0 
-3.189024452987e-04 1.226305208834e-03 0.0 
1.226305208834e-03 2.549009327324e-03 0.0 
0.0 0.0 0.0 
-1.483093691027e-04 -4.778447790707e-05 0.0 
-4.778447790707e-05 5.938876090181e-03 0.0 
0.0 0.0 0.0 
1.207243670149e-03 1.486815616000e-03 0.0 
1.486815616000e-03 3.736423906925e-03 0.0 
0.0 0.0 0.0 
-6.468623814009e-04 2.671305030961e-03 0.0 
2.671305030961e-03 8.249826964796e-03 0.0 
0.0 0.0 0.0 
8.050966099778e-04 1.571981357301e-03 0.0 
1.571981357301e-03 2.674430597945e-03 0.0 
0.0 0.0 0.0 
6.391024457398e-04 2.282519846665e-03 0.0 
2.282519846665e-03 4.311268978304e-03 0.0 
0.0 0.0 0.0 
-1.810053001352e-03 2.680595141191e-03 0.0 
2.680595141191e-03 1.249172167336e-02 0.0 
0.0 0.0 0.0 
-2.291598338526e-03 2.283328585150e-03 0.0 
2.283328585150e-03 1.348915686650e-02 0.0 
0.0 0.0 0.0 
-2.220084651729e-03 2.462786168674e-03 0.0 
2.462786168674e-03 1.274294044061e-02 0.0 
0.0 0.0 0.0 
1.875189419774e-03 1.301773309160e-03 0.0 
1.301773309160e-03 3.185202623464e-03 0.0 
0.0 0.0 0.0 
1.582374389768e-04 3.248472152137e-03 0.0 
3.248472152137e-03 6.376991328024e-03 0.0 
0.0 0.0 0.0 
-1.634138998536e-04 2.702157150838e-03 0.0 
2.702157150838e-03 6.378259100966e-03 0.0 
0.0 0.0 0.0 
-1.321479093194e-03 2.767038682707e-03 0.0 
2.767038682707e-03 1.064465437006e-02 0.0 
0.0 0.0 0.0 
-1.900339277069e-03 2.475727633291e-03 0.0 
2.475727633291e-03 1.564957721573e-02 0.0 
0.0 0.0 0.0 
-1.745094307149e-03 2.800478134734e-03 0.0 
2.800478134734e-03 1.533475185352e-02 0.0 
0.0 0.0 0.0 
-1.508948540644e-03 3.067350951601e-03 0.0 
3.067350951601e-03 1.545732614515e-02 0.0 
0.0 0.0 0.0 
-1.598599366513e-03 3.116049213028e-03 0.0 
3.116049213028e-03 1.499882035727e-02 0.0 
0.0 0.0 0.0 
-1.799670891602e-03 2.869160226246e-03 0.0 
2.869160226246e-03 1.483351143905e-02 0.0 
0.0 0.0 0.0 
-1.652652904027e-03 3.138958799264e-03 0.0 
3.138958799264e-03 1.449178483486e-02 0.0 
0.0 0.0 0.0 
-1.408570519376e-03 3.416982184754e-03 0.0 
3.416982184754e-03 1.465412826616e-02 0.0 
0.0 0.0 0.0 
-1.504134368397e-03 3.439808694449e-03 0.0 
3.439808694449e-03 1.410435110343e-02 0.0 
0.0 0.0 0.0 
-7.088203120197e-04 4.212423070846e-03 0.0 
4.212423070846e-03 1.376344051722e-02 0.0 
0.0 0.0 0.0 
-8.188705948805e-04 3.984348983211e-03 0.0 
3.984348983211e-03 1.327495208224e-02 0.0 
0.0 0.0 0.0 
-1.492728871456e-03 3.389740661427e-03 0.0 
3.389740661427e-03 1.354451709245e-02 0.0 
0.0 0.0 0.0 
-8.523462493235e-04 3.814202182429e-03 0.0 
3.814202182429e-03 1.278189946911e-02 0.0 
0.0 0.0 0.0 
7.815554196892e-05 4.515056374052e-03 0.0 
4.515056374052e-03 1.222649270786e-02 0.0 
0.0 0.0 0.0 
-1.458573318200e-03 3.331472847165e-03 0.0 
3.331472847165e-03 1.295177548760e-02 0.0 
0.0 0.0 0.0 
6.972803722456e-04 2.523769101055e-03 0.0 
2.523769101055e-03 8.915500110799e-03 0.0 
0.0 0.0 0.0 
8.651015643677e-04 2.065086413101e-03 0.0 
2.065086413101e-03 5.019296435107e-03 0.0 
0.0 0.0 0.0 
-1.433745229770e-04 2.937023688264e-04 0.0 
2.937023688264e-04 1.143518340856e-03 0.0 
0.0 0.0 0.0 
-3.244093550301e-04 6.197094658146e-04 0.0 
6.197094658146e-04 1.330957326131e-03 0.0 
0.0 0.0 0.0 
-9.646881683994e-04 2.636549345102e-03 0.0 
2.636549345102e-03 9.123947987716e-03 0.0 
0.0 0.0 0.0 
-1.574117758181e-04 4.835581281432e-03 0.0 
4.835581281432e-03 1.379611512630e-02 0.0 
0.0 0.0 0.0 
-7.207649137014e-04 4.106851782707e-03 0.0 
4.106851782707e-03 1.521340016633e-02 0.0 
0.0 0.0 0.0 
1.016255525668e-03 1.096787860669e-03 0.0 
1.096787860669e-03 2.986828011482e-03 0.0 
0.0 0.0 0.0 
3.498631356282e-04 4.356383912435e-03 0.0 
4.356383912435e-03 1.172243444029e-02 0.0 
0.0 0.0 0.0 
-1.935787900099e-03 2.567492747848e-03 0.0 
2.567492747848e-03 1.225177718499e-02 0.0 
0.0 0.0 0.0 
6.931084775574e-04 4.721377081244e-04 0.0 
4.721377081244e-04 2.024108619145e-03 0.0 
0.0 0.0 0.0 
3.487910270665e-04 3.916617504198e-03 0.0 
3.916617504198e-03 1.114294256300e-02 0.0 
0.0 0.0 0.0 
-1.964833848502e-03 2.567505736337e-03 0.0 
2.567505736337e-03 1.518335797012e-02 0.0 
0.0 0.0 0.0 
-1.974036857958e-03 2.653955629003e-03 0.0 
2.653955629003e-03 1.465580174015e-02 0.0 
0.0 0.0 0.0 
-2.152935524321e-03 2.355927392095e-03 0.0 
2.355927392095e-03 1.502797789731e-02 0.0 
0.0 0.0 0.0 
-7.348263349676e-04 3.383562622977e-03 0.0 
3.383562622977e-03 1.608552239550e-02 0.0 
0.0 0.0 0.0 
-2.218957225837e-03 7.676852016679e-04 0.0 
7.676852016679e-04 1.600621260102e-02 0.0 
0.0 0.0 0.0 
3.784062897029e-04 3.040511300642e-03 0.0 
3.040511300642e-03 1.007871305281e-02 0.0 
0.0 0.0 0.0 
3.039544053678e-03 1.950795167618e-03 0.0 
1.950795167618e-03 3.860923504995e-03 0.0 
0.0 0.0 0.0 
3.311018020676e-03 2.169159951177e-03 0.0 
2.169159951177e-03 3.594497275645e-03 0.0 
0.0 0.0 0.0 
3.579847315429e-03 2.034995011288e-03 0.0 
2.034995011288e-03 2.893665985879e-03 0.0 
0.0 0.0 0.0 
-1.632837997520e-03 3.145803273476e-03 0.0 
3.145803273476e-03 1.389729030034e-02 0.0 
0.0 0.0 0.0 
3.830131624955e-04 2.042180529943e-03 0.0 
2.042180529943e-03 9.035307171500e-03 0.0 
0.0 0.0 0.0 
7.218801353303e-04 1.859900286227e-03 0.0 
1.859900286227e-03 8.196726823118e-03 0.0 
0.0 0.0 0.0 
6.901229001390e-04 1.650636114506e-03 0.0 
1.650636114506e-03 8.034851426580e-03 0.0 
0.0 0.0 0.0 
1.076666886058e-03 1.683229998915e-03 0.0 
1.683229998915e-03 7.310906131046e-03 0.0 
0.0 0.0 0.0 
3.452807292958e-04 1.605042289160e-03 0.0 
1.605042289160e-03 8.675858131590e-03 0.0 
0.0 0.0 0.0 
2.281200384629e-04 4.880797044688e-03 0.0 
4.880797044688e-03 1.281736772583e-02 0.0 
0.0 0.0 0.0 
2.763660365500e-04 4.739670127622e-03 0.0 
4.739670127622e-03 1.245441082800e-02 0.0 
0.0 0.0 0.0 
2.799663781733e-03 -3.515967834918e-04 0.0 
-3.515967834918e-04 1.658901255845e-04 0.0 
0.0 0.0 0.0 
3.076098093236e-03 -1.659390164267e-04 0.0 
-1.659390164267e-04 2.221703904614e-04 0.0 
0.0 0.0 0.0 
3.128687694917e-03 2.805083776104e-05 0.0 
2.805083776104e-05 5.630013397283e-04 0.0 
0.0 0.0 0.0 
3.261119800804e-03 4.518777429047e-05 0.0 
4.518777429047e-05 3.849090790161e-04 0.0 
0.0 0.0 0.0 
2.930590159076e-03 -1.567572303774e-04 0.0 
-1.567572303774e-04 3.239258882536e-04 0.0 
0.0 0.0 0.0 
3.018501871608e-03 6.091043012312e-05 0.0 
6.091043012312e-05 5.847753271503e-04 0.0 
0.0 0.0 0.0 
3.398271196734e-03 2.777680808400e-04 0.0 
2.777680808400e-04 6.002331005720e-04 0.0 
0.0 0.0 0.0 
2.362596286851e-03 1.327193617690e-04 0.0 
1.327193617690e-04 1.167713667119e-03 0.0 
0.0 0.0 0.0 
2.371793307868e-04 4.197033052539e-03 0.0 
4.197033052539e-03 1.114286119012e-02 0.0 
0.0 0.0 0.0 
2.864162160301e-04 1.216425382646e-03 0.0 
1.216425382646e-03 8.395345595162e-03 0.0 
0.0 0.0 0.0 
1.810456149580e-03 3.419182232670e-04 0.0 
3.419182232670e-04 3.788738582509e-03 0.0 
0.0 0.0 0.0 
2.052154083738e-03 4.234085113839e-04 0.0 
4.234085113839e-04 3.445966161486e-03 0.0 
0.0 0.0 0.0 
2.238280377752e-03 3.259134204578e-04 0.0 
3.259134204578e-04 2.829742541890e-03 0.0 
0.0 0.0 0.0 
8.000104549697e-04 -3.084983136209e-04 0.0 
-3.084983136209e-04 3.006970738356e-03 0.0 
0.0 0.0 0.0 
1.103042588377e-03 -2.579085902945e-04 0.0 
-2.579085902945e-04 2.975669640836e-03 0.0 
0.0 0.0 0.0 
1.085905104937e-03 -2.033587895290e-04 0.0 
-2.033587895290e-04 3.402959047714e-03 0.0 
0.0 0.0 0.0 
5.120910552448e-04 -3.346056354964e-04 0.0 
-3.346056354964e-04 3.035110142595e-03 0.0 
0.0 0.0 0.0 
2.424256222551e-03 3.547054778600e-03 0.0 
3.547054778600e-03 6.459281653439e-03 0.0 
0.0 0.0 0.0 
2.622146048413e-04 1.050953064531e-03 0.0 
1.050953064531e-03 8.255155852570e-03 0.0 
0.0 0.0 0.0 
2.584880046266e-03 1.056951026929e-03 0.0 
1.056951026929e-03 3.501872633578e-03 0.0 
0.0 0.0 0.0 
1.371829951013e-03 -2.449390223979e-04 0.0 
-2.449390223979e-04 2.574118129245e-03 0.0 
0.0 0.0 0.0 
-2.081066968095e-03 2.982297170963e-04 0.0 
2.982297170963e-04 1.500956420725e-02 0.0 
0.0 0.0 0.0 
-2.429115540027e-03 7.409897043493e-04 0.0 
7.409897043493e-04 1.536760417116e-02 0.0 
0.0 0.0 0.0 
-2.667714736875e-03 1.174869806531e-03 0.0 
1.174869806531e-03 1.520234438242e-02 0.0 
0.0 0.0 0.0 
-2.549721199861e-03 1.300582055635e-03 0.0 
1.300582055635e-03 1.547224449309e-02 0.0 
0.0 0.0 0.0 
-2.248446648572e-03 4.947101920869e-04 0.0 
4.947101920869e-04 1.541641021073e-02 0.0 
0.0 0.0 0.0 
2.787911206493e-04 -2.417727081152e-04 0.0 
-2.417727081152e-04 4.193356795961e-03 0.0 
0.0 0.0 0.0 
7.469802721941e-05 -2.192684598288e-04 0.0 
-2.192684598288e-04 4.521178092393e-03 0.0 
0.0 0.0 0.0 
-9.764265312784e-05 -2.091751787659e-04 0.0 
-2.091751787659e-04 4.462051385978e-03 0.0 
0.0 0.0 0.0 
-7.581343902596e-05 -1.836397647117e-04 0.0 
-1.836397647117e-04 4.802691146391e-03 0.0 
0.0 0.0 0.0 
-1.619750445678e-04 -1.573280580770e-04 0.0 
-1.573280580770e-04 4.683735307409e-03 0.0 
0.0 0.0 0.0 
-1.318074660834e-04 -1.758679195464e-04 0.0 
-1.758679195464e-04 4.345049111508e-03 0.0 
0.0 0.0 0.0 
-1.717907904451e-04 -1.334064541359e-04 0.0 
-1.334064541359e-04 5.038217785417e-03 0.0 
0.0 0.0 0.0 
-1.919080167300e-04 -9.432577365966e-05 0.0 
-9.432577365966e-05 4.848553905843e-03 0.0 
0.0 0.0 0.0 
-1.816707758619e-03 9.125750645623e-05 0.0 
9.125750645623e-05 1.495263198632e-02 0.0 
0.0 0.0 0.0 
-9.554841709264e-04 -1.755836662827e-04 0.0 
-1.755836662827e-04 7.143284291733e-04 0.0 
0.0 0.0 0.0 
-2.397648019209e-04 -3.828521892962e-04 0.0 
-3.828521892962e-04 7.894094366613e-04 0.0 
0.0 0.0 0.0 
-1.146085568901e-04 -4.981218824428e-04 0.0 
-4.981218824428e-04 6.863073415293e-04 0.0 
0.0 0.0 0.0 
4.156554990870e-04 -6.009194179707e-04 0.0 
-6.009194179707e-04 7.867441903285e-04 0.0 
0.0 0.0 0.0 
3.322767960960e-04 -4.313267142469e-04 0.0 
-4.313267142469e-04 9.051652571153e-04 0.0 
0.0 0.0 0.0 
1.110708994584e-03 -6.411634927611e-04 0.0 
-6.411634927611e-04 6.577799598153e-04 0.0 
0.0 0.0 0.0 
8.356890392557e-04 -4.955464028998e-04 0.0 
-4.955464028998e-04 9.277399506514e-04 0.0 
0.0 0.0 0.0 
-3.434627737129e-04 -2.487746023123e-04 0.0 
-2.487746023123e-04 8.442839253555e-04 0.0 
0.0 0.0 0.0 
-6.021717691711e-04 -3.372788494315e-04 0.0 
-3.372788494315e-04 5.450655276236e-04 0.0 
0.0 0.0 0.0 
2.709225852208e-05 -5.409888113047e-04 0.0 
-5.409888113047e-04 5.764773277620e-04 0.0 
0.0 0.0 0.0 
-3.691569380947e-04 -3.685550147264e-04 0.0 
-3.685550147264e-04 4.155722746412e-04 0.0 
0.0 0.0 0.0 
9.240271871624e-05 -5.376803159853e-04 0.0 
-5.376803159853e-04 4.897916633087e-04 0.0 
0.0 0.0 0.0 
5.960596224488e-04 -6.318199434224e-04 0.0 
-6.318199434224e-04 5.671391356628e-04 0.0 
0.0 0.0 0.0 
5.877406330045e-04 -4.540229110644e-04 0.0 
-4.540229110644e-04 9.754987120629e-04 0.0 
0.0 0.0 0.0 
9.161338721191e-05 1.327829610004e-04 0.0 
1.327829610004e-04 7.304580281118e-03 0.0 
0.0 0.0 0.0 
-7.721470072038e-05 -7.080930975747e-05 0.0 
-7.080930975747e-05 3.801595033206e-03 0.0 
0.0 0.0 0.0 
-2.944215800893e-05 -1.330775137319e-04 0.0 
-1.330775137319e-04 3.575789527704e-03 0.0 
0.0 0.0 0.0 
7.607633454667e-05 -1.162756777851e-04 0.0 
-1.162756777851e-04 3.161976619508e-03 0.0 
0.0 0.0 0.0 
4.266990402981e-05 -1.953046391536e-04 0.0 
-1.953046391536e-04 3.315458819803e-03 0.0 
0.0 0.0 0.0 
-9.910338858267e-05 -1.315526161161e-04 0.0 
-1.315526161161e-04 3.943111413419e-03 0.0 
0.0 0.0 0.0 
1.551995085122e-04 -4.539053283142e-05 0.0 
-4.539053283142e-05 2.944212753007e-03 0.0 
0.0 0.0 0.0 
2.269360674396e-04 -7.937219559158e-05 0.0 
-7.937219559158e-05 2.732412153868e-03 0.0 
0.0 0.0 0.0 
1.706254111366e-03 -5.687054675162e-06 0.0 
-5.687054675162e-06 -7.649279279359e-04 0.0 
0.0 0.0 0.0 
1.584133535728e-03 -2.865187158389e-05 0.0 
-2.865187158389e-05 -6.556582599122e-04 0.0 
0.0 0.0 0.0 
1.560536925479e-03 -2.070031501877e-05 0.0 
-2.070031501877e-05 -6.443592630062e-04 0.0 
0.0 0.0 0.0 
1.400280331657e-03 -3.875541672187e-07 0.0 
-3.875541672187e-07 -1.947466645253e-04 0.0 
0.0 0.0 0.0 
1.368339267474e-03 -2.149346578952e-05 0.0 
-2.149346578952e-05 -1.451309272732e-04 0.0 
0.0 0.0 0.0 
1.509585052261e-03 -9.343681513763e-06 0.0 
-9.343681513763e-06 -5.995621583661e-04 0.0 
0.0 0.0 0.0 
1.380753115279e-03 2.478393246495e-05 0.0 
2.478393246495e-05 -4.582087176988e-04 0.0 
0.0 0.0 0.0 
1.529105838854e-03 3.371544870649e-05 0.0 
3.371544870649e-05 -5.971605748613e-04 0.0 
0.0 0.0 0.0 
1.039647079379e-03 -3.367423347413e-06 0.0 
-3.367423347413e-06 -1.121354513405e-04 0.0 
0.0 0.0 0.0 
9.308854612800e-04 -2.553022425178e-05 0.0 
-2.553022425178e-05 2.834405840027e-04 0.0 
0.0 0.0 0.0 
1.224379470507e-03 1.632474528914e-05 0.0 
1.632474528914e-05 -3.667121982557e-04 0.0 
0.0 0.0 0.0 
-1.122418217654e-03 6.624587394505e-05 0.0 
6.624587394505e-05 1.656521413251e-02 0.0 
0.0 0.0 0.0 
-1.035654001102e-03 1.569514823666e-04 0.0 
1.569514823666e-04 1.673560623388e-02 0.0 
0.0 0.0 0.0 
2.262226934936e-04 7.595877812443e-04 0.0 
7.595877812443e-04 7.984334819547e-03 0.0 
0.0 0.0 0.0 
-1.694517940760e-03 4.065234227681e-05 0.0 
4.065234227681e-05 1.496140009201e-02 0.0 
0.0 0.0 0.0 
4.394246808157e-05 -2.679931714662e-04 0.0 
-2.679931714662e-04 2.107960529431e-04 0.0 
0.0 0.0 0.0 
-3.790065315087e-04 7.113843607607e-04 0.0 
7.113843607607e-04 1.742885423997e-02 0.0 
0.0 0.0 0.0 
-4.425871376008e-04 1.369904463064e-03 0.0 
1.369904463064e-03 1.731568622724e-02 0.0 
0.0 0.0 0.0 
-3.794173927297e-04 1.147153393788e-03 0.0 
1.147153393788e-03 1.738199094140e-02 0.0 
0.0 0.0 0.0 
3.948514678189e-05 -8.304544357440e-06 0.0 
-8.304544357440e-06 6.560447416871e-03 0.0 
0.0 0.0 0.0 
9.369798225844e-05 1.030326637332e-05 0.0 
1.030326637332e-05 6.748989026606e-03 0.0 
0.0 0.0 0.0 
-3.205364111187e-04 3.948185937417e-04 0.0 
3.948185937417e-04 1.746355772114e-02 0.0 
0.0 0.0 0.0 
7.782370294959e-04 -4.118917678896e-04 0.0 
-4.118917678896e-04 1.679128420956e-03 0.0 
0.0 0.0 0.0 
-1.366228773324e-03 3.529581208048e-03 0.0 
3.529581208048e-03 1.504609912768e-02 0.0 
0.0 0.0 0.0 
-9.432877429145e-04 6.650457103728e-04 0.0 
6.650457103728e-04 1.710088969852e-02 0.0 
0.0 0.0 0.0 
5.500246823401e-04 6.938420953081e-04 0.0 
6.938420953081e-04 2.034379730437e-03 0.0 
0.0 0.0 0.0 
1.526099664490e-03 -4.562217540344e-04 0.0 
-4.562217540344e-04 9.813100220186e-04 0.0 
0.0 0.0 0.0 
6.640672525563e-05 -1.343853226949e-04 0.0 
-1.343853226949e-04 5.439783857927e-03 0.0 
0.0 0.0 0.0 
9.255807729199e-04 -7.634569474776e-05 0.0 
-7.634569474776e-05 4.374561792119e-03 0.0 
0.0 0.0 0.0 
3.236094747850e-04 -6.236011571492e-07 0.0 
-6.236011571492e-07 6.119655436331e-03 0.0 
0.0 0.0 0.0 
3.725352957389e-04 -1.557742081834e-04 0.0 
-1.557742081834e-04 4.880197446329e-03 0.0 
0.0 0.0 0.0 
5.451222134836e-04 3.457945094396e-05 0.0 
3.457945094396e-05 5.674424986290e-03 0.0 
0.0 0.0 0.0 
6.781866596019e-04 1.418440373209e-03 0.0 
1.418440373209e-03 7.813458752250e-03 0.0 
0.0 0.0 0.0 
9.438628222468e-04 -1.562612251220e-06 0.0 
-1.562612251220e-06 8.433569781576e-04 0.0 
0.0 0.0 0.0 
-1.763675286397e-03 3.643445836281e-04 0.0 
3.643445836281e-04 1.607773173429e-02 0.0 
0.0 0.0 0.0 
-1.552957406353e-03 1.731611090452e-04 0.0 
1.731611090452e-04 1.587742031737e-02 0.0 
0.0 0.0 0.0 
-1.360619083455e-03 5.561460981776e-04 0.0 
5.561460981776e-04 1.672015923769e-02 0.0 
0.0 0.0 0.0 
4.134296571440e-04 -3.093365026444e-04 0.0 
-3.093365026444e-04 2.164449759868e-03 0.0 
0.0 0.0 0.0 
-7.841748599594e-05 -2.336400993553e-04 0.0 
-2.336400993553e-04 4.106865681571e-03 0.0 
0.0 0.0 0.0 
4.638506897862e-04 -2.790390912328e-04 0.0 
-2.790390912328e-04 1.224415846342e-03 0.0 
0.0 0.0 0.0 
6.717430745235e-04 4.028092980506e-03 0.0 
4.028092980506e-03 1.060482773460e-02 0.0 
0.0 0.0 0.0 
-1.356460303062e-03 2.668044599349e-03 0.0 
2.668044599349e-03 1.030899608914e-02 0.0 
0.0 0.0 0.0 
2.156806362827e-03 1.590114636597e-04 0.0 
1.590114636597e-04 2.583000149174e-03 0.0 
0.0 0.0 0.0 
7.578742840817e-04 -3.476180986935e-04 0.0 
-3.476180986935e-04 2.645110555703e-03 0.0 
0.0 0.0 0.0 
1.090479710195e-03 -4.069260528281e-04 0.0 
-4.069260528281e-04 1.630187957517e-03 0.0 
0.0 0.0 0.0 
1.766782030407e-03 -5.009632486991e-04 0.0 
-5.009632486991e-04 6.431952013431e-04 0.0 
0.0 0.0 0.0 
6.449725346802e-04 2.331030207056e-03 0.0 
2.331030207056e-03 5.750393092211e-03 0.0 
0.0 0.0 0.0 
1.617263928933e-03 -1.535722216272e-04 0.0 
-1.535722216272e-04 2.615740902688e-03 0.0 
0.0 0.0 0.0 
1.116821412697e-03 2.727189099269e-04 0.0 
2.727189099269e-04 5.120013973323e-03 0.0 
0.0 0.0 0.0 
-1.179743606437e-03 5.352643126387e-04 0.0 
5.352643126387e-04 1.685731750980e-02 0.0 
0.0 0.0 0.0 
3.310895457980e-04 -1.219129394075e-04 0.0 
-1.219129394075e-04 1.087841050068e-04 0.0 
0.0 0.0 0.0 
1.108739979253e-03 4.200552477252e-04 0.0 
4.200552477252e-04 5.462234392290e-03 0.0 
0.0 0.0 0.0 
1.427272772538e-03 -7.846199479815e-06 0.0 
-7.846199479815e-06 3.642868375882e-03 0.0 
0.0 0.0 0.0 
-2.080484566476e-03 7.611418617848e-04 0.0 
7.611418617848e-04 1.620552941947e-02 0.0 
0.0 0.0 0.0 
1.980035157901e-03 1.927862997056e-03 0.0 
1.927862997056e-03 5.818675226620e-03 0.0 
0.0 0.0 0.0 
1.512294289957e-03 -7.151118342804e-04 0.0 
-7.151118342804e-04 3.550647118885e-04 0.0 
0.0 0.0 0.0 
-1.573701708474e-03 9.904020099397e-04 0.0 
9.904020099397e-04 1.680596173714e-02 0.0 
0.0 0.0 0.0 
-1.362301862506e-03 2.219442996943e-03 0.0 
2.219442996943e-03 1.665821779009e-02 0.0 
0.0 0.0 0.0 
-2.339807429195e-03 8.012637717560e-04 0.0 
8.012637717560e-04 1.579943872843e-02 0.0 
0.0 0.0 0.0 
4.574356190363e-04 -2.402428323815e-04 0.0 
-2.402428323815e-04 8.820133626439e-04 0.0 
0.0 0.0 0.0 
-1.768509829191e-03 1.995180037842e-04 0.0 
1.995180037842e-04 1.568465080683e-02 0.0 
0.0 0.0 0.0 
7.041048820187e-04 8.370665662085e-04 0.0 
8.370665662085e-04 7.018123247480e-03 0.0 
0.0 0.0 0.0 
-2.032542965808e-03 2.133446423724e-03 0.0 
2.133446423724e-03 1.591898535708e-02 0.0 
0.0 0.0 0.0 
3.908619277549e-04 -2.330165507407e-04 0.0 
-2.330165507407e-04 2.019119885103e-03 0.0 
0.0 0.0 0.0 
3.144534322572e-03 1.066061358486e-03 0.0 
1.066061358486e-03 2.474757096141e-03 0.0 
0.0 0.0 0.0 
-2.612692192560e-04 2.761976476228e-03 0.0 
2.761976476228e-03 7.771623031495e-03 0.0 
0.0 0.0 0.0 
-2.450824859293e-03 3.757811062084e-03 0.0 
3.757811062084e-03 1.358851988076e-02 0.0 
0.0 0.0 0.0 
-8.814822128052e-04 8.527233632433e-04 0.0 
8.527233632433e-04 1.718440187920e-02 0.0 
0.0 0.0 0.0 
3.029790060040e-03 2.463215139176e-03 0.0 
2.463215139176e-03 3.950791735701e-03 0.0 
0.0 0.0 0.0 
1.515301730568e-03 1.595919328130e-03 0.0 
1.595919328130e-03 6.340626782924e-03 0.0 
0.0 0.0 0.0 
2.559787223962e-03 1.312452381115e-03 0.0 
1.312452381115e-03 3.932000219024e-03 0.0 
0.0 0.0 0.0 
3.316511927849e-04 -1.830698566438e-04 0.0 
-1.830698566438e-04 2.283140702074e-03 0.0 
0.0 0.0 0.0 
7.177018290562e-04 2.898457511673e-04 0.0 
2.898457511673e-04 6.039360745500e-03 0.0 
0.0 0.0 0.0 
3.660036791151e-03 1.696268537886e-03 0.0 
1.696268537886e-03 2.364786696806e-03 0.0 
0.0 0.0 0.0 
-1.324400201065e-03 1.220458016952e-03 0.0 
1.220458016952e-03 1.700811456297e-02 0.0 
0.0 0.0 0.0 
9.079739667915e-04 3.745168797862e-03 0.0 
3.745168797862e-03 8.992413539754e-03 0.0 
0.0 0.0 0.0 
3.560330203975e-03 8.289464661875e-04 0.0 
8.289464661875e-04 1.203721969200e-03 0.0 
0.0 0.0 0.0 
-1.762672983585e-03 1.621760729830e-03 0.0 
1.621760729830e-03 1.665684376258e-02 0.0 
0.0 0.0 0.0 
2.476166684530e-03 3.991344830266e-04 0.0 
3.991344830266e-04 2.504622432268e-03 0.0 
0.0 0.0 0.0 
1.791152274486e-03 2.197272701832e-03 0.0 
2.197272701832e-03 6.468098020303e-03 0.0 
0.0 0.0 0.0 
-1.165904779486e-03 2.618822864085e-03 0.0 
2.618822864085e-03 9.528991465982e-03 0.0 
0.0 0.0 0.0 
-6.840066722516e-04 2.895553864326e-03 0.0 
2.895553864326e-03 9.571318928179e-03 0.0 
0.0 0.0 0.0 
-1.390166049392e-03 3.082356067234e-03 0.0 
3.082356067234e-03 1.201079183607e-02 0.0 
0.0 0.0 0.0 
1.128432183911e-03 2.890519316783e-03 0.0 
2.890519316783e-03 6.809677640973e-03 0.0 
0.0 0.0 0.0 
-1.374289029470e-04 -1.104305156350e-04 0.0 
-1.104305156350e-04 5.379276639306e-03 0.0 
0.0 0.0 0.0 
9.017713498937e-04 3.517307755348e-04 0.0 
3.517307755348e-04 5.763319022819e-03 0.0 
0.0 0.0 0.0 
1.064375801520e-03 -2.082467770225e-04 0.0 
-2.082467770225e-04 1.177737540711e-03 0.0 
0.0 0.0 0.0 
4.855209602737e-04 2.209291719395e-03 0.0 
2.209291719395e-03 4.930946439497e-03 0.0 
0.0 0.0 0.0 
-2.300416316800e-03 1.112640800527e-03 0.0 
1.112640800527e-03 1.604706716324e-02 0.0 
0.0 0.0 0.0 
1.365206254449e-03 3.758673107079e-03 0.0 
3.758673107079e-03 8.822381728399e-03 0.0 
0.0 0.0 0.0 
-1.000632528759e-03 1.435204061085e-03 0.0 
1.435204061085e-03 1.716084247443e-02 0.0 
0.0 0.0 0.0 
-2.585117866269e-04 2.720669762588e-03 0.0 
2.720669762588e-03 7.319622150594e-03 0.0 
0.0 0.0 0.0 
7.260403467213e-04 1.692322439150e-04 0.0 
1.692322439150e-04 5.702103819052e-03 0.0 
0.0 0.0 0.0 
-1.455635489680e-03 1.885573677588e-03 0.0 
1.885573677588e-03 1.678991110510e-02 0.0 
0.0 0.0 0.0 
1.358216507679e-03 -1.815909436048e-04 0.0 
-1.815909436048e-04 3.000103815731e-03 0.0 
0.0 0.0 0.0 
9.620818470106e-04 1.063158738182e-05 0.0 
1.063158738182e-05 1.048230010505e-03 0.0 
0.0 0.0 0.0 
2.728557321253e-04 6.350810005943e-04 0.0 
6.350810005943e-04 1.787362503450e-03 0.0 
0.0 0.0 0.0 
2.300963669459e-03 4.033678996137e-04 0.0 
4.033678996137e-04 1.588156981926e-03 0.0 
0.0 0.0 0.0 
3.252168736851e-03 2.138179860870e-03 0.0 
2.138179860870e-03 3.257520414887e-03 0.0 
0.0 0.0 0.0 
1.287027131456e-03 -1.171158012617e-04 0.0 
-1.171158012617e-04 3.485747485466e-03 0.0 
0.0 0.0 0.0 
-1.280745622860e-03 3.143904123533e-03 0.0 
3.143904123533e-03 1.581274312907e-02 0.0 
0.0 0.0 0.0 
5.700861265127e-04 1.322344019522e-04 0.0 
1.322344019522e-04 5.953399883513e-03 0.0 
0.0 0.0 0.0 
1.537312534611e-03 7.860101701423e-04 0.0 
7.860101701423e-04 5.205216381288e-03 0.0 
0.0 0.0 0.0 
-7.787515272910e-04 1.266613103048e-03 0.0 
1.266613103048e-03 1.657205970653e-03 0.0 
0.0 0.0 0.0 
-2.107411446947e-03 3.123138276261e-03 0.0 
3.123138276261e-03 1.250645511128e-02 0.0 
0.0 0.0 0.0 
4.357036730350e-04 1.030706758640e-04 0.0 
1.030706758640e-04 6.188089385883e-03 0.0 
0.0 0.0 0.0 
2.851120582189e-03 9.364449196829e-04 0.0 
9.364449196829e-04 2.802553210548e-03 0.0 
0.0 0.0 0.0 
1.574654000542e-03 1.998180295831e-03 0.0 
1.998180295831e-03 6.677404096490e-03 0.0 
0.0 0.0 0.0 
-1.634231679277e-04 -1.139814999966e-04 0.0 
-1.139814999966e-04 4.505510802278e-03 0.0 
0.0 0.0 0.0 
7.056874323484e-04 3.823188596989e-03 0.0 
3.823188596989e-03 1.028582401235e-02 0.0 
0.0 0.0 0.0 
-6.015599365480e-04 3.413715739826e-03 0.0 
3.413715739826e-03 8.810838404884e-03 0.0 
0.0 0.0 0.0 
3.395296016172e-04 7.929842717272e-05 0.0 
7.929842717272e-05 6.400177601971e-03 0.0 
0.0 0.0 0.0 
1.727146487560e-03 1.127837114618e-03 0.0 
1.127837114618e-03 5.317019861923e-03 0.0 
0.0 0.0 0.0 
9.599337908677e-04 1.399572300109e-03 0.0 
1.399572300109e-03 3.468695935685e-03 0.0 
0.0 0.0 0.0 
-1.540149783484e-03 1.152235853328e-05 0.0 
1.152235853328e-05 1.484649937418e-02 0.0 
0.0 0.0 0.0 
2.186283153207e-04 1.555118091712e-04 0.0 
1.555118091712e-04 6.991953407946e-03 0.0 
0.0 0.0 0.0 
1.375168123300e-03 1.211897253860e-03 0.0 
1.211897253860e-03 6.134641815805e-03 0.0 
0.0 0.0 0.0 
2.076034148026e-03 3.298237672491e-03 0.0 
3.298237672491e-03 6.377614605447e-03 0.0 
0.0 0.0 0.0 
2.804281293588e-03 6.953700696128e-04 0.0 
6.953700696128e-04 2.468012914820e-03 0.0 
0.0 0.0 0.0 
-1.381926150312e-03 3.892819895458e-03 0.0 
3.892819895458e-03 1.146982812345e-02 0.0 
0.0 0.0 0.0 
1.018909997143e-03 -1.429921640171e-04 0.0 
-1.429921640171e-04 3.875542262210e-03 0.0 
0.0 0.0 0.0 
-9.567175765741e-04 2.962675864373e-03 0.0 
2.962675864373e-03 1.033053887536e-02 0.0 
0.0 0.0 0.0 
-6.917636027550e-04 3.002817398524e-03 0.0 
3.002817398524e-03 1.643348001912e-02 0.0 
0.0 0.0 0.0 
1.255061948751e-03 1.433056973295e-03 0.0 
1.433056973295e-03 6.630806170952e-03 0.0 
0.0 0.0 0.0 
-2.131010241521e-03 2.472476791259e-03 0.0 
2.472476791259e-03 1.448306955980e-02 0.0 
0.0 0.0 0.0 
8.043942897341e-04 -2.129337537445e-04 0.0 
-2.129337537445e-04 3.809605789720e-03 0.0 
0.0 0.0 0.0 
2.735014999517e-03 2.560672750017e-03 0.0 
2.560672750017e-03 5.082038572132e-03 0.0 
0.0 0.0 0.0 
1.292939240902e-03 -1.829847709618e-06 0.0 
-1.829847709618e-06 -6.825924829140e-05 0.0 
0.0 0.0 0.0 
-1.194395501970e-03 3.615000514074e-03 0.0 
3.615000514074e-03 1.060602852871e-02 0.0 
0.0 0.0 0.0 
5.470502730615e-04 -2.096496631666e-04 0.0 
-2.096496631666e-04 4.189406421719e-03 0.0 
0.0 0.0 0.0 
3.061065625350e-03 3.128092258693e-04 0.0 
3.128092258693e-04 9.079689293623e-04 0.0 
0.0 0.0 0.0 
2.538984431956e-03 5.975512400851e-04 0.0 
5.975512400851e-04 2.792339362071e-03 0.0 
0.0 0.0 0.0 
9.339084079652e-04 2.752116780423e-03 0.0 
2.752116780423e-03 8.720809800437e-03 0.0 
0.0 0.0 0.0 
3.305883656247e-04 -1.995097587838e-04 0.0 
-1.995097587838e-04 4.530704725064e-03 0.0 
0.0 0.0 0.0 
3.500311647265e-03 5.406780920446e-04 0.0 
5.406780920446e-04 8.712900317385e-04 0.0 
0.0 0.0 0.0 
1.484350059541e-04 -1.848062430702e-04 0.0 
-1.848062430702e-04 4.839230641478e-03 0.0 
0.0 0.0 0.0 
-9.225062448085e-04 3.264399399935e-03 0.0 
3.264399399935e-03 9.735892832827e-03 0.0 
0.0 0.0 0.0 
-1.931015789768e-03 2.730745513945e-03 0.0 
2.730745513945e-03 1.407144218282e-02 0.0 
0.0 0.0 0.0 
-1.857338582639e-05 -1.585981412139e-04 0.0 
-1.585981412139e-04 5.128440479413e-03 0.0 
0.0 0.0 0.0 
-4.104877312420e-04 3.324783205176e-03 0.0 
3.324783205176e-03 1.026781468430e-02 0.0 
0.0 0.0 0.0 
5.398575025463e-04 -1.457621273384e-04 0.0 
-1.457621273384e-04 6.255530175124e-04 0.0 
0.0 0.0 0.0 
2.765737193008e-03 3.304519344903e-03 0.0 
3.304519344903e-03 5.620232776447e-03 0.0 
0.0 0.0 0.0 
7.141145688550e-05 -3.600611971490e-05 0.0 
-3.600611971490e-05 6.362566068936e-03 0.0 
0.0 0.0 0.0 
1.810653545170e-03 -2.930093200147e-04 0.0 
-2.930093200147e-04 1.486898808103e-03 0.0 
0.0 0.0 0.0 
2.292804830181e-03 5.084938958990e-04 0.0 
5.084938958990e-04 3.113517735790e-03 0.0 
0.0 0.0 0.0 
-1.794680556583e-03 2.914277302863e-03 0.0 
2.914277302863e-03 1.427736409208e-02 0.0 
0.0 0.0 0.0 
-7.719026600041e-04 2.451484171841e-03 0.0 
2.451484171841e-03 8.264691218038e-03 0.0 
0.0 0.0 0.0 
2.075466174561e-03 6.084285574777e-04 0.0 
6.084285574777e-04 3.765410435891e-03 0.0 
0.0 0.0 0.0 
6.320952963364e-04 3.888098933578e-03 0.0 
3.888098933578e-03 9.743542948582e-03 0.0 
0.0 0.0 0.0 
2.759086959211e-03 3.110375507204e-03 0.0 
3.110375507204e-03 5.562835325502e-03 0.0 
0.0 0.0 0.0 
3.446814798341e-03 2.371148901899e-03 0.0 
2.371148901899e-03 3.488089974387e-03 0.0 
0.0 0.0 0.0 
1.823872873701e-03 7.012212884901e-04 0.0 
7.012212884901e-04 4.463568899237e-03 0.0 
0.0 0.0 0.0 
-2.641918818218e-04 2.954053083501e-03 0.0 
2.954053083501e-03 7.194594445914e-03 0.0 
0.0 0.0 0.0 
9.322521961640e-04 -4.430812835797e-04 0.0 
-4.430812835797e-04 1.390920196156e-03 0.0 
0.0 0.0 0.0 
7.646689310876e-04 -4.625225164246e-04 0.0 
-4.625225164246e-04 1.173929767429e-03 0.0 
0.0 0.0 0.0 
3.454979306799e-03 4.817709288324e-04 0.0 
4.817709288324e-04 9.397581773290e-04 0.0 
0.0 0.0 0.0 
3.999122961587e-04 4.047613516741e-03 0.0 
4.047613516741e-03 1.047253659208e-02 0.0 
0.0 0.0 0.0 
1.193195889668e-03 3.413208646994e-06 0.0 
3.413208646994e-06 3.425769449491e-04 0.0 
0.0 0.0 0.0 
-1.581105642253e-03 3.148296347340e-03 0.0 
3.148296347340e-03 1.329168842193e-02 0.0 
0.0 0.0 0.0 
6.607100126805e-04 -5.190187175040e-04 0.0 
-5.190187175040e-04 7.701490740100e-04 0.0 
0.0 0.0 0.0 
3.307047614906e-03 2.416530273492e-04 0.0 
2.416530273492e-04 7.290067962353e-04 0.0 
0.0 0.0 0.0 
2.079484849786e-03 2.909759817444e-03 0.0 
2.909759817444e-03 6.681647546084e-03 0.0 
0.0 0.0 0.0 
-1.373676761534e-03 2.628154802609e-05 0.0 
2.628154802609e-05 1.591416141015e-02 0.0 
0.0 0.0 0.0 
3.040590440594e-03 1.961980722060e-04 0.0 
1.961980722060e-04 1.048666747398e-03 0.0 
0.0 0.0 0.0 
6.702482737907e-04 8.206123183112e-06 0.0 
8.206123183112e-06 1.724573007535e-03 0.0 
0.0 0.0 0.0 
2.859331501467e-03 5.216183034972e-06 0.0 
5.216183034972e-06 8.947500153172e-04 0.0 
0.0 0.0 0.0 
3.164427472206e-03 2.490304788598e-03 0.0 
2.490304788598e-03 4.199815104816e-03 0.0 
0.0 0.0 0.0 
2.588763697182e-03 -2.089944555775e-05 0.0 
-2.089944555775e-05 1.239955475094e-03 0.0 
0.0 0.0 0.0 
2.356253385364e-03 -1.692262098531e-04 0.0 
-1.692262098531e-04 1.154304610817e-03 0.0 
0.0 0.0 0.0 
-6.612357740232e-04 7.851618513347e-04 0.0 
7.851618513347e-04 1.729267181210e-02 0.0 
0.0 0.0 0.0 
2.107204533332e-03 -1.856917425992e-04 0.0 
-1.856917425992e-04 1.494052645984e-03 0.0 
0.0 0.0 0.0 
-2.670925521610e-04 2.265780902793e-04 0.0 
2.265780902793e-04 1.750443201423e-02 0.0 
0.0 0.0 0.0 
6.920190765358e-05 5.702384595309e-05 0.0 
5.702384595309e-05 7.228238872828e-03 0.0 
0.0 0.0 0.0 
-1.512046720623e-03 2.566487136528e-06 0.0 
2.566487136528e-06 1.515847512388e-02 0.0 
0.0 0.0 0.0 
-7.144352403347e-04 2.061631982948e-03 0.0 
2.061631982948e-03 6.958354839922e-03 0.0 
0.0 0.0 0.0 
-1.073440879775e-03 1.336431822401e-04 0.0 
1.336431822401e-04 7.715456076669e-04 0.0 
0.0 0.0 0.0 
8.608132317400e-07 2.642582673757e-03 0.0 
2.642582673757e-03 5.554933014826e-03 0.0 
0.0 0.0 0.0 
1.694695792893e-03 -3.772973608984e-04 0.0 
-3.772973608984e-04 1.205362815204e-03 0.0 
0.0 0.0 0.0 
-1.377055424290e-03 3.260862823672e-03 0.0 
3.260862823672e-03 1.234288409987e-02 0.0 
0.0 0.0 0.0 
-1.514184941268e-03 2.430158772655e-05 0.0 
2.430158772655e-05 1.517905194818e-02 0.0 
0.0 0.0 0.0 
1.296181271353e-03 -4.296433324275e-04 0.0 
-4.296433324275e-04 1.309822700448e-03 0.0 
0.0 0.0 0.0 
9.864294534073e-05 4.707154778563e-03 0.0 
4.707154778563e-03 1.272148108573e-02 0.0 
0.0 0.0 0.0 
3.617876612928e-04 3.490872785853e-03 0.0 
3.490872785853e-03 1.059855876442e-02 0.0 
0.0 0.0 0.0 
-1.210897591269e-03 1.188639836884e-04 0.0 
1.188639836884e-04 1.642313075546e-02 0.0 
0.0 0.0 0.0 
1.343842478158e-03 1.832658251537e-03 0.0 
1.832658251537e-03 6.904756979500e-03 0.0 
0.0 0.0 0.0 
2.534213265520e-03 2.862313104206e-03 0.0 
2.862313104206e-03 5.763121063803e-03 0.0 
0.0 0.0 0.0 
-7.429225858869e-04 1.032625155334e-04 0.0 
1.032625155334e-04 1.709835899124e-02 0.0 
0.0 0.0 0.0 
-1.592122837674e-03 2.135564306855e-06 0.0 
2.135564306855e-06 1.484080118544e-02 0.0 
0.0 0.0 0.0 
1.697440686736e-04 -4.614095173715e-04 0.0 
-4.614095173715e-04 4.319671825852e-04 0.0 
0.0 0.0 0.0 
-2.054974174311e-04 -5.355514956269e-05 0.0 
-5.355514956269e-05 5.611811215117e-03 0.0 
0.0 0.0 0.0 
-7.422947286494e-04 2.042774243130e-03 0.0 
2.042774243130e-03 5.586323978747e-03 0.0 
0.0 0.0 0.0 
-1.759458948113e-04 1.898041530847e-03 0.0 
1.898041530847e-03 4.295028822857e-03 0.0 
0.0 0.0 0.0 
-2.797936698804e-04 1.390664747419e-03 0.0 
1.390664747419e-03 3.111764314203e-03 0.0 
0.0 0.0 0.0 
2.780546230570e-04 -1.273687153094e-04 0.0 
-1.273687153094e-04 2.521667505586e-03 0.0 
0.0 0.0 0.0 
5.230374310614e-04 -6.459847642044e-04 0.0 
-6.459847642044e-04 6.332086249822e-04 0.0 
0.0 0.0 0.0 
-7.081806449583e-04 1.890986569649e-03 0.0 
1.890986569649e-03 4.260370680510e-03 0.0 
0.0 0.0 0.0 
7.708315340351e-04 2.072507777122e-03 0.0 
2.072507777122e-03 8.302109336977e-03 0.0 
0.0 0.0 0.0 
-1.844113853798e-03 1.345762572652e-04 0.0 
1.345762572652e-04 1.530534186696e-02 0.0 
0.0 0.0 0.0 
1.817201575520e-03 3.144681922132e-03 0.0 
3.144681922132e-03 7.400964368694e-03 0.0 
0.0 0.0 0.0 
-7.613737439721e-04 1.670820581535e-03 0.0 
1.670820581535e-03 2.920952755338e-03 0.0 
0.0 0.0 0.0 
-1.084788830208e-03 2.150901343113e-03 0.0 
2.150901343113e-03 1.686050050636e-02 0.0 
0.0 0.0 0.0 
7.956542622106e-04 3.148112767239e-03 0.0 
3.148112767239e-03 9.376405815037e-03 0.0 
0.0 0.0 0.0 
1.669044556311e-04 5.016426708982e-04 0.0 
5.016426708982e-04 7.803887132310e-03 0.0 
0.0 0.0 0.0 
1.330772724670e-03 3.146330565878e-03 0.0 
3.146330565878e-03 8.330814151879e-03 0.0 
0.0 0.0 0.0 
-3.799960979550e-04 1.052669414927e-03 0.0 
1.052669414927e-03 2.022130445725e-03 0.0 
0.0 0.0 0.0 
-2.450308734688e-03 8.984562808950e-04 0.0 
8.984562808950e-04 1.562507063801e-02 0.0 
0.0 0.0 0.0 
6.655227727879e-04 4.241954145970e-03 0.0 
4.241954145970e-03 1.089095260065e-02 0.0 
0.0 0.0 0.0 
-1.125863934094e-03 2.190949679980e-04 0.0 
2.190949679980e-04 1.667970340603e-02 0.0 
0.0 0.0 0.0 
1.261109412945e-04 3.761530525361e-04 0.0 
3.761530525361e-04 7.672059845899e-03 0.0 
0.0 0.0 0.0 
-2.053104187747e-03 2.662997071933e-04 0.0 
2.662997071933e-04 1.530666832742e-02 0.0 
0.0 0.0 0.0 
-5.335676556527e-04 5.079490817871e-04 0.0 
5.079490817871e-04 1.733367991031e-02 0.0 
0.0 0.0 0.0 
9.826563754378e-04 -3.861605791782e-04 0.0 
-3.861605791782e-04 9.946470875781e-04 0.0 
0.0 0.0 0.0 
-4.862243600527e-04 2.591951814991e-04 0.0 
2.591951814991e-04 1.734011731312e-02 0.0 
0.0 0.0 0.0 
-8.416334629609e-04 3.695653423269e-03 0.0 
3.695653423269e-03 1.224340021358e-02 0.0 
0.0 0.0 0.0 
-1.528532887689e-03 1.130383143920e-04 0.0 
1.130383143920e-04 1.569104053669e-02 0.0 
0.0 0.0 0.0 
-2.578748316836e-03 1.588213034465e-03 0.0 
1.588213034465e-03 1.509978593945e-02 0.0 
0.0 0.0 0.0 
1.080339429972e-04 5.286324489193e-05 0.0 
5.286324489193e-05 6.972780078059e-03 0.0 
0.0 0.0 0.0 
-9.569495101185e-04 4.044361350047e-03 0.0 
4.044361350047e-03 1.445127245269e-02 0.0 
0.0 0.0 0.0 
-4.313342947271e-04 8.330975368019e-04 0.0 
8.330975368019e-04 1.524318705446e-03 0.0 
0.0 0.0 0.0 
-1.258302878263e-03 1.817769166549e-04 0.0 
1.817769166549e-04 1.641853766489e-02 0.0 
0.0 0.0 0.0 
9.469500955959e-05 -2.624033806314e-04 0.0 
-2.624033806314e-04 3.223308763835e-03 0.0 
0.0 0.0 0.0 
-5.299172215096e-04 -7.399455903183e-05 0.0 
-7.399455903183e-05 8.629387622136e-04 0.0 
0.0 0.0 0.0 
4.090156962508e-04 6.430955719221e-04 0.0 
6.430955719221e-04 7.401008629515e-03 0.0 
0.0 0.0 0.0 
1.315144610410e-04 4.338262769575e-03 0.0 
4.338262769575e-03 1.171533237797e-02 0.0 
0.0 0.0 0.0 
1.710178300181e-04 1.173416131801e-04 0.0 
1.173416131801e-04 7.008632191960e-03 0.0 
0.0 0.0 0.0 
1.453804287164e-03 -2.090181323481e-06 0.0 
-2.090181323481e-06 -2.676402405967e-04 0.0 
0.0 0.0 0.0 
3.153538886581e-04 -2.734893415005e-04 0.0 
-2.734893415005e-04 3.175080180959e-04 0.0 
0.0 0.0 0.0 
4.618817488564e-04 9.142049015065e-04 0.0 
9.142049015065e-04 7.684870476828e-03 0.0 
0.0 0.0 0.0 
5.309664583225e-04 4.653521486440e-03 0.0 
4.653521486440e-03 1.173490645866e-02 0.0 
0.0 0.0 0.0 
1.456522153140e-03 -5.445185369226e-04 0.0 
-5.445185369226e-04 6.543638835205e-04 0.0 
0.0 0.0 0.0 
-4.608089759050e-04 1.990495553003e-03 0.0 
1.990495553003e-03 1.708032247860e-02 0.0 
0.0 0.0 0.0 
-6.306481096489e-04 6.707683156810e-04 0.0 
6.707683156810e-04 1.076837533406e-03 0.0 
0.0 0.0 0.0 
-1.630115109821e-03 1.174931564822e-05 0.0 
1.174931564822e-05 1.481211420548e-02 0.0 
0.0 0.0 0.0 
5.797835588400e-04 -9.546478370177e-05 0.0 
-9.546478370177e-05 2.127491606994e-04 0.0 
0.0 0.0 0.0 
9.577534115741e-05 2.332235861590e-04 0.0 
2.332235861590e-04 7.545603292093e-03 0.0 
0.0 0.0 0.0 
-7.708555844565e-04 1.333503517219e-03 0.0 
1.333503517219e-03 1.724712735384e-02 0.0 
0.0 0.0 0.0 
-5.284207134704e-05 -1.791162183211e-04 0.0 
-1.791162183211e-04 3.727453699817e-03 0.0 
0.0 0.0 0.0 
-2.818070572511e-03 1.180412804410e-03 0.0 
1.180412804410e-03 1.510778012598e-02 0.0 
0.0 0.0 0.0 
4.454906245103e-04 -2.827847418889e-05 0.0 
-2.827847418889e-05 2.187756708896e-03 0.0 
0.0 0.0 0.0 
1.031114633924e-03 3.755537208203e-03 0.0 
3.755537208203e-03 9.507671987990e-03 0.0 
0.0 0.0 0.0 
3.628848733275e-04 -5.443856565997e-04 0.0 
-5.443856565997e-04 6.068128768402e-04 0.0 
0.0 0.0 0.0 
-6.225125883960e-04 9.578251016968e-04 0.0 
9.578251016968e-04 1.732137654044e-02 0.0 
0.0 0.0 0.0 
5.381107292437e-04 1.248636763030e-03 0.0 
1.248636763030e-03 7.934174713508e-03 0.0 
0.0 0.0 0.0 
-1.156361075502e-03 2.996535255316e-03 0.0 
2.996535255316e-03 1.616140886563e-02 0.0 
0.0 0.0 0.0 
3.155439334011e-04 2.547145025875e-03 0.0 
2.547145025875e-03 9.723609025377e-03 0.0 
0.0 0.0 0.0 
-6.008854788059e-04 2.859763003674e-04 0.0 
2.859763003674e-04 8.802953312192e-04 0.0 
0.0 0.0 0.0 
6.642425321438e-04 3.367500278945e-03 0.0 
3.367500278945e-03 9.883715368401e-03 0.0 
0.0 0.0 0.0 
9.499311568332e-04 1.505856678189e-03 0.0 
1.505856678189e-03 7.352505458961e-03 0.0 
0.0 0.0 0.0 
-1.571897441229e-03 1.741333058076e-05 0.0 
1.741333058076e-05 1.482984489148e-02 0.0 
0.0 0.0 0.0 
-1.157169230757e-03 3.484953489715e-03 0.0 
3.484953489715e-03 1.538204879332e-02 0.0 
0.0 0.0 0.0 
1.443896347514e-04 -1.609949658004e-04 0.0 
-1.609949658004e-04 2.941768030195e-03 0.0 
0.0 0.0 0.0 
5.655167008600e-04 -1.239545047043e-04 0.0 
-1.239545047043e-04 8.699530080022e-04 0.0 
0.0 0.0 0.0 
-2.161171277750e-04 1.101403531364e-04 0.0 
1.101403531364e-04 1.753320106199e-02 0.0 
0.0 0.0 0.0 
1.656673423681e-03 -2.476430172240e-05 0.0 
-2.476430172240e-05 -6.674890899635e-04 0.0 
0.0 0.0 0.0 
-1.557092468225e-03 -5.979462044764e-06 0.0 
-5.979462044764e-06 1.479998915454e-02 0.0 
0.0 0.0 0.0 
5.876843388597e-05 3.666014187306e-05 0.0 
3.666014187306e-05 7.292288658009e-03 0.0 
0.0 0.0 0.0 
1.178760922400e-03 -2.064214944123e-05 0.0 
-2.064214944123e-05 2.905232088523e-04 0.0 
0.0 0.0 0.0 
-1.478216393160e-03 2.607573880326e-05 0.0 
2.607573880326e-05 1.545167266585e-02 0.0 
0.0 0.0 0.0 
4.127233273447e-04 4.759488270740e-03 0.0 
4.759488270740e-03 1.218529991732e-02 0.0 
0.0 0.0 0.0 
-1.862311530402e-04 -4.871593146504e-05 0.0 
-4.871593146504e-05 4.617170145195e-03 0.0 
0.0 0.0 0.0 
-8.764558082867e-04 1.652109535870e-04 0.0 
1.652109535870e-04 1.695119670337e-02 0.0 
0.0 0.0 0.0 
9.577880118870e-04 -7.027252550795e-04 0.0 
-7.027252550795e-04 5.948696379296e-04 0.0 
0.0 0.0 0.0 
-1.198792210069e-03 3.366574980593e-05 0.0 
3.366574980593e-05 7.564868311678e-04 0.0 
0.0 0.0 0.0 
-1.327838359848e-03 7.009484772885e-05 0.0 
7.009484772885e-05 1.610918108365e-02 0.0 
0.0 0.0 0.0 
7.292514974026e-04 2.952898516118e-03 0.0 
2.952898516118e-03 9.275242664929e-03 0.0 
0.0 0.0 0.0 
-1.038738651926e-03 2.457467673579e-03 0.0 
2.457467673579e-03 1.671060629914e-02 0.0 
0.0 0.0 0.0 
-1.468373318323e-03 1.280502252160e-04 0.0 
1.280502252160e-04 1.588864934722e-02 0.0 
0.0 0.0 0.0 
-7.708052451953e-05 6.227004440320e-04 0.0 
6.227004440320e-04 1.613436346625e-03 0.0 
0.0 0.0 0.0 
5.270039415444e-04 4.673773998556e-03 0.0 
4.673773998556e-03 1.165503662301e-02 0.0 
0.0 0.0 0.0 
-9.060420676773e-05 -1.869857306776e-04 0.0 
-1.869857306776e-04 4.024535319911e-03 0.0 
0.0 0.0 0.0 
9.031710529095e-04 4.130920651543e-03 0.0 
4.130920651543e-03 1.023876657912e-02 0.0 
0.0 0.0 0.0 
1.011333839501e-03 1.901918244694e-03 0.0 
1.901918244694e-03 7.651872038161e-03 0.0 
0.0 0.0 0.0 
-8.530361321807e-04 7.228561151964e-04 0.0 
7.228561151964e-04 7.542950303110e-04 0.0 
0.0 0.0 0.0 
-2.066644157051e-04 -3.900585703398e-05 0.0 
-3.900585703398e-05 4.929052130954e-03 0.0 
0.0 0.0 0.0 
4.293973324669e-04 -1.467393537514e-04 0.0 
-1.467393537514e-04 2.664102826190e-04 0.0 
0.0 0.0 0.0 
2.667257473203e-04 3.904898088926e-04 0.0 
3.904898088926e-04 7.352604005166e-03 0.0 
0.0 0.0 0.0 
-1.325384385550e-04 -1.374655183416e-04 0.0 
-1.374655183416e-04 4.229251482244e-03 0.0 
0.0 0.0 0.0 

TENSORS node_materi_strain_plasti float
1.414366735021e-03 4.304510292631e-06 0.0 
4.304510292631e-06 -3.813779732484e-04 0.0 
0.0 0.0 -2.478939419846e-04 
-7.310688473431e-04 -7.116616390430e-05 0.0 
-7.116616390430e-05 4.756014016849e-03 0.0 
0.0 0.0 -7.207122401682e-04 
-8.231226544767e-04 9.371518360601e-05 0.0 
9.371518360601e-05 8.124100442821e-03 0.0 
0.0 0.0 -8.535637312820e-04 
-1.328526300077e-03 -9.718698781146e-05 0.0 
-9.718698781146e-05 8.927311597372e-03 0.0 
0.0 0.0 -1.332621093165e-03 
1.061405770675e-03 -4.268430181866e-06 0.0 
-4.268430181866e-06 -3.972350549961e-04 0.0 
0.0 0.0 -2.279891050215e-04 
8.544536225204e-04 5.410035541390e-05 0.0 
5.410035541390e-05 -1.788161835362e-04 0.0 
0.0 0.0 -1.619080202416e-04 
6.818702401026e-04 6.798518167182e-05 0.0 
6.798518167182e-05 3.129721638248e-04 0.0 
0.0 0.0 -2.266090766362e-04 
4.712026976119e-04 7.539215895479e-05 0.0 
7.539215895479e-05 9.775068533961e-04 0.0 
0.0 0.0 -2.937643997455e-04 
1.811079753871e-04 5.642557302842e-05 0.0 
5.642557302842e-05 1.661880118548e-03 0.0 
0.0 0.0 -3.610469555860e-04 
-1.383425681500e-04 5.814588410286e-05 0.0 
5.814588410286e-05 2.377858384938e-03 0.0 
0.0 0.0 -4.277228197774e-04 
-4.121032061998e-04 7.039439130807e-05 0.0 
7.039439130807e-05 3.047973947289e-03 0.0 
0.0 0.0 -4.940119848999e-04 
-5.560650258811e-04 6.506894170197e-05 0.0 
6.506894170197e-05 3.586726731214e-03 0.0 
0.0 0.0 -5.601824523721e-04 
-6.219544696600e-04 6.499150418632e-05 0.0 
6.499150418632e-05 4.044891981262e-03 0.0 
0.0 0.0 -6.267196139102e-04 
-6.989301157160e-04 8.304445482454e-05 0.0 
8.304445482454e-05 4.516508974108e-03 0.0 
0.0 0.0 -6.936951881209e-04 
-7.842499376890e-04 1.246455426365e-04 0.0 
1.246455426365e-04 4.999267285509e-03 0.0 
0.0 0.0 -7.320510494616e-04 
-8.342582919821e-04 1.318130622285e-04 0.0 
1.318130622285e-04 5.410461430457e-03 0.0 
0.0 0.0 -7.474255224546e-04 
-8.797880570826e-04 1.712667823801e-04 0.0 
1.712667823801e-04 5.740969201914e-03 0.0 
0.0 0.0 -7.603827766601e-04 
-9.530722884735e-04 6.625176197146e-05 0.0 
6.625176197146e-05 6.166918004808e-03 0.0 
0.0 0.0 -7.622621418824e-04 
-9.951036533964e-04 6.246900374542e-05 0.0 
6.246900374542e-05 6.569622339495e-03 0.0 
0.0 0.0 -7.710517825858e-04 
-9.478346935364e-04 6.332562751466e-05 0.0 
6.332562751466e-05 6.909856636258e-03 0.0 
0.0 0.0 -7.861673238407e-04 
-8.421229323772e-04 5.747156408218e-05 0.0 
5.747156408218e-05 7.209576203363e-03 0.0 
0.0 0.0 -8.032944280533e-04 
-7.660278097284e-04 7.192028566559e-05 0.0 
7.192028566559e-05 7.528228891085e-03 0.0 
0.0 0.0 -8.214838211031e-04 
-7.675489011279e-04 9.360306566605e-05 0.0 
9.360306566605e-05 7.916688198632e-03 0.0 
0.0 0.0 -8.387538984033e-04 
-1.328056332164e-03 -6.444803612955e-06 0.0 
-6.444803612955e-06 8.942057407760e-03 0.0 
0.0 0.0 -1.336902025401e-03 
-1.334245523286e-03 -2.833532806514e-06 0.0 
-2.833532806514e-06 8.927309494995e-03 0.0 
0.0 0.0 -1.332945767435e-03 
-1.325112249469e-03 -6.138577691463e-05 0.0 
-6.138577691463e-05 8.907839872641e-03 0.0 
0.0 0.0 -1.334903170087e-03 
-1.314471395648e-03 3.707659558597e-05 0.0 
3.707659558597e-05 8.899097344207e-03 0.0 
0.0 0.0 -1.334459899807e-03 
-1.294377964072e-03 6.909055596047e-06 0.0 
6.909055596047e-06 8.868556812517e-03 0.0 
0.0 0.0 -1.332067731643e-03 
-1.263596736150e-03 3.216291520398e-05 0.0 
3.216291520398e-05 8.839573465140e-03 0.0 
0.0 0.0 -1.335050935171e-03 
-1.214433771047e-03 6.117038020988e-05 0.0 
6.117038020988e-05 8.808566160635e-03 0.0 
0.0 0.0 -1.334125060174e-03 
-1.176399291672e-03 9.029587354806e-05 0.0 
9.029587354806e-05 8.758640195392e-03 0.0 
0.0 0.0 -1.329952729904e-03 
-1.109591239696e-03 1.185579008800e-04 0.0 
1.185579008800e-04 8.699316334161e-03 0.0 
0.0 0.0 -1.326234782712e-03 
-1.020698383318e-03 2.893517323520e-04 0.0 
2.893517323520e-04 8.599228399366e-03 0.0 
0.0 0.0 -1.305238976536e-03 
-9.570410544788e-04 3.492008512829e-04 0.0 
3.492008512829e-04 8.509180639838e-03 0.0 
0.0 0.0 -1.291477671649e-03 
-7.703885689528e-04 5.918536616511e-04 0.0 
5.918536616511e-04 8.321646601291e-03 0.0 
0.0 0.0 -1.277332791209e-03 
-5.896087126299e-04 8.556686734001e-04 0.0 
8.556686734001e-04 8.156480574075e-03 0.0 
0.0 0.0 -1.255868105632e-03 
-3.715920407102e-04 1.205938282388e-03 0.0 
1.205938282388e-03 7.906430433817e-03 0.0 
0.0 0.0 -1.237469232590e-03 
-2.049227672373e-04 1.482828871730e-03 0.0 
1.482828871730e-03 7.723746710664e-03 0.0 
0.0 0.0 -1.212881504375e-03 
-4.666531344967e-06 1.834030012360e-03 0.0 
1.834030012360e-03 7.485063545627e-03 0.0 
0.0 0.0 -1.191169224271e-03 
1.495506881701e-04 2.051738414815e-03 0.0 
2.051738414815e-03 7.311398066597e-03 0.0 
0.0 0.0 -1.172220334446e-03 
1.873146023866e-04 2.072827129828e-03 0.0 
2.072827129828e-03 7.293770004407e-03 0.0 
0.0 0.0 -1.150908359779e-03 
2.217660718872e-04 2.035205117443e-03 0.0 
2.035205117443e-03 7.253798597414e-03 0.0 
0.0 0.0 -1.137373105189e-03 
1.652088362367e-04 1.872005613491e-03 0.0 
1.872005613491e-03 7.297689615270e-03 0.0 
0.0 0.0 -1.122751951729e-03 
1.033578029973e-04 1.719952561657e-03 0.0 
1.719952561657e-03 7.351882274818e-03 0.0 
0.0 0.0 -1.106641583861e-03 
3.884977732148e-05 1.531089006111e-03 0.0 
1.531089006111e-03 7.414220141038e-03 0.0 
0.0 0.0 -1.091172941433e-03 
-3.733430906711e-05 1.373511048377e-03 0.0 
1.373511048377e-03 7.472109046273e-03 0.0 
0.0 0.0 -1.076803190858e-03 
-1.154629471690e-04 1.209974522965e-03 0.0 
1.209974522965e-03 7.536890488059e-03 0.0 
0.0 0.0 -1.062609065790e-03 
-1.927186633161e-04 1.069292548046e-03 0.0 
1.069292548046e-03 7.618891132124e-03 0.0 
0.0 0.0 -1.049456855041e-03 
-2.471180635257e-04 9.493153120413e-04 0.0 
9.493153120413e-04 7.672882210607e-03 0.0 
0.0 0.0 -1.037246795704e-03 
-3.257204962027e-04 8.278396712163e-04 0.0 
8.278396712163e-04 7.730775957008e-03 0.0 
0.0 0.0 -1.023868730268e-03 
-3.830742444301e-04 7.196115003968e-04 0.0 
7.196115003968e-04 7.795655376542e-03 0.0 
0.0 0.0 -1.011014786883e-03 
-4.395747086991e-04 6.311059139163e-04 0.0 
6.311059139163e-04 7.841275323363e-03 0.0 
0.0 0.0 -9.984374457617e-04 
-5.076011446045e-04 5.087893372196e-04 0.0 
5.087893372196e-04 7.911719559809e-03 0.0 
0.0 0.0 -9.868951873269e-04 
-5.630399196128e-04 4.937028116574e-04 0.0 
4.937028116574e-04 7.951136560082e-03 0.0 
0.0 0.0 -9.748224283634e-04 
-5.855655387660e-04 4.152077429970e-04 0.0 
4.152077429970e-04 7.951254251561e-03 0.0 
0.0 0.0 -9.622106567937e-04 
-6.390133045942e-04 3.367096945890e-04 0.0 
3.367096945890e-04 7.984192384555e-03 0.0 
0.0 0.0 -9.514188474638e-04 
-6.763287724638e-04 2.793286781560e-04 0.0 
2.793286781560e-04 8.036577907774e-03 0.0 
0.0 0.0 -9.422316263062e-04 
-7.032699107715e-04 2.436216085026e-04 0.0 
2.436216085026e-04 8.059068533008e-03 0.0 
0.0 0.0 -9.332944226354e-04 
-7.407051305348e-04 1.952884408528e-04 0.0 
1.952884408528e-04 8.080026977615e-03 0.0 
0.0 0.0 -9.248865350424e-04 
-7.561728408947e-04 1.707750840520e-04 0.0 
1.707750840520e-04 8.109893630356e-03 0.0 
0.0 0.0 -9.167749274086e-04 
-7.747344497986e-04 1.458419875658e-04 0.0 
1.458419875658e-04 8.105124510375e-03 0.0 
0.0 0.0 -9.094757467954e-04 
-7.856085249821e-04 1.146473297903e-04 0.0 
1.146473297903e-04 8.113094643306e-03 0.0 
0.0 0.0 -9.020960223383e-04 
-7.948861409725e-04 1.040690793746e-04 0.0 
1.040690793746e-04 8.107622964076e-03 0.0 
0.0 0.0 -8.947479821085e-04 
-8.120499356949e-04 6.801301680559e-05 0.0 
6.801301680559e-05 8.120577697549e-03 0.0 
0.0 0.0 -8.893419319691e-04 
-8.244271419205e-04 7.514203374798e-05 0.0 
7.514203374798e-05 8.158648079452e-03 0.0 
0.0 0.0 -8.848131280323e-04 
-8.267677221905e-04 4.346146468020e-05 0.0 
4.346146468020e-05 8.176908453971e-03 0.0 
0.0 0.0 -8.792623323095e-04 
-8.031562723842e-04 2.922540891944e-05 0.0 
2.922540891944e-05 8.077300498509e-03 0.0 
0.0 0.0 -8.725452650369e-04 
-8.357645229599e-04 3.167436809232e-05 0.0 
3.167436809232e-05 8.162565828657e-03 0.0 
0.0 0.0 -8.694009561938e-04 
-8.303915521044e-04 2.116450644596e-05 0.0 
2.116450644596e-05 8.133379925263e-03 0.0 
0.0 0.0 -8.641029100076e-04 
-8.389669609364e-04 -2.576072621468e-05 0.0 
-2.576072621468e-05 8.136707481426e-03 0.0 
0.0 0.0 -8.611192104705e-04 
-8.333294052539e-04 2.322788547711e-05 0.0 
2.322788547711e-05 8.160967505262e-03 0.0 
0.0 0.0 -8.575570721478e-04 
-8.299359191510e-04 2.261348077624e-06 0.0 
2.261348077624e-06 8.157896706035e-03 0.0 
0.0 0.0 -8.552114594519e-04 
-7.644479361829e-04 -7.854511718931e-05 0.0 
-7.854511718931e-05 4.967324475694e-03 0.0 
0.0 0.0 -7.648954205800e-04 
-8.429692067442e-04 -8.894340543483e-05 0.0 
-8.894340543483e-05 5.465473064469e-03 0.0 
0.0 0.0 -8.298981322982e-04 
-9.045101262401e-04 -8.649802336560e-05 0.0 
-8.649802336560e-05 5.927599153875e-03 0.0 
0.0 0.0 -8.959277352460e-04 
-9.682355907570e-04 -9.235019684024e-05 0.0 
-9.235019684024e-05 6.375436758553e-03 0.0 
0.0 0.0 -9.610467530554e-04 
-1.034301386645e-03 -8.131875668406e-05 0.0 
-8.131875668406e-05 6.841207604472e-03 0.0 
0.0 0.0 -1.026987810050e-03 
-1.084652817885e-03 -8.917462571028e-05 0.0 
-8.917462571028e-05 7.307643626561e-03 0.0 
0.0 0.0 -1.092790196867e-03 
-1.153469442186e-03 -7.930470280158e-05 0.0 
-7.930470280158e-05 7.768901773096e-03 0.0 
0.0 0.0 -1.158290425478e-03 
-1.218602686822e-03 -9.135197616377e-05 0.0 
-9.135197616377e-05 8.209166370611e-03 0.0 
0.0 0.0 -1.224481705251e-03 
-1.280117147855e-03 -1.008986322443e-04 0.0 
-1.008986322443e-04 8.709401710635e-03 0.0 
0.0 0.0 -1.288782062784e-03 
-1.752208263150e-05 3.240785673634e-05 0.0 
3.240785673634e-05 1.037696529891e-04 0.0 
0.0 0.0 -2.939528373048e-05 
-1.459218172126e-03 1.713311244902e-03 0.0 
1.713311244902e-03 5.446745390701e-03 0.0 
0.0 0.0 -7.158658194789e-04 
-1.481296207291e-04 3.752029202149e-04 0.0 
3.752029202149e-04 5.005055193929e-04 0.0 
0.0 0.0 -1.088012745759e-04 
-2.891427506307e-04 1.367273892788e-03 0.0 
1.367273892788e-03 1.033383434858e-03 0.0 
0.0 0.0 -1.795578361538e-04 
-3.764865346004e-04 1.766048714647e-03 0.0 
1.766048714647e-03 1.528698119800e-03 0.0 
0.0 0.0 -2.466011808795e-04 
-4.457028965553e-04 1.730737437729e-03 0.0 
1.730737437729e-03 1.947550413738e-03 0.0 
0.0 0.0 -3.108790080757e-04 
-4.718819826512e-04 1.207475672510e-03 0.0 
1.207475672510e-03 2.379224016125e-03 0.0 
0.0 0.0 -3.778135794433e-04 
-5.453718849279e-04 1.564947382763e-03 0.0 
1.564947382763e-03 2.870822059712e-03 0.0 
0.0 0.0 -4.454545662751e-04 
-6.948624923929e-04 3.060555679796e-03 0.0 
3.060555679796e-03 3.423136771603e-03 0.0 
0.0 0.0 -5.121313000160e-04 
-9.492420708142e-04 4.814568433608e-03 0.0 
4.814568433608e-03 4.073569958254e-03 0.0 
0.0 0.0 -5.789936928845e-04 
-1.500433120863e-03 5.935253339675e-03 0.0 
5.935253339675e-03 5.030524988296e-03 0.0 
0.0 0.0 -6.458622116531e-04 
-7.239366116732e-04 3.169028621283e-05 0.0 
3.169028621283e-05 4.738774373323e-03 0.0 
0.0 0.0 -7.167504868538e-04 
-7.146899977055e-04 1.825675316579e-05 0.0 
1.825675316579e-05 4.744500994597e-03 0.0 
0.0 0.0 -7.184827375020e-04 
-7.220195667396e-04 9.955617265671e-06 0.0 
9.955617265671e-06 4.744209281667e-03 0.0 
0.0 0.0 -7.186786903937e-04 
-7.195167507077e-04 -4.090117067397e-06 0.0 
-4.090117067397e-06 4.727960284404e-03 0.0 
0.0 0.0 -7.169675978895e-04 
-7.157118783183e-04 1.000400605147e-05 0.0 
1.000400605147e-05 4.806352240840e-03 0.0 
0.0 0.0 -7.238546058846e-04 
-7.167757422874e-04 9.862997110641e-06 0.0 
9.862997110641e-06 4.746941185892e-03 0.0 
0.0 0.0 -7.185860072230e-04 
-7.057318175599e-04 -1.794595285416e-05 0.0 
-1.794595285416e-05 4.734223114170e-03 0.0 
0.0 0.0 -7.170630917064e-04 
-7.078445996438e-04 1.935375642070e-05 0.0 
1.935375642070e-05 4.754253872235e-03 0.0 
0.0 0.0 -7.174139623878e-04 
-7.216541372050e-04 -1.661627060867e-06 0.0 
-1.661627060867e-06 4.777425000757e-03 0.0 
0.0 0.0 -7.207851870574e-04 
-7.266636292901e-04 1.146480479962e-05 0.0 
1.146480479962e-05 4.774807952892e-03 0.0 
0.0 0.0 -7.195160023472e-04 
-7.122931693663e-04 9.682189882747e-06 0.0 
9.682189882747e-06 4.766361153699e-03 0.0 
0.0 0.0 -7.186294792877e-04 
-7.223758526161e-04 -5.773972664842e-07 0.0 
-5.773972664842e-07 4.760731689836e-03 0.0 
0.0 0.0 -7.186194644340e-04 
-7.139375811903e-04 3.527894913646e-06 0.0 
3.527894913646e-06 4.752952638331e-03 0.0 
0.0 0.0 -7.192946965590e-04 
-1.094400516486e-03 3.792607686031e-04 0.0 
3.792607686031e-04 5.141250008720e-03 0.0 
0.0 0.0 -7.207925953812e-04 
-2.592440264177e-05 -1.590076434165e-05 0.0 
-1.590076434165e-05 1.361807839618e-04 0.0 
0.0 0.0 -2.981554499673e-05 
-3.446067835928e-05 -4.722769695024e-06 0.0 
-4.722769695024e-06 1.514232641040e-04 0.0 
0.0 0.0 -3.001360406192e-05 
-2.620211846520e-05 6.831953425635e-06 0.0 
6.831953425635e-06 1.525132512347e-04 0.0 
0.0 0.0 -2.891678940537e-05 
-2.102380146663e-05 -2.091063164763e-05 0.0 
-2.091063164763e-05 1.471592605260e-04 0.0 
0.0 0.0 -2.889836327124e-05 
-3.364373544555e-05 -3.089965635262e-05 0.0 
-3.089965635262e-05 1.595260388365e-04 0.0 
0.0 0.0 -3.040745255895e-05 
-4.176671741939e-05 -6.138377296836e-06 0.0 
-6.138377296836e-06 1.798263625009e-04 0.0 
0.0 0.0 -3.068777868300e-05 
-3.824342451589e-05 5.591674158904e-07 0.0 
5.591674158904e-07 1.791426173783e-04 0.0 
0.0 0.0 -3.058835961954e-05 
-3.226360630243e-05 -1.341036859016e-06 0.0 
-1.341036859016e-06 1.722310666212e-04 0.0 
0.0 0.0 -3.053879953887e-05 
-3.075195274388e-05 -3.753502375142e-06 0.0 
-3.753502375142e-06 1.736984769829e-04 0.0 
0.0 0.0 -3.044251428418e-05 
-2.638860610350e-05 -7.894449171776e-06 0.0 
-7.894449171776e-06 1.709687444737e-04 0.0 
0.0 0.0 -3.048531495051e-05 
-2.681419529698e-05 -1.626482453994e-05 0.0 
-1.626482453994e-05 1.776638784057e-04 0.0 
0.0 0.0 -3.060061046523e-05 
-4.178895109067e-05 4.651397470065e-06 0.0 
4.651397470065e-06 1.936858804511e-04 0.0 
0.0 0.0 -3.133350520012e-05 
2.229443756905e-04 2.049407540202e-05 0.0 
2.049407540202e-05 9.944158648749e-05 0.0 
0.0 0.0 -9.841035336821e-05 
9.416783677157e-04 8.290586089961e-06 0.0 
8.290586089961e-06 -1.870495519807e-04 0.0 
0.0 0.0 -1.857980273976e-04 
1.489185643153e-03 1.259938638732e-05 0.0 
1.259938638732e-05 -4.056702554566e-04 0.0 
0.0 0.0 -2.280752549285e-04 
1.354324425353e-03 7.000789192211e-06 0.0 
7.000789192211e-06 -3.344954694703e-04 0.0 
0.0 0.0 -2.358758425549e-04 
1.415676390429e-03 9.118618379215e-06 0.0 
9.118618379215e-06 -3.572554175030e-04 0.0 
0.0 0.0 -2.392784309660e-04 
1.627781451056e-03 1.349540383105e-05 0.0 
1.349540383105e-05 -4.751532787910e-04 0.0 
0.0 0.0 -2.296620708786e-04 
1.611725455952e-03 -6.683347493911e-06 0.0 
-6.683347493911e-06 -4.868287073190e-04 0.0 
0.0 0.0 -2.106879873139e-04 
-7.413188493731e-05 9.866591088611e-05 0.0 
9.866591088611e-05 2.503103935726e-04 0.0 
0.0 0.0 -7.119425116786e-05 
-2.351505692281e-04 9.340914442523e-04 0.0 
9.340914442523e-04 7.816287526374e-04 0.0 
0.0 0.0 -1.457676002711e-04 
-3.365285839966e-04 1.638504835167e-03 0.0 
1.638504835167e-03 1.287405627573e-03 0.0 
0.0 0.0 -2.130143027807e-04 
-3.973742680063e-04 1.709437552567e-03 0.0 
1.709437552567e-03 1.755228136463e-03 0.0 
0.0 0.0 -2.801731950103e-04 
-4.702435676671e-04 1.622228822535e-03 0.0 
1.622228822535e-03 2.215336409970e-03 0.0 
0.0 0.0 -3.440931072323e-04 
-4.971056493452e-04 1.455119537333e-03 0.0 
1.455119537333e-03 2.654735408533e-03 0.0 
0.0 0.0 -4.108392228286e-04 
-6.066713145660e-04 2.223085319933e-03 0.0 
2.223085319933e-03 3.139461553357e-03 0.0 
0.0 0.0 -4.786325096809e-04 
-7.950015585728e-04 3.966454312437e-03 0.0 
3.966454312437e-03 3.725493178620e-03 0.0 
0.0 0.0 -5.455426008747e-04 
-1.164005051793e-03 5.506904001278e-03 0.0 
5.506904001278e-03 4.494742745735e-03 0.0 
0.0 0.0 -6.123661653548e-04 
-1.967970911148e-03 5.267574789670e-03 0.0 
5.267574789670e-03 5.711609469256e-03 0.0 
0.0 0.0 -6.792803300743e-04 
-2.322094767827e-04 4.912924114315e-04 0.0 
4.912924114315e-04 1.027901858713e-03 0.0 
0.0 0.0 -1.870278901045e-04 
-4.134702948356e-04 3.703724300847e-04 0.0 
3.703724300847e-04 7.666169169871e-03 0.0 
0.0 0.0 -9.368960865760e-04 
-5.711706292197e-05 -1.132529147629e-05 0.0 
-1.132529147629e-05 2.965576224762e-04 0.0 
0.0 0.0 -5.718844814379e-05 
-5.424579011880e-05 -2.911933097956e-05 0.0 
-2.911933097956e-05 2.725297638318e-04 0.0 
0.0 0.0 -5.560925106412e-05 
-6.104909535842e-04 1.749278753505e-04 0.0 
1.749278753505e-04 7.838393344284e-03 0.0 
0.0 0.0 -8.957218077211e-04 
-3.337649457781e-04 1.166429241424e-03 0.0 
1.166429241424e-03 1.945413939245e-03 0.0 
0.0 0.0 -3.213286234882e-04 
-7.420388858076e-04 -8.411504389979e-06 0.0 
-8.411504389979e-06 4.773033968183e-03 0.0 
0.0 0.0 -7.196648892873e-04 
-1.654913210875e-04 7.465873726763e-04 0.0 
7.465873726763e-04 7.433375130738e-03 0.0 
0.0 0.0 -9.810418247784e-04 
-3.995321742086e-04 1.604637412148e-03 0.0 
1.604637412148e-03 2.759308171196e-03 0.0 
0.0 0.0 -4.497936382440e-04 
2.304924398973e-05 1.178141769032e-03 0.0 
1.178141769032e-03 7.294040180490e-03 0.0 
0.0 0.0 -1.033596370564e-03 
-6.348973550221e-04 4.220776652262e-03 0.0 
4.220776652262e-03 3.812704797750e-03 0.0 
0.0 0.0 -5.857980290939e-04 
-7.211129944102e-04 7.270192192970e-05 0.0 
7.270192192970e-05 7.963040136681e-03 0.0 
0.0 0.0 -8.718937605642e-04 
1.859440565047e-04 5.224166950745e-06 0.0 
5.224166950745e-06 1.706761116956e-04 0.0 
0.0 0.0 -1.110380340169e-04 
2.792380628429e-04 1.819119435226e-03 0.0 
1.819119435226e-03 7.070191977139e-03 0.0 
0.0 0.0 -1.089984498904e-03 
-1.319815550672e-03 2.137973690840e-03 0.0 
2.137973690840e-03 5.326252798761e-03 0.0 
0.0 0.0 -7.203075318094e-04 
-3.083417807790e-04 6.916923870321e-06 0.0 
6.916923870321e-06 2.764990751587e-03 0.0 
0.0 0.0 -4.640473930190e-04 
-9.144687101483e-04 1.166527908174e-05 0.0 
1.166527908174e-05 5.891652902769e-03 0.0 
0.0 0.0 -7.552017618007e-04 
2.117607538471e-04 2.084882640292e-03 0.0 
2.084882640292e-03 7.159745171086e-03 0.0 
0.0 0.0 -1.133933120815e-03 
-8.033224109287e-04 7.164628464048e-04 0.0 
7.164628464048e-04 8.226901672945e-03 0.0 
0.0 0.0 -1.214165452658e-03 
-1.294907136658e-03 -1.223093150101e-05 0.0 
-1.223093150101e-05 8.768222489540e-03 0.0 
0.0 0.0 -1.303238611778e-03 
-1.257118598489e-03 3.736173962339e-05 0.0 
3.736173962339e-05 8.700565353885e-03 0.0 
0.0 0.0 -1.296592776374e-03 
-1.165187601238e-03 1.380452347240e-04 0.0 
1.380452347240e-04 8.625224753232e-03 0.0 
0.0 0.0 -1.272036190196e-03 
-8.535749904201e-04 8.269132286498e-05 0.0 
8.269132286498e-05 5.032128390738e-03 0.0 
0.0 0.0 -7.522011426764e-04 
-7.523353912947e-04 1.162137769558e-05 0.0 
1.162137769558e-05 4.926512636401e-03 0.0 
0.0 0.0 -7.529849494387e-04 
-7.546537283985e-04 -1.241349829193e-05 0.0 
-1.241349829193e-05 4.950472109635e-03 0.0 
0.0 0.0 -7.580270452736e-04 
-9.976077557881e-04 -3.465320003210e-05 0.0 
-3.465320003210e-05 6.602229680106e-03 0.0 
0.0 0.0 -9.950081682429e-04 
-7.650842430825e-04 1.290590002451e-05 0.0 
1.290590002451e-05 7.972946711205e-03 0.0 
0.0 0.0 -8.558324701893e-04 
-4.947082956206e-05 -1.829296119633e-05 0.0 
-1.829296119633e-05 2.690780974868e-04 0.0 
0.0 0.0 -5.461765089471e-05 
1.094710456349e-03 1.771493440541e-05 0.0 
1.771493440541e-05 -3.873089310805e-04 0.0 
0.0 0.0 -1.886816995070e-04 
-8.484575804464e-04 -4.872692016239e-06 0.0 
-4.872692016239e-06 7.008807004758e-03 0.0 
0.0 0.0 -7.950753676290e-04 
-7.582082522979e-04 1.961281355472e-05 0.0 
1.961281355472e-05 4.902933380827e-03 0.0 
0.0 0.0 -7.500338828344e-04 
5.678755744197e-04 7.354412141274e-06 0.0 
7.354412141274e-06 6.572468359346e-04 0.0 
0.0 0.0 -2.594501920933e-04 
-4.338837139111e-04 1.254189415383e-03 0.0 
1.254189415383e-03 7.754588398254e-03 0.0 
0.0 0.0 -1.170861477824e-03 
-1.173489791661e-04 9.271296252482e-04 0.0 
9.271296252482e-04 7.434471424990e-03 0.0 
0.0 0.0 -1.008713234839e-03 
1.501315575482e-04 1.472905329307e-03 0.0 
1.472905329307e-03 7.172846540817e-03 0.0 
0.0 0.0 -1.060652840605e-03 
-2.517248810637e-04 5.769995106731e-04 0.0 
5.769995106731e-04 7.498033186046e-03 0.0 
0.0 0.0 -9.579091869706e-04 
-5.163690036369e-04 2.574056829823e-04 0.0 
2.574056829823e-04 7.761342952723e-03 0.0 
0.0 0.0 -9.193830918310e-04 
-6.266603041313e-05 2.501207789147e-06 0.0 
2.501207789147e-06 3.071735198218e-04 0.0 
0.0 0.0 -5.851952868525e-05 
-7.474245186294e-04 1.424161896041e-05 0.0 
1.424161896041e-05 4.916877911110e-03 0.0 
0.0 0.0 -7.500980793754e-04 
-6.305432801367e-04 1.118397592633e-04 0.0 
1.118397592633e-04 7.788569521833e-03 0.0 
0.0 0.0 -8.789541631454e-04 
-1.128899365850e-03 -3.031105506869e-05 0.0 
-3.031105506869e-05 7.537413441575e-03 0.0 
0.0 0.0 -1.123598490052e-03 
-5.732050020506e-05 -1.482205262673e-05 0.0 
-1.482205262673e-05 2.925850224953e-04 0.0 
0.0 0.0 -5.798785095130e-05 
-5.914251289981e-04 -6.471482804683e-06 0.0 
-6.471482804683e-06 3.820964198355e-03 0.0 
0.0 0.0 -5.937437734062e-04 
-1.314004498640e-03 -9.028129008122e-06 0.0 
-9.028129008122e-06 8.853705658513e-03 0.0 
0.0 0.0 -1.311981303940e-03 
-3.180147959046e-04 1.369703040911e-03 0.0 
1.369703040911e-03 2.339829197089e-03 0.0 
0.0 0.0 -3.897472533596e-04 
-3.060223308511e-04 8.591387501434e-04 0.0 
8.591387501434e-04 1.511096065633e-03 0.0 
0.0 0.0 -2.548795656134e-04 
-4.559087882445e-04 2.741212501367e-03 0.0 
2.741212501367e-03 3.223866784657e-03 0.0 
0.0 0.0 -5.178568985205e-04 
-1.062307030666e-03 4.722617661313e-03 0.0 
4.722617661313e-03 4.643342128259e-03 0.0 
0.0 0.0 -6.527703211191e-04 
-1.237514686216e-04 2.449016130881e-05 0.0 
2.449016130881e-05 4.874736676097e-04 0.0 
0.0 0.0 -1.118557093815e-04 
-8.696005125465e-04 -8.177489350844e-06 0.0 
-8.177489350844e-06 5.725890687358e-03 0.0 
0.0 0.0 -8.684787984471e-04 
-7.884747255880e-04 -3.446412894578e-06 0.0 
-3.446412894578e-06 8.057487163692e-03 0.0 
0.0 0.0 -8.510949361593e-04 
1.335708867906e-03 -2.822669263280e-05 0.0 
-2.822669263280e-05 -5.198496401605e-04 0.0 
0.0 0.0 -2.020269545911e-04 
-1.244012605559e-03 -1.337379541714e-07 0.0 
-1.337379541714e-07 8.417025004517e-03 0.0 
0.0 0.0 -1.253930875827e-03 
-9.271749021764e-04 4.506856075174e-04 0.0 
4.506856075174e-04 5.106525441807e-03 0.0 
0.0 0.0 -7.532271817479e-04 
-7.809836032623e-04 6.865969615095e-06 0.0 
6.865969615095e-06 5.110116270464e-03 0.0 
0.0 0.0 -7.809350190597e-04 
-8.062001814621e-04 2.173167671072e-05 0.0 
2.173167671072e-05 5.343609321704e-03 0.0 
0.0 0.0 -8.115578932774e-04 
-8.489268176994e-04 -8.110940848583e-06 0.0 
-8.110940848583e-06 5.566485028911e-03 0.0 
0.0 0.0 -8.428390908522e-04 
-8.804673106023e-04 1.251244415460e-07 0.0 
1.251244415460e-07 5.795279077470e-03 0.0 
0.0 0.0 -8.784658474099e-04 
-9.121627378672e-04 -7.430796722978e-06 0.0 
-7.430796722978e-06 6.000836909728e-03 0.0 
0.0 0.0 -9.060409163497e-04 
-8.756777626729e-04 -7.143189004735e-06 0.0 
-7.143189004735e-06 5.761383353658e-03 0.0 
0.0 0.0 -8.711257577415e-04 
-9.375016757268e-04 -9.018261483610e-06 0.0 
-9.018261483610e-06 6.200512371454e-03 0.0 
0.0 0.0 -9.341442283280e-04 
-9.034456709669e-04 -5.627619604458e-06 0.0 
-5.627619604458e-06 5.955351813444e-03 0.0 
0.0 0.0 -8.989774131092e-04 
-9.375397006910e-04 -9.487100187210e-06 0.0 
-9.487100187210e-06 6.248793060300e-03 0.0 
0.0 0.0 -9.415083590319e-04 
-9.651447206159e-04 -1.078565163387e-05 0.0 
-1.078565163387e-05 6.396664073005e-03 0.0 
0.0 0.0 -9.622976032585e-04 
-9.304266532056e-04 -6.330576673728e-06 0.0 
-6.330576673728e-06 6.148924780633e-03 0.0 
0.0 0.0 -9.268639294333e-04 
-9.923459703203e-04 -8.832674575541e-06 0.0 
-8.832674575541e-06 6.591396283472e-03 0.0 
0.0 0.0 -9.903372159162e-04 
-9.579486406670e-04 -6.976346530341e-06 0.0 
-6.976346530341e-06 6.343540435811e-03 0.0 
0.0 0.0 -9.547708836903e-04 
-8.957338589247e-04 -3.445195682079e-06 0.0 
-3.445195682079e-06 5.904490313780e-03 0.0 
0.0 0.0 -8.916807130883e-04 
-9.234034349690e-04 -3.140263271668e-06 0.0 
-3.140263271668e-06 6.097553141781e-03 0.0 
0.0 0.0 -9.194532194038e-04 
-8.597658352201e-04 -5.745984388495e-07 0.0 
-5.745984388495e-07 5.659471370407e-03 0.0 
0.0 0.0 -8.565021464485e-04 
-8.876676417698e-04 -1.521204235365e-06 0.0 
-1.521204235365e-06 5.852313305850e-03 0.0 
0.0 0.0 -8.841639842141e-04 
-9.508204613182e-04 -2.297031587579e-06 0.0 
-2.297031587579e-06 6.292146332209e-03 0.0 
0.0 0.0 -9.471984275390e-04 
-9.148993498348e-04 -3.275082318962e-06 0.0 
-3.275082318962e-06 6.045345094116e-03 0.0 
0.0 0.0 -9.118195294070e-04 
-8.520584533063e-04 -1.219021611576e-06 0.0 
-1.219021611576e-06 5.605756351829e-03 0.0 
0.0 0.0 -8.488396520500e-04 
-8.543880784929e-04 3.394887951620e-05 0.0 
3.394887951620e-05 5.772742768552e-03 0.0 
0.0 0.0 -8.764089341820e-04 
-7.989083182902e-04 2.930859401856e-05 0.0 
2.930859401856e-05 5.342249528622e-03 0.0 
0.0 0.0 -8.135623229517e-04 
-6.649078036869e-04 2.443275647383e-04 0.0 
2.443275647383e-04 5.372536855093e-03 0.0 
0.0 0.0 -8.410744910442e-04 
-6.001479662514e-04 2.786491888713e-04 0.0 
2.786491888713e-04 4.931952556925e-03 0.0 
0.0 0.0 -7.781617608290e-04 
-3.541600284749e-04 5.754506656896e-04 0.0 
5.754506656896e-04 4.850913944236e-03 0.0 
0.0 0.0 -8.056965831182e-04 
-4.080575808376e-04 5.284595452340e-04 0.0 
5.284595452340e-04 5.281088586703e-03 0.0 
0.0 0.0 -8.686949506212e-04 
-8.753960260804e-05 7.806952560880e-04 0.0 
7.806952560880e-04 4.748824503315e-03 0.0 
0.0 0.0 -8.332427817419e-04 
-7.674458117996e-05 7.959582345545e-04 0.0 
7.959582345545e-04 4.362278751935e-03 0.0 
0.0 0.0 -7.703313069557e-04 
1.906545348088e-04 9.285392731084e-04 0.0 
9.285392731084e-04 4.259167697769e-03 0.0 
0.0 0.0 -7.977945042040e-04 
1.287569822050e-04 8.824949635661e-04 0.0 
8.824949635661e-04 3.946163488606e-03 0.0 
0.0 0.0 -7.349073124327e-04 
4.278521151145e-04 9.917497214488e-04 0.0 
9.917497214488e-04 3.809582285169e-03 0.0 
0.0 0.0 -7.622392297106e-04 
1.075995965034e-03 1.502452425911e-03 0.0 
1.502452425911e-03 3.537864627567e-03 0.0 
0.0 0.0 -8.253152238873e-04 
1.349131673868e-03 1.487768411075e-03 0.0 
1.487768411075e-03 3.052343116316e-03 0.0 
0.0 0.0 -7.896995018144e-04 
6.434453173237e-04 9.975353000188e-04 0.0 
9.975353000188e-04 3.378548105867e-03 0.0 
0.0 0.0 -7.264132926704e-04 
1.601816913978e-03 1.419614471753e-03 0.0 
1.419614471753e-03 2.586124010934e-03 0.0 
0.0 0.0 -7.539848323805e-04 
8.472470541467e-04 9.621940495918e-04 0.0 
9.621940495918e-04 2.959250301968e-03 0.0 
0.0 0.0 -6.903858661722e-04 
1.831555555215e-03 1.308835266477e-03 0.0 
1.308835266477e-03 2.143644303230e-03 0.0 
0.0 0.0 -7.182351804274e-04 
1.037239853701e-03 8.940254852157e-04 0.0 
8.940254852157e-04 2.554881173697e-03 0.0 
0.0 0.0 -6.542402593883e-04 
2.024614084261e-03 1.153374702147e-03 0.0 
1.153374702147e-03 1.735108250926e-03 0.0 
0.0 0.0 -6.821763112594e-04 
2.742414640602e-03 1.499701085863e-03 0.0 
1.499701085863e-03 1.399293969936e-03 0.0 
0.0 0.0 -7.460902125261e-04 
2.824524258947e-03 1.248846021119e-03 0.0 
1.248846021119e-03 1.102668612373e-03 0.0 
0.0 0.0 -7.100832486075e-04 
2.168233816106e-03 9.587567754555e-04 0.0 
9.587567754555e-04 1.375902884571e-03 0.0 
0.0 0.0 -6.458624074531e-04 
2.850937653703e-03 9.832544329311e-04 0.0 
9.832544329311e-04 8.595678854650e-04 0.0 
0.0 0.0 -6.737786430284e-04 
2.972372972836e-03 1.133551112557e-03 0.0 
1.133551112557e-03 1.122326982556e-03 0.0 
0.0 0.0 -7.381473126730e-04 
2.926366626691e-03 8.724774331084e-04 0.0 
8.724774331084e-04 9.508775728594e-04 0.0 
0.0 0.0 -7.017500108595e-04 
2.735728999983e-03 9.436453000668e-04 0.0 
9.436453000668e-04 1.522655796258e-03 0.0 
0.0 0.0 -7.596578428935e-04 
2.676098092379e-03 7.194862458371e-04 0.0 
7.194862458371e-04 1.367863100132e-03 0.0 
0.0 0.0 -7.284597333802e-04 
2.842635683885e-03 6.242756989437e-04 0.0 
6.242756989437e-04 8.187755913310e-04 0.0 
0.0 0.0 -6.655364893108e-04 
2.583925702720e-03 5.083948450300e-04 0.0 
5.083948450300e-04 1.244494056469e-03 0.0 
0.0 0.0 -6.934067383651e-04 
2.366387492339e-03 5.817250972670e-04 0.0 
5.817250972670e-04 1.838820341763e-03 0.0 
0.0 0.0 -7.460065145556e-04 
2.284082913925e-03 4.047485246256e-04 0.0 
4.047485246256e-04 1.707563992512e-03 0.0 
0.0 0.0 -7.178350400798e-04 
2.464610087353e-03 3.128969275891e-04 0.0 
3.128969275891e-04 1.146795573519e-03 0.0 
0.0 0.0 -6.571136838490e-04 
2.177660474153e-03 2.438611070751e-04 0.0 
2.438611070751e-04 1.599998850957e-03 0.0 
0.0 0.0 -6.848379476561e-04 
2.003953997077e-03 3.199991544545e-04 0.0 
3.199991544545e-04 2.147220158341e-03 0.0 
0.0 0.0 -7.329289474558e-04 
1.912820658602e-03 1.850939852671e-04 0.0 
1.850939852671e-04 2.027353704997e-03 0.0 
0.0 0.0 -7.075111554498e-04 
2.046872499714e-03 9.831003495030e-05 0.0 
9.831003495030e-05 1.513883136491e-03 0.0 
0.0 0.0 -6.486049398320e-04 
1.794998522200e-03 6.332711132499e-05 0.0 
6.332711132499e-05 1.932672914603e-03 0.0 
0.0 0.0 -6.762865630344e-04 
1.667568566056e-03 1.359494407617e-04 0.0 
1.359494407617e-04 2.433780741906e-03 0.0 
0.0 0.0 -7.216405581207e-04 
1.558202846457e-03 3.151093395373e-05 0.0 
3.151093395373e-05 2.331518971057e-03 0.0 
0.0 0.0 -6.978658615180e-04 
1.633878197668e-03 -4.423594675424e-05 0.0 
-4.423594675424e-05 1.875498798304e-03 0.0 
0.0 0.0 -6.398389559308e-04 
1.399059682206e-03 -5.716228992197e-05 0.0 
-5.716228992197e-05 2.275913703748e-03 0.0 
0.0 0.0 -6.670672288481e-04 
1.324106448211e-03 6.036341609027e-06 0.0 
6.036341609027e-06 2.725814537562e-03 0.0 
0.0 0.0 -7.112674308130e-04 
1.162969064454e-03 -6.682650174874e-05 0.0 
-6.682650174874e-05 2.673529390340e-03 0.0 
0.0 0.0 -6.882368430372e-04 
1.080296541349e-03 -1.372591504413e-05 0.0 
-1.372591504413e-05 3.125305752562e-03 0.0 
0.0 0.0 -7.176612162372e-04 
1.176657910799e-03 -1.257970931916e-04 0.0 
-1.257970931916e-04 2.275071750325e-03 0.0 
0.0 0.0 -6.302092384919e-04 
9.372097805591e-04 -1.190485437674e-04 0.0 
-1.190485437674e-04 2.680059203945e-03 0.0 
0.0 0.0 -6.576469100234e-04 
8.870787947048e-04 -1.638730438057e-04 0.0 
-1.638730438057e-04 2.339629855838e-03 0.0 
0.0 0.0 -5.925517106747e-04 
6.455674432659e-04 -1.415890929979e-04 0.0 
-1.415890929979e-04 2.748667435697e-03 0.0 
0.0 0.0 -6.207111136070e-04 
2.225300842565e-03 2.076935552913e-03 0.0 
2.076935552913e-03 2.549961323534e-03 0.0 
0.0 0.0 -8.467278528464e-04 
5.541295553587e-04 -1.649461245808e-04 0.0 
-1.649461245808e-04 2.447974124485e-03 0.0 
0.0 0.0 -5.549884598765e-04 
7.822043319648e-04 -2.017475923603e-04 0.0 
-2.017475923603e-04 2.057262101210e-03 0.0 
0.0 0.0 -5.276250340903e-04 
3.276999608794e-04 -1.324631504466e-04 0.0 
-1.324631504466e-04 2.843583758528e-03 0.0 
0.0 0.0 -5.833260987948e-04 
3.901327007636e-04 -1.171351747270e-04 0.0 
-1.171351747270e-04 3.175431007903e-03 0.0 
0.0 0.0 -6.490527592622e-04 
2.350627244707e-04 -1.360688806833e-04 0.0 
-1.360688806833e-04 2.541940943139e-03 0.0 
0.0 0.0 -5.173870653820e-04 
4.234798171935e-05 -1.005342662885e-04 0.0 
-1.005342662885e-04 2.905837592619e-03 0.0 
0.0 0.0 -5.459094278256e-04 
-1.706387546653e-05 -9.097355812985e-05 0.0 
-9.097355812985e-05 2.569855109640e-03 0.0 
0.0 0.0 -4.798161731008e-04 
5.256638416029e-04 7.685224537385e-04 0.0 
7.685224537385e-04 2.892522598346e-03 0.0 
0.0 0.0 -6.252159162693e-04 
-9.731018819197e-04 5.486371390697e-06 0.0 
5.486371390697e-06 6.476741792690e-03 0.0 
0.0 0.0 -9.700167296721e-04 
-1.555148863780e-04 -6.202439901426e-05 0.0 
-6.202439901426e-05 2.881458812875e-03 0.0 
0.0 0.0 -5.084495576641e-04 
-1.622097419883e-04 -5.601005970231e-05 0.0 
-5.601005970231e-05 2.490179097168e-03 0.0 
0.0 0.0 -4.423119711188e-04 
-8.436347771947e-05 -7.384297182210e-05 0.0 
-7.384297182210e-05 2.240410554047e-03 0.0 
0.0 0.0 -4.136824817550e-04 
-1.815684892345e-04 -4.078271273611e-05 0.0 
-4.078271273611e-05 2.113479922401e-03 0.0 
0.0 0.0 -3.761903503575e-04 
-9.032923406135e-04 -1.942635711141e-05 0.0 
-1.942635711141e-05 6.054768473392e-03 0.0 
0.0 0.0 -9.126358703463e-04 
-9.750351070606e-04 8.331650578513e-07 0.0 
8.331650578513e-07 6.501449499714e-03 0.0 
0.0 0.0 -9.772611937912e-04 
-9.426936007590e-04 -8.476577603225e-06 0.0 
-8.476577603225e-06 6.285634427722e-03 0.0 
0.0 0.0 -9.468612964576e-04 
-1.013350986754e-03 -2.420793703352e-06 0.0 
-2.420793703352e-06 6.752430832338e-03 0.0 
0.0 0.0 -1.012955122490e-03 
-9.819905249802e-04 -9.218190891257e-06 0.0 
-9.218190891257e-06 6.546568860747e-03 0.0 
0.0 0.0 -9.835180958883e-04 
-2.140431892590e-04 -3.907591137925e-05 0.0 
-3.907591137925e-05 2.317748089792e-03 0.0 
0.0 0.0 -4.047791634435e-04 
-1.026297749493e-03 -7.873848128143e-06 0.0 
-7.873848128143e-06 6.842470359288e-03 0.0 
0.0 0.0 -1.026687169009e-03 
-1.041976492742e-03 3.297528438886e-06 0.0 
3.297528438886e-06 6.953471480802e-03 0.0 
0.0 0.0 -1.042264213861e-03 
-7.894126093117e-04 1.238093184261e-06 0.0 
1.238093184261e-06 5.169984540206e-03 0.0 
0.0 0.0 -7.861871271282e-04 
-4.699431842198e-05 8.393251832959e-04 0.0 
8.393251832959e-04 3.957670456880e-03 0.0 
0.0 0.0 -7.076088937226e-04 
2.755230845193e-03 1.173413091223e-03 0.0 
1.173413091223e-03 1.714807688638e-03 0.0 
0.0 0.0 -7.861609679997e-04 
-1.604782943819e-04 -6.921756520697e-05 0.0 
-6.921756520697e-05 3.280937919791e-03 0.0 
0.0 0.0 -5.745905038756e-04 
-3.004693566170e-04 -3.556517237960e-05 0.0 
-3.556517237960e-05 3.202577456363e-03 0.0 
0.0 0.0 -5.371338854166e-04 
-3.585706034587e-04 -4.568312035944e-05 0.0 
-4.568312035944e-05 3.652327854973e-03 0.0 
0.0 0.0 -6.033452624549e-04 
1.190849077962e-03 5.837067676565e-05 0.0 
5.837067676565e-05 3.222957520480e-03 0.0 
0.0 0.0 -7.322556384372e-04 
9.423071346679e-04 3.089377987274e-05 0.0 
3.089377987274e-05 3.627834779592e-03 0.0 
0.0 0.0 -7.372588605436e-04 
1.012770081460e-03 9.925586127998e-05 0.0 
9.925586127998e-05 3.765842150913e-03 0.0 
0.0 0.0 -7.521049140852e-04 
7.614362984516e-04 6.519106741786e-05 0.0 
6.519106741786e-05 4.173821526443e-03 0.0 
0.0 0.0 -7.570492669478e-04 
7.979264270932e-04 1.273580743337e-04 0.0 
1.273580743337e-04 4.346299752563e-03 0.0 
0.0 0.0 -7.721494644673e-04 
5.501778896563e-04 8.948262554820e-05 0.0 
8.948262554820e-05 4.751080607205e-03 0.0 
0.0 0.0 -7.769222387088e-04 
5.082064216358e-04 3.767855695091e-05 0.0 
3.767855695091e-05 4.583843146155e-03 0.0 
0.0 0.0 -7.620862751759e-04 
3.132827316332e-04 5.853649740131e-05 0.0 
5.853649740131e-05 5.144805306282e-03 0.0 
0.0 0.0 -7.816465586408e-04 
2.653526435006e-04 1.740198249877e-05 0.0 
1.740198249877e-05 4.983418372762e-03 0.0 
0.0 0.0 -7.670166874903e-04 
5.575692438028e-04 1.443990274524e-04 0.0 
1.443990274524e-04 4.952925594074e-03 0.0 
0.0 0.0 -7.923197750138e-04 
8.049221108706e-04 1.927720946153e-04 0.0 
1.927720946153e-04 4.548340085499e-03 0.0 
0.0 0.0 -7.878158348599e-04 
9.739178057039e-05 3.509038727455e-05 0.0 
3.509038727455e-05 5.515310491734e-03 0.0 
0.0 0.0 -7.863029814665e-04 
4.654993157964e-05 4.289823083260e-06 0.0 
4.289823083260e-06 5.357423283180e-03 0.0 
0.0 0.0 -7.718798883716e-04 
-9.099332322611e-05 1.924826980861e-05 0.0 
1.924826980861e-05 5.854385198833e-03 0.0 
0.0 0.0 -7.910542754509e-04 
-1.388176980853e-04 -4.726667786736e-06 0.0 
-4.726667786736e-06 5.696820648281e-03 0.0 
0.0 0.0 -7.768864409944e-04 
-4.595331441285e-05 -1.956138817603e-05 0.0 
-1.956138817603e-05 5.241610708446e-03 0.0 
0.0 0.0 -7.579845703651e-04 
-2.284389957390e-04 -2.048905212951e-05 0.0 
-2.048905212951e-05 5.580369687568e-03 0.0 
0.0 0.0 -7.632883723382e-04 
-1.909072797429e-04 -3.381131562009e-05 0.0 
-3.381131562009e-05 5.178711295894e-03 0.0 
0.0 0.0 -7.447800024258e-04 
2.440594604053e-03 9.642318890276e-04 0.0 
9.642318890276e-04 2.182750499156e-03 0.0 
0.0 0.0 -7.891478882726e-04 
2.421140188428e-03 1.158476729844e-03 0.0 
1.158476729844e-03 2.410898771061e-03 0.0 
0.0 0.0 -8.093393660010e-04 
2.118041757704e-03 9.575384362387e-04 0.0 
9.575384362387e-04 2.865756358634e-03 0.0 
0.0 0.0 -8.095412748282e-04 
2.062153787432e-03 1.117232222888e-03 0.0 
1.117232222888e-03 3.130951813769e-03 0.0 
0.0 0.0 -8.299367106413e-04 
1.768663051769e-03 9.234281742696e-04 0.0 
9.234281742696e-04 3.576667814753e-03 0.0 
0.0 0.0 -8.302050599972e-04 
1.673996680736e-03 1.047788565384e-03 0.0 
1.047788565384e-03 3.880758801862e-03 0.0 
0.0 0.0 -8.507608022484e-04 
1.401336126084e-03 8.679578282520e-04 0.0 
8.679578282520e-04 4.304583840043e-03 0.0 
0.0 0.0 -8.511177291800e-04 
1.489977015974e-03 7.603165304685e-04 0.0 
7.603165304685e-04 4.008283091919e-03 0.0 
0.0 0.0 -8.311556430180e-04 
-1.020948249731e-03 -5.775826579317e-06 0.0 
-5.775826579317e-06 6.785097853957e-03 0.0 
0.0 0.0 -1.018102500310e-03 
2.265068739122e-03 7.381842194999e-04 0.0 
7.381842194999e-04 1.062136007767e-03 0.0 
0.0 0.0 -6.095594541484e-04 
1.351135145616e-03 6.532161477551e-04 0.0 
6.532161477551e-04 1.809735494806e-03 0.0 
0.0 0.0 -5.816898710390e-04 
1.471902539043e-03 4.899518484596e-04 0.0 
4.899518484596e-04 1.472424784168e-03 0.0 
0.0 0.0 -5.454521931755e-04 
7.615994804765e-04 4.406766250564e-04 0.0 
4.406766250564e-04 2.016932607730e-03 0.0 
0.0 0.0 -5.176388733440e-04 
8.269982206992e-04 3.090253832640e-04 0.0 
3.090253832640e-04 1.734681775562e-03 0.0 
0.0 0.0 -4.814163979944e-04 
3.774440408144e-04 3.028512107407e-04 0.0 
3.028512107407e-04 2.019632647250e-03 0.0 
0.0 0.0 -4.537165770244e-04 
3.648181434586e-04 1.884648473769e-04 0.0 
1.884648473769e-04 1.813649519907e-03 0.0 
0.0 0.0 -4.172264234068e-04 
8.937865599465e-04 1.684485126183e-04 0.0 
1.684485126183e-04 1.450521638035e-03 0.0 
0.0 0.0 -4.450327826477e-04 
3.665764313024e-04 8.697953062859e-05 0.0 
8.697953062859e-05 1.592626820204e-03 0.0 
0.0 0.0 -3.805252178390e-04 
9.514445805533e-04 1.276236026599e-05 0.0 
1.276236026599e-05 1.175141854790e-03 0.0 
0.0 0.0 -4.085362445790e-04 
3.754122449808e-04 -1.453550077417e-05 0.0 
-1.453550077417e-05 1.362735149182e-03 0.0 
0.0 0.0 -3.437934912881e-04 
9.769431674133e-04 -1.515100195013e-04 0.0 
-1.515100195013e-04 9.303006190445e-04 0.0 
0.0 0.0 -3.717096690222e-04 
4.264464373695e-04 1.299594515256e-03 0.0 
1.299594515256e-03 4.609245789147e-03 0.0 
0.0 0.0 -8.923425135323e-04 
1.964810247431e-03 1.264277076363e-03 0.0 
1.264277076363e-03 3.438002683955e-03 0.0 
0.0 0.0 -8.511067688659e-04 
1.543294146581e-03 1.160906837814e-03 0.0 
1.160906837814e-03 4.222908696078e-03 0.0 
0.0 0.0 -8.721171593834e-04 
1.836814892730e-03 1.396277786774e-03 0.0 
1.396277786774e-03 3.775263656047e-03 0.0 
0.0 0.0 -8.728542706431e-04 
-1.498456566617e-04 -5.144379571355e-05 0.0 
-5.144379571355e-05 1.908775814377e-03 0.0 
0.0 0.0 -3.475522021424e-04 
-2.957809069521e-04 -1.023677494003e-05 0.0 
-1.023677494003e-05 6.011024467492e-03 0.0 
0.0 0.0 -7.821026959613e-04 
5.386422720371e-04 1.989799220250e-04 0.0 
1.989799220250e-04 5.181525365664e-03 0.0 
0.0 0.0 -8.083472392094e-04 
7.874265432116e-04 2.592055474471e-04 0.0 
2.592055474471e-04 4.772687875038e-03 0.0 
0.0 0.0 -8.040710562402e-04 
1.136752455486e-03 7.169309918532e-04 0.0 
7.169309918532e-04 4.723787534171e-03 0.0 
0.0 0.0 -8.522750084856e-04 
-1.900440897855e-04 -2.838233457584e-05 0.0 
-2.838233457584e-05 1.900825162224e-03 0.0 
0.0 0.0 -3.392587823741e-04 
9.356260472431e-05 2.034964515937e-04 0.0 
2.034964515937e-04 1.923580949717e-03 0.0 
0.0 0.0 -3.899405068163e-04 
1.734324497809e-04 3.377500963458e-04 0.0 
3.377500963458e-04 2.057928448022e-03 0.0 
0.0 0.0 -4.261104576107e-04 
-1.049394948444e-03 -6.226283885146e-06 0.0 
-6.226283885146e-06 7.001982288460e-03 0.0 
0.0 0.0 -1.048874596840e-03 
-1.017918189327e-03 -8.563044135213e-06 0.0 
-8.563044135213e-06 6.794247194180e-03 0.0 
0.0 0.0 -1.019458214591e-03 
4.954675254862e-04 2.540488248278e-04 0.0 
2.540488248278e-04 5.434643834701e-03 0.0 
0.0 0.0 -8.249738727878e-04 
-2.006569211976e-04 -2.561944647780e-05 0.0 
-2.561944647780e-05 2.086239726225e-03 0.0 
0.0 0.0 -3.675747464493e-04 
1.105547460622e-04 7.101878441139e-05 0.0 
7.101878441139e-05 5.713272880283e-03 0.0 
0.0 0.0 -8.012033119604e-04 
-4.550950888078e-05 4.500723371056e-05 0.0 
4.500723371056e-05 1.621109181502e-03 0.0 
0.0 0.0 -3.160508651072e-04 
-3.870396689180e-04 -1.741221444676e-05 0.0 
-1.741221444676e-05 5.896718005967e-03 0.0 
0.0 0.0 -7.688331549921e-04 
-4.273951948206e-04 -1.182636213505e-05 0.0 
-1.182636213505e-05 6.301529111477e-03 0.0 
0.0 0.0 -7.873240421131e-04 
4.231869572577e-04 -6.971878503042e-06 0.0 
-6.971878503042e-06 4.460430773537e-03 0.0 
0.0 0.0 -7.478114416601e-04 
1.393083699945e-03 1.259063338297e-03 0.0 
1.259063338297e-03 4.584787298498e-03 0.0 
0.0 0.0 -8.941608934513e-04 
1.685686678524e-03 1.508075245249e-03 0.0 
1.508075245249e-03 4.131471916407e-03 0.0 
0.0 0.0 -8.952898056464e-04 
1.646050718038e-03 -9.660543235889e-05 0.0 
-9.660543235889e-05 6.501916913227e-04 0.0 
0.0 0.0 -4.368024751037e-04 
1.609435889362e-03 -2.893187898039e-04 0.0 
-2.893187898039e-04 4.654601639984e-04 0.0 
0.0 0.0 -4.000028750317e-04 
9.352594799275e-04 -2.975024599016e-04 0.0 
-2.975024599016e-04 7.568382110161e-04 0.0 
0.0 0.0 -3.362177140684e-04 
1.482254017809e-03 -4.498657929798e-04 0.0 
-4.498657929798e-04 3.987651122273e-04 0.0 
0.0 0.0 -3.646174584383e-04 
2.065717166193e-03 -3.604582442312e-04 0.0 
-3.604582442312e-04 1.857393501590e-04 0.0 
0.0 0.0 -4.284477484795e-04 
1.796298314921e-03 -5.034519609054e-04 0.0 
-5.034519609054e-04 2.330910924396e-04 0.0 
0.0 0.0 -3.914172224959e-04 
1.274659420714e-03 -5.650663168046e-04 0.0 
-5.650663168046e-04 3.674345568894e-04 0.0 
0.0 0.0 -3.275549428413e-04 
1.422974711808e-03 -5.522143792183e-04 0.0 
-5.522143792183e-04 3.834539125658e-04 0.0 
0.0 0.0 -3.541853722931e-04 
1.748948257716e-03 -4.349109929763e-04 0.0 
-4.349109929763e-04 4.452443952247e-04 0.0 
0.0 0.0 -4.192720002935e-04 
1.321769747933e-03 -4.665626128549e-04 0.0 
-4.665626128549e-04 6.488749837801e-04 0.0 
0.0 0.0 -3.818909459020e-04 
9.581361950897e-04 -5.143987607997e-04 0.0 
-5.143987607997e-04 6.236777570208e-04 0.0 
0.0 0.0 -3.163726278224e-04 
8.503616022206e-04 -4.149303583511e-04 0.0 
-4.149303583511e-04 8.916117565825e-04 0.0 
0.0 0.0 -3.442135738104e-04 
-3.836685373509e-04 -6.433277707298e-07 0.0 
-6.433277707298e-07 6.457671366635e-03 0.0 
0.0 0.0 -8.009327929136e-04 
-8.362987872501e-05 -4.134777915163e-06 0.0 
-4.134777915163e-06 1.439949284649e-03 0.0 
0.0 0.0 -2.790856233436e-04 
-8.331232600789e-04 -1.470432704231e-06 0.0 
-1.470432704231e-06 5.468049203594e-03 0.0 
0.0 0.0 -8.288706041983e-04 
2.620772023713e-04 1.972153288905e-04 0.0 
1.972153288905e-04 5.824113000699e-03 0.0 
0.0 0.0 -8.289248484980e-04 
1.016927326830e-03 7.979811170319e-04 0.0 
7.979811170319e-04 5.045699979709e-03 0.0 
0.0 0.0 -8.721707460703e-04 
-1.084365567575e-03 -6.280824779059e-06 0.0 
-6.280824779059e-06 7.252032631151e-03 0.0 
0.0 0.0 -1.085032576515e-03 
-1.054657705810e-03 -6.435631966226e-06 0.0 
-6.435631966226e-06 7.045218181684e-03 0.0 
0.0 0.0 -1.055603631703e-03 
-9.875851288997e-04 -1.413805567795e-06 0.0 
-1.413805567795e-06 6.584177510452e-03 0.0 
0.0 0.0 -9.897378988699e-04 
-1.026769546168e-03 -2.237330550631e-06 0.0 
-2.237330550631e-06 6.840866959104e-03 0.0 
0.0 0.0 -1.026001677571e-03 
-1.092973095107e-03 -7.454569989658e-06 0.0 
-7.454569989658e-06 7.301089234385e-03 0.0 
0.0 0.0 -1.091942449670e-03 
-1.064751991023e-03 -3.501272267759e-06 0.0 
-3.501272267759e-06 7.095620902661e-03 0.0 
0.0 0.0 -1.062342898562e-03 
-9.988564979816e-04 -1.668871402207e-06 0.0 
-1.668871402207e-06 6.635005463114e-03 0.0 
0.0 0.0 -9.962627399151e-04 
-1.034436478479e-03 -1.481002808330e-06 0.0 
-1.481002808330e-06 6.886326563749e-03 0.0 
0.0 0.0 -1.032646955902e-03 
-9.669903561008e-04 -1.588757973743e-06 0.0 
-1.588757973743e-06 6.424013170772e-03 0.0 
0.0 0.0 -9.664557332607e-04 
-1.003700280699e-03 7.299281572314e-07 0.0 
7.299281572314e-07 6.676052297610e-03 0.0 
0.0 0.0 -1.002889032254e-03 
-1.069539961128e-03 -1.406306334188e-06 0.0 
-1.406306334188e-06 7.137459283332e-03 0.0 
0.0 0.0 -1.069134413525e-03 
-1.040251277345e-03 -2.304501535936e-06 0.0 
-2.304501535936e-06 6.929939891367e-03 0.0 
0.0 0.0 -1.039387411609e-03 
-9.757356294361e-04 3.492291009929e-06 0.0 
3.492291009929e-06 6.469291385121e-03 0.0 
0.0 0.0 -9.730575354659e-04 
-1.011311036558e-03 -3.920010342679e-06 0.0 
-3.920010342679e-06 6.721391753202e-03 0.0 
0.0 0.0 -1.009574527126e-03 
-9.473976655286e-04 1.069754497062e-06 0.0 
1.069754497062e-06 6.259448801403e-03 0.0 
0.0 0.0 -9.431603702596e-04 
-9.787243902099e-04 -9.076392670538e-06 0.0 
-9.076392670538e-06 6.505694726987e-03 0.0 
0.0 0.0 -9.796061197752e-04 
-1.045613844249e-03 -1.722974318841e-06 0.0 
-1.722974318841e-06 6.974649094867e-03 0.0 
0.0 0.0 -1.046101832713e-03 
-1.397501313898e-04 -1.954754906222e-05 0.0 
-1.954754906222e-05 1.651162073048e-03 0.0 
0.0 0.0 -3.035957800550e-04 
1.219786194259e-03 6.236402482568e-04 0.0 
6.236402482568e-04 4.431671752821e-03 0.0 
0.0 0.0 -8.326335662800e-04 
8.617771887232e-04 5.888292723911e-04 0.0 
5.888292723911e-04 5.153311396055e-03 0.0 
0.0 0.0 -8.540979863519e-04 
-4.385588511212e-04 -4.124403938038e-05 0.0 
-4.124403938038e-05 3.531816817036e-03 0.0 
0.0 0.0 -5.671321338944e-04 
-5.446933503471e-04 -3.626036284043e-05 0.0 
-3.626036284043e-05 3.991827526441e-03 0.0 
0.0 0.0 -6.325382687906e-04 
-4.095300457766e-04 -3.023899323576e-05 0.0 
-3.023899323576e-05 4.089495207786e-03 0.0 
0.0 0.0 -6.645931030896e-04 
-6.284929700462e-04 -1.093600113499e-05 0.0 
-1.093600113499e-05 4.480210212305e-03 0.0 
0.0 0.0 -6.824805870253e-04 
-1.013217864429e-03 -6.931448216259e-06 0.0 
-6.931448216259e-06 6.760757040862e-03 0.0 
0.0 0.0 -1.015477767897e-03 
-1.085754476307e-03 4.526117246912e-06 0.0 
4.526117246912e-06 7.228792746516e-03 0.0 
0.0 0.0 -1.082739357160e-03 
9.349812741553e-05 3.288996773767e-04 0.0 
3.288996773767e-04 1.761299753034e-03 0.0 
0.0 0.0 -3.630904347118e-04 
2.389535379209e-04 5.634681109664e-04 0.0 
5.634681109664e-04 1.827493746003e-03 0.0 
0.0 0.0 -3.987635198617e-04 
-1.114604240908e-03 -4.187271034232e-06 0.0 
-4.187271034232e-06 7.457266297093e-03 0.0 
0.0 0.0 -1.114382729655e-03 
-5.224406011778e-04 -1.616783508685e-05 0.0 
-1.616783508685e-05 6.193234014869e-03 0.0 
0.0 0.0 -7.743251010130e-04 
-5.431491021197e-04 -1.472403962111e-05 0.0 
-1.472403962111e-05 5.844514023586e-03 0.0 
0.0 0.0 -7.563660424758e-04 
1.136317897605e-04 8.866367194043e-04 0.0 
8.866367194043e-04 3.586880923614e-03 0.0 
0.0 0.0 -6.721935305596e-04 
-2.774916569981e-05 8.895584044580e-04 0.0 
8.895584044580e-04 3.562296180973e-03 0.0 
0.0 0.0 -6.449639573754e-04 
1.057066853080e-04 9.150027352666e-04 0.0 
9.150027352666e-04 3.218140626704e-03 0.0 
0.0 0.0 -6.093131083769e-04 
1.587878818660e-04 1.303388423208e-03 0.0 
1.303388423208e-03 2.991862278037e-03 0.0 
0.0 0.0 -5.812298138028e-04 
-3.713471551898e-05 1.151865697774e-03 0.0 
1.151865697774e-03 3.409521185601e-03 0.0 
0.0 0.0 -6.173664885638e-04 
2.967356928457e-04 1.307508038062e-03 0.0 
1.307508038062e-03 2.638513616037e-03 0.0 
0.0 0.0 -5.448148816535e-04 
1.059387034559e-03 2.521432951440e-04 0.0 
2.521432951440e-04 4.132767414074e-03 0.0 
0.0 0.0 -7.833341094004e-04 
-1.105789133782e-03 -5.097961888882e-06 0.0 
-5.097961888882e-06 7.391609738888e-03 0.0 
0.0 0.0 -1.105708206284e-03 
6.810117165053e-06 -9.889414219302e-05 0.0 
-9.889414219302e-05 1.979402305690e-03 0.0 
0.0 0.0 -3.852871208612e-04 
-1.120519294880e-04 -6.178408838406e-05 0.0 
-6.178408838406e-05 1.703030715359e-03 0.0 
0.0 0.0 -3.193625892355e-04 
-5.296692378707e-04 -1.188502267980e-05 0.0 
-1.188502267980e-05 6.565446827816e-03 0.0 
0.0 0.0 -7.926152773144e-04 
1.543729344698e-03 6.447367498495e-04 0.0 
6.447367498495e-04 3.744412043767e-03 0.0 
0.0 0.0 -8.117641072682e-04 
6.962389488586e-05 1.075579807584e-03 0.0 
1.075579807584e-03 5.174862260925e-03 0.0 
0.0 0.0 -9.218154590423e-04 
1.331493585646e-03 2.137927402524e-03 0.0 
2.137927402524e-03 4.060421325737e-03 0.0 
0.0 0.0 -9.287141561985e-04 
9.904779166013e-04 2.017101041898e-03 0.0 
2.017101041898e-03 4.604895346600e-03 0.0 
0.0 0.0 -9.516212026486e-04 
1.714970956618e-03 2.427321486393e-03 0.0 
2.427321486393e-03 4.030019185520e-03 0.0 
0.0 0.0 -9.486704750173e-04 
1.420192545036e-03 2.373162091674e-03 0.0 
2.373162091674e-03 4.528750319977e-03 0.0 
0.0 0.0 -9.718414932515e-04 
1.467695539567e-03 2.203781294127e-03 0.0 
2.203781294127e-03 4.637710880837e-03 0.0 
0.0 0.0 -9.677828286187e-04 
1.738938903039e-03 2.224753285964e-03 0.0 
2.224753285964e-03 4.164340708718e-03 0.0 
0.0 0.0 -9.446015604237e-04 
1.235931832691e-03 1.345211164178e-03 0.0 
1.345211164178e-03 4.950875689610e-03 0.0 
0.0 0.0 -9.169335855051e-04 
1.276383251490e-03 1.893163368643e-03 0.0 
1.893163368643e-03 4.982365981181e-03 0.0 
0.0 0.0 -9.642599295488e-04 
-9.389683298366e-04 8.173508751319e-06 0.0 
8.173508751319e-06 6.277342985551e-03 0.0 
0.0 0.0 -9.487150400336e-04 
2.256153229795e-03 1.515925536151e-03 0.0 
1.515925536151e-03 2.991158348117e-03 0.0 
0.0 0.0 -8.517490407801e-04 
1.528167954324e-03 -3.552843237765e-04 0.0 
-3.552843237765e-04 8.333805827244e-04 0.0 
0.0 0.0 -4.474652294669e-04 
-1.662659614488e-04 -3.439252502836e-05 0.0 
-3.439252502836e-05 1.478522476960e-03 0.0 
0.0 0.0 -2.752498982733e-04 
5.218696423139e-04 -3.923190477800e-04 0.0 
-3.923190477800e-04 8.123807256384e-04 0.0 
0.0 0.0 -2.770275614452e-04 
-7.120753373143e-05 -4.257381713724e-06 0.0 
-4.257381713724e-06 1.727531700626e-03 0.0 
0.0 0.0 -3.299748606085e-04 
-2.240457605617e-04 -9.000460867045e-06 0.0 
-9.000460867045e-06 2.279057511325e-03 0.0 
0.0 0.0 -3.961554456411e-04 
1.945578746019e-04 2.412421850497e-04 0.0 
2.412421850497e-04 6.104029991779e-03 0.0 
0.0 0.0 -8.457975466738e-04 
1.207839461595e-03 2.158790276880e-03 0.0 
2.158790276880e-03 5.107431485899e-03 0.0 
0.0 0.0 -9.908663816053e-04 
1.169866400910e-03 2.330594956009e-03 0.0 
2.330594956009e-03 4.979410892697e-03 0.0 
0.0 0.0 -9.946499848368e-04 
3.513715458154e-04 2.154224728206e-03 0.0 
2.154224728206e-03 2.646758950888e-03 0.0 
0.0 0.0 -5.539799138139e-04 
4.096044085531e-05 1.691291563948e-03 0.0 
1.691291563948e-03 3.171982521564e-03 0.0 
0.0 0.0 -5.905304635153e-04 
9.436606826937e-04 1.102437392582e-03 0.0 
1.102437392582e-03 5.401126569367e-03 0.0 
0.0 0.0 -9.154712509260e-04 
-9.052603845710e-04 -1.496793008778e-06 0.0 
-1.496793008778e-06 6.089428360264e-03 0.0 
0.0 0.0 -9.177848451843e-04 
-9.302886435712e-04 -1.143901140706e-06 0.0 
-1.143901140706e-06 6.175006027383e-03 0.0 
0.0 0.0 -9.302130594432e-04 
-8.986318941469e-04 1.808913455713e-06 0.0 
1.808913455713e-06 5.958837749668e-03 0.0 
0.0 0.0 -9.001900590098e-04 
1.866105932116e-04 -2.507689410211e-05 0.0 
-2.507689410211e-05 1.037594254864e-03 0.0 
0.0 0.0 -2.595221258752e-04 
4.814635582096e-04 -4.128912628658e-04 0.0 
-4.128912628658e-04 7.034669889190e-04 0.0 
0.0 0.0 -2.525597767350e-04 
-1.129866785975e-03 -6.589135683470e-06 0.0 
-6.589135683470e-06 7.556758245339e-03 0.0 
0.0 0.0 -1.128363834889e-03 
2.333846475141e-04 4.933121893724e-04 0.0 
4.933121893724e-04 2.209703461670e-03 0.0 
0.0 0.0 -4.615872697407e-04 
3.402467150890e-04 8.111269042468e-04 0.0 
8.111269042468e-04 1.937295520983e-03 0.0 
0.0 0.0 -4.342639779644e-04 
-2.334664119225e-04 1.474307013685e-05 0.0 
1.474307013685e-05 1.424417319382e-03 0.0 
0.0 0.0 -2.508181872060e-04 
-2.123142658658e-04 2.153637717968e-06 0.0 
2.153637717968e-06 1.175585796085e-03 0.0 
0.0 0.0 -2.143868084631e-04 
-1.042731456099e-03 1.901936730490e-05 0.0 
1.901936730490e-05 6.995442815012e-03 0.0 
0.0 0.0 -1.051814883004e-03 
-1.110984337992e-03 1.360393105757e-05 0.0 
1.360393105757e-05 7.468547826848e-03 0.0 
0.0 0.0 -1.117859435171e-03 
-4.423588800679e-04 -3.253751384538e-05 0.0 
-3.253751384538e-05 4.501773413803e-03 0.0 
0.0 0.0 -6.962129585522e-04 
-6.616496979765e-04 -2.251422342020e-05 0.0 
-2.251422342020e-05 4.869639696465e-03 0.0 
0.0 0.0 -7.035517643099e-04 
4.262820376233e-04 3.083468323932e-04 0.0 
3.083468323932e-04 5.716371617128e-03 0.0 
0.0 0.0 -8.424383406038e-04 
4.280783600271e-04 -3.009211384612e-04 0.0 
-3.009211384612e-04 1.090707116512e-03 0.0 
0.0 0.0 -3.060794667268e-04 
-1.146252104278e-03 9.473611415336e-07 0.0 
9.473611415336e-07 7.693660702169e-03 0.0 
0.0 0.0 -1.149181664990e-03 
1.275038329738e-03 5.259474725683e-04 0.0 
5.259474725683e-04 4.168523818718e-03 0.0 
0.0 0.0 -8.139383486123e-04 
1.568460328825e-03 5.254595824365e-04 0.0 
5.254595824365e-04 3.510469493160e-03 0.0 
0.0 0.0 -7.932157539154e-04 
-6.467794918594e-04 1.381246043169e-05 0.0 
1.381246043169e-05 4.289537030707e-03 0.0 
0.0 0.0 -6.601198735143e-04 
1.479873044524e-04 4.967497444957e-04 0.0 
4.967497444957e-04 1.546295476109e-03 0.0 
0.0 0.0 -3.366432492119e-04 
-7.307043441617e-05 1.911259274797e-04 0.0 
1.911259274797e-04 1.551951207239e-03 0.0 
0.0 0.0 -3.009099309908e-04 
1.894604890082e-03 -2.823472850271e-04 0.0 
-2.823472850271e-04 6.875410443437e-04 0.0 
0.0 0.0 -4.845585894574e-04 
6.658321664929e-04 -3.131972359833e-04 0.0 
-3.131972359833e-04 1.246767196909e-03 0.0 
0.0 0.0 -3.723415964733e-04 
-1.864058307898e-05 -4.048227882756e-06 0.0 
-4.048227882756e-06 1.848775363723e-03 0.0 
0.0 0.0 -3.583452993329e-04 
1.022072447033e-04 2.921503889496e-04 0.0 
2.921503889496e-04 6.405719020380e-03 0.0 
0.0 0.0 -8.637378531761e-04 
-1.155496536768e-03 -7.585900876937e-06 0.0 
-7.585900876937e-06 7.757441294242e-03 0.0 
0.0 0.0 -1.157575248917e-03 
1.527542208158e-03 1.890052799291e-03 0.0 
1.890052799291e-03 4.527417069176e-03 0.0 
0.0 0.0 -9.410012227401e-04 
2.008187042251e-03 2.204132840266e-03 0.0 
2.204132840266e-03 3.685858250379e-03 0.0 
0.0 0.0 -9.209642701905e-04 
1.066343216645e-03 1.618996999462e-03 0.0 
1.618996999462e-03 5.349944973761e-03 0.0 
0.0 0.0 -9.612370840834e-04 
8.746382799101e-05 -1.740956911159e-04 0.0 
-1.740956911159e-04 1.049645626335e-03 0.0 
0.0 0.0 -2.399185640008e-04 
-2.035866790866e-05 1.847875789924e-04 0.0 
1.847875789924e-04 6.479665374581e-03 0.0 
0.0 0.0 -8.495819126415e-04 
-6.376407264785e-04 -1.425511193634e-05 0.0 
-1.425511193634e-05 6.465928461552e-03 0.0 
0.0 0.0 -7.801271052651e-04 
9.861964718267e-04 2.150038689785e-03 0.0 
2.150038689785e-03 5.514561302437e-03 0.0 
0.0 0.0 -1.013369828060e-03 
9.670627976645e-04 2.310962660347e-03 0.0 
2.310962660347e-03 5.387633221454e-03 0.0 
0.0 0.0 -1.017569832570e-03 
2.603785827256e-04 6.490587657945e-04 0.0 
6.490587657945e-04 2.391533581170e-03 0.0 
0.0 0.0 -4.968499830348e-04 
3.884847977856e-04 1.039417101036e-03 0.0 
1.039417101036e-03 2.102464852525e-03 0.0 
0.0 0.0 -4.705806478706e-04 
5.111961780002e-04 1.285967634847e-03 0.0 
1.285967634847e-03 1.609029491920e-03 0.0 
0.0 0.0 -4.078257031896e-04 
6.111425860870e-04 1.703433902965e-03 0.0 
1.703433902965e-03 1.730385363745e-03 0.0 
0.0 0.0 -4.438024830152e-04 
-8.440631779025e-04 -4.493147098215e-06 0.0 
-4.493147098215e-06 5.518369027804e-03 0.0 
0.0 0.0 -8.361670615231e-04 
2.496484405496e-04 7.820528308315e-04 0.0 
7.820528308315e-04 2.617575969293e-03 0.0 
0.0 0.0 -5.333915535664e-04 
-7.972227851670e-04 -9.360487059424e-07 0.0 
-9.360487059424e-07 5.222669072684e-03 0.0 
0.0 0.0 -7.939299641313e-04 
-7.702508874020e-04 -1.538210288718e-06 0.0 
-1.538210288718e-06 5.031866795854e-03 0.0 
0.0 0.0 -7.665196690739e-04 
-7.215388075529e-04 7.231112419769e-05 0.0 
7.231112419769e-05 4.777070112868e-03 0.0 
0.0 0.0 -7.319524942586e-04 
-3.520425339391e-04 6.679556939345e-04 0.0 
6.679556939345e-04 3.935462215472e-03 0.0 
0.0 0.0 -6.527873785750e-04 
-2.966107008838e-04 1.041627150612e-03 0.0 
1.041627150612e-03 3.721325205369e-03 0.0 
0.0 0.0 -6.261871041946e-04 
6.934466661874e-04 5.643248798378e-04 0.0 
5.643248798378e-04 2.298340670082e-03 0.0 
0.0 0.0 -5.534964465553e-04 
2.728953287162e-03 1.401721391905e-03 0.0 
1.401721391905e-03 1.950936315471e-03 0.0 
0.0 0.0 -8.095341849488e-04 
-1.640024684053e-04 -5.801430496209e-05 0.0 
-5.801430496209e-05 4.060799761717e-03 0.0 
0.0 0.0 -6.878303128428e-04 
2.999854263363e-05 -3.871581071576e-05 0.0 
-3.871581071576e-05 4.801839554427e-03 0.0 
0.0 0.0 -7.394045426763e-04 
1.258703617835e-03 1.409531273568e-04 0.0 
1.409531273568e-04 3.362994611314e-03 0.0 
0.0 0.0 -7.473843221707e-04 
-1.135366159085e-03 -3.784163045623e-06 0.0 
-3.784163045623e-06 7.595187475630e-03 0.0 
0.0 0.0 -1.135109731873e-03 
-1.173430748718e-03 -9.063019793228e-06 0.0 
-9.063019793228e-06 7.855172062360e-03 0.0 
0.0 0.0 -1.171938512032e-03 
-9.103494794308e-04 9.134385712316e-06 0.0 
9.134385712316e-06 6.008446285683e-03 0.0 
0.0 0.0 -9.065739516476e-04 
-8.719468559850e-04 9.049287930881e-07 0.0 
9.049287930881e-07 5.790867004059e-03 0.0 
0.0 0.0 -8.764137937918e-04 
-1.998492850548e-04 -2.519688123829e-05 0.0 
-2.519688123829e-05 1.564678895424e-03 0.0 
0.0 0.0 -2.813159824896e-04 
-1.917688934628e-04 -1.735213978012e-05 0.0 
-1.735213978012e-05 1.385772097693e-03 0.0 
0.0 0.0 -2.532569443854e-04 
8.254677322977e-04 -2.811297245526e-05 0.0 
-2.811297245526e-05 3.536509796529e-03 0.0 
0.0 0.0 -7.230023506525e-04 
4.765241645287e-05 1.536159930540e-04 0.0 
1.536159930540e-04 6.191552485974e-03 0.0 
0.0 0.0 -8.326946405418e-04 
-1.150499129859e-03 -1.601096256556e-07 0.0 
-1.601096256556e-07 7.703368893988e-03 0.0 
0.0 0.0 -1.150095860580e-03 
-1.180515255213e-03 -2.827683268665e-06 0.0 
-2.827683268665e-06 7.908952217123e-03 0.0 
0.0 0.0 -1.179372829571e-03 
-1.142938913333e-03 -3.318694813183e-06 0.0 
-3.318694813183e-06 7.657003561438e-03 0.0 
0.0 0.0 -1.143369325256e-03 
3.358785675897e-04 3.654491829155e-04 0.0 
3.654491829155e-04 6.013357923397e-03 0.0 
0.0 0.0 -8.604302445751e-04 
2.316621348538e-03 5.056768274048e-04 0.0 
5.056768274048e-04 7.944120497047e-04 0.0 
0.0 0.0 -5.733740095480e-04 
2.133691748104e-03 7.909054691149e-04 0.0 
7.909054691149e-04 2.641168652057e-03 0.0 
0.0 0.0 -7.899100484281e-04 
-1.180750317023e-04 -3.592401855076e-05 0.0 
-3.592401855076e-05 1.256778516039e-03 0.0 
0.0 0.0 -2.423215009416e-04 
1.973912444911e-03 2.176087186706e-03 0.0 
2.176087186706e-03 3.009141150828e-03 0.0 
0.0 0.0 -8.760111165126e-04 
-2.073108579656e-04 -6.493152754707e-06 0.0 
-6.493152754707e-06 1.175906525710e-03 0.0 
0.0 0.0 -2.162536877156e-04 
-1.014586323850e-03 7.204381939037e-07 0.0 
7.204381939037e-07 6.729729392472e-03 0.0 
0.0 0.0 -1.006868391122e-03 
-6.380756216377e-04 -8.490964917047e-06 0.0 
-8.490964917047e-06 6.834543051215e-03 0.0 
0.0 0.0 -7.982404287881e-04 
-5.823417195907e-04 -3.548492883701e-06 0.0 
-3.548492883701e-06 6.981531827658e-03 0.0 
0.0 0.0 -8.108761879404e-04 
7.717240413191e-04 1.147457471671e-03 0.0 
1.147457471671e-03 5.777593065765e-03 0.0 
0.0 0.0 -9.380084753511e-04 
-8.225637287750e-04 6.751752703797e-04 0.0 
6.751752703797e-04 4.972740123785e-03 0.0 
0.0 0.0 -7.470952864203e-04 
2.517637655572e-03 2.279822024730e-03 0.0 
2.279822024730e-03 2.617353506983e-03 0.0 
0.0 0.0 -8.781989330194e-04 
2.684777181893e-03 2.094927565784e-03 0.0 
2.094927565784e-03 2.245540092273e-03 0.0 
0.0 0.0 -8.551254874007e-04 
-6.313956941565e-04 8.237366367620e-04 0.0 
8.237366367620e-04 4.526842182869e-03 0.0 
0.0 0.0 -7.048691535495e-04 
-4.942693690220e-04 1.291373050857e-03 0.0 
1.291373050857e-03 4.185538893850e-03 0.0 
0.0 0.0 -6.707530558731e-04 
-6.339732993453e-04 3.062703097983e-04 0.0 
3.062703097983e-04 4.482517716186e-03 0.0 
0.0 0.0 -6.972958566626e-04 
-3.211571798307e-04 1.732348793764e-03 0.0 
1.732348793764e-03 3.807833157286e-03 0.0 
0.0 0.0 -6.359606378414e-04 
1.628368178118e-03 -2.397689655214e-04 0.0 
-2.397689655214e-04 1.118757217186e-03 0.0 
0.0 0.0 -5.122594947013e-04 
1.268802779106e-03 -2.921587716418e-04 0.0 
-2.921587716418e-04 1.255876575323e-03 0.0 
0.0 0.0 -4.750188804658e-04 
7.788918016838e-04 1.815131094815e-03 0.0 
1.815131094815e-03 5.933430930627e-03 0.0 
0.0 0.0 -1.011592092863e-03 
8.526011948231e-04 1.646998696862e-03 0.0 
1.646998696862e-03 5.769003629505e-03 0.0 
0.0 0.0 -9.838042939085e-04 
8.238455541567e-04 2.132356991854e-03 0.0 
2.132356991854e-03 5.902416878307e-03 0.0 
0.0 0.0 -1.036388662608e-03 
8.105464766354e-04 2.296518457536e-03 0.0 
2.296518457536e-03 5.781543097606e-03 0.0 
0.0 0.0 -1.041034978119e-03 
5.157741040840e-04 9.321561941604e-04 0.0 
9.321561941604e-04 6.195606764731e-03 0.0 
0.0 0.0 -9.366789672187e-04 
6.941485938218e-04 9.059162431319e-04 0.0 
9.059162431319e-04 5.806872495791e-03 0.0 
0.0 0.0 -9.148930056254e-04 
-2.307704440400e-04 -1.286884044660e-05 0.0 
-1.286884044660e-05 2.443132951366e-03 0.0 
0.0 0.0 -4.227350873389e-04 
6.514352929878e-05 2.288081661165e-03 0.0 
2.288081661165e-03 2.993261599942e-03 0.0 
0.0 0.0 -5.646260317871e-04 
-1.184636686047e-03 -1.016095806197e-05 0.0 
-1.016095806197e-05 8.009054334469e-03 0.0 
0.0 0.0 -1.194151889699e-03 
-7.227222965181e-04 3.279509924268e-04 0.0 
3.279509924268e-04 4.819632876630e-03 0.0 
0.0 0.0 -7.390869131010e-04 
-2.177254805228e-04 1.375645961195e-04 0.0 
1.375645961195e-04 6.815355168964e-03 0.0 
0.0 0.0 -8.528034719914e-04 
-1.463111145574e-04 1.156209595549e-04 0.0 
1.156209595549e-04 6.547606716477e-03 0.0 
0.0 0.0 -8.364299724848e-04 
-1.679677723563e-04 -6.471467775007e-06 0.0 
-6.471467775007e-06 9.157850137993e-04 0.0 
0.0 0.0 -1.776502893165e-04 
-1.297284591510e-04 -5.780264209546e-05 0.0 
-5.780264209546e-05 1.038613630361e-03 0.0 
0.0 0.0 -2.034953494974e-04 
-1.179928424182e-03 1.756406795452e-06 0.0 
1.756406795452e-06 7.951460578279e-03 0.0 
0.0 0.0 -1.184588873336e-03 
2.836776295710e-04 1.223988356564e-03 0.0 
1.223988356564e-03 1.677276286092e-03 0.0 
0.0 0.0 -3.811925308841e-04 
4.013953767995e-04 1.756528529996e-03 0.0 
1.756528529996e-03 1.763349863649e-03 0.0 
0.0 0.0 -4.158690271831e-04 
1.160196629076e-04 7.148154517956e-04 0.0 
7.148154517956e-04 1.628743161164e-03 0.0 
0.0 0.0 -3.459699425273e-04 
-7.528116111778e-04 4.225973047360e-06 0.0 
4.225973047360e-06 7.683247293073e-03 0.0 
0.0 0.0 -8.316827509240e-04 
-7.484881504012e-04 -2.960864060537e-06 0.0 
-2.960864060537e-06 4.893199602045e-03 0.0 
0.0 0.0 -7.479256703001e-04 
-6.767116883331e-04 -1.803332889740e-06 0.0 
-1.803332889740e-06 7.241412787759e-03 0.0 
0.0 0.0 -8.165406747504e-04 
-6.259575268882e-04 1.709824692901e-04 0.0 
1.709824692901e-04 4.423071125376e-03 0.0 
0.0 0.0 -6.884682336192e-04 
-1.207477073685e-03 3.654066082090e-06 0.0 
3.654066082090e-06 8.169097270233e-03 0.0 
0.0 0.0 -1.216510697198e-03 
2.411928952393e-03 1.992077898643e-03 0.0 
1.992077898643e-03 2.876813350261e-03 0.0 
0.0 0.0 -8.750727582182e-04 
2.346011714647e-04 8.717537612800e-04 0.0 
8.717537612800e-04 3.247832215292e-03 0.0 
0.0 0.0 -6.353966017694e-04 
6.747924816906e-04 3.907660100714e-04 0.0 
3.907660100714e-04 5.305696766469e-03 0.0 
0.0 0.0 -8.388651217395e-04 
-1.141578224774e-03 -1.678015124370e-05 0.0 
-1.678015124370e-05 7.703318796330e-03 0.0 
0.0 0.0 -1.149140729088e-03 
-1.226390364052e-03 1.281801736301e-05 0.0 
1.281801736301e-05 8.221773688785e-03 0.0 
0.0 0.0 -1.221625961084e-03 
-8.548571335586e-04 9.585095622206e-06 0.0 
9.585095622206e-06 5.710330831809e-03 0.0 
0.0 0.0 -8.638707813346e-04 
-8.315226367926e-04 -1.796676276349e-05 0.0 
-1.796676276349e-05 5.471080815741e-03 0.0 
0.0 0.0 -8.327709333130e-04 
-8.913153694948e-04 3.187001622894e-06 0.0 
3.187001622894e-06 5.908304703834e-03 0.0 
0.0 0.0 -8.925140200429e-04 
-2.083424339435e-04 3.258287798880e-05 0.0 
3.258287798880e-05 1.619080445476e-03 0.0 
0.0 0.0 -2.887053311254e-04 
-2.259876589125e-04 -1.628476741887e-06 0.0 
-1.628476741887e-06 1.207242233754e-03 0.0 
0.0 0.0 -2.186270541161e-04 
-1.144042553285e-03 -3.972510573063e-06 0.0 
-3.972510573063e-06 7.644643748638e-03 0.0 
0.0 0.0 -1.142090266074e-03 
-3.522509789299e-04 -2.414224804893e-05 0.0 
-2.414224804893e-05 3.023009747668e-03 0.0 
0.0 0.0 -5.006138788623e-04 
-4.743773048468e-04 6.530970125401e-06 0.0 
6.530970125401e-06 3.357136547595e-03 0.0 
0.0 0.0 -5.359218444892e-04 
2.758725733138e-04 -2.172564737018e-04 0.0 
-2.172564737018e-04 1.399152657413e-03 0.0 
0.0 0.0 -3.328711069468e-04 
4.623094877725e-04 -2.347032625085e-04 0.0 
-2.347032625085e-04 1.604617400026e-03 0.0 
0.0 0.0 -3.985542937016e-04 
-1.740915115951e-04 -5.337112297737e-05 0.0 
-5.337112297737e-05 4.438311877005e-03 0.0 
0.0 0.0 -7.084571996635e-04 
1.215944883607e-04 -7.486413494566e-05 0.0 
-7.486413494566e-05 3.984297235612e-03 0.0 
0.0 0.0 -7.025782721446e-04 
-5.565032953405e-04 6.545430077765e-04 0.0 
6.545430077765e-04 6.423071266175e-03 0.0 
0.0 0.0 -1.004356105990e-03 
-6.304060409193e-04 6.380856060735e-04 0.0 
6.380856060735e-04 6.706666372824e-03 0.0 
0.0 0.0 -1.036197162489e-03 
-2.374939068399e-04 8.498021294419e-04 0.0 
8.498021294419e-04 5.689106903432e-03 0.0 
0.0 0.0 -9.492251330461e-04 
1.304937585792e-03 4.219234824304e-04 0.0 
4.219234824304e-04 3.930061688206e-03 0.0 
0.0 0.0 -7.959950597732e-04 
1.568378368692e-03 4.066794188300e-04 0.0 
4.066794188300e-04 3.302734276262e-03 0.0 
0.0 0.0 -7.755296288776e-04 
1.832264874191e-03 5.055560032618e-04 0.0 
5.055560032618e-04 2.885583454996e-03 0.0 
0.0 0.0 -7.729729429318e-04 
-1.205371287344e-03 -1.017172525851e-05 0.0 
-1.017172525851e-05 8.044519540676e-03 0.0 
0.0 0.0 -1.199867006878e-03 
-1.246871842620e-03 -1.782584577395e-06 0.0 
-1.782584577395e-06 8.370823131876e-03 0.0 
0.0 0.0 -1.242728214876e-03 
1.922278980968e-03 -1.437049476006e-04 0.0 
-1.437049476006e-04 1.043900907282e-03 0.0 
0.0 0.0 -5.488632449009e-04 
2.190436007879e-03 -1.629329460918e-04 0.0 
-1.629329460918e-04 6.099886001310e-04 0.0 
0.0 0.0 -5.212126360957e-04 
1.370634539566e-03 -2.102899188516e-04 0.0 
-2.102899188516e-04 1.536831355877e-03 0.0 
0.0 0.0 -5.390128571062e-04 
-1.214529256448e-03 -6.301616693013e-06 0.0 
-6.301616693013e-06 8.215301645721e-03 0.0 
0.0 0.0 -1.223056365294e-03 
-6.579843155950e-04 1.949316938661e-05 0.0 
1.949316938661e-05 7.426909439324e-03 0.0 
0.0 0.0 -8.288565596931e-04 
-5.717357821188e-04 -6.600862542417e-06 0.0 
-6.600862542417e-06 7.153918480345e-03 0.0 
0.0 0.0 -8.247996196150e-04 
-1.854535526638e-04 -1.645379831426e-05 0.0 
-1.645379831426e-05 9.989932188973e-04 0.0 
0.0 0.0 -1.880780275778e-04 
-1.645368771859e-04 -4.051479184443e-05 0.0 
-4.051479184443e-05 1.183433123459e-03 0.0 
0.0 0.0 -2.247092568812e-04 
-1.658211069919e-04 1.276811275268e-04 0.0 
1.276811275268e-04 1.486783750514e-03 0.0 
0.0 0.0 -2.751197234063e-04 
-2.224219088162e-04 -1.166820656482e-07 0.0 
-1.166820656482e-07 1.328694594589e-03 0.0 
0.0 0.0 -2.407125716443e-04 
-1.208745358060e-03 2.226513834360e-07 0.0 
2.226513834360e-07 8.094728759758e-03 0.0 
0.0 0.0 -1.207258722210e-03 
-1.173002429905e-03 -1.580225167302e-08 0.0 
-1.580225167302e-08 7.865013445176e-03 0.0 
0.0 0.0 -1.172631524865e-03 
-1.245693256606e-03 6.030959783718e-07 0.0 
6.030959783718e-07 8.401723348225e-03 0.0 
0.0 0.0 -1.246082495830e-03 
2.261734191866e-05 1.224942216636e-05 0.0 
1.224942216636e-05 1.950719366757e-03 0.0 
0.0 0.0 -3.801539159394e-04 
1.773411846582e-03 1.882297468387e-03 0.0 
1.882297468387e-03 4.074807421283e-03 0.0 
0.0 0.0 -9.187645639799e-04 
-5.306049103456e-06 3.358976299322e-04 0.0 
3.358976299322e-04 6.704604239072e-03 0.0 
0.0 0.0 -8.818820382989e-04 
2.467382699378e-04 4.372743181454e-04 0.0 
4.372743181454e-04 6.311929649035e-03 0.0 
0.0 0.0 -8.789507010439e-04 
-2.559479744663e-04 2.577104792025e-04 0.0 
2.577104792025e-04 7.181846142290e-03 0.0 
0.0 0.0 -8.872177602500e-04 
1.055765837306e-03 1.385360289507e-03 0.0 
1.385360289507e-03 5.332173391714e-03 0.0 
0.0 0.0 -9.389448859586e-04 
5.576049070201e-04 1.142093822488e-03 0.0 
1.142093822488e-03 6.167248221527e-03 0.0 
0.0 0.0 -9.592021064109e-04 
5.855427590171e-04 1.354854251187e-03 0.0 
1.354854251187e-03 6.172825690490e-03 0.0 
0.0 0.0 -9.818222390405e-04 
-1.526588308959e-04 -1.278274148865e-05 0.0 
-1.278274148865e-05 7.096255753314e-04 0.0 
0.0 0.0 -1.515181680101e-04 
-1.197635794990e-03 -1.679642684382e-05 0.0 
-1.679642684382e-05 8.038463106290e-03 0.0 
0.0 0.0 -1.199992767657e-03 
-8.372255126924e-04 -1.581405743943e-06 0.0 
-1.581405743943e-06 5.516497338344e-03 0.0 
0.0 0.0 -8.371571859873e-04 
-1.098991945020e-04 -3.154449405114e-05 0.0 
-3.154449405114e-05 5.330743413542e-04 0.0 
0.0 0.0 -1.134605161963e-04 
-7.981850025034e-04 -4.161080113043e-07 0.0 
-4.161080113043e-07 5.308479178574e-03 0.0 
0.0 0.0 -8.070151920887e-04 
-8.429634412097e-04 -1.709371110712e-06 0.0 
-1.709371110712e-06 5.581100165216e-03 0.0 
0.0 0.0 -8.451615393777e-04 
-7.696584184699e-04 -4.438777502691e-06 0.0 
-4.438777502691e-06 5.046252634616e-03 0.0 
0.0 0.0 -7.748096441827e-04 
2.994785169554e-04 1.425501842505e-05 0.0 
1.425501842505e-05 1.284459421185e-03 0.0 
0.0 0.0 -3.155299188714e-04 
-8.095068364426e-04 -1.064416675752e-05 0.0 
-1.064416675752e-05 5.359424365734e-03 0.0 
0.0 0.0 -8.174106193842e-04 
-8.516632903957e-04 -1.548663215885e-05 0.0 
-1.548663215885e-05 5.659882039523e-03 0.0 
0.0 0.0 -8.556612431672e-04 
-1.412387391742e-04 4.621020747233e-07 0.0 
4.621020747233e-07 7.097442468444e-04 0.0 
0.0 0.0 -1.421329337195e-04 
-1.249632985061e-03 3.450770483260e-06 0.0 
3.450770483260e-06 8.450128189206e-03 0.0 
0.0 0.0 -1.259301554906e-03 
-1.652376678941e-04 -1.286666981347e-05 0.0 
-1.286666981347e-05 7.455520390208e-04 0.0 
0.0 0.0 -1.556443337539e-04 
-1.728360162614e-04 -1.739398278189e-05 0.0 
-1.739398278189e-05 9.366979255076e-04 0.0 
0.0 0.0 -1.806578101979e-04 
-3.719361405691e-04 1.218086606747e-04 0.0 
1.218086606747e-04 7.155488289076e-03 0.0 
0.0 0.0 -8.560885659443e-04 
-3.053339153297e-04 8.154369386523e-05 0.0 
8.154369386523e-05 6.858541099281e-03 0.0 
0.0 0.0 -8.405511347358e-04 
-5.021955809733e-04 7.733732491228e-05 0.0 
7.733732491228e-05 7.414857390509e-03 0.0 
0.0 0.0 -8.597306280558e-04 
-4.364430352704e-04 7.644390649633e-05 0.0 
7.644390649633e-05 7.111141989231e-03 0.0 
0.0 0.0 -8.446980047305e-04 
-2.562459549878e-04 5.373194053547e-05 0.0 
5.373194053547e-05 6.586252792978e-03 0.0 
0.0 0.0 -8.251697057560e-04 
-3.944160564684e-04 4.919971873450e-05 0.0 
4.919971873450e-05 6.884909410307e-03 0.0 
0.0 0.0 -8.296718206765e-04 
-8.022613359354e-04 -1.465561338708e-05 0.0 
-1.465561338708e-05 5.265642214057e-03 0.0 
0.0 0.0 -7.985989294648e-04 
-5.790610019567e-04 6.799297018421e-05 0.0 
6.799297018421e-05 7.484330818749e-03 0.0 
0.0 0.0 -8.514003760768e-04 
-5.219622888612e-04 3.409915233572e-05 0.0 
3.409915233572e-05 7.171995906201e-03 0.0 
0.0 0.0 -8.349323669884e-04 
-6.602475431095e-04 4.834164145538e-05 0.0 
4.834164145538e-05 7.758700875701e-03 0.0 
0.0 0.0 -8.552524837106e-04 
-2.854603686521e-04 3.142722647045e-03 0.0 
3.142722647045e-03 3.621465385235e-03 0.0 
0.0 0.0 -6.108003466767e-04 
6.144653545743e-04 2.028834756859e-03 0.0 
2.028834756859e-03 1.931551023443e-03 0.0 
0.0 0.0 -4.789358348571e-04 
4.531930871783e-04 2.243612955996e-03 0.0 
2.243612955996e-03 1.918685238726e-03 0.0 
0.0 0.0 -4.527251363391e-04 
-5.740167081584e-05 1.306249568289e-03 0.0 
1.306249568289e-03 2.058214302955e-03 0.0 
0.0 0.0 -3.875663759467e-04 
6.056073703394e-04 2.062981013730e-03 0.0 
2.062981013730e-03 6.391304862425e-03 0.0 
0.0 0.0 -1.063211145256e-03 
6.615515880115e-04 2.295039913619e-03 0.0 
2.295039913619e-03 6.116225396564e-03 0.0 
0.0 0.0 -1.064090465327e-03 
-7.605012464149e-04 -6.916874771278e-06 0.0 
-6.916874771278e-06 6.746596299246e-03 0.0 
0.0 0.0 -7.869528881012e-04 
-8.207945240184e-04 -3.148377470807e-06 0.0 
-3.148377470807e-06 6.415393955659e-03 0.0 
0.0 0.0 -7.696016314543e-04 
-8.163996236660e-04 7.186741062482e-06 0.0 
7.186741062482e-06 5.339991771102e-03 0.0 
0.0 0.0 -8.108182148135e-04 
-8.104965103200e-04 -8.251273631999e-06 0.0 
-8.251273631999e-06 5.308853861974e-03 0.0 
0.0 0.0 -8.077352941366e-04 
-8.720514006204e-04 3.179792081286e-05 0.0 
3.179792081286e-05 5.733381675574e-03 0.0 
0.0 0.0 -8.678526801547e-04 
-8.648510791427e-04 -7.111218047989e-06 0.0 
-7.111218047989e-06 5.661166370703e-03 0.0 
0.0 0.0 -8.609153521579e-04 
-9.263549734801e-04 3.033239231777e-05 0.0 
3.033239231777e-05 6.105443762298e-03 0.0 
0.0 0.0 -9.200517378055e-04 
-9.083479877115e-04 -1.416522287398e-05 0.0 
-1.416522287398e-05 6.036653926986e-03 0.0 
0.0 0.0 -9.108947733944e-04 
-9.698621139042e-04 -2.949214397531e-05 0.0 
-2.949214397531e-05 6.467199866666e-03 0.0 
0.0 0.0 -9.726914458129e-04 
3.958749023849e-04 1.377705614971e-03 0.0 
1.377705614971e-03 6.588937764002e-03 0.0 
0.0 0.0 -1.006561273712e-03 
-1.773067222264e-04 4.081449323047e-04 0.0 
4.081449323047e-04 1.763247345560e-03 0.0 
0.0 0.0 -3.180830487989e-04 
-6.293705958837e-04 2.509980987974e-03 0.0 
2.509980987974e-03 4.366552426414e-03 0.0 
0.0 0.0 -6.783069842581e-04 
2.675890882017e-04 7.492197074326e-04 0.0 
7.492197074326e-04 6.589528018824e-03 0.0 
0.0 0.0 -9.356293849282e-04 
4.572695298972e-04 7.434734271162e-04 0.0 
7.434734271162e-04 6.165016540986e-03 0.0 
0.0 0.0 -9.133054774935e-04 
-1.395153864649e-04 2.030336306027e-03 0.0 
2.030336306027e-03 3.406270444490e-03 0.0 
0.0 0.0 -6.000944487132e-04 
-8.634324996661e-05 2.639734641132e-03 0.0 
2.639734641132e-03 2.998132571031e-03 0.0 
0.0 0.0 -5.401620014017e-04 
-3.441432502918e-04 1.787258478843e-04 0.0 
1.787258478843e-04 7.225472320385e-03 0.0 
0.0 0.0 -8.724259905863e-04 
3.665515461377e-04 6.866835721144e-04 0.0 
6.866835721144e-04 2.664667320501e-03 0.0 
0.0 0.0 -5.600314934590e-04 
-1.216135843022e-03 7.091274291305e-05 0.0 
7.091274291305e-05 8.640694392254e-03 0.0 
0.0 0.0 -1.276369100855e-03 
-4.726518995245e-05 -5.619949717433e-06 0.0 
-5.619949717433e-06 2.661811301103e-04 0.0 
0.0 0.0 -5.690003420296e-05 
-1.291194022148e-04 1.153791065657e-05 0.0 
1.153791065657e-05 6.783732708890e-04 0.0 
0.0 0.0 -1.353443326634e-04 
3.166415044872e-04 7.935895179409e-04 0.0 
7.935895179409e-04 2.932060858436e-03 0.0 
0.0 0.0 -5.969207367497e-04 
-5.063608555037e-04 6.093933911926e-04 0.0 
6.093933911926e-04 4.145235306590e-03 0.0 
0.0 0.0 -6.620222007989e-04 
5.187798702885e-04 2.171815761076e-03 0.0 
2.171815761076e-03 2.246290096383e-03 0.0 
0.0 0.0 -5.157319100482e-04 
4.694683033529e-04 2.690614599528e-03 0.0 
2.690614599528e-03 2.168921137743e-03 0.0 
0.0 0.0 -4.917183783407e-04 
1.008920492552e-03 4.201112911794e-04 0.0 
4.201112911794e-04 4.597606564520e-03 0.0 
0.0 0.0 -8.171190287044e-04 
-1.467875036753e-04 -3.002922953158e-05 0.0 
-3.002922953158e-05 1.015093936775e-03 0.0 
0.0 0.0 -1.995083582888e-04 
-3.908342041107e-05 3.474754272457e-04 0.0 
3.474754272457e-04 1.575661353164e-03 0.0 
0.0 0.0 -3.106934562087e-04 
-9.732483420248e-04 2.855591412463e-05 0.0 
2.855591412463e-05 6.524849625930e-03 0.0 
0.0 0.0 -9.796923013958e-04 
-2.492954901946e-04 5.421975703586e-07 0.0 
5.421975703586e-07 1.421478567984e-03 0.0 
0.0 0.0 -2.487700610537e-04 
-9.259074375410e-04 4.034121445071e-07 0.0 
4.034121445071e-07 6.685250204729e-03 0.0 
0.0 0.0 -7.780515481288e-04 
6.152388954599e-04 6.741991586942e-04 0.0 
6.741991586942e-04 2.590772937959e-03 0.0 
0.0 0.0 -5.891999696964e-04 
-5.251164789717e-04 3.406755996560e-04 0.0 
3.406755996560e-04 4.482170563558e-03 0.0 
0.0 0.0 -7.153500975001e-04 
3.565401745447e-04 8.798671450796e-04 0.0 
8.798671450796e-04 1.550994064973e-03 0.0 
0.0 0.0 -3.721998919698e-04 
3.788490705641e-04 1.224387519754e-03 0.0 
1.224387519754e-03 2.340541717791e-03 0.0 
0.0 0.0 -5.080103017801e-04 
-8.695833745558e-04 -3.060324942177e-06 0.0 
-3.060324942177e-06 5.711345853531e-03 0.0 
0.0 0.0 -8.638580894607e-04 
-8.186088136840e-04 -7.130242765399e-06 0.0 
-7.130242765399e-06 5.325410070609e-03 0.0 
0.0 0.0 -8.086477316853e-04 
-7.800261334949e-04 4.512657992106e-05 0.0 
4.512657992106e-05 5.087463274213e-03 0.0 
0.0 0.0 -7.738406155293e-04 
1.204821371182e-03 7.887473665511e-04 0.0 
7.887473665511e-04 2.171294298293e-03 0.0 
0.0 0.0 -6.178822433291e-04 
3.080441493909e-04 2.620322948772e-03 0.0 
2.620322948772e-03 2.534685614132e-03 0.0 
0.0 0.0 -5.288330985435e-04 
1.813587833834e-05 2.078113422261e-03 0.0 
2.078113422261e-03 2.415644033897e-03 0.0 
0.0 0.0 -4.617239487405e-04 
-8.245081772930e-04 8.576273435793e-07 0.0 
8.576273435793e-07 5.414129368543e-03 0.0 
0.0 0.0 -8.213029907542e-04 
-1.107776256753e-03 4.822798209679e-06 0.0 
4.822798209679e-06 7.407183480602e-03 0.0 
0.0 0.0 -1.107475121065e-03 
-1.139123580733e-03 8.505935532861e-06 0.0 
8.505935532861e-06 7.608538315330e-03 0.0 
0.0 0.0 -1.136341617999e-03 
-1.199898780127e-03 7.996278322779e-08 0.0 
7.996278322779e-08 8.046320753645e-03 0.0 
0.0 0.0 -1.199032651360e-03 
-1.168168474149e-03 4.195650786318e-06 0.0 
4.195650786318e-06 7.812169121329e-03 0.0 
0.0 0.0 -1.164598082371e-03 
-1.102136352719e-03 2.455120919219e-06 0.0 
2.455120919219e-06 7.358887921961e-03 0.0 
0.0 0.0 -1.100413285504e-03 
-1.128466826395e-03 -6.206260029602e-06 0.0 
-6.206260029602e-06 7.555420673368e-03 0.0 
0.0 0.0 -1.129075729544e-03 
-1.177403797424e-03 6.359314657784e-05 0.0 
6.359314657784e-05 7.954037537213e-03 0.0 
0.0 0.0 -1.156196298986e-03 
-1.151753586232e-03 2.639484581747e-05 0.0 
2.639484581747e-05 7.736175110647e-03 0.0 
0.0 0.0 -1.127569216594e-03 
-5.273742874641e-04 1.051939031894e-03 0.0 
1.051939031894e-03 7.518727690028e-03 0.0 
0.0 0.0 -1.128233977205e-03 
-6.181643096499e-04 8.354617790878e-04 0.0 
8.354617790878e-04 7.338420121459e-03 0.0 
0.0 0.0 -1.109669909725e-03 
-1.121858156902e-03 1.324630688328e-05 0.0 
1.324630688328e-05 7.484256965709e-03 0.0 
0.0 0.0 -1.104653423987e-03 
-6.607745823421e-04 7.338630573630e-04 0.0 
7.338630573630e-04 7.153317522195e-03 0.0 
0.0 0.0 -1.091178305832e-03 
1.583551007462e-04 1.904972045294e-03 0.0 
1.904972045294e-03 6.684126735558e-03 0.0 
0.0 0.0 -1.086639434906e-03 
-1.085788804496e-03 2.676164609378e-06 0.0 
2.676164609378e-06 7.229509552941e-03 0.0 
0.0 0.0 -1.075295316091e-03 
4.736024608934e-05 7.430592385949e-04 0.0 
7.430592385949e-04 6.998088241733e-03 0.0 
0.0 0.0 -9.572225876071e-04 
4.174242208502e-04 8.459069781564e-04 0.0 
8.459069781564e-04 3.218796671918e-03 0.0 
0.0 0.0 -6.621140475474e-04 
-1.785384896330e-04 7.817361308899e-06 0.0 
7.817361308899e-06 9.797346640556e-04 0.0 
0.0 0.0 -1.850918921636e-04 
-1.812548087706e-04 3.762529197937e-05 0.0 
3.762529197937e-05 9.321215546565e-04 0.0 
0.0 0.0 -1.767209935827e-04 
-7.351744263889e-04 3.999385538756e-05 0.0 
3.999385538756e-05 4.905225616530e-03 0.0 
0.0 0.0 -7.509174086159e-04 
3.312376443894e-05 1.911316608382e-03 0.0 
1.911316608382e-03 7.332711059020e-03 0.0 
0.0 0.0 -1.150356130273e-03 
-6.609016753378e-04 9.329995309324e-04 0.0 
9.329995309324e-04 8.065785537987e-03 0.0 
0.0 0.0 -1.191349982272e-03 
3.908326472819e-04 4.304569113090e-04 0.0 
4.304569113090e-04 2.219869895270e-03 0.0 
0.0 0.0 -4.895692906686e-04 
2.320664955836e-04 1.645843503055e-03 0.0 
1.645843503055e-03 7.105471765743e-03 0.0 
0.0 0.0 -1.074833154177e-03 
-8.069978020621e-04 -2.494686579817e-06 0.0 
-2.494686579817e-06 5.276076784830e-03 0.0 
0.0 0.0 -8.012154088905e-04 
1.318723036437e-05 1.043052415777e-04 0.0 
1.043052415777e-04 1.784730320510e-03 0.0 
0.0 0.0 -3.530685601169e-04 
7.844479955765e-05 1.298473315217e-03 0.0 
1.298473315217e-03 7.244027893112e-03 0.0 
0.0 0.0 -1.046951073655e-03 
-1.070880273795e-03 7.212077137814e-06 0.0 
7.212077137814e-06 7.154951258216e-03 0.0 
0.0 0.0 -1.071440646998e-03 
-1.034235002280e-03 -1.284962224392e-06 0.0 
-1.284962224392e-06 6.899499474228e-03 0.0 
0.0 0.0 -1.034857077839e-03 
-1.003722632452e-03 2.735580280947e-06 0.0 
2.735580280947e-06 6.699806917378e-03 0.0 
0.0 0.0 -1.006057961993e-03 
-9.327952277588e-04 4.644043662111e-04 0.0 
4.644043662111e-04 8.393344354882e-03 0.0 
0.0 0.0 -1.245896746524e-03 
-9.260727886855e-04 3.160967958020e-07 0.0 
3.160967958020e-07 6.120955206479e-03 0.0 
0.0 0.0 -9.232948652302e-04 
-1.560283281830e-04 8.158988579398e-04 0.0 
8.158988579398e-04 7.468186418977e-03 0.0 
0.0 0.0 -9.964854638748e-04 
2.358065862741e-03 1.343628238732e-03 0.0 
1.343628238732e-03 2.682983945859e-03 0.0 
0.0 0.0 -8.302696942066e-04 
2.657430664479e-03 1.618325928109e-03 0.0 
1.618325928109e-03 2.227277139671e-03 0.0 
0.0 0.0 -8.308513829071e-04 
2.917997200547e-03 1.651118471894e-03 0.0 
1.651118471894e-03 1.602317197405e-03 0.0 
0.0 0.0 -8.022703394736e-04 
-1.090435695547e-03 -5.471004820641e-06 0.0 
-5.471004820641e-06 7.297274492399e-03 0.0 
0.0 0.0 -1.092245366321e-03 
-3.596710683471e-04 4.618788806360e-04 0.0 
4.618788806360e-04 7.614408352606e-03 0.0 
0.0 0.0 -9.468630593713e-04 
-3.582546300711e-05 5.142721851062e-04 0.0 
5.142721851062e-04 6.995579576337e-03 0.0 
0.0 0.0 -9.228732880014e-04 
-9.244286393789e-05 4.287230705149e-04 0.0 
4.287230705149e-04 7.046985127082e-03 0.0 
0.0 0.0 -9.135156932751e-04 
3.100492761213e-04 5.668457766422e-04 0.0 
5.668457766422e-04 6.317600918545e-03 0.0 
0.0 0.0 -8.978969563043e-04 
-4.561266435041e-04 3.265984327589e-04 0.0 
3.265984327589e-04 7.707872869238e-03 0.0 
0.0 0.0 -9.274559761739e-04 
3.274892639199e-04 2.108063486393e-03 0.0 
2.108063486393e-03 7.049540295105e-03 0.0 
0.0 0.0 -1.122064018411e-03 
3.088208949284e-04 1.968903517939e-03 0.0 
1.968903517939e-03 7.064299529980e-03 0.0 
0.0 0.0 -1.107084722540e-03 
2.102850079043e-03 -3.416262591948e-04 0.0 
-3.416262591948e-04 3.124585837171e-04 0.0 
0.0 0.0 -4.564773689951e-04 
2.365797628027e-03 -1.836175430613e-04 0.0 
-1.836175430613e-04 2.698879678277e-04 0.0 
0.0 0.0 -4.934415926888e-04 
2.413209101623e-03 -3.426520203227e-06 0.0 
-3.426520203227e-06 6.054689213921e-04 0.0 
0.0 0.0 -5.576035839405e-04 
2.539721264577e-03 9.430615013572e-06 0.0 
9.430615013572e-06 3.119730511320e-04 0.0 
0.0 0.0 -5.298816096007e-04 
2.213915472485e-03 -1.698074766774e-04 0.0 
-1.698074766774e-04 2.512730097712e-04 0.0 
0.0 0.0 -4.652367627802e-04 
2.290976380075e-03 4.211217644187e-05 0.0 
4.211217644187e-05 3.921039335036e-04 0.0 
0.0 0.0 -5.016361848483e-04 
2.669521250038e-03 2.252483724275e-04 0.0 
2.252483724275e-04 3.967342367686e-04 0.0 
0.0 0.0 -5.657331850765e-04 
1.631660252595e-03 1.082134603956e-04 0.0 
1.082134603956e-04 8.807018070011e-04 0.0 
0.0 0.0 -4.731795164401e-04 
2.293007526189e-04 1.790658508955e-03 0.0 
1.790658508955e-03 6.197898565377e-03 0.0 
0.0 0.0 -1.043699603901e-03 
-5.531479192063e-04 2.337541982780e-04 0.0 
2.337541982780e-04 7.803588102566e-03 0.0 
0.0 0.0 -9.112603322884e-04 
1.048760259423e-03 1.740585172510e-04 0.0 
1.740585172510e-04 3.938430442393e-03 0.0 
0.0 0.0 -7.674620038519e-04 
1.297739794519e-03 2.294306654232e-04 0.0 
2.294306654232e-04 3.528546023877e-03 0.0 
0.0 0.0 -7.629436607899e-04 
1.500564934616e-03 1.918353727357e-04 0.0 
1.918353727357e-04 2.962951876697e-03 0.0 
0.0 0.0 -7.429587765258e-04 
1.201969742716e-04 -9.034379448675e-05 0.0 
-9.034379448675e-05 3.614009103747e-03 0.0 
0.0 0.0 -6.718125411112e-04 
4.108183029270e-04 -9.415866664281e-05 0.0 
-9.415866664281e-05 3.536682251250e-03 0.0 
0.0 0.0 -6.945591671051e-04 
3.734899909460e-04 -6.738638085340e-05 0.0 
-6.738638085340e-05 3.939792172232e-03 0.0 
0.0 0.0 -7.153432943975e-04 
-1.585370612842e-04 -6.803530606548e-05 0.0 
-6.803530606548e-05 3.674287764596e-03 0.0 
0.0 0.0 -6.407943132712e-04 
2.016820983658e-03 2.440962188962e-03 0.0 
2.440962188962e-03 3.524784543458e-03 0.0 
0.0 0.0 -9.252389381179e-04 
-5.866948865224e-04 1.806715073905e-04 0.0 
1.806715073905e-04 7.831235911472e-03 0.0 
0.0 0.0 -9.031860191931e-04 
1.840844646126e-03 6.456728091804e-04 0.0 
6.456728091804e-04 3.085537344167e-03 0.0 
0.0 0.0 -7.912461436151e-04 
6.823202237279e-04 -1.083329291303e-04 0.0 
-1.083329291303e-04 3.101251877477e-03 0.0 
0.0 0.0 -6.795300430148e-04 
-7.539028914794e-04 -4.959050989062e-06 0.0 
-4.959050989062e-06 4.922681506756e-03 0.0 
0.0 0.0 -7.516786372745e-04 
-8.065421024267e-04 1.420005202742e-05 0.0 
1.420005202742e-05 5.322326400601e-03 0.0 
0.0 0.0 -8.094822736869e-04 
-8.086043951130e-04 -1.965516725378e-05 0.0 
-1.965516725378e-05 5.337498560082e-03 0.0 
0.0 0.0 -8.097394517040e-04 
-8.597670883848e-04 -1.890965562489e-05 0.0 
-1.890965562489e-05 5.752558822544e-03 0.0 
0.0 0.0 -8.733121467894e-04 
-8.092120706638e-04 -2.844643670805e-05 0.0 
-2.844643670805e-05 5.361887279047e-03 0.0 
0.0 0.0 -8.155917408702e-04 
-4.308239902778e-04 -3.500688835628e-05 0.0 
-3.500688835628e-05 4.852491890764e-03 0.0 
0.0 0.0 -7.142889698252e-04 
-6.417063545083e-04 -1.960744425690e-05 0.0 
-1.960744425690e-05 5.211767018122e-03 0.0 
0.0 0.0 -7.203814455593e-04 
-7.768924780056e-04 -2.868029406695e-06 0.0 
-2.868029406695e-06 5.138075958514e-03 0.0 
0.0 0.0 -7.191279348271e-04 
-7.886598335930e-04 -1.061713611240e-05 0.0 
-1.061713611240e-05 5.496540053141e-03 0.0 
0.0 0.0 -7.313752629775e-04 
-8.175041574620e-04 -1.339985031829e-05 0.0 
-1.339985031829e-05 5.325451819177e-03 0.0 
0.0 0.0 -7.381132110740e-04 
-7.535034182627e-04 -1.334616698496e-05 0.0 
-1.334616698496e-05 4.954805409050e-03 0.0 
0.0 0.0 -7.287797106187e-04 
-8.727443434119e-04 -1.198319040408e-05 0.0 
-1.198319040408e-05 5.716383369956e-03 0.0 
0.0 0.0 -7.456265413750e-04 
-8.419062690260e-04 6.037385086592e-06 0.0 
6.037385086592e-06 5.485930337894e-03 0.0 
0.0 0.0 -7.481065018679e-04 
-7.467365547974e-04 -1.323074519901e-05 0.0 
-1.323074519901e-05 4.916042254111e-03 0.0 
0.0 0.0 -7.509531518293e-04 
-6.281984343026e-05 -8.116789961942e-06 0.0 
-8.116789961942e-06 3.039228182762e-04 0.0 
0.0 0.0 -5.875963060191e-05 
-1.355333239518e-04 1.033404854003e-05 0.0 
1.033404854003e-05 6.720001517331e-04 0.0 
0.0 0.0 -1.336704791874e-04 
-1.161977978584e-04 -1.934103848400e-05 0.0 
-1.934103848400e-05 6.482029993426e-04 0.0 
0.0 0.0 -1.318084371690e-04 
-5.452222168942e-05 -1.087537936824e-04 0.0 
-1.087537936824e-04 9.036711557701e-04 0.0 
0.0 0.0 -1.954650243430e-04 
-1.160347773174e-04 -2.545371669685e-05 0.0 
-2.545371669685e-05 9.873903129042e-04 0.0 
0.0 0.0 -1.996745964068e-04 
4.768437036576e-04 -3.697781520083e-04 0.0 
-3.697781520083e-04 7.399947023228e-04 0.0 
0.0 0.0 -2.586654344069e-04 
2.059090964834e-04 -2.292855805724e-04 0.0 
-2.292855805724e-04 9.774859857267e-04 0.0 
0.0 0.0 -2.494736616194e-04 
-1.355920943443e-04 -1.133959606150e-05 0.0 
-1.133959606150e-05 6.743890404386e-04 0.0 
0.0 0.0 -1.329747880817e-04 
-5.916993316141e-05 -2.320129164535e-06 0.0 
-2.320129164535e-06 2.981065881978e-04 0.0 
0.0 0.0 -5.794854899121e-05 
-1.008609120205e-04 -2.255968483838e-05 0.0 
-2.255968483838e-05 6.243878086551e-04 0.0 
0.0 0.0 -1.315689628225e-04 
-5.700489183938e-05 1.676517162928e-06 0.0 
1.676517162928e-06 2.920832994483e-04 0.0 
0.0 0.0 -5.719792189481e-05 
-1.238747440152e-04 -2.276140281109e-06 0.0 
-2.276140281109e-06 6.397385701004e-04 0.0 
0.0 0.0 -1.299421249981e-04 
6.115656136626e-05 -1.666006080607e-04 0.0 
-1.666006080607e-04 8.257077200031e-04 0.0 
0.0 0.0 -2.038865569970e-04 
-4.229768990904e-05 -9.669861900463e-05 0.0 
-9.669861900463e-05 1.473177792455e-03 0.0 
0.0 0.0 -2.925150634556e-04 
-7.569915648176e-04 2.970813917562e-05 0.0 
2.970813917562e-05 7.905825122080e-03 0.0 
0.0 0.0 -8.496441461330e-04 
-6.623633125060e-04 4.679424212514e-06 0.0 
4.679424212514e-06 4.281040174428e-03 0.0 
0.0 0.0 -6.595503360071e-04 
-6.354861751499e-04 1.876466608724e-05 0.0 
1.876466608724e-05 4.076331016795e-03 0.0 
0.0 0.0 -6.264797819744e-04 
-5.599424489824e-04 1.786432067308e-05 0.0 
1.786432067308e-05 3.606289239689e-03 0.0 
0.0 0.0 -5.641716646261e-04 
-5.920398226297e-04 -6.404173419158e-06 0.0 
-6.404173419158e-06 3.856170116840e-03 0.0 
0.0 0.0 -5.974662984275e-04 
-6.971605018600e-04 2.093612217780e-05 0.0 
2.093612217780e-05 4.459125829408e-03 0.0 
0.0 0.0 -6.865721209800e-04 
-5.129377855319e-04 1.436792480306e-05 0.0 
1.436792480306e-05 3.352681994320e-03 0.0 
0.0 0.0 -5.286920563404e-04 
-4.490352396027e-04 2.209166802429e-05 0.0 
2.209166802429e-05 3.165073597572e-03 0.0 
0.0 0.0 -5.038291843518e-04 
1.247961558067e-03 -2.403941962005e-06 0.0 
-2.403941962005e-06 -4.945971201038e-04 0.0 
0.0 0.0 -1.945265996437e-04 
9.130034245218e-04 -3.188718530255e-05 0.0 
-3.188718530255e-05 -3.549703080586e-04 0.0 
0.0 0.0 -1.455762810350e-04 
9.021096644912e-04 -1.182328018291e-05 0.0 
-1.182328018291e-05 -3.111452931743e-04 0.0 
0.0 0.0 -1.733572304648e-04 
7.257481175588e-04 8.680669469321e-06 0.0 
8.680669469321e-06 1.287713840712e-04 0.0 
0.0 0.0 -1.976702944042e-04 
6.934961731398e-04 -1.456940401020e-05 0.0 
-1.456940401020e-05 1.703443140275e-04 0.0 
0.0 0.0 -1.960684762570e-04 
8.367745057366e-04 4.581609445031e-06 0.0 
4.581609445031e-06 -2.846934576066e-04 0.0 
0.0 0.0 -1.370317762407e-04 
7.080536436300e-04 1.592477430511e-05 0.0 
1.592477430511e-05 -1.554473767723e-04 0.0 
0.0 0.0 -1.397136778668e-04 
1.076271614944e-03 2.852262664296e-05 0.0 
2.852262664296e-05 -3.518106136928e-04 0.0 
0.0 0.0 -1.999743856389e-04 
3.723238323000e-04 7.028467484493e-06 0.0 
7.028467484493e-06 1.997189734822e-04 0.0 
0.0 0.0 -1.480354670849e-04 
2.584870053852e-04 6.754613525333e-07 0.0 
6.754613525333e-07 6.127539427515e-04 0.0 
0.0 0.0 -1.994574706984e-04 
7.666000885429e-04 1.736005376907e-05 0.0 
1.736005376907e-05 -1.252413958461e-04 0.0 
0.0 0.0 -1.664505054009e-04 
-1.060096701056e-03 -2.854203109808e-05 0.0 
-2.854203109808e-05 7.080511066382e-03 0.0 
0.0 0.0 -1.060427308513e-03 
-1.101245431622e-03 -2.265554676226e-05 0.0 
-2.265554676226e-05 7.326835296988e-03 0.0 
0.0 0.0 -1.097082233180e-03 
-6.336118373782e-04 1.254392225442e-04 0.0 
1.254392225442e-04 7.854862186438e-03 0.0 
0.0 0.0 -8.880503798105e-04 
-7.525731418623e-04 -2.553654618198e-05 0.0 
-2.553654618198e-05 4.964909214712e-03 0.0 
0.0 0.0 -7.584009903415e-04 
-5.671099606206e-05 2.025225744385e-06 0.0 
2.025225744385e-06 2.971089711715e-04 0.0 
0.0 0.0 -5.884959645352e-05 
-1.289629945887e-03 9.340834972084e-07 0.0 
9.340834972084e-07 8.709082986733e-03 0.0 
0.0 0.0 -1.292107529982e-03 
-1.266722323109e-03 6.952844722914e-06 0.0 
6.952844722914e-06 8.748913511263e-03 0.0 
0.0 0.0 -1.302707743791e-03 
-1.275516500742e-03 1.956660776872e-05 0.0 
1.956660776872e-05 8.762360934358e-03 0.0 
0.0 0.0 -1.304823151597e-03 
-7.733393730340e-04 5.669638075357e-06 0.0 
5.669638075357e-06 7.329938432092e-03 0.0 
0.0 0.0 -8.130803056652e-04 
-7.295142924597e-04 1.446803260308e-06 0.0 
1.446803260308e-06 7.488467178034e-03 0.0 
0.0 0.0 -8.235547824253e-04 
-1.301054551283e-03 6.034978514707e-06 0.0 
6.034978514707e-06 8.721681190094e-03 0.0 
0.0 0.0 -1.294569364341e-03 
1.242142285722e-04 -1.261885051460e-04 0.0 
-1.261885051460e-04 2.256126524825e-03 0.0 
0.0 0.0 -4.512809064328e-04 
-1.140639937590e-03 1.553161996339e-04 0.0 
1.553161996339e-04 8.152908148127e-03 0.0 
0.0 0.0 -1.178931160051e-03 
-1.181600644536e-03 2.602984545300e-06 0.0 
2.602984545300e-06 7.898254142128e-03 0.0 
0.0 0.0 -1.178628832109e-03 
-7.665527260490e-05 1.424357949807e-04 0.0 
1.424357949807e-04 1.718821300811e-03 0.0 
0.0 0.0 -3.268383546744e-04 
8.616151817666e-04 -2.891655962708e-04 0.0 
-2.891655962708e-04 1.438110718240e-03 0.0 
0.0 0.0 -4.373623857420e-04 
-6.945956626628e-04 -1.075257952351e-05 0.0 
-1.075257952351e-05 6.147971675908e-03 0.0 
0.0 0.0 -7.623683331416e-04 
1.734384768912e-04 -1.547114674891e-05 0.0 
-1.547114674891e-05 4.867063925756e-03 0.0 
0.0 0.0 -7.529036186598e-04 
-4.821080315283e-04 -3.649929122030e-06 0.0 
-3.649929122030e-06 6.712995868700e-03 0.0 
0.0 0.0 -8.060397872041e-04 
-3.760879814652e-04 -2.590622463213e-05 0.0 
-2.590622463213e-05 5.520529582833e-03 0.0 
0.0 0.0 -7.504277484048e-04 
-2.503890358418e-04 7.449969327655e-06 0.0 
7.449969327655e-06 6.166913792367e-03 0.0 
0.0 0.0 -7.959686555653e-04 
-1.295698999393e-04 3.875307500742e-04 0.0 
3.875307500742e-04 7.053264790999e-03 0.0 
0.0 0.0 -9.023591228240e-04 
2.666589420620e-04 -6.374933005153e-06 0.0 
-6.374933005153e-06 1.185605864542e-03 0.0 
0.0 0.0 -2.939217362394e-04 
-9.366102056303e-04 6.334636788541e-06 0.0 
6.334636788541e-06 6.210934504197e-03 0.0 
0.0 0.0 -9.364826870394e-04 
-9.120035044512e-04 6.559904903639e-06 0.0 
6.559904903639e-06 6.042070421320e-03 0.0 
0.0 0.0 -9.130351872960e-04 
-1.076387052139e-03 -3.360138210493e-06 0.0 
-3.360138210493e-06 7.184148688862e-03 0.0 
0.0 0.0 -1.075939795031e-03 
-2.474753581039e-04 -4.191516048269e-05 0.0 
-4.191516048269e-05 2.746616571573e-03 0.0 
0.0 0.0 -4.709579147287e-04 
-7.280985448241e-04 -1.456258463755e-05 0.0 
-1.456258463755e-05 4.755322514766e-03 0.0 
0.0 0.0 -7.051516816351e-04 
-1.894366336593e-04 -3.279647818100e-05 0.0 
-3.279647818100e-05 1.723848181759e-03 0.0 
0.0 0.0 -3.104331955072e-04 
4.349952338298e-04 1.618480768996e-03 0.0 
1.618480768996e-03 6.604990131283e-03 0.0 
0.0 0.0 -1.036851432729e-03 
-7.622164195474e-04 2.744443286294e-08 0.0 
2.744443286294e-08 4.979735740211e-03 0.0 
0.0 0.0 -7.590395520047e-04 
1.430831557457e-03 9.364499968957e-05 0.0 
9.364499968957e-05 2.826924540960e-03 0.0 
0.0 0.0 -7.275674245527e-04 
8.735131713920e-05 -9.993347662005e-05 0.0 
-9.993347662005e-05 3.256087094971e-03 0.0 
0.0 0.0 -6.120242822960e-04 
4.278657243029e-04 -1.772818229156e-04 0.0 
-1.772818229156e-04 2.180806724183e-03 0.0 
0.0 0.0 -4.894362539292e-04 
1.101558762635e-03 -3.671246252440e-04 0.0 
-3.671246252440e-04 1.035681510490e-03 0.0 
0.0 0.0 -4.100935076628e-04 
2.871287345046e-04 8.909322103817e-04 0.0 
8.909322103817e-04 3.573573617473e-03 0.0 
0.0 0.0 -6.990242139688e-04 
9.148198101770e-04 -7.179262574982e-05 0.0 
-7.179262574982e-05 3.081886336618e-03 0.0 
0.0 0.0 -7.022394873106e-04 
3.239904977804e-04 1.051474604627e-04 0.0 
1.051474604627e-04 5.343501972670e-03 0.0 
0.0 0.0 -7.967876262701e-04 
-1.114669738223e-03 -2.759101931756e-06 0.0 
-2.759101931756e-06 7.438940293733e-03 0.0 
0.0 0.0 -1.112552678551e-03 
-6.462501624827e-05 1.770990277588e-05 0.0 
1.770990277588e-05 3.433829757691e-04 0.0 
0.0 0.0 -7.588693830913e-05 
3.049652307055e-04 1.529773874916e-04 0.0 
1.529773874916e-04 5.571482886779e-03 0.0 
0.0 0.0 -8.125110647573e-04 
6.851769023117e-04 8.731632775229e-06 0.0 
8.731632775229e-06 4.041411215263e-03 0.0 
0.0 0.0 -7.425219478036e-04 
-9.623974161653e-04 3.311768495811e-06 0.0 
3.311768495811e-06 6.381924133008e-03 0.0 
0.0 0.0 -9.599091010803e-04 
1.268623829626e-03 9.575448967221e-04 0.0 
9.575448967221e-04 4.647568782657e-03 0.0 
0.0 0.0 -8.717984015159e-04 
8.750493383702e-04 -5.317045484571e-04 0.0 
-5.317045484571e-04 5.618179990993e-04 0.0 
0.0 0.0 -2.909097700217e-04 
-1.100348444179e-03 -1.047118262825e-06 0.0 
-1.047118262825e-06 7.347575470432e-03 0.0 
0.0 0.0 -1.098747615487e-03 
-1.217488030174e-03 6.848117353208e-06 0.0 
6.848117353208e-06 8.139341092548e-03 0.0 
0.0 0.0 -1.212453547082e-03 
-8.838417845426e-04 -2.547521654435e-05 0.0 
-2.547521654435e-05 5.856172789859e-03 0.0 
0.0 0.0 -8.875094802107e-04 
-1.909543411589e-04 -1.738053236738e-05 0.0 
-1.738053236738e-05 1.339802069350e-03 0.0 
0.0 0.0 -2.442495876194e-04 
-8.759046619095e-04 5.034941322806e-06 0.0 
5.034941322806e-06 5.740576630140e-03 0.0 
0.0 0.0 -8.692469099983e-04 
-1.290479477251e-04 2.215076011910e-04 0.0 
2.215076011910e-04 6.783735182757e-03 0.0 
0.0 0.0 -8.669461520230e-04 
-1.079080060508e-03 -5.136331411356e-07 0.0 
-5.136331411356e-07 7.205755043523e-03 0.0 
0.0 0.0 -1.078220320736e-03 
-2.754683468768e-04 -3.150033389888e-05 0.0 
-3.150033389888e-05 2.552384502890e-03 0.0 
0.0 0.0 -4.336020471383e-04 
2.420389178651e-03 7.693785582817e-04 0.0 
7.693785582817e-04 1.994642411313e-03 0.0 
0.0 0.0 -7.692599190236e-04 
-2.852387643010e-04 6.507157456880e-04 0.0 
6.507157456880e-04 4.406646285756e-03 0.0 
0.0 0.0 -7.428158978947e-04 
-1.330704443645e-03 4.172445233028e-03 0.0 
4.172445233028e-03 5.123431248040e-03 0.0 
0.0 0.0 -6.865907729104e-04 
-1.214586438871e-03 8.024689912007e-06 0.0 
8.024689912007e-06 8.094834481891e-03 0.0 
0.0 0.0 -1.206557591227e-03 
2.433259198560e-03 1.917064652532e-03 0.0 
1.917064652532e-03 2.132099096744e-03 0.0 
0.0 0.0 -8.158497003131e-04 
7.550515577489e-04 6.597383475506e-04 0.0 
6.597383475506e-04 5.471030249886e-03 0.0 
0.0 0.0 -8.738545984305e-04 
1.821351604396e-03 7.864448423399e-04 0.0 
7.864448423399e-04 3.314434019933e-03 0.0 
0.0 0.0 -8.103644319387e-04 
-3.409368808594e-04 -1.496698172877e-05 0.0 
-1.496698172877e-05 2.793010735038e-03 0.0 
0.0 0.0 -4.629711029823e-04 
-9.846832876757e-05 7.509167976334e-05 0.0 
7.509167976334e-05 6.286999516931e-03 0.0 
0.0 0.0 -8.208203054874e-04 
2.970791643905e-03 1.397081304750e-03 0.0 
1.397081304750e-03 1.339355707669e-03 0.0 
0.0 0.0 -7.718310395264e-04 
-1.165062879850e-03 -3.169874331004e-06 0.0 
-3.169874331004e-06 7.809274989077e-03 0.0 
0.0 0.0 -1.164614768973e-03 
7.057852940504e-04 1.903837360211e-03 0.0 
1.903837360211e-03 5.092325780945e-03 0.0 
0.0 0.0 -9.741988473407e-04 
2.829642311928e-03 7.182348829894e-04 0.0 
7.182348829894e-04 6.641025505187e-04 0.0 
0.0 0.0 -6.375205594687e-04 
-1.120494149395e-03 -5.362450288188e-06 0.0 
-5.362450288188e-06 7.500323563236e-03 0.0 
0.0 0.0 -1.121170216299e-03 
1.744555804939e-03 2.498452045727e-04 0.0 
2.498452045727e-04 2.560976649271e-03 0.0 
0.0 0.0 -7.391752159568e-04 
1.108904265107e-03 1.039917611246e-03 0.0 
1.039917611246e-03 5.022157891914e-03 0.0 
0.0 0.0 -8.933717169471e-04 
-7.204394818932e-04 2.240536651164e-05 0.0 
2.240536651164e-05 4.729079787637e-03 0.0 
0.0 0.0 -7.240542973723e-04 
-7.114862798363e-04 2.367295121197e-04 0.0 
2.367295121197e-04 5.795777120408e-03 0.0 
0.0 0.0 -9.041109700986e-04 
-9.863008524358e-04 -3.464876425143e-06 0.0 
-3.464876425143e-06 6.537147458198e-03 0.0 
0.0 0.0 -9.824247929831e-04 
7.690675338261e-04 1.444356042881e-03 0.0 
1.444356042881e-03 4.056615551403e-03 0.0 
0.0 0.0 -8.602697087463e-04 
-8.832628326081e-04 1.198077156941e-05 0.0 
1.198077156941e-05 6.091112320937e-03 0.0 
0.0 0.0 -7.538647460115e-04 
9.149387580333e-05 1.137507070912e-04 0.0 
1.137507070912e-04 5.942490805862e-03 0.0 
0.0 0.0 -8.166497543969e-04 
3.662746446551e-04 -1.186542746011e-04 0.0 
-1.186542746011e-04 1.150335634246e-03 0.0 
0.0 0.0 -3.071334217218e-04 
2.020662235429e-04 8.821299537319e-04 0.0 
8.821299537319e-04 2.901953456393e-03 0.0 
0.0 0.0 -5.719042557127e-04 
-9.488327861295e-04 -5.202841949994e-06 0.0 
-5.202841949994e-06 6.331676782321e-03 0.0 
0.0 0.0 -9.536514739466e-04 
1.034963684610e-03 1.866085572292e-03 0.0 
1.866085572292e-03 5.410576180180e-03 0.0 
0.0 0.0 -9.865982452702e-04 
-1.224312444037e-03 6.690841738655e-06 0.0 
6.690841738655e-06 8.269264616708e-03 0.0 
0.0 0.0 -1.229329624135e-03 
-2.240747741550e-04 7.379117524227e-04 0.0 
7.379117524227e-04 3.971281582737e-03 0.0 
0.0 0.0 -6.801182747099e-04 
-7.772958265255e-05 4.527596450377e-05 0.0 
4.527596450377e-05 6.051081003912e-03 0.0 
0.0 0.0 -8.056630395892e-04 
-1.187584404498e-03 2.370146928362e-06 0.0 
2.370146928362e-06 7.946791552093e-03 0.0 
0.0 0.0 -1.185355684152e-03 
6.511432891919e-04 -7.158399497124e-05 0.0 
-7.158399497124e-05 3.503825292136e-03 0.0 
0.0 0.0 -7.093916918670e-04 
2.814717075213e-04 7.462482190104e-06 0.0 
7.462482190104e-06 1.387967089900e-03 0.0 
0.0 0.0 -3.333104686742e-04 
-2.093952213532e-04 3.304570162056e-05 0.0 
3.304570162056e-05 1.489579519537e-03 0.0 
0.0 0.0 -2.654833071040e-04 
1.567642458135e-03 3.069041783261e-04 0.0 
3.069041783261e-04 1.160552882552e-03 0.0 
0.0 0.0 -5.092532232582e-04 
2.609129388128e-03 1.724891997003e-03 0.0 
1.724891997003e-03 1.745289125908e-03 0.0 
0.0 0.0 -7.817448632792e-04 
5.596316461407e-04 -3.751795105042e-05 0.0 
-3.751795105042e-05 3.959671038127e-03 0.0 
0.0 0.0 -7.286134599794e-04 
-1.215702767408e-03 6.945356614776e-05 0.0 
6.945356614776e-05 8.313696213250e-03 0.0 
0.0 0.0 -1.209906042834e-03 
-2.388777499069e-04 3.007028546428e-05 0.0 
3.007028546428e-05 6.361091748172e-03 0.0 
0.0 0.0 -8.102850514562e-04 
7.449692697170e-04 3.254117401745e-04 0.0 
3.254117401745e-04 5.024414881970e-03 0.0 
0.0 0.0 -8.210598803063e-04 
-1.740149948369e-04 2.297345845755e-04 0.0 
2.297345845755e-04 7.652740464425e-04 0.0 
0.0 0.0 -1.519369657486e-04 
-7.846966032169e-04 1.711741616571e-03 0.0 
1.711741616571e-03 4.727674855938e-03 0.0 
0.0 0.0 -7.126371066839e-04 
-3.782475837262e-04 1.748756277656e-05 0.0 
1.748756277656e-05 6.655333133319e-03 0.0 
0.0 0.0 -8.149259658864e-04 
2.116706807323e-03 6.259297762930e-04 0.0 
6.259297762930e-04 2.450212585714e-03 0.0 
0.0 0.0 -7.710934522660e-04 
8.592202041060e-04 8.598402119832e-04 0.0 
8.598402119832e-04 5.412930029469e-03 0.0 
0.0 0.0 -8.929499781447e-04 
-7.730661448259e-04 -1.660021531995e-06 0.0 
-1.660021531995e-06 5.094968885292e-03 0.0 
0.0 0.0 -7.412828279035e-04 
4.021725395280e-04 1.471508162491e-03 0.0 
1.471508162491e-03 6.622739893721e-03 0.0 
0.0 0.0 -1.022999107199e-03 
-1.615608953582e-04 2.976604240597e-03 0.0 
2.976604240597e-03 3.288044045276e-03 0.0 
0.0 0.0 -5.757576642514e-04 
-4.796541054634e-04 8.733439398817e-06 0.0 
8.733439398817e-06 6.924201263564e-03 0.0 
0.0 0.0 -8.199277074164e-04 
9.482681213643e-04 5.100348568404e-04 0.0 
5.100348568404e-04 4.868881859223e-03 0.0 
0.0 0.0 -8.353554944130e-04 
3.909042092836e-04 5.636776101743e-04 0.0 
5.636776101743e-04 2.430928757674e-03 0.0 
0.0 0.0 -5.248669331578e-04 
-7.497340550745e-04 3.779029275121e-06 0.0 
3.779029275121e-06 4.910648048132e-03 0.0 
0.0 0.0 -7.498068730476e-04 
-6.212906945357e-04 2.790648082657e-05 0.0 
2.790648082657e-05 7.489191854748e-03 0.0 
0.0 0.0 -8.413832859508e-04 
5.847664910640e-04 4.660585158111e-04 0.0 
4.660585158111e-04 5.598316105368e-03 0.0 
0.0 0.0 -8.573872239371e-04 
1.670719858726e-03 2.196837039495e-03 0.0 
2.196837039495e-03 3.518618564639e-03 0.0 
0.0 0.0 -9.040673339259e-04 
2.072075764976e-03 4.671016582472e-04 0.0 
4.671016582472e-04 2.286951141272e-03 0.0 
0.0 0.0 -7.531383572245e-04 
-8.105818119906e-04 4.623605537461e-03 0.0 
4.623605537461e-03 4.191763749225e-03 0.0 
0.0 0.0 -6.191377506773e-04 
2.864354168041e-04 -4.056751767139e-05 0.0 
-4.056751767139e-05 4.390536749469e-03 0.0 
0.0 0.0 -7.341043471945e-04 
-8.971494958769e-04 5.494538239140e-05 0.0 
5.494538239140e-05 6.190139994838e-03 0.0 
0.0 0.0 -9.366828036329e-04 
-1.068748964987e-03 2.814365708969e-04 0.0 
2.814365708969e-04 8.540482478120e-03 0.0 
0.0 0.0 -1.261549656155e-03 
4.737036255626e-04 5.179200794482e-04 0.0 
5.179200794482e-04 5.890887354997e-03 0.0 
0.0 0.0 -8.757303743517e-04 
-9.680073786691e-04 -7.171826150541e-06 0.0 
-7.171826150541e-06 6.444265355765e-03 0.0 
0.0 0.0 -9.696660045843e-04 
8.661091920680e-05 -5.755694204532e-05 0.0 
-5.755694204532e-05 4.382929599258e-03 0.0 
0.0 0.0 -7.210511048833e-04 
2.123466074417e-03 1.664463903620e-03 0.0 
1.664463903620e-03 3.325201109837e-03 0.0 
0.0 0.0 -8.736343346339e-04 
6.179209892561e-04 -1.232904878970e-05 0.0 
-1.232904878970e-05 2.465324103733e-04 0.0 
0.0 0.0 -1.970089232863e-04 
-4.465511234649e-04 3.033458821173e-03 0.0 
3.033458821173e-03 3.986129970823e-03 0.0 
0.0 0.0 -6.447622526173e-04 
-1.763488853504e-04 -4.545772426498e-05 0.0 
-4.545772426498e-05 4.802248520646e-03 0.0 
0.0 0.0 -7.266170555530e-04 
2.326166356295e-03 2.710004566993e-04 0.0 
2.710004566993e-04 5.708049532319e-04 0.0 
0.0 0.0 -5.374563060555e-04 
1.799346773353e-03 3.724817214176e-04 0.0 
3.724817214176e-04 2.711701040172e-03 0.0 
0.0 0.0 -7.556293367420e-04 
3.315842303691e-04 9.657253439091e-04 0.0 
9.657253439091e-04 6.578587547034e-03 0.0 
0.0 0.0 -9.583261996467e-04 
-3.987577593029e-04 -3.221132181724e-05 0.0 
-3.221132181724e-05 5.181510827366e-03 0.0 
0.0 0.0 -7.323190797762e-04 
2.767935707547e-03 4.640697089262e-04 0.0 
4.640697089262e-04 5.113260814677e-04 0.0 
0.0 0.0 -6.015264011954e-04 
-5.872856993197e-04 -1.916905840135e-05 0.0 
-1.916905840135e-05 5.522406344222e-03 0.0 
0.0 0.0 -7.383353710319e-04 
-5.123827827108e-04 3.505019789021e-03 0.0 
3.505019789021e-03 3.488399056948e-03 0.0 
0.0 0.0 -5.519888345566e-04 
-9.985595773763e-04 -1.015463228059e-05 0.0 
-1.015463228059e-05 6.646851321069e-03 0.0 
0.0 0.0 -9.983267706061e-04 
-7.617605585797e-04 -1.077247358802e-05 0.0 
-1.077247358802e-05 5.828593338854e-03 0.0 
0.0 0.0 -7.451816945906e-04 
-4.386271242559e-04 7.101833019743e-04 0.0 
7.101833019743e-04 6.094563626026e-03 0.0 
0.0 0.0 -9.747077735214e-04 
-1.157093345475e-04 -3.127146706398e-05 0.0 
-3.127146706398e-05 1.032840018986e-03 0.0 
0.0 0.0 -2.040322045631e-04 
2.294644353122e-03 2.393855636232e-03 0.0 
2.393855636232e-03 3.043584762913e-03 0.0 
0.0 0.0 -9.014824555561e-04 
-7.332667367411e-04 2.332459545987e-06 0.0 
2.332459545987e-06 7.102434885564e-03 0.0 
0.0 0.0 -8.050764110088e-04 
1.126885942789e-03 -1.875148453927e-04 0.0 
-1.875148453927e-04 1.938243999261e-03 0.0 
0.0 0.0 -5.654343806685e-04 
1.545804057765e-03 2.964177888312e-04 0.0 
2.964177888312e-04 3.120117886995e-03 0.0 
0.0 0.0 -7.588866028945e-04 
-1.064235786948e-03 -6.087517053093e-06 0.0 
-6.087517053093e-06 7.102031703649e-03 0.0 
0.0 0.0 -1.063653581392e-03 
-4.139233256579e-04 2.001362348535e-03 0.0 
2.001362348535e-03 2.976751318158e-03 0.0 
0.0 0.0 -4.839843007303e-04 
1.313268424056e-03 3.237630420443e-04 0.0 
3.237630420443e-04 3.716048733484e-03 0.0 
0.0 0.0 -7.790776457586e-04 
4.952997582466e-04 1.836175049320e-03 0.0 
1.836175049320e-03 5.506965675261e-03 0.0 
0.0 0.0 -9.967724029938e-04 
2.241860502237e-03 2.137721374002e-03 0.0 
2.137721374002e-03 3.248522870290e-03 0.0 
0.0 0.0 -8.979737427343e-04 
2.820394951147e-03 1.885410605311e-03 0.0 
1.885410605311e-03 1.906671486441e-03 0.0 
0.0 0.0 -8.297838424430e-04 
1.046541457238e-03 3.343932383256e-04 0.0 
3.343932383256e-04 4.351730213264e-03 0.0 
0.0 0.0 -7.998252877848e-04 
-1.510543725500e-05 2.370900018865e-03 0.0 
2.370900018865e-03 2.726485689670e-03 0.0 
0.0 0.0 -5.057041985798e-04 
2.800732705232e-04 -1.693714390496e-04 0.0 
-1.693714390496e-04 1.936644050250e-03 0.0 
0.0 0.0 -4.238464704258e-04 
1.233079142433e-04 -1.485436242554e-04 0.0 
-1.485436242554e-04 1.702637858355e-03 0.0 
0.0 0.0 -3.586180353125e-04 
2.727674336724e-03 3.918958705195e-04 0.0 
3.918958705195e-04 7.188109225341e-04 0.0 
0.0 0.0 -6.294631353604e-04 
3.338135493143e-04 1.797907988490e-03 0.0 
1.797907988490e-03 5.883087856001e-03 0.0 
0.0 0.0 -1.019906499281e-03 
5.164942074494e-04 -7.175383025052e-06 0.0 
-7.175383025052e-06 6.769967685861e-04 0.0 
0.0 0.0 -2.521214004998e-04 
-1.054932560315e-03 -8.075575040934e-06 0.0 
-8.075575040934e-06 7.041307941420e-03 0.0 
0.0 0.0 -1.054898413167e-03 
4.188444031137e-05 -1.482338923128e-04 0.0 
-1.482338923128e-04 1.233539578307e-03 0.0 
0.0 0.0 -2.660187670962e-04 
2.583942376374e-03 1.822493135833e-04 0.0 
1.822493135833e-04 6.485457426071e-04 0.0 
0.0 0.0 -5.935709857392e-04 
1.521053937029e-03 1.604283295687e-03 0.0 
1.604283295687e-03 4.503263530943e-03 0.0 
0.0 0.0 -9.179311765187e-04 
-9.321388457541e-04 -4.809931635804e-05 0.0 
-4.809931635804e-05 6.189086367178e-03 0.0 
0.0 0.0 -9.315431351609e-04 
2.321956846811e-03 1.387952727866e-04 0.0 
1.387952727866e-04 1.075762077263e-03 0.0 
0.0 0.0 -6.211106552582e-04 
-1.332062804268e-05 1.000565354064e-05 0.0 
1.000565354064e-05 2.078062526824e-03 0.0 
0.0 0.0 -3.989951351066e-04 
2.148399970632e-03 -1.534302457786e-05 0.0 
-1.534302457786e-05 1.033178315950e-03 0.0 
0.0 0.0 -5.850331209179e-04 
2.547602835346e-03 1.814598946266e-03 0.0 
1.814598946266e-03 2.537437726255e-03 0.0 
0.0 0.0 -8.526353433923e-04 
1.881801355222e-03 -2.936690759741e-05 0.0 
-2.936690759741e-05 1.464553158463e-03 0.0 
0.0 0.0 -6.124823626799e-04 
1.658959567948e-03 -1.349919003876e-04 0.0 
-1.349919003876e-04 1.469689462346e-03 0.0 
0.0 0.0 -5.760838601101e-04 
-1.248717565768e-03 -5.535813130843e-06 0.0 
-5.535813130843e-06 8.366851373819e-03 0.0 
0.0 0.0 -1.242975171717e-03 
1.413165383062e-03 -1.299250647584e-04 0.0 
-1.299250647584e-04 1.877229867544e-03 0.0 
0.0 0.0 -6.030381679152e-04 
-1.295271260153e-03 -1.307857609192e-05 0.0 
-1.307857609192e-05 8.801391727423e-03 0.0 
0.0 0.0 -1.305370344976e-03 
-7.742124874316e-04 -2.609909270179e-06 0.0 
-2.609909270179e-06 7.960166963414e-03 0.0 
0.0 0.0 -8.437901085914e-04 
-8.024513087945e-04 -3.501513188687e-05 0.0 
-3.501513188687e-05 5.274019348334e-03 0.0 
0.0 0.0 -7.997855503562e-04 
-3.932946824198e-04 1.435017755047e-03 0.0 
1.435017755047e-03 2.545938092043e-03 0.0 
0.0 0.0 -4.121418992062e-04 
-6.508445551723e-05 3.373963354690e-06 0.0 
3.373963354690e-06 3.129607731290e-04 0.0 
0.0 0.0 -6.767973558354e-05 
1.257771068626e-04 1.975473815829e-03 0.0 
1.975473815829e-03 2.167269487013e-03 0.0 
0.0 0.0 -4.369243393394e-04 
1.019730686716e-03 -2.431956422964e-04 0.0 
-2.431956422964e-04 1.663080215167e-03 0.0 
0.0 0.0 -5.013603847490e-04 
-1.050055115925e-03 3.048397369310e-06 0.0 
3.048397369310e-06 6.976603117535e-03 0.0 
0.0 0.0 -1.041735578970e-03 
-8.016418655660e-04 8.516902983734e-06 0.0 
8.516902983734e-06 5.282246051091e-03 0.0 
0.0 0.0 -8.029817139903e-04 
6.334454814624e-04 -2.232484024707e-04 0.0 
-2.232484024707e-04 1.821756477928e-03 0.0 
0.0 0.0 -4.630712860745e-04 
2.097357637351e-04 2.031510112756e-03 0.0 
2.031510112756e-03 6.873922097854e-03 0.0 
0.0 0.0 -1.111044590335e-03 
-4.546543465909e-05 1.031705551683e-03 0.0 
1.031705551683e-03 7.357829770839e-03 0.0 
0.0 0.0 -1.021668296801e-03 
-1.028575866269e-03 -1.191239422504e-05 0.0 
-1.191239422504e-05 6.846657277970e-03 0.0 
0.0 0.0 -1.028769680629e-03 
6.021759184455e-04 7.178227114701e-04 0.0 
7.178227114701e-04 5.798421425293e-03 0.0 
0.0 0.0 -8.930402713005e-04 
1.970788049997e-03 1.800023193021e-03 0.0 
1.800023193021e-03 3.685885076228e-03 0.0 
0.0 0.0 -8.962300823916e-04 
-1.192917845756e-03 -1.946426676365e-05 0.0 
-1.946426676365e-05 7.943592006894e-03 0.0 
0.0 0.0 -1.185717314024e-03 
-7.402744024553e-04 -5.561571202994e-05 0.0 
-5.561571202994e-05 4.875197844443e-03 0.0 
0.0 0.0 -7.451086181774e-04 
-1.274079564101e-04 8.533594738728e-07 0.0 
8.533594738728e-07 6.386951496409e-04 0.0 
0.0 0.0 -1.305770345747e-04 
-9.574910622076e-04 8.562469855072e-06 0.0 
8.562469855072e-06 6.324626929749e-03 0.0 
0.0 0.0 -7.640896720713e-04 
-3.762423050851e-04 1.430402453483e-03 0.0 
1.430402453483e-03 2.109993477445e-03 0.0 
0.0 0.0 -3.437331075899e-04 
-9.969500822322e-05 8.042392392395e-04 0.0 
8.042392392395e-04 1.887985844277e-03 0.0 
0.0 0.0 -3.524505972177e-04 
-2.535313080447e-04 7.718212050688e-05 0.0 
7.718212050688e-05 1.627483673933e-03 0.0 
0.0 0.0 -2.832406441101e-04 
-3.996333843820e-04 -2.058624981612e-06 0.0 
-2.058624981612e-06 2.989146585833e-03 0.0 
0.0 0.0 -4.856826860430e-04 
2.728269875540e-05 -1.519219748476e-04 0.0 
-1.519219748476e-04 8.126358358658e-04 0.0 
0.0 0.0 -1.942844358666e-04 
-3.069171526051e-04 1.025462193467e-03 0.0 
1.025462193467e-03 1.722145492666e-03 0.0 
0.0 0.0 -2.888902821290e-04 
4.564264926545e-05 5.943709318047e-04 0.0 
5.943709318047e-04 6.882993086429e-03 0.0 
0.0 0.0 -9.312528742713e-04 
-7.926742292646e-04 -4.732996368770e-05 0.0 
-4.732996368770e-05 5.282443543312e-03 0.0 
0.0 0.0 -8.050116406322e-04 
1.311745860908e-03 1.630775907809e-03 0.0 
1.630775907809e-03 4.902423385071e-03 0.0 
0.0 0.0 -9.396924271082e-04 
-2.659634932493e-04 6.734156956354e-04 0.0 
6.734156956354e-04 1.270151164883e-03 0.0 
0.0 0.0 -2.210826640180e-04 
-1.251801969841e-03 -1.462670654941e-05 0.0 
-1.462670654941e-05 8.397461752409e-03 0.0 
0.0 0.0 -1.247366155457e-03 
2.892347518262e-04 1.103873276392e-03 0.0 
1.103873276392e-03 6.697742594002e-03 0.0 
0.0 0.0 -9.833585811835e-04 
-6.972760863908e-04 6.255989323145e-05 0.0 
6.255989323145e-05 7.929396984704e-03 0.0 
0.0 0.0 -8.769565208168e-04 
8.247512907062e-04 1.377133393470e-03 0.0 
1.377133393470e-03 5.751626000705e-03 0.0 
0.0 0.0 -9.605178159480e-04 
-2.180388128944e-04 -2.924544915624e-06 0.0 
-2.924544915624e-06 1.180274271759e-03 0.0 
0.0 0.0 -2.130604828246e-04 
-8.442593127821e-04 -4.359073983633e-05 0.0 
-4.359073983633e-05 5.668047935442e-03 0.0 
0.0 0.0 -8.603500797662e-04 
5.026345731067e-04 1.794771254322e-03 0.0 
1.794771254322e-03 6.536137700448e-03 0.0 
0.0 0.0 -1.050661131426e-03 
-1.072962494745e-03 -3.075351322395e-06 0.0 
-3.075351322395e-06 7.220489030587e-03 0.0 
0.0 0.0 -1.080253149739e-03 
-7.361779555108e-04 1.073869853372e-04 0.0 
1.073869853372e-04 7.986558596730e-03 0.0 
0.0 0.0 -8.684209422991e-04 
-7.806106637019e-04 -1.684448248673e-06 0.0 
-1.684448248673e-06 5.212548371629e-03 0.0 
0.0 0.0 -7.979019438933e-04 
-1.254167562389e-03 1.146355027263e-05 0.0 
1.146355027263e-05 8.413941643761e-03 0.0 
0.0 0.0 -1.252774941638e-03 
3.058667705073e-04 -2.099666779407e-04 0.0 
-2.099666779407e-04 9.954131741036e-04 0.0 
0.0 0.0 -2.737139294578e-04 
-1.253589576776e-03 1.816421682348e-05 0.0 
1.816421682348e-05 8.411285343410e-03 0.0 
0.0 0.0 -1.254166199180e-03 
-6.632396075269e-04 6.602522441013e-04 0.0 
6.602522441013e-04 6.948870605085e-03 0.0 
0.0 0.0 -1.064596834851e-03 
-8.788088159188e-04 2.953384655579e-05 0.0 
2.953384655579e-05 5.848517526204e-03 0.0 
0.0 0.0 -8.840149073763e-04 
-8.453655219935e-04 1.276109640107e-05 0.0 
1.276109640107e-05 5.644378390582e-03 0.0 
0.0 0.0 -8.570326279659e-04 
-7.269754078605e-04 1.028594327111e-05 0.0 
1.028594327111e-05 7.649299855121e-03 0.0 
0.0 0.0 -8.354185619612e-04 
-7.875231938785e-04 6.952137689712e-04 0.0 
6.952137689712e-04 7.865435023609e-03 0.0 
0.0 0.0 -1.145751316612e-03 
-1.752421740853e-04 1.599785091572e-05 0.0 
1.599785091572e-05 9.248205746741e-04 0.0 
0.0 0.0 -1.769373265848e-04 
-1.014009013286e-03 3.718452203751e-05 0.0 
3.718452203751e-05 6.827048883928e-03 0.0 
0.0 0.0 -1.024357608964e-03 
-5.616084253602e-04 -2.453464513881e-05 0.0 
-2.453464513881e-05 3.828063787205e-03 0.0 
0.0 0.0 -5.984289768806e-04 
-1.136473903534e-04 -2.305801768321e-05 0.0 
-2.305801768321e-05 5.992740239483e-04 0.0 
0.0 0.0 -1.205697443559e-04 
-4.419710686599e-04 1.655726520238e-04 0.0 
1.655726520238e-04 7.360813179310e-03 0.0 
0.0 0.0 -8.700971762451e-04 
1.661769768947e-04 1.824273800207e-03 0.0 
1.824273800207e-03 6.444587066727e-03 0.0 
0.0 0.0 -1.066347693426e-03 
-6.689778741009e-04 4.836980058086e-05 0.0 
4.836980058086e-05 7.560983565878e-03 0.0 
0.0 0.0 -8.406985191722e-04 
7.804058840421e-04 1.309821151140e-05 0.0 
1.309821151140e-05 6.271958030186e-05 0.0 
0.0 0.0 -1.953152674555e-04 
-1.282550990439e-04 1.596967550426e-05 0.0 
1.596967550426e-05 5.957593377885e-04 0.0 
0.0 0.0 -1.273034037094e-04 
-3.832822480135e-04 2.068880217365e-04 0.0 
2.068880217365e-04 7.382753834429e-03 0.0 
0.0 0.0 -8.851159932925e-04 
5.216988909094e-04 2.147690526199e-03 0.0 
2.147690526199e-03 6.578252354793e-03 0.0 
0.0 0.0 -1.084474702487e-03 
7.915691836003e-04 -3.795612901912e-04 0.0 
-3.795612901912e-04 7.293156765714e-04 0.0 
0.0 0.0 -3.034980657766e-04 
-1.222286297172e-03 7.042291570175e-05 0.0 
7.042291570175e-05 8.773626930756e-03 0.0 
0.0 0.0 -1.301240816212e-03 
-1.230668747669e-04 -1.081893831763e-05 0.0 
-1.081893831763e-05 5.709731362741e-04 0.0 
0.0 0.0 -1.229206800733e-04 
-7.274132408296e-04 6.183789390236e-06 0.0 
6.183789390236e-06 4.811004360547e-03 0.0 
0.0 0.0 -7.389643750272e-04 
-4.894220677911e-05 -2.400922399639e-05 0.0 
-2.400922399639e-05 5.502051324110e-04 0.0 
0.0 0.0 -1.247417965529e-04 
-7.617105439187e-04 -1.917877960311e-05 0.0 
-1.917877960311e-05 7.995008975717e-03 0.0 
0.0 0.0 -8.611076329848e-04 
-1.262934174837e-03 2.444499081750e-05 0.0 
2.444499081750e-05 8.445031740868e-03 0.0 
0.0 0.0 -1.254845750201e-03 
-6.580718270354e-04 3.721306501361e-05 0.0 
3.721306501361e-05 4.264446760778e-03 0.0 
0.0 0.0 -6.564513288157e-04 
-1.006464855887e-03 3.253825097026e-04 0.0 
3.253825097026e-04 5.202144538734e-03 0.0 
0.0 0.0 -7.541421605440e-04 
-2.378919246763e-04 1.542441635424e-05 0.0 
1.542441635424e-05 2.584235009959e-03 0.0 
0.0 0.0 -4.426424662127e-04 
6.942829621293e-04 1.665910528386e-03 0.0 
1.665910528386e-03 6.063313059448e-03 0.0 
0.0 0.0 -1.002011415534e-03 
-1.453444214258e-04 -5.966688427493e-06 0.0 
-5.966688427493e-06 9.200346701900e-04 0.0 
0.0 0.0 -1.843356288727e-04 
-1.269994123481e-03 -1.450914975506e-05 0.0 
-1.450914975506e-05 8.504040731719e-03 0.0 
0.0 0.0 -1.260296891839e-03 
-2.873787093543e-04 2.861044775647e-04 0.0 
2.861044775647e-04 7.311825695664e-03 0.0 
0.0 0.0 -9.007897967691e-04 
-1.232924295330e-03 6.467609419336e-05 0.0 
6.467609419336e-05 8.451441168296e-03 0.0 
0.0 0.0 -1.237612786741e-03 
-3.380606580868e-04 5.946396283282e-04 0.0 
5.946396283282e-04 7.708352065775e-03 0.0 
0.0 0.0 -9.758045127133e-04 
-1.063917710965e-04 3.406664009708e-05 0.0 
3.406664009708e-05 5.707022560973e-04 0.0 
0.0 0.0 -1.219614697575e-04 
2.188616041160e-04 1.147751747281e-03 0.0 
1.147751747281e-03 6.872564303676e-03 0.0 
0.0 0.0 -1.001044091235e-03 
1.597055035259e-04 4.937851218429e-04 0.0 
4.937851218429e-04 6.527494290649e-03 0.0 
0.0 0.0 -8.940470109833e-04 
-7.453046702514e-04 4.651614229786e-05 0.0 
4.651614229786e-05 4.880400084605e-03 0.0 
0.0 0.0 -7.439744481034e-04 
-1.113967092288e-03 2.628811746328e-04 0.0 
2.628811746328e-04 8.247464944327e-03 0.0 
0.0 0.0 -1.200338782102e-03 
-5.144776230451e-04 2.576372967663e-05 0.0 
2.576372967663e-05 3.428097677241e-03 0.0 
0.0 0.0 -5.383891422301e-04 
-1.029008546792e-04 -5.775963444317e-05 0.0 
-5.775963444317e-05 1.283975760746e-03 0.0 
0.0 0.0 -2.492021827984e-04 
-1.298998890690e-03 -2.770464845184e-05 0.0 
-2.770464845184e-05 8.833071909488e-03 0.0 
0.0 0.0 -1.313490227100e-03 
1.259778152768e-03 -2.322996317349e-05 0.0 
-2.322996317349e-05 -3.880170221359e-04 0.0 
0.0 0.0 -2.451733372153e-04 
-7.470694764219e-04 -2.192265105768e-05 0.0 
-2.192265105768e-05 4.855390412225e-03 0.0 
0.0 0.0 -7.402411036050e-04 
-7.882417535641e-04 4.078836928669e-05 0.0 
4.078836928669e-05 8.037937615458e-03 0.0 
0.0 0.0 -8.471270683758e-04 
5.020635002191e-04 -1.447073204937e-05 0.0 
-1.447073204937e-05 6.120096573082e-04 0.0 
0.0 0.0 -2.401910970206e-04 
-8.452827785452e-04 -2.606429286929e-05 0.0 
-2.606429286929e-05 5.603903241888e-03 0.0 
0.0 0.0 -8.489638187885e-04 
4.657029371870e-04 2.201021971524e-03 0.0 
2.201021971524e-03 6.663768638510e-03 0.0 
0.0 0.0 -1.100305182940e-03 
-8.026025988543e-04 9.154068745299e-06 0.0 
9.154068745299e-06 5.207700225124e-03 0.0 
0.0 0.0 -7.452598433655e-04 
-1.151240916671e-03 -6.084869299020e-05 0.0 
-6.084869299020e-05 7.669030971500e-03 0.0 
0.0 0.0 -1.148445367820e-03 
3.539354896890e-04 -3.515445287308e-04 0.0 
-3.515445287308e-04 7.372924980544e-04 0.0 
0.0 0.0 -2.379222736554e-04 
-4.443161316995e-05 -2.386546642724e-06 0.0 
-2.386546642724e-06 2.380121780094e-04 0.0 
0.0 0.0 -4.855001867801e-05 
-9.645913781642e-04 -4.083102734347e-05 0.0 
-4.083102734347e-05 6.424950689754e-03 0.0 
0.0 0.0 -9.668795991591e-04 
1.686771015099e-04 9.894812342670e-04 0.0 
9.894812342670e-04 6.868977337366e-03 0.0 
0.0 0.0 -9.755934983189e-04 
-1.271701916774e-03 -1.490436147428e-05 0.0 
-1.490436147428e-05 8.529580353818e-03 0.0 
0.0 0.0 -1.260708754793e-03 
-9.164544161814e-04 3.965640940816e-05 0.0 
3.965640940816e-05 6.111358236627e-03 0.0 
0.0 0.0 -9.199601189493e-04 
-2.093975888615e-04 -4.665649638244e-05 0.0 
-4.665649638244e-05 1.197818786362e-03 0.0 
0.0 0.0 -2.164625706183e-04 
5.500169159878e-04 2.283357800162e-03 0.0 
2.283357800162e-03 6.357931546877e-03 0.0 
0.0 0.0 -1.080670258317e-03 
-6.921633639507e-04 -2.824903018132e-06 0.0 
-2.824903018132e-06 4.611993739580e-03 0.0 
0.0 0.0 -7.034625063024e-04 
7.013779668211e-04 1.885116940713e-03 0.0 
1.885116940713e-03 6.117015628981e-03 0.0 
0.0 0.0 -1.030350072639e-03 
2.687463590441e-04 6.247183130982e-04 0.0 
6.247183130982e-04 6.435424369988e-03 0.0 
0.0 0.0 -9.115319178028e-04 
-5.670525863279e-05 -1.771698635754e-05 0.0 
-1.771698635754e-05 2.585053466944e-04 0.0 
0.0 0.0 -6.449378323917e-05 
-8.615829251880e-04 1.833049888350e-05 0.0 
1.833049888350e-05 5.560933278977e-03 0.0 
0.0 0.0 -7.514999967548e-04 
-1.225143862683e-04 -2.984290666876e-05 0.0 
-2.984290666876e-05 5.860977302171e-04 0.0 
0.0 0.0 -1.223049983750e-04 
-5.859855108762e-04 5.007012451738e-05 0.0 
5.007012451738e-05 7.575611816220e-03 0.0 
0.0 0.0 -8.607146770696e-04 
-7.340847246033e-04 -1.362173230884e-05 0.0 
-1.362173230884e-05 4.810769915011e-03 0.0 
0.0 0.0 -7.232929736192e-04 

SCALARS node_materi_plasti_kappa_shear float
LOOKUP_TABLE default
1.180121760545e-03
3.167350994499e-03
6.665404233839e-03
5.923852315190e-03
1.276913083460e-03
1.651400388754e-03
1.786939275657e-03
1.967617586466e-03
2.058942690284e-03
2.084332462624e-03
2.171863432793e-03
2.401455262769e-03
2.703248692656e-03
3.016765538726e-03
3.387702219559e-03
3.743662878645e-03
4.038041639634e-03
4.421993067738e-03
4.808794218176e-03
5.224895028361e-03
5.692519916549e-03
6.151613390080e-03
6.525958939432e-03
5.932061195851e-03
5.926600494384e-03
5.932301544983e-03
5.950135022190e-03
5.960979174197e-03
5.994109060484e-03
6.043813700899e-03
6.112582968716e-03
6.208098595530e-03
6.352516196601e-03
6.465997587311e-03
6.767158203678e-03
7.086425874816e-03
7.505264220428e-03
7.823453663290e-03
8.210304538106e-03
8.487585595147e-03
8.532533376863e-03
8.546865809658e-03
8.392040887536e-03
8.227040143571e-03
8.058140298347e-03
7.895223757290e-03
7.732587613180e-03
7.595232447548e-03
7.480036934855e-03
7.361863720386e-03
7.248545032280e-03
7.171684035132e-03
7.077492945269e-03
6.997909063025e-03
6.936448293377e-03
6.857604387843e-03
6.824370609842e-03
6.787840443003e-03
6.756936457379e-03
6.728719401739e-03
6.714820388126e-03
6.683537232025e-03
6.686533317207e-03
6.676664795020e-03
6.670725648457e-03
6.670588445046e-03
6.672135664276e-03
6.657135167506e-03
6.671598162177e-03
6.661221363623e-03
6.680617825624e-03
6.688872673411e-03
3.313640150810e-03
3.643609585951e-03
3.947542440608e-03
4.242858391353e-03
4.550358348147e-03
4.852089997297e-03
5.156894848885e-03
5.448757344777e-03
5.772918013305e-03
9.252120421737e-05
5.003065478151e-03
6.984392570215e-04
1.978444649838e-03
2.683400256165e-03
2.921944486202e-03
2.698956972537e-03
3.403678560247e-03
5.202928741645e-03
7.267290699232e-03
8.754706072759e-03
3.152046145680e-03
3.153038404569e-03
3.155025213965e-03
3.144475046257e-03
3.199485690567e-03
3.155029575277e-03
3.144205499861e-03
3.156818110250e-03
3.174756768148e-03
3.174273239546e-03
3.164951418416e-03
3.164603919994e-03
3.157869572751e-03
3.701600733775e-03
9.621576344536e-05
1.072789967255e-04
1.067592006216e-04
1.067871391690e-04
1.161697218308e-04
1.255618245921e-04
1.234927640208e-04
1.176143698925e-04
1.181040846592e-04
1.155364499888e-04
1.206715439587e-04
1.365993450730e-04
3.217259930844e-04
8.207176379357e-04
1.231946512759e-03
1.158068931128e-03
1.210754792549e-03
1.339939242094e-03
1.305925658957e-03
3.084609750663e-04
1.397610239337e-03
2.383544510454e-03
2.765670774331e-03
3.015805786639e-03
3.134627371859e-03
4.202471511371e-03
6.240745706393e-03
8.115841022365e-03
8.335140306301e-03
1.200246171693e-03
6.943494847993e-03
2.047918518275e-04
1.970502068753e-04
6.727065374539e-03
2.474927192356e-03
3.201721898640e-03
7.289369902148e-03
3.538555142686e-03
7.687461996699e-03
6.752031240961e-03
6.632438463206e-03
3.720133963784e-04
8.296425191448e-03
5.365873442618e-03
2.107121577787e-03
4.181014780036e-03
8.436367518393e-03
6.713748537901e-03
5.839884998749e-03
5.846099200387e-03
6.066926973072e-03
3.405076133616e-03
3.278932509466e-03
3.299538154266e-03
4.392988308339e-03
6.595799932319e-03
1.875803799629e-04
1.186989547488e-03
5.468177482961e-03
3.266764248665e-03
1.866423690250e-03
7.325366088227e-03
7.448986314645e-03
7.968956604719e-03
7.136605735891e-03
6.846262429467e-03
2.124904197991e-04
3.271394634805e-03
6.655439769853e-03
5.005410343618e-03
2.049450714894e-04
2.556345996281e-03
5.882908024590e-03
3.035275505030e-03
1.872978213660e-03
4.970557458933e-03
7.583845085562e-03
4.153706545627e-04
3.812034731290e-03
6.639616896276e-03
1.345895743586e-03
5.582228690945e-03
3.761374683863e-03
3.407800261599e-03
3.554924991576e-03
3.706761369563e-03
3.858428676321e-03
3.994172834541e-03
3.835090176788e-03
4.124628089981e-03
3.963011153955e-03
4.154617485841e-03
4.253890367716e-03
4.090560016023e-03
4.382096032079e-03
4.218726563058e-03
3.929419603329e-03
4.056695462337e-03
3.767499058174e-03
3.894823734663e-03
4.184913419616e-03
4.022005877425e-03
3.732190171091e-03
3.901967181059e-03
3.603307939790e-03
3.999044149634e-03
3.738817023404e-03
4.267147887844e-03
4.526302346561e-03
4.741760142504e-03
4.428201509653e-03
4.855281224409e-03
4.444541087677e-03
4.883599088348e-03
6.048518890235e-03
6.067474879099e-03
4.864613463120e-03
6.049611952707e-03
4.821560646328e-03
6.001382193032e-03
4.755333910727e-03
5.911330402924e-03
7.060635265273e-03
6.847071490873e-03
5.776238897591e-03
6.590058342551e-03
7.106295162399e-03
6.789984509078e-03
6.983844749781e-03
6.668094417352e-03
6.455072492781e-03
6.336091488366e-03
6.497092113258e-03
6.180517013619e-03
5.990306944121e-03
5.852728344929e-03
6.053441325084e-03
5.741117880911e-03
5.509915059835e-03
5.412308684911e-03
5.657196160880e-03
5.332729641969e-03
5.045472623989e-03
4.965480332908e-03
5.261857848595e-03
4.887154778298e-03
5.184358087341e-03
4.536602073029e-03
4.452125361753e-03
4.040268732017e-03
3.953276756477e-03
7.469059367647e-03
3.498379255558e-03
3.579338732486e-03
3.426634404247e-03
3.857101107580e-03
2.967990709608e-03
2.930057909217e-03
2.504669704626e-03
4.094505759339e-03
4.327589201262e-03
2.522065154978e-03
2.149320491765e-03
2.070346131041e-03
1.759623465768e-03
4.024498791055e-03
4.321449536869e-03
4.179690524696e-03
4.487558501959e-03
4.351378253478e-03
1.884501471017e-03
4.547507496043e-03
4.620310667297e-03
3.444574795783e-03
4.151270937426e-03
7.275577646704e-03
2.883446769893e-03
2.536115480653e-03
2.850710225111e-03
5.514020637371e-03
5.433890824275e-03
5.724898365753e-03
5.643517925249e-03
5.901588495973e-03
5.826030771503e-03
5.562862649357e-03
5.764622072275e-03
5.495150733419e-03
6.055093481486e-03
6.132130790903e-03
5.726292983555e-03
5.453073899530e-03
5.716549586825e-03
5.441724362594e-03
5.135293371778e-03
5.122393738008e-03
4.767377470600e-03
7.078347248177e-03
7.329620060744e-03
7.145416017227e-03
7.355485970747e-03
7.181392993513e-03
7.347074367137e-03
7.195252346114e-03
7.033533557773e-03
4.509920023172e-03
5.603856528764e-03
4.548673717154e-03
4.417792788898e-03
3.567750979821e-03
3.392804004584e-03
2.807117565593e-03
2.560798883499e-03
3.230668850512e-03
2.340789654146e-03
3.072321628844e-03
2.139445957172e-03
2.899445962474e-03
5.807584118690e-03
7.529526996429e-03
7.479431131586e-03
7.672662427990e-03
1.638362028280e-03
5.452894103139e-03
6.260081014613e-03
6.339303572740e-03
7.064140961520e-03
1.542555551953e-03
2.157267179423e-03
2.483358411969e-03
4.652375729059e-03
4.515073750359e-03
6.442432142434e-03
1.687976619149e-03
5.961473839742e-03
1.569215684076e-03
5.129412886672e-03
5.486732531055e-03
5.257518122647e-03
7.590261215523e-03
7.788337107214e-03
3.926852075561e-03
3.705880859762e-03
2.688137214462e-03
3.420131065860e-03
4.330722735739e-03
3.879578718161e-03
3.034655482108e-03
3.323045802017e-03
3.971600207986e-03
3.354584226402e-03
2.654913729236e-03
2.679216762745e-03
5.767003720456e-03
1.316544634575e-03
3.641366942474e-03
6.377667397897e-03
7.186004338608e-03
4.817221487039e-03
4.680859314151e-03
4.376749942028e-03
4.546436710308e-03
4.850021688501e-03
4.714841530376e-03
4.411085338888e-03
4.576823668989e-03
4.271643822444e-03
4.438121527056e-03
4.742306724662e-03
4.605607762388e-03
4.302170490177e-03
4.468415119196e-03
4.164526586705e-03
4.326213013675e-03
4.634793358128e-03
1.382938641399e-03
6.905123482122e-03
6.937987364940e-03
2.586856476722e-03
2.817021600608e-03
3.171906244787e-03
3.122471425547e-03
4.493803980505e-03
4.803851567309e-03
2.067243151185e-03
2.515976611751e-03
4.952759396910e-03
5.165179670833e-03
4.751244446556e-03
4.105935008638e-03
3.875850931331e-03
3.794229355317e-03
3.997648427032e-03
3.954212476855e-03
3.898636997386e-03
6.216092921211e-03
4.909939925648e-03
2.010987210304e-03
1.521757902512e-03
5.559407126287e-03
6.841563998326e-03
5.588005324139e-03
7.396173852882e-03
7.265607104188e-03
8.227191842012e-03
8.176620237489e-03
8.242866993651e-03
8.269790580493e-03
7.685270929582e-03
8.067813516340e-03
4.174662190372e-03
7.724356279437e-03
3.896525269821e-03
1.210843059440e-03
2.007864324310e-03
1.603203999310e-03
1.821388155204e-03
6.535485821114e-03
8.220846960193e-03
8.164964899113e-03
4.701075632898e-03
4.349202792953e-03
7.486869472904e-03
4.046495241743e-03
4.106805891897e-03
3.964719198022e-03
1.434394597556e-03
1.819580128653e-03
5.018736248123e-03
2.808200156646e-03
2.949310791628e-03
1.023528024785e-03
8.270248169060e-04
4.649062039121e-03
4.959360782526e-03
3.515425063416e-03
3.488304678308e-03
6.600503085752e-03
2.041712192676e-03
5.108760944893e-03
6.724732887204e-03
6.626690745584e-03
2.866919075478e-03
2.071221485924e-03
1.513427938862e-03
4.455916382224e-03
2.629351962782e-03
1.814228314740e-03
6.669318382411e-03
5.150166074507e-03
8.074872800454e-03
8.276511637092e-03
7.896222005088e-03
1.307927748004e-03
6.501875039540e-03
5.236474362538e-03
8.232147962626e-03
8.199295579234e-03
3.113392732138e-03
3.348448790260e-03
3.287950139249e-03
3.876963763886e-03
3.675799238899e-03
3.392564638505e-03
3.479503618634e-03
3.353779208918e-03
3.267894757524e-03
3.565748860539e-03
3.804539018987e-03
3.748003343779e-03
7.535380253605e-03
3.630282940299e-03
4.816849783163e-03
5.802385564138e-03
5.044158210038e-03
5.215830386065e-03
3.998289725651e-03
3.853491964182e-03
1.217508660122e-03
1.077876533139e-03
5.098417459193e-03
6.338559672526e-03
5.115127262102e-03
5.250667570774e-03
5.084339547061e-03
6.730968953759e-03
5.403225090132e-03
6.902802738572e-03
1.087291262774e-03
7.516972954545e-03
8.408454431968e-04
4.479618633992e-03
5.624081937757e-03
5.903950399546e-03
7.555477704545e-03
3.934564905411e-03
8.178804132985e-03
8.026497412410e-03
3.894152616008e-03
4.213809952690e-03
3.345166018336e-03
4.514300630448e-03
4.339460039756e-03
3.781805940732e-03
8.061532499543e-03
7.926136285235e-03
8.311096882868e-03
8.266161456308e-03
7.386171059887e-03
7.341029529345e-03
1.973422023144e-03
4.801850956942e-03
5.314454420742e-03
3.551290544386e-03
6.469490418780e-03
6.322956039655e-03
6.540445478406e-04
8.526733724002e-04
5.277227190096e-03
2.986066317799e-03
3.683601632076e-03
2.277278036397e-03
6.326344578547e-03
3.257775872684e-03
5.972762327504e-03
3.178310521346e-03
5.420258365801e-03
8.105054601947e-03
3.979887320742e-03
6.687329089433e-03
5.111095174846e-03
5.457139877325e-03
3.797889722828e-03
3.646479732755e-03
3.931549897695e-03
1.251673772897e-03
8.448239735481e-04
5.077361997568e-03
2.281580987419e-03
2.375187816126e-03
2.013656394898e-03
2.554123676389e-03
4.004336449375e-03
4.132534044324e-03
5.433014120356e-03
5.558386987724e-03
5.406309786749e-03
6.520295709942e-03
6.392779752657e-03
6.500794478358e-03
5.341787835815e-03
5.553309217008e-03
4.830650975243e-03
4.946190111330e-03
4.228329133639e-03
5.450349556697e-03
6.228041095399e-03
6.152120664272e-03
7.225406130290e-04
9.680642749096e-04
1.274480365823e-03
9.553650686585e-04
5.373764850267e-03
5.221517258001e-03
5.574231561523e-03
1.984233332563e-03
8.065590622507e-03
6.766782818533e-03
6.871661506899e-03
6.744476169443e-03
7.747621962747e-03
7.566299818110e-03
7.703314766748e-03
5.392140300883e-04
5.334646512646e-03
3.675752576569e-03
3.994140177195e-04
3.535833562514e-03
3.716995656290e-03
3.370679194070e-03
1.893772721694e-03
3.567296707678e-03
3.765939256375e-03
5.177016642128e-04
5.605887865963e-03
5.560267422025e-04
6.703616023791e-04
6.478427183842e-03
6.330989444126e-03
6.521082419367e-03
6.367184294315e-03
6.162231055168e-03
6.209510918768e-03
3.509567093749e-03
6.449468357994e-03
6.259656143015e-03
6.582248097056e-03
5.797284929435e-03
4.349081961042e-03
4.330314013797e-03
2.933971643701e-03
8.344343546117e-03
8.326570419455e-03
5.319922760522e-03
4.887512108938e-03
3.557349194756e-03
3.532569652196e-03
3.813584889459e-03
3.767894522616e-03
4.058668074403e-03
4.012436085661e-03
4.295379223318e-03
7.768383150325e-03
1.726538097384e-03
5.454484148696e-03
7.259356945238e-03
7.214747754429e-03
4.669920282130e-03
4.988683207557e-03
6.630326976587e-03
3.563078200575e-03
5.911860644752e-03
1.858040090613e-04
4.857765212983e-04
3.785454313785e-03
3.501610753822e-03
4.599208885812e-03
4.948985476525e-03
6.621522559529e-03
8.079051306794e-04
1.708185494508e-03
4.334362747609e-03
9.849535248275e-04
5.024225813187e-03
3.926282876163e-03
3.510648797077e-03
2.683338582173e-03
3.692541970924e-03
3.802386178974e-03
3.549362578402e-03
3.432042594085e-03
4.661558629262e-03
5.006053097974e-03
4.086367004587e-03
3.605674145861e-03
4.919767447334e-03
5.053137848748e-03
5.341297447711e-03
5.187217989567e-03
4.888560595271e-03
5.017653317247e-03
5.388083750840e-03
5.199365028165e-03
6.823172239818e-03
6.337572972770e-03
4.998859113873e-03
6.006959732701e-03
7.777962449508e-03
4.816101248545e-03
7.253446636335e-03
4.244858941233e-03
6.965101933153e-04
6.551789095588e-04
3.324847872893e-03
8.178309865788e-03
6.987854742708e-03
3.065874739074e-03
8.142693871291e-03
3.515099545658e-03
1.846199460612e-03
7.810844333945e-03
4.753391499877e-03
4.585238946775e-03
4.452711673430e-03
6.452591550942e-03
4.073161563167e-03
7.371465474603e-03
7.545756915824e-03
7.757082354777e-03
7.638952857624e-03
4.847344029507e-03
7.023188963528e-03
7.037666970783e-03
6.955143076932e-03
7.049583372006e-03
6.896796055629e-03
8.550594915223e-03
8.447618275474e-03
4.515996590166e-03
4.969648444428e-03
5.367838274400e-03
5.338359889362e-03
4.658205665344e-03
4.932127871243e-03
5.676828169452e-03
4.116685216407e-03
7.344704387090e-03
6.802533294494e-03
5.982901147907e-03
6.062192390428e-03
5.876341292406e-03
3.750828891867e-03
4.253802725299e-03
4.601301034869e-03
3.262627457003e-03
8.268106492718e-03
6.761873405016e-03
6.750408088348e-03
4.358602479581e-03
3.276820545210e-03
3.539493379070e-03
3.549133742473e-03
3.824596042644e-03
3.567726925699e-03
3.921072166300e-03
3.896734293587e-03
3.563640421604e-03
3.946696366290e-03
3.684024676980e-03
3.351791044284e-03
4.044530188221e-03
3.808435143572e-03
3.270946734921e-03
2.113632266740e-04
4.663590485079e-04
4.727789169122e-04
8.891787776007e-04
8.352055119051e-04
1.823394555748e-03
1.466955800034e-03
4.717549759513e-04
2.060508248568e-04
4.931758666186e-04
2.016183866916e-04
4.506972611053e-04
1.067415930962e-03
1.454501068958e-03
6.562121521008e-03
2.859709310105e-03
2.724978007808e-03
2.413450231621e-03
2.590803283666e-03
2.979254934651e-03
2.267440909802e-03
2.202519960859e-03
1.318475410059e-03
1.502486245351e-03
1.463526416960e-03
1.672272832576e-03
1.607874009314e-03
1.425811904702e-03
1.298363779550e-03
1.148271265546e-03
9.497555704747e-04
1.180486379760e-03
8.402498617219e-04
4.704546691336e-03
4.866377932286e-03
6.702438774489e-03
3.306461396406e-03
2.060812032613e-04
5.787952121361e-03
5.860912610823e-03
5.847254677151e-03
5.922018724860e-03
6.136044248129e-03
5.787747019190e-03
2.492434372312e-03
5.662000066966e-03
5.244910374536e-03
1.627832362017e-03
3.170289387022e-03
4.795090072942e-03
5.181822456952e-03
5.836528150110e-03
4.751450079994e-03
5.731506357999e-03
6.884638187203e-03
1.728982575929e-03
4.131571153262e-03
4.020912679793e-03
4.773210184270e-03
2.226597749296e-03
3.211501189429e-03
1.393816761289e-03
7.984958159583e-03
3.319123411055e-03
5.586575005720e-03
3.344983808777e-03
3.010442623655e-03
3.273021312780e-03
4.371347565447e-03
4.802739144846e-03
5.996736431908e-03
4.941818270038e-03
2.703812684807e-04
6.198129155140e-03
5.346944752695e-03
4.244105085551e-03
7.316685539299e-03
2.438982167974e-03
4.880974533881e-03
5.403313920794e-03
3.898336749169e-03
1.023963132828e-03
3.824252090180e-03
6.606533752532e-03
4.786917829570e-03
1.981762265854e-03
6.798239288640e-03
4.041254587239e-03
7.219170006788e-03
5.375575519212e-03
7.364980703463e-03
7.071499218920e-03
6.979132411608e-03
2.081765895150e-03
6.152419735900e-03
7.392087762830e-03
5.185084528177e-03
7.183661638069e-03
6.304414390322e-03
4.981119205122e-03
5.954275003933e-03
7.410295599044e-03
3.179973673418e-03
4.293256837796e-03
4.346595079123e-03
5.967049035429e-03
4.450681752302e-03
6.164127030804e-03
1.940630820137e-03
3.636080757055e-03
4.209667670053e-03
8.054486452474e-03
5.486043343848e-03
3.823685731269e-03
5.949852230730e-03
5.276018678210e-03
4.708088076976e-03
1.978728387911e-03
1.117520684021e-03
4.274868622193e-03
7.231969192841e-03
5.003313760359e-03
5.634775432145e-03
5.965214925434e-03
6.524739954653e-03
7.696498137606e-04
4.806728011264e-03
6.001663101768e-03
6.636597998267e-03
7.270899009165e-03
3.456568599362e-03
7.869643633474e-03
5.474524180590e-03
6.087067371742e-03
6.796127108966e-03
3.322831036459e-03
3.268136202907e-03
6.396151591912e-03
6.828055341067e-03
7.491290214428e-03
6.351286425062e-03
7.317261070184e-03
4.901975504570e-03
4.225339141133e-03
6.215432143519e-03
6.935576786526e-03
4.284472671237e-03
4.483575034357e-03
7.869988957615e-03
1.517133000574e-03
5.829773269612e-03
4.392306920429e-03
5.180796088829e-03
6.235520130042e-03
7.441483854540e-03
4.341813634996e-03
5.999338920438e-03
4.329113948230e-03
5.883078196080e-03
4.418520852231e-03
4.351342356645e-03
5.362449720045e-03
8.625388576584e-04
8.260350279697e-03
5.730713378290e-03
4.130968267636e-03
6.143461965509e-03
4.718919712423e-03
4.079286059852e-03
6.300659817488e-03
7.186105504300e-03
8.231303010516e-03
7.849258931607e-03
6.428220864877e-03
4.570438450650e-03
2.503290744350e-03
1.986719176612e-03
6.106165022690e-03
7.239348548414e-03
1.764854626409e-03
4.678560104240e-03
1.398833019593e-03
5.743882729787e-03
7.884566047585e-03
4.115757970203e-03
5.634022828175e-03
2.047555084803e-03
5.255249711794e-03
7.940704137257e-03
5.141795656231e-03
4.717642889777e-03
5.552773111686e-03
4.621919761052e-03
5.832588277671e-03
6.552678634588e-03
3.510356051034e-03
3.159140102299e-03
2.405479085724e-04
3.903518792689e-03
3.674603603991e-03
4.643645876377e-03
3.513173410346e-03
3.078076568005e-03
8.114429250396e-03
7.574926673557e-03
4.549382429435e-03
7.136188495343e-03
7.999902091311e-03
5.275457844280e-03
3.249070074697e-03
4.477567605621e-04
4.605768242631e-03
2.843831962053e-03
2.301563488799e-03
1.227160794561e-03
2.169214890746e-03
9.705213609358e-04
2.189470217640e-03
7.122194511375e-03
3.515193931760e-03
7.914443115594e-03
1.525647017745e-03
5.572156000341e-03
7.558527576895e-03
6.673022385774e-03
7.737605323453e-03
8.277135440664e-04
3.767849181543e-03
8.167313280263e-03
4.792801184414e-03
6.641954827999e-03
3.467504393821e-03
5.585086652784e-03
1.703937114249e-03
5.581941862217e-03
5.751925374072e-03
3.891365713394e-03
3.752927955089e-03
6.326353335435e-03
6.483079523832e-03
6.530334131599e-04
4.532821262706e-03
2.628978067481e-03
4.309456059287e-04
6.589256785334e-03
7.516852812254e-03
6.394957949918e-03
1.722296730681e-03
4.403063957912e-04
6.712505359604e-03
8.443784201135e-03
2.391675829387e-03
6.008663203449e-03
4.092504687395e-04
3.203199811466e-03
5.088803448272e-04
6.615726363666e-03
5.604234858727e-03
2.845335710463e-03
3.688016490462e-03
2.080665703395e-03
7.944446962659e-03
6.877938762391e-04
5.641946929749e-03
6.835134714349e-03
5.714349089264e-03
7.188752951919e-03
4.211607310233e-04
7.635155134113e-03
6.948558997141e-03
3.253953958084e-03
5.868330896526e-03
2.336622960473e-03
1.103885791499e-03
5.854893632795e-03
1.218474367364e-03
3.234858844656e-03
6.622131614228e-03
1.635822641211e-03
3.727440323860e-03
8.468666199754e-03
3.560423748047e-03
5.092976750137e-03
1.578215209935e-03
1.712154208879e-04
4.270563646727e-03
7.454907764073e-03
5.663240583739e-03
4.061400799491e-03
8.220481444570e-04
8.379841586322e-03
3.073661950097e-03
8.169341119026e-03
7.119468300596e-03
2.102243503154e-04
3.879036568253e-03
4.259532598859e-04
6.542161395723e-03
3.221508990055e-03

SCALARS node_materi_plasti_phimob float
LOOKUP_TABLE default
-3.178490711136e+01
6.560469491317e+00
2.047572441782e+01
2.024121235743e+01
6.907657043311e+00
2.047572441782e+01
2.047572441782e+01
2.047572441782e+01
2.047572441782e+01
2.047572441782e+01
2.045514551100e+01
2.017064274553e+01
2.005994129177e+01
2.031957889245e+01
2.046752985687e+01
2.047572441782e+01
2.047572441782e+01
2.047572441782e+01
2.047572441782e+01
2.047572441782e+01
2.047572441782e+01
2.047572441782e+01
2.047572441782e+01
2.031692559621e+01
2.033227836354e+01
2.034397964348e+01
2.036247697319e+01
2.034324780021e+01
2.037699871193e+01
2.037728998747e+01
2.043428137426e+01
2.046656091471e+01
2.047572441782e+01
2.047572441782e+01
2.047572441782e+01
2.047572441782e+01
2.047572441782e+01
2.047572441782e+01
2.047572441782e+01
2.047572441782e+01
2.047572441782e+01
2.047572441782e+01
2.047572441782e+01
2.047572441782e+01
2.047572441782e+01
2.047572441782e+01
2.047572441782e+01
2.047572441782e+01
2.047572441782e+01
2.047572441782e+01
2.047572441782e+01
2.047572441782e+01
2.047572441782e+01
2.047572441782e+01
2.047572441782e+01
2.047572441782e+01
2.047572441782e+01
2.047572441782e+01
2.047572441782e+01
2.047572441782e+01
2.047572441782e+01
2.047572441782e+01
2.047572441782e+01
2.047572441782e+01
2.047572441782e+01
2.047572441782e+01
2.047572441782e+01
2.047572441782e+01
2.047572441782e+01
2.047572441782e+01
2.047572441782e+01
2.047572441782e+01
2.599426250335e+00
2.378996067612e+00
7.267479831348e+00
1.136610788949e+01
1.409155829558e+01
1.599772939842e+01
1.747419960292e+01
1.866531302065e+01
1.963586890656e+01
5.183831888233e+00
2.047572441782e+01
1.982422561140e+01
2.026929707391e+01
2.047572441782e+01
2.022799494163e+01
2.047572441782e+01
2.047572441782e+01
2.047572441782e+01
2.047572441782e+01
2.047572441782e+01
8.248431025279e+00
6.956387344621e+00
6.969906926304e+00
8.148176526315e+00
5.768080196864e+00
7.674976897552e+00
8.449158187083e+00
8.004903518422e+00
6.866733281932e+00
7.700302097474e+00
8.872099306144e+00
1.095393536607e+01
1.570547562660e+01
1.962486980606e+01
3.151550558356e+00
6.862322891199e+00
1.095061217529e+01
1.110166980868e+01
6.269389329632e+00
1.825385973484e+00
-3.930004693904e+00
-1.226543783559e+01
-2.306483382324e+01
-3.179649128931e+01
-3.372742172470e+01
-2.863593985314e+01
-2.998097642393e+01
-3.665359729863e+01
-3.635765195707e+01
-3.407060660731e+01
-3.329087899553e+01
-3.630555439380e+01
-4.143349619034e+01
1.446079126132e+01
2.034668520942e+01
2.032488793061e+01
2.032660446595e+01
2.047572441782e+01
2.047572441782e+01
2.047572441782e+01
2.047572441782e+01
2.047572441782e+01
2.047572441782e+01
1.841332755549e+01
2.047572441782e+01
-1.333733533817e+01
-1.281561348398e+00
2.047572441782e+01
2.035185967972e+01
2.042783877154e+01
2.047572441782e+01
2.047572441782e+01
2.047572441782e+01
2.047572441782e+01
2.047572441782e+01
-8.706625771773e+00
2.047572441782e+01
1.964281074631e+01
2.047323668942e+01
2.047572441782e+01
2.047572441782e+01
2.047572441782e+01
1.992684584786e+01
1.998701002914e+01
2.035604555456e+01
1.520686853798e+01
6.692836467722e+00
5.387546954318e+00
1.286187210196e+01
2.047572441782e+01
-1.926285003162e+00
-5.191789679654e+00
2.047572441782e+01
4.737797991152e+00
2.047572441782e+01
2.047572441782e+01
2.047572441782e+01
2.047572441782e+01
2.047572441782e+01
2.047572441782e+01
-4.530318538686e+00
9.418441476625e+00
2.047572441782e+01
1.676116001768e+01
-1.193136309551e+01
2.007331130277e+01
2.000835485289e+01
2.047572441782e+01
2.035641765249e+01
2.047572441782e+01
2.047572441782e+01
1.141529259583e+01
4.797852887335e+00
2.047572441782e+01
-7.728237786426e+00
1.913080405324e+01
1.767957504030e+01
1.685897158118e+01
1.485930536827e+01
1.610498671070e+01
1.534676116187e+01
1.677490552522e+01
1.721075113572e+01
1.786355062582e+01
1.812448399362e+01
1.636147049121e+01
1.871854966563e+01
1.888424021297e+01
1.940149348204e+01
1.950777692728e+01
1.903106722898e+01
1.960183088301e+01
1.915474100742e+01
1.968630980167e+01
2.005316194039e+01
2.013942099412e+01
1.987594235228e+01
2.035190791465e+01
2.026874725902e+01
2.047572441782e+01
2.047572441782e+01
2.047572441782e+01
2.047572441782e+01
2.047572441782e+01
2.047572441782e+01
2.047572441782e+01
2.047572441782e+01
2.047572441782e+01
2.047572441782e+01
2.047572441782e+01
2.047572441782e+01
2.047572441782e+01
2.047572441782e+01
2.047572441782e+01
2.047572441782e+01
2.047572441782e+01
2.047572441782e+01
2.047572441782e+01
2.047572441782e+01
2.047572441782e+01
2.047572441782e+01
2.047572441782e+01
2.047572441782e+01
2.047572441782e+01
2.047572441782e+01
2.047572441782e+01
2.047572441782e+01
2.047572441782e+01
2.047572441782e+01
2.047572441782e+01
2.047572441782e+01
2.047572441782e+01
2.047572441782e+01
2.047572441782e+01
2.047572441782e+01
2.047572441782e+01
2.047572441782e+01
2.047572441782e+01
2.047572441782e+01
2.047572441782e+01
2.047572441782e+01
2.047572441782e+01
2.047572441782e+01
2.047572441782e+01
2.047572441782e+01
2.047572441782e+01
2.047572441782e+01
2.047572441782e+01
2.047572441782e+01
2.047572441782e+01
2.047572441782e+01
2.047572441782e+01
2.047572441782e+01
2.047572441782e+01
2.036870309201e+01
2.047572441782e+01
2.047572441782e+01
2.047572441782e+01
2.047572441782e+01
1.489814244664e+01
1.607908163352e+01
1.443477181680e+01
1.600185338922e+01
1.442013128093e+01
2.047572441782e+01
1.929465946480e+01
1.728600230003e+01
1.972989005336e+01
2.047572441782e+01
2.047572441782e+01
2.047572441782e+01
2.047572441782e+01
2.047572441782e+01
2.047572441782e+01
2.047572441782e+01
2.047572441782e+01
2.047572441782e+01
2.047572441782e+01
2.047572441782e+01
2.047572441782e+01
2.047572441782e+01
2.047572441782e+01
2.047572441782e+01
2.047572441782e+01
2.047572441782e+01
2.047572441782e+01
2.047572441782e+01
2.047572441782e+01
2.047572441782e+01
2.047572441782e+01
2.047572441782e+01
2.047572441782e+01
2.047572441782e+01
2.047572441782e+01
2.047572441782e+01
2.047572441782e+01
2.047572441782e+01
2.047572441782e+01
2.047572441782e+01
1.994261955084e+01
2.047572441782e+01
2.047572441782e+01
2.047572441782e+01
2.047572441782e+01
2.047572441782e+01
2.047572441782e+01
2.047572441782e+01
2.047572441782e+01
2.047572441782e+01
2.047572441782e+01
2.047572441782e+01
2.047572441782e+01
2.047572441782e+01
2.047572441782e+01
2.047572441782e+01
2.047572441782e+01
2.047572441782e+01
2.047572441782e+01
2.047572441782e+01
2.047572441782e+01
2.047572441782e+01
2.047572441782e+01
2.047572441782e+01
2.047572441782e+01
1.613143006281e+01
1.471403620496e+01
2.047572441782e+01
2.047572441782e+01
2.047572441782e+01
2.047572441782e+01
2.047572441782e+01
2.047572441782e+01
2.047572441782e+01
2.047572441782e+01
2.047572441782e+01
2.047572441782e+01
2.047572441782e+01
2.047572441782e+01
2.047572441782e+01
2.047572441782e+01
2.047572441782e+01
2.047572441782e+01
2.047572441782e+01
2.047572441782e+01
2.047572441782e+01
2.047572441782e+01
2.047572441782e+01
2.047572441782e+01
1.996129725938e+01
1.852403928510e+01
2.047572441782e+01
2.047572441782e+01
1.646306413544e+01
1.525801764224e+01
1.310953225145e+01
1.396236800759e+01
1.596073148637e+01
1.490693116219e+01
1.259134093170e+01
1.380696434801e+01
1.111051850118e+01
1.264886844486e+01
1.494494510374e+01
1.402251805356e+01
1.139775968272e+01
1.301969792813e+01
9.949434391563e+00
1.185806632244e+01
1.438104337052e+01
2.047572441782e+01
2.047572441782e+01
2.047572441782e+01
2.047572441782e+01
2.043624610203e+01
2.047572441782e+01
2.047572441782e+01
1.341405596694e+01
1.554565139733e+01
2.047572441782e+01
2.047572441782e+01
1.755563007980e+01
2.047572441782e+01
2.047572441782e+01
2.047572441782e+01
2.047572441782e+01
2.047572441782e+01
2.047572441782e+01
2.047572441782e+01
2.047572441782e+01
2.047572441782e+01
1.598951079498e+01
2.047572441782e+01
2.047572441782e+01
2.047572441782e+01
2.047572441782e+01
2.047572441782e+01
2.047572441782e+01
2.047572441782e+01
2.047572441782e+01
2.047572441782e+01
2.047572441782e+01
2.047572441782e+01
2.047572441782e+01
2.047572441782e+01
1.038230833075e+01
2.047572441782e+01
2.047572441782e+01
2.047572441782e+01
2.047572441782e+01
2.047572441782e+01
2.047572441782e+01
2.047572441782e+01
2.047572441782e+01
2.047572441782e+01
2.047572441782e+01
2.047572441782e+01
2.047572441782e+01
1.245488338013e+01
9.506470532206e+00
7.428945732182e+00
2.047572441782e+01
2.047572441782e+01
1.671336994287e+01
2.047572441782e+01
2.047572441782e+01
1.744649081452e+01
1.351085615271e+01
1.466736070291e+01
1.647645348242e+01
2.047572441782e+01
2.047572441782e+01
2.047572441782e+01
2.047572441782e+01
1.715243642126e+01
2.047572441782e+01
2.047572441782e+01
2.036340181846e+01
2.047572441782e+01
2.019507982567e+01
2.047572441782e+01
2.047572441782e+01
2.047572441782e+01
2.047572441782e+01
1.754758123177e+01
2.047572441782e+01
2.047572441782e+01
2.047572441782e+01
2.047572441782e+01
2.047572441782e+01
2.047572441782e+01
2.047572441782e+01
2.047572441782e+01
2.047572441782e+01
2.047572441782e+01
2.047572441782e+01
2.047572441782e+01
1.752814174085e+01
2.047572441782e+01
1.879382893522e+01
1.859294850866e+01
1.944571024999e+01
2.047572441782e+01
2.047572441782e+01
2.047572441782e+01
2.047572441782e+01
2.047572441782e+01
2.047572441782e+01
2.047572441782e+01
1.672211714052e+01
1.756189739566e+01
7.596085012665e+00
5.456942295574e+00
2.047572441782e+01
2.046445057733e+01
2.047572441782e+01
2.047572441782e+01
1.789166099017e+01
1.877514041450e+01
1.850891956057e+01
2.047572441782e+01
2.047572441782e+01
2.047572441782e+01
1.821871019658e+01
2.047572441782e+01
2.000367793501e+01
2.035031425761e+01
2.047572441782e+01
2.047572441782e+01
2.047572441782e+01
1.863901348389e+01
2.047572441782e+01
2.047572441782e+01
1.988843439585e+01
2.035703925207e+01
1.999703654166e+01
2.047572441782e+01
2.047572441782e+01
2.047572441782e+01
2.047572441782e+01
2.047572441782e+01
2.047572441782e+01
2.047572441782e+01
2.047572441782e+01
2.047572441782e+01
2.047572441782e+01
2.047572441782e+01
1.816844780147e+01
1.921346321144e+01
2.047572441782e+01
2.047572441782e+01
7.770727721454e+00
1.455664482581e+01
1.791191481235e+01
2.047572441782e+01
2.047572441782e+01
2.047572441782e+01
2.047572441782e+01
4.705264932107e+00
2.047572441782e+01
2.037717025876e+01
1.845913097278e+01
2.047572441782e+01
2.047572441782e+01
2.047572441782e+01
1.722456183989e+01
1.861634927801e+01
6.240907902245e+00
4.740315882918e+00
8.253376003554e+00
1.989811519690e+01
1.308931399747e+01
1.691697604531e+01
2.047572441782e+01
2.043446445803e+01
2.047572441782e+01
2.047572441782e+01
2.047572441782e+01
2.047572441782e+01
2.047572441782e+01
2.047572441782e+01
2.047448337913e+01
2.047572441782e+01
2.047572441782e+01
2.047572441782e+01
1.817369955277e+01
1.897004389055e+01
2.047572441782e+01
2.047572441782e+01
2.047572441782e+01
1.887015915441e+01
2.047572441782e+01
2.047572441782e+01
1.878971038074e+01
2.029395129744e+01
1.844938463623e+01
1.555267359458e+01
1.953561105545e+01
1.933077834506e+01
1.991683744004e+01
2.047572441782e+01
2.047572441782e+01
2.047572441782e+01
2.047572441782e+01
2.047572441782e+01
2.047572441782e+01
2.047572441782e+01
2.047572441782e+01
1.975102771855e+00
1.824157177471e+01
3.939619069833e+00
-3.601488383399e+00
2.824085332049e+00
3.647751466975e+00
2.847785703291e+00
2.047572441782e+01
6.122551121221e+00
8.048957867852e+00
1.353887422815e+01
1.943338308901e+01
1.717870290027e+01
1.933164672797e+01
2.047572441782e+01
2.047572441782e+01
2.047572441782e+01
2.047572441782e+01
2.047572441782e+01
2.047572441782e+01
3.667735827984e+00
2.047572441782e+01
2.047572441782e+01
2.047572441782e+01
2.047572441782e+01
2.047572441782e+01
2.047572441782e+01
2.047572441782e+01
2.047572441782e+01
2.047572441782e+01
2.047572441782e+01
2.047572441782e+01
2.342742290393e+00
1.725723143091e+00
4.519445727540e+00
3.971018486646e+00
8.879834534801e+00
8.312237891682e+00
1.183684868674e+01
2.047572441782e+01
2.043183589609e+01
2.047572441782e+01
2.047572441782e+01
2.047572441782e+01
2.047572441782e+01
2.047572441782e+01
2.047572441782e+01
2.047572441782e+01
2.008775396964e+01
-1.433819182438e+00
1.592912972208e+00
2.047572441782e+01
2.034490765393e+01
2.047572441782e+01
2.047572441782e+01
2.047572441782e+01
1.955562192603e+01
2.003847306244e+01
1.204694069024e+01
1.775329697196e+01
2.047572441782e+01
2.047572441782e+01
2.047572441782e+01
2.047572441782e+01
2.047572441782e+01
1.833581711672e+01
1.666759958319e+01
1.779067252892e+01
2.047572441782e+01
2.047572441782e+01
2.047572441782e+01
1.933857370881e+01
1.836252963047e+01
1.922157499263e+01
2.001551448308e+01
1.992867156947e+01
1.919532487072e+01
1.985979010019e+01
2.034930690476e+01
2.030510542897e+01
2.047572441782e+01
2.047572441782e+01
2.032225450023e+01
2.047572441782e+01
2.047572441782e+01
2.032201478290e+01
2.047572441782e+01
2.047572441782e+01
8.370178904350e+00
7.023718293702e+00
2.022242772338e+01
2.047572441782e+01
2.047572441782e+01
2.047572441782e+01
2.047572441782e+01
1.790107666079e+01
2.047572441782e+01
2.047572441782e+01
1.833434942831e+01
1.840184156913e+01
1.736829498296e+01
2.045932556758e+01
1.042613879767e+01
2.047572441782e+01
2.047572441782e+01
2.047572441782e+01
2.047572441782e+01
1.985967085188e+01
2.047572441782e+01
2.047572441782e+01
2.047572441782e+01
2.047572441782e+01
2.047572441782e+01
2.047572441782e+01
2.047572441782e+01
2.047572441782e+01
2.047572441782e+01
2.047572441782e+01
2.047572441782e+01
2.047572441782e+01
2.047572441782e+01
2.047572441782e+01
2.047572441782e+01
2.047572441782e+01
2.047572441782e+01
2.047572441782e+01
2.047572441782e+01
2.047572441782e+01
2.047572441782e+01
2.047572441782e+01
2.047572441782e+01
2.047572441782e+01
2.047572441782e+01
2.047572441782e+01
2.047572441782e+01
2.047572441782e+01
1.175294690956e+01
1.053829897692e+01
1.300429435786e+01
1.284972529463e+01
8.745643828443e+00
2.047572441782e+01
2.047572441782e+01
2.047572441782e+01
2.047572441782e+01
2.047572441782e+01
2.047572441782e+01
2.047572441782e+01
2.047572441782e+01
8.029199238271e+00
-2.817407848751e+00
4.192660167609e+00
6.163354257237e+00
1.810201720779e+01
1.691414367828e+01
2.047572441782e+01
2.005417477371e+01
2.183290303465e+00
-6.668867702638e+00
8.713932485471e+00
-9.644801987804e+00
1.021589995280e+01
1.954533964163e+01
2.047572441782e+01
2.047572441782e+01
2.019964010103e+01
2.014889924062e+01
2.018185481480e+01
2.025616661503e+01
2.033020713571e+01
2.035566124889e+01
2.042469573416e+01
-4.839994567475e+00
2.047572441782e+01
2.047572441782e+01
2.047572441782e+01
2.047572441782e+01
2.047572441782e+01
2.047572441782e+01
-5.416082164700e+00
2.047572441782e+01
2.047572441782e+01
-6.516542927264e+00
1.512687273334e+01
1.610189699710e+01
2.047572441782e+01
5.880060175609e+00
-1.414404544090e+01
1.972989774172e+01
1.997992797709e+01
1.995966413207e+01
2.047572441782e+01
2.047572441782e+01
1.976022507467e+01
2.047572441782e+01
2.037846605750e+01
1.774262198482e+01
2.047572441782e+01
2.047572441782e+01
2.047572441782e+01
2.047572441782e+01
2.047572441782e+01
2.047572441782e+01
2.047572441782e+01
2.047572441782e+01
2.047572441782e+01
9.465485198193e+00
8.133112191216e+00
1.521739627057e+01
2.047572441782e+01
2.046673775162e+01
2.047572441782e+01
2.047572441782e+01
1.931647219933e+01
2.047572441782e+01
2.047572441782e+01
2.047572441782e+01
2.047572441782e+01
2.047572441782e+01
2.047572441782e+01
2.047572441782e+01
1.625983682819e+01
-4.659397943417e+00
2.047572441782e+01
2.047572441782e+01
1.138362574251e+01
2.047572441782e+01
2.047572441782e+01
1.583733151614e+01
1.908895032906e+01
1.022780660241e+01
2.040076960094e+01
5.438027635234e+00
2.047572441782e+01
1.734354412472e+01
2.047572441782e+01
2.047572441782e+01
2.047572441782e+01
2.047572441782e+01
1.828967117752e+01
2.047572441782e+01
2.047572441782e+01
2.047572441782e+01
2.047572441782e+01
2.047572441782e+01
2.047572441782e+01
1.745205666773e+01
2.047572441782e+01
2.047572441782e+01
1.695455752480e+01
2.047572441782e+01
2.047572441782e+01
1.989961793106e+01
2.047448337913e+01
1.999982122541e+01
2.047572441782e+01
2.047572441782e+01
2.047572441782e+01
2.047572441782e+01
2.047572441782e+01
1.253813311143e+01
2.047572441782e+01
1.877527758257e+01
2.047572441782e+01
2.047572441782e+01
1.834097032193e+01
2.047572441782e+01
2.047572441782e+01
1.833818388483e+01
2.047572441782e+01
2.047572441782e+01
2.047572441782e+01
2.020806828980e+01
2.047572441782e+01
2.047572441782e+01
1.583548047320e+01
2.002411726516e+01
2.047572441782e+01
2.047572441782e+01
2.047572441782e+01
2.047572441782e+01
2.047572441782e+01
2.047572441782e+01
2.047572441782e+01
2.047572441782e+01
2.047572441782e+01
4.245343453471e+00
2.047572441782e+01
2.047572441782e+01
2.047572441782e+01
2.047572441782e+01
2.047572441782e+01
2.047572441782e+01
2.043229291135e+01
2.044569957267e+01
2.047572441782e+01
1.757734849183e+01
2.047572441782e+01
2.047572441782e+01
2.047572441782e+01
2.047572441782e+01
2.047572441782e+01
2.047572441782e+01
2.047572441782e+01
2.047572441782e+01
2.047572441782e+01
2.047572441782e+01
2.047572441782e+01
2.047572441782e+01
1.854469107623e+01
2.047572441782e+01
2.047572441782e+01
2.029052293061e+01
2.047572441782e+01
2.047572441782e+01
2.047572441782e+01
2.047572441782e+01
1.922238019557e+01
2.047572441782e+01
2.047572441782e+01
2.047572441782e+01
2.047572441782e+01
2.047572441782e+01
2.047572441782e+01
2.047572441782e+01
2.047572441782e+01
2.047572441782e+01
2.047572441782e+01
2.047572441782e+01
2.047572441782e+01
1.989661391796e+01
2.047572441782e+01
2.047572441782e+01
2.047572441782e+01
9.787476268287e+00
2.047572441782e+01
2.047572441782e+01
2.047572441782e+01
2.047572441782e+01
2.047572441782e+01
2.047572441782e+01
1.896051735620e+01
2.047572441782e+01
1.987196132926e+01
2.047572441782e+01
1.620334275718e+00
2.047572441782e+01
-1.048801433468e+00
2.047572441782e+01
2.047572441782e+01
2.033205308908e+01
1.524487702873e+00
2.047572441782e+01
2.047572441782e+01
2.047572441782e+01
1.406342140484e+01
2.047572441782e+01
2.047572441782e+01
1.800865360307e+01
5.091228385285e+00
1.086366796146e+01
2.047572441782e+01
2.041655870322e+01
2.047572441782e+01
1.990831897011e+01
2.046255807795e+01
1.887249816600e+01
2.047572441782e+01
2.047572441782e+01
5.001115420533e+00
2.047572441782e+01
1.959298082808e+01
1.954399967382e+01
2.047572441782e+01
2.047572441782e+01
2.047572441782e+01
1.384411601977e+01
1.084018659936e+01
2.047572441782e+01
1.557500792290e+01
2.047572441782e+01
7.020640038102e+00
1.911502756017e+01
2.047572441782e+01
1.914628516908e+01
2.047572441782e+01
5.995264618779e+00
1.396025288787e+01
2.047572441782e+01
2.047572441782e+01
8.487093473028e+00
1.386940908146e+01
2.038638610302e+01
-1.855758488242e+00
2.047572441782e+01
2.047572441782e+01
2.047572441782e+01
2.047572441782e+01
1.282642023927e+01
2.047572441782e+01
2.047572441782e+01
2.047572441782e+01
2.029478563367e+01
2.394042049513e+00
6.995991078752e+00
1.856838232785e+01
2.047572441782e+01
1.923654658757e+01
2.025840189929e+01
1.703541898920e+01
2.047572441782e+01
2.047572441782e+01
1.904970179357e+01
1.927822095338e+01
2.047572441782e+01
2.026308781554e+01
2.047572441782e+01
-1.317504951579e+00
2.047572441782e+01
2.047572441782e+01
4.943913936941e+00
2.044290434977e+01
2.034355407821e+01
2.047572441782e+01
1.997410079120e+01
-1.121330205795e+01
5.117808220499e+00
2.047572441782e+01
2.047572441782e+01
3.157885297607e+00
2.047572441782e+01
2.047572441782e+01
1.727299378984e+01
2.047572441782e+01
-2.578937166311e-01
1.163894306915e+01
2.047572441782e+01
1.999967718804e+01
8.856998582497e+00
1.222784719343e+01
2.047572441782e+01
2.041193867208e+01
2.047572441782e+01
2.047572441782e+01
5.106453820989e+00
2.047572441782e+01
1.522170521636e+01
2.047572441782e+01
2.045584204011e+01

SCALARS node_materi_stress_average_a_sig float
LOOKUP_TABLE default
-2.230806141385e+00
-1.625411222652e+01
-2.488599425162e+02
-1.210403756532e+02
-8.665170029150e+00
-2.081773761465e+01
-3.271943168395e+01
-4.550129646022e+01
-5.813928325331e+01
-7.072055694850e+01
-8.343112545944e+01
-9.684656707713e+01
-1.103498771680e+02
-1.236837412388e+02
-1.372690061032e+02
-1.506705558934e+02
-1.627948730293e+02
-1.760312482319e+02
-1.896597324733e+02
-2.029260540241e+02
-2.161159553222e+02
-2.291992016185e+02
-2.414731090185e+02
-1.216707939338e+02
-1.210635311773e+02
-1.214654211299e+02
-1.217327971045e+02
-1.220209205519e+02
-1.230951331657e+02
-1.246049428050e+02
-1.256876271418e+02
-1.285533837239e+02
-1.304256044394e+02
-1.334986959556e+02
-1.378329702101e+02
-1.435620572694e+02
-1.481920027309e+02
-1.544360961399e+02
-1.596433733112e+02
-1.645699646997e+02
-1.705590911815e+02
-1.744851961262e+02
-1.788337339522e+02
-1.829053894827e+02
-1.866976100709e+02
-1.905629415343e+02
-1.942857168510e+02
-1.977396073074e+02
-2.011967035570e+02
-2.049483071437e+02
-2.083163171813e+02
-2.113293417121e+02
-2.150777318580e+02
-2.180667785738e+02
-2.204820620462e+02
-2.235333347680e+02
-2.259776784080e+02
-2.285015801676e+02
-2.308400455318e+02
-2.329697881579e+02
-2.347080699375e+02
-2.364371979337e+02
-2.378852185884e+02
-2.397118811610e+02
-2.416738971166e+02
-2.432561369489e+02
-2.428899878666e+02
-2.455443339628e+02
-2.460516404948e+02
-2.475510659019e+02
-2.488472664956e+02
-2.492789027577e+02
-2.322047537064e+01
-3.501483809610e+01
-4.676712014421e+01
-5.816345110918e+01
-6.973610868097e+01
-8.139399221132e+01
-9.265283127184e+01
-1.035941894485e+02
-1.151750248116e+02
-1.142495462590e+01
-3.031067836467e+01
-1.623173383320e+01
-1.754774226906e+01
-1.728229395878e+01
-1.617347778801e+01
-1.596879798651e+01
-1.638308656357e+01
-1.687415694601e+01
-1.754558953490e+01
-2.002133181880e+01
-1.533843778094e+01
-1.571231588674e+01
-1.575558294348e+01
-1.545227034449e+01
-1.715985664247e+01
-1.591336248251e+01
-1.577399097057e+01
-1.593105417030e+01
-1.657093938174e+01
-1.655888198121e+01
-1.684845345164e+01
-1.785109119319e+01
-1.975691971865e+01
-2.373466454535e+01
-1.253540532101e+01
-1.479197670435e+01
-1.582985610155e+01
-1.584099159722e+01
-1.542101766003e+01
-1.456817126276e+01
-1.294490227160e+01
-1.087884167827e+01
-8.642473048573e+00
-6.635653613824e+00
-4.974105117930e+00
-4.303326136052e+00
-3.110939293217e+00
-2.141439816992e+00
-1.988880259984e+00
-2.112692011789e+00
-2.116750336581e+00
-1.962013691183e+00
-1.677948808441e+00
-1.333432171928e+01
-1.737850169401e+01
-1.748016056699e+01
-1.707071431120e+01
-1.648260699855e+01
-1.607650704982e+01
-1.648001925531e+01
-1.699518483104e+01
-1.831459186011e+01
-2.412503752734e+01
-2.109678868256e+01
-2.191408552184e+02
-1.176915761983e+01
-1.736091003701e+01
-2.300042077139e+02
-2.208878560337e+01
-1.310531882592e+02
-2.068543912565e+02
-2.326466431239e+01
-1.937754111422e+02
-2.592169214647e+01
-2.374299011093e+02
-7.068593535479e+00
-1.790111973378e+02
-3.715645078612e+01
-7.779330094528e+01
-1.673419170968e+02
-1.665626955708e+02
-1.461758263608e+02
-1.190938694431e+02
-1.224683416790e+02
-1.323878438492e+02
-2.880417516344e+01
-2.297843489388e+01
-2.288752662264e+01
-6.405995106638e+01
-2.404072265873e+02
-1.629777245895e+01
-6.803662164672e+00
-2.089281455266e+02
-2.087810782059e+01
-3.902563564182e+01
-1.546796843005e+02
-2.012144793001e+02
-1.868217843769e+02
-2.121512854825e+02
-2.243427073222e+02
-1.588425810647e+01
-2.414859063514e+01
-2.317434631733e+02
-8.674050217501e+01
-9.549566071320e+00
-1.038167722725e+02
-1.194568584911e+02
-2.386801252257e+01
-2.202281419626e+01
-2.450530139720e+01
-2.857352418103e+01
-1.697586331862e+01
-4.188765897020e+01
-2.445707925206e+02
-6.052237887850e+00
-1.086382404446e+02
-3.908628398074e+01
-5.108425197345e+01
-5.235490060547e+01
-6.453586118894e+01
-6.705731961440e+01
-7.753249561014e+01
-7.535754511860e+01
-8.792221867463e+01
-8.569586129867e+01
-8.060044568849e+01
-9.811200785358e+01
-9.577789735575e+01
-1.081541814469e+02
-1.057457918051e+02
-9.366533910597e+01
-1.034576000250e+02
-9.158029212715e+01
-1.012688383014e+02
-1.131025969394e+02
-1.108249349195e+02
-9.914758655556e+01
-1.084130861139e+02
-9.702993110382e+01
-1.055253910351e+02
-9.437790891637e+01
-1.025114206539e+02
-1.134396209190e+02
-1.104075910030e+02
-9.974909382226e+01
-1.074450084628e+02
-9.701111375377e+01
-1.043703891448e+02
-1.139867940892e+02
-1.106858268148e+02
-1.010587372717e+02
-1.072011334521e+02
-9.748075935594e+01
-1.035326298879e+02
-9.362016920439e+01
-9.961121633611e+01
-1.106829234612e+02
-1.068167277631e+02
-9.552139009061e+01
-1.026865102381e+02
-1.143863710507e+02
-1.100701871058e+02
-1.217271286350e+02
-1.171950981022e+02
-1.055567776869e+02
-1.124744612308e+02
-1.241294117099e+02
-1.191869128665e+02
-1.075456127500e+02
-1.140991249804e+02
-1.258541380068e+02
-1.205794477535e+02
-1.088536942974e+02
-1.151663546604e+02
-1.270325517279e+02
-1.214056836525e+02
-1.096075444821e+02
-1.156616828925e+02
-1.276281689829e+02
-1.216686566548e+02
-1.337958146797e+02
-1.096935599688e+02
-1.155489062066e+02
-1.035072633178e+02
-1.093084546025e+02
-1.210371677723e+02
-9.718809685447e+01
-9.154481263549e+01
-1.029321065421e+02
-1.151348174966e+02
-9.069686455568e+01
-9.634720984805e+01
-8.394182839484e+01
-8.715489428518e+01
-1.225895327330e+02
-8.944722560652e+01
-7.671480460358e+01
-7.131846493455e+01
-6.386817496287e+01
-7.081015741193e+01
-8.379567808122e+01
-7.379268697754e+01
-8.716377695912e+01
-7.797156096854e+01
-6.908832266333e+01
-1.107969038477e+02
-9.666531024771e+01
-8.752607126293e+01
-8.906185492053e+01
-1.260691369418e+02
-1.019504606797e+02
-9.488393203866e+01
-1.075568870780e+02
-1.397490706884e+02
-1.459712285920e+02
-1.518745627426e+02
-1.581292054214e+02
-1.639806064218e+02
-1.702868310074e+02
-1.643553980034e+02
-1.766044191360e+02
-1.706119692557e+02
-1.760717986926e+02
-1.696403782934e+02
-1.829401697106e+02
-1.768855969785e+02
-1.892580174238e+02
-1.831362785473e+02
-1.706645272630e+02
-1.768244639515e+02
-1.643027664643e+02
-1.334198579184e+02
-1.377559919512e+02
-1.451671475169e+02
-1.494731244255e+02
-1.568905609338e+02
-1.611578686878e+02
-1.685607396893e+02
-1.641267351223e+02
-1.180970974551e+02
-9.118437367745e+01
-8.507925267599e+01
-8.046011974329e+01
-7.493103297139e+01
-7.012764317090e+01
-6.469411899353e+01
-5.979699081349e+01
-6.500822721747e+01
-5.453481456298e+01
-5.964114847979e+01
-4.897370392934e+01
-5.406461006819e+01
-1.203644703817e+02
-1.535474310647e+02
-1.652024673838e+02
-1.573536282831e+02
-5.852725301495e+01
-1.893538042369e+02
-1.816721412370e+02
-1.750962728686e+02
-1.757972300789e+02
-5.627032286933e+01
-5.438267084913e+01
-5.876347787546e+01
-9.080513862239e+01
-8.209607348233e+01
-1.871130490664e+02
-6.139663627085e+01
-1.888582956734e+02
-4.401509162446e+01
-1.829451641286e+02
-1.955598839089e+02
-1.583009239890e+02
-1.690448253145e+02
-1.609670957194e+02
-6.551341639968e+01
-6.007356456205e+01
-4.867525084185e+01
-5.530870731868e+01
-6.687587143940e+01
-6.114952305270e+01
-4.911823891256e+01
-5.554972605128e+01
-6.776281401375e+01
-6.192557135009e+01
-4.967031370531e+01
-5.581205213593e+01
-2.018343275416e+02
-3.856205576482e+01
-8.180308427121e+01
-1.936880592010e+02
-1.800653086956e+02
-9.461933190430e+01
-8.639670543721e+01
-7.371790840091e+01
-7.857289302896e+01
-9.083742291688e+01
-8.344717637408e+01
-7.111236450179e+01
-7.636584211680e+01
-6.402579989558e+01
-6.960121655649e+01
-8.161576726125e+01
-7.517763741651e+01
-6.315692709695e+01
-6.896058579768e+01
-5.694431761597e+01
-6.291718341053e+01
-7.476971399167e+01
-4.900991428589e+01
-1.712495740311e+02
-1.830339776407e+02
-1.005183188054e+02
-1.129775917598e+02
-1.200975776846e+02
-1.259454970321e+02
-6.884710033700e+01
-8.055347635078e+01
-4.845991693486e+01
-5.230460369971e+01
-1.032100864424e+02
-1.891028107927e+02
-1.764055365450e+02
-8.646418674658e+01
-7.846219088046e+01
-7.594514326342e+01
-6.727185845350e+01
-6.964808612343e+01
-6.477399031432e+01
-1.630312050028e+02
-8.694487366614e+01
-6.584242586528e+01
-5.316994983240e+01
-2.017663529463e+02
-1.594793878227e+02
-1.236734075185e+02
-1.305964442609e+02
-1.340210849679e+02
-1.422028848302e+02
-1.456220606869e+02
-1.540811788229e+02
-1.506800580117e+02
-1.726833739145e+02
-1.624202655154e+02
-5.691072882344e+01
-1.456389511411e+02
-7.415239481236e+01
-4.354365681470e+01
-4.297558214267e+01
-5.315421319823e+01
-6.628633832097e+01
-1.990940001452e+02
-1.575469897992e+02
-1.490367631062e+02
-5.770466171442e+01
-6.019884385900e+01
-1.806772318340e+02
-6.454147792764e+01
-5.844071355917e+01
-5.133124920235e+01
-3.907754971716e+01
-3.728258769433e+01
-9.539588259273e+01
-6.269601921565e+01
-5.572702551729e+01
-3.456181359120e+01
-2.997989580406e+01
-7.468861988986e+01
-8.622625602368e+01
-1.328034755358e+02
-1.387598413232e+02
-1.923765826449e+02
-4.962154561798e+01
-9.213420341336e+01
-1.664321396932e+02
-1.545967796818e+02
-1.182494590917e+02
-4.156575324828e+01
-3.800443383259e+01
-7.992005082430e+01
-6.202165486604e+01
-5.817026659961e+01
-2.042500321149e+02
-1.026248521337e+02
-1.591238872406e+02
-1.473861547616e+02
-1.708849365570e+02
-3.732495077328e+01
-2.058659263136e+02
-1.952516533162e+02
-1.604590388311e+02
-1.523857176111e+02
-6.620750705997e+01
-5.894666254604e+01
-4.777556011879e+01
-5.040300576509e+01
-7.342786715690e+01
-6.960320773158e+01
-7.974152386351e+01
-7.004209903339e+01
-6.816054798782e+01
-7.193099229827e+01
-6.241291243653e+01
-7.931868164095e+01
-1.301677537338e+02
-1.268236739045e+02
-1.582072528115e+02
-1.455160517540e+02
-9.323742302546e+01
-9.841474787072e+01
-5.091548722504e+01
-4.477430131547e+01
-4.560598977313e+01
-4.020181359152e+01
-1.399233750229e+02
-2.002217967831e+02
-1.064672139763e+02
-1.150120474558e+02
-1.120556069199e+02
-1.973198212363e+02
-8.667780319232e+01
-1.406465754335e+02
-3.323347302842e+01
-1.242300880945e+02
-3.285596035676e+01
-1.250584529015e+02
-2.080738832542e+02
-2.143475258658e+02
-1.841473381571e+02
-5.118769136002e+01
-1.324320973877e+02
-1.291777543532e+02
-5.753376507780e+01
-5.530707534586e+01
-6.615639053860e+01
-5.331361514387e+01
-8.614754455739e+01
-8.021048820658e+01
-1.700221518339e+02
-1.738255554283e+02
-1.637360004564e+02
-1.559447356715e+02
-1.921419942005e+02
-1.881934000559e+02
-7.077486792546e+01
-4.989590336853e+01
-1.069192507926e+02
-5.976184921549e+01
-2.121546921398e+02
-2.067648307411e+02
-2.601041309830e+01
-2.810507705865e+01
-9.784849024082e+01
-3.956015258818e+01
-4.131323587510e+01
-3.729984060548e+01
-2.350175117264e+02
-2.044244363943e+01
-2.208267320221e+02
-7.418718350864e+01
-1.037679237797e+02
-1.408187832940e+02
-8.346730718616e+01
-1.855628824005e+02
-9.147658031619e+01
-1.038097264462e+02
-4.534672745097e+01
-3.813807037323e+01
-5.239658056352e+01
-3.922446549137e+01
-2.957951281559e+01
-9.223892955145e+01
-8.737316333826e+01
-9.363482752680e+01
-5.522463966010e+01
-6.755688279786e+01
-1.393701714575e+02
-1.333623634391e+02
-1.336518108922e+02
-1.364107655845e+02
-1.271682750791e+02
-1.614443935412e+02
-1.495344802704e+02
-1.427895968785e+02
-1.042537553648e+02
-1.106779247266e+02
-9.178897829648e+01
-8.542312545426e+01
-9.206371098526e+01
-1.140169034439e+02
-2.267063164557e+02
-2.203364097834e+02
-2.786903014513e+01
-3.461354692252e+01
-3.220182098991e+01
-2.975934840656e+01
-1.235347079545e+02
-1.214940690976e+02
-1.274245949730e+02
-6.197280169599e+01
-1.557936146042e+02
-2.084545365478e+02
-2.013377914032e+02
-2.167418443304e+02
-1.760172662335e+02
-1.873883590573e+02
-1.824444094723e+02
-2.315258225071e+01
-9.953033760549e+01
-3.790442158256e+01
-2.104098589117e+01
-3.197451405741e+01
-3.872046473505e+01
-2.550397992198e+01
-4.965559976562e+01
-3.681159413111e+01
-4.661930171420e+01
-2.098487328103e+01
-1.174916132546e+02
-2.101333792060e+01
-2.577845467779e+01
-2.187800161380e+02
-2.131478757671e+02
-2.248180712266e+02
-2.190954327697e+02
-2.073666240952e+02
-2.139465419450e+02
-3.117664548662e+01
-2.273584604948e+02
-2.207296244766e+02
-2.339739502051e+02
-4.049894354549e+01
-5.263946364669e+01
-4.332523185834e+01
-3.178759465612e+01
-1.691032039059e+02
-1.584184179937e+02
-2.017447310191e+02
-1.886848906138e+02
-3.216018680573e+01
-3.131479543865e+01
-4.222812459550e+01
-4.053275852696e+01
-5.140199005369e+01
-4.963152157818e+01
-6.066036739803e+01
-1.853554013608e+02
-3.070258734275e+01
-4.450689639931e+01
-1.996402376933e+02
-1.947451632942e+02
-5.144137871927e+01
-3.778742026816e+01
-2.191079925177e+02
-7.656294408695e+01
-1.269661723828e+02
-1.474311602063e+01
-2.167071710815e+01
-8.003210469541e+01
-6.423929728686e+01
-5.512803107443e+01
-4.581467054447e+01
-1.734500563802e+02
-2.976309434917e+01
-3.482004631864e+01
-6.234330705003e+01
-2.808700556130e+01
-1.957107625639e+02
-8.342096418906e+01
-8.322092871283e+01
-4.480423430594e+01
-6.203134030433e+01
-8.364123102762e+01
-6.265365046952e+01
-6.206904897641e+01
-8.946613261885e+01
-4.766663510010e+01
-3.397659094455e+01
-8.949155136286e+01
-1.091953679312e+02
-1.187276848944e+02
-1.307580252060e+02
-1.285760528166e+02
-1.162805454712e+02
-1.262161399079e+02
-1.380715402429e+02
-1.372258863852e+02
-1.516302793438e+02
-1.465598080868e+02
-1.339140336948e+02
-1.426162516285e+02
-1.543601829673e+02
-1.308757538705e+02
-2.035186030951e+02
-9.071083674798e+01
-2.688455090414e+01
-2.460583764823e+01
-8.559857291746e+01
-1.618376188699e+02
-1.515286342780e+02
-6.905614623454e+01
-1.827295527863e+02
-7.180817705711e+01
-4.937577736573e+01
-1.903213755759e+02
-1.063811237638e+02
-1.034961136334e+02
-9.356555843971e+01
-1.416395948287e+02
-6.037979192995e+01
-2.041018492195e+02
-1.418436478898e+02
-1.339735920633e+02
-1.222569575690e+02
-1.237425040273e+02
-2.163216901880e+02
-2.083252328161e+02
-2.108026286429e+02
-1.992668905772e+02
-2.216358176766e+02
-1.711183376872e+02
-1.755575440361e+02
-7.337810779627e+01
-7.890467919779e+01
-9.080470101013e+01
-8.409028641541e+01
-7.203196512453e+01
-7.722099026098e+01
-8.908852873726e+01
-7.066347731950e+01
-1.474124919147e+02
-2.265402244748e+02
-1.575821893559e+02
-1.510039519482e+02
-1.390211022564e+02
-1.209969929699e+02
-1.274242830505e+02
-1.397784887956e+02
-1.144224692234e+02
-1.388549101698e+02
-2.284670848364e+02
-1.477047163392e+02
-1.214621702840e+02
-2.610992835712e+01
-4.116078882092e+01
-4.642112035396e+01
-5.804104970136e+01
-3.989901365760e+01
-1.454123860913e+02
-1.513950071740e+02
-1.443944309947e+02
-1.571004211013e+02
-1.495391652051e+02
-1.375825602471e+02
-1.623835197162e+02
-1.539053250999e+02
-2.338765102980e+01
-1.691046211132e+01
-2.127106326731e+01
-2.059857168884e+01
-2.690072428930e+01
-2.752957202263e+01
-3.627080376273e+01
-3.419255437409e+01
-2.194648820112e+01
-1.444196785320e+01
-2.015878487798e+01
-1.301891641214e+01
-1.999967573766e+01
-2.944121514433e+01
-4.785875053307e+01
-2.399290741693e+02
-1.170110612860e+02
-1.108128441863e+02
-9.805252674222e+01
-1.055166172515e+02
-1.223734056343e+02
-9.055057657135e+01
-8.609326544090e+01
-6.710342790376e+00
-1.636729096207e+01
-1.548508669723e+01
-2.734216979868e+01
-2.693740780192e+01
-1.677237764208e+01
-1.665260208750e+01
-6.407562683573e+00
-1.669661718574e+01
-2.777637870829e+01
-6.441032989229e+00
-7.571701764382e+01
-8.194005579526e+01
-2.313791006278e+02
-2.368502637571e+01
-1.064389109562e+01
-1.165568951931e+02
-1.216310261913e+02
-1.203743936528e+02
-2.221731926615e+02
-2.281900869638e+02
-1.158684890904e+02
-7.831902790963e+01
-1.417331283460e+02
-9.764771696190e+01
-4.417087836098e+01
-7.407606666202e+01
-1.824703747428e+02
-1.644894556755e+02
-2.080145462197e+02
-1.703771847392e+02
-1.955539496700e+02
-2.126137813432e+02
-4.559005478905e+01
-5.726051862004e+01
-5.093081435788e+01
-8.075814676595e+01
-8.198704813400e+01
-1.319221112184e+02
-5.094970347393e+01
-1.790409534320e+02
-7.779887684983e+01
-1.334321845362e+02
-1.086768892512e+02
-8.503602403808e+01
-6.814998737061e+01
-9.405041584939e+01
-1.276855744645e+02
-1.824580566155e+02
-8.635400204679e+01
-9.860474993026e+00
-1.881631532301e+02
-1.521357978858e+02
-6.583064641731e+01
-1.727657217425e+02
-4.383110274104e+01
-8.836893204026e+01
-1.173259209294e+02
-5.498344053215e+01
-3.808094867669e+01
-4.450709967376e+01
-2.110267764875e+02
-9.983588420149e+01
-7.430372979454e+01
-1.288679604414e+02
-9.158281888712e+01
-3.159033387392e+01
-1.031128197296e+02
-1.177371606587e+02
-1.873812509450e+02
-1.524032707126e+02
-7.943977296735e+01
-2.010836462786e+02
-1.184650525091e+02
-1.000381576905e+02
-1.375173876049e+02
-9.832293018294e+01
-9.845681515827e+01
-1.324481014186e+02
-1.767830854100e+02
-7.599626766457e+01
-1.166497058682e+02
-1.154990755896e+02
-1.171722861634e+02
-1.755050272225e+02
-1.946328938779e+02
-4.318539494790e+01
-7.299311811486e+01
-6.892873240356e+01
-1.656757265490e+02
-1.112252490294e+02
-8.076504873245e+01
-1.952263645362e+02
-1.097325015974e+02
-1.337447239102e+02
-5.290146629191e+01
-3.469436253127e+01
-7.564007964385e+01
-1.143029455602e+02
-1.460245807843e+02
-1.350728648290e+02
-2.015594942809e+02
-1.804105383111e+02
-1.956490534757e+01
-4.758530652471e+01
-2.079610485457e+02
-1.359162598157e+02
-1.841010150203e+02
-1.415066491646e+02
-1.822475270066e+02
-3.908628723359e+01
-2.144860872486e+02
-1.783774876349e+02
-7.299425713883e+01
-2.093751039256e+01
-2.286272997563e+02
-1.902737322841e+02
-1.273688833861e+02
-1.309756135019e+02
-2.692099446987e+01
-1.521259478995e+02
-1.198522410553e+02
-1.369003291721e+02
-1.944286397774e+02
-9.053152576143e+01
-1.457965715144e+02
-1.491382132350e+02
-2.710300737058e+01
-4.215891179017e+01
-1.518482747723e+02
-8.203893348725e+01
-1.376956414384e+02
-1.952363507731e+02
-1.579080014123e+02
-9.379861826594e+01
-1.639002983110e+02
-2.519744422376e+01
-1.007012530384e+02
-1.696846450037e+02
-1.305956902708e+02
-2.981920707699e+01
-1.356506979894e+02
-2.148769094625e+02
-9.778033290172e+01
-1.443320704735e+02
-1.135406179427e+02
-2.378921598443e+01
-1.562768683542e+02
-1.409974619621e+02
-1.440830159546e+02
-1.258110277984e+02
-1.683194678807e+02
-3.674842500441e+01
-7.280719147719e+01
-6.049938671378e+01
-1.008378517359e+02
-1.443398848369e+02
-3.766090602810e+01
-1.209075266533e+02
-4.260224714629e+01
-9.591664784078e+01
-1.643986532580e+02
-5.328679041950e+01
-1.024806862286e+02
-6.535226221734e+01
-9.720408646124e+01
-1.374978938195e+02
-1.034775514368e+02
-9.790852836373e+01
-1.088082334881e+02
-1.038505490419e+02
-1.177833689147e+02
-2.424067990376e+02
-2.994070281195e+01
-2.080232039327e+01
-1.775612901918e+01
-3.580563986553e+01
-8.595614247944e+01
-1.278043779715e+02
-3.042245277257e+01
-7.960750765051e+01
-1.590914404692e+02
-1.976435820289e+02
-7.013408487857e+01
-1.909707548924e+02
-1.525746981316e+02
-9.692913499356e+01
-2.045259625267e+01
-1.965992226385e+01
-1.822175186444e+02
-2.023814836805e+01
-3.161625249508e+01
-2.954905895688e+01
-8.310455870984e+01
-2.714090437388e+01
-2.212157337223e+01
-2.052446019349e+02
-3.346311554632e+01
-1.674523997186e+02
-2.167727442340e+01
-1.206721721450e+02
-1.918829059845e+02
-2.357211977429e+02
-1.793694183541e+02
-2.611677108495e+01
-5.159514061456e+01
-1.752275882604e+02
-7.963522054160e+01
-2.389610382394e+02
-3.400295074981e+01
-1.090577410578e+02
-3.753773445994e+01
-1.086203641824e+02
-1.394707578490e+02
-4.550947506574e+01
-5.883497498501e+01
-2.335102498730e+02
-1.500407248463e+02
-2.354984027470e+01
-6.989378189762e+01
-1.062277446874e+02
-2.174692100736e+01
-2.225548967725e+02
-1.503240990402e+02
-2.309349818790e+02
-2.700029703679e+01
-1.756133054333e+01
-2.209662818264e+02
-1.679580749935e+02
-4.419753929367e+01
-1.279910291665e+02
-1.882647445292e+01
-1.949238728496e+01
-1.675847582542e+01
-2.405081098309e+02
-1.137730672876e+02
-1.168983321355e+02
-3.489294838595e+01
-7.407582598002e+01
-1.755764239033e+02
-2.679200331275e+01
-1.126621170888e+02
-2.175922068258e+02
-1.339885577362e+02
-2.126534664990e+02
-2.120375757920e+01
-1.915650089131e+02
-2.037486006729e+02
-2.012622523738e+01
-1.415350342141e+02
-9.345791070044e+01
-3.821214090643e+01
-1.186584478052e+02
-4.894412663417e+00
-1.927967671124e+01
-2.455091317524e+02
-3.526236018647e+01
-3.866193507267e+01
-1.645983299328e+02
-1.447604939865e+02
-9.053828762975e+01
-3.350922220115e+01
-1.728200463266e+01
-5.944429885639e+01
-1.971291196465e+02
-1.265324822580e+02
-5.184203636408e+01
-2.840421585003e+01
-1.594398805255e+02
-1.269092470372e+02
-1.695308130986e+02
-1.995458914227e+02
-1.407706892624e+01
-1.562388738936e+02
-1.605007113286e+01
-2.287792722307e+02
-1.322638829089e+02

SCALARS node_materi_stress_size_dev_sd_sig float
LOOKUP_TABLE default
7.912045651520e+00
1.564491529525e+01
1.747759878700e+02
9.028807712871e+01
1.540086907765e+01
2.400081645758e+01
3.196867606935e+01
4.060446220266e+01
4.917584134369e+01
5.773339328253e+01
6.635453362523e+01
7.485210125125e+01
8.333617398138e+01
9.238458642138e+01
1.017247720483e+02
1.104651188028e+02
1.184437035001e+02
1.273939855662e+02
1.364519489844e+02
1.450723011523e+02
1.536015835595e+02
1.620607170739e+02
1.699979344466e+02
9.116966329084e+01
9.084922095991e+01
9.116910946382e+01
9.149849591035e+01
9.146392894580e+01
9.242375694846e+01
9.331216560353e+01
9.447916641835e+01
9.648274948925e+01
9.817696787092e+01
1.001328477778e+02
1.029478469095e+02
1.066461555667e+02
1.096569345866e+02
1.136887213884e+02
1.170720547389e+02
1.202653572844e+02
1.241410206192e+02
1.266769721020e+02
1.294876683477e+02
1.321200223334e+02
1.345723776611e+02
1.370709281136e+02
1.394791118214e+02
1.417127146772e+02
1.439474267523e+02
1.463726364710e+02
1.485523687511e+02
1.504985354696e+02
1.529220007182e+02
1.548579325450e+02
1.564167396465e+02
1.583930372562e+02
1.599744053460e+02
1.616066645337e+02
1.631198591799e+02
1.644980332672e+02
1.656224327690e+02
1.667417133195e+02
1.676776699206e+02
1.688589865995e+02
1.701290802946e+02
1.711526297525e+02
1.709118298174e+02
1.726327213286e+02
1.729604540327e+02
1.739295912757e+02
1.747685534235e+02
1.750476251547e+02
1.288414209126e+01
1.359034699883e+01
1.980040876743e+01
2.815638312319e+01
3.780644780846e+01
4.814856578103e+01
5.909974479086e+01
7.053967391404e+01
8.265743997740e+01
1.307432834431e+01
2.998884614310e+01
2.070502183923e+01
2.176543873745e+01
2.165429992469e+01
2.084461932611e+01
2.078406716530e+01
2.105510635646e+01
2.137684910073e+01
2.182760666284e+01
2.343913638550e+01
1.604299710436e+01
1.567963815252e+01
1.569992032730e+01
1.604737105733e+01
1.551131192435e+01
1.603262600989e+01
1.628195310412e+01
1.615663320596e+01
1.596119610653e+01
1.631600700407e+01
1.691721025712e+01
1.818772592974e+01
2.124495579862e+01
2.533323327088e+01
1.323496683250e+01
1.530196888532e+01
1.723214008357e+01
1.734797498190e+01
1.544706284262e+01
1.357272900460e+01
1.124849307119e+01
8.333621758972e+00
5.453415584449e+00
4.213867361870e+00
5.110537792795e+00
6.716047076262e+00
7.322922973626e+00
6.944289312050e+00
7.197185919022e+00
7.501646117686e+00
7.633908846066e+00
7.254945490515e+00
6.559348126827e+00
1.726326995636e+01
2.168044504358e+01
2.173602714475e+01
2.146404436139e+01
2.113562135977e+01
2.085520371981e+01
2.111639186779e+01
2.146430684570e+01
2.233884938424e+01
2.599451273542e+01
2.254382815764e+01
1.555526684962e+02
8.706863816296e+00
9.327848530400e+00
1.625803215231e+02
2.441272889657e+01
9.752070120726e+01
1.476000739363e+02
2.520241475184e+01
1.391482052874e+02
2.717032884101e+01
1.673833134397e+02
1.165093188015e+01
1.296014418734e+02
3.382486064213e+01
6.254548296505e+01
1.216781889143e+02
1.215487904187e+02
1.083277549592e+02
8.680421520189e+01
8.912852839572e+01
9.824344674019e+01
2.338919963519e+01
1.563214561332e+01
1.421087343245e+01
3.287942907942e+01
1.693101788575e+02
9.511431422695e+00
1.283225194873e+01
1.489522230550e+02
1.373420975014e+01
3.622812411685e+01
1.138256929091e+02
1.439593618806e+02
1.346519129617e+02
1.510249599226e+02
1.589169486232e+02
7.878399164998e+00
1.767778826112e+01
1.637033486077e+02
5.333805317252e+01
1.063008359359e+01
7.920105607128e+01
8.762783269736e+01
2.555620515341e+01
2.426239611187e+01
2.609448074814e+01
2.904939531487e+01
1.723732976822e+01
1.675077458192e+01
1.720011036730e+02
1.226852398124e+01
7.591777664807e+01
3.239785755589e+01
3.842383995532e+01
3.456942713074e+01
4.300847506625e+01
4.108197171622e+01
5.005378540379e+01
5.121275231644e+01
5.919232503753e+01
5.969030103596e+01
4.926303434509e+01
6.835246767303e+01
6.835020804032e+01
7.746444635006e+01
7.706531546484e+01
6.831137535232e+01
7.661764286610e+01
6.812416597936e+01
7.613643619136e+01
8.471135024397e+01
8.398600536608e+01
7.567328544462e+01
8.310067976475e+01
7.516612861386e+01
8.142707557792e+01
7.380563719854e+01
7.936929115540e+01
8.683401219491e+01
8.476459138201e+01
7.749073165122e+01
8.274516096270e+01
7.562945977086e+01
8.064946620956e+01
8.721659831813e+01
8.497227158095e+01
7.839208698641e+01
8.260146918790e+01
7.595533135951e+01
8.010393039561e+01
7.332579916677e+01
7.743419381494e+01
8.499453790122e+01
8.235708814824e+01
7.464670875014e+01
7.953992473451e+01
8.752373701201e+01
8.457872865379e+01
9.247248430236e+01
8.942961971240e+01
8.149927560994e+01
8.622058403709e+01
9.406476582470e+01
9.077108515134e+01
8.285725558072e+01
8.733060771651e+01
9.520079796325e+01
9.170527535546e+01
8.375077907845e+01
8.805969207337e+01
9.597680521387e+01
9.225896218634e+01
8.426620096293e+01
8.839509161322e+01
9.636575173756e+01
9.243167778625e+01
1.003668599779e+02
8.432595041700e+01
8.831840631954e+01
8.010483870758e+01
8.406367977395e+01
9.199626298788e+01
7.579372767068e+01
7.194474462805e+01
7.971206457688e+01
8.803729513884e+01
7.136573374501e+01
7.521840762748e+01
6.675783399128e+01
6.891590083164e+01
9.232801342098e+01
7.050879977756e+01
6.182884803830e+01
5.815566426854e+01
5.307934287471e+01
4.047550037287e+01
4.911166770337e+01
3.978617668501e+01
4.988474664041e+01
4.092921137632e+01
5.663010443377e+01
7.795601365906e+01
5.948894068233e+01
6.763324753849e+01
7.019295500648e+01
9.534046542384e+01
7.903929866464e+01
7.421288024771e+01
8.286281767889e+01
1.042158678997e+02
1.082393802171e+02
1.120562244367e+02
1.161006727531e+02
1.198839833691e+02
1.239618803816e+02
1.201267905332e+02
1.280472310128e+02
1.241727091597e+02
1.277022384048e+02
1.235433049154e+02
1.321444468199e+02
1.282298013835e+02
1.362301920004e+02
1.322721511812e+02
1.242076987072e+02
1.281914275047e+02
1.200948864819e+02
1.001196229118e+02
1.029223226953e+02
1.077152509493e+02
1.104983708891e+02
1.152954495190e+02
1.180533811597e+02
1.228413030722e+02
1.199749725214e+02
8.638873143991e+01
7.169155166633e+01
6.751425275339e+01
6.437253788112e+01
6.059248246344e+01
5.732636124065e+01
5.362380596748e+01
5.029711539158e+01
5.384644702104e+01
4.672221202467e+01
5.020056186431e+01
4.295087998164e+01
4.641647076882e+01
9.151200391550e+01
1.131314098992e+02
1.206670088539e+02
1.155914668306e+02
4.944903181263e+01
1.362929635133e+02
1.313230967039e+02
1.270707170347e+02
1.275207461096e+02
4.790962743817e+01
4.660942946346e+01
4.958526636023e+01
5.168499897934e+01
4.316735138876e+01
1.348408524839e+02
5.139409761850e+01
1.359709057441e+02
3.957772341053e+01
1.321496416654e+02
1.403066076924e+02
1.162122028122e+02
1.231508091329e+02
1.179266617717e+02
5.420377914977e+01
5.050467112672e+01
4.275566667528e+01
4.725054406082e+01
5.512953218979e+01
5.123629484055e+01
4.305629481483e+01
4.742681681101e+01
5.573681741910e+01
5.176406512158e+01
4.343653865113e+01
4.760894007034e+01
1.443633912420e+02
3.549721730801e+01
6.021956844456e+01
1.390926893282e+02
1.302802201074e+02
5.456273584842e+01
4.655309121306e+01
3.575349677510e+01
3.962496209050e+01
5.096181444049e+01
4.432757056111e+01
3.376171028621e+01
3.856653557738e+01
2.879128811863e+01
3.357431372032e+01
4.395652227719e+01
3.896093484767e+01
2.920741355019e+01
3.442464279639e+01
2.524150838140e+01
3.016775064302e+01
4.005268712871e+01
4.298279097000e+01
1.245814587013e+02
1.322011150186e+02
7.805224255136e+01
8.645918681229e+01
9.137679511289e+01
9.520940617435e+01
3.552323597010e+01
4.600761189105e+01
4.259359449769e+01
4.519890241480e+01
6.352892059940e+01
1.361319961238e+02
1.279220255301e+02
6.843032301979e+01
6.295532051467e+01
6.124929934370e+01
5.535055384509e+01
5.695081651998e+01
5.365897650479e+01
1.192695620567e+02
4.986075051165e+01
5.442974056330e+01
4.581016540599e+01
1.443201962210e+02
1.169710652657e+02
9.370831349295e+01
9.827468472763e+01
1.004874297023e+02
1.057897695537e+02
1.080015513292e+02
1.134734847838e+02
1.112717632548e+02
1.255020314297e+02
1.188627494400e+02
2.596766718010e+01
1.080169979477e+02
6.008840631581e+01
3.926709312598e+01
3.889049980926e+01
4.576908758149e+01
5.471082738870e+01
1.425877147812e+02
1.157140746881e+02
1.102112849889e+02
4.885822035124e+01
5.055034528984e+01
1.306722532091e+02
3.170890581686e+01
2.480205067953e+01
2.078189795921e+01
3.624678674608e+01
3.502965831570e+01
5.610994175653e+01
5.225560347485e+01
4.752345424373e+01
3.095188260262e+01
2.528791075990e+01
4.102996652941e+01
5.183402986601e+01
9.972472921854e+01
1.035535377945e+02
1.382435069562e+02
4.340203253633e+01
5.720841256179e+01
1.214671404693e+02
1.138146805613e+02
8.955273528248e+01
3.791816648481e+01
3.529534993892e+01
6.401732416988e+01
5.183189820185e+01
4.918763873719e+01
1.459205138096e+02
6.327839555240e+01
1.167332164930e+02
1.091435875607e+02
1.243384464629e+02
3.507401133906e+01
1.469667383030e+02
1.401084082838e+02
1.175988195379e+02
1.123766092563e+02
5.463965728254e+01
4.970961755306e+01
4.212479839294e+01
4.390324207600e+01
5.196983631088e+01
5.694284348545e+01
6.029471006407e+01
5.364433408613e+01
5.407807818668e+01
5.848901158117e+01
5.202487304037e+01
6.357934421129e+01
9.801445141751e+01
9.583673536160e+01
1.161527289605e+02
1.079445945283e+02
5.540631325700e+01
6.176648110404e+01
2.092564205257e+01
1.771336251293e+01
4.066951754615e+01
3.700312224936e+01
1.043291652169e+02
1.433180838512e+02
6.682740384383e+01
7.626824350448e+01
7.311765254136e+01
1.414394619342e+02
6.862046495088e+01
1.047931655121e+02
3.075649193033e+01
9.411404394044e+01
3.174944033466e+01
9.343834160424e+01
1.483986366466e+02
1.524552197552e+02
1.329145086166e+02
4.136257897008e+01
9.947455360918e+01
9.737159037960e+01
4.779652060210e+01
4.702836362452e+01
5.373063454842e+01
4.586369264894e+01
6.826285603679e+01
6.421699903850e+01
1.237818059495e+02
1.262379971386e+02
1.197210362053e+02
1.146772718634e+02
1.380860431173e+02
1.355325897423e+02
5.776975822482e+01
4.352492974140e+01
6.875496513061e+01
4.790607437835e+01
1.510344366341e+02
1.475492707979e+02
1.855666620868e+01
2.480665652466e+01
6.353954827470e+01
3.642845677817e+01
3.763165981446e+01
3.491115843503e+01
1.658220574580e+02
1.376690375152e+01
1.566451445062e+02
5.981647915992e+01
6.930149892232e+01
1.048982255010e+02
6.639078361446e+01
1.338371373182e+02
5.738410813050e+01
7.032459650444e+01
1.818019502105e+01
1.556891053863e+01
2.168316628704e+01
3.588870170387e+01
2.480503338190e+01
5.603718530099e+01
6.908662037873e+01
7.326977616311e+01
4.721040514203e+01
5.559898680685e+01
1.039724268032e+02
1.000876094628e+02
9.996001174527e+01
1.015392911188e+02
9.598840644956e+01
1.182428450801e+02
1.105420834614e+02
1.061803096744e+02
6.769116834907e+01
7.574939038600e+01
7.210887522522e+01
6.776743964478e+01
7.229787208971e+01
7.651997548695e+01
1.604473296827e+02
1.563278128396e+02
2.778863506142e+01
3.311164156842e+01
3.006973289075e+01
2.661663121953e+01
8.590754817116e+01
8.333703386014e+01
9.106280771504e+01
5.178327365565e+01
1.145803628329e+02
1.486389409702e+02
1.440368908989e+02
1.539994530503e+02
1.276586997923e+02
1.350126987435e+02
1.318135319674e+02
1.360238550306e+01
6.615696066469e+01
1.491658263546e+01
8.862050597919e+00
1.342887812917e+01
1.503414676635e+01
1.319655287920e+01
4.341812869772e+01
1.666194907593e+01
2.022914062070e+01
2.137360749656e+01
8.224432259971e+01
2.275128371733e+01
2.672010475802e+01
1.553188404958e+02
1.516775166714e+02
1.592239151630e+02
1.555247160979e+02
1.479396772987e+02
1.521943586859e+02
1.399531503396e+01
1.608682711185e+02
1.565802937359e+02
1.651442003207e+02
3.714884747130e+01
4.541798443178e+01
3.901979326708e+01
3.099151374044e+01
1.231893328299e+02
1.162797838441e+02
1.443066061265e+02
1.358621429915e+02
1.304318528313e+01
1.276216736589e+01
1.674533334501e+01
1.596274898241e+01
2.262214847060e+01
2.155095398751e+01
2.967634369497e+01
1.336992435471e+02
3.015345584996e+01
3.987969995729e+01
1.429344032343e+02
1.397723887111e+02
4.458430945499e+01
3.522128382708e+01
1.555317284941e+02
6.169730243803e+01
9.276812981258e+01
1.054526820359e+01
1.288237360166e+01
6.405371336468e+01
5.302935715028e+01
4.711196332501e+01
4.072789205797e+01
1.260053528092e+02
2.944627961407e+01
3.291460129646e+01
3.054217163781e+01
2.665653238697e+01
1.404044374420e+02
6.637343758943e+01
6.617802425146e+01
4.011321405982e+01
5.180160922261e+01
5.998945359403e+01
4.457133370395e+01
4.664601024625e+01
7.049885241770e+01
4.201047816746e+01
3.259316657278e+01
6.790624374078e+01
7.090760316006e+01
8.117538291868e+01
9.347961539400e+01
9.162028668787e+01
7.982735366775e+01
8.983098471291e+01
1.012983634090e+02
1.002847464684e+02
1.117172415327e+02
1.081300813836e+02
9.824680276437e+01
1.053983286911e+02
1.136405115869e+02
9.638383641558e+01
1.454410050485e+02
7.133811071397e+01
1.951859184496e+01
1.792649110449e+01
6.730753775759e+01
1.184883273480e+02
1.117964664536e+02
5.659048443410e+01
1.320051165248e+02
5.259968813936e+01
4.321691367833e+01
1.369158485854e+02
6.952149688102e+01
6.871623186810e+01
5.874795959774e+01
1.048753038277e+02
2.659131978553e+01
1.458269301277e+02
1.055641656467e+02
1.004741677913e+02
9.281942005435e+01
8.858158843501e+01
1.537281960290e+02
1.485580750936e+02
1.501612233403e+02
1.426971025977e+02
1.571657161992e+02
1.244998218221e+02
1.273697454913e+02
5.955975643974e+01
6.332415066528e+01
7.143651023421e+01
6.685960470493e+01
5.864425998114e+01
6.217722860991e+01
7.026673724710e+01
5.770711763382e+01
1.091411635635e+02
1.603391141516e+02
1.157465389949e+02
1.114928550376e+02
1.037447667300e+02
9.198111868535e+01
9.623151321811e+01
1.042361004652e+02
8.755210677111e+01
1.036237087242e+02
1.615858630197e+02
1.093577092700e+02
9.229226430936e+01
1.979322396824e+01
2.332120651490e+01
2.918496263930e+01
3.102952377282e+01
2.021129017824e+01
1.078798453887e+02
1.117484783395e+02
1.069628025697e+02
1.153245497386e+02
1.099694491423e+02
1.020688835031e+02
1.185432084996e+02
1.126751815331e+02
1.665312411927e+01
8.279822399507e+00
1.475241614333e+01
1.631529215650e+01
2.655373140793e+01
2.601110413441e+01
3.434944753557e+01
3.264631717651e+01
1.313897706042e+01
7.741453027585e+00
1.786821166613e+01
8.160285533501e+00
1.895156140204e+01
2.916041185305e+01
4.220748267636e+01
1.689981937165e+02
8.790243680226e+01
8.401566815414e+01
7.569998193937e+01
8.086808036465e+01
9.176644251873e+01
7.098557370687e+01
6.810437631383e+01
1.284083583139e+01
2.109423691883e+01
2.073899523214e+01
2.836821643035e+01
2.809585187293e+01
2.129537458477e+01
2.123002203582e+01
1.260338523319e+01
2.128377461435e+01
2.863619859175e+01
1.232167427461e+01
4.296297033077e+01
4.874491752453e+01
1.634705960001e+02
1.492107256174e+01
9.699617542367e+00
8.407273405113e+01
8.859033101927e+01
8.775255231522e+01
1.575167772254e+02
1.614062777143e+02
8.392754836424e+01
6.292673533023e+01
1.037786840962e+02
6.248736754728e+01
3.968279903086e+01
6.003809069802e+01
1.318444233602e+02
1.202142198107e+02
1.483602088285e+02
1.240233961533e+02
1.403017006000e+02
1.513292172999e+02
4.065130481137e+01
2.454239686561e+01
2.153054502325e+01
4.476229805327e+01
6.541858194062e+01
9.875387133369e+01
4.429567866061e+01
1.296213064004e+02
6.032136280128e+01
1.001311703127e+02
8.363148901053e+01
6.750663155010e+01
5.600188806499e+01
7.361354498578e+01
9.640289050393e+01
1.318319945572e+02
5.088456954874e+01
1.273824038549e+01
1.355206586540e+02
1.122255706626e+02
2.970190386014e+01
1.255586140284e+02
3.947281161935e+01
4.963469039791e+01
7.956314663190e+01
2.498809464654e+01
3.552184302963e+01
1.747382900438e+01
1.503032892487e+02
6.101777629399e+01
6.017898244971e+01
9.717224793820e+01
7.190166802637e+01
3.102016026626e+01
6.793486765833e+01
8.979147984582e+01
1.350102738313e+02
1.123948577835e+02
6.367631124806e+01
1.438761817167e+02
9.028252473888e+01
6.175663061598e+01
1.027476088522e+02
7.656382621667e+01
5.842667001676e+01
9.949438342710e+01
1.281544729718e+02
6.020130746085e+01
8.901661243418e+01
8.552009340507e+01
8.937489132195e+01
1.272901564894e+02
1.397045064106e+02
3.903360887688e+01
5.924598822215e+01
3.301597089781e+01
1.209714542277e+02
7.460146412807e+01
6.451134160477e+01
1.400891047476e+02
7.102750716750e+01
1.003344880550e+02
4.562109877250e+01
3.166943611744e+01
6.109293477757e+01
8.746345365202e+01
1.082743514416e+02
9.836326334546e+01
1.441846907992e+02
1.305062869358e+02
2.035758116410e+01
4.130674176996e+01
1.483243808442e+02
1.017353221372e+02
1.328881039207e+02
1.044223594449e+02
1.316945809720e+02
3.615654446707e+01
1.525438957525e+02
1.291904917416e+02
5.927001486263e+01
1.361306186536e+01
1.616895694954e+02
1.368825016560e+02
9.618019540990e+01
9.854133310131e+01
2.788784510644e+01
1.122198802089e+02
9.098206886264e+01
1.017875125840e+02
1.395693190867e+02
5.868928857272e+01
1.081278169454e+02
1.102785272590e+02
2.820701284125e+01
3.829506094614e+01
1.120415454597e+02
6.545955975594e+01
1.028870960565e+02
1.400849038339e+02
1.159605589728e+02
7.347839401008e+01
1.198359605281e+02
2.660959831351e+01
6.839686482523e+01
1.235762816611e+02
9.814893381710e+01
2.991280999878e+01
1.015545180327e+02
1.527978063231e+02
7.619743373487e+01
1.071786660790e+02
7.872945283616e+01
2.556724747903e+01
1.149020127899e+02
1.049950763493e+02
1.070085624794e+02
9.516948637897e+01
1.226885181249e+02
3.445413507391e+01
5.917358190643e+01
5.079650370893e+01
7.827989804199e+01
1.071551237714e+02
3.530886182783e+01
8.745187553597e+01
3.864562425546e+01
7.492329467901e+01
1.201456132955e+02
2.426768462763e+01
7.940138489557e+01
5.408037240648e+01
7.580176146570e+01
1.027520912761e+02
8.008253150218e+01
7.628366035396e+01
7.480559769830e+01
8.033830745696e+01
8.572286591039e+01
1.706014604809e+02
1.247890912388e+01
2.353082755889e+01
9.174547117065e+00
3.379724709059e+01
6.813385780283e+01
9.475566957469e+01
1.257519861172e+01
6.380684101798e+01
1.167036068398e+02
1.416488472708e+02
3.786698288241e+01
1.373320323300e+02
1.124995312336e+02
6.372130988562e+01
1.452424277486e+01
1.927939245236e+01
1.315942593070e+02
2.320661020232e+01
3.084219748748e+01
2.899997140466e+01
6.615274151738e+01
2.722642853074e+01
2.442123142172e+01
1.465629726225e+02
1.536737292849e+01
1.221190492783e+02
2.359301232271e+01
8.461911332610e+01
1.379187439950e+02
1.662776737003e+02
1.298246009884e+02
2.311710759799e+01
2.556059693098e+01
1.271544283564e+02
4.584694276400e+01
1.683715448930e+02
1.768120169090e+01
7.599682091674e+01
3.519724578234e+01
7.595416604558e+01
1.033934962737e+02
1.838943358294e+01
3.442432816042e+01
1.648473204425e+02
1.108013342988e+02
1.863085712668e+01
3.707753553864e+01
8.173759229690e+01
1.023586543023e+01
1.577622899315e+02
1.110256212376e+02
1.631831453366e+02
2.813172772059e+01
1.904812271433e+01
1.567349634314e+02
1.224559712080e+02
3.970789895298e+01
9.484690935886e+01
1.351915156549e+01
1.547769909142e+01
2.063507818174e+01
1.693715215407e+02
7.897920074824e+01
8.819487350131e+01
2.826249598750e+01
6.002091767521e+01
1.273781768287e+02
2.713836751106e+01
7.875844414689e+01
1.545517120010e+02
9.798114530252e+01
1.513546996332e+02
1.029006209997e+01
1.377180219750e+02
1.455981710903e+02
1.426712713733e+01
1.044414822414e+02
7.295627966501e+01
3.567621986975e+01
8.697028954677e+01
1.149903237487e+01
1.427789537548e+01
1.726087547656e+02
3.368860430952e+01
1.505702102854e+01
1.202822773105e+02
1.065360834924e+02
5.718105061539e+01
3.248186383413e+01
1.061595756039e+01
2.891394338337e+01
1.413155514515e+02
9.127375277311e+01
2.256846860316e+01
2.348291977223e+01
1.169460855963e+02
9.494226202431e+01
1.234716287385e+02
1.428819753270e+02
1.391381495360e+01
1.141886603272e+02
1.917633677797e+01
1.617888851107e+02
9.843200899752e+01

SCALARS node_materi_strain_total_average_a_ept float
LOOKUP_TABLE default
3.482309459449e-04
4.369544375747e-03
2.477963159913e-03
5.826068325284e-03
2.983892115753e-04
3.373906889228e-04
4.499191173629e-04
5.961350545689e-04
7.269610335979e-04
8.570156303008e-04
9.816312703886e-04
1.086335486026e-03
1.189691626717e-03
1.300546904811e-03
1.415431731309e-03
1.527226732654e-03
1.631973564385e-03
1.745117326050e-03
1.865465750045e-03
1.991673109596e-03
2.127165907938e-03
2.265098613905e-03
2.401064764986e-03
5.835733758412e-03
5.825167107459e-03
5.820791605803e-03
5.812078003547e-03
5.788951504092e-03
5.775821145543e-03
5.741942404772e-03
5.702365135204e-03
5.644237145535e-03
5.594658586123e-03
5.495707577419e-03
5.398140635894e-03
5.258977281471e-03
5.126367656560e-03
4.957716274987e-03
4.802675408195e-03
4.669592642987e-03
4.531018757412e-03
4.436116133017e-03
4.330670450707e-03
4.221238311183e-03
4.118651042586e-03
4.015710487794e-03
3.916219163314e-03
3.829706740183e-03
3.746166595426e-03
3.648115334225e-03
3.564576469048e-03
3.478580571299e-03
3.397437952292e-03
3.312406254538e-03
3.226260755209e-03
3.145735496753e-03
3.089017506133e-03
3.026528320405e-03
2.963876001164e-03
2.914346598235e-03
2.858833976874e-03
2.809786753948e-03
2.758767153965e-03
2.718522599977e-03
2.691756488209e-03
2.659078273306e-03
2.602528304930e-03
2.587195998570e-03
2.549487856461e-03
2.523124722002e-03
2.506898598519e-03
2.492487117724e-03
4.464001050631e-03
4.614374042614e-03
4.764656259374e-03
4.914386569408e-03
5.068722669145e-03
5.225552572702e-03
5.383631848222e-03
5.547862480004e-03
5.706782284316e-03
-1.351781057150e-04
3.957997858306e-03
9.914653512461e-05
5.357073927813e-04
1.013993038341e-03
1.481495916204e-03
1.956791739845e-03
2.423318359053e-03
2.877881519034e-03
3.326306483749e-03
3.729883943353e-03
4.370784458438e-03
4.374466707272e-03
4.371752256229e-03
4.366703069271e-03
4.383001417576e-03
4.369739962227e-03
4.365283909298e-03
4.368822569373e-03
4.371735617402e-03
4.363169044549e-03
4.352989076950e-03
4.320964613869e-03
4.273738420456e-03
4.177766197552e-03
-1.790610127837e-04
-2.349542378575e-04
-2.708485908924e-04
-2.713944987330e-04
-2.446856563244e-04
-2.149872685516e-04
-1.717809098494e-04
-1.175086590422e-04
-5.787408857542e-05
-3.372092052947e-06
4.421710306922e-05
7.002687026372e-05
1.328958236741e-04
2.639836694126e-04
3.669572996969e-04
3.418100199317e-04
3.531701402351e-04
3.901327766489e-04
3.844943769653e-04
-5.025371493823e-05
3.053484617628e-04
7.736706910872e-04
1.256042660683e-03
1.720404741412e-03
2.202476956988e-03
2.655736558971e-03
3.109116393339e-03
3.541465386263e-03
3.858724613457e-03
4.955669907422e-04
3.070696928923e-03
4.739601065669e-05
-1.168050502283e-04
2.786317110926e-03
1.412602943618e-03
1.360438855813e-03
3.375932096908e-03
2.272946919663e-03
3.739675974860e-03
3.154791946917e-03
2.623836922728e-03
1.878745525289e-04
4.127862896460e-03
3.803955831891e-03
9.224097079346e-04
1.669593911630e-03
4.435457210212e-03
4.985799067541e-03
5.689239435815e-03
5.562119473076e-03
5.351735242964e-03
4.243523286907e-03
4.401336676170e-03
4.436185087954e-03
4.992760565328e-03
2.512924058167e-03
-8.822276669314e-05
2.991235430753e-04
2.063512693740e-03
4.432772692910e-03
5.227192579137e-04
4.680001337130e-03
3.567169951927e-03
3.921883681766e-03
3.218827115161e-03
2.946921568727e-03
-5.331949877684e-05
4.354123555211e-03
2.667940733856e-03
5.298861528610e-03
1.140145734426e-04
1.134562407329e-03
5.745401791005e-03
1.843971844369e-03
9.465918055387e-04
2.716240231926e-03
3.553347104410e-03
1.031248922726e-04
4.701930922412e-03
2.482697905564e-03
3.388028289738e-04
5.621416544708e-03
3.974729626908e-03
3.843250376185e-03
4.031906274766e-03
3.923536337404e-03
4.100182414066e-03
4.016673867209e-03
3.832440560317e-03
3.938243320004e-03
3.751410589518e-03
4.186392141114e-03
3.863452035438e-03
3.677519537934e-03
3.791702456493e-03
3.606941679808e-03
3.488024452012e-03
3.420891109735e-03
3.298049231692e-03
3.232977232171e-03
3.358142620719e-03
3.171692408386e-03
3.042606362721e-03
2.988258382336e-03
2.852571633212e-03
2.818349489198e-03
2.675777207710e-03
2.651540781185e-03
2.800539641666e-03
2.633550893311e-03
2.477969867548e-03
2.464824150650e-03
2.303658130111e-03
2.298241682564e-03
2.482659585703e-03
2.321811501850e-03
2.135609054948e-03
2.164985355928e-03
1.979052644519e-03
2.013150169054e-03
1.829814905069e-03
1.865601010174e-03
2.017253751623e-03
1.868812237572e-03
1.721231646186e-03
1.725199232961e-03
1.863111098255e-03
1.723737575771e-03
1.864626807275e-03
1.729917396804e-03
1.591083244419e-03
1.601632423179e-03
1.742257264916e-03
1.617238784542e-03
1.479265077313e-03
1.498543958285e-03
1.636626923157e-03
1.520999097849e-03
1.384955841076e-03
1.410739939873e-03
1.548501305378e-03
1.440124964737e-03
1.303897036567e-03
1.335906090695e-03
1.473850500974e-03
1.371515375464e-03
1.510668611954e-03
1.234238924778e-03
1.272875217285e-03
1.135912192857e-03
1.177852849400e-03
2.488600837381e-03
1.041738720989e-03
1.001196755674e-03
1.086646670432e-03
1.222948471372e-03
9.517979390729e-04
1.000794512404e-03
8.693402974769e-04
1.799122324836e-03
3.300313536869e-03
9.234141920899e-04
7.995992956694e-04
7.430468137407e-04
6.795486749443e-04
4.249844976117e-03
4.351670462119e-03
4.405259549652e-03
4.511212619846e-03
4.550986076647e-03
7.405532908177e-04
3.975353723482e-03
4.461855569833e-03
2.914875490039e-03
2.324398161330e-03
2.005236730097e-03
1.052204554166e-03
9.805783837451e-04
1.104239518478e-03
1.614548134983e-03
1.651443262815e-03
1.756992410741e-03
1.793486569896e-03
1.900808252026e-03
1.936239895359e-03
1.830676682283e-03
1.971288197911e-03
1.867113953771e-03
2.045567160992e-03
2.012222435126e-03
2.005141140179e-03
1.902598463524e-03
2.038275988589e-03
1.938557281835e-03
1.803908984947e-03
1.842688664633e-03
1.709737119233e-03
2.009780528666e-03
2.152264897145e-03
2.155939959558e-03
2.299843658652e-03
2.303965680340e-03
2.448959991866e-03
2.453265488728e-03
2.312905579401e-03
3.720417548602e-03
1.583059999417e-03
1.551070608421e-03
1.420877991571e-03
1.373988627996e-03
1.248682615280e-03
1.200209719094e-03
1.075479360907e-03
1.130825031211e-03
9.592098957958e-04
1.018890519660e-03
8.501622608233e-04
9.103511165566e-04
2.809743175181e-03
2.449251742026e-03
2.600071672655e-03
2.603133413214e-03
6.211220939960e-04
1.976849290917e-03
2.159383346864e-03
2.127171221382e-03
2.463800418694e-03
6.237901039455e-04
1.029656940696e-03
1.165090955087e-03
4.664876178721e-03
4.691283226157e-03
2.277316599288e-03
6.869354778107e-04
2.111751040314e-03
7.894962175353e-04
1.883418401922e-03
2.015790681650e-03
1.728973738727e-03
2.756001534626e-03
2.760306259616e-03
1.060179852425e-03
9.474624490681e-04
8.048922226518e-04
8.329725848167e-04
9.671454539090e-04
8.606730779718e-04
7.330974468501e-04
7.495214860007e-04
8.785269565256e-04
7.727655151897e-04
6.423705354515e-04
6.711820428059e-04
2.109886569999e-03
6.769908760752e-04
3.365690532708e-03
2.306583445665e-03
2.603043956057e-03
4.815647497430e-03
4.828737283256e-03
4.706187175287e-03
4.830541489172e-03
4.964530794770e-03
4.954523871160e-03
4.821478079017e-03
4.935220129263e-03
4.801709385090e-03
4.906974503178e-03
5.049669159172e-03
5.013207376057e-03
4.870065984417e-03
4.970061697684e-03
4.825748204608e-03
4.920340264632e-03
5.070772985105e-03
5.726296109818e-04
2.325304543321e-03
2.477638369108e-03
1.044035934410e-03
1.156778066834e-03
1.231318188189e-03
1.281970450876e-03
5.015090333753e-03
5.171061284291e-03
9.992314598902e-04
1.145621706402e-03
4.791643139653e-03
1.924767535531e-03
1.793930562105e-03
2.146538021792e-03
2.168454812934e-03
1.987088603308e-03
2.020227341333e-03
2.211456747333e-03
1.832962213958e-03
1.978846438899e-03
5.163062379801e-03
6.904861666281e-04
5.670516570483e-04
2.055996772367e-03
2.175958285501e-03
2.971236040172e-03
2.982058124859e-03
3.142268925894e-03
3.124483692474e-03
3.286214478752e-03
3.263378633298e-03
3.102088490552e-03
2.915983482909e-03
3.242957496699e-03
4.863191761225e-03
2.451765906253e-03
9.048895757986e-04
5.102819259226e-04
5.416501838502e-04
6.423144511656e-04
7.559232343451e-04
2.426791098813e-03
3.426341149949e-03
3.444955459140e-03
2.088263200030e-03
2.276108579921e-03
2.909643072799e-03
4.453651917526e-03
4.698663174687e-03
4.676630045938e-03
5.213886973880e-04
5.213511719803e-04
5.098003902870e-03
1.308182983792e-03
1.302224399163e-03
5.872039871953e-04
4.513384420581e-04
5.109392782039e-03
5.266895955956e-03
1.361114579958e-03
1.404754604146e-03
2.401452123527e-03
5.711957204454e-04
5.329243544336e-03
2.193679603921e-03
2.045050495152e-03
1.221137201743e-03
9.973348640702e-04
8.418361214705e-04
1.010084681225e-03
7.031080848507e-04
7.083420920010e-04
2.552932961465e-03
5.109639551291e-03
3.080048508672e-03
2.935455793851e-03
3.225623309192e-03
4.410750619364e-04
2.455498294292e-03
1.966516969846e-03
3.581857883630e-03
3.606373114897e-03
1.460464892651e-03
1.469086566007e-03
1.329633247198e-03
1.513219355729e-03
3.638638577843e-03
1.624391476049e-03
3.176135724580e-03
3.243125451741e-03
3.051769404501e-03
2.398028103210e-03
2.465940468605e-03
1.507357612219e-03
2.151588431379e-03
1.315933356272e-03
1.670285047970e-03
1.722199203285e-03
5.200268928644e-03
5.320324165931e-03
4.732266812099e-03
4.685505427682e-03
5.031411663989e-04
4.500152053409e-04
1.549878279805e-03
2.334189862726e-03
4.953421296018e-03
4.930466314116e-03
4.757829768892e-03
2.528309384317e-03
1.450250873137e-03
2.017368145871e-03
5.627271631737e-04
2.652457668190e-03
3.857524960905e-04
3.480681687497e-03
2.096901033143e-03
2.187088397977e-03
3.068067948713e-03
3.611641238615e-03
2.631971343149e-03
2.469422214955e-03
3.146371973022e-03
2.967110889530e-03
2.862934785675e-03
2.778109888967e-03
1.037515861521e-03
9.354856127414e-04
3.581655338795e-03
3.387884061567e-03
3.750931293575e-03
3.779817255814e-03
3.063747854123e-03
2.910229908220e-03
8.215775722355e-04
2.369818889966e-03
5.252163087945e-03
3.325199890907e-03
2.477050307150e-03
2.364589201876e-03
3.016906222200e-04
4.287475274375e-04
5.428606456069e-03
1.362454335067e-03
1.557018370507e-03
1.174552682292e-03
2.334550006677e-03
4.433844782775e-03
2.228686322205e-03
2.587498585140e-03
5.493726695160e-03
2.613362158499e-03
1.969777057246e-03
2.373588921197e-03
5.351352805304e-03
5.529442652877e-03
4.586376851842e-03
4.551136627373e-03
4.595435507745e-03
7.255646908122e-04
4.892108982230e-04
5.275391385228e-03
9.211490726483e-04
1.001378013759e-03
6.078179984847e-04
7.380080009421e-04
1.448143843014e-03
1.404819750186e-03
3.454157813523e-03
3.628868333324e-03
3.127750662010e-03
2.066693193952e-03
1.920080534747e-03
1.899821721069e-03
5.356728753550e-03
5.494657955869e-03
1.143114543793e-03
1.119365815480e-03
1.066965068850e-03
5.266199642169e-03
2.320322762611e-03
2.278978691917e-03
3.261736672079e-04
3.979282263409e-04
8.149820495858e-04
6.365155737485e-04
4.895140310606e-03
4.711763897921e-03
5.082952719903e-03
7.637182151404e-04
2.921485571986e-03
2.680258012735e-03
2.664741765692e-03
2.728883841211e-03
3.071526788779e-03
3.211591523327e-03
3.367831761924e-03
1.836220059546e-04
5.483875050349e-03
4.592536407396e-03
5.496250961665e-05
4.543631422048e-03
4.630418656400e-03
4.477251272820e-03
6.392573577653e-04
4.479827540966e-03
4.495642197611e-03
2.376768201134e-04
5.421340933568e-03
2.685731431665e-04
3.282620071083e-04
2.512610285416e-03
2.394559149087e-03
2.534814812146e-03
2.417333582947e-03
2.280633723855e-03
2.314093757097e-03
4.507188838165e-03
2.474273282675e-03
2.349716857817e-03
2.515152270207e-03
2.943809355476e-03
1.697410047491e-03
1.756690051886e-03
1.614878010728e-03
3.940555726474e-03
3.940995553435e-03
2.011263788955e-03
1.878454484513e-03
4.562127919505e-03
4.560845487315e-03
4.691401280989e-03
4.680252741702e-03
4.813679661646e-03
4.798179715757e-03
4.936071127149e-03
3.548185735599e-03
1.158104233744e-03
3.308189405263e-03
3.058594706922e-03
2.900349930332e-03
2.575398274838e-03
2.521519684657e-03
2.624769005705e-03
1.626663024967e-03
5.430528153511e-03
-4.929340358018e-05
1.796252628215e-04
1.791092790623e-03
2.667799004485e-03
1.888046488258e-03
1.974108268661e-03
2.218526473636e-03
3.510725309439e-04
9.949031345750e-04
4.944284858057e-03
7.433689606749e-04
1.930188907026e-03
1.647889192358e-03
2.534321527798e-03
1.159842402641e-03
1.650123808015e-03
3.560556224003e-03
3.732519509325e-03
3.507618596293e-03
1.686797347746e-03
2.178409589000e-03
2.071615067037e-03
3.107725092289e-03
4.583079312886e-03
4.529885848789e-03
4.649459201503e-03
4.466740330251e-03
4.344613515815e-03
4.279710643610e-03
4.415185915594e-03
4.200072245012e-03
4.351540068401e-03
4.152027162452e-03
4.017262740330e-03
3.976517739927e-03
4.101549416609e-03
3.831067389799e-03
3.204260161015e-03
1.961465999825e-03
3.333812726262e-04
3.355159903670e-04
2.719753273105e-03
4.546234450162e-03
4.830878417544e-03
1.334361179050e-03
4.024099191973e-03
3.438663094963e-03
9.057390322341e-04
3.830577863354e-03
4.406174707207e-03
4.227254960731e-03
4.291680790995e-03
5.116898686845e-03
4.595751791728e-03
3.485706447504e-03
2.300155852891e-03
2.301838432107e-03
2.157837767103e-03
4.088150767605e-03
3.139440111332e-03
2.972868986149e-03
2.908324775573e-03
2.795857672368e-03
3.007046286962e-03
4.348495921431e-03
4.243592288183e-03
9.885179691059e-04
1.099422827899e-03
1.230563011549e-03
1.215342959940e-03
1.084838682443e-03
1.201092399586e-03
1.332834765769e-03
1.176769984657e-03
3.793346840303e-03
2.893920603731e-03
1.866398244030e-03
1.832706748408e-03
1.689340973214e-03
1.268993731109e-03
1.359570743071e-03
1.496288050884e-03
1.182400399280e-03
2.961179291997e-03
2.839123485804e-03
2.028917559948e-03
1.315316026753e-03
4.309499079719e-03
4.312829543713e-03
4.178209881849e-03
4.307507764408e-03
4.389321187387e-03
1.490715972203e-03
1.531958706537e-03
1.454802910950e-03
1.575625902455e-03
1.507253420947e-03
1.404413881808e-03
1.622142331657e-03
1.552215296371e-03
4.378641409234e-03
-8.038524725106e-05
1.832148782468e-04
1.905662615464e-04
4.007998964718e-04
4.124806844037e-04
5.894963181331e-04
5.878096633023e-04
1.669403838809e-04
-1.903541384914e-05
2.011898620947e-04
1.547177884883e-05
1.940647940083e-04
3.877329193705e-04
5.210797816891e-04
2.465397889443e-03
1.241460110829e-03
1.182115789898e-03
1.079350984685e-03
1.119376241278e-03
1.281336008279e-03
1.033137420506e-03
9.864494071025e-04
3.137753944766e-04
3.094917586054e-04
3.053925541577e-04
4.018445557107e-04
4.077361134004e-04
3.033409646317e-04
3.075147991935e-04
3.106484213308e-04
3.091705426795e-04
4.047753484276e-04
2.858890907503e-04
5.147598638284e-03
5.233317410925e-03
2.736852504347e-03
4.422294050416e-03
8.491284034155e-05
5.683282569488e-03
5.624366363212e-03
5.667524516225e-03
2.199977521218e-03
2.280895669621e-03
5.714340436675e-03
8.191218168173e-04
4.559956784787e-03
5.385867318535e-03
8.614681375924e-04
8.358032288362e-04
1.835396861061e-03
1.766714188346e-03
2.147754970372e-03
1.750910914022e-03
2.073182399924e-03
2.830548470617e-03
5.957399334681e-04
4.771352149296e-03
4.774820970337e-03
5.119846718080e-03
8.592931390039e-04
1.342816065192e-03
5.627555120427e-04
3.758856936374e-03
2.984178595360e-03
1.579935504000e-03
1.134328279928e-03
9.068892225704e-04
8.033257439168e-04
2.131788542297e-03
1.411001610540e-03
2.078945128674e-03
5.225857967786e-03
1.466245502683e-04
2.190324790514e-03
1.690047049473e-03
4.708348284332e-03
2.599570128174e-03
6.224530006152e-04
5.077420009555e-03
5.098638642529e-03
4.486543766413e-03
4.464829938934e-04
4.638713659213e-03
2.574076043166e-03
4.628814130424e-03
8.033272709526e-04
1.873097139571e-03
2.503451270746e-03
3.712565007157e-03
5.434306555465e-03
2.326860598580e-03
2.618642837831e-03
2.163929147662e-03
8.715972982862e-04
2.252354191519e-03
2.008274495985e-03
5.227904787302e-03
3.300129168849e-03
1.588017391059e-03
4.964723592999e-03
1.660263038933e-03
2.753083431597e-03
2.787695562165e-03
2.962437418642e-03
3.540208595558e-03
2.646036608295e-03
1.747282578786e-03
2.221696790904e-03
7.473711140768e-04
1.805489133257e-03
4.582216948813e-03
3.395862660949e-03
5.386736648558e-03
2.353703454656e-03
2.142714721925e-03
5.111425205140e-03
1.452773441137e-03
6.701039525052e-04
6.867394118583e-04
1.296373550462e-03
2.169896383913e-03
1.590924872307e-03
4.843999168736e-03
2.174495336675e-03
2.247509638633e-03
2.928181477872e-04
3.466347888112e-03
2.207931019639e-03
1.884557930912e-03
2.750686032344e-03
1.447362544783e-03
3.663837148233e-03
2.736426156112e-03
2.246569067863e-03
2.348055449828e-03
1.476209908851e-03
4.435449863567e-03
2.403527241089e-03
2.503269979701e-03
2.817882917824e-03
1.757431402802e-03
3.362633991046e-03
1.631484086451e-03
3.124607099596e-03
5.247238805456e-03
2.628622706568e-03
4.117353106093e-03
1.538000026485e-03
2.605684523883e-03
4.082266642036e-04
3.137211008913e-03
1.578818898260e-03
1.323011518238e-03
1.777107931342e-03
3.218239402801e-03
1.620431030229e-03
1.457200559668e-03
1.662555215811e-03
2.937795529340e-03
4.046808797683e-03
1.703289031196e-03
3.285775651018e-03
3.884701733529e-04
2.795323323151e-03
2.144659175274e-03
1.099184117758e-03
1.802107521991e-03
4.160894511832e-03
2.497596186011e-03
1.946958870151e-03
3.458546081640e-03
2.773974094904e-03
2.311634924243e-03
2.095813924313e-03
2.310134188031e-03
7.743907974400e-04
6.461995661721e-04
1.464912494709e-03
3.624149629414e-03
5.119242782058e-04
3.903527593225e-03
4.769530288968e-04
1.345351470380e-03
2.920377465290e-03
4.846828216204e-03
1.363085729331e-03
7.982737604420e-04
1.251360505595e-03
2.454747525674e-03
1.276239724092e-03
1.170185998727e-03
5.543812012694e-03
1.200419059772e-03
5.745779820689e-03
2.432480260160e-03
4.548809467753e-03
2.081306533196e-03
-1.006317573694e-04
1.851931276019e-03
9.666862026988e-04
3.655276225192e-03
4.554955668969e-03
8.686679906003e-04
4.273374677023e-03
3.653448808570e-03
5.070744388063e-03
2.749533152553e-03
2.765778109774e-03
5.451812135117e-03
4.416226115923e-03
2.005704170863e-04
1.802104599229e-03
1.614676416699e-03
1.373027642682e-03
9.439902147741e-04
9.332407095476e-04
3.854153520145e-04
1.184063345184e-03
3.024313623671e-03
4.487076004386e-03
3.072721981405e-03
7.198596704552e-04
5.258570558717e-03
3.390686692416e-03
2.656930529314e-03
3.220528958850e-03
5.473781159234e-04
4.391587301107e-03
3.852158457814e-03
5.184613157313e-03
2.599390262398e-03
4.417854713225e-03
5.600037418219e-03
6.591011543386e-04
5.617964317690e-03
3.800588916873e-03
4.720835883002e-03
4.173679207536e-03
2.360271340352e-03
4.498107647524e-03
3.643281369062e-04
5.053411595543e-03
1.106001257798e-03
1.110071802347e-04
2.603341441922e-03
3.948948946337e-03
2.393216673993e-03
3.953880155223e-04
2.109539689180e-04
2.715584075228e-03
4.088624305659e-03
7.036286788868e-04
5.539837834233e-03
1.487298079190e-04
4.393999698554e-03
2.641775731798e-04
2.547126211083e-03
5.492090589793e-03
1.224870542823e-03
4.096569851155e-03
8.777491111353e-04
3.512928873971e-03
3.232325833892e-04
5.566287984015e-03
2.824095147584e-03
5.001682596710e-03
3.346384319593e-03
9.313661747112e-05
3.515985966848e-03
2.767478871931e-03
4.419315816749e-03
4.741626520856e-03
1.028719221649e-03
4.784899029540e-04
5.772361311404e-03
3.297281112392e-04
4.414298895438e-03
2.450352363965e-03
4.897613770841e-04
4.657818757563e-03
4.199341081555e-03
1.476979664052e-03
5.358246965028e-03
5.175525499389e-04
-1.474351263004e-04
4.927114241266e-03
3.334831387444e-03
5.223955882404e-03
4.806758676297e-03
5.121186073686e-04
4.060680188183e-03
1.311310371048e-03
3.713979210675e-03
2.887735292554e-03
-3.291370062323e-05
1.574129238416e-03
2.319358716953e-04
2.539776584162e-03
1.365571014563e-03

SCALARS node_materi_strain_total_size_dev_sd_ept float
LOOKUP_TABLE default
1.667284609694e-03
1.267797049788e-02
6.032800150428e-03
1.441482081050e-02
1.657962453857e-03
1.499071697225e-03
1.111187190347e-03
8.146127688063e-04
9.467558610210e-04
1.481022376884e-03
2.079721538226e-03
2.561949149421e-03
2.960345958183e-03
3.332053997018e-03
3.679558301636e-03
3.989070457035e-03
4.263089699520e-03
4.560387827786e-03
4.853972652335e-03
5.078215986760e-03
5.258310953733e-03
5.480893318301e-03
5.794788913001e-03
1.440203176736e-02
1.439172427069e-02
1.439490600847e-02
1.438622431054e-02
1.438611322685e-02
1.437905864743e-02
1.436577269737e-02
1.433815554029e-02
1.431306316793e-02
1.424642886289e-02
1.425247354336e-02
1.420026892518e-02
1.413167538466e-02
1.403607688362e-02
1.395332711120e-02
1.377473441172e-02
1.349667168101e-02
1.320239007613e-02
1.286543669477e-02
1.251392808909e-02
1.213589554788e-02
1.175474634389e-02
1.138805352376e-02
1.101601853907e-02
1.068865452219e-02
1.035170264437e-02
9.994902757413e-03
9.651207150974e-03
9.311931056748e-03
8.997216159310e-03
8.669422757264e-03
8.331369406694e-03
8.035884775236e-03
7.814461174349e-03
7.589201412216e-03
7.383846008085e-03
7.211059696490e-03
7.037914364622e-03
6.888005789342e-03
6.742557469847e-03
6.638250184807e-03
6.570222668810e-03
6.486161288534e-03
6.311280108908e-03
6.309154102854e-03
6.211954782785e-03
6.157756214865e-03
6.113100151503e-03
6.075004863050e-03
1.284800951595e-02
1.316097551829e-02
1.344151714500e-02
1.368750053980e-02
1.390450807382e-02
1.408447978108e-02
1.422454453697e-02
1.432292650384e-02
1.440056897586e-02
1.354666107276e-03
1.409960105099e-02
2.508084254369e-03
3.806135677482e-03
4.812172235006e-03
5.624337052329e-03
6.421820788086e-03
7.621434693413e-03
9.201001044481e-03
1.107063179028e-02
1.325515633797e-02
1.267595139963e-02
1.265423921462e-02
1.266016251139e-02
1.266483768049e-02
1.270923193096e-02
1.268318704511e-02
1.267606404587e-02
1.268221131859e-02
1.271045588292e-02
1.272774685096e-02
1.274738958462e-02
1.282404252906e-02
1.301523739374e-02
1.371081638922e-02
1.402164125486e-03
1.611700535022e-03
1.760800931598e-03
1.763556644476e-03
1.634945328525e-03
1.487220303441e-03
1.270095515531e-03
9.821461959674e-04
6.584221046964e-04
3.755942587533e-04
2.047771977069e-04
1.936175398983e-04
4.778329378401e-04
1.156863874450e-03
1.707051186134e-03
1.577019196586e-03
1.648979928459e-03
1.861575745504e-03
1.823482865623e-03
1.852300892346e-03
3.206298798645e-03
4.341369790539e-03
5.202456360889e-03
6.112585875717e-03
7.030106006260e-03
8.353293809663e-03
1.009935981474e-02
1.210710951489e-02
1.446809654526e-02
3.107176609436e-03
7.531417038675e-03
5.717674751513e-04
1.315499440426e-03
6.646288309695e-03
5.176166959241e-03
3.512180394234e-03
8.683099435721e-03
7.243920711946e-03
1.017592876983e-02
1.047221676436e-02
6.281869783240e-03
5.219936192598e-04
1.165732265447e-02
1.366954872869e-02
1.817027924187e-03
4.353882147328e-03
1.286640072724e-02
1.412292962109e-02
1.443176291440e-02
1.446797823275e-02
1.439976410555e-02
1.350075671490e-02
1.296936104577e-02
1.290839846857e-02
1.380671857710e-02
6.053640750189e-03
1.294317445142e-03
1.604331912691e-03
5.120679851265e-03
1.281164335561e-02
9.135510168396e-04
1.366947362641e-02
9.493544160460e-03
1.089443136179e-02
8.041567772142e-03
7.129387607591e-03
1.092791072246e-03
1.306962714954e-02
6.314263171638e-03
1.416194017946e-02
3.219598110066e-04
2.760971535612e-03
1.441823814871e-02
6.121941428686e-03
4.152775056857e-03
8.686560721838e-03
1.236761959703e-02
1.957562771903e-03
1.332982384058e-02
6.007652415591e-03
1.844255589383e-03
1.435642779645e-02
1.340800636832e-02
1.291962517759e-02
1.342223840710e-02
1.302797611498e-02
1.346331439784e-02
1.312778036361e-02
1.261960380832e-02
1.277463931393e-02
1.222741294906e-02
1.355044744810e-02
1.243265835287e-02
1.187761705356e-02
1.212187867101e-02
1.156608351886e-02
1.129483374768e-02
1.098465828051e-02
1.069662809003e-02
1.037663342651e-02
1.070738129189e-02
1.007954477979e-02
9.733729020287e-03
9.416484112210e-03
9.056204153642e-03
8.706257562668e-03
8.329064438581e-03
7.920300128275e-03
8.292105188703e-03
7.446376795855e-03
7.103920474588e-03
6.602889975551e-03
6.309766000200e-03
5.784690590693e-03
5.764766343482e-03
4.992624954552e-03
4.991752611201e-03
4.279110694944e-03
4.236075820235e-03
3.653067000739e-03
3.539076907926e-03
3.134253286190e-03
3.596765061361e-03
3.258898503684e-03
2.738911211959e-03
3.001794006034e-03
3.239793943621e-03
2.983580795458e-03
3.002415479153e-03
2.735097033171e-03
2.779862092716e-03
2.519287953393e-03
2.509505452880e-03
2.286786073610e-03
2.345203893202e-03
2.109549184543e-03
2.150346744769e-03
1.968023757778e-03
1.964379180138e-03
1.819902112182e-03
1.924014035855e-03
1.772310006050e-03
1.687219393404e-03
1.646243330377e-03
1.821830675387e-03
1.710596430339e-03
1.965965059211e-03
1.539787083316e-03
1.641099660838e-03
1.466766680516e-03
1.629735632296e-03
5.156942199642e-03
1.453554838439e-03
1.334097399478e-03
1.678642832367e-03
1.899141879271e-03
1.490663767974e-03
1.745698755963e-03
1.522116456040e-03
4.076277551665e-03
1.045005302508e-02
1.759004585226e-03
1.481504029297e-03
1.311269304134e-03
1.220819403203e-03
1.378670437540e-02
1.387685739916e-02
1.404198522108e-02
1.414159393955e-02
1.423623863536e-02
1.362877662943e-03
1.264175903065e-02
1.397278644689e-02
9.408099740984e-03
6.749550683163e-03
3.327488693550e-03
2.054952028839e-03
2.030024822616e-03
2.384213357130e-03
2.104516219435e-03
2.316989619138e-03
2.494278678470e-03
2.757688696633e-03
2.976734954921e-03
3.269524246599e-03
3.065071143665e-03
3.579441899596e-03
3.389276687586e-03
3.529423003588e-03
3.247697225334e-03
3.883308302444e-03
3.703992744051e-03
4.166499364953e-03
3.993297856281e-03
3.585589321870e-03
3.880992524018e-03
3.540597946661e-03
3.121344389459e-03
3.520299566331e-03
3.408749395440e-03
3.877955651789e-03
3.846706496828e-03
4.379128099023e-03
4.405047885060e-03
3.882453365358e-03
1.185046399305e-02
2.469891639751e-03
2.394432143955e-03
1.998592420203e-03
2.263392076007e-03
1.799310510292e-03
2.138670833034e-03
1.695997374149e-03
1.453324934816e-03
1.331925118334e-03
1.265649428991e-03
1.075226736222e-03
1.238904877496e-03
7.433028085754e-03
4.414757706509e-03
4.981670145343e-03
5.013419959657e-03
1.100144801704e-03
4.261650924368e-03
3.840797676356e-03
3.567265914415e-03
4.491468543457e-03
1.063163559712e-03
1.989857235170e-03
2.455492931710e-03
1.433485656258e-02
1.437368295846e-02
4.202624039327e-03
1.192570620853e-03
4.121267620366e-03
1.271295103878e-03
4.158737739961e-03
4.505391405403e-03
2.922139054248e-03
5.636631328784e-03
5.662520322065e-03
1.708192788592e-03
1.774479611305e-03
1.277736534273e-03
1.796531318388e-03
2.263859272875e-03
2.124595783205e-03
1.762705328104e-03
1.870285173495e-03
2.023102117428e-03
1.707058424860e-03
1.537116350331e-03
1.365836105836e-03
4.666908881126e-03
1.027545586017e-03
1.105483400650e-02
4.476068756518e-03
5.057249244808e-03
1.447183730860e-02
1.446968911014e-02
1.432469423743e-02
1.439847591999e-02
1.452780685554e-02
1.444758376672e-02
1.427116948392e-02
1.432504137288e-02
1.410443453279e-02
1.417196591391e-02
1.436320759795e-02
1.422339069135e-02
1.400008290270e-02
1.406988851607e-02
1.382183065389e-02
1.390927159392e-02
1.412697911890e-02
8.743864094226e-04
3.979312825571e-03
4.642602342523e-03
2.323178070203e-03
2.721810915617e-03
2.735879573658e-03
3.109544231355e-03
1.398512363705e-02
1.417496975359e-02
2.195805922668e-03
2.695329026749e-03
1.440801414102e-02
4.413737943594e-03
4.143370673270e-03
5.985379333875e-03
6.428583741143e-03
5.684048708047e-03
6.080752232354e-03
6.845455522652e-03
5.334116504519e-03
2.998612565297e-03
1.438367979801e-02
1.165568445085e-03
1.006034143461e-03
4.719184543553e-03
3.418658534584e-03
8.272017626782e-03
7.308727611766e-03
8.061027501880e-03
7.521842765605e-03
8.221903878185e-03
7.983745905261e-03
7.272799552840e-03
6.329959872068e-03
7.856045552784e-03
1.374691209817e-02
4.517283928663e-03
1.744971813356e-03
7.842360394427e-04
1.232292447586e-03
9.454463732595e-04
1.353616953422e-03
4.877067970382e-03
8.688831998687e-03
8.911461734906e-03
6.509791549682e-03
7.206454129245e-03
6.344279922021e-03
1.409776678928e-02
1.402210065335e-02
1.380879002824e-02
6.513093769548e-04
1.275211409999e-03
1.455568815731e-02
2.986708050341e-03
3.270267276209e-03
1.167146540433e-03
9.594312972901e-04
1.405254534331e-02
1.421486108867e-02
3.062829093348e-03
3.419217429425e-03
4.622990325718e-03
1.113771570726e-03
1.431088624361e-02
3.529746497625e-03
3.017029484420e-03
3.029702673699e-03
2.396445515954e-03
1.950960621694e-03
2.006963152539e-03
1.197331704433e-03
1.039061344383e-03
5.336900282991e-03
1.459527794469e-02
7.117360741118e-03
6.559813359605e-03
7.753315521760e-03
9.779184956438e-04
5.143229390626e-03
4.646695751864e-03
9.385603102820e-03
9.593553446062e-03
3.578429288468e-03
3.905127331951e-03
3.577044572454e-03
4.278907403504e-03
1.203901359824e-02
4.234019229667e-03
1.043437731830e-02
1.084608217138e-02
1.016524703494e-02
7.590052856995e-03
7.937959417596e-03
2.810727251352e-03
3.716544998837e-03
2.647782033397e-03
3.205189748876e-03
2.291703791219e-03
1.448694272390e-02
1.447975048231e-02
1.371760399939e-02
1.352071010902e-02
8.813881794819e-04
8.258693434522e-04
2.196341190513e-03
4.747663490903e-03
1.452692994229e-02
1.445290583206e-02
1.429879635262e-02
5.092174141870e-03
2.321362306310e-03
3.003546850730e-03
8.948955992324e-04
5.827103077476e-03
6.638396753820e-04
1.106523262471e-02
4.942698571111e-03
5.080337663323e-03
7.057455738688e-03
1.257173688254e-02
5.504936976574e-03
4.911268930468e-03
1.061052169860e-02
9.891767571172e-03
9.461439038200e-03
9.151803136212e-03
1.717611127035e-03
1.488535617713e-03
9.357299664253e-03
8.502034799160e-03
1.005739645300e-02
1.027980741084e-02
7.083749847065e-03
6.380705223060e-03
1.501867539644e-03
7.583128177165e-03
1.460256270694e-02
1.130918662092e-02
5.389550515082e-03
5.018771898949e-03
8.898981406711e-04
8.624990672649e-04
1.433133545518e-02
3.940997294209e-03
4.651958052346e-03
3.279617519234e-03
5.622553770140e-03
1.279469408820e-02
5.289205683484e-03
8.349821431326e-03
1.440148257743e-02
5.270059872745e-03
5.241786526019e-03
4.377024283354e-03
1.424389334328e-02
1.435299040258e-02
1.368320784173e-02
1.343967512028e-02
1.390957457713e-02
1.444081038482e-03
1.333412165445e-03
1.439293174790e-02
1.922812866044e-03
2.244541401442e-03
1.045039842267e-03
1.131280064075e-03
2.945860855572e-03
2.533537917909e-03
1.043433899353e-02
1.105880765242e-02
9.053245911430e-03
3.135735218827e-03
2.675153335507e-03
2.626716221841e-03
1.453610780424e-02
1.450163337665e-02
1.913623445447e-03
2.211938447846e-03
1.514091948555e-03
1.461128217997e-02
5.476698662249e-03
5.276722324633e-03
6.408827062065e-04
8.006904384193e-04
2.270635640677e-03
1.878073994106e-03
1.434538715587e-02
1.415366516529e-02
1.446022686792e-02
1.124341395380e-03
6.420434651405e-03
5.836550129395e-03
5.609231682410e-03
6.172973663816e-03
7.026860762853e-03
7.761549840183e-03
8.466489794972e-03
9.679844212154e-04
1.430471325395e-02
1.336459469682e-02
1.076719118590e-03
1.315958294913e-02
1.332815812821e-02
1.295395552620e-02
7.835953053725e-04
1.346992504203e-02
1.378449276787e-02
6.168971230450e-04
1.456741087160e-02
4.669976055183e-04
4.955807546508e-04
5.634230360198e-03
5.256913873184e-03
5.822478032927e-03
5.453686910484e-03
4.921783967514e-03
5.156290389983e-03
1.319191385209e-02
5.752942298617e-03
5.385099471946e-03
5.940326038131e-03
9.712367112749e-03
5.012984930647e-03
5.413903490728e-03
5.200165869457e-03
1.084071876311e-02
1.092544409847e-02
4.895974850755e-03
4.667058053076e-03
1.312874259749e-02
1.308657339361e-02
1.337545588412e-02
1.331796336010e-02
1.358243986303e-02
1.351962092880e-02
1.376414399391e-02
9.271937190417e-03
3.867080330071e-03
1.126657488993e-02
7.135289902371e-03
6.422844497179e-03
8.363506522423e-03
8.052169450849e-03
5.921522783773e-03
3.830977855669e-03
1.445573486766e-02
1.313637798856e-03
1.270170702521e-03
4.507354147735e-03
8.720123671611e-03
5.754076313697e-03
6.243294738706e-03
3.708878093933e-03
8.283373035106e-04
2.731902133617e-03
1.382655496581e-02
2.819397810835e-03
4.911203920194e-03
3.419492048893e-03
7.967525350298e-03
2.950814659231e-03
4.609399103456e-03
1.164722717996e-02
1.248362323636e-02
1.193866716630e-02
2.918085456656e-03
6.896361005549e-03
6.514401955624e-03
1.006946443696e-02
1.406290023654e-02
1.386815512989e-02
1.397035176283e-02
1.367787812150e-02
1.353177881628e-02
1.332296680281e-02
1.347581094566e-02
1.311250881281e-02
1.298522369699e-02
1.252705020360e-02
1.265889673234e-02
1.207317873371e-02
1.182356027156e-02
1.216725585467e-02
7.868247171744e-03
4.788408357888e-03
1.080408901207e-03
1.518899449693e-03
8.711409842466e-03
1.323323545761e-02
1.398882950632e-02
2.649197013772e-03
1.126560748851e-02
1.147014147094e-02
1.600672830746e-03
1.053312058174e-02
1.375994099050e-02
1.338533726193e-02
1.364992552258e-02
1.427000476565e-02
1.410455566629e-02
9.152191963956e-03
3.985550287590e-03
4.171136569673e-03
3.937286825233e-03
1.286289485275e-02
7.781788018305e-03
6.936285004640e-03
6.716341804055e-03
6.068329764159e-03
7.308561588006e-03
1.246005872449e-02
1.208691220168e-02
2.276263186695e-03
2.437338510022e-03
2.358892732552e-03
2.521104062384e-03
2.282938330164e-03
2.265583155859e-03
2.594897218873e-03
1.681155106059e-03
1.078338266376e-02
6.956932797722e-03
2.723193060177e-03
2.523514736940e-03
2.160593031263e-03
2.245260986974e-03
2.158482946149e-03
2.474953732548e-03
2.346026550682e-03
6.815921399030e-03
6.800256821178e-03
2.971445497875e-03
1.854136741584e-03
1.319395287211e-02
1.368796901417e-02
1.373376500867e-02
1.391440209985e-02
1.361661745836e-02
3.333492382265e-03
3.674519834992e-03
3.695617761689e-03
3.961217754437e-03
3.898419930661e-03
3.611308486620e-03
4.189833870277e-03
4.041655773200e-03
1.301463731694e-02
1.210573826505e-03
9.343997762172e-04
9.335187238437e-04
1.015885100634e-03
8.896047075752e-04
1.202502585364e-03
1.006801599326e-03
9.332482808667e-04
9.413470521528e-04
8.927294136412e-04
7.615278263672e-04
8.447786381345e-04
1.012085126971e-03
9.459059043098e-04
5.930091775484e-03
3.137585887727e-03
2.937748051526e-03
2.556546141391e-03
2.703953809158e-03
3.266051956651e-03
2.344030169260e-03
2.147307325433e-03
1.789166710548e-03
1.629003752717e-03
1.603601423448e-03
1.230558584588e-03
1.181352216993e-03
1.537026088930e-03
1.354240313156e-03
1.551622233832e-03
8.981669192342e-04
6.757667077468e-04
1.178523738469e-03
1.400648434548e-02
1.410813699220e-02
6.517947646373e-03
1.296333811121e-02
4.103364777568e-04
1.442295528637e-02
1.445273878569e-02
1.444115597993e-02
5.340549038786e-03
5.472694888319e-03
1.440240589054e-02
1.323462554322e-03
1.381260110885e-02
1.439416866380e-02
1.782604748389e-03
1.269852357946e-03
4.418793069522e-03
3.262102221048e-03
4.869943766726e-03
3.847931104251e-03
4.427684817085e-03
6.441894680102e-03
7.330857373835e-04
1.391301901777e-02
1.364431662940e-02
1.426166592440e-02
1.682852011294e-03
3.401794447908e-03
9.591641971305e-04
1.014779088046e-02
9.779383580828e-03
1.971213879343e-03
1.988104128940e-03
1.307857872277e-03
1.449534549632e-03
5.542278121012e-03
1.879370986658e-03
3.826819282177e-03
1.429003813408e-02
2.944206551937e-04
4.126212992124e-03
2.595947535799e-03
1.419861412126e-02
4.993749847195e-03
1.507823473155e-03
1.447543081914e-02
1.453325815909e-02
1.399977804464e-02
7.103428488827e-04
1.358905881874e-02
5.592278251860e-03
1.422570744218e-02
1.549905632629e-03
2.785680123065e-03
7.544641109030e-03
1.332468709578e-02
1.445475319366e-02
4.547570786129e-03
5.198243299657e-03
3.377932916955e-03
1.763719811315e-03
4.683769532813e-03
3.555733396296e-03
1.456077151207e-02
8.778834720510e-03
2.816701000314e-03
1.455583164382e-02
2.110386593385e-03
5.653505813130e-03
9.086459104544e-03
9.083962193719e-03
1.129576422047e-02
6.584128143629e-03
4.452067433533e-03
4.412330099964e-03
9.648856178176e-04
4.953032421042e-03
1.422273118554e-02
8.564917097932e-03
1.457959554038e-02
7.199168342805e-03
4.395989366960e-03
1.458597829767e-02
2.140017176257e-03
8.231013151988e-04
1.631238077205e-03
1.760776699437e-03
4.025706898231e-03
2.498235526000e-03
1.417950764491e-02
4.649478500984e-03
3.941996023970e-03
2.510811755793e-03
1.201307141402e-02
4.886579264103e-03
2.661273278422e-03
5.688047884199e-03
3.750699038555e-03
9.760051460683e-03
8.878939899298e-03
5.094007502764e-03
4.154235805705e-03
3.214551685474e-03
1.279731315847e-02
5.626077590006e-03
4.864486171176e-03
6.551277502302e-03
2.378332395196e-03
1.139529940239e-02
2.848451852036e-03
9.792891807368e-03
1.435169264701e-02
5.377834466484e-03
1.325401832236e-02
2.855607775762e-03
5.104188226110e-03
1.084624761946e-03
1.051306808011e-02
3.234236971778e-03
2.266969591944e-03
2.341665695359e-03
7.810365386768e-03
3.583126022025e-03
2.688064942022e-03
3.900797778726e-03
9.542499996960e-03
1.294288471994e-02
4.200949046461e-03
9.762987268501e-03
5.220427851741e-04
6.134697828015e-03
5.166357568423e-03
1.427034013334e-03
2.392760790859e-03
1.311910434055e-02
7.887112514125e-03
2.802552351946e-03
9.470278628035e-03
5.900997581865e-03
4.388739008474e-03
3.325067541043e-03
7.298951015849e-03
1.182096390133e-03
1.066753107079e-03
2.616548880976e-03
1.015858854713e-02
8.688494083952e-04
1.238062328503e-02
9.412627688229e-04
2.480906179383e-03
6.349508795307e-03
1.358946913609e-02
2.201788233480e-03
1.229551340093e-03
2.068501703513e-03
4.688062262525e-03
1.831310223217e-03
1.683335485263e-03
1.443970687096e-02
1.555136438906e-03
1.440615134554e-02
5.874338166678e-03
1.303804677928e-02
6.665902939719e-03
1.323970806184e-03
5.876633352710e-03
1.343932029658e-03
1.163728445156e-02
1.305582980041e-02
1.225216694031e-03
1.230346415743e-02
9.838173571257e-03
1.393113089930e-02
5.789564440867e-03
5.750903253115e-03
1.427446579688e-02
1.281698423017e-02
7.214712083597e-04
4.668795096285e-03
5.681754173190e-03
4.475236097683e-03
3.309970686805e-03
1.963606960555e-03
1.031251166063e-03
4.647356297746e-03
7.118311526372e-03
1.331498831771e-02
7.037732789080e-03
3.624961237427e-03
1.455157394730e-02
8.595406387447e-03
6.344601066803e-03
7.736717147025e-03
2.356006358833e-03
1.392491205163e-02
1.051317006005e-02
1.410444751660e-02
6.236096477581e-03
1.342009099664e-02
1.439360694750e-02
9.746452543809e-04
1.436544039077e-02
1.160135663535e-02
1.348005366945e-02
1.369085553214e-02
5.650157519474e-03
1.348220412619e-02
1.870693675407e-03
1.395015715395e-02
2.620435317544e-03
9.997290514559e-04
5.952915790896e-03
1.131922096053e-02
5.656434589271e-03
1.310035073203e-03
4.651317291574e-04
6.230483094474e-03
1.145207113514e-02
1.287388750724e-03
1.441542563678e-02
1.546219489887e-03
1.281150180688e-02
4.361981886945e-04
6.131111859551e-03
1.453013786627e-02
3.075702369880e-03
1.373417770483e-02
1.635545826858e-03
9.090937005786e-03
8.827122272397e-04
1.446726578405e-02
6.514010966030e-03
1.433304811047e-02
8.604020686559e-03
1.128505573317e-03
9.150010487713e-03
6.043185954238e-03
1.279862143571e-02
1.395661854354e-02
2.356246285335e-03
6.484589824111e-04
1.440568091274e-02
1.692682243425e-03
1.276738748618e-02
5.930508866007e-03
8.689848239621e-04
1.326102729923e-02
1.187661295407e-02
3.848802656923e-03
1.421384543900e-02
1.206354593083e-03
1.395145334605e-03
1.372768488244e-02
8.404632792973e-03
1.450973777920e-02
1.361335025204e-02
1.611779617016e-03
1.141659177886e-02
3.334129020118e-03
9.919483108467e-03
6.464633205583e-03
1.529190513653e-03
4.111892438578e-03
3.701873011820e-04
5.923301239207e-03
3.513911707454e-03


CELL_DATA 1919

SCALARS element_number int
LOOKUP_TABLE default
407
408
409
410
411
412
413
414
415
416
417
418
419
420
421
422
423
424
425
426
427
428
429
430
431
432
433
434
435
436
437
438
439
440
441
442
443
444
445
446
447
448
449
450
451
452
453
454
455
456
457
458
459
460
461
462
463
464
465
466
467
468
469
470
471
472
473
474
475
476
477
478
479
480
481
482
483
484
485
486
487
488
489
490
491
492
493
494
495
496
497
498
499
500
501
502
503
504
505
506
507
508
509
510
511
512
513
514
515
516
517
518
519
520
521
522
523
524
525
526
527
528
529
530
531
532
533
534
535
536
537
538
539
540
541
542
543
544
545
546
547
548
549
550
551
552
553
554
555
556
557
558
559
560
561
562
563
564
565
566
567
568
569
570
571
572
573
574
575
576
577
578
579
580
581
582
583
584
585
586
587
588
589
590
591
592
593
594
595
596
597
598
599
600
601
602
603
604
605
606
607
608
609
610
611
612
613
614
615
616
617
618
619
620
621
622
623
624
625
626
627
628
629
630
631
632
633
634
635
636
637
638
639
640
641
642
643
644
645
646
647
648
649
650
651
652
653
654
655
656
657
658
659
660
661
662
663
664
665
666
667
668
669
670
671
672
673
674
675
676
677
678
679
680
681
682
683
684
685
686
687
688
689
690
691
692
693
694
695
696
697
698
699
700
701
702
703
704
705
706
707
708
709
710
711
712
713
714
715
716
717
718
719
720
721
722
723
724
725
726
727
728
729
730
731
732
733
734
735
736
737
738
739
740
741
742
743
744
745
746
747
748
749
750
751
752
753
754
755
756
757
758
759
760
761
762
763
764
765
766
767
768
769
770
771
772
773
774
775
776
777
778
779
780
781
782
783
784
785
786
787
788
789
790
791
792
793
794
795
796
797
798
799
800
801
802
803
804
805
806
807
808
809
810
811
812
813
814
815
816
817
818
819
820
821
822
823
824
825
826
827
828
829
830
831
832
833
834
835
836
837
838
839
840
841
842
843
844
845
846
847
848
849
850
851
852
853
854
855
856
857
858
859
860
861
862
863
864
865
866
867
868
869
870
871
872
873
874
875
876
877
878
879
880
881
882
883
884
885
886
887
888
889
890
891
892
893
894
895
896
897
898
899
900
901
902
903
904
905
906
907
908
909
910
911
912
913
914
915
916
917
918
919
920
921
922
923
924
925
926
927
928
929
930
931
932
933
934
935
936
937
938
939
940
941
942
943
944
945
946
947
948
949
950
951
952
953
954
955
956
957
958
959
960
961
962
963
964
965
966
967
968
969
970
971
972
973
974
975
976
977
978
979
980
981
982
983
984
985
986
987
988
989
990
991
992
993
994
995
996
997
998
999
1000
1001
1002
1003
1004
1005
1006
1007
1008
1009
1010
1011
1012
1013
1014
1015
1016
1017
1018
1019
1020
1021
1022
1023
1024
1025
1026
1027
1028
1029
1030
1031
1032
1033
1034
1035
1036
1037
1038
1039
1040
1041
1042
1043
1044
1045
1046
1047
1048
1049
1050
1051
1052
1053
1054
1055
1056
1057
1058
1059
1060
1061
1062
1063
1064
1065
1066
1067
1068
1069
1070
1071
1072
1073
1074
1075
1076
1077
1078
1079
1080
1081
1082
1083
1084
1085
1086
1087
1088
1089
1090
1091
1092
1093
1094
1095
1096
1097
1098
1099
1100
1101
1102
1103
1104
1105
1106
1107
1108
1109
1110
1111
1112
1113
1114
1115
1116
1117
1118
1119
1120
1121
1122
1123
1124
1125
1126
1127
1128
1129
1130
1131
1132
1133
1134
1135
1136
1137
1138
1139
1140
1141
1142
1143
1144
1145
1146
1147
1148
1149
1150
1151
1152
1153
1154
1155
1156
1157
1158
1159
1160
1161
1162
1163
1164
1165
1166
1167
1168
1169
1170
1171
1172
1173
1174
1175
1176
1177
1178
1179
1180
1181
1182
1183
1184
1185
1186
1187
1188
1189
1190
1191
1192
1193
1194
1195
1196
1197
1198
1199
1200
1201
1202
1203
1204
1205
1206
1207
1208
1209
1210
1211
1212
1213
1214
1215
1216
1217
1218
1219
1220
1221
1222
1223
1224
1225
1226
1227
1228
1229
1230
1231
1232
1233
1234
1235
1236
1237
1238
1239
1240
1241
1242
1243
1244
1245
1246
1247
1248
1249
1250
1251
1252
1253
1254
1255
1256
1257
1258
1259
1260
1261
1262
1263
1264
1265
1266
1267
1268
1269
1270
1271
1272
1273
1274
1275
1276
1277
1278
1279
1280
1281
1282
1283
1284
1285
1286
1287
1288
1289
1290
1291
1292
1293
1294
1295
1296
1297
1298
1299
1300
1301
1302
1303
1304
1305
1306
1307
1308
1309
1310
1311
1312
1313
1314
1315
1316
1317
1318
1319
1320
1321
1322
1323
1324
1325
1326
1327
1328
1329
1330
1331
1332
1333
1334
1335
1336
1337
1338
1339
1340
1341
1342
1343
1344
1345
1346
1347
1348
1349
1350
1351
1352
1353
1354
1355
1356
1357
1358
1359
1360
1361
1362
1363
1364
1365
1366
1367
1368
1369
1370
1371
1372
1373
1374
1375
1376
1377
1378
1379
1380
1381
1382
1383
1384
1385
1386
1387
1388
1389
1390
1391
1392
1393
1394
1395
1396
1397
1398
1399
1400
1401
1402
1403
1404
1405
1406
1407
1408
1409
1410
1411
1412
1413
1414
1415
1416
1417
1418
1419
1420
1421
1422
1423
1424
1425
1426
1427
1428
1429
1430
1431
1432
1433
1434
1435
1436
1437
1438
1439
1440
1441
1442
1443
1444
1445
1446
1447
1448
1449
1450
1451
1452
1453
1454
1455
1456
1457
1458
1459
1460
1461
1462
1463
1464
1465
1466
1467
1468
1469
1470
1471
1472
1473
1474
1475
1476
1477
1478
1479
1480
1481
1482
1483
1484
1485
1486
1487
1488
1489
1490
1491
1492
1493
1494
1495
1496
1497
1498
1499
1500
1501
1502
1503
1504
1505
1506
1507
1508
1509
1510
1511
1512
1513
1514
1515
1516
1517
1518
1519
1520
1521
1522
1523
1524
1525
1526
1527
1528
1529
1530
1531
1532
1533
1534
1535
1536
1537
1538
1539
1540
1541
1542
1543
1544
1545
1546
1547
1548
1549
1550
1551
1552
1553
1554
1555
1556
1557
1558
1559
1560
1561
1562
1563
1564
1565
1566
1567
1568
1569
1570
1571
1572
1573
1574
1575
1576
1577
1578
1579
1580
1581
1582
1583
1584
1585
1586
1587
1588
1589
1590
1591
1592
1593
1594
1595
1596
1597
1598
1599
1600
1601
1602
1603
1604
1605
1606
1607
1608
1609
1610
1611
1612
1613
1614
1615
1616
1617
1618
1619
1620
1621
1622
1623
1624
1625
1626
1627
1628
1629
1630
1631
1632
1633
1634
1635
1636
1637
1638
1639
1640
1641
1642
1643
1644
1645
1646
1647
1648
1649
1650
1651
1652
1653
1654
1655
1656
1657
1658
1659
1660
1661
1662
1663
1664
1665
1666
1667
1668
1669
1670
1671
1672
1673
1674
1675
1676
1677
1678
1679
1680
1681
1682
1683
1684
1685
1686
1687
1688
1689
1690
1691
1692
1693
1694
1695
1696
1697
1698
1699
1700
1701
1702
1703
1704
1705
1706
1707
1708
1709
1710
1711
1712
1713
1714
1715
1716
1717
1718
1719
1720
1721
1722
1723
1724
1725
1726
1727
1728
1729
1730
1731
1732
1733
1734
1735
1736
1737
1738
1739
1740
1741
1742
1743
1744
1745
1746
1747
1748
1749
1750
1751
1752
1753
1754
1755
1756
1757
1758
1759
1760
1761
1762
1763
1764
1765
1766
1767
1768
1769
1770
1771
1772
1773
1774
1775
1776
1777
1778
1779
1780
1781
1782
1783
1784
1785
1786
1787
1788
1789
1790
1791
1792
1793
1794
1795
1796
1797
1798
1799
1800
1801
1802
1803
1804
1805
1806
1807
1808
1809
1810
1811
1812
1813
1814
1815
1816
1817
1818
1819
1820
1821
1822
1823
1824
1825
1826
1827
1828
1829
1830
1831
1832
1833
1834
1835
1836
1837
1838
1839
1840
1841
1842
1843
1844
1845
1846
1847
1848
1849
1850
1851
1852
1853
1854
1855
1856
1857
1858
1859
1860
1861
1862
1863
1864
1865
1866
1867
1868
1869
1870
1871
1872
1873
1874
1875
1876
1877
1878
1879
1880
1881
1882
1883
1884
1885
1886
1887
1888
1889
1890
1891
1892
1893
1894
1895
1896
1897
1898
1899
1900
1901
1902
1903
1904
1905
1906
1907
1908
1909
1910
1911
1912
1913
1914
1915
1916
1917
1918
1919
1920
1921
1922
1923
1924
1925
1926
1927
1928
1929
1930
1931
1932
1933
1934
1935
1936
1937
1938
1939
1940
1941
1942
1943
1944
1945
1946
1947
1948
1949
1950
1951
1952
1953
1954
1955
1956
1957
1958
1959
1960
1961
1962
1963
1964
1965
1966
1967
1968
1969
1970
1971
1972
1973
1974
1975
1976
1977
1978
1979
1980
1981
1982
1983
1984
1985
1986
1987
1988
1989
1990
1991
1992
1993
1994
1995
1996
1997
1998
1999
2000
2001
2002
2003
2004
2005
2006
2007
2008
2009
2010
2011
2012
2013
2014
2015
2016
2017
2018
2019
2020
2021
2022
2023
2024
2025
2026
2027
2028
2029
2030
2031
2032
2033
2034
2035
2036
2037
2038
2039
2040
2041
2042
2043
2044
2045
2046
2047
2048
2049
2050
2051
2052
2053
2054
2055
2056
2057
2058
2059
2060
2061
2062
2063
2064
2065
2066
2067
2068
2069
2070
2071
2072
2073
2074
2075
2076
2077
2078
2079
2080
2081
2082
2083
2084
2085
2086
2087
2088
2089
2090
2091
2092
2093
2094
2095
2096
2097
2098
2099
2100
2101
2102
2103
2104
2105
2106
2107
2108
2109
2110
2111
2112
2113
2114
2115
2116
2117
2118
2119
2120
2121
2122
2123
2124
2125
2126
2127
2128
2129
2130
2131
2132
2133
2134
2135
2136
2137
2138
2139
2140
2141
2142
2143
2144
2145
2146
2147
2148
2149
2150
2151
2152
2153
2154
2155
2156
2157
2158
2159
2160
2161
2162
2163
2164
2165
2166
2167
2168
2169
2170
2171
2172
2173
2174
2175
2176
2177
2178
2179
2180
2181
2182
2183
2184
2185
2186
2187
2188
2189
2190
2191
2192
2193
2194
2195
2196
2197
2198
2199
2200
2201
2202
2203
2204
2205
2206
2207
2208
2209
2210
2211
2212
2213
2214
2215
2216
2217
2218
2219
2220
2221
2222
2223
2224
2225
2226
2227
2228
2229
2230
2231
2232
2233
2234
2235
2236
2237
2238
2239
2240
2241
2242
2243
2244
2245
2246
2247
2248
2249
2250
2251
2252
2253
2254
2255
2256
2257
2258
2259
2260
2261
2262
2263
2264
2265
2266
2267
2268
2269
2270
2271
2272
2273
2274
2275
2276
2277
2278
2279
2280
2281
2282
2283
2284
2285
2286
2287
2288
2289
2290
2291
2292
2293
2294
2295
2296
2297
2298
2299
2300
2301
2302
2303
2304
2305
2306
2307
2308
2309
2310
2311
2312
2313
2314
2315
2316
2317
2318
2319
2320
2321
2322
2323
2324
2325

SCALARS element_group int
LOOKUP_TABLE default
0
0
0
0
0
0
0
0
0
0
0
0
0
0
0
0
0
0
0
0
0
0
0
0
0
0
0
0
0
0
0
0
0
0
0
0
0
0
0
0
0
0
0
0
0
0
0
0
0
0
0
0
0
0
0
0
0
0
0
0
0
0
0
0
0
0
0
0
0
0
0
0
0
0
0
0
0
0
0
0
0
0
0
0
0
0
0
0
0
0
0
0
0
0
0
0
0
0
0
0
0
0
0
0
0
0
0
0
0
0
0
0
0
0
0
0
0
0
0
0
0
0
0
0
0
0
0
0
0
0
0
0
0
0
0
0
0
0
0
0
0
0
0
0
0
0
0
0
0
0
0
0
0
0
0
0
0
0
0
0
0
0
0
0
0
0
0
0
0
0
0
0
0
0
0
0
0
0
0
0
0
0
0
0
0
0
0
0
0
0
0
0
0
0
0
0
0
0
0
0
0
0
0
0
0
0
0
0
0
0
0
0
0
0
0
0
0
0
0
0
0
0
0
0
0
0
0
0
0
0
0
0
0
0
0
0
0
0
0
0
0
0
0
0
0
0
0
0
0
0
0
0
0
0
0
0
0
0
0
0
0
0
0
0
0
0
0
0
0
0
0
0
0
0
0
0
0
0
0
0
0
0
0
0
0
0
0
0
0
0
0
0
0
0
0
0
0
0
0
0
0
0
0
0
0
0
0
0
0
0
0
0
0
0
0
0
0
0
0
0
0
0
0
0
0
0
0
0
0
0
0
0
0
0
0
0
0
0
0
0
0
0
0
0
0
0
0
0
0
0
0
0
0
0
0
0
0
0
0
0
0
0
0
0
0
0
0
0
0
0
0
0
0
0
0
0
0
0
0
0
0
0
0
0
0
0
0
0
0
0
0
0
0
0
0
0
0
0
0
0
0
0
0
0
0
0
0
0
0
0
0
0
0
0
0
0
0
0
0
0
0
0
0
0
0
0
0
0
0
0
0
0
0
0
0
0
0
0
0
0
0
0
0
0
0
0
0
0
0
0
0
0
0
0
0
0
0
0
0
0
0
0
0
0
0
0
0
0
0
0
0
0
0
0
0
0
0
0
0
0
0
0
0
0
0
0
0
0
0
0
0
0
0
0
0
0
0
0
0
0
0
0
0
0
0
0
0
0
0
0
0
0
0
0
0
0
0
0
0
0
0
0
0
0
0
0
0
0
0
0
0
0
0
0
0
0
0
0
0
0
0
0
0
0
0
0
0
0
0
0
0
0
0
0
0
0
0
0
0
0
0
0
0
0
0
0
0
0
0
0
0
0
0
0
0
0
0
0
0
0
0
0
0
0
0
0
0
0
0
0
0
0
0
0
0
0
0
0
0
0
0
0
0
0
0
0
0
0
0
0
0
0
0
0
0
0
0
0
0
0
0
0
0
0
0
0
0
0
0
0
0
0
0
0
0
0
0
0
0
0
0
0
0
0
0
0
0
0
0
0
0
0
0
0
0
0
0
0
0
0
0
0
0
0
0
0
0
0
0
0
0
0
0
0
0
0
0
0
0
0
0
0
0
0
0
0
0
0
0
0
0
0
0
0
0
0
0
0
0
0
0
0
0
0
0
0
0
0
0
0
0
0
0
0
0
0
0
0
0
0
0
0
0
0
0
0
0
0
0
0
0
0
0
0
0
0
0
0
0
0
0
0
0
0
0
0
0
0
0
0
0
0
0
0
0
0
0
0
0
0
0
0
0
0
0
0
0
0
0
0
0
0
0
0
0
0
0
0
0
0
0
0
0
0
0
0
0
0
0
0
0
0
0
0
0
0
0
0
0
0
0
0
0
0
0
0
0
0
0
0
0
0
0
0
0
0
0
0
0
0
0
0
0
0
0
0
0
0
0
0
0
0
0
0
0
0
0
0
0
0
0
0
0
0
0
0
0
0
0
0
0
0
0
0
0
0
0
0
0
0
0
0
0
0
0
0
0
0
0
0
0
0
0
0
0
0
0
0
0
0
0
0
0
0
0
0
0
0
0
0
0
0
0
0
0
0
0
0
0
0
0
0
0
0
0
0
0
0
0
0
0
0
0
0
0
0
0
0
0
0
0
0
0
0
0
0
0
0
0
0
0
0
0
0
0
0
0
0
0
0
0
0
0
0
0
0
0
0
0
0
0
0
0
0
0
0
0
0
0
0
0
0
0
0
0
0
0
0
0
0
0
0
0
0
0
0
0
0
0
0
0
0
0
0
0
0
0
0
0
0
0
0
0
0
0
0
0
0
0
0
0
0
0
0
0
0
0
0
0
0
0
0
0
0
0
0
0
0
0
0
0
0
0
0
0
0
0
0
0
0
0
0
0
0
0
0
0
0
0
0
0
0
0
0
0
0
0
0
0
0
0
0
0
0
0
0
0
0
0
0
0
0
0
0
0
0
0
0
0
0
0
0
0
0
0
0
0
0
0
0
0
0
0
0
0
0
0
0
0
0
0
0
0
0
0
0
0
0
0
0
0
0
0
0
0
0
0
0
0
0
0
0
0
0
0
0
0
0
0
0
0
0
0
0
0
0
0
0
0
0
0
0
0
0
0
0
0
0
0
0
0
0
0
0
0
0
0
0
0
0
0
0
0
0
0
0
0
0
0
0
0
0
0
0
0
0
0
0
0
0
0
0
0
0
0
0
0
0
0
0
0
0
0
0
0
0
0
0
0
0
0
0
0
0
0
0
0
0
0
0
0
0
0
0
0
0
0
0
0
0
0
0
0
0
0
0
0
0
0
0
0
0
0
0
0
0
0
0
0
0
0
0
0
0
0
0
0
0
0
0
0
0
0
0
0
0
0
0
0
0
0
0
0
0
0
0
0
0
0
0
0
0
0
0
0
0
0
0
0
0
0
0
0
0
0
0
0
0
0
0
0
0
0
0
0
0
0
0
0
0
0
0
0
0
0
0
0
0
0
0
0
0
0
0
0
0
0
0
0
0
0
0
0
0
0
0
0
0
0
0
0
0
0
0
0
0
0
0
0
0
0
0
0
0
0
0
0
0
0
0
0
0
0
0
0
0
0
0
0
0
0
0
0
0
0
0
0
0
0
0
0
0
0
0
0
0
0
0
0
0
0
0
0
0
0
0
0
0
0
0
0
0
0
0
0
0
0
0
0
0
0
0
0
0
0
0
0
0
0
0
0
0
0
0
0
0
0
0
0
0
0
0
0
0
0
0
0
0
0
0
0
0
0
0
0
0
0
0
0
0
0
0
0
0
0
0
0
0
0
0
0
0
0
0
0
0
0
0
0
0
0
0
0
0
0
0
0
0
0
0
0
0
0
0
0
0
0
0
0
0
0
0
0
0
0
0
0
0
0
0
0
0
0
0
0
0
0
0
0
0
0
0
0
0
0
0
0
0
0
0
0
0
0
0
0
0
0
0
0
0
0
0
0
0
0
0
0
0
0
0
0
0
0
0
0
0
0
0
0
0
0
0
0
0
0
0
0
0
0
0
0
0
0
0
0
0
0
0
0
0
0
0
0
0
0
0
0
0
0
0
0
0
0
0
0
0
0
0
0
0
0
0
0
0
0
0
0
0
0
0
0
0
0
0
0
0
0
0
0
0
0
0
0
0
0
0
0
0
0
0
0
0
0
0
0
0
0
0
0
0
0
0
0
0
0
0
0
0
0
0
0
0
0
0
0
0
0
0
0
0
0
0
0
0
0
0
0
0
0
0
0
0
0
0
0
0
0
0
0
0
0
0
0
0
0
0
0
0
0
0
0
0
0
0
0
0
0
0
0
0
0
0
0
0
0
0
0
0
0
0
0
0
0
0
0
0
0
0
0
0
0
0
0
0
0
0
0
0
0
0
0
0
0
0
0
0
0
0
0
0
0
0
0
0
0
0
0
0
0
0
0
0
0
0
0
0
0
0
0
0
0
0
0
0
0
0
0
0
0
0
0
0
0
0
0
0
0
0
0
0
0
0
0
0
0
0
0
0
0
0
0
0
0
0
0
0
0
0
0
0
0
0
0
0
0
0
0
0
0
0
0
0
0
0
0
0
0
0
0
0
0
0
0
0
0
0
0
0
0
0
0
0
0
0
0
0
0
0
0
0
0
0
0
0
0
0
0
0
0
0
0
0
0
0
0
0
0
0
0
0
0
0
0
0
0
0
0
0
0
0
0
0
0
0
0
0
0
0
0
0
0
0
0
0
0
0
0
0
0
0
0
0
0
0
0
0
0
0
0
0
0
0
0
0
0
0
0
0
0
0
0
0
0
0
0
0
0
0
0
0
0
0
0
0
0
0
0
0
0
0
0
0
0
0
0
0
0
0
0
0
0
0
0
0
0
0
0
0
0


VECTORS element_materi_velocity float
3.393102813771e-01 -1.280462101315e-01 0.0 
3.324351669433e-01 -1.392034923431e-01 0.0 
4.827504703485e-02 -1.465264901431e-02 0.0 
4.795171174747e-03 -1.761445044612e-03 0.0 
4.100351262334e-02 1.131402070174e-02 0.0 
2.063032446425e-01 -2.587486014719e-01 0.0 
3.133695573245e-02 9.779504770747e-03 0.0 
3.307265583880e-01 -1.577689296852e-01 0.0 
3.452806843206e-02 1.035091417604e-02 0.0 
7.290026199434e-03 -2.538157546975e-03 0.0 
-8.820937674522e-03 -5.231255379280e-02 0.0 
3.274938097843e-01 -1.618347436274e-01 0.0 
3.936456417186e-03 -1.193005476011e-02 0.0 
6.042795663617e-02 1.042799286466e-02 0.0 
2.911082636530e-03 -8.160944163696e-03 0.0 
4.174806917872e-03 -1.992214460668e-03 0.0 
5.165092032238e-02 1.310973158991e-02 0.0 
2.016930135168e-01 -2.528683083064e-01 0.0 
3.816619193509e-02 -9.740808091337e-02 0.0 
2.511385825693e-02 -8.295342430925e-02 0.0 
8.796966146785e-03 -2.673012066145e-03 0.0 
3.368120988923e-01 -9.068475289876e-02 0.0 
3.211051083422e-01 -8.388585275732e-02 0.0 
1.234385513899e-02 -2.483472883090e-02 0.0 
7.264396591394e-02 5.157635610070e-03 0.0 
-9.764020150555e-03 -5.082259003803e-02 0.0 
8.615717175169e-02 1.825293144038e-02 0.0 
3.190665989539e-02 -1.344063953520e-02 0.0 
7.699747150402e-02 3.607308434042e-03 0.0 
8.201300813002e-03 -1.892090091570e-02 0.0 
1.702570686346e-01 -2.324336033725e-01 0.0 
1.416891263062e-01 -1.903030113520e-01 0.0 
6.278471021348e-02 -2.038254943931e-02 0.0 
9.080510416039e-04 -3.815937472141e-02 0.0 
-1.520548949172e-03 -1.120652189960e-02 0.0 
5.837657768188e-04 -4.833746824215e-03 0.0 
9.087789404911e-04 -4.859080403681e-03 0.0 
2.092728697869e-02 -1.597558827975e-02 0.0 
2.644915272830e-02 1.109068043623e-02 0.0 
2.412457753317e-02 1.081804335122e-02 0.0 
2.751974104974e-01 -3.920799903313e-02 0.0 
-6.762974477799e-04 -9.234928857821e-03 0.0 
2.977591220182e-01 -2.040846141999e-01 0.0 
8.919779430919e-02 1.084363957957e-02 0.0 
2.399475311649e-03 -1.190451542520e-03 0.0 
2.930896048870e-01 -2.214242446702e-01 0.0 
1.729240859869e-01 -2.348547562005e-01 0.0 
2.784277458762e-03 -1.272117172637e-03 0.0 
1.720226479735e-01 -2.368135811404e-01 0.0 
5.871266992279e-02 1.161301856514e-02 0.0 
3.018898146345e-01 -6.284923269770e-02 0.0 
2.272423745318e-02 -7.280907430307e-02 0.0 
1.673730407747e-01 -2.220045003695e-01 0.0 
3.043287770114e-01 -4.847960390686e-02 0.0 
4.937290820326e-02 -1.188169116100e-02 0.0 
1.072458618569e-02 -5.643742150678e-02 0.0 
1.294203286332e-02 -6.202589861024e-02 0.0 
1.994773388209e-03 -3.608841013819e-02 0.0 
9.484477319753e-02 -1.420827565941e-01 0.0 
5.155506288230e-03 -2.523474874375e-03 0.0 
1.841191940385e-01 -2.414938819329e-01 0.0 
4.422167467659e-02 -2.378769765891e-02 0.0 
2.040220198180e-01 -1.085041705513e-01 0.0 
1.673180153199e-01 -2.254289873212e-01 0.0 
4.405478390645e-03 -1.152750133160e-02 0.0 
3.254763735903e-01 -6.983447718178e-02 0.0 
1.864695491507e-01 -2.422186626138e-01 0.0 
5.438580379727e-02 -1.473598596276e-02 0.0 
1.252233626692e-01 -2.044010671945e-01 0.0 
3.222085963757e-02 -1.024535708014e-02 0.0 
-7.867830733367e-03 -4.429403157913e-02 0.0 
7.469614714365e-03 -2.268085228219e-03 0.0 
4.342913231498e-02 -1.869499469951e-02 0.0 
1.053221307964e-02 -1.573660497103e-01 0.0 
2.635488919648e-03 -4.931318203860e-02 0.0 
2.047820853169e-02 -3.073676767246e-03 0.0 
5.943864554023e-02 -1.495489372675e-02 0.0 
2.501511773576e-01 -2.609504304175e-01 0.0 
9.977298480010e-02 -1.392064043029e-01 0.0 
2.546126701032e-01 -2.530103648894e-01 0.0 
1.323836869688e-01 -2.068891836621e-01 0.0 
4.905311974523e-02 1.233640229181e-02 0.0 
3.326018168792e-01 -1.063339063246e-01 0.0 
3.426675616703e-01 -1.129216938613e-01 0.0 
3.881337548893e-02 9.787549583256e-03 0.0 
3.569906974264e-02 9.293873127620e-03 0.0 
-6.410821316022e-03 -4.602930038538e-02 0.0 
-1.218300562740e-04 -4.275357889059e-02 0.0 
1.259665469612e-01 -3.631744994340e-02 0.0 
4.387701417694e-02 1.160030931469e-02 0.0 
1.393655781111e-01 -1.958131560151e-01 0.0 
7.963505755828e-02 6.364383358247e-03 0.0 
6.933849629983e-03 2.871699657512e-04 0.0 
8.385523013053e-03 7.669662924366e-04 0.0 
1.634061510623e-02 -4.171566360967e-03 0.0 
1.484572636599e-02 -1.059485206120e-02 0.0 
5.427622377907e-02 1.272009036263e-02 0.0 
-1.090976435622e-03 -1.111021176500e-02 0.0 
5.078672622898e-03 4.187959740225e-03 0.0 
2.410842401678e-01 -1.188799487731e-01 0.0 
3.992028060190e-02 1.221055015928e-02 0.0 
3.270768251168e-03 -8.412590429130e-03 0.0 
8.521717667610e-02 -5.979568580456e-02 0.0 
4.292774452494e-02 -2.432762497964e-02 0.0 
1.995532785372e-01 -1.668055793361e-01 0.0 
1.701596220007e-01 -2.345452446399e-01 0.0 
4.799885677085e-03 -2.138051132549e-02 0.0 
7.081670285703e-03 -3.907390323628e-04 0.0 
1.768240293358e-01 -2.387140212389e-01 0.0 
2.163742662906e-03 -8.038999078048e-03 0.0 
1.295585134341e-01 -3.624877243543e-02 0.0 
1.825070915104e-02 -1.705317838467e-01 0.0 
1.726384793576e-01 -1.428833991098e-01 0.0 
1.245154441273e-01 6.521759526208e-03 0.0 
-1.108552344288e-02 -5.489228275952e-02 0.0 
2.701397727858e-01 -1.396379798449e-01 0.0 
1.933289358807e-01 -1.156446645370e-01 0.0 
-1.001817712788e-03 -8.192228401396e-03 0.0 
6.450145078951e-03 5.001955851653e-03 0.0 
2.135152451126e-01 -1.336232395722e-01 0.0 
1.155446038134e-01 -1.912520449270e-01 0.0 
8.356313416650e-02 5.954801297365e-03 0.0 
5.611936880635e-03 -6.633499708507e-04 0.0 
1.987635152392e-01 -1.401522346729e-01 0.0 
2.194946476516e-01 -2.739780611218e-01 0.0 
2.040553433996e-01 -1.382447720139e-02 0.0 
-8.198590560948e-03 -5.269315140521e-02 0.0 
2.415671952872e-01 -1.850169811997e-02 0.0 
1.805569936795e-02 -3.492500755719e-03 0.0 
2.218779328857e-01 -2.741614389906e-01 0.0 
-1.110866843506e-02 -4.915999527401e-02 0.0 
3.774806975132e-03 -1.443477971222e-03 0.0 
1.619349885302e-01 -4.797019392350e-02 0.0 
2.419352112937e-01 -2.572252123009e-02 0.0 
-1.529700478672e-03 -1.147134388747e-02 0.0 
3.078482264668e-03 -1.181648979815e-02 0.0 
-5.365423844315e-03 -4.257720648116e-02 0.0 
1.514162574024e-01 -4.249580997631e-02 0.0 
3.344001708261e-03 -1.238115162349e-02 0.0 
1.920478221211e-01 -4.551962990066e-02 0.0 
1.146651746034e-02 -2.735933489885e-03 0.0 
3.964256860913e-02 -1.214657003588e-02 0.0 
6.386536488536e-02 1.018130831162e-02 0.0 
1.610499151851e-02 2.652797836886e-03 0.0 
1.862424923716e-01 -5.056671728812e-02 0.0 
2.769335579700e-01 -2.882161529156e-02 0.0 
1.508756420505e-01 -4.670048984352e-02 0.0 
1.735755528468e-01 -1.457204782566e-01 0.0 
3.007677521521e-02 1.060551207738e-02 0.0 
1.725741375556e-01 -1.544224270939e-01 0.0 
1.373014501964e-01 -1.844249961012e-01 0.0 
7.344726197892e-03 6.818208877495e-03 0.0 
4.250918400081e-02 -1.105586098320e-01 0.0 
1.631715449545e-01 1.134692771662e-03 0.0 
1.711593746720e-03 -9.855992374490e-03 0.0 
2.168361034467e-01 -1.604904510074e-01 0.0 
-2.965604267231e-03 -4.375749816237e-02 0.0 
3.128166115518e-01 -1.921596066177e-01 0.0 
8.940754404693e-02 -5.875977069880e-02 0.0 
1.715475608332e-02 8.345914934006e-03 0.0 
1.702195810081e-01 -1.626231931688e-01 0.0 
4.060649775569e-03 -3.051977103715e-02 0.0 
1.172406355232e-01 -1.965345475237e-01 0.0 
5.767917916293e-03 -2.041184977159e-02 0.0 
1.106171325708e-01 -8.847100886823e-03 0.0 
3.012799225232e-03 -1.001859910566e-02 0.0 
7.317794665004e-03 7.837605749091e-03 0.0 
1.779829361839e-01 -1.587470667157e-01 0.0 
1.574270216253e-01 9.090377422906e-03 0.0 
-5.685442400067e-03 -5.224030809016e-02 0.0 
3.154391426957e-01 -1.766361417166e-01 0.0 
1.698845469858e-01 -1.726011631444e-01 0.0 
1.414541155089e-02 1.652098015601e-03 0.0 
1.959759316659e-02 9.293267489463e-03 0.0 
1.696303973799e-01 -1.477761422577e-01 0.0 
2.014222124585e-01 -2.377657504111e-03 0.0 
9.259414040259e-02 -3.088971406716e-02 0.0 
-1.559529402404e-02 -5.350503380347e-02 0.0 
2.459134863276e-02 -1.079800539198e-02 0.0 
3.822667785040e-02 -1.298971092675e-02 0.0 
3.035255663534e-01 -1.482646162017e-01 0.0 
-1.518266864265e-02 -5.223433682979e-02 0.0 
3.007009549212e-02 -3.968492403534e-02 0.0 
2.307489255798e-01 -5.094747457204e-02 0.0 
3.172245571474e-01 -1.643280867342e-01 0.0 
1.092539152116e-01 1.870883330154e-03 0.0 
1.708011148247e-01 -1.386314663610e-01 0.0 
7.728963502912e-03 -2.790177517652e-03 0.0 
1.098283889498e-01 -2.281841220014e-02 0.0 
4.152571192260e-03 -2.686669002859e-02 0.0 
2.708542022209e-01 -2.462160053287e-01 0.0 
1.674768968138e-01 -1.884145682501e-01 0.0 
1.189825797198e-01 -3.155466795205e-02 0.0 
2.100435923183e-01 -2.650596097163e-01 0.0 
2.368118735078e-01 -4.156272512321e-02 0.0 
3.009317980268e-02 -5.471886108780e-02 0.0 
1.229861001700e-01 -1.561369003799e-01 0.0 
6.627035752122e-02 -1.725318636654e-02 0.0 
8.609568073892e-02 -3.395050407940e-03 0.0 
8.142612367439e-02 -1.332104084079e-01 0.0 
3.394702520334e-02 -5.547635871497e-02 0.0 
8.089442961800e-02 5.035879474681e-03 0.0 
7.011973016085e-02 7.480294710553e-03 0.0 
5.848534329391e-03 -1.800205284883e-02 0.0 
8.206046461321e-02 -1.572632683159e-01 0.0 
1.594685463194e-01 -6.308346995633e-02 0.0 
1.205520355452e-01 -1.922149773209e-02 0.0 
8.316779066165e-02 -4.055575201990e-03 0.0 
1.090829254649e-01 -7.556448153758e-03 0.0 
1.145774324695e-01 -2.835065940293e-03 0.0 
1.040053431349e-01 -8.770234519606e-02 0.0 
1.158077351321e-01 -4.077802584639e-02 0.0 
2.052144082481e-01 -2.595018700925e-01 0.0 
3.144783874845e-01 -1.354884111636e-01 0.0 
2.554412988775e-01 -1.112223035330e-01 0.0 
1.553186430868e-01 -5.600126541231e-02 0.0 
1.055648313200e-01 -2.341620730665e-02 0.0 
1.992674131220e-01 -2.504198014599e-01 0.0 
2.939704166868e-02 -6.115232342577e-02 0.0 
2.199106570491e-02 9.306630944317e-03 0.0 
1.679008363523e-01 -1.801131883746e-01 0.0 
2.863411773258e-02 -6.599906129940e-02 0.0 
1.344698276116e-01 -1.697501146973e-01 0.0 
8.486141084783e-02 -6.861950207622e-03 0.0 
1.382576642648e-01 -1.678365803741e-01 0.0 
1.154445656257e-01 -1.528933845256e-01 0.0 
2.761899939797e-01 -2.320309964377e-01 0.0 
8.908611414757e-02 -1.685132370024e-01 0.0 
8.098408984502e-02 -7.418073285026e-03 0.0 
9.471062307418e-02 -1.739683584114e-01 0.0 
2.550593613435e-01 -2.455305772445e-01 0.0 
1.520961203527e-01 -2.136623865297e-01 0.0 
1.074664898054e-01 -1.855064182744e-01 0.0 
3.403457510406e-02 -4.776778781524e-02 0.0 
1.168123478416e-01 -1.529024426279e-02 0.0 
4.123287550119e-03 -1.126817160951e-02 0.0 
2.068681493077e-01 -2.608648005518e-01 0.0 
2.126413008459e-01 -2.104505491610e-01 0.0 
1.717622418205e-01 -1.739021741900e-01 0.0 
2.666955001924e-01 -6.296237727279e-02 0.0 
3.355054923609e-02 -6.272459895218e-02 0.0 
1.878388199539e-03 -8.843796523747e-03 0.0 
1.072870897656e-01 -1.861916213656e-02 0.0 
1.647964616063e-01 -2.097104799256e-01 0.0 
3.054344968287e-02 -4.757783017156e-02 0.0 
-7.568579920571e-03 -4.940872024737e-02 0.0 
1.502612060637e-01 -4.517204292208e-02 0.0 
9.345185682220e-02 -8.632953708279e-03 0.0 
3.638341430673e-02 -1.864548826683e-02 0.0 
1.707097166697e-01 -1.816788689144e-01 0.0 
2.440772880222e-01 -2.281442483172e-01 0.0 
1.132403365541e-01 -1.291484404529e-02 0.0 
1.274954182368e-02 -3.515929108467e-03 0.0 
1.634818279428e-01 -7.345537357403e-02 0.0 
1.323600463240e-01 -1.380507217242e-01 0.0 
1.654136554893e-02 7.071534545747e-03 0.0 
1.392837058923e-01 -2.156997745064e-01 0.0 
1.037283477772e-01 -2.868065415157e-03 0.0 
1.662671336733e-01 -2.028965580214e-01 0.0 
1.799827154648e-01 -2.362910791812e-01 0.0 
1.715475181549e-01 -2.306232716833e-01 0.0 
7.581618773992e-02 -5.259616070824e-03 0.0 
1.196116203358e-01 -1.863137018232e-02 0.0 
1.770733069927e-01 -1.334407745425e-01 0.0 
7.140389959602e-02 -5.755684978423e-03 0.0 
1.162556873545e-01 -2.682096184910e-02 0.0 
1.441120435902e-01 -3.866013805410e-02 0.0 
1.003238960067e-04 -7.582566009508e-03 0.0 
1.239231275053e-01 -1.300755559015e-01 0.0 
1.368534961266e-01 -3.204032782074e-02 0.0 
1.748045149911e-01 -1.349798717440e-01 0.0 
1.189277308336e-01 -1.187739594697e-01 0.0 
1.665610404985e-01 -2.253881960998e-01 0.0 
7.040540292087e-02 1.160474084446e-02 0.0 
1.619019941312e-01 -1.807125561966e-01 0.0 
1.470222410568e-01 -1.991928302246e-01 0.0 
1.013751774547e-01 -1.520555214178e-02 0.0 
2.053595979288e-01 -2.576385442189e-01 0.0 
1.034992551358e-01 -4.470198076314e-03 0.0 
1.639015775230e-01 -2.088462002312e-01 0.0 
1.963928801417e-01 -2.107965882619e-01 0.0 
1.669643832542e-01 -2.256418767381e-01 0.0 
1.171921637433e-01 -1.772061817279e-02 0.0 
1.316028516219e-01 -1.962860296758e-01 0.0 
2.378764182261e-01 -8.593453714056e-02 0.0 
1.070929690449e-01 -1.084998286242e-01 0.0 
1.143377255264e-01 -1.340946397995e-02 0.0 
7.330640842317e-02 8.663058676247e-03 0.0 
1.965935956328e-01 -2.471508231968e-01 0.0 
1.515021767470e-01 -2.052301731907e-01 0.0 
1.473032398301e-01 -1.979756656346e-01 0.0 
2.954496526266e-01 -1.192041295666e-01 0.0 
9.890854128433e-02 -1.141615635871e-02 0.0 
2.251991821370e-01 -9.303236746196e-02 0.0 
1.626514272711e-01 -1.898285191937e-01 0.0 
1.684080822965e-01 -1.886792377443e-01 0.0 
1.939439117445e-01 -2.449004711839e-01 0.0 
1.776808321973e-01 -1.391077382119e-01 0.0 
2.511987364853e-01 -2.661622145539e-01 0.0 
2.723448012424e-02 -6.790454855713e-03 0.0 
2.646369702674e-02 -7.928167315475e-03 0.0 
1.679221098434e-01 -7.949466214846e-02 0.0 
1.653011830330e-01 -2.168739058546e-01 0.0 
1.938796627885e-01 -2.267087978616e-01 0.0 
1.413919088604e-01 -3.782997098605e-02 0.0 
1.710383344042e-01 -2.209088062950e-01 0.0 
1.522434642906e-01 -2.035793095088e-01 0.0 
1.449239591103e-01 -3.894855850705e-02 0.0 
1.461549873978e-02 -2.668774048921e-03 0.0 
1.659195003791e-01 -1.953943457858e-01 0.0 
1.096035134432e-01 -8.629580574847e-02 0.0 
2.427387794617e-01 -2.581379897369e-01 0.0 
2.913853023874e-03 -5.380618863928e-03 0.0 
1.762315806881e-01 -2.163567451139e-01 0.0 
1.552790084237e-01 -5.090051206926e-02 0.0 
1.847506516864e-01 -2.371738849648e-01 0.0 
6.483102289325e-02 -9.493407900176e-02 0.0 
1.681985818548e-01 -1.785009257599e-01 0.0 
1.376636431087e-01 -1.879636341270e-01 0.0 
1.263020170259e-01 -2.304829678847e-02 0.0 
1.602975063868e-02 -4.115093285962e-03 0.0 
1.649454200543e-01 -2.013128084859e-01 0.0 
1.009513612877e-01 -1.093525574277e-01 0.0 
2.249277727010e-01 -2.566850074237e-01 0.0 
5.387026407932e-02 6.217989098616e-03 0.0 
3.290765089030e-02 -6.860063384974e-02 0.0 
2.507351219403e-01 -2.044871067268e-01 0.0 
5.255764358010e-02 7.564720754665e-03 0.0 
1.458250978743e-02 -5.045800105519e-03 0.0 
2.203984904381e-02 -5.186325086185e-02 0.0 
1.754476529403e-02 -3.987602197308e-03 0.0 
6.411098469943e-02 7.044994960066e-03 0.0 
1.363740168639e-01 -4.173402546126e-02 0.0 
2.844665078255e-01 -2.359145850829e-01 0.0 
1.283184673355e-01 -1.911158586588e-02 0.0 
1.308951593595e-01 -2.706122562103e-02 0.0 
1.295539671392e-01 -2.750837491394e-02 0.0 
1.669630406192e-01 -8.670868406594e-02 0.0 
1.314288679645e-02 -5.116548781003e-03 0.0 
7.913729645256e-02 3.999263908017e-03 0.0 
9.993903762524e-02 5.472311222246e-04 0.0 
1.666463806213e-01 -1.946172575869e-01 0.0 
9.703758790762e-02 -1.780401960539e-01 0.0 
1.376502270320e-01 -1.399833683975e-02 0.0 
2.156620810282e-01 -1.880843164957e-01 0.0 
1.478981368873e-02 8.771653582676e-03 0.0 
1.327508450672e-01 -1.828630612443e-01 0.0 
1.651497252948e-01 -2.023545661791e-01 0.0 
9.185142212890e-02 -1.260976123197e-02 0.0 
1.984767675978e-01 -1.920505455473e-01 0.0 
1.280414065999e-01 -2.109195742452e-02 0.0 
9.144192908773e-02 -1.004914607271e-01 0.0 
5.813118827814e-02 -1.043543002980e-01 0.0 
1.021563146574e-02 -5.316578754450e-03 0.0 
2.000978980811e-01 -2.904934924734e-02 0.0 
1.611413713422e-01 -2.172718339428e-01 0.0 
8.748017886265e-02 -1.398130982675e-01 0.0 
3.070027047136e-01 -1.773642440319e-01 0.0 
2.725419904566e-01 -1.983421681212e-01 0.0 
1.141592986504e-01 -3.186187966510e-02 0.0 
1.544987411211e-01 -5.011145131835e-02 0.0 
2.587406594751e-01 -7.051711882765e-02 0.0 
1.421910332978e-01 -1.852347972939e-02 0.0 
7.484483041698e-03 -6.362026653513e-03 0.0 
2.065537579081e-02 -1.744604946609e-02 0.0 
1.071688486552e-01 -2.772596866866e-02 0.0 
9.016745181788e-02 -9.311005578468e-03 0.0 
6.536122398301e-02 -1.121901013677e-01 0.0 
1.840843692953e-01 -9.362894489562e-02 0.0 
1.642626716468e-01 -2.208587367683e-01 0.0 
1.629883689992e-01 -2.137162671898e-01 0.0 
1.600433476431e-01 -5.951116353472e-02 0.0 
7.177149423847e-02 -1.026541598132e-01 0.0 
2.632644900508e-02 -8.782174060293e-02 0.0 
8.839187257950e-02 -1.627778391689e-02 0.0 
1.592447390364e-01 -2.136271603474e-01 0.0 
1.696686699193e-01 -1.014195848502e-01 0.0 
1.382679294179e-01 -3.250601950835e-02 0.0 
1.695423804474e-01 -1.027259179050e-01 0.0 
2.075351133751e-02 -6.032552912512e-03 0.0 
2.885121299714e-02 -7.654794760751e-03 0.0 
6.662083054654e-02 -1.887860972787e-02 0.0 
5.351690142656e-02 -9.940737917782e-02 0.0 
6.645393923142e-02 -4.011255776799e-03 0.0 
2.649857956863e-01 -2.261470349347e-01 0.0 
1.624773620078e-01 -2.051564742512e-01 0.0 
1.782880738842e-01 -2.332475204805e-01 0.0 
2.069797138738e-01 -7.013520450466e-02 0.0 
6.481321992757e-02 1.260942118165e-02 0.0 
6.010446380841e-02 7.464206550270e-03 0.0 
9.844175415090e-03 -1.525835375901e-02 0.0 
1.272739213397e-01 -4.049444885708e-02 0.0 
1.077564438513e-01 -8.663960880257e-03 0.0 
1.340188771214e-01 -3.206518917487e-02 0.0 
1.711191622451e-01 -2.278757500840e-01 0.0 
1.406996254749e-01 -2.180535331984e-01 0.0 
1.750679193212e-01 -1.570670063990e-01 0.0 
1.741304888312e-01 -1.019747759330e-01 0.0 
1.780085783294e-01 -1.496558448827e-01 0.0 
2.226835945908e-01 -2.724564057567e-01 0.0 
1.375843487019e-02 6.311238153195e-03 0.0 
1.029873655333e-01 -1.836707332959e-01 0.0 
1.771023562986e-01 -1.998017870363e-01 0.0 
1.820046713550e-03 -2.794816976221e-03 0.0 
8.804169663431e-02 -8.047000014693e-02 0.0 
9.632982813055e-02 2.145602793538e-03 0.0 
3.209978037690e-02 -1.147962842804e-01 0.0 
1.629563647872e-01 -7.684665588037e-02 0.0 
1.745910576084e-01 -1.665687835194e-01 0.0 
1.226983419759e-01 -2.248918645674e-02 0.0 
1.575971223787e-02 -4.431617117850e-03 0.0 
1.228393900580e-01 -1.713667176052e-02 0.0 
1.473633218026e-01 -4.373008633779e-02 0.0 
3.611784754534e-02 -9.338046904475e-02 0.0 
8.195374417592e-02 -1.025747401529e-02 0.0 
4.549306186865e-02 -9.043990928062e-02 0.0 
1.564998432216e-02 -4.845356692843e-03 0.0 
9.167693179578e-03 -1.937080730424e-03 0.0 
1.326114599591e-02 -2.968355228349e-03 0.0 
1.487787886881e-02 -3.832695133387e-03 0.0 
1.266293206063e-01 -2.693662029067e-02 0.0 
8.751503548975e-02 -1.300010659139e-02 0.0 
1.129715519375e-01 -3.445143698612e-02 0.0 
1.689169612793e-01 -9.221967396678e-02 0.0 
1.909044729045e-01 -8.581478704649e-02 0.0 
1.670542823408e-02 -9.035373866002e-02 0.0 
9.437661389970e-02 -1.989884365876e-02 0.0 
1.380705971532e-02 -5.125969250521e-03 0.0 
7.173160654172e-02 -8.314151201327e-03 0.0 
1.029661748626e-01 -9.862417625406e-02 0.0 
7.711354901652e-02 -1.065748302399e-02 0.0 
1.297961436113e-01 -6.703557411525e-02 0.0 
1.732584219695e-01 -1.068456464143e-01 0.0 
2.169887551129e-01 -6.354930351435e-02 0.0 
2.032991500533e-01 -2.422961053748e-01 0.0 
2.802229566045e-02 -5.841384057545e-03 0.0 
1.740167045261e-01 -1.112756828195e-01 0.0 
4.722018398991e-02 -1.858710659709e-02 0.0 
2.745393622413e-02 -9.609631958882e-02 0.0 
1.309126304968e-01 -1.831549052706e-01 0.0 
6.243933816259e-03 -1.154528781635e-02 0.0 
1.775669726319e-01 -1.817243197242e-01 0.0 
8.377072114451e-03 -2.050521466885e-03 0.0 
5.217809633003e-02 -1.369635255485e-02 0.0 
1.591963990875e-01 -5.568863416804e-02 0.0 
1.491365283145e-01 -2.209462743434e-01 0.0 
8.107033713644e-03 -2.367045298772e-03 0.0 
1.185685271150e-02 -1.260470898094e-02 0.0 
1.364160683115e-01 -1.877234040109e-01 0.0 
8.745430839459e-02 -9.100021284722e-02 0.0 
9.899868119069e-03 -5.689336524483e-03 0.0 
1.576725859470e-01 -2.163901950144e-01 0.0 
1.689651384666e-01 -1.068191612016e-01 0.0 
1.519504568149e-01 -4.930406809508e-02 0.0 
1.642749530229e-01 -6.646315495092e-02 0.0 
1.486690232411e-01 -4.409456171822e-02 0.0 
2.089037073274e-01 -2.268547767426e-01 0.0 
7.039559178924e-03 -2.567488711448e-03 0.0 
1.557769198147e-01 -1.901478365788e-01 0.0 
1.913007136436e-01 -2.422566110325e-01 0.0 
-2.966989504093e-04 -9.134880013777e-03 0.0 
1.502527319878e-01 -2.151737700736e-01 0.0 
1.656136469493e-01 -2.993476145237e-02 0.0 
1.654417153243e-01 -2.288630727686e-01 0.0 
1.355834847144e-01 -6.139874395484e-03 0.0 
5.861302040939e-03 -6.129201847467e-03 0.0 
6.375386260053e-03 -2.558068241931e-03 0.0 
1.240204095962e-01 -2.290531853161e-02 0.0 
1.663514076488e-01 -2.330422266763e-01 0.0 
1.921678154927e-01 -2.433177801197e-01 0.0 
1.643005183246e-01 -2.297812076330e-01 0.0 
-2.525031338609e-03 -2.413966563957e-02 0.0 
6.607579673794e-02 1.369322404890e-02 0.0 
9.480849302272e-02 1.445060386630e-03 0.0 
5.261957690757e-03 -2.604667041668e-03 0.0 
6.168468516838e-02 1.319461289622e-02 0.0 
2.574457404744e-02 -5.854023819090e-03 0.0 
1.209709134797e-01 -6.340422369930e-02 0.0 
5.480878894592e-02 8.983784270660e-03 0.0 
2.764278028018e-01 -1.689035703128e-01 0.0 
9.283694641222e-02 -8.998565717771e-02 0.0 
1.917687946445e-01 -2.457367739415e-01 0.0 
4.946194344086e-03 -2.977424811702e-03 0.0 
1.158581815793e-02 -4.095472182088e-03 0.0 
1.397333412833e-02 -3.822099627364e-03 0.0 
4.149680313896e-02 -8.596796961450e-02 0.0 
8.355567463433e-03 -9.049310118237e-02 0.0 
1.753362721647e-01 -1.172953362192e-01 0.0 
3.237368412240e-02 -7.561604761992e-02 0.0 
4.213560170479e-03 -3.254397595516e-03 0.0 
1.719651013839e-01 -2.055079227693e-01 0.0 
1.372867625193e-01 -1.890453629426e-01 0.0 
1.239915894027e-01 -1.741588978621e-01 0.0 
4.893200324722e-02 7.402371528658e-03 0.0 
1.676657910389e-03 -4.931014303203e-03 0.0 
1.627562669021e-01 -2.343903703790e-01 0.0 
2.590379169721e-03 -3.021572789470e-03 0.0 
1.241084715133e-01 -1.735448923531e-01 0.0 
7.652678524225e-03 -2.064571819077e-03 0.0 
1.191022073854e-01 -3.832122418675e-02 0.0 
1.630247735293e-01 -2.233373083013e-01 0.0 
1.738938074921e-01 -1.235540673870e-01 0.0 
6.156359146182e-02 -4.593510459162e-03 0.0 
7.542950608511e-03 -2.478311394070e-03 0.0 
1.324162982088e-01 -3.190956662646e-02 0.0 
1.002834628661e-01 -5.549961675350e-02 0.0 
2.262833378389e-01 -2.676133862055e-01 0.0 
1.927799284281e-02 -2.331397886896e-02 0.0 
1.116571730239e-01 -1.606988280400e-01 0.0 
1.201444699258e-01 -1.693845523787e-01 0.0 
1.693451597636e-01 -2.374863032539e-01 0.0 
6.767500536399e-03 -2.558480539072e-03 0.0 
1.724104610701e-01 -2.306656281464e-01 0.0 
1.909346200265e-02 -4.462486767824e-02 0.0 
5.323562885068e-02 1.031578040920e-02 0.0 
1.026590518805e-01 -1.634828299139e-01 0.0 
1.328683890317e-01 -1.834198107193e-01 0.0 
1.398984820755e-01 -3.740768304727e-02 0.0 
4.953673774983e-03 -2.711911712781e-03 0.0 
-3.629939163440e-03 -7.721417917107e-02 0.0 
2.813708625157e-02 -6.900193423903e-02 0.0 
1.756335858618e-01 -9.397179461031e-02 0.0 
6.100892020543e-02 -1.020745529414e-01 0.0 
1.319157406808e-01 -1.845715111229e-01 0.0 
4.092116699018e-02 -8.492064834227e-02 0.0 
1.715453904848e-01 -8.863141262379e-02 0.0 
1.402778928244e-01 -6.070237749729e-02 0.0 
7.840283730264e-02 -7.256958066874e-02 0.0 
1.779352803658e-01 -1.070405574203e-01 0.0 
5.503415153360e-02 -1.105678954863e-01 0.0 
1.724409820369e-01 -1.891295221123e-01 0.0 
1.837765934994e-02 -9.800473234336e-02 0.0 
1.150660008674e-01 -6.345446563495e-02 0.0 
1.044540367165e-01 -1.190893371044e-01 0.0 
4.410425883271e-03 -5.816389765691e-03 0.0 
6.645177619645e-02 -8.613027447217e-03 0.0 
1.037985999488e-01 -1.693234007592e-01 0.0 
3.270922871218e-03 -3.107629057997e-03 0.0 
1.327997774943e-02 -1.579594775332e-02 0.0 
1.784498293447e-01 -1.504309789034e-01 0.0 
1.638869930441e-01 -2.365661104561e-01 0.0 
7.342794379447e-04 -4.610171488937e-03 0.0 
8.334064239506e-02 -1.632847311389e-02 0.0 
1.227632034294e-01 -1.740059925894e-01 0.0 
1.093806310323e-03 -2.585801887707e-03 0.0 
2.781596218309e-02 -7.014999557988e-02 0.0 
1.767366044731e-01 -6.577819699621e-02 0.0 
9.818860987604e-02 -1.755443945841e-03 0.0 
1.155910411456e-01 -1.295382047327e-01 0.0 
5.495646375142e-02 -1.006508088097e-01 0.0 
6.118266261843e-02 -9.521198620506e-02 0.0 
9.107370592942e-02 -5.523373543383e-03 0.0 
1.473024580401e-01 -3.659299609714e-02 0.0 
7.719470902456e-02 -6.241912865872e-02 0.0 
1.299434749732e-02 5.137484150431e-03 0.0 
4.686216274764e-02 -1.061815337720e-01 0.0 
7.842694745370e-02 -8.283396613314e-02 0.0 
1.073248796270e-01 -1.571694867520e-01 0.0 
-1.680905369729e-03 -3.342153636324e-02 0.0 
1.665252084770e-01 -2.340515006759e-01 0.0 
1.731819437089e-01 -1.696995780521e-01 0.0 
1.196242676902e-01 -1.692563224385e-01 0.0 
1.546044989813e-02 -7.427299095144e-02 0.0 
1.820318465370e-01 -1.350440758202e-01 0.0 
3.236718632117e-02 -7.498265663611e-02 0.0 
4.764765725726e-02 8.530480753846e-03 0.0 
1.177445742234e-01 -1.704223994348e-01 0.0 
5.828516000654e-04 -2.345212415497e-03 0.0 
1.579538162198e-01 -5.524572632521e-02 0.0 
-2.910577744223e-03 -5.750544329573e-02 0.0 
1.642082717699e-01 -6.342968633516e-02 0.0 
5.310209510702e-03 -6.882480904267e-02 0.0 
1.620246640959e-01 -2.288239938463e-01 0.0 
9.702277556177e-02 -2.888792249237e-03 0.0 
-9.442912143073e-03 -4.880687856216e-02 0.0 
1.329873518082e-01 -1.689960552881e-01 0.0 
-1.275275214653e-02 -6.072191308194e-02 0.0 
1.997204393466e-02 -5.891075886195e-02 0.0 
1.472160856061e-02 -1.178741735730e-03 0.0 
7.089015087790e-02 -1.102317896863e-01 0.0 
6.425081793270e-02 -1.025956085907e-01 0.0 
9.678593498478e-02 4.712863606652e-03 0.0 
6.182475425428e-02 1.442738454982e-02 0.0 
3.873016785361e-02 -7.699078669474e-03 0.0 
1.681404335999e-01 -7.607474994695e-02 0.0 
1.220090499530e-01 -1.745266075666e-01 0.0 
1.068697942908e-01 -1.809039477884e-01 0.0 
1.560036112095e-01 -2.322225349923e-01 0.0 
8.785522721745e-02 -1.631135266313e-01 0.0 
9.417226205820e-02 -3.373621700144e-02 0.0 
1.697501366096e-02 -1.051245869796e-03 0.0 
-2.295329418509e-03 -2.669429834245e-02 0.0 
6.348975777232e-02 -1.464179966491e-01 0.0 
-2.670334640951e-03 -3.294584549106e-02 0.0 
1.284543498965e-02 -3.620695620392e-02 0.0 
1.816646927371e-01 -2.344403393617e-01 0.0 
-6.426432103097e-03 -4.751913762779e-02 0.0 
-8.152548097628e-04 -4.477187635562e-02 0.0 
6.350013993093e-05 -4.510110320266e-03 0.0 
1.514278378793e-04 -2.264959073440e-03 0.0 
-8.055248227511e-03 -5.050344680287e-02 0.0 
-1.066026389045e-02 -5.503047566295e-02 0.0 
4.634591817014e-02 -9.123194802338e-02 0.0 
1.441977063998e-02 -3.114253418078e-02 0.0 
1.002115705148e-01 -1.767550809923e-01 0.0 
1.143850364539e-02 -4.073086461618e-02 0.0 
1.099814696385e-01 -1.586613075483e-01 0.0 
-4.885574883405e-03 -7.100304943742e-02 0.0 
1.457943760184e-02 -6.683595709375e-02 0.0 
9.753518658186e-02 -1.669098016243e-01 0.0 
-6.038090980536e-03 -4.855916301193e-02 0.0 
6.123372148116e-02 -6.636815906676e-03 0.0 
1.061898840593e-01 -1.795810988703e-01 0.0 
6.636818601443e-02 1.488354436500e-02 0.0 
7.158524624807e-02 1.979477096049e-02 0.0 
6.181904367324e-02 -8.686854749024e-02 0.0 
-8.573668924822e-05 -4.408451843357e-02 0.0 
1.102733450872e-01 -1.621433879959e-01 0.0 
2.361342013529e-01 -2.438950665690e-01 0.0 
-1.990578454727e-03 -1.728215794946e-02 0.0 
2.735119258002e-02 -1.025864730144e-02 0.0 
3.086998481750e-02 7.335672009106e-04 0.0 
2.547517744539e-01 -1.756242495614e-01 0.0 
1.234151053193e-01 -1.910083810167e-01 0.0 
1.442587233589e-01 -2.228360287605e-02 0.0 
4.642210138416e-02 1.399667801822e-02 0.0 
4.395182212003e-02 1.435954597437e-02 0.0 
1.128127180145e-01 -1.766265019662e-01 0.0 
1.089012487706e-01 -1.687560170451e-01 0.0 
6.200226908895e-02 -1.377271499412e-01 0.0 
7.986161304307e-02 -1.617581114248e-01 0.0 
9.012137361136e-02 -1.696192327209e-01 0.0 
-6.897507797833e-03 -5.180720405082e-02 0.0 
1.785530289004e-01 -2.406160917192e-01 0.0 
6.685289728526e-02 -1.512656532751e-01 0.0 
1.160323790531e-02 2.984142858057e-03 0.0 
5.965410086242e-02 1.511146594263e-02 0.0 
8.327320333139e-02 -2.722404039647e-02 0.0 
1.923370485197e-02 -5.978554879644e-02 0.0 
1.039769807406e-02 4.536728421822e-03 0.0 
-5.624832204979e-04 -4.391195137601e-02 0.0 
7.564074896725e-02 -1.485521468929e-01 0.0 
3.565753205904e-03 -9.802198095175e-04 0.0 
8.547048749554e-03 -2.029990645341e-03 0.0 
4.970013749490e-02 1.002482611839e-02 0.0 
5.174785705501e-02 1.449523981876e-02 0.0 
-3.362546523396e-03 -4.529502379628e-02 0.0 
4.884462869336e-03 -1.822591296614e-03 0.0 
7.521153274677e-02 -1.591876399732e-01 0.0 
6.524567828995e-02 1.503251315134e-02 0.0 
5.683550874008e-02 1.458618892356e-02 0.0 
1.678714182133e-01 -1.817058936988e-02 0.0 
1.248342805153e-02 -2.885668590741e-03 0.0 
6.263341337411e-03 -1.908056132634e-03 0.0 
1.029739795138e-01 -1.740416717954e-01 0.0 
1.043352238969e-01 -1.773685085790e-01 0.0 
1.139363193947e-01 -1.800409086830e-01 0.0 
2.338728549085e-02 -7.290239834495e-02 0.0 
3.585048538308e-03 -1.696977527424e-02 0.0 
1.830403359646e-01 -2.425080384732e-01 0.0 
3.713043444033e-03 -7.218644891720e-05 0.0 
1.715670703084e-01 -2.396167202583e-01 0.0 
5.458010761953e-02 -8.760029476566e-02 0.0 
1.701621096008e-01 -2.393508841270e-01 0.0 
1.759735580829e-01 -2.408460686251e-01 0.0 
5.447645089507e-02 -9.440911401877e-02 0.0 
5.296569900479e-03 -1.706190954595e-02 0.0 
9.711320733629e-03 3.472243917758e-03 0.0 
1.414245957347e-01 -3.457419154931e-02 0.0 
7.831041086242e-02 -1.621783374137e-01 0.0 
-2.495638554176e-03 -3.199403901546e-02 0.0 
1.018116900345e-03 -4.663246401666e-04 0.0 
2.138474370841e-03 -1.229231489556e-03 0.0 
5.441593511517e-02 1.521317257217e-02 0.0 
5.500952874589e-02 -7.935595365159e-02 0.0 
2.697588131508e-03 -9.278363231164e-04 0.0 
9.712238385934e-02 -5.678618621687e-02 0.0 
4.863087746296e-02 -1.443488216556e-01 0.0 
6.581615747984e-02 -1.700545514601e-01 0.0 
4.977510395868e-02 -1.630500326537e-01 0.0 
-1.304683920310e-03 -4.617216324378e-02 0.0 
1.683584906340e-03 -4.293048292085e-03 0.0 
4.908801420266e-04 -1.090576265031e-03 0.0 
6.419946304376e-02 -1.823237881787e-01 0.0 
-3.575666630549e-03 -5.134288153887e-02 0.0 
6.518218020468e-04 -1.766479278440e-03 0.0 
1.769960566176e-03 -4.700239584292e-03 0.0 
-3.317914305741e-04 -4.492251494400e-03 0.0 
2.058951267569e-03 1.133406987466e-03 0.0 
8.242218081268e-04 -4.858006265445e-04 0.0 
1.031763104293e-03 -2.526569013645e-03 0.0 
7.381974618828e-04 -2.173670570646e-03 0.0 
1.815646660638e-03 -4.603006357438e-05 0.0 
4.924527337468e-02 -1.874709736627e-01 0.0 
3.368166524688e-02 1.290627310676e-02 0.0 
4.927708325056e-02 1.495668851747e-02 0.0 
9.056927005811e-02 -1.784855264778e-01 0.0 
-4.043311602113e-05 -1.939575334898e-03 0.0 
-5.704688473912e-04 -4.687981528189e-03 0.0 
-3.266051147655e-04 -2.440881280614e-03 0.0 
7.714161287309e-02 -1.833138678892e-01 0.0 
9.934432741164e-02 -1.791029321648e-01 0.0 
-8.792769794837e-05 -2.245151246826e-03 0.0 
-2.438637326257e-04 -2.247100247575e-03 0.0 
1.067526415058e-03 1.860089820018e-03 0.0 
1.792352355694e-02 1.090191159557e-02 0.0 
9.914248525110e-04 4.995070171454e-04 0.0 
1.299250772543e-03 5.311552935520e-03 0.0 
7.697984493882e-03 1.017970300137e-02 0.0 
1.413176902693e-01 -1.694056202064e-01 0.0 
1.519888840024e-01 -1.855871922651e-01 0.0 
1.551942698766e-01 -1.975565709801e-01 0.0 
1.591054476505e-01 -2.103573900877e-01 0.0 
-1.893462570727e-03 -5.289056903424e-02 0.0 
-1.682204059822e-03 -4.938786440514e-02 0.0 
1.499645592947e-01 -1.910283316369e-01 0.0 
-1.953199206447e-03 -5.057050064675e-02 0.0 
1.534442554465e-01 -2.033868289068e-01 0.0 
8.871000391863e-03 -1.903481132748e-03 0.0 
2.186874737828e-03 -8.947549734974e-04 0.0 
4.981295543650e-03 -1.049770835823e-03 0.0 
8.771589444094e-03 -9.248439209071e-02 0.0 
4.767465312497e-04 -4.521608544701e-02 0.0 
1.998816270703e-03 -9.975850538732e-04 0.0 
1.029881097878e-03 -3.366025734093e-02 0.0 
1.120357470497e-03 -7.629068493896e-04 0.0 
1.178643763296e-03 -2.265189988739e-02 0.0 
7.292091923099e-04 -1.233687081098e-02 0.0 
-2.986887980132e-03 -4.790790312614e-02 0.0 
4.185691008531e-03 -1.892340027371e-03 0.0 
3.119173741199e-03 -1.760491903263e-03 0.0 
2.208524861174e-03 -2.793621174915e-02 0.0 
1.907852955606e-03 -1.717164211558e-02 0.0 
-1.359123480998e-03 -3.442510239763e-02 0.0 
1.661821681546e-01 -2.368943376727e-01 0.0 
-1.182426341223e-02 -6.975325479992e-02 0.0 
1.168853271090e-01 -1.691282569246e-01 0.0 
-1.299294879670e-03 -1.713348060758e-02 0.0 
5.427700627601e-03 -7.663097776537e-02 0.0 
3.134625351505e-03 -2.257732911976e-02 0.0 
8.723408688029e-02 -1.675796930978e-01 0.0 
1.243108356699e-01 -1.573280812255e-01 0.0 
4.946088437852e-03 -1.915275285264e-02 0.0 
-1.903281800289e-02 -5.872754398976e-02 0.0 
-3.937712323191e-03 -4.575541205962e-02 0.0 
3.966767626542e-03 -2.364877203674e-02 0.0 
5.292140231305e-03 -1.293639539258e-03 0.0 
-1.867167140808e-03 -4.505969756140e-02 0.0 
1.663731485474e-02 -5.295069374680e-02 0.0 
5.759739960493e-03 -4.302944389201e-02 0.0 
-1.638594114178e-04 -3.143336846842e-02 0.0 
3.972100336840e-04 -3.308542595079e-02 0.0 
1.573038151184e-01 -1.987802407373e-01 0.0 
1.636265189173e-01 -3.702029265686e-02 0.0 
1.801618582792e-01 -1.324009077683e-01 0.0 
-2.032928459158e-03 -3.090978679541e-02 0.0 
5.447798242848e-03 -2.356708931991e-02 0.0 
1.143663443824e-03 -3.519267924650e-02 0.0 
9.927873906324e-02 -1.745128394630e-01 0.0 
1.033521051752e-02 -1.772220329757e-03 0.0 
1.275650609930e-02 -6.308945343848e-04 0.0 
2.262124833775e-02 8.291081466757e-03 0.0 
-1.480166281138e-03 -2.882144752405e-02 0.0 
-1.161594131925e-03 -3.059491872896e-02 0.0 
6.886094871558e-03 -1.437983992527e-03 0.0 
8.719863235451e-03 -1.141464528742e-03 0.0 
1.249819629758e-02 -5.198092667932e-02 0.0 
5.905666282140e-03 -1.805730286223e-02 0.0 
2.785296841646e-02 5.178682448508e-04 0.0 
1.694516884333e-04 -3.870050750378e-02 0.0 
3.339940642815e-04 -1.435970711727e-02 0.0 
1.220538949711e-02 -1.810313523700e-03 0.0 
2.196323662163e-02 2.340071363132e-03 0.0 
1.561988667315e-02 -5.452703447559e-02 0.0 
5.931475236600e-02 -1.055001881038e-01 0.0 
1.113278053586e-01 -1.823733483639e-01 0.0 
1.224035164152e-01 -1.843997152587e-01 0.0 
1.621289621428e-01 -2.362399810061e-01 0.0 
1.065482322709e-02 -1.230248777315e-03 0.0 
6.037080106768e-03 -2.168150206703e-02 0.0 
1.555562728402e-01 -2.276493848292e-01 0.0 
1.015637542253e-01 -2.823286339776e-02 0.0 
2.646687989539e-02 7.762083422400e-03 0.0 
2.031541567137e-03 -2.412701253071e-02 0.0 
4.327721603854e-03 -2.732824737908e-02 0.0 
9.920547062984e-02 -1.525143984980e-01 0.0 
3.857049811874e-03 -3.006440268865e-02 0.0 
2.549287389245e-02 8.686839358172e-03 0.0 
7.417072613967e-02 -7.391899098544e-02 0.0 
9.235735102656e-04 -1.167194494112e-02 0.0 
3.227587594666e-02 -7.854605456782e-02 0.0 
-1.792130925326e-03 -1.458960669960e-02 0.0 
1.706784494342e-02 1.037025327068e-03 0.0 
3.668329476409e-02 -8.145860274081e-02 0.0 
9.844452707767e-02 -1.687191749103e-01 0.0 
-1.553356433756e-02 -5.531850626447e-02 0.0 
2.936110827622e-02 5.151879151374e-03 0.0 
3.407034808739e-02 -1.180156584730e-01 0.0 
1.266593871654e-02 2.384348280542e-05 0.0 
1.875393183920e-02 2.860395624226e-03 0.0 
-1.374728114179e-02 -4.893264241869e-02 0.0 
-9.459950401334e-04 -3.679757600087e-02 0.0 
2.957540309621e-03 -2.874437388684e-02 0.0 
1.462593476353e-02 8.502701033784e-04 0.0 
9.018432844128e-02 -1.384526126998e-01 0.0 
-2.128446003311e-02 -5.490338166410e-02 0.0 
5.732423607829e-02 -3.838227729591e-02 0.0 
1.982755043530e-02 5.148270886334e-04 0.0 
-1.935996498856e-02 -6.154775597408e-02 0.0 
2.554283789611e-03 -3.871101527499e-02 0.0 
-2.450188267832e-03 -1.777839453028e-02 0.0 
1.923626205147e-02 2.046451026630e-03 0.0 
1.877764782631e-01 -2.402935344400e-01 0.0 
1.226344804285e-01 -1.677066093532e-01 0.0 
1.715724412004e-01 -2.266357580390e-01 0.0 
4.965902955593e-03 -2.203373342180e-02 0.0 
2.420895160761e-02 3.499604132126e-03 0.0 
-1.140357411889e-02 -5.340918553296e-02 0.0 
3.052273866729e-02 7.341069184537e-03 0.0 
9.387587875553e-03 -3.457406542874e-02 0.0 
-1.708401738557e-02 -4.947939683880e-02 0.0 
3.078481619565e-03 -2.659825444261e-02 0.0 
5.150562883690e-02 -9.536953378886e-02 0.0 
-5.975579602546e-04 -1.437302905834e-02 0.0 
-1.809141142809e-02 -5.079991751201e-02 0.0 
2.794452449350e-02 -7.225338993203e-02 0.0 
-2.183370533153e-02 -5.609833317929e-02 0.0 
1.241357222601e-02 -9.564605415048e-02 0.0 
6.175785754485e-02 -1.455764968991e-01 0.0 
-1.448689984631e-02 -5.284022948210e-02 0.0 
1.442132373655e-01 -1.695898662107e-01 0.0 
1.468267644779e-01 -1.793174701527e-01 0.0 
-1.786164400788e-03 -3.271038231134e-02 0.0 
7.329362214006e-02 -1.181772469606e-01 0.0 
-1.173156010360e-03 -2.874906785127e-02 0.0 
-1.350509458713e-03 -3.145785734038e-02 0.0 
4.847160408160e-02 -1.141274547392e-01 0.0 
1.201205848335e-01 -1.756511515447e-01 0.0 
2.450479318998e-02 -4.658363209412e-04 0.0 
2.095661058847e-01 -2.613843428185e-01 0.0 
-7.725771787639e-03 -7.258417434819e-02 0.0 
1.094438197595e-02 -2.988564652667e-02 0.0 
8.070627967652e-02 -1.223347515214e-01 0.0 
2.849997337140e-02 6.015111571294e-03 0.0 
2.942145297492e-02 8.224262678343e-03 0.0 
1.005090521411e-01 -1.723190057994e-01 0.0 
-1.951944599765e-03 -2.222484720734e-02 0.0 
3.410884547585e-02 2.828793008908e-03 0.0 
7.869524547268e-02 -1.284897471964e-01 0.0 
2.645265279462e-02 -1.038523878786e-03 0.0 
2.366217309287e-02 -1.146129467798e-03 0.0 
6.989179356227e-02 -1.281729491746e-01 0.0 
2.532638616679e-01 -1.472407766582e-01 0.0 
7.769856228359e-02 -1.561047310886e-01 0.0 
1.713415413208e-03 -2.794757257736e-02 0.0 
-1.695962817829e-02 -5.226980092295e-02 0.0 
7.762361014591e-02 -1.345080479709e-02 0.0 
2.184247150444e-02 -6.636492176851e-04 0.0 
2.459130800541e-04 -2.791810589112e-02 0.0 
-2.283588933994e-04 -2.715650723348e-02 0.0 
9.352680261985e-02 -1.679585555318e-01 0.0 
1.498617635817e-03 -2.654777358244e-02 0.0 
3.097349903074e-02 2.515208589600e-03 0.0 
-1.651041436932e-02 -5.388694104133e-02 0.0 
2.710674751895e-02 3.880618620515e-03 0.0 
2.806765690015e-02 1.344653755841e-03 0.0 
1.325056317383e-01 -1.461050617314e-01 0.0 
1.972961273852e-02 -1.991702863122e-04 0.0 
-2.088319468166e-02 -5.620956982281e-02 0.0 
-1.852181732961e-02 -5.301543317072e-02 0.0 
1.116571379015e-02 -8.758779360127e-02 0.0 
7.360286475175e-02 -1.369954001869e-01 0.0 
2.764010500542e-02 3.031686884310e-03 0.0 
5.579012304559e-02 -1.014443241438e-01 0.0 
6.443185584458e-02 -1.389015403830e-01 0.0 
1.146738199762e-01 -1.747258418670e-01 0.0 
3.063830171808e-02 3.402157066744e-03 0.0 
6.795344224687e-02 -1.478451032610e-01 0.0 
-2.021963856931e-03 -1.458054815335e-02 0.0 
2.231791469852e-02 1.545273810179e-03 0.0 
1.097456902433e-03 -2.354782339341e-02 0.0 
9.104473792425e-03 -1.211525759606e-02 0.0 
-2.066109636891e-02 -5.783483029193e-02 0.0 
7.312019792863e-02 -1.390750422284e-01 0.0 
1.079047764986e-01 -1.711528057795e-01 0.0 
-1.414597956322e-03 -2.716199840888e-02 0.0 
2.084283487479e-02 4.000128438053e-03 0.0 
1.219720857836e-01 -1.728459502062e-01 0.0 
2.577046345633e-02 -1.094441501464e-01 0.0 
4.598295433315e-02 -9.327178120845e-02 0.0 
3.241182003115e-02 5.589045527052e-03 0.0 
4.526557223732e-03 -8.519805168746e-02 0.0 
-5.070356208716e-04 -3.317992125991e-02 0.0 
3.423776990005e-03 -7.376268627876e-02 0.0 
1.495311245324e-02 -5.412942988561e-04 0.0 
5.081017015158e-02 -1.348940062127e-01 0.0 
-8.593512147291e-04 -3.144625022502e-02 0.0 
1.054663443077e-01 -1.810880279789e-01 0.0 
-1.007671994257e-03 -3.127920195246e-02 0.0 
-1.753941748747e-02 -5.621683833450e-02 0.0 
-7.889677944842e-04 -2.514009729011e-02 0.0 
1.366091283225e-01 -1.902539586667e-01 0.0 
5.647393695280e-02 -1.008900476207e-01 0.0 
2.467573329591e-02 6.453741875061e-03 0.0 
5.111579362343e-02 -8.731847822862e-02 0.0 
1.663919929840e-01 -9.080324619981e-02 0.0 
2.357088007304e-02 4.345716609452e-03 0.0 
1.104942729852e-01 -1.764023856969e-01 0.0 
4.297949022847e-02 5.766855384734e-03 0.0 
7.169571801836e-02 -1.151782064964e-01 0.0 
-2.508343643659e-03 -2.003237300999e-02 0.0 
5.141895296700e-02 -7.980979372370e-02 0.0 
7.326935335035e-02 -6.378593735552e-02 0.0 
1.974067290366e-02 -1.870272182514e-03 0.0 
4.182581775225e-02 -8.608351347628e-02 0.0 
9.223128592688e-02 -1.471255134200e-01 0.0 
1.391860769967e-02 -5.357024261177e-02 0.0 
-2.302266607907e-03 -1.820977350879e-02 0.0 
1.056424910176e-01 -1.595854684972e-01 0.0 
9.026099765982e-05 -2.520698578750e-02 0.0 
2.509698717096e-02 1.855874842968e-03 0.0 
1.334895597888e-01 -1.882644590244e-01 0.0 
3.770362392039e-03 -3.989384833943e-02 0.0 
4.305376131925e-02 9.201299949168e-03 0.0 
2.965731038302e-02 -7.788305656336e-02 0.0 
4.614759883914e-02 -1.305086387122e-01 0.0 
1.790047713277e-01 -1.028603157088e-01 0.0 
-1.785577507282e-03 -2.789768891775e-02 0.0 
1.733385995930e-01 -7.435994921664e-02 0.0 
1.804549470850e-01 -1.166304018151e-01 0.0 
3.694904761802e-02 4.111795085753e-03 0.0 
2.560754107956e-02 5.589963517761e-03 0.0 
4.427103366276e-02 8.201951792213e-03 0.0 
-2.007845667056e-02 -5.553090535913e-02 0.0 
1.134136930059e-03 -2.884279445637e-02 0.0 
2.751228369411e-02 -6.997148501674e-02 0.0 
3.360924273540e-02 7.839270228524e-03 0.0 
9.993402530330e-02 -3.093095105197e-02 0.0 
7.102667620323e-02 -5.394828491986e-02 0.0 
6.426984777261e-05 -3.367470041496e-02 0.0 
2.518934175303e-02 1.055790191643e-03 0.0 
5.835827072574e-02 -1.256061534158e-01 0.0 
5.138350472608e-02 -1.297041482591e-01 0.0 
9.348315177634e-02 -1.621831097228e-01 0.0 
1.482170094508e-02 -5.459309356278e-02 0.0 
3.073554874358e-02 -1.117291936380e-01 0.0 
3.633105544138e-02 5.084308778328e-03 0.0 
4.205044993461e-02 6.826129992880e-03 0.0 
1.120077014437e-01 -1.392545188208e-01 0.0 
6.972189990946e-02 -1.492328250162e-01 0.0 
1.617684587244e-01 -2.110682989029e-01 0.0 
5.373214671946e-02 -1.363434727726e-01 0.0 
5.966078996663e-02 -1.332009665698e-01 0.0 
8.502738527730e-02 -1.561508669526e-01 0.0 
7.879891555772e-03 -3.826139581595e-02 0.0 
7.181418930044e-02 -1.205505155325e-01 0.0 
2.231233158381e-02 3.119178390865e-05 0.0 
7.150106888497e-02 -1.183471423365e-01 0.0 
1.854255784790e-02 -5.931297774304e-02 0.0 
4.658119808098e-02 -9.137782333010e-02 0.0 
1.799920714703e-01 -1.425260402844e-01 0.0 
8.397060732463e-02 -1.480647409703e-01 0.0 
-9.757865778163e-04 -2.327112645139e-02 0.0 
-9.701259250486e-04 -1.908870166340e-02 0.0 
1.632040255862e-01 -7.612171451681e-02 0.0 
6.587346151242e-02 -1.282169538796e-01 0.0 
3.211530229277e-02 -7.517497246423e-02 0.0 
3.315565598654e-02 4.688255178627e-03 0.0 
3.885477609836e-02 -1.096009689978e-01 0.0 
1.711124258443e-01 -1.185039539335e-01 0.0 
4.463785817961e-02 -1.260325217593e-01 0.0 
1.147107267135e-01 -1.727998509935e-01 0.0 
6.415878365425e-02 -1.211246169173e-01 0.0 
5.206395917058e-02 -1.277714495677e-01 0.0 
5.139158105423e-02 -1.039117892331e-01 0.0 
4.119277032192e-02 -8.569370227038e-02 0.0 
6.963361380873e-03 -4.442877455601e-02 0.0 
9.521679527260e-02 -3.735570368083e-02 0.0 
1.487685255609e-01 -1.746473478715e-01 0.0 
8.721810830930e-02 -1.361534144330e-01 0.0 
8.061813988730e-02 -1.278225310503e-01 0.0 
7.009553834087e-02 -1.237647752473e-01 0.0 
3.874681830386e-02 6.443010456635e-03 0.0 
6.014931888875e-02 -1.066650845341e-01 0.0 
3.167540223611e-02 -1.130756459323e-01 0.0 
6.739457729249e-02 -1.177138247467e-01 0.0 
1.730445525036e-02 3.001989420235e-04 0.0 
2.495766757221e-02 -1.016672918502e-01 0.0 
1.163585563620e-01 -1.640471200075e-01 0.0 
1.014877430385e-01 -1.610041789839e-01 0.0 
1.077038620338e-01 -1.650131793849e-01 0.0 
7.466845809560e-02 -1.438387526037e-01 0.0 
7.845041001382e-02 -1.262278432292e-01 0.0 
6.821441285436e-02 -1.154008676390e-01 0.0 
1.184494162984e-01 -1.900697041213e-01 0.0 
1.012926551417e-01 -1.540327086634e-01 0.0 
5.845847402397e-02 9.020194913253e-03 0.0 
4.742750661025e-02 -1.160440523067e-01 0.0 
9.995043297972e-03 -4.379372493299e-02 0.0 
1.057419187645e-01 -4.467842492410e-02 0.0 
1.060733556151e-01 -9.433726060708e-03 0.0 
4.051670097559e-02 -2.873255456006e-04 0.0 
8.311522562504e-02 -3.063065278476e-02 0.0 
1.284886752652e-01 -1.490211431374e-01 0.0 
1.198987628538e-01 -5.111045765242e-02 0.0 
1.237302049663e-01 -1.864623454218e-01 0.0 
5.243678078482e-02 -1.036417293767e-01 0.0 
1.735986594041e-01 -1.652555176402e-01 0.0 
1.514804077092e-01 -2.030213061211e-01 0.0 
1.324585185252e-01 -2.005335840736e-01 0.0 
4.046415750194e-02 -1.175828493637e-01 0.0 
7.822409871175e-02 -1.254561319074e-01 0.0 
7.643632121867e-02 -1.236312762825e-01 0.0 
3.328367095538e-02 -1.028967704161e-01 0.0 
5.964528829814e-02 -1.055688750763e-01 0.0 
8.496971096758e-02 -1.331254283881e-01 0.0 
8.539899012911e-02 -1.346738498141e-01 0.0 
6.824157409715e-02 -1.426551194504e-01 0.0 
6.235928244411e-02 -7.759598223802e-02 0.0 
4.029385077437e-02 4.411222155914e-03 0.0 
9.634396175497e-02 -1.461715718459e-01 0.0 
3.432452779312e-03 -3.075727583209e-02 0.0 
1.277161433315e-01 -1.843442984531e-01 0.0 
6.515699991352e-03 -2.265899310992e-02 0.0 
6.983235133005e-02 -1.166536449671e-01 0.0 
6.899159207940e-02 -2.301132873048e-02 0.0 
1.505404712801e-01 -4.889671288368e-02 0.0 
1.163615895967e-01 -1.783484864602e-01 0.0 
1.152771252998e-01 -1.751892289104e-02 0.0 
5.682049230329e-02 -3.437691562166e-03 0.0 
6.759958221091e-02 -1.149340371975e-01 0.0 
1.691132053653e-01 -1.602288410814e-01 0.0 
1.246392164169e-01 -2.659994810611e-02 0.0 
1.711117844162e-01 -9.245415223492e-02 0.0 
1.249844992946e-01 -1.922126004159e-01 0.0 
2.624389842010e-02 -4.807796209477e-03 0.0 
1.187631112294e-01 -1.959025713115e-01 0.0 
3.454322486386e-02 -3.008838040882e-02 0.0 
1.634561387850e-02 -1.612225619341e-03 0.0 
5.171207270229e-02 -7.117081974267e-02 0.0 
3.463718919445e-02 6.950478990959e-03 0.0 
4.094361484779e-02 9.858588620544e-04 0.0 
8.277213549686e-02 -1.317903969413e-01 0.0 
9.834765634422e-02 -1.194565648179e-01 0.0 
3.463573289119e-02 -2.604548780336e-03 0.0 
5.028778894229e-04 -3.417210364360e-02 0.0 
4.434176597089e-02 3.456490186016e-03 0.0 
4.422180125087e-02 -7.914223047705e-02 0.0 
1.296749005811e-01 -1.896068568634e-01 0.0 
4.850374668930e-02 2.134413524132e-03 0.0 
3.324311799366e-02 -1.287044159972e-02 0.0 
2.369735033758e-04 -1.973713992285e-02 0.0 
5.886045185710e-02 -1.081475003071e-01 0.0 
3.779678801232e-02 7.408390320841e-03 0.0 
3.988314729956e-02 8.790858014042e-03 0.0 
6.729114017190e-02 -1.137359101640e-01 0.0 
7.853887356742e-03 -4.535706392561e-02 0.0 
8.790062223915e-03 -4.528199612524e-02 0.0 
1.089271182395e-01 -1.656134247730e-01 0.0 
1.628447416963e-01 -2.185653777978e-01 0.0 
9.680441205527e-02 -1.427032073257e-01 0.0 
9.278581723928e-02 -1.428181848128e-01 0.0 
1.787280057456e-01 -1.220143101326e-01 0.0 
2.916380472844e-02 -3.256207577882e-03 0.0 
9.508553280512e-02 -2.408943544836e-02 0.0 
1.863035287670e-02 -1.454991037451e-03 0.0 
1.624381418708e-01 -5.659577264129e-02 0.0 
6.149660197894e-02 -8.107315656496e-04 0.0 
4.619497940758e-03 -4.093548005011e-02 0.0 
2.503041275554e-02 -1.763809128024e-03 0.0 
5.597614676947e-02 3.193980792762e-03 0.0 
5.521496989944e-02 -1.022484079880e-01 0.0 
1.127421688839e-01 -1.561077345492e-01 0.0 
4.466459675186e-02 2.199974353944e-03 0.0 
3.597893063990e-02 -1.301632550274e-03 0.0 
3.422001974629e-02 1.873937131209e-03 0.0 
4.077249056828e-02 3.320918693436e-03 0.0 
-1.886777073139e-03 -2.539546573134e-02 0.0 
4.432592121142e-02 -3.494236809123e-02 0.0 
2.086480337205e-03 -3.306194120503e-02 0.0 
1.746406504793e-02 -5.798679918250e-02 0.0 
2.034850883943e-01 -2.359552909579e-02 0.0 
5.156435012592e-02 -6.202856599363e-02 0.0 
7.826775676580e-02 -2.111102214638e-03 0.0 
5.656699891788e-02 -1.162720500682e-01 0.0 
9.233845352270e-02 -1.402624621722e-01 0.0 
7.408449195484e-02 -1.171646708547e-01 0.0 
8.596637740481e-02 -1.011957007741e-01 0.0 
1.628329348448e-01 -2.162293196007e-01 0.0 
1.062094304117e-01 -1.529037851950e-01 0.0 
7.395869266232e-02 -8.398466463557e-02 0.0 
1.363937330215e-01 -2.735032953271e-02 0.0 
4.546734629722e-02 -9.134352653797e-02 0.0 
5.776739922957e-02 6.081064251628e-03 0.0 
3.655914215690e-02 1.174112008921e-02 0.0 
2.203131911998e-01 -2.658675756312e-01 0.0 
2.669103379481e-02 -6.893302176126e-02 0.0 
4.470950680072e-02 -6.357818487235e-02 0.0 
8.382236669843e-02 -1.932379525532e-02 0.0 
1.014813587258e-01 -1.287304993056e-01 0.0 
3.101312149524e-02 -7.415744171359e-02 0.0 
4.648441994658e-02 6.014567958878e-03 0.0 
2.459791176513e-01 -2.342647562655e-01 0.0 
5.522858796614e-02 -7.025849207918e-02 0.0 
8.402078665874e-02 -1.106512003724e-01 0.0 
1.340489822248e-01 -2.557057794470e-02 0.0 
5.436066814401e-03 -4.130448080892e-02 0.0 
1.455060342321e-01 -1.978696173802e-01 0.0 
6.499947928658e-03 -4.050875169779e-02 0.0 
4.926151706485e-03 -2.718136688298e-02 0.0 
6.614609980340e-02 -7.641609878189e-02 0.0 
3.753886168238e-02 2.066635745576e-03 0.0 
9.093859167109e-02 -4.799808820836e-02 0.0 
2.529628699861e-03 -2.583404608655e-02 0.0 
2.865068283853e-01 -1.801051761890e-01 0.0 
5.112825969493e-02 4.835578136369e-03 0.0 
4.998009729070e-02 -3.154005148086e-02 0.0 
3.738715518092e-02 9.880917462668e-04 0.0 
7.751050192029e-02 -9.285515139671e-02 0.0 
1.086506673765e-01 -1.472646622779e-01 0.0 
-5.643659249783e-03 -4.388643872815e-02 0.0 
1.855650708060e-01 -2.372727134165e-01 0.0 
3.031228929277e-02 -1.425317758688e-04 0.0 
3.655647314405e-02 -9.020558874078e-02 0.0 
3.263623391799e-01 -1.338944043551e-01 0.0 
1.088156043159e-01 -5.403889325431e-02 0.0 
1.737117437303e-02 -1.981320855422e-03 0.0 
1.418052539258e-01 -1.981595720794e-01 0.0 
1.762577335454e-01 -9.063094833641e-02 0.0 
5.194111970818e-02 3.432001269935e-03 0.0 
2.105323508222e-02 -6.652619360717e-02 0.0 
1.603115957892e-01 -2.122188117282e-01 0.0 
1.682573683573e-01 -1.691256884167e-01 0.0 
1.388361259439e-01 -2.035713804603e-01 0.0 
1.483182905544e-01 -2.031962316949e-01 0.0 
1.436637392156e-01 -2.030274628889e-01 0.0 
8.936942923243e-02 -1.104240251883e-01 0.0 
2.259904611112e-02 -5.292689029609e-03 0.0 
3.480332958443e-01 -8.771732063737e-02 0.0 
-2.738120525160e-03 -2.053766813705e-02 0.0 
1.444116996077e-01 -1.787402968554e-01 0.0 
6.324868467275e-02 3.917247952433e-03 0.0 
1.756553938902e-01 -2.292739828324e-01 0.0 
3.955316835981e-03 -2.158760424140e-02 0.0 
1.373068023282e-01 -1.983949082442e-01 0.0 
1.152011516952e-02 -7.436398179681e-02 0.0 
6.585318264208e-02 -6.660018938545e-02 0.0 
7.408479835311e-02 -1.219941477436e-01 0.0 
5.500380385241e-02 -3.962312792619e-02 0.0 
1.725128055114e-01 -1.225427977244e-01 0.0 
7.479347484688e-02 -2.759020006069e-03 0.0 
3.597769198123e-02 -2.883184138498e-02 0.0 
4.736805589508e-02 4.794506222639e-03 0.0 
8.958251578830e-02 -2.346369784792e-02 0.0 
5.277205717006e-02 4.389894125855e-04 0.0 
5.711744273200e-02 -1.752071579969e-03 0.0 
1.758492435896e-01 -2.301710692553e-01 0.0 
-2.512188156479e-03 -2.230358139694e-02 0.0 
5.666569397836e-02 1.594225077541e-03 0.0 
1.357860615916e-01 -1.339132838821e-01 0.0 
3.400868199182e-01 -4.461227807705e-02 0.0 
2.931000830155e-02 -2.197597425396e-02 0.0 
1.645007352780e-01 -2.227383515812e-01 0.0 
2.758805535284e-02 -8.941856768526e-02 0.0 
6.154808742879e-02 -4.725214169163e-02 0.0 
1.342292765824e-02 -7.993385686116e-02 0.0 
1.838757795483e-01 -1.285513311128e-01 0.0 
5.484575589769e-02 -6.089655605006e-02 0.0 
5.143009924188e-02 -4.228435839282e-03 0.0 
5.516291468229e-02 -7.002926071574e-03 0.0 
6.229681109719e-02 -6.794659867947e-02 0.0 
4.437907313265e-02 -4.664661958396e-04 0.0 
1.498929733735e-01 -1.694407364323e-01 0.0 
1.153185140116e-01 -4.773792130282e-02 0.0 
2.991901217229e-01 -1.231578064934e-02 0.0 
1.024099975077e-01 -3.247303148849e-02 0.0 
2.236229585418e-01 2.180390358221e-02 0.0 
1.748942431916e-01 2.584314438147e-02 0.0 
1.200110034911e-01 -1.404294519614e-01 0.0 
1.210729527825e-01 1.939399149067e-02 0.0 
1.389069313623e-01 -1.003131668457e-01 0.0 
1.745167721322e-01 -1.565288745404e-01 0.0 
9.340398840777e-02 -1.354483497051e-01 0.0 
1.637220010566e-01 -2.154165114770e-01 0.0 
1.160835719880e-01 -1.493280627907e-01 0.0 
3.252930705127e-02 -1.097245733765e-03 0.0 
9.551667758629e-02 -2.884828846005e-02 0.0 
-2.176765774622e-03 -2.736275107652e-02 0.0 
4.619374986819e-02 -3.366294645227e-02 0.0 
7.615812649444e-02 -1.245287154109e-01 0.0 
5.269841786550e-02 -1.109867501126e-03 0.0 
9.871750525681e-02 -1.368058553032e-01 0.0 
-1.178307508311e-03 -1.935318977445e-02 0.0 
4.864513694229e-02 7.411573820033e-04 0.0 
6.608999931983e-02 -1.914096865484e-03 0.0 
6.565228210762e-02 -8.602090374017e-02 0.0 
1.290196327938e-01 -1.569690026663e-01 0.0 
9.199199958738e-02 -3.704989411718e-02 0.0 
1.444599094829e-01 -4.290044318761e-02 0.0 
1.598310374370e-01 -2.118226497441e-01 0.0 
1.649603806146e-01 -2.217611472340e-01 0.0 
1.701857688104e-01 -1.256778255417e-01 0.0 
1.723878619249e-01 -8.187065414838e-02 0.0 
6.163961269096e-04 -1.701572447986e-02 0.0 
6.097121392074e-02 9.867081781486e-04 0.0 
1.246178315639e-01 -1.584508554602e-01 0.0 
1.797591922851e-01 -8.334423850856e-02 0.0 
4.434875312984e-02 -5.473936672682e-02 0.0 
3.351061772009e-02 -8.070584487926e-05 0.0 
8.107875901625e-02 -3.075983794504e-02 0.0 
6.596218288687e-02 5.118467801649e-03 0.0 
2.299328519412e-02 -4.590820237777e-02 0.0 
9.562406715041e-02 -1.283452363008e-01 0.0 
4.101042506848e-02 -5.537665794204e-02 0.0 
1.837327326300e-01 -1.205242547434e-01 0.0 
3.849704922512e-02 -2.907778008608e-03 0.0 
6.725549271743e-02 -2.357143818450e-02 0.0 
7.609814163571e-02 -1.022792316067e-01 0.0 
1.678773075461e-01 -2.234246803459e-01 0.0 
7.884451186328e-02 -4.191036682730e-02 0.0 
1.553409968963e-01 -1.036550628492e-01 0.0 
1.392771863063e-01 -1.671491597060e-01 0.0 
7.299090872487e-02 -9.371150704518e-02 0.0 
1.784273780064e-02 -4.960213857497e-02 0.0 
1.676464940821e-01 -2.215375263081e-01 0.0 
8.714172219511e-02 -1.192984769972e-01 0.0 
1.187931993430e-01 -2.195081899043e-02 0.0 
1.725809907376e-03 -1.725009236406e-02 0.0 
1.284494033882e-01 -3.131173709231e-02 0.0 
9.356582050860e-02 -4.658760664482e-02 0.0 
1.096422098745e-01 -1.348291394399e-02 0.0 
9.208575323276e-02 -8.923029005738e-04 0.0 
1.555244435963e-01 -5.477319104484e-02 0.0 
5.043615503688e-02 -4.239977021449e-02 0.0 
-2.512263117880e-03 -2.536350922689e-02 0.0 
6.446992947813e-02 2.043079033594e-03 0.0 
5.010239160154e-02 -5.750364901175e-03 0.0 
1.006503325854e-01 -6.373311560160e-03 0.0 
1.505534633819e-01 -1.971094984025e-01 0.0 
6.922764549536e-02 -3.510053572628e-02 0.0 
2.790873858486e-02 -1.884356913992e-03 0.0 
1.664221407737e-01 -1.331364135392e-01 0.0 
1.698505130218e-01 -1.198803117211e-01 0.0 
1.353032832095e-01 -1.759906312362e-01 0.0 
7.001724679139e-02 -1.157930002353e-03 0.0 
1.626645770677e-01 -7.565101171208e-02 0.0 
1.304715826386e-01 -9.505082815205e-02 0.0 
1.650630423633e-01 -8.569657861308e-02 0.0 
6.440150037026e-02 -5.681231426600e-02 0.0 
4.778451681253e-02 -2.310831833324e-02 0.0 
1.213242106097e-01 -1.656016264824e-01 0.0 
1.829346980530e-01 -2.349673162879e-01 0.0 
6.638827573412e-02 -1.166398427754e-02 0.0 
1.563624117794e-01 -6.042216426289e-02 0.0 
7.452441316904e-02 -1.217488347254e-01 0.0 
5.751880440228e-02 -2.933152103682e-02 0.0 
6.892256500789e-02 1.001806152927e-03 0.0 
-5.976029710997e-04 -3.141939361066e-02 0.0 
1.682587088012e-01 -1.694109651562e-01 0.0 
1.842790036610e-01 -2.369269682242e-01 0.0 
3.479866212890e-03 -1.534946755087e-02 0.0 
1.814643003929e-01 -9.627524409679e-02 0.0 
8.757869270764e-02 -7.014025673644e-02 0.0 
7.612439803658e-02 -3.051672795719e-02 0.0 
1.880174031550e-01 -2.418190024525e-01 0.0 
1.101196537895e-03 -3.413018690048e-02 0.0 
1.661420246743e-01 -1.950720579338e-01 0.0 
7.027783710471e-02 4.105112511109e-03 0.0 
1.003850216690e-02 -5.039822864691e-02 0.0 
1.257669686783e-01 -1.658813468807e-01 0.0 
-1.941685262667e-04 -1.924875558780e-02 0.0 
1.392392280390e-01 -9.392158318672e-02 0.0 
1.399181516800e-01 -1.857274286247e-01 0.0 
1.831850323149e-01 -9.386042207647e-02 0.0 
1.801326560646e-01 -2.361367270180e-01 0.0 
1.234311068109e-01 -5.695066905661e-02 0.0 
6.121744082496e-02 -5.827715597924e-02 0.0 
5.574576608456e-02 -1.743186124373e-02 0.0 
1.012024468146e-01 -4.484168090697e-02 0.0 
1.583024482503e-01 -2.143834014962e-01 0.0 
-2.031050225146e-03 -2.620968823175e-02 0.0 
2.588643401074e-02 -2.740402528047e-03 0.0 
2.324669735236e-02 -1.514985015586e-02 0.0 
5.884826727004e-02 -4.874936234097e-02 0.0 
1.436523763341e-01 -1.563444979866e-01 0.0 
1.461543440443e-01 -7.045864965230e-02 0.0 
3.946307432739e-03 -1.833698491841e-02 0.0 
-1.220372499465e-02 -5.480403321953e-02 0.0 
1.143113860189e-01 -5.374138868989e-02 0.0 
5.906042190647e-02 4.460632812208e-03 0.0 
-1.873435596186e-03 -2.177307550328e-02 0.0 
4.172435595569e-05 -3.066089172404e-02 0.0 
1.517403811330e-02 1.003027384933e-02 0.0 
1.015211182226e-02 9.682047451659e-03 0.0 
1.162845274762e-01 -2.199757938166e-02 0.0 
1.267605552396e-01 -6.087952403698e-02 0.0 
4.207808144779e-04 -3.816744154675e-02 0.0 
1.541170404319e-01 -5.449116817119e-02 0.0 
1.395948365116e-01 -1.071497644703e-01 0.0 
2.394024092933e-02 -3.323065468439e-02 0.0 
1.557215240383e-01 -1.585263571473e-01 0.0 
1.898661845146e-02 -4.310501571616e-03 0.0 
9.010818387080e-02 2.796912860097e-03 0.0 
1.544366493138e-01 -1.169834296832e-01 0.0 
1.551874615762e-02 -5.632587017024e-02 0.0 
1.626794625718e-01 -2.201913119724e-01 0.0 
3.888268825097e-02 -8.537394874253e-02 0.0 
1.674849386435e-01 -8.630593177917e-02 0.0 
1.685048912940e-01 -7.006081895646e-02 0.0 
7.201697442035e-02 1.862619781226e-03 0.0 
1.591218361607e-01 -6.043346409909e-02 0.0 
1.569259328883e-01 -5.997526751961e-02 0.0 
5.764119926235e-02 -1.242925623096e-01 0.0 
4.220664078092e-02 -9.177305926210e-02 0.0 
1.599868518564e-01 -7.089565111325e-02 0.0 
1.366566534052e-01 -3.682213502066e-02 0.0 
1.346798627741e-01 -3.656097767107e-02 0.0 
4.055964058801e-02 -3.753347219579e-02 0.0 
4.651338214150e-03 -6.760160067069e-02 0.0 
1.689175296454e-01 -2.212807895526e-01 0.0 
1.834199987296e-01 -1.077167669397e-01 0.0 
3.405969632740e-02 -8.589816064446e-02 0.0 
1.867091089603e-01 1.843828333175e-02 0.0 
1.367533851244e-01 1.773884707781e-02 0.0 
7.658593812277e-02 3.508014173760e-04 0.0 
1.904619771383e-01 -2.412063155875e-01 0.0 
1.197800031106e-02 -5.503186932250e-02 0.0 
4.113723235678e-02 -6.386784328897e-02 0.0 
1.703206836154e-01 -2.233912965112e-01 0.0 
2.607437138902e-02 -1.029583179074e-02 0.0 
4.789504363597e-02 -2.125235764653e-03 0.0 
-1.420620367547e-03 -5.135708328457e-02 0.0 
-1.727795008111e-03 -2.367994048846e-02 0.0 
9.940709499564e-02 -1.551772796027e-01 0.0 
4.081638475943e-02 -7.152857152179e-02 0.0 
1.852553801111e-01 -1.044725416016e-01 0.0 
8.280460633012e-02 -1.472233595042e-01 0.0 
4.370261913088e-02 -1.784002428784e-03 0.0 
1.746344497691e-01 -2.279166753424e-01 0.0 
1.428206597252e-01 -4.247051770941e-02 0.0 
1.728190008720e-01 -7.889019177365e-02 0.0 
8.130346914062e-02 -1.294329119767e-01 0.0 
4.469752183807e-02 -8.849773589197e-02 0.0 
4.692367544105e-02 -3.558184120611e-03 0.0 
3.251007763643e-02 -7.275129183472e-02 0.0 
1.712618241055e-01 -1.075926890771e-01 0.0 
1.856282933127e-01 -1.157908615795e-01 0.0 
2.145823148896e-01 -2.725271017903e-01 0.0 
1.780133758629e-01 -2.307776347432e-01 0.0 
8.366557892564e-02 -3.955245150604e-02 0.0 
9.054949061129e-02 -1.936401390099e-03 0.0 
7.142148372020e-02 -3.415310196857e-02 0.0 
1.671786181232e-01 -1.870111577577e-01 0.0 
9.925081798469e-02 -1.973251024615e-02 0.0 
7.447829392783e-02 -3.140760818975e-02 0.0 
1.156566733951e-01 7.765368131392e-03 0.0 
8.580642352876e-02 -3.810403033261e-02 0.0 
-8.566921284093e-04 -2.334604005569e-02 0.0 
1.325732804393e-01 -7.117578258394e-02 0.0 
2.840169338883e-02 -7.312284538710e-02 0.0 
2.480670260839e-02 -6.755616262576e-02 0.0 
7.217816720878e-02 -1.415842980475e-02 0.0 
5.646156441576e-02 -1.025664465646e-01 0.0 
1.784096044145e-01 -8.523566394136e-02 0.0 
1.273318893696e-01 -1.188301291444e-01 0.0 
2.092639726780e-02 -5.628963858855e-02 0.0 
1.518192187171e-01 -1.308199255769e-01 0.0 
1.513637250486e-01 -2.062737081625e-01 0.0 
7.476246690885e-02 -1.105682481121e-01 0.0 
1.532041052130e-01 -2.044692057305e-01 0.0 
1.474938183579e-01 -4.818476453184e-02 0.0 
1.473200131616e-01 -2.006334148583e-01 0.0 
1.618538903647e-01 -6.099343182987e-02 0.0 
4.810434153084e-02 -4.373433529521e-02 0.0 
5.333239421870e-02 -5.154876913493e-02 0.0 
1.614560922012e-01 -1.463074479591e-01 0.0 
7.920030639721e-02 1.042966971231e-03 0.0 
-1.819373444106e-05 -2.133474088386e-02 0.0 
1.056726504258e-03 -2.146963572419e-02 0.0 
2.130020118513e-01 -2.631647378080e-01 0.0 
1.674021436867e-01 -6.721500600893e-02 0.0 
2.403182870071e-03 -1.479107925479e-02 0.0 
2.895637086690e-01 -8.445534982810e-02 0.0 
-3.635097756809e-03 -3.956771494961e-02 0.0 
2.188691004144e-01 -2.708071537024e-01 0.0 
1.990165492898e-03 -1.961801831232e-02 0.0 
1.603001848165e-01 -2.163256751785e-01 0.0 
-1.009724929900e-02 -5.394142404725e-02 0.0 
9.231646189041e-02 -6.895618922866e-02 0.0 
8.381001511751e-02 -7.584118667343e-04 0.0 
8.586830307639e-02 -9.377703651973e-05 0.0 
1.703594600564e-01 -9.661880243464e-02 0.0 
2.721274992845e-01 -8.979153676541e-03 0.0 
2.325915387107e-01 8.943647397599e-03 0.0 
3.133979675442e-03 -2.014652257059e-02 0.0 
4.051653255393e-02 -8.230910178151e-02 0.0 
7.086458790972e-02 -1.159583479191e-01 0.0 
4.454922247946e-02 -7.191431823140e-02 0.0 
8.537887794872e-02 -1.265298502360e-01 0.0 
1.592455536662e-01 -2.120517727170e-01 0.0 
2.657849736492e-01 7.019372143753e-03 0.0 
8.855127839511e-02 1.592897876288e-03 0.0 
1.281417938037e-02 1.046942286606e-02 0.0 
5.051708083632e-02 -5.282175991173e-02 0.0 
1.480007947101e-01 -1.441494830499e-01 0.0 
3.089678450161e-02 -2.142720891388e-02 0.0 
4.948714443844e-03 -2.800359184490e-02 0.0 
8.221004984246e-02 -1.188405965305e-01 0.0 
1.883348535589e-03 -1.186894919445e-02 0.0 
1.314051817243e-01 -1.846957377877e-01 0.0 
4.089821203469e-02 -2.612161006483e-02 0.0 
1.541576094677e-01 -9.166485527036e-02 0.0 
1.261739700627e-01 -7.314511466189e-02 0.0 
2.022064684515e-02 -3.874717855757e-02 0.0 
7.727373075087e-02 -1.318229881898e-01 0.0 
1.740761772937e-01 -7.507059974737e-02 0.0 
8.112563609205e-02 -1.251903829861e-01 0.0 
1.684124798451e-01 -6.813265236299e-02 0.0 
1.673800333666e-01 -1.790320657342e-01 0.0 
1.054781303996e-01 -6.490634711328e-02 0.0 
8.468478801852e-02 -1.316681373017e-01 0.0 
3.812496135976e-03 -4.173485653896e-02 0.0 
1.628732774532e-01 -6.105861189885e-02 0.0 
2.126046352548e-01 -2.714817274295e-01 0.0 
1.088840718545e-01 -9.740337950791e-02 0.0 
2.321712717106e-01 -2.697356296608e-01 0.0 
1.095962645296e-01 -1.525046751628e-01 0.0 
3.205542432795e-04 -4.161047647255e-02 0.0 
1.051970168027e-01 -4.040340841507e-02 0.0 
9.346922784292e-02 -4.729359355756e-03 0.0 
3.267037186192e-01 -3.871392291457e-02 0.0 
1.011561805960e-02 -2.407020438868e-03 0.0 
2.121108531108e-01 -2.733723183744e-01 0.0 
3.036281644018e-01 -2.493741915425e-02 0.0 
6.442834910552e-02 -1.085044111015e-01 0.0 
-1.022063387780e-02 -4.393696549504e-02 0.0 
1.669331472015e-01 -2.072081815417e-02 0.0 
1.109433241576e-01 -1.612538895501e-01 0.0 
5.221407970575e-02 -9.717606421715e-02 0.0 
1.508682866668e-01 -8.086701463253e-02 0.0 
9.329219636509e-02 -7.940748491143e-02 0.0 
1.170815112837e-01 -3.967107733453e-02 0.0 
1.988092737984e-01 -2.511465692388e-01 0.0 
5.919154591089e-03 -5.523941517382e-02 0.0 
-9.911360294768e-03 -4.108085159007e-02 0.0 
7.701210383691e-02 -1.567601237238e-01 0.0 
9.364378352216e-02 5.940901959074e-03 0.0 
9.863304748799e-02 -7.169780177155e-03 0.0 
-2.170163665333e-03 -4.573960496595e-02 0.0 
9.288808119580e-02 -1.581401189284e-01 0.0 
1.921512246707e-01 -2.451869481498e-01 0.0 
9.485848840372e-02 -1.757270142363e-01 0.0 
-1.243061351624e-02 -4.475600784050e-02 0.0 
1.192867726842e-01 -1.697833908003e-01 0.0 
1.195707687220e-01 -1.703564033382e-01 0.0 
1.464600858511e-01 -2.007651534525e-01 0.0 
-4.524300456834e-03 -3.564898915162e-02 0.0 
1.104065929519e-01 -1.808248561977e-02 0.0 
-1.070266463002e-02 -4.362344145705e-02 0.0 
1.234035811765e-01 -1.720038425770e-01 0.0 
1.740852282239e-01 -7.421813346229e-02 0.0 
5.517002721534e-02 1.153721675227e-02 0.0 
7.431137467199e-02 -5.250890957348e-02 0.0 
-1.379387934803e-02 -4.760119820758e-02 0.0 
-6.223588366778e-03 -3.711159902519e-02 0.0 
3.478406034985e-01 -8.196699977385e-02 0.0 
1.052751535211e-01 -1.558857571560e-01 0.0 
-1.210667737920e-02 -4.645911182177e-02 0.0 
2.246322167949e-03 2.629021319837e-03 0.0 
2.478046525435e-03 4.334209942404e-03 0.0 
3.412984372662e-01 -6.136320355342e-02 0.0 
-4.832332645914e-03 -3.549270758469e-02 0.0 
1.077686711161e-01 -1.561924567919e-01 0.0 
2.578940706573e-01 -2.617748496358e-01 0.0 
3.943229683806e-02 -2.700365440594e-02 0.0 
1.068480059444e-01 -1.861740841692e-01 0.0 
1.001898007137e-01 -1.482865942117e-01 0.0 
1.214150245728e-01 -1.073352015527e-01 0.0 
3.242669585369e-01 -2.555812190353e-02 0.0 
-1.324891168644e-02 -5.008100297792e-02 0.0 
2.385472540080e-03 -4.853717178018e-02 0.0 
8.848736751601e-02 4.725493619427e-03 0.0 
-6.792155687689e-03 -3.832939376612e-02 0.0 
7.200592515509e-02 -1.197280910324e-01 0.0 
5.651767708941e-03 -4.981153214035e-02 0.0 
2.084272181814e-01 -2.637095571906e-01 0.0 
2.895938571057e-03 -8.079248529552e-04 0.0 
9.432335064435e-02 -1.437328219662e-01 0.0 
3.308925457482e-02 -3.951266055387e-02 0.0 
1.197471786018e-01 -7.331042667686e-02 0.0 
-5.080031864814e-03 -3.694618877928e-02 0.0 
-7.303338838313e-03 -4.109815008441e-02 0.0 
1.225371535816e-01 -1.749290071055e-01 0.0 
1.261376471145e-01 -2.068337149386e-01 0.0 
2.121644185339e-01 -2.688782114322e-01 0.0 
-5.204735443867e-03 -3.985407754568e-02 0.0 
2.391696593323e-02 -3.965930872418e-02 0.0 
9.687445327325e-02 -1.476059161351e-01 0.0 
1.568421104534e-01 -6.707243520395e-02 0.0 
3.060396263192e-01 -1.083665235057e-01 0.0 
1.660774926472e-01 -6.693706115179e-02 0.0 
-2.589909008811e-04 -1.121529609217e-02 0.0 
1.984633331841e-01 -2.505837774318e-01 0.0 
5.038923941884e-04 -3.094263065889e-04 0.0 
6.720774896562e-04 -2.274922748212e-03 0.0 
1.559375945247e-03 7.346380196402e-03 0.0 
8.693892570267e-02 -1.344208112547e-01 0.0 
1.348560195031e-01 -7.723508119493e-02 0.0 
1.324612077155e-01 -1.820203603638e-01 0.0 
1.172227905489e-01 -1.579098407178e-01 0.0 
2.136936574715e-01 -2.738708276156e-01 0.0 
1.342653174629e-02 -2.208515570343e-03 0.0 
1.072803493934e-01 -1.399971628150e-02 0.0 
9.683408959059e-02 1.064855089667e-02 0.0 
1.199155958999e-02 -5.094717108441e-03 0.0 
6.560064222980e-03 -5.983799242594e-02 0.0 
1.087813102070e-02 -5.141315908178e-03 0.0 
1.016942100366e-01 -1.074699701521e-02 0.0 
7.866754327234e-02 -1.279888862511e-01 0.0 
1.369491751419e-01 -8.197236607925e-02 0.0 
9.069707446027e-02 -1.385860466607e-01 0.0 
2.768579124423e-01 -2.477673567153e-01 0.0 
9.087378839374e-02 -1.411232106597e-01 0.0 
1.195923226945e-01 -2.653680554740e-02 0.0 
6.008668099744e-03 -2.338184928244e-02 0.0 
9.890647157858e-02 -1.478301019408e-01 0.0 
1.486117495667e-01 -5.976744268760e-02 0.0 
1.935972741516e-01 -2.471296773201e-01 0.0 
1.102520149899e-01 -1.616220967364e-01 0.0 
9.760246330364e-02 -1.572110514486e-02 0.0 
7.906637930359e-02 -1.379612761672e-01 0.0 
9.522194749431e-02 -1.514077463583e-01 0.0 
1.379516209224e-01 -8.816672022350e-02 0.0 
1.579530088874e-01 -2.180156185132e-01 0.0 
3.386221318680e-01 -1.266120185438e-01 0.0 
3.470705360294e-01 -1.030228612990e-01 0.0 
8.630108600787e-02 -1.508397238985e-01 0.0 
6.172947350785e-02 -1.070835965577e-01 0.0 
1.383311609434e-01 -1.207429645196e-01 0.0 
1.326932828358e-01 -5.289968928640e-02 0.0 
8.146003068157e-02 -2.442247483221e-02 0.0 
3.479556766242e-01 -6.669682600405e-02 0.0 
4.185120146461e-03 1.098178575463e-03 0.0 
5.315785906900e-02 -1.872384549331e-02 0.0 
1.372124273660e-01 -1.895666392694e-01 0.0 
2.368765809961e-01 -2.647343006482e-01 0.0 
2.787085086592e-01 -9.328686715071e-02 0.0 
6.331420949525e-02 -1.102573035146e-01 0.0 
1.500344124140e-01 -5.375993897887e-02 0.0 
6.564722429810e-02 -1.125167896823e-01 0.0 
2.077527697061e-01 -2.587537902585e-01 0.0 
5.131538028229e-02 -9.318910366365e-02 0.0 
2.953624085114e-01 -2.237564819288e-01 0.0 
1.357533013090e-01 -1.259942877341e-01 0.0 
5.514897399498e-02 -9.943372804248e-02 0.0 
1.294316738226e-01 -8.359474735415e-02 0.0 
1.581987441681e-02 3.510825129336e-03 0.0 
8.119714468421e-02 -1.509196027616e-01 0.0 
2.387505339000e-01 -2.703391243480e-01 0.0 
4.419949670892e-02 -8.474280572786e-02 0.0 
3.104732507977e-01 -1.935867483342e-01 0.0 
1.955060323449e-01 -2.478469583761e-01 0.0 
1.122046342329e-03 -1.156097719676e-03 0.0 
1.455388008429e-03 -8.241322233893e-04 0.0 
1.441323349142e-01 -2.081228704669e-01 0.0 
4.046657494914e-02 -7.778656833141e-02 0.0 
8.541784486769e-02 -1.677701370181e-01 0.0 
7.913859716128e-02 -1.618672820548e-01 0.0 
1.021160169796e-01 -3.691310689595e-02 0.0 
1.222839322154e-01 -8.408727162374e-02 0.0 
1.115488163646e-01 -4.315709523014e-02 0.0 
1.057992109265e-01 -1.566038660867e-01 0.0 
2.866814831980e-02 1.227883015685e-02 0.0 
-1.073075533182e-03 -8.808415682189e-03 0.0 
8.886325429041e-02 -1.709120766094e-01 0.0 
4.039206224813e-02 -4.695823311856e-02 0.0 
1.380922701979e-01 -1.132257872690e-01 0.0 
4.948364951782e-02 -1.019894575478e-01 0.0 
1.389571443485e-01 -4.193632774697e-02 0.0 
1.106746636453e-01 -1.601772253516e-01 0.0 
1.420778850233e-01 -2.216175628069e-01 0.0 
1.230765465125e-01 -1.751434643758e-01 0.0 
-2.048333609059e-03 -4.816783556274e-02 0.0 
1.259111815327e-01 -3.120183414238e-02 0.0 
1.130231619263e-01 -1.932922717444e-01 0.0 
-6.800244248452e-03 -5.378923868766e-02 0.0 
1.396561230805e-01 -5.324596899693e-02 0.0 
6.715321812345e-02 -4.457191571496e-02 0.0 
8.949732060663e-02 -1.451891516032e-01 0.0 
4.565824444251e-03 -4.948057224313e-02 0.0 
1.295975457667e-01 -1.069821828918e-01 0.0 
1.178795752892e-03 3.490086034755e-03 0.0 
1.559567510234e-01 -2.309251600517e-01 0.0 
3.469654397009e-02 -1.281156590775e-02 0.0 
5.014105338495e-02 -1.559514847090e-02 0.0 
5.408894926734e-03 6.091034509155e-03 0.0 
3.013110225934e-02 -5.282727866406e-03 0.0 
3.524134021438e-02 -8.166411327843e-03 0.0 
9.726420494208e-02 -1.475141394732e-01 0.0 
9.610792626376e-02 -1.442524076653e-01 0.0 
1.645839710399e-02 -1.624476105922e-02 0.0 
2.008755297017e-01 -2.531714183381e-01 0.0 
1.908726008830e-03 -5.266647938134e-02 0.0 
-4.971073793888e-03 -5.318475447074e-02 0.0 
8.523591397110e-02 -1.447247497209e-01 0.0 
1.117717641949e-01 -1.605896112159e-01 0.0 
3.030011005590e-01 -1.719270893754e-01 0.0 
3.221907447860e-01 -1.488038403821e-01 0.0 
4.812724364336e-02 1.097927733892e-02 0.0 
1.189019060115e-01 -1.710591812373e-01 0.0 
1.572122660808e-02 -6.482696817573e-02 0.0 
8.546693683655e-02 -5.022753810480e-02 0.0 
-2.221905577523e-04 -3.835310289556e-03 0.0 
-5.083625564967e-04 -4.336616235272e-03 0.0 
8.927640798781e-02 -1.371271416458e-01 0.0 
5.947125717305e-02 1.277112030833e-02 0.0 
1.911654915725e-01 -2.452050771650e-01 0.0 
2.623300716976e-01 -2.247223378321e-01 0.0 
1.634363568382e-01 -2.249148347733e-01 0.0 
2.838873809885e-01 -1.967392361124e-01 0.0 
1.226647633567e-01 -9.564382139941e-02 0.0 
1.003630082008e-01 -1.497030848903e-01 0.0 
1.069914391074e-01 -1.562614429112e-01 0.0 
1.774004469922e-01 -2.373924315844e-01 0.0 
3.349145732251e-03 -1.056508974997e-03 0.0 
9.711643119535e-02 -1.453265635982e-01 0.0 
1.153971246524e-02 -2.279107608768e-03 0.0 
8.758763593574e-03 -5.751819458089e-04 0.0 
1.522009294533e-03 -7.757509467555e-04 0.0 
1.323899291703e-03 -4.041402026651e-03 0.0 
2.858626717790e-03 6.254381390842e-03 0.0 
8.794298658619e-02 -1.364798624774e-01 0.0 
3.404759261175e-01 -1.104961379925e-01 0.0 
8.179079665304e-02 -1.299482279286e-01 0.0 
1.309227783031e-04 -1.855278807870e-03 0.0 
2.288329946617e-01 -2.625154986730e-01 0.0 
2.435975078157e-01 -2.483677744319e-01 0.0 
3.854959662239e-02 -3.869878237081e-02 0.0 
4.629507461146e-02 1.276190002141e-02 0.0 
6.648437883976e-03 -1.860707806999e-03 0.0 
1.243862832723e-01 -4.653454711221e-02 0.0 
5.180202766428e-02 -3.080029938966e-02 0.0 
1.339729206762e-01 -4.570316043755e-02 0.0 
1.828293007738e-02 6.483444584643e-03 0.0 
9.195470287792e-02 -1.568448463091e-01 0.0 
9.661415772883e-02 -1.569484668865e-01 0.0 
5.221553282756e-03 1.818381969540e-03 0.0 
6.249422308124e-02 -3.697226719146e-02 0.0 
7.424783185322e-02 1.718265631979e-02 0.0 
9.936386543782e-03 8.493695048734e-03 0.0 
1.179624139317e-02 6.836415155255e-03 0.0 
2.095985408236e-02 6.994754005694e-03 0.0 
1.763846236734e-01 -2.321702510910e-01 0.0 
9.264552415850e-02 -1.627749834876e-01 0.0 
1.160141592928e-02 -2.644920331083e-03 0.0 
2.024409562299e-02 4.872803821073e-03 0.0 
1.557836053960e-02 -1.031787927739e-02 0.0 
7.780534743803e-02 -2.209476806810e-02 0.0 
1.456070936123e-01 -4.791173191899e-02 0.0 
4.114652661245e-02 -4.343541239217e-03 0.0 
-1.759372055172e-02 -5.736032034615e-02 0.0 
-7.683705335554e-03 -6.269293559333e-02 0.0 
-1.527211065596e-03 -1.510939803031e-02 0.0 
1.794373643683e-01 -2.389833601222e-01 0.0 
1.047104655334e-02 -5.579778602859e-02 0.0 
5.616173329940e-03 -2.536648866510e-03 0.0 
1.606585771248e-02 -1.087680299496e-01 0.0 
1.221422967731e-02 8.022450196477e-03 0.0 
1.953197345702e-02 -2.614491804584e-02 0.0 
1.294070294884e-01 -1.822284133642e-01 0.0 
1.324127752819e-01 -1.642447560454e-01 0.0 
1.026122265296e-02 -2.297614716071e-03 0.0 
4.120549165088e-02 1.351633307822e-02 0.0 
1.853030122765e-02 -2.739467609750e-03 0.0 
2.232789663925e-02 -2.276045533435e-02 0.0 
3.611837739202e-02 1.279407413320e-02 0.0 
1.991911137191e-01 -2.519489856886e-01 0.0 
2.537977641948e-03 -1.220766844477e-03 0.0 
1.071081694482e-01 -1.459225571854e-01 0.0 
1.856094072725e-02 -2.284503050060e-03 0.0 
4.559359419753e-04 -1.880612387336e-03 0.0 
8.302346440242e-02 -2.582798426518e-02 0.0 
1.708275690160e-01 -2.237993443930e-01 0.0 
6.602151197864e-02 1.126271460592e-02 0.0 
-1.191490278515e-02 -5.067868900110e-02 0.0 
8.184979867218e-02 -5.080273645448e-02 0.0 
8.114525789510e-03 -5.126715595979e-03 0.0 
5.014990514798e-03 4.381222197993e-04 0.0 
7.381891615903e-03 -5.403688379793e-03 0.0 
1.803361771124e-01 -2.380689992833e-01 0.0 
5.936000105436e-04 -8.621458690955e-03 0.0 
1.615720377846e-01 -2.158920837961e-01 0.0 
6.538996720378e-02 -1.256534112933e-01 0.0 
6.207722902130e-03 -1.354058916256e-02 0.0 
4.706105366788e-02 -9.124625769826e-03 0.0 
2.054401853867e-02 -4.710815148115e-03 0.0 
2.718726645474e-02 9.975025920744e-03 0.0 
8.454513200187e-02 2.742133698703e-03 0.0 
2.683592736244e-01 -2.553861354943e-01 0.0 
4.121706800682e-02 -1.028054755899e-02 0.0 
-4.868291626812e-03 -4.707201380898e-02 0.0 
2.179600061405e-01 -2.714557403847e-01 0.0 
7.050127475281e-02 -4.390165770172e-02 0.0 
2.284789220741e-02 1.154634948288e-02 0.0 
5.485215739870e-02 -9.145516067228e-03 0.0 
2.122370671694e-04 -5.547849572939e-04 0.0 
2.122370671694e-04 -2.569561443350e-04 0.0 
1.933757300312e-02 -1.871590881305e-01 0.0 
7.718496071396e-03 -1.817775535770e-01 0.0 
1.232622398008e-03 9.373184664025e-03 0.0 
2.956462893651e-03 1.012525100299e-02 0.0 
2.869475862316e-04 -1.833633657143e-03 0.0 
2.869475862316e-04 -4.427070576844e-03 0.0 
3.542885831117e-02 -1.722170402289e-01 0.0 
1.859931660702e-01 -2.431164898036e-01 0.0 
3.812181384194e-03 -1.330908188914e-02 0.0 
5.032624865056e-02 -2.308792983161e-02 0.0 
9.268117714253e-02 -1.329723290232e-01 0.0 
-7.269215808991e-04 -1.211439167798e-02 0.0 
-3.061477771035e-03 -5.163682170207e-02 0.0 
-3.132293170995e-03 -5.387785733356e-02 0.0 
1.377900474243e-02 3.614634577373e-03 0.0 
1.526625360656e-01 -2.167174961927e-01 0.0 
1.013804287516e-01 -6.630473324554e-02 0.0 
1.097984025854e-01 -1.465330042888e-01 0.0 
-1.784020988844e-02 -5.531783480868e-02 0.0 
5.670684834616e-02 -1.452241542980e-02 0.0 
6.311662003023e-04 -1.038362522587e-03 0.0 
-6.069742190146e-03 -5.382526094735e-02 0.0 
8.910873846289e-03 5.162330405248e-03 0.0 
5.372746497634e-02 -2.074091563465e-02 0.0 
1.056327728611e-01 -3.472671683689e-02 0.0 
1.464914960138e-01 -5.306192389530e-02 0.0 
3.108537362682e-02 1.196697416982e-02 0.0 
1.036281358562e-01 -7.681687795607e-02 0.0 
7.152973466891e-02 -1.653379851474e-02 0.0 
1.592189969004e-02 -6.028829708563e-02 0.0 
1.458909966695e-01 -2.023687342268e-01 0.0 
6.635735107777e-02 -2.569641458057e-02 0.0 
4.327898418284e-02 -4.617263624704e-02 0.0 
1.588193205258e-01 -2.249955247468e-01 0.0 
7.227629067146e-03 2.027844894137e-03 0.0 
3.074953070478e-03 -8.560451999242e-03 0.0 
6.317034006966e-02 -2.706662617208e-02 0.0 
5.157390980485e-02 -2.126685195241e-02 0.0 
-4.001532815507e-03 -4.956514862115e-02 0.0 
2.075463597875e-01 -2.633193289017e-01 0.0 
3.054949139844e-01 -1.564431773938e-01 0.0 
2.976885648885e-01 -2.078439931750e-01 0.0 
7.018509429131e-02 9.404835304957e-03 0.0 
1.085017353465e-01 -7.520133707870e-02 0.0 
1.404552446052e-02 -2.424081491531e-03 0.0 
1.467640660391e-02 -1.302365152126e-02 0.0 
1.509621262322e-01 -2.290834541149e-01 0.0 
1.363906485984e-01 -2.068539034768e-01 0.0 
2.653579415752e-01 -2.067702079771e-01 0.0 
1.195999557910e-02 1.489910635159e-03 0.0 
6.552449185805e-03 -6.209491446470e-02 0.0 
4.372128353616e-02 -6.340420604596e-03 0.0 
6.157540952498e-02 -1.165008354502e-01 0.0 
2.760362999629e-02 -2.470297446414e-02 0.0 
4.485749106221e-02 1.048428013133e-02 0.0 
2.125990184059e-02 -1.124360742322e-02 0.0 
7.653393603551e-02 -4.285324726037e-02 0.0 
7.752075536452e-02 5.912760468077e-03 0.0 
1.302184960928e-03 -1.173824744092e-02 0.0 
3.862289289416e-02 -7.093443325720e-03 0.0 
2.010740883630e-03 -1.160300529942e-03 0.0 
2.310924287356e-01 -2.540890379848e-01 0.0 
3.691232490160e-02 -4.034368463082e-03 0.0 
2.869536171391e-02 -1.015719925090e-02 0.0 
2.749416034466e-02 -2.679627079444e-02 0.0 
6.490974619957e-02 -3.649905509979e-02 0.0 
-1.817574417312e-04 -1.895734954658e-03 0.0 
1.394810497276e-01 -4.701141454971e-02 0.0 
2.103063254604e-01 -2.675748333554e-01 0.0 
2.316461420143e-01 -2.732432783128e-01 0.0 
9.369030206945e-02 -2.861417305581e-02 0.0 
6.590240316418e-02 8.354298770009e-03 0.0 
5.411054930034e-03 -1.611467868230e-02 0.0 
5.551148093426e-02 -2.978715997725e-02 0.0 
-4.882906258652e-04 -7.242903101695e-03 0.0 
1.060315620245e-02 -9.228177192112e-06 0.0 
1.923743168855e-02 -1.111062440955e-02 0.0 
3.559378628919e-04 -1.586486961767e-02 0.0 
1.677758188873e-03 -1.636801313981e-02 0.0 
-1.613091308438e-03 -4.901520457491e-02 0.0 
9.048966228195e-05 -3.794854142768e-03 0.0 
5.679273413661e-02 1.347861494287e-02 0.0 
8.162593538304e-03 -2.106159895655e-03 0.0 
1.340741428324e-01 -2.110120619384e-01 0.0 
4.991969066560e-03 -1.033417864033e-03 0.0 
1.091521563506e-02 2.082560247341e-03 0.0 
1.782648134803e-02 -1.404636365865e-01 0.0 
1.756096490797e-01 -2.287708107524e-01 0.0 
1.295346285399e-01 -4.680930928550e-02 0.0 
1.439361816050e-02 -2.890667527494e-03 0.0 
4.034119044108e-03 -1.398396280340e-03 0.0 
2.512042617174e-02 -1.537997435952e-02 0.0 
2.204033303759e-02 6.082170349771e-03 0.0 
1.404147636604e-01 -1.788805942737e-01 0.0 
1.999958640938e-01 -2.521595743809e-01 0.0 
1.349758582049e-01 -1.742347169244e-01 0.0 
1.238948692716e-01 -2.015774948348e-01 0.0 
2.115385375025e-01 -2.704881322395e-01 0.0 
-1.584105691218e-02 -5.373066733498e-02 0.0 
5.520391288856e-03 -1.546047898836e-02 0.0 
8.356752402460e-02 -2.458682160243e-02 0.0 
8.339841930462e-02 2.099557275420e-03 0.0 
-1.219409754678e-02 -6.390416557657e-02 0.0 
-1.883193726506e-03 -1.527674911975e-02 0.0 
1.550600220257e-02 -2.617506150041e-02 0.0 
2.628924515588e-02 -1.341734340062e-02 0.0 
4.709575037017e-02 -1.757716924359e-02 0.0 
8.258494238213e-02 -2.502975972709e-02 0.0 
1.303865838645e-01 -2.015726408973e-01 0.0 
1.847234496006e-01 -2.403847085021e-01 0.0 
4.629104066670e-03 -1.420575594998e-02 0.0 
3.386040401244e-02 -1.351519084724e-01 0.0 
7.294268268386e-03 -1.241895973767e-01 0.0 
2.147914960571e-01 -2.736725348927e-01 0.0 
1.282380982753e-01 -1.759897151277e-01 0.0 
2.369429542040e-04 -8.737577802188e-03 0.0 
3.072437181794e-02 -8.811141467656e-03 0.0 
1.238562083198e-02 -2.494041624562e-03 0.0 
2.086114811097e-02 -1.002696359836e-02 0.0 
2.127823679164e-02 -3.339499701692e-02 0.0 
1.787007548571e-02 4.591098299695e-03 0.0 
5.279927109314e-03 -1.247843880247e-03 0.0 
1.560336643790e-01 -2.124173544878e-01 0.0 
3.891558956003e-02 1.386746792896e-02 0.0 
1.540706939712e-01 -2.247913334628e-01 0.0 
1.255070825211e-01 -1.622770632822e-01 0.0 
1.194133403858e-03 -4.054282957982e-03 0.0 
7.336037780250e-02 1.018294651986e-02 0.0 
7.691489439326e-02 -1.377592115361e-01 0.0 
-1.091557999215e-02 -5.133523185767e-02 0.0 
3.776075907631e-02 -1.049531313045e-02 0.0 
2.106020087737e-02 -2.285645584582e-03 0.0 
4.419107792130e-02 -9.686591358310e-03 0.0 
1.927580314907e-03 -4.684684383200e-02 0.0 
1.957635480588e-01 -2.475032583585e-01 0.0 
-9.413126661350e-04 -9.158939932921e-03 0.0 
7.161294613578e-04 -5.663824509239e-04 0.0 
9.590250758878e-04 -4.108556405354e-03 0.0 
2.791998343255e-03 8.248958844474e-03 0.0 
1.427365998631e-02 -2.176998309315e-02 0.0 
8.243604746083e-02 -1.355814479516e-01 0.0 
3.927184234789e-02 -5.603848661308e-03 0.0 
1.347875406422e-01 -1.629010351271e-01 0.0 
3.460493709809e-03 -9.721132625638e-03 0.0 
5.384607794879e-02 -1.189215907286e-02 0.0 
2.020214408866e-01 -2.550531811102e-01 0.0 
6.225437446516e-02 -2.836369877747e-02 0.0 
1.037773627765e-02 6.550110629394e-04 0.0 
8.585114544186e-03 -2.711797947330e-03 0.0 
3.168331445424e-03 -2.149290784277e-03 0.0 
4.274180156755e-03 2.622541881363e-03 0.0 
3.117317161069e-02 -8.166310247530e-03 0.0 
6.085946373523e-02 -1.183036273265e-02 0.0 
8.548841244805e-03 1.584615336216e-03 0.0 
5.175738816223e-02 -1.456362081305e-02 0.0 
-8.459937466582e-03 -4.882014300669e-02 0.0 
1.998213621564e-02 1.059064388437e-02 0.0 
3.793893297465e-02 -1.842174788160e-02 0.0 
7.031172091959e-04 -9.606432829254e-04 0.0 
3.651572216325e-02 -1.843687445193e-01 0.0 
5.479799569707e-03 9.563453449961e-03 0.0 
1.016156778541e-03 -8.433047751929e-03 0.0 
9.675760257468e-02 -1.387776899658e-01 0.0 
2.372436734014e-02 -2.663843437171e-02 0.0 
7.745690190942e-02 -1.882149564851e-02 0.0 
9.430798907060e-03 -2.681799114495e-03 0.0 
7.329649540587e-02 -1.220713179865e-01 0.0 
2.136425628975e-01 -2.682507826795e-01 0.0 
-1.238830600268e-03 -5.381492636927e-02 0.0 
4.162169154149e-03 -4.957496414532e-04 0.0 
1.907753037615e-01 -2.457658706395e-01 0.0 
3.136277154353e-02 -6.590534818602e-03 0.0 
7.702086285717e-03 3.013890864964e-03 0.0 
1.457594785443e-01 -2.112590447679e-01 0.0 
1.448373699400e-02 4.703491365682e-03 0.0 
2.819897946298e-02 -1.312558484023e-02 0.0 
-2.347109164856e-03 -5.315784576614e-02 0.0 
2.113879655456e-01 -2.718835255084e-01 0.0 
-2.692771464672e-03 -5.340739033206e-02 0.0 
-1.625168135523e-02 -5.589253114053e-02 0.0 
-1.108278564588e-03 -5.234374549707e-02 0.0 
3.423642851761e-02 -2.077528877643e-02 0.0 
-8.585597339987e-03 -5.345229995140e-02 0.0 
-1.103818294581e-02 -5.492850866164e-02 0.0 
1.283944623268e-01 -1.663657720476e-01 0.0 
-1.230210970915e-03 -1.218229197737e-02 0.0 
6.808691637223e-02 -2.563371500476e-02 0.0 
2.144468892815e-01 -2.660889313093e-01 0.0 
1.207009603384e-03 -9.722407765554e-04 0.0 
1.688234268198e-03 -8.114533580440e-03 0.0 
5.315335019311e-03 8.409708600606e-03 0.0 
5.807279839160e-03 3.337356394101e-03 0.0 
-1.167168699907e-02 -5.394371343394e-02 0.0 
-1.308028615648e-02 -5.511867451261e-02 0.0 
-8.201205191854e-03 -5.410192174905e-02 0.0 
3.242371124661e-02 -3.334698691414e-02 0.0 
1.462818900491e-01 -2.170318392255e-01 0.0 
5.602574933258e-02 -2.065693715330e-02 0.0 
9.545329792527e-03 6.288263135917e-03 0.0 
3.292883403816e-02 -5.853332076312e-03 0.0 
2.985029113375e-02 -3.337526822569e-02 0.0 
1.698938889533e-02 5.289155407342e-03 0.0 
7.303838468958e-02 -2.018998000656e-02 0.0 
3.444403063429e-02 -1.972105578245e-02 0.0 
2.533550771931e-02 -1.406022826662e-02 0.0 
2.107839091040e-01 -2.701912272863e-01 0.0 
7.338176342486e-02 -2.154992717549e-02 0.0 
6.082419837929e-02 -1.816474035811e-02 0.0 
1.292065833814e-01 -1.621245232096e-01 0.0 
-1.284392922156e-02 -5.313040258815e-02 0.0 
2.094628339892e-01 -2.671974830001e-01 0.0 
6.065958103595e-02 -1.647648580094e-02 0.0 

VECTORS element_materi_displacement float
0.0 0.0 0.0 
0.0 0.0 0.0 
0.0 0.0 0.0 
0.0 0.0 0.0 
0.0 0.0 0.0 
0.0 0.0 0.0 
0.0 0.0 0.0 
0.0 0.0 0.0 
0.0 0.0 0.0 
0.0 0.0 0.0 
0.0 0.0 0.0 
0.0 0.0 0.0 
0.0 0.0 0.0 
0.0 0.0 0.0 
0.0 0.0 0.0 
0.0 0.0 0.0 
0.0 0.0 0.0 
0.0 0.0 0.0 
0.0 0.0 0.0 
0.0 0.0 0.0 
0.0 0.0 0.0 
0.0 0.0 0.0 
0.0 0.0 0.0 
0.0 0.0 0.0 
0.0 0.0 0.0 
0.0 0.0 0.0 
0.0 0.0 0.0 
0.0 0.0 0.0 
0.0 0.0 0.0 
0.0 0.0 0.0 
0.0 0.0 0.0 
0.0 0.0 0.0 
0.0 0.0 0.0 
0.0 0.0 0.0 
0.0 0.0 0.0 
0.0 0.0 0.0 
0.0 0.0 0.0 
0.0 0.0 0.0 
0.0 0.0 0.0 
0.0 0.0 0.0 
0.0 0.0 0.0 
0.0 0.0 0.0 
0.0 0.0 0.0 
0.0 0.0 0.0 
0.0 0.0 0.0 
0.0 0.0 0.0 
0.0 0.0 0.0 
0.0 0.0 0.0 
0.0 0.0 0.0 
0.0 0.0 0.0 
0.0 0.0 0.0 
0.0 0.0 0.0 
0.0 0.0 0.0 
0.0 0.0 0.0 
0.0 0.0 0.0 
0.0 0.0 0.0 
0.0 0.0 0.0 
0.0 0.0 0.0 
0.0 0.0 0.0 
0.0 0.0 0.0 
0.0 0.0 0.0 
0.0 0.0 0.0 
0.0 0.0 0.0 
0.0 0.0 0.0 
0.0 0.0 0.0 
0.0 0.0 0.0 
0.0 0.0 0.0 
0.0 0.0 0.0 
0.0 0.0 0.0 
0.0 0.0 0.0 
0.0 0.0 0.0 
0.0 0.0 0.0 
0.0 0.0 0.0 
0.0 0.0 0.0 
0.0 0.0 0.0 
0.0 0.0 0.0 
0.0 0.0 0.0 
0.0 0.0 0.0 
0.0 0.0 0.0 
0.0 0.0 0.0 
0.0 0.0 0.0 
0.0 0.0 0.0 
0.0 0.0 0.0 
0.0 0.0 0.0 
0.0 0.0 0.0 
0.0 0.0 0.0 
0.0 0.0 0.0 
0.0 0.0 0.0 
0.0 0.0 0.0 
0.0 0.0 0.0 
0.0 0.0 0.0 
0.0 0.0 0.0 
0.0 0.0 0.0 
0.0 0.0 0.0 
0.0 0.0 0.0 
0.0 0.0 0.0 
0.0 0.0 0.0 
0.0 0.0 0.0 
0.0 0.0 0.0 
0.0 0.0 0.0 
0.0 0.0 0.0 
0.0 0.0 0.0 
0.0 0.0 0.0 
0.0 0.0 0.0 
0.0 0.0 0.0 
0.0 0.0 0.0 
0.0 0.0 0.0 
0.0 0.0 0.0 
0.0 0.0 0.0 
0.0 0.0 0.0 
0.0 0.0 0.0 
0.0 0.0 0.0 
0.0 0.0 0.0 
0.0 0.0 0.0 
0.0 0.0 0.0 
0.0 0.0 0.0 
0.0 0.0 0.0 
0.0 0.0 0.0 
0.0 0.0 0.0 
0.0 0.0 0.0 
0.0 0.0 0.0 
0.0 0.0 0.0 
0.0 0.0 0.0 
0.0 0.0 0.0 
0.0 0.0 0.0 
0.0 0.0 0.0 
0.0 0.0 0.0 
0.0 0.0 0.0 
0.0 0.0 0.0 
0.0 0.0 0.0 
0.0 0.0 0.0 
0.0 0.0 0.0 
0.0 0.0 0.0 
0.0 0.0 0.0 
0.0 0.0 0.0 
0.0 0.0 0.0 
0.0 0.0 0.0 
0.0 0.0 0.0 
0.0 0.0 0.0 
0.0 0.0 0.0 
0.0 0.0 0.0 
0.0 0.0 0.0 
0.0 0.0 0.0 
0.0 0.0 0.0 
0.0 0.0 0.0 
0.0 0.0 0.0 
0.0 0.0 0.0 
0.0 0.0 0.0 
0.0 0.0 0.0 
0.0 0.0 0.0 
0.0 0.0 0.0 
0.0 0.0 0.0 
0.0 0.0 0.0 
0.0 0.0 0.0 
0.0 0.0 0.0 
0.0 0.0 0.0 
0.0 0.0 0.0 
0.0 0.0 0.0 
0.0 0.0 0.0 
0.0 0.0 0.0 
0.0 0.0 0.0 
0.0 0.0 0.0 
0.0 0.0 0.0 
0.0 0.0 0.0 
0.0 0.0 0.0 
0.0 0.0 0.0 
0.0 0.0 0.0 
0.0 0.0 0.0 
0.0 0.0 0.0 
0.0 0.0 0.0 
0.0 0.0 0.0 
0.0 0.0 0.0 
0.0 0.0 0.0 
0.0 0.0 0.0 
0.0 0.0 0.0 
0.0 0.0 0.0 
0.0 0.0 0.0 
0.0 0.0 0.0 
0.0 0.0 0.0 
0.0 0.0 0.0 
0.0 0.0 0.0 
0.0 0.0 0.0 
0.0 0.0 0.0 
0.0 0.0 0.0 
0.0 0.0 0.0 
0.0 0.0 0.0 
0.0 0.0 0.0 
0.0 0.0 0.0 
0.0 0.0 0.0 
0.0 0.0 0.0 
0.0 0.0 0.0 
0.0 0.0 0.0 
0.0 0.0 0.0 
0.0 0.0 0.0 
0.0 0.0 0.0 
0.0 0.0 0.0 
0.0 0.0 0.0 
0.0 0.0 0.0 
0.0 0.0 0.0 
0.0 0.0 0.0 
0.0 0.0 0.0 
0.0 0.0 0.0 
0.0 0.0 0.0 
0.0 0.0 0.0 
0.0 0.0 0.0 
0.0 0.0 0.0 
0.0 0.0 0.0 
0.0 0.0 0.0 
0.0 0.0 0.0 
0.0 0.0 0.0 
0.0 0.0 0.0 
0.0 0.0 0.0 
0.0 0.0 0.0 
0.0 0.0 0.0 
0.0 0.0 0.0 
0.0 0.0 0.0 
0.0 0.0 0.0 
0.0 0.0 0.0 
0.0 0.0 0.0 
0.0 0.0 0.0 
0.0 0.0 0.0 
0.0 0.0 0.0 
0.0 0.0 0.0 
0.0 0.0 0.0 
0.0 0.0 0.0 
0.0 0.0 0.0 
0.0 0.0 0.0 
0.0 0.0 0.0 
0.0 0.0 0.0 
0.0 0.0 0.0 
0.0 0.0 0.0 
0.0 0.0 0.0 
0.0 0.0 0.0 
0.0 0.0 0.0 
0.0 0.0 0.0 
0.0 0.0 0.0 
0.0 0.0 0.0 
0.0 0.0 0.0 
0.0 0.0 0.0 
0.0 0.0 0.0 
0.0 0.0 0.0 
0.0 0.0 0.0 
0.0 0.0 0.0 
0.0 0.0 0.0 
0.0 0.0 0.0 
0.0 0.0 0.0 
0.0 0.0 0.0 
0.0 0.0 0.0 
0.0 0.0 0.0 
0.0 0.0 0.0 
0.0 0.0 0.0 
0.0 0.0 0.0 
0.0 0.0 0.0 
0.0 0.0 0.0 
0.0 0.0 0.0 
0.0 0.0 0.0 
0.0 0.0 0.0 
0.0 0.0 0.0 
0.0 0.0 0.0 
0.0 0.0 0.0 
0.0 0.0 0.0 
0.0 0.0 0.0 
0.0 0.0 0.0 
0.0 0.0 0.0 
0.0 0.0 0.0 
0.0 0.0 0.0 
0.0 0.0 0.0 
0.0 0.0 0.0 
0.0 0.0 0.0 
0.0 0.0 0.0 
0.0 0.0 0.0 
0.0 0.0 0.0 
0.0 0.0 0.0 
0.0 0.0 0.0 
0.0 0.0 0.0 
0.0 0.0 0.0 
0.0 0.0 0.0 
0.0 0.0 0.0 
0.0 0.0 0.0 
0.0 0.0 0.0 
0.0 0.0 0.0 
0.0 0.0 0.0 
0.0 0.0 0.0 
0.0 0.0 0.0 
0.0 0.0 0.0 
0.0 0.0 0.0 
0.0 0.0 0.0 
0.0 0.0 0.0 
0.0 0.0 0.0 
0.0 0.0 0.0 
0.0 0.0 0.0 
0.0 0.0 0.0 
0.0 0.0 0.0 
0.0 0.0 0.0 
0.0 0.0 0.0 
0.0 0.0 0.0 
0.0 0.0 0.0 
0.0 0.0 0.0 
0.0 0.0 0.0 
0.0 0.0 0.0 
0.0 0.0 0.0 
0.0 0.0 0.0 
0.0 0.0 0.0 
0.0 0.0 0.0 
0.0 0.0 0.0 
0.0 0.0 0.0 
0.0 0.0 0.0 
0.0 0.0 0.0 
0.0 0.0 0.0 
0.0 0.0 0.0 
0.0 0.0 0.0 
0.0 0.0 0.0 
0.0 0.0 0.0 
0.0 0.0 0.0 
0.0 0.0 0.0 
0.0 0.0 0.0 
0.0 0.0 0.0 
0.0 0.0 0.0 
0.0 0.0 0.0 
0.0 0.0 0.0 
0.0 0.0 0.0 
0.0 0.0 0.0 
0.0 0.0 0.0 
0.0 0.0 0.0 
0.0 0.0 0.0 
0.0 0.0 0.0 
0.0 0.0 0.0 
0.0 0.0 0.0 
0.0 0.0 0.0 
0.0 0.0 0.0 
0.0 0.0 0.0 
0.0 0.0 0.0 
0.0 0.0 0.0 
0.0 0.0 0.0 
0.0 0.0 0.0 
0.0 0.0 0.0 
0.0 0.0 0.0 
0.0 0.0 0.0 
0.0 0.0 0.0 
0.0 0.0 0.0 
0.0 0.0 0.0 
0.0 0.0 0.0 
0.0 0.0 0.0 
0.0 0.0 0.0 
0.0 0.0 0.0 
0.0 0.0 0.0 
0.0 0.0 0.0 
0.0 0.0 0.0 
0.0 0.0 0.0 
0.0 0.0 0.0 
0.0 0.0 0.0 
0.0 0.0 0.0 
0.0 0.0 0.0 
0.0 0.0 0.0 
0.0 0.0 0.0 
0.0 0.0 0.0 
0.0 0.0 0.0 
0.0 0.0 0.0 
0.0 0.0 0.0 
0.0 0.0 0.0 
0.0 0.0 0.0 
0.0 0.0 0.0 
0.0 0.0 0.0 
0.0 0.0 0.0 
0.0 0.0 0.0 
0.0 0.0 0.0 
0.0 0.0 0.0 
0.0 0.0 0.0 
0.0 0.0 0.0 
0.0 0.0 0.0 
0.0 0.0 0.0 
0.0 0.0 0.0 
0.0 0.0 0.0 
0.0 0.0 0.0 
0.0 0.0 0.0 
0.0 0.0 0.0 
0.0 0.0 0.0 
0.0 0.0 0.0 
0.0 0.0 0.0 
0.0 0.0 0.0 
0.0 0.0 0.0 
0.0 0.0 0.0 
0.0 0.0 0.0 
0.0 0.0 0.0 
0.0 0.0 0.0 
0.0 0.0 0.0 
0.0 0.0 0.0 
0.0 0.0 0.0 
0.0 0.0 0.0 
0.0 0.0 0.0 
0.0 0.0 0.0 
0.0 0.0 0.0 
0.0 0.0 0.0 
0.0 0.0 0.0 
0.0 0.0 0.0 
0.0 0.0 0.0 
0.0 0.0 0.0 
0.0 0.0 0.0 
0.0 0.0 0.0 
0.0 0.0 0.0 
0.0 0.0 0.0 
0.0 0.0 0.0 
0.0 0.0 0.0 
0.0 0.0 0.0 
0.0 0.0 0.0 
0.0 0.0 0.0 
0.0 0.0 0.0 
0.0 0.0 0.0 
0.0 0.0 0.0 
0.0 0.0 0.0 
0.0 0.0 0.0 
0.0 0.0 0.0 
0.0 0.0 0.0 
0.0 0.0 0.0 
0.0 0.0 0.0 
0.0 0.0 0.0 
0.0 0.0 0.0 
0.0 0.0 0.0 
0.0 0.0 0.0 
0.0 0.0 0.0 
0.0 0.0 0.0 
0.0 0.0 0.0 
0.0 0.0 0.0 
0.0 0.0 0.0 
0.0 0.0 0.0 
0.0 0.0 0.0 
0.0 0.0 0.0 
0.0 0.0 0.0 
0.0 0.0 0.0 
0.0 0.0 0.0 
0.0 0.0 0.0 
0.0 0.0 0.0 
0.0 0.0 0.0 
0.0 0.0 0.0 
0.0 0.0 0.0 
0.0 0.0 0.0 
0.0 0.0 0.0 
0.0 0.0 0.0 
0.0 0.0 0.0 
0.0 0.0 0.0 
0.0 0.0 0.0 
0.0 0.0 0.0 
0.0 0.0 0.0 
0.0 0.0 0.0 
0.0 0.0 0.0 
0.0 0.0 0.0 
0.0 0.0 0.0 
0.0 0.0 0.0 
0.0 0.0 0.0 
0.0 0.0 0.0 
0.0 0.0 0.0 
0.0 0.0 0.0 
0.0 0.0 0.0 
0.0 0.0 0.0 
0.0 0.0 0.0 
0.0 0.0 0.0 
0.0 0.0 0.0 
0.0 0.0 0.0 
0.0 0.0 0.0 
0.0 0.0 0.0 
0.0 0.0 0.0 
0.0 0.0 0.0 
0.0 0.0 0.0 
0.0 0.0 0.0 
0.0 0.0 0.0 
0.0 0.0 0.0 
0.0 0.0 0.0 
0.0 0.0 0.0 
0.0 0.0 0.0 
0.0 0.0 0.0 
0.0 0.0 0.0 
0.0 0.0 0.0 
0.0 0.0 0.0 
0.0 0.0 0.0 
0.0 0.0 0.0 
0.0 0.0 0.0 
0.0 0.0 0.0 
0.0 0.0 0.0 
0.0 0.0 0.0 
0.0 0.0 0.0 
0.0 0.0 0.0 
0.0 0.0 0.0 
0.0 0.0 0.0 
0.0 0.0 0.0 
0.0 0.0 0.0 
0.0 0.0 0.0 
0.0 0.0 0.0 
0.0 0.0 0.0 
0.0 0.0 0.0 
0.0 0.0 0.0 
0.0 0.0 0.0 
0.0 0.0 0.0 
0.0 0.0 0.0 
0.0 0.0 0.0 
0.0 0.0 0.0 
0.0 0.0 0.0 
0.0 0.0 0.0 
0.0 0.0 0.0 
0.0 0.0 0.0 
0.0 0.0 0.0 
0.0 0.0 0.0 
0.0 0.0 0.0 
0.0 0.0 0.0 
0.0 0.0 0.0 
0.0 0.0 0.0 
0.0 0.0 0.0 
0.0 0.0 0.0 
0.0 0.0 0.0 
0.0 0.0 0.0 
0.0 0.0 0.0 
0.0 0.0 0.0 
0.0 0.0 0.0 
0.0 0.0 0.0 
0.0 0.0 0.0 
0.0 0.0 0.0 
0.0 0.0 0.0 
0.0 0.0 0.0 
0.0 0.0 0.0 
0.0 0.0 0.0 
0.0 0.0 0.0 
0.0 0.0 0.0 
0.0 0.0 0.0 
0.0 0.0 0.0 
0.0 0.0 0.0 
0.0 0.0 0.0 
0.0 0.0 0.0 
0.0 0.0 0.0 
0.0 0.0 0.0 
0.0 0.0 0.0 
0.0 0.0 0.0 
0.0 0.0 0.0 
0.0 0.0 0.0 
0.0 0.0 0.0 
0.0 0.0 0.0 
0.0 0.0 0.0 
0.0 0.0 0.0 
0.0 0.0 0.0 
0.0 0.0 0.0 
0.0 0.0 0.0 
0.0 0.0 0.0 
0.0 0.0 0.0 
0.0 0.0 0.0 
0.0 0.0 0.0 
0.0 0.0 0.0 
0.0 0.0 0.0 
0.0 0.0 0.0 
0.0 0.0 0.0 
0.0 0.0 0.0 
0.0 0.0 0.0 
0.0 0.0 0.0 
0.0 0.0 0.0 
0.0 0.0 0.0 
0.0 0.0 0.0 
0.0 0.0 0.0 
0.0 0.0 0.0 
0.0 0.0 0.0 
0.0 0.0 0.0 
0.0 0.0 0.0 
0.0 0.0 0.0 
0.0 0.0 0.0 
0.0 0.0 0.0 
0.0 0.0 0.0 
0.0 0.0 0.0 
0.0 0.0 0.0 
0.0 0.0 0.0 
0.0 0.0 0.0 
0.0 0.0 0.0 
0.0 0.0 0.0 
0.0 0.0 0.0 
0.0 0.0 0.0 
0.0 0.0 0.0 
0.0 0.0 0.0 
0.0 0.0 0.0 
0.0 0.0 0.0 
0.0 0.0 0.0 
0.0 0.0 0.0 
0.0 0.0 0.0 
0.0 0.0 0.0 
0.0 0.0 0.0 
0.0 0.0 0.0 
0.0 0.0 0.0 
0.0 0.0 0.0 
0.0 0.0 0.0 
0.0 0.0 0.0 
0.0 0.0 0.0 
0.0 0.0 0.0 
0.0 0.0 0.0 
0.0 0.0 0.0 
0.0 0.0 0.0 
0.0 0.0 0.0 
0.0 0.0 0.0 
0.0 0.0 0.0 
0.0 0.0 0.0 
0.0 0.0 0.0 
0.0 0.0 0.0 
0.0 0.0 0.0 
0.0 0.0 0.0 
0.0 0.0 0.0 
0.0 0.0 0.0 
0.0 0.0 0.0 
0.0 0.0 0.0 
0.0 0.0 0.0 
0.0 0.0 0.0 
0.0 0.0 0.0 
0.0 0.0 0.0 
0.0 0.0 0.0 
0.0 0.0 0.0 
0.0 0.0 0.0 
0.0 0.0 0.0 
0.0 0.0 0.0 
0.0 0.0 0.0 
0.0 0.0 0.0 
0.0 0.0 0.0 
0.0 0.0 0.0 
0.0 0.0 0.0 
0.0 0.0 0.0 
0.0 0.0 0.0 
0.0 0.0 0.0 
0.0 0.0 0.0 
0.0 0.0 0.0 
0.0 0.0 0.0 
0.0 0.0 0.0 
0.0 0.0 0.0 
0.0 0.0 0.0 
0.0 0.0 0.0 
0.0 0.0 0.0 
0.0 0.0 0.0 
0.0 0.0 0.0 
0.0 0.0 0.0 
0.0 0.0 0.0 
0.0 0.0 0.0 
0.0 0.0 0.0 
0.0 0.0 0.0 
0.0 0.0 0.0 
0.0 0.0 0.0 
0.0 0.0 0.0 
0.0 0.0 0.0 
0.0 0.0 0.0 
0.0 0.0 0.0 
0.0 0.0 0.0 
0.0 0.0 0.0 
0.0 0.0 0.0 
0.0 0.0 0.0 
0.0 0.0 0.0 
0.0 0.0 0.0 
0.0 0.0 0.0 
0.0 0.0 0.0 
0.0 0.0 0.0 
0.0 0.0 0.0 
0.0 0.0 0.0 
0.0 0.0 0.0 
0.0 0.0 0.0 
0.0 0.0 0.0 
0.0 0.0 0.0 
0.0 0.0 0.0 
0.0 0.0 0.0 
0.0 0.0 0.0 
0.0 0.0 0.0 
0.0 0.0 0.0 
0.0 0.0 0.0 
0.0 0.0 0.0 
0.0 0.0 0.0 
0.0 0.0 0.0 
0.0 0.0 0.0 
0.0 0.0 0.0 
0.0 0.0 0.0 
0.0 0.0 0.0 
0.0 0.0 0.0 
0.0 0.0 0.0 
0.0 0.0 0.0 
0.0 0.0 0.0 
0.0 0.0 0.0 
0.0 0.0 0.0 
0.0 0.0 0.0 
0.0 0.0 0.0 
0.0 0.0 0.0 
0.0 0.0 0.0 
0.0 0.0 0.0 
0.0 0.0 0.0 
0.0 0.0 0.0 
0.0 0.0 0.0 
0.0 0.0 0.0 
0.0 0.0 0.0 
0.0 0.0 0.0 
0.0 0.0 0.0 
0.0 0.0 0.0 
0.0 0.0 0.0 
0.0 0.0 0.0 
0.0 0.0 0.0 
0.0 0.0 0.0 
0.0 0.0 0.0 
0.0 0.0 0.0 
0.0 0.0 0.0 
0.0 0.0 0.0 
0.0 0.0 0.0 
0.0 0.0 0.0 
0.0 0.0 0.0 
0.0 0.0 0.0 
0.0 0.0 0.0 
0.0 0.0 0.0 
0.0 0.0 0.0 
0.0 0.0 0.0 
0.0 0.0 0.0 
0.0 0.0 0.0 
0.0 0.0 0.0 
0.0 0.0 0.0 
0.0 0.0 0.0 
0.0 0.0 0.0 
0.0 0.0 0.0 
0.0 0.0 0.0 
0.0 0.0 0.0 
0.0 0.0 0.0 
0.0 0.0 0.0 
0.0 0.0 0.0 
0.0 0.0 0.0 
0.0 0.0 0.0 
0.0 0.0 0.0 
0.0 0.0 0.0 
0.0 0.0 0.0 
0.0 0.0 0.0 
0.0 0.0 0.0 
0.0 0.0 0.0 
0.0 0.0 0.0 
0.0 0.0 0.0 
0.0 0.0 0.0 
0.0 0.0 0.0 
0.0 0.0 0.0 
0.0 0.0 0.0 
0.0 0.0 0.0 
0.0 0.0 0.0 
0.0 0.0 0.0 
0.0 0.0 0.0 
0.0 0.0 0.0 
0.0 0.0 0.0 
0.0 0.0 0.0 
0.0 0.0 0.0 
0.0 0.0 0.0 
0.0 0.0 0.0 
0.0 0.0 0.0 
0.0 0.0 0.0 
0.0 0.0 0.0 
0.0 0.0 0.0 
0.0 0.0 0.0 
0.0 0.0 0.0 
0.0 0.0 0.0 
0.0 0.0 0.0 
0.0 0.0 0.0 
0.0 0.0 0.0 
0.0 0.0 0.0 
0.0 0.0 0.0 
0.0 0.0 0.0 
0.0 0.0 0.0 
0.0 0.0 0.0 
0.0 0.0 0.0 
0.0 0.0 0.0 
0.0 0.0 0.0 
0.0 0.0 0.0 
0.0 0.0 0.0 
0.0 0.0 0.0 
0.0 0.0 0.0 
0.0 0.0 0.0 
0.0 0.0 0.0 
0.0 0.0 0.0 
0.0 0.0 0.0 
0.0 0.0 0.0 
0.0 0.0 0.0 
0.0 0.0 0.0 
0.0 0.0 0.0 
0.0 0.0 0.0 
0.0 0.0 0.0 
0.0 0.0 0.0 
0.0 0.0 0.0 
0.0 0.0 0.0 
0.0 0.0 0.0 
0.0 0.0 0.0 
0.0 0.0 0.0 
0.0 0.0 0.0 
0.0 0.0 0.0 
0.0 0.0 0.0 
0.0 0.0 0.0 
0.0 0.0 0.0 
0.0 0.0 0.0 
0.0 0.0 0.0 
0.0 0.0 0.0 
0.0 0.0 0.0 
0.0 0.0 0.0 
0.0 0.0 0.0 
0.0 0.0 0.0 
0.0 0.0 0.0 
0.0 0.0 0.0 
0.0 0.0 0.0 
0.0 0.0 0.0 
0.0 0.0 0.0 
0.0 0.0 0.0 
0.0 0.0 0.0 
0.0 0.0 0.0 
0.0 0.0 0.0 
0.0 0.0 0.0 
0.0 0.0 0.0 
0.0 0.0 0.0 
0.0 0.0 0.0 
0.0 0.0 0.0 
0.0 0.0 0.0 
0.0 0.0 0.0 
0.0 0.0 0.0 
0.0 0.0 0.0 
0.0 0.0 0.0 
0.0 0.0 0.0 
0.0 0.0 0.0 
0.0 0.0 0.0 
0.0 0.0 0.0 
0.0 0.0 0.0 
0.0 0.0 0.0 
0.0 0.0 0.0 
0.0 0.0 0.0 
0.0 0.0 0.0 
0.0 0.0 0.0 
0.0 0.0 0.0 
0.0 0.0 0.0 
0.0 0.0 0.0 
0.0 0.0 0.0 
0.0 0.0 0.0 
0.0 0.0 0.0 
0.0 0.0 0.0 
0.0 0.0 0.0 
0.0 0.0 0.0 
0.0 0.0 0.0 
0.0 0.0 0.0 
0.0 0.0 0.0 
0.0 0.0 0.0 
0.0 0.0 0.0 
0.0 0.0 0.0 
0.0 0.0 0.0 
0.0 0.0 0.0 
0.0 0.0 0.0 
0.0 0.0 0.0 
0.0 0.0 0.0 
0.0 0.0 0.0 
0.0 0.0 0.0 
0.0 0.0 0.0 
0.0 0.0 0.0 
0.0 0.0 0.0 
0.0 0.0 0.0 
0.0 0.0 0.0 
0.0 0.0 0.0 
0.0 0.0 0.0 
0.0 0.0 0.0 
0.0 0.0 0.0 
0.0 0.0 0.0 
0.0 0.0 0.0 
0.0 0.0 0.0 
0.0 0.0 0.0 
0.0 0.0 0.0 
0.0 0.0 0.0 
0.0 0.0 0.0 
0.0 0.0 0.0 
0.0 0.0 0.0 
0.0 0.0 0.0 
0.0 0.0 0.0 
0.0 0.0 0.0 
0.0 0.0 0.0 
0.0 0.0 0.0 
0.0 0.0 0.0 
0.0 0.0 0.0 
0.0 0.0 0.0 
0.0 0.0 0.0 
0.0 0.0 0.0 
0.0 0.0 0.0 
0.0 0.0 0.0 
0.0 0.0 0.0 
0.0 0.0 0.0 
0.0 0.0 0.0 
0.0 0.0 0.0 
0.0 0.0 0.0 
0.0 0.0 0.0 
0.0 0.0 0.0 
0.0 0.0 0.0 
0.0 0.0 0.0 
0.0 0.0 0.0 
0.0 0.0 0.0 
0.0 0.0 0.0 
0.0 0.0 0.0 
0.0 0.0 0.0 
0.0 0.0 0.0 
0.0 0.0 0.0 
0.0 0.0 0.0 
0.0 0.0 0.0 
0.0 0.0 0.0 
0.0 0.0 0.0 
0.0 0.0 0.0 
0.0 0.0 0.0 
0.0 0.0 0.0 
0.0 0.0 0.0 
0.0 0.0 0.0 
0.0 0.0 0.0 
0.0 0.0 0.0 
0.0 0.0 0.0 
0.0 0.0 0.0 
0.0 0.0 0.0 
0.0 0.0 0.0 
0.0 0.0 0.0 
0.0 0.0 0.0 
0.0 0.0 0.0 
0.0 0.0 0.0 
0.0 0.0 0.0 
0.0 0.0 0.0 
0.0 0.0 0.0 
0.0 0.0 0.0 
0.0 0.0 0.0 
0.0 0.0 0.0 
0.0 0.0 0.0 
0.0 0.0 0.0 
0.0 0.0 0.0 
0.0 0.0 0.0 
0.0 0.0 0.0 
0.0 0.0 0.0 
0.0 0.0 0.0 
0.0 0.0 0.0 
0.0 0.0 0.0 
0.0 0.0 0.0 
0.0 0.0 0.0 
0.0 0.0 0.0 
0.0 0.0 0.0 
0.0 0.0 0.0 
0.0 0.0 0.0 
0.0 0.0 0.0 
0.0 0.0 0.0 
0.0 0.0 0.0 
0.0 0.0 0.0 
0.0 0.0 0.0 
0.0 0.0 0.0 
0.0 0.0 0.0 
0.0 0.0 0.0 
0.0 0.0 0.0 
0.0 0.0 0.0 
0.0 0.0 0.0 
0.0 0.0 0.0 
0.0 0.0 0.0 
0.0 0.0 0.0 
0.0 0.0 0.0 
0.0 0.0 0.0 
0.0 0.0 0.0 
0.0 0.0 0.0 
0.0 0.0 0.0 
0.0 0.0 0.0 
0.0 0.0 0.0 
0.0 0.0 0.0 
0.0 0.0 0.0 
0.0 0.0 0.0 
0.0 0.0 0.0 
0.0 0.0 0.0 
0.0 0.0 0.0 
0.0 0.0 0.0 
0.0 0.0 0.0 
0.0 0.0 0.0 
0.0 0.0 0.0 
0.0 0.0 0.0 
0.0 0.0 0.0 
0.0 0.0 0.0 
0.0 0.0 0.0 
0.0 0.0 0.0 
0.0 0.0 0.0 
0.0 0.0 0.0 
0.0 0.0 0.0 
0.0 0.0 0.0 
0.0 0.0 0.0 
0.0 0.0 0.0 
0.0 0.0 0.0 
0.0 0.0 0.0 
0.0 0.0 0.0 
0.0 0.0 0.0 
0.0 0.0 0.0 
0.0 0.0 0.0 
0.0 0.0 0.0 
0.0 0.0 0.0 
0.0 0.0 0.0 
0.0 0.0 0.0 
0.0 0.0 0.0 
0.0 0.0 0.0 
0.0 0.0 0.0 
0.0 0.0 0.0 
0.0 0.0 0.0 
0.0 0.0 0.0 
0.0 0.0 0.0 
0.0 0.0 0.0 
0.0 0.0 0.0 
0.0 0.0 0.0 
0.0 0.0 0.0 
0.0 0.0 0.0 
0.0 0.0 0.0 
0.0 0.0 0.0 
0.0 0.0 0.0 
0.0 0.0 0.0 
0.0 0.0 0.0 
0.0 0.0 0.0 
0.0 0.0 0.0 
0.0 0.0 0.0 
0.0 0.0 0.0 
0.0 0.0 0.0 
0.0 0.0 0.0 
0.0 0.0 0.0 
0.0 0.0 0.0 
0.0 0.0 0.0 
0.0 0.0 0.0 
0.0 0.0 0.0 
0.0 0.0 0.0 
0.0 0.0 0.0 
0.0 0.0 0.0 
0.0 0.0 0.0 
0.0 0.0 0.0 
0.0 0.0 0.0 
0.0 0.0 0.0 
0.0 0.0 0.0 
0.0 0.0 0.0 
0.0 0.0 0.0 
0.0 0.0 0.0 
0.0 0.0 0.0 
0.0 0.0 0.0 
0.0 0.0 0.0 
0.0 0.0 0.0 
0.0 0.0 0.0 
0.0 0.0 0.0 
0.0 0.0 0.0 
0.0 0.0 0.0 
0.0 0.0 0.0 
0.0 0.0 0.0 
0.0 0.0 0.0 
0.0 0.0 0.0 
0.0 0.0 0.0 
0.0 0.0 0.0 
0.0 0.0 0.0 
0.0 0.0 0.0 
0.0 0.0 0.0 
0.0 0.0 0.0 
0.0 0.0 0.0 
0.0 0.0 0.0 
0.0 0.0 0.0 
0.0 0.0 0.0 
0.0 0.0 0.0 
0.0 0.0 0.0 
0.0 0.0 0.0 
0.0 0.0 0.0 
0.0 0.0 0.0 
0.0 0.0 0.0 
0.0 0.0 0.0 
0.0 0.0 0.0 
0.0 0.0 0.0 
0.0 0.0 0.0 
0.0 0.0 0.0 
0.0 0.0 0.0 
0.0 0.0 0.0 
0.0 0.0 0.0 
0.0 0.0 0.0 
0.0 0.0 0.0 
0.0 0.0 0.0 
0.0 0.0 0.0 
0.0 0.0 0.0 
0.0 0.0 0.0 
0.0 0.0 0.0 
0.0 0.0 0.0 
0.0 0.0 0.0 
0.0 0.0 0.0 
0.0 0.0 0.0 
0.0 0.0 0.0 
0.0 0.0 0.0 
0.0 0.0 0.0 
0.0 0.0 0.0 
0.0 0.0 0.0 
0.0 0.0 0.0 
0.0 0.0 0.0 
0.0 0.0 0.0 
0.0 0.0 0.0 
0.0 0.0 0.0 
0.0 0.0 0.0 
0.0 0.0 0.0 
0.0 0.0 0.0 
0.0 0.0 0.0 
0.0 0.0 0.0 
0.0 0.0 0.0 
0.0 0.0 0.0 
0.0 0.0 0.0 
0.0 0.0 0.0 
0.0 0.0 0.0 
0.0 0.0 0.0 
0.0 0.0 0.0 
0.0 0.0 0.0 
0.0 0.0 0.0 
0.0 0.0 0.0 
0.0 0.0 0.0 
0.0 0.0 0.0 
0.0 0.0 0.0 
0.0 0.0 0.0 
0.0 0.0 0.0 
0.0 0.0 0.0 
0.0 0.0 0.0 
0.0 0.0 0.0 
0.0 0.0 0.0 
0.0 0.0 0.0 
0.0 0.0 0.0 
0.0 0.0 0.0 
0.0 0.0 0.0 
0.0 0.0 0.0 
0.0 0.0 0.0 
0.0 0.0 0.0 
0.0 0.0 0.0 
0.0 0.0 0.0 
0.0 0.0 0.0 
0.0 0.0 0.0 
0.0 0.0 0.0 
0.0 0.0 0.0 
0.0 0.0 0.0 
0.0 0.0 0.0 
0.0 0.0 0.0 
0.0 0.0 0.0 
0.0 0.0 0.0 
0.0 0.0 0.0 
0.0 0.0 0.0 
0.0 0.0 0.0 
0.0 0.0 0.0 
0.0 0.0 0.0 
0.0 0.0 0.0 
0.0 0.0 0.0 
0.0 0.0 0.0 
0.0 0.0 0.0 
0.0 0.0 0.0 
0.0 0.0 0.0 
0.0 0.0 0.0 
0.0 0.0 0.0 
0.0 0.0 0.0 
0.0 0.0 0.0 
0.0 0.0 0.0 
0.0 0.0 0.0 
0.0 0.0 0.0 
0.0 0.0 0.0 
0.0 0.0 0.0 
0.0 0.0 0.0 
0.0 0.0 0.0 
0.0 0.0 0.0 
0.0 0.0 0.0 
0.0 0.0 0.0 
0.0 0.0 0.0 
0.0 0.0 0.0 
0.0 0.0 0.0 
0.0 0.0 0.0 
0.0 0.0 0.0 
0.0 0.0 0.0 
0.0 0.0 0.0 
0.0 0.0 0.0 
0.0 0.0 0.0 
0.0 0.0 0.0 
0.0 0.0 0.0 
0.0 0.0 0.0 
0.0 0.0 0.0 
0.0 0.0 0.0 
0.0 0.0 0.0 
0.0 0.0 0.0 
0.0 0.0 0.0 
0.0 0.0 0.0 
0.0 0.0 0.0 
0.0 0.0 0.0 
0.0 0.0 0.0 
0.0 0.0 0.0 
0.0 0.0 0.0 
0.0 0.0 0.0 
0.0 0.0 0.0 
0.0 0.0 0.0 
0.0 0.0 0.0 
0.0 0.0 0.0 
0.0 0.0 0.0 
0.0 0.0 0.0 
0.0 0.0 0.0 
0.0 0.0 0.0 
0.0 0.0 0.0 
0.0 0.0 0.0 
0.0 0.0 0.0 
0.0 0.0 0.0 
0.0 0.0 0.0 
0.0 0.0 0.0 
0.0 0.0 0.0 
0.0 0.0 0.0 
0.0 0.0 0.0 
0.0 0.0 0.0 
0.0 0.0 0.0 
0.0 0.0 0.0 
0.0 0.0 0.0 
0.0 0.0 0.0 
0.0 0.0 0.0 
0.0 0.0 0.0 
0.0 0.0 0.0 
0.0 0.0 0.0 
0.0 0.0 0.0 
0.0 0.0 0.0 
0.0 0.0 0.0 
0.0 0.0 0.0 
0.0 0.0 0.0 
0.0 0.0 0.0 
0.0 0.0 0.0 
0.0 0.0 0.0 
0.0 0.0 0.0 
0.0 0.0 0.0 
0.0 0.0 0.0 
0.0 0.0 0.0 
0.0 0.0 0.0 
0.0 0.0 0.0 
0.0 0.0 0.0 
0.0 0.0 0.0 
0.0 0.0 0.0 
0.0 0.0 0.0 
0.0 0.0 0.0 
0.0 0.0 0.0 
0.0 0.0 0.0 
0.0 0.0 0.0 
0.0 0.0 0.0 
0.0 0.0 0.0 
0.0 0.0 0.0 
0.0 0.0 0.0 
0.0 0.0 0.0 
0.0 0.0 0.0 
0.0 0.0 0.0 
0.0 0.0 0.0 
0.0 0.0 0.0 
0.0 0.0 0.0 
0.0 0.0 0.0 
0.0 0.0 0.0 
0.0 0.0 0.0 
0.0 0.0 0.0 
0.0 0.0 0.0 
0.0 0.0 0.0 
0.0 0.0 0.0 
0.0 0.0 0.0 
0.0 0.0 0.0 
0.0 0.0 0.0 
0.0 0.0 0.0 
0.0 0.0 0.0 
0.0 0.0 0.0 
0.0 0.0 0.0 
0.0 0.0 0.0 
0.0 0.0 0.0 
0.0 0.0 0.0 
0.0 0.0 0.0 
0.0 0.0 0.0 
0.0 0.0 0.0 
0.0 0.0 0.0 
0.0 0.0 0.0 
0.0 0.0 0.0 
0.0 0.0 0.0 
0.0 0.0 0.0 
0.0 0.0 0.0 
0.0 0.0 0.0 
0.0 0.0 0.0 
0.0 0.0 0.0 
0.0 0.0 0.0 
0.0 0.0 0.0 
0.0 0.0 0.0 
0.0 0.0 0.0 
0.0 0.0 0.0 
0.0 0.0 0.0 
0.0 0.0 0.0 
0.0 0.0 0.0 
0.0 0.0 0.0 
0.0 0.0 0.0 
0.0 0.0 0.0 
0.0 0.0 0.0 
0.0 0.0 0.0 
0.0 0.0 0.0 
0.0 0.0 0.0 
0.0 0.0 0.0 
0.0 0.0 0.0 
0.0 0.0 0.0 
0.0 0.0 0.0 
0.0 0.0 0.0 
0.0 0.0 0.0 
0.0 0.0 0.0 
0.0 0.0 0.0 
0.0 0.0 0.0 
0.0 0.0 0.0 
0.0 0.0 0.0 
0.0 0.0 0.0 
0.0 0.0 0.0 
0.0 0.0 0.0 
0.0 0.0 0.0 
0.0 0.0 0.0 
0.0 0.0 0.0 
0.0 0.0 0.0 
0.0 0.0 0.0 
0.0 0.0 0.0 
0.0 0.0 0.0 
0.0 0.0 0.0 
0.0 0.0 0.0 
0.0 0.0 0.0 
0.0 0.0 0.0 
0.0 0.0 0.0 
0.0 0.0 0.0 
0.0 0.0 0.0 
0.0 0.0 0.0 
0.0 0.0 0.0 
0.0 0.0 0.0 
0.0 0.0 0.0 
0.0 0.0 0.0 
0.0 0.0 0.0 
0.0 0.0 0.0 
0.0 0.0 0.0 
0.0 0.0 0.0 
0.0 0.0 0.0 
0.0 0.0 0.0 
0.0 0.0 0.0 
0.0 0.0 0.0 
0.0 0.0 0.0 
0.0 0.0 0.0 
0.0 0.0 0.0 
0.0 0.0 0.0 
0.0 0.0 0.0 
0.0 0.0 0.0 
0.0 0.0 0.0 
0.0 0.0 0.0 
0.0 0.0 0.0 
0.0 0.0 0.0 
0.0 0.0 0.0 
0.0 0.0 0.0 
0.0 0.0 0.0 
0.0 0.0 0.0 
0.0 0.0 0.0 
0.0 0.0 0.0 
0.0 0.0 0.0 
0.0 0.0 0.0 
0.0 0.0 0.0 
0.0 0.0 0.0 
0.0 0.0 0.0 
0.0 0.0 0.0 
0.0 0.0 0.0 
0.0 0.0 0.0 
0.0 0.0 0.0 
0.0 0.0 0.0 
0.0 0.0 0.0 
0.0 0.0 0.0 
0.0 0.0 0.0 
0.0 0.0 0.0 
0.0 0.0 0.0 
0.0 0.0 0.0 
0.0 0.0 0.0 
0.0 0.0 0.0 
0.0 0.0 0.0 
0.0 0.0 0.0 
0.0 0.0 0.0 
0.0 0.0 0.0 
0.0 0.0 0.0 
0.0 0.0 0.0 
0.0 0.0 0.0 
0.0 0.0 0.0 
0.0 0.0 0.0 
0.0 0.0 0.0 
0.0 0.0 0.0 
0.0 0.0 0.0 
0.0 0.0 0.0 
0.0 0.0 0.0 
0.0 0.0 0.0 
0.0 0.0 0.0 
0.0 0.0 0.0 
0.0 0.0 0.0 
0.0 0.0 0.0 
0.0 0.0 0.0 
0.0 0.0 0.0 
0.0 0.0 0.0 
0.0 0.0 0.0 
0.0 0.0 0.0 
0.0 0.0 0.0 
0.0 0.0 0.0 
0.0 0.0 0.0 
0.0 0.0 0.0 
0.0 0.0 0.0 
0.0 0.0 0.0 
0.0 0.0 0.0 
0.0 0.0 0.0 
0.0 0.0 0.0 
0.0 0.0 0.0 
0.0 0.0 0.0 
0.0 0.0 0.0 
0.0 0.0 0.0 
0.0 0.0 0.0 
0.0 0.0 0.0 
0.0 0.0 0.0 
0.0 0.0 0.0 
0.0 0.0 0.0 
0.0 0.0 0.0 
0.0 0.0 0.0 
0.0 0.0 0.0 
0.0 0.0 0.0 
0.0 0.0 0.0 
0.0 0.0 0.0 
0.0 0.0 0.0 
0.0 0.0 0.0 
0.0 0.0 0.0 
0.0 0.0 0.0 
0.0 0.0 0.0 
0.0 0.0 0.0 
0.0 0.0 0.0 
0.0 0.0 0.0 
0.0 0.0 0.0 
0.0 0.0 0.0 
0.0 0.0 0.0 
0.0 0.0 0.0 
0.0 0.0 0.0 
0.0 0.0 0.0 
0.0 0.0 0.0 
0.0 0.0 0.0 
0.0 0.0 0.0 
0.0 0.0 0.0 
0.0 0.0 0.0 
0.0 0.0 0.0 
0.0 0.0 0.0 
0.0 0.0 0.0 
0.0 0.0 0.0 
0.0 0.0 0.0 
0.0 0.0 0.0 
0.0 0.0 0.0 
0.0 0.0 0.0 
0.0 0.0 0.0 
0.0 0.0 0.0 
0.0 0.0 0.0 
0.0 0.0 0.0 
0.0 0.0 0.0 
0.0 0.0 0.0 
0.0 0.0 0.0 
0.0 0.0 0.0 
0.0 0.0 0.0 
0.0 0.0 0.0 
0.0 0.0 0.0 
0.0 0.0 0.0 
0.0 0.0 0.0 
0.0 0.0 0.0 
0.0 0.0 0.0 
0.0 0.0 0.0 
0.0 0.0 0.0 
0.0 0.0 0.0 
0.0 0.0 0.0 
0.0 0.0 0.0 
0.0 0.0 0.0 
0.0 0.0 0.0 
0.0 0.0 0.0 
0.0 0.0 0.0 
0.0 0.0 0.0 
0.0 0.0 0.0 
0.0 0.0 0.0 
0.0 0.0 0.0 
0.0 0.0 0.0 
0.0 0.0 0.0 
0.0 0.0 0.0 
0.0 0.0 0.0 
0.0 0.0 0.0 
0.0 0.0 0.0 
0.0 0.0 0.0 
0.0 0.0 0.0 
0.0 0.0 0.0 
0.0 0.0 0.0 
0.0 0.0 0.0 
0.0 0.0 0.0 
0.0 0.0 0.0 
0.0 0.0 0.0 
0.0 0.0 0.0 
0.0 0.0 0.0 
0.0 0.0 0.0 
0.0 0.0 0.0 
0.0 0.0 0.0 
0.0 0.0 0.0 
0.0 0.0 0.0 
0.0 0.0 0.0 
0.0 0.0 0.0 
0.0 0.0 0.0 
0.0 0.0 0.0 
0.0 0.0 0.0 
0.0 0.0 0.0 
0.0 0.0 0.0 
0.0 0.0 0.0 
0.0 0.0 0.0 
0.0 0.0 0.0 
0.0 0.0 0.0 
0.0 0.0 0.0 
0.0 0.0 0.0 
0.0 0.0 0.0 
0.0 0.0 0.0 
0.0 0.0 0.0 
0.0 0.0 0.0 
0.0 0.0 0.0 
0.0 0.0 0.0 
0.0 0.0 0.0 
0.0 0.0 0.0 
0.0 0.0 0.0 
0.0 0.0 0.0 
0.0 0.0 0.0 
0.0 0.0 0.0 
0.0 0.0 0.0 
0.0 0.0 0.0 
0.0 0.0 0.0 
0.0 0.0 0.0 
0.0 0.0 0.0 
0.0 0.0 0.0 
0.0 0.0 0.0 
0.0 0.0 0.0 
0.0 0.0 0.0 
0.0 0.0 0.0 
0.0 0.0 0.0 
0.0 0.0 0.0 
0.0 0.0 0.0 
0.0 0.0 0.0 
0.0 0.0 0.0 
0.0 0.0 0.0 
0.0 0.0 0.0 
0.0 0.0 0.0 
0.0 0.0 0.0 
0.0 0.0 0.0 
0.0 0.0 0.0 
0.0 0.0 0.0 
0.0 0.0 0.0 
0.0 0.0 0.0 
0.0 0.0 0.0 
0.0 0.0 0.0 
0.0 0.0 0.0 
0.0 0.0 0.0 
0.0 0.0 0.0 
0.0 0.0 0.0 
0.0 0.0 0.0 
0.0 0.0 0.0 
0.0 0.0 0.0 
0.0 0.0 0.0 
0.0 0.0 0.0 
0.0 0.0 0.0 
0.0 0.0 0.0 
0.0 0.0 0.0 
0.0 0.0 0.0 
0.0 0.0 0.0 
0.0 0.0 0.0 
0.0 0.0 0.0 
0.0 0.0 0.0 
0.0 0.0 0.0 
0.0 0.0 0.0 
0.0 0.0 0.0 
0.0 0.0 0.0 
0.0 0.0 0.0 
0.0 0.0 0.0 
0.0 0.0 0.0 
0.0 0.0 0.0 
0.0 0.0 0.0 
0.0 0.0 0.0 
0.0 0.0 0.0 
0.0 0.0 0.0 
0.0 0.0 0.0 
0.0 0.0 0.0 
0.0 0.0 0.0 
0.0 0.0 0.0 
0.0 0.0 0.0 
0.0 0.0 0.0 
0.0 0.0 0.0 
0.0 0.0 0.0 
0.0 0.0 0.0 
0.0 0.0 0.0 
0.0 0.0 0.0 
0.0 0.0 0.0 
0.0 0.0 0.0 
0.0 0.0 0.0 
0.0 0.0 0.0 
0.0 0.0 0.0 
0.0 0.0 0.0 
0.0 0.0 0.0 
0.0 0.0 0.0 
0.0 0.0 0.0 
0.0 0.0 0.0 
0.0 0.0 0.0 
0.0 0.0 0.0 
0.0 0.0 0.0 
0.0 0.0 0.0 
0.0 0.0 0.0 
0.0 0.0 0.0 
0.0 0.0 0.0 
0.0 0.0 0.0 
0.0 0.0 0.0 
0.0 0.0 0.0 
0.0 0.0 0.0 
0.0 0.0 0.0 
0.0 0.0 0.0 
0.0 0.0 0.0 
0.0 0.0 0.0 
0.0 0.0 0.0 
0.0 0.0 0.0 
0.0 0.0 0.0 
0.0 0.0 0.0 
0.0 0.0 0.0 
0.0 0.0 0.0 
0.0 0.0 0.0 
0.0 0.0 0.0 
0.0 0.0 0.0 
0.0 0.0 0.0 
0.0 0.0 0.0 
0.0 0.0 0.0 
0.0 0.0 0.0 
0.0 0.0 0.0 
0.0 0.0 0.0 
0.0 0.0 0.0 
0.0 0.0 0.0 
0.0 0.0 0.0 
0.0 0.0 0.0 
0.0 0.0 0.0 
0.0 0.0 0.0 
0.0 0.0 0.0 
0.0 0.0 0.0 
0.0 0.0 0.0 
0.0 0.0 0.0 
0.0 0.0 0.0 
0.0 0.0 0.0 
0.0 0.0 0.0 
0.0 0.0 0.0 
0.0 0.0 0.0 
0.0 0.0 0.0 
0.0 0.0 0.0 
0.0 0.0 0.0 
0.0 0.0 0.0 
0.0 0.0 0.0 
0.0 0.0 0.0 
0.0 0.0 0.0 
0.0 0.0 0.0 
0.0 0.0 0.0 
0.0 0.0 0.0 
0.0 0.0 0.0 
0.0 0.0 0.0 
0.0 0.0 0.0 
0.0 0.0 0.0 
0.0 0.0 0.0 
0.0 0.0 0.0 
0.0 0.0 0.0 
0.0 0.0 0.0 
0.0 0.0 0.0 
0.0 0.0 0.0 
0.0 0.0 0.0 
0.0 0.0 0.0 
0.0 0.0 0.0 
0.0 0.0 0.0 
0.0 0.0 0.0 
0.0 0.0 0.0 
0.0 0.0 0.0 
0.0 0.0 0.0 
0.0 0.0 0.0 
0.0 0.0 0.0 
0.0 0.0 0.0 
0.0 0.0 0.0 
0.0 0.0 0.0 
0.0 0.0 0.0 
0.0 0.0 0.0 
0.0 0.0 0.0 
0.0 0.0 0.0 
0.0 0.0 0.0 
0.0 0.0 0.0 
0.0 0.0 0.0 
0.0 0.0 0.0 
0.0 0.0 0.0 
0.0 0.0 0.0 
0.0 0.0 0.0 
0.0 0.0 0.0 
0.0 0.0 0.0 
0.0 0.0 0.0 
0.0 0.0 0.0 
0.0 0.0 0.0 
0.0 0.0 0.0 
0.0 0.0 0.0 
0.0 0.0 0.0 
0.0 0.0 0.0 
0.0 0.0 0.0 
0.0 0.0 0.0 
0.0 0.0 0.0 
0.0 0.0 0.0 
0.0 0.0 0.0 
0.0 0.0 0.0 
0.0 0.0 0.0 
0.0 0.0 0.0 
0.0 0.0 0.0 
0.0 0.0 0.0 
0.0 0.0 0.0 
0.0 0.0 0.0 
0.0 0.0 0.0 
0.0 0.0 0.0 
0.0 0.0 0.0 
0.0 0.0 0.0 
0.0 0.0 0.0 
0.0 0.0 0.0 
0.0 0.0 0.0 
0.0 0.0 0.0 
0.0 0.0 0.0 
0.0 0.0 0.0 
0.0 0.0 0.0 
0.0 0.0 0.0 
0.0 0.0 0.0 
0.0 0.0 0.0 
0.0 0.0 0.0 
0.0 0.0 0.0 
0.0 0.0 0.0 
0.0 0.0 0.0 
0.0 0.0 0.0 
0.0 0.0 0.0 
0.0 0.0 0.0 
0.0 0.0 0.0 
0.0 0.0 0.0 
0.0 0.0 0.0 
0.0 0.0 0.0 
0.0 0.0 0.0 
0.0 0.0 0.0 
0.0 0.0 0.0 
0.0 0.0 0.0 
0.0 0.0 0.0 
0.0 0.0 0.0 
0.0 0.0 0.0 
0.0 0.0 0.0 
0.0 0.0 0.0 
0.0 0.0 0.0 
0.0 0.0 0.0 
0.0 0.0 0.0 
0.0 0.0 0.0 
0.0 0.0 0.0 
0.0 0.0 0.0 
0.0 0.0 0.0 
0.0 0.0 0.0 
0.0 0.0 0.0 
0.0 0.0 0.0 
0.0 0.0 0.0 
0.0 0.0 0.0 
0.0 0.0 0.0 
0.0 0.0 0.0 
0.0 0.0 0.0 
0.0 0.0 0.0 
0.0 0.0 0.0 
0.0 0.0 0.0 
0.0 0.0 0.0 
0.0 0.0 0.0 
0.0 0.0 0.0 
0.0 0.0 0.0 
0.0 0.0 0.0 
0.0 0.0 0.0 
0.0 0.0 0.0 
0.0 0.0 0.0 
0.0 0.0 0.0 
0.0 0.0 0.0 
0.0 0.0 0.0 
0.0 0.0 0.0 
0.0 0.0 0.0 
0.0 0.0 0.0 
0.0 0.0 0.0 
0.0 0.0 0.0 
0.0 0.0 0.0 
0.0 0.0 0.0 
0.0 0.0 0.0 
0.0 0.0 0.0 
0.0 0.0 0.0 
0.0 0.0 0.0 
0.0 0.0 0.0 
0.0 0.0 0.0 
0.0 0.0 0.0 
0.0 0.0 0.0 
0.0 0.0 0.0 
0.0 0.0 0.0 
0.0 0.0 0.0 
0.0 0.0 0.0 
0.0 0.0 0.0 
0.0 0.0 0.0 
0.0 0.0 0.0 
0.0 0.0 0.0 
0.0 0.0 0.0 
0.0 0.0 0.0 
0.0 0.0 0.0 
0.0 0.0 0.0 
0.0 0.0 0.0 
0.0 0.0 0.0 
0.0 0.0 0.0 
0.0 0.0 0.0 
0.0 0.0 0.0 
0.0 0.0 0.0 
0.0 0.0 0.0 
0.0 0.0 0.0 
0.0 0.0 0.0 
0.0 0.0 0.0 
0.0 0.0 0.0 
0.0 0.0 0.0 
0.0 0.0 0.0 
0.0 0.0 0.0 
0.0 0.0 0.0 
0.0 0.0 0.0 
0.0 0.0 0.0 
0.0 0.0 0.0 
0.0 0.0 0.0 
0.0 0.0 0.0 
0.0 0.0 0.0 
0.0 0.0 0.0 
0.0 0.0 0.0 
0.0 0.0 0.0 
0.0 0.0 0.0 
0.0 0.0 0.0 
0.0 0.0 0.0 
0.0 0.0 0.0 
0.0 0.0 0.0 
0.0 0.0 0.0 
0.0 0.0 0.0 
0.0 0.0 0.0 
0.0 0.0 0.0 
0.0 0.0 0.0 
0.0 0.0 0.0 
0.0 0.0 0.0 
0.0 0.0 0.0 
0.0 0.0 0.0 
0.0 0.0 0.0 
0.0 0.0 0.0 
0.0 0.0 0.0 
0.0 0.0 0.0 
0.0 0.0 0.0 
0.0 0.0 0.0 
0.0 0.0 0.0 
0.0 0.0 0.0 
0.0 0.0 0.0 
0.0 0.0 0.0 
0.0 0.0 0.0 
0.0 0.0 0.0 
0.0 0.0 0.0 
0.0 0.0 0.0 
0.0 0.0 0.0 
0.0 0.0 0.0 
0.0 0.0 0.0 
0.0 0.0 0.0 
0.0 0.0 0.0 
0.0 0.0 0.0 
0.0 0.0 0.0 
0.0 0.0 0.0 
0.0 0.0 0.0 
0.0 0.0 0.0 
0.0 0.0 0.0 
0.0 0.0 0.0 
0.0 0.0 0.0 
0.0 0.0 0.0 
0.0 0.0 0.0 
0.0 0.0 0.0 
0.0 0.0 0.0 
0.0 0.0 0.0 
0.0 0.0 0.0 
0.0 0.0 0.0 
0.0 0.0 0.0 
0.0 0.0 0.0 
0.0 0.0 0.0 
0.0 0.0 0.0 
0.0 0.0 0.0 
0.0 0.0 0.0 
0.0 0.0 0.0 
0.0 0.0 0.0 
0.0 0.0 0.0 
0.0 0.0 0.0 
0.0 0.0 0.0 
0.0 0.0 0.0 
0.0 0.0 0.0 
0.0 0.0 0.0 
0.0 0.0 0.0 
0.0 0.0 0.0 
0.0 0.0 0.0 
0.0 0.0 0.0 
0.0 0.0 0.0 
0.0 0.0 0.0 
0.0 0.0 0.0 
0.0 0.0 0.0 
0.0 0.0 0.0 
0.0 0.0 0.0 
0.0 0.0 0.0 
0.0 0.0 0.0 
0.0 0.0 0.0 
0.0 0.0 0.0 
0.0 0.0 0.0 
0.0 0.0 0.0 
0.0 0.0 0.0 
0.0 0.0 0.0 
0.0 0.0 0.0 
0.0 0.0 0.0 
0.0 0.0 0.0 
0.0 0.0 0.0 
0.0 0.0 0.0 
0.0 0.0 0.0 
0.0 0.0 0.0 
0.0 0.0 0.0 
0.0 0.0 0.0 
0.0 0.0 0.0 
0.0 0.0 0.0 
0.0 0.0 0.0 
0.0 0.0 0.0 
0.0 0.0 0.0 
0.0 0.0 0.0 
0.0 0.0 0.0 
0.0 0.0 0.0 
0.0 0.0 0.0 
0.0 0.0 0.0 
0.0 0.0 0.0 
0.0 0.0 0.0 
0.0 0.0 0.0 
0.0 0.0 0.0 
0.0 0.0 0.0 
0.0 0.0 0.0 
0.0 0.0 0.0 
0.0 0.0 0.0 
0.0 0.0 0.0 
0.0 0.0 0.0 
0.0 0.0 0.0 
0.0 0.0 0.0 
0.0 0.0 0.0 
0.0 0.0 0.0 
0.0 0.0 0.0 
0.0 0.0 0.0 
0.0 0.0 0.0 
0.0 0.0 0.0 
0.0 0.0 0.0 
0.0 0.0 0.0 
0.0 0.0 0.0 
0.0 0.0 0.0 
0.0 0.0 0.0 
0.0 0.0 0.0 
0.0 0.0 0.0 
0.0 0.0 0.0 
0.0 0.0 0.0 
0.0 0.0 0.0 
0.0 0.0 0.0 
0.0 0.0 0.0 

TENSORS element_materi_stress float
-2.556484621174e+01 1.754583995347e+01 0.0 
1.754583995347e+01 -3.893548361283e+01 0.0 
0.0 0.0 -1.895009894737e+01 
-2.957037319001e+01 1.901645196247e+01 0.0 
1.901645196247e+01 -4.168763134703e+01 0.0 
0.0 0.0 -2.097740136111e+01 
-1.242551544245e+02 4.280483107959e+01 0.0 
4.280483107959e+01 -2.365435399858e+02 0.0 
0.0 0.0 -1.097988943260e+02 
-8.223733349978e+01 5.214350938020e+00 0.0 
5.214350938020e+00 -1.723789900062e+02 0.0 
0.0 0.0 -7.598489705179e+01 
-4.066889216652e+01 -2.115261038558e-01 0.0 
-2.115261038558e-01 -3.029260487574e+01 0.0 
0.0 0.0 -2.088844911268e+01 
-2.083587698937e+01 6.312744021806e+00 0.0 
6.312744021806e+00 -3.959626526400e+01 0.0 
0.0 0.0 -1.772964267601e+01 
-3.948346362623e+01 -5.515613759731e-01 0.0 
-5.515613759731e-01 -3.054907764171e+01 0.0 
0.0 0.0 -2.060976238038e+01 
-3.061158880660e+01 1.943074732428e+01 0.0 
1.943074732428e+01 -4.513797639768e+01 0.0 
0.0 0.0 -2.232486956128e+01 
-4.100953617315e+01 2.007594788185e+00 0.0 
2.007594788185e+00 -3.159006067673e+01 0.0 
0.0 0.0 -2.137987905496e+01 
-8.144424729476e+01 6.367824218663e+00 0.0 
6.367824218663e+00 -1.703861476499e+02 0.0 
0.0 0.0 -7.514911848339e+01 
-1.129931183610e+02 -1.886414685668e+00 0.0 
-1.886414685668e+00 -2.554992057648e+02 0.0 
0.0 0.0 -1.119782369861e+02 
-2.303352502654e+01 1.659111085760e+01 0.0 
1.659111085760e+01 -3.420286253755e+01 0.0 
0.0 0.0 -1.677091626923e+01 
-1.670473923792e+02 -3.926540157767e-01 0.0 
-3.926540157767e-01 -3.698468468915e+02 0.0 
0.0 0.0 -1.670466321375e+02 
-5.684055434755e+01 5.422497356185e+00 0.0 
5.422497356185e+00 -5.005464277640e+01 0.0 
0.0 0.0 -3.166855913718e+01 
-1.709849189738e+02 1.459867625540e+00 0.0 
1.459867625540e+00 -3.779919267767e+02 0.0 
0.0 0.0 -1.709746241170e+02 
-8.202470931146e+01 5.117091423063e+00 0.0 
5.117091423063e+00 -1.806534570197e+02 0.0 
0.0 0.0 -7.840344989934e+01 
-4.018765111904e+01 1.333261022776e+00 0.0 
1.333261022776e+00 -2.660474205787e+01 0.0 
0.0 0.0 -1.963771795307e+01 
-1.874502961581e+01 4.104304618857e+00 0.0 
4.104304618857e+00 -3.951428883578e+01 0.0 
0.0 0.0 -1.707779553548e+01 
-2.468648193096e+01 6.608631402794e-01 0.0 
6.608631402794e-01 -7.427711139133e+01 0.0 
0.0 0.0 -2.928907799669e+01 
-2.794215076255e+01 -7.910465775671e-01 0.0 
-7.910465775671e-01 -8.102679911550e+01 0.0 
0.0 0.0 -3.229068496341e+01 
-8.465609976367e+01 8.832547419230e+00 0.0 
8.832547419230e+00 -1.723383665077e+02 0.0 
0.0 0.0 -7.669833988142e+01 
-2.506895911981e+01 1.733259471970e+01 0.0 
1.733259471970e+01 -3.591048567390e+01 0.0 
0.0 0.0 -1.789383343812e+01 
-3.447913600770e+01 2.070840980070e+01 0.0 
2.070840980070e+01 -4.445132376940e+01 0.0 
0.0 0.0 -2.327913793313e+01 
-1.482925452203e+02 1.349420444547e+01 0.0 
1.349420444547e+01 -3.278109119616e+02 0.0 
0.0 0.0 -1.472838677977e+02 
-7.158905894238e+01 1.426886463135e+01 0.0 
1.426886463135e+01 -7.731424009752e+01 0.0 
0.0 0.0 -4.427098971197e+01 
-1.194042113959e+02 -5.236513573586e-01 0.0 
-5.236513573586e-01 -2.700703740227e+02 0.0 
0.0 0.0 -1.189858657379e+02 
-5.232410896619e+01 1.058624198297e+01 0.0 
1.058624198297e+01 -1.861648589205e+01 0.0 
0.0 0.0 -2.088217845747e+01 
-1.394481464040e+02 3.514232421365e+01 0.0 
3.514232421365e+01 -2.883170456540e+02 0.0 
0.0 0.0 -1.315693513954e+02 
-7.729403929232e+01 1.993817314583e+01 0.0 
1.993817314583e+01 -8.044763216435e+01 0.0 
0.0 0.0 -4.692250143700e+01 
-1.517155682414e+02 1.192623595304e+01 0.0 
1.192623595304e+01 -3.356511802519e+02 0.0 
0.0 0.0 -1.509455047142e+02 
-1.862393223163e+01 -4.461030226599e+00 0.0 
-4.461030226599e+00 -5.641747979774e+01 0.0 
0.0 0.0 -2.211242360881e+01 
-8.890198230734e+00 -3.896377042382e+00 0.0 
-3.896377042382e+00 -2.734674139187e+01 0.0 
0.0 0.0 -1.047108188678e+01 
-1.293547287656e+02 4.623642277157e+01 0.0 
4.623642277157e+01 -2.399856851360e+02 0.0 
0.0 0.0 -1.125757625215e+02 
-1.434302206550e+02 2.597011601003e-01 0.0 
2.597011601003e-01 -3.208181471835e+02 0.0 
0.0 0.0 -1.434298404456e+02 
-1.607289349028e+02 6.347085975103e+00 0.0 
6.347085975103e+00 -3.560982878440e+02 0.0 
0.0 0.0 -1.605229503401e+02 
-1.711084760731e+02 2.296429010541e+00 0.0 
2.296429010541e+00 -3.782017810954e+02 0.0 
0.0 0.0 -1.710830144199e+02 
-1.721684300721e+02 4.438258257095e+00 0.0 
4.438258257095e+00 -3.801894484326e+02 0.0 
0.0 0.0 -1.720737801280e+02 
-1.487238084781e+02 2.248845952368e+01 0.0 
2.248845952368e+01 -3.230278862354e+02 0.0 
0.0 0.0 -1.458691326491e+02 
-3.108748296302e+01 1.342675192571e+00 0.0 
1.342675192571e+00 -1.218675268683e+01 0.0 
0.0 0.0 -1.258227069495e+01 
-3.077153886515e+01 -1.322727532376e+00 0.0 
-1.322727532376e+00 -1.267882268919e+01 0.0 
0.0 0.0 -1.263510846630e+01 
-3.628322997461e+01 2.111933870018e+01 0.0 
2.111933870018e+01 -4.323968990007e+01 0.0 
0.0 0.0 -2.345687596240e+01 
-1.616324213654e+02 8.094155944775e+00 0.0 
8.094155944775e+00 -3.575808428514e+02 0.0 
0.0 0.0 -1.612986399045e+02 
-2.603798879659e+01 1.771865466958e+01 0.0 
1.771865466958e+01 -3.843981402398e+01 0.0 
0.0 0.0 -1.894334084617e+01 
-4.525358950352e+01 1.134214807092e+01 0.0 
1.134214807092e+01 -1.652873145215e+01 0.0 
0.0 0.0 -1.813469628670e+01 
-7.961883417949e+01 1.950476216962e+00 0.0 
1.950476216962e+00 -1.603633888822e+02 0.0 
0.0 0.0 -7.159466691851e+01 
-2.492935588168e+01 1.730514769836e+01 0.0 
1.730514769836e+01 -3.863458962084e+01 0.0 
0.0 0.0 -1.866918365076e+01 
-1.226408093817e+01 -3.894888893547e+00 0.0 
-3.894888893547e+00 -4.170515551403e+01 0.0 
0.0 0.0 -1.579077093566e+01 
-7.670346183364e+01 2.176576007085e+00 0.0 
2.176576007085e+00 -1.609030822052e+02 0.0 
0.0 0.0 -7.088196321164e+01 
-1.514752486433e+01 -2.897300605134e+00 0.0 
-2.897300605134e+00 -2.481105867510e+01 0.0 
0.0 0.0 -1.197744849313e+01 
-5.478646241928e+01 6.252876575894e+00 0.0 
6.252876575894e+00 -4.154112014220e+01 0.0 
0.0 0.0 -2.849827476844e+01 
-3.582718320179e+01 2.110596784425e+01 0.0 
2.110596784425e+01 -4.453138711851e+01 0.0 
0.0 0.0 -2.370757109609e+01 
-3.386417001048e+01 1.042328570159e+00 0.0 
1.042328570159e+00 -9.330110886755e+01 0.0 
0.0 0.0 -3.774958366341e+01 
-2.439685878590e+01 -4.302768290822e+00 0.0 
-4.302768290822e+00 -7.252906032759e+01 0.0 
0.0 0.0 -2.867777573404e+01 
-2.879993640190e+01 1.862834245984e+01 0.0 
1.862834245984e+01 -3.817361493205e+01 0.0 
0.0 0.0 -1.969206540018e+01 
-1.076094941479e+02 3.622191261653e+01 0.0 
3.622191261653e+01 -2.114216647848e+02 0.0 
0.0 0.0 -9.622048766075e+01 
-4.997042174541e+01 1.501921128271e-01 0.0 
1.501921128271e-01 -1.267934166682e+02 0.0 
0.0 0.0 -5.262915152408e+01 
-3.746574863788e+01 -8.627824523138e-01 0.0 
-8.627824523138e-01 -1.007981419763e+02 0.0 
0.0 0.0 -4.107916718425e+01 
-1.427750086099e+02 -1.268915415936e+00 0.0 
-1.268915415936e+00 -3.194310440513e+02 0.0 
0.0 0.0 -1.427658944958e+02 
-1.619431822911e+01 4.889984808664e-01 0.0 
4.889984808664e-01 -5.665606606274e+01 0.0 
0.0 0.0 -2.145511528756e+01 
-8.367265476269e+01 7.297000606082e+00 0.0 
7.297000606082e+00 -1.814039875936e+02 0.0 
0.0 0.0 -7.912299270689e+01 
-2.739386319411e+01 -4.978330057996e-01 0.0 
-4.978330057996e-01 -2.130237048922e+01 0.0 
0.0 0.0 -1.420887010500e+01 
-1.359188118678e+02 2.880394344325e+01 0.0 
2.880394344325e+01 -2.891174146941e+02 0.0 
0.0 0.0 -1.306821790291e+02 
-4.949815445887e+01 2.359825412697e+01 0.0 
2.359825412697e+01 -9.493639661669e+01 0.0 
0.0 0.0 -4.293036532267e+01 
-2.282810459465e+01 -3.337907026736e+00 0.0 
-3.337907026736e+00 -6.971893565889e+01 0.0 
0.0 0.0 -2.736411207606e+01 
-1.662634315711e+02 1.526276795715e+00 0.0 
1.526276795715e+00 -3.681861770446e+02 0.0 
0.0 0.0 -1.662518955365e+02 
-2.657424039022e+01 1.785956576756e+01 0.0 
1.785956576756e+01 -3.673798274822e+01 0.0 
0.0 0.0 -1.859366694153e+01 
-1.923589714784e+01 2.739428483615e-01 0.0 
2.739428483615e-01 -2.050716313144e+01 0.0 
0.0 0.0 -1.222487203854e+01 
-1.291530592538e+02 4.510793739854e+01 0.0 
4.510793739854e+01 -2.428023617141e+02 0.0 
0.0 0.0 -1.134258876001e+02 
-2.151411631388e+01 -5.548115102106e+00 0.0 
-5.548115102106e+00 -6.560369444981e+01 0.0 
0.0 0.0 -2.573534322910e+01 
-1.363491850577e+02 4.080217477928e+01 0.0 
4.080217477928e+01 -2.710712159852e+02 0.0 
0.0 0.0 -1.249553665681e+02 
-1.246756495124e+02 -1.173778441548e+00 0.0 
-1.173778441548e+00 -2.818573735195e+02 0.0 
0.0 0.0 -1.246668846320e+02 
-9.442730653492e+01 2.461103251501e+01 0.0 
2.461103251501e+01 -2.026855849767e+02 0.0 
0.0 0.0 -8.909497390849e+01 
-1.356395961005e+02 3.446679072265e+01 0.0 
3.446679072265e+01 -2.807424111868e+02 0.0 
0.0 0.0 -1.278687377442e+02 
-3.299967763943e+00 -6.889973374482e-01 0.0 
-6.889973374482e-01 -2.985026970910e+01 0.0 
0.0 0.0 -9.545071241913e+00 
-5.323867741813e+01 -1.902221207898e+00 0.0 
-1.902221207898e+00 -1.334406023391e+02 0.0 
0.0 0.0 -5.560378392716e+01 
-9.167703939692e+01 1.875132948073e+01 0.0 
1.875132948073e+01 -1.803093763587e+02 0.0 
0.0 0.0 -8.119592472670e+01 
-1.172605578707e+02 4.139102155288e+01 0.0 
4.139102155288e+01 -2.223745167500e+02 0.0 
0.0 0.0 -1.029187125598e+02 
-2.216867416095e+01 1.491159582766e+01 0.0 
1.491159582766e+01 -3.612275287564e+01 0.0 
0.0 0.0 -1.708742811098e+01 
-1.779813273152e+01 -6.515483508415e-01 0.0 
-6.515483508415e-01 -5.997284826305e+01 0.0 
0.0 0.0 -2.293129429837e+01 
-2.689794731200e+01 1.800322040613e+01 0.0 
1.800322040613e+01 -3.778276347070e+01 0.0 
0.0 0.0 -1.900421323481e+01 
-1.941528283060e+01 -5.843660839732e+00 0.0 
-5.843660839732e+00 -6.087595668074e+01 0.0 
0.0 0.0 -2.368737185340e+01 
-4.209278790265e+01 9.502895652040e-01 0.0 
9.502895652040e-01 -2.621408247133e+01 0.0 
0.0 0.0 -2.009206111220e+01 
-3.459853371344e+01 2.081866010816e+01 0.0 
2.081866010816e+01 -4.584186592410e+01 0.0 
0.0 0.0 -2.373211989126e+01 
-2.354290725567e+01 1.675332124798e+01 0.0 
1.675332124798e+01 -3.367336485406e+01 0.0 
0.0 0.0 -1.676488163292e+01 
-4.737910138329e+01 2.708083815957e+00 0.0 
2.708083815957e+00 -4.219528951958e+01 0.0 
0.0 0.0 -2.647231727086e+01 
-4.468854951768e+01 2.402920950781e-01 0.0 
2.402920950781e-01 -4.100639890249e+01 0.0 
0.0 0.0 -2.530848452605e+01 
-1.286709672328e+02 -2.943529262142e-01 0.0 
-2.943529262142e-01 -2.901770688291e+02 0.0 
0.0 0.0 -1.286704307617e+02 
-1.389786562517e+02 -1.001310827148e+00 0.0 
-1.001310827148e+00 -3.115598823160e+02 0.0 
0.0 0.0 -1.389728468734e+02 
-1.081485815414e+02 3.943051325133e+01 0.0 
3.943051325133e+01 -1.902990573919e+02 0.0 
0.0 0.0 -8.913429167999e+01 
-4.312555398959e+01 2.554921766148e+00 0.0 
2.554921766148e+00 -3.043648207710e+01 0.0 
0.0 0.0 -2.166861082001e+01 
-7.785036802603e+00 -4.412660207076e+00 0.0 
-4.412660207076e+00 -2.619620228454e+01 0.0 
0.0 0.0 -1.015048694547e+01 
-5.923626064000e+01 1.360257680130e+01 0.0 
1.360257680130e+01 -3.681019345504e+01 0.0 
0.0 0.0 -2.841393622851e+01 
-6.488861820961e+01 2.048921048810e+00 0.0 
2.048921048810e+00 -1.107525717805e+02 0.0 
0.0 0.0 -5.229235699702e+01 
-6.553436901481e+01 1.695345528400e+00 0.0 
1.695345528400e+00 -1.073798624968e+02 0.0 
0.0 0.0 -5.147426945348e+01 
-1.049280391691e+02 3.058156150978e+01 0.0 
3.058156150978e+01 -2.167635865632e+02 0.0 
0.0 0.0 -9.707268935009e+01 
-1.519716022401e+02 2.573210885434e+01 0.0 
2.573210885434e+01 -3.271662571620e+02 0.0 
0.0 0.0 -1.482703360405e+02 
-4.482518458672e+01 2.482294571883e+00 0.0 
2.482294571883e+00 -2.609355773734e+01 0.0 
0.0 0.0 -2.087562269722e+01 
-1.600119559529e+02 7.698262091870e+00 0.0 
7.698262091870e+00 -3.543066618411e+02 0.0 
0.0 0.0 -1.597074160304e+02 
-4.899936502184e+01 9.049546030849e-01 0.0 
9.049546030849e-01 -6.122912630801e+01 0.0 
0.0 0.0 -3.266854739896e+01 
-4.121631231060e+01 2.181340117912e+01 0.0 
2.181340117912e+01 -7.671055688107e+01 0.0 
0.0 0.0 -3.497806075750e+01 
-3.680751905318e+01 1.452749382918e+00 0.0 
1.452749382918e+00 -2.157636848634e+01 0.0 
0.0 0.0 -1.711516626186e+01 
-1.701575548493e+02 2.455144511178e-01 0.0 
2.455144511178e-01 -3.763050649511e+02 0.0 
0.0 0.0 -1.701572624507e+02 
-1.155995589510e+02 2.362881162503e+01 0.0 
2.362881162503e+01 -2.506964777145e+02 0.0 
0.0 0.0 -1.115860514533e+02 
-1.364107283668e+02 2.937420704242e+01 0.0 
2.937420704242e+01 -2.895052781842e+02 0.0 
0.0 0.0 -1.309681908881e+02 
-4.104870386054e+01 1.809034131744e+01 0.0 
1.809034131744e+01 -8.991414124054e+01 0.0 
0.0 0.0 -3.888885353032e+01 
-2.102225561631e+01 -4.348670036508e+00 0.0 
-4.348670036508e+00 -3.960150106389e+01 0.0 
0.0 0.0 -1.778712700406e+01 
-1.576849942335e+02 5.354012286295e-01 0.0 
5.354012286295e-01 -3.504080257854e+02 0.0 
0.0 0.0 -1.576835068541e+02 
-7.142307191944e+01 2.437165140489e+00 0.0 
2.437165140489e+00 -1.273654941212e+02 0.0 
0.0 0.0 -5.923656981220e+01 
-2.614913218467e+01 -2.227388629137e+00 0.0 
-2.227388629137e+00 -2.395767529211e+01 0.0 
0.0 0.0 -1.463204224303e+01 
-1.682850823486e+02 2.415391047039e+00 0.0 
2.415391047039e+00 -3.723307242546e+02 0.0 
0.0 0.0 -1.682564941535e+02 
-1.008713373045e+02 3.556277517587e+01 0.0 
3.556277517587e+01 -1.832522731959e+02 0.0 
0.0 0.0 -8.483708315012e+01 
1.474687933490e-01 4.905128772408e-01 0.0 
4.905128772408e-01 -2.271590731029e+01 0.0 
0.0 0.0 -4.052629375000e+00 
-6.115941870864e+01 1.893436561261e+01 0.0 
1.893436561261e+01 -1.361517524819e+02 0.0 
0.0 0.0 -5.879335135715e+01 
-4.627401718329e+01 2.227397398334e+01 0.0 
2.227397398334e+01 -3.963163710632e+01 0.0 
0.0 0.0 -2.537169628688e+01 
-6.875850335620e+01 -1.939129706212e+00 0.0 
-1.939129706212e+00 -1.644779470775e+02 0.0 
0.0 0.0 -6.957093513012e+01 
-3.823803252948e+01 2.027138487264e+01 0.0 
2.027138487264e+01 -7.460473781269e+01 0.0 
0.0 0.0 -3.345283110265e+01 
-4.731973199647e+01 2.247208864088e+01 0.0 
2.247208864088e+01 -9.297734480802e+01 0.0 
0.0 0.0 -4.168912304135e+01 
-1.642014610099e+02 4.767617914750e+00 0.0 
4.767617914750e+00 -3.635904930320e+02 0.0 
0.0 0.0 -1.640875269616e+02 
-4.692683472295e+01 -2.613774250874e-01 0.0 
-2.613774250874e-01 -5.450743648552e+01 0.0 
0.0 0.0 -3.003028136254e+01 
-4.540157314974e+01 2.126979850861e+01 0.0 
2.126979850861e+01 -9.189401033058e+01 0.0 
0.0 0.0 -4.078867504409e+01 
-2.032151358839e+01 -4.332873912667e+00 0.0 
-4.332873912667e+00 -6.393100537281e+01 0.0 
0.0 0.0 -2.487575568836e+01 
-6.429418578349e+01 1.681113226723e+01 0.0 
1.681113226723e+01 -4.563744652439e+01 0.0 
0.0 0.0 -3.257948969237e+01 
-6.978145979911e+01 2.552932443168e+00 0.0 
2.552932443168e+00 -1.284206476412e+02 0.0 
0.0 0.0 -5.906063223210e+01 
-4.416809284524e+01 2.038652808525e+01 0.0 
2.038652808525e+01 -9.144076378372e+01 0.0 
0.0 0.0 -4.028265698869e+01 
-2.146790212537e+01 1.088792645128e+01 0.0 
1.088792645128e+01 -3.122635795788e+01 0.0 
0.0 0.0 -1.540827802497e+01 
-3.777500289366e+01 2.115084797937e+01 0.0 
2.115084797937e+01 -4.056398260306e+01 0.0 
0.0 0.0 -2.310169564902e+01 
-6.667266436301e+01 -3.042765583219e+00 0.0 
-3.042765583219e+00 -1.611675430080e+02 0.0 
0.0 0.0 -6.795206221131e+01 
-3.645465216334e+01 2.091851755770e+01 0.0 
2.091851755770e+01 -4.099601641966e+01 0.0 
0.0 0.0 -2.283520057490e+01 
-8.910284919542e+01 2.000793732150e+01 0.0 
2.000793732150e+01 -1.896191698453e+02 0.0 
0.0 0.0 -8.321660571221e+01 
-2.178647734987e+01 1.081202850423e+01 0.0 
1.081202850423e+01 -4.094387737530e+01 0.0 
0.0 0.0 -1.841910641755e+01 
-1.180240833869e+02 -2.136712768147e+00 0.0 
-2.136712768147e+00 -2.679818763905e+02 0.0 
0.0 0.0 -1.179936440559e+02 
-8.081200278863e+01 3.127631154038e+00 0.0 
3.127631154038e+00 -1.718570976542e+02 0.0 
0.0 0.0 -7.540073013285e+01 
-5.972865289109e+01 2.890092642319e+01 0.0 
2.890092642319e+01 -1.018105960974e+02 0.0 
0.0 0.0 -4.806177469654e+01 
-3.683680679410e+01 2.110573199520e+01 0.0 
2.110573199520e+01 -4.181945710329e+01 0.0 
0.0 0.0 -2.319687916922e+01 
-1.595083204773e+02 5.121678891397e+00 0.0 
5.121678891397e+00 -3.537828270601e+02 0.0 
0.0 0.0 -1.593733908403e+02 
-1.678032996467e+02 1.351636791224e+00 0.0 
1.351636791224e+00 -3.713908668096e+02 0.0 
0.0 0.0 -1.677943263998e+02 
-1.278117132174e+02 -1.855420452129e+00 0.0 
-1.855420452129e+00 -2.883289229325e+02 0.0 
0.0 0.0 -1.277902692537e+02 
-6.162595113734e+01 3.013270691418e+01 0.0 
3.013270691418e+01 -1.004354127508e+02 0.0 
0.0 0.0 -4.821840916644e+01 
-1.569974698958e+02 1.187340808524e+01 0.0 
1.187340808524e+01 -3.467083119250e+02 0.0 
0.0 0.0 -1.562572387320e+02 
-5.564231918175e+01 2.860169985568e+01 0.0 
2.860169985568e+01 -8.390930913207e+01 0.0 
0.0 0.0 -4.146548849415e+01 
-8.435054524740e+01 1.345518289980e+01 0.0 
1.345518289980e+01 -1.797729175087e+02 0.0 
0.0 0.0 -7.883703882681e+01 
-1.326857159134e+02 4.074398491361e+01 0.0 
4.074398491361e+01 -2.624169581368e+02 0.0 
0.0 0.0 -1.209509381433e+02 
-6.225327223504e+01 9.887624369547e+00 0.0 
9.887624369547e+00 -5.105650696533e+01 0.0 
0.0 0.0 -3.359293376011e+01 
-5.888959329402e+01 1.809377803060e+00 0.0 
1.809377803060e+00 -8.558163714329e+01 0.0 
0.0 0.0 -4.294136913119e+01 
-5.053469133252e+01 2.657539135827e+01 0.0 
2.657539135827e+01 -7.907372565931e+01 0.0 
0.0 0.0 -3.848252509755e+01 
-3.239948032715e+01 1.979167686675e+01 0.0 
1.979167686675e+01 -3.994203760484e+01 0.0 
0.0 0.0 -2.130245537960e+01 
-6.582313496565e+01 2.870381745697e+01 0.0 
2.870381745697e+01 -1.179792622325e+02 0.0 
0.0 0.0 -5.474071915943e+01 
-4.944893356226e+01 1.969531307565e+01 0.0 
1.969531307565e+01 -1.069508690598e+02 0.0 
0.0 0.0 -4.651994078663e+01 
-3.658624954807e+01 1.196612258044e+00 0.0 
1.196612258044e+00 -2.425000592765e+01 0.0 
0.0 0.0 -1.785087664272e+01 
-6.081501424566e+01 1.826866416925e+01 0.0 
1.826866416925e+01 -1.364451442195e+02 0.0 
0.0 0.0 -5.877804753955e+01 
-5.835785184711e+00 -3.132779990589e+00 0.0 
-3.132779990589e+00 -2.545304389370e+01 0.0 
0.0 0.0 -9.404826315621e+00 
-4.117537719852e+01 3.119682806396e-01 0.0 
3.119682806396e-01 -3.921586049934e+01 0.0 
0.0 0.0 -2.371737130936e+01 
-1.815549463412e+01 -1.641340556863e-01 0.0 
-1.641340556863e-01 -6.074374995762e+01 0.0 
0.0 0.0 -2.326977337752e+01 
-4.002370615097e+01 2.130849457647e+01 0.0 
2.130849457647e+01 -3.898990285450e+01 0.0 
0.0 0.0 -2.330408270164e+01 
-1.600028269647e+02 1.121503678572e+01 0.0 
1.121503678572e+01 -3.532288985729e+02 0.0 
0.0 0.0 -1.593540730599e+02 
-4.135430326769e+01 1.878019102585e+01 0.0 
1.878019102585e+01 -8.881298140388e+01 0.0 
0.0 0.0 -3.865018540147e+01 
-1.331309045038e+02 -1.547456515181e+00 0.0 
-1.547456515181e+00 -2.993933668005e+02 0.0 
0.0 0.0 -1.331165030915e+02 
-2.723713737357e+01 1.815680321160e+01 0.0 
1.815680321160e+01 -3.928901196176e+01 0.0 
0.0 0.0 -1.955784480060e+01 
-1.145864491568e+02 2.339019849847e+01 0.0 
2.339019849847e+01 -2.487554309353e+02 0.0 
0.0 0.0 -1.106256706492e+02 
-3.567907317285e+01 1.736010036469e-01 0.0 
1.736010036469e-01 -2.568641676879e+01 0.0 
0.0 0.0 -1.800964698249e+01 
-5.745345934469e+01 1.636465513400e+01 0.0 
1.636465513400e+01 -1.317305181517e+02 0.0 
0.0 0.0 -5.635519324892e+01 
-1.480917943464e+02 1.850661059758e-01 0.0 
1.850661059758e-01 -3.304962885417e+02 0.0 
0.0 0.0 -1.480916065801e+02 
-1.973585479224e+01 -5.695398755001e+00 0.0 
-5.695398755001e+00 -6.169059902659e+01 0.0 
0.0 0.0 -2.402793614565e+01 
-1.569345494574e+02 -1.006577949673e+00 0.0 
-1.006577949673e+00 -3.488384178231e+02 0.0 
0.0 0.0 -1.569292698802e+02 
-6.858704681496e+01 2.770373747962e+01 0.0 
2.770373747962e+01 -8.369601434759e+01 0.0 
0.0 0.0 -4.528491834876e+01 
-1.667440131738e+02 1.877125160189e+00 0.0 
1.877125160189e+00 -3.691658217872e+02 0.0 
0.0 0.0 -1.667266074608e+02 
-3.484452625450e+01 4.050908009232e-02 0.0 
4.050908009232e-02 -2.446839277779e+01 0.0 
0.0 0.0 -1.739387570969e+01 
-4.642935904844e+01 1.809572486503e+01 0.0 
1.809572486503e+01 -1.032124202884e+02 0.0 
0.0 0.0 -4.449253380104e+01 
-5.351009290302e+01 2.467637489822e+01 0.0 
2.467637489822e+01 -4.624400444810e+01 0.0 
0.0 0.0 -2.952622920534e+01 
-1.131649341088e+02 -2.103123854776e-01 0.0 
-2.103123854776e-01 -2.570173144617e+02 0.0 
0.0 0.0 -1.126976157768e+02 
-2.617416095579e+01 1.775130208012e+01 0.0 
1.775130208012e+01 -3.753890475732e+01 0.0 
0.0 0.0 -1.871391971393e+01 
-5.700218134199e+01 1.535037813984e+01 0.0 
1.535037813984e+01 -1.321152636931e+02 0.0 
0.0 0.0 -5.633523351054e+01 
-6.342047017631e+01 3.575935257696e+00 0.0 
3.575935257696e+00 -9.723053994566e+01 0.0 
0.0 0.0 -4.779530303659e+01 
-3.546786753558e+01 -4.295798690971e-01 0.0 
-4.295798690971e-01 -2.441782879369e+01 0.0 
0.0 0.0 -1.756570889878e+01 
-5.357014967828e+01 1.845672509576e+01 0.0 
1.845672509576e+01 -1.194450180119e+02 0.0 
0.0 0.0 -5.150455030706e+01 
-4.318592046690e+01 2.259813369661e+01 0.0 
2.259813369661e+01 -4.316522093505e+01 0.0 
0.0 0.0 -2.550534242058e+01 
-1.151086238242e+02 3.640202284674e+01 0.0 
3.640202284674e+01 -2.293848330897e+02 0.0 
0.0 0.0 -1.044981471555e+02 
-7.622812654199e+01 -2.684239179332e+00 0.0 
-2.684239179332e+00 -1.810947964089e+02 0.0 
0.0 0.0 -7.679687688526e+01 
-1.438253008060e+02 3.441157266451e+01 0.0 
3.441157266451e+01 -2.992524003133e+02 0.0 
0.0 0.0 -1.365473677596e+02 
-1.344225111228e+02 3.997793616197e+01 0.0 
3.997793616197e+01 -2.681624029128e+02 0.0 
0.0 0.0 -1.233833751097e+02 
-3.635025673044e+01 2.112306067963e+01 0.0 
2.112306067963e+01 -6.182472334745e+01 0.0 
0.0 0.0 -2.905249402337e+01 
-7.813373536942e+01 -2.622346384862e+00 0.0 
-2.622346384862e+00 -1.812412341708e+02 0.0 
0.0 0.0 -7.741249086206e+01 
-1.385262575410e+02 1.555087001565e+01 0.0 
1.555087001565e+01 -3.062406901752e+02 0.0 
0.0 0.0 -1.370965329662e+02 
-4.350527547454e+01 2.424495160480e+01 0.0 
2.424495160480e+01 -6.134439718365e+01 0.0 
0.0 0.0 -3.105490179746e+01 
-2.705651211611e+01 1.693715539219e+01 0.0 
1.693715539219e+01 -5.422288495374e+01 0.0 
0.0 0.0 -2.398381912096e+01 
-7.045508693462e+01 2.864532265498e+01 0.0 
2.864532265498e+01 -6.759772077372e+01 0.0 
0.0 0.0 -4.101584231250e+01 
-5.701776184819e+01 2.046125663749e+01 0.0 
2.046125663749e+01 -1.236378572707e+02 0.0 
0.0 0.0 -5.379668573566e+01 
-8.127575546198e+01 8.842371596945e+00 0.0 
8.842371596945e+00 -1.772381158416e+02 0.0 
0.0 0.0 -7.715416139108e+01 
-9.827123437276e+01 3.329041277976e+01 0.0 
3.329041277976e+01 -1.690706738076e+02 0.0 
0.0 0.0 -7.980257245412e+01 
-1.525756083970e+02 -1.161363121641e+00 0.0 
-1.161363121641e+00 -3.397832210091e+02 0.0 
0.0 0.0 -1.525684040297e+02 
-2.363588327892e+01 1.666456371152e+01 0.0 
1.666456371152e+01 -3.833069298662e+01 0.0 
0.0 0.0 -1.818997287966e+01 
-5.319172128475e+01 1.237731948023e+01 0.0 
1.237731948023e+01 -1.272903598928e+02 0.0 
0.0 0.0 -5.374462435326e+01 
-1.033626719566e+02 3.594504110905e+01 0.0 
3.594504110905e+01 -1.870271178849e+02 0.0 
0.0 0.0 -8.671693695246e+01 
-2.046786731448e+01 4.324133410756e+00 0.0 
4.324133410756e+00 -4.323817737110e+00 0.0 
0.0 0.0 -7.037505515478e+00 
-4.589391578327e+01 2.513079543952e+01 0.0 
2.513079543952e+01 -6.345535271860e+01 0.0 
0.0 0.0 -3.240478055056e+01 
-1.315296819666e+02 1.101732960440e+01 0.0 
1.101732960440e+01 -2.938233917654e+02 0.0 
0.0 0.0 -1.307851843819e+02 
-9.229690781643e+00 -5.267543453302e-01 0.0 
-5.267543453302e-01 -4.218960388561e+01 0.0 
0.0 0.0 -1.502578840018e+01 
-1.140973244200e+02 3.938847220404e+01 0.0 
3.938847220404e+01 -2.197150463508e+02 0.0 
0.0 0.0 -1.010257820849e+02 
-8.382016450112e+01 2.379799446846e+01 0.0 
2.379799446846e+01 -1.139722190839e+02 0.0 
0.0 0.0 -5.893771507549e+01 
-6.922520641830e+01 -2.104461648343e+00 0.0 
-2.104461648343e+00 -1.666279613797e+02 0.0 
0.0 0.0 -7.035595033941e+01 
-1.300614198302e+02 1.037042380473e+01 0.0 
1.037042380473e+01 -2.910185077137e+02 0.0 
0.0 0.0 -1.293960069737e+02 
-6.979430409222e+01 1.874397744930e+01 0.0 
1.874397744930e+01 -6.020830234510e+01 0.0 
0.0 0.0 -3.860078193120e+01 
-7.260805592694e+01 1.487582084066e+01 0.0 
1.487582084066e+01 -6.791809634440e+01 0.0 
0.0 0.0 -4.175784568140e+01 
-1.529413247103e+02 1.231548743636e+01 0.0 
1.231548743636e+01 -3.380553665003e+02 0.0 
0.0 0.0 -1.521255800483e+02 
-5.079164731811e+01 -4.103405365677e+00 0.0 
-4.103405365677e+00 -1.278287782430e+02 0.0 
0.0 0.0 -5.318612766834e+01 
-7.054268834668e+01 2.880707041398e+01 0.0 
2.880707041398e+01 -1.360980814685e+02 0.0 
0.0 0.0 -6.159223094454e+01 
-7.182060405147e+01 2.939465744565e+01 0.0 
2.939465744565e+01 -1.029872821994e+02 0.0 
0.0 0.0 -5.204236587525e+01 
-9.015223133691e+01 2.673588836546e+01 0.0 
2.673588836546e+01 -1.221591031935e+02 0.0 
0.0 0.0 -6.329340035913e+01 
-7.198480682208e+01 2.952113226846e+01 0.0 
2.952113226846e+01 -8.645885620200e+01 0.0 
0.0 0.0 -4.713309890722e+01 
-6.121255485878e+01 2.929143928679e+01 0.0 
2.929143928679e+01 -6.353872475769e+01 0.0 
0.0 0.0 -3.702538388494e+01 
-1.032530360839e+02 1.912970281048e+01 0.0 
1.912970281048e+01 -2.286321963067e+02 0.0 
0.0 0.0 -1.003992795076e+02 
-1.118288549945e+02 3.843068457451e+01 0.0 
3.843068457451e+01 -2.164610531985e+02 0.0 
0.0 0.0 -9.923045847250e+01 
-2.378766799389e+01 4.822736650750e+00 0.0 
4.822736650750e+00 -2.076467999984e+01 0.0 
0.0 0.0 -1.296570439812e+01 
-3.122928982427e+01 1.896445574771e+01 0.0 
1.896445574771e+01 -5.698922327358e+01 0.0 
0.0 0.0 -2.606555392935e+01 
-4.241113960230e+01 2.236065677001e+01 0.0 
2.236065677001e+01 -7.784179540335e+01 0.0 
0.0 0.0 -3.567588050170e+01 
-6.677193878183e+01 3.046087828445e+01 0.0 
3.046087828445e+01 -1.180928878641e+02 0.0 
0.0 0.0 -5.505944799379e+01 
-1.049645233178e+02 3.666241798335e+01 0.0 
3.666241798335e+01 -1.759153358907e+02 0.0 
0.0 0.0 -8.386395776255e+01 
-1.899482855659e+01 5.581010585844e+00 0.0 
5.581010585844e+00 -5.896944596592e+01 0.0 
0.0 0.0 -2.298928235675e+01 
-1.276620922881e+02 8.940509762070e+00 0.0 
8.940509762070e+00 -2.865415803902e+02 0.0 
0.0 0.0 -1.271605725907e+02 
-3.564520958640e+01 1.203398618686e+00 0.0 
1.203398618686e+00 -2.322492022686e+01 0.0 
0.0 0.0 -1.726103894398e+01 
-5.389801299271e+01 1.378790318868e+01 0.0 
1.378790318868e+01 -1.272381755342e+02 0.0 
0.0 0.0 -5.394085655808e+01 
-1.237088665716e+02 7.017053447354e+00 0.0 
7.017053447354e+00 -2.789033141090e+02 0.0 
0.0 0.0 -1.233922393529e+02 
-5.041472976512e+00 -1.069869212110e+00 0.0 
-1.069869212110e+00 -2.972522729273e+01 0.0 
0.0 0.0 -1.003001008077e+01 
-9.055774662889e+01 2.628763043056e+01 0.0 
2.628763043056e+01 -1.368403238826e+02 0.0 
0.0 0.0 -6.781942115345e+01 
-3.800113006100e+00 -1.825223232238e+00 0.0 
-1.825223232238e+00 -2.518049910629e+01 0.0 
0.0 0.0 -8.294183633718e+00 
-1.059472225653e+01 -1.250774745761e+00 0.0 
-1.250774745761e+00 -4.490928021922e+01 0.0 
0.0 0.0 -1.625120074272e+01 
-2.639746870374e+01 1.784600259911e+01 0.0 
1.784600259911e+01 -3.838412719256e+01 0.0 
0.0 0.0 -1.903447876889e+01 
-4.169166174459e+01 -4.448566666935e+00 0.0 
-4.448566666935e+00 -1.087029544754e+02 0.0 
0.0 0.0 -4.471838486600e+01 
-9.670581727943e+01 2.911262988218e+01 0.0 
2.911262988218e+01 -1.449996649408e+02 0.0 
0.0 0.0 -7.211164466608e+01 
-4.027870493542e+01 -4.283177009717e+00 0.0 
-4.283177009717e+00 -1.058166561968e+02 0.0 
0.0 0.0 -4.342860833967e+01 
-2.404659018848e+01 1.190567228263e+01 0.0 
1.190567228263e+01 -6.257158638968e+01 0.0 
0.0 0.0 -2.558545297345e+01 
-2.608627565292e+01 -5.473509985463e+00 0.0 
-5.473509985463e+00 -7.536254512655e+01 0.0 
0.0 0.0 -3.003464623384e+01 
-2.376243038728e+01 -5.371858927871e+00 0.0 
-5.371858927871e+00 -7.051152927500e+01 0.0 
0.0 0.0 -2.788218789869e+01 
-1.337585917582e+02 1.252426637809e+01 0.0 
1.252426637809e+01 -2.978166909755e+02 0.0 
0.0 0.0 -1.328079918857e+02 
-6.819619966855e+01 3.089827913919e+01 0.0 
3.089827913919e+01 -8.370587562112e+01 0.0 
0.0 0.0 -4.517062258690e+01 
-1.654638786186e+02 7.736574882089e-02 0.0 
7.736574882089e-02 -3.665616777094e+02 0.0 
0.0 0.0 -1.654638488547e+02 
-1.952449610297e+01 3.040868005811e+00 0.0 
3.040868005811e+00 -8.446896912946e+00 0.0 
0.0 0.0 -8.933117429627e+00 
-3.347664319428e+01 1.392922717422e+01 0.0 
1.392922717422e+01 -8.089856809892e+01 0.0 
0.0 0.0 -3.391256338796e+01 
-6.186866009532e+01 1.418424944797e+01 0.0 
1.418424944797e+01 -1.441882868212e+02 0.0 
0.0 0.0 -6.141708407497e+01 
-4.052434728009e+01 2.306846991866e+01 0.0 
2.306846991866e+01 -6.146257018826e+01 0.0 
0.0 0.0 -3.019607524050e+01 
-1.262308517479e+02 8.228898204273e+00 0.0 
8.228898204273e+00 -2.837946050456e+02 0.0 
0.0 0.0 -1.258022565261e+02 
-1.668524294015e+02 1.604678363487e+00 0.0 
1.604678363487e+00 -3.694053350337e+02 0.0 
0.0 0.0 -1.668397175076e+02 
-9.723807380687e+01 3.441534607386e+01 0.0 
3.441534607386e+01 -1.534067553557e+02 0.0 
0.0 0.0 -7.479344874876e+01 
-4.192228862876e+01 9.244974809009e+00 0.0 
9.244974809009e+00 -1.060694598187e+02 0.0 
0.0 0.0 -4.399752453423e+01 
-1.350887766352e+02 1.322582447115e+01 0.0 
1.322582447115e+01 -3.002653615424e+02 0.0 
0.0 0.0 -1.340364779661e+02 
-1.229603636575e+02 -2.075992614432e+00 0.0 
-2.075992614432e+00 -2.781368770989e+02 0.0 
0.0 0.0 -1.228839143681e+02 
-7.033443686352e+01 3.150913807553e+01 0.0 
3.150913807553e+01 -1.196582230341e+02 0.0 
0.0 0.0 -5.659779796927e+01 
-8.859808185669e+01 2.738207912757e+01 0.0 
2.738207912757e+01 -1.319891422776e+02 0.0 
0.0 0.0 -6.577616724029e+01 
-1.393254992796e+02 3.178728716750e+01 0.0 
3.178728716750e+01 -2.928537971305e+02 0.0 
0.0 0.0 -1.330043535632e+02 
-6.040781328025e+01 1.242966586406e+01 0.0 
1.242966586406e+01 -1.428216871703e+02 0.0 
0.0 0.0 -6.056885013516e+01 
-3.020816425142e+01 1.462476317328e+01 0.0 
1.462476317328e+01 -7.142797224761e+01 0.0 
0.0 0.0 -3.009084094971e+01 
-7.860188693524e+01 3.143308842292e+01 0.0 
3.143308842292e+01 -1.070751340294e+02 0.0 
0.0 0.0 -5.530310628938e+01 
-9.873730481525e+01 2.553430275947e+01 0.0 
2.553430275947e+01 -2.110116994025e+02 0.0 
0.0 0.0 -9.320290785840e+01 
-7.069975347020e+01 2.995991734759e+01 0.0 
2.995991734759e+01 -1.324776612673e+02 0.0 
0.0 0.0 -6.055322442125e+01 
-8.214718679179e+01 1.292610721371e+01 0.0 
1.292610721371e+01 -1.888459369691e+02 0.0 
0.0 0.0 -8.089793712826e+01 
-4.317623349210e+01 8.069306772855e-01 0.0 
8.069306772855e-01 -4.306265624813e+01 0.0 
0.0 0.0 -2.547166692207e+01 
-1.858097915502e+01 -7.005348457314e+00 0.0 
-7.005348457314e+00 -5.790489361404e+01 0.0 
0.0 0.0 -2.254576183072e+01 
-6.896438016606e+01 2.652408951443e+01 0.0 
2.652408951443e+01 -8.450221015903e+01 0.0 
0.0 0.0 -4.563997709753e+01 
-4.227774822874e+01 1.075460978306e+01 0.0 
1.075460978306e+01 -1.053373939479e+02 0.0 
0.0 0.0 -4.388454265298e+01 
-2.631767548738e+01 5.666500388893e+00 0.0 
5.666500388893e+00 -7.571683231688e+01 0.0 
0.0 0.0 -3.021035234128e+01 
-1.553917619861e+01 -4.755321598515e+00 0.0 
-4.755321598515e+00 -5.351012829625e+01 0.0 
0.0 0.0 -2.031479134846e+01 
-9.179027805253e+01 2.522146075684e+01 0.0 
2.522146075684e+01 -1.421924663448e+02 0.0 
0.0 0.0 -6.979482331919e+01 
-7.578960339680e+01 3.166116867603e+01 0.0 
3.166116867603e+01 -1.054278875203e+02 0.0 
0.0 0.0 -5.396524727513e+01 
-5.052550052181e+01 2.058986148532e+01 0.0 
2.058986148532e+01 -1.074355661007e+02 0.0 
0.0 0.0 -4.698831998675e+01 
-9.795948824062e+01 2.795774848267e+01 0.0 
2.795774848267e+01 -1.511872996847e+02 0.0 
0.0 0.0 -7.434403637761e+01 
-1.024570314442e+02 3.693838324717e+01 0.0 
3.693838324717e+01 -1.718944098726e+02 0.0 
0.0 0.0 -8.190543239506e+01 
-7.366265242807e+01 3.238080216660e+01 0.0 
3.238080216660e+01 -1.208525733362e+02 0.0 
0.0 0.0 -5.795456772927e+01 
-1.666133849480e+02 3.259991515088e+00 0.0 
3.259991515088e+00 -3.687865205160e+02 0.0 
0.0 0.0 -1.665608320565e+02 
-8.639637947698e+01 1.238199241918e+01 0.0 
1.238199241918e+01 -1.982497956018e+02 0.0 
0.0 0.0 -8.504210979837e+01 
-7.698402374492e+01 3.290482042138e+01 0.0 
3.290482042138e+01 -1.222731385804e+02 0.0 
0.0 0.0 -5.937714869760e+01 
-6.460773807843e+01 2.113412219672e+01 0.0 
2.113412219672e+01 -1.402506712189e+02 0.0 
0.0 0.0 -6.105752278921e+01 
-9.134406058510e+01 1.488856373061e+01 0.0 
1.488856373061e+01 -2.068802531915e+02 0.0 
0.0 0.0 -8.945629145618e+01 
-3.412521923716e+01 5.635059764257e+00 0.0 
5.635059764257e+00 -9.223386300966e+01 0.0 
0.0 0.0 -3.750772467405e+01 
-5.355646283056e+01 7.650750183999e+00 0.0 
7.650750183999e+00 -2.739498863739e+01 0.0 
0.0 0.0 -2.388543544039e+01 
-6.338410583229e+01 9.182966166719e+00 0.0 
9.182966166719e+00 -1.517366574441e+02 0.0 
0.0 0.0 -6.413622898292e+01 
-4.632336295880e+01 -6.620879952406e-01 0.0 
-6.620879952406e-01 -1.192044301043e+02 0.0 
0.0 0.0 -4.925833791894e+01 
-9.345366683988e+01 3.067634665682e+01 0.0 
3.067634665682e+01 -1.507967857267e+02 0.0 
0.0 0.0 -7.287513576998e+01 
-2.795330261931e+01 1.925781302289e+00 0.0 
1.925781302289e+00 -6.265887285677e+00 0.0 
0.0 0.0 -9.865756971495e+00 
-7.409986567286e+01 2.946939567123e+01 0.0 
2.946939567123e+01 -8.718508671910e+01 0.0 
0.0 0.0 -4.798548571759e+01 
-4.627650179963e+01 8.479302798326e+00 0.0 
8.479302798326e+00 -1.159991995455e+02 0.0 
0.0 0.0 -4.828271040353e+01 
-3.454087399044e+01 1.362840909614e+01 0.0 
1.362840909614e+01 -8.396979391615e+01 0.0 
0.0 0.0 -3.515320037198e+01 
-3.360778347455e+01 3.935134326499e+00 0.0 
3.935134326499e+00 -9.201316142769e+01 0.0 
0.0 0.0 -3.728628347067e+01 
-8.107336600416e+01 3.023539113543e+01 0.0 
3.023539113543e+01 -1.244729371757e+02 0.0 
0.0 0.0 -6.126389095397e+01 
-1.394523279621e+01 -5.203905992708e+00 0.0 
-5.203905992708e+00 -4.318619007391e+01 0.0 
0.0 0.0 -1.673942686104e+01 
-4.707714190846e+01 2.450699693487e+01 0.0 
2.450699693487e+01 -8.182311951210e+01 0.0 
0.0 0.0 -3.827007842617e+01 
-9.535481812770e+01 1.395101271958e+01 0.0 
1.395101271958e+01 -2.161205227512e+02 0.0 
0.0 0.0 -9.376413085033e+01 
-7.367147134757e+01 2.865687745441e+01 0.0 
2.865687745441e+01 -1.037875727990e+02 0.0 
0.0 0.0 -5.283771324397e+01 
-6.527204287438e+01 1.389866158802e+01 0.0 
1.389866158802e+01 -5.384836931961e+01 0.0 
0.0 0.0 -3.533612365820e+01 
-1.976141448931e+01 4.688226860230e+00 0.0 
4.688226860230e+00 -5.171453240209e+01 0.0 
0.0 0.0 -2.104278406742e+01 
-4.632226503593e+01 3.451619492935e-01 0.0 
3.451619492935e-01 -1.192156234136e+02 0.0 
0.0 0.0 -4.926136653486e+01 
-4.241994597222e+01 -1.635353850930e+00 0.0 
-1.635353850930e+00 -1.109994468011e+02 0.0 
0.0 0.0 -4.562581783198e+01 
-3.742560230991e+01 2.169060370888e+01 0.0 
2.169060370888e+01 -6.136146059051e+01 0.0 
0.0 0.0 -2.923611887013e+01 
-9.238966226572e+01 3.163986904490e+01 0.0 
3.163986904490e+01 -1.347310153490e+02 0.0 
0.0 0.0 -6.773620328442e+01 
-4.397869608549e+01 2.343599031750e+01 0.0 
2.343599031750e+01 -7.688287806564e+01 0.0 
0.0 0.0 -3.585847224534e+01 
-6.212136983929e+01 8.969402791611e+00 0.0 
8.969402791611e+00 -1.492079070361e+02 0.0 
0.0 0.0 -6.299878306263e+01 
-5.810912959850e+01 1.146620949362e+01 0.0 
1.146620949362e+01 -1.387743662971e+02 0.0 
0.0 0.0 -5.866504876867e+01 
-2.055706395110e+01 4.305865928975e+00 0.0 
4.305865928975e+00 -5.896512720351e+01 0.0 
0.0 0.0 -2.345665734638e+01 
-6.938928460654e+01 1.974990882325e+01 0.0 
1.974990882325e+01 -1.535627722556e+02 0.0 
0.0 0.0 -6.648561705864e+01 
-2.097959101923e+01 1.177694273358e+01 0.0 
1.177694273358e+01 -4.992260726300e+01 0.0 
0.0 0.0 -2.087065948467e+01 
-1.298901432335e+02 4.622267913836e+01 0.0 
4.622267913836e+01 -2.414574486241e+02 0.0 
0.0 0.0 -1.132282855450e+02 
-1.330214568017e+02 4.684768716098e+01 0.0 
4.684768716098e+01 -2.478937502890e+02 0.0 
0.0 0.0 -1.163386670643e+02 
-7.545776554669e+01 2.830425871602e+01 0.0 
2.830425871602e+01 -1.505732680928e+02 0.0 
0.0 0.0 -6.740931009186e+01 
-3.832133434319e+01 8.174686147697e+00 0.0 
8.174686147697e+00 -9.929793184338e+01 0.0 
0.0 0.0 -4.088577985597e+01 
-3.124820955859e+01 1.128000397677e+01 0.0 
1.128000397677e+01 -8.033477984410e+01 0.0 
0.0 0.0 -3.307489682081e+01 
-7.986768429512e+01 3.150516573416e+01 0.0 
3.150516573416e+01 -1.390951174990e+02 0.0 
0.0 0.0 -6.528884053822e+01 
-3.453958674790e+01 9.088048079250e+00 0.0 
9.088048079250e+00 -9.031976946198e+01 0.0 
0.0 0.0 -3.705780686296e+01 
-4.209049159694e+01 -1.149474226874e+00 0.0 
-1.149474226874e+00 -1.103758751171e+02 0.0 
0.0 0.0 -4.533991001422e+01 
-6.912242265169e+01 2.963666111346e+01 0.0 
2.963666111346e+01 -1.186693721544e+02 0.0 
0.0 0.0 -5.593753844183e+01 
-9.085364538888e+01 1.507754900863e+01 0.0 
1.507754900863e+01 -1.835904402682e+02 0.0 
0.0 0.0 -8.193322569713e+01 
-5.010048234079e+01 1.111284156592e+01 0.0 
1.111284156592e+01 -1.218941717479e+02 0.0 
0.0 0.0 -5.119839622659e+01 
-1.021454336826e+02 1.909457388079e+01 0.0 
1.909457388079e+01 -2.262804928800e+02 0.0 
0.0 0.0 -9.927467733088e+01 
-2.106589257699e+01 1.029477335375e+01 0.0 
1.029477335375e+01 -5.868954219098e+01 0.0 
0.0 0.0 -2.352663043039e+01 
-1.618459812581e+02 1.644571936338e+01 0.0 
1.644571936338e+01 -3.547694916572e+02 0.0 
0.0 0.0 -1.604541115807e+02 
-3.457352924113e+01 1.043656253614e+01 0.0 
1.043656253614e+01 -8.887203938918e+01 0.0 
0.0 0.0 -3.663367058909e+01 
-7.352405984390e+01 2.994756701245e+01 0.0 
2.994756701245e+01 -1.365655232081e+02 0.0 
0.0 0.0 -6.262687491561e+01 
-2.207376214406e+01 3.546660209494e+00 0.0 
3.546660209494e+00 -6.804337134494e+01 0.0 
0.0 0.0 -2.663514004670e+01 
-1.072370264838e+02 8.927508929892e+00 0.0 
8.927508929892e+00 -2.438949135126e+02 0.0 
0.0 0.0 -1.066562831792e+02 
-6.590415201508e+01 1.155269503655e+01 0.0 
1.155269503655e+01 -1.553578308746e+02 0.0 
0.0 0.0 -6.597859486690e+01 
-4.640687284663e+01 -1.273692575316e+00 0.0 
-1.273692575316e+00 -1.193278864977e+02 0.0 
0.0 0.0 -4.932042780328e+01 
-7.259257373930e+01 3.188207793633e+01 0.0 
3.188207793633e+01 -1.037720330307e+02 0.0 
0.0 0.0 -5.250938203100e+01 
-1.381216796059e+02 4.448394992006e+01 0.0 
4.448394992006e+01 -2.672138836472e+02 0.0 
0.0 0.0 -1.242775967399e+02 
-5.426736600327e+01 8.742134422935e+00 0.0 
8.742134422935e+00 -1.327560041980e+02 0.0 
0.0 0.0 -5.570701106037e+01 
-9.680506169127e+01 1.399259314229e+01 0.0 
1.399259314229e+01 -2.191649332109e+02 0.0 
0.0 0.0 -9.522531929368e+01 
-2.365461370769e+01 1.039685282110e+01 0.0 
1.039685282110e+01 -6.448797838480e+01 0.0 
0.0 0.0 -2.604277762774e+01 
-6.847344039286e+01 8.624275278469e+00 0.0 
8.624275278469e+00 -8.192886217343e+01 0.0 
0.0 0.0 -4.472069076989e+01 
-1.222697889872e+02 6.326176996873e+00 0.0 
6.326176996873e+00 -2.760907458997e+02 0.0 
0.0 0.0 -1.220100516101e+02 
-3.324685301441e+01 1.662003695627e+01 0.0 
1.662003695627e+01 -7.380130649158e+01 0.0 
0.0 0.0 -3.171444785180e+01 
-6.789584039022e+01 8.873538804434e+00 0.0 
8.873538804434e+00 -7.367923956399e+01 0.0 
0.0 0.0 -4.207252398626e+01 
-1.430248530643e+02 4.061384270331e+01 0.0 
4.061384270331e+01 -2.872087245928e+02 0.0 
0.0 0.0 -1.323718106041e+02 
-1.313461005467e+02 7.347552201278e+00 0.0 
7.347552201278e+00 -2.947179352543e+02 0.0 
0.0 0.0 -1.310163144208e+02 
-1.361698329432e+02 4.538970831509e+01 0.0 
4.538970831509e+01 -2.600726529289e+02 0.0 
0.0 0.0 -1.213214849870e+02 
-7.315431843791e+01 1.338244850465e+01 0.0 
1.338244850465e+01 -7.551378179121e+01 0.0 
0.0 0.0 -4.420043006873e+01 
-1.045869341949e+02 3.858789849294e+01 0.0 
3.858789849294e+01 -1.856904313088e+02 0.0 
0.0 0.0 -8.668320965112e+01 
-2.727174606917e+01 1.647207797238e+01 0.0 
1.647207797238e+01 -5.729348962249e+01 0.0 
0.0 0.0 -2.496957070750e+01 
-6.402277337344e+01 3.137104256997e+01 0.0 
3.137104256997e+01 -8.388915740525e+01 0.0 
0.0 0.0 -4.397357923361e+01 
-7.554734028601e+01 3.047982150035e+01 0.0 
3.047982150035e+01 -1.211681657378e+02 0.0 
0.0 0.0 -5.861465180713e+01 
-8.021889448563e+01 3.308659095634e+01 0.0 
3.308659095634e+01 -1.241607098678e+02 0.0 
0.0 0.0 -6.091388130602e+01 
-6.734645994876e+01 2.781672752128e+01 0.0 
2.781672752128e+01 -1.305879881974e+02 0.0 
0.0 0.0 -5.898033444386e+01 
-1.463151215984e+02 3.742920941114e+01 0.0 
3.742920941114e+01 -3.003068927845e+02 0.0 
0.0 0.0 -1.376996054076e+02 
-7.213448523326e+01 1.772332587275e+01 0.0 
1.772332587275e+01 -7.501002133406e+01 0.0 
0.0 0.0 -4.374335197020e+01 
-6.804519095070e+01 2.725278578358e+01 0.0 
2.725278578358e+01 -6.622116227079e+01 0.0 
0.0 0.0 -3.987990596645e+01 
-5.622219379462e+01 9.219034747118e+00 0.0 
9.219034747118e+00 -1.365607769248e+02 0.0 
0.0 0.0 -5.743489121583e+01 
-3.267465810527e+01 -5.000422898885e+00 0.0 
-5.000422898885e+00 -8.954573576311e+01 0.0 
0.0 0.0 -3.626611816051e+01 
-5.409318731510e+01 2.754145562190e+01 0.0 
2.754145562190e+01 -6.222922505348e+01 0.0 
0.0 0.0 -3.449672371057e+01 
-3.728946556672e+01 1.628535151403e+01 0.0 
1.628535151403e+01 -8.499966531371e+01 0.0 
0.0 0.0 -3.628673926413e+01 
-3.576342387753e+01 3.333481997786e-01 0.0 
3.333481997786e-01 -2.538230728204e+01 0.0 
0.0 0.0 -1.794371934787e+01 
-4.877487815367e+01 -1.614644029690e+00 0.0 
-1.614644029690e+00 -1.242060741292e+02 0.0 
0.0 0.0 -5.149428568485e+01 
-4.927962851766e+01 9.409925144752e+00 0.0 
9.409925144752e+00 -1.216586221208e+02 0.0 
0.0 0.0 -5.088147519153e+01 
-9.539451443744e+01 2.981500401871e+01 0.0 
2.981500401871e+01 -1.549418886616e+02 0.0 
0.0 0.0 -7.470092092971e+01 
-3.777713269354e+01 1.583636197994e+01 0.0 
1.583636197994e+01 -8.721477504348e+01 0.0 
0.0 0.0 -3.709757232110e+01 
-6.828880236973e+01 2.940455451524e+01 0.0 
2.940455451524e+01 -1.015676283666e+02 0.0 
0.0 0.0 -5.055692922089e+01 
-1.006602177582e+02 1.298772933564e+01 0.0 
1.298772933564e+01 -2.279943498663e+02 0.0 
0.0 0.0 -9.934900734064e+01 
-9.618830351224e+01 1.401729731460e+00 0.0 
1.401729731460e+00 -2.226960869252e+02 0.0 
0.0 0.0 -9.617277399286e+01 
-1.512540836461e+02 3.174227786145e+01 0.0 
3.174227786145e+01 -3.192261471572e+02 0.0 
0.0 0.0 -1.454557864022e+02 
-4.557244353109e+01 2.496452260769e+01 0.0 
2.496452260769e+01 -6.079258102034e+01 0.0 
0.0 0.0 -3.150950736543e+01 
-4.209420838107e+01 1.403362621257e+00 0.0 
1.403362621257e+00 -1.103543827935e+02 0.0 
0.0 0.0 -4.533457735237e+01 
-6.746298911708e+01 -1.658239522117e+00 0.0 
-1.658239522117e+00 -1.630208605002e+02 0.0 
0.0 0.0 -6.874515488519e+01 
-3.267778284644e+01 1.944519711063e+01 0.0 
1.944519711063e+01 -5.946125209380e+01 0.0 
0.0 0.0 -2.724171048207e+01 
-3.025234288204e+01 1.567692595438e+01 0.0 
1.567692595438e+01 -6.868341898753e+01 0.0 
0.0 0.0 -2.928072856087e+01 
-1.105255435080e+02 3.952133516365e+01 0.0 
3.952133516365e+01 -1.945939148492e+02 0.0 
0.0 0.0 -9.113583750716e+01 
-7.828205394232e+01 3.272714691133e+01 0.0 
3.272714691133e+01 -1.387046189758e+02 0.0 
0.0 0.0 -6.469600187544e+01 
-4.145280384538e+01 2.344345481322e+01 0.0 
2.344345481322e+01 -6.173930121898e+01 0.0 
0.0 0.0 -3.055763151931e+01 
-6.338300231381e+01 3.077394765011e+01 0.0 
3.077394765011e+01 -8.526001558035e+01 0.0 
0.0 0.0 -4.419290536825e+01 
-1.569386789917e+02 2.283426060805e+01 0.0 
2.283426060805e+01 -3.402453968045e+02 0.0 
0.0 0.0 -1.541370663172e+02 
-1.483004582864e+02 2.276481020715e+01 0.0 
2.276481020715e+01 -3.219000788387e+02 0.0 
0.0 0.0 -1.453648594548e+02 
-1.057480814726e+02 3.561817112451e+01 0.0 
3.561817112451e+01 -1.913733635388e+02 0.0 
0.0 0.0 -8.873643350341e+01 
-9.505248043070e+01 3.045186255311e+01 0.0 
3.045186255311e+01 -1.397772814158e+02 0.0 
0.0 0.0 -7.004892855394e+01 
-9.322884258793e+01 2.457740688882e+00 0.0 
2.457740688882e+00 -2.164492050051e+02 0.0 
0.0 0.0 -9.317984023196e+01 
-5.058885707656e+01 2.445615881044e+01 0.0 
2.445615881044e+01 -9.453783191529e+01 0.0 
0.0 0.0 -4.313800669755e+01 
-3.798169278033e+01 6.500478589065e+00 0.0 
6.500478589065e+00 -9.982638807624e+01 0.0 
0.0 0.0 -4.094242425697e+01 
-4.528570600174e+01 6.512347431467e+00 0.0 
6.512347431467e+00 -1.152191945136e+02 0.0 
0.0 0.0 -4.775147015459e+01 
-7.459689297584e+01 3.171746534645e+01 0.0 
3.171746534645e+01 -1.370700338879e+02 0.0 
0.0 0.0 -6.310007805911e+01 
-1.038045523947e+02 1.005513051271e+01 0.0 
1.005513051271e+01 -2.362200836087e+02 0.0 
0.0 0.0 -1.030453569216e+02 
-8.482606549957e+01 -2.364906468704e+00 0.0 
-2.364906468704e+00 -1.990049443468e+02 0.0 
0.0 0.0 -8.477710385780e+01 
-1.015840021358e+02 3.262805836944e+01 0.0 
3.262805836944e+01 -1.775003683818e+02 0.0 
0.0 0.0 -8.332531115529e+01 
-4.085584539820e+01 -4.915751913383e-01 0.0 
-4.915751913383e-01 -1.078611273269e+02 0.0 
0.0 0.0 -4.421509181754e+01 
-6.403192783520e+01 2.542971944132e+01 0.0 
2.542971944132e+01 -1.290149794292e+02 0.0 
0.0 0.0 -5.751407217933e+01 
-7.235161251899e+01 3.021184033148e+01 0.0 
3.021184033148e+01 -1.197027207772e+02 0.0 
0.0 0.0 -5.721629998886e+01 
-5.653952065653e+01 2.449697197833e+01 0.0 
2.449697197833e+01 -1.118617236178e+02 0.0 
0.0 0.0 -5.012037328229e+01 
-1.362990087134e+02 4.681787394830e+01 0.0 
4.681787394830e+01 -2.565619380300e+02 0.0 
0.0 0.0 -1.202221643563e+02 
-1.326948296273e+02 4.738976941652e+01 0.0 
4.738976941652e+01 -2.453781131005e+02 0.0 
0.0 0.0 -1.154146618308e+02 
-1.260124076333e+02 4.663628958138e+01 0.0 
4.663628958138e+01 -2.295861876237e+02 0.0 
0.0 0.0 -1.081083693717e+02 
-1.020211537514e+02 3.396305644446e+00 0.0 
3.396305644446e+00 -2.345855260020e+02 0.0 
0.0 0.0 -1.019341972758e+02 
-9.232065473190e+01 2.424742480812e+01 0.0 
2.424742480812e+01 -1.481106406462e+02 0.0 
0.0 0.0 -7.172938861342e+01 
-2.713866432347e+01 1.376876102623e+01 0.0 
1.376876102623e+01 -6.587469909798e+01 0.0 
0.0 0.0 -2.750400902644e+01 
-5.232942598765e+01 6.301871280190e+00 0.0 
6.301871280190e+00 -1.301317087915e+02 0.0 
0.0 0.0 -5.433834043374e+01 
-2.599274529890e+01 4.049205625808e+00 0.0 
4.049205625808e+00 -7.601429558648e+01 0.0 
0.0 0.0 -3.020211226561e+01 
-4.728484572954e+01 2.500851495816e+01 0.0 
2.500851495816e+01 -7.867832995460e+01 0.0 
0.0 0.0 -3.738895270524e+01 
-5.091063420848e+01 4.765801916209e+00 0.0 
4.765801916209e+00 -2.777902853448e+01 0.0 
0.0 0.0 -2.320689882289e+01 
-6.632180993115e+01 8.774875857019e+00 0.0 
8.774875857019e+00 -7.197610344524e+01 0.0 
0.0 0.0 -4.108937401292e+01 
-1.536417722671e+02 1.605241351592e+01 0.0 
1.605241351592e+01 -3.377456659910e+02 0.0 
0.0 0.0 -1.522526098636e+02 
-1.083329621700e+02 3.794322850538e+01 0.0 
3.794322850538e+01 -2.039331238961e+02 0.0 
0.0 0.0 -9.349959293926e+01 
-7.666818240734e+01 2.815964690447e+01 0.0 
2.815964690447e+01 -1.055402458359e+02 0.0 
0.0 0.0 -5.426252847299e+01 
-8.273447256139e+01 3.184789968624e+01 0.0 
3.184789968624e+01 -1.408231474982e+02 0.0 
0.0 0.0 -6.666728601788e+01 
-3.001025699559e+01 3.363610952138e+00 0.0 
3.363610952138e+00 -8.472279547755e+01 0.0 
0.0 0.0 -3.401991574194e+01 
-1.649994848501e+01 -6.936735020047e+00 0.0 
-6.936735020047e+00 -4.295806623057e+01 0.0 
0.0 0.0 -1.743740441467e+01 
-6.561571712450e+01 1.694432384483e+01 0.0 
1.694432384483e+01 -1.490986774114e+02 0.0 
0.0 0.0 -6.401431836077e+01 
-7.159865189623e+01 2.641467801435e+01 0.0 
2.641467801435e+01 -1.456953966536e+02 0.0 
0.0 0.0 -6.478821456494e+01 
-6.821115169913e+01 1.865474086261e+01 0.0 
1.865474086261e+01 -1.525350129218e+02 0.0 
0.0 0.0 -6.582384938629e+01 
-2.473453519408e+01 1.531238167675e+01 0.0 
1.531238167675e+01 -3.249880308289e+01 0.0 
0.0 0.0 -1.677000148309e+01 
-4.178951315957e+01 2.014166808994e-01 0.0 
2.014166808994e-01 -4.190475109326e+01 0.0 
0.0 0.0 -2.470827927585e+01 
-3.087105065745e+01 -4.716398402281e+00 0.0 
-4.716398402281e+00 -8.590930629486e+01 0.0 
0.0 0.0 -3.463410708569e+01 
-3.851082221363e+01 1.294754567458e+01 0.0 
1.294754567458e+01 -9.419652587989e+01 0.0 
0.0 0.0 -3.941220442805e+01 
-1.641226576729e+02 1.716120230609e+01 0.0 
1.716120230609e+01 -3.591681563898e+02 0.0 
0.0 0.0 -1.626242299679e+02 
-1.089290755784e+02 1.822022412992e+01 0.0 
1.822022412992e+01 -2.416391170159e+02 0.0 
0.0 0.0 -1.064730118563e+02 
-6.356732140942e+01 2.315820094632e+01 0.0 
2.315820094632e+01 -6.359963597604e+01 0.0 
0.0 0.0 -3.775008721564e+01 
-1.663934092648e+01 -3.210345815014e-01 0.0 
-3.210345815014e-01 -5.759037972502e+01 0.0 
0.0 0.0 -2.186891619545e+01 
-6.773437926847e+01 2.738545655161e+01 0.0 
2.738545655161e+01 -1.330151317520e+02 0.0 
0.0 0.0 -5.982485330614e+01 
-6.429405426839e+01 1.550393063791e+01 0.0 
1.550393063791e+01 -1.479792518465e+02 0.0 
0.0 0.0 -6.328199183447e+01 
-8.314275031478e+01 3.321098866663e+01 0.0 
3.321098866663e+01 -1.258937475732e+02 0.0 
0.0 0.0 -6.231094936639e+01 
-1.397313143283e+02 4.323389121516e+01 0.0 
4.323389121516e+01 -2.740309641003e+02 0.0 
0.0 0.0 -1.270170776358e+02 
-6.626024597028e+01 2.960150669310e+01 0.0 
2.960150669310e+01 -8.455665697429e+01 0.0 
0.0 0.0 -4.484507088337e+01 
-8.158183832569e+01 3.365293201754e+01 0.0 
3.365293201754e+01 -1.402189147777e+02 0.0 
0.0 0.0 -6.614022593102e+01 
-8.243593006053e+01 -2.981177000255e+00 0.0 
-2.981177000255e+00 -1.939485873062e+02 0.0 
0.0 0.0 -8.251535521002e+01 
-9.679972786530e+01 2.907229146252e+01 0.0 
2.907229146252e+01 -1.597084637654e+02 0.0 
0.0 0.0 -7.655245748922e+01 
-1.051597387226e+02 2.193435874538e+00 0.0 
2.193435874538e+00 -2.412600816132e+02 0.0 
0.0 0.0 -1.051243977980e+02 
-1.412925352491e+02 4.198713520515e+01 0.0 
4.198713520515e+01 -2.804267609879e+02 0.0 
0.0 0.0 -1.296038623816e+02 
-1.370739735264e+02 4.605351461110e+01 0.0 
4.605351461110e+01 -2.606323670533e+02 0.0 
0.0 0.0 -1.217973764729e+02 
-1.158914501797e+02 3.931991372182e+01 0.0 
3.931991372182e+01 -2.244403754415e+02 0.0 
0.0 0.0 -1.031452226548e+02 
-1.280018709285e+02 4.469673827230e+01 0.0 
4.469673827230e+01 -2.409722591581e+02 0.0 
0.0 0.0 -1.124566855748e+02 
-8.566761298153e+01 3.197890091504e+01 0.0 
3.197890091504e+01 -1.428562422954e+02 0.0 
0.0 0.0 -6.815715658309e+01 
-1.016001351103e+02 3.276132995994e+01 0.0 
3.276132995994e+01 -1.624375153876e+02 0.0 
0.0 0.0 -7.881129514936e+01 
-1.102758019813e+02 3.903986897937e+01 0.0 
3.903986897937e+01 -2.088043740242e+02 0.0 
0.0 0.0 -9.602157087651e+01 
-5.745636761588e+01 2.492422040045e+01 0.0 
2.492422040045e+01 -1.129619172085e+02 0.0 
0.0 0.0 -5.072548544730e+01 
-5.389093005248e+01 2.589016320826e+01 0.0 
2.589016320826e+01 -9.834022911597e+01 0.0 
0.0 0.0 -4.526934775053e+01 
-7.996766092349e+01 -2.847794588534e+00 0.0 
-2.847794588534e+00 -1.888403994147e+02 0.0 
0.0 0.0 -8.024241810145e+01 
-1.069965860818e+02 3.642093452707e+01 0.0 
3.642093452707e+01 -1.805994970090e+02 0.0 
0.0 0.0 -8.587882492723e+01 
-1.446430697978e+02 3.894146115277e+01 0.0 
3.894146115277e+01 -2.939778295365e+02 0.0 
0.0 0.0 -1.350984848803e+02 
-9.738567092330e+01 2.813819972151e+01 0.0 
2.813819972151e+01 -1.647438338761e+02 0.0 
0.0 0.0 -7.823885143981e+01 
-1.000791387510e+02 1.652329944741e+01 0.0 
1.652329944741e+01 -2.241694817279e+02 0.0 
0.0 0.0 -9.791665703782e+01 
-1.026347249870e+02 3.172725513796e+01 0.0 
3.172725513796e+01 -1.676745815487e+02 0.0 
0.0 0.0 -8.069279196073e+01 
-1.011632087091e+02 2.855541903497e+01 0.0 
2.855541903497e+01 -2.117256221180e+02 0.0 
0.0 0.0 -9.422364901713e+01 
-6.874778435871e+01 2.410711043775e+01 0.0 
2.410711043775e+01 -1.440777745774e+02 0.0 
0.0 0.0 -6.344766768083e+01 
-5.141236975407e+01 2.663155476439e+01 0.0 
2.663155476439e+01 -8.351028740086e+01 0.0 
0.0 0.0 -4.007679714648e+01 
-2.583934150798e+01 9.347169532229e+00 0.0 
9.347169532229e+00 -7.097932755367e+01 0.0 
0.0 0.0 -2.864560071850e+01 
-9.162070768872e+01 2.478932376270e+01 0.0 
2.478932376270e+01 -1.904661310060e+02 0.0 
0.0 0.0 -8.422605160842e+01 
-5.414124932234e+01 2.287464333831e+01 0.0 
2.287464333831e+01 -1.104835602171e+02 0.0 
0.0 0.0 -4.898744286183e+01 
-1.337630492324e+02 3.590190624442e+01 0.0 
3.590190624442e+01 -2.741460700894e+02 0.0 
0.0 0.0 -1.251142463166e+02 
-7.768608720891e+01 -3.613804372184e+00 0.0 
-3.613804372184e+00 -1.839551874964e+02 0.0 
0.0 0.0 -7.809238241160e+01 
-4.481464955552e+01 -2.651432276458e+00 0.0 
-2.651432276458e+00 -1.157865308714e+02 0.0 
0.0 0.0 -4.778035412809e+01 
-1.574970352658e+02 1.477031553258e+01 0.0 
1.477031553258e+01 -3.464930955597e+02 0.0 
0.0 0.0 -1.563496791017e+02 
-4.236971209329e+01 1.546897296030e+01 0.0 
1.546897296030e+01 -9.883345206227e+01 0.0 
0.0 0.0 -4.196094924667e+01 
-1.395406198988e+02 4.537582712641e+01 0.0 
4.537582712641e+01 -2.685765687590e+02 0.0 
0.0 0.0 -1.251818885662e+02 
-1.122862292747e+02 3.839712336635e+01 0.0 
3.839712336635e+01 -2.177048365266e+02 0.0 
0.0 0.0 -9.978349588646e+01 
-8.130380594699e+01 3.123337423198e+01 0.0 
3.123337423198e+01 -1.551371608783e+02 0.0 
0.0 0.0 -7.053229004760e+01 
-9.344133519241e+00 -6.096688683152e+00 0.0 
-6.096688683152e+00 -2.451604057499e+01 0.0 
0.0 0.0 -1.018510105710e+01 
-1.436482334531e+02 4.312745904314e+01 0.0 
4.312745904314e+01 -2.836967905191e+02 0.0 
0.0 0.0 -1.314327569549e+02 
-1.547740712766e+02 1.913754565693e+01 0.0 
1.913754565693e+01 -3.382961181497e+02 0.0 
0.0 0.0 -1.527996634404e+02 
-4.168698788702e+01 -2.680940660433e+00 0.0 
-2.680940660433e+00 -1.092710771134e+02 0.0 
0.0 0.0 -4.488741950012e+01 
-1.055730102100e+02 1.562912358749e+01 0.0 
1.562912358749e+01 -2.365703174571e+02 0.0 
0.0 0.0 -1.037341324665e+02 
-1.524146881973e+02 2.962051822563e+01 0.0 
2.962051822563e+01 -3.242022451877e+02 0.0 
0.0 0.0 -1.474507962175e+02 
-8.666351825057e+00 -2.821311168252e+00 0.0 
-2.821311168252e+00 -8.699813615988e+00 0.0 
0.0 0.0 -5.779762775101e+00 
-6.123260734352e+01 2.337368725173e+01 0.0 
2.337368725173e+01 -1.273150206169e+02 0.0 
0.0 0.0 -5.616428838814e+01 
-8.447526205069e+01 3.222048919086e+01 0.0 
3.222048919086e+01 -1.566146813933e+02 0.0 
0.0 0.0 -7.192698303320e+01 
-7.832345597169e+01 2.985442559325e+01 0.0 
2.985442559325e+01 -1.536858252149e+02 0.0 
0.0 0.0 -6.920278435598e+01 
-7.670528788602e+01 3.087896872360e+01 0.0 
3.087896872360e+01 -1.376643777780e+02 0.0 
0.0 0.0 -6.391089969920e+01 
-2.965697325499e+01 1.161850920772e+01 0.0 
1.161850920772e+01 -7.619696885242e+01 0.0 
0.0 0.0 -3.135618263222e+01 
-1.472726740955e+02 4.022257301570e+01 0.0 
4.022257301570e+01 -2.978112726664e+02 0.0 
0.0 0.0 -1.371995876929e+02 
-5.991882447993e+01 6.604339657725e+00 0.0 
6.604339657725e+00 -1.458960602431e+02 0.0 
0.0 0.0 -6.134446541690e+01 
-1.953709010823e+01 1.937246151038e+00 0.0 
1.937246151038e+00 -5.096024869429e+01 0.0 
0.0 0.0 -2.074920164076e+01 
-1.647275167583e+02 3.949258803659e+00 0.0 
3.949258803659e+00 -3.647933565646e+02 0.0 
0.0 0.0 -1.646495895496e+02 
-1.482528634554e+01 -5.555958109601e+00 0.0 
-5.555958109601e+00 -2.615497811688e+01 0.0 
0.0 0.0 -1.189407933873e+01 
-5.986337645865e+01 3.033125630728e+01 0.0 
3.033125630728e+01 -8.500732812916e+01 0.0 
0.0 0.0 -4.306121137634e+01 
-1.483126448993e+01 -4.317062500142e+00 0.0 
-4.317062500142e+00 -5.233567375769e+01 0.0 
0.0 0.0 -1.975008147429e+01 
-6.524941179292e+01 3.076906546006e+01 0.0 
3.076906546006e+01 -6.799276903975e+01 0.0 
0.0 0.0 -3.957265424980e+01 
-1.587893121408e+02 2.041440226104e+01 0.0 
2.041440226104e+01 -3.459349256457e+02 0.0 
0.0 0.0 -1.565883334235e+02 
-1.503173659410e+02 3.687209191349e+01 0.0 
3.687209191349e+01 -3.102241761910e+02 0.0 
0.0 0.0 -1.422247708550e+02 
-7.822256970318e+01 3.048808359044e+01 0.0 
3.048808359044e+01 -1.227965797370e+02 0.0 
0.0 0.0 -5.990574483205e+01 
-1.041368651051e+01 -5.526989973432e+00 0.0 
-5.526989973432e+00 -4.010509475603e+01 0.0 
0.0 0.0 -1.475563437996e+01 
-1.894858088001e+01 2.889360685688e+00 0.0 
2.889360685688e+00 -4.215281204061e+01 0.0 
0.0 0.0 -1.793041787619e+01 
-1.813890405314e+01 -6.431348393515e+00 0.0 
-6.431348393515e+00 -5.756581466116e+01 0.0 
0.0 0.0 -2.231141561429e+01 
-1.427680143901e+02 4.403671944034e+00 0.0 
4.403671944034e+00 -3.191064925142e+02 0.0 
0.0 0.0 -1.426581107095e+02 
-4.801290654622e+01 5.871805224253e+00 0.0 
5.871805224253e+00 -2.979975216406e+01 0.0 
0.0 0.0 -2.294379761308e+01 
-6.943675323068e+01 2.652608365231e+01 0.0 
2.652608365231e+01 -6.589696784946e+01 0.0 
0.0 0.0 -4.020011632404e+01 
-1.539041049327e+02 3.303179596439e+01 0.0 
3.303179596439e+01 -3.234690792568e+02 0.0 
0.0 0.0 -1.476966493867e+02 
-4.459244933601e+01 4.193516293470e+00 0.0 
4.193516293470e+00 -2.844240899747e+01 0.0 
0.0 0.0 -2.151045750004e+01 
-1.220406823466e+02 4.215295993638e+01 0.0 
4.215295993638e+01 -2.326254559040e+02 0.0 
0.0 0.0 -1.078052324907e+02 
-1.071885891414e+02 2.764067806545e+01 0.0 
2.764067806545e+01 -2.268968186509e+02 0.0 
0.0 0.0 -1.011145449882e+02 
-5.925535538948e+01 5.175290300180e+00 0.0 
5.175290300180e+00 -6.004063063105e+01 0.0 
0.0 0.0 -3.538879580616e+01 
-3.370096703000e+01 1.777477098915e+01 0.0 
1.777477098915e+01 -7.123632767287e+01 0.0 
0.0 0.0 -3.108118841086e+01 
-1.042829802656e+02 1.546108356967e+01 0.0 
1.546108356967e+01 -2.339565536216e+02 0.0 
0.0 0.0 -1.024650295885e+02 
-2.376640518569e+01 6.579844262228e+00 0.0 
6.579844262228e+00 -6.954258453134e+01 0.0 
0.0 0.0 -2.759269691511e+01 
-1.568656787079e+02 2.869152305425e+01 0.0 
2.869152305425e+01 -3.348351664470e+02 0.0 
0.0 0.0 -1.523544968015e+02 
-1.330947759222e+02 4.556979778039e+01 0.0 
4.556979778039e+01 -2.517379761675e+02 0.0 
0.0 0.0 -1.176122403914e+02 
-1.221050129212e+02 4.240186433373e+01 0.0 
4.240186433373e+01 -2.321087568036e+02 0.0 
0.0 0.0 -1.076581698562e+02 
-1.067609152463e+02 2.854370553044e+00 0.0 
2.854370553044e+00 -2.445110177166e+02 0.0 
0.0 0.0 -1.067017941582e+02 
-7.472376079846e+01 -2.991982815916e+00 0.0 
-2.991982815916e+00 -1.779162801631e+02 0.0 
0.0 0.0 -7.539201228846e+01 
-6.817108574461e+01 2.382941341691e+01 0.0 
2.382941341691e+01 -1.432883201826e+02 0.0 
0.0 0.0 -6.303782177816e+01 
-1.098683955697e+02 1.552407791560e+00 0.0 
1.552407791560e+00 -2.510916005327e+02 0.0 
0.0 0.0 -1.098513326599e+02 
-1.596939295014e+02 2.414623303177e+01 0.0 
2.414623303177e+01 -3.450672181225e+02 0.0 
0.0 0.0 -1.566003326180e+02 
-3.834791238113e+01 1.168385741582e+01 0.0 
1.168385741582e+01 -9.561531501283e+01 0.0 
0.0 0.0 -3.978896821819e+01 
-5.050952036893e+01 -1.056898670914e-01 0.0 
-1.056898670914e-01 -1.279130588729e+02 0.0 
0.0 0.0 -5.312677377256e+01 
-5.502783658873e+01 -3.089598796432e-01 0.0 
-3.089598796432e-01 -1.372900765715e+02 0.0 
0.0 0.0 -5.729537394806e+01 
-6.224327314403e+01 5.604651270216e+00 0.0 
5.604651270216e+00 -7.074057969790e+01 0.0 
0.0 0.0 -3.949515585258e+01 
-1.633754095868e+02 1.429176771955e+01 0.0 
1.429176771955e+01 -3.590318020022e+02 0.0 
0.0 0.0 -1.623369754392e+02 
-1.929437120127e+01 -5.944238442049e+00 0.0 
-5.944238442049e+00 -3.878209850070e+01 0.0 
0.0 0.0 -1.702294091059e+01 
-1.628007164760e+02 1.928408728249e+01 0.0 
1.928408728249e+01 -3.551444131603e+02 0.0 
0.0 0.0 -1.608863760052e+02 
-5.066611099357e+01 -1.632644785004e+00 0.0 
-1.632644785004e+00 -1.281327938925e+02 0.0 
0.0 0.0 -5.323967146583e+01 
-1.417601664293e+02 4.438709840459e+01 0.0 
4.438709840459e+01 -2.763882227071e+02 0.0 
0.0 0.0 -1.284429792167e+02 
-1.170405560564e+02 4.233584046716e+01 0.0 
4.233584046716e+01 -2.125744551627e+02 0.0 
0.0 0.0 -9.902621612877e+01 
-1.611435242290e+01 -2.670717529034e+00 0.0 
-2.670717529034e+00 -8.067311777984e+00 0.0 
0.0 0.0 -6.854499260264e+00 
-6.518965094182e+01 2.164823183771e+01 0.0 
2.164823183771e+01 -1.406412660478e+02 0.0 
0.0 0.0 -6.134927509688e+01 
-9.873106904560e+01 2.696095314410e+01 0.0 
2.696095314410e+01 -1.584566213030e+02 0.0 
0.0 0.0 -7.675630710459e+01 
-1.453838924179e+02 4.175895819967e+01 0.0 
4.175895819967e+01 -2.905641164595e+02 0.0 
0.0 0.0 -1.342295422151e+02 
-8.791289015554e+01 3.469081815951e+01 0.0 
3.469081815951e+01 -1.443212319859e+02 0.0 
0.0 0.0 -6.927023664244e+01 
-1.127055481762e+02 2.679719374362e+01 0.0 
2.679719374362e+01 -2.404424099903e+02 0.0 
0.0 0.0 -1.073116801100e+02 
-1.906635295949e+01 9.295968050600e+00 0.0 
9.295968050600e+00 -5.581500758472e+01 0.0 
0.0 0.0 -2.206440816327e+01 
-1.482188027861e+02 1.687029048887e+01 0.0 
1.687029048887e+01 -3.258764101291e+02 0.0 
0.0 0.0 -1.466309981221e+02 
-5.555027155614e+01 -1.646851667651e+00 0.0 
-1.646851667651e+00 -1.382774303585e+02 0.0 
0.0 0.0 -5.774831057439e+01 
-5.781662640079e+01 -1.539785974595e-01 0.0 
-1.539785974595e-01 -1.430823914614e+02 0.0 
0.0 0.0 -5.986970535866e+01 
-2.422731195063e+01 -3.778161073109e+00 0.0 
-3.778161073109e+00 -2.426750728877e+01 0.0 
0.0 0.0 -1.414844577182e+01 
-1.487739322708e+02 3.856851395921e+01 0.0 
3.856851395921e+01 -3.040717224780e+02 0.0 
0.0 0.0 -1.397228782404e+02 
-3.057128561265e+01 6.426379604095e+00 0.0 
6.426379604095e+00 -8.418484960102e+01 0.0 
0.0 0.0 -3.402684056410e+01 
-1.364626568421e+02 1.006033381417e+01 0.0 
1.006033381417e+01 -3.045084402836e+02 0.0 
0.0 0.0 -1.358625218528e+02 
-5.724888421890e+01 6.026624657969e+00 0.0 
6.026624657969e+00 -5.086312770486e+01 0.0 
0.0 0.0 -3.203360357713e+01 
-5.006307812974e+01 -3.223481116215e+00 0.0 
-3.223481116215e+00 -1.265696418036e+02 0.0 
0.0 0.0 -5.258981598002e+01 
-5.220611281761e+01 -1.481740103059e-01 0.0 
-1.481740103059e-01 -1.314348208470e+02 0.0 
0.0 0.0 -5.469228009937e+01 
-8.482623900067e+01 3.427729293369e+01 0.0 
3.427729293369e+01 -1.421820343576e+02 0.0 
0.0 0.0 -6.770248200747e+01 
-1.552313555908e+02 3.103309535013e+01 0.0 
3.103309535013e+01 -3.287611063889e+02 0.0 
0.0 0.0 -1.498485418706e+02 
-7.742283806307e+01 -4.245794360569e+00 0.0 
-4.245794360569e+00 -1.832631874590e+02 0.0 
0.0 0.0 -7.780580765662e+01 
-1.196895241235e+02 5.289697167424e+00 0.0 
5.289697167424e+00 -2.709647384495e+02 0.0 
0.0 0.0 -1.195047829091e+02 
-8.003543781169e+01 2.727021030664e+01 0.0 
2.727021030664e+01 -1.644748588624e+02 0.0 
0.0 0.0 -7.295308900224e+01 
-1.049909739018e+02 7.275334076989e+00 0.0 
7.275334076989e+00 -2.398143055828e+02 0.0 
0.0 0.0 -1.045995190374e+02 
-5.593303506351e+01 1.059332432873e+00 0.0 
1.059332432873e+00 -1.391313787752e+02 0.0 
0.0 0.0 -5.811932415162e+01 
-1.108336931109e+02 4.335201272464e+00 0.0 
4.335201272464e+00 -2.527410653626e+02 0.0 
0.0 0.0 -1.107013781893e+02 
-7.495927730403e+01 2.888333341790e+01 0.0 
2.888333341790e+01 -1.476773352140e+02 0.0 
0.0 0.0 -6.639098375542e+01 
-1.001323492562e+02 3.202416849450e+01 0.0 
3.202416849450e+01 -2.027018378041e+02 0.0 
0.0 0.0 -9.095493707663e+01 
-1.132227329422e+02 1.696877469234e+01 0.0 
1.696877469234e+01 -2.518098313340e+02 0.0 
0.0 0.0 -1.111753032079e+02 
-7.656787123942e+01 2.496330856146e+01 0.0 
2.496330856146e+01 -1.610087542372e+02 0.0 
0.0 0.0 -7.087298764299e+01 
-7.803917468277e+01 -2.682506729459e+00 0.0 
-2.682506729459e+00 -1.848587036742e+02 0.0 
0.0 0.0 -7.846936350710e+01 
-4.190977735456e+01 1.431954655937e+01 0.0 
1.431954655937e+01 -9.975304600663e+01 0.0 
0.0 0.0 -4.209884700836e+01 
-7.297289894940e+01 -4.185867525637e+00 0.0 
-4.185867525637e+00 -1.740155750350e+02 0.0 
0.0 0.0 -7.369654219532e+01 
-1.068896860386e+02 2.781877183629e+01 0.0 
2.781877183629e+01 -2.259531924669e+02 0.0 
0.0 0.0 -1.007106052356e+02 
-9.173147856212e+01 1.152503960972e+01 0.0 
1.152503960972e+01 -2.100709176330e+02 0.0 
0.0 0.0 -9.061950727931e+01 
-1.602506318539e+02 1.839204581612e+01 0.0 
1.839204581612e+01 -3.503146861779e+02 0.0 
0.0 0.0 -1.584872379681e+02 
-1.036739315307e+02 3.094578378056e+01 0.0 
3.094578378056e+01 -1.738493302212e+02 0.0 
0.0 0.0 -8.285697852555e+01 
-4.238756130565e+01 -3.938169815400e+00 0.0 
-3.938169815400e+00 -1.103525133750e+02 0.0 
0.0 0.0 -4.542202240419e+01 
-1.615424788568e+02 2.153230805572e+01 0.0 
2.153230805572e+01 -3.509875138167e+02 0.0 
0.0 0.0 -1.591259433871e+02 
-1.522027564398e+02 1.822499522887e+01 0.0 
1.822499522887e+01 -3.334501368069e+02 0.0 
0.0 0.0 -1.503883393646e+02 
-7.366701298756e+01 1.735145941166e+01 0.0 
1.735145941166e+01 -1.663217059128e+02 0.0 
0.0 0.0 -7.159661567011e+01 
-1.346606119584e+01 -4.367508501274e+00 0.0 
-4.367508501274e+00 -2.463959134474e+01 0.0 
0.0 0.0 -1.140947928387e+01 
-1.649490458293e+02 1.257758622557e+01 0.0 
1.257758622557e+01 -3.630463467180e+02 0.0 
0.0 0.0 -1.641536637524e+02 
-1.074131998367e+02 3.538250676322e+01 0.0 
3.538250676322e+01 -1.848244402005e+02 0.0 
0.0 0.0 -8.727129201117e+01 
-4.646981010597e+01 -2.572990317275e+00 0.0 
-2.572990317275e+00 -1.192474939182e+02 0.0 
0.0 0.0 -4.931519120725e+01 
-1.656359209018e+02 1.508192320967e+01 0.0 
1.508192320967e+01 -3.634013116180e+02 0.0 
0.0 0.0 -1.644923604618e+02 
-1.156120176832e+02 3.720076709960e+00 0.0 
3.720076709960e+00 -2.627789245612e+02 0.0 
0.0 0.0 -1.155180418054e+02 
-5.705744509651e+01 2.735395614664e+01 0.0 
2.735395614664e+01 -1.013932082135e+02 0.0 
0.0 0.0 -4.713519599299e+01 
-7.225346212635e+01 2.539285488439e+01 0.0 
2.539285488439e+01 -8.558620073983e+01 0.0 
0.0 0.0 -4.695189885985e+01 
-8.812355575839e+01 1.241052201466e+01 0.0 
1.241052201466e+01 -2.018850304246e+02 0.0 
0.0 0.0 -8.678540151638e+01 
-9.790752478211e+01 2.004505973475e+00 0.0 
2.004505973475e+00 -2.262167013593e+02 0.0 
0.0 0.0 -9.787621709132e+01 
-1.087941261603e+02 9.262641519051e+00 0.0 
9.262641519051e+00 -2.470129934593e+02 0.0 
0.0 0.0 -1.081761595480e+02 
-8.784113557035e+01 2.835251749785e+01 0.0 
2.835251749785e+01 -1.166093605256e+02 0.0 
0.0 0.0 -6.093514882879e+01 
-6.239295279008e+01 2.925266022287e+01 0.0 
2.925266022287e+01 -1.011113634668e+02 0.0 
0.0 0.0 -4.865129487705e+01 
-1.167123147204e+02 1.958567575363e+01 0.0 
1.958567575363e+01 -2.571050350269e+02 0.0 
0.0 0.0 -1.140311908783e+02 
-4.912962831649e+01 8.940700141684e-01 0.0 
8.940700141684e-01 -5.894604399106e+01 0.0 
0.0 0.0 -3.202270169226e+01 
-8.043831268691e+01 -2.229151841957e+00 0.0 
-2.229151841957e+00 -1.899068890666e+02 0.0 
0.0 0.0 -8.070356052605e+01 
-1.096053671553e+02 1.442924589341e+01 0.0 
1.442924589341e+01 -2.459523708009e+02 0.0 
0.0 0.0 -1.080950868776e+02 
-5.865808221798e+01 -1.387654276052e+00 0.0 
-1.387654276052e+00 -1.447613578189e+02 0.0 
0.0 0.0 -6.062583201106e+01 
-1.145057080986e+02 -1.838731267736e+00 0.0 
-1.838731267736e+00 -2.607001433005e+02 0.0 
0.0 0.0 -1.144825854810e+02 
-2.220348869334e+01 -2.335203649962e+00 0.0 
-2.335203649962e+00 -7.821460562852e+00 0.0 
0.0 0.0 -8.607484776859e+00 
-4.551705694320e+01 1.694044914096e+01 0.0 
1.694044914096e+01 -1.034248280218e+02 0.0 
0.0 0.0 -4.428256548950e+01 
-5.390411104829e+01 -1.363139354597e+00 0.0 
-1.363139354597e+00 -1.348902056642e+02 0.0 
0.0 0.0 -5.623829501376e+01 
-8.685036360139e+01 -3.189481806966e+00 0.0 
-3.189481806966e+00 -2.030890472142e+02 0.0 
0.0 0.0 -8.676291296733e+01 
-7.734843652288e+01 2.024789545508e+01 0.0 
2.024789545508e+01 -1.707052764420e+02 0.0 
0.0 0.0 -7.401611388948e+01 
-1.141211427901e+02 2.990666888998e+00 0.0 
2.990666888998e+00 -2.597841048603e+02 0.0 
0.0 0.0 -1.140597660255e+02 
-6.125612296024e+01 6.029721692564e+00 0.0 
6.029721692564e+00 -6.314532484333e+01 0.0 
0.0 0.0 -3.692043434107e+01 
-4.985229472749e+01 -2.434216681773e+00 0.0 
-2.434216681773e+00 -1.263109395926e+02 0.0 
0.0 0.0 -5.244897029602e+01 
-1.667602886321e+02 1.310404700967e+01 0.0 
1.310404700967e+01 -3.666215666235e+02 0.0 
0.0 0.0 -1.659047745207e+02 
-8.624249136225e+01 3.407240340508e+01 0.0 
3.407240340508e+01 -1.577283974521e+02 0.0 
0.0 0.0 -7.279126664430e+01 
-9.113977122524e+01 -3.419539654145e+00 0.0 
-3.419539654145e+00 -2.119655174971e+02 0.0 
0.0 0.0 -9.104307080472e+01 
-8.251028826464e+01 3.284382491799e+01 0.0 
3.284382491799e+01 -1.556337884809e+02 0.0 
0.0 0.0 -7.104322302367e+01 
-8.919502748555e+01 -2.450199657201e+00 0.0 
-2.450199657201e+00 -2.080703509672e+02 0.0 
0.0 0.0 -8.914454661310e+01 
-1.261021176367e+01 -2.768521023903e+00 0.0 
-2.768521023903e+00 -8.671889490901e+00 0.0 
0.0 0.0 -6.958876355621e+00 
-7.719022354679e+01 2.799494620601e+01 0.0 
2.799494620601e+01 -8.965241306074e+01 0.0 
0.0 0.0 -4.965279098226e+01 
-7.199161410643e+01 -2.942990742562e+00 0.0 
-2.942990742562e+00 -1.694651894750e+02 0.0 
0.0 0.0 -7.203704107444e+01 
9.957027274893e-01 2.059952940531e-01 0.0 
2.059952940531e-01 -8.874649807893e+00 0.0 
0.0 0.0 -8.694814232919e-01 
-8.639314190263e+01 -3.994405054712e+00 0.0 
-3.994405054712e+00 -2.019847610364e+02 0.0 
0.0 0.0 -8.625527494858e+01 
-1.230856679695e+02 3.808683416707e+00 0.0 
3.808683416707e+00 -2.782961766871e+02 0.0 
0.0 0.0 -1.229922635660e+02 
-7.412675526919e+01 5.946662567609e+00 0.0 
5.946662567609e+00 -1.360740402871e+02 0.0 
0.0 0.0 -6.266023866689e+01 
-1.001160010525e+02 7.980841489586e+00 0.0 
7.980841489586e+00 -2.293879980824e+02 0.0 
0.0 0.0 -9.962515306841e+01 
-1.033446127625e+02 6.912816268099e+00 0.0 
6.912816268099e+00 -2.364995684424e+02 0.0 
0.0 0.0 -1.029866920133e+02 
-6.008730565648e+01 2.481563771041e+01 0.0 
2.481563771041e+01 -4.519314942343e+01 0.0 
0.0 0.0 -3.118413652397e+01 
-3.586371473331e+01 1.163871404116e+00 0.0 
1.163871404116e+00 -8.535907082377e+00 0.0 
0.0 0.0 -1.291988654471e+01 
-9.999380152450e+01 3.159734694546e+01 0.0 
3.159734694546e+01 -2.007277971667e+02 0.0 
0.0 0.0 -8.996233048175e+01 
-7.852779349183e+01 3.106528784083e+01 0.0 
3.106528784083e+01 -1.505639806463e+02 0.0 
0.0 0.0 -6.832753224142e+01 
9.998187790443e-01 3.773837250507e-02 0.0 
3.773837250507e-02 -6.858830419706e+00 0.0 
0.0 0.0 1.000000000000e+00 
-2.419400647838e+01 -3.735819131354e+00 0.0 
-3.735819131354e+00 -7.239647115514e+01 0.0 
0.0 0.0 -2.857714329006e+01 
-1.115673475950e+01 -5.392024742681e+00 0.0 
-5.392024742681e+00 -2.440594004677e+01 0.0 
0.0 0.0 -1.066231569928e+01 
-4.942218337769e+01 -3.965929860345e+00 0.0 
-3.965929860345e+00 -1.250179102500e+02 0.0 
0.0 0.0 -5.193202808830e+01 
-1.156809698760e+02 3.700616364480e+01 0.0 
3.700616364480e+01 -2.294405571814e+02 0.0 
0.0 0.0 -1.047023294642e+02 
-7.760931568892e+01 7.974435061570e+00 0.0 
7.974435061570e+00 -1.379036373487e+02 0.0 
0.0 0.0 -6.425388591128e+01 
-1.372921643723e+02 1.924019511104e+00 0.0 
1.924019511104e+00 -3.080098584480e+02 0.0 
0.0 0.0 -1.372704830754e+02 
-5.710441776863e+01 -3.512907596051e+00 0.0 
-3.512907596051e+00 -1.411538329289e+02 0.0 
0.0 0.0 -5.907747520927e+01 
-1.162627549964e+02 -7.530314569013e-01 0.0 
-7.530314569013e-01 -2.644071706955e+02 0.0 
0.0 0.0 -1.162589273683e+02 
-1.402484172912e+02 8.347401800858e+00 0.0 
8.347401800858e+00 -3.129758092205e+02 0.0 
0.0 0.0 -1.398459499345e+02 
-2.169237886190e+01 1.408120840310e+00 0.0 
1.408120840310e+00 -6.795664915262e+01 0.0 
0.0 0.0 -2.649470840436e+01 
-7.158048543356e+01 2.381935716341e-02 0.0 
2.381935716341e-02 -1.693652489483e+02 0.0 
0.0 0.0 -7.188372031456e+01 
-5.606094985652e+01 -1.712642670268e+00 0.0 
-1.712642670268e+00 -1.392589398291e+02 0.0 
0.0 0.0 -5.819596690569e+01 
-1.659745846835e+02 1.073286222379e+01 0.0 
1.073286222379e+01 -3.658543207268e+02 0.0 
0.0 0.0 -1.653999186730e+02 
-1.680173435529e+02 1.137697970667e+01 0.0 
1.137697970667e+01 -3.698968499007e+02 0.0 
0.0 0.0 -1.673782138916e+02 
-8.137470649172e+01 -3.772077456973e-01 0.0 
-3.772077456973e-01 -1.888092502080e+02 0.0 
0.0 0.0 -8.065518700993e+01 
-9.357878268013e+01 -2.428328458686e+00 0.0 
-2.428328458686e+00 -2.171797272713e+02 0.0 
0.0 0.0 -9.353109287642e+01 
-1.008678207270e+02 8.388228865886e-01 0.0 
8.388228865886e-01 -2.324422076800e+02 0.0 
0.0 0.0 -1.008624732178e+02 
-1.439075802344e+02 1.049244076969e+01 0.0 
1.049244076969e+01 -3.198928462880e+02 0.0 
0.0 0.0 -1.432842170737e+02 
-2.767908407394e+01 -5.077033853987e+00 0.0 
-5.077033853987e+00 -7.898639570731e+01 0.0 
0.0 0.0 -3.159964393437e+01 
-1.362084028092e+02 6.392587182443e+00 0.0 
6.392587182443e+00 -3.050833451431e+02 0.0 
0.0 0.0 -1.359667637544e+02 
-8.246135143081e+00 8.589888016633e-01 0.0 
8.589888016633e-01 -4.010240935520e+01 0.0 
0.0 0.0 -1.410456334948e+01 
-8.417557701103e+01 -2.774394485820e+00 0.0 
-2.774394485820e+00 -1.975964919304e+02 0.0 
0.0 0.0 -8.413162068243e+01 
-9.386791128100e+01 -1.834558933925e+00 0.0 
-1.834558933925e+00 -2.178431730789e+02 0.0 
0.0 0.0 -9.384076981927e+01 
-1.454172343199e+00 -1.862982447144e-01 0.0 
-1.862982447144e-01 -2.606897509649e+01 0.0 
0.0 0.0 -8.237539401679e+00 
-7.685567932505e+01 -2.215194405062e+00 0.0 
-2.215194405062e+00 -1.785613816898e+02 0.0 
0.0 0.0 -7.622511830446e+01 
-9.682331469731e+01 2.768825273430e+01 0.0 
2.768825273430e+01 -1.701434716833e+02 0.0 
0.0 0.0 -7.969003591417e+01 
8.085285537244e-01 -1.241318928668e-01 0.0 
-1.241318928668e-01 -7.477313989949e+00 0.0 
0.0 0.0 8.889498988823e-01 
-3.874669596186e+01 2.844205306802e+00 0.0 
2.844205306802e+00 -8.613790593558e+00 0.0 
0.0 0.0 -1.380814596662e+01 
-3.879697271673e+01 3.349079615068e+00 0.0 
3.349079615068e+00 -9.473341993176e+00 0.0 
0.0 0.0 -1.408109441297e+01 
-1.124761854207e+02 1.142327444660e+01 0.0 
1.142327444660e+01 -2.537347118238e+02 0.0 
0.0 0.0 -1.115583730742e+02 
-5.514681094647e+01 9.852989662982e-01 0.0 
9.852989662982e-01 -1.375043854265e+02 0.0 
0.0 0.0 -5.739535891189e+01 
-5.127341787644e+01 -2.584789445568e+00 0.0 
-2.584789445568e+00 -1.292360580672e+02 0.0 
0.0 0.0 -5.375284278308e+01 
-2.704827538222e+01 1.266595801099e+01 0.0 
1.266595801099e+01 -6.817006523871e+01 0.0 
0.0 0.0 -2.816550218628e+01 
-1.509936367962e+02 2.257028275492e+00 0.0 
2.257028275492e+00 -3.364366803849e+02 0.0 
0.0 0.0 -1.509661705611e+02 
-1.404684307328e+02 3.803733435289e+01 0.0 
3.803733435289e+01 -2.859201625959e+02 0.0 
0.0 0.0 -1.311218263703e+02 
-7.984218193539e+01 1.112434350462e+01 0.0 
1.112434350462e+01 -1.262674471302e+02 0.0 
0.0 0.0 -6.143288871967e+01 
-3.573067181814e+01 1.844232812046e+01 0.0 
1.844232812046e+01 -7.460007213141e+01 0.0 
0.0 0.0 -3.269922318486e+01 
-1.404321626138e+01 -5.870385727484e+00 0.0 
-5.870385727484e+00 -4.927925845937e+01 0.0 
0.0 0.0 -1.859674241622e+01 
-5.907134863822e+01 3.005500123786e+01 0.0 
3.005500123786e+01 -8.237447719247e+01 0.0 
0.0 0.0 -4.203374774921e+01 
-3.184423567288e+01 5.554616994596e-02 0.0 
5.554616994596e-02 -9.492388815910e+00 0.0 
0.0 0.0 -1.200098734664e+01 
-2.844213014400e+01 2.247248842095e-01 0.0 
2.247248842095e-01 -8.831666487389e+00 0.0 
0.0 0.0 -1.078213898942e+01 
9.987650832324e-01 1.125613110783e-01 0.0 
1.125613110783e-01 -9.259840245088e+00 0.0 
0.0 0.0 1.000000000000e+00 
-1.359319818796e+00 2.244388782195e-01 0.0 
2.244388782195e-01 -2.587007462735e+01 0.0 
0.0 0.0 -8.190147703800e+00 
-9.592472417998e+00 -5.541107075858e-02 0.0 
-5.541107075858e-02 -4.296835376068e+01 0.0 
0.0 0.0 -1.536824785360e+01 
-4.125405310405e+01 -4.709495898520e+00 0.0 
-4.709495898520e+00 -1.076769013282e+02 0.0 
0.0 0.0 -4.427928632967e+01 
-1.039873784642e+00 1.206660263014e-01 0.0 
1.206660263014e-01 -2.521136450473e+01 0.0 
0.0 0.0 -7.111218893591e+00 
-8.613875527254e+01 -2.148879202847e+00 0.0 
-2.148879202847e+00 -1.989724872945e+02 0.0 
0.0 0.0 -8.513337277012e+01 
-2.123101277228e+01 -4.261532213455e-01 0.0 
-4.261532213455e-01 -8.526185306023e+00 0.0 
0.0 0.0 -9.495494788643e+00 
-5.050896573214e+01 -4.605876855294e+00 0.0 
-4.605876855294e+00 -1.270630086649e+02 0.0 
0.0 0.0 -5.287159231913e+01 
-5.440762169668e+01 1.104699827359e+00 0.0 
1.104699827359e+00 -7.585113080162e+01 0.0 
0.0 0.0 -3.867762574949e+01 
-2.928782949374e+01 7.637339292691e-01 0.0 
7.637339292691e-01 -8.749152471973e+00 0.0 
0.0 0.0 -1.101109458971e+01 
-1.191614514175e+02 3.898189373554e+01 0.0 
3.898189373554e+01 -2.334263196036e+02 0.0 
0.0 0.0 -1.071295662078e+02 
-1.188560673209e+02 2.281075265360e+00 0.0 
2.281075265360e+00 -2.696966446001e+02 0.0 
0.0 0.0 -1.188215798172e+02 
-4.757455080159e+01 4.318806454223e-01 0.0 
4.318806454223e-01 -5.795426558952e+01 0.0 
0.0 0.0 -3.125864491733e+01 
-6.021472429688e+01 -1.543283595796e+00 0.0 
-1.543283595796e+00 -1.476644712709e+02 0.0 
0.0 0.0 -6.196375867033e+01 
-8.338072843829e+00 -2.666162385038e-01 0.0 
-2.666162385038e-01 -4.035764189994e+01 0.0 
0.0 0.0 -1.420871442313e+01 
-8.724751503670e+01 1.602246841260e+01 0.0 
1.602246841260e+01 -1.971434503200e+02 0.0 
0.0 0.0 -8.495914245659e+01 
-9.460701936282e+01 1.874252907972e+01 0.0 
1.874252907972e+01 -2.044757567091e+02 0.0 
0.0 0.0 -8.932483282156e+01 
-5.251563868580e+01 2.408026490401e+00 0.0 
2.408026490401e+00 -4.845325211130e+01 0.0 
0.0 0.0 -2.989066723913e+01 
-3.275222344783e+01 1.315238813890e-01 0.0 
1.315238813890e-01 -8.920957763589e+00 0.0 
0.0 0.0 -1.210195436343e+01 
-6.121021079792e+01 -3.746707393573e-02 0.0 
-3.746707393573e-02 -1.501283685565e+02 0.0 
0.0 0.0 -6.300157380633e+01 
-9.127224980759e+01 1.270752406133e+01 0.0 
1.270752406133e+01 -2.001577885583e+02 0.0 
0.0 0.0 -8.702901150976e+01 
-4.757816987138e+01 -3.644821259808e+00 0.0 
-3.644821259808e+00 -1.212748003846e+02 0.0 
0.0 0.0 -5.025589107680e+01 
-3.240395104379e+01 1.979132034514e+00 0.0 
1.979132034514e+00 -9.666999589235e+00 0.0 
0.0 0.0 -1.222128518991e+01 
-3.407089688612e+01 4.791055564545e-01 0.0 
4.791055564545e-01 -8.604571754465e+00 0.0 
0.0 0.0 -1.240264059217e+01 
-5.818134894098e+01 2.902081482227e+01 0.0 
2.902081482227e+01 -6.664581055949e+01 0.0 
0.0 0.0 -3.704814785014e+01 
-1.103488077453e+02 3.624604688205e+01 0.0 
3.624604688205e+01 -2.181367384534e+02 0.0 
0.0 0.0 -9.929405936183e+01 
-9.404294666401e+01 1.547569144570e+01 0.0 
1.547569144570e+01 -2.028066447459e+02 0.0 
0.0 0.0 -8.865487742297e+01 
-1.021966815380e+00 6.754810336063e-02 0.0 
6.754810336063e-02 -2.517546096386e+01 0.0 
0.0 0.0 -6.843535148724e+00 
9.981823185163e-01 -1.373553366272e-01 0.0 
-1.373553366272e-01 -9.379424926521e+00 0.0 
0.0 0.0 1.000000000000e+00 
-1.838736320538e+01 -5.007797011001e+00 0.0 
-5.007797011001e+00 -5.937217481067e+01 0.0 
0.0 0.0 -2.292786140482e+01 
-9.166500918518e+01 -2.583147958567e+00 0.0 
-2.583147958567e+00 -2.131845495887e+02 0.0 
0.0 0.0 -9.161012384778e+01 
-1.625291793830e+02 -7.515069708148e-01 0.0 
-7.515069708148e-01 -3.604604798020e+02 0.0 
0.0 0.0 -1.625263260971e+02 
-3.217151284346e+01 -1.620832304243e-01 0.0 
-1.620832304243e-01 -6.845380817364e+00 0.0 
0.0 0.0 -1.130506809825e+01 
-6.813403456568e+01 1.888566921936e+00 0.0 
1.888566921936e+00 -1.198561572979e+02 0.0 
0.0 0.0 -5.599705755906e+01 
-1.899216945506e+01 -1.439435330392e+00 0.0 
-1.439435330392e+00 -8.717079789693e+00 0.0 
0.0 0.0 -8.893724814160e+00 
-1.122248851311e+02 8.053349903848e+00 0.0 
8.053349903848e+00 -2.546398348095e+02 0.0 
0.0 0.0 -1.117709274026e+02 
-2.710840077082e+01 -1.795901962515e+00 0.0 
-1.795901962515e+00 -8.042416915051e+00 0.0 
0.0 0.0 -1.014524530576e+01 
-3.031731836314e+01 -1.106387615617e+00 0.0 
-1.106387615617e+00 -7.847684955521e+00 0.0 
0.0 0.0 -1.104950099560e+01 
-1.082809336752e+02 6.109624573855e+00 0.0 
6.109624573855e+00 -2.470224876926e+02 0.0 
0.0 0.0 -1.080124098889e+02 
-1.561735834145e+02 -4.392333680839e-01 0.0 
-4.392333680839e-01 -3.472717670223e+02 0.0 
0.0 0.0 -1.561725738553e+02 
-5.506119935796e+01 1.468436428986e+00 0.0 
1.468436428986e+00 -7.505894643286e+01 0.0 
0.0 0.0 -3.863604373725e+01 
-6.549849308059e+01 3.129256719748e+01 0.0 
3.129256719748e+01 -1.014511425359e+02 0.0 
0.0 0.0 -4.968489068494e+01 
-1.600300457765e+00 -2.506047545567e-01 0.0 
-2.506047545567e-01 -2.636887915269e+01 0.0 
0.0 0.0 -8.373248007637e+00 
-1.207024011789e+02 -8.351343733962e-01 0.0 
-8.351343733962e-01 -2.736217376200e+02 0.0 
0.0 0.0 -1.206978404174e+02 
-8.244100413617e+01 4.857899770920e+00 0.0 
4.857899770920e+00 -1.935520196042e+02 0.0 
0.0 0.0 -8.239790712211e+01 
-8.871560804536e+01 6.265308716034e+00 0.0 
6.265308716034e+00 -1.971404227879e+02 0.0 
0.0 0.0 -8.535680924996e+01 
-2.832188039631e+01 1.844411887158e-01 0.0 
1.844411887158e-01 -8.531885201087e+00 0.0 
0.0 0.0 -1.065612967922e+01 
-1.161278455032e+02 1.013877964931e+01 0.0 
1.013877964931e+01 -2.619813176766e+02 0.0 
0.0 0.0 -1.154264369097e+02 
-8.581226446632e+01 1.311506272303e+01 0.0 
1.311506272303e+01 -1.964876652254e+02 0.0 
0.0 0.0 -8.428997890751e+01 
-1.127788959305e+02 2.714738544346e+01 0.0 
2.714738544346e+01 -2.401279519528e+02 0.0 
0.0 0.0 -1.072332964218e+02 
-8.468097781674e+00 6.275305610265e-03 0.0 
6.275305610265e-03 -4.063440169899e+01 0.0 
0.0 0.0 -1.433074984420e+01 
-4.822822587613e-01 -3.110172670072e-01 0.0 
-3.110172670072e-01 -2.404301589110e+01 0.0 
0.0 0.0 -5.899847173398e+00 
-9.415018143452e-01 -2.429900887852e-03 0.0 
-2.429900887852e-03 -2.500899383011e+01 0.0 
0.0 0.0 -7.626416207363e+00 
-7.140017407623e+01 -1.471528244930e+00 0.0 
-1.471528244930e+00 -1.680575866143e+02 0.0 
0.0 0.0 -7.143732820717e+01 
-1.759901503072e+02 2.227435634677e+00 0.0 
2.227435634677e+00 -3.883427244160e+02 0.0 
0.0 0.0 -1.759667885761e+02 
-8.138961231663e+01 1.239330815749e+00 0.0 
1.239330815749e+00 -1.727404348386e+02 0.0 
0.0 0.0 -7.583901414656e+01 
9.999984956670e-01 -3.966499692924e-03 0.0 
-3.966499692924e-03 -9.458535529648e+00 0.0 
0.0 0.0 1.000000000000e+00 
-8.665980139293e+01 4.971218091418e-01 0.0 
4.971218091418e-01 -1.992012441201e+02 0.0 
0.0 0.0 -8.535831365391e+01 
-1.775763295438e+02 1.218374876461e+00 0.0 
1.218374876461e+00 -3.916862098692e+02 0.0 
0.0 0.0 -1.775693967050e+02 
-1.746806849144e+02 2.269329244932e+00 0.0 
2.269329244932e+00 -3.856210123676e+02 0.0 
0.0 0.0 -1.746562739381e+02 
-1.673971168066e+02 9.319712455068e+00 0.0 
9.319712455068e+00 -3.692544509346e+02 0.0 
0.0 0.0 -1.669677408964e+02 
-6.163499158338e+01 -2.788966358055e-01 0.0 
-2.788966358055e-01 -9.948657030953e+01 0.0 
0.0 0.0 -4.793646856787e+01 
-7.112068933790e+01 1.026007944286e+00 0.0 
1.026007944286e+00 -1.305469585743e+02 0.0 
0.0 0.0 -6.010029437367e+01 
-1.761096044710e+02 1.674717923263e+00 0.0 
1.674717923263e+00 -3.886219816643e+02 0.0 
0.0 0.0 -1.760964075645e+02 
-1.755955508627e+02 2.366349866294e+00 0.0 
2.366349866294e+00 -3.875141179266e+02 0.0 
0.0 0.0 -1.755691307441e+02 
-6.793749891855e+01 1.047403069470e-01 0.0 
1.047403069470e-01 -1.198618729476e+02 0.0 
0.0 0.0 -5.593981155984e+01 
9.997295457938e-01 -4.372501014635e-02 0.0 
-4.372501014635e-02 -6.069132107034e+00 0.0 
0.0 0.0 1.000000000000e+00 
-2.862205045989e+01 -1.421325091513e-02 0.0 
-1.421325091513e-02 -8.122098422311e+00 0.0 
0.0 0.0 -1.062324466466e+01 
-2.834365879208e+01 -1.602867931428e-01 0.0 
-1.602867931428e-01 -8.690885038240e+00 0.0 
0.0 0.0 -1.071036314909e+01 
9.998415589448e-01 3.993829560709e-02 0.0 
3.993829560709e-02 -9.067261001992e+00 0.0 
0.0 0.0 1.000000000000e+00 
-1.732540469530e+02 4.631825760628e+00 0.0 
4.631825760628e+00 -3.824190133896e+02 0.0 
0.0 0.0 -1.731515283516e+02 
-1.682292510885e+02 7.872697858004e+00 0.0 
7.872697858004e+00 -3.713656276855e+02 0.0 
0.0 0.0 -1.679245958721e+02 
-1.709611347016e+02 6.802112144690e+00 0.0 
6.802112144690e+00 -3.772851580280e+02 0.0 
0.0 0.0 -1.707371251625e+02 
9.990222403604e-01 9.447840513735e-02 0.0 
9.447840513735e-02 -8.129205865786e+00 0.0 
0.0 0.0 1.000000000000e+00 
9.996110639952e-01 -5.867842451920e-02 0.0 
-5.867842451920e-02 -7.852761024750e+00 0.0 
0.0 0.0 1.000000000000e+00 
-1.689541284947e+02 9.657683027387e+00 0.0 
9.657683027387e+00 -3.724005665910e+02 0.0 
0.0 0.0 -1.684967029228e+02 
-1.699647893687e+02 8.309571640348e+00 0.0 
8.309571640348e+00 -3.748709222523e+02 0.0 
0.0 0.0 -1.696283631365e+02 
-5.825733469565e+01 9.922407372898e-01 0.0 
9.922407372898e-01 -8.937969874890e+01 0.0 
0.0 0.0 -4.389111003336e+01 
-2.849421138560e+01 -2.192574629765e-01 0.0 
-2.192574629765e-01 -7.848172111009e+00 0.0 
0.0 0.0 -1.050271504898e+01 
-6.511827240863e+01 1.029148792494e+00 0.0 
1.029148792494e+00 -1.098346538914e+02 0.0 
0.0 0.0 -5.208587789001e+01 
-4.416215481821e+01 8.647970571469e-01 0.0 
8.647970571469e-01 -4.935381340068e+01 0.0 
0.0 0.0 -2.765479046567e+01 
-2.840464130930e+01 2.700010855628e-01 0.0 
2.700010855628e-01 -7.741777929576e+00 0.0 
0.0 0.0 -1.044392577166e+01 
9.997101805828e-01 -5.011338585497e-02 0.0 
-5.011338585497e-02 -7.665228389153e+00 0.0 
0.0 0.0 1.000000000000e+00 
-1.155888522533e+00 -1.074793858878e+00 0.0 
-1.074793858878e+00 -8.876749533215e+00 0.0 
0.0 0.0 -2.609791416724e+00 
-4.730127471193e+00 -1.817037482470e+00 0.0 
-1.817037482470e+00 -8.417485911490e+00 0.0 
0.0 0.0 -3.544284014805e+00 
-9.900478380777e+00 -2.387436212167e+00 0.0 
-2.387436212167e+00 -8.561187588353e+00 0.0 
0.0 0.0 -5.138499790739e+00 
-9.149662050288e+01 -1.483824017422e+00 0.0 
-1.483824017422e+00 -2.094655528434e+02 0.0 
0.0 0.0 -8.988865200388e+01 
-8.172119761781e+01 -1.450177437363e+00 0.0 
-1.450177437363e+00 -1.886507151764e+02 0.0 
0.0 0.0 -8.071157383828e+01 
-2.478030013393e+00 -1.646350906947e+00 0.0 
-1.646350906947e+00 -8.949348233123e+00 0.0 
0.0 0.0 -4.005240944890e+00 
-1.197610152198e+02 -1.303549112046e+00 0.0 
-1.303549112046e+00 -2.703392307192e+02 0.0 
0.0 0.0 -1.191199298669e+02 
-5.642967841760e+00 -2.305627136353e+00 0.0 
-2.305627136353e+00 -8.862401538464e+00 0.0 
0.0 0.0 -4.923449986840e+00 
-9.875322889502e+01 2.857284783561e+01 0.0 
2.857284783561e+01 -2.061388932320e+02 0.0 
0.0 0.0 -9.162396097061e+01 
-8.437873856425e+01 1.080461435662e+01 0.0 
1.080461435662e+01 -1.950114460639e+02 0.0 
0.0 0.0 -8.341705538845e+01 
-8.911931832976e+01 1.884258646593e+01 0.0 
1.884258646593e+01 -1.983512907617e+02 0.0 
0.0 0.0 -8.596031847850e+01 
-2.196254983779e+01 -8.283643109521e-01 0.0 
-8.283643109521e-01 -6.860400217748e+01 0.0 
0.0 0.0 -2.676996560458e+01 
-5.039308103016e+01 -1.345149318769e+00 0.0 
-1.345149318769e+00 -1.275997032868e+02 0.0 
0.0 0.0 -5.299783529508e+01 
-8.334253269310e+01 8.521825000265e+00 0.0 
8.521825000265e+00 -1.940700734231e+02 0.0 
0.0 0.0 -8.282378183487e+01 
-1.486992377627e+02 -7.192028134395e-01 0.0 
-7.192028134395e-01 -3.317492426674e+02 0.0 
0.0 0.0 -1.486964120610e+02 
-8.393484158459e+01 6.766797782591e+00 0.0 
6.766797782591e+00 -1.960536347414e+02 0.0 
0.0 0.0 -8.359654289780e+01 
-1.583767736247e+02 -6.255270774728e-01 0.0 
-6.255270774728e-01 -3.518425319938e+02 0.0 
0.0 0.0 -1.583747511477e+02 
-1.678486234219e+02 -7.092605174395e-01 0.0 
-7.092605174395e-01 -3.715049641155e+02 0.0 
0.0 0.0 -1.678461533569e+02 
-7.660054153386e+01 6.301739297229e-01 0.0 
6.301739297229e-01 -1.784535499903e+02 0.0 
0.0 0.0 -7.611622745726e+01 
-9.047362325945e+01 1.009034263526e+01 0.0 
1.009034263526e+01 -1.984068821248e+02 0.0 
0.0 0.0 -8.626415161529e+01 
-8.864606511417e+01 7.468333520689e+00 0.0 
7.468333520689e+00 -1.976414477821e+02 0.0 
0.0 0.0 -8.548625386889e+01 
-1.531527804881e+02 4.563379227456e-01 0.0 
4.563379227456e-01 -3.410001962422e+02 0.0 
0.0 0.0 -1.531516719125e+02 
-1.628932007728e+02 7.754713219687e-01 0.0 
7.754713219687e-01 -3.612156475267e+02 0.0 
0.0 0.0 -1.628901686068e+02 
-1.296290644297e+02 -9.361329801939e-01 0.0 
-9.361329801939e-01 -2.921511680979e+02 0.0 
0.0 0.0 -1.296236724500e+02 
-1.605638007069e+01 -2.196895145088e+00 0.0 
-2.196895145088e+00 -8.558348572996e+00 0.0 
0.0 0.0 -7.960894775986e+00 
-7.874776617924e+01 -2.653817239526e+00 0.0 
-2.653817239526e+00 -1.863356070087e+02 0.0 
0.0 0.0 -7.912501195639e+01 
3.287980293703e-01 1.203763694259e+00 0.0 
1.203763694259e+00 -2.217430714179e+01 0.0 
0.0 0.0 -4.607960806774e+00 
-1.518565787596e+02 3.415882896450e+00 0.0 
3.415882896450e+00 -3.381200281178e+02 0.0 
0.0 0.0 -1.517939559831e+02 
-8.211902695700e+01 -3.764103471008e+00 0.0 
-3.764103471008e+00 -1.931435694656e+02 0.0 
0.0 0.0 -8.217877892678e+01 
-1.423491215747e+02 -9.048088375669e-01 0.0 
-9.048088375669e-01 -3.185606357895e+02 0.0 
0.0 0.0 -1.423444756952e+02 
-3.788470975726e+01 -3.546449769073e+00 0.0 
-3.546449769073e+00 -1.010939144207e+02 0.0 
0.0 0.0 -4.129358725340e+01 
-1.069224051972e+01 -2.296045164224e+00 0.0 
-2.296045164224e+00 -4.318038095062e+01 0.0 
0.0 0.0 -1.576178644110e+01 
-1.525560873678e+02 9.609724119795e-01 0.0 
9.609724119795e-01 -3.397496813353e+02 0.0 
0.0 0.0 -1.525511542736e+02 
-8.843195028300e+01 -2.556803530703e+00 0.0 
-2.556803530703e+00 -2.064711866345e+02 0.0 
0.0 0.0 -8.837659428265e+01 
-6.608082857029e+01 -2.135684525399e+00 0.0 
-2.135684525399e+00 -1.582913240843e+02 0.0 
0.0 0.0 -6.691164579638e+01 
-1.434270142504e+02 2.516209624699e-01 0.0 
2.516209624699e-01 -3.208115622267e+02 0.0 
0.0 0.0 -1.434266573254e+02 
-7.536288061929e+01 2.566014110269e+00 0.0 
2.566014110269e+00 -1.488506553586e+02 0.0 
0.0 0.0 -6.686406079337e+01 
-6.591958483343e+01 8.040061522043e-01 0.0 
8.040061522043e-01 -1.581427694422e+02 0.0 
0.0 0.0 -6.681870628268e+01 
-1.285218260679e+02 6.243243077066e+00 0.0 
6.243243077066e+00 -2.891236709522e+02 0.0 
0.0 0.0 -1.282794916279e+02 
-1.145537594723e+02 -7.214852329949e-01 0.0 
-7.214852329949e-01 -2.608600811142e+02 0.0 
0.0 0.0 -1.145502016747e+02 
-1.280909571936e+02 -2.053149527918e+00 0.0 
-2.053149527918e+00 -2.888939786085e+02 0.0 
0.0 0.0 -1.280647466414e+02 
-1.327033114333e+02 -1.880725181267e+00 0.0 
-1.880725181267e+00 -2.984843494015e+02 0.0 
0.0 0.0 -1.326819780400e+02 
-5.815710254847e+01 6.407330097944e+00 0.0 
6.407330097944e+00 -1.422978356670e+02 0.0 
0.0 0.0 -5.973648146463e+01 
-5.445465378366e+01 2.823763410327e+01 0.0 
2.823763410327e+01 -8.059371882607e+01 0.0 
0.0 0.0 -4.011451178292e+01 
-7.203656694524e+01 2.173056030668e+01 0.0 
2.173056030668e+01 -1.563981317609e+02 0.0 
0.0 0.0 -6.813040961184e+01 
-1.190908918157e+02 -1.941489034565e+00 0.0 
-1.941489034565e+00 -2.702135196872e+02 0.0 
0.0 0.0 -1.190659534077e+02 
-1.481309427760e+02 3.297085761711e-01 0.0 
3.297085761711e-01 -3.305763064789e+02 0.0 
0.0 0.0 -1.481303469407e+02 
-1.372974145926e+02 -1.737115537893e+00 0.0 
-1.737115537893e+00 -3.080330904352e+02 0.0 
0.0 0.0 -1.372797424917e+02 
-3.778282282880e+01 -4.652901482310e+00 0.0 
-4.652901482310e+00 -1.004354277880e+02 0.0 
0.0 0.0 -4.106547518503e+01 
-7.662098251639e+01 5.140490314867e+00 0.0 
5.140490314867e+00 -1.479019204273e+02 0.0 
0.0 0.0 -6.695687088310e+01 
-7.083400212068e+01 4.016282063335e+00 0.0 
4.016282063335e+00 -1.265440997642e+02 0.0 
0.0 0.0 -5.881343056546e+01 
-3.984324100884e+01 -3.705718139038e-01 0.0 
-3.705718139038e-01 -3.445477723490e+01 0.0 
0.0 0.0 -2.188940547312e+01 
-1.238152018360e+02 -1.236825839680e+00 0.0 
-1.236825839680e+00 -2.800679096640e+02 0.0 
0.0 0.0 -1.238054122948e+02 
-1.236392803580e+02 -1.996151722678e+00 0.0 
-1.996151722678e+00 -2.796542561029e+02 0.0 
0.0 0.0 -1.236137445426e+02 
-7.754590527063e+01 4.673827876111e+00 0.0 
4.673827876111e+00 -1.506065608645e+02 0.0 
0.0 0.0 -6.804573984053e+01 
-7.354786247965e+01 3.601351226763e+00 0.0 
3.601351226763e+00 -1.379930075223e+02 0.0 
0.0 0.0 -6.306226100059e+01 
-1.116730335510e+02 6.294237893275e-01 0.0 
6.294237893275e-01 -2.548820529577e+02 0.0 
0.0 0.0 -1.116702671983e+02 
-1.571968305162e+02 8.890418495285e-01 0.0 
8.890418495285e-01 -3.493865101738e+02 0.0 
0.0 0.0 -1.571927180243e+02 
-7.473650045003e+01 8.779808915413e+00 0.0 
8.779808915413e+00 -1.236986743917e+02 0.0 
0.0 0.0 -5.913055245252e+01 
-1.384251335367e+02 -2.397033630486e-01 0.0 
-2.397033630486e-01 -3.104275968744e+02 0.0 
0.0 0.0 -1.384247994857e+02 
-1.571571129866e+02 3.354588742546e+00 0.0 
3.354588742546e+00 -3.491364530581e+02 0.0 
0.0 0.0 -1.570985138073e+02 
-7.912712400189e+01 7.415071211289e+00 0.0 
7.415071211289e+00 -1.495016302404e+02 0.0 
0.0 0.0 -6.818862627270e+01 
-6.546529773334e+01 4.919629962458e+00 0.0 
4.919629962458e+00 -9.623472380299e+01 0.0 
0.0 0.0 -4.811000646090e+01 
-1.244445471062e+02 4.590856259156e+00 0.0 
4.590856259156e+00 -2.809907872159e+02 0.0 
0.0 0.0 -1.243100317911e+02 
-3.779055343960e+01 -2.701964070580e+00 0.0 
-2.701964070580e+00 -1.011548265449e+02 0.0 
0.0 0.0 -4.128361399534e+01 
-3.357911883362e+01 -4.583724389758e+00 0.0 
-4.583724389758e+00 -9.165964302396e+01 0.0 
0.0 0.0 -3.717162855727e+01 
-1.448961661271e+01 -3.579727722773e+00 0.0 
-3.579727722773e+00 -5.042206408989e+01 0.0 
0.0 0.0 -1.907350421078e+01 
-2.145778425610e+01 -4.916933520554e+00 0.0 
-4.916933520554e+00 -2.445266852129e+01 0.0 
0.0 0.0 -1.337313583322e+01 
-7.563265106619e+01 5.507610708450e+00 0.0 
5.507610708450e+00 -1.391476256795e+02 0.0 
0.0 0.0 -6.403408302369e+01 
-1.516091960194e+02 -1.089134220155e+00 0.0 
-1.089134220155e+00 -3.377794856421e+02 0.0 
0.0 0.0 -1.516028245798e+02 
-1.806647466968e+01 -5.660183945835e+00 0.0 
-5.660183945835e+00 -2.454722315995e+01 0.0 
0.0 0.0 -1.238410934889e+01 
-1.125669833549e+02 3.918679969479e+01 0.0 
3.918679969479e+01 -1.974121374639e+02 0.0 
0.0 0.0 -9.259373624565e+01 
-4.437707884336e+01 1.136294968406e-01 0.0 
1.136294968406e-01 -4.331304533490e+01 0.0 
0.0 0.0 -2.590703725348e+01 
-1.389629536162e+02 4.184616710079e-01 0.0 
4.184616710079e-01 -3.115420319107e+02 0.0 
0.0 0.0 -1.389619389559e+02 
-1.420977196680e+02 -1.526691663911e+00 0.0 
-1.526691663911e+00 -3.180122567997e+02 0.0 
0.0 0.0 -1.420844711216e+02 
-5.584823426350e+01 -2.592545342950e+00 0.0 
-2.592545342950e+00 -1.387476594565e+02 0.0 
0.0 0.0 -5.797876811599e+01 
-1.434126971453e+02 -1.703129329890e-01 0.0 
-1.703129329890e-01 -3.207824344078e+02 0.0 
0.0 0.0 -1.434125336085e+02 
-4.109142769246e+01 1.731698280075e+00 0.0 
1.731698280075e+00 -3.492290555759e+01 0.0 
0.0 0.0 -2.240429997502e+01 
-1.142913221860e+02 1.722852862943e+01 0.0 
1.722852862943e+01 -2.538821278951e+02 0.0 
0.0 0.0 -1.121963887056e+02 
-1.611156235337e+02 1.696340482223e+00 0.0 
1.696340482223e+00 -3.574896062563e+02 0.0 
0.0 0.0 -1.611009711022e+02 
-3.570696005081e+01 -1.122103077062e+00 0.0 
-1.122103077062e+00 -9.711995388237e+01 0.0 
0.0 0.0 -3.944807417995e+01 
-1.559607730222e+02 4.591636014137e+00 0.0 
4.591636014137e+00 -3.464928956536e+02 0.0 
0.0 0.0 -1.558501833173e+02 
-6.781720514861e+01 4.711602328025e+00 0.0 
4.711602328025e+00 -1.073839569243e+02 0.0 
0.0 0.0 -5.216034862187e+01 
-4.171070353286e+01 -2.082727378534e+00 0.0 
-2.082727378534e+00 -1.094501378206e+02 0.0 
0.0 0.0 -4.494825240603e+01 
-4.548160758918e+01 -3.942103406174e+00 0.0 
-3.942103406174e+00 -1.168072650202e+02 0.0 
0.0 0.0 -4.828666178282e+01 
-1.003524665023e+02 -3.095142386782e+00 0.0 
-3.095142386782e+00 -2.291985733326e+02 0.0 
0.0 0.0 -9.933326656316e+01 
-5.674097102603e+01 2.489942106967e+00 0.0 
2.489942106967e+00 -7.259041202036e+01 0.0 
0.0 0.0 -3.839941491391e+01 
-6.386114822585e+01 -4.420233604563e+00 0.0 
-4.420233604563e+00 -1.549737455675e+02 0.0 
0.0 0.0 -6.525046813799e+01 
-7.004418803925e+01 4.497244870708e+00 0.0 
4.497244870708e+00 -1.184307143561e+02 0.0 
0.0 0.0 -5.614247071860e+01 
-6.083067376061e+01 3.672858000320e+00 0.0 
3.672858000320e+00 -8.631613346130e+01 0.0 
0.0 0.0 -4.374404216657e+01 
-9.569990685132e+01 -3.364808140003e+00 0.0 
-3.364808140003e+00 -2.214531862363e+02 0.0 
0.0 0.0 -9.560993830708e+01 
-1.340302668712e+02 -7.895900207461e-01 0.0 
-7.895900207461e-01 -3.012933005610e+02 0.0 
0.0 0.0 -1.340265395772e+02 
-1.388229167842e+02 -3.324692361167e-01 0.0 
-3.324692361167e-01 -3.112524610156e+02 0.0 
0.0 0.0 -1.388222757376e+02 
-6.477570715415e+01 2.758055757066e+00 0.0 
2.758055757066e+00 -1.056954838147e+02 0.0 
0.0 0.0 -5.074135729064e+01 
-3.006994434630e+01 -1.301848621471e+00 0.0 
-1.301848621471e+00 -8.538621339021e+01 0.0 
0.0 0.0 -3.423684732095e+01 
-9.108984775499e+01 -3.787750466243e+00 0.0 
-3.787750466243e+00 -2.117940671192e+02 0.0 
0.0 0.0 -9.097110332807e+01 
-1.290499795550e+02 2.394401354115e+01 0.0 
2.394401354115e+01 -2.795286480554e+02 0.0 
0.0 0.0 -1.253318999490e+02 
-7.204245183911e+01 6.408325711533e+00 0.0 
6.408325711533e+00 -1.169948373977e+02 0.0 
0.0 0.0 -5.631118677104e+01 
-8.161436379525e+01 -4.377754701579e+00 0.0 
-4.377754701579e+00 -1.919545448873e+02 0.0 
0.0 0.0 -8.167067260476e+01 
-1.162500871447e+02 3.100066316839e-01 0.0 
3.100066316839e-01 -2.643906502672e+02 0.0 
0.0 0.0 -1.162494384116e+02 
-1.515957986417e+02 5.290201330628e+00 0.0 
5.290201330628e+00 -3.373080995932e+02 0.0 
0.0 0.0 -1.514452240310e+02 
-6.251464163480e+01 2.997292104136e+00 0.0 
2.997292104136e+00 -9.465765451616e+01 0.0 
0.0 0.0 -4.675168884529e+01 
-1.933922891197e+01 7.261946358168e-01 0.0 
7.261946358168e-01 -4.198955136329e+01 0.0 
0.0 0.0 -1.799863408258e+01 
-1.305605788767e+01 -1.834000708871e+00 0.0 
-1.834000708871e+00 -4.872950600777e+01 0.0 
0.0 0.0 -1.813566916863e+01 
-2.921648383368e+01 1.404871383103e+00 0.0 
1.404871383103e+00 -8.359703424589e+01 0.0 
0.0 0.0 -3.344405542387e+01 
-1.469926495847e+02 -1.051179252752e+00 0.0 
-1.051179252752e+00 -3.281962557798e+02 0.0 
0.0 0.0 -1.469865517997e+02 
-5.962198871043e+01 2.845026723026e+00 0.0 
2.845026723026e+00 -8.356876608329e+01 0.0 
0.0 0.0 -4.255722643812e+01 
-1.103453722918e+02 -4.720265171951e-01 0.0 
-4.720265171951e-01 -2.499932376650e+02 0.0 
0.0 0.0 -1.093148123322e+02 
-4.893153081784e+01 9.860117440188e-01 0.0 
9.860117440188e-01 -5.270764724118e+01 0.0 
0.0 0.0 -3.009175341771e+01 
-1.412611506348e+02 9.091375148971e+00 0.0 
9.091375148971e+00 -3.148556853278e+02 0.0 
0.0 0.0 -1.407863220919e+02 
-1.002705550368e+02 -3.249590651321e+00 0.0 
-3.249590651321e+00 -2.309703445804e+02 0.0 
0.0 0.0 -1.001898103032e+02 
-1.376406166257e+02 -1.549889095902e+00 0.0 
-1.549889095902e+00 -3.087567685029e+02 0.0 
0.0 0.0 -1.376265796155e+02 
-3.687184050048e+01 4.020260141532e-01 0.0 
4.020260141532e-01 -9.959339506874e+01 0.0 
0.0 0.0 -4.053957067076e+01 
-1.560542237351e+02 1.915061401513e+00 0.0 
1.915061401513e+00 -3.469679939971e+02 0.0 
0.0 0.0 -1.560350156329e+02 
-9.782767834751e+01 -2.247823093499e+00 0.0 
-2.247823093499e+00 -2.260260425335e+02 0.0 
0.0 0.0 -9.778827725027e+01 
-4.030911839972e+01 9.079280558961e-01 0.0 
9.079280558961e-01 -1.066990139392e+02 0.0 
0.0 0.0 -4.370243970166e+01 
-9.239423328131e+01 -2.010947312296e+00 0.0 
-2.010947312296e+00 -2.147532096697e+02 0.0 
0.0 0.0 -9.235520853242e+01 
-6.810646378784e+01 -4.472427054820e+00 0.0 
-4.472427054820e+00 -1.638036674598e+02 0.0 
0.0 0.0 -6.917303937430e+01 
-5.150488136113e+01 -3.287332873413e+00 0.0 
-3.287332873413e+00 -1.295547535820e+02 0.0 
0.0 0.0 -5.391789048293e+01 
-1.093926078396e+02 -2.733696527085e+00 0.0 
-2.733696527085e+00 -2.488763467612e+02 0.0 
0.0 0.0 -1.088018466994e+02 
9.985962167215e-01 1.189210292690e-01 0.0 
1.189210292690e-01 -9.074355079544e+00 0.0 
0.0 0.0 -2.585255673294e+00 
-1.086809274568e+00 -9.942801858300e-01 0.0 
-9.942801858300e-01 -9.532865435991e+00 0.0 
0.0 0.0 -3.795910147173e+00 
-1.251605209463e+02 -8.859523623019e-01 0.0 
-8.859523623019e-01 -2.828756321641e+02 0.0 
0.0 0.0 -1.251555443349e+02 
-3.384701550181e+01 -7.985765440148e-01 0.0 
-7.985765440148e-01 -9.328870969890e+01 0.0 
0.0 0.0 -3.774071756021e+01 
-1.253079823902e+02 -9.784366451047e-02 0.0 
-9.784366451047e-02 -2.831968876707e+02 0.0 
0.0 0.0 -1.253079217565e+02 
-1.208084116907e+02 7.513803573261e-02 0.0 
7.513803573261e-02 -2.738557337778e+02 0.0 
0.0 0.0 -1.208083748020e+02 
-7.331089987150e+01 -3.349371907002e+00 0.0 
-3.349371907002e+00 -1.749104890317e+02 0.0 
0.0 0.0 -7.406641667096e+01 
-4.208030808415e+01 -3.387571926859e+00 0.0 
-3.387571926859e+00 -1.098950021489e+02 0.0 
0.0 0.0 -4.519259306991e+01 
-8.072988087531e+01 1.083827594167e+01 0.0 
1.083827594167e+01 -1.371919442365e+02 0.0 
0.0 0.0 -6.497654753353e+01 
-1.757934515507e+01 6.026784289757e+00 0.0 
6.026784289757e+00 -4.195282640048e+01 0.0 
0.0 0.0 -1.745965146666e+01 
-7.246594701451e+01 -4.311102665684e+00 0.0 
-4.311102665684e+00 -1.729275941713e+02 0.0 
0.0 0.0 -7.321806235573e+01 
-1.450554082058e+02 1.122480387994e+01 0.0 
1.122480387994e+01 -3.220118036683e+02 0.0 
0.0 0.0 -1.443462318535e+02 
-2.809221600698e+01 -2.236279065005e+00 0.0 
-2.236279065005e+00 -8.108481889281e+01 0.0 
0.0 0.0 -3.235311046994e+01 
-5.500538509008e+01 3.255424925828e+00 0.0 
3.255424925828e+00 -6.498531922827e+01 0.0 
0.0 0.0 -3.559721129551e+01 
-4.637998055318e+01 2.108086760138e+00 0.0 
2.108086760138e+00 -4.454585489205e+01 0.0 
0.0 0.0 -2.687775063357e+01 
-2.797836090370e+01 -3.213382491119e+00 0.0 
-3.213382491119e+00 -8.053613110104e+01 0.0 
0.0 0.0 -3.215434760142e+01 
-1.468739004744e+02 5.883995360688e+00 0.0 
5.883995360688e+00 -3.273791216863e+02 0.0 
0.0 0.0 -1.466823010799e+02 
-7.352106372844e+01 8.744808411586e+00 0.0 
8.744808411586e+00 -1.051100175779e+02 0.0 
0.0 0.0 -5.318932439191e+01 
-3.419161739472e+01 -3.007941083351e+00 0.0 
-3.007941083351e+00 -9.356959536066e+01 0.0 
0.0 0.0 -3.792836382661e+01 
-8.498802782065e+01 1.345592195982e+01 0.0 
1.345592195982e+01 -1.475042568847e+02 0.0 
0.0 0.0 -6.934768541160e+01 
-7.947308015965e+01 1.134682977679e+01 0.0 
1.134682977679e+01 -1.446967362524e+02 0.0 
0.0 0.0 -6.685094492360e+01 
-3.955114560194e+01 -1.587938340356e+00 0.0 
-1.587938340356e+00 -1.050452703749e+02 0.0 
0.0 0.0 -4.297892479306e+01 
-3.794481275595e+01 2.011082323657e+01 0.0 
2.011082323657e+01 -7.441568968803e+01 0.0 
0.0 0.0 -3.330815073319e+01 
-4.175682673450e+01 -3.066462614172e+00 0.0 
-3.066462614172e+00 -1.093154203976e+02 0.0 
0.0 0.0 -4.492167413964e+01 
-1.343352224794e+02 -3.242500310691e-01 0.0 
-3.242500310691e-01 -3.019359320426e+02 0.0 
0.0 0.0 -1.343345951689e+02 
-1.047837515128e+02 -3.047993125164e+00 0.0 
-3.047993125164e+00 -2.403775832013e+02 0.0 
0.0 0.0 -1.047152707246e+02 
-1.019202173167e+02 3.201337755854e+01 0.0 
3.201337755854e+01 -1.816705681564e+02 0.0 
0.0 0.0 -8.467723564193e+01 
-7.610828624984e+01 8.510777537908e+00 0.0 
8.510777537908e+00 -1.348333696564e+02 0.0 
0.0 0.0 -6.288249677187e+01 
-1.298185119707e+02 -2.310303549875e-01 0.0 
-2.310303549875e-01 -2.925600431839e+02 0.0 
0.0 0.0 -1.298181839971e+02 
-1.284402215312e+02 -1.391269138677e+00 0.0 
-1.391269138677e+00 -2.896627570223e+02 0.0 
0.0 0.0 -1.284282164744e+02 
-3.195889966749e+01 -4.624517537560e+00 0.0 
-4.624517537560e+00 -8.824087763744e+01 0.0 
0.0 0.0 -3.565993319148e+01 
-1.329886649443e+02 -1.536138628108e+00 0.0 
-1.536138628108e+00 -2.990986792541e+02 0.0 
0.0 0.0 -1.329744603816e+02 
-6.865142695107e+01 6.350716488463e+00 0.0 
6.350716488463e+00 -1.026366502078e+02 0.0 
0.0 0.0 -5.098642314767e+01 
-1.060750418442e+02 -1.264907257835e+00 0.0 
-1.264907257835e+00 -2.421127361739e+02 0.0 
0.0 0.0 -1.055237540155e+02 
-6.301705962618e+01 4.824909582093e+00 0.0 
4.824909582093e+00 -8.534399900603e+01 0.0 
0.0 0.0 -4.410831758966e+01 
-7.502988732009e+01 8.676819723352e+00 0.0 
8.676819723352e+00 -1.159501894325e+02 0.0 
0.0 0.0 -5.689402302577e+01 
-7.771007927851e+01 1.081613124039e+01 0.0 
1.081613124039e+01 -1.809338199300e+02 0.0 
0.0 0.0 -7.719316976255e+01 
-7.228871789081e+01 6.283241239566e+00 0.0 
6.283241239566e+00 -1.248005727758e+02 0.0 
0.0 0.0 -5.872678720000e+01 
-8.677843077375e+01 -4.071501781654e+00 0.0 
-4.071501781654e+00 -2.020224528752e+02 0.0 
0.0 0.0 -8.627622337938e+01 
-1.019443533063e+02 -1.909512791790e+00 0.0 
-1.909512791790e+00 -2.346090407453e+02 0.0 
0.0 0.0 -1.019168743737e+02 
-6.311481025515e+01 -4.484957182653e+00 0.0 
-4.484957182653e+00 -1.533987743707e+02 0.0 
0.0 0.0 -6.455407538775e+01 
-6.716562359415e+01 -2.714608169121e+00 0.0 
-2.714608169121e+00 -1.622538200992e+02 0.0 
0.0 0.0 -6.842583310800e+01 
-6.403789152810e+01 4.367577532057e+00 0.0 
4.367577532057e+00 -9.290552738680e+01 0.0 
0.0 0.0 -4.668302567447e+01 
-9.368967260789e+01 7.181181484412e-01 0.0 
7.181181484412e-01 -2.175438254888e+02 0.0 
0.0 0.0 -9.368550903059e+01 
-4.558685680622e+01 -2.550486061777e+00 0.0 
-2.550486061777e+00 -1.174157025554e+02 0.0 
0.0 0.0 -4.850076780848e+01 
-1.838988574622e+01 -3.084432643829e+00 0.0 
-3.084432643829e+00 -6.041572975118e+01 0.0 
0.0 0.0 -2.324168464922e+01 
-6.822588276187e+01 6.550776007861e+00 0.0 
6.550776007861e+00 -9.505325060395e+01 0.0 
0.0 0.0 -4.858374000975e+01 
-4.540128983622e+01 -4.478884915609e+00 0.0 
-4.478884915609e+00 -1.164435204047e+02 0.0 
0.0 0.0 -4.815344307227e+01 
-1.554725224028e+02 3.575599177549e+00 0.0 
3.575599177549e+00 -3.456126943379e+02 0.0 
0.0 0.0 -1.554053067723e+02 
-6.639186246074e+01 4.499668051874e+00 0.0 
4.499668051874e+00 -1.039795398578e+02 0.0 
0.0 0.0 -5.071142069558e+01 
-1.377070448706e+02 -8.067863743634e-01 0.0 
-8.067863743634e-01 -3.089261599759e+02 0.0 
0.0 0.0 -1.377032433686e+02 
-1.561901088319e+02 1.699128542762e+01 0.0 
1.699128542762e+01 -3.425836898751e+02 0.0 
0.0 0.0 -1.546538768956e+02 
-8.269087953423e+01 -2.200600058692e+00 0.0 
-2.200600058692e+00 -1.945897799865e+02 0.0 
0.0 0.0 -8.278419785623e+01 
-3.983557417669e+01 -3.871815011212e+00 0.0 
-3.871815011212e+00 -1.050494882636e+02 0.0 
0.0 0.0 -4.306551873209e+01 
-2.227943405790e+01 -4.636193294123e+00 0.0 
-4.636193294123e+00 -6.787161273783e+01 0.0 
0.0 0.0 -2.664531403872e+01 
-1.298052292773e+02 8.105909234499e-01 0.0 
8.105909234499e-01 -2.925210559226e+02 0.0 
0.0 0.0 -1.298011913091e+02 
-5.549389646280e+01 1.664006504332e+00 0.0 
1.664006504332e+00 -7.452873777528e+01 0.0 
0.0 0.0 -3.860679027142e+01 
-1.391770635845e+01 -4.159945063645e+00 0.0 
-4.159945063645e+00 -4.827175813753e+01 0.0 
0.0 0.0 -1.825683934879e+01 
-6.515340363184e+01 -3.029989823317e+00 0.0 
-3.029989823317e+00 -1.580107844457e+02 0.0 
0.0 0.0 -6.654925642325e+01 
-3.081749230830e+01 1.257920723263e+00 0.0 
1.257920723263e+00 -8.694565962966e+01 0.0 
0.0 0.0 -3.492894558139e+01 
-6.041390919079e+01 4.568176420177e+00 0.0 
4.568176420177e+00 -7.449862628316e+01 0.0 
0.0 0.0 -4.007376064219e+01 
-6.909713869369e+01 -2.618038582377e+00 0.0 
-2.618038582377e+00 -1.662851087423e+02 0.0 
0.0 0.0 -7.021467423080e+01 
-1.191693221422e+02 -1.019716192332e+00 0.0 
-1.019716192332e+00 -2.704319098031e+02 0.0 
0.0 0.0 -1.191624481763e+02 
-6.308974795569e+01 -1.973682166671e+00 0.0 
-1.973682166671e+00 -1.538984956439e+02 0.0 
0.0 0.0 -6.469647307986e+01 
-7.382907873561e+01 6.123351511044e+00 0.0 
6.123351511044e+00 -1.282105986920e+02 0.0 
0.0 0.0 -6.021190322827e+01 
-5.479221056638e+01 -4.585935727334e+00 0.0 
-4.585935727334e+00 -1.360104917661e+02 0.0 
0.0 0.0 -5.684081069975e+01 
-1.295626195252e+02 2.199615690141e+00 0.0 
2.199615690141e+00 -2.919381729701e+02 0.0 
0.0 0.0 -1.295328279615e+02 
-3.630592403809e+01 -4.537993944639e+00 0.0 
-4.537993944639e+00 -9.739518507684e+01 0.0 
0.0 0.0 -3.971033273448e+01 
-1.252274251598e+02 1.074798226584e+00 0.0 
1.074798226584e+00 -2.830073150620e+02 0.0 
0.0 0.0 -1.252201039630e+02 
-9.685148608723e+01 -1.567603749396e+00 0.0 
-1.567603749396e+00 -2.224654445018e+02 0.0 
0.0 0.0 -9.606361736636e+01 
-1.330883652255e+02 -5.861031393404e-01 0.0 
-5.861031393404e-01 -2.993429976284e+02 0.0 
0.0 0.0 -1.330862990417e+02 
-5.451140756992e+01 1.438614056526e+00 0.0 
1.438614056526e+00 -1.361435637792e+02 0.0 
0.0 0.0 -5.679649140474e+01 
-3.222612327887e+01 -1.539528184443e+00 0.0 
-1.539528184443e+00 -8.983021604460e+01 0.0 
0.0 0.0 -3.621690179704e+01 
-5.021959900442e+01 2.291145238546e+00 0.0 
2.291145238546e+00 -5.567518275243e+01 0.0 
0.0 0.0 -3.136843452706e+01 
-1.137249776631e+02 8.477605860142e+00 0.0 
8.477605860142e+00 -2.576193897925e+02 0.0 
0.0 0.0 -1.132272373089e+02 
-6.449751452900e+01 2.550045679064e+01 0.0 
2.550045679064e+01 -1.300248877141e+02 0.0 
0.0 0.0 -5.795672067294e+01 
-5.805939258237e+01 3.538466317995e+00 0.0 
3.538466317995e+00 -7.571524839170e+01 0.0 
0.0 0.0 -3.973239229222e+01 
-4.099340920555e+01 -3.979789652371e+00 0.0 
-3.979789652371e+00 -1.074270508295e+02 0.0 
0.0 0.0 -4.412613801051e+01 
-6.457220426949e+01 5.881716752959e+00 0.0 
5.881716752959e+00 -8.125204518267e+01 0.0 
0.0 0.0 -4.334727483565e+01 
-2.636449857871e+01 1.320506844411e+00 0.0 
1.320506844411e+00 -7.768335380373e+01 0.0 
0.0 0.0 -3.081435571473e+01 
-1.473601231488e+02 3.856498288239e+00 0.0 
3.856498288239e+00 -3.287257671775e+02 0.0 
0.0 0.0 -1.472781569051e+02 
-1.175005276141e+02 1.055987222698e+01 0.0 
1.055987222698e+01 -2.646697493912e+02 0.0 
0.0 0.0 -1.167466837092e+02 
-1.177166416885e+02 1.989081877352e+01 0.0 
1.989081877352e+01 -2.589867876045e+02 0.0 
0.0 0.0 -1.149694401978e+02 
-8.529980309302e+01 1.298101873578e+01 0.0 
1.298101873578e+01 -1.590625499188e+02 0.0 
0.0 0.0 -7.290870590353e+01 
-1.025352670303e+02 1.511587138813e+00 0.0 
1.511587138813e+00 -2.358676124617e+02 0.0 
0.0 0.0 -1.025181323877e+02 
-3.027544558656e+01 -3.565605262487e+00 0.0 
-3.565605262487e+00 -8.519796536915e+01 0.0 
0.0 0.0 -3.424202328671e+01 
-1.159937773188e+02 1.802606658630e+00 0.0 
1.802606658630e+00 -2.637929229246e+02 0.0 
0.0 0.0 -1.159717954085e+02 
-1.505454784649e+02 4.213835996661e+00 0.0 
4.213835996661e+00 -3.352952937186e+02 0.0 
0.0 0.0 -1.504494178213e+02 
-5.449119962530e+01 -2.413127539393e+00 0.0 
-2.413127539393e+00 -1.359598991687e+02 0.0 
0.0 0.0 -5.673532963819e+01 
-1.343782927580e+02 5.911797407337e-01 0.0 
5.911797407337e-01 -3.020208640178e+02 0.0 
0.0 0.0 -1.343762080301e+02 
-7.017846192188e+01 6.581324993937e+00 0.0 
6.581324993937e+00 -1.059399160041e+02 0.0 
0.0 0.0 -5.243551337780e+01 
-3.749678425368e+01 -3.434276092182e+00 0.0 
-3.434276092182e+00 -1.003229790672e+02 0.0 
0.0 0.0 -4.094592899626e+01 
-1.206084884598e+02 1.388510409635e+00 0.0 
1.388510409635e+00 -2.734019910199e+02 0.0 
0.0 0.0 -1.205958714182e+02 
-5.406774766017e+01 4.004306852580e+00 0.0 
4.004306852580e+00 -5.285329233542e+01 0.0 
0.0 0.0 -3.167631199868e+01 
-4.695891095631e+01 -3.951375957028e-01 0.0 
-3.951375957028e-01 -1.205358171151e+02 0.0 
0.0 0.0 -4.984841842141e+01 
-6.115440270083e+01 -3.318484435626e+00 0.0 
-3.318484435626e+00 -1.496302307562e+02 0.0 
0.0 0.0 -6.283539003711e+01 
-7.928339833233e+01 2.742338947264e+01 0.0 
2.742338947264e+01 -1.622995376128e+02 0.0 
0.0 0.0 -7.207488078353e+01 
-1.284050058881e+02 -3.379401924780e-01 0.0 
-3.379401924780e-01 -2.896243973259e+02 0.0 
0.0 0.0 -1.284042975175e+02 
-5.377100493594e+01 2.639394639097e+01 0.0 
2.639394639097e+01 -9.519077860832e+01 0.0 
0.0 0.0 -4.428853506328e+01 
-7.572972937726e+01 2.465103184013e+01 0.0 
2.465103184013e+01 -1.596443981914e+02 0.0 
0.0 0.0 -7.021223827061e+01 
-6.671042510293e+01 6.138785335458e+00 0.0 
6.138785335458e+00 -9.187542676437e+01 0.0 
0.0 0.0 -4.717575556019e+01 
-5.219167351240e+01 1.318979270073e+00 0.0 
1.318979270073e+00 -6.346572094404e+01 0.0 
0.0 0.0 -3.429721833693e+01 
-5.610226636993e+01 3.159645690900e+00 0.0 
3.159645690900e+00 -6.041333224890e+01 0.0 
0.0 0.0 -3.455467958565e+01 
-9.586841902244e+01 -3.496921277980e+00 0.0 
-3.496921277980e+00 -2.213461356267e+02 0.0 
0.0 0.0 -9.556194300484e+01 
-1.420891659824e+02 6.476335353323e+00 0.0 
6.476335353323e+00 -3.172998990521e+02 0.0 
0.0 0.0 -1.418501065966e+02 
-1.113936502925e+02 2.311005718493e+00 0.0 
2.311005718493e+00 -2.541955430154e+02 0.0 
0.0 0.0 -1.113562603859e+02 
-5.161918714160e+01 2.899263012373e+00 0.0 
2.899263012373e+00 -5.416531934398e+01 0.0 
0.0 0.0 -3.133535194567e+01 
-1.215470396974e+02 4.454897939197e+01 0.0 
4.454897939197e+01 -2.197454370134e+02 0.0 
0.0 0.0 -1.030281805381e+02 
-1.210838642782e+02 2.258116381932e+01 0.0 
2.258116381932e+01 -2.636918041237e+02 0.0 
0.0 0.0 -1.175936827840e+02 
-1.237190178472e+02 -3.060387971999e-02 0.0 
-3.060387971999e-02 -2.798983236165e+02 0.0 
0.0 0.0 -1.237190118503e+02 
-7.051013688862e+01 6.419410052711e+00 0.0 
6.419410052711e+00 -1.136480662987e+02 0.0 
0.0 0.0 -5.484746095620e+01 
-7.136062668021e+01 -2.746995550682e+00 0.0 
-2.746995550682e+00 -1.709680928167e+02 0.0 
0.0 0.0 -7.229861584907e+01 
-6.642266005502e+01 -3.215501039927e+00 0.0 
-3.215501039927e+00 -1.606123277979e+02 0.0 
0.0 0.0 -6.771049635587e+01 
-3.179067739134e+01 -2.619008351505e+00 0.0 
-2.619008351505e+00 -8.868261316799e+01 0.0 
0.0 0.0 -3.574198716780e+01 
-1.202526230775e+02 3.119562076845e+00 0.0 
3.119562076845e+00 -2.725054851412e+02 0.0 
0.0 0.0 -1.201887320914e+02 
-7.060561724815e+01 -3.150462273186e+00 0.0 
-3.150462273186e+00 -1.693245717913e+02 0.0 
0.0 0.0 -7.157905671184e+01 
-6.606780058541e+01 6.430073273017e+00 0.0 
6.430073273017e+00 -8.420420843545e+01 0.0 
0.0 0.0 -4.468160270626e+01 
-6.369520347269e+01 6.270744303191e+00 0.0 
6.270744303191e+00 -7.351574280135e+01 0.0 
0.0 0.0 -4.076328388221e+01 
-8.477058127315e+01 1.005509435917e+01 0.0 
1.005509435917e+01 -1.962735080979e+02 0.0 
0.0 0.0 -8.391322681130e+01 
-5.520608870281e+01 -4.155474509183e+00 0.0 
-4.155474509183e+00 -1.370160992873e+02 0.0 
0.0 0.0 -5.726665639702e+01 
-5.025354275694e+01 6.064736537888e+00 0.0 
6.064736537888e+00 -1.258958639831e+02 0.0 
0.0 0.0 -5.244482202201e+01 
-5.957036112547e+01 -4.293656682663e+00 0.0 
-4.293656682663e+00 -1.460700669758e+02 0.0 
0.0 0.0 -6.129212843038e+01 
-6.425698758355e+01 -3.750143692030e+00 0.0 
-3.750143692030e+00 -1.559827690271e+02 0.0 
0.0 0.0 -6.567192698321e+01 
-3.590620838360e+01 -4.306384750798e+00 0.0 
-4.306384750798e+00 -9.666240129375e+01 0.0 
0.0 0.0 -3.937058290321e+01 
-1.373493596208e+02 7.255759828484e+00 0.0 
7.255759828484e+00 -3.072438381255e+02 0.0 
0.0 0.0 -1.370400477625e+02 
-7.830118579189e+01 -1.547170146543e+00 0.0 
-1.547170146543e+00 -1.855410833595e+02 0.0 
0.0 0.0 -7.875268074542e+01 
-7.636487431216e+01 8.426764608423e+00 0.0 
8.426764608423e+00 -1.268964406502e+02 0.0 
0.0 0.0 -6.057839448871e+01 
-8.282313692826e+01 -5.411626326047e-01 0.0 
-5.411626326047e-01 -1.949893882624e+02 0.0 
0.0 0.0 -8.294375755719e+01 
-1.144824289610e+02 9.236773570592e-01 0.0 
9.236773570592e-01 -2.607049936872e+02 0.0 
0.0 0.0 -1.144765943908e+02 
-9.641805529378e+01 -3.675052080660e-01 0.0 
-3.675052080660e-01 -2.232175504744e+02 0.0 
0.0 0.0 -9.641699015592e+01 
-7.425313272457e+01 1.810040891451e+01 0.0 
1.810040891451e+01 -1.666924928290e+02 0.0 
0.0 0.0 -7.188368766606e+01 
-3.575323447473e+01 -2.146131712550e+00 0.0 
-2.146131712550e+00 -9.704820692816e+01 0.0 
0.0 0.0 -3.944043242087e+01 
-1.457321206515e+02 4.834246500739e+00 0.0 
4.834246500739e+00 -3.251978531581e+02 0.0 
0.0 0.0 -1.456019954942e+02 
-1.511949104288e+02 7.539577142465e+00 0.0 
7.539577142465e+00 -3.359943856132e+02 0.0 
0.0 0.0 -1.508878158532e+02 
-9.769798671351e+01 2.982428429583e+01 0.0 
2.982428429583e+01 -2.013696931225e+02 0.0 
0.0 0.0 -8.973046533767e+01 
-6.889478172236e+01 -3.126531850844e+00 0.0 
-3.126531850844e+00 -1.657717296408e+02 0.0 
0.0 0.0 -6.999995340895e+01 
-1.054619929016e+02 2.688822992374e-01 0.0 
2.688822992374e-01 -2.419946500064e+02 0.0 
0.0 0.0 -1.054614633769e+02 
-6.159520411087e+01 4.044272275054e+00 0.0 
4.044272275054e+00 -8.190394933664e+01 0.0 
0.0 0.0 -4.264974603425e+01 
-7.566821671726e+01 -2.829393857524e+00 0.0 
-2.829393857524e+00 -1.799075553497e+02 0.0 
0.0 0.0 -7.627273162010e+01 
-6.062428760948e+01 2.300276501091e+01 0.0 
2.300276501091e+01 -1.267078810346e+02 0.0 
0.0 0.0 -5.579965059323e+01 
-5.538146765391e+01 -2.880899835774e+00 0.0 
-2.880899835774e+00 -1.377181066176e+02 0.0 
0.0 0.0 -5.752987228146e+01 
-4.562968732091e+01 -3.386084050907e+00 0.0 
-3.386084050907e+00 -1.172917868451e+02 0.0 
0.0 0.0 -4.847644224980e+01 
-7.605844541058e+01 -2.055965030235e+00 0.0 
-2.055965030235e+00 -1.808296876734e+02 0.0 
0.0 0.0 -7.666643992519e+01 
-4.938364355521e+01 -4.203576414362e+00 0.0 
-4.203576414362e+00 -1.248582159601e+02 0.0 
0.0 0.0 -5.187255785461e+01 
-4.347604327570e+01 -1.078491161946e+00 0.0 
-1.078491161946e+00 -1.132605617786e+02 0.0 
0.0 0.0 -4.662098151630e+01 
-9.823779880408e+01 3.066504294236e-01 0.0 
3.066504294236e-01 -2.269964157225e+02 0.0 
0.0 0.0 -9.823706849216e+01 
-1.190775224875e+02 3.772814863841e-01 0.0 
3.772814863841e-01 -2.702595796786e+02 0.0 
0.0 0.0 -1.190765809708e+02 
-1.174302094470e+02 3.419965065800e+01 0.0 
3.419965065800e+01 -2.393486134150e+02 0.0 
0.0 0.0 -1.084920551745e+02 
8.017464290272e-01 -6.214634859587e-01 0.0 
-6.214634859587e-01 -1.008783942462e+01 0.0 
0.0 0.0 -2.385827898677e+00 
-7.756652049836e+01 1.433653276280e+00 0.0 
1.433653276280e+00 -1.840251685313e+02 0.0 
0.0 0.0 -7.807750670890e+01 
-7.817573041673e+01 -1.628064568638e-01 0.0 
-1.628064568638e-01 -1.853485206097e+02 0.0 
0.0 0.0 -7.865727530792e+01 
-7.361133937515e+01 -2.401831194419e+00 0.0 
-2.401831194419e+00 -1.756997623065e+02 0.0 
0.0 0.0 -7.439333050450e+01 
-5.898697647358e+01 3.639853186498e+00 0.0 
3.639853186498e+00 -7.107902442112e+01 0.0 
0.0 0.0 -3.861980026841e+01 
-8.736978785922e+01 -9.727588737425e-01 0.0 
-9.727588737425e-01 -2.044115186990e+02 0.0 
0.0 0.0 -8.736170361042e+01 
-5.895583075338e+01 -4.560194640739e+00 0.0 
-4.560194640739e+00 -1.447043780204e+02 0.0 
0.0 0.0 -6.069806263213e+01 
-8.053414399655e+01 -1.137633443260e+00 0.0 
-1.137633443260e+00 -1.902091154220e+02 0.0 
0.0 0.0 -8.082297782555e+01 
-6.848675770055e+01 4.416251388992e+00 0.0 
4.416251388992e+00 -1.151501877916e+02 0.0 
0.0 0.0 -5.469108364764e+01 
-5.921547230616e+01 -2.428712043713e+00 0.0 
-2.428712043713e+00 -1.457778419146e+02 0.0 
0.0 0.0 -6.109799426621e+01 
-1.698012939011e+01 -3.602999894967e+00 0.0 
-3.602999894967e+00 -5.653859533749e+01 0.0 
0.0 0.0 -2.165561741828e+01 
-2.650345540565e+01 -3.922662045062e+00 0.0 
-3.922662045062e+00 -7.714722218374e+01 0.0 
0.0 0.0 -3.069520327682e+01 
-4.680248019129e+01 -3.338610706556e+00 0.0 
-3.338610706556e+00 -1.197485468309e+02 0.0 
0.0 0.0 -4.956530810666e+01 
-5.982354933680e+01 -3.583636216491e+00 0.0 
-3.583636216491e+00 -1.467962318118e+02 0.0 
0.0 0.0 -6.158593434457e+01 
-8.243119070625e+01 1.045202606408e+00 0.0 
1.045202606408e+00 -1.941536532058e+02 0.0 
0.0 0.0 -8.257545317360e+01 
-8.487883588515e+01 -7.663121229394e-02 0.0 
-7.663121229394e-02 -1.992649464322e+02 0.0 
0.0 0.0 -8.487878454727e+01 
-3.126369441688e+01 -4.521956914591e+00 0.0 
-4.521956914591e+00 -8.683418442925e+01 0.0 
0.0 0.0 -3.502936365384e+01 
-2.582599971562e+01 -1.623036102837e+00 0.0 
-1.623036102837e+00 -7.651015666174e+01 0.0 
0.0 0.0 -3.030084691321e+01 
-6.547664857313e+01 9.179227473219e+00 0.0 
9.179227473219e+00 -6.266719949730e+01 0.0 
0.0 0.0 -3.804315442113e+01 
-4.943414675346e+01 -2.023513030924e+00 0.0 
-2.023513030924e+00 -1.255155680508e+02 0.0 
0.0 0.0 -5.208491444127e+01 
-1.320239778609e+02 4.671271203187e+00 0.0 
4.671271203187e+00 -2.967324688196e+02 0.0 
0.0 0.0 -1.318916030729e+02 
-1.140983328645e+02 3.210304671145e+01 0.0 
3.210304671145e+01 -2.354032394954e+02 0.0 
0.0 0.0 -1.061262592137e+02 
-8.153717548096e+01 3.081891457288e+01 0.0 
3.081891457288e+01 -1.090134647420e+02 0.0 
0.0 0.0 -5.676519206690e+01 
-8.292758161218e+01 1.511639109817e+01 0.0 
1.511639109817e+01 -1.360797638569e+02 0.0 
0.0 0.0 -6.530220364073e+01 
-1.208582963142e+02 3.622371996322e+01 0.0 
3.622371996322e+01 -2.435087209020e+02 0.0 
0.0 0.0 -1.109589373503e+02 
-7.899805253792e+01 1.053480053237e+01 0.0 
1.053480053237e+01 -1.838322658230e+02 0.0 
0.0 0.0 -7.844909550828e+01 
-1.050620614996e+02 3.033878205738e+01 0.0 
3.033878205738e+01 -2.176125695601e+02 0.0 
0.0 0.0 -9.740496133504e+01 
-3.664711316760e+01 -4.547812934824e+00 0.0 
-4.547812934824e+00 -9.810520797787e+01 0.0 
0.0 0.0 -4.002569634364e+01 
-8.496107602487e+01 -1.399482731960e+00 0.0 
-1.399482731960e+00 -1.993831928792e+02 0.0 
0.0 0.0 -8.494396168482e+01 
-6.992693143373e+01 1.448368094293e+01 0.0 
1.448368094293e+01 -1.613340173190e+02 0.0 
0.0 0.0 -6.897828462582e+01 
-3.832611590264e+01 -1.923195306848e+00 0.0 
-1.923195306848e+00 -1.024431496814e+02 0.0 
0.0 0.0 -4.183077967522e+01 
-2.709412000644e+01 -5.492279231994e+00 0.0 
-5.492279231994e+00 -7.748241603720e+01 0.0 
0.0 0.0 -3.097296081309e+01 
-6.863053459781e+01 -3.979310024867e+00 0.0 
-3.979310024867e+00 -1.650287772081e+02 0.0 
0.0 0.0 -6.969779354177e+01 
-8.030930169258e+01 2.806354052533e-01 0.0 
2.806354052533e-01 -1.897764183313e+02 0.0 
0.0 0.0 -8.062571600716e+01 
-8.445392481624e+01 1.530902343265e+00 0.0 
1.530902343265e+00 -1.983196763970e+02 0.0 
0.0 0.0 -8.443334585849e+01 
-5.319468580624e+01 -3.867798662393e+00 0.0 
-3.867798662393e+00 -1.329120783097e+02 0.0 
0.0 0.0 -5.543202923479e+01 
-9.184533414970e+01 1.439922815514e-01 0.0 
1.439922815514e-01 -2.137272144161e+02 0.0 
0.0 0.0 -9.184516403624e+01 
-7.977014347450e+01 1.886341740086e+00 0.0 
1.886341740086e+00 -1.885587435311e+02 0.0 
0.0 0.0 -8.009866610169e+01 
-8.157452813701e+01 2.900547400400e+00 0.0 
2.900547400400e+00 -1.921714402041e+02 0.0 
0.0 0.0 -8.172379050233e+01 
-6.227482467793e+01 -3.242800262495e+00 0.0 
-3.242800262495e+00 -1.519784579174e+02 0.0 
0.0 0.0 -6.387598477861e+01 
-1.160757945337e+02 1.376809582131e+01 0.0 
1.376809582131e+01 -2.600162784106e+02 0.0 
0.0 0.0 -1.147706914561e+02 
-7.188149267414e+01 8.797062561226e+00 0.0 
8.797062561226e+00 -9.451667914016e+01 0.0 
0.0 0.0 -4.951945154429e+01 
-7.657085380495e+01 3.364655753995e+00 0.0 
3.364655753995e+00 -1.816865676679e+02 0.0 
0.0 0.0 -7.707722644185e+01 
-1.409724056292e+02 5.594384869953e+00 0.0 
5.594384869953e+00 -3.151647272838e+02 0.0 
0.0 0.0 -1.407929205241e+02 
-4.076051430317e+01 -3.634809999686e+00 0.0 
-3.634809999686e+00 -1.070631951006e+02 0.0 
0.0 0.0 -4.394711282113e+01 
-1.491235890543e+02 9.520015580824e+00 0.0 
9.520015580824e+00 -3.311111923942e+02 0.0 
0.0 0.0 -1.486269396432e+02 
-8.718207265436e+01 6.146673811550e-01 0.0 
6.146673811550e-01 -2.040367391939e+02 0.0 
0.0 0.0 -8.717883953114e+01 
-1.246808003073e+02 3.832141490244e+01 0.0 
3.832141490244e+01 -2.483237869609e+02 0.0 
0.0 0.0 -1.137669660602e+02 
-8.958726044460e+01 3.509276354010e+01 0.0 
3.509276354010e+01 -1.597151722352e+02 0.0 
0.0 0.0 -7.439072980395e+01 
-3.769936337872e+01 -4.107775617734e+00 0.0 
-4.107775617734e+00 -1.004962443771e+02 0.0 
0.0 0.0 -4.105868232676e+01 
-8.610857522287e+01 3.298519387547e+01 0.0 
3.298519387547e+01 -1.280131352789e+02 0.0 
0.0 0.0 -6.383651315054e+01 
-9.246040983865e+01 2.336473869218e+01 0.0 
2.336473869218e+01 -1.551395824568e+02 0.0 
0.0 0.0 -7.387999768864e+01 
-9.139656579725e+01 1.941149792140e+00 0.0 
1.941149792140e+00 -2.127005567420e+02 0.0 
0.0 0.0 -9.136551077531e+01 
-5.292942837352e+01 1.753060193886e+01 0.0 
1.753060193886e+01 -1.196274657557e+02 0.0 
0.0 0.0 -5.136706823875e+01 
-9.089230540776e+01 3.482110818309e+01 0.0 
3.482110818309e+01 -1.465044142008e+02 0.0 
0.0 0.0 -7.081901588255e+01 
-7.214343657487e+01 2.633928667985e+01 0.0 
2.633928667985e+01 -1.472434971851e+02 0.0 
0.0 0.0 -6.541608012798e+01 
-2.871053584235e+01 -4.989091587864e+00 0.0 
-4.989091587864e+00 -8.121284870738e+01 0.0 
0.0 0.0 -3.257701536492e+01 
-9.122314425017e+01 2.134270328001e+01 0.0 
2.134270328001e+01 -1.811566439770e+02 0.0 
0.0 0.0 -8.131393646815e+01 
-2.458069584150e+01 -5.286093266262e+00 0.0 
-5.286093266262e+00 -7.230513026555e+01 0.0 
0.0 0.0 -2.866574783212e+01 
-1.399778507955e+02 2.166445856034e+01 0.0 
2.166445856034e+01 -3.050518191790e+02 0.0 
0.0 0.0 -1.371819425941e+02 
-7.731394477567e+01 8.057342396666e+00 0.0 
8.057342396666e+00 -1.458046198885e+02 0.0 
0.0 0.0 -6.653556939924e+01 
-1.211476492100e+02 1.278089473806e+01 0.0 
1.278089473806e+01 -2.712362020259e+02 0.0 
0.0 0.0 -1.200670631097e+02 
-5.366828838714e+01 1.969305653120e+00 0.0 
1.969305653120e+00 -6.150322734549e+01 0.0 
0.0 0.0 -3.415145471979e+01 
-8.415484069124e+01 1.462326249872e+01 0.0 
1.462326249872e+01 -1.271910005393e+02 0.0 
0.0 0.0 -6.300375236916e+01 
-8.377466181439e+01 3.296447981418e+00 0.0 
3.296447981418e+00 -1.966770020660e+02 0.0 
0.0 0.0 -8.373549916413e+01 
-9.343688136101e+01 1.157723006254e+01 0.0 
1.157723006254e+01 -2.136329590554e+02 0.0 
0.0 0.0 -9.233192576185e+01 
-8.772514181703e+01 1.814208415549e+01 0.0 
1.814208415549e+01 -1.582682151316e+02 0.0 
0.0 0.0 -7.339800708459e+01 
-1.281839924927e+02 1.116589782634e+00 0.0 
1.116589782634e+00 -2.891439213636e+02 0.0 
0.0 0.0 -1.281762470075e+02 
-7.778362035155e+01 1.169897822791e+01 0.0 
1.169897822791e+01 -1.054868498876e+02 0.0 
0.0 0.0 -5.458114107176e+01 
-1.172000361365e+02 7.160042587591e+00 0.0 
7.160042587591e+00 -2.653024639304e+02 0.0 
0.0 0.0 -1.168546876836e+02 
-3.300255914864e+01 -4.256876125337e+00 0.0 
-4.256876125337e+00 -9.060615991778e+01 0.0 
0.0 0.0 -3.668261571993e+01 
-8.352253082671e+01 1.511672921177e+01 0.0 
1.511672921177e+01 -1.171981578520e+02 0.0 
0.0 0.0 -5.981620660360e+01 
-1.380804932106e+02 3.682063899084e+01 0.0 
3.682063899084e+01 -2.825037615551e+02 0.0 
0.0 0.0 -1.292348663539e+02 
-1.504096144834e+02 6.503507741216e+00 0.0 
6.503507741216e+00 -3.346032649868e+02 0.0 
0.0 0.0 -1.501802742435e+02 
-8.276373679533e+01 -1.905548515617e+00 0.0 
-1.905548515617e+00 -1.947744146096e+02 0.0 
0.0 0.0 -8.286144542148e+01 
-5.736482098359e+01 4.352899092941e+00 0.0 
4.352899092941e+00 -6.339806841655e+01 0.0 
0.0 0.0 -3.582886682004e+01 
-5.028391812014e+01 1.468654777493e+00 0.0 
1.468654777493e+00 -5.082613411366e+01 0.0 
0.0 0.0 -2.993301567014e+01 
-8.906688184654e+01 1.144292207588e+00 0.0 
1.144292207588e+00 -2.079257139366e+02 0.0 
0.0 0.0 -8.905586639827e+01 
-1.235050888958e+02 1.634599536335e+00 0.0 
1.634599536335e+00 -2.794015055855e+02 0.0 
0.0 0.0 -1.234879517350e+02 
-1.278292099309e+02 3.058389142161e+00 0.0 
3.058389142161e+00 -2.882519204794e+02 0.0 
0.0 0.0 -1.277709242500e+02 
-2.197637686351e+01 -2.232681949380e+00 0.0 
-2.232681949380e+00 -6.834804343336e+01 0.0 
0.0 0.0 -2.669732608906e+01 
-4.223889219907e+01 5.869338673594e+00 0.0 
5.869338673594e+00 -1.091722888218e+02 0.0 
0.0 0.0 -4.502335430627e+01 
-8.045463930355e+01 5.132474978451e+00 0.0 
5.132474978451e+00 -1.893378138125e+02 0.0 
0.0 0.0 -8.053773593480e+01 
-7.894017324756e+01 3.677077893023e+00 0.0 
3.677077893023e+00 -1.865502409535e+02 0.0 
0.0 0.0 -7.924712426032e+01 
-7.305066047419e+01 2.244681662480e+01 0.0 
2.244681662480e+01 -1.574965327349e+02 0.0 
0.0 0.0 -6.876415796273e+01 
-9.344242871331e+01 2.011726769632e+01 0.0 
2.011726769632e+01 -1.706888907300e+02 0.0 
0.0 0.0 -7.883939583298e+01 
-1.064328008202e+02 3.652989108635e+01 0.0 
3.652989108635e+01 -1.943597138113e+02 0.0 
0.0 0.0 -8.983775438943e+01 
-8.132375051112e+01 1.015776897484e+01 0.0 
1.015776897484e+01 -1.477530332719e+02 0.0 
0.0 0.0 -6.832303513492e+01 
-5.754860251171e+01 2.819845836383e+01 0.0 
2.819845836383e+01 -9.799218678790e+01 0.0 
0.0 0.0 -4.626223678989e+01 
-8.724688897314e+01 2.010065990892e+01 0.0 
2.010065990892e+01 -1.323848982248e+02 0.0 
0.0 0.0 -6.548953615938e+01 
-1.249028988073e+02 2.610626780634e+00 0.0 
2.610626780634e+00 -2.822228879595e+02 0.0 
0.0 0.0 -1.248595890125e+02 
-8.389438672013e+01 1.403367334734e+01 0.0 
1.403367334734e+01 -1.565778581360e+02 0.0 
0.0 0.0 -7.174167345684e+01 
-8.256076159417e+01 1.575175859175e+01 0.0 
1.575175859175e+01 -1.074965621945e+02 0.0 
0.0 0.0 -5.661719713661e+01 
-8.936666940821e+01 -4.134475635121e-01 0.0 
-4.134475635121e-01 -2.085775538724e+02 0.0 
0.0 0.0 -8.936523550532e+01 
-7.532265543949e+01 5.728076618863e+00 0.0 
5.728076618863e+00 -1.784505643842e+02 0.0 
0.0 0.0 -7.573196594710e+01 
-7.721057887325e+01 1.193274110837e+01 0.0 
1.193274110837e+01 -1.139796383412e+02 0.0 
0.0 0.0 -5.695706516432e+01 
-8.936073137178e+01 1.750142601702e+01 0.0 
1.750142601702e+01 -1.491529735782e+02 0.0 
0.0 0.0 -7.115411148500e+01 
-7.341927160950e+01 8.766932463571e+00 0.0 
8.766932463571e+00 -1.130473128826e+02 0.0 
0.0 0.0 -5.553997534764e+01 
-7.192830946376e+01 8.764940204821e+00 0.0 
8.764940204821e+00 -1.025052124394e+02 0.0 
0.0 0.0 -5.193005657094e+01 
-1.415838148510e+02 3.290484693375e+00 0.0 
3.290484693375e+00 -3.167961129315e+02 0.0 
0.0 0.0 -1.415220413701e+02 
-1.351358301045e+02 2.304129308964e+01 0.0 
2.304129308964e+01 -2.934971957603e+02 0.0 
0.0 0.0 -1.318514796132e+02 
-1.368223205103e+02 3.903890790491e+00 0.0 
3.903890790491e+00 -3.068255296773e+02 0.0 
0.0 0.0 -1.367327202306e+02 
-1.100034683282e+02 -2.762373720814e-01 0.0 
-2.762373720814e-01 -2.514228413288e+02 0.0 
0.0 0.0 -1.100029287501e+02 
-5.150203677803e+01 2.703459094413e+01 0.0 
2.703459094413e+01 -6.486372524826e+01 0.0 
0.0 0.0 -3.450972860789e+01 
-1.247091533800e+02 1.519582719447e+01 0.0 
1.519582719447e+01 -2.773456118321e+02 0.0 
0.0 0.0 -1.232110265084e+02 
-8.548804020265e+01 2.241828271750e+01 0.0 
2.241828271750e+01 -1.192924627438e+02 0.0 
0.0 0.0 -6.103415088392e+01 
-4.364698651710e+01 -3.482671470730e+00 0.0 
-3.482671470730e+00 -1.131310997999e+02 0.0 
0.0 0.0 -4.663342589510e+01 
-8.275171595076e+01 5.351686966877e+00 0.0 
5.351686966877e+00 -1.940594777571e+02 0.0 
0.0 0.0 -8.264335811237e+01 
-9.443838333161e+01 5.750119231856e+00 0.0 
5.750119231856e+00 -2.182915616740e+02 0.0 
0.0 0.0 -9.417199607010e+01 
-1.021754011765e+02 1.316080126858e+01 0.0 
1.316080126858e+01 -2.310823095299e+02 0.0 
0.0 0.0 -1.008454650078e+02 
-3.779252731961e+01 -5.833758329781e-01 0.0 
-5.833758329781e-01 -1.014962594407e+02 0.0 
0.0 0.0 -4.138663602810e+01 
-7.774182882899e+01 5.875423425009e+00 0.0 
5.875423425009e+00 -1.834470236572e+02 0.0 
0.0 0.0 -7.795665574585e+01 
-1.108740634429e+02 1.470513119324e+01 0.0 
1.470513119324e+01 -2.484510495571e+02 0.0 
0.0 0.0 -1.093198407401e+02 
-6.513321084948e+01 2.937554120140e+01 0.0 
2.937554120140e+01 -1.009056493988e+02 0.0 
0.0 0.0 -4.941165807449e+01 
-9.186428142276e+01 -1.408222372551e+00 0.0 
-1.408222372551e+00 -2.137170186745e+02 0.0 
0.0 0.0 -9.184800911319e+01 
-7.496691581250e+01 1.250928751306e+01 0.0 
1.250928751306e+01 -8.519199630671e+01 0.0 
0.0 0.0 -4.764767363576e+01 
-3.530561105919e+01 -5.037318675414e-01 0.0 
-5.037318675414e-01 -2.100285184708e+01 0.0 
0.0 0.0 -1.649253887188e+01 
-2.339769790801e+01 1.480357253887e+01 0.0 
1.480357253887e+01 -1.922527818988e+01 0.0 
0.0 0.0 -1.238689282937e+01 
-1.071112181131e+02 1.044628452828e+00 0.0 
1.044628452828e+00 -2.453958411555e+02 0.0 
0.0 0.0 -1.071033272405e+02 
-1.249880152848e+02 1.132290108444e+01 0.0 
1.132290108444e+01 -2.800021450939e+02 0.0 
0.0 0.0 -1.241653080775e+02 
-1.078483815858e+02 3.535747011426e+01 0.0 
3.535747011426e+01 -1.997088614074e+02 0.0 
0.0 0.0 -9.186717289797e+01 
-8.800796260289e+01 9.231921948884e+00 0.0 
9.231921948884e+00 -2.035057045225e+02 0.0 
0.0 0.0 -8.727469543487e+01 
-1.009505380318e+02 -8.567907527625e-01 0.0 
-8.567907527625e-01 -2.326132302793e+02 0.0 
0.0 0.0 -1.009449627295e+02 
-7.003608925294e+01 8.813421680515e+00 0.0 
8.813421680515e+00 -8.405308042188e+01 0.0 
0.0 0.0 -4.582675090245e+01 
-2.326140058804e+01 1.484685662218e+01 0.0 
1.484685662218e+01 -1.946403102319e+01 0.0 
0.0 0.0 -1.241762948337e+01 
-1.199072110487e+02 1.242064584150e+01 0.0 
1.242064584150e+01 -2.688200610841e+02 0.0 
0.0 0.0 -1.188783284262e+02 
-9.870260095890e+01 1.082994992919e+01 0.0 
1.082994992919e+01 -2.251305981250e+02 0.0 
0.0 0.0 -9.778160572167e+01 
-6.923887322950e+01 3.181241794493e+01 0.0 
3.181241794493e+01 -1.024726488060e+02 0.0 
0.0 0.0 -5.111345661065e+01 
-1.291267948733e+02 3.981402334388e+00 0.0 
3.981402334388e+00 -2.908236609225e+02 0.0 
0.0 0.0 -1.290288216338e+02 
-3.947366760282e+01 -3.316612581369e+00 0.0 
-3.316612581369e+00 -1.044836558040e+02 0.0 
0.0 0.0 -4.278719702204e+01 
-1.332786135840e+02 5.519140650893e+00 0.0 
5.519140650893e+00 -2.991801533275e+02 0.0 
0.0 0.0 -1.330952079571e+02 
-1.451234450198e+02 7.339719513376e+00 0.0 
7.339719513376e+00 -3.234065879168e+02 0.0 
0.0 0.0 -1.448217873068e+02 
-1.148160891632e+02 1.341433025700e+01 0.0 
1.341433025700e+01 -2.575719305893e+02 0.0 
0.0 0.0 -1.135665231955e+02 
-7.887621960290e+01 1.144504306157e+01 0.0 
1.144504306157e+01 -1.158279214003e+02 0.0 
0.0 0.0 -5.801124230097e+01 
-1.160958392937e+02 2.965526580368e+01 0.0 
2.965526580368e+01 -2.439434257534e+02 0.0 
0.0 0.0 -1.095520078241e+02 
-1.462603731339e+02 8.397721952287e+00 0.0 
8.397721952287e+00 -3.254870851287e+02 0.0 
0.0 0.0 -1.458677554012e+02 
-2.119201977322e+01 1.434338308505e+01 0.0 
1.434338308505e+01 -1.893386418388e+01 0.0 
0.0 0.0 -1.163776518713e+01 
-7.651159674127e+01 1.197659006927e+01 0.0 
1.197659006927e+01 -9.532210013532e+01 0.0 
0.0 0.0 -5.115010906298e+01 
-1.331103018236e+02 2.701362133039e+01 0.0 
2.701362133039e+01 -2.850620418112e+02 0.0 
0.0 0.0 -1.284507666985e+02 
-7.817052864315e+01 1.172842138153e+01 0.0 
1.172842138153e+01 -1.241538757151e+02 0.0 
0.0 0.0 -6.029732130747e+01 
-1.058805810526e+02 1.204987913177e+01 0.0 
1.204987913177e+01 -2.395506549886e+02 0.0 
0.0 0.0 -1.048030142301e+02 
-8.130300538073e+01 7.869516112742e+00 0.0 
7.869516112742e+00 -1.900997162917e+02 0.0 
0.0 0.0 -8.102081650173e+01 
-1.004360363870e+02 -2.915183591345e+00 0.0 
-2.915183591345e+00 -2.313626987772e+02 0.0 
0.0 0.0 -1.003711597130e+02 
-1.951886655391e+01 1.703661345381e+00 0.0 
1.703661345381e+00 -5.961383712608e+01 0.0 
0.0 0.0 -2.333981110400e+01 
-7.909188875968e+01 1.141055533560e+01 0.0 
1.141055533560e+01 -1.346052383795e+02 0.0 
0.0 0.0 -6.370913814177e+01 
-4.753496962502e+01 -3.173271815293e+00 0.0 
-3.173271815293e+00 -1.213192324787e+02 0.0 
0.0 0.0 -5.025626063113e+01 
-1.948181239494e+01 1.377928873654e+01 0.0 
1.377928873654e+01 -1.681626955339e+01 0.0 
0.0 0.0 -1.048942458450e+01 
-1.103910720641e+02 3.031883464043e+01 0.0 
3.031883464043e+01 -2.299272537719e+02 0.0 
0.0 0.0 -1.031408339454e+02 
-8.117507780238e+01 1.055557028346e+01 0.0 
1.055557028346e+01 -1.568643815673e+02 0.0 
0.0 0.0 -7.101183781091e+01 
-3.531331758009e+01 -4.000612685354e+00 0.0 
-4.000612685354e+00 -9.555208733106e+01 0.0 
0.0 0.0 -3.885962147335e+01 
-8.281112831242e+01 2.996425828906e+01 0.0 
2.996425828906e+01 -1.649109899137e+02 0.0 
0.0 0.0 -7.391663546785e+01 
-7.613496186047e+01 1.212726000264e+01 0.0 
1.212726000264e+01 -1.041651739751e+02 0.0 
0.0 0.0 -5.369004075066e+01 
-9.835353263776e+01 -1.033853240314e+00 0.0 
-1.033853240314e+00 -2.272134156232e+02 0.0 
0.0 0.0 -9.834523848364e+01 
-3.724087822341e+01 -1.978545075043e+00 0.0 
-1.978545075043e+00 -1.001763103677e+02 0.0 
0.0 0.0 -4.082515657733e+01 
-4.981541546605e+01 1.589974969935e+01 0.0 
1.589974969935e+01 -1.152119320740e+02 0.0 
0.0 0.0 -4.910820426203e+01 
-2.455005014935e+01 -5.016035223291e+00 0.0 
-5.016035223291e+00 -7.242161622744e+01 0.0 
0.0 0.0 -2.869149991304e+01 
-3.315334048014e+01 -3.653482591406e+00 0.0 
-3.653482591406e+00 -9.117678010648e+01 0.0 
0.0 0.0 -3.689903617599e+01 
-2.896284693831e+01 -4.218470393581e+00 0.0 
-4.218470393581e+00 -8.215943140886e+01 0.0 
0.0 0.0 -3.293668350415e+01 
-9.693562605371e+01 1.065026489244e+01 0.0 
1.065026489244e+01 -2.215148000688e+02 0.0 
0.0 0.0 -9.603169447074e+01 
-1.177637936667e+02 3.932064342859e+01 0.0 
3.932064342859e+01 -2.291366436687e+02 0.0 
0.0 0.0 -1.052806438632e+02 
-1.779045261455e+01 1.335743959253e+01 0.0 
1.335743959253e+01 -1.591588424969e+01 0.0 
0.0 0.0 -9.711901059273e+00 
-1.464350315101e+02 2.741721418425e+00 0.0 
2.741721418425e+00 -3.269293053884e+02 0.0 
0.0 0.0 -1.463933941634e+02 
-6.582186995732e+01 7.155773275966e+00 0.0 
7.155773275966e+00 -1.580038507401e+02 0.0 
0.0 0.0 -6.674771620923e+01 
-8.133751032742e+01 1.673028099206e+01 0.0 
1.673028099206e+01 -9.832348220816e+01 0.0 
0.0 0.0 -5.349829776067e+01 
-2.567586713926e+01 1.057566539354e+00 0.0 
1.057566539354e+00 -7.629024395015e+01 0.0 
0.0 0.0 -3.018983332682e+01 
-1.501952377061e+02 1.029333886443e+01 0.0 
1.029333886443e+01 -3.330872785559e+02 0.0 
0.0 0.0 -1.496177422422e+02 
-3.191068404789e+01 -5.167549077164e+00 0.0 
-5.167549077164e+00 -8.784564776666e+01 0.0 
0.0 0.0 -3.552689954436e+01 
-5.760625119594e+01 -3.589930143968e+00 0.0 
-3.589930143968e+00 -1.421786021657e+02 0.0 
0.0 0.0 -5.953545600849e+01 
-1.185268598320e+02 1.583904029767e+01 0.0 
1.583904029767e+01 -2.638714421083e+02 0.0 
0.0 0.0 -1.168208134193e+02 
-8.850185778313e+01 2.898140895787e+00 0.0 
2.898140895787e+00 -2.065678960684e+02 0.0 
0.0 0.0 -8.843076057380e+01 
-1.299047657749e+02 2.424042408945e+01 0.0 
2.424042408945e+01 -2.810762807364e+02 0.0 
0.0 0.0 -1.261129137302e+02 
-5.314173121021e+01 2.220898429376e+01 0.0 
2.220898429376e+01 -1.097876646816e+02 0.0 
0.0 0.0 -4.847881876755e+01 
-9.179224928700e+01 2.523061925726e+01 0.0 
2.523061925726e+01 -1.283185272293e+02 0.0 
0.0 0.0 -6.563323295487e+01 
-1.396464691725e+02 2.134744529176e+01 0.0 
2.134744529176e+01 -3.046040289268e+02 0.0 
0.0 0.0 -1.369286379051e+02 
-7.030526260074e+01 8.687321341956e+00 0.0 
8.687321341956e+00 -9.215804741742e+01 0.0 
0.0 0.0 -4.833899300545e+01 
-1.123891010290e+02 3.926238905285e+01 0.0 
3.926238905285e+01 -2.024730097771e+02 0.0 
0.0 0.0 -9.405863324183e+01 
-8.884611857893e+01 1.887831141439e+01 0.0 
1.887831141439e+01 -1.297488736842e+02 0.0 
0.0 0.0 -6.517849767894e+01 
-9.385952176128e+01 2.284199921087e+01 0.0 
2.284199921087e+01 -1.435148754076e+02 0.0 
0.0 0.0 -7.081231915066e+01 
-3.059651576191e+01 8.056600072681e+00 0.0 
8.056600072681e+00 -8.283854451260e+01 0.0 
0.0 0.0 -3.363051808235e+01 
-1.420201378797e+02 1.490354207178e+00 0.0 
1.490354207178e+00 -3.178530936833e+02 0.0 
0.0 0.0 -1.420075065951e+02 
-8.187315926492e+01 1.603014104912e+01 0.0 
1.603014104912e+01 -1.176690238185e+02 0.0 
0.0 0.0 -5.946265492504e+01 
-8.126018520412e+01 1.325555448102e+01 0.0 
1.325555448102e+01 -1.867054650028e+02 0.0 
0.0 0.0 -7.998969506209e+01 
-1.763634708815e+01 1.341895687680e+01 0.0 
1.341895687680e+01 -1.632540041777e+01 0.0 
0.0 0.0 -9.788524251775e+00 
-1.438443663322e+02 2.454713200600e+01 0.0 
2.454713200600e+01 -3.108080104130e+02 0.0 
0.0 0.0 -1.403102340831e+02 
-3.819337297505e+01 3.478465381713e+00 0.0 
3.478465381713e+00 -1.017610976559e+02 0.0 
0.0 0.0 -4.158634118929e+01 
-5.340132218870e+01 -1.415772736574e+00 0.0 
-1.415772736574e+00 -1.338403333404e+02 0.0 
0.0 0.0 -5.577249665873e+01 
-1.256586188233e+02 2.111556257357e+01 0.0 
2.111556257357e+01 -2.749129014047e+02 0.0 
0.0 0.0 -1.227288313453e+02 
-2.679196408154e+01 8.980356142818e-01 0.0 
8.980356142818e-01 -7.862738989921e+01 0.0 
0.0 0.0 -3.122580619422e+01 
-7.809766218634e+01 2.131518162121e+01 0.0 
2.131518162121e+01 -1.708395396381e+02 0.0 
0.0 0.0 -7.428116054733e+01 
-1.236781308061e+02 1.472063278350e+01 0.0 
1.472063278350e+01 -2.754624747641e+02 0.0 
0.0 0.0 -1.222636484969e+02 
-9.809234401278e+01 2.561467878226e+01 0.0 
2.561467878226e+01 -1.652889423394e+02 0.0 
0.0 0.0 -7.861438590565e+01 
-1.029691297544e+02 3.013354627301e+01 0.0 
3.013354627301e+01 -1.810519404488e+02 0.0 
0.0 0.0 -8.480632106096e+01 
-1.195195671757e+02 1.618920431490e+01 0.0 
1.618920431490e+01 -2.657323007772e+02 0.0 
0.0 0.0 -1.177484927598e+02 
-8.917771728315e+01 1.816660553206e+01 0.0 
1.816660553206e+01 -1.392603711845e+02 0.0 
0.0 0.0 -6.813142654029e+01 
-6.957588918210e+01 9.485209309079e+00 0.0 
9.485209309079e+00 -1.646122092291e+02 0.0 
0.0 0.0 -6.985642952335e+01 
-1.084534021035e+02 3.291910567833e+01 0.0 
3.291910567833e+01 -2.207009103265e+02 0.0 
0.0 0.0 -9.951147175517e+01 
-1.930478829665e+01 1.369710748648e+01 0.0 
1.369710748648e+01 -1.655057935468e+01 0.0 
0.0 0.0 -1.035661029540e+01 
-1.131635187306e+02 3.798820279591e+01 0.0 
3.798820279591e+01 -2.209365545586e+02 0.0 
0.0 0.0 -1.011193126643e+02 
-2.532714797347e+01 1.470463674347e+01 0.0 
1.470463674347e+01 -1.827630293010e+01 0.0 
0.0 0.0 -1.268103527107e+01 
-3.287883795733e+01 1.554010801139e+01 0.0 
1.554010801139e+01 -2.021315562798e+01 0.0 
0.0 0.0 -1.552759807559e+01 
-8.275943599547e+01 1.000391557662e+01 0.0 
1.000391557662e+01 -1.920722015878e+02 0.0 
0.0 0.0 -8.204949127500e+01 
-5.214451400496e+01 1.598954575537e+01 0.0 
1.598954575537e+01 -2.497045689671e+01 0.0 
0.0 0.0 -2.273449127050e+01 
-9.147521997884e+01 2.067563487451e+01 0.0 
2.067563487451e+01 -2.013920159514e+02 0.0 
0.0 0.0 -8.771473355233e+01 
-7.050223981602e+01 1.495921045189e+01 0.0 
1.495921045189e+01 -1.620939721875e+02 0.0 
0.0 0.0 -6.937886360106e+01 
-8.641436582466e+01 7.234891459008e+00 0.0 
7.234891459008e+00 -2.010539620785e+02 0.0 
0.0 0.0 -8.595957687617e+01 
-3.335691829035e+01 -2.189733824872e+00 0.0 
-2.189733824872e+00 -9.205331726720e+01 0.0 
0.0 0.0 -3.722307066726e+01 
-7.905163234990e+01 7.778730656723e+00 0.0 
7.778730656723e+00 -1.854272265110e+02 0.0 
0.0 0.0 -7.894365765826e+01 
-8.330746042162e+01 1.470071541615e+01 0.0 
1.470071541615e+01 -1.460993680478e+02 0.0 
0.0 0.0 -6.842204854081e+01 
-1.121574197176e+02 3.931177982924e+01 0.0 
3.931177982924e+01 -2.149530654175e+02 0.0 
0.0 0.0 -9.884703422381e+01 
-1.328953953260e+02 7.166673643150e-01 0.0 
7.166673643150e-01 -2.989392279992e+02 0.0 
0.0 0.0 -1.328923021515e+02 
-1.345535756373e+02 2.257308496660e+01 0.0 
2.257308496660e+01 -2.926727598539e+02 0.0 
0.0 0.0 -1.313941719524e+02 
-8.651511450017e+01 2.427312860287e+00 0.0 
2.427312860287e+00 -2.025058807699e+02 0.0 
0.0 0.0 -8.646434089162e+01 
-8.761952698812e+01 1.935545725659e+01 0.0 
1.935545725659e+01 -1.402576482628e+02 0.0 
0.0 0.0 -6.796315257526e+01 
-8.424779358313e+01 7.093799244213e+00 0.0 
7.093799244213e+00 -1.965825447494e+02 0.0 
0.0 0.0 -8.384910149974e+01 
-1.467014681290e+02 1.127246922401e+00 0.0 
1.127246922401e+00 -3.275889049594e+02 0.0 
0.0 0.0 -1.466944436706e+02 
-8.243364204556e+01 1.555406643369e+01 0.0 
1.555406643369e+01 -1.264592634356e+02 0.0 
0.0 0.0 -6.226787164433e+01 
-9.311724305994e+01 2.394672298469e+01 0.0 
2.394672298469e+01 -1.355664837532e+02 0.0 
0.0 0.0 -6.820511804394e+01 
-1.110362641923e+02 1.112312289032e+01 0.0 
1.112312289032e+01 -2.508638561705e+02 0.0 
0.0 0.0 -1.101569621249e+02 
-7.402047771451e+01 8.492443864029e+00 0.0 
8.492443864029e+00 -1.745311971522e+02 0.0 
0.0 0.0 -7.416550246000e+01 
-1.173820099224e+02 3.457781719823e+01 0.0 
3.457781719823e+01 -2.385199039468e+02 0.0 
0.0 0.0 -1.082069766613e+02 
-8.746389919167e+01 3.297060340302e+01 0.0 
3.297060340302e+01 -1.584019652176e+02 0.0 
0.0 0.0 -7.335975932278e+01 
-3.302311761828e+01 -3.024214734647e+00 0.0 
-3.024214734647e+00 -9.112840402084e+01 0.0 
0.0 0.0 -3.684545649174e+01 
-3.679390076055e+01 1.321558435303e+00 0.0 
1.321558435303e+00 -9.935367942202e+01 0.0 
0.0 0.0 -4.044427405477e+01 
-5.762153435513e+01 2.100355697170e+01 0.0 
2.100355697170e+01 -1.239375106744e+02 0.0 
0.0 0.0 -5.406771350887e+01 
-8.331916403790e+01 2.926491543175e+01 0.0 
2.926491543175e+01 -1.679240559741e+02 0.0 
0.0 0.0 -7.497296600360e+01 
-1.515069745419e+02 8.186527592548e-01 0.0 
8.186527592548e-01 -3.375757907091e+02 0.0 
0.0 0.0 -1.515033727596e+02 
-8.801144975615e+01 1.983108824434e+01 0.0 
1.983108824434e+01 -1.209279954930e+02 0.0 
0.0 0.0 -6.228183357474e+01 
-7.571790931691e+01 8.278662530663e+00 0.0 
8.278662530663e+00 -1.782029569576e+02 0.0 
0.0 0.0 -7.577625988236e+01 
-9.426449568587e+01 3.291833237419e+01 0.0 
3.291833237419e+01 -1.862459670568e+02 0.0 
0.0 0.0 -8.375313882280e+01 
-1.286752179780e+02 1.370918130341e+01 0.0 
1.370918130341e+01 -2.865529662252e+02 0.0 
0.0 0.0 -1.274936359127e+02 
-8.466245729379e+01 1.412724365034e+01 0.0 
1.412724365034e+01 -1.374516387437e+02 0.0 
0.0 0.0 -6.623422881124e+01 
-1.206222751266e+02 3.649934641096e+01 0.0 
3.649934641096e+01 -2.423954133172e+02 0.0 
0.0 0.0 -1.105202776451e+02 
-7.338392232225e+01 1.327355608862e+01 0.0 
1.327355608862e+01 -8.627086294824e+01 0.0 
0.0 0.0 -4.749643558115e+01 
-1.354145325486e+02 9.338689642523e+00 0.0 
9.338689642523e+00 -3.025787234372e+02 0.0 
0.0 0.0 -1.348944413204e+02 
-8.997808526635e+01 9.318025855348e+00 0.0 
9.318025855348e+00 -2.075946048674e+02 0.0 
0.0 0.0 -8.924445202839e+01 
-1.298273627721e+02 1.413345512813e+01 0.0 
1.413345512813e+01 -2.887430172212e+02 0.0 
0.0 0.0 -1.285801662305e+02 
-8.097307381879e+01 2.305115510098e+01 0.0 
2.305115510098e+01 -1.746546108358e+02 0.0 
0.0 0.0 -7.628830539638e+01 
-9.357435476500e+01 2.096864305869e+01 0.0 
2.096864305869e+01 -1.611765955563e+02 0.0 
0.0 0.0 -7.602528509639e+01 
-1.247864649114e+02 3.863187065781e+01 0.0 
3.863187065781e+01 -2.479188102088e+02 0.0 
0.0 0.0 -1.136696612511e+02 
-1.021141662004e+02 9.796436586065e+00 0.0 
9.796436586065e+00 -2.327997470065e+02 0.0 
0.0 0.0 -1.013838877520e+02 
-3.403768791457e+01 1.254685078244e+00 0.0 
1.254685078244e+00 -9.363633207356e+01 0.0 
0.0 0.0 -3.790220599644e+01 
-1.215368704256e+02 2.832256947146e+01 0.0 
2.832256947146e+01 -2.580052737771e+02 0.0 
0.0 0.0 -1.158922915227e+02 
-8.535222016243e+01 2.157602916304e+01 0.0 
2.157602916304e+01 -1.867077415318e+02 0.0 
0.0 0.0 -8.121798850828e+01 
-6.937480113909e+01 8.446048822286e+00 0.0 
8.446048822286e+00 -1.647964715167e+02 0.0 
0.0 0.0 -6.985138179674e+01 
-1.073977576678e+02 1.231352386138e+01 0.0 
1.231352386138e+01 -2.425933429961e+02 0.0 
0.0 0.0 -1.062854022972e+02 
-1.325254419938e+02 8.041324459654e+00 0.0 
8.041324459654e+00 -2.969740628303e+02 0.0 
0.0 0.0 -1.321331673772e+02 
-3.262473098366e+01 -8.499031262365e-01 0.0 
-8.499031262365e-01 -9.074598944430e+01 0.0 
0.0 0.0 -3.661121612839e+01 
-9.317486115909e+01 8.451261947505e+00 0.0 
8.451261947505e+00 -2.146884923634e+02 0.0 
0.0 0.0 -9.258989270976e+01 
-8.847204644786e+01 3.184541406494e+01 0.0 
3.184541406494e+01 -1.449045227920e+02 0.0 
0.0 0.0 -6.961297077195e+01 
-1.525029078265e+02 2.118224144109e+00 0.0 
2.118224144109e+00 -3.395806875796e+02 0.0 
0.0 0.0 -1.524789269002e+02 
-9.327287609745e+01 3.367948383937e+01 0.0 
3.367948383937e+01 -1.629079763583e+02 0.0 
0.0 0.0 -7.645425573674e+01 
-1.160613361121e+02 2.938614583882e+01 0.0 
2.938614583882e+01 -2.442694280051e+02 0.0 
0.0 0.0 -1.096467726425e+02 
-8.386202325367e+01 2.969622314431e+01 0.0 
2.969622314431e+01 -1.264381070000e+02 0.0 
0.0 0.0 -6.269003907609e+01 
-7.367083651289e+01 2.325804193296e+01 0.0 
2.325804193296e+01 -8.709665122570e+01 0.0 
0.0 0.0 -4.783024632158e+01 
-9.239982417949e+01 3.368610849986e+01 0.0 
3.368610849986e+01 -1.755228070643e+02 0.0 
0.0 0.0 -7.997678937314e+01 
-1.309221626663e+02 1.993806212375e+01 0.0 
1.993806212375e+01 -2.871486464211e+02 0.0 
0.0 0.0 -1.284177583498e+02 
-1.385084670010e+02 3.050651566180e+00 0.0 
3.050651566180e+00 -3.104351724994e+02 0.0 
0.0 0.0 -1.384543535537e+02 
-8.099516470024e+01 1.686662881390e+01 0.0 
1.686662881390e+01 -1.095626244951e+02 0.0 
0.0 0.0 -5.676733675861e+01 
-9.716236983517e+01 2.689803748200e+01 0.0 
2.689803748200e+01 -1.780014616650e+02 0.0 
0.0 0.0 -8.214914945004e+01 
-7.924005470040e+01 2.700137953047e+01 0.0 
2.700137953047e+01 -1.072919419945e+02 0.0 
0.0 0.0 -5.555959900847e+01 
-5.651916469637e+01 4.351199453570e+00 0.0 
4.351199453570e+00 -1.396913758645e+02 0.0 
0.0 0.0 -5.846316216827e+01 
-1.249888884872e+02 3.120819039097e+01 0.0 
3.120819039097e+01 -2.616500991479e+02 0.0 
0.0 0.0 -1.181994380915e+02 
-8.941096332708e+01 1.687486403733e+01 0.0 
1.687486403733e+01 -1.593963311806e+02 0.0 
0.0 0.0 -7.424218835230e+01 
-8.044374248999e+01 1.727310530167e+01 0.0 
1.727310530167e+01 -1.812022033269e+02 0.0 
0.0 0.0 -7.809378374508e+01 
-8.394006953435e+01 2.000488085945e+01 0.0 
2.000488085945e+01 -1.856479802617e+02 0.0 
0.0 0.0 -8.047641493883e+01 
-6.611519883288e+01 6.272879359451e+00 0.0 
6.272879359451e+00 -1.590142838664e+02 0.0 
0.0 0.0 -6.713884480978e+01 
-8.653182895977e+01 2.111394034618e+01 0.0 
2.111394034618e+01 -1.253020058769e+02 0.0 
0.0 0.0 -6.315015045100e+01 
-6.057477691232e+01 2.666208501520e+01 0.0 
2.666208501520e+01 -1.155823226435e+02 0.0 
0.0 0.0 -5.244712986675e+01 
-9.663759100361e+01 2.002156752218e+01 0.0 
2.002156752218e+01 -2.134104823107e+02 0.0 
0.0 0.0 -9.330013365274e+01 
-5.988545190514e+01 2.669875151666e+01 0.0 
2.669875151666e+01 -1.134238014115e+02 0.0 
0.0 0.0 -5.159277599498e+01 
-1.220916568151e+02 1.847096867095e+01 0.0 
1.847096867095e+01 -2.695092674681e+02 0.0 
0.0 0.0 -1.198125376647e+02 
-1.339924054402e+02 3.273368968172e+01 0.0 
3.273368968172e+01 -2.796364506910e+02 0.0 
0.0 0.0 -1.269737027468e+02 
-7.229971376530e+01 6.224820906890e+00 0.0 
6.224820906890e+00 -1.719591626580e+02 0.0 
0.0 0.0 -7.287766292698e+01 
-1.797809627616e+01 -5.575091632470e-01 0.0 
-5.575091632470e-01 -5.843790182574e+01 0.0 
0.0 0.0 -2.252479943057e+01 
-1.023680474617e+02 3.167347845381e+01 0.0 
3.167347845381e+01 -1.873938405867e+02 0.0 
0.0 0.0 -8.652856641450e+01 
-6.297475811294e+01 2.778307866554e+01 0.0 
2.778307866554e+01 -1.182699259863e+02 0.0 
0.0 0.0 -5.397340522978e+01 
-9.051390527748e+01 4.000125048064e+00 0.0 
4.000125048064e+00 -2.105540854979e+02 0.0 
0.0 0.0 -9.038075593013e+01 
-1.302967333648e+02 2.972145004932e+01 0.0 
2.972145004932e+01 -2.755733246319e+02 0.0 
0.0 0.0 -1.244513581771e+02 
-8.676713553957e+01 2.106913788684e+01 0.0 
2.106913788684e+01 -1.127343544013e+02 0.0 
0.0 0.0 -5.945044698227e+01 
-1.338200814029e+02 3.472337631638e+00 0.0 
3.472337631638e+00 -3.006461959139e+02 0.0 
0.0 0.0 -1.337478390581e+02 
-6.689171014394e+01 1.193485769202e+01 0.0 
1.193485769202e+01 -1.571510244847e+02 0.0 
0.0 0.0 -6.681282038859e+01 
-1.827806510322e+01 7.689027033043e-01 0.0 
7.689027033043e-01 -5.019812455726e+01 0.0 
0.0 0.0 -2.014285689814e+01 
-1.575259662962e+02 1.978441576452e+00 0.0 
1.978441576452e+00 -3.500199125720e+02 0.0 
0.0 0.0 -1.575056341364e+02 
-8.805313795918e+01 2.812103955118e+01 0.0 
2.812103955118e+01 -1.819252589224e+02 0.0 
0.0 0.0 -8.059351906448e+01 
-1.121689082067e+02 2.086489706820e+01 0.0 
2.086489706820e+01 -2.461568830523e+02 0.0 
0.0 0.0 -1.089949664847e+02 
-1.230234637325e+02 3.372483441176e+01 0.0 
3.372483441176e+01 -2.531695110319e+02 0.0 
0.0 0.0 -1.148034941085e+02 
-1.948642606499e+01 2.068202381241e+00 0.0 
2.068202381241e+00 -3.347008852248e+01 0.0 
0.0 0.0 -1.548695437624e+01 
-1.325452459557e+02 2.425264067142e+00 0.0 
2.425264067142e+00 -2.981125686490e+02 0.0 
0.0 0.0 -1.325097278102e+02 
-4.574055569359e+01 1.202938163072e+01 0.0 
1.202938163072e+01 -1.114521262423e+02 0.0 
0.0 0.0 -4.675780458078e+01 
-8.004003756333e+01 1.796574169689e+01 0.0 
1.796574169689e+01 -8.986451987138e+01 0.0 
0.0 0.0 -5.057136723041e+01 
-1.072995108290e+02 -3.934126759074e-01 0.0 
-3.934126759074e-01 -2.458075770829e+02 0.0 
0.0 0.0 -1.072983934046e+02 
-7.030707337786e+01 6.332326906186e+00 0.0 
6.332326906186e+00 -1.677532819553e+02 0.0 
0.0 0.0 -7.101810659994e+01 
-1.477700999864e+02 2.336787885738e+00 0.0 
2.336787885738e+00 -3.297367279183e+02 0.0 
0.0 0.0 -1.477400962574e+02 
-9.159254450693e+01 2.103242435043e+01 0.0 
2.103242435043e+01 -2.012163958967e+02 0.0 
0.0 0.0 -8.769578198245e+01 
-6.201839689558e+01 4.997462817633e+00 0.0 
4.997462817633e+00 -1.509450563577e+02 0.0 
0.0 0.0 -6.348903597597e+01 
-9.007528973919e+01 3.051604190137e+01 0.0 
3.051604190137e+01 -1.816351122647e+02 0.0 
0.0 0.0 -8.111312060117e+01 
-1.713146683074e+01 -2.468151783958e+00 0.0 
-2.468151783958e+00 -4.888159367578e+01 0.0 
0.0 0.0 -1.940391815196e+01 
-1.047121313749e+02 3.081088571066e+01 0.0 
3.081088571066e+01 -2.159405716125e+02 0.0 
0.0 0.0 -9.674764312606e+01 
-1.229759304784e+02 1.877552443562e+01 0.0 
1.877552443562e+01 -2.711514530501e+02 0.0 
0.0 0.0 -1.206338763112e+02 
-1.276770119379e+02 4.061202107784e+01 0.0 
4.061202107784e+01 -2.505601010094e+02 0.0 
0.0 0.0 -1.154680327079e+02 
-1.138353437871e+02 3.245675869174e+01 0.0 
3.245675869174e+01 -2.341680083502e+02 0.0 
0.0 0.0 -1.056391956792e+02 
-4.456281602014e+01 1.404329344258e+00 0.0 
1.404329344258e+00 -1.154824834728e+02 0.0 
0.0 0.0 -4.761358984789e+01 
-1.341914091521e+02 1.863018933038e+00 0.0 
1.863018933038e+00 -3.015755255302e+02 0.0 
0.0 0.0 -1.341706759442e+02 
-8.743467662239e+01 1.768422756276e+01 0.0 
1.768422756276e+01 -1.679793684948e+02 0.0 
0.0 0.0 -7.622421353517e+01 
-1.470315913584e+02 2.712314053459e+01 0.0 
2.712314053459e+01 -3.151702846426e+02 0.0 
0.0 0.0 -1.427645366854e+02 
-1.264727765978e+02 2.152752054427e+01 0.0 
2.152752054427e+01 -2.762887223138e+02 0.0 
0.0 0.0 -1.234407819265e+02 
-7.251460642007e+01 1.081689050552e+01 0.0 
1.081689050552e+01 -1.699471298739e+02 0.0 
0.0 0.0 -7.233852088819e+01 
-9.602283149558e+01 2.971999803527e+01 0.0 
2.971999803527e+01 -1.976227291346e+02 0.0 
0.0 0.0 -8.796776282906e+01 
-1.514197621479e+02 -2.205426390161e-01 0.0 
-2.205426390161e-01 -3.374050102214e+02 0.0 
0.0 0.0 -1.514195006272e+02 
-1.007872373479e+02 -7.308509881563e-01 0.0 
-7.308509881563e-01 -2.300151808694e+02 0.0 
0.0 0.0 -9.969281503132e+01 
-1.107201725886e+02 2.991184232930e+01 0.0 
2.991184232930e+01 -2.313503528487e+02 0.0 
0.0 0.0 -1.037104648435e+02 
-7.490191193398e+01 1.253862791783e+01 0.0 
1.253862791783e+01 -9.490137166143e+01 0.0 
0.0 0.0 -5.054098507862e+01 
-1.431074641055e+02 2.648844374935e+00 0.0 
2.648844374935e+00 -3.200273023714e+02 0.0 
0.0 0.0 -1.430678144851e+02 
-1.380068951035e+02 4.897289828888e+00 0.0 
4.897289828888e+00 -3.091295870617e+02 0.0 
0.0 0.0 -1.378668561846e+02 
-2.843120756537e+01 5.208501572085e-02 0.0 
5.208501572085e-02 -8.293023092331e+00 0.0 
0.0 0.0 -1.061726919731e+01 
-2.833825157387e+01 -9.327590142830e-03 0.0 
-9.327590142830e-03 -8.282402179487e+00 0.0 
0.0 0.0 -1.058619612601e+01 
-9.413719968684e+01 3.483789710227e+01 0.0 
3.483789710227e+01 -1.496363598200e+02 0.0 
0.0 0.0 -7.273206785206e+01 
-1.018404585962e+02 2.827265983356e+01 0.0 
2.827265983356e+01 -2.137549849385e+02 0.0 
0.0 0.0 -9.510355460908e+01 
-1.118240919379e+02 -6.250981477408e-01 0.0 
-6.250981477408e-01 -2.551957802132e+02 0.0 
0.0 0.0 -1.118213665723e+02 
-9.790371539448e+01 3.672581464621e+01 0.0 
3.672581464621e+01 -1.791113801129e+02 0.0 
0.0 0.0 -8.270452865222e+01 
-8.808878526074e+01 1.834213963496e+01 0.0 
1.834213963496e+01 -1.966543204661e+02 0.0 
0.0 0.0 -8.507362144356e+01 
-1.421762816956e+02 1.388845759090e+01 0.0 
1.388845759090e+01 -3.148009472221e+02 0.0 
0.0 0.0 -1.410660313279e+02 
-7.327546661228e+01 1.195945886421e+01 0.0 
1.195945886421e+01 -1.707275979264e+02 0.0 
0.0 0.0 -7.280091936159e+01 
-1.103522922496e+02 3.486439590225e+01 0.0 
3.486439590225e+01 -2.212297982196e+02 0.0 
0.0 0.0 -1.003007296592e+02 
-6.715100747652e+01 2.135322949479e+01 0.0 
2.135322949479e+01 -6.459809182367e+01 0.0 
0.0 0.0 -3.912472979006e+01 
-8.211758665415e+01 1.878867168068e+01 0.0 
1.878867168068e+01 -1.831310179028e+02 0.0 
0.0 0.0 -7.917458136710e+01 
-1.054396382447e+02 -1.315962681171e+00 0.0 
-1.315962681171e+00 -2.419108402314e+02 0.0 
0.0 0.0 -1.054269498770e+02 
-4.104548587650e+01 3.787081866642e+00 0.0 
3.787081866642e+00 -1.076052426527e+02 0.0 
0.0 0.0 -4.419521855877e+01 
-9.386053187650e+01 -7.476793441446e-01 0.0 
-7.476793441446e-01 -2.178974781946e+02 0.0 
0.0 0.0 -9.385602512180e+01 
-9.430320949485e+01 2.758755653427e+01 0.0 
2.758755653427e+01 -1.975840916589e+02 0.0 
0.0 0.0 -8.739616189736e+01 
-8.624903780924e+01 3.095217288951e+01 0.0 
3.095217288951e+01 -1.710576253622e+02 0.0 
0.0 0.0 -7.679199895143e+01 
-7.986327748701e+01 1.805767213622e+01 0.0 
1.805767213622e+01 -1.023094907773e+02 0.0 
0.0 0.0 -5.425183047928e+01 
-1.006558089572e+02 3.534135937432e+01 0.0 
3.534135937432e+01 -1.943618547880e+02 0.0 
0.0 0.0 -8.821751382193e+01 
-1.064604340340e+02 3.846195925616e+01 0.0 
3.846195925616e+01 -1.983368611992e+02 0.0 
0.0 0.0 -9.116351677327e+01 
-1.663252629020e+01 4.190452171414e-01 0.0 
4.190452171414e-01 -5.757078064957e+01 0.0 
0.0 0.0 -2.186099208193e+01 
-8.719902535528e+01 -2.272413155069e+00 0.0 
-2.272413155069e+00 -2.039458735733e+02 0.0 
0.0 0.0 -8.715481082870e+01 
-6.307006282213e+01 2.874748396915e+01 0.0 
2.874748396915e+01 -1.143886668833e+02 0.0 
0.0 0.0 -5.283761891164e+01 
-9.036480260415e+01 3.345253892296e+01 0.0 
3.345253892296e+01 -1.604623875071e+02 0.0 
0.0 0.0 -7.484815703336e+01 
-9.599100066966e+01 3.653506631368e+01 0.0 
3.653506631368e+01 -1.648649154993e+02 0.0 
0.0 0.0 -7.785677485069e+01 
-1.358824670806e+02 1.854609247135e+01 0.0 
1.854609247135e+01 -2.987353233687e+02 0.0 
0.0 0.0 -1.337970951827e+02 
-3.151646734797e+01 -9.973665116377e-01 0.0 
-9.973665116377e-01 -8.842967907292e+01 0.0 
0.0 0.0 -3.558384392627e+01 
-2.852901600966e+01 -2.619003309320e+00 0.0 
-2.619003309320e+00 -8.188692231340e+01 0.0 
0.0 0.0 -3.272478149692e+01 
-8.454784283585e+01 2.570534878325e+01 0.0 
2.570534878325e+01 -1.783259477847e+02 0.0 
0.0 0.0 -7.846213718615e+01 
-8.941382125084e+01 -1.642599468179e+00 0.0 
-1.642599468179e+00 -2.086102372705e+02 0.0 
0.0 0.0 -8.939118952324e+01 
-2.577843383528e+01 1.433904661958e+01 0.0 
1.433904661958e+01 -1.705841888291e+01 0.0 
0.0 0.0 -1.245105581546e+01 
-2.537990458836e+01 1.250048786601e+01 0.0 
1.250048786601e+01 -1.235569842159e+01 0.0 
0.0 0.0 -1.092068090299e+01 
-8.505082889406e+01 2.259260595158e+01 0.0 
2.259260595158e+01 -1.052790180355e+02 0.0 
0.0 0.0 -5.669895407886e+01 
-2.754765080163e+01 9.039831946602e+00 0.0 
9.039831946602e+00 -7.514032471736e+01 0.0 
0.0 0.0 -3.040639265570e+01 
-1.007950165169e+02 -2.181501392349e+00 0.0 
-2.181501392349e+00 -2.321961396961e+02 0.0 
0.0 0.0 -1.007588095404e+02 
-1.262688526774e+02 1.189766156763e+01 0.0 
1.189766156763e+01 -2.824193746523e+02 0.0 
0.0 0.0 -1.253675302427e+02 
-2.974979789771e+01 -7.956541201739e-01 0.0 
-7.956541201739e-01 -8.478039492494e+01 0.0 
0.0 0.0 -3.395905784679e+01 
-1.420190131436e+02 3.640613151245e+01 0.0 
3.640613151245e+01 -2.921692207951e+02 0.0 
0.0 0.0 -1.336574486146e+02 
-9.362050993565e+01 2.168974977248e+01 0.0 
2.168974977248e+01 -1.515684935605e+02 0.0 
0.0 0.0 -7.315670104884e+01 
-9.832720645642e+01 -1.961490697670e+00 0.0 
-1.961490697670e+00 -2.270923858490e+02 0.0 
0.0 0.0 -9.829733383556e+01 
-1.376040516732e+02 3.792970541090e-01 0.0 
3.792970541090e-01 -3.087214507696e+02 0.0 
0.0 0.0 -1.376032109314e+02 
-9.686052546991e+00 1.370082928533e-01 0.0 
1.370082928533e-01 -4.316118668047e+01 0.0 
0.0 0.0 -1.545417176824e+01 
-1.225137213497e+02 9.714281681685e+00 0.0 
9.714281681685e+00 -2.755063820530e+02 0.0 
0.0 0.0 -1.218993791205e+02 
-8.596558219574e+01 2.764115925232e+01 0.0 
2.764115925232e+01 -1.779335241131e+02 0.0 
0.0 0.0 -7.876973189266e+01 
-9.803016050307e+00 -2.854939105137e-01 0.0 
-2.854939105137e-01 -4.339826851575e+01 0.0 
0.0 0.0 -1.556038536982e+01 
-8.750880547523e+01 1.881717570438e+01 0.0 
1.881717570438e+01 -1.485933932958e+02 0.0 
0.0 0.0 -7.043065963130e+01 
-2.489670664329e+01 -8.844338523481e-01 0.0 
-8.844338523481e-01 -7.469232381673e+01 0.0 
0.0 0.0 -2.947670913801e+01 
-9.280755809175e+01 3.591026869758e+01 0.0 
3.591026869758e+01 -1.620353721741e+02 0.0 
0.0 0.0 -7.605287907975e+01 
-8.654584677037e+01 3.213728705754e+01 0.0 
3.213728705754e+01 -1.686260907698e+02 0.0 
0.0 0.0 -7.615158126204e+01 
-8.765681608013e+01 4.896606158814e+00 0.0 
4.896606158814e+00 -2.044016252126e+02 0.0 
0.0 0.0 -8.745179865872e+01 
-1.092303104879e+02 3.692612508301e+00 0.0 
3.692612508301e+00 -2.495206404587e+02 0.0 
0.0 0.0 -1.091331836687e+02 
-9.211177475400e+01 2.269761745382e+01 0.0 
2.269761745382e+01 -1.624739488165e+02 0.0 
0.0 0.0 -7.597571707114e+01 
-1.182148998634e+02 4.573517986039e+00 0.0 
4.573517986039e+00 -2.680426117643e+02 0.0 
0.0 0.0 -1.180754222427e+02 
-8.746910107260e+01 2.264707685456e+01 0.0 
2.264707685456e+01 -1.899317354349e+02 0.0 
0.0 0.0 -8.282025095226e+01 
-8.198827686857e+01 2.451345395925e+01 0.0 
2.451345395925e+01 -1.745228298889e+02 0.0 
0.0 0.0 -7.655333202726e+01 
-2.297361133773e+01 1.447931577603e+01 0.0 
1.447931577603e+01 -1.811581886279e+01 0.0 
0.0 0.0 -1.192682906016e+01 
-2.146622321495e+01 -9.133070220285e-01 0.0 
-9.133070220285e-01 -6.756321602907e+01 0.0 
0.0 0.0 -2.630883177321e+01 
-1.196060258858e+02 3.214834040883e+01 0.0 
3.214834040883e+01 -2.479793186395e+02 0.0 
0.0 0.0 -1.120051986746e+02 
-8.013000938023e+01 2.652555221366e+01 0.0 
2.652555221366e+01 -9.330679343044e+01 0.0 
0.0 0.0 -5.163104084320e+01 
-1.247112174726e+02 3.095825953770e+01 0.0 
3.095825953770e+01 -2.613950831755e+02 0.0 
0.0 0.0 -1.180262643466e+02 
-4.612703484699e+01 1.333377315608e+01 0.0 
1.333377315608e+01 -1.106766236393e+02 0.0 
0.0 0.0 -4.664109754588e+01 
-1.001838850670e+02 3.310914991860e+01 0.0 
3.310914991860e+01 -1.729013370509e+02 0.0 
0.0 0.0 -8.152556663537e+01 
-1.231859183806e+02 3.426886360606e+01 0.0 
3.426886360606e+01 -2.526019289369e+02 0.0 
0.0 0.0 -1.146717893009e+02 
-7.063395190918e+01 2.639536254558e+01 0.0 
2.639536254558e+01 -4.929262385240e+01 0.0 
0.0 0.0 -3.557797272847e+01 
-1.196262603592e+02 3.152796378001e+01 0.0 
3.152796378001e+01 -2.490306284987e+02 0.0 
0.0 0.0 -1.123535521157e+02 
-1.387874929310e+02 1.548823462144e+00 0.0 
1.548823462144e+00 -3.111380819626e+02 0.0 
0.0 0.0 -1.387735755987e+02 
-9.839322114029e+01 2.598236701317e+01 0.0 
2.598236701317e+01 -2.095642941764e+02 0.0 
0.0 0.0 -9.262050421509e+01 
-9.635748509968e+01 -1.814080026593e+00 0.0 
-1.814080026593e+00 -2.230151750184e+02 0.0 
0.0 0.0 -9.633150790453e+01 
-1.027566891669e+02 -7.050868850107e-02 0.0 
-7.050868850107e-02 -2.363798827984e+02 0.0 
0.0 0.0 -1.027566519617e+02 
-1.090400766739e+02 3.530366240958e+01 0.0 
3.530366240958e+01 -1.917169026850e+02 0.0 
0.0 0.0 -8.982709380767e+01 
-1.003071266914e+02 2.822896978438e+00 0.0 
2.822896978438e+00 -2.311073275157e+02 0.0 
0.0 0.0 -1.002462319899e+02 
-9.134751409843e+01 3.023191336742e+01 0.0 
3.023191336742e+01 -1.853750085776e+02 0.0 
0.0 0.0 -8.261675680280e+01 
-8.986595025412e+01 1.485284371487e+01 0.0 
1.485284371487e+01 -2.037583153437e+02 0.0 
0.0 0.0 -8.796083992575e+01 
-1.272439837701e+02 5.479219290424e+00 0.0 
5.479219290424e+00 -2.866375761759e+02 0.0 
0.0 0.0 -1.270558554313e+02 
-7.881421768791e+01 1.598780814710e+01 0.0 
1.598780814710e+01 -1.790183709196e+02 0.0 
0.0 0.0 -7.694977658224e+01 
-5.031936471114e+01 2.097318060745e+00 0.0 
2.097318060745e+00 -1.273431963532e+02 0.0 
0.0 0.0 -5.289876831929e+01 
-9.830925749880e+01 7.684381288729e+00 0.0 
7.684381288729e+00 -2.257266203818e+02 0.0 
0.0 0.0 -9.784749553521e+01 
-5.422908385605e+01 4.123172147475e+00 0.0 
4.123172147475e+00 -1.349895720417e+02 0.0 
0.0 0.0 -5.636559676933e+01 
-9.533383950428e+01 3.466172232786e+01 0.0 
3.466172232786e+01 -1.775993178579e+02 0.0 
0.0 0.0 -8.147994720865e+01 
-5.308002228645e+01 2.360692121603e+00 0.0 
2.360692121603e+00 -1.330357215357e+02 0.0 
0.0 0.0 -5.543472314664e+01 
-9.450605775525e+01 3.555702569463e+01 0.0 
3.555702569463e+01 -1.767811962682e+02 0.0 
0.0 0.0 -8.098617620703e+01 
-1.315246153771e+02 2.020605262264e+01 0.0 
2.020605262264e+01 -2.882169621157e+02 0.0 
0.0 0.0 -1.289609163933e+02 
-1.273782449787e+02 1.720360287880e+01 0.0 
1.720360287880e+01 -2.816659688629e+02 0.0 
0.0 0.0 -1.254832595901e+02 
-7.690034989095e+01 1.457576377627e+01 0.0 
1.457576377627e+01 -1.762600993331e+02 0.0 
0.0 0.0 -7.554813476721e+01 
-7.832657135592e+01 1.952874336480e+01 0.0 
1.952874336480e+01 -9.621233597722e+01 0.0 
0.0 0.0 -5.196167219994e+01 
-1.422842702105e+02 7.279516975443e-02 0.0 
7.279516975443e-02 -3.184402009683e+02 0.0 
0.0 0.0 -1.422842401284e+02 
-1.434287017437e+02 1.316169575850e+00 0.0 
1.316169575850e+00 -3.207861206141e+02 0.0 
0.0 0.0 -1.434189349858e+02 
-2.063973436174e+01 8.043010771026e+00 0.0 
8.043010771026e+00 -5.767079732553e+01 0.0 
0.0 0.0 -2.309315950618e+01 
-9.759327650562e+01 3.386099079433e+01 0.0 
3.386099079433e+01 -1.915713844993e+02 0.0 
0.0 0.0 -8.643738978603e+01 
-1.568963541440e+02 3.966540701480e-01 0.0 
3.966540701480e-01 -3.487728412051e+02 0.0 
0.0 0.0 -1.568955341697e+02 
-3.666536688080e+01 2.138559515544e+01 0.0 
2.138559515544e+01 -6.061094567899e+01 0.0 
0.0 0.0 -2.878289376794e+01 
-1.072966476495e+02 -1.382758369007e+00 0.0 
-1.382758369007e+00 -2.457625988976e+02 0.0 
0.0 0.0 -1.072828404279e+02 
-2.042602703349e+01 1.385815364422e+01 0.0 
1.385815364422e+01 -1.709734762661e+01 0.0 
0.0 0.0 -1.085701239803e+01 
-1.470075912155e+02 -1.323060710005e-01 0.0 
-1.323060710005e-01 -3.282457348464e+02 0.0 
0.0 0.0 -1.470074946305e+02 
-4.623435652137e+01 3.628284448637e+00 0.0 
3.628284448637e+00 -1.184790426333e+02 0.0 
0.0 0.0 -4.901401974640e+01 
-1.038442580072e+02 -2.131477832646e+00 0.0 
-2.131477832646e+00 -2.356322918667e+02 0.0 
0.0 0.0 -1.024131285483e+02 
-1.110734700090e+02 2.070259812340e+01 0.0 
2.070259812340e+01 -2.439541385841e+02 0.0 
0.0 0.0 -1.079227446028e+02 
-8.318747875476e+01 2.423548105464e+01 0.0 
2.423548105464e+01 -9.915355012230e+01 0.0 
0.0 0.0 -5.430230866312e+01 
-7.712809901951e+01 2.145824840641e+01 0.0 
2.145824840641e+01 -9.108627118728e+01 0.0 
0.0 0.0 -5.006431106204e+01 
-9.091313617225e+01 2.522612424399e+01 0.0 
2.522612424399e+01 -1.937894345146e+02 0.0 
0.0 0.0 -8.506044371469e+01 
-2.701446480476e+01 1.569534324578e+01 0.0 
1.569534324578e+01 -2.133017039918e+01 0.0 
0.0 0.0 -1.410339056118e+01 
-2.651102845449e+01 1.511511355351e+01 0.0 
1.511511355351e+01 -1.940938574864e+01 0.0 
0.0 0.0 -1.337612426094e+01 
-1.479469917369e+02 1.047108667460e+00 0.0 
1.047108667460e+00 -3.301777450316e+02 0.0 
0.0 0.0 -1.479409751873e+02 
-1.147889036470e+02 5.963966972440e+00 0.0 
5.963966972440e+00 -2.606101330793e+02 0.0 
0.0 0.0 -1.145453890174e+02 
-9.633294733598e+01 6.093659954654e+00 0.0 
6.093659954654e+00 -2.221383414849e+02 0.0 
0.0 0.0 -9.603847682451e+01 
-1.210955427648e+02 9.197383412543e+00 0.0 
9.197383412543e+00 -2.727423305552e+02 0.0 
0.0 0.0 -1.205397580612e+02 
-8.937291471201e+01 6.412409341044e+00 0.0 
6.412409341044e+00 -2.075275769338e+02 0.0 
0.0 0.0 -8.902592382641e+01 
-4.841305749011e+01 3.688067677713e+00 0.0 
3.688067677713e+00 -1.230016166083e+02 0.0 
0.0 0.0 -5.102440222952e+01 
-2.145643748389e+01 1.397707581740e+01 0.0 
1.397707581740e+01 -1.673610259478e+01 0.0 
0.0 0.0 -1.105776202360e+01 
-7.260261954204e+01 2.406489991784e+01 0.0 
2.406489991784e+01 -7.028438932752e+01 0.0 
0.0 0.0 -4.246610266087e+01 
-2.856661607676e+01 2.087195665563e-02 0.0 
2.087195665563e-02 -8.366959377666e+00 0.0 
0.0 0.0 -1.068007263633e+01 
-1.280331752877e+02 1.759364866069e+01 0.0 
1.759364866069e+01 -2.827792551400e+02 0.0 
0.0 0.0 -1.260580975260e+02 
-7.563719100435e+01 1.330815510123e+01 0.0 
1.330815510123e+01 -1.746742752184e+02 0.0 
0.0 0.0 -7.469343986682e+01 
-1.431765974508e+02 2.384526855034e+01 0.0 
2.384526855034e+01 -3.100153167279e+02 0.0 
0.0 0.0 -1.398354453645e+02 
-1.470194366463e+02 -1.511980304617e+00 0.0 
-1.511980304617e+00 -3.282318204683e+02 0.0 
0.0 0.0 -1.470068220265e+02 
-9.512394423184e+01 8.661525338297e+00 0.0 
8.661525338297e+00 -2.186755079818e+02 0.0 
0.0 0.0 -9.451968725262e+01 
-1.617800072057e+02 2.714369838685e+00 0.0 
2.714369838685e+00 -3.587989449162e+02 0.0 
0.0 0.0 -1.617426178778e+02 
-5.938948652672e+01 2.599438334150e+00 0.0 
2.599438334150e+00 -1.461090806637e+02 0.0 
0.0 0.0 -6.124957015712e+01 
-1.376822851771e+02 2.539582777606e+01 0.0 
2.539582777606e+01 -2.967146299772e+02 0.0 
0.0 0.0 -1.337252897830e+02 
-8.870180937091e+01 2.438277273803e+01 0.0 
2.438277273803e+01 -1.901042246966e+02 0.0 
0.0 0.0 -8.324181022024e+01 
-1.037105159199e+02 2.509336733116e+01 0.0 
2.509336733116e+01 -2.227547643823e+02 0.0 
0.0 0.0 -9.863728151749e+01 
-1.400614609488e+02 1.212025001160e+01 0.0 
1.212025001160e+01 -3.111983971735e+02 0.0 
0.0 0.0 -1.392073440765e+02 
-7.174335967483e+01 -1.881322737611e+00 0.0 
-1.881322737611e+00 -1.718868330008e+02 0.0 
0.0 0.0 -7.268905780270e+01 
-9.444784406354e+01 3.205916305131e+01 0.0 
3.205916305131e+01 -1.885207721791e+02 0.0 
0.0 0.0 -8.449058487278e+01 
-9.145740252048e+01 6.674725493779e+00 0.0 
6.674725493779e+00 -2.117869672165e+02 0.0 
0.0 0.0 -9.108828531294e+01 
-9.053390335302e+01 3.396806952463e+01 0.0 
3.396806952463e+01 -1.737818216802e+02 0.0 
0.0 0.0 -7.889471750997e+01 
-4.924553914217e+01 1.474033063374e+01 0.0 
1.474033063374e+01 -1.156810647186e+02 0.0 
0.0 0.0 -4.907798115822e+01 
-1.090396332177e+02 2.436605708804e+01 0.0 
2.436605708804e+01 -2.354798562686e+02 0.0 
0.0 0.0 -1.045066102083e+02 
-8.551006333520e+01 4.556865377466e+00 0.0 
4.556865377466e+00 -2.000186220137e+02 0.0 
0.0 0.0 -8.532900925743e+01 
-1.099547388532e+02 -1.651530539297e+00 0.0 
-1.651530539297e+00 -2.512639720143e+02 0.0 
0.0 0.0 -1.099354394728e+02 
-8.921832287705e+01 3.258465194013e+01 0.0 
3.258465194013e+01 -1.735537796490e+02 0.0 
0.0 0.0 -7.843163075782e+01 
-2.102220097006e+01 8.815513286658e+00 0.0 
8.815513286658e+00 -2.509725401039e+01 0.0 
0.0 0.0 -1.343583649413e+01 
-9.883574532359e+01 1.649442740339e+01 0.0 
1.649442740339e+01 -2.215385985388e+02 0.0 
0.0 0.0 -9.665715003482e+01 
-2.208743530947e+01 1.344723053950e+01 0.0 
1.344723053950e+01 -3.468166014653e+01 0.0 
0.0 0.0 -1.663072863680e+01 
-2.068276155285e+01 -3.147427897931e+00 0.0 
-3.147427897931e+00 -6.531296314398e+01 0.0 
0.0 0.0 -2.539871740905e+01 
-1.052213357363e+02 -2.376760810018e+00 0.0 
-2.376760810018e+00 -2.413690777670e+02 0.0 
0.0 0.0 -1.051798567418e+02 
-1.120865050766e+02 3.490465149196e+01 0.0 
3.490465149196e+01 -2.253098381668e+02 0.0 
0.0 0.0 -1.021909127337e+02 
-8.192510526585e+01 2.546712095153e+01 0.0 
2.546712095153e+01 -1.096921380763e+02 0.0 
0.0 0.0 -5.708517300265e+01 
-2.701154198678e+01 1.591078082666e+01 0.0 
1.591078082666e+01 -2.215763079189e+01 0.0 
0.0 0.0 -1.435075183360e+01 
-1.043293084044e+02 3.222034467080e+01 0.0 
3.222034467080e+01 -2.123217807869e+02 0.0 
0.0 0.0 -9.544673947397e+01 
-2.188247027090e+01 1.318689036256e+01 0.0 
1.318689036256e+01 -1.397600389378e+01 0.0 
0.0 0.0 -1.046512026582e+01 
-2.655598672087e+01 1.571263467170e+01 0.0 
1.571263467170e+01 -2.155745127030e+01 0.0 
0.0 0.0 -1.403403139735e+01 
-9.940847169672e+01 5.074233343926e+00 0.0 
5.074233343926e+00 -2.288179289492e+02 0.0 
0.0 0.0 -9.920981250211e+01 
-1.027069822787e+02 -1.945030323196e+00 0.0 
-1.945030323196e+00 -2.361896427246e+02 0.0 
0.0 0.0 -1.026786464632e+02 
-4.893686048215e+01 2.603441925047e+01 0.0 
2.603441925047e+01 -6.100923249319e+01 0.0 
0.0 0.0 -3.258382789260e+01 
-6.383726218335e+01 7.394983071219e-01 0.0 
7.394983071219e-01 -1.555639072594e+02 0.0 
0.0 0.0 -6.542035083284e+01 
-1.059452538590e+02 4.930613937590e+00 0.0 
4.930613937590e+00 -2.424524358243e+02 0.0 
0.0 0.0 -1.057673927467e+02 
-9.231173413016e+01 2.719822520870e+01 0.0 
2.719822520870e+01 -1.936637253515e+02 0.0 
0.0 0.0 -8.547425318415e+01 
-1.077372176043e+02 1.805417864877e+01 0.0 
1.805417864877e+01 -2.392333944126e+02 0.0 
0.0 0.0 -1.053034572840e+02 
-1.100571768971e+02 3.672475549131e+01 0.0 
3.672475549131e+01 -2.162844723490e+02 0.0 
0.0 0.0 -9.859708970972e+01 
-2.207508186223e+01 7.335595882117e+00 0.0 
7.335595882117e+00 -6.514518076132e+01 0.0 
0.0 0.0 -2.576607878707e+01 
-9.597592306662e+01 -2.846124696219e+00 0.0 
-2.846124696219e+00 -2.221054974560e+02 0.0 
0.0 0.0 -9.591173268605e+01 
-1.049786780728e+02 -2.854854946572e+00 0.0 
-2.854854946572e+00 -2.408084151060e+02 0.0 
0.0 0.0 -1.049187015187e+02 
-5.295655457370e+01 -3.583342925688e+00 0.0 
-3.583342925688e+00 -1.324980522836e+02 0.0 
0.0 0.0 -5.523638205718e+01 
-6.091958883740e+01 2.005065594130e+01 0.0 
2.005065594130e+01 -4.415913448979e+01 0.0 
0.0 0.0 -3.112361699816e+01 
-8.451791036280e+01 2.978198475038e+01 0.0 
2.978198475038e+01 -1.116589385837e+02 0.0 
0.0 0.0 -5.845305468396e+01 
-1.336264683953e+02 4.755645318756e-01 0.0 
4.755645318756e-01 -3.004622997670e+02 0.0 
0.0 0.0 -1.336251128125e+02 
-8.802785014675e+00 6.288269024489e-02 0.0 
6.288269024489e-02 -4.132885099476e+01 0.0 
0.0 0.0 -1.463949080283e+01 
-2.144288474547e+01 1.090472312330e+00 0.0 
1.090472312330e+00 -2.516770029540e+01 0.0 
0.0 0.0 -1.358317551226e+01 
-3.440350839565e+01 -4.183562278378e+00 0.0 
-4.183562278378e+00 -9.357160031834e+01 0.0 
0.0 0.0 -3.799253261420e+01 
-1.070538334104e+02 -1.864226502587e+00 0.0 
-1.864226502587e+00 -2.452236253147e+02 0.0 
0.0 0.0 -1.070286853084e+02 
-6.882489863501e+01 4.361681712987e+00 0.0 
4.361681712987e+00 -1.653315684980e+02 0.0 
0.0 0.0 -6.984694013991e+01 
-6.151643183236e+01 1.264856756803e+00 0.0 
1.264856756803e+00 -1.507089758862e+02 0.0 
0.0 0.0 -6.326762231557e+01 
-4.967987808572e+01 6.838161707136e-01 0.0 
6.838161707136e-01 -1.261723411239e+02 0.0 
0.0 0.0 -5.235566576289e+01 
-1.097332705304e+02 -2.428529620544e+00 0.0 
-2.428529620544e+00 -2.507349388249e+02 0.0 
0.0 0.0 -1.096914553684e+02 
-9.111301407556e+01 3.128623868383e+01 0.0 
3.128623868383e+01 -1.473711185041e+02 0.0 
0.0 0.0 -7.114523977389e+01 
-1.094957400025e+02 -2.749782883602e+00 0.0 
-2.749782883602e+00 -2.502052103793e+02 0.0 
0.0 0.0 -1.094420235013e+02 
-6.661074355688e+01 4.389871912234e+00 0.0 
4.389871912234e+00 -1.607114877878e+02 0.0 
0.0 0.0 -6.779666940342e+01 
-9.887001964201e+01 3.517647252264e+01 0.0 
3.517647252264e+01 -1.917637513948e+02 0.0 
0.0 0.0 -8.695770999386e+01 
-4.930719599248e+01 2.572511456972e+00 0.0 
2.572511456972e+00 -3.926235588863e+01 0.0 
0.0 0.0 -2.617086556433e+01 
-1.202120250718e+02 2.234174788137e+01 0.0 
2.234174788137e+01 -2.620485634864e+02 0.0 
0.0 0.0 -1.167760435213e+02 
-1.113608091800e+02 -1.680298963255e+00 0.0 
-1.680298963255e+00 -2.541815752012e+02 0.0 
0.0 0.0 -1.113410430494e+02 
-1.117065293568e+02 -1.414313990161e+00 0.0 
-1.414313990161e+00 -2.549171405144e+02 0.0 
0.0 0.0 -1.116925632896e+02 
-2.572705345846e+01 1.554672078253e+01 0.0 
1.554672078253e+01 -2.123234666276e+01 0.0 
0.0 0.0 -1.368782003636e+01 
-7.408203072616e+01 4.078995204183e+00 0.0 
4.078995204183e+00 -1.763510063089e+02 0.0 
0.0 0.0 -7.472991111052e+01 
-1.138718232560e+02 -2.550583208998e+00 0.0 
-2.550583208998e+00 -2.593177659459e+02 0.0 
0.0 0.0 -1.138271092183e+02 
-5.531921592462e+01 -2.335218532192e-01 0.0 
-2.335218532192e-01 -7.974890333436e+01 0.0 
0.0 0.0 -4.012043577769e+01 
-4.895800734632e+01 -4.457896403041e-01 0.0 
-4.457896403041e-01 -6.133350122695e+01 0.0 
0.0 0.0 -3.268745257198e+01 
-2.590899597139e+01 1.562387714810e+01 0.0 
1.562387714810e+01 -2.146606598942e+01 0.0 
0.0 0.0 -1.381251858824e+01 
-1.142680165370e+02 -2.401936117475e+00 0.0 
-2.401936117475e+00 -2.601562035170e+02 0.0 
0.0 0.0 -1.142284812313e+02 
-6.259996345280e+01 -1.996929012246e-01 0.0 
-1.996929012246e-01 -1.530122234195e+02 0.0 
0.0 0.0 -6.428365606170e+01 
-2.289039427044e+01 1.464026832482e+01 0.0 
1.464026832482e+01 -5.068528870056e+01 0.0 
0.0 0.0 -2.167270489130e+01 
-1.382815561681e+02 2.565703125682e+01 0.0 
2.565703125682e+01 -2.977451076278e+02 0.0 
0.0 0.0 -1.342551125165e+02 
-2.860742649430e+01 -5.193473428432e+00 0.0 
-5.193473428432e+00 -8.087211249942e+01 0.0 
0.0 0.0 -3.244386169812e+01 
-6.458457033937e+01 -7.272199918834e-01 0.0 
-7.272199918834e-01 -1.571160966961e+02 0.0 
0.0 0.0 -6.611020011065e+01 
-9.449200440858e+01 1.744349055413e+01 0.0 
1.744349055413e+01 -2.113861756130e+02 0.0 
0.0 0.0 -9.194452321911e+01 
-1.837775190191e+01 1.350649992733e+01 0.0 
1.350649992733e+01 -1.623549128586e+01 0.0 
0.0 0.0 -9.983972956329e+00 
-1.153637622558e+02 -1.068526839968e+00 0.0 
-1.068526839968e+00 -2.625287485765e+02 0.0 
0.0 0.0 -1.153560043682e+02 
-4.571838581647e+01 1.249427313915e+00 0.0 
1.249427313915e+00 -1.179004769088e+02 0.0 
0.0 0.0 -4.868565881757e+01 
-6.285406117968e+01 2.111569201853e+01 0.0 
2.111569201853e+01 -4.170354843364e+01 0.0 
0.0 0.0 -3.096728288400e+01 
-1.160985406738e+02 -1.412092335579e+00 0.0 
-1.412092335579e+00 -2.640365744339e+02 0.0 
0.0 0.0 -1.160850632531e+02 
-9.245843352292e+01 4.394851467768e+00 0.0 
4.394851467768e+00 -2.145144124997e+02 0.0 
0.0 0.0 -9.230039339328e+01 
-1.028797257100e+02 -1.266893716480e+00 0.0 
-1.266893716480e+00 -2.365985062644e+02 0.0 
0.0 0.0 -1.028677238383e+02 
-2.140370282445e+01 5.940190503382e+00 0.0 
5.940190503382e+00 -3.054675684119e+01 0.0 
0.0 0.0 -1.518513789969e+01 
-7.345028490041e+01 2.008147717363e+00 0.0 
2.008147717363e+00 -1.397257230581e+02 0.0 
0.0 0.0 -6.355280238755e+01 
-7.509397439112e+01 2.186925559372e+00 0.0 
2.186925559372e+00 -1.788096931291e+02 0.0 
0.0 0.0 -7.577110025608e+01 
-1.373661585918e+02 1.505630797183e+01 0.0 
1.505630797183e+01 -3.040810738716e+02 0.0 
0.0 0.0 -1.360173109532e+02 
-1.036983805059e+02 2.530412302135e+01 0.0 
2.530412302135e+01 -2.224395994679e+02 0.0 
0.0 0.0 -9.853087789777e+01 
-1.187164168653e+02 -2.356347417846e+00 0.0 
-2.356347417846e+00 -2.693994932781e+02 0.0 
0.0 0.0 -1.186795778508e+02 
-1.204955805962e+02 -1.381629227843e+00 0.0 
-1.381629227843e+00 -2.731679445335e+02 0.0 
0.0 0.0 -1.204830783792e+02 
-6.284226685298e+01 2.611994366157e+00 0.0 
2.611994366157e+00 -1.532847620324e+02 0.0 
0.0 0.0 -6.443810866560e+01 
-1.708170677559e+01 -6.230547837925e+00 0.0 
-6.230547837925e+00 -5.548489436499e+01 0.0 
0.0 0.0 -2.136998034217e+01 
-1.873417349194e+01 8.095003182790e+00 0.0 
8.095003182790e+00 -3.003595612396e+01 0.0 
0.0 0.0 -1.423103888477e+01 
-1.231091338917e+02 -2.295747511797e+00 0.0 
-2.295747511797e+00 -2.785279175847e+02 0.0 
0.0 0.0 -1.230752299643e+02 
-1.388063060691e+02 1.169526680093e+01 0.0 
1.169526680093e+01 -3.087559075259e+02 0.0 
0.0 0.0 -1.380052592390e+02 
-6.316603018966e+01 -1.509115188256e+00 0.0 
-1.509115188256e+00 -1.541117420305e+02 0.0 
0.0 0.0 -6.478333166604e+01 
-1.006317895827e+02 3.163027179519e+01 0.0 
3.163027179519e+01 -2.047216695935e+02 0.0 
0.0 0.0 -9.177393922505e+01 
-3.252711232462e+01 1.953801047844e+01 0.0 
1.953801047844e+01 -5.805877467248e+01 0.0 
0.0 0.0 -2.677576609913e+01 
-1.028910404151e+02 3.716277391548e+01 0.0 
3.716277391548e+01 -1.955913806702e+02 0.0 
0.0 0.0 -8.939946474297e+01 
-1.590671844170e+02 8.423952949580e+00 0.0 
8.423952949580e+00 -3.521537093871e+02 0.0 
0.0 0.0 -1.587003622124e+02 
-3.132515375171e+01 4.387482060567e-01 0.0 
4.387482060567e-01 -6.671820151063e+00 0.0 
0.0 0.0 -1.099909217083e+01 
-8.303046330330e+01 3.007159429003e+00 0.0 
3.007159429003e+00 -1.950710810410e+02 0.0 
0.0 0.0 -8.303046330330e+01 
-1.778425402322e+02 7.519955869644e-01 0.0 
7.519955869644e-01 -3.922520830358e+02 0.0 
0.0 0.0 -1.778399028011e+02 
-3.683904382601e+01 6.895704028362e-01 0.0 
6.895704028362e-01 -2.950012578196e+01 0.0 
0.0 0.0 -1.950175088239e+01 
-7.578318088626e+01 5.884368550741e-01 0.0 
5.884368550741e-01 -1.803721023729e+02 0.0 
0.0 0.0 -7.644658497774e+01 
-9.775854172921e+01 2.597988254256e+01 0.0 
2.597988254256e+01 -2.081341143122e+02 0.0 
0.0 0.0 -9.194922929723e+01 
-6.277099899906e+01 4.309262884032e+00 0.0 
4.309262884032e+00 -1.527351737111e+02 0.0 
0.0 0.0 -6.425185181305e+01 
-1.638857655095e+01 -1.501754385053e+00 0.0 
-1.501754385053e+00 -5.690654759210e+01 0.0 
0.0 0.0 -2.158853724292e+01 
-2.054263907808e+01 1.312666894466e+01 0.0 
1.312666894466e+01 -1.572332308160e+01 0.0 
0.0 0.0 -1.047978864790e+01 
-8.199805906725e+01 9.220775600466e+00 0.0 
9.220775600466e+00 -1.587805358438e+02 0.0 
0.0 0.0 -7.183357847332e+01 
-8.934424579190e+01 3.258916423408e+01 0.0 
3.258916423408e+01 -1.309197608682e+02 0.0 
0.0 0.0 -6.567920199802e+01 
-4.635675762851e+01 1.679082066168e+01 0.0 
1.679082066168e+01 -2.482700209903e+01 0.0 
0.0 0.0 -2.095512791826e+01 
-1.478275997664e+02 3.584568399800e+01 0.0 
3.584568399800e+01 -3.061467591022e+02 0.0 
0.0 0.0 -1.400898140285e+02 
-3.627407423879e+01 1.188547638469e+00 0.0 
1.188547638469e+00 -9.829030080039e+01 0.0 
0.0 0.0 -3.996931251175e+01 
-1.496505938911e+02 3.387934741968e+01 0.0 
3.387934741968e+01 -3.129728911306e+02 0.0 
0.0 0.0 -1.429015995662e+02 
-8.658228712546e+01 2.879615431244e+01 0.0 
2.879615431244e+01 -1.288248102067e+02 0.0 
0.0 0.0 -6.422212919966e+01 
-7.615935649698e+01 -8.767633177669e-01 0.0 
-8.767633177669e-01 -1.811407138838e+02 0.0 
0.0 0.0 -7.679002111424e+01 
-9.505756217386e+01 2.352580036659e+01 0.0 
2.352580036659e+01 -2.056411554002e+02 0.0 
0.0 0.0 -9.026070714963e+01 
-6.922951543329e+01 -9.369852101105e-01 0.0 
-9.369852101105e-01 -1.667490140682e+02 0.0 
0.0 0.0 -7.039355885045e+01 
-2.313890679458e+01 1.488829979266e+01 0.0 
1.488829979266e+01 -5.143362743772e+01 0.0 
0.0 0.0 -2.197176026969e+01 
-6.484307404861e+01 -1.893886338455e+00 0.0 
-1.893886338455e+00 -1.575513774097e+02 0.0 
0.0 0.0 -6.631833543750e+01 
-9.580794145940e+01 3.352545710362e+01 0.0 
3.352545710362e+01 -1.655533179934e+02 0.0 
0.0 0.0 -7.800837783583e+01 
-1.526951480631e+02 3.859836921646e-01 0.0 
3.859836921646e-01 -3.400511033059e+02 0.0 
0.0 0.0 -1.526943528774e+02 
-6.866224931544e+01 4.460016377297e-01 0.0 
4.460016377297e-01 -1.655927323917e+02 0.0 
0.0 0.0 -6.987649451213e+01 
-1.038777480062e+02 3.358083078761e+01 0.0 
3.358083078761e+01 -2.083750126974e+02 0.0 
0.0 0.0 -9.401686595689e+01 
-2.420575906531e+01 1.332566305297e-01 0.0 
1.332566305297e-01 -8.612068867709e+00 0.0 
0.0 0.0 -1.034660390315e+01 
-6.768825283876e+01 2.188527995915e+00 0.0 
2.188527995915e+00 -1.634231881025e+02 0.0 
0.0 0.0 -6.893343228237e+01 
-9.987953081324e+01 3.381470776070e+01 0.0 
3.381470776070e+01 -1.578652156187e+02 0.0 
0.0 0.0 -7.692342392957e+01 
-6.447611297648e+01 -2.878858132146e+00 0.0 
-2.878858132146e+00 -1.566321504650e+02 0.0 
0.0 0.0 -6.593247903243e+01 
-5.885502491351e+01 -2.467756646902e+00 0.0 
-2.467756646902e+00 -1.450217696603e+02 0.0 
0.0 0.0 -6.076303837216e+01 
-9.456015355424e+01 2.336195436611e+01 0.0 
2.336195436611e+01 -2.047583849218e+02 0.0 
0.0 0.0 -8.981201816548e+01 
-2.467156521228e+01 -4.571480049915e+00 0.0 
-4.571480049915e+00 -7.295352469233e+01 0.0 
0.0 0.0 -2.888752697138e+01 
-2.232189293594e+01 1.463087566429e+01 0.0 
1.463087566429e+01 -1.901110541758e+01 0.0 
0.0 0.0 -1.199989950606e+01 
-2.411154101791e+01 1.520454784260e+01 0.0 
1.520454784260e+01 -2.055888055031e+01 0.0 
0.0 0.0 -1.300112647047e+01 
-5.552882091821e+01 -3.374789285564e+00 0.0 
-3.374789285564e+00 -1.379091486300e+02 0.0 
0.0 0.0 -5.763139086447e+01 
-1.011258640398e+02 5.492978478004e+00 0.0 
5.492978478004e+00 -2.322879825685e+02 0.0 
0.0 0.0 -1.008962239704e+02 
-8.469658499025e+01 1.576764761718e+01 0.0 
1.576764761718e+01 -1.919010958514e+02 0.0 
0.0 0.0 -8.257930425249e+01 
-1.042651991002e+02 3.418269085934e+01 0.0 
3.418269085934e+01 -2.079727366272e+02 0.0 
0.0 0.0 -9.401204643490e+01 
-1.158197024535e+02 3.900866846391e+01 0.0 
3.900866846391e+01 -2.250468315489e+02 0.0 
0.0 0.0 -1.033190535444e+02 
-1.750199464688e+01 1.336903930572e+01 0.0 
1.336903930572e+01 -1.617671380777e+01 0.0 
0.0 0.0 -9.703612536394e+00 
-6.220476221145e+01 1.770121732057e+00 0.0 
1.770121732057e+00 -9.995452822308e+01 0.0 
0.0 0.0 -4.824778713036e+01 
-1.296707853919e+02 3.801821595180e+01 0.0 
3.801821595180e+01 -2.608015522561e+02 0.0 
0.0 0.0 -1.194456400704e+02 
-5.828166709786e+01 3.095359546082e+00 0.0 
3.095359546082e+00 -1.437041185515e+02 0.0 
0.0 0.0 -6.019573569482e+01 
-2.655343280420e+01 1.715361425809e+01 0.0 
1.715361425809e+01 -3.640233328043e+01 0.0 
0.0 0.0 -1.848672982539e+01 
-3.971677880518e+01 2.265848101923e+01 0.0 
2.265848101923e+01 -6.274121749064e+01 0.0 
0.0 0.0 -3.033739888875e+01 
-9.721073711752e+01 3.902958755478e+00 0.0 
3.902958755478e+00 -2.244986795139e+02 0.0 
0.0 0.0 -9.709117518805e+01 
-1.034207507953e+02 3.650899289131e+01 0.0 
3.650899289131e+01 -1.967192720862e+02 0.0 
0.0 0.0 -8.971607098301e+01 
-9.540390162723e+01 3.419485664402e+00 0.0 
3.419485664402e+00 -2.208288640706e+02 0.0 
0.0 0.0 -9.531074470082e+01 
-2.153398081658e+01 6.677215379084e+00 0.0 
6.677215379084e+00 -5.125671983697e+01 0.0 
0.0 0.0 -2.143721019607e+01 
-1.098789988013e+02 6.613709254799e+00 0.0 
6.613709254799e+00 -2.502094184979e+02 0.0 
0.0 0.0 -1.095679869634e+02 
-2.481259989791e+01 1.577317836156e+01 0.0 
1.577317836156e+01 -5.269641418261e+01 0.0 
0.0 0.0 -2.285270422416e+01 
-8.524485763421e+01 1.542510750271e+01 0.0 
1.542510750271e+01 -1.933896304046e+02 0.0 
0.0 0.0 -8.319034641165e+01 
-1.042732961946e+02 4.373873981092e+00 0.0 
4.373873981092e+00 -2.390924851587e+02 0.0 
0.0 0.0 -1.041315457467e+02 
-1.001168528565e+02 2.264505499599e+01 0.0 
2.264505499599e+01 -2.179767360081e+02 0.0 
0.0 0.0 -9.591568855019e+01 
-5.586971253291e+01 2.385228200336e+00 0.0 
2.385228200336e+00 -7.498504101786e+01 0.0 
0.0 0.0 -3.885642606523e+01 
-5.833851533602e+01 -3.366465892259e+00 0.0 
-3.366465892259e+00 -1.437592256542e+02 0.0 
0.0 0.0 -6.022932229707e+01 
-2.218490434741e+01 1.294963285820e+01 0.0 
1.294963285820e+01 -4.606407974780e+01 0.0 
0.0 0.0 -2.007469522856e+01 
-1.132441723999e+02 5.340018177313e+00 0.0 
5.340018177313e+00 -2.575452547101e+02 0.0 
0.0 0.0 -1.130468291138e+02 
-2.581936452732e+01 1.634149408407e+01 0.0 
1.634149408407e+01 -5.318279547534e+01 0.0 
0.0 0.0 -2.330064800080e+01 
-1.978900771848e+01 2.820430445388e+00 0.0 
2.820430445388e+00 -2.472101262101e+01 0.0 
0.0 0.0 -1.295300610184e+01 
-7.709860741669e+01 5.469449771733e-01 0.0 
5.469449771733e-01 -1.588556990360e+02 0.0 
0.0 0.0 -7.038629193582e+01 
-7.302292980230e+01 1.831046586055e-01 0.0 
1.831046586055e-01 -1.396459115935e+02 0.0 
0.0 0.0 -6.340065241873e+01 
-8.614183277020e+00 -5.153520875047e+00 0.0 
-5.153520875047e+00 -2.493702899688e+01 0.0 
0.0 0.0 -1.004741151574e+01 
-1.187038752157e+02 7.750205065714e+00 0.0 
7.750205065714e+00 -2.682546169347e+02 0.0 
0.0 0.0 -1.183033073332e+02 
-4.382517486505e+01 -4.065658624642e+00 0.0 
-4.065658624642e+00 -1.133073378484e+02 0.0 
0.0 0.0 -4.673975381404e+01 
-4.608886504966e+01 -4.645097145130e+00 0.0 
-4.645097145130e+00 -1.178146081165e+02 0.0 
0.0 0.0 -4.877104194984e+01 
-1.116744378463e+02 3.429798331664e+01 0.0 
3.429798331664e+01 -2.255783306325e+02 0.0 
0.0 0.0 -1.021442373309e+02 
-1.006577409224e+02 2.270570719784e+01 0.0 
2.270570719784e+01 -2.190913843971e+02 0.0 
0.0 0.0 -9.645389476652e+01 
-1.082512833700e+02 3.228383542146e+01 0.0 
3.228383542146e+01 -2.214579413945e+02 0.0 
0.0 0.0 -9.969187084398e+01 
-7.031522527671e+01 2.504652155879e+00 0.0 
2.504652155879e+00 -1.688349254715e+02 0.0 
0.0 0.0 -7.134504522445e+01 
-2.870366903226e+01 -1.742724117808e-01 0.0 
-1.742724117808e-01 -8.107345198371e+00 0.0 
0.0 0.0 -1.064330426919e+01 
-1.625665939393e+02 6.950319469548e+00 0.0 
6.950319469548e+00 -3.597944536188e+02 0.0 
0.0 0.0 -1.623219677550e+02 
-3.701076881291e+01 -4.897507434304e+00 0.0 
-4.897507434304e+00 -9.870120842210e+01 0.0 
0.0 0.0 -4.031359317050e+01 
-1.332626592906e+02 1.667554527358e+01 0.0 
1.667554527358e+01 -2.944605044511e+02 0.0 
0.0 0.0 -1.315556882102e+02 
-8.833862066652e+01 1.801097620450e+01 0.0 
1.801097620450e+01 -1.975464198099e+02 0.0 
0.0 0.0 -8.544485843989e+01 
-2.622718868547e+01 -7.369423532640e-01 0.0 
-7.369423532640e-01 -7.747015088900e+01 0.0 
0.0 0.0 -3.070920187234e+01 
-9.819752382481e+01 3.517444170871e+01 0.0 
3.517444170871e+01 -1.801248365397e+02 0.0 
0.0 0.0 -8.309670810935e+01 
-7.155589556656e+01 3.863461336068e+00 0.0 
3.863461336068e+00 -1.711459944262e+02 0.0 
0.0 0.0 -7.241056699784e+01 
-9.751523701679e+00 -5.968111627322e+00 0.0 
-5.968111627322e+00 -3.978442786485e+01 0.0 
0.0 0.0 -1.446078546996e+01 
-5.900015813411e+01 1.040574575465e+00 0.0 
1.040574575465e+00 -1.455017907629e+02 0.0 
0.0 0.0 -6.095058466912e+01 
-1.293617954714e+02 -1.175317732230e+00 0.0 
-1.175317732230e+00 -2.911888716981e+02 0.0 
0.0 0.0 -1.291616586739e+02 
-9.919634282235e+01 3.683634714177e+01 0.0 
3.683634714177e+01 -1.680802861783e+02 0.0 
0.0 0.0 -7.978298870019e+01 
-2.739366416911e+01 -5.490888436275e+00 0.0 
-5.490888436275e+00 -7.811692946812e+01 0.0 
0.0 0.0 -3.125317809117e+01 
-1.044690399152e+02 -3.427061685091e-01 0.0 
-3.427061685091e-01 -2.364878553309e+02 0.0 
0.0 0.0 -1.028090717941e+02 
-1.071186305880e+02 3.548108381895e+01 0.0 
3.548108381895e+01 -2.119759942248e+02 0.0 
0.0 0.0 -9.624112008538e+01 
-1.244565637945e+02 2.538304194882e+01 0.0 
2.538304194882e+01 -2.680321806768e+02 0.0 
0.0 0.0 -1.201011633503e+02 
-6.018726447194e+01 -2.649316362437e+00 0.0 
-2.649316362437e+00 -1.477584337345e+02 0.0 
0.0 0.0 -6.198370946192e+01 
-4.666514267585e+01 -1.224137952743e+00 0.0 
-1.224137952743e+00 -1.198695242354e+02 0.0 
0.0 0.0 -4.956040007338e+01 
-9.328763675561e+01 1.739218358498e+01 0.0 
1.739218358498e+01 -2.088445997550e+02 0.0 
0.0 0.0 -9.072673663547e+01 
-5.177845716042e+01 8.675462652484e-01 0.0 
8.675462652484e-01 -6.910951319964e+01 0.0 
0.0 0.0 -3.586639110802e+01 
-9.997625125776e+00 -6.576743034303e+00 0.0 
-6.576743034303e+00 -3.950489029303e+01 0.0 
0.0 0.0 -1.445075462564e+01 
-1.367177752572e+02 3.847591775013e+01 0.0 
3.847591775013e+01 -2.764500103389e+02 0.0 
0.0 0.0 -1.268238111347e+02 
-1.175548043797e+02 4.033343952970e+01 0.0 
4.033343952970e+01 -2.260253538414e+02 0.0 
0.0 0.0 -1.042012385418e+02 
-4.157231639327e+01 8.953082894856e-01 0.0 
8.953082894856e-01 -4.130821179436e+01 0.0 
0.0 0.0 -2.446415845629e+01 
-9.794527007676e+01 2.433575439630e+01 0.0 
2.433575439630e+01 -1.846189897220e+02 0.0 
0.0 0.0 -8.436927793963e+01 
-1.289377814960e+02 4.297242045483e+01 0.0 
4.297242045483e+01 -2.480116335783e+02 0.0 
0.0 0.0 -1.150494088849e+02 
-7.267245494863e+01 1.813710467200e+00 0.0 
1.813710467200e+00 -1.738243341147e+02 0.0 
0.0 0.0 -7.354903671899e+01 
-7.114720111704e+01 8.539615125949e-01 0.0 
8.539615125949e-01 -1.707353469287e+02 0.0 
0.0 0.0 -7.216476441371e+01 
-1.505238565324e+02 2.045340213991e+01 0.0 
2.045340213991e+01 -3.284048704502e+02 0.0 
0.0 0.0 -1.482023481881e+02 
-2.190068111813e+01 1.766483902921e+00 0.0 
1.766483902921e+00 -8.480984425152e+00 0.0 
0.0 0.0 -9.665111845771e+00 
-4.093779718745e+01 -1.189177077616e+00 0.0 
-1.189177077616e+00 -1.079774884908e+02 0.0 
0.0 0.0 -4.427458570347e+01 
-1.060489741925e+02 -1.696294686093e+00 0.0 
-1.696294686093e+00 -2.407266625410e+02 0.0 
0.0 0.0 -1.048607218532e+02 
-6.303107327616e+01 -2.622163719386e+00 0.0 
-2.622163719386e+00 -1.536754413166e+02 0.0 
0.0 0.0 -6.461195437781e+01 
-5.970454252973e+01 -5.685287791389e-01 0.0 
-5.685287791389e-01 -1.469912201276e+02 0.0 
0.0 0.0 -6.160872879721e+01 
-1.867314625090e+01 1.357423115878e+01 0.0 
1.357423115878e+01 -1.669760744622e+01 0.0 
0.0 0.0 -1.021122610914e+01 
-2.167081120345e+01 1.469112583240e+01 0.0 
1.469112583240e+01 -1.966786980616e+01 0.0 
0.0 0.0 -1.200160430288e+01 
-5.028500076240e+01 3.686294859639e+00 0.0 
3.686294859639e+00 -4.284921318632e+01 0.0 
0.0 0.0 -2.754026418462e+01 
-6.525175864923e+01 2.683085093567e+00 0.0 
2.683085093567e+00 -1.582809398599e+02 0.0 
0.0 0.0 -6.665980955273e+01 
-5.095021637347e+01 -2.465652645004e+00 0.0 
-2.465652645004e+00 -1.285877721244e+02 0.0 
0.0 0.0 -5.346139654937e+01 
-1.177908268057e+02 2.594557631807e+01 0.0 
2.594557631807e+01 -2.527798423539e+02 0.0 
0.0 0.0 -1.129757120518e+02 
-1.714633543342e+02 5.495459278002e+00 0.0 
5.495459278002e+00 -3.785686078488e+02 0.0 
0.0 0.0 -1.713176369339e+02 
-1.696303417175e+02 6.875725528386e+00 0.0 
6.875725528386e+00 -3.745024402180e+02 0.0 
0.0 0.0 -1.693998443834e+02 
-7.348303920778e+01 1.621442333073e-01 0.0 
1.621442333073e-01 -1.756063392937e+02 0.0 
0.0 0.0 -7.432681355044e+01 
-4.548240182218e+01 1.939163411707e+00 0.0 
1.939163411707e+00 -2.582030521592e+01 0.0 
0.0 0.0 -2.099081211143e+01 
-2.705409287528e+01 1.972232405166e+00 0.0 
1.972232405166e+00 -2.001640930139e+01 0.0 
0.0 0.0 -1.372115065300e+01 
-1.881932454697e+01 1.383618442177e+01 0.0 
1.383618442177e+01 -1.752313203633e+01 0.0 
0.0 0.0 -1.050273697499e+01 
-2.305715602127e+01 -5.103887068025e+00 0.0 
-5.103887068025e+00 -6.920608403896e+01 0.0 
0.0 0.0 -2.727897201807e+01 
-1.938094774515e+01 1.403514016948e+01 0.0 
1.403514016948e+01 -1.809627431672e+01 0.0 
0.0 0.0 -1.084316661856e+01 
-9.757464118430e+01 2.003829745224e+01 0.0 
2.003829745224e+01 -2.154283873867e+02 0.0 
0.0 0.0 -9.426077410457e+01 
-6.029004562059e+01 -1.719749354047e+00 0.0 
-1.719749354047e+00 -1.481145829211e+02 0.0 
0.0 0.0 -6.212138856250e+01 
-6.651009632111e+01 1.087703582808e+00 0.0 
1.087703582808e+00 -1.610926468242e+02 0.0 
0.0 0.0 -6.788082294359e+01 
-2.148036252670e+01 -2.483623540618e+00 0.0 
-2.483623540618e+00 -3.794425122363e+01 0.0 
0.0 0.0 -1.742738412510e+01 
-7.202270060336e+01 2.086961173356e+00 0.0 
2.086961173356e+00 -1.421085240187e+02 0.0 
0.0 0.0 -6.383936738660e+01 
-6.721524657261e+01 -3.706752899935e-01 0.0 
-3.706752899935e-01 -1.625905977469e+02 0.0 
0.0 0.0 -6.854175329584e+01 
-7.869103607252e+01 7.337235953952e+00 0.0 
7.337235953952e+00 -1.569607671423e+02 0.0 
0.0 0.0 -7.029554096445e+01 
-7.103586342663e+01 3.535255787335e+00 0.0 
3.535255787335e+00 -1.267838018051e+02 0.0 
0.0 0.0 -5.894589956953e+01 
-8.825998564463e+01 3.587964013556e+00 0.0 
3.587964013556e+00 -1.967006621138e+02 0.0 
0.0 0.0 -8.508819432753e+01 
-1.770905606473e+02 1.055296660669e+00 0.0 
1.055296660669e+00 -3.906830287575e+02 0.0 
0.0 0.0 -1.770853468686e+02 
-4.167996681473e+01 -4.525683825327e-01 0.0 
-4.525683825327e-01 -4.179838986990e+01 0.0 
0.0 0.0 -2.464350700539e+01 
-7.171543967880e+01 -6.124527493979e-01 0.0 
-6.124527493979e-01 -1.719260347010e+02 0.0 
0.0 0.0 -7.269244231393e+01 
-1.723314031242e+01 1.341097906616e+01 0.0 
1.341097906616e+01 -1.661207313850e+01 0.0 
0.0 0.0 -9.753564035276e+00 
-7.382691609741e+01 -1.212372516077e+00 0.0 
-1.212372516077e+00 -1.762769031562e+02 0.0 
0.0 0.0 -7.463114577607e+01 
-1.743054928607e+02 4.083915744047e+00 0.0 
4.083915744047e+00 -3.846734112558e+02 0.0 
0.0 0.0 -1.742262408196e+02 
-1.965555463039e+01 1.372816925099e+01 0.0 
1.372816925099e+01 -1.719543039866e+01 0.0 
0.0 0.0 -1.065529550872e+01 
-1.902388254323e+01 1.369953811218e+01 0.0 
1.369953811218e+01 -1.725677365048e+01 0.0 
0.0 0.0 -1.048419685811e+01 
-1.362955727020e+02 1.902254196077e+01 0.0 
1.902254196077e+01 -2.992683335746e+02 0.0 
0.0 0.0 -1.341046724746e+02 
-3.881277918073e+01 8.054134701901e-01 0.0 
8.054134701901e-01 -2.605270626852e+01 0.0 
0.0 0.0 -1.905964563478e+01 
-7.791188414879e+01 4.425792102585e+00 0.0 
4.425792102585e+00 -1.587585341801e+02 0.0 
0.0 0.0 -7.060112549866e+01 
-1.080991503554e+02 3.636618258655e+01 0.0 
3.636618258655e+01 -2.122886681675e+02 0.0 
0.0 0.0 -9.666153057624e+01 
-1.324471408887e+02 2.627941492284e+01 0.0 
2.627941492284e+01 -2.844358693618e+02 0.0 
0.0 0.0 -1.280316111792e+02 
-1.146072224207e+02 4.161420885774e+01 0.0 
4.161420885774e+01 -2.077574911564e+02 0.0 
0.0 0.0 -9.662007580408e+01 
-4.391672670057e+01 5.346804272893e-02 0.0 
5.346804272893e-02 -4.514860029052e+01 0.0 
0.0 0.0 -2.631959809733e+01 
-5.431021125101e+01 -3.323118191888e+00 0.0 
-3.323118191888e+00 -1.353855588799e+02 0.0 
0.0 0.0 -5.650873103927e+01 
-5.127125475415e+01 -3.265131622682e+00 0.0 
-3.265131622682e+00 -1.290741248321e+02 0.0 
0.0 0.0 -5.370361387587e+01 
-5.848383869310e+01 2.939398303774e-01 0.0 
2.939398303774e-01 -8.882929791264e+01 0.0 
0.0 0.0 -4.379394098172e+01 
-1.273408817024e+02 2.789074838914e+01 0.0 
2.789074838914e+01 -2.713858435702e+02 0.0 
0.0 0.0 -1.221290981834e+02 
-3.769147306439e+01 5.123778391187e+00 0.0 
5.123778391187e+00 -8.337602681456e+00 0.0 
0.0 0.0 -1.340872272375e+01 
-3.540415776678e+01 1.669574212766e-01 0.0 
1.669574212766e-01 -2.476907703377e+01 0.0 
0.0 0.0 -1.765197044016e+01 
-4.209225252761e+01 6.796635537777e-01 0.0 
6.796635537777e-01 -4.074628345727e+01 0.0 
0.0 0.0 -2.445156079546e+01 
-4.531161403153e+01 1.836071474399e+00 0.0 
1.836071474399e+00 -4.662939100173e+01 0.0 
0.0 0.0 -2.718230150998e+01 
-1.757984936749e+01 -1.972696806057e+00 0.0 
-1.972696806057e+00 -5.926411163333e+01 0.0 
0.0 0.0 -2.265318830025e+01 
-4.661688023686e+01 -3.883000486802e+00 0.0 
-3.883000486802e+00 -1.191950719890e+02 0.0 
0.0 0.0 -4.934358566775e+01 
-8.813740607533e+01 1.242282611954e+01 0.0 
1.242282611954e+01 -1.821762511225e+02 0.0 
0.0 0.0 -8.069409715934e+01 
-5.345968851000e+01 2.599792945645e+00 0.0 
2.599792945645e+00 -6.609550191970e+01 0.0 
0.0 0.0 -3.546655712891e+01 
-1.513417543565e+02 2.526508542195e+01 0.0 
2.526508542195e+01 -3.262424458922e+02 0.0 
0.0 0.0 -1.477652496005e+02 
-1.251875008082e+02 4.399815407866e+01 0.0 
4.399815407866e+01 -2.356190057580e+02 0.0 
0.0 0.0 -1.098014340169e+02 
-1.011984347502e+02 3.777978163706e+01 0.0 
3.777978163706e+01 -1.820841345252e+02 0.0 
0.0 0.0 -8.458477078263e+01 
-9.699519936891e+01 2.438634763420e+01 0.0 
2.438634763420e+01 -1.728741121056e+02 0.0 
0.0 0.0 -8.056079344236e+01 
-7.678960389158e+01 -3.852620319753e+00 0.0 
-3.852620319753e+00 -1.805335871199e+02 0.0 
0.0 0.0 -7.679695730346e+01 
-6.805790769884e+01 -4.115947267988e+00 0.0 
-4.115947267988e+00 -1.638011389046e+02 0.0 
0.0 0.0 -6.915771398104e+01 
-1.544968845659e+02 5.831346938643e+00 0.0 
5.831346938643e+00 -3.432403431625e+02 0.0 
0.0 0.0 -1.543168931085e+02 
-1.749794114592e+01 -9.784608991649e-01 0.0 
-9.784608991649e-01 -2.349154519970e+01 0.0 
0.0 0.0 -1.234953057471e+01 
-4.285467988068e+01 1.059889205021e+00 0.0 
1.059889205021e+00 -1.119718698529e+02 0.0 
0.0 0.0 -4.604796492007e+01 
-1.521230012417e+02 3.507378511297e+01 0.0 
3.507378511297e+01 -3.168507930817e+02 0.0 
0.0 0.0 -1.449660518056e+02 
-1.706713737842e+01 6.646874832827e-01 0.0 
6.646874832827e-01 -5.845340854985e+01 0.0 
0.0 0.0 -2.225616377848e+01 
-3.525218179431e+01 1.029541894914e-01 0.0 
1.029541894914e-01 -2.490053627709e+01 0.0 
0.0 0.0 -1.764581542142e+01 
-1.459869281420e+02 1.628011436285e+01 0.0 
1.628011436285e+01 -3.215218610271e+02 0.0 
0.0 0.0 -1.444897863156e+02 
-1.242496480972e+01 -4.401380405404e+00 0.0 
-4.401380405404e+00 -4.124709994729e+01 0.0 
0.0 0.0 -1.570161942710e+01 
-2.584534637852e-01 -4.472423924164e-02 0.0 
-4.472423924164e-02 -2.359070456720e+01 0.0 
0.0 0.0 -6.754747409295e+00 
-9.835326041906e+01 2.279586834085e+01 0.0 
2.279586834085e+01 -2.087843268786e+02 0.0 
0.0 0.0 -9.174127618930e+01 
-3.026194674469e+01 -5.670875590796e-01 0.0 
-5.670875590796e-01 -8.112844414250e+00 0.0 
0.0 0.0 -1.111243734768e+01 
-8.921485366673e+01 1.635513048106e+01 0.0 
1.635513048106e+01 -1.797377133391e+02 0.0 
0.0 0.0 -8.028577010174e+01 
-1.473169812093e+02 1.863703724519e+01 0.0 
1.863703724519e+01 -3.228693503623e+02 0.0 
0.0 0.0 -1.453602413038e+02 
-2.988389917737e+01 2.363067077347e-01 0.0 
2.363067077347e-01 -7.933179117265e+00 0.0 
0.0 0.0 -1.094512348839e+01 
-2.651263404120e+01 2.436376912291e+00 0.0 
2.436376912291e+00 -2.165890002025e+01 0.0 
0.0 0.0 -1.405146021843e+01 
-8.023771027261e+01 3.475227808102e+00 0.0 
3.475227808102e+00 -1.768645901147e+02 0.0 
0.0 0.0 -7.673069011619e+01 
-2.002530140875e+01 -4.139212953427e-01 0.0 
-4.139212953427e-01 -6.461564560093e+01 0.0 
0.0 0.0 -2.499228410291e+01 
-8.261939752881e+01 1.354017807613e+01 0.0 
1.354017807613e+01 -1.649880969104e+02 0.0 
0.0 0.0 -7.388224833176e+01 
-1.751060627594e+02 2.709438597138e+00 0.0 
2.709438597138e+00 -3.864723794621e+02 0.0 
0.0 0.0 -1.750713370200e+02 
-1.147303672009e+02 4.073339896081e+01 0.0 
4.073339896081e+01 -2.169058486730e+02 0.0 
0.0 0.0 -1.002408124635e+02 
-2.546092585382e+01 -2.434084859730e+00 0.0 
-2.434084859730e+00 -7.554896377214e+01 0.0 
0.0 0.0 -2.990296688779e+01 
-5.845772525809e+01 8.644680151066e+00 0.0 
8.644680151066e+00 -4.865886221054e+01 0.0 
0.0 0.0 -3.173497624059e+01 
-7.716769299240e+01 -1.336530685851e+00 0.0 
-1.336530685851e+00 -1.820370743316e+02 0.0 
0.0 0.0 -7.736143019719e+01 
-1.185425022059e+02 2.622112359710e+01 0.0 
2.622112359710e+01 -2.540932246120e+02 0.0 
0.0 0.0 -1.136470514629e+02 
-1.546259502756e+02 2.784664849212e+01 0.0 
2.784664849212e+01 -3.308485350952e+02 0.0 
0.0 0.0 -1.503303399001e+02 
-6.536989380200e+01 1.060565078116e+00 0.0 
1.060565078116e+00 -1.108423927553e+02 0.0 
0.0 0.0 -5.246368596719e+01 
-1.559598943268e+02 2.455446052222e+01 0.0 
2.455446052222e+01 -3.367557955912e+02 0.0 
0.0 0.0 -1.526844175100e+02 
-1.723216012255e+01 -3.566660022737e-01 0.0 
-3.566660022737e-01 -3.858518874468e+01 0.0 
0.0 0.0 -1.634520466017e+01 
-1.665502513560e+02 4.085776381463e+00 0.0 
4.085776381463e+00 -3.685630203537e+02 0.0 
0.0 0.0 -1.664676489267e+02 
-3.092620190392e+01 -2.286877371871e+00 0.0 
-2.286877371871e+00 -8.697145933940e+01 0.0 
0.0 0.0 -3.496929837300e+01 
-1.682635415210e+01 -4.806986016076e-01 0.0 
-4.806986016076e-01 -5.796909156394e+01 0.0 
0.0 0.0 -2.203863371481e+01 
-1.558021632811e+02 1.460786343031e+01 0.0 
1.460786343031e+01 -3.430188271253e+02 0.0 
0.0 0.0 -1.546692186695e+02 
-1.096172555622e+02 3.498578309432e+01 0.0 
3.498578309432e+01 -2.083593595757e+02 0.0 
0.0 0.0 -9.499298454136e+01 
-9.422660740122e+01 2.233790694683e+01 0.0 
2.233790694683e+01 -1.917929116170e+02 0.0 
0.0 0.0 -8.540585570547e+01 
-3.558704782788e+01 -5.595150575794e-01 0.0 
-5.595150575794e-01 -2.348405719601e+01 0.0 
0.0 0.0 -1.732133150717e+01 
-6.763076941760e+01 1.774098426429e+01 0.0 
1.774098426429e+01 -6.508167589353e+01 0.0 
0.0 0.0 -3.941373359334e+01 
-2.359141641560e+01 1.449715335637e+01 0.0 
1.449715335637e+01 -5.430862246840e+01 0.0 
0.0 0.0 -2.297001166520e+01 
-1.304768589757e+02 4.361581493718e+01 0.0 
4.361581493718e+01 -2.502498168663e+02 0.0 
0.0 0.0 -1.162773765444e+02 
-6.237633242608e+01 -2.627938854475e+00 0.0 
-2.627938854475e+00 -1.507899950162e+02 0.0 
0.0 0.0 -6.354989823269e+01 
-1.873632626856e+01 7.667904554819e+00 0.0 
7.667904554819e+00 -4.081826955836e+01 0.0 
0.0 0.0 -1.746637874807e+01 
-1.235500440882e+02 2.494710357537e+01 0.0 
2.494710357537e+01 -2.665440744820e+02 0.0 
0.0 0.0 -1.193226830324e+02 
-2.862390818914e+01 1.567630013001e-01 0.0 
1.567630013001e-01 -7.469926306534e+00 0.0 
0.0 0.0 -1.042815034870e+01 
-1.003037515648e+02 3.091683531561e+01 0.0 
3.091683531561e+01 -1.911298876814e+02 0.0 
0.0 0.0 -8.703009177387e+01 
-8.660598551607e+01 9.744367122398e-01 0.0 
9.744367122398e-01 -1.940871244746e+02 0.0 
0.0 0.0 -8.380793299721e+01 
-8.317104867642e+01 1.399026259426e+00 0.0 
1.399026259426e+00 -1.953991135783e+02 0.0 
0.0 0.0 -8.317104867642e+01 
9.997858553418e-01 4.064495463763e-02 0.0 
4.064495463763e-02 -6.714469048206e+00 0.0 
0.0 0.0 1.000000000000e+00 
9.954459125917e-01 -2.304911280351e-01 0.0 
-2.304911280351e-01 -1.066559956804e+01 0.0 
0.0 0.0 1.000000000000e+00 
-2.931580732934e+01 4.771013535267e-01 0.0 
4.771013535267e-01 -1.030547818844e+01 0.0 
0.0 0.0 -1.148638565533e+01 
-2.862393847920e+01 -2.445400291027e-01 0.0 
-2.445400291027e-01 -7.389140125432e+00 0.0 
0.0 0.0 -1.040392358139e+01 
-1.782759149032e+02 2.783962630330e-01 0.0 
2.783962630330e-01 -3.931587835739e+02 0.0 
0.0 0.0 -1.782755542213e+02 
-1.767409406825e+02 -5.472691511601e-01 0.0 
-5.472691511601e-01 -3.899689256411e+02 0.0 
0.0 0.0 -1.767395360754e+02 
9.388641836659e-02 -1.009141478432e+00 0.0 
-1.009141478432e+00 -2.272247615506e+01 0.0 
0.0 0.0 -4.464241952440e+00 
-2.366259024425e+01 3.886878564706e-01 0.0 
3.886878564706e-01 -8.213047651524e+00 0.0 
0.0 0.0 -1.006311771594e+01 
-1.603471042080e+02 4.469166513713e-01 0.0 
4.469166513713e-01 -3.559360700122e+02 0.0 
0.0 0.0 -1.603460830182e+02 
-1.328370192590e+02 3.241889790928e+01 0.0 
3.241889790928e+01 -2.775023620886e+02 0.0 
0.0 0.0 -1.259043117517e+02 
-2.504062604889e+01 -5.859287737782e-01 0.0 
-5.859287737782e-01 -7.501828204359e+01 0.0 
0.0 0.0 -2.961767242774e+01 
-1.599470714124e+02 4.049769095446e+00 0.0 
4.049769095446e+00 -3.548500038102e+02 0.0 
0.0 0.0 -1.598629600304e+02 
-1.139248978321e+02 -8.680419008240e-02 0.0 
-8.680419008240e-02 -2.571385367193e+02 0.0 
0.0 0.0 -1.127558844977e+02 
-9.687408744253e+01 5.217901059656e-01 0.0 
5.217901059656e-01 -2.213775054194e+02 0.0 
0.0 0.0 -9.553120009653e+01 
-5.559054088339e+01 1.118810672552e+00 0.0 
1.118810672552e+00 -7.601115467402e+01 0.0 
0.0 0.0 -3.908050866722e+01 
-2.166002737604e+01 -5.076097893648e+00 0.0 
-5.076097893648e+00 -6.626678574316e+01 0.0 
0.0 0.0 -2.597804393576e+01 
-1.096457027991e+02 2.453333869449e+01 0.0 
2.453333869449e+01 -2.366064997193e+02 0.0 
0.0 0.0 -1.050699061249e+02 
-1.827122090594e+01 -1.373530896876e+00 0.0 
-1.373530896876e+00 -6.084979433638e+01 0.0 
0.0 0.0 -2.333630457270e+01 
-8.781042708978e+01 -1.534248512604e+00 0.0 
-1.534248512604e+00 -2.028351980602e+02 0.0 
0.0 0.0 -8.679368754498e+01 
-1.236562727236e+02 4.085544697200e+01 0.0 
4.085544697200e+01 -2.400634404698e+02 0.0 
0.0 0.0 -1.107485022083e+02 
-7.650380758942e+01 1.047071719900e+00 0.0 
1.047071719900e+00 -1.515254580615e+02 0.0 
0.0 0.0 -6.800877969527e+01 
-9.729204909380e+01 -1.364872094901e+00 0.0 
-1.364872094901e+00 -2.202815512232e+02 0.0 
0.0 0.0 -9.500953222298e+01 
-4.743438206402e+01 1.224775789256e+00 0.0 
1.224775789256e+00 -5.528582349354e+01 0.0 
0.0 0.0 -3.041606166727e+01 
-1.302342193783e+02 3.611935335222e+01 0.0 
3.611935335222e+01 -2.656405950665e+02 0.0 
0.0 0.0 -1.212019569348e+02 
-1.166947402312e+02 4.072677711938e+01 0.0 
4.072677711938e+01 -2.227634872740e+02 0.0 
0.0 0.0 -1.028612204903e+02 
-1.106651015951e+02 4.018623833128e+01 0.0 
4.018623833128e+01 -2.024924790799e+02 0.0 
0.0 0.0 -9.370824339758e+01 
-2.942667535316e+01 -7.799496268748e-02 0.0 
-7.799496268748e-02 -8.110671028302e+00 0.0 
0.0 0.0 -1.086120391444e+01 
-1.064338657420e+02 2.181533549806e+01 0.0 
2.181533549806e+01 -2.327512448430e+02 0.0 
0.0 0.0 -1.027724316123e+02 
-1.045242488506e+02 3.529535518280e+01 0.0 
3.529535518280e+01 -2.010611768550e+02 0.0 
0.0 0.0 -9.129685952020e+01 
-4.449543537322e+01 -1.384619720281e+00 0.0 
-1.384619720281e+00 -1.153448995349e+02 0.0 
0.0 0.0 -4.755210047244e+01 
-1.171952093820e+01 -4.545424602044e+00 0.0 
-4.545424602044e+00 -2.643198384882e+01 0.0 
0.0 0.0 -1.104545143611e+01 
-1.261329442455e+02 3.633573610275e+01 0.0 
3.633573610275e+01 -2.557063403595e+02 0.0 
0.0 0.0 -1.166390798163e+02 
-1.322410949960e+02 1.599992070232e+01 0.0 
1.599992070232e+01 -2.927316682706e+02 0.0 
0.0 0.0 -1.306615474448e+02 
-1.487025240261e+01 -5.879547770431e+00 0.0 
-5.879547770431e+00 -5.106095678526e+01 0.0 
0.0 0.0 -1.937936275636e+01 
-6.019192370041e+01 1.802000777280e+00 0.0 
1.802000777280e+00 -9.053632738474e+01 0.0 
0.0 0.0 -4.481847532554e+01 
-1.679589273299e+02 1.504386046335e+00 0.0 
1.504386046335e+00 -3.717073901867e+02 0.0 
0.0 0.0 -1.679478202326e+02 
-1.280603337530e+02 3.311154723934e+01 0.0 
3.311154723934e+01 -2.656801290817e+02 0.0 
0.0 0.0 -1.205080904235e+02 
-1.317406111800e+02 3.500767479055e+01 0.0 
3.500767479055e+01 -2.710056039079e+02 0.0 
0.0 0.0 -1.234358132355e+02 
-1.236429132795e+02 6.134978683960e-01 0.0 
6.134978683960e-01 -2.786074435997e+02 0.0 
0.0 0.0 -1.230983755583e+02 
-1.831191268600e+01 6.444102337878e+00 0.0 
6.444102337878e+00 -2.089760714596e+01 0.0 
0.0 0.0 -1.163964699881e+01 
-1.991418925007e+01 1.398298101658e+01 0.0 
1.398298101658e+01 -1.748248085884e+01 0.0 
0.0 0.0 -1.081900103267e+01 
-3.032578199674e+01 1.826854659825e+01 0.0 
1.826854659825e+01 -5.820479619354e+01 0.0 
0.0 0.0 -2.615917345708e+01 
-6.129274647366e+01 9.976047898150e+00 0.0 
9.976047898150e+00 -4.678124923217e+01 0.0 
0.0 0.0 -3.202219871175e+01 
-1.055445903836e+02 2.178136040100e+01 0.0 
2.178136040100e+01 -2.308538374275e+02 0.0 
0.0 0.0 -1.018664956619e+02 
-8.392582114689e+01 1.137407588564e+01 0.0 
1.137407588564e+01 -1.672116812353e+02 0.0 
0.0 0.0 -7.494125071466e+01 
-1.529212685001e+02 2.102169517547e+01 0.0 
2.102169517547e+01 -3.330777232808e+02 0.0 
0.0 0.0 -1.505008541824e+02 
-1.795304773605e+01 -6.618415365346e+00 0.0 
-6.618415365346e+00 -4.135302826510e+01 0.0 
0.0 0.0 -1.739182280035e+01 
-1.564788468840e+01 -6.631339265725e+00 0.0 
-6.631339265725e+00 -4.235759298962e+01 0.0 
0.0 0.0 -1.700164330341e+01 
-2.225824964388e+01 1.467655702812e+01 0.0 
1.467655702812e+01 -1.924358956852e+01 0.0 
0.0 0.0 -1.205055176372e+01 
-6.136108702127e+01 1.253568648939e+00 0.0 
1.253568648939e+00 -9.571406862723e+01 0.0 
0.0 0.0 -4.672254669455e+01 
-5.717082709448e+01 -1.116214232800e+00 0.0 
-1.116214232800e+00 -1.416972171974e+02 0.0 
0.0 0.0 -5.926041328755e+01 
-1.003214640737e+02 2.805902357296e+01 0.0 
2.805902357296e+01 -1.851732183218e+02 0.0 
0.0 0.0 -8.524840471864e+01 
-2.266939061256e+01 7.865443564885e-01 0.0 
7.865443564885e-01 -7.007653193992e+01 0.0 
0.0 0.0 -2.742377676575e+01 
-1.443079240140e+02 1.987333231051e+01 0.0 
1.987333231051e+01 -3.156437600346e+02 0.0 
0.0 0.0 -1.420330110866e+02 
-4.708223573834e+01 1.132382595113e+00 0.0 
1.132382595113e+00 -4.070049164977e+01 0.0 
0.0 0.0 -2.593481821643e+01 
-1.470379892701e+02 3.089410106162e+01 0.0 
3.089410106162e+01 -3.109971015815e+02 0.0 
0.0 0.0 -1.414099366929e+02 
-1.216711715099e+02 2.885240380880e+01 0.0 
2.885240380880e+01 -2.575869644864e+02 0.0 
0.0 0.0 -1.157999619447e+02 
-6.596462528514e+01 1.512977737861e+01 0.0 
1.512977737861e+01 -5.226537111722e+01 0.0 
0.0 0.0 -3.506899892071e+01 
-1.584126970057e+02 1.094516785656e+01 0.0 
1.094516785656e+01 -3.500062362151e+02 0.0 
0.0 0.0 -1.577894595263e+02 
-1.034138363697e+02 3.117278215880e+01 0.0 
3.117278215880e+01 -2.022136830403e+02 0.0 
0.0 0.0 -9.128825582299e+01 
-8.479372031100e+01 2.203542681057e+00 0.0 
2.203542681057e+00 -1.797889382142e+02 0.0 
0.0 0.0 -7.897479755757e+01 
-2.350177332848e+01 1.486551294079e+01 0.0 
1.486551294079e+01 -1.943171202268e+01 0.0 
0.0 0.0 -1.248004560535e+01 
-9.077560021348e+01 2.189813896960e+01 0.0 
2.189813896960e+01 -1.699464650398e+02 0.0 
0.0 0.0 -7.781661957600e+01 
-1.387925183440e+02 3.948425639808e+01 0.0 
3.948425639808e+01 -2.794241127585e+02 0.0 
0.0 0.0 -1.284651643219e+02 
-1.433325387608e+02 2.015665216003e+01 0.0 
2.015665216003e+01 -3.133669657598e+02 0.0 
0.0 0.0 -1.409757445834e+02 
-1.267113239713e+02 2.740185749651e+01 0.0 
2.740185749651e+01 -2.706022864969e+02 0.0 
0.0 0.0 -1.216697019739e+02 
-1.723337534855e+02 5.537794782406e+00 0.0 
5.537794782406e+00 -3.803706871078e+02 0.0 
0.0 0.0 -1.721864456450e+02 
-1.060015281542e+02 3.740916713014e+01 0.0 
3.740916713014e+01 -1.999857416722e+02 0.0 
0.0 0.0 -9.152263203692e+01 
-1.952853727361e+01 5.481735012857e+00 0.0 
5.481735012857e+00 -1.015121208699e+01 0.0 
0.0 0.0 -9.455667708707e+00 
-2.034040949567e+01 9.569147558228e+00 0.0 
9.569147558228e+00 -4.544654212095e+01 0.0 
0.0 0.0 -1.933608548499e+01 
-1.200813197639e+02 4.205096298807e+01 0.0 
4.205096298807e+01 -2.278466874622e+02 0.0 
0.0 0.0 -1.056147014439e+02 
-6.474058117618e+01 9.707268133639e+00 0.0 
9.707268133639e+00 -6.309991126870e+01 0.0 
0.0 0.0 -3.795214773347e+01 
-1.617901265219e+02 9.269223217067e-01 0.0 
9.269223217067e-01 -3.589215570654e+02 0.0 
0.0 0.0 -1.617857681809e+02 
-1.308067939307e+02 3.040271195424e+01 0.0 
3.040271195424e+01 -2.757966107490e+02 0.0 
0.0 0.0 -1.246897653365e+02 
-1.662144712427e+02 4.402287211618e+00 0.0 
4.402287211618e+00 -3.678244714202e+02 0.0 
0.0 0.0 -1.661183901896e+02 
-6.838493999872e+01 2.428817792159e+00 0.0 
2.428817792159e+00 -1.173694040695e+02 0.0 
0.0 0.0 -5.532630322048e+01 
-1.488278021417e+02 2.908742750053e+01 0.0 
2.908742750053e+01 -3.169852014883e+02 0.0 
0.0 0.0 -1.439384953331e+02 
-1.546245823918e+02 9.184529265735e+00 0.0 
9.184529265735e+00 -3.426825942990e+02 0.0 
0.0 0.0 -1.541770857722e+02 
-1.536978068122e+02 8.564374128474e+00 0.0 
8.564374128474e+00 -3.409325844893e+02 0.0 
0.0 0.0 -1.533068768850e+02 
-5.900587083638e+01 -7.886748729543e-01 0.0 
-7.886748729543e-01 -1.455300382601e+02 0.0 
0.0 0.0 -6.096077272894e+01 
-1.728853821723e+02 4.877323495064e+00 0.0 
4.877323495064e+00 -3.816186374059e+02 0.0 
0.0 0.0 -1.727714793321e+02 
-4.120870784820e+01 2.165188482640e+00 0.0 
2.165188482640e+00 -2.555290930641e+01 0.0 
0.0 0.0 -1.962848514638e+01 
-8.071498240801e+01 6.346831172023e+00 0.0 
6.346831172023e+00 -1.602894867712e+02 0.0 
0.0 0.0 -7.190134075375e+01 
-1.094330618461e+01 -6.770990451062e+00 0.0 
-6.770990451062e+00 -4.134390952625e+01 0.0 
0.0 0.0 -1.528616471326e+01 
-7.667827934506e+01 2.976658905449e+00 0.0 
2.976658905449e+00 -1.444569610888e+02 0.0 
0.0 0.0 -6.594057213016e+01 
-6.169669125389e+01 1.925786852812e+00 0.0 
1.925786852812e+00 -9.262874789391e+01 0.0 
0.0 0.0 -4.589763174434e+01 
-8.937088527335e+00 2.213668362622e-01 0.0 
2.213668362622e-01 -4.160342838654e+01 0.0 
0.0 0.0 -1.476215507416e+01 
-2.036966619272e+01 -2.663338047918e+00 0.0 
-2.663338047918e+00 -6.485361953321e+01 0.0 
0.0 0.0 -2.516698571778e+01 
-1.086865393271e+02 3.633689700069e+01 0.0 
3.633689700069e+01 -2.138185541356e+02 0.0 
0.0 0.0 -9.734984555165e+01 
-8.545288562924e+01 1.582544350986e+01 0.0 
1.582544350986e+01 -1.815920935754e+02 0.0 
0.0 0.0 -7.971349376138e+01 
-7.999288364432e+01 3.446622720140e+00 0.0 
3.446622720140e+00 -1.628968689128e+02 0.0 
0.0 0.0 -7.246692576713e+01 
-1.457184382128e+02 2.676520131991e+01 0.0 
2.676520131991e+01 -3.126954410323e+02 0.0 
0.0 0.0 -1.415330788125e+02 
-4.787222343597e+01 3.486128721842e-01 0.0 
3.486128721842e-01 -5.426517966409e+01 0.0 
0.0 0.0 -3.024122093002e+01 
-6.446871280420e+00 -2.804585557339e+00 0.0 
-2.804585557339e+00 -2.616842014937e+01 0.0 
0.0 0.0 -9.384587428938e+00 
-2.231285519825e+01 4.484217464017e+00 0.0 
4.484217464017e+00 -3.453385302373e+01 0.0 
0.0 0.0 -1.665401246660e+01 
-6.427416546032e+00 -3.365521304655e+00 0.0 
-3.365521304655e+00 -2.946385634123e+01 0.0 
0.0 0.0 -1.035879672331e+01 
-1.770203457262e+01 -5.575446994952e+00 0.0 
-5.575446994952e+00 -5.744384451318e+01 0.0 
0.0 0.0 -2.214376372574e+01 
-1.761085430600e+01 9.161346848524e+00 0.0 
9.161346848524e+00 -7.054039691982e+00 0.0 
0.0 0.0 -7.195089998715e+00 
-8.482780637097e+01 -3.205276762707e+00 0.0 
-3.205276762707e+00 -1.967336976844e+02 0.0 
0.0 0.0 -8.406845121662e+01 
-1.610449245075e+02 -4.622159528619e-01 0.0 
-4.622159528619e-01 -3.573845573792e+02 0.0 
0.0 0.0 -1.610438363808e+02 
-1.120424179682e+02 3.933474524659e+01 0.0 
3.933474524659e+01 -2.145939781903e+02 0.0 
0.0 0.0 -9.869291038464e+01 
-7.604392685111e+01 2.192150155028e+01 0.0 
2.192150155028e+01 -7.627007595005e+01 0.0 
0.0 0.0 -4.529420084035e+01 
-7.299990985017e+01 -1.838989953368e+00 0.0 
-1.838989953368e+00 -1.745016870819e+02 0.0 
0.0 0.0 -7.385047907962e+01 
-1.552524847142e+02 6.723926026438e+00 0.0 
6.723926026438e+00 -3.446292103362e+02 0.0 
0.0 0.0 -1.550140481847e+02 
-1.466946388261e+02 1.304972974350e+01 0.0 
1.304972974350e+01 -3.246686782409e+02 0.0 
0.0 0.0 -1.457428731138e+02 
-1.432648825431e+02 3.118317519705e+01 0.0 
3.118317519705e+01 -3.023454230854e+02 0.0 
0.0 0.0 -1.373707041991e+02 
-1.328478432244e+02 3.748849057162e+01 0.0 
3.748849057162e+01 -2.692447271997e+02 0.0 
0.0 0.0 -1.232233167845e+02 
-1.172771345934e+02 3.770121843510e+01 0.0 
3.770121843510e+01 -2.317666047845e+02 0.0 
0.0 0.0 -1.059774201131e+02 
-1.114198313748e+01 -6.026424241831e+00 0.0 
-6.026424241831e+00 -4.152980454818e+01 0.0 
0.0 0.0 -1.540153630570e+01 
-2.370098652567e+01 -2.818974905979e-01 0.0 
-2.818974905979e-01 -3.369745478451e+01 0.0 
0.0 0.0 -1.681953239305e+01 
-1.610995120218e+02 1.468632136919e+00 0.0 
1.468632136919e+00 -3.574674448080e+02 0.0 
0.0 0.0 -1.610885287636e+02 
-9.227563442121e+00 -2.120562003200e-01 0.0 
-2.120562003200e-01 -4.220688208186e+01 0.0 
0.0 0.0 -1.503033365719e+01 
-1.247125548764e+01 -8.513839461376e-01 0.0 
-8.513839461376e-01 -4.888386591921e+01 0.0 
0.0 0.0 -1.800653642206e+01 
-2.166382655059e+01 1.207180194431e+01 0.0 
1.207180194431e+01 -2.627465134299e+01 0.0 
0.0 0.0 -1.398154336807e+01 
-1.018239379049e+01 -2.534627698897e+00 0.0 
-2.534627698897e+00 -4.020427551918e+01 0.0 
0.0 0.0 -1.471600079290e+01 
-1.613901781069e+02 9.656642567234e+00 0.0 
9.656642567234e+00 -3.566391284090e+02 0.0 
0.0 0.0 -1.609137414671e+02 
-1.352467195736e+02 4.238708956051e+01 0.0 
4.238708956051e+01 -2.650165397500e+02 0.0 
0.0 0.0 -1.226286173425e+02 
-8.120183085387e+01 9.391383509590e+00 0.0 
9.391383509590e+00 -1.662093833688e+02 0.0 
0.0 0.0 -7.382336426679e+01 
-1.462491640011e+02 3.280921856946e+01 0.0 
3.280921856946e+01 -3.068493946773e+02 0.0 
0.0 0.0 -1.398050959812e+02 
-1.428502946659e+02 1.439894860586e+01 0.0 
1.439894860586e+01 -3.159563515188e+02 0.0 
0.0 0.0 -1.416607652840e+02 
-5.203452408434e+01 5.681954274447e-01 0.0 
5.681954274447e-01 -6.575572067010e+01 0.0 
0.0 0.0 -3.493707342633e+01 
-9.300466643191e+01 2.212883627473e+01 0.0 
2.212883627473e+01 -2.029481548602e+02 0.0 
0.0 0.0 -8.871784116603e+01 
-3.083993721058e+01 -4.955857319112e+00 0.0 
-4.955857319112e+00 -8.571319474204e+01 0.0 
0.0 0.0 -3.456593958578e+01 
-2.838772479924e+01 -1.187700705830e-01 0.0 
-1.187700705830e-01 -7.178677820218e+00 0.0 
0.0 0.0 -1.026992078584e+01 
-1.816190569380e+01 -7.478691541387e+00 0.0 
-7.478691541387e+00 -5.642212094551e+01 0.0 
0.0 0.0 -2.197520799179e+01 
-2.013029973145e+00 -9.860846969505e-01 0.0 
-9.860846969505e-01 -2.711454176528e+01 0.0 
0.0 0.0 -8.885131402007e+00 
-1.745994662023e+02 2.840674656043e+00 0.0 
2.840674656043e+00 -3.854097657081e+02 0.0 
0.0 0.0 -1.745611949801e+02 
-6.192286683413e+01 1.299176822509e+01 0.0 
1.299176822509e+01 -3.832634054712e+01 0.0 
0.0 0.0 -2.967476221437e+01 
-1.570931709433e+01 -3.145090423713e-01 0.0 
-3.145090423713e-01 -5.565975124954e+01 0.0 
0.0 0.0 -2.101072050316e+01 
-8.089795814377e+01 -3.014500554758e+00 0.0 
-3.014500554758e+00 -1.880715614333e+02 0.0 
0.0 0.0 -8.029085587311e+01 
-1.323211588543e+02 4.239244245668e+01 0.0 
4.239244245668e+01 -2.578425668318e+02 0.0 
0.0 0.0 -1.193453119406e+02 
-8.815640223292e+01 1.542945018261e+01 0.0 
1.542945018261e+01 -1.680990940091e+02 0.0 
0.0 0.0 -7.647664887260e+01 
-1.034392553825e+02 3.386832708890e+01 0.0 
3.386832708890e+01 -2.066683711044e+02 0.0 
0.0 0.0 -9.331949407672e+01 
-5.196245277167e+01 8.092349377343e-01 0.0 
8.092349377343e-01 -1.309043141509e+02 0.0 
0.0 0.0 -5.446003007678e+01 
-2.090278984533e+01 1.959284170538e+00 0.0 
1.959284170538e+00 -3.501028661614e+01 0.0 
0.0 0.0 -1.637392293844e+01 
-1.640648190352e+02 5.484688504396e+00 0.0 
5.484688504396e+00 -3.631929489342e+02 0.0 
0.0 0.0 -1.639138658718e+02 
-8.885318404845e+01 1.903249065688e+00 0.0 
1.903249065688e+00 -1.977344519714e+02 0.0 
0.0 0.0 -8.557629080594e+01 
-1.773345113859e+02 6.944517402307e-01 0.0 
6.944517402307e-01 -3.911985782547e+02 0.0 
0.0 0.0 -1.773322564108e+02 
-3.396357166920e+01 -4.863433700920e-01 0.0 
-4.863433700920e-01 -2.175618730951e+01 0.0 
0.0 0.0 -1.631592769361e+01 
-1.498070660918e+02 1.501529492384e+01 0.0 
1.501529492384e+01 -3.302404469544e+02 0.0 
0.0 0.0 -1.485660596680e+02 
-1.744712664053e+01 2.112064902056e-01 0.0 
2.112064902056e-01 -5.927182451340e+01 0.0 
0.0 0.0 -2.261568534618e+01 
-9.478918423684e+01 2.576099080089e+01 0.0 
2.576099080089e+01 -1.830748856463e+02 0.0 
0.0 0.0 -8.295922096493e+01 
-2.655050717115e+00 -8.151852450599e-01 0.0 
-8.151852450599e-01 -2.363207501851e+01 0.0 
0.0 0.0 -7.993895468224e+00 
-1.593584702696e+02 1.306072764780e+01 0.0 
1.306072764780e+01 -3.511636752205e+02 0.0 
0.0 0.0 -1.584732028013e+02 
-1.099597553008e+02 3.749717032731e+01 0.0 
3.749717032731e+01 -2.141353164611e+02 0.0 
0.0 0.0 -9.786673915547e+01 
-1.829834315906e+01 3.815632180009e+00 0.0 
3.815632180009e+00 -2.206577325910e+01 0.0 
0.0 0.0 -1.221850646007e+01 
-1.279485555488e+02 3.360558610800e+01 0.0 
3.360558610800e+01 -2.646393750491e+02 0.0 
0.0 0.0 -1.201334082397e+02 
-6.612860200201e+01 3.129062340751e+00 0.0 
3.129062340751e+00 -1.074410701932e+02 0.0 
0.0 0.0 -5.167090165856e+01 
-8.285142593003e+01 1.156471897469e+01 0.0 
1.156471897469e+01 -1.807004221494e+02 0.0 
0.0 0.0 -7.866555442382e+01 
-1.589851657204e+02 2.639930507731e+01 0.0 
2.639930507731e+01 -3.416086868997e+02 0.0 
0.0 0.0 -1.552455668745e+02 
-5.566687025775e+01 1.738042815472e+00 0.0 
1.738042815472e+00 -7.986407979390e+01 0.0 
0.0 0.0 -4.025928501549e+01 
-1.330472219030e+02 4.309218473430e+01 0.0 
4.309218473430e+01 -2.579782959812e+02 0.0 
0.0 0.0 -1.196254760631e+02 
-1.072589445656e+02 3.374326157110e+01 0.0 
3.374326157110e+01 -1.953611353285e+02 0.0 
0.0 0.0 -9.038602396825e+01 
-5.887223461946e+01 1.410735992724e+00 0.0 
1.410735992724e+00 -9.124844261916e+01 0.0 
0.0 0.0 -4.463620317159e+01 
-1.274427329598e+02 4.126102163841e+01 0.0 
4.126102163841e+01 -2.484788408542e+02 0.0 
0.0 0.0 -1.147152630833e+02 
-6.723545459395e+01 -9.479731076713e-01 0.0 
-9.479731076713e-01 -1.609814721144e+02 0.0 
0.0 0.0 -6.806507801251e+01 
-2.823036428474e+01 5.494921024670e-02 0.0 
5.494921024670e-02 -7.233750877135e+00 0.0 
0.0 0.0 -1.023923454856e+01 
-1.381759424106e+02 3.144764182820e+01 0.0 
3.144764182820e+01 -2.907556767353e+02 0.0 
0.0 0.0 -1.319485507224e+02 
-8.245346877710e+01 9.149592315184e-01 0.0 
9.149592315184e-01 -1.810120073881e+02 0.0 
0.0 0.0 -7.863964284955e+01 
9.997301755014e-01 -5.013984862194e-02 0.0 
-5.013984862194e-02 -8.317183697367e+00 0.0 
0.0 0.0 1.000000000000e+00 
-2.795373361043e+01 -8.172427858794e-02 0.0 
-8.172427858794e-02 -6.999030106445e+00 0.0 
0.0 0.0 -1.008582911506e+01 
-1.716290860814e+02 7.222637909559e-01 0.0 
7.222637909559e-01 -3.793531770160e+02 0.0 
0.0 0.0 -1.716265747758e+02 
-2.541355053827e+01 -2.460148807161e+00 0.0 
-2.460148807161e+00 -7.544237781227e+01 0.0 
0.0 0.0 -2.985677850516e+01 
-1.444395453119e+02 1.763732726380e+01 0.0 
1.763732726380e+01 -3.174399638878e+02 0.0 
0.0 0.0 -1.426597369295e+02 
-1.149784795749e+02 3.899992590921e+01 0.0 
3.899992590921e+01 -2.076190021650e+02 0.0 
0.0 0.0 -9.637924452197e+01 
-8.768403803720e+01 1.092466915905e+01 0.0 
1.092466915905e+01 -1.813877064905e+02 0.0 
0.0 0.0 -8.032152335830e+01 
-2.268830877133e+01 -9.760114767466e-01 0.0 
-9.760114767466e-01 -7.009415176782e+01 0.0 
0.0 0.0 -2.743473816174e+01 
-2.353685146624e+01 8.292402222932e+00 0.0 
8.292402222932e+00 -4.123021830750e+01 0.0 
0.0 0.0 -1.903012093212e+01 
-1.009350103343e+02 -1.804191367405e+00 0.0 
-1.804191367405e+00 -2.301058105827e+02 0.0 
0.0 0.0 -9.974661570341e+01 
-7.033405519171e+01 1.661951688478e+00 0.0 
1.661951688478e+00 -1.292323754661e+02 0.0 
0.0 0.0 -5.946992919735e+01 
-3.359273304513e+01 1.430302510069e-01 0.0 
1.430302510069e-01 -5.413580035039e+00 0.0 
0.0 0.0 -1.130189392405e+01 
-9.534167063335e+01 2.896981010704e+01 0.0 
2.896981010704e+01 -1.974258830221e+02 0.0 
0.0 0.0 -8.767693704467e+01 
-5.278918734200e+01 7.345322645248e-01 0.0 
7.345322645248e-01 -7.341648010075e+01 0.0 
0.0 0.0 -3.746170023283e+01 
-2.307456849760e+01 -6.150922353517e+00 0.0 
-6.150922353517e+00 -6.843786671034e+01 0.0 
0.0 0.0 -2.705373056238e+01 
-4.855570444788e+01 7.740805683211e-01 0.0 
7.740805683211e-01 -5.942522913493e+01 0.0 
0.0 0.0 -3.199428007484e+01 
-1.417312323372e+02 3.394331600539e+01 0.0 
3.394331600539e+01 -2.952348911101e+02 0.0 
0.0 0.0 -1.345605259206e+02 
-1.064676882524e+02 9.967611914105e-01 0.0 
9.967611914105e-01 -2.414588511062e+02 0.0 
0.0 0.0 -1.052066646532e+02 
-1.982882609329e+01 1.005372359744e+01 0.0 
1.005372359744e+01 -1.267218907722e+01 0.0 
0.0 0.0 -9.324301875779e+00 
-5.972870815330e+01 -2.624003195456e+00 0.0 
-2.624003195456e+00 -1.464108908491e+02 0.0 
0.0 0.0 -6.144187970071e+01 
-9.202501898509e+01 -2.989771699369e+00 0.0 
-2.989771699369e+00 -2.115598046051e+02 0.0 
0.0 0.0 -9.083706152497e+01 
-1.112983255270e+02 -1.782452226434e+00 0.0 
-1.782452226434e+00 -2.510041126310e+02 0.0 
0.0 0.0 -1.098119242508e+02 
-1.409957890069e+02 2.831573807163e+01 0.0 
2.831573807163e+01 -3.007873129936e+02 0.0 
0.0 0.0 -1.361265003777e+02 
-8.963982608964e+01 -3.844543401126e-01 0.0 
-3.844543401126e-01 -2.059973044656e+02 0.0 
0.0 0.0 -8.829113916657e+01 
-9.593392447170e+01 -2.119194821517e+00 0.0 
-2.119194821517e+00 -2.186903847369e+02 0.0 
0.0 0.0 -9.425340613325e+01 
-9.290862562652e+00 -2.785382984442e+00 0.0 
-2.785382984442e+00 -3.849613405183e+01 0.0 
0.0 0.0 -1.393609898434e+01 
-1.591476159490e+02 3.197924075296e+00 0.0 
3.197924075296e+00 -3.532870496397e+02 0.0 
0.0 0.0 -1.590949530520e+02 
-1.252988179391e+02 3.589815749632e+01 0.0 
3.589815749632e+01 -2.545721293795e+02 0.0 
0.0 0.0 -1.159991836907e+02 
-2.025186882883e+01 8.606579643212e+00 0.0 
8.606579643212e+00 -5.238300701561e+01 0.0 
0.0 0.0 -2.139046275333e+01 
-8.142296677978e+01 1.961752425110e+00 0.0 
1.961752425110e+00 -1.799350465419e+02 0.0 
0.0 0.0 -7.800740399650e+01 
-1.712328485875e+02 -2.094220336529e-01 0.0 
-2.094220336529e-01 -3.785376516490e+02 0.0 
0.0 0.0 -1.712326370268e+02 
-3.478014303199e+01 6.229215252602e-01 0.0 
6.229215252602e-01 -2.290923989509e+01 0.0 
0.0 0.0 -1.690681487813e+01 
-5.383651725054e+01 6.532359316104e-01 0.0 
6.532359316104e-01 -7.381969513790e+01 0.0 
0.0 0.0 -3.789686371653e+01 
-8.951335343594e+01 -2.678731495807e+00 0.0 
-2.678731495807e+00 -2.055773418038e+02 0.0 
0.0 0.0 -8.812720857192e+01 
-9.333593443593e+01 -1.210925004667e+00 0.0 
-1.210925004667e+00 -2.133980517113e+02 0.0 
0.0 0.0 -9.169241024225e+01 
-9.554217241565e+01 -1.144462733311e+00 0.0 
-1.144462733311e+00 -2.193885865785e+02 0.0 
0.0 0.0 -9.457719937501e+01 
-1.397820790408e+02 1.749633948530e+01 0.0 
1.749633948530e+01 -3.076974576523e+02 0.0 
0.0 0.0 -1.379783814120e+02 
-1.557688546417e+01 -5.815874520674e+00 0.0 
-5.815874520674e+00 -5.265196347168e+01 0.0 
0.0 0.0 -2.006865468076e+01 
-1.288897221622e+02 3.810223446859e+01 0.0 
3.810223446859e+01 -2.587926751834e+02 0.0 
0.0 0.0 -1.185386451145e+02 
-4.067648603071e+01 8.554921404628e-02 0.0 
8.554921404628e-02 -3.953498369479e+01 0.0 
0.0 0.0 -2.366344091765e+01 
-1.020751930363e+02 2.824430803239e+01 0.0 
2.824430803239e+01 -1.975098761750e+02 0.0 
0.0 0.0 -8.947552076341e+01 
-1.409349655042e+02 1.777797585405e+01 0.0 
1.777797585405e+01 -3.099492084860e+02 0.0 
0.0 0.0 -1.390852111360e+02 
-5.078035668237e+01 1.397263237802e+00 0.0 
1.397263237802e+00 -6.070782007314e+01 0.0 
0.0 0.0 -3.304645302665e+01 
-1.205816708990e+02 3.964981773351e+01 0.0 
3.964981773351e+01 -2.353469201129e+02 0.0 
0.0 0.0 -1.082156492604e+02 
-1.409540388788e+02 2.777157154830e+01 0.0 
2.777157154830e+01 -3.013023305119e+02 0.0 
0.0 0.0 -1.362803571235e+02 
-1.446128043076e+02 2.987686342413e+01 0.0 
2.987686342413e+01 -3.068921733320e+02 0.0 
0.0 0.0 -1.392870311456e+02 
-1.978892092930e+01 9.772708929644e+00 0.0 
9.772708929644e+00 -1.819687280409e+01 0.0 
0.0 0.0 -1.120977098108e+01 
-1.214362478552e+02 4.033979765753e+01 0.0 
4.033979765753e+01 -2.357928139809e+02 0.0 
0.0 0.0 -1.086384255029e+02 
-1.268413817203e+02 4.042717889190e+01 0.0 
4.042717889190e+01 -2.489383184253e+02 0.0 
0.0 0.0 -1.146691406980e+02 
-8.837557520992e+00 -1.109218196364e+00 0.0 
-1.109218196364e+00 -3.968201485908e+01 0.0 
0.0 0.0 -1.415587171402e+01 
-8.503750911911e+01 -1.228427390357e+00 0.0 
-1.228427390357e+00 -1.962171011787e+02 0.0 
0.0 0.0 -8.397638308934e+01 
-2.112290317673e+01 7.744789940868e+00 0.0 
7.744789940868e+00 -1.698459764385e+01 0.0 
0.0 0.0 -1.103225024618e+01 
-1.258389967255e+02 4.209690129836e+01 0.0 
4.209690129836e+01 -2.424332868492e+02 0.0 
0.0 0.0 -1.122285189558e+02 

TENSORS element_materi_strain_total float
-3.454586565192e-04 2.478351251214e-03 0.0 
2.478351251214e-03 6.364345132680e-03 0.0 
0.0 0.0 0.0 
-4.998908685443e-04 2.206410054695e-03 0.0 
2.206410054695e-03 6.197685911462e-03 0.0 
0.0 0.0 0.0 
-3.860449216297e-05 4.628476458586e-03 0.0 
4.628476458586e-03 1.344055710063e-02 0.0 
0.0 0.0 0.0 
-5.477442585038e-04 3.645146517025e-04 0.0 
3.645146517025e-04 1.735805241109e-02 0.0 
0.0 0.0 0.0 
-1.716447084842e-03 9.682223907146e-05 0.0 
9.682223907146e-05 1.523940212156e-02 0.0 
0.0 0.0 0.0 
-2.957956831934e-04 6.574848321907e-04 0.0 
6.574848321907e-04 1.278171274276e-03 0.0 
0.0 0.0 0.0 
-1.622515132196e-03 8.696045726172e-05 0.0 
8.696045726172e-05 1.521192228785e-02 0.0 
0.0 0.0 0.0 
-4.391609340985e-04 2.505792698280e-03 0.0 
2.505792698280e-03 5.740263290193e-03 0.0 
0.0 0.0 0.0 
-1.706395127903e-03 3.010322249866e-05 0.0 
3.010322249866e-05 1.521822662496e-02 0.0 
0.0 0.0 0.0 
-5.411071670971e-04 6.639828193216e-04 0.0 
6.639828193216e-04 1.734184606868e-02 0.0 
0.0 0.0 0.0 
-2.017654388098e-04 -9.104236964079e-05 0.0 
-9.104236964079e-05 5.038212677234e-03 0.0 
0.0 0.0 0.0 
-4.282829204245e-04 1.899988701667e-03 0.0 
1.899988701667e-03 5.403181740198e-03 0.0 
0.0 0.0 0.0 
1.234276707713e-04 7.369383142023e-05 0.0 
7.369383142023e-05 6.951967873361e-03 0.0 
0.0 0.0 0.0 
-2.176870861625e-03 5.629574682096e-04 0.0 
5.629574682096e-04 1.563518891241e-02 0.0 
0.0 0.0 0.0 
5.371023647949e-05 4.114366261220e-05 0.0 
4.114366261220e-05 7.179231575141e-03 0.0 
0.0 0.0 0.0 
-3.290389445134e-04 5.454635474811e-04 0.0 
5.454635474811e-04 1.742151740331e-02 0.0 
0.0 0.0 0.0 
-1.795836275606e-03 1.178939651678e-04 0.0 
1.178939651678e-04 1.514255769087e-02 0.0 
0.0 0.0 0.0 
-1.359730538277e-04 2.564770231391e-04 0.0 
2.564770231391e-04 1.176254794552e-03 0.0 
0.0 0.0 0.0 
1.223460785251e-03 2.664719751047e-05 0.0 
2.664719751047e-05 5.921702512710e-04 0.0 
0.0 0.0 0.0 
1.007622594670e-03 -3.135918261200e-05 0.0 
-3.135918261200e-05 6.882256872833e-04 0.0 
0.0 0.0 0.0 
-6.762624377735e-04 6.518203324793e-04 0.0 
6.518203324793e-04 1.734484965463e-02 0.0 
0.0 0.0 0.0 
-3.651218777796e-04 2.433749994108e-03 0.0 
2.433749994108e-03 7.511551409835e-03 0.0 
0.0 0.0 0.0 
-7.029179960248e-04 2.955560115596e-03 0.0 
2.955560115596e-03 7.994765083605e-03 0.0 
0.0 0.0 0.0 
8.092991094655e-04 1.285947474650e-03 0.0 
1.285947474650e-03 7.336609367258e-03 0.0 
0.0 0.0 0.0 
-2.354956477916e-03 1.346483801129e-03 0.0 
1.346483801129e-03 1.558404878272e-02 0.0 
0.0 0.0 0.0 
-2.053236350016e-04 -1.184486924618e-04 0.0 
-1.184486924618e-04 5.234082798469e-03 0.0 
0.0 0.0 0.0 
-3.246210223496e-03 1.252357532668e-03 0.0 
1.252357532668e-03 1.524503118607e-02 0.0 
0.0 0.0 0.0 
7.330528526575e-04 3.774220699035e-03 0.0 
3.774220699035e-03 1.044381102848e-02 0.0 
0.0 0.0 0.0 
-2.629286979191e-03 1.601343700781e-03 0.0 
1.601343700781e-03 1.556263957506e-02 0.0 
0.0 0.0 0.0 
6.905739388217e-04 1.262946434771e-03 0.0 
1.262946434771e-03 7.637530281877e-03 0.0 
0.0 0.0 0.0 
3.046831644140e-04 -3.698467159205e-04 0.0 
-3.698467159205e-04 1.131362101289e-03 0.0 
0.0 0.0 0.0 
1.327077324835e-04 -3.222236978383e-04 0.0 
-3.222236978383e-04 2.752457768769e-04 0.0 
0.0 0.0 0.0 
-6.523547728997e-04 4.789688174194e-03 0.0 
4.789688174194e-03 1.376641847740e-02 0.0 
0.0 0.0 0.0 
-1.563583189660e-04 -6.845397761001e-05 0.0 
-6.845397761001e-05 6.097737349644e-03 0.0 
0.0 0.0 0.0 
3.194507791604e-04 5.002227290762e-04 0.0 
5.002227290762e-04 7.400939943098e-03 0.0 
0.0 0.0 0.0 
1.837487009215e-04 4.086597926995e-04 0.0 
4.086597926995e-04 7.660258672280e-03 0.0 
0.0 0.0 0.0 
7.351952361989e-05 2.078972296235e-04 0.0 
2.078972296235e-04 7.647982861998e-03 0.0 
0.0 0.0 0.0 
7.245648272349e-04 2.363994846735e-03 0.0 
2.363994846735e-03 8.664057833953e-03 0.0 
0.0 0.0 0.0 
-1.591878276255e-03 -4.233718471371e-05 0.0 
-4.233718471371e-05 1.476063208906e-02 0.0 
0.0 0.0 0.0 
-1.564062798840e-03 6.376328494434e-05 0.0 
6.376328494434e-05 1.477783114949e-02 0.0 
0.0 0.0 0.0 
-8.236047428699e-04 3.626328340761e-03 0.0 
3.626328340761e-03 9.548694179589e-03 0.0 
0.0 0.0 0.0 
2.398179337855e-04 7.703018087057e-04 0.0 
7.703018087057e-04 7.743809401457e-03 0.0 
0.0 0.0 0.0 
-5.307775671506e-04 1.935396440509e-03 0.0 
1.935396440509e-03 4.292091056024e-03 0.0 
0.0 0.0 0.0 
-2.761141389923e-03 1.345952048661e-03 0.0 
1.345952048661e-03 1.513476095439e-02 0.0 
0.0 0.0 0.0 
-7.076252134318e-04 1.199583990256e-04 0.0 
1.199583990256e-04 1.723345808971e-02 0.0 
0.0 0.0 0.0 
-4.830086272612e-04 1.566764088187e-03 0.0 
1.566764088187e-03 4.258412859506e-03 0.0 
0.0 0.0 0.0 
3.104514850252e-04 -3.397460692421e-04 0.0 
-3.397460692421e-04 7.507606752353e-04 0.0 
0.0 0.0 0.0 
-4.902879880921e-04 2.202213225231e-04 0.0 
2.202213225231e-04 1.724453292484e-02 0.0 
0.0 0.0 0.0 
-2.747276203898e-04 -2.488074115611e-04 0.0 
-2.488074115611e-04 5.829518893874e-04 0.0 
0.0 0.0 0.0 
-2.257570730678e-03 4.513161166250e-04 0.0 
4.513161166250e-04 1.548346273841e-02 0.0 
0.0 0.0 0.0 
-7.478355088306e-04 3.336548473277e-03 0.0 
3.336548473277e-03 8.731262033658e-03 0.0 
0.0 0.0 0.0 
9.722787715154e-04 7.363548258431e-05 0.0 
7.363548258431e-05 1.278230421519e-03 0.0 
0.0 0.0 0.0 
1.354697372622e-03 -6.422393165775e-04 0.0 
-6.422393165775e-04 9.480066767147e-04 0.0 
0.0 0.0 0.0 
-4.192650215344e-04 3.192254614717e-03 0.0 
3.192254614717e-03 8.792021205800e-03 0.0 
0.0 0.0 0.0 
-8.593663170210e-04 3.264812841392e-03 0.0 
3.264812841392e-03 1.581854956393e-02 0.0 
0.0 0.0 0.0 
4.269634539131e-04 -6.034060898945e-05 0.0 
-6.034060898945e-05 2.275355267384e-03 0.0 
0.0 0.0 0.0 
7.467364572575e-04 -1.485562330916e-05 0.0 
-1.485562330916e-05 1.351513685564e-03 0.0 
0.0 0.0 0.0 
-5.471315623462e-05 -2.379865472548e-05 0.0 
-2.379865472548e-05 6.098947364345e-03 0.0 
0.0 0.0 0.0 
1.237533435654e-03 4.857978240087e-05 0.0 
4.857978240087e-05 2.398460984625e-04 0.0 
0.0 0.0 0.0 
-4.005491287493e-04 5.294966003473e-04 0.0 
5.294966003473e-04 1.742174834416e-02 0.0 
0.0 0.0 0.0 
-1.141435940461e-03 -1.063158076667e-04 0.0 
-1.063158076667e-04 8.910237036828e-04 0.0 
0.0 0.0 0.0 
1.101813027196e-03 3.224110639493e-03 0.0 
3.224110639493e-03 8.802021728215e-03 0.0 
0.0 0.0 0.0 
2.872064645667e-04 2.961248775437e-03 0.0 
2.961248775437e-03 5.451952855353e-03 0.0 
0.0 0.0 0.0 
1.102234561924e-03 -3.399882724308e-04 0.0 
-3.399882724308e-04 7.592117897246e-04 0.0 
0.0 0.0 0.0 
9.814239216110e-05 4.803243496328e-05 0.0 
4.803243496328e-05 7.022076035300e-03 0.0 
0.0 0.0 0.0 
-4.047579628554e-04 2.714974567080e-03 0.0 
2.714974567080e-03 8.147544809434e-03 0.0 
0.0 0.0 0.0 
-6.056974461428e-04 4.643614041833e-05 0.0 
4.643614041833e-05 6.200259638782e-04 0.0 
0.0 0.0 0.0 
-1.591125482303e-04 4.927581540399e-03 0.0 
4.927581540399e-03 1.318055073505e-02 0.0 
0.0 0.0 0.0 
8.579909139934e-04 -7.232261674852e-04 0.0 
-7.232261674852e-04 4.663359069170e-04 0.0 
0.0 0.0 0.0 
3.549167136689e-04 4.381599732552e-03 0.0 
4.381599732552e-03 1.151591318660e-02 0.0 
0.0 0.0 0.0 
-7.741085600299e-05 -1.891667602137e-04 0.0 
-1.891667602137e-04 5.302383749926e-03 0.0 
0.0 0.0 0.0 
0.0 2.335875850837e-03 0.0 
2.335875850837e-03 1.685973739513e-02 0.0 
0.0 0.0 0.0 
7.244429642479e-04 3.690373153894e-03 0.0 
3.690373153894e-03 9.800517145187e-03 0.0 
0.0 0.0 0.0 
1.587044139829e-03 -2.072103133359e-05 0.0 
-2.072103133359e-05 -7.786556224154e-04 0.0 
0.0 0.0 0.0 
2.467815435896e-04 -9.131929897510e-05 0.0 
-9.131929897510e-05 2.494756345863e-03 0.0 
0.0 0.0 0.0 
-8.998702478250e-04 1.538532006434e-03 0.0 
1.538532006434e-03 1.723534547861e-02 0.0 
0.0 0.0 0.0 
-1.326407029229e-03 3.635748706843e-03 0.0 
3.635748706843e-03 1.552988463184e-02 0.0 
0.0 0.0 0.0 
-4.393460135710e-04 1.197134108042e-03 0.0 
1.197134108042e-03 2.965600567225e-03 0.0 
0.0 0.0 0.0 
5.983433414485e-04 -6.678343509267e-05 0.0 
-6.678343509267e-05 7.452472197380e-04 0.0 
0.0 0.0 0.0 
-6.840284777134e-04 1.692562491892e-03 0.0 
1.692562491892e-03 2.986705597686e-03 0.0 
0.0 0.0 0.0 
1.070556677591e-03 -6.233297491412e-04 0.0 
-6.233297491412e-04 4.496916082339e-04 0.0 
0.0 0.0 0.0 
-1.890536626617e-03 9.835806830737e-05 0.0 
9.835806830737e-05 1.519177663290e-02 0.0 
0.0 0.0 0.0 
-6.947269624482e-04 2.789777050483e-03 0.0 
2.789777050483e-03 7.244125473620e-03 0.0 
0.0 0.0 0.0 
-4.385306297209e-04 2.073934303490e-03 0.0 
2.073934303490e-03 6.859907533020e-03 0.0 
0.0 0.0 0.0 
-1.832214978346e-03 1.113684493157e-04 0.0 
1.113684493157e-04 1.546883027736e-02 0.0 
0.0 0.0 0.0 
-1.687328488489e-03 1.322379166074e-04 0.0 
1.322379166074e-04 1.546861428933e-02 0.0 
0.0 0.0 0.0 
-1.689894688301e-04 -1.181573067994e-04 0.0 
-1.181573067994e-04 5.538634320567e-03 0.0 
0.0 0.0 0.0 
-2.203326418058e-04 8.086065444227e-06 0.0 
8.086065444227e-06 6.015824605869e-03 0.0 
0.0 0.0 0.0 
-1.649519948585e-03 3.312317320942e-03 0.0 
3.312317320942e-03 1.341466593486e-02 0.0 
0.0 0.0 0.0 
-1.855149503870e-03 7.464150566886e-05 0.0 
7.464150566886e-05 1.523618356628e-02 0.0 
0.0 0.0 0.0 
2.058017671847e-04 -3.639006225348e-04 0.0 
-3.639006225348e-04 2.989534895013e-04 0.0 
0.0 0.0 0.0 
-2.666877085221e-03 1.189308040639e-03 0.0 
1.189308040639e-03 1.508768299691e-02 0.0 
0.0 0.0 0.0 
-1.102652747658e-03 1.224716134510e-04 0.0 
1.224716134510e-04 1.659203651313e-02 0.0 
0.0 0.0 0.0 
-1.217980621243e-03 2.031540227302e-04 0.0 
2.031540227302e-04 1.655421169333e-02 0.0 
0.0 0.0 0.0 
-7.574925138714e-04 2.655073252356e-03 0.0 
2.655073252356e-03 1.674327648178e-02 0.0 
0.0 0.0 0.0 
4.092210995559e-04 2.475470417015e-03 0.0 
2.475470417015e-03 9.400607813858e-03 0.0 
0.0 0.0 0.0 
-2.057865581140e-03 1.601970292842e-04 0.0 
1.601970292842e-04 1.523527974874e-02 0.0 
0.0 0.0 0.0 
4.440365254195e-04 7.470161747402e-04 0.0 
7.470161747402e-04 7.692743704202e-03 0.0 
0.0 0.0 0.0 
-1.406171292456e-03 1.116302456930e-06 0.0 
1.116302456930e-06 1.573707909022e-02 0.0 
0.0 0.0 0.0 
5.688487342801e-04 3.204049737534e-03 0.0 
3.204049737534e-03 5.597057076810e-03 0.0 
0.0 0.0 0.0 
-1.696088191935e-03 3.533223319991e-05 0.0 
3.533223319991e-05 1.500015483932e-02 0.0 
0.0 0.0 0.0 
1.213066602370e-04 1.163194850881e-04 0.0 
1.163194850881e-04 7.174465375497e-03 0.0 
0.0 0.0 0.0 
2.265275306964e-03 2.787777280426e-03 0.0 
2.787777280426e-03 6.229899691945e-03 0.0 
0.0 0.0 0.0 
1.075414108926e-03 3.073698668566e-03 0.0 
3.073698668566e-03 8.826110936322e-03 0.0 
0.0 0.0 0.0 
8.155301714641e-04 2.192770176275e-03 0.0 
2.192770176275e-03 3.920027649355e-03 0.0 
0.0 0.0 0.0 
-2.779787483472e-04 -3.480116452640e-04 0.0 
-3.480116452640e-04 1.062937744848e-03 0.0 
0.0 0.0 0.0 
4.926024278595e-05 -5.134655414735e-05 0.0 
-5.134655414735e-05 6.550405457556e-03 0.0 
0.0 0.0 0.0 
-1.067136969694e-03 2.476807939266e-04 0.0 
2.476807939266e-04 1.683377076127e-02 0.0 
0.0 0.0 0.0 
-1.000416205777e-03 -2.152465171162e-04 0.0 
-2.152465171162e-04 9.052780802219e-04 0.0 
0.0 0.0 0.0 
7.358746375385e-05 1.793732381095e-04 0.0 
1.793732381095e-04 7.269202399589e-03 0.0 
0.0 0.0 0.0 
-1.392754259057e-03 3.173641151020e-03 0.0 
3.173641151020e-03 1.280683805411e-02 0.0 
0.0 0.0 0.0 
1.591739460515e-03 2.444963707439e-06 0.0 
2.444963707439e-06 -7.208578123983e-04 0.0 
0.0 0.0 0.0 
7.996888013320e-04 2.157441982836e-03 0.0 
2.157441982836e-03 4.803268038993e-03 0.0 
0.0 0.0 0.0 
-2.011029503782e-03 3.235230853357e-03 0.0 
3.235230853357e-03 1.334675183310e-02 0.0 
0.0 0.0 0.0 
6.498948977418e-05 -2.037363394821e-04 0.0 
-2.037363394821e-04 3.075010611818e-03 0.0 
0.0 0.0 0.0 
7.521384913221e-04 3.126646266239e-03 0.0 
3.126646266239e-03 4.714929791558e-03 0.0 
0.0 0.0 0.0 
4.299672029986e-04 2.701485272362e-03 0.0 
2.701485272362e-03 5.471216680828e-03 0.0 
0.0 0.0 0.0 
2.486591319086e-04 5.074117840061e-04 0.0 
5.074117840061e-04 7.545184903622e-03 0.0 
0.0 0.0 0.0 
-1.444675146639e-03 7.042768439827e-05 0.0 
7.042768439827e-05 1.562100775683e-02 0.0 
0.0 0.0 0.0 
6.081804133085e-04 2.806441198239e-03 0.0 
2.806441198239e-03 4.624122694777e-03 0.0 
0.0 0.0 0.0 
4.728401145233e-04 -5.102032643072e-04 0.0 
-5.102032643072e-04 7.453064494205e-04 0.0 
0.0 0.0 0.0 
-2.736469181924e-03 1.521116598363e-03 0.0 
1.521116598363e-03 1.459034403693e-02 0.0 
0.0 0.0 0.0 
-9.037204879081e-04 1.753582470445e-04 0.0 
1.753582470445e-04 1.683984910642e-02 0.0 
0.0 0.0 0.0 
6.589173183364e-04 2.469764284393e-03 0.0 
2.469764284393e-03 4.640267166869e-03 0.0 
0.0 0.0 0.0 
-5.149372134866e-04 8.668841841408e-04 0.0 
8.668841841408e-04 1.791156996571e-03 0.0 
0.0 0.0 0.0 
-1.158190770577e-03 3.925337523198e-03 0.0 
3.925337523198e-03 1.133936202245e-02 0.0 
0.0 0.0 0.0 
1.366737864472e-04 -2.307869493753e-04 0.0 
-2.307869493753e-04 3.075529130578e-03 0.0 
0.0 0.0 0.0 
-9.590041474737e-04 3.882496732142e-03 0.0 
3.882496732142e-03 1.042027037994e-02 0.0 
0.0 0.0 0.0 
-5.111225675182e-04 1.816854335864e-03 0.0 
1.816854335864e-03 1.715611926634e-02 0.0 
0.0 0.0 0.0 
-3.063413611828e-04 1.025657700229e-03 0.0 
1.025657700229e-03 1.782076738848e-03 0.0 
0.0 0.0 0.0 
-1.336334478897e-04 -1.043393018620e-04 0.0 
-1.043393018620e-04 5.222939958568e-03 0.0 
0.0 0.0 0.0 
-4.842291091443e-04 3.858409034561e-04 0.0 
3.858409034561e-04 1.735867289620e-02 0.0 
0.0 0.0 0.0 
-9.823779360753e-04 2.635223655174e-03 0.0 
2.635223655174e-03 8.428244437656e-03 0.0 
0.0 0.0 0.0 
-9.517678190117e-04 3.853495264726e-03 0.0 
3.853495264726e-03 1.043221946927e-02 0.0 
0.0 0.0 0.0 
4.346001128610e-04 6.206727464402e-04 0.0 
6.206727464402e-04 7.403348927926e-03 0.0 
0.0 0.0 0.0 
7.200243450156e-05 -7.703007383769e-06 0.0 
-7.703007383769e-06 6.967969501650e-03 0.0 
0.0 0.0 0.0 
-2.954981547088e-05 -7.849996045980e-05 0.0 
-7.849996045980e-05 5.539682682302e-03 0.0 
0.0 0.0 0.0 
-1.124371684062e-03 2.586158612325e-03 0.0 
2.586158612325e-03 9.323366321988e-03 0.0 
0.0 0.0 0.0 
5.741782923134e-04 1.205376299237e-03 0.0 
1.205376299237e-03 8.050644022860e-03 0.0 
0.0 0.0 0.0 
-9.890508511523e-04 3.041804764421e-03 0.0 
3.041804764421e-03 8.649228950242e-03 0.0 
0.0 0.0 0.0 
-4.487494320142e-04 1.162120400429e-03 0.0 
1.162120400429e-03 1.733305451478e-02 0.0 
0.0 0.0 0.0 
6.291467369983e-04 4.627760774322e-03 0.0 
4.627760774322e-03 1.169716822549e-02 0.0 
0.0 0.0 0.0 
-2.486040643196e-03 7.221623679022e-04 0.0 
7.221623679022e-04 1.566990844040e-02 0.0 
0.0 0.0 0.0 
-1.371718987191e-03 2.541298718694e-04 0.0 
2.541298718694e-04 1.623529304526e-02 0.0 
0.0 0.0 0.0 
-6.399415439829e-04 2.967446673281e-03 0.0 
2.967446673281e-03 8.652199749263e-03 0.0 
0.0 0.0 0.0 
-6.282511746788e-04 3.610558513647e-03 0.0 
3.610558513647e-03 9.548997333372e-03 0.0 
0.0 0.0 0.0 
-9.642610668567e-04 2.578128605799e-03 0.0 
2.578128605799e-03 8.942456058690e-03 0.0 
0.0 0.0 0.0 
4.787659150047e-04 2.074655473488e-03 0.0 
2.074655473488e-03 4.730662492089e-03 0.0 
0.0 0.0 0.0 
-1.620444026148e-03 5.281558871814e-06 0.0 
5.281558871814e-06 1.503698658094e-02 0.0 
0.0 0.0 0.0 
7.895403391720e-04 1.870081823003e-03 0.0 
1.870081823003e-03 4.838534729888e-03 0.0 
0.0 0.0 0.0 
3.126456195131e-04 -3.081380061534e-04 0.0 
-3.081380061534e-04 2.472694127291e-04 0.0 
0.0 0.0 0.0 
-1.517808096931e-03 2.022592573722e-05 0.0 
2.022592573722e-05 1.531816040641e-02 0.0 
0.0 0.0 0.0 
1.236518755939e-03 -1.651337784168e-05 0.0 
-1.651337784168e-05 9.959579035157e-05 0.0 
0.0 0.0 0.0 
-1.500710724613e-03 3.681709510894e-03 0.0 
3.681709510894e-03 1.237112898838e-02 0.0 
0.0 0.0 0.0 
2.811545409462e-04 1.068689565828e-03 0.0 
1.068689565828e-03 7.989077383700e-03 0.0 
0.0 0.0 0.0 
8.491003276780e-04 2.556394882247e-03 0.0 
2.556394882247e-03 3.893112879741e-03 0.0 
0.0 0.0 0.0 
-1.519377042521e-04 -3.576372596228e-05 0.0 
-3.576372596228e-05 5.792915671822e-03 0.0 
0.0 0.0 0.0 
-5.716660886536e-04 1.761048570657e-03 0.0 
1.761048570657e-03 4.959705504069e-03 0.0 
0.0 0.0 0.0 
2.366085199359e-03 2.997027105733e-03 0.0 
2.997027105733e-03 6.210775410738e-03 0.0 
0.0 0.0 0.0 
-1.542747761674e-03 1.824033235695e-05 0.0 
1.824033235695e-05 1.505021763924e-02 0.0 
0.0 0.0 0.0 
9.550768034339e-04 1.897417479700e-03 0.0 
1.897417479700e-03 4.160127471110e-03 0.0 
0.0 0.0 0.0 
-3.952440693400e-06 -9.117363756790e-05 0.0 
-9.117363756790e-05 6.180893680015e-03 0.0 
0.0 0.0 0.0 
5.696182059194e-04 -4.594427006499e-04 0.0 
-4.594427006499e-04 7.348515707954e-04 0.0 
0.0 0.0 0.0 
1.282076049274e-04 1.515636949249e-05 0.0 
1.515636949249e-05 6.543157409738e-03 0.0 
0.0 0.0 0.0 
-2.025451137431e-03 2.490942742242e-03 0.0 
2.490942742242e-03 1.215700024241e-02 0.0 
0.0 0.0 0.0 
1.946452646966e-04 1.807540504246e-04 0.0 
1.807540504246e-04 7.218730146408e-03 0.0 
0.0 0.0 0.0 
-1.516793965783e-03 1.564397900563e-05 0.0 
1.564397900563e-05 1.502242509755e-02 0.0 
0.0 0.0 0.0 
5.900880963163e-04 2.068141021208e-03 0.0 
2.068141021208e-03 3.994245927944e-03 0.0 
0.0 0.0 0.0 
-2.267724025876e-03 3.741883112915e-03 0.0 
3.741883112915e-03 1.237653183930e-02 0.0 
0.0 0.0 0.0 
-2.052081389292e-04 -8.076465200731e-05 0.0 
-8.076465200731e-05 5.031971135141e-03 0.0 
0.0 0.0 0.0 
-5.321867149999e-04 2.138530296927e-03 0.0 
2.138530296927e-03 5.064439753139e-03 0.0 
0.0 0.0 0.0 
9.415889563413e-04 1.569369315617e-03 0.0 
1.569369315617e-03 4.204658231866e-03 0.0 
0.0 0.0 0.0 
-1.358760428104e-03 1.939382097956e-04 0.0 
1.939382097956e-04 1.640008760600e-02 0.0 
0.0 0.0 0.0 
-1.566813064299e-03 3.989505749276e-05 0.0 
3.989505749276e-05 1.503273332201e-02 0.0 
0.0 0.0 0.0 
6.697959993547e-04 2.080212482350e-03 0.0 
2.080212482350e-03 4.412107196057e-03 0.0 
0.0 0.0 0.0 
-1.521837163623e-03 3.901116328966e-03 0.0 
3.901116328966e-03 1.136294346389e-02 0.0 
0.0 0.0 0.0 
9.144845109830e-04 4.406822958857e-03 0.0 
4.406822958857e-03 1.022875397008e-02 0.0 
0.0 0.0 0.0 
6.327400672079e-05 -2.619149808674e-04 0.0 
-2.619149808674e-04 3.439529226223e-03 0.0 
0.0 0.0 0.0 
3.943596426719e-04 3.547422013750e-03 0.0 
3.547422013750e-03 1.029210011248e-02 0.0 
0.0 0.0 0.0 
6.801545697250e-04 4.435184718441e-03 0.0 
4.435184718441e-03 1.136290514445e-02 0.0 
0.0 0.0 0.0 
8.952170976384e-05 2.988596115027e-03 0.0 
2.988596115027e-03 5.495902768488e-03 0.0 
0.0 0.0 0.0 
-4.330823764398e-05 -1.913177508438e-04 0.0 
-1.913177508438e-04 3.570781135448e-03 0.0 
0.0 0.0 0.0 
1.265908884325e-03 1.556891766405e-03 0.0 
1.556891766405e-03 6.778143403009e-03 0.0 
0.0 0.0 0.0 
-5.677798109814e-04 3.452484625770e-03 0.0 
3.452484625770e-03 8.910495061682e-03 0.0 
0.0 0.0 0.0 
3.930105982908e-04 2.460092528313e-03 0.0 
2.460092528313e-03 4.838537045140e-03 0.0 
0.0 0.0 0.0 
-2.556268284157e-03 2.571251833470e-03 0.0 
2.571251833470e-03 1.262016108265e-02 0.0 
0.0 0.0 0.0 
5.274213047595e-04 2.117289219110e-03 0.0 
2.117289219110e-03 5.160879021006e-03 0.0 
0.0 0.0 0.0 
-3.669087081930e-04 8.279305423598e-04 0.0 
8.279305423598e-04 1.736477493040e-02 0.0 
0.0 0.0 0.0 
-1.600470140318e-03 2.982086232584e-03 0.0 
2.982086232584e-03 1.379349638336e-02 0.0 
0.0 0.0 0.0 
3.690565408609e-05 6.612816173797e-06 0.0 
6.612816173797e-06 6.393133522627e-03 0.0 
0.0 0.0 0.0 
-4.749829071076e-04 1.335586683792e-03 0.0 
1.335586683792e-03 3.595580283393e-03 0.0 
0.0 0.0 0.0 
1.066149221354e-03 1.261232669856e-03 0.0 
1.261232669856e-03 3.641252664030e-03 0.0 
0.0 0.0 0.0 
-1.439117658052e-03 3.212267574124e-03 0.0 
3.212267574124e-03 1.343685694536e-02 0.0 
0.0 0.0 0.0 
-1.147872410679e-03 3.658137366942e-04 0.0 
3.658137366942e-04 6.972660389681e-04 0.0 
0.0 0.0 0.0 
-7.297230219711e-04 3.507032610682e-03 0.0 
3.507032610682e-03 8.909469159562e-03 0.0 
0.0 0.0 0.0 
1.486379546715e-03 1.083959355849e-03 0.0 
1.083959355849e-03 5.730645772692e-03 0.0 
0.0 0.0 0.0 
6.616028138544e-04 -9.522256388995e-05 0.0 
-9.522256388995e-05 3.913417586372e-04 0.0 
0.0 0.0 0.0 
-8.821268908493e-04 3.777198935177e-03 0.0 
3.777198935177e-03 1.498925286772e-02 0.0 
0.0 0.0 0.0 
-2.152837277625e-03 2.159809042153e-03 0.0 
2.159809042153e-03 1.497528795629e-02 0.0 
0.0 0.0 0.0 
1.986922916370e-03 -1.806964894050e-04 0.0 
-1.806964894050e-04 1.628800800311e-03 0.0 
0.0 0.0 0.0 
1.628619624699e-03 1.259944496733e-03 0.0 
1.259944496733e-03 5.718515363873e-03 0.0 
0.0 0.0 0.0 
-2.699349177124e-03 1.619363766878e-03 0.0 
1.619363766878e-03 1.497073097460e-02 0.0 
0.0 0.0 0.0 
-2.649917113072e-03 1.208493681969e-03 0.0 
1.208493681969e-03 1.569293552505e-02 0.0 
0.0 0.0 0.0 
5.699285353615e-04 1.139552707707e-03 0.0 
1.139552707707e-03 7.607347929427e-03 0.0 
0.0 0.0 0.0 
1.130209716141e-03 -3.686673859401e-04 0.0 
-3.686673859401e-04 1.504721900619e-03 0.0 
0.0 0.0 0.0 
-7.346587485847e-04 2.626821904632e-03 0.0 
2.626821904632e-03 8.485858052352e-03 0.0 
0.0 0.0 0.0 
-1.718064679095e-03 2.635780749163e-03 0.0 
2.635780749163e-03 1.164378735405e-02 0.0 
0.0 0.0 0.0 
-2.326746856799e-03 2.220993523901e-03 0.0 
2.220993523901e-03 1.543036237995e-02 0.0 
0.0 0.0 0.0 
-2.161454418615e-03 2.467456735896e-03 0.0 
2.467456735896e-03 1.283028961860e-02 0.0 
0.0 0.0 0.0 
-2.092224152937e-03 2.580748540742e-03 0.0 
2.580748540742e-03 1.262021126707e-02 0.0 
0.0 0.0 0.0 
2.885352787048e-03 2.419976525222e-03 0.0 
2.419976525222e-03 4.648642699021e-03 0.0 
0.0 0.0 0.0 
-3.306358218990e-04 3.859048683839e-03 0.0 
3.859048683839e-03 1.142166516444e-02 0.0 
0.0 0.0 0.0 
-9.240318745112e-04 4.154063362475e-04 0.0 
4.154063362475e-04 9.619164790551e-04 0.0 
0.0 0.0 0.0 
4.608235607468e-04 3.052021972468e-03 0.0 
3.052021972468e-03 5.502276058847e-03 0.0 
0.0 0.0 0.0 
4.729356697071e-04 3.335464742494e-03 0.0 
3.335464742494e-03 5.576279249015e-03 0.0 
0.0 0.0 0.0 
-9.727365046612e-04 2.603435597791e-03 0.0 
2.603435597791e-03 8.939053312910e-03 0.0 
0.0 0.0 0.0 
-1.828949173156e-03 3.072443357428e-03 0.0 
3.072443357428e-03 1.437972902210e-02 0.0 
0.0 0.0 0.0 
3.626093531166e-04 5.749011510307e-04 0.0 
5.749011510307e-04 1.533387349410e-03 0.0 
0.0 0.0 0.0 
1.570542213232e-03 8.746290765443e-04 0.0 
8.746290765443e-04 5.253110995966e-03 0.0 
0.0 0.0 0.0 
-1.587957929058e-03 -1.293175342431e-05 0.0 
-1.293175342431e-05 1.500651777016e-02 0.0 
0.0 0.0 0.0 
1.064512670537e-03 1.615955640995e-03 0.0 
1.615955640995e-03 3.591310841265e-03 0.0 
0.0 0.0 0.0 
1.621288968398e-03 6.764137684490e-04 0.0 
6.764137684490e-04 4.833085807397e-03 0.0 
0.0 0.0 0.0 
4.245896901642e-04 -1.890424894143e-04 0.0 
-1.890424894143e-04 2.497852844980e-04 0.0 
0.0 0.0 0.0 
-1.968392452940e-03 2.379552624797e-03 0.0 
2.379552624797e-03 1.512592899267e-02 0.0 
0.0 0.0 0.0 
3.943394079753e-04 -1.238712775416e-04 0.0 
-1.238712775416e-04 1.312910237090e-04 0.0 
0.0 0.0 0.0 
5.794556277863e-04 -1.169961852227e-04 0.0 
-1.169961852227e-04 3.898782262466e-04 0.0 
0.0 0.0 0.0 
-5.760676865960e-04 1.840453028048e-03 0.0 
1.840453028048e-03 3.621187339117e-03 0.0 
0.0 0.0 0.0 
9.668194746288e-04 -4.073889463322e-04 0.0 
-4.073889463322e-04 1.267326267401e-03 0.0 
0.0 0.0 0.0 
-2.131202327792e-03 2.430209866891e-03 0.0 
2.430209866891e-03 1.557747119445e-02 0.0 
0.0 0.0 0.0 
8.856299697524e-04 -5.554220129118e-04 0.0 
-5.554220129118e-04 1.018619870156e-03 0.0 
0.0 0.0 0.0 
8.635478483361e-04 1.607699262588e-03 0.0 
1.607699262588e-03 2.555563537602e-03 0.0 
0.0 0.0 0.0 
1.550433535112e-03 -8.589013790287e-04 0.0 
-8.589013790287e-04 3.727430708755e-04 0.0 
0.0 0.0 0.0 
5.340924388380e-04 -4.153111231624e-04 0.0 
-4.153111231624e-04 8.893006681430e-04 0.0 
0.0 0.0 0.0 
1.511069762646e-03 1.459196151702e-03 0.0 
1.459196151702e-03 6.201450945186e-03 0.0 
0.0 0.0 0.0 
-1.998547445620e-03 2.583798879957e-03 0.0 
2.583798879957e-03 1.215338424243e-02 0.0 
0.0 0.0 0.0 
1.878646439433e-04 1.286794533127e-04 0.0 
1.286794533127e-04 7.026452714928e-03 0.0 
0.0 0.0 0.0 
-9.179194850230e-04 2.635418938369e-04 0.0 
2.635418938369e-04 5.116120329849e-04 0.0 
0.0 0.0 0.0 
9.820102651261e-04 1.842466139441e-03 0.0 
1.842466139441e-03 2.759599096025e-03 0.0 
0.0 0.0 0.0 
1.313487681580e-03 1.710502774381e-03 0.0 
1.710502774381e-03 3.842616700022e-03 0.0 
0.0 0.0 0.0 
-3.211515131004e-04 3.367645773747e-03 0.0 
3.367645773747e-03 7.973088789011e-03 0.0 
0.0 0.0 0.0 
1.708249609551e-03 1.027045840788e-03 0.0 
1.027045840788e-03 5.242492861020e-03 0.0 
0.0 0.0 0.0 
2.394765656604e-04 2.480507816386e-04 0.0 
2.480507816386e-04 7.294022547848e-03 0.0 
0.0 0.0 0.0 
-1.945414884994e-03 2.879856164545e-03 0.0 
2.879856164545e-03 1.416701947649e-02 0.0 
0.0 0.0 0.0 
8.581333270659e-04 8.700578316081e-04 0.0 
8.700578316081e-04 2.897003869619e-03 0.0 
0.0 0.0 0.0 
1.378707518561e-03 1.326415818485e-03 0.0 
1.326415818485e-03 6.202366081457e-03 0.0 
0.0 0.0 0.0 
-2.096661944868e-04 -5.397107201346e-05 0.0 
-5.397107201346e-05 5.437936326008e-03 0.0 
0.0 0.0 0.0 
-1.193822217822e-03 2.641410495610e-03 0.0 
2.641410495610e-03 9.727311721488e-03 0.0 
0.0 0.0 0.0 
-1.974198598231e-03 2.475365941254e-03 0.0 
2.475365941254e-03 1.458919319200e-02 0.0 
0.0 0.0 0.0 
7.292176087934e-04 3.267757282600e-03 0.0 
3.267757282600e-03 9.520343933271e-03 0.0 
0.0 0.0 0.0 
1.386978192413e-03 1.340808213314e-03 0.0 
1.340808213314e-03 3.896553525289e-03 0.0 
0.0 0.0 0.0 
6.932353387368e-04 1.700394347140e-03 0.0 
1.700394347140e-03 2.966299559685e-03 0.0 
0.0 0.0 0.0 
-2.024792813073e-03 2.629047490393e-03 0.0 
2.629047490393e-03 1.306155095973e-02 0.0 
0.0 0.0 0.0 
-4.596863072712e-04 2.300912190729e-03 0.0 
2.300912190729e-03 1.692407587376e-02 0.0 
0.0 0.0 0.0 
-5.713443375367e-04 2.772506717929e-03 0.0 
2.772506717929e-03 8.466850358748e-03 0.0 
0.0 0.0 0.0 
3.588694747723e-03 1.821135701302e-03 0.0 
1.821135701302e-03 2.617911964237e-03 0.0 
0.0 0.0 0.0 
-1.545419761069e-03 4.381384887688e-05 0.0 
4.381384887688e-05 1.540551472969e-02 0.0 
0.0 0.0 0.0 
6.621511798925e-04 -7.838936327179e-04 0.0 
-7.838936327179e-04 6.075794274301e-04 0.0 
0.0 0.0 0.0 
-2.036271803101e-03 2.390911116044e-03 0.0 
2.390911116044e-03 1.284159151640e-02 0.0 
0.0 0.0 0.0 
8.984467103001e-04 1.236265723775e-03 0.0 
1.236265723775e-03 2.841534948951e-03 0.0 
0.0 0.0 0.0 
5.493740627405e-04 6.232674853061e-04 0.0 
6.232674853061e-04 1.907363583465e-03 0.0 
0.0 0.0 0.0 
8.471829941221e-04 -6.271582739410e-04 0.0 
-6.271582739410e-04 1.043320923993e-03 0.0 
0.0 0.0 0.0 
-1.906853572090e-03 2.283261310575e-03 0.0 
2.283261310575e-03 1.559546673439e-02 0.0 
0.0 0.0 0.0 
-1.896884393034e-03 2.652912342030e-03 0.0 
2.652912342030e-03 1.235658386784e-02 0.0 
0.0 0.0 0.0 
4.422128456389e-04 2.333393242378e-03 0.0 
2.333393242378e-03 4.689297753826e-03 0.0 
0.0 0.0 0.0 
-2.047467757192e-03 2.326990773958e-03 0.0 
2.326990773958e-03 1.599199883989e-02 0.0 
0.0 0.0 0.0 
-1.778063595027e-03 3.096975279960e-03 0.0 
3.096975279960e-03 1.377195287482e-02 0.0 
0.0 0.0 0.0 
-1.365082072347e-03 2.717037218059e-03 0.0 
2.717037218059e-03 1.047552707817e-02 0.0 
0.0 0.0 0.0 
1.453421933695e-04 3.415485134564e-04 0.0 
3.415485134564e-04 7.438590466984e-03 0.0 
0.0 0.0 0.0 
3.689952693065e-03 1.897908717479e-03 0.0 
1.897908717479e-03 2.620394055989e-03 0.0 
0.0 0.0 0.0 
-1.528430404754e-03 2.760146895325e-03 0.0 
2.760146895325e-03 1.120759643104e-02 0.0 
0.0 0.0 0.0 
6.176342071416e-04 2.178226091057e-03 0.0 
2.178226091057e-03 5.562573043627e-03 0.0 
0.0 0.0 0.0 
3.431979136037e-03 2.009856980331e-03 0.0 
2.009856980331e-03 3.178058780066e-03 0.0 
0.0 0.0 0.0 
8.543153140028e-04 6.671034456991e-04 0.0 
6.671034456991e-04 2.095472853124e-03 0.0 
0.0 0.0 0.0 
-2.590670868600e-03 6.855164660694e-04 0.0 
6.855164660694e-04 1.542105556034e-02 0.0 
0.0 0.0 0.0 
2.316449785939e-03 1.162436273697e-03 0.0 
1.162436273697e-03 3.144442010064e-03 0.0 
0.0 0.0 0.0 
2.725724317435e-03 -2.028366161954e-04 0.0 
-2.028366161954e-04 6.680592050516e-04 0.0 
0.0 0.0 0.0 
-1.783447675089e-03 2.755966550297e-03 0.0 
2.755966550297e-03 1.418903850310e-02 0.0 
0.0 0.0 0.0 
-1.572006140980e-03 1.519943919239e-04 0.0 
1.519943919239e-04 8.173708496761e-04 0.0 
0.0 0.0 0.0 
-2.270646876652e-03 2.454266729530e-03 0.0 
2.454266729530e-03 1.356882489581e-02 0.0 
0.0 0.0 0.0 
1.201256567022e-03 1.028835927131e-03 0.0 
1.028835927131e-03 2.618026698446e-03 0.0 
0.0 0.0 0.0 
8.163271681736e-04 1.499080603837e-03 0.0 
1.499080603837e-03 2.808109026352e-03 0.0 
0.0 0.0 0.0 
8.485101802393e-04 3.016903212343e-04 0.0 
3.016903212343e-04 2.157524033971e-03 0.0 
0.0 0.0 0.0 
-1.721404062356e-03 2.711432127624e-03 0.0 
2.711432127624e-03 1.262648642061e-02 0.0 
0.0 0.0 0.0 
2.495922610797e-04 -5.095620643266e-04 0.0 
-5.095620643266e-04 5.442614241926e-04 0.0 
0.0 0.0 0.0 
-5.692305296823e-05 3.183728733462e-03 0.0 
3.183728733462e-03 6.583050243832e-03 0.0 
0.0 0.0 0.0 
3.306299767746e-03 1.999314146425e-03 0.0 
1.999314146425e-03 3.432707838777e-03 0.0 
0.0 0.0 0.0 
-1.814325326798e-03 2.574065037797e-03 0.0 
2.574065037797e-03 1.236961778459e-02 0.0 
0.0 0.0 0.0 
-2.612657994499e-03 1.191700669260e-03 0.0 
1.191700669260e-03 1.531679214060e-02 0.0 
0.0 0.0 0.0 
9.965859350514e-05 5.011398500607e-04 0.0 
5.011398500607e-04 1.263000211035e-03 0.0 
0.0 0.0 0.0 
2.747408481094e-03 1.369367500596e-04 0.0 
1.369367500596e-04 6.155754177588e-04 0.0 
0.0 0.0 0.0 
2.658030608296e-03 -3.846966306768e-04 0.0 
-3.846966306768e-04 3.775456545394e-04 0.0 
0.0 0.0 0.0 
9.401176707446e-05 3.304440421180e-03 0.0 
3.304440421180e-03 6.209223958286e-03 0.0 
0.0 0.0 0.0 
-2.137509365344e-03 2.635916873637e-03 0.0 
2.635916873637e-03 1.456053949544e-02 0.0 
0.0 0.0 0.0 
2.743644327023e-04 3.346765531787e-03 0.0 
3.346765531787e-03 6.556794012691e-03 0.0 
0.0 0.0 0.0 
2.356768740132e-03 1.289688448912e-03 0.0 
1.289688448912e-03 2.445658523481e-03 0.0 
0.0 0.0 0.0 
1.470745298666e-03 1.423025081834e-03 0.0 
1.423025081834e-03 3.242151479079e-03 0.0 
0.0 0.0 0.0 
2.351509502643e-04 2.713406090678e-04 0.0 
2.713406090678e-04 1.641728273304e-03 0.0 
0.0 0.0 0.0 
8.994087550167e-04 2.247003782624e-03 0.0 
2.247003782624e-03 5.189639446209e-03 0.0 
0.0 0.0 0.0 
-1.672018922139e-05 9.259476131926e-04 0.0 
9.259476131926e-04 2.702477031596e-03 0.0 
0.0 0.0 0.0 
-7.768842393762e-04 4.618862823841e-03 0.0 
4.618862823841e-03 1.510260472422e-02 0.0 
0.0 0.0 0.0 
-1.695978527178e-04 5.134412809482e-03 0.0 
5.134412809482e-03 1.407104581930e-02 0.0 
0.0 0.0 0.0 
-3.411309888983e-04 2.784971597518e-03 0.0 
2.784971597518e-03 7.999239081255e-03 0.0 
0.0 0.0 0.0 
8.914719898825e-04 9.454104127649e-04 0.0 
9.454104127649e-04 2.442155944584e-03 0.0 
0.0 0.0 0.0 
7.060765520948e-04 1.129843415001e-03 0.0 
1.129843415001e-03 2.414643672020e-03 0.0 
0.0 0.0 0.0 
-1.266955710179e-03 2.823359108508e-03 0.0 
2.823359108508e-03 1.081454198706e-02 0.0 
0.0 0.0 0.0 
6.341076887908e-04 8.142125908367e-04 0.0 
8.142125908367e-04 2.597568866205e-03 0.0 
0.0 0.0 0.0 
2.707462475739e-03 -1.031205778160e-04 0.0 
-1.031205778160e-04 3.335376409226e-04 0.0 
0.0 0.0 0.0 
-1.145940971625e-03 2.657275028004e-03 0.0 
2.657275028004e-03 9.724112309794e-03 0.0 
0.0 0.0 0.0 
-7.944475797492e-04 1.287420571416e-03 0.0 
1.287420571416e-03 1.730695336549e-02 0.0 
0.0 0.0 0.0 
1.147984177334e-03 1.321872351737e-03 0.0 
1.321872351737e-03 3.082511073149e-03 0.0 
0.0 0.0 0.0 
3.005307839056e-03 2.625423969316e-03 0.0 
2.625423969316e-03 4.623514745812e-03 0.0 
0.0 0.0 0.0 
6.609521533263e-04 1.246785506719e-03 0.0 
1.246785506719e-03 2.242931692904e-03 0.0 
0.0 0.0 0.0 
3.404725243226e-04 1.589540456144e-03 0.0 
1.589540456144e-03 8.967114872550e-03 0.0 
0.0 0.0 0.0 
7.130576855645e-04 1.177406925138e-03 0.0 
1.177406925138e-03 2.538395611484e-03 0.0 
0.0 0.0 0.0 
-9.470952282471e-04 2.688377809361e-03 0.0 
2.688377809361e-03 9.323892065035e-03 0.0 
0.0 0.0 0.0 
4.720662749371e-04 4.238940765596e-04 0.0 
4.238940765596e-04 1.604742789095e-03 0.0 
0.0 0.0 0.0 
2.525925073801e-03 1.190631860786e-03 0.0 
1.190631860786e-03 3.843354765261e-03 0.0 
0.0 0.0 0.0 
2.138807737672e-03 1.579636289291e-03 0.0 
1.579636289291e-03 3.079090216048e-03 0.0 
0.0 0.0 0.0 
3.129977160065e-03 -1.483582619626e-04 0.0 
-1.483582619626e-04 5.551108397328e-05 0.0 
0.0 0.0 0.0 
-1.744666208374e-03 2.670644785828e-03 0.0 
2.670644785828e-03 1.163942573666e-02 0.0 
0.0 0.0 0.0 
2.654822416004e-04 4.899499428041e-03 0.0 
4.899499428041e-03 1.290601111051e-02 0.0 
0.0 0.0 0.0 
1.616730099391e-03 1.129502538697e-03 0.0 
1.129502538697e-03 2.685221404001e-03 0.0 
0.0 0.0 0.0 
3.148923790020e-03 1.797304854588e-03 0.0 
1.797304854588e-03 3.461923718350e-03 0.0 
0.0 0.0 0.0 
3.457532093365e-04 8.880247752342e-04 0.0 
8.880247752342e-04 2.293405335874e-03 0.0 
0.0 0.0 0.0 
-2.059410690532e-03 8.524159577817e-04 0.0 
8.524159577817e-04 1.616319659290e-02 0.0 
0.0 0.0 0.0 
1.760556659594e-03 8.152610738345e-04 0.0 
8.152610738345e-04 4.814993907538e-03 0.0 
0.0 0.0 0.0 
7.941743888220e-04 2.138137154113e-03 0.0 
2.138137154113e-03 3.432555572993e-03 0.0 
0.0 0.0 0.0 
-2.245107727416e-03 6.753244591259e-04 0.0 
6.753244591259e-04 1.605573564443e-02 0.0 
0.0 0.0 0.0 
3.554317930230e-04 4.322205783468e-03 0.0 
4.322205783468e-03 1.192867905270e-02 0.0 
0.0 0.0 0.0 
1.441163045486e-03 8.897506043610e-04 0.0 
8.897506043610e-04 5.578250735502e-03 0.0 
0.0 0.0 0.0 
2.221655815604e-04 5.069162922016e-03 0.0 
5.069162922016e-03 1.324023904759e-02 0.0 
0.0 0.0 0.0 
-2.497631206893e-03 1.054919830730e-03 0.0 
1.054919830730e-03 1.593432164120e-02 0.0 
0.0 0.0 0.0 
-1.554383250122e-03 3.249968817679e-03 0.0 
3.249968817679e-03 1.279306806801e-02 0.0 
0.0 0.0 0.0 
-2.196794155118e-05 1.531952372530e-03 0.0 
1.531952372530e-03 3.705562871142e-03 0.0 
0.0 0.0 0.0 
-1.740712702164e-03 2.628641642551e-03 0.0 
2.628641642551e-03 1.131970841266e-02 0.0 
0.0 0.0 0.0 
-1.470431578658e-03 2.733462062221e-03 0.0 
2.733462062221e-03 1.121110777426e-02 0.0 
0.0 0.0 0.0 
-1.676158671555e-03 2.774142599509e-03 0.0 
2.774142599509e-03 1.191305870023e-02 0.0 
0.0 0.0 0.0 
-1.927292693491e-04 2.728029266275e-03 0.0 
2.728029266275e-03 7.535005175666e-03 0.0 
0.0 0.0 0.0 
3.377535818820e-04 3.866478002999e-03 0.0 
3.866478002999e-03 1.138089727597e-02 0.0 
0.0 0.0 0.0 
-2.445035880913e-03 1.607957173594e-03 0.0 
1.607957173594e-03 1.515574135898e-02 0.0 
0.0 0.0 0.0 
-2.448838114135e-03 2.275406043652e-03 0.0 
2.275406043652e-03 1.338838891650e-02 0.0 
0.0 0.0 0.0 
1.581386763823e-03 1.015045547910e-03 0.0 
1.015045547910e-03 3.303319986820e-03 0.0 
0.0 0.0 0.0 
7.653144058186e-04 -4.287044902311e-04 0.0 
-4.287044902311e-04 1.079556210768e-03 0.0 
0.0 0.0 0.0 
-1.600340613757e-03 2.979162343164e-03 0.0 
2.979162343164e-03 1.169500728002e-02 0.0 
0.0 0.0 0.0 
9.651150813630e-04 2.196840422829e-03 0.0 
2.196840422829e-03 3.253329953408e-03 0.0 
0.0 0.0 0.0 
-1.547132175725e-03 8.189866559904e-06 0.0 
8.189866559904e-06 1.503996362645e-02 0.0 
0.0 0.0 0.0 
2.871694703551e-03 -3.794235255895e-04 0.0 
-3.794235255895e-04 9.123126935395e-05 0.0 
0.0 0.0 0.0 
1.158609973199e-03 9.440100702094e-04 0.0 
9.440100702094e-04 3.136374879090e-03 0.0 
0.0 0.0 0.0 
-1.792648680219e-03 2.687302759144e-03 0.0 
2.687302759144e-03 1.476021703805e-02 0.0 
0.0 0.0 0.0 
8.513557270791e-04 1.852006465145e-03 0.0 
1.852006465145e-03 3.298716659378e-03 0.0 
0.0 0.0 0.0 
-1.541257285019e-03 2.640032980280e-03 0.0 
2.640032980280e-03 1.090607601855e-02 0.0 
0.0 0.0 0.0 
3.034836228442e-03 1.795264871503e-03 0.0 
1.795264871503e-03 3.703416349080e-03 0.0 
0.0 0.0 0.0 
2.176458533933e-03 2.713834600710e-04 0.0 
2.713834600710e-04 2.851188705412e-03 0.0 
0.0 0.0 0.0 
3.768125298138e-04 3.188857408106e-03 0.0 
3.188857408106e-03 1.056518295084e-02 0.0 
0.0 0.0 0.0 
-8.288205490145e-04 3.417389906264e-03 0.0 
3.417389906264e-03 9.860519119280e-03 0.0 
0.0 0.0 0.0 
1.933930818468e-03 2.731760235187e-04 0.0 
2.731760235187e-04 1.282176611458e-03 0.0 
0.0 0.0 0.0 
1.957682552882e-03 -3.105855932863e-04 0.0 
-3.105855932863e-04 1.314650422621e-03 0.0 
0.0 0.0 0.0 
3.170796667562e-05 2.380129453327e-03 0.0 
2.380129453327e-03 4.851879505741e-03 0.0 
0.0 0.0 0.0 
1.091472666928e-03 2.456367363771e-03 0.0 
2.456367363771e-03 3.396642714203e-03 0.0 
0.0 0.0 0.0 
-1.680574464173e-03 3.324815802482e-03 0.0 
3.324815802482e-03 1.398702299919e-02 0.0 
0.0 0.0 0.0 
-1.180000062720e-03 2.742985103522e-03 0.0 
2.742985103522e-03 1.008285710969e-02 0.0 
0.0 0.0 0.0 
-3.481996678686e-04 3.375870622764e-03 0.0 
3.375870622764e-03 7.972452324715e-03 0.0 
0.0 0.0 0.0 
-1.666688177517e-03 2.759545488585e-03 0.0 
2.759545488585e-03 1.047452404711e-02 0.0 
0.0 0.0 0.0 
4.095841183631e-04 2.255428080883e-03 0.0 
2.255428080883e-03 9.531953864979e-03 0.0 
0.0 0.0 0.0 
7.826718814112e-04 2.256288272627e-03 0.0 
2.256288272627e-03 8.700834836045e-03 0.0 
0.0 0.0 0.0 
-1.469852954396e-03 3.186231394276e-03 0.0 
3.186231394276e-03 1.401468357719e-02 0.0 
0.0 0.0 0.0 
-2.165654285956e-03 2.541572626742e-03 0.0 
2.541572626742e-03 1.509922988454e-02 0.0 
0.0 0.0 0.0 
2.229288565526e-03 2.069512202294e-04 0.0 
2.069512202294e-04 2.543891149782e-03 0.0 
0.0 0.0 0.0 
1.468444067738e-04 2.870562008401e-03 0.0 
2.870562008401e-03 6.390857130119e-03 0.0 
0.0 0.0 0.0 
8.540320344286e-04 5.713457576026e-04 0.0 
5.713457576026e-04 2.501610044364e-03 0.0 
0.0 0.0 0.0 
1.230961532382e-03 6.330168358192e-04 0.0 
6.330168358192e-04 2.678418169633e-03 0.0 
0.0 0.0 0.0 
-9.755552442242e-04 2.681121657422e-03 0.0 
2.681121657422e-03 9.325116715819e-03 0.0 
0.0 0.0 0.0 
2.629339066362e-03 1.170990543552e-03 0.0 
1.170990543552e-03 3.565574442001e-03 0.0 
0.0 0.0 0.0 
9.715491761844e-04 -3.457347074518e-04 0.0 
-3.457347074518e-04 2.786261338822e-03 0.0 
0.0 0.0 0.0 
-1.586167568387e-03 2.929103254968e-03 0.0 
2.929103254968e-03 1.493130461214e-02 0.0 
0.0 0.0 0.0 
2.030041595177e-03 -1.479726777092e-04 0.0 
-1.479726777092e-04 1.347094185167e-03 0.0 
0.0 0.0 0.0 
9.634698404160e-05 2.559786797228e-03 0.0 
2.559786797228e-03 6.677214618398e-03 0.0 
0.0 0.0 0.0 
-1.314217941227e-03 2.709228964634e-03 0.0 
2.709228964634e-03 1.047655808358e-02 0.0 
0.0 0.0 0.0 
6.163045924912e-05 2.508532489544e-03 0.0 
2.508532489544e-03 6.243129560655e-03 0.0 
0.0 0.0 0.0 
-4.444911509949e-05 5.160872149385e-03 0.0 
5.160872149385e-03 1.361281855121e-02 0.0 
0.0 0.0 0.0 
-5.374155932006e-04 4.990263150221e-03 0.0 
4.990263150221e-03 1.454758726054e-02 0.0 
0.0 0.0 0.0 
-1.604169892001e-03 4.023248844259e-03 0.0 
4.023248844259e-03 1.495679347219e-02 0.0 
0.0 0.0 0.0 
2.069095423094e-03 3.094964951280e-04 0.0 
3.094964951280e-04 3.136193144802e-03 0.0 
0.0 0.0 0.0 
-1.784853189016e-03 2.197850446738e-03 0.0 
2.197850446738e-03 1.600743642298e-02 0.0 
0.0 0.0 0.0 
1.008908798311e-03 2.020315200616e-03 0.0 
2.020315200616e-03 2.928098008640e-03 0.0 
0.0 0.0 0.0 
1.739101971261e-03 6.991288353129e-04 0.0 
6.991288353129e-04 2.750568045777e-03 0.0 
0.0 0.0 0.0 
5.219262893463e-04 2.872529274762e-04 0.0 
2.872529274762e-04 1.964745201249e-03 0.0 
0.0 0.0 0.0 
-2.132198591506e-04 3.109809359312e-03 0.0 
3.109809359312e-03 7.609136447117e-03 0.0 
0.0 0.0 0.0 
-2.384934219508e-03 4.040962465834e-04 0.0 
4.040962465834e-04 1.533686577416e-02 0.0 
0.0 0.0 0.0 
-2.184527356326e-03 8.675015080199e-04 0.0 
8.675015080199e-04 1.595131475859e-02 0.0 
0.0 0.0 0.0 
6.796431117693e-04 1.603556108955e-03 0.0 
1.603556108955e-03 8.279879325698e-03 0.0 
0.0 0.0 0.0 
-1.300038551243e-03 3.400207736378e-03 0.0 
3.400207736378e-03 1.310121537838e-02 0.0 
0.0 0.0 0.0 
-1.945038040652e-03 2.530340069491e-03 0.0 
2.530340069491e-03 1.307614890493e-02 0.0 
0.0 0.0 0.0 
-1.396694770493e-03 2.852282775438e-03 0.0 
2.852282775438e-03 1.152383589625e-02 0.0 
0.0 0.0 0.0 
8.148666990815e-04 4.302920669577e-04 0.0 
4.302920669577e-04 1.766086425286e-03 0.0 
0.0 0.0 0.0 
6.925267095137e-05 -5.821861252400e-04 0.0 
-5.821861252400e-04 6.773841739740e-04 0.0 
0.0 0.0 0.0 
1.122027572206e-03 1.982563413687e-03 0.0 
1.982563413687e-03 4.490769682687e-03 0.0 
0.0 0.0 0.0 
1.332309193511e-04 2.637881283031e-03 0.0 
2.637881283031e-03 7.114178890552e-03 0.0 
0.0 0.0 0.0 
9.623097113376e-04 1.955201385400e-03 0.0 
1.955201385400e-03 5.230993669238e-03 0.0 
0.0 0.0 0.0 
-6.989807105392e-04 1.422443471962e-03 0.0 
1.422443471962e-03 1.802361692958e-03 0.0 
0.0 0.0 0.0 
-1.489534812529e-03 5.721841547213e-05 0.0 
5.721841547213e-05 1.538483848566e-02 0.0 
0.0 0.0 0.0 
6.873183231066e-04 -5.735260089060e-04 0.0 
-5.735260089060e-04 8.316128920467e-04 0.0 
0.0 0.0 0.0 
7.358708701688e-04 1.485389532678e-03 0.0 
1.485389532678e-03 2.939271433837e-03 0.0 
0.0 0.0 0.0 
0.0 1.599580633575e-03 0.0 
1.599580633575e-03 9.073566500788e-03 0.0 
0.0 0.0 0.0 
2.647366365244e-03 2.208574135711e-03 0.0 
2.208574135711e-03 4.887877304463e-03 0.0 
0.0 0.0 0.0 
-2.262358752394e-03 2.099101681295e-03 0.0 
2.099101681295e-03 1.340924194459e-02 0.0 
0.0 0.0 0.0 
1.468725932168e-03 2.489842099194e-05 0.0 
2.489842099194e-05 -4.107335045234e-05 0.0 
0.0 0.0 0.0 
-3.156628235056e-04 2.744004991133e-03 0.0 
2.744004991133e-03 7.533391744470e-03 0.0 
0.0 0.0 0.0 
1.188398314051e-03 1.649036673891e-03 0.0 
1.649036673891e-03 4.537375364692e-03 0.0 
0.0 0.0 0.0 
-1.809440588510e-03 2.781459677055e-03 0.0 
2.781459677055e-03 1.261794849661e-02 0.0 
0.0 0.0 0.0 
3.152667922854e-04 4.731521274861e-03 0.0 
4.731521274861e-03 1.255269111788e-02 0.0 
0.0 0.0 0.0 
-1.859687265983e-03 2.657669917309e-03 0.0 
2.657669917309e-03 1.131681195324e-02 0.0 
0.0 0.0 0.0 
-1.341482564962e-03 2.822206671127e-03 0.0 
2.822206671127e-03 1.081499768555e-02 0.0 
0.0 0.0 0.0 
1.219416101304e-03 -2.267110489351e-04 0.0 
-2.267110489351e-04 2.767061383158e-03 0.0 
0.0 0.0 0.0 
-1.754692712705e-03 2.619298919951e-03 0.0 
2.619298919951e-03 1.527651104043e-02 0.0 
0.0 0.0 0.0 
1.994893240899e-03 3.604029095878e-04 0.0 
3.604029095878e-04 3.456811341319e-03 0.0 
0.0 0.0 0.0 
3.516648603343e-04 4.512604684456e-03 0.0 
4.512604684456e-03 1.223950229637e-02 0.0 
0.0 0.0 0.0 
0.0 4.985412060676e-03 0.0 
4.985412060676e-03 1.340051583168e-02 0.0 
0.0 0.0 0.0 
0.0 4.142694187415e-03 0.0 
4.142694187415e-03 1.539442125499e-02 0.0 
0.0 0.0 0.0 
0.0 4.865234857128e-03 0.0 
4.865234857128e-03 1.431460227138e-02 0.0 
0.0 0.0 0.0 
-1.521000227114e-03 2.863029406730e-03 0.0 
2.863029406730e-03 1.221665953907e-02 0.0 
0.0 0.0 0.0 
-1.976412631401e-03 2.747097620497e-03 0.0 
2.747097620497e-03 1.526078967061e-02 0.0 
0.0 0.0 0.0 
-1.281820620892e-03 3.502058231917e-03 0.0 
3.502058231917e-03 1.366972223307e-02 0.0 
0.0 0.0 0.0 
-1.179330362211e-05 2.697449342392e-03 0.0 
2.697449342392e-03 6.220373833596e-03 0.0 
0.0 0.0 0.0 
-1.083671638749e-04 3.012650838032e-03 0.0 
3.012650838032e-03 6.373964732403e-03 0.0 
0.0 0.0 0.0 
6.615127680458e-04 -3.808398724206e-04 0.0 
-3.808398724206e-04 2.836511316706e-03 0.0 
0.0 0.0 0.0 
-1.832995003662e-03 3.056146210547e-03 0.0 
3.056146210547e-03 1.491385614607e-02 0.0 
0.0 0.0 0.0 
3.568154921538e-04 4.079534708299e-03 0.0 
4.079534708299e-03 1.162953150306e-02 0.0 
0.0 0.0 0.0 
-1.658437473459e-03 2.536205214101e-03 0.0 
2.536205214101e-03 1.573577580665e-02 0.0 
0.0 0.0 0.0 
3.040115826069e-03 2.108162909180e-03 0.0 
2.108162909180e-03 4.033238301400e-03 0.0 
0.0 0.0 0.0 
-1.903381819175e-03 2.658399714272e-03 0.0 
2.658399714272e-03 1.572023967857e-02 0.0 
0.0 0.0 0.0 
2.136286510075e-03 3.646300278945e-03 0.0 
3.646300278945e-03 7.086007747808e-03 0.0 
0.0 0.0 0.0 
3.495552132957e-04 2.613566229112e-03 0.0 
2.613566229112e-03 6.284959385597e-03 0.0 
0.0 0.0 0.0 
-5.443958290764e-04 3.108101725401e-03 0.0 
3.108101725401e-03 7.610223288334e-03 0.0 
0.0 0.0 0.0 
7.853936847830e-04 1.128964210623e-03 0.0 
1.128964210623e-03 2.070399845427e-03 0.0 
0.0 0.0 0.0 
-6.461390950736e-04 2.195410491802e-03 0.0 
2.195410491802e-03 1.689149930437e-02 0.0 
0.0 0.0 0.0 
2.369836229970e-04 2.548823280422e-03 0.0 
2.548823280422e-03 5.435723230481e-03 0.0 
0.0 0.0 0.0 
6.997899444439e-04 3.863505503062e-03 0.0 
3.863505503062e-03 1.010418950293e-02 0.0 
0.0 0.0 0.0 
8.972596901375e-04 -2.774235816130e-04 0.0 
-2.774235816130e-04 2.819682141241e-03 0.0 
0.0 0.0 0.0 
2.542503933990e-03 -5.281694481865e-04 0.0 
-5.281694481865e-04 6.876430805836e-05 0.0 
0.0 0.0 0.0 
3.483615147266e-04 1.441299566887e-03 0.0 
1.441299566887e-03 8.215148733408e-03 0.0 
0.0 0.0 0.0 
6.955171087148e-04 1.784051963152e-03 0.0 
1.784051963152e-03 3.422910672875e-03 0.0 
0.0 0.0 0.0 
0.0 4.855883698032e-03 0.0 
4.855883698032e-03 1.306212473632e-02 0.0 
0.0 0.0 0.0 
-8.245163033814e-04 3.580217254134e-03 0.0 
3.580217254134e-03 1.538247008242e-02 0.0 
0.0 0.0 0.0 
-9.367849959842e-04 2.799047816189e-03 0.0 
2.799047816189e-03 9.715542085684e-03 0.0 
0.0 0.0 0.0 
7.288686465823e-05 -5.294786624758e-04 0.0 
-5.294786624758e-04 3.856852267514e-04 0.0 
0.0 0.0 0.0 
0.0 4.492585285154e-03 0.0 
4.492585285154e-03 1.238077092255e-02 0.0 
0.0 0.0 0.0 
3.678996615311e-04 1.844914436824e-03 0.0 
1.844914436824e-03 8.572416774737e-03 0.0 
0.0 0.0 0.0 
2.870969545087e-03 -3.671237466774e-04 0.0 
-3.671237466774e-04 4.263180243891e-05 0.0 
0.0 0.0 0.0 
2.786729575505e-03 1.911199383860e-03 0.0 
1.911199383860e-03 4.280180610539e-03 0.0 
0.0 0.0 0.0 
3.889046186338e-04 2.967396738562e-03 0.0 
2.967396738562e-03 1.029926552122e-02 0.0 
0.0 0.0 0.0 
-2.501710509961e-04 -2.445136345818e-04 0.0 
-2.445136345818e-04 2.408536508727e-04 0.0 
0.0 0.0 0.0 
2.923245963278e-04 2.552627943572e-03 0.0 
2.552627943572e-03 5.874052146673e-03 0.0 
0.0 0.0 0.0 
-1.091055325742e-03 2.885035862189e-03 0.0 
2.885035862189e-03 1.045074311204e-02 0.0 
0.0 0.0 0.0 
-7.364258752399e-04 2.723660338867e-03 0.0 
2.723660338867e-03 8.927833280757e-03 0.0 
0.0 0.0 0.0 
-1.112705865698e-03 2.770253238589e-03 0.0 
2.770253238589e-03 1.007870495498e-02 0.0 
0.0 0.0 0.0 
9.300888320285e-04 1.487173309801e-03 0.0 
1.487173309801e-03 2.359589314390e-03 0.0 
0.0 0.0 0.0 
0.0 4.075841777005e-03 0.0 
4.075841777005e-03 1.176136224041e-02 0.0 
0.0 0.0 0.0 
2.510285711576e-03 8.537663496971e-04 0.0 
8.537663496971e-04 2.513255611889e-03 0.0 
0.0 0.0 0.0 
1.021722699828e-04 8.012584612282e-05 0.0 
8.012584612282e-05 1.333414843782e-03 0.0 
0.0 0.0 0.0 
2.866527838441e-04 4.052936769833e-04 0.0 
4.052936769833e-04 7.463906949044e-03 0.0 
0.0 0.0 0.0 
-2.543213660866e-04 -4.790549593796e-04 0.0 
-4.790549593796e-04 4.411885966515e-04 0.0 
0.0 0.0 0.0 
-1.374095595757e-03 2.923976108763e-03 0.0 
2.923976108763e-03 9.586774308833e-03 0.0 
0.0 0.0 0.0 
9.467559233258e-04 -5.002762457012e-04 0.0 
-5.002762457012e-04 7.522705767120e-04 0.0 
0.0 0.0 0.0 
-2.216511990315e-03 2.928005806190e-03 0.0 
2.928005806190e-03 1.170394565719e-02 0.0 
0.0 0.0 0.0 
3.711225582630e-04 1.983871862403e-03 0.0 
1.983871862403e-03 9.311764993570e-03 0.0 
0.0 0.0 0.0 
0.0 3.656438673461e-03 0.0 
3.656438673461e-03 1.125044656960e-02 0.0 
0.0 0.0 0.0 
-1.593470824339e-03 2.734654172249e-03 0.0 
2.734654172249e-03 1.191814251077e-02 0.0 
0.0 0.0 0.0 
3.587355043959e-04 -4.922237762254e-04 0.0 
-4.922237762254e-04 7.166138438501e-04 0.0 
0.0 0.0 0.0 
-8.706377114598e-05 3.481948606518e-04 0.0 
3.481948606518e-04 1.047370705269e-03 0.0 
0.0 0.0 0.0 
3.510134477620e-04 -5.378558331283e-04 0.0 
-5.378558331283e-04 1.017046600757e-03 0.0 
0.0 0.0 0.0 
7.405893646464e-04 3.434347471503e-04 0.0 
3.434347471503e-04 6.094326186730e-03 0.0 
0.0 0.0 0.0 
-2.172609745498e-03 5.234098444500e-04 0.0 
5.234098444500e-04 1.511650386525e-02 0.0 
0.0 0.0 0.0 
-2.539724316510e-03 2.193228063782e-03 0.0 
2.193228063782e-03 1.413510405845e-02 0.0 
0.0 0.0 0.0 
0.0 3.211638440588e-03 0.0 
3.211638440588e-03 1.068680699316e-02 0.0 
0.0 0.0 0.0 
-2.019009974323e-03 3.420754381509e-04 0.0 
3.420754381509e-04 1.512992943617e-02 0.0 
0.0 0.0 0.0 
-6.988586572670e-04 4.138429592430e-03 0.0 
4.138429592430e-03 1.560228505831e-02 0.0 
0.0 0.0 0.0 
2.358713207775e-03 3.674785771581e-03 0.0 
3.674785771581e-03 6.697551394546e-03 0.0 
0.0 0.0 0.0 
-2.071918746968e-03 5.492584590095e-04 0.0 
5.492584590095e-04 1.585688976639e-02 0.0 
0.0 0.0 0.0 
1.009082091749e-03 2.857440753720e-03 0.0 
2.857440753720e-03 3.964494582379e-03 0.0 
0.0 0.0 0.0 
2.920359134286e-03 2.093524840153e-03 0.0 
2.093524840153e-03 4.254074211826e-03 0.0 
0.0 0.0 0.0 
3.676430421908e-04 4.936132579669e-04 0.0 
4.936132579669e-04 1.899427265501e-03 0.0 
0.0 0.0 0.0 
0.0 2.740297909761e-03 0.0 
2.740297909761e-03 1.016666925422e-02 0.0 
0.0 0.0 0.0 
0.0 4.961192634130e-03 0.0 
4.961192634130e-03 1.381028354892e-02 0.0 
0.0 0.0 0.0 
0.0 4.551205919811e-03 0.0 
4.551205919811e-03 1.489930473504e-02 0.0 
0.0 0.0 0.0 
1.836502223079e-03 2.365713807716e-04 0.0 
2.365713807716e-04 3.476053438885e-03 0.0 
0.0 0.0 0.0 
4.159592472581e-04 -3.814777575109e-04 0.0 
-3.814777575109e-04 2.857660240542e-03 0.0 
0.0 0.0 0.0 
3.967575692068e-04 2.427617740795e-03 0.0 
2.427617740795e-03 6.313182214854e-03 0.0 
0.0 0.0 0.0 
1.748063369453e-03 2.822133330725e-04 0.0 
2.822133330725e-04 3.801842137223e-03 0.0 
0.0 0.0 0.0 
0.0 2.281004756794e-03 0.0 
2.281004756794e-03 9.693437937484e-03 0.0 
0.0 0.0 0.0 
6.650841151030e-04 1.116400831732e-03 0.0 
1.116400831732e-03 2.994676434013e-03 0.0 
0.0 0.0 0.0 
3.274105241867e-03 5.499228178589e-05 0.0 
5.499228178589e-05 2.387143547591e-04 0.0 
0.0 0.0 0.0 
3.299525600501e-03 1.797693302901e-05 0.0 
1.797693302901e-05 3.204954838192e-04 0.0 
0.0 0.0 0.0 
-1.973359333102e-03 5.819194335739e-04 0.0 
5.819194335739e-04 1.606546638936e-02 0.0 
0.0 0.0 0.0 
2.892934596175e-04 1.359111571537e-03 0.0 
1.359111571537e-03 8.795371933378e-03 0.0 
0.0 0.0 0.0 
-1.870936652564e-04 -5.054703722125e-04 0.0 
-5.054703722125e-04 9.842690428341e-04 0.0 
0.0 0.0 0.0 
0.0 1.803706880983e-03 0.0 
1.803706880983e-03 9.227361042885e-03 0.0 
0.0 0.0 0.0 
3.062847527997e-03 -1.851522976999e-04 0.0 
-1.851522976999e-04 2.521343113688e-04 0.0 
0.0 0.0 0.0 
0.0 4.687354499921e-03 0.0 
4.687354499921e-03 1.274241596793e-02 0.0 
0.0 0.0 0.0 
-1.605301985792e-03 3.586777302721e-03 0.0 
3.586777302721e-03 1.365761906382e-02 0.0 
0.0 0.0 0.0 
-8.017004993749e-04 -2.309619515563e-04 0.0 
-2.309619515563e-04 4.440378905890e-04 0.0 
0.0 0.0 0.0 
5.888836705368e-04 2.405447795426e-03 0.0 
2.405447795426e-03 5.528318621043e-03 0.0 
0.0 0.0 0.0 
-1.904299684098e-03 2.237270800227e-03 0.0 
2.237270800227e-03 1.633112134107e-02 0.0 
0.0 0.0 0.0 
0.0 4.287151418378e-03 0.0 
4.287151418378e-03 1.209592130401e-02 0.0 
0.0 0.0 0.0 
-1.619294865703e-03 2.910380219737e-03 0.0 
2.910380219737e-03 1.221085494101e-02 0.0 
0.0 0.0 0.0 
2.201303804780e-03 3.413550554487e-03 0.0 
3.413550554487e-03 6.783229530569e-03 0.0 
0.0 0.0 0.0 
3.566675018563e-04 9.528114785808e-04 0.0 
9.528114785808e-04 1.957672286896e-03 0.0 
0.0 0.0 0.0 
7.268542232048e-04 1.692351896830e-03 0.0 
1.692351896830e-03 7.745903074101e-03 0.0 
0.0 0.0 0.0 
2.788578875864e-03 -1.681278858977e-04 0.0 
-1.681278858977e-04 5.934289279532e-04 0.0 
0.0 0.0 0.0 
3.004302416244e-03 -1.441533689377e-04 0.0 
-1.441533689377e-04 3.434628039771e-04 0.0 
0.0 0.0 0.0 
-8.793407835485e-04 -3.193186945306e-04 0.0 
-3.193186945306e-04 8.618184985025e-04 0.0 
0.0 0.0 0.0 
0.0 3.863072803543e-03 0.0 
3.863072803543e-03 1.149826323420e-02 0.0 
0.0 0.0 0.0 
5.696583199339e-04 5.232200020731e-04 0.0 
5.232200020731e-04 2.253459617775e-03 0.0 
0.0 0.0 0.0 
1.256929380757e-03 9.649798119176e-04 0.0 
9.649798119176e-04 6.064492115446e-03 0.0 
0.0 0.0 0.0 
-2.182279337566e-03 4.065425331813e-04 0.0 
4.065425331813e-04 1.567907053990e-02 0.0 
0.0 0.0 0.0 
1.701507070005e-03 -5.181693396042e-04 0.0 
-5.181693396042e-04 7.477448082218e-04 0.0 
0.0 0.0 0.0 
3.088241151056e-03 -1.565235773996e-04 0.0 
-1.565235773996e-04 2.701873902757e-04 0.0 
0.0 0.0 0.0 
-1.487489210273e-03 2.877020670468e-03 0.0 
2.877020670468e-03 1.152090572753e-02 0.0 
0.0 0.0 0.0 
0.0 2.982209397151e-03 0.0 
2.982209397151e-03 1.045238574762e-02 0.0 
0.0 0.0 0.0 
3.609796830149e-04 -3.004761057342e-04 0.0 
-3.004761057342e-04 3.212770605295e-03 0.0 
0.0 0.0 0.0 
1.639761480605e-03 4.933437603565e-04 0.0 
4.933437603565e-04 4.455705218542e-03 0.0 
0.0 0.0 0.0 
2.171343926816e-05 2.802615375043e-03 0.0 
2.802615375043e-03 7.572200319204e-03 0.0 
0.0 0.0 0.0 
2.373068222290e-03 7.978367065940e-04 0.0 
7.978367065940e-04 3.470494819527e-03 0.0 
0.0 0.0 0.0 
3.219714449949e-03 4.810266195080e-05 0.0 
4.810266195080e-05 4.994870630071e-04 0.0 
0.0 0.0 0.0 
1.871448666216e-03 4.047135942659e-04 0.0 
4.047135942659e-04 3.774671543902e-03 0.0 
0.0 0.0 0.0 
-1.962821482580e-04 2.786745621626e-03 0.0 
2.786745621626e-03 7.998356746159e-03 0.0 
0.0 0.0 0.0 
4.792774678382e-04 3.466083952075e-03 0.0 
3.466083952075e-03 9.265734629383e-03 0.0 
0.0 0.0 0.0 
2.492966994512e-03 2.174041898864e-03 0.0 
2.174041898864e-03 5.118563312826e-03 0.0 
0.0 0.0 0.0 
3.682108856697e-04 2.677000522350e-03 0.0 
2.677000522350e-03 6.722970978306e-03 0.0 
0.0 0.0 0.0 
1.489335117406e-03 -2.118210103441e-04 0.0 
-2.118210103441e-04 2.361581783296e-03 0.0 
0.0 0.0 0.0 
6.570155385046e-04 1.434991507016e-03 0.0 
1.434991507016e-03 3.473335618697e-03 0.0 
0.0 0.0 0.0 
5.935509149839e-04 -3.126668980437e-04 0.0 
-3.126668980437e-04 2.846334602285e-03 0.0 
0.0 0.0 0.0 
2.409903524662e-03 3.541976974026e-03 0.0 
3.541976974026e-03 6.720488734133e-03 0.0 
0.0 0.0 0.0 
3.385053113513e-03 1.684108101041e-03 0.0 
1.684108101041e-03 2.923567075042e-03 0.0 
0.0 0.0 0.0 
3.491078495192e-04 1.768274571083e-03 0.0 
1.768274571083e-03 9.151122162008e-03 0.0 
0.0 0.0 0.0 
-1.799325884120e-03 2.587264536235e-03 0.0 
2.587264536235e-03 1.612043311467e-02 0.0 
0.0 0.0 0.0 
1.590838961397e-03 -4.289656004191e-04 0.0 
-4.289656004191e-04 8.746916609577e-04 0.0 
0.0 0.0 0.0 
0.0 2.024154923766e-03 0.0 
2.024154923766e-03 9.401370876057e-03 0.0 
0.0 0.0 0.0 
7.273319124783e-04 1.827525152313e-03 0.0 
1.827525152313e-03 8.472001195102e-03 0.0 
0.0 0.0 0.0 
1.539377185169e-03 2.141217071351e-03 0.0 
2.141217071351e-03 4.545744125639e-03 0.0 
0.0 0.0 0.0 
-1.781834983792e-04 -3.832812359836e-04 0.0 
-3.832812359836e-04 5.278656005459e-04 0.0 
0.0 0.0 0.0 
2.833373525748e-04 1.201922052883e-03 0.0 
1.201922052883e-03 8.648542175643e-03 0.0 
0.0 0.0 0.0 
-1.749983538208e-03 2.982576176926e-03 0.0 
2.982576176926e-03 1.540073923507e-02 0.0 
0.0 0.0 0.0 
2.726759422354e-03 -3.259412026402e-04 0.0 
-3.259412026402e-04 2.670713602904e-04 0.0 
0.0 0.0 0.0 
0.0 1.396011212561e-03 0.0 
1.396011212561e-03 8.857600985983e-03 0.0 
0.0 0.0 0.0 
1.633448554901e-03 3.234279337993e-04 0.0 
3.234279337993e-04 4.120816175064e-03 0.0 
0.0 0.0 0.0 
-6.192494523709e-04 2.745889361025e-03 0.0 
2.745889361025e-03 7.417572681515e-03 0.0 
0.0 0.0 0.0 
-2.191750168364e-03 2.287057876596e-03 0.0 
2.287057876596e-03 1.359178986726e-02 0.0 
0.0 0.0 0.0 
3.500624851652e-03 1.676314090976e-03 0.0 
1.676314090976e-03 2.649106944560e-03 0.0 
0.0 0.0 0.0 
2.003980254774e-03 1.426527230605e-04 0.0 
1.426527230605e-04 2.870722072706e-03 0.0 
0.0 0.0 0.0 
2.367804408042e-03 1.033770604303e-03 0.0 
1.033770604303e-03 3.869928437406e-03 0.0 
0.0 0.0 0.0 
-2.329783674374e-03 2.358270593724e-03 0.0 
2.358270593724e-03 1.494786497839e-02 0.0 
0.0 0.0 0.0 
-1.194095450057e-03 2.626335212785e-03 0.0 
2.626335212785e-03 9.318218856228e-03 0.0 
0.0 0.0 0.0 
2.316619575304e-03 2.460603215499e-03 0.0 
2.460603215499e-03 5.760383588087e-03 0.0 
0.0 0.0 0.0 
-1.496200636149e-03 6.495314840259e-05 0.0 
6.495314840259e-05 1.571553120130e-02 0.0 
0.0 0.0 0.0 
1.240100565397e-03 -3.426699053677e-04 0.0 
-3.426699053677e-04 2.382634892811e-03 0.0 
0.0 0.0 0.0 
2.642362054965e-03 1.888371669374e-03 0.0 
1.888371669374e-03 4.525999532547e-03 0.0 
0.0 0.0 0.0 
2.462840725459e-03 -3.045419753459e-04 0.0 
-3.045419753459e-04 6.120920796333e-04 0.0 
0.0 0.0 0.0 
8.306380084240e-04 -8.332842389338e-05 0.0 
-8.332842389338e-05 4.456896414203e-03 0.0 
0.0 0.0 0.0 
-1.184314867773e-03 -2.048961059119e-04 0.0 
-2.048961059119e-04 6.249632369184e-04 0.0 
0.0 0.0 0.0 
5.935277210760e-04 1.753265408567e-03 0.0 
1.753265408567e-03 4.043193419148e-03 0.0 
0.0 0.0 0.0 
2.723207557421e-03 -3.237704801573e-04 0.0 
-3.237704801573e-04 2.735077019964e-04 0.0 
0.0 0.0 0.0 
9.424966319238e-04 -2.331837532527e-04 0.0 
-2.331837532527e-04 3.180226204970e-03 0.0 
0.0 0.0 0.0 
1.202782926538e-03 2.389911508900e-03 0.0 
2.389911508900e-03 5.352432571106e-03 0.0 
0.0 0.0 0.0 
1.778380842931e-03 4.441801881048e-04 0.0 
4.441801881048e-04 4.102236858661e-03 0.0 
0.0 0.0 0.0 
-2.103059207311e-03 4.291917893542e-04 0.0 
4.291917893542e-04 1.590178988497e-02 0.0 
0.0 0.0 0.0 
2.370615255529e-03 -4.681157918498e-04 0.0 
-4.681157918498e-04 2.913177675585e-04 0.0 
0.0 0.0 0.0 
0.0 1.219213831885e-03 0.0 
1.219213831885e-03 8.732617631494e-03 0.0 
0.0 0.0 0.0 
-1.168683590309e-03 2.858208165184e-03 0.0 
2.858208165184e-03 1.045478198644e-02 0.0 
0.0 0.0 0.0 
6.420773428804e-04 -2.379121875617e-04 0.0 
-2.379121875617e-04 3.623966180861e-03 0.0 
0.0 0.0 0.0 
-9.722876368383e-04 2.774129404529e-03 0.0 
2.774129404529e-03 9.719197184077e-03 0.0 
0.0 0.0 0.0 
6.989466869238e-04 -3.406852214086e-04 0.0 
-3.406852214086e-04 3.197576181618e-03 0.0 
0.0 0.0 0.0 
-4.897824020312e-04 -2.399384887383e-04 0.0 
-2.399384887383e-04 3.492187102916e-04 0.0 
0.0 0.0 0.0 
-2.392008365596e-03 2.332711379727e-03 0.0 
2.332711379727e-03 1.422895279995e-02 0.0 
0.0 0.0 0.0 
-1.894931745405e-06 -1.506578515499e-04 0.0 
-1.506578515499e-04 3.374888424565e-03 0.0 
0.0 0.0 0.0 
7.534522347421e-04 2.452392075165e-05 0.0 
2.452392075165e-05 -2.129681101088e-04 0.0 
0.0 0.0 0.0 
3.381164233518e-04 -2.693503468751e-04 0.0 
-2.693503468751e-04 3.653539764135e-03 0.0 
0.0 0.0 0.0 
1.527312516153e-03 5.211348984752e-04 0.0 
5.211348984752e-04 4.784659267886e-03 0.0 
0.0 0.0 0.0 
-9.926681238612e-04 6.130010824388e-04 0.0 
6.130010824388e-04 1.698864655175e-02 0.0 
0.0 0.0 0.0 
2.629723476281e-03 9.175404714036e-04 0.0 
9.175404714036e-04 3.158680717709e-03 0.0 
0.0 0.0 0.0 
2.540484421389e-03 9.497809828875e-04 0.0 
9.497809828875e-04 3.443137926374e-03 0.0 
0.0 0.0 0.0 
-2.506995431492e-03 2.081366932185e-03 0.0 
2.081366932185e-03 1.389025391927e-02 0.0 
0.0 0.0 0.0 
-2.007158800065e-03 9.704432245543e-05 0.0 
9.704432245543e-05 1.485687432331e-02 0.0 
0.0 0.0 0.0 
-8.535640568925e-04 2.729760647927e-03 0.0 
2.729760647927e-03 1.652343822676e-02 0.0 
0.0 0.0 0.0 
-5.962784777421e-04 2.821595539283e-03 0.0 
2.821595539283e-03 8.914485922083e-03 0.0 
0.0 0.0 0.0 
1.922985985258e-03 4.023251318049e-06 0.0 
4.023251318049e-06 -6.924252024110e-04 0.0 
0.0 0.0 0.0 
4.728023035530e-04 -4.398970850057e-04 0.0 
-4.398970850057e-04 8.940802645991e-04 0.0 
0.0 0.0 0.0 
-4.267901833233e-05 -4.757192760191e-04 0.0 
-4.757192760191e-04 4.619708290015e-04 0.0 
0.0 0.0 0.0 
1.058381102773e-03 -5.207649736945e-04 0.0 
-5.207649736945e-04 1.221564244119e-03 0.0 
0.0 0.0 0.0 
8.689637053270e-04 4.275147722596e-03 0.0 
4.275147722596e-03 1.023455125292e-02 0.0 
0.0 0.0 0.0 
-1.160053534654e-03 5.916941131488e-04 0.0 
5.916941131488e-04 1.699179643652e-02 0.0 
0.0 0.0 0.0 
8.699658816878e-04 2.971094559409e-04 0.0 
2.971094559409e-04 5.722906885588e-03 0.0 
0.0 0.0 0.0 
7.428899387496e-04 -4.517582814959e-04 0.0 
-4.517582814959e-04 1.826649368093e-03 0.0 
0.0 0.0 0.0 
6.564873271044e-04 -1.712120527935e-04 0.0 
-1.712120527935e-04 4.472173986448e-03 0.0 
0.0 0.0 0.0 
1.127479103264e-03 9.649908259387e-04 0.0 
9.649908259387e-04 6.341199795745e-03 0.0 
0.0 0.0 0.0 
4.675914416017e-04 3.907488084189e-05 0.0 
3.907488084189e-05 1.668273281343e-03 0.0 
0.0 0.0 0.0 
2.423700471965e-05 -1.100828550345e-04 0.0 
-1.100828550345e-04 3.374156552143e-03 0.0 
0.0 0.0 0.0 
2.009310378923e-04 -5.148840822699e-05 0.0 
-5.148840822699e-05 2.693420822743e-03 0.0 
0.0 0.0 0.0 
2.593847165313e-04 1.031412143344e-03 0.0 
1.031412143344e-03 8.488990329624e-03 0.0 
0.0 0.0 0.0 
0.0 1.046773196276e-03 0.0 
1.046773196276e-03 8.564622224407e-03 0.0 
0.0 0.0 0.0 
-7.227901070972e-05 -1.174791380484e-04 0.0 
-1.174791380484e-04 3.769404997757e-03 0.0 
0.0 0.0 0.0 
3.958145531422e-04 -3.259394475081e-04 0.0 
-3.259394475081e-04 3.638835471072e-03 0.0 
0.0 0.0 0.0 
1.935352352921e-03 2.020805376260e-04 0.0 
2.020805376260e-04 3.192334927302e-03 0.0 
0.0 0.0 0.0 
1.053649809514e-03 1.171423113294e-03 0.0 
1.171423113294e-03 6.829790627265e-03 0.0 
0.0 0.0 0.0 
4.810599304692e-04 -3.707132486432e-04 0.0 
-3.707132486432e-04 1.065869546378e-03 0.0 
0.0 0.0 0.0 
1.211269665417e-03 7.721138465124e-04 0.0 
7.721138465124e-04 5.886677275309e-03 0.0 
0.0 0.0 0.0 
1.356322577859e-03 9.057267197947e-05 0.0 
9.057267197947e-05 -1.686233196679e-04 0.0 
0.0 0.0 0.0 
4.122459415632e-04 -3.590504336904e-04 0.0 
-3.590504336904e-04 3.235816843963e-03 0.0 
0.0 0.0 0.0 
9.966088955013e-04 -2.889003661126e-04 0.0 
-2.889003661126e-04 3.179444447387e-03 0.0 
0.0 0.0 0.0 
1.425348519249e-03 -1.288784073419e-05 0.0 
-1.288784073419e-05 -7.105000334053e-04 0.0 
0.0 0.0 0.0 
-3.867877770258e-05 -9.388573233646e-05 0.0 
-9.388573233646e-05 3.600320829811e-03 0.0 
0.0 0.0 0.0 
-1.487172910753e-03 2.485786909145e-03 0.0 
2.485786909145e-03 1.613572721342e-02 0.0 
0.0 0.0 0.0 
1.591641565639e-03 -2.143290798906e-06 0.0 
-2.143290798906e-06 -5.560248543818e-04 0.0 
0.0 0.0 0.0 
-2.160318870399e-03 2.533097263149e-04 0.0 
2.533097263149e-04 1.492920018753e-02 0.0 
0.0 0.0 0.0 
-2.133787744632e-03 2.908155276525e-04 0.0 
2.908155276525e-04 1.488291075328e-02 0.0 
0.0 0.0 0.0 
2.329760062531e-03 1.282891429407e-03 0.0 
1.282891429407e-03 4.322196978895e-03 0.0 
0.0 0.0 0.0 
2.754793314161e-04 -8.364345138089e-06 0.0 
-8.364345138089e-06 2.694985503240e-03 0.0 
0.0 0.0 0.0 
2.452838417892e-03 -2.956468035764e-04 0.0 
-2.956468035764e-04 6.192661701043e-04 0.0 
0.0 0.0 0.0 
5.453702074658e-04 1.295074480997e-03 0.0 
1.295074480997e-03 2.597423053615e-03 0.0 
0.0 0.0 0.0 
5.293848224350e-04 3.091806699726e-04 0.0 
3.091806699726e-04 6.550733685529e-03 0.0 
0.0 0.0 0.0 
3.543361267626e-04 3.976304360705e-03 0.0 
3.976304360705e-03 1.092103866905e-02 0.0 
0.0 0.0 0.0 
-1.595417070686e-03 8.660623506554e-04 0.0 
8.660623506554e-04 1.684430857592e-02 0.0 
0.0 0.0 0.0 
8.260903516304e-04 2.574040199990e-03 0.0 
2.574040199990e-03 4.000796645526e-03 0.0 
0.0 0.0 0.0 
4.005470874384e-04 -3.992980201093e-04 0.0 
-3.992980201093e-04 5.981472576495e-04 0.0 
0.0 0.0 0.0 
-1.395773159867e-03 2.729633216125e-03 0.0 
2.729633216125e-03 1.047726013833e-02 0.0 
0.0 0.0 0.0 
-1.706629479667e-03 4.535841924768e-06 0.0 
4.535841924768e-06 1.474700168595e-02 0.0 
0.0 0.0 0.0 
-1.538232644297e-03 2.180574011801e-06 0.0 
2.180574011801e-06 1.468580670973e-02 0.0 
0.0 0.0 0.0 
1.630062561497e-03 1.928699425726e-05 0.0 
1.928699425726e-05 -5.936243583295e-04 0.0 
0.0 0.0 0.0 
1.356140310986e-03 2.246140970529e-05 0.0 
2.246140970529e-05 -6.367815276310e-04 0.0 
0.0 0.0 0.0 
1.350453701066e-03 -2.816657160540e-05 0.0 
-2.816657160540e-05 -3.531539738189e-04 0.0 
0.0 0.0 0.0 
5.536698311475e-04 -3.531475262696e-04 0.0 
-3.531475262696e-04 1.518916784497e-03 0.0 
0.0 0.0 0.0 
1.617635171423e-03 4.030712907752e-05 0.0 
4.030712907752e-05 -8.360518666064e-04 0.0 
0.0 0.0 0.0 
-1.130881507722e-04 -9.243738872041e-05 0.0 
-9.243738872041e-05 4.010606749438e-03 0.0 
0.0 0.0 0.0 
-1.017078225248e-03 -3.693327918328e-05 0.0 
-3.693327918328e-05 5.765641382927e-04 0.0 
0.0 0.0 0.0 
6.540166161788e-04 -3.565622476113e-04 0.0 
-3.565622476113e-04 1.814093107502e-03 0.0 
0.0 0.0 0.0 
-1.353470500107e-03 1.254293588082e-04 0.0 
1.254293588082e-04 1.603352212114e-02 0.0 
0.0 0.0 0.0 
-1.583353341066e-03 7.123076223981e-05 0.0 
7.123076223981e-05 1.467667788432e-02 0.0 
0.0 0.0 0.0 
6.790996816166e-04 4.441159836052e-03 0.0 
4.441159836052e-03 1.091460264436e-02 0.0 
0.0 0.0 0.0 
1.526373384718e-03 3.570977894362e-04 0.0 
3.570977894362e-04 4.449385811121e-03 0.0 
0.0 0.0 0.0 
-1.417663436609e-03 7.658244601590e-05 0.0 
7.658244601590e-05 1.569753786561e-02 0.0 
0.0 0.0 0.0 
1.536538955895e-04 -3.224989057880e-05 0.0 
-3.224989057880e-05 2.955882881197e-03 0.0 
0.0 0.0 0.0 
1.613244032072e-03 -3.811619308811e-05 0.0 
-3.811619308811e-05 -4.513796259648e-04 0.0 
0.0 0.0 0.0 
0.0 1.434991593096e-03 0.0 
1.434991593096e-03 1.732410255106e-02 0.0 
0.0 0.0 0.0 
-4.692347962638e-04 1.623818861023e-03 0.0 
1.623818861023e-03 1.726492641178e-02 0.0 
0.0 0.0 0.0 
-1.950291356497e-03 3.242049426566e-04 0.0 
3.242049426566e-04 1.568490262322e-02 0.0 
0.0 0.0 0.0 
-1.803340097474e-03 7.645331579526e-06 0.0 
7.645331579526e-06 1.477615920531e-02 0.0 
0.0 0.0 0.0 
1.621615540717e-04 -6.354660052771e-05 0.0 
-6.354660052771e-05 2.970853973315e-03 0.0 
0.0 0.0 0.0 
-3.686620124164e-04 1.089900031963e-03 0.0 
1.089900031963e-03 1.745066320045e-02 0.0 
0.0 0.0 0.0 
6.404050659299e-04 -4.540375034767e-04 0.0 
-4.540375034767e-04 1.560880323631e-03 0.0 
0.0 0.0 0.0 
-1.742370198779e-03 1.694427246229e-04 0.0 
1.694427246229e-04 1.468801165711e-02 0.0 
0.0 0.0 0.0 
-1.859769677140e-03 4.513596750567e-05 0.0 
4.513596750567e-05 1.480531881824e-02 0.0 
0.0 0.0 0.0 
-1.717051091693e-03 3.321641838422e-03 0.0 
3.321641838422e-03 1.078966423739e-02 0.0 
0.0 0.0 0.0 
0.0 3.730090090560e-03 0.0 
3.730090090560e-03 1.583946125300e-02 0.0 
0.0 0.0 0.0 
-4.381491722153e-04 1.349263494757e-03 0.0 
1.349263494757e-03 1.737083075622e-02 0.0 
0.0 0.0 0.0 
1.486645536902e-03 2.657741723375e-05 0.0 
2.657741723375e-05 -6.853457400295e-04 0.0 
0.0 0.0 0.0 
1.486679608187e-03 -9.801479713573e-06 0.0 
-9.801479713573e-06 -5.298840987059e-04 0.0 
0.0 0.0 0.0 
4.176848743933e-04 -3.475599955901e-04 0.0 
-3.475599955901e-04 7.557678391059e-04 0.0 
0.0 0.0 0.0 
1.223749148284e-03 -1.767670561580e-04 0.0 
-1.767670561580e-04 3.161505642061e-03 0.0 
0.0 0.0 0.0 
1.030067627492e-04 4.578870126525e-05 0.0 
4.578870126525e-05 6.725263087762e-03 0.0 
0.0 0.0 0.0 
-1.801867910048e-03 -4.783859118144e-05 0.0 
-4.783859118144e-05 8.857960472577e-04 0.0 
0.0 0.0 0.0 
-1.054388250117e-03 5.691426551128e-05 0.0 
5.691426551128e-05 1.671163535979e-02 0.0 
0.0 0.0 0.0 
-8.751985355443e-04 -1.247510619673e-04 0.0 
-1.247510619673e-04 5.187992707576e-04 0.0 
0.0 0.0 0.0 
2.266194119360e-03 1.055233740848e-03 0.0 
1.055233740848e-03 4.150154833965e-03 0.0 
0.0 0.0 0.0 
-1.487110806650e-03 -1.522942960456e-04 0.0 
-1.522942960456e-04 7.542096116462e-04 0.0 
0.0 0.0 0.0 
-1.686143655051e-03 -1.084450333378e-04 0.0 
-1.084450333378e-04 8.405586978775e-04 0.0 
0.0 0.0 0.0 
2.282897489384e-03 8.300505202392e-04 0.0 
8.300505202392e-04 3.757966926730e-03 0.0 
0.0 0.0 0.0 
2.434278684731e-04 5.528069362602e-05 0.0 
5.528069362602e-05 6.559669819993e-03 0.0 
0.0 0.0 0.0 
-1.422729364547e-03 8.007619749635e-05 0.0 
8.007619749635e-05 1.600383814921e-02 0.0 
0.0 0.0 0.0 
-1.372937286494e-03 2.623629229988e-03 0.0 
2.623629229988e-03 1.013848352770e-02 0.0 
0.0 0.0 0.0 
1.613313303184e-03 -3.141375246171e-05 0.0 
-3.141375246171e-05 -9.160268793860e-04 0.0 
0.0 0.0 0.0 
4.694103444076e-04 -1.785564892749e-04 0.0 
-1.785564892749e-04 4.783257567426e-03 0.0 
0.0 0.0 0.0 
0.0 4.086904457919e-04 0.0 
4.086904457919e-04 1.755944574169e-02 0.0 
0.0 0.0 0.0 
-2.947774278222e-04 4.702276701147e-04 0.0 
4.702276701147e-04 1.756040259529e-02 0.0 
0.0 0.0 0.0 
-1.530799018000e-03 2.185421353006e-05 0.0 
2.185421353006e-05 1.466882702620e-02 0.0 
0.0 0.0 0.0 
2.215249969620e-03 1.289609221054e-03 0.0 
1.289609221054e-03 4.587207082122e-03 0.0 
0.0 0.0 0.0 
0.0 1.173979772844e-03 0.0 
1.173979772844e-03 1.742069750788e-02 0.0 
0.0 0.0 0.0 
2.220259868490e-03 3.284930926244e-03 0.0 
3.284930926244e-03 6.801808699627e-03 0.0 
0.0 0.0 0.0 
1.534962491712e-03 1.909419057986e-05 0.0 
1.909419057986e-05 -4.709975646299e-04 0.0 
0.0 0.0 0.0 
1.861947014289e-03 -7.527197157809e-05 0.0 
-7.527197157809e-05 -9.480972805485e-04 0.0 
0.0 0.0 0.0 
1.530880672047e-03 -1.803693134989e-05 0.0 
-1.803693134989e-05 -7.942942351254e-04 0.0 
0.0 0.0 0.0 
9.393590860052e-06 -2.984913844519e-05 0.0 
-2.984913844519e-05 3.400491421157e-03 0.0 
0.0 0.0 0.0 
6.268748732108e-05 1.436352310195e-04 0.0 
1.436352310195e-04 7.549913384489e-03 0.0 
0.0 0.0 0.0 
-4.718206522736e-04 -8.860491170236e-06 0.0 
-8.860491170236e-06 1.735895800677e-02 0.0 
0.0 0.0 0.0 
1.865015433429e-03 6.712619689276e-06 0.0 
6.712619689276e-06 -7.044310986737e-04 0.0 
0.0 0.0 0.0 
-1.178895175112e-04 -4.979057560815e-05 0.0 
-4.979057560815e-05 4.010545246167e-03 0.0 
0.0 0.0 0.0 
0.0 1.127405360351e-04 0.0 
1.127405360351e-04 7.537155316992e-03 0.0 
0.0 0.0 0.0 
9.558498026485e-05 2.270772203171e-04 0.0 
2.270772203171e-04 7.615777235324e-03 0.0 
0.0 0.0 0.0 
2.434494234944e-04 8.842525228505e-04 0.0 
8.842525228505e-04 8.346340625997e-03 0.0 
0.0 0.0 0.0 
-1.194506504441e-03 8.295094289538e-05 0.0 
8.295094289538e-05 1.640661766479e-02 0.0 
0.0 0.0 0.0 
-9.472710887656e-04 -1.921619990616e-05 0.0 
-1.921619990616e-05 1.685701020339e-02 0.0 
0.0 0.0 0.0 
0.0 1.487622746049e-04 0.0 
1.487622746049e-04 7.558366309216e-03 0.0 
0.0 0.0 0.0 
0.0 2.028083410694e-04 0.0 
2.028083410694e-04 7.675662183346e-03 0.0 
0.0 0.0 0.0 
-1.031668099562e-03 9.688893062459e-05 0.0 
9.688893062459e-05 1.671303826170e-02 0.0 
0.0 0.0 0.0 
2.044924642161e-03 -7.069214157103e-06 0.0 
-7.069214157103e-06 -7.431485708509e-04 0.0 
0.0 0.0 0.0 
-1.558935610853e-03 -1.994677476774e-06 0.0 
-1.994677476774e-06 1.468014665960e-02 0.0 
0.0 0.0 0.0 
-1.536244437209e-03 1.189779426565e-06 0.0 
1.189779426565e-06 1.469391872212e-02 0.0 
0.0 0.0 0.0 
1.617331564565e-03 8.890827484659e-07 0.0 
8.890827484659e-07 -5.715128448706e-04 0.0 
0.0 0.0 0.0 
0.0 4.330123515081e-04 0.0 
4.330123515081e-04 7.987000232347e-03 0.0 
0.0 0.0 0.0 
2.246109711526e-04 7.598589488064e-04 0.0 
7.598589488064e-04 8.199036970663e-03 0.0 
0.0 0.0 0.0 
0.0 6.293985949160e-04 0.0 
6.293985949160e-04 8.123474229131e-03 0.0 
0.0 0.0 0.0 
1.662282181305e-03 2.465456447356e-05 0.0 
2.465456447356e-05 -6.134475975302e-04 0.0 
0.0 0.0 0.0 
1.685118539800e-03 -5.301735713685e-06 0.0 
-5.301735713685e-06 -6.012405811534e-04 0.0 
0.0 0.0 0.0 
0.0 8.937631380748e-04 0.0 
8.937631380748e-04 8.416508521309e-03 0.0 
0.0 0.0 0.0 
0.0 7.588258177366e-04 0.0 
7.588258177366e-04 8.281782214736e-03 0.0 
0.0 0.0 0.0 
-1.268163214705e-03 -2.966943494916e-05 0.0 
-2.966943494916e-05 1.623569219909e-02 0.0 
0.0 0.0 0.0 
-1.562453983652e-03 -3.129161282664e-06 0.0 
-3.129161282664e-06 1.467129280532e-02 0.0 
0.0 0.0 0.0 
-1.121023334330e-03 -2.424359216090e-05 0.0 
-2.424359216090e-05 1.655988721189e-02 0.0 
0.0 0.0 0.0 
-1.453613653001e-03 -3.739064934198e-05 0.0 
-3.739064934198e-05 1.550693429973e-02 0.0 
0.0 0.0 0.0 
-1.541850236043e-03 2.997897660146e-05 0.0 
2.997897660146e-05 1.467388320984e-02 0.0 
0.0 0.0 0.0 
8.675994349081e-04 6.691313928471e-07 0.0 
6.691313928471e-07 -2.627913176755e-04 0.0 
0.0 0.0 0.0 
1.233256130280e-04 -1.118348520111e-04 0.0 
-1.118348520111e-04 3.899083207792e-05 0.0 
0.0 0.0 0.0 
-8.873454958025e-05 -1.631877677157e-04 0.0 
-1.631877677157e-04 1.204125748704e-04 0.0 
0.0 0.0 0.0 
-4.144532345690e-04 -2.130416262438e-04 0.0 
-2.130416262438e-04 2.605664462996e-04 0.0 
0.0 0.0 0.0 
-1.533214115602e-04 -1.272739483968e-05 0.0 
-1.272739483968e-05 4.231346339043e-03 0.0 
0.0 0.0 0.0 
-8.414745523599e-05 -2.411158327113e-05 0.0 
-2.411158327113e-05 3.818388942393e-03 0.0 
0.0 0.0 0.0 
1.323582807298e-04 -1.426837452687e-04 0.0 
-1.426837452687e-04 7.160117649718e-05 0.0 
0.0 0.0 0.0 
-2.192614083329e-04 -4.004148609037e-06 0.0 
-4.004148609037e-06 5.290616567050e-03 0.0 
0.0 0.0 0.0 
-6.235821409306e-05 -1.998210184839e-04 0.0 
-1.998210184839e-04 1.542181485958e-04 0.0 
0.0 0.0 0.0 
0.0 2.792523801633e-03 0.0 
2.792523801633e-03 1.661584683372e-02 0.0 
0.0 0.0 0.0 
0.0 9.587220002173e-04 0.0 
9.587220002173e-04 1.747969161398e-02 0.0 
0.0 0.0 0.0 
0.0 1.722623965918e-03 0.0 
1.722623965918e-03 1.720149205026e-02 0.0 
0.0 0.0 0.0 
1.275236624500e-03 1.506558123530e-05 0.0 
1.506558123530e-05 2.941559279785e-04 0.0 
0.0 0.0 0.0 
3.887956147568e-04 -1.873245283748e-05 0.0 
-1.873245283748e-05 2.365884207298e-03 0.0 
0.0 0.0 0.0 
0.0 7.430498026163e-04 0.0 
7.430498026163e-04 1.750697800852e-02 0.0 
0.0 0.0 0.0 
-1.090924733856e-04 2.875260512884e-05 0.0 
2.875260512884e-05 6.297279465010e-03 0.0 
0.0 0.0 0.0 
0.0 5.794704287488e-04 0.0 
5.794704287488e-04 1.756205354307e-02 0.0 
0.0 0.0 0.0 
2.697771373827e-05 4.187726525817e-05 0.0 
4.187726525817e-05 6.566880625216e-03 0.0 
0.0 0.0 0.0 
8.309066635026e-05 4.887208610810e-05 0.0 
4.887208610810e-05 6.923624045306e-03 0.0 
0.0 0.0 0.0 
-3.720529239060e-05 -4.715144056029e-05 0.0 
-4.715144056029e-05 3.600303433671e-03 0.0 
0.0 0.0 0.0 
-3.800558560647e-04 8.580462198796e-04 0.0 
8.580462198796e-04 1.749394977040e-02 0.0 
0.0 0.0 0.0 
-2.881624226836e-04 7.053642083211e-04 0.0 
7.053642083211e-04 1.752783290302e-02 0.0 
0.0 0.0 0.0 
-3.488700535847e-05 -6.141649483818e-05 0.0 
-6.141649483818e-05 6.397334846224e-03 0.0 
0.0 0.0 0.0 
5.564751269027e-05 -3.134299985633e-05 0.0 
-3.134299985633e-05 6.729666961843e-03 0.0 
0.0 0.0 0.0 
1.606752901389e-04 -1.798818550134e-04 0.0 
-1.798818550134e-04 5.346609448079e-03 0.0 
0.0 0.0 0.0 
-7.016087255411e-04 -1.903975792410e-04 0.0 
-1.903975792410e-04 4.478333627547e-04 0.0 
0.0 0.0 0.0 
2.140855693129e-04 -3.408035930250e-04 0.0 
-3.408035930250e-04 3.219195171142e-03 0.0 
0.0 0.0 0.0 
1.623465449911e-03 1.459116415551e-04 0.0 
1.459116415551e-04 -5.813028700901e-04 0.0 
0.0 0.0 0.0 
4.408244283618e-04 2.437249624591e-04 0.0 
2.437249624591e-04 6.557583182027e-03 0.0 
0.0 0.0 0.0 
6.282977766028e-04 -2.731227455786e-04 0.0 
-2.731227455786e-04 3.221567246779e-03 0.0 
0.0 0.0 0.0 
3.931136023088e-04 7.711015781943e-06 0.0 
7.711015781943e-06 5.893132103755e-03 0.0 
0.0 0.0 0.0 
5.438857525271e-04 -4.342965880418e-04 0.0 
-4.342965880418e-04 1.303235895614e-03 0.0 
0.0 0.0 0.0 
4.578798509480e-04 -1.386606333187e-04 0.0 
-1.386606333187e-04 4.582327857681e-04 0.0 
0.0 0.0 0.0 
2.569075141978e-04 -5.919210296473e-06 0.0 
-5.919210296473e-06 6.338279285190e-03 0.0 
0.0 0.0 0.0 
1.429885819646e-04 -3.273334922305e-04 0.0 
-3.273334922305e-04 3.664107565476e-03 0.0 
0.0 0.0 0.0 
5.693957643071e-05 -8.479323442199e-05 0.0 
-8.479323442199e-05 3.174567407790e-03 0.0 
0.0 0.0 0.0 
2.971144586872e-04 -7.293179865269e-05 0.0 
-7.293179865269e-05 5.906538470549e-03 0.0 
0.0 0.0 0.0 
-7.262919383441e-04 3.198678020203e-04 0.0 
3.198678020203e-04 1.710545026830e-02 0.0 
0.0 0.0 0.0 
8.203165567267e-05 -3.190071809493e-05 0.0 
-3.190071809493e-05 3.175565929758e-03 0.0 
0.0 0.0 0.0 
1.379277043767e-03 5.751831361173e-04 0.0 
5.751831361173e-04 5.175213151662e-03 0.0 
0.0 0.0 0.0 
1.187073153148e-03 3.120312934561e-05 0.0 
3.120312934561e-05 4.279510733058e-03 0.0 
0.0 0.0 0.0 
3.095905626342e-04 -9.139896884886e-05 0.0 
-9.139896884886e-05 5.332083800088e-03 0.0 
0.0 0.0 0.0 
1.915352028052e-04 -8.150125179223e-05 0.0 
-8.150125179223e-05 5.578196694248e-03 0.0 
0.0 0.0 0.0 
2.533129947157e-03 9.803398491879e-04 0.0 
9.803398491879e-04 1.883844146263e-03 0.0 
0.0 0.0 0.0 
-1.016246603056e-03 2.851966224972e-03 0.0 
2.851966224972e-03 9.595207833736e-03 0.0 
0.0 0.0 0.0 
7.170669758365e-04 2.245668311232e-03 0.0 
2.245668311232e-03 5.971616606346e-03 0.0 
0.0 0.0 0.0 
6.288297090498e-04 -8.985049674170e-05 0.0 
-8.985049674170e-05 4.768640895868e-03 0.0 
0.0 0.0 0.0 
2.083638483692e-04 -7.274393011172e-05 0.0 
-7.274393011172e-05 6.110294296610e-03 0.0 
0.0 0.0 0.0 
7.391535629542e-05 -6.167523859515e-05 0.0 
-6.167523859515e-05 5.834466536493e-03 0.0 
0.0 0.0 0.0 
1.149307892796e-03 -4.519760064257e-04 0.0 
-4.519760064257e-04 9.989102010142e-04 0.0 
0.0 0.0 0.0 
-8.186234701647e-04 5.549517012123e-04 0.0 
5.549517012123e-04 1.710806743468e-02 0.0 
0.0 0.0 0.0 
-1.044327038699e-03 4.524451903203e-04 0.0 
4.524451903203e-04 1.685606195362e-02 0.0 
0.0 0.0 0.0 
-1.559346576751e-03 8.494601327094e-05 0.0 
8.494601327094e-05 1.525675032579e-02 0.0 
0.0 0.0 0.0 
7.498428951225e-04 -2.077059863172e-05 0.0 
-2.077059863172e-05 4.927872808136e-03 0.0 
0.0 0.0 0.0 
4.628674811145e-04 -9.154073370702e-05 0.0 
-9.154073370702e-05 5.051461446257e-03 0.0 
0.0 0.0 0.0 
-8.328744098364e-04 2.994520226339e-04 0.0 
2.994520226339e-04 1.711332163178e-02 0.0 
0.0 0.0 0.0 
-9.090206024209e-04 4.047740353242e-04 0.0 
4.047740353242e-04 1.698794885465e-02 0.0 
0.0 0.0 0.0 
1.272752344543e-03 -2.470728770769e-05 0.0 
-2.470728770769e-05 3.932076352227e-03 0.0 
0.0 0.0 0.0 
1.533029501783e-04 -1.638299416358e-05 0.0 
-1.638299416358e-05 6.566294941123e-03 0.0 
0.0 0.0 0.0 
-1.352302922512e-03 8.575484401690e-04 0.0 
8.575484401690e-04 1.684446816529e-02 0.0 
0.0 0.0 0.0 
-7.739147664698e-05 -1.116213016646e-04 0.0 
-1.116213016646e-04 5.834419573137e-03 0.0 
0.0 0.0 0.0 
3.026289189432e-04 2.090410444914e-04 0.0 
2.090410444914e-04 6.800397691629e-03 0.0 
0.0 0.0 0.0 
-9.497171299718e-04 5.394301915553e-04 0.0 
5.394301915553e-04 1.711153680694e-02 0.0 
0.0 0.0 0.0 
-1.504718195372e-03 3.231561054117e-04 0.0 
3.231561054117e-04 1.641510127681e-02 0.0 
0.0 0.0 0.0 
1.398934134870e-03 4.048232083329e-04 0.0 
4.048232083329e-04 4.802989586824e-03 0.0 
0.0 0.0 0.0 
4.483271519837e-04 -1.513253601221e-04 0.0 
-1.513253601221e-04 1.605896620091e-03 0.0 
0.0 0.0 0.0 
1.344846616990e-03 -4.944927579474e-04 0.0 
-4.944927579474e-04 7.009615507103e-04 0.0 
0.0 0.0 0.0 
3.801049852930e-04 -4.271416315650e-04 0.0 
-4.271416315650e-04 6.020337911787e-04 0.0 
0.0 0.0 0.0 
-7.027924266116e-04 -4.253392550520e-04 0.0 
-4.253392550520e-04 7.539574540849e-04 0.0 
0.0 0.0 0.0 
-1.000865784673e-03 3.754995507485e-04 0.0 
3.754995507485e-04 1.699101375567e-02 0.0 
0.0 0.0 0.0 
1.987042230893e-04 -5.964140018952e-06 0.0 
-5.964140018952e-06 6.325175868916e-03 0.0 
0.0 0.0 0.0 
-4.918531747374e-04 -4.873823916268e-04 0.0 
-4.873823916268e-04 6.324495726908e-04 0.0 
0.0 0.0 0.0 
-1.723618930489e-03 3.298892102230e-03 0.0 
3.298892102230e-03 1.461984254303e-02 0.0 
0.0 0.0 0.0 
-1.581116459286e-03 1.165172202615e-04 0.0 
1.165172202615e-04 1.547228540109e-02 0.0 
0.0 0.0 0.0 
3.976623547017e-04 -6.070119388667e-05 0.0 
-6.070119388667e-05 5.683193740377e-03 0.0 
0.0 0.0 0.0 
2.283796183173e-04 -4.664245622609e-05 0.0 
-4.664245622609e-05 5.916183482463e-03 0.0 
0.0 0.0 0.0 
2.175192545017e-03 -2.758054904660e-04 0.0 
-2.758054904660e-04 9.753816934970e-04 0.0 
0.0 0.0 0.0 
1.045650787479e-04 -1.153136501098e-04 0.0 
-1.153136501098e-04 5.926698156181e-03 0.0 
0.0 0.0 0.0 
-1.614807129479e-03 1.470037856224e-05 0.0 
1.470037856224e-05 1.525519752670e-02 0.0 
0.0 0.0 0.0 
2.386038218211e-03 2.004990944659e-03 0.0 
2.004990944659e-03 5.144014041541e-03 0.0 
0.0 0.0 0.0 
2.785542225212e-04 2.717269506354e-04 0.0 
2.717269506354e-04 7.030776544914e-03 0.0 
0.0 0.0 0.0 
7.281423869232e-04 -3.952634872473e-05 0.0 
-3.952634872473e-05 1.302093712186e-03 0.0 
0.0 0.0 0.0 
4.038042076562e-04 3.590792103098e-04 0.0 
3.590792103098e-04 6.967810744692e-03 0.0 
0.0 0.0 0.0 
-1.356489642400e-03 3.142597607648e-04 0.0 
3.142597607648e-04 1.657009886823e-02 0.0 
0.0 0.0 0.0 
4.459539567958e-04 -8.874082509285e-05 0.0 
-8.874082509285e-05 1.784914444274e-03 0.0 
0.0 0.0 0.0 
1.267082772854e-03 -5.599597742034e-04 0.0 
-5.599597742034e-04 8.943372298158e-04 0.0 
0.0 0.0 0.0 
-1.448265793318e-04 -1.699725622020e-04 0.0 
-1.699725622020e-04 4.511053480545e-03 0.0 
0.0 0.0 0.0 
-1.596457793757e-03 3.171960962996e-04 0.0 
3.171960962996e-04 1.607739397298e-02 0.0 
0.0 0.0 0.0 
5.659240508025e-04 -3.313736925621e-04 0.0 
-3.313736925621e-04 2.460794682315e-03 0.0 
0.0 0.0 0.0 
-1.204601860987e-03 2.891996039649e-04 0.0 
2.891996039649e-04 1.672164635419e-02 0.0 
0.0 0.0 0.0 
-1.474982106992e-03 2.063669453817e-04 0.0 
2.063669453817e-04 1.623358943569e-02 0.0 
0.0 0.0 0.0 
3.618824143516e-04 -2.212980494750e-04 0.0 
-2.212980494750e-04 4.022081930403e-03 0.0 
0.0 0.0 0.0 
4.175909479875e-05 -1.639096295829e-04 0.0 
-1.639096295829e-04 5.584255951018e-03 0.0 
0.0 0.0 0.0 
2.098424755197e-04 -1.315881724895e-04 0.0 
-1.315881724895e-04 5.707507810345e-03 0.0 
0.0 0.0 0.0 
-1.223571501486e-03 3.478189893841e-04 0.0 
3.478189893841e-04 1.656465740053e-02 0.0 
0.0 0.0 0.0 
5.056374409600e-04 -2.117179172401e-04 0.0 
-2.117179172401e-04 1.218038459497e-03 0.0 
0.0 0.0 0.0 
9.662955271428e-05 -2.441383123788e-04 0.0 
-2.441383123788e-04 4.004542059859e-03 0.0 
0.0 0.0 0.0 
1.653949009574e-03 2.803542416731e-03 0.0 
2.803542416731e-03 7.357613675113e-03 0.0 
0.0 0.0 0.0 
-1.363612374738e-03 4.561807632238e-04 0.0 
4.561807632238e-04 1.672385844040e-02 0.0 
0.0 0.0 0.0 
1.121720357620e-04 -2.792936871375e-04 0.0 
-2.792936871375e-04 3.597709202420e-03 0.0 
0.0 0.0 0.0 
1.021309521495e-03 -6.164358020362e-05 0.0 
-6.164358020362e-05 4.295467619927e-03 0.0 
0.0 0.0 0.0 
5.222548321107e-04 4.154281620060e-04 0.0 
4.154281620060e-04 6.753952135911e-03 0.0 
0.0 0.0 0.0 
-1.357480359634e-03 3.548690531819e-04 0.0 
3.548690531819e-04 1.641090267765e-02 0.0 
0.0 0.0 0.0 
-1.264403162086e-04 -4.378030234152e-05 0.0 
-4.378030234152e-05 1.089261228088e-03 0.0 
0.0 0.0 0.0 
4.267718608439e-04 -2.619398852104e-04 0.0 
-2.619398852104e-04 5.742103635777e-04 0.0 
0.0 0.0 0.0 
8.480146958285e-04 4.173215454228e-05 0.0 
4.173215454228e-05 1.829992864629e-03 0.0 
0.0 0.0 0.0 
3.084966546656e-04 4.326886932532e-07 0.0 
4.326886932532e-07 6.098673892787e-03 0.0 
0.0 0.0 0.0 
-1.483102477917e-03 3.432595787427e-04 0.0 
3.432595787427e-04 1.624920287345e-02 0.0 
0.0 0.0 0.0 
-1.827169131506e-04 -1.486464296612e-04 0.0 
-1.486464296612e-04 4.874717238422e-03 0.0 
0.0 0.0 0.0 
-1.631289663612e-03 1.802674302717e-04 0.0 
1.802674302717e-04 1.569165826395e-02 0.0 
0.0 0.0 0.0 
1.032251465235e-03 8.433443659984e-04 0.0 
8.433443659984e-04 6.359321638240e-03 0.0 
0.0 0.0 0.0 
1.344679330628e-04 -1.994404343290e-04 0.0 
-1.994404343290e-04 4.363671799676e-03 0.0 
0.0 0.0 0.0 
3.224478282200e-04 -4.835270745612e-05 0.0 
-4.835270745612e-05 5.694099066065e-03 0.0 
0.0 0.0 0.0 
5.843005103319e-04 -5.450109446955e-05 0.0 
-5.450109446955e-05 1.589334505446e-03 0.0 
0.0 0.0 0.0 
4.238011733004e-04 3.051640721235e-04 0.0 
3.051640721235e-04 6.804338415954e-03 0.0 
0.0 0.0 0.0 
1.453106204170e-04 -3.024791842020e-04 0.0 
-3.024791842020e-04 4.036213502354e-03 0.0 
0.0 0.0 0.0 
6.259293842081e-04 -1.212925287028e-05 0.0 
-1.212925287028e-05 1.771914595653e-03 0.0 
0.0 0.0 0.0 
-4.444150026495e-05 -2.819784334243e-04 0.0 
-2.819784334243e-04 4.011667052118e-03 0.0 
0.0 0.0 0.0 
3.691579366627e-04 -3.203921685613e-04 0.0 
-3.203921685613e-04 2.806161567055e-03 0.0 
0.0 0.0 0.0 
5.544320652018e-04 -4.118025714994e-04 0.0 
-4.118025714994e-04 1.823329011870e-03 0.0 
0.0 0.0 0.0 
-1.636273028415e-04 -1.452495124442e-04 0.0 
-1.452495124442e-04 4.873881693280e-03 0.0 
0.0 0.0 0.0 
4.357271649229e-04 1.037216369270e-05 0.0 
1.037216369270e-05 -4.613893629024e-05 0.0 
0.0 0.0 0.0 
2.347887422924e-04 -8.617094943860e-05 0.0 
-8.617094943860e-05 3.147057777397e-05 0.0 
0.0 0.0 0.0 
3.127760948980e-04 -1.802359184350e-04 0.0 
-1.802359184350e-04 5.065968516624e-03 0.0 
0.0 0.0 0.0 
5.359072154267e-04 -1.623858022184e-04 0.0 
-1.623858022184e-04 1.383477232439e-03 0.0 
0.0 0.0 0.0 
6.061844770853e-04 -1.077352836321e-04 0.0 
-1.077352836321e-04 4.942078798440e-03 0.0 
0.0 0.0 0.0 
7.948512234346e-04 -8.782852189955e-05 0.0 
-8.782852189955e-05 4.635865185738e-03 0.0 
0.0 0.0 0.0 
1.164882090084e-03 -2.713794880534e-04 0.0 
-2.713794880534e-04 2.411791928178e-03 0.0 
0.0 0.0 0.0 
2.317959408326e-03 -4.318893382169e-04 0.0 
-4.318893382169e-04 3.707478005868e-04 0.0 
0.0 0.0 0.0 
-1.364284570436e-03 8.373710387128e-04 0.0 
8.373710387128e-04 1.697317815537e-02 0.0 
0.0 0.0 0.0 
-2.120839449049e-05 4.781745241281e-04 0.0 
4.781745241281e-04 1.354477820517e-03 0.0 
0.0 0.0 0.0 
1.952807538983e-04 -2.981389870421e-04 0.0 
-2.981389870421e-04 3.123806859683e-03 0.0 
0.0 0.0 0.0 
9.235167031676e-04 1.062465402003e-03 0.0 
1.062465402003e-03 6.820072947072e-03 0.0 
0.0 0.0 0.0 
5.414512333184e-04 -1.129379781974e-04 0.0 
-1.129379781974e-04 1.126019706145e-03 0.0 
0.0 0.0 0.0 
-1.686760410253e-03 1.860642251518e-04 0.0 
1.860642251518e-04 1.588741830548e-02 0.0 
0.0 0.0 0.0 
-1.682576570730e-03 7.129516390933e-05 0.0 
7.129516390933e-05 1.547878635816e-02 0.0 
0.0 0.0 0.0 
4.503982880044e-04 -3.860168840585e-04 0.0 
-3.860168840585e-04 1.068669423296e-03 0.0 
0.0 0.0 0.0 
7.009273876066e-04 4.973198455370e-04 0.0 
4.973198455370e-04 6.472030018419e-03 0.0 
0.0 0.0 0.0 
-1.762775455244e-03 6.585839665283e-04 0.0 
6.585839665283e-04 1.657611241910e-02 0.0 
0.0 0.0 0.0 
4.662587113022e-04 -1.861222414734e-04 0.0 
-1.861222414734e-04 1.388952131395e-03 0.0 
0.0 0.0 0.0 
-1.354128066311e-03 1.073700564261e-03 0.0 
1.073700564261e-03 1.706063170709e-02 0.0 
0.0 0.0 0.0 
-1.096735188709e-03 1.068445450127e-03 0.0 
1.068445450127e-03 1.705988454118e-02 0.0 
0.0 0.0 0.0 
4.820674146455e-04 -2.496279979179e-04 0.0 
-2.496279979179e-04 1.585420417643e-03 0.0 
0.0 0.0 0.0 
7.465404049078e-04 2.942007749032e-03 0.0 
2.942007749032e-03 4.732675977929e-03 0.0 
0.0 0.0 0.0 
5.048402131367e-04 -3.848455402611e-04 0.0 
-3.848455402611e-04 1.524160088073e-03 0.0 
0.0 0.0 0.0 
3.113013943286e-04 -1.290872742076e-04 0.0 
-1.290872742076e-04 5.481926067082e-03 0.0 
0.0 0.0 0.0 
-4.921254541279e-05 -1.735652228237e-04 0.0 
-1.735652228237e-04 4.644394153971e-03 0.0 
0.0 0.0 0.0 
-1.499927573019e-03 2.866393121791e-03 0.0 
2.866393121791e-03 1.541892688428e-02 0.0 
0.0 0.0 0.0 
-1.147437865480e-03 8.330686686401e-04 0.0 
8.330686686401e-04 1.697293612649e-02 0.0 
0.0 0.0 0.0 
4.530855765652e-04 -1.209345713754e-04 0.0 
-1.209345713754e-04 5.216767111385e-03 0.0 
0.0 0.0 0.0 
5.828748551393e-04 -3.556916668803e-05 0.0 
-3.556916668803e-05 5.202937700651e-03 0.0 
0.0 0.0 0.0 
4.591625368238e-04 -3.267881247706e-04 0.0 
-3.267881247706e-04 1.221747745540e-03 0.0 
0.0 0.0 0.0 
4.349099619994e-04 -4.801747111185e-05 0.0 
-4.801747111185e-05 5.468793221627e-03 0.0 
0.0 0.0 0.0 
-1.532146327552e-03 6.488506498215e-04 0.0 
6.488506498215e-04 1.657646281068e-02 0.0 
0.0 0.0 0.0 
-1.427719875577e-04 -2.055793185700e-04 0.0 
-2.055793185700e-04 4.649914809485e-03 0.0 
0.0 0.0 0.0 
-1.641924756776e-03 3.183604795190e-04 0.0 
3.183604795190e-04 1.625263781075e-02 0.0 
0.0 0.0 0.0 
-1.571402470324e-03 6.512807293767e-04 0.0 
6.512807293767e-04 1.672294287880e-02 0.0 
0.0 0.0 0.0 
3.803437654308e-03 1.740193650376e-03 0.0 
1.740193650376e-03 2.052895662831e-03 0.0 
0.0 0.0 0.0 
-1.177410382437e-03 6.422134900527e-04 0.0 
6.422134900527e-04 1.685925782293e-02 0.0 
0.0 0.0 0.0 
-5.422453534265e-05 -2.477708679373e-04 0.0 
-2.477708679373e-04 3.919622562524e-03 0.0 
0.0 0.0 0.0 
-5.299359263744e-05 -2.675162357166e-04 0.0 
-2.675162357166e-04 4.375533730259e-03 0.0 
0.0 0.0 0.0 
2.778105768639e-04 -2.918572222848e-04 0.0 
-2.918572222848e-04 2.666764961925e-03 0.0 
0.0 0.0 0.0 
1.383029544033e-03 -4.069220646670e-04 0.0 
-4.069220646670e-04 1.693128893023e-03 0.0 
0.0 0.0 0.0 
-1.507058645549e-03 4.768848211042e-04 0.0 
4.768848211042e-04 1.642285059286e-02 0.0 
0.0 0.0 0.0 
1.898629104829e-03 -9.885430458884e-06 0.0 
-9.885430458884e-06 2.647001899672e-03 0.0 
0.0 0.0 0.0 
4.788712538735e-04 -3.367995763522e-04 0.0 
-3.367995763522e-04 1.738771463620e-03 0.0 
0.0 0.0 0.0 
4.155061103779e-04 -3.505866350391e-04 0.0 
-3.505866350391e-04 7.561558937326e-04 0.0 
0.0 0.0 0.0 
-1.702573604208e-03 4.692697784369e-04 0.0 
4.692697784369e-04 1.642440510181e-02 0.0 
0.0 0.0 0.0 
4.895014336390e-04 -3.231826424723e-04 0.0 
-3.231826424723e-04 1.736598106525e-03 0.0 
0.0 0.0 0.0 
4.744914057457e-04 4.473779585320e-04 0.0 
4.473779585320e-04 6.958786015533e-03 0.0 
0.0 0.0 0.0 
-1.357895316366e-03 4.875772880224e-04 0.0 
4.875772880224e-04 1.657577861583e-02 0.0 
0.0 0.0 0.0 
5.089441073340e-04 2.037197655760e-05 0.0 
2.037197655760e-05 5.670249289112e-03 0.0 
0.0 0.0 0.0 
3.540993754370e-04 1.628002398314e-03 0.0 
1.628002398314e-03 8.368317195087e-03 0.0 
0.0 0.0 0.0 
2.177376232582e-05 -2.994242240644e-04 0.0 
-2.994242240644e-04 3.602921776209e-03 0.0 
0.0 0.0 0.0 
4.377589355269e-04 -2.575014335384e-04 0.0 
-2.575014335384e-04 1.586899485347e-03 0.0 
0.0 0.0 0.0 
4.054247046721e-04 -3.026863012061e-04 0.0 
-3.026863012061e-04 9.168545175555e-04 0.0 
0.0 0.0 0.0 
6.935188148902e-04 -1.676739894603e-05 0.0 
-1.676739894603e-05 5.156368319564e-03 0.0 
0.0 0.0 0.0 
-1.466489414211e-03 2.446146584272e-04 0.0 
2.446146584272e-04 1.606627466850e-02 0.0 
0.0 0.0 0.0 
3.831563359307e-04 -2.744643468280e-04 0.0 
-2.744643468280e-04 5.779182115897e-04 0.0 
0.0 0.0 0.0 
4.426979647665e-04 -3.819269733131e-04 0.0 
-3.819269733131e-04 2.469285418377e-03 0.0 
0.0 0.0 0.0 
9.060809288801e-04 4.105037886731e-05 0.0 
4.105037886731e-05 1.159343636981e-03 0.0 
0.0 0.0 0.0 
-1.763323149468e-03 3.027733981906e-04 0.0 
3.027733981906e-04 1.607962240711e-02 0.0 
0.0 0.0 0.0 
2.914581853721e-04 -3.411681848421e-04 0.0 
-3.411681848421e-04 2.809795513368e-03 0.0 
0.0 0.0 0.0 
9.543239302670e-04 1.469242844879e-07 0.0 
1.469242844879e-07 4.620928717494e-03 0.0 
0.0 0.0 0.0 
2.752109186557e-04 -2.814682382345e-04 0.0 
-2.814682382345e-04 2.665688096804e-03 0.0 
0.0 0.0 0.0 
-1.182692647742e-03 4.271349597876e-04 0.0 
4.271349597876e-04 1.685995149051e-02 0.0 
0.0 0.0 0.0 
5.326052525825e-04 -3.395438251860e-04 0.0 
-3.395438251860e-04 2.080605937105e-03 0.0 
0.0 0.0 0.0 
9.381948926008e-04 1.306963000671e-04 0.0 
1.306963000671e-04 5.128389105702e-03 0.0 
0.0 0.0 0.0 
1.059368824423e-03 -6.154865039909e-04 0.0 
-6.154865039909e-04 7.216648923478e-04 0.0 
0.0 0.0 0.0 
8.871888620965e-04 1.406802954871e-05 0.0 
1.406802954871e-05 4.855291307415e-03 0.0 
0.0 0.0 0.0 
-1.154618689380e-04 -2.188737116688e-04 0.0 
-2.188737116688e-04 4.295841079651e-03 0.0 
0.0 0.0 0.0 
6.558317157814e-04 4.311604660548e-05 0.0 
4.311604660548e-05 5.412651370596e-03 0.0 
0.0 0.0 0.0 
3.381683205500e-03 3.068466191971e-04 0.0 
3.068466191971e-04 4.626374041412e-04 0.0 
0.0 0.0 0.0 
6.667898067541e-04 -4.692614140776e-05 0.0 
-4.692614140776e-05 1.185359787585e-03 0.0 
0.0 0.0 0.0 
-1.625971752278e-03 1.020230477333e-04 0.0 
1.020230477333e-04 1.568943045218e-02 0.0 
0.0 0.0 0.0 
2.115352281093e-03 9.042917832764e-04 0.0 
9.042917832764e-04 4.173425027167e-03 0.0 
0.0 0.0 0.0 
3.831661146791e-05 2.709136148073e-03 0.0 
2.709136148073e-03 6.656659040227e-03 0.0 
0.0 0.0 0.0 
-1.589861583999e-03 2.024020472396e-04 0.0 
2.024020472396e-04 1.606768796940e-02 0.0 
0.0 0.0 0.0 
1.486088131700e-03 -6.103835648200e-04 0.0 
-6.103835648200e-04 5.678467923063e-04 0.0 
0.0 0.0 0.0 
-1.841660819088e-03 6.065309788322e-04 0.0 
6.065309788322e-04 1.624758962365e-02 0.0 
0.0 0.0 0.0 
8.346833615844e-04 3.397359746600e-05 0.0 
3.397359746600e-05 1.060112989875e-03 0.0 
0.0 0.0 0.0 
5.787175544223e-04 2.773058264815e-04 0.0 
2.773058264815e-04 6.358300783802e-03 0.0 
0.0 0.0 0.0 
2.079130262638e-03 1.140410371709e-03 0.0 
1.140410371709e-03 4.610343145369e-03 0.0 
0.0 0.0 0.0 
2.218499513135e-03 2.294323045360e-03 0.0 
2.294323045360e-03 5.783941240328e-03 0.0 
0.0 0.0 0.0 
-1.079041816938e-03 1.021818871023e-03 0.0 
1.021818871023e-03 1.717940340245e-02 0.0 
0.0 0.0 0.0 
1.769104674182e-03 8.123243449871e-05 0.0 
8.123243449871e-05 3.211460308826e-03 0.0 
0.0 0.0 0.0 
4.545668582092e-04 -2.289468397991e-04 0.0 
-2.289468397991e-04 1.222403037817e-03 0.0 
0.0 0.0 0.0 
1.352938754471e-03 1.039371685000e-04 0.0 
1.039371685000e-04 4.174350666915e-03 0.0 
0.0 0.0 0.0 
6.140015612781e-04 5.201137664002e-04 0.0 
5.201137664002e-04 6.737189520121e-03 0.0 
0.0 0.0 0.0 
2.113607813268e-03 -4.353176047509e-04 0.0 
-4.353176047509e-04 6.414532882482e-04 0.0 
0.0 0.0 0.0 
5.375558764389e-04 -4.201043229653e-05 0.0 
-4.201043229653e-05 5.426313441178e-03 0.0 
0.0 0.0 0.0 
-1.538330815769e-03 4.689735561105e-04 0.0 
4.689735561105e-04 1.657856959636e-02 0.0 
0.0 0.0 0.0 
2.485525634646e-03 -4.760708735855e-04 0.0 
-4.760708735855e-04 1.027774211557e-04 0.0 
0.0 0.0 0.0 
1.110456170697e-03 5.251598333048e-05 0.0 
5.251598333048e-05 4.524537490657e-03 0.0 
0.0 0.0 0.0 
-1.932921713287e-03 2.504859963065e-04 0.0 
2.504859963065e-04 1.569472123017e-02 0.0 
0.0 0.0 0.0 
4.218953314494e-04 -1.301083959869e-04 0.0 
-1.301083959869e-04 2.062411512897e-03 0.0 
0.0 0.0 0.0 
5.950921709845e-04 -4.193755595646e-04 0.0 
-4.193755595646e-04 2.141459367012e-03 0.0 
0.0 0.0 0.0 
1.371537755499e-04 2.706862464643e-03 0.0 
2.706862464643e-03 7.585294475375e-03 0.0 
0.0 0.0 0.0 
8.283599731735e-04 6.907826487119e-05 0.0 
6.907826487119e-05 5.142360306102e-03 0.0 
0.0 0.0 0.0 
-2.412812189355e-04 2.899460091115e-03 0.0 
2.899460091115e-03 7.394112635611e-03 0.0 
0.0 0.0 0.0 
4.464469001455e-04 2.498272698475e-03 0.0 
2.498272698475e-03 6.749240733489e-03 0.0 
0.0 0.0 0.0 
-1.694466960863e-03 6.303356825256e-04 0.0 
6.303356825256e-04 1.641744748895e-02 0.0 
0.0 0.0 0.0 
-1.555856521276e-03 2.195650767902e-04 0.0 
2.195650767902e-04 1.588309029485e-02 0.0 
0.0 0.0 0.0 
-1.867556840145e-03 3.700295360018e-04 0.0 
3.700295360018e-04 1.590856586542e-02 0.0 
0.0 0.0 0.0 
-8.058934488930e-05 -2.195440216144e-04 0.0 
-2.195440216144e-04 4.295571061956e-03 0.0 
0.0 0.0 0.0 
8.908539996841e-04 5.657793905403e-04 0.0 
5.657793905403e-04 6.206329146733e-03 0.0 
0.0 0.0 0.0 
1.598513009360e-03 1.671394712520e-04 0.0 
1.671394712520e-04 3.819871131397e-03 0.0 
0.0 0.0 0.0 
-1.767774686150e-03 1.608311342837e-04 0.0 
1.608311342837e-04 1.569432717796e-02 0.0 
0.0 0.0 0.0 
-1.669953701421e-03 3.756891075643e-03 0.0 
3.756891075643e-03 1.416286055698e-02 0.0 
0.0 0.0 0.0 
2.021868376447e-03 2.568753917601e-03 0.0 
2.568753917601e-03 6.460039792981e-03 0.0 
0.0 0.0 0.0 
1.031175538145e-03 1.027129913049e-04 0.0 
1.027129913049e-04 4.840788123470e-03 0.0 
0.0 0.0 0.0 
-1.357974766613e-03 6.532011097353e-04 0.0 
6.532011097353e-04 1.672198841853e-02 0.0 
0.0 0.0 0.0 
1.158139489403e-03 -3.991074799816e-04 0.0 
-3.991074799816e-04 2.054115716138e-03 0.0 
0.0 0.0 0.0 
8.431919302088e-04 -4.285930530163e-04 0.0 
-4.285930530163e-04 2.114262074718e-03 0.0 
0.0 0.0 0.0 
4.725147306581e-04 -3.406961728396e-04 0.0 
-3.406961728396e-04 1.223807923333e-03 0.0 
0.0 0.0 0.0 
1.392408260433e-03 2.474925095852e-04 0.0 
2.474925095852e-04 4.466763879393e-03 0.0 
0.0 0.0 0.0 
6.361969582556e-04 -4.082320074079e-04 0.0 
-4.082320074079e-04 2.475958391682e-03 0.0 
0.0 0.0 0.0 
-1.852440356356e-03 4.583514895065e-04 0.0 
4.583514895065e-04 1.625990015712e-02 0.0 
0.0 0.0 0.0 
-1.985964268322e-03 4.429861337316e-04 0.0 
4.429861337316e-04 1.608429726693e-02 0.0 
0.0 0.0 0.0 
3.510981805030e-03 1.349578491056e-03 0.0 
1.349578491056e-03 2.188010000185e-03 0.0 
0.0 0.0 0.0 
9.397134249569e-04 -3.497291170939e-04 0.0 
-3.497291170939e-04 1.810958493790e-03 0.0 
0.0 0.0 0.0 
1.743953690237e-03 8.317631946821e-04 0.0 
8.317631946821e-04 2.172572273490e-03 0.0 
0.0 0.0 0.0 
7.548152288532e-04 -3.395750171320e-04 0.0 
-3.395750171320e-04 2.128137290451e-03 0.0 
0.0 0.0 0.0 
1.067115619970e-03 -3.138919238556e-04 0.0 
-3.138919238556e-04 2.095238963701e-03 0.0 
0.0 0.0 0.0 
4.475247906599e-04 -2.968250748323e-04 0.0 
-2.968250748323e-04 1.406731399918e-03 0.0 
0.0 0.0 0.0 
1.106017638163e-03 6.589589021806e-04 0.0 
6.589589021806e-04 5.903660627609e-03 0.0 
0.0 0.0 0.0 
1.996373853973e-03 -9.801116225368e-05 0.0 
-9.801116225368e-05 2.012351868834e-03 0.0 
0.0 0.0 0.0 
-1.368490844806e-03 6.287303819210e-04 0.0 
6.287303819210e-04 1.686150253211e-02 0.0 
0.0 0.0 0.0 
2.186719616206e-03 2.708293912955e-05 0.0 
2.708293912955e-05 2.117484690956e-03 0.0 
0.0 0.0 0.0 
1.499753151795e-03 2.100462788599e-04 0.0 
2.100462788599e-04 4.157309671615e-03 0.0 
0.0 0.0 0.0 
1.841236578856e-03 6.179644828195e-05 0.0 
6.179644828195e-05 2.980417496001e-03 0.0 
0.0 0.0 0.0 
1.427534115096e-03 2.052634900945e-03 0.0 
2.052634900945e-03 5.402056901531e-03 0.0 
0.0 0.0 0.0 
4.743116908321e-04 -2.929415098156e-04 0.0 
-2.929415098156e-04 1.405907287846e-03 0.0 
0.0 0.0 0.0 
7.933207730468e-04 5.797451773248e-04 0.0 
5.797451773248e-04 6.456013689383e-03 0.0 
0.0 0.0 0.0 
6.421110186610e-04 6.406645656477e-04 0.0 
6.406645656477e-04 6.943636509100e-03 0.0 
0.0 0.0 0.0 
7.005500582435e-04 3.453616785316e-03 0.0 
3.453616785316e-03 8.400559707358e-03 0.0 
0.0 0.0 0.0 
1.414336708306e-03 -2.671542631602e-04 0.0 
-2.671542631602e-04 2.032226050663e-03 0.0 
0.0 0.0 0.0 
1.689876927264e-03 1.377437135561e-04 0.0 
1.377437135561e-04 3.546888893441e-03 0.0 
0.0 0.0 0.0 
-1.644249773629e-03 4.526156395775e-04 0.0 
4.526156395775e-04 1.625986555738e-02 0.0 
0.0 0.0 0.0 
9.206151188761e-04 -3.926965982210e-04 0.0 
-3.926965982210e-04 2.431818058513e-03 0.0 
0.0 0.0 0.0 
3.317546517252e-04 2.354744026429e-03 0.0 
2.354744026429e-03 5.904334720553e-03 0.0 
0.0 0.0 0.0 
4.746559733209e-04 -3.684246397797e-04 0.0 
-3.684246397797e-04 2.085409716535e-03 0.0 
0.0 0.0 0.0 
1.943378744126e-03 -5.719338346036e-04 0.0 
-5.719338346036e-04 3.945769207196e-04 0.0 
0.0 0.0 0.0 
1.486393469501e-03 -3.358137843022e-04 0.0 
-3.358137843022e-04 2.005813478025e-03 0.0 
0.0 0.0 0.0 
4.301800726014e-04 -2.938269622673e-04 0.0 
-2.938269622673e-04 1.967827035174e-03 0.0 
0.0 0.0 0.0 
4.492518427350e-04 -1.991618537122e-04 0.0 
-1.991618537122e-04 1.801468434032e-03 0.0 
0.0 0.0 0.0 
1.657923669304e-03 -5.828569043314e-05 0.0 
-5.828569043314e-05 2.999901521841e-03 0.0 
0.0 0.0 0.0 
1.257958758106e-03 1.488181832556e-04 0.0 
1.488181832556e-04 4.508907724597e-03 0.0 
0.0 0.0 0.0 
1.374345482587e-03 4.190090660738e-03 0.0 
4.190090660738e-03 9.155023708223e-03 0.0 
0.0 0.0 0.0 
2.475694085313e-04 -2.819702166972e-05 0.0 
-2.819702166972e-05 -4.590334133014e-05 0.0 
0.0 0.0 0.0 
2.816459053708e-03 2.826171211363e-04 0.0 
2.826171211363e-04 1.639829821139e-03 0.0 
0.0 0.0 0.0 
2.423490291667e-03 6.857750898616e-05 0.0 
6.857750898616e-05 1.784706396505e-03 0.0 
0.0 0.0 0.0 
1.741356424403e-03 -1.963568976009e-04 0.0 
-1.963568976009e-04 1.984354770400e-03 0.0 
0.0 0.0 0.0 
-1.764974126754e-03 4.150918311628e-04 0.0 
4.150918311628e-04 1.608676933225e-02 0.0 
0.0 0.0 0.0 
1.947052903371e-03 -1.660602722135e-05 0.0 
-1.660602722135e-05 2.463470486368e-03 0.0 
0.0 0.0 0.0 
4.084336608168e-04 -3.210591391413e-04 0.0 
-3.210591391413e-04 2.364491263000e-03 0.0 
0.0 0.0 0.0 
1.764903986152e-03 -2.331690004887e-04 0.0 
-2.331690004887e-04 2.034426598918e-03 0.0 
0.0 0.0 0.0 
-1.202024575189e-03 4.813614671804e-04 0.0 
4.813614671804e-04 1.672039431666e-02 0.0 
0.0 0.0 0.0 
3.795740318011e-04 -3.217995040566e-04 0.0 
-3.217995040566e-04 2.364779827403e-03 0.0 
0.0 0.0 0.0 
4.115875538342e-04 -2.232194259274e-04 0.0 
-2.232194259274e-04 7.188725032163e-04 0.0 
0.0 0.0 0.0 
4.365068894052e-04 -2.599969466611e-04 0.0 
-2.599969466611e-04 1.044367361594e-03 0.0 
0.0 0.0 0.0 
2.045714651171e-03 -3.834642954233e-04 0.0 
-3.834642954233e-04 7.265361268449e-04 0.0 
0.0 0.0 0.0 
1.293733108481e-03 -3.226034957627e-04 0.0 
-3.226034957627e-04 1.750842314265e-03 0.0 
0.0 0.0 0.0 
2.558788347248e-03 2.290110032770e-04 0.0 
2.290110032770e-04 1.969442606413e-03 0.0 
0.0 0.0 0.0 
1.975848671161e-03 -1.059197521267e-04 0.0 
-1.059197521267e-04 2.140705026723e-03 0.0 
0.0 0.0 0.0 
1.203872810732e-03 -6.666336543462e-04 0.0 
-6.666336543462e-04 4.984917046535e-04 0.0 
0.0 0.0 0.0 
4.976791789524e-04 -2.548280034493e-04 0.0 
-2.548280034493e-04 1.043278067543e-03 0.0 
0.0 0.0 0.0 
-2.392009002014e-03 6.796311008032e-04 0.0 
6.796311008032e-04 1.585779708005e-02 0.0 
0.0 0.0 0.0 
4.371513754220e-04 -2.899795437990e-04 0.0 
-2.899795437990e-04 1.967200351967e-03 0.0 
0.0 0.0 0.0 
1.265234252971e-03 5.964458622507e-04 0.0 
5.964458622507e-04 5.482167970001e-03 0.0 
0.0 0.0 0.0 
1.662687665126e-03 4.023187174457e-03 0.0 
4.023187174457e-03 8.378187528158e-03 0.0 
0.0 0.0 0.0 
-2.151097703130e-03 2.575480156493e-03 0.0 
2.575480156493e-03 1.375496316341e-02 0.0 
0.0 0.0 0.0 
-1.528842121520e-03 1.404931596971e-03 0.0 
1.404931596971e-03 1.678789193890e-02 0.0 
0.0 0.0 0.0 
1.118070354472e-03 4.347024150693e-03 0.0 
4.347024150693e-03 9.895413304923e-03 0.0 
0.0 0.0 0.0 
3.647475636704e-03 1.480026601255e-03 0.0 
1.480026601255e-03 2.092733485910e-03 0.0 
0.0 0.0 0.0 
1.666610898919e-03 3.893632290918e-03 0.0 
3.893632290918e-03 7.935033938931e-03 0.0 
0.0 0.0 0.0 
1.649809311961e-03 -7.155841072162e-04 0.0 
-7.155841072162e-04 2.877220738462e-04 0.0 
0.0 0.0 0.0 
1.524957136159e-03 -2.567629884455e-04 0.0 
-2.567629884455e-04 2.393879789230e-03 0.0 
0.0 0.0 0.0 
1.853251704958e-03 1.875336385584e-03 0.0 
1.875336385584e-03 3.783806449132e-03 0.0 
0.0 0.0 0.0 
2.599453899069e-03 -2.563332996410e-04 0.0 
-2.563332996410e-04 9.732687288189e-05 0.0 
0.0 0.0 0.0 
1.220533751586e-03 -7.909448215398e-04 0.0 
-7.909448215398e-04 3.894289702331e-04 0.0 
0.0 0.0 0.0 
8.381102541914e-04 -3.138496344548e-04 0.0 
-3.138496344548e-04 2.460358823793e-03 0.0 
0.0 0.0 0.0 
2.204317134271e-03 -6.418281560832e-05 0.0 
-6.418281560832e-05 1.809223635559e-03 0.0 
0.0 0.0 0.0 
2.352561897448e-03 9.593339532315e-05 0.0 
9.593339532315e-05 1.992062672413e-03 0.0 
0.0 0.0 0.0 
3.505828289019e-04 -2.609292268226e-04 0.0 
-2.609292268226e-04 2.236990365128e-03 0.0 
0.0 0.0 0.0 
2.085195647997e-03 1.175271564249e-04 0.0 
1.175271564249e-04 2.626431111631e-03 0.0 
0.0 0.0 0.0 
2.590345597371e-03 1.493371012261e-04 0.0 
1.493371012261e-04 1.664571678391e-03 0.0 
0.0 0.0 0.0 
2.933944358403e-03 4.827040591442e-04 0.0 
4.827040591442e-04 1.867899506967e-03 0.0 
0.0 0.0 0.0 
1.038781043926e-03 -4.461011772596e-04 0.0 
-4.461011772596e-04 1.770609525894e-03 0.0 
0.0 0.0 0.0 
2.256843576997e-03 1.547693379648e-03 0.0 
1.547693379648e-03 4.824917666833e-03 0.0 
0.0 0.0 0.0 
-1.940302133365e-03 6.623180127237e-04 0.0 
6.623180127237e-04 1.641457372747e-02 0.0 
0.0 0.0 0.0 
3.227371339427e-03 5.634062796457e-04 0.0 
5.634062796457e-04 1.523530563446e-03 0.0 
0.0 0.0 0.0 
9.937236785398e-04 6.740901844925e-04 0.0 
6.740901844925e-04 6.189335075086e-03 0.0 
0.0 0.0 0.0 
2.139459648898e-03 -6.445387566167e-04 0.0 
-6.445387566167e-04 1.299832560675e-04 0.0 
0.0 0.0 0.0 
8.291027124081e-04 1.063034056367e-03 0.0 
1.063034056367e-03 7.137222267588e-03 0.0 
0.0 0.0 0.0 
2.318699399203e-03 1.736037567851e-04 0.0 
1.736037567851e-04 2.292213772433e-03 0.0 
0.0 0.0 0.0 
9.193368800682e-04 4.557388850781e-03 0.0 
4.557388850781e-03 1.066302261256e-02 0.0 
0.0 0.0 0.0 
-1.320113927085e-03 2.946361012730e-03 0.0 
2.946361012730e-03 1.116357321680e-02 0.0 
0.0 0.0 0.0 
1.833164624044e-03 -4.928628573242e-04 0.0 
-4.928628573242e-04 5.477748990081e-04 0.0 
0.0 0.0 0.0 
-1.933903680246e-03 2.761968959204e-03 0.0 
2.761968959204e-03 1.330519311440e-02 0.0 
0.0 0.0 0.0 
-1.610249157482e-03 2.120514326951e-03 0.0 
2.120514326951e-03 1.634469688958e-02 0.0 
0.0 0.0 0.0 
2.414213240498e-03 3.396879815197e-04 0.0 
3.396879815197e-04 2.522405737532e-03 0.0 
0.0 0.0 0.0 
6.694877658049e-04 1.793068844449e-03 0.0 
1.793068844449e-03 4.453742760306e-03 0.0 
0.0 0.0 0.0 
-1.741684862647e-03 2.920149897863e-03 0.0 
2.920149897863e-03 1.289282271734e-02 0.0 
0.0 0.0 0.0 
4.953425201171e-05 2.755600662884e-03 0.0 
2.755600662884e-03 7.096895082673e-03 0.0 
0.0 0.0 0.0 
1.477927976485e-03 -5.814472284851e-04 0.0 
-5.814472284851e-04 4.827702780690e-04 0.0 
0.0 0.0 0.0 
-8.470243143160e-04 1.952415540026e-03 0.0 
1.952415540026e-03 1.705612323942e-02 0.0 
0.0 0.0 0.0 
1.050245408385e-03 -5.370792573634e-04 0.0 
-5.370792573634e-04 5.818573024241e-04 0.0 
0.0 0.0 0.0 
1.177195345203e-03 2.207090987192e-03 0.0 
2.207090987192e-03 7.800846413467e-03 0.0 
0.0 0.0 0.0 
-9.391884602532e-04 7.925881415668e-04 0.0 
7.925881415668e-04 1.709511992262e-02 0.0 
0.0 0.0 0.0 
2.007507877755e-03 1.382088636016e-03 0.0 
1.382088636016e-03 5.106025629652e-03 0.0 
0.0 0.0 0.0 
-1.693675605745e-03 2.815082743548e-04 0.0 
2.815082743548e-04 1.588966379928e-02 0.0 
0.0 0.0 0.0 
-1.835025485006e-03 1.165281722181e-03 0.0 
1.165281722181e-03 1.676415158273e-02 0.0 
0.0 0.0 0.0 
2.707658930326e-03 3.395804908876e-04 0.0 
3.395804908876e-04 1.892647181504e-03 0.0 
0.0 0.0 0.0 
3.200906257246e-03 1.485583013046e-03 0.0 
1.485583013046e-03 2.952536814809e-03 0.0 
0.0 0.0 0.0 
-1.229151470224e-03 1.668069638311e-03 0.0 
1.668069638311e-03 1.693630436221e-02 0.0 
0.0 0.0 0.0 
1.066945368381e-03 2.220162032137e-04 0.0 
2.220162032137e-04 5.113388458716e-03 0.0 
0.0 0.0 0.0 
-2.012459888590e-03 9.141441640528e-04 0.0 
9.141441640528e-04 1.652905084580e-02 0.0 
0.0 0.0 0.0 
2.010016959188e-03 9.291245338984e-04 0.0 
9.291245338984e-04 4.474206780257e-03 0.0 
0.0 0.0 0.0 
2.033704176744e-03 -5.640262680501e-04 0.0 
-5.640262680501e-04 2.614984090881e-04 0.0 
0.0 0.0 0.0 
-2.053684896617e-03 1.208912957975e-03 0.0 
1.208912957975e-03 1.658886257891e-02 0.0 
0.0 0.0 0.0 
7.041806907218e-04 3.969982146612e-03 0.0 
3.969982146612e-03 1.078369028237e-02 0.0 
0.0 0.0 0.0 
7.080057658124e-04 7.576355177123e-04 0.0 
7.576355177123e-04 6.916861256044e-03 0.0 
0.0 0.0 0.0 
1.751959567101e-03 -1.270791460165e-04 0.0 
-1.270791460165e-04 2.372791790547e-03 0.0 
0.0 0.0 0.0 
-1.863388706432e-03 2.757268689767e-04 0.0 
2.757268689767e-04 1.589056915257e-02 0.0 
0.0 0.0 0.0 
-1.766676509981e-03 2.354353791669e-04 0.0 
2.354353791669e-04 1.569590014446e-02 0.0 
0.0 0.0 0.0 
2.127215775529e-03 4.195046538763e-05 0.0 
4.195046538763e-05 2.313554083081e-03 0.0 
0.0 0.0 0.0 
1.289610838206e-03 2.825194863473e-04 0.0 
2.825194863473e-04 4.789870479605e-03 0.0 
0.0 0.0 0.0 
1.289445321638e-03 4.312691369210e-04 0.0 
4.312691369210e-04 5.115374022391e-03 0.0 
0.0 0.0 0.0 
4.407249816074e-04 -3.009381721370e-04 0.0 
-3.009381721370e-04 9.163618926915e-04 0.0 
0.0 0.0 0.0 
1.238701728685e-03 7.409179995571e-04 0.0 
7.409179995571e-04 2.192003037576e-03 0.0 
0.0 0.0 0.0 
3.326944685928e-03 8.137071729705e-04 0.0 
8.137071729705e-04 1.793272656376e-03 0.0 
0.0 0.0 0.0 
2.980252209731e-03 4.097216108889e-04 0.0 
4.097216108889e-04 1.551048551354e-03 0.0 
0.0 0.0 0.0 
6.500840303429e-04 2.482217521203e-03 0.0 
2.482217521203e-03 5.937028621188e-03 0.0 
0.0 0.0 0.0 
-1.247583809997e-03 1.647415160481e-03 0.0 
1.647415160481e-03 1.710013476018e-02 0.0 
0.0 0.0 0.0 
-1.441462439423e-03 3.252337241723e-03 0.0 
3.252337241723e-03 1.462428888112e-02 0.0 
0.0 0.0 0.0 
-1.127221747586e-03 7.820162572620e-04 0.0 
7.820162572620e-04 1.709623492865e-02 0.0 
0.0 0.0 0.0 
-7.571477829982e-04 2.656373518899e-03 0.0 
2.656373518899e-03 8.425884234653e-03 0.0 
0.0 0.0 0.0 
-1.885671153105e-03 1.836608948754e-03 0.0 
1.836608948754e-03 1.621513314899e-02 0.0 
0.0 0.0 0.0 
1.156662692473e-03 1.828915877403e-04 0.0 
1.828915877403e-04 4.805783238857e-03 0.0 
0.0 0.0 0.0 
-1.058720785346e-03 1.316333874708e-03 0.0 
1.316333874708e-03 1.709898210247e-02 0.0 
0.0 0.0 0.0 
-2.245728287687e-03 1.263684404958e-03 0.0 
1.263684404958e-03 1.638785913646e-02 0.0 
0.0 0.0 0.0 
1.742897016177e-03 -1.443041959033e-04 0.0 
-1.443041959033e-04 2.484494989031e-03 0.0 
0.0 0.0 0.0 
3.649455663632e-03 9.385726130372e-04 0.0 
9.385726130372e-04 1.437271830682e-03 0.0 
0.0 0.0 0.0 
-1.757894682482e-03 1.130165568301e-03 0.0 
1.130165568301e-03 1.659703629536e-02 0.0 
0.0 0.0 0.0 
-1.576859199995e-03 1.411769722475e-03 0.0 
1.411769722475e-03 1.695305554808e-02 0.0 
0.0 0.0 0.0 
-1.550741598107e-03 8.585521683869e-04 0.0 
8.585521683869e-04 1.669453585972e-02 0.0 
0.0 0.0 0.0 
-1.736076357511e-03 8.572554590720e-04 0.0 
8.572554590720e-04 1.653473479694e-02 0.0 
0.0 0.0 0.0 
8.453742277934e-04 4.386133773536e-04 0.0 
4.386133773536e-04 6.078131903417e-03 0.0 
0.0 0.0 0.0 
1.346186097566e-03 2.410575275066e-03 0.0 
2.410575275066e-03 7.604778770438e-03 0.0 
0.0 0.0 0.0 
1.043409482703e-03 5.074853653168e-04 0.0 
5.074853653168e-04 5.789477175099e-03 0.0 
0.0 0.0 0.0 
1.436901969504e-03 7.861047150022e-05 0.0 
7.861047150022e-05 3.914716163174e-03 0.0 
0.0 0.0 0.0 
-1.201792290913e-03 3.472740206356e-03 0.0 
3.472740206356e-03 9.852628735958e-03 0.0 
0.0 0.0 0.0 
1.900753363196e-03 1.643589734227e-03 0.0 
1.643589734227e-03 5.638640795717e-03 0.0 
0.0 0.0 0.0 
-2.118938447912e-03 2.039156709423e-03 0.0 
2.039156709423e-03 1.545539401925e-02 0.0 
0.0 0.0 0.0 
4.121923229168e-04 -2.252255821408e-04 0.0 
-2.252255821408e-04 1.805619105983e-03 0.0 
0.0 0.0 0.0 
3.085424823647e-03 6.449410149457e-04 0.0 
6.449410149457e-04 1.822024834505e-03 0.0 
0.0 0.0 0.0 
2.792503595342e-03 8.338706536088e-04 0.0 
8.338706536088e-04 2.775000581602e-03 0.0 
0.0 0.0 0.0 
2.876323511932e-03 1.613712097120e-03 0.0 
1.613712097120e-03 3.730415768306e-03 0.0 
0.0 0.0 0.0 
1.976827074911e-03 8.262848722657e-06 0.0 
8.262848722657e-06 9.289938114632e-04 0.0 
0.0 0.0 0.0 
3.390816482441e-03 7.514359885846e-04 0.0 
7.514359885846e-04 1.470638129053e-03 0.0 
0.0 0.0 0.0 
2.515894137141e-03 1.721175810766e-03 0.0 
1.721175810766e-03 4.551485859480e-03 0.0 
0.0 0.0 0.0 
-1.366499052362e-03 2.637141493509e-03 0.0 
2.637141493509e-03 1.013652862491e-02 0.0 
0.0 0.0 0.0 
1.697255650659e-03 -5.911385419819e-05 0.0 
-5.911385419819e-05 2.831753699055e-03 0.0 
0.0 0.0 0.0 
-2.360769831769e-03 9.819797252669e-04 0.0 
9.819797252669e-04 1.615234176376e-02 0.0 
0.0 0.0 0.0 
-1.627706336050e-03 4.360248207638e-05 0.0 
4.360248207638e-05 1.500035114202e-02 0.0 
0.0 0.0 0.0 
-1.094037361366e-03 2.025682738757e-03 0.0 
2.025682738757e-03 2.157063624801e-03 0.0 
0.0 0.0 0.0 
1.526501828596e-03 2.455823514647e-05 0.0 
2.455823514647e-05 3.565136090589e-03 0.0 
0.0 0.0 0.0 
1.877402552348e-03 1.375731923222e-03 0.0 
1.375731923222e-03 5.365748516706e-03 0.0 
0.0 0.0 0.0 
-1.382389905727e-03 3.165456458542e-03 0.0 
3.165456458542e-03 1.507165286105e-02 0.0 
0.0 0.0 0.0 
3.413260240490e-03 1.378945821162e-03 0.0 
1.378945821162e-03 2.484500808466e-03 0.0 
0.0 0.0 0.0 
1.589898724436e-03 1.094873638911e-05 0.0 
1.094873638911e-05 3.347632017341e-03 0.0 
0.0 0.0 0.0 
-2.101976642843e-03 6.651018789141e-04 0.0 
6.651018789141e-04 1.624180522485e-02 0.0 
0.0 0.0 0.0 
-1.113863254977e-03 2.304990806718e-03 0.0 
2.304990806718e-03 3.582688690358e-03 0.0 
0.0 0.0 0.0 
2.129421753353e-03 1.541473328190e-03 0.0 
1.541473328190e-03 5.081324041297e-03 0.0 
0.0 0.0 0.0 
2.914815555789e-03 1.323141629847e-03 0.0 
1.323141629847e-03 3.250228207430e-03 0.0 
0.0 0.0 0.0 
-1.574084494316e-03 2.663955661901e-03 0.0 
2.663955661901e-03 1.090276691070e-02 0.0 
0.0 0.0 0.0 
1.167350382888e-03 3.277049516358e-04 0.0 
3.277049516358e-04 5.131702795768e-03 0.0 
0.0 0.0 0.0 
2.469176698519e-03 -6.239573152105e-04 0.0 
-6.239573152105e-04 1.450688725879e-04 0.0 
0.0 0.0 0.0 
1.148559376026e-03 4.853541155726e-04 0.0 
4.853541155726e-04 5.499733599357e-03 0.0 
0.0 0.0 0.0 
9.149883040713e-04 8.483385157847e-04 0.0 
8.483385157847e-04 6.626216025786e-03 0.0 
0.0 0.0 0.0 
2.379544060729e-03 1.705497101373e-03 0.0 
1.705497101373e-03 4.800561076257e-03 0.0 
0.0 0.0 0.0 
-1.810525924068e-03 8.921679456518e-04 0.0 
8.921679456518e-04 1.669144646372e-02 0.0 
0.0 0.0 0.0 
1.899237073697e-03 3.506612194048e-03 0.0 
3.506612194048e-03 7.641146771290e-03 0.0 
0.0 0.0 0.0 
8.192549756298e-04 7.464149431249e-04 0.0 
7.464149431249e-04 6.639523409541e-03 0.0 
0.0 0.0 0.0 
-9.706386942910e-04 2.163318657517e-03 0.0 
2.163318657517e-03 4.941344731012e-03 0.0 
0.0 0.0 0.0 
-2.196479372179e-03 9.400150157673e-04 0.0 
9.400150157673e-04 1.634907198752e-02 0.0 
0.0 0.0 0.0 
1.355477264732e-03 2.893098808667e-03 0.0 
2.893098808667e-03 8.071912324972e-03 0.0 
0.0 0.0 0.0 
-1.552243850016e-03 1.113908152460e-03 0.0 
1.113908152460e-03 1.676923588400e-02 0.0 
0.0 0.0 0.0 
2.749149322276e-03 1.612005071585e-03 0.0 
1.612005071585e-03 4.000392905533e-03 0.0 
0.0 0.0 0.0 
3.470991134973e-03 1.038799501573e-03 0.0 
1.038799501573e-03 1.797576087605e-03 0.0 
0.0 0.0 0.0 
6.548027472271e-04 -1.914210205080e-04 0.0 
-1.914210205080e-04 3.993098796085e-03 0.0 
0.0 0.0 0.0 
3.375407515054e-04 2.531016634946e-04 0.0 
2.531016634946e-04 1.344332089160e-03 0.0 
0.0 0.0 0.0 
-1.334533655512e-03 1.088350071210e-03 0.0 
1.088350071210e-03 1.691977104490e-02 0.0 
0.0 0.0 0.0 
3.429492641329e-04 -1.857262405691e-04 0.0 
-1.857262405691e-04 2.069914644044e-03 0.0 
0.0 0.0 0.0 
-8.924837419940e-04 1.820445208971e-03 0.0 
1.820445208971e-03 6.363482098122e-03 0.0 
0.0 0.0 0.0 
2.072799372201e-03 3.765649366909e-03 0.0 
3.765649366909e-03 7.553649938494e-03 0.0 
0.0 0.0 0.0 
-8.811124840890e-04 1.010578229893e-03 0.0 
1.010578229893e-03 1.718003150585e-02 0.0 
0.0 0.0 0.0 
2.139113706880e-03 -7.147104747187e-04 0.0 
-7.147104747187e-04 1.401294645749e-04 0.0 
0.0 0.0 0.0 
-2.303476678504e-04 2.840282542240e-03 0.0 
2.840282542240e-03 8.482473232311e-03 0.0 
0.0 0.0 0.0 
-1.945214357180e-03 1.148076273406e-03 0.0 
1.148076273406e-03 1.640013124956e-02 0.0 
0.0 0.0 0.0 
1.235918601194e-03 -2.067110623301e-04 0.0 
-2.067110623301e-04 3.233113619949e-03 0.0 
0.0 0.0 0.0 
2.013619672195e-03 -3.728103763940e-04 0.0 
-3.728103763940e-04 9.888934667388e-04 0.0 
0.0 0.0 0.0 
7.921661842882e-04 1.817090793120e-03 0.0 
1.817090793120e-03 3.811263091492e-03 0.0 
0.0 0.0 0.0 
1.505595838614e-03 -6.239104511754e-04 0.0 
-6.239104511754e-04 3.595779558032e-04 0.0 
0.0 0.0 0.0 
2.371473899879e-03 -5.108949545619e-04 0.0 
-5.108949545619e-04 1.139801156766e-04 0.0 
0.0 0.0 0.0 
2.009521427751e-03 -5.777357087965e-04 0.0 
-5.777357087965e-04 1.555727065081e-04 0.0 
0.0 0.0 0.0 
3.100549646521e-03 1.503574305874e-03 0.0 
1.503574305874e-03 3.222315875355e-03 0.0 
0.0 0.0 0.0 
-8.109956378362e-04 3.661048022170e-03 0.0 
3.661048022170e-03 1.604303460129e-02 0.0 
0.0 0.0 0.0 
-7.978171857087e-04 1.862326471050e-03 0.0 
1.862326471050e-03 7.750265677324e-03 0.0 
0.0 0.0 0.0 
6.610981805297e-04 3.700252446812e-04 0.0 
3.700252446812e-04 6.342730315201e-03 0.0 
0.0 0.0 0.0 
3.439399395975e-03 1.190476035440e-03 0.0 
1.190476035440e-03 1.513741321250e-03 0.0 
0.0 0.0 0.0 
-2.409815141878e-03 1.346253900262e-03 0.0 
1.346253900262e-03 1.615735331606e-02 0.0 
0.0 0.0 0.0 
7.802195510100e-04 1.980453424386e-04 0.0 
1.980453424386e-04 1.472406402227e-03 0.0 
0.0 0.0 0.0 
7.116018130195e-04 9.317214157516e-04 0.0 
9.317214157516e-04 7.129820530768e-03 0.0 
0.0 0.0 0.0 
1.714822744598e-03 -8.213192349070e-04 0.0 
-8.213192349070e-04 1.792781511012e-04 0.0 
0.0 0.0 0.0 
2.476954713735e-04 -2.185696164650e-04 0.0 
-2.185696164650e-04 2.529015886929e-03 0.0 
0.0 0.0 0.0 
2.230744440706e-03 1.967989641481e-03 0.0 
1.967989641481e-03 5.372120245555e-03 0.0 
0.0 0.0 0.0 
2.459042264391e-03 2.716039531462e-04 0.0 
2.716039531462e-04 2.220413843923e-03 0.0 
0.0 0.0 0.0 
1.574861733088e-03 2.627897847413e-03 0.0 
2.627897847413e-03 7.380808397316e-03 0.0 
0.0 0.0 0.0 
2.911957062350e-04 2.312115213576e-03 0.0 
2.312115213576e-03 5.465235214943e-03 0.0 
0.0 0.0 0.0 
-2.268779768147e-03 2.090616205246e-03 0.0 
2.090616205246e-03 1.584969036196e-02 0.0 
0.0 0.0 0.0 
1.204177315330e-03 2.364416007831e-03 0.0 
2.364416007831e-03 7.776626061002e-03 0.0 
0.0 0.0 0.0 
-1.906573632784e-03 8.520744255458e-04 0.0 
8.520744255458e-04 1.635790067778e-02 0.0 
0.0 0.0 0.0 
-1.598597743668e-03 3.310675935462e-03 0.0 
3.310675935462e-03 1.505108040815e-02 0.0 
0.0 0.0 0.0 
-2.049859410732e-03 1.534894330003e-03 0.0 
1.534894330003e-03 1.658097831693e-02 0.0 
0.0 0.0 0.0 
-1.997548401314e-03 1.878827168338e-03 0.0 
1.878827168338e-03 1.649518113881e-02 0.0 
0.0 0.0 0.0 
6.501065060214e-04 8.922390080819e-04 0.0 
8.922390080819e-04 2.189865753415e-03 0.0 
0.0 0.0 0.0 
6.954405639019e-04 2.434158592684e-04 0.0 
2.434158592684e-04 5.980103720338e-03 0.0 
0.0 0.0 0.0 
-1.941252399202e-03 1.483513467168e-03 0.0 
1.483513467168e-03 1.635217699790e-02 0.0 
0.0 0.0 0.0 
3.703686734047e-03 2.084760742605e-03 0.0 
2.084760742605e-03 2.580685619633e-03 0.0 
0.0 0.0 0.0 
-8.132491268567e-04 2.500372077270e-03 0.0 
2.500372077270e-03 9.143394075404e-03 0.0 
0.0 0.0 0.0 
9.451139577383e-04 2.464651008649e-03 0.0 
2.464651008649e-03 8.456729005457e-03 0.0 
0.0 0.0 0.0 
1.272037570122e-03 4.790727630412e-04 0.0 
4.790727630412e-04 1.788022674063e-03 0.0 
0.0 0.0 0.0 
3.530439324206e-04 -2.370768574008e-04 0.0 
-2.370768574008e-04 2.233526409465e-03 0.0 
0.0 0.0 0.0 
1.849921919334e-03 2.516027747909e-03 0.0 
2.516027747909e-03 6.669580269873e-03 0.0 
0.0 0.0 0.0 
1.155437316182e-03 2.428101087204e-05 0.0 
2.428101087204e-05 6.792984658814e-04 0.0 
0.0 0.0 0.0 
1.064929126633e-03 2.321073661713e-03 0.0 
2.321073661713e-03 6.236097659787e-03 0.0 
0.0 0.0 0.0 
1.994502017186e-03 1.781894900493e-03 0.0 
1.781894900493e-03 5.619754259096e-03 0.0 
0.0 0.0 0.0 
-1.688416070683e-03 2.129468776094e-03 0.0 
2.129468776094e-03 1.662330800343e-02 0.0 
0.0 0.0 0.0 
-1.579685936818e-03 2.523305631260e-03 0.0 
2.523305631260e-03 1.643571691290e-02 0.0 
0.0 0.0 0.0 
2.137164637192e-03 1.811815512590e-03 0.0 
1.811815512590e-03 5.395351549261e-03 0.0 
0.0 0.0 0.0 
-1.824988788402e-03 1.471198636231e-03 0.0 
1.471198636231e-03 1.678104571372e-02 0.0 
0.0 0.0 0.0 
3.347536465466e-03 1.521252321475e-03 0.0 
1.521252321475e-03 2.008130141652e-03 0.0 
0.0 0.0 0.0 
1.406583592636e-03 3.958025377514e-03 0.0 
3.958025377514e-03 8.744559525097e-03 0.0 
0.0 0.0 0.0 
-1.035726986686e-03 3.422922725185e-03 0.0 
3.422922725185e-03 1.070100530663e-02 0.0 
0.0 0.0 0.0 
-5.418911352184e-05 4.139702274272e-03 0.0 
4.139702274272e-03 1.245083614524e-02 0.0 
0.0 0.0 0.0 
-1.737639242463e-03 4.213136995791e-03 0.0 
4.213136995791e-03 1.253453332208e-02 0.0 
0.0 0.0 0.0 
-2.484047432666e-03 4.243055118761e-03 0.0 
4.243055118761e-03 1.368547544133e-02 0.0 
0.0 0.0 0.0 
3.730035163451e-03 1.562032465928e-03 0.0 
1.562032465928e-03 2.155678067306e-03 0.0 
0.0 0.0 0.0 
-4.094355063780e-03 3.441584915133e-03 0.0 
3.441584915133e-03 1.515210468562e-02 0.0 
0.0 0.0 0.0 
3.091069790297e-03 2.835451390624e-03 0.0 
2.835451390624e-03 4.591970696830e-03 0.0 
0.0 0.0 0.0 
1.768023767120e-03 1.767663885356e-03 0.0 
1.767663885356e-03 4.600870055107e-03 0.0 
0.0 0.0 0.0 
3.160972533795e-03 9.032698961459e-04 0.0 
9.032698961459e-04 2.139139702342e-03 0.0 
0.0 0.0 0.0 
1.950245249633e-03 -2.265437845856e-04 0.0 
-2.265437845856e-04 6.538963656926e-04 0.0 
0.0 0.0 0.0 
3.713957408584e-03 1.241034107333e-03 0.0 
1.241034107333e-03 1.765479992395e-03 0.0 
0.0 0.0 0.0 
-1.292026500398e-03 1.370083232958e-03 0.0 
1.370083232958e-03 1.695700801278e-02 0.0 
0.0 0.0 0.0 
-1.198985539011e-03 3.569963560143e-03 0.0 
3.569963560143e-03 1.417197471115e-02 0.0 
0.0 0.0 0.0 
8.676682962847e-04 1.743315986598e-04 0.0 
1.743315986598e-04 5.407410113175e-03 0.0 
0.0 0.0 0.0 
1.381867214196e-03 2.553597811068e-03 0.0 
2.553597811068e-03 7.583290475023e-03 0.0 
0.0 0.0 0.0 
2.661000637133e-03 4.086808973511e-04 0.0 
4.086808973511e-04 2.197783799728e-03 0.0 
0.0 0.0 0.0 
-1.701407391549e-03 1.773730600491e-03 0.0 
1.773730600491e-03 1.650677667609e-02 0.0 
0.0 0.0 0.0 
3.391035346340e-03 1.086969324519e-03 0.0 
1.086969324519e-03 2.110398889297e-03 0.0 
0.0 0.0 0.0 
5.534787051955e-04 2.072835909401e-04 0.0 
2.072835909401e-04 6.218098262030e-03 0.0 
0.0 0.0 0.0 
-1.747939563963e-03 1.441328118215e-03 0.0 
1.441328118215e-03 1.659094173423e-02 0.0 
0.0 0.0 0.0 
-2.160177938821e-03 1.976449720792e-03 0.0 
1.976449720792e-03 1.619880709616e-02 0.0 
0.0 0.0 0.0 
2.475544497026e-03 1.447277423972e-03 0.0 
1.447277423972e-03 4.296301293129e-03 0.0 
0.0 0.0 0.0 
3.840525427045e-03 1.398451692388e-03 0.0 
1.398451692388e-03 1.603373526360e-03 0.0 
0.0 0.0 0.0 
1.411485090794e-03 4.085546437372e-03 0.0 
4.085546437372e-03 9.162011183307e-03 0.0 
0.0 0.0 0.0 
-1.226665971982e-03 2.950454453282e-03 0.0 
2.950454453282e-03 1.116259116031e-02 0.0 
0.0 0.0 0.0 
1.967990064766e-03 -5.558298419634e-04 0.0 
-5.558298419634e-04 7.063221127532e-04 0.0 
0.0 0.0 0.0 
1.370068972712e-03 5.731505559928e-05 0.0 
5.731505559928e-05 1.854931016622e-03 0.0 
0.0 0.0 0.0 
5.037339906491e-04 2.338084685468e-03 0.0 
2.338084685468e-03 5.127496959060e-03 0.0 
0.0 0.0 0.0 
-3.805924903149e-04 2.835337534885e-03 0.0 
2.835337534885e-03 8.483897094112e-03 0.0 
0.0 0.0 0.0 
4.234280852096e-04 1.789233719985e-04 0.0 
1.789233719985e-04 6.446401701750e-03 0.0 
0.0 0.0 0.0 
-2.230210699531e-03 1.616846624874e-03 0.0 
1.616846624874e-03 1.633735813046e-02 0.0 
0.0 0.0 0.0 
3.645005454207e-03 1.148646098074e-03 0.0 
1.148646098074e-03 1.642743801412e-03 0.0 
0.0 0.0 0.0 
-6.295762461929e-04 2.930281315301e-03 0.0 
2.930281315301e-03 9.810356772309e-03 0.0 
0.0 0.0 0.0 
1.769552382213e-03 1.630240155772e-03 0.0 
1.630240155772e-03 5.901106202597e-03 0.0 
0.0 0.0 0.0 
-1.598748152458e-03 1.123371371274e-03 0.0 
1.123371371274e-03 1.691647259456e-02 0.0 
0.0 0.0 0.0 
1.150112981847e-03 4.265809583087e-03 0.0 
4.265809583087e-03 9.904059929307e-03 0.0 
0.0 0.0 0.0 
-2.241089558375e-03 1.243193353774e-03 0.0 
1.243193353774e-03 1.591203572996e-02 0.0 
0.0 0.0 0.0 
1.347881004731e-03 1.092820487243e-03 0.0 
1.092820487243e-03 6.044463300455e-03 0.0 
0.0 0.0 0.0 
3.202292209948e-03 1.185689629904e-03 0.0 
1.185689629904e-03 2.514798607640e-03 0.0 
0.0 0.0 0.0 
1.655073132885e-03 1.473120989934e-03 0.0 
1.473120989934e-03 5.915851288783e-03 0.0 
0.0 0.0 0.0 
8.454469934387e-04 2.603134345061e-03 0.0 
2.603134345061e-03 6.195177141310e-03 0.0 
0.0 0.0 0.0 
-1.522242010667e-03 1.722827649012e-03 0.0 
1.722827649012e-03 1.693146383497e-02 0.0 
0.0 0.0 0.0 
9.284470020714e-04 4.411159285345e-03 0.0 
4.411159285345e-03 1.067196468526e-02 0.0 
0.0 0.0 0.0 
2.804024955031e-03 1.340533420075e-03 0.0 
1.340533420075e-03 3.537955673159e-03 0.0 
0.0 0.0 0.0 
1.307156236857e-03 2.298911121177e-04 0.0 
2.298911121177e-04 1.408566754914e-03 0.0 
0.0 0.0 0.0 
1.727256526929e-03 3.401671035827e-03 0.0 
3.401671035827e-03 7.695648843302e-03 0.0 
0.0 0.0 0.0 
2.179044298211e-03 2.761207889339e-03 0.0 
2.761207889339e-03 5.642464302403e-03 0.0 
0.0 0.0 0.0 
3.324776437617e-03 1.178441699172e-03 0.0 
1.178441699172e-03 2.061725486308e-03 0.0 
0.0 0.0 0.0 
2.594129689022e-03 1.442389608899e-03 0.0 
1.442389608899e-03 4.026618161699e-03 0.0 
0.0 0.0 0.0 
1.331664949732e-03 7.608441750908e-04 0.0 
7.608441750908e-04 5.595439053352e-03 0.0 
0.0 0.0 0.0 
1.422102306398e-03 -2.043067761495e-04 0.0 
-2.043067761495e-04 1.478139969729e-03 0.0 
0.0 0.0 0.0 
3.114879266822e-03 1.220844669029e-03 0.0 
1.220844669029e-03 2.804966025466e-03 0.0 
0.0 0.0 0.0 
-1.638143426534e-03 2.849641261021e-03 0.0 
2.849641261021e-03 1.290181824217e-02 0.0 
0.0 0.0 0.0 
3.324830823614e-04 9.764011688993e-05 0.0 
9.764011688993e-05 6.458222550806e-03 0.0 
0.0 0.0 0.0 
-1.459474658393e-03 3.006861500946e-03 0.0 
3.006861500946e-03 1.251684187565e-02 0.0 
0.0 0.0 0.0 
1.878464870711e-03 3.645148790628e-03 0.0 
3.645148790628e-03 7.621104607070e-03 0.0 
0.0 0.0 0.0 
-1.840501319868e-03 2.663314702789e-03 0.0 
2.663314702789e-03 1.331778566757e-02 0.0 
0.0 0.0 0.0 
-2.261455326080e-03 2.115048513845e-03 0.0 
2.115048513845e-03 1.426232044899e-02 0.0 
0.0 0.0 0.0 
-1.080155409577e-03 3.012061674204e-03 0.0 
3.012061674204e-03 1.083334450181e-02 0.0 
0.0 0.0 0.0 
1.604007918299e-03 2.311878709662e-03 0.0 
2.311878709662e-03 6.908631823703e-03 0.0 
0.0 0.0 0.0 
7.603994291492e-04 2.077833734813e-04 0.0 
2.077833734813e-04 5.737796581343e-03 0.0 
0.0 0.0 0.0 
-2.099431717577e-03 1.553554871335e-03 0.0 
1.553554871335e-03 1.606841777151e-02 0.0 
0.0 0.0 0.0 
-1.300042265871e-03 2.419055122532e-03 0.0 
2.419055122532e-03 1.644768931940e-02 0.0 
0.0 0.0 0.0 
-2.060431506838e-03 2.431266161167e-03 0.0 
2.431266161167e-03 1.377422311558e-02 0.0 
0.0 0.0 0.0 
2.644111132183e-03 5.591547520405e-04 0.0 
5.591547520405e-04 1.950755709422e-03 0.0 
0.0 0.0 0.0 
1.447082671048e-03 3.492318799476e-03 0.0 
3.492318799476e-03 8.513934109536e-03 0.0 
0.0 0.0 0.0 
-1.308244046364e-03 1.350908987300e-03 0.0 
1.350908987300e-03 1.709582191602e-02 0.0 
0.0 0.0 0.0 
2.682191066405e-03 2.483679938497e-03 0.0 
2.483679938497e-03 3.977628121998e-03 0.0 
0.0 0.0 0.0 
2.369554726921e-03 2.777055819142e-03 0.0 
2.777055819142e-03 4.764477508884e-03 0.0 
0.0 0.0 0.0 
3.372572682388e-03 8.621184351836e-04 0.0 
8.621184351836e-04 1.565543879878e-03 0.0 
0.0 0.0 0.0 
-2.027125569580e-03 1.925510085033e-03 0.0 
1.925510085033e-03 1.587051268710e-02 0.0 
0.0 0.0 0.0 
-3.222997436559e-04 2.733130544265e-03 0.0 
2.733130544265e-03 7.079878057780e-03 0.0 
0.0 0.0 0.0 
3.259207593615e-03 2.888964703088e-03 0.0 
2.888964703088e-03 4.388304134684e-03 0.0 
0.0 0.0 0.0 
-2.029083371687e-04 2.677872465423e-03 0.0 
2.677872465423e-03 7.086840422965e-03 0.0 
0.0 0.0 0.0 
2.052284785463e-03 2.247246740054e-03 0.0 
2.247246740054e-03 6.005247870768e-03 0.0 
0.0 0.0 0.0 
9.811518395451e-04 3.496198534807e-03 0.0 
3.496198534807e-03 9.341524010025e-03 0.0 
0.0 0.0 0.0 
3.592191647863e-03 8.390305518078e-04 0.0 
8.390305518078e-04 1.268424561668e-03 0.0 
0.0 0.0 0.0 
4.040888145505e-04 -1.498921631021e-04 0.0 
-1.498921631021e-04 1.409067762861e-03 0.0 
0.0 0.0 0.0 
-1.369991479480e-03 2.843098218952e-03 0.0 
2.843098218952e-03 1.587203169837e-02 0.0 
0.0 0.0 0.0 
-7.309847165672e-04 2.549215813924e-03 0.0 
2.549215813924e-03 8.047849857837e-03 0.0 
0.0 0.0 0.0 
2.739383845803e-03 6.105793015183e-04 0.0 
6.105793015183e-04 2.465949319398e-03 0.0 
0.0 0.0 0.0 
1.296775440120e-03 3.401821958734e-03 0.0 
3.401821958734e-03 8.589984437529e-03 0.0 
0.0 0.0 0.0 
-2.368696745977e-03 1.726126340245e-03 0.0 
1.726126340245e-03 1.604885620735e-02 0.0 
0.0 0.0 0.0 
9.510233129721e-04 2.627091558590e-04 0.0 
2.627091558590e-04 5.447430400051e-03 0.0 
0.0 0.0 0.0 
2.072463454262e-03 1.467809686377e-03 0.0 
1.467809686377e-03 3.843838951118e-03 0.0 
0.0 0.0 0.0 
1.695729174556e-04 1.659252260200e-04 0.0 
1.659252260200e-04 1.100774661748e-03 0.0 
0.0 0.0 0.0 
2.718111280218e-04 6.953869764745e-05 0.0 
6.953869764745e-05 6.670223084923e-03 0.0 
0.0 0.0 0.0 
2.963493437713e-05 2.868428354755e-03 0.0 
2.868428354755e-03 8.001838278817e-03 0.0 
0.0 0.0 0.0 
2.463213457973e-03 2.494522851540e-03 0.0 
2.494522851540e-03 5.532943877047e-03 0.0 
0.0 0.0 0.0 
1.275565842625e-03 3.986743581448e-03 0.0 
3.986743581448e-03 9.209264890979e-03 0.0 
0.0 0.0 0.0 
-3.580445603377e-04 2.504246752727e-04 0.0 
2.504246752727e-04 8.712961605639e-04 0.0 
0.0 0.0 0.0 
1.069335881264e-03 3.584720747654e-04 0.0 
3.584720747654e-04 5.431908466942e-03 0.0 
0.0 0.0 0.0 
8.331023990886e-04 1.179685259555e-03 0.0 
1.179685259555e-03 3.345516599638e-03 0.0 
0.0 0.0 0.0 
-2.549279099646e-03 1.456395922803e-03 0.0 
1.456395922803e-03 1.588893025962e-02 0.0 
0.0 0.0 0.0 
1.143578934836e-03 -1.355497603628e-04 0.0 
-1.355497603628e-04 3.749196035532e-03 0.0 
0.0 0.0 0.0 
3.815526772845e-03 1.069734350946e-03 0.0 
1.069734350946e-03 1.228652008012e-03 0.0 
0.0 0.0 0.0 
4.516814051665e-04 1.273745668757e-04 0.0 
1.273745668757e-04 6.231025658181e-03 0.0 
0.0 0.0 0.0 
3.102021285722e-03 3.075364551394e-03 0.0 
3.075364551394e-03 4.555390383657e-03 0.0 
0.0 0.0 0.0 
3.473596505307e-03 8.704092410154e-04 0.0 
8.704092410154e-04 1.094843946221e-03 0.0 
0.0 0.0 0.0 
-2.010109372398e-04 2.876484322971e-03 0.0 
2.876484322971e-03 8.944674787330e-03 0.0 
0.0 0.0 0.0 
2.097645907762e-04 -3.091616342511e-04 0.0 
-3.091616342511e-04 1.185703164261e-03 0.0 
0.0 0.0 0.0 
1.755012474667e-03 3.810950822691e-03 0.0 
3.810950822691e-03 7.945914871163e-03 0.0 
0.0 0.0 0.0 
1.966479232670e-03 2.082511719650e-03 0.0 
2.082511719650e-03 6.030390212084e-03 0.0 
0.0 0.0 0.0 
6.048019184861e-04 4.535870637572e-03 0.0 
4.535870637572e-03 1.135103299759e-02 0.0 
0.0 0.0 0.0 
1.727992498596e-03 3.921686818182e-03 0.0 
3.921686818182e-03 8.391901198215e-03 0.0 
0.0 0.0 0.0 
1.975285960665e-03 1.130138913618e-04 0.0 
1.130138913618e-04 1.769444351946e-03 0.0 
0.0 0.0 0.0 
7.442377056881e-04 8.979884300169e-05 0.0 
8.979884300169e-05 5.421476299370e-03 0.0 
0.0 0.0 0.0 
-9.505016627804e-04 1.623054407664e-03 0.0 
1.623054407664e-03 1.710097767350e-02 0.0 
0.0 0.0 0.0 
6.664002603611e-04 2.681008404419e-03 0.0 
2.681008404419e-03 9.163831186462e-03 0.0 
0.0 0.0 0.0 
1.777124686390e-03 2.365116893525e-03 0.0 
2.365116893525e-03 6.692516005164e-03 0.0 
0.0 0.0 0.0 
3.214443541986e-03 1.506104202410e-03 0.0 
1.506104202410e-03 2.641566810110e-03 0.0 
0.0 0.0 0.0 
9.039238087889e-04 3.369887779516e-03 0.0 
3.369887779516e-03 8.410828289032e-03 0.0 
0.0 0.0 0.0 
3.460246182863e-04 6.458015029682e-05 0.0 
6.458015029682e-05 6.325434255137e-03 0.0 
0.0 0.0 0.0 
-1.558800957769e-04 -1.597392908152e-04 0.0 
-1.597392908152e-04 4.509278706495e-03 0.0 
0.0 0.0 0.0 
1.995724916773e-03 3.852173626761e-03 0.0 
3.852173626761e-03 7.541651509253e-03 0.0 
0.0 0.0 0.0 
-2.108664805561e-03 1.181996485111e-03 0.0 
1.181996485111e-03 1.617503576988e-02 0.0 
0.0 0.0 0.0 
5.956451766627e-04 1.625923427582e-04 0.0 
1.625923427582e-04 5.993096144693e-03 0.0 
0.0 0.0 0.0 
9.343394309989e-04 4.100458421398e-04 0.0 
4.100458421398e-04 5.805210294185e-03 0.0 
0.0 0.0 0.0 
-1.546840994215e-03 -2.185438264884e-07 0.0 
-2.185438264884e-07 1.466404131209e-02 0.0 
0.0 0.0 0.0 
-1.538013037735e-03 1.620500383812e-05 0.0 
1.620500383812e-05 1.465644926287e-02 0.0 
0.0 0.0 0.0 
-1.857554231724e-03 2.916233869487e-03 0.0 
2.916233869487e-03 1.354338023138e-02 0.0 
0.0 0.0 0.0 
2.025483806427e-03 3.742998958869e-03 0.0 
3.742998958869e-03 7.071910715350e-03 0.0 
0.0 0.0 0.0 
8.834606917150e-04 -1.579554416211e-04 0.0 
-1.579554416211e-04 4.127252337663e-03 0.0 
0.0 0.0 0.0 
-1.320244877675e-03 3.086675747957e-03 0.0 
3.086675747957e-03 1.152616492428e-02 0.0 
0.0 0.0 0.0 
3.349824228784e-03 2.749212787519e-03 0.0 
2.749212787519e-03 3.836075542756e-03 0.0 
0.0 0.0 0.0 
1.085553090660e-03 1.508953759336e-03 0.0 
1.508953759336e-03 7.016091993364e-03 0.0 
0.0 0.0 0.0 
3.183765317633e-03 1.850332056281e-03 0.0 
1.850332056281e-03 2.590283751188e-03 0.0 
0.0 0.0 0.0 
-7.379952851464e-04 3.151673090498e-03 0.0 
3.151673090498e-03 1.644611885769e-02 0.0 
0.0 0.0 0.0 
-2.421237547438e-03 1.927527150317e-03 0.0 
1.927527150317e-03 1.414655706349e-02 0.0 
0.0 0.0 0.0 
2.502171469443e-03 2.468895202855e-03 0.0 
2.468895202855e-03 4.810750838952e-03 0.0 
0.0 0.0 0.0 
1.328901745789e-03 -3.514293948507e-05 0.0 
-3.514293948507e-05 3.731799116655e-03 0.0 
0.0 0.0 0.0 
1.301575232871e-03 3.364126671498e-04 0.0 
3.364126671498e-04 2.254823792881e-03 0.0 
0.0 0.0 0.0 
1.493778994751e-03 -1.786585737618e-04 0.0 
-1.786585737618e-04 2.851493049904e-03 0.0 
0.0 0.0 0.0 
1.140942499992e-03 3.358394221065e-03 0.0 
3.358394221065e-03 7.457408451723e-03 0.0 
0.0 0.0 0.0 
-7.385152119468e-04 2.830472996593e-03 0.0 
2.830472996593e-03 9.373422229920e-03 0.0 
0.0 0.0 0.0 
-2.219637850541e-03 1.656949232166e-03 0.0 
1.656949232166e-03 1.573010620916e-02 0.0 
0.0 0.0 0.0 
-1.089065900313e-03 3.158711798878e-03 0.0 
3.158711798878e-03 1.123092535948e-02 0.0 
0.0 0.0 0.0 
-1.338574710601e-03 3.239698545894e-03 0.0 
3.239698545894e-03 1.190092880845e-02 0.0 
0.0 0.0 0.0 
1.345707108948e-03 1.430302689129e-05 0.0 
1.430302689129e-05 8.515277844579e-05 0.0 
0.0 0.0 0.0 
1.492735208751e-03 -1.555145714381e-04 0.0 
-1.555145714381e-04 2.760032098361e-03 0.0 
0.0 0.0 0.0 
-5.557871575500e-04 2.731845160359e-03 0.0 
2.731845160359e-03 8.025958462457e-03 0.0 
0.0 0.0 0.0 
-1.349178613827e-03 2.988762371587e-03 0.0 
2.988762371587e-03 1.184842212563e-02 0.0 
0.0 0.0 0.0 
-1.575410550401e-03 3.070240312462e-03 0.0 
3.070240312462e-03 1.250539281594e-02 0.0 
0.0 0.0 0.0 
1.398036162428e-03 2.092313882741e-03 0.0 
2.092313882741e-03 7.086427542562e-03 0.0 
0.0 0.0 0.0 
1.017642337730e-03 -6.658605061841e-06 0.0 
-6.658605061841e-06 9.434448188474e-04 0.0 
0.0 0.0 0.0 
1.429234728133e-03 -4.309332268209e-04 0.0 
-4.309332268209e-04 1.151316693866e-03 0.0 
0.0 0.0 0.0 
4.571671063853e-04 2.769401049699e-03 0.0 
2.769401049699e-03 7.077192171460e-03 0.0 
0.0 0.0 0.0 
1.264435577065e-03 -2.761546098566e-04 0.0 
-2.761546098566e-04 2.779518828615e-03 0.0 
0.0 0.0 0.0 
-2.096836038177e-03 4.310616480743e-03 0.0 
4.310616480743e-03 1.366746944007e-02 0.0 
0.0 0.0 0.0 
-2.593444726243e-03 4.032667758784e-03 0.0 
4.032667758784e-03 1.506278861686e-02 0.0 
0.0 0.0 0.0 
-2.456328330213e-03 1.862841432394e-03 0.0 
1.862841432394e-03 1.570677438479e-02 0.0 
0.0 0.0 0.0 
5.598071050665e-04 8.055449482334e-04 0.0 
8.055449482334e-04 2.126743307152e-03 0.0 
0.0 0.0 0.0 
1.166401968525e-03 -1.282068445861e-04 0.0 
-1.282068445861e-04 3.619565969858e-03 0.0 
0.0 0.0 0.0 
1.755618535574e-03 1.239871248060e-03 0.0 
1.239871248060e-03 5.387067321233e-03 0.0 
0.0 0.0 0.0 
1.331012322444e-03 -9.604068290595e-06 0.0 
-9.604068290595e-06 1.062038436816e-03 0.0 
0.0 0.0 0.0 
3.396602708787e-04 3.744333003032e-03 0.0 
3.744333003032e-03 1.064423441332e-02 0.0 
0.0 0.0 0.0 
-1.774236577245e-03 1.789232757299e-03 0.0 
1.789232757299e-03 1.673787984875e-02 0.0 
0.0 0.0 0.0 
6.972236474585e-04 -2.908067604274e-04 0.0 
-2.908067604274e-04 3.603881488790e-03 0.0 
0.0 0.0 0.0 
6.928509086412e-04 1.374714463206e-04 0.0 
1.374714463206e-04 5.672740055395e-03 0.0 
0.0 0.0 0.0 
1.234923485569e-03 4.003222678813e-06 0.0 
4.003222678813e-06 -2.242908620871e-04 0.0 
0.0 0.0 0.0 
1.821758832010e-03 1.001876369396e-03 0.0 
1.001876369396e-03 4.921469742780e-03 0.0 
0.0 0.0 0.0 
2.519312027138e-04 2.752031138660e-03 0.0 
2.752031138660e-03 8.017664811983e-03 0.0 
0.0 0.0 0.0 
1.362831026529e-03 -3.192814580264e-05 0.0 
-3.192814580264e-05 -3.597037214620e-04 0.0 
0.0 0.0 0.0 
-1.477606169620e-03 1.720179936740e-03 0.0 
1.720179936740e-03 1.674344028578e-02 0.0 
0.0 0.0 0.0 
8.264856039160e-04 -1.964795021459e-04 0.0 
-1.964795021459e-04 1.536785550051e-03 0.0 
0.0 0.0 0.0 
-1.455829857909e-03 3.017961942599e-03 0.0 
3.017961942599e-03 1.184458341468e-02 0.0 
0.0 0.0 0.0 
-6.309768944256e-04 2.878006070067e-03 0.0 
2.878006070067e-03 9.366531681120e-03 0.0 
0.0 0.0 0.0 
2.801362362557e-03 5.520950118156e-04 0.0 
5.520950118156e-04 2.159878991687e-03 0.0 
0.0 0.0 0.0 
2.028314846173e-03 5.347595770564e-04 0.0 
5.347595770564e-04 3.754984692551e-03 0.0 
0.0 0.0 0.0 
-1.401919217757e-03 2.056646943193e-03 0.0 
2.056646943193e-03 1.662751758770e-02 0.0 
0.0 0.0 0.0 
1.781744402764e-03 6.213680030706e-04 0.0 
6.213680030706e-04 4.435956968502e-03 0.0 
0.0 0.0 0.0 
2.004381272788e-03 3.023279942913e-03 0.0 
3.023279942913e-03 5.603765961723e-03 0.0 
0.0 0.0 0.0 
6.753216052275e-04 2.557613007967e-03 0.0 
2.557613007967e-03 7.107211945337e-03 0.0 
0.0 0.0 0.0 
-1.033748398379e-03 1.716087871677e-03 0.0 
1.716087871677e-03 1.470323386942e-03 0.0 
0.0 0.0 0.0 
7.060430273771e-04 9.673309706044e-07 0.0 
9.673309706044e-07 1.233001493752e-03 0.0 
0.0 0.0 0.0 
1.603411251924e-03 3.736539035359e-03 0.0 
3.736539035359e-03 8.409697427322e-03 0.0 
0.0 0.0 0.0 
-2.474842819623e-03 2.191327647028e-03 0.0 
2.191327647028e-03 1.481539214953e-02 0.0 
0.0 0.0 0.0 
1.449628962092e-03 3.642693776386e-03 0.0 
3.642693776386e-03 8.486621825652e-03 0.0 
0.0 0.0 0.0 
8.716783923814e-04 1.533158945729e-03 0.0 
1.533158945729e-03 3.291760647577e-03 0.0 
0.0 0.0 0.0 
-1.619038923033e-03 2.967702489379e-03 0.0 
2.967702489379e-03 1.439830883963e-02 0.0 
0.0 0.0 0.0 
1.294184676985e-03 3.887875129517e-03 0.0 
3.887875129517e-03 9.216442315488e-03 0.0 
0.0 0.0 0.0 
-3.251867429015e-03 2.983413047946e-03 0.0 
2.983413047946e-03 1.339210211394e-02 0.0 
0.0 0.0 0.0 
1.543313914606e-03 3.788469670935e-03 0.0 
3.788469670935e-03 8.401103894202e-03 0.0 
0.0 0.0 0.0 
5.819002654464e-04 5.378048445286e-05 0.0 
5.378048445286e-05 5.686672059964e-03 0.0 
0.0 0.0 0.0 
2.423458999931e-03 3.566718639974e-03 0.0 
3.566718639974e-03 6.189137253245e-03 0.0 
0.0 0.0 0.0 
1.438681516029e-03 -9.573978808432e-05 0.0 
-9.573978808432e-05 3.214959655494e-03 0.0 
0.0 0.0 0.0 
1.408680022359e-03 -1.013444127219e-04 0.0 
-1.013444127219e-04 3.365850515308e-03 0.0 
0.0 0.0 0.0 
-1.668594296586e-03 2.958077399931e-03 0.0 
2.958077399931e-03 1.584400150588e-02 0.0 
0.0 0.0 0.0 
2.239931536534e-03 4.415852020298e-04 0.0 
4.415852020298e-04 3.116190864167e-03 0.0 
0.0 0.0 0.0 
-3.977995411935e-04 2.907245962639e-03 0.0 
2.907245962639e-03 8.941391072945e-03 0.0 
0.0 0.0 0.0 
3.594888957586e-03 2.233498499105e-03 0.0 
2.233498499105e-03 3.149348412628e-03 0.0 
0.0 0.0 0.0 
1.498659371227e-03 6.991623225740e-04 0.0 
6.991623225740e-04 5.156417787975e-03 0.0 
0.0 0.0 0.0 
2.794027119442e-03 2.154301041548e-03 0.0 
2.154301041548e-03 4.025080082275e-03 0.0 
0.0 0.0 0.0 
2.726535331897e-03 3.997412994423e-04 0.0 
3.997412994423e-04 9.678129182027e-04 0.0 
0.0 0.0 0.0 
2.816003831721e-03 1.078991698641e-03 0.0 
1.078991698641e-03 3.130559512718e-03 0.0 
0.0 0.0 0.0 
2.653818980773e-03 6.830241623321e-04 0.0 
6.830241623321e-04 1.393223894425e-03 0.0 
0.0 0.0 0.0 
-1.204782316815e-03 3.097025104399e-03 0.0 
3.097025104399e-03 1.152410231611e-02 0.0 
0.0 0.0 0.0 
2.729718213874e-03 2.784750168474e-04 0.0 
2.784750168474e-04 1.455606639244e-03 0.0 
0.0 0.0 0.0 
-1.174121056187e-03 2.984570912828e-03 0.0 
2.984570912828e-03 1.083751075484e-02 0.0 
0.0 0.0 0.0 
1.542177777468e-03 2.142568894059e-03 0.0 
2.142568894059e-03 6.935047120490e-03 0.0 
0.0 0.0 0.0 
1.804839246629e-03 2.034313254046e-03 0.0 
2.034313254046e-03 6.236755089611e-03 0.0 
0.0 0.0 0.0 
2.959071649267e-03 2.174152097831e-03 0.0 
2.174152097831e-03 3.248132217666e-03 0.0 
0.0 0.0 0.0 
-2.281001616088e-03 1.787712258228e-03 0.0 
1.787712258228e-03 1.531266303600e-02 0.0 
0.0 0.0 0.0 
5.449602979637e-04 1.049039803657e-04 0.0 
1.049039803657e-04 5.918767120817e-03 0.0 
0.0 0.0 0.0 
4.415410179375e-04 2.731464997864e-05 0.0 
2.731464997864e-05 5.931896636072e-03 0.0 
0.0 0.0 0.0 
2.061454159854e-04 6.059283465648e-04 0.0 
6.059283465648e-04 2.018084580689e-03 0.0 
0.0 0.0 0.0 
-9.439088205293e-04 3.050392196195e-03 0.0 
3.050392196195e-03 1.054000403563e-02 0.0 
0.0 0.0 0.0 
3.267306308976e-04 1.593786818923e-04 0.0 
1.593786818923e-04 6.649088462718e-03 0.0 
0.0 0.0 0.0 
1.257972797619e-05 3.224797856918e-03 0.0 
3.224797856918e-03 7.080524204105e-03 0.0 
0.0 0.0 0.0 
6.863780135935e-04 -2.327072077469e-04 0.0 
-2.327072077469e-04 4.026912110427e-03 0.0 
0.0 0.0 0.0 
-8.813353197378e-04 1.398256859068e-03 0.0 
1.398256859068e-03 2.129870223605e-03 0.0 
0.0 0.0 0.0 
4.201281495713e-04 8.226736907563e-05 0.0 
8.226736907563e-05 6.142222647672e-03 0.0 
0.0 0.0 0.0 
1.849553786011e-03 5.483555856609e-04 0.0 
5.483555856609e-04 1.702999773978e-03 0.0 
0.0 0.0 0.0 
-1.820273887482e-04 -1.147812347695e-04 0.0 
-1.147812347695e-04 4.683565916226e-03 0.0 
0.0 0.0 0.0 
2.578584031482e-03 2.699575861764e-03 0.0 
2.699575861764e-03 5.508047551256e-03 0.0 
0.0 0.0 0.0 
-2.499874145674e-03 2.005432842354e-03 0.0 
2.005432842354e-03 1.528531321618e-02 0.0 
0.0 0.0 0.0 
-2.331078151782e-03 1.946783093026e-03 0.0 
1.946783093026e-03 1.484662786147e-02 0.0 
0.0 0.0 0.0 
1.589691447765e-03 3.225036335213e-03 0.0 
3.225036335213e-03 6.510943510716e-03 0.0 
0.0 0.0 0.0 
-1.599674065804e-03 3.805024852403e-03 0.0 
3.805024852403e-03 1.156724772327e-02 0.0 
0.0 0.0 0.0 
-1.781819605315e-03 4.090346562244e-03 0.0 
4.090346562244e-03 1.255420762573e-02 0.0 
0.0 0.0 0.0 
3.400000005647e-04 2.385547234258e-06 0.0 
2.385547234258e-06 6.155874610569e-03 0.0 
0.0 0.0 0.0 
1.882268787663e-03 5.846888715354e-04 0.0 
5.846888715354e-04 4.113761591675e-03 0.0 
0.0 0.0 0.0 
2.598245737593e-03 6.808476957871e-04 0.0 
6.808476957871e-04 2.801575126018e-03 0.0 
0.0 0.0 0.0 
1.962252776812e-03 1.154325376885e-03 0.0 
1.154325376885e-03 4.901928109942e-03 0.0 
0.0 0.0 0.0 
3.087471376129e-03 9.532274328996e-04 0.0 
9.532274328996e-04 2.445514465326e-03 0.0 
0.0 0.0 0.0 
1.870869743535e-03 3.975974420376e-04 0.0 
3.975974420376e-04 2.239854313760e-03 0.0 
0.0 0.0 0.0 
-1.271031149077e-03 3.752597373795e-03 0.0 
3.752597373795e-03 1.157493752541e-02 0.0 
0.0 0.0 0.0 
-2.623865486802e-03 1.997899054174e-03 0.0 
1.997899054174e-03 1.468897104591e-02 0.0 
0.0 0.0 0.0 
-1.554032423747e-03 5.601755155659e-06 0.0 
5.601755155659e-06 1.467376359026e-02 0.0 
0.0 0.0 0.0 
1.746481373022e-03 1.888652954075e-03 0.0 
1.888652954075e-03 6.257680004114e-03 0.0 
0.0 0.0 0.0 
3.035644908799e-03 1.830376013143e-03 0.0 
1.830376013143e-03 3.297550816718e-03 0.0 
0.0 0.0 0.0 
9.796743238157e-04 2.575023441409e-03 0.0 
2.575023441409e-03 8.434598779562e-03 0.0 
0.0 0.0 0.0 
1.128123522853e-04 -2.822480052164e-05 0.0 
-2.822480052164e-05 6.172087177269e-03 0.0 
0.0 0.0 0.0 
2.910555202401e-03 1.046367198417e-03 0.0 
1.046367198417e-03 2.833724886776e-03 0.0 
0.0 0.0 0.0 
2.019450816337e-04 1.474858943033e-04 0.0 
1.474858943033e-04 7.044246467325e-03 0.0 
0.0 0.0 0.0 
3.314879238203e-03 2.953565773982e-04 0.0 
2.953565773982e-04 7.911653976815e-04 0.0 
0.0 0.0 0.0 
1.152960699334e-03 2.813135301950e-03 0.0 
2.813135301950e-03 8.278062909415e-03 0.0 
0.0 0.0 0.0 
1.792100468589e-03 3.015754426247e-03 0.0 
3.015754426247e-03 6.541287444616e-03 0.0 
0.0 0.0 0.0 
2.709576420896e-03 3.436273153181e-03 0.0 
3.436273153181e-03 5.849082153609e-03 0.0 
0.0 0.0 0.0 
1.146919875070e-03 1.176940967979e-03 0.0 
1.176940967979e-03 6.553174255225e-03 0.0 
0.0 0.0 0.0 
1.722107637503e-03 -3.253330109671e-04 0.0 
-3.253330109671e-04 1.652042470987e-03 0.0 
0.0 0.0 0.0 
-7.371714041600e-04 2.946374309193e-03 0.0 
2.946374309193e-03 9.808871334110e-03 0.0 
0.0 0.0 0.0 
2.870466011262e-03 7.886720631269e-04 0.0 
7.886720631269e-04 2.471839099155e-03 0.0 
0.0 0.0 0.0 
-9.700007355911e-04 2.880942532163e-03 0.0 
2.880942532163e-03 1.012734047867e-02 0.0 
0.0 0.0 0.0 
7.761758845104e-04 1.485528932783e-03 0.0 
1.485528932783e-03 3.859823788449e-03 0.0 
0.0 0.0 0.0 
2.540830677694e-03 3.206174421993e-03 0.0 
3.206174421993e-03 5.997635477338e-03 0.0 
0.0 0.0 0.0 
3.023726208969e-03 7.061556918199e-04 0.0 
7.061556918199e-04 2.133834371059e-03 0.0 
0.0 0.0 0.0 
1.068901262184e-03 -6.746512515334e-05 0.0 
-6.746512515334e-05 4.110960477687e-03 0.0 
0.0 0.0 0.0 
-9.379053273241e-04 2.915768789364e-03 0.0 
2.915768789364e-03 1.012254441526e-02 0.0 
0.0 0.0 0.0 
-6.961607079036e-04 7.124687373652e-04 0.0 
7.124687373652e-04 1.366506327113e-03 0.0 
0.0 0.0 0.0 
3.176736189666e-03 2.319960053254e-03 0.0 
2.319960053254e-03 4.003997284598e-03 0.0 
0.0 0.0 0.0 
-4.695589928487e-04 1.060336285171e-03 0.0 
1.060336285171e-03 2.340491066324e-03 0.0 
0.0 0.0 0.0 
4.737253912817e-04 -1.809631320587e-04 0.0 
-1.809631320587e-04 8.530177086346e-04 0.0 
0.0 0.0 0.0 
8.952093140087e-04 -1.431001257969e-04 0.0 
-1.431001257969e-04 4.009617735988e-03 0.0 
0.0 0.0 0.0 
1.119776147296e-03 4.107234627642e-03 0.0 
4.107234627642e-03 9.484085326996e-03 0.0 
0.0 0.0 0.0 
-2.147717548976e-03 2.295781412508e-03 0.0 
2.295781412508e-03 1.442070599624e-02 0.0 
0.0 0.0 0.0 
-1.363060913263e-03 2.911088539606e-03 0.0 
2.911088539606e-03 9.908019441586e-03 0.0 
0.0 0.0 0.0 
0.0 3.233907929096e-03 0.0 
3.233907929096e-03 1.625929531678e-02 0.0 
0.0 0.0 0.0 
-1.015399053438e-03 1.327076221624e-03 0.0 
1.327076221624e-03 8.923392972138e-04 0.0 
0.0 0.0 0.0 
-1.424098111783e-03 3.354319560061e-03 0.0 
3.354319560061e-03 1.071503713746e-02 0.0 
0.0 0.0 0.0 
2.524090600854e-03 7.243318778142e-04 0.0 
7.243318778142e-04 3.089785754269e-03 0.0 
0.0 0.0 0.0 
4.234149538547e-04 -2.823822450892e-04 0.0 
-2.823822450892e-04 4.009509648135e-03 0.0 
0.0 0.0 0.0 
-1.178566892152e-03 3.234291519598e-03 0.0 
3.234291519598e-03 1.080202632724e-02 0.0 
0.0 0.0 0.0 
3.244761594419e-03 1.865345096499e-04 0.0 
1.865345096499e-04 7.702177636024e-04 0.0 
0.0 0.0 0.0 
2.109240789514e-03 4.894932902358e-04 0.0 
4.894932902358e-04 3.436945382178e-03 0.0 
0.0 0.0 0.0 
1.356256748608e-03 3.230221886397e-03 0.0 
3.230221886397e-03 7.475401416477e-03 0.0 
0.0 0.0 0.0 
2.772590602000e-03 2.400764199102e-03 0.0 
2.400764199102e-03 4.861435606936e-03 0.0 
0.0 0.0 0.0 
-8.430212389554e-05 3.976047419671e-03 0.0 
3.976047419671e-03 1.197258328140e-02 0.0 
0.0 0.0 0.0 
6.035590580873e-04 8.251678701874e-04 0.0 
8.251678701874e-04 1.829418855315e-03 0.0 
0.0 0.0 0.0 
9.368442045279e-04 -1.938917214050e-04 0.0 
-1.938917214050e-04 3.587463590500e-03 0.0 
0.0 0.0 0.0 
4.092473787605e-04 -1.768771785091e-04 0.0 
-1.768771785091e-04 4.356170519743e-03 0.0 
0.0 0.0 0.0 
9.011786410826e-04 -4.809141761092e-04 0.0 
-4.809141761092e-04 1.515547282728e-03 0.0 
0.0 0.0 0.0 
-2.581987805654e-03 1.847085772614e-03 0.0 
1.847085772614e-03 1.393682194374e-02 0.0 
0.0 0.0 0.0 
-2.260335722320e-03 2.480754712925e-03 0.0 
2.480754712925e-03 1.439532638890e-02 0.0 
0.0 0.0 0.0 
-2.291229167104e-04 -5.515527292430e-05 0.0 
-5.515527292430e-05 5.793411976270e-03 0.0 
0.0 0.0 0.0 
1.425138261110e-03 1.797671392655e-05 0.0 
1.797671392655e-05 -3.237108233721e-04 0.0 
0.0 0.0 0.0 
-6.895966292062e-04 -3.204249077250e-05 0.0 
-3.204249077250e-05 7.994209989772e-04 0.0 
0.0 0.0 0.0 
5.858563962418e-04 -4.959855104377e-04 0.0 
-4.959855104377e-04 1.092572690443e-03 0.0 
0.0 0.0 0.0 
1.984234234491e-04 -2.681591570866e-04 0.0 
-2.681591570866e-04 4.372493375454e-03 0.0 
0.0 0.0 0.0 
3.499044002129e-03 5.544956984274e-04 0.0 
5.544956984274e-04 9.569964043747e-04 0.0 
0.0 0.0 0.0 
3.209505518867e-03 7.120549433219e-05 0.0 
7.120549433219e-05 5.029350446817e-04 0.0 
0.0 0.0 0.0 
2.762375533804e-03 2.142088394074e-05 0.0 
2.142088394074e-05 1.024178518184e-03 0.0 
0.0 0.0 0.0 
6.532578179355e-04 -1.429363518642e-04 0.0 
-1.429363518642e-04 4.366847105944e-03 0.0 
0.0 0.0 0.0 
-1.730022721831e-03 2.804672899157e-03 0.0 
2.804672899157e-03 1.356390785376e-02 0.0 
0.0 0.0 0.0 
2.072505172779e-04 -1.596566930656e-04 0.0 
-1.596566930656e-04 4.677473896664e-03 0.0 
0.0 0.0 0.0 
3.741168310712e-03 7.675476224824e-04 0.0 
7.675476224824e-04 9.205669566912e-04 0.0 
0.0 0.0 0.0 
-9.771981156531e-04 2.998006446495e-03 0.0 
2.998006446495e-03 1.054696223366e-02 0.0 
0.0 0.0 0.0 
-1.991723735611e-03 3.050168367977e-04 0.0 
3.050168367977e-04 1.548152293430e-02 0.0 
0.0 0.0 0.0 
2.111691492414e-03 2.754083445734e-03 0.0 
2.754083445734e-03 6.436945931186e-03 0.0 
0.0 0.0 0.0 
1.025242757691e-05 -2.472730159514e-04 0.0 
-2.472730159514e-04 4.693501598332e-03 0.0 
0.0 0.0 0.0 
4.552007269976e-04 -2.315739752824e-04 0.0 
-2.315739752824e-04 4.383900349978e-03 0.0 
0.0 0.0 0.0 
-1.183385033633e-03 2.094668762979e-03 0.0 
2.094668762979e-03 8.387568833429e-03 0.0 
0.0 0.0 0.0 
3.278006664764e-03 4.893074750045e-04 0.0 
4.893074750045e-04 1.198429027341e-03 0.0 
0.0 0.0 0.0 
3.415677905672e-05 -1.374590997357e-04 0.0 
-1.374590997357e-04 4.968982276748e-03 0.0 
0.0 0.0 0.0 
-1.323619033514e-03 6.460886727927e-05 0.0 
6.460886727927e-05 1.607647174459e-02 0.0 
0.0 0.0 0.0 
-1.420801829294e-03 5.166668139099e-05 0.0 
5.166668139099e-05 1.574029008772e-02 0.0 
0.0 0.0 0.0 
-1.237282205501e-03 2.455848445498e-03 0.0 
2.455848445498e-03 9.155533347629e-03 0.0 
0.0 0.0 0.0 
4.489013217901e-04 -1.344222456339e-04 0.0 
-1.344222456339e-04 4.688360993254e-03 0.0 
0.0 0.0 0.0 
2.746721891305e-03 -1.402444529692e-04 0.0 
-1.402444529692e-04 6.648413365415e-04 0.0 
0.0 0.0 0.0 
-1.089518639356e-04 1.367703635969e-03 0.0 
1.367703635969e-03 2.708546419600e-03 0.0 
0.0 0.0 0.0 
1.118879021870e-03 2.649180485758e-03 0.0 
2.649180485758e-03 8.315540352207e-03 0.0 
0.0 0.0 0.0 
9.279420648292e-04 -4.866328863828e-04 0.0 
-4.866328863828e-04 8.154784256655e-04 0.0 
0.0 0.0 0.0 
2.757192054781e-03 -2.281082061411e-05 0.0 
-2.281082061411e-05 9.972866087471e-04 0.0 
0.0 0.0 0.0 
3.316088246955e-03 2.344167118766e-03 0.0 
2.344167118766e-03 3.769633036399e-03 0.0 
0.0 0.0 0.0 
-8.767575047227e-04 2.891846830819e-03 0.0 
2.891846830819e-03 9.902587699161e-03 0.0 
0.0 0.0 0.0 
-1.436780049774e-04 -1.927124187454e-04 0.0 
-1.927124187454e-04 4.985472346531e-03 0.0 
0.0 0.0 0.0 
5.534453655898e-04 8.535818125467e-06 0.0 
8.535818125467e-06 2.044893927901e-03 0.0 
0.0 0.0 0.0 
-2.739046883102e-03 1.747311621502e-03 0.0 
1.747311621502e-03 1.471187857837e-02 0.0 
0.0 0.0 0.0 
2.645068254732e-04 -2.263693031253e-04 0.0 
-2.263693031253e-04 4.705829215291e-03 0.0 
0.0 0.0 0.0 
2.540084531008e-03 4.657349154320e-04 0.0 
4.657349154320e-04 2.491691152313e-03 0.0 
0.0 0.0 0.0 
9.559078115891e-04 -2.256756865826e-04 0.0 
-2.256756865826e-04 3.636661016529e-03 0.0 
0.0 0.0 0.0 
-5.356336273189e-04 4.571523002747e-04 0.0 
4.571523002747e-04 1.240430093862e-03 0.0 
0.0 0.0 0.0 
-8.888340264459e-04 7.424412873163e-05 0.0 
7.424412873163e-05 1.698063825348e-02 0.0 
0.0 0.0 0.0 
2.850592466531e-03 2.023929914223e-04 0.0 
2.023929914223e-04 1.329722723039e-03 0.0 
0.0 0.0 0.0 
1.380047093637e-03 1.718424635143e-03 0.0 
1.718424635143e-03 6.786497152098e-03 0.0 
0.0 0.0 0.0 
2.729033516975e-03 3.295157024407e-03 0.0 
3.295157024407e-03 5.875051880538e-03 0.0 
0.0 0.0 0.0 
2.767497067500e-04 -1.235205589242e-04 0.0 
-1.235205589242e-04 4.986306939121e-03 0.0 
0.0 0.0 0.0 
9.769377959024e-05 -2.145587876191e-04 0.0 
-2.145587876191e-04 5.003289922714e-03 0.0 
0.0 0.0 0.0 
3.628650798985e-03 4.868150998797e-04 0.0 
4.868150998797e-04 6.682982702304e-04 0.0 
0.0 0.0 0.0 
4.908779712978e-04 -4.953399685954e-04 0.0 
-4.953399685954e-04 7.017597403831e-04 0.0 
0.0 0.0 0.0 
-3.848642625225e-04 7.612363804603e-04 0.0 
7.612363804603e-04 1.178766747793e-03 0.0 
0.0 0.0 0.0 
1.114314352648e-04 -1.133524791075e-04 0.0 
-1.133524791075e-04 5.287574621993e-03 0.0 
0.0 0.0 0.0 
1.262501170020e-03 1.331302396873e-03 0.0 
1.331302396873e-03 6.558686121126e-03 0.0 
0.0 0.0 0.0 
2.200353944239e-03 -3.027205182968e-04 0.0 
-3.027205182968e-04 9.692569167536e-04 0.0 
0.0 0.0 0.0 
3.745840971925e-04 3.536543599530e-03 0.0 
3.536543599530e-03 9.256561382087e-03 0.0 
0.0 0.0 0.0 
2.798744904362e-04 3.010165002334e-03 0.0 
3.010165002334e-03 6.270249638849e-03 0.0 
0.0 0.0 0.0 
-1.190762769935e-03 3.126333104261e-03 0.0 
3.126333104261e-03 1.123595292182e-02 0.0 
0.0 0.0 0.0 
4.892192917070e-04 8.758140738007e-04 0.0 
8.758140738007e-04 7.788331119354e-03 0.0 
0.0 0.0 0.0 
-1.770514375065e-03 4.584734425681e-05 0.0 
4.584734425681e-05 8.911559277207e-04 0.0 
0.0 0.0 0.0 
0.0 2.435026366188e-04 0.0 
2.435026366188e-04 1.758001029610e-02 0.0 
0.0 0.0 0.0 
0.0 6.888498839311e-05 0.0 
6.888498839311e-05 7.462933522376e-03 0.0 
0.0 0.0 0.0 
-1.507395664964e-03 -3.890954835836e-05 0.0 
-3.890954835836e-05 1.510681715640e-02 0.0 
0.0 0.0 0.0 
2.438655914615e-03 -2.214622790485e-05 0.0 
-2.214622790485e-05 1.484528944029e-03 0.0 
0.0 0.0 0.0 
2.507598671967e-03 3.416273853891e-03 0.0 
3.416273853891e-03 6.213422637289e-03 0.0 
0.0 0.0 0.0 
3.366925304737e-03 5.648385956898e-04 0.0 
5.648385956898e-04 1.144300462733e-03 0.0 
0.0 0.0 0.0 
4.843897191371e-04 -2.215113140552e-04 0.0 
-2.215113140552e-04 7.161826421831e-04 0.0 
0.0 0.0 0.0 
-8.878427550875e-04 1.055022794237e-03 0.0 
1.055022794237e-03 1.466646338870e-03 0.0 
0.0 0.0 0.0 
-8.955389689193e-04 7.190528772064e-04 0.0 
7.190528772064e-04 1.721083984285e-02 0.0 
0.0 0.0 0.0 
-2.053183551473e-03 2.719289382532e-03 0.0 
2.719289382532e-03 1.396336046028e-02 0.0 
0.0 0.0 0.0 
-2.697317334809e-03 2.128153554156e-03 0.0 
2.128153554156e-03 1.476310148561e-02 0.0 
0.0 0.0 0.0 
3.781509073244e-04 3.674807436633e-03 0.0 
3.674807436633e-03 1.111970089221e-02 0.0 
0.0 0.0 0.0 
8.727736047074e-04 1.874644181756e-05 0.0 
1.874644181756e-05 1.348666983936e-03 0.0 
0.0 0.0 0.0 
3.512834289294e-04 3.434152722558e-03 0.0 
3.434152722558e-03 1.082774659624e-02 0.0 
0.0 0.0 0.0 
-1.936516539879e-03 2.588771213504e-03 0.0 
2.588771213504e-03 1.398478730784e-02 0.0 
0.0 0.0 0.0 
1.996088380777e-03 -2.060872011479e-04 0.0 
-2.060872011479e-04 1.696570937373e-03 0.0 
0.0 0.0 0.0 
2.787098551295e-03 3.335420893226e-03 0.0 
3.335420893226e-03 5.335495370340e-03 0.0 
0.0 0.0 0.0 
2.489029393313e-03 -4.470855357891e-05 0.0 
-4.470855357891e-05 1.335427185915e-03 0.0 
0.0 0.0 0.0 
6.845569677671e-05 1.584119217163e-03 0.0 
1.584119217163e-03 3.217128032519e-03 0.0 
0.0 0.0 0.0 
2.233814446457e-03 -1.683862146821e-04 0.0 
-1.683862146821e-04 1.292244856775e-03 0.0 
0.0 0.0 0.0 
-1.541375410460e-03 3.002011042396e-03 0.0 
3.002011042396e-03 1.316951118722e-02 0.0 
0.0 0.0 0.0 
1.052353279216e-04 -6.706091171877e-05 0.0 
-6.706091171877e-05 6.335719166408e-03 0.0 
0.0 0.0 0.0 
2.947756851752e-03 1.436264459496e-04 0.0 
1.436264459496e-04 1.119809389885e-03 0.0 
0.0 0.0 0.0 
1.306681252056e-04 3.667366194893e-03 0.0 
3.667366194893e-03 1.000817213594e-02 0.0 
0.0 0.0 0.0 
-1.201126780721e-03 1.154890797924e-05 0.0 
1.154890797924e-05 5.847478232142e-04 0.0 
0.0 0.0 0.0 
3.409135265366e-03 4.057255569107e-04 0.0 
4.057255569107e-04 9.456920852844e-04 0.0 
0.0 0.0 0.0 
-1.990762542906e-03 2.827609022943e-03 0.0 
2.827609022943e-03 1.473659232779e-02 0.0 
0.0 0.0 0.0 
1.664203270976e-03 -2.651625939657e-04 0.0 
-2.651625939657e-04 1.667426753601e-03 0.0 
0.0 0.0 0.0 
1.858735716628e-03 -4.161602560002e-04 0.0 
-4.161602560002e-04 9.963989197255e-04 0.0 
0.0 0.0 0.0 
2.835543223839e-03 3.149492203025e-03 0.0 
3.149492203025e-03 5.365645464244e-03 0.0 
0.0 0.0 0.0 
1.711349830749e-03 -5.812850333367e-04 0.0 
-5.812850333367e-04 3.369790836305e-04 0.0 
0.0 0.0 0.0 
-1.015931148670e-03 1.797864428309e-03 0.0 
1.797864428309e-03 6.925421645872e-03 0.0 
0.0 0.0 0.0 
-1.076322462956e-03 2.140606959771e-03 0.0 
2.140606959771e-03 7.715529778954e-03 0.0 
0.0 0.0 0.0 
1.533969652941e-03 -3.316001133020e-04 0.0 
-3.316001133020e-04 1.407679440748e-03 0.0 
0.0 0.0 0.0 
2.350137409257e-03 5.810906630178e-04 0.0 
5.810906630178e-04 3.118180409964e-03 0.0 
0.0 0.0 0.0 
3.550700385435e-03 2.422679843184e-03 0.0 
2.422679843184e-03 3.178076670310e-03 0.0 
0.0 0.0 0.0 
1.436910962669e-04 3.570057689679e-03 0.0 
3.570057689679e-03 1.001923539662e-02 0.0 
0.0 0.0 0.0 
1.147359134483e-04 4.334198197737e-03 0.0 
4.334198197737e-03 1.290013870429e-02 0.0 
0.0 0.0 0.0 
-7.379508842313e-04 2.054103145784e-03 0.0 
2.054103145784e-03 8.391183824296e-03 0.0 
0.0 0.0 0.0 
-1.207265829808e-03 2.992828824305e-05 0.0 
2.992828824305e-05 1.641069958739e-02 0.0 
0.0 0.0 0.0 
7.501095780622e-04 4.287463147590e-03 0.0 
4.287463147590e-03 1.062275000491e-02 0.0 
0.0 0.0 0.0 
3.451202228823e-03 5.750149583899e-04 0.0 
5.750149583899e-04 7.464126987202e-04 0.0 
0.0 0.0 0.0 
-6.934507510855e-04 1.591756328550e-03 0.0 
1.591756328550e-03 2.359844888765e-03 0.0 
0.0 0.0 0.0 
-1.148386730908e-04 3.310268481566e-03 0.0 
3.310268481566e-03 7.066350865472e-03 0.0 
0.0 0.0 0.0 
2.300694966929e-03 3.863761637693e-04 0.0 
3.863761637693e-04 2.808585649646e-03 0.0 
0.0 0.0 0.0 
-1.198101556982e-03 3.263454177440e-03 0.0 
3.263454177440e-03 1.189735816861e-02 0.0 
0.0 0.0 0.0 
2.481964467221e-03 5.227229869412e-04 0.0 
5.227229869412e-04 2.786854410466e-03 0.0 
0.0 0.0 0.0 
-1.989071280051e-05 5.217821544475e-04 0.0 
5.217821544475e-04 1.801858087016e-03 0.0 
0.0 0.0 0.0 
2.124837634626e-03 6.851454075090e-04 0.0 
6.851454075090e-04 3.780780848600e-03 0.0 
0.0 0.0 0.0 
2.090442809772e-04 1.941162818946e-03 0.0 
1.941162818946e-03 3.726532006471e-03 0.0 
0.0 0.0 0.0 
3.469881624118e-03 2.162809426908e-03 0.0 
2.162809426908e-03 3.215597082722e-03 0.0 
0.0 0.0 0.0 
2.274859811634e-03 6.296950694002e-04 0.0 
6.296950694002e-04 3.414349698320e-03 0.0 
0.0 0.0 0.0 
3.025572773073e-03 3.194498941689e-03 0.0 
3.194498941689e-03 5.082699152661e-03 0.0 
0.0 0.0 0.0 
-1.452497420638e-03 1.213332640590e-04 0.0 
1.213332640590e-04 1.602667412976e-02 0.0 
0.0 0.0 0.0 
1.239262326579e-03 -4.735409648032e-04 0.0 
-4.735409648032e-04 1.428448227804e-03 0.0 
0.0 0.0 0.0 
-1.853868611301e-04 1.214953282080e-03 0.0 
1.214953282080e-03 2.217095990431e-03 0.0 
0.0 0.0 0.0 
2.033275177757e-03 7.267891291291e-04 0.0 
7.267891291291e-04 4.091640402020e-03 0.0 
0.0 0.0 0.0 
3.289812414888e-04 2.229621445082e-03 0.0 
2.229621445082e-03 4.272028238527e-03 0.0 
0.0 0.0 0.0 
-5.799267814773e-04 3.491721366841e-04 0.0 
3.491721366841e-04 7.593049890344e-04 0.0 
0.0 0.0 0.0 
-5.753480227804e-04 1.332006690734e-04 0.0 
1.332006690734e-04 1.722880168086e-02 0.0 
0.0 0.0 0.0 
-8.293174454270e-04 1.116064780499e-04 0.0 
1.116064780499e-04 1.698209365734e-02 0.0 
0.0 0.0 0.0 
1.243741256689e-04 -4.547398944176e-04 0.0 
-4.547398944176e-04 3.250061463949e-04 0.0 
0.0 0.0 0.0 
1.864103246029e-03 7.828068849219e-04 0.0 
7.828068849219e-04 4.491974718292e-03 0.0 
0.0 0.0 0.0 
7.457057522804e-04 -5.024029378514e-04 0.0 
-5.024029378514e-04 1.289719532077e-03 0.0 
0.0 0.0 0.0 
7.912184900774e-04 -3.783492815508e-04 0.0 
-3.783492815508e-04 1.546641949992e-03 0.0 
0.0 0.0 0.0 
1.133385297595e-03 4.218979245034e-03 0.0 
4.218979245034e-03 9.476928576644e-03 0.0 
0.0 0.0 0.0 
2.968791011758e-03 3.000697370980e-03 0.0 
3.000697370980e-03 5.109268666310e-03 0.0 
0.0 0.0 0.0 
1.377096647897e-03 4.046669877456e-03 0.0 
4.046669877456e-03 8.733356366404e-03 0.0 
0.0 0.0 0.0 
3.134183823016e-03 2.569650765882e-04 0.0 
2.569650765882e-04 9.753854154713e-04 0.0 
0.0 0.0 0.0 
-1.561313157141e-03 -4.706619245444e-06 0.0 
-4.706619245444e-06 1.468096694965e-02 0.0 
0.0 0.0 0.0 
2.054213071097e-04 6.372714146264e-04 0.0 
6.372714146264e-04 7.642296000225e-03 0.0 
0.0 0.0 0.0 
6.386875878035e-04 -3.852312007834e-04 0.0 
-3.852312007834e-04 1.295784033728e-03 0.0 
0.0 0.0 0.0 
1.510159127703e-03 1.737642269823e-03 0.0 
1.737642269823e-03 6.460711705873e-03 0.0 
0.0 0.0 0.0 
3.299826090734e-03 2.500522021454e-03 0.0 
2.500522021454e-03 3.877139157913e-03 0.0 
0.0 0.0 0.0 
1.033962605135e-03 -7.273687801484e-07 0.0 
-7.273687801484e-07 6.150206581594e-04 0.0 
0.0 0.0 0.0 
-1.311015004889e-03 3.141982787491e-03 0.0 
3.141982787491e-03 1.217391023113e-02 0.0 
0.0 0.0 0.0 
3.545966464369e-03 6.601670682028e-04 0.0 
6.601670682028e-04 1.166957945925e-03 0.0 
0.0 0.0 0.0 
5.989202693293e-04 -5.821198173582e-04 0.0 
-5.821198173582e-04 5.171138059632e-04 0.0 
0.0 0.0 0.0 
3.475626842584e-03 2.353728520445e-04 0.0 
2.353728520445e-04 4.776351375539e-04 0.0 
0.0 0.0 0.0 
-2.406662063257e-04 -6.652835952047e-06 0.0 
-6.652835952047e-06 5.670076933106e-03 0.0 
0.0 0.0 0.0 
-1.685802982335e-03 3.092565715600e-03 0.0 
3.092565715600e-03 1.315030553520e-02 0.0 
0.0 0.0 0.0 
7.724489288667e-04 -6.689963216157e-04 0.0 
-6.689963216157e-04 6.043444379886e-04 0.0 
0.0 0.0 0.0 
-1.763535822062e-04 -8.885977610411e-05 0.0 
-8.885977610411e-05 4.677909940635e-03 0.0 
0.0 0.0 0.0 
-7.467837881159e-05 3.807396523360e-03 0.0 
3.807396523360e-03 1.073384069953e-02 0.0 
0.0 0.0 0.0 
1.822388818129e-03 2.864510784465e-03 0.0 
2.864510784465e-03 7.148033276899e-03 0.0 
0.0 0.0 0.0 
1.916947655801e-03 -2.640194985867e-04 0.0 
-2.640194985867e-04 1.314711568898e-03 0.0 
0.0 0.0 0.0 
4.579359467793e-04 -1.675299758873e-05 0.0 
-1.675299758873e-05 2.044345973092e-03 0.0 
0.0 0.0 0.0 
3.449503485219e-03 2.563216501974e-03 0.0 
2.563216501974e-03 3.738745486353e-03 0.0 
0.0 0.0 0.0 
-1.371130406225e-03 -3.252174798282e-05 0.0 
-3.252174798282e-05 1.588022783543e-02 0.0 
0.0 0.0 0.0 
4.670713279757e-04 -6.098745602810e-04 0.0 
-6.098745602810e-04 6.055207645186e-04 0.0 
0.0 0.0 0.0 
6.550969550503e-04 4.199138953443e-03 0.0 
4.199138953443e-03 1.108291790495e-02 0.0 
0.0 0.0 0.0 
-3.946442202862e-05 4.338845462815e-03 0.0 
4.338845462815e-03 1.407556726037e-02 0.0 
0.0 0.0 0.0 
-1.473226322920e-03 -1.826537306178e-05 0.0 
-1.826537306178e-05 1.535130936786e-02 0.0 
0.0 0.0 0.0 
-1.166501356037e-03 1.994998196566e-03 0.0 
1.994998196566e-03 1.705168352719e-02 0.0 
0.0 0.0 0.0 
2.704523652768e-04 4.809154226461e-03 0.0 
4.809154226461e-03 1.271309672631e-02 0.0 
0.0 0.0 0.0 
3.101168041875e-03 3.412918044796e-04 0.0 
3.412918044796e-04 1.302568404559e-03 0.0 
0.0 0.0 0.0 
2.690287171490e-03 1.398446735079e-05 0.0 
1.398446735079e-05 1.145665814440e-03 0.0 
0.0 0.0 0.0 
7.186492621778e-04 2.050747029985e-03 0.0 
2.050747029985e-03 8.690504442603e-03 0.0 
0.0 0.0 0.0 
-1.060416003604e-03 1.530952715865e-04 0.0 
1.530952715865e-04 5.798216015351e-04 0.0 
0.0 0.0 0.0 
6.979971423129e-04 -1.394245961447e-05 0.0 
-1.394245961447e-05 1.662124414848e-03 0.0 
0.0 0.0 0.0 
-2.033766385359e-04 -4.186017977498e-05 0.0 
-4.186017977498e-05 4.784946527401e-03 0.0 
0.0 0.0 0.0 
1.616057237485e-03 -4.122587338775e-04 0.0 
-4.122587338775e-04 1.343760832200e-03 0.0 
0.0 0.0 0.0 
3.048951173505e-03 -9.636146653599e-06 0.0 
-9.636146653599e-06 6.466001544594e-04 0.0 
0.0 0.0 0.0 
-8.594485147176e-04 1.883159908146e-03 0.0 
1.883159908146e-03 5.559798590711e-03 0.0 
0.0 0.0 0.0 
-9.675195814198e-04 2.111179795411e-03 0.0 
2.111179795411e-03 6.317756764885e-03 0.0 
0.0 0.0 0.0 
-1.962007487863e-03 2.370049351067e-04 0.0 
2.370049351067e-04 1.549180859127e-02 0.0 
0.0 0.0 0.0 
3.369072645183e-03 2.941146745693e-04 0.0 
2.941146745693e-04 7.021753308181e-04 0.0 
0.0 0.0 0.0 
3.082966724455e-04 -1.349962260768e-04 0.0 
-1.349962260768e-04 2.283167409488e-03 0.0 
0.0 0.0 0.0 
2.072905884791e-03 3.222635984522e-03 0.0 
3.222635984522e-03 6.922070143957e-03 0.0 
0.0 0.0 0.0 
1.468774920144e-04 5.131954211493e-04 0.0 
5.131954211493e-04 8.028433632983e-03 0.0 
0.0 0.0 0.0 
1.797187136414e-04 6.138302139798e-04 0.0 
6.138302139798e-04 8.100013420477e-03 0.0 
0.0 0.0 0.0 
2.675415683109e-03 1.069544009113e-04 0.0 
1.069544009113e-04 1.458748888505e-03 0.0 
0.0 0.0 0.0 
-2.105724988954e-03 2.201500215896e-04 0.0 
2.201500215896e-04 1.524542678710e-02 0.0 
0.0 0.0 0.0 
-1.151065801017e-03 2.018175917168e-04 0.0 
2.018175917168e-04 8.761748299673e-04 0.0 
0.0 0.0 0.0 
-8.256218859988e-04 1.871027898652e-03 0.0 
1.871027898652e-03 4.223246816244e-03 0.0 
0.0 0.0 0.0 
9.775885524919e-04 -6.404625065056e-04 0.0 
-6.404625065056e-04 9.525343615382e-04 0.0 
0.0 0.0 0.0 
-8.382056142998e-04 1.901391762982e-03 0.0 
1.901391762982e-03 4.912396544282e-03 0.0 
0.0 0.0 0.0 
3.153576285291e-03 2.669084563054e-03 0.0 
2.669084563054e-03 4.414357376715e-03 0.0 
0.0 0.0 0.0 
2.502374449600e-03 -1.632128701378e-04 0.0 
-1.632128701378e-04 9.506274636735e-04 0.0 
0.0 0.0 0.0 
2.965079865968e-03 4.637760514641e-05 0.0 
4.637760514641e-05 7.942967878301e-04 0.0 
0.0 0.0 0.0 
-3.745383846584e-04 -2.878458607906e-04 0.0 
-2.878458607906e-04 1.135983873714e-03 0.0 
0.0 0.0 0.0 
-7.221949370028e-04 1.963767760239e-04 0.0 
1.963767760239e-04 1.704077508833e-02 0.0 
0.0 0.0 0.0 
2.482001965782e-03 -1.566699395108e-04 0.0 
-1.566699395108e-04 1.018075408931e-03 0.0 
0.0 0.0 0.0 
-7.225602398271e-04 7.345078563210e-04 0.0 
7.345078563210e-04 1.720739863043e-02 0.0 
0.0 0.0 0.0 
-1.033220983470e-03 2.347196617025e-04 0.0 
2.347196617025e-04 1.682971289171e-02 0.0 
0.0 0.0 0.0 
-2.825229229216e-04 3.361519635477e-04 0.0 
3.361519635477e-04 1.756957085226e-02 0.0 
0.0 0.0 0.0 
7.140171647069e-05 1.154407878757e-04 0.0 
1.154407878757e-04 7.490596830834e-03 0.0 
0.0 0.0 0.0 
-1.487900721182e-03 3.837434292713e-05 0.0 
3.837434292713e-05 1.536452496655e-02 0.0 
0.0 0.0 0.0 
2.229946112792e-03 -1.796591629123e-04 0.0 
-1.796591629123e-04 1.360195832853e-03 0.0 
0.0 0.0 0.0 
-6.959333038070e-04 1.817402971957e-03 0.0 
1.817402971957e-03 6.926570109086e-03 0.0 
0.0 0.0 0.0 
2.238772790711e-03 -6.873579416172e-05 0.0 
-6.873579416172e-05 1.671853025969e-03 0.0 
0.0 0.0 0.0 
0.0 3.656064644515e-04 0.0 
3.656064644515e-04 7.884453010551e-03 0.0 
0.0 0.0 0.0 
-8.596216416725e-04 1.628338782849e-03 0.0 
1.628338782849e-03 2.827559114155e-03 0.0 
0.0 0.0 0.0 
-8.271912060324e-04 1.757147050313e-03 0.0 
1.757147050313e-03 3.530999191324e-03 0.0 
0.0 0.0 0.0 
1.354084198376e-03 1.981763940468e-03 0.0 
1.981763940468e-03 7.095370089178e-03 0.0 
0.0 0.0 0.0 
-1.700834969418e-03 7.527258076540e-05 0.0 
7.527258076540e-05 1.510606811991e-02 0.0 
0.0 0.0 0.0 
-6.331702700348e-04 4.865008827111e-04 0.0 
4.865008827111e-04 1.722746670724e-02 0.0 
0.0 0.0 0.0 
-1.120455362422e-04 3.718285966762e-03 0.0 
3.718285966762e-03 1.073947988888e-02 0.0 
0.0 0.0 0.0 
1.374101788551e-03 2.995752824075e-03 0.0 
2.995752824075e-03 8.045767951194e-03 0.0 
0.0 0.0 0.0 
-1.587111644595e-03 3.503100422656e-03 0.0 
3.503100422656e-03 1.308084720949e-02 0.0 
0.0 0.0 0.0 
-1.512016639444e-03 9.576365260232e-05 0.0 
9.576365260232e-05 1.546614868456e-02 0.0 
0.0 0.0 0.0 
1.460560141502e-03 -4.927963104695e-04 0.0 
-4.927963104695e-04 1.095062085931e-03 0.0 
0.0 0.0 0.0 
1.781904353000e-03 -3.469492531545e-04 0.0 
-3.469492531545e-04 1.074564043720e-03 0.0 
0.0 0.0 0.0 
-1.254517584815e-03 1.185728100205e-04 0.0 
1.185728100205e-04 1.624765964775e-02 0.0 
0.0 0.0 0.0 
1.558809756422e-03 3.067638084409e-03 0.0 
3.067638084409e-03 7.870950434137e-03 0.0 
0.0 0.0 0.0 
-2.712340921791e-03 6.775067583169e-04 0.0 
6.775067583169e-04 1.556429272854e-02 0.0 
0.0 0.0 0.0 
-1.538015338156e-03 1.917917069036e-05 0.0 
1.917917069036e-05 1.502592220498e-02 0.0 
0.0 0.0 0.0 
-1.520107125604e-03 2.675939014560e-05 0.0 
2.675939014560e-05 1.535763441011e-02 0.0 
0.0 0.0 0.0 
-1.587620017017e-03 3.911401413440e-05 0.0 
3.911401413440e-05 1.548872558746e-02 0.0 
0.0 0.0 0.0 
4.983441967101e-04 -9.414641627208e-05 0.0 
-9.414641627208e-05 1.134060065257e-03 0.0 
0.0 0.0 0.0 
1.354704688182e-03 -3.904902463557e-04 0.0 
-3.904902463557e-04 1.201460303466e-03 0.0 
0.0 0.0 0.0 
-6.583677276659e-04 1.120678222604e-03 0.0 
1.120678222604e-03 1.734147712251e-02 0.0 
0.0 0.0 0.0 
-1.552333713354e-03 1.170731972034e-04 0.0 
1.170731972034e-04 1.587679860946e-02 0.0 
0.0 0.0 0.0 
4.587077647675e-04 2.582466488103e-03 0.0 
2.582466488103e-03 9.373176045500e-03 0.0 
0.0 0.0 0.0 
-4.166940611045e-04 4.586466816978e-03 0.0 
4.586466816978e-03 1.280853579002e-02 0.0 
0.0 0.0 0.0 
-1.444779952514e-03 3.178163884867e-03 0.0 
3.178163884867e-03 1.216834011291e-02 0.0 
0.0 0.0 0.0 
-1.434778364482e-03 2.039454545534e-03 0.0 
2.039454545534e-03 1.684774767879e-02 0.0 
0.0 0.0 0.0 
1.847751340200e-05 -2.588972194457e-04 0.0 
-2.588972194457e-04 3.441907066216e-03 0.0 
0.0 0.0 0.0 
1.762552180367e-04 -2.882216242097e-04 0.0 
-2.882216242097e-04 3.035900242146e-03 0.0 
0.0 0.0 0.0 
4.983154813170e-04 6.386385297604e-04 0.0 
6.386385297604e-04 7.121389666034e-03 0.0 
0.0 0.0 0.0 
-4.435671681301e-04 -5.299010989986e-05 0.0 
-5.299010989986e-05 6.277912887267e-04 0.0 
0.0 0.0 0.0 
6.926011260973e-04 6.750555966801e-05 0.0 
6.750555966801e-05 1.895893059872e-03 0.0 
0.0 0.0 0.0 
0.0 3.434662146755e-03 0.0 
3.434662146755e-03 1.096720098970e-02 0.0 
0.0 0.0 0.0 
1.347134965284e-03 -6.965292609739e-06 0.0 
-6.965292609739e-06 -4.940533011943e-05 0.0 
0.0 0.0 0.0 
-1.516864731328e-03 2.017689878210e-05 0.0 
2.017689878210e-05 1.501885624846e-02 0.0 
0.0 0.0 0.0 
9.833817137757e-04 1.660484056371e-03 0.0 
1.660484056371e-03 7.712824171836e-03 0.0 
0.0 0.0 0.0 
2.942418137872e-04 -3.112107478738e-04 0.0 
-3.112107478738e-04 4.496608034730e-04 0.0 
0.0 0.0 0.0 
7.554148957529e-04 -2.886582193558e-05 0.0 
-2.886582193558e-05 -5.262767305680e-05 0.0 
0.0 0.0 0.0 
-5.684128476827e-04 1.920710354572e-03 0.0 
1.920710354572e-03 1.713725479376e-02 0.0 
0.0 0.0 0.0 
-1.648243711288e-03 -4.218578704558e-06 0.0 
-4.218578704558e-06 1.471518360131e-02 0.0 
0.0 0.0 0.0 
-7.644788148934e-04 1.527552846113e-03 0.0 
1.527552846113e-03 1.723318228930e-02 0.0 
0.0 0.0 0.0 
7.407247396165e-04 1.886326355902e-03 0.0 
1.886326355902e-03 7.871046581984e-03 0.0 
0.0 0.0 0.0 
-1.633355358019e-03 -7.073359715173e-06 0.0 
-7.073359715173e-06 1.469481032405e-02 0.0 
0.0 0.0 0.0 
-1.061439787336e-03 2.060635142298e-04 0.0 
2.060635142298e-04 9.101930832196e-04 0.0 
0.0 0.0 0.0 
-3.054422149255e-04 2.528409740977e-04 0.0 
2.528409740977e-04 1.741724214817e-02 0.0 
0.0 0.0 0.0 
5.432148154538e-04 -1.544236605691e-04 0.0 
-1.544236605691e-04 8.516318597931e-04 0.0 
0.0 0.0 0.0 
-7.684300669347e-04 1.235890066615e-03 0.0 
1.235890066615e-03 1.720050596358e-02 0.0 
0.0 0.0 0.0 
0.0 2.487176038289e-04 0.0 
2.487176038289e-04 7.780376889791e-03 0.0 
0.0 0.0 0.0 
-1.357467043860e-03 3.480162489216e-03 0.0 
3.480162489216e-03 1.472158333508e-02 0.0 
0.0 0.0 0.0 
1.308055373841e-03 -2.154381197723e-04 0.0 
-2.154381197723e-04 7.900385808082e-04 0.0 
0.0 0.0 0.0 
-2.308975121719e-03 7.602136855479e-04 0.0 
7.602136855479e-04 1.541408938650e-02 0.0 
0.0 0.0 0.0 
-1.583183372689e-05 -1.819007551384e-04 0.0 
-1.819007551384e-04 3.562736490787e-03 0.0 
0.0 0.0 0.0 
2.012196999513e-03 3.050600550130e-03 0.0 
3.050600550130e-03 6.935024349779e-03 0.0 
0.0 0.0 0.0 
3.505282304255e-04 2.709572215519e-03 0.0 
2.709572215519e-03 1.008530548643e-02 0.0 
0.0 0.0 0.0 
-1.125657287668e-03 1.550364085569e-04 0.0 
1.550364085569e-04 1.658940670948e-02 0.0 
0.0 0.0 0.0 
3.592625722566e-04 2.466987487470e-03 0.0 
2.466987487470e-03 9.784517181545e-03 0.0 
0.0 0.0 0.0 
-4.914322804017e-05 5.825622261420e-05 0.0 
5.825622261420e-05 8.757624540876e-04 0.0 
0.0 0.0 0.0 
1.696050169915e-04 3.203114777019e-04 0.0 
3.203114777019e-04 7.448604658017e-03 0.0 
0.0 0.0 0.0 
1.755000678011e-03 -2.824355638947e-04 0.0 
-2.824355638947e-04 4.732561108909e-04 0.0 
0.0 0.0 0.0 
1.174935144322e-03 -1.685394809211e-05 0.0 
-1.685394809211e-05 1.540074292063e-04 0.0 
0.0 0.0 0.0 
5.653392289933e-04 1.391069398931e-03 0.0 
1.391069398931e-03 8.219530909475e-03 0.0 
0.0 0.0 0.0 
-1.266046090807e-03 3.003584040882e-03 0.0 
3.003584040882e-03 1.634486035078e-02 0.0 
0.0 0.0 0.0 
-7.648231570528e-04 1.852999792622e-03 0.0 
1.852999792622e-03 1.715636214568e-02 0.0 
0.0 0.0 0.0 
-1.578522651884e-03 5.403926176667e-05 0.0 
5.403926176667e-05 1.503016941184e-02 0.0 
0.0 0.0 0.0 
-2.448737106120e-03 1.637683961765e-03 0.0 
1.637683961765e-03 1.480944954161e-02 0.0 
0.0 0.0 0.0 
-3.990845373159e-05 1.166882347658e-03 0.0 
1.166882347658e-03 3.197024984793e-03 0.0 
0.0 0.0 0.0 
3.317533989478e-04 4.908509844920e-03 0.0 
4.908509844920e-03 1.260752556355e-02 0.0 
0.0 0.0 0.0 
1.202277554206e-04 -1.417556783579e-04 0.0 
-1.417556783579e-04 2.967656640031e-03 0.0 
0.0 0.0 0.0 
-7.682694385369e-05 5.799530261969e-04 0.0 
5.799530261969e-04 1.665906248620e-03 0.0 
0.0 0.0 0.0 
1.899271282340e-03 3.004559738172e-03 0.0 
3.004559738172e-03 7.129206615959e-03 0.0 
0.0 0.0 0.0 
-1.567981180934e-03 3.499846092958e-06 0.0 
3.499846092958e-06 1.466182223587e-02 0.0 
0.0 0.0 0.0 
-1.149404624424e-03 2.755594451506e-03 0.0 
2.755594451506e-03 1.621421553712e-02 0.0 
0.0 0.0 0.0 
-2.343082987916e-04 -8.641012995868e-06 0.0 
-8.641012995868e-06 1.758671811225e-02 0.0 
0.0 0.0 0.0 
0.0 1.171541493955e-04 0.0 
1.171541493955e-04 1.760400013824e-02 0.0 
0.0 0.0 0.0 
1.729850958715e-03 1.315563722585e-05 0.0 
1.315563722585e-05 -6.466980216933e-04 0.0 
0.0 0.0 0.0 
1.594257148517e-03 -2.530446196099e-05 0.0 
-2.530446196099e-05 -5.880244098694e-04 0.0 
0.0 0.0 0.0 
-1.540336902794e-03 -4.347370072973e-05 0.0 
-4.347370072973e-05 1.468490658237e-02 0.0 
0.0 0.0 0.0 
-1.604660814447e-03 -7.537148391156e-06 0.0 
-7.537148391156e-06 1.467735738935e-02 0.0 
0.0 0.0 0.0 
0.0 3.036458094925e-05 0.0 
3.036458094925e-05 7.443573184475e-03 0.0 
0.0 0.0 0.0 
6.072916189837e-05 4.004828568575e-05 0.0 
4.004828568575e-05 7.363476613103e-03 0.0 
0.0 0.0 0.0 
1.675120205095e-03 -9.339381158335e-05 0.0 
-9.339381158335e-05 -7.649862446486e-04 0.0 
0.0 0.0 0.0 
-1.178620952453e-03 3.368628089411e-05 0.0 
3.368628089411e-05 5.940422398274e-04 0.0 
0.0 0.0 0.0 
2.222020725808e-04 1.040013201828e-04 0.0 
1.040013201828e-04 6.798160746814e-03 0.0 
0.0 0.0 0.0 
1.097433613146e-03 3.694134780549e-03 0.0 
3.694134780549e-03 9.378916185226e-03 0.0 
0.0 0.0 0.0 
6.112215981768e-04 -1.293377114097e-04 0.0 
-1.293377114097e-04 1.008487420549e-03 0.0 
0.0 0.0 0.0 
2.660213290653e-04 3.184911501542e-04 0.0 
3.184911501542e-04 7.100518571602e-03 0.0 
0.0 0.0 0.0 
-2.164498343197e-04 -3.365619940150e-05 0.0 
-3.365619940150e-05 5.081037241261e-03 0.0 
0.0 0.0 0.0 
-1.686950953095e-04 -5.205518782527e-05 0.0 
-5.205518782527e-05 4.423533439948e-03 0.0 
0.0 0.0 0.0 
-1.446896039976e-03 1.459576067532e-04 0.0 
1.459576067532e-04 1.604089421375e-02 0.0 
0.0 0.0 0.0 
1.196329676787e-03 -5.755153877652e-04 0.0 
-5.755153877652e-04 5.465316163789e-04 0.0 
0.0 0.0 0.0 
2.485880356466e-03 3.024508985305e-03 0.0 
3.024508985305e-03 6.021267227993e-03 0.0 
0.0 0.0 0.0 
5.787342993631e-04 -1.125574022544e-04 0.0 
-1.125574022544e-04 7.185861413241e-04 0.0 
0.0 0.0 0.0 
-6.763974845880e-05 -2.275999300984e-04 0.0 
-2.275999300984e-04 3.917736888662e-03 0.0 
0.0 0.0 0.0 
4.507226037063e-04 4.677018044883e-03 0.0 
4.677018044883e-03 1.211903899515e-02 0.0 
0.0 0.0 0.0 
-7.342158702333e-04 -1.581135770415e-05 0.0 
-1.581135770415e-05 1.712438717770e-02 0.0 
0.0 0.0 0.0 
-1.755601985061e-04 -6.319952111286e-05 0.0 
-6.319952111286e-05 4.430008479429e-03 0.0 
0.0 0.0 0.0 
-1.479852009507e-03 1.416629494420e-05 0.0 
1.416629494420e-05 1.563657247660e-02 0.0 
0.0 0.0 0.0 
9.656854936495e-04 4.095216201211e-03 0.0 
4.095216201211e-03 1.027620832194e-02 0.0 
0.0 0.0 0.0 
-4.873337586027e-04 4.065337999636e-03 0.0 
4.065337999636e-03 1.196170388770e-02 0.0 
0.0 0.0 0.0 
-1.486420525634e-03 3.382005640241e-03 0.0 
3.382005640241e-03 1.251060973779e-02 0.0 
0.0 0.0 0.0 
-1.608456076941e-03 -1.599195145049e-06 0.0 
-1.599195145049e-06 1.469525089572e-02 0.0 
0.0 0.0 0.0 
2.705041279547e-03 2.723773093156e-03 0.0 
2.723773093156e-03 5.317646952718e-03 0.0 
0.0 0.0 0.0 
-1.153999142431e-03 3.120557257317e-03 0.0 
3.120557257317e-03 1.553682094607e-02 0.0 
0.0 0.0 0.0 
4.608182944610e-04 -6.902603379271e-05 0.0 
-6.902603379271e-05 1.920775977271e-03 0.0 
0.0 0.0 0.0 
-5.612020823520e-05 -4.161421769557e-04 0.0 
-4.161421769557e-04 3.443451513170e-04 0.0 
0.0 0.0 0.0 
9.702832662781e-04 4.050320967430e-03 0.0 
4.050320967430e-03 9.909384671900e-03 0.0 
0.0 0.0 0.0 
1.602305245330e-03 1.849468849597e-03 0.0 
1.849468849597e-03 6.453144732987e-03 0.0 
0.0 0.0 0.0 
1.041491995860e-03 -7.938480638620e-04 0.0 
-7.938480638620e-04 6.263544088148e-04 0.0 
0.0 0.0 0.0 
-1.336504725713e-03 7.620808603574e-05 0.0 
7.620808603574e-05 1.627262484002e-02 0.0 
0.0 0.0 0.0 
7.570754655606e-05 1.169746276971e-04 0.0 
1.169746276971e-04 7.185010913074e-03 0.0 
0.0 0.0 0.0 
1.115154120314e-03 3.759973070969e-03 0.0 
3.759973070969e-03 9.207109494209e-03 0.0 
0.0 0.0 0.0 
1.032997871141e-03 3.896717076299e-03 0.0 
3.896717076299e-03 9.938501701807e-03 0.0 
0.0 0.0 0.0 
-2.326020139815e-04 -5.163068372467e-05 0.0 
-5.163068372467e-05 5.437892062931e-03 0.0 
0.0 0.0 0.0 
-5.710406153296e-04 5.836481825630e-04 0.0 
5.836481825630e-04 7.885290566885e-04 0.0 
0.0 0.0 0.0 
-9.240359116852e-04 2.181012513499e-03 0.0 
2.181012513499e-03 5.586443044803e-03 0.0 
0.0 0.0 0.0 
-8.248608268313e-06 1.954255821700e-03 0.0 
1.954255821700e-03 4.261403272544e-03 0.0 
0.0 0.0 0.0 
-2.504845290338e-03 8.810013141849e-04 0.0 
8.810013141849e-04 1.560031830014e-02 0.0 
0.0 0.0 0.0 
2.804413419301e-03 2.941216298852e-03 0.0 
2.941216298852e-03 5.291089548170e-03 0.0 
0.0 0.0 0.0 
-7.854749128214e-04 9.038093461087e-04 0.0 
9.038093461087e-04 1.726201521879e-02 0.0 
0.0 0.0 0.0 
4.308233746382e-04 2.093966845798e-03 0.0 
2.093966845798e-03 8.703832077051e-03 0.0 
0.0 0.0 0.0 
-4.397406073664e-05 -5.890465951085e-04 0.0 
-5.890465951085e-04 7.842603581911e-04 0.0 
0.0 0.0 0.0 
1.195563430190e-04 -5.479781109801e-04 0.0 
-5.479781109801e-04 5.593765493423e-04 0.0 
0.0 0.0 0.0 
-9.954024884431e-04 2.230886199513e-03 0.0 
2.230886199513e-03 4.254889467885e-03 0.0 
0.0 0.0 0.0 
-1.253103052426e-03 2.485902537601e-04 0.0 
2.485902537601e-04 1.638841926474e-02 0.0 
0.0 0.0 0.0 
3.160264848874e-04 -1.919418033640e-04 0.0 
-1.919418033640e-04 2.520808349620e-03 0.0 
0.0 0.0 0.0 
-1.307383055628e-03 2.356379075410e-03 0.0 
2.356379075410e-03 1.670338325026e-02 0.0 
0.0 0.0 0.0 
1.144590938413e-03 1.362372219414e-05 0.0 
1.362372219414e-05 5.095147622605e-04 0.0 
0.0 0.0 0.0 
9.024557053552e-04 2.090639950550e-03 0.0 
2.090639950550e-03 7.919431542405e-03 0.0 
0.0 0.0 0.0 
-1.812040681220e-03 1.876041964779e-04 0.0 
1.876041964779e-04 1.550087242442e-02 0.0 
0.0 0.0 0.0 
3.748679768349e-04 3.098976251311e-03 0.0 
3.098976251311e-03 9.860721752107e-03 0.0 
0.0 0.0 0.0 
1.759733230273e-03 3.289858567134e-03 0.0 
3.289858567134e-03 7.716272778390e-03 0.0 
0.0 0.0 0.0 
-2.651348663099e-03 1.267094048527e-03 0.0 
1.267094048527e-03 1.539323576905e-02 0.0 
0.0 0.0 0.0 
4.985679355143e-04 1.044314028367e-03 0.0 
1.044314028367e-03 7.952689452112e-03 0.0 
0.0 0.0 0.0 
-1.060835434004e-03 2.740589286061e-03 0.0 
2.740589286061e-03 1.658966498519e-02 0.0 
0.0 0.0 0.0 
-4.902704459447e-04 2.220942130858e-04 0.0 
2.220942130858e-04 1.742793273121e-02 0.0 
0.0 0.0 0.0 
-1.064604373758e-03 2.157984727566e-03 0.0 
2.157984727566e-03 2.855007172871e-03 0.0 
0.0 0.0 0.0 
-1.123030598310e-03 1.985100233748e-03 0.0 
1.985100233748e-03 1.685141739461e-02 0.0 
0.0 0.0 0.0 
3.570108770179e-04 4.199557137317e-03 0.0 
4.199557137317e-03 1.119168565761e-02 0.0 
0.0 0.0 0.0 
1.049664241012e-03 2.057078207868e-03 0.0 
2.057078207868e-03 7.927006541776e-03 0.0 
0.0 0.0 0.0 
1.600292299780e-03 3.232798608422e-03 0.0 
3.232798608422e-03 7.832261889939e-03 0.0 
0.0 0.0 0.0 
0.0 5.241455291211e-04 0.0 
5.241455291211e-04 8.063497036540e-03 0.0 
0.0 0.0 0.0 
-1.267632255597e-03 3.349601634314e-03 0.0 
3.349601634314e-03 1.251401828074e-02 0.0 
0.0 0.0 0.0 
-8.729820289587e-04 4.750837011142e-04 0.0 
4.750837011142e-04 4.178966676709e-04 0.0 
0.0 0.0 0.0 
-1.047714485424e-04 7.257415659802e-04 0.0 
7.257415659802e-04 2.199600189219e-03 0.0 
0.0 0.0 0.0 
-4.831340768934e-04 4.279377938874e-03 0.0 
4.279377938874e-03 1.242829573631e-02 0.0 
0.0 0.0 0.0 
-2.301765505113e-03 9.204103548712e-04 0.0 
9.204103548712e-04 1.574810153794e-02 0.0 
0.0 0.0 0.0 
8.628317781523e-05 -1.376974240695e-05 0.0 
-1.376974240695e-05 6.755170829568e-03 0.0 
0.0 0.0 0.0 
1.274205367142e-03 3.283984570304e-03 0.0 
3.283984570304e-03 8.607771971466e-03 0.0 
0.0 0.0 0.0 
1.429326662621e-04 3.871494472059e-04 0.0 
3.871494472059e-04 7.529076975405e-03 0.0 
0.0 0.0 0.0 
-1.106818262845e-03 3.283424966706e-04 0.0 
3.283424966706e-04 1.671659793047e-02 0.0 
0.0 0.0 0.0 
3.829012373655e-04 2.898372194530e-03 0.0 
2.898372194530e-03 9.589828012467e-03 0.0 
0.0 0.0 0.0 
4.884874037114e-04 8.126652436661e-04 0.0 
8.126652436661e-04 7.403384043194e-03 0.0 
0.0 0.0 0.0 
5.822910298678e-04 9.256237612115e-04 0.0 
9.256237612115e-04 7.392934219546e-03 0.0 
0.0 0.0 0.0 
2.436711314420e-04 -1.283857220065e-04 0.0 
-1.283857220065e-04 2.772371511363e-03 0.0 
0.0 0.0 0.0 
1.318587951902e-04 4.446390143714e-04 0.0 
4.446390143714e-04 7.928392421664e-03 0.0 
0.0 0.0 0.0 
-1.852635902351e-03 1.948185316701e-04 0.0 
1.948185316701e-04 1.508764942857e-02 0.0 
0.0 0.0 0.0 
-7.497961650175e-04 4.577359891588e-04 0.0 
4.577359891588e-04 1.723144852738e-02 0.0 
0.0 0.0 0.0 
4.226676740866e-04 -6.326441434185e-04 0.0 
-6.326441434185e-04 5.501092867379e-04 0.0 
0.0 0.0 0.0 
-9.071613265077e-04 1.958280504257e-04 0.0 
1.958280504257e-04 1.704778211544e-02 0.0 
0.0 0.0 0.0 
-1.361352356013e-03 1.522624304961e-04 0.0 
1.522624304961e-04 1.630289042301e-02 0.0 
0.0 0.0 0.0 
1.538697509046e-03 -1.834857113251e-05 0.0 
-1.834857113251e-05 -4.927196947775e-04 0.0 
0.0 0.0 0.0 
7.854237534068e-04 -3.979930760758e-04 0.0 
-3.979930760758e-04 1.293244488971e-03 0.0 
0.0 0.0 0.0 
-1.370004694413e-04 3.897827423098e-03 0.0 
3.897827423098e-03 1.142063888437e-02 0.0 
0.0 0.0 0.0 
-5.049418453620e-04 1.361811857660e-03 0.0 
1.361811857660e-03 1.729424976409e-02 0.0 
0.0 0.0 0.0 
-6.608920421571e-04 2.149784943326e-04 0.0 
2.149784943326e-04 1.725220586519e-02 0.0 
0.0 0.0 0.0 
8.017058896661e-04 2.881902381050e-03 0.0 
2.881902381050e-03 9.167350527551e-03 0.0 
0.0 0.0 0.0 
-1.527231453000e-03 1.532886268777e-04 0.0 
1.532886268777e-04 1.568123990980e-02 0.0 
0.0 0.0 0.0 
2.622589380241e-04 -2.476760941404e-04 0.0 
-2.476760941404e-04 1.895996199406e-04 0.0 
0.0 0.0 0.0 
-4.560926266167e-04 4.852518689244e-04 0.0 
4.852518689244e-04 1.078506857110e-03 0.0 
0.0 0.0 0.0 
3.183534686755e-04 -1.888049073406e-04 0.0 
-1.888049073406e-04 2.513845067464e-04 0.0 
0.0 0.0 0.0 
4.060622549094e-04 -5.698318249899e-04 0.0 
-5.698318249899e-04 7.029584729743e-04 0.0 
0.0 0.0 0.0 
-8.831722485689e-04 8.515396708813e-04 0.0 
8.515396708813e-04 5.722610301326e-04 0.0 
0.0 0.0 0.0 
-4.691421480907e-05 -2.128702751978e-04 0.0 
-2.128702751978e-04 3.859944035134e-03 0.0 
0.0 0.0 0.0 
1.653335205190e-04 5.175979767468e-05 0.0 
5.175979767468e-05 6.753768779487e-03 0.0 
0.0 0.0 0.0 
-1.131291419802e-03 3.589861779748e-03 0.0 
3.589861779748e-03 1.473599971842e-02 0.0 
0.0 0.0 0.0 
-2.649270756921e-03 1.808966221558e-03 0.0 
1.808966221558e-03 1.516977205299e-02 0.0 
0.0 0.0 0.0 
1.504788198643e-04 -2.992467391521e-04 0.0 
-2.992467391521e-04 3.124196672772e-03 0.0 
0.0 0.0 0.0 
4.627050545469e-04 5.718789940433e-04 0.0 
5.718789940433e-04 7.145264849187e-03 0.0 
0.0 0.0 0.0 
9.846626492680e-04 1.452366554016e-03 0.0 
1.452366554016e-03 7.375329050379e-03 0.0 
0.0 0.0 0.0 
7.104470064860e-04 3.300479191647e-03 0.0 
3.300479191647e-03 9.972082618142e-03 0.0 
0.0 0.0 0.0 
6.513692365131e-04 4.064410718004e-03 0.0 
4.064410718004e-03 1.046092172635e-02 0.0 
0.0 0.0 0.0 
7.844618420640e-04 4.512001413755e-03 0.0 
4.512001413755e-03 1.090980258978e-02 0.0 
0.0 0.0 0.0 
3.752601233249e-04 -4.761342350143e-04 0.0 
-4.761342350143e-04 5.198603347634e-04 0.0 
0.0 0.0 0.0 
-5.651211616249e-04 -1.015079388663e-04 0.0 
-1.015079388663e-04 1.027045289192e-03 0.0 
0.0 0.0 0.0 
1.746696223139e-04 5.629861428331e-05 0.0 
5.629861428331e-05 6.814806438577e-03 0.0 
0.0 0.0 0.0 
1.465314000111e-03 -1.594101401933e-05 0.0 
-1.594101401933e-05 -4.880036670483e-04 0.0 
0.0 0.0 0.0 
1.449149029209e-03 5.905550152230e-06 0.0 
5.905550152230e-06 -2.669991605861e-04 0.0 
0.0 0.0 0.0 
-6.556647665157e-04 1.140983437202e-03 0.0 
1.140983437202e-03 1.282877184969e-03 0.0 
0.0 0.0 0.0 
3.892696032906e-04 -3.116169519944e-04 0.0 
-3.116169519944e-04 4.496257475903e-04 0.0 
0.0 0.0 0.0 
2.508430834813e-04 9.126074004874e-04 0.0 
9.126074004874e-04 7.887013549932e-03 0.0 
0.0 0.0 0.0 
2.926996062815e-04 4.575703563126e-03 0.0 
4.575703563126e-03 1.197179167782e-02 0.0 
0.0 0.0 0.0 
-6.603567031629e-04 9.082953274224e-04 0.0 
9.082953274224e-04 1.726216985644e-02 0.0 
0.0 0.0 0.0 
3.522839338039e-04 3.320744254583e-03 0.0 
3.320744254583e-03 1.013082334833e-02 0.0 
0.0 0.0 0.0 
1.026631266294e-03 1.415581946968e-03 0.0 
1.415581946968e-03 7.028098481572e-03 0.0 
0.0 0.0 0.0 
-1.465736735865e-03 1.816223590119e-04 0.0 
1.816223590119e-04 1.588258019164e-02 0.0 
0.0 0.0 0.0 
0.0 2.061001091227e-03 0.0 
2.061001091227e-03 1.702780031347e-02 0.0 
0.0 0.0 0.0 
1.838261923041e-03 -7.807005287901e-04 0.0 
-7.807005287901e-04 4.561952786244e-04 0.0 
0.0 0.0 0.0 
-1.545181951815e-03 -8.896198615455e-06 0.0 
-8.896198615455e-06 1.465007112071e-02 0.0 
0.0 0.0 0.0 
4.627143837848e-04 -6.662439021148e-04 0.0 
-6.662439021148e-04 7.706604811963e-04 0.0 
0.0 0.0 0.0 
6.608956958780e-04 -6.693151421166e-05 0.0 
-6.693151421166e-05 -6.732497553796e-05 0.0 
0.0 0.0 0.0 
9.229315275294e-05 2.820790775947e-04 0.0 
2.820790775947e-04 7.736431761239e-03 0.0 
0.0 0.0 0.0 
-2.785384632709e-03 1.096235847812e-03 0.0 
1.096235847812e-03 1.502456885303e-02 0.0 
0.0 0.0 0.0 
1.362864591909e-03 -2.819896304015e-05 0.0 
-2.819896304015e-05 5.429154995440e-05 0.0 
0.0 0.0 0.0 
-7.220539888864e-05 -1.444587502837e-04 0.0 
-1.444587502837e-04 3.773229871158e-03 0.0 
0.0 0.0 0.0 
5.058809357408e-04 4.801369851125e-03 0.0 
4.801369851125e-03 1.217834592316e-02 0.0 
0.0 0.0 0.0 
-1.021979615343e-03 1.254842244291e-03 0.0 
1.254842244291e-03 1.720074538671e-02 0.0 
0.0 0.0 0.0 
-7.794935670029e-04 3.038463343894e-03 0.0 
3.038463343894e-03 1.616005488287e-02 0.0 
0.0 0.0 0.0 
3.878433822213e-04 2.625345446064e-07 0.0 
2.625345446064e-07 2.495413629893e-03 0.0 
0.0 0.0 0.0 
-3.829485497596e-04 9.102476405980e-05 0.0 
9.102476405980e-05 9.625626333853e-04 0.0 
0.0 0.0 0.0 
2.832387299601e-04 4.641236299273e-04 0.0 
4.641236299273e-04 7.557116824832e-03 0.0 
0.0 0.0 0.0 
-2.574603346388e-04 1.764936872565e-04 0.0 
1.764936872565e-04 1.759505372600e-02 0.0 
0.0 0.0 0.0 
7.537135327262e-05 5.362889726051e-05 0.0 
5.362889726051e-05 7.450505999397e-03 0.0 
0.0 0.0 0.0 
-1.528169390462e-03 2.352736678094e-05 0.0 
2.352736678094e-05 1.496018767513e-02 0.0 
0.0 0.0 0.0 
6.694270641687e-04 1.491897074253e-03 0.0 
1.491897074253e-03 7.630183597654e-03 0.0 
0.0 0.0 0.0 
1.134344644642e-03 -2.141169642116e-05 0.0 
-2.141169642116e-05 2.040122687559e-04 0.0 
0.0 0.0 0.0 
-1.041272200613e-03 2.315653518893e-03 0.0 
2.315653518893e-03 1.669966090098e-02 0.0 
0.0 0.0 0.0 
4.627822187819e-04 -7.605086302739e-05 0.0 
-7.605086302739e-05 1.556616018594e-04 0.0 
0.0 0.0 0.0 
2.905336507286e-04 1.244238974506e-03 0.0 
1.244238974506e-03 8.155820423900e-03 0.0 
0.0 0.0 0.0 
-1.114933282947e-03 3.337315862116e-03 0.0 
3.337315862116e-03 1.589600379503e-02 0.0 
0.0 0.0 0.0 
-5.240196488400e-04 2.983692179391e-04 0.0 
2.983692179391e-04 6.909090933469e-04 0.0 
0.0 0.0 0.0 
1.185544600771e-03 3.736487959306e-03 0.0 
3.736487959306e-03 9.213315413524e-03 0.0 
0.0 0.0 0.0 
-1.227374019652e-03 1.782012195070e-04 0.0 
1.782012195070e-04 1.655189064627e-02 0.0 
0.0 0.0 0.0 
-3.625760120661e-04 9.869784401292e-04 0.0 
9.869784401292e-04 1.737522254658e-02 0.0 
0.0 0.0 0.0 
0.0 2.501228521268e-03 0.0 
2.501228521268e-03 9.974438599556e-03 0.0 
0.0 0.0 0.0 
-1.335084132474e-03 7.492340161521e-07 0.0 
7.492340161521e-07 1.607570563204e-02 0.0 
0.0 0.0 0.0 
2.788666433919e-04 4.742572148658e-03 0.0 
4.742572148658e-03 1.237520917069e-02 0.0 
0.0 0.0 0.0 
-1.471927812329e-03 2.847718578180e-03 0.0 
2.847718578180e-03 1.619190976235e-02 0.0 
0.0 0.0 0.0 
-1.231704341981e-03 1.266766567814e-04 0.0 
1.266766567814e-04 1.629527629710e-02 0.0 
0.0 0.0 0.0 
4.867611105610e-04 4.635825680080e-03 0.0 
4.635825680080e-03 1.178720543684e-02 0.0 
0.0 0.0 0.0 
9.478704838273e-05 -1.468178468183e-04 0.0 
-1.468178468183e-04 3.109736719205e-03 0.0 
0.0 0.0 0.0 
-1.572672233015e-03 -7.159782201960e-06 0.0 
-7.159782201960e-06 1.467031997984e-02 0.0 
0.0 0.0 0.0 
8.346160566082e-04 3.415072525058e-03 0.0 
3.415072525058e-03 9.541546294714e-03 0.0 
0.0 0.0 0.0 
-3.219576109091e-04 1.373098749570e-04 0.0 
1.373098749570e-04 1.744345100180e-02 0.0 
0.0 0.0 0.0 
1.692399345564e-03 -2.072383600093e-05 0.0 
-2.072383600093e-05 -6.168789612082e-04 0.0 
0.0 0.0 0.0 
-1.559262351306e-03 2.021745519120e-05 0.0 
2.021745519120e-05 1.469159292855e-02 0.0 
0.0 0.0 0.0 
6.924171217948e-05 5.181183976110e-06 0.0 
5.181183976110e-06 7.109420686035e-03 0.0 
0.0 0.0 0.0 
4.960694498577e-04 -1.566703141953e-04 0.0 
-1.566703141953e-04 1.025812398607e-03 0.0 
0.0 0.0 0.0 
1.049821012973e-03 1.857536845508e-03 0.0 
1.857536845508e-03 7.828488870181e-03 0.0 
0.0 0.0 0.0 
-1.598796787895e-03 3.311045295102e-03 0.0 
3.311045295102e-03 1.547181543857e-02 0.0 
0.0 0.0 0.0 
-6.457875862637e-04 8.693641722192e-04 0.0 
8.693641722192e-04 1.736599795788e-02 0.0 
0.0 0.0 0.0 
1.077069292714e-03 -5.036986184687e-05 0.0 
-5.036986184687e-05 5.307900340843e-04 0.0 
0.0 0.0 0.0 
-3.845448076252e-04 7.444992920191e-04 0.0 
7.444992920191e-04 1.602940694208e-03 0.0 
0.0 0.0 0.0 
-1.933151990591e-04 1.201137245168e-05 0.0 
1.201137245168e-05 4.599337508717e-03 0.0 
0.0 0.0 0.0 
-9.603682635689e-04 1.842475657094e-04 0.0 
1.842475657094e-04 1.684693895318e-02 0.0 
0.0 0.0 0.0 
-1.914806339617e-03 1.482138549382e-05 0.0 
1.482138549382e-05 9.729064264368e-04 0.0 
0.0 0.0 0.0 
-6.871912026507e-04 2.499925415393e-03 0.0 
2.499925415393e-03 1.673932812704e-02 0.0 
0.0 0.0 0.0 
-1.327831480997e-03 8.287415757588e-05 0.0 
8.287415757588e-05 1.597472122755e-02 0.0 
0.0 0.0 0.0 
1.097062516880e-03 -8.332888440094e-04 0.0 
-8.332888440094e-04 5.166847706644e-04 0.0 
0.0 0.0 0.0 
-1.450477627677e-03 9.996985973383e-05 0.0 
9.996985973383e-05 1.574234796368e-02 0.0 
0.0 0.0 0.0 
6.946480550274e-04 3.533448140839e-03 0.0 
3.533448140839e-03 1.025378064755e-02 0.0 
0.0 0.0 0.0 
-2.000862046245e-04 -5.833229642468e-05 0.0 
-5.833229642468e-05 4.787284975042e-03 0.0 
0.0 0.0 0.0 
-9.128369385571e-04 7.775529105633e-04 0.0 
7.775529105633e-04 8.945244787733e-04 0.0 
0.0 0.0 0.0 
1.265884520643e-04 -1.572286324443e-04 0.0 
-1.572286324443e-04 2.783546149797e-03 0.0 
0.0 0.0 0.0 
-1.081479180820e-04 -2.060736313887e-04 0.0 
-2.060736313887e-04 4.200755444514e-03 0.0 
0.0 0.0 0.0 
-2.082012621164e-04 1.958404243858e-05 0.0 
1.958404243858e-05 4.960020775927e-03 0.0 
0.0 0.0 0.0 
8.838302527439e-04 2.912450667952e-03 0.0 
2.912450667952e-03 8.965475047426e-03 0.0 
0.0 0.0 0.0 
-1.370017628562e-04 -1.196814272918e-04 0.0 
-1.196814272918e-04 4.115757055740e-03 0.0 
0.0 0.0 0.0 
-1.456509833844e-04 -1.404367661756e-04 0.0 
-1.404367661756e-04 4.374260213106e-03 0.0 
0.0 0.0 0.0 
3.851494675886e-04 -1.776748329465e-04 0.0 
-1.776748329465e-04 4.041020365020e-04 0.0 
0.0 0.0 0.0 
3.547832274697e-04 3.773911401921e-04 0.0 
3.773911401921e-04 7.112400704950e-03 0.0 
0.0 0.0 0.0 
1.029121847748e-03 4.178685170042e-03 0.0 
4.178685170042e-03 9.922783009741e-03 0.0 
0.0 0.0 0.0 
1.170682361722e-04 7.890932233686e-04 0.0 
7.890932233686e-04 1.641998882767e-03 0.0 
0.0 0.0 0.0 
-2.668593945354e-04 1.283850670691e-04 0.0 
1.283850670691e-04 1.743678233163e-02 0.0 
0.0 0.0 0.0 
8.849994207938e-05 5.407776149369e-05 0.0 
5.407776149369e-05 7.094466807035e-03 0.0 
0.0 0.0 0.0 
-1.553032882118e-03 -2.263128307508e-05 0.0 
-2.263128307508e-05 1.498590119730e-02 0.0 
0.0 0.0 0.0 
-1.385253875240e-03 7.206995099600e-05 0.0 
7.206995099600e-05 1.597519407086e-02 0.0 
0.0 0.0 0.0 
-1.140953366027e-04 -1.502254322104e-04 0.0 
-1.502254322104e-04 4.119092839863e-03 0.0 
0.0 0.0 0.0 
-1.208773509872e-04 -1.601115550281e-04 0.0 
-1.601115550281e-04 4.179105744735e-03 0.0 
0.0 0.0 0.0 
-1.450667589447e-04 -1.168724110022e-04 0.0 
-1.168724110022e-04 4.358041557776e-03 0.0 
0.0 0.0 0.0 
1.171357020074e-03 1.920682781382e-03 0.0 
1.920682781382e-03 7.324423944135e-03 0.0 
0.0 0.0 0.0 
9.913414861225e-04 -6.447300776458e-04 0.0 
-6.447300776458e-04 5.141169125937e-04 0.0 
0.0 0.0 0.0 
8.993954203589e-04 4.265970201027e-03 0.0 
4.265970201027e-03 1.062453516565e-02 0.0 
0.0 0.0 0.0 
-1.475520389804e-03 4.382416199838e-05 0.0 
4.382416199838e-05 1.533131332155e-02 0.0 
0.0 0.0 0.0 
-1.097011366734e-03 2.374791072136e-03 0.0 
2.374791072136e-03 1.682099423222e-02 0.0 
0.0 0.0 0.0 
1.045102183829e-03 1.787967032812e-03 0.0 
1.787967032812e-03 7.308394252730e-03 0.0 
0.0 0.0 0.0 
-1.526258767456e-03 9.136803652197e-05 0.0 
9.136803652197e-05 1.575075023724e-02 0.0 
0.0 0.0 0.0 
5.498726279067e-04 4.616139114532e-03 0.0 
4.616139114532e-03 1.150777516590e-02 0.0 
0.0 0.0 0.0 
8.308687316685e-04 2.964511522864e-03 0.0 
2.964511522864e-03 8.948665404606e-03 0.0 
0.0 0.0 0.0 
7.469513755691e-04 3.107255814194e-03 0.0 
3.107255814194e-03 9.704894332594e-03 0.0 
0.0 0.0 0.0 
-7.422889297565e-04 8.693996619248e-04 0.0 
8.693996619248e-04 8.635475852250e-04 0.0 
0.0 0.0 0.0 
5.095222556666e-04 4.580672730979e-03 0.0 
4.580672730979e-03 1.151183360674e-02 0.0 
0.0 0.0 0.0 
6.665084418673e-04 4.744598412417e-03 0.0 
4.744598412417e-03 1.142389449102e-02 0.0 
0.0 0.0 0.0 
4.801258778244e-04 -1.670573058273e-04 0.0 
-1.670573058273e-04 3.912114665265e-04 0.0 
0.0 0.0 0.0 
-8.595067166661e-05 -1.650335601419e-04 0.0 
-1.650335601419e-04 3.870576966557e-03 0.0 
0.0 0.0 0.0 
-8.539005150622e-04 6.407046314982e-04 0.0 
6.407046314982e-04 1.023245389753e-03 0.0 
0.0 0.0 0.0 
4.223552717202e-04 4.791634054773e-03 0.0 
4.791634054773e-03 1.204447441453e-02 0.0 
0.0 0.0 0.0 

TENSORS element_materi_strain_plasti float
-1.942528241786e-04 1.915423577160e-03 0.0 
1.915423577160e-03 2.534066775685e-03 0.0 
0.0 0.0 -4.220722639049e-04 
-1.854997206556e-04 1.116635102562e-03 0.0 
1.116635102562e-03 2.314576094952e-03 0.0 
0.0 0.0 -4.303330772826e-04 
6.665386881669e-05 1.837448863376e-03 0.0 
1.837448863376e-03 7.007066656152e-03 0.0 
0.0 0.0 -1.147617514225e-03 
-1.261464826866e-03 -1.747915258518e-04 0.0 
-1.747915258518e-04 8.480496286503e-03 0.0 
0.0 0.0 -1.255598393855e-03 
-7.983281552709e-04 2.303090028113e-04 0.0 
2.303090028113e-04 5.254489729699e-03 0.0 
0.0 0.0 -7.961861350945e-04 
-2.059346616286e-04 2.207607006017e-04 0.0 
2.207607006017e-04 1.009101900264e-03 0.0 
0.0 0.0 -1.793459522598e-04 
-7.878967474187e-04 2.695248863588e-04 0.0 
2.695248863588e-04 5.204562819075e-03 0.0 
0.0 0.0 -8.011023898636e-04 
-1.255455267949e-04 1.643589193685e-03 0.0 
1.643589193685e-03 2.400128900614e-03 0.0 
0.0 0.0 -4.045669272905e-04 
-8.029485881417e-04 -2.877766516214e-04 0.0 
-2.877766516214e-04 5.280709952101e-03 0.0 
0.0 0.0 -7.977904104816e-04 
-1.248589478216e-03 2.242094407416e-04 0.0 
2.242094407416e-04 8.399546616313e-03 0.0 
0.0 0.0 -1.253060141438e-03 
-8.734241078280e-04 1.448938062343e-04 0.0 
1.448938062343e-04 5.602284754987e-03 0.0 
0.0 0.0 -7.596150548428e-04 
-2.590266781648e-04 9.241848546827e-04 0.0 
9.241848546827e-04 2.031572516217e-03 0.0 
0.0 0.0 -3.735031833740e-04 
-7.104701311165e-04 2.154476922418e-04 0.0 
2.154476922418e-04 7.671249190210e-03 0.0 
0.0 0.0 -8.339636895002e-04 
-8.479147549375e-04 1.860153946805e-04 0.0 
1.860153946805e-04 5.638680799524e-03 0.0 
0.0 0.0 -8.526168115438e-04 
-7.894983915039e-04 -1.707563965359e-04 0.0 
-1.707563965359e-04 7.859291581336e-03 0.0 
0.0 0.0 -8.441008489052e-04 
-1.301181403367e-03 2.039645816312e-04 0.0 
2.039645816312e-04 8.626062176419e-03 0.0 
0.0 0.0 -1.285984941237e-03 
-7.889097476292e-04 4.689353054498e-06 0.0 
4.689353054498e-06 5.256085596916e-03 0.0 
0.0 0.0 -7.740676797406e-04 
-1.741032192830e-04 -1.984587543237e-04 0.0 
-1.984587543237e-04 9.106845467383e-04 0.0 
0.0 0.0 -1.826237857505e-04 
5.469674437116e-04 -6.125521596082e-05 0.0 
-6.125521596082e-05 9.513762570027e-04 0.0 
0.0 0.0 -2.776016825098e-04 
3.276390839309e-04 7.439637488762e-05 0.0 
7.439637488762e-05 1.015141260492e-03 0.0 
0.0 0.0 -3.031105466646e-04 
-1.236978180346e-03 -2.273342210413e-04 0.0 
-2.273342210413e-04 8.474882909105e-03 0.0 
0.0 0.0 -1.250388265701e-03 
-2.243918588295e-04 1.863183570135e-03 0.0 
1.863183570135e-03 2.684062375111e-03 0.0 
0.0 0.0 -4.811142067971e-04 
-2.414071178191e-04 2.321662532404e-03 0.0 
2.321662532404e-03 3.048175820485e-03 0.0 
0.0 0.0 -5.091556215902e-04 
9.866891818951e-06 2.328995120864e-04 0.0 
2.328995120864e-04 6.707253650991e-03 0.0 
0.0 0.0 -8.868509276048e-04 
-9.004893154001e-04 2.196977328254e-04 0.0 
2.196977328254e-04 6.011080091783e-03 0.0 
0.0 0.0 -9.130988374533e-04 
-9.174607409394e-04 -1.461311496481e-04 0.0 
-1.461311496481e-04 5.992869870971e-03 0.0 
0.0 0.0 -7.483937296296e-04 
-1.236051183537e-03 6.697664549546e-04 0.0 
6.697664549546e-04 5.388022039253e-03 0.0 
0.0 0.0 -7.148082707961e-04 
3.924868331940e-04 1.457105201038e-03 0.0 
1.457105201038e-03 6.893261040376e-03 0.0 
0.0 0.0 -1.023394920210e-03 
-9.084778585211e-04 -2.532626103826e-04 0.0 
-2.532626103826e-04 6.055345996359e-03 0.0 
0.0 0.0 -9.113908267906e-04 
-1.382362025808e-04 4.586786376814e-04 0.0 
4.586786376814e-04 7.003586958445e-03 0.0 
0.0 0.0 -8.955489804308e-04 
-2.162503473685e-04 3.355180743616e-05 0.0 
3.355180743616e-05 1.390767343688e-03 0.0 
0.0 0.0 -2.185975924268e-04 
-1.102777646679e-04 3.092462500308e-05 0.0 
3.092462500308e-05 6.008114765358e-04 0.0 
0.0 0.0 -1.059755802940e-04 
-3.145698183922e-04 1.565063067984e-03 0.0 
1.565063067984e-03 7.641968853354e-03 0.0 
0.0 0.0 -1.116392119981e-03 
-9.428371246184e-04 -1.819228229707e-04 0.0 
-1.819228229707e-04 6.858939918919e-03 0.0 
0.0 0.0 -7.865117571293e-04 
-5.260348611909e-04 -9.971611086537e-05 0.0 
-9.971611086537e-05 7.519263245181e-03 0.0 
0.0 0.0 -8.633376357874e-04 
-6.829351551999e-04 4.192718902386e-04 0.0 
4.192718902386e-04 7.994805359185e-03 0.0 
0.0 0.0 -8.688905327288e-04 
-7.818361487069e-04 -3.535036386495e-04 0.0 
-3.535036386495e-04 8.077291737317e-03 0.0 
0.0 0.0 -8.635586674760e-04 
2.347266363107e-05 8.299900426977e-04 0.0 
8.299900426977e-04 6.974378511429e-03 0.0 
0.0 0.0 -9.484974021123e-04 
-7.261695585194e-04 -3.174047361397e-04 0.0 
-3.174047361397e-04 4.739951691414e-03 0.0 
0.0 0.0 -7.380763454960e-04 
-7.293562810949e-04 3.567993421673e-04 0.0 
3.567993421673e-04 4.808642079977e-03 0.0 
0.0 0.0 -7.371174501546e-04 
-2.914430474790e-04 3.591971306824e-03 0.0 
3.591971306824e-03 3.497492254849e-03 0.0 
0.0 0.0 -5.794556523337e-04 
-6.163667851855e-04 1.376165869837e-04 0.0 
1.376165869837e-04 7.566653531148e-03 0.0 
0.0 0.0 -8.851124455867e-04 
-2.366933265785e-04 7.995594049571e-04 0.0 
7.995594049571e-04 1.837458586268e-03 0.0 
0.0 0.0 -3.207852484642e-04 
-1.145843218403e-03 7.259317650304e-04 0.0 
7.259317650304e-04 5.052161300257e-03 0.0 
0.0 0.0 -7.350059072715e-04 
-1.225055898073e-03 -9.816574622214e-05 0.0 
-9.816574622214e-05 8.293394798268e-03 0.0 
0.0 0.0 -1.212858513926e-03 
-2.603029831335e-04 1.339692419926e-04 0.0 
1.339692419926e-04 1.857618087848e-03 0.0 
0.0 0.0 -3.198426158856e-04 
-1.782809379457e-04 -4.378063602814e-06 0.0 
-4.378063602814e-06 7.801372807209e-04 0.0 
0.0 0.0 -1.830859565219e-04 
-1.220501464306e-03 6.316947048485e-05 0.0 
6.316947048485e-05 8.106622909265e-03 0.0 
0.0 0.0 -1.234743356787e-03 
-9.829459878545e-05 4.583948434494e-06 0.0 
4.583948434494e-06 3.276774367732e-04 0.0 
0.0 0.0 -9.830693056617e-05 
-8.022047642295e-04 -1.811997065716e-04 0.0 
-1.811997065716e-04 5.439298518069e-03 0.0 
0.0 0.0 -8.229436299569e-04 
-2.415607740192e-04 3.014729186884e-03 0.0 
3.014729186884e-03 3.265376354707e-03 0.0 
0.0 0.0 -5.440916476828e-04 
2.911618819035e-04 -3.339932032568e-05 0.0 
-3.339932032568e-05 1.618028050196e-03 0.0 
0.0 0.0 -3.443810396915e-04 
6.788949806773e-04 -5.386654627458e-04 0.0 
-5.386654627458e-04 8.280637513473e-04 0.0 
0.0 0.0 -3.047895897720e-04 
-1.788622890645e-04 3.155596536394e-03 0.0 
3.155596536394e-03 3.055176937724e-03 0.0 
0.0 0.0 -5.489460876789e-04 
-1.093765590949e-03 2.511608292515e-04 0.0 
2.511608292515e-04 8.259412558443e-03 0.0 
0.0 0.0 -1.221446502819e-03 
-2.546831445622e-04 -1.467145175356e-04 0.0 
-1.467145175356e-04 2.732464666001e-03 0.0 
0.0 0.0 -4.512233509908e-04 
6.415230854385e-05 1.198377117827e-04 0.0 
1.198377117827e-04 1.701927921820e-03 0.0 
0.0 0.0 -3.694212080277e-04 
-8.413853966881e-04 1.723480293112e-04 0.0 
1.723480293112e-04 6.828588963271e-03 0.0 
0.0 0.0 -7.874621303432e-04 
5.626293326782e-04 1.239982811823e-05 0.0 
1.239982811823e-05 5.717048215649e-04 0.0 
0.0 0.0 -2.189683579105e-04 
-1.291565119731e-03 -2.058202376930e-04 0.0 
-2.058202376930e-04 8.638287399564e-03 0.0 
0.0 0.0 -1.285320035817e-03 
-9.406322495114e-05 -1.263405609948e-04 0.0 
-1.263405609948e-04 5.178868060056e-04 0.0 
0.0 0.0 -9.532668554595e-05 
5.829172303732e-04 1.455537748822e-03 0.0 
1.455537748822e-03 6.166283566944e-03 0.0 
0.0 0.0 -9.727373095056e-04 
3.067063556343e-04 1.832133502200e-03 0.0 
1.832133502200e-03 2.609889890528e-03 0.0 
0.0 0.0 -5.497085007362e-04 
4.321721487955e-04 -1.014059935608e-04 0.0 
-1.014059935608e-04 8.994451272074e-04 0.0 
0.0 0.0 -2.769417647402e-04 
-7.372021434759e-04 -1.684897746641e-04 0.0 
-1.684897746641e-04 7.686148653571e-03 0.0 
0.0 0.0 -8.363443253018e-04 
-2.268655333469e-04 2.334291067783e-03 0.0 
2.334291067783e-03 2.874117074728e-03 0.0 
0.0 0.0 -5.137572693775e-04 
-6.027079853022e-05 4.538885378733e-05 0.0 
4.538885378733e-05 2.053936984274e-04 0.0 
0.0 0.0 -6.219552852736e-05 
9.153222932340e-05 2.036453931717e-03 0.0 
2.036453931717e-03 7.225877302363e-03 0.0 
0.0 0.0 -1.112376765774e-03 
2.517202359159e-04 -4.847790506054e-04 0.0 
-4.847790506054e-04 9.022255101025e-04 0.0 
0.0 0.0 -2.404310120911e-04 
2.686209445074e-04 1.690822503362e-03 0.0 
1.690822503362e-03 6.781299512559e-03 0.0 
0.0 0.0 -1.073760038264e-03 
-8.251484421937e-04 -1.748785905592e-04 0.0 
-1.748785905592e-04 6.100551165892e-03 0.0 
0.0 0.0 -7.484972091558e-04 
-8.522900228417e-04 4.058393990722e-04 0.0 
4.058393990722e-04 8.336007520175e-03 0.0 
0.0 0.0 -1.314425517132e-03 
3.886172810684e-04 1.406502582528e-03 0.0 
1.406502582528e-03 6.359116989825e-03 0.0 
0.0 0.0 -1.009300074053e-03 
9.162731413759e-04 7.798414249051e-05 0.0 
7.798414249051e-05 -4.856068469999e-04 0.0 
0.0 0.0 -1.295286970291e-04 
-4.359315528546e-04 1.470797447521e-04 0.0 
1.470797447521e-04 2.898959822310e-03 0.0 
0.0 0.0 -4.777371989943e-04 
-1.254133957623e-03 -1.731664304593e-04 0.0 
-1.731664304593e-04 8.495066883004e-03 0.0 
0.0 0.0 -1.262626981217e-03 
-1.253586472706e-03 9.705367785365e-05 0.0 
9.705367785365e-05 8.609671658607e-03 0.0 
0.0 0.0 -1.170139370426e-03 
-2.500278062254e-04 -1.904083940436e-04 0.0 
-1.904083940436e-04 1.447205075698e-03 0.0 
0.0 0.0 -2.510564503189e-04 
-8.320645036308e-05 -2.063182270615e-05 0.0 
-2.063182270615e-05 9.887208457599e-04 0.0 
0.0 0.0 -2.366757893512e-04 
-2.524608178189e-04 2.645667800551e-04 0.0 
2.645667800551e-04 1.425063176326e-03 0.0 
0.0 0.0 -2.525559601288e-04 
4.563097155671e-04 -2.337582860621e-04 0.0 
-2.337582860621e-04 6.033795059402e-04 0.0 
0.0 0.0 -2.439992467140e-04 
-7.756433689863e-04 3.199927864604e-05 0.0 
3.199927864604e-05 4.983308918424e-03 0.0 
0.0 0.0 -7.918363975426e-04 
-2.279113289361e-04 1.970986348885e-03 0.0 
1.970986348885e-03 2.857806894731e-03 0.0 
0.0 0.0 -4.749402310763e-04 
-2.949346936206e-04 1.243959590663e-03 0.0 
1.243959590663e-03 2.458314761981e-03 0.0 
0.0 0.0 -4.438329512050e-04 
-8.539707940100e-04 -2.466642961344e-04 0.0 
-2.466642961344e-04 5.506675063211e-03 0.0 
0.0 0.0 -8.336771054075e-04 
-8.435305426983e-04 2.228252034013e-04 0.0 
2.228252034013e-04 5.474459253188e-03 0.0 
0.0 0.0 -8.358076868167e-04 
-9.279192370744e-04 -1.852934397217e-04 0.0 
-1.852934397217e-04 6.296324661972e-03 0.0 
0.0 0.0 -7.589762624070e-04 
-9.976536384625e-04 1.897326742608e-04 0.0 
1.897326742608e-04 6.780711082704e-03 0.0 
0.0 0.0 -7.778244761064e-04 
-1.087556198862e-03 -2.099876550133e-04 0.0 
-2.099876550133e-04 7.325766427452e-03 0.0 
0.0 0.0 -1.085941371602e-03 
-7.938707313230e-04 -2.935700947946e-04 0.0 
-2.935700947946e-04 5.166210845136e-03 0.0 
0.0 0.0 -7.983229688164e-04 
-9.891997245645e-05 3.705985749018e-05 0.0 
3.705985749018e-05 3.315907805062e-04 0.0 
0.0 0.0 -9.971606059273e-05 
-7.885073175136e-04 2.083610238613e-05 0.0 
2.083610238613e-05 5.061448418496e-03 0.0 
0.0 0.0 -7.928983479555e-04 
-1.080416093341e-03 -1.102030882250e-04 0.0 
-1.102030882250e-04 7.033104683541e-03 0.0 
0.0 0.0 -1.069439317440e-03 
-1.045886068578e-03 1.124481538710e-04 0.0 
1.124481538710e-04 7.095766026653e-03 0.0 
0.0 0.0 -1.046447409317e-03 
-1.332319675605e-03 9.342509682998e-06 0.0 
9.342509682998e-06 9.047908115937e-03 0.0 
0.0 0.0 -1.255624146044e-03 
-2.355989112677e-04 4.907086326117e-04 0.0 
4.907086326117e-04 7.461456713428e-03 0.0 
0.0 0.0 -9.655964147882e-04 
-7.712114504191e-04 -1.098703338913e-04 0.0 
-1.098703338913e-04 4.988523523052e-03 0.0 
0.0 0.0 -7.889745663688e-04 
-4.052985488526e-04 1.596669202229e-04 0.0 
1.596669202229e-04 7.607558928771e-03 0.0 
0.0 0.0 -8.757285342209e-04 
-8.948346215206e-04 -1.546261929542e-04 0.0 
-1.546261929542e-04 5.902983939671e-03 0.0 
0.0 0.0 -9.040008563810e-04 
5.896173020825e-04 2.627109937354e-03 0.0 
2.627109937354e-03 2.282221472324e-03 0.0 
0.0 0.0 -5.198799001330e-04 
-7.537468891923e-04 -1.811454266392e-04 0.0 
-1.811454266392e-04 5.032849217033e-03 0.0 
0.0 0.0 -7.643292725053e-04 
-7.249540475305e-04 1.900831319825e-04 0.0 
1.900831319825e-04 7.803257263929e-03 0.0 
0.0 0.0 -8.462860489866e-04 
1.709176698091e-03 1.479893879180e-03 0.0 
1.479893879180e-03 4.160091953280e-03 0.0 
0.0 0.0 -9.039359253430e-04 
5.770607109732e-04 1.055868116446e-03 0.0 
1.055868116446e-03 6.217828390026e-03 0.0 
0.0 0.0 -9.700399794397e-04 
5.279628984308e-04 1.249881190861e-03 0.0 
1.249881190861e-03 2.042325694448e-03 0.0 
0.0 0.0 -4.747543016519e-04 
-1.600906628411e-04 5.774618246661e-05 0.0 
5.774618246661e-05 1.025327310925e-03 0.0 
0.0 0.0 -1.624897275554e-04 
-7.634736679658e-04 -1.954959879238e-04 0.0 
-1.954959879238e-04 7.318263592100e-03 0.0 
0.0 0.0 -8.128628169648e-04 
-1.119764034804e-03 7.291963016848e-05 0.0 
7.291963016848e-05 7.561876066393e-03 0.0 
0.0 0.0 -1.108790581071e-03 
-1.060815689674e-04 -4.441233851537e-05 0.0 
-4.441233851537e-05 6.067820639570e-04 0.0 
0.0 0.0 -1.038131581323e-04 
-7.776127278383e-04 -5.992130526784e-05 0.0 
-5.992130526784e-05 7.741960766478e-03 0.0 
0.0 0.0 -8.536778351697e-04 
-1.054610615232e-03 1.830679382236e-04 0.0 
1.830679382236e-04 6.961937164299e-03 0.0 
0.0 0.0 -1.051491716222e-03 
9.718520922772e-04 -8.013230464020e-05 0.0 
-8.013230464020e-05 -3.301625463302e-04 0.0 
0.0 0.0 -2.558788603139e-04 
3.737547786091e-04 1.032927259485e-03 0.0 
1.032927259485e-03 3.020424765201e-03 0.0 
0.0 0.0 -6.309931931857e-04 
-9.148868655671e-04 2.609639549602e-03 0.0 
2.609639549602e-03 4.913794284818e-03 0.0 
0.0 0.0 -7.153918394734e-04 
-5.826588176687e-04 -7.135686322074e-05 0.0 
-7.135686322074e-05 3.565625895428e-03 0.0 
0.0 0.0 -5.772375537024e-04 
6.816160547831e-04 2.739585821220e-03 0.0 
2.739585821220e-03 1.834736530328e-03 0.0 
0.0 0.0 -4.852398935310e-04 
3.707710072365e-04 1.507808513638e-03 0.0 
1.507808513638e-03 2.602310294391e-03 0.0 
0.0 0.0 -5.471823052058e-04 
-6.153036007743e-04 1.884364627888e-04 0.0 
1.884364627888e-04 7.618441744386e-03 0.0 
0.0 0.0 -8.738370168727e-04 
-8.570047827625e-04 1.861607891450e-04 0.0 
1.861607891450e-04 5.815261551137e-03 0.0 
0.0 0.0 -8.766975940251e-04 
4.957175799201e-04 1.926117321652e-03 0.0 
1.926117321652e-03 2.228455717323e-03 0.0 
0.0 0.0 -5.122473358773e-04 
-1.513876566144e-04 -2.693750504187e-04 0.0 
-2.693750504187e-04 1.263386374106e-03 0.0 
0.0 0.0 -2.295267891405e-04 
-7.623542819022e-04 1.283036037405e-04 0.0 
1.283036037405e-04 5.225810972112e-03 0.0 
0.0 0.0 -7.744920945421e-04 
-1.103870852233e-03 -9.179179606017e-05 0.0 
-9.179179606017e-05 7.387674560017e-03 0.0 
0.0 0.0 -1.129288753466e-03 
4.846826699730e-04 1.405863700676e-03 0.0 
1.405863700676e-03 2.267022506068e-03 0.0 
0.0 0.0 -5.109724225979e-04 
-1.701414425471e-04 -1.534722166071e-04 0.0 
-1.534722166071e-04 9.835208087659e-04 0.0 
0.0 0.0 -1.803716510945e-04 
-5.335442740484e-04 4.184528063306e-03 0.0 
4.184528063306e-03 4.140865053045e-03 0.0 
0.0 0.0 -6.470401313397e-04 
-5.320925318564e-04 6.583880234071e-05 0.0 
6.583880234071e-05 3.690478399322e-03 0.0 
0.0 0.0 -5.578851714504e-04 
-3.953706694917e-04 4.139117087617e-03 0.0 
4.139117087617e-03 3.706808517595e-03 0.0 
0.0 0.0 -6.167189930164e-04 
-1.291653437089e-03 1.656662026679e-04 0.0 
1.656662026679e-04 8.654933890924e-03 0.0 
0.0 0.0 -1.290671971449e-03 
-2.237296866694e-04 1.772304597235e-04 0.0 
1.772304597235e-04 1.151710267161e-03 0.0 
0.0 0.0 -2.092271396208e-04 
-8.798893442918e-04 1.616849427548e-04 0.0 
1.616849427548e-04 5.837795849984e-03 0.0 
0.0 0.0 -7.488939717573e-04 
-1.271942419784e-03 2.295590735456e-04 0.0 
2.295590735456e-04 8.471227576744e-03 0.0 
0.0 0.0 -1.256690274141e-03 
-6.301217830685e-04 2.609533969941e-04 0.0 
2.609533969941e-04 4.208916225098e-03 0.0 
0.0 0.0 -6.588732905211e-04 
-3.835637381647e-04 4.048663650284e-03 0.0 
4.048663650284e-03 3.797921170555e-03 0.0 
0.0 0.0 -6.139229799761e-04 
-4.229336849583e-04 3.535878183716e-04 0.0 
3.535878183716e-04 7.415071902728e-03 0.0 
0.0 0.0 -8.692276996963e-04 
-7.592190942266e-04 -2.496897252465e-04 0.0 
-2.496897252465e-04 7.733747794238e-03 0.0 
0.0 0.0 -8.319992101221e-04 
-7.918574352401e-04 1.646062907828e-04 0.0 
1.646062907828e-04 6.199706027526e-03 0.0 
0.0 0.0 -7.641660966190e-04 
-6.539985841114e-04 -5.068530714183e-05 0.0 
-5.068530714183e-05 4.512912440579e-03 0.0 
0.0 0.0 -6.916138708610e-04 
-2.622986720671e-04 3.526951970314e-04 0.0 
3.526951970314e-04 7.488142091840e-03 0.0 
0.0 0.0 -9.006303319108e-04 
-3.929969985536e-04 1.125981553859e-03 0.0 
1.125981553859e-03 3.817892774284e-03 0.0 
0.0 0.0 -6.326048069937e-04 
-1.254086704545e-03 -7.990901772474e-06 0.0 
-7.990901772474e-06 8.463054394802e-03 0.0 
0.0 0.0 -1.283174495648e-03 
5.667324989183e-04 2.193230830284e-03 0.0 
2.193230830284e-03 6.748109126306e-03 0.0 
0.0 0.0 -1.079428311486e-03 
-8.565153591279e-04 -2.695301549172e-04 0.0 
-2.695301549172e-04 5.568894745570e-03 0.0 
0.0 0.0 -8.543707170918e-04 
-9.713226980400e-04 1.946342578751e-04 0.0 
1.946342578751e-04 6.532485670191e-03 0.0 
0.0 0.0 -9.817831382938e-04 
-2.247393887549e-04 1.328492177795e-03 0.0 
1.328492177795e-03 3.706305606041e-03 0.0 
0.0 0.0 -6.293189184696e-04 
-2.495331503626e-04 3.790559703725e-03 0.0 
3.790559703725e-03 3.348756530285e-03 0.0 
0.0 0.0 -5.830241378053e-04 
-7.249782629771e-04 1.809288523893e-04 0.0 
1.809288523893e-04 4.673091201127e-03 0.0 
0.0 0.0 -7.211932326589e-04 
1.943077744686e-04 7.354566805285e-04 0.0 
7.354566805285e-04 2.778417740499e-03 0.0 
0.0 0.0 -5.383041810906e-04 
-7.661110268238e-04 -1.968496736506e-04 0.0 
-1.968496736506e-04 5.166653984338e-03 0.0 
0.0 0.0 -7.693993191400e-04 
3.385735115747e-04 5.735951900017e-04 0.0 
5.735951900017e-04 3.131294585712e-03 0.0 
0.0 0.0 -6.275039421266e-04 
-9.046107145180e-05 -7.326081393818e-05 0.0 
-7.326081393818e-05 3.093039216746e-04 0.0 
0.0 0.0 -9.378979295261e-05 
-8.218888591145e-04 -1.362265050310e-05 0.0 
-1.362265050310e-05 5.568518320124e-03 0.0 
0.0 0.0 -8.171079392438e-04 
5.559643393920e-04 -4.576852697725e-06 0.0 
-4.576852697725e-06 3.715701376267e-04 0.0 
0.0 0.0 -2.373169254524e-04 
-7.326450901836e-04 3.669946628532e-03 0.0 
3.669946628532e-03 4.543675831791e-03 0.0 
0.0 0.0 -6.809683978454e-04 
-5.617792391546e-04 1.934394221317e-04 0.0 
1.934394221317e-04 7.536719923418e-03 0.0 
0.0 0.0 -8.991591185218e-04 
6.066579213758e-04 1.857556653347e-03 0.0 
1.857556653347e-03 1.912031834037e-03 0.0 
0.0 0.0 -4.767992880414e-04 
-9.211645237747e-04 1.966983440401e-04 0.0 
1.966983440401e-04 6.505602532846e-03 0.0 
0.0 0.0 -7.704749419199e-04 
-2.602016314987e-04 3.749179179702e-04 0.0 
3.749179179702e-04 2.059367403003e-03 0.0 
0.0 0.0 -3.540742325023e-04 
1.799320849601e-03 1.939753138398e-03 0.0 
1.939753138398e-03 4.034883411012e-03 0.0 
0.0 0.0 -9.100318204149e-04 
-8.013630412541e-04 6.389824081770e-06 0.0 
6.389824081770e-06 5.002686662292e-03 0.0 
0.0 0.0 -7.899655494116e-04 
4.571135258988e-04 9.582947361739e-04 0.0 
9.582947361739e-04 2.735273547661e-03 0.0 
0.0 0.0 -5.931463391684e-04 
-7.972209591334e-04 -2.144254001716e-04 0.0 
-2.144254001716e-04 6.970154883549e-03 0.0 
0.0 0.0 -7.932847915247e-04 
-3.699981310554e-05 6.831704956710e-05 0.0 
6.831704956710e-05 1.060688796262e-03 0.0 
0.0 0.0 -2.346376350630e-04 
-6.872874284754e-04 2.047862502617e-04 0.0 
2.047862502617e-04 7.247551473526e-03 0.0 
0.0 0.0 -8.159525967632e-04 
-7.770557330010e-04 1.799043213504e-04 0.0 
1.799043213504e-04 5.036915018676e-03 0.0 
0.0 0.0 -7.711223959738e-04 
-6.462563178694e-04 3.613973974971e-05 0.0 
3.613973974971e-05 7.809884924164e-03 0.0 
0.0 0.0 -8.424100776937e-04 
-7.886647595986e-04 2.426638412859e-05 0.0 
2.426638412859e-05 5.002569468986e-03 0.0 
0.0 0.0 -7.842605076999e-04 
2.536640502985e-04 9.996897324773e-04 0.0 
9.996897324773e-04 2.370018145746e-03 0.0 
0.0 0.0 -5.042822341261e-04 
-8.732024607860e-04 3.206527910140e-03 0.0 
3.206527910140e-03 4.594952985068e-03 0.0 
0.0 0.0 -6.840799553763e-04 
-9.007936249703e-04 -1.250751571985e-04 0.0 
-1.250751571985e-04 5.810586262237e-03 0.0 
0.0 0.0 -7.360864081422e-04 
-2.370922864556e-04 1.200168233301e-03 0.0 
1.200168233301e-03 2.122167749730e-03 0.0 
0.0 0.0 -3.514598124168e-04 
4.082455610238e-04 4.780064203284e-04 0.0 
4.780064203284e-04 2.842889944421e-03 0.0 
0.0 0.0 -5.911455407098e-04 
-1.021044424836e-03 -2.319523584095e-04 0.0 
-2.319523584095e-04 6.800629387681e-03 0.0 
0.0 0.0 -1.016465148841e-03 
-7.832948860766e-04 1.542506256290e-04 0.0 
1.542506256290e-04 5.221219062028e-03 0.0 
0.0 0.0 -7.680022369673e-04 
2.821919336321e-04 9.612592814342e-04 0.0 
9.612592814342e-04 2.714230239947e-03 0.0 
0.0 0.0 -5.666226778950e-04 
-6.393750757583e-04 3.885222817186e-03 0.0 
3.885222817186e-03 4.142167469062e-03 0.0 
0.0 0.0 -6.498546761489e-04 
8.006743060181e-04 2.503961957612e-03 0.0 
2.503961957612e-03 5.588116786348e-03 0.0 
0.0 0.0 -1.033384849585e-03 
-6.049367620201e-04 -5.856183731731e-05 0.0 
-5.856183731731e-05 4.160481905727e-03 0.0 
0.0 0.0 -6.189190723244e-04 
8.182136079183e-06 1.130171432318e-03 0.0 
1.130171432318e-03 7.015309311211e-03 0.0 
0.0 0.0 -1.016931703951e-03 
5.719201811753e-04 1.940860502141e-03 0.0 
1.940860502141e-03 6.740806972631e-03 0.0 
0.0 0.0 -1.064959509689e-03 
2.624231746154e-04 2.315861712252e-03 0.0 
2.315861712252e-03 2.248831066578e-03 0.0 
0.0 0.0 -4.595713030950e-04 
-6.193411254741e-04 7.190453835518e-05 0.0 
7.190453835518e-05 3.976368456989e-03 0.0 
0.0 0.0 -6.385407451345e-04 
5.080924494557e-04 4.182993967644e-04 0.0 
4.182993967644e-04 5.915552291047e-03 0.0 
0.0 0.0 -8.817258980178e-04 
-9.247311837177e-05 2.702510973374e-03 0.0 
2.702510973374e-03 3.430091630156e-03 0.0 
0.0 0.0 -6.037256927378e-04 
2.341360230371e-04 1.984411455313e-03 0.0 
1.984411455313e-03 1.853477862974e-03 0.0 
0.0 0.0 -4.251746348339e-04 
-7.492101616992e-04 1.773144067427e-04 0.0 
1.773144067427e-04 4.849787455535e-03 0.0 
0.0 0.0 -7.443430781256e-04 
2.054625656219e-04 6.879606210545e-04 0.0 
6.879606210545e-04 3.144785856238e-03 0.0 
0.0 0.0 -6.011186688906e-04 
-1.288763796550e-03 1.231833412492e-04 0.0 
1.231833412492e-04 8.478545606423e-03 0.0 
0.0 0.0 -1.279059907835e-03 
-1.060544670799e-03 1.938342500095e-04 0.0 
1.938342500095e-04 7.027045279308e-03 0.0 
0.0 0.0 -1.060691896764e-03 
-7.677211638002e-04 2.145285734321e-04 0.0 
2.145285734321e-04 7.132246397962e-03 0.0 
0.0 0.0 -8.052511963832e-04 
-2.882194771885e-04 -2.173510090808e-04 0.0 
-2.173510090808e-04 1.694759427097e-03 0.0 
0.0 0.0 -2.852154713500e-04 
4.623973972285e-04 3.770632964723e-04 0.0 
3.770632964723e-04 2.580213262822e-03 0.0 
0.0 0.0 -5.558335581882e-04 
-1.085941057106e-03 1.940613560134e-04 0.0 
1.940613560134e-04 7.224719901000e-03 0.0 
0.0 0.0 -1.089453766084e-03 
-2.843827826583e-05 -1.788898447607e-05 0.0 
-1.788898447607e-05 1.853186358372e-04 0.0 
0.0 0.0 -4.453055683374e-05 
-1.680517626009e-04 2.658060678514e-03 0.0 
2.658060678514e-03 3.443765629618e-03 0.0 
0.0 0.0 -6.073871274648e-04 
7.088446089674e-04 2.582482469353e-04 0.0 
2.582482469353e-04 5.316450254013e-03 0.0 
0.0 0.0 -8.420580617556e-04 
-1.286486422746e-06 -9.914104125600e-05 0.0 
-9.914104125600e-05 8.443540073156e-04 0.0 
0.0 0.0 -1.605608400042e-04 
-9.213060176825e-04 7.270626883204e-04 0.0 
7.270626883204e-04 8.102548555377e-03 0.0 
0.0 0.0 -1.172046129205e-03 
-9.713207705101e-04 1.946323764392e-04 0.0 
1.946323764392e-04 6.442137433534e-03 0.0 
0.0 0.0 -9.749624431058e-04 
1.289402762432e-03 3.380373569344e-06 0.0 
3.380373569344e-06 1.925728892948e-03 0.0 
0.0 0.0 -5.995223474422e-04 
8.356217465874e-04 7.223488673117e-04 0.0 
7.223488673117e-04 5.154035986114e-03 0.0 
0.0 0.0 -8.506669923407e-04 
-8.219004318722e-04 -1.022855745582e-05 0.0 
-1.022855745582e-05 5.626191621955e-03 0.0 
0.0 0.0 -8.259898420369e-04 
-8.600931526374e-04 -1.614882484442e-04 0.0 
-1.614882484442e-04 5.932770930688e-03 0.0 
0.0 0.0 -8.838609275114e-04 
-2.487264399286e-04 1.444209264443e-04 0.0 
1.444209264443e-04 7.087293250897e-03 0.0 
0.0 0.0 -8.893528459922e-04 
4.643297756050e-04 -2.607784182966e-05 0.0 
-2.607784182966e-05 1.903401941183e-03 0.0 
0.0 0.0 -4.583583101839e-04 
-7.069925928265e-04 2.604182708419e-04 0.0 
2.604182708419e-04 4.817136297110e-03 0.0 
0.0 0.0 -7.480401524272e-04 
-8.027906713221e-04 1.764875410811e-04 0.0 
1.764875410811e-04 5.221920557136e-03 0.0 
0.0 0.0 -7.988399675000e-04 
-1.007530328557e-03 -1.922336022121e-04 0.0 
-1.922336022121e-04 6.759039767950e-03 0.0 
0.0 0.0 -1.008548823165e-03 
-8.112396533279e-04 -1.820827880749e-04 0.0 
-1.820827880749e-04 5.334789694812e-03 0.0 
0.0 0.0 -8.035999206669e-04 
-7.375537512703e-04 8.431427177284e-05 0.0 
8.431427177284e-05 4.882985651120e-03 0.0 
0.0 0.0 -7.415510827328e-04 
2.273494402263e-03 1.524137896627e-03 0.0 
1.524137896627e-03 3.011038303690e-03 0.0 
0.0 0.0 -8.591839547330e-04 
-2.676532488680e-04 1.056778708095e-03 0.0 
1.056778708095e-03 6.532997070465e-03 0.0 
0.0 0.0 -1.028878458874e-03 
-8.771550322174e-05 -5.128346968204e-06 0.0 
-5.128346968204e-06 5.622743997178e-04 0.0 
0.0 0.0 -1.015871403443e-04 
4.433715841111e-04 2.816871615332e-03 0.0 
2.816871615332e-03 2.019333509946e-03 0.0 
0.0 0.0 -4.649757541953e-04 
5.317186377969e-04 2.795082311520e-03 0.0 
2.795082311520e-03 2.228172385015e-03 0.0 
0.0 0.0 -5.249394872960e-04 
-6.758250229365e-04 -7.301437372159e-05 0.0 
-7.301437372159e-05 4.694223356328e-03 0.0 
0.0 0.0 -7.181710532390e-04 
-1.095309768585e-03 -2.099324022586e-04 0.0 
-2.099324022586e-04 7.373113916822e-03 0.0 
0.0 0.0 -1.095076276885e-03 
-2.412241836648e-04 1.824271338485e-04 0.0 
1.824271338485e-04 1.391269291466e-03 0.0 
0.0 0.0 -2.576475407671e-04 
7.906165306463e-04 1.995697943298e-04 0.0 
1.995697943298e-04 5.025786867262e-03 0.0 
0.0 0.0 -8.233907230283e-04 
-7.709980970025e-04 -2.344526007542e-04 0.0 
-2.344526007542e-04 5.001364750652e-03 0.0 
0.0 0.0 -7.763349569542e-04 
5.031211690079e-04 8.420080626192e-04 0.0 
8.420080626192e-04 2.482914323773e-03 0.0 
0.0 0.0 -5.576783925304e-04 
8.430633587950e-04 1.365382726900e-04 0.0 
1.365382726900e-04 4.770605597523e-03 0.0 
0.0 0.0 -8.056666352272e-04 
-1.328137378895e-04 -1.926409820628e-04 0.0 
-1.926409820628e-04 5.524811366159e-04 0.0 
0.0 0.0 -1.250635456846e-04 
-1.037748486931e-03 2.025826416299e-04 0.0 
2.025826416299e-04 6.894254509779e-03 0.0 
0.0 0.0 -1.040010908530e-03 
-9.586550230840e-05 6.862947183806e-05 0.0 
6.862947183806e-05 5.313753155377e-04 0.0 
0.0 0.0 -1.007187892234e-04 
-9.271435944397e-05 -1.719141451359e-05 0.0 
-1.719141451359e-05 6.730591895693e-04 0.0 
0.0 0.0 -1.819418517600e-04 
-2.253085072331e-04 5.875989389162e-04 0.0 
5.875989389162e-04 1.621690925964e-03 0.0 
0.0 0.0 -2.873666149908e-04 
3.109078977615e-04 -4.369300372913e-05 0.0 
-4.369300372913e-05 1.648984278054e-03 0.0 
0.0 0.0 -3.935955730116e-04 
-1.073504857728e-03 -1.857694457952e-04 0.0 
-1.857694457952e-04 7.207934761623e-03 0.0 
0.0 0.0 -1.073797489760e-03 
2.488788027798e-04 -3.684266774725e-04 0.0 
-3.684266774725e-04 1.679617143984e-03 0.0 
0.0 0.0 -3.637595386041e-04 
3.868965297850e-04 1.151748662853e-03 0.0 
1.151748662853e-03 1.301730153051e-03 0.0 
0.0 0.0 -3.432832105208e-04 
9.159703901313e-04 -7.690610272440e-04 0.0 
-7.690610272440e-04 5.560332500348e-04 0.0 
0.0 0.0 -2.922710279673e-04 
-8.438480487230e-05 1.004999678396e-04 0.0 
1.004999678396e-04 1.270467955980e-03 0.0 
0.0 0.0 -2.614315927221e-04 
7.249580486763e-04 7.475194645342e-04 0.0 
7.475194645342e-04 5.452560235243e-03 0.0 
0.0 0.0 -8.684970362492e-04 
-7.717946648580e-04 -1.881039575464e-04 0.0 
-1.881039575464e-04 5.076611576995e-03 0.0 
0.0 0.0 -7.687972329812e-04 
-6.517975943923e-04 2.439488434965e-04 0.0 
2.439488434965e-04 7.624266069974e-03 0.0 
0.0 0.0 -8.396648178750e-04 
0.0 0.0 0.0 
0.0 0.0 0.0 
0.0 0.0 0.0 
5.398259943897e-04 1.270532902018e-03 0.0 
1.270532902018e-03 1.516722882334e-03 0.0 
0.0 0.0 -4.044045206172e-04 
7.295335586363e-04 9.624023111139e-04 0.0 
9.624023111139e-04 2.639517645457e-03 0.0 
0.0 0.0 -6.230907113744e-04 
3.025619385986e-06 2.736756761593e-03 0.0 
2.736756761593e-03 3.036361464602e-03 0.0 
0.0 0.0 -5.709397776106e-04 
9.131340701777e-04 6.277493261680e-04 0.0 
6.277493261680e-04 4.861513089411e-03 0.0 
0.0 0.0 -8.322604585955e-04 
-6.111935144310e-04 2.179573136061e-04 0.0 
2.179573136061e-04 7.757501427424e-03 0.0 
0.0 0.0 -8.517717775681e-04 
-1.029713153133e-03 -2.056143237118e-04 0.0 
-2.056143237118e-04 6.913851891301e-03 0.0 
0.0 0.0 -1.029499106509e-03 
2.217953999035e-04 1.376533629879e-04 0.0 
1.376533629879e-04 2.232460179305e-03 0.0 
0.0 0.0 -4.564841486881e-04 
6.090889449771e-04 3.603553953040e-04 0.0 
3.603553953040e-04 5.584548598314e-03 0.0 
0.0 0.0 -8.608177915664e-04 
-9.573017959095e-04 2.518965758079e-04 0.0 
2.518965758079e-04 6.119426349276e-03 0.0 
0.0 0.0 -7.542612065004e-04 
-7.570218913511e-04 -1.787629418727e-04 0.0 
-1.787629418727e-04 4.987297939344e-03 0.0 
0.0 0.0 -7.537083776970e-04 
-9.994998658216e-04 2.045048337303e-04 0.0 
2.045048337303e-04 6.629510214408e-03 0.0 
0.0 0.0 -1.003200534345e-03 
2.873570015220e-04 1.025718122833e-03 0.0 
1.025718122833e-03 6.614434383288e-03 0.0 
0.0 0.0 -9.896932360232e-04 
7.524008547963e-04 5.271410101917e-04 0.0 
5.271410101917e-04 2.683108058988e-03 0.0 
0.0 0.0 -6.206208101913e-04 
3.281346004588e-04 8.658297442459e-04 0.0 
8.658297442459e-04 1.641754996869e-03 0.0 
0.0 0.0 -3.752687577596e-04 
-8.718273414275e-04 -1.903070125198e-04 0.0 
-1.903070125198e-04 5.767456116596e-03 0.0 
0.0 0.0 -8.662621843288e-04 
-1.258393523827e-03 1.758785698165e-04 0.0 
1.758785698165e-04 8.996089420825e-03 0.0 
0.0 0.0 -1.278354952816e-03 
-4.373055193483e-04 3.519610956103e-04 0.0 
3.519610956103e-04 4.612389760654e-03 0.0 
0.0 0.0 -7.453270327204e-04 
2.920118748458e-03 1.401746152228e-03 0.0 
1.401746152228e-03 1.444251702302e-03 0.0 
0.0 0.0 -7.768443034385e-04 
-8.403853568470e-04 -5.224028630905e-05 0.0 
-5.224028630905e-05 5.665674692091e-03 0.0 
0.0 0.0 -8.293613651800e-04 
1.024225331416e-04 -3.535268661680e-04 0.0 
-3.535268661680e-04 9.931061073229e-04 0.0 
0.0 0.0 -2.161141481901e-04 
-8.208799096497e-04 1.843133829192e-04 0.0 
1.843133829192e-04 5.271529166893e-03 0.0 
0.0 0.0 -8.060563724883e-04 
3.001320194409e-04 6.083990851527e-04 0.0 
6.083990851527e-04 2.087286957221e-03 0.0 
0.0 0.0 -4.590591740919e-04 
-1.109309691823e-04 2.643415698708e-04 0.0 
2.643415698708e-04 1.676769317161e-03 0.0 
0.0 0.0 -3.229397045850e-04 
1.906365806975e-04 -4.300608041394e-04 0.0 
-4.300608041394e-04 8.696800533382e-04 0.0 
0.0 0.0 -2.426597671045e-04 
-1.076566808285e-03 1.948027566312e-04 0.0 
1.948027566312e-04 7.152792080089e-03 0.0 
0.0 0.0 -1.075985979751e-03 
-8.366892688468e-04 -1.821112197861e-04 0.0 
-1.821112197861e-04 5.525859000099e-03 0.0 
0.0 0.0 -8.312490730234e-04 
2.058191088382e-04 1.097877160633e-03 0.0 
1.097877160633e-03 2.673434385946e-03 0.0 
0.0 0.0 -5.429493831729e-04 
-1.110558394075e-03 -1.920281890810e-04 0.0 
-1.920281890810e-04 7.461731149687e-03 0.0 
0.0 0.0 -1.109763131677e-03 
-1.054698518121e-03 -2.087025362573e-04 0.0 
-2.087025362573e-04 7.108835153234e-03 0.0 
0.0 0.0 -1.057773507355e-03 
-7.924197653506e-04 -1.785979394266e-04 0.0 
-1.785979394266e-04 5.231483760846e-03 0.0 
0.0 0.0 -7.887050335656e-04 
-7.157912962460e-04 1.180318309641e-04 0.0 
1.180318309641e-04 7.696438075444e-03 0.0 
0.0 0.0 -8.656880735516e-04 
3.002643990254e-03 1.649605415634e-03 0.0 
1.649605415634e-03 1.471068138103e-03 0.0 
0.0 0.0 -8.046787416243e-04 
-8.263277637735e-04 -1.832084157212e-04 0.0 
-1.832084157212e-04 5.471677470531e-03 0.0 
0.0 0.0 -8.238265297874e-04 
2.596718881062e-04 6.932043346837e-04 0.0 
6.932043346837e-04 3.453578890119e-03 0.0 
0.0 0.0 -6.656476441012e-04 
2.780215770711e-03 1.439029580689e-03 0.0 
1.439029580689e-03 1.949157459373e-03 0.0 
0.0 0.0 -8.153700231661e-04 
1.745840749351e-04 3.574631989268e-04 0.0 
3.574631989268e-04 1.772940758682e-03 0.0 
0.0 0.0 -3.865807678710e-04 
-8.089876515704e-04 4.490290024565e-05 0.0 
4.490290024565e-05 5.014601975749e-03 0.0 
0.0 0.0 -7.898058234521e-04 
1.602629818765e-03 7.331584118290e-04 0.0 
7.331584118290e-04 2.002242359030e-03 0.0 
0.0 0.0 -6.486359607860e-04 
2.003254488876e-03 -2.909113132158e-04 0.0 
-2.909113132158e-04 5.232458795888e-04 0.0 
0.0 0.0 -4.681053320140e-04 
-1.032293230965e-03 1.946996800783e-04 0.0 
1.946996800783e-04 6.836459352288e-03 0.0 
0.0 0.0 -1.032318248600e-03 
-4.933492965950e-05 -2.981330854887e-05 0.0 
-2.981330854887e-05 2.232237160482e-04 0.0 
0.0 0.0 -4.491607815645e-05 
-8.460396934351e-04 -1.994951239522e-04 0.0 
-1.994951239522e-04 5.571843201912e-03 0.0 
0.0 0.0 -8.386390795737e-04 
5.403611525731e-04 5.879260358845e-04 0.0 
5.879260358845e-04 2.015119727858e-03 0.0 
0.0 0.0 -4.870240021111e-04 
3.617334377559e-04 6.359036310088e-04 0.0 
6.359036310088e-04 1.764190917264e-03 0.0 
0.0 0.0 -4.015254440178e-04 
1.462481865970e-04 -7.870930745799e-05 0.0 
-7.870930745799e-05 1.878765541213e-03 0.0 
0.0 0.0 -3.834586606452e-04 
-9.010939454830e-04 1.820631251066e-04 0.0 
1.820631251066e-04 5.900115668490e-03 0.0 
0.0 0.0 -8.965110541436e-04 
-1.535639171873e-04 -1.171137565838e-04 0.0 
-1.171137565838e-04 9.290832055630e-04 0.0 
0.0 0.0 -1.609926926485e-04 
1.450054055542e-04 2.119577998214e-03 0.0 
2.119577998214e-03 2.845408532084e-03 0.0 
0.0 0.0 -5.613503766092e-04 
2.619580965570e-03 1.580452754789e-03 0.0 
1.580452754789e-03 2.214173234736e-03 0.0 
0.0 0.0 -8.245783662149e-04 
-8.424168210171e-04 1.809379834970e-04 0.0 
1.809379834970e-04 5.460364861261e-03 0.0 
0.0 0.0 -8.336838631977e-04 
-8.483140592107e-04 -2.570000340293e-05 0.0 
-2.570000340293e-05 5.646419876325e-03 0.0 
0.0 0.0 -8.301023967811e-04 
-2.301022018194e-04 1.896537110149e-04 0.0 
1.896537110149e-04 1.205962353600e-03 0.0 
0.0 0.0 -2.187087652219e-04 
2.021992129920e-03 2.140454289084e-04 0.0 
2.140454289084e-04 4.352252495200e-04 0.0 
0.0 0.0 -4.706942212664e-04 
1.949051167700e-03 -4.859319271926e-04 0.0 
-4.859319271926e-04 3.540058533694e-04 0.0 
0.0 0.0 -4.311372127493e-04 
3.080630667284e-04 2.849176199487e-03 0.0 
2.849176199487e-03 2.400231862266e-03 0.0 
0.0 0.0 -4.957039317942e-04 
-1.001539925556e-03 -2.124102205074e-04 0.0 
-2.124102205074e-04 6.704131800771e-03 0.0 
0.0 0.0 -1.000663671924e-03 
4.203385447522e-04 2.631292741873e-03 0.0 
2.631292741873e-03 2.650008493097e-03 0.0 
0.0 0.0 -5.577786207633e-04 
1.665572265654e-03 1.024680413946e-03 0.0 
1.024680413946e-03 1.651626669474e-03 0.0 
0.0 0.0 -6.151539951222e-04 
8.357348320665e-04 8.585738514400e-04 0.0 
8.585738514400e-04 2.315994392291e-03 0.0 
0.0 0.0 -5.868308051845e-04 
-2.691521273047e-04 -2.036688762200e-04 0.0 
-2.036688762200e-04 1.523725894567e-03 0.0 
0.0 0.0 -2.530049833111e-04 
4.551216913100e-04 1.070690035885e-03 0.0 
1.070690035885e-03 3.339857379932e-03 0.0 
0.0 0.0 -6.959382511914e-04 
-2.861043400588e-04 -1.894415141015e-04 0.0 
-1.894415141015e-04 1.663430798726e-03 0.0 
0.0 0.0 -2.788248838327e-04 
-5.060356935894e-04 1.225794597033e-03 0.0 
1.225794597033e-03 8.210484247391e-03 0.0 
0.0 0.0 -1.173179120543e-03 
1.224882103167e-04 2.148559844395e-03 0.0 
2.148559844395e-03 7.531015421019e-03 0.0 
0.0 0.0 -1.153755714213e-03 
-4.191293896243e-04 6.638716842591e-04 0.0 
6.638716842591e-04 4.696011879318e-03 0.0 
0.0 0.0 -7.755312068111e-04 
2.459215375246e-04 4.738752265957e-04 0.0 
4.738752265957e-04 1.925030005991e-03 0.0 
0.0 0.0 -4.232985079168e-04 
1.817927205487e-04 3.044861406960e-04 0.0 
3.044861406960e-04 1.733573770552e-03 0.0 
0.0 0.0 -3.659709354871e-04 
-8.573750887322e-04 1.858228230958e-04 0.0 
1.858228230958e-04 5.602884265534e-03 0.0 
0.0 0.0 -8.539191708179e-04 
2.280890142109e-05 5.316351460344e-05 0.0 
5.316351460344e-05 2.057529674557e-03 0.0 
0.0 0.0 -3.930530440640e-04 
1.991858705340e-03 -6.998956307253e-06 0.0 
-6.998956307253e-06 2.408295105425e-04 0.0 
0.0 0.0 -4.339875075689e-04 
-7.596321613464e-04 1.775287963431e-04 0.0 
1.775287963431e-04 4.918201734153e-03 0.0 
0.0 0.0 -7.563811545761e-04 
-1.287984799363e-03 -3.860068533034e-05 0.0 
-3.860068533034e-05 8.730948327736e-03 0.0 
0.0 0.0 -1.266640259566e-03 
5.302069447616e-04 7.175188320478e-04 0.0 
7.175188320478e-04 2.239399210418e-03 0.0 
0.0 0.0 -5.226246958029e-04 
2.387755143601e-03 1.941121799295e-03 0.0 
1.941121799295e-03 2.854450536486e-03 0.0 
0.0 0.0 -8.663515792680e-04 
1.400257718183e-04 7.091436321202e-04 0.0 
7.091436321202e-04 1.329776633167e-03 0.0 
0.0 0.0 -3.076624342134e-04 
-4.704639625524e-04 3.284895559681e-04 0.0 
3.284895559681e-04 8.025661375705e-03 0.0 
0.0 0.0 -9.315651922488e-04 
1.385384112507e-04 5.458096773453e-04 0.0 
5.458096773453e-04 1.868755902629e-03 0.0 
0.0 0.0 -3.959736908235e-04 
-7.861913752228e-04 1.858440032301e-04 0.0 
1.858440032301e-04 5.109311146391e-03 0.0 
0.0 0.0 -7.835188407616e-04 
-2.087818913162e-04 2.330337168071e-04 0.0 
2.330337168071e-04 1.542720362605e-03 0.0 
0.0 0.0 -2.855287480241e-04 
1.769540324727e-03 8.338288403913e-04 0.0 
8.338288403913e-04 3.302206674675e-03 0.0 
0.0 0.0 -8.067158354689e-04 
1.480694094166e-03 1.156805438914e-03 0.0 
1.156805438914e-03 2.048690321185e-03 0.0 
0.0 0.0 -6.516619296807e-04 
2.414932323628e-03 -7.594314420369e-05 0.0 
-7.594314420369e-05 -6.023525220348e-06 0.0 
0.0 0.0 -4.625367401933e-04 
-8.005133107045e-04 -1.849372706410e-04 0.0 
-1.849372706410e-04 5.279390117932e-03 0.0 
0.0 0.0 -7.963903837170e-04 
3.455659396998e-04 2.088447536605e-03 0.0 
2.088447536605e-03 7.297503143057e-03 0.0 
0.0 0.0 -1.119736816947e-03 
9.409270224304e-04 7.437017774184e-04 0.0 
7.437017774184e-04 1.994993734425e-03 0.0 
0.0 0.0 -5.510338386786e-04 
2.471132735556e-03 1.169226897845e-03 0.0 
1.169226897845e-03 2.421116672974e-03 0.0 
0.0 0.0 -8.147020622543e-04 
-1.653743350852e-04 -2.607160518881e-05 0.0 
-2.607160518881e-05 1.713842669253e-03 0.0 
0.0 0.0 -3.041533380165e-04 
-9.585285003453e-04 2.099575339621e-04 0.0 
2.099575339621e-04 6.326919234623e-03 0.0 
0.0 0.0 -9.576894438039e-04 
9.681814616652e-04 5.339848015443e-04 0.0 
5.339848015443e-04 4.591947632584e-03 0.0 
0.0 0.0 -8.148857706108e-04 
5.160312460222e-04 1.395467902473e-03 0.0 
1.395467902473e-03 1.673427725276e-03 0.0 
0.0 0.0 -4.109515902261e-04 
-9.327998617517e-04 -1.874311411833e-04 0.0 
-1.874311411833e-04 6.181670543660e-03 0.0 
0.0 0.0 -9.257128893455e-04 
2.028971563125e-04 1.604678831696e-03 0.0 
1.604678831696e-03 7.425196166640e-03 0.0 
0.0 0.0 -1.075798316596e-03 
6.336897434494e-04 5.059254938337e-04 0.0 
5.059254938337e-04 5.290134623346e-03 0.0 
0.0 0.0 -8.360547662874e-04 
3.768471785649e-04 2.270776402750e-03 0.0 
2.270776402750e-03 7.292646445146e-03 0.0 
0.0 0.0 -1.132175225865e-03 
-9.079440508188e-04 -2.097847460126e-04 0.0 
-2.097847460126e-04 6.119714420928e-03 0.0 
0.0 0.0 -9.196498359204e-04 
-1.050990778737e-03 -1.886314367517e-04 0.0 
-1.886314367517e-04 7.044669431277e-03 0.0 
0.0 0.0 -1.048263655743e-03 
-1.716371360339e-04 2.087445631819e-04 0.0 
2.087445631819e-04 1.964961015519e-03 0.0 
0.0 0.0 -3.491910591611e-04 
-7.374872672360e-04 -1.803640936936e-04 0.0 
-1.803640936936e-04 4.844525720206e-03 0.0 
0.0 0.0 -7.343713905235e-04 
-8.293244045423e-04 1.837550643812e-04 0.0 
1.837550643812e-04 5.409584064822e-03 0.0 
0.0 0.0 -8.263924940540e-04 
-8.620298851759e-04 -1.867239000810e-04 0.0 
-1.867239000810e-04 5.715504193618e-03 0.0 
0.0 0.0 -8.589723558544e-04 
-1.778395837931e-04 6.344924288616e-04 0.0 
6.344924288616e-04 4.145225152811e-03 0.0 
0.0 0.0 -7.101745248689e-04 
3.629673791110e-05 1.245226374734e-03 0.0 
1.245226374734e-03 7.581705774461e-03 0.0 
0.0 0.0 -1.048134913843e-03 
-8.655458594576e-04 1.438711959111e-04 0.0 
1.438711959111e-04 5.877137978370e-03 0.0 
0.0 0.0 -8.810748613436e-04 
-7.842175920213e-04 -1.730041151839e-04 0.0 
-1.730041151839e-04 5.148772658244e-03 0.0 
0.0 0.0 -7.763708431881e-04 
8.918963616406e-04 4.321250729863e-04 0.0 
4.321250729863e-04 2.326103988792e-03 0.0 
0.0 0.0 -5.843899590101e-04 
1.259776863112e-04 9.330988677976e-06 0.0 
9.330988677976e-06 1.450713863585e-03 0.0 
0.0 0.0 -3.280768480529e-04 
-6.088928582874e-04 1.184472378533e-03 0.0 
1.184472378533e-03 4.548383466155e-03 0.0 
0.0 0.0 -7.069124235890e-04 
6.115408073878e-04 1.570886583226e-03 0.0 
1.570886583226e-03 1.655102461572e-03 0.0 
0.0 0.0 -4.404772202000e-04 
-7.723719974628e-04 -4.140062150849e-05 0.0 
-4.140062150849e-05 5.256708913763e-03 0.0 
0.0 0.0 -7.696142143080e-04 
2.176448623066e-03 -4.789754193660e-04 0.0 
-4.789754193660e-04 3.056889455753e-04 0.0 
0.0 0.0 -4.595640944490e-04 
4.995174389965e-04 2.569664486618e-04 0.0 
2.569664486618e-04 2.333339431744e-03 0.0 
0.0 0.0 -5.202658224677e-04 
-1.068256360121e-03 2.066714883780e-04 0.0 
2.066714883780e-04 7.094366600133e-03 0.0 
0.0 0.0 -1.069052450572e-03 
4.729941977732e-04 9.590435204325e-04 0.0 
9.590435204325e-04 1.867279566485e-03 0.0 
0.0 0.0 -4.372567615832e-04 
-7.685639283948e-04 1.832765112524e-04 0.0 
1.832765112524e-04 4.976704183313e-03 0.0 
0.0 0.0 -7.640689829422e-04 
2.323892244139e-03 1.339323324829e-03 0.0 
1.339323324829e-03 2.656242834863e-03 0.0 
0.0 0.0 -8.245822204948e-04 
1.434768652103e-03 2.998004333555e-04 0.0 
2.998004333555e-04 2.974245716992e-03 0.0 
0.0 0.0 -7.430357735093e-04 
-1.313165642148e-04 8.757199868946e-04 0.0 
8.757199868946e-04 7.739384704216e-03 0.0 
0.0 0.0 -1.010648188498e-03 
-2.490551557110e-04 2.507595893862e-03 0.0 
2.507595893862e-03 3.798738461288e-03 0.0 
0.0 0.0 -6.390224077203e-04 
1.210834968012e-03 3.031025260195e-04 0.0 
3.031025260195e-04 1.072198861821e-03 0.0 
0.0 0.0 -4.422638729430e-04 
1.277435817245e-03 -3.337430027390e-04 0.0 
-3.337430027390e-04 1.864118408975e-03 0.0 
0.0 0.0 -5.691257024010e-04 
8.436365713740e-05 1.389758074146e-03 0.0 
1.389758074146e-03 2.132318309791e-03 0.0 
0.0 0.0 -4.184705811166e-04 
7.615483006253e-04 2.195400895450e-03 0.0 
2.195400895450e-03 1.360376046588e-03 0.0 
0.0 0.0 -4.141309408042e-04 
-1.124019592153e-03 -2.007331567345e-04 0.0 
-2.007331567345e-04 7.565647962713e-03 0.0 
0.0 0.0 -1.123886314723e-03 
-8.186901870458e-04 -1.867352575880e-04 0.0 
-1.867352575880e-04 5.417532343352e-03 0.0 
0.0 0.0 -8.161479701220e-04 
2.880986545891e-05 2.688209077903e-03 0.0 
2.688209077903e-03 3.080188076303e-03 0.0 
0.0 0.0 -5.672387349321e-04 
-7.059258560286e-04 1.849400511515e-04 0.0 
1.849400511515e-04 4.547028472385e-03 0.0 
0.0 0.0 -7.023794137935e-04 
-3.094951129589e-04 5.529176563703e-04 0.0 
5.529176563703e-04 7.877345455782e-03 0.0 
0.0 0.0 -9.618856631089e-04 
9.267233086356e-05 5.666761093478e-04 0.0 
5.666761093478e-04 7.047961684322e-03 0.0 
0.0 0.0 -9.444181159568e-04 
-1.122100566517e-03 1.986464603036e-04 0.0 
1.986464603036e-04 7.484284741315e-03 0.0 
0.0 0.0 -1.126590436115e-03 
-1.036201990782e-03 -1.951775890560e-04 0.0 
-1.951775890560e-04 6.963709654535e-03 0.0 
0.0 0.0 -1.037522200811e-03 
1.506487601438e-03 -1.210594561424e-05 0.0 
-1.210594561424e-05 2.808997247470e-03 0.0 
0.0 0.0 -7.270478349389e-04 
2.083035524086e-04 1.502056489659e-03 0.0 
1.502056489659e-03 3.012238228022e-03 0.0 
0.0 0.0 -5.842812205453e-04 
1.771187046080e-04 1.594189310052e-05 0.0 
1.594189310052e-05 2.067121149535e-03 0.0 
0.0 0.0 -4.203166018451e-04 
5.329129919279e-04 1.372267835174e-04 0.0 
1.372267835174e-04 2.091401886520e-03 0.0 
0.0 0.0 -4.843489805398e-04 
-7.600374130197e-04 -1.354506785416e-04 0.0 
-1.354506785416e-04 5.150293758881e-03 0.0 
0.0 0.0 -7.808727949117e-04 
1.900904006816e-03 5.990917982335e-04 0.0 
5.990917982335e-04 3.088565442744e-03 0.0 
0.0 0.0 -7.942320005457e-04 
2.966368114215e-04 -2.815522936617e-04 0.0 
-2.815522936617e-04 3.500400165816e-03 0.0 
0.0 0.0 -6.791557070493e-04 
-1.137984490542e-03 2.026763925672e-04 0.0 
2.026763925672e-04 7.560494271962e-03 0.0 
0.0 0.0 -1.134236807130e-03 
1.299341363222e-03 -2.107389889197e-04 0.0 
-2.107389889197e-04 1.055833004071e-03 0.0 
0.0 0.0 -4.395655422792e-04 
-1.381005619893e-05 7.117555579596e-04 0.0 
7.117555579596e-04 3.770096487568e-03 0.0 
0.0 0.0 -6.750378637492e-04 
-7.938192706807e-04 1.817389384797e-04 0.0 
1.817389384797e-04 5.160116736331e-03 0.0 
0.0 0.0 -7.913284153978e-04 
5.730649359573e-06 7.709231695108e-04 0.0 
7.709231695108e-04 3.369550437193e-03 0.0 
0.0 0.0 -6.122259156574e-04 
2.130478985111e-04 2.206646147730e-03 0.0 
2.206646147730e-03 7.478623017985e-03 0.0 
0.0 0.0 -1.135829497341e-03 
-1.987451030827e-04 1.766299601579e-03 0.0 
1.766299601579e-03 7.858794495019e-03 0.0 
0.0 0.0 -1.158944052244e-03 
-1.187061733876e-03 -3.712583892064e-05 0.0 
-3.712583892064e-05 8.362533488369e-03 0.0 
0.0 0.0 -1.134575157880e-03 
1.329252276571e-03 3.030001188538e-05 0.0 
3.030001188538e-05 3.344096156204e-03 0.0 
0.0 0.0 -7.473793744079e-04 
-1.112341827327e-03 1.928139267360e-04 0.0 
1.928139267360e-04 7.404901105712e-03 0.0 
0.0 0.0 -1.112065035246e-03 
5.986502219695e-04 1.654045156685e-03 0.0 
1.654045156685e-03 1.299889318984e-03 0.0 
0.0 0.0 -3.785953687517e-04 
1.016694235575e-03 3.059333153929e-04 0.0 
3.059333153929e-04 1.989767865105e-03 0.0 
0.0 0.0 -5.483018170244e-04 
-1.621806596014e-04 -1.273564535210e-04 0.0 
-1.273564535210e-04 1.811669056737e-03 0.0 
0.0 0.0 -3.192951451658e-04 
5.080158559878e-05 1.884809459210e-03 0.0 
1.884809459210e-03 3.223499165740e-03 0.0 
0.0 0.0 -5.936226173563e-04 
-7.754418230907e-04 -1.787983897596e-05 0.0 
-1.787983897596e-05 4.998811631156e-03 0.0 
0.0 0.0 -7.914980036671e-04 
-9.191665137011e-04 2.140245341565e-04 0.0 
2.140245341565e-04 6.074527525348e-03 0.0 
0.0 0.0 -9.214502702889e-04 
-1.162745077727e-04 4.246938751513e-04 0.0 
4.246938751513e-04 7.336052532230e-03 0.0 
0.0 0.0 -9.163116945136e-04 
-1.117053718009e-03 2.235891984901e-04 0.0 
2.235891984901e-04 7.392289556403e-03 0.0 
0.0 0.0 -1.102573833433e-03 
-8.719756485575e-04 1.796746755414e-04 0.0 
1.796746755414e-04 5.704231125349e-03 0.0 
0.0 0.0 -8.687609488834e-04 
-8.934000445298e-04 1.842629385947e-04 0.0 
1.842629385947e-04 5.848617048582e-03 0.0 
0.0 0.0 -8.891947744737e-04 
1.176777331695e-04 2.775582355448e-04 0.0 
2.775582355448e-04 1.611409758513e-03 0.0 
0.0 0.0 -3.496852078947e-04 
-1.730179310379e-04 3.799515299488e-05 0.0 
3.799515299488e-05 9.814996314958e-04 0.0 
0.0 0.0 -1.610244214183e-04 
6.014047667981e-04 1.028110694269e-03 0.0 
1.028110694269e-03 2.979664358028e-03 0.0 
0.0 0.0 -6.594106982652e-04 
-1.414547115315e-05 6.972183769097e-04 0.0 
6.972183769097e-04 4.146201242534e-03 0.0 
0.0 0.0 -7.376142925499e-04 
4.760186887032e-04 6.769143546141e-04 0.0 
6.769143546141e-04 3.387960052516e-03 0.0 
0.0 0.0 -6.931905564144e-04 
-1.927200046455e-04 1.907407866213e-04 0.0 
1.907407866213e-04 9.362068114562e-04 0.0 
0.0 0.0 -1.839988823918e-04 
-8.553897316391e-04 7.952460625503e-05 0.0 
7.952460625503e-05 5.374666730048e-03 0.0 
0.0 0.0 -8.462285223656e-04 
6.397634067782e-05 -3.295429614166e-04 0.0 
-3.295429614166e-04 1.461184202443e-03 0.0 
0.0 0.0 -2.972104253142e-04 
2.263461542619e-04 7.265378150950e-04 0.0 
7.265378150950e-04 1.994243690466e-03 0.0 
0.0 0.0 -4.314049239902e-04 
-8.088244100952e-04 2.245528674268e-04 0.0 
2.245528674268e-04 8.080351784754e-03 0.0 
0.0 0.0 -9.386881445244e-04 
2.001960063754e-03 1.258976088902e-03 0.0 
1.258976088902e-03 3.457680680330e-03 0.0 
0.0 0.0 -8.582651574072e-04 
-8.038658590279e-04 1.841151985618e-04 0.0 
1.841151985618e-04 5.090192522503e-03 0.0 
0.0 0.0 -7.790007367612e-04 
7.978477150247e-04 1.054428361108e-04 0.0 
1.054428361108e-04 3.543764417954e-04 0.0 
0.0 0.0 -2.176483604987e-04 
-3.428425358325e-04 7.411975133210e-04 0.0 
7.411975133210e-04 4.245808402908e-03 0.0 
0.0 0.0 -7.126719623954e-04 
6.191121256860e-04 6.107253705437e-04 0.0 
6.107253705437e-04 3.026495508800e-03 0.0 
0.0 0.0 -6.569982659716e-04 
-8.980808506786e-04 -1.936520147713e-04 0.0 
-1.936520147713e-04 5.958242186783e-03 0.0 
0.0 0.0 -8.940630110299e-04 
3.125609921203e-04 1.969168072426e-03 0.0 
1.969168072426e-03 7.326131329296e-03 0.0 
0.0 0.0 -1.104606313521e-03 
-7.403554818969e-04 1.844120078152e-04 0.0 
1.844120078152e-04 4.792048619543e-03 0.0 
0.0 0.0 -7.366500567794e-04 
-8.545868996671e-04 -1.887615407859e-04 0.0 
-1.887615407859e-04 5.662533660862e-03 0.0 
0.0 0.0 -8.513774089097e-04 
5.287630629657e-04 6.331524884081e-05 0.0 
6.331524884081e-05 3.198501476153e-03 0.0 
0.0 0.0 -6.837695253816e-04 
-1.105187862003e-03 1.994006530664e-04 0.0 
1.994006530664e-04 7.356411437885e-03 0.0 
0.0 0.0 -1.105258581891e-03 
1.235354199742e-03 3.406102675889e-04 0.0 
3.406102675889e-04 3.540152236301e-03 0.0 
0.0 0.0 -7.626019212884e-04 
2.750465698779e-04 1.747439266686e-03 0.0 
1.747439266686e-03 7.379577320875e-03 0.0 
0.0 0.0 -1.089636605639e-03 
1.762329792907e-04 1.988214922094e-03 0.0 
1.988214922094e-03 7.210461241316e-03 0.0 
0.0 0.0 -1.147738765353e-03 
-1.399771923345e-04 1.469936663047e-03 0.0 
1.469936663047e-03 7.575312767595e-03 0.0 
0.0 0.0 -1.244650244496e-03 
1.535009248358e-04 1.983035080390e-03 0.0 
1.983035080390e-03 7.210953024854e-03 0.0 
0.0 0.0 -1.193748472481e-03 
-9.278953530000e-04 1.830493215193e-04 0.0 
1.830493215193e-04 6.094694774967e-03 0.0 
0.0 0.0 -9.244680137506e-04 
-1.104382085207e-03 -1.844352853961e-04 0.0 
-1.844352853961e-04 7.413030585339e-03 0.0 
0.0 0.0 -1.103002250422e-03 
-1.155867516543e-03 2.372058407431e-04 0.0 
2.372058407431e-04 7.654592561366e-03 0.0 
0.0 0.0 -1.109413591402e-03 
-4.318319710762e-05 1.074700482039e-03 0.0 
1.074700482039e-03 3.354602379562e-03 0.0 
0.0 0.0 -6.147330147620e-04 
5.154488221764e-05 1.537673386632e-03 0.0 
1.537673386632e-03 3.098023236342e-03 0.0 
0.0 0.0 -5.872917534094e-04 
-5.992928012086e-06 -2.680620161619e-04 0.0 
-2.680620161619e-04 3.583295328301e-03 0.0 
0.0 0.0 -6.436934073013e-04 
-1.134641282245e-03 -2.006695635977e-04 0.0 
-2.006695635977e-04 7.623716292157e-03 0.0 
0.0 0.0 -1.131852245309e-03 
1.223869063167e-04 1.409216150118e-03 0.0 
1.409216150118e-03 7.492391735595e-03 0.0 
0.0 0.0 -1.061625945357e-03 
-1.140227253108e-03 1.951224764734e-04 0.0 
1.951224764734e-04 7.603009729401e-03 0.0 
0.0 0.0 -1.141180801552e-03 
2.390667723849e-03 1.352287247476e-03 0.0 
1.352287247476e-03 2.702603756533e-03 0.0 
0.0 0.0 -8.368631840286e-04 
-1.140612365318e-03 -1.825914620366e-04 0.0 
-1.825914620366e-04 7.661221724928e-03 0.0 
0.0 0.0 -1.138864741757e-03 
1.797827073908e-03 2.342994591829e-03 0.0 
2.342994591829e-03 3.801681084112e-03 0.0 
0.0 0.0 -9.398879428080e-04 
1.039246662362e-04 1.048566649014e-03 0.0 
1.048566649014e-03 3.749932755297e-03 0.0 
0.0 0.0 -7.049739924763e-04 
-1.587182979541e-04 1.600067291640e-03 0.0 
1.600067291640e-03 3.366783115554e-03 0.0 
0.0 0.0 -5.967387615352e-04 
2.088291845541e-04 6.377523689936e-04 0.0 
6.377523689936e-04 1.419014343364e-03 0.0 
0.0 0.0 -3.333553686509e-04 
-1.287482303742e-03 9.400486473719e-05 0.0 
9.400486473719e-05 8.494651886702e-03 0.0 
0.0 0.0 -1.282213402295e-03 
1.043989236643e-04 1.132708382205e-03 0.0 
1.132708382205e-03 3.002582438526e-03 0.0 
0.0 0.0 -5.792479259103e-04 
4.280198387883e-04 1.504013923758e-03 0.0 
1.504013923758e-03 6.345642762203e-03 0.0 
0.0 0.0 -1.021333025019e-03 
2.155077547215e-04 7.154559461915e-05 0.0 
7.154559461915e-05 3.289569665359e-03 0.0 
0.0 0.0 -6.465396845166e-04 
1.863184699930e-03 -5.967573017870e-04 0.0 
-5.967573017870e-04 3.972185636904e-04 0.0 
0.0 0.0 -4.222915044375e-04 
-4.663378610036e-04 3.224111081272e-04 0.0 
3.224111081272e-04 7.430706880294e-03 0.0 
0.0 0.0 -9.141369099503e-04 
2.639607328032e-04 8.868152798537e-04 0.0 
8.868152798537e-04 2.160772733558e-03 0.0 
0.0 0.0 -4.669824892859e-04 
1.122180578060e-04 1.846624027486e-03 0.0 
1.846624027486e-03 7.258288105778e-03 0.0 
0.0 0.0 -1.132205324349e-03 
-9.445217759119e-04 5.049331247668e-04 0.0 
5.049331247668e-04 8.070907151452e-03 0.0 
0.0 0.0 -1.203575699514e-03 
-8.495078228820e-04 1.843107655012e-04 0.0 
1.843107655012e-04 5.547072023185e-03 0.0 
0.0 0.0 -8.462542048450e-04 
-9.255048927817e-05 -2.197953205319e-06 0.0 
-2.197953205319e-06 3.085086574748e-04 0.0 
0.0 0.0 -9.255350065570e-05 
-4.033009433256e-05 1.509744336165e-03 0.0 
1.509744336165e-03 7.392237898182e-03 0.0 
0.0 0.0 -1.099004724173e-03 
-3.937393356457e-04 3.726542931133e-04 0.0 
3.726542931133e-04 7.362089650265e-03 0.0 
0.0 0.0 -9.327543429835e-04 
2.168232777118e-03 -2.695511122130e-04 0.0 
-2.695511122130e-04 1.409106791685e-05 0.0 
0.0 0.0 -4.253660281670e-04 
2.110194837649e-03 1.113350679221e-03 0.0 
1.113350679221e-03 3.144342373407e-03 0.0 
0.0 0.0 -8.359041422944e-04 
-1.795252560864e-04 8.005703180152e-04 0.0 
8.005703180152e-04 7.766563208690e-03 0.0 
0.0 0.0 -9.986338462998e-04 
0.0 0.0 0.0 
0.0 0.0 0.0 
0.0 0.0 0.0 
8.902821264422e-05 1.053816763510e-03 0.0 
1.053816763510e-03 3.391405902400e-03 0.0 
0.0 0.0 -6.425506931502e-04 
-8.851411761515e-04 1.851869312966e-04 0.0 
1.851869312966e-04 5.794563189636e-03 0.0 
0.0 0.0 -8.816033652580e-04 
-7.568815917942e-04 2.725535749029e-04 0.0 
2.725535749029e-04 5.243568563052e-03 0.0 
0.0 0.0 -8.109139232486e-04 
-8.225202755535e-04 1.881518984198e-04 0.0 
1.881518984198e-04 5.356080317152e-03 0.0 
0.0 0.0 -8.186613860469e-04 
4.139120745635e-04 9.604716902637e-04 0.0 
9.604716902637e-04 1.427690226675e-03 0.0 
0.0 0.0 -3.689119447714e-04 
-1.967329399330e-04 1.179770897955e-03 0.0 
1.179770897955e-03 7.520285768123e-03 0.0 
0.0 0.0 -1.069733761491e-03 
1.774352326623e-03 5.627804920552e-04 0.0 
5.627804920552e-04 1.614437444335e-03 0.0 
0.0 0.0 -6.123778370826e-04 
-2.202070906780e-04 -1.755376406009e-04 0.0 
-1.755376406009e-04 1.255756531969e-03 0.0 
0.0 0.0 -2.173296945085e-04 
-5.660598477450e-04 1.260491613323e-04 0.0 
1.260491613323e-04 7.756287689146e-03 0.0 
0.0 0.0 -8.594663230080e-04 
-1.022272037246e-04 4.922820238372e-06 0.0 
4.922820238372e-06 5.965869288915e-04 0.0 
0.0 0.0 -1.019437782286e-04 
-5.857979343560e-04 5.905344575987e-04 0.0 
5.905344575987e-04 4.218311387157e-03 0.0 
0.0 0.0 -6.678899790657e-04 
2.839182993343e-04 -2.522616580445e-04 0.0 
-2.522616580445e-04 6.114597797418e-04 0.0 
0.0 0.0 -2.365401520142e-04 
-7.006812897949e-04 5.227069326362e-04 0.0 
5.227069326362e-04 4.580852927293e-03 0.0 
0.0 0.0 -7.094882865497e-04 
-3.885449111600e-04 4.292473328921e-04 0.0 
4.292473328921e-04 7.934350428045e-03 0.0 
0.0 0.0 -9.504189582562e-04 
-3.424099199686e-04 9.217147485829e-04 0.0 
9.217147485829e-04 7.676973661452e-03 0.0 
0.0 0.0 -1.043768160757e-03 
-8.673920198819e-04 1.847071888205e-04 0.0 
1.847071888205e-04 5.656037287956e-03 0.0 
0.0 0.0 -8.613793510407e-04 
-1.969643249742e-04 -2.643595705593e-05 0.0 
-2.643595705593e-05 7.486662135306e-04 0.0 
0.0 0.0 -1.793976806842e-04 
-1.826266447966e-04 1.955672024510e-04 0.0 
1.955672024510e-04 9.200601904336e-04 0.0 
0.0 0.0 -1.838036673156e-04 
-2.285406901090e-04 3.905538861934e-05 0.0 
3.905538861934e-05 1.367983948819e-03 0.0 
0.0 0.0 -2.179364692381e-04 
-7.200162450861e-05 -7.643364266513e-05 0.0 
-7.643364266513e-05 6.327238142731e-03 0.0 
0.0 0.0 -8.221159748042e-04 
-7.703836607526e-04 2.904011669623e-05 0.0 
2.904011669623e-05 5.271332940567e-03 0.0 
0.0 0.0 -7.704300227928e-04 
-8.168157235620e-04 -2.113983721698e-04 0.0 
-2.113983721698e-04 5.355765378531e-03 0.0 
0.0 0.0 -8.109332722942e-04 
-4.788769745322e-04 6.977655806822e-04 0.0 
6.977655806822e-04 7.797692296792e-03 0.0 
0.0 0.0 -1.016856455186e-03 
-7.906151483404e-04 -4.272528123304e-05 0.0 
-4.272528123304e-05 5.268742702063e-03 0.0 
0.0 0.0 -7.720444664677e-04 
-6.676128338116e-04 9.703461292204e-04 0.0 
9.703461292204e-04 8.367127910564e-03 0.0 
0.0 0.0 -1.202493164053e-03 
1.950059901165e-03 2.558520678484e-03 0.0 
2.558520678484e-03 3.737295616414e-03 0.0 
0.0 0.0 -9.350704665552e-04 
-8.942284646778e-04 2.014665993211e-04 0.0 
2.014665993211e-04 5.869620442183e-03 0.0 
0.0 0.0 -8.907448815977e-04 
7.883686914223e-04 2.633921202655e-03 0.0 
2.633921202655e-03 1.522620989284e-03 0.0 
0.0 0.0 -4.477608806526e-04 
2.232926669682e-03 1.507128528229e-03 0.0 
1.507128528229e-03 2.959424802641e-03 0.0 
0.0 0.0 -8.449881899524e-04 
-2.577847725915e-04 -1.532798228525e-04 0.0 
-1.532798228525e-04 1.768328750317e-03 0.0 
0.0 0.0 -2.938158648993e-04 
-6.001696754674e-04 5.073984901199e-04 0.0 
5.073984901199e-04 7.907373632781e-03 0.0 
0.0 0.0 -9.911387740222e-04 
1.726629293579e-04 2.023620319659e-03 0.0 
2.023620319659e-03 7.192225753919e-03 0.0 
0.0 0.0 -1.169156816643e-03 
3.124458421196e-05 1.752755355110e-03 0.0 
1.752755355110e-03 7.385443117006e-03 0.0 
0.0 0.0 -1.220815148088e-03 
1.089656942181e-03 -2.161480098428e-05 0.0 
-2.161480098428e-05 3.747766260999e-03 0.0 
0.0 0.0 -7.519691085378e-04 
-2.481796835738e-04 -2.443451602630e-04 0.0 
-2.443451602630e-04 3.602630232561e-03 0.0 
0.0 0.0 -6.062238016986e-04 
1.395212106855e-04 7.248038226588e-04 0.0 
7.248038226588e-04 3.785222777986e-03 0.0 
0.0 0.0 -7.021192356133e-04 
9.822737508294e-04 2.953426489413e-04 0.0 
2.953426489413e-04 3.946018376307e-03 0.0 
0.0 0.0 -7.672684041402e-04 
-7.000502780135e-04 3.766624547476e-04 0.0 
3.766624547476e-04 7.990576683759e-03 0.0 
0.0 0.0 -9.681620079099e-04 
1.113984291445e-04 2.075997113895e-04 0.0 
2.075997113895e-04 2.176507968429e-03 0.0 
0.0 0.0 -4.287941800800e-04 
2.548090572974e-03 1.283041405343e-04 0.0 
1.283041405343e-04 7.825449536048e-05 0.0 
0.0 0.0 -4.991860405784e-04 
2.575759866707e-03 8.950691186284e-05 0.0 
8.950691186284e-05 2.185947673888e-04 0.0 
0.0 0.0 -5.272458293185e-04 
-9.298142287186e-04 1.923659803104e-04 0.0 
1.923659803104e-04 6.128652270364e-03 0.0 
0.0 0.0 -9.279583942086e-04 
-5.432586064032e-04 2.409834050189e-04 0.0 
2.409834050189e-04 8.060390844633e-03 0.0 
0.0 0.0 -9.225496921418e-04 
-1.500618556416e-04 1.939391886362e-05 0.0 
1.939391886362e-05 9.791726158994e-04 0.0 
0.0 0.0 -1.598254822437e-04 
-7.813437772971e-04 2.648386330018e-04 0.0 
2.648386330018e-04 8.032386110478e-03 0.0 
0.0 0.0 -9.472532847729e-04 
2.349263411847e-03 -8.731283266562e-05 0.0 
-8.731283266562e-05 2.219473352512e-04 0.0 
0.0 0.0 -4.905422085546e-04 
3.784251120420e-05 1.680945276381e-03 0.0 
1.680945276381e-03 7.337277596976e-03 0.0 
0.0 0.0 -1.116313713890e-03 
-1.160710858740e-03 -1.646577421992e-04 0.0 
-1.646577421992e-04 7.742525385317e-03 0.0 
0.0 0.0 -1.116651666677e-03 
-4.494164570379e-05 1.000468586625e-06 0.0 
1.000468586625e-06 2.551504228595e-04 0.0 
0.0 0.0 -4.576175375704e-05 
2.526603377127e-04 1.058535405650e-03 0.0 
1.058535405650e-03 3.380175152055e-03 0.0 
0.0 0.0 -6.690559060524e-04 
-1.145839910847e-03 -1.986902778568e-04 0.0 
-1.986902778568e-04 7.714207575352e-03 0.0 
0.0 0.0 -1.146019594970e-03 
-1.181671435809e-04 1.336083415480e-03 0.0 
1.336083415480e-03 7.470845204057e-03 0.0 
0.0 0.0 -1.084877494487e-03 
-9.256050002818e-04 -1.923147081747e-04 0.0 
-1.923147081747e-04 6.153846390776e-03 0.0 
0.0 0.0 -9.220067723808e-04 
1.737591176224e-03 2.182254193413e-03 0.0 
2.182254193413e-03 4.099702428040e-03 0.0 
0.0 0.0 -9.311811942945e-04 
-1.749052586816e-04 2.943218283910e-04 0.0 
2.943218283910e-04 1.425012569801e-03 0.0 
0.0 0.0 -2.717413095444e-04 
-4.405610326570e-05 4.605201089230e-04 0.0 
4.605201089230e-04 6.745781537319e-03 0.0 
0.0 0.0 -9.085200640140e-04 
2.079679601664e-03 -5.080148273582e-05 0.0 
-5.080148273582e-05 6.616501459251e-04 0.0 
0.0 0.0 -5.184025592845e-04 
2.302075966522e-03 -2.616171143158e-04 0.0 
-2.616171143158e-04 5.617944389851e-04 0.0 
0.0 0.0 -5.242929400402e-04 
-1.101238409147e-04 1.624386361107e-05 0.0 
1.624386361107e-05 6.254833965552e-04 0.0 
0.0 0.0 -1.042847928631e-04 
-2.720428078907e-04 1.040936520822e-03 0.0 
1.040936520822e-03 7.597993960458e-03 0.0 
0.0 0.0 -1.056467490522e-03 
-8.627498373167e-05 -6.746579389695e-05 0.0 
-6.746579389695e-05 1.956827490752e-03 0.0 
0.0 0.0 -3.564518745397e-04 
4.631857684443e-04 1.861684293784e-04 0.0 
1.861684293784e-04 5.744863666977e-03 0.0 
0.0 0.0 -8.457553113849e-04 
-8.524872272040e-04 -2.315298743519e-04 0.0 
-2.315298743519e-04 5.680178330686e-03 0.0 
0.0 0.0 -8.555322119248e-04 
1.041364423051e-03 -4.776019523978e-04 0.0 
-4.776019523978e-04 1.329774580587e-03 0.0 
0.0 0.0 -4.411586999297e-04 
2.376305576392e-03 -2.873636596795e-04 0.0 
-2.873636596795e-04 3.173258449861e-04 0.0 
0.0 0.0 -4.964677435772e-04 
-8.901378245668e-04 -1.873561009026e-04 0.0 
-1.873561009026e-04 5.908561179355e-03 0.0 
0.0 0.0 -8.867075537039e-04 
-5.390291945435e-04 5.853489336137e-04 0.0 
5.853489336137e-04 7.849889128618e-03 0.0 
0.0 0.0 -1.005539716963e-03 
-3.100978416816e-04 1.349854776969e-04 0.0 
1.349854776969e-04 3.768661282588e-03 0.0 
0.0 0.0 -6.378868265889e-04 
8.670053225050e-04 6.980667835955e-05 0.0 
6.980667835955e-05 4.538792226269e-03 0.0 
0.0 0.0 -7.887670633496e-04 
-1.675629334765e-04 8.783942969344e-04 0.0 
8.783942969344e-04 4.607634599862e-03 0.0 
0.0 0.0 -8.030799362305e-04 
1.629740629505e-03 3.346155065099e-04 0.0 
3.346155065099e-04 3.304014285932e-03 0.0 
0.0 0.0 -7.772536810323e-04 
2.497590933123e-03 -8.741229779641e-05 0.0 
-8.741229779641e-05 4.101666550762e-04 0.0 
0.0 0.0 -5.326451291888e-04 
1.115006670552e-03 5.799230130468e-05 0.0 
5.799230130468e-05 3.922290493797e-03 0.0 
0.0 0.0 -7.679092888696e-04 
-2.266428434729e-04 5.670467841486e-04 0.0 
5.670467841486e-04 4.568594633911e-03 0.0 
0.0 0.0 -7.729461360948e-04 
3.100488861819e-04 1.381312031769e-03 0.0 
1.381312031769e-03 5.355282273961e-03 0.0 
0.0 0.0 -9.646043038850e-04 
1.804978632287e-03 1.406829517722e-03 0.0 
1.406829517722e-03 3.747374533245e-03 0.0 
0.0 0.0 -8.654322725339e-04 
9.409800386816e-05 1.027027560713e-03 0.0 
1.027027560713e-03 4.134031640909e-03 0.0 
0.0 0.0 -7.676694601592e-04 
7.969330765151e-04 4.132581241796e-05 0.0 
4.132581241796e-05 2.756991798814e-03 0.0 
0.0 0.0 -6.551190094499e-04 
1.766197735502e-04 3.879282770733e-04 0.0 
3.879282770733e-04 2.320563335790e-03 0.0 
0.0 0.0 -4.640097282922e-04 
-7.829179362196e-05 1.002165750230e-04 0.0 
1.002165750230e-04 3.359539999631e-03 0.0 
0.0 0.0 -6.091269606258e-04 
2.011069176876e-03 2.262033496427e-03 0.0 
2.262033496427e-03 3.750504591478e-03 0.0 
0.0 0.0 -9.343546840463e-04 
2.676826193498e-03 1.370542669730e-03 0.0 
1.370542669730e-03 1.943370637684e-03 0.0 
0.0 0.0 -8.045977645254e-04 
-4.388181299991e-04 3.485945340393e-04 0.0 
3.485945340393e-04 7.996995828090e-03 0.0 
0.0 0.0 -9.407534496212e-04 
-1.169515206127e-03 -1.894067828277e-04 0.0 
-1.894067828277e-04 7.912550107300e-03 0.0 
0.0 0.0 -1.174325249119e-03 
9.208527849444e-04 -1.753150995022e-04 0.0 
-1.753150995022e-04 1.150673874314e-03 0.0 
0.0 0.0 -4.069995479128e-04 
-7.471512253256e-04 3.160431178732e-04 0.0 
3.160431178732e-04 7.985840615141e-03 0.0 
0.0 0.0 -9.565842993622e-04 
-4.233462530957e-05 4.960511316210e-04 0.0 
4.960511316210e-04 7.293724187997e-03 0.0 
0.0 0.0 -9.269160176368e-04 
9.950328562062e-04 1.274847844681e-03 0.0 
1.274847844681e-03 2.969015929359e-03 0.0 
0.0 0.0 -7.237787631415e-04 
-9.766466055391e-05 -9.527665079691e-06 0.0 
-9.527665079691e-06 3.256739367154e-04 0.0 
0.0 0.0 -9.771826121206e-05 
-5.608628522489e-04 2.237291600003e-04 0.0 
2.237291600003e-04 8.114335055352e-03 0.0 
0.0 0.0 -9.131333181569e-04 
-1.171509388478e-03 -1.678154851061e-04 0.0 
-1.678154851061e-04 7.861802012676e-03 0.0 
0.0 0.0 -1.167157861819e-03 
2.026635856645e-03 -2.058974169527e-04 0.0 
-2.058974169527e-04 3.252034115478e-04 0.0 
0.0 0.0 -4.535238702637e-04 
-8.305213596670e-04 1.778224021130e-04 0.0 
1.778224021130e-04 8.071192438566e-03 0.0 
0.0 0.0 -9.296299311330e-04 
8.690837432276e-04 2.042571205596e-06 0.0 
2.042571205596e-06 4.334303337568e-03 0.0 
0.0 0.0 -7.725093877528e-04 
-3.822704572601e-04 7.504263232993e-04 0.0 
7.504263232993e-04 3.745310759907e-03 0.0 
0.0 0.0 -6.229492605273e-04 
-8.398341044081e-04 1.726875732325e-04 0.0 
1.726875732325e-04 5.514357495571e-03 0.0 
0.0 0.0 -8.408860858065e-04 
2.823320067385e-03 1.201471032743e-03 0.0 
1.201471032743e-03 1.706731749954e-03 0.0 
0.0 0.0 -7.932781519077e-04 
1.275088558189e-03 -6.214225594803e-05 0.0 
-6.214225594803e-05 3.197337609890e-03 0.0 
0.0 0.0 -7.316050297868e-04 
1.625454284440e-03 4.620166786375e-04 0.0 
4.620166786375e-04 3.516932315857e-03 0.0 
0.0 0.0 -7.959072299985e-04 
-9.700343521080e-04 -1.978951788456e-04 0.0 
-1.978951788456e-04 6.510189924062e-03 0.0 
0.0 0.0 -9.721028620036e-04 
-6.977402691425e-04 1.822093202730e-04 0.0 
1.822093202730e-04 4.487185732323e-03 0.0 
0.0 0.0 -6.945885048819e-04 
1.661973667573e-03 1.526355967035e-03 0.0 
1.526355967035e-03 4.107455950752e-03 0.0 
0.0 0.0 -8.870099740463e-04 
-8.975501320031e-04 -2.506583898402e-05 0.0 
-2.506583898402e-05 6.020256954513e-03 0.0 
0.0 0.0 -8.839498032872e-04 
5.649156847463e-04 -2.989534914628e-04 0.0 
-2.989534914628e-04 3.062835748706e-03 0.0 
0.0 0.0 -6.521967345918e-04 
1.928634065342e-03 1.275674050555e-03 0.0 
1.275674050555e-03 3.411568788909e-03 0.0 
0.0 0.0 -8.446189470271e-04 
1.776758570062e-03 -3.685572095094e-04 0.0 
-3.685572095094e-04 1.032890556354e-03 0.0 
0.0 0.0 -5.155438399970e-04 
7.799191313240e-05 1.520565719542e-04 0.0 
1.520565719542e-04 4.899264595338e-03 0.0 
0.0 0.0 -7.546500554830e-04 
-5.184917320349e-05 -5.023579163672e-06 0.0 
-5.023579163672e-06 2.615427770040e-04 0.0 
0.0 0.0 -4.585464485956e-05 
2.007861000200e-04 5.701862993669e-04 0.0 
5.701862993669e-04 2.519290513339e-03 0.0 
0.0 0.0 -4.997308803768e-04 
2.033335105648e-03 -4.112634721846e-04 0.0 
-4.112634721846e-04 6.106021783209e-04 0.0 
0.0 0.0 -4.875765080988e-04 
2.494920920403e-04 8.647600670200e-05 0.0 
8.647600670200e-05 3.643376419038e-03 0.0 
0.0 0.0 -7.005835948349e-04 
7.320613577550e-04 1.270187805586e-03 0.0 
1.270187805586e-03 3.445506567501e-03 0.0 
0.0 0.0 -7.595228636782e-04 
1.001186250007e-03 3.699781154499e-04 0.0 
3.699781154499e-04 4.140051949387e-03 0.0 
0.0 0.0 -7.825139125227e-04 
-8.902631525082e-04 -1.867681813360e-04 0.0 
-1.867681813360e-04 5.973122971149e-03 0.0 
0.0 0.0 -8.962969588583e-04 
1.695014619313e-03 -5.143006921924e-04 0.0 
-5.143006921924e-04 7.315792227235e-04 0.0 
0.0 0.0 -4.505554202764e-04 
-8.483354255343e-04 1.670595154265e-04 0.0 
1.670595154265e-04 8.108497649647e-03 0.0 
0.0 0.0 -9.224799818525e-04 
-8.819043585379e-04 -1.894669265130e-04 0.0 
-1.894669265130e-04 5.856756576790e-03 0.0 
0.0 0.0 -8.789935771182e-04 
-5.683265619925e-05 1.168958315951e-04 0.0 
1.168958315951e-04 4.105222100551e-03 0.0 
0.0 0.0 -7.072907021919e-04 
-8.221415197764e-04 -1.446708433932e-04 0.0 
-1.446708433932e-04 5.585719336874e-03 0.0 
0.0 0.0 -8.436662038215e-04 
1.778799550262e-05 -2.566691689023e-04 0.0 
-2.566691689023e-04 3.937398753539e-03 0.0 
0.0 0.0 -6.855337003665e-04 
0.0 0.0 0.0 
0.0 0.0 0.0 
0.0 0.0 0.0 
-8.787853985481e-04 -1.870345829221e-04 0.0 
-1.870345829221e-04 5.815290073788e-03 0.0 
0.0 0.0 -8.733545218784e-04 
-6.014622352257e-04 2.088026922776e-04 0.0 
2.088026922776e-04 3.826503758406e-03 0.0 
0.0 0.0 -5.956302995864e-04 
4.552111090427e-04 1.334199053411e-05 0.0 
1.334199053411e-05 -1.364968329021e-04 0.0 
0.0 0.0 -1.365918326317e-04 
-3.446023481471e-04 1.536628490665e-04 0.0 
1.536628490665e-04 4.181770328574e-03 0.0 
0.0 0.0 -6.946672408502e-04 
7.326669272008e-04 3.820980047212e-04 0.0 
3.820980047212e-04 4.771947336954e-03 0.0 
0.0 0.0 -8.027406372568e-04 
-1.145850176714e-03 1.952473198253e-04 0.0 
1.952473198253e-04 7.640587141445e-03 0.0 
0.0 0.0 -1.146946825052e-03 
1.897300171518e-03 4.517350846121e-04 0.0 
4.517350846121e-04 2.884545914005e-03 0.0 
0.0 0.0 -7.749634633826e-04 
1.782910733335e-03 7.013404793045e-04 0.0 
7.013404793045e-04 3.078299110221e-03 0.0 
0.0 0.0 -7.885934863161e-04 
-7.515772832735e-04 -1.386433387672e-04 0.0 
-1.386433387672e-04 4.957710564835e-03 0.0 
0.0 0.0 -7.495231765994e-04 
-7.499562203702e-04 -7.649065135859e-06 0.0 
-7.649065135859e-06 4.585920683461e-03 0.0 
0.0 0.0 -7.312625299843e-04 
-1.260558093568e-03 -1.735217469328e-05 0.0 
-1.735217469328e-05 8.473939869668e-03 0.0 
0.0 0.0 -1.276388193714e-03 
-5.205412908952e-04 2.585411861555e-04 0.0 
2.585411861555e-04 5.072315082534e-03 0.0 
0.0 0.0 -8.082854548548e-04 
1.720465580839e-03 1.505184735220e-06 0.0 
1.505184735220e-06 -4.568224160949e-04 0.0 
0.0 0.0 -2.025361102355e-04 
-1.640335285088e-04 -2.322521872435e-04 0.0 
-2.322521872435e-04 1.440926362205e-03 0.0 
0.0 0.0 -2.569639750501e-04 
-9.553383276932e-05 -1.682092997359e-05 0.0 
-1.682092997359e-05 3.188442541893e-04 0.0 
0.0 0.0 -9.570446632286e-05 
4.124479045889e-04 -3.541021049291e-04 0.0 
-3.541021049291e-04 1.904554172411e-03 0.0 
0.0 0.0 -4.284133232656e-04 
7.903142263800e-04 2.135893746760e-03 0.0 
2.135893746760e-03 5.612932749488e-03 0.0 
0.0 0.0 -1.030131647965e-03 
-1.147232605264e-03 -1.988471843745e-04 0.0 
-1.988471843745e-04 7.696346442353e-03 0.0 
0.0 0.0 -1.144649651339e-03 
5.640890736746e-05 2.607221966238e-04 0.0 
2.607221966238e-04 5.914989071775e-03 0.0 
0.0 0.0 -8.154360200461e-04 
8.911128923565e-05 -2.946125796762e-04 0.0 
-2.946125796762e-04 2.527675638570e-03 0.0 
0.0 0.0 -4.827803379924e-04 
-8.563444498917e-05 -2.118986530574e-04 0.0 
-2.118986530574e-04 5.133783037475e-03 0.0 
0.0 0.0 -7.424534998599e-04 
3.054989080661e-04 4.830986730620e-04 0.0 
4.830986730620e-04 5.988213424820e-03 0.0 
0.0 0.0 -8.568606994412e-04 
-2.307303358761e-04 -1.659245173032e-04 0.0 
-1.659245173032e-04 1.658629773015e-03 0.0 
0.0 0.0 -2.821198837983e-04 
-5.962549057610e-04 -2.242943986440e-04 0.0 
-2.242943986440e-04 3.850260609285e-03 0.0 
0.0 0.0 -5.942115541274e-04 
-4.821057558984e-04 1.938812463926e-04 0.0 
1.938812463926e-04 3.093517382698e-03 0.0 
0.0 0.0 -4.980019828625e-04 
-5.964579561751e-04 2.024615012324e-04 0.0 
2.024615012324e-04 8.111565553742e-03 0.0 
0.0 0.0 -9.056470602827e-04 
-8.593202449010e-04 1.215365767292e-04 0.0 
1.215365767292e-04 8.106848186068e-03 0.0 
0.0 0.0 -9.147114822165e-04 
-6.679494605950e-04 -1.695756001759e-04 0.0 
-1.695756001759e-04 4.277020538631e-03 0.0 
0.0 0.0 -6.580288049735e-04 
-2.917076807723e-04 -2.309686288439e-04 0.0 
-2.309686288439e-04 4.408807643143e-03 0.0 
0.0 0.0 -6.916553502360e-04 
1.188101078221e-03 2.587651082434e-04 0.0 
2.587651082434e-04 3.374369687498e-03 0.0 
0.0 0.0 -7.477147254941e-04 
2.333355910876e-04 5.241564931740e-04 0.0 
5.241564931740e-04 6.303581564877e-03 0.0 
0.0 0.0 -8.743390256824e-04 
-1.467586736937e-04 1.385927040713e-04 0.0 
1.385927040713e-04 1.486873539082e-03 0.0 
0.0 0.0 -2.880367495917e-04 
3.927869968166e-04 4.361792480681e-04 0.0 
4.361792480681e-04 5.689494129216e-03 0.0 
0.0 0.0 -8.394247200199e-04 
6.873364828233e-04 3.225395167063e-05 0.0 
3.225395167063e-05 1.736108940957e-04 0.0 
0.0 0.0 -1.612556504808e-04 
-2.564102407717e-04 -2.372058231721e-04 0.0 
-2.372058231721e-04 4.001585454065e-03 0.0 
0.0 0.0 -6.724657308136e-04 
3.004061339069e-04 -2.598105170115e-04 0.0 
-2.598105170115e-04 3.862763850887e-03 0.0 
0.0 0.0 -6.985550216107e-04 
7.400048640226e-04 6.516014282120e-06 0.0 
6.516014282120e-06 -5.126172292086e-04 0.0 
0.0 0.0 -9.745184349170e-05 
-6.107893375516e-04 1.961955655378e-04 0.0 
1.961955655378e-04 4.041501780348e-03 0.0 
0.0 0.0 -6.267591816330e-04 
-1.179150888516e-03 1.722766776771e-04 0.0 
1.722766776771e-04 7.845621701176e-03 0.0 
0.0 0.0 -1.176862138969e-03 
1.386735760949e-03 1.722961316577e-05 0.0 
1.722961316577e-05 -2.929003560185e-04 0.0 
0.0 0.0 -2.118756546037e-04 
-7.312532489837e-04 1.362386611749e-05 0.0 
1.362386611749e-05 4.573834094121e-03 0.0 
0.0 0.0 -7.322753781719e-04 
-7.047922472484e-04 1.123922026687e-06 0.0 
1.123922026687e-06 4.847576831705e-03 0.0 
0.0 0.0 -7.130472889423e-04 
1.593777378142e-03 5.857486214019e-04 0.0 
5.857486214019e-04 3.757686394621e-03 0.0 
0.0 0.0 -8.155264210845e-04 
-4.137461362709e-04 -1.875138444345e-04 0.0 
-1.875138444345e-04 3.063516118268e-03 0.0 
0.0 0.0 -4.943513106837e-04 
1.756205587159e-03 -1.432634365876e-04 0.0 
-1.432634365876e-04 7.633207511904e-04 0.0 
0.0 0.0 -4.817493388240e-04 
1.087384103153e-04 3.947162400892e-04 0.0 
3.947162400892e-04 1.653875213646e-03 0.0 
0.0 0.0 -3.398054741319e-04 
-3.066585298007e-04 2.271431055265e-04 0.0 
2.271431055265e-04 6.781446554474e-03 0.0 
0.0 0.0 -8.384237592821e-04 
1.185306777216e-04 1.359470766909e-03 0.0 
1.359470766909e-03 6.917189640055e-03 0.0 
0.0 0.0 -1.045844493791e-03 
-1.101033919243e-03 -1.960948394900e-04 0.0 
-1.960948394900e-04 7.394725323298e-03 0.0 
0.0 0.0 -1.101088927253e-03 
6.431143426801e-04 1.951410192432e-03 0.0 
1.951410192432e-03 1.739048420546e-03 0.0 
0.0 0.0 -4.457015571677e-04 
-1.846750172105e-04 2.189374858786e-04 0.0 
2.189374858786e-04 9.358009175172e-04 0.0 
0.0 0.0 -1.905831712289e-04 
-6.190941961817e-04 2.497328843538e-04 0.0 
2.497328843538e-04 4.521339769666e-03 0.0 
0.0 0.0 -6.999131133628e-04 
-7.213924053117e-04 -5.563189410970e-07 0.0 
-5.563189410970e-07 4.593100885078e-03 0.0 
0.0 0.0 -7.345111139194e-04 
-7.221802994753e-04 -3.459116523938e-05 0.0 
-3.459116523938e-05 4.860709319501e-03 0.0 
0.0 0.0 -7.144802219087e-04 
1.360355587670e-03 1.906336126096e-05 0.0 
1.906336126096e-05 -4.672879942563e-04 0.0 
0.0 0.0 -2.698139999464e-04 
6.694547326536e-04 6.020080519198e-06 0.0 
6.020080519198e-06 -4.485335777343e-04 0.0 
0.0 0.0 -9.468049496542e-05 
6.703448703492e-04 -4.672855761264e-05 0.0 
-4.672855761264e-05 -1.280608967125e-04 0.0 
0.0 0.0 -1.795416262981e-04 
-9.061119803510e-05 1.100175698710e-04 0.0 
1.100175698710e-04 2.010725322900e-03 0.0 
0.0 0.0 -3.820941496288e-04 
9.636056614975e-04 5.969881359613e-05 0.0 
5.969881359613e-05 -3.949547396120e-04 0.0 
0.0 0.0 -1.278462671496e-04 
-7.177698882455e-04 1.875976177193e-04 0.0 
1.875976177193e-04 4.537921580666e-03 0.0 
0.0 0.0 -6.918148876824e-04 
0.0 0.0 0.0 
0.0 0.0 0.0 
0.0 0.0 0.0 
1.018422705820e-06 8.522749302833e-05 0.0 
8.522749302833e-05 2.315361407725e-03 0.0 
0.0 0.0 -4.482372226011e-04 
-9.484602570362e-04 5.937741420751e-05 0.0 
5.937741420751e-05 6.186307546056e-03 0.0 
0.0 0.0 -9.582560723523e-04 
-7.114040901391e-04 1.008097673964e-05 0.0 
1.008097673964e-05 4.858827396879e-03 0.0 
0.0 0.0 -7.120344407548e-04 
6.692622830522e-04 2.125458091276e-03 0.0 
2.125458091276e-03 5.951106723079e-03 0.0 
0.0 0.0 -1.052600783401e-03 
7.422684594633e-04 3.188091995432e-04 0.0 
3.188091995432e-04 4.550913558764e-03 0.0 
0.0 0.0 -7.870938422485e-04 
-9.024629704431e-04 7.830558015861e-05 0.0 
7.830558015861e-05 5.773999043953e-03 0.0 
0.0 0.0 -8.988447104697e-04 
-5.248669465082e-04 2.030027087804e-04 0.0 
2.030027087804e-04 3.352814556998e-03 0.0 
0.0 0.0 -5.269378630653e-04 
9.441555696668e-04 -3.001890483556e-05 0.0 
-3.001890483556e-05 -8.266593542529e-05 0.0 
0.0 0.0 -1.602995255322e-04 
-1.139859154467e-03 9.275532800745e-05 0.0 
9.275532800745e-05 8.622549869851e-03 0.0 
0.0 0.0 -1.338184778076e-03 
-1.331740677566e-03 -1.067318438914e-06 0.0 
-1.067318438914e-06 9.107204473734e-03 0.0 
0.0 0.0 -1.320295381545e-03 
-8.482992821085e-04 2.310186269771e-04 0.0 
2.310186269771e-04 5.616583664962e-03 0.0 
0.0 0.0 -8.588387843224e-04 
-7.462574470129e-04 -7.506809615044e-06 0.0 
-7.506809615044e-06 4.590636784032e-03 0.0 
0.0 0.0 -7.326073368541e-04 
-5.245410864356e-04 -1.205989082399e-04 0.0 
-1.205989082399e-04 3.428193001428e-03 0.0 
0.0 0.0 -5.314511797788e-04 
-1.323491096028e-03 -2.283744003804e-05 0.0 
-2.283744003804e-05 9.085754239402e-03 0.0 
0.0 0.0 -1.322576402756e-03 
-8.324175831509e-06 -2.763059885867e-04 0.0 
-2.763059885867e-04 2.229278141560e-03 0.0 
0.0 0.0 -4.166600706249e-04 
-7.057672473389e-04 -4.164103403237e-06 0.0 
-4.164103403237e-06 4.837446989167e-03 0.0 
0.0 0.0 -7.125614225629e-04 
-7.131316839303e-04 7.226971892558e-06 0.0 
7.226971892558e-06 4.584933787265e-03 0.0 
0.0 0.0 -7.312775522649e-04 
-5.610849872294e-04 1.613009107650e-03 0.0 
1.613009107650e-03 4.243369811139e-03 0.0 
0.0 0.0 -6.755779900756e-04 
-3.071860959845e-04 1.177532054897e-03 0.0 
1.177532054897e-03 7.776850623293e-03 0.0 
0.0 0.0 -1.265264289219e-03 
-1.293765856573e-03 1.607380559244e-05 0.0 
1.607380559244e-05 9.094492997413e-03 0.0 
0.0 0.0 -1.322582685247e-03 
8.374945730238e-04 4.144649655165e-05 0.0 
4.144649655165e-05 -2.409219921831e-04 0.0 
0.0 0.0 -1.446150416553e-04 
1.214061967936e-03 4.205298921569e-06 0.0 
4.205298921569e-06 -4.033966107110e-04 0.0 
0.0 0.0 -2.727751726465e-04 
-1.979379762501e-04 1.728981573934e-04 0.0 
1.728981573934e-04 1.151359573920e-03 0.0 
0.0 0.0 -2.221130066924e-04 
5.157524483023e-04 9.421153383572e-05 0.0 
9.421153383572e-05 3.584852476931e-03 0.0 
0.0 0.0 -7.127534292232e-04 
-7.194530808898e-04 2.218386108051e-04 0.0 
2.218386108051e-04 7.482818714970e-03 0.0 
0.0 0.0 -8.227071284159e-04 
-3.851215442265e-05 -6.758275575601e-05 0.0 
-6.758275575601e-05 2.149841041377e-04 0.0 
0.0 0.0 -4.506945562690e-05 
-1.095035538177e-03 -2.135230687797e-04 0.0 
-2.135230687797e-04 7.297496536284e-03 0.0 
0.0 0.0 -1.092518628633e-03 
0.0 0.0 0.0 
0.0 0.0 0.0 
0.0 0.0 0.0 
1.496996225571e-03 7.145534983622e-04 0.0 
7.145534983622e-04 3.729244354579e-03 0.0 
0.0 0.0 -8.085408969224e-04 
-6.288110034417e-05 6.701081411342e-06 0.0 
6.701081411342e-06 2.758850751309e-04 0.0 
0.0 0.0 -4.591043399907e-05 
-6.241905191399e-05 -2.511621330185e-05 0.0 
-2.511621330185e-05 2.635940123717e-04 0.0 
0.0 0.0 -4.615290204994e-05 
1.515338226508e-03 6.010994476769e-04 0.0 
6.010994476769e-04 3.502002780622e-03 0.0 
0.0 0.0 -7.908313243605e-04 
-5.801838909232e-04 1.866951710533e-04 0.0 
1.866951710533e-04 7.136037436684e-03 0.0 
0.0 0.0 -8.236992545283e-04 
-9.353430265023e-04 -9.437658603161e-05 0.0 
-9.437658603161e-05 6.401376295666e-03 0.0 
0.0 0.0 -9.361271490834e-04 
-7.292657224304e-04 -1.767865209210e-04 0.0 
-1.767865209210e-04 4.795789678295e-03 0.0 
0.0 0.0 -7.268406435589e-04 
9.291077408662e-04 -1.938934746692e-05 0.0 
-1.938934746692e-05 -7.022685999873e-04 0.0 
0.0 0.0 -9.721677466238e-05 
-2.783900357617e-04 -2.123563538277e-04 0.0 
-2.123563538277e-04 5.481404004624e-03 0.0 
0.0 0.0 -7.481956461653e-04 
-1.334062742775e-03 -2.465506870905e-05 0.0 
-2.465506870905e-05 8.810299380894e-03 0.0 
0.0 0.0 -1.337797817327e-03 
-1.326036287352e-03 -1.455315038832e-04 0.0 
-1.455315038832e-04 9.082015863419e-03 0.0 
0.0 0.0 -1.322354755130e-03 
-7.123437340294e-04 1.173862101604e-05 0.0 
1.173862101604e-05 4.855322276952e-03 0.0 
0.0 0.0 -7.125764448434e-04 
1.449242204500e-03 8.218299695618e-04 0.0 
8.218299695618e-04 3.985616048535e-03 0.0 
0.0 0.0 -8.267965098828e-04 
-1.209676302102e-03 7.468200702976e-05 0.0 
7.468200702976e-05 8.708655614641e-03 0.0 
0.0 0.0 -1.341607717199e-03 
1.771584359067e-03 1.864315042288e-03 0.0 
1.864315042288e-03 4.129484527290e-03 0.0 
0.0 0.0 -9.292941335076e-04 
8.678752138263e-04 3.710066152061e-05 0.0 
3.710066152061e-05 -7.055179174895e-05 0.0 
0.0 0.0 -1.589907658001e-04 
1.218936039578e-03 -9.663428354159e-05 0.0 
-9.663428354159e-05 -5.411542391859e-04 0.0 
0.0 0.0 -1.734886821089e-04 
8.476011128441e-04 -3.565267987921e-05 0.0 
-3.565267987921e-05 -6.051203852920e-04 0.0 
0.0 0.0 -1.039203118081e-04 
-5.871622493136e-04 1.953666188975e-04 0.0 
1.953666188975e-04 3.814212399553e-03 0.0 
0.0 0.0 -5.933358154923e-04 
-7.869879932184e-04 -9.881838130510e-05 0.0 
-9.881838130510e-05 8.254022858039e-03 0.0 
0.0 0.0 -8.517001639021e-04 
-1.249098589656e-03 -2.325383237370e-04 0.0 
-2.325383237370e-04 8.487130897030e-03 0.0 
0.0 0.0 -1.258329778789e-03 
1.591266282346e-03 1.411276599199e-05 0.0 
1.411276599199e-05 -5.646283310100e-04 0.0 
0.0 0.0 -2.737492814577e-04 
-6.989700289776e-04 -1.857489314676e-04 0.0 
-1.857489314676e-04 4.509333602690e-03 0.0 
0.0 0.0 -6.938761155152e-04 
-8.648218096012e-04 1.429609348357e-05 0.0 
1.429609348357e-05 8.092811715455e-03 0.0 
0.0 0.0 -8.654226556263e-04 
-7.567003360611e-04 6.080403817919e-05 0.0 
6.080403817919e-05 8.247445366397e-03 0.0 
0.0 0.0 -8.544009342687e-04 
-6.156711469047e-04 1.530882201558e-04 0.0 
1.530882201558e-04 8.153223575176e-03 0.0 
0.0 0.0 -8.963331492836e-04 
-1.034449558172e-03 2.142439693304e-04 0.0 
2.142439693304e-04 6.840882471351e-03 0.0 
0.0 0.0 -1.027148381742e-03 
-1.117879717661e-03 -2.162737768218e-04 0.0 
-2.162737768218e-04 7.549121072968e-03 0.0 
0.0 0.0 -1.125709525796e-03 
-8.650910799894e-04 7.240109177487e-06 0.0 
7.240109177487e-06 8.063287870785e-03 0.0 
0.0 0.0 -8.662348118829e-04 
-8.693832402626e-04 -4.550628018798e-06 0.0 
-4.550628018798e-06 8.089406538606e-03 0.0 
0.0 0.0 -8.716729838712e-04 
-1.084387157107e-03 1.756228747117e-04 0.0 
1.756228747117e-04 7.304356114432e-03 0.0 
0.0 0.0 -1.092518628634e-03 
1.858144571146e-03 -6.559426555505e-06 0.0 
-6.559426555505e-06 -5.610282676225e-04 0.0 
0.0 0.0 -1.868035103788e-04 
-7.129930244863e-04 -1.525724794926e-06 0.0 
-1.525724794926e-06 4.814692496190e-03 0.0 
0.0 0.0 -7.139539158865e-04 
-7.213897068280e-04 3.016260299788e-05 0.0 
3.016260299788e-05 4.878464797693e-03 0.0 
0.0 0.0 -7.133642253441e-04 
1.350920124439e-03 -5.144472408298e-06 0.0 
-5.144472408298e-06 -4.647735730868e-04 0.0 
0.0 0.0 -2.664251716844e-04 
-8.767879625327e-04 6.317490450740e-05 0.0 
6.317490450740e-05 8.134432674864e-03 0.0 
0.0 0.0 -8.856729079842e-04 
-6.375993750572e-04 1.551169355588e-04 0.0 
1.551169355588e-04 8.150018610437e-03 0.0 
0.0 0.0 -8.886137982942e-04 
-8.743297681381e-04 7.976441808568e-05 0.0 
7.976441808568e-05 8.083749718363e-03 0.0 
0.0 0.0 -8.937439281870e-04 
1.433933499675e-03 3.293287205665e-05 0.0 
3.293287205665e-05 -2.998032377406e-04 0.0 
0.0 0.0 -2.284334207992e-04 
1.462175547173e-03 -4.325445107093e-07 0.0 
-4.325445107093e-07 -3.071894416815e-04 0.0 
0.0 0.0 -2.229767004145e-04 
-8.684251483196e-04 1.135278847357e-04 0.0 
1.135278847357e-04 8.096959791313e-03 0.0 
0.0 0.0 -9.080686978870e-04 
-8.727292797220e-04 7.732588447940e-05 0.0 
7.732588447940e-05 8.089100563428e-03 0.0 
0.0 0.0 -9.018862198442e-04 
-1.016763022878e-03 -2.313272643619e-04 0.0 
-2.313272643619e-04 6.613286649783e-03 0.0 
0.0 0.0 -9.936726122374e-04 
-7.156761650400e-04 3.174630435059e-05 0.0 
3.174630435059e-05 4.813106322843e-03 0.0 
0.0 0.0 -7.124851972278e-04 
-1.051691578887e-03 -2.268729750207e-04 0.0 
-2.268729750207e-04 7.069453692283e-03 0.0 
0.0 0.0 -1.060142436171e-03 
-8.856361613045e-04 -2.246794552561e-04 0.0 
-2.246794552561e-04 5.656932423438e-03 0.0 
0.0 0.0 -8.626607521899e-04 
-6.974461573381e-04 1.315776503869e-05 0.0 
1.315776503869e-05 4.815685979733e-03 0.0 
0.0 0.0 -7.121912678902e-04 
6.493584132654e-04 1.002458300056e-05 0.0 
1.002458300056e-05 3.217059305488e-05 0.0 
0.0 0.0 -2.182661393256e-04 
-4.859098010828e-05 -3.737210181655e-05 0.0 
-3.737210181655e-05 2.860304098853e-04 0.0 
0.0 0.0 -4.591167563965e-05 
-3.185160578265e-05 -1.142237180327e-05 0.0 
-1.142237180327e-05 2.469612253318e-04 0.0 
0.0 0.0 -4.589015575604e-05 
-4.731421252786e-05 -1.226097571205e-05 0.0 
-1.226097571205e-05 2.659450080892e-04 0.0 
0.0 0.0 -4.556578909549e-05 
-7.410966517880e-04 2.317413733405e-04 0.0 
2.317413733405e-04 4.761489269815e-03 0.0 
0.0 0.0 -7.271325101417e-04 
-6.567236663823e-04 2.031409226007e-04 0.0 
2.031409226007e-04 4.278704049819e-03 0.0 
0.0 0.0 -6.600769387058e-04 
0.0 0.0 0.0 
0.0 0.0 0.0 
0.0 0.0 0.0 
-9.198812044249e-04 2.179402155366e-04 0.0 
2.179402155366e-04 5.998553326969e-03 0.0 
0.0 0.0 -7.561805266721e-04 
0.0 0.0 0.0 
0.0 0.0 0.0 
0.0 0.0 0.0 
-6.865134649899e-04 6.324206450936e-04 0.0 
6.324206450936e-04 8.143626283401e-03 0.0 
0.0 0.0 -1.304383351772e-03 
-1.257622810321e-03 4.464417862020e-05 0.0 
4.464417862020e-05 8.724310541379e-03 0.0 
0.0 0.0 -1.340968685557e-03 
-1.057598042982e-03 1.791996110756e-04 0.0 
1.791996110756e-04 8.546166242591e-03 0.0 
0.0 0.0 -1.331378030091e-03 
5.986803097572e-04 1.737143097023e-04 0.0 
1.737143097023e-04 6.276484882680e-04 0.0 
0.0 0.0 -2.599136149544e-04 
-2.976965358203e-04 1.956943095784e-04 0.0 
1.956943095784e-04 2.727591166602e-03 0.0 
0.0 0.0 -4.607467809507e-04 
-1.292174504194e-03 8.983271853441e-06 0.0 
8.983271853441e-06 8.775129179459e-03 0.0 
0.0 0.0 -1.337132911908e-03 
-9.030133175282e-04 1.821670312539e-04 0.0 
1.821670312539e-04 7.089918907152e-03 0.0 
0.0 0.0 -7.941657382862e-04 
-1.315237718281e-03 -1.397075815161e-05 0.0 
-1.397075815161e-05 8.831204373610e-03 0.0 
0.0 0.0 -1.344556937803e-03 
-7.847879586934e-04 1.921792239450e-04 0.0 
1.921792239450e-04 7.365816745239e-03 0.0 
0.0 0.0 -8.119409537661e-04 
-7.472626245469e-04 2.206826619057e-04 0.0 
2.206826619057e-04 7.711377743432e-03 0.0 
0.0 0.0 -8.305673631892e-04 
-6.219774932840e-04 -2.035330289392e-04 0.0 
-2.035330289392e-04 4.041759494414e-03 0.0 
0.0 0.0 -6.267460875326e-04 
-1.333336577702e-03 -3.290028368550e-05 0.0 
-3.290028368550e-05 9.106230716714e-03 0.0 
0.0 0.0 -1.318101597465e-03 
-1.336001964470e-03 1.162172730561e-04 0.0 
1.162172730561e-04 9.090958479552e-03 0.0 
0.0 0.0 -1.321689849711e-03 
-8.385675209098e-04 -2.019315629523e-04 0.0 
-2.019315629523e-04 7.172992957697e-03 0.0 
0.0 0.0 -8.037765921076e-04 
-7.660328459449e-04 -1.971010288539e-04 0.0 
-1.971010288539e-04 7.507492184584e-03 0.0 
0.0 0.0 -8.219431463539e-04 
-5.987328745377e-04 -1.975006601264e-04 0.0 
-1.975006601264e-04 6.116413497238e-03 0.0 
0.0 0.0 -7.598754695835e-04 
0.0 0.0 0.0 
0.0 0.0 0.0 
0.0 0.0 0.0 
-4.536331744686e-04 -2.216121978655e-04 0.0 
-2.216121978655e-04 3.967109205688e-03 0.0 
0.0 0.0 -6.350241097613e-04 
9.895270674295e-04 8.317090943863e-05 0.0 
8.317090943863e-05 -2.578231512534e-04 0.0 
0.0 0.0 -2.060859500159e-04 
-3.848356999692e-04 -1.046364437998e-04 0.0 
-1.046364437998e-04 6.909774604384e-03 0.0 
0.0 0.0 -8.310874356234e-04 
-5.224988004436e-05 1.061991104842e-04 0.0 
1.061991104842e-04 3.730014290429e-03 0.0 
0.0 0.0 -6.753691525988e-04 
-4.073974207871e-04 1.722555634088e-04 0.0 
1.722555634088e-04 6.423732633677e-03 0.0 
0.0 0.0 -8.009136659794e-04 
-1.020278117659e-04 -2.538752161110e-04 0.0 
-2.538752161110e-04 1.925912378659e-03 0.0 
0.0 0.0 -3.504775146279e-04 
-1.550760112037e-04 1.206598951615e-04 0.0 
1.206598951615e-04 7.508446244136e-04 0.0 
0.0 0.0 -1.735952156319e-04 
-5.537050067017e-04 -1.784069720027e-04 0.0 
-1.784069720027e-04 6.996090342664e-03 0.0 
0.0 0.0 -8.110400557341e-04 
-5.330450620150e-04 -2.114877058057e-04 0.0 
-2.114877058057e-04 4.449103160098e-03 0.0 
0.0 0.0 -6.808311640092e-04 
-5.762009062567e-04 2.005988488918e-04 0.0 
2.005988488918e-04 3.584897669436e-03 0.0 
0.0 0.0 -5.611363230933e-04 
-4.952850234364e-04 -1.894778974668e-04 0.0 
-1.894778974668e-04 6.584797945284e-03 0.0 
0.0 0.0 -7.924304156244e-04 
-1.178635420303e-03 1.949598249273e-04 0.0 
1.949598249273e-04 7.912911661083e-03 0.0 
0.0 0.0 -1.188907866872e-03 
-5.561658818216e-04 -2.031625025719e-04 0.0 
-2.031625025719e-04 3.593153237093e-03 0.0 
0.0 0.0 -5.602736785587e-04 
5.903554063148e-04 6.820413887631e-05 0.0 
6.820413887631e-05 5.188376462624e-03 0.0 
0.0 0.0 -8.099239555831e-04 
4.242771873610e-04 1.874636990770e-04 0.0 
1.874636990770e-04 4.606997070084e-03 0.0 
0.0 0.0 -7.631043082479e-04 
-4.587988158507e-04 1.730813138081e-04 0.0 
1.730813138081e-04 5.908000021125e-03 0.0 
0.0 0.0 -7.706609596779e-04 
-5.824618305701e-04 1.629898611684e-04 0.0 
1.629898611684e-04 6.203636743485e-03 0.0 
0.0 0.0 -7.758459274661e-04 
1.817368661774e-03 8.500758147321e-04 0.0 
8.500758147321e-04 1.281483266704e-03 0.0 
0.0 0.0 -5.788817793163e-04 
-4.385681093912e-04 8.094092053766e-04 0.0 
8.094092053766e-04 4.138199061216e-03 0.0 
0.0 0.0 -6.651338130661e-04 
3.262948492064e-04 7.247061693056e-04 0.0 
7.247061693056e-04 3.757871855246e-03 0.0 
0.0 0.0 -7.293057621917e-04 
-1.285565111169e-04 1.568237725078e-04 0.0 
1.568237725078e-04 5.263084993509e-03 0.0 
0.0 0.0 -7.595475488573e-04 
-5.888072709182e-04 -2.026373467598e-04 0.0 
-2.026373467598e-04 6.845409630692e-03 0.0 
0.0 0.0 -7.972227583478e-04 
-7.062695361416e-04 1.777495493779e-04 0.0 
1.777495493779e-04 6.499213862825e-03 0.0 
0.0 0.0 -7.817164745140e-04 
4.962619559718e-04 -9.744908925093e-05 0.0 
-9.744908925093e-05 1.331281169957e-03 0.0 
0.0 0.0 -3.685493992842e-04 
-1.164581229115e-03 2.188850811810e-04 0.0 
2.188850811810e-04 7.900774321480e-03 0.0 
0.0 0.0 -1.183514100502e-03 
-1.119628239997e-03 2.087348229959e-04 0.0 
2.087348229959e-04 7.433542979005e-03 0.0 
0.0 0.0 -1.117084069417e-03 
-8.143956589139e-04 2.341244742852e-04 0.0 
2.341244742852e-04 5.337741611520e-03 0.0 
0.0 0.0 -8.110481619253e-04 
-2.198487464419e-05 1.728419482811e-04 0.0 
1.728419482811e-04 5.364740827907e-03 0.0 
0.0 0.0 -7.726761966716e-04 
-2.997663878787e-04 1.629181645169e-04 0.0 
1.629181645169e-04 5.591522369146e-03 0.0 
0.0 0.0 -7.648469729955e-04 
-1.194888926874e-03 -2.112261199247e-04 0.0 
-2.112261199247e-04 8.020188826812e-03 0.0 
0.0 0.0 -1.185362187646e-03 
-1.151241251503e-03 1.853138580095e-04 0.0 
1.853138580095e-04 7.714994671460e-03 0.0 
0.0 0.0 -1.150972777267e-03 
5.265484625277e-04 -1.585146988988e-04 0.0 
-1.585146988988e-04 4.416977848969e-03 0.0 
0.0 0.0 -7.464436325807e-04 
-6.626982953242e-04 -1.868665755788e-04 0.0 
-1.868665755788e-04 7.272062625243e-03 0.0 
0.0 0.0 -8.163576614658e-04 
-1.103203670140e-03 1.932633349998e-04 0.0 
1.932633349998e-04 7.339211362922e-03 0.0 
0.0 0.0 -1.103416240745e-03 
-8.531787862110e-04 -1.816940204007e-04 0.0 
-1.816940204007e-04 6.613451383685e-03 0.0 
0.0 0.0 -7.758162606486e-04 
-5.282801165041e-04 -1.633799597252e-04 0.0 
-1.633799597252e-04 7.224140798196e-03 0.0 
0.0 0.0 -8.359876309853e-04 
-1.183451424094e-03 -2.064186268461e-04 0.0 
-2.064186268461e-04 7.961006455012e-03 0.0 
0.0 0.0 -1.181737430652e-03 
-1.012410866899e-03 -2.064236493359e-04 0.0 
-2.064236493359e-04 6.767125967856e-03 0.0 
0.0 0.0 -1.011817915138e-03 
6.173219628201e-04 1.389799841215e-05 0.0 
1.389799841215e-05 4.954032104051e-03 0.0 
0.0 0.0 -7.932701660288e-04 
-2.188412405110e-04 1.656897186563e-04 0.0 
1.656897186563e-04 2.039291020424e-03 0.0 
0.0 0.0 -3.644364776638e-04 
6.920199320500e-04 -1.944732883366e-04 0.0 
-1.944732883366e-04 9.892610133664e-04 0.0 
0.0 0.0 -3.414758422231e-04 
-2.048022796594e-04 -2.337971245160e-04 0.0 
-2.337971245160e-04 1.038657557028e-03 0.0 
0.0 0.0 -1.876370064529e-04 
-1.053265806660e-04 1.589966792155e-06 0.0 
1.589966792155e-06 6.159987105294e-04 0.0 
0.0 0.0 -1.032036840373e-04 
-1.146654591444e-03 -2.036534213009e-04 0.0 
-2.036534213009e-04 7.733548266154e-03 0.0 
0.0 0.0 -1.150998037120e-03 
-6.118352998975e-04 1.768549847890e-04 0.0 
1.768549847890e-04 6.957145088646e-03 0.0 
0.0 0.0 -8.110917144181e-04 
-1.023100123297e-04 6.333767357889e-06 0.0 
6.333767357889e-06 5.922537874641e-04 0.0 
0.0 0.0 -1.029284987275e-04 
-1.152902847458e-03 -1.945944093031e-04 0.0 
-1.945944093031e-04 7.806589318492e-03 0.0 
0.0 0.0 -1.160298666437e-03 
-8.240593874314e-04 2.133386610705e-04 0.0 
2.133386610705e-04 5.515954645069e-03 0.0 
0.0 0.0 -8.436798659344e-04 
-3.890309376830e-04 -1.939357440814e-04 0.0 
-1.939357440814e-04 6.322813723796e-03 0.0 
0.0 0.0 -7.867812296113e-04 
-5.641369859295e-04 1.713416426257e-04 0.0 
1.713416426257e-04 6.540669788348e-03 0.0 
0.0 0.0 -7.936648116040e-04 
1.481483385943e-03 -1.022364548208e-04 0.0 
-1.022364548208e-04 1.195138456993e-03 0.0 
0.0 0.0 -5.090628918580e-04 
-6.797769720095e-04 -2.011063918348e-04 0.0 
-2.011063918348e-04 6.717640833357e-03 0.0 
0.0 0.0 -7.843562239414e-04 
-8.052736907314e-04 -2.707602780884e-04 0.0 
-2.707602780884e-04 5.346563189152e-03 0.0 
0.0 0.0 -8.100176300978e-04 
1.710167215872e-03 1.023703593549e-03 0.0 
1.023703593549e-03 3.907624925200e-03 0.0 
0.0 0.0 -8.574319039805e-04 
-5.685139949185e-04 2.494215510188e-04 0.0 
2.494215510188e-04 7.390909720731e-03 0.0 
0.0 0.0 -8.483380948397e-04 
4.966874033998e-05 1.154451692413e-04 0.0 
1.154451692413e-04 1.687577377596e-03 0.0 
0.0 0.0 -3.542437553904e-04 
-4.340513793067e-04 -7.772515516408e-05 0.0 
-7.772515516408e-05 7.193813735181e-03 0.0 
0.0 0.0 -8.474400280486e-04 
-1.047850802636e-03 -1.881582153281e-04 0.0 
-1.881582153281e-04 7.026769425363e-03 0.0 
0.0 0.0 -1.048288725887e-03 
-2.276947379863e-04 1.835244287601e-04 0.0 
1.835244287601e-04 2.218888752690e-03 0.0 
0.0 0.0 -3.930611257745e-04 
6.204880568371e-04 -4.366216246701e-04 0.0 
-4.366216246701e-04 1.530595907768e-03 0.0 
0.0 0.0 -4.034900192350e-04 
-7.895929124537e-04 1.965462226382e-04 0.0 
1.965462226382e-04 5.097128146383e-03 0.0 
0.0 0.0 -7.330969945144e-04 
-9.478370252283e-04 2.028022273916e-04 0.0 
2.028022273916e-04 6.213549732246e-03 0.0 
0.0 0.0 -9.409807611877e-04 
-9.746085907100e-05 1.034264396668e-04 0.0 
1.034264396668e-04 2.981798148039e-03 0.0 
0.0 0.0 -5.429771841545e-04 
-1.084906178257e-03 -2.011232363262e-04 0.0 
-2.011232363262e-04 7.274950011924e-03 0.0 
0.0 0.0 -1.085119818393e-03 
-9.758201311387e-04 -2.238948292921e-04 0.0 
-2.238948292921e-04 6.526325342415e-03 0.0 
0.0 0.0 -9.816794289629e-04 
-3.428126540695e-04 1.406373119838e-04 0.0 
1.406373119838e-04 4.551461629334e-03 0.0 
0.0 0.0 -7.124923422555e-04 
-7.243776256685e-04 -1.909569889032e-04 0.0 
-1.909569889032e-04 6.378065265101e-03 0.0 
0.0 0.0 -7.664597526172e-04 
-5.688214085520e-04 -2.055483440520e-04 0.0 
-2.055483440520e-04 6.456344276199e-03 0.0 
0.0 0.0 -7.787194414482e-04 
-1.057942238941e-03 2.175749808768e-04 0.0 
2.175749808768e-04 6.964480207197e-03 0.0 
0.0 0.0 -1.050681058959e-03 
-1.613690727201e-04 -1.977820734253e-04 0.0 
-1.977820734253e-04 1.715401269889e-03 0.0 
0.0 0.0 -3.058749225436e-04 
-5.922089151994e-04 1.682667893911e-04 0.0 
1.682667893911e-04 4.596245449273e-03 0.0 
0.0 0.0 -6.991296515804e-04 
1.045608228084e-03 1.456789152997e-03 0.0 
1.456789152997e-03 5.302754204401e-03 0.0 
0.0 0.0 -9.305743473499e-04 
-1.078434925953e-03 -1.984149302182e-04 0.0 
-1.984149302182e-04 7.234990828440e-03 0.0 
0.0 0.0 -1.078198857115e-03 
-5.593916075759e-04 2.002234406653e-04 0.0 
2.002234406653e-04 4.168741815701e-03 0.0 
0.0 0.0 -6.666835465145e-04 
2.698766078269e-04 -1.770216432324e-04 0.0 
-1.770216432324e-04 4.830603163577e-03 0.0 
0.0 0.0 -7.514891372058e-04 
-3.073447251263e-04 -8.611190663025e-05 0.0 
-8.611190663025e-05 6.927463069927e-03 0.0 
0.0 0.0 -8.426493568250e-04 
-1.005326890981e-03 1.902074749802e-04 0.0 
1.902074749802e-04 6.713852212323e-03 0.0 
0.0 0.0 -1.013969106439e-03 
-1.909283182059e-04 -2.134343415579e-04 0.0 
-2.134343415579e-04 9.857203047885e-04 0.0 
0.0 0.0 -1.806728872115e-04 
-1.970147197368e-04 -2.059863142165e-04 0.0 
-2.059863142165e-04 1.002592449070e-03 0.0 
0.0 0.0 -1.835536028976e-04 
1.348875916548e-04 -1.600467306534e-04 0.0 
-1.600467306534e-04 1.668925100199e-03 0.0 
0.0 0.0 -3.467375663575e-04 
-4.968205537794e-04 1.830697811968e-04 0.0 
1.830697811968e-04 6.682445842020e-03 0.0 
0.0 0.0 -8.058456831482e-04 
-9.816567297486e-04 1.933811921609e-04 0.0 
1.933811921609e-04 6.465198559992e-03 0.0 
0.0 0.0 -9.775003154318e-04 
-8.371582381392e-04 -2.154749296754e-04 0.0 
-2.154749296754e-04 5.602790700623e-03 0.0 
0.0 0.0 -7.437565214900e-04 
-8.730704368828e-04 1.896261582467e-04 0.0 
1.896261582467e-04 5.754508324044e-03 0.0 
0.0 0.0 -8.745614812816e-04 
2.242913553253e-04 1.108503728417e-04 0.0 
1.108503728417e-04 6.133331151868e-03 0.0 
0.0 0.0 -8.491119169565e-04 
-5.762362736660e-04 1.643815109043e-04 0.0 
1.643815109043e-04 4.941620570429e-03 0.0 
0.0 0.0 -7.177020836414e-04 
-4.641441846088e-04 1.719420283774e-04 0.0 
1.719420283774e-04 6.283013484352e-03 0.0 
0.0 0.0 -7.878085537141e-04 
-9.508166882598e-05 -1.786866980590e-04 0.0 
-1.786866980590e-04 1.992828051673e-03 0.0 
0.0 0.0 -3.615122310665e-04 
-4.175085679613e-04 2.783841679848e-04 0.0 
2.783841679848e-04 7.105650727671e-03 0.0 
0.0 0.0 -8.429744434568e-04 
-5.497766202043e-04 -2.153356988641e-04 0.0 
-2.153356988641e-04 4.823252272395e-03 0.0 
0.0 0.0 -6.985020023820e-04 
-5.707509447959e-05 -1.816327020959e-04 0.0 
-1.816327020959e-04 2.133451507630e-03 0.0 
0.0 0.0 -3.889166325194e-04 
-7.314408500692e-04 -2.153926660505e-04 0.0 
-2.153926660505e-04 4.771307330614e-03 0.0 
0.0 0.0 -6.903814947077e-04 
-2.949459810095e-04 1.344363523796e-04 0.0 
1.344363523796e-04 3.350806198617e-03 0.0 
0.0 0.0 -5.716673668464e-04 
-9.997209403483e-05 -2.538007782739e-04 0.0 
-2.538007782739e-04 2.491316652255e-03 0.0 
0.0 0.0 -4.452767020142e-04 
-8.541790810728e-04 1.833417064731e-04 0.0 
1.833417064731e-04 5.484151009997e-03 0.0 
0.0 0.0 -7.417510770484e-04 
9.625058696984e-05 1.313489787642e-07 0.0 
1.313489787642e-07 -2.887306506032e-05 0.0 
0.0 0.0 -2.887608081836e-05 
0.0 0.0 0.0 
0.0 0.0 0.0 
0.0 0.0 0.0 
-4.407466046723e-04 -2.069067607376e-04 0.0 
-2.069067607376e-04 5.800948097803e-03 0.0 
0.0 0.0 -7.539540058923e-04 
-1.351919014974e-04 -1.863516701408e-04 0.0 
-1.863516701408e-04 1.873274078383e-03 0.0 
0.0 0.0 -3.336449385292e-04 
-1.558184519690e-04 -1.985109987491e-04 0.0 
-1.985109987491e-04 5.568741962264e-03 0.0 
0.0 0.0 -7.620081839697e-04 
3.828248310979e-05 -1.886809699928e-04 0.0 
-1.886809699928e-04 5.220048834184e-03 0.0 
0.0 0.0 -7.565719373490e-04 
4.816282027795e-04 3.779882110695e-05 0.0 
3.779882110695e-05 2.849417493860e-03 0.0 
0.0 0.0 -6.177757646845e-04 
1.632005742353e-03 -2.765995424450e-04 0.0 
-2.765995424450e-04 4.978443798491e-04 0.0 
0.0 0.0 -4.162223005415e-04 
-1.136715502842e-03 -2.038924191314e-04 0.0 
-2.038924191314e-04 7.650435027918e-03 0.0 
0.0 0.0 -1.137719822027e-03 
-2.155883669570e-04 -8.829356196837e-05 0.0 
-8.829356196837e-05 9.573383583194e-04 0.0 
0.0 0.0 -2.047534254615e-04 
-4.703841696033e-04 1.509798213010e-04 0.0 
1.509798213010e-04 3.705223968684e-03 0.0 
0.0 0.0 -6.004815939293e-04 
1.178495499888e-04 1.792981314821e-04 0.0 
1.792981314821e-04 6.415355866628e-03 0.0 
0.0 0.0 -8.671291037087e-04 
-1.255833741325e-04 1.617457482060e-04 0.0 
1.617457482060e-04 1.527501880205e-03 0.0 
0.0 0.0 -2.977570873278e-04 
-9.136045934539e-04 -1.921452035066e-04 0.0 
-1.921452035066e-04 6.056651557430e-03 0.0 
0.0 0.0 -9.088859120638e-04 
-8.340119380579e-04 -2.228113772719e-04 0.0 
-2.228113772719e-04 5.573887948833e-03 0.0 
0.0 0.0 -8.416286270284e-04 
-1.957600222078e-04 -2.150474696564e-04 0.0 
-2.150474696564e-04 1.629071510197e-03 0.0 
0.0 0.0 -2.842394630762e-04 
-1.207630728646e-04 -2.525283811198e-05 0.0 
-2.525283811198e-05 6.577405584985e-03 0.0 
0.0 0.0 -8.382957413223e-04 
-1.035589941137e-03 -1.985988582849e-04 0.0 
-1.985988582849e-04 6.933992631060e-03 0.0 
0.0 0.0 -1.034898561726e-03 
-1.940582131597e-04 1.491319715007e-04 0.0 
1.491319715007e-04 1.847340925914e-03 0.0 
0.0 0.0 -3.364655670308e-04 
-1.165152170532e-03 -1.849586778466e-04 0.0 
-1.849586778466e-04 7.849581652679e-03 0.0 
0.0 0.0 -1.166520446339e-03 
-1.171818434168e-03 1.701070722775e-04 0.0 
1.701070722775e-04 7.787163600185e-03 0.0 
0.0 0.0 -1.169001632583e-03 
-1.851972553872e-04 -2.240133501741e-04 0.0 
-2.240133501741e-04 2.128503739514e-03 0.0 
0.0 0.0 -3.701904734684e-04 
6.682509220743e-04 2.398139470391e-03 0.0 
2.398139470391e-03 1.920126673401e-03 0.0 
0.0 0.0 -4.801335248058e-04 
-1.485572346010e-04 -2.381708940657e-04 0.0 
-2.381708940657e-04 2.144068680336e-03 0.0 
0.0 0.0 -3.791106726259e-04 
-4.616844929477e-04 -2.019712096966e-04 0.0 
-2.019712096966e-04 6.191996066818e-03 0.0 
0.0 0.0 -7.730402541884e-04 
-7.664563469383e-04 1.811883627144e-04 0.0 
1.811883627144e-04 5.266003721903e-03 0.0 
0.0 0.0 -7.231788031718e-04 
-1.175065292852e-03 1.838008001023e-04 0.0 
1.838008001023e-04 7.798269859187e-03 0.0 
0.0 0.0 -1.169529464977e-03 
-1.141233486497e-03 1.909358973763e-04 0.0 
1.909358973763e-04 7.594915182305e-03 0.0 
0.0 0.0 -1.140030709108e-03 
-3.144126026980e-04 -2.018238812196e-04 0.0 
-2.018238812196e-04 5.885020665980e-03 0.0 
0.0 0.0 -7.675266036374e-04 
-1.936899850097e-04 1.700149839946e-04 0.0 
1.700149839946e-04 5.692444129883e-03 0.0 
0.0 0.0 -7.776052784044e-04 
-1.774630351642e-04 1.480067903024e-04 0.0 
1.480067903024e-04 1.703258932136e-03 0.0 
0.0 0.0 -3.158693332420e-04 
-3.468291094603e-04 1.702290866483e-04 0.0 
1.702290866483e-04 6.002820814932e-03 0.0 
0.0 0.0 -7.829701335612e-04 
-1.038324079738e-03 1.969104416427e-04 0.0 
1.969104416427e-04 6.879456010501e-03 0.0 
0.0 0.0 -1.037144748481e-03 
-8.220369462136e-04 -1.919080457818e-04 0.0 
-1.919080457818e-04 5.383923414444e-03 0.0 
0.0 0.0 -7.270432371502e-04 
-9.784412971014e-04 -1.995967018582e-04 0.0 
-1.995967018582e-04 6.519224964638e-03 0.0 
0.0 0.0 -9.752741834902e-04 
-1.071043316413e-03 -2.014206266275e-04 0.0 
-2.014206266275e-04 7.187990111684e-03 0.0 
0.0 0.0 -1.071415751597e-03 
3.104699286427e-03 1.605591219086e-03 0.0 
1.605591219086e-03 9.808979809888e-04 0.0 
0.0 0.0 -7.435371925968e-04 
-1.112301323396e-03 1.953318319138e-04 0.0 
1.953318319138e-04 7.388703494557e-03 0.0 
0.0 0.0 -1.110258267496e-03 
-7.048198476116e-04 2.101852396120e-04 0.0 
2.101852396120e-04 4.548785928474e-03 0.0 
0.0 0.0 -6.941199531142e-04 
-7.566189844034e-04 -2.040502541896e-04 0.0 
-2.040502541896e-04 5.167349555669e-03 0.0 
0.0 0.0 -7.060068992617e-04 
-3.811549343185e-04 1.936781337569e-04 0.0 
1.936781337569e-04 3.234096744781e-03 0.0 
0.0 0.0 -5.342291996904e-04 
7.156530138386e-04 -3.433120466862e-04 0.0 
-3.433120466862e-04 2.357337219666e-03 0.0 
0.0 0.0 -5.581583723280e-04 
-1.010310088917e-03 1.967228699852e-04 0.0 
1.967228699852e-04 6.672709965049e-03 0.0 
0.0 0.0 -1.007339817349e-03 
1.182903928507e-03 -1.442446733142e-04 0.0 
-1.442446733142e-04 3.082786729052e-03 0.0 
0.0 0.0 -7.160860196885e-04 
-1.814171269916e-04 -2.315149019964e-04 0.0 
-2.315149019964e-04 2.349573825643e-03 0.0 
0.0 0.0 -4.077494273363e-04 
-2.235505229119e-04 -1.665382784812e-04 0.0 
-1.665382784812e-04 1.264629605483e-03 0.0 
0.0 0.0 -2.185673950299e-04 
-1.005369566171e-03 -1.969282844887e-04 0.0 
-1.969282844887e-04 6.726819346583e-03 0.0 
0.0 0.0 -1.005115000480e-03 
-1.597345865202e-04 1.299747670943e-04 0.0 
1.299747670943e-04 2.251713119507e-03 0.0 
0.0 0.0 -4.107160730352e-04 
-3.730839899323e-04 2.749853929555e-04 0.0 
2.749853929555e-04 7.093372916634e-03 0.0 
0.0 0.0 -8.534007503202e-04 
-1.042807145316e-03 1.952121137200e-04 0.0 
1.952121137200e-04 6.924647329534e-03 0.0 
0.0 0.0 -1.043883448597e-03 
-2.868810984425e-04 1.805869246715e-04 0.0 
1.805869246715e-04 6.145225699123e-03 0.0 
0.0 0.0 -7.961546692802e-04 
-4.360409896018e-04 3.108486558407e-04 0.0 
3.108486558407e-04 7.377468814354e-03 0.0 
0.0 0.0 -9.232804661851e-04 
-6.500515378063e-04 -2.174111046222e-04 0.0 
-2.174111046222e-04 4.347077589672e-03 0.0 
0.0 0.0 -6.637377122259e-04 
-2.153314470886e-04 1.561117348666e-04 0.0 
1.561117348666e-04 2.081244215346e-03 0.0 
0.0 0.0 -3.731618544808e-04 
-2.225726372044e-04 1.982342352357e-04 0.0 
1.982342352357e-04 1.341771995269e-03 0.0 
0.0 0.0 -2.496210768721e-04 
-8.248625406809e-05 -1.740372246234e-04 0.0 
-1.740372246234e-04 5.700254569947e-03 0.0 
0.0 0.0 -7.763550262057e-04 
-9.502891484141e-04 2.008015227702e-04 0.0 
2.008015227702e-04 6.263291661127e-03 0.0 
0.0 0.0 -9.473489374553e-04 
-1.787867007396e-04 1.721284507091e-04 0.0 
1.721284507091e-04 9.234900215078e-04 0.0 
0.0 0.0 -1.858848441742e-04 
-2.183233535131e-04 -2.386557105846e-04 0.0 
-2.386557105846e-04 3.181954111317e-03 0.0 
0.0 0.0 -5.400474096907e-04 
2.251479441327e-04 -1.359388342976e-04 0.0 
-1.359388342976e-04 1.469627039384e-03 0.0 
0.0 0.0 -3.246070344129e-04 
-9.392936976825e-04 -1.862704497827e-04 0.0 
-1.862704497827e-04 6.266809515345e-03 0.0 
0.0 0.0 -9.387834224271e-04 
-3.741827704152e-04 -2.285430154056e-04 0.0 
-2.285430154056e-04 3.519536241698e-03 0.0 
0.0 0.0 -5.687878759048e-04 
1.869313482270e-04 1.770446552399e-04 0.0 
1.770446552399e-04 5.001310717625e-03 0.0 
0.0 0.0 -7.679883257467e-04 
-3.977941334997e-04 -2.208315675794e-04 0.0 
-2.208315675794e-04 3.270619139504e-03 0.0 
0.0 0.0 -5.337555413938e-04 
-1.117346964304e-03 -2.071110090059e-04 0.0 
-2.071110090059e-04 7.492505049919e-03 0.0 
0.0 0.0 -1.114809527198e-03 
-1.218064914341e-04 1.158078756993e-04 0.0 
1.158078756993e-04 2.612515375110e-03 0.0 
0.0 0.0 -4.768663991247e-04 
1.543586672948e-04 -1.198741194903e-04 0.0 
-1.198741194903e-04 5.522086570346e-03 0.0 
0.0 0.0 -7.864181608284e-04 
4.266767138139e-04 -4.443873909110e-04 0.0 
-4.443873909110e-04 1.340678431775e-03 0.0 
0.0 0.0 -3.376433569222e-04 
1.165801581303e-04 -1.581623001772e-04 0.0 
-1.581623001772e-04 5.349720384745e-03 0.0 
0.0 0.0 -7.712432076905e-04 
-7.630331337078e-04 -1.660294401090e-04 0.0 
-1.660294401090e-04 4.995987912275e-03 0.0 
0.0 0.0 -7.158532205783e-04 
-1.350849144017e-04 1.878233040300e-04 0.0 
1.878233040300e-04 5.836920628449e-03 0.0 
0.0 0.0 -7.910956994420e-04 
2.648614313782e-03 3.643334685963e-04 0.0 
3.643334685963e-04 1.956542454602e-04 0.0 
0.0 0.0 -5.350282927002e-04 
-6.808681654644e-06 1.729992691545e-04 0.0 
1.729992691545e-04 1.590279453367e-03 0.0 
0.0 0.0 -3.277310168338e-04 
-8.709310065230e-04 -1.930857458815e-04 0.0 
-1.930857458815e-04 5.840506173078e-03 0.0 
0.0 0.0 -8.787268422831e-04 
1.360321873594e-03 3.391318841281e-04 0.0 
3.391318841281e-04 3.932324111753e-03 0.0 
0.0 0.0 -7.981679048626e-04 
-7.242275188767e-05 9.981931191032e-04 0.0 
9.981931191032e-04 3.762719218133e-03 0.0 
0.0 0.0 -6.776081642141e-04 
-9.468425740779e-04 -2.085300673065e-04 0.0 
-2.085300673065e-04 6.298374618209e-03 0.0 
0.0 0.0 -9.453210152248e-04 
8.386935553401e-04 -5.309369232289e-04 0.0 
-5.309369232289e-04 1.138112784272e-03 0.0 
0.0 0.0 -3.758914132629e-04 
-9.664473934007e-04 1.935643871515e-04 0.0 
1.935643871515e-04 6.379409966944e-03 0.0 
0.0 0.0 -9.642804585795e-04 
1.542616642329e-04 -1.609406580993e-04 0.0 
-1.609406580993e-04 1.342015719705e-03 0.0 
0.0 0.0 -2.947674122297e-04 
-2.410888293991e-04 -1.138480503317e-04 0.0 
-1.138480503317e-04 6.648280758643e-03 0.0 
0.0 0.0 -8.269101249443e-04 
1.327365650806e-03 4.504428907425e-04 0.0 
4.504428907425e-04 4.174786474335e-03 0.0 
0.0 0.0 -8.170977502520e-04 
1.576766724312e-03 1.140904169975e-03 0.0 
1.140904169975e-03 4.250624608086e-03 0.0 
0.0 0.0 -8.798235846823e-04 
-1.209610339595e-03 -2.064055054885e-04 0.0 
-2.064055054885e-04 8.130245976668e-03 0.0 
0.0 0.0 -1.204463612412e-03 
1.034263970799e-03 -9.954356839678e-05 0.0 
-9.954356839678e-05 3.595555966784e-03 0.0 
0.0 0.0 -7.363257057400e-04 
-1.973521347478e-04 1.601445658995e-04 0.0 
1.601445658995e-04 1.671166393080e-03 0.0 
0.0 0.0 -3.081489256106e-04 
5.932806888801e-04 -1.045774838293e-04 0.0 
-1.045774838293e-04 4.559283458103e-03 0.0 
0.0 0.0 -7.615631644840e-04 
-2.278238724492e-04 3.098292933792e-04 0.0 
3.098292933792e-04 6.784161100683e-03 0.0 
0.0 0.0 -8.501506895066e-04 
1.440506687155e-03 -4.523597693403e-04 0.0 
-4.523597693403e-04 1.153711297624e-03 0.0 
0.0 0.0 -4.786098583285e-04 
-2.438417084191e-04 -1.864920196536e-04 0.0 
-1.864920196536e-04 6.017821771238e-03 0.0 
0.0 0.0 -7.815782612730e-04 
-1.042240091366e-03 -2.028158867280e-04 0.0 
-2.028158867280e-04 6.979443732142e-03 0.0 
0.0 0.0 -1.041631482750e-03 
1.798529926881e-03 -3.568672245261e-04 0.0 
-3.568672245261e-04 1.624774729151e-04 0.0 
0.0 0.0 -3.880698300753e-04 
3.451549019259e-04 -1.356431710092e-04 0.0 
-1.356431710092e-04 4.964510851857e-03 0.0 
0.0 0.0 -7.663947457040e-04 
-8.586433483391e-04 -1.931078618343e-04 0.0 
-1.931078618343e-04 5.748348032680e-03 0.0 
0.0 0.0 -8.663127257150e-04 
-2.565939273656e-04 -1.917262753854e-04 0.0 
-1.917262753854e-04 2.542405500588e-03 0.0 
0.0 0.0 -4.280652785065e-04 
-6.198487745558e-05 -2.635471502875e-04 0.0 
-2.635471502875e-04 2.850864852526e-03 0.0 
0.0 0.0 -5.113914792957e-04 
-3.854152911023e-05 6.603374206938e-04 0.0 
6.603374206938e-04 4.545362509461e-03 0.0 
0.0 0.0 -8.004334922225e-04 
4.197672872305e-05 1.967328297719e-04 0.0 
1.967328297719e-04 5.508464364672e-03 0.0 
0.0 0.0 -7.864446365664e-04 
-3.965731573089e-05 1.223969474462e-03 0.0 
1.223969474462e-03 3.469644942213e-03 0.0 
0.0 0.0 -6.201901524263e-04 
1.596410535870e-04 7.236998779939e-04 0.0 
7.236998779939e-04 4.136856865406e-03 0.0 
0.0 0.0 -7.649884091348e-04 
-1.002132587578e-03 1.966152402384e-04 0.0 
1.966152402384e-04 6.628701174112e-03 0.0 
0.0 0.0 -1.000670320419e-03 
-9.160037735611e-04 2.105070801011e-04 0.0 
2.105070801011e-04 6.003693375901e-03 0.0 
0.0 0.0 -9.110000341593e-04 
-8.984996443820e-04 1.923871522477e-04 0.0 
1.923871522477e-04 5.918711205323e-03 0.0 
0.0 0.0 -8.984003255416e-04 
-7.636165443167e-04 1.670449782877e-04 0.0 
1.670449782877e-04 4.918063000412e-03 0.0 
0.0 0.0 -7.095884542863e-04 
7.650056269742e-05 8.993986504604e-06 0.0 
8.993986504604e-06 6.225368845599e-03 0.0 
0.0 0.0 -8.350719170822e-04 
8.450574124061e-04 -6.629538203487e-05 0.0 
-6.629538203487e-05 4.149962107528e-03 0.0 
0.0 0.0 -7.566960555229e-04 
-8.818948229552e-04 -1.808766535773e-04 0.0 
-1.808766535773e-04 5.810855732820e-03 0.0 
0.0 0.0 -8.720525204519e-04 
-1.189207550680e-03 -2.080409433221e-04 0.0 
-2.080409433221e-04 7.984207260403e-03 0.0 
0.0 0.0 -1.124221643066e-03 
1.421649212668e-03 1.223439439854e-03 0.0 
1.223439439854e-03 4.611203841613e-03 0.0 
0.0 0.0 -9.027015599408e-04 
2.492956575325e-04 2.107306550945e-04 0.0 
2.107306550945e-04 5.147368048687e-03 0.0 
0.0 0.0 -7.818804003469e-04 
-1.074220521467e-03 1.937044770007e-04 0.0 
1.937044770007e-04 7.133220182241e-03 0.0 
0.0 0.0 -1.073677668998e-03 
4.905844416765e-04 -3.220690645117e-04 0.0 
-3.220690645117e-04 2.744459910052e-03 0.0 
0.0 0.0 -5.862626530914e-04 
1.827429468583e-04 -2.998325924453e-04 0.0 
-2.998325924453e-04 2.828709744481e-03 0.0 
0.0 0.0 -5.488365039436e-04 
-1.830005358084e-04 -2.274308980850e-04 0.0 
-2.274308980850e-04 1.775704308256e-03 0.0 
0.0 0.0 -3.130684191733e-04 
6.207723119387e-04 -4.573907414943e-05 0.0 
-4.573907414943e-05 4.740665125966e-03 0.0 
0.0 0.0 -7.771731672889e-04 
-2.566809550207e-05 -2.703838874635e-04 0.0 
-2.703838874635e-04 3.208898828582e-03 0.0 
0.0 0.0 -5.775003002374e-04 
-9.676234080517e-04 -1.978430549766e-04 0.0 
-1.978430549766e-04 6.470709836540e-03 0.0 
0.0 0.0 -9.686535345556e-04 
-9.307775843259e-04 -2.009567450900e-04 0.0 
-2.009567450900e-04 6.218061512745e-03 0.0 
0.0 0.0 -9.322463471790e-04 
2.816249506733e-03 9.562739598568e-04 0.0 
9.562739598568e-04 1.506058788484e-03 0.0 
0.0 0.0 -7.690363516573e-04 
2.751109228432e-04 2.082401407048e-05 0.0 
2.082401407048e-05 2.264963983665e-03 0.0 
0.0 0.0 -4.860199686152e-04 
1.039184041356e-03 6.123053894636e-04 0.0 
6.123053894636e-04 1.676973000726e-03 0.0 
0.0 0.0 -5.148587792422e-04 
9.125049818388e-05 6.508379073083e-05 0.0 
6.508379073083e-05 2.621396731651e-03 0.0 
0.0 0.0 -5.143448975765e-04 
3.926912087123e-04 2.224105890731e-05 0.0 
2.224105890731e-05 2.543696654816e-03 0.0 
0.0 0.0 -5.517963299543e-04 
-1.974141245958e-04 1.527898738071e-04 0.0 
1.527898738071e-04 1.892985263976e-03 0.0 
0.0 0.0 -3.446931235564e-04 
3.017813328214e-04 6.025276742396e-05 0.0 
6.025276742396e-05 5.846239149403e-03 0.0 
0.0 0.0 -8.310433330621e-04 
1.292948508586e-03 7.215383422684e-05 0.0 
7.215383422684e-05 2.313872470256e-03 0.0 
0.0 0.0 -6.642957827475e-04 
-1.108318305334e-03 -2.031784349512e-04 0.0 
-2.031784349512e-04 7.443886566257e-03 0.0 
0.0 0.0 -1.107989045227e-03 
1.474961887522e-03 1.479674012439e-04 0.0 
1.479674012439e-04 2.356517513584e-03 0.0 
0.0 0.0 -7.013039408444e-04 
7.281028846941e-04 2.599884824963e-04 0.0 
2.599884824963e-04 4.355936009246e-03 0.0 
0.0 0.0 -7.721559298506e-04 
1.107917624484e-03 1.872937992953e-04 0.0 
1.872937992953e-04 3.245907693051e-03 0.0 
0.0 0.0 -7.334112663205e-04 
8.761424607610e-04 9.678655900413e-04 0.0 
9.678655900413e-04 3.371076850648e-03 0.0 
0.0 0.0 -7.567435594049e-04 
-1.869564156098e-04 -2.138868561225e-04 0.0 
-2.138868561225e-04 1.961294429601e-03 0.0 
0.0 0.0 -3.417109511102e-04 
-4.222674878655e-05 3.215542945215e-04 0.0 
3.215542945215e-04 6.418834619282e-03 0.0 
0.0 0.0 -8.468250354665e-04 
-1.879219680953e-04 -2.553090673178e-05 0.0 
-2.553090673178e-05 6.892912553449e-03 0.0 
0.0 0.0 -8.566478499777e-04 
4.533757884108e-04 1.737690959355e-03 0.0 
1.737690959355e-03 4.939453866416e-03 0.0 
0.0 0.0 -9.376927890726e-04 
7.293165954483e-04 7.623661159275e-06 0.0 
7.623661159275e-06 2.429773390477e-03 0.0 
0.0 0.0 -5.892385666867e-04 
9.372673343265e-04 2.288811619111e-04 0.0 
2.288811619111e-04 3.781380506360e-03 0.0 
0.0 0.0 -7.526554850761e-04 
-9.731621015164e-04 2.042240848124e-04 0.0 
2.042240848124e-04 6.416634786867e-03 0.0 
0.0 0.0 -9.708520278613e-04 
2.533446879473e-04 -2.949649278045e-04 0.0 
-2.949649278045e-04 3.151861497523e-03 0.0 
0.0 0.0 -6.148791393495e-04 
1.104663674833e-04 7.223421176330e-04 0.0 
7.223421176330e-04 3.444452466379e-03 0.0 
0.0 0.0 -6.394234923164e-04 
-1.854488784061e-04 -2.374933080253e-04 0.0 
-2.374933080253e-04 2.746986382921e-03 0.0 
0.0 0.0 -4.739097840058e-04 
1.283429573826e-03 -5.569464337167e-04 0.0 
-5.569464337167e-04 9.200143818380e-04 0.0 
0.0 0.0 -4.132304097957e-04 
8.100266584298e-04 -3.152602966970e-04 0.0 
-3.152602966970e-04 2.648526272272e-03 0.0 
0.0 0.0 -6.236739531379e-04 
-2.248792745427e-04 1.409659872881e-04 0.0 
1.409659872881e-04 2.488969227571e-03 0.0 
0.0 0.0 -4.393534411964e-04 
-2.221982988001e-04 -2.113852393537e-04 0.0 
-2.113852393537e-04 2.339121807196e-03 0.0 
0.0 0.0 -3.988888273503e-04 
9.368262590484e-04 -1.697241219664e-04 0.0 
-1.697241219664e-04 3.484898176804e-03 0.0 
0.0 0.0 -7.211607039549e-04 
4.809190499375e-04 2.322409088712e-04 0.0 
2.322409088712e-04 4.759679046460e-03 0.0 
0.0 0.0 -7.771213062835e-04 
1.144268628660e-03 2.452241874089e-03 0.0 
2.452241874089e-03 5.165935076314e-03 0.0 
0.0 0.0 -1.004716890882e-03 
-7.677587316374e-05 5.132629422675e-05 0.0 
5.132629422675e-05 2.950272314679e-04 0.0 
0.0 0.0 -4.808883996072e-05 
2.090286767025e-03 3.167343410506e-04 0.0 
3.167343410506e-04 1.622211767643e-03 0.0 
0.0 0.0 -6.818868151028e-04 
1.708513286619e-03 1.653748038287e-04 0.0 
1.653748038287e-04 1.952544053292e-03 0.0 
0.0 0.0 -6.732431144785e-04 
1.046774274574e-03 2.360361183098e-05 0.0 
2.360361183098e-05 2.335577999237e-03 0.0 
0.0 0.0 -6.268095852860e-04 
-9.342352764228e-04 1.992757766659e-04 0.0 
1.992757766659e-04 6.164738867849e-03 0.0 
0.0 0.0 -9.344164207832e-04 
1.233363403348e-03 1.353994836727e-04 0.0 
1.353994836727e-04 2.755989147974e-03 0.0 
0.0 0.0 -7.143901349178e-04 
-2.480648583880e-04 1.483154594456e-04 0.0 
1.483154594456e-04 2.914634007333e-03 0.0 
0.0 0.0 -5.055050897130e-04 
1.078706253404e-03 -2.691482041456e-04 0.0 
-2.691482041456e-04 2.604908644660e-03 0.0 
0.0 0.0 -6.611654675676e-04 
-1.086852433707e-03 1.972393602690e-04 0.0 
1.972393602690e-04 7.180508805687e-03 0.0 
0.0 0.0 -1.080452943103e-03 
-2.861442420578e-04 -2.226222538696e-04 0.0 
-2.226222538696e-04 3.014437434433e-03 0.0 
0.0 0.0 -5.025663706543e-04 
-2.068765507079e-04 1.780811299395e-04 0.0 
1.780811299395e-04 1.103158600140e-03 0.0 
0.0 0.0 -2.132551421006e-04 
-2.052354634508e-04 1.599341944884e-04 0.0 
1.599341944884e-04 1.518470143894e-03 0.0 
0.0 0.0 -2.784575373548e-04 
1.361845516138e-03 -1.882360683769e-04 0.0 
-1.882360683769e-04 9.338134631210e-04 0.0 
0.0 0.0 -4.444240490351e-04 
6.170625914859e-04 -2.404338066705e-05 0.0 
-2.404338066705e-05 2.147374666250e-03 0.0 
0.0 0.0 -5.239304829885e-04 
1.836369546387e-03 2.768535547766e-04 0.0 
2.768535547766e-04 2.047395190856e-03 0.0 
0.0 0.0 -7.099160536912e-04 
1.279822104827e-03 -1.985567607890e-04 0.0 
-1.985567607890e-04 2.625508299673e-03 0.0 
0.0 0.0 -6.960310156166e-04 
5.682388537711e-04 -5.494614434966e-04 0.0 
-5.494614434966e-04 1.005046115248e-03 0.0 
0.0 0.0 -3.092759564244e-04 
-1.666611277432e-04 -2.283297490735e-04 0.0 
-2.283297490735e-04 1.523468551748e-03 0.0 
0.0 0.0 -2.765202162382e-04 
-9.029473964606e-04 -2.318038937515e-04 0.0 
-2.318038937515e-04 5.899437226641e-03 0.0 
0.0 0.0 -8.885078876198e-04 
-2.289794137138e-04 -2.292168289045e-04 0.0 
-2.292168289045e-04 2.568290744762e-03 0.0 
0.0 0.0 -4.363975895258e-04 
4.536168932184e-04 3.832047159490e-04 0.0 
3.832047159490e-04 5.415738695860e-03 0.0 
0.0 0.0 -8.230898413779e-04 
1.371939129101e-03 2.481846252263e-03 0.0 
2.481846252263e-03 4.733247780272e-03 0.0 
0.0 0.0 -9.816615857601e-04 
-9.055761456836e-04 -1.909848796465e-04 0.0 
-1.909848796465e-04 6.010442057108e-03 0.0 
0.0 0.0 -9.013836717722e-04 
-1.127393681638e-03 1.896887369254e-04 0.0 
1.896887369254e-04 7.503433377312e-03 0.0 
0.0 0.0 -1.126084317643e-03 
9.482927459864e-04 2.415270174428e-03 0.0 
2.415270174428e-03 5.565964590333e-03 0.0 
0.0 0.0 -1.027722052029e-03 
2.954166862264e-03 1.134021110233e-03 0.0 
1.134021110233e-03 1.200217541738e-03 0.0 
0.0 0.0 -7.408850503417e-04 
1.368022041787e-03 2.528542358558e-03 0.0 
2.528542358558e-03 4.359938704057e-03 0.0 
0.0 0.0 -9.622042047296e-04 
1.009525418293e-03 -6.428806390630e-04 0.0 
-6.428806390630e-04 8.033194910658e-04 0.0 
0.0 0.0 -3.474733517438e-04 
8.396951033848e-04 -2.709489700180e-04 0.0 
-2.709489700180e-04 3.008922422863e-03 0.0 
0.0 0.0 -6.867452755781e-04 
1.247499624533e-03 1.240168074393e-03 0.0 
1.240168074393e-03 2.503082696336e-03 0.0 
0.0 0.0 -6.879681371099e-04 
1.898275895034e-03 -1.793127460949e-04 0.0 
-1.793127460949e-04 1.328989276561e-04 0.0 
0.0 0.0 -3.974404770784e-04 
6.029918325229e-04 -6.298945762006e-04 0.0 
-6.298945762006e-04 8.276550681731e-04 0.0 
0.0 0.0 -2.813757158202e-04 
1.652082773025e-04 6.204780206743e-05 0.0 
6.204780206743e-05 2.943357250434e-03 0.0 
0.0 0.0 -5.804062017457e-04 
1.506551659165e-03 -1.770091014605e-04 0.0 
-1.770091014605e-04 2.230817220521e-03 0.0 
0.0 0.0 -6.703429011760e-04 
1.647365019998e-03 -7.348961551961e-05 0.0 
-7.348961551961e-05 2.310055804145e-03 0.0 
0.0 0.0 -7.069803871214e-04 
-3.113354815152e-04 1.485599811695e-04 0.0 
1.485599811695e-04 2.746381632416e-03 0.0 
0.0 0.0 -4.680152132766e-04 
1.356819307570e-03 2.100956507143e-04 0.0 
2.100956507143e-04 2.841787436606e-03 0.0 
0.0 0.0 -7.283910835936e-04 
1.882861124138e-03 -2.829169916261e-05 0.0 
-2.829169916261e-05 1.904936551343e-03 0.0 
0.0 0.0 -6.790125122096e-04 
2.202656142287e-03 4.626465688857e-04 0.0 
4.626465688857e-04 1.729765792079e-03 0.0 
0.0 0.0 -7.183521444552e-04 
3.794694809908e-04 -3.301169756867e-04 0.0 
-3.301169756867e-04 2.465202905651e-03 0.0 
0.0 0.0 -5.205443542100e-04 
1.534045638937e-03 7.089168169359e-04 0.0 
7.089168169359e-04 4.026178706089e-03 0.0 
0.0 0.0 -8.359068714528e-04 
-1.000725886826e-03 -2.001881518317e-04 0.0 
-2.001881518317e-04 6.682457666445e-03 0.0 
0.0 0.0 -9.984673180476e-04 
2.493047759017e-03 5.436055619323e-04 0.0 
5.436055619323e-04 1.270208810066e-03 0.0 
0.0 0.0 -6.904379518788e-04 
1.659020521331e-04 3.784869915264e-04 0.0 
3.784869915264e-04 6.069403733512e-03 0.0 
0.0 0.0 -8.433770021872e-04 
1.478318701175e-03 -6.590437799545e-04 0.0 
-6.590437799545e-04 5.571433206223e-04 0.0 
0.0 0.0 -3.849690761666e-04 
-5.925685006688e-06 4.759320787250e-04 0.0 
4.759320787250e-04 6.710554142592e-03 0.0 
0.0 0.0 -8.780713463746e-04 
1.595057167945e-03 2.406651675033e-04 0.0 
2.406651675033e-04 2.446881136320e-03 0.0 
0.0 0.0 -7.239224352702e-04 
8.127827215019e-04 2.472399118471e-03 0.0 
2.472399118471e-03 5.973892088440e-03 0.0 
0.0 0.0 -1.052419793314e-03 
-9.174882615910e-04 -1.900236548234e-04 0.0 
-1.900236548234e-04 6.103327033778e-03 0.0 
0.0 0.0 -9.144069900286e-04 
1.163166722508e-03 -2.737112742413e-04 0.0 
-2.737112742413e-04 7.416999788090e-04 0.0 
0.0 0.0 -3.788569260404e-04 
-9.329446838714e-04 -1.934956866743e-04 0.0 
-1.934956866743e-04 6.203824333692e-03 0.0 
0.0 0.0 -9.292863832265e-04 
-1.148316362968e-03 1.911406139228e-04 0.0 
1.911406139228e-04 7.656686617329e-03 0.0 
0.0 0.0 -1.148369591821e-03 
1.677889627776e-03 3.429099990684e-04 0.0 
3.429099990684e-04 2.573708238178e-03 0.0 
0.0 0.0 -7.390150479576e-04 
2.427527115864e-04 5.475000194963e-04 0.0 
5.475000194963e-04 2.846356155857e-03 0.0 
0.0 0.0 -5.621395992319e-04 
-9.592421645063e-04 -1.953589560094e-04 0.0 
-1.953589560094e-04 6.397497054977e-03 0.0 
0.0 0.0 -9.572423940436e-04 
-1.076727137352e-04 9.457249679276e-04 0.0 
9.457249679276e-04 4.171847884935e-03 0.0 
0.0 0.0 -7.402445244775e-04 
8.305251313614e-04 -2.981185817404e-04 0.0 
-2.981185817404e-04 6.722311567347e-04 0.0 
0.0 0.0 -3.123079531677e-04 
-1.247303547099e-03 2.054291781832e-04 0.0 
2.054291781832e-04 8.428743189038e-03 0.0 
0.0 0.0 -1.259077240559e-03 
4.214320847451e-04 -1.579023485748e-04 0.0 
-1.579023485748e-04 8.637469976321e-04 0.0 
0.0 0.0 -2.747754844540e-04 
4.966168468457e-04 6.590091572575e-04 0.0 
6.590091572575e-04 6.245798734608e-03 0.0 
0.0 0.0 -9.228905424791e-04 
-1.181044415914e-03 1.885702677114e-04 0.0 
1.885702677114e-04 7.848025462359e-03 0.0 
0.0 0.0 -1.175981821618e-03 
1.264102385075e-03 5.488221841027e-04 0.0 
5.488221841027e-04 4.450242929437e-03 0.0 
0.0 0.0 -8.370562880383e-04 
-9.063963003822e-04 2.216702355021e-04 0.0 
2.216702355021e-04 5.948302852210e-03 0.0 
0.0 0.0 -9.041796124736e-04 
-1.096159842107e-03 -2.041353887512e-04 0.0 
-2.041353887512e-04 7.354511593932e-03 0.0 
0.0 0.0 -1.094228678348e-03 
1.995553399212e-03 1.077766649960e-04 0.0 
1.077766649960e-04 2.010582648415e-03 0.0 
0.0 0.0 -7.154996274706e-04 
2.503647861419e-03 9.644461485852e-04 0.0 
9.644461485852e-04 2.180152213004e-03 0.0 
0.0 0.0 -7.930212144209e-04 
-1.179248762261e-03 1.915113563363e-04 0.0 
1.915113563363e-04 7.953436829066e-03 0.0 
0.0 0.0 -1.191782302182e-03 
2.713440682423e-04 2.504901774375e-04 0.0 
2.504901774375e-04 5.335281041743e-03 0.0 
0.0 0.0 -7.962725755246e-04 
-1.029803380413e-03 -1.995345647328e-04 0.0 
-1.995345647328e-04 6.892395198165e-03 0.0 
0.0 0.0 -1.028225029406e-03 
1.228798625548e-03 6.171750192811e-04 0.0 
6.171750192811e-04 4.160188619446e-03 0.0 
0.0 0.0 -8.111485328870e-04 
1.364172329442e-03 -3.901940077086e-04 0.0 
-3.901940077086e-04 3.732283504961e-04 0.0 
0.0 0.0 -3.505936111242e-04 
-1.056998258985e-03 -2.024071474235e-04 0.0 
-2.024071474235e-04 7.098571223248e-03 0.0 
0.0 0.0 -1.057861461704e-03 
4.333559057552e-04 1.557720201479e-03 0.0 
1.557720201479e-03 6.891109023164e-03 0.0 
0.0 0.0 -1.037445779217e-03 
-1.358863685147e-04 3.879963602803e-04 0.0 
3.879963602803e-04 6.754542066716e-03 0.0 
0.0 0.0 -8.637682884517e-04 
1.051123317047e-03 7.613678400722e-05 0.0 
7.613678400722e-05 2.725428085822e-03 0.0 
0.0 0.0 -6.923681691210e-04 
-8.989504497264e-04 -2.030487714898e-04 0.0 
-2.030487714898e-04 5.998411166372e-03 0.0 
0.0 0.0 -9.020111041354e-04 
-8.706850616849e-04 2.163039302349e-04 0.0 
2.163039302349e-04 5.704755713039e-03 0.0 
0.0 0.0 -8.677534307045e-04 
1.416768057494e-03 -1.144430518734e-04 0.0 
-1.144430518734e-04 2.692298098481e-03 0.0 
0.0 0.0 -7.114023902174e-04 
4.993683576212e-04 2.817083863964e-04 0.0 
2.817083863964e-04 4.951013724858e-03 0.0 
0.0 0.0 -7.917277011879e-04 
4.874892571496e-04 3.324174892009e-04 0.0 
3.324174892009e-04 5.171915056584e-03 0.0 
0.0 0.0 -8.070074901707e-04 
-2.150640164930e-04 -2.148781397149e-04 0.0 
-2.148781397149e-04 1.419796482793e-03 0.0 
0.0 0.0 -2.466400652194e-04 
5.465544583492e-04 4.644839623580e-04 0.0 
4.644839623580e-04 1.786662934291e-03 0.0 
0.0 0.0 -4.508272210452e-04 
2.592763600869e-03 7.377853496762e-04 0.0 
7.377853496762e-04 1.391568127531e-03 0.0 
0.0 0.0 -7.269793770173e-04 
2.266092833553e-03 1.820830536538e-04 0.0 
1.820830536538e-04 1.571521293762e-03 0.0 
0.0 0.0 -6.875569550717e-04 
2.895024300067e-04 1.073653494107e-03 0.0 
1.073653494107e-03 3.724735649502e-03 0.0 
0.0 0.0 -7.320784846625e-04 
-1.207414471784e-03 -1.921627464004e-04 0.0 
-1.921627464004e-04 8.251115158096e-03 0.0 
0.0 0.0 -1.225426844749e-03 
-1.165911235799e-03 1.728266951446e-04 0.0 
1.728266951446e-04 7.751919212480e-03 0.0 
0.0 0.0 -1.162686153705e-03 
-1.174125183305e-03 -1.966474411142e-04 0.0 
-1.966474411142e-04 7.895985343999e-03 0.0 
0.0 0.0 -1.173632101657e-03 
-4.346158638640e-04 4.250142547335e-04 0.0 
4.250142547335e-04 4.077136359873e-03 0.0 
0.0 0.0 -6.556197767577e-04 
-1.082747471146e-03 1.891035132956e-04 0.0 
1.891035132956e-04 7.201407994731e-03 0.0 
0.0 0.0 -1.082713561900e-03 
3.786240448658e-04 -8.672546649594e-05 0.0 
-8.672546649594e-05 5.139906278597e-03 0.0 
0.0 0.0 -7.817921631577e-04 
-1.203900706285e-03 2.001643692101e-04 0.0 
2.001643692101e-04 8.020307122063e-03 0.0 
0.0 0.0 -1.198415070424e-03 
-1.018917370980e-03 -2.029360126540e-04 0.0 
-2.029360126540e-04 6.841232066874e-03 0.0 
0.0 0.0 -1.021631336281e-03 
1.041850799508e-03 -2.169441474645e-04 0.0 
-2.169441474645e-04 3.015469693655e-03 0.0 
0.0 0.0 -7.011704882528e-04 
2.915036234178e-03 8.842786121382e-04 0.0 
8.842786121382e-04 9.009750987895e-04 0.0 
0.0 0.0 -6.989458521267e-04 
-1.062701287971e-03 1.919893444833e-04 0.0 
1.919893444833e-04 7.044103527011e-03 0.0 
0.0 0.0 -1.060111126929e-03 
-1.159236038185e-03 -2.100410646672e-04 0.0 
-2.100410646672e-04 7.815649065545e-03 0.0 
0.0 0.0 -1.160283895044e-03 
-1.068044840095e-03 1.975027097548e-04 0.0 
1.975027097548e-04 7.089380260529e-03 0.0 
0.0 0.0 -1.066842251349e-03 
-1.033322736071e-03 1.952546159750e-04 0.0 
1.952546159750e-04 6.838585495745e-03 0.0 
0.0 0.0 -1.030428295937e-03 
1.984264601753e-05 3.068760745222e-04 0.0 
3.068760745222e-04 6.162502839706e-03 0.0 
0.0 0.0 -8.308852834566e-04 
7.074043834147e-04 8.273264145954e-04 0.0 
8.273264145954e-04 5.859422635729e-03 0.0 
0.0 0.0 -9.234254233965e-04 
2.242591878387e-04 3.382963269485e-04 0.0 
3.382963269485e-04 5.800785041910e-03 0.0 
0.0 0.0 -8.269156524401e-04 
6.790582391824e-04 2.051020874945e-04 0.0 
2.051020874945e-04 4.195610601460e-03 0.0 
0.0 0.0 -7.578904937554e-04 
-3.711153575944e-04 2.259484649062e-03 0.0 
2.259484649062e-03 3.842118264817e-03 0.0 
0.0 0.0 -6.419897747600e-04 
1.173069823941e-03 6.532360880786e-04 0.0 
6.532360880786e-04 4.743024017833e-03 0.0 
0.0 0.0 -8.575212014642e-04 
-1.010397126926e-03 1.924777478121e-04 0.0 
1.924777478121e-04 6.699973834187e-03 0.0 
0.0 0.0 -1.010795753303e-03 
-2.484546178300e-04 1.532118906449e-04 0.0 
1.532118906449e-04 2.289906785919e-03 0.0 
0.0 0.0 -4.018221946533e-04 
2.370693540047e-03 3.622562889660e-04 0.0 
3.622562889660e-04 1.687043056073e-03 0.0 
0.0 0.0 -7.241222962603e-04 
2.046391858506e-03 6.710539736958e-04 0.0 
6.710539736958e-04 2.457304514991e-03 0.0 
0.0 0.0 -7.691986328330e-04 
2.177471630156e-03 9.462186410197e-04 0.0 
9.462186410197e-04 2.867628507523e-03 0.0 
0.0 0.0 -8.141130163994e-04 
1.259611957033e-03 1.176441751615e-04 0.0 
1.176441751615e-04 8.050014232278e-04 0.0 
0.0 0.0 -4.057256964758e-04 
2.675995477682e-03 4.844652501676e-04 0.0 
4.844652501676e-04 1.212965940553e-03 0.0 
0.0 0.0 -6.962026719631e-04 
1.815052026175e-03 8.934622147036e-04 0.0 
8.934622147036e-04 3.592611595940e-03 0.0 
0.0 0.0 -8.355414118746e-04 
-7.333735645701e-04 1.825225121088e-04 0.0 
1.825225121088e-04 4.734280668460e-03 0.0 
0.0 0.0 -7.294090860402e-04 
9.789172332003e-04 1.258641695124e-04 0.0 
1.258641695124e-04 3.166783074835e-03 0.0 
0.0 0.0 -7.197486842884e-04 
-9.487659951765e-04 -2.043170517301e-04 0.0 
-2.043170517301e-04 6.373556266418e-03 0.0 
0.0 0.0 -9.556638187253e-04 
-7.610430462996e-04 1.745184878599e-04 0.0 
1.745184878599e-04 5.044670069107e-03 0.0 
0.0 0.0 -7.638029664831e-04 
-2.976323429972e-04 1.485412904110e-03 0.0 
1.485412904110e-03 8.862837844548e-04 0.0 
0.0 0.0 -1.578647551136e-04 
7.858512312203e-04 -1.319524615305e-04 0.0 
-1.319524615305e-04 4.000756475960e-03 0.0 
0.0 0.0 -7.413344729980e-04 
1.101418744876e-03 7.888276584733e-04 0.0 
7.888276584733e-04 4.697124373331e-03 0.0 
0.0 0.0 -8.472850987670e-04 
-1.194223105728e-03 2.022847639453e-04 0.0 
2.022847639453e-04 8.008401190618e-03 0.0 
0.0 0.0 -1.196871286280e-03 
2.691540533481e-03 1.157691837850e-03 0.0 
1.157691837850e-03 1.719565609771e-03 0.0 
0.0 0.0 -7.852695282378e-04 
8.517163881296e-04 1.704078699237e-04 0.0 
1.704078699237e-04 3.658509858595e-03 0.0 
0.0 0.0 -7.386655291720e-04 
-9.659298580920e-04 -1.974560001278e-04 0.0 
-1.974560001278e-04 6.432078237772e-03 0.0 
0.0 0.0 -9.620958722924e-04 
-3.987858809601e-04 2.036526465590e-03 0.0 
2.036526465590e-03 1.394017786387e-03 0.0 
0.0 0.0 -2.247161217206e-04 
1.372573061997e-03 9.300347105199e-04 0.0 
9.300347105199e-04 4.273221062482e-03 0.0 
0.0 0.0 -8.460185186396e-04 
2.201464039636e-03 7.690919386345e-04 0.0 
7.690919386345e-04 2.635318904779e-03 0.0 
0.0 0.0 -7.931711033786e-04 
-7.647880329061e-04 -1.862411199868e-04 0.0 
-1.862411199868e-04 5.038541863179e-03 0.0 
0.0 0.0 -7.615729788896e-04 
3.781951138241e-04 -3.469983468902e-05 0.0 
-3.469983468902e-05 5.349013994223e-03 0.0 
0.0 0.0 -7.976462831583e-04 
1.787362210613e-03 -6.730351163170e-04 0.0 
-6.730351163170e-04 3.137748316570e-04 0.0 
0.0 0.0 -3.946419382404e-04 
3.504031855189e-04 1.405718499056e-05 0.0 
1.405718499056e-05 5.587142537909e-03 0.0 
0.0 0.0 -8.140513448388e-04 
8.110504740084e-05 4.244589825843e-04 0.0 
4.244589825843e-04 6.368781357749e-03 0.0 
0.0 0.0 -8.600269251336e-04 
1.642955645789e-03 1.085843624867e-03 0.0 
1.085843624867e-03 3.849216900004e-03 0.0 
0.0 0.0 -8.448841321406e-04 
-1.066802879167e-03 -1.994715727017e-04 0.0 
-1.994715727017e-04 7.144842154603e-03 0.0 
0.0 0.0 -1.064574987933e-03 
1.513031467993e-03 1.872978315457e-03 0.0 
1.872978315457e-03 4.606811126936e-03 0.0 
0.0 0.0 -9.533376664004e-04 
1.480463114084e-06 3.722474785352e-05 0.0 
3.722474785352e-05 6.516930428928e-03 0.0 
0.0 0.0 -8.518013826837e-04 
-4.343441064133e-04 1.840450913627e-03 0.0 
1.840450913627e-03 1.835968643227e-03 0.0 
0.0 0.0 -2.917408095836e-04 
-9.904023149971e-04 -1.959122471391e-04 0.0 
-1.959122471391e-04 6.637118298013e-03 0.0 
0.0 0.0 -9.919185416031e-04 
8.120012647173e-04 1.103836586733e-03 0.0 
1.103836586733e-03 5.783467755752e-03 0.0 
0.0 0.0 -9.473023775272e-04 
-1.099721820410e-03 1.948899321208e-04 0.0 
1.948899321208e-04 7.299287446510e-03 0.0 
0.0 0.0 -1.096489272820e-03 
2.017677921134e-03 1.135364426997e-03 0.0 
1.135364426997e-03 3.113316781974e-03 0.0 
0.0 0.0 -8.248605257573e-04 
2.762922796266e-03 7.135495436033e-04 0.0 
7.135495436033e-04 1.342401487656e-03 0.0 
0.0 0.0 -7.325247082200e-04 
-6.441720438920e-05 1.224564481505e-04 0.0 
1.224564481505e-04 4.477235219345e-03 0.0 
0.0 0.0 -7.248425966927e-04 
-2.418248245405e-04 2.109020271233e-04 0.0 
2.109020271233e-04 1.359709000534e-03 0.0 
0.0 0.0 -2.482170483719e-04 
-1.134273257583e-03 1.988705509170e-04 0.0 
1.988705509170e-04 7.550007886780e-03 0.0 
0.0 0.0 -1.132911322290e-03 
-3.238646898810e-04 1.785813001794e-04 0.0 
1.785813001794e-04 2.541809935380e-03 0.0 
0.0 0.0 -4.309687334850e-04 
-4.713720900744e-04 1.252480370274e-03 0.0 
1.252480370274e-03 2.243274578967e-03 0.0 
0.0 0.0 -3.582286249851e-04 
1.743025927346e-03 2.276034062812e-03 0.0 
2.276034062812e-03 4.222064476165e-03 0.0 
0.0 0.0 -9.581274151384e-04 
-1.207081545900e-03 1.915242773209e-04 0.0 
1.915242773209e-04 8.072287243083e-03 0.0 
0.0 0.0 -1.206783194404e-03 
1.474449144655e-03 -7.359814173095e-04 0.0 
-7.359814173095e-04 3.976880249069e-04 0.0 
0.0 0.0 -3.573182248098e-04 
-2.953497797255e-04 4.867603143753e-04 0.0 
4.867603143753e-04 5.013303066620e-03 0.0 
0.0 0.0 -8.358581584049e-04 
-1.023802301552e-03 1.940941463559e-04 0.0 
1.940941463559e-04 6.787907294573e-03 0.0 
0.0 0.0 -1.023814440555e-03 
5.243070894738e-04 -2.342208963391e-04 0.0 
-2.342208963391e-04 3.843930762990e-03 0.0 
0.0 0.0 -7.123303384105e-04 
1.300245663838e-03 -4.026729397805e-04 0.0 
-4.026729397805e-04 8.410150809860e-04 0.0 
0.0 0.0 -4.027365510179e-04 
3.241880732923e-04 8.782249716859e-04 0.0 
8.782249716859e-04 2.477143020372e-03 0.0 
0.0 0.0 -5.292697486782e-04 
8.604538732523e-04 -3.783747969803e-04 0.0 
-3.783747969803e-04 4.891595679318e-04 0.0 
0.0 0.0 -2.862163191752e-04 
1.686031130327e-03 -3.885195932800e-04 0.0 
-3.885195932800e-04 1.132965935511e-04 0.0 
0.0 0.0 -3.608158092454e-04 
1.341229583031e-03 -4.242698827056e-04 0.0 
-4.242698827056e-04 2.337133987308e-04 0.0 
0.0 0.0 -3.238926756799e-04 
2.373870465800e-03 1.161102697057e-03 0.0 
1.161102697057e-03 2.396881760318e-03 0.0 
0.0 0.0 -8.050199179113e-04 
-9.459013318517e-04 5.065178500510e-04 0.0 
5.065178500510e-04 8.693208799030e-03 0.0 
0.0 0.0 -1.216778676988e-03 
-5.221098076474e-04 1.409363412728e-03 0.0 
1.409363412728e-03 2.692538292944e-03 0.0 
0.0 0.0 -4.244337567297e-04 
-1.697760384131e-04 2.648187768354e-04 0.0 
2.648187768354e-04 6.506869560827e-03 0.0 
0.0 0.0 -8.344827889944e-04 
2.716108641668e-03 1.140618036380e-03 0.0 
1.140618036380e-03 7.665625392739e-04 0.0 
0.0 0.0 -6.430507458085e-04 
-9.827241532880e-04 -2.074075714334e-04 0.0 
-2.074075714334e-04 6.589898560790e-03 0.0 
0.0 0.0 -9.856407671940e-04 
7.607050868475e-05 2.127791513891e-04 0.0 
2.127791513891e-04 1.433301037944e-03 0.0 
0.0 0.0 -3.129386394028e-04 
-1.095757075544e-04 7.926409500256e-05 0.0 
7.926409500256e-05 6.818078178625e-03 0.0 
0.0 0.0 -8.712271274420e-04 
1.081148585667e-03 -7.469299631055e-04 0.0 
-7.469299631055e-04 5.764729077235e-04 0.0 
0.0 0.0 -3.202688159031e-04 
-4.190995026675e-04 1.851153253578e-04 0.0 
1.851153253578e-04 3.043727423209e-03 0.0 
0.0 0.0 -4.995972236198e-04 
1.513809558971e-03 1.190545631366e-03 0.0 
1.190545631366e-03 4.188270281357e-03 0.0 
0.0 0.0 -8.647922374972e-04 
1.742242432789e-03 4.086348435601e-05 0.0 
4.086348435601e-05 2.415646834464e-03 0.0 
0.0 0.0 -7.229615897446e-04 
9.789993620600e-04 1.054122185989e-03 0.0 
1.054122185989e-03 5.425326722678e-03 0.0 
0.0 0.0 -9.244895482351e-04 
1.190248674419e-04 7.746731495669e-04 0.0 
7.746731495669e-04 3.057276353966e-03 0.0 
0.0 0.0 -5.762899171568e-04 
-1.046111348023e-03 -1.920749274325e-04 0.0 
-1.920749274325e-04 7.006833931181e-03 0.0 
0.0 0.0 -1.044446328659e-03 
5.110627363519e-04 1.028608165090e-03 0.0 
1.028608165090e-03 6.140897227524e-03 0.0 
0.0 0.0 -9.286599554820e-04 
-9.969097330870e-04 1.983464851525e-04 0.0 
1.983464851525e-04 6.585106213615e-03 0.0 
0.0 0.0 -9.940794652285e-04 
-1.204741342101e-03 -1.841288982355e-04 0.0 
-1.841288982355e-04 8.066681748081e-03 0.0 
0.0 0.0 -1.194784139986e-03 
-1.085983696521e-03 -2.024519851537e-04 0.0 
-2.024519851537e-04 7.301290877674e-03 0.0 
0.0 0.0 -1.087318097122e-03 
-1.116801267184e-03 -2.016255265415e-04 0.0 
-2.016255265415e-04 7.509256724676e-03 0.0 
0.0 0.0 -1.116677092124e-03 
2.721739358870e-05 3.880006702325e-04 0.0 
3.880006702325e-04 1.762036618783e-03 0.0 
0.0 0.0 -3.599422446610e-04 
-1.230036221744e-04 2.285036559594e-04 0.0 
2.285036559594e-04 6.240377861556e-03 0.0 
0.0 0.0 -8.195388974116e-04 
-1.052373239860e-03 1.884691524878e-04 0.0 
1.884691524878e-04 6.996291933739e-03 0.0 
0.0 0.0 -1.053364550114e-03 
3.034546957376e-03 1.871892041833e-03 0.0 
1.871892041833e-03 1.266567435454e-03 0.0 
0.0 0.0 -7.792489223127e-04 
-6.239718195430e-04 2.674791629229e-03 0.0 
2.674791629229e-03 3.184447270718e-03 0.0 
0.0 0.0 -4.908673385051e-04 
3.067473361802e-04 6.744658029238e-04 0.0 
6.744658029238e-04 6.615404871734e-03 0.0 
0.0 0.0 -9.446580831432e-04 
5.637090435844e-04 3.552115265855e-04 0.0 
3.552115265855e-04 1.550036962912e-03 0.0 
0.0 0.0 -4.142712813041e-04 
-3.179775795206e-04 -2.287531071289e-04 0.0 
-2.287531071289e-04 2.828796111666e-03 0.0 
0.0 0.0 -4.655197245388e-04 
1.195931258774e-03 1.372024649732e-03 0.0 
1.372024649732e-03 4.931796380602e-03 0.0 
0.0 0.0 -9.079055753136e-04 
4.771910667976e-04 -1.070974847314e-04 0.0 
-1.070974847314e-04 1.018383325654e-03 0.0 
0.0 0.0 -2.939799329518e-04 
6.032690842085e-04 9.475158424155e-04 0.0 
9.475158424155e-04 3.857227931713e-03 0.0 
0.0 0.0 -7.924235178053e-04 
1.252011013571e-03 1.012213451847e-03 0.0 
1.012213451847e-03 4.600602034092e-03 0.0 
0.0 0.0 -8.650794704128e-04 
-1.181481514864e-03 -1.809401034034e-04 0.0 
-1.809401034034e-04 7.945597505832e-03 0.0 
0.0 0.0 -1.181155146799e-03 
-1.216519596998e-03 -1.765367581353e-04 0.0 
-1.765367581353e-04 8.170458135963e-03 0.0 
0.0 0.0 -1.210943746944e-03 
1.433361572268e-03 8.175022772637e-04 0.0 
8.175022772637e-04 4.335260319761e-03 0.0 
0.0 0.0 -8.572961809701e-04 
-1.124714132978e-03 -2.064810197621e-04 0.0 
-2.064810197621e-04 7.559899990810e-03 0.0 
0.0 0.0 -1.123737208958e-03 
2.643840487796e-03 1.398401696043e-03 0.0 
1.398401696043e-03 1.055609642813e-03 0.0 
0.0 0.0 -6.793824814286e-04 
1.196776566751e-03 2.210072437450e-03 0.0 
2.210072437450e-03 4.797649393530e-03 0.0 
0.0 0.0 -9.847743227429e-04 
-8.178691830373e-04 4.471680152715e-03 0.0 
4.471680152715e-03 3.777369234661e-03 0.0 
0.0 0.0 -5.576509564599e-04 
-1.061570917852e-04 1.694782730587e-03 0.0 
1.694782730587e-03 6.723090132812e-03 0.0 
0.0 0.0 -1.095799170670e-03 
-1.266019140087e-03 5.877470289382e-03 0.0 
5.877470289382e-03 4.624854540217e-03 0.0 
0.0 0.0 -6.243763318321e-04 
-1.638023628563e-03 5.792491515549e-03 0.0 
5.792491515549e-03 5.229719296803e-03 0.0 
0.0 0.0 -6.577503189808e-04 
3.019800908643e-03 1.390052898575e-03 0.0 
1.390052898575e-03 1.232967132929e-03 0.0 
0.0 0.0 -7.717627972493e-04 
-2.236656602924e-03 4.111648566003e-03 0.0 
4.111648566003e-03 6.016172574059e-03 0.0 
0.0 0.0 -6.911701761307e-04 
2.550646132437e-03 2.087126069665e-03 0.0 
2.087126069665e-03 2.441392693730e-03 0.0 
0.0 0.0 -8.663324814911e-04 
1.144414262954e-03 9.423979590500e-04 0.0 
9.423979590500e-04 2.889283266772e-03 0.0 
0.0 0.0 -7.209687761305e-04 
2.447705039547e-03 5.524919393970e-04 0.0 
5.524919393970e-04 1.819896205054e-03 0.0 
0.0 0.0 -7.526825364504e-04 
1.246598069852e-03 -7.353370619337e-05 0.0 
-7.353370619337e-05 5.923887714180e-04 0.0 
0.0 0.0 -3.685806404478e-04 
2.987966146221e-03 1.133754900835e-03 0.0 
1.133754900835e-03 1.045835660681e-03 0.0 
0.0 0.0 -7.353490689725e-04 
-1.164475384932e-03 1.920424604491e-04 0.0 
1.920424604491e-04 7.760458237861e-03 0.0 
0.0 0.0 -1.162517914204e-03 
-1.166423444037e-03 3.258852832178e-04 0.0 
3.258852832178e-04 7.921728819595e-03 0.0 
0.0 0.0 -1.121004647822e-03 
6.729691290443e-05 2.244408541716e-04 0.0 
2.244408541716e-04 5.692864800870e-03 0.0 
0.0 0.0 -8.006394585006e-04 
7.271666224012e-04 1.194527561259e-03 0.0 
1.194527561259e-03 5.765448205973e-03 0.0 
0.0 0.0 -9.285155778181e-04 
1.929610682061e-03 3.966275655858e-04 0.0 
3.966275655858e-04 2.163349237263e-03 0.0 
0.0 0.0 -7.357903344800e-04 
-1.116874559966e-03 1.925152765080e-04 0.0 
1.925152765080e-04 7.452691656896e-03 0.0 
0.0 0.0 -1.119019617531e-03 
2.662165405729e-03 9.443467800403e-04 0.0 
9.443467800403e-04 1.539371741210e-03 0.0 
0.0 0.0 -7.634232545038e-04 
-2.698191020533e-04 2.191777153307e-04 0.0 
2.191777153307e-04 6.541238417842e-03 0.0 
0.0 0.0 -8.239065936463e-04 
-1.089871366962e-03 1.866180545902e-04 0.0 
1.866180545902e-04 7.246015693997e-03 0.0 
0.0 0.0 -1.089631904438e-03 
-1.081578605974e-03 -1.978658757615e-04 0.0 
-1.978658757615e-04 7.257137764756e-03 0.0 
0.0 0.0 -1.080451501872e-03 
1.726121427191e-03 9.665468802887e-04 0.0 
9.665468802887e-04 3.556753410349e-03 0.0 
0.0 0.0 -8.256292490102e-04 
3.120626543972e-03 1.324879781678e-03 0.0 
1.324879781678e-03 7.457793945189e-04 0.0 
0.0 0.0 -7.073300717972e-04 
1.203042883251e-03 2.177604560385e-03 0.0 
2.177604560385e-03 5.160351451878e-03 0.0 
0.0 0.0 -1.003611756837e-03 
-9.212765999104e-04 1.860043167073e-04 0.0 
1.860043167073e-04 6.042010505937e-03 0.0 
0.0 0.0 -9.169694165663e-04 
1.270585834406e-03 -5.874624632546e-04 0.0 
-5.874624632546e-04 6.316228400185e-04 0.0 
0.0 0.0 -3.661348613279e-04 
6.423238606986e-04 -1.144400175873e-04 0.0 
-1.144400175873e-04 1.547767510582e-03 0.0 
0.0 0.0 -4.113794265144e-04 
2.055910912549e-04 1.035552829174e-03 0.0 
1.035552829174e-03 3.043576161760e-03 0.0 
0.0 0.0 -6.061407060701e-04 
-4.957339336548e-04 5.980897282649e-04 0.0 
5.980897282649e-04 5.147624403173e-03 0.0 
0.0 0.0 -8.384786063130e-04 
-4.045688705243e-04 2.159469323929e-04 0.0 
2.159469323929e-04 6.834946288182e-03 0.0 
0.0 0.0 -8.283091101992e-04 
-1.051413170775e-03 -2.036953792706e-04 0.0 
-2.036953792706e-04 7.051256599190e-03 0.0 
0.0 0.0 -1.051102540299e-03 
2.935427869181e-03 8.623240241664e-04 0.0 
8.623240241664e-04 1.003103376988e-03 0.0 
0.0 0.0 -7.045205360201e-04 
-6.530860589598e-04 1.547183524099e-04 0.0 
1.547183524099e-04 5.956818179992e-03 0.0 
0.0 0.0 -9.344940742331e-04 
1.005035769350e-03 8.842222189528e-04 0.0 
8.842222189528e-04 5.014206112219e-03 0.0 
0.0 0.0 -8.669203918523e-04 
-1.132213948578e-03 -2.019794901778e-04 0.0 
-2.019794901778e-04 7.607209750872e-03 0.0 
0.0 0.0 -1.130578931274e-03 
9.991692514243e-04 2.205065788274e-03 0.0 
2.205065788274e-03 5.563294220425e-03 0.0 
0.0 0.0 -1.026450178816e-03 
-9.493017134459e-04 1.856369855212e-04 0.0 
1.856369855212e-04 6.294032018234e-03 0.0 
0.0 0.0 -9.517943393003e-04 
5.392841684584e-04 5.669347697830e-04 0.0 
5.669347697830e-04 5.595432097802e-03 0.0 
0.0 0.0 -8.536714093854e-04 
2.493529611468e-03 7.562547782150e-04 0.0 
7.562547782150e-04 1.982701489747e-03 0.0 
0.0 0.0 -7.723441457698e-04 
9.043149476768e-04 4.964430909921e-04 0.0 
4.964430909921e-04 5.164906709723e-03 0.0 
0.0 0.0 -8.588485521522e-04 
4.563439159234e-04 1.210735139285e-03 0.0 
1.210735139285e-03 3.935294841649e-03 0.0 
0.0 0.0 -7.951163407912e-04 
-1.190027282138e-03 -1.889094988141e-04 0.0 
-1.889094988141e-04 8.016045742998e-03 0.0 
0.0 0.0 -1.188704642750e-03 
8.419525768738e-04 2.126127656668e-03 0.0 
2.126127656668e-03 5.997245647949e-03 0.0 
0.0 0.0 -1.049950742422e-03 
2.061640838112e-03 9.830178318985e-04 0.0 
9.830178318985e-04 2.859462703051e-03 0.0 
0.0 0.0 -8.056749157751e-04 
5.946121721100e-04 2.423034773399e-04 0.0 
2.423034773399e-04 1.298856047808e-03 0.0 
0.0 0.0 -3.776191643183e-04 
1.264744275063e-03 1.894096696600e-03 0.0 
1.894096696600e-03 4.929151550082e-03 0.0 
0.0 0.0 -9.517090901193e-04 
1.681783832303e-03 1.782570723752e-03 0.0 
1.782570723752e-03 3.153728634684e-03 0.0 
0.0 0.0 -8.555605426019e-04 
2.606899356129e-03 8.929016024808e-04 0.0 
8.929016024808e-04 1.164938652502e-03 0.0 
0.0 0.0 -6.765734244908e-04 
1.876125651388e-03 7.504350818253e-04 0.0 
7.504350818253e-04 3.321929494159e-03 0.0 
0.0 0.0 -8.144081697478e-04 
5.382394536384e-04 1.278587771750e-04 0.0 
1.278587771750e-04 5.452192706543e-03 0.0 
0.0 0.0 -8.274226295327e-04 
7.019431622444e-04 -2.612970104181e-04 0.0 
-2.612970104181e-04 1.271194281232e-03 0.0 
0.0 0.0 -3.746637649435e-04 
2.379515112514e-03 9.768039338233e-04 0.0 
9.768039338233e-04 2.181883017320e-03 0.0 
0.0 0.0 -7.860614199172e-04 
-9.633029216945e-04 1.794107507866e-04 0.0 
1.794107507866e-04 6.339174664891e-03 0.0 
0.0 0.0 -9.596127204057e-04 
-4.860207739919e-04 -1.718786178657e-04 0.0 
-1.718786178657e-04 6.978889122256e-03 0.0 
0.0 0.0 -8.205822032953e-04 
-9.895100639472e-04 1.759458030688e-04 0.0 
1.759458030688e-04 6.529075947432e-03 0.0 
0.0 0.0 -9.876491701490e-04 
1.478855768630e-03 2.196698969193e-03 0.0 
2.196698969193e-03 4.569666013277e-03 0.0 
0.0 0.0 -9.555379361072e-04 
-9.372562607785e-04 1.792840605658e-04 0.0 
1.792840605658e-04 6.146041579427e-03 0.0 
0.0 0.0 -9.316602363005e-04 
-8.975747507544e-04 1.987030926428e-04 0.0 
1.987030926428e-04 5.753154163109e-03 0.0 
0.0 0.0 -8.756372412555e-04 
-9.482059618595e-04 1.851978750998e-04 0.0 
1.851978750998e-04 6.234676071384e-03 0.0 
0.0 0.0 -9.447135688329e-04 
9.139856368190e-04 1.167826651206e-03 0.0 
1.167826651206e-03 5.369339404732e-03 0.0 
0.0 0.0 -9.070706555779e-04 
-4.134876547768e-05 -1.132128578418e-04 0.0 
-1.132128578418e-04 6.084241706052e-03 0.0 
0.0 0.0 -8.064380267240e-04 
-1.016986910713e-03 1.835607482604e-04 0.0 
1.835607482604e-04 6.748472102274e-03 0.0 
0.0 0.0 -1.017300281410e-03 
-1.211783257084e-03 1.757837481836e-04 0.0 
1.757837481836e-04 8.121141767087e-03 0.0 
0.0 0.0 -1.212886757924e-03 
-9.118555854047e-04 1.822932037185e-04 0.0 
1.822932037185e-04 5.952136168219e-03 0.0 
0.0 0.0 -9.037302385345e-04 
1.899572794496e-03 3.641015987955e-04 0.0 
3.641015987955e-04 1.272381101395e-03 0.0 
0.0 0.0 -5.760585567884e-04 
1.062617594305e-03 1.575217931184e-03 0.0 
1.575217931184e-03 5.412570952367e-03 0.0 
0.0 0.0 -9.728841110411e-04 
-1.190361811188e-03 -2.231584585379e-04 0.0 
-2.231584585379e-04 8.068085284209e-03 0.0 
0.0 0.0 -1.196744929305e-03 
2.098931305134e-03 1.973354958038e-03 0.0 
1.973354958038e-03 2.243437884142e-03 0.0 
0.0 0.0 -7.869228524964e-04 
1.847085335930e-03 2.086598955980e-03 0.0 
2.086598955980e-03 2.708874120441e-03 0.0 
0.0 0.0 -8.226527892688e-04 
2.643614729149e-03 6.369377813956e-04 0.0 
6.369377813956e-04 9.113610380780e-04 0.0 
0.0 0.0 -6.402419685743e-04 
-1.047323379365e-03 1.912705100611e-04 0.0 
1.912705100611e-04 6.951134229714e-03 0.0 
0.0 0.0 -1.046609947212e-03 
-2.679783638932e-04 8.448330192282e-04 0.0 
8.448330192282e-04 3.797215666486e-03 0.0 
0.0 0.0 -6.500746975200e-04 
2.680404911504e-03 2.307524368998e-03 0.0 
2.307524368998e-03 2.397565112443e-03 0.0 
0.0 0.0 -8.680489858534e-04 
-1.318378510084e-04 7.279613346252e-04 0.0 
7.279613346252e-04 3.725402660984e-03 0.0 
0.0 0.0 -6.476280927198e-04 
1.363704503652e-03 1.292858910476e-03 0.0 
1.292858910476e-03 4.552216943448e-03 0.0 
0.0 0.0 -8.861039415100e-04 
5.972137962317e-04 1.318557524783e-03 0.0 
1.318557524783e-03 6.180763837660e-03 0.0 
0.0 0.0 -9.922256100756e-04 
2.873897932179e-03 5.990921464214e-04 0.0 
5.990921464214e-04 8.472875016130e-04 0.0 
0.0 0.0 -6.682047883386e-04 
-2.351166358341e-04 -2.031494045747e-04 0.0 
-2.031494045747e-04 1.435993492405e-03 0.0 
0.0 0.0 -2.451578436693e-04 
-1.204420763458e-03 1.961268392442e-04 0.0 
1.961268392442e-04 8.059775147050e-03 0.0 
0.0 0.0 -1.207184308065e-03 
-6.362056443715e-04 2.826979924872e-04 0.0 
2.826979924872e-04 4.372147169253e-03 0.0 
0.0 0.0 -6.853381776776e-04 
1.998798930832e-03 5.278035947054e-04 0.0 
5.278035947054e-04 2.298916993042e-03 0.0 
0.0 0.0 -7.521245250747e-04 
8.314719692442e-04 1.651925908919e-03 0.0 
1.651925908919e-03 5.748955702608e-03 0.0 
0.0 0.0 -9.719026538114e-04 
-1.016320152694e-03 -1.997312198958e-04 0.0 
-1.997312198958e-04 6.802485040097e-03 0.0 
0.0 0.0 -1.015069748350e-03 
1.552686860416e-04 -7.645354443253e-05 0.0 
-7.645354443253e-05 5.730174090910e-03 0.0 
0.0 0.0 -8.020156301390e-04 
1.394198864390e-03 8.669107061383e-04 0.0 
8.669107061383e-04 2.428392811417e-03 0.0 
0.0 0.0 -6.851017020021e-04 
-2.031820811394e-04 1.985739834672e-04 0.0 
1.985739834672e-04 1.096275256380e-03 0.0 
0.0 0.0 -2.111397097017e-04 
-5.524332131979e-04 -2.038524779567e-04 0.0 
-2.038524779567e-04 7.247749005893e-03 0.0 
0.0 0.0 -8.260064617350e-04 
-1.899154587490e-04 8.625431873053e-04 0.0 
8.625431873053e-04 5.005879303833e-03 0.0 
0.0 0.0 -8.660506973337e-04 
1.857627705270e-03 1.372463544592e-03 0.0 
1.372463544592e-03 3.793461592939e-03 0.0 
0.0 0.0 -8.806607019450e-04 
9.865141418624e-04 2.127849198190e-03 0.0 
2.127849198190e-03 5.494511281289e-03 0.0 
0.0 0.0 -1.001449068174e-03 
-1.616552956257e-04 1.423609377969e-04 0.0 
1.423609377969e-04 6.732585101887e-04 0.0 
0.0 0.0 -1.502316149797e-04 
2.611427160873e-04 2.965650445596e-04 0.0 
2.965650445596e-04 5.555622705689e-03 0.0 
0.0 0.0 -8.112714044528e-04 
2.529829280160e-04 2.742777031195e-04 0.0 
2.742777031195e-04 2.411613865072e-03 0.0 
0.0 0.0 -4.919579008500e-04 
-9.451714429142e-04 -2.012700485207e-04 0.0 
-2.012700485207e-04 6.343190678808e-03 0.0 
0.0 0.0 -9.498437721210e-04 
4.118256703955e-04 -2.029079902350e-04 0.0 
-2.029079902350e-04 4.323325683695e-03 0.0 
0.0 0.0 -7.318501078838e-04 
3.082948782118e-03 1.041865371486e-03 0.0 
1.041865371486e-03 5.656623114294e-04 0.0 
0.0 0.0 -6.709551114794e-04 
-3.614839817980e-04 -1.502940997764e-04 0.0 
-1.502940997764e-04 6.693705625566e-03 0.0 
0.0 0.0 -8.157657101482e-04 
2.570699510496e-03 2.505108882047e-03 0.0 
2.505108882047e-03 2.354580326866e-03 0.0 
0.0 0.0 -8.690411940133e-04 
2.739395281019e-03 8.745915936412e-04 0.0 
8.745915936412e-04 5.265906568145e-04 0.0 
0.0 0.0 -6.067458373204e-04 
-3.232444909472e-04 4.635213830381e-04 0.0 
4.635213830381e-04 5.417879092140e-03 0.0 
0.0 0.0 -8.989548790023e-04 
-1.952954180545e-04 -1.905102926163e-04 0.0 
-1.905102926163e-04 1.173502522438e-03 0.0 
0.0 0.0 -2.081142276587e-04 
1.482305948524e-03 2.281348122201e-03 0.0 
2.281348122201e-03 4.316243632892e-03 0.0 
0.0 0.0 -9.629621743751e-04 
1.290338244394e-03 9.105992037936e-04 0.0 
9.105992037936e-04 4.691340885133e-03 0.0 
0.0 0.0 -8.791190160963e-04 
5.891057982813e-04 2.032324288318e-03 0.0 
2.032324288318e-03 6.295059454604e-03 0.0 
0.0 0.0 -1.073807653469e-03 
1.456788470598e-03 2.217535463127e-03 0.0 
2.217535463127e-03 4.716450833935e-03 0.0 
0.0 0.0 -9.815368640090e-04 
1.235070648561e-03 -1.738930361442e-05 0.0 
-1.738930361442e-05 1.336673007657e-03 0.0 
0.0 0.0 -4.758149136988e-04 
-4.515744116273e-05 -1.433255957233e-04 0.0 
-1.433255957233e-04 5.871358781082e-03 0.0 
0.0 0.0 -7.911920248662e-04 
-1.207083647933e-03 1.808427044483e-04 0.0 
1.808427044483e-04 8.205581432035e-03 0.0 
0.0 0.0 -1.228155452712e-03 
6.933134354737e-05 6.606724495093e-04 0.0 
6.606724495093e-04 7.012560803755e-03 0.0 
0.0 0.0 -9.668803218003e-04 
1.138476832693e-03 9.987968927092e-04 0.0 
9.987968927092e-04 5.055426066487e-03 0.0 
0.0 0.0 -9.014207252148e-04 
2.516913017093e-03 1.137280717196e-03 0.0 
1.137280717196e-03 1.468568461676e-03 0.0 
0.0 0.0 -7.127912709901e-04 
6.578310593936e-04 1.588309232919e-03 0.0 
1.588309232919e-03 4.804594873914e-03 0.0 
0.0 0.0 -9.441987004943e-04 
-4.734648827031e-04 1.673876913564e-04 0.0 
1.673876913564e-04 6.835215033443e-03 0.0 
0.0 0.0 -8.195121661143e-04 
-7.921213361425e-04 -1.927977436833e-04 0.0 
-1.927977436833e-04 5.176796345870e-03 0.0 
0.0 0.0 -7.310911744733e-04 
1.645323113455e-03 2.519627916444e-03 0.0 
2.519627916444e-03 4.248971575177e-03 0.0 
0.0 0.0 -9.579098078925e-04 
-9.850942903468e-04 1.906307977985e-04 0.0 
1.906307977985e-04 6.538331902211e-03 0.0 
0.0 0.0 -9.877098122506e-04 
-2.120699465301e-04 -1.339483394723e-04 0.0 
-1.339483394723e-04 6.396398560968e-03 0.0 
0.0 0.0 -8.111514236283e-04 
1.283019238147e-04 -2.877188606101e-05 0.0 
-2.877188606101e-05 5.964417984359e-03 0.0 
0.0 0.0 -8.181742134829e-04 
-7.343177045735e-04 -9.465157044590e-06 0.0 
-9.465157044590e-06 4.570354151395e-03 0.0 
0.0 0.0 -7.313513689239e-04 
-7.305590051733e-04 3.402678996767e-05 0.0 
3.402678996767e-05 4.568649633296e-03 0.0 
0.0 0.0 -7.310574395863e-04 
-9.952316992060e-04 -2.061010920873e-04 0.0 
-2.061010920873e-04 6.656041030992e-03 0.0 
0.0 0.0 -9.927888931629e-04 
1.671283775310e-03 2.585403546588e-03 0.0 
2.585403546588e-03 3.853858728362e-03 0.0 
0.0 0.0 -9.380650433348e-04 
1.466810556378e-04 -2.075605376339e-04 0.0 
-2.075605376339e-04 4.748128901139e-03 0.0 
0.0 0.0 -7.370158344288e-04 
-9.805249871409e-04 -1.924563760952e-04 0.0 
-1.924563760952e-04 6.542490604406e-03 0.0 
0.0 0.0 -9.775429604617e-04 
2.764289744802e-03 2.319121371644e-03 0.0 
2.319121371644e-03 1.953256822031e-03 0.0 
0.0 0.0 -8.468486814704e-04 
2.930108159803e-04 6.105748695816e-04 0.0 
6.105748695816e-04 6.187274780276e-03 0.0 
0.0 0.0 -8.887639732137e-04 
2.509408223357e-03 1.627691242764e-03 0.0 
1.627691242764e-03 1.407145909437e-03 0.0 
0.0 0.0 -7.154845226688e-04 
-1.108913531815e-03 2.601842246069e-04 0.0 
2.601842246069e-04 8.821931220567e-03 0.0 
0.0 0.0 -1.242053671167e-03 
-8.042874267729e-04 1.538278548702e-04 0.0 
1.538278548702e-04 5.332999869485e-03 0.0 
0.0 0.0 -8.119939454945e-04 
1.937300499421e-03 1.681087314392e-03 0.0 
1.681087314392e-03 2.687935343452e-03 0.0 
0.0 0.0 -8.199314282332e-04 
5.857263620220e-04 1.578143190995e-04 0.0 
1.578143190995e-04 4.081653532224e-03 0.0 
0.0 0.0 -7.442750422965e-04 
5.806943926780e-04 1.639781074848e-05 0.0 
1.639781074848e-05 1.826369772806e-03 0.0 
0.0 0.0 -4.479040077299e-04 
7.875772620919e-04 -2.277193945385e-04 0.0 
-2.277193945385e-04 3.424654042887e-03 0.0 
0.0 0.0 -7.065923180662e-04 
8.255565285402e-04 1.934945309523e-03 0.0 
1.934945309523e-03 4.358432334701e-03 0.0 
0.0 0.0 -9.139967632347e-04 
-7.927361211745e-04 2.959026923378e-04 0.0 
2.959026923378e-04 5.656143308857e-03 0.0 
0.0 0.0 -8.738309435711e-04 
-9.814387768267e-04 1.839019607207e-04 0.0 
1.839019607207e-04 6.501334764277e-03 0.0 
0.0 0.0 -9.814596669550e-04 
-1.011621438383e-03 1.915879728730e-04 0.0 
1.915879728730e-04 6.671939874126e-03 0.0 
0.0 0.0 -1.000541116464e-03 
-1.045403552519e-03 -1.873425126121e-04 0.0 
-1.873425126121e-04 6.972337485936e-03 0.0 
0.0 0.0 -1.032561671184e-03 
6.762016500844e-04 -4.402845052193e-05 0.0 
-4.402845052193e-05 4.974631908470e-04 0.0 
0.0 0.0 -2.163717569139e-04 
7.897551458301e-04 8.285580400244e-05 0.0 
8.285580400244e-05 3.150060699647e-03 0.0 
0.0 0.0 -7.068119885570e-04 
-3.515275585150e-04 4.807930993973e-04 0.0 
4.807930993973e-04 4.151318395098e-03 0.0 
0.0 0.0 -6.825522065409e-04 
-9.565981315295e-04 1.790846631940e-04 0.0 
1.790846631940e-04 6.284252226282e-03 0.0 
0.0 0.0 -9.521954671713e-04 
-9.888411307371e-04 -1.922642027801e-04 0.0 
-1.922642027801e-04 6.601876220435e-03 0.0 
0.0 0.0 -9.850634846466e-04 
6.727768392940e-04 9.699717371150e-04 0.0 
9.699717371150e-04 5.740335250482e-03 0.0 
0.0 0.0 -9.059915542886e-04 
3.377367162809e-04 1.595596518935e-04 0.0 
1.595596518935e-04 1.286488746266e-03 0.0 
0.0 0.0 -3.273996513304e-04 
7.278730281320e-04 -4.079058800262e-04 0.0 
-4.079058800262e-04 1.030500555819e-03 0.0 
0.0 0.0 -3.377286911054e-04 
1.539972176976e-04 1.083208310302e-03 0.0 
1.083208310302e-03 4.450354460069e-03 0.0 
0.0 0.0 -8.305977116616e-04 
5.738592689255e-04 -2.675919785622e-04 0.0 
-2.675919785622e-04 3.430199118675e-03 0.0 
0.0 0.0 -6.925377245307e-04 
-1.597256593939e-03 6.135798214094e-03 0.0 
6.135798214094e-03 5.237001127868e-03 0.0 
0.0 0.0 -6.554599841463e-04 
-2.029232501955e-03 5.898584287459e-03 0.0 
5.898584287459e-03 5.888936536908e-03 0.0 
0.0 0.0 -6.889204951115e-04 
-9.785151366904e-04 -1.903688334857e-04 0.0 
-1.903688334857e-04 6.552823194572e-03 0.0 
0.0 0.0 -9.793492904611e-04 
-1.819784687017e-05 4.418569238912e-05 0.0 
4.418569238912e-05 1.726888208317e-03 0.0 
0.0 0.0 -3.302473245842e-04 
4.381615036371e-04 1.217132188350e-04 0.0 
1.217132188350e-04 4.024902623803e-03 0.0 
0.0 0.0 -7.313784028521e-04 
9.952606995459e-04 4.174811577311e-04 0.0 
4.174811577311e-04 4.866692473605e-03 0.0 
0.0 0.0 -8.384724470361e-04 
6.253871233801e-04 1.187052442489e-04 0.0 
1.187052442489e-04 1.041703601584e-03 0.0 
0.0 0.0 -3.408226701431e-04 
3.214137753206e-05 1.178269877238e-03 0.0 
1.178269877238e-03 6.983777224941e-03 0.0 
0.0 0.0 -1.032187819198e-03 
-1.153161816539e-03 -1.810911126316e-04 0.0 
-1.810911126316e-04 7.745860400322e-03 0.0 
0.0 0.0 -1.152455342817e-03 
-4.368376773017e-06 -2.416217999253e-04 0.0 
-2.416217999253e-04 4.325656886013e-03 0.0 
0.0 0.0 -7.041809847058e-04 
-1.120946334748e-04 2.091980699290e-04 0.0 
2.091980699290e-04 6.021244312945e-03 0.0 
0.0 0.0 -8.050184064045e-04 
5.552650487435e-04 -1.574165873695e-05 0.0 
-1.574165873695e-05 7.083636530211e-06 0.0 
0.0 0.0 -1.797547709840e-04 
1.055420122155e-03 3.199439139669e-04 0.0 
3.199439139669e-04 4.599031134512e-03 0.0 
0.0 0.0 -8.195817030460e-04 
1.213486771552e-05 7.129280069176e-04 0.0 
7.129280069176e-04 4.870413080047e-03 0.0 
0.0 0.0 -8.634366945984e-04 
6.850070378529e-04 -1.437068044957e-05 0.0 
-1.437068044957e-05 -1.043482492723e-04 0.0 
0.0 0.0 -1.788519809851e-04 
-1.152359323407e-03 1.787160847201e-04 0.0 
1.787160847201e-04 7.696182759720e-03 0.0 
0.0 0.0 -1.154859126927e-03 
1.195729118107e-04 -2.396571365515e-04 0.0 
-2.396571365515e-04 1.462430826323e-03 0.0 
0.0 0.0 -3.099791425632e-04 
-9.534030089958e-04 -1.885226890489e-04 0.0 
-1.885226890489e-04 6.348031499756e-03 0.0 
0.0 0.0 -9.496453321265e-04 
-6.014123648265e-04 1.855490501618e-04 0.0 
1.855490501618e-04 5.529850436066e-03 0.0 
0.0 0.0 -8.712718144564e-04 
2.082766757444e-03 2.554449561036e-04 0.0 
2.554449561036e-04 2.130073582012e-03 0.0 
0.0 0.0 -7.363637816357e-04 
1.258670913219e-03 4.294663193407e-04 0.0 
4.294663193407e-04 3.722190078917e-03 0.0 
0.0 0.0 -7.780615906202e-04 
-1.186359257630e-03 1.790401943917e-04 0.0 
1.790401943917e-04 7.910120458871e-03 0.0 
0.0 0.0 -1.182898372388e-03 
9.954431743458e-04 4.499928885610e-04 0.0 
4.499928885610e-04 4.350583762302e-03 0.0 
0.0 0.0 -7.983892888734e-04 
1.549105074950e-03 2.121066564368e-03 0.0 
2.121066564368e-03 3.218956367795e-03 0.0 
0.0 0.0 -8.581765416018e-04 
3.183885468869e-04 8.662273296630e-04 0.0 
8.662273296630e-04 4.353105869119e-03 0.0 
0.0 0.0 -8.279616112547e-04 
-2.004805796158e-04 9.224276755080e-04 0.0 
9.224276755080e-04 6.156894690686e-04 0.0 
0.0 0.0 -1.241199786263e-04 
1.024910340520e-05 1.602412124262e-04 0.0 
1.602412124262e-04 1.289631577674e-03 0.0 
0.0 0.0 -2.761011822561e-04 
1.285791585906e-03 1.900699066521e-03 0.0 
1.900699066521e-03 5.026126209055e-03 0.0 
0.0 0.0 -9.763580243185e-04 
-9.134689604251e-04 -2.151070896450e-04 0.0 
-2.151070896450e-04 6.054442910930e-03 0.0 
0.0 0.0 -9.085367473448e-04 
1.053258817040e-03 1.919289232904e-03 0.0 
1.919289232904e-03 5.349870035369e-03 0.0 
0.0 0.0 -9.757327493065e-04 
3.328285806708e-04 7.551305444042e-04 0.0 
7.551305444042e-04 2.268004953042e-03 0.0 
0.0 0.0 -4.942977111402e-04 
-1.099935257767e-03 1.964856595336e-04 0.0 
1.964856595336e-04 7.292900558944e-03 0.0 
0.0 0.0 -1.097950598811e-03 
1.032363773293e-03 1.835813900651e-03 0.0 
1.835813900651e-03 5.497041390609e-03 0.0 
0.0 0.0 -9.997120906049e-04 
-9.316246110611e-04 1.391629921323e-03 0.0 
1.391629921323e-03 4.876183256775e-03 0.0 
0.0 0.0 -7.179420443741e-04 
1.196388371467e-03 2.112092286667e-03 0.0 
2.112092286667e-03 5.042986177411e-03 0.0 
0.0 0.0 -9.772269242464e-04 
-2.131134249724e-04 -1.609017645325e-04 0.0 
-1.609017645325e-04 6.188068535903e-03 0.0 
0.0 0.0 -7.962198592206e-04 
2.008861570467e-03 2.629826997665e-03 0.0 
2.629826997665e-03 3.313522164095e-03 0.0 
0.0 0.0 -9.148995629814e-04 
7.156085205279e-04 1.229609617742e-04 0.0 
1.229609617742e-04 3.589254651682e-03 0.0 
0.0 0.0 -7.253243524145e-04 
6.821607307880e-04 -1.904673194370e-04 0.0 
-1.904673194370e-04 3.894958974369e-03 0.0 
0.0 0.0 -7.265225160191e-04 
-1.208173698565e-03 -2.031466844656e-04 0.0 
-2.031466844656e-04 8.155254103189e-03 0.0 
0.0 0.0 -1.204704583718e-03 
1.487008805903e-03 3.938682611303e-04 0.0 
3.938682611303e-04 3.130372379029e-03 0.0 
0.0 0.0 -7.582002714285e-04 
-5.426894571225e-04 5.742936082586e-04 0.0 
5.742936082586e-04 5.571995218390e-03 0.0 
0.0 0.0 -9.015555482168e-04 
2.934875838160e-03 1.892504087632e-03 0.0 
1.892504087632e-03 1.742993198232e-03 0.0 
0.0 0.0 -8.251226812183e-04 
6.960250701078e-04 4.485933014745e-04 0.0 
4.485933014745e-04 5.015821864559e-03 0.0 
0.0 0.0 -8.189387571513e-04 
2.171369853660e-03 1.537382004265e-03 0.0 
1.537382004265e-03 2.238301329024e-03 0.0 
0.0 0.0 -7.842421616061e-04 
1.996406564080e-03 4.359474683555e-04 0.0 
4.359474683555e-04 6.742036429203e-04 0.0 
0.0 0.0 -5.065804551108e-04 
2.068958355919e-03 8.260239739032e-04 0.0 
8.260239739032e-04 2.642674607500e-03 0.0 
0.0 0.0 -7.870648459790e-04 
1.926038507321e-03 6.513651524353e-04 0.0 
6.513651524353e-04 9.573441244799e-04 0.0 
0.0 0.0 -5.426160209679e-04 
-9.840239484115e-04 1.860183386348e-04 0.0 
1.860183386348e-04 6.482342277994e-03 0.0 
0.0 0.0 -9.799122972177e-04 
1.985695588962e-03 1.477633992836e-04 0.0 
1.477633992836e-04 9.684134612244e-04 0.0 
0.0 0.0 -5.399485503622e-04 
-9.444560097486e-04 -1.940759614132e-04 0.0 
-1.940759614132e-04 6.297600198433e-03 0.0 
0.0 0.0 -9.420580210740e-04 
8.630451202055e-04 7.827553335277e-04 0.0 
7.827553335277e-04 5.485441721671e-03 0.0 
0.0 0.0 -9.013199025283e-04 
1.083875252879e-03 1.086668675766e-03 0.0 
1.086668675766e-03 4.979182330012e-03 0.0 
0.0 0.0 -8.851960607554e-04 
2.325010745154e-03 1.821838474443e-03 0.0 
1.821838474443e-03 1.805628805658e-03 0.0 
0.0 0.0 -7.512528815036e-04 
-9.420690742012e-04 1.904423332234e-04 0.0 
1.904423332234e-04 6.250031840530e-03 0.0 
0.0 0.0 -9.460253849645e-04 
-2.646854106126e-04 1.971901313073e-04 0.0 
1.971901313073e-04 6.325895035807e-03 0.0 
0.0 0.0 -8.096483156894e-04 
-3.587276582024e-04 -1.735067598567e-04 0.0 
-1.735067598567e-04 6.487551083680e-03 0.0 
0.0 0.0 -8.011151284868e-04 
-2.748138935716e-04 -1.822651738482e-04 0.0 
-1.822651738482e-04 1.604872033163e-03 0.0 
0.0 0.0 -2.683291303717e-04 
-9.436785497008e-04 2.315459880398e-04 0.0 
2.315459880398e-04 6.389438862668e-03 0.0 
0.0 0.0 -9.666132448687e-04 
-5.060316538973e-04 2.500039916255e-04 0.0 
2.500039916255e-04 7.116649360257e-03 0.0 
0.0 0.0 -8.328333492301e-04 
1.599384405407e-04 2.742759220227e-03 0.0 
2.742759220227e-03 2.684576635359e-03 0.0 
0.0 0.0 -5.357889572170e-04 
-3.570746302445e-05 -2.257362981992e-04 0.0 
-2.257362981992e-04 4.719484141043e-03 0.0 
0.0 0.0 -7.232821024867e-04 
-2.073387850712e-04 3.944337531387e-04 0.0 
3.944337531387e-04 8.429130043888e-04 0.0 
0.0 0.0 -1.553180670733e-04 
-3.939988072281e-04 1.874677904580e-04 0.0 
1.874677904580e-04 6.611011644422e-03 0.0 
0.0 0.0 -8.141353274998e-04 
1.130086446146e-03 4.678085335581e-04 0.0 
4.678085335581e-04 1.370083712433e-03 0.0 
0.0 0.0 -4.785631936959e-04 
-8.099364307500e-04 1.398936881196e-04 0.0 
1.398936881196e-04 5.207921297747e-03 0.0 
0.0 0.0 -7.519402617673e-04 
1.963889333018e-03 1.810701382140e-03 0.0 
1.810701382140e-03 3.642962003430e-03 0.0 
0.0 0.0 -8.877575670019e-04 
-9.403782054792e-04 -1.899510314299e-04 0.0 
-1.899510314299e-04 6.304690927512e-03 0.0 
0.0 0.0 -9.438854677472e-04 
-8.963572268652e-04 1.741364622751e-04 0.0 
1.741364622751e-04 5.997227966099e-03 0.0 
0.0 0.0 -9.108073647308e-04 
1.206545671400e-03 2.077544468135e-03 0.0 
2.077544468135e-03 3.772432154925e-03 0.0 
0.0 0.0 -8.903791226873e-04 
-1.069204837353e-03 4.889523542204e-03 0.0 
4.889523542204e-03 4.301367758660e-03 0.0 
0.0 0.0 -5.884905393267e-04 
-1.265343823240e-03 5.560740108546e-03 0.0 
5.560740108546e-03 4.717400815547e-03 0.0 
0.0 0.0 -6.218825813656e-04 
-4.659753017623e-04 -1.767277412246e-04 0.0 
-1.767277412246e-04 6.755693415113e-03 0.0 
0.0 0.0 -8.064967366241e-04 
1.119009876728e-03 1.356234678480e-04 0.0 
1.356234678480e-04 4.122695973770e-03 0.0 
0.0 0.0 -7.843635121672e-04 
1.867086036528e-03 3.054609994341e-04 0.0 
3.054609994341e-04 2.705891873263e-03 0.0 
0.0 0.0 -7.566804787259e-04 
1.181327480752e-03 7.144376289294e-04 0.0 
7.144376289294e-04 4.415568217685e-03 0.0 
0.0 0.0 -8.290933037040e-04 
2.349751767020e-03 7.949705800182e-04 0.0 
7.949705800182e-04 2.004894777601e-03 0.0 
0.0 0.0 -7.677921525276e-04 
1.132556993739e-03 1.559298199384e-04 0.0 
1.559298199384e-04 1.656599346597e-03 0.0 
0.0 0.0 -5.119962057136e-04 
-9.606521920520e-04 5.082501605906e-03 0.0 
5.082501605906e-03 4.141972881442e-03 0.0 
0.0 0.0 -5.908395828668e-04 
-8.562635021512e-04 -1.754512107452e-04 0.0 
-1.754512107452e-04 5.627343192984e-03 0.0 
0.0 0.0 -8.442294783838e-04 
-7.160648306052e-04 7.585704491009e-06 0.0 
7.585704491009e-06 4.849167370763e-03 0.0 
0.0 0.0 -7.121995050294e-04 
1.038347335675e-03 7.277401402963e-04 0.0 
7.277401402963e-04 5.090756845584e-03 0.0 
0.0 0.0 -8.793074433635e-04 
2.368801610902e-03 1.354005142072e-03 0.0 
1.354005142072e-03 1.828332329759e-03 0.0 
0.0 0.0 -7.486350631497e-04 
3.208602896084e-04 1.016867000759e-03 0.0 
1.016867000759e-03 6.545371658039e-03 0.0 
0.0 0.0 -9.483805483461e-04 
-6.851758283061e-04 2.056269850903e-04 0.0 
2.056269850903e-04 6.850527868787e-03 0.0 
0.0 0.0 -7.990814476351e-04 
2.189668135627e-03 5.914033381966e-04 0.0 
5.914033381966e-04 2.439107236946e-03 0.0 
0.0 0.0 -7.732560049729e-04 
-6.383583233311e-04 -1.755189834320e-04 0.0 
-1.755189834320e-04 7.486440147582e-03 0.0 
0.0 0.0 -8.435438133805e-04 
2.585409715773e-03 1.401438435438e-04 0.0 
1.401438435438e-04 5.366511324467e-04 0.0 
0.0 0.0 -5.682622744621e-04 
5.451655141040e-04 1.224327122715e-03 0.0 
1.224327122715e-03 6.141465516398e-03 0.0 
0.0 0.0 -9.507347860496e-04 
1.374233824307e-03 1.805161577902e-03 0.0 
1.805161577902e-03 3.674431376462e-03 0.0 
0.0 0.0 -8.910665706739e-04 
2.237633142949e-03 2.523029302295e-03 0.0 
2.523029302295e-03 3.238529265742e-03 0.0 
0.0 0.0 -9.116235928274e-04 
3.561174194931e-04 2.530386006137e-04 0.0 
2.530386006137e-04 6.032700919279e-03 0.0 
0.0 0.0 -8.648259178477e-04 
1.044324326530e-03 -3.245700807483e-04 0.0 
-3.245700807483e-04 2.254330363009e-03 0.0 
0.0 0.0 -5.958228065582e-04 
-8.111553594685e-04 3.358270228251e-04 0.0 
3.358270228251e-04 6.054237708209e-03 0.0 
0.0 0.0 -9.369464185080e-04 
2.148170555347e-03 4.203917073321e-04 0.0 
4.203917073321e-04 2.272748463241e-03 0.0 
0.0 0.0 -7.542856139007e-04 
-8.678383174661e-04 -1.259136532750e-04 0.0 
-1.259136532750e-04 6.005617870934e-03 0.0 
0.0 0.0 -9.065670216064e-04 
2.638882360169e-04 4.160672223828e-04 0.0 
4.160672223828e-04 2.603426930920e-03 0.0 
0.0 0.0 -5.268093404353e-04 
2.023847508493e-03 2.188898948727e-03 0.0 
2.188898948727e-03 3.613489601552e-03 0.0 
0.0 0.0 -9.098451633555e-04 
2.289240451200e-03 6.224547182124e-04 0.0 
6.224547182124e-04 1.856771421079e-03 0.0 
0.0 0.0 -7.501771111770e-04 
3.208674534133e-04 1.513350431715e-04 0.0 
1.513350431715e-04 4.503027342676e-03 0.0 
0.0 0.0 -7.497064217458e-04 
-9.122003311205e-04 1.835312424394e-04 0.0 
1.835312424394e-04 5.985147494673e-03 0.0 
0.0 0.0 -9.091416541300e-04 
-1.779440610295e-04 -1.030848282903e-04 0.0 
-1.030848282903e-04 7.740733373014e-04 0.0 
0.0 0.0 -1.392682743729e-04 
2.520287956044e-03 1.780886023253e-03 0.0 
1.780886023253e-03 2.521217974573e-03 0.0 
0.0 0.0 -8.452598253157e-04 
-2.130732635602e-04 -2.101807231715e-04 0.0 
-2.101807231715e-04 1.221567911034e-03 0.0 
0.0 0.0 -2.164288490095e-04 
-1.760268663249e-04 1.836279048573e-04 0.0 
1.836279048573e-04 1.284413838023e-03 0.0 
0.0 0.0 -2.410360834028e-04 
1.618457890713e-04 1.257716221427e-04 0.0 
1.257716221427e-04 4.452898030368e-03 0.0 
0.0 0.0 -7.369583711262e-04 
9.705066437845e-04 2.164329663345e-03 0.0 
2.164329663345e-03 5.215558646772e-03 0.0 
0.0 0.0 -1.006887506558e-03 
-9.336786887582e-04 1.772618600829e-04 0.0 
1.772618600829e-04 6.184069199665e-03 0.0 
0.0 0.0 -9.387552692590e-04 
-7.873227166775e-04 3.064308402590e-03 0.0 
3.064308402590e-03 3.629858317635e-03 0.0 
0.0 0.0 -5.215302833573e-04 
-5.157387100535e-04 8.829561152528e-04 0.0 
8.829561152528e-04 7.999382299903e-03 0.0 
0.0 0.0 -1.285561350688e-03 
-1.080580523549e-04 3.684247804032e-04 0.0 
3.684247804032e-04 2.997709397433e-04 0.0 
0.0 0.0 -8.216266602360e-05 
-8.938425517230e-04 3.985115777026e-03 0.0 
3.985115777026e-03 3.944005574743e-03 0.0 
0.0 0.0 -5.549805679787e-04 
1.770159815753e-03 5.691299760147e-04 0.0 
5.691299760147e-04 2.883445031567e-03 0.0 
0.0 0.0 -7.711479153010e-04 
-2.844104973674e-04 -2.276259008244e-04 0.0 
-2.276259008244e-04 4.761487783643e-03 0.0 
0.0 0.0 -7.102812218993e-04 
-4.346277142606e-04 1.955950369116e-03 0.0 
1.955950369116e-03 4.185697007789e-03 0.0 
0.0 0.0 -6.733236465360e-04 
2.516688796075e-03 2.448893127321e-04 0.0 
2.448893127321e-04 6.571210384731e-04 0.0 
0.0 0.0 -5.908717820549e-04 
1.361145901126e-03 1.243468312894e-04 0.0 
1.243468312894e-04 3.512174799015e-03 0.0 
0.0 0.0 -7.635095181247e-04 
1.027601506258e-03 1.746084736620e-03 0.0 
1.746084736620e-03 4.230438769237e-03 0.0 
0.0 0.0 -9.212369243377e-04 
2.117582563180e-03 1.672137432418e-03 0.0 
1.672137432418e-03 3.294984570934e-03 0.0 
0.0 0.0 -8.659339332436e-04 
-1.624238489562e-04 1.586470554183e-03 0.0 
1.586470554183e-03 6.571564227554e-03 0.0 
0.0 0.0 -1.071329281297e-03 
-1.396045684255e-05 3.788324541412e-04 0.0 
3.788324541412e-04 1.422077419536e-03 0.0 
0.0 0.0 -2.976331147773e-04 
2.230817416864e-04 1.055448378681e-04 0.0 
1.055448378681e-04 4.031365403645e-03 0.0 
0.0 0.0 -7.193256291578e-04 
-3.156652459627e-04 1.410871670543e-04 0.0 
1.410871670543e-04 4.886833642482e-03 0.0 
0.0 0.0 -7.301105927498e-04 
2.491912818334e-04 -3.407155784326e-04 0.0 
-3.407155784326e-04 2.196593019481e-03 0.0 
0.0 0.0 -4.544023106810e-04 
-7.514806211766e-04 2.187245154034e-04 0.0 
2.187245154034e-04 4.887888210751e-03 0.0 
0.0 0.0 -7.518103749234e-04 
-9.376130433125e-04 -2.007012642149e-04 0.0 
-2.007012642149e-04 6.245928942655e-03 0.0 
0.0 0.0 -9.362314798257e-04 
-9.992251554916e-04 -1.927417313737e-04 0.0 
-1.927417313737e-04 6.524207346945e-03 0.0 
0.0 0.0 -7.702197226254e-04 
7.587661605134e-04 2.505376154399e-05 0.0 
2.505376154399e-05 8.869400786624e-05 0.0 
0.0 0.0 -1.605242656235e-04 
-1.269812495822e-04 -2.531001823489e-04 0.0 
-2.531001823489e-04 4.902479252968e-04 0.0 
0.0 0.0 -1.185594205871e-04 
-4.856315936847e-05 -2.668202259565e-04 0.0 
-2.668202259565e-04 1.728900831434e-03 0.0 
0.0 0.0 -3.233707900025e-04 
-5.160426503972e-04 -2.131857203915e-04 0.0 
-2.131857203915e-04 5.150295446298e-03 0.0 
0.0 0.0 -7.166455760233e-04 
2.778265064073e-03 3.529665666037e-04 0.0 
3.529665666037e-04 7.281694219153e-04 0.0 
0.0 0.0 -6.322020076307e-04 
2.497203720952e-03 -7.683084918151e-05 0.0 
-7.683084918151e-05 5.804049696329e-04 0.0 
0.0 0.0 -5.605319560360e-04 
2.026315841774e-03 -7.568636837554e-05 0.0 
-7.568636837554e-05 7.100770760160e-04 0.0 
0.0 0.0 -5.041580933422e-04 
-8.518559402614e-05 1.350724304991e-04 0.0 
1.350724304991e-04 4.857478621201e-03 0.0 
0.0 0.0 -7.420673926732e-04 
-9.951021354220e-04 1.863977597818e-04 0.0 
1.863977597818e-04 6.578139400737e-03 0.0 
0.0 0.0 -9.956198530692e-04 
-5.236402514445e-04 1.573156470264e-04 0.0 
1.573156470264e-04 5.251796707297e-03 0.0 
0.0 0.0 -7.355461988326e-04 
3.003527341072e-03 7.741841135109e-04 0.0 
7.741841135109e-04 4.318010021861e-04 0.0 
0.0 0.0 -6.348607296063e-04 
-9.035684077569e-04 -1.012423442677e-04 0.0 
-1.012423442677e-04 6.408797834110e-03 0.0 
0.0 0.0 -9.587704616103e-04 
-8.101971348646e-04 1.641316877204e-04 0.0 
1.641316877204e-04 5.432076920036e-03 0.0 
0.0 0.0 -8.236220363599e-04 
1.499803454522e-03 1.635597258696e-03 0.0 
1.635597258696e-03 4.473656156428e-03 0.0 
0.0 0.0 -9.096731056017e-04 
-7.112436202005e-04 -2.032942116053e-04 0.0 
-2.032942116053e-04 5.493536107133e-03 0.0 
0.0 0.0 -7.232091124248e-04 
-2.727073073324e-04 -2.180001922701e-04 0.0 
-2.180001922701e-04 5.110971716165e-03 0.0 
0.0 0.0 -7.291184268161e-04 
-5.948333197973e-04 1.494572590318e-03 0.0 
1.494572590318e-03 3.020215249272e-03 0.0 
0.0 0.0 -4.548485160793e-04 
2.561961784580e-03 2.715891146174e-04 0.0 
2.715891146174e-04 1.113723821661e-03 0.0 
0.0 0.0 -6.598952468720e-04 
-7.036884589328e-04 1.671828900884e-04 0.0 
1.671828900884e-04 5.573218032196e-03 0.0 
0.0 0.0 -7.417204545879e-04 
-9.679615503639e-04 1.696948557832e-04 0.0 
1.696948557832e-04 6.395623785343e-03 0.0 
0.0 0.0 -9.615701295831e-04 
-9.079120183865e-04 1.806035671013e-04 0.0 
1.806035671013e-04 6.008465197653e-03 0.0 
0.0 0.0 -8.972249362023e-04 
-6.768695968158e-04 2.203558185326e-03 0.0 
2.203558185326e-03 3.334224752431e-03 0.0 
0.0 0.0 -4.879487645214e-04 
-2.949697852308e-04 1.474911024278e-04 0.0 
1.474911024278e-04 5.225545402387e-03 0.0 
0.0 0.0 -7.472975001826e-04 
2.049033405052e-03 -2.458754697262e-04 0.0 
-2.458754697262e-04 9.765587321461e-04 0.0 
0.0 0.0 -5.517684601482e-04 
-2.845535083016e-04 1.977607623022e-04 0.0 
1.977607623022e-04 1.633750881917e-03 0.0 
0.0 0.0 -2.811347238918e-04 
5.214032565478e-04 8.511422203343e-04 0.0 
8.511422203343e-04 6.247095989388e-03 0.0 
0.0 0.0 -9.464342151266e-04 
2.934639403284e-04 -7.306371183754e-05 0.0 
-7.306371183754e-05 1.131441132732e-03 0.0 
0.0 0.0 -3.019870735033e-04 
2.042749885941e-03 8.042982403158e-05 0.0 
8.042982403158e-05 1.080038071540e-03 0.0 
0.0 0.0 -5.822209219963e-04 
2.698955732543e-03 1.664795874817e-03 0.0 
1.664795874817e-03 2.233517214580e-03 0.0 
0.0 0.0 -8.379142174990e-04 
-6.732929409582e-04 3.442567007569e-03 0.0 
3.442567007569e-03 3.455104726456e-03 0.0 
0.0 0.0 -5.239962781855e-04 
-8.743545482003e-04 -2.002135185631e-04 0.0 
-2.002135185631e-04 5.778408033175e-03 0.0 
0.0 0.0 -7.313488934818e-04 
-1.319691908391e-04 -1.994957648277e-04 0.0 
-1.994957648277e-04 2.394665613807e-03 0.0 
0.0 0.0 -4.282508963332e-04 
-7.578747057613e-04 -1.654300402080e-04 0.0 
-1.654300402080e-04 5.036141076678e-03 0.0 
0.0 0.0 -7.823486082854e-04 
-4.695213154496e-04 -2.079759347503e-04 0.0 
-2.079759347503e-04 5.463622049568e-03 0.0 
0.0 0.0 -7.351961840529e-04 
1.814338070625e-03 1.696955764508e-04 0.0 
1.696955764508e-04 2.550632697236e-03 0.0 
0.0 0.0 -7.394432716185e-04 
2.392310286699e-04 -2.317564623086e-04 0.0 
-2.317564623086e-04 4.290937915133e-03 0.0 
0.0 0.0 -7.177169451305e-04 
-1.456223754453e-04 -1.153284200368e-04 0.0 
-1.153284200368e-04 8.334024863152e-04 0.0 
0.0 0.0 -1.489310416055e-04 
-1.183619524390e-03 -1.995906802130e-04 0.0 
-1.995906802130e-04 7.793015624773e-03 0.0 
0.0 0.0 -1.152567315725e-03 
2.140450964475e-03 2.571888588668e-05 0.0 
2.571888588668e-05 1.485999126072e-03 0.0 
0.0 0.0 -6.514572604261e-04 
6.084504871266e-04 8.270892218345e-04 0.0 
8.270892218345e-04 5.807679926770e-03 0.0 
0.0 0.0 -8.884967351870e-04 
2.267396889898e-03 2.204266058446e-03 0.0 
2.204266058446e-03 3.283439088171e-03 0.0 
0.0 0.0 -9.094868531119e-04 
-4.731337597983e-04 1.613924345783e-04 0.0 
1.613924345783e-04 5.560135573471e-03 0.0 
0.0 0.0 -7.530761811404e-04 
-6.424867900925e-04 -1.896351757455e-04 0.0 
-1.896351757455e-04 5.792129595668e-03 0.0 
0.0 0.0 -7.412640951527e-04 
2.891386204934e-03 5.208845096256e-04 0.0 
5.208845096256e-04 3.295919779438e-04 0.0 
0.0 0.0 -5.989583036242e-04 
-9.111497695839e-05 8.928168804946e-05 0.0 
8.928168804946e-05 1.060256274231e-03 0.0 
0.0 0.0 -2.103425724855e-04 
-1.545095455242e-04 1.193388759037e-04 0.0 
1.193388759037e-04 6.563556231282e-04 0.0 
0.0 0.0 -1.599169489567e-04 
-6.449957677669e-04 1.712246104966e-04 0.0 
1.712246104966e-04 5.889457356209e-03 0.0 
0.0 0.0 -7.593655434079e-04 
4.596420579005e-04 6.354252149190e-04 0.0 
6.354252149190e-04 5.906728776686e-03 0.0 
0.0 0.0 -8.722831707269e-04 
1.517563030508e-03 -3.438610706293e-04 0.0 
-3.438610706293e-04 1.460972147441e-03 0.0 
0.0 0.0 -5.426247857783e-04 
1.794217105529e-04 1.590506754560e-03 0.0 
1.590506754560e-03 5.420051557905e-03 0.0 
0.0 0.0 -9.628427509675e-04 
2.781150649198e-04 2.633741521739e-03 0.0 
2.633741521739e-03 2.325178337718e-03 0.0 
0.0 0.0 -5.002094317253e-04 
-1.010124344686e-03 -1.888812701600e-04 0.0 
-1.888812701600e-04 6.724305145126e-03 0.0 
0.0 0.0 -9.886314663315e-04 
-3.632510926163e-04 2.914763030076e-04 0.0 
2.914763030076e-04 7.551743357366e-03 0.0 
0.0 0.0 -8.842616420547e-04 
-5.404710541836e-05 1.564499946379e-05 0.0 
1.564499946379e-05 2.310460762638e-04 0.0 
0.0 0.0 -4.512473402930e-05 
-1.341620833825e-03 -3.423569445624e-05 0.0 
-3.423569445624e-05 8.854172159817e-03 0.0 
0.0 0.0 -1.341620833825e-03 
-8.590550200746e-04 7.424075045726e-06 0.0 
7.424075045726e-06 8.112038400627e-03 0.0 
0.0 0.0 -8.592835974408e-04 
-8.003500561082e-04 -1.973446332083e-04 0.0 
-1.973446332083e-04 5.182732733425e-03 0.0 
0.0 0.0 -7.955197795907e-04 
1.738336286731e-03 -1.462881773559e-04 0.0 
-1.462881773559e-04 1.838529292234e-03 0.0 
0.0 0.0 -6.428246066218e-04 
2.095475036582e-03 2.329368067073e-03 0.0 
2.329368067073e-03 3.307174538905e-03 0.0 
0.0 0.0 -9.155973794891e-04 
2.634469806031e-03 3.827382914809e-04 0.0 
3.827382914809e-04 7.019127929910e-04 0.0 
0.0 0.0 -6.041149214933e-04 
-1.758620222334e-04 -1.827185347012e-04 0.0 
-1.827185347012e-04 1.189504799504e-03 0.0 
0.0 0.0 -2.095884814006e-04 
-1.358502302165e-04 -1.652436952664e-04 0.0 
-1.652436952664e-04 5.860561493667e-04 0.0 
0.0 0.0 -1.201211790779e-04 
-1.224116731780e-03 -1.601620163346e-04 0.0 
-1.601620163346e-04 8.159917680932e-03 0.0 
0.0 0.0 -1.209499414335e-03 
-9.670306227229e-04 -2.102097021759e-04 0.0 
-2.102097021759e-04 6.456763428288e-03 0.0 
0.0 0.0 -9.648175333861e-04 
-1.218321683639e-03 1.345898193621e-03 0.0 
1.345898193621e-03 5.330625649236e-03 0.0 
0.0 0.0 -7.224789237172e-04 
1.159829919064e-05 1.136362980279e-03 0.0 
1.136362980279e-03 7.613214070501e-03 0.0 
0.0 0.0 -1.037160705426e-03 
1.909491876710e-04 -1.685220403661e-04 0.0 
-1.685220403661e-04 1.687833234974e-03 0.0 
0.0 0.0 -3.615704333793e-04 
-8.774194427676e-05 9.958852257049e-04 0.0 
9.958852257049e-04 7.666176674363e-03 0.0 
0.0 0.0 -1.023938214691e-03 
-9.656783964585e-04 1.862090128514e-04 0.0 
1.862090128514e-04 6.391762053029e-03 0.0 
0.0 0.0 -9.670422101491e-04 
1.307791339265e-03 -2.602020938828e-04 0.0 
-2.602020938828e-04 2.216012131836e-03 0.0 
0.0 0.0 -6.336394413499e-04 
2.311601543342e-03 2.593036389578e-03 0.0 
2.593036389578e-03 2.813712384213e-03 0.0 
0.0 0.0 -8.912244433859e-04 
1.778662168533e-03 7.299366259467e-05 0.0 
7.299366259467e-05 1.500131504020e-03 0.0 
0.0 0.0 -6.094834619596e-04 
-1.464228527091e-04 5.875998035969e-04 0.0 
5.875998035969e-04 1.692719044080e-03 0.0 
0.0 0.0 -3.160312483096e-04 
1.533156594471e-03 -8.498797365350e-06 0.0 
-8.498797365350e-06 1.526549051749e-03 0.0 
0.0 0.0 -5.728018649490e-04 
-1.022496320278e-03 1.929428534962e-04 0.0 
1.929428534962e-04 6.770909400157e-03 0.0 
0.0 0.0 -1.023749757194e-03 
-6.987213727655e-04 -2.010256634127e-04 0.0 
-2.010256634127e-04 7.095865097461e-03 0.0 
0.0 0.0 -8.040256167820e-04 
2.224336967730e-03 2.099459413593e-04 0.0 
2.099459413593e-04 1.107289135113e-03 0.0 
0.0 0.0 -6.181853003094e-04 
-1.591159059125e-06 1.514055053267e-03 0.0 
1.514055053267e-03 5.807478607545e-03 0.0 
0.0 0.0 -9.868690618719e-04 
0.0 0.0 0.0 
0.0 0.0 0.0 
0.0 0.0 0.0 
2.674591497329e-03 4.321062611960e-04 0.0 
4.321062611960e-04 7.086758954180e-04 0.0 
0.0 0.0 -6.266282162577e-04 
-1.067618640436e-03 -2.059979659696e-04 0.0 
-2.059979659696e-04 7.168819223232e-03 0.0 
0.0 0.0 -1.066385360782e-03 
9.763778994083e-04 -3.132311169272e-05 0.0 
-3.132311169272e-05 2.012233890366e-03 0.0 
0.0 0.0 -5.616069800515e-04 
1.188086467072e-03 -4.045760265373e-04 0.0 
-4.045760265373e-04 1.571455800750e-03 0.0 
0.0 0.0 -5.052880831394e-04 
2.356050884066e-03 2.249578982592e-03 0.0 
2.249578982592e-03 2.839437814950e-03 0.0 
0.0 0.0 -8.909974067985e-04 
1.048010134695e-03 -3.701801913547e-04 0.0 
-3.701801913547e-04 3.313100757337e-04 0.0 
0.0 0.0 -2.979563435985e-04 
-5.080787539116e-04 1.059710408142e-03 0.0 
1.059710408142e-03 2.465640989894e-03 0.0 
0.0 0.0 -3.867203691650e-04 
-5.330120364205e-04 1.645758960158e-03 0.0 
1.645758960158e-03 2.842911453140e-03 0.0 
0.0 0.0 -4.195921675762e-04 
8.544092850345e-04 -7.823675043949e-05 0.0 
-7.823675043949e-05 1.749024831197e-03 0.0 
0.0 0.0 -4.973376392308e-04 
1.610426413899e-03 2.100650565149e-04 0.0 
2.100650565149e-04 3.115088279755e-03 0.0 
0.0 0.0 -7.596131347038e-04 
2.919465263353e-03 2.112300766057e-03 0.0 
2.112300766057e-03 1.593039604582e-03 0.0 
0.0 0.0 -8.147327860212e-04 
4.777800511466e-05 1.215115630407e-03 0.0 
1.215115630407e-03 5.817309748803e-03 0.0 
0.0 0.0 -9.845196554786e-04 
7.113751051148e-05 1.906893861729e-03 0.0 
1.906893861729e-03 6.754166915961e-03 0.0 
0.0 0.0 -1.126987975064e-03 
-5.191725273391e-04 1.790906145244e-03 0.0 
1.790906145244e-03 2.899712636922e-03 0.0 
0.0 0.0 -4.570814260163e-04 
-1.026282183515e-03 -2.469645237371e-04 0.0 
-2.469645237371e-04 6.837925098464e-03 0.0 
0.0 0.0 -1.028620860735e-03 
5.881368711176e-04 1.985102196868e-03 0.0 
1.985102196868e-03 6.202721234487e-03 0.0 
0.0 0.0 -1.048151968145e-03 
2.714556113398e-03 6.135009287921e-04 0.0 
6.135009287921e-04 3.398301613234e-04 0.0 
0.0 0.0 -5.707601703556e-04 
-2.135565257302e-04 2.102195190306e-04 0.0 
2.102195190306e-04 1.190116728888e-03 0.0 
0.0 0.0 -2.192200328082e-04 
1.650241765941e-04 2.693066919799e-03 0.0 
2.693066919799e-03 2.759114074614e-03 0.0 
0.0 0.0 -5.330167430730e-04 
1.567982643904e-03 9.623947658907e-05 0.0 
9.623947658907e-05 2.946291522311e-03 0.0 
0.0 0.0 -7.430743569124e-04 
-1.048449379148e-03 1.986829203854e-04 0.0 
1.986829203854e-04 6.920232345567e-03 0.0 
0.0 0.0 -1.038086739231e-03 
1.735271372482e-03 4.527351253860e-04 0.0 
4.527351253860e-04 2.716231366171e-03 0.0 
0.0 0.0 -7.547666950278e-04 
-2.458088517301e-04 -1.138196901462e-04 0.0 
-1.138196901462e-04 1.452613291321e-03 0.0 
0.0 0.0 -2.343049260409e-04 
1.371615917213e-03 2.239145441861e-04 0.0 
2.239145441861e-04 3.711306304011e-03 0.0 
0.0 0.0 -7.801760766983e-04 
2.805062293966e-05 1.148308055221e-03 0.0 
1.148308055221e-03 1.747735572856e-03 0.0 
0.0 0.0 -3.508512830963e-04 
2.835581898324e-03 1.651933553347e-03 0.0 
1.651933553347e-03 1.739865250969e-03 0.0 
0.0 0.0 -8.123573650817e-04 
1.512989209277e-03 5.012519820778e-04 0.0 
5.012519820778e-04 3.300548975687e-03 0.0 
0.0 0.0 -7.741556411695e-04 
2.499708621897e-03 2.463855017406e-03 0.0 
2.463855017406e-03 2.779215485496e-03 0.0 
0.0 0.0 -8.899650577239e-04 
-9.274205801970e-04 -1.707730266069e-04 0.0 
-1.707730266069e-04 6.212775611049e-03 0.0 
0.0 0.0 -9.494079867578e-04 
5.820302930591e-04 -3.635611749482e-04 0.0 
-3.635611749482e-04 2.107303828870e-03 0.0 
0.0 0.0 -4.933620968965e-04 
-2.484574972914e-04 1.853035354059e-04 0.0 
1.853035354059e-04 1.372800011643e-03 0.0 
0.0 0.0 -2.459554264611e-04 
1.256178726775e-03 5.279751075239e-04 0.0 
5.279751075239e-04 3.927376269502e-03 0.0 
0.0 0.0 -7.941995357719e-04 
1.615547470285e-04 1.626717248925e-03 0.0 
1.626717248925e-03 1.808467378359e-03 0.0 
0.0 0.0 -3.857152600925e-04 
-1.079925297708e-04 2.094696628342e-04 0.0 
2.094696628342e-04 4.385964497386e-04 0.0 
0.0 0.0 -1.205192217350e-04 
-1.217003238982e-03 1.715975421034e-04 0.0 
1.715975421034e-04 8.115367819263e-03 0.0 
0.0 0.0 -1.223389224544e-03 
-1.152822377069e-03 1.914748152748e-04 0.0 
1.914748152748e-04 7.732583850779e-03 0.0 
0.0 0.0 -1.157435638217e-03 
-9.394432781398e-05 -1.620283716039e-05 0.0 
-1.620283716039e-05 3.135234532214e-04 0.0 
0.0 0.0 -9.410533946034e-05 
1.097372145118e-03 2.222448917866e-04 0.0 
2.222448917866e-04 4.347172043904e-03 0.0 
0.0 0.0 -8.014469840587e-04 
1.043851327039e-04 -3.000917140982e-04 0.0 
-3.000917140982e-04 1.963443932423e-03 0.0 
0.0 0.0 -3.887237773309e-04 
1.391776306467e-04 4.845160872085e-05 0.0 
4.845160872085e-05 2.002886957951e-03 0.0 
0.0 0.0 -4.195855280820e-04 
9.498252897519e-04 2.492974715185e-03 0.0 
2.492974715185e-03 5.202114045390e-03 0.0 
0.0 0.0 -1.009510719169e-03 
2.448315873034e-03 2.065738827669e-03 0.0 
2.065738827669e-03 2.891929608415e-03 0.0 
0.0 0.0 -8.848084722363e-04 
1.132664553915e-03 2.497474948525e-03 0.0 
2.497474948525e-03 4.803723007413e-03 0.0 
0.0 0.0 -9.862478462408e-04 
2.421043911275e-03 7.979044615741e-05 0.0 
7.979044615741e-05 1.036731142434e-03 0.0 
0.0 0.0 -6.238888496032e-04 
-7.066733059565e-04 2.079397955112e-05 0.0 
2.079397955112e-05 4.859565834242e-03 0.0 
0.0 0.0 -7.105917616147e-04 
-6.540058885475e-04 6.982078786443e-05 0.0 
6.982078786443e-05 7.562617909668e-03 0.0 
0.0 0.0 -8.806281316332e-04 
-1.738874727830e-06 7.843888704583e-05 0.0 
7.843888704583e-05 1.744167100646e-03 0.0 
0.0 0.0 -3.541816848729e-04 
7.794576442077e-04 5.848566922253e-04 0.0 
5.848566922253e-04 5.471276224314e-03 0.0 
0.0 0.0 -8.786389771247e-04 
2.708198524991e-03 1.879141500794e-03 0.0 
1.879141500794e-03 2.076623597233e-03 0.0 
0.0 0.0 -8.424202920514e-04 
3.562860077141e-04 1.262819370055e-04 0.0 
1.262819370055e-04 9.650065424410e-04 0.0 
0.0 0.0 -2.892354545592e-04 
-1.017444257442e-03 1.870623454717e-04 0.0 
1.870623454717e-04 6.717348757917e-03 0.0 
0.0 0.0 -1.015166614560e-03 
2.809092054125e-03 6.506675048206e-04 0.0 
6.506675048206e-04 7.914545829295e-04 0.0 
0.0 0.0 -6.628028861993e-04 
1.168739746326e-05 -1.297669526472e-04 0.0 
-1.297669526472e-04 5.511402195767e-04 0.0 
0.0 0.0 -1.790968519484e-04 
2.743376917312e-03 2.903794443418e-04 0.0 
2.903794443418e-04 2.670915743473e-04 0.0 
0.0 0.0 -5.632129589051e-04 
-9.884321662352e-04 1.904160683491e-04 0.0 
1.904160683491e-04 6.403948588836e-03 0.0 
0.0 0.0 -7.651111490255e-04 
-1.024292652289e-03 -1.998354067082e-04 0.0 
-1.998354067082e-04 6.855679602380e-03 0.0 
0.0 0.0 -1.020980360542e-03 
1.666386354542e-04 -3.862386476104e-04 0.0 
-3.862386476104e-04 1.214069008317e-03 0.0 
0.0 0.0 -2.713190868338e-04 
-7.786516008987e-04 -1.183171496666e-04 0.0 
-1.183171496666e-04 5.364734807621e-03 0.0 
0.0 0.0 -7.461619225260e-04 
-1.428944933686e-04 1.464738518102e-03 0.0 
1.464738518102e-03 6.166756488676e-03 0.0 
0.0 0.0 -1.010933691448e-03 
1.273599480037e-03 1.329294297802e-03 0.0 
1.329294297802e-03 4.960516831934e-03 0.0 
0.0 0.0 -9.262573765895e-04 
1.226081942159e-03 -6.882416101766e-05 0.0 
-6.882416101766e-05 1.602754269354e-03 0.0 
0.0 0.0 -5.351738145117e-04 
-2.263797762506e-04 1.786779166313e-04 0.0 
1.786779166313e-04 2.416962253722e-03 0.0 
0.0 0.0 -4.333934152438e-04 
2.825292449511e-03 2.111787849219e-03 0.0 
2.111787849219e-03 2.053990053051e-03 0.0 
0.0 0.0 -8.461557127865e-04 
-9.199821990293e-04 -2.154181819420e-04 0.0 
-2.154181819420e-04 6.117399840533e-03 0.0 
0.0 0.0 -9.278975173457e-04 
-9.515925334824e-05 -7.978032794957e-05 0.0 
-7.978032794957e-05 6.554481769920e-04 0.0 
0.0 0.0 -1.762926913357e-04 
4.616262796620e-04 1.729118830197e-03 0.0 
1.729118830197e-03 6.846910516798e-03 0.0 
0.0 0.0 -1.050947566006e-03 
-6.154050197654e-05 1.686561407149e-03 0.0 
1.686561407149e-03 7.145366651690e-03 0.0 
0.0 0.0 -1.179385119232e-03 
-8.292940884850e-04 -1.917175163011e-04 0.0 
-1.917175163011e-04 5.414946975704e-03 0.0 
0.0 0.0 -8.387747867703e-04 
-1.244952979202e-03 -2.282010355606e-04 0.0 
-2.282010355606e-04 8.516132030964e-03 0.0 
0.0 0.0 -1.255037608383e-03 
3.462503685757e-04 2.169755574084e-03 0.0 
2.169755574084e-03 6.743796363555e-03 0.0 
0.0 0.0 -1.127860956332e-03 
2.370922738367e-03 3.682071279778e-04 0.0 
3.682071279778e-04 1.179912477773e-03 0.0 
0.0 0.0 -6.542748834104e-04 
1.986753305585e-03 -1.200510608149e-04 0.0 
-1.200510608149e-04 1.420285643025e-03 0.0 
0.0 0.0 -6.153450468602e-04 
-1.744034094837e-05 5.562376890532e-04 0.0 
5.562376890532e-04 7.265472389584e-03 0.0 
0.0 0.0 -9.372869929662e-04 
0.0 0.0 0.0 
0.0 0.0 0.0 
0.0 0.0 0.0 
1.463802220948e-05 1.782391075579e-04 0.0 
1.782391075579e-04 2.011318374404e-03 0.0 
0.0 0.0 -3.941707820483e-04 
-8.514736115696e-04 2.103040527062e-04 0.0 
2.103040527062e-04 5.327264204149e-03 0.0 
0.0 0.0 -7.510788424389e-04 
9.476929089622e-04 -3.700090897281e-04 0.0 
-3.700090897281e-04 1.970298170911e-03 0.0 
0.0 0.0 -5.313546330462e-04 
2.329228556542e-03 7.927269507688e-05 0.0 
7.927269507688e-05 6.273787701576e-04 0.0 
0.0 0.0 -5.546931404481e-04 
-4.457339478783e-04 1.413453082103e-03 0.0 
1.413453082103e-03 1.993492470336e-03 0.0 
0.0 0.0 -3.196518454468e-04 
-4.823279775526e-04 1.675897779873e-03 0.0 
1.675897779873e-03 2.389544523292e-03 0.0 
0.0 0.0 -3.528063275151e-04 
-8.197996438863e-04 -1.649479054574e-04 0.0 
-1.649479054574e-04 5.559213606059e-03 0.0 
0.0 0.0 -8.290026594306e-04 
2.650749415301e-03 1.231612662537e-04 0.0 
1.231612662537e-04 6.412498353371e-04 0.0 
0.0 0.0 -5.962921515785e-04 
-3.676862946412e-04 1.573873396471e-04 0.0 
1.573873396471e-04 2.723923700203e-03 0.0 
0.0 0.0 -4.583473518421e-04 
1.559351136764e-03 1.948038740580e-03 0.0 
1.948038740580e-03 4.442412599615e-03 0.0 
0.0 0.0 -9.308646933663e-04 
-7.182692065723e-04 7.384456744480e-05 0.0 
7.384456744480e-05 8.234351711276e-03 0.0 
0.0 0.0 -8.777755399396e-04 
-6.835957822902e-04 3.586800303935e-05 0.0 
3.586800303935e-05 8.170823522068e-03 0.0 
0.0 0.0 -8.832909315472e-04 
1.956545869329e-03 1.858038013827e-04 0.0 
1.858038013827e-04 1.542576595746e-03 0.0 
0.0 0.0 -6.457427040837e-04 
-7.708747032324e-04 1.041783851500e-04 0.0 
1.041783851500e-04 4.982091340538e-03 0.0 
0.0 0.0 -7.877541558771e-04 
-8.769640556113e-05 6.178156653804e-05 0.0 
6.178156653804e-05 4.782988861832e-04 0.0 
0.0 0.0 -9.215226380795e-05 
-3.614194010796e-04 1.343783830864e-03 0.0 
1.343783830864e-03 1.586389589758e-03 0.0 
0.0 0.0 -2.565684379859e-04 
3.390688009581e-04 -3.962512545536e-04 0.0 
-3.962512545536e-04 1.116077624659e-03 0.0 
0.0 0.0 -2.726290318112e-04 
-3.885243758441e-04 1.370025896589e-03 0.0 
1.370025896589e-03 1.824028782906e-03 0.0 
0.0 0.0 -2.902597925154e-04 
2.579831328115e-03 1.864864234386e-03 0.0 
1.864864234386e-03 2.550412275150e-03 0.0 
0.0 0.0 -8.609467707516e-04 
1.797691807880e-03 -2.833585224088e-05 0.0 
-2.833585224088e-05 1.106510093511e-03 0.0 
0.0 0.0 -5.459662534218e-04 
2.258297702941e-03 -9.578007739389e-05 0.0 
-9.578007739389e-05 9.875195437149e-04 0.0 
0.0 0.0 -5.879858557453e-04 
-1.839870051548e-04 -1.451969745408e-04 0.0 
-1.451969745408e-04 1.010884541365e-03 0.0 
0.0 0.0 -1.607067486349e-04 
-1.189299804196e-03 3.101361533276e-05 0.0 
3.101361533276e-05 7.702189552740e-03 0.0 
0.0 0.0 -1.176327079312e-03 
1.787760615211e-03 -2.490894954226e-04 0.0 
-2.490894954226e-04 1.405757844214e-03 0.0 
0.0 0.0 -5.792774345575e-04 
-1.207908513450e-03 1.972281472903e-04 0.0 
1.972281472903e-04 8.083641670665e-03 0.0 
0.0 0.0 -1.212957849656e-03 
-1.102884565855e-03 -1.433383463998e-04 0.0 
-1.433383463998e-04 7.411218118786e-03 0.0 
0.0 0.0 -1.117460450001e-03 
-1.327052993259e-03 5.039016474574e-05 0.0 
5.039016474574e-05 9.117456944274e-03 0.0 
0.0 0.0 -1.319418651152e-03 
-7.761113860859e-04 4.796348790203e-05 0.0 
4.796348790203e-05 8.278052399704e-03 0.0 
0.0 0.0 -8.479649633763e-04 
-8.429214028197e-04 1.551938721599e-04 0.0 
1.551938721599e-04 5.556754036543e-03 0.0 
0.0 0.0 -8.315138651140e-04 
1.538923191087e-03 -2.531598492623e-04 0.0 
-2.531598492623e-04 1.818216133140e-03 0.0 
0.0 0.0 -6.063493599945e-04 
-4.361951039677e-04 1.310236239113e-03 0.0 
1.310236239113e-03 2.428756479515e-03 0.0 
0.0 0.0 -3.884917441798e-04 
1.532282593873e-03 7.267298112983e-05 0.0 
7.267298112983e-05 1.912754586616e-03 0.0 
0.0 0.0 -6.367902913543e-04 
-8.742885344211e-04 2.333419993493e-05 0.0 
2.333419993493e-05 8.125448849888e-03 0.0 
0.0 0.0 -8.811570446513e-04 
-2.689359386916e-04 8.771282288596e-04 0.0 
8.771282288596e-04 1.090322912053e-03 0.0 
0.0 0.0 -1.893367542308e-04 
-3.099399008265e-04 1.139707494516e-03 0.0 
1.139707494516e-03 1.344655488267e-03 0.0 
0.0 0.0 -2.228547875044e-04 
6.436343023489e-04 6.662872744028e-04 0.0 
6.662872744028e-04 5.827529384855e-03 0.0 
0.0 0.0 -9.003279157281e-04 
-7.604196719999e-04 1.094016003118e-05 0.0 
1.094016003118e-05 5.257478836262e-03 0.0 
0.0 0.0 -7.715229432315e-04 
-1.218850929264e-03 2.058644676408e-04 0.0 
2.058644676408e-04 8.144525734943e-03 0.0 
0.0 0.0 -1.219279742240e-03 
-1.273847840276e-04 1.133100285189e-03 0.0 
1.133100285189e-03 6.195609995640e-03 0.0 
0.0 0.0 -1.006599628644e-03 
8.061918515837e-04 1.436407061526e-03 0.0 
1.436407061526e-03 5.721408138488e-03 0.0 
0.0 0.0 -9.505891784510e-04 
-1.121091741335e-03 -2.069286900309e-04 0.0 
-2.069286900309e-04 7.490057124049e-03 0.0 
0.0 0.0 -1.092866136845e-03 
-8.412072480000e-04 1.822595111316e-04 0.0 
1.822595111316e-04 5.484810982914e-03 0.0 
0.0 0.0 -8.542750875040e-04 
8.025833217911e-04 -4.095854676784e-04 0.0 
-4.095854676784e-04 1.733582365926e-03 0.0 
0.0 0.0 -4.674384380614e-04 
1.099530195280e-03 -1.279423583775e-04 0.0 
-1.279423583775e-04 1.351365852863e-03 0.0 
0.0 0.0 -4.715697005044e-04 
-9.776991098989e-04 1.861960494422e-04 0.0 
1.861960494422e-04 6.549106674112e-03 0.0 
0.0 0.0 -9.963059934037e-04 
1.062063323886e-03 1.300879781369e-03 0.0 
1.300879781369e-03 5.352184454355e-03 0.0 
0.0 0.0 -9.484343375158e-04 
-1.342358118674e-03 4.668919288281e-04 0.0 
4.668919288281e-04 5.188151155204e-03 0.0 
0.0 0.0 -7.345222264051e-04 
-7.670993363219e-04 9.419055026096e-06 0.0 
9.419055026096e-06 5.242908179151e-03 0.0 
0.0 0.0 -7.676068998053e-04 
-8.154774784067e-04 -6.428956903028e-05 0.0 
-6.428956903028e-05 5.577286133226e-03 0.0 
0.0 0.0 -8.242303029217e-04 
-8.631530775677e-04 -2.400243606270e-04 0.0 
-2.400243606270e-04 5.666444636218e-03 0.0 
0.0 0.0 -8.467401457521e-04 
-1.810687883293e-04 1.536412805057e-04 0.0 
1.536412805057e-04 1.297542868653e-03 0.0 
0.0 0.0 -2.397236108670e-04 
6.848723086960e-04 -1.079270749991e-04 0.0 
-1.079270749991e-04 1.532671727981e-03 0.0 
0.0 0.0 -4.335179088089e-04 
-1.282591321733e-03 8.806658448807e-05 0.0 
8.806658448807e-05 8.712918664304e-03 0.0 
0.0 0.0 -1.269310366786e-03 
-9.079866980401e-04 -2.164843828384e-04 0.0 
-2.164843828384e-04 6.067165963346e-03 0.0 
0.0 0.0 -9.150577043801e-04 
-2.006512451634e-04 7.856515030677e-04 0.0 
7.856515030677e-04 7.379356892016e-03 0.0 
0.0 0.0 -9.693227554528e-04 
-1.681803506628e-04 1.546586926989e-03 0.0 
1.546586926989e-03 7.171938472896e-03 0.0 
0.0 0.0 -1.084945411472e-03 
-1.017494637499e-03 -1.921677140224e-04 0.0 
-1.921677140224e-04 6.789033766802e-03 0.0 
0.0 0.0 -1.012565562176e-03 
-1.225370251071e-03 -1.480578321934e-04 0.0 
-1.480578321934e-04 8.186203026488e-03 0.0 
0.0 0.0 -1.214907066889e-03 
-6.126094482220e-04 1.499930831992e-04 0.0 
1.499930831992e-04 3.952786327319e-03 0.0 
0.0 0.0 -6.304496659280e-04 
-4.857469344841e-04 1.369876113652e-04 0.0 
1.369876113652e-04 3.651398555967e-03 0.0 
0.0 0.0 -5.666856080635e-04 
-3.532215111835e-04 2.665102568226e-04 0.0 
2.665102568226e-04 7.025219656080e-03 0.0 
0.0 0.0 -8.671362521448e-04 
-8.681779237155e-05 6.361966938885e-05 0.0 
6.361966938885e-05 2.955256088907e-04 0.0 
0.0 0.0 -8.944620707962e-05 
8.685680409303e-06 -4.870300953429e-05 0.0 
-4.870300953429e-05 2.255667762214e-03 0.0 
0.0 0.0 -4.071640756073e-04 
-4.105425697991e-04 7.898682072618e-04 0.0 
7.898682072618e-04 7.728458899867e-03 0.0 
0.0 0.0 -1.030811520928e-03 
6.708390623241e-04 -1.291430823218e-04 0.0 
-1.291430823218e-04 2.622319407031e-04 0.0 
0.0 0.0 -2.265802816212e-04 
-7.779914563104e-04 2.250840471903e-05 0.0 
2.250840471903e-05 4.976100040424e-03 0.0 
0.0 0.0 -7.870118106326e-04 
2.088153729346e-04 4.990816231806e-04 0.0 
4.990816231806e-04 6.722946836158e-03 0.0 
0.0 0.0 -9.043186324635e-04 
-1.459711515859e-04 1.404844411891e-04 0.0 
1.404844411891e-04 8.229618690863e-04 0.0 
0.0 0.0 -1.562362318669e-04 
9.241562951598e-05 -4.997944240261e-05 0.0 
-4.997944240261e-05 3.533355405299e-04 0.0 
0.0 0.0 -9.998712429274e-05 
-1.319764072821e-03 -1.098631366030e-04 0.0 
-1.098631366030e-04 9.086194502793e-03 0.0 
0.0 0.0 -1.324389858384e-03 
-7.180738404627e-04 8.985801949801e-05 0.0 
8.985801949801e-05 4.589525670273e-03 0.0 
0.0 0.0 -7.294542769151e-04 
-1.252043255197e-03 2.202164088421e-04 0.0 
2.202164088421e-04 8.539160480101e-03 0.0 
0.0 0.0 -1.261418349269e-03 
-7.926690953771e-06 5.422329226365e-04 0.0 
5.422329226365e-04 6.669441999047e-03 0.0 
0.0 0.0 -9.182355557108e-04 
-7.209227692000e-04 -5.510654877102e-05 0.0 
-5.510654877102e-05 4.575450219389e-03 0.0 
0.0 0.0 -7.289279708929e-04 
-7.887389828812e-05 -1.017830300424e-05 0.0 
-1.017830300424e-05 5.525360744204e-04 0.0 
0.0 0.0 -9.740250892546e-05 
-1.285641185581e-03 -9.669087187551e-05 0.0 
-9.669087187551e-05 8.464210102403e-03 0.0 
0.0 0.0 -1.284140717545e-03 
-1.306115740774e-04 -2.371009632789e-04 0.0 
-2.371009632789e-04 1.225359405088e-03 0.0 
0.0 0.0 -2.433545560381e-04 
-1.243394787484e-03 1.248159333678e-04 0.0 
1.248159333678e-04 8.192432393622e-03 0.0 
0.0 0.0 -1.232184317627e-03 
-8.735652512089e-04 2.779918415379e-05 0.0 
2.779918415379e-05 8.111656047645e-03 0.0 
0.0 0.0 -8.765748152915e-04 
-1.250742807791e-03 -1.001308414426e-04 0.0 
-1.001308414426e-04 8.096078022369e-03 0.0 
0.0 0.0 -1.149037174506e-03 
6.186020714647e-04 -8.968197191278e-06 0.0 
-8.968197191278e-06 8.300218653912e-04 0.0 
0.0 0.0 -3.044764127662e-04 
-8.209179416884e-04 2.201614491102e-05 0.0 
2.201614491102e-05 5.636691216410e-03 0.0 
0.0 0.0 -8.279144014868e-04 
-6.598213782972e-04 -1.321361913960e-04 0.0 
-1.321361913960e-04 4.200506500251e-03 0.0 
0.0 0.0 -6.271989868225e-04 
1.509292264395e-03 1.556206343431e-03 0.0 
1.556206343431e-03 4.517723867655e-03 0.0 
0.0 0.0 -9.271771328451e-04 
-2.649836531780e-04 5.923920257370e-04 0.0 
5.923920257370e-04 7.838113726943e-03 0.0 
0.0 0.0 -9.877981161455e-04 
-1.068734190482e-03 1.262415369069e-04 0.0 
1.262415369069e-04 7.132952485478e-03 0.0 
0.0 0.0 -1.061614915164e-03 
-3.314193756567e-04 6.778684844228e-04 0.0 
6.778684844228e-04 7.873161676783e-03 0.0 
0.0 0.0 -9.745566053673e-04 
-1.438532979018e-04 1.783345522892e-04 0.0 
1.783345522892e-04 7.477808023261e-04 0.0 
0.0 0.0 -1.715795432680e-04 
-6.786481220694e-04 -6.757828404966e-05 0.0 
-6.757828404966e-05 7.845256861971e-03 0.0 
0.0 0.0 -8.554120162708e-04 
1.069002895033e-03 -1.684790499983e-04 0.0 
-1.684790499983e-04 6.284314821024e-04 0.0 
0.0 0.0 -3.355960889912e-04 
4.933924273996e-04 4.961319476109e-05 0.0 
4.961319476109e-05 3.972816086358e-04 0.0 
0.0 0.0 -2.298118214877e-04 
-2.452795123656e-04 2.501091366071e-04 0.0 
2.501091366071e-04 7.466663126633e-03 0.0 
0.0 0.0 -9.088072743650e-04 
-1.269212628500e-03 -5.703432125205e-05 0.0 
-5.703432125205e-05 8.728165820739e-03 0.0 
0.0 0.0 -1.270603359501e-03 
-1.290208848841e-03 -1.659042855401e-04 0.0 
-1.659042855401e-04 8.665328582140e-03 0.0 
0.0 0.0 -1.289850838753e-03 
-7.717572245572e-04 2.050611335138e-04 0.0 
2.050611335138e-04 5.043252484980e-03 0.0 
0.0 0.0 -7.762633204683e-04 
-8.522136042615e-04 2.002639843872e-04 0.0 
2.002639843872e-04 5.495330100218e-03 0.0 
0.0 0.0 -8.489529362435e-04 
-2.995033860247e-04 -1.790752197885e-04 0.0 
-1.790752197885e-04 1.871404438478e-03 0.0 
0.0 0.0 -3.134500106614e-04 
4.532919889718e-04 2.256945100729e-03 0.0 
2.256945100729e-03 6.906514682232e-03 0.0 
0.0 0.0 -1.109083220691e-03 
-5.172296523503e-04 1.719980447266e-04 0.0 
1.719980447266e-04 3.374654497821e-03 0.0 
0.0 0.0 -5.357483711987e-04 
-1.781924616035e-04 -1.691974037748e-04 0.0 
-1.691974037748e-04 1.076416545497e-03 0.0 
0.0 0.0 -2.114276361914e-04 
1.335130875528e-03 1.684954856614e-03 0.0 
1.684954856614e-03 4.872708965352e-03 0.0 
0.0 0.0 -9.305116983180e-04 
-7.006483677025e-04 -2.017256137277e-05 0.0 
-2.017256137277e-05 4.817249357728e-03 0.0 
0.0 0.0 -7.096328662732e-04 
-1.236750495474e-03 1.522707816399e-04 0.0 
1.522707816399e-04 8.254648441428e-03 0.0 
0.0 0.0 -1.237729719596e-03 
-1.313320395878e-03 -1.861843894466e-04 0.0 
-1.861843894466e-04 8.989774958204e-03 0.0 
0.0 0.0 -1.321509982054e-03 
-1.343732204276e-03 -8.189586176293e-06 0.0 
-8.189586176293e-06 8.864848236539e-03 0.0 
0.0 0.0 -1.343732204276e-03 
1.532641391671e-03 1.926614898117e-05 0.0 
1.926614898117e-05 -3.868201748385e-04 0.0 
0.0 0.0 -1.972281262477e-04 
1.296092078371e-03 -1.065712839591e-05 0.0 
-1.065712839591e-05 -3.759357716582e-04 0.0 
0.0 0.0 -2.985597577216e-04 
-7.269437089926e-04 -1.696449694041e-04 0.0 
-1.696449694041e-04 4.683701017331e-03 0.0 
0.0 0.0 -7.318233512793e-04 
-7.351939856936e-04 2.731264159549e-05 0.0 
2.731264159549e-05 4.828327016366e-03 0.0 
0.0 0.0 -7.096011290571e-04 
-8.606912999701e-04 1.247380963945e-05 0.0 
1.247380963945e-05 8.084211847044e-03 0.0 
0.0 0.0 -8.607225590631e-04 
-7.855540089834e-04 1.749565575726e-04 0.0 
1.749565575726e-04 8.163989038598e-03 0.0 
0.0 0.0 -8.464049035009e-04 
1.053914796480e-03 -1.186976690511e-05 0.0 
-1.186976690511e-05 -3.345289383565e-04 0.0 
0.0 0.0 -2.261676164782e-04 
0.0 0.0 0.0 
0.0 0.0 0.0 
0.0 0.0 0.0 
-6.171491111847e-04 1.305370874613e-04 0.0 
1.305370874613e-04 7.264157351435e-03 0.0 
0.0 0.0 -8.394396868786e-04 
7.024039687965e-04 1.768993923490e-03 0.0 
1.768993923490e-03 6.146482716961e-03 0.0 
0.0 0.0 -9.958642949766e-04 
-5.672323374960e-05 -1.571144353646e-04 0.0 
-1.571144353646e-04 1.492128879963e-03 0.0 
0.0 0.0 -2.712674790923e-04 
-5.786250682526e-04 -6.497767623568e-05 0.0 
-6.497767623568e-05 7.371631858083e-03 0.0 
0.0 0.0 -8.519360504255e-04 
-8.815160022060e-04 -5.226633918872e-05 0.0 
-5.226633918872e-05 5.619597656326e-03 0.0 
0.0 0.0 -7.663806568683e-04 
-7.830096725268e-04 -1.945539940179e-04 0.0 
-1.945539940179e-04 5.052146567514e-03 0.0 
0.0 0.0 -7.306981472038e-04 
-9.561048422874e-04 9.798803026410e-05 0.0 
9.798803026410e-05 6.427121213030e-03 0.0 
0.0 0.0 -9.400782610458e-04 
5.594812597348e-04 -2.711738072982e-04 0.0 
-2.711738072982e-04 7.082048267470e-04 0.0 
0.0 0.0 -2.626203152100e-04 
1.977074961170e-03 1.796572596898e-03 0.0 
1.796572596898e-03 3.710850520575e-03 0.0 
0.0 0.0 -9.053744403898e-04 
-7.838802212668e-05 1.296388428303e-05 0.0 
1.296388428303e-05 1.262344268989e-03 0.0 
0.0 0.0 -2.181484037039e-04 
-6.792638343958e-04 -1.892634513453e-04 0.0 
-1.892634513453e-04 4.524953282507e-03 0.0 
0.0 0.0 -6.997415131527e-04 
4.643828356909e-04 2.272425281285e-03 0.0 
2.272425281285e-03 6.441238850119e-03 0.0 
0.0 0.0 -1.105013212676e-03 
-1.189706231828e-03 -2.131151468577e-04 0.0 
-2.131151468577e-04 8.025000395541e-03 0.0 
0.0 0.0 -1.191726112421e-03 
-7.376727968014e-04 1.101787875570e-04 0.0 
1.101787875570e-04 4.875428102539e-03 0.0 
0.0 0.0 -7.599307271001e-04 
-8.794968587204e-04 -1.839618802493e-04 0.0 
-1.839618802493e-04 5.894695197839e-03 0.0 
0.0 0.0 -8.745659502648e-04 
7.206630668666e-04 1.929744488038e-03 0.0 
1.929744488038e-03 6.290520299115e-03 0.0 
0.0 0.0 -1.027818505217e-03 
-3.344567084579e-04 1.071367965246e-03 0.0 
1.071367965246e-03 6.821589818445e-03 0.0 
0.0 0.0 -1.046027994067e-03 
-1.082521867922e-03 -2.016033636055e-04 0.0 
-2.016033636055e-04 7.225996789486e-03 0.0 
0.0 0.0 -1.065695719407e-03 
-7.306608964195e-04 1.032073657573e-05 0.0 
1.032073657573e-05 4.566565227243e-03 0.0 
0.0 0.0 -7.312123441678e-04 
2.140447299171e-03 1.666221366647e-03 0.0 
1.666221366647e-03 3.354309651544e-03 0.0 
0.0 0.0 -8.819182716117e-04 
-1.237614876340e-03 1.232529496154e-04 0.0 
1.232529496154e-04 8.158141552147e-03 0.0 
0.0 0.0 -1.229989475872e-03 
-2.208894652050e-04 1.019486839300e-04 0.0 
1.019486839300e-04 2.307663581084e-03 0.0 
0.0 0.0 -4.167967844001e-04 
-9.921663346532e-05 -4.441075622367e-05 0.0 
-4.441075622367e-05 6.032903446550e-04 0.0 
0.0 0.0 -1.015157820784e-04 
7.729292535160e-04 1.802447677049e-03 0.0 
1.802447677049e-03 5.870713722781e-03 0.0 
0.0 0.0 -1.020155596621e-03 
8.536423742338e-04 9.256181107916e-04 0.0 
9.256181107916e-04 5.354334644210e-03 0.0 
0.0 0.0 -8.855569922044e-04 
4.199977308585e-04 -5.685745141826e-04 0.0 
-5.685745141826e-04 4.888934105238e-04 0.0 
0.0 0.0 -2.307047010092e-04 
-9.934730169899e-04 -1.599306293238e-04 0.0 
-1.599306293238e-04 6.730831912440e-03 0.0 
0.0 0.0 -9.893338170986e-04 
-7.762077590555e-04 -2.681099263718e-05 0.0 
-2.681099263718e-05 7.662347771864e-03 0.0 
0.0 0.0 -8.528779207140e-04 
7.733385366302e-04 1.780611287119e-03 0.0 
1.780611287119e-03 5.772054736572e-03 0.0 
0.0 0.0 -9.963433389050e-04 
7.384140008300e-04 1.725437188902e-03 0.0 
1.725437188902e-03 6.263532321820e-03 0.0 
0.0 0.0 -1.014333025498e-03 
-9.509034947603e-04 -2.096009979713e-04 0.0 
-2.096009979713e-04 6.098252098618e-03 0.0 
0.0 0.0 -7.654947499496e-04 
-9.113657589557e-05 5.031862656050e-05 0.0 
5.031862656050e-05 3.206408784025e-04 0.0 
0.0 0.0 -9.835898678870e-05 
-4.570306353743e-04 1.938308317458e-03 0.0 
1.938308317458e-03 2.013190127652e-03 0.0 
0.0 0.0 -3.212443691966e-04 
-3.057747809682e-05 7.419635663704e-04 0.0 
7.419635663704e-04 2.017268037327e-03 0.0 
0.0 0.0 -3.834349432650e-04 
-8.152074782471e-04 3.282099269050e-05 0.0 
3.282099269050e-05 5.366100763401e-03 0.0 
0.0 0.0 -8.471429939415e-04 
2.234819158930e-03 2.106996794863e-03 0.0 
2.106996794863e-03 3.212212917529e-03 0.0 
0.0 0.0 -8.883624695885e-04 
-1.243353399719e-03 -1.638877946273e-04 0.0 
-1.638877946273e-04 8.293874922919e-03 0.0 
0.0 0.0 -1.236541257690e-03 
-3.016554840437e-04 5.441731945138e-04 0.0 
5.441731945138e-04 7.261351576818e-03 0.0 
0.0 0.0 -9.422480995511e-04 
-1.534406041715e-04 -3.090119355694e-05 0.0 
-3.090119355694e-05 9.940803017300e-04 0.0 
0.0 0.0 -1.581060378624e-04 
-1.515974677088e-04 5.347591743209e-05 0.0 
5.347591743209e-05 9.499659581657e-04 0.0 
0.0 0.0 -1.538280640939e-04 
-3.692543217614e-04 1.917835847485e-03 0.0 
1.917835847485e-03 1.605686983255e-03 0.0 
0.0 0.0 -2.585189829319e-04 
-1.003671688667e-03 2.798952750374e-04 0.0 
2.798952750374e-04 6.711627995117e-03 0.0 
0.0 0.0 -1.019242131223e-03 
-3.603992910807e-04 -1.904064730427e-04 0.0 
-1.904064730427e-04 3.077401739180e-03 0.0 
0.0 0.0 -4.953283059016e-04 
-1.242349672414e-03 -1.508059351584e-04 0.0 
-1.508059351584e-04 8.332022443394e-03 0.0 
0.0 0.0 -1.241298427557e-03 
4.701533763950e-04 -1.090869107364e-04 0.0 
-1.090869107364e-04 8.792828749635e-04 0.0 
0.0 0.0 -2.623907620756e-04 
1.749626153376e-04 7.365689672785e-04 0.0 
7.365689672785e-04 6.512727083326e-03 0.0 
0.0 0.0 -9.246522103955e-04 
-8.136377301275e-04 1.789287431362e-04 0.0 
1.789287431362e-04 5.446005510680e-03 0.0 
0.0 0.0 -8.343732341398e-04 
-1.308891097060e-04 8.429749852743e-04 0.0 
8.429749852743e-04 7.182818191455e-03 0.0 
0.0 0.0 -9.935216432289e-04 
1.318950833839e-03 1.578633807410e-03 0.0 
1.578633807410e-03 4.956940183092e-03 0.0 
0.0 0.0 -9.496205587525e-04 
-8.202418952196e-04 -8.830664857146e-05 0.0 
-8.830664857146e-05 5.379056120884e-03 0.0 
0.0 0.0 -8.465141837044e-04 
-3.389754343504e-04 1.914656282619e-04 0.0 
1.914656282619e-04 7.567732493297e-03 0.0 
0.0 0.0 -8.915572847489e-04 
-1.282679052200e-03 7.789633126417e-05 0.0 
7.789633126417e-05 8.731686959293e-03 0.0 
0.0 0.0 -1.272727265576e-03 
-1.257303152988e-03 6.224102812164e-05 0.0 
6.224102812164e-05 8.713074082016e-03 0.0 
0.0 0.0 -1.271339345674e-03 
-3.008599702033e-04 1.739280545395e-03 0.0 
1.739280545395e-03 1.123543608067e-03 0.0 
0.0 0.0 -1.914719991171e-04 
-1.218228496203e-03 1.745230460975e-04 0.0 
1.745230460975e-04 8.126336924162e-03 0.0 
0.0 0.0 -1.218309553141e-03 
1.920812652096e-04 1.555176498966e-03 0.0 
1.555176498966e-03 6.835105417695e-03 0.0 
0.0 0.0 -1.059966960390e-03 
3.332434653374e-04 6.203367079983e-04 0.0 
6.203367079983e-04 6.541003785475e-03 0.0 
0.0 0.0 -9.206762710476e-04 
1.085686731036e-03 1.715941917450e-03 0.0 
1.715941917450e-03 5.272570240360e-03 0.0 
0.0 0.0 -9.515461418514e-04 
-8.782242566564e-04 8.840662929173e-05 0.0 
8.840662929173e-05 8.107159852216e-03 0.0 
0.0 0.0 -8.909909361731e-04 
-1.083429774801e-03 2.149476327384e-04 0.0 
2.149476327384e-04 7.162337614163e-03 0.0 
0.0 0.0 -1.070635182703e-03 
0.0 0.0 0.0 
0.0 0.0 0.0 
0.0 0.0 0.0 
-2.601109826526e-04 -2.071691114659e-04 0.0 
-2.071691114659e-04 1.415839820494e-03 0.0 
0.0 0.0 -2.423809483696e-04 
-2.972102352273e-04 1.269922293148e-03 0.0 
1.269922293148e-03 7.000378707032e-03 0.0 
0.0 0.0 -1.067849746068e-03 
-8.685626322098e-04 1.582275665783e-04 0.0 
1.582275665783e-04 5.835782021141e-03 0.0 
0.0 0.0 -8.884613587993e-04 
-7.371823520842e-04 -1.882060205764e-04 0.0 
-1.882060205764e-04 7.477172303158e-03 0.0 
0.0 0.0 -8.238432527858e-04 
8.345878963847e-04 1.298165735206e-03 0.0 
1.298165735206e-03 5.779481214059e-03 0.0 
0.0 0.0 -9.697599489245e-04 
-7.205429837476e-04 1.123577773137e-05 0.0 
1.123577773137e-05 7.685886832197e-03 0.0 
0.0 0.0 -8.718026746084e-04 
-1.060591200895e-03 2.356899093670e-04 0.0 
2.356899093670e-04 7.243032913762e-03 0.0 
0.0 0.0 -1.085521458831e-03 
-1.760260126191e-04 7.549236223016e-04 0.0 
7.549236223016e-04 7.194553773528e-03 0.0 
0.0 0.0 -9.826671733907e-04 
-3.470564775945e-04 3.334541460476e-05 0.0 
3.334541460476e-05 7.179676149168e-03 0.0 
0.0 0.0 -8.743269216673e-04 
-2.643546432021e-04 3.667560068208e-04 0.0 
3.667560068208e-04 7.064402915360e-03 0.0 
0.0 0.0 -8.805262667597e-04 
-4.362501004828e-04 -1.200677993675e-04 0.0 
-1.200677993675e-04 3.301424906749e-03 0.0 
0.0 0.0 -5.104964012366e-04 
-7.292266696177e-04 4.387528959828e-05 0.0 
4.387528959828e-05 8.270843837162e-03 0.0 
0.0 0.0 -8.709570442932e-04 
-7.485652657637e-04 1.433772634919e-05 0.0 
1.433772634919e-05 5.220751556451e-03 0.0 
0.0 0.0 -7.662153309038e-04 
-1.203353616891e-03 -1.846454248329e-04 0.0 
-1.846454248329e-04 8.194731648824e-03 0.0 
0.0 0.0 -1.217406395242e-03 
-1.299110445277e-04 -9.164994198627e-05 0.0 
-9.164994198627e-05 6.883467913529e-04 0.0 
0.0 0.0 -1.761976461317e-04 
-1.139762521842e-03 -1.242981094265e-04 0.0 
-1.242981094265e-04 7.914367669760e-03 0.0 
0.0 0.0 -1.163202487293e-03 
-9.847139031094e-04 -2.927819349531e-05 0.0 
-2.927819349531e-05 6.802999958382e-03 0.0 
0.0 0.0 -9.926133712568e-04 
8.709963779590e-04 -7.506739388380e-05 0.0 
-7.506739388380e-05 -9.987776611199e-05 0.0 
0.0 0.0 -1.628620303624e-04 
9.596362973822e-05 -3.343408905125e-04 0.0 
-3.343408905125e-04 1.247725378685e-03 0.0 
0.0 0.0 -2.736924314970e-04 
-1.955137036899e-04 1.497259366077e-03 0.0 
1.497259366077e-03 6.421678056812e-03 0.0 
0.0 0.0 -1.041026694788e-03 
-1.292896746142e-03 -1.945315972068e-05 0.0 
-1.945315972068e-05 8.475231004044e-03 0.0 
0.0 0.0 -1.285368862661e-03 
-1.232559661219e-03 -1.674576161592e-04 0.0 
-1.674576161592e-04 8.301292046622e-03 0.0 
0.0 0.0 -1.223917301752e-03 
1.935852513546e-04 1.124503199983e-03 0.0 
1.124503199983e-03 6.935103877452e-03 0.0 
0.0 0.0 -9.708517863379e-04 
-8.799678260909e-04 2.461510225769e-04 0.0 
2.461510225769e-04 5.779390736262e-03 0.0 
0.0 0.0 -8.807565902733e-04 
-9.459318500233e-05 -9.224025008728e-06 0.0 
-9.224025008728e-06 5.593643268762e-04 0.0 
0.0 0.0 -1.022500568216e-04 
-1.184228338263e-04 1.932393774192e-04 0.0 
1.932393774192e-04 8.360742900508e-04 0.0 
0.0 0.0 -1.527632439532e-04 
-1.485774023437e-04 2.057472114591e-04 0.0 
2.057472114591e-04 4.943058849460e-04 0.0 
0.0 0.0 -1.262112556552e-04 
-1.868931981052e-04 -1.732528375215e-04 0.0 
-1.732528375215e-04 1.196887171467e-03 0.0 
0.0 0.0 -2.080055930776e-04 
-2.412796962869e-05 1.151125546851e-04 0.0 
1.151125546851e-04 1.259903231300e-04 0.0 
0.0 0.0 -4.365529435769e-05 
-6.564338874860e-04 1.298407551403e-04 0.0 
1.298407551403e-04 4.516305724261e-03 0.0 
0.0 0.0 -6.753304527203e-04 
-6.625453814521e-04 1.836370271787e-04 0.0 
1.836370271787e-04 7.398680138521e-03 0.0 
0.0 0.0 -8.279732062878e-04 
-1.123701107356e-03 3.617010500858e-04 0.0 
3.617010500858e-04 8.081228102262e-03 0.0 
0.0 0.0 -1.149367011463e-03 
-8.669258191564e-04 -1.817944922656e-04 0.0 
-1.817944922656e-04 5.844176131481e-03 0.0 
0.0 0.0 -8.826313165011e-04 
-5.220901644063e-04 -2.797352197203e-04 0.0 
-2.797352197203e-04 3.810026251584e-03 0.0 
0.0 0.0 -5.988529843847e-04 
-3.743957097576e-04 -2.172252316256e-05 0.0 
-2.172252316256e-05 7.193597499304e-03 0.0 
0.0 0.0 -8.577652635302e-04 
1.740382229410e-04 6.427799524933e-04 0.0 
6.427799524933e-04 6.622653533965e-03 0.0 
0.0 0.0 -8.931107880658e-04 
2.215308878595e-04 1.195874682473e-03 0.0 
1.195874682473e-03 7.077532027621e-03 0.0 
0.0 0.0 -9.997449084413e-04 
4.477756341850e-04 1.630816403594e-03 0.0 
1.630816403594e-03 6.338568546361e-03 0.0 
0.0 0.0 -1.037719227123e-03 
7.034915876588e-04 2.489124965425e-03 0.0 
2.489124965425e-03 5.871902937112e-03 0.0 
0.0 0.0 -1.060278842694e-03 
-1.672054198288e-04 9.231173188879e-05 0.0 
9.231173188879e-05 7.047171557342e-04 0.0 
0.0 0.0 -1.733042685746e-04 
-1.128922232108e-04 -1.541536460290e-04 0.0 
-1.541536460290e-04 8.181726866747e-04 0.0 
0.0 0.0 -1.441637530793e-04 
-6.534785880025e-04 -1.419656751660e-04 0.0 
-1.419656751660e-04 7.444261711952e-03 0.0 
0.0 0.0 -8.291000926997e-04 
7.862549166762e-04 4.874380016817e-06 0.0 
4.874380016817e-06 -2.521687773806e-04 0.0 
0.0 0.0 -1.761523314621e-04 
7.760913482264e-04 1.593843176350e-04 0.0 
1.593843176350e-04 4.903606250337e-05 0.0 
0.0 0.0 -1.933333333332e-04 
-1.375589269253e-04 1.895212040583e-04 0.0 
1.895212040583e-04 6.272580356086e-04 0.0 
0.0 0.0 -1.476920362276e-04 
-1.616726848356e-04 -1.838984361800e-04 0.0 
-1.838984361800e-04 7.928606863594e-04 0.0 
0.0 0.0 -1.580296812506e-04 
-6.027735923044e-04 1.513967559875e-04 0.0 
1.513967559875e-04 7.550214256957e-03 0.0 
0.0 0.0 -8.949078512320e-04 
2.927974659662e-04 1.804311602429e-03 0.0 
1.804311602429e-03 6.793796675617e-03 0.0 
0.0 0.0 -1.093471000344e-03 
-1.257797356609e-03 1.887508465158e-04 0.0 
1.887508465158e-04 8.298916238051e-03 0.0 
0.0 0.0 -1.236907757659e-03 
-9.680017012607e-05 9.545572904595e-04 0.0 
9.545572904595e-04 7.143224655491e-03 0.0 
0.0 0.0 -1.007569998990e-03 
2.474294363858e-04 3.353461355859e-04 0.0 
3.353461355859e-04 6.298659448413e-03 0.0 
0.0 0.0 -8.822943763359e-04 
-9.009707231897e-04 2.647575106000e-04 0.0 
2.647575106000e-04 6.062013665177e-03 0.0 
0.0 0.0 -9.170130443516e-04 
-9.514116032845e-04 2.863372281675e-04 0.0 
2.863372281675e-04 8.465588257099e-03 0.0 
0.0 0.0 -1.322936459661e-03 
1.182266141443e-03 -7.023857889341e-04 0.0 
-7.023857889341e-04 5.725659983789e-04 0.0 
0.0 0.0 -3.330755757467e-04 
-6.832796589934e-04 2.794415003479e-06 0.0 
2.794415003479e-06 4.812526626932e-03 0.0 
0.0 0.0 -7.083073883397e-04 
-7.640493692212e-05 -3.618127038928e-05 0.0 
-3.618127038928e-05 1.181862568855e-03 0.0 
0.0 0.0 -2.086331215474e-04 
-1.837444323977e-05 3.705831904809e-05 0.0 
3.705831904809e-05 2.136464789003e-04 0.0 
0.0 0.0 -8.368801528309e-05 
-7.643450774081e-04 7.177454814195e-05 0.0 
7.177454814195e-05 8.286634899719e-03 0.0 
0.0 0.0 -8.599550694186e-04 
-7.636750152913e-04 -5.943479672422e-05 0.0 
-5.943479672422e-05 5.297273347084e-03 0.0 
0.0 0.0 -7.731261162940e-04 
6.918754834857e-04 -1.883025402611e-06 0.0 
-1.883025402611e-06 4.423961660925e-04 0.0 
0.0 0.0 -2.115341463249e-04 
-6.766397334690e-04 2.335959289239e-04 0.0 
2.335959289239e-04 4.262192913851e-03 0.0 
0.0 0.0 -6.570498647039e-04 
5.333964106787e-04 2.254716343093e-03 0.0 
2.254716343093e-03 6.832595404075e-03 0.0 
0.0 0.0 -1.097057924254e-03 
-1.238351285998e-03 -1.647535430714e-04 0.0 
-1.647535430714e-04 8.287386498838e-03 0.0 
0.0 0.0 -1.228616961883e-03 
-1.146300382836e-03 2.064166590438e-04 0.0 
2.064166590438e-04 8.320773105998e-03 0.0 
0.0 0.0 -1.243852795669e-03 
-2.981532895945e-04 -1.397423201181e-04 0.0 
-1.397423201181e-04 2.893691974425e-03 0.0 
0.0 0.0 -4.695399720401e-04 
-1.457689473944e-04 -1.575597281071e-04 0.0 
-1.575597281071e-04 7.498700715420e-04 0.0 
0.0 0.0 -1.553221962317e-04 
-5.677206883039e-04 -2.243208090734e-05 0.0 
-2.243208090734e-05 7.759718246081e-03 0.0 
0.0 0.0 -8.640420257597e-04 
-1.298815958390e-03 2.309086979367e-05 0.0 
2.309086979367e-05 9.107151826923e-03 0.0 
0.0 0.0 -1.325353038101e-03 
-7.700614374083e-04 -1.311384045230e-05 0.0 
-1.311384045230e-05 8.277439870435e-03 0.0 
0.0 0.0 -8.456282218518e-04 
-7.660500434480e-04 1.313542510445e-04 0.0 
1.313542510445e-04 5.035539676325e-03 0.0 
0.0 0.0 -7.673431308700e-04 
-1.247663306122e-04 3.811430283731e-04 0.0 
3.811430283731e-04 6.805936854434e-03 0.0 
0.0 0.0 -9.017472848377e-04 
4.539828722629e-04 -7.943251781128e-05 0.0 
-7.943251781128e-05 4.736640794583e-04 0.0 
0.0 0.0 -2.324200178898e-04 
-1.257584227981e-03 1.660686322992e-04 0.0 
1.660686322992e-04 8.340961353616e-03 0.0 
0.0 0.0 -1.241575510934e-03 
-8.170589745739e-05 -1.080295024441e-05 0.0 
-1.080295024441e-05 2.725451190137e-04 0.0 
0.0 0.0 -8.178823780987e-05 
-5.423527198295e-04 2.246184900594e-04 0.0 
2.246184900594e-04 7.513443050506e-03 0.0 
0.0 0.0 -9.096095511468e-04 
-1.266242772052e-03 1.751222008327e-04 0.0 
1.751222008327e-04 8.628299447681e-03 0.0 
0.0 0.0 -1.199370888370e-03 
-8.090064620301e-05 -6.463780865666e-05 0.0 
-6.463780865666e-05 2.764343947345e-04 0.0 
0.0 0.0 -8.380017794208e-05 
8.686410233211e-04 1.648007659892e-03 0.0 
1.648007659892e-03 5.775378532062e-03 0.0 
0.0 0.0 -9.942163442397e-04 
-1.028233004996e-03 -1.859683667160e-04 0.0 
-1.859683667160e-04 6.977936374390e-03 0.0 
0.0 0.0 -1.053859681778e-03 
-1.289487723471e-03 -3.059440868742e-05 0.0 
-3.059440868742e-05 8.509289695588e-03 0.0 
0.0 0.0 -1.289687241943e-03 
-6.576501051682e-04 4.265774958018e-04 0.0 
4.265774958018e-04 7.989671319703e-03 0.0 
0.0 0.0 -9.817486718130e-04 
-9.624911099011e-04 -2.997622866494e-04 0.0 
-2.997622866494e-04 6.376553401582e-03 0.0 
0.0 0.0 -9.627310317561e-04 
3.307620499014e-04 2.015832276703e-03 0.0 
2.015832276703e-03 6.798493030862e-03 0.0 
0.0 0.0 -1.111322566282e-03 
-1.246115197789e-03 -1.533948492975e-04 0.0 
-1.533948492975e-04 8.325319025632e-03 0.0 
0.0 0.0 -1.236507170568e-03 
-1.007540401079e-03 8.825741490510e-06 0.0 
8.825741490510e-06 6.546914065101e-03 0.0 
0.0 0.0 -1.009625451247e-03 
4.981219959024e-04 2.119740942835e-03 0.0 
2.119740942835e-03 6.416152307754e-03 0.0 
0.0 0.0 -1.091686503951e-03 
-5.439659078653e-04 -1.293203549736e-04 0.0 
-1.293203549736e-04 3.573225901759e-03 0.0 
0.0 0.0 -5.668522599723e-04 
-7.422257193807e-04 -2.384409418001e-05 0.0 
-2.384409418001e-05 4.553525172640e-03 0.0 
0.0 0.0 -7.287847301676e-04 
3.797086603470e-04 1.379220466562e-03 0.0 
1.379220466562e-03 6.547035438381e-03 0.0 
0.0 0.0 -9.946146759026e-04 
-1.277932458032e-03 1.160268164509e-04 0.0 
1.160268164509e-04 8.651299276670e-03 0.0 
0.0 0.0 -1.286506427510e-03 
1.444390405039e-03 -3.275676490740e-05 0.0 
-3.275676490740e-05 -5.126376794959e-04 0.0 
0.0 0.0 -2.480323253151e-04 
-7.391696919877e-04 5.460045200431e-05 0.0 
5.460045200431e-05 4.572310123870e-03 0.0 
0.0 0.0 -7.284590636140e-04 
-7.698300698532e-04 -1.148300224801e-04 0.0 
-1.148300224801e-04 7.874697813866e-03 0.0 
0.0 0.0 -8.392894285198e-04 
-1.655749930792e-04 1.130851648507e-04 0.0 
1.130851648507e-04 1.451325403932e-03 0.0 
0.0 0.0 -2.765646858065e-04 
2.905443180804e-04 6.579369652901e-04 0.0 
6.579369652901e-04 6.636967693809e-03 0.0 
0.0 0.0 -9.135267546970e-04 
-1.212806318798e-03 -1.378965673921e-04 0.0 
-1.378965673921e-04 8.296055804055e-03 0.0 
0.0 0.0 -1.225943235494e-03 
-1.276740815873e-03 -1.548809764645e-04 0.0 
-1.548809764645e-04 8.705204137735e-03 0.0 
0.0 0.0 -1.269037835114e-03 
4.009133415521e-04 6.843559894235e-05 0.0 
6.843559894235e-05 8.674235573909e-04 0.0 
0.0 0.0 -2.647987373252e-04 
-1.846190942981e-04 5.164886539666e-05 0.0 
5.164886539666e-05 1.204409405256e-03 0.0 
0.0 0.0 -1.906575996298e-04 
-8.286434887522e-04 3.367492485870e-04 0.0 
3.367492485870e-04 5.184166019197e-03 0.0 
0.0 0.0 -7.383224910391e-04 
-1.139651880695e-03 8.042350541592e-05 0.0 
8.042350541592e-05 7.547907450212e-03 0.0 
0.0 0.0 -1.120841203304e-03 
-2.455924997725e-05 4.850860813112e-06 0.0 
4.850860813112e-06 2.264936774403e-04 0.0 
0.0 0.0 -4.162563418682e-05 
-1.298703070432e-03 -2.158292110004e-05 0.0 
-2.158292110004e-05 8.522745720261e-03 0.0 
0.0 0.0 -1.275788778800e-03 
-9.496420787081e-04 3.842938930079e-05 0.0 
3.842938930079e-05 6.134769422350e-03 0.0 
0.0 0.0 -9.501928138396e-04 
4.920123384045e-04 -6.004178134092e-04 0.0 
-6.004178134092e-04 8.073240434277e-04 0.0 
0.0 0.0 -2.601894661948e-04 
-9.182086126088e-04 6.576575429200e-05 0.0 
6.576575429200e-05 5.823601520571e-03 0.0 
0.0 0.0 -9.030544305944e-04 
3.025116409776e-04 1.183388174078e-03 0.0 
1.183388174078e-03 6.980595013600e-03 0.0 
0.0 0.0 -1.013597636819e-03 
-8.361644225772e-04 -2.894365326939e-04 0.0 
-2.894365326939e-04 5.442461649727e-03 0.0 
0.0 0.0 -7.453669298848e-04 
-9.020963282834e-05 -1.875396024300e-04 0.0 
-1.875396024300e-04 3.251699178446e-04 0.0 
0.0 0.0 -8.776479312228e-05 
-5.428499226707e-04 1.403699556570e-04 0.0 
1.403699556570e-04 3.200704680557e-03 0.0 
0.0 0.0 -5.209635072927e-04 
-7.264170588436e-04 1.060798317798e-04 0.0 
1.060798317798e-04 4.772837634314e-03 0.0 
0.0 0.0 -7.212254539714e-04 
-8.379669646170e-04 3.481264707924e-04 0.0 
3.481264707924e-04 5.604756622448e-03 0.0 
0.0 0.0 -7.585871464399e-04 
3.391597270524e-04 9.168400701534e-04 0.0 
9.168400701534e-04 6.589927437174e-03 0.0 
0.0 0.0 -9.666755402200e-04 
-7.376665261259e-04 -1.727241022974e-04 0.0 
-1.727241022974e-04 4.617911229220e-03 0.0 
0.0 0.0 -7.175509632691e-04 
-7.419280681747e-04 8.645357004518e-05 0.0 
8.645357004518e-05 4.887925333136e-03 0.0 
0.0 0.0 -7.419220074555e-04 
-1.725607618193e-04 1.274500514102e-04 0.0 
1.274500514102e-04 7.075820556251e-04 0.0 
0.0 0.0 -1.551230728613e-04 
-4.969789663319e-04 2.004754406662e-04 0.0 
2.004754406662e-04 7.304534455594e-03 0.0 
0.0 0.0 -8.563263115463e-04 
8.112546722472e-04 2.135023040721e-03 0.0 
2.135023040721e-03 5.832562061932e-03 0.0 
0.0 0.0 -1.023835477029e-03 
-2.227791697187e-04 8.637930858051e-05 0.0 
8.637930858051e-05 1.298316331417e-03 0.0 
0.0 0.0 -2.411692657676e-04 
-1.261193436875e-03 -8.326695288083e-05 0.0 
-8.326695288083e-05 8.552285249105e-03 0.0 
0.0 0.0 -1.290349483557e-03 
-7.550719516056e-04 1.444553421539e-04 0.0 
1.444553421539e-04 7.789349507346e-03 0.0 
0.0 0.0 -8.435902289431e-04 
-7.679899519873e-04 -1.532356305286e-04 0.0 
-1.532356305286e-04 5.157074227234e-03 0.0 
0.0 0.0 -7.639788432047e-04 
-9.396515753232e-04 3.091234051286e-05 0.0 
3.091234051286e-05 6.333492038285e-03 0.0 
0.0 0.0 -9.358343396975e-04 
-7.048143922743e-04 1.638625948524e-04 0.0 
1.638625948524e-04 4.692848505541e-03 0.0 
0.0 0.0 -7.108516105536e-04 
-7.079280002538e-04 -1.103294425806e-04 0.0 
-1.103294425806e-04 4.798157082321e-03 0.0 
0.0 0.0 -7.294894127191e-04 
-7.780866361879e-04 -3.537128156375e-05 0.0 
-3.537128156375e-05 5.057007424839e-03 0.0 
0.0 0.0 -7.166508740988e-04 
4.223831102194e-04 8.086667186450e-04 0.0 
8.086667186450e-04 6.122705007170e-03 0.0 
0.0 0.0 -9.052943710218e-04 
3.745910563694e-04 -2.813752383747e-04 0.0 
-2.813752383747e-04 5.001776407183e-04 0.0 
0.0 0.0 -2.274637643159e-04 
7.542672072908e-04 1.927553094165e-03 0.0 
1.927553094165e-03 6.252713514715e-03 0.0 
0.0 0.0 -1.042221557206e-03 
-8.387293036437e-04 7.281979356207e-05 0.0 
7.281979356207e-05 5.326094164637e-03 0.0 
0.0 0.0 -8.376728236383e-04 
-1.277193560845e-03 -1.460979146763e-04 0.0 
-1.460979146763e-04 8.720485292524e-03 0.0 
0.0 0.0 -1.272153791098e-03 
3.054875925369e-04 4.944182509213e-04 0.0 
4.944182509213e-04 6.207003364440e-03 0.0 
0.0 0.0 -8.999266365367e-04 
-8.795673226242e-04 -5.945622150844e-05 0.0 
-5.945622150844e-05 6.031279173311e-03 0.0 
0.0 0.0 -8.902468719968e-04 
5.430331044851e-04 2.359643155255e-03 0.0 
2.359643155255e-03 6.180496694470e-03 0.0 
0.0 0.0 -1.078561398764e-03 
2.660503736899e-04 1.115283977357e-03 0.0 
1.115283977357e-03 6.549392091322e-03 0.0 
0.0 0.0 -9.698707767779e-04 
2.206161680718e-04 1.035855301540e-03 0.0 
1.035855301540e-03 7.075909507356e-03 0.0 
0.0 0.0 -9.879022148679e-04 
-9.288790837536e-05 4.486310937797e-05 0.0 
4.486310937797e-05 3.125136257933e-04 0.0 
0.0 0.0 -9.412530746485e-05 
5.446279618656e-04 2.169113867986e-03 0.0 
2.169113867986e-03 6.221590015746e-03 0.0 
0.0 0.0 -1.074038897663e-03 
6.500391757092e-04 2.481819150237e-03 0.0 
2.481819150237e-03 6.383801160401e-03 0.0 
0.0 0.0 -1.071396821421e-03 
-1.296260318671e-04 -1.418501242849e-04 0.0 
-1.418501242849e-04 8.665050242929e-04 0.0 
0.0 0.0 -1.488313462956e-04 
-6.781230104505e-04 -1.171397059554e-04 0.0 
-1.171397059554e-04 4.366860208538e-03 0.0 
0.0 0.0 -6.841365946974e-04 
-7.630078233159e-05 -6.102099342081e-05 0.0 
-6.102099342081e-05 5.288528667040e-04 0.0 
0.0 0.0 -9.692352125104e-05 
5.142623419765e-04 2.286471884498e-03 0.0 
2.286471884498e-03 6.587617556016e-03 0.0 
0.0 0.0 -1.087667669785e-03 

SCALARS element_materi_plasti_kappa_shear float
LOOKUP_TABLE default
3.602640432322e-03
3.106956739724e-03
7.910822478406e-03
5.625547274701e-03
3.501560146999e-03
7.282216725180e-04
3.474037579751e-03
3.416343286849e-03
3.522688057585e-03
5.576154387884e-03
3.936509741190e-03
2.393593098586e-03
6.361848040806e-03
3.751010953381e-03
6.448430084854e-03
5.730745783213e-03
3.485806207147e-03
6.593526459412e-04
2.079453176108e-03
1.759819631631e-03
5.615624188563e-03
3.764944409988e-03
4.653204049594e-03
6.808910594590e-03
4.000079313324e-03
4.259865121493e-03
4.085439090967e-03
8.049722656303e-03
4.029373913921e-03
6.832535129358e-03
9.290964436139e-04
4.104778426902e-04
7.595082477725e-03
5.192479740901e-03
6.514965274811e-03
6.806280916452e-03
6.688093004301e-03
7.164861631544e-03
3.175213616511e-03
3.219440155070e-03
6.262497325666e-03
6.465730795843e-03
1.902393467235e-03
3.886856821955e-03
5.492839635271e-03
1.636168467823e-03
5.547525844143e-04
5.389503964808e-03
2.459813448032e-04
3.614080566479e-03
5.524135120317e-03
2.127997394937e-03
2.294421514585e-03
5.340299509007e-03
5.952861826896e-03
2.169378935619e-03
1.872373719678e-03
5.276664556580e-03
1.695318939585e-03
5.734895616735e-03
3.755633206834e-04
7.636877698378e-03
4.151846362619e-03
1.813905337011e-03
6.351051709991e-03
4.380433060247e-03
1.604920622130e-04
8.280672297862e-03
1.538008267507e-03
7.971380787928e-03
4.516123207219e-03
6.519349062901e-03
7.626905620166e-03
1.512613033953e-03
2.037491269982e-03
5.633818988721e-03
5.916295302432e-03
9.985176399269e-04
9.065965101491e-04
1.062165013646e-03
1.773506978501e-03
3.329770783062e-03
4.171597754172e-03
3.003883644164e-03
3.674764228873e-03
3.652269385491e-03
4.619827923497e-03
5.018905351380e-03
4.861505206044e-03
3.454836133152e-03
2.515307574217e-04
3.378806059228e-03
4.682474906469e-03
4.702091845048e-03
6.092893997096e-03
7.163880582533e-03
3.332335907633e-03
6.853097797469e-03
3.930413862469e-03
5.236027390080e-03
3.348854702644e-03
6.533322242252e-03
7.931736508632e-03
7.692204220412e-03
3.812281837770e-03
6.875243722322e-04
5.904609000976e-03
5.009713215505e-03
4.133118292856e-04
6.342490097336e-03
4.631075715070e-03
1.264134782605e-03
3.996019382482e-03
5.898428846157e-03
2.394513305480e-03
4.825148945181e-03
4.318631303761e-03
6.571611293753e-03
3.862421047183e-03
4.141479097148e-03
1.041404725764e-03
3.463155550842e-03
4.910807945138e-03
4.126305910349e-03
6.864169327037e-04
7.172286459918e-03
2.538560992306e-03
6.614211741130e-03
5.744770783808e-03
8.095945313104e-04
4.208858024841e-03
5.625509815893e-03
2.924341182790e-03
6.895516488263e-03
6.630911380094e-03
6.337188783698e-03
4.696812442896e-03
3.164558604565e-03
6.988873777425e-03
3.692641664921e-03
5.618615457511e-03
8.620478384836e-03
3.718873437018e-03
4.339715431150e-03
4.309747893614e-03
6.118370475092e-03
3.120734003300e-03
3.511521825319e-03
3.431883328348e-03
3.988591677411e-03
2.430742527300e-04
3.688149105754e-03
1.665640697616e-03
6.816136462713e-03
6.542492653500e-03
3.985229123495e-03
4.831842259639e-03
2.063857940770e-03
7.990105837693e-03
3.347690434935e-03
3.831406335678e-03
5.491755570906e-03
1.076248208933e-03
5.952094557535e-03
3.359806122999e-03
6.628079891094e-03
3.342388058740e-03
3.240223981749e-03
5.987967020661e-03
4.083413182833e-03
2.488451015329e-03
3.785488002968e-03
4.520478967461e-03
3.465735922799e-03
3.552889336424e-03
6.519392142475e-03
8.079525818287e-03
2.792295713594e-03
7.385308989662e-03
8.525110045708e-03
4.539468334546e-03
2.659866027685e-03
7.029736749197e-03
5.535752196566e-03
3.659060834371e-03
3.236040194100e-03
3.812351596324e-03
5.637705462983e-03
4.673436176070e-03
5.716781533654e-03
1.164471534235e-03
3.577492423579e-03
4.803098661724e-03
1.296887470610e-04
5.144432904508e-03
6.770656397079e-03
8.669452805712e-04
6.221758050241e-03
4.285635638516e-03
4.450975029110e-03
6.873324341543e-03
3.724002802598e-03
3.932058578281e-03
6.684818608095e-03
2.853125448248e-03
3.331359581509e-03
3.481704692684e-03
4.488443812894e-03
3.550879868320e-03
3.499995616521e-03
7.849481049724e-03
6.457590953545e-03
3.793743182903e-04
4.795764767955e-03
5.029363633428e-03
3.273095076965e-03
4.893684273428e-03
9.647028340037e-04
6.617663947612e-03
3.342449784473e-03
3.622646606234e-03
6.442675059792e-03
4.380675775184e-04
4.584675247436e-03
3.699679224087e-04
6.155985259287e-04
1.514873178924e-03
2.331064720645e-03
4.784983334352e-03
2.185326545698e-03
2.602751508897e-03
2.542865219998e-03
1.204145455584e-03
6.980436198218e-03
3.380950736680e-03
6.451247300998e-03
0.0
3.103962197620e-03
4.225627324012e-03
5.040028027473e-03
6.713404083697e-03
6.662386970609e-03
4.590764537563e-03
2.708769665835e-03
6.883904252816e-03
4.402603793864e-03
3.320344157999e-03
4.410423547980e-03
7.532725117732e-03
4.267670161950e-03
2.834285406551e-03
3.836309747163e-03
6.136940736234e-03
3.900960608518e-03
7.450733613791e-03
3.753460771055e-03
1.279508264509e-03
3.518014179913e-03
2.788448325995e-03
1.525232677215e-03
1.397981721325e-03
4.755046881877e-03
3.676362788182e-03
3.479689146863e-03
4.952708212390e-03
4.718723855839e-03
3.481414558201e-03
6.401724267191e-03
7.605629435493e-03
3.640046674313e-03
4.189760407457e-03
7.702419171273e-03
2.173938993481e-03
3.357027743210e-03
5.273451886437e-03
4.481637220000e-03
4.547203828396e-03
1.589585432751e-04
3.708601455527e-03
3.151220327885e-03
2.816483807066e-03
2.171529416618e-03
3.929577795643e-03
6.380620704985e-04
4.446739929430e-03
7.598723626381e-03
3.640893065081e-03
3.744578397567e-03
8.473399745818e-04
4.465409772468e-03
4.241349766508e-03
5.268139787959e-03
4.453686851147e-03
5.394219102617e-03
5.063650503955e-03
4.078772738238e-03
1.050423010888e-03
4.447416856132e-03
1.139329181863e-03
7.515294122236e-03
8.677820642827e-03
3.968526545527e-03
2.483335080163e-03
2.271413911650e-03
3.733462517399e-03
2.150296530052e-03
4.234507417604e-03
3.281965826457e-03
5.778410886410e-03
3.389859267188e-03
7.938585787595e-03
1.913709540253e-03
7.095821142192e-03
2.272561754628e-03
3.408069598847e-03
1.215420089280e-03
6.849075523631e-03
5.140038272555e-03
4.827906880424e-03
3.513914298156e-03
8.761577782565e-03
3.934328869101e-03
7.485792435772e-03
1.457501625653e-03
4.211250131042e-03
6.530926512852e-03
3.577559085387e-03
4.109773335894e-03
8.302358505392e-03
6.593486419449e-03
8.920930355335e-03
4.066219120171e-03
4.677049970116e-03
1.895666504485e-03
3.226922138058e-03
3.605874528002e-03
3.801247617448e-03
4.095436258573e-03
7.972459381263e-03
3.900035487013e-03
3.427519582657e-03
4.145768212436e-03
1.793894528480e-03
4.466804168917e-03
3.567969324971e-03
3.480341907346e-03
4.627250881663e-03
3.361798552135e-03
4.717451703464e-03
3.326689776124e-03
3.320796694163e-03
7.402660698968e-03
5.765650410355e-03
7.599806876960e-03
5.501663310733e-03
3.498348108289e-03
4.328601984964e-03
3.398882135708e-03
4.036589409410e-03
5.020957594455e-03
3.604591250536e-03
5.399270631975e-03
3.037406839292e-03
7.317273930461e-03
7.346048573256e-03
4.974163615528e-03
4.623253995231e-03
5.708135107530e-03
4.402087609726e-03
2.428536250324e-03
3.154393375048e-03
3.495484818741e-03
6.886572147018e-03
3.964097132975e-03
5.025076478443e-03
3.615383766840e-03
4.069853268487e-03
3.441589599409e-03
3.810677980879e-03
8.749897142852e-03
8.112189892135e-03
5.893192068260e-03
5.916126905210e-03
4.921131353075e-03
3.317235044839e-03
4.019891173965e-03
1.504039683600e-03
4.745715317681e-03
3.338459339121e-03
4.044137853151e-03
7.143444566815e-03
4.941317452064e-03
3.800097117390e-03
3.895652219981e-03
1.897892061525e-03
6.642135258919e-04
4.347769508604e-03
4.386312100296e-03
4.499595815309e-03
6.767206337308e-04
3.595162726105e-03
1.631521367005e-03
2.639493335621e-03
6.652783793595e-03
7.677229791614e-03
3.400768600181e-03
1.959717328342e-03
3.750403715467e-03
4.388151707362e-03
3.962075947404e-03
8.615544870129e-03
3.198386693765e-03
3.766468143188e-03
4.164227778257e-03
4.889394747191e-03
5.955358620496e-03
8.458783716258e-03
8.432612866274e-03
7.806189166603e-03
8.369846021152e-03
4.057636266581e-03
4.920589971591e-03
5.166273398998e-03
3.674832141775e-03
3.992909698919e-03
3.452931004985e-03
5.059815959048e-03
8.125717549195e-03
5.051955043482e-03
7.690470881859e-03
5.084516464713e-03
8.203446615570e-03
4.230685741142e-03
4.042081278231e-03
2.042155265082e-03
5.646979922164e-03
3.627815163432e-03
7.682846786574e-03
3.643541304005e-03
4.120389738982e-03
6.649035812516e-03
2.963917010430e-03
8.287054207365e-03
6.281609611519e-03
3.696725743160e-03
2.315629071755e-04
7.938084887904e-03
6.751406904946e-03
4.399862460335e-03
7.507962942975e-03
7.557773376424e-03
0.0
3.895193976975e-03
3.859953108443e-03
3.636090263197e-03
3.571063382657e-03
2.599167746400e-03
7.605760475597e-03
5.175207021530e-03
8.692276940893e-04
6.706564922673e-03
4.034087724254e-04
3.291089437897e-03
1.362710636381e-03
3.401799927435e-03
7.199010570612e-03
7.346953146636e-03
3.769097730369e-03
5.416058611578e-04
6.663225248162e-04
9.355431736315e-04
6.224040426673e-03
3.488320970718e-03
3.568311924561e-03
7.120645201277e-03
3.493284622980e-03
7.216760858356e-03
8.320535489814e-03
3.909299515792e-03
4.637203616892e-03
7.588930908992e-03
1.250224342397e-03
6.932095710368e-03
8.415090121463e-03
8.148877701031e-03
5.848067145283e-03
2.999830914183e-03
4.320815801674e-03
5.869535095807e-03
6.788295830716e-03
2.496739115141e-03
5.149856466843e-03
5.337199197150e-03
4.079210194316e-03
7.048355172006e-03
6.550876827097e-04
6.670027473962e-03
4.916750345974e-03
8.127490672679e-03
5.200002369953e-03
1.735033884423e-04
4.147404890336e-03
5.119259939334e-03
7.777552290880e-03
4.090807838191e-03
8.092769849599e-03
1.198274694749e-03
6.771080442152e-03
4.800676337153e-03
5.094807120671e-03
4.233392830062e-04
7.466284814746e-03
1.804563931231e-03
6.697274452829e-03
3.779613678589e-03
3.396813923815e-03
5.013976240686e-03
3.928710791902e-03
7.025183018602e-03
3.075331410336e-03
6.239282258641e-03
4.438081312631e-03
6.515564403244e-03
5.332763139274e-03
6.092020836385e-03
4.337035870078e-03
6.496958300073e-03
7.530560735080e-03
4.539662912148e-03
4.271737317859e-03
2.845318622906e-03
3.138416449873e-03
8.461976104242e-03
7.369981665397e-03
7.150300561969e-03
5.248340798342e-03
3.051438687584e-03
6.703775118956e-03
7.200833119783e-03
5.167825518809e-03
2.446157471383e-04
6.988209991633e-03
5.216828897001e-03
4.403266616646e-03
6.614916393222e-03
6.019316496815e-03
3.290392515060e-03
3.672959727573e-03
7.449735187312e-03
5.643882171724e-03
6.751613390258e-03
4.323837798527e-03
2.998150908978e-03
7.657420414252e-03
3.990156233101e-03
4.070843748118e-03
7.388581068051e-03
4.522819178276e-03
5.040189482305e-03
1.793397212351e-04
3.179610810513e-03
4.628459497399e-03
4.050637502216e-03
5.139417154534e-03
6.113108692657e-03
3.968717882503e-03
4.098284725584e-03
6.607537806909e-03
3.894339398565e-03
3.909217157288e-03
3.778885964259e-03
3.856702032406e-03
0.0
3.867784336933e-03
2.563323944442e-03
3.419790303738e-04
3.399628481447e-03
6.237968898188e-03
5.076924335598e-03
6.634894704235e-03
6.620860395438e-03
3.309126518855e-03
3.075297279978e-03
5.643325827912e-03
4.100480322932e-03
1.440831280946e-03
1.171565470903e-03
2.398810579769e-04
2.699190649747e-03
8.155395827535e-03
5.108968424711e-03
6.086746394201e-03
2.651743658648e-03
4.917645572027e-03
6.647889007303e-03
1.208559538859e-03
2.576389109968e-03
2.078055360937e-03
6.984584632929e-03
6.590410406674e-03
2.857156921415e-03
3.706895008010e-03
5.685228131760e-03
6.802498398828e-03
1.281432459056e-03
6.512826840323e-03
1.532544522675e-03
3.372190588029e-03
4.354856949233e-03
1.081597316909e-03
2.697767110358e-03
5.212641935745e-03
1.242077517254e-03
3.063219008196e-03
3.208047659791e-03
6.966050816529e-03
2.177752909275e-03
4.281991938285e-03
2.143380826504e-03
6.275563053447e-03
7.674038867881e-03
4.908962959162e-03
4.282153802284e-03
7.507244302847e-04
3.506560930574e-03
3.072118229683e-03
3.221248037221e-03
1.012930740077e-03
1.001390545427e-03
1.390447750315e-03
1.866059869406e-03
1.478788297244e-03
3.032717901044e-03
0.0
2.327478688470e-03
4.122518464148e-03
3.216172429738e-03
8.210411133915e-03
6.021387754918e-03
3.854408568460e-03
2.248560931312e-03
1.779086743862e-03
6.101308254489e-03
6.023626633703e-03
3.742684779077e-03
3.077333598062e-03
2.288434150502e-03
6.009559958077e-03
2.189092767048e-03
3.202342050267e-03
3.064099742472e-03
4.350485730714e-03
7.492842636326e-03
6.006021539653e-03
1.323605716837e-03
9.054925083760e-04
8.901843271322e-04
4.532902727518e-03
6.161139508073e-03
1.629622625436e-04
4.849407318231e-03
0.0
6.726186237446e-03
1.911385708274e-04
1.855469029488e-04
6.511053924723e-03
6.095667388605e-03
4.237134437895e-03
3.194088539209e-03
1.269911016193e-03
4.894211609082e-03
5.865009497537e-03
6.009791560538e-03
3.214582083037e-03
6.916297534279e-03
6.024111308554e-03
8.203616030066e-03
1.688097827542e-03
1.674170679432e-03
1.213203454762e-03
2.550412609600e-03
6.797795511114e-03
5.628686910939e-03
1.182354857590e-03
3.011280459441e-03
6.612165717421e-03
6.855347867762e-03
6.921118964143e-03
4.549765932770e-03
5.010826545378e-03
6.573702862334e-03
6.585743756436e-03
4.848773824588e-03
1.537651936608e-03
3.191688509645e-03
3.230904037540e-03
1.005816677807e-03
6.594196046430e-03
6.947732712259e-03
6.551840632204e-03
1.299810932084e-03
1.326636767754e-03
6.569466124773e-03
6.560026607158e-03
4.404639489747e-03
3.191281210692e-03
4.696669621923e-03
3.777426634559e-03
3.187300555971e-03
6.793426024867e-04
1.962141474448e-04
1.658004844313e-04
1.808088655351e-04
3.181347729344e-03
2.857668427393e-03
0.0
4.262805572333e-03
0.0
6.785749701936e-03
5.948655914821e-03
6.212814017957e-03
1.881566741633e-03
2.089276457792e-03
5.911297904106e-03
5.463299992802e-03
5.922103576873e-03
5.946176253921e-03
6.373341366708e-03
2.701665040977e-03
6.022983703666e-03
6.017003585591e-03
5.668083502925e-03
6.135322549613e-03
4.903803054603e-03
0.0
2.984093926031e-03
1.404130565303e-03
6.242310014343e-03
3.537064374614e-03
5.690085994713e-03
1.730458636275e-03
5.420604269261e-04
5.974572800020e-03
3.238128919533e-03
2.406449859391e-03
5.634774877231e-03
5.255592395657e-03
2.405392247394e-03
6.360567096351e-03
5.434808747933e-03
5.008591122350e-03
5.071218324789e-03
4.953196521937e-03
3.920224268065e-03
4.600055124077e-03
5.006116732066e-03
5.719882960662e-03
5.150031365322e-03
2.402738679712e-03
5.243929663885e-03
4.941851688277e-03
3.558682000750e-03
5.339363849845e-03
5.002744641154e-03
5.321773155122e-03
5.122199489663e-03
5.403905123278e-03
6.028296461714e-03
4.878121851522e-03
5.048301122716e-03
6.293967405816e-03
5.283094587084e-03
4.496087669439e-03
6.161720644198e-03
1.626976950624e-03
2.478964315685e-03
7.503612397896e-04
4.158489178226e-04
5.132283977735e-03
5.824952380525e-03
4.012352521065e-04
5.178558947058e-03
3.672287986049e-03
5.576247736021e-03
5.479109707202e-03
4.151267833236e-03
5.401506971486e-03
3.563436395175e-03
7.483896531863e-03
6.387704303574e-03
1.820581543880e-03
6.428146395440e-03
4.665806061983e-03
1.775377006334e-03
2.767788957771e-03
3.496168343953e-03
4.137623841864e-03
2.747361660117e-03
4.830815432738e-03
4.338838747336e-03
3.793906296290e-03
4.978257539556e-03
5.338722266874e-03
4.634762812797e-03
1.404403575879e-03
3.326589790579e-03
7.649286375402e-03
4.803789849080e-03
2.962064143343e-03
5.321572823661e-03
6.377905186534e-03
4.463221862301e-03
7.092725784377e-04
7.188837629253e-04
1.944417107324e-03
5.780330405752e-03
4.302592537166e-03
3.897931375891e-03
3.831560113469e-03
6.613714724946e-03
3.733470349169e-03
5.403622540002e-03
1.779623052237e-03
6.397295042876e-03
3.627401884640e-03
1.998592185307e-03
3.248324126060e-03
2.704381126124e-03
2.253103790480e-03
3.845854952721e-03
7.225148899227e-05
0.0
4.899141230811e-03
1.584641086334e-03
5.242951275920e-03
5.265493318509e-03
3.749289598033e-03
3.819358167454e-03
5.077648961166e-03
6.798414436796e-04
2.702055742110e-03
6.708544106600e-03
1.314414488661e-03
4.027503858662e-03
3.708502873321e-03
1.260593680021e-03
6.387259553237e-03
4.605325228012e-03
1.499353938421e-03
5.208339196432e-03
5.174454579939e-03
1.743113355007e-03
4.922120216085e-03
1.835179376798e-03
5.265120716377e-03
3.749942317701e-03
5.182420533551e-03
5.047083544607e-03
5.250336287352e-03
5.338001882475e-03
1.410337176061e-03
5.350543321986e-03
4.575231375888e-03
3.743108082594e-03
4.332465809534e-03
4.772714813264e-03
7.326342895934e-03
4.911353602778e-03
3.041847748642e-03
3.625710063670e-03
2.429779447033e-03
3.704386343779e-03
4.439297428605e-03
5.331191309653e-03
1.958836829232e-03
8.737837506730e-04
4.468449371054e-03
1.951162294044e-03
6.412271993749e-03
4.604462714681e-03
5.646994716550e-03
6.689390456685e-03
2.917873825125e-03
1.680872703339e-03
9.896995110519e-04
5.545590329788e-03
4.168753252709e-03
6.612546370244e-04
2.649881188476e-03
1.882218007943e-03
4.164466221195e-03
2.638568231879e-03
5.373392772578e-03
2.437907624284e-03
4.974481416777e-03
2.359002533099e-03
5.826034707262e-03
2.227762554390e-03
5.565953338820e-03
3.398581865977e-03
5.629198163086e-03
5.458706020883e-03
1.628978092742e-03
3.881907493683e-03
6.634866122393e-03
3.930173730788e-03
4.187784013099e-03
2.847418581551e-03
4.244922793799e-03
1.684590325262e-03
6.234172845465e-03
6.840160487814e-03
7.618485300831e-03
5.394833408084e-03
5.570842903386e-03
1.341791584285e-03
5.691818914239e-03
6.418804923311e-03
3.994574277200e-03
5.555240674449e-03
4.635584555752e-03
3.841445597783e-03
5.618161100191e-03
3.821646127754e-03
1.989457877279e-03
2.654495664979e-03
4.672952337494e-03
5.628649787643e-03
4.225240194010e-03
4.667137657796e-03
4.409627360570e-03
3.999189459908e-03
3.940589006345e-03
3.368331855731e-03
6.410739912164e-03
5.772163251732e-03
3.865457449800e-03
5.416105354265e-03
7.724854029525e-03
5.657015617330e-03
4.742369029763e-03
3.629938782468e-03
3.111889228421e-03
1.442245674730e-03
5.941396517564e-03
3.060809280584e-03
4.299375558000e-03
4.132696996014e-03
7.155431772814e-03
2.812231273441e-03
3.784873580792e-03
2.782193892078e-03
3.294484003346e-03
1.545891436410e-03
6.466975565593e-03
4.815027799835e-03
4.941701353565e-03
5.204542242205e-03
5.785731859002e-03
5.385878323951e-03
5.333370309860e-03
1.585798154787e-03
6.427769226032e-03
6.587759831051e-03
6.352225579926e-03
3.839890860624e-03
5.603553666548e-03
4.270720268813e-03
3.550607084092e-03
3.971656373217e-03
2.330248634732e-03
3.492796501593e-03
4.157960231763e-03
2.043568869004e-03
1.865816892310e-03
5.252913582525e-03
5.712291611271e-03
8.250586827486e-03
2.135838877742e-04
5.712637514995e-03
5.279435174270e-03
4.363613069330e-03
4.103488450026e-03
5.124979245615e-03
2.391401248466e-03
4.634848892212e-03
4.775391991284e-03
2.402681641936e-03
7.788298120351e-04
1.179554733398e-03
3.692146008808e-03
3.366173341416e-03
5.616732507104e-03
5.044916215643e-03
2.225828499666e-03
1.267618984126e-03
3.930039062681e-03
2.072659577326e-03
6.350535564126e-03
8.231737200151e-03
3.996321467094e-03
4.986241804288e-03
8.259876155594e-03
7.188793075142e-03
7.932296260151e-03
2.885782413417e-03
4.553540409192e-03
5.174417230082e-03
3.973089038773e-03
2.152010181326e-03
3.223597729123e-03
5.113741145394e-03
5.463977928985e-03
2.119026524311e-03
5.467100983753e-03
5.543976450470e-03
6.041281752623e-03
3.155402201715e-03
7.158769187214e-03
4.439751776256e-03
6.180621529916e-03
6.456312259289e-03
3.546856401469e-03
6.763390073724e-03
5.536264266258e-03
8.384741862334e-03
4.057033022443e-03
3.157514173330e-03
4.123901821043e-03
5.087178339347e-03
5.840374837219e-03
3.531467554391e-03
4.251329185006e-03
4.195164525270e-03
2.479792592820e-03
5.593643574323e-03
1.878039426043e-03
7.347316242850e-03
5.214885560155e-03
7.020601095851e-03
3.963126868919e-03
4.882709138368e-03
5.872127952100e-03
7.235883037032e-03
5.279854728997e-03
5.900974027321e-03
4.577778607108e-03
6.621529048425e-03
3.225197701153e-03
4.713217591497e-03
8.122316488391e-03
6.568915749778e-03
4.731052250164e-03
3.988249552619e-03
3.801645055376e-03
5.398417094700e-03
5.951690356663e-03
6.160529897351e-03
1.022621185471e-03
2.916450694299e-03
6.511720178448e-03
5.994127086043e-03
4.522632313005e-03
5.469468509572e-03
5.150681403781e-03
5.240179499594e-03
3.514955926544e-03
4.786586511308e-03
5.873255370276e-03
5.327777423767e-03
4.543377517499e-03
4.972104266319e-03
6.698135852969e-03
4.683655011930e-03
5.186209915556e-03
4.713484120124e-03
4.548206090170e-03
6.271848958050e-03
7.438278359671e-03
6.292277098742e-03
5.516190399229e-03
4.861229072347e-03
7.175167595001e-03
4.455858956637e-03
1.807957492195e-03
6.328797713505e-03
6.496338041101e-03
7.299266861501e-03
3.338670887807e-03
6.494997512522e-03
7.319631730484e-03
3.160882025297e-03
5.039081795982e-03
4.234469480443e-03
3.357266040902e-03
1.865512204240e-03
5.491649460742e-03
6.954721263038e-03
5.317751045333e-03
7.111141848362e-03
5.298507008500e-03
4.274698478407e-03
2.711369229508e-03
7.085542385609e-03
7.055125398249e-03
3.354799917760e-03
6.093835718220e-03
3.914877386730e-03
6.289163987465e-03
6.603332277609e-03
7.223533287640e-03
4.744547438801e-03
8.196714356300e-03
6.559753258926e-03
2.814058780115e-03
4.408544086062e-03
7.690724427943e-03
4.852152895878e-03
7.214812522505e-03
6.833919051515e-03
4.289996017081e-03
9.501978410137e-04
5.017421712005e-03
1.891077152441e-03
2.546548961379e-03
8.452876233264e-03
5.360782323002e-03
3.413997883166e-03
4.560833261913e-03
4.514270677665e-03
4.791929741814e-03
3.425503388650e-03
3.339674322635e-03
2.352006482502e-03
3.586899241968e-03
3.076084224334e-03
7.184135665794e-03
6.659013429384e-03
3.010210679057e-03
6.257877190124e-03
6.253317202260e-03
4.377813891095e-03
1.644965623868e-03
6.679040104287e-03
2.834693004197e-03
2.166054730405e-03
7.350620703686e-03
5.777692318185e-03
7.618652828274e-03
3.697901362763e-03
4.652855770584e-03
7.297377255654e-03
4.381154287587e-03
5.353154153797e-03
4.847010383273e-03
4.984300817298e-03
1.902932291285e-03
6.080301367107e-03
4.651005362573e-03
7.560516820522e-03
4.572119584784e-03
7.358798283788e-03
2.706357175464e-03
2.134035956542e-03
7.543114732477e-03
1.992696564921e-03
5.293889365705e-03
7.212318740120e-03
5.272532937545e-03
5.420840566734e-03
7.316182881097e-03
5.018032232522e-03
6.466341930466e-03
8.091425969383e-03
6.674982894108e-03
7.108289994851e-03
8.418317610124e-03
8.555330204743e-03
7.331292369308e-03
7.202772838919e-03
8.040479412214e-03
5.351604097801e-03
6.647766526590e-03
3.136463670203e-03
7.026571755308e-03
5.155825657335e-03
5.440131258685e-03
5.874549540998e-03
7.415143239443e-03
5.923540542616e-03
4.952004252636e-03
6.822027382070e-03
6.107956582627e-03
4.816274352400e-03
4.818099421099e-03
7.053940327157e-03
7.050905304094e-03
8.373342697370e-03
4.023314824601e-03
3.224371876835e-03
2.806234246243e-03
3.762131274638e-03
4.197930013981e-03
6.153594580975e-03
4.682421595145e-03
6.884776697731e-03
4.592968692485e-03
7.106997699923e-03
5.049278077315e-03
8.427456889418e-03
4.186777916003e-03
6.731489235930e-03
6.953976688618e-03
7.041815729700e-03
5.078462914970e-03
5.318103245047e-03
8.507017940186e-03
7.001484749238e-03
2.518307917701e-03
7.913904516903e-03
6.997332000563e-03
6.425464840899e-03
7.117670906076e-03
6.537827069659e-03
2.656984846187e-03
6.929820851010e-03
4.218839080461e-03
6.112846240884e-03
4.343885302361e-03
8.093871449743e-03
4.091858975396e-03
3.838629298260e-03
4.150165290363e-03
7.366436363148e-03
6.031380191830e-03
4.487236376390e-03
5.391551705940e-03
3.964776956212e-03
5.043363530841e-03
8.021703013497e-03
5.351865102208e-03
6.818424023668e-03
6.863984791520e-03
6.187052211111e-03
4.621665338398e-03
3.555830727617e-03
8.195708788303e-03
3.874374489081e-03
7.458101501642e-03
7.795999741035e-03
6.557669897734e-03
9.888206599126e-04
5.353078015974e-03
3.072178333915e-03
6.217208520275e-03
7.757512712117e-03
4.518245132016e-03
6.049158176841e-03
5.336098768399e-03
7.783076031665e-04
6.285101826667e-03
4.743610102868e-03
7.797924169464e-03
8.085126179220e-03
4.994909691428e-04
6.111504942129e-03
2.995152295408e-03
4.214096454066e-03
5.069280986414e-03
6.738833799212e-03
6.061941885975e-03
8.045607957836e-03
6.011002684904e-03
4.856008058816e-03
8.165376085930e-04
8.134921853209e-03
7.434922016416e-03
8.334120529738e-03
8.406772095088e-03
3.763788321413e-03
5.805554909274e-03
5.443502610785e-03
7.344462630053e-03
7.539591314414e-03
6.624580898703e-03
6.688437818505e-03
6.034302565445e-03
3.539846867118e-03
8.262568046954e-03
4.348587759454e-03
6.033082468020e-03
6.241463286931e-03
3.061812406022e-03
3.059832632554e-03
4.421565437881e-03
7.988802813260e-03
4.978589814799e-03
4.346817112173e-03
7.911188414437e-03
6.907082880607e-03
6.627470660986e-03
6.408303350361e-03
3.548926640244e-03
6.955763629309e-03
5.203844524737e-03
2.967980770810e-03
4.885484784961e-03
6.558767160280e-03
3.961070326471e-03
4.324099751295e-03
4.451111329044e-03
4.645167791620e-03
1.845626890386e-03
4.635171362461e-03
3.735895466087e-03
4.183071766205e-03
4.385629020003e-03
7.224248523177e-03
2.028589452844e-03
2.498448727656e-03
4.956311205277e-03
4.456094261597e-03
9.290470403410e-03
9.247317875240e-03
4.352626062824e-03
1.764099154411e-03
4.840309726000e-03
6.893722404327e-03
2.340604254342e-03
7.504248902193e-03
5.140839489265e-03
4.216453027680e-03
5.874244907151e-03
1.271415540629e-03
6.720417319724e-03
5.078772634842e-03
1.365859019181e-03
5.112554520633e-03
1.731395993611e-03
4.218615333140e-03
4.319808006965e-03
6.188547696971e-03
6.200772715199e-03
5.253907736522e-03
6.329467404914e-03
6.840283949887e-03
5.217160318768e-03
1.177491486856e-03
1.375328150188e-03
8.214017413384e-03
4.027251590836e-03
7.966670348213e-03
3.084049244803e-03
4.849015704642e-03
8.201006865857e-03
4.335505690518e-03
8.027096723472e-03
5.816059424007e-03
8.071265785177e-03
4.946945583506e-03
5.167571999686e-03
5.408792691943e-03
6.039207353982e-03
4.479624634822e-03
7.837890614927e-03
6.425860718552e-03
6.881912066884e-03
4.652786721443e-03
6.759432369508e-03
4.813610800152e-03
4.313534934977e-03
4.885900283596e-03
4.185013498204e-03
7.372520431573e-03
7.290201967073e-03
6.744535699221e-03
4.157867652743e-03
5.898004284821e-03
5.843540885082e-03
1.098595117713e-03
4.336304337605e-03
6.245000607085e-03
4.935028355736e-03
4.575687593913e-03
1.149827026913e-03
5.940050732873e-03
3.641304480852e-03
3.581238439606e-03
7.866221111817e-03
4.188265097601e-03
3.987994876211e-03
6.742023830836e-03
7.668470620609e-03
8.470786873991e-03
5.905102257497e-03
6.321905619472e-03
6.362819398159e-03
6.805238107424e-03
6.651463367141e-03
3.891821125703e-03
7.458418582981e-03
3.743956289805e-03
3.211982025181e-03
7.295866927402e-03
6.774166701702e-03
7.329714007387e-03
5.551276976121e-03
6.784380916409e-03
6.364823719757e-03
5.638877018459e-03
7.481344142828e-03
6.967742272961e-03
8.334008436198e-03
6.798118521062e-03
4.242537343099e-03
4.310818658663e-03
6.493078591206e-03
4.095250707370e-03
3.267786381543e-03
8.130940279453e-03
6.349726302658e-03
5.111696529859e-03
3.985530946531e-03
5.486019707335e-04
7.785670887736e-03
8.554820142324e-04
1.029653505729e-03
4.731506502816e-03
8.101349165520e-03
4.114719913355e-03
5.530047641643e-03
7.107421558738e-03
4.736199665107e-04
6.540635226563e-03
6.374289927972e-03
4.109551189900e-03
5.084910125300e-03
5.630896628765e-03
6.169667911293e-03
6.866322924498e-03
7.754354156700e-03
6.778061821015e-03
1.519941775563e-03
4.407337597119e-03
4.211511525797e-03
2.659329989308e-03
3.263324571413e-03
4.151874911649e-03
4.777161847903e-03
1.579629034821e-03
4.351335771458e-04
1.644447132718e-03
4.050591752006e-03
6.215014651083e-03
5.491255971918e-03
4.704394607991e-03
4.657479733121e-03
4.376533666743e-03
4.175597264011e-03
6.410566388275e-03
4.439116698427e-03
3.611591761329e-03
7.751866409591e-03
4.045094014965e-03
4.509615462763e-03
3.641839889955e-03
6.146361341704e-03
4.178016916571e-03
4.252910968047e-03
3.994175970999e-03
4.476309837600e-03
4.619195714546e-03
4.992587135369e-03
1.124080825949e-03
7.477715213381e-03
1.840694694106e-03
5.110700337901e-03
7.927318946488e-03
5.506618998507e-03
4.118161913189e-03
2.106375875528e-03
3.356343314341e-03
4.484370090853e-03
6.077941485922e-03
4.680469467531e-03
5.778240294565e-04
5.177570466669e-03
5.652087220203e-03
7.127202167639e-03
8.435759122996e-03
4.609037193520e-03
4.482568209461e-03
6.066102223511e-03
9.288350094417e-04
4.846447285548e-04
4.604325868588e-03
6.910839297975e-03
4.417457156168e-03
6.245770790917e-03
4.655585905811e-03
4.496123640182e-03
6.868822928066e-03
1.628784469015e-04
5.886643384746e-03
6.623316833713e-03
3.458575707159e-03
5.194280944893e-03
8.217406525307e-03
5.921361360695e-03
8.655005762068e-04
4.442063176974e-04
5.416028733597e-03
4.290643224771e-03
4.837193160762e-03
7.866078904140e-03
2.090893563457e-03
7.737867206091e-03
4.252293004767e-03
4.712610304585e-03
8.082979947789e-03
4.993990361864e-03
1.687868670031e-03
4.547943130139e-03
4.504021302162e-03
5.767762630545e-03
5.487459887998e-03
6.263211880019e-03
0.0
5.996048971465e-03
4.759413754436e-03
3.933224543504e-03
3.889182570843e-03
8.167891598236e-03
2.589094412032e-03
2.795504998493e-03
3.638854478780e-03
3.460906099762e-03
6.263313748405e-03
7.754156378974e-03
6.394170973117e-03
7.604089444344e-03
3.558985111728e-03
4.547788030597e-03
8.067555272090e-03
5.744111880605e-03
8.388200309561e-04
5.242270228600e-03
5.988553140138e-03
4.611305462610e-03
6.117547699521e-03
9.838862332245e-04
6.409974571880e-03
2.460180228804e-03
7.676527489741e-03
6.282481939715e-03
8.324056047655e-03
4.132286282917e-03
3.216393487802e-03
9.534914560384e-04
6.419156147367e-03
3.117613194290e-03
3.818359164413e-04
5.392622240487e-03
5.134895118372e-03
2.358553379801e-04
6.525194444864e-03
2.162303801194e-03
2.314729856959e-03
8.001108609850e-03
8.299080993663e-03
7.941347534770e-03
5.780574191991e-03
3.214868672807e-03
6.466925770060e-03
1.803278330940e-03
7.142806768844e-03
7.868439707506e-03
1.692566575664e-03
4.468944246879e-03
6.354050654100e-03
7.575712715111e-04
5.705108320304e-03
4.630315455245e-03
4.552935884602e-03
1.598983666164e-03
3.654173705916e-03
6.327025218743e-03
7.823851202225e-03
4.035522126487e-03
1.977863673614e-03
8.031220452006e-03
4.071024716265e-03
6.166489107759e-04
8.284886348670e-03
7.721146331456e-03
3.612944456399e-03
5.643094491975e-03
8.323269969628e-03
5.844108543609e-03
5.287880181600e-03
7.312326022385e-03
0.0
2.057345054552e-03
3.697344415995e-03
3.794948578652e-03
5.243860231414e-03
2.836247297811e-03
3.385341017859e-03
3.689273836909e-03
5.859412294279e-03
2.002349604735e-03
7.988344182862e-03
6.843918471872e-03
6.904091325789e-03
5.375449103745e-03
3.327990862488e-03
3.338379874678e-04
2.600432648984e-03
1.831084861840e-03
2.744554652873e-03
8.111947699993e-03
4.668649855372e-03
5.409010496484e-03
6.984958962329e-04
5.129856721972e-03
4.888473007385e-03
5.369560606069e-03
4.921920194395e-03
6.028148600870e-03
6.806370925738e-03
3.694826416134e-03
4.789343827732e-03
2.754816957740e-03
4.902044289783e-03
6.599261818950e-03
1.815115120087e-03
2.184557676666e-03
7.259687905409e-03
3.477662201300e-03
5.409990092851e-03
6.415444862528e-03
7.625331103719e-03
5.007958541530e-03
3.660646591584e-03
3.300211217711e-03
3.566851030491e-03
4.354966851432e-03
7.840894997195e-03
3.811315450568e-03
3.470038770667e-03
3.693952598066e-03
3.772778857696e-03
1.019306317547e-03
2.938632504761e-03
5.767752696873e-03
4.034960654971e-03
7.158962682706e-03
7.530677274207e-03
4.509775173530e-03
5.432774287522e-03
2.645253503307e-03
2.622039351293e-03
6.479644634492e-03
2.304638287393e-04
2.180478621988e-03
7.227078753790e-03
1.726071691500e-03
3.324809475671e-03
7.205425248993e-03
5.796810560745e-04
5.637035706874e-04
6.010222977966e-03
3.068950323843e-03
5.659948107382e-03
6.875291216727e-03
3.060672020253e-03
3.701494320501e-04
5.629476601577e-03
1.056569448653e-03
5.445974576444e-03
6.594906917399e-03
5.515302367436e-03
2.152560557788e-03
3.730388698424e-03
2.799861645862e-03
7.954192657373e-03
7.415490135997e-03
4.734875419906e-03
7.320538368918e-03
5.525430350756e-04
6.584199667642e-03
2.822556939706e-03
1.502995282866e-03
7.029715691378e-03
5.772672408195e-03
5.750122728571e-03
3.364853212441e-03
3.669284283972e-03
1.325861083581e-03
8.709889293444e-03
2.258902969130e-03
7.533765705701e-04
7.855643669996e-03
3.188420317882e-03
5.482259513434e-03
5.953772275136e-03
5.893932355244e-03
1.306252087269e-03
1.053991433822e-03
3.129847729158e-03
3.204854259840e-03
6.614526846248e-03
6.716281621430e-03
1.394120580129e-03
0.0
6.245178030832e-03
7.945380481989e-03
1.329797501132e-03
6.374822896186e-03
3.949047872906e-03
3.416147662929e-03
4.259215926484e-03
1.944440147264e-03
8.126344747593e-03
1.061444239595e-03
3.016528213225e-03
8.237977222890e-03
5.324962882905e-03
3.266159541169e-03
3.913984556786e-03
8.284980279338e-03
6.638598775614e-03
4.817099798675e-03
3.058531543379e-03
8.013367470391e-03
5.426520808558e-03
1.905376529591e-03
4.086781350247e-04
8.096370089227e-03
7.182868300359e-03
1.558023439090e-03
4.461302677928e-03
6.372383152605e-03
7.848575949361e-03
8.231821347221e-03
4.372858175635e-03
2.450732908034e-04
3.115527380678e-03
2.629167633871e-03
3.578185125380e-03
8.071636871738e-03
5.506795170732e-03
6.855341233807e-03
6.645911850498e-04
6.388748237895e-04
2.738398890004e-03
4.467708076661e-03
2.307620049500e-03
5.529519713860e-03
1.802845135813e-03
7.041739684340e-03
3.624426704377e-03
7.167912613829e-03
8.053887866996e-03
3.587861483021e-03
6.912873943882e-03
5.779451194585e-03
5.760792399076e-03
2.254706625187e-03
5.397932790269e-03
7.820977881581e-03
7.302420337736e-03
7.793695319145e-03
6.574062427068e-03
4.777700606449e-03
0.0
9.845756963830e-04
7.006128216791e-03
3.879740068610e-03
6.099385597687e-03
7.836628601869e-03
6.429919601308e-03
4.807093912348e-03
7.128577934674e-03
6.588317099408e-03
6.639844025186e-03
2.338830825025e-03
6.818307469759e-03
3.451522871175e-03
5.433186761320e-03
5.302681993693e-04
5.235659828438e-03
4.498616084438e-03
1.688408738473e-03
1.545447237239e-03
6.492132701151e-03
5.637492893173e-03
5.504426529729e-03
7.488226844810e-03
3.852881204388e-03
3.799041860716e-04
5.935897059172e-04
4.188938165998e-04
8.274519099371e-04
1.478748655911e-04
2.994768496769e-03
6.164082337021e-03
5.690674374282e-03
3.883455718842e-03
2.690788463729e-03
6.515704344554e-03
7.008140888600e-03
7.749679635814e-03
7.860680186643e-03
8.189966940028e-03
5.135394386581e-04
5.681154926280e-04
6.277901374063e-03
1.484106501253e-03
1.753179393837e-03
4.832364846617e-04
5.799786674799e-04
6.552668801477e-03
8.174278501633e-03
5.514781828190e-03
7.318006353897e-03
6.901461340341e-03
4.033418773149e-03
6.401258790668e-03
2.998991911149e-03
3.180255969687e-03
1.028163598240e-03
2.779239829429e-04
6.790754828682e-03
3.502525969212e-03
1.763228369274e-03
2.855369314806e-03
8.705969942838e-03
5.499347830224e-03
5.930934145481e-03
2.213405189575e-03
5.432286145460e-04
6.714531194852e-03
6.015607847563e-03
6.828774340273e-03
3.352497016113e-03
6.720684627162e-03
1.427347099954e-03
5.539597143375e-03
2.048357633213e-04
6.639730365490e-03
5.860451107836e-03
2.169999861618e-04
8.069551414558e-03
4.633513032721e-03
5.657467102238e-03
6.884892989442e-03
4.247858577439e-03
8.300847883001e-03
5.525428271373e-03
4.362177274662e-03
8.274323892587e-03
2.387201356291e-03
3.053723610195e-03
7.660144729356e-03
5.736294853841e-03
1.073872952994e-03
3.063983621229e-03
6.488253830158e-03
1.165021257967e-03
7.315064118707e-03
5.495470709881e-03
5.762937850711e-03
1.682697318148e-03
8.053626735850e-04
3.565611266405e-03
5.010988788466e-03
1.573991549633e-04
5.695077500134e-03
4.090526400836e-03
1.883803929553e-03
3.888574816327e-03
7.915219833765e-03
3.763105895867e-03
3.038880930972e-04
2.159618659613e-03
3.195393326938e-03
3.902271473663e-03
7.527440288782e-03
3.091083311451e-03
3.284676357262e-03
5.190819916672e-04
6.484968363595e-03
8.160005093036e-03
8.877738012256e-04
5.674860832192e-03
6.462821433033e-03
3.423111596940e-03
4.198163726001e-03
3.122389092001e-03
3.196079504455e-03
3.413316685104e-03
7.113073833064e-03
1.476644935529e-03
8.444669946885e-03
3.559702453178e-03
5.772557366742e-03
6.991491996745e-03
3.993508198578e-03
8.201713024541e-03
7.380754724975e-03
7.749539027127e-03
2.386710946759e-04
8.286648095535e-03
8.553533955181e-03
5.978130445140e-04
2.916813067192e-03
3.606876982128e-04
8.582988963767e-03

SCALARS element_materi_plasti_phimob float
LOOKUP_TABLE default
2.047572441782e+01
2.047572441782e+01
2.047572441782e+01
1.915174510967e+01
3.552782840814e+00
7.697615162703e+00
2.789249449759e+00
2.047572441782e+01
3.718406078990e+00
1.911988948138e+01
2.047572441782e+01
2.047572441782e+01
2.047572441782e+01
7.737379849685e+00
2.047572441782e+01
1.970828745009e+01
4.523721614110e+00
7.359545857838e+00
2.047572441782e+01
2.047572441782e+01
1.900664238133e+01
2.047572441782e+01
2.047572441782e+01
2.047572441782e+01
1.262051337969e+01
2.047572441782e+01
2.047572441782e+01
2.047572441782e+01
1.448075223965e+01
2.047572441782e+01
1.836797619729e+01
6.557512629046e+00
2.047572441782e+01
2.047572441782e+01
2.047572441782e+01
2.047572441782e+01
2.047572441782e+01
2.047572441782e+01
4.150245390079e+00
3.043578033820e+00
2.047572441782e+01
2.047572441782e+01
2.047572441782e+01
2.047572441782e+01
1.850685170798e+01
2.047572441782e+01
1.623863127544e+01
1.885771910631e+01
-3.559902929100e+00
8.688481173948e+00
2.047572441782e+01
2.047572441782e+01
2.047572441782e+01
2.047572441782e+01
2.047572441782e+01
2.047572441782e+01
2.047572441782e+01
2.047572441782e+01
2.047572441782e+01
1.964129021779e+01
-3.773385136837e+00
2.047572441782e+01
2.047572441782e+01
2.047572441782e+01
2.047572441782e+01
2.047572441782e+01
-1.279993391691e+01
2.047572441782e+01
2.047572441782e+01
2.047572441782e+01
2.047572441782e+01
2.047572441782e+01
2.047572441782e+01
2.047572441782e+01
2.047572441782e+01
1.932977721312e+01
2.047572441782e+01
1.765539250993e+01
2.047572441782e+01
2.047572441782e+01
2.047572441782e+01
5.656375908263e+00
2.047572441782e+01
2.047572441782e+01
4.677020151717e+00
2.795053728639e+00
2.047572441782e+01
2.047572441782e+01
2.020967049070e+01
5.290082100433e+00
7.713977154985e+00
1.331726632623e+01
1.532647501279e+01
1.476484911011e+01
2.047572441782e+01
2.047572441782e+01
7.311411926190e+00
2.047572441782e+01
7.813961272291e+00
2.047572441782e+01
4.105237555834e+00
2.047572441782e+01
2.047572441782e+01
2.047572441782e+01
2.047572441782e+01
6.783808922956e+00
2.047572441782e+01
1.645574391691e+01
-4.154549500721e+00
2.047572441782e+01
2.008662504784e+01
2.047572441782e+01
2.047572441782e+01
2.047572441782e+01
2.026590273855e+01
2.047572441782e+01
2.047572441782e+01
2.047572441782e+01
5.816280287937e+00
2.047572441782e+01
2.047572441782e+01
1.414745415805e+01
1.677809384472e+01
2.047572441782e+01
8.786897610496e+00
2.047572441782e+01
2.047572441782e+01
2.047572441782e+01
2.012966056811e+01
1.219384442193e+01
2.047572441782e+01
1.922582251779e+01
2.047572441782e+01
2.047572441782e+01
2.047572441782e+01
2.047572441782e+01
2.047572441782e+01
2.047572441782e+01
2.047572441782e+01
2.047572441782e+01
1.968308635065e+01
2.047572441782e+01
1.060326070363e+01
1.217058299539e+01
2.047572441782e+01
2.047572441782e+01
1.988439946344e+01
2.047572441782e+01
3.017745640288e+00
2.047572441782e+01
8.788933735882e+00
1.332483247359e+00
2.047572441782e+01
2.047572441782e+01
2.047572441782e+01
2.047572441782e+01
2.047572441782e+01
2.047572441782e+01
2.047572441782e+01
1.792658816749e+00
2.047572441782e+01
2.047572441782e+01
2.047572441782e+01
2.047572441782e+01
1.715402912348e+01
2.047572441782e+01
1.597577127131e+00
2.047572441782e+01
2.047572441782e+01
2.047572441782e+01
2.047572441782e+01
2.047572441782e+01
1.362818265374e+01
2.083577325302e+00
2.047572441782e+01
2.047572441782e+01
2.047572441782e+01
2.047572441782e+01
2.047572441782e+01
2.047572441782e+01
2.047572441782e+01
2.008974846256e+01
2.047572441782e+01
2.047572441782e+01
2.047572441782e+01
1.776608150189e+01
2.047572441782e+01
1.965146104478e+01
1.947621780745e+01
2.047572441782e+01
2.021239328747e+01
2.047572441782e+01
2.008980001945e+01
5.528200498797e+00
2.047572441782e+01
2.047572441782e+01
2.047572441782e+01
2.047572441782e+01
1.648675439565e+01
2.047572441782e+01
2.047572441782e+01
1.423753746872e+01
1.270827984687e+01
2.047572441782e+01
2.047572441782e+01
2.047572441782e+01
1.801500170563e+01
1.702082930861e+01
1.753493609990e+01
2.047572441782e+01
2.047572441782e+01
2.047572441782e+01
-2.308536164547e+00
2.047572441782e+01
2.047572441782e+01
2.047572441782e+01
1.963654452103e+01
1.983339036901e+01
2.047572441782e+01
2.721004183468e+00
2.047572441782e+01
2.047572441782e+01
1.563071613709e+01
1.764969924298e+01
1.203063957133e+01
2.047572441782e+01
2.047572441782e+01
2.047572441782e+01
1.800793525511e+01
2.047572441782e+01
2.047572441782e+01
2.047572441782e+01
2.047572441782e+01
2.047572441782e+01
1.864029783696e+01
2.047572441782e+01
-6.681944935646e+00
2.047572441782e+01
2.047572441782e+01
2.047572441782e+01
2.047572441782e+01
2.047572441782e+01
1.905249788862e+01
2.047572441782e+01
2.047572441782e+01
2.047572441782e+01
2.000293165307e+01
1.771665433888e+01
2.047572441782e+01
2.047572441782e+01
2.047572441782e+01
1.813016977063e+01
2.047572441782e+01
2.047572441782e+01
2.047572441782e+01
2.036458735599e+00
2.047572441782e+01
1.682303368764e+01
2.047572441782e+01
2.047572441782e+01
2.047572441782e+01
1.769398542385e+01
1.831320859554e+01
2.047572441782e+01
1.805568515132e+01
1.969075682104e+01
1.953781153176e+01
2.047572441782e+01
2.047572441782e+01
1.909233666796e+01
2.047572441782e+01
2.047572441782e+01
2.047572441782e+01
1.166262422520e+01
2.047572441782e+01
2.047572441782e+01
1.872649102916e+01
1.060839611192e+01
1.743253461766e+01
2.047572441782e+01
2.047572441782e+01
2.047572441782e+01
1.840541315221e+01
1.589752137629e+01
2.047572441782e+01
2.047572441782e+01
1.774898660320e+01
1.241043863776e+01
1.442383307086e+01
2.047572441782e+01
2.047572441782e+01
2.047572441782e+01
1.825007196016e+01
2.047572441782e+01
2.047572441782e+01
2.047572441782e+01
1.765240314113e+01
2.047572441782e+01
1.817298593354e+01
2.047572441782e+01
2.047572441782e+01
2.047572441782e+01
2.047572441782e+01
2.047572441782e+01
1.937846340380e+01
2.047572441782e+01
2.047572441782e+01
1.932831972436e+01
1.939175318527e+01
2.047572441782e+01
2.047572441782e+01
2.047572441782e+01
2.047572441782e+01
2.047572441782e+01
2.002006197029e+01
2.047572441782e+01
2.047572441782e+01
2.047572441782e+01
2.047572441782e+01
1.853025522423e+01
2.047572441782e+01
2.047572441782e+01
2.047572441782e+01
2.047572441782e+01
1.133960316629e+01
2.047572441782e+01
2.047572441782e+01
1.052308857035e+01
2.047572441782e+01
2.047572441782e+01
2.047572441782e+01
1.221842593969e+01
2.020861990539e+01
2.047572441782e+01
2.008054064356e+01
1.873958535443e+01
1.894843950820e+01
2.047572441782e+01
2.047572441782e+01
1.373096173215e+01
1.699023034281e+01
2.047572441782e+01
2.047572441782e+01
2.047572441782e+01
2.047572441782e+01
1.962008712743e+00
2.047572441782e+01
2.047572441782e+01
1.866345081292e+01
2.047572441782e+01
1.823231658681e+01
2.047572441782e+01
2.047572441782e+01
2.047572441782e+01
2.047572441782e+01
2.047572441782e+01
2.047572441782e+01
2.047572441782e+01
2.047572441782e+01
2.020688323776e+01
1.995091024258e+01
2.047572441782e+01
1.976361342331e+01
2.047572441782e+01
2.047572441782e+01
2.005782270455e+01
1.808896702324e+01
2.047572441782e+01
2.047572441782e+01
2.047572441782e+01
2.047572441782e+01
2.047572441782e+01
2.047572441782e+01
2.047572441782e+01
1.951933360298e+01
2.047572441782e+01
2.047572441782e+01
1.889512701833e+01
2.047572441782e+01
2.047572441782e+01
2.047572441782e+01
2.047572441782e+01
2.047572441782e+01
1.786364814603e+01
2.047572441782e+01
2.047572441782e+01
2.047572441782e+01
2.047572441782e+01
9.883586002184e+00
1.038826176995e+01
2.047572441782e+01
2.047572441782e+01
1.749918966604e+01
1.926848438600e+01
2.047572441782e+01
1.396303098449e+01
2.047572441782e+01
2.047572441782e+01
2.047572441782e+01
1.649633976921e+01
1.159448015742e+00
2.047572441782e+01
2.047572441782e+01
2.047572441782e+01
2.047572441782e+01
1.565059580518e+01
2.047572441782e+01
2.047572441782e+01
2.047572441782e+01
1.881937925614e+01
2.047572441782e+01
1.805927905477e+01
1.958839843288e+01
2.047572441782e+01
1.869537581305e+01
2.047572441782e+01
2.047572441782e+01
2.047572441782e+01
2.047572441782e+01
2.047572441782e+01
1.914292287226e+01
1.890066842253e+01
2.047572441782e+01
2.047572441782e+01
2.047572441782e+01
2.047572441782e+01
1.964596645870e+01
2.047572441782e+01
1.879292023726e+01
2.047572441782e+01
1.892927590226e+01
2.047572441782e+01
2.047572441782e+01
2.047572441782e+01
2.047572441782e+01
2.024778806453e+01
2.047572441782e+01
2.047572441782e+01
2.047572441782e+01
2.047572441782e+01
2.047572441782e+01
2.047572441782e+01
2.047572441782e+01
2.047572441782e+01
2.021433808777e+01
6.021686415367e+00
2.047572441782e+01
2.047572441782e+01
2.047572441782e+01
2.047572441782e+01
2.047572441782e+01
-2.872494434010e+01
2.047572441782e+01
1.989011421667e+01
2.047572441782e+01
1.953930519813e+01
2.047572441782e+01
2.047572441782e+01
2.047572441782e+01
1.318686023583e+01
2.047572441782e+01
7.552798237805e-01
2.047572441782e+01
2.047572441782e+01
2.047572441782e+01
2.047572441782e+01
2.047572441782e+01
1.859774532259e+01
1.914299683836e+01
8.319098864718e+00
2.047572441782e+01
2.047572441782e+01
8.689264688925e+00
1.674144649327e+01
2.047572441782e+01
7.038864308740e+00
2.047572441782e+01
2.047572441782e+01
7.796692240271e+00
2.047572441782e+01
2.047572441782e+01
2.047572441782e+01
2.047572441782e+01
2.047572441782e+01
2.047572441782e+01
2.047572441782e+01
2.047572441782e+01
2.047572441782e+01
2.047572441782e+01
2.047572441782e+01
2.047572441782e+01
2.047572441782e+01
2.047572441782e+01
9.286834742011e+00
2.047572441782e+01
7.566208737116e+00
2.047572441782e+01
2.047572441782e+01
2.047572441782e+01
2.047572441782e+01
-1.337817961661e+01
2.047572441782e+01
1.824167625763e+01
2.047572441782e+01
1.940943202869e+01
2.047572441782e+01
2.047572441782e+01
2.047572441782e+01
2.047572441782e+01
2.047572441782e+01
-2.858982262309e+00
2.047572441782e+01
2.047572441782e+01
2.047572441782e+01
8.042824170986e+00
2.047572441782e+01
2.047572441782e+01
1.950113672411e+01
2.047572441782e+01
2.047572441782e+01
2.047572441782e+01
2.047572441782e+01
2.047572441782e+01
2.047572441782e+01
2.047572441782e+01
2.047572441782e+01
2.047572441782e+01
2.047572441782e+01
2.047572441782e+01
2.047572441782e+01
2.047572441782e+01
2.047572441782e+01
2.047572441782e+01
2.047572441782e+01
2.047572441782e+01
1.904074154002e+01
2.047572441782e+01
2.047572441782e+01
2.047572441782e+01
2.047572441782e+01
-1.918168301371e+00
2.047572441782e+01
1.967219247911e+01
2.047572441782e+01
2.047572441782e+01
2.047572441782e+01
2.047572441782e+01
1.636775655257e+01
2.047572441782e+01
2.047572441782e+01
2.047572441782e+01
1.724686558841e+01
1.969082383451e+01
2.047572441782e+01
7.017224872519e+00
2.047572441782e+01
2.047572441782e+01
2.047572441782e+01
2.047572441782e+01
-1.665269691674e+00
2.047572441782e+01
2.047572441782e+01
2.047572441782e+01
2.047572441782e+01
2.047572441782e+01
8.503096054586e+00
2.047572441782e+01
2.047572441782e+01
2.007258793563e+01
2.047572441782e+01
2.047572441782e+01
2.047572441782e+01
-2.175286419849e+01
1.694452095279e+01
2.000836963917e+01
-3.014886806461e+01
2.047572441782e+01
2.047572441782e+01
1.712589313875e+01
2.047572441782e+01
2.047572441782e+01
2.047572441782e+01
1.571270016026e+01
2.047572441782e+01
2.047572441782e+01
-4.242277208640e+01
2.047572441782e+01
1.756576199013e+00
2.047572441782e+01
2.047572441782e+01
1.699299753730e+01
2.047572441782e+01
2.047572441782e+01
2.047572441782e+01
2.047572441782e+01
2.047572441782e+01
2.008840470059e+01
2.046079804745e+01
2.047572441782e+01
2.047572441782e+01
2.022150721204e+01
2.047572441782e+01
2.047572441782e+01
2.047572441782e+01
2.047572441782e+01
2.047572441782e+01
2.047572441782e+01
2.047572441782e+01
2.047572441782e+01
2.047572441782e+01
2.004657735303e+01
1.905884603113e+01
-3.869539311879e+01
1.916981711591e+01
1.792316058254e+01
2.047572441782e+01
2.047572441782e+01
2.047572441782e+01
2.047572441782e+01
2.047572441782e+01
2.047572441782e+01
1.585483730237e+01
2.047572441782e+01
2.047572441782e+01
2.047572441782e+01
9.122659179288e+00
5.687175017233e+00
-2.795479066602e+01
2.047572441782e+01
2.047572441782e+01
2.047572441782e+01
2.047572441782e+01
2.036424982940e+01
-6.126638613037e+00
2.047572441782e+01
1.082188572112e+01
7.125656756592e+00
2.047572441782e+01
2.047572441782e+01
6.972001508678e+00
2.041398769736e+01
2.047572441782e+01
2.047572441782e+01
2.035139528713e+01
5.367720243124e+00
1.126439058469e+01
2.047572441782e+01
2.017954730016e+01
2.047572441782e+01
1.002344918135e+01
1.344449110338e+01
2.047572441782e+01
2.047572441782e+01
2.018042112678e+01
2.047572441782e+01
-2.727348245684e+01
2.047572441782e+01
2.047572441782e+01
2.047572441782e+01
1.461574652694e+01
1.601964195426e+01
-1.052343386233e+01
2.047572441782e+01
5.680531707791e+00
1.031906007499e+01
2.047572441782e+01
2.047572441782e+01
1.053082475890e+01
2.001550849314e+01
2.047572441782e+01
2.047572441782e+01
2.047572441782e+01
2.008049009480e+01
6.046150058458e+00
2.047572441782e+01
2.047572441782e+01
2.047572441782e+01
2.047572441782e+01
2.047572441782e+01
2.047572441782e+01
1.993924258072e+01
2.047572441782e+01
1.921312638290e+01
-2.683744791801e+01
2.032492491712e+01
2.047572441782e+01
2.047572441782e+01
2.047572441782e+01
1.414886778649e+01
1.681236845221e+01
2.047572441782e+01
2.047572441782e+01
1.602920786019e+01
-4.751100715136e+01
7.233650000181e+00
5.790365649276e+00
-2.906148462825e+01
2.047572441782e+01
2.047572441782e+01
2.047572441782e+01
-3.456820811204e+01
-3.624294424629e+01
2.047572441782e+01
2.047572441782e+01
1.297419521741e+01
7.573119436827e+00
1.515161188285e+01
4.375028595185e+00
7.649691037692e+00
-3.738915174487e+01
-3.280112761388e+01
-3.558595283217e+01
-2.709137751303e+01
2.045114073498e+01
2.018267102525e+01
-3.279518472806e+01
2.047572441782e+01
-3.271214352274e+01
2.047572441782e+01
2.047572441782e+01
2.047572441782e+01
2.047572441782e+01
2.047572441782e+01
2.047572441782e+01
2.047572441782e+01
2.047572441782e+01
2.047572441782e+01
2.047572441782e+01
2.005791026934e+01
2.007829456498e+01
2.013598208394e+01
2.047572441782e+01
2.047572441782e+01
2.047572441782e+01
-1.580527609783e+01
2.047572441782e+01
2.047572441782e+01
2.047572441782e+01
2.047572441782e+01
2.047572441782e+01
2.047572441782e+01
1.917931400733e+01
2.047572441782e+01
2.047572441782e+01
2.014903495441e+01
2.047572441782e+01
1.804903663831e+01
2.015869795851e+01
2.047572441782e+01
2.047572441782e+01
2.047572441782e+01
2.047572441782e+01
2.047572441782e+01
2.047572441782e+01
2.047572441782e+01
2.047572441782e+01
2.047572441782e+01
2.047572441782e+01
2.047572441782e+01
1.788168466027e+01
1.648374586698e+01
1.843595541281e+00
2.047572441782e+01
2.047572441782e+01
1.799486560392e+01
1.730187544628e+01
2.047572441782e+01
2.047572441782e+01
1.596640987397e+01
2.047572441782e+01
2.047572441782e+01
1.781918044101e+01
1.327402785099e+01
2.047572441782e+01
2.047572441782e+01
2.047572441782e+01
1.938508569553e+01
-1.756582416067e+00
1.722411006151e+01
2.047572441782e+01
-7.897900107740e-01
2.013875337806e+01
2.031109343726e+00
2.047572441782e+01
2.047572441782e+01
2.047572441782e+01
2.047572441782e+01
2.831420867512e+00
2.047572441782e+01
2.047572441782e+01
2.047572441782e+01
2.047572441782e+01
1.457617365177e+01
2.047572441782e+01
2.047572441782e+01
2.047572441782e+01
9.719316975314e+00
2.047572441782e+01
1.568159102169e+01
1.213406700981e+01
2.047572441782e+01
2.047572441782e+01
2.047572441782e+01
1.466822299111e+01
2.047572441782e+01
2.047572441782e+01
2.047572441782e+01
1.536250877803e+01
2.047572441782e+01
2.047572441782e+01
2.047572441782e+01
1.330710649980e+01
7.817083274669e+00
1.966718257825e+01
2.047572441782e+01
2.047572441782e+01
1.171537281754e+01
2.047572441782e+01
4.775087181833e+00
2.047572441782e+01
2.047572441782e+01
2.047572441782e+01
2.047572441782e+01
2.047572441782e+01
2.047572441782e+01
2.047572441782e+01
2.047572441782e+01
2.047572441782e+01
2.047572441782e+01
2.047572441782e+01
-2.901360533581e+01
-2.956651975446e+01
2.047572441782e+01
2.047572441782e+01
2.047572441782e+01
2.047572441782e+01
2.047572441782e+01
2.047572441782e+01
1.676784066149e+01
1.112952612189e+01
2.047572441782e+01
2.047572441782e+01
2.047572441782e+01
8.220424457808e+00
3.778116487426e+00
2.047572441782e+01
2.047572441782e+01
1.392909078020e+01
2.047572441782e+01
1.739564714386e+01
1.759026578415e+01
2.047572441782e+01
2.047572441782e+01
2.047572441782e+01
2.047572441782e+01
2.047572441782e+01
1.961260373586e+01
1.690679654879e+01
2.047572441782e+01
2.047572441782e+01
2.047572441782e+01
2.047572441782e+01
1.393356505086e+01
2.047572441782e+01
1.175148894643e+01
1.506014417214e+01
2.047572441782e+01
1.621344666264e+01
2.047572441782e+01
2.047572441782e+01
2.047572441782e+01
2.047572441782e+01
1.288474928452e+01
2.047572441782e+01
2.047572441782e+01
2.040808137492e+01
1.289244828770e+01
2.047572441782e+01
2.047572441782e+01
1.428227294917e+01
2.047572441782e+01
2.047572441782e+01
2.047572441782e+01
2.047572441782e+01
2.047572441782e+01
2.047572441782e+01
1.033631503397e+01
1.896935930472e+01
2.047572441782e+01
2.047572441782e+01
9.942980224499e+00
2.047572441782e+01
2.047572441782e+01
2.047572441782e+01
1.638000435905e+01
2.047572441782e+01
2.047572441782e+01
2.047572441782e+01
2.047572441782e+01
2.047572441782e+01
2.047572441782e+01
2.047572441782e+01
2.047572441782e+01
6.028421872921e+00
2.047572441782e+01
2.047572441782e+01
1.038150872255e+01
2.047572441782e+01
1.096825426896e+01
2.047572441782e+01
2.047572441782e+01
2.047572441782e+01
2.047572441782e+01
1.820685777383e+01
2.047572441782e+01
2.047572441782e+01
2.047572441782e+01
2.047572441782e+01
2.047572441782e+01
2.047572441782e+01
1.421027572012e+01
2.047572441782e+01
2.047572441782e+01
6.394584291333e+00
2.047572441782e+01
2.047572441782e+01
2.047572441782e+01
2.047572441782e+01
2.047572441782e+01
2.047572441782e+01
1.253983381523e+01
7.908494429728e+00
6.920433601164e+00
2.047572441782e+01
2.047572441782e+01
2.047572441782e+01
5.781801492351e+00
2.047572441782e+01
2.047572441782e+01
2.047572441782e+01
1.515392580599e+01
2.047572441782e+01
2.047572441782e+01
2.047572441782e+01
2.047572441782e+01
2.047572441782e+01
1.140269835731e+01
9.834651899066e+00
2.047572441782e+01
2.047572441782e+01
2.047572441782e+01
2.047572441782e+01
2.047572441782e+01
2.047572441782e+01
2.047572441782e+01
2.047572441782e+01
1.608194770749e+01
2.047572441782e+01
2.047572441782e+01
2.047572441782e+01
2.047572441782e+01
2.047572441782e+01
2.047572441782e+01
2.047572441782e+01
2.047572441782e+01
2.047572441782e+01
2.047572441782e+01
1.119557437786e+01
2.047572441782e+01
2.047572441782e+01
2.047572441782e+01
2.047572441782e+01
2.047572441782e+01
2.047572441782e+01
2.047572441782e+01
2.047572441782e+01
2.047572441782e+01
2.047572441782e+01
-2.354017219109e+01
2.047572441782e+01
2.047572441782e+01
2.047572441782e+01
9.186613907016e+00
2.047572441782e+01
2.047572441782e+01
2.047572441782e+01
1.548417049335e+01
2.047572441782e+01
2.002599551653e+01
2.047572441782e+01
2.047572441782e+01
2.047572441782e+01
2.047572441782e+01
2.047572441782e+01
2.047572441782e+01
2.047572441782e+01
1.011399921262e+01
2.047572441782e+01
2.047572441782e+01
2.047572441782e+01
1.787490504558e+01
1.682886231246e+01
2.047572441782e+01
2.047572441782e+01
2.047572441782e+01
2.047572441782e+01
2.047572441782e+01
2.047572441782e+01
2.047572441782e+01
2.047572441782e+01
2.047572441782e+01
2.047572441782e+01
2.047572441782e+01
2.047572441782e+01
2.047572441782e+01
2.047572441782e+01
2.047572441782e+01
2.047572441782e+01
2.047572441782e+01
1.273105875949e+01
2.047572441782e+01
2.047572441782e+01
2.047572441782e+01
2.047572441782e+01
2.047572441782e+01
2.047572441782e+01
1.994720463558e+01
2.047572441782e+01
1.864824115292e+01
1.816320722304e+01
2.047572441782e+01
2.047572441782e+01
1.929273822488e+01
2.047572441782e+01
2.047572441782e+01
1.958096245263e+01
2.047572441782e+01
2.047572441782e+01
1.773415821235e+01
2.047572441782e+01
7.136899744184e+00
1.588725496652e+01
2.047572441782e+01
2.047572441782e+01
1.828704495833e+01
2.047572441782e+01
1.396336680205e+01
2.047572441782e+01
2.047572441782e+01
1.513410226813e+01
2.047572441782e+01
2.047572441782e+01
2.047572441782e+01
7.928144578287e+00
4.309246116227e+00
2.047572441782e+01
2.047572441782e+01
2.047572441782e+01
2.047572441782e+01
2.047572441782e+01
2.047572441782e+01
2.047572441782e+01
2.047572441782e+01
1.870912413597e+01
2.020253786206e+01
1.757250960332e+01
2.047572441782e+01
1.674841265782e+01
2.047572441782e+01
1.823272567150e+01
1.450369737799e+01
2.047572441782e+01
2.047572441782e+01
1.498051831474e+01
1.744813181230e+01
1.492562344287e+01
1.379068913523e+01
2.047572441782e+01
2.047572441782e+01
2.047572441782e+01
2.047572441782e+01
2.047572441782e+01
2.047572441782e+01
1.640447042975e+01
2.047572441782e+01
2.047572441782e+01
2.047572441782e+01
2.047572441782e+01
2.047572441782e+01
2.047572441782e+01
2.047572441782e+01
1.884871366886e+01
2.047572441782e+01
1.239518782654e+01
3.157914611909e+00
2.047572441782e+01
2.047572441782e+01
2.047572441782e+01
2.020462207904e+01
2.047572441782e+01
2.047572441782e+01
1.152555262745e+01
2.047572441782e+01
2.047572441782e+01
2.047572441782e+01
1.927335275956e+01
2.047572441782e+01
2.047572441782e+01
2.047572441782e+01
2.047572441782e+01
2.047572441782e+01
1.492549015506e+01
2.047572441782e+01
2.047572441782e+01
2.002836456222e+01
1.305755135196e+01
2.047572441782e+01
1.589426759957e+01
2.047572441782e+01
2.047572441782e+01
2.047572441782e+01
1.846439960365e+01
1.675770207724e+01
2.047572441782e+01
2.047572441782e+01
2.047572441782e+01
1.832711400238e+01
2.047572441782e+01
2.047572441782e+01
1.406954531167e+01
2.047572441782e+01
2.047572441782e+01
2.047572441782e+01
2.047572441782e+01
2.047572441782e+01
2.047572441782e+01
2.047572441782e+01
2.047572441782e+01
2.047572441782e+01
2.047572441782e+01
2.047572441782e+01
1.413299496947e+01
2.047572441782e+01
2.047572441782e+01
2.047572441782e+01
2.047572441782e+01
2.047572441782e+01
2.047572441782e+01
2.047572441782e+01
2.047572441782e+01
1.693909413989e+01
2.047572441782e+01
1.256912399700e+01
2.032737693496e+01
1.624345033010e+01
1.728625306228e+01
2.047572441782e+01
2.047572441782e+01
1.548087922889e+01
2.047572441782e+01
2.047572441782e+01
2.047572441782e+01
2.047572441782e+01
2.047572441782e+01
2.047572441782e+01
2.047572441782e+01
2.047572441782e+01
2.047572441782e+01
1.850359944772e+01
1.933461129004e+01
2.047572441782e+01
1.681721971971e+01
2.047572441782e+01
2.047572441782e+01
2.047572441782e+01
2.047572441782e+01
2.047572441782e+01
2.047572441782e+01
2.047572441782e+01
2.047572441782e+01
2.047572441782e+01
2.047572441782e+01
2.047572441782e+01
2.047572441782e+01
2.047572441782e+01
1.755563444668e+01
2.047572441782e+01
2.047572441782e+01
2.047572441782e+01
2.047572441782e+01
1.717417775483e+01
2.047572441782e+01
2.047572441782e+01
1.611643133667e+01
1.703058313202e+01
2.047572441782e+01
2.047572441782e+01
2.047572441782e+01
1.981254139700e+01
2.047572441782e+01
2.047572441782e+01
2.047572441782e+01
2.047572441782e+01
2.047572441782e+01
1.584521177870e+01
2.047572441782e+01
2.047572441782e+01
2.047572441782e+01
1.666606851972e+01
2.047572441782e+01
1.280231968870e+01
2.047572441782e+01
2.047572441782e+01
2.047572441782e+01
2.047572441782e+01
1.819341592662e+01
2.047572441782e+01
2.047572441782e+01
2.047572441782e+01
2.047572441782e+01
2.047572441782e+01
2.047572441782e+01
2.047572441782e+01
2.047572441782e+01
2.047572441782e+01
2.047572441782e+01
1.899674661938e+01
2.047572441782e+01
1.963430459007e+01
2.047572441782e+01
1.818898517432e+01
1.574504097037e+01
2.022831314794e+01
2.047572441782e+01
2.047572441782e+01
1.502982540045e+01
1.934890223740e+01
1.714559997965e+01
2.047572441782e+01
2.047572441782e+01
1.810456214738e+01
2.047572441782e+01
2.047572441782e+01
2.047572441782e+01
1.647826875519e+01
2.047572441782e+01
2.047572441782e+01
2.047572441782e+01
2.047572441782e+01
2.047572441782e+01
2.047572441782e+01
1.940048628133e+01
1.979280854585e+01
2.047572441782e+01
2.047572441782e+01
2.047572441782e+01
1.565627865269e+01
2.047572441782e+01
2.047572441782e+01
1.387720865609e+01
2.047572441782e+01
2.047572441782e+01
2.047572441782e+01
2.047572441782e+01
2.675667337266e+00
2.047572441782e+01
2.047572441782e+01
1.407424928697e+01
2.047572441782e+01
2.047572441782e+01
2.047572441782e+01
2.047572441782e+01
2.047572441782e+01
2.047572441782e+01
1.460739298861e+01
2.047572441782e+01
2.047572441782e+01
2.047572441782e+01
2.047572441782e+01
2.047572441782e+01
2.047572441782e+01
1.890618930815e+01
2.047572441782e+01
2.047572441782e+01
2.047572441782e+01
2.047572441782e+01
2.047572441782e+01
2.047572441782e+01
2.047572441782e+01
1.329160847424e+01
2.047572441782e+01
2.047572441782e+01
6.637825395368e+00
6.520695049453e+00
1.918234032917e+01
2.047572441782e+01
2.047572441782e+01
2.025577433277e+01
2.047572441782e+01
2.047572441782e+01
2.047572441782e+01
2.047572441782e+01
1.498709056297e+01
2.047572441782e+01
2.047572441782e+01
2.047572441782e+01
2.047572441782e+01
2.047572441782e+01
2.047572441782e+01
1.482511968728e+01
2.047572441782e+01
2.047572441782e+01
2.047572441782e+01
2.047572441782e+01
2.047572441782e+01
1.972814092485e+01
1.983912292296e+01
2.047572441782e+01
2.047572441782e+01
2.047572441782e+01
2.047572441782e+01
2.047572441782e+01
2.047572441782e+01
2.047572441782e+01
1.570788867052e+01
2.047572441782e+01
2.047572441782e+01
2.047572441782e+01
2.047572441782e+01
2.047572441782e+01
1.766525334631e+01
2.047572441782e+01
2.047572441782e+01
2.047572441782e+01
2.047572441782e+01
2.047572441782e+01
2.047572441782e+01
1.771081266118e+01
2.047572441782e+01
1.989124983740e+01
2.047572441782e+01
2.047572441782e+01
2.047572441782e+01
1.855747510685e+01
2.047572441782e+01
2.047572441782e+01
2.047572441782e+01
2.047572441782e+01
2.047572441782e+01
2.047572441782e+01
1.650787304649e+01
2.047572441782e+01
2.047572441782e+01
1.947711567675e+01
2.047572441782e+01
2.047572441782e+01
2.047572441782e+01
2.047572441782e+01
2.047572441782e+01
2.047572441782e+01
2.047572441782e+01
1.981632010910e+01
2.047572441782e+01
2.047572441782e+01
2.047572441782e+01
2.047572441782e+01
2.047572441782e+01
2.047572441782e+01
2.047572441782e+01
2.047572441782e+01
2.018388829163e+01
2.047572441782e+01
2.030095781790e+01
2.047572441782e+01
2.047572441782e+01
2.047572441782e+01
1.490010763671e+01
2.047572441782e+01
2.047572441782e+01
1.879185686492e+01
2.047572441782e+01
2.047572441782e+01
2.047572441782e+01
2.047572441782e+01
2.008860679261e+01
2.047572441782e+01
2.047572441782e+01
2.047572441782e+01
2.047572441782e+01
1.595443935986e+01
1.522810227543e+01
2.047572441782e+01
2.047572441782e+01
2.047572441782e+01
2.047572441782e+01
2.047572441782e+01
2.047572441782e+01
2.047572441782e+01
2.047572441782e+01
2.047572441782e+01
2.047572441782e+01
1.584406473224e+01
6.698775946718e+00
2.047572441782e+01
2.047572441782e+01
2.047572441782e+01
2.047572441782e+01
2.047572441782e+01
2.047572441782e+01
2.047572441782e+01
2.047572441782e+01
2.047572441782e+01
2.047572441782e+01
2.047572441782e+01
2.047572441782e+01
2.046827818571e+01
2.047572441782e+01
2.047572441782e+01
2.047572441782e+01
2.047572441782e+01
2.047572441782e+01
2.047572441782e+01
2.039734821103e+01
3.397814892892e+00
2.047572441782e+01
1.449146568660e+01
2.047572441782e+01
2.047572441782e+01
2.047572441782e+01
1.674478828139e+01
2.047572441782e+01
2.047572441782e+01
2.047572441782e+01
2.047572441782e+01
2.047572441782e+01
2.047572441782e+01
2.047572441782e+01
2.047572441782e+01
2.047572441782e+01
2.047572441782e+01
2.047572441782e+01
2.047572441782e+01
2.047572441782e+01
2.047572441782e+01
2.047572441782e+01
2.047572441782e+01
1.547824238879e+01
1.756160992063e+01
2.047572441782e+01
2.047572441782e+01
-5.930995978175e+00
2.047572441782e+01
2.047572441782e+01
2.047572441782e+01
2.047572441782e+01
2.047572441782e+01
2.047572441782e+01
1.882888194470e+01
2.047572441782e+01
2.047572441782e+01
2.047572441782e+01
5.914370559594e+00
2.047572441782e+01
2.047572441782e+01
2.047572441782e+01
2.047572441782e+01
2.047572441782e+01
2.047572441782e+01
1.152643493058e+01
7.829717378365e+00
2.047572441782e+01
2.047572441782e+01
2.047572441782e+01
2.015495476983e+01
2.047572441782e+01
2.047572441782e+01
2.047572441782e+01
2.047572441782e+01
2.047572441782e+01
2.047572441782e+01
2.047572441782e+01
1.782072981903e+01
2.047572441782e+01
2.047572441782e+01
2.047572441782e+01
2.712979951588e+00
1.744799305010e+01
2.047572441782e+01
2.047572441782e+01
2.047572441782e+01
2.047572441782e+01
2.047572441782e+01
2.047572441782e+01
2.047572441782e+01
4.829708529569e+00
2.047572441782e+01
2.047572441782e+01
2.047572441782e+01
2.047572441782e+01
2.047572441782e+01
2.047572441782e+01
2.047572441782e+01
1.391545540541e+01
2.045984706185e+01
2.047572441782e+01
1.428192972954e+00
2.047572441782e+01
2.047572441782e+01
2.047572441782e+01
2.047572441782e+01
1.852122799856e+01
1.832490202048e+01
1.846610277326e+01
2.047572441782e+01
2.047572441782e+01
2.047572441782e+01
2.047572441782e+01
1.794410086149e+01
2.047572441782e+01
2.047572441782e+01
2.047572441782e+01
2.047572441782e+01
2.047572441782e+01
1.953726199780e+01
2.047572441782e+01
2.047572441782e+01
2.047572441782e+01
-7.044312158975e-01
2.047572441782e+01
1.896541425042e+01
2.047572441782e+01
2.047572441782e+01
2.047572441782e+01
2.047572441782e+01
2.047572441782e+01
2.047572441782e+01
2.047572441782e+01
2.047572441782e+01
2.047572441782e+01
2.047572441782e+01
2.047572441782e+01
2.047572441782e+01
1.415999953084e+01
2.047572441782e+01
2.047572441782e+01
1.907138628064e+01
2.047572441782e+01
2.047572441782e+01
2.047572441782e+01
2.047572441782e+01
1.352888425888e+01
2.047572441782e+01
2.047572441782e+01
2.047572441782e+01
2.047572441782e+01
2.047572441782e+01
1.044216937069e+01
2.047572441782e+01
1.697359665124e+01
2.047572441782e+01
2.047572441782e+01
-4.280517967789e+00
1.865081124327e+01
1.747822892077e+01
5.791654869568e+00
2.047572441782e+01
2.047572441782e+01
2.047572441782e+01
2.047572441782e+01
2.047572441782e+01
2.047572441782e+01
2.047572441782e+01
7.384685481361e+00
2.047572441782e+01
2.047572441782e+01
2.047572441782e+01
2.047572441782e+01
2.047572441782e+01
2.012147570785e+01
2.047572441782e+01
2.047572441782e+01
2.047572441782e+01
2.047572441782e+01
1.976556913092e+01
2.047572441782e+01
2.047572441782e+01
2.047572441782e+01
2.047572441782e+01
2.047572441782e+01
2.047572441782e+01
2.047572441782e+01
9.597693520494e+00
2.047572441782e+01
2.047572441782e+01
2.047572441782e+01
1.618363155535e+00
1.941376916080e+01
2.047572441782e+01
2.047572441782e+01
2.047572441782e+01
2.047572441782e+01
-3.936882843729e+00
2.047572441782e+01
2.047572441782e+01
2.047572441782e+01
2.047572441782e+01
2.017989584485e+01
2.047572441782e+01
6.041433426282e+00
2.047572441782e+01
2.047572441782e+01
2.047572441782e+01
2.047572441782e+01
2.047572441782e+01
2.047572441782e+01
7.603906387982e+00
-2.958874929243e+00
2.047572441782e+01
2.047572441782e+01
2.047572441782e+01
2.047572441782e+01
2.047572441782e+01
2.047572441782e+01
5.090745981684e+00
1.783603526051e+01
2.047572441782e+01
1.845860055904e+01
1.646899050375e+01
2.006126361095e+01
2.047572441782e+01
1.333766634698e+00
2.047572441782e+01
2.047572441782e+01
2.047572441782e+01
2.047572441782e+01
1.985644238608e+01
2.002321495619e+01
2.047572441782e+01
3.799505870708e+00
1.860016478848e+01
2.047572441782e+01
2.047572441782e+01
2.047572441782e+01
2.280019043556e+00
2.047572441782e+01
2.047572441782e+01
1.282371993795e+01
2.047572441782e+01
2.047572441782e+01
1.904127764556e+00
1.655136725729e+00
3.641882386794e+00
2.047572441782e+01
2.047572441782e+01
1.943571378096e+01
8.633854298504e+00
2.047572441782e+01
2.047572441782e+01
2.023504966778e+01
1.888222659851e+01
2.023885452310e+01
2.047572441782e+01
2.047572441782e+01
-7.298991929472e+00
2.047572441782e+01
2.047572441782e+01
2.047572441782e+01
1.748627851987e+00
2.047572441782e+01
1.595336458751e+01
2.047572441782e+01
2.044823390848e+01
9.602978664950e+00
1.937709131438e+01
2.047572441782e+01
9.389267687985e+00
-3.445362504848e+00
1.961824232156e+01
2.047572441782e+01
1.891538110239e+01
2.047572441782e+01
2.047572441782e+01
2.047572441782e+01
9.664028372932e+00
2.029258013867e+01
2.047572441782e+01
2.047572441782e+01
1.525190738538e+01
2.047572441782e+01
6.640318502018e+00
2.047572441782e+01
2.047572441782e+01
2.047572441782e+01
2.047572441782e+01
2.037733131638e+01
1.994458485610e+01
2.496870203584e+00
1.366099451067e+01
2.047572441782e+01
2.047572441782e+01
2.018447868624e+01
1.080854090306e+01
2.047572441782e+01
8.493811882196e+00
2.004220722326e+01
2.004563518693e+01
2.043678952793e+01
-4.334133651702e+01
-2.022847770570e+01
4.461482271998e+00
8.659456710635e+00
2.047572441782e+01
2.047572441782e+01
2.047572441782e+01
-9.515494372611e-01
2.047572441782e+01
2.047572441782e+01
2.047572441782e+01
2.047572441782e+01
2.047572441782e+01
2.047572441782e+01
1.064243856783e+01
2.047572441782e+01
2.047572441782e+01
2.047572441782e+01
2.042180442061e+01
2.047572441782e+01
1.813200143579e+01
2.047572441782e+01
6.113326296728e+00
2.047572441782e+01
2.047572441782e+01
2.047572441782e+01
8.406595211114e+00
2.047572441782e+01
2.047572441782e+01
2.047572441782e+01
1.957518653522e+00
2.047572441782e+01
2.047572441782e+01
2.047572441782e+01
1.289370908204e+01
2.047572441782e+01
2.047572441782e+01
2.047572441782e+01
2.047572441782e+01
-2.199288616428e+00
2.047572441782e+01
2.047572441782e+01
1.091985193451e+01
2.047572441782e+01
1.883040103836e+01
2.047572441782e+01
1.085636690691e+01
1.428802320575e+01
2.047572441782e+01
1.359217855708e+01
2.047572441782e+01
1.954351024843e+01
2.047572441782e+01
2.047572441782e+01
4.218179796981e+00
2.047572441782e+01
2.047572441782e+01
1.307727929178e+01
2.047572441782e+01
2.029557534693e+01
1.935318088989e+01
2.047572441782e+01
1.903663829210e+01
2.047572441782e+01
2.047572441782e+01
2.047572441782e+01
2.047572441782e+01
2.047572441782e+01
-2.997417800645e+00
1.412255197917e+01
2.047572441782e+01
1.030551213886e+01
2.047572441782e+01
2.047572441782e+01
2.047572441782e+01
1.569840799433e+01
2.047572441782e+01
2.047572441782e+01
2.047572441782e+01
2.047572441782e+01
2.047572441782e+01
5.585030142794e+00
1.846878831363e+01
2.047572441782e+01
1.752332692532e+01
1.303114696584e+01
2.047572441782e+01
2.047572441782e+01
2.047572441782e+01
1.979718749491e+01
1.867646100987e+01
2.047572441782e+01
5.510078789617e+00
8.228207158437e+00
3.681454296420e+00
1.361494881059e+01
2.047572441782e+01
1.302071296655e+01
2.036623206947e+01
2.047572441782e+01
2.047572441782e+01
1.509449143601e+01
2.047572441782e+01
2.047572441782e+01
2.047572441782e+01
2.047572441782e+01
2.047572441782e+01
2.047572441782e+01
1.953331250863e+01
1.006695570072e+00
2.047572441782e+01
2.047572441782e+01
2.047572441782e+01
1.064408625048e+01
1.754664690394e+01
2.047572441782e+01
2.047572441782e+01
1.894894218819e+01
2.047572441782e+01
2.047572441782e+01
8.576861276141e+00
2.047572441782e+01
2.047572441782e+01
8.724556873082e+00
2.047572441782e+01
2.047572441782e+01
2.047572441782e+01
1.332062019747e+01
2.047572441782e+01
2.023595640024e+01
2.047572441782e+01
1.870131984090e+01
2.047572441782e+01
2.047572441782e+01
3.250281100444e+00
2.047572441782e+01
2.005414019885e+01
2.047572441782e+01
1.908603506053e+00
2.047572441782e+01
2.047572441782e+01
1.969798833542e+01
1.180550652552e+01
2.047572441782e+01
2.047572441782e+01
-5.793379682120e+00
2.047572441782e+01
1.473558099950e+01
1.980349181603e+01
2.047572441782e+01
1.153801520851e+01
2.047572441782e+01
1.994445170240e+01
1.322328977477e+01
2.047572441782e+01
2.018511649060e+01
8.377598259921e+00
2.047572441782e+01
1.964884514985e+01
-3.344814490265e+01
8.436145327510e+00
2.047572441782e+01
2.047572441782e+01
2.047572441782e+01
2.031162407758e+01
1.937255594336e+01
2.047572441782e+01
8.748761702755e+00
2.047572441782e+01
1.677951986856e+01
1.964081233637e+01
2.047572441782e+01
1.052023581777e+01
2.047572441782e+01
7.294631779760e+00
2.047572441782e+01
2.047572441782e+01
9.885936399584e+00
2.039672637860e+01
2.047572441782e+01
2.047572441782e+01
2.047572441782e+01
2.042738266582e+01
2.047572441782e+01
1.764336366705e+01
2.047572441782e+01
2.047572441782e+01
1.692352298055e+01
1.968509389246e+01
2.047572441782e+01
2.123353286300e+00
1.041903529948e+01
2.042465428125e+01
2.047572441782e+01
2.047572441782e+01
2.047572441782e+01
2.047572441782e+01
2.047572441782e+01
9.089735004774e-01
1.998558759158e+01
2.047572441782e+01
7.328891918065e+00
2.047572441782e+01
2.047572441782e+01
2.047572441782e+01
5.566965615617e+00
2.047572441782e+01
2.047572441782e+01
1.899830018081e+01
2.030749242551e+01
5.607192384333e-02
2.047572441782e+01


