# vtk DataFile Version 2.0
Calculation C:\Users\johan\Documents\GitHub\TOCHNOG\standsicherheit_phiC at time 1.000000000000e+01 
ASCII
DATASET UNSTRUCTURED_GRID
Field FieldData 1
Time 1 1 double
1.000000000000e+01

POINTS 1047 float
0.0 0.0 0.0 
5.000000000000e+01 -1.000000000000e+01 0.0 
0.0 -2.000000000000e+01 0.0 
5.000000000000e+01 -2.000000000000e+01 0.0 
0.0 -9.999999999991e-01 0.0 
0.0 -1.999999999998e+00 0.0 
0.0 -2.999999999997e+00 0.0 
0.0 -3.999999999994e+00 0.0 
0.0 -4.999999999991e+00 0.0 
0.0 -5.999999999988e+00 0.0 
0.0 -6.999999999985e+00 0.0 
0.0 -7.999999999982e+00 0.0 
0.0 -8.999999999983e+00 0.0 
0.0 -9.999999999985e+00 0.0 
0.0 -1.099999999999e+01 0.0 
0.0 -1.199999999999e+01 0.0 
0.0 -1.299999999999e+01 0.0 
0.0 -1.399999999999e+01 0.0 
0.0 -1.499999999999e+01 0.0 
0.0 -1.599999999999e+01 0.0 
0.0 -1.700000000000e+01 0.0 
0.0 -1.800000000000e+01 0.0 
0.0 -1.900000000000e+01 0.0 
4.900000000001e+01 -2.000000000000e+01 0.0 
4.800000000001e+01 -2.000000000000e+01 0.0 
4.700000000002e+01 -2.000000000000e+01 0.0 
4.600000000003e+01 -2.000000000000e+01 0.0 
4.500000000004e+01 -2.000000000000e+01 0.0 
4.400000000004e+01 -2.000000000000e+01 0.0 
4.300000000005e+01 -2.000000000000e+01 0.0 
4.200000000006e+01 -2.000000000000e+01 0.0 
4.100000000006e+01 -2.000000000000e+01 0.0 
4.000000000007e+01 -2.000000000000e+01 0.0 
3.900000000008e+01 -2.000000000000e+01 0.0 
3.800000000009e+01 -2.000000000000e+01 0.0 
3.700000000009e+01 -2.000000000000e+01 0.0 
3.600000000010e+01 -2.000000000000e+01 0.0 
3.500000000011e+01 -2.000000000000e+01 0.0 
3.400000000011e+01 -2.000000000000e+01 0.0 
3.300000000012e+01 -2.000000000000e+01 0.0 
3.200000000013e+01 -2.000000000000e+01 0.0 
3.100000000013e+01 -2.000000000000e+01 0.0 
3.000000000013e+01 -2.000000000000e+01 0.0 
2.900000000013e+01 -2.000000000000e+01 0.0 
2.800000000013e+01 -2.000000000000e+01 0.0 
2.700000000013e+01 -2.000000000000e+01 0.0 
2.600000000013e+01 -2.000000000000e+01 0.0 
2.500000000013e+01 -2.000000000000e+01 0.0 
2.400000000013e+01 -2.000000000000e+01 0.0 
2.300000000013e+01 -2.000000000000e+01 0.0 
2.200000000013e+01 -2.000000000000e+01 0.0 
2.100000000013e+01 -2.000000000000e+01 0.0 
2.000000000013e+01 -2.000000000000e+01 0.0 
1.900000000013e+01 -2.000000000000e+01 0.0 
1.800000000013e+01 -2.000000000000e+01 0.0 
1.700000000012e+01 -2.000000000000e+01 0.0 
1.600000000011e+01 -2.000000000000e+01 0.0 
1.500000000011e+01 -2.000000000000e+01 0.0 
1.400000000010e+01 -2.000000000000e+01 0.0 
1.300000000009e+01 -2.000000000000e+01 0.0 
1.200000000009e+01 -2.000000000000e+01 0.0 
1.100000000008e+01 -2.000000000000e+01 0.0 
1.000000000007e+01 -2.000000000000e+01 0.0 
9.000000000064e+00 -2.000000000000e+01 0.0 
8.000000000057e+00 -2.000000000000e+01 0.0 
7.000000000050e+00 -2.000000000000e+01 0.0 
6.000000000043e+00 -2.000000000000e+01 0.0 
5.000000000036e+00 -2.000000000000e+01 0.0 
4.000000000028e+00 -2.000000000000e+01 0.0 
3.000000000021e+00 -2.000000000000e+01 0.0 
2.000000000014e+00 -2.000000000000e+01 0.0 
1.000000000007e+00 -2.000000000000e+01 0.0 
5.000000000000e+01 -1.100000000000e+01 0.0 
5.000000000000e+01 -1.200000000000e+01 0.0 
5.000000000000e+01 -1.300000000000e+01 0.0 
5.000000000000e+01 -1.400000000000e+01 0.0 
5.000000000000e+01 -1.500000000000e+01 0.0 
5.000000000000e+01 -1.600000000000e+01 0.0 
5.000000000000e+01 -1.700000000000e+01 0.0 
5.000000000000e+01 -1.800000000000e+01 0.0 
5.000000000000e+01 -1.900000000000e+01 0.0 
2.000000000000e+01 0.0 0.0 
3.500000000000e+01 -1.000000000000e+01 0.0 
2.150000000000e+01 -1.000000000000e+00 0.0 
2.300000000000e+01 -2.000000000000e+00 0.0 
2.450000000000e+01 -3.000000000000e+00 0.0 
2.600000000000e+01 -4.000000000000e+00 0.0 
2.750000000000e+01 -5.000000000000e+00 0.0 
2.900000000000e+01 -6.000000000000e+00 0.0 
3.050000000000e+01 -7.000000000000e+00 0.0 
3.200000000000e+01 -8.000000000000e+00 0.0 
3.350000000000e+01 -9.000000000000e+00 0.0 
5.000000000000e+01 -9.000000000000e+00 0.0 
4.900000000000e+01 -1.000000000000e+01 0.0 
4.800000000000e+01 -1.000000000000e+01 0.0 
4.700000000000e+01 -1.000000000000e+01 0.0 
4.600000000000e+01 -1.000000000000e+01 0.0 
4.500000000000e+01 -1.000000000000e+01 0.0 
4.400000000000e+01 -1.000000000000e+01 0.0 
4.300000000000e+01 -1.000000000000e+01 0.0 
4.200000000000e+01 -1.000000000000e+01 0.0 
4.100000000000e+01 -1.000000000000e+01 0.0 
4.000000000000e+01 -1.000000000000e+01 0.0 
3.900000000000e+01 -1.000000000000e+01 0.0 
3.800000000000e+01 -1.000000000000e+01 0.0 
3.700000000000e+01 -1.000000000000e+01 0.0 
3.600000000000e+01 -1.000000000000e+01 0.0 
1.900000000000e+01 0.0 0.0 
1.800000000000e+01 0.0 0.0 
1.700000000000e+01 0.0 0.0 
1.600000000000e+01 0.0 0.0 
1.500000000000e+01 0.0 0.0 
1.400000000000e+01 0.0 0.0 
1.300000000000e+01 0.0 0.0 
1.200000000000e+01 0.0 0.0 
1.100000000000e+01 0.0 0.0 
1.000000000000e+01 0.0 0.0 
9.000000000000e+00 0.0 0.0 
8.000000000000e+00 0.0 0.0 
7.000000000000e+00 0.0 0.0 
6.000000000000e+00 0.0 0.0 
5.000000000000e+00 0.0 0.0 
4.000000000000e+00 0.0 0.0 
3.000000000000e+00 0.0 0.0 
2.000000000000e+00 0.0 0.0 
1.000000000000e+00 0.0 0.0 
3.447058823527e+01 -9.000000000000e+00 0.0 
3.544117647055e+01 -9.000000000000e+00 0.0 
3.641176470582e+01 -9.000000000000e+00 0.0 
3.738235294109e+01 -9.000000000000e+00 0.0 
3.835294117637e+01 -9.000000000000e+00 0.0 
3.932352941164e+01 -9.000000000000e+00 0.0 
4.029411764691e+01 -9.000000000000e+00 0.0 
4.126470588219e+01 -9.000000000000e+00 0.0 
4.223529411748e+01 -9.000000000000e+00 0.0 
4.320588235279e+01 -9.000000000000e+00 0.0 
4.417647058811e+01 -9.000000000000e+00 0.0 
4.514705882342e+01 -9.000000000000e+00 0.0 
4.611764705874e+01 -9.000000000000e+00 0.0 
4.708823529405e+01 -9.000000000000e+00 0.0 
4.805882352937e+01 -9.000000000000e+00 0.0 
4.902941176468e+01 -9.000000000000e+00 0.0 
2.075000000000e+01 -5.000000000006e-01 0.0 
2.225000000000e+01 -1.500000000000e+00 0.0 
2.375000000000e+01 -2.500000000000e+00 0.0 
2.525000000000e+01 -3.500000000000e+00 0.0 
2.675000000000e+01 -4.500000000000e+00 0.0 
2.825000000000e+01 -5.500000000000e+00 0.0 
2.975000000000e+01 -6.500000000000e+00 0.0 
3.125000000000e+01 -7.500000000000e+00 0.0 
3.275000000000e+01 -8.500000000000e+00 0.0 
3.425000000000e+01 -9.500000000000e+00 0.0 
2.226951693683e+01 -2.403913980114e+00 0.0 
1.650149491944e+01 -1.913490915758e+01 0.0 
1.050042386896e+01 -8.504605092970e-01 0.0 
1.553146524712e+01 -8.281255032105e-01 0.0 
1.150000000008e+01 -1.913397459621e+01 0.0 
2.530060260647e+01 -4.428336431260e+00 0.0 
8.651114563942e-01 -1.052096295641e+01 0.0 
2.050000000013e+01 -1.913397459622e+01 0.0 
2.819198729811e+01 -6.399519052838e+00 0.0 
2.445670302931e+01 -1.915649188023e+01 0.0 
3.117591465718e+01 -8.394293040695e+00 0.0 
7.465053044742e+00 -1.920411160581e+01 0.0 
6.398295709691e+00 -8.230098819370e-01 0.0 
2.849659607461e+01 -1.914296187762e+01 0.0 
3.418732642882e+01 -1.040265792588e+01 0.0 
8.386450935063e-01 -6.533605142809e+00 0.0 
9.178661865596e-01 -1.329769195597e+01 0.0 
3.149448624493e+01 -1.910466733764e+01 0.0 
3.552916747426e+01 -1.914628590759e+01 0.0 
4.449210346537e+01 -1.914359085008e+01 0.0 
4.140975975145e+01 -1.906941860733e+01 0.0 
3.847475958753e+01 -1.916622382724e+01 0.0 
3.653774794640e+01 -1.088712800241e+01 0.0 
4.047886341787e+01 -1.090139014048e+01 0.0 
4.348006339825e+01 -1.092792621489e+01 0.0 
4.919519968029e+01 -1.451526755068e+01 0.0 
4.500000000032e+00 -1.913397459621e+01 0.0 
1.856136921614e+01 -8.212235170404e-01 0.0 
3.499895312306e+00 -8.661165539723e-01 0.0 
9.076088696565e-01 -1.642306201891e+01 0.0 
4.655174095477e+01 -1.086183387525e+01 0.0 
9.430688970604e-01 -3.496112672958e+00 0.0 
3.353992337063e+01 -1.901202090820e+01 0.0 
2.249746016977e+01 -1.921262287282e+01 0.0 
2.650122741777e+01 -1.916123026018e+01 0.0 
1.863571384842e+01 -1.908325534840e+01 0.0 
1.450089971693e+01 -1.917691901860e+01 0.0 
1.350044695317e+01 -8.659695299584e-01 0.0 
3.849987469880e+01 -1.084154983397e+01 0.0 
9.454419857884e+00 -1.900818879936e+01 0.0 
4.917398660523e+01 -1.645692866081e+01 0.0 
8.500000000000e+00 -8.660254037844e-01 0.0 
8.660319230785e-01 -8.500111697188e+00 0.0 
4.649022621545e+01 -1.930506220113e+01 0.0 
2.667688107845e+01 -5.420288124331e+00 0.0 
2.379251615665e+01 -3.412225477429e+00 0.0 
2.966631491830e+01 -7.389030232731e+00 0.0 
3.267915035995e+01 -9.396934932445e+00 0.0 
2.074836922338e+01 -1.320054020319e+00 0.0 
4.915985743621e+01 -1.261973384855e+01 0.0 
2.527129768623e+00 -1.931592414663e+01 0.0 
1.538676247410e+00 -8.436956619311e-01 0.0 
4.908096641539e+01 -1.842484004551e+01 0.0 
3.478612492673e+01 -1.090889364140e+01 0.0 
3.409757055860e+01 -1.131991530427e+01 0.0 
3.501895309466e+01 -1.177687842717e+01 0.0 
3.407758073088e+01 -1.224293381580e+01 0.0 
3.484541875390e+01 -1.277051428430e+01 0.0 
3.400322025842e+01 -1.319022775640e+01 0.0 
3.321672625034e+01 -1.266779191233e+01 0.0 
3.315244139236e+01 -1.360984106532e+01 0.0 
3.236335186892e+01 -1.308463225210e+01 0.0 
3.478337442841e+01 -1.372341158982e+01 0.0 
3.230105923633e+01 -1.403023731610e+01 0.0 
3.150954055289e+01 -1.350301767700e+01 0.0 
3.144604792090e+01 -1.444931742516e+01 0.0 
3.065653897123e+01 -1.392357262981e+01 0.0 
3.071897610812e+01 -1.297447031198e+01 0.0 
2.986790411740e+01 -1.339226181535e+01 0.0 
2.993181466745e+01 -1.244703272398e+01 0.0 
2.908023061869e+01 -1.286254537734e+01 0.0 
2.901619051372e+01 -1.380881655279e+01 0.0 
2.822986160390e+01 -1.327695262116e+01 0.0 
2.829453476870e+01 -1.233265343811e+01 0.0 
2.744542905518e+01 -1.274510491105e+01 0.0 
2.751120089246e+01 -1.180368086886e+01 0.0 
2.666218649885e+01 -1.221619339205e+01 0.0 
2.672371209234e+01 -1.127125228527e+01 0.0 
2.587763216302e+01 -1.168539979114e+01 0.0 
2.581165585299e+01 -1.262994410089e+01 0.0 
2.502890882577e+01 -1.209827323619e+01 0.0 
2.509631327757e+01 -1.115492410304e+01 0.0 
2.424662989877e+01 -1.156630981079e+01 0.0 
2.431704046904e+01 -1.062389179334e+01 0.0 
2.346445438728e+01 -1.103427680694e+01 0.0 
2.339382552877e+01 -1.197964871788e+01 0.0 
2.260936050780e+01 -1.144513277642e+01 0.0 
2.268075012022e+01 -1.049911928216e+01 0.0 
2.182525737661e+01 -1.090920811464e+01 0.0 
2.189682319817e+01 -9.961716944568e+00 0.0 
2.104174127792e+01 -1.037266986667e+01 0.0 
2.111304367575e+01 -9.424179358711e+00 0.0 
2.025306185381e+01 -9.832727364719e+00 0.0 
2.018141124247e+01 -1.079140628871e+01 0.0 
1.938594498257e+01 -1.025147354112e+01 0.0 
1.946106490453e+01 -9.288010758448e+00 0.0 
1.858929958352e+01 -9.706319802516e+00 0.0 
1.851540991219e+01 -1.067205988724e+01 0.0 
1.771485303178e+01 -1.012504443115e+01 0.0 
1.764134552256e+01 -1.109360378538e+01 0.0 
1.683745148095e+01 -1.054496365337e+01 0.0 
1.691852964353e+01 -9.582555261178e+00 0.0 
1.603603813062e+01 -1.000160132379e+01 0.0 
1.595824239350e+01 -1.096750698862e+01 0.0 
1.515080624291e+01 -1.041639501931e+01 0.0 
1.523171602559e+01 -9.451711491453e+00 0.0 
1.434621060709e+01 -9.871956467464e+00 0.0 
1.426777178765e+01 -1.083749501371e+01 0.0 
1.345775282374e+01 -1.028803175500e+01 0.0 
1.354103873368e+01 -9.324918457162e+00 0.0 
1.265072018622e+01 -9.742612837270e+00 0.0 
1.257285762070e+01 -1.071557782384e+01 0.0 
1.175874815690e+01 -1.015972324288e+01 0.0 
1.184203019714e+01 -9.193604071377e+00 0.0 
1.094927709905e+01 -9.612103238656e+00 0.0 
1.086938022910e+01 -1.058685085646e+01 0.0 
1.005424098961e+01 -1.002939116380e+01 0.0 
9.977974613295e+00 -1.101324897989e+01 0.0 
1.012915646404e+01 -9.051815821181e+00 0.0 
9.237127782494e+00 -9.471239055559e+00 0.0 
9.308426593771e+00 -8.483376461131e+00 0.0 
8.418806073345e+00 -8.910712374517e+00 0.0 
2.253688464062e+01 -1.239459402279e+01 0.0 
8.495126726666e+00 -7.921646665254e+00 0.0 
9.389727383206e+00 -7.512103628377e+00 0.0 
7.601560812974e+00 -8.349460349344e+00 0.0 
7.525680547759e+00 -9.339736686940e+00 0.0 
7.677888324502e+00 -7.359727833346e+00 0.0 
6.782001206724e+00 -7.788454494773e+00 0.0 
6.858778622885e+00 -6.797338062822e+00 0.0 
2.196596590865e+01 -8.979025665442e+00 0.0 
2.816540108272e+01 -1.422634142353e+01 0.0 
5.961601194403e+00 -7.226824010712e+00 0.0 
6.038171749656e+00 -6.234825887079e+00 0.0 
6.936257279557e+00 -5.805287640737e+00 0.0 
6.115068918323e+00 -5.242109758768e+00 0.0 
3.564391741903e+01 -1.329240553876e+01 0.0 
3.558115605778e+01 -1.425902892003e+01 0.0 
3.645445282201e+01 -1.381970786460e+01 0.0 
3.639744204358e+01 -1.479198128612e+01 0.0 
3.727266909778e+01 -1.435399586226e+01 0.0 
5.216667013081e+00 -5.671788584287e+00 0.0 
3.220697293295e+01 -1.499594545107e+01 0.0 
3.551112158269e+01 -1.523479869250e+01 0.0 
2.836056961467e+01 -1.139032434851e+01 0.0 
2.516730388602e+01 -1.021382726837e+01 0.0 
1.844436907403e+01 -1.164097215196e+01 0.0 
5.885434318740e+00 -8.218694781467e+00 0.0 
5.064071066867e+00 -7.656614643901e+00 0.0 
4.988089103470e+00 -8.649722082718e+00 0.0 
1.079421050408e+01 -1.157014985435e+01 0.0 
9.902420005256e+00 -1.199903342656e+01 0.0 
1.071994252214e+01 -1.255727909771e+01 0.0 
9.826974788171e+00 -1.298659581767e+01 0.0 
1.064607883789e+01 -1.354595476388e+01 0.0 
9.751541265343e+00 -1.397556905071e+01 0.0 
8.932296185869e+00 -1.341553353988e+01 0.0 
8.856399248106e+00 -1.440570715508e+01 0.0 
8.036186803543e+00 -1.384470558472e+01 0.0 
1.057112875118e+01 -1.453516759081e+01 0.0 
1.146582585687e+01 -1.410539926903e+01 0.0 
7.959894480382e+00 -1.483563350928e+01 0.0 
7.138792279156e+00 -1.427465094140e+01 0.0 
7.062506792418e+00 -1.526615385482e+01 0.0 
6.240693558277e+00 -1.470508863040e+01 0.0 
6.316957575451e+00 -1.371212581281e+01 0.0 
5.418183007107e+00 -1.414253605022e+01 0.0 
5.494748364428e+00 -1.314886770603e+01 0.0 
1.756825565873e+01 -1.206433872514e+01 0.0 
1.837565773345e+01 -1.261356468266e+01 0.0 
1.749574831391e+01 -1.303769280014e+01 0.0 
1.830539187332e+01 -1.358828364284e+01 0.0 
1.742278925170e+01 -1.401367746928e+01 0.0 
1.823303007798e+01 -1.456432294258e+01 0.0 
1.734941694138e+01 -1.499213734361e+01 0.0 
1.653760041637e+01 -1.443920312098e+01 0.0 
3.056237977307e+01 -1.487132260174e+01 0.0 
1.866469084762e+01 -8.742953000418e+00 0.0 
1.953669694916e+01 -8.326038909849e+00 0.0 
1.874194303780e+01 -7.780688158966e+00 0.0 
1.961032016741e+01 -7.366854697285e+00 0.0 
1.881715755159e+01 -6.821102209649e+00 0.0 
1.968369797150e+01 -6.407747217358e+00 0.0 
1.889237123259e+01 -5.858375520026e+00 0.0 
1.802038875366e+01 -6.276202618170e+00 0.0 
1.809793837984e+01 -5.307629520489e+00 0.0 
1.721985207997e+01 -5.728242054488e+00 0.0 
1.729850893523e+01 -4.756990819347e+00 0.0 
1.641745664240e+01 -5.174636548624e+00 0.0 
2.495978509456e+01 -1.304406404294e+01 0.0 
1.911567814831e+01 -1.413854250293e+01 0.0 
1.904387332608e+01 -1.511463127723e+01 0.0 
1.992115934240e+01 -1.468788025898e+01 0.0 
7.013706899628e+00 -4.812582868662e+00 0.0 
5.342091874585e+00 -1.513658157269e+01 0.0 
1.139098043784e+01 -1.509488509480e+01 0.0 
1.228151810610e+01 -1.465617481983e+01 0.0 
1.646373110164e+01 -1.541993323337e+01 0.0 
5.293328636712e+00 -4.678385108584e+00 0.0 
1.975965862987e+01 -5.448124345648e+00 0.0 
2.054318374236e+01 -5.992561293251e+00 0.0 
3.721453439063e+01 -1.533216152738e+01 0.0 
3.809302733893e+01 -1.489235527381e+01 0.0 
1.220852788900e+01 -1.565304565230e+01 0.0 
4.394120899730e+00 -5.108397613210e+00 0.0 
8.779354620288e+00 -1.539524721159e+01 0.0 
1.817791047702e+01 -4.338570146253e+00 0.0 
4.518860013839e+00 -1.457343189307e+01 0.0 
4.442712140414e+00 -1.556841391069e+01 0.0 
8.115343466391e+00 -1.285760324283e+01 0.0 
1.985334703171e+01 -1.566478400426e+01 0.0 
2.071953850276e+01 -1.522074243119e+01 0.0 
1.634012953883e+01 -6.154777738301e+00 0.0 
1.553479994708e+01 -5.593730508879e+00 0.0 
1.561265946942e+01 -4.617761762647e+00 0.0 
1.470674212978e+01 -5.064576488228e+00 0.0 
1.464498299883e+01 -6.026514471420e+00 0.0 
1.383271561817e+01 -5.467796261169e+00 0.0 
1.389241253067e+01 -4.504338666645e+00 0.0 
1.301868735463e+01 -4.907185188626e+00 0.0 
1.294514184846e+01 -5.888160903592e+00 0.0 
1.212955968622e+01 -5.328262335277e+00 0.0 
1.220721122383e+01 -4.341264976687e+00 0.0 
1.131324345897e+01 -4.766773516508e+00 0.0 
5.266597955397e+00 -1.613148974258e+01 0.0 
1.737805990867e+01 -3.786677807525e+00 0.0 
3.078438094513e+01 -1.203225297748e+01 0.0 
1.131569882285e+01 -1.608511932110e+01 0.0 
1.728478341782e+01 -1.596017432313e+01 0.0 
3.803465906019e+01 -1.587509751228e+01 0.0 
3.891681276677e+01 -1.543395196905e+01 0.0 
3.897340985302e+01 -1.444710288980e+01 0.0 
3.980095968193e+01 -1.499059496613e+01 0.0 
3.974334598189e+01 -1.597921884150e+01 0.0 
4.062964983717e+01 -1.553518690417e+01 0.0 
4.068729602479e+01 -1.454434445295e+01 0.0 
4.151772679790e+01 -1.508974196007e+01 0.0 
4.157505195739e+01 -1.409694289912e+01 0.0 
4.240699932656e+01 -1.464347955968e+01 0.0 
4.234898051011e+01 -1.563721375790e+01 0.0 
4.323934606035e+01 -1.519082036405e+01 0.0 
4.329740528208e+01 -1.419587509788e+01 0.0 
4.413056841369e+01 -1.474359631875e+01 0.0 
4.418850110108e+01 -1.374786684042e+01 0.0 
4.502219770667e+01 -1.429605103525e+01 0.0 
4.496411937907e+01 -1.529215882720e+01 0.0 
4.490027319897e+00 -4.154167794594e+00 0.0 
1.565080385988e+01 -1.486411982419e+01 0.0 
1.557610691279e+01 -1.584855627870e+01 0.0 
4.195350646612e+00 -8.089117689096e+00 0.0 
4.124027797830e+00 -9.082831955007e+00 0.0 
4.917944318925e+00 -9.643530901533e+00 0.0 
4.020105689502e+00 -1.007439673661e+01 0.0 
4.587185899277e+01 -1.484039992728e+01 0.0 
4.580078661551e+01 -1.584043391042e+01 0.0 
2.061956522375e+01 -5.046701343981e+00 0.0 
2.139572955529e+01 -5.579553449826e+00 0.0 
3.715344357292e+01 -1.631485124583e+01 0.0 
3.618886196443e+00 -1.500471207167e+01 0.0 
3.695606940204e+00 -1.400939692294e+01 0.0 
2.438890661143e+01 -9.686110599723e+00 0.0 
2.523267572778e+01 -9.276766000622e+00 0.0 
2.446094171539e+01 -8.751904591412e+00 0.0 
2.529089822738e+01 -8.321495612547e+00 0.0 
2.606882688827e+01 -8.864724051119e+00 0.0 
2.452116646430e+01 -7.792756462004e+00 0.0 
1.235543269617e+01 -1.365845617339e+01 0.0 
4.318116874181e+01 -1.618567469992e+01 0.0 
7.835066111909e+00 -5.376366223896e+00 0.0 
7.905687335704e+00 -4.382539065697e+00 0.0 
3.542640009567e+00 -1.600035116542e+01 0.0 
1.572431503071e+01 -1.388358386695e+01 0.0 
2.574684696680e+01 -1.357896141127e+01 0.0 
2.488842657651e+01 -1.399674354505e+01 0.0 
2.568301775611e+01 -1.453552048595e+01 0.0 
2.481535572009e+01 -1.495542756508e+01 0.0 
2.561729699688e+01 -1.549784648532e+01 0.0 
2.474623061296e+01 -1.592058894178e+01 0.0 
2.394234041695e+01 -1.537572575827e+01 0.0 
2.065825452567e+01 -1.621899055217e+01 0.0 
2.387180528935e+01 -1.634552264687e+01 0.0 
4.585364400844e+01 -1.383912334080e+01 0.0 
1.998744432052e+01 -1.370317155541e+01 0.0 
1.205356951443e+01 -6.313580285498e+00 0.0 
5.396543905849e+00 -3.731818611283e+00 0.0 
1.139652573295e+01 -3.745819399350e+00 0.0 
3.574124306703e+00 -4.551456826011e+00 0.0 
3.494140761930e+00 -5.539787055649e+00 0.0 
1.213651452413e+01 -1.664505033022e+01 0.0 
2.555045568519e+01 -1.646529356744e+01 0.0 
2.641671114986e+01 -1.603899382371e+01 0.0 
2.612920721894e+01 -7.906435260873e+00 0.0 
2.690339829698e+01 -8.456969591431e+00 0.0 
1.978024383368e+01 -1.664410216353e+01 0.0 
3.732829979082e+01 -1.336926601859e+01 0.0 
4.074336584605e+01 -1.355133328401e+01 0.0 
4.163204691081e+01 -1.310280943992e+01 0.0 
3.773826114429e+00 -3.493444309145e+00 0.0 
1.228783001032e+01 -3.374822835872e+00 0.0 
4.057110462520e+01 -1.652588478000e+01 0.0 
2.132535497898e+01 -6.523623360525e+00 0.0 
2.216932532211e+01 -6.110044769206e+00 0.0 
1.825781152128e+01 -3.370146817147e+00 0.0 
1.745679445888e+01 -2.812942552063e+00 0.0 
4.666517057280e+01 -1.539981381543e+01 0.0 
4.660575894464e+01 -1.639014410186e+01 0.0 
4.838230979954e+00 -1.063643436446e+01 0.0 
3.938942630206e+00 -1.106778981745e+01 0.0 
1.302967218620e+01 -1.621373452436e+01 0.0 
1.049548003190e+01 -4.204825123240e+00 0.0 
4.573571907195e+01 -1.683820511148e+01 0.0 
1.483686335807e+01 -1.430849689310e+01 0.0 
1.490982658890e+01 -1.332679386284e+01 0.0 
3.190805600162e+00 -9.510968358545e+00 0.0 
2.146625721848e+01 -4.642437303115e+00 0.0 
2.069866208266e+01 -4.111852942193e+00 0.0 
1.286859345584e+01 -6.873252723348e+00 0.0 
1.041794493184e+01 -5.194814260291e+00 0.0 
2.671081808965e+00 -4.976806516331e+00 0.0 
1.295786792925e+01 -1.720506531799e+01 0.0 
3.968438206511e+01 -1.696869067241e+01 0.0 
2.308550456051e+01 -1.579963151273e+01 0.0 
2.315593682844e+01 -1.482967445235e+01 0.0 
2.299471449450e+01 -1.677069968132e+01 0.0 
1.057344714696e+01 -3.214252277840e+00 0.0 
1.124057603753e+01 -1.707713739755e+01 0.0 
2.718402535754e+00 -1.543629882103e+01 0.0 
2.638549692805e+01 -1.696744916809e+01 0.0 
2.723416349007e+01 -1.658104204545e+01 0.0 
2.210193351704e+01 -7.046769643417e+00 0.0 
2.295180925161e+01 -6.657397605239e+00 0.0 
2.301355235833e+01 -5.709111896800e+00 0.0 
2.379052718281e+01 -6.254965406962e+00 0.0 
3.243528601237e+01 -1.214181853533e+01 0.0 
2.287977995457e+01 -7.583722368300e+00 0.0 
2.999876029544e+01 -1.150837653096e+01 0.0 
3.084435366963e+01 -1.109693775882e+01 0.0 
3.006650579669e+01 -1.057778994262e+01 0.0 
2.683802665066e+01 -9.386863216633e+00 0.0 
2.768641973621e+01 -8.988883915666e+00 0.0 
2.040296980397e+01 -7.903629133404e+00 0.0 
1.925235024054e+01 -1.218872783130e+01 0.0 
5.735667000424e+00 -1.020577277283e+01 0.0 
6.396559909872e+00 -1.272326295703e+01 0.0 
1.161199420714e+01 -1.212812778229e+01 0.0 
4.229046132615e+01 -1.663084237572e+01 0.0 
4.312275399692e+01 -1.718087491556e+01 0.0 
4.335502068163e+01 -1.320039231514e+01 0.0 
4.424630298089e+01 -1.275160688731e+01 0.0 
7.090116643816e+00 -3.818998061530e+00 0.0 
7.989472176569e+00 -3.389238711200e+00 0.0 
9.085824861778e+00 -1.144036167408e+01 0.0 
1.041972423731e+01 -1.651614080893e+01 0.0 
3.797525112640e+01 -1.686052038746e+01 0.0 
3.709114253394e+01 -1.730125999865e+01 0.0 
3.626966748340e+01 -1.675477052919e+01 0.0 
1.385164591440e+01 -1.677597757552e+01 0.0 
1.787152588784e+01 -8.198993896093e+00 0.0 
1.668849729812e+01 -1.248560611628e+01 0.0 
1.659546177905e+01 -3.232482605530e+00 0.0 
2.332214717345e+01 -1.292598167641e+01 0.0 
7.168238450786e+00 -2.824711686516e+00 0.0 
2.894878403906e+01 -1.475427524446e+01 0.0 
2.646763248247e+00 -1.643270107952e+01 0.0 
3.467431944285e+00 -1.699648837348e+01 0.0 
2.059475877282e+01 -1.719473628526e+01 0.0 
3.333868355437e+01 -1.080596971682e+01 0.0 
2.246451062637e+01 -1.334557761546e+01 0.0 
2.167821896388e+01 -1.280847834858e+01 0.0 
3.089653185767e+01 -1.017198487212e+01 0.0 
3.012604365669e+01 -9.657298805968e+00 0.0 
2.929627299435e+01 -1.006100135274e+01 0.0 
2.936201435219e+01 -9.136748899251e+00 0.0 
1.198219052702e+01 -7.291887238230e+00 0.0 
1.116702076035e+01 -6.731976101053e+00 0.0 
2.551388807505e+01 -1.746927036981e+01 0.0 
2.378639090370e+01 -1.728678807149e+01 0.0 
2.718543627188e+01 -1.748668016909e+01 0.0 
2.804681050301e+01 -1.712626668293e+01 0.0 
1.970737034667e+01 -1.762317646822e+01 0.0 
1.889535776135e+01 -1.707158098231e+01 0.0 
2.593777711283e+00 -5.971157087874e+00 0.0 
2.773468281110e+01 -8.067164273938e+00 0.0 
4.051205884347e+01 -1.751819982458e+01 0.0 
3.166903145421e+01 -1.068032992414e+01 0.0 
1.033042452886e+01 -1.748285844336e+01 0.0 
9.519274604626e+00 -1.694349240233e+01 0.0 
1.668308673328e+01 -2.255861778986e+00 0.0 
1.570531902832e+01 -2.676795860126e+00 0.0 
4.655826903379e+01 -1.736656245706e+01 0.0 
2.384148070773e+01 -5.328744256413e+00 0.0 
2.460255123641e+01 -5.852182672816e+00 0.0 
2.306638135119e+01 -4.798935440613e+00 0.0 
8.467720450578e-01 -1.849576263072e+01 0.0 
4.849657322345e+01 -1.084860705506e+01 0.0 
2.565860899507e+00 -1.742859793981e+01 0.0 
2.764418872564e+01 -9.927142821799e+00 0.0 
4.565165880064e+01 -1.785336695404e+01 0.0 
2.162231831329e+01 -1.376528337468e+01 0.0 
2.360646352969e+01 -9.136041963102e+00 0.0 
1.392738739903e+01 -1.578285505772e+01 0.0 
4.756405947478e+01 -1.683706841809e+01 0.0 
4.740895034054e+01 -1.793766756892e+01 0.0 
4.080779328826e+01 -1.257387192544e+01 0.0 
4.168907939671e+01 -1.210739129181e+01 0.0 
3.991197722154e+01 -1.300815793917e+01 0.0 
1.905536506762e+01 -3.940076697685e+00 0.0 
1.923879596617e+01 -2.875000734166e+00 0.0 
4.401386745746e+01 -1.673483229438e+01 0.0 
4.247233362525e+00 -7.094581653070e+00 0.0 
3.286051630211e+00 -7.635300020553e+00 0.0 
9.609533347623e+00 -4.594311677967e+00 0.0 
9.523554636369e+00 -5.595597029530e+00 0.0 
5.660336628893e+00 -1.119290329628e+01 0.0 
6.558070063295e+00 -1.076385809362e+01 0.0 
2.809866407414e+01 -1.518037766799e+01 0.0 
2.888868674504e+01 -1.570360690070e+01 0.0 
2.654431550819e+01 -1.411217777162e+01 0.0 
1.402158265969e+01 -1.375404617952e+01 0.0 
1.409592494026e+01 -1.277071998942e+01 0.0 
1.499355196178e+01 -1.235270737023e+01 0.0 
4.221535326155e+01 -1.759335617494e+01 0.0 
4.305583287033e+01 -1.822663146802e+01 0.0 
1.280748808359e+01 -7.834332838285e+00 0.0 
1.368988389326e+01 -7.420529606172e+00 0.0 
1.110091796060e+01 -7.683966794328e+00 0.0 
3.963446145980e+01 -1.794331310122e+01 0.0 
3.423932362213e+00 -1.796415590455e+01 0.0 
4.280814572302e+00 -1.752272834860e+01 0.0 
8.050136380041e+00 -2.421582378631e+00 0.0 
8.888674091650e+00 -2.984264211327e+00 0.0 
2.152839430898e+01 -3.732609965436e+00 0.0 
2.077799585292e+01 -3.183896021866e+00 0.0 
3.618719395821e+01 -1.770276572576e+01 0.0 
3.538165138340e+01 -1.718709995539e+01 0.0 
3.702925326420e+01 -1.828844288807e+01 0.0 
1.756739438711e+00 -5.353284859169e+00 0.0 
2.233710191104e+01 -1.527265621324e+01 0.0 
1.389483555057e+01 -1.771797164730e+01 0.0 
1.475634224300e+01 -1.728357428390e+01 0.0 
1.298797563052e+01 -1.825968924755e+01 0.0 
2.145331271866e+01 -1.673705379077e+01 0.0 
2.133282821169e+01 -1.769400773673e+01 0.0 
2.292139194136e+01 -1.774915400288e+01 0.0 
1.750750053243e+01 -1.861475593469e+00 0.0 
4.830478841772e+01 -1.752611802221e+01 0.0 
4.341203507805e+01 -1.220326745522e+01 0.0 
1.685254151866e+01 -1.443085301632e+00 0.0 
4.431538535165e+01 -1.171841387375e+01 0.0 
4.511308610496e+01 -1.229557320599e+01 0.0 
4.510133242889e+01 -1.123680627466e+01 0.0 
1.846818030617e+00 -4.410877617069e+00 0.0 
3.995468694584e+01 -1.186571542989e+01 0.0 
3.901387459804e+01 -1.242507616755e+01 0.0 
8.966735877533e+00 -1.837818700423e+00 0.0 
4.049310011091e+01 -1.848269508791e+01 0.0 
7.278862053803e+00 -1.918523922691e+00 0.0 
6.429715522129e+00 -2.316676521184e+00 0.0 
9.443505505022e+00 -1.792198868094e+01 0.0 
8.620386951051e+00 -1.737590365556e+01 0.0 
8.571868171503e+00 -1.834436667826e+01 0.0 
7.758629848526e+00 -1.775677907213e+01 0.0 
7.806648388584e+00 -1.680761266021e+01 0.0 
6.908555145436e+00 -1.723746463044e+01 0.0 
4.251709122090e+01 -1.156937480156e+01 0.0 
6.931136405615e+00 -1.832465719263e+01 0.0 
6.015545461353e+00 -1.768865355295e+01 0.0 
5.960535926343e+00 -1.872011001764e+01 0.0 
3.023253444786e+01 -8.761960642196e+00 0.0 
2.454622702599e+01 -6.749421992767e+00 0.0 
2.537499741604e+01 -6.347634963783e+00 0.0 
2.544077378460e+01 -5.431358513649e+00 0.0 
2.801367161747e+01 -1.820907270221e+01 0.0 
2.884507806914e+01 -1.762032095326e+01 0.0 
1.821474531936e+00 -1.588901260460e+01 0.0 
1.821006262604e+00 -1.489370287756e+01 0.0 
4.599962488908e+01 -1.176478780598e+01 0.0 
4.705457470007e+01 -1.172182804229e+01 0.0 
4.667668314802e+01 -1.263464558483e+01 0.0 
4.759648056504e+01 -1.252380987933e+01 0.0 
4.728041618103e+01 -1.341928568376e+01 0.0 
4.825209352360e+01 -1.330491640804e+01 0.0 
4.778118233428e+01 -1.420151961695e+01 0.0 
2.388192727579e+01 -1.826934810142e+01 0.0 
2.381714684947e+01 -4.385917965223e+00 0.0 
3.172733219247e+01 -9.758744265248e+00 0.0 
1.882012070658e+01 -1.805540597212e+01 0.0 
1.805667505243e+01 -1.742221226236e+01 0.0 
2.852599958080e+01 -8.597196079481e+00 0.0 
2.856486123437e+01 -7.661382718527e+00 0.0 
1.111792842875e+01 -1.818223852980e+01 0.0 
2.203322722466e+01 -7.986646678802e+00 0.0 
3.955703676900e+01 -1.903246763601e+01 0.0 
1.944842206513e+01 -8.038750575182e-01 0.0 
1.909882767783e+01 -1.746322740933e+00 0.0 
2.281147422941e+01 -8.525912918334e+00 0.0 
2.850633001468e+01 -9.533271335986e+00 0.0 
2.532883344309e+01 -7.308951659710e+00 0.0 
2.620475466461e+01 -6.979208585400e+00 0.0 
1.396278270396e+01 -1.475095389807e+01 0.0 
9.791001166724e+00 -2.554159793552e+00 0.0 
2.229293380421e+01 -4.269762271052e+00 0.0 
4.677238984118e+01 -1.430071795514e+01 0.0 
2.228658385918e+01 -3.344747535984e+00 0.0 
8.940223674553e-01 -1.543595733415e+01 0.0 
2.118566862474e+01 -8.435876987696e+00 0.0 
2.678325936437e+01 -1.032621195706e+01 0.0 
2.223400220487e+01 -5.179046761770e+00 0.0 
2.375370625384e+01 -7.251580562134e+00 0.0 
3.156971327386e+01 -1.255534750737e+01 0.0 
3.328226391312e+01 -1.172914813316e+01 0.0 
3.250948774219e+01 -1.120157009348e+01 0.0 
2.032993445717e+01 -8.867880112202e+00 0.0 
2.697226974856e+01 -7.536633082045e+00 0.0 
2.707377810386e+01 -6.590835263295e+00 0.0 
2.914099246827e+01 -1.191678458549e+01 0.0 
3.544824072239e+01 -1.621126558525e+01 0.0 
3.456511855436e+01 -1.665054783843e+01 0.0 
3.448395810225e+01 -1.759117813016e+01 0.0 
3.368378673938e+01 -1.708037781328e+01 0.0 
3.375560452567e+01 -1.610973066913e+01 0.0 
3.288001547988e+01 -1.654324255651e+01 0.0 
3.282475929147e+01 -1.749725654692e+01 0.0 
3.199880906313e+01 -1.697294088625e+01 0.0 
3.197001272932e+01 -1.811667776864e+01 0.0 
3.111884713021e+01 -1.742166785755e+01 0.0 
3.120418962865e+01 -1.642155709385e+01 0.0 
3.034666704371e+01 -1.683123833816e+01 0.0 
3.026224379976e+01 -1.772592851714e+01 0.0 
3.046632362943e+01 -1.582232843075e+01 0.0 
1.961344017324e+01 -1.857459447985e+01 0.0 
2.274975894774e+01 -9.532738811922e+00 0.0 
1.833923246887e+01 -2.396746883672e+00 0.0 
1.988859500848e+01 -2.249244376594e+00 0.0 
2.758045562861e+01 -1.086434261689e+01 0.0 
3.247300178163e+01 -1.909930104252e+01 0.0 
3.461947482503e+01 -1.911879848019e+01 0.0 
2.047161538662e+01 -6.941478180358e+00 0.0 
2.750230940214e+01 -1.915490590764e+01 0.0 
3.165081350803e+01 -1.161860780120e+01 0.0 
1.897456727641e+01 -4.889634688522e+00 0.0 
2.549338539756e+01 -1.914858252089e+01 0.0 
3.462873135081e+01 -1.567482276144e+01 0.0 
3.384432415243e+01 -1.512280684518e+01 0.0 
3.471433767690e+01 -1.469086942990e+01 0.0 
3.651470373046e+01 -1.918207952149e+01 0.0 
3.901742690249e+01 -1.345028556517e+01 0.0 
2.153224102692e+01 -1.920169709333e+01 0.0 
1.918382939341e+01 -1.316226275662e+01 0.0 
2.005389162382e+01 -1.271962165174e+01 0.0 
2.011472087878e+01 -1.175029352900e+01 0.0 
3.210679478412e+01 -1.598038618242e+01 0.0 
1.752175226543e+01 -1.914713022656e+01 0.0 
1.696897240059e+01 -1.832772588765e+01 0.0 
1.599682523337e+01 -1.832599992024e+01 0.0 
1.644507199462e+01 -1.743697981535e+01 0.0 
1.549987712903e+01 -1.915192375101e+01 0.0 
3.050250861901e+01 -1.918943550234e+01 0.0 
2.949944061527e+01 -1.922950455235e+01 0.0 
1.375892575273e+01 -6.447160534926e+00 0.0 
1.457223670180e+01 -7.006709243857e+00 0.0 
1.450818793236e+01 -7.965943451779e+00 0.0 
1.538804712402e+01 -7.553409623699e+00 0.0 
1.545817644768e+01 -6.580929593419e+00 0.0 
1.626506893751e+01 -7.129032608911e+00 0.0 
1.619833811522e+01 -8.086588580887e+00 0.0 
1.714448609609e+01 -6.697429609777e+00 0.0 
2.887616543568e+01 -1.668015232137e+01 0.0 
1.349814589130e+01 -1.918225301544e+01 0.0 
1.153887772210e+01 -1.311384581217e+01 0.0 
1.242708159886e+01 -1.267046795531e+01 0.0 
1.249799674267e+01 -1.169005616014e+01 0.0 
6.631723893693e+00 -9.774184881867e+00 0.0 
7.451471631867e+00 -1.033148796006e+01 0.0 
7.377795355458e+00 -1.132196345268e+01 0.0 
5.810931797536e+00 -9.211654212252e+00 0.0 
2.402683899133e+01 -1.441378562320e+01 0.0 
1.249768692036e+01 -1.917388426624e+01 0.0 
1.580373499437e+01 -1.290751860664e+01 0.0 
8.344650507834e+00 -9.898403995170e+00 0.0 
3.750622115305e+01 -1.086526401533e+01 0.0 
3.699391251667e+01 -1.171695900794e+01 0.0 
3.606517829518e+01 -1.173717504500e+01 0.0 
3.650257641795e+01 -1.270047380221e+01 0.0 
3.808951488918e+01 -1.183518714175e+01 0.0 
4.760380962420e+00 -1.162484888315e+01 0.0 
3.861210370848e+00 -1.205657631736e+01 0.0 
3.038284309476e+00 -1.149851280664e+01 0.0 
2.961598794889e+00 -1.248856794980e+01 0.0 
2.138953225512e+00 -1.193212674534e+01 0.0 
2.227383593457e+00 -1.096258903918e+01 0.0 
2.043265419276e+00 -1.292158472959e+01 0.0 
1.252449446028e+00 -1.225502002753e+01 0.0 
3.949985210740e+01 -1.086594001795e+01 0.0 
1.453499444792e+01 -8.768805922472e-01 0.0 
1.403518950933e+01 -1.749965556633e+00 0.0 
1.300715031023e+01 -1.714737233040e+00 0.0 
1.350929389899e+01 -2.527443911291e+00 0.0 
1.449600910711e+01 -2.595486162864e+00 0.0 
1.395693872901e+01 -3.484211041558e+00 0.0 
1.495105865208e+01 -3.364609636216e+00 0.0 
1.508822528740e+01 -1.766586020494e+00 0.0 
1.250223858430e+01 -8.634590186802e-01 0.0 
1.200279523409e+01 -1.709044504992e+00 0.0 
1.150086239419e+01 -8.592789190668e-01 0.0 
1.101482754194e+01 -1.677730591922e+00 0.0 
1.148018564526e+01 -2.659323866909e+00 0.0 
8.800552119754e+00 -3.989875954728e+00 0.0 
3.452790439430e+00 -1.901136170646e+01 0.0 
8.658451825200e-01 -9.503462241795e+00 0.0 
1.694787786797e+00 -9.000589234502e+00 0.0 
1.703436717094e+00 -8.038819004041e+00 0.0 
2.594197971110e+00 -8.563955242845e+00 0.0 
1.630513735412e+00 -9.907244747511e+00 0.0 
8.566859292791e-01 -7.512203837972e+00 0.0 
1.685461277022e+00 -7.164280248030e+00 0.0 
2.506394468801e+00 -8.623386730818e-01 0.0 
2.007475081581e+00 -1.727729545205e+00 0.0 
9.211534699767e-01 -1.628791366312e+00 0.0 
1.500000000020e+00 -2.598063549486e+00 0.0 
2.482078929963e+00 -2.553580088725e+00 0.0 
2.999795253092e+00 -1.732169015019e+00 0.0 
3.999712607169e+00 -1.728832897453e+00 0.0 
4.499752199340e+00 -8.656478679175e-01 0.0 
4.964377774841e+00 -1.730129617941e+00 0.0 
4.425017908337e+00 -2.597541756243e+00 0.0 
5.446573195014e+00 -8.410144840023e-01 0.0 
4.915722346614e+01 -1.550640962770e+01 0.0 
4.826794919243e+01 -1.600000000000e+01 0.0 
1.053139533193e+01 -1.911782884365e+01 0.0 
4.156049861949e+01 -1.095160998589e+01 0.0 
9.494526624416e+00 -8.650570090219e-01 0.0 
4.555762166964e+01 -1.897098103585e+01 0.0 
4.250656411371e+01 -1.914387356218e+01 0.0 
4.350906466345e+01 -1.917234727395e+01 0.0 
8.759665722424e-01 -1.746422130609e+01 0.0 
1.698936011838e+00 -1.795012186674e+01 0.0 
4.742476811029e+01 -1.900090177972e+01 0.0 
7.749196752349e+00 -6.368049313489e+00 0.0 
3.361572113416e+01 -1.798765193915e+01 0.0 
4.484660149212e+01 -1.728661231383e+01 0.0 
1.984038172228e+01 -4.502575320116e+00 0.0 
1.035080352627e+01 -6.166639575753e+00 0.0 
2.753558010652e+00 -1.444909521181e+01 0.0 
7.217069543032e+00 -1.328635391078e+01 0.0 
4.364336727739e+00 -1.655585677381e+01 0.0 
4.595208426108e+00 -1.357919665443e+01 0.0 
6.164967006980e+00 -1.569873454630e+01 0.0 
1.487855768353e+01 -1.826523774028e+01 0.0 
2.791876456372e+00 -4.019632415181e+00 0.0 
4.246464893515e+01 -1.364898659620e+01 0.0 
4.503855590351e+01 -1.329552780944e+01 0.0 
4.407239109604e+01 -1.573900004093e+01 0.0 
5.141054449252e+00 -6.664290382472e+00 0.0 
3.141083947149e+00 -1.055790764912e+01 0.0 
6.196463198741e+00 -4.256497932609e+00 0.0 
2.599618716181e+01 -1.836893455464e+01 0.0 
2.923057372337e+01 -1.098461757645e+01 0.0 
1.168343877486e+01 -1.114079645041e+01 0.0 
6.706222096238e+00 -8.780364234441e+00 0.0 
8.567858614669e+00 -6.943121440850e+00 0.0 
1.123755132901e+01 -5.753525820030e+00 0.0 
2.353456234423e+01 -1.008536320953e+01 0.0 
9.162073319168e+00 -1.045593739109e+01 0.0 
9.676343469685e+00 -1.496493008366e+01 0.0 
4.490637882905e+01 -1.628778970202e+01 0.0 
7.398129387772e+00 -9.639977982323e-01 0.0 
1.049641705805e+01 -1.552503975272e+01 0.0 
9.010356286268e+00 -1.242805042052e+01 0.0 
3.985573925497e+01 -1.399863651620e+01 0.0 
1.816196318262e+01 -1.554066497931e+01 0.0 
1.306332244168e+01 -3.963646550326e+00 0.0 
4.145850903932e+01 -1.608094559275e+01 0.0 
3.794664933633e+01 -1.779020121986e+01 0.0 
3.819614412903e+01 -1.290749321016e+01 0.0 
6.270014188119e+00 -3.255093186826e+00 0.0 
4.251165370388e+01 -1.263870364997e+01 0.0 
1.207347709171e+01 -1.763942826023e+01 0.0 
3.633240829927e+01 -1.577330481104e+01 0.0 
4.319052668832e+00 -6.101812561904e+00 0.0 
1.676492415806e+01 -1.151547901392e+01 0.0 
2.594059220037e+01 -1.074225223009e+01 0.0 
3.340750911501e+01 -9.898764354137e+00 0.0 
4.397619591281e+01 -1.769773736461e+01 0.0 
2.175611595028e+01 -1.185718747128e+01 0.0 
1.641818733106e+01 -1.640685203215e+01 0.0 
1.661211421753e+01 -1.346121366338e+01 0.0 
3.428853504935e+00 -6.551993389271e+00 0.0 
8.700728832502e+00 -1.638460872825e+01 0.0 
1.931369795309e+01 -1.121629383702e+01 0.0 
4.139798872363e+01 -1.706922153459e+01 0.0 
2.647837478700e+01 -1.507353829290e+01 0.0 
1.779469616424e+01 -9.161615782908e+00 0.0 
3.885879219319e+01 -1.642026488918e+01 0.0 
1.338194936770e+01 -1.125916521471e+01 0.0 
1.897071181111e+01 -1.609204322578e+01 0.0 
2.844308548793e+01 -1.046221003096e+01 0.0 
2.659854702194e+01 -1.316109415760e+01 0.0 
2.979604503271e+01 -1.433296157755e+01 0.0 
2.417694041347e+01 -1.251231397779e+01 0.0 
1.807401327411e+00 -1.388891148480e+01 0.0 
9.599810618782e+00 -1.595439365034e+01 0.0 
1.652144692160e+01 -4.205392788472e+00 0.0 
2.367839450246e+01 -8.188385218643e+00 0.0 
3.814894930468e+01 -1.390748338767e+01 0.0 
2.466448215774e+01 -1.685878545680e+01 0.0 
4.134044524611e+01 -1.806610045954e+01 0.0 
2.600511411958e+01 -9.801774120648e+00 0.0 
7.882158050716e+00 -1.582364037353e+01 0.0 
3.881607873422e+01 -1.737970515013e+01 0.0 
8.270182347708e+00 -1.088622154920e+01 0.0 
8.672520392520e-01 -4.532984309881e+00 0.0 
1.993447205337e+01 -3.579061902667e+00 0.0 
1.794616079549e+01 -7.238038888498e+00 0.0 
2.097277068165e+01 -1.132450168636e+01 0.0 
8.194803300681e+00 -1.187214224265e+01 0.0 
3.522279404911e+01 -1.823342818178e+01 0.0 
6.984481050295e+00 -1.625271465557e+01 0.0 
1.309433007797e+01 -1.521718594215e+01 0.0 
2.150246167611e+01 -1.885399038185e+00 0.0 
3.250689370209e+01 -1.028789870535e+01 0.0 
6.085886272238e+00 -1.668342132851e+01 0.0 
1.588455661727e+01 -1.193498985921e+01 0.0 
1.809323400821e+01 -1.651110084195e+01 0.0 
1.348885082381e+00 -1.136065576512e+01 0.0 
2.497670221995e+01 -1.834631276173e+01 0.0 
2.937062818424e+01 -8.233711194470e+00 0.0 
5.185823744469e+00 -1.711566910207e+01 0.0 
1.477497877209e+01 -1.530177014512e+01 0.0 
2.125346158933e+01 -7.473003997367e+00 0.0 
4.751561118290e+01 -1.084897772632e+01 0.0 
5.056026576843e+00 -1.825750475525e+01 0.0 
1.473948554523e+01 -1.634577436309e+01 0.0 
2.410566630936e+01 -1.345970002612e+01 0.0 
1.507337507513e+01 -1.138527895328e+01 0.0 
3.189857338687e+01 -8.887781229006e+00 0.0 
7.298712468334e+00 -1.230231046246e+01 0.0 
2.738235495295e+01 -1.368931690364e+01 0.0 
3.750141041969e+01 -1.920449893070e+01 0.0 
1.557271965640e+01 -1.683317951731e+01 0.0 
3.393731848929e+01 -1.413034777044e+01 0.0 
6.482156824153e+00 -1.174575135362e+01 0.0 
2.077971718439e+01 -1.421279621836e+01 0.0 
3.455084320178e+00 -2.562590040585e+00 0.0 
3.099056096250e+01 -9.270280416035e+00 0.0 
5.580176125418e+00 -1.217387969259e+01 0.0 
1.707247630389e+01 -7.660651981710e+00 0.0 
1.418658814174e+01 -1.180390575393e+01 0.0 
2.049103025389e+01 -1.811296706038e+01 0.0 
4.680386172316e+00 -1.260396879301e+01 0.0 
1.699679896554e+01 -8.624561788199e+00 0.0 
3.779470168555e+00 -1.303424899720e+01 0.0 
3.036589870126e+01 -7.879832518349e+00 0.0 
3.306993001774e+01 -1.457671062095e+01 0.0 
2.840150110165e+00 -1.346530088269e+01 0.0 
2.732011135052e+01 -1.464591214560e+01 0.0 
5.423639259568e+00 -2.659711955016e+00 0.0 
2.324455961696e+01 -1.387269388211e+01 0.0 
1.752768355571e+00 -1.693128613594e+01 0.0 
1.020244783051e+01 -8.076834012808e+00 0.0 
1.330873875224e+01 -1.222417528206e+01 0.0 
3.297727364880e+01 -1.555480372087e+01 0.0 
2.890929955439e+01 -6.868664170731e+00 0.0 
1.323294664622e+01 -1.320754260334e+01 0.0 
2.726532861246e+01 -1.560593120806e+01 0.0 
2.240020643398e+01 -1.429299177247e+01 0.0 
2.090445823633e+01 -1.228128621332e+01 0.0 
1.315809881502e+01 -1.420739326938e+01 0.0 
2.781328038068e+01 -7.181956082300e+00 0.0 
8.614200829057e+00 -5.936933226306e+00 0.0 
8.714765730069e+00 -4.979270529687e+00 0.0 
1.611881701099e+01 -9.041973294003e+00 0.0 
2.806830314340e+01 -1.614622947108e+01 0.0 
2.084435391396e+00 -3.385085422913e+00 0.0 
3.133211811152e+01 -1.542347619750e+01 0.0 
9.693114650768e+00 -3.590281506442e+00 0.0 
1.531883592202e+01 -8.504584946143e+00 0.0 
2.151589117094e+01 -1.578915763018e+01 0.0 
4.918943882696e+01 -1.355538828056e+01 0.0 
1.443236615188e+01 -8.918701794549e+00 0.0 
8.276250966452e-01 -5.537685192197e+00 0.0 
1.362790867918e+01 -8.374718262212e+00 0.0 
2.083767477370e+01 -1.324843956035e+01 0.0 
1.273834678703e+01 -8.790890389337e+00 0.0 
1.192275845670e+01 -8.242261327467e+00 0.0 
4.477236023583e+01 -1.824312396664e+01 0.0 
1.102989384254e+01 -8.649855800911e+00 0.0 
4.849096516045e+01 -1.917293752213e+01 0.0 
1.588996752238e+00 -1.910230934687e+01 0.0 
4.904245197583e+01 -1.159839008158e+01 0.0 
2.753852929608e+01 -5.782128488093e+00 0.0 
1.756133602833e+01 -8.306130313187e-01 0.0 
2.615423700951e+01 -6.153865090092e+00 0.0 
1.028818761294e+01 -7.122020845892e+00 0.0 
2.970818901196e+01 -1.527821347593e+01 0.0 
4.801461623449e+01 -1.164472570985e+01 0.0 
9.455722100419e+00 -6.546069291118e+00 0.0 
3.089099236677e+01 -1.835339328261e+01 0.0 
2.350000000013e+01 -1.920825896750e+01 0.0 
4.830620531887e+01 -1.506626155470e+01 0.0 
1.725381944701e+01 -1.688794487850e+01 0.0 
2.156246225273e+01 -1.475893794002e+01 0.0 
4.919319648787e+01 -1.742767505896e+01 0.0 
4.437935623576e+01 -1.077662927266e+01 0.0 
1.001520521978e+01 -1.652692675208e+00 0.0 
9.067160240050e-01 -1.441937727541e+01 0.0 
2.603365149390e+01 -4.755996613848e+00 0.0 
2.458344439002e+01 -4.873645517696e+00 0.0 
2.304312390142e+01 -3.836552768096e+00 0.0 
2.546923202198e+00 -6.902480355749e+00 0.0 
1.251534969393e+01 -2.490989965776e+00 0.0 
2.454061833377e+01 -3.933354231935e+00 0.0 
1.788186558740e+01 -1.827424884923e+01 0.0 
4.090785243552e+01 -1.166553231904e+01 0.0 
2.230128851568e+01 -1.623015738726e+01 0.0 
2.302362347568e+01 -2.916239960270e+00 0.0 
3.878119254461e+01 -1.830091164002e+01 0.0 
2.210081359958e+01 -1.829238229150e+01 0.0 
8.443704882233e+00 -1.921993252862e+01 0.0 
2.218405824691e+01 -1.724557581508e+01 0.0 
2.151157503963e+01 -2.790636689331e+00 0.0 
3.741658958955e+01 -1.250400191722e+01 0.0 
2.697247663737e+01 -1.838290202309e+01 0.0 
4.743362342862e+01 -1.585850773010e+01 0.0 
6.671345075358e+00 -1.924977576322e+01 0.0 
3.900825404537e+01 -1.157220003875e+01 0.0 
4.649692961375e+01 -1.836335837481e+01 0.0 
1.578831424832e+01 -3.678284023361e+00 0.0 
4.814208768888e+01 -1.841249298770e+01 0.0 
2.964123298315e+01 -1.625739458193e+01 0.0 
4.580760351902e+01 -1.284294554687e+01 0.0 
3.561520879615e+01 -1.245548941949e+01 0.0 
2.555418095658e+00 -1.841101588290e+01 0.0 
3.288468366144e+01 -1.834258164109e+01 0.0 
2.065894391445e+01 -2.240688571739e+00 0.0 
4.739171429915e+01 -1.496536413446e+01 0.0 
3.478086729185e+00 -8.576434653209e+00 0.0 
1.606010630246e+01 -1.588421807951e+00 0.0 
1.018329200594e+01 -1.834320874317e+01 0.0 
2.957213339430e+01 -1.720496954591e+01 0.0 
4.142712790164e+00 -1.837794506222e+01 0.0 
6.698721532573e-01 -2.499999999997e+00 0.0 
8.037039123140e+00 -1.571229354954e+00 0.0 
1.203541361428e+01 -1.847784298001e+01 0.0 
2.899968332038e+01 -1.848264722179e+01 0.0 
1.469229460948e+01 -4.219485753730e+00 0.0 
4.049590781957e+01 -1.932812501995e+01 0.0 
1.996211678340e+01 -1.506329754720e+00 0.0 
4.250588298353e+01 -1.067383247529e+01 0.0 
5.831497011152e+00 -1.635396227234e+00 0.0 
5.317606125670e+00 -1.923927974868e+01 0.0 
4.208546426993e+01 -1.842830665025e+01 0.0 
2.327553405011e+00 -9.459409929662e+00 0.0 
3.568351902251e+01 -1.096637218582e+01 0.0 
1.682104374890e+00 -6.231413350963e+00 0.0 
2.451812238018e+01 -1.766524914339e+01 0.0 
1.058003429638e+01 -2.391839617098e+00 0.0 
4.399988753123e+01 -1.851998776342e+01 0.0 
1.400000000010e+01 -1.852293523028e+01 0.0 
3.604719565984e+01 -1.850662876800e+01 0.0 
1.951297136734e+01 -1.938092349694e+01 0.0 
1.821365318472e+01 -1.531276353287e+00 0.0 
2.298031859732e+01 -1.854635324722e+01 0.0 
1.552168066204e+01 -1.764280741977e+01 0.0 
4.572957713638e+01 -1.073347898229e+01 0.0 
3.429637429624e+01 -1.838861552790e+01 0.0 
2.427434426052e+00 -7.705577451869e+00 0.0 
4.662792031485e+00 -3.359424455416e+00 0.0 
4.926794919243e+01 -1.926794919243e+01 0.0 
7.320508075690e-01 -7.320508075688e-01 0.0 
4.926794919243e+01 -1.073205080757e+01 0.0 
7.320508075705e-01 -1.926794919243e+01 0.0 
2.917460242467e+00 -3.202866455310e+00 0.0 
4.838200575963e+01 -1.232674147454e+01 0.0 
2.998445708009e+01 -1.854403752148e+01 0.0 
5.949940090766e-01 -1.152762038165e+01 0.0 
4.844763495759e+01 -1.678092548787e+01 0.0 
1.301685480160e+01 -3.170056592566e+00 0.0 
1.650046335855e+01 -6.731535384067e-01 0.0 
4.854881540991e+01 -1.405224059779e+01 0.0 
2.119545114693e+01 -1.846813384545e+01 0.0 
3.797852849897e+01 -1.857978513215e+01 0.0 
4.649823708745e+01 -1.338351810816e+01 0.0 
2.012685900976e+01 -2.889659035009e+00 0.0 
2.953271913273e+01 -1.791558075192e+01 0.0 
2.408509097292e+00 -1.021949208421e+01 0.0 
2.642589566221e+01 -1.773216561448e+01 0.0 
1.730010270775e+01 -1.763165076721e+01 0.0 
2.017406551304e+01 -8.513536440582e-01 0.0 
5.254761581934e-01 -1.249999999999e+01 0.0 
6.640448215642e+00 -1.545337834885e+00 0.0 
7.843361506349e+00 -1.852719839527e+01 0.0 
1.588442191088e+00 -1.066158564320e+01 0.0 
3.480610198624e+01 -9.413633635267e+00 0.0 
4.951470588234e+01 -9.500000000000e+00 0.0 

CELLS 1956 7824 
3 196 666 942 
3 666 196 944 
3 676 169 687 
3 789 554 978 
3 556 616 782 
3 646 559 685 
3 176 598 600 
3 196 623 944 
3 598 176 616 
3 549 784 978 
3 168 743 744 
3 623 196 958 
3 788 940 984 
3 605 736 826 
3 940 202 984 
3 195 789 978 
3 604 175 745 
3 559 646 684 
3 183 603 925 
3 603 183 863 
3 784 549 937 
3 914 160 920 
3 641 914 920 
3 591 590 800 
3 290 446 735 
3 743 168 852 
3 106 82 1005 
3 635 161 877 
3 288 290 735 
3 800 590 1010 
3 540 750 752 
3 193 606 783 
3 676 687 985 
3 19 181 656 
3 191 610 612 
3 619 66 976 
3 66 619 1002 
3 638 187 682 
3 602 97 955 
3 97 602 1016 
3 878 620 904 
3 156 642 781 
3 959 157 963 
3 82 205 1005 
3 597 204 954 
3 636 959 963 
3 750 540 753 
3 204 597 980 
3 746 747 753 
3 736 605 977 
3 198 641 878 
3 588 603 863 
3 366 979 997 
3 198 878 904 
3 688 170 868 
3 961 533 1006 
3 588 863 932 
3 181 626 656 
3 449 777 895 
3 784 195 978 
3 155 989 1030 
3 969 595 971 
3 415 443 649 
3 979 752 997 
3 760 579 984 
3 641 198 914 
3 989 599 1030 
3 169 676 949 
3 476 437 758 
3 165 624 690 
3 852 795 906 
3 33 32 644 
3 635 877 1007 
3 4 5 770 
3 767 961 1006 
3 607 172 858 
3 688 868 1017 
3 655 960 967 
3 777 449 1019 
3 960 197 967 
3 437 450 758 
3 175 604 965 
3 160 666 920 
3 666 160 942 
3 616 556 828 
3 598 616 828 
3 627 852 957 
3 18 19 656 
3 681 678 926 
3 556 782 965 
3 783 606 956 
3 207 734 1005 
3 780 951 975 
3 975 951 987 
3 173 33 644 
3 682 187 1012 
3 604 745 977 
3 781 642 990 
3 201 633 930 
3 649 443 650 
3 782 616 1000 
3 202 760 984 
3 363 929 953 
3 594 969 971 
3 484 482 660 
3 747 750 753 
3 787 788 910 
3 553 780 975 
3 155 746 753 
3 883 178 1002 
3 328 681 926 
3 4 770 1021 
3 551 647 683 
3 518 834 872 
3 562 764 988 
3 622 649 650 
3 417 415 649 
3 191 612 970 
3 633 201 1025 
3 621 417 649 
3 652 582 927 
3 205 207 1005 
3 780 553 1028 
3 417 621 660 
3 972 871 986 
3 637 887 896 
3 764 562 1018 
3 887 162 896 
3 172 607 998 
3 584 972 986 
3 743 852 906 
3 554 789 980 
3 491 548 648 
3 162 620 896 
3 610 191 990 
3 788 545 940 
3 627 795 852 
3 648 548 848 
3 592 720 1010 
3 524 640 648 
3 574 785 786 
3 624 165 996 
3 826 736 973 
3 433 405 654 
3 640 491 648 
3 620 162 904 
3 548 686 848 
3 660 486 855 
3 176 600 955 
3 647 282 683 
3 606 193 994 
3 941 947 1025 
3 771 183 925 
3 199 637 872 
3 720 592 729 
3 621 484 660 
3 656 627 957 
3 623 157 959 
3 929 589 953 
3 182 628 629 
3 643 282 647 
3 626 181 910 
3 476 652 927 
3 788 547 910 
3 663 536 691 
3 178 883 992 
3 941 546 947 
3 482 486 660 
3 834 199 872 
3 168 744 1041 
3 157 623 958 
3 282 643 657 
3 405 456 654 
3 628 182 1016 
3 486 647 855 
3 637 199 887 
3 530 719 924 
3 764 465 988 
3 161 635 950 
3 690 624 974 
3 622 650 944 
3 465 764 1004 
3 707 837 891 
3 640 524 878 
3 623 622 944 
3 663 518 872 
3 647 551 855 
3 171 784 937 
3 294 703 913 
3 181 787 910 
3 636 197 960 
3 492 657 881 
3 678 703 926 
3 81 107 645 
3 524 620 878 
3 880 552 884 
3 776 908 1001 
3 791 184 1017 
3 289 214 696 
3 911 270 938 
3 400 880 884 
3 734 207 983 
3 735 446 973 
3 590 592 1010 
3 921 812 948 
3 658 229 686 
3 488 378 691 
3 295 289 696 
3 485 663 691 
3 536 663 872 
3 434 894 934 
3 719 568 924 
3 645 179 646 
3 650 666 944 
3 650 443 665 
3 548 658 686 
3 703 673 913 
3 559 558 864 
3 552 651 870 
3 602 628 1016 
3 657 643 881 
3 348 870 919 
3 608 818 1042 
3 694 295 696 
3 818 164 1042 
3 776 777 908 
3 197 636 963 
3 921 564 922 
3 668 295 694 
3 564 563 922 
3 544 653 659 
3 370 751 823 
3 582 759 927 
3 837 400 891 
3 536 488 691 
3 579 760 992 
3 107 179 645 
3 453 483 659 
3 243 282 657 
3 641 640 878 
3 651 552 880 
3 619 883 1002 
3 905 294 913 
3 352 334 689 
3 400 884 891 
3 852 168 957 
3 686 296 848 
3 695 696 892 
3 595 969 1014 
3 243 657 664 
3 483 544 659 
3 213 485 661 
3 644 32 998 
3 229 658 833 
3 702 245 841 
3 629 628 630 
3 758 450 962 
3 485 662 663 
3 452 352 689 
3 558 692 793 
3 540 752 979 
3 295 668 830 
3 378 661 691 
3 417 660 855 
3 668 507 830 
3 703 294 926 
3 296 667 809 
3 163 617 976 
3 493 702 841 
3 221 487 667 
3 551 683 814 
3 493 701 702 
3 335 351 692 
3 733 174 734 
3 247 244 664 
3 364 715 716 
3 695 905 913 
3 107 108 179 
3 485 211 662 
3 334 332 689 
3 408 453 659 
3 337 335 692 
3 216 213 661 
3 606 652 956 
3 444 534 665 
3 493 700 701 
3 661 485 691 
3 733 734 735 
3 454 559 684 
3 364 716 718 
3 365 368 715 
3 650 665 666 
3 695 892 905 
3 443 444 665 
3 330 247 664 
3 657 492 664 
3 454 558 559 
3 683 239 814 
3 583 653 655 
3 37 170 688 
3 39 184 687 
3 230 229 833 
3 351 334 352 
3 407 408 466 
3 222 221 667 
3 351 352 407 
3 364 365 715 
3 296 809 848 
3 785 574 1003 
3 689 492 881 
3 894 550 934 
3 583 466 653 
3 188 57 708 
3 407 352 408 
3 227 296 686 
3 454 358 558 
3 730 423 838 
3 244 243 664 
3 368 712 715 
3 487 378 488 
3 42 709 710 
3 332 330 492 
3 493 321 700 
3 467 466 583 
3 698 383 821 
3 870 651 919 
3 483 484 542 
3 557 698 821 
3 186 45 690 
3 460 552 870 
3 41 169 709 
3 826 446 856 
3 681 328 946 
3 544 542 636 
3 489 488 521 
3 221 378 487 
3 221 219 378 
3 297 833 859 
3 161 47 693 
3 288 735 983 
3 662 518 663 
3 492 330 664 
3 563 759 922 
3 521 536 637 
3 483 482 484 
3 182 629 882 
3 368 711 712 
3 332 492 689 
3 672 694 695 
3 453 482 483 
3 487 488 489 
3 321 323 700 
3 496 723 810 
3 50 185 699 
3 524 522 620 
3 336 338 718 
3 577 911 938 
3 543 622 623 
3 542 484 543 
3 678 675 703 
3 227 225 296 
3 534 640 641 
3 489 521 522 
3 54 187 704 
3 187 638 964 
3 675 673 703 
3 695 694 696 
3 723 263 810 
3 415 416 443 
3 335 334 351 
3 333 332 334 
3 229 227 686 
3 510 730 838 
3 278 724 725 
3 671 669 672 
3 338 364 718 
3 412 297 413 
3 667 487 809 
3 414 413 415 
3 169 40 687 
3 184 38 688 
3 184 791 985 
3 496 722 723 
3 507 409 830 
3 483 542 544 
3 331 330 332 
3 558 358 692 
3 444 491 534 
3 732 733 736 
3 698 826 856 
3 708 706 800 
3 679 678 681 
3 213 211 485 
3 220 219 221 
3 358 337 692 
3 755 757 758 
3 282 241 683 
3 235 233 297 
3 241 239 683 
3 152 871 972 
3 629 630 631 
3 759 563 927 
3 408 452 453 
3 57 56 708 
3 342 344 434 
3 206 518 662 
3 183 771 993 
3 833 658 859 
3 243 241 282 
3 219 216 661 
3 165 43 710 
3 521 488 536 
3 225 222 667 
3 278 725 731 
3 669 668 694 
3 496 721 722 
3 44 165 690 
3 41 40 169 
3 37 36 170 
3 39 38 184 
3 218 216 219 
3 672 669 694 
3 677 675 678 
3 415 413 416 
3 443 416 444 
3 727 724 811 
3 671 672 673 
3 46 186 693 
3 586 507 668 
3 700 434 701 
3 586 668 669 
3 427 425 728 
3 235 297 412 
3 534 491 640 
3 407 466 467 
3 173 644 968 
3 414 415 417 
3 808 527 877 
3 724 278 811 
3 369 372 711 
3 188 708 800 
3 453 481 482 
3 42 41 709 
3 184 688 1017 
3 226 225 227 
3 755 756 757 
3 44 43 165 
3 153 704 705 
3 368 369 711 
3 323 342 700 
3 159 51 699 
3 115 154 756 
3 412 413 414 
3 224 222 225 
3 228 227 229 
3 296 225 667 
3 466 408 659 
3 46 45 186 
3 329 247 330 
3 455 454 684 
3 617 163 1043 
3 756 154 757 
3 523 522 524 
3 750 751 752 
3 637 536 872 
3 153 55 704 
3 48 47 161 
3 378 219 661 
3 747 749 750 
3 596 455 684 
3 750 749 751 
3 840 538 853 
3 732 174 733 
3 208 206 662 
3 50 49 185 
3 190 732 736 
3 170 36 697 
3 430 427 728 
3 557 605 698 
3 543 621 622 
3 342 434 700 
3 558 793 864 
3 52 51 159 
3 40 39 687 
3 38 37 688 
3 496 304 721 
3 299 301 727 
3 235 412 814 
3 304 306 721 
3 54 53 187 
3 408 352 452 
3 715 714 716 
3 712 713 714 
3 447 557 821 
3 58 188 720 
3 747 748 749 
3 56 55 153 
3 711 576 712 
3 43 42 710 
3 677 678 679 
3 114 115 756 
3 412 551 814 
3 506 409 507 
3 45 44 690 
3 218 219 220 
3 473 430 474 
3 467 583 584 
3 706 705 707 
3 468 575 576 
3 712 576 713 
3 746 189 747 
3 47 46 693 
3 692 351 793 
3 460 508 552 
3 557 604 605 
3 794 526 813 
3 712 714 715 
3 220 221 222 
3 51 50 699 
3 301 403 727 
3 312 348 418 
3 232 230 233 
3 571 464 572 
3 716 714 717 
3 721 418 722 
3 233 230 833 
3 569 426 843 
3 342 343 344 
3 234 233 235 
3 271 273 731 
3 453 452 481 
3 299 727 811 
3 474 430 728 
3 298 321 493 
3 56 153 708 
3 585 507 586 
3 469 794 813 
3 55 54 704 
3 153 705 706 
3 240 239 241 
3 747 189 748 
3 59 720 729 
3 670 669 671 
3 372 468 711 
3 58 57 188 
3 306 312 721 
3 444 490 491 
3 211 208 662 
3 298 493 841 
3 302 496 810 
3 464 423 730 
3 696 214 892 
3 523 648 848 
3 344 362 363 
3 631 630 632 
3 273 278 731 
3 323 325 342 
3 468 525 575 
3 495 317 796 
3 113 114 754 
3 482 481 486 
3 468 576 711 
3 724 566 725 
3 238 236 239 
3 312 418 721 
3 447 555 557 
3 372 435 468 
3 59 58 720 
3 224 225 226 
3 494 565 566 
3 226 227 228 
3 494 566 724 
3 754 114 756 
3 210 208 211 
3 763 762 764 
3 164 120 778 
3 403 458 494 
3 312 347 348 
3 792 462 817 
3 572 730 874 
3 572 464 730 
3 206 166 518 
3 190 104 732 
3 587 697 890 
3 228 229 230 
3 120 121 778 
3 582 502 759 
3 748 754 755 
3 564 921 948 
3 480 530 924 
3 560 792 817 
3 357 840 853 
3 281 279 790 
3 319 317 495 
3 460 471 508 
3 377 358 454 
3 194 762 763 
3 167 766 767 
3 156 60 729 
3 60 59 729 
3 762 761 765 
3 494 458 565 
3 302 304 496 
3 508 590 591 
3 502 421 759 
3 355 440 460 
3 776 774 777 
3 403 494 727 
3 725 566 726 
3 180 773 774 
3 194 761 762 
3 506 507 585 
3 121 122 775 
3 105 174 732 
3 105 106 174 
3 423 327 838 
3 167 10 766 
3 468 435 525 
3 653 466 659 
3 613 611 614 
3 693 186 808 
3 497 391 824 
3 543 484 621 
3 606 582 652 
3 489 522 523 
3 101 175 782 
3 100 101 782 
3 121 775 778 
3 775 774 776 
3 769 771 772 
3 345 286 420 
3 180 768 773 
3 761 158 765 
3 155 111 746 
3 286 281 790 
3 634 632 654 
3 103 104 190 
3 530 625 719 
3 306 311 312 
3 631 632 633 
3 10 11 766 
3 769 772 773 
3 30 29 785 
3 172 30 785 
3 557 555 604 
3 175 102 745 
3 766 763 767 
3 28 171 786 
3 420 286 790 
3 104 105 732 
3 103 190 745 
3 521 637 896 
3 36 35 697 
3 785 29 786 
3 180 774 775 
3 122 180 775 
3 581 502 582 
3 725 726 862 
3 787 545 788 
3 110 111 155 
3 192 779 780 
3 112 189 746 
3 463 423 464 
3 112 113 189 
3 111 112 746 
3 570 464 571 
3 516 579 580 
3 633 632 634 
3 809 523 848 
3 768 769 773 
3 318 319 798 
3 25 24 789 
3 195 25 789 
3 102 103 745 
3 399 327 423 
3 29 28 786 
3 473 474 589 
3 769 770 771 
3 768 203 769 
3 769 203 770 
3 11 12 194 
3 202 69 760 
3 80 79 204 
3 124 203 768 
3 13 158 761 
3 70 69 202 
3 68 178 760 
3 61 156 781 
3 76 177 779 
3 78 77 192 
3 69 68 760 
3 68 67 178 
3 192 77 779 
3 124 125 203 
3 98 99 176 
3 101 102 175 
3 180 123 768 
3 65 64 163 
3 191 62 781 
3 63 62 191 
3 123 124 768 
3 122 123 180 
3 61 60 156 
3 62 61 781 
3 76 75 177 
3 95 96 182 
3 77 76 779 
3 74 73 201 
3 93 94 546 
3 119 120 164 
3 117 118 193 
3 116 117 783 
3 115 116 154 
3 13 14 158 
3 12 13 761 
3 117 193 783 
3 16 17 168 
3 154 116 783 
3 34 33 173 
3 28 27 171 
3 31 30 172 
3 6 7 183 
3 9 10 167 
3 27 26 784 
3 19 20 181 
3 26 25 195 
3 20 21 787 
3 21 22 545 
3 194 12 761 
3 171 27 784 
3 26 195 784 
3 181 20 787 
3 21 545 787 
3 410 411 795 
3 189 113 754 
3 301 402 403 
3 775 776 778 
3 613 614 615 
3 494 724 727 
3 376 360 797 
3 345 420 421 
3 908 609 1001 
3 516 580 797 
3 403 404 458 
3 194 763 766 
3 360 422 797 
3 553 554 597 
3 11 194 766 
3 348 347 355 
3 310 308 361 
3 410 359 411 
3 478 410 795 
3 329 330 331 
3 523 524 648 
3 239 236 814 
3 318 317 319 
3 422 515 516 
3 626 478 627 
3 469 563 564 
3 541 462 549 
3 457 406 462 
3 602 601 628 
3 316 314 317 
3 359 318 798 
3 553 541 554 
3 457 541 553 
3 361 308 820 
3 516 547 579 
3 419 391 497 
3 626 627 656 
3 617 615 618 
3 549 462 792 
3 396 394 397 
3 312 311 347 
3 356 438 439 
3 375 461 469 
3 581 582 606 
3 748 189 754 
3 457 462 541 
3 516 515 547 
3 755 754 756 
3 674 673 675 
3 600 500 601 
3 346 360 376 
3 422 478 515 
3 525 526 577 
3 515 478 626 
3 600 601 602 
3 342 325 343 
3 617 618 619 
3 588 470 603 
3 612 611 613 
3 405 397 406 
3 439 470 533 
3 469 564 794 
3 741 739 742 
3 393 395 499 
3 280 284 299 
3 456 406 457 
3 396 405 433 
3 565 458 737 
3 627 478 795 
3 422 410 478 
3 405 406 456 
3 398 350 436 
3 458 404 459 
3 431 517 593 
3 397 804 817 
3 403 402 404 
3 310 361 796 
3 610 538 611 
3 396 397 405 
3 539 455 596 
3 513 608 609 
3 339 337 358 
3 422 516 797 
3 395 394 396 
3 743 741 744 
3 499 500 598 
3 460 440 471 
3 737 459 738 
3 360 410 422 
3 439 438 470 
3 613 615 617 
3 458 459 737 
3 533 470 588 
3 459 404 806 
3 299 300 301 
3 285 281 286 
3 740 741 743 
3 119 164 818 
3 193 118 818 
3 411 359 798 
3 356 398 438 
3 316 317 318 
3 317 314 796 
3 273 277 278 
3 372 373 435 
3 419 497 498 
3 685 559 1035 
3 301 401 402 
3 508 471 590 
3 438 398 449 
3 499 395 500 
3 598 500 600 
3 501 421 502 
3 537 504 538 
3 390 388 391 
3 356 350 398 
3 573 497 842 
3 498 497 573 
3 293 350 356 
3 622 621 649 
3 287 286 345 
3 360 359 410 
3 738 739 740 
3 586 669 670 
3 419 498 560 
3 346 318 359 
3 316 318 346 
3 345 421 501 
3 346 359 360 
3 390 391 392 
3 740 739 741 
3 393 394 395 
3 392 391 419 
3 245 246 841 
3 804 560 817 
3 404 465 806 
3 738 459 739 
3 401 300 561 
3 275 272 276 
3 393 392 394 
3 267 269 302 
3 285 287 293 
3 513 502 581 
3 390 392 393 
3 285 286 287 
3 610 611 612 
3 397 394 804 
3 346 376 799 
3 153 706 708 
3 404 402 465 
3 293 287 350 
3 501 502 513 
3 315 314 316 
3 396 433 803 
3 513 581 608 
3 299 284 300 
3 603 470 801 
3 393 499 802 
3 301 300 401 
3 314 310 796 
3 401 561 562 
3 462 406 817 
3 284 281 285 
3 309 313 357 
3 469 461 563 
3 313 310 314 
3 742 739 806 
3 315 316 799 
3 716 717 898 
3 470 438 801 
3 601 500 803 
3 463 464 570 
3 413 297 859 
3 395 396 803 
3 375 469 813 
3 387 389 447 
3 438 449 801 
3 614 611 840 
3 399 423 463 
3 344 343 362 
3 498 573 574 
3 302 303 304 
3 436 350 807 
3 307 305 308 
3 537 538 610 
3 525 435 526 
3 316 346 799 
3 394 392 804 
3 369 371 372 
3 309 308 310 
3 555 448 556 
3 439 533 839 
3 280 281 284 
3 232 233 234 
3 313 314 315 
3 444 416 490 
3 234 235 236 
3 389 388 390 
3 500 395 803 
3 447 448 555 
3 739 459 806 
3 477 379 504 
3 304 305 306 
3 499 598 828 
3 676 675 677 
3 363 362 431 
3 309 310 313 
3 392 419 804 
3 273 275 277 
3 277 279 280 
3 345 501 807 
3 306 307 311 
3 280 299 811 
3 389 390 802 
3 447 389 448 
3 249 251 298 
3 790 279 812 
3 331 332 333 
3 280 279 281 
3 277 275 279 
3 287 345 807 
3 355 379 440 
3 268 266 270 
3 419 560 804 
3 264 266 267 
3 306 305 307 
3 302 269 303 
3 238 239 240 
3 350 287 807 
3 477 504 537 
3 477 537 642 
3 424 426 569 
3 273 272 275 
3 304 303 305 
3 390 393 802 
3 278 277 811 
3 412 414 551 
3 284 285 805 
3 435 373 813 
3 271 272 273 
3 285 293 805 
3 356 439 831 
3 303 269 503 
3 307 308 309 
3 442 479 480 
3 118 119 818 
3 260 258 261 
3 264 262 265 
3 271 270 272 
3 448 389 802 
3 267 268 269 
3 300 284 805 
3 268 270 271 
3 406 397 817 
3 561 300 805 
3 513 609 827 
3 807 501 827 
3 526 435 813 
3 275 276 812 
3 260 262 263 
3 267 266 268 
3 375 437 461 
3 436 807 827 
3 698 605 826 
3 805 293 831 
3 355 347 379 
3 428 441 442 
3 212 211 213 
3 451 385 472 
3 480 529 530 
3 246 249 841 
3 426 428 843 
3 373 374 375 
3 271 731 815 
3 242 241 243 
3 365 367 368 
3 437 374 450 
3 277 280 811 
3 264 265 266 
3 263 262 264 
3 561 805 831 
3 267 302 810 
3 260 261 262 
3 256 258 259 
3 279 275 812 
3 326 324 327 
3 387 388 389 
3 256 254 257 
3 440 379 477 
3 372 371 373 
3 590 471 592 
3 263 264 810 
3 530 624 625 
3 223 222 224 
3 373 375 813 
3 215 213 216 
3 505 409 506 
3 263 723 846 
3 486 643 647 
3 217 216 218 
3 297 233 833 
3 375 374 437 
3 607 578 644 
3 461 437 476 
3 638 532 639 
3 792 560 835 
3 349 327 399 
3 802 499 828 
3 386 385 451 
3 259 258 260 
3 298 320 321 
3 535 472 578 
3 309 357 816 
3 384 386 387 
3 463 570 651 
3 373 371 374 
3 384 382 385 
3 693 808 877 
3 477 642 829 
3 268 271 815 
3 448 802 828 
3 556 448 828 
3 264 267 810 
3 311 307 816 
3 347 311 819 
3 501 513 827 
3 333 334 335 
3 252 254 255 
3 256 257 258 
3 236 235 814 
3 535 578 607 
3 671 673 674 
3 560 498 835 
3 491 490 548 
3 381 353 409 
3 307 309 816 
3 573 842 858 
3 354 382 383 
3 269 268 815 
3 252 250 253 
3 384 385 386 
3 451 472 535 
3 391 388 824 
3 387 386 388 
3 538 504 853 
3 531 445 532 
3 504 379 819 
3 308 305 820 
3 620 522 896 
3 326 349 380 
3 291 289 295 
3 293 356 831 
3 255 254 256 
3 572 874 886 
3 321 322 323 
3 338 340 364 
3 252 253 254 
3 323 324 325 
3 489 523 809 
3 503 269 815 
3 383 698 856 
3 616 176 1000 
3 84 143 152 
3 305 303 820 
3 349 399 400 
3 670 671 791 
3 298 251 320 
3 303 503 820 
3 387 447 821 
3 85 144 197 
3 326 327 349 
3 322 320 510 
3 487 489 809 
3 311 816 819 
3 368 367 369 
3 379 347 819 
3 471 440 829 
3 325 324 326 
3 388 386 824 
3 432 430 473 
3 440 477 829 
3 86 145 157 
3 383 384 821 
3 593 517 594 
3 386 451 824 
3 323 322 324 
3 251 250 252 
3 893 565 897 
3 377 454 455 
3 497 824 842 
3 831 439 839 
3 87 146 196 
3 429 427 430 
3 498 574 835 
3 369 370 371 
3 231 230 232 
3 383 382 384 
3 862 726 867 
3 364 340 365 
3 486 481 643 
3 450 374 823 
3 369 367 370 
3 371 370 823 
3 321 320 322 
3 697 35 890 
3 88 147 160 
3 611 538 840 
3 248 247 329 
3 292 354 856 
3 339 358 377 
3 592 471 829 
3 374 371 823 
3 562 561 839 
3 343 325 822 
3 260 263 846 
3 431 445 517 
3 414 417 855 
3 291 295 830 
3 531 532 638 
3 384 387 821 
3 671 674 791 
3 382 381 845 
3 381 409 505 
3 351 407 793 
3 614 840 860 
3 354 381 382 
3 245 702 866 
3 89 148 198 
3 531 638 682 
3 336 335 337 
3 561 831 839 
3 431 362 445 
3 183 7 863 
3 237 236 238 
3 326 380 822 
3 505 506 825 
3 506 585 587 
3 325 326 822 
3 472 385 845 
3 246 244 247 
3 428 442 843 
3 90 149 162 
3 677 679 680 
3 91 150 199 
3 151 91 834 
3 249 298 841 
3 82 151 166 
3 519 274 520 
3 240 241 242 
3 252 255 832 
3 365 340 366 
3 249 250 251 
3 451 535 842 
3 674 675 676 
3 357 313 860 
3 517 445 531 
3 259 260 846 
3 381 505 845 
3 251 252 832 
3 615 614 869 
3 385 382 845 
3 409 353 830 
3 327 324 838 
3 246 248 249 
3 442 441 479 
3 220 222 223 
3 365 366 367 
3 336 337 338 
3 551 414 855 
3 228 230 231 
3 618 615 873 
3 354 353 381 
3 249 248 250 
3 424 569 849 
3 380 349 837 
3 824 451 842 
3 480 479 529 
3 446 292 856 
3 552 508 884 
3 320 251 832 
3 349 400 837 
3 234 236 237 
3 578 472 861 
3 530 529 624 
3 322 510 838 
3 338 337 339 
3 432 473 475 
3 237 274 512 
3 246 247 248 
3 324 322 838 
3 355 460 870 
3 338 339 340 
3 510 320 832 
3 215 216 217 
3 618 873 879 
3 217 218 328 
3 429 430 432 
3 212 213 215 
3 209 208 210 
3 223 224 283 
3 532 445 847 
3 840 357 860 
3 292 353 354 
3 506 587 825 
3 210 211 212 
3 329 331 509 
3 432 475 528 
3 842 535 858 
3 238 240 836 
3 237 238 274 
3 248 329 844 
3 353 291 830 
3 490 416 859 
3 519 520 550 
3 416 413 859 
3 362 343 847 
3 528 595 635 
3 253 250 844 
3 377 455 511 
3 585 586 868 
3 548 490 658 
3 886 259 899 
3 528 475 595 
3 292 291 353 
3 816 357 853 
3 242 243 244 
3 511 455 539 
3 879 580 883 
3 231 232 341 
3 344 363 894 
3 479 441 527 
3 539 596 599 
3 819 816 853 
3 452 689 881 
3 290 292 446 
3 361 867 888 
3 250 248 844 
3 615 869 873 
3 512 274 519 
3 329 509 844 
3 231 341 424 
3 511 539 540 
3 426 427 428 
3 343 822 847 
3 625 624 996 
3 428 429 441 
3 336 718 865 
3 313 315 860 
3 535 607 858 
3 682 159 900 
3 445 362 847 
3 245 244 246 
3 424 425 426 
3 797 580 879 
3 741 742 876 
3 428 427 429 
3 354 383 856 
3 614 860 869 
3 504 819 853 
3 95 182 882 
3 546 94 882 
3 215 217 294 
3 426 425 427 
3 495 796 888 
3 223 283 514 
3 520 274 836 
3 707 891 1015 
3 242 244 245 
3 34 173 890 
3 207 206 208 
3 274 238 836 
3 361 820 867 
3 333 335 336 
3 503 815 862 
3 424 341 425 
3 226 228 849 
3 290 291 292 
3 514 283 567 
3 514 567 568 
3 772 771 925 
3 815 731 862 
3 658 490 859 
3 218 220 850 
3 328 218 850 
3 639 532 875 
3 7 8 863 
3 366 340 854 
3 232 234 851 
3 731 725 862 
3 91 199 834 
3 166 151 834 
3 290 289 291 
3 407 467 793 
3 867 726 888 
3 400 399 880 
3 340 339 854 
3 161 693 877 
3 845 505 861 
3 566 565 893 
3 860 315 869 
3 777 774 895 
3 463 651 880 
3 341 232 851 
3 773 772 895 
3 472 845 861 
3 339 377 854 
3 220 223 850 
3 228 231 849 
3 256 259 886 
3 722 418 915 
3 505 825 861 
3 418 348 919 
3 237 512 851 
3 234 237 851 
3 143 83 871 
3 377 511 854 
3 429 432 857 
3 209 210 214 
3 432 528 857 
3 481 452 881 
3 673 672 913 
3 527 441 857 
3 518 166 834 
3 441 429 857 
3 315 799 869 
3 728 425 885 
3 503 862 867 
3 820 503 867 
3 586 670 868 
3 723 722 912 
3 231 424 849 
3 702 701 918 
3 348 355 870 
3 836 240 866 
3 865 718 898 
3 730 510 874 
3 509 331 865 
3 223 514 850 
3 509 865 898 
3 283 224 889 
3 532 847 875 
3 847 822 875 
3 240 242 866 
3 288 289 290 
3 869 799 873 
3 799 376 873 
3 467 584 864 
3 283 889 907 
3 618 879 883 
3 534 641 920 
3 495 893 897 
3 152 143 871 
3 873 376 879 
3 333 336 865 
3 744 741 876 
3 894 363 953 
3 288 214 289 
3 209 214 288 
3 341 851 885 
3 90 162 887 
3 199 150 887 
3 376 797 879 
3 915 418 919 
3 572 886 899 
3 399 463 880 
3 832 255 874 
3 331 333 865 
3 150 90 887 
3 207 208 209 
3 94 95 882 
3 822 380 875 
3 242 245 866 
3 531 682 900 
3 515 626 910 
3 510 832 874 
3 619 618 883 
3 898 717 902 
3 594 517 900 
3 851 512 885 
3 474 728 909 
3 508 591 884 
3 272 270 911 
3 849 569 889 
3 874 255 886 
3 226 849 889 
3 643 481 881 
3 589 474 917 
3 255 256 886 
3 796 361 888 
3 224 226 889 
3 986 200 999 
3 701 434 934 
3 655 152 972 
3 436 827 908 
3 495 888 893 
3 442 480 916 
3 214 210 892 
3 89 198 904 
3 35 34 890 
3 83 142 200 
3 162 149 904 
3 571 572 899 
3 565 737 897 
3 522 521 896 
3 928 713 931 
3 912 722 915 
3 425 341 885 
3 434 344 894 
3 679 981 991 
3 793 467 864 
3 726 566 893 
3 897 737 901 
3 790 812 921 
3 205 166 206 
3 210 212 892 
3 18 656 957 
3 774 773 895 
3 599 596 943 
3 759 421 922 
3 737 738 901 
3 253 902 923 
3 714 713 928 
3 718 716 898 
3 319 495 897 
3 215 294 905 
3 901 738 903 
3 253 844 902 
3 889 569 907 
3 605 604 977 
3 363 431 929 
3 738 740 903 
3 319 897 901 
3 88 160 914 
3 257 254 923 
3 903 740 906 
3 177 75 930 
3 74 201 930 
3 198 148 914 
3 798 319 901 
3 576 575 933 
3 655 653 960 
3 517 531 900 
3 563 461 927 
3 933 575 935 
3 918 701 934 
3 149 89 904 
3 740 743 906 
3 9 167 932 
3 205 206 207 
3 798 901 903 
3 259 846 899 
3 888 726 893 
3 646 685 999 
3 954 192 1028 
3 261 258 931 
3 837 707 952 
3 474 909 917 
3 411 798 903 
3 411 903 906 
3 902 717 923 
3 476 758 1008 
3 685 986 999 
3 795 411 906 
3 884 591 891 
3 525 577 936 
3 569 843 907 
3 666 665 920 
3 567 283 907 
3 642 156 995 
3 108 109 943 
3 24 23 939 
3 71 70 940 
3 73 72 941 
3 265 262 935 
3 728 885 909 
3 844 509 902 
3 827 609 908 
3 83 200 871 
3 792 835 937 
3 212 215 905 
3 82 166 205 
3 48 161 950 
3 863 8 932 
3 185 49 950 
3 892 212 905 
3 270 266 938 
3 885 512 909 
3 265 935 936 
3 544 636 960 
3 936 577 938 
3 294 217 926 
3 547 515 910 
3 261 931 933 
3 567 907 916 
3 943 109 1030 
3 257 923 928 
3 672 695 913 
3 276 272 911 
3 577 526 945 
3 512 519 909 
3 751 370 997 
3 87 196 942 
3 160 147 942 
3 276 945 948 
3 571 899 912 
3 836 866 918 
3 907 843 916 
3 676 677 949 
3 148 88 914 
3 779 177 951 
3 624 529 974 
3 509 898 902 
3 152 655 967 
3 665 534 920 
3 846 723 912 
3 514 568 946 
3 899 846 912 
3 559 864 1035 
3 570 571 915 
3 636 542 959 
3 866 702 918 
3 571 912 915 
3 909 519 917 
3 433 654 1034 
3 812 276 948 
3 583 655 972 
3 570 915 919 
3 543 623 959 
3 943 596 1013 
3 204 79 954 
3 78 192 954 
3 757 154 956 
3 651 570 919 
3 420 921 922 
3 420 790 921 
3 916 480 924 
3 519 550 917 
3 843 442 916 
3 257 928 931 
3 97 98 955 
3 191 781 990 
3 421 420 922 
3 380 837 952 
3 520 836 918 
3 603 801 925 
3 328 850 946 
3 254 253 923 
3 755 758 962 
3 717 714 928 
3 17 18 957 
3 217 328 926 
3 461 476 927 
3 744 876 1027 
3 568 567 924 
3 431 593 929 
3 911 577 945 
3 932 167 1006 
3 520 918 934 
3 75 74 930 
3 749 748 962 
3 808 186 974 
3 687 184 985 
3 201 941 1025 
3 644 578 968 
3 709 169 949 
3 258 257 931 
3 261 933 935 
3 705 704 964 
3 179 108 943 
3 8 9 932 
3 744 1027 1041 
3 276 911 945 
3 713 576 933 
3 86 157 958 
3 196 146 958 
3 604 555 965 
3 923 717 928 
3 839 533 961 
3 473 589 966 
3 163 64 970 
3 63 191 970 
3 262 261 935 
3 190 736 977 
3 599 943 1030 
3 85 197 963 
3 752 751 997 
3 157 145 963 
3 550 520 934 
3 575 525 936 
3 931 713 933 
3 753 540 989 
3 597 954 1028 
3 935 575 936 
3 549 792 937 
3 457 553 975 
3 789 24 939 
3 70 202 940 
3 201 73 941 
3 265 936 938 
3 147 87 942 
3 266 265 938 
3 66 65 976 
3 84 152 967 
3 197 144 967 
3 639 875 952 
3 782 175 965 
3 554 541 978 
3 567 916 924 
3 593 594 971 
3 679 681 981 
3 630 628 982 
3 945 794 948 
3 526 794 945 
3 951 177 1031 
3 966 593 971 
3 174 106 1005 
3 546 882 947 
3 629 631 947 
3 628 601 982 
3 511 540 979 
3 794 564 948 
3 574 786 1009 
3 803 433 982 
3 159 682 1012 
3 677 680 949 
3 850 514 946 
3 861 825 968 
3 465 402 988 
3 401 562 988 
3 642 537 990 
3 155 753 989 
3 588 932 1006 
3 49 48 950 
3 6 183 993 
3 882 629 947 
3 706 707 1015 
3 581 606 994 
3 164 778 1001 
3 31 172 998 
3 100 782 1000 
3 858 172 1003 
3 705 964 1039 
3 176 99 1000 
3 179 943 1013 
3 789 939 980 
3 436 908 1019 
3 574 573 1003 
3 67 66 1002 
3 674 676 985 
3 366 854 979 
3 736 733 973 
3 764 762 1004 
3 589 929 966 
3 52 159 1012 
3 780 779 951 
3 187 53 1012 
3 540 539 989 
3 617 619 976 
3 367 366 997 
3 772 925 1024 
3 188 800 1010 
3 697 587 1011 
3 607 644 998 
3 600 602 955 
3 207 209 983 
3 653 544 960 
3 709 949 1026 
3 767 763 1018 
3 584 986 1035 
3 929 593 966 
3 96 97 1016 
3 587 585 1011 
3 3 80 1020 
3 23 3 1020 
3 125 0 1021 
3 0 4 1021 
3 72 1 1022 
3 1 93 1022 
3 2 71 1023 
3 22 2 1023 
3 770 203 1021 
3 110 155 1030 
3 883 580 992 
3 528 635 1007 
3 449 398 1019 
3 613 617 1043 
3 16 168 1041 
3 158 14 1027 
3 654 632 1034 
3 823 751 1029 
3 589 917 953 
3 908 777 1019 
3 806 465 1037 
3 949 680 1026 
3 79 78 954 
3 876 158 1027 
3 631 633 1025 
3 527 808 1038 
3 981 719 991 
3 946 568 981 
3 98 176 955 
3 550 894 953 
3 868 670 1017 
3 533 588 1006 
3 154 783 956 
3 479 527 1038 
3 875 380 952 
3 751 749 1029 
3 634 951 1031 
3 760 178 992 
3 527 857 1007 
3 877 527 1007 
3 168 17 957 
3 645 646 999 
3 146 86 958 
3 542 543 959 
3 733 735 973 
3 917 550 953 
3 835 574 1009 
3 704 187 964 
3 748 755 962 
3 757 956 1008 
3 145 85 963 
3 654 456 987 
3 562 839 961 
3 825 587 1033 
3 925 801 1024 
3 638 639 964 
3 555 556 965 
3 699 185 969 
3 475 473 966 
3 735 734 983 
3 729 592 995 
3 587 890 1033 
3 939 204 980 
3 144 84 967 
3 578 861 968 
3 186 690 974 
3 964 639 1039 
3 475 966 971 
3 64 63 970 
3 681 946 981 
3 81 645 1040 
3 584 583 972 
3 680 679 991 
3 446 826 973 
3 547 788 984 
3 595 475 971 
3 163 970 1043 
3 456 457 975 
3 159 699 1032 
3 829 642 995 
3 592 829 995 
3 961 767 1018 
3 65 163 976 
3 745 190 977 
3 541 549 978 
3 758 757 1008 
3 553 597 1028 
3 634 654 987 
3 770 5 993 
3 854 511 979 
3 568 719 981 
3 172 785 1003 
3 597 554 980 
3 900 159 1032 
3 601 803 982 
3 193 818 994 
3 684 646 1013 
3 818 608 994 
3 652 476 1008 
3 142 81 1040 
3 465 1004 1037 
3 579 547 984 
3 791 674 985 
3 209 288 983 
3 402 401 988 
3 537 610 990 
3 591 800 1015 
3 969 185 1014 
3 808 974 1038 
3 719 625 991 
3 956 652 1008 
3 539 599 989 
3 580 579 992 
3 771 770 993 
3 5 6 993 
3 871 200 986 
3 608 581 994 
3 156 729 995 
3 165 710 996 
3 937 835 1009 
3 185 950 1014 
3 891 591 1015 
3 982 433 1034 
3 32 31 998 
3 370 367 997 
3 99 100 1000 
3 749 962 1029 
3 778 776 1001 
3 178 67 1002 
3 734 174 1005 
3 895 772 1024 
3 762 765 1004 
3 996 710 1026 
3 573 858 1003 
3 170 697 1011 
3 167 767 1006 
3 596 684 1013 
3 970 612 1043 
3 939 23 1020 
3 71 940 1023 
3 941 72 1022 
3 800 706 1015 
3 449 895 1024 
3 968 825 1033 
3 164 1001 1042 
3 720 188 1010 
3 868 170 1011 
3 646 179 1013 
3 857 528 1007 
3 456 975 987 
3 786 171 1009 
3 53 52 1012 
3 177 930 1031 
3 710 709 1026 
3 585 868 1011 
3 951 634 987 
3 996 1026 1036 
3 763 764 1018 
3 182 96 1016 
3 635 595 1014 
3 80 204 1020 
3 203 125 1021 
3 93 546 1022 
3 545 22 1023 
3 398 436 1019 
3 707 705 1039 
3 670 791 1017 
3 171 937 1009 
3 801 449 1024 
3 986 685 1035 
3 14 15 1027 
3 192 780 1028 
3 109 110 1030 
3 890 173 1033 
3 633 634 1031 
3 450 823 1029 
3 632 630 1034 
3 950 635 1014 
3 1027 15 1041 
3 200 142 1040 
3 562 961 1018 
3 742 806 1037 
3 15 16 1041 
3 594 900 1032 
3 765 158 1044 
3 876 742 1044 
3 609 608 1042 
3 612 613 1043 
3 529 479 1038 
3 864 584 1035 
3 204 939 1020 
3 940 545 1023 
3 546 941 1022 
3 930 633 1031 
3 1037 765 1044 
3 742 1037 1044 
3 158 876 1044 
3 639 952 1039 
3 962 450 1029 
3 974 529 1038 
3 947 631 1025 
3 173 968 1033 
3 952 707 1039 
3 630 982 1034 
3 680 991 1036 
3 969 594 1032 
3 699 969 1032 
3 999 200 1040 
3 991 625 1036 
3 625 996 1036 
3 1001 609 1042 
3 1004 765 1037 
3 645 999 1040 
3 1026 680 1036 
3 140 141 93 
3 140 93 94 
3 139 140 94 
3 139 94 95 
3 138 139 95 
3 138 95 96 
3 137 138 96 
3 137 96 97 
3 136 137 97 
3 136 97 98 
3 135 136 98 
3 135 98 99 
3 127 82 1045 
3 134 135 99 
3 106 82 127 
3 134 99 100 
3 133 134 100 
3 101 133 100 
3 132 133 101 
3 102 132 101 
3 131 132 102 
3 131 102 103 
3 126 127 1045 
3 131 103 130 
3 103 104 130 
3 104 129 130 
3 104 105 129 
3 105 106 128 
3 129 105 128 
3 128 106 127 
3 82 151 1045 
3 151 126 1045 
3 92 1 1046 
3 93 141 1046 
3 1 93 1046 
3 141 92 1046 
3 151 91 126 

CELL_TYPES 1956
5
5
5
5
5
5
5
5
5
5
5
5
5
5
5
5
5
5
5
5
5
5
5
5
5
5
5
5
5
5
5
5
5
5
5
5
5
5
5
5
5
5
5
5
5
5
5
5
5
5
5
5
5
5
5
5
5
5
5
5
5
5
5
5
5
5
5
5
5
5
5
5
5
5
5
5
5
5
5
5
5
5
5
5
5
5
5
5
5
5
5
5
5
5
5
5
5
5
5
5
5
5
5
5
5
5
5
5
5
5
5
5
5
5
5
5
5
5
5
5
5
5
5
5
5
5
5
5
5
5
5
5
5
5
5
5
5
5
5
5
5
5
5
5
5
5
5
5
5
5
5
5
5
5
5
5
5
5
5
5
5
5
5
5
5
5
5
5
5
5
5
5
5
5
5
5
5
5
5
5
5
5
5
5
5
5
5
5
5
5
5
5
5
5
5
5
5
5
5
5
5
5
5
5
5
5
5
5
5
5
5
5
5
5
5
5
5
5
5
5
5
5
5
5
5
5
5
5
5
5
5
5
5
5
5
5
5
5
5
5
5
5
5
5
5
5
5
5
5
5
5
5
5
5
5
5
5
5
5
5
5
5
5
5
5
5
5
5
5
5
5
5
5
5
5
5
5
5
5
5
5
5
5
5
5
5
5
5
5
5
5
5
5
5
5
5
5
5
5
5
5
5
5
5
5
5
5
5
5
5
5
5
5
5
5
5
5
5
5
5
5
5
5
5
5
5
5
5
5
5
5
5
5
5
5
5
5
5
5
5
5
5
5
5
5
5
5
5
5
5
5
5
5
5
5
5
5
5
5
5
5
5
5
5
5
5
5
5
5
5
5
5
5
5
5
5
5
5
5
5
5
5
5
5
5
5
5
5
5
5
5
5
5
5
5
5
5
5
5
5
5
5
5
5
5
5
5
5
5
5
5
5
5
5
5
5
5
5
5
5
5
5
5
5
5
5
5
5
5
5
5
5
5
5
5
5
5
5
5
5
5
5
5
5
5
5
5
5
5
5
5
5
5
5
5
5
5
5
5
5
5
5
5
5
5
5
5
5
5
5
5
5
5
5
5
5
5
5
5
5
5
5
5
5
5
5
5
5
5
5
5
5
5
5
5
5
5
5
5
5
5
5
5
5
5
5
5
5
5
5
5
5
5
5
5
5
5
5
5
5
5
5
5
5
5
5
5
5
5
5
5
5
5
5
5
5
5
5
5
5
5
5
5
5
5
5
5
5
5
5
5
5
5
5
5
5
5
5
5
5
5
5
5
5
5
5
5
5
5
5
5
5
5
5
5
5
5
5
5
5
5
5
5
5
5
5
5
5
5
5
5
5
5
5
5
5
5
5
5
5
5
5
5
5
5
5
5
5
5
5
5
5
5
5
5
5
5
5
5
5
5
5
5
5
5
5
5
5
5
5
5
5
5
5
5
5
5
5
5
5
5
5
5
5
5
5
5
5
5
5
5
5
5
5
5
5
5
5
5
5
5
5
5
5
5
5
5
5
5
5
5
5
5
5
5
5
5
5
5
5
5
5
5
5
5
5
5
5
5
5
5
5
5
5
5
5
5
5
5
5
5
5
5
5
5
5
5
5
5
5
5
5
5
5
5
5
5
5
5
5
5
5
5
5
5
5
5
5
5
5
5
5
5
5
5
5
5
5
5
5
5
5
5
5
5
5
5
5
5
5
5
5
5
5
5
5
5
5
5
5
5
5
5
5
5
5
5
5
5
5
5
5
5
5
5
5
5
5
5
5
5
5
5
5
5
5
5
5
5
5
5
5
5
5
5
5
5
5
5
5
5
5
5
5
5
5
5
5
5
5
5
5
5
5
5
5
5
5
5
5
5
5
5
5
5
5
5
5
5
5
5
5
5
5
5
5
5
5
5
5
5
5
5
5
5
5
5
5
5
5
5
5
5
5
5
5
5
5
5
5
5
5
5
5
5
5
5
5
5
5
5
5
5
5
5
5
5
5
5
5
5
5
5
5
5
5
5
5
5
5
5
5
5
5
5
5
5
5
5
5
5
5
5
5
5
5
5
5
5
5
5
5
5
5
5
5
5
5
5
5
5
5
5
5
5
5
5
5
5
5
5
5
5
5
5
5
5
5
5
5
5
5
5
5
5
5
5
5
5
5
5
5
5
5
5
5
5
5
5
5
5
5
5
5
5
5
5
5
5
5
5
5
5
5
5
5
5
5
5
5
5
5
5
5
5
5
5
5
5
5
5
5
5
5
5
5
5
5
5
5
5
5
5
5
5
5
5
5
5
5
5
5
5
5
5
5
5
5
5
5
5
5
5
5
5
5
5
5
5
5
5
5
5
5
5
5
5
5
5
5
5
5
5
5
5
5
5
5
5
5
5
5
5
5
5
5
5
5
5
5
5
5
5
5
5
5
5
5
5
5
5
5
5
5
5
5
5
5
5
5
5
5
5
5
5
5
5
5
5
5
5
5
5
5
5
5
5
5
5
5
5
5
5
5
5
5
5
5
5
5
5
5
5
5
5
5
5
5
5
5
5
5
5
5
5
5
5
5
5
5
5
5
5
5
5
5
5
5
5
5
5
5
5
5
5
5
5
5
5
5
5
5
5
5
5
5
5
5
5
5
5
5
5
5
5
5
5
5
5
5
5
5
5
5
5
5
5
5
5
5
5
5
5
5
5
5
5
5
5
5
5
5
5
5
5
5
5
5
5
5
5
5
5
5
5
5
5
5
5
5
5
5
5
5
5
5
5
5
5
5
5
5
5
5
5
5
5
5
5
5
5
5
5
5
5
5
5
5
5
5
5
5
5
5
5
5
5
5
5
5
5
5
5
5
5
5
5
5
5
5
5
5
5
5
5
5
5
5
5
5
5
5
5
5
5
5
5
5
5
5
5
5
5
5
5
5
5
5
5
5
5
5
5
5
5
5
5
5
5
5
5
5
5
5
5
5
5
5
5
5
5
5
5
5
5
5
5
5
5
5
5
5
5
5
5
5
5
5
5
5
5
5
5
5
5
5
5
5
5
5
5
5
5
5
5
5
5
5
5
5
5
5
5
5
5
5
5
5
5
5
5
5
5
5
5
5
5
5
5
5
5
5
5
5
5
5
5
5
5
5
5
5
5
5
5
5
5
5
5
5
5
5
5
5
5
5
5
5
5
5
5
5
5
5
5
5
5
5
5
5
5
5
5
5
5
5
5
5
5
5
5
5
5
5
5
5
5
5
5
5
5
5
5
5
5
5
5
5
5
5
5
5
5
5
5
5
5
5
5
5
5
5
5
5
5
5
5
5
5
5
5
5
5
5
5
5
5
5
5
5
5
5
5
5
5
5
5
5
5
5
5
5
5
5
5
5
5
5
5
5
5
5
5
5
5
5
5
5
5
5
5
5
5
5
5
5
5
5
5
5
5
5
5
5
5
5
5
5
5
5
5
5
5
5
5
5
5
5
5
5
5
5
5
5
5
5
5
5
5
5
5
5
5
5
5
5
5
5
5
5
5
5
5
5
5
5
5
5
5
5
5
5
5
5
5
5
5
5
5
5
5
5
5
5
5
5
5
5
5
5
5
5
5
5
5
5
5
5
5
5
5
5
5
5
5
5
5
5
5
5
5
5
5
5
5
5
5
5
5
5
5
5
5
5
5
5
5
5
5
5
5
5
5
5
5
5
5
5
5
5
5
5
5
5
5
5
5
5
5
5
5
5
5
5
5
5
5
5
5
5
5
5
5
5
5
5
5
5
5
5
5
5
5
5
5
5
5
5
5
5
5
5
5
5
5
5
5
5
5
5
5
5
5
5
5
5
5
5
5
5
5
5
5
5
5
5
5
5
5
5
5
5
5
5
5
5
5
5
5
5
5
5
5
5
5
5
5
5
5
5
5
5
5
5
5
5
5
5
5
5
5
5
5
5
5
5
5
5
5
5
5
5
5
5
5
5
5
5
5
5
5
5
5
5
5
5
5
5
5
5
5
5
5
5
5
5
5
5
5
5
5
5
5
5
5
5
5
5
5
5
5
5
5
5
5
5
5
5
5
5
5
5
5
5
5
5
5
5
5
5
5
5
5
5
5
5
5
5
5
5
5
5
5
5
5
5
5
5
5
5
5
5
5
5
5
5
5
5
5
5
5
5
5
5
5
5
5
5
5
5
5
5
5
5
5
5
5
5
5
5
5
5
5
5
5
5
5
5
5
5
5
5
5
5
5
5
5
5
5
5
5
5
5
5
5
5
5
5
5
5
5
5
5
5
5
5
5
5
5
5
5
5
5
5
5
5
5
5
5
5
5
5
5
5
5
5
5
5
5
5
5
5
5
5
5
5
5
5
5
5
5
5
5
5
5
5
5
5
5
5
5
5
5
5
5
5
5
5
5
5
5
5
5
5
5
5
5
5
5
5
5
5
5
5
5
5

POINT_DATA 1047

VECTORS coord float
0.0 0.0 0.0 
5.000000000000e+01 -1.000000000000e+01 0.0 
0.0 -2.000000000000e+01 0.0 
5.000000000000e+01 -2.000000000000e+01 0.0 
0.0 -9.999999999991e-01 0.0 
0.0 -1.999999999998e+00 0.0 
0.0 -2.999999999997e+00 0.0 
0.0 -3.999999999994e+00 0.0 
0.0 -4.999999999991e+00 0.0 
0.0 -5.999999999988e+00 0.0 
0.0 -6.999999999985e+00 0.0 
0.0 -7.999999999982e+00 0.0 
0.0 -8.999999999983e+00 0.0 
0.0 -9.999999999985e+00 0.0 
0.0 -1.099999999999e+01 0.0 
0.0 -1.199999999999e+01 0.0 
0.0 -1.299999999999e+01 0.0 
0.0 -1.399999999999e+01 0.0 
0.0 -1.499999999999e+01 0.0 
0.0 -1.599999999999e+01 0.0 
0.0 -1.700000000000e+01 0.0 
0.0 -1.800000000000e+01 0.0 
0.0 -1.900000000000e+01 0.0 
4.900000000001e+01 -2.000000000000e+01 0.0 
4.800000000001e+01 -2.000000000000e+01 0.0 
4.700000000002e+01 -2.000000000000e+01 0.0 
4.600000000003e+01 -2.000000000000e+01 0.0 
4.500000000004e+01 -2.000000000000e+01 0.0 
4.400000000004e+01 -2.000000000000e+01 0.0 
4.300000000005e+01 -2.000000000000e+01 0.0 
4.200000000006e+01 -2.000000000000e+01 0.0 
4.100000000006e+01 -2.000000000000e+01 0.0 
4.000000000007e+01 -2.000000000000e+01 0.0 
3.900000000008e+01 -2.000000000000e+01 0.0 
3.800000000009e+01 -2.000000000000e+01 0.0 
3.700000000009e+01 -2.000000000000e+01 0.0 
3.600000000010e+01 -2.000000000000e+01 0.0 
3.500000000011e+01 -2.000000000000e+01 0.0 
3.400000000011e+01 -2.000000000000e+01 0.0 
3.300000000012e+01 -2.000000000000e+01 0.0 
3.200000000013e+01 -2.000000000000e+01 0.0 
3.100000000013e+01 -2.000000000000e+01 0.0 
3.000000000013e+01 -2.000000000000e+01 0.0 
2.900000000013e+01 -2.000000000000e+01 0.0 
2.800000000013e+01 -2.000000000000e+01 0.0 
2.700000000013e+01 -2.000000000000e+01 0.0 
2.600000000013e+01 -2.000000000000e+01 0.0 
2.500000000013e+01 -2.000000000000e+01 0.0 
2.400000000013e+01 -2.000000000000e+01 0.0 
2.300000000013e+01 -2.000000000000e+01 0.0 
2.200000000013e+01 -2.000000000000e+01 0.0 
2.100000000013e+01 -2.000000000000e+01 0.0 
2.000000000013e+01 -2.000000000000e+01 0.0 
1.900000000013e+01 -2.000000000000e+01 0.0 
1.800000000013e+01 -2.000000000000e+01 0.0 
1.700000000012e+01 -2.000000000000e+01 0.0 
1.600000000011e+01 -2.000000000000e+01 0.0 
1.500000000011e+01 -2.000000000000e+01 0.0 
1.400000000010e+01 -2.000000000000e+01 0.0 
1.300000000009e+01 -2.000000000000e+01 0.0 
1.200000000009e+01 -2.000000000000e+01 0.0 
1.100000000008e+01 -2.000000000000e+01 0.0 
1.000000000007e+01 -2.000000000000e+01 0.0 
9.000000000064e+00 -2.000000000000e+01 0.0 
8.000000000057e+00 -2.000000000000e+01 0.0 
7.000000000050e+00 -2.000000000000e+01 0.0 
6.000000000043e+00 -2.000000000000e+01 0.0 
5.000000000036e+00 -2.000000000000e+01 0.0 
4.000000000028e+00 -2.000000000000e+01 0.0 
3.000000000021e+00 -2.000000000000e+01 0.0 
2.000000000014e+00 -2.000000000000e+01 0.0 
1.000000000007e+00 -2.000000000000e+01 0.0 
5.000000000000e+01 -1.100000000000e+01 0.0 
5.000000000000e+01 -1.200000000000e+01 0.0 
5.000000000000e+01 -1.300000000000e+01 0.0 
5.000000000000e+01 -1.400000000000e+01 0.0 
5.000000000000e+01 -1.500000000000e+01 0.0 
5.000000000000e+01 -1.600000000000e+01 0.0 
5.000000000000e+01 -1.700000000000e+01 0.0 
5.000000000000e+01 -1.800000000000e+01 0.0 
5.000000000000e+01 -1.900000000000e+01 0.0 
2.000000000000e+01 0.0 0.0 
3.500000000000e+01 -1.000000000000e+01 0.0 
2.150000000000e+01 -1.000000000000e+00 0.0 
2.300000000000e+01 -2.000000000000e+00 0.0 
2.450000000000e+01 -3.000000000000e+00 0.0 
2.600000000000e+01 -4.000000000000e+00 0.0 
2.750000000000e+01 -5.000000000000e+00 0.0 
2.900000000000e+01 -6.000000000000e+00 0.0 
3.050000000000e+01 -7.000000000000e+00 0.0 
3.200000000000e+01 -8.000000000000e+00 0.0 
3.350000000000e+01 -9.000000000000e+00 0.0 
5.000000000000e+01 -9.000000000000e+00 0.0 
4.900000000000e+01 -1.000000000000e+01 0.0 
4.800000000000e+01 -1.000000000000e+01 0.0 
4.700000000000e+01 -1.000000000000e+01 0.0 
4.600000000000e+01 -1.000000000000e+01 0.0 
4.500000000000e+01 -1.000000000000e+01 0.0 
4.400000000000e+01 -1.000000000000e+01 0.0 
4.300000000000e+01 -1.000000000000e+01 0.0 
4.200000000000e+01 -1.000000000000e+01 0.0 
4.100000000000e+01 -1.000000000000e+01 0.0 
4.000000000000e+01 -1.000000000000e+01 0.0 
3.900000000000e+01 -1.000000000000e+01 0.0 
3.800000000000e+01 -1.000000000000e+01 0.0 
3.700000000000e+01 -1.000000000000e+01 0.0 
3.600000000000e+01 -1.000000000000e+01 0.0 
1.900000000000e+01 0.0 0.0 
1.800000000000e+01 0.0 0.0 
1.700000000000e+01 0.0 0.0 
1.600000000000e+01 0.0 0.0 
1.500000000000e+01 0.0 0.0 
1.400000000000e+01 0.0 0.0 
1.300000000000e+01 0.0 0.0 
1.200000000000e+01 0.0 0.0 
1.100000000000e+01 0.0 0.0 
1.000000000000e+01 0.0 0.0 
9.000000000000e+00 0.0 0.0 
8.000000000000e+00 0.0 0.0 
7.000000000000e+00 0.0 0.0 
6.000000000000e+00 0.0 0.0 
5.000000000000e+00 0.0 0.0 
4.000000000000e+00 0.0 0.0 
3.000000000000e+00 0.0 0.0 
2.000000000000e+00 0.0 0.0 
1.000000000000e+00 0.0 0.0 
3.447058823527e+01 -9.000000000000e+00 0.0 
3.544117647055e+01 -9.000000000000e+00 0.0 
3.641176470582e+01 -9.000000000000e+00 0.0 
3.738235294109e+01 -9.000000000000e+00 0.0 
3.835294117637e+01 -9.000000000000e+00 0.0 
3.932352941164e+01 -9.000000000000e+00 0.0 
4.029411764691e+01 -9.000000000000e+00 0.0 
4.126470588219e+01 -9.000000000000e+00 0.0 
4.223529411748e+01 -9.000000000000e+00 0.0 
4.320588235279e+01 -9.000000000000e+00 0.0 
4.417647058811e+01 -9.000000000000e+00 0.0 
4.514705882342e+01 -9.000000000000e+00 0.0 
4.611764705874e+01 -9.000000000000e+00 0.0 
4.708823529405e+01 -9.000000000000e+00 0.0 
4.805882352937e+01 -9.000000000000e+00 0.0 
4.902941176468e+01 -9.000000000000e+00 0.0 
2.075000000000e+01 -5.000000000006e-01 0.0 
2.225000000000e+01 -1.500000000000e+00 0.0 
2.375000000000e+01 -2.500000000000e+00 0.0 
2.525000000000e+01 -3.500000000000e+00 0.0 
2.675000000000e+01 -4.500000000000e+00 0.0 
2.825000000000e+01 -5.500000000000e+00 0.0 
2.975000000000e+01 -6.500000000000e+00 0.0 
3.125000000000e+01 -7.500000000000e+00 0.0 
3.275000000000e+01 -8.500000000000e+00 0.0 
3.425000000000e+01 -9.500000000000e+00 0.0 
2.226951693683e+01 -2.403913980114e+00 0.0 
1.650149491944e+01 -1.913490915758e+01 0.0 
1.050042386896e+01 -8.504605092970e-01 0.0 
1.553146524712e+01 -8.281255032105e-01 0.0 
1.150000000008e+01 -1.913397459621e+01 0.0 
2.530060260647e+01 -4.428336431260e+00 0.0 
8.651114563942e-01 -1.052096295641e+01 0.0 
2.050000000013e+01 -1.913397459622e+01 0.0 
2.819198729811e+01 -6.399519052838e+00 0.0 
2.445670302931e+01 -1.915649188023e+01 0.0 
3.117591465718e+01 -8.394293040695e+00 0.0 
7.465053044742e+00 -1.920411160581e+01 0.0 
6.398295709691e+00 -8.230098819370e-01 0.0 
2.849659607461e+01 -1.914296187762e+01 0.0 
3.418732642882e+01 -1.040265792588e+01 0.0 
8.386450935063e-01 -6.533605142809e+00 0.0 
9.178661865596e-01 -1.329769195597e+01 0.0 
3.149448624493e+01 -1.910466733764e+01 0.0 
3.552916747426e+01 -1.914628590759e+01 0.0 
4.449210346537e+01 -1.914359085008e+01 0.0 
4.140975975145e+01 -1.906941860733e+01 0.0 
3.847475958753e+01 -1.916622382724e+01 0.0 
3.653774794640e+01 -1.088712800241e+01 0.0 
4.047886341787e+01 -1.090139014048e+01 0.0 
4.348006339825e+01 -1.092792621489e+01 0.0 
4.919519968029e+01 -1.451526755068e+01 0.0 
4.500000000032e+00 -1.913397459621e+01 0.0 
1.856136921614e+01 -8.212235170404e-01 0.0 
3.499895312306e+00 -8.661165539723e-01 0.0 
9.076088696565e-01 -1.642306201891e+01 0.0 
4.655174095477e+01 -1.086183387525e+01 0.0 
9.430688970604e-01 -3.496112672958e+00 0.0 
3.353992337063e+01 -1.901202090820e+01 0.0 
2.249746016977e+01 -1.921262287282e+01 0.0 
2.650122741777e+01 -1.916123026018e+01 0.0 
1.863571384842e+01 -1.908325534840e+01 0.0 
1.450089971693e+01 -1.917691901860e+01 0.0 
1.350044695317e+01 -8.659695299584e-01 0.0 
3.849987469880e+01 -1.084154983397e+01 0.0 
9.454419857884e+00 -1.900818879936e+01 0.0 
4.917398660523e+01 -1.645692866081e+01 0.0 
8.500000000000e+00 -8.660254037844e-01 0.0 
8.660319230785e-01 -8.500111697188e+00 0.0 
4.649022621545e+01 -1.930506220113e+01 0.0 
2.667688107845e+01 -5.420288124331e+00 0.0 
2.379251615665e+01 -3.412225477429e+00 0.0 
2.966631491830e+01 -7.389030232731e+00 0.0 
3.267915035995e+01 -9.396934932445e+00 0.0 
2.074836922338e+01 -1.320054020319e+00 0.0 
4.915985743621e+01 -1.261973384855e+01 0.0 
2.527129768623e+00 -1.931592414663e+01 0.0 
1.538676247410e+00 -8.436956619311e-01 0.0 
4.908096641539e+01 -1.842484004551e+01 0.0 
3.478612492673e+01 -1.090889364140e+01 0.0 
3.409757055860e+01 -1.131991530427e+01 0.0 
3.501895309466e+01 -1.177687842717e+01 0.0 
3.407758073088e+01 -1.224293381580e+01 0.0 
3.484541875390e+01 -1.277051428430e+01 0.0 
3.400322025842e+01 -1.319022775640e+01 0.0 
3.321672625034e+01 -1.266779191233e+01 0.0 
3.315244139236e+01 -1.360984106532e+01 0.0 
3.236335186892e+01 -1.308463225210e+01 0.0 
3.478337442841e+01 -1.372341158982e+01 0.0 
3.230105923633e+01 -1.403023731610e+01 0.0 
3.150954055289e+01 -1.350301767700e+01 0.0 
3.144604792090e+01 -1.444931742516e+01 0.0 
3.065653897123e+01 -1.392357262981e+01 0.0 
3.071897610812e+01 -1.297447031198e+01 0.0 
2.986790411740e+01 -1.339226181535e+01 0.0 
2.993181466745e+01 -1.244703272398e+01 0.0 
2.908023061869e+01 -1.286254537734e+01 0.0 
2.901619051372e+01 -1.380881655279e+01 0.0 
2.822986160390e+01 -1.327695262116e+01 0.0 
2.829453476870e+01 -1.233265343811e+01 0.0 
2.744542905518e+01 -1.274510491105e+01 0.0 
2.751120089246e+01 -1.180368086886e+01 0.0 
2.666218649885e+01 -1.221619339205e+01 0.0 
2.672371209234e+01 -1.127125228527e+01 0.0 
2.587763216302e+01 -1.168539979114e+01 0.0 
2.581165585299e+01 -1.262994410089e+01 0.0 
2.502890882577e+01 -1.209827323619e+01 0.0 
2.509631327757e+01 -1.115492410304e+01 0.0 
2.424662989877e+01 -1.156630981079e+01 0.0 
2.431704046904e+01 -1.062389179334e+01 0.0 
2.346445438728e+01 -1.103427680694e+01 0.0 
2.339382552877e+01 -1.197964871788e+01 0.0 
2.260936050780e+01 -1.144513277642e+01 0.0 
2.268075012022e+01 -1.049911928216e+01 0.0 
2.182525737661e+01 -1.090920811464e+01 0.0 
2.189682319817e+01 -9.961716944568e+00 0.0 
2.104174127792e+01 -1.037266986667e+01 0.0 
2.111304367575e+01 -9.424179358711e+00 0.0 
2.025306185381e+01 -9.832727364719e+00 0.0 
2.018141124247e+01 -1.079140628871e+01 0.0 
1.938594498257e+01 -1.025147354112e+01 0.0 
1.946106490453e+01 -9.288010758448e+00 0.0 
1.858929958352e+01 -9.706319802516e+00 0.0 
1.851540991219e+01 -1.067205988724e+01 0.0 
1.771485303178e+01 -1.012504443115e+01 0.0 
1.764134552256e+01 -1.109360378538e+01 0.0 
1.683745148095e+01 -1.054496365337e+01 0.0 
1.691852964353e+01 -9.582555261178e+00 0.0 
1.603603813062e+01 -1.000160132379e+01 0.0 
1.595824239350e+01 -1.096750698862e+01 0.0 
1.515080624291e+01 -1.041639501931e+01 0.0 
1.523171602559e+01 -9.451711491453e+00 0.0 
1.434621060709e+01 -9.871956467464e+00 0.0 
1.426777178765e+01 -1.083749501371e+01 0.0 
1.345775282374e+01 -1.028803175500e+01 0.0 
1.354103873368e+01 -9.324918457162e+00 0.0 
1.265072018622e+01 -9.742612837270e+00 0.0 
1.257285762070e+01 -1.071557782384e+01 0.0 
1.175874815690e+01 -1.015972324288e+01 0.0 
1.184203019714e+01 -9.193604071377e+00 0.0 
1.094927709905e+01 -9.612103238656e+00 0.0 
1.086938022910e+01 -1.058685085646e+01 0.0 
1.005424098961e+01 -1.002939116380e+01 0.0 
9.977974613295e+00 -1.101324897989e+01 0.0 
1.012915646404e+01 -9.051815821181e+00 0.0 
9.237127782494e+00 -9.471239055559e+00 0.0 
9.308426593771e+00 -8.483376461131e+00 0.0 
8.418806073345e+00 -8.910712374517e+00 0.0 
2.253688464062e+01 -1.239459402279e+01 0.0 
8.495126726666e+00 -7.921646665254e+00 0.0 
9.389727383206e+00 -7.512103628377e+00 0.0 
7.601560812974e+00 -8.349460349344e+00 0.0 
7.525680547759e+00 -9.339736686940e+00 0.0 
7.677888324502e+00 -7.359727833346e+00 0.0 
6.782001206724e+00 -7.788454494773e+00 0.0 
6.858778622885e+00 -6.797338062822e+00 0.0 
2.196596590865e+01 -8.979025665442e+00 0.0 
2.816540108272e+01 -1.422634142353e+01 0.0 
5.961601194403e+00 -7.226824010712e+00 0.0 
6.038171749656e+00 -6.234825887079e+00 0.0 
6.936257279557e+00 -5.805287640737e+00 0.0 
6.115068918323e+00 -5.242109758768e+00 0.0 
3.564391741903e+01 -1.329240553876e+01 0.0 
3.558115605778e+01 -1.425902892003e+01 0.0 
3.645445282201e+01 -1.381970786460e+01 0.0 
3.639744204358e+01 -1.479198128612e+01 0.0 
3.727266909778e+01 -1.435399586226e+01 0.0 
5.216667013081e+00 -5.671788584287e+00 0.0 
3.220697293295e+01 -1.499594545107e+01 0.0 
3.551112158269e+01 -1.523479869250e+01 0.0 
2.836056961467e+01 -1.139032434851e+01 0.0 
2.516730388602e+01 -1.021382726837e+01 0.0 
1.844436907403e+01 -1.164097215196e+01 0.0 
5.885434318740e+00 -8.218694781467e+00 0.0 
5.064071066867e+00 -7.656614643901e+00 0.0 
4.988089103470e+00 -8.649722082718e+00 0.0 
1.079421050408e+01 -1.157014985435e+01 0.0 
9.902420005256e+00 -1.199903342656e+01 0.0 
1.071994252214e+01 -1.255727909771e+01 0.0 
9.826974788171e+00 -1.298659581767e+01 0.0 
1.064607883789e+01 -1.354595476388e+01 0.0 
9.751541265343e+00 -1.397556905071e+01 0.0 
8.932296185869e+00 -1.341553353988e+01 0.0 
8.856399248106e+00 -1.440570715508e+01 0.0 
8.036186803543e+00 -1.384470558472e+01 0.0 
1.057112875118e+01 -1.453516759081e+01 0.0 
1.146582585687e+01 -1.410539926903e+01 0.0 
7.959894480382e+00 -1.483563350928e+01 0.0 
7.138792279156e+00 -1.427465094140e+01 0.0 
7.062506792418e+00 -1.526615385482e+01 0.0 
6.240693558277e+00 -1.470508863040e+01 0.0 
6.316957575451e+00 -1.371212581281e+01 0.0 
5.418183007107e+00 -1.414253605022e+01 0.0 
5.494748364428e+00 -1.314886770603e+01 0.0 
1.756825565873e+01 -1.206433872514e+01 0.0 
1.837565773345e+01 -1.261356468266e+01 0.0 
1.749574831391e+01 -1.303769280014e+01 0.0 
1.830539187332e+01 -1.358828364284e+01 0.0 
1.742278925170e+01 -1.401367746928e+01 0.0 
1.823303007798e+01 -1.456432294258e+01 0.0 
1.734941694138e+01 -1.499213734361e+01 0.0 
1.653760041637e+01 -1.443920312098e+01 0.0 
3.056237977307e+01 -1.487132260174e+01 0.0 
1.866469084762e+01 -8.742953000418e+00 0.0 
1.953669694916e+01 -8.326038909849e+00 0.0 
1.874194303780e+01 -7.780688158966e+00 0.0 
1.961032016741e+01 -7.366854697285e+00 0.0 
1.881715755159e+01 -6.821102209649e+00 0.0 
1.968369797150e+01 -6.407747217358e+00 0.0 
1.889237123259e+01 -5.858375520026e+00 0.0 
1.802038875366e+01 -6.276202618170e+00 0.0 
1.809793837984e+01 -5.307629520489e+00 0.0 
1.721985207997e+01 -5.728242054488e+00 0.0 
1.729850893523e+01 -4.756990819347e+00 0.0 
1.641745664240e+01 -5.174636548624e+00 0.0 
2.495978509456e+01 -1.304406404294e+01 0.0 
1.911567814831e+01 -1.413854250293e+01 0.0 
1.904387332608e+01 -1.511463127723e+01 0.0 
1.992115934240e+01 -1.468788025898e+01 0.0 
7.013706899628e+00 -4.812582868662e+00 0.0 
5.342091874585e+00 -1.513658157269e+01 0.0 
1.139098043784e+01 -1.509488509480e+01 0.0 
1.228151810610e+01 -1.465617481983e+01 0.0 
1.646373110164e+01 -1.541993323337e+01 0.0 
5.293328636712e+00 -4.678385108584e+00 0.0 
1.975965862987e+01 -5.448124345648e+00 0.0 
2.054318374236e+01 -5.992561293251e+00 0.0 
3.721453439063e+01 -1.533216152738e+01 0.0 
3.809302733893e+01 -1.489235527381e+01 0.0 
1.220852788900e+01 -1.565304565230e+01 0.0 
4.394120899730e+00 -5.108397613210e+00 0.0 
8.779354620288e+00 -1.539524721159e+01 0.0 
1.817791047702e+01 -4.338570146253e+00 0.0 
4.518860013839e+00 -1.457343189307e+01 0.0 
4.442712140414e+00 -1.556841391069e+01 0.0 
8.115343466391e+00 -1.285760324283e+01 0.0 
1.985334703171e+01 -1.566478400426e+01 0.0 
2.071953850276e+01 -1.522074243119e+01 0.0 
1.634012953883e+01 -6.154777738301e+00 0.0 
1.553479994708e+01 -5.593730508879e+00 0.0 
1.561265946942e+01 -4.617761762647e+00 0.0 
1.470674212978e+01 -5.064576488228e+00 0.0 
1.464498299883e+01 -6.026514471420e+00 0.0 
1.383271561817e+01 -5.467796261169e+00 0.0 
1.389241253067e+01 -4.504338666645e+00 0.0 
1.301868735463e+01 -4.907185188626e+00 0.0 
1.294514184846e+01 -5.888160903592e+00 0.0 
1.212955968622e+01 -5.328262335277e+00 0.0 
1.220721122383e+01 -4.341264976687e+00 0.0 
1.131324345897e+01 -4.766773516508e+00 0.0 
5.266597955397e+00 -1.613148974258e+01 0.0 
1.737805990867e+01 -3.786677807525e+00 0.0 
3.078438094513e+01 -1.203225297748e+01 0.0 
1.131569882285e+01 -1.608511932110e+01 0.0 
1.728478341782e+01 -1.596017432313e+01 0.0 
3.803465906019e+01 -1.587509751228e+01 0.0 
3.891681276677e+01 -1.543395196905e+01 0.0 
3.897340985302e+01 -1.444710288980e+01 0.0 
3.980095968193e+01 -1.499059496613e+01 0.0 
3.974334598189e+01 -1.597921884150e+01 0.0 
4.062964983717e+01 -1.553518690417e+01 0.0 
4.068729602479e+01 -1.454434445295e+01 0.0 
4.151772679790e+01 -1.508974196007e+01 0.0 
4.157505195739e+01 -1.409694289912e+01 0.0 
4.240699932656e+01 -1.464347955968e+01 0.0 
4.234898051011e+01 -1.563721375790e+01 0.0 
4.323934606035e+01 -1.519082036405e+01 0.0 
4.329740528208e+01 -1.419587509788e+01 0.0 
4.413056841369e+01 -1.474359631875e+01 0.0 
4.418850110108e+01 -1.374786684042e+01 0.0 
4.502219770667e+01 -1.429605103525e+01 0.0 
4.496411937907e+01 -1.529215882720e+01 0.0 
4.490027319897e+00 -4.154167794594e+00 0.0 
1.565080385988e+01 -1.486411982419e+01 0.0 
1.557610691279e+01 -1.584855627870e+01 0.0 
4.195350646612e+00 -8.089117689096e+00 0.0 
4.124027797830e+00 -9.082831955007e+00 0.0 
4.917944318925e+00 -9.643530901533e+00 0.0 
4.020105689502e+00 -1.007439673661e+01 0.0 
4.587185899277e+01 -1.484039992728e+01 0.0 
4.580078661551e+01 -1.584043391042e+01 0.0 
2.061956522375e+01 -5.046701343981e+00 0.0 
2.139572955529e+01 -5.579553449826e+00 0.0 
3.715344357292e+01 -1.631485124583e+01 0.0 
3.618886196443e+00 -1.500471207167e+01 0.0 
3.695606940204e+00 -1.400939692294e+01 0.0 
2.438890661143e+01 -9.686110599723e+00 0.0 
2.523267572778e+01 -9.276766000622e+00 0.0 
2.446094171539e+01 -8.751904591412e+00 0.0 
2.529089822738e+01 -8.321495612547e+00 0.0 
2.606882688827e+01 -8.864724051119e+00 0.0 
2.452116646430e+01 -7.792756462004e+00 0.0 
1.235543269617e+01 -1.365845617339e+01 0.0 
4.318116874181e+01 -1.618567469992e+01 0.0 
7.835066111909e+00 -5.376366223896e+00 0.0 
7.905687335704e+00 -4.382539065697e+00 0.0 
3.542640009567e+00 -1.600035116542e+01 0.0 
1.572431503071e+01 -1.388358386695e+01 0.0 
2.574684696680e+01 -1.357896141127e+01 0.0 
2.488842657651e+01 -1.399674354505e+01 0.0 
2.568301775611e+01 -1.453552048595e+01 0.0 
2.481535572009e+01 -1.495542756508e+01 0.0 
2.561729699688e+01 -1.549784648532e+01 0.0 
2.474623061296e+01 -1.592058894178e+01 0.0 
2.394234041695e+01 -1.537572575827e+01 0.0 
2.065825452567e+01 -1.621899055217e+01 0.0 
2.387180528935e+01 -1.634552264687e+01 0.0 
4.585364400844e+01 -1.383912334080e+01 0.0 
1.998744432052e+01 -1.370317155541e+01 0.0 
1.205356951443e+01 -6.313580285498e+00 0.0 
5.396543905849e+00 -3.731818611283e+00 0.0 
1.139652573295e+01 -3.745819399350e+00 0.0 
3.574124306703e+00 -4.551456826011e+00 0.0 
3.494140761930e+00 -5.539787055649e+00 0.0 
1.213651452413e+01 -1.664505033022e+01 0.0 
2.555045568519e+01 -1.646529356744e+01 0.0 
2.641671114986e+01 -1.603899382371e+01 0.0 
2.612920721894e+01 -7.906435260873e+00 0.0 
2.690339829698e+01 -8.456969591431e+00 0.0 
1.978024383368e+01 -1.664410216353e+01 0.0 
3.732829979082e+01 -1.336926601859e+01 0.0 
4.074336584605e+01 -1.355133328401e+01 0.0 
4.163204691081e+01 -1.310280943992e+01 0.0 
3.773826114429e+00 -3.493444309145e+00 0.0 
1.228783001032e+01 -3.374822835872e+00 0.0 
4.057110462520e+01 -1.652588478000e+01 0.0 
2.132535497898e+01 -6.523623360525e+00 0.0 
2.216932532211e+01 -6.110044769206e+00 0.0 
1.825781152128e+01 -3.370146817147e+00 0.0 
1.745679445888e+01 -2.812942552063e+00 0.0 
4.666517057280e+01 -1.539981381543e+01 0.0 
4.660575894464e+01 -1.639014410186e+01 0.0 
4.838230979954e+00 -1.063643436446e+01 0.0 
3.938942630206e+00 -1.106778981745e+01 0.0 
1.302967218620e+01 -1.621373452436e+01 0.0 
1.049548003190e+01 -4.204825123240e+00 0.0 
4.573571907195e+01 -1.683820511148e+01 0.0 
1.483686335807e+01 -1.430849689310e+01 0.0 
1.490982658890e+01 -1.332679386284e+01 0.0 
3.190805600162e+00 -9.510968358545e+00 0.0 
2.146625721848e+01 -4.642437303115e+00 0.0 
2.069866208266e+01 -4.111852942193e+00 0.0 
1.286859345584e+01 -6.873252723348e+00 0.0 
1.041794493184e+01 -5.194814260291e+00 0.0 
2.671081808965e+00 -4.976806516331e+00 0.0 
1.295786792925e+01 -1.720506531799e+01 0.0 
3.968438206511e+01 -1.696869067241e+01 0.0 
2.308550456051e+01 -1.579963151273e+01 0.0 
2.315593682844e+01 -1.482967445235e+01 0.0 
2.299471449450e+01 -1.677069968132e+01 0.0 
1.057344714696e+01 -3.214252277840e+00 0.0 
1.124057603753e+01 -1.707713739755e+01 0.0 
2.718402535754e+00 -1.543629882103e+01 0.0 
2.638549692805e+01 -1.696744916809e+01 0.0 
2.723416349007e+01 -1.658104204545e+01 0.0 
2.210193351704e+01 -7.046769643417e+00 0.0 
2.295180925161e+01 -6.657397605239e+00 0.0 
2.301355235833e+01 -5.709111896800e+00 0.0 
2.379052718281e+01 -6.254965406962e+00 0.0 
3.243528601237e+01 -1.214181853533e+01 0.0 
2.287977995457e+01 -7.583722368300e+00 0.0 
2.999876029544e+01 -1.150837653096e+01 0.0 
3.084435366963e+01 -1.109693775882e+01 0.0 
3.006650579669e+01 -1.057778994262e+01 0.0 
2.683802665066e+01 -9.386863216633e+00 0.0 
2.768641973621e+01 -8.988883915666e+00 0.0 
2.040296980397e+01 -7.903629133404e+00 0.0 
1.925235024054e+01 -1.218872783130e+01 0.0 
5.735667000424e+00 -1.020577277283e+01 0.0 
6.396559909872e+00 -1.272326295703e+01 0.0 
1.161199420714e+01 -1.212812778229e+01 0.0 
4.229046132615e+01 -1.663084237572e+01 0.0 
4.312275399692e+01 -1.718087491556e+01 0.0 
4.335502068163e+01 -1.320039231514e+01 0.0 
4.424630298089e+01 -1.275160688731e+01 0.0 
7.090116643816e+00 -3.818998061530e+00 0.0 
7.989472176569e+00 -3.389238711200e+00 0.0 
9.085824861778e+00 -1.144036167408e+01 0.0 
1.041972423731e+01 -1.651614080893e+01 0.0 
3.797525112640e+01 -1.686052038746e+01 0.0 
3.709114253394e+01 -1.730125999865e+01 0.0 
3.626966748340e+01 -1.675477052919e+01 0.0 
1.385164591440e+01 -1.677597757552e+01 0.0 
1.787152588784e+01 -8.198993896093e+00 0.0 
1.668849729812e+01 -1.248560611628e+01 0.0 
1.659546177905e+01 -3.232482605530e+00 0.0 
2.332214717345e+01 -1.292598167641e+01 0.0 
7.168238450786e+00 -2.824711686516e+00 0.0 
2.894878403906e+01 -1.475427524446e+01 0.0 
2.646763248247e+00 -1.643270107952e+01 0.0 
3.467431944285e+00 -1.699648837348e+01 0.0 
2.059475877282e+01 -1.719473628526e+01 0.0 
3.333868355437e+01 -1.080596971682e+01 0.0 
2.246451062637e+01 -1.334557761546e+01 0.0 
2.167821896388e+01 -1.280847834858e+01 0.0 
3.089653185767e+01 -1.017198487212e+01 0.0 
3.012604365669e+01 -9.657298805968e+00 0.0 
2.929627299435e+01 -1.006100135274e+01 0.0 
2.936201435219e+01 -9.136748899251e+00 0.0 
1.198219052702e+01 -7.291887238230e+00 0.0 
1.116702076035e+01 -6.731976101053e+00 0.0 
2.551388807505e+01 -1.746927036981e+01 0.0 
2.378639090370e+01 -1.728678807149e+01 0.0 
2.718543627188e+01 -1.748668016909e+01 0.0 
2.804681050301e+01 -1.712626668293e+01 0.0 
1.970737034667e+01 -1.762317646822e+01 0.0 
1.889535776135e+01 -1.707158098231e+01 0.0 
2.593777711283e+00 -5.971157087874e+00 0.0 
2.773468281110e+01 -8.067164273938e+00 0.0 
4.051205884347e+01 -1.751819982458e+01 0.0 
3.166903145421e+01 -1.068032992414e+01 0.0 
1.033042452886e+01 -1.748285844336e+01 0.0 
9.519274604626e+00 -1.694349240233e+01 0.0 
1.668308673328e+01 -2.255861778986e+00 0.0 
1.570531902832e+01 -2.676795860126e+00 0.0 
4.655826903379e+01 -1.736656245706e+01 0.0 
2.384148070773e+01 -5.328744256413e+00 0.0 
2.460255123641e+01 -5.852182672816e+00 0.0 
2.306638135119e+01 -4.798935440613e+00 0.0 
8.467720450578e-01 -1.849576263072e+01 0.0 
4.849657322345e+01 -1.084860705506e+01 0.0 
2.565860899507e+00 -1.742859793981e+01 0.0 
2.764418872564e+01 -9.927142821799e+00 0.0 
4.565165880064e+01 -1.785336695404e+01 0.0 
2.162231831329e+01 -1.376528337468e+01 0.0 
2.360646352969e+01 -9.136041963102e+00 0.0 
1.392738739903e+01 -1.578285505772e+01 0.0 
4.756405947478e+01 -1.683706841809e+01 0.0 
4.740895034054e+01 -1.793766756892e+01 0.0 
4.080779328826e+01 -1.257387192544e+01 0.0 
4.168907939671e+01 -1.210739129181e+01 0.0 
3.991197722154e+01 -1.300815793917e+01 0.0 
1.905536506762e+01 -3.940076697685e+00 0.0 
1.923879596617e+01 -2.875000734166e+00 0.0 
4.401386745746e+01 -1.673483229438e+01 0.0 
4.247233362525e+00 -7.094581653070e+00 0.0 
3.286051630211e+00 -7.635300020553e+00 0.0 
9.609533347623e+00 -4.594311677967e+00 0.0 
9.523554636369e+00 -5.595597029530e+00 0.0 
5.660336628893e+00 -1.119290329628e+01 0.0 
6.558070063295e+00 -1.076385809362e+01 0.0 
2.809866407414e+01 -1.518037766799e+01 0.0 
2.888868674504e+01 -1.570360690070e+01 0.0 
2.654431550819e+01 -1.411217777162e+01 0.0 
1.402158265969e+01 -1.375404617952e+01 0.0 
1.409592494026e+01 -1.277071998942e+01 0.0 
1.499355196178e+01 -1.235270737023e+01 0.0 
4.221535326155e+01 -1.759335617494e+01 0.0 
4.305583287033e+01 -1.822663146802e+01 0.0 
1.280748808359e+01 -7.834332838285e+00 0.0 
1.368988389326e+01 -7.420529606172e+00 0.0 
1.110091796060e+01 -7.683966794328e+00 0.0 
3.963446145980e+01 -1.794331310122e+01 0.0 
3.423932362213e+00 -1.796415590455e+01 0.0 
4.280814572302e+00 -1.752272834860e+01 0.0 
8.050136380041e+00 -2.421582378631e+00 0.0 
8.888674091650e+00 -2.984264211327e+00 0.0 
2.152839430898e+01 -3.732609965436e+00 0.0 
2.077799585292e+01 -3.183896021866e+00 0.0 
3.618719395821e+01 -1.770276572576e+01 0.0 
3.538165138340e+01 -1.718709995539e+01 0.0 
3.702925326420e+01 -1.828844288807e+01 0.0 
1.756739438711e+00 -5.353284859169e+00 0.0 
2.233710191104e+01 -1.527265621324e+01 0.0 
1.389483555057e+01 -1.771797164730e+01 0.0 
1.475634224300e+01 -1.728357428390e+01 0.0 
1.298797563052e+01 -1.825968924755e+01 0.0 
2.145331271866e+01 -1.673705379077e+01 0.0 
2.133282821169e+01 -1.769400773673e+01 0.0 
2.292139194136e+01 -1.774915400288e+01 0.0 
1.750750053243e+01 -1.861475593469e+00 0.0 
4.830478841772e+01 -1.752611802221e+01 0.0 
4.341203507805e+01 -1.220326745522e+01 0.0 
1.685254151866e+01 -1.443085301632e+00 0.0 
4.431538535165e+01 -1.171841387375e+01 0.0 
4.511308610496e+01 -1.229557320599e+01 0.0 
4.510133242889e+01 -1.123680627466e+01 0.0 
1.846818030617e+00 -4.410877617069e+00 0.0 
3.995468694584e+01 -1.186571542989e+01 0.0 
3.901387459804e+01 -1.242507616755e+01 0.0 
8.966735877533e+00 -1.837818700423e+00 0.0 
4.049310011091e+01 -1.848269508791e+01 0.0 
7.278862053803e+00 -1.918523922691e+00 0.0 
6.429715522129e+00 -2.316676521184e+00 0.0 
9.443505505022e+00 -1.792198868094e+01 0.0 
8.620386951051e+00 -1.737590365556e+01 0.0 
8.571868171503e+00 -1.834436667826e+01 0.0 
7.758629848526e+00 -1.775677907213e+01 0.0 
7.806648388584e+00 -1.680761266021e+01 0.0 
6.908555145436e+00 -1.723746463044e+01 0.0 
4.251709122090e+01 -1.156937480156e+01 0.0 
6.931136405615e+00 -1.832465719263e+01 0.0 
6.015545461353e+00 -1.768865355295e+01 0.0 
5.960535926343e+00 -1.872011001764e+01 0.0 
3.023253444786e+01 -8.761960642196e+00 0.0 
2.454622702599e+01 -6.749421992767e+00 0.0 
2.537499741604e+01 -6.347634963783e+00 0.0 
2.544077378460e+01 -5.431358513649e+00 0.0 
2.801367161747e+01 -1.820907270221e+01 0.0 
2.884507806914e+01 -1.762032095326e+01 0.0 
1.821474531936e+00 -1.588901260460e+01 0.0 
1.821006262604e+00 -1.489370287756e+01 0.0 
4.599962488908e+01 -1.176478780598e+01 0.0 
4.705457470007e+01 -1.172182804229e+01 0.0 
4.667668314802e+01 -1.263464558483e+01 0.0 
4.759648056504e+01 -1.252380987933e+01 0.0 
4.728041618103e+01 -1.341928568376e+01 0.0 
4.825209352360e+01 -1.330491640804e+01 0.0 
4.778118233428e+01 -1.420151961695e+01 0.0 
2.388192727579e+01 -1.826934810142e+01 0.0 
2.381714684947e+01 -4.385917965223e+00 0.0 
3.172733219247e+01 -9.758744265248e+00 0.0 
1.882012070658e+01 -1.805540597212e+01 0.0 
1.805667505243e+01 -1.742221226236e+01 0.0 
2.852599958080e+01 -8.597196079481e+00 0.0 
2.856486123437e+01 -7.661382718527e+00 0.0 
1.111792842875e+01 -1.818223852980e+01 0.0 
2.203322722466e+01 -7.986646678802e+00 0.0 
3.955703676900e+01 -1.903246763601e+01 0.0 
1.944842206513e+01 -8.038750575182e-01 0.0 
1.909882767783e+01 -1.746322740933e+00 0.0 
2.281147422941e+01 -8.525912918334e+00 0.0 
2.850633001468e+01 -9.533271335986e+00 0.0 
2.532883344309e+01 -7.308951659710e+00 0.0 
2.620475466461e+01 -6.979208585400e+00 0.0 
1.396278270396e+01 -1.475095389807e+01 0.0 
9.791001166724e+00 -2.554159793552e+00 0.0 
2.229293380421e+01 -4.269762271052e+00 0.0 
4.677238984118e+01 -1.430071795514e+01 0.0 
2.228658385918e+01 -3.344747535984e+00 0.0 
8.940223674553e-01 -1.543595733415e+01 0.0 
2.118566862474e+01 -8.435876987696e+00 0.0 
2.678325936437e+01 -1.032621195706e+01 0.0 
2.223400220487e+01 -5.179046761770e+00 0.0 
2.375370625384e+01 -7.251580562134e+00 0.0 
3.156971327386e+01 -1.255534750737e+01 0.0 
3.328226391312e+01 -1.172914813316e+01 0.0 
3.250948774219e+01 -1.120157009348e+01 0.0 
2.032993445717e+01 -8.867880112202e+00 0.0 
2.697226974856e+01 -7.536633082045e+00 0.0 
2.707377810386e+01 -6.590835263295e+00 0.0 
2.914099246827e+01 -1.191678458549e+01 0.0 
3.544824072239e+01 -1.621126558525e+01 0.0 
3.456511855436e+01 -1.665054783843e+01 0.0 
3.448395810225e+01 -1.759117813016e+01 0.0 
3.368378673938e+01 -1.708037781328e+01 0.0 
3.375560452567e+01 -1.610973066913e+01 0.0 
3.288001547988e+01 -1.654324255651e+01 0.0 
3.282475929147e+01 -1.749725654692e+01 0.0 
3.199880906313e+01 -1.697294088625e+01 0.0 
3.197001272932e+01 -1.811667776864e+01 0.0 
3.111884713021e+01 -1.742166785755e+01 0.0 
3.120418962865e+01 -1.642155709385e+01 0.0 
3.034666704371e+01 -1.683123833816e+01 0.0 
3.026224379976e+01 -1.772592851714e+01 0.0 
3.046632362943e+01 -1.582232843075e+01 0.0 
1.961344017324e+01 -1.857459447985e+01 0.0 
2.274975894774e+01 -9.532738811922e+00 0.0 
1.833923246887e+01 -2.396746883672e+00 0.0 
1.988859500848e+01 -2.249244376594e+00 0.0 
2.758045562861e+01 -1.086434261689e+01 0.0 
3.247300178163e+01 -1.909930104252e+01 0.0 
3.461947482503e+01 -1.911879848019e+01 0.0 
2.047161538662e+01 -6.941478180358e+00 0.0 
2.750230940214e+01 -1.915490590764e+01 0.0 
3.165081350803e+01 -1.161860780120e+01 0.0 
1.897456727641e+01 -4.889634688522e+00 0.0 
2.549338539756e+01 -1.914858252089e+01 0.0 
3.462873135081e+01 -1.567482276144e+01 0.0 
3.384432415243e+01 -1.512280684518e+01 0.0 
3.471433767690e+01 -1.469086942990e+01 0.0 
3.651470373046e+01 -1.918207952149e+01 0.0 
3.901742690249e+01 -1.345028556517e+01 0.0 
2.153224102692e+01 -1.920169709333e+01 0.0 
1.918382939341e+01 -1.316226275662e+01 0.0 
2.005389162382e+01 -1.271962165174e+01 0.0 
2.011472087878e+01 -1.175029352900e+01 0.0 
3.210679478412e+01 -1.598038618242e+01 0.0 
1.752175226543e+01 -1.914713022656e+01 0.0 
1.696897240059e+01 -1.832772588765e+01 0.0 
1.599682523337e+01 -1.832599992024e+01 0.0 
1.644507199462e+01 -1.743697981535e+01 0.0 
1.549987712903e+01 -1.915192375101e+01 0.0 
3.050250861901e+01 -1.918943550234e+01 0.0 
2.949944061527e+01 -1.922950455235e+01 0.0 
1.375892575273e+01 -6.447160534926e+00 0.0 
1.457223670180e+01 -7.006709243857e+00 0.0 
1.450818793236e+01 -7.965943451779e+00 0.0 
1.538804712402e+01 -7.553409623699e+00 0.0 
1.545817644768e+01 -6.580929593419e+00 0.0 
1.626506893751e+01 -7.129032608911e+00 0.0 
1.619833811522e+01 -8.086588580887e+00 0.0 
1.714448609609e+01 -6.697429609777e+00 0.0 
2.887616543568e+01 -1.668015232137e+01 0.0 
1.349814589130e+01 -1.918225301544e+01 0.0 
1.153887772210e+01 -1.311384581217e+01 0.0 
1.242708159886e+01 -1.267046795531e+01 0.0 
1.249799674267e+01 -1.169005616014e+01 0.0 
6.631723893693e+00 -9.774184881867e+00 0.0 
7.451471631867e+00 -1.033148796006e+01 0.0 
7.377795355458e+00 -1.132196345268e+01 0.0 
5.810931797536e+00 -9.211654212252e+00 0.0 
2.402683899133e+01 -1.441378562320e+01 0.0 
1.249768692036e+01 -1.917388426624e+01 0.0 
1.580373499437e+01 -1.290751860664e+01 0.0 
8.344650507834e+00 -9.898403995170e+00 0.0 
3.750622115305e+01 -1.086526401533e+01 0.0 
3.699391251667e+01 -1.171695900794e+01 0.0 
3.606517829518e+01 -1.173717504500e+01 0.0 
3.650257641795e+01 -1.270047380221e+01 0.0 
3.808951488918e+01 -1.183518714175e+01 0.0 
4.760380962420e+00 -1.162484888315e+01 0.0 
3.861210370848e+00 -1.205657631736e+01 0.0 
3.038284309476e+00 -1.149851280664e+01 0.0 
2.961598794889e+00 -1.248856794980e+01 0.0 
2.138953225512e+00 -1.193212674534e+01 0.0 
2.227383593457e+00 -1.096258903918e+01 0.0 
2.043265419276e+00 -1.292158472959e+01 0.0 
1.252449446028e+00 -1.225502002753e+01 0.0 
3.949985210740e+01 -1.086594001795e+01 0.0 
1.453499444792e+01 -8.768805922472e-01 0.0 
1.403518950933e+01 -1.749965556633e+00 0.0 
1.300715031023e+01 -1.714737233040e+00 0.0 
1.350929389899e+01 -2.527443911291e+00 0.0 
1.449600910711e+01 -2.595486162864e+00 0.0 
1.395693872901e+01 -3.484211041558e+00 0.0 
1.495105865208e+01 -3.364609636216e+00 0.0 
1.508822528740e+01 -1.766586020494e+00 0.0 
1.250223858430e+01 -8.634590186802e-01 0.0 
1.200279523409e+01 -1.709044504992e+00 0.0 
1.150086239419e+01 -8.592789190668e-01 0.0 
1.101482754194e+01 -1.677730591922e+00 0.0 
1.148018564526e+01 -2.659323866909e+00 0.0 
8.800552119754e+00 -3.989875954728e+00 0.0 
3.452790439430e+00 -1.901136170646e+01 0.0 
8.658451825200e-01 -9.503462241795e+00 0.0 
1.694787786797e+00 -9.000589234502e+00 0.0 
1.703436717094e+00 -8.038819004041e+00 0.0 
2.594197971110e+00 -8.563955242845e+00 0.0 
1.630513735412e+00 -9.907244747511e+00 0.0 
8.566859292791e-01 -7.512203837972e+00 0.0 
1.685461277022e+00 -7.164280248030e+00 0.0 
2.506394468801e+00 -8.623386730818e-01 0.0 
2.007475081581e+00 -1.727729545205e+00 0.0 
9.211534699767e-01 -1.628791366312e+00 0.0 
1.500000000020e+00 -2.598063549486e+00 0.0 
2.482078929963e+00 -2.553580088725e+00 0.0 
2.999795253092e+00 -1.732169015019e+00 0.0 
3.999712607169e+00 -1.728832897453e+00 0.0 
4.499752199340e+00 -8.656478679175e-01 0.0 
4.964377774841e+00 -1.730129617941e+00 0.0 
4.425017908337e+00 -2.597541756243e+00 0.0 
5.446573195014e+00 -8.410144840023e-01 0.0 
4.915722346614e+01 -1.550640962770e+01 0.0 
4.826794919243e+01 -1.600000000000e+01 0.0 
1.053139533193e+01 -1.911782884365e+01 0.0 
4.156049861949e+01 -1.095160998589e+01 0.0 
9.494526624416e+00 -8.650570090219e-01 0.0 
4.555762166964e+01 -1.897098103585e+01 0.0 
4.250656411371e+01 -1.914387356218e+01 0.0 
4.350906466345e+01 -1.917234727395e+01 0.0 
8.759665722424e-01 -1.746422130609e+01 0.0 
1.698936011838e+00 -1.795012186674e+01 0.0 
4.742476811029e+01 -1.900090177972e+01 0.0 
7.749196752349e+00 -6.368049313489e+00 0.0 
3.361572113416e+01 -1.798765193915e+01 0.0 
4.484660149212e+01 -1.728661231383e+01 0.0 
1.984038172228e+01 -4.502575320116e+00 0.0 
1.035080352627e+01 -6.166639575753e+00 0.0 
2.753558010652e+00 -1.444909521181e+01 0.0 
7.217069543032e+00 -1.328635391078e+01 0.0 
4.364336727739e+00 -1.655585677381e+01 0.0 
4.595208426108e+00 -1.357919665443e+01 0.0 
6.164967006980e+00 -1.569873454630e+01 0.0 
1.487855768353e+01 -1.826523774028e+01 0.0 
2.791876456372e+00 -4.019632415181e+00 0.0 
4.246464893515e+01 -1.364898659620e+01 0.0 
4.503855590351e+01 -1.329552780944e+01 0.0 
4.407239109604e+01 -1.573900004093e+01 0.0 
5.141054449252e+00 -6.664290382472e+00 0.0 
3.141083947149e+00 -1.055790764912e+01 0.0 
6.196463198741e+00 -4.256497932609e+00 0.0 
2.599618716181e+01 -1.836893455464e+01 0.0 
2.923057372337e+01 -1.098461757645e+01 0.0 
1.168343877486e+01 -1.114079645041e+01 0.0 
6.706222096238e+00 -8.780364234441e+00 0.0 
8.567858614669e+00 -6.943121440850e+00 0.0 
1.123755132901e+01 -5.753525820030e+00 0.0 
2.353456234423e+01 -1.008536320953e+01 0.0 
9.162073319168e+00 -1.045593739109e+01 0.0 
9.676343469685e+00 -1.496493008366e+01 0.0 
4.490637882905e+01 -1.628778970202e+01 0.0 
7.398129387772e+00 -9.639977982323e-01 0.0 
1.049641705805e+01 -1.552503975272e+01 0.0 
9.010356286268e+00 -1.242805042052e+01 0.0 
3.985573925497e+01 -1.399863651620e+01 0.0 
1.816196318262e+01 -1.554066497931e+01 0.0 
1.306332244168e+01 -3.963646550326e+00 0.0 
4.145850903932e+01 -1.608094559275e+01 0.0 
3.794664933633e+01 -1.779020121986e+01 0.0 
3.819614412903e+01 -1.290749321016e+01 0.0 
6.270014188119e+00 -3.255093186826e+00 0.0 
4.251165370388e+01 -1.263870364997e+01 0.0 
1.207347709171e+01 -1.763942826023e+01 0.0 
3.633240829927e+01 -1.577330481104e+01 0.0 
4.319052668832e+00 -6.101812561904e+00 0.0 
1.676492415806e+01 -1.151547901392e+01 0.0 
2.594059220037e+01 -1.074225223009e+01 0.0 
3.340750911501e+01 -9.898764354137e+00 0.0 
4.397619591281e+01 -1.769773736461e+01 0.0 
2.175611595028e+01 -1.185718747128e+01 0.0 
1.641818733106e+01 -1.640685203215e+01 0.0 
1.661211421753e+01 -1.346121366338e+01 0.0 
3.428853504935e+00 -6.551993389271e+00 0.0 
8.700728832502e+00 -1.638460872825e+01 0.0 
1.931369795309e+01 -1.121629383702e+01 0.0 
4.139798872363e+01 -1.706922153459e+01 0.0 
2.647837478700e+01 -1.507353829290e+01 0.0 
1.779469616424e+01 -9.161615782908e+00 0.0 
3.885879219319e+01 -1.642026488918e+01 0.0 
1.338194936770e+01 -1.125916521471e+01 0.0 
1.897071181111e+01 -1.609204322578e+01 0.0 
2.844308548793e+01 -1.046221003096e+01 0.0 
2.659854702194e+01 -1.316109415760e+01 0.0 
2.979604503271e+01 -1.433296157755e+01 0.0 
2.417694041347e+01 -1.251231397779e+01 0.0 
1.807401327411e+00 -1.388891148480e+01 0.0 
9.599810618782e+00 -1.595439365034e+01 0.0 
1.652144692160e+01 -4.205392788472e+00 0.0 
2.367839450246e+01 -8.188385218643e+00 0.0 
3.814894930468e+01 -1.390748338767e+01 0.0 
2.466448215774e+01 -1.685878545680e+01 0.0 
4.134044524611e+01 -1.806610045954e+01 0.0 
2.600511411958e+01 -9.801774120648e+00 0.0 
7.882158050716e+00 -1.582364037353e+01 0.0 
3.881607873422e+01 -1.737970515013e+01 0.0 
8.270182347708e+00 -1.088622154920e+01 0.0 
8.672520392520e-01 -4.532984309881e+00 0.0 
1.993447205337e+01 -3.579061902667e+00 0.0 
1.794616079549e+01 -7.238038888498e+00 0.0 
2.097277068165e+01 -1.132450168636e+01 0.0 
8.194803300681e+00 -1.187214224265e+01 0.0 
3.522279404911e+01 -1.823342818178e+01 0.0 
6.984481050295e+00 -1.625271465557e+01 0.0 
1.309433007797e+01 -1.521718594215e+01 0.0 
2.150246167611e+01 -1.885399038185e+00 0.0 
3.250689370209e+01 -1.028789870535e+01 0.0 
6.085886272238e+00 -1.668342132851e+01 0.0 
1.588455661727e+01 -1.193498985921e+01 0.0 
1.809323400821e+01 -1.651110084195e+01 0.0 
1.348885082381e+00 -1.136065576512e+01 0.0 
2.497670221995e+01 -1.834631276173e+01 0.0 
2.937062818424e+01 -8.233711194470e+00 0.0 
5.185823744469e+00 -1.711566910207e+01 0.0 
1.477497877209e+01 -1.530177014512e+01 0.0 
2.125346158933e+01 -7.473003997367e+00 0.0 
4.751561118290e+01 -1.084897772632e+01 0.0 
5.056026576843e+00 -1.825750475525e+01 0.0 
1.473948554523e+01 -1.634577436309e+01 0.0 
2.410566630936e+01 -1.345970002612e+01 0.0 
1.507337507513e+01 -1.138527895328e+01 0.0 
3.189857338687e+01 -8.887781229006e+00 0.0 
7.298712468334e+00 -1.230231046246e+01 0.0 
2.738235495295e+01 -1.368931690364e+01 0.0 
3.750141041969e+01 -1.920449893070e+01 0.0 
1.557271965640e+01 -1.683317951731e+01 0.0 
3.393731848929e+01 -1.413034777044e+01 0.0 
6.482156824153e+00 -1.174575135362e+01 0.0 
2.077971718439e+01 -1.421279621836e+01 0.0 
3.455084320178e+00 -2.562590040585e+00 0.0 
3.099056096250e+01 -9.270280416035e+00 0.0 
5.580176125418e+00 -1.217387969259e+01 0.0 
1.707247630389e+01 -7.660651981710e+00 0.0 
1.418658814174e+01 -1.180390575393e+01 0.0 
2.049103025389e+01 -1.811296706038e+01 0.0 
4.680386172316e+00 -1.260396879301e+01 0.0 
1.699679896554e+01 -8.624561788199e+00 0.0 
3.779470168555e+00 -1.303424899720e+01 0.0 
3.036589870126e+01 -7.879832518349e+00 0.0 
3.306993001774e+01 -1.457671062095e+01 0.0 
2.840150110165e+00 -1.346530088269e+01 0.0 
2.732011135052e+01 -1.464591214560e+01 0.0 
5.423639259568e+00 -2.659711955016e+00 0.0 
2.324455961696e+01 -1.387269388211e+01 0.0 
1.752768355571e+00 -1.693128613594e+01 0.0 
1.020244783051e+01 -8.076834012808e+00 0.0 
1.330873875224e+01 -1.222417528206e+01 0.0 
3.297727364880e+01 -1.555480372087e+01 0.0 
2.890929955439e+01 -6.868664170731e+00 0.0 
1.323294664622e+01 -1.320754260334e+01 0.0 
2.726532861246e+01 -1.560593120806e+01 0.0 
2.240020643398e+01 -1.429299177247e+01 0.0 
2.090445823633e+01 -1.228128621332e+01 0.0 
1.315809881502e+01 -1.420739326938e+01 0.0 
2.781328038068e+01 -7.181956082300e+00 0.0 
8.614200829057e+00 -5.936933226306e+00 0.0 
8.714765730069e+00 -4.979270529687e+00 0.0 
1.611881701099e+01 -9.041973294003e+00 0.0 
2.806830314340e+01 -1.614622947108e+01 0.0 
2.084435391396e+00 -3.385085422913e+00 0.0 
3.133211811152e+01 -1.542347619750e+01 0.0 
9.693114650768e+00 -3.590281506442e+00 0.0 
1.531883592202e+01 -8.504584946143e+00 0.0 
2.151589117094e+01 -1.578915763018e+01 0.0 
4.918943882696e+01 -1.355538828056e+01 0.0 
1.443236615188e+01 -8.918701794549e+00 0.0 
8.276250966452e-01 -5.537685192197e+00 0.0 
1.362790867918e+01 -8.374718262212e+00 0.0 
2.083767477370e+01 -1.324843956035e+01 0.0 
1.273834678703e+01 -8.790890389337e+00 0.0 
1.192275845670e+01 -8.242261327467e+00 0.0 
4.477236023583e+01 -1.824312396664e+01 0.0 
1.102989384254e+01 -8.649855800911e+00 0.0 
4.849096516045e+01 -1.917293752213e+01 0.0 
1.588996752238e+00 -1.910230934687e+01 0.0 
4.904245197583e+01 -1.159839008158e+01 0.0 
2.753852929608e+01 -5.782128488093e+00 0.0 
1.756133602833e+01 -8.306130313187e-01 0.0 
2.615423700951e+01 -6.153865090092e+00 0.0 
1.028818761294e+01 -7.122020845892e+00 0.0 
2.970818901196e+01 -1.527821347593e+01 0.0 
4.801461623449e+01 -1.164472570985e+01 0.0 
9.455722100419e+00 -6.546069291118e+00 0.0 
3.089099236677e+01 -1.835339328261e+01 0.0 
2.350000000013e+01 -1.920825896750e+01 0.0 
4.830620531887e+01 -1.506626155470e+01 0.0 
1.725381944701e+01 -1.688794487850e+01 0.0 
2.156246225273e+01 -1.475893794002e+01 0.0 
4.919319648787e+01 -1.742767505896e+01 0.0 
4.437935623576e+01 -1.077662927266e+01 0.0 
1.001520521978e+01 -1.652692675208e+00 0.0 
9.067160240050e-01 -1.441937727541e+01 0.0 
2.603365149390e+01 -4.755996613848e+00 0.0 
2.458344439002e+01 -4.873645517696e+00 0.0 
2.304312390142e+01 -3.836552768096e+00 0.0 
2.546923202198e+00 -6.902480355749e+00 0.0 
1.251534969393e+01 -2.490989965776e+00 0.0 
2.454061833377e+01 -3.933354231935e+00 0.0 
1.788186558740e+01 -1.827424884923e+01 0.0 
4.090785243552e+01 -1.166553231904e+01 0.0 
2.230128851568e+01 -1.623015738726e+01 0.0 
2.302362347568e+01 -2.916239960270e+00 0.0 
3.878119254461e+01 -1.830091164002e+01 0.0 
2.210081359958e+01 -1.829238229150e+01 0.0 
8.443704882233e+00 -1.921993252862e+01 0.0 
2.218405824691e+01 -1.724557581508e+01 0.0 
2.151157503963e+01 -2.790636689331e+00 0.0 
3.741658958955e+01 -1.250400191722e+01 0.0 
2.697247663737e+01 -1.838290202309e+01 0.0 
4.743362342862e+01 -1.585850773010e+01 0.0 
6.671345075358e+00 -1.924977576322e+01 0.0 
3.900825404537e+01 -1.157220003875e+01 0.0 
4.649692961375e+01 -1.836335837481e+01 0.0 
1.578831424832e+01 -3.678284023361e+00 0.0 
4.814208768888e+01 -1.841249298770e+01 0.0 
2.964123298315e+01 -1.625739458193e+01 0.0 
4.580760351902e+01 -1.284294554687e+01 0.0 
3.561520879615e+01 -1.245548941949e+01 0.0 
2.555418095658e+00 -1.841101588290e+01 0.0 
3.288468366144e+01 -1.834258164109e+01 0.0 
2.065894391445e+01 -2.240688571739e+00 0.0 
4.739171429915e+01 -1.496536413446e+01 0.0 
3.478086729185e+00 -8.576434653209e+00 0.0 
1.606010630246e+01 -1.588421807951e+00 0.0 
1.018329200594e+01 -1.834320874317e+01 0.0 
2.957213339430e+01 -1.720496954591e+01 0.0 
4.142712790164e+00 -1.837794506222e+01 0.0 
6.698721532573e-01 -2.499999999997e+00 0.0 
8.037039123140e+00 -1.571229354954e+00 0.0 
1.203541361428e+01 -1.847784298001e+01 0.0 
2.899968332038e+01 -1.848264722179e+01 0.0 
1.469229460948e+01 -4.219485753730e+00 0.0 
4.049590781957e+01 -1.932812501995e+01 0.0 
1.996211678340e+01 -1.506329754720e+00 0.0 
4.250588298353e+01 -1.067383247529e+01 0.0 
5.831497011152e+00 -1.635396227234e+00 0.0 
5.317606125670e+00 -1.923927974868e+01 0.0 
4.208546426993e+01 -1.842830665025e+01 0.0 
2.327553405011e+00 -9.459409929662e+00 0.0 
3.568351902251e+01 -1.096637218582e+01 0.0 
1.682104374890e+00 -6.231413350963e+00 0.0 
2.451812238018e+01 -1.766524914339e+01 0.0 
1.058003429638e+01 -2.391839617098e+00 0.0 
4.399988753123e+01 -1.851998776342e+01 0.0 
1.400000000010e+01 -1.852293523028e+01 0.0 
3.604719565984e+01 -1.850662876800e+01 0.0 
1.951297136734e+01 -1.938092349694e+01 0.0 
1.821365318472e+01 -1.531276353287e+00 0.0 
2.298031859732e+01 -1.854635324722e+01 0.0 
1.552168066204e+01 -1.764280741977e+01 0.0 
4.572957713638e+01 -1.073347898229e+01 0.0 
3.429637429624e+01 -1.838861552790e+01 0.0 
2.427434426052e+00 -7.705577451869e+00 0.0 
4.662792031485e+00 -3.359424455416e+00 0.0 
4.926794919243e+01 -1.926794919243e+01 0.0 
7.320508075690e-01 -7.320508075688e-01 0.0 
4.926794919243e+01 -1.073205080757e+01 0.0 
7.320508075705e-01 -1.926794919243e+01 0.0 
2.917460242467e+00 -3.202866455310e+00 0.0 
4.838200575963e+01 -1.232674147454e+01 0.0 
2.998445708009e+01 -1.854403752148e+01 0.0 
5.949940090766e-01 -1.152762038165e+01 0.0 
4.844763495759e+01 -1.678092548787e+01 0.0 
1.301685480160e+01 -3.170056592566e+00 0.0 
1.650046335855e+01 -6.731535384067e-01 0.0 
4.854881540991e+01 -1.405224059779e+01 0.0 
2.119545114693e+01 -1.846813384545e+01 0.0 
3.797852849897e+01 -1.857978513215e+01 0.0 
4.649823708745e+01 -1.338351810816e+01 0.0 
2.012685900976e+01 -2.889659035009e+00 0.0 
2.953271913273e+01 -1.791558075192e+01 0.0 
2.408509097292e+00 -1.021949208421e+01 0.0 
2.642589566221e+01 -1.773216561448e+01 0.0 
1.730010270775e+01 -1.763165076721e+01 0.0 
2.017406551304e+01 -8.513536440582e-01 0.0 
5.254761581934e-01 -1.249999999999e+01 0.0 
6.640448215642e+00 -1.545337834885e+00 0.0 
7.843361506349e+00 -1.852719839527e+01 0.0 
1.588442191088e+00 -1.066158564320e+01 0.0 
3.480610198624e+01 -9.413633635267e+00 0.0 
4.951470588234e+01 -9.500000000000e+00 0.0 

SCALARS node_number int
LOOKUP_TABLE default
1
2
3
4
5
6
7
8
9
10
11
12
13
14
15
16
17
18
19
20
21
22
23
24
25
26
27
28
29
30
31
32
33
34
35
36
37
38
39
40
41
42
43
44
45
46
47
48
49
50
51
52
53
54
55
56
57
58
59
60
61
62
63
64
65
66
67
68
69
70
71
72
73
74
75
76
77
78
79
80
81
82
84
85
86
87
88
89
90
91
92
93
102
104
105
106
107
108
109
110
111
112
113
114
115
116
117
118
119
120
121
122
123
124
125
126
127
128
129
130
131
132
133
134
135
136
346
347
348
349
350
351
352
353
354
355
356
357
358
359
360
361
362
363
364
365
366
367
368
369
370
371
372
373
374
375
376
377
378
379
380
381
382
383
384
385
386
387
388
389
390
391
392
393
394
395
396
397
398
399
400
401
402
403
404
405
406
407
408
409
410
411
412
413
414
415
416
417
418
419
420
421
422
423
424
425
426
427
428
429
430
431
432
433
434
435
436
437
438
439
440
441
442
443
444
445
446
447
448
449
450
451
452
453
454
455
456
457
458
459
460
461
462
463
464
465
466
467
468
469
470
471
472
473
474
475
476
477
478
479
480
481
482
483
484
485
486
487
488
489
490
491
492
493
494
495
496
497
498
499
500
501
502
503
504
505
506
507
508
509
510
511
512
513
514
515
516
517
518
519
520
521
522
523
524
525
526
527
528
529
530
531
532
533
534
535
536
537
538
539
540
541
542
543
544
545
546
547
548
549
550
551
552
553
554
555
556
557
558
559
560
561
562
563
564
565
566
567
568
569
570
571
572
573
574
575
576
577
578
579
580
581
582
583
584
585
586
587
588
589
590
591
592
593
594
595
596
597
598
599
600
601
602
603
604
605
606
607
608
609
610
611
612
613
614
615
616
617
618
619
620
621
622
623
624
625
626
627
628
629
630
631
632
633
634
635
636
637
638
639
640
641
642
643
644
645
646
647
648
649
650
651
652
653
654
655
656
657
658
659
660
661
662
663
664
665
666
667
668
669
670
671
672
673
674
675
676
677
678
679
680
681
682
683
684
685
686
687
688
689
690
691
692
693
694
695
696
697
698
699
700
701
702
703
704
705
706
707
708
709
710
711
712
713
714
715
716
717
718
719
720
721
722
723
724
725
726
727
728
729
730
731
732
733
734
735
736
737
738
739
740
741
742
743
744
745
746
747
748
749
750
751
752
753
754
755
756
757
758
759
760
761
762
763
764
765
766
767
768
769
770
771
772
773
774
775
776
777
778
779
780
781
782
783
784
785
786
787
788
789
790
791
792
793
794
795
796
797
798
799
800
801
802
803
804
805
806
807
808
809
810
811
812
813
814
815
816
817
818
819
820
821
822
823
824
825
826
827
828
829
830
831
832
833
834
835
836
837
838
839
840
841
842
843
844
845
846
847
848
849
850
851
852
853
854
855
856
857
858
859
860
861
862
863
864
865
866
867
868
869
870
871
872
873
874
875
876
877
878
879
880
881
882
883
884
885
886
887
888
889
890
891
892
893
894
895
896
897
898
899
900
901
902
903
904
905
906
907
908
909
910
911
912
913
914
915
916
917
918
919
920
921
922
923
924
925
926
927
928
929
930
931
932
933
934
935
936
937
938
939
940
941
942
943
944
945
946
947
948
949
950
951
952
953
954
955
956
957
958
959
960
961
962
963
964
965
966
967
968
969
970
971
972
973
974
975
976
977
978
979
980
981
982
983
984
985
986
987
988
989
990
991
992
993
994
995
996
997
998
999
1000
1001
1002
1003
1004
1005
1006
1007
1008
1009
1010
1011
1012
1013
1014
1015
1016
1017
1018
1019
1020
1021
1022
1023
1024
1025
1026
1027
1028
1029
1030
1031
1032
1033
1034
1035
1036
1037
1038
1039
1040
1041
1042
1043
1044
1045
1046
1047
1048
1049
1050
1051
1052
1053
1054
1055
1056
1057
1058
1059
1060
1061
1062
1063
1064
1065
1066
1067
1068
1069
1070
1071
1072
1073
1074
1075
1076
1077
1078
1079
1080
1081
1082
1083
1084
1085
1086
1087
1088
1089
1090
1091
1092
1093
1094
1095
1096
1097
1098
1099
1100
1101
1102
1103
1104
1105
1106
1107
1108
1109
1110
1111
1112
1113
1114
1115
1116
1117
1118
1119
1120
1121
1122
1123
1124
1125
1126
1127
1128
1129
1130
1131
1132
1133
1134
1135
1136
1137
1138
1139
1140
1141
1142
1143
1144
1145
1146
1147
1148
1149
1150
1151
1152
1153
1154
1155
1156
1157
1158
1159
1160
1161
1162
1163
1164
1165
1166
1167
1168
1169
1170
1171
1172
1173
1174
1175
1176
1177
1178
1179
1180
1181
1182
1183
1184
1185
1186
1187
1188
1189
1190
1191
1192
1193
1194
1195
1196
1197
1198
1199
1200
1201
1202
1203
1204
1205
1206
1207
1208
1209
1210
1211
1212
1213
1214
1215
1216
1217
1218
1219
1220
1221
1222
1223
1224
1225
1226
1227
1228
1229
1230
1231
1232
1233
1234
1235
1236
1237
1238
1239
1240
1241
1242
1243
1244
1245
1246
1247
1248
1249
1250
1251
1252
1253
1254
1255
1256
1257
1258
1259
1260
1261
1262
1263
1264
1283
1284

VECTORS node_mesh_deformation float
0.0 7.723552596168e-02 0.0 
0.000000000000e+00 1.518793942978e-01 0.0 
0.0 0.000000000000e+00 0.0 
0.000000000000e+00 0.000000000000e+00 0.0 
0.0 7.716354710296e-02 0.0 
0.0 7.671789052944e-02 0.0 
0.0 7.590302447558e-02 0.0 
0.0 7.471835432073e-02 0.0 
0.0 7.315370782420e-02 0.0 
0.0 7.121637024145e-02 0.0 
0.0 6.890521228015e-02 0.0 
0.0 6.621325971583e-02 0.0 
0.0 6.313488138347e-02 0.0 
0.0 5.965869223746e-02 0.0 
0.0 5.576609721914e-02 0.0 
0.0 5.144381961532e-02 0.0 
0.0 4.668574416009e-02 0.0 
0.0 4.150304426067e-02 0.0 
0.0 3.584043114566e-02 0.0 
0.0 2.969386750711e-02 0.0 
0.0 2.305340533012e-02 0.0 
0.0 1.589433848785e-02 0.0 
0.0 8.199584285393e-03 0.0 
0.000000000000e+00 0.000000000000e+00 0.0 
0.000000000000e+00 0.000000000000e+00 0.0 
0.000000000000e+00 0.000000000000e+00 0.0 
0.000000000000e+00 0.000000000000e+00 0.0 
0.000000000000e+00 0.000000000000e+00 0.0 
0.000000000000e+00 0.000000000000e+00 0.0 
0.000000000000e+00 0.000000000000e+00 0.0 
0.000000000000e+00 0.000000000000e+00 0.0 
0.000000000000e+00 0.000000000000e+00 0.0 
0.000000000000e+00 0.000000000000e+00 0.0 
0.000000000000e+00 0.000000000000e+00 0.0 
0.000000000000e+00 0.000000000000e+00 0.0 
0.000000000000e+00 0.000000000000e+00 0.0 
0.000000000000e+00 0.000000000000e+00 0.0 
0.000000000000e+00 0.000000000000e+00 0.0 
0.000000000000e+00 0.000000000000e+00 0.0 
0.000000000000e+00 0.000000000000e+00 0.0 
0.000000000000e+00 0.000000000000e+00 0.0 
0.000000000000e+00 0.000000000000e+00 0.0 
0.000000000000e+00 0.000000000000e+00 0.0 
0.000000000000e+00 0.000000000000e+00 0.0 
0.000000000000e+00 0.000000000000e+00 0.0 
0.000000000000e+00 0.000000000000e+00 0.0 
0.000000000000e+00 0.000000000000e+00 0.0 
0.000000000000e+00 0.000000000000e+00 0.0 
0.000000000000e+00 0.000000000000e+00 0.0 
0.000000000000e+00 0.000000000000e+00 0.0 
0.000000000000e+00 0.000000000000e+00 0.0 
0.000000000000e+00 0.000000000000e+00 0.0 
0.000000000000e+00 0.000000000000e+00 0.0 
0.000000000000e+00 0.000000000000e+00 0.0 
0.000000000000e+00 0.000000000000e+00 0.0 
0.000000000000e+00 0.000000000000e+00 0.0 
0.000000000000e+00 0.000000000000e+00 0.0 
0.000000000000e+00 0.000000000000e+00 0.0 
0.000000000000e+00 0.000000000000e+00 0.0 
0.000000000000e+00 0.000000000000e+00 0.0 
0.000000000000e+00 0.000000000000e+00 0.0 
0.000000000000e+00 0.000000000000e+00 0.0 
0.000000000000e+00 0.000000000000e+00 0.0 
0.000000000000e+00 0.000000000000e+00 0.0 
0.000000000000e+00 0.000000000000e+00 0.0 
0.000000000000e+00 0.000000000000e+00 0.0 
0.000000000000e+00 0.000000000000e+00 0.0 
0.000000000000e+00 0.000000000000e+00 0.0 
0.000000000000e+00 0.000000000000e+00 0.0 
0.000000000000e+00 0.000000000000e+00 0.0 
0.000000000000e+00 0.000000000000e+00 0.0 
0.000000000000e+00 0.000000000000e+00 0.0 
0.000000000000e+00 1.384164262180e-01 0.0 
0.000000000000e+00 1.245343960745e-01 0.0 
0.000000000000e+00 1.102387004336e-01 0.0 
0.000000000000e+00 9.555088961003e-02 0.0 
0.000000000000e+00 8.047747217876e-02 0.0 
0.000000000000e+00 6.504133210899e-02 0.0 
0.000000000000e+00 4.925811225954e-02 0.0 
0.000000000000e+00 3.314572909552e-02 0.0 
0.000000000000e+00 1.672472867384e-02 0.0 
-1.033026254555e-02 1.019772073863e-01 0.0 
1.534582681128e-02 1.446952881711e-01 0.0 
-7.403735044846e-03 1.104404191959e-01 0.0 
-4.455381724476e-03 1.197594836340e-01 0.0 
-1.141625239228e-03 1.289961984890e-01 0.0 
2.404741614555e-03 1.374451283764e-01 0.0 
6.001254848581e-03 1.446113012099e-01 0.0 
9.464497687290e-03 1.500937394672e-01 0.0 
1.253453245751e-02 1.534327743099e-01 0.0 
1.484603065500e-02 1.542080162460e-01 0.0 
1.543380910638e-02 1.517600253951e-01 0.0 
0.000000000000e+00 1.649410342262e-01 0.0 
9.544460549762e-04 1.519033574430e-01 0.0 
1.896315506556e-03 1.519421441077e-01 0.0 
2.835966393839e-03 1.519824588714e-01 0.0 
3.776072928993e-03 1.520219328458e-01 0.0 
4.714082198483e-03 1.520619952671e-01 0.0 
5.654905559041e-03 1.520725249056e-01 0.0 
6.604072129107e-03 1.520528346993e-01 0.0 
7.547365237876e-03 1.519593677962e-01 0.0 
8.513487036275e-03 1.517799110866e-01 0.0 
9.497012710128e-03 1.514529671238e-01 0.0 
1.050275402518e-02 1.509188793132e-01 0.0 
1.155345745352e-02 1.501042889211e-01 0.0 
1.267597790349e-02 1.489007652391e-01 0.0 
1.391405158267e-02 1.471595406519e-01 0.0 
-9.366429193090e-03 9.730273334624e-02 0.0 
-8.135987045186e-03 9.340364799927e-02 0.0 
-6.865346855459e-03 9.017656867862e-02 0.0 
-5.655570721450e-03 8.753842576606e-02 0.0 
-4.576622339455e-03 8.539714610835e-02 0.0 
-3.613470881877e-03 8.364452921017e-02 0.0 
-2.769562121136e-03 8.221800074475e-02 0.0 
-2.053065114808e-03 8.106474718069e-02 0.0 
-1.453326926713e-03 8.014220995535e-02 0.0 
-9.630023114973e-04 7.941863064596e-02 0.0 
-5.846130444205e-04 7.883699590146e-02 0.0 
-2.803861988951e-04 7.840557744983e-02 0.0 
-4.802018084593e-05 7.805276344135e-02 0.0 
8.958923550129e-05 7.777980272932e-02 0.0 
1.578415915979e-04 7.758509312698e-02 0.0 
1.864123247564e-04 7.744584106486e-02 0.0 
1.809270233242e-04 7.734548908970e-02 0.0 
1.476257440538e-04 7.728022069609e-02 0.0 
7.252333136631e-05 7.723685119548e-02 0.0 
1.354540464180e-02 1.562111419656e-01 0.0 
1.265229055114e-02 1.590152013681e-01 0.0 
1.179873213201e-02 1.610180006737e-01 0.0 
1.104279891008e-02 1.624535228506e-01 0.0 
1.030939465910e-02 1.634603116618e-01 0.0 
9.568519436158e-03 1.641480239249e-01 0.0 
8.803511251926e-03 1.645946031268e-01 0.0 
8.005034884192e-03 1.648688325087e-01 0.0 
7.180421838676e-03 1.650275779333e-01 0.0 
6.334546821698e-03 1.651007924284e-01 0.0 
5.467712638527e-03 1.651151110865e-01 0.0 
4.584639331583e-03 1.650992390157e-01 0.0 
3.693052054366e-03 1.650657849320e-01 0.0 
2.797367053020e-03 1.650225301906e-01 0.0 
1.901712023916e-03 1.649850481442e-01 0.0 
9.791137928445e-04 1.649338137383e-01 0.0 
-8.796983895177e-03 1.060208103803e-01 0.0 
-5.957662163684e-03 1.150567410046e-01 0.0 
-2.811584132591e-03 1.244436559998e-01 0.0 
6.414635220793e-04 1.333553982358e-01 0.0 
4.248396750423e-03 1.412563409217e-01 0.0 
7.804428063206e-03 1.476432983447e-01 0.0 
1.109441388930e-02 1.520545817647e-01 0.0 
1.383617029000e-02 1.541678954919e-01 0.0 
1.550638876405e-02 1.534451352103e-01 0.0 
1.551518814050e-02 1.486751988472e-01 0.0 
-1.736808121819e-03 1.132693874005e-01 0.0 
3.058081720663e-03 8.104448487092e-03 0.0 
-4.824211871313e-04 7.950969922692e-02 0.0 
-3.243956905063e-03 8.607019429331e-02 0.0 
1.905333121371e-03 7.526387495368e-03 0.0 
5.521116019469e-03 1.292610844922e-01 0.0 
6.142767573507e-04 5.769647461026e-02 0.0 
4.034079574257e-03 8.915826291965e-03 0.0 
1.239888081915e-02 1.403042705901e-01 0.0 
4.647851909969e-03 9.741422826991e-03 0.0 
1.727730356871e-02 1.443508004927e-01 0.0 
1.046232946129e-03 6.719487175243e-03 0.0 
3.120312402070e-04 7.775036560731e-02 0.0 
4.931491291259e-03 1.122808646664e-02 0.0 
1.739440121705e-02 1.365551095627e-01 0.0 
4.289408573933e-04 7.003486644564e-02 0.0 
6.415646005674e-04 4.521870016394e-02 0.0 
4.794089510654e-03 1.278621660802e-02 0.0 
3.529268916360e-03 1.331592362803e-02 0.0 
9.847525641860e-04 1.427947373760e-02 0.0 
1.860953160694e-03 1.536883097117e-02 0.0 
2.523193578980e-03 1.350739500555e-02 0.0 
1.424776567885e-02 1.361673974515e-01 0.0 
9.295090784150e-03 1.394629893247e-01 0.0 
6.178796019000e-03 1.395835342002e-01 0.0 
6.236407984943e-04 8.783457227853e-02 0.0 
6.231720239391e-04 7.198183815674e-03 0.0 
-5.729150381502e-03 9.503537157838e-02 0.0 
3.068404187045e-04 7.730162491462e-02 0.0 
4.435939095749e-04 2.695274830122e-02 0.0 
3.215652946146e-03 1.404202972274e-01 0.0 
2.558980547591e-04 7.537912185244e-02 0.0 
4.728247812437e-03 1.481829418641e-02 0.0 
4.056621299586e-03 8.572478162275e-03 0.0 
4.805449690615e-03 1.031487679020e-02 0.0 
3.792955103798e-03 8.991356653965e-03 0.0 
2.444661701839e-03 7.442698360947e-03 0.0 
-1.829147748746e-03 8.252631323673e-02 0.0 
1.157554381381e-02 1.391822274604e-01 0.0 
1.704174400780e-03 8.436653897508e-03 0.0 
4.764516721494e-04 5.786940886787e-02 0.0 
3.848234049109e-05 7.840501087637e-02 0.0 
5.532297626559e-04 6.472707375655e-02 0.0 
4.850856286254e-04 1.162969509769e-02 0.0 
9.193726952901e-03 1.348808088200e-01 0.0 
1.804010829520e-03 1.216084762335e-01 0.0 
1.523855607040e-02 1.434084323788e-01 0.0 
1.792717453557e-02 1.422739927712e-01 0.0 
-5.322167064119e-03 1.052660292862e-01 0.0 
7.428245919101e-04 1.157348227621e-01 0.0 
2.853576060442e-04 5.676431906007e-03 0.0 
1.387381420397e-04 7.720617468356e-02 0.0 
2.634265391848e-04 2.620441354751e-02 0.0 
1.701458465372e-02 1.317650337556e-01 0.0 
1.852942458324e-02 1.240932688294e-01 0.0 
1.728640022800e-02 1.206198722786e-01 0.0 
1.886201351851e-02 1.116617051369e-01 0.0 
1.761396178223e-02 1.064530461493e-01 0.0 
1.867683394404e-02 9.860744732299e-02 0.0 
2.002686781258e-02 1.033935942277e-01 0.0 
1.947017919495e-02 9.072270005559e-02 0.0 
2.086009643812e-02 9.530526248517e-02 0.0 
1.715410220088e-02 9.297887634922e-02 0.0 
1.994494032098e-02 8.291722755173e-02 0.0 
2.135548253305e-02 8.736021421519e-02 0.0 
2.009476722808e-02 7.529830416572e-02 0.0 
2.151057004984e-02 7.963699838294e-02 0.0 
2.250098881421e-02 9.114312541371e-02 0.0 
2.265726684143e-02 8.339855115686e-02 0.0 
2.334346518663e-02 9.424465608379e-02 0.0 
2.349815463695e-02 8.650635113872e-02 0.0 
2.249368253928e-02 7.599999672639e-02 0.0 
2.333657372974e-02 7.916650345355e-02 0.0 
2.401961233421e-02 8.900972262035e-02 0.0 
2.385962163616e-02 8.176159706431e-02 0.0 
2.421490107164e-02 9.093011051840e-02 0.0 
2.406116135823e-02 8.378949657727e-02 0.0 
2.409176606567e-02 9.232059655799e-02 0.0 
2.395279490752e-02 8.533355149817e-02 0.0 
2.362639348448e-02 7.708012109876e-02 0.0 
2.353923699413e-02 7.880668125856e-02 0.0 
2.354981981556e-02 8.643029511117e-02 0.0 
2.316313986501e-02 8.011154601614e-02 0.0 
2.287250792028e-02 8.712873776107e-02 0.0 
2.251869808844e-02 8.103766622861e-02 0.0 
2.253745669245e-02 7.421541020498e-02 0.0 
2.193339084098e-02 7.538979415784e-02 0.0 
2.162762543269e-02 8.164642849446e-02 0.0 
2.109195456376e-02 7.626820446797e-02 0.0 
2.051729504101e-02 8.198410522264e-02 0.0 
2.004136403189e-02 7.689040265175e-02 0.0 
1.921989922204e-02 8.208548573362e-02 0.0 
1.880400242803e-02 7.729907879455e-02 0.0 
1.938279382794e-02 7.214715475880e-02 0.0 
1.821401745944e-02 7.284257591998e-02 0.0 
1.741106422901e-02 7.754711332472e-02 0.0 
1.689945962268e-02 7.339969746008e-02 0.0 
1.747146742593e-02 6.872406646449e-02 0.0 
1.624091942871e-02 6.958387366698e-02 0.0 
1.660137359843e-02 6.490127318564e-02 0.0 
1.546118137605e-02 6.604654570672e-02 0.0 
1.491718764997e-02 7.031393470209e-02 0.0 
1.422933984896e-02 6.705629888755e-02 0.0 
1.458591978798e-02 6.273700104952e-02 0.0 
1.344426873402e-02 6.403678698967e-02 0.0 
1.292598053110e-02 6.800077607765e-02 0.0 
1.224600060893e-02 6.522100128074e-02 0.0 
1.259316407841e-02 6.117515927500e-02 0.0 
1.148820215339e-02 6.261485716957e-02 0.0 
1.101417812322e-02 6.634521472949e-02 0.0 
1.035503089052e-02 6.396478847374e-02 0.0 
1.068361786653e-02 6.008882254284e-02 0.0 
9.636461115573e-03 6.169075911476e-02 0.0 
9.211120739621e-03 6.526373284806e-02 0.0 
8.585710177899e-03 6.319028956092e-02 0.0 
8.880023475301e-03 5.945372988682e-02 0.0 
7.909803269506e-03 6.117811485136e-02 0.0 
8.088648628933e-03 5.726373710116e-02 0.0 
7.529861739279e-03 6.466189667466e-02 0.0 
6.941979739953e-03 6.282560973260e-02 0.0 
6.499658724978e-03 6.609407882096e-02 0.0 
5.995365554929e-03 6.440580146129e-02 0.0 
2.170156718976e-02 6.871111691293e-02 0.0 
5.528462961353e-03 6.744361207965e-02 0.0 
5.915618289388e-03 6.893381144893e-02 0.0 
5.089641769779e-03 6.591429387855e-02 0.0 
5.439512048669e-03 6.271413194529e-02 0.0 
4.616149926664e-03 6.872701663835e-02 0.0 
4.235443406370e-03 6.734577045158e-02 0.0 
3.775449495597e-03 6.994270958861e-02 0.0 
1.937012873601e-02 8.748123630200e-02 0.0 
2.202426152358e-02 6.895687362445e-02 0.0 
3.444011786842e-03 6.870048716408e-02 0.0 
3.016778165920e-03 7.108620797712e-02 0.0 
3.234174218452e-03 7.217322464330e-02 0.0 
2.529140239210e-03 7.310729479952e-02 0.0 
1.616027451098e-02 1.007438688642e-01 0.0 
1.549522059207e-02 8.675936855473e-02 0.0 
1.462186814829e-02 9.444122521210e-02 0.0 
1.373893205001e-02 8.008810429240e-02 0.0 
1.299966649760e-02 8.756169948708e-02 0.0 
2.343235062192e-03 7.215212768941e-02 0.0 
1.842695738648e-02 6.999052977344e-02 0.0 
1.426604693444e-02 7.243907406514e-02 0.0 
2.406253647573e-02 9.852917414024e-02 0.0 
2.296425471765e-02 9.369398528233e-02 0.0 
1.760849129276e-02 6.361064389234e-02 0.0 
3.795901689607e-03 6.594209758965e-02 0.0 
3.048745928969e-03 6.742996617431e-02 0.0 
3.306456961001e-03 6.450479465177e-02 0.0 
8.952710624271e-03 5.527002161195e-02 0.0 
8.056357495809e-03 5.291735537720e-02 0.0 
8.787783961733e-03 5.063399251994e-02 0.0 
7.805774029986e-03 4.812197806774e-02 0.0 
8.378904138544e-03 4.553756752912e-02 0.0 
7.333987719610e-03 4.286190719747e-02 0.0 
6.839252537587e-03 4.561522049030e-02 0.0 
6.324151443073e-03 4.017827247553e-02 0.0 
5.898944339227e-03 4.309414946518e-02 0.0 
7.724898660500e-03 3.996818247030e-02 0.0 
8.850696876769e-03 4.281295793346e-02 0.0 
5.359560006304e-03 3.747501051655e-02 0.0 
4.994583999903e-03 4.054049058550e-02 0.0 
4.449186811081e-03 3.473240142930e-02 0.0 
4.135566890080e-03 3.794334690432e-02 0.0 
4.541525136068e-03 4.347310370360e-02 0.0 
3.730056134260e-03 4.101807812335e-02 0.0 
4.020219649696e-03 4.627558288344e-02 0.0 
1.654428093497e-02 5.977334382294e-02 0.0 
1.730129433129e-02 5.803859005544e-02 0.0 
1.606093937270e-02 5.418481898128e-02 0.0 
1.653664522069e-02 5.199648525632e-02 0.0 
1.514346768532e-02 4.811972894629e-02 0.0 
1.531005647935e-02 4.547613401820e-02 0.0 
1.378605698541e-02 4.156497318717e-02 0.0 
1.371169435948e-02 4.442176104925e-02 0.0 
1.992602034914e-02 6.781648376214e-02 0.0 
1.590102566140e-02 7.765311607061e-02 0.0 
1.615975007543e-02 8.183797354353e-02 0.0 
1.448694809116e-02 8.150312292320e-02 0.0 
1.447209737173e-02 8.571340904295e-02 0.0 
1.267154614172e-02 8.494484760860e-02 0.0 
1.236010231031e-02 8.920043606970e-02 0.0 
1.046288921509e-02 8.801361612091e-02 0.0 
1.086263551102e-02 8.414235344598e-02 0.0 
8.590958972238e-03 8.683286759136e-02 0.0 
9.077332569579e-03 8.335796961300e-02 0.0 
6.790107421978e-03 8.569373531930e-02 0.0 
7.350994781049e-03 8.263349745344e-02 0.0 
2.293737197979e-02 7.079075017147e-02 0.0 
1.679173603225e-02 4.956861022704e-02 0.0 
1.522865063351e-02 4.256738063186e-02 0.0 
1.679194953093e-02 4.686259282346e-02 0.0 
2.631654096556e-03 7.404326816195e-02 0.0 
3.329111419645e-03 3.529018261330e-02 0.0 
7.985982573953e-03 3.691542093667e-02 0.0 
9.197544090622e-03 3.998258300236e-02 0.0 
1.224783449071e-02 3.780463420118e-02 0.0 
1.921639133148e-03 7.396564671096e-02 0.0 
9.840973254882e-03 9.232254179908e-02 0.0 
1.179258283344e-02 9.393806918083e-02 0.0 
1.194261214115e-02 7.286033729824e-02 0.0 
1.135055110014e-02 8.022541559079e-02 0.0 
8.089628766493e-03 3.369566111932e-02 0.0 
1.756976010916e-03 7.313291729543e-02 0.0 
5.613889340944e-03 3.426567915092e-02 0.0 
5.993955461676e-03 8.916403177493e-02 0.0 
2.961288612785e-03 3.850648074303e-02 0.0 
2.581861597619e-03 3.257742846308e-02 0.0 
6.265278105776e-03 4.822697953811e-02 0.0 
1.486946185203e-02 3.935904288170e-02 0.0 
1.654354983422e-02 4.396329950613e-02 0.0 
9.375096208725e-03 8.024025424555e-02 0.0 
7.726059017564e-03 7.989994554551e-02 0.0 
5.727989313904e-03 8.198334313883e-02 0.0 
6.235207408622e-03 7.950172532268e-02 0.0 
7.944159011716e-03 7.739576902997e-02 0.0 
6.491105157089e-03 7.741078704814e-02 0.0 
4.832332685213e-03 7.926685443198e-02 0.0 
5.162014767532e-03 7.746005287862e-02 0.0 
6.619579398654e-03 7.545348273928e-02 0.0 
5.365141755956e-03 7.576709352935e-02 0.0 
3.973250496738e-03 7.755679101714e-02 0.0 
4.242635175753e-03 7.609374655626e-02 0.0 
2.822660403395e-03 2.907268858921e-02 0.0 
4.223866407063e-03 8.767509418503e-02 0.0 
2.285337075325e-02 1.023325590805e-01 0.0 
6.857012303680e-03 3.051597894309e-02 0.0 
1.201685164276e-02 3.460770397523e-02 0.0 
1.014468782011e-02 6.521538379120e-02 0.0 
9.703911706460e-03 7.250926724413e-02 0.0 
1.060997113474e-02 8.754027200590e-02 0.0 
9.114727874497e-03 7.972376297737e-02 0.0 
8.092197553268e-03 6.446506205845e-02 0.0 
7.653554479013e-03 7.165290365458e-02 0.0 
8.423460245687e-03 8.684181166436e-02 0.0 
7.102336787973e-03 7.874391401328e-02 0.0 
7.667430834879e-03 9.382415897434e-02 0.0 
6.472364379114e-03 8.571780426722e-02 0.0 
5.833785773078e-03 7.043876554444e-02 0.0 
5.322102919884e-03 7.744598635266e-02 0.0 
5.790383942767e-03 9.258232387614e-02 0.0 
4.741441820656e-03 8.435254373816e-02 0.0 
5.074051441134e-03 9.932564124927e-02 0.0 
4.108881290648e-03 9.115365261735e-02 0.0 
3.752817056075e-03 7.598719362409e-02 0.0 
1.430748128874e-03 7.468246911637e-02 0.0 
1.226824158014e-02 4.087259168884e-02 0.0 
1.071847179479e-02 3.416046002938e-02 0.0 
2.616866184609e-03 6.611516031817e-02 0.0 
2.803020981941e-03 6.301888906978e-02 0.0 
3.486878022616e-03 6.118499465462e-02 0.0 
2.878002020329e-03 5.953640141042e-02 0.0 
3.187178639948e-03 8.292641510566e-02 0.0 
2.840778807993e-03 6.751448475524e-02 0.0 
8.972526146476e-03 9.712573850239e-02 0.0 
1.094163082045e-02 9.920891036464e-02 0.0 
1.038893844655e-02 5.786795400496e-02 0.0 
2.241297364270e-03 3.593048637061e-02 0.0 
2.517432288608e-03 4.158431916415e-02 0.0 
2.200475759540e-02 9.376014421961e-02 0.0 
2.176924023674e-02 1.005588969039e-01 0.0 
2.055488670178e-02 1.000247153196e-01 0.0 
1.990543587932e-02 1.071737721241e-01 0.0 
2.119748418840e-02 1.078964223011e-01 0.0 
1.844195478457e-02 1.060413341223e-01 0.0 
1.001366488973e-02 4.577328837581e-02 0.0 
4.643046114609e-03 6.197131353255e-02 0.0 
3.368457903727e-03 7.325032569451e-02 0.0 
2.637213032438e-03 7.497438826342e-02 0.0 
1.901990325655e-03 2.979338658460e-02 0.0 
1.342212077855e-02 4.706597580086e-02 0.0 
2.269426166145e-02 6.843102868523e-02 0.0 
2.173977271586e-02 6.233450301471e-02 0.0 
2.114822757535e-02 5.934352095090e-02 0.0 
1.993653813683e-02 5.343760576017e-02 0.0 
1.897546018170e-02 4.981745205673e-02 0.0 
1.751196787428e-02 4.409675837815e-02 0.0 
1.853135118073e-02 4.786056869877e-02 0.0 
1.419616822189e-02 3.577674733177e-02 0.0 
1.587281675194e-02 3.864756637142e-02 0.0 
3.493656554220e-03 9.798748151208e-02 0.0 
1.821004976321e-02 5.394217122690e-02 0.0 
6.618112724150e-03 7.363178444566e-02 0.0 
1.510862366776e-03 7.536358465422e-02 0.0 
2.910227972645e-03 7.771465114057e-02 0.0 
1.261426336233e-03 7.401258620325e-02 0.0 
1.519348862188e-03 7.225938856648e-02 0.0 
6.699150472341e-03 2.692840200586e-02 0.0 
1.615818832166e-02 3.984893069673e-02 0.0 
1.768578849008e-02 4.570981114501e-02 0.0 
1.890719879758e-02 1.148848234528e-01 0.0 
2.026536015047e-02 1.157647626797e-01 0.0 
1.241700278820e-02 3.134517034594e-02 0.0 
1.356062769339e-02 1.021212455799e-01 0.0 
8.881170320187e-03 1.017358763386e-01 0.0 
7.972865278788e-03 1.085683800006e-01 0.0 
1.001140603956e-03 7.550266031404e-02 0.0 
2.516732127733e-03 7.898755900211e-02 0.0 
6.551970846196e-03 5.617184301270e-02 0.0 
1.368952448149e-02 9.555929032432e-02 0.0 
1.287956386903e-02 1.012382318527e-01 0.0 
3.111377674941e-03 9.113077113359e-02 0.0 
1.411794959267e-03 8.930614519901e-02 0.0 
2.372679822322e-03 7.435761056940e-02 0.0 
2.045509548175e-03 5.891306251931e-02 0.0 
3.567273021136e-03 5.746851067133e-02 0.0 
2.903423712516e-03 5.563878445582e-02 0.0 
8.006831318928e-03 3.026421124627e-02 0.0 
3.264524813503e-03 7.641753117842e-02 0.0 
2.364658885433e-03 5.179704166233e-02 0.0 
1.207216746631e-02 4.370965019542e-02 0.0 
1.294590423982e-02 4.951386355546e-02 0.0 
2.206448531290e-03 6.150739838742e-02 0.0 
7.784122881457e-03 1.024928456496e-01 0.0 
5.804325932981e-03 9.995187766667e-02 0.0 
7.902736707615e-03 7.307501472213e-02 0.0 
4.374944689095e-03 7.471980375294e-02 0.0 
1.035746925547e-03 7.325287334410e-02 0.0 
6.322827971115e-03 2.312206405554e-02 0.0 
6.690965781495e-03 4.892996437150e-02 0.0 
1.697305082168e-02 4.259391020064e-02 0.0 
1.923471714245e-02 5.122451339955e-02 0.0 
1.410156917656e-02 3.348572969333e-02 0.0 
2.104999102672e-03 7.777608322348e-02 0.0 
5.468472987202e-03 2.359011071420e-02 0.0 
1.581143965021e-03 3.328412448524e-02 0.0 
1.461994245215e-02 3.561313440141e-02 0.0 
1.607072612658e-02 4.110449568014e-02 0.0 
1.550705638849e-02 9.710462419084e-02 0.0 
1.480992473419e-02 1.031303208980e-01 0.0 
1.176649787426e-02 1.075153480185e-01 0.0 
1.372630479558e-02 1.097848857320e-01 0.0 
2.115349727357e-02 1.074992943912e-01 0.0 
1.726668409887e-02 9.845672015422e-02 0.0 
2.338517963346e-02 1.047654038510e-01 0.0 
2.255600219741e-02 1.131918302541e-01 0.0 
2.275017664969e-02 1.149556471808e-01 0.0 
2.221121135246e-02 1.082949087173e-01 0.0 
2.133623760393e-02 1.163528511645e-01 0.0 
1.620753243924e-02 8.645388282255e-02 0.0 
1.845612863583e-02 6.214177542236e-02 0.0 
4.218372531525e-03 5.924630809579e-02 0.0 
4.816649097184e-03 4.852010064110e-02 0.0 
9.773487285214e-03 5.316886990933e-02 0.0 
4.941042466371e-03 5.484242331001e-02 0.0 
3.742201809651e-03 4.618026223183e-02 0.0 
6.071401413031e-03 1.073585775784e-01 0.0 
5.261487564454e-03 1.139236600707e-01 0.0 
1.994276521257e-03 7.555905813077e-02 0.0 
1.885519118387e-03 7.634933286606e-02 0.0 
7.276497379909e-03 5.509279769328e-02 0.0 
5.694545267712e-03 2.734261455043e-02 0.0 
8.473822838923e-03 4.993292440653e-02 0.0 
8.325459267674e-03 4.261351161400e-02 0.0 
1.038825993354e-02 5.048459089258e-02 0.0 
7.704195761615e-03 2.660370027914e-02 0.0 
1.432030091495e-02 7.767273386655e-02 0.0 
1.539851461672e-02 5.617651026819e-02 0.0 
2.602857854704e-03 8.636121325027e-02 0.0 
2.200138990644e-02 6.699509845956e-02 0.0 
1.360251159300e-03 7.672151753128e-02 0.0 
2.087170632313e-02 6.519962303486e-02 0.0 
1.299600526774e-03 2.693605809561e-02 0.0 
1.503326743610e-03 2.315664354742e-02 0.0 
1.134388911080e-02 2.728181761226e-02 0.0 
1.927677791348e-02 1.279794270445e-01 0.0 
2.093115495488e-02 6.161847760588e-02 0.0 
2.068916645723e-02 6.359234326569e-02 0.0 
2.156808458165e-02 1.236609259929e-01 0.0 
2.141743718640e-02 1.247574673447e-01 0.0 
2.261116128678e-02 1.160548970141e-01 0.0 
2.091055332710e-02 1.252584404888e-01 0.0 
7.696488976691e-03 7.115570869700e-02 0.0 
6.494084554271e-03 7.194282384451e-02 0.0 
1.256020655783e-02 2.912567405656e-02 0.0 
1.269210338171e-02 2.927602697775e-02 0.0 
1.270507649647e-02 3.067527043603e-02 0.0 
1.412921634321e-02 3.590338746747e-02 0.0 
9.446550444409e-03 2.283637741845e-02 0.0 
1.061019914406e-02 2.706156305889e-02 0.0 
1.213530392593e-03 7.133363792098e-02 0.0 
1.898602284805e-02 1.240447661417e-01 0.0 
5.107498546558e-03 4.039991744808e-02 0.0 
2.138077154401e-02 1.219006506341e-01 0.0 
4.365762386811e-03 2.043399795315e-02 0.0 
4.620033603670e-03 2.416430920568e-02 0.0 
-8.612728614565e-05 8.772009196249e-02 0.0 
1.191345788770e-03 8.494563170979e-02 0.0 
1.620798143385e-03 4.336519955872e-02 0.0 
1.033034928913e-02 1.143066221037e-01 0.0 
1.222636631286e-02 1.169611824456e-01 0.0 
8.356428961481e-03 1.113870211100e-01 0.0 
1.955572246083e-04 1.216487837931e-02 0.0 
1.395129051325e-03 1.405217907663e-01 0.0 
9.737443260236e-04 2.009032703917e-02 0.0 
2.298324059653e-02 1.082688658916e-01 0.0 
1.755130087787e-03 3.548186806865e-02 0.0 
1.972006874367e-02 5.661926508728e-02 0.0 
2.078285277024e-02 9.360249189913e-02 0.0 
9.380473142620e-03 3.363057797703e-02 0.0 
1.309694301028e-03 5.185542885504e-02 0.0 
9.753536295420e-04 3.414918408345e-02 0.0 
9.038638034696e-03 1.160460989595e-01 0.0 
8.063566629112e-03 1.229378281556e-01 0.0 
1.008660182071e-02 1.093987977008e-01 0.0 
5.003345160265e-03 9.308232281527e-02 0.0 
1.426822549643e-03 9.566474555389e-02 0.0 
3.553289587771e-03 5.336099526855e-02 0.0 
2.373667915782e-03 6.883062681263e-02 0.0 
1.945473244684e-03 6.734372185725e-02 0.0 
3.403928570654e-03 7.531618210606e-02 0.0 
4.359131752127e-03 7.347122802856e-02 0.0 
4.267477893540e-03 5.531665239686e-02 0.0 
4.969885522568e-03 5.722285483574e-02 0.0 
2.007987298291e-02 5.837278242342e-02 0.0 
1.861873441059e-02 5.408141383344e-02 0.0 
2.214258331064e-02 6.563788424307e-02 0.0 
1.168977859472e-02 4.634533189564e-02 0.0 
1.231515117057e-02 5.178674323902e-02 0.0 
1.346774664920e-02 5.481921939321e-02 0.0 
3.833474104020e-03 3.945569661438e-02 0.0 
2.560885720619e-03 2.928369515757e-02 0.0 
8.963386100579e-03 7.040686178995e-02 0.0 
9.261047982081e-03 7.255545076123e-02 0.0 
7.373202632646e-03 6.941733599451e-02 0.0 
4.933903917440e-03 3.340065999759e-02 0.0 
1.076921884695e-03 1.622179929709e-02 0.0 
1.602815285264e-03 1.949363838933e-02 0.0 
1.161305960453e-03 7.735049528222e-02 0.0 
1.677738747414e-03 7.714122463555e-02 0.0 
4.339654970845e-03 1.053302371537e-01 0.0 
2.316307215995e-03 1.024328460280e-01 0.0 
8.008178500319e-03 3.589913413595e-02 0.0 
1.012401504109e-02 4.324348541308e-02 0.0 
5.752964359253e-03 2.716047483612e-02 0.0 
7.341873624911e-04 7.254090754075e-02 0.0 
1.772701956428e-02 4.600805698695e-02 0.0 
5.855302762360e-03 1.948499864196e-02 0.0 
7.323282972880e-03 2.314760747212e-02 0.0 
4.249034252837e-03 1.495924979339e-02 0.0 
1.329663412688e-02 3.214525408026e-02 0.0 
1.007006493575e-02 2.327534888965e-02 0.0 
1.058046418380e-02 2.389679970027e-02 0.0 
-1.534188491284e-03 9.050284417186e-02 0.0 
7.311827540306e-04 4.081251755596e-02 0.0 
6.190437941022e-03 1.217647980162e-01 0.0 
-2.479933908131e-03 8.890768248826e-02 0.0 
5.316948478217e-03 1.286323245468e-01 0.0 
4.480314482954e-03 1.204681101161e-01 0.0 
4.582741316227e-03 1.353161222544e-01 0.0 
6.298525251884e-04 7.415139357542e-02 0.0 
1.009912313238e-02 1.258486153884e-01 0.0 
1.133070288839e-02 1.173382079071e-01 0.0 
6.849959900244e-04 7.815985092506e-02 0.0 
3.348750342688e-03 2.484635778997e-02 0.0 
8.026073421927e-04 7.748896281167e-02 0.0 
9.890707626337e-04 7.699477387505e-02 0.0 
3.333453214573e-03 1.698694951329e-02 0.0 
3.635681332204e-03 2.092817645079e-02 0.0 
2.413582414507e-03 1.365940655629e-02 0.0 
2.813427487861e-03 1.804543237750e-02 0.0 
3.787547838356e-03 2.484010875958e-02 0.0 
2.938468551989e-03 2.171841033640e-02 0.0 
7.162694846585e-03 1.306434361587e-01 0.0 
1.922949684740e-03 1.368652127254e-02 0.0 
2.170683549634e-03 1.838756865071e-02 0.0 
1.262376634004e-03 1.053358117335e-02 0.0 
1.932334137238e-02 1.343814273289e-01 0.0 
1.541692791951e-02 1.119611674658e-01 0.0 
1.392553916493e-02 1.196067067133e-01 0.0 
1.017321904069e-02 1.251339565251e-01 0.0 
9.621398185608e-03 2.276797180545e-02 0.0 
1.210318971117e-02 3.079855864273e-02 0.0 
9.843530765861e-04 3.042756717956e-02 0.0 
1.128136407714e-03 3.649827521956e-02 0.0 
3.684183650535e-03 1.279561523194e-01 0.0 
2.694724337957e-03 1.285155036301e-01 0.0 
2.961553770632e-03 1.155868360364e-01 0.0 
2.135367264358e-03 1.171518447650e-01 0.0 
2.313088275315e-03 1.041785487309e-01 0.0 
1.486443915553e-03 1.058323623734e-01 0.0 
1.777012089470e-03 9.257224850857e-02 0.0 
8.763475037590e-03 1.920732288307e-02 0.0 
6.371774457563e-03 1.180822623341e-01 0.0 
1.998950763015e-02 1.327924171902e-01 0.0 
7.536380516232e-03 1.850750562373e-02 0.0 
9.056814968510e-03 2.361070615472e-02 0.0 
2.009350172504e-02 1.248514212215e-01 0.0 
1.722097592440e-02 1.330278650592e-01 0.0 
3.622245100477e-03 1.524661090773e-02 0.0 
1.764981689471e-02 9.260428484652e-02 0.0 
2.541150330437e-03 1.579942460993e-02 0.0 
-6.481214286971e-03 9.889902933176e-02 0.0 
-2.614513422508e-03 9.652431179571e-02 0.0 
1.923668473806e-02 9.339005375895e-02 0.0 
2.213825459430e-02 1.165142833716e-01 0.0 
1.719812800957e-02 1.136852825331e-01 0.0 
1.600231516489e-02 1.214773322699e-01 0.0 
1.072680968496e-02 4.035301629352e-02 0.0 
1.319081878107e-03 7.799913975396e-02 0.0 
6.357943313638e-03 1.083465850941e-01 0.0 
2.592362113056e-03 9.109339558666e-02 0.0 
2.490803692407e-03 1.110132317866e-01 0.0 
5.163910153156e-04 3.322867865661e-02 0.0 
1.784152895226e-02 8.707538541367e-02 0.0 
2.348133649866e-02 1.005052604522e-01 0.0 
9.799224976550e-03 1.050018654890e-01 0.0 
1.677459751423e-02 1.046885263077e-01 0.0 
2.200908916157e-02 9.920397733857e-02 0.0 
1.997642674682e-02 1.158727075515e-01 0.0 
2.078817780443e-02 1.194989496674e-01 0.0 
1.774447294155e-02 8.208603183792e-02 0.0 
1.763754455318e-02 1.229194250893e-01 0.0 
1.416670068356e-02 1.302665791684e-01 0.0 
2.387067060827e-02 9.670179464046e-02 0.0 
1.247237040797e-02 5.793033412671e-02 0.0 
1.230921329562e-02 5.049099838273e-02 0.0 
9.622502056757e-03 3.648764666819e-02 0.0 
1.184074458313e-02 4.330202203347e-02 0.0 
1.446384679124e-02 5.735158209177e-02 0.0 
1.408148110117e-02 5.002174136252e-02 0.0 
1.106211883756e-02 3.646206688776e-02 0.0 
1.337673184522e-02 4.293047577770e-02 0.0 
9.159651774102e-03 2.699065941169e-02 0.0 
1.224412291539e-02 3.580792614213e-02 0.0 
1.559488183960e-02 4.926373620742e-02 0.0 
1.468167823828e-02 4.264890665854e-02 0.0 
1.135282618180e-02 3.086049310961e-02 0.0 
1.771781588378e-02 5.573487250718e-02 0.0 
6.038393737665e-03 1.408202896947e-02 0.0 
2.075521816218e-02 8.762462574830e-02 0.0 
-5.579502316166e-05 9.277234334532e-02 0.0 
-1.074007910773e-03 9.951720002029e-02 0.0 
2.393234077255e-02 9.977448143357e-02 0.0 
4.593760463187e-03 1.319413460120e-02 0.0 
3.934949708132e-03 1.351003475329e-02 0.0 
1.420570253777e-02 9.040263034009e-02 0.0 
4.879878125283e-03 1.073045620279e-02 0.0 
2.199826605700e-02 1.107819002608e-01 0.0 
7.874292087450e-03 9.074995111387e-02 0.0 
4.800130820303e-03 1.014517139180e-02 0.0 
1.451989847094e-02 6.482105994272e-02 0.0 
1.648806560818e-02 7.147806184803e-02 0.0 
1.613045151597e-02 7.911982488935e-02 0.0 
3.096628984004e-03 1.294517360699e-02 0.0 
1.113590117787e-02 1.024177121667e-01 0.0 
3.917581836742e-03 8.448327226944e-03 0.0 
1.786572950356e-02 5.609360951571e-02 0.0 
1.910815923348e-02 6.054332022402e-02 0.0 
1.948688473593e-02 6.658716908133e-02 0.0 
1.624095303220e-02 5.661631079889e-02 0.0 
3.262501332294e-03 8.145881628504e-03 0.0 
5.814015242603e-03 1.539580615972e-02 0.0 
5.367875373665e-03 1.510882920792e-02 0.0 
8.038169690916e-03 2.267843719286e-02 0.0 
2.764411682376e-03 7.812478855218e-03 0.0 
4.507667117053e-03 1.127006595947e-02 0.0 
4.395240242008e-03 1.041099275620e-02 0.0 
7.987663628590e-03 7.515591157807e-02 0.0 
9.449308237322e-03 7.486868716395e-02 0.0 
1.067493299770e-02 7.203489058045e-02 0.0 
1.095920203045e-02 7.462880496767e-02 0.0 
9.492264989696e-03 7.742962871108e-02 0.0 
1.109358616122e-02 7.748854634188e-02 0.0 
1.248005006491e-02 7.441902459495e-02 0.0 
1.106042269777e-02 8.066102899255e-02 0.0 
1.562975430305e-02 4.240329795374e-02 0.0 
2.227180320421e-03 7.301684094628e-03 0.0 
9.447708628553e-03 4.823856151185e-02 0.0 
1.052532992284e-02 5.102914128896e-02 0.0 
1.074359960553e-02 5.578936174796e-02 0.0 
4.845206609494e-03 6.098964347997e-02 0.0 
5.653935667129e-03 5.910991914219e-02 0.0 
5.721526729332e-03 5.509753227705e-02 0.0 
4.058261103125e-03 6.279523199889e-02 0.0 
2.057699048665e-02 5.661042184094e-02 0.0 
2.013280167958e-03 7.269821499150e-03 0.0 
1.419267169306e-02 5.276424440497e-02 0.0 
6.313904047632e-03 6.098027773197e-02 0.0 
1.287445473724e-02 1.378688220029e-01 0.0 
1.408987666046e-02 1.253499101866e-01 0.0 
1.554313998901e-02 1.235313462639e-01 0.0 
1.502128279468e-02 1.106770974479e-01 0.0 
1.254831729276e-02 1.250007032452e-01 0.0 
3.558662462544e-03 5.335554811826e-02 0.0 
2.852193807048e-03 5.134414237353e-02 0.0 
2.231045005954e-03 5.375731861893e-02 0.0 
2.154613758870e-03 4.927342517377e-02 0.0 
1.558934670635e-03 5.180036122401e-02 0.0 
1.615394353620e-03 5.595874546185e-02 0.0 
1.458464219813e-03 4.713558951627e-02 0.0 
9.015971436594e-04 5.030849066940e-02 0.0 
1.040032377272e-02 1.395311957816e-01 0.0 
-2.449487743112e-03 8.412937452213e-02 0.0 
-4.812561528045e-04 8.276301955658e-02 0.0 
-2.048120594491e-04 8.138392137667e-02 0.0 
1.105656368027e-03 8.133763221041e-02 0.0 
1.134698564346e-03 8.274759595717e-02 0.0 
2.928993758296e-03 8.086863232486e-02 0.0 
2.792746120429e-03 8.266025559962e-02 0.0 
-8.297012604075e-04 8.456616112367e-02 0.0 
-1.295110441834e-03 8.128774929706e-02 0.0 
7.225032284452e-05 8.030049130022e-02 0.0 
-8.453118270033e-04 8.029077725770e-02 0.0 
2.463842557514e-04 7.946942969463e-02 0.0 
1.442537927822e-03 7.904789811399e-02 0.0 
2.571922459389e-03 7.586830519694e-02 0.0 
5.526632762054e-04 8.172590541850e-03 0.0 
5.929512136812e-04 6.144177165818e-02 0.0 
1.129791190682e-03 6.315009189113e-02 0.0 
1.040787566144e-03 6.612192698132e-02 0.0 
1.672252939815e-03 6.458864808811e-02 0.0 
1.133833128590e-03 6.000926485187e-02 0.0 
4.958046017491e-04 6.757960538800e-02 0.0 
9.401670142468e-04 6.850920454495e-02 0.0 
2.347875888207e-04 7.723264685492e-02 0.0 
2.784744990043e-04 7.691387867780e-02 0.0 
1.159891999926e-04 7.693296205256e-02 0.0 
2.992698829238e-04 7.631178983345e-02 0.0 
4.823574337109e-04 7.636771345692e-02 0.0 
4.136306354936e-04 7.695398711439e-02 0.0 
5.276001917793e-04 7.703555690548e-02 0.0 
3.483709715217e-04 7.741042159741e-02 0.0 
6.179387106444e-04 7.715194461610e-02 0.0 
8.448353901231e-04 7.647262647086e-02 0.0 
3.537774372910e-04 7.755713793484e-02 0.0 
5.751093044140e-04 7.270726633806e-02 0.0 
1.101495852396e-03 6.504326612861e-02 0.0 
1.717249054055e-03 7.582992257003e-03 0.0 
8.148843197922e-03 1.390673007676e-01 0.0 
-1.693003342158e-04 7.889188425459e-02 0.0 
9.219925897455e-04 1.716668863502e-02 0.0 
1.442240548094e-03 1.420240236751e-02 0.0 
1.154962057669e-03 1.377758421087e-02 0.0 
3.232774389040e-04 1.980065726061e-02 0.0 
5.246711044997e-04 1.628500904939e-02 0.0 
4.932482763422e-04 1.669841818874e-02 0.0 
4.030307165551e-03 7.116894678382e-02 0.0 
8.819885884975e-03 3.000924440143e-02 0.0 
2.582641114579e-03 4.459411401347e-02 0.0 
6.985181590998e-03 9.506633050300e-02 0.0 
5.378529864236e-03 7.271806495625e-02 0.0 
1.791689916185e-03 3.909296133222e-02 0.0 
5.389373391874e-03 4.585937667668e-02 0.0 
2.122907273198e-03 2.620971371603e-02 0.0 
3.251983085113e-03 4.395856360787e-02 0.0 
3.600929020468e-03 3.193066333414e-02 0.0 
5.058246507431e-03 1.533537033174e-02 0.0 
8.672479543410e-04 7.475302964688e-02 0.0 
6.876321806146e-03 1.006594837909e-01 0.0 
4.376094506021e-03 1.060132883808e-01 0.0 
4.240149308323e-03 6.902634423486e-02 0.0 
2.726271667664e-03 6.997645823698e-02 0.0 
2.271344987351e-03 5.762875208726e-02 0.0 
2.009586243235e-03 7.475904701181e-02 0.0 
8.734958496166e-03 1.943512047551e-02 0.0 
2.357433200689e-02 1.066044622576e-01 0.0 
9.832009396227e-03 5.765761572564e-02 0.0 
4.596391046657e-03 6.436695478971e-02 0.0 
4.931985707925e-03 7.007357431628e-02 0.0 
5.436901571084e-03 7.418355640490e-02 0.0 
2.193636624937e-02 8.750098050866e-02 0.0 
7.202805225727e-03 5.916571672695e-02 0.0 
6.642672585464e-03 3.712581620396e-02 0.0 
3.246885939078e-03 6.047829331052e-02 0.0 
2.716604376580e-04 7.799254010499e-02 0.0 
6.829187528169e-03 3.390999264123e-02 0.0 
7.157732185043e-03 5.057670607282e-02 0.0 
9.774480748554e-03 9.473660013494e-02 0.0 
1.362169047843e-02 3.847716914458e-02 0.0 
3.621049889697e-03 7.903355896497e-02 0.0 
6.256074471139e-03 6.336550968497e-02 0.0 
6.447100689073e-03 3.533418290051e-02 0.0 
1.243690661433e-02 1.097286003506e-01 0.0 
1.464927944581e-03 7.607737042137e-02 0.0 
7.090888860326e-03 1.154474701482e-01 0.0 
5.025417203873e-03 1.961898005582e-02 0.0 
1.233212025772e-02 6.538574343299e-02 0.0 
2.083553068306e-03 7.116491517419e-02 0.0 
1.563094578449e-02 6.133314245143e-02 0.0 
2.366694570348e-02 9.321004802936e-02 0.0 
1.784276377022e-02 1.398387103829e-01 0.0 
2.697582579735e-03 3.792278999612e-02 0.0 
2.115335229509e-02 7.015726832113e-02 0.0 
1.038162973729e-02 3.066230355662e-02 0.0 
1.476006495555e-02 5.053857843231e-02 0.0 
1.765778480513e-03 7.009132412555e-02 0.0 
4.715525701812e-03 2.785909056887e-02 0.0 
1.856222097452e-02 6.771828462656e-02 0.0 
5.117322265669e-03 4.774301713792e-02 0.0 
2.023624856798e-02 5.587497241208e-02 0.0 
1.548099557494e-02 7.383685890872e-02 0.0 
8.379929693021e-03 5.722481190105e-02 0.0 
1.168582727099e-02 5.844883705081e-02 0.0 
1.317135329792e-02 3.507214541869e-02 0.0 
2.344543658745e-02 1.077045771148e-01 0.0 
2.340997226027e-02 7.490507474064e-02 0.0 
2.135977071801e-02 7.231087367631e-02 0.0 
2.287877277826e-02 7.269727837477e-02 0.0 
1.222072535840e-03 4.214418676298e-02 0.0 
5.735084142017e-03 3.089839988843e-02 0.0 
5.109291161343e-03 8.469864681234e-02 0.0 
1.905503261692e-02 9.933485804895e-02 0.0 
1.210393821733e-02 9.501453638376e-02 0.0 
1.455132156505e-02 3.461074586607e-02 0.0 
3.662375636210e-03 3.172109581614e-02 0.0 
2.275521682450e-02 1.007309990718e-01 0.0 
4.651541336765e-03 3.139078151912e-02 0.0 
6.676958673523e-03 4.213697851329e-02 0.0 
6.470423293054e-03 5.714791438652e-02 0.0 
3.034666356833e-04 7.393881317137e-02 0.0 
3.869471637667e-03 9.747811997302e-02 0.0 
1.277574594900e-02 8.110027414269e-02 0.0 
2.037241536089e-02 7.128071775640e-02 0.0 
6.456506929421e-03 5.290344097323e-02 0.0 
7.022594083793e-03 2.725449423730e-02 0.0 
3.760356433768e-03 2.846807789957e-02 0.0 
9.376978671838e-03 3.691634666773e-02 0.0 
-3.460546740090e-03 1.091244885777e-01 0.0 
1.985006555463e-02 1.306531587189e-01 0.0 
2.948205960769e-03 2.548321383951e-02 0.0 
1.458145578822e-02 5.798856304327e-02 0.0 
1.148037214907e-02 3.103559431627e-02 0.0 
9.785874831421e-04 5.427436423065e-02 0.0 
8.658652949524e-03 1.904132040653e-02 0.0 
1.851609509058e-02 1.336681604014e-01 0.0 
2.220511601162e-03 2.242974902965e-02 0.0 
1.083031331232e-02 3.735063729485e-02 0.0 
1.599127504534e-02 9.152528048686e-02 0.0 
2.311727631771e-03 1.405469506916e-01 0.0 
1.401487952120e-03 1.409681276406e-02 0.0 
9.148603737813e-03 3.012720863944e-02 0.0 
2.202123987993e-02 6.488526112764e-02 0.0 
1.363046667250e-02 5.964170327791e-02 0.0 
1.784338908136e-02 1.436612227160e-01 0.0 
5.632949957044e-03 5.070444070610e-02 0.0 
2.288200109038e-02 7.224765361706e-02 0.0 
2.697385252702e-03 1.276013605526e-02 0.0 
8.837614890695e-03 2.697235542504e-02 0.0 
1.789201055034e-02 8.551645751363e-02 0.0 
4.962578481832e-03 5.307377616686e-02 0.0 
1.834057947056e-02 5.172048745019e-02 0.0 
6.654479190655e-04 7.641598635129e-02 0.0 
1.984594414685e-02 1.339115116624e-01 0.0 
4.201824573940e-03 5.099515790335e-02 0.0 
1.270481155108e-02 7.760704135164e-02 0.0 
1.262106549634e-02 5.670253784146e-02 0.0 
8.149003926238e-03 1.880329486090e-02 0.0 
3.453651972090e-03 4.886245962320e-02 0.0 
1.399806242621e-02 7.415148627957e-02 0.0 
2.722951939139e-03 4.667435924810e-02 0.0 
1.640910628527e-02 1.439215123954e-01 0.0 
1.830612677222e-02 7.749827553121e-02 0.0 
1.989194511977e-03 4.441961932294e-02 0.0 
2.126819782511e-02 6.227195158224e-02 0.0 
1.025354234242e-03 7.654751777389e-02 0.0 
2.090831347951e-02 5.936335768531e-02 0.0 
7.627038415188e-04 2.354519268225e-02 0.0 
6.961841803541e-03 6.774685391279e-02 0.0 
1.158849923043e-02 5.388682915505e-02 0.0 
1.652258290417e-02 6.392591095901e-02 0.0 
1.381428001194e-02 1.421742327519e-01 0.0 
1.117839480258e-02 4.878911931362e-02 0.0 
1.901610436568e-02 5.193252613673e-02 0.0 
1.963444443283e-02 5.415755077672e-02 0.0 
2.020540399836e-02 6.522639949768e-02 0.0 
1.044163369343e-02 4.312960440085e-02 0.0 
1.599632967410e-02 1.314321475440e-01 0.0 
4.188063554720e-03 7.239098186343e-02 0.0 
3.425766440420e-03 7.427351273942e-02 0.0 
1.352594644262e-02 7.094615908395e-02 0.0 
1.746325609509e-02 4.740118910355e-02 0.0 
5.373026012454e-04 7.552940687343e-02 0.0 
1.820598542119e-02 6.254986827622e-02 0.0 
2.386670827105e-03 7.681253634157e-02 0.0 
1.210573086279e-02 7.151210439143e-02 0.0 
1.592320468741e-02 4.043529823070e-02 0.0 
6.749323182262e-04 1.021334426065e-01 0.0 
1.161070670507e-02 6.882730910401e-02 0.0 
3.577617722846e-04 7.216365739572e-02 0.0 
1.027876206800e-02 6.964524133188e-02 0.0 
1.952616528672e-02 5.867803073378e-02 0.0 
9.790744529036e-03 6.737468643359e-02 0.0 
8.565317051957e-03 6.840190370851e-02 0.0 
1.805293301864e-03 2.910051776461e-02 0.0 
8.084101292535e-03 6.648931455265e-02 0.0 
2.418241357276e-04 1.384302133670e-02 0.0 
2.295854548702e-04 7.430865364199e-03 0.0 
8.725656632222e-04 1.301754610819e-01 0.0 
1.009110264211e-02 1.395652819992e-01 0.0 
-4.860958775133e-03 9.143087841141e-02 0.0 
1.284730497117e-02 1.263153075264e-01 0.0 
6.250139015453e-03 7.041244736849e-02 0.0 
1.944968610929e-02 6.087327463070e-02 0.0 
1.813788206931e-03 1.295535021396e-01 0.0 
5.184832757488e-03 7.139165870874e-02 0.0 
8.481328737396e-03 2.293984857150e-02 0.0 
4.232410766534e-03 8.871523660044e-03 0.0 
1.234992114888e-03 7.948368146710e-02 0.0 
9.930913884308e-03 2.749245380576e-02 0.0 
1.814957237178e-02 4.891091837285e-02 0.0 
3.610966179082e-04 4.240275081414e-02 0.0 
5.294712992317e-03 1.416262058443e-01 0.0 
4.039427750548e-04 7.880649446599e-02 0.0 
5.877978727697e-04 3.919530200929e-02 0.0 
6.477751025006e-03 1.335824252758e-01 0.0 
8.155459009657e-03 1.215627944902e-01 0.0 
4.299437230284e-03 1.146253681905e-01 0.0 
1.371945098851e-03 6.920127473524e-02 0.0 
1.146701350315e-03 8.017458100399e-02 0.0 
3.736805949018e-03 1.254454152804e-01 0.0 
6.376798993013e-03 1.618138385203e-02 0.0 
8.941095102955e-03 1.289919590437e-01 0.0 
1.532104261966e-02 3.763142567304e-02 0.0 
6.093942566920e-05 1.173872803386e-01 0.0 
4.662906017217e-03 2.746502891433e-02 0.0 
8.105743720161e-03 1.794312495584e-02 0.0 
1.188584545927e-03 6.612726553147e-03 0.0 
1.208805138626e-02 2.817466811806e-02 0.0 
4.553825639810e-04 1.074451178481e-01 0.0 
1.360177897313e-02 1.147290076328e-01 0.0 
8.755850150255e-03 1.989726994742e-02 0.0 
1.687285468499e-03 6.725627121348e-02 0.0 
8.478354500676e-04 6.307423606188e-03 0.0 
1.122954340387e-02 1.294257176076e-01 0.0 
1.087223618747e-03 2.718334085024e-02 0.0 
3.641436830307e-03 8.385826232311e-02 0.0 
5.453217239122e-04 2.639271155523e-02 0.0 
1.680210440646e-02 4.880712994900e-02 0.0 
3.737941454723e-03 1.125953934437e-01 0.0 
1.641938703793e-02 1.125259470394e-01 0.0 
6.342228028342e-04 1.283967667818e-02 0.0 
7.788042922336e-03 2.435523416759e-02 0.0 
-1.431607392156e-03 1.034955833606e-01 0.0 
1.938497716928e-03 8.102044510459e-02 0.0 
2.256306545819e-03 6.458886287319e-02 0.0 
-1.664565394055e-03 8.676658395430e-02 0.0 
2.989048443354e-03 1.382856869177e-02 0.0 
1.359008093404e-02 3.684377675409e-02 0.0 
1.064290598793e-03 1.312495158037e-02 0.0 
1.274124645231e-04 7.635964012004e-02 0.0 
5.544192636169e-04 7.793790892654e-02 0.0 
3.401689647417e-03 1.300040203890e-02 0.0 
8.226306340639e-03 1.999338268219e-02 0.0 
4.558264526450e-03 8.095684860433e-02 0.0 
1.562346164512e-03 1.105701703753e-02 0.0 
-4.014667552497e-03 1.007924125553e-01 0.0 
7.142800252922e-03 1.429631403103e-01 0.0 
6.434726523059e-04 7.733779633081e-02 0.0 
6.738370009503e-04 6.358642529374e-03 0.0 
2.703926894618e-03 2.590746221268e-02 0.0 
1.591698779268e-03 6.161919040666e-02 0.0 
1.562459109325e-02 1.333798999011e-01 0.0 
8.201590308727e-04 7.074000420235e-02 0.0 
1.147027374395e-02 2.606781005079e-02 0.0 
1.134838546045e-03 7.861633228332e-02 0.0 
1.814897181148e-03 2.453457244671e-02 0.0 
4.030428260185e-03 1.296983555756e-02 0.0 
5.605854300889e-03 2.339708752035e-02 0.0 
2.737674476922e-03 6.239012373150e-03 0.0 
-2.962045590230e-03 9.319965994486e-02 0.0 
7.251850922032e-03 1.576643840095e-02 0.0 
6.951472338733e-03 2.061397357148e-02 0.0 
4.003425426568e-03 1.421867652267e-01 0.0 
6.934270950062e-03 2.444168916456e-02 0.0 
1.443767328776e-03 6.708670680398e-02 0.0 
1.172936174763e-03 7.572500770071e-02 0.0 
1.037470852268e-04 1.226720982692e-02 0.0 
5.870134484265e-05 7.718822743141e-02 0.0 
6.786745069576e-04 1.420709709595e-01 0.0 
9.137245946422e-05 6.059519641074e-03 0.0 
7.070407959811e-04 7.576354381546e-02 0.0 
1.443663967635e-03 1.199305640838e-01 0.0 
7.792323083414e-03 1.978304369228e-02 0.0 
4.245464591398e-04 5.355100132460e-02 0.0 
8.376977125479e-04 5.273577730805e-02 0.0 
2.256939443360e-03 8.002253529151e-02 0.0 
-4.415462795372e-03 8.842770243212e-02 0.0 
1.171409795397e-03 9.478469526707e-02 0.0 
7.029798773345e-03 1.573521945298e-02 0.0 
4.367429128436e-03 2.281837885404e-02 0.0 
3.011499010832e-03 1.047070531806e-01 0.0 
1.299611256989e-03 9.967371079815e-02 0.0 
1.071631530414e-02 2.770226177197e-02 0.0 
1.706355064828e-03 5.888363704188e-02 0.0 
1.159765967971e-02 2.706870020956e-02 0.0 
7.997720610188e-03 2.144905476903e-02 0.0 
-6.830595453767e-03 1.025140047756e-01 0.0 
3.813465288348e-04 4.912794722715e-02 0.0 
6.168203856722e-04 7.753832812050e-02 0.0 
1.960456006968e-03 1.215543805245e-02 0.0 
1.132150603061e-03 5.713694490050e-02 0.0 
1.434020602458e-02 1.518586122608e-01 0.0 
4.809042312530e-04 1.584615788555e-01 0.0 

VECTORS node_bounda_dof_materi_velocity_x float
1.000000000000e+00 0.0 0.0 
1.000000000000e+00 0.0 0.0 
1.000000000000e+00 0.0 0.0 
1.000000000000e+00 0.0 0.0 
1.000000000000e+00 0.0 0.0 
1.000000000000e+00 0.0 0.0 
1.000000000000e+00 0.0 0.0 
1.000000000000e+00 0.0 0.0 
1.000000000000e+00 0.0 0.0 
1.000000000000e+00 0.0 0.0 
1.000000000000e+00 0.0 0.0 
1.000000000000e+00 0.0 0.0 
1.000000000000e+00 0.0 0.0 
1.000000000000e+00 0.0 0.0 
1.000000000000e+00 0.0 0.0 
1.000000000000e+00 0.0 0.0 
1.000000000000e+00 0.0 0.0 
1.000000000000e+00 0.0 0.0 
1.000000000000e+00 0.0 0.0 
1.000000000000e+00 0.0 0.0 
1.000000000000e+00 0.0 0.0 
1.000000000000e+00 0.0 0.0 
1.000000000000e+00 0.0 0.0 
1.000000000000e+00 0.0 0.0 
1.000000000000e+00 0.0 0.0 
1.000000000000e+00 0.0 0.0 
1.000000000000e+00 0.0 0.0 
1.000000000000e+00 0.0 0.0 
1.000000000000e+00 0.0 0.0 
1.000000000000e+00 0.0 0.0 
1.000000000000e+00 0.0 0.0 
1.000000000000e+00 0.0 0.0 
1.000000000000e+00 0.0 0.0 
1.000000000000e+00 0.0 0.0 
1.000000000000e+00 0.0 0.0 
1.000000000000e+00 0.0 0.0 
1.000000000000e+00 0.0 0.0 
1.000000000000e+00 0.0 0.0 
1.000000000000e+00 0.0 0.0 
1.000000000000e+00 0.0 0.0 
1.000000000000e+00 0.0 0.0 
1.000000000000e+00 0.0 0.0 
1.000000000000e+00 0.0 0.0 
1.000000000000e+00 0.0 0.0 
1.000000000000e+00 0.0 0.0 
1.000000000000e+00 0.0 0.0 
1.000000000000e+00 0.0 0.0 
1.000000000000e+00 0.0 0.0 
1.000000000000e+00 0.0 0.0 
1.000000000000e+00 0.0 0.0 
1.000000000000e+00 0.0 0.0 
1.000000000000e+00 0.0 0.0 
1.000000000000e+00 0.0 0.0 
1.000000000000e+00 0.0 0.0 
1.000000000000e+00 0.0 0.0 
1.000000000000e+00 0.0 0.0 
1.000000000000e+00 0.0 0.0 
1.000000000000e+00 0.0 0.0 
1.000000000000e+00 0.0 0.0 
1.000000000000e+00 0.0 0.0 
1.000000000000e+00 0.0 0.0 
1.000000000000e+00 0.0 0.0 
1.000000000000e+00 0.0 0.0 
1.000000000000e+00 0.0 0.0 
1.000000000000e+00 0.0 0.0 
1.000000000000e+00 0.0 0.0 
1.000000000000e+00 0.0 0.0 
1.000000000000e+00 0.0 0.0 
1.000000000000e+00 0.0 0.0 
1.000000000000e+00 0.0 0.0 
1.000000000000e+00 0.0 0.0 
1.000000000000e+00 0.0 0.0 
1.000000000000e+00 0.0 0.0 
1.000000000000e+00 0.0 0.0 
1.000000000000e+00 0.0 0.0 
1.000000000000e+00 0.0 0.0 
1.000000000000e+00 0.0 0.0 
1.000000000000e+00 0.0 0.0 
1.000000000000e+00 0.0 0.0 
1.000000000000e+00 0.0 0.0 
1.000000000000e+00 0.0 0.0 
0.0 0.0 0.0 
0.0 0.0 0.0 
0.0 0.0 0.0 
0.0 0.0 0.0 
0.0 0.0 0.0 
0.0 0.0 0.0 
0.0 0.0 0.0 
0.0 0.0 0.0 
0.0 0.0 0.0 
0.0 0.0 0.0 
0.0 0.0 0.0 
1.000000000000e+00 0.0 0.0 
0.0 0.0 0.0 
0.0 0.0 0.0 
0.0 0.0 0.0 
0.0 0.0 0.0 
0.0 0.0 0.0 
0.0 0.0 0.0 
0.0 0.0 0.0 
0.0 0.0 0.0 
0.0 0.0 0.0 
0.0 0.0 0.0 
0.0 0.0 0.0 
0.0 0.0 0.0 
0.0 0.0 0.0 
0.0 0.0 0.0 
0.0 0.0 0.0 
0.0 0.0 0.0 
0.0 0.0 0.0 
0.0 0.0 0.0 
0.0 0.0 0.0 
0.0 0.0 0.0 
0.0 0.0 0.0 
0.0 0.0 0.0 
0.0 0.0 0.0 
0.0 0.0 0.0 
0.0 0.0 0.0 
0.0 0.0 0.0 
0.0 0.0 0.0 
0.0 0.0 0.0 
0.0 0.0 0.0 
0.0 0.0 0.0 
0.0 0.0 0.0 
0.0 0.0 0.0 
0.0 0.0 0.0 
0.0 0.0 0.0 
0.0 0.0 0.0 
0.0 0.0 0.0 
0.0 0.0 0.0 
0.0 0.0 0.0 
0.0 0.0 0.0 
0.0 0.0 0.0 
0.0 0.0 0.0 
0.0 0.0 0.0 
0.0 0.0 0.0 
0.0 0.0 0.0 
0.0 0.0 0.0 
0.0 0.0 0.0 
0.0 0.0 0.0 
0.0 0.0 0.0 
0.0 0.0 0.0 
0.0 0.0 0.0 
0.0 0.0 0.0 
0.0 0.0 0.0 
0.0 0.0 0.0 
0.0 0.0 0.0 
0.0 0.0 0.0 
0.0 0.0 0.0 
0.0 0.0 0.0 
0.0 0.0 0.0 
0.0 0.0 0.0 
0.0 0.0 0.0 
0.0 0.0 0.0 
0.0 0.0 0.0 
0.0 0.0 0.0 
0.0 0.0 0.0 
0.0 0.0 0.0 
0.0 0.0 0.0 
0.0 0.0 0.0 
0.0 0.0 0.0 
0.0 0.0 0.0 
0.0 0.0 0.0 
0.0 0.0 0.0 
0.0 0.0 0.0 
0.0 0.0 0.0 
0.0 0.0 0.0 
0.0 0.0 0.0 
0.0 0.0 0.0 
0.0 0.0 0.0 
0.0 0.0 0.0 
0.0 0.0 0.0 
0.0 0.0 0.0 
0.0 0.0 0.0 
0.0 0.0 0.0 
0.0 0.0 0.0 
0.0 0.0 0.0 
0.0 0.0 0.0 
0.0 0.0 0.0 
0.0 0.0 0.0 
0.0 0.0 0.0 
0.0 0.0 0.0 
0.0 0.0 0.0 
0.0 0.0 0.0 
0.0 0.0 0.0 
0.0 0.0 0.0 
0.0 0.0 0.0 
0.0 0.0 0.0 
0.0 0.0 0.0 
0.0 0.0 0.0 
0.0 0.0 0.0 
0.0 0.0 0.0 
0.0 0.0 0.0 
0.0 0.0 0.0 
0.0 0.0 0.0 
0.0 0.0 0.0 
0.0 0.0 0.0 
0.0 0.0 0.0 
0.0 0.0 0.0 
0.0 0.0 0.0 
0.0 0.0 0.0 
0.0 0.0 0.0 
0.0 0.0 0.0 
0.0 0.0 0.0 
0.0 0.0 0.0 
0.0 0.0 0.0 
0.0 0.0 0.0 
0.0 0.0 0.0 
0.0 0.0 0.0 
0.0 0.0 0.0 
0.0 0.0 0.0 
0.0 0.0 0.0 
0.0 0.0 0.0 
0.0 0.0 0.0 
0.0 0.0 0.0 
0.0 0.0 0.0 
0.0 0.0 0.0 
0.0 0.0 0.0 
0.0 0.0 0.0 
0.0 0.0 0.0 
0.0 0.0 0.0 
0.0 0.0 0.0 
0.0 0.0 0.0 
0.0 0.0 0.0 
0.0 0.0 0.0 
0.0 0.0 0.0 
0.0 0.0 0.0 
0.0 0.0 0.0 
0.0 0.0 0.0 
0.0 0.0 0.0 
0.0 0.0 0.0 
0.0 0.0 0.0 
0.0 0.0 0.0 
0.0 0.0 0.0 
0.0 0.0 0.0 
0.0 0.0 0.0 
0.0 0.0 0.0 
0.0 0.0 0.0 
0.0 0.0 0.0 
0.0 0.0 0.0 
0.0 0.0 0.0 
0.0 0.0 0.0 
0.0 0.0 0.0 
0.0 0.0 0.0 
0.0 0.0 0.0 
0.0 0.0 0.0 
0.0 0.0 0.0 
0.0 0.0 0.0 
0.0 0.0 0.0 
0.0 0.0 0.0 
0.0 0.0 0.0 
0.0 0.0 0.0 
0.0 0.0 0.0 
0.0 0.0 0.0 
0.0 0.0 0.0 
0.0 0.0 0.0 
0.0 0.0 0.0 
0.0 0.0 0.0 
0.0 0.0 0.0 
0.0 0.0 0.0 
0.0 0.0 0.0 
0.0 0.0 0.0 
0.0 0.0 0.0 
0.0 0.0 0.0 
0.0 0.0 0.0 
0.0 0.0 0.0 
0.0 0.0 0.0 
0.0 0.0 0.0 
0.0 0.0 0.0 
0.0 0.0 0.0 
0.0 0.0 0.0 
0.0 0.0 0.0 
0.0 0.0 0.0 
0.0 0.0 0.0 
0.0 0.0 0.0 
0.0 0.0 0.0 
0.0 0.0 0.0 
0.0 0.0 0.0 
0.0 0.0 0.0 
0.0 0.0 0.0 
0.0 0.0 0.0 
0.0 0.0 0.0 
0.0 0.0 0.0 
0.0 0.0 0.0 
0.0 0.0 0.0 
0.0 0.0 0.0 
0.0 0.0 0.0 
0.0 0.0 0.0 
0.0 0.0 0.0 
0.0 0.0 0.0 
0.0 0.0 0.0 
0.0 0.0 0.0 
0.0 0.0 0.0 
0.0 0.0 0.0 
0.0 0.0 0.0 
0.0 0.0 0.0 
0.0 0.0 0.0 
0.0 0.0 0.0 
0.0 0.0 0.0 
0.0 0.0 0.0 
0.0 0.0 0.0 
0.0 0.0 0.0 
0.0 0.0 0.0 
0.0 0.0 0.0 
0.0 0.0 0.0 
0.0 0.0 0.0 
0.0 0.0 0.0 
0.0 0.0 0.0 
0.0 0.0 0.0 
0.0 0.0 0.0 
0.0 0.0 0.0 
0.0 0.0 0.0 
0.0 0.0 0.0 
0.0 0.0 0.0 
0.0 0.0 0.0 
0.0 0.0 0.0 
0.0 0.0 0.0 
0.0 0.0 0.0 
0.0 0.0 0.0 
0.0 0.0 0.0 
0.0 0.0 0.0 
0.0 0.0 0.0 
0.0 0.0 0.0 
0.0 0.0 0.0 
0.0 0.0 0.0 
0.0 0.0 0.0 
0.0 0.0 0.0 
0.0 0.0 0.0 
0.0 0.0 0.0 
0.0 0.0 0.0 
0.0 0.0 0.0 
0.0 0.0 0.0 
0.0 0.0 0.0 
0.0 0.0 0.0 
0.0 0.0 0.0 
0.0 0.0 0.0 
0.0 0.0 0.0 
0.0 0.0 0.0 
0.0 0.0 0.0 
0.0 0.0 0.0 
0.0 0.0 0.0 
0.0 0.0 0.0 
0.0 0.0 0.0 
0.0 0.0 0.0 
0.0 0.0 0.0 
0.0 0.0 0.0 
0.0 0.0 0.0 
0.0 0.0 0.0 
0.0 0.0 0.0 
0.0 0.0 0.0 
0.0 0.0 0.0 
0.0 0.0 0.0 
0.0 0.0 0.0 
0.0 0.0 0.0 
0.0 0.0 0.0 
0.0 0.0 0.0 
0.0 0.0 0.0 
0.0 0.0 0.0 
0.0 0.0 0.0 
0.0 0.0 0.0 
0.0 0.0 0.0 
0.0 0.0 0.0 
0.0 0.0 0.0 
0.0 0.0 0.0 
0.0 0.0 0.0 
0.0 0.0 0.0 
0.0 0.0 0.0 
0.0 0.0 0.0 
0.0 0.0 0.0 
0.0 0.0 0.0 
0.0 0.0 0.0 
0.0 0.0 0.0 
0.0 0.0 0.0 
0.0 0.0 0.0 
0.0 0.0 0.0 
0.0 0.0 0.0 
0.0 0.0 0.0 
0.0 0.0 0.0 
0.0 0.0 0.0 
0.0 0.0 0.0 
0.0 0.0 0.0 
0.0 0.0 0.0 
0.0 0.0 0.0 
0.0 0.0 0.0 
0.0 0.0 0.0 
0.0 0.0 0.0 
0.0 0.0 0.0 
0.0 0.0 0.0 
0.0 0.0 0.0 
0.0 0.0 0.0 
0.0 0.0 0.0 
0.0 0.0 0.0 
0.0 0.0 0.0 
0.0 0.0 0.0 
0.0 0.0 0.0 
0.0 0.0 0.0 
0.0 0.0 0.0 
0.0 0.0 0.0 
0.0 0.0 0.0 
0.0 0.0 0.0 
0.0 0.0 0.0 
0.0 0.0 0.0 
0.0 0.0 0.0 
0.0 0.0 0.0 
0.0 0.0 0.0 
0.0 0.0 0.0 
0.0 0.0 0.0 
0.0 0.0 0.0 
0.0 0.0 0.0 
0.0 0.0 0.0 
0.0 0.0 0.0 
0.0 0.0 0.0 
0.0 0.0 0.0 
0.0 0.0 0.0 
0.0 0.0 0.0 
0.0 0.0 0.0 
0.0 0.0 0.0 
0.0 0.0 0.0 
0.0 0.0 0.0 
0.0 0.0 0.0 
0.0 0.0 0.0 
0.0 0.0 0.0 
0.0 0.0 0.0 
0.0 0.0 0.0 
0.0 0.0 0.0 
0.0 0.0 0.0 
0.0 0.0 0.0 
0.0 0.0 0.0 
0.0 0.0 0.0 
0.0 0.0 0.0 
0.0 0.0 0.0 
0.0 0.0 0.0 
0.0 0.0 0.0 
0.0 0.0 0.0 
0.0 0.0 0.0 
0.0 0.0 0.0 
0.0 0.0 0.0 
0.0 0.0 0.0 
0.0 0.0 0.0 
0.0 0.0 0.0 
0.0 0.0 0.0 
0.0 0.0 0.0 
0.0 0.0 0.0 
0.0 0.0 0.0 
0.0 0.0 0.0 
0.0 0.0 0.0 
0.0 0.0 0.0 
0.0 0.0 0.0 
0.0 0.0 0.0 
0.0 0.0 0.0 
0.0 0.0 0.0 
0.0 0.0 0.0 
0.0 0.0 0.0 
0.0 0.0 0.0 
0.0 0.0 0.0 
0.0 0.0 0.0 
0.0 0.0 0.0 
0.0 0.0 0.0 
0.0 0.0 0.0 
0.0 0.0 0.0 
0.0 0.0 0.0 
0.0 0.0 0.0 
0.0 0.0 0.0 
0.0 0.0 0.0 
0.0 0.0 0.0 
0.0 0.0 0.0 
0.0 0.0 0.0 
0.0 0.0 0.0 
0.0 0.0 0.0 
0.0 0.0 0.0 
0.0 0.0 0.0 
0.0 0.0 0.0 
0.0 0.0 0.0 
0.0 0.0 0.0 
0.0 0.0 0.0 
0.0 0.0 0.0 
0.0 0.0 0.0 
0.0 0.0 0.0 
0.0 0.0 0.0 
0.0 0.0 0.0 
0.0 0.0 0.0 
0.0 0.0 0.0 
0.0 0.0 0.0 
0.0 0.0 0.0 
0.0 0.0 0.0 
0.0 0.0 0.0 
0.0 0.0 0.0 
0.0 0.0 0.0 
0.0 0.0 0.0 
0.0 0.0 0.0 
0.0 0.0 0.0 
0.0 0.0 0.0 
0.0 0.0 0.0 
0.0 0.0 0.0 
0.0 0.0 0.0 
0.0 0.0 0.0 
0.0 0.0 0.0 
0.0 0.0 0.0 
0.0 0.0 0.0 
0.0 0.0 0.0 
0.0 0.0 0.0 
0.0 0.0 0.0 
0.0 0.0 0.0 
0.0 0.0 0.0 
0.0 0.0 0.0 
0.0 0.0 0.0 
0.0 0.0 0.0 
0.0 0.0 0.0 
0.0 0.0 0.0 
0.0 0.0 0.0 
0.0 0.0 0.0 
0.0 0.0 0.0 
0.0 0.0 0.0 
0.0 0.0 0.0 
0.0 0.0 0.0 
0.0 0.0 0.0 
0.0 0.0 0.0 
0.0 0.0 0.0 
0.0 0.0 0.0 
0.0 0.0 0.0 
0.0 0.0 0.0 
0.0 0.0 0.0 
0.0 0.0 0.0 
0.0 0.0 0.0 
0.0 0.0 0.0 
0.0 0.0 0.0 
0.0 0.0 0.0 
0.0 0.0 0.0 
0.0 0.0 0.0 
0.0 0.0 0.0 
0.0 0.0 0.0 
0.0 0.0 0.0 
0.0 0.0 0.0 
0.0 0.0 0.0 
0.0 0.0 0.0 
0.0 0.0 0.0 
0.0 0.0 0.0 
0.0 0.0 0.0 
0.0 0.0 0.0 
0.0 0.0 0.0 
0.0 0.0 0.0 
0.0 0.0 0.0 
0.0 0.0 0.0 
0.0 0.0 0.0 
0.0 0.0 0.0 
0.0 0.0 0.0 
0.0 0.0 0.0 
0.0 0.0 0.0 
0.0 0.0 0.0 
0.0 0.0 0.0 
0.0 0.0 0.0 
0.0 0.0 0.0 
0.0 0.0 0.0 
0.0 0.0 0.0 
0.0 0.0 0.0 
0.0 0.0 0.0 
0.0 0.0 0.0 
0.0 0.0 0.0 
0.0 0.0 0.0 
0.0 0.0 0.0 
0.0 0.0 0.0 
0.0 0.0 0.0 
0.0 0.0 0.0 
0.0 0.0 0.0 
0.0 0.0 0.0 
0.0 0.0 0.0 
0.0 0.0 0.0 
0.0 0.0 0.0 
0.0 0.0 0.0 
0.0 0.0 0.0 
0.0 0.0 0.0 
0.0 0.0 0.0 
0.0 0.0 0.0 
0.0 0.0 0.0 
0.0 0.0 0.0 
0.0 0.0 0.0 
0.0 0.0 0.0 
0.0 0.0 0.0 
0.0 0.0 0.0 
0.0 0.0 0.0 
0.0 0.0 0.0 
0.0 0.0 0.0 
0.0 0.0 0.0 
0.0 0.0 0.0 
0.0 0.0 0.0 
0.0 0.0 0.0 
0.0 0.0 0.0 
0.0 0.0 0.0 
0.0 0.0 0.0 
0.0 0.0 0.0 
0.0 0.0 0.0 
0.0 0.0 0.0 
0.0 0.0 0.0 
0.0 0.0 0.0 
0.0 0.0 0.0 
0.0 0.0 0.0 
0.0 0.0 0.0 
0.0 0.0 0.0 
0.0 0.0 0.0 
0.0 0.0 0.0 
0.0 0.0 0.0 
0.0 0.0 0.0 
0.0 0.0 0.0 
0.0 0.0 0.0 
0.0 0.0 0.0 
0.0 0.0 0.0 
0.0 0.0 0.0 
0.0 0.0 0.0 
0.0 0.0 0.0 
0.0 0.0 0.0 
0.0 0.0 0.0 
0.0 0.0 0.0 
0.0 0.0 0.0 
0.0 0.0 0.0 
0.0 0.0 0.0 
0.0 0.0 0.0 
0.0 0.0 0.0 
0.0 0.0 0.0 
0.0 0.0 0.0 
0.0 0.0 0.0 
0.0 0.0 0.0 
0.0 0.0 0.0 
0.0 0.0 0.0 
0.0 0.0 0.0 
0.0 0.0 0.0 
0.0 0.0 0.0 
0.0 0.0 0.0 
0.0 0.0 0.0 
0.0 0.0 0.0 
0.0 0.0 0.0 
0.0 0.0 0.0 
0.0 0.0 0.0 
0.0 0.0 0.0 
0.0 0.0 0.0 
0.0 0.0 0.0 
0.0 0.0 0.0 
0.0 0.0 0.0 
0.0 0.0 0.0 
0.0 0.0 0.0 
0.0 0.0 0.0 
0.0 0.0 0.0 
0.0 0.0 0.0 
0.0 0.0 0.0 
0.0 0.0 0.0 
0.0 0.0 0.0 
0.0 0.0 0.0 
0.0 0.0 0.0 
0.0 0.0 0.0 
0.0 0.0 0.0 
0.0 0.0 0.0 
0.0 0.0 0.0 
0.0 0.0 0.0 
0.0 0.0 0.0 
0.0 0.0 0.0 
0.0 0.0 0.0 
0.0 0.0 0.0 
0.0 0.0 0.0 
0.0 0.0 0.0 
0.0 0.0 0.0 
0.0 0.0 0.0 
0.0 0.0 0.0 
0.0 0.0 0.0 
0.0 0.0 0.0 
0.0 0.0 0.0 
0.0 0.0 0.0 
0.0 0.0 0.0 
0.0 0.0 0.0 
0.0 0.0 0.0 
0.0 0.0 0.0 
0.0 0.0 0.0 
0.0 0.0 0.0 
0.0 0.0 0.0 
0.0 0.0 0.0 
0.0 0.0 0.0 
0.0 0.0 0.0 
0.0 0.0 0.0 
0.0 0.0 0.0 
0.0 0.0 0.0 
0.0 0.0 0.0 
0.0 0.0 0.0 
0.0 0.0 0.0 
0.0 0.0 0.0 
0.0 0.0 0.0 
0.0 0.0 0.0 
0.0 0.0 0.0 
0.0 0.0 0.0 
0.0 0.0 0.0 
0.0 0.0 0.0 
0.0 0.0 0.0 
0.0 0.0 0.0 
0.0 0.0 0.0 
0.0 0.0 0.0 
0.0 0.0 0.0 
0.0 0.0 0.0 
0.0 0.0 0.0 
0.0 0.0 0.0 
0.0 0.0 0.0 
0.0 0.0 0.0 
0.0 0.0 0.0 
0.0 0.0 0.0 
0.0 0.0 0.0 
0.0 0.0 0.0 
0.0 0.0 0.0 
0.0 0.0 0.0 
0.0 0.0 0.0 
0.0 0.0 0.0 
0.0 0.0 0.0 
0.0 0.0 0.0 
0.0 0.0 0.0 
0.0 0.0 0.0 
0.0 0.0 0.0 
0.0 0.0 0.0 
0.0 0.0 0.0 
0.0 0.0 0.0 
0.0 0.0 0.0 
0.0 0.0 0.0 
0.0 0.0 0.0 
0.0 0.0 0.0 
0.0 0.0 0.0 
0.0 0.0 0.0 
0.0 0.0 0.0 
0.0 0.0 0.0 
0.0 0.0 0.0 
0.0 0.0 0.0 
0.0 0.0 0.0 
0.0 0.0 0.0 
0.0 0.0 0.0 
0.0 0.0 0.0 
0.0 0.0 0.0 
0.0 0.0 0.0 
0.0 0.0 0.0 
0.0 0.0 0.0 
0.0 0.0 0.0 
0.0 0.0 0.0 
0.0 0.0 0.0 
0.0 0.0 0.0 
0.0 0.0 0.0 
0.0 0.0 0.0 
0.0 0.0 0.0 
0.0 0.0 0.0 
0.0 0.0 0.0 
0.0 0.0 0.0 
0.0 0.0 0.0 
0.0 0.0 0.0 
0.0 0.0 0.0 
0.0 0.0 0.0 
0.0 0.0 0.0 
0.0 0.0 0.0 
0.0 0.0 0.0 
0.0 0.0 0.0 
0.0 0.0 0.0 
0.0 0.0 0.0 
0.0 0.0 0.0 
0.0 0.0 0.0 
0.0 0.0 0.0 
0.0 0.0 0.0 
0.0 0.0 0.0 
0.0 0.0 0.0 
0.0 0.0 0.0 
0.0 0.0 0.0 
0.0 0.0 0.0 
0.0 0.0 0.0 
0.0 0.0 0.0 
0.0 0.0 0.0 
0.0 0.0 0.0 
0.0 0.0 0.0 
0.0 0.0 0.0 
0.0 0.0 0.0 
0.0 0.0 0.0 
0.0 0.0 0.0 
0.0 0.0 0.0 
0.0 0.0 0.0 
0.0 0.0 0.0 
0.0 0.0 0.0 
0.0 0.0 0.0 
0.0 0.0 0.0 
0.0 0.0 0.0 
0.0 0.0 0.0 
0.0 0.0 0.0 
0.0 0.0 0.0 
0.0 0.0 0.0 
0.0 0.0 0.0 
0.0 0.0 0.0 
0.0 0.0 0.0 
0.0 0.0 0.0 
0.0 0.0 0.0 
0.0 0.0 0.0 
0.0 0.0 0.0 
0.0 0.0 0.0 
0.0 0.0 0.0 
0.0 0.0 0.0 
0.0 0.0 0.0 
0.0 0.0 0.0 
0.0 0.0 0.0 
0.0 0.0 0.0 
0.0 0.0 0.0 
0.0 0.0 0.0 
0.0 0.0 0.0 
0.0 0.0 0.0 
0.0 0.0 0.0 
0.0 0.0 0.0 
0.0 0.0 0.0 
0.0 0.0 0.0 
0.0 0.0 0.0 
0.0 0.0 0.0 
0.0 0.0 0.0 
0.0 0.0 0.0 
0.0 0.0 0.0 
0.0 0.0 0.0 
0.0 0.0 0.0 
0.0 0.0 0.0 
0.0 0.0 0.0 
0.0 0.0 0.0 
0.0 0.0 0.0 
0.0 0.0 0.0 
0.0 0.0 0.0 
0.0 0.0 0.0 
0.0 0.0 0.0 
0.0 0.0 0.0 
0.0 0.0 0.0 
0.0 0.0 0.0 
0.0 0.0 0.0 
0.0 0.0 0.0 
0.0 0.0 0.0 
0.0 0.0 0.0 
0.0 0.0 0.0 
0.0 0.0 0.0 
0.0 0.0 0.0 
0.0 0.0 0.0 
0.0 0.0 0.0 
0.0 0.0 0.0 
0.0 0.0 0.0 
0.0 0.0 0.0 
0.0 0.0 0.0 
0.0 0.0 0.0 
0.0 0.0 0.0 
0.0 0.0 0.0 
0.0 0.0 0.0 
0.0 0.0 0.0 
0.0 0.0 0.0 
0.0 0.0 0.0 
0.0 0.0 0.0 
0.0 0.0 0.0 
0.0 0.0 0.0 
0.0 0.0 0.0 
0.0 0.0 0.0 
0.0 0.0 0.0 
0.0 0.0 0.0 
0.0 0.0 0.0 
0.0 0.0 0.0 
0.0 0.0 0.0 
0.0 0.0 0.0 
0.0 0.0 0.0 
0.0 0.0 0.0 
0.0 0.0 0.0 
0.0 0.0 0.0 
0.0 0.0 0.0 
0.0 0.0 0.0 
0.0 0.0 0.0 
0.0 0.0 0.0 
0.0 0.0 0.0 
0.0 0.0 0.0 
0.0 0.0 0.0 
0.0 0.0 0.0 
0.0 0.0 0.0 
0.0 0.0 0.0 
0.0 0.0 0.0 
0.0 0.0 0.0 
0.0 0.0 0.0 
0.0 0.0 0.0 
0.0 0.0 0.0 
0.0 0.0 0.0 
0.0 0.0 0.0 
0.0 0.0 0.0 
0.0 0.0 0.0 
0.0 0.0 0.0 
0.0 0.0 0.0 
0.0 0.0 0.0 
0.0 0.0 0.0 
0.0 0.0 0.0 
0.0 0.0 0.0 
0.0 0.0 0.0 
0.0 0.0 0.0 
0.0 0.0 0.0 
0.0 0.0 0.0 
0.0 0.0 0.0 
0.0 0.0 0.0 
0.0 0.0 0.0 
0.0 0.0 0.0 
0.0 0.0 0.0 
0.0 0.0 0.0 
0.0 0.0 0.0 
0.0 0.0 0.0 
0.0 0.0 0.0 
0.0 0.0 0.0 
0.0 0.0 0.0 
0.0 0.0 0.0 
0.0 0.0 0.0 
0.0 0.0 0.0 
0.0 0.0 0.0 
0.0 0.0 0.0 
0.0 0.0 0.0 
0.0 0.0 0.0 
0.0 0.0 0.0 
0.0 0.0 0.0 
0.0 0.0 0.0 
0.0 0.0 0.0 
0.0 0.0 0.0 
0.0 0.0 0.0 
0.0 0.0 0.0 
0.0 0.0 0.0 
0.0 0.0 0.0 
0.0 0.0 0.0 
0.0 0.0 0.0 
0.0 0.0 0.0 
0.0 0.0 0.0 
0.0 0.0 0.0 
0.0 0.0 0.0 
0.0 0.0 0.0 
0.0 0.0 0.0 
0.0 0.0 0.0 
0.0 0.0 0.0 
0.0 0.0 0.0 
0.0 0.0 0.0 
0.0 0.0 0.0 
0.0 0.0 0.0 
0.0 0.0 0.0 
0.0 0.0 0.0 
0.0 0.0 0.0 
0.0 0.0 0.0 
0.0 0.0 0.0 
0.0 0.0 0.0 
0.0 0.0 0.0 
0.0 0.0 0.0 
0.0 0.0 0.0 
0.0 0.0 0.0 
0.0 0.0 0.0 
0.0 0.0 0.0 
0.0 0.0 0.0 
0.0 0.0 0.0 
0.0 0.0 0.0 
0.0 0.0 0.0 
0.0 0.0 0.0 
0.0 0.0 0.0 
0.0 0.0 0.0 
0.0 0.0 0.0 
0.0 0.0 0.0 
0.0 0.0 0.0 
0.0 0.0 0.0 
0.0 0.0 0.0 
0.0 0.0 0.0 
0.0 0.0 0.0 
0.0 0.0 0.0 
0.0 0.0 0.0 
0.0 0.0 0.0 
0.0 0.0 0.0 
0.0 0.0 0.0 
0.0 0.0 0.0 
0.0 0.0 0.0 
0.0 0.0 0.0 
0.0 0.0 0.0 
0.0 0.0 0.0 
0.0 0.0 0.0 
0.0 0.0 0.0 
0.0 0.0 0.0 
0.0 0.0 0.0 
0.0 0.0 0.0 
0.0 0.0 0.0 
0.0 0.0 0.0 
0.0 0.0 0.0 
0.0 0.0 0.0 
0.0 0.0 0.0 
0.0 0.0 0.0 
0.0 0.0 0.0 
0.0 0.0 0.0 
0.0 0.0 0.0 
0.0 0.0 0.0 
0.0 0.0 0.0 
0.0 0.0 0.0 
0.0 0.0 0.0 
0.0 0.0 0.0 
0.0 0.0 0.0 
0.0 0.0 0.0 
0.0 0.0 0.0 
0.0 0.0 0.0 
0.0 0.0 0.0 
0.0 0.0 0.0 
0.0 0.0 0.0 
0.0 0.0 0.0 
0.0 0.0 0.0 
0.0 0.0 0.0 
0.0 0.0 0.0 
0.0 0.0 0.0 
0.0 0.0 0.0 
0.0 0.0 0.0 
0.0 0.0 0.0 
0.0 0.0 0.0 
0.0 0.0 0.0 
0.0 0.0 0.0 
0.0 0.0 0.0 
0.0 0.0 0.0 
0.0 0.0 0.0 
0.0 0.0 0.0 
0.0 0.0 0.0 
0.0 0.0 0.0 
0.0 0.0 0.0 
0.0 0.0 0.0 
0.0 0.0 0.0 
0.0 0.0 0.0 
0.0 0.0 0.0 
0.0 0.0 0.0 
0.0 0.0 0.0 
0.0 0.0 0.0 
0.0 0.0 0.0 
0.0 0.0 0.0 
0.0 0.0 0.0 
0.0 0.0 0.0 
0.0 0.0 0.0 
0.0 0.0 0.0 
0.0 0.0 0.0 
0.0 0.0 0.0 
0.0 0.0 0.0 
0.0 0.0 0.0 
0.0 0.0 0.0 
0.0 0.0 0.0 
0.0 0.0 0.0 
0.0 0.0 0.0 
0.0 0.0 0.0 
0.0 0.0 0.0 
0.0 0.0 0.0 
0.0 0.0 0.0 
0.0 0.0 0.0 
0.0 0.0 0.0 
0.0 0.0 0.0 
0.0 0.0 0.0 
0.0 0.0 0.0 
0.0 0.0 0.0 
0.0 0.0 0.0 
0.0 0.0 0.0 
0.0 0.0 0.0 
0.0 0.0 0.0 
0.0 0.0 0.0 
0.0 0.0 0.0 
0.0 0.0 0.0 
0.0 0.0 0.0 
0.0 0.0 0.0 
0.0 0.0 0.0 

VECTORS node_bounda_dof_materi_velocity_y float
0.0 0.0 0.0 
0.0 0.0 0.0 
0.0 1.000000000000e+00 0.0 
0.0 1.000000000000e+00 0.0 
0.0 0.0 0.0 
0.0 0.0 0.0 
0.0 0.0 0.0 
0.0 0.0 0.0 
0.0 0.0 0.0 
0.0 0.0 0.0 
0.0 0.0 0.0 
0.0 0.0 0.0 
0.0 0.0 0.0 
0.0 0.0 0.0 
0.0 0.0 0.0 
0.0 0.0 0.0 
0.0 0.0 0.0 
0.0 0.0 0.0 
0.0 0.0 0.0 
0.0 0.0 0.0 
0.0 0.0 0.0 
0.0 0.0 0.0 
0.0 0.0 0.0 
0.0 1.000000000000e+00 0.0 
0.0 1.000000000000e+00 0.0 
0.0 1.000000000000e+00 0.0 
0.0 1.000000000000e+00 0.0 
0.0 1.000000000000e+00 0.0 
0.0 1.000000000000e+00 0.0 
0.0 1.000000000000e+00 0.0 
0.0 1.000000000000e+00 0.0 
0.0 1.000000000000e+00 0.0 
0.0 1.000000000000e+00 0.0 
0.0 1.000000000000e+00 0.0 
0.0 1.000000000000e+00 0.0 
0.0 1.000000000000e+00 0.0 
0.0 1.000000000000e+00 0.0 
0.0 1.000000000000e+00 0.0 
0.0 1.000000000000e+00 0.0 
0.0 1.000000000000e+00 0.0 
0.0 1.000000000000e+00 0.0 
0.0 1.000000000000e+00 0.0 
0.0 1.000000000000e+00 0.0 
0.0 1.000000000000e+00 0.0 
0.0 1.000000000000e+00 0.0 
0.0 1.000000000000e+00 0.0 
0.0 1.000000000000e+00 0.0 
0.0 1.000000000000e+00 0.0 
0.0 1.000000000000e+00 0.0 
0.0 1.000000000000e+00 0.0 
0.0 1.000000000000e+00 0.0 
0.0 1.000000000000e+00 0.0 
0.0 1.000000000000e+00 0.0 
0.0 1.000000000000e+00 0.0 
0.0 1.000000000000e+00 0.0 
0.0 1.000000000000e+00 0.0 
0.0 1.000000000000e+00 0.0 
0.0 1.000000000000e+00 0.0 
0.0 1.000000000000e+00 0.0 
0.0 1.000000000000e+00 0.0 
0.0 1.000000000000e+00 0.0 
0.0 1.000000000000e+00 0.0 
0.0 1.000000000000e+00 0.0 
0.0 1.000000000000e+00 0.0 
0.0 1.000000000000e+00 0.0 
0.0 1.000000000000e+00 0.0 
0.0 1.000000000000e+00 0.0 
0.0 1.000000000000e+00 0.0 
0.0 1.000000000000e+00 0.0 
0.0 1.000000000000e+00 0.0 
0.0 1.000000000000e+00 0.0 
0.0 1.000000000000e+00 0.0 
0.0 0.0 0.0 
0.0 0.0 0.0 
0.0 0.0 0.0 
0.0 0.0 0.0 
0.0 0.0 0.0 
0.0 0.0 0.0 
0.0 0.0 0.0 
0.0 0.0 0.0 
0.0 0.0 0.0 
0.0 0.0 0.0 
0.0 0.0 0.0 
0.0 0.0 0.0 
0.0 0.0 0.0 
0.0 0.0 0.0 
0.0 0.0 0.0 
0.0 0.0 0.0 
0.0 0.0 0.0 
0.0 0.0 0.0 
0.0 0.0 0.0 
0.0 0.0 0.0 
0.0 0.0 0.0 
0.0 0.0 0.0 
0.0 0.0 0.0 
0.0 0.0 0.0 
0.0 0.0 0.0 
0.0 0.0 0.0 
0.0 0.0 0.0 
0.0 0.0 0.0 
0.0 0.0 0.0 
0.0 0.0 0.0 
0.0 0.0 0.0 
0.0 0.0 0.0 
0.0 0.0 0.0 
0.0 0.0 0.0 
0.0 0.0 0.0 
0.0 0.0 0.0 
0.0 0.0 0.0 
0.0 0.0 0.0 
0.0 0.0 0.0 
0.0 0.0 0.0 
0.0 0.0 0.0 
0.0 0.0 0.0 
0.0 0.0 0.0 
0.0 0.0 0.0 
0.0 0.0 0.0 
0.0 0.0 0.0 
0.0 0.0 0.0 
0.0 0.0 0.0 
0.0 0.0 0.0 
0.0 0.0 0.0 
0.0 0.0 0.0 
0.0 0.0 0.0 
0.0 0.0 0.0 
0.0 0.0 0.0 
0.0 0.0 0.0 
0.0 0.0 0.0 
0.0 0.0 0.0 
0.0 0.0 0.0 
0.0 0.0 0.0 
0.0 0.0 0.0 
0.0 0.0 0.0 
0.0 0.0 0.0 
0.0 0.0 0.0 
0.0 0.0 0.0 
0.0 0.0 0.0 
0.0 0.0 0.0 
0.0 0.0 0.0 
0.0 0.0 0.0 
0.0 0.0 0.0 
0.0 0.0 0.0 
0.0 0.0 0.0 
0.0 0.0 0.0 
0.0 0.0 0.0 
0.0 0.0 0.0 
0.0 0.0 0.0 
0.0 0.0 0.0 
0.0 0.0 0.0 
0.0 0.0 0.0 
0.0 0.0 0.0 
0.0 0.0 0.0 
0.0 0.0 0.0 
0.0 0.0 0.0 
0.0 0.0 0.0 
0.0 0.0 0.0 
0.0 0.0 0.0 
0.0 0.0 0.0 
0.0 0.0 0.0 
0.0 0.0 0.0 
0.0 0.0 0.0 
0.0 0.0 0.0 
0.0 0.0 0.0 
0.0 0.0 0.0 
0.0 0.0 0.0 
0.0 0.0 0.0 
0.0 0.0 0.0 
0.0 0.0 0.0 
0.0 0.0 0.0 
0.0 0.0 0.0 
0.0 0.0 0.0 
0.0 0.0 0.0 
0.0 0.0 0.0 
0.0 0.0 0.0 
0.0 0.0 0.0 
0.0 0.0 0.0 
0.0 0.0 0.0 
0.0 0.0 0.0 
0.0 0.0 0.0 
0.0 0.0 0.0 
0.0 0.0 0.0 
0.0 0.0 0.0 
0.0 0.0 0.0 
0.0 0.0 0.0 
0.0 0.0 0.0 
0.0 0.0 0.0 
0.0 0.0 0.0 
0.0 0.0 0.0 
0.0 0.0 0.0 
0.0 0.0 0.0 
0.0 0.0 0.0 
0.0 0.0 0.0 
0.0 0.0 0.0 
0.0 0.0 0.0 
0.0 0.0 0.0 
0.0 0.0 0.0 
0.0 0.0 0.0 
0.0 0.0 0.0 
0.0 0.0 0.0 
0.0 0.0 0.0 
0.0 0.0 0.0 
0.0 0.0 0.0 
0.0 0.0 0.0 
0.0 0.0 0.0 
0.0 0.0 0.0 
0.0 0.0 0.0 
0.0 0.0 0.0 
0.0 0.0 0.0 
0.0 0.0 0.0 
0.0 0.0 0.0 
0.0 0.0 0.0 
0.0 0.0 0.0 
0.0 0.0 0.0 
0.0 0.0 0.0 
0.0 0.0 0.0 
0.0 0.0 0.0 
0.0 0.0 0.0 
0.0 0.0 0.0 
0.0 0.0 0.0 
0.0 0.0 0.0 
0.0 0.0 0.0 
0.0 0.0 0.0 
0.0 0.0 0.0 
0.0 0.0 0.0 
0.0 0.0 0.0 
0.0 0.0 0.0 
0.0 0.0 0.0 
0.0 0.0 0.0 
0.0 0.0 0.0 
0.0 0.0 0.0 
0.0 0.0 0.0 
0.0 0.0 0.0 
0.0 0.0 0.0 
0.0 0.0 0.0 
0.0 0.0 0.0 
0.0 0.0 0.0 
0.0 0.0 0.0 
0.0 0.0 0.0 
0.0 0.0 0.0 
0.0 0.0 0.0 
0.0 0.0 0.0 
0.0 0.0 0.0 
0.0 0.0 0.0 
0.0 0.0 0.0 
0.0 0.0 0.0 
0.0 0.0 0.0 
0.0 0.0 0.0 
0.0 0.0 0.0 
0.0 0.0 0.0 
0.0 0.0 0.0 
0.0 0.0 0.0 
0.0 0.0 0.0 
0.0 0.0 0.0 
0.0 0.0 0.0 
0.0 0.0 0.0 
0.0 0.0 0.0 
0.0 0.0 0.0 
0.0 0.0 0.0 
0.0 0.0 0.0 
0.0 0.0 0.0 
0.0 0.0 0.0 
0.0 0.0 0.0 
0.0 0.0 0.0 
0.0 0.0 0.0 
0.0 0.0 0.0 
0.0 0.0 0.0 
0.0 0.0 0.0 
0.0 0.0 0.0 
0.0 0.0 0.0 
0.0 0.0 0.0 
0.0 0.0 0.0 
0.0 0.0 0.0 
0.0 0.0 0.0 
0.0 0.0 0.0 
0.0 0.0 0.0 
0.0 0.0 0.0 
0.0 0.0 0.0 
0.0 0.0 0.0 
0.0 0.0 0.0 
0.0 0.0 0.0 
0.0 0.0 0.0 
0.0 0.0 0.0 
0.0 0.0 0.0 
0.0 0.0 0.0 
0.0 0.0 0.0 
0.0 0.0 0.0 
0.0 0.0 0.0 
0.0 0.0 0.0 
0.0 0.0 0.0 
0.0 0.0 0.0 
0.0 0.0 0.0 
0.0 0.0 0.0 
0.0 0.0 0.0 
0.0 0.0 0.0 
0.0 0.0 0.0 
0.0 0.0 0.0 
0.0 0.0 0.0 
0.0 0.0 0.0 
0.0 0.0 0.0 
0.0 0.0 0.0 
0.0 0.0 0.0 
0.0 0.0 0.0 
0.0 0.0 0.0 
0.0 0.0 0.0 
0.0 0.0 0.0 
0.0 0.0 0.0 
0.0 0.0 0.0 
0.0 0.0 0.0 
0.0 0.0 0.0 
0.0 0.0 0.0 
0.0 0.0 0.0 
0.0 0.0 0.0 
0.0 0.0 0.0 
0.0 0.0 0.0 
0.0 0.0 0.0 
0.0 0.0 0.0 
0.0 0.0 0.0 
0.0 0.0 0.0 
0.0 0.0 0.0 
0.0 0.0 0.0 
0.0 0.0 0.0 
0.0 0.0 0.0 
0.0 0.0 0.0 
0.0 0.0 0.0 
0.0 0.0 0.0 
0.0 0.0 0.0 
0.0 0.0 0.0 
0.0 0.0 0.0 
0.0 0.0 0.0 
0.0 0.0 0.0 
0.0 0.0 0.0 
0.0 0.0 0.0 
0.0 0.0 0.0 
0.0 0.0 0.0 
0.0 0.0 0.0 
0.0 0.0 0.0 
0.0 0.0 0.0 
0.0 0.0 0.0 
0.0 0.0 0.0 
0.0 0.0 0.0 
0.0 0.0 0.0 
0.0 0.0 0.0 
0.0 0.0 0.0 
0.0 0.0 0.0 
0.0 0.0 0.0 
0.0 0.0 0.0 
0.0 0.0 0.0 
0.0 0.0 0.0 
0.0 0.0 0.0 
0.0 0.0 0.0 
0.0 0.0 0.0 
0.0 0.0 0.0 
0.0 0.0 0.0 
0.0 0.0 0.0 
0.0 0.0 0.0 
0.0 0.0 0.0 
0.0 0.0 0.0 
0.0 0.0 0.0 
0.0 0.0 0.0 
0.0 0.0 0.0 
0.0 0.0 0.0 
0.0 0.0 0.0 
0.0 0.0 0.0 
0.0 0.0 0.0 
0.0 0.0 0.0 
0.0 0.0 0.0 
0.0 0.0 0.0 
0.0 0.0 0.0 
0.0 0.0 0.0 
0.0 0.0 0.0 
0.0 0.0 0.0 
0.0 0.0 0.0 
0.0 0.0 0.0 
0.0 0.0 0.0 
0.0 0.0 0.0 
0.0 0.0 0.0 
0.0 0.0 0.0 
0.0 0.0 0.0 
0.0 0.0 0.0 
0.0 0.0 0.0 
0.0 0.0 0.0 
0.0 0.0 0.0 
0.0 0.0 0.0 
0.0 0.0 0.0 
0.0 0.0 0.0 
0.0 0.0 0.0 
0.0 0.0 0.0 
0.0 0.0 0.0 
0.0 0.0 0.0 
0.0 0.0 0.0 
0.0 0.0 0.0 
0.0 0.0 0.0 
0.0 0.0 0.0 
0.0 0.0 0.0 
0.0 0.0 0.0 
0.0 0.0 0.0 
0.0 0.0 0.0 
0.0 0.0 0.0 
0.0 0.0 0.0 
0.0 0.0 0.0 
0.0 0.0 0.0 
0.0 0.0 0.0 
0.0 0.0 0.0 
0.0 0.0 0.0 
0.0 0.0 0.0 
0.0 0.0 0.0 
0.0 0.0 0.0 
0.0 0.0 0.0 
0.0 0.0 0.0 
0.0 0.0 0.0 
0.0 0.0 0.0 
0.0 0.0 0.0 
0.0 0.0 0.0 
0.0 0.0 0.0 
0.0 0.0 0.0 
0.0 0.0 0.0 
0.0 0.0 0.0 
0.0 0.0 0.0 
0.0 0.0 0.0 
0.0 0.0 0.0 
0.0 0.0 0.0 
0.0 0.0 0.0 
0.0 0.0 0.0 
0.0 0.0 0.0 
0.0 0.0 0.0 
0.0 0.0 0.0 
0.0 0.0 0.0 
0.0 0.0 0.0 
0.0 0.0 0.0 
0.0 0.0 0.0 
0.0 0.0 0.0 
0.0 0.0 0.0 
0.0 0.0 0.0 
0.0 0.0 0.0 
0.0 0.0 0.0 
0.0 0.0 0.0 
0.0 0.0 0.0 
0.0 0.0 0.0 
0.0 0.0 0.0 
0.0 0.0 0.0 
0.0 0.0 0.0 
0.0 0.0 0.0 
0.0 0.0 0.0 
0.0 0.0 0.0 
0.0 0.0 0.0 
0.0 0.0 0.0 
0.0 0.0 0.0 
0.0 0.0 0.0 
0.0 0.0 0.0 
0.0 0.0 0.0 
0.0 0.0 0.0 
0.0 0.0 0.0 
0.0 0.0 0.0 
0.0 0.0 0.0 
0.0 0.0 0.0 
0.0 0.0 0.0 
0.0 0.0 0.0 
0.0 0.0 0.0 
0.0 0.0 0.0 
0.0 0.0 0.0 
0.0 0.0 0.0 
0.0 0.0 0.0 
0.0 0.0 0.0 
0.0 0.0 0.0 
0.0 0.0 0.0 
0.0 0.0 0.0 
0.0 0.0 0.0 
0.0 0.0 0.0 
0.0 0.0 0.0 
0.0 0.0 0.0 
0.0 0.0 0.0 
0.0 0.0 0.0 
0.0 0.0 0.0 
0.0 0.0 0.0 
0.0 0.0 0.0 
0.0 0.0 0.0 
0.0 0.0 0.0 
0.0 0.0 0.0 
0.0 0.0 0.0 
0.0 0.0 0.0 
0.0 0.0 0.0 
0.0 0.0 0.0 
0.0 0.0 0.0 
0.0 0.0 0.0 
0.0 0.0 0.0 
0.0 0.0 0.0 
0.0 0.0 0.0 
0.0 0.0 0.0 
0.0 0.0 0.0 
0.0 0.0 0.0 
0.0 0.0 0.0 
0.0 0.0 0.0 
0.0 0.0 0.0 
0.0 0.0 0.0 
0.0 0.0 0.0 
0.0 0.0 0.0 
0.0 0.0 0.0 
0.0 0.0 0.0 
0.0 0.0 0.0 
0.0 0.0 0.0 
0.0 0.0 0.0 
0.0 0.0 0.0 
0.0 0.0 0.0 
0.0 0.0 0.0 
0.0 0.0 0.0 
0.0 0.0 0.0 
0.0 0.0 0.0 
0.0 0.0 0.0 
0.0 0.0 0.0 
0.0 0.0 0.0 
0.0 0.0 0.0 
0.0 0.0 0.0 
0.0 0.0 0.0 
0.0 0.0 0.0 
0.0 0.0 0.0 
0.0 0.0 0.0 
0.0 0.0 0.0 
0.0 0.0 0.0 
0.0 0.0 0.0 
0.0 0.0 0.0 
0.0 0.0 0.0 
0.0 0.0 0.0 
0.0 0.0 0.0 
0.0 0.0 0.0 
0.0 0.0 0.0 
0.0 0.0 0.0 
0.0 0.0 0.0 
0.0 0.0 0.0 
0.0 0.0 0.0 
0.0 0.0 0.0 
0.0 0.0 0.0 
0.0 0.0 0.0 
0.0 0.0 0.0 
0.0 0.0 0.0 
0.0 0.0 0.0 
0.0 0.0 0.0 
0.0 0.0 0.0 
0.0 0.0 0.0 
0.0 0.0 0.0 
0.0 0.0 0.0 
0.0 0.0 0.0 
0.0 0.0 0.0 
0.0 0.0 0.0 
0.0 0.0 0.0 
0.0 0.0 0.0 
0.0 0.0 0.0 
0.0 0.0 0.0 
0.0 0.0 0.0 
0.0 0.0 0.0 
0.0 0.0 0.0 
0.0 0.0 0.0 
0.0 0.0 0.0 
0.0 0.0 0.0 
0.0 0.0 0.0 
0.0 0.0 0.0 
0.0 0.0 0.0 
0.0 0.0 0.0 
0.0 0.0 0.0 
0.0 0.0 0.0 
0.0 0.0 0.0 
0.0 0.0 0.0 
0.0 0.0 0.0 
0.0 0.0 0.0 
0.0 0.0 0.0 
0.0 0.0 0.0 
0.0 0.0 0.0 
0.0 0.0 0.0 
0.0 0.0 0.0 
0.0 0.0 0.0 
0.0 0.0 0.0 
0.0 0.0 0.0 
0.0 0.0 0.0 
0.0 0.0 0.0 
0.0 0.0 0.0 
0.0 0.0 0.0 
0.0 0.0 0.0 
0.0 0.0 0.0 
0.0 0.0 0.0 
0.0 0.0 0.0 
0.0 0.0 0.0 
0.0 0.0 0.0 
0.0 0.0 0.0 
0.0 0.0 0.0 
0.0 0.0 0.0 
0.0 0.0 0.0 
0.0 0.0 0.0 
0.0 0.0 0.0 
0.0 0.0 0.0 
0.0 0.0 0.0 
0.0 0.0 0.0 
0.0 0.0 0.0 
0.0 0.0 0.0 
0.0 0.0 0.0 
0.0 0.0 0.0 
0.0 0.0 0.0 
0.0 0.0 0.0 
0.0 0.0 0.0 
0.0 0.0 0.0 
0.0 0.0 0.0 
0.0 0.0 0.0 
0.0 0.0 0.0 
0.0 0.0 0.0 
0.0 0.0 0.0 
0.0 0.0 0.0 
0.0 0.0 0.0 
0.0 0.0 0.0 
0.0 0.0 0.0 
0.0 0.0 0.0 
0.0 0.0 0.0 
0.0 0.0 0.0 
0.0 0.0 0.0 
0.0 0.0 0.0 
0.0 0.0 0.0 
0.0 0.0 0.0 
0.0 0.0 0.0 
0.0 0.0 0.0 
0.0 0.0 0.0 
0.0 0.0 0.0 
0.0 0.0 0.0 
0.0 0.0 0.0 
0.0 0.0 0.0 
0.0 0.0 0.0 
0.0 0.0 0.0 
0.0 0.0 0.0 
0.0 0.0 0.0 
0.0 0.0 0.0 
0.0 0.0 0.0 
0.0 0.0 0.0 
0.0 0.0 0.0 
0.0 0.0 0.0 
0.0 0.0 0.0 
0.0 0.0 0.0 
0.0 0.0 0.0 
0.0 0.0 0.0 
0.0 0.0 0.0 
0.0 0.0 0.0 
0.0 0.0 0.0 
0.0 0.0 0.0 
0.0 0.0 0.0 
0.0 0.0 0.0 
0.0 0.0 0.0 
0.0 0.0 0.0 
0.0 0.0 0.0 
0.0 0.0 0.0 
0.0 0.0 0.0 
0.0 0.0 0.0 
0.0 0.0 0.0 
0.0 0.0 0.0 
0.0 0.0 0.0 
0.0 0.0 0.0 
0.0 0.0 0.0 
0.0 0.0 0.0 
0.0 0.0 0.0 
0.0 0.0 0.0 
0.0 0.0 0.0 
0.0 0.0 0.0 
0.0 0.0 0.0 
0.0 0.0 0.0 
0.0 0.0 0.0 
0.0 0.0 0.0 
0.0 0.0 0.0 
0.0 0.0 0.0 
0.0 0.0 0.0 
0.0 0.0 0.0 
0.0 0.0 0.0 
0.0 0.0 0.0 
0.0 0.0 0.0 
0.0 0.0 0.0 
0.0 0.0 0.0 
0.0 0.0 0.0 
0.0 0.0 0.0 
0.0 0.0 0.0 
0.0 0.0 0.0 
0.0 0.0 0.0 
0.0 0.0 0.0 
0.0 0.0 0.0 
0.0 0.0 0.0 
0.0 0.0 0.0 
0.0 0.0 0.0 
0.0 0.0 0.0 
0.0 0.0 0.0 
0.0 0.0 0.0 
0.0 0.0 0.0 
0.0 0.0 0.0 
0.0 0.0 0.0 
0.0 0.0 0.0 
0.0 0.0 0.0 
0.0 0.0 0.0 
0.0 0.0 0.0 
0.0 0.0 0.0 
0.0 0.0 0.0 
0.0 0.0 0.0 
0.0 0.0 0.0 
0.0 0.0 0.0 
0.0 0.0 0.0 
0.0 0.0 0.0 
0.0 0.0 0.0 
0.0 0.0 0.0 
0.0 0.0 0.0 
0.0 0.0 0.0 
0.0 0.0 0.0 
0.0 0.0 0.0 
0.0 0.0 0.0 
0.0 0.0 0.0 
0.0 0.0 0.0 
0.0 0.0 0.0 
0.0 0.0 0.0 
0.0 0.0 0.0 
0.0 0.0 0.0 
0.0 0.0 0.0 
0.0 0.0 0.0 
0.0 0.0 0.0 
0.0 0.0 0.0 
0.0 0.0 0.0 
0.0 0.0 0.0 
0.0 0.0 0.0 
0.0 0.0 0.0 
0.0 0.0 0.0 
0.0 0.0 0.0 
0.0 0.0 0.0 
0.0 0.0 0.0 
0.0 0.0 0.0 
0.0 0.0 0.0 
0.0 0.0 0.0 
0.0 0.0 0.0 
0.0 0.0 0.0 
0.0 0.0 0.0 
0.0 0.0 0.0 
0.0 0.0 0.0 
0.0 0.0 0.0 
0.0 0.0 0.0 
0.0 0.0 0.0 
0.0 0.0 0.0 
0.0 0.0 0.0 
0.0 0.0 0.0 
0.0 0.0 0.0 
0.0 0.0 0.0 
0.0 0.0 0.0 
0.0 0.0 0.0 
0.0 0.0 0.0 
0.0 0.0 0.0 
0.0 0.0 0.0 
0.0 0.0 0.0 
0.0 0.0 0.0 
0.0 0.0 0.0 
0.0 0.0 0.0 
0.0 0.0 0.0 
0.0 0.0 0.0 
0.0 0.0 0.0 
0.0 0.0 0.0 
0.0 0.0 0.0 
0.0 0.0 0.0 
0.0 0.0 0.0 
0.0 0.0 0.0 
0.0 0.0 0.0 
0.0 0.0 0.0 
0.0 0.0 0.0 
0.0 0.0 0.0 
0.0 0.0 0.0 
0.0 0.0 0.0 
0.0 0.0 0.0 
0.0 0.0 0.0 
0.0 0.0 0.0 
0.0 0.0 0.0 
0.0 0.0 0.0 
0.0 0.0 0.0 
0.0 0.0 0.0 
0.0 0.0 0.0 
0.0 0.0 0.0 
0.0 0.0 0.0 
0.0 0.0 0.0 
0.0 0.0 0.0 
0.0 0.0 0.0 
0.0 0.0 0.0 
0.0 0.0 0.0 
0.0 0.0 0.0 
0.0 0.0 0.0 
0.0 0.0 0.0 
0.0 0.0 0.0 
0.0 0.0 0.0 
0.0 0.0 0.0 
0.0 0.0 0.0 
0.0 0.0 0.0 
0.0 0.0 0.0 
0.0 0.0 0.0 
0.0 0.0 0.0 
0.0 0.0 0.0 
0.0 0.0 0.0 
0.0 0.0 0.0 
0.0 0.0 0.0 
0.0 0.0 0.0 
0.0 0.0 0.0 
0.0 0.0 0.0 
0.0 0.0 0.0 
0.0 0.0 0.0 
0.0 0.0 0.0 
0.0 0.0 0.0 
0.0 0.0 0.0 
0.0 0.0 0.0 
0.0 0.0 0.0 
0.0 0.0 0.0 
0.0 0.0 0.0 
0.0 0.0 0.0 
0.0 0.0 0.0 
0.0 0.0 0.0 
0.0 0.0 0.0 
0.0 0.0 0.0 
0.0 0.0 0.0 
0.0 0.0 0.0 
0.0 0.0 0.0 
0.0 0.0 0.0 
0.0 0.0 0.0 
0.0 0.0 0.0 
0.0 0.0 0.0 
0.0 0.0 0.0 
0.0 0.0 0.0 
0.0 0.0 0.0 
0.0 0.0 0.0 
0.0 0.0 0.0 
0.0 0.0 0.0 
0.0 0.0 0.0 
0.0 0.0 0.0 
0.0 0.0 0.0 
0.0 0.0 0.0 
0.0 0.0 0.0 
0.0 0.0 0.0 
0.0 0.0 0.0 
0.0 0.0 0.0 
0.0 0.0 0.0 
0.0 0.0 0.0 
0.0 0.0 0.0 
0.0 0.0 0.0 
0.0 0.0 0.0 
0.0 0.0 0.0 
0.0 0.0 0.0 
0.0 0.0 0.0 
0.0 0.0 0.0 
0.0 0.0 0.0 
0.0 0.0 0.0 
0.0 0.0 0.0 
0.0 0.0 0.0 
0.0 0.0 0.0 
0.0 0.0 0.0 
0.0 0.0 0.0 
0.0 0.0 0.0 
0.0 0.0 0.0 
0.0 0.0 0.0 
0.0 0.0 0.0 
0.0 0.0 0.0 
0.0 0.0 0.0 
0.0 0.0 0.0 
0.0 0.0 0.0 
0.0 0.0 0.0 
0.0 0.0 0.0 
0.0 0.0 0.0 
0.0 0.0 0.0 
0.0 0.0 0.0 
0.0 0.0 0.0 
0.0 0.0 0.0 
0.0 0.0 0.0 
0.0 0.0 0.0 
0.0 0.0 0.0 
0.0 0.0 0.0 
0.0 0.0 0.0 
0.0 0.0 0.0 
0.0 0.0 0.0 
0.0 0.0 0.0 
0.0 0.0 0.0 
0.0 0.0 0.0 
0.0 0.0 0.0 
0.0 0.0 0.0 
0.0 0.0 0.0 
0.0 0.0 0.0 
0.0 0.0 0.0 
0.0 0.0 0.0 
0.0 0.0 0.0 
0.0 0.0 0.0 
0.0 0.0 0.0 
0.0 0.0 0.0 
0.0 0.0 0.0 
0.0 0.0 0.0 
0.0 0.0 0.0 
0.0 0.0 0.0 
0.0 0.0 0.0 
0.0 0.0 0.0 
0.0 0.0 0.0 
0.0 0.0 0.0 
0.0 0.0 0.0 
0.0 0.0 0.0 
0.0 0.0 0.0 
0.0 0.0 0.0 
0.0 0.0 0.0 
0.0 0.0 0.0 
0.0 0.0 0.0 
0.0 0.0 0.0 
0.0 0.0 0.0 
0.0 0.0 0.0 
0.0 0.0 0.0 
0.0 0.0 0.0 
0.0 0.0 0.0 
0.0 0.0 0.0 
0.0 0.0 0.0 
0.0 0.0 0.0 
0.0 0.0 0.0 
0.0 0.0 0.0 
0.0 0.0 0.0 
0.0 0.0 0.0 
0.0 0.0 0.0 
0.0 0.0 0.0 
0.0 0.0 0.0 
0.0 0.0 0.0 
0.0 0.0 0.0 
0.0 0.0 0.0 
0.0 0.0 0.0 
0.0 0.0 0.0 
0.0 0.0 0.0 
0.0 0.0 0.0 
0.0 0.0 0.0 
0.0 0.0 0.0 
0.0 0.0 0.0 
0.0 0.0 0.0 
0.0 0.0 0.0 
0.0 0.0 0.0 
0.0 0.0 0.0 
0.0 0.0 0.0 
0.0 0.0 0.0 
0.0 0.0 0.0 
0.0 0.0 0.0 
0.0 0.0 0.0 
0.0 0.0 0.0 
0.0 0.0 0.0 
0.0 0.0 0.0 
0.0 0.0 0.0 
0.0 0.0 0.0 
0.0 0.0 0.0 
0.0 0.0 0.0 
0.0 0.0 0.0 
0.0 0.0 0.0 
0.0 0.0 0.0 
0.0 0.0 0.0 
0.0 0.0 0.0 
0.0 0.0 0.0 
0.0 0.0 0.0 
0.0 0.0 0.0 
0.0 0.0 0.0 
0.0 0.0 0.0 
0.0 0.0 0.0 
0.0 0.0 0.0 
0.0 0.0 0.0 
0.0 0.0 0.0 
0.0 0.0 0.0 
0.0 0.0 0.0 
0.0 0.0 0.0 
0.0 0.0 0.0 
0.0 0.0 0.0 
0.0 0.0 0.0 
0.0 0.0 0.0 
0.0 0.0 0.0 
0.0 0.0 0.0 
0.0 0.0 0.0 
0.0 0.0 0.0 
0.0 0.0 0.0 
0.0 0.0 0.0 
0.0 0.0 0.0 
0.0 0.0 0.0 
0.0 0.0 0.0 
0.0 0.0 0.0 
0.0 0.0 0.0 
0.0 0.0 0.0 
0.0 0.0 0.0 
0.0 0.0 0.0 
0.0 0.0 0.0 
0.0 0.0 0.0 
0.0 0.0 0.0 
0.0 0.0 0.0 
0.0 0.0 0.0 
0.0 0.0 0.0 
0.0 0.0 0.0 
0.0 0.0 0.0 
0.0 0.0 0.0 
0.0 0.0 0.0 
0.0 0.0 0.0 
0.0 0.0 0.0 
0.0 0.0 0.0 
0.0 0.0 0.0 
0.0 0.0 0.0 
0.0 0.0 0.0 
0.0 0.0 0.0 
0.0 0.0 0.0 
0.0 0.0 0.0 
0.0 0.0 0.0 
0.0 0.0 0.0 
0.0 0.0 0.0 
0.0 0.0 0.0 
0.0 0.0 0.0 
0.0 0.0 0.0 
0.0 0.0 0.0 
0.0 0.0 0.0 
0.0 0.0 0.0 
0.0 0.0 0.0 
0.0 0.0 0.0 
0.0 0.0 0.0 
0.0 0.0 0.0 
0.0 0.0 0.0 
0.0 0.0 0.0 
0.0 0.0 0.0 
0.0 0.0 0.0 
0.0 0.0 0.0 
0.0 0.0 0.0 
0.0 0.0 0.0 
0.0 0.0 0.0 
0.0 0.0 0.0 
0.0 0.0 0.0 
0.0 0.0 0.0 
0.0 0.0 0.0 
0.0 0.0 0.0 
0.0 0.0 0.0 
0.0 0.0 0.0 
0.0 0.0 0.0 
0.0 0.0 0.0 
0.0 0.0 0.0 
0.0 0.0 0.0 
0.0 0.0 0.0 
0.0 0.0 0.0 
0.0 0.0 0.0 
0.0 0.0 0.0 
0.0 0.0 0.0 
0.0 0.0 0.0 
0.0 0.0 0.0 
0.0 0.0 0.0 
0.0 0.0 0.0 
0.0 0.0 0.0 
0.0 0.0 0.0 
0.0 0.0 0.0 
0.0 0.0 0.0 
0.0 0.0 0.0 
0.0 0.0 0.0 
0.0 0.0 0.0 
0.0 0.0 0.0 
0.0 0.0 0.0 
0.0 0.0 0.0 
0.0 0.0 0.0 
0.0 0.0 0.0 
0.0 0.0 0.0 
0.0 0.0 0.0 
0.0 0.0 0.0 
0.0 0.0 0.0 

SCALARS node_boundary float
LOOKUP_TABLE default
1.000000000000e+00 
1.000000000000e+00 
1.000000000000e+00 
1.000000000000e+00 
1.000000000000e+00 
1.000000000000e+00 
1.000000000000e+00 
1.000000000000e+00 
1.000000000000e+00 
1.000000000000e+00 
1.000000000000e+00 
1.000000000000e+00 
1.000000000000e+00 
1.000000000000e+00 
1.000000000000e+00 
1.000000000000e+00 
1.000000000000e+00 
1.000000000000e+00 
1.000000000000e+00 
1.000000000000e+00 
1.000000000000e+00 
1.000000000000e+00 
1.000000000000e+00 
1.000000000000e+00 
1.000000000000e+00 
1.000000000000e+00 
1.000000000000e+00 
1.000000000000e+00 
1.000000000000e+00 
1.000000000000e+00 
1.000000000000e+00 
1.000000000000e+00 
1.000000000000e+00 
1.000000000000e+00 
1.000000000000e+00 
1.000000000000e+00 
1.000000000000e+00 
1.000000000000e+00 
1.000000000000e+00 
1.000000000000e+00 
1.000000000000e+00 
1.000000000000e+00 
1.000000000000e+00 
1.000000000000e+00 
1.000000000000e+00 
1.000000000000e+00 
1.000000000000e+00 
1.000000000000e+00 
1.000000000000e+00 
1.000000000000e+00 
1.000000000000e+00 
1.000000000000e+00 
1.000000000000e+00 
1.000000000000e+00 
1.000000000000e+00 
1.000000000000e+00 
1.000000000000e+00 
1.000000000000e+00 
1.000000000000e+00 
1.000000000000e+00 
1.000000000000e+00 
1.000000000000e+00 
1.000000000000e+00 
1.000000000000e+00 
1.000000000000e+00 
1.000000000000e+00 
1.000000000000e+00 
1.000000000000e+00 
1.000000000000e+00 
1.000000000000e+00 
1.000000000000e+00 
1.000000000000e+00 
1.000000000000e+00 
1.000000000000e+00 
1.000000000000e+00 
1.000000000000e+00 
1.000000000000e+00 
1.000000000000e+00 
1.000000000000e+00 
1.000000000000e+00 
1.000000000000e+00 
1.000000000000e+00 
0.0
1.000000000000e+00 
1.000000000000e+00 
1.000000000000e+00 
1.000000000000e+00 
1.000000000000e+00 
1.000000000000e+00 
1.000000000000e+00 
1.000000000000e+00 
1.000000000000e+00 
1.000000000000e+00 
0.0
0.0
0.0
0.0
0.0
0.0
0.0
0.0
0.0
0.0
0.0
0.0
0.0
0.0
1.000000000000e+00 
1.000000000000e+00 
1.000000000000e+00 
1.000000000000e+00 
1.000000000000e+00 
1.000000000000e+00 
1.000000000000e+00 
1.000000000000e+00 
1.000000000000e+00 
1.000000000000e+00 
1.000000000000e+00 
1.000000000000e+00 
1.000000000000e+00 
1.000000000000e+00 
1.000000000000e+00 
1.000000000000e+00 
1.000000000000e+00 
1.000000000000e+00 
1.000000000000e+00 
1.000000000000e+00 
1.000000000000e+00 
1.000000000000e+00 
1.000000000000e+00 
1.000000000000e+00 
1.000000000000e+00 
1.000000000000e+00 
1.000000000000e+00 
1.000000000000e+00 
1.000000000000e+00 
1.000000000000e+00 
1.000000000000e+00 
1.000000000000e+00 
1.000000000000e+00 
1.000000000000e+00 
1.000000000000e+00 
1.000000000000e+00 
1.000000000000e+00 
1.000000000000e+00 
1.000000000000e+00 
1.000000000000e+00 
1.000000000000e+00 
1.000000000000e+00 
1.000000000000e+00 
1.000000000000e+00 
0.0
0.0
0.0
0.0
0.0
0.0
0.0
0.0
0.0
0.0
0.0
0.0
0.0
0.0
0.0
0.0
0.0
0.0
0.0
0.0
0.0
0.0
0.0
0.0
0.0
0.0
0.0
0.0
0.0
0.0
0.0
0.0
0.0
0.0
0.0
0.0
0.0
0.0
0.0
0.0
0.0
0.0
0.0
0.0
0.0
0.0
0.0
0.0
0.0
0.0
0.0
0.0
0.0
0.0
0.0
0.0
0.0
0.0
0.0
0.0
0.0
0.0
0.0
0.0
0.0
0.0
0.0
0.0
0.0
0.0
0.0
0.0
0.0
0.0
0.0
0.0
0.0
0.0
0.0
0.0
0.0
0.0
0.0
0.0
0.0
0.0
0.0
0.0
0.0
0.0
0.0
0.0
0.0
0.0
0.0
0.0
0.0
0.0
0.0
0.0
0.0
0.0
0.0
0.0
0.0
0.0
0.0
0.0
0.0
0.0
0.0
0.0
0.0
0.0
0.0
0.0
0.0
0.0
0.0
0.0
0.0
0.0
0.0
0.0
0.0
0.0
0.0
0.0
0.0
0.0
0.0
0.0
0.0
0.0
0.0
0.0
0.0
0.0
0.0
0.0
0.0
0.0
0.0
0.0
0.0
0.0
0.0
0.0
0.0
0.0
0.0
0.0
0.0
0.0
0.0
0.0
0.0
0.0
0.0
0.0
0.0
0.0
0.0
0.0
0.0
0.0
0.0
0.0
0.0
0.0
0.0
0.0
0.0
0.0
0.0
0.0
0.0
0.0
0.0
0.0
0.0
0.0
0.0
0.0
0.0
0.0
0.0
0.0
0.0
0.0
0.0
0.0
0.0
0.0
0.0
0.0
0.0
0.0
0.0
0.0
0.0
0.0
0.0
0.0
0.0
0.0
0.0
0.0
0.0
0.0
0.0
0.0
0.0
0.0
0.0
0.0
0.0
0.0
0.0
0.0
0.0
0.0
0.0
0.0
0.0
0.0
0.0
0.0
0.0
0.0
0.0
0.0
0.0
0.0
0.0
0.0
0.0
0.0
0.0
0.0
0.0
0.0
0.0
0.0
0.0
0.0
0.0
0.0
0.0
0.0
0.0
0.0
0.0
0.0
0.0
0.0
0.0
0.0
0.0
0.0
0.0
0.0
0.0
0.0
0.0
0.0
0.0
0.0
0.0
0.0
0.0
0.0
0.0
0.0
0.0
0.0
0.0
0.0
0.0
0.0
0.0
0.0
0.0
0.0
0.0
0.0
0.0
0.0
0.0
0.0
0.0
0.0
0.0
0.0
0.0
0.0
0.0
0.0
0.0
0.0
0.0
0.0
0.0
0.0
0.0
0.0
0.0
0.0
0.0
0.0
0.0
0.0
0.0
0.0
0.0
0.0
0.0
0.0
0.0
0.0
0.0
0.0
0.0
0.0
0.0
0.0
0.0
0.0
0.0
0.0
0.0
0.0
0.0
0.0
0.0
0.0
0.0
0.0
0.0
0.0
0.0
0.0
0.0
0.0
0.0
0.0
0.0
0.0
0.0
0.0
0.0
0.0
0.0
0.0
0.0
0.0
0.0
0.0
0.0
0.0
0.0
0.0
0.0
0.0
0.0
0.0
0.0
0.0
0.0
0.0
0.0
0.0
0.0
0.0
0.0
0.0
0.0
0.0
0.0
0.0
0.0
0.0
0.0
0.0
0.0
0.0
0.0
0.0
0.0
0.0
0.0
0.0
0.0
0.0
0.0
0.0
0.0
0.0
0.0
0.0
0.0
0.0
0.0
0.0
0.0
0.0
0.0
0.0
0.0
0.0
0.0
0.0
0.0
0.0
0.0
0.0
0.0
0.0
0.0
0.0
0.0
0.0
0.0
0.0
0.0
0.0
0.0
0.0
0.0
0.0
0.0
0.0
0.0
0.0
0.0
0.0
0.0
0.0
0.0
0.0
0.0
0.0
0.0
0.0
0.0
0.0
0.0
0.0
0.0
0.0
0.0
0.0
0.0
0.0
0.0
0.0
0.0
0.0
0.0
0.0
0.0
0.0
0.0
0.0
0.0
0.0
0.0
0.0
0.0
0.0
0.0
0.0
0.0
0.0
0.0
0.0
0.0
0.0
0.0
0.0
0.0
0.0
0.0
0.0
0.0
0.0
0.0
0.0
0.0
0.0
0.0
0.0
0.0
0.0
0.0
0.0
0.0
0.0
0.0
0.0
0.0
0.0
0.0
0.0
0.0
0.0
0.0
0.0
0.0
0.0
0.0
0.0
0.0
0.0
0.0
0.0
0.0
0.0
0.0
0.0
0.0
0.0
0.0
0.0
0.0
0.0
0.0
0.0
0.0
0.0
0.0
0.0
0.0
0.0
0.0
0.0
0.0
0.0
0.0
0.0
0.0
0.0
0.0
0.0
0.0
0.0
0.0
0.0
0.0
0.0
0.0
0.0
0.0
0.0
0.0
0.0
0.0
0.0
0.0
0.0
0.0
0.0
0.0
0.0
0.0
0.0
0.0
0.0
0.0
0.0
0.0
0.0
0.0
0.0
0.0
0.0
0.0
0.0
0.0
0.0
0.0
0.0
0.0
0.0
0.0
0.0
0.0
0.0
0.0
0.0
0.0
0.0
0.0
0.0
0.0
0.0
0.0
0.0
0.0
0.0
0.0
0.0
0.0
0.0
0.0
0.0
0.0
0.0
0.0
0.0
0.0
0.0
0.0
0.0
0.0
0.0
0.0
0.0
0.0
0.0
0.0
0.0
0.0
0.0
0.0
0.0
0.0
0.0
0.0
0.0
0.0
0.0
0.0
0.0
0.0
0.0
0.0
0.0
0.0
0.0
0.0
0.0
0.0
0.0
0.0
0.0
0.0
0.0
0.0
0.0
0.0
0.0
0.0
0.0
0.0
0.0
0.0
0.0
0.0
0.0
0.0
0.0
0.0
0.0
0.0
0.0
0.0
0.0
0.0
0.0
0.0
0.0
0.0
0.0
0.0
0.0
0.0
0.0
0.0
0.0
0.0
0.0
0.0
0.0
0.0
0.0
0.0
0.0
0.0
0.0
0.0
0.0
0.0
0.0
0.0
0.0
0.0
0.0
0.0
0.0
0.0
0.0
0.0
0.0
0.0
0.0
0.0
0.0
0.0
0.0
0.0
0.0
0.0
0.0
0.0
0.0
0.0
0.0
0.0
0.0
0.0
0.0
0.0
0.0
0.0
0.0
0.0
0.0
0.0
0.0
0.0
0.0
0.0
0.0
0.0
0.0
0.0
0.0
0.0
0.0
0.0
0.0
0.0
0.0
0.0
0.0
0.0
0.0
0.0
0.0
0.0
0.0
0.0
0.0
0.0
0.0
0.0
0.0
0.0
0.0
0.0
0.0
0.0
0.0
0.0
0.0
0.0
0.0
0.0
0.0
0.0
0.0
0.0
0.0
0.0
0.0
0.0
0.0
0.0
0.0
0.0
0.0
0.0
0.0
0.0
0.0
0.0
0.0
0.0
0.0
0.0
0.0
0.0
0.0
0.0
0.0
0.0
0.0
0.0
0.0
0.0
0.0
0.0
0.0
0.0
0.0
0.0
0.0
0.0
0.0
0.0
0.0
0.0
0.0
0.0
0.0
0.0
0.0
0.0
0.0
0.0
0.0
0.0
0.0
0.0
0.0
0.0
0.0
0.0
0.0
0.0
0.0
0.0
0.0
0.0
0.0
0.0
0.0
0.0
0.0
0.0
0.0
0.0
0.0
0.0
0.0
0.0
0.0
0.0
0.0
0.0
0.0
0.0
0.0
0.0
0.0
0.0
0.0
0.0
0.0
0.0
0.0
0.0
0.0
0.0
0.0
0.0
0.0
0.0
0.0
0.0
0.0
0.0
0.0
0.0
0.0
0.0
0.0
0.0
0.0
0.0
0.0
0.0
0.0
0.0
0.0
0.0
0.0
0.0
0.0
0.0
0.0
0.0
0.0
0.0
0.0

VECTORS node_force_gravity float
0.0 -1.962000000000e+01 0.0 
0.0 -1.962000000000e+01 0.0 
0.0 -1.962000000000e+01 0.0 
0.0 -1.962000000000e+01 0.0 
0.0 -1.962000000000e+01 0.0 
0.0 -1.962000000000e+01 0.0 
0.0 -1.962000000000e+01 0.0 
0.0 -1.962000000000e+01 0.0 
0.0 -1.962000000000e+01 0.0 
0.0 -1.962000000000e+01 0.0 
0.0 -1.962000000000e+01 0.0 
0.0 -1.962000000000e+01 0.0 
0.0 -1.962000000000e+01 0.0 
0.0 -1.962000000000e+01 0.0 
0.0 -1.962000000000e+01 0.0 
0.0 -1.962000000000e+01 0.0 
0.0 -1.962000000000e+01 0.0 
0.0 -1.962000000000e+01 0.0 
0.0 -1.962000000000e+01 0.0 
0.0 -1.962000000000e+01 0.0 
0.0 -1.962000000000e+01 0.0 
0.0 -1.962000000000e+01 0.0 
0.0 -1.962000000000e+01 0.0 
0.0 -1.962000000000e+01 0.0 
0.0 -1.962000000000e+01 0.0 
0.0 -1.962000000000e+01 0.0 
0.0 -1.962000000000e+01 0.0 
0.0 -1.962000000000e+01 0.0 
0.0 -1.962000000000e+01 0.0 
0.0 -1.962000000000e+01 0.0 
0.0 -1.962000000000e+01 0.0 
0.0 -1.962000000000e+01 0.0 
0.0 -1.962000000000e+01 0.0 
0.0 -1.962000000000e+01 0.0 
0.0 -1.962000000000e+01 0.0 
0.0 -1.962000000000e+01 0.0 
0.0 -1.962000000000e+01 0.0 
0.0 -1.962000000000e+01 0.0 
0.0 -1.962000000000e+01 0.0 
0.0 -1.962000000000e+01 0.0 
0.0 -1.962000000000e+01 0.0 
0.0 -1.962000000000e+01 0.0 
0.0 -1.962000000000e+01 0.0 
0.0 -1.962000000000e+01 0.0 
0.0 -1.962000000000e+01 0.0 
0.0 -1.962000000000e+01 0.0 
0.0 -1.962000000000e+01 0.0 
0.0 -1.962000000000e+01 0.0 
0.0 -1.962000000000e+01 0.0 
0.0 -1.962000000000e+01 0.0 
0.0 -1.962000000000e+01 0.0 
0.0 -1.962000000000e+01 0.0 
0.0 -1.962000000000e+01 0.0 
0.0 -1.962000000000e+01 0.0 
0.0 -1.962000000000e+01 0.0 
0.0 -1.962000000000e+01 0.0 
0.0 -1.962000000000e+01 0.0 
0.0 -1.962000000000e+01 0.0 
0.0 -1.962000000000e+01 0.0 
0.0 -1.962000000000e+01 0.0 
0.0 -1.962000000000e+01 0.0 
0.0 -1.962000000000e+01 0.0 
0.0 -1.962000000000e+01 0.0 
0.0 -1.962000000000e+01 0.0 
0.0 -1.962000000000e+01 0.0 
0.0 -1.962000000000e+01 0.0 
0.0 -1.962000000000e+01 0.0 
0.0 -1.962000000000e+01 0.0 
0.0 -1.962000000000e+01 0.0 
0.0 -1.962000000000e+01 0.0 
0.0 -1.962000000000e+01 0.0 
0.0 -1.962000000000e+01 0.0 
0.0 -1.962000000000e+01 0.0 
0.0 -1.962000000000e+01 0.0 
0.0 -1.962000000000e+01 0.0 
0.0 -1.962000000000e+01 0.0 
0.0 -1.962000000000e+01 0.0 
0.0 -1.962000000000e+01 0.0 
0.0 -1.962000000000e+01 0.0 
0.0 -1.962000000000e+01 0.0 
0.0 -1.962000000000e+01 0.0 
0.0 -1.962000000000e+01 0.0 
0.0 -1.962000000000e+01 0.0 
0.0 -1.962000000000e+01 0.0 
0.0 -1.962000000000e+01 0.0 
0.0 -1.962000000000e+01 0.0 
0.0 -1.962000000000e+01 0.0 
0.0 -1.962000000000e+01 0.0 
0.0 -1.962000000000e+01 0.0 
0.0 -1.962000000000e+01 0.0 
0.0 -1.962000000000e+01 0.0 
0.0 -1.962000000000e+01 0.0 
0.0 -1.962000000000e+01 0.0 
0.0 -1.962000000000e+01 0.0 
0.0 -1.962000000000e+01 0.0 
0.0 -1.962000000000e+01 0.0 
0.0 -1.962000000000e+01 0.0 
0.0 -1.962000000000e+01 0.0 
0.0 -1.962000000000e+01 0.0 
0.0 -1.962000000000e+01 0.0 
0.0 -1.962000000000e+01 0.0 
0.0 -1.962000000000e+01 0.0 
0.0 -1.962000000000e+01 0.0 
0.0 -1.962000000000e+01 0.0 
0.0 -1.962000000000e+01 0.0 
0.0 -1.962000000000e+01 0.0 
0.0 -1.962000000000e+01 0.0 
0.0 -1.962000000000e+01 0.0 
0.0 -1.962000000000e+01 0.0 
0.0 -1.962000000000e+01 0.0 
0.0 -1.962000000000e+01 0.0 
0.0 -1.962000000000e+01 0.0 
0.0 -1.962000000000e+01 0.0 
0.0 -1.962000000000e+01 0.0 
0.0 -1.962000000000e+01 0.0 
0.0 -1.962000000000e+01 0.0 
0.0 -1.962000000000e+01 0.0 
0.0 -1.962000000000e+01 0.0 
0.0 -1.962000000000e+01 0.0 
0.0 -1.962000000000e+01 0.0 
0.0 -1.962000000000e+01 0.0 
0.0 -1.962000000000e+01 0.0 
0.0 -1.962000000000e+01 0.0 
0.0 -1.962000000000e+01 0.0 
0.0 -1.962000000000e+01 0.0 
0.0 -1.962000000000e+01 0.0 
0.0 -1.962000000000e+01 0.0 
0.0 -1.962000000000e+01 0.0 
0.0 -1.962000000000e+01 0.0 
0.0 -1.962000000000e+01 0.0 
0.0 -1.962000000000e+01 0.0 
0.0 -1.962000000000e+01 0.0 
0.0 -1.962000000000e+01 0.0 
0.0 -1.962000000000e+01 0.0 
0.0 -1.962000000000e+01 0.0 
0.0 -1.962000000000e+01 0.0 
0.0 -1.962000000000e+01 0.0 
0.0 -1.962000000000e+01 0.0 
0.0 -1.962000000000e+01 0.0 
0.0 -1.962000000000e+01 0.0 
0.0 -1.962000000000e+01 0.0 
0.0 -1.962000000000e+01 0.0 
0.0 -1.962000000000e+01 0.0 
0.0 -1.962000000000e+01 0.0 
0.0 -1.962000000000e+01 0.0 
0.0 -1.962000000000e+01 0.0 
0.0 -1.962000000000e+01 0.0 
0.0 -1.962000000000e+01 0.0 
0.0 -1.962000000000e+01 0.0 
0.0 -1.962000000000e+01 0.0 
0.0 -1.962000000000e+01 0.0 
0.0 -1.962000000000e+01 0.0 
0.0 -1.962000000000e+01 0.0 
0.0 -1.962000000000e+01 0.0 
0.0 -1.962000000000e+01 0.0 
0.0 -1.962000000000e+01 0.0 
0.0 -1.962000000000e+01 0.0 
0.0 -1.962000000000e+01 0.0 
0.0 -1.962000000000e+01 0.0 
0.0 -1.962000000000e+01 0.0 
0.0 -1.962000000000e+01 0.0 
0.0 -1.962000000000e+01 0.0 
0.0 -1.962000000000e+01 0.0 
0.0 -1.962000000000e+01 0.0 
0.0 -1.962000000000e+01 0.0 
0.0 -1.962000000000e+01 0.0 
0.0 -1.962000000000e+01 0.0 
0.0 -1.962000000000e+01 0.0 
0.0 -1.962000000000e+01 0.0 
0.0 -1.962000000000e+01 0.0 
0.0 -1.962000000000e+01 0.0 
0.0 -1.962000000000e+01 0.0 
0.0 -1.962000000000e+01 0.0 
0.0 -1.962000000000e+01 0.0 
0.0 -1.962000000000e+01 0.0 
0.0 -1.962000000000e+01 0.0 
0.0 -1.962000000000e+01 0.0 
0.0 -1.962000000000e+01 0.0 
0.0 -1.962000000000e+01 0.0 
0.0 -1.962000000000e+01 0.0 
0.0 -1.962000000000e+01 0.0 
0.0 -1.962000000000e+01 0.0 
0.0 -1.962000000000e+01 0.0 
0.0 -1.962000000000e+01 0.0 
0.0 -1.962000000000e+01 0.0 
0.0 -1.962000000000e+01 0.0 
0.0 -1.962000000000e+01 0.0 
0.0 -1.962000000000e+01 0.0 
0.0 -1.962000000000e+01 0.0 
0.0 -1.962000000000e+01 0.0 
0.0 -1.962000000000e+01 0.0 
0.0 -1.962000000000e+01 0.0 
0.0 -1.962000000000e+01 0.0 
0.0 -1.962000000000e+01 0.0 
0.0 -1.962000000000e+01 0.0 
0.0 -1.962000000000e+01 0.0 
0.0 -1.962000000000e+01 0.0 
0.0 -1.962000000000e+01 0.0 
0.0 -1.962000000000e+01 0.0 
0.0 -1.962000000000e+01 0.0 
0.0 -1.962000000000e+01 0.0 
0.0 -1.962000000000e+01 0.0 
0.0 -1.962000000000e+01 0.0 
0.0 -1.962000000000e+01 0.0 
0.0 -1.962000000000e+01 0.0 
0.0 -1.962000000000e+01 0.0 
0.0 -1.962000000000e+01 0.0 
0.0 -1.962000000000e+01 0.0 
0.0 -1.962000000000e+01 0.0 
0.0 -1.962000000000e+01 0.0 
0.0 -1.962000000000e+01 0.0 
0.0 -1.962000000000e+01 0.0 
0.0 -1.962000000000e+01 0.0 
0.0 -1.962000000000e+01 0.0 
0.0 -1.962000000000e+01 0.0 
0.0 -1.962000000000e+01 0.0 
0.0 -1.962000000000e+01 0.0 
0.0 -1.962000000000e+01 0.0 
0.0 -1.962000000000e+01 0.0 
0.0 -1.962000000000e+01 0.0 
0.0 -1.962000000000e+01 0.0 
0.0 -1.962000000000e+01 0.0 
0.0 -1.962000000000e+01 0.0 
0.0 -1.962000000000e+01 0.0 
0.0 -1.962000000000e+01 0.0 
0.0 -1.962000000000e+01 0.0 
0.0 -1.962000000000e+01 0.0 
0.0 -1.962000000000e+01 0.0 
0.0 -1.962000000000e+01 0.0 
0.0 -1.962000000000e+01 0.0 
0.0 -1.962000000000e+01 0.0 
0.0 -1.962000000000e+01 0.0 
0.0 -1.962000000000e+01 0.0 
0.0 -1.962000000000e+01 0.0 
0.0 -1.962000000000e+01 0.0 
0.0 -1.962000000000e+01 0.0 
0.0 -1.962000000000e+01 0.0 
0.0 -1.962000000000e+01 0.0 
0.0 -1.962000000000e+01 0.0 
0.0 -1.962000000000e+01 0.0 
0.0 -1.962000000000e+01 0.0 
0.0 -1.962000000000e+01 0.0 
0.0 -1.962000000000e+01 0.0 
0.0 -1.962000000000e+01 0.0 
0.0 -1.962000000000e+01 0.0 
0.0 -1.962000000000e+01 0.0 
0.0 -1.962000000000e+01 0.0 
0.0 -1.962000000000e+01 0.0 
0.0 -1.962000000000e+01 0.0 
0.0 -1.962000000000e+01 0.0 
0.0 -1.962000000000e+01 0.0 
0.0 -1.962000000000e+01 0.0 
0.0 -1.962000000000e+01 0.0 
0.0 -1.962000000000e+01 0.0 
0.0 -1.962000000000e+01 0.0 
0.0 -1.962000000000e+01 0.0 
0.0 -1.962000000000e+01 0.0 
0.0 -1.962000000000e+01 0.0 
0.0 -1.962000000000e+01 0.0 
0.0 -1.962000000000e+01 0.0 
0.0 -1.962000000000e+01 0.0 
0.0 -1.962000000000e+01 0.0 
0.0 -1.962000000000e+01 0.0 
0.0 -1.962000000000e+01 0.0 
0.0 -1.962000000000e+01 0.0 
0.0 -1.962000000000e+01 0.0 
0.0 -1.962000000000e+01 0.0 
0.0 -1.962000000000e+01 0.0 
0.0 -1.962000000000e+01 0.0 
0.0 -1.962000000000e+01 0.0 
0.0 -1.962000000000e+01 0.0 
0.0 -1.962000000000e+01 0.0 
0.0 -1.962000000000e+01 0.0 
0.0 -1.962000000000e+01 0.0 
0.0 -1.962000000000e+01 0.0 
0.0 -1.962000000000e+01 0.0 
0.0 -1.962000000000e+01 0.0 
0.0 -1.962000000000e+01 0.0 
0.0 -1.962000000000e+01 0.0 
0.0 -1.962000000000e+01 0.0 
0.0 -1.962000000000e+01 0.0 
0.0 -1.962000000000e+01 0.0 
0.0 -1.962000000000e+01 0.0 
0.0 -1.962000000000e+01 0.0 
0.0 -1.962000000000e+01 0.0 
0.0 -1.962000000000e+01 0.0 
0.0 -1.962000000000e+01 0.0 
0.0 -1.962000000000e+01 0.0 
0.0 -1.962000000000e+01 0.0 
0.0 -1.962000000000e+01 0.0 
0.0 -1.962000000000e+01 0.0 
0.0 -1.962000000000e+01 0.0 
0.0 -1.962000000000e+01 0.0 
0.0 -1.962000000000e+01 0.0 
0.0 -1.962000000000e+01 0.0 
0.0 -1.962000000000e+01 0.0 
0.0 -1.962000000000e+01 0.0 
0.0 -1.962000000000e+01 0.0 
0.0 -1.962000000000e+01 0.0 
0.0 -1.962000000000e+01 0.0 
0.0 -1.962000000000e+01 0.0 
0.0 -1.962000000000e+01 0.0 
0.0 -1.962000000000e+01 0.0 
0.0 -1.962000000000e+01 0.0 
0.0 -1.962000000000e+01 0.0 
0.0 -1.962000000000e+01 0.0 
0.0 -1.962000000000e+01 0.0 
0.0 -1.962000000000e+01 0.0 
0.0 -1.962000000000e+01 0.0 
0.0 -1.962000000000e+01 0.0 
0.0 -1.962000000000e+01 0.0 
0.0 -1.962000000000e+01 0.0 
0.0 -1.962000000000e+01 0.0 
0.0 -1.962000000000e+01 0.0 
0.0 -1.962000000000e+01 0.0 
0.0 -1.962000000000e+01 0.0 
0.0 -1.962000000000e+01 0.0 
0.0 -1.962000000000e+01 0.0 
0.0 -1.962000000000e+01 0.0 
0.0 -1.962000000000e+01 0.0 
0.0 -1.962000000000e+01 0.0 
0.0 -1.962000000000e+01 0.0 
0.0 -1.962000000000e+01 0.0 
0.0 -1.962000000000e+01 0.0 
0.0 -1.962000000000e+01 0.0 
0.0 -1.962000000000e+01 0.0 
0.0 -1.962000000000e+01 0.0 
0.0 -1.962000000000e+01 0.0 
0.0 -1.962000000000e+01 0.0 
0.0 -1.962000000000e+01 0.0 
0.0 -1.962000000000e+01 0.0 
0.0 -1.962000000000e+01 0.0 
0.0 -1.962000000000e+01 0.0 
0.0 -1.962000000000e+01 0.0 
0.0 -1.962000000000e+01 0.0 
0.0 -1.962000000000e+01 0.0 
0.0 -1.962000000000e+01 0.0 
0.0 -1.962000000000e+01 0.0 
0.0 -1.962000000000e+01 0.0 
0.0 -1.962000000000e+01 0.0 
0.0 -1.962000000000e+01 0.0 
0.0 -1.962000000000e+01 0.0 
0.0 -1.962000000000e+01 0.0 
0.0 -1.962000000000e+01 0.0 
0.0 -1.962000000000e+01 0.0 
0.0 -1.962000000000e+01 0.0 
0.0 -1.962000000000e+01 0.0 
0.0 -1.962000000000e+01 0.0 
0.0 -1.962000000000e+01 0.0 
0.0 -1.962000000000e+01 0.0 
0.0 -1.962000000000e+01 0.0 
0.0 -1.962000000000e+01 0.0 
0.0 -1.962000000000e+01 0.0 
0.0 -1.962000000000e+01 0.0 
0.0 -1.962000000000e+01 0.0 
0.0 -1.962000000000e+01 0.0 
0.0 -1.962000000000e+01 0.0 
0.0 -1.962000000000e+01 0.0 
0.0 -1.962000000000e+01 0.0 
0.0 -1.962000000000e+01 0.0 
0.0 -1.962000000000e+01 0.0 
0.0 -1.962000000000e+01 0.0 
0.0 -1.962000000000e+01 0.0 
0.0 -1.962000000000e+01 0.0 
0.0 -1.962000000000e+01 0.0 
0.0 -1.962000000000e+01 0.0 
0.0 -1.962000000000e+01 0.0 
0.0 -1.962000000000e+01 0.0 
0.0 -1.962000000000e+01 0.0 
0.0 -1.962000000000e+01 0.0 
0.0 -1.962000000000e+01 0.0 
0.0 -1.962000000000e+01 0.0 
0.0 -1.962000000000e+01 0.0 
0.0 -1.962000000000e+01 0.0 
0.0 -1.962000000000e+01 0.0 
0.0 -1.962000000000e+01 0.0 
0.0 -1.962000000000e+01 0.0 
0.0 -1.962000000000e+01 0.0 
0.0 -1.962000000000e+01 0.0 
0.0 -1.962000000000e+01 0.0 
0.0 -1.962000000000e+01 0.0 
0.0 -1.962000000000e+01 0.0 
0.0 -1.962000000000e+01 0.0 
0.0 -1.962000000000e+01 0.0 
0.0 -1.962000000000e+01 0.0 
0.0 -1.962000000000e+01 0.0 
0.0 -1.962000000000e+01 0.0 
0.0 -1.962000000000e+01 0.0 
0.0 -1.962000000000e+01 0.0 
0.0 -1.962000000000e+01 0.0 
0.0 -1.962000000000e+01 0.0 
0.0 -1.962000000000e+01 0.0 
0.0 -1.962000000000e+01 0.0 
0.0 -1.962000000000e+01 0.0 
0.0 -1.962000000000e+01 0.0 
0.0 -1.962000000000e+01 0.0 
0.0 -1.962000000000e+01 0.0 
0.0 -1.962000000000e+01 0.0 
0.0 -1.962000000000e+01 0.0 
0.0 -1.962000000000e+01 0.0 
0.0 -1.962000000000e+01 0.0 
0.0 -1.962000000000e+01 0.0 
0.0 -1.962000000000e+01 0.0 
0.0 -1.962000000000e+01 0.0 
0.0 -1.962000000000e+01 0.0 
0.0 -1.962000000000e+01 0.0 
0.0 -1.962000000000e+01 0.0 
0.0 -1.962000000000e+01 0.0 
0.0 -1.962000000000e+01 0.0 
0.0 -1.962000000000e+01 0.0 
0.0 -1.962000000000e+01 0.0 
0.0 -1.962000000000e+01 0.0 
0.0 -1.962000000000e+01 0.0 
0.0 -1.962000000000e+01 0.0 
0.0 -1.962000000000e+01 0.0 
0.0 -1.962000000000e+01 0.0 
0.0 -1.962000000000e+01 0.0 
0.0 -1.962000000000e+01 0.0 
0.0 -1.962000000000e+01 0.0 
0.0 -1.962000000000e+01 0.0 
0.0 -1.962000000000e+01 0.0 
0.0 -1.962000000000e+01 0.0 
0.0 -1.962000000000e+01 0.0 
0.0 -1.962000000000e+01 0.0 
0.0 -1.962000000000e+01 0.0 
0.0 -1.962000000000e+01 0.0 
0.0 -1.962000000000e+01 0.0 
0.0 -1.962000000000e+01 0.0 
0.0 -1.962000000000e+01 0.0 
0.0 -1.962000000000e+01 0.0 
0.0 -1.962000000000e+01 0.0 
0.0 -1.962000000000e+01 0.0 
0.0 -1.962000000000e+01 0.0 
0.0 -1.962000000000e+01 0.0 
0.0 -1.962000000000e+01 0.0 
0.0 -1.962000000000e+01 0.0 
0.0 -1.962000000000e+01 0.0 
0.0 -1.962000000000e+01 0.0 
0.0 -1.962000000000e+01 0.0 
0.0 -1.962000000000e+01 0.0 
0.0 -1.962000000000e+01 0.0 
0.0 -1.962000000000e+01 0.0 
0.0 -1.962000000000e+01 0.0 
0.0 -1.962000000000e+01 0.0 
0.0 -1.962000000000e+01 0.0 
0.0 -1.962000000000e+01 0.0 
0.0 -1.962000000000e+01 0.0 
0.0 -1.962000000000e+01 0.0 
0.0 -1.962000000000e+01 0.0 
0.0 -1.962000000000e+01 0.0 
0.0 -1.962000000000e+01 0.0 
0.0 -1.962000000000e+01 0.0 
0.0 -1.962000000000e+01 0.0 
0.0 -1.962000000000e+01 0.0 
0.0 -1.962000000000e+01 0.0 
0.0 -1.962000000000e+01 0.0 
0.0 -1.962000000000e+01 0.0 
0.0 -1.962000000000e+01 0.0 
0.0 -1.962000000000e+01 0.0 
0.0 -1.962000000000e+01 0.0 
0.0 -1.962000000000e+01 0.0 
0.0 -1.962000000000e+01 0.0 
0.0 -1.962000000000e+01 0.0 
0.0 -1.962000000000e+01 0.0 
0.0 -1.962000000000e+01 0.0 
0.0 -1.962000000000e+01 0.0 
0.0 -1.962000000000e+01 0.0 
0.0 -1.962000000000e+01 0.0 
0.0 -1.962000000000e+01 0.0 
0.0 -1.962000000000e+01 0.0 
0.0 -1.962000000000e+01 0.0 
0.0 -1.962000000000e+01 0.0 
0.0 -1.962000000000e+01 0.0 
0.0 -1.962000000000e+01 0.0 
0.0 -1.962000000000e+01 0.0 
0.0 -1.962000000000e+01 0.0 
0.0 -1.962000000000e+01 0.0 
0.0 -1.962000000000e+01 0.0 
0.0 -1.962000000000e+01 0.0 
0.0 -1.962000000000e+01 0.0 
0.0 -1.962000000000e+01 0.0 
0.0 -1.962000000000e+01 0.0 
0.0 -1.962000000000e+01 0.0 
0.0 -1.962000000000e+01 0.0 
0.0 -1.962000000000e+01 0.0 
0.0 -1.962000000000e+01 0.0 
0.0 -1.962000000000e+01 0.0 
0.0 -1.962000000000e+01 0.0 
0.0 -1.962000000000e+01 0.0 
0.0 -1.962000000000e+01 0.0 
0.0 -1.962000000000e+01 0.0 
0.0 -1.962000000000e+01 0.0 
0.0 -1.962000000000e+01 0.0 
0.0 -1.962000000000e+01 0.0 
0.0 -1.962000000000e+01 0.0 
0.0 -1.962000000000e+01 0.0 
0.0 -1.962000000000e+01 0.0 
0.0 -1.962000000000e+01 0.0 
0.0 -1.962000000000e+01 0.0 
0.0 -1.962000000000e+01 0.0 
0.0 -1.962000000000e+01 0.0 
0.0 -1.962000000000e+01 0.0 
0.0 -1.962000000000e+01 0.0 
0.0 -1.962000000000e+01 0.0 
0.0 -1.962000000000e+01 0.0 
0.0 -1.962000000000e+01 0.0 
0.0 -1.962000000000e+01 0.0 
0.0 -1.962000000000e+01 0.0 
0.0 -1.962000000000e+01 0.0 
0.0 -1.962000000000e+01 0.0 
0.0 -1.962000000000e+01 0.0 
0.0 -1.962000000000e+01 0.0 
0.0 -1.962000000000e+01 0.0 
0.0 -1.962000000000e+01 0.0 
0.0 -1.962000000000e+01 0.0 
0.0 -1.962000000000e+01 0.0 
0.0 -1.962000000000e+01 0.0 
0.0 -1.962000000000e+01 0.0 
0.0 -1.962000000000e+01 0.0 
0.0 -1.962000000000e+01 0.0 
0.0 -1.962000000000e+01 0.0 
0.0 -1.962000000000e+01 0.0 
0.0 -1.962000000000e+01 0.0 
0.0 -1.962000000000e+01 0.0 
0.0 -1.962000000000e+01 0.0 
0.0 -1.962000000000e+01 0.0 
0.0 -1.962000000000e+01 0.0 
0.0 -1.962000000000e+01 0.0 
0.0 -1.962000000000e+01 0.0 
0.0 -1.962000000000e+01 0.0 
0.0 -1.962000000000e+01 0.0 
0.0 -1.962000000000e+01 0.0 
0.0 -1.962000000000e+01 0.0 
0.0 -1.962000000000e+01 0.0 
0.0 -1.962000000000e+01 0.0 
0.0 -1.962000000000e+01 0.0 
0.0 -1.962000000000e+01 0.0 
0.0 -1.962000000000e+01 0.0 
0.0 -1.962000000000e+01 0.0 
0.0 -1.962000000000e+01 0.0 
0.0 -1.962000000000e+01 0.0 
0.0 -1.962000000000e+01 0.0 
0.0 -1.962000000000e+01 0.0 
0.0 -1.962000000000e+01 0.0 
0.0 -1.962000000000e+01 0.0 
0.0 -1.962000000000e+01 0.0 
0.0 -1.962000000000e+01 0.0 
0.0 -1.962000000000e+01 0.0 
0.0 -1.962000000000e+01 0.0 
0.0 -1.962000000000e+01 0.0 
0.0 -1.962000000000e+01 0.0 
0.0 -1.962000000000e+01 0.0 
0.0 -1.962000000000e+01 0.0 
0.0 -1.962000000000e+01 0.0 
0.0 -1.962000000000e+01 0.0 
0.0 -1.962000000000e+01 0.0 
0.0 -1.962000000000e+01 0.0 
0.0 -1.962000000000e+01 0.0 
0.0 -1.962000000000e+01 0.0 
0.0 -1.962000000000e+01 0.0 
0.0 -1.962000000000e+01 0.0 
0.0 -1.962000000000e+01 0.0 
0.0 -1.962000000000e+01 0.0 
0.0 -1.962000000000e+01 0.0 
0.0 -1.962000000000e+01 0.0 
0.0 -1.962000000000e+01 0.0 
0.0 -1.962000000000e+01 0.0 
0.0 -1.962000000000e+01 0.0 
0.0 -1.962000000000e+01 0.0 
0.0 -1.962000000000e+01 0.0 
0.0 -1.962000000000e+01 0.0 
0.0 -1.962000000000e+01 0.0 
0.0 -1.962000000000e+01 0.0 
0.0 -1.962000000000e+01 0.0 
0.0 -1.962000000000e+01 0.0 
0.0 -1.962000000000e+01 0.0 
0.0 -1.962000000000e+01 0.0 
0.0 -1.962000000000e+01 0.0 
0.0 -1.962000000000e+01 0.0 
0.0 -1.962000000000e+01 0.0 
0.0 -1.962000000000e+01 0.0 
0.0 -1.962000000000e+01 0.0 
0.0 -1.962000000000e+01 0.0 
0.0 -1.962000000000e+01 0.0 
0.0 -1.962000000000e+01 0.0 
0.0 -1.962000000000e+01 0.0 
0.0 -1.962000000000e+01 0.0 
0.0 -1.962000000000e+01 0.0 
0.0 -1.962000000000e+01 0.0 
0.0 -1.962000000000e+01 0.0 
0.0 -1.962000000000e+01 0.0 
0.0 -1.962000000000e+01 0.0 
0.0 -1.962000000000e+01 0.0 
0.0 -1.962000000000e+01 0.0 
0.0 -1.962000000000e+01 0.0 
0.0 -1.962000000000e+01 0.0 
0.0 -1.962000000000e+01 0.0 
0.0 -1.962000000000e+01 0.0 
0.0 -1.962000000000e+01 0.0 
0.0 -1.962000000000e+01 0.0 
0.0 -1.962000000000e+01 0.0 
0.0 -1.962000000000e+01 0.0 
0.0 -1.962000000000e+01 0.0 
0.0 -1.962000000000e+01 0.0 
0.0 -1.962000000000e+01 0.0 
0.0 -1.962000000000e+01 0.0 
0.0 -1.962000000000e+01 0.0 
0.0 -1.962000000000e+01 0.0 
0.0 -1.962000000000e+01 0.0 
0.0 -1.962000000000e+01 0.0 
0.0 -1.962000000000e+01 0.0 
0.0 -1.962000000000e+01 0.0 
0.0 -1.962000000000e+01 0.0 
0.0 -1.962000000000e+01 0.0 
0.0 -1.962000000000e+01 0.0 
0.0 -1.962000000000e+01 0.0 
0.0 -1.962000000000e+01 0.0 
0.0 -1.962000000000e+01 0.0 
0.0 -1.962000000000e+01 0.0 
0.0 -1.962000000000e+01 0.0 
0.0 -1.962000000000e+01 0.0 
0.0 -1.962000000000e+01 0.0 
0.0 -1.962000000000e+01 0.0 
0.0 -1.962000000000e+01 0.0 
0.0 -1.962000000000e+01 0.0 
0.0 -1.962000000000e+01 0.0 
0.0 -1.962000000000e+01 0.0 
0.0 -1.962000000000e+01 0.0 
0.0 -1.962000000000e+01 0.0 
0.0 -1.962000000000e+01 0.0 
0.0 -1.962000000000e+01 0.0 
0.0 -1.962000000000e+01 0.0 
0.0 -1.962000000000e+01 0.0 
0.0 -1.962000000000e+01 0.0 
0.0 -1.962000000000e+01 0.0 
0.0 -1.962000000000e+01 0.0 
0.0 -1.962000000000e+01 0.0 
0.0 -1.962000000000e+01 0.0 
0.0 -1.962000000000e+01 0.0 
0.0 -1.962000000000e+01 0.0 
0.0 -1.962000000000e+01 0.0 
0.0 -1.962000000000e+01 0.0 
0.0 -1.962000000000e+01 0.0 
0.0 -1.962000000000e+01 0.0 
0.0 -1.962000000000e+01 0.0 
0.0 -1.962000000000e+01 0.0 
0.0 -1.962000000000e+01 0.0 
0.0 -1.962000000000e+01 0.0 
0.0 -1.962000000000e+01 0.0 
0.0 -1.962000000000e+01 0.0 
0.0 -1.962000000000e+01 0.0 
0.0 -1.962000000000e+01 0.0 
0.0 -1.962000000000e+01 0.0 
0.0 -1.962000000000e+01 0.0 
0.0 -1.962000000000e+01 0.0 
0.0 -1.962000000000e+01 0.0 
0.0 -1.962000000000e+01 0.0 
0.0 -1.962000000000e+01 0.0 
0.0 -1.962000000000e+01 0.0 
0.0 -1.962000000000e+01 0.0 
0.0 -1.962000000000e+01 0.0 
0.0 -1.962000000000e+01 0.0 
0.0 -1.962000000000e+01 0.0 
0.0 -1.962000000000e+01 0.0 
0.0 -1.962000000000e+01 0.0 
0.0 -1.962000000000e+01 0.0 
0.0 -1.962000000000e+01 0.0 
0.0 -1.962000000000e+01 0.0 
0.0 -1.962000000000e+01 0.0 
0.0 -1.962000000000e+01 0.0 
0.0 -1.962000000000e+01 0.0 
0.0 -1.962000000000e+01 0.0 
0.0 -1.962000000000e+01 0.0 
0.0 -1.962000000000e+01 0.0 
0.0 -1.962000000000e+01 0.0 
0.0 -1.962000000000e+01 0.0 
0.0 -1.962000000000e+01 0.0 
0.0 -1.962000000000e+01 0.0 
0.0 -1.962000000000e+01 0.0 
0.0 -1.962000000000e+01 0.0 
0.0 -1.962000000000e+01 0.0 
0.0 -1.962000000000e+01 0.0 
0.0 -1.962000000000e+01 0.0 
0.0 -1.962000000000e+01 0.0 
0.0 -1.962000000000e+01 0.0 
0.0 -1.962000000000e+01 0.0 
0.0 -1.962000000000e+01 0.0 
0.0 -1.962000000000e+01 0.0 
0.0 -1.962000000000e+01 0.0 
0.0 -1.962000000000e+01 0.0 
0.0 -1.962000000000e+01 0.0 
0.0 -1.962000000000e+01 0.0 
0.0 -1.962000000000e+01 0.0 
0.0 -1.962000000000e+01 0.0 
0.0 -1.962000000000e+01 0.0 
0.0 -1.962000000000e+01 0.0 
0.0 -1.962000000000e+01 0.0 
0.0 -1.962000000000e+01 0.0 
0.0 -1.962000000000e+01 0.0 
0.0 -1.962000000000e+01 0.0 
0.0 -1.962000000000e+01 0.0 
0.0 -1.962000000000e+01 0.0 
0.0 -1.962000000000e+01 0.0 
0.0 -1.962000000000e+01 0.0 
0.0 -1.962000000000e+01 0.0 
0.0 -1.962000000000e+01 0.0 
0.0 -1.962000000000e+01 0.0 
0.0 -1.962000000000e+01 0.0 
0.0 -1.962000000000e+01 0.0 
0.0 -1.962000000000e+01 0.0 
0.0 -1.962000000000e+01 0.0 
0.0 -1.962000000000e+01 0.0 
0.0 -1.962000000000e+01 0.0 
0.0 -1.962000000000e+01 0.0 
0.0 -1.962000000000e+01 0.0 
0.0 -1.962000000000e+01 0.0 
0.0 -1.962000000000e+01 0.0 
0.0 -1.962000000000e+01 0.0 
0.0 -1.962000000000e+01 0.0 
0.0 -1.962000000000e+01 0.0 
0.0 -1.962000000000e+01 0.0 
0.0 -1.962000000000e+01 0.0 
0.0 -1.962000000000e+01 0.0 
0.0 -1.962000000000e+01 0.0 
0.0 -1.962000000000e+01 0.0 
0.0 -1.962000000000e+01 0.0 
0.0 -1.962000000000e+01 0.0 
0.0 -1.962000000000e+01 0.0 
0.0 -1.962000000000e+01 0.0 
0.0 -1.962000000000e+01 0.0 
0.0 -1.962000000000e+01 0.0 
0.0 -1.962000000000e+01 0.0 
0.0 -1.962000000000e+01 0.0 
0.0 -1.962000000000e+01 0.0 
0.0 -1.962000000000e+01 0.0 
0.0 -1.962000000000e+01 0.0 
0.0 -1.962000000000e+01 0.0 
0.0 -1.962000000000e+01 0.0 
0.0 -1.962000000000e+01 0.0 
0.0 -1.962000000000e+01 0.0 
0.0 -1.962000000000e+01 0.0 
0.0 -1.962000000000e+01 0.0 
0.0 -1.962000000000e+01 0.0 
0.0 -1.962000000000e+01 0.0 
0.0 -1.962000000000e+01 0.0 
0.0 -1.962000000000e+01 0.0 
0.0 -1.962000000000e+01 0.0 
0.0 -1.962000000000e+01 0.0 
0.0 -1.962000000000e+01 0.0 
0.0 -1.962000000000e+01 0.0 
0.0 -1.962000000000e+01 0.0 
0.0 -1.962000000000e+01 0.0 
0.0 -1.962000000000e+01 0.0 
0.0 -1.962000000000e+01 0.0 
0.0 -1.962000000000e+01 0.0 
0.0 -1.962000000000e+01 0.0 
0.0 -1.962000000000e+01 0.0 
0.0 -1.962000000000e+01 0.0 
0.0 -1.962000000000e+01 0.0 
0.0 -1.962000000000e+01 0.0 
0.0 -1.962000000000e+01 0.0 
0.0 -1.962000000000e+01 0.0 
0.0 -1.962000000000e+01 0.0 
0.0 -1.962000000000e+01 0.0 
0.0 -1.962000000000e+01 0.0 
0.0 -1.962000000000e+01 0.0 
0.0 -1.962000000000e+01 0.0 
0.0 -1.962000000000e+01 0.0 
0.0 -1.962000000000e+01 0.0 
0.0 -1.962000000000e+01 0.0 
0.0 -1.962000000000e+01 0.0 
0.0 -1.962000000000e+01 0.0 
0.0 -1.962000000000e+01 0.0 
0.0 -1.962000000000e+01 0.0 
0.0 -1.962000000000e+01 0.0 
0.0 -1.962000000000e+01 0.0 
0.0 -1.962000000000e+01 0.0 
0.0 -1.962000000000e+01 0.0 
0.0 -1.962000000000e+01 0.0 
0.0 -1.962000000000e+01 0.0 
0.0 -1.962000000000e+01 0.0 
0.0 -1.962000000000e+01 0.0 
0.0 -1.962000000000e+01 0.0 
0.0 -1.962000000000e+01 0.0 
0.0 -1.962000000000e+01 0.0 
0.0 -1.962000000000e+01 0.0 
0.0 -1.962000000000e+01 0.0 
0.0 -1.962000000000e+01 0.0 
0.0 -1.962000000000e+01 0.0 
0.0 -1.962000000000e+01 0.0 
0.0 -1.962000000000e+01 0.0 
0.0 -1.962000000000e+01 0.0 
0.0 -1.962000000000e+01 0.0 
0.0 -1.962000000000e+01 0.0 
0.0 -1.962000000000e+01 0.0 
0.0 -1.962000000000e+01 0.0 
0.0 -1.962000000000e+01 0.0 
0.0 -1.962000000000e+01 0.0 
0.0 -1.962000000000e+01 0.0 
0.0 -1.962000000000e+01 0.0 
0.0 -1.962000000000e+01 0.0 
0.0 -1.962000000000e+01 0.0 
0.0 -1.962000000000e+01 0.0 
0.0 -1.962000000000e+01 0.0 
0.0 -1.962000000000e+01 0.0 
0.0 -1.962000000000e+01 0.0 
0.0 -1.962000000000e+01 0.0 
0.0 -1.962000000000e+01 0.0 
0.0 -1.962000000000e+01 0.0 
0.0 -1.962000000000e+01 0.0 
0.0 -1.962000000000e+01 0.0 
0.0 -1.962000000000e+01 0.0 
0.0 -1.962000000000e+01 0.0 
0.0 -1.962000000000e+01 0.0 
0.0 -1.962000000000e+01 0.0 
0.0 -1.962000000000e+01 0.0 
0.0 -1.962000000000e+01 0.0 
0.0 -1.962000000000e+01 0.0 
0.0 -1.962000000000e+01 0.0 
0.0 -1.962000000000e+01 0.0 
0.0 -1.962000000000e+01 0.0 
0.0 -1.962000000000e+01 0.0 
0.0 -1.962000000000e+01 0.0 
0.0 -1.962000000000e+01 0.0 
0.0 -1.962000000000e+01 0.0 
0.0 -1.962000000000e+01 0.0 
0.0 -1.962000000000e+01 0.0 
0.0 -1.962000000000e+01 0.0 
0.0 -1.962000000000e+01 0.0 
0.0 -1.962000000000e+01 0.0 
0.0 -1.962000000000e+01 0.0 
0.0 -1.962000000000e+01 0.0 
0.0 -1.962000000000e+01 0.0 
0.0 -1.962000000000e+01 0.0 
0.0 -1.962000000000e+01 0.0 
0.0 -1.962000000000e+01 0.0 
0.0 -1.962000000000e+01 0.0 
0.0 -1.962000000000e+01 0.0 
0.0 -1.962000000000e+01 0.0 
0.0 -1.962000000000e+01 0.0 
0.0 -1.962000000000e+01 0.0 
0.0 -1.962000000000e+01 0.0 
0.0 -1.962000000000e+01 0.0 
0.0 -1.962000000000e+01 0.0 
0.0 -1.962000000000e+01 0.0 
0.0 -1.962000000000e+01 0.0 
0.0 -1.962000000000e+01 0.0 
0.0 -1.962000000000e+01 0.0 
0.0 -1.962000000000e+01 0.0 
0.0 -1.962000000000e+01 0.0 
0.0 -1.962000000000e+01 0.0 
0.0 -1.962000000000e+01 0.0 
0.0 -1.962000000000e+01 0.0 
0.0 -1.962000000000e+01 0.0 
0.0 -1.962000000000e+01 0.0 
0.0 -1.962000000000e+01 0.0 
0.0 -1.962000000000e+01 0.0 
0.0 -1.962000000000e+01 0.0 
0.0 -1.962000000000e+01 0.0 
0.0 -1.962000000000e+01 0.0 
0.0 -1.962000000000e+01 0.0 
0.0 -1.962000000000e+01 0.0 
0.0 -1.962000000000e+01 0.0 
0.0 -1.962000000000e+01 0.0 
0.0 -1.962000000000e+01 0.0 
0.0 -1.962000000000e+01 0.0 
0.0 -1.962000000000e+01 0.0 
0.0 -1.962000000000e+01 0.0 
0.0 -1.962000000000e+01 0.0 
0.0 -1.962000000000e+01 0.0 
0.0 -1.962000000000e+01 0.0 
0.0 -1.962000000000e+01 0.0 
0.0 -1.962000000000e+01 0.0 
0.0 -1.962000000000e+01 0.0 
0.0 -1.962000000000e+01 0.0 
0.0 -1.962000000000e+01 0.0 
0.0 -1.962000000000e+01 0.0 
0.0 -1.962000000000e+01 0.0 
0.0 -1.962000000000e+01 0.0 
0.0 -1.962000000000e+01 0.0 
0.0 -1.962000000000e+01 0.0 
0.0 -1.962000000000e+01 0.0 
0.0 -1.962000000000e+01 0.0 
0.0 -1.962000000000e+01 0.0 
0.0 -1.962000000000e+01 0.0 
0.0 -1.962000000000e+01 0.0 
0.0 -1.962000000000e+01 0.0 
0.0 -1.962000000000e+01 0.0 
0.0 -1.962000000000e+01 0.0 
0.0 -1.962000000000e+01 0.0 
0.0 -1.962000000000e+01 0.0 
0.0 -1.962000000000e+01 0.0 
0.0 -1.962000000000e+01 0.0 
0.0 -1.962000000000e+01 0.0 
0.0 -1.962000000000e+01 0.0 
0.0 -1.962000000000e+01 0.0 
0.0 -1.962000000000e+01 0.0 
0.0 -1.962000000000e+01 0.0 
0.0 -1.962000000000e+01 0.0 
0.0 -1.962000000000e+01 0.0 
0.0 -1.962000000000e+01 0.0 
0.0 -1.962000000000e+01 0.0 
0.0 -1.962000000000e+01 0.0 
0.0 -1.962000000000e+01 0.0 
0.0 -1.962000000000e+01 0.0 
0.0 -1.962000000000e+01 0.0 
0.0 -1.962000000000e+01 0.0 
0.0 -1.962000000000e+01 0.0 
0.0 -1.962000000000e+01 0.0 
0.0 -1.962000000000e+01 0.0 
0.0 -1.962000000000e+01 0.0 
0.0 -1.962000000000e+01 0.0 
0.0 -1.962000000000e+01 0.0 
0.0 -1.962000000000e+01 0.0 
0.0 -1.962000000000e+01 0.0 
0.0 -1.962000000000e+01 0.0 
0.0 -1.962000000000e+01 0.0 
0.0 -1.962000000000e+01 0.0 
0.0 -1.962000000000e+01 0.0 
0.0 -1.962000000000e+01 0.0 
0.0 -1.962000000000e+01 0.0 
0.0 -1.962000000000e+01 0.0 
0.0 -1.962000000000e+01 0.0 
0.0 -1.962000000000e+01 0.0 
0.0 -1.962000000000e+01 0.0 
0.0 -1.962000000000e+01 0.0 
0.0 -1.962000000000e+01 0.0 
0.0 -1.962000000000e+01 0.0 
0.0 -1.962000000000e+01 0.0 
0.0 -1.962000000000e+01 0.0 
0.0 -1.962000000000e+01 0.0 
0.0 -1.962000000000e+01 0.0 
0.0 -1.962000000000e+01 0.0 
0.0 -1.962000000000e+01 0.0 
0.0 -1.962000000000e+01 0.0 
0.0 -1.962000000000e+01 0.0 
0.0 -1.962000000000e+01 0.0 
0.0 -1.962000000000e+01 0.0 
0.0 -1.962000000000e+01 0.0 
0.0 -1.962000000000e+01 0.0 
0.0 -1.962000000000e+01 0.0 
0.0 -1.962000000000e+01 0.0 
0.0 -1.962000000000e+01 0.0 
0.0 -1.962000000000e+01 0.0 
0.0 -1.962000000000e+01 0.0 
0.0 -1.962000000000e+01 0.0 
0.0 -1.962000000000e+01 0.0 
0.0 -1.962000000000e+01 0.0 
0.0 -1.962000000000e+01 0.0 
0.0 -1.962000000000e+01 0.0 
0.0 -1.962000000000e+01 0.0 
0.0 -1.962000000000e+01 0.0 
0.0 -1.962000000000e+01 0.0 
0.0 -1.962000000000e+01 0.0 
0.0 -1.962000000000e+01 0.0 
0.0 -1.962000000000e+01 0.0 
0.0 -1.962000000000e+01 0.0 
0.0 -1.962000000000e+01 0.0 
0.0 -1.962000000000e+01 0.0 
0.0 -1.962000000000e+01 0.0 
0.0 -1.962000000000e+01 0.0 
0.0 -1.962000000000e+01 0.0 
0.0 -1.962000000000e+01 0.0 
0.0 -1.962000000000e+01 0.0 
0.0 -1.962000000000e+01 0.0 
0.0 -1.962000000000e+01 0.0 
0.0 -1.962000000000e+01 0.0 
0.0 -1.962000000000e+01 0.0 
0.0 -1.962000000000e+01 0.0 
0.0 -1.962000000000e+01 0.0 
0.0 -1.962000000000e+01 0.0 
0.0 -1.962000000000e+01 0.0 
0.0 -1.962000000000e+01 0.0 
0.0 -1.962000000000e+01 0.0 
0.0 -1.962000000000e+01 0.0 
0.0 -1.962000000000e+01 0.0 
0.0 -1.962000000000e+01 0.0 
0.0 -1.962000000000e+01 0.0 
0.0 -1.962000000000e+01 0.0 
0.0 -1.962000000000e+01 0.0 
0.0 -1.962000000000e+01 0.0 
0.0 -1.962000000000e+01 0.0 
0.0 -1.962000000000e+01 0.0 
0.0 -1.962000000000e+01 0.0 
0.0 -1.962000000000e+01 0.0 
0.0 -1.962000000000e+01 0.0 
0.0 -1.962000000000e+01 0.0 
0.0 -1.962000000000e+01 0.0 
0.0 -1.962000000000e+01 0.0 
0.0 -1.962000000000e+01 0.0 
0.0 -1.962000000000e+01 0.0 
0.0 -1.962000000000e+01 0.0 
0.0 -1.962000000000e+01 0.0 
0.0 -1.962000000000e+01 0.0 
0.0 -1.962000000000e+01 0.0 
0.0 -1.962000000000e+01 0.0 
0.0 -1.962000000000e+01 0.0 
0.0 -1.962000000000e+01 0.0 
0.0 -1.962000000000e+01 0.0 
0.0 -1.962000000000e+01 0.0 
0.0 -1.962000000000e+01 0.0 
0.0 -1.962000000000e+01 0.0 
0.0 -1.962000000000e+01 0.0 
0.0 -1.962000000000e+01 0.0 
0.0 -1.962000000000e+01 0.0 
0.0 -1.962000000000e+01 0.0 
0.0 -1.962000000000e+01 0.0 
0.0 -1.962000000000e+01 0.0 
0.0 -1.962000000000e+01 0.0 
0.0 -1.962000000000e+01 0.0 
0.0 -1.962000000000e+01 0.0 
0.0 -1.962000000000e+01 0.0 
0.0 -1.962000000000e+01 0.0 
0.0 -1.962000000000e+01 0.0 
0.0 -1.962000000000e+01 0.0 
0.0 -1.962000000000e+01 0.0 
0.0 -1.962000000000e+01 0.0 
0.0 -1.962000000000e+01 0.0 
0.0 -1.962000000000e+01 0.0 
0.0 -1.962000000000e+01 0.0 
0.0 -1.962000000000e+01 0.0 
0.0 -1.962000000000e+01 0.0 
0.0 -1.962000000000e+01 0.0 
0.0 -1.962000000000e+01 0.0 
0.0 -1.962000000000e+01 0.0 
0.0 -1.962000000000e+01 0.0 
0.0 -1.962000000000e+01 0.0 
0.0 -1.962000000000e+01 0.0 
0.0 -1.962000000000e+01 0.0 
0.0 -1.962000000000e+01 0.0 
0.0 -1.962000000000e+01 0.0 
0.0 -1.962000000000e+01 0.0 
0.0 -1.962000000000e+01 0.0 
0.0 -1.962000000000e+01 0.0 
0.0 -1.962000000000e+01 0.0 
0.0 -1.962000000000e+01 0.0 
0.0 -1.962000000000e+01 0.0 
0.0 -1.962000000000e+01 0.0 
0.0 -1.962000000000e+01 0.0 
0.0 -1.962000000000e+01 0.0 
0.0 -1.962000000000e+01 0.0 
0.0 -1.962000000000e+01 0.0 
0.0 -1.962000000000e+01 0.0 
0.0 -1.962000000000e+01 0.0 
0.0 -1.962000000000e+01 0.0 
0.0 -1.962000000000e+01 0.0 
0.0 -1.962000000000e+01 0.0 

VECTORS node_rhside_materi_fixed float
-9.539988462262e-01 0.0 0.0 
2.347318940927e+01 0.0 0.0 
-8.161414292521e+01 -1.952779865750e+02 0.0 
4.591672540035e+01 -1.108103179143e+02 0.0 
-6.114227339348e+00 0.0 0.0 
-1.406928179094e+01 0.0 0.0 
-2.045036546943e+01 0.0 0.0 
-2.858839374783e+01 0.0 0.0 
-3.560016797813e+01 0.0 0.0 
-4.292244454759e+01 0.0 0.0 
-5.029410435335e+01 0.0 0.0 
-5.772824132280e+01 0.0 0.0 
-6.529696592788e+01 0.0 0.0 
-7.297129133721e+01 0.0 0.0 
-8.131723263575e+01 0.0 0.0 
-8.978262579066e+01 0.0 0.0 
-9.798313690026e+01 0.0 0.0 
-1.071062073728e+02 0.0 0.0 
-1.163063975047e+02 0.0 0.0 
-1.258126884369e+02 0.0 0.0 
-1.356256393622e+02 0.0 0.0 
-1.457062299590e+02 0.0 0.0 
-1.563415816975e+02 0.0 0.0 
9.731533844284e-01 -2.203900744584e+02 0.0 
1.677243664991e+00 -2.218289256006e+02 0.0 
4.701710483455e+00 -2.211086085322e+02 0.0 
3.659204205738e+00 -2.214843574526e+02 0.0 
6.582917595651e+00 -2.228022255353e+02 0.0 
7.741444542161e+00 -2.226429622991e+02 0.0 
9.052297257246e+00 -2.242129620794e+02 0.0 
1.084399645922e+01 -2.258331687769e+02 0.0 
1.408792003087e+01 -2.266086082052e+02 0.0 
1.371300748541e+01 -2.286535689833e+02 0.0 
1.773497623707e+01 -2.322789944503e+02 0.0 
1.977289745617e+01 -2.343043574727e+02 0.0 
2.185175509547e+01 -2.389357025911e+02 0.0 
2.404241800268e+01 -2.428361470561e+02 0.0 
2.652789028189e+01 -2.478785510544e+02 0.0 
2.837091120826e+01 -2.541082456542e+02 0.0 
3.135798770334e+01 -2.603464238416e+02 0.0 
3.268962425055e+01 -2.673272435703e+02 0.0 
3.406158317564e+01 -2.746383274270e+02 0.0 
3.491676371701e+01 -2.818893852496e+02 0.0 
3.514921783193e+01 -2.895417976584e+02 0.0 
3.580179289006e+01 -2.977215132510e+02 0.0 
3.550940746103e+01 -3.052678381501e+02 0.0 
3.516405239157e+01 -3.127694211585e+02 0.0 
3.450412469806e+01 -3.202672241175e+02 0.0 
3.336354156832e+01 -3.272033143978e+02 0.0 
3.216455059362e+01 -3.337356654790e+02 0.0 
3.076209151896e+01 -3.400481232746e+02 0.0 
2.937097138719e+01 -3.460700949805e+02 0.0 
2.760128792729e+01 -3.513487209203e+02 0.0 
2.593527450243e+01 -3.560433168082e+02 0.0 
2.415368557528e+01 -3.611217916772e+02 0.0 
2.243432003137e+01 -3.648926904533e+02 0.0 
2.071863212073e+01 -3.687297737002e+02 0.0 
1.887589361154e+01 -3.719778726836e+02 0.0 
1.725815074147e+01 -3.748796557421e+02 0.0 
1.563554254876e+01 -3.774858175344e+02 0.0 
1.399616164700e+01 -3.797586319338e+02 0.0 
1.254387431129e+01 -3.816669329737e+02 0.0 
1.118877700091e+01 -3.836849918331e+02 0.0 
9.751147076802e+00 -3.849543573590e+02 0.0 
8.504934659277e+00 -3.860634429825e+02 0.0 
7.228671604063e+00 -3.869173393053e+02 0.0 
6.242881562563e+00 -3.885277597803e+02 0.0 
4.896577388279e+00 -3.884285125613e+02 0.0 
3.888460024667e+00 -3.895984019602e+02 0.0 
3.059969291735e+00 -3.895523437957e+02 0.0 
1.974811259847e+00 -3.899964922818e+02 0.0 
8.782394624309e-01 -3.900640164671e+02 0.0 
3.103097787669e+01 0.0 0.0 
3.944241429993e+01 0.0 0.0 
4.729228094857e+01 0.0 0.0 
5.476440969380e+01 0.0 0.0 
6.208169909854e+01 0.0 0.0 
6.947694613527e+01 0.0 0.0 
7.608397648061e+01 0.0 0.0 
8.198346916998e+01 0.0 0.0 
8.910115689394e+01 0.0 0.0 
0.0 0.0 0.0 
0.0 0.0 0.0 
0.0 0.0 0.0 
0.0 0.0 0.0 
0.0 0.0 0.0 
0.0 0.0 0.0 
0.0 0.0 0.0 
0.0 0.0 0.0 
0.0 0.0 0.0 
0.0 0.0 0.0 
0.0 0.0 0.0 
9.021374913046e+00 0.0 0.0 
0.0 0.0 0.0 
0.0 0.0 0.0 
0.0 0.0 0.0 
0.0 0.0 0.0 
0.0 0.0 0.0 
0.0 0.0 0.0 
0.0 0.0 0.0 
0.0 0.0 0.0 
0.0 0.0 0.0 
0.0 0.0 0.0 
0.0 0.0 0.0 
0.0 0.0 0.0 
0.0 0.0 0.0 
0.0 0.0 0.0 
0.0 0.0 0.0 
0.0 0.0 0.0 
0.0 0.0 0.0 
0.0 0.0 0.0 
0.0 0.0 0.0 
0.0 0.0 0.0 
0.0 0.0 0.0 
0.0 0.0 0.0 
0.0 0.0 0.0 
0.0 0.0 0.0 
0.0 0.0 0.0 
0.0 0.0 0.0 
0.0 0.0 0.0 
0.0 0.0 0.0 
0.0 0.0 0.0 
0.0 0.0 0.0 
0.0 0.0 0.0 
0.0 0.0 0.0 
0.0 0.0 0.0 
0.0 0.0 0.0 
0.0 0.0 0.0 
0.0 0.0 0.0 
0.0 0.0 0.0 
0.0 0.0 0.0 
0.0 0.0 0.0 
0.0 0.0 0.0 
0.0 0.0 0.0 
0.0 0.0 0.0 
0.0 0.0 0.0 
0.0 0.0 0.0 
0.0 0.0 0.0 
0.0 0.0 0.0 
0.0 0.0 0.0 
0.0 0.0 0.0 
0.0 0.0 0.0 
0.0 0.0 0.0 
0.0 0.0 0.0 
0.0 0.0 0.0 
0.0 0.0 0.0 
0.0 0.0 0.0 
0.0 0.0 0.0 
0.0 0.0 0.0 
0.0 0.0 0.0 
0.0 0.0 0.0 
0.0 0.0 0.0 
0.0 0.0 0.0 
0.0 0.0 0.0 
0.0 0.0 0.0 
0.0 0.0 0.0 
0.0 0.0 0.0 
0.0 0.0 0.0 
0.0 0.0 0.0 
0.0 0.0 0.0 
0.0 0.0 0.0 
0.0 0.0 0.0 
0.0 0.0 0.0 
0.0 0.0 0.0 
0.0 0.0 0.0 
0.0 0.0 0.0 
0.0 0.0 0.0 
0.0 0.0 0.0 
0.0 0.0 0.0 
0.0 0.0 0.0 
0.0 0.0 0.0 
0.0 0.0 0.0 
0.0 0.0 0.0 
0.0 0.0 0.0 
0.0 0.0 0.0 
0.0 0.0 0.0 
0.0 0.0 0.0 
0.0 0.0 0.0 
0.0 0.0 0.0 
0.0 0.0 0.0 
0.0 0.0 0.0 
0.0 0.0 0.0 
0.0 0.0 0.0 
0.0 0.0 0.0 
0.0 0.0 0.0 
0.0 0.0 0.0 
0.0 0.0 0.0 
0.0 0.0 0.0 
0.0 0.0 0.0 
0.0 0.0 0.0 
0.0 0.0 0.0 
0.0 0.0 0.0 
0.0 0.0 0.0 
0.0 0.0 0.0 
0.0 0.0 0.0 
0.0 0.0 0.0 
0.0 0.0 0.0 
0.0 0.0 0.0 
0.0 0.0 0.0 
0.0 0.0 0.0 
0.0 0.0 0.0 
0.0 0.0 0.0 
0.0 0.0 0.0 
0.0 0.0 0.0 
0.0 0.0 0.0 
0.0 0.0 0.0 
0.0 0.0 0.0 
0.0 0.0 0.0 
0.0 0.0 0.0 
0.0 0.0 0.0 
0.0 0.0 0.0 
0.0 0.0 0.0 
0.0 0.0 0.0 
0.0 0.0 0.0 
0.0 0.0 0.0 
0.0 0.0 0.0 
0.0 0.0 0.0 
0.0 0.0 0.0 
0.0 0.0 0.0 
0.0 0.0 0.0 
0.0 0.0 0.0 
0.0 0.0 0.0 
0.0 0.0 0.0 
0.0 0.0 0.0 
0.0 0.0 0.0 
0.0 0.0 0.0 
0.0 0.0 0.0 
0.0 0.0 0.0 
0.0 0.0 0.0 
0.0 0.0 0.0 
0.0 0.0 0.0 
0.0 0.0 0.0 
0.0 0.0 0.0 
0.0 0.0 0.0 
0.0 0.0 0.0 
0.0 0.0 0.0 
0.0 0.0 0.0 
0.0 0.0 0.0 
0.0 0.0 0.0 
0.0 0.0 0.0 
0.0 0.0 0.0 
0.0 0.0 0.0 
0.0 0.0 0.0 
0.0 0.0 0.0 
0.0 0.0 0.0 
0.0 0.0 0.0 
0.0 0.0 0.0 
0.0 0.0 0.0 
0.0 0.0 0.0 
0.0 0.0 0.0 
0.0 0.0 0.0 
0.0 0.0 0.0 
0.0 0.0 0.0 
0.0 0.0 0.0 
0.0 0.0 0.0 
0.0 0.0 0.0 
0.0 0.0 0.0 
0.0 0.0 0.0 
0.0 0.0 0.0 
0.0 0.0 0.0 
0.0 0.0 0.0 
0.0 0.0 0.0 
0.0 0.0 0.0 
0.0 0.0 0.0 
0.0 0.0 0.0 
0.0 0.0 0.0 
0.0 0.0 0.0 
0.0 0.0 0.0 
0.0 0.0 0.0 
0.0 0.0 0.0 
0.0 0.0 0.0 
0.0 0.0 0.0 
0.0 0.0 0.0 
0.0 0.0 0.0 
0.0 0.0 0.0 
0.0 0.0 0.0 
0.0 0.0 0.0 
0.0 0.0 0.0 
0.0 0.0 0.0 
0.0 0.0 0.0 
0.0 0.0 0.0 
0.0 0.0 0.0 
0.0 0.0 0.0 
0.0 0.0 0.0 
0.0 0.0 0.0 
0.0 0.0 0.0 
0.0 0.0 0.0 
0.0 0.0 0.0 
0.0 0.0 0.0 
0.0 0.0 0.0 
0.0 0.0 0.0 
0.0 0.0 0.0 
0.0 0.0 0.0 
0.0 0.0 0.0 
0.0 0.0 0.0 
0.0 0.0 0.0 
0.0 0.0 0.0 
0.0 0.0 0.0 
0.0 0.0 0.0 
0.0 0.0 0.0 
0.0 0.0 0.0 
0.0 0.0 0.0 
0.0 0.0 0.0 
0.0 0.0 0.0 
0.0 0.0 0.0 
0.0 0.0 0.0 
0.0 0.0 0.0 
0.0 0.0 0.0 
0.0 0.0 0.0 
0.0 0.0 0.0 
0.0 0.0 0.0 
0.0 0.0 0.0 
0.0 0.0 0.0 
0.0 0.0 0.0 
0.0 0.0 0.0 
0.0 0.0 0.0 
0.0 0.0 0.0 
0.0 0.0 0.0 
0.0 0.0 0.0 
0.0 0.0 0.0 
0.0 0.0 0.0 
0.0 0.0 0.0 
0.0 0.0 0.0 
0.0 0.0 0.0 
0.0 0.0 0.0 
0.0 0.0 0.0 
0.0 0.0 0.0 
0.0 0.0 0.0 
0.0 0.0 0.0 
0.0 0.0 0.0 
0.0 0.0 0.0 
0.0 0.0 0.0 
0.0 0.0 0.0 
0.0 0.0 0.0 
0.0 0.0 0.0 
0.0 0.0 0.0 
0.0 0.0 0.0 
0.0 0.0 0.0 
0.0 0.0 0.0 
0.0 0.0 0.0 
0.0 0.0 0.0 
0.0 0.0 0.0 
0.0 0.0 0.0 
0.0 0.0 0.0 
0.0 0.0 0.0 
0.0 0.0 0.0 
0.0 0.0 0.0 
0.0 0.0 0.0 
0.0 0.0 0.0 
0.0 0.0 0.0 
0.0 0.0 0.0 
0.0 0.0 0.0 
0.0 0.0 0.0 
0.0 0.0 0.0 
0.0 0.0 0.0 
0.0 0.0 0.0 
0.0 0.0 0.0 
0.0 0.0 0.0 
0.0 0.0 0.0 
0.0 0.0 0.0 
0.0 0.0 0.0 
0.0 0.0 0.0 
0.0 0.0 0.0 
0.0 0.0 0.0 
0.0 0.0 0.0 
0.0 0.0 0.0 
0.0 0.0 0.0 
0.0 0.0 0.0 
0.0 0.0 0.0 
0.0 0.0 0.0 
0.0 0.0 0.0 
0.0 0.0 0.0 
0.0 0.0 0.0 
0.0 0.0 0.0 
0.0 0.0 0.0 
0.0 0.0 0.0 
0.0 0.0 0.0 
0.0 0.0 0.0 
0.0 0.0 0.0 
0.0 0.0 0.0 
0.0 0.0 0.0 
0.0 0.0 0.0 
0.0 0.0 0.0 
0.0 0.0 0.0 
0.0 0.0 0.0 
0.0 0.0 0.0 
0.0 0.0 0.0 
0.0 0.0 0.0 
0.0 0.0 0.0 
0.0 0.0 0.0 
0.0 0.0 0.0 
0.0 0.0 0.0 
0.0 0.0 0.0 
0.0 0.0 0.0 
0.0 0.0 0.0 
0.0 0.0 0.0 
0.0 0.0 0.0 
0.0 0.0 0.0 
0.0 0.0 0.0 
0.0 0.0 0.0 
0.0 0.0 0.0 
0.0 0.0 0.0 
0.0 0.0 0.0 
0.0 0.0 0.0 
0.0 0.0 0.0 
0.0 0.0 0.0 
0.0 0.0 0.0 
0.0 0.0 0.0 
0.0 0.0 0.0 
0.0 0.0 0.0 
0.0 0.0 0.0 
0.0 0.0 0.0 
0.0 0.0 0.0 
0.0 0.0 0.0 
0.0 0.0 0.0 
0.0 0.0 0.0 
0.0 0.0 0.0 
0.0 0.0 0.0 
0.0 0.0 0.0 
0.0 0.0 0.0 
0.0 0.0 0.0 
0.0 0.0 0.0 
0.0 0.0 0.0 
0.0 0.0 0.0 
0.0 0.0 0.0 
0.0 0.0 0.0 
0.0 0.0 0.0 
0.0 0.0 0.0 
0.0 0.0 0.0 
0.0 0.0 0.0 
0.0 0.0 0.0 
0.0 0.0 0.0 
0.0 0.0 0.0 
0.0 0.0 0.0 
0.0 0.0 0.0 
0.0 0.0 0.0 
0.0 0.0 0.0 
0.0 0.0 0.0 
0.0 0.0 0.0 
0.0 0.0 0.0 
0.0 0.0 0.0 
0.0 0.0 0.0 
0.0 0.0 0.0 
0.0 0.0 0.0 
0.0 0.0 0.0 
0.0 0.0 0.0 
0.0 0.0 0.0 
0.0 0.0 0.0 
0.0 0.0 0.0 
0.0 0.0 0.0 
0.0 0.0 0.0 
0.0 0.0 0.0 
0.0 0.0 0.0 
0.0 0.0 0.0 
0.0 0.0 0.0 
0.0 0.0 0.0 
0.0 0.0 0.0 
0.0 0.0 0.0 
0.0 0.0 0.0 
0.0 0.0 0.0 
0.0 0.0 0.0 
0.0 0.0 0.0 
0.0 0.0 0.0 
0.0 0.0 0.0 
0.0 0.0 0.0 
0.0 0.0 0.0 
0.0 0.0 0.0 
0.0 0.0 0.0 
0.0 0.0 0.0 
0.0 0.0 0.0 
0.0 0.0 0.0 
0.0 0.0 0.0 
0.0 0.0 0.0 
0.0 0.0 0.0 
0.0 0.0 0.0 
0.0 0.0 0.0 
0.0 0.0 0.0 
0.0 0.0 0.0 
0.0 0.0 0.0 
0.0 0.0 0.0 
0.0 0.0 0.0 
0.0 0.0 0.0 
0.0 0.0 0.0 
0.0 0.0 0.0 
0.0 0.0 0.0 
0.0 0.0 0.0 
0.0 0.0 0.0 
0.0 0.0 0.0 
0.0 0.0 0.0 
0.0 0.0 0.0 
0.0 0.0 0.0 
0.0 0.0 0.0 
0.0 0.0 0.0 
0.0 0.0 0.0 
0.0 0.0 0.0 
0.0 0.0 0.0 
0.0 0.0 0.0 
0.0 0.0 0.0 
0.0 0.0 0.0 
0.0 0.0 0.0 
0.0 0.0 0.0 
0.0 0.0 0.0 
0.0 0.0 0.0 
0.0 0.0 0.0 
0.0 0.0 0.0 
0.0 0.0 0.0 
0.0 0.0 0.0 
0.0 0.0 0.0 
0.0 0.0 0.0 
0.0 0.0 0.0 
0.0 0.0 0.0 
0.0 0.0 0.0 
0.0 0.0 0.0 
0.0 0.0 0.0 
0.0 0.0 0.0 
0.0 0.0 0.0 
0.0 0.0 0.0 
0.0 0.0 0.0 
0.0 0.0 0.0 
0.0 0.0 0.0 
0.0 0.0 0.0 
0.0 0.0 0.0 
0.0 0.0 0.0 
0.0 0.0 0.0 
0.0 0.0 0.0 
0.0 0.0 0.0 
0.0 0.0 0.0 
0.0 0.0 0.0 
0.0 0.0 0.0 
0.0 0.0 0.0 
0.0 0.0 0.0 
0.0 0.0 0.0 
0.0 0.0 0.0 
0.0 0.0 0.0 
0.0 0.0 0.0 
0.0 0.0 0.0 
0.0 0.0 0.0 
0.0 0.0 0.0 
0.0 0.0 0.0 
0.0 0.0 0.0 
0.0 0.0 0.0 
0.0 0.0 0.0 
0.0 0.0 0.0 
0.0 0.0 0.0 
0.0 0.0 0.0 
0.0 0.0 0.0 
0.0 0.0 0.0 
0.0 0.0 0.0 
0.0 0.0 0.0 
0.0 0.0 0.0 
0.0 0.0 0.0 
0.0 0.0 0.0 
0.0 0.0 0.0 
0.0 0.0 0.0 
0.0 0.0 0.0 
0.0 0.0 0.0 
0.0 0.0 0.0 
0.0 0.0 0.0 
0.0 0.0 0.0 
0.0 0.0 0.0 
0.0 0.0 0.0 
0.0 0.0 0.0 
0.0 0.0 0.0 
0.0 0.0 0.0 
0.0 0.0 0.0 
0.0 0.0 0.0 
0.0 0.0 0.0 
0.0 0.0 0.0 
0.0 0.0 0.0 
0.0 0.0 0.0 
0.0 0.0 0.0 
0.0 0.0 0.0 
0.0 0.0 0.0 
0.0 0.0 0.0 
0.0 0.0 0.0 
0.0 0.0 0.0 
0.0 0.0 0.0 
0.0 0.0 0.0 
0.0 0.0 0.0 
0.0 0.0 0.0 
0.0 0.0 0.0 
0.0 0.0 0.0 
0.0 0.0 0.0 
0.0 0.0 0.0 
0.0 0.0 0.0 
0.0 0.0 0.0 
0.0 0.0 0.0 
0.0 0.0 0.0 
0.0 0.0 0.0 
0.0 0.0 0.0 
0.0 0.0 0.0 
0.0 0.0 0.0 
0.0 0.0 0.0 
0.0 0.0 0.0 
0.0 0.0 0.0 
0.0 0.0 0.0 
0.0 0.0 0.0 
0.0 0.0 0.0 
0.0 0.0 0.0 
0.0 0.0 0.0 
0.0 0.0 0.0 
0.0 0.0 0.0 
0.0 0.0 0.0 
0.0 0.0 0.0 
0.0 0.0 0.0 
0.0 0.0 0.0 
0.0 0.0 0.0 
0.0 0.0 0.0 
0.0 0.0 0.0 
0.0 0.0 0.0 
0.0 0.0 0.0 
0.0 0.0 0.0 
0.0 0.0 0.0 
0.0 0.0 0.0 
0.0 0.0 0.0 
0.0 0.0 0.0 
0.0 0.0 0.0 
0.0 0.0 0.0 
0.0 0.0 0.0 
0.0 0.0 0.0 
0.0 0.0 0.0 
0.0 0.0 0.0 
0.0 0.0 0.0 
0.0 0.0 0.0 
0.0 0.0 0.0 
0.0 0.0 0.0 
0.0 0.0 0.0 
0.0 0.0 0.0 
0.0 0.0 0.0 
0.0 0.0 0.0 
0.0 0.0 0.0 
0.0 0.0 0.0 
0.0 0.0 0.0 
0.0 0.0 0.0 
0.0 0.0 0.0 
0.0 0.0 0.0 
0.0 0.0 0.0 
0.0 0.0 0.0 
0.0 0.0 0.0 
0.0 0.0 0.0 
0.0 0.0 0.0 
0.0 0.0 0.0 
0.0 0.0 0.0 
0.0 0.0 0.0 
0.0 0.0 0.0 
0.0 0.0 0.0 
0.0 0.0 0.0 
0.0 0.0 0.0 
0.0 0.0 0.0 
0.0 0.0 0.0 
0.0 0.0 0.0 
0.0 0.0 0.0 
0.0 0.0 0.0 
0.0 0.0 0.0 
0.0 0.0 0.0 
0.0 0.0 0.0 
0.0 0.0 0.0 
0.0 0.0 0.0 
0.0 0.0 0.0 
0.0 0.0 0.0 
0.0 0.0 0.0 
0.0 0.0 0.0 
0.0 0.0 0.0 
0.0 0.0 0.0 
0.0 0.0 0.0 
0.0 0.0 0.0 
0.0 0.0 0.0 
0.0 0.0 0.0 
0.0 0.0 0.0 
0.0 0.0 0.0 
0.0 0.0 0.0 
0.0 0.0 0.0 
0.0 0.0 0.0 
0.0 0.0 0.0 
0.0 0.0 0.0 
0.0 0.0 0.0 
0.0 0.0 0.0 
0.0 0.0 0.0 
0.0 0.0 0.0 
0.0 0.0 0.0 
0.0 0.0 0.0 
0.0 0.0 0.0 
0.0 0.0 0.0 
0.0 0.0 0.0 
0.0 0.0 0.0 
0.0 0.0 0.0 
0.0 0.0 0.0 
0.0 0.0 0.0 
0.0 0.0 0.0 
0.0 0.0 0.0 
0.0 0.0 0.0 
0.0 0.0 0.0 
0.0 0.0 0.0 
0.0 0.0 0.0 
0.0 0.0 0.0 
0.0 0.0 0.0 
0.0 0.0 0.0 
0.0 0.0 0.0 
0.0 0.0 0.0 
0.0 0.0 0.0 
0.0 0.0 0.0 
0.0 0.0 0.0 
0.0 0.0 0.0 
0.0 0.0 0.0 
0.0 0.0 0.0 
0.0 0.0 0.0 
0.0 0.0 0.0 
0.0 0.0 0.0 
0.0 0.0 0.0 
0.0 0.0 0.0 
0.0 0.0 0.0 
0.0 0.0 0.0 
0.0 0.0 0.0 
0.0 0.0 0.0 
0.0 0.0 0.0 
0.0 0.0 0.0 
0.0 0.0 0.0 
0.0 0.0 0.0 
0.0 0.0 0.0 
0.0 0.0 0.0 
0.0 0.0 0.0 
0.0 0.0 0.0 
0.0 0.0 0.0 
0.0 0.0 0.0 
0.0 0.0 0.0 
0.0 0.0 0.0 
0.0 0.0 0.0 
0.0 0.0 0.0 
0.0 0.0 0.0 
0.0 0.0 0.0 
0.0 0.0 0.0 
0.0 0.0 0.0 
0.0 0.0 0.0 
0.0 0.0 0.0 
0.0 0.0 0.0 
0.0 0.0 0.0 
0.0 0.0 0.0 
0.0 0.0 0.0 
0.0 0.0 0.0 
0.0 0.0 0.0 
0.0 0.0 0.0 
0.0 0.0 0.0 
0.0 0.0 0.0 
0.0 0.0 0.0 
0.0 0.0 0.0 
0.0 0.0 0.0 
0.0 0.0 0.0 
0.0 0.0 0.0 
0.0 0.0 0.0 
0.0 0.0 0.0 
0.0 0.0 0.0 
0.0 0.0 0.0 
0.0 0.0 0.0 
0.0 0.0 0.0 
0.0 0.0 0.0 
0.0 0.0 0.0 
0.0 0.0 0.0 
0.0 0.0 0.0 
0.0 0.0 0.0 
0.0 0.0 0.0 
0.0 0.0 0.0 
0.0 0.0 0.0 
0.0 0.0 0.0 
0.0 0.0 0.0 
0.0 0.0 0.0 
0.0 0.0 0.0 
0.0 0.0 0.0 
0.0 0.0 0.0 
0.0 0.0 0.0 
0.0 0.0 0.0 
0.0 0.0 0.0 
0.0 0.0 0.0 
0.0 0.0 0.0 
0.0 0.0 0.0 
0.0 0.0 0.0 
0.0 0.0 0.0 
0.0 0.0 0.0 
0.0 0.0 0.0 
0.0 0.0 0.0 
0.0 0.0 0.0 
0.0 0.0 0.0 
0.0 0.0 0.0 
0.0 0.0 0.0 
0.0 0.0 0.0 
0.0 0.0 0.0 
0.0 0.0 0.0 
0.0 0.0 0.0 
0.0 0.0 0.0 
0.0 0.0 0.0 
0.0 0.0 0.0 
0.0 0.0 0.0 
0.0 0.0 0.0 
0.0 0.0 0.0 
0.0 0.0 0.0 
0.0 0.0 0.0 
0.0 0.0 0.0 
0.0 0.0 0.0 
0.0 0.0 0.0 
0.0 0.0 0.0 
0.0 0.0 0.0 
0.0 0.0 0.0 
0.0 0.0 0.0 
0.0 0.0 0.0 
0.0 0.0 0.0 
0.0 0.0 0.0 
0.0 0.0 0.0 
0.0 0.0 0.0 
0.0 0.0 0.0 
0.0 0.0 0.0 
0.0 0.0 0.0 
0.0 0.0 0.0 
0.0 0.0 0.0 
0.0 0.0 0.0 
0.0 0.0 0.0 
0.0 0.0 0.0 
0.0 0.0 0.0 
0.0 0.0 0.0 
0.0 0.0 0.0 
0.0 0.0 0.0 
0.0 0.0 0.0 
0.0 0.0 0.0 
0.0 0.0 0.0 
0.0 0.0 0.0 
0.0 0.0 0.0 
0.0 0.0 0.0 
0.0 0.0 0.0 
0.0 0.0 0.0 
0.0 0.0 0.0 
0.0 0.0 0.0 
0.0 0.0 0.0 
0.0 0.0 0.0 
0.0 0.0 0.0 
0.0 0.0 0.0 
0.0 0.0 0.0 
0.0 0.0 0.0 
0.0 0.0 0.0 
0.0 0.0 0.0 
0.0 0.0 0.0 
0.0 0.0 0.0 
0.0 0.0 0.0 
0.0 0.0 0.0 
0.0 0.0 0.0 
0.0 0.0 0.0 
0.0 0.0 0.0 
0.0 0.0 0.0 
0.0 0.0 0.0 
0.0 0.0 0.0 
0.0 0.0 0.0 
0.0 0.0 0.0 
0.0 0.0 0.0 
0.0 0.0 0.0 
0.0 0.0 0.0 
0.0 0.0 0.0 
0.0 0.0 0.0 
0.0 0.0 0.0 
0.0 0.0 0.0 
0.0 0.0 0.0 
0.0 0.0 0.0 
0.0 0.0 0.0 
0.0 0.0 0.0 
0.0 0.0 0.0 
0.0 0.0 0.0 
0.0 0.0 0.0 
0.0 0.0 0.0 
0.0 0.0 0.0 
0.0 0.0 0.0 
0.0 0.0 0.0 
0.0 0.0 0.0 
0.0 0.0 0.0 
0.0 0.0 0.0 
0.0 0.0 0.0 
0.0 0.0 0.0 
0.0 0.0 0.0 
0.0 0.0 0.0 
0.0 0.0 0.0 
0.0 0.0 0.0 
0.0 0.0 0.0 
0.0 0.0 0.0 
0.0 0.0 0.0 
0.0 0.0 0.0 
0.0 0.0 0.0 
0.0 0.0 0.0 
0.0 0.0 0.0 
0.0 0.0 0.0 
0.0 0.0 0.0 
0.0 0.0 0.0 
0.0 0.0 0.0 
0.0 0.0 0.0 
0.0 0.0 0.0 
0.0 0.0 0.0 
0.0 0.0 0.0 
0.0 0.0 0.0 
0.0 0.0 0.0 
0.0 0.0 0.0 
0.0 0.0 0.0 
0.0 0.0 0.0 
0.0 0.0 0.0 
0.0 0.0 0.0 
0.0 0.0 0.0 
0.0 0.0 0.0 
0.0 0.0 0.0 
0.0 0.0 0.0 
0.0 0.0 0.0 
0.0 0.0 0.0 
0.0 0.0 0.0 
0.0 0.0 0.0 
0.0 0.0 0.0 
0.0 0.0 0.0 
0.0 0.0 0.0 
0.0 0.0 0.0 
0.0 0.0 0.0 
0.0 0.0 0.0 
0.0 0.0 0.0 
0.0 0.0 0.0 
0.0 0.0 0.0 
0.0 0.0 0.0 
0.0 0.0 0.0 
0.0 0.0 0.0 
0.0 0.0 0.0 
0.0 0.0 0.0 
0.0 0.0 0.0 
0.0 0.0 0.0 
0.0 0.0 0.0 
0.0 0.0 0.0 
0.0 0.0 0.0 
0.0 0.0 0.0 
0.0 0.0 0.0 
0.0 0.0 0.0 
0.0 0.0 0.0 
0.0 0.0 0.0 
0.0 0.0 0.0 
0.0 0.0 0.0 
0.0 0.0 0.0 
0.0 0.0 0.0 
0.0 0.0 0.0 
0.0 0.0 0.0 
0.0 0.0 0.0 
0.0 0.0 0.0 
0.0 0.0 0.0 
0.0 0.0 0.0 
0.0 0.0 0.0 
0.0 0.0 0.0 
0.0 0.0 0.0 
0.0 0.0 0.0 
0.0 0.0 0.0 
0.0 0.0 0.0 
0.0 0.0 0.0 
0.0 0.0 0.0 
0.0 0.0 0.0 
0.0 0.0 0.0 
0.0 0.0 0.0 
0.0 0.0 0.0 
0.0 0.0 0.0 
0.0 0.0 0.0 
0.0 0.0 0.0 
0.0 0.0 0.0 
0.0 0.0 0.0 
0.0 0.0 0.0 
0.0 0.0 0.0 
0.0 0.0 0.0 
0.0 0.0 0.0 
0.0 0.0 0.0 
0.0 0.0 0.0 
0.0 0.0 0.0 
0.0 0.0 0.0 
0.0 0.0 0.0 
0.0 0.0 0.0 
0.0 0.0 0.0 
0.0 0.0 0.0 
0.0 0.0 0.0 
0.0 0.0 0.0 
0.0 0.0 0.0 
0.0 0.0 0.0 
0.0 0.0 0.0 
0.0 0.0 0.0 
0.0 0.0 0.0 
0.0 0.0 0.0 
0.0 0.0 0.0 
0.0 0.0 0.0 
0.0 0.0 0.0 
0.0 0.0 0.0 
0.0 0.0 0.0 
0.0 0.0 0.0 
0.0 0.0 0.0 
0.0 0.0 0.0 
0.0 0.0 0.0 
0.0 0.0 0.0 
0.0 0.0 0.0 
0.0 0.0 0.0 
0.0 0.0 0.0 
0.0 0.0 0.0 
0.0 0.0 0.0 
0.0 0.0 0.0 
0.0 0.0 0.0 
0.0 0.0 0.0 
0.0 0.0 0.0 
0.0 0.0 0.0 
0.0 0.0 0.0 
0.0 0.0 0.0 
0.0 0.0 0.0 
0.0 0.0 0.0 
0.0 0.0 0.0 
0.0 0.0 0.0 
0.0 0.0 0.0 
0.0 0.0 0.0 
0.0 0.0 0.0 
0.0 0.0 0.0 
0.0 0.0 0.0 
0.0 0.0 0.0 
0.0 0.0 0.0 
0.0 0.0 0.0 
0.0 0.0 0.0 
0.0 0.0 0.0 
0.0 0.0 0.0 
0.0 0.0 0.0 
0.0 0.0 0.0 
0.0 0.0 0.0 
0.0 0.0 0.0 
0.0 0.0 0.0 
0.0 0.0 0.0 
0.0 0.0 0.0 
0.0 0.0 0.0 
0.0 0.0 0.0 
0.0 0.0 0.0 
0.0 0.0 0.0 
0.0 0.0 0.0 
0.0 0.0 0.0 
0.0 0.0 0.0 
0.0 0.0 0.0 
0.0 0.0 0.0 
0.0 0.0 0.0 
0.0 0.0 0.0 
0.0 0.0 0.0 
0.0 0.0 0.0 
0.0 0.0 0.0 
0.0 0.0 0.0 
0.0 0.0 0.0 
0.0 0.0 0.0 
0.0 0.0 0.0 
0.0 0.0 0.0 
0.0 0.0 0.0 
0.0 0.0 0.0 
0.0 0.0 0.0 
0.0 0.0 0.0 
0.0 0.0 0.0 
0.0 0.0 0.0 
0.0 0.0 0.0 

VECTORS node_materi_velocity float
0.0 -2.249817455800e-04 0.0 
0.0 9.996005748041e-03 0.0 
0.0 0.0 0.0 
0.0 0.0 0.0 
0.0 -2.147550656495e-04 0.0 
0.0 -2.045364961583e-04 0.0 
0.0 -1.940126188045e-04 0.0 
0.0 -1.829956686886e-04 0.0 
0.0 -1.712157914052e-04 0.0 
0.0 -1.586054941684e-04 0.0 
0.0 -1.451439964204e-04 0.0 
0.0 -1.308605609152e-04 0.0 
0.0 -1.159092897079e-04 0.0 
0.0 -1.005020616017e-04 0.0 
0.0 -8.495616323132e-05 0.0 
0.0 -6.966860916060e-05 0.0 
0.0 -5.495936175055e-05 0.0 
0.0 -4.096981013833e-05 0.0 
0.0 -2.845661905726e-05 0.0 
0.0 -1.775663305246e-05 0.0 
0.0 -9.193497443573e-06 0.0 
0.0 -3.258373755567e-06 0.0 
0.0 -3.334554635497e-07 0.0 
0.0 0.0 0.0 
0.0 0.0 0.0 
0.0 0.0 0.0 
0.0 0.0 0.0 
0.0 0.0 0.0 
0.0 0.0 0.0 
0.0 0.0 0.0 
0.0 0.0 0.0 
0.0 0.0 0.0 
0.0 0.0 0.0 
0.0 0.0 0.0 
0.0 0.0 0.0 
0.0 0.0 0.0 
0.0 0.0 0.0 
0.0 0.0 0.0 
0.0 0.0 0.0 
0.0 0.0 0.0 
0.0 0.0 0.0 
0.0 0.0 0.0 
0.0 0.0 0.0 
0.0 0.0 0.0 
0.0 0.0 0.0 
0.0 0.0 0.0 
0.0 0.0 0.0 
0.0 0.0 0.0 
0.0 0.0 0.0 
0.0 0.0 0.0 
0.0 0.0 0.0 
0.0 0.0 0.0 
0.0 0.0 0.0 
0.0 0.0 0.0 
0.0 0.0 0.0 
0.0 0.0 0.0 
0.0 0.0 0.0 
0.0 0.0 0.0 
0.0 0.0 0.0 
0.0 0.0 0.0 
0.0 0.0 0.0 
0.0 0.0 0.0 
0.0 0.0 0.0 
0.0 0.0 0.0 
0.0 0.0 0.0 
0.0 0.0 0.0 
0.0 0.0 0.0 
0.0 0.0 0.0 
0.0 0.0 0.0 
0.0 0.0 0.0 
0.0 0.0 0.0 
0.0 0.0 0.0 
0.0 8.978993439811e-03 0.0 
0.0 7.960460529575e-03 0.0 
0.0 6.941662600226e-03 0.0 
0.0 5.923621841459e-03 0.0 
0.0 4.909154179599e-03 0.0 
0.0 3.900859318560e-03 0.0 
0.0 2.902194003664e-03 0.0 
0.0 1.917072592504e-03 0.0 
0.0 9.492951904107e-04 0.0 
1.401843415802e-04 -1.416447185596e-04 0.0 
1.502494747768e-03 7.577354842780e-03 0.0 
1.521861914348e-04 -7.495111740205e-05 0.0 
1.537755963592e-04 2.380068857613e-05 0.0 
1.525537035185e-04 1.715871674713e-04 0.0 
1.556110403114e-04 3.961068251993e-04 0.0 
1.721826046076e-04 7.342939193416e-04 0.0 
2.347563644911e-04 1.252981885639e-03 0.0 
4.460114456048e-04 2.074135409375e-03 0.0 
1.304588155911e-03 3.466210752627e-03 0.0 
1.232352790376e-03 6.295366817787e-03 0.0 
0.0 1.103138700166e-02 0.0 
1.316740552182e-04 1.000810541569e-02 0.0 
2.567651952325e-04 1.001549177061e-02 0.0 
3.724381479089e-04 1.002009079619e-02 0.0 
4.843654332256e-04 1.002560323037e-02 0.0 
5.908184953709e-04 1.002455263746e-02 0.0 
6.918180246597e-04 1.001882490467e-02 0.0 
7.856624266638e-04 1.000088145128e-02 0.0 
8.693441778388e-04 9.963768306098e-03 0.0 
9.436844674649e-04 9.895719984177e-03 0.0 
1.008594061005e-03 9.791794971389e-03 0.0 
1.066522233082e-03 9.624358235414e-03 0.0 
1.123843732858e-03 9.366541990648e-03 0.0 
1.196111370697e-03 8.983984963304e-03 0.0 
1.308348353766e-03 8.417859851696e-03 0.0 
1.515616739033e-04 -1.810427116219e-04 0.0 
1.665831883197e-04 -2.154164167780e-04 0.0 
1.815674159794e-04 -2.421258912094e-04 0.0 
1.950986305694e-04 -2.613211555001e-04 0.0 
2.049687462433e-04 -2.743996571188e-04 0.0 
2.111829394379e-04 -2.818184385030e-04 0.0 
2.135789636468e-04 -2.844969664104e-04 0.0 
2.121371056370e-04 -2.837293515331e-04 0.0 
2.071012910325e-04 -2.802941881470e-04 0.0 
1.986784128190e-04 -2.749163372558e-04 0.0 
1.871283130965e-04 -2.685344405911e-04 0.0 
1.729618688128e-04 -2.613666626345e-04 0.0 
1.563041318092e-04 -2.541811166698e-04 0.0 
1.376476066169e-04 -2.472344213861e-04 0.0 
1.172750656261e-04 -2.410103949776e-04 0.0 
9.549735981939e-05 -2.355618684010e-04 0.0 
7.257374653845e-05 -2.310943104822e-04 0.0 
4.883074499163e-05 -2.278266132630e-04 0.0 
2.457178796416e-05 -2.258300272713e-04 0.0 
5.011889972969e-04 8.125840949649e-03 0.0 
5.738710350922e-04 9.015598102236e-03 0.0 
6.388656046924e-04 9.668985730815e-03 0.0 
7.307920417915e-04 1.012342367581e-02 0.0 
8.075254856630e-04 1.044337302145e-02 0.0 
8.584130720796e-04 1.066595211167e-02 0.0 
8.761984340847e-04 1.081087913852e-02 0.0 
8.578257305643e-04 1.090656272412e-02 0.0 
8.167337067458e-04 1.097502294016e-02 0.0 
7.546797158855e-04 1.100993098224e-02 0.0 
6.762154749829e-04 1.102918930215e-02 0.0 
5.827042648088e-04 1.103755469377e-02 0.0 
4.851869782327e-04 1.104135297832e-02 0.0 
3.843155203704e-04 1.103423388458e-02 0.0 
2.862096413537e-04 1.103300027297e-02 0.0 
1.725365587008e-04 1.103857318101e-02 0.0 
1.485638478157e-04 -1.112610372438e-04 0.0 
1.537081716546e-04 -3.050575393025e-05 0.0 
1.533806475095e-04 9.035100761638e-05 0.0 
1.528348408235e-04 2.712318298551e-04 0.0 
1.587005740388e-04 5.458781173396e-04 0.0 
1.936706592530e-04 9.677111680463e-04 0.0 
3.094105101865e-04 1.615373484766e-03 0.0 
7.148169939847e-04 2.664146657062e-03 0.0 
1.467044301566e-03 4.901005829778e-03 0.0 
1.350221676631e-03 7.109702722215e-03 0.0 
1.850077522242e-04 -3.259812292130e-05 0.0 
1.233016228730e-04 1.202073138530e-05 0.0 
2.016289175094e-04 -2.743992078008e-04 0.0 
2.136031777244e-04 -2.711196104378e-04 0.0 
6.188570162591e-05 2.855995522031e-06 0.0 
2.233654313530e-04 2.731803537099e-04 0.0 
2.191074275985e-05 -9.281415224017e-05 0.0 
2.099090130066e-04 3.359600177755e-05 0.0 
3.920260134978e-04 9.369193997022e-04 0.0 
3.326457022945e-04 8.144545224731e-05 0.0 
1.267411716983e-03 2.709490160985e-03 0.0 
3.045562844007e-05 9.338891573935e-07 0.0 
1.413010977778e-04 -2.432380811037e-04 0.0 
5.042984431786e-04 1.946617064730e-04 0.0 
1.975999635352e-03 6.193836738997e-03 0.0 
2.065602684543e-05 -1.520776958350e-04 0.0 
2.042683291319e-05 -5.077101655674e-05 0.0 
6.208752870906e-04 3.515623660113e-04 0.0 
5.653257218561e-04 5.638393587388e-04 0.0 
1.619079605797e-04 7.992812756860e-04 0.0 
3.167392511835e-04 8.327948314105e-04 0.0 
4.286352609535e-04 6.766934531842e-04 0.0 
1.646540480973e-03 7.830831172960e-03 0.0 
1.090721283704e-03 8.936978135940e-03 0.0 
7.661055367021e-04 9.071600140975e-03 0.0 
8.777640108439e-05 5.400876253481e-03 0.0 
1.756739182903e-05 3.165063792143e-07 0.0 
1.848906750519e-04 -2.022317531352e-04 0.0 
8.118518999769e-05 -2.247536015536e-04 0.0 
1.294165881352e-05 -1.390471273002e-05 0.0 
4.172206275862e-04 9.144875701913e-03 0.0 
2.180160134593e-05 -1.893446572143e-04 0.0 
6.941618619953e-04 5.235361635850e-04 0.0 
2.467235211873e-04 4.887379729468e-05 0.0 
4.112696242984e-04 1.252255285668e-04 0.0 
1.732303768661e-04 2.238500710142e-05 0.0 
8.916387754470e-05 6.394362942271e-06 0.0 
2.187135172354e-04 -2.838976033295e-04 0.0 
1.315934039376e-03 8.652424785094e-03 0.0 
5.212409495262e-05 1.497871457522e-06 0.0 
7.189390853166e-05 3.442703224912e-03 0.0 
1.765218669514e-04 -2.596321807900e-04 0.0 
2.209762300574e-05 -1.239787021165e-04 0.0 
7.921528413687e-05 6.536046458420e-04 0.0 
2.797019779144e-04 5.189337095566e-04 0.0 
1.980750753638e-04 9.040488972558e-05 0.0 
6.551436418218e-04 1.570869773589e-03 0.0 
1.716977568950e-03 4.497710899426e-03 0.0 
1.723130852379e-04 -1.142982705269e-04 0.0 
9.901201430633e-05 7.330827051181e-03 0.0 
7.765359266882e-06 1.611293665344e-07 0.0 
3.628434318023e-05 -2.180916259095e-04 0.0 
4.164569794633e-05 1.501285898713e-03 0.0 
2.056513998348e-03 6.433078617464e-03 0.0 
2.323507947271e-03 5.390096003309e-03 0.0 
2.264994830039e-03 5.875934156564e-03 0.0 
2.477791786432e-03 4.715135120416e-03 0.0 
2.415174089288e-03 4.928021280560e-03 0.0 
2.519737081591e-03 4.037268135362e-03 0.0 
2.558065981773e-03 3.749446764816e-03 0.0 
2.537542145098e-03 3.228002379875e-03 0.0 
2.544428717828e-03 2.932745347054e-03 0.0 
2.411406162900e-03 4.164311408102e-03 0.0 
2.482091136335e-03 2.532661559496e-03 0.0 
2.465700454340e-03 2.264195498813e-03 0.0 
2.370498915078e-03 1.957636766339e-03 0.0 
2.342404120620e-03 1.731228281498e-03 0.0 
2.377303827971e-03 1.947049699739e-03 0.0 
2.253651354333e-03 1.473616403275e-03 0.0 
2.229053783495e-03 1.613549201038e-03 0.0 
2.115984078833e-03 1.207384641673e-03 0.0 
2.107770745505e-03 1.105218187276e-03 0.0 
1.985273185573e-03 8.956945898465e-04 0.0 
1.945226004949e-03 9.524740319697e-04 0.0 
1.835156002539e-03 6.955945679437e-04 0.0 
1.757632188230e-03 7.213681732206e-04 0.0 
1.670693055768e-03 5.139423385577e-04 0.0 
1.565308274946e-03 5.192110870192e-04 0.0 
1.502031184623e-03 3.552039072497e-04 0.0 
1.570673927736e-03 3.583302419952e-04 0.0 
1.424396355891e-03 2.330506281297e-04 0.0 
1.338449582373e-03 2.217617563860e-04 0.0 
1.280906676791e-03 1.267550085876e-04 0.0 
1.185674778435e-03 1.124064758694e-04 0.0 
1.145230077646e-03 3.901778043311e-05 0.0 
1.211158209432e-03 5.889201411435e-05 0.0 
1.091858141086e-03 -1.204027970752e-05 0.0 
1.019946224813e-03 -3.201439514017e-05 0.0 
9.804203320340e-04 -6.993551969218e-05 0.0 
9.065887577534e-04 -8.875282534044e-05 0.0 
8.782953319844e-04 -1.164105732713e-04 0.0 
8.055314493260e-04 -1.334735770649e-04 0.0 
7.854129902653e-04 -1.533897683011e-04 0.0 
8.397762405090e-04 -1.316830405585e-04 0.0 
7.553696256764e-04 -1.627379079624e-04 0.0 
7.017943054153e-04 -1.824972414479e-04 0.0 
6.784762066402e-04 -1.872822795959e-04 0.0 
7.169469899669e-04 -1.638729848128e-04 0.0 
6.470632937228e-04 -1.849660847273e-04 0.0 
6.720318029415e-04 -1.588639166355e-04 0.0 
6.093455249366e-04 -1.773462288400e-04 0.0 
5.836280638866e-04 -2.013909460553e-04 0.0 
5.515804625029e-04 -1.918243827973e-04 0.0 
5.670898703843e-04 -1.659297332560e-04 0.0 
5.149236255504e-04 -1.791215314745e-04 0.0 
4.980926022470e-04 -2.032248722472e-04 0.0 
4.664906464745e-04 -1.893236604691e-04 0.0 
4.754986204734e-04 -1.642189776128e-04 0.0 
4.317201081191e-04 -1.737198696955e-04 0.0 
4.214808415583e-04 -1.971453746794e-04 0.0 
3.907272323452e-04 -1.810162840524e-04 0.0 
3.953209818807e-04 -1.569869896438e-04 0.0 
3.580127278557e-04 -1.641872075256e-04 0.0 
3.522327699660e-04 -1.865580732102e-04 0.0 
3.228566426329e-04 -1.696099985703e-04 0.0 
3.243780540541e-04 -1.470896261240e-04 0.0 
2.922657312889e-04 -1.527087773975e-04 0.0 
2.902687366915e-04 -1.304068653749e-04 0.0 
2.891962109707e-04 -1.738188913612e-04 0.0 
2.614680019351e-04 -1.571369501491e-04 0.0 
2.574299185627e-04 -1.770325587243e-04 0.0 
2.320650211248e-04 -1.606406061010e-04 0.0 
1.131852047111e-03 1.224590800532e-05 0.0 
2.279108182599e-04 -1.792636585925e-04 0.0 
2.506398120694e-04 -1.952119436766e-04 0.0 
2.041767796273e-04 -1.634310984133e-04 0.0 
2.058537101484e-04 -1.448392170415e-04 0.0 
2.001200068284e-04 -1.808217351500e-04 0.0 
1.776656465517e-04 -1.657014083184e-04 0.0 
1.740128940838e-04 -1.819618688924e-04 0.0 
8.091476107652e-04 -1.009728276029e-04 0.0 
1.946042385438e-03 8.225235708133e-04 0.0 
1.525093638296e-04 -1.677093003859e-04 0.0 
1.494836731459e-04 -1.829150448228e-04 0.0 
1.693104672558e-04 -1.968522272407e-04 0.0 
1.459294317613e-04 -1.968178231670e-04 0.0 
2.288363943810e-03 4.989804845233e-03 0.0 
2.252717138750e-03 4.158853551034e-03 0.0 
2.127102981057e-03 4.921731214317e-03 0.0 
2.055307681238e-03 4.044245941266e-03 0.0 
1.936590933228e-03 4.731276973813e-03 0.0 
1.263900026204e-04 -1.839283238971e-04 0.0 
2.325852152815e-03 2.107515992338e-03 0.0 
2.115737743249e-03 3.363869187762e-03 0.0 
1.828648041895e-03 9.950258055044e-04 0.0 
1.210365017473e-03 2.139277561786e-04 0.0 
7.390595604280e-04 -1.358901622903e-04 0.0 
1.544009164548e-04 -1.513373842634e-04 0.0 
1.302054634561e-04 -1.543060457893e-04 0.0 
1.306452590040e-04 -1.379463354838e-04 0.0 
3.199197083534e-04 -1.234748448610e-04 0.0 
2.825235043858e-04 -1.076002685179e-04 0.0 
3.085126698231e-04 -9.953473318675e-05 0.0 
2.684788262512e-04 -8.498335925976e-05 0.0 
2.896174603556e-04 -7.613745426594e-05 0.0 
2.478481307848e-04 -6.335534414987e-05 0.0 
2.303909252598e-04 -7.167442789673e-05 0.0 
2.089383614439e-04 -5.189677645660e-05 0.0 
1.946063996897e-04 -5.968607911411e-05 0.0 
2.630481395606e-04 -5.420501794138e-05 0.0 
3.089463858135e-04 -6.618776092289e-05 0.0 
1.731273028418e-04 -4.179143515228e-05 0.0 
1.613832708345e-04 -4.905749878798e-05 0.0 
1.405670490686e-04 -3.305425628231e-05 0.0 
1.309278899396e-04 -3.977427935234e-05 0.0 
1.473097822129e-04 -5.601866037233e-05 0.0 
1.187052951735e-04 -4.639253949265e-05 0.0 
1.313681880771e-04 -6.271842577008e-05 0.0 
6.807448161849e-04 -1.293078373036e-04 0.0 
7.414783627891e-04 -1.048083803087e-04 0.0 
6.706164458675e-04 -9.780888281543e-05 0.0 
7.211644049120e-04 -7.262021530621e-05 0.0 
6.396505780354e-04 -6.623240973513e-05 0.0 
6.763638406647e-04 -4.158182963734e-05 0.0 
5.866362474927e-04 -3.661064857273e-05 0.0 
5.604154156858e-04 -5.796796252252e-05 0.0 
2.214709112591e-03 1.483829548131e-03 0.0 
6.273161885483e-04 -2.051092288640e-04 0.0 
6.363458328723e-04 -1.957478726609e-04 0.0 
5.673869447961e-04 -2.168226643875e-04 0.0 
5.637167887828e-04 -2.022624960536e-04 0.0 
5.026802316142e-04 -2.224389003761e-04 0.0 
4.884100806653e-04 -2.023301726794e-04 0.0 
4.367447722072e-04 -2.224096102431e-04 0.0 
4.500565310703e-04 -2.383392208497e-04 0.0 
3.925968482892e-04 -2.386766006361e-04 0.0 
4.042966276106e-04 -2.508853171083e-04 0.0 
3.546965656430e-04 -2.518914930702e-04 0.0 
3.642693344317e-04 -2.606540868241e-04 0.0 
1.460491809816e-03 2.435556597613e-04 0.0 
7.696268067227e-04 -4.364535527281e-05 0.0 
7.074017658979e-04 -1.448555000149e-05 0.0 
8.131547197463e-04 -1.117258036353e-05 0.0 
1.642742255266e-04 -2.102628607642e-04 0.0 
1.033356464983e-04 -3.174751733943e-05 0.0 
2.751817156016e-04 -4.427653608218e-05 0.0 
3.257733829808e-04 -5.530912294219e-05 0.0 
5.017450407939e-04 -3.052590034242e-05 0.0 
1.240401835474e-04 -1.969620579897e-04 0.0 
4.147256306627e-04 -1.967627096795e-04 0.0 
4.634672070201e-04 -1.713086646804e-04 0.0 
1.831243522335e-03 3.819875318415e-03 0.0 
1.726847374402e-03 4.444793940016e-03 0.0 
2.832563881759e-04 -3.369203569418e-05 0.0 
1.045378574083e-04 -1.852179719374e-04 0.0 
1.819289691404e-04 -3.425334374010e-05 0.0 
3.379629885598e-04 -2.349279089979e-04 0.0 
9.253536430645e-05 -3.800396383454e-05 0.0 
7.865994475352e-05 -2.486575121333e-05 0.0 
2.113161061075e-04 -7.916728097637e-05 0.0 
7.297632940036e-04 1.463530729798e-05 0.0 
8.501012165527e-04 2.373824537477e-05 0.0 
4.086478171668e-04 -2.553183660951e-04 0.0 
3.673717871639e-04 -2.626144198117e-04 0.0 
3.292942459315e-04 -2.680643994407e-04 0.0 
3.319494569160e-04 -2.678237336278e-04 0.0 
3.645918690204e-04 -2.588469225108e-04 0.0 
3.279462988862e-04 -2.621721328239e-04 0.0 
3.000639810132e-04 -2.707315403469e-04 0.0 
2.955311499379e-04 -2.638950688204e-04 0.0 
3.195452486275e-04 -2.526551684350e-04 0.0 
2.870404766672e-04 -2.533652739083e-04 0.0 
2.669873586783e-04 -2.640193869490e-04 0.0 
2.581313737066e-04 -2.528290237549e-04 0.0 
8.548461367793e-05 -1.930217147038e-05 0.0 
3.082179233228e-04 -2.494647424552e-04 0.0 
2.318195468743e-03 2.138766812824e-03 0.0 
2.328952437784e-04 -2.544548688310e-05 0.0 
5.128208449853e-04 -1.137129622520e-05 0.0 
1.589380600893e-03 3.510292319314e-03 0.0 
1.504108523680e-03 4.083690034610e-03 0.0 
1.585717649261e-03 5.064730607842e-03 0.0 
1.387262623926e-03 4.651294608960e-03 0.0 
1.275078915193e-03 3.666075107814e-03 0.0 
1.183614465009e-03 4.195249905426e-03 0.0 
1.251972407817e-03 5.204133485307e-03 0.0 
1.073636080844e-03 4.713951192479e-03 0.0 
1.109675140550e-03 5.735862453174e-03 0.0 
9.543746576584e-04 5.218320482917e-03 0.0 
8.946092709531e-04 4.200615326301e-03 0.0 
7.971502620580e-04 4.686092057480e-03 0.0 
8.326859965232e-04 5.708893190647e-03 0.0 
6.937293159575e-04 5.162296181959e-03 0.0 
7.128663189079e-04 6.186262405118e-03 0.0 
5.880807181134e-04 5.629927452120e-03 0.0 
5.569474175203e-04 4.610677235450e-03 0.0 
1.039201559818e-04 -1.971964710432e-04 0.0 
4.848602761060e-04 -4.894653566263e-05 0.0 
4.226001507774e-04 -2.404707957189e-05 0.0 
1.081759146766e-04 -1.420641015502e-04 0.0 
1.075441785411e-04 -1.257629271742e-04 0.0 
1.296476621602e-04 -1.208513967251e-04 0.0 
1.047150506877e-04 -1.088996589370e-04 0.0 
4.627908459251e-04 5.075997180698e-03 0.0 
4.270153415599e-04 4.058961314005e-03 0.0 
3.841465359753e-04 -1.603227727099e-04 0.0 
4.279828469980e-04 -1.277805938037e-04 0.0 
1.631052519271e-03 2.943968544656e-03 0.0 
6.887589222220e-05 -3.080001061590e-05 0.0 
7.938227438759e-05 -4.442856266962e-05 0.0 
1.058097467003e-03 1.041559777574e-04 0.0 
1.049584193514e-03 2.117693652276e-04 0.0 
9.079844822066e-04 1.042536536649e-04 0.0 
8.646568180417e-04 2.174432857520e-04 0.0 
1.017844209603e-03 3.523798008055e-04 0.0 
7.417096488076e-04 1.125956097862e-04 0.0 
3.582455739236e-04 -7.977795596912e-05 0.0 
7.204038636022e-04 3.673881118627e-03 0.0 
1.878041893498e-04 -2.112105193142e-04 0.0 
1.810094660848e-04 -2.239097457228e-04 0.0 
5.691723122964e-05 -1.912751389303e-05 0.0 
5.297400893732e-04 -7.732741568594e-05 0.0 
1.581020478196e-03 3.569692994834e-04 0.0 
1.441567800712e-03 2.499387835938e-04 0.0 
1.528750293033e-03 3.477883845345e-04 0.0 
1.364041052525e-03 2.490731216912e-04 0.0 
1.410472274190e-03 3.273808497779e-04 0.0 
1.226462234647e-03 2.383111663302e-04 0.0 
1.199557210095e-03 1.776166627154e-04 0.0 
7.392315845096e-04 4.447673606830e-05 0.0 
1.046988700033e-03 1.729179227331e-04 0.0 
4.901142362223e-04 6.100214918854e-03 0.0 
8.646259754192e-04 -4.179053793191e-05 0.0 
3.070520404584e-04 -2.401262898221e-04 0.0 
1.228664208421e-04 -2.084765575177e-04 0.0 
2.415661815569e-04 -2.632285451267e-04 0.0 
8.382425285490e-05 -1.868791504137e-04 0.0 
8.419909594428e-05 -1.742943951045e-04 0.0 
2.313969953417e-04 -1.606037676066e-05 0.0 
1.225626448542e-03 2.927767773577e-04 0.0 
1.427821506270e-03 4.011928779315e-04 0.0 
8.007542008056e-04 3.654482431361e-04 0.0 
9.617430118935e-04 5.342605359069e-04 0.0 
6.135671609392e-04 3.298869170740e-05 0.0 
1.940336201831e-03 5.690958873446e-03 0.0 
1.257282483765e-03 6.230649613475e-03 0.0 
1.095625551132e-03 6.767197947485e-03 0.0 
8.643330672985e-05 -1.999525514874e-04 0.0 
2.486840447777e-04 -2.720773858652e-04 0.0 
1.047105943165e-03 3.208642990737e-03 0.0 
5.205119854500e-04 -1.393705875883e-04 0.0 
4.811858206326e-04 -8.751627128793e-05 0.0 
2.885091787464e-04 -2.283777323642e-04 0.0 
2.664035376835e-04 -2.447460554556e-04 0.0 
3.499481560672e-04 4.507422725944e-03 0.0 
3.108270734122e-04 3.507106704727e-03 0.0 
1.265574715517e-04 -1.033324300639e-04 0.0 
1.009427572736e-04 -9.192229203573e-05 0.0 
2.860789301462e-04 -2.266367545644e-05 0.0 
2.324770409575e-04 -2.513423788190e-04 0.0 
3.658809768696e-04 3.055021901573e-03 0.0 
4.626026949300e-04 -6.596587523316e-05 0.0 
4.962632960345e-04 -9.445112946670e-05 0.0 
8.261673271990e-05 -1.145730977692e-04 0.0 
3.448124944731e-04 -1.123090256426e-04 0.0 
3.138755966205e-04 -1.461775295835e-04 0.0 
3.427453484842e-04 -2.384812689613e-04 0.0 
2.460022344063e-04 -2.396754136912e-04 0.0 
6.341634664523e-05 -1.773144440337e-04 0.0 
2.229202665774e-04 -7.169809497429e-06 0.0 
1.085420890367e-03 2.708974379947e-03 0.0 
1.040805576422e-03 1.280290144096e-04 0.0 
1.154238284719e-03 1.178232091779e-04 0.0 
8.757552666136e-04 1.261512853565e-04 0.0 
2.203859024608e-04 -2.609181750801e-04 0.0 
1.826696384506e-04 -1.070848037599e-05 0.0 
4.778913892529e-05 -2.462826412572e-05 0.0 
1.202500715297e-03 3.423817144406e-04 0.0 
1.410119220325e-03 4.645626120398e-04 0.0 
5.879716975824e-04 -9.936908310425e-05 0.0 
5.484638839577e-04 -3.640678550361e-05 0.0 
4.308578911618e-04 -1.860341591408e-05 0.0 
4.924473243594e-04 4.649378536830e-05 0.0 
2.512713148913e-03 3.332769168512e-03 0.0 
6.710368767441e-04 -4.833257036339e-05 0.0 
2.114069767360e-03 1.730373771675e-03 0.0 
2.158538303095e-03 2.298931392185e-03 0.0 
1.909943826051e-03 1.824004561339e-03 0.0 
1.195563891722e-03 5.231747500403e-04 0.0 
1.156672264676e-03 7.551328242117e-04 0.0 
6.338882298634e-04 -1.763872004534e-04 0.0 
8.103782841781e-04 -1.075702134138e-04 0.0 
1.527575007789e-04 -1.159811601485e-04 0.0 
1.603488443762e-04 -7.369791560884e-05 0.0 
3.500091361292e-04 -1.151151352021e-04 0.0 
7.833791281481e-04 3.198298472862e-03 0.0 
5.984778602493e-04 2.677956143760e-03 0.0 
8.342076634725e-04 6.736596874100e-03 0.0 
7.079850029540e-04 7.212272863860e-03 0.0 
1.597300172374e-04 -2.221998590941e-04 0.0 
1.754411256539e-04 -2.351096108222e-04 0.0 
2.563617527797e-04 -1.145123537693e-04 0.0 
1.876722745669e-04 -1.835378877778e-05 0.0 
1.361002000877e-03 2.609627327358e-03 0.0 
1.335092641850e-03 2.103272706519e-03 0.0 
1.619508999991e-03 2.398037429565e-03 0.0 
2.820235780094e-04 -1.148732728526e-05 0.0 
5.615540249770e-04 -2.225082177569e-04 0.0 
6.198434459196e-04 -1.193653057934e-04 0.0 
2.827530991505e-04 -2.611569069501e-04 0.0 
1.237936907006e-03 8.091393344845e-05 0.0 
1.566009198259e-04 -2.327238768376e-04 0.0 
2.015228200876e-03 9.830966646218e-04 0.0 
3.820528015709e-05 -1.431948378721e-05 0.0 
4.375713075091e-05 -9.856485192568e-06 0.0 
5.937904390297e-04 5.466969871340e-05 0.0 
2.257203337561e-03 4.846760508712e-03 0.0 
1.134753038964e-03 3.806667053678e-05 0.0 
1.045774847721e-03 -1.805595431166e-05 0.0 
1.902595800270e-03 2.420579343209e-03 0.0 
1.633763320608e-03 1.889693759982e-03 0.0 
1.653964232227e-03 1.410687353408e-03 0.0 
1.359043293700e-03 1.442180400654e-03 0.0 
3.256009501106e-04 -2.243662953918e-04 0.0 
2.910796066798e-04 -2.258079385779e-04 0.0 
9.686818896335e-04 2.417994871558e-04 0.0 
8.459385592802e-04 1.537553992908e-04 0.0 
1.130744368076e-03 3.703202179184e-04 0.0 
1.345050390435e-03 5.046330892287e-04 0.0 
4.671034856782e-04 4.076416527599e-05 0.0 
4.976089809766e-04 2.512657254938e-05 0.0 
6.319455744612e-05 -1.643854998765e-04 0.0 
8.822618260650e-04 7.666084677805e-04 0.0 
8.393594392993e-04 2.247720664494e-03 0.0 
2.159044884803e-03 3.021423634202e-03 0.0 
1.410676763446e-04 -6.464848240993e-06 0.0 
1.477810018955e-04 -1.284431535968e-05 0.0 
2.475055808154e-04 -2.581660131102e-04 0.0 
2.608392737492e-04 -2.717399273158e-04 0.0 
2.519012417516e-04 2.533226241800e-03 0.0 
3.721035119910e-04 6.746761539880e-05 0.0 
4.227455124851e-04 1.483190050262e-04 0.0 
3.320876299231e-04 6.610290022779e-07 0.0 
5.444480837100e-06 -1.176406467508e-06 0.0 
1.845919644287e-04 9.143106074837e-03 0.0 
2.783652482454e-05 -6.500467978456e-06 0.0 
1.411198578393e-03 7.516186005168e-04 0.0 
2.791383100438e-04 2.049444355104e-03 0.0 
1.030357841653e-03 1.101917568689e-05 0.0 
9.214752139129e-04 1.695802720900e-05 0.0 
3.468714913985e-04 -3.006733647478e-05 0.0 
2.000072853996e-04 3.061320586093e-03 0.0 
1.527421252809e-04 1.973961543617e-03 0.0 
1.206574456927e-03 7.249762535839e-03 0.0 
1.044368215490e-03 7.799260283702e-03 0.0 
1.391226220049e-03 6.690909317934e-03 0.0 
3.153039108783e-04 -2.088329680600e-04 0.0 
2.577668402912e-04 -1.938869073983e-04 0.0 
5.565152809602e-04 3.139662796306e-03 0.0 
1.070953810155e-04 -1.573889897417e-04 0.0 
8.350787126411e-05 -1.441940904093e-04 0.0 
2.197628166950e-04 -2.385829730946e-04 0.0 
2.307447003272e-04 -2.255580827010e-04 0.0 
1.484278214552e-04 -9.781997416093e-05 0.0 
1.762565881532e-04 -1.109721553077e-04 0.0 
1.826153338919e-03 7.317047239676e-04 0.0 
1.840326977534e-03 8.451554691530e-04 0.0 
1.690339066255e-03 4.824172260369e-04 0.0 
4.366147827448e-04 -8.117663345967e-05 0.0 
4.613612073244e-04 -1.092377940452e-04 0.0 
5.158281432899e-04 -1.236756038420e-04 0.0 
6.244435237206e-04 2.247171622457e-03 0.0 
4.209657892965e-04 1.655368535592e-03 0.0 
3.634931249351e-04 -2.219152544611e-04 0.0 
3.822386291225e-04 -2.354617443908e-04 0.0 
3.051216594968e-04 -2.093119353936e-04 0.0 
8.215085063219e-04 1.798637099477e-03 0.0 
3.044607243894e-05 -3.554336962909e-06 0.0 
4.630316177691e-05 -6.060577232588e-06 0.0 
1.715026156265e-04 -2.443453300771e-04 0.0 
1.894432263200e-04 -2.473389422973e-04 0.0 
2.756118175291e-04 -9.623285168815e-05 0.0 
2.542100661257e-04 -1.308409359178e-04 0.0 
1.270687510596e-03 1.653676149102e-03 0.0 
1.552505114071e-03 1.894268051066e-03 0.0 
9.418784957060e-04 1.299014436109e-03 0.0 
4.210271014334e-05 -1.694102246347e-04 0.0 
1.015867437786e-03 8.314676006383e-05 0.0 
2.125276637137e-04 1.062761056722e-06 0.0 
2.768513465844e-04 -1.514461891973e-06 0.0 
1.477321520868e-04 3.012718159762e-06 0.0 
7.358431239033e-04 7.255570078149e-05 0.0 
5.570811938243e-04 7.105521421592e-05 0.0 
6.609855066926e-04 1.115834102407e-04 0.0 
2.299247601539e-04 -2.391596666069e-04 0.0 
1.124575062026e-04 2.379265332510e-03 0.0 
8.111480395038e-04 7.764806493426e-03 0.0 
2.209518364232e-04 -2.519689342307e-04 0.0 
6.865154331576e-04 8.273441042493e-03 0.0 
5.928120220615e-04 7.684190209397e-03 0.0 
5.869503013610e-04 8.767031131798e-03 0.0 
4.333301464546e-05 -1.810560188731e-04 0.0 
1.282809036011e-03 7.882259550193e-03 0.0 
1.509771684696e-03 7.135787373274e-03 0.0 
1.842950104372e-04 -2.570307917114e-04 0.0 
5.636750886665e-04 1.345088213418e-03 0.0 
1.562784414083e-04 -2.415386887284e-04 0.0 
1.408641775295e-04 -2.309817688958e-04 0.0 
1.043925704279e-04 -3.671195739957e-06 0.0 
1.129831296491e-04 -8.305611778889e-06 0.0 
7.357220989794e-05 -1.202733479580e-06 0.0 
8.520172398474e-05 -4.855544522469e-06 0.0 
1.171866751992e-04 -1.370146542693e-05 0.0 
8.865488010691e-05 -9.194620318945e-06 0.0 
9.041248030189e-04 8.392581249529e-03 0.0 
5.653724551393e-05 -1.660992740793e-06 0.0 
6.389304253322e-05 -5.507785440337e-06 0.0 
3.629431620567e-05 -6.692700967872e-07 0.0 
1.307515230598e-03 1.957662379349e-03 0.0 
5.630444265581e-04 1.263605991640e-04 0.0 
4.854046049631e-04 2.526299713797e-04 0.0 
3.376214514602e-04 2.779394054993e-04 0.0 
9.308708015289e-04 3.421760519764e-04 0.0 
1.243881011474e-03 5.244260452813e-04 0.0 
2.925955734472e-05 -1.923325675885e-05 0.0 
3.443517814468e-05 -3.030154359159e-05 0.0 
4.819772607160e-04 8.225820154809e-03 0.0 
3.547570496119e-04 8.262707608252e-03 0.0 
3.977244513193e-04 7.331720372125e-03 0.0 
2.861515915906e-04 7.438092151490e-03 0.0 
3.185961040312e-04 6.524791879365e-03 0.0 
2.037938492501e-04 6.635919993803e-03 0.0 
2.502460766464e-04 5.723946600345e-03 0.0 
5.951146991102e-04 1.233945079138e-04 0.0 
2.730948121799e-04 8.077641782194e-05 0.0 
1.848195328257e-03 3.198636012586e-03 0.0 
3.516929857775e-04 3.068782725995e-05 0.0 
4.042386579747e-04 2.059022629385e-05 0.0 
1.090529646218e-03 1.050421125644e-03 0.0 
7.651254947492e-04 1.061113875334e-03 0.0 
1.181532481781e-04 -2.161591334268e-07 0.0 
6.978315665876e-04 -1.044208401531e-04 0.0 
4.342861602616e-04 8.201629517922e-04 0.0 
1.730541395773e-04 -1.681382640794e-04 0.0 
2.110236354322e-04 -1.892158678591e-04 0.0 
7.955587879421e-04 -5.214097623251e-05 0.0 
1.397953912411e-03 1.053511433249e-03 0.0 
6.639206044891e-04 2.304244036925e-04 0.0 
5.944361981529e-04 3.915150539117e-04 0.0 
3.990410480306e-04 -5.445357958627e-05 0.0 
2.012771655842e-04 -2.590038746890e-04 0.0 
3.011117159937e-04 -5.309852023415e-05 0.0 
3.678490039831e-04 5.626701737079e-03 0.0 
2.345469108310e-04 -4.070349249194e-05 0.0 
1.548894169388e-05 -2.365720875107e-05 0.0 
7.145920959253e-04 -1.434392432317e-04 0.0 
1.403396544381e-03 5.211573432645e-04 0.0 
3.834795788746e-04 -7.097066838227e-05 0.0 
6.392293044824e-04 3.044709073566e-05 0.0 
2.468624326957e-03 2.551845891813e-03 0.0 
2.476182606907e-03 4.293193363907e-03 0.0 
2.366916554899e-03 3.725685400332e-03 0.0 
7.149609880392e-04 -1.685389729080e-04 0.0 
7.221218649556e-04 5.558440386873e-04 0.0 
4.880462376495e-04 5.933707492582e-04 0.0 
2.038420732753e-03 1.288206055156e-03 0.0 
1.881783322474e-03 2.611993820024e-03 0.0 
1.814496925873e-03 2.069267507680e-03 0.0 
1.437740497354e-03 1.455360127779e-03 0.0 
1.689767013182e-03 1.594987849182e-03 0.0 
2.037513461424e-03 2.161290233314e-03 0.0 
1.906345300879e-03 1.667452621590e-03 0.0 
1.517347332171e-03 1.198651139407e-03 0.0 
1.726742288730e-03 1.254336521667e-03 0.0 
1.205208544459e-03 7.873999018813e-04 0.0 
1.499611232443e-03 9.136805306357e-04 0.0 
1.886121205930e-03 1.257555314497e-03 0.0 
1.677896351680e-03 9.396506333671e-04 0.0 
1.310514860302e-03 6.837366052274e-04 0.0 
2.000574726588e-03 1.225486805152e-03 0.0 
2.959188527440e-04 3.659722592219e-05 0.0 
9.198121110844e-04 -4.587762038422e-05 0.0 
2.447634132214e-04 -2.195135539318e-04 0.0 
2.216873291258e-04 -1.617501475180e-04 0.0 
1.614419778817e-03 7.397503490737e-04 0.0 
6.364430892042e-04 4.122448075028e-04 0.0 
6.082791297856e-04 5.293145773153e-04 0.0 
5.478559715587e-04 -1.770988272735e-04 0.0 
4.560626278358e-04 1.563793657321e-04 0.0 
2.373297981074e-03 2.828050356873e-03 0.0 
3.728948817377e-04 -2.173728306506e-04 0.0 
3.759499053843e-04 1.028890532448e-04 0.0 
2.109341104615e-03 2.728739668309e-03 0.0 
2.294028901922e-03 2.766611868060e-03 0.0 
2.309164973506e-03 3.435213398864e-03 0.0 
5.106408325357e-04 5.855323504821e-04 0.0 
1.585663574510e-03 6.080877349431e-03 0.0 
2.197095829954e-04 3.896438530753e-05 0.0 
8.033904753019e-04 -7.563084190459e-05 0.0 
8.839967350065e-04 -7.393717553080e-05 0.0 
8.739173602746e-04 -1.047025218615e-04 0.0 
2.074640862112e-03 1.679434671483e-03 0.0 
1.393527275969e-04 1.485192644804e-05 0.0 
2.429810704984e-04 1.707447590483e-05 0.0 
2.130757794400e-04 1.174727259628e-05 0.0 
3.284442854773e-04 8.813980601918e-06 0.0 
1.057392385884e-04 9.235767678418e-06 0.0 
5.426896136979e-04 2.682553375166e-04 0.0 
4.889536473199e-04 2.127486949011e-04 0.0 
3.559644642754e-04 -2.503756872530e-04 0.0 
3.968053429806e-04 -2.463063632787e-04 0.0 
4.258508094978e-04 -2.305858511526e-04 0.0 
4.421188576207e-04 -2.402828080426e-04 0.0 
4.059004115946e-04 -2.533612384777e-04 0.0 
4.520819651919e-04 -2.458219320691e-04 0.0 
4.920082306476e-04 -2.320975542974e-04 0.0 
4.548130443235e-04 -2.457010964455e-04 0.0 
1.580451762115e-03 6.937694620612e-04 0.0 
7.784040165248e-05 5.311066470358e-06 0.0 
3.339091900234e-04 -9.021781377981e-05 0.0 
3.801391873744e-04 -1.055631490910e-04 0.0 
3.921388932834e-04 -1.316030429049e-04 0.0 
1.793123249824e-04 -1.298465330741e-04 0.0 
2.045743080019e-04 -1.253756540163e-04 0.0 
1.997975622390e-04 -1.055183431526e-04 0.0 
1.546547102097e-04 -1.340067208233e-04 0.0 
1.298554710023e-03 1.726993390959e-04 0.0 
6.767525493773e-05 3.678521263037e-06 0.0 
5.579388612922e-04 -1.073571251184e-04 0.0 
2.331138947569e-04 -1.408751332487e-04 0.0 
1.466822636054e-03 8.309221971233e-03 0.0 
1.800389259302e-03 7.208736115713e-03 0.0 
2.011788985441e-03 6.684492491101e-03 0.0 
2.081844769506e-03 5.987089051118e-03 0.0 
1.604435780855e-03 7.509359892259e-03 0.0 
1.214153977075e-04 -8.588059927430e-05 0.0 
9.551373624004e-05 -7.521643103602e-05 0.0 
7.607466857434e-05 -8.174818746766e-05 0.0 
7.086282430313e-05 -6.577690380617e-05 0.0 
5.220840761945e-05 -7.271884560717e-05 0.0 
5.625102671905e-05 -8.824840571987e-05 0.0 
4.714242204420e-05 -5.740612361039e-05 0.0 
2.991022320368e-05 -6.640004688279e-05 0.0 
1.198939190200e-03 8.840957609233e-03 0.0 
2.182801303150e-04 -2.801970764113e-04 0.0 
2.326142182521e-04 -2.821533112519e-04 0.0 
2.274465647390e-04 -2.824654703699e-04 0.0 
2.448914377939e-04 -2.806892443046e-04 0.0 
2.533946040689e-04 -2.792251072994e-04 0.0 
2.721216152316e-04 -2.772151214067e-04 0.0 
2.782740091256e-04 -2.753421368744e-04 0.0 
2.349087882802e-04 -2.769443322685e-04 0.0 
2.160653499404e-04 -2.834017748028e-04 0.0 
2.202442108383e-04 -2.792811887500e-04 0.0 
2.102782091679e-04 -2.800121764366e-04 0.0 
2.103236970591e-04 -2.739209086333e-04 0.0 
2.260623602023e-04 -2.717963697617e-04 0.0 
1.963531685368e-04 -2.370088716047e-04 0.0 
1.531810920136e-05 1.476160107642e-07 0.0 
2.217976945678e-05 -1.086799153175e-04 0.0 
4.347426708331e-05 -1.178448357617e-04 0.0 
4.332653326882e-05 -1.324035721250e-04 0.0 
6.658618665394e-05 -1.272101945775e-04 0.0 
4.176419166892e-05 -1.036362290966e-04 0.0 
2.155751345380e-05 -1.384739991553e-04 0.0 
4.214689391366e-05 -1.450158944355e-04 0.0 
5.871225218881e-05 -2.206498225114e-04 0.0 
4.623638335800e-05 -2.103538240135e-04 0.0 
2.134334737362e-05 -2.089368063253e-04 0.0 
3.445488597404e-05 -2.001493163937e-04 0.0 
5.677403876834e-05 -2.035182920014e-04 0.0 
6.863610179284e-05 -2.139685774915e-04 0.0 
9.062488772047e-05 -2.190912507827e-04 0.0 
1.029845001777e-04 -2.301551976610e-04 0.0 
1.111260750012e-04 -2.251374105705e-04 0.0 
9.973011770269e-05 -2.131629331488e-04 0.0 
1.227066161488e-04 -2.363698135883e-04 0.0 
8.433438733636e-05 4.397514582472e-03 0.0 
1.639171152092e-04 3.900086032266e-03 0.0 
5.414764066071e-05 1.937263706298e-06 0.0 
9.796148157850e-04 8.977776764022e-03 0.0 
1.902744373495e-04 -2.672373295530e-04 0.0 
1.502894158975e-04 9.657213148788e-04 0.0 
2.441244826886e-04 7.808050697912e-04 0.0 
1.921934663240e-04 7.650322288512e-04 0.0 
9.224439890642e-06 -6.107954235950e-06 0.0 
1.479381134969e-05 -3.503428296725e-06 0.0 
8.003914739254e-05 9.437566509467e-04 0.0 
1.942191372194e-04 -1.967541172161e-04 0.0 
1.272782051608e-03 1.083374825902e-03 0.0 
4.076080562904e-04 2.600770493440e-03 0.0 
3.471331094699e-04 -1.868336071112e-04 0.0 
2.596143303055e-04 -2.261761013038e-04 0.0 
5.562358994719e-05 -3.684054964873e-05 0.0 
1.782350434756e-04 -6.689113515673e-05 0.0 
6.304603012245e-05 -1.407379345986e-05 0.0 
1.043441778462e-04 -5.295819612959e-05 0.0 
1.113360245268e-04 -2.558695243795e-05 0.0 
1.905319066497e-04 7.708331144652e-06 0.0 
6.482999724725e-05 -1.890723896425e-04 0.0 
9.686331018433e-04 6.245800277661e-03 0.0 
6.022341478151e-04 6.657317589229e-03 0.0 
6.433656454463e-04 4.145137969701e-03 0.0 
1.286362007986e-04 -1.696946730899e-04 0.0 
8.063848017516e-05 -9.737595852943e-05 0.0 
1.426263330866e-04 -2.093148142140e-04 0.0 
7.115173129427e-04 1.985110780090e-04 0.0 
1.884323288446e-03 1.362722087856e-03 0.0 
3.577257005039e-04 -1.401018038876e-04 0.0 
1.796205842550e-04 -1.482455838476e-04 0.0 
2.213370917777e-04 -1.961923696291e-04 0.0 
2.749225709540e-04 -2.404456553393e-04 0.0 
1.045853845224e-03 2.413459418915e-05 0.0 
2.612907544330e-04 -1.361426976130e-04 0.0 
2.206547170792e-04 -4.355876683500e-05 0.0 
4.979851302741e-04 3.600524022321e-03 0.0 
1.586582368426e-04 -2.499414749479e-04 0.0 
2.289595284118e-04 -3.465100363994e-05 0.0 
2.462034374363e-04 -9.277853860291e-05 0.0 
1.424353702219e-03 5.663442815721e-03 0.0 
6.065451494503e-04 -1.405449481502e-05 0.0 
2.726800389277e-04 -2.720580106266e-04 0.0 
9.808194984117e-04 3.708784854155e-03 0.0 
1.058206816068e-03 1.797052508320e-03 0.0 
1.723988903975e-03 6.435648273176e-03 0.0 
1.400333533197e-04 -2.206616410150e-04 0.0 
9.479268412173e-04 7.291286508946e-03 0.0 
1.706633121012e-04 -3.340664849841e-06 0.0 
1.885804563283e-03 3.200874742863e-03 0.0 
1.059279504236e-04 -1.718297855544e-04 0.0 
6.225496636390e-04 -1.495135637501e-04 0.0 
1.380320162869e-03 3.502230482592e-04 0.0 
1.884829117072e-03 5.461301630482e-03 0.0 
4.334913824242e-04 2.184644808403e-03 0.0 
1.028873520451e-03 -4.547608606088e-05 0.0 
4.249922075343e-04 -7.788123549041e-06 0.0 
5.995497544148e-04 -8.823127093138e-05 0.0 
8.499073931119e-05 -1.604602341216e-04 0.0 
1.497497604255e-04 -1.949460569243e-05 0.0 
7.926532752972e-04 -1.373859853305e-04 0.0 
8.271961941658e-04 2.728059870757e-03 0.0 
1.594940484416e-03 4.486426809563e-04 0.0 
6.093416039635e-04 -2.063630028053e-04 0.0 
1.337637838379e-03 3.134556412815e-03 0.0 
4.341579015081e-04 -1.481662836510e-04 0.0 
6.164838787732e-04 9.353132832657e-06 0.0 
1.645667663263e-03 1.032411472681e-03 0.0 
1.713206888652e-03 5.019773425010e-04 0.0 
2.188921299184e-03 1.309297630913e-03 0.0 
1.335431488831e-03 1.439925922251e-04 0.0 
3.841320370695e-05 -4.325006916760e-05 0.0 
1.871123990167e-04 -2.643522807995e-05 0.0 
3.222225565925e-04 -2.622306007719e-04 0.0 
7.820577348957e-04 1.900024271942e-05 0.0 
1.772494058685e-03 5.417259742809e-03 0.0 
1.033604047006e-03 2.140899581366e-04 0.0 
6.070669849208e-04 1.766093262308e-03 0.0 
1.214657627778e-03 3.480213107944e-04 0.0 
1.471204491692e-04 -2.625883883749e-05 0.0 
1.092968942362e-03 2.245426037655e-03 0.0 
2.303320641208e-04 -1.203461408825e-04 0.0 
2.042848429371e-05 -1.774293629160e-04 0.0 
2.886595804488e-04 -1.740511629821e-04 0.0 
5.073423587774e-04 -2.331084354954e-04 0.0 
9.312242663444e-04 -9.299930800678e-05 0.0 
2.232146483212e-04 -9.959643905816e-05 0.0 
1.092979676857e-03 1.147513169486e-03 0.0 
1.161543724886e-04 -1.960096822817e-05 0.0 
3.384898131562e-04 -4.317589025318e-05 0.0 
1.796008447004e-04 -7.799917649994e-05 0.0 
2.100376276166e-03 4.009714914978e-03 0.0 
8.901419355508e-05 -1.410828451607e-05 0.0 
5.700871849777e-04 -1.373962362286e-04 0.0 
5.124984068073e-04 7.470675080574e-06 0.0 
3.346455055396e-05 -8.031002131172e-05 0.0 
6.440717246315e-04 1.565114015214e-04 0.0 
1.002151381539e-03 1.428044894034e-03 0.0 
6.561049627207e-05 -9.638290618935e-06 0.0 
4.139348807634e-04 -3.971911054009e-05 0.0 
6.176114896686e-04 -1.451696694185e-04 0.0 
3.037196352216e-04 9.151310148355e-03 0.0 
4.014305060740e-05 -2.095773273618e-06 0.0 
3.478128927018e-04 -1.664841365742e-05 0.0 
1.342978578935e-03 1.605240180749e-04 0.0 
5.215376257546e-04 -1.522351293710e-04 0.0 
1.549016047330e-03 3.461998845645e-03 0.0 
1.910712850854e-04 -8.591611768789e-05 0.0 
1.841908624724e-03 6.591364931889e-04 0.0 
4.534175831024e-04 6.104335628811e-04 0.0 
3.472940510258e-04 -4.313501600864e-06 0.0 
2.455895885775e-03 3.408349010916e-03 0.0 
1.700700167264e-04 -9.212429323520e-05 0.0 
9.232482903386e-04 -4.256898409434e-06 0.0 
7.847710886768e-05 -2.078580523056e-04 0.0 
1.598222336223e-03 2.546574153714e-03 0.0 
1.413225474135e-04 -7.990887842469e-05 0.0 
5.034563602178e-04 -2.358045476477e-04 0.0 
4.743582980451e-04 -1.371957444479e-04 0.0 
4.254958465941e-04 5.109383266012e-05 0.0 
1.140378625304e-04 -6.897026702553e-05 0.0 
5.474945557617e-04 -2.209640553407e-04 0.0 
8.830520646807e-05 -5.928299311352e-05 0.0 
8.918284913701e-04 2.009334107267e-03 0.0 
2.421255987917e-03 2.698469530855e-03 0.0 
6.339321845332e-05 -5.070810257629e-05 0.0 
1.774151578606e-03 6.087681394767e-04 0.0 
1.209275745005e-04 -2.196316552565e-04 0.0 
1.220404728890e-03 1.016023216871e-04 0.0 
2.203524311536e-05 -9.916668349595e-06 0.0 
2.819312214332e-04 -1.933692587950e-04 0.0 
4.272522063272e-04 -1.216284959564e-04 0.0 
2.211807319509e-03 2.177419399081e-03 0.0 
4.889237118582e-04 1.207250665914e-03 0.0 
4.095117931657e-04 -9.442571909214e-05 0.0 
1.630804789785e-03 5.443238474537e-04 0.0 
1.098061264470e-03 6.261515933366e-05 0.0 
9.590727383817e-04 -6.501151043756e-05 0.0 
3.799707711526e-04 -6.777234703878e-05 0.0 
6.210983884079e-04 7.977018056084e-04 0.0 
2.122886993304e-04 -2.115788758719e-04 0.0 
2.045055687582e-04 -2.250788609523e-04 0.0 
5.258821073325e-04 -2.140487515395e-04 0.0 
1.628351908544e-03 6.291962542235e-04 0.0 
4.807389337423e-05 -1.933229560226e-04 0.0 
2.177731977728e-03 1.613543808694e-03 0.0 
2.094997067042e-04 -2.495539104856e-04 0.0 
4.735940426346e-04 -2.236043425699e-04 0.0 
8.722850584698e-04 6.104585181684e-05 0.0 
9.330724483144e-05 6.377114913747e-03 0.0 
4.496735111472e-04 -2.115371273366e-04 0.0 
1.992546089573e-05 -1.650929384058e-04 0.0 
4.048680969021e-04 -2.177955589633e-04 0.0 
9.573347491815e-04 -3.450938272358e-05 0.0 
3.801228262566e-04 -2.026789694569e-04 0.0 
3.412312792599e-04 -2.066932228265e-04 0.0 
2.925520856715e-04 1.661422324786e-03 0.0 
3.162467460549e-04 -1.904065650250e-04 0.0 
3.982548482814e-05 7.808701614473e-04 0.0 
6.217026577544e-06 3.053000628352e-07 0.0 
1.147813507604e-04 8.372803064855e-03 0.0 
2.967557051953e-04 7.410269089298e-04 0.0 
1.966335244660e-04 -2.329714244774e-04 0.0 
4.318410884184e-04 3.983774636192e-04 0.0 
2.721449982909e-04 -2.108724517928e-04 0.0 
2.036500232676e-03 1.122127516391e-03 0.0 
2.389836340208e-04 8.333456646839e-03 0.0 
2.411840921001e-04 -2.114317639230e-04 0.0 
1.037870742656e-03 5.703384146855e-04 0.0 
2.784837729245e-04 6.065353835658e-05 0.0 
1.784166212622e-04 4.842774159016e-03 0.0 
4.236195005581e-04 7.013421906808e-06 0.0 
9.737887839726e-04 3.848725790485e-05 0.0 
5.557767161151e-05 2.478417611884e-03 0.0 
6.636875775658e-04 9.233590947808e-03 0.0 
1.984142537054e-04 -2.667960555638e-04 0.0 
1.813523717471e-05 -3.570912747094e-05 0.0 
2.258912059777e-04 3.986989793211e-04 0.0 
2.982950465561e-04 1.637451009080e-04 0.0 
2.495347803398e-04 1.342092725053e-05 0.0 
6.346502248554e-05 -1.515129570577e-04 0.0 
2.354339595349e-04 -2.781902168851e-04 0.0 
2.099275809357e-04 1.715690194524e-04 0.0 
2.806205409040e-04 2.312412289637e-05 0.0 
1.121100622882e-03 8.196139026960e-03 0.0 
8.947669227162e-04 9.594153084890e-05 0.0 
1.915011953465e-04 2.200915579042e-05 0.0 
7.808664095689e-04 1.424061486500e-03 0.0 
4.765344446769e-04 7.788705266732e-05 0.0 
3.523709670444e-05 9.730570735976e-07 0.0 
7.101607768213e-04 9.475397972605e-05 0.0 
2.195460024712e-04 -8.556934748048e-05 0.0 
1.844865664573e-03 6.584400091338e-03 0.0 
7.759066506801e-04 2.456394274073e-04 0.0 
2.504755810899e-04 4.043291506988e-03 0.0 
2.452477929983e-05 6.441670602099e-07 0.0 
1.390515692741e-03 8.017174298406e-03 0.0 
1.731798109411e-04 1.555467027440e-03 0.0 
2.954308197542e-04 -2.700814281705e-04 0.0 
8.669450999182e-05 1.512658648921e-03 0.0 
1.792986765713e-03 9.203619445475e-04 0.0 
5.052080440709e-04 7.122007780159e-03 0.0 
2.243178505991e-03 5.705005101173e-03 0.0 
1.766003264691e-05 -1.459017571496e-06 0.0 
1.086419747150e-03 8.030056406165e-04 0.0 
2.090281018918e-04 -1.263847203740e-04 0.0 
2.803251931456e-04 4.948294625942e-03 0.0 
8.979318718555e-05 -1.306823416125e-04 0.0 
2.289860134054e-04 -2.659410554324e-04 0.0 
9.465676146148e-05 -4.412218433338e-07 0.0 
1.471211654506e-03 7.094782170771e-04 0.0 
3.006638567055e-05 -1.694362570081e-06 0.0 
1.540526901031e-05 -1.997029631466e-04 0.0 
1.691095230390e-04 -2.507124921424e-04 0.0 
1.140942891599e-04 1.960525829554e-06 0.0 
8.683920297788e-04 3.647047851683e-04 0.0 
3.030362028534e-04 -2.731836072958e-04 0.0 
2.679383587277e-04 5.856654321612e-04 0.0 
1.909506477432e-04 -1.520337169023e-04 0.0 
8.609657543726e-04 9.303783162127e-03 0.0 
1.288565629262e-04 -2.322013816473e-04 0.0 
1.900310771179e-05 5.163009042315e-07 0.0 
4.492721838115e-04 1.443551153763e-03 0.0 
5.996151888267e-05 -1.124281448333e-04 0.0 
1.865704260370e-03 7.179823203675e-03 0.0 
4.118218564734e-05 -1.578434235873e-04 0.0 
8.157654623250e-04 1.759713111287e-04 0.0 
2.113328459513e-04 -2.665693927090e-04 0.0 
2.974159867220e-04 1.388516734834e-03 0.0 
1.456959653500e-04 5.888564342212e-06 0.0 
8.989315958418e-04 1.046742219388e-03 0.0 
1.327722659115e-04 1.951606324456e-05 0.0 
2.126859930810e-04 -2.177722835607e-04 0.0 
4.580950931766e-04 8.704229690583e-05 0.0 
2.713150601368e-04 5.881131893499e-06 0.0 
5.128646140189e-04 9.279652920840e-03 0.0 
1.041061312324e-03 9.428670875497e-04 0.0 
6.151756960120e-05 -1.394702543794e-04 0.0 
1.059331150178e-04 -2.070188700749e-04 0.0 
1.677587297446e-05 6.921033362964e-04 0.0 
1.735913895088e-05 -2.179092903579e-04 0.0 
8.982571760017e-05 9.255415613051e-03 0.0 
2.404560814644e-06 1.594762742858e-07 0.0 
6.690497304501e-05 -1.985834612049e-04 0.0 
1.923948246238e-04 7.633904500943e-03 0.0 
8.914215703811e-04 4.266434646615e-04 0.0 
1.463084818470e-05 -7.700037660615e-05 0.0 
1.264122728964e-04 3.119065363097e-03 0.0 
2.539107822247e-04 -2.765810348446e-04 0.0 
2.031508525736e-04 -2.559338764672e-04 0.0 
1.638973607791e-04 5.873164898270e-03 0.0 
3.864222496094e-04 5.720857262830e-05 0.0 
7.288057118777e-04 1.137938840691e-03 0.0 
4.144802005701e-04 6.565865679136e-03 0.0 
2.483188309663e-04 -1.578158830308e-04 0.0 
1.170787571105e-03 5.429161701726e-04 0.0 
6.168893458763e-05 -1.006145272091e-04 0.0 
9.710947066788e-04 2.829117345076e-04 0.0 
3.420209151119e-04 1.577433387286e-05 0.0 
1.655793109876e-04 -1.377847637925e-04 0.0 
1.237438414672e-05 -6.226347746146e-05 0.0 
1.444925030844e-04 -2.393363256060e-04 0.0 
5.854920583281e-05 -8.202301462310e-07 0.0 
4.020976772201e-05 -9.172355220365e-05 0.0 
1.011387505940e-03 8.019425002309e-03 0.0 
7.557640805411e-05 1.051206951896e-02 0.0 

VECTORS node_materi_displacement float
0.0 7.723552596168e-02 0.0 
0.0 1.518793942978e-01 0.0 
0.0 0.0 0.0 
0.0 0.0 0.0 
0.0 7.716354710296e-02 0.0 
0.0 7.671789052944e-02 0.0 
0.0 7.590302447558e-02 0.0 
0.0 7.471835432073e-02 0.0 
0.0 7.315370782420e-02 0.0 
0.0 7.121637024145e-02 0.0 
0.0 6.890521228015e-02 0.0 
0.0 6.621325971583e-02 0.0 
0.0 6.313488138347e-02 0.0 
0.0 5.965869223746e-02 0.0 
0.0 5.576609721914e-02 0.0 
0.0 5.144381961532e-02 0.0 
0.0 4.668574416009e-02 0.0 
0.0 4.150304426067e-02 0.0 
0.0 3.584043114566e-02 0.0 
0.0 2.969386750711e-02 0.0 
0.0 2.305340533012e-02 0.0 
0.0 1.589433848785e-02 0.0 
0.0 8.199584285394e-03 0.0 
0.0 0.0 0.0 
0.0 0.0 0.0 
0.0 0.0 0.0 
0.0 0.0 0.0 
0.0 0.0 0.0 
0.0 0.0 0.0 
0.0 0.0 0.0 
0.0 0.0 0.0 
0.0 0.0 0.0 
0.0 0.0 0.0 
0.0 0.0 0.0 
0.0 0.0 0.0 
0.0 0.0 0.0 
0.0 0.0 0.0 
0.0 0.0 0.0 
0.0 0.0 0.0 
0.0 0.0 0.0 
0.0 0.0 0.0 
0.0 0.0 0.0 
0.0 0.0 0.0 
0.0 0.0 0.0 
0.0 0.0 0.0 
0.0 0.0 0.0 
0.0 0.0 0.0 
0.0 0.0 0.0 
0.0 0.0 0.0 
0.0 0.0 0.0 
0.0 0.0 0.0 
0.0 0.0 0.0 
0.0 0.0 0.0 
0.0 0.0 0.0 
0.0 0.0 0.0 
0.0 0.0 0.0 
0.0 0.0 0.0 
0.0 0.0 0.0 
0.0 0.0 0.0 
0.0 0.0 0.0 
0.0 0.0 0.0 
0.0 0.0 0.0 
0.0 0.0 0.0 
0.0 0.0 0.0 
0.0 0.0 0.0 
0.0 0.0 0.0 
0.0 0.0 0.0 
0.0 0.0 0.0 
0.0 0.0 0.0 
0.0 0.0 0.0 
0.0 0.0 0.0 
0.0 0.0 0.0 
0.0 1.384164262180e-01 0.0 
0.0 1.245343960745e-01 0.0 
0.0 1.102387004336e-01 0.0 
0.0 9.555088961003e-02 0.0 
0.0 8.047747217876e-02 0.0 
0.0 6.504133210899e-02 0.0 
0.0 4.925811225955e-02 0.0 
0.0 3.314572909552e-02 0.0 
0.0 1.672472867384e-02 0.0 
-1.033026254555e-02 1.019772073863e-01 0.0 
1.534582681128e-02 1.446952881711e-01 0.0 
-7.403735044847e-03 1.104404191959e-01 0.0 
-4.455381724478e-03 1.197594836340e-01 0.0 
-1.141625239227e-03 1.289961984890e-01 0.0 
2.404741614554e-03 1.374451283764e-01 0.0 
6.001254848582e-03 1.446113012099e-01 0.0 
9.464497687290e-03 1.500937394672e-01 0.0 
1.253453245751e-02 1.534327743099e-01 0.0 
1.484603065500e-02 1.542080162460e-01 0.0 
1.543380910638e-02 1.517600253951e-01 0.0 
0.0 1.649410342262e-01 0.0 
9.544460549787e-04 1.519033574430e-01 0.0 
1.896315506555e-03 1.519421441077e-01 0.0 
2.835966393842e-03 1.519824588714e-01 0.0 
3.776072928996e-03 1.520219328458e-01 0.0 
4.714082198485e-03 1.520619952671e-01 0.0 
5.654905559044e-03 1.520725249056e-01 0.0 
6.604072129104e-03 1.520528346993e-01 0.0 
7.547365237878e-03 1.519593677962e-01 0.0 
8.513487036273e-03 1.517799110866e-01 0.0 
9.497012710130e-03 1.514529671238e-01 0.0 
1.050275402518e-02 1.509188793132e-01 0.0 
1.155345745352e-02 1.501042889211e-01 0.0 
1.267597790349e-02 1.489007652391e-01 0.0 
1.391405158267e-02 1.471595406519e-01 0.0 
-9.366429193090e-03 9.730273334624e-02 0.0 
-8.135987045185e-03 9.340364799927e-02 0.0 
-6.865346855458e-03 9.017656867862e-02 0.0 
-5.655570721449e-03 8.753842576606e-02 0.0 
-4.576622339454e-03 8.539714610835e-02 0.0 
-3.613470881878e-03 8.364452921017e-02 0.0 
-2.769562121136e-03 8.221800074475e-02 0.0 
-2.053065114809e-03 8.106474718069e-02 0.0 
-1.453326926712e-03 8.014220995535e-02 0.0 
-9.630023114971e-04 7.941863064596e-02 0.0 
-5.846130444201e-04 7.883699590146e-02 0.0 
-2.803861988950e-04 7.840557744983e-02 0.0 
-4.802018084551e-05 7.805276344135e-02 0.0 
8.958923550114e-05 7.777980272932e-02 0.0 
1.578415915979e-04 7.758509312698e-02 0.0 
1.864123247565e-04 7.744584106486e-02 0.0 
1.809270233241e-04 7.734548908970e-02 0.0 
1.476257440539e-04 7.728022069609e-02 0.0 
7.252333136621e-05 7.723685119548e-02 0.0 
1.354540464180e-02 1.562111419656e-01 0.0 
1.265229055114e-02 1.590152013681e-01 0.0 
1.179873213201e-02 1.610180006737e-01 0.0 
1.104279891008e-02 1.624535228506e-01 0.0 
1.030939465910e-02 1.634603116618e-01 0.0 
9.568519436159e-03 1.641480239249e-01 0.0 
8.803511251929e-03 1.645946031268e-01 0.0 
8.005034884193e-03 1.648688325087e-01 0.0 
7.180421838677e-03 1.650275779333e-01 0.0 
6.334546821695e-03 1.651007924284e-01 0.0 
5.467712638527e-03 1.651151110865e-01 0.0 
4.584639331580e-03 1.650992390157e-01 0.0 
3.693052054368e-03 1.650657849320e-01 0.0 
2.797367053019e-03 1.650225301906e-01 0.0 
1.901712023912e-03 1.649850481442e-01 0.0 
9.791137928421e-04 1.649338137383e-01 0.0 
-8.796983895176e-03 1.060208103803e-01 0.0 
-5.957662163685e-03 1.150567410046e-01 0.0 
-2.811584132590e-03 1.244436559998e-01 0.0 
6.414635220778e-04 1.333553982358e-01 0.0 
4.248396750423e-03 1.412563409217e-01 0.0 
7.804428063208e-03 1.476432983447e-01 0.0 
1.109441388930e-02 1.520545817647e-01 0.0 
1.383617029000e-02 1.541678954919e-01 0.0 
1.550638876405e-02 1.534451352103e-01 0.0 
1.551518814050e-02 1.486751988472e-01 0.0 
-1.736808121821e-03 1.132693874005e-01 0.0 
3.058081720662e-03 8.104448487094e-03 0.0 
-4.824211871309e-04 7.950969922692e-02 0.0 
-3.243956905063e-03 8.607019429331e-02 0.0 
1.905333121371e-03 7.526387495366e-03 0.0 
5.521116019471e-03 1.292610844922e-01 0.0 
6.142767573507e-04 5.769647461026e-02 0.0 
4.034079574259e-03 8.915826291964e-03 0.0 
1.239888081915e-02 1.403042705901e-01 0.0 
4.647851909968e-03 9.741422826993e-03 0.0 
1.727730356871e-02 1.443508004927e-01 0.0 
1.046232946129e-03 6.719487175242e-03 0.0 
3.120312402072e-04 7.775036560731e-02 0.0 
4.931491291258e-03 1.122808646664e-02 0.0 
1.739440121706e-02 1.365551095627e-01 0.0 
4.289408573933e-04 7.003486644564e-02 0.0 
6.415646005675e-04 4.521870016394e-02 0.0 
4.794089510654e-03 1.278621660802e-02 0.0 
3.529268916358e-03 1.331592362803e-02 0.0 
9.847525641880e-04 1.427947373760e-02 0.0 
1.860953160697e-03 1.536883097117e-02 0.0 
2.523193578977e-03 1.350739500556e-02 0.0 
1.424776567886e-02 1.361673974515e-01 0.0 
9.295090784147e-03 1.394629893247e-01 0.0 
6.178796018998e-03 1.395835342002e-01 0.0 
6.236407984941e-04 8.783457227853e-02 0.0 
6.231720239389e-04 7.198183815674e-03 0.0 
-5.729150381500e-03 9.503537157838e-02 0.0 
3.068404187047e-04 7.730162491462e-02 0.0 
4.435939095749e-04 2.695274830122e-02 0.0 
3.215652946149e-03 1.404202972274e-01 0.0 
2.558980547591e-04 7.537912185244e-02 0.0 
4.728247812440e-03 1.481829418640e-02 0.0 
4.056621299586e-03 8.572478162276e-03 0.0 
4.805449690615e-03 1.031487679020e-02 0.0 
3.792955103798e-03 8.991356653966e-03 0.0 
2.444661701839e-03 7.442698360946e-03 0.0 
-1.829147748745e-03 8.252631323673e-02 0.0 
1.157554381381e-02 1.391822274604e-01 0.0 
1.704174400781e-03 8.436653897507e-03 0.0 
4.764516721494e-04 5.786940886787e-02 0.0 
3.848234049184e-05 7.840501087637e-02 0.0 
5.532297626559e-04 6.472707375655e-02 0.0 
4.850856286280e-04 1.162969509769e-02 0.0 
9.193726952903e-03 1.348808088200e-01 0.0 
1.804010829521e-03 1.216084762335e-01 0.0 
1.523855607040e-02 1.434084323788e-01 0.0 
1.792717453557e-02 1.422739927712e-01 0.0 
-5.322167064120e-03 1.052660292862e-01 0.0 
7.428245919130e-04 1.157348227621e-01 0.0 
2.853576060443e-04 5.676431906006e-03 0.0 
1.387381420397e-04 7.720617468356e-02 0.0 
2.634265391880e-04 2.620441354751e-02 0.0 
1.701458465372e-02 1.317650337556e-01 0.0 
1.852942458323e-02 1.240932688294e-01 0.0 
1.728640022800e-02 1.206198722786e-01 0.0 
1.886201351851e-02 1.116617051369e-01 0.0 
1.761396178223e-02 1.064530461493e-01 0.0 
1.867683394404e-02 9.860744732299e-02 0.0 
2.002686781259e-02 1.033935942277e-01 0.0 
1.947017919496e-02 9.072270005559e-02 0.0 
2.086009643812e-02 9.530526248517e-02 0.0 
1.715410220087e-02 9.297887634922e-02 0.0 
1.994494032098e-02 8.291722755173e-02 0.0 
2.135548253305e-02 8.736021421519e-02 0.0 
2.009476722808e-02 7.529830416572e-02 0.0 
2.151057004984e-02 7.963699838294e-02 0.0 
2.250098881421e-02 9.114312541371e-02 0.0 
2.265726684143e-02 8.339855115686e-02 0.0 
2.334346518663e-02 9.424465608379e-02 0.0 
2.349815463695e-02 8.650635113872e-02 0.0 
2.249368253929e-02 7.599999672639e-02 0.0 
2.333657372974e-02 7.916650345355e-02 0.0 
2.401961233421e-02 8.900972262035e-02 0.0 
2.385962163616e-02 8.176159706431e-02 0.0 
2.421490107165e-02 9.093011051840e-02 0.0 
2.406116135822e-02 8.378949657727e-02 0.0 
2.409176606567e-02 9.232059655799e-02 0.0 
2.395279490752e-02 8.533355149817e-02 0.0 
2.362639348448e-02 7.708012109876e-02 0.0 
2.353923699413e-02 7.880668125856e-02 0.0 
2.354981981556e-02 8.643029511117e-02 0.0 
2.316313986501e-02 8.011154601614e-02 0.0 
2.287250792028e-02 8.712873776107e-02 0.0 
2.251869808844e-02 8.103766622861e-02 0.0 
2.253745669245e-02 7.421541020498e-02 0.0 
2.193339084098e-02 7.538979415784e-02 0.0 
2.162762543269e-02 8.164642849446e-02 0.0 
2.109195456376e-02 7.626820446797e-02 0.0 
2.051729504101e-02 8.198410522264e-02 0.0 
2.004136403189e-02 7.689040265175e-02 0.0 
1.921989922204e-02 8.208548573362e-02 0.0 
1.880400242804e-02 7.729907879455e-02 0.0 
1.938279382794e-02 7.214715475880e-02 0.0 
1.821401745944e-02 7.284257591998e-02 0.0 
1.741106422900e-02 7.754711332472e-02 0.0 
1.689945962268e-02 7.339969746008e-02 0.0 
1.747146742593e-02 6.872406646449e-02 0.0 
1.624091942871e-02 6.958387366698e-02 0.0 
1.660137359843e-02 6.490127318564e-02 0.0 
1.546118137605e-02 6.604654570672e-02 0.0 
1.491718764997e-02 7.031393470209e-02 0.0 
1.422933984896e-02 6.705629888755e-02 0.0 
1.458591978799e-02 6.273700104952e-02 0.0 
1.344426873402e-02 6.403678698968e-02 0.0 
1.292598053110e-02 6.800077607765e-02 0.0 
1.224600060893e-02 6.522100128074e-02 0.0 
1.259316407841e-02 6.117515927500e-02 0.0 
1.148820215339e-02 6.261485716957e-02 0.0 
1.101417812322e-02 6.634521472950e-02 0.0 
1.035503089052e-02 6.396478847374e-02 0.0 
1.068361786653e-02 6.008882254284e-02 0.0 
9.636461115573e-03 6.169075911476e-02 0.0 
9.211120739622e-03 6.526373284806e-02 0.0 
8.585710177899e-03 6.319028956092e-02 0.0 
8.880023475301e-03 5.945372988682e-02 0.0 
7.909803269506e-03 6.117811485136e-02 0.0 
8.088648628932e-03 5.726373710116e-02 0.0 
7.529861739278e-03 6.466189667466e-02 0.0 
6.941979739952e-03 6.282560973260e-02 0.0 
6.499658724979e-03 6.609407882096e-02 0.0 
5.995365554929e-03 6.440580146129e-02 0.0 
2.170156718976e-02 6.871111691293e-02 0.0 
5.528462961353e-03 6.744361207965e-02 0.0 
5.915618289387e-03 6.893381144893e-02 0.0 
5.089641769780e-03 6.591429387855e-02 0.0 
5.439512048669e-03 6.271413194529e-02 0.0 
4.616149926665e-03 6.872701663835e-02 0.0 
4.235443406370e-03 6.734577045158e-02 0.0 
3.775449495597e-03 6.994270958861e-02 0.0 
1.937012873601e-02 8.748123630200e-02 0.0 
2.202426152358e-02 6.895687362445e-02 0.0 
3.444011786842e-03 6.870048716408e-02 0.0 
3.016778165920e-03 7.108620797712e-02 0.0 
3.234174218452e-03 7.217322464330e-02 0.0 
2.529140239210e-03 7.310729479952e-02 0.0 
1.616027451098e-02 1.007438688642e-01 0.0 
1.549522059206e-02 8.675936855473e-02 0.0 
1.462186814829e-02 9.444122521210e-02 0.0 
1.373893205001e-02 8.008810429240e-02 0.0 
1.299966649760e-02 8.756169948708e-02 0.0 
2.343235062192e-03 7.215212768941e-02 0.0 
1.842695738648e-02 6.999052977344e-02 0.0 
1.426604693444e-02 7.243907406514e-02 0.0 
2.406253647573e-02 9.852917414024e-02 0.0 
2.296425471765e-02 9.369398528233e-02 0.0 
1.760849129276e-02 6.361064389234e-02 0.0 
3.795901689606e-03 6.594209758965e-02 0.0 
3.048745928969e-03 6.742996617431e-02 0.0 
3.306456961001e-03 6.450479465177e-02 0.0 
8.952710624271e-03 5.527002161195e-02 0.0 
8.056357495808e-03 5.291735537720e-02 0.0 
8.787783961733e-03 5.063399251994e-02 0.0 
7.805774029987e-03 4.812197806774e-02 0.0 
8.378904138544e-03 4.553756752912e-02 0.0 
7.333987719611e-03 4.286190719748e-02 0.0 
6.839252537587e-03 4.561522049031e-02 0.0 
6.324151443073e-03 4.017827247553e-02 0.0 
5.898944339227e-03 4.309414946518e-02 0.0 
7.724898660500e-03 3.996818247030e-02 0.0 
8.850696876768e-03 4.281295793346e-02 0.0 
5.359560006304e-03 3.747501051655e-02 0.0 
4.994583999903e-03 4.054049058550e-02 0.0 
4.449186811081e-03 3.473240142930e-02 0.0 
4.135566890080e-03 3.794334690432e-02 0.0 
4.541525136068e-03 4.347310370360e-02 0.0 
3.730056134260e-03 4.101807812335e-02 0.0 
4.020219649696e-03 4.627558288344e-02 0.0 
1.654428093497e-02 5.977334382294e-02 0.0 
1.730129433129e-02 5.803859005544e-02 0.0 
1.606093937270e-02 5.418481898128e-02 0.0 
1.653664522069e-02 5.199648525632e-02 0.0 
1.514346768532e-02 4.811972894629e-02 0.0 
1.531005647935e-02 4.547613401820e-02 0.0 
1.378605698541e-02 4.156497318717e-02 0.0 
1.371169435948e-02 4.442176104925e-02 0.0 
1.992602034914e-02 6.781648376214e-02 0.0 
1.590102566140e-02 7.765311607061e-02 0.0 
1.615975007543e-02 8.183797354353e-02 0.0 
1.448694809116e-02 8.150312292320e-02 0.0 
1.447209737173e-02 8.571340904295e-02 0.0 
1.267154614172e-02 8.494484760860e-02 0.0 
1.236010231031e-02 8.920043606970e-02 0.0 
1.046288921509e-02 8.801361612091e-02 0.0 
1.086263551102e-02 8.414235344598e-02 0.0 
8.590958972238e-03 8.683286759136e-02 0.0 
9.077332569578e-03 8.335796961300e-02 0.0 
6.790107421978e-03 8.569373531930e-02 0.0 
7.350994781051e-03 8.263349745344e-02 0.0 
2.293737197979e-02 7.079075017146e-02 0.0 
1.679173603225e-02 4.956861022704e-02 0.0 
1.522865063352e-02 4.256738063186e-02 0.0 
1.679194953093e-02 4.686259282346e-02 0.0 
2.631654096555e-03 7.404326816195e-02 0.0 
3.329111419645e-03 3.529018261330e-02 0.0 
7.985982573952e-03 3.691542093667e-02 0.0 
9.197544090622e-03 3.998258300236e-02 0.0 
1.224783449071e-02 3.780463420118e-02 0.0 
1.921639133149e-03 7.396564671096e-02 0.0 
9.840973254883e-03 9.232254179908e-02 0.0 
1.179258283344e-02 9.393806918083e-02 0.0 
1.194261214116e-02 7.286033729824e-02 0.0 
1.135055110014e-02 8.022541559079e-02 0.0 
8.089628766492e-03 3.369566111932e-02 0.0 
1.756976010916e-03 7.313291729543e-02 0.0 
5.613889340944e-03 3.426567915092e-02 0.0 
5.993955461677e-03 8.916403177493e-02 0.0 
2.961288612785e-03 3.850648074303e-02 0.0 
2.581861597619e-03 3.257742846308e-02 0.0 
6.265278105776e-03 4.822697953811e-02 0.0 
1.486946185203e-02 3.935904288170e-02 0.0 
1.654354983422e-02 4.396329950613e-02 0.0 
9.375096208726e-03 8.024025424555e-02 0.0 
7.726059017565e-03 7.989994554551e-02 0.0 
5.727989313904e-03 8.198334313883e-02 0.0 
6.235207408622e-03 7.950172532268e-02 0.0 
7.944159011716e-03 7.739576902997e-02 0.0 
6.491105157089e-03 7.741078704814e-02 0.0 
4.832332685214e-03 7.926685443198e-02 0.0 
5.162014767531e-03 7.746005287862e-02 0.0 
6.619579398654e-03 7.545348273928e-02 0.0 
5.365141755956e-03 7.576709352935e-02 0.0 
3.973250496738e-03 7.755679101714e-02 0.0 
4.242635175753e-03 7.609374655626e-02 0.0 
2.822660403395e-03 2.907268858921e-02 0.0 
4.223866407063e-03 8.767509418503e-02 0.0 
2.285337075325e-02 1.023325590805e-01 0.0 
6.857012303680e-03 3.051597894309e-02 0.0 
1.201685164275e-02 3.460770397523e-02 0.0 
1.014468782011e-02 6.521538379120e-02 0.0 
9.703911706461e-03 7.250926724413e-02 0.0 
1.060997113474e-02 8.754027200590e-02 0.0 
9.114727874498e-03 7.972376297737e-02 0.0 
8.092197553268e-03 6.446506205845e-02 0.0 
7.653554479017e-03 7.165290365457e-02 0.0 
8.423460245686e-03 8.684181166436e-02 0.0 
7.102336787974e-03 7.874391401328e-02 0.0 
7.667430834876e-03 9.382415897434e-02 0.0 
6.472364379111e-03 8.571780426722e-02 0.0 
5.833785773078e-03 7.043876554444e-02 0.0 
5.322102919887e-03 7.744598635266e-02 0.0 
5.790383942768e-03 9.258232387614e-02 0.0 
4.741441820656e-03 8.435254373816e-02 0.0 
5.074051441136e-03 9.932564124927e-02 0.0 
4.108881290648e-03 9.115365261735e-02 0.0 
3.752817056078e-03 7.598719362409e-02 0.0 
1.430748128874e-03 7.468246911637e-02 0.0 
1.226824158014e-02 4.087259168884e-02 0.0 
1.071847179479e-02 3.416046002938e-02 0.0 
2.616866184609e-03 6.611516031817e-02 0.0 
2.803020981941e-03 6.301888906977e-02 0.0 
3.486878022616e-03 6.118499465462e-02 0.0 
2.878002020329e-03 5.953640141042e-02 0.0 
3.187178639951e-03 8.292641510566e-02 0.0 
2.840778807993e-03 6.751448475524e-02 0.0 
8.972526146477e-03 9.712573850239e-02 0.0 
1.094163082045e-02 9.920891036464e-02 0.0 
1.038893844655e-02 5.786795400496e-02 0.0 
2.241297364270e-03 3.593048637061e-02 0.0 
2.517432288608e-03 4.158431916415e-02 0.0 
2.200475759540e-02 9.376014421961e-02 0.0 
2.176924023674e-02 1.005588969039e-01 0.0 
2.055488670178e-02 1.000247153196e-01 0.0 
1.990543587932e-02 1.071737721241e-01 0.0 
2.119748418839e-02 1.078964223011e-01 0.0 
1.844195478457e-02 1.060413341223e-01 0.0 
1.001366488973e-02 4.577328837581e-02 0.0 
4.643046114612e-03 6.197131353255e-02 0.0 
3.368457903726e-03 7.325032569451e-02 0.0 
2.637213032438e-03 7.497438826342e-02 0.0 
1.901990325655e-03 2.979338658460e-02 0.0 
1.342212077855e-02 4.706597580086e-02 0.0 
2.269426166145e-02 6.843102868523e-02 0.0 
2.173977271586e-02 6.233450301471e-02 0.0 
2.114822757535e-02 5.934352095090e-02 0.0 
1.993653813682e-02 5.343760576017e-02 0.0 
1.897546018170e-02 4.981745205673e-02 0.0 
1.751196787428e-02 4.409675837815e-02 0.0 
1.853135118073e-02 4.786056869877e-02 0.0 
1.419616822189e-02 3.577674733177e-02 0.0 
1.587281675194e-02 3.864756637142e-02 0.0 
3.493656554220e-03 9.798748151208e-02 0.0 
1.821004976321e-02 5.394217122690e-02 0.0 
6.618112724149e-03 7.363178444566e-02 0.0 
1.510862366776e-03 7.536358465422e-02 0.0 
2.910227972645e-03 7.771465114057e-02 0.0 
1.261426336233e-03 7.401258620325e-02 0.0 
1.519348862188e-03 7.225938856648e-02 0.0 
6.699150472341e-03 2.692840200586e-02 0.0 
1.615818832166e-02 3.984893069673e-02 0.0 
1.768578849008e-02 4.570981114501e-02 0.0 
1.890719879758e-02 1.148848234528e-01 0.0 
2.026536015047e-02 1.157647626797e-01 0.0 
1.241700278821e-02 3.134517034594e-02 0.0 
1.356062769339e-02 1.021212455799e-01 0.0 
8.881170320188e-03 1.017358763386e-01 0.0 
7.972865278786e-03 1.085683800006e-01 0.0 
1.001140603956e-03 7.550266031404e-02 0.0 
2.516732127733e-03 7.898755900211e-02 0.0 
6.551970846199e-03 5.617184301270e-02 0.0 
1.368952448149e-02 9.555929032432e-02 0.0 
1.287956386903e-02 1.012382318527e-01 0.0 
3.111377674942e-03 9.113077113359e-02 0.0 
1.411794959269e-03 8.930614519901e-02 0.0 
2.372679822325e-03 7.435761056940e-02 0.0 
2.045509548176e-03 5.891306251931e-02 0.0 
3.567273021136e-03 5.746851067133e-02 0.0 
2.903423712516e-03 5.563878445582e-02 0.0 
8.006831318928e-03 3.026421124627e-02 0.0 
3.264524813502e-03 7.641753117842e-02 0.0 
2.364658885430e-03 5.179704166233e-02 0.0 
1.207216746631e-02 4.370965019542e-02 0.0 
1.294590423981e-02 4.951386355546e-02 0.0 
2.206448531289e-03 6.150739838742e-02 0.0 
7.784122881456e-03 1.024928456496e-01 0.0 
5.804325932981e-03 9.995187766667e-02 0.0 
7.902736707615e-03 7.307501472213e-02 0.0 
4.374944689096e-03 7.471980375294e-02 0.0 
1.035746925546e-03 7.325287334410e-02 0.0 
6.322827971115e-03 2.312206405554e-02 0.0 
6.690965781497e-03 4.892996437150e-02 0.0 
1.697305082168e-02 4.259391020064e-02 0.0 
1.923471714245e-02 5.122451339955e-02 0.0 
1.410156917656e-02 3.348572969333e-02 0.0 
2.104999102671e-03 7.777608322348e-02 0.0 
5.468472987203e-03 2.359011071420e-02 0.0 
1.581143965021e-03 3.328412448524e-02 0.0 
1.461994245215e-02 3.561313440140e-02 0.0 
1.607072612658e-02 4.110449568014e-02 0.0 
1.550705638849e-02 9.710462419084e-02 0.0 
1.480992473419e-02 1.031303208980e-01 0.0 
1.176649787426e-02 1.075153480185e-01 0.0 
1.372630479558e-02 1.097848857320e-01 0.0 
2.115349727358e-02 1.074992943912e-01 0.0 
1.726668409887e-02 9.845672015422e-02 0.0 
2.338517963346e-02 1.047654038510e-01 0.0 
2.255600219741e-02 1.131918302541e-01 0.0 
2.275017664969e-02 1.149556471808e-01 0.0 
2.221121135246e-02 1.082949087173e-01 0.0 
2.133623760393e-02 1.163528511645e-01 0.0 
1.620753243924e-02 8.645388282255e-02 0.0 
1.845612863583e-02 6.214177542236e-02 0.0 
4.218372531526e-03 5.924630809579e-02 0.0 
4.816649097184e-03 4.852010064110e-02 0.0 
9.773487285213e-03 5.316886990933e-02 0.0 
4.941042466368e-03 5.484242331001e-02 0.0 
3.742201809648e-03 4.618026223183e-02 0.0 
6.071401413032e-03 1.073585775784e-01 0.0 
5.261487564456e-03 1.139236600707e-01 0.0 
1.994276521257e-03 7.555905813077e-02 0.0 
1.885519118387e-03 7.634933286606e-02 0.0 
7.276497379908e-03 5.509279769328e-02 0.0 
5.694545267712e-03 2.734261455043e-02 0.0 
8.473822838924e-03 4.993292440653e-02 0.0 
8.325459267671e-03 4.261351161400e-02 0.0 
1.038825993354e-02 5.048459089258e-02 0.0 
7.704195761616e-03 2.660370027914e-02 0.0 
1.432030091495e-02 7.767273386655e-02 0.0 
1.539851461673e-02 5.617651026819e-02 0.0 
2.602857854704e-03 8.636121325027e-02 0.0 
2.200138990644e-02 6.699509845956e-02 0.0 
1.360251159300e-03 7.672151753128e-02 0.0 
2.087170632313e-02 6.519962303486e-02 0.0 
1.299600526775e-03 2.693605809561e-02 0.0 
1.503326743610e-03 2.315664354742e-02 0.0 
1.134388911080e-02 2.728181761226e-02 0.0 
1.927677791347e-02 1.279794270445e-01 0.0 
2.093115495488e-02 6.161847760588e-02 0.0 
2.068916645723e-02 6.359234326569e-02 0.0 
2.156808458165e-02 1.236609259929e-01 0.0 
2.141743718641e-02 1.247574673447e-01 0.0 
2.261116128678e-02 1.160548970141e-01 0.0 
2.091055332710e-02 1.252584404888e-01 0.0 
7.696488976692e-03 7.115570869700e-02 0.0 
6.494084554271e-03 7.194282384451e-02 0.0 
1.256020655783e-02 2.912567405656e-02 0.0 
1.269210338171e-02 2.927602697775e-02 0.0 
1.270507649647e-02 3.067527043603e-02 0.0 
1.412921634321e-02 3.590338746747e-02 0.0 
9.446550444408e-03 2.283637741845e-02 0.0 
1.061019914406e-02 2.706156305889e-02 0.0 
1.213530392593e-03 7.133363792098e-02 0.0 
1.898602284805e-02 1.240447661417e-01 0.0 
5.107498546555e-03 4.039991744808e-02 0.0 
2.138077154401e-02 1.219006506341e-01 0.0 
4.365762386812e-03 2.043399795315e-02 0.0 
4.620033603670e-03 2.416430920568e-02 0.0 
-8.612728614482e-05 8.772009196249e-02 0.0 
1.191345788770e-03 8.494563170979e-02 0.0 
1.620798143385e-03 4.336519955872e-02 0.0 
1.033034928913e-02 1.143066221037e-01 0.0 
1.222636631286e-02 1.169611824456e-01 0.0 
8.356428961479e-03 1.113870211100e-01 0.0 
1.955572246083e-04 1.216487837931e-02 0.0 
1.395129051322e-03 1.405217907663e-01 0.0 
9.737443260234e-04 2.009032703917e-02 0.0 
2.298324059654e-02 1.082688658916e-01 0.0 
1.755130087784e-03 3.548186806865e-02 0.0 
1.972006874367e-02 5.661926508728e-02 0.0 
2.078285277023e-02 9.360249189913e-02 0.0 
9.380473142620e-03 3.363057797703e-02 0.0 
1.309694301026e-03 5.185542885504e-02 0.0 
9.753536295402e-04 3.414918408345e-02 0.0 
9.038638034696e-03 1.160460989595e-01 0.0 
8.063566629108e-03 1.229378281556e-01 0.0 
1.008660182071e-02 1.093987977008e-01 0.0 
5.003345160266e-03 9.308232281527e-02 0.0 
1.426822549644e-03 9.566474555389e-02 0.0 
3.553289587772e-03 5.336099526855e-02 0.0 
2.373667915781e-03 6.883062681263e-02 0.0 
1.945473244685e-03 6.734372185725e-02 0.0 
3.403928570654e-03 7.531618210606e-02 0.0 
4.359131752127e-03 7.347122802856e-02 0.0 
4.267477893540e-03 5.531665239686e-02 0.0 
4.969885522568e-03 5.722285483574e-02 0.0 
2.007987298291e-02 5.837278242342e-02 0.0 
1.861873441059e-02 5.408141383344e-02 0.0 
2.214258331064e-02 6.563788424307e-02 0.0 
1.168977859472e-02 4.634533189564e-02 0.0 
1.231515117057e-02 5.178674323902e-02 0.0 
1.346774664920e-02 5.481921939322e-02 0.0 
3.833474104020e-03 3.945569661438e-02 0.0 
2.560885720619e-03 2.928369515757e-02 0.0 
8.963386100578e-03 7.040686178995e-02 0.0 
9.261047982081e-03 7.255545076123e-02 0.0 
7.373202632645e-03 6.941733599451e-02 0.0 
4.933903917436e-03 3.340065999759e-02 0.0 
1.076921884695e-03 1.622179929708e-02 0.0 
1.602815285264e-03 1.949363838933e-02 0.0 
1.161305960454e-03 7.735049528222e-02 0.0 
1.677738747414e-03 7.714122463555e-02 0.0 
4.339654970847e-03 1.053302371537e-01 0.0 
2.316307215995e-03 1.024328460280e-01 0.0 
8.008178500321e-03 3.589913413595e-02 0.0 
1.012401504110e-02 4.324348541308e-02 0.0 
5.752964359250e-03 2.716047483612e-02 0.0 
7.341873624912e-04 7.254090754075e-02 0.0 
1.772701956428e-02 4.600805698695e-02 0.0 
5.855302762360e-03 1.948499864196e-02 0.0 
7.323282972880e-03 2.314760747212e-02 0.0 
4.249034252837e-03 1.495924979339e-02 0.0 
1.329663412688e-02 3.214525408026e-02 0.0 
1.007006493575e-02 2.327534888965e-02 0.0 
1.058046418380e-02 2.389679970027e-02 0.0 
-1.534188491284e-03 9.050284417186e-02 0.0 
7.311827540302e-04 4.081251755596e-02 0.0 
6.190437941022e-03 1.217647980162e-01 0.0 
-2.479933908131e-03 8.890768248826e-02 0.0 
5.316948478214e-03 1.286323245468e-01 0.0 
4.480314482954e-03 1.204681101161e-01 0.0 
4.582741316228e-03 1.353161222544e-01 0.0 
6.298525251884e-04 7.415139357542e-02 0.0 
1.009912313238e-02 1.258486153884e-01 0.0 
1.133070288838e-02 1.173382079071e-01 0.0 
6.849959900244e-04 7.815985092506e-02 0.0 
3.348750342691e-03 2.484635778997e-02 0.0 
8.026073421927e-04 7.748896281167e-02 0.0 
9.890707626336e-04 7.699477387505e-02 0.0 
3.333453214573e-03 1.698694951329e-02 0.0 
3.635681332203e-03 2.092817645079e-02 0.0 
2.413582414507e-03 1.365940655629e-02 0.0 
2.813427487861e-03 1.804543237750e-02 0.0 
3.787547838356e-03 2.484010875958e-02 0.0 
2.938468551989e-03 2.171841033640e-02 0.0 
7.162694846588e-03 1.306434361587e-01 0.0 
1.922949684740e-03 1.368652127254e-02 0.0 
2.170683549634e-03 1.838756865071e-02 0.0 
1.262376634004e-03 1.053358117335e-02 0.0 
1.932334137238e-02 1.343814273289e-01 0.0 
1.541692791951e-02 1.119611674658e-01 0.0 
1.392553916493e-02 1.196067067133e-01 0.0 
1.017321904069e-02 1.251339565251e-01 0.0 
9.621398185609e-03 2.276797180545e-02 0.0 
1.210318971117e-02 3.079855864273e-02 0.0 
9.843530765861e-04 3.042756717956e-02 0.0 
1.128136407714e-03 3.649827521955e-02 0.0 
3.684183650538e-03 1.279561523194e-01 0.0 
2.694724337954e-03 1.285155036301e-01 0.0 
2.961553770631e-03 1.155868360364e-01 0.0 
2.135367264362e-03 1.171518447650e-01 0.0 
2.313088275312e-03 1.041785487309e-01 0.0 
1.486443915552e-03 1.058323623734e-01 0.0 
1.777012089469e-03 9.257224850856e-02 0.0 
8.763475037590e-03 1.920732288306e-02 0.0 
6.371774457562e-03 1.180822623341e-01 0.0 
1.998950763015e-02 1.327924171902e-01 0.0 
7.536380516233e-03 1.850750562373e-02 0.0 
9.056814968509e-03 2.361070615472e-02 0.0 
2.009350172504e-02 1.248514212215e-01 0.0 
1.722097592440e-02 1.330278650592e-01 0.0 
3.622245100476e-03 1.524661090773e-02 0.0 
1.764981689471e-02 9.260428484652e-02 0.0 
2.541150330436e-03 1.579942460993e-02 0.0 
-6.481214286970e-03 9.889902933176e-02 0.0 
-2.614513422507e-03 9.652431179571e-02 0.0 
1.923668473806e-02 9.339005375894e-02 0.0 
2.213825459430e-02 1.165142833716e-01 0.0 
1.719812800957e-02 1.136852825331e-01 0.0 
1.600231516489e-02 1.214773322699e-01 0.0 
1.072680968496e-02 4.035301629352e-02 0.0 
1.319081878106e-03 7.799913975396e-02 0.0 
6.357943313639e-03 1.083465850941e-01 0.0 
2.592362113054e-03 9.109339558666e-02 0.0 
2.490803692407e-03 1.110132317866e-01 0.0 
5.163910153157e-04 3.322867865661e-02 0.0 
1.784152895226e-02 8.707538541367e-02 0.0 
2.348133649865e-02 1.005052604522e-01 0.0 
9.799224976551e-03 1.050018654890e-01 0.0 
1.677459751423e-02 1.046885263077e-01 0.0 
2.200908916157e-02 9.920397733857e-02 0.0 
1.997642674682e-02 1.158727075515e-01 0.0 
2.078817780443e-02 1.194989496674e-01 0.0 
1.774447294155e-02 8.208603183792e-02 0.0 
1.763754455318e-02 1.229194250893e-01 0.0 
1.416670068356e-02 1.302665791684e-01 0.0 
2.387067060827e-02 9.670179464046e-02 0.0 
1.247237040797e-02 5.793033412670e-02 0.0 
1.230921329562e-02 5.049099838273e-02 0.0 
9.622502056760e-03 3.648764666819e-02 0.0 
1.184074458313e-02 4.330202203347e-02 0.0 
1.446384679124e-02 5.735158209177e-02 0.0 
1.408148110116e-02 5.002174136252e-02 0.0 
1.106211883756e-02 3.646206688777e-02 0.0 
1.337673184522e-02 4.293047577770e-02 0.0 
9.159651774102e-03 2.699065941169e-02 0.0 
1.224412291539e-02 3.580792614213e-02 0.0 
1.559488183960e-02 4.926373620742e-02 0.0 
1.468167823828e-02 4.264890665854e-02 0.0 
1.135282618180e-02 3.086049310961e-02 0.0 
1.771781588378e-02 5.573487250718e-02 0.0 
6.038393737665e-03 1.408202896947e-02 0.0 
2.075521816218e-02 8.762462574830e-02 0.0 
-5.579502316296e-05 9.277234334532e-02 0.0 
-1.074007910773e-03 9.951720002029e-02 0.0 
2.393234077255e-02 9.977448143357e-02 0.0 
4.593760463189e-03 1.319413460120e-02 0.0 
3.934949708131e-03 1.351003475329e-02 0.0 
1.420570253777e-02 9.040263034009e-02 0.0 
4.879878125282e-03 1.073045620279e-02 0.0 
2.199826605700e-02 1.107819002608e-01 0.0 
7.874292087450e-03 9.074995111387e-02 0.0 
4.800130820302e-03 1.014517139180e-02 0.0 
1.451989847095e-02 6.482105994272e-02 0.0 
1.648806560818e-02 7.147806184803e-02 0.0 
1.613045151597e-02 7.911982488935e-02 0.0 
3.096628984001e-03 1.294517360699e-02 0.0 
1.113590117787e-02 1.024177121667e-01 0.0 
3.917581836744e-03 8.448327226944e-03 0.0 
1.786572950356e-02 5.609360951572e-02 0.0 
1.910815923348e-02 6.054332022402e-02 0.0 
1.948688473593e-02 6.658716908133e-02 0.0 
1.624095303219e-02 5.661631079889e-02 0.0 
3.262501332293e-03 8.145881628504e-03 0.0 
5.814015242604e-03 1.539580615972e-02 0.0 
5.367875373665e-03 1.510882920792e-02 0.0 
8.038169690915e-03 2.267843719285e-02 0.0 
2.764411682376e-03 7.812478855217e-03 0.0 
4.507667117052e-03 1.127006595947e-02 0.0 
4.395240242008e-03 1.041099275620e-02 0.0 
7.987663628590e-03 7.515591157807e-02 0.0 
9.449308237322e-03 7.486868716395e-02 0.0 
1.067493299770e-02 7.203489058045e-02 0.0 
1.095920203045e-02 7.462880496767e-02 0.0 
9.492264989696e-03 7.742962871108e-02 0.0 
1.109358616122e-02 7.748854634188e-02 0.0 
1.248005006491e-02 7.441902459495e-02 0.0 
1.106042269777e-02 8.066102899255e-02 0.0 
1.562975430305e-02 4.240329795374e-02 0.0 
2.227180320420e-03 7.301684094629e-03 0.0 
9.447708628553e-03 4.823856151185e-02 0.0 
1.052532992284e-02 5.102914128896e-02 0.0 
1.074359960553e-02 5.578936174795e-02 0.0 
4.845206609494e-03 6.098964347997e-02 0.0 
5.653935667129e-03 5.910991914219e-02 0.0 
5.721526729333e-03 5.509753227705e-02 0.0 
4.058261103125e-03 6.279523199889e-02 0.0 
2.057699048664e-02 5.661042184094e-02 0.0 
2.013280167958e-03 7.269821499150e-03 0.0 
1.419267169306e-02 5.276424440497e-02 0.0 
6.313904047632e-03 6.098027773197e-02 0.0 
1.287445473725e-02 1.378688220029e-01 0.0 
1.408987666046e-02 1.253499101866e-01 0.0 
1.554313998901e-02 1.235313462639e-01 0.0 
1.502128279467e-02 1.106770974479e-01 0.0 
1.254831729276e-02 1.250007032452e-01 0.0 
3.558662462544e-03 5.335554811826e-02 0.0 
2.852193807048e-03 5.134414237353e-02 0.0 
2.231045005954e-03 5.375731861893e-02 0.0 
2.154613758870e-03 4.927342517377e-02 0.0 
1.558934670635e-03 5.180036122401e-02 0.0 
1.615394353620e-03 5.595874546185e-02 0.0 
1.458464219813e-03 4.713558951627e-02 0.0 
9.015971436594e-04 5.030849066940e-02 0.0 
1.040032377272e-02 1.395311957816e-01 0.0 
-2.449487743112e-03 8.412937452213e-02 0.0 
-4.812561528049e-04 8.276301955658e-02 0.0 
-2.048120594494e-04 8.138392137667e-02 0.0 
1.105656368027e-03 8.133763221041e-02 0.0 
1.134698564346e-03 8.274759595717e-02 0.0 
2.928993758296e-03 8.086863232486e-02 0.0 
2.792746120428e-03 8.266025559962e-02 0.0 
-8.297012604067e-04 8.456616112367e-02 0.0 
-1.295110441834e-03 8.128774929706e-02 0.0 
7.225032284489e-05 8.030049130022e-02 0.0 
-8.453118270027e-04 8.029077725770e-02 0.0 
2.463842557507e-04 7.946942969463e-02 0.0 
1.442537927822e-03 7.904789811399e-02 0.0 
2.571922459389e-03 7.586830519694e-02 0.0 
5.526632762054e-04 8.172590541850e-03 0.0 
5.929512136812e-04 6.144177165818e-02 0.0 
1.129791190682e-03 6.315009189113e-02 0.0 
1.040787566144e-03 6.612192698132e-02 0.0 
1.672252939815e-03 6.458864808811e-02 0.0 
1.133833128589e-03 6.000926485187e-02 0.0 
4.958046017492e-04 6.757960538800e-02 0.0 
9.401670142468e-04 6.850920454495e-02 0.0 
2.347875888205e-04 7.723264685492e-02 0.0 
2.784744990044e-04 7.691387867780e-02 0.0 
1.159891999926e-04 7.693296205256e-02 0.0 
2.992698829238e-04 7.631178983345e-02 0.0 
4.823574337111e-04 7.636771345692e-02 0.0 
4.136306354937e-04 7.695398711439e-02 0.0 
5.276001917794e-04 7.703555690548e-02 0.0 
3.483709715215e-04 7.741042159741e-02 0.0 
6.179387106445e-04 7.715194461610e-02 0.0 
8.448353901235e-04 7.647262647086e-02 0.0 
3.537774372913e-04 7.755713793484e-02 0.0 
5.751093044162e-04 7.270726633806e-02 0.0 
1.101495852396e-03 6.504326612861e-02 0.0 
1.717249054054e-03 7.582992257004e-03 0.0 
8.148843197924e-03 1.390673007676e-01 0.0 
-1.693003342156e-04 7.889188425459e-02 0.0 
9.219925897457e-04 1.716668863502e-02 0.0 
1.442240548093e-03 1.420240236751e-02 0.0 
1.154962057666e-03 1.377758421087e-02 0.0 
3.232774389040e-04 1.980065726061e-02 0.0 
5.246711044996e-04 1.628500904939e-02 0.0 
4.932482763414e-04 1.669841818874e-02 0.0 
4.030307165551e-03 7.116894678382e-02 0.0 
8.819885884975e-03 3.000924440143e-02 0.0 
2.582641114581e-03 4.459411401347e-02 0.0 
6.985181591000e-03 9.506633050300e-02 0.0 
5.378529864236e-03 7.271806495625e-02 0.0 
1.791689916186e-03 3.909296133222e-02 0.0 
5.389373391874e-03 4.585937667669e-02 0.0 
2.122907273198e-03 2.620971371603e-02 0.0 
3.251983085113e-03 4.395856360787e-02 0.0 
3.600929020468e-03 3.193066333414e-02 0.0 
5.058246507431e-03 1.533537033174e-02 0.0 
8.672479543408e-04 7.475302964688e-02 0.0 
6.876321806143e-03 1.006594837909e-01 0.0 
4.376094506021e-03 1.060132883808e-01 0.0 
4.240149308325e-03 6.902634423486e-02 0.0 
2.726271667664e-03 6.997645823697e-02 0.0 
2.271344987352e-03 5.762875208726e-02 0.0 
2.009586243235e-03 7.475904701181e-02 0.0 
8.734958496168e-03 1.943512047551e-02 0.0 
2.357433200689e-02 1.066044622576e-01 0.0 
9.832009396226e-03 5.765761572564e-02 0.0 
4.596391046656e-03 6.436695478971e-02 0.0 
4.931985707925e-03 7.007357431628e-02 0.0 
5.436901571084e-03 7.418355640490e-02 0.0 
2.193636624937e-02 8.750098050867e-02 0.0 
7.202805225727e-03 5.916571672695e-02 0.0 
6.642672585465e-03 3.712581620397e-02 0.0 
3.246885939078e-03 6.047829331052e-02 0.0 
2.716604376580e-04 7.799254010499e-02 0.0 
6.829187528169e-03 3.390999264123e-02 0.0 
7.157732185042e-03 5.057670607282e-02 0.0 
9.774480748557e-03 9.473660013494e-02 0.0 
1.362169047844e-02 3.847716914458e-02 0.0 
3.621049889697e-03 7.903355896497e-02 0.0 
6.256074471140e-03 6.336550968497e-02 0.0 
6.447100689073e-03 3.533418290051e-02 0.0 
1.243690661434e-02 1.097286003506e-01 0.0 
1.464927944581e-03 7.607737042137e-02 0.0 
7.090888860328e-03 1.154474701482e-01 0.0 
5.025417203874e-03 1.961898005583e-02 0.0 
1.233212025772e-02 6.538574343299e-02 0.0 
2.083553068306e-03 7.116491517419e-02 0.0 
1.563094578449e-02 6.133314245143e-02 0.0 
2.366694570347e-02 9.321004802936e-02 0.0 
1.784276377022e-02 1.398387103829e-01 0.0 
2.697582579734e-03 3.792278999612e-02 0.0 
2.115335229509e-02 7.015726832113e-02 0.0 
1.038162973729e-02 3.066230355662e-02 0.0 
1.476006495555e-02 5.053857843231e-02 0.0 
1.765778480513e-03 7.009132412555e-02 0.0 
4.715525701811e-03 2.785909056887e-02 0.0 
1.856222097452e-02 6.771828462656e-02 0.0 
5.117322265668e-03 4.774301713792e-02 0.0 
2.023624856797e-02 5.587497241208e-02 0.0 
1.548099557494e-02 7.383685890872e-02 0.0 
8.379929693024e-03 5.722481190106e-02 0.0 
1.168582727099e-02 5.844883705082e-02 0.0 
1.317135329792e-02 3.507214541869e-02 0.0 
2.344543658746e-02 1.077045771148e-01 0.0 
2.340997226027e-02 7.490507474064e-02 0.0 
2.135977071801e-02 7.231087367631e-02 0.0 
2.287877277826e-02 7.269727837477e-02 0.0 
1.222072535840e-03 4.214418676298e-02 0.0 
5.735084142017e-03 3.089839988843e-02 0.0 
5.109291161343e-03 8.469864681234e-02 0.0 
1.905503261692e-02 9.933485804895e-02 0.0 
1.210393821733e-02 9.501453638376e-02 0.0 
1.455132156505e-02 3.461074586607e-02 0.0 
3.662375636211e-03 3.172109581614e-02 0.0 
2.275521682449e-02 1.007309990718e-01 0.0 
4.651541336764e-03 3.139078151912e-02 0.0 
6.676958673520e-03 4.213697851329e-02 0.0 
6.470423293054e-03 5.714791438652e-02 0.0 
3.034666356832e-04 7.393881317137e-02 0.0 
3.869471637667e-03 9.747811997302e-02 0.0 
1.277574594900e-02 8.110027414269e-02 0.0 
2.037241536089e-02 7.128071775640e-02 0.0 
6.456506929421e-03 5.290344097323e-02 0.0 
7.022594083791e-03 2.725449423730e-02 0.0 
3.760356433767e-03 2.846807789957e-02 0.0 
9.376978671839e-03 3.691634666773e-02 0.0 
-3.460546740090e-03 1.091244885777e-01 0.0 
1.985006555463e-02 1.306531587189e-01 0.0 
2.948205960769e-03 2.548321383951e-02 0.0 
1.458145578822e-02 5.798856304327e-02 0.0 
1.148037214907e-02 3.103559431627e-02 0.0 
9.785874831421e-04 5.427436423065e-02 0.0 
8.658652949523e-03 1.904132040653e-02 0.0 
1.851609509058e-02 1.336681604014e-01 0.0 
2.220511601162e-03 2.242974902965e-02 0.0 
1.083031331232e-02 3.735063729485e-02 0.0 
1.599127504534e-02 9.152528048686e-02 0.0 
2.311727631772e-03 1.405469506916e-01 0.0 
1.401487952120e-03 1.409681276406e-02 0.0 
9.148603737812e-03 3.012720863944e-02 0.0 
2.202123987993e-02 6.488526112764e-02 0.0 
1.363046667250e-02 5.964170327791e-02 0.0 
1.784338908136e-02 1.436612227160e-01 0.0 
5.632949957044e-03 5.070444070610e-02 0.0 
2.288200109039e-02 7.224765361706e-02 0.0 
2.697385252704e-03 1.276013605526e-02 0.0 
8.837614890694e-03 2.697235542504e-02 0.0 
1.789201055034e-02 8.551645751363e-02 0.0 
4.962578481832e-03 5.307377616686e-02 0.0 
1.834057947056e-02 5.172048745019e-02 0.0 
6.654479190655e-04 7.641598635129e-02 0.0 
1.984594414685e-02 1.339115116624e-01 0.0 
4.201824573940e-03 5.099515790336e-02 0.0 
1.270481155108e-02 7.760704135164e-02 0.0 
1.262106549634e-02 5.670253784146e-02 0.0 
8.149003926237e-03 1.880329486090e-02 0.0 
3.453651972090e-03 4.886245962320e-02 0.0 
1.399806242621e-02 7.415148627957e-02 0.0 
2.722951939139e-03 4.667435924810e-02 0.0 
1.640910628527e-02 1.439215123954e-01 0.0 
1.830612677222e-02 7.749827553121e-02 0.0 
1.989194511977e-03 4.441961932295e-02 0.0 
2.126819782511e-02 6.227195158224e-02 0.0 
1.025354234242e-03 7.654751777389e-02 0.0 
2.090831347951e-02 5.936335768531e-02 0.0 
7.627038415189e-04 2.354519268225e-02 0.0 
6.961841803541e-03 6.774685391279e-02 0.0 
1.158849923043e-02 5.388682915506e-02 0.0 
1.652258290417e-02 6.392591095901e-02 0.0 
1.381428001194e-02 1.421742327519e-01 0.0 
1.117839480257e-02 4.878911931362e-02 0.0 
1.901610436568e-02 5.193252613673e-02 0.0 
1.963444443283e-02 5.415755077672e-02 0.0 
2.020540399836e-02 6.522639949768e-02 0.0 
1.044163369343e-02 4.312960440085e-02 0.0 
1.599632967409e-02 1.314321475440e-01 0.0 
4.188063554720e-03 7.239098186343e-02 0.0 
3.425766440421e-03 7.427351273942e-02 0.0 
1.352594644262e-02 7.094615908395e-02 0.0 
1.746325609509e-02 4.740118910355e-02 0.0 
5.373026012454e-04 7.552940687343e-02 0.0 
1.820598542119e-02 6.254986827622e-02 0.0 
2.386670827105e-03 7.681253634157e-02 0.0 
1.210573086279e-02 7.151210439143e-02 0.0 
1.592320468741e-02 4.043529823070e-02 0.0 
6.749323182280e-04 1.021334426065e-01 0.0 
1.161070670507e-02 6.882730910401e-02 0.0 
3.577617722847e-04 7.216365739572e-02 0.0 
1.027876206800e-02 6.964524133188e-02 0.0 
1.952616528672e-02 5.867803073378e-02 0.0 
9.790744529037e-03 6.737468643359e-02 0.0 
8.565317051956e-03 6.840190370851e-02 0.0 
1.805293301867e-03 2.910051776461e-02 0.0 
8.084101292536e-03 6.648931455265e-02 0.0 
2.418241357245e-04 1.384302133670e-02 0.0 
2.295854548702e-04 7.430865364199e-03 0.0 
8.725656632220e-04 1.301754610819e-01 0.0 
1.009110264211e-02 1.395652819992e-01 0.0 
-4.860958775135e-03 9.143087841141e-02 0.0 
1.284730497118e-02 1.263153075264e-01 0.0 
6.250139015453e-03 7.041244736849e-02 0.0 
1.944968610929e-02 6.087327463070e-02 0.0 
1.813788206934e-03 1.295535021396e-01 0.0 
5.184832757487e-03 7.139165870874e-02 0.0 
8.481328737397e-03 2.293984857150e-02 0.0 
4.232410766533e-03 8.871523660044e-03 0.0 
1.234992114887e-03 7.948368146710e-02 0.0 
9.930913884307e-03 2.749245380576e-02 0.0 
1.814957237178e-02 4.891091837285e-02 0.0 
3.610966179095e-04 4.240275081414e-02 0.0 
5.294712992317e-03 1.416262058443e-01 0.0 
4.039427750549e-04 7.880649446599e-02 0.0 
5.877978727697e-04 3.919530200929e-02 0.0 
6.477751025005e-03 1.335824252758e-01 0.0 
8.155459009657e-03 1.215627944902e-01 0.0 
4.299437230284e-03 1.146253681905e-01 0.0 
1.371945098850e-03 6.920127473524e-02 0.0 
1.146701350315e-03 8.017458100399e-02 0.0 
3.736805949018e-03 1.254454152804e-01 0.0 
6.376798993012e-03 1.618138385203e-02 0.0 
8.941095102955e-03 1.289919590437e-01 0.0 
1.532104261966e-02 3.763142567305e-02 0.0 
6.093942566745e-05 1.173872803386e-01 0.0 
4.662906017215e-03 2.746502891433e-02 0.0 
8.105743720161e-03 1.794312495584e-02 0.0 
1.188584545928e-03 6.612726553148e-03 0.0 
1.208805138626e-02 2.817466811806e-02 0.0 
4.553825639823e-04 1.074451178481e-01 0.0 
1.360177897313e-02 1.147290076328e-01 0.0 
8.755850150255e-03 1.989726994742e-02 0.0 
1.687285468501e-03 6.725627121348e-02 0.0 
8.478354500677e-04 6.307423606188e-03 0.0 
1.122954340387e-02 1.294257176076e-01 0.0 
1.087223618749e-03 2.718334085024e-02 0.0 
3.641436830307e-03 8.385826232311e-02 0.0 
5.453217239128e-04 2.639271155523e-02 0.0 
1.680210440646e-02 4.880712994900e-02 0.0 
3.737941454726e-03 1.125953934437e-01 0.0 
1.641938703793e-02 1.125259470394e-01 0.0 
6.342228028343e-04 1.283967667818e-02 0.0 
7.788042922338e-03 2.435523416759e-02 0.0 
-1.431607392158e-03 1.034955833606e-01 0.0 
1.938497716929e-03 8.102044510459e-02 0.0 
2.256306545819e-03 6.458886287319e-02 0.0 
-1.664565394056e-03 8.676658395429e-02 0.0 
2.989048443354e-03 1.382856869177e-02 0.0 
1.359008093404e-02 3.684377675409e-02 0.0 
1.064290598793e-03 1.312495158037e-02 0.0 
1.274124645231e-04 7.635964012004e-02 0.0 
5.544192636173e-04 7.793790892654e-02 0.0 
3.401689647416e-03 1.300040203890e-02 0.0 
8.226306340639e-03 1.999338268219e-02 0.0 
4.558264526450e-03 8.095684860433e-02 0.0 
1.562346164514e-03 1.105701703753e-02 0.0 
-4.014667552495e-03 1.007924125553e-01 0.0 
7.142800252918e-03 1.429631403103e-01 0.0 
6.434726523063e-04 7.733779633081e-02 0.0 
6.738370009499e-04 6.358642529374e-03 0.0 
2.703926894620e-03 2.590746221267e-02 0.0 
1.591698779268e-03 6.161919040666e-02 0.0 
1.562459109325e-02 1.333798999011e-01 0.0 
8.201590308727e-04 7.074000420235e-02 0.0 
1.147027374395e-02 2.606781005079e-02 0.0 
1.134838546046e-03 7.861633228332e-02 0.0 
1.814897181151e-03 2.453457244671e-02 0.0 
4.030428260185e-03 1.296983555756e-02 0.0 
5.605854300891e-03 2.339708752035e-02 0.0 
2.737674476921e-03 6.239012373150e-03 0.0 
-2.962045590231e-03 9.319965994486e-02 0.0 
7.251850922033e-03 1.576643840095e-02 0.0 
6.951472338733e-03 2.061397357148e-02 0.0 
4.003425426565e-03 1.421867652267e-01 0.0 
6.934270950060e-03 2.444168916456e-02 0.0 
1.443767328776e-03 6.708670680398e-02 0.0 
1.172936174763e-03 7.572500770071e-02 0.0 
1.037470852292e-04 1.226720982693e-02 0.0 
5.870134484268e-05 7.718822743141e-02 0.0 
6.786745069542e-04 1.420709709595e-01 0.0 
9.137245946426e-05 6.059519641074e-03 0.0 
7.070407959810e-04 7.576354381546e-02 0.0 
1.443663967635e-03 1.199305640838e-01 0.0 
7.792323083414e-03 1.978304369228e-02 0.0 
4.245464591399e-04 5.355100132460e-02 0.0 
8.376977125486e-04 5.273577730805e-02 0.0 
2.256939443360e-03 8.002253529151e-02 0.0 
-4.415462795371e-03 8.842770243212e-02 0.0 
1.171409795399e-03 9.478469526707e-02 0.0 
7.029798773346e-03 1.573521945298e-02 0.0 
4.367429128436e-03 2.281837885404e-02 0.0 
3.011499010834e-03 1.047070531806e-01 0.0 
1.299611256991e-03 9.967371079815e-02 0.0 
1.071631530414e-02 2.770226177197e-02 0.0 
1.706355064828e-03 5.888363704187e-02 0.0 
1.159765967971e-02 2.706870020956e-02 0.0 
7.997720610189e-03 2.144905476903e-02 0.0 
-6.830595453766e-03 1.025140047756e-01 0.0 
3.813465288348e-04 4.912794722715e-02 0.0 
6.168203856724e-04 7.753832812050e-02 0.0 
1.960456006968e-03 1.215543805245e-02 0.0 
1.132150603061e-03 5.713694490051e-02 0.0 
1.434020602458e-02 1.518586122608e-01 0.0 
4.809042312530e-04 1.584615788555e-01 0.0 

TENSORS node_materi_stress float
-2.540412298071e+00 1.547801507124e-02 0.0 
1.547801507124e-02 -8.544137001054e+00 0.0 
0.0 0.0 -3.243618064818e+00 
-2.351416882890e+01 4.234466460923e-01 0.0 
4.234466460923e-01 -2.030458002089e+01 0.0 
0.0 0.0 -1.274562465494e+01 
-1.622179435776e+02 2.258189477627e-02 0.0 
2.258189477627e-02 -3.820152940586e+02 0.0 
0.0 0.0 -1.628699712909e+02 
-9.134702374774e+01 8.754909990776e-01 0.0 
8.754909990776e-01 -2.115934898953e+02 0.0 
0.0 0.0 -9.048215409293e+01 
-7.022154596739e+00 -2.982805860558e-01 0.0 
-2.982805860558e-01 -2.078634190715e+01 0.0 
0.0 0.0 -8.154717801221e+00 
-1.408385869261e+01 -6.630529370105e-01 0.0 
-6.630529370105e-01 -4.044735510643e+01 0.0 
0.0 0.0 -1.595936413971e+01 
-2.071025497325e+01 -5.370695079229e-01 0.0 
-5.370695079229e-01 -5.873962882890e+01 0.0 
0.0 0.0 -2.343496514065e+01 
-2.842958207812e+01 -5.090961029440e-01 0.0 
-5.090961029440e-01 -7.971279684086e+01 0.0 
0.0 0.0 -3.204271367569e+01 
-3.561952804805e+01 -3.860126852789e-01 0.0 
-3.860126852789e-01 -9.984149705285e+01 0.0 
0.0 0.0 -4.023830753027e+01 
-4.300344536094e+01 -3.632252892979e-01 0.0 
-3.632252892979e-01 -1.196847095049e+02 0.0 
0.0 0.0 -4.840644645976e+01 
-5.034607192157e+01 -3.862237725644e-01 0.0 
-3.862237725644e-01 -1.395083479971e+02 0.0 
0.0 0.0 -5.655632597561e+01 
-5.772613540535e+01 -3.322676487851e-01 0.0 
-3.322676487851e-01 -1.592811355424e+02 0.0 
0.0 0.0 -6.470218128434e+01 
-6.531392444816e+01 -3.052799069877e-01 0.0 
-3.052799069877e-01 -1.790026234274e+02 0.0 
0.0 0.0 -7.289496436268e+01 
-7.306833786646e+01 -3.468632641854e-01 0.0 
-3.468632641854e-01 -1.988481033247e+02 0.0 
0.0 0.0 -8.117493235734e+01 
-8.120974947528e+01 -4.792748579972e-01 0.0 
-4.792748579972e-01 -2.190991084268e+02 0.0 
0.0 0.0 -8.969265737064e+01 
-8.971213158730e+01 -4.791207870881e-01 0.0 
-4.791207870881e-01 -2.386082549630e+02 0.0 
0.0 0.0 -9.809611596510e+01 
-9.775020486159e+01 -5.886543558592e-01 0.0 
-5.886543558592e-01 -2.563247049715e+02 0.0 
0.0 0.0 -1.058224729499e+02 
-1.065612029635e+02 -1.280633505161e-01 0.0 
-1.280633505161e-01 -2.756990128009e+02 0.0 
0.0 0.0 -1.142780647293e+02 
-1.160273334198e+02 -7.605813690334e-02 0.0 
-7.605813690334e-02 -2.954594683350e+02 0.0 
0.0 0.0 -1.230460405265e+02 
-1.255390956392e+02 -4.484084570044e-02 0.0 
-4.484084570044e-02 -3.145275788345e+02 0.0 
0.0 0.0 -1.316200023421e+02 
-1.353850968656e+02 7.265492071070e-03 0.0 
7.265492071070e-03 -3.336308618499e+02 0.0 
0.0 0.0 -1.403047876147e+02 
-1.456209310128e+02 1.976984444658e-04 0.0 
1.976984444658e-04 -3.527838962236e+02 0.0 
0.0 0.0 -1.491214481709e+02 
-1.556172480127e+02 -6.188938463927e-02 0.0 
-6.188938463927e-02 -3.709565586391e+02 0.0 
0.0 0.0 -1.575721419955e+02 
-9.162877600884e+01 1.291288314050e+00 0.0 
1.291288314050e+00 -2.128255384952e+02 0.0 
0.0 0.0 -9.093629435121e+01 
-9.112547828175e+01 2.327718876705e+00 0.0 
2.327718876705e+00 -2.118503164897e+02 0.0 
0.0 0.0 -9.049273843143e+01 
-9.135296710018e+01 3.718879734499e+00 0.0 
3.718879734499e+00 -2.122765984547e+02 0.0 
0.0 0.0 -9.068886966646e+01 
-9.140149883319e+01 4.559095646053e+00 0.0 
4.559095646053e+00 -2.125515029390e+02 0.0 
0.0 0.0 -9.078590053165e+01 
-9.157494027255e+01 5.954066328788e+00 0.0 
5.954066328788e+00 -2.123357675578e+02 0.0 
0.0 0.0 -9.077321234909e+01 
-9.209858796326e+01 7.376939590622e+00 0.0 
7.376939590622e+00 -2.135453818830e+02 0.0 
0.0 0.0 -9.129319095388e+01 
-9.296231182676e+01 8.969520087430e+00 0.0 
8.969520087430e+00 -2.147645727330e+02 0.0 
0.0 0.0 -9.191806536792e+01 
-9.317882113279e+01 1.078828641220e+01 0.0 
1.078828641220e+01 -2.156014991300e+02 0.0 
0.0 0.0 -9.223409607883e+01 
-9.435721995889e+01 1.273684341015e+01 0.0 
1.273684341015e+01 -2.179350274343e+02 0.0 
0.0 0.0 -9.328767421796e+01 
-9.497598195758e+01 1.439844318370e+01 0.0 
1.439844318370e+01 -2.197964010447e+02 0.0 
0.0 0.0 -9.403171490068e+01 
-9.615761741954e+01 1.653445100635e+01 0.0 
1.653445100635e+01 -2.215584206198e+02 0.0 
0.0 0.0 -9.491481141181e+01 
-9.756805596501e+01 1.877866859808e+01 0.0 
1.877866859808e+01 -2.251716999491e+02 0.0 
0.0 0.0 -9.642192677422e+01 
-9.973170363711e+01 2.104978605208e+01 0.0 
2.104978605208e+01 -2.295627928127e+02 0.0 
0.0 0.0 -9.838834893493e+01 
-1.010317713578e+02 2.325802209046e+01 0.0 
2.325802209046e+01 -2.334250872439e+02 0.0 
0.0 0.0 -9.993705758052e+01 
-1.033180552400e+02 2.541046678384e+01 0.0 
2.541046678384e+01 -2.381802321888e+02 0.0 
0.0 0.0 -1.020494862286e+02 
-1.050483018992e+02 2.723885894952e+01 0.0 
2.723885894952e+01 -2.431638434101e+02 0.0 
0.0 0.0 -1.040636435928e+02 
-1.077919208540e+02 2.911623314510e+01 0.0 
2.911623314510e+01 -2.495564173542e+02 0.0 
0.0 0.0 -1.068045014625e+02 
-1.112193147273e+02 3.078868488201e+01 0.0 
3.078868488201e+01 -2.576121287898e+02 0.0 
0.0 0.0 -1.102494330551e+02 
-1.141867212995e+02 3.212343827775e+01 0.0 
3.212343827775e+01 -2.654912634159e+02 0.0 
0.0 0.0 -1.135033954146e+02 
-1.173073669221e+02 3.311609693014e+01 0.0 
3.311609693014e+01 -2.736132474873e+02 0.0 
0.0 0.0 -1.168761843228e+02 
-1.202467768563e+02 3.359789345825e+01 0.0 
3.359789345825e+01 -2.814455187491e+02 0.0 
0.0 0.0 -1.201076886816e+02 
-1.235456411712e+02 3.392567626649e+01 0.0 
3.392567626649e+01 -2.892723316119e+02 0.0 
0.0 0.0 -1.234453918349e+02 
-1.265694541980e+02 3.381114109491e+01 0.0 
3.381114109491e+01 -2.971620669178e+02 0.0 
0.0 0.0 -1.267194563347e+02 
-1.296349226218e+02 3.341454480813e+01 0.0 
3.341454480813e+01 -3.048232927222e+02 0.0 
0.0 0.0 -1.299374646032e+02 
-1.327507118562e+02 3.274815137451e+01 0.0 
3.274815137451e+01 -3.124784514746e+02 0.0 
0.0 0.0 -1.331687489992e+02 
-1.358294798874e+02 3.191857661420e+01 0.0 
3.191857661420e+01 -3.198667548577e+02 0.0 
0.0 0.0 -1.363088704235e+02 
-1.385338817282e+02 3.079771960085e+01 0.0 
3.079771960085e+01 -3.267094825688e+02 0.0 
0.0 0.0 -1.391730092891e+02 
-1.411628132535e+02 2.951579688470e+01 0.0 
2.951579688470e+01 -3.330482169297e+02 0.0 
0.0 0.0 -1.418633090550e+02 
-1.434459226533e+02 2.805431941292e+01 0.0 
2.805431941292e+01 -3.387370021485e+02 0.0 
0.0 0.0 -1.442548774406e+02 
-1.462307616659e+02 2.674100015269e+01 0.0 
2.674100015269e+01 -3.447024597964e+02 0.0 
0.0 0.0 -1.468799664387e+02 
-1.478870349143e+02 2.481926603528e+01 0.0 
2.481926603528e+01 -3.495283551448e+02 0.0 
0.0 0.0 -1.488246170177e+02 
-1.493976649117e+02 2.326821583999e+01 0.0 
2.326821583999e+01 -3.531437242899e+02 0.0 
0.0 0.0 -1.503624167605e+02 
-1.513027699269e+02 2.151951558357e+01 0.0 
2.151951558357e+01 -3.574569316220e+02 0.0 
0.0 0.0 -1.522279104647e+02 
-1.529987791063e+02 1.990689155225e+01 0.0 
1.990689155225e+01 -3.613312038080e+02 0.0 
0.0 0.0 -1.538989948743e+02 
-1.544908137769e+02 1.825804215154e+01 0.0 
1.825804215154e+01 -3.647762644187e+02 0.0 
0.0 0.0 -1.553801234587e+02 
-1.558497605530e+02 1.666487548150e+01 0.0 
1.666487548150e+01 -3.677683589638e+02 0.0 
0.0 0.0 -1.566854358551e+02 
-1.569629210062e+02 1.510194732569e+01 0.0 
1.510194732569e+01 -3.703676362073e+02 0.0 
0.0 0.0 -1.577991671640e+02 
-1.578521622764e+02 1.355195181950e+01 0.0 
1.355195181950e+01 -3.723909895906e+02 0.0 
0.0 0.0 -1.586729455601e+02 
-1.585675230585e+02 1.215493366991e+01 0.0 
1.215493366991e+01 -3.740326467340e+02 0.0 
0.0 0.0 -1.593800509378e+02 
-1.590944997342e+02 1.070035077804e+01 0.0 
1.070035077804e+01 -3.753290472985e+02 0.0 
0.0 0.0 -1.599270641098e+02 
-1.600025627692e+02 9.527654320051e+00 0.0 
9.527654320051e+00 -3.770645309787e+02 0.0 
0.0 0.0 -1.607201281244e+02 
-1.610298046708e+02 8.195510398450e+00 0.0 
8.195510398450e+00 -3.790849110534e+02 0.0 
0.0 0.0 -1.616344147173e+02 
-1.615758069046e+02 7.154480604912e+00 0.0 
7.154480604912e+00 -3.802428393420e+02 0.0 
0.0 0.0 -1.621455938740e+02 
-1.605441632504e+02 5.890497793298e+00 0.0 
5.890497793298e+00 -3.787760872584e+02 0.0 
0.0 0.0 -1.613960751526e+02 
-1.621103008724e+02 4.725462846729e+00 0.0 
4.725462846729e+00 -3.813798270456e+02 0.0 
0.0 0.0 -1.626470383754e+02 
-1.618788900181e+02 3.758308312012e+00 0.0 
3.758308312012e+00 -3.811087142227e+02 0.0 
0.0 0.0 -1.624962812722e+02 
-1.624086510354e+02 3.024939514548e+00 0.0 
3.024939514548e+00 -3.820085363843e+02 0.0 
0.0 0.0 -1.629251562259e+02 
-1.628037974731e+02 1.836915320748e+00 0.0 
1.836915320748e+00 -3.828715903413e+02 0.0 
0.0 0.0 -1.633026163443e+02 
-1.627894339719e+02 1.067424257739e+00 0.0 
1.067424257739e+00 -3.829227151508e+02 0.0 
0.0 0.0 -1.633136447368e+02 
-3.177480662213e+01 2.866656512790e-01 0.0 
2.866656512790e-01 -4.007818788019e+01 0.0 
0.0 0.0 -2.115589835070e+01 
-3.965000504428e+01 3.671450339666e-01 0.0 
3.671450339666e-01 -5.977778181589e+01 0.0 
0.0 0.0 -2.942833605805e+01 
-4.749449213867e+01 3.986723810219e-01 0.0 
3.986723810219e-01 -7.940032705536e+01 0.0 
0.0 0.0 -3.766844575821e+01 
-5.488539021112e+01 4.784046997472e-01 0.0 
4.784046997472e-01 -9.873227667367e+01 0.0 
0.0 0.0 -4.568530006544e+01 
-6.216209696501e+01 4.855268268787e-01 0.0 
4.855268268787e-01 -1.186352243870e+02 0.0 
0.0 0.0 -5.383919640560e+01 
-6.941442412753e+01 5.833715723788e-01 0.0 
5.833715723788e-01 -1.387911427684e+02 0.0 
0.0 0.0 -6.206167006879e+01 
-7.598585221429e+01 5.868180844632e-01 0.0 
5.868180844632e-01 -1.588376115983e+02 0.0 
0.0 0.0 -7.004703914379e+01 
-8.211840833017e+01 7.217475975251e-01 0.0 
7.217475975251e-01 -1.788151994847e+02 0.0 
0.0 0.0 -7.788008234447e+01 
-8.856249777241e+01 7.955328136742e-01 0.0 
7.955328136742e-01 -1.996516138292e+02 0.0 
0.0 0.0 -8.606423348048e+01 
-1.705134614724e+01 5.138232337858e+00 0.0 
5.138232337858e+00 -6.947200298282e+00 0.0 
0.0 0.0 -7.182018833606e+00 
-3.526871637863e+01 6.781285010293e+00 0.0 
6.781285010293e+00 -2.392820161664e+01 0.0 
0.0 0.0 -1.735907539858e+01 
-2.164349398649e+01 1.274469723111e+01 0.0 
1.274469723111e+01 -1.470836118046e+01 0.0 
0.0 0.0 -1.054141588889e+01 
-2.511479556321e+01 1.606417102168e+01 0.0 
1.606417102168e+01 -1.879197990523e+01 0.0 
0.0 0.0 -1.277203264053e+01 
-2.674292442476e+01 1.760496107711e+01 0.0 
1.760496107711e+01 -2.025703067228e+01 0.0 
0.0 0.0 -1.369998652911e+01 
-2.684992596861e+01 1.807894858928e+01 0.0 
1.807894858928e+01 -2.000314916855e+01 0.0 
0.0 0.0 -1.365592254115e+01 
-2.712406736111e+01 1.828931747664e+01 0.0 
1.828931747664e+01 -2.072156512480e+01 0.0 
0.0 0.0 -1.395368974577e+01 
-2.738413480776e+01 1.843233813234e+01 0.0 
1.843233813234e+01 -2.123240943188e+01 0.0 
0.0 0.0 -1.418496327189e+01 
-2.774562193829e+01 1.854465407008e+01 0.0 
1.854465407008e+01 -2.166029576943e+01 0.0 
0.0 0.0 -1.442177531232e+01 
-2.973563139846e+01 1.866066602157e+01 0.0 
1.866066602157e+01 -2.173455887744e+01 0.0 
0.0 0.0 -1.504105708277e+01 
-3.703638080621e+01 1.361992729767e+01 0.0 
1.361992729767e+01 -1.869161749831e+01 0.0 
0.0 0.0 -1.631839949135e+01 
-1.854759151921e+01 5.201399262340e-01 0.0 
5.201399262340e-01 -7.075901742169e+00 0.0 
0.0 0.0 -7.287047978415e+00 
-2.255818927861e+01 -1.594868584250e-01 0.0 
-1.594868584250e-01 -1.758294196693e+01 0.0 
0.0 0.0 -1.164233937366e+01 
-2.295796410037e+01 4.013228819633e-02 0.0 
4.013228819633e-02 -1.871297025325e+01 0.0 
0.0 0.0 -1.210128030609e+01 
-2.287394251600e+01 -1.992830814651e-02 0.0 
-1.992830814651e-02 -1.876391770757e+01 0.0 
0.0 0.0 -1.209135806707e+01 
-2.282169124746e+01 -1.630935579862e-02 0.0 
-1.630935579862e-02 -1.853375543438e+01 0.0 
0.0 0.0 -1.200663400455e+01 
-2.412457725719e+01 -7.879919880049e-02 0.0 
-7.879919880049e-02 -2.118058334870e+01 0.0 
0.0 0.0 -1.319154818177e+01 
-2.306741529763e+01 -1.539871181710e-01 0.0 
-1.539871181710e-01 -1.884474400880e+01 0.0 
0.0 0.0 -1.217364779193e+01 
-2.315506881018e+01 -1.266471629768e-01 0.0 
-1.266471629768e-01 -1.865755973194e+01 0.0 
0.0 0.0 -1.214378856264e+01 
-2.324650627126e+01 -2.117650556912e-01 0.0 
-2.117650556912e-01 -1.885460079544e+01 0.0 
0.0 0.0 -1.223033212001e+01 
-2.358225578605e+01 -1.320830884056e-01 0.0 
-1.320830884056e-01 -1.932789068673e+01 0.0 
0.0 0.0 -1.247304394184e+01 
-2.383895027265e+01 -8.870831306492e-02 0.0 
-8.870831306492e-02 -1.928592636316e+01 0.0 
0.0 0.0 -1.253746299074e+01 
-2.440426120821e+01 1.851469287057e-01 0.0 
1.851469287057e-01 -1.930729552708e+01 0.0 
0.0 0.0 -1.271346702059e+01 
-2.530451137581e+01 6.425378000204e-01 0.0 
6.425378000204e-01 -1.945736453575e+01 0.0 
0.0 0.0 -1.302856277347e+01 
-2.699690614620e+01 1.464113365294e+00 0.0 
1.464113365294e+00 -1.997328751626e+01 0.0 
0.0 0.0 -1.369105809874e+01 
-2.964942397302e+01 3.095666653034e+00 0.0 
3.095666653034e+00 -2.100867737028e+01 0.0 
0.0 0.0 -1.479743040299e+01 
-1.893782877500e+01 2.021869360212e+00 0.0 
2.021869360212e+00 -6.331860195661e+00 0.0 
0.0 0.0 -7.494806532817e+00 
-2.122307345081e+01 3.744888654628e-01 0.0 
3.744888654628e-01 -7.194717155345e+00 0.0 
0.0 0.0 -8.442207909441e+00 
-2.144477936665e+01 -5.175669647225e-01 0.0 
-5.175669647225e-01 -6.975713233062e+00 0.0 
0.0 0.0 -8.426566287662e+00 
-2.023670544901e+01 -5.535243010358e-01 0.0 
-5.535243010358e-01 -7.027970373957e+00 0.0 
0.0 0.0 -8.079544862626e+00 
-1.832895454628e+01 -6.914283234616e-01 0.0 
-6.914283234616e-01 -8.037004309764e+00 0.0 
0.0 0.0 -7.832566111863e+00 
-1.666005315433e+01 -8.493640662302e-01 0.0 
-8.493640662302e-01 -8.457593138269e+00 0.0 
0.0 0.0 -7.462277234692e+00 
-1.489984906964e+01 -8.569361518154e-01 0.0 
-8.569361518154e-01 -8.399926720073e+00 0.0 
0.0 0.0 -6.915424797873e+00 
-1.314754609874e+01 -8.015996656036e-01 0.0 
-8.015996656036e-01 -8.300141054721e+00 0.0 
0.0 0.0 -6.359054805789e+00 
-1.146152518166e+01 -7.575333690935e-01 0.0 
-7.575333690935e-01 -8.281151452912e+00 0.0 
0.0 0.0 -5.846107371302e+00 
-9.942181724998e+00 -6.778700456345e-01 0.0 
-6.778700456345e-01 -8.304201623159e+00 0.0 
0.0 0.0 -5.397861395371e+00 
-8.454494979713e+00 -5.543600747313e-01 0.0 
-5.543600747313e-01 -8.406721348061e+00 0.0 
0.0 0.0 -4.984040721977e+00 
-7.469078256289e+00 -5.991930561644e-01 0.0 
-5.991930561644e-01 -8.980309648352e+00 0.0 
0.0 0.0 -4.871485616061e+00 
-6.079444217521e+00 -6.338486846351e-01 0.0 
-6.338486846351e-01 -8.668706250155e+00 0.0 
0.0 0.0 -4.356334882544e+00 
-4.803779952930e+00 -4.896637759787e-01 0.0 
-4.896637759787e-01 -7.919899057288e+00 0.0 
0.0 0.0 -3.735328632614e+00 
-3.870523420955e+00 -3.855157446039e-01 0.0 
-3.855157446039e-01 -8.048838255501e+00 0.0 
0.0 0.0 -3.498770986483e+00 
-3.181791617187e+00 -3.179916370665e-01 0.0 
-3.179916370665e-01 -8.322095388121e+00 0.0 
0.0 0.0 -3.376917704025e+00 
-2.604973537562e+00 -2.096374025110e-01 0.0 
-2.096374025110e-01 -8.356097236789e+00 0.0 
0.0 0.0 -3.213705146422e+00 
-2.152771759788e+00 -1.933179018025e-01 0.0 
-1.933179018025e-01 -7.941380772894e+00 0.0 
0.0 0.0 -2.951138463695e+00 
-1.911983319996e+00 1.105394403384e-02 0.0 
1.105394403384e-02 -7.336577665519e+00 0.0 
0.0 0.0 -2.682984570043e+00 
-2.714274086201e+01 4.141368819684e+00 0.0 
4.141368819684e+00 -5.243569877499e+00 0.0 
0.0 0.0 -9.297767746331e+00 
-2.213727023919e+01 2.312461667547e+00 0.0 
2.312461667547e+00 -1.019294308899e+01 0.0 
0.0 0.0 -9.299063998457e+00 
-1.963343436817e+01 9.675102081841e-01 0.0 
9.675102081841e-01 -1.024792453509e+01 0.0 
0.0 0.0 -8.564407670979e+00 
-1.825689037193e+01 2.951665386597e-01 0.0 
2.951665386597e-01 -9.904553838826e+00 0.0 
0.0 0.0 -8.048433263226e+00 
-1.771068212071e+01 2.383321212251e-02 0.0 
2.383321212251e-02 -9.821657700910e+00 0.0 
0.0 0.0 -7.859701946485e+00 
-1.764003584024e+01 -1.560964335469e-01 0.0 
-1.560964335469e-01 -9.826780336146e+00 0.0 
0.0 0.0 -7.840044852917e+00 
-1.782023416784e+01 -2.451704086150e-01 0.0 
-2.451704086150e-01 -9.775890518329e+00 0.0 
0.0 0.0 -7.878837405850e+00 
-1.806648423706e+01 -1.689111964554e-01 0.0 
-1.689111964554e-01 -9.768171284111e+00 0.0 
0.0 0.0 -7.950396656353e+00 
-1.842847993600e+01 -1.850601582196e-01 0.0 
-1.850601582196e-01 -9.836566218196e+00 0.0 
0.0 0.0 -8.079513846260e+00 
-1.858732072934e+01 -1.466425016910e-01 0.0 
-1.466425016910e-01 -9.840947753911e+00 0.0 
0.0 0.0 -8.128480544975e+00 
-1.877907156696e+01 -1.351232872439e-01 0.0 
-1.351232872439e-01 -9.843195066908e+00 0.0 
0.0 0.0 -8.186679990159e+00 
-1.892549432629e+01 -3.393115912482e-02 0.0 
-3.393115912482e-02 -9.851615735933e+00 0.0 
0.0 0.0 -8.233133018666e+00 
-1.893822971738e+01 -2.772946622255e-02 0.0 
-2.772946622255e-02 -9.873107909419e+00 0.0 
0.0 0.0 -8.243401288039e+00 
-1.891203661148e+01 9.224074774181e-02 0.0 
9.224074774181e-02 -9.722647389753e+00 0.0 
0.0 0.0 -8.190405200369e+00 
-1.887078318722e+01 3.411385727508e-01 0.0 
3.411385727508e-01 -9.231076922593e+00 0.0 
0.0 0.0 -8.030558032943e+00 
-1.858035643783e+01 -3.388362629652e-01 0.0 
-3.388362629652e-01 -7.041342791639e+00 0.0 
0.0 0.0 -7.286509768842e+00 
-1.850400050566e+01 9.575581661489e+00 0.0 
9.575581661489e+00 -1.045331733486e+01 0.0 
0.0 0.0 -8.379594398943e+00 
-2.370115436523e+01 1.474413548180e+01 0.0 
1.474413548180e+01 -1.733756640018e+01 0.0 
0.0 0.0 -1.191161622962e+01 
-2.602781560459e+01 1.694524136337e+01 0.0 
1.694524136337e+01 -1.963484402570e+01 0.0 
0.0 0.0 -1.329879788909e+01 
-2.709985494563e+01 1.794296193037e+01 0.0 
1.794296193037e+01 -2.064371857413e+01 0.0 
0.0 0.0 -1.392307205593e+01 
-2.780576634791e+01 1.877084300381e+01 0.0 
1.877084300381e+01 -2.079215609904e+01 0.0 
0.0 0.0 -1.417937673408e+01 
-2.766961022676e+01 1.886988050312e+01 0.0 
1.886988050312e+01 -2.112839843954e+01 0.0 
0.0 0.0 -1.423940259989e+01 
-2.745326585579e+01 1.848819367542e+01 0.0 
1.848819367542e+01 -2.149798924919e+01 0.0 
0.0 0.0 -1.428537653149e+01 
-2.812713586799e+01 1.850008952630e+01 0.0 
1.850008952630e+01 -2.165713690345e+01 0.0 
0.0 0.0 -1.453528183143e+01 
-3.421444767921e+01 1.858981015492e+01 0.0 
1.858981015492e+01 -2.176549672145e+01 0.0 
0.0 0.0 -1.639398332020e+01 
-3.499495176833e+01 8.496766948757e+00 0.0 
8.496766948757e+00 -1.598901053399e+01 0.0 
0.0 0.0 -1.488612595293e+01 
-2.365054576379e+01 1.391596873439e+01 0.0 
1.391596873439e+01 -2.482233919902e+01 0.0 
0.0 0.0 -1.414186548884e+01 
-1.462729638986e+02 2.020390621817e+01 0.0 
2.020390621817e+01 -3.515810146918e+02 0.0 
0.0 0.0 -1.489561935771e+02 
-1.273197224712e+01 -1.248653784634e+00 0.0 
-1.248653784634e+00 -1.683309608192e+01 0.0 
0.0 0.0 -8.856820523570e+00 
-1.920694854292e+01 -1.015363266028e+00 0.0 
-1.015363266028e+00 -1.600442846847e+01 0.0 
0.0 0.0 -1.055032083398e+01 
-1.525731986575e+02 1.245907504161e+01 0.0 
1.245907504161e+01 -3.652749375063e+02 0.0 
0.0 0.0 -1.549544408491e+02 
-2.728722152770e+01 1.779216038728e+01 0.0 
1.779216038728e+01 -2.880555149409e+01 0.0 
0.0 0.0 -1.642783190654e+01 
-7.740068361044e+01 1.501035636713e-02 0.0 
1.501035636713e-02 -2.097118704388e+02 0.0 
0.0 0.0 -8.573376621477e+01 
-1.383445746223e+02 2.640617275351e+01 0.0 
2.640617275351e+01 -3.327524830412e+02 0.0 
0.0 0.0 -1.409291172991e+02 
-2.892531754913e+01 1.925914818913e+01 0.0 
1.925914818913e+01 -3.040732977374e+01 0.0 
0.0 0.0 -1.739979419686e+01 
-1.294624618919e+02 3.151133806434e+01 0.0 
3.151133806434e+01 -3.082770977781e+02 0.0 
0.0 0.0 -1.309218679010e+02 
-3.234524744505e+01 2.013835149895e+01 0.0 
2.013835149895e+01 -3.227681018484e+01 0.0 
0.0 0.0 -1.898661728897e+01 
-1.564116313301e+02 7.368850456890e+00 0.0 
7.368850456890e+00 -3.722296308993e+02 0.0 
0.0 0.0 -1.581923786688e+02 
-8.109220209794e+00 -8.276879373692e-01 0.0 
-8.276879373692e-01 -1.621039626382e+01 0.0 
0.0 0.0 -7.305568569236e+00 
-1.187531556901e+02 3.303781025236e+01 0.0 
3.303781025236e+01 -2.772230600598e+02 0.0 
0.0 0.0 -1.183928647250e+02 
-4.377171109139e+01 1.264408264270e+01 0.0 
1.264408264270e+01 -3.967798945347e+01 0.0 
0.0 0.0 -2.463491016346e+01 
-4.701616821190e+01 -3.213437903324e-01 0.0 
-3.213437903324e-01 -1.305332202281e+02 0.0 
0.0 0.0 -5.286481653200e+01 
-1.006177172942e+02 2.318387417200e-01 0.0 
2.318387417200e-01 -2.630018530359e+02 0.0 
0.0 0.0 -1.086858710990e+02 
-1.110121677092e+02 3.081592749022e+01 0.0 
3.081592749022e+01 -2.528098401304e+02 0.0 
0.0 0.0 -1.087466023519e+02 
-1.016692416182e+02 2.357541900003e+01 0.0 
2.357541900003e+01 -2.272779954512e+02 0.0 
0.0 0.0 -9.828417112082e+01 
-9.061660011945e+01 6.575394489603e+00 0.0 
6.575394489603e+00 -2.050346998802e+02 0.0 
0.0 0.0 -8.829538999991e+01 
-9.263262209531e+01 1.121155696673e+01 0.0 
1.121155696673e+01 -2.064820227636e+02 0.0 
0.0 0.0 -8.933439345767e+01 
-9.667593602827e+01 1.734875122190e+01 0.0 
1.734875122190e+01 -2.156257312131e+02 0.0 
0.0 0.0 -9.329050017241e+01 
-4.033518624207e+01 4.663751327395e+00 0.0 
4.663751327395e+00 -4.005251641376e+01 0.0 
0.0 0.0 -2.371631079675e+01 
-3.348548483476e+01 5.278627654261e-01 0.0 
5.278627654261e-01 -3.729918724233e+01 0.0 
0.0 0.0 -2.083540162313e+01 
-3.233864569151e+01 2.448311808673e-01 0.0 
2.448311808673e-01 -3.837505947879e+01 0.0 
0.0 0.0 -2.081411155109e+01 
-5.869220179939e+01 4.954069652696e-01 0.0 
4.954069652696e-01 -1.087698741167e+02 0.0 
0.0 0.0 -4.983862277484e+01 
-1.569931295582e+02 4.307146111394e+00 0.0 
4.307146111394e+00 -3.732729874664e+02 0.0 
0.0 0.0 -1.586798351074e+02 
-1.991438299010e+01 1.497832058367e+00 0.0 
1.497832058367e+00 -1.460912642037e+01 0.0 
0.0 0.0 -1.035731669685e+01 
-6.295754760704e+00 -4.707020360076e-01 0.0 
-4.707020360076e-01 -1.723847309631e+01 0.0 
0.0 0.0 -7.049268643675e+00 
-1.300715050026e+02 6.016980253585e-01 0.0 
6.016980253585e-01 -3.233998704606e+02 0.0 
0.0 0.0 -1.356414126390e+02 
-3.027837795462e+01 -2.482715559088e-02 0.0 
-2.482715559088e-02 -3.602985446442e+01 0.0 
0.0 0.0 -1.949246972571e+01 
-2.449647790506e+01 -3.599871298712e-01 0.0 
-3.599871298712e-01 -6.918266255747e+01 0.0 
0.0 0.0 -2.770374213876e+01 
-1.049860733100e+02 2.719580724304e+01 0.0 
2.719580724304e+01 -2.351149370953e+02 0.0 
0.0 0.0 -1.016303031216e+02 
-1.347812945966e+02 2.941305592144e+01 0.0 
2.941305592144e+01 -3.225017364332e+02 0.0 
0.0 0.0 -1.367849093089e+02 
-1.241397351735e+02 3.284658928742e+01 0.0 
3.284658928742e+01 -2.931034565077e+02 0.0 
0.0 0.0 -1.247729575043e+02 
-1.415006323184e+02 2.347501681521e+01 0.0 
2.347501681521e+01 -3.413596716806e+02 0.0 
0.0 0.0 -1.444580911997e+02 
-1.496157426340e+02 1.706454541945e+01 0.0 
1.706454541945e+01 -3.587223833543e+02 0.0 
0.0 0.0 -1.521014377965e+02 
-1.685102035994e+01 -1.472972099531e+00 0.0 
-1.472972099531e+00 -1.716420609001e+01 0.0 
0.0 0.0 -1.019376955920e+01 
-3.555303397432e+01 1.606750017378e+00 0.0 
1.606750017378e+00 -3.727359573674e+01 0.0 
0.0 0.0 -2.144798891332e+01 
-1.526612854824e+02 9.632594970928e+00 0.0 
9.632594970928e+00 -3.658853347498e+02 0.0 
0.0 0.0 -1.551639860697e+02 
-7.248633497672e+01 7.551370924835e-01 0.0 
7.551370924835e-01 -1.483217340786e+02 0.0 
0.0 0.0 -6.584242071661e+01 
-1.037394778577e+01 -1.102841782274e+00 0.0 
-1.102841782274e+00 -1.709458021285e+01 0.0 
0.0 0.0 -8.241427199093e+00 
-6.149187886512e+01 -1.633039881978e-01 0.0 
-1.633039881978e-01 -1.692651851126e+02 0.0 
0.0 0.0 -6.882711919331e+01 
-9.066443174313e+01 4.012323690764e+00 0.0 
4.012323690764e+00 -2.071149605072e+02 0.0 
0.0 0.0 -8.893381767509e+01 
-2.838627956658e+01 1.870716334098e+01 0.0 
1.870716334098e+01 -3.156397124408e+01 0.0 
0.0 0.0 -1.758507524320e+01 
-2.592900044989e+01 1.640046348843e+01 0.0 
1.640046348843e+01 -2.765928155192e+01 0.0 
0.0 0.0 -1.567648460054e+01 
-3.007514861489e+01 1.966301421116e+01 0.0 
1.966301421116e+01 -3.194296176376e+01 0.0 
0.0 0.0 -1.820543311359e+01 
-3.928060548863e+01 1.891809693715e+01 0.0 
1.891809693715e+01 -3.287115206000e+01 0.0 
0.0 0.0 -2.124552726459e+01 
-1.994046262119e+01 9.613901784153e+00 0.0 
9.613901784153e+00 -1.780535043222e+01 0.0 
0.0 0.0 -1.097301194971e+01 
-4.436592322444e+01 1.609551007234e-01 0.0 
1.609551007234e-01 -7.112536288357e+01 0.0 
0.0 0.0 -3.424738583240e+01 
-1.591122781079e+02 2.394635935778e+00 0.0 
2.394635935778e+00 -3.770951067238e+02 0.0 
0.0 0.0 -1.604622154495e+02 
-5.413265302504e+00 -2.756902222683e-01 0.0 
-2.756902222683e-01 -1.639191399268e+01 0.0 
0.0 0.0 -6.497419530033e+00 
-8.491594039640e+01 9.631735656740e-01 0.0 
9.631735656740e-01 -1.880055157419e+02 0.0 
0.0 0.0 -8.147643684149e+01 
-4.687320420313e+01 1.084495042920e+01 0.0 
1.084495042920e+01 -4.631805493703e+01 0.0 
0.0 0.0 -2.755737774205e+01 
-5.187760740876e+01 1.500541218289e+01 0.0 
1.500541218289e+01 -6.110060135624e+01 0.0 
0.0 0.0 -3.349346262950e+01 
-5.456784228719e+01 1.233525181945e+01 0.0 
1.233525181945e+01 -6.624608546898e+01 0.0 
0.0 0.0 -3.584417832685e+01 
-6.016356926581e+01 1.688575315662e+01 0.0 
1.688575315662e+01 -8.378700760613e+01 0.0 
0.0 0.0 -4.278517306158e+01 
-6.338825393015e+01 1.491817217690e+01 0.0 
1.491817217690e+01 -9.004618922239e+01 0.0 
0.0 0.0 -4.563033294576e+01 
-6.789111624400e+01 1.827179277537e+01 0.0 
1.827179277537e+01 -1.057965976153e+02 0.0 
0.0 0.0 -5.170631415777e+01 
-6.461591877708e+01 2.001487082717e+01 0.0 
2.001487082717e+01 -1.007347495951e+02 0.0 
0.0 0.0 -4.920520051165e+01 
-7.207177031164e+01 2.098821042825e+01 0.0 
2.098821042825e+01 -1.222702245280e+02 0.0 
0.0 0.0 -5.790259845190e+01 
-6.851085368670e+01 2.233026154818e+01 0.0 
2.233026154818e+01 -1.179759128320e+02 0.0 
0.0 0.0 -5.554602995560e+01 
-7.129522297735e+01 1.669899759760e+01 0.0 
1.669899759760e+01 -1.124003808083e+02 0.0 
0.0 0.0 -5.470868113571e+01 
-7.589939263271e+01 2.306944221356e+01 0.0 
2.306944221356e+01 -1.390489660606e+02 0.0 
0.0 0.0 -6.408450760799e+01 
-7.224434094091e+01 2.397849224229e+01 0.0 
2.397849224229e+01 -1.352436562838e+02 0.0 
0.0 0.0 -6.184639916743e+01 
-7.960164456284e+01 2.461525509384e+01 0.0 
2.461525509384e+01 -1.559292061516e+02 0.0 
0.0 0.0 -7.025925521434e+01 
-7.593691876097e+01 2.515502491654e+01 0.0 
2.515502491654e+01 -1.523987689780e+02 0.0 
0.0 0.0 -6.810070632169e+01 
-6.847989022626e+01 2.462449801198e+01 0.0 
2.462449801198e+01 -1.323164278898e+02 0.0 
0.0 0.0 -5.983889543483e+01 
-7.215944033523e+01 2.540599263181e+01 0.0 
2.540599263181e+01 -1.495339635495e+02 0.0 
0.0 0.0 -6.610802116542e+01 
-6.468958226078e+01 2.492504269730e+01 0.0 
2.492504269730e+01 -1.299168304024e+02 0.0 
0.0 0.0 -5.798192379895e+01 
-6.837396483779e+01 2.534471974915e+01 0.0 
2.534471974915e+01 -1.471199550101e+02 0.0 
0.0 0.0 -6.424817595437e+01 
-7.589452914611e+01 2.585018888811e+01 0.0 
2.585018888811e+01 -1.664006627835e+02 0.0 
0.0 0.0 -7.228855757888e+01 
-7.212936525597e+01 2.547440862202e+01 0.0 
2.547440862202e+01 -1.638996945861e+02 0.0 
0.0 0.0 -7.040871795261e+01 
-6.460587713396e+01 2.495847132491e+01 0.0 
2.495847132491e+01 -1.449801833919e+02 0.0 
0.0 0.0 -6.247581815777e+01 
-6.836323993519e+01 2.481227169362e+01 0.0 
2.481227169362e+01 -1.615228651143e+02 0.0 
0.0 0.0 -6.856583151485e+01 
-6.097305978181e+01 2.425194692945e+01 0.0 
2.425194692945e+01 -1.429712620041e+02 0.0 
0.0 0.0 -6.078329653576e+01 
-6.473079604084e+01 2.386422066686e+01 0.0 
2.386422066686e+01 -1.592176944960e+02 0.0 
0.0 0.0 -6.678454716105e+01 
-5.751791067959e+01 2.324863034815e+01 0.0 
2.324863034815e+01 -1.409374440593e+02 0.0 
0.0 0.0 -5.913660642168e+01 
-6.124385230866e+01 2.267103697180e+01 0.0 
2.267103697180e+01 -1.568318556194e+02 0.0 
0.0 0.0 -6.502271237843e+01 
-6.862907397062e+01 2.334165793687e+01 0.0 
2.334165793687e+01 -1.749478510812e+02 0.0 
0.0 0.0 -7.267307751555e+01 
-6.509729963327e+01 2.199161456334e+01 0.0 
2.199161456334e+01 -1.721566677944e+02 0.0 
0.0 0.0 -7.077619022830e+01 
-5.791461383410e+01 2.128311293084e+01 0.0 
2.128311293084e+01 -1.542659448859e+02 0.0 
0.0 0.0 -6.325416761600e+01 
-6.171918599120e+01 2.046062399139e+01 0.0 
2.046062399139e+01 -1.691574957725e+02 0.0 
0.0 0.0 -6.886300452911e+01 
-5.477427031505e+01 1.971284173175e+01 0.0 
1.971284173175e+01 -1.514628209691e+02 0.0 
0.0 0.0 -6.147112738525e+01 
-5.850928476329e+01 1.875845380908e+01 0.0 
1.875845380908e+01 -1.658604177432e+02 0.0 
0.0 0.0 -6.691091075194e+01 
-6.570474101596e+01 1.959564654600e+01 0.0 
1.959564654600e+01 -1.835043535569e+02 0.0 
0.0 0.0 -7.436272837185e+01 
-6.243745846859e+01 1.780520003754e+01 0.0 
1.780520003754e+01 -1.797188201402e+02 0.0 
0.0 0.0 -7.224688358264e+01 
-5.544498288722e+01 1.691593484700e+01 0.0 
1.691593484700e+01 -1.621542509284e+02 0.0 
0.0 0.0 -6.487977014470e+01 
-5.931714116206e+01 1.589816139752e+01 0.0 
1.589816139752e+01 -1.755466258813e+02 0.0 
0.0 0.0 -7.005913011301e+01 
-5.253694213450e+01 1.496683041386e+01 0.0 
1.496683041386e+01 -1.580270523688e+02 0.0 
0.0 0.0 -6.276919835100e+01 
-5.637351936632e+01 1.389802288682e+01 0.0 
1.389802288682e+01 -1.709773617462e+02 0.0 
0.0 0.0 -6.780526433374e+01 
-4.982436575197e+01 1.293240849349e+01 0.0 
1.293240849349e+01 -1.534510103765e+02 0.0 
0.0 0.0 -6.058261283853e+01 
-5.358223847467e+01 1.182982817839e+01 0.0 
1.182982817839e+01 -1.658805154398e+02 0.0 
0.0 0.0 -6.543882617433e+01 
-6.042484447783e+01 1.290352280027e+01 0.0 
1.290352280027e+01 -1.834096592469e+02 0.0 
0.0 0.0 -7.275035111742e+01 
-5.757233551108e+01 1.085318283919e+01 0.0 
1.085318283919e+01 -1.778576605611e+02 0.0 
0.0 0.0 -7.022899882165e+01 
-5.096197893420e+01 9.759305384543e+00 0.0 
9.759305384543e+00 -1.602675628034e+02 0.0 
0.0 0.0 -6.296886252129e+01 
-5.485440794769e+01 8.808096822612e+00 0.0 
8.808096822612e+00 -1.717276656048e+02 0.0 
0.0 0.0 -6.757462206575e+01 
-6.176206998942e+01 9.991107850399e+00 0.0 
9.991107850399e+00 -1.894344388973e+02 0.0 
0.0 0.0 -7.495895266601e+01 
-5.893568019435e+01 8.001231183164e+00 0.0 
8.001231183164e+00 -1.828079930791e+02 0.0 
0.0 0.0 -7.212310198204e+01 
-6.613214724573e+01 9.251105132496e+00 0.0 
9.251105132496e+00 -2.006373798258e+02 0.0 
0.0 0.0 -7.963085812147e+01 
-6.319265487733e+01 7.327176852793e+00 0.0 
7.327176852793e+00 -1.935651008395e+02 0.0 
0.0 0.0 -7.662732671506e+01 
-5.626275847388e+01 6.093934020439e+00 0.0 
6.093934020439e+00 -1.757369180960e+02 0.0 
0.0 0.0 -6.919990297096e+01 
-6.038900152696e+01 5.500070079828e+00 0.0 
5.500070079828e+00 -1.860524848235e+02 0.0 
0.0 0.0 -7.353244590514e+01 
-6.759405233883e+01 6.770491337327e+00 0.0 
6.770491337327e+00 -2.040090660086e+02 0.0 
0.0 0.0 -8.108093550423e+01 
-6.463807178824e+01 5.029200168469e+00 0.0 
5.029200168469e+00 -1.960707408279e+02 0.0 
0.0 0.0 -7.781264378485e+01 
-5.768833164196e+01 3.799792275948e+00 0.0 
3.799792275948e+00 -1.780914118001e+02 0.0 
0.0 0.0 -7.033392303263e+01 
-6.180037856560e+01 3.426889566847e+00 0.0 
3.426889566847e+00 -1.877674131494e+02 0.0 
0.0 0.0 -7.447033751450e+01 
-6.901703922306e+01 4.667559981686e+00 0.0 
4.667559981686e+00 -2.058972785934e+02 0.0 
0.0 0.0 -8.207429534494e+01 
-6.602152826018e+01 3.160766225504e+00 0.0 
3.160766225504e+00 -1.972584631324e+02 0.0 
0.0 0.0 -7.858399741777e+01 
-5.902480647299e+01 1.983933004110e+00 0.0 
1.983933004110e+00 -1.790656992272e+02 0.0 
0.0 0.0 -7.102715171005e+01 
-6.308686469269e+01 1.821792340012e+00 0.0 
1.821792340012e+00 -1.882845426862e+02 0.0 
0.0 0.0 -7.501142221366e+01 
-7.037615461373e+01 2.989693005674e+00 0.0 
2.989693005674e+00 -2.067000353927e+02 0.0 
0.0 0.0 -8.272285700192e+01 
-6.723878037013e+01 1.743040932352e+00 0.0 
1.743040932352e+00 -1.973956808757e+02 0.0 
0.0 0.0 -7.899033837376e+01 
-6.015676646404e+01 6.584578834270e-01 0.0 
6.584578834270e-01 -1.789140581394e+02 0.0 
0.0 0.0 -7.132124738105e+01 
-6.412383672757e+01 6.664447362172e-01 0.0 
6.664447362172e-01 -1.877752873715e+02 0.0 
0.0 0.0 -7.516973722972e+01 
-7.149405001707e+01 1.724600973896e+00 0.0 
1.724600973896e+00 -2.064939192130e+02 0.0 
0.0 0.0 -8.299639076901e+01 
-6.817044176867e+01 7.289146872297e-01 0.0 
7.289146872297e-01 -1.966005486390e+02 0.0 
0.0 0.0 -7.903129712230e+01 
-7.580992657868e+01 1.746373271098e+00 0.0 
1.746373271098e+00 -2.155089945432e+02 0.0 
0.0 0.0 -8.699567633656e+01 
-6.093888769273e+01 -2.320710994020e-01 0.0 
-2.320710994020e-01 -1.777046330200e+02 0.0 
0.0 0.0 -7.119305621381e+01 
-6.481004873646e+01 -8.717198846590e-02 0.0 
-8.717198846590e-02 -1.863902886294e+02 0.0 
0.0 0.0 -7.496010120977e+01 
-5.768536361370e+01 -9.410150829054e-01 0.0 
-9.410150829054e-01 -1.672757078544e+02 0.0 
0.0 0.0 -6.708832144042e+01 
-6.141837602600e+01 -7.191346122676e-01 0.0 
-7.191346122676e-01 -1.759339225297e+02 0.0 
0.0 0.0 -7.080568956671e+01 
-6.989637536698e+01 1.873618582666e+01 0.0 
1.873618582666e+01 -1.973389702069e+02 0.0 
0.0 0.0 -7.977060367217e+01 
-5.437887248545e+01 -1.446984811992e+00 0.0 
-1.446984811992e+00 -1.566388438054e+02 0.0 
0.0 0.0 -6.290531488725e+01 
-5.095840369312e+01 -1.689980578480e+00 0.0 
-1.689980578480e+00 -1.482624739510e+02 0.0 
0.0 0.0 -5.936626329325e+01 
-5.797339616041e+01 -1.166762552084e+00 0.0 
-1.166762552084e+00 -1.652908128643e+02 0.0 
0.0 0.0 -6.657926270743e+01 
-6.525846963009e+01 -4.834820276834e-01 0.0 
-4.834820276834e-01 -1.847116339711e+02 0.0 
0.0 0.0 -7.459103108036e+01 
-5.097522374652e+01 -1.766033132256e+00 0.0 
-1.766033132256e+00 -1.458218382262e+02 0.0 
0.0 0.0 -5.863911859182e+01 
-5.445382946519e+01 -1.453416925467e+00 0.0 
-1.453416925467e+00 -1.544853288127e+02 0.0 
0.0 0.0 -6.228174748337e+01 
-4.747880035893e+01 -1.931638927773e+00 0.0 
-1.931638927773e+00 -1.348864103337e+02 0.0 
0.0 0.0 -5.430956320779e+01 
-4.618564468250e+01 1.409230091178e+01 0.0 
1.409230091178e+01 -1.402071464698e+02 0.0 
0.0 0.0 -5.551783734570e+01 
-7.978129558795e+01 2.605581197072e+01 0.0 
2.605581197072e+01 -1.829309978089e+02 0.0 
0.0 0.0 -7.841368801904e+01 
-5.084791914946e+01 -1.598930879979e+00 0.0 
-1.598930879979e+00 -1.435619924937e+02 0.0 
0.0 0.0 -5.792297349295e+01 
-4.385901233754e+01 -1.931163033937e+00 0.0 
-1.931163033937e+00 -1.238459523074e+02 0.0 
0.0 0.0 -4.991148939349e+01 
-4.070364152077e+01 -2.270481847218e+00 0.0 
-2.270481847218e+00 -1.151967037821e+02 0.0 
0.0 0.0 -4.637010359087e+01 
-3.708084086310e+01 -2.151573875708e+00 0.0 
-2.151573875708e+00 -1.040889679222e+02 0.0 
0.0 0.0 -4.195094263560e+01 
-6.675439269123e+01 1.360168422386e+01 0.0 
1.360168422386e+01 -9.798212700125e+01 0.0 
0.0 0.0 -4.902095590774e+01 
-7.397259961789e+01 1.527095231954e+01 0.0 
1.527095231954e+01 -1.198148422035e+02 0.0 
0.0 0.0 -5.773623254643e+01 
-6.895638437845e+01 1.215514254773e+01 0.0 
1.215514254773e+01 -1.054358447502e+02 0.0 
0.0 0.0 -5.191766873860e+01 
-7.639266215231e+01 1.417477103308e+01 0.0 
1.417477103308e+01 -1.277319827197e+02 0.0 
0.0 0.0 -6.083739346159e+01 
-7.159667922996e+01 1.126525890407e+01 0.0 
1.126525890407e+01 -1.146332098774e+02 0.0 
0.0 0.0 -5.546896673221e+01 
-4.014650169885e+01 -1.788675760638e+00 0.0 
-1.788675760638e+00 -1.127016639017e+02 0.0 
0.0 0.0 -4.545444968018e+01 
-8.308763936192e+01 2.386345958497e+01 0.0 
2.386345958497e+01 -1.603673278344e+02 0.0 
0.0 0.0 -7.263649015890e+01 
-8.087393505424e+01 1.700670478992e+01 0.0 
1.700670478992e+01 -1.417098161556e+02 0.0 
0.0 0.0 -6.637512536295e+01 
-5.730419845428e+01 2.443602064162e+01 0.0 
2.443602064162e+01 -1.261414041191e+02 0.0 
0.0 0.0 -5.463368077201e+01 
-5.121068583109e+01 2.059787059128e+01 0.0 
2.059787059128e+01 -1.364709839958e+02 0.0 
0.0 0.0 -5.590450094808e+01 
-6.921191615723e+01 1.123911663612e+01 0.0 
1.123911663612e+01 -2.072472118903e+02 0.0 
0.0 0.0 -8.253773841427e+01 
-5.801247546788e+01 -1.131821191787e+00 0.0 
-1.131821191787e+00 -1.631724971073e+02 0.0 
0.0 0.0 -6.595549177255e+01 
-5.430599466580e+01 -1.271637631442e+00 0.0 
-1.271637631442e+00 -1.522769375112e+02 0.0 
0.0 0.0 -6.157487965309e+01 
-6.158897333127e+01 -8.116544689888e-01 0.0 
-8.116544689888e-01 -1.719035146459e+02 0.0 
0.0 0.0 -6.964774639316e+01 
-7.932253650594e+01 2.838263661598e+00 0.0 
2.838263661598e+00 -2.252900104439e+02 0.0 
0.0 0.0 -9.098376408494e+01 
-8.386395267462e+01 2.801611234778e+00 0.0 
2.801611234778e+00 -2.344002207741e+02 0.0 
0.0 0.0 -9.507925203460e+01 
-8.759223528487e+01 3.978094590711e+00 0.0 
3.978094590711e+00 -2.440792021913e+02 0.0 
0.0 0.0 -9.910143124286e+01 
-9.233537860370e+01 3.871872999167e+00 0.0 
3.871872999167e+00 -2.532412915803e+02 0.0 
0.0 0.0 -1.032730010552e+02 
-9.630232776633e+01 5.123286720689e+00 0.0 
5.123286720689e+00 -2.628292559490e+02 0.0 
0.0 0.0 -1.073394751146e+02 
-1.012244939147e+02 4.933387246113e+00 0.0 
4.933387246113e+00 -2.720226736598e+02 0.0 
0.0 0.0 -1.115741502724e+02 
-9.708025088070e+01 3.758922662025e+00 0.0 
3.758922662025e+00 -2.622734534210e+02 0.0 
0.0 0.0 -1.074061112905e+02 
-1.061365011918e+02 4.730409228548e+00 0.0 
4.730409228548e+00 -2.810799445666e+02 0.0 
0.0 0.0 -1.157649337275e+02 
-1.018182735048e+02 3.625585194621e+00 0.0 
3.625585194621e+00 -2.711953946597e+02 0.0 
0.0 0.0 -1.115041004494e+02 
-1.054439309061e+02 6.248541358489e+00 0.0 
6.248541358489e+00 -2.815200851745e+02 0.0 
0.0 0.0 -1.156892048242e+02 
-1.003199945107e+02 6.516524982236e+00 0.0 
6.516524982236e+00 -2.721058872502e+02 0.0 
0.0 0.0 -1.113277645283e+02 
-1.110295206543e+02 4.499431995135e+00 0.0 
4.499431995135e+00 -2.900115170491e+02 0.0 
0.0 0.0 -1.199123113110e+02 
-1.065396958618e+02 3.454874741251e+00 0.0 
3.454874741251e+00 -2.800107691938e+02 0.0 
0.0 0.0 -1.155651395167e+02 
-1.159006916048e+02 4.225168675505e+00 0.0 
4.225168675505e+00 -2.988296222210e+02 0.0 
0.0 0.0 -1.240190941477e+02 
-1.112397109498e+02 3.238394650085e+00 0.0 
3.238394650085e+00 -2.887310701203e+02 0.0 
0.0 0.0 -1.195912343210e+02 
-1.020859503696e+02 2.542991023703e+00 0.0 
2.542991023703e+00 -2.697890582476e+02 0.0 
0.0 0.0 -1.111625025852e+02 
-1.066057416232e+02 2.378119915835e+00 0.0 
2.378119915835e+00 -2.784221733876e+02 0.0 
0.0 0.0 -1.151083745032e+02 
-9.768627971173e+01 1.778751122981e+00 0.0 
1.778751122981e+00 -2.594550657697e+02 0.0 
0.0 0.0 -1.067424036444e+02 
-7.385097193829e+01 1.055628912773e+01 0.0 
1.055628912773e+01 -2.185569375739e+02 0.0 
0.0 0.0 -8.732237285365e+01 
-7.717978181967e+01 1.254019258305e+01 0.0 
1.254019258305e+01 -2.251687170201e+02 0.0 
0.0 0.0 -9.030454965192e+01 
-8.207764583410e+01 1.190207097718e+01 0.0 
1.190207097718e+01 -2.365620366061e+02 0.0 
0.0 0.0 -9.519190473206e+01 
-8.565571634788e+01 1.388521149455e+01 0.0 
1.388521149455e+01 -2.431851495437e+02 0.0 
0.0 0.0 -9.825225976748e+01 
-9.081344412171e+01 1.328856198916e+01 0.0 
1.328856198916e+01 -2.546446135899e+02 0.0 
0.0 0.0 -1.032374173135e+02 
-9.462338481570e+01 1.527349328514e+01 0.0 
1.527349328514e+01 -2.612624354978e+02 0.0 
0.0 0.0 -1.063657460941e+02 
-1.000352639718e+02 1.470923961193e+01 0.0 
1.470923961193e+01 -2.727450836846e+02 0.0 
0.0 0.0 -1.114341042969e+02 
-9.610258557147e+01 1.274507918502e+01 0.0 
1.274507918502e+01 -2.657441595290e+02 0.0 
0.0 0.0 -1.081540235301e+02 
-8.328280892607e+01 2.578617520779e+01 0.0 
2.578617520779e+01 -1.727086454451e+02 0.0 
0.0 0.0 -7.639743631135e+01 
-4.848264557000e+01 7.698193399534e+00 0.0 
7.698193399534e+00 -1.541126221957e+02 0.0 
0.0 0.0 -6.037858032972e+01 
-4.489766561101e+01 8.748991455813e+00 0.0 
8.748991455813e+00 -1.427585014631e+02 0.0 
0.0 0.0 -5.589685012223e+01 
-4.266958173045e+01 6.670429168367e+00 0.0 
6.670429168367e+00 -1.366032908255e+02 0.0 
0.0 0.0 -5.338186176678e+01 
-3.942897204463e+01 7.828179042007e+00 0.0 
7.828179042007e+00 -1.253822670205e+02 0.0 
0.0 0.0 -4.904337171954e+01 
-3.744070446491e+01 5.744029827407e+00 0.0 
5.744029827407e+00 -1.191926722680e+02 0.0 
0.0 0.0 -4.659001301989e+01 
-3.459482119606e+01 7.030422718484e+00 0.0 
7.030422718484e+00 -1.081341358731e+02 0.0 
0.0 0.0 -4.241868712076e+01 
-3.282030164300e+01 4.956863891120e+00 0.0 
4.956863891120e+00 -1.018290314601e+02 0.0 
0.0 0.0 -3.999479993093e+01 
-3.556903590724e+01 3.754190606816e+00 0.0 
3.754190606816e+00 -1.123457591795e+02 0.0 
0.0 0.0 -4.397443852601e+01 
-3.116412831980e+01 3.001272744492e+00 0.0 
3.001272744492e+00 -9.481942124818e+01 0.0 
0.0 0.0 -3.739506487039e+01 
-3.378722468777e+01 1.912941829764e+00 0.0 
1.912941829764e+00 -1.048095617973e+02 0.0 
0.0 0.0 -4.117903594552e+01 
-2.955636567504e+01 1.213933217816e+00 0.0 
1.213933217816e+00 -8.707243722278e+01 0.0 
0.0 0.0 -3.458864086935e+01 
-3.202221053817e+01 2.804564957141e-01 0.0 
2.804564957141e-01 -9.653133499171e+01 0.0 
0.0 0.0 -3.816606365897e+01 
-7.269432612006e+01 2.274689280282e+01 0.0 
2.274689280282e+01 -1.901720309891e+02 0.0 
0.0 0.0 -7.845990713274e+01 
-8.934908018948e+01 1.588814362605e+01 0.0 
1.588814362605e+01 -2.493784278830e+02 0.0 
0.0 0.0 -1.012182524217e+02 
-9.856354620940e+01 1.727622923725e+01 0.0 
1.727622923725e+01 -2.674999589818e+02 0.0 
0.0 0.0 -1.094190515574e+02 
-9.312964851710e+01 1.787364487720e+01 0.0 
1.787364487720e+01 -2.551090964483e+02 0.0 
0.0 0.0 -1.040716234896e+02 
-3.409066259108e+01 -2.443273555777e+00 0.0 
-2.443273555777e+00 -9.547249274260e+01 0.0 
0.0 0.0 -3.846894660011e+01 
-1.159139220122e+02 2.964968936466e+00 0.0 
2.964968936466e+00 -2.973775869280e+02 0.0 
0.0 0.0 -1.235874526821e+02 
-1.097423162056e+02 7.703355726879e+00 0.0 
7.703355726879e+00 -2.907281448118e+02 0.0 
0.0 0.0 -1.197411383052e+02 
-1.044043250214e+02 8.035429746943e+00 0.0 
8.035429746943e+00 -2.810297026546e+02 0.0 
0.0 0.0 -1.152302083028e+02 
-1.055883112932e+02 1.417337726612e+01 0.0 
1.417337726612e+01 -2.838965798717e+02 0.0 
0.0 0.0 -1.164454673495e+02 
-3.336957999283e+01 -1.914631910286e+00 0.0 
-1.914631910286e+00 -9.307037013281e+01 0.0 
0.0 0.0 -3.753198503769e+01 
-3.044299619305e+01 6.418155313063e+00 0.0 
6.418155313063e+00 -9.103548403360e+01 0.0 
0.0 0.0 -3.604354406800e+01 
-3.206613529993e+01 8.532412375311e+00 0.0 
8.532412375311e+00 -9.655767969179e+01 0.0 
0.0 0.0 -3.818714449752e+01 
-7.863342153107e+01 1.328272456174e+01 0.0 
1.328272456174e+01 -1.362537085033e+02 0.0 
0.0 0.0 -6.406613901030e+01 
-7.391636506934e+01 1.059622800233e+01 0.0 
1.059622800233e+01 -1.238078320299e+02 0.0 
0.0 0.0 -5.891725912977e+01 
-1.141582157980e+02 9.275325587427e+00 0.0 
9.275325587427e+00 -2.996552055146e+02 0.0 
0.0 0.0 -1.237440263938e+02 
-3.640075666490e+01 -1.593327257814e+00 0.0 
-1.593327257814e+00 -1.016627041933e+02 0.0 
0.0 0.0 -4.101903825746e+01 
-1.155891614480e+02 5.672329801820e+00 0.0 
5.672329801820e+00 -2.998011265471e+02 0.0 
0.0 0.0 -1.242170863985e+02 
-2.740536326804e+01 2.413549028567e+00 0.0 
2.413549028567e+00 -7.739340173485e+01 0.0 
0.0 0.0 -3.103962950087e+01 
-1.111114055007e+02 2.151613375535e+00 0.0 
2.151613375535e+00 -2.870012078948e+02 0.0 
0.0 0.0 -1.190337840187e+02 
-1.205353818327e+02 2.631575669561e+00 0.0 
2.631575669561e+00 -3.059457691326e+02 0.0 
0.0 0.0 -1.275443452896e+02 
-9.300334989061e+01 2.731867635070e+00 0.0 
2.731867635070e+00 -2.523194910476e+02 0.0 
0.0 0.0 -1.031968522814e+02 
-1.026017337818e+02 1.928081727021e+01 0.0 
1.928081727021e+01 -2.733744418732e+02 0.0 
0.0 0.0 -1.123928526965e+02 
-9.700632247803e+01 1.980182072869e+01 0.0 
1.980182072869e+01 -2.604494982501e+02 0.0 
0.0 0.0 -1.068367462184e+02 
-3.671005747860e+01 1.106725832851e+00 0.0 
1.106725832851e+00 -1.146156035680e+02 0.0 
0.0 0.0 -4.499769831398e+01 
-3.474355002159e+01 -2.999918579429e-01 0.0 
-2.999918579429e-01 -1.059369985585e+02 0.0 
0.0 0.0 -4.180416457402e+01 
-3.027809069621e+01 -9.998370276151e-01 0.0 
-9.998370276151e-01 -8.796949367604e+01 0.0 
0.0 0.0 -3.507427531168e+01 
-3.313091868587e+01 -1.473482671555e+00 0.0 
-1.473482671555e+00 -9.746805777232e+01 0.0 
0.0 0.0 -3.877969293746e+01 
-3.773279465077e+01 -7.695344407031e-01 0.0 
-7.695344407031e-01 -1.154214394635e+02 0.0 
0.0 0.0 -4.554627023428e+01 
-3.555937882291e+01 -1.868367319570e+00 0.0 
-1.868367319570e+00 -1.058064952015e+02 0.0 
0.0 0.0 -4.200976220733e+01 
-3.080851290540e+01 -2.489673318870e+00 0.0 
-2.489673318870e+00 -8.740026227497e+01 0.0 
0.0 0.0 -3.506263255411e+01 
-3.324157863830e+01 -2.596543410363e+00 0.0 
-2.596543410363e+00 -9.577925402205e+01 0.0 
0.0 0.0 -3.830624979810e+01 
-3.841257608350e+01 -2.011615679926e+00 0.0 
-2.011615679926e+00 -1.145693325835e+02 0.0 
0.0 0.0 -4.549457260010e+01 
-3.587096488176e+01 -2.651306390104e+00 0.0 
-2.651306390104e+00 -1.043165917023e+02 0.0 
0.0 0.0 -4.165626697522e+01 
-3.073357100266e+01 -3.031253310953e+00 0.0 
-3.031253310953e+00 -8.520537751739e+01 0.0 
0.0 0.0 -3.438168455602e+01 
-3.309304664671e+01 -2.985375707312e+00 0.0 
-2.985375707312e+00 -9.363500229685e+01 0.0 
0.0 0.0 -3.761841468307e+01 
-1.255182224891e+02 3.504291528730e+00 0.0 
3.504291528730e+00 -3.161782166866e+02 0.0 
0.0 0.0 -1.321089317527e+02 
-2.601513567191e+01 7.003433346344e-01 0.0 
7.003433346344e-01 -6.938430773440e+01 0.0 
0.0 0.0 -2.821983302189e+01 
-6.100510736273e+01 2.412464991034e+01 0.0 
2.412464991034e+01 -1.122502919142e+02 0.0 
0.0 0.0 -5.157661978306e+01 
-1.196001910741e+02 8.843952622129e+00 0.0 
8.843952622129e+00 -3.092609097222e+02 0.0 
0.0 0.0 -1.282583302389e+02 
-1.096863469763e+02 1.614978865063e+01 0.0 
1.614978865063e+01 -2.906667046022e+02 0.0 
0.0 0.0 -1.197059154736e+02 
-8.070162717656e+01 1.256912379222e+01 0.0 
1.256912379222e+01 -1.452487265889e+02 0.0 
0.0 0.0 -6.738510612965e+01 
-7.613010307525e+01 1.008228681946e+01 0.0 
1.008228681946e+01 -1.333964291621e+02 0.0 
0.0 0.0 -6.245795967121e+01 
-6.884571818878e+01 8.053917441633e+00 0.0 
8.053917441633e+00 -1.121490346685e+02 0.0 
0.0 0.0 -5.389842585718e+01 
-7.133646851493e+01 7.782356612121e+00 0.0 
7.782356612121e+00 -1.223042175557e+02 0.0 
0.0 0.0 -5.769220582119e+01 
-7.823936738423e+01 9.673910861181e+00 0.0 
9.673910861181e+00 -1.433777098827e+02 0.0 
0.0 0.0 -6.608512318008e+01 
-7.373327079398e+01 7.553511809567e+00 0.0 
7.553511809567e+00 -1.326088335860e+02 0.0 
0.0 0.0 -6.150263131399e+01 
-6.641595151202e+01 5.802647203272e+00 0.0 
5.802647203272e+00 -1.118065536341e+02 0.0 
0.0 0.0 -5.306675154384e+01 
-6.914811755649e+01 5.719961720125e+00 0.0 
5.719961720125e+00 -1.223136277023e+02 0.0 
0.0 0.0 -5.703852357763e+01 
-6.151369350140e+01 4.159491072849e+00 0.0 
4.159491072849e+00 -1.017708127735e+02 0.0 
0.0 0.0 -4.858535188247e+01 
-6.455086731878e+01 4.193359082932e+00 0.0 
4.193359082932e+00 -1.124422248970e+02 0.0 
0.0 0.0 -5.269792766472e+01 
-7.181728378004e+01 5.610236678586e+00 0.0 
5.610236678586e+00 -1.329290905145e+02 0.0 
0.0 0.0 -6.102391228836e+01 
-6.752029607607e+01 4.194101144003e+00 0.0 
4.194101144003e+00 -1.232374011187e+02 0.0 
0.0 0.0 -5.682730915843e+01 
-5.999295157031e+01 2.961445751256e+00 0.0 
2.961445751256e+00 -1.029617195585e+02 0.0 
0.0 0.0 -4.848640133864e+01 
-6.325082642255e+01 3.036380149804e+00 0.0 
3.036380149804e+00 -1.137976633414e+02 0.0 
0.0 0.0 -5.271454692917e+01 
-5.553229766836e+01 2.025842787198e+00 0.0 
2.025842787198e+00 -9.367063202001e+01 0.0 
0.0 0.0 -4.436087890651e+01 
-5.907330162717e+01 2.137530491869e+00 0.0 
2.137530491869e+00 -1.044596247493e+02 0.0 
0.0 0.0 -4.865987791293e+01 
-6.646817236086e+01 2.970613886489e+00 0.0 
2.970613886489e+00 -1.247226341883e+02 0.0 
0.0 0.0 -5.695724196473e+01 
-2.986810716648e+01 -1.627255135871e+00 0.0 
-1.627255135871e+00 -8.254940619284e+01 0.0 
0.0 0.0 -3.332525400780e+01 
-1.015133083834e+02 1.224030757305e+01 0.0 
1.224030757305e+01 -2.765416654473e+02 0.0 
0.0 0.0 -1.130164921492e+02 
-1.113078360701e+02 1.364997979612e+01 0.0 
1.364997979612e+01 -2.948527287934e+02 0.0 
0.0 0.0 -1.214481694591e+02 
-5.791838284364e+01 -8.460310452354e-01 0.0 
-8.460310452354e-01 -1.615562589181e+02 0.0 
0.0 0.0 -6.544239252853e+01 
-6.508716825807e+01 -4.880181288983e-01 0.0 
-4.880181288983e-01 -1.803687376531e+02 0.0 
0.0 0.0 -7.323677177334e+01 
-6.910443305111e+01 -4.060217470879e-01 0.0 
-4.060217470879e-01 -1.913869912890e+02 0.0 
0.0 0.0 -7.774742730202e+01 
-7.299270912595e+01 -1.797009489986e-01 0.0 
-1.797009489986e-01 -2.002081678046e+02 0.0 
0.0 0.0 -8.156026307916e+01 
-6.249821120554e+01 2.082892825326e+00 0.0 
2.082892825326e+00 -1.152965515584e+02 0.0 
0.0 0.0 -5.293842882917e+01 
-6.957579293843e+01 2.770692369637e+00 0.0 
2.770692369637e+00 -1.357066917803e+02 0.0 
0.0 0.0 -6.118474541561e+01 
-2.842141445727e+01 8.134130203268e+00 0.0 
8.134130203268e+00 -7.975886311764e+01 0.0 
0.0 0.0 -3.205408327247e+01 
-2.992641611847e+01 1.020958093069e+01 0.0 
1.020958093069e+01 -8.444062847082e+01 0.0 
0.0 0.0 -3.391011337679e+01 
-8.500751838941e+01 1.517203455175e+01 0.0 
1.517203455175e+01 -1.578626874027e+02 0.0 
0.0 0.0 -7.246106173764e+01 
-1.155879373150e+02 1.875622058394e+00 0.0 
1.875622058394e+00 -2.955682650778e+02 0.0 
0.0 0.0 -1.229468607178e+02 
-1.063785958715e+02 1.466533727718e+00 0.0 
1.466533727718e+00 -2.765610349073e+02 0.0 
0.0 0.0 -1.144818892336e+02 
-4.835570287153e+01 1.899839809759e+01 0.0 
1.899839809759e+01 -1.338557945514e+02 0.0 
0.0 0.0 -5.426344922687e+01 
-4.507826325825e+01 1.990395255525e+01 0.0 
1.990395255525e+01 -1.187111914131e+02 0.0 
0.0 0.0 -4.873683640140e+01 
-4.255618212217e+01 1.832988050473e+01 0.0 
1.832988050473e+01 -1.162336180619e+02 0.0 
0.0 0.0 -4.723694005523e+01 
-3.957177282418e+01 1.919302347013e+01 0.0 
1.919302347013e+01 -1.006464123937e+02 0.0 
0.0 0.0 -4.166545556537e+01 
-4.194019426481e+01 2.061873216221e+01 0.0 
2.061873216221e+01 -1.028493758110e+02 0.0 
0.0 0.0 -4.303687102273e+01 
-3.740810239640e+01 1.769842640028e+01 0.0 
1.769842640028e+01 -9.823289992883e+01 0.0 
0.0 0.0 -4.029230069757e+01 
-9.511521350403e+01 6.757407537727e+00 0.0 
6.757407537727e+00 -2.623348293331e+02 0.0 
0.0 0.0 -1.068350128511e+02 
-7.445711972626e+01 5.451897836604e+00 0.0 
5.451897836604e+00 -1.437360201127e+02 0.0 
0.0 0.0 -6.505794195169e+01 
-3.767648243054e+01 -2.586995034077e+00 0.0 
-2.586995034077e+00 -1.066361707523e+02 0.0 
0.0 0.0 -4.289379595485e+01 
-3.134367944635e+01 -2.698617505181e+00 0.0 
-2.698617505181e+00 -8.699759286638e+01 0.0 
0.0 0.0 -3.510238169382e+01 
-1.250902896803e+02 2.244609157740e+00 0.0 
2.244609157740e+00 -3.144912894691e+02 0.0 
0.0 0.0 -1.314744737448e+02 
-9.224686106956e+01 1.082864843650e+01 0.0 
1.082864843650e+01 -2.582996347175e+02 0.0 
0.0 0.0 -1.047639487361e+02 
-7.636762389612e+01 2.407036153992e+01 0.0 
2.407036153992e+01 -1.931924564799e+02 0.0 
0.0 0.0 -8.046802411281e+01 
-8.066857424862e+01 2.358145365118e+01 0.0 
2.358145365118e+01 -2.083634343042e+02 0.0 
0.0 0.0 -8.630960256584e+01 
-8.444001104996e+01 2.490642426562e+01 0.0 
2.490642426562e+01 -2.116528380063e+02 0.0 
0.0 0.0 -8.842785471689e+01 
-8.900906857003e+01 2.453658895157e+01 0.0 
2.453658895157e+01 -2.267806252140e+02 0.0 
0.0 0.0 -9.433690813520e+01 
-9.280100549187e+01 2.589367897988e+01 0.0 
2.589367897988e+01 -2.302949332894e+02 0.0 
0.0 0.0 -9.652878163438e+01 
-9.764254858028e+01 2.566718413237e+01 0.0 
2.566718413237e+01 -2.452822068208e+02 0.0 
0.0 0.0 -1.024774266203e+02 
-9.383291092871e+01 2.414739592376e+01 0.0 
2.414739592376e+01 -2.414546353264e+02 0.0 
0.0 0.0 -1.001862638765e+02 
-1.067052765557e+02 2.127447901529e+01 0.0 
2.127447901529e+01 -2.788630880133e+02 0.0 
0.0 0.0 -1.152705093707e+02 
-1.027869832357e+02 2.545212771179e+01 0.0 
2.545212771179e+01 -2.598463799715e+02 0.0 
0.0 0.0 -1.083900089622e+02 
-5.498400956186e+01 1.356284413300e+00 0.0 
1.356284413300e+00 -9.493734597900e+01 0.0 
0.0 0.0 -4.457640666226e+01 
-8.412841080937e+01 1.651730101077e+01 0.0 
1.651730101077e+01 -2.369020585110e+02 0.0 
0.0 0.0 -9.590914079610e+01 
-4.145022901944e+01 -2.041494125200e+00 0.0 
-2.041494125200e+00 -1.233758445822e+02 0.0 
0.0 0.0 -4.904782208049e+01 
-2.664285806637e+01 -1.820021461263e+00 0.0 
-1.820021461263e+00 -7.368727574309e+01 0.0 
0.0 0.0 -2.969904014284e+01 
-2.760000933796e+01 -3.145602906736e+00 0.0 
-3.145602906736e+00 -7.384059234864e+01 0.0 
0.0 0.0 -3.003218050598e+01 
-3.240858704707e+01 -1.366176150106e+00 0.0 
-1.366176150106e+00 -9.031871813494e+01 0.0 
0.0 0.0 -3.641819155460e+01 
-3.947513661757e+01 -1.289333451612e+00 0.0 
-1.289333451612e+00 -1.102141602463e+02 0.0 
0.0 0.0 -4.450678905916e+01 
-1.243438310266e+02 1.047733823983e+01 0.0 
1.047733823983e+01 -3.181625629341e+02 0.0 
0.0 0.0 -1.323519181882e+02 
-1.013717356901e+02 2.709492878079e+01 0.0 
2.709492878079e+01 -2.489566133930e+02 0.0 
0.0 0.0 -1.046985047249e+02 
-9.645760460355e+01 2.706872812098e+01 0.0 
2.706872812098e+01 -2.335825089254e+02 0.0 
0.0 0.0 -9.861203405869e+01 
-3.680715603189e+01 1.988483880334e+01 0.0 
1.988483880334e+01 -8.465323757383e+01 0.0 
0.0 0.0 -3.603811808172e+01 
-3.894679590106e+01 2.109275089997e+01 0.0 
2.109275089997e+01 -8.644948452478e+01 0.0 
0.0 0.0 -3.721888412775e+01 
-1.126066471189e+02 2.079580321094e+01 0.0 
2.079580321094e+01 -2.916026545572e+02 0.0 
0.0 0.0 -1.208627905028e+02 
-6.374439688720e+01 9.077408996996e+00 0.0 
9.077408996996e+00 -9.292841796892e+01 0.0 
0.0 0.0 -4.660184445683e+01 
-5.840442959664e+01 4.084735513020e+00 0.0 
4.084735513020e+00 -9.124873530566e+01 0.0 
0.0 0.0 -4.449594947069e+01 
-5.315176301158e+01 2.677454736108e+00 0.0 
2.677454736108e+00 -8.141141398046e+01 0.0 
0.0 0.0 -3.996895309761e+01 
-2.496299881748e+01 -1.256749754441e+00 0.0 
-1.256749754441e+00 -6.890617157677e+01 0.0 
0.0 0.0 -2.776075111828e+01 
-2.590816877589e+01 -3.154137554781e+00 0.0 
-3.154137554781e+00 -6.623749252094e+01 0.0 
0.0 0.0 -2.724369838905e+01 
-8.032107765484e+01 9.270250368291e+00 0.0 
9.270250368291e+00 -1.535976768161e+02 0.0 
0.0 0.0 -6.977562634128e+01 
-3.379289474152e+01 1.062786938277e+01 0.0 
1.062786938277e+01 -1.012671781906e+02 0.0 
0.0 0.0 -4.011802187963e+01 
-3.155935459555e+01 1.224657971903e+01 0.0 
1.224657971903e+01 -8.841937779935e+01 0.0 
0.0 0.0 -3.559361971847e+01 
-2.430054294209e+01 2.082755176090e+00 0.0 
2.082755176090e+00 -5.984115549555e+01 0.0 
0.0 0.0 -2.484250953129e+01 
-2.303664025847e+01 3.911163017466e-01 0.0 
3.911163017466e-01 -5.156861975065e+01 0.0 
0.0 0.0 -2.198157800274e+01 
-6.588840456366e+01 1.819405276989e+00 0.0 
1.819405276989e+00 -1.259843000559e+02 0.0 
0.0 0.0 -5.716181138588e+01 
-7.274476508368e+01 2.425410337629e+00 0.0 
2.425410337629e+00 -1.463054855037e+02 0.0 
0.0 0.0 -6.531507517620e+01 
-7.702379785666e+01 1.128215988758e-01 0.0 
1.128215988758e-01 -2.108645399753e+02 0.0 
0.0 0.0 -8.596650134958e+01 
-8.093830762960e+01 2.787806936182e-01 0.0 
2.787806936182e-01 -2.195902979732e+02 0.0 
0.0 0.0 -8.975858168084e+01 
-1.187200336239e+02 1.096535461462e+01 0.0 
1.096535461462e+01 -3.083169753243e+02 0.0 
0.0 0.0 -1.277111026845e+02 
-3.013704016791e+01 -3.095157752307e+00 0.0 
-3.095157752307e+00 -8.277662910307e+01 0.0 
0.0 0.0 -3.347410078129e+01 
-7.636090658483e+01 3.532174012047e+00 0.0 
3.532174012047e+00 -1.561980955535e+02 0.0 
0.0 0.0 -6.936770064151e+01 
-9.751449415728e+01 1.037869518053e+01 0.0 
1.037869518053e+01 -2.687810844396e+02 0.0 
0.0 0.0 -1.094886735791e+02 
-8.850784272499e+01 8.994431647096e+00 0.0 
8.994431647096e+00 -2.504581378250e+02 0.0 
0.0 0.0 -1.012897941650e+02 
-6.892826577858e+01 -4.013136388484e-01 0.0 
-4.013136388484e-01 -1.890894104780e+02 0.0 
0.0 0.0 -7.700530287696e+01 
-2.685213075267e+01 1.005723126216e+01 0.0 
1.005723126216e+01 -6.798159487228e+01 0.0 
0.0 0.0 -2.805011768749e+01 
-2.545410469030e+01 7.981853851867e+00 0.0 
7.981853851867e+00 -6.333480800807e+01 0.0 
0.0 0.0 -2.623667380951e+01 
-4.401394601299e+01 -1.239725208583e+00 0.0 
-1.239725208583e+00 -1.333548753535e+02 0.0 
0.0 0.0 -5.281064640996e+01 
-3.580793423895e+01 -2.902056467061e+00 0.0 
-2.902056467061e+00 -1.022718585880e+02 0.0 
0.0 0.0 -4.102393784807e+01 
-3.548543890947e+01 -1.002755170407e+00 0.0 
-1.002755170407e+00 -9.890270150359e+01 0.0 
0.0 0.0 -3.991644212392e+01 
-1.291420448366e+02 1.221581044373e+01 0.0 
1.221581044373e+01 -3.266663599352e+02 0.0 
0.0 0.0 -1.363425214315e+02 
-8.439804098622e+01 1.142529610553e+01 0.0 
1.142529610553e+01 -1.644857506004e+02 0.0 
0.0 0.0 -7.426513747599e+01 
-9.899136013606e+01 2.381096556254e+01 0.0 
2.381096556254e+01 -2.556822190771e+02 0.0 
0.0 0.0 -1.060020737639e+02 
-8.994274541789e+01 2.254331150071e+01 0.0 
2.254331150071e+01 -2.373160541848e+02 0.0 
0.0 0.0 -9.777763988081e+01 
-1.084569295524e+02 2.522207628238e+01 0.0 
2.522207628238e+01 -2.741677624558e+02 0.0 
0.0 0.0 -1.143874076025e+02 
-2.496492784784e+01 -3.011309503724e+00 0.0 
-3.011309503724e+00 -6.331131501798e+01 0.0 
0.0 0.0 -2.608287285975e+01 
-1.300199031283e+02 9.955890477654e+00 0.0 
9.955890477654e+00 -3.279823411801e+02 0.0 
0.0 0.0 -1.370006732925e+02 
-1.200162888266e+02 1.530004208803e+00 0.0 
1.530004208803e+00 -3.041441879174e+02 0.0 
0.0 0.0 -1.268481430232e+02 
-1.045485636002e+02 2.827469168869e+01 0.0 
2.827469168869e+01 -2.516400570579e+02 0.0 
0.0 0.0 -1.064565861974e+02 
-9.996688087806e+01 2.805977929256e+01 0.0 
2.805977929256e+01 -2.368894535700e+02 0.0 
0.0 0.0 -1.006569003344e+02 
-3.561669702742e+01 1.265872750453e+01 0.0 
1.265872750453e+01 -1.053000306827e+02 0.0 
0.0 0.0 -4.187501831303e+01 
-3.332901242454e+01 1.418505435590e+01 0.0 
1.418505435590e+01 -9.197562629495e+01 0.0 
0.0 0.0 -3.719139161585e+01 
-2.978023519863e+01 1.392346128400e+01 0.0 
1.392346128400e+01 -7.498304646891e+01 0.0 
0.0 0.0 -3.102898450026e+01 
-3.136830649793e+01 1.561064545400e+01 0.0 
1.561064545400e+01 -7.784687444280e+01 0.0 
0.0 0.0 -3.236455428222e+01 
-6.085284783835e+01 2.161589055250e+01 0.0 
2.161589055250e+01 -9.678857484826e+01 0.0 
0.0 0.0 -4.689242680598e+01 
-3.768331963374e+01 1.464345603214e+01 0.0 
1.464345603214e+01 -1.090985149750e+02 0.0 
0.0 0.0 -4.363455038262e+01 
-5.724823377452e+01 2.442969431657e+01 0.0 
2.442969431657e+01 -1.102768992031e+02 0.0 
0.0 0.0 -4.985753989330e+01 
-5.351176801896e+01 2.354158484410e+01 0.0 
2.354158484410e+01 -9.217823022691e+01 0.0 
0.0 0.0 -4.330699947376e+01 
-5.003425177186e+01 2.381300174267e+01 0.0 
2.381300174267e+01 -9.083791957400e+01 0.0 
0.0 0.0 -4.186165140376e+01 
-4.448055239786e+01 2.188420463964e+01 0.0 
2.188420463964e+01 -1.045470605706e+02 0.0 
0.0 0.0 -4.430828389052e+01 
-4.125104463287e+01 2.215589970267e+01 0.0 
2.215589970267e+01 -8.769231537375e+01 0.0 
0.0 0.0 -3.828300800198e+01 
-4.151048260377e+01 9.946029705890e+00 0.0 
9.946029705890e+00 -1.308477270031e+02 0.0 
0.0 0.0 -5.130746288207e+01 
-7.241172092344e+01 1.325570993965e+01 0.0 
1.325570993965e+01 -2.133440199362e+02 0.0 
0.0 0.0 -8.532672225790e+01 
-7.305236061887e+01 -6.669346466840e-02 0.0 
-6.669346466840e-02 -2.021920530863e+02 0.0 
0.0 0.0 -8.217332411154e+01 
-9.333637760092e+01 1.839361054053e+00 0.0 
1.839361054053e+00 -2.508448991370e+02 0.0 
0.0 0.0 -1.028543830214e+02 
-8.285524466134e+01 4.088390575769e+00 0.0 
4.088390575769e+00 -2.347371470888e+02 0.0 
0.0 0.0 -9.487771752505e+01 
-7.838245673760e+01 7.025277541724e+00 0.0 
7.025277541724e+00 -1.534992282881e+02 0.0 
0.0 0.0 -6.916450550770e+01 
-8.076680635969e+01 6.685702207107e+00 0.0 
6.685702207107e+00 -1.644316781710e+02 0.0 
0.0 0.0 -7.315954535920e+01 
-5.193435109227e+01 1.840231096389e+00 0.0 
1.840231096389e+00 -8.287537765759e+01 0.0 
0.0 0.0 -4.004291862496e+01 
-4.747362518300e+01 1.154078869988e+00 0.0 
1.154078869988e+00 -7.364498184131e+01 0.0 
0.0 0.0 -3.593558210729e+01 
-2.765468719537e+01 -2.415054361440e+00 0.0 
-2.415054361440e+00 -7.572096380892e+01 0.0 
0.0 0.0 -3.061269530129e+01 
-2.511101385527e+01 -2.605298373167e+00 0.0 
-2.605298373167e+00 -6.730437650942e+01 0.0 
0.0 0.0 -2.732461710941e+01 
-8.017468519934e+01 1.788984756758e+00 0.0 
1.788984756758e+00 -2.244712844301e+02 0.0 
0.0 0.0 -9.099379088884e+01 
-1.249780776621e+02 8.375316435207e+00 0.0 
8.375316435207e+00 -3.186281768200e+02 0.0 
0.0 0.0 -1.326818763446e+02 
-8.659660615127e+01 1.437537608301e+01 0.0 
1.437537608301e+01 -1.664531789454e+02 0.0 
0.0 0.0 -7.551493552900e+01 
-9.055566935196e+01 1.699360169425e+01 0.0 
1.699360169425e+01 -1.792293557585e+02 0.0 
0.0 0.0 -8.053550753315e+01 
-8.904621472969e+01 1.781967409042e+01 0.0 
1.781967409042e+01 -1.710572660547e+02 0.0 
0.0 0.0 -7.763104423532e+01 
-1.232569634054e+02 1.275840515961e+01 0.0 
1.275840515961e+01 -3.164010801329e+02 0.0 
0.0 0.0 -1.314974130615e+02 
-4.615374358366e+01 5.701257477253e+00 0.0 
5.701257477253e+00 -1.474436710009e+02 0.0 
0.0 0.0 -5.767922437535e+01 
-7.862353439394e+01 9.963742320611e+00 0.0 
9.963742320611e+00 -2.295025295438e+02 0.0 
0.0 0.0 -9.203781918133e+01 
-2.463318424653e+01 -6.248919227785e-01 0.0 
-6.248919227785e-01 -6.073885551585e+01 0.0 
0.0 0.0 -2.521161192871e+01 
-7.335605642508e+01 2.048485686655e+01 0.0 
2.048485686655e+01 -2.012564567935e+02 0.0 
0.0 0.0 -8.198375396558e+01 
-2.136115072716e+01 -2.174853680819e+00 0.0 
-2.174853680819e+00 -5.615630689305e+01 0.0 
0.0 0.0 -2.285523728606e+01 
-8.344089793247e+01 2.645519956708e+01 0.0 
2.645519956708e+01 -1.857765502922e+02 0.0 
0.0 0.0 -8.036523446741e+01 
-1.297311942292e+02 1.779264361008e+00 0.0 
1.779264361008e+00 -3.230869407451e+02 0.0 
0.0 0.0 -1.354454404923e+02 
-1.348901118864e+02 2.563720878331e+00 0.0 
2.563720878331e+00 -3.332022086492e+02 0.0 
0.0 0.0 -1.400276961607e+02 
-1.167779221870e+02 2.284202290957e+01 0.0 
2.284202290957e+01 -2.970024841326e+02 0.0 
0.0 0.0 -1.237341218959e+02 
-4.891099058824e+01 1.753678617456e+01 0.0 
1.753678617456e+01 -5.722651023626e+01 0.0 
0.0 0.0 -3.144125024735e+01 
-7.780443029887e+01 1.974247632426e+01 0.0 
1.974247632426e+01 -2.150586614478e+02 0.0 
0.0 0.0 -8.745892752402e+01 
-7.431349425605e+01 1.790092896347e+01 0.0 
1.790092896347e+01 -2.107092785545e+02 0.0 
0.0 0.0 -8.510683184317e+01 
-4.629883264860e+01 2.279856674258e+01 0.0 
2.279856674258e+01 -7.243168120968e+01 0.0 
0.0 0.0 -3.521915415748e+01 
-4.305787032223e+01 2.299260969560e+01 0.0 
2.299260969560e+01 -7.149788680254e+01 0.0 
0.0 0.0 -3.396672713743e+01 
-4.674867856067e+01 2.360203303459e+01 0.0 
2.360203303459e+01 -8.970349004053e+01 0.0 
0.0 0.0 -4.053565058036e+01 
-4.037366079655e+01 2.268613698606e+01 0.0 
2.268613698606e+01 -7.089739393416e+01 0.0 
0.0 0.0 -3.298131641921e+01 
-4.734411350576e+01 -1.258013049949e+00 0.0 
-1.258013049949e+00 -1.421316173652e+02 0.0 
0.0 0.0 -5.644271926128e+01 
-4.457071620769e+01 -1.968852896684e+00 0.0 
-1.968852896684e+00 -1.319434671379e+02 0.0 
0.0 0.0 -5.255425500368e+01 
-1.108346919396e+02 2.877550292572e+01 0.0 
2.877550292572e+01 -2.688786185095e+02 0.0 
0.0 0.0 -1.135139931347e+02 
-1.119225981012e+02 2.693929507064e+01 0.0 
2.693929507064e+01 -2.780194915507e+02 0.0 
0.0 0.0 -1.165826268956e+02 
-1.079031455884e+02 2.956021233872e+01 0.0 
2.956021233872e+01 -2.554761985231e+02 0.0 
0.0 0.0 -1.086138032334e+02 
-1.036000765044e+02 2.903733316918e+01 0.0 
2.903733316918e+01 -2.407822545305e+02 0.0 
0.0 0.0 -1.029146993105e+02 
-1.230445296374e+02 2.240758412921e+01 0.0 
2.240758412921e+01 -3.096778393755e+02 0.0 
0.0 0.0 -1.294167107039e+02 
-1.184852614742e+02 2.027881064599e+01 0.0 
2.027881064599e+01 -3.036728646513e+02 0.0 
0.0 0.0 -1.262474378376e+02 
-4.231946043597e+01 -8.976379208742e-01 0.0 
-8.976379208742e-01 -1.182480020110e+02 0.0 
0.0 0.0 -4.777023873408e+01 
-3.614652998820e+01 2.124771366295e+01 0.0 
2.124771366295e+01 -6.952686365658e+01 0.0 
0.0 0.0 -3.130201809343e+01 
-8.629328973572e+01 1.088916059132e+01 0.0 
1.088916059132e+01 -1.745827441797e+02 0.0 
0.0 0.0 -7.786281017463e+01 
-4.962469384712e+01 2.201187805129e+01 0.0 
2.201187805129e+01 -7.362877901331e+01 0.0 
0.0 0.0 -3.657604185813e+01 
-1.353710177706e+02 9.345049297603e+00 0.0 
9.345049297603e+00 -3.368666273300e+02 0.0 
0.0 0.0 -1.412712935302e+02 
-1.303495872857e+02 7.893801520460e+00 0.0 
7.893801520460e+00 -3.278459702970e+02 0.0 
0.0 0.0 -1.370586672748e+02 
-2.211534935191e+01 -7.566075382039e-01 0.0 
-7.566075382039e-01 -4.261395645409e+01 0.0 
0.0 0.0 -1.901879174180e+01 
-2.308558875692e+01 -1.722876571155e+00 0.0 
-1.722876571155e+00 -5.081019095969e+01 0.0 
0.0 0.0 -2.176873391498e+01 
-7.935416580959e+01 3.049082082668e+00 0.0 
3.049082082668e+00 -1.671358607068e+02 0.0 
0.0 0.0 -7.354700795491e+01 
-2.857451190860e+01 1.549866259584e+01 0.0 
1.549866259584e+01 -6.074550719884e+01 0.0 
0.0 0.0 -2.639600573223e+01 
-2.977713471782e+01 1.680958582381e+01 0.0 
1.680958582381e+01 -6.249776788446e+01 0.0 
0.0 0.0 -2.728247078068e+01 
-2.718331389525e+01 1.393611957278e+01 0.0 
1.393611957278e+01 -5.843095993477e+01 0.0 
0.0 0.0 -2.528428214900e+01 
-1.505897809707e+02 7.150565208529e-01 0.0 
7.150565208529e-01 -3.615796517655e+02 0.0 
0.0 0.0 -1.532508298208e+02 
-3.003525933050e+01 1.698102979893e-02 0.0 
1.698102979893e-02 -3.558201426509e+01 0.0 
0.0 0.0 -1.928518207868e+01 
-1.397754555303e+02 1.996376031880e+00 0.0 
1.996376031880e+00 -3.419140915904e+02 0.0 
0.0 0.0 -1.441068641362e+02 
-4.729002125747e+01 2.297656867078e+01 0.0 
2.297656867078e+01 -1.060204932584e+02 0.0 
0.0 0.0 -4.559315435475e+01 
-8.287120314314e+01 4.240890083678e+00 0.0 
4.240890083678e+00 -1.772148787634e+02 0.0 
0.0 0.0 -7.762582457196e+01 
-8.255882099804e+01 1.904658767750e+01 0.0 
1.904658767750e+01 -2.285582484971e+02 0.0 
0.0 0.0 -9.293512084854e+01 
-4.557163914506e+01 1.721514514334e+01 0.0 
1.721514514334e+01 -1.305835197746e+02 0.0 
0.0 0.0 -5.244654767589e+01 
-1.130191573507e+02 1.143169527130e+01 0.0 
1.143169527130e+01 -2.981198679270e+02 0.0 
0.0 0.0 -1.229417075833e+02 
-7.558377293709e+01 2.000473795748e+00 0.0 
2.000473795748e+00 -1.561090314182e+02 0.0 
0.0 0.0 -6.910784130658e+01 
-8.237475668105e+01 2.380675558967e+00 0.0 
2.380675558967e+00 -1.785857520580e+02 0.0 
0.0 0.0 -7.788815262170e+01 
-4.959824180256e+01 2.464732352116e+00 0.0 
2.464732352116e+00 -7.086150430737e+01 0.0 
0.0 0.0 -3.573792383298e+01 
-4.400946461928e+01 1.486980080034e+00 0.0 
1.486980080034e+00 -6.078336669801e+01 0.0 
0.0 0.0 -3.103784939519e+01 
-5.488730993102e+01 3.973949650102e+00 0.0 
3.973949650102e+00 -8.023691625575e+01 0.0 
0.0 0.0 -4.013726785603e+01 
-2.550445512132e+01 3.955933126374e+00 0.0 
3.955933126374e+00 -6.727475652083e+01 0.0 
0.0 0.0 -2.743376349264e+01 
-2.250199708000e+01 4.047824216804e+00 0.0 
4.047824216804e+00 -4.836592433921e+01 0.0 
0.0 0.0 -2.086037642576e+01 
-7.701904868983e+01 5.151523668355e+00 0.0 
5.151523668355e+00 -1.545406897940e+02 0.0 
0.0 0.0 -6.906792154516e+01 
-5.045405068706e+01 -1.233891618449e+00 0.0 
-1.233891618449e+00 -1.413316850796e+02 0.0 
0.0 0.0 -5.713572073000e+01 
-5.444701473637e+01 -9.331402315716e-01 0.0 
-9.331402315716e-01 -1.520433437887e+02 0.0 
0.0 0.0 -6.154710755751e+01 
-3.249152601231e+01 -2.987941415147e+00 0.0 
-2.987941415147e+00 -9.079868326890e+01 0.0 
0.0 0.0 -3.658706278436e+01 
-3.846003177762e+01 -2.740721842593e+00 0.0 
-2.740721842593e+00 -1.102222041636e+02 0.0 
0.0 0.0 -4.420467078237e+01 
-8.100943030555e+01 5.493194636811e-01 0.0 
5.493194636811e-01 -2.214731408420e+02 0.0 
0.0 0.0 -9.034477134425e+01 
-7.692221140121e+01 4.207728009576e-01 0.0 
4.207728009576e-01 -2.127973732026e+02 0.0 
0.0 0.0 -8.651587538115e+01 
-8.755163314764e+01 2.677771926329e+01 0.0 
2.677771926329e+01 -2.021032142763e+02 0.0 
0.0 0.0 -8.649645422718e+01 
-9.106806088471e+01 2.725438981012e+01 0.0 
2.725438981012e+01 -2.052790333403e+02 0.0 
0.0 0.0 -8.850412826749e+01 
-8.009852692533e+01 2.520522696314e+01 0.0 
2.520522696314e+01 -1.961000531719e+02 0.0 
0.0 0.0 -8.245957402916e+01 
-9.365808804946e+01 8.618499635048e+00 0.0 
8.618499635048e+00 -2.606771646796e+02 0.0 
0.0 0.0 -1.059005758187e+02 
-8.490861208658e+01 7.272801359322e+00 0.0 
7.272801359322e+00 -2.422810653230e+02 0.0 
0.0 0.0 -9.775690322288e+01 
-8.005106044926e+01 7.646357233853e+00 0.0 
7.646357233853e+00 -2.322573692796e+02 0.0 
0.0 0.0 -9.329252891864e+01 
-8.405131607085e+01 8.346471291768e+00 0.0 
8.346471291768e+00 -1.738709729447e+02 0.0 
0.0 0.0 -7.697668670467e+01 
-8.700675577016e+01 7.824346826871e+00 0.0 
7.824346826871e+00 -1.872166777253e+02 0.0 
0.0 0.0 -8.186703004863e+01 
-4.997273155322e+01 -2.994104751512e-01 0.0 
-2.994104751512e-01 -1.518183613616e+02 0.0 
0.0 0.0 -6.013732787444e+01 
-4.645603142567e+01 -1.698762698050e-01 0.0 
-1.698762698050e-01 -1.428385668213e+02 0.0 
0.0 0.0 -5.638837947408e+01 
-5.070265453147e+01 -1.205808707583e+00 0.0 
-1.205808707583e+00 -1.505806730929e+02 0.0 
0.0 0.0 -5.998499828730e+01 
-8.992229357805e+01 1.308889596877e+01 0.0 
1.308889596877e+01 -1.857028809191e+02 0.0 
0.0 0.0 -8.228755234914e+01 
-1.448164591049e+02 2.800468725649e+00 0.0 
2.800468725649e+00 -3.516292530326e+02 0.0 
0.0 0.0 -1.485337136412e+02 
-1.400970075415e+02 3.473450218597e+00 0.0 
3.473450218597e+00 -3.431487898524e+02 0.0 
0.0 0.0 -1.445737392182e+02 
-1.920087653827e+01 -2.200863586774e+00 0.0 
-2.200863586774e+00 -4.794157843836e+01 0.0 
0.0 0.0 -1.974273649299e+01 
-2.263860564459e+01 -2.631469032546e+00 0.0 
-2.631469032546e+00 -5.871439858586e+01 0.0 
0.0 0.0 -2.400590126914e+01 
-2.453259391562e+01 1.024472544924e+01 0.0 
1.024472544924e+01 -5.205444396666e+01 0.0 
0.0 0.0 -2.257611136468e+01 
-2.323980523704e+01 8.187186561588e+00 0.0 
8.187186561588e+00 -4.784032390521e+01 0.0 
0.0 0.0 -2.092403874268e+01 
-9.404528771862e+01 1.955057875228e+01 0.0 
1.955057875228e+01 -1.921250751189e+02 0.0 
0.0 0.0 -8.545110885126e+01 
-9.302688695680e+01 2.047651770815e+01 0.0 
2.047651770815e+01 -1.852630130645e+02 0.0 
0.0 0.0 -8.308697000639e+01 
-9.586315908294e+01 1.891252362336e+01 0.0 
1.891252362336e+01 -2.021853227222e+02 0.0 
0.0 0.0 -8.901454454155e+01 
-3.793803878131e+01 -7.118169369067e-01 0.0 
-7.118169369067e-01 -1.056926932695e+02 0.0 
0.0 0.0 -4.268921961524e+01 
-9.508875559314e+01 2.204706777545e+01 0.0 
2.204706777545e+01 -2.512226771655e+02 0.0 
0.0 0.0 -1.034934298276e+02 
-1.335577001023e+02 1.407981113493e+01 0.0 
1.407981113493e+01 -3.337446392090e+02 0.0 
0.0 0.0 -1.397907017934e+02 
-1.273601364160e+02 1.467488788955e+01 0.0 
1.467488788955e+01 -3.234170294665e+02 0.0 
0.0 0.0 -1.348331497648e+02 
-1.409184322812e+02 1.360197516022e+01 0.0 
1.360197516022e+01 -3.462172468040e+02 0.0 
0.0 0.0 -1.457407037256e+02 
-1.106436511833e+02 2.324641999577e+01 0.0 
2.324641999577e+01 -2.837777991437e+02 0.0 
0.0 0.0 -1.179264350981e+02 
-1.206330628658e+02 2.473210712970e+01 0.0 
2.473210712970e+01 -3.016303479871e+02 0.0 
0.0 0.0 -1.262790232559e+02 
-1.182061809794e+02 2.675572199319e+01 0.0 
2.675572199319e+01 -2.922492573612e+02 0.0 
0.0 0.0 -1.227366315022e+02 
-2.073927473828e+01 2.185043923936e-01 0.0 
2.185043923936e-01 -3.423637392206e+01 0.0 
0.0 0.0 -1.609269459810e+01 
-7.991244392917e+01 1.585449022412e+00 0.0 
1.585449022412e+00 -1.712635527470e+02 0.0 
0.0 0.0 -7.495279900285e+01 
-4.302229672459e+01 9.266395143755e-01 0.0 
9.266395143755e-01 -6.199813551993e+01 0.0 
0.0 0.0 -3.110612967335e+01 
-2.082151378049e+01 -5.141111533623e-01 0.0 
-5.141111533623e-01 -2.726122185876e+01 0.0 
0.0 0.0 -1.416521148273e+01 
-3.859316376606e+01 4.802966055269e-01 0.0 
4.802966055269e-01 -5.307392423272e+01 0.0 
0.0 0.0 -2.710012639963e+01 
-4.300007066353e+01 6.753251895649e-01 0.0 
6.753251895649e-01 -6.441160823701e+01 0.0 
0.0 0.0 -3.182350367016e+01 
-3.382312318632e+01 2.249262425058e-01 0.0 
2.249262425058e-01 -4.302093630897e+01 0.0 
0.0 0.0 -2.265321784859e+01 
-3.094424337031e+01 -7.245487227846e-01 0.0 
-7.245487227846e-01 -8.621168260474e+01 0.0 
0.0 0.0 -3.474677779251e+01 
-4.409948951651e+01 2.160084436493e+00 0.0 
2.160084436493e+00 -5.673563755774e+01 0.0 
0.0 0.0 -2.985053812227e+01 
-5.149711516298e+01 4.129087457477e+00 0.0 
4.129087457477e+00 -6.979883577074e+01 0.0 
0.0 0.0 -3.598878528012e+01 
-1.623445447268e+01 -2.105014200322e+00 0.0 
-2.105014200322e+00 -3.622636757562e+01 0.0 
0.0 0.0 -1.544885987327e+01 
-9.099717465716e+01 1.219251319014e+01 0.0 
1.219251319014e+01 -1.952482541326e+02 0.0 
0.0 0.0 -8.547362863692e+01 
-1.532899448574e+01 -1.707789692879e+00 0.0 
-1.707789692879e+00 -3.767098609904e+01 0.0 
0.0 0.0 -1.549856331829e+01 
-1.769731160319e+01 -1.649847361048e+00 0.0 
-1.649847361048e+00 -4.563515581460e+01 0.0 
0.0 0.0 -1.859974022534e+01 
-1.408329495189e+02 8.725617321769e+00 0.0 
8.725617321769e+00 -3.461893515212e+02 0.0 
0.0 0.0 -1.457066903120e+02 
-1.355886868719e+02 7.350508647178e+00 0.0 
7.350508647178e+00 -3.367910758042e+02 0.0 
0.0 0.0 -1.413139288028e+02 
-1.457930809126e+02 8.095797940539e+00 0.0 
8.095797940539e+00 -3.545467570113e+02 0.0 
0.0 0.0 -1.497019513772e+02 
-1.404844022638e+02 6.740164522800e+00 0.0 
6.740164522800e+00 -3.449803333029e+02 0.0 
0.0 0.0 -1.452394206700e+02 
-1.305108306767e+02 6.108328963303e+00 0.0 
6.108328963303e+00 -3.271607301835e+02 0.0 
0.0 0.0 -1.369014682580e+02 
-1.357137863689e+02 5.602824771137e+00 0.0 
5.602824771137e+00 -3.362133210741e+02 0.0 
0.0 0.0 -1.411781322329e+02 
-3.857362199745e+01 7.493833701270e-01 0.0 
7.493833701270e-01 -5.086861217119e+01 0.0 
0.0 0.0 -2.643267025059e+01 
-1.472096937848e+02 6.317509639211e+00 0.0 
6.317509639211e+00 -3.564787763618e+02 0.0 
0.0 0.0 -1.507065410440e+02 
-1.411001102642e+02 5.025894445952e+00 0.0 
5.025894445952e+00 -3.454013468303e+02 0.0 
0.0 0.0 -1.455504371284e+02 
-1.523222229944e+02 5.586790466646e+00 0.0 
5.586790466646e+00 -3.657285889712e+02 0.0 
0.0 0.0 -1.550152435897e+02 
-3.662619697714e+01 2.176680581679e+01 0.0 
2.176680581679e+01 -5.223713136305e+01 0.0 
0.0 0.0 -2.625899850206e+01 
-3.297146306783e+01 1.720604477318e+01 0.0 
1.720604477318e+01 -8.005567198693e+01 0.0 
0.0 0.0 -3.350814051643e+01 
-3.104576053378e+01 1.800236434320e+01 0.0 
1.800236434320e+01 -6.426447475921e+01 0.0 
0.0 0.0 -2.819307058790e+01 
-2.858909881389e+01 1.783204819102e+01 0.0 
1.783204819102e+01 -4.527267346857e+01 0.0 
0.0 0.0 -2.175853168474e+01 
-1.122919625308e+02 3.092216687068e+01 0.0 
3.092216687068e+01 -2.622414545196e+02 0.0 
0.0 0.0 -1.119600251151e+02 
-1.060304610290e+02 2.960599975941e+01 0.0 
2.960599975941e+01 -2.433782975152e+02 0.0 
0.0 0.0 -1.044226275633e+02 
-1.247654708859e+02 1.099435196691e+00 0.0 
1.099435196691e+00 -3.132391638616e+02 0.0 
0.0 0.0 -1.310013904243e+02 
-1.152223871331e+02 8.894407205434e-01 0.0 
8.894407205434e-01 -2.941058613856e+02 0.0 
0.0 0.0 -1.223984745556e+02 
-3.819624535733e+01 2.939133137006e-01 0.0 
2.939133137006e-01 -5.418877214862e+01 0.0 
0.0 0.0 -2.731550525179e+01 
-3.747223589119e+01 2.365078036207e-01 0.0 
2.365078036207e-01 -5.314442629941e+01 0.0 
0.0 0.0 -2.678499865718e+01 
-4.491202537714e+01 3.882677808331e-01 0.0 
3.882677808331e-01 -7.102766598787e+01 0.0 
0.0 0.0 -3.438190740951e+01 
-4.361529728511e+01 3.593607208871e-01 0.0 
3.593607208871e-01 -6.861632701323e+01 0.0 
0.0 0.0 -3.326948728950e+01 
-5.084814216373e+01 5.592299551328e-01 0.0 
5.592299551328e-01 -8.665288228244e+01 0.0 
0.0 0.0 -4.085030733385e+01 
-4.958698319451e+01 4.730566712870e-01 0.0 
4.730566712870e-01 -8.393147839611e+01 0.0 
0.0 0.0 -3.965553847719e+01 
-5.680805996383e+01 9.276765558033e-01 0.0 
9.276765558033e-01 -1.024148701073e+02 0.0 
0.0 0.0 -4.736687902135e+01 
-1.217292492584e+02 2.886323013213e+01 0.0 
2.886323013213e+01 -2.960955950800e+02 0.0 
0.0 0.0 -1.249474533015e+02 
-2.665413893782e+01 1.567458289483e+01 0.0 
1.567458289483e+01 -4.403886570343e+01 0.0 
0.0 0.0 -2.080790139237e+01 
-4.256546842799e+01 2.114378803656e+01 0.0 
2.114378803656e+01 -5.327781726696e+01 0.0 
0.0 0.0 -2.835298570849e+01 
-1.291412565020e+02 2.186824206460e+01 0.0 
2.186824206460e+01 -3.216197302424e+02 0.0 
0.0 0.0 -1.348282960233e+02 
-1.236894692945e+02 1.961198258871e+01 0.0 
1.961198258871e+01 -3.139994596651e+02 0.0 
0.0 0.0 -1.309066786879e+02 
-3.800012032356e+01 2.199582899016e+01 0.0 
2.199582899016e+01 -7.014649137087e+01 0.0 
0.0 0.0 -3.204398350833e+01 
-3.320461864165e+01 2.078118243487e+01 0.0 
2.078118243487e+01 -5.141484285460e+01 0.0 
0.0 0.0 -2.498583844887e+01 
-1.420151765377e+02 1.098905618250e+01 0.0 
1.098905618250e+01 -3.484267959639e+02 0.0 
0.0 0.0 -1.467325917505e+02 
-4.047359510193e+01 1.330643892511e+01 0.0 
1.330643892511e+01 -1.224779038359e+02 0.0 
0.0 0.0 -4.848544968136e+01 
-9.474851464868e+01 1.478311445665e+01 0.0 
1.478311445665e+01 -2.095977796080e+02 0.0 
0.0 0.0 -9.090388827699e+01 
-1.837359364184e+01 3.836748312560e+00 0.0 
3.836748312560e+00 -1.345903285206e+01 0.0 
0.0 0.0 -9.511493527270e+00 
-2.038159091960e+01 3.373532989567e+00 0.0 
3.373532989567e+00 -2.953355998763e+01 0.0 
0.0 0.0 -1.468683992700e+01 
-4.285210997722e+01 1.528712380190e+01 0.0 
1.528712380190e+01 -1.265145641989e+02 0.0 
0.0 0.0 -5.041000225284e+01 
-4.387836899792e+01 2.303087760604e+01 0.0 
2.303087760604e+01 -8.874240028166e+01 0.0 
0.0 0.0 -3.938623078388e+01 
-3.476678635364e+01 1.855421490200e+01 0.0 
1.855421490200e+01 -8.215799647910e+01 0.0 
0.0 0.0 -3.467743484982e+01 
-3.285374107930e+01 1.933669876887e+01 0.0 
1.933669876887e+01 -6.668658619789e+01 0.0 
0.0 0.0 -2.946209818316e+01 
-1.029961226747e+02 1.001185519882e+01 0.0 
1.001185519882e+01 -2.793070651163e+02 0.0 
0.0 0.0 -1.142909563373e+02 
-2.096505230571e+01 -2.722581039570e+00 0.0 
-2.722581039570e+00 -5.098561062511e+01 0.0 
0.0 0.0 -2.118519887924e+01 
-2.592898249650e+01 1.221565910102e+01 0.0 
1.221565910102e+01 -5.569789340264e+01 0.0 
0.0 0.0 -2.408806276974e+01 
-5.817004541258e+01 1.151166797381e+00 0.0 
1.151166797381e+00 -1.046934562701e+02 0.0 
0.0 0.0 -4.845905050480e+01 
-2.432433962867e+01 1.273084255559e+01 0.0 
1.273084255559e+01 -3.992873308703e+01 0.0 
0.0 0.0 -1.887592181471e+01 
-1.203471111160e+02 4.908929103102e-01 0.0 
4.908929103102e-01 -3.042255107429e+02 0.0 
0.0 0.0 -1.269717865577e+02 
-4.377279687920e+01 1.206189962203e+01 0.0 
1.206189962203e+01 -1.357700360227e+02 0.0 
0.0 0.0 -5.346284987057e+01 
-5.072685791578e+01 2.260164948802e+01 0.0 
2.260164948802e+01 -1.226962511444e+02 0.0 
0.0 0.0 -5.162693271805e+01 
-2.828237276115e+01 1.206087692014e+01 0.0 
1.206087692014e+01 -7.180610202848e+01 0.0 
0.0 0.0 -2.962654243689e+01 
-3.534930331081e+01 1.605142216444e+01 0.0 
1.605142216444e+01 -9.543435354839e+01 0.0 
0.0 0.0 -3.883509705776e+01 
-6.474462103225e+01 2.341515042430e+01 0.0 
2.341515042430e+01 -1.147141301156e+02 0.0 
0.0 0.0 -5.343762534436e+01 
-5.663838600658e+01 1.897478545137e+01 0.0 
1.897478545137e+01 -7.881520176086e+01 0.0 
0.0 0.0 -4.023607633023e+01 
-5.320218953052e+01 2.077474345729e+01 0.0 
2.077474345729e+01 -7.575432577974e+01 0.0 
0.0 0.0 -3.828695459308e+01 
-4.727342290792e+01 1.085426000917e+01 0.0 
1.085426000917e+01 -1.483366238297e+02 0.0 
0.0 0.0 -5.828301402128e+01 
-3.431116736012e+01 2.028804241335e+01 0.0 
2.028804241335e+01 -6.819411552873e+01 0.0 
0.0 0.0 -3.035158486666e+01 
-3.050213379578e+01 1.946407129486e+01 0.0 
1.946407129486e+01 -4.770407884699e+01 0.0 
0.0 0.0 -2.306186379283e+01 
-6.090427262946e+01 2.485833747568e+01 0.0 
2.485833747568e+01 -1.278778556587e+02 0.0 
0.0 0.0 -5.623463848645e+01 
-8.721552675760e+01 1.867543799502e+01 0.0 
1.867543799502e+01 -1.635012966667e+02 0.0 
0.0 0.0 -7.481504702729e+01 
-9.105929837479e+01 2.120354603557e+01 0.0 
2.120354603557e+01 -1.780570475319e+02 0.0 
0.0 0.0 -8.033490377201e+01 
-9.649544886637e+01 2.287145258358e+01 0.0 
2.287145258358e+01 -1.990580977708e+02 0.0 
0.0 0.0 -8.826606399116e+01 
-9.494067704368e+01 2.356749595256e+01 0.0 
2.356749595256e+01 -1.931792538502e+02 0.0 
0.0 0.0 -8.603597926816e+01 
-8.893760874470e+01 2.210966031917e+01 0.0 
2.210966031917e+01 -1.717947542156e+02 0.0 
0.0 0.0 -7.781970888808e+01 
-9.279113680903e+01 2.428510028417e+01 0.0 
2.428510028417e+01 -1.874078021285e+02 0.0 
0.0 0.0 -8.365968168126e+01 
-9.859737843926e+01 2.563145908464e+01 0.0 
2.563145908464e+01 -2.083595172911e+02 0.0 
0.0 0.0 -9.168706871910e+01 
-9.692548302235e+01 2.619280624250e+01 0.0 
2.619280624250e+01 -2.039523557038e+02 0.0 
0.0 0.0 -8.986335161783e+01 
-1.039670719255e+02 2.810991110687e+01 0.0 
2.810991110687e+01 -2.280764808237e+02 0.0 
0.0 0.0 -9.921306582475e+01 
-1.008744076613e+02 2.793846266149e+01 0.0 
2.793846266149e+01 -2.200445862002e+02 0.0 
0.0 0.0 -9.587569815844e+01 
-9.387505277659e+01 2.644991705627e+01 0.0 
2.644991705627e+01 -1.984829841581e+02 0.0 
0.0 0.0 -8.730741108040e+01 
-9.763353982019e+01 2.770924338841e+01 0.0 
2.770924338841e+01 -2.140844740114e+02 0.0 
0.0 0.0 -9.311540414948e+01 
-1.044364366197e+02 2.927611259914e+01 0.0 
2.927611259914e+01 -2.339607923046e+02 0.0 
0.0 0.0 -1.011191686773e+02 
-9.058322681194e+01 2.664414982556e+01 0.0 
2.664414982556e+01 -1.934255897081e+02 0.0 
0.0 0.0 -8.480264495600e+01 
-1.338957386263e+02 2.400175223631e+01 0.0 
2.400175223631e+01 -3.273490954150e+02 0.0 
0.0 0.0 -1.379734502124e+02 
-4.886548777042e+01 1.604929006026e+01 0.0 
1.604929006026e+01 -1.443840292133e+02 0.0 
0.0 0.0 -5.757485509511e+01 
-2.196220193411e+01 1.725914517576e+00 0.0 
1.725914517576e+00 -4.235670571604e+01 0.0 
0.0 0.0 -1.889567229505e+01 
-2.125013282471e+01 5.524869760701e+00 0.0 
5.524869760701e+00 -3.615507335835e+01 0.0 
0.0 0.0 -1.682156185492e+01 
-5.389367455045e+01 2.366293088696e+01 0.0 
2.366293088696e+01 -1.244577710183e+02 0.0 
0.0 0.0 -5.310543367061e+01 
-1.081553438847e+02 2.937230815322e+01 0.0 
2.937230815322e+01 -2.450905018241e+02 0.0 
0.0 0.0 -1.055737537126e+02 
-1.037267217799e+02 2.552655740740e+01 0.0 
2.552655740740e+01 -2.318032570644e+02 0.0 
0.0 0.0 -1.002589936533e+02 
-3.643795126399e+01 9.152488340815e+00 0.0 
9.152488340815e+00 -1.135934787460e+02 0.0 
0.0 0.0 -4.460942900300e+01 
-1.214244990473e+02 3.312125408189e+01 0.0 
3.312125408189e+01 -2.849207244965e+02 0.0 
0.0 0.0 -1.215035670631e+02 
-5.720875231726e+01 2.279778699609e+01 0.0 
2.279778699609e+01 -9.412471849817e+01 0.0 
0.0 0.0 -4.500004124463e+01 
-2.887081593266e+01 4.361256509453e+00 0.0 
4.361256509453e+00 -8.457238136380e+01 0.0 
0.0 0.0 -3.363295918894e+01 
-1.268640172792e+02 3.235115241016e+01 0.0 
3.235115241016e+01 -3.007626682662e+02 0.0 
0.0 0.0 -1.278880056636e+02 
-8.503235640125e+01 1.966293180532e+01 0.0 
1.966293180532e+01 -1.564336708871e+02 0.0 
0.0 0.0 -7.203980818650e+01 
-8.238970156521e+01 2.077293562160e+01 0.0 
2.077293562160e+01 -1.498200222933e+02 0.0 
0.0 0.0 -6.926291715756e+01 
-7.836165175428e+01 1.816927236527e+01 0.0 
1.816927236527e+01 -1.344205969673e+02 0.0 
0.0 0.0 -6.343467461648e+01 
-1.002523476966e+02 2.161600940866e+01 0.0 
2.161600940866e+01 -2.231903736269e+02 0.0 
0.0 0.0 -9.663281639707e+01 
-6.054568348459e+01 5.984935925916e+00 0.0 
5.984935925916e+00 -9.088637518468e+01 0.0 
0.0 0.0 -4.502961760078e+01 
-1.369869945856e+02 2.822839048660e+01 0.0 
2.822839048660e+01 -3.280386111249e+02 0.0 
0.0 0.0 -1.391076817131e+02 
-8.062155186784e+01 1.454626200635e+01 0.0 
1.454626200635e+01 -2.313081381831e+02 0.0 
0.0 0.0 -9.317890701529e+01 
-7.569469819831e+01 1.524243863083e+01 0.0 
1.524243863083e+01 -2.188705858111e+02 0.0 
0.0 0.0 -8.796958520281e+01 
-6.778560332313e+01 1.403867758985e+01 0.0 
1.403867758985e+01 -2.010356012697e+02 0.0 
0.0 0.0 -8.024636137785e+01 
-9.004690635758e+01 2.486485455730e+01 0.0 
2.486485455730e+01 -1.819990639075e+02 0.0 
0.0 0.0 -8.121379107951e+01 
-1.444147099713e+02 2.176130863933e+01 0.0 
2.176130863933e+01 -3.475383933189e+02 0.0 
0.0 0.0 -1.471859309871e+02 
-1.357584518502e+02 1.954510881437e+01 0.0 
1.954510881437e+01 -3.351137866103e+02 0.0 
0.0 0.0 -1.408616715382e+02 
-1.374420972141e+02 1.814687184570e+01 0.0 
1.814687184570e+01 -3.386060769844e+02 0.0 
0.0 0.0 -1.424144522595e+02 
-1.266285048482e+02 1.735800143310e+01 0.0 
1.735800143310e+01 -3.209141630049e+02 0.0 
0.0 0.0 -1.338628003559e+02 
-1.478333396332e+02 1.853824721077e+01 0.0 
1.853824721077e+01 -3.551674788479e+02 0.0 
0.0 0.0 -1.505002455443e+02 
-1.138207969606e+02 3.199116277324e+01 0.0 
3.199116277324e+01 -2.619414791899e+02 0.0 
0.0 0.0 -1.123286828452e+02 
-1.165232735945e+02 3.278632897415e+01 0.0 
3.278632897415e+01 -2.702696125041e+02 0.0 
0.0 0.0 -1.156378658296e+02 
-4.077809236905e+01 -1.102031901421e+00 0.0 
-1.102031901421e+00 -1.243949505763e+02 0.0 
0.0 0.0 -4.915191288360e+01 
-4.307669378021e+01 1.165112831064e-01 0.0 
1.165112831064e-01 -1.337360340806e+02 0.0 
0.0 0.0 -5.264381835825e+01 
-4.888001902159e+01 1.146040200291e+00 0.0 
1.146040200291e+00 -1.518467243647e+02 0.0 
0.0 0.0 -5.981802301589e+01 
-4.532336513034e+01 1.544780920704e+00 0.0 
1.544780920704e+00 -1.423958170891e+02 0.0 
0.0 0.0 -5.591575466583e+01 
-3.979107637376e+01 5.496850507346e-01 0.0 
5.496850507346e-01 -1.242639739314e+02 0.0 
0.0 0.0 -4.881651509155e+01 
-4.189315532290e+01 2.075301434373e+00 0.0 
2.075301434373e+00 -1.326334996391e+02 0.0 
0.0 0.0 -5.195799648861e+01 
-4.756550617480e+01 3.155894266221e+00 0.0 
3.155894266221e+00 -1.504654595402e+02 0.0 
0.0 0.0 -5.900928971449e+01 
-3.860949471512e+01 2.795170029114e+00 0.0 
2.795170029114e+00 -1.225823314655e+02 0.0 
0.0 0.0 -4.795754785420e+01 
-9.876932821584e+01 2.830839224616e+01 0.0 
2.830839224616e+01 -2.247285304210e+02 0.0 
0.0 0.0 -9.664935759105e+01 
-1.508440381651e+02 1.542513726007e+01 0.0 
1.542513726007e+01 -3.615325169021e+02 0.0 
0.0 0.0 -1.533129665202e+02 
-9.135199410462e+01 5.303448758525e+00 0.0 
5.303448758525e+00 -2.534254246871e+02 0.0 
0.0 0.0 -1.030332256375e+02 
-8.636575688924e+01 5.479319389549e+00 0.0 
5.479319389549e+00 -2.437074190533e+02 0.0 
0.0 0.0 -9.862195278276e+01 
-7.813259835213e+01 4.213660831470e+00 0.0 
4.213660831470e+00 -2.251839979566e+02 0.0 
0.0 0.0 -9.059497889263e+01 
-6.914798954707e+01 -2.542327470729e-01 0.0 
-2.542327470729e-01 -1.934990259836e+02 0.0 
0.0 0.0 -7.839410465919e+01 
-7.285243033109e+01 2.647876716035e-01 0.0 
2.647876716035e-01 -2.040400127065e+02 0.0 
0.0 0.0 -8.266773291126e+01 
-8.076056825923e+01 1.051100714526e+00 0.0 
1.051100714526e+00 -2.232090790826e+02 0.0 
0.0 0.0 -9.079089420254e+01 
-6.538438671999e+01 -6.147086444118e-01 0.0 
-6.147086444118e-01 -1.827738902420e+02 0.0 
0.0 0.0 -7.404748308860e+01 
-8.517615313739e+01 2.305291458465e+01 0.0 
2.305291458465e+01 -2.230656596583e+02 0.0 
0.0 0.0 -9.207254383869e+01 
-1.519264448220e+02 1.403320746334e+01 0.0 
1.403320746334e+01 -3.637021169717e+02 0.0 
0.0 0.0 -1.542885685381e+02 
-8.351371823313e+01 9.447188196608e+00 0.0 
9.447188196608e+00 -2.401217528845e+02 0.0 
0.0 0.0 -9.669064133529e+01 
-6.879815212016e+01 8.615909160662e-02 0.0 
8.615909160662e-02 -1.951980162283e+02 0.0 
0.0 0.0 -7.879885050453e+01 
-3.775441873155e+01 2.897218573502e+00 0.0 
2.897218573502e+00 -3.840582178144e+01 0.0 
0.0 0.0 -2.244807215389e+01 
-4.871589250154e+01 5.908378504902e+00 0.0 
5.908378504902e+00 -5.773256602520e+01 0.0 
0.0 0.0 -3.153453755802e+01 
-5.176131227461e+01 8.821933231519e+00 0.0 
8.821933231519e+00 -6.058471889974e+01 0.0 
0.0 0.0 -3.330380935231e+01 
-5.959801778562e+01 9.767297047235e+00 0.0 
9.767297047235e+00 -8.022261976190e+01 0.0 
0.0 0.0 -4.154619126426e+01 
-4.736044785340e+01 4.337648672073e+00 0.0 
4.337648672073e+00 -5.803345221882e+01 0.0 
0.0 0.0 -3.121817002167e+01 
-8.507001713230e+01 6.424144032210e-01 0.0 
6.424144032210e-01 -2.301239878781e+02 0.0 
0.0 0.0 -9.415820150312e+01 
-8.910900211103e+01 6.745276166542e-01 0.0 
6.745276166542e-01 -2.387180226222e+02 0.0 
0.0 0.0 -9.794810741997e+01 
-8.486666214686e+01 3.060981806863e-01 0.0 
3.060981806863e-01 -2.282599964005e+02 0.0 
0.0 0.0 -9.353799756421e+01 
-9.316018152127e+01 6.411198182492e-01 0.0 
6.411198182492e-01 -2.472457457622e+02 0.0 
0.0 0.0 -1.017217781851e+02 
-8.861119803740e+01 3.453901728513e-01 0.0 
3.453901728513e-01 -2.363550792794e+02 0.0 
0.0 0.0 -9.708988319503e+01 
-8.109546443990e+01 1.324375191113e-01 0.0 
1.324375191113e-01 -2.186689800384e+02 0.0 
0.0 0.0 -8.952933334351e+01 
-9.707100517589e+01 5.460713625904e-01 0.0 
5.460713625904e-01 -2.553726507651e+02 0.0 
0.0 0.0 -1.053330967823e+02 
-9.173213898562e+01 1.878159608186e-01 0.0 
1.878159608186e-01 -2.431798984063e+02 0.0 
0.0 0.0 -1.000736112176e+02 
-3.444751198551e+01 1.069150127163e+00 0.0 
1.069150127163e+00 -3.706154029884e+01 0.0 
0.0 0.0 -2.105271568531e+01 
-1.810907609641e+01 -1.342347002153e+00 0.0 
-1.342347002153e+00 -1.713953983968e+01 0.0 
0.0 0.0 -1.056444458702e+01 
-1.986886903719e+01 -2.310088817837e+00 0.0 
-2.310088817837e+00 -3.379734730892e+01 0.0 
0.0 0.0 -1.582780772933e+01 
-1.915640642130e+01 -2.341555670328e+00 0.0 
-2.341555670328e+00 -3.348076125565e+01 0.0 
0.0 0.0 -1.551969976627e+01 
-2.241512995755e+01 -2.812084621321e+00 0.0 
-2.812084621321e+00 -4.931997055692e+01 0.0 
0.0 0.0 -2.112053015434e+01 
-2.276853048479e+01 -2.478372935629e+00 0.0 
-2.478372935629e+00 -5.028383307904e+01 0.0 
0.0 0.0 -2.151570906915e+01 
-2.619109261296e+01 -2.680026183747e+00 0.0 
-2.680026183747e+00 -6.725276734602e+01 0.0 
0.0 0.0 -2.763315798770e+01 
-2.568413612233e+01 -2.079512084760e+00 0.0 
-2.079512084760e+00 -6.442684618815e+01 0.0 
0.0 0.0 -2.663329469314e+01 
-2.046367000854e+01 -1.940507452964e+00 0.0 
-1.940507452964e+00 -3.366204056630e+01 0.0 
0.0 0.0 -1.597813952284e+01 
-1.545841324720e+01 -1.446019922012e+00 0.0 
-1.446019922012e+00 -1.700105200373e+01 0.0 
0.0 0.0 -9.728545478533e+00 
-1.815607469904e+01 -2.369911665979e+00 0.0 
-2.369911665979e+00 -3.351942095931e+01 0.0 
0.0 0.0 -1.523940904521e+01 
-1.399262064327e+01 -1.401259238849e+00 0.0 
-1.401259238849e+00 -1.684775179228e+01 0.0 
0.0 0.0 -9.247313055809e+00 
-1.714338098464e+01 -2.330605718052e+00 0.0 
-2.330605718052e+00 -3.308894253405e+01 0.0 
0.0 0.0 -1.480454649934e+01 
-2.206052173288e+01 -2.948543127008e+00 0.0 
-2.948543127008e+00 -5.199835436932e+01 0.0 
0.0 0.0 -2.181766283066e+01 
-2.886201080454e+01 -2.854108312954e+00 0.0 
-2.854108312954e+00 -7.891790808827e+01 0.0 
0.0 0.0 -3.193397566784e+01 
-1.559037759902e+02 3.108131656781e+00 0.0 
3.108131656781e+00 -3.714033444570e+02 0.0 
0.0 0.0 -1.577921361342e+02 
-6.905248476740e+01 -1.326874650282e-01 0.0 
-1.326874650282e-01 -1.887880790506e+02 0.0 
0.0 0.0 -7.695216914539e+01 
-6.517626396876e+01 -3.739343352257e-01 0.0 
-3.739343352257e-01 -1.792944351863e+02 0.0 
0.0 0.0 -7.294120974652e+01 
-5.802568479022e+01 -5.040667840294e-01 0.0 
-5.040667840294e-01 -1.603179217050e+02 0.0 
0.0 0.0 -6.510308194858e+01 
-6.174323066202e+01 -5.192244689611e-01 0.0 
-5.192244689611e-01 -1.705500918353e+02 0.0 
0.0 0.0 -6.928799674921e+01 
-7.194779706130e+01 -2.347692837992e-01 0.0 
-2.347692837992e-01 -1.965524335459e+02 0.0 
0.0 0.0 -8.015006918214e+01 
-5.413566939194e+01 -3.106679349488e-01 0.0 
-3.106679349488e-01 -1.498444760162e+02 0.0 
0.0 0.0 -6.079404362244e+01 
-5.149960844750e+01 -6.221965559429e-01 0.0 
-6.221965559429e-01 -1.427910643838e+02 0.0 
0.0 0.0 -5.788720184940e+01 
-5.858572985082e+00 -2.926321320952e-01 0.0 
-2.926321320952e-01 -1.721339306445e+01 0.0 
0.0 0.0 -6.909477144612e+00 
-1.172181536263e+01 -4.190571389033e-01 0.0 
-4.190571389033e-01 -3.384409124470e+01 0.0 
0.0 0.0 -1.337373225529e+01 
-1.104827291969e+01 -3.557158219611e-01 0.0 
-3.557158219611e-01 -3.218790011047e+01 0.0 
0.0 0.0 -1.260531869676e+01 
-1.770107717583e+01 -5.015869652481e-01 0.0 
-5.015869652481e-01 -5.068093419570e+01 0.0 
0.0 0.0 -2.011460341146e+01 
-1.796222569809e+01 -7.281002088226e-01 0.0 
-7.281002088226e-01 -5.033488017457e+01 0.0 
0.0 0.0 -2.008913176180e+01 
-1.222746849500e+01 -6.970946170465e-01 0.0 
-6.970946170465e-01 -3.415550990370e+01 0.0 
0.0 0.0 -1.364207506866e+01 
-1.251247362925e+01 -9.568031792592e-01 0.0 
-9.568031792592e-01 -3.415063114033e+01 0.0 
0.0 0.0 -1.373258552083e+01 
-6.779170950684e+00 -5.799217786071e-01 0.0 
-5.799217786071e-01 -1.707597708385e+01 0.0 
0.0 0.0 -7.151123015008e+00 
-1.285038365779e+01 -1.096030545406e+00 0.0 
-1.096030545406e+00 -3.400816626053e+01 0.0 
0.0 0.0 -1.381892985057e+01 
-1.869012574923e+01 -1.350815787566e+00 0.0 
-1.350815787566e+00 -5.113258574048e+01 0.0 
0.0 0.0 -2.054681344691e+01 
-7.282387583482e+00 -6.831756373305e-01 0.0 
-6.831756373305e-01 -1.649040375818e+01 0.0 
0.0 0.0 -7.143574422460e+00 
-6.594503111453e+01 6.199283495836e-01 0.0 
6.199283495836e-01 -1.288799186664e+02 0.0 
0.0 0.0 -5.804748493429e+01 
-6.969341139179e+01 1.239921923202e+00 0.0 
1.239921923202e+00 -1.398160127044e+02 0.0 
0.0 0.0 -6.245282722887e+01 
-1.531191846370e+02 1.123314064273e+01 0.0 
1.123314064273e+01 -3.664579724738e+02 0.0 
0.0 0.0 -1.554731471332e+02 
-3.356934509669e+01 5.342738592471e-01 0.0 
5.342738592471e-01 -3.884960196291e+01 0.0 
0.0 0.0 -2.132568411788e+01 
-1.152746719520e+01 -1.189939373496e+00 0.0 
-1.189939373496e+00 -1.713548017713e+01 0.0 
0.0 0.0 -8.583047855539e+00 
-8.929301637410e+01 4.988079937286e+00 0.0 
4.988079937286e+00 -2.011497346230e+02 0.0 
0.0 0.0 -8.673282529914e+01 
-9.218902963155e+01 9.493182703734e+00 0.0 
9.493182703734e+00 -2.068520409874e+02 0.0 
0.0 0.0 -8.931232118569e+01 
-9.146900861598e+01 7.894539997148e+00 0.0 
7.894539997148e+00 -2.061866500683e+02 0.0 
0.0 0.0 -8.889669760527e+01 
-1.402344192645e+02 6.415701282017e-01 0.0 
6.415701282017e-01 -3.427252256477e+02 0.0 
0.0 0.0 -1.444878934736e+02 
-1.452433272859e+02 1.376849164892e+00 0.0 
1.376849164892e+00 -3.520001172591e+02 0.0 
0.0 0.0 -1.487730333635e+02 
-8.870331258928e+01 2.744261337040e+00 0.0 
2.744261337040e+00 -2.010986181476e+02 0.0 
0.0 0.0 -8.654057922105e+01 
-4.420414389069e+01 -2.246993168301e+00 0.0 
-2.246993168301e+00 -1.262267935274e+02 0.0 
0.0 0.0 -5.072928122544e+01 
-1.006972049597e+02 2.527320071178e+01 0.0 
2.527320071178e+01 -2.139676611561e+02 0.0 
0.0 0.0 -9.399945983473e+01 
-7.964024874941e+01 4.737601343631e+00 0.0 
4.737601343631e+00 -1.654947841699e+02 0.0 
0.0 0.0 -7.314050987579e+01 
-2.702760556151e+01 6.021124533742e+00 0.0 
6.021124533742e+00 -7.422648711728e+01 0.0 
0.0 0.0 -2.997622780364e+01 
-4.165267197215e+01 -2.456356106587e+00 0.0 
-2.456356106587e+00 -1.213695554115e+02 0.0 
0.0 0.0 -4.850666821510e+01 
-1.107298694957e+02 1.221943412236e+00 0.0 
1.221943412236e+00 -2.851714800146e+02 0.0 
0.0 0.0 -1.183704048531e+02 
-9.756078359275e+01 2.658177096492e+00 0.0 
2.658177096492e+00 -2.611148961921e+02 0.0 
0.0 0.0 -1.072027039354e+02 
-1.301727914710e+02 3.055480255026e+00 0.0 
3.055480255026e+00 -3.246733660248e+02 0.0 
0.0 0.0 -1.360538472487e+02 
-1.020341135663e+02 1.659050303839e+00 0.0 
1.659050303839e+00 -2.680378474657e+02 0.0 
0.0 0.0 -1.106215883096e+02 
-1.207436382879e+02 3.896913207681e+00 0.0 
3.896913207681e+00 -3.075562933816e+02 0.0 
0.0 0.0 -1.280899795009e+02 
-1.382360019241e+02 1.625761872572e+01 0.0 
1.625761872572e+01 -3.410338937558e+02 0.0 
0.0 0.0 -1.433809687040e+02 
-2.872859854718e+01 -9.946360013396e-01 0.0 
-9.946360013396e-01 -7.959475592101e+01 0.0 
0.0 0.0 -3.209700634046e+01 
-5.663380842413e+01 2.828419460199e+00 0.0 
2.828419460199e+00 -9.209423493130e+01 0.0 
0.0 0.0 -4.421841300663e+01 
-5.126925503308e+01 1.292168213869e+00 0.0 
1.292168213869e+00 -8.443247497906e+01 0.0 
0.0 0.0 -4.031051900364e+01 
-7.044324563819e+01 4.094543443380e+00 0.0 
4.094543443380e+00 -1.341191465084e+02 0.0 
0.0 0.0 -6.096871764398e+01 
-4.707428361704e+01 -1.572445828788e+00 0.0 
-1.572445828788e+00 -1.325016143383e+02 0.0 
0.0 0.0 -5.347276938661e+01 
-7.709718421279e+01 3.686737748108e-02 0.0 
3.686737748108e-02 -2.096771007837e+02 0.0 
0.0 0.0 -8.563228549894e+01 
-3.036771488447e+01 -2.190600463019e+00 0.0 
-2.190600463019e+00 -8.441735192111e+01 0.0 
0.0 0.0 -3.403552004167e+01 
-1.181362534664e+02 3.071462280929e+01 0.0 
3.071462280929e+01 -2.820173406206e+02 0.0 
0.0 0.0 -1.196460782261e+02 
-5.367488700390e+01 2.431174364511e+01 0.0 
2.431174364511e+01 -1.087068959933e+02 0.0 
0.0 0.0 -4.831453489917e+01 
-7.481413988808e+01 2.891771373415e+00 0.0 
2.891771373415e+00 -2.160450437744e+02 0.0 
0.0 0.0 -8.685775509876e+01 
-6.166536367006e+01 -8.845229825141e-01 0.0 
-8.845229825141e-01 -1.740309200334e+02 0.0 
0.0 0.0 -7.030888511104e+01 
-4.763791756152e+01 -2.059668029525e+00 0.0 
-2.059668029525e+00 -1.372980169021e+02 0.0 
0.0 0.0 -5.508078033908e+01 
-3.871201217044e+01 -2.581931657392e+00 0.0 
-2.581931657392e+00 -1.129814963321e+02 0.0 
0.0 0.0 -4.510805255077e+01 
-5.178337646810e+01 1.795790657021e+01 0.0 
1.795790657021e+01 -1.482435941534e+02 0.0 
0.0 0.0 -5.960809118646e+01 
-7.230689922314e+01 8.304089209911e-01 0.0 
8.304089209911e-01 -2.054666603268e+02 0.0 
0.0 0.0 -8.293206786497e+01 
-1.105265245253e+02 5.970920612154e+00 0.0 
5.970920612154e+00 -2.907317434302e+02 0.0 
0.0 0.0 -1.199774803867e+02 
-7.331926150828e+01 3.887199755408e+00 0.0 
3.887199755408e+00 -1.450816830762e+02 0.0 
0.0 0.0 -6.512028337534e+01 
-9.941538654743e+00 -1.135691277377e+00 0.0 
-1.135691277377e+00 -1.908469854753e+01 0.0 
0.0 0.0 -8.593169991804e+00 
-1.150123967960e+02 7.339839580909e+00 0.0 
7.339839580909e+00 -3.001364560951e+02 0.0 
0.0 0.0 -1.241446558673e+02 
-8.842883273997e+01 2.772964071568e+00 0.0 
2.772964071568e+00 -2.434051917699e+02 0.0 
0.0 0.0 -9.915020735295e+01 
-6.358950136136e+01 5.862745184558e+00 0.0 
5.862745184558e+00 -1.013858947073e+02 0.0 
0.0 0.0 -4.909261882061e+01 
-1.040691167010e+02 1.670459014673e+01 0.0 
1.670459014673e+01 -2.793439629398e+02 0.0 
0.0 0.0 -1.146239238923e+02 
-2.881153199621e+01 -2.901283576892e+00 0.0 
-2.901283576892e+00 -7.746916801580e+01 0.0 
0.0 0.0 -3.148421000360e+01 
-7.610299355291e+01 7.287759240971e+00 0.0 
7.287759240971e+00 -1.430466721300e+02 0.0 
0.0 0.0 -6.534489970487e+01 
-9.143195430727e+01 1.599485523781e+01 0.0 
1.599485523781e+01 -1.868428477018e+02 0.0 
0.0 0.0 -8.308244060272e+01 
-5.750613227502e+01 6.405823443860e+00 0.0 
6.405823443860e+00 -8.059813508058e+01 0.0 
0.0 0.0 -4.103128020668e+01 
-2.388481681870e+01 -2.054081719443e+00 0.0 
-2.054081719443e+00 -6.476703482290e+01 0.0 
0.0 0.0 -2.619555549248e+01 
-4.796226260303e+01 1.621038031196e+00 0.0 
1.621038031196e+00 -7.170645110386e+01 0.0 
0.0 0.0 -3.550061411206e+01 
-1.350337226031e+02 1.157983226334e+01 0.0 
1.157983226334e+01 -3.364403706843e+02 0.0 
0.0 0.0 -1.410422279862e+02 
-8.305070356399e+01 1.601007439069e+01 0.0 
1.601007439069e+01 -1.494850928549e+02 0.0 
0.0 0.0 -6.936073892566e+01 
-4.333275691723e+01 -1.433343579357e+00 0.0 
-1.433343579357e+00 -1.213846172715e+02 0.0 
0.0 0.0 -4.901521225662e+01 
-7.065489326472e+01 8.624971976874e+00 0.0 
8.624971976874e+00 -2.114963367215e+02 0.0 
0.0 0.0 -8.424536899585e+01 
-5.426345210097e+01 2.201650017222e+01 0.0 
2.201650017222e+01 -1.387971593628e+02 0.0 
0.0 0.0 -5.751818343912e+01 
-4.101786436487e+01 1.549482842532e+01 0.0 
1.549482842532e+01 -3.408378006688e+01 0.0 
0.0 0.0 -2.213049332953e+01 
-8.277063145917e+01 6.026223834808e+00 0.0 
6.026223834808e+00 -1.746371114530e+02 0.0 
0.0 0.0 -7.682232287366e+01 
-6.657706379154e+01 1.687347137499e+01 0.0 
1.687347137499e+01 -1.930566553439e+02 0.0 
0.0 0.0 -7.749011574065e+01 
-1.155514444723e+02 1.564441760957e+01 0.0 
1.564441760957e+01 -3.019862988780e+02 0.0 
0.0 0.0 -1.248613230051e+02 
-8.710574249132e+01 1.133624449920e+01 0.0 
1.133624449920e+01 -2.475926441418e+02 0.0 
0.0 0.0 -1.000095159899e+02 
-4.661725114715e+01 -1.107558439169e+00 0.0 
-1.107558439169e+00 -1.302096382982e+02 0.0 
0.0 0.0 -5.264806683359e+01 
-1.254330329915e+02 6.562760839911e+00 0.0 
6.562760839911e+00 -3.184211171188e+02 0.0 
0.0 0.0 -1.327562450331e+02 
-6.472440812456e+01 1.202022169670e+01 0.0 
1.202022169670e+01 -1.955347105013e+02 0.0 
0.0 0.0 -7.767773558775e+01 
-8.240812485904e+01 8.825353564009e+00 0.0 
8.825353564009e+00 -1.639422439675e+02 0.0 
0.0 0.0 -7.350511064795e+01 
-8.819153856318e+01 2.604468722352e+01 0.0 
2.604468722352e+01 -2.148427041250e+02 0.0 
0.0 0.0 -9.051027280647e+01 
-5.227796400148e+01 6.817833124117e+00 0.0 
6.817833124117e+00 -1.650847729140e+02 0.0 
0.0 0.0 -6.480882107463e+01 
-8.252240827665e+01 1.196668471000e+01 0.0 
1.196668471000e+01 -1.545670892846e+02 0.0 
0.0 0.0 -7.072684926836e+01 
-7.350297645809e+01 4.399296264470e+00 0.0 
4.399296264470e+00 -2.155462137412e+02 0.0 
0.0 0.0 -8.631475705978e+01 
-1.082662622224e+02 1.872849224175e+01 0.0 
1.872849224175e+01 -2.856421724143e+02 0.0 
0.0 0.0 -1.177725303910e+02 
-5.034186226023e+01 2.381055951178e+01 0.0 
2.381055951178e+01 -1.073668447642e+02 0.0 
0.0 0.0 -4.691261210734e+01 
-7.226192817106e+01 2.449522367018e+01 0.0 
2.449522367018e+01 -1.775735173092e+02 0.0 
0.0 0.0 -7.455063364406e+01 
-7.962124893053e+01 2.595040804642e+01 0.0 
2.595040804642e+01 -1.692413516341e+02 0.0 
0.0 0.0 -7.425878016938e+01 
-6.912516273625e+01 2.124950073930e+01 0.0 
2.124950073930e+01 -1.869581644341e+02 0.0 
0.0 0.0 -7.642499815111e+01 
-1.059761810990e+02 6.356722241662e-01 0.0 
6.356722241662e-01 -2.747941683936e+02 0.0 
0.0 0.0 -1.138311048478e+02 
-1.202391895421e+02 6.968471545411e+00 0.0 
6.968471545411e+00 -3.093625143666e+02 0.0 
0.0 0.0 -1.284805111726e+02 
-2.792253278177e+01 -2.791244349339e-01 0.0 
-2.791244349339e-01 -7.869492347952e+01 0.0 
0.0 0.0 -3.158523687839e+01 
-4.009485796459e+01 1.658741697740e+01 0.0 
1.658741697740e+01 -1.130352012012e+02 0.0 
0.0 0.0 -4.553901774974e+01 
-6.622083040085e+01 8.468983346357e+00 0.0 
8.468983346357e+00 -1.022782849205e+02 0.0 
0.0 0.0 -5.014973459640e+01 
-1.063443374042e+02 2.698382043125e+01 0.0 
2.698382043125e+01 -2.634285968980e+02 0.0 
0.0 0.0 -1.105318802907e+02 
-8.803962160626e+01 1.015289482684e+01 0.0 
1.015289482684e+01 -1.847554127718e+02 0.0 
0.0 0.0 -8.143851031343e+01 
-4.778827697151e+01 2.134754455811e+01 0.0 
2.134754455811e+01 -1.208383909802e+02 0.0 
0.0 0.0 -5.018800038550e+01 
-1.206147009011e+02 5.337151421704e+00 0.0 
5.337151421704e+00 -3.087066054002e+02 0.0 
0.0 0.0 -1.283963918904e+02 
-8.794614321121e+01 1.366268993537e+01 0.0 
1.366268993537e+01 -1.753486350238e+02 0.0 
0.0 0.0 -7.858843347049e+01 
-7.651613556159e+01 9.423792940009e-01 0.0 
9.423792940009e-01 -2.143556728953e+02 0.0 
0.0 0.0 -8.686154253707e+01 
-3.260148220394e+01 -3.531732712263e-01 0.0 
-3.531732712263e-01 -9.132415970763e+01 0.0 
0.0 0.0 -3.677769257347e+01 
-2.443980942197e+01 6.037026407074e+00 0.0 
6.037026407074e+00 -5.800649462466e+01 0.0 
0.0 0.0 -2.433389121399e+01 
-4.058028838264e+01 4.671084911124e+00 0.0 
4.671084911124e+00 -1.298770971476e+02 0.0 
0.0 0.0 -5.073721565907e+01 
-6.341612359385e+01 1.492342648909e+01 0.0 
1.492342648909e+01 -1.884396680428e+02 0.0 
0.0 0.0 -7.515673749101e+01 
-8.457936302201e+01 1.833447799144e+00 0.0 
1.833447799144e+00 -2.333894386231e+02 0.0 
0.0 0.0 -9.499064049352e+01 
-9.858427179841e+01 2.255950078869e+01 0.0 
2.255950078869e+01 -2.091692099274e+02 0.0 
0.0 0.0 -9.192604451774e+01 
-1.256103038185e+02 4.949446432442e+00 0.0 
4.949446432442e+00 -3.174881013616e+02 0.0 
0.0 0.0 -1.325295215540e+02 
-1.086397573967e+02 9.676956335854e+00 0.0 
9.676956335854e+00 -2.897090850830e+02 0.0 
0.0 0.0 -1.191046527439e+02 
-2.196570600638e+01 1.197354489085e+01 0.0 
1.197354489085e+01 -2.215456604688e+01 0.0 
0.0 0.0 -1.283608161598e+01 
-4.566534474629e+01 1.970287417895e+01 0.0 
1.970287417895e+01 -5.462017155365e+01 0.0 
0.0 0.0 -2.968565488998e+01 
-1.305812773731e+02 4.505719992669e+00 0.0 
4.505719992669e+00 -3.262471554715e+02 0.0 
0.0 0.0 -1.366485298534e+02 
-7.530124230488e+01 8.094654694059e+00 0.0 
8.094654694059e+00 -2.220289110602e+02 0.0 
0.0 0.0 -8.879904600954e+01 
-1.138587704662e+02 1.814599431632e+01 0.0 
1.814599431632e+01 -2.971189157316e+02 0.0 
0.0 0.0 -1.228933058593e+02 
-8.390310612322e+01 1.042029069640e-01 0.0 
1.042029069640e-01 -2.249103621700e+02 0.0 
0.0 0.0 -9.224404048798e+01 
-1.202198212289e+02 3.008674260429e+01 0.0 
3.008674260429e+01 -2.891900252232e+02 0.0 
0.0 0.0 -1.224229539356e+02 
-3.464718072682e+01 2.130959069673e+01 0.0 
2.130959069673e+01 -5.191943378326e+01 0.0 
0.0 0.0 -2.556998435302e+01 
-1.355546618609e+02 3.990379686306e+00 0.0 
3.990379686306e+00 -3.352208562080e+02 0.0 
0.0 0.0 -1.408326554207e+02 
-1.071416416309e+02 1.180719713404e+01 0.0 
1.180719713404e+01 -2.873645786049e+02 0.0 
0.0 0.0 -1.179518660708e+02 
-3.838434157467e+01 1.125404100462e+01 0.0 
1.125404100462e+01 -1.183270214884e+02 0.0 
0.0 0.0 -4.661340891892e+01 
-3.032632015859e+01 2.944524973351e-02 0.0 
2.944524973351e-02 -3.615016461309e+01 0.0 
0.0 0.0 -1.954294543150e+01 
-1.472888139037e+02 4.395676071947e+00 0.0 
4.395676071947e+00 -3.564172780026e+02 0.0 
0.0 0.0 -1.507118275719e+02 
-1.173190030925e+02 1.324065489613e+01 0.0 
1.324065489613e+01 -3.058659605832e+02 0.0 
0.0 0.0 -1.265554891027e+02 
-7.695323470847e+01 2.210643630104e+01 0.0 
2.210643630104e+01 -2.049050354069e+02 0.0 
0.0 0.0 -8.415748103460e+01 
-7.210315965626e+01 6.318500747643e+00 0.0 
6.318500747643e+00 -2.141478342750e+02 0.0 
0.0 0.0 -8.547529817938e+01 
-3.494566309484e+01 2.009169485554e+01 0.0 
2.009169485554e+01 -3.201813236830e+01 0.0 
0.0 0.0 -1.968913863894e+01 
-8.898238897297e+01 1.855376806721e+00 0.0 
1.855376806721e+00 -2.422015962460e+02 0.0 
0.0 0.0 -9.895519556568e+01 
-7.600480107402e+01 2.541110523018e+01 0.0 
2.541110523018e+01 -1.801939243917e+02 0.0 
0.0 0.0 -7.645961763972e+01 
-9.844141882993e+01 1.944250495593e+01 0.0 
1.944250495593e+01 -2.194814380432e+02 0.0 
0.0 0.0 -9.497685706194e+01 
-1.214224029525e+02 1.511075854711e+01 0.0 
1.511075854711e+01 -3.126036855946e+02 0.0 
0.0 0.0 -1.298078265641e+02 
-7.540037130392e+01 1.953963310578e+01 0.0 
1.953963310578e+01 -1.277024022996e+02 0.0 
0.0 0.0 -6.053083208105e+01 
-8.497939405687e+01 1.127877317990e+00 0.0 
1.127877317990e+00 -2.318989883666e+02 0.0 
0.0 0.0 -9.466351472703e+01 
-8.769674334077e+01 1.843793071406e+01 0.0 
1.843793071406e+01 -2.419658973018e+02 0.0 
0.0 0.0 -9.849879219277e+01 
-1.829812585348e+01 -1.035790058710e+00 0.0 
-1.035790058710e+00 -5.045680915579e+01 0.0 
0.0 0.0 -2.022648050278e+01 
-3.913820060743e+01 2.183600113529e+01 0.0 
2.183600113529e+01 -5.238667418279e+01 0.0 
0.0 0.0 -2.705746243707e+01 
-8.918353361887e+01 1.168364439340e+00 0.0 
1.168364439340e+00 -2.405311157087e+02 0.0 
0.0 0.0 -9.851439479827e+01 
-4.397425309169e+01 3.816647597101e+00 0.0 
3.816647597101e+00 -1.403042684674e+02 0.0 
0.0 0.0 -5.488355646773e+01 
-7.671761010058e+01 5.959242683363e+00 0.0 
5.959242683363e+00 -2.240605376797e+02 0.0 
0.0 0.0 -8.983344433409e+01 
-1.269597323221e+02 2.447726857661e+01 0.0 
2.447726857661e+01 -3.146404744290e+02 0.0 
0.0 0.0 -1.320800620253e+02 
-9.338485361627e+01 1.154558428054e+00 0.0 
1.154558428054e+00 -2.491406876843e+02 0.0 
0.0 0.0 -1.023576623902e+02 
-4.986047551501e+01 4.921335579838e+00 0.0 
4.921335579838e+00 -1.580038803521e+02 0.0 
0.0 0.0 -6.195930676014e+01 
-9.757097841553e+01 1.076878015943e+00 0.0 
1.076878015943e+00 -2.576795969095e+02 0.0 
0.0 0.0 -1.061751725975e+02 
-3.094066986807e+01 1.988109060964e+01 0.0 
1.988109060964e+01 -3.217187603285e+01 0.0 
0.0 0.0 -1.853376377028e+01 
-7.934466503442e+01 2.196802550381e+01 0.0 
2.196802550381e+01 -1.439420444716e+02 0.0 
0.0 0.0 -6.658601285182e+01 
-1.017653658245e+02 9.339394666732e-01 0.0 
9.339394666732e-01 -2.661368501841e+02 0.0 
0.0 0.0 -1.099706648026e+02 
-8.385683649866e+01 2.610190595535e+01 0.0 
2.610190595535e+01 -1.990506279136e+02 0.0 
0.0 0.0 -8.447223932368e+01 
-1.959457876240e+01 -1.534210547373e+00 0.0 
-1.534210547373e+00 -5.280507676811e+01 0.0 
0.0 0.0 -2.131989665915e+01 
-8.143258040491e+01 2.147062962167e+01 0.0 
2.147062962167e+01 -2.191540287165e+02 0.0 
0.0 0.0 -8.977598273643e+01 
-1.347781695624e+02 1.231727699221e+00 0.0 
1.231727699221e+00 -3.324814281231e+02 0.0 
0.0 0.0 -1.397778793056e+02 
-5.411918667903e+01 -1.099240819296e+00 0.0 
-1.099240819296e+00 -1.588630233157e+02 0.0 
0.0 0.0 -6.349466299841e+01 
-8.144599633190e+01 5.677240174415e+00 0.0 
5.677240174415e+00 -2.338485543509e+02 0.0 
0.0 0.0 -9.418836520483e+01 
-8.624349264389e+01 2.303701441877e+01 0.0 
2.303701441877e+01 -1.658015622523e+02 0.0 
0.0 0.0 -7.521351646885e+01 
-2.938182072053e+01 1.931998851287e+01 0.0 
1.931998851287e+01 -3.133358140871e+01 0.0 
0.0 0.0 -1.781462063877e+01 
-8.992946823006e+01 6.986224297144e+00 0.0 
6.986224297144e+00 -2.522978977344e+02 0.0 
0.0 0.0 -1.022682097893e+02 
-9.188274418680e+01 2.697217122639e+01 0.0 
2.697217122639e+01 -2.180492026878e+02 0.0 
0.0 0.0 -9.257958406238e+01 
-8.618165240275e+01 2.085107960880e+01 0.0 
2.085107960880e+01 -2.329860523990e+02 0.0 
0.0 0.0 -9.535031144054e+01 
-7.097972837732e+01 1.601137678265e+01 0.0 
1.601137678265e+01 -2.060665740722e+02 0.0 
0.0 0.0 -8.271389073487e+01 
-9.898846637621e+01 8.324042083739e+00 0.0 
8.324042083739e+00 -2.709523649187e+02 0.0 
0.0 0.0 -1.105822493885e+02 
-3.206287189283e+01 2.027111761983e+01 0.0 
2.027111761983e+01 -5.076697447384e+01 0.0 
0.0 0.0 -2.444895391000e+01 
-4.116348253891e+01 -2.541093963142e+00 0.0 
-2.541093963142e+00 -1.179144145430e+02 0.0 
0.0 0.0 -4.732336912457e+01 
-3.495037977655e+01 -2.799004740711e+00 0.0 
-2.799004740711e+00 -9.856055562846e+01 0.0 
0.0 0.0 -3.965328062150e+01 
-5.371579291866e+01 4.295501829091e+00 0.0 
4.295501829091e+00 -1.682176264018e+02 0.0 
0.0 0.0 -6.618002579615e+01 
-9.547283423251e+01 2.771478791545e+01 0.0 
2.771478791545e+01 -2.213242832531e+02 0.0 
0.0 0.0 -9.463913524569e+01 
-2.391187429112e+01 -6.272592268724e-01 0.0 
-6.272592268724e-01 -6.708466322990e+01 0.0 
0.0 0.0 -2.689896125631e+01 
-8.685638449551e+01 2.543217060925e+01 0.0 
2.543217060925e+01 -1.770488692206e+02 0.0 
0.0 0.0 -7.877157611485e+01 
-2.665067783343e+01 -2.960769054970e+00 0.0 
-2.960769054970e+00 -7.093468597147e+01 0.0 
0.0 0.0 -2.887560914147e+01 
-5.127344574105e+01 2.640335830864e+00 0.0 
2.640335830864e+00 -1.602614601973e+02 0.0 
0.0 0.0 -6.306047178149e+01 
-1.008839316327e+02 2.169782435359e+01 0.0 
2.169782435359e+01 -2.654230779457e+02 0.0 
0.0 0.0 -1.094921028735e+02 
-5.186080556201e+01 4.310726296829e-01 0.0 
4.310726296829e-01 -9.024238277407e+01 0.0 
0.0 0.0 -4.223095650082e+01 
-5.509828420535e+01 2.252115220426e+00 0.0 
2.252115220426e+00 -1.697785020127e+02 0.0 
0.0 0.0 -6.706303586542e+01 
-3.981447371785e+01 -3.565610400355e-01 0.0 
-3.565610400355e-01 -1.110403630843e+02 0.0 
0.0 0.0 -4.485645104065e+01 
-5.252557189047e+01 8.754021136665e-01 0.0 
8.754021136665e-01 -1.609979189744e+02 0.0 
0.0 0.0 -6.365704725946e+01 
-7.905172494421e+01 1.716002211270e+01 0.0 
1.716002211270e+01 -2.238702215338e+02 0.0 
0.0 0.0 -9.047658394339e+01 
-5.630093977191e+01 7.261132243066e-01 0.0 
7.261132243066e-01 -1.700400801841e+02 0.0 
0.0 0.0 -6.750230598679e+01 
-5.355290497598e+01 -3.428224176974e-01 0.0 
-3.428224176974e-01 -1.605609099658e+02 0.0 
0.0 0.0 -6.383414448254e+01 
-8.553990903803e+01 5.581232509670e+00 0.0 
5.581232509670e+00 -1.860036836107e+02 0.0 
0.0 0.0 -8.106307779463e+01 
-5.720297823407e+01 -3.204421984785e-01 0.0 
-3.204421984785e-01 -1.691497020507e+02 0.0 
0.0 0.0 -6.750580408544e+01 
-8.990506815906e+01 1.662073551781e+00 0.0 
1.662073551781e+00 -2.045283904152e+02 0.0 
0.0 0.0 -8.793003757227e+01 
-1.568562895370e+02 1.471887239688e+00 0.0 
1.471887239688e+00 -3.729940366180e+02 0.0 
0.0 0.0 -1.585550978465e+02 
-3.637716468798e+01 1.819311322945e-01 0.0 
1.819311322945e-01 -5.119360250605e+01 0.0 
0.0 0.0 -2.587123015821e+01 
-2.808112556355e+01 1.902156188072e+01 0.0 
1.902156188072e+01 -2.752153966082e+01 0.0 
0.0 0.0 -1.628079956731e+01 
-2.058964677940e+01 6.082093194868e-02 0.0 
6.082093194868e-02 -1.663352753433e+01 0.0 
0.0 0.0 -1.103150482355e+01 
-3.026888706631e+01 1.864334421130e+01 0.0 
1.864334421130e+01 -5.135367357789e+01 0.0 
0.0 0.0 -2.408676819326e+01 
-4.771740030461e+01 -1.855949454484e+00 0.0 
-1.855949454484e+00 -1.401490867438e+02 0.0 
0.0 0.0 -5.595994611452e+01 
-8.703736787981e+01 2.664083588513e+01 0.0 
2.664083588513e+01 -1.891429457873e+02 0.0 
0.0 0.0 -8.245409410013e+01 
-3.682184936938e+01 8.407729884677e-02 0.0 
8.407729884677e-02 -5.187905800623e+01 0.0 
0.0 0.0 -2.621027221268e+01 
-4.458945846126e+01 -2.313911079197e+00 0.0 
-2.313911079197e+00 -1.292971780679e+02 0.0 
0.0 0.0 -5.176599095873e+01 
-1.075262866230e+02 2.977627278736e+01 0.0 
2.977627278736e+01 -2.415943248451e+02 0.0 
0.0 0.0 -1.043361834404e+02 
-1.324180022902e+02 3.068758420835e+01 0.0 
3.068758420835e+01 -3.157713411653e+02 0.0 
0.0 0.0 -1.340568030367e+02 
-6.261396390184e+01 9.165199985264e-01 0.0 
9.165199985264e-01 -1.190486974549e+02 0.0 
0.0 0.0 -5.409879840703e+01 
-1.194296064971e+02 1.753243246667e+01 0.0 
1.753243246667e+01 -3.076847144387e+02 0.0 
0.0 0.0 -1.277342962807e+02 
-9.144807538058e+01 2.031293640569e+01 0.0 
2.031293640569e+01 -2.469017553727e+02 0.0 
0.0 0.0 -1.011049492260e+02 
-7.829105490508e+01 8.329263229999e-01 0.0 
8.329263229999e-01 -1.668336302564e+02 0.0 
0.0 0.0 -7.313740554844e+01 
-3.037301404702e+01 3.020173255543e-01 0.0 
3.020173255543e-01 -3.478316541267e+01 0.0 
0.0 0.0 -1.914685383791e+01 
-1.631864013027e+01 -2.170153861736e+00 0.0 
-2.170153861736e+00 -3.304359960841e+01 0.0 
0.0 0.0 -1.453169909709e+01 
-1.108082302055e+02 3.562691650889e-01 0.0 
3.562691650889e-01 -2.846993256890e+02 0.0 
0.0 0.0 -1.182522667684e+02 
-2.737012131722e+01 1.834354738285e+01 0.0 
1.834354738285e+01 -2.642513388004e+01 0.0 
0.0 0.0 -1.573857655918e+01 
-2.772077857310e+01 1.677672138253e+01 0.0 
1.677672138253e+01 -4.530809532509e+01 0.0 
0.0 0.0 -2.150866216946e+01 
-2.555340589344e+01 1.436219837649e+01 0.0 
1.436219837649e+01 -4.220483460573e+01 0.0 
0.0 0.0 -1.992747214975e+01 
-4.912209363465e+01 -8.255263641583e-01 0.0 
-8.255263641583e-01 -1.371906930321e+02 0.0 
0.0 0.0 -5.549383600002e+01 
-2.199071049861e+01 -2.914303386110e+00 0.0 
-2.914303386110e+00 -4.909558504616e+01 0.0 
0.0 0.0 -2.092588866343e+01 
-2.669525030509e+01 1.714418751243e+01 0.0 
1.714418751243e+01 -2.855522918215e+01 0.0 
0.0 0.0 -1.617514384617e+01 
-1.336116023575e+02 2.088455472543e+01 0.0 
2.088455472543e+01 -3.302623101281e+02 0.0 
0.0 0.0 -1.387621737457e+02 
-4.115924239944e+01 1.505879793473e+00 0.0 
1.505879793473e+00 -5.282646260728e+01 0.0 
0.0 0.0 -2.779571150202e+01 
-1.045302012047e+02 2.350229520145e+01 0.0 
2.350229520145e+01 -2.696108595896e+02 0.0 
0.0 0.0 -1.118423182383e+02 
-2.486851268227e+01 1.529479313055e+01 0.0 
1.529479313055e+01 -2.644465998629e+01 0.0 
0.0 0.0 -1.499395180057e+01 
-9.275821621251e+01 1.540502724271e+01 0.0 
1.540502724271e+01 -1.960593131557e+02 0.0 
0.0 0.0 -8.624525881045e+01 
-1.257787651105e+02 2.696286460969e+01 0.0 
2.696286460969e+01 -3.084828329744e+02 0.0 
0.0 0.0 -1.298784794255e+02 
-1.555497395072e+02 8.578319329175e+00 0.0 
8.578319329175e+00 -3.708748937918e+02 0.0 
0.0 0.0 -1.575273899897e+02 
-1.145035311114e+02 2.503404983362e+01 0.0 
2.503404983362e+01 -2.883503206604e+02 0.0 
0.0 0.0 -1.204561555316e+02 
-2.301158309782e+01 1.080697472828e+01 0.0 
1.080697472828e+01 -3.671489805921e+01 0.0 
0.0 0.0 -1.751794434711e+01 
-5.573623564603e+01 7.185406210384e+00 0.0 
7.185406210384e+00 -7.347860380115e+01 0.0 
0.0 0.0 -3.836445183415e+01 
-1.158284960757e+02 3.114473840087e+01 0.0 
3.114473840087e+01 -2.740756607166e+02 0.0 
0.0 0.0 -1.165712470377e+02 
-6.869289151711e+01 1.592980205133e+00 0.0 
1.592980205133e+00 -1.349958555176e+02 0.0 
0.0 0.0 -6.070662411043e+01 
-1.572398799108e+02 6.377489313818e+00 0.0 
6.377489313818e+00 -3.736536561175e+02 0.0 
0.0 0.0 -1.588680608085e+02 
-4.277089629436e+01 2.440820866425e+00 0.0 
2.440820866425e+00 -5.117328699993e+01 0.0 
0.0 0.0 -2.778325498829e+01 
-8.528541312059e+01 3.526963319810e+00 0.0 
3.526963319810e+00 -1.880233175924e+02 0.0 
0.0 0.0 -8.159261921391e+01 
-2.630226685435e+01 -1.425553046615e+00 0.0 
-1.425553046615e+00 -7.030213250324e+01 0.0 
0.0 0.0 -2.858131980728e+01 
-8.485878360054e+01 1.740449815725e+00 0.0 
1.740449815725e+00 -1.879512324585e+02 0.0 
0.0 0.0 -8.144300481770e+01 
-9.451483621651e+01 2.759696799726e+01 0.0 
2.759696799726e+01 -2.092952275455e+02 0.0 
0.0 0.0 -9.074301912860e+01 
-4.742430356043e+01 7.016789806903e-01 0.0 
7.016789806903e-01 -7.592118385959e+01 0.0 
0.0 0.0 -3.660364622601e+01 
-5.954439328212e+01 1.179350629871e+01 0.0 
1.179350629871e+01 -7.847255285378e+01 0.0 
0.0 0.0 -4.100508384077e+01 
-1.500669679674e+02 2.166991991378e+00 0.0 
2.166991991378e+00 -3.606485446582e+02 0.0 
0.0 0.0 -1.528146537877e+02 
-1.033500283598e+02 2.722832436157e+01 0.0 
2.722832436157e+01 -2.260466059738e+02 0.0 
0.0 0.0 -9.841899030006e+01 
-2.144600364675e+01 8.183343645351e+00 0.0 
8.183343645351e+00 -3.272983503043e+01 0.0 
0.0 0.0 -1.585275160315e+01 
-6.278771010412e+01 1.126109830959e+00 0.0 
1.126109830959e+00 -1.179942515879e+02 0.0 
0.0 0.0 -5.383458850760e+01 
-6.152146285348e+01 -5.811659660329e-01 0.0 
-5.811659660329e-01 -1.707267162257e+02 0.0 
0.0 0.0 -6.927445372375e+01 
-2.075984267126e+01 -1.298502100061e+00 0.0 
-1.298502100061e+00 -3.057645723801e+01 0.0 
0.0 0.0 -1.519332974374e+01 
-1.446935469122e+02 9.879993308909e+00 0.0 
9.879993308909e+00 -3.528037408363e+02 0.0 
0.0 0.0 -1.488491863245e+02 
-1.013817569535e+02 2.869297078082e+01 0.0 
2.869297078082e+01 -2.283121690480e+02 0.0 
0.0 0.0 -9.850817780047e+01 
-1.488245661546e+02 3.514012332001e+00 0.0 
3.514012332001e+00 -3.589476659483e+02 0.0 
0.0 0.0 -1.519316696309e+02 
-1.752143549813e+01 -3.769509902154e-01 0.0 
-3.769509902154e-01 -4.998955827692e+01 0.0 
0.0 0.0 -1.985329813251e+01 
-1.407092462314e+01 -1.843332781269e+00 0.0 
-1.843332781269e+00 -3.119149842361e+01 0.0 
0.0 0.0 -1.326064540387e+01 
-1.443557034426e+02 1.253933202029e+01 0.0 
1.253933202029e+01 -3.521634130968e+02 0.0 
0.0 0.0 -1.485557349618e+02 
-1.121671285427e+02 3.119723454340e+01 0.0 
3.119723454340e+01 -2.587394117427e+02 0.0 
0.0 0.0 -1.108719620856e+02 
-2.909606223695e+01 -1.992791538988e+00 0.0 
-1.992791538988e+00 -8.000669974551e+01 0.0 
0.0 0.0 -3.233082859474e+01 
-9.497401263207e+01 1.332129870172e+01 0.0 
1.332129870172e+01 -2.139320752263e+02 0.0 
0.0 0.0 -9.227182635751e+01 
-1.946514148604e+01 6.169111025491e+00 0.0 
6.169111025491e+00 -2.330684782592e+01 0.0 
0.0 0.0 -1.251340077864e+01 
-3.019415975306e+01 7.101532061082e-02 0.0 
7.101532061082e-02 -3.274394111665e+01 0.0 
0.0 0.0 -1.848143026091e+01 
-1.296638227935e+01 -1.180042276218e+00 0.0 
-1.180042276218e+00 -3.239417326824e+01 0.0 
0.0 0.0 -1.338393626895e+01 
-1.576464325498e+02 5.237238300343e+00 0.0 
5.237238300343e+00 -3.742770138471e+02 0.0 
0.0 0.0 -1.591770339191e+02 
-8.869160855306e+01 9.276749065595e+00 0.0 
9.276749065595e+00 -1.917743702651e+02 0.0 
0.0 0.0 -8.373979364546e+01 
-6.850725192582e+01 -4.485880569541e-01 0.0 
-4.485880569541e-01 -1.878868464969e+02 0.0 
0.0 0.0 -7.651822952683e+01 
-4.370236753220e+01 7.440552921203e+00 0.0 
7.440552921203e+00 -4.302510405023e+01 0.0 
0.0 0.0 -2.561824147473e+01 
-4.469511887618e+01 -6.798521099473e-01 0.0 
-6.798521099473e-01 -1.244717428167e+02 0.0 
0.0 0.0 -5.035005850788e+01 
-1.141503291738e+02 2.819484572366e+01 0.0 
2.819484572366e+01 -2.795939934824e+02 0.0 
0.0 0.0 -1.177232967969e+02 
-2.027974218236e+01 -2.782040791642e+00 0.0 
-2.782040791642e+00 -4.629079199794e+01 0.0 
0.0 0.0 -1.957116025409e+01 
-8.768077069662e+01 6.825485068191e+00 0.0 
6.825485068191e+00 -1.922297843212e+02 0.0 
0.0 0.0 -8.357316650535e+01 
-1.424772011641e+02 1.538974014223e+01 0.0 
1.538974014223e+01 -3.483975761591e+02 0.0 
0.0 0.0 -1.468624331969e+02 
-9.833886104615e+01 2.124348561384e+01 0.0 
2.124348561384e+01 -2.108059851029e+02 0.0 
0.0 0.0 -9.234345384472e+01 
-1.432078344643e+02 2.556366999059e+01 0.0 
2.556366999059e+01 -3.423847079424e+02 0.0 
0.0 0.0 -1.452777627220e+02 
-2.063994467699e+01 1.178977538751e+00 0.0 
1.178977538751e+00 -2.764546665706e+01 0.0 
0.0 0.0 -1.418747770714e+01 
-1.266127696200e+02 2.866207996993e+01 0.0 
2.866207996993e+01 -3.074404470591e+02 0.0 
0.0 0.0 -1.298159650037e+02 
-1.301725671144e+02 1.623229188384e+01 0.0 
1.623229188384e+01 -3.276102595413e+02 0.0 
0.0 0.0 -1.369348479967e+02 
-2.988586170263e+01 -1.277284060675e-01 0.0 
-1.277284060675e-01 -3.457371989927e+01 0.0 
0.0 0.0 -1.893787448057e+01 
-1.007919715034e+02 2.437594120216e+01 0.0 
2.437594120216e+01 -2.175029401144e+02 0.0 
0.0 0.0 -9.508847348535e+01 
-5.514017373611e+01 -7.723455937428e-01 0.0 
-7.723455937428e-01 -1.529906072037e+02 0.0 
0.0 0.0 -6.203923428196e+01 
-2.417631322280e+01 -1.405477141329e+00 0.0 
-1.405477141329e+00 -6.611472946786e+01 0.0 
0.0 0.0 -2.668731280720e+01 
-9.031642260775e+01 9.168452876578e-01 0.0 
9.168452876578e-01 -2.065197903875e+02 0.0 
0.0 0.0 -8.865086389857e+01 
-4.660844104501e+00 -6.288089188454e-02 0.0 
-6.288089188454e-02 -1.415760220229e+01 0.0 
0.0 0.0 -5.557884966703e+00 
-2.910309791945e+01 6.876154665571e-02 0.0 
6.876154665571e-02 -3.359199236976e+01 0.0 
0.0 0.0 -1.840852708676e+01 
-1.592627378780e+02 5.065630748917e-01 0.0 
5.065630748917e-01 -3.771897993884e+02 0.0 
0.0 0.0 -1.605357611799e+02 
-2.286472525319e+01 -9.854020800251e-01 0.0 
-9.854020800251e-01 -6.316969234469e+01 0.0 
0.0 0.0 -2.541032527936e+01 
-4.234281951393e+01 2.996448936408e-01 0.0 
2.996448936408e-01 -6.554051093560e+01 0.0 
0.0 0.0 -3.196499913486e+01 
-1.105310616253e+02 3.086401430140e+01 0.0 
3.086401430140e+01 -2.520784900230e+02 0.0 
0.0 0.0 -1.083828654945e+02 
-8.599638067310e+01 2.218760796520e-02 0.0 
2.218760796520e-02 -2.299139068878e+02 0.0 
0.0 0.0 -9.437308626827e+01 
-7.471511193054e+01 1.488165946950e+00 0.0 
1.488165946950e+00 -1.552172726920e+02 0.0 
0.0 0.0 -6.857971538678e+01 
-2.497874324950e+01 -3.045788625987e+00 0.0 
-3.045788625987e+00 -6.152543136283e+01 0.0 
0.0 0.0 -2.555125238370e+01 
-2.021372541864e+01 -6.741888084983e-01 0.0 
-6.741888084983e-01 -1.434103293840e+01 0.0 
0.0 0.0 -1.038370014465e+01 
-5.590695414135e+01 7.100298101457e-01 0.0 
7.100298101457e-01 -1.006176161777e+02 0.0 
0.0 0.0 -4.655737109573e+01 
-1.295241770425e+02 2.603592268275e+01 0.0 
2.603592268275e+01 -3.173360881685e+02 0.0 
0.0 0.0 -1.336580795633e+02 
-9.534961805882e+01 1.749017720313e+01 0.0 
1.749017720313e+01 -2.043398988647e+02 0.0 
0.0 0.0 -8.950685507705e+01 
-5.144728175464e+01 7.421746383457e-01 0.0 
7.421746383457e-01 -8.680161850324e+01 0.0 
0.0 0.0 -4.107467007736e+01 
-2.269969457311e+01 6.367833720674e+00 0.0 
6.367833720674e+00 -4.488581361179e+01 0.0 
0.0 0.0 -1.987565245547e+01 
-1.071495312618e+02 2.995898532332e+01 0.0 
2.995898532332e+01 -2.439739411665e+02 0.0 
0.0 0.0 -1.049370417285e+02 
-7.462774402079e+01 -1.137830155568e-01 0.0 
-1.137830155568e-01 -2.027161317586e+02 0.0 
0.0 0.0 -8.280316273382e+01 
-1.114654551839e+02 2.984620704507e+01 0.0 
2.984620704507e+01 -2.664411726208e+02 0.0 
0.0 0.0 -1.129719883414e+02 
-1.276081147489e+02 1.898918152405e+01 0.0 
1.898918152405e+01 -3.215138990418e+02 0.0 
0.0 0.0 -1.343366041372e+02 
-1.799476490971e+01 6.937048903219e+00 0.0 
6.937048903219e+00 -1.257988013875e+01 0.0 
0.0 0.0 -9.039472491643e+00 
-9.330583875535e+01 4.508582968036e-02 0.0 
4.508582968036e-02 -2.467641631614e+02 0.0 
0.0 0.0 -1.016210005750e+02 
-1.288467426323e+01 -1.231111789420e+00 0.0 
-1.231111789420e+00 -3.034394815701e+01 0.0 
0.0 0.0 -1.267013827558e+01 
-1.489344530669e+02 7.498116745785e+00 0.0 
7.498116745785e+00 -3.597313340026e+02 0.0 
0.0 0.0 -1.521997361208e+02 
-7.802978885890e+01 3.250714573085e-02 0.0 
3.250714573085e-02 -2.111665134339e+02 0.0 
0.0 0.0 -8.635889068784e+01 
-2.623323207131e+01 3.890205995918e+00 0.0 
3.890205995918e+00 -8.051193306603e+00 0.0 
0.0 0.0 -9.871733506733e+00 
-1.937786979331e+01 -1.143477781092e-01 0.0 
-1.143477781092e-01 -9.311776945682e+00 0.0 
0.0 0.0 -8.206894021697e+00 

TENSORS node_materi_strain_total float
7.635542982887e-05 2.572254240633e-07 0.0 
2.572254240633e-07 6.895754321101e-05 0.0 
0.0 0.0 0.0 
-9.567332252068e-04 -1.942341545123e-05 0.0 
-1.942341545123e-05 1.327205934330e-02 0.0 
0.0 0.0 0.0 
6.240855041706e-05 5.067264497233e-05 0.0 
5.067264497233e-05 8.238521024909e-03 0.0 
0.0 0.0 0.0 
-7.086057699590e-05 2.728239268099e-05 0.0 
2.728239268099e-05 1.674102446547e-02 0.0 
0.0 0.0 0.0 
1.007514382541e-04 -7.963384077618e-06 0.0 
-7.963384077618e-06 2.628323910467e-04 0.0 
0.0 0.0 0.0 
1.548593597300e-04 5.915896312938e-06 0.0 
5.915896312938e-06 6.429829711774e-04 0.0 
0.0 0.0 0.0 
2.331169571174e-04 5.545663027035e-06 0.0 
5.545663027035e-06 9.905989578790e-04 0.0 
0.0 0.0 0.0 
3.097169366898e-04 3.129171104630e-06 0.0 
3.129171104630e-06 1.380522807977e-03 0.0 
0.0 0.0 0.0 
3.898120085003e-04 1.434930108386e-06 0.0 
1.434930108386e-06 1.756898215727e-03 0.0 
0.0 0.0 0.0 
4.710140887008e-04 1.444129155612e-06 0.0 
1.444129155612e-06 2.128487989399e-03 0.0 
0.0 0.0 0.0 
5.447022747533e-04 2.951491224325e-06 0.0 
2.951491224325e-06 2.503728349319e-03 0.0 
0.0 0.0 0.0 
6.087080693363e-04 3.737941289608e-06 0.0 
3.737941289608e-06 2.885771695389e-03 0.0 
0.0 0.0 0.0 
6.617886035089e-04 6.038160154221e-06 0.0 
6.038160154221e-06 3.276302790393e-03 0.0 
0.0 0.0 0.0 
6.973365949479e-04 1.146074451620e-05 0.0 
1.146074451620e-05 3.683233457299e-03 0.0 
0.0 0.0 0.0 
7.116589227072e-04 2.100115602163e-05 0.0 
2.100115602163e-05 4.116116352204e-03 0.0 
0.0 0.0 0.0 
7.194400223085e-04 2.486519896570e-05 0.0 
2.486519896570e-05 4.544777913384e-03 0.0 
0.0 0.0 0.0 
7.101540658646e-04 3.553236551548e-05 0.0 
3.553236551548e-05 4.945426262092e-03 0.0 
0.0 0.0 0.0 
6.715395014854e-04 2.277608609877e-05 0.0 
2.277608609877e-05 5.405291522046e-03 0.0 
0.0 0.0 0.0 
6.113430273011e-04 2.560032907547e-05 0.0 
2.560032907547e-05 5.893074046542e-03 0.0 
0.0 0.0 0.0 
5.309527677990e-04 2.919418248170e-05 0.0 
2.919418248170e-05 6.381386712589e-03 0.0 
0.0 0.0 0.0 
4.270918562608e-04 3.112575900427e-05 0.0 
3.112575900427e-05 6.890354148053e-03 0.0 
0.0 0.0 0.0 
2.994951258184e-04 3.790602999132e-05 0.0 
3.790602999132e-05 7.419361206537e-03 0.0 
0.0 0.0 0.0 
1.736596506291e-04 4.352360199621e-05 0.0 
4.352360199621e-05 7.935020718653e-03 0.0 
0.0 0.0 0.0 
-5.116938375738e-05 1.086892520779e-04 0.0 
1.086892520779e-04 1.674828460423e-02 0.0 
0.0 0.0 0.0 
-5.738223439659e-05 2.002100017773e-04 0.0 
2.002100017773e-04 1.672547183222e-02 0.0 
0.0 0.0 0.0 
-5.878228832938e-05 2.903225359009e-04 0.0 
2.903225359009e-04 1.672323252357e-02 0.0 
0.0 0.0 0.0 
-5.812255772075e-05 4.101851689047e-04 0.0 
4.101851689047e-04 1.670660960862e-02 0.0 
0.0 0.0 0.0 
-7.456141344557e-05 5.118196818809e-04 0.0 
5.118196818809e-04 1.667818503176e-02 0.0 
0.0 0.0 0.0 
-7.010597190367e-05 6.398723551720e-04 0.0 
6.398723551720e-04 1.666018910712e-02 0.0 
0.0 0.0 0.0 
-8.089575020831e-05 7.788370313363e-04 0.0 
7.788370313363e-04 1.661754769886e-02 0.0 
0.0 0.0 0.0 
-8.569127001634e-05 9.302229770472e-04 0.0 
9.302229770472e-04 1.655264806808e-02 0.0 
0.0 0.0 0.0 
-9.115203569262e-05 1.082385953777e-03 0.0 
1.082385953777e-03 1.648865954476e-02 0.0 
0.0 0.0 0.0 
-8.391609449165e-05 1.261571365944e-03 0.0 
1.261571365944e-03 1.638830819436e-02 0.0 
0.0 0.0 0.0 
-1.105320941276e-04 1.429543352791e-03 0.0 
1.429543352791e-03 1.626590624380e-02 0.0 
0.0 0.0 0.0 
-1.015953609231e-04 1.625077355595e-03 0.0 
1.625077355595e-03 1.612159810646e-02 0.0 
0.0 0.0 0.0 
-1.076511390063e-04 1.824261782545e-03 0.0 
1.824261782545e-03 1.593257994688e-02 0.0 
0.0 0.0 0.0 
-9.825007912319e-05 2.014273802720e-03 0.0 
2.014273802720e-03 1.570976917809e-02 0.0 
0.0 0.0 0.0 
-1.050457455188e-04 2.196997472468e-03 0.0 
2.196997472468e-03 1.545657521396e-02 0.0 
0.0 0.0 0.0 
-9.136945566801e-05 2.365684309037e-03 0.0 
2.365684309037e-03 1.515372215665e-02 0.0 
0.0 0.0 0.0 
-9.262472558280e-05 2.522127630997e-03 0.0 
2.522127630997e-03 1.482567107263e-02 0.0 
0.0 0.0 0.0 
-7.778993514359e-05 2.669172318456e-03 0.0 
2.669172318456e-03 1.446708995422e-02 0.0 
0.0 0.0 0.0 
-5.906284906014e-05 2.781897264433e-03 0.0 
2.781897264433e-03 1.409578173035e-02 0.0 
0.0 0.0 0.0 
-3.762007376614e-05 2.867561220394e-03 0.0 
2.867561220394e-03 1.370955220068e-02 0.0 
0.0 0.0 0.0 
-1.340145456256e-05 2.920284516868e-03 0.0 
2.920284516868e-03 1.330318257600e-02 0.0 
0.0 0.0 0.0 
-5.777693192766e-06 2.939689945208e-03 0.0 
2.939689945208e-03 1.289973912280e-02 0.0 
0.0 0.0 0.0 
1.267036714222e-05 2.931911583009e-03 0.0 
2.931911583009e-03 1.249750341565e-02 0.0 
0.0 0.0 0.0 
2.553340172629e-05 2.895112526714e-03 0.0 
2.895112526714e-03 1.210648952161e-02 0.0 
0.0 0.0 0.0 
3.477942769248e-05 2.837530326467e-03 0.0 
2.837530326467e-03 1.173539179421e-02 0.0 
0.0 0.0 0.0 
4.673218915596e-05 2.763839166878e-03 0.0 
2.763839166878e-03 1.138129016082e-02 0.0 
0.0 0.0 0.0 
5.083142746202e-05 2.666228226875e-03 0.0 
2.666228226875e-03 1.104651441376e-02 0.0 
0.0 0.0 0.0 
6.697713381162e-05 2.555775692368e-03 0.0 
2.555775692368e-03 1.073321113866e-02 0.0 
0.0 0.0 0.0 
6.677936917480e-05 2.428443077292e-03 0.0 
2.428443077292e-03 1.043553928648e-02 0.0 
0.0 0.0 0.0 
5.766225359668e-05 2.299639635257e-03 0.0 
2.299639635257e-03 1.019207715338e-02 0.0 
0.0 0.0 0.0 
7.742770621921e-05 2.168262197705e-03 0.0 
2.168262197705e-03 9.927096621664e-03 0.0 
0.0 0.0 0.0 
8.294686324410e-05 2.022055111381e-03 0.0 
2.022055111381e-03 9.675003073807e-03 0.0 
0.0 0.0 0.0 
8.146375178593e-05 1.865001387856e-03 0.0 
1.865001387856e-03 9.458821245892e-03 0.0 
0.0 0.0 0.0 
7.848842912598e-05 1.721127835511e-03 0.0 
1.721127835511e-03 9.290383706021e-03 0.0 
0.0 0.0 0.0 
8.069632013430e-05 1.581408678949e-03 0.0 
1.581408678949e-03 9.127643933382e-03 0.0 
0.0 0.0 0.0 
6.724599977148e-05 1.438980542554e-03 0.0 
1.438980542554e-03 8.985835542011e-03 0.0 
0.0 0.0 0.0 
7.846163115518e-05 1.307794410209e-03 0.0 
1.307794410209e-03 8.864494941246e-03 0.0 
0.0 0.0 0.0 
6.694809134918e-05 1.174301007170e-03 0.0 
1.174301007170e-03 8.744976325972e-03 0.0 
0.0 0.0 0.0 
7.621778681914e-05 1.050064167280e-03 0.0 
1.050064167280e-03 8.642617751071e-03 0.0 
0.0 0.0 0.0 
6.605363301126e-05 9.282979394015e-04 0.0 
9.282979394015e-04 8.550392681917e-03 0.0 
0.0 0.0 0.0 
5.536547507930e-05 8.181672405974e-04 0.0 
8.181672405974e-04 8.492774777197e-03 0.0 
0.0 0.0 0.0 
5.617972417131e-05 7.156280101338e-04 0.0 
7.156280101338e-04 8.460412924491e-03 0.0 
0.0 0.0 0.0 
6.013263708630e-05 6.147308979711e-04 0.0 
6.147308979711e-04 8.424224384696e-03 0.0 
0.0 0.0 0.0 
6.784793273107e-05 5.049915153722e-04 0.0 
5.049915153722e-04 8.306890022023e-03 0.0 
0.0 0.0 0.0 
5.569009235880e-05 4.114349664417e-04 0.0 
4.114349664417e-04 8.336487728069e-03 0.0 
0.0 0.0 0.0 
4.732801169149e-05 3.260324588905e-04 0.0 
3.260324588905e-04 8.288970461776e-03 0.0 
0.0 0.0 0.0 
4.114905240371e-05 2.418789007448e-04 0.0 
2.418789007448e-04 8.281170827308e-03 0.0 
0.0 0.0 0.0 
4.379403372094e-05 1.675402998660e-04 0.0 
1.675402998660e-04 8.287000016814e-03 0.0 
0.0 0.0 0.0 
4.269892384956e-05 9.209418649079e-05 0.0 
9.209418649079e-05 8.277593367143e-03 0.0 
0.0 0.0 0.0 
-9.198578991271e-04 -1.442820215048e-05 0.0 
-1.442820215048e-05 1.368926193792e-02 0.0 
0.0 0.0 0.0 
-8.989490532525e-04 -1.265246644031e-05 0.0 
-1.265246644031e-05 1.410709495096e-02 0.0 
0.0 0.0 0.0 
-8.601730773007e-04 -8.697405327568e-06 0.0 
-8.697405327568e-06 1.450715773490e-02 0.0 
0.0 0.0 0.0 
-8.045299836608e-04 -4.713357775369e-06 0.0 
-4.713357775369e-06 1.488601999528e-02 0.0 
0.0 0.0 0.0 
-7.286316250777e-04 1.419613320790e-06 0.0 
1.419613320790e-06 1.525671452012e-02 0.0 
0.0 0.0 0.0 
-6.291013061087e-04 5.971556751022e-06 0.0 
5.971556751022e-06 1.561015208206e-02 0.0 
0.0 0.0 0.0 
-5.098761494846e-04 1.120521591935e-05 0.0 
1.120521591935e-05 1.594311811706e-02 0.0 
0.0 0.0 0.0 
-3.614425669975e-04 1.687547037029e-05 0.0 
1.687547037029e-05 1.625753342531e-02 0.0 
0.0 0.0 0.0 
-2.078513237046e-04 1.849686106297e-05 0.0 
1.849686106297e-05 1.656144429273e-02 0.0 
0.0 0.0 0.0 
-8.434684994160e-04 4.615173976492e-04 0.0 
4.615173976492e-04 5.204488115661e-04 0.0 
0.0 0.0 0.0 
-1.556496652718e-03 5.845042656080e-04 0.0 
5.845042656080e-04 1.334882185041e-02 0.0 
0.0 0.0 0.0 
-9.602627518153e-04 1.125518779415e-03 0.0 
1.125518779415e-03 1.305753835689e-03 0.0 
0.0 0.0 0.0 
-1.073928881536e-03 1.425408753110e-03 0.0 
1.425408753110e-03 2.573435558499e-03 0.0 
0.0 0.0 0.0 
-1.137956930502e-03 1.559630410477e-03 0.0 
1.559630410477e-03 3.943854452196e-03 0.0 
0.0 0.0 0.0 
-1.163473972498e-03 1.600535239706e-03 0.0 
1.600535239706e-03 5.288266672728e-03 0.0 
0.0 0.0 0.0 
-1.160030670184e-03 1.621401439997e-03 0.0 
1.621401439997e-03 6.659927802463e-03 0.0 
0.0 0.0 0.0 
-1.150141204078e-03 1.614697348008e-03 0.0 
1.614697348008e-03 8.056036339348e-03 0.0 
0.0 0.0 0.0 
-1.162146070921e-03 1.628843525327e-03 0.0 
1.628843525327e-03 9.443651369837e-03 0.0 
0.0 0.0 0.0 
-1.280134559136e-03 1.640443638734e-03 0.0 
1.640443638734e-03 1.088906791028e-02 0.0 
0.0 0.0 0.0 
-1.787524251543e-03 1.191092169011e-03 0.0 
1.191092169011e-03 1.264121010555e-02 0.0 
0.0 0.0 0.0 
-9.998690406123e-04 -2.027439292189e-05 0.0 
-2.027439292189e-05 1.300666509100e-02 0.0 
0.0 0.0 0.0 
-9.498571843705e-04 1.367085346197e-05 0.0 
1.367085346197e-05 1.321825282317e-02 0.0 
0.0 0.0 0.0 
-9.367067894406e-04 5.610818959482e-06 0.0 
5.610818959482e-06 1.324234919779e-02 0.0 
0.0 0.0 0.0 
-9.367973540588e-04 4.566327235679e-07 0.0 
4.566327235679e-07 1.324305746659e-02 0.0 
0.0 0.0 0.0 
-9.377691042965e-04 -4.947120502185e-06 0.0 
-4.947120502185e-06 1.323795014212e-02 0.0 
0.0 0.0 0.0 
-9.402453593074e-04 -4.499988265055e-06 0.0 
-4.499988265055e-06 1.329616543282e-02 0.0 
0.0 0.0 0.0 
-9.422694805397e-04 -1.063823145594e-05 0.0 
-1.063823145594e-05 1.324611522459e-02 0.0 
0.0 0.0 0.0 
-9.436923093044e-04 -1.405200504226e-05 0.0 
-1.405200504226e-05 1.324179543166e-02 0.0 
0.0 0.0 0.0 
-9.474671359986e-04 -1.244535244824e-05 0.0 
-1.244535244824e-05 1.324596775244e-02 0.0 
0.0 0.0 0.0 
-9.655345769866e-04 -1.023539541892e-05 0.0 
-1.023539541892e-05 1.325904169342e-02 0.0 
0.0 0.0 0.0 
-9.849206751116e-04 -1.363767230018e-06 0.0 
-1.363767230018e-06 1.326120752238e-02 0.0 
0.0 0.0 0.0 
-1.010886430112e-03 1.959409254400e-05 0.0 
1.959409254400e-05 1.326481306002e-02 0.0 
0.0 0.0 0.0 
-1.065065643466e-03 5.740776273248e-05 0.0 
5.740776273248e-05 1.327309527864e-02 0.0 
0.0 0.0 0.0 
-1.149074860206e-03 1.346252352445e-04 0.0 
1.346252352445e-04 1.328657315427e-02 0.0 
0.0 0.0 0.0 
-1.285341686426e-03 2.788402960386e-04 0.0 
2.788402960386e-04 1.331417980234e-02 0.0 
0.0 0.0 0.0 
-9.878374519678e-04 1.672782957142e-04 0.0 
1.672782957142e-04 5.797669592048e-04 0.0 
0.0 0.0 0.0 
-1.112122087882e-03 3.009431682593e-05 0.0 
3.009431682593e-05 6.076842169085e-04 0.0 
0.0 0.0 0.0 
-1.115089985179e-03 -4.142788341707e-05 0.0 
-4.142788341707e-05 5.863444636295e-04 0.0 
0.0 0.0 0.0 
-1.035305544956e-03 -5.841547843420e-05 0.0 
-5.841547843420e-05 5.458888249186e-04 0.0 
0.0 0.0 0.0 
-9.129232805358e-04 -7.537361620965e-05 0.0 
-7.537361620965e-05 5.005870585544e-04 0.0 
0.0 0.0 0.0 
-8.082195184385e-04 -7.668074105504e-05 0.0 
-7.668074105504e-05 4.599134530764e-04 0.0 
0.0 0.0 0.0 
-6.996385017826e-04 -7.398821611605e-05 0.0 
-7.398821611605e-05 4.141492716265e-04 0.0 
0.0 0.0 0.0 
-5.900607188195e-04 -7.014248944849e-05 0.0 
-7.014248944849e-05 3.663289570409e-04 0.0 
0.0 0.0 0.0 
-4.869789820243e-04 -6.752964317568e-05 0.0 
-6.752964317568e-05 3.223869866939e-04 0.0 
0.0 0.0 0.0 
-3.897443863873e-04 -6.269596187421e-05 0.0 
-6.269596187421e-05 2.799672061737e-04 0.0 
0.0 0.0 0.0 
-2.969862871688e-04 -5.617695208002e-05 0.0 
-5.617695208002e-05 2.450258178175e-04 0.0 
0.0 0.0 0.0 
-2.355801413770e-04 -4.960436613255e-05 0.0 
-4.960436613255e-05 2.213702158336e-04 0.0 
0.0 0.0 0.0 
-1.541679015728e-04 -4.032882777526e-05 0.0 
-4.032882777526e-05 1.828690098188e-04 0.0 
0.0 0.0 0.0 
-8.142031352561e-05 -3.779442305603e-05 0.0 
-3.779442305603e-05 1.457680753300e-04 0.0 
0.0 0.0 0.0 
-2.840401914765e-05 -3.561051400374e-05 0.0 
-3.561051400374e-05 1.239617457747e-04 0.0 
0.0 0.0 0.0 
6.175835258600e-06 -2.675074476923e-05 0.0 
-2.675074476923e-05 1.111938289164e-04 0.0 
0.0 0.0 0.0 
3.697208421941e-05 -1.534701653940e-05 0.0 
-1.534701653940e-05 9.765915986500e-05 0.0 
0.0 0.0 0.0 
6.894113988147e-05 -2.991855402429e-06 0.0 
-2.991855402429e-06 7.653117117190e-05 0.0 
0.0 0.0 0.0 
8.151761781631e-05 3.304980471035e-06 0.0 
3.304980471035e-06 6.181779679548e-05 0.0 
0.0 0.0 0.0 
-1.492423027041e-03 3.549914103724e-04 0.0 
3.549914103724e-04 1.312798940761e-02 0.0 
0.0 0.0 0.0 
-1.124786498110e-03 1.905951841301e-04 0.0 
1.905951841301e-04 1.305630596756e-02 0.0 
0.0 0.0 0.0 
-9.654459314142e-04 9.827039127272e-05 0.0 
9.827039127272e-05 1.304584055218e-02 0.0 
0.0 0.0 0.0 
-8.856631204971e-04 3.385110639616e-05 0.0 
3.385110639616e-05 1.302325112863e-02 0.0 
0.0 0.0 0.0 
-8.565526792872e-04 3.761195377294e-06 0.0 
3.761195377294e-06 1.301944838625e-02 0.0 
0.0 0.0 0.0 
-8.524191842583e-04 -9.175487789489e-06 0.0 
-9.175487789489e-06 1.302085588651e-02 0.0 
0.0 0.0 0.0 
-8.647961818711e-04 -1.450010613071e-05 0.0 
-1.450010613071e-05 1.302197219237e-02 0.0 
0.0 0.0 0.0 
-8.794652464464e-04 -1.414752348966e-05 0.0 
-1.414752348966e-05 1.302842538806e-02 0.0 
0.0 0.0 0.0 
-8.881340072103e-04 -1.161177474685e-05 0.0 
-1.161177474685e-05 1.303612390138e-02 0.0 
0.0 0.0 0.0 
-9.045920163211e-04 -1.398612678319e-05 0.0 
-1.398612678319e-05 1.303877134443e-02 0.0 
0.0 0.0 0.0 
-9.145861167787e-04 -9.754329953568e-06 0.0 
-9.754329953568e-06 1.304135858295e-02 0.0 
0.0 0.0 0.0 
-9.221491490227e-04 -8.829534291671e-06 0.0 
-8.829534291671e-06 1.304356367189e-02 0.0 
0.0 0.0 0.0 
-9.271795265643e-04 -3.841756072159e-06 0.0 
-3.841756072159e-06 1.304680225945e-02 0.0 
0.0 0.0 0.0 
-9.284246496430e-04 3.886353209681e-06 0.0 
3.886353209681e-06 1.304426924948e-02 0.0 
0.0 0.0 0.0 
-9.384070984516e-04 7.152168099972e-06 0.0 
7.152168099972e-06 1.304079004463e-02 0.0 
0.0 0.0 0.0 
-9.770303487577e-04 2.730301799008e-05 0.0 
2.730301799008e-05 1.300387546213e-02 0.0 
0.0 0.0 0.0 
-8.673807596217e-04 8.401716558789e-04 0.0 
8.401716558789e-04 7.877143592969e-04 0.0 
0.0 0.0 0.0 
-1.030614008654e-03 1.309825320929e-03 0.0 
1.309825320929e-03 1.924930542929e-03 0.0 
0.0 0.0 0.0 
-1.108193199369e-03 1.510154407536e-03 0.0 
1.510154407536e-03 3.255312584140e-03 0.0 
0.0 0.0 0.0 
-1.150690793360e-03 1.596055479596e-03 0.0 
1.596055479596e-03 4.640032038285e-03 0.0 
0.0 0.0 0.0 
-1.192479576402e-03 1.643983911041e-03 0.0 
1.643983911041e-03 5.998241049029e-03 0.0 
0.0 0.0 0.0 
-1.160316549281e-03 1.659858807983e-03 0.0 
1.659858807983e-03 7.372870350466e-03 0.0 
0.0 0.0 0.0 
-1.149660561324e-03 1.628703531642e-03 0.0 
1.628703531642e-03 8.748961601689e-03 0.0 
0.0 0.0 0.0 
-1.182688587551e-03 1.635856174855e-03 0.0 
1.635856174855e-03 1.015446443131e-02 0.0 
0.0 0.0 0.0 
-1.548904080550e-03 1.640213108564e-03 0.0 
1.640213108564e-03 1.170849618226e-02 0.0 
0.0 0.0 0.0 
-1.710685772763e-03 7.490748121424e-04 0.0 
7.490748121424e-04 1.317706233866e-02 0.0 
0.0 0.0 0.0 
-8.306542004055e-04 1.207534354144e-03 0.0 
1.207534354144e-03 2.335371588526e-03 0.0 
0.0 0.0 0.0 
2.376804804280e-04 1.743806817524e-03 0.0 
1.743806817524e-03 9.110810323584e-03 0.0 
0.0 0.0 0.0 
-3.357750974862e-04 -1.138793070731e-04 0.0 
-1.138793070731e-04 3.949120363064e-04 0.0 
0.0 0.0 0.0 
-7.488776071626e-04 -1.025578152122e-04 0.0 
-1.025578152122e-04 5.670233168958e-04 0.0 
0.0 0.0 0.0 
2.066410570718e-04 1.090205004920e-03 0.0 
1.090205004920e-03 8.448212557658e-03 0.0 
0.0 0.0 0.0 
-9.535687459508e-04 1.554855528290e-03 0.0 
1.554855528290e-03 5.024597626985e-03 0.0 
0.0 0.0 0.0 
7.102189973660e-04 -2.864926696889e-06 0.0 
-2.864926696889e-06 3.912784090439e-03 0.0 
0.0 0.0 0.0 
2.244890406027e-04 2.295096704681e-03 0.0 
2.295096704681e-03 1.000297797472e-02 0.0 
0.0 0.0 0.0 
-1.004890161462e-03 1.653221446065e-03 0.0 
1.653221446065e-03 7.638705624917e-03 0.0 
0.0 0.0 0.0 
1.287656871356e-04 2.732936062825e-03 0.0 
2.732936062825e-03 1.131982308110e-02 0.0 
0.0 0.0 0.0 
-1.165063136537e-03 1.747049421377e-03 0.0 
1.747049421377e-03 1.047360968450e-02 0.0 
0.0 0.0 0.0 
1.673635124674e-04 6.447913309950e-04 0.0 
6.447913309950e-04 8.213890599176e-03 0.0 
0.0 0.0 0.0 
-6.607931587033e-05 -6.761128075806e-05 0.0 
-6.761128075806e-05 2.667941661207e-04 0.0 
0.0 0.0 0.0 
-3.145632491362e-05 2.866277985279e-03 0.0 
2.866277985279e-03 1.293363314817e-02 0.0 
0.0 0.0 0.0 
-1.664517772362e-03 1.103717694855e-03 0.0 
1.103717694855e-03 1.316664504537e-02 0.0 
0.0 0.0 0.0 
5.136549794899e-04 -2.447244039254e-05 0.0 
-2.447244039254e-05 2.332659420683e-03 0.0 
0.0 0.0 0.0 
6.973327567672e-04 2.672482896805e-05 0.0 
2.672482896805e-05 5.103990574423e-03 0.0 
0.0 0.0 0.0 
-1.905553820621e-04 2.665895854892e-03 0.0 
2.665895854892e-03 1.415317427311e-02 0.0 
0.0 0.0 0.0 
-2.936985695485e-04 2.051884631673e-03 0.0 
2.051884631673e-03 1.551921368675e-02 0.0 
0.0 0.0 0.0 
-2.067310477789e-04 5.610731594999e-04 0.0 
5.610731594999e-04 1.656338051068e-02 0.0 
0.0 0.0 0.0 
-2.854837307739e-04 9.770680166793e-04 0.0 
9.770680166793e-04 1.641021461207e-02 0.0 
0.0 0.0 0.0 
-2.985654339368e-04 1.492634670276e-03 0.0 
1.492634670276e-03 1.612108564262e-02 0.0 
0.0 0.0 0.0 
-1.438505711744e-03 4.099234862049e-04 0.0 
4.099234862049e-04 1.369730256014e-02 0.0 
0.0 0.0 0.0 
-1.095690986864e-03 5.155879518472e-05 0.0 
5.155879518472e-05 1.369477384155e-02 0.0 
0.0 0.0 0.0 
-9.954196419613e-04 1.501195319587e-05 0.0 
1.501195319587e-05 1.369423525640e-02 0.0 
0.0 0.0 0.0 
-7.699097696730e-04 2.560867030731e-05 0.0 
2.560867030731e-05 1.507830225254e-02 0.0 
0.0 0.0 0.0 
1.484632968970e-04 3.677440141122e-04 0.0 
3.677440141122e-04 8.083974077304e-03 0.0 
0.0 0.0 0.0 
-8.231322574159e-04 1.206656311270e-04 0.0 
1.206656311270e-04 6.654637245235e-04 0.0 
0.0 0.0 0.0 
5.789694170640e-05 -3.803182941805e-05 0.0 
-3.803182941805e-05 2.316734052266e-04 0.0 
0.0 0.0 0.0 
4.847001761012e-04 5.156787651315e-05 0.0 
5.156787651315e-05 6.616956732623e-03 0.0 
0.0 0.0 0.0 
-9.429530826355e-04 7.654719959481e-06 0.0 
7.654719959481e-06 1.362350106315e-02 0.0 
0.0 0.0 0.0 
2.679809486138e-04 -3.005969828955e-05 0.0 
-3.005969828955e-05 1.185350807105e-03 0.0 
0.0 0.0 0.0 
-2.960609828243e-04 2.359610989241e-03 0.0 
2.359610989241e-03 1.488618048007e-02 0.0 
0.0 0.0 0.0 
1.742512552207e-04 2.555901670939e-03 0.0 
2.555901670939e-03 1.066316735475e-02 0.0 
0.0 0.0 0.0 
5.305408730446e-05 2.849220409919e-03 0.0 
2.849220409919e-03 1.210694348600e-02 0.0 
0.0 0.0 0.0 
2.549053415686e-04 2.040747153354e-03 0.0 
2.040747153354e-03 9.509180685346e-03 0.0 
0.0 0.0 0.0 
2.120757143277e-04 1.470721394964e-03 0.0 
1.470721394964e-03 8.809905685900e-03 0.0 
0.0 0.0 0.0 
-5.811082377917e-04 -1.264069780647e-04 0.0 
-1.264069780647e-04 5.129838297349e-04 0.0 
0.0 0.0 0.0 
-1.219763677874e-03 1.463724776530e-04 0.0 
1.463724776530e-04 1.370003176434e-02 0.0 
0.0 0.0 0.0 
2.133789054625e-04 8.399129749276e-04 0.0 
8.399129749276e-04 8.200313832368e-03 0.0 
0.0 0.0 0.0 
-5.811067783416e-04 5.028968714756e-05 0.0 
5.028968714756e-05 1.577291847759e-02 0.0 
0.0 0.0 0.0 
-1.841511000990e-04 -1.029906474438e-04 0.0 
-1.029906474438e-04 3.378946341934e-04 0.0 
0.0 0.0 0.0 
6.380394728513e-04 -1.738875371282e-05 0.0 
-1.738875371282e-05 3.082077979705e-03 0.0 
0.0 0.0 0.0 
-1.578735911684e-04 3.425134844634e-04 0.0 
3.425134844634e-04 1.663827537879e-02 0.0 
0.0 0.0 0.0 
-9.502978525906e-04 1.613719659355e-03 0.0 
1.613719659355e-03 6.324045692732e-03 0.0 
0.0 0.0 0.0 
-8.959638249984e-04 1.425095251536e-03 0.0 
1.425095251536e-03 3.650503934586e-03 0.0 
0.0 0.0 0.0 
-1.037890775227e-03 1.700377100578e-03 0.0 
1.700377100578e-03 9.007741089654e-03 0.0 
0.0 0.0 0.0 
-1.567169275609e-03 1.636037815964e-03 0.0 
1.636037815964e-03 1.202249826164e-02 0.0 
0.0 0.0 0.0 
-7.825721157373e-04 8.259273801677e-04 0.0 
8.259273801677e-04 1.150847191295e-03 0.0 
0.0 0.0 0.0 
-8.780616214091e-04 9.860697387272e-06 0.0 
9.860697387272e-06 1.434183585452e-02 0.0 
0.0 0.0 0.0 
1.129266248658e-04 2.011853045578e-04 0.0 
2.011853045578e-04 8.138691422822e-03 0.0 
0.0 0.0 0.0 
1.004646233180e-04 -9.260636677394e-06 0.0 
-9.260636677394e-06 1.959920985998e-04 0.0 
0.0 0.0 0.0 
-2.881720378240e-04 8.340817338133e-05 0.0 
8.340817338133e-05 1.639287042805e-02 0.0 
0.0 0.0 0.0 
-1.669834212089e-03 9.452676628295e-04 0.0 
9.452676628295e-04 1.350096216108e-02 0.0 
0.0 0.0 0.0 
-1.593056065844e-03 1.302952125556e-03 0.0 
1.302952125556e-03 1.330363611509e-02 0.0 
0.0 0.0 0.0 
-1.617359831414e-03 1.079920996041e-03 0.0 
1.079920996041e-03 1.372392120860e-02 0.0 
0.0 0.0 0.0 
-1.512215397880e-03 1.459376469816e-03 0.0 
1.459376469816e-03 1.346607330698e-02 0.0 
0.0 0.0 0.0 
-1.541021281839e-03 1.292970817552e-03 0.0 
1.292970817552e-03 1.389776006390e-02 0.0 
0.0 0.0 0.0 
-1.408804668990e-03 1.579839975504e-03 0.0 
1.579839975504e-03 1.365091850564e-02 0.0 
0.0 0.0 0.0 
-1.340147587935e-03 1.731050543853e-03 0.0 
1.731050543853e-03 1.314458304147e-02 0.0 
0.0 0.0 0.0 
-1.231352341909e-03 1.814469106373e-03 0.0 
1.814469106373e-03 1.335333730811e-02 0.0 
0.0 0.0 0.0 
-1.128086314553e-03 1.932475524373e-03 0.0 
1.932475524373e-03 1.278377908102e-02 0.0 
0.0 0.0 0.0 
-1.433531634602e-03 1.442502908365e-03 0.0 
1.442502908365e-03 1.408329611512e-02 0.0 
0.0 0.0 0.0 
-1.026803819500e-03 1.993958832692e-03 0.0 
1.993958832692e-03 1.302524411940e-02 0.0 
0.0 0.0 0.0 
-9.047176774745e-04 2.074970705995e-03 0.0 
2.074970705995e-03 1.241725750928e-02 0.0 
0.0 0.0 0.0 
-8.116824979401e-04 2.128905770845e-03 0.0 
2.128905770845e-03 1.268472155840e-02 0.0 
0.0 0.0 0.0 
-6.823161683809e-04 2.176613986168e-03 0.0 
2.176613986168e-03 1.205783404393e-02 0.0 
0.0 0.0 0.0 
-7.529393610937e-04 2.132400563198e-03 0.0 
2.132400563198e-03 1.175996748425e-02 0.0 
0.0 0.0 0.0 
-5.284065436156e-04 2.200282563121e-03 0.0 
2.200282563121e-03 1.139298320681e-02 0.0 
0.0 0.0 0.0 
-5.845940887966e-04 2.159883067880e-03 0.0 
2.159883067880e-03 1.106947618172e-02 0.0 
0.0 0.0 0.0 
-3.610720274523e-04 2.195781776142e-03 0.0 
2.195781776142e-03 1.070172156668e-02 0.0 
0.0 0.0 0.0 
-3.161395696057e-04 2.239201187843e-03 0.0 
2.239201187843e-03 1.104987520002e-02 0.0 
0.0 0.0 0.0 
-1.522025867189e-04 2.206144539416e-03 0.0 
2.206144539416e-03 1.036160053091e-02 0.0 
0.0 0.0 0.0 
-1.878239125260e-04 2.162458004019e-03 0.0 
2.162458004019e-03 9.992466493568e-03 0.0 
0.0 0.0 0.0 
1.503468238950e-05 2.149371583287e-03 0.0 
2.149371583287e-03 9.664069045351e-03 0.0 
0.0 0.0 0.0 
-1.900027967294e-05 2.102007156029e-03 0.0 
2.102007156029e-03 9.279706512371e-03 0.0 
0.0 0.0 0.0 
1.762832945824e-04 2.067695461656e-03 0.0 
2.067695461656e-03 8.967915450543e-03 0.0 
0.0 0.0 0.0 
1.381083621972e-04 2.014955427707e-03 0.0 
2.014955427707e-03 8.570337009961e-03 0.0 
0.0 0.0 0.0 
3.262816396971e-04 1.964331598116e-03 0.0 
1.964331598116e-03 8.279963147997e-03 0.0 
0.0 0.0 0.0 
3.498129817735e-04 2.021892273691e-03 0.0 
2.021892273691e-03 8.693642214947e-03 0.0 
0.0 0.0 0.0 
4.914701221680e-04 1.905613625791e-03 0.0 
1.905613625791e-03 8.027652300508e-03 0.0 
0.0 0.0 0.0 
4.619603313974e-04 1.844673268675e-03 0.0 
1.844673268675e-03 7.606950741401e-03 0.0 
0.0 0.0 0.0 
6.184607866807e-04 1.773476965950e-03 0.0 
1.773476965950e-03 7.378554041148e-03 0.0 
0.0 0.0 0.0 
5.797378103936e-04 1.709091640212e-03 0.0 
1.709091640212e-03 6.953239849056e-03 0.0 
0.0 0.0 0.0 
7.278257179360e-04 1.626679894796e-03 0.0 
1.626679894796e-03 6.749047441116e-03 0.0 
0.0 0.0 0.0 
7.499504213274e-04 1.698849473661e-03 0.0 
1.698849473661e-03 7.188389917723e-03 0.0 
0.0 0.0 0.0 
8.497562055912e-04 1.543397233352e-03 0.0 
1.543397233352e-03 6.586460120039e-03 0.0 
0.0 0.0 0.0 
8.174334602826e-04 1.466257083081e-03 0.0 
1.466257083081e-03 6.141319247354e-03 0.0 
0.0 0.0 0.0 
9.300311310159e-04 1.377488016024e-03 0.0 
1.377488016024e-03 6.009738355433e-03 0.0 
0.0 0.0 0.0 
8.856874971214e-04 1.295550780280e-03 0.0 
1.295550780280e-03 5.561046042127e-03 0.0 
0.0 0.0 0.0 
9.893918366043e-04 1.204492141841e-03 0.0 
1.204492141841e-03 5.461838516353e-03 0.0 
0.0 0.0 0.0 
9.311302644841e-04 1.119639373424e-03 0.0 
1.119639373424e-03 5.011714947954e-03 0.0 
0.0 0.0 0.0 
1.026219510593e-03 1.025502442977e-03 0.0 
1.025502442977e-03 4.942105357785e-03 0.0 
0.0 0.0 0.0 
1.066746854964e-03 1.118198600402e-03 0.0 
1.118198600402e-03 5.397385481008e-03 0.0 
0.0 0.0 0.0 
1.095430229183e-03 9.401233586458e-04 0.0 
9.401233586458e-04 4.905438174082e-03 0.0 
0.0 0.0 0.0 
1.039233086209e-03 8.454318812213e-04 0.0 
8.454318812213e-04 4.454215612694e-03 0.0 
0.0 0.0 0.0 
1.101343337605e-03 7.626961187620e-04 0.0 
7.626961187620e-04 4.444996630502e-03 0.0 
0.0 0.0 0.0 
1.142773388092e-03 8.649609663379e-04 0.0 
8.649609663379e-04 4.899990615990e-03 0.0 
0.0 0.0 0.0 
1.142167893113e-03 6.925541419940e-04 0.0 
6.925541419940e-04 4.464879129183e-03 0.0 
0.0 0.0 0.0 
1.169292517577e-03 8.006622587982e-04 0.0 
8.006622587982e-04 4.922777966410e-03 0.0 
0.0 0.0 0.0 
1.163717273492e-03 6.343579314547e-04 0.0 
6.343579314547e-04 4.510844662441e-03 0.0 
0.0 0.0 0.0 
1.120581789621e-03 5.273791846175e-04 0.0 
5.273791846175e-04 4.065221370835e-03 0.0 
0.0 0.0 0.0 
1.138479737132e-03 4.765132471816e-04 0.0 
4.765132471816e-04 4.131736237385e-03 0.0 
0.0 0.0 0.0 
1.168376019820e-03 5.864408073804e-04 0.0 
5.864408073804e-04 4.579128462869e-03 0.0 
0.0 0.0 0.0 
1.141103255740e-03 4.356863801770e-04 0.0 
4.356863801770e-04 4.216973201298e-03 0.0 
0.0 0.0 0.0 
1.095089980977e-03 3.288889134194e-04 0.0 
3.288889134194e-04 3.783323164971e-03 0.0 
0.0 0.0 0.0 
1.097461362331e-03 2.976993622666e-04 0.0 
2.976993622666e-04 3.885083731500e-03 0.0 
0.0 0.0 0.0 
1.130872486293e-03 4.050112985519e-04 0.0 
4.050112985519e-04 4.321148720015e-03 0.0 
0.0 0.0 0.0 
1.088370424134e-03 2.751988041796e-04 0.0 
2.751988041796e-04 4.002530202621e-03 0.0 
0.0 0.0 0.0 
1.039761879434e-03 1.729543243913e-04 0.0 
1.729543243913e-04 3.580263656643e-03 0.0 
0.0 0.0 0.0 
1.033296415058e-03 1.596430285657e-04 0.0 
1.596430285657e-04 3.708684030508e-03 0.0 
0.0 0.0 0.0 
1.069930406985e-03 2.605952626591e-04 0.0 
2.605952626591e-04 4.135815967793e-03 0.0 
0.0 0.0 0.0 
1.018626838677e-03 1.522393294166e-04 0.0 
1.522393294166e-04 3.848330095062e-03 0.0 
0.0 0.0 0.0 
9.679204975958e-04 5.884222941179e-05 0.0 
5.884222941179e-05 3.435252251083e-03 0.0 
0.0 0.0 0.0 
9.580798142139e-04 5.977527505613e-05 0.0 
5.977527505613e-05 3.580578343383e-03 0.0 
0.0 0.0 0.0 
9.974341964506e-04 1.506353736472e-04 0.0 
1.506353736472e-04 3.999632744120e-03 0.0 
0.0 0.0 0.0 
9.425302796638e-04 6.469431067032e-05 0.0 
6.469431067032e-05 3.734581022687e-03 0.0 
0.0 0.0 0.0 
9.703689157938e-04 1.522219518145e-04 0.0 
1.522219518145e-04 4.159617400401e-03 0.0 
0.0 0.0 0.0 
8.900950912232e-04 -1.780246514821e-05 0.0 
-1.780246514821e-05 3.325797762571e-03 0.0 
0.0 0.0 0.0 
8.815500806055e-04 -6.291107410209e-06 0.0 
-6.291107410209e-06 3.483195567923e-03 0.0 
0.0 0.0 0.0 
8.169725539963e-04 -7.899770972656e-05 0.0 
-7.899770972656e-05 3.083361279108e-03 0.0 
0.0 0.0 0.0 
8.162712308013e-04 -6.145082316201e-05 0.0 
-6.145082316201e-05 3.244417335669e-03 0.0 
0.0 0.0 0.0 
8.550646599818e-04 1.624477076459e-03 0.0 
1.624477076459e-03 7.037737728002e-03 0.0 
0.0 0.0 0.0 
7.421659392175e-04 -1.232574383263e-04 0.0 
-1.232574383263e-04 2.853483807359e-03 0.0 
0.0 0.0 0.0 
7.306549398101e-04 -1.430526358376e-04 0.0 
-1.430526358376e-04 2.700863246388e-03 0.0 
0.0 0.0 0.0 
7.493267463342e-04 -1.011218649569e-04 0.0 
-1.011218649569e-04 3.016022542137e-03 0.0 
0.0 0.0 0.0 
8.113187849211e-04 -4.223348718761e-05 0.0 
-4.223348718761e-05 3.413224877843e-03 0.0 
0.0 0.0 0.0 
6.678214698100e-04 -1.522627925189e-04 0.0 
-1.522627925189e-04 2.631690030142e-03 0.0 
0.0 0.0 0.0 
6.824982646969e-04 -1.265308007838e-04 0.0 
-1.265308007838e-04 2.795104573391e-03 0.0 
0.0 0.0 0.0 
5.948126049006e-04 -1.663709173198e-04 0.0 
-1.663709173198e-04 2.417227255106e-03 0.0 
0.0 0.0 0.0 
8.074169595200e-04 1.219782798451e-03 0.0 
1.219782798451e-03 5.111391464522e-03 0.0 
0.0 0.0 0.0 
-1.213802456791e-04 2.255868411992e-03 0.0 
2.255868411992e-03 1.073279063717e-02 0.0 
0.0 0.0 0.0 
6.167897714175e-04 -1.381705138698e-04 0.0 
-1.381705138698e-04 2.580353916411e-03 0.0 
0.0 0.0 0.0 
5.254322361646e-04 -1.678332016964e-04 0.0 
-1.678332016964e-04 2.207444578105e-03 0.0 
0.0 0.0 0.0 
4.920976641888e-04 -1.953864762752e-04 0.0 
-1.953864762752e-04 2.048641334630e-03 0.0 
0.0 0.0 0.0 
4.230274736919e-04 -1.863383848182e-04 0.0 
-1.863383848182e-04 1.841852510280e-03 0.0 
0.0 0.0 0.0 
-1.527554324836e-03 1.169099454179e-03 0.0 
1.169099454179e-03 1.424170249680e-02 0.0 
0.0 0.0 0.0 
-1.404925726130e-03 1.323899116889e-03 0.0 
1.323899116889e-03 1.445629337584e-02 0.0 
0.0 0.0 0.0 
-1.472520993088e-03 1.049207398668e-03 0.0 
1.049207398668e-03 1.455678399045e-02 0.0 
0.0 0.0 0.0 
-1.348519150793e-03 1.227269759349e-03 0.0 
1.227269759349e-03 1.478960481150e-02 0.0 
0.0 0.0 0.0 
-1.396207512230e-03 9.717133429074e-04 0.0 
9.717133429074e-04 1.484158779727e-02 0.0 
0.0 0.0 0.0 
4.614823969074e-04 -1.587213631477e-04 0.0 
-1.587213631477e-04 1.999173547791e-03 0.0 
0.0 0.0 0.0 
-9.053768447462e-04 2.064229573300e-03 0.0 
2.064229573300e-03 1.326608479354e-02 0.0 
0.0 0.0 0.0 
-1.256275785459e-03 1.475563179346e-03 0.0 
1.475563179346e-03 1.466949727283e-02 0.0 
0.0 0.0 0.0 
-2.346703479799e-04 2.118407502199e-03 0.0 
2.118407502199e-03 9.632601629920e-03 0.0 
0.0 0.0 0.0 
4.060727686500e-04 1.785729180559e-03 0.0 
1.785729180559e-03 7.196438888314e-03 0.0 
0.0 0.0 0.0 
1.154211653908e-03 9.722359727261e-04 0.0 
9.722359727261e-04 5.367143350452e-03 0.0 
0.0 0.0 0.0 
6.930534855467e-04 -1.006297221286e-04 0.0 
-1.006297221286e-04 2.962517982057e-03 0.0 
0.0 0.0 0.0 
6.345115662383e-04 -1.095761288802e-04 0.0 
-1.095761288802e-04 2.747063165955e-03 0.0 
0.0 0.0 0.0 
6.996308457366e-04 -7.595982373686e-05 0.0 
-7.595982373686e-05 3.133899092724e-03 0.0 
0.0 0.0 0.0 
1.011123963336e-03 2.463501868920e-04 0.0 
2.463501868920e-04 4.436896246963e-03 0.0 
0.0 0.0 0.0 
9.725468518669e-04 2.432298279543e-04 0.0 
2.432298279543e-04 4.601248129721e-03 0.0 
0.0 0.0 0.0 
9.978984955293e-04 3.449736317432e-04 0.0 
3.449736317432e-04 4.891081682558e-03 0.0 
0.0 0.0 0.0 
9.482169005981e-04 3.357685876942e-04 0.0 
3.357685876942e-04 5.059093026900e-03 0.0 
0.0 0.0 0.0 
9.569520472768e-04 4.441698594237e-04 0.0 
4.441698594237e-04 5.361666192339e-03 0.0 
0.0 0.0 0.0 
8.970740911285e-04 4.279859193814e-04 0.0 
4.279859193814e-04 5.533442580730e-03 0.0 
0.0 0.0 0.0 
8.950706541972e-04 3.255604864369e-04 0.0 
3.255604864369e-04 5.234868195676e-03 0.0 
0.0 0.0 0.0 
8.341347493003e-04 4.096090136459e-04 0.0 
4.096090136459e-04 5.713094129682e-03 0.0 
0.0 0.0 0.0 
8.395166227378e-04 3.133967457363e-04 0.0 
3.133967457363e-04 5.417235330832e-03 0.0 
0.0 0.0 0.0 
8.884068096385e-04 5.421748712479e-04 0.0 
5.421748712479e-04 5.848607163407e-03 0.0 
0.0 0.0 0.0 
9.543253750307e-04 5.643300441534e-04 0.0 
5.643300441534e-04 5.681873346539e-03 0.0 
0.0 0.0 0.0 
7.695234147453e-04 3.886208781510e-04 0.0 
3.886208781510e-04 5.899108349871e-03 0.0 
0.0 0.0 0.0 
7.824621712277e-04 2.985359641691e-04 0.0 
2.985359641691e-04 5.605648803575e-03 0.0 
0.0 0.0 0.0 
7.042068937813e-04 3.647951454478e-04 0.0 
3.647951454478e-04 6.091688399963e-03 0.0 
0.0 0.0 0.0 
7.248286069261e-04 2.795298130622e-04 0.0 
2.795298130622e-04 5.799314344610e-03 0.0 
0.0 0.0 0.0 
7.870272398824e-04 2.197957882495e-04 0.0 
2.197957882495e-04 5.324085135748e-03 0.0 
0.0 0.0 0.0 
7.379069038235e-04 2.056772624586e-04 0.0 
2.056772624586e-04 5.517342066444e-03 0.0 
0.0 0.0 0.0 
7.846589717531e-04 1.529834243095e-04 0.0 
1.529834243095e-04 5.055025510841e-03 0.0 
0.0 0.0 0.0 
1.167037435046e-03 9.130700939111e-04 0.0 
9.130700939111e-04 5.393026084865e-03 0.0 
0.0 0.0 0.0 
1.136782118862e-03 1.084580232151e-03 0.0 
1.084580232151e-03 5.846448687273e-03 0.0 
0.0 0.0 0.0 
1.136205982780e-03 1.029515460400e-03 0.0 
1.029515460400e-03 5.874953178289e-03 0.0 
0.0 0.0 0.0 
1.090763794497e-03 1.200832698455e-03 0.0 
1.200832698455e-03 6.336419834525e-03 0.0 
0.0 0.0 0.0 
1.076471331080e-03 1.149259161336e-03 0.0 
1.149259161336e-03 6.369172871910e-03 0.0 
0.0 0.0 0.0 
1.015990982326e-03 1.320742243411e-03 0.0 
1.320742243411e-03 6.838059835236e-03 0.0 
0.0 0.0 0.0 
9.870628914764e-04 1.272160995600e-03 0.0 
1.272160995600e-03 6.875241454327e-03 0.0 
0.0 0.0 0.0 
1.044845007917e-03 1.102805092740e-03 0.0 
1.102805092740e-03 6.427408523380e-03 0.0 
0.0 0.0 0.0 
-5.995780426957e-04 2.231913938052e-03 0.0 
2.231913938052e-03 1.234489473338e-02 0.0 
0.0 0.0 0.0 
1.029883972259e-03 6.667578646925e-04 0.0 
6.667578646925e-04 4.001409970977e-03 0.0 
0.0 0.0 0.0 
9.519818268862e-04 7.578078263619e-04 0.0 
7.578078263619e-04 4.012823087220e-03 0.0 
0.0 0.0 0.0 
9.270273311361e-04 5.782804799677e-04 0.0 
5.782804799677e-04 3.568289974435e-03 0.0 
0.0 0.0 0.0 
8.317444023015e-04 6.783058553386e-04 0.0 
6.783058553386e-04 3.581914498473e-03 0.0 
0.0 0.0 0.0 
7.910338287317e-04 4.988619477111e-04 0.0 
4.988619477111e-04 3.145935077371e-03 0.0 
0.0 0.0 0.0 
6.760091542008e-04 6.098283522871e-04 0.0 
6.098283522871e-04 3.162879010830e-03 0.0 
0.0 0.0 0.0 
6.186405771805e-04 4.314674146270e-04 0.0 
4.314674146270e-04 2.734379889712e-03 0.0 
0.0 0.0 0.0 
7.268274368497e-04 3.281033998956e-04 0.0 
3.281033998956e-04 2.749259604509e-03 0.0 
0.0 0.0 0.0 
5.369070634778e-04 2.640628034710e-04 0.0 
2.640628034710e-04 2.346744737258e-03 0.0 
0.0 0.0 0.0 
6.407405111823e-04 1.694095679850e-04 0.0 
1.694095679850e-04 2.393200994697e-03 0.0 
0.0 0.0 0.0 
4.337908322367e-04 1.095892162020e-04 0.0 
1.095892162020e-04 2.002127097456e-03 0.0 
0.0 0.0 0.0 
5.343060382282e-04 2.845240290745e-05 0.0 
2.845240290745e-05 2.076059871861e-03 0.0 
0.0 0.0 0.0 
4.995369320376e-04 1.970583580414e-03 0.0 
1.970583580414e-03 8.455210913597e-03 0.0 
0.0 0.0 0.0 
1.026927631845e-03 1.374449707195e-03 0.0 
1.374449707195e-03 6.825515085058e-03 0.0 
0.0 0.0 0.0 
9.384226946187e-04 1.495888195355e-03 0.0 
1.495888195355e-03 7.333576896376e-03 0.0 
0.0 0.0 0.0 
9.469860824308e-04 1.547532405888e-03 0.0 
1.547532405888e-03 7.336107980377e-03 0.0 
0.0 0.0 0.0 
3.778185807840e-04 -2.114866648462e-04 0.0 
-2.114866648462e-04 1.686871890833e-03 0.0 
0.0 0.0 0.0 
6.677491085595e-04 2.556461494640e-04 0.0 
2.556461494640e-04 5.997519005348e-03 0.0 
0.0 0.0 0.0 
8.672507850856e-04 6.669084769890e-04 0.0 
6.669084769890e-04 6.182530944687e-03 0.0 
0.0 0.0 0.0 
9.382375593972e-04 6.946218468964e-04 0.0 
6.946218468964e-04 6.020064094004e-03 0.0 
0.0 0.0 0.0 
9.409233288092e-04 1.227979299015e-03 0.0 
1.227979299015e-03 6.941850576236e-03 0.0 
0.0 0.0 0.0 
3.617203941522e-04 -1.674246198572e-04 0.0 
-1.674246198572e-04 1.638690809542e-03 0.0 
0.0 0.0 0.0 
4.827283758077e-04 5.560487556701e-04 0.0 
5.560487556701e-04 2.756268799687e-03 0.0 
0.0 0.0 0.0 
5.291262020628e-04 7.394336632478e-04 0.0 
7.394336632478e-04 3.218932640188e-03 0.0 
0.0 0.0 0.0 
-1.263018170071e-03 1.148056320075e-03 0.0 
1.148056320075e-03 1.508330395484e-02 0.0 
0.0 0.0 0.0 
-1.298382489499e-03 9.140582381341e-04 0.0 
9.140582381341e-04 1.509614588045e-02 0.0 
0.0 0.0 0.0 
8.317111748877e-04 8.019143009817e-04 0.0 
8.019143009817e-04 6.536343752672e-03 0.0 
0.0 0.0 0.0 
4.031982320406e-04 -1.405155698353e-04 0.0 
-1.405155698353e-04 1.793805793309e-03 0.0 
0.0 0.0 0.0 
7.463930018988e-04 4.903837662088e-04 0.0 
4.903837662088e-04 6.207837181954e-03 0.0 
0.0 0.0 0.0 
3.112560298953e-04 2.154972695179e-04 0.0 
2.154972695179e-04 1.956082765901e-03 0.0 
0.0 0.0 0.0 
6.895317094889e-04 1.872134734639e-04 0.0 
1.872134734639e-04 5.714469940034e-03 0.0 
0.0 0.0 0.0 
6.113590742221e-04 2.272378380826e-04 0.0 
2.272378380826e-04 6.198723269654e-03 0.0 
0.0 0.0 0.0 
8.839212419815e-04 2.361054990026e-04 0.0 
2.361054990026e-04 4.952126929637e-03 0.0 
0.0 0.0 0.0 
8.473463110989e-04 1.671675587622e-03 0.0 
1.671675587622e-03 7.850370906181e-03 0.0 
0.0 0.0 0.0 
8.525396826188e-04 1.715377932293e-03 0.0 
1.715377932293e-03 7.866150449620e-03 0.0 
0.0 0.0 0.0 
7.189214250143e-04 9.789848830171e-05 0.0 
9.789848830171e-05 2.467401861286e-03 0.0 
0.0 0.0 0.0 
6.104737070641e-04 -2.822736385903e-05 0.0 
-2.822736385903e-05 2.171539787662e-03 0.0 
0.0 0.0 0.0 
4.139593777008e-04 -8.712200258051e-05 0.0 
-8.712200258051e-05 1.806154432698e-03 0.0 
0.0 0.0 0.0 
4.905809507208e-04 -1.270149477000e-04 0.0 
-1.270149477000e-04 1.916268872007e-03 0.0 
0.0 0.0 0.0 
6.755218079544e-04 -6.590921268265e-05 0.0 
-6.590921268265e-05 2.277304152963e-03 0.0 
0.0 0.0 0.0 
5.615419407747e-04 -1.570073913150e-04 0.0 
-1.570073913150e-04 2.022422171176e-03 0.0 
0.0 0.0 0.0 
3.757682369793e-04 -2.062350712963e-04 0.0 
-2.062350712963e-04 1.665745676990e-03 0.0 
0.0 0.0 0.0 
4.428327403147e-04 -2.212894265599e-04 0.0 
-2.212894265599e-04 1.787654269564e-03 0.0 
0.0 0.0 0.0 
6.163344161826e-04 -1.708993109649e-04 0.0 
-1.708993109649e-04 2.147565407371e-03 0.0 
0.0 0.0 0.0 
5.043923758978e-04 -2.276083479212e-04 0.0 
-2.276083479212e-04 1.918781249431e-03 0.0 
0.0 0.0 0.0 
3.240965616661e-04 -2.623941608737e-04 0.0 
-2.623941608737e-04 1.568089925752e-03 0.0 
0.0 0.0 0.0 
3.944503834599e-04 -2.592336800660e-04 0.0 
-2.592336800660e-04 1.701487552456e-03 0.0 
0.0 0.0 0.0 
5.739984780857e-04 3.016754974616e-04 0.0 
3.016754974616e-04 6.492200241786e-03 0.0 
0.0 0.0 0.0 
1.923323404864e-04 6.349981561397e-05 0.0 
6.349981561397e-05 1.627090710840e-03 0.0 
0.0 0.0 0.0 
-8.213882461182e-04 2.090067775877e-03 0.0 
2.090067775877e-03 1.146718607768e-02 0.0 
0.0 0.0 0.0 
7.516307960994e-04 7.664417968126e-04 0.0 
7.664417968126e-04 6.698611145805e-03 0.0 
0.0 0.0 0.0 
8.659062993496e-04 1.399215025051e-03 0.0 
1.399215025051e-03 7.392815274755e-03 0.0 
0.0 0.0 0.0 
-1.153431481793e-03 1.086183649603e-03 0.0 
1.086183649603e-03 1.534764159589e-02 0.0 
0.0 0.0 0.0 
-1.183973169124e-03 8.705803750370e-04 0.0 
8.705803750370e-04 1.532900166964e-02 0.0 
0.0 0.0 0.0 
-1.293279232102e-03 6.972992754909e-04 0.0 
6.972992754909e-04 1.504545533098e-02 0.0 
0.0 0.0 0.0 
-1.183270635388e-03 6.733522411085e-04 0.0 
6.733522411085e-04 1.525851609477e-02 0.0 
0.0 0.0 0.0 
-1.054398476463e-03 8.346783229742e-04 0.0 
8.346783229742e-04 1.554292601554e-02 0.0 
0.0 0.0 0.0 
-1.062397847393e-03 6.528870540286e-04 0.0 
6.528870540286e-04 1.545921728563e-02 0.0 
0.0 0.0 0.0 
-1.159524421975e-03 5.020616552491e-04 0.0 
5.020616552491e-04 1.514523430743e-02 0.0 
0.0 0.0 0.0 
-1.051287667411e-03 4.949895143400e-04 0.0 
4.949895143400e-04 1.533954158891e-02 0.0 
0.0 0.0 0.0 
-1.120990896480e-03 3.596948473267e-04 0.0 
3.596948473267e-04 1.499832015920e-02 0.0 
0.0 0.0 0.0 
-1.028066018463e-03 3.637894179328e-04 0.0 
3.637894179328e-04 1.519199298904e-02 0.0 
0.0 0.0 0.0 
-9.358310768813e-04 4.855173589771e-04 0.0 
4.855173589771e-04 1.552689229308e-02 0.0 
0.0 0.0 0.0 
-9.275893985981e-04 3.623365150456e-04 0.0 
3.623365150456e-04 1.537915568400e-02 0.0 
0.0 0.0 0.0 
-9.999124473818e-04 2.584047772805e-04 0.0 
2.584047772805e-04 1.502423596926e-02 0.0 
0.0 0.0 0.0 
-9.148807321913e-04 2.611929411450e-04 0.0 
2.611929411450e-04 1.521489837724e-02 0.0 
0.0 0.0 0.0 
-9.724269212957e-04 1.761079188057e-04 0.0 
1.761079188057e-04 1.484351538187e-02 0.0 
0.0 0.0 0.0 
-9.016149923354e-04 1.807144462933e-04 0.0 
1.807144462933e-04 1.503753567802e-02 0.0 
0.0 0.0 0.0 
-8.237926458662e-04 2.565917163363e-04 0.0 
2.565917163363e-04 1.540040742681e-02 0.0 
0.0 0.0 0.0 
3.088376284781e-04 -1.413752068261e-04 0.0 
-1.413752068261e-04 1.443370550882e-03 0.0 
0.0 0.0 0.0 
9.969167702176e-04 1.061243655087e-03 0.0 
1.061243655087e-03 6.509684069989e-03 0.0 
0.0 0.0 0.0 
8.769647790404e-04 1.187502484324e-03 0.0 
1.187502484324e-03 7.037208750811e-03 0.0 
0.0 0.0 0.0 
6.483025818745e-04 -8.494984671143e-05 0.0 
-8.494984671143e-05 2.927483144715e-03 0.0 
0.0 0.0 0.0 
7.063984451751e-04 -5.500874176608e-05 0.0 
-5.500874176608e-05 3.303671691193e-03 0.0 
0.0 0.0 0.0 
7.482950610323e-04 -3.415980870285e-05 0.0 
-3.415980870285e-05 3.531773864402e-03 0.0 
0.0 0.0 0.0 
7.446901719963e-04 -1.676674217628e-05 0.0 
-1.676674217628e-05 3.712956844840e-03 0.0 
0.0 0.0 0.0 
-8.262545691501e-04 1.770516540868e-04 0.0 
1.770516540868e-04 1.522640848822e-02 0.0 
0.0 0.0 0.0 
-7.302392377915e-04 2.423897306587e-04 0.0 
2.423897306587e-04 1.558190839515e-02 0.0 
0.0 0.0 0.0 
3.146430969882e-04 7.046917037482e-04 0.0 
7.046917037482e-04 2.820261681541e-03 0.0 
0.0 0.0 0.0 
3.450976379401e-04 8.865521977559e-04 0.0 
8.865521977559e-04 3.322078231479e-03 0.0 
0.0 0.0 0.0 
-1.087581087739e-03 1.312816025635e-03 0.0 
1.312816025635e-03 1.531048362130e-02 0.0 
0.0 0.0 0.0 
6.409913021801e-04 1.627161505720e-04 0.0 
1.627161505720e-04 5.917819434067e-03 0.0 
0.0 0.0 0.0 
7.041081360388e-04 1.296972431478e-04 0.0 
1.296972431478e-04 5.443736823652e-03 0.0 
0.0 0.0 0.0 
5.114442288125e-04 1.647214064714e-03 0.0 
1.647214064714e-03 6.539306198962e-03 0.0 
0.0 0.0 0.0 
3.163220700593e-04 1.726430824406e-03 0.0 
1.726430824406e-03 6.798649877239e-03 0.0 
0.0 0.0 0.0 
4.059678217414e-04 1.587955050130e-03 0.0 
1.587955050130e-03 6.136863042876e-03 0.0 
0.0 0.0 0.0 
1.809919920687e-04 1.665716313127e-03 0.0 
1.665716313127e-03 6.411208287324e-03 0.0 
0.0 0.0 0.0 
9.238343924028e-05 1.791750110164e-03 0.0 
1.791750110164e-03 7.105128596672e-03 0.0 
0.0 0.0 0.0 
2.513593452546e-04 1.529161687527e-03 0.0 
1.529161687527e-03 5.737891774490e-03 0.0 
0.0 0.0 0.0 
1.015628265307e-03 5.848413017336e-04 0.0 
5.848413017336e-04 5.520884225910e-03 0.0 
0.0 0.0 0.0 
-8.146763346272e-04 4.699488315613e-04 0.0 
4.699488315613e-04 1.570609118624e-02 0.0 
0.0 0.0 0.0 
4.520197315719e-04 -2.199847223668e-04 0.0 
-2.199847223668e-04 1.894660860529e-03 0.0 
0.0 0.0 0.0 
3.249257670545e-04 -2.315011837747e-04 0.0 
-2.315011837747e-04 1.537994417174e-03 0.0 
0.0 0.0 0.0 
5.541936413140e-04 1.939488840919e-04 0.0 
1.939488840919e-04 6.407738912529e-03 0.0 
0.0 0.0 0.0 
1.084825211637e-03 9.383474291098e-04 0.0 
9.383474291098e-04 6.003581577943e-03 0.0 
0.0 0.0 0.0 
3.555051167485e-04 2.084318999563e-03 0.0 
2.084318999563e-03 9.113929585200e-03 0.0 
0.0 0.0 0.0 
4.894846602266e-04 2.042496978211e-03 0.0 
2.042496978211e-03 8.888928365917e-03 0.0 
0.0 0.0 0.0 
3.462521995042e-04 2.156270371378e-03 0.0 
2.156270371378e-03 9.539764319384e-03 0.0 
0.0 0.0 0.0 
4.631087951760e-04 2.125644712865e-03 0.0 
2.125644712865e-03 9.327416355067e-03 0.0 
0.0 0.0 0.0 
3.235768417632e-04 2.241416163644e-03 0.0 
2.241416163644e-03 9.970693507948e-03 0.0 
0.0 0.0 0.0 
4.191985800939e-04 2.223027710472e-03 0.0 
2.223027710472e-03 9.772011404494e-03 0.0 
0.0 0.0 0.0 
5.511120111972e-04 2.093032883521e-03 0.0 
2.093032883521e-03 9.154047320520e-03 0.0 
0.0 0.0 0.0 
7.460143291514e-04 1.847634107239e-03 0.0 
1.847634107239e-03 8.384690834583e-03 0.0 
0.0 0.0 0.0 
4.837998816437e-04 2.204057584914e-03 0.0 
2.204057584914e-03 9.617407786282e-03 0.0 
0.0 0.0 0.0 
-8.922455411017e-04 1.216314035283e-04 0.0 
1.216314035283e-04 1.484807213857e-02 0.0 
0.0 0.0 0.0 
1.019767500662e-03 1.430943525281e-03 0.0 
1.430943525281e-03 6.833018374100e-03 0.0 
0.0 0.0 0.0 
6.602028946707e-04 -1.741505841883e-04 0.0 
-1.741505841883e-04 2.283353532858e-03 0.0 
0.0 0.0 0.0 
2.613950556919e-04 -1.657062478672e-04 0.0 
-1.657062478672e-04 1.285498628524e-03 0.0 
0.0 0.0 0.0 
2.076528127922e-04 -2.725495099020e-04 0.0 
-2.725495099020e-04 1.349403451703e-03 0.0 
0.0 0.0 0.0 
3.517652808344e-04 -1.151702107722e-04 0.0 
-1.151702107722e-04 1.583635215544e-03 0.0 
0.0 0.0 0.0 
4.398003067420e-04 -1.100712523438e-04 0.0 
-1.100712523438e-04 1.952314170690e-03 0.0 
0.0 0.0 0.0 
6.960452733225e-04 9.072096643621e-04 0.0 
9.072096643621e-04 7.066067821391e-03 0.0 
0.0 0.0 0.0 
2.865845246166e-04 2.345600234437e-03 0.0 
2.345600234437e-03 1.040886910856e-02 0.0 
0.0 0.0 0.0 
1.855407350553e-04 2.343346235879e-03 0.0 
2.343346235879e-03 1.061479752011e-02 0.0 
0.0 0.0 0.0 
-6.837811225866e-05 1.733655234565e-03 0.0 
1.733655234565e-03 6.749580337838e-03 0.0 
0.0 0.0 0.0 
-1.530633821750e-04 1.831071333160e-03 0.0 
1.831071333160e-03 7.460892242561e-03 0.0 
0.0 0.0 0.0 
7.197499214970e-04 1.803800444585e-03 0.0 
1.803800444585e-03 8.373112425119e-03 0.0 
0.0 0.0 0.0 
-1.473163416685e-03 7.859603832353e-04 0.0 
7.859603832353e-04 1.457677982180e-02 0.0 
0.0 0.0 0.0 
-1.205477195044e-03 3.534384605581e-04 0.0 
3.534384605581e-04 1.479941408722e-02 0.0 
0.0 0.0 0.0 
-1.140952027681e-03 2.329505338572e-04 0.0 
2.329505338572e-04 1.462315196596e-02 0.0 
0.0 0.0 0.0 
2.571785822062e-04 -1.160266806565e-04 0.0 
-1.160266806565e-04 1.189726913663e-03 0.0 
0.0 0.0 0.0 
1.257914789910e-04 -2.709594177023e-04 0.0 
-2.709594177023e-04 1.237152794206e-03 0.0 
0.0 0.0 0.0 
-9.154420649285e-04 8.001271307435e-04 0.0 
8.001271307435e-04 1.574260755930e-02 0.0 
0.0 0.0 0.0 
5.472619017072e-04 9.221583400435e-04 0.0 
9.221583400435e-04 3.721552725275e-03 0.0 
0.0 0.0 0.0 
3.490468943335e-04 1.062970968629e-03 0.0 
1.062970968629e-03 3.867192288181e-03 0.0 
0.0 0.0 0.0 
4.210239944082e-05 1.852380486331e-04 0.0 
1.852380486331e-04 1.578209103603e-03 0.0 
0.0 0.0 0.0 
-8.936618623268e-05 3.497356501036e-05 0.0 
3.497356501036e-05 1.266124163082e-03 0.0 
0.0 0.0 0.0 
-7.472213151687e-04 1.671914743248e-04 0.0 
1.671914743248e-04 1.540956882566e-02 0.0 
0.0 0.0 0.0 
-6.370313614685e-04 2.170041947900e-04 0.0 
2.170041947900e-04 1.575274435754e-02 0.0 
0.0 0.0 0.0 
7.794555920881e-04 8.682533902577e-06 0.0 
8.682533902577e-06 3.942911824040e-03 0.0 
0.0 0.0 0.0 
7.646644943952e-04 1.865016119719e-05 0.0 
1.865016119719e-05 4.127733491442e-03 0.0 
0.0 0.0 0.0 
7.812055671228e-04 9.478984240985e-04 0.0 
9.478984240985e-04 6.913946416054e-03 0.0 
0.0 0.0 0.0 
2.885993602828e-04 -2.687440578911e-04 0.0 
-2.687440578911e-04 1.491037582431e-03 0.0 
0.0 0.0 0.0 
-6.031482877091e-04 3.065954282815e-04 0.0 
3.065954282815e-04 1.591023645299e-02 0.0 
0.0 0.0 0.0 
1.036575973131e-03 9.010627315778e-04 0.0 
9.010627315778e-04 6.104712974157e-03 0.0 
0.0 0.0 0.0 
1.107071500369e-03 7.801151308451e-04 0.0 
7.801151308451e-04 5.606858507328e-03 0.0 
0.0 0.0 0.0 
7.093308246130e-04 -2.765783397153e-05 0.0 
-2.765783397153e-05 3.480091397726e-03 0.0 
0.0 0.0 0.0 
1.029877495169e-04 8.750489263504e-04 0.0 
8.750489263504e-04 2.937374614225e-03 0.0 
0.0 0.0 0.0 
6.603240737067e-05 6.940380444522e-04 0.0 
6.940380444522e-04 2.432481690105e-03 0.0 
0.0 0.0 0.0 
7.631774008992e-04 -1.037384461138e-04 0.0 
-1.037384461138e-04 2.522561568014e-03 0.0 
0.0 0.0 0.0 
4.537427111852e-04 -2.500220385394e-04 0.0 
-2.500220385394e-04 1.841214447984e-03 0.0 
0.0 0.0 0.0 
3.887880128741e-04 -8.608405012189e-05 0.0 
-8.608405012189e-05 1.741737390112e-03 0.0 
0.0 0.0 0.0 
6.259148919902e-04 1.062351938556e-03 0.0 
1.062351938556e-03 7.458158344734e-03 0.0 
0.0 0.0 0.0 
-8.761062587373e-04 9.863993787071e-04 0.0 
9.863993787071e-04 1.579770830830e-02 0.0 
0.0 0.0 0.0 
6.064365177996e-04 2.058526052170e-03 0.0 
2.058526052170e-03 9.023267269236e-03 0.0 
0.0 0.0 0.0 
6.777254287223e-04 1.953769068068e-03 0.0 
1.953769068068e-03 8.547343853771e-03 0.0 
0.0 0.0 0.0 
5.196516127816e-04 2.181943268286e-03 0.0 
2.181943268286e-03 9.500870073053e-03 0.0 
0.0 0.0 0.0 
1.040784093840e-04 -2.637900178274e-04 0.0 
-2.637900178274e-04 1.155566418940e-03 0.0 
0.0 0.0 0.0 
6.037292076516e-04 8.617601938379e-04 0.0 
8.617601938379e-04 7.238810304499e-03 0.0 
0.0 0.0 0.0 
5.906312476348e-04 1.318690722476e-04 0.0 
1.318690722476e-04 6.127517102499e-03 0.0 
0.0 0.0 0.0 
1.561385408658e-04 2.454763657856e-03 0.0 
2.454763657856e-03 1.103126124464e-02 0.0 
0.0 0.0 0.0 
5.761300701784e-05 2.431425749060e-03 0.0 
2.431425749060e-03 1.125262338587e-02 0.0 
0.0 0.0 0.0 
5.407921758466e-04 1.099239995854e-03 0.0 
1.099239995854e-03 4.262756506287e-03 0.0 
0.0 0.0 0.0 
3.325857163784e-04 1.227339811077e-03 0.0 
1.227339811077e-03 4.457179509716e-03 0.0 
0.0 0.0 0.0 
1.069123255680e-04 1.208131012894e-03 0.0 
1.208131012894e-03 4.082905127722e-03 0.0 
0.0 0.0 0.0 
8.303807901107e-05 1.358287363202e-03 0.0 
1.358287363202e-03 4.713400843437e-03 0.0 
0.0 0.0 0.0 
-1.217799272518e-03 1.871130607668e-03 0.0 
1.871130607668e-03 1.255370839213e-02 0.0 
0.0 0.0 0.0 
5.134556322105e-04 1.268634880632e-03 0.0 
1.268634880632e-03 4.850205148026e-03 0.0 
0.0 0.0 0.0 
-6.438196240753e-04 2.116772149750e-03 0.0 
2.116772149750e-03 1.075467743034e-02 0.0 
0.0 0.0 0.0 
-8.881444922458e-04 2.039501581344e-03 0.0 
2.039501581344e-03 1.118096883095e-02 0.0 
0.0 0.0 0.0 
-7.118452262626e-04 2.064160880986e-03 0.0 
2.064160880986e-03 1.044709533880e-02 0.0 
0.0 0.0 0.0 
-1.832985036104e-05 1.897265278449e-03 0.0 
1.897265278449e-03 7.811269627613e-03 0.0 
0.0 0.0 0.0 
-2.602040556250e-04 1.919458149132e-03 0.0 
1.919458149132e-03 8.191688642799e-03 0.0 
0.0 0.0 0.0 
8.477273760416e-04 8.614219611542e-04 0.0 
8.614219611542e-04 4.055422058851e-03 0.0 
0.0 0.0 0.0 
1.118337069855e-03 1.147039594154e-03 0.0 
1.147039594154e-03 5.842517426120e-03 0.0 
0.0 0.0 0.0 
7.916046515155e-04 -5.527705272770e-06 0.0 
-5.527705272770e-06 3.763296938005e-03 0.0 
0.0 0.0 0.0 
8.252386532723e-04 1.581322604923e-04 0.0 
1.581322604923e-04 4.866965893688e-03 0.0 
0.0 0.0 0.0 
1.042365285761e-03 3.547255856176e-04 0.0 
3.547255856176e-04 4.731261416529e-03 0.0 
0.0 0.0 0.0 
-7.991455338028e-04 6.069653054266e-04 0.0 
6.069653054266e-04 1.583104774755e-02 0.0 
0.0 0.0 0.0 
-6.607881900619e-04 5.748960147193e-04 0.0 
5.748960147193e-04 1.600539305378e-02 0.0 
0.0 0.0 0.0 
-1.034366341617e-03 1.640538878766e-04 0.0 
1.640538878766e-04 1.464166849259e-02 0.0 
0.0 0.0 0.0 
-9.954967954210e-04 1.004726331289e-04 0.0 
1.004726331289e-04 1.444584547353e-02 0.0 
0.0 0.0 0.0 
2.554624448760e-04 -2.101692192274e-04 0.0 
-2.101692192274e-04 1.329417668022e-03 0.0 
0.0 0.0 0.0 
1.860353073099e-04 -2.219131916353e-04 0.0 
-2.219131916353e-04 1.187088530058e-03 0.0 
0.0 0.0 0.0 
9.385619537436e-04 1.553097054649e-04 0.0 
1.553097054649e-04 4.327970305698e-03 0.0 
0.0 0.0 0.0 
6.660343740330e-04 7.280580498529e-04 0.0 
7.280580498529e-04 6.868661580907e-03 0.0 
0.0 0.0 0.0 
-9.608147232081e-04 1.245785872381e-03 0.0 
1.245785872381e-03 1.557672984602e-02 0.0 
0.0 0.0 0.0 
-8.695564499381e-04 1.471364971867e-03 0.0 
1.471364971867e-03 1.552003831825e-02 0.0 
0.0 0.0 0.0 
-9.888843642568e-04 1.542712407097e-03 0.0 
1.542712407097e-03 1.522056822400e-02 0.0 
0.0 0.0 0.0 
7.183343863486e-04 1.106177511863e-03 0.0 
1.106177511863e-03 7.307830030542e-03 0.0 
0.0 0.0 0.0 
9.979906738607e-04 4.941751048899e-04 0.0 
4.941751048899e-04 3.586275828672e-03 0.0 
0.0 0.0 0.0 
1.162344607281e-03 8.620872962345e-04 0.0 
8.620872962345e-04 5.442774331530e-03 0.0 
0.0 0.0 0.0 
4.888415635000e-05 -5.949953368089e-05 0.0 
-5.949953368089e-05 1.349077797016e-03 0.0 
0.0 0.0 0.0 
7.473793946448e-04 1.775739406599e-03 0.0 
1.775739406599e-03 7.634233304197e-03 0.0 
0.0 0.0 0.0 
1.295174859239e-04 -1.903234552104e-04 0.0 
-1.903234552104e-04 9.796116333882e-04 0.0 
0.0 0.0 0.0 
-2.704499784288e-04 2.292071761524e-03 0.0 
2.292071761524e-03 1.139496640125e-02 0.0 
0.0 0.0 0.0 
4.969038326632e-04 1.544725881150e-04 0.0 
1.544725881150e-04 6.623041944079e-03 0.0 
0.0 0.0 0.0 
4.474067121709e-04 2.222055343858e-04 0.0 
2.222055343858e-04 6.909577515871e-03 0.0 
0.0 0.0 0.0 
6.084049687729e-04 1.980548781819e-03 0.0 
1.980548781819e-03 8.900284844319e-03 0.0 
0.0 0.0 0.0 
-1.517356939485e-03 1.525564886828e-03 0.0 
1.525564886828e-03 1.277852926888e-02 0.0 
0.0 0.0 0.0 
8.357606050331e-04 1.712416673476e-03 0.0 
1.712416673476e-03 7.497571368311e-03 0.0 
0.0 0.0 0.0 
9.340083306626e-04 1.552306884988e-03 0.0 
1.552306884988e-03 6.928057019829e-03 0.0 
0.0 0.0 0.0 
-9.628721939393e-04 1.977742986078e-03 0.0 
1.977742986078e-03 1.089936483881e-02 0.0 
0.0 0.0 0.0 
-7.908362924914e-04 1.994650342348e-03 0.0 
1.994650342348e-03 1.015613540842e-02 0.0 
0.0 0.0 0.0 
-5.415592381353e-04 2.047259459373e-03 0.0 
2.047259459373e-03 9.703199660074e-03 0.0 
0.0 0.0 0.0 
-6.443173212470e-04 1.968032466954e-03 0.0 
1.968032466954e-03 9.397006302326e-03 0.0 
0.0 0.0 0.0 
7.894238434985e-04 -1.065352909916e-04 0.0 
-1.065352909916e-04 2.657101968798e-03 0.0 
0.0 0.0 0.0 
6.933349088806e-04 -1.690830471382e-04 0.0 
-1.690830471382e-04 2.421469296556e-03 0.0 
0.0 0.0 0.0 
2.277207051009e-04 2.494892350411e-03 0.0 
2.494892350411e-03 1.089410934481e-02 0.0 
0.0 0.0 0.0 
4.030574257059e-04 2.345670659846e-03 0.0 
2.345670659846e-03 1.008137106734e-02 0.0 
0.0 0.0 0.0 
5.709413860468e-05 2.559204442018e-03 0.0 
2.559204442018e-03 1.164543964413e-02 0.0 
0.0 0.0 0.0 
-4.824178844863e-05 2.516356149893e-03 0.0 
2.516356149893e-03 1.189097664072e-02 0.0 
0.0 0.0 0.0 
5.689463514075e-04 1.940493056912e-03 0.0 
1.940493056912e-03 8.897588678189e-03 0.0 
0.0 0.0 0.0 
6.804571355532e-04 1.756925089401e-03 0.0 
1.756925089401e-03 8.381845915684e-03 0.0 
0.0 0.0 0.0 
4.686562432046e-04 -8.067669105642e-05 0.0 
-8.067669105642e-05 2.102393876045e-03 0.0 
0.0 0.0 0.0 
-4.234077131411e-04 1.842627813743e-03 0.0 
1.842627813743e-03 7.871859006170e-03 0.0 
0.0 0.0 0.0 
-7.211263583094e-04 9.386467722166e-04 0.0 
9.386467722166e-04 1.599811984315e-02 0.0 
0.0 0.0 0.0 
-1.133282490292e-03 1.909292499852e-03 0.0 
1.909292499852e-03 1.162770970776e-02 0.0 
0.0 0.0 0.0 
5.058219643344e-04 8.078001572706e-04 0.0 
8.078001572706e-04 7.401670427809e-03 0.0 
0.0 0.0 0.0 
5.795352059733e-04 6.859400591010e-04 0.0 
6.859400591010e-04 7.054967419189e-03 0.0 
0.0 0.0 0.0 
-2.586858092493e-04 -6.880838719851e-05 0.0 
-6.880838719851e-05 1.011308122498e-03 0.0 
0.0 0.0 0.0 
-1.116333192972e-04 -1.602469622181e-04 0.0 
-1.602469622181e-04 1.095228369460e-03 0.0 
0.0 0.0 0.0 
-4.986265649180e-04 2.651319838956e-04 0.0 
2.651319838956e-04 1.607800423316e-02 0.0 
0.0 0.0 0.0 
-1.914998678928e-04 1.343102009205e-03 0.0 
1.343102009205e-03 4.357914417758e-03 0.0 
0.0 0.0 0.0 
-2.222911699723e-04 1.460825453156e-03 0.0 
1.460825453156e-03 5.010208527955e-03 0.0 
0.0 0.0 0.0 
-1.660942942672e-04 1.206847677123e-03 0.0 
1.206847677123e-03 3.716444763475e-03 0.0 
0.0 0.0 0.0 
2.305222322321e-04 6.433318026303e-05 0.0 
6.433318026303e-05 7.666367166427e-03 0.0 
0.0 0.0 0.0 
-9.322358419259e-04 -8.742781027704e-09 0.0 
-8.742781027704e-09 1.360510019676e-02 0.0 
0.0 0.0 0.0 
3.843510566806e-04 1.741210421505e-04 0.0 
1.741210421505e-04 7.131855068392e-03 0.0 
0.0 0.0 0.0 
-1.501395536196e-04 1.991434604304e-03 0.0 
1.991434604304e-03 8.543512153180e-03 0.0 
0.0 0.0 0.0 
-4.455658526557e-04 3.693708402931e-04 0.0 
3.693708402931e-04 1.622252900109e-02 0.0 
0.0 0.0 0.0 
8.982018131654e-04 1.651795937026e-03 0.0 
1.651795937026e-03 7.404726696778e-03 0.0 
0.0 0.0 0.0 
5.957564412395e-04 1.495976348283e-03 0.0 
1.495976348283e-03 5.894913796177e-03 0.0 
0.0 0.0 0.0 
8.594482010634e-04 9.863697952371e-04 0.0 
9.863697952371e-04 6.768471329574e-03 0.0 
0.0 0.0 0.0 
-5.536849036625e-04 1.649843200096e-04 0.0 
1.649843200096e-04 1.590451919389e-02 0.0 
0.0 0.0 0.0 
-3.936034214440e-04 2.127342237920e-04 0.0 
2.127342237920e-04 1.625074519282e-02 0.0 
0.0 0.0 0.0 
-1.192213909587e-03 2.184026849945e-04 0.0 
2.184026849945e-04 1.441381146271e-02 0.0 
0.0 0.0 0.0 
-1.122958356234e-03 1.198882255545e-04 0.0 
1.198882255545e-04 1.420526238254e-02 0.0 
0.0 0.0 0.0 
-1.277138329284e-03 3.460024704869e-04 0.0 
3.460024704869e-04 1.458153145646e-02 0.0 
0.0 0.0 0.0 
1.657422900240e-04 3.443263637405e-04 0.0 
3.443263637405e-04 1.943229684794e-03 0.0 
0.0 0.0 0.0 
-1.496343948300e-04 3.499971937520e-04 0.0 
3.499971937520e-04 1.537540172214e-03 0.0 
0.0 0.0 0.0 
-6.910499730822e-04 4.444791293042e-04 0.0 
4.444791293042e-04 1.587960089211e-02 0.0 
0.0 0.0 0.0 
5.781228266882e-04 -1.089397599237e-04 0.0 
-1.089397599237e-04 2.537271951739e-03 0.0 
0.0 0.0 0.0 
6.022236194754e-04 -7.350584737828e-05 0.0 
-7.350584737828e-05 2.745030861743e-03 0.0 
0.0 0.0 0.0 
3.544078550640e-04 -2.587457888175e-04 0.0 
-2.587457888175e-04 1.623623391450e-03 0.0 
0.0 0.0 0.0 
4.996235702490e-04 -2.359475516403e-04 0.0 
-2.359475516403e-04 1.975300210443e-03 0.0 
0.0 0.0 0.0 
8.113803768220e-04 4.635422664486e-05 0.0 
4.635422664486e-05 4.181528230239e-03 0.0 
0.0 0.0 0.0 
8.326503773783e-04 3.566464322149e-05 0.0 
3.566464322149e-05 4.001213619055e-03 0.0 
0.0 0.0 0.0 
-9.386218773714e-05 2.318969267348e-03 0.0 
2.318969267348e-03 1.110622820940e-02 0.0 
0.0 0.0 0.0 
-2.257691846142e-04 2.362342912833e-03 0.0 
2.362342912833e-03 1.174896044858e-02 0.0 
0.0 0.0 0.0 
2.041716005373e-04 2.182052631362e-03 0.0 
2.182052631362e-03 9.781734975926e-03 0.0 
0.0 0.0 0.0 
1.060064181388e-03 7.472243974039e-04 0.0 
7.472243974039e-04 5.723427141791e-03 0.0 
0.0 0.0 0.0 
1.112551889227e-03 6.304420447002e-04 0.0 
6.304420447002e-04 5.237399079423e-03 0.0 
0.0 0.0 0.0 
1.147235127291e-03 6.620813272975e-04 0.0 
6.620813272975e-04 5.128450794588e-03 0.0 
0.0 0.0 0.0 
-6.186388255348e-04 7.182749826573e-04 0.0 
7.182749826573e-04 1.609848616283e-02 0.0 
0.0 0.0 0.0 
-4.495865236095e-04 6.772187660401e-04 0.0 
6.772187660401e-04 1.629204867483e-02 0.0 
0.0 0.0 0.0 
8.806883102494e-04 -2.405065538954e-05 0.0 
-2.405065538954e-05 2.907015697134e-03 0.0 
0.0 0.0 0.0 
8.601277999040e-04 -1.211996274153e-05 0.0 
-1.211996274153e-05 2.780273610315e-03 0.0 
0.0 0.0 0.0 
8.056971912374e-04 -1.024314951464e-04 0.0 
-1.024314951464e-04 2.793139536489e-03 0.0 
0.0 0.0 0.0 
-6.531504643265e-04 1.131220175614e-03 0.0 
1.131220175614e-03 1.602876228378e-02 0.0 
0.0 0.0 0.0 
3.255516301846e-04 2.511628240433e-04 0.0 
2.511628240433e-04 7.422101872572e-03 0.0 
0.0 0.0 0.0 
3.811677469580e-04 2.937799295901e-04 0.0 
2.937799295901e-04 7.204814302111e-03 0.0 
0.0 0.0 0.0 
4.273607728763e-05 -1.972391594607e-04 0.0 
-1.972391594607e-04 8.483688967564e-04 0.0 
0.0 0.0 0.0 
1.051494776107e-04 -2.316297125670e-04 0.0 
-2.316297125670e-04 1.048148141891e-03 0.0 
0.0 0.0 0.0 
-1.753609782293e-04 8.874859561798e-04 0.0 
8.874859561798e-04 2.552102159594e-03 0.0 
0.0 0.0 0.0 
-1.990703228067e-04 7.010685560735e-04 0.0 
7.010685560735e-04 2.035920439645e-03 0.0 
0.0 0.0 0.0 
-7.463154710213e-04 1.694494817556e-03 0.0 
1.694494817556e-03 1.540460712750e-02 0.0 
0.0 0.0 0.0 
-8.618303740754e-04 1.774623633580e-03 0.0 
1.774623633580e-03 1.507993106158e-02 0.0 
0.0 0.0 0.0 
-5.916621088041e-04 1.639017839154e-03 0.0 
1.639017839154e-03 1.571280716378e-02 0.0 
0.0 0.0 0.0 
4.134316938823e-04 -5.491507337107e-05 0.0 
-5.491507337107e-05 1.867015042790e-03 0.0 
0.0 0.0 0.0 
7.283756291796e-04 1.913774766854e-03 0.0 
1.913774766854e-03 8.454150798901e-03 0.0 
0.0 0.0 0.0 
5.427941610193e-04 1.226306584860e-03 0.0 
1.226306584860e-03 7.854788166613e-03 0.0 
0.0 0.0 0.0 
6.470905157429e-04 1.280608727910e-03 0.0 
1.280608727910e-03 7.718258338629e-03 0.0 
0.0 0.0 0.0 
4.201122733533e-04 1.183709548029e-03 0.0 
1.183709548029e-03 8.086220725964e-03 0.0 
0.0 0.0 0.0 
6.362065173650e-04 2.013675355901e-03 0.0 
2.013675355901e-03 8.915881974317e-03 0.0 
0.0 0.0 0.0 
4.857105844401e-04 2.139942802002e-03 0.0 
2.139942802002e-03 9.413843836312e-03 0.0 
0.0 0.0 0.0 
3.951988418620e-04 2.321999433461e-03 0.0 
2.321999433461e-03 9.994393689003e-03 0.0 
0.0 0.0 0.0 
-4.038442750347e-04 1.254567659645e-05 0.0 
1.254567659645e-05 9.117610527298e-04 0.0 
0.0 0.0 0.0 
-4.274789209480e-04 1.290073685205e-04 0.0 
1.290073685205e-04 1.614476319566e-02 0.0 
0.0 0.0 0.0 
-1.032802804479e-03 7.951805504057e-05 0.0 
7.951805504057e-05 1.421272410213e-02 0.0 
0.0 0.0 0.0 
-5.733182107785e-04 -6.032854698363e-05 0.0 
-6.032854698363e-05 7.615393543361e-04 0.0 
0.0 0.0 0.0 
-9.872330488379e-04 4.141765180668e-05 0.0 
4.141765180668e-05 1.400896272228e-02 0.0 
0.0 0.0 0.0 
-9.664377079241e-04 5.767349754027e-05 0.0 
5.767349754027e-05 1.424239265404e-02 0.0 
0.0 0.0 0.0 
-9.629072368909e-04 1.727421893249e-05 0.0 
1.727421893249e-05 1.378171871994e-02 0.0 
0.0 0.0 0.0 
3.343818624123e-04 -5.781425902670e-05 0.0 
-5.781425902670e-05 1.505099424998e-03 0.0 
0.0 0.0 0.0 
-1.227005337892e-03 1.818852344506e-04 0.0 
1.818852344506e-04 1.412646441937e-02 0.0 
0.0 0.0 0.0 
-1.340057303743e-03 3.501109302352e-04 0.0 
3.501109302352e-04 1.436226840134e-02 0.0 
0.0 0.0 0.0 
-7.140029691701e-05 -1.807917619756e-04 0.0 
-1.807917619756e-04 6.522957684977e-04 0.0 
0.0 0.0 0.0 
-4.690387519088e-04 1.058409861720e-03 0.0 
1.058409861720e-03 1.621988241494e-02 0.0 
0.0 0.0 0.0 
5.102631347157e-06 -1.544417749562e-04 0.0 
-1.544417749562e-04 6.550559943854e-04 0.0 
0.0 0.0 0.0 
8.175382673041e-05 -1.513560315073e-04 0.0 
-1.513560315073e-04 7.804496983345e-04 0.0 
0.0 0.0 0.0 
4.320636799089e-04 7.635599759549e-04 0.0 
7.635599759549e-04 7.591244775640e-03 0.0 
0.0 0.0 0.0 
4.983949595149e-04 6.363701362529e-04 0.0 
6.363701362529e-04 7.239426461746e-03 0.0 
0.0 0.0 0.0 
3.378587763406e-04 6.982804384086e-04 0.0 
6.982804384086e-04 7.767400928632e-03 0.0 
0.0 0.0 0.0 
4.068159200831e-04 5.910283267192e-04 0.0 
5.910283267192e-04 7.418186293352e-03 0.0 
0.0 0.0 0.0 
5.547611789396e-04 5.268993961145e-04 0.0 
5.268993961145e-04 6.903423750450e-03 0.0 
0.0 0.0 0.0 
4.757337518790e-04 4.888017969880e-04 0.0 
4.888017969880e-04 7.112024478753e-03 0.0 
0.0 0.0 0.0 
-1.055878224531e-03 5.761875205080e-05 0.0 
5.761875205080e-05 1.398157892678e-02 0.0 
0.0 0.0 0.0 
3.084495221866e-04 5.563424322193e-04 0.0 
5.563424322193e-04 7.706825437785e-03 0.0 
0.0 0.0 0.0 
3.905770388147e-04 4.378139751010e-04 0.0 
4.378139751010e-04 7.332748523847e-03 0.0 
0.0 0.0 0.0 
2.306151394628e-04 4.891242240725e-04 0.0 
4.891242240725e-04 7.928614012530e-03 0.0 
0.0 0.0 0.0 
-9.015948341805e-04 1.888487651826e-03 0.0 
1.888487651826e-03 9.903009668454e-03 0.0 
0.0 0.0 0.0 
3.987153627677e-05 1.492719345367e-03 0.0 
1.492719345367e-03 5.355908349366e-03 0.0 
0.0 0.0 0.0 
-2.537747984093e-04 1.561526508090e-03 0.0 
1.561526508090e-03 5.696442012577e-03 0.0 
0.0 0.0 0.0 
-5.983825848302e-04 1.565523657772e-03 0.0 
1.565523657772e-03 5.436149417045e-03 0.0 
0.0 0.0 0.0 
-2.403850192512e-05 2.682628562379e-03 0.0 
2.682628562379e-03 1.233001576740e-02 0.0 
0.0 0.0 0.0 
-1.362971533973e-04 2.576775736435e-03 0.0 
2.576775736435e-03 1.247767787565e-02 0.0 
0.0 0.0 0.0 
5.401347701089e-04 9.582689050947e-05 0.0 
9.582689050947e-05 6.355641108792e-03 0.0 
0.0 0.0 0.0 
6.196816635523e-04 7.934032745623e-05 0.0 
7.934032745623e-05 5.865108682734e-03 0.0 
0.0 0.0 0.0 
-9.485788846664e-04 2.906585771863e-05 0.0 
2.906585771863e-05 1.401576364743e-02 0.0 
0.0 0.0 0.0 
-9.289884431310e-04 1.637170616446e-05 0.0 
1.637170616446e-05 1.398599758423e-02 0.0 
0.0 0.0 0.0 
-9.168089443278e-04 4.954883474530e-05 0.0 
4.954883474530e-05 1.436068678761e-02 0.0 
0.0 0.0 0.0 
-9.005725932711e-04 2.758898678622e-05 0.0 
2.758898678622e-05 1.430392185819e-02 0.0 
0.0 0.0 0.0 
-8.727822542638e-04 6.363279227039e-05 0.0 
6.363279227039e-05 1.466994492936e-02 0.0 
0.0 0.0 0.0 
-8.581784231521e-04 3.391563340788e-05 0.0 
3.391563340788e-05 1.460526596153e-02 0.0 
0.0 0.0 0.0 
-8.154063497733e-04 6.565256284863e-05 0.0 
6.565256284863e-05 1.496738754726e-02 0.0 
0.0 0.0 0.0 
2.767764376114e-04 2.514510227370e-03 0.0 
2.514510227370e-03 1.062687433573e-02 0.0 
0.0 0.0 0.0 
-5.072284671946e-04 1.363091083211e-03 0.0 
1.363091083211e-03 3.997723994949e-03 0.0 
0.0 0.0 0.0 
-1.233007088332e-03 1.834436833500e-03 0.0 
1.834436833500e-03 1.140622644531e-02 0.0 
0.0 0.0 0.0 
5.036142711601e-04 1.889709091579e-03 0.0 
1.889709091579e-03 8.910621859879e-03 0.0 
0.0 0.0 0.0 
6.229333557799e-04 1.698010450564e-03 0.0 
1.698010450564e-03 8.385543429288e-03 0.0 
0.0 0.0 0.0 
-5.191626585456e-04 1.907325226274e-03 0.0 
1.907325226274e-03 8.622251908528e-03 0.0 
0.0 0.0 0.0 
-7.181059708495e-04 1.806506921054e-03 0.0 
1.806506921054e-03 8.382850647736e-03 0.0 
0.0 0.0 0.0 
4.030320517583e-04 9.593640873506e-04 0.0 
9.593640873506e-04 7.862045299471e-03 0.0 
0.0 0.0 0.0 
6.925836177618e-04 1.154061101312e-03 0.0 
1.154061101312e-03 4.674122354248e-03 0.0 
0.0 0.0 0.0 
-3.329829747765e-04 1.279668416556e-03 0.0 
1.279668416556e-03 1.623789707057e-02 0.0 
0.0 0.0 0.0 
-7.584138323451e-04 3.297082122298e-04 0.0 
3.297082122298e-04 6.874730360238e-04 0.0 
0.0 0.0 0.0 
-4.873201555763e-04 2.981418144241e-04 0.0 
2.981418144241e-04 1.037133557114e-03 0.0 
0.0 0.0 0.0 
6.540678414961e-04 1.326306942425e-03 0.0 
1.326306942425e-03 5.261067534567e-03 0.0 
0.0 0.0 0.0 
-3.918025661771e-04 1.996614838887e-03 0.0 
1.996614838887e-03 8.947490027555e-03 0.0 
0.0 0.0 0.0 
-5.230068277018e-06 1.612596995494e-03 0.0 
1.612596995494e-03 6.036886214136e-03 0.0 
0.0 0.0 0.0 
-2.882315193914e-04 1.677342240806e-03 0.0 
1.677342240806e-03 6.435665289989e-03 0.0 
0.0 0.0 0.0 
9.781208660100e-04 8.680184982987e-04 0.0 
8.680184982987e-04 6.233579102469e-03 0.0 
0.0 0.0 0.0 
2.156185379452e-05 -2.372270256754e-04 0.0 
-2.372270256754e-04 9.290803053694e-04 0.0 
0.0 0.0 0.0 
-1.627695868125e-04 1.057563560784e-03 0.0 
1.057563560784e-03 3.114017664859e-03 0.0 
0.0 0.0 0.0 
-8.351755993031e-04 1.140457461687e-04 0.0 
1.140457461687e-04 1.502022667915e-02 0.0 
0.0 0.0 0.0 
-4.727216396840e-04 1.103610786937e-03 0.0 
1.103610786937e-03 2.733015779135e-03 0.0 
0.0 0.0 0.0 
5.758628616472e-04 4.433964669261e-05 0.0 
4.433964669261e-05 6.116712254945e-03 0.0 
0.0 0.0 0.0 
8.383967434813e-04 1.043735664214e-03 0.0 
1.043735664214e-03 4.565463094785e-03 0.0 
0.0 0.0 0.0 
7.525664083667e-05 1.958868556511e-03 0.0 
1.958868556511e-03 8.184047792166e-03 0.0 
0.0 0.0 0.0 
1.158792769168e-04 1.048088141914e-03 0.0 
1.048088141914e-03 3.488919549441e-03 0.0 
0.0 0.0 0.0 
2.997532850774e-04 1.386588237387e-03 0.0 
1.386588237387e-03 5.089958592194e-03 0.0 
0.0 0.0 0.0 
-9.856649113784e-04 2.027782874302e-03 0.0 
2.027782874302e-03 1.214806202580e-02 0.0 
0.0 0.0 0.0 
-1.431494587282e-03 1.640916284402e-03 0.0 
1.640916284402e-03 1.295628744355e-02 0.0 
0.0 0.0 0.0 
-1.299660651307e-03 1.802581940349e-03 0.0 
1.802581940349e-03 1.232821449421e-02 0.0 
0.0 0.0 0.0 
9.528031733231e-04 9.393192327407e-04 0.0 
9.393192327407e-04 4.494397859186e-03 0.0 
0.0 0.0 0.0 
-3.454797494901e-04 1.763499126694e-03 0.0 
1.763499126694e-03 7.151189517686e-03 0.0 
0.0 0.0 0.0 
-6.481935887212e-04 1.688448151705e-03 0.0 
1.688448151705e-03 6.880684027115e-03 0.0 
0.0 0.0 0.0 
-4.079068122663e-04 2.154818061564e-03 0.0 
2.154818061564e-03 1.035662575084e-02 0.0 
0.0 0.0 0.0 
-1.075009378982e-03 1.620949358673e-03 0.0 
1.620949358673e-03 1.487902687343e-02 0.0 
0.0 0.0 0.0 
-9.322294949749e-04 1.841893624182e-03 0.0 
1.841893624182e-03 1.470140184147e-02 0.0 
0.0 0.0 0.0 
-7.138208356425e-04 1.982162914924e-03 0.0 
1.982162914924e-03 1.488765083988e-02 0.0 
0.0 0.0 0.0 
-7.753108656558e-04 2.044614141282e-03 0.0 
2.044614141282e-03 1.448412514409e-02 0.0 
0.0 0.0 0.0 
-9.652743881218e-04 1.917398121454e-03 0.0 
1.917398121454e-03 1.427350332397e-02 0.0 
0.0 0.0 0.0 
-7.907838745912e-04 2.101605561280e-03 0.0 
2.101605561280e-03 1.402431044822e-02 0.0 
0.0 0.0 0.0 
-6.016053947033e-04 2.226743384692e-03 0.0 
2.226743384692e-03 1.425633772765e-02 0.0 
0.0 0.0 0.0 
-6.060194338201e-04 2.270021531870e-03 0.0 
2.270021531870e-03 1.376286922847e-02 0.0 
0.0 0.0 0.0 
-4.133236375464e-04 2.430370180982e-03 0.0 
2.430370180982e-03 1.406692244366e-02 0.0 
0.0 0.0 0.0 
-4.323323033603e-04 2.413957824737e-03 0.0 
2.413957824737e-03 1.347774946794e-02 0.0 
0.0 0.0 0.0 
-5.683366501995e-04 2.293796228906e-03 0.0 
2.293796228906e-03 1.320883561971e-02 0.0 
0.0 0.0 0.0 
-3.986878254618e-04 2.402262190639e-03 0.0 
2.402262190639e-03 1.292411587430e-02 0.0 
0.0 0.0 0.0 
-2.931938606285e-04 2.534230690893e-03 0.0 
2.534230690893e-03 1.317776807361e-02 0.0 
0.0 0.0 0.0 
-5.033221521635e-04 2.308151191970e-03 0.0 
2.308151191970e-03 1.263161232517e-02 0.0 
0.0 0.0 0.0 
3.636153220478e-04 2.077910997468e-03 0.0 
2.077910997468e-03 9.428570459456e-03 0.0 
0.0 0.0 0.0 
7.544842515434e-04 1.392175777153e-03 0.0 
1.392175777153e-03 5.698130765668e-03 0.0 
0.0 0.0 0.0 
-2.592124995219e-04 1.534879388444e-04 0.0 
1.534879388444e-04 1.191064924526e-03 0.0 
0.0 0.0 0.0 
-3.883432992369e-04 4.976346919171e-04 0.0 
4.976346919171e-04 1.383977801184e-03 0.0 
0.0 0.0 0.0 
-7.135570132477e-05 2.051765022995e-03 0.0 
2.051765022995e-03 8.906317907656e-03 0.0 
0.0 0.0 0.0 
-2.288620273617e-04 2.546957612668e-03 0.0 
2.546957612668e-03 1.451960550081e-02 0.0 
0.0 0.0 0.0 
-3.030645701165e-04 2.212363456547e-03 0.0 
2.212363456547e-03 1.525681094704e-02 0.0 
0.0 0.0 0.0 
7.068445901179e-04 7.933639267621e-04 0.0 
7.933639267621e-04 3.630307738783e-03 0.0 
0.0 0.0 0.0 
8.093823205491e-06 2.869947986058e-03 0.0 
2.869947986058e-03 1.251516790381e-02 0.0 
0.0 0.0 0.0 
-1.063870686133e-03 1.974560863038e-03 0.0 
1.974560863038e-03 1.188895381399e-02 0.0 
0.0 0.0 0.0 
4.087365095571e-04 3.796652521058e-04 0.0 
3.796652521058e-04 2.336511936793e-03 0.0 
0.0 0.0 0.0 
9.047635216523e-05 2.799188883063e-03 0.0 
2.799188883063e-03 1.171030789743e-02 0.0 
0.0 0.0 0.0 
-1.125460472076e-03 1.707726795030e-03 0.0 
1.707726795030e-03 1.449431888213e-02 0.0 
0.0 0.0 0.0 
-1.137032573105e-03 1.799678606094e-03 0.0 
1.799678606094e-03 1.405921611887e-02 0.0 
0.0 0.0 0.0 
-1.291336022400e-03 1.576038061797e-03 0.0 
1.576038061797e-03 1.428583844821e-02 0.0 
0.0 0.0 0.0 
-3.079755901484e-04 1.866425648157e-03 0.0 
1.866425648157e-03 1.576448487416e-02 0.0 
0.0 0.0 0.0 
-1.347503633386e-03 5.188524953106e-04 0.0 
5.188524953106e-04 1.472616432910e-02 0.0 
0.0 0.0 0.0 
1.836125037357e-04 2.442312394049e-03 0.0 
2.442312394049e-03 1.036762143093e-02 0.0 
0.0 0.0 0.0 
1.087021623658e-03 1.258251493368e-03 0.0 
1.258251493368e-03 6.328553573561e-03 0.0 
0.0 0.0 0.0 
1.062480758698e-03 1.320257754265e-03 0.0 
1.320257754265e-03 6.342427287525e-03 0.0 
0.0 0.0 0.0 
1.078493938397e-03 1.216419786521e-03 0.0 
1.216419786521e-03 5.863948365461e-03 0.0 
0.0 0.0 0.0 
-7.637269866583e-04 2.152218559222e-03 0.0 
2.152218559222e-03 1.350731930913e-02 0.0 
0.0 0.0 0.0 
2.380978821577e-04 1.888540016147e-03 0.0 
1.888540016147e-03 9.299924110132e-03 0.0 
0.0 0.0 0.0 
4.387341084744e-04 1.692556422638e-03 0.0 
1.692556422638e-03 8.702776238206e-03 0.0 
0.0 0.0 0.0 
4.324436824369e-04 1.566225485278e-03 0.0 
1.566225485278e-03 8.530439889601e-03 0.0 
0.0 0.0 0.0 
6.155501621811e-04 1.504611468344e-03 0.0 
1.504611468344e-03 8.092741122427e-03 0.0 
0.0 0.0 0.0 
2.340998434365e-04 1.606463218665e-03 0.0 
1.606463218665e-03 8.940832264060e-03 0.0 
0.0 0.0 0.0 
-1.276909640485e-04 2.771328484142e-03 0.0 
2.771328484142e-03 1.377304604649e-02 0.0 
0.0 0.0 0.0 
-7.755565672278e-05 2.839714133281e-03 0.0 
2.839714133281e-03 1.337421626463e-02 0.0 
0.0 0.0 0.0 
7.258802777996e-04 -9.151030033041e-05 0.0 
-9.151030033041e-05 2.394590097781e-03 0.0 
0.0 0.0 0.0 
8.279494710792e-04 1.134544071575e-05 0.0 
1.134544071575e-05 2.663852115933e-03 0.0 
0.0 0.0 0.0 
9.471042545089e-04 9.975686113894e-05 0.0 
9.975686113894e-05 3.061100423555e-03 0.0 
0.0 0.0 0.0 
9.176263985133e-04 1.338118251139e-04 0.0 
1.338118251139e-04 2.958693744266e-03 0.0 
0.0 0.0 0.0 
7.814743325674e-04 4.743119460211e-05 0.0 
4.743119460211e-05 2.559023847479e-03 0.0 
0.0 0.0 0.0 
8.722686954838e-04 1.808910883506e-04 0.0 
1.808910883506e-04 2.869097018803e-03 0.0 
0.0 0.0 0.0 
9.913542105865e-04 2.726380150059e-04 0.0 
2.726380150059e-04 3.279825574248e-03 0.0 
0.0 0.0 0.0 
8.096466194064e-04 2.443315061256e-04 0.0 
2.443315061256e-04 2.796424879194e-03 0.0 
0.0 0.0 0.0 
-1.820770958252e-04 2.453225138768e-03 0.0 
2.453225138768e-03 1.211561096965e-02 0.0 
0.0 0.0 0.0 
2.145058796114e-04 1.341154842564e-03 0.0 
1.341154842564e-03 8.680945782197e-03 0.0 
0.0 0.0 0.0 
1.012863975420e-03 4.596584401032e-04 0.0 
4.596584401032e-04 5.197955825667e-03 0.0 
0.0 0.0 0.0 
1.062119840339e-03 4.748599396187e-04 0.0 
4.748599396187e-04 5.041079902965e-03 0.0 
0.0 0.0 0.0 
1.080032561223e-03 3.664683742114e-04 0.0 
3.664683742114e-04 4.580157884204e-03 0.0 
0.0 0.0 0.0 
8.027329319658e-04 -2.325989391874e-05 0.0 
-2.325989391874e-05 3.587027499654e-03 0.0 
0.0 0.0 0.0 
8.520934554642e-04 2.237717333423e-05 0.0 
2.237717333423e-05 3.823954222175e-03 0.0 
0.0 0.0 0.0 
8.703247764207e-04 9.032726019952e-05 0.0 
9.032726019952e-05 4.247511246764e-03 0.0 
0.0 0.0 0.0 
7.511330684166e-04 -5.558076355574e-05 0.0 
-5.558076355574e-05 3.357712065946e-03 0.0 
0.0 0.0 0.0 
5.979134261858e-04 1.997583641143e-03 0.0 
1.997583641143e-03 8.698324756824e-03 0.0 
0.0 0.0 0.0 
2.063585922141e-04 1.211981154869e-03 0.0 
1.211981154869e-03 8.563199192709e-03 0.0 
0.0 0.0 0.0 
1.141909799991e-03 8.181669116008e-04 0.0 
8.181669116008e-04 5.514155792183e-03 0.0 
0.0 0.0 0.0 
8.686801778578e-04 7.859809743027e-06 0.0 
7.859809743027e-06 3.650214381791e-03 0.0 
0.0 0.0 0.0 
-1.328774290935e-03 2.486127508756e-04 0.0 
2.486127508756e-04 1.371651079421e-02 0.0 
0.0 0.0 0.0 
-1.486110590511e-03 5.191594964386e-04 0.0 
5.191594964386e-04 1.403791576506e-02 0.0 
0.0 0.0 0.0 
-1.598515196676e-03 7.547399631048e-04 0.0 
7.547399631048e-04 1.396283872316e-02 0.0 
0.0 0.0 0.0 
-1.550946573447e-03 8.370442496146e-04 0.0 
8.370442496146e-04 1.428030507447e-02 0.0 
0.0 0.0 0.0 
-1.392617741877e-03 3.617063332256e-04 0.0 
3.617063332256e-04 1.410951386081e-02 0.0 
0.0 0.0 0.0 
7.883570745925e-04 5.369568181406e-05 0.0 
5.369568181406e-05 4.365827813395e-03 0.0 
0.0 0.0 0.0 
7.654034845818e-04 5.677174596999e-05 0.0 
5.677174596999e-05 4.552900261220e-03 0.0 
0.0 0.0 0.0 
7.512391531209e-04 2.697446915107e-05 0.0 
2.697446915107e-05 4.314449853568e-03 0.0 
0.0 0.0 0.0 
7.428045270707e-04 5.395532533438e-05 0.0 
5.395532533438e-05 4.742145777338e-03 0.0 
0.0 0.0 0.0 
7.386903892207e-04 2.426331572922e-05 0.0 
2.426331572922e-05 4.491372143048e-03 0.0 
0.0 0.0 0.0 
7.383153134235e-04 5.283047366822e-06 0.0 
5.283047366822e-06 4.100363743190e-03 0.0 
0.0 0.0 0.0 
7.216359341819e-04 4.287551962086e-05 0.0 
4.287551962086e-05 4.925156341314e-03 0.0 
0.0 0.0 0.0 
7.247686629326e-04 2.000824666352e-05 0.0 
2.000824666352e-05 4.644685937917e-03 0.0 
0.0 0.0 0.0 
-1.156665748986e-03 8.604430508799e-05 0.0 
8.604430508799e-05 1.369528824655e-02 0.0 
0.0 0.0 0.0 
-6.579282769749e-04 -1.203951351676e-04 0.0 
-1.203951351676e-04 5.479278901774e-04 0.0 
0.0 0.0 0.0 
-3.520881581118e-04 -1.950406732759e-04 0.0 
-1.950406732759e-04 7.502438788919e-04 0.0 
0.0 0.0 0.0 
-3.116150773764e-04 -2.072081023423e-04 0.0 
-2.072081023423e-04 7.136831319704e-04 0.0 
0.0 0.0 0.0 
-1.095419392379e-04 -2.458245033499e-04 0.0 
-2.458245033499e-04 9.878494206295e-04 0.0 
0.0 0.0 0.0 
-1.118779552357e-04 -2.050712960622e-04 0.0 
-2.050712960622e-04 1.029870500044e-03 0.0 
0.0 0.0 0.0 
1.319911483933e-04 -2.310040835803e-04 0.0 
-2.310040835803e-04 1.309441628446e-03 0.0 
0.0 0.0 0.0 
8.866768722076e-05 -1.929012251053e-04 0.0 
-1.929012251053e-04 1.296984932517e-03 0.0 
0.0 0.0 0.0 
-3.913632816904e-04 -1.738471106210e-04 0.0 
-1.738471106210e-04 7.784674868181e-04 0.0 
0.0 0.0 0.0 
-4.978099241215e-04 -1.264817911566e-04 0.0 
-1.264817911566e-04 4.710474913778e-04 0.0 
0.0 0.0 0.0 
-2.520964106333e-04 -2.041551305243e-04 0.0 
-2.041551305243e-04 6.839713283941e-04 0.0 
0.0 0.0 0.0 
-4.110669608578e-04 -1.206042087855e-04 0.0 
-1.206042087855e-04 4.299906639391e-04 0.0 
0.0 0.0 0.0 
-1.995439026075e-04 -2.018266142118e-04 0.0 
-2.018266142118e-04 6.473958098310e-04 0.0 
0.0 0.0 0.0 
-1.661379386302e-05 -2.533823290501e-04 0.0 
-2.533823290501e-04 9.784020586446e-04 0.0 
0.0 0.0 0.0 
2.629056980076e-04 -2.474723457962e-04 0.0 
-2.474723457962e-04 1.403329834755e-03 0.0 
0.0 0.0 0.0 
1.566056810292e-04 2.783882679303e-04 0.0 
2.783882679303e-04 7.993523587214e-03 0.0 
0.0 0.0 0.0 
6.818263362605e-04 -9.159868196185e-06 0.0 
-9.159868196185e-06 3.475632686745e-03 0.0 
0.0 0.0 0.0 
6.639555742303e-04 -2.302530934261e-05 0.0 
-2.302530934261e-05 3.283101759656e-03 0.0 
0.0 0.0 0.0 
6.175014250099e-04 -3.475354147621e-05 0.0 
-3.475354147621e-05 2.906175309920e-03 0.0 
0.0 0.0 0.0 
6.495064010393e-04 -4.761201625703e-05 0.0 
-4.761201625703e-05 3.107783189676e-03 0.0 
0.0 0.0 0.0 
7.002752029266e-04 -9.878610173696e-06 0.0 
-9.878610173696e-06 3.636263944940e-03 0.0 
0.0 0.0 0.0 
5.803745246478e-04 -2.002468062553e-05 0.0 
-2.002468062553e-05 2.702438821765e-03 0.0 
0.0 0.0 0.0 
5.577045391669e-04 -4.256161701962e-05 0.0 
-4.256161701962e-05 2.564361592593e-03 0.0 
0.0 0.0 0.0 
8.476266301031e-05 -2.649568411988e-05 0.0 
-2.649568411988e-05 2.183085025435e-04 0.0 
0.0 0.0 0.0 
1.404789801807e-04 -4.387669381236e-05 0.0 
-4.387669381236e-05 5.099856137227e-04 0.0 
0.0 0.0 0.0 
1.349044721017e-04 -2.218714247077e-05 0.0 
-2.218714247077e-05 4.771040020209e-04 0.0 
0.0 0.0 0.0 
1.967454708267e-04 -3.859231619853e-05 0.0 
-3.859231619853e-05 8.362520526534e-04 0.0 
0.0 0.0 0.0 
1.896329738626e-04 -6.712064401288e-05 0.0 
-6.712064401288e-05 8.316016535738e-04 0.0 
0.0 0.0 0.0 
1.264449450187e-04 -6.013537044760e-05 0.0 
-6.013537044760e-05 5.193052145471e-04 0.0 
0.0 0.0 0.0 
1.054041487401e-04 -7.734111134636e-05 0.0 
-7.734111134636e-05 5.296752942437e-04 0.0 
0.0 0.0 0.0 
2.887106821892e-05 -5.137338311496e-05 0.0 
-5.137338311496e-05 2.419039022140e-04 0.0 
0.0 0.0 0.0 
8.294549729963e-05 -9.689143082110e-05 0.0 
-9.689143082110e-05 5.393302387687e-04 0.0 
0.0 0.0 0.0 
1.673550541254e-04 -1.116872867316e-04 0.0 
-1.116872867316e-04 8.592272895112e-04 0.0 
0.0 0.0 0.0 
-8.705413608294e-06 -6.177732238957e-05 0.0 
-6.177732238957e-05 2.487257603244e-04 0.0 
0.0 0.0 0.0 
-6.841233948309e-04 3.945610808154e-05 0.0 
3.945610808154e-05 1.544101579545e-02 0.0 
0.0 0.0 0.0 
-6.316804925621e-04 9.613212662972e-05 0.0 
9.613212662972e-05 1.563451048696e-02 0.0 
0.0 0.0 0.0 
2.011352461620e-04 9.715609137838e-04 0.0 
9.715609137838e-04 8.353557469010e-03 0.0 
0.0 0.0 0.0 
-1.055289436351e-03 3.353546137709e-05 0.0 
3.353546137709e-05 1.371711686626e-02 0.0 
0.0 0.0 0.0 
-2.530444090457e-04 -1.021154661641e-04 0.0 
-1.021154661641e-04 3.660676783097e-04 0.0 
0.0 0.0 0.0 
-2.258282720751e-04 4.317832458165e-04 0.0 
4.317832458165e-04 1.654221222808e-02 0.0 
0.0 0.0 0.0 
-2.463835818952e-04 8.167586764722e-04 0.0 
8.167586764722e-04 1.649368830604e-02 0.0 
0.0 0.0 0.0 
-2.156155392557e-04 6.888837340104e-04 0.0 
6.888837340104e-04 1.654007774577e-02 0.0 
0.0 0.0 0.0 
3.689552636054e-04 6.003017438918e-05 0.0 
6.003017438918e-05 7.138348177426e-03 0.0 
0.0 0.0 0.0 
3.125098074555e-04 1.212807004729e-04 0.0 
1.212807004729e-04 7.399648252137e-03 0.0 
0.0 0.0 0.0 
-1.944556609344e-04 2.408068141720e-04 0.0 
2.408068141720e-04 1.657115583265e-02 0.0 
0.0 0.0 0.0 
5.676389215489e-04 -1.930266768448e-04 0.0 
-1.930266768448e-04 2.257642931178e-03 0.0 
0.0 0.0 0.0 
-5.738521390632e-04 2.195812597112e-03 0.0 
2.195812597112e-03 1.468133542821e-02 0.0 
0.0 0.0 0.0 
-5.662825148074e-04 4.118936087207e-04 0.0 
4.118936087207e-04 1.604835401949e-02 0.0 
0.0 0.0 0.0 
2.552610583709e-04 5.214528119461e-04 0.0 
5.214528119461e-04 2.363338410420e-03 0.0 
0.0 0.0 0.0 
5.960112109434e-04 -2.116889235637e-04 0.0 
-2.116889235637e-04 2.196713259226e-03 0.0 
0.0 0.0 0.0 
6.634358147845e-04 1.072253638541e-04 0.0 
1.072253638541e-04 5.647631548110e-03 0.0 
0.0 0.0 0.0 
8.360681254514e-04 2.297668277049e-04 0.0 
2.297668277049e-04 5.136009602675e-03 0.0 
0.0 0.0 0.0 
5.093921922798e-04 2.636058595397e-04 0.0 
2.636058595397e-04 6.695067437439e-03 0.0 
0.0 0.0 0.0 
7.440009087400e-04 1.438128965131e-04 0.0 
1.438128965131e-04 5.247694054340e-03 0.0 
0.0 0.0 0.0 
6.385330407786e-04 3.360323948319e-04 0.0 
3.360323948319e-04 6.290107959359e-03 0.0 
0.0 0.0 0.0 
4.438950406293e-04 1.420527570186e-03 0.0 
1.420527570186e-03 8.316121507127e-03 0.0 
0.0 0.0 0.0 
3.052851736188e-04 -8.856074007299e-05 0.0 
-8.856074007299e-05 1.384596055012e-03 0.0 
0.0 0.0 0.0 
-1.076128454775e-03 2.482970049449e-04 0.0 
2.482970049449e-04 1.482578755594e-02 0.0 
0.0 0.0 0.0 
-9.487254397066e-04 1.152678643204e-04 0.0 
1.152678643204e-04 1.465399352559e-02 0.0 
0.0 0.0 0.0 
-8.215730166060e-04 3.531803626544e-04 0.0 
3.531803626544e-04 1.556093531771e-02 0.0 
0.0 0.0 0.0 
5.526830796287e-04 -1.387025341831e-04 0.0 
-1.387025341831e-04 2.369529058984e-03 0.0 
0.0 0.0 0.0 
7.420474961624e-04 -3.575486644484e-06 0.0 
-3.575486644484e-06 3.909327717007e-03 0.0 
0.0 0.0 0.0 
3.126878587861e-04 -1.923967748810e-04 0.0 
-1.923967748810e-04 1.483005972663e-03 0.0 
0.0 0.0 0.0 
1.338224384394e-04 2.664095773676e-03 0.0 
2.664095773676e-03 1.151885612787e-02 0.0 
0.0 0.0 0.0 
-4.677407166192e-04 2.107031504793e-03 0.0 
2.107031504793e-03 1.002561817345e-02 0.0 
0.0 0.0 0.0 
1.043974758863e-03 2.515530226099e-04 0.0 
2.515530226099e-04 4.281210303859e-03 0.0 
0.0 0.0 0.0 
7.521780691288e-04 -7.807246359421e-05 0.0 
-7.807246359421e-05 3.184820075702e-03 0.0 
0.0 0.0 0.0 
6.480848630773e-04 -1.761941203770e-04 0.0 
-1.761941203770e-04 2.475018999608e-03 0.0 
0.0 0.0 0.0 
5.558884414298e-04 -2.224017133150e-04 0.0 
-2.224017133150e-04 2.058046151881e-03 0.0 
0.0 0.0 0.0 
6.779085741949e-04 1.558787160179e-03 0.0 
1.558787160179e-03 6.317888672434e-03 0.0 
0.0 0.0 0.0 
9.222747933952e-04 7.261992991504e-05 0.0 
7.261992991504e-05 3.898153789351e-03 0.0 
0.0 0.0 0.0 
8.187232100442e-04 5.183067442301e-04 0.0 
5.183067442301e-04 6.024115756488e-03 0.0 
0.0 0.0 0.0 
-7.126951645269e-04 3.355110945028e-04 0.0 
3.355110945028e-04 1.573802315270e-02 0.0 
0.0 0.0 0.0 
-1.234719336493e-04 -8.958100805466e-05 0.0 
-8.958100805466e-05 3.434991861839e-04 0.0 
0.0 0.0 0.0 
7.920150773501e-04 6.377060243197e-04 0.0 
6.377060243197e-04 6.351186838845e-03 0.0 
0.0 0.0 0.0 
9.296851592087e-04 2.401956965008e-04 0.0 
2.401956965008e-04 4.773325612615e-03 0.0 
0.0 0.0 0.0 
-1.258884801950e-03 5.097604669096e-04 0.0 
5.097604669096e-04 1.494190097128e-02 0.0 
0.0 0.0 0.0 
9.117418013433e-04 1.444769510263e-03 0.0 
1.444769510263e-03 7.350902907802e-03 0.0 
0.0 0.0 0.0 
2.441419934948e-04 -2.525938170913e-04 0.0 
-2.525938170913e-04 1.455974293884e-03 0.0 
0.0 0.0 0.0 
-9.339689621904e-04 6.310822417528e-04 0.0 
6.310822417528e-04 1.564922181040e-02 0.0 
0.0 0.0 0.0 
-7.286590041534e-04 1.389644845954e-03 0.0 
1.389644845954e-03 1.577445546977e-02 0.0 
0.0 0.0 0.0 
-1.424152816921e-03 5.424337568624e-04 0.0 
5.424337568624e-04 1.450551142374e-02 0.0 
0.0 0.0 0.0 
1.982493763891e-04 -1.805352378946e-04 0.0 
-1.805352378946e-04 1.125077975851e-03 0.0 
0.0 0.0 0.0 
-1.086667287794e-03 1.430074333650e-04 0.0 
1.430074333650e-04 1.442552749749e-02 0.0 
0.0 0.0 0.0 
5.196497333542e-04 1.005852844606e-03 0.0 
1.005852844606e-03 7.616648012852e-03 0.0 
0.0 0.0 0.0 
-1.187323341760e-03 1.387282963956e-03 0.0 
1.387282963956e-03 1.501006219330e-02 0.0 
0.0 0.0 0.0 
4.946442213140e-04 -1.297662163162e-04 0.0 
-1.297662163162e-04 2.160100336564e-03 0.0 
0.0 0.0 0.0 
1.177356186226e-03 7.462496607703e-04 0.0 
7.462496607703e-04 4.970759481307e-03 0.0 
0.0 0.0 0.0 
2.806627103885e-04 1.908450728907e-03 0.0 
1.908450728907e-03 7.874215415411e-03 0.0 
0.0 0.0 0.0 
-1.629237174130e-03 1.338353770288e-03 0.0 
1.338353770288e-03 1.270130189855e-02 0.0 
0.0 0.0 0.0 
-5.235489250544e-04 5.262850773060e-04 0.0 
5.262850773060e-04 1.616269241553e-02 0.0 
0.0 0.0 0.0 
9.447131697571e-04 1.462159027859e-03 0.0 
1.462159027859e-03 6.464294610772e-03 0.0 
0.0 0.0 0.0 
8.034209531861e-04 1.359197343714e-03 0.0 
1.359197343714e-03 7.480552671301e-03 0.0 
0.0 0.0 0.0 
1.118419203449e-03 9.809682628059e-04 0.0 
9.809682628059e-04 5.927932568351e-03 0.0 
0.0 0.0 0.0 
5.230773470699e-04 -9.805470827670e-05 0.0 
-9.805470827670e-05 2.327564217739e-03 0.0 
0.0 0.0 0.0 
6.322691298023e-04 5.656811340430e-04 0.0 
5.656811340430e-04 6.718900651307e-03 0.0 
0.0 0.0 0.0 
1.121516635486e-03 1.040937691664e-03 0.0 
1.040937691664e-03 5.367834572233e-03 0.0 
0.0 0.0 0.0 
-7.720426758381e-04 7.632790383820e-04 0.0 
7.632790383820e-04 1.592933020033e-02 0.0 
0.0 0.0 0.0 
2.010516077884e-04 2.254570217090e-03 0.0 
2.254570217090e-03 1.019514133135e-02 0.0 
0.0 0.0 0.0 
1.085160007340e-03 5.900555889870e-04 0.0 
5.900555889870e-04 4.020151700736e-03 0.0 
0.0 0.0 0.0 
-1.021605713814e-03 1.034431449723e-03 0.0 
1.034431449723e-03 1.558388579002e-02 0.0 
0.0 0.0 0.0 
1.109598553068e-03 3.821801618435e-04 0.0 
3.821801618435e-04 4.442079836895e-03 0.0 
0.0 0.0 0.0 
8.216475151324e-04 1.623634056999e-03 0.0 
1.623634056999e-03 7.853000731311e-03 0.0 
0.0 0.0 0.0 
-3.002929976095e-04 2.064423281601e-03 0.0 
2.064423281601e-03 9.286512587090e-03 0.0 
0.0 0.0 0.0 
1.971542889839e-04 2.121767035579e-03 0.0 
2.121767035579e-03 9.371838993087e-03 0.0 
0.0 0.0 0.0 
-4.686233520853e-04 2.247302925810e-03 0.0 
2.247302925810e-03 1.171260503302e-02 0.0 
0.0 0.0 0.0 
6.321766440349e-04 1.841549709222e-03 0.0 
1.841549709222e-03 7.812606631980e-03 0.0 
0.0 0.0 0.0 
6.811977058187e-04 6.373408041980e-05 0.0 
6.373408041980e-05 5.387641528960e-03 0.0 
0.0 0.0 0.0 
7.122791214288e-04 6.052290517984e-04 0.0 
6.052290517984e-04 6.531783920546e-03 0.0 
0.0 0.0 0.0 
3.126080473541e-04 -2.390291588546e-05 0.0 
-2.390291588546e-05 1.698931740317e-03 0.0 
0.0 0.0 0.0 
4.718527763591e-04 1.437370769485e-03 0.0 
1.437370769485e-03 5.486222021519e-03 0.0 
0.0 0.0 0.0 
-1.388009615235e-03 7.313771357093e-04 0.0 
7.313771357093e-04 1.481832305615e-02 0.0 
0.0 0.0 0.0 
3.562940565949e-04 2.335339904492e-03 0.0 
2.335339904492e-03 1.021162868029e-02 0.0 
0.0 0.0 0.0 
-5.670791319479e-04 8.832629725288e-04 0.0 
8.832629725288e-04 1.617908114154e-02 0.0 
0.0 0.0 0.0 
2.059986232608e-04 1.851928221379e-03 0.0 
1.851928221379e-03 7.481257816978e-03 0.0 
0.0 0.0 0.0 
6.743261492519e-04 4.597794393878e-04 0.0 
4.597794393878e-04 6.395794084674e-03 0.0 
0.0 0.0 0.0 
-8.132302312080e-04 1.185284867863e-03 0.0 
1.185284867863e-03 1.580922032894e-02 0.0 
0.0 0.0 0.0 
8.978817586410e-04 8.185695911284e-05 0.0 
8.185695911284e-05 4.069909094156e-03 0.0 
0.0 0.0 0.0 
3.595681779766e-04 -2.891847793299e-05 0.0 
-2.891847793299e-05 1.597438729958e-03 0.0 
0.0 0.0 0.0 
-5.534069534889e-06 5.219313386512e-04 0.0 
5.219313386512e-04 1.993829433995e-03 0.0 
0.0 0.0 0.0 
8.790652311004e-04 4.060538625676e-04 0.0 
4.060538625676e-04 3.162739093412e-03 0.0 
0.0 0.0 0.0 
1.016029394472e-03 1.293358685165e-03 0.0 
1.293358685165e-03 5.917561292012e-03 0.0 
0.0 0.0 0.0 
9.031416418575e-04 1.583455036573e-04 0.0 
1.583455036573e-04 4.503525068385e-03 0.0 
0.0 0.0 0.0 
-5.808954243447e-04 1.959453046502e-03 0.0 
1.959453046502e-03 1.525370217340e-02 0.0 
0.0 0.0 0.0 
6.020025715473e-04 4.270626444115e-04 0.0 
4.270626444115e-04 6.591645023542e-03 0.0 
0.0 0.0 0.0 
9.071064423456e-04 8.352270570013e-04 0.0 
8.352270570013e-04 6.381586758533e-03 0.0 
0.0 0.0 0.0 
-7.920181181857e-04 1.041480388434e-03 0.0 
1.041480388434e-03 1.716828891507e-03 0.0 
0.0 0.0 0.0 
-1.382525934100e-03 1.712155032969e-03 0.0 
1.712155032969e-03 1.212249622201e-02 0.0 
0.0 0.0 0.0 
5.293049540637e-04 3.883889951682e-04 0.0 
3.883889951682e-04 6.795221091466e-03 0.0 
0.0 0.0 0.0 
1.169490848407e-03 7.007817197481e-04 0.0 
7.007817197481e-04 5.040197077907e-03 0.0 
0.0 0.0 0.0 
7.792003723999e-04 1.573354917520e-03 0.0 
1.573354917520e-03 7.870868986580e-03 0.0 
0.0 0.0 0.0 
7.316111205847e-04 8.569805708514e-06 0.0 
8.569805708514e-06 4.236141546097e-03 0.0 
0.0 0.0 0.0 
1.932808918745e-04 2.602896055656e-03 0.0 
2.602896055656e-03 1.110512267225e-02 0.0 
0.0 0.0 0.0 
-7.881017094531e-04 1.852095302597e-03 0.0 
1.852095302597e-03 9.133973853460e-03 0.0 
0.0 0.0 0.0 
4.561155864026e-04 3.435364295027e-04 0.0 
3.435364295027e-04 7.010526840965e-03 0.0 
0.0 0.0 0.0 
9.355976353287e-04 1.026836995486e-03 0.0 
1.026836995486e-03 6.628380016017e-03 0.0 
0.0 0.0 0.0 
7.118616426899e-04 9.763048036459e-04 0.0 
9.763048036459e-04 4.134314735449e-03 0.0 
0.0 0.0 0.0 
-9.344863250412e-04 4.441436281131e-06 0.0 
4.441436281131e-06 1.362198527506e-02 0.0 
0.0 0.0 0.0 
2.947050590263e-04 3.842947580211e-04 0.0 
3.842947580211e-04 7.610599841259e-03 0.0 
0.0 0.0 0.0 
7.973341941877e-04 1.148620469566e-03 0.0 
1.148620469566e-03 7.171766814400e-03 0.0 
0.0 0.0 0.0 
6.243913212484e-04 1.915291905037e-03 0.0 
1.915291905037e-03 8.252729317121e-03 0.0 
0.0 0.0 0.0 
1.158492146019e-03 5.471374795691e-04 0.0 
5.471374795691e-04 4.666127327325e-03 0.0 
0.0 0.0 0.0 
-1.320831138386e-03 1.736521327708e-03 0.0 
1.736521327708e-03 1.125166775973e-02 0.0 
0.0 0.0 0.0 
8.651413564362e-04 1.598017992764e-04 0.0 
1.598017992764e-04 4.683942146027e-03 0.0 
0.0 0.0 0.0 
3.719949678939e-05 2.199938947880e-03 0.0 
2.199938947880e-03 1.005391193694e-02 0.0 
0.0 0.0 0.0 
-2.951831413978e-04 1.685899811551e-03 0.0 
1.685899811551e-03 1.596187561817e-02 0.0 
0.0 0.0 0.0 
7.180063483383e-04 1.307988871630e-03 0.0 
1.307988871630e-03 7.577424899607e-03 0.0 
0.0 0.0 0.0 
-1.287034773401e-03 1.689848956092e-03 0.0 
1.689848956092e-03 1.385138666767e-02 0.0 
0.0 0.0 0.0 
8.404086472326e-04 9.645505676145e-05 0.0 
9.645505676145e-05 4.427389428308e-03 0.0 
0.0 0.0 0.0 
9.352801353461e-04 1.597320554652e-03 0.0 
1.597320554652e-03 7.354652408825e-03 0.0 
0.0 0.0 0.0 
1.810512357450e-04 -9.285893465866e-05 0.0 
-9.285893465866e-05 8.390315995241e-04 0.0 
0.0 0.0 0.0 
-1.047051643898e-03 1.894875636781e-03 0.0 
1.894875636781e-03 1.066920195445e-02 0.0 
0.0 0.0 0.0 
8.088683612589e-04 9.959490114620e-05 0.0 
9.959490114620e-05 4.611363391747e-03 0.0 
0.0 0.0 0.0 
9.448461057588e-04 3.310580731168e-04 0.0 
3.310580731168e-04 3.209647713885e-03 0.0 
0.0 0.0 0.0 
1.135753472618e-03 5.162040857101e-04 0.0 
5.162040857101e-04 4.771708665656e-03 0.0 
0.0 0.0 0.0 
4.508650653641e-04 2.127747200603e-03 0.0 
2.127747200603e-03 9.414240000058e-03 0.0 
0.0 0.0 0.0 
7.769007652438e-04 9.904163734282e-05 0.0 
9.904163734282e-05 4.799653824866e-03 0.0 
0.0 0.0 0.0 
1.047958836378e-03 4.258223312414e-04 0.0 
4.258223312414e-04 3.632234633840e-03 0.0 
0.0 0.0 0.0 
7.448458350442e-04 9.365711834228e-05 0.0 
9.365711834228e-05 4.990856861680e-03 0.0 
0.0 0.0 0.0 
-1.074518846722e-03 1.720323214951e-03 0.0 
1.720323214951e-03 9.726466048077e-03 0.0 
0.0 0.0 0.0 
-1.105982662595e-03 1.898818227523e-03 0.0 
1.898818227523e-03 1.357257003584e-02 0.0 
0.0 0.0 0.0 
7.139728322062e-04 8.101177675103e-05 0.0 
8.101177675103e-05 5.183414595342e-03 0.0 
0.0 0.0 0.0 
5.205274144275e-05 2.259077410610e-03 0.0 
2.259077410610e-03 1.044702797838e-02 0.0 
0.0 0.0 0.0 
1.520618413333e-04 -1.428770361773e-04 0.0 
-1.428770361773e-04 8.996971864937e-04 0.0 
0.0 0.0 0.0 
7.223924021408e-04 1.859988323159e-03 0.0 
1.859988323159e-03 8.086599819000e-03 0.0 
0.0 0.0 0.0 
4.374041577315e-04 1.112349127313e-04 0.0 
1.112349127313e-04 6.866036788675e-03 0.0 
0.0 0.0 0.0 
8.137514018367e-04 -9.324127222932e-05 0.0 
-9.324127222932e-05 2.933510970424e-03 0.0 
0.0 0.0 0.0 
1.103358719211e-03 4.929223379978e-04 0.0 
4.929223379978e-04 4.896726713915e-03 0.0 
0.0 0.0 0.0 
-9.565134740594e-04 1.993497491100e-03 0.0 
1.993497491100e-03 1.379555120857e-02 0.0 
0.0 0.0 0.0 
-1.005345651251e-03 1.663787589933e-03 0.0 
1.663787589933e-03 8.307137547558e-03 0.0 
0.0 0.0 0.0 
1.068656380989e-03 6.055935602017e-04 0.0 
6.055935602017e-04 5.369799071824e-03 0.0 
0.0 0.0 0.0 
5.958410130695e-05 2.334800651083e-03 0.0 
2.334800651083e-03 1.084647984061e-02 0.0 
0.0 0.0 0.0 
7.939446769554e-04 1.809557874262e-03 0.0 
1.809557874262e-03 7.967924099810e-03 0.0 
0.0 0.0 0.0 
1.015444948658e-03 1.388020170083e-03 0.0 
1.388020170083e-03 6.384421156632e-03 0.0 
0.0 0.0 0.0 
1.004759691267e-03 7.206143812759e-04 0.0 
7.206143812759e-04 5.864690321832e-03 0.0 
0.0 0.0 0.0 
-6.648971989639e-04 1.765460402396e-03 0.0 
1.765460402396e-03 7.674405756031e-03 0.0 
0.0 0.0 0.0 
5.352049324562e-04 -2.160678974479e-04 0.0 
-2.160678974479e-04 2.108509012532e-03 0.0 
0.0 0.0 0.0 
4.069801113091e-04 -2.416153166189e-04 0.0 
-2.416153166189e-04 1.753857096936e-03 0.0 
0.0 0.0 0.0 
1.079566182102e-03 3.712981863612e-04 0.0 
3.712981863612e-04 3.699174237784e-03 0.0 
0.0 0.0 0.0 
-7.281919225470e-05 2.400524663773e-03 0.0 
2.400524663773e-03 1.149588773982e-02 0.0 
0.0 0.0 0.0 
2.550540227563e-04 -6.586019239562e-05 0.0 
-6.586019239562e-05 1.149711326714e-03 0.0 
0.0 0.0 0.0 
-7.007175401393e-04 2.200083665281e-03 0.0 
2.200083665281e-03 1.294585365658e-02 0.0 
0.0 0.0 0.0 
1.937465516574e-04 -2.614709377733e-04 0.0 
-2.614709377733e-04 1.272999694833e-03 0.0 
0.0 0.0 0.0 
1.020927446052e-03 2.280897673879e-04 0.0 
2.280897673879e-04 3.365915386490e-03 0.0 
0.0 0.0 0.0 
7.502470562463e-04 1.883149902190e-03 0.0 
1.883149902190e-03 8.411141113032e-03 0.0 
0.0 0.0 0.0 
-8.351826292292e-04 1.330996972683e-05 0.0 
1.330996972683e-05 1.472303331575e-02 0.0 
0.0 0.0 0.0 
1.036274941503e-03 1.955436937373e-04 0.0 
1.955436937373e-04 3.466375222552e-03 0.0 
0.0 0.0 0.0 
4.378879102515e-04 -2.633982286350e-05 0.0 
-2.633982286350e-05 1.966146672654e-03 0.0 
0.0 0.0 0.0 
9.639817136974e-04 7.686100676785e-05 0.0 
7.686100676785e-05 3.174945703337e-03 0.0 
0.0 0.0 0.0 
9.888058397161e-04 1.487872599784e-03 0.0 
1.487872599784e-03 6.861736514044e-03 0.0 
0.0 0.0 0.0 
9.703926856982e-04 6.426754748655e-05 0.0 
6.426754748655e-05 3.300708576378e-03 0.0 
0.0 0.0 0.0 
8.914672485103e-04 -2.788147301197e-05 0.0 
-2.788147301197e-05 3.039827432120e-03 0.0 
0.0 0.0 0.0 
-3.937344351454e-04 4.809389109393e-04 0.0 
4.809389109393e-04 1.632698460712e-02 0.0 
0.0 0.0 0.0 
8.940107232300e-04 -2.517867222807e-05 0.0 
-2.517867222807e-05 3.179064129564e-03 0.0 
0.0 0.0 0.0 
-1.610702326986e-04 1.375070864417e-04 0.0 
1.375070864417e-04 1.662471931070e-02 0.0 
0.0 0.0 0.0 
1.477585891674e-04 1.245546857068e-04 0.0 
1.245546857068e-04 8.003145668625e-03 0.0 
0.0 0.0 0.0 
-9.131800843521e-04 -1.740201144577e-06 0.0 
-1.740201144577e-06 1.392974478318e-02 0.0 
0.0 0.0 0.0 
-1.036040514421e-03 1.659595353240e-03 0.0 
1.659595353240e-03 7.027253351025e-03 0.0 
0.0 0.0 0.0 
-8.257770227738e-04 6.958129112897e-06 0.0 
6.958129112897e-06 6.575806285396e-04 0.0 
0.0 0.0 0.0 
-5.281193715092e-04 1.607053578061e-03 0.0 
1.607053578061e-03 6.129448953144e-03 0.0 
0.0 0.0 0.0 
7.157940829919e-04 -1.584273020421e-04 0.0 
-1.584273020421e-04 2.558717705782e-03 0.0 
0.0 0.0 0.0 
-4.010584274833e-04 2.309116532002e-03 0.0 
2.309116532002e-03 1.202765313365e-02 0.0 
0.0 0.0 0.0 
-9.183301718229e-04 1.154515072525e-05 0.0 
1.154515072525e-05 1.395269527818e-02 0.0 
0.0 0.0 0.0 
6.241487691960e-04 -1.954770697362e-04 0.0 
-1.954770697362e-04 2.333052414970e-03 0.0 
0.0 0.0 0.0 
-2.731892668106e-04 2.581180422167e-03 0.0 
2.581180422167e-03 1.367282785739e-02 0.0 
0.0 0.0 0.0 
1.410445777584e-04 2.651210138678e-03 0.0 
2.651210138678e-03 1.099019673215e-02 0.0 
0.0 0.0 0.0 
-7.377871951895e-04 7.347553609310e-05 0.0 
7.347553609310e-05 1.527377488930e-02 0.0 
0.0 0.0 0.0 
7.094875497973e-04 1.526205152740e-03 0.0 
1.526205152740e-03 7.916891045915e-03 0.0 
0.0 0.0 0.0 
8.375128175938e-04 1.763255888027e-03 0.0 
1.763255888027e-03 7.901256917368e-03 0.0 
0.0 0.0 0.0 
-4.538501426412e-04 6.245481461150e-05 0.0 
6.245481461150e-05 1.607662826188e-02 0.0 
0.0 0.0 0.0 
-9.680996690681e-04 -1.633021133601e-06 0.0 
-1.633021133601e-06 1.360490482911e-02 0.0 
0.0 0.0 0.0 
-1.516991447113e-04 -1.876533216135e-04 0.0 
-1.876533216135e-04 6.223658081242e-04 0.0 
0.0 0.0 0.0 
6.451956074475e-04 3.626074878404e-05 0.0 
3.626074878404e-05 5.626450803321e-03 0.0 
0.0 0.0 0.0 
-1.017785641007e-03 1.593392132350e-03 0.0 
1.593392132350e-03 5.626631247044e-03 0.0 
0.0 0.0 0.0 
-5.384037960708e-04 1.454271502427e-03 0.0 
1.454271502427e-03 4.665785961919e-03 0.0 
0.0 0.0 0.0 
-4.905725847994e-04 1.243958969451e-03 0.0 
1.243958969451e-03 3.348182275034e-03 0.0 
0.0 0.0 0.0 
5.407601881901e-04 -7.003200531366e-05 0.0 
-7.003200531366e-05 2.459150032793e-03 0.0 
0.0 0.0 0.0 
-8.298033788543e-05 -2.488916234403e-04 0.0 
-2.488916234403e-04 9.568404982877e-04 0.0 
0.0 0.0 0.0 
-9.100112336273e-04 1.490259630302e-03 0.0 
1.490259630302e-03 4.327243850066e-03 0.0 
0.0 0.0 0.0 
4.387719255284e-04 1.800830492685e-03 0.0 
1.800830492685e-03 8.857897796376e-03 0.0 
0.0 0.0 0.0 
-1.145835266409e-03 1.068446002572e-04 0.0 
1.068446002572e-04 1.403660808304e-02 0.0 
0.0 0.0 0.0 
6.378638917736e-04 2.032284851477e-03 0.0 
2.032284851477e-03 8.948650532328e-03 0.0 
0.0 0.0 0.0 
-8.543002828660e-04 1.329000602115e-03 0.0 
1.329000602115e-03 2.979871262260e-03 0.0 
0.0 0.0 0.0 
-5.688921225624e-04 1.327789007761e-03 0.0 
1.327789007761e-03 1.599670321889e-02 0.0 
0.0 0.0 0.0 
3.515582793839e-04 2.340104135395e-03 0.0 
2.340104135395e-03 1.002209879737e-02 0.0 
0.0 0.0 0.0 
1.675842089605e-04 7.347998389282e-04 0.0 
7.347998389282e-04 8.254001124670e-03 0.0 
0.0 0.0 0.0 
5.201464798513e-04 2.168123919745e-03 0.0 
2.168123919745e-03 9.449718774913e-03 0.0 
0.0 0.0 0.0 
-4.810936884644e-04 9.351422039927e-04 0.0 
9.351422039927e-04 2.152718376254e-03 0.0 
0.0 0.0 0.0 
-1.489463830045e-03 6.009398349818e-04 0.0 
6.009398349818e-04 1.432305588170e-02 0.0 
0.0 0.0 0.0 
5.842465746701e-05 2.694517052887e-03 0.0 
2.694517052887e-03 1.193018051161e-02 0.0 
0.0 0.0 0.0 
-6.848525202516e-04 1.365206087836e-04 0.0 
1.365206087836e-04 1.555896640498e-02 0.0 
0.0 0.0 0.0 
1.511377461494e-04 5.822524438107e-04 0.0 
5.822524438107e-04 8.200379157251e-03 0.0 
0.0 0.0 0.0 
-1.281637633001e-03 2.106955842992e-04 0.0 
2.106955842992e-04 1.400937281179e-02 0.0 
0.0 0.0 0.0 
-3.214347593299e-04 3.114019295199e-04 0.0 
3.114019295199e-04 1.638213030056e-02 0.0 
0.0 0.0 0.0 
1.939093689341e-04 -1.297906327057e-04 0.0 
-1.297906327057e-04 1.448127006481e-03 0.0 
0.0 0.0 0.0 
-2.954575387754e-04 1.599210924412e-04 0.0 
1.599210924412e-04 1.639223240306e-02 0.0 
0.0 0.0 0.0 
-3.316793791130e-04 2.390469425032e-03 0.0 
2.390469425032e-03 1.235406159307e-02 0.0 
0.0 0.0 0.0 
-9.325842108594e-04 7.557910160438e-05 0.0 
7.557910160438e-05 1.447053963456e-02 0.0 
0.0 0.0 0.0 
-1.595073045611e-03 1.028484427422e-03 0.0 
1.028484427422e-03 1.404898786764e-02 0.0 
0.0 0.0 0.0 
2.428334386190e-04 1.920876536609e-04 0.0 
1.920876536609e-04 7.658439864203e-03 0.0 
0.0 0.0 0.0 
-4.371791887317e-04 2.347444987181e-03 0.0 
2.347444987181e-03 1.449745704734e-02 0.0 
0.0 0.0 0.0 
-4.830533579452e-04 7.172220413883e-04 0.0 
7.172220413883e-04 1.592595916498e-03 0.0 
0.0 0.0 0.0 
-7.655886093530e-04 1.161884463685e-04 0.0 
1.161884463685e-04 1.526088460914e-02 0.0 
0.0 0.0 0.0 
6.666436499410e-04 -6.000780196522e-05 0.0 
-6.000780196522e-05 3.108976157035e-03 0.0 
0.0 0.0 0.0 
-4.755087663821e-04 -1.240658575136e-04 0.0 
-1.240658575136e-04 7.741605302618e-04 0.0 
0.0 0.0 0.0 
3.530186127176e-04 8.753481658199e-04 0.0 
8.753481658199e-04 7.874252363062e-03 0.0 
0.0 0.0 0.0 
-2.581519186870e-04 2.485923383289e-03 0.0 
2.485923383289e-03 1.267009845174e-02 0.0 
0.0 0.0 0.0 
2.603355239225e-04 3.231958796072e-04 0.0 
3.231958796072e-04 7.651767906334e-03 0.0 
0.0 0.0 0.0 
1.946754030488e-04 -1.912332476778e-05 0.0 
-1.912332476778e-05 8.217979555928e-04 0.0 
0.0 0.0 0.0 
-7.117589433787e-05 -1.517706699579e-04 0.0 
-1.517706699579e-04 5.483290858754e-04 0.0 
0.0 0.0 0.0 
3.577850754786e-04 1.092122789058e-03 0.0 
1.092122789058e-03 8.114910907469e-03 0.0 
0.0 0.0 0.0 
-1.127710684223e-04 2.707266273605e-03 0.0 
2.707266273605e-03 1.289881040998e-02 0.0 
0.0 0.0 0.0 
2.873523402659e-04 -1.654180905511e-04 0.0 
-1.654180905511e-04 1.587774424497e-03 0.0 
0.0 0.0 0.0 
-2.347799848977e-04 1.152204447322e-03 0.0 
1.152204447322e-03 1.639011036785e-02 0.0 
0.0 0.0 0.0 
-6.026303893352e-04 5.292468197171e-04 0.0 
5.292468197171e-04 1.080660700243e-03 0.0 
0.0 0.0 0.0 
-1.003552088456e-03 9.246555814722e-06 0.0 
9.246555814722e-06 1.357375467010e-02 0.0 
0.0 0.0 0.0 
4.047605372441e-05 -1.115662022176e-04 0.0 
-1.115662022176e-04 5.262149500741e-04 0.0 
0.0 0.0 0.0 
1.413897779640e-04 4.279719686946e-04 0.0 
4.279719686946e-04 8.142380249147e-03 0.0 
0.0 0.0 0.0 
-4.372457166280e-04 8.162074144270e-04 0.0 
8.162074144270e-04 1.630320893665e-02 0.0 
0.0 0.0 0.0 
6.926642272008e-04 -2.027109909588e-05 0.0 
-2.027109909588e-05 3.456151893455e-03 0.0 
0.0 0.0 0.0 
-1.558782556680e-03 6.587028707508e-04 0.0 
6.587028707508e-04 1.364404229950e-02 0.0 
0.0 0.0 0.0 
4.877050823661e-04 -4.976502943522e-05 0.0 
-4.976502943522e-05 2.217823790753e-03 0.0 
0.0 0.0 0.0 
3.015596412574e-04 2.463449886151e-03 0.0 
2.463449886151e-03 1.056360937552e-02 0.0 
0.0 0.0 0.0 
-4.700826672661e-05 -2.355058888277e-04 0.0 
-2.355058888277e-04 8.629544303306e-04 0.0 
0.0 0.0 0.0 
-3.656895948856e-04 5.842874643657e-04 0.0 
5.842874643657e-04 1.638462367342e-02 0.0 
0.0 0.0 0.0 
3.728694955095e-04 1.330697507823e-03 0.0 
1.330697507823e-03 8.356216011495e-03 0.0 
0.0 0.0 0.0 
-5.254756223606e-04 1.845742088657e-03 0.0 
1.845742088657e-03 1.553758040157e-02 0.0 
0.0 0.0 0.0 
1.764730164783e-04 2.216100472582e-03 0.0 
2.216100472582e-03 9.914980679283e-03 0.0 
0.0 0.0 0.0 
-5.436441053927e-04 1.192113734070e-04 0.0 
1.192113734070e-04 8.534108563766e-04 0.0 
0.0 0.0 0.0 
2.687707997505e-04 2.479202633398e-03 0.0 
2.479202633398e-03 1.046305785221e-02 0.0 
0.0 0.0 0.0 
5.763274653880e-04 1.422431364185e-03 0.0 
1.422431364185e-03 8.043582054075e-03 0.0 
0.0 0.0 0.0 
-9.501557813933e-04 1.218827595641e-05 0.0 
1.218827595641e-05 1.359426908843e-02 0.0 
0.0 0.0 0.0 
-4.945805009291e-04 2.132613575945e-03 0.0 
2.132613575945e-03 1.500275021661e-02 0.0 
0.0 0.0 0.0 
5.952389867042e-04 -5.308901344303e-05 0.0 
-5.308901344303e-05 2.763017795029e-03 0.0 
0.0 0.0 0.0 
2.296488122247e-04 -1.441585524784e-04 0.0 
-1.441585524784e-04 1.143369355876e-03 0.0 
0.0 0.0 0.0 
-1.298570850529e-04 6.560760070442e-05 0.0 
6.560760070442e-05 1.665996145984e-02 0.0 
0.0 0.0 0.0 
8.777734947545e-05 -7.542682471443e-06 0.0 
-7.542682471443e-06 1.524589101072e-04 0.0 
0.0 0.0 0.0 
-9.336911783163e-04 -5.001991485343e-06 0.0 
-5.001991485343e-06 1.355619887150e-02 0.0 
0.0 0.0 0.0 
1.114670459124e-04 6.455760081908e-05 0.0 
6.455760081908e-05 8.112180547321e-03 0.0 
0.0 0.0 0.0 
2.396697208420e-04 -8.723966695337e-05 0.0 
-8.723966695337e-05 1.078743415268e-03 0.0 
0.0 0.0 0.0 
-8.957300592766e-04 1.293707768089e-05 0.0 
1.293707768089e-05 1.423285234886e-02 0.0 
0.0 0.0 0.0 
-1.814722532832e-04 2.670288232039e-03 0.0 
2.670288232039e-03 1.332360142744e-02 0.0 
0.0 0.0 0.0 
7.220465072018e-04 6.718958260485e-06 0.0 
6.718958260485e-06 4.348842035097e-03 0.0 
0.0 0.0 0.0 
-5.345299159778e-04 9.855003557394e-05 0.0 
9.855003557394e-05 1.589201115452e-02 0.0 
0.0 0.0 0.0 
6.825675841513e-05 -2.577516743608e-04 0.0 
-2.577516743608e-04 1.176993947599e-03 0.0 
0.0 0.0 0.0 
-8.425968795415e-04 -5.961699831818e-05 0.0 
-5.961699831818e-05 5.844929778749e-04 0.0 
0.0 0.0 0.0 
-8.080089762925e-04 4.112040320756e-05 0.0 
4.112040320756e-05 1.492937717087e-02 0.0 
0.0 0.0 0.0 
3.502397371707e-04 2.274464741262e-03 0.0 
2.274464741262e-03 9.830846465726e-03 0.0 
0.0 0.0 0.0 
-5.138627101772e-04 1.507551456644e-03 0.0 
1.507551456644e-03 1.592975901801e-02 0.0 
0.0 0.0 0.0 
-8.954539759292e-04 8.415000669404e-05 0.0 
8.415000669404e-05 1.468113103834e-02 0.0 
0.0 0.0 0.0 
-2.376853351053e-04 5.285506742671e-04 0.0 
5.285506742671e-04 1.714080808137e-03 0.0 
0.0 0.0 0.0 
-1.981307937587e-04 2.601362710464e-03 0.0 
2.601362710464e-03 1.291780135009e-02 0.0 
0.0 0.0 0.0 
7.224347319723e-04 -1.122069727868e-05 0.0 
-1.122069727868e-05 3.760315117131e-03 0.0 
0.0 0.0 0.0 
1.171230727868e-04 2.578920202155e-03 0.0 
2.578920202155e-03 1.142574756003e-02 0.0 
0.0 0.0 0.0 
5.657953873446e-04 1.641744940778e-03 0.0 
1.641744940778e-03 8.385275466998e-03 0.0 
0.0 0.0 0.0 
-7.683368182923e-04 5.923524117669e-04 0.0 
5.923524117669e-04 7.393847627855e-04 0.0 
0.0 0.0 0.0 
7.153407726783e-04 1.345570220303e-05 0.0 
1.345570220303e-05 4.727730120943e-03 0.0 
0.0 0.0 0.0 
-1.880250682307e-05 -1.216178084174e-04 0.0 
-1.216178084174e-04 5.079821939826e-04 0.0 
0.0 0.0 0.0 
2.758680018760e-04 6.401691839179e-04 0.0 
6.401691839179e-04 7.869395549079e-03 0.0 
0.0 0.0 0.0 
7.222161120508e-04 -3.861820700310e-06 0.0 
-3.861820700310e-06 3.940802418202e-03 0.0 
0.0 0.0 0.0 
-1.388936944496e-03 3.200741636846e-04 0.0 
3.200741636846e-04 1.321828935645e-02 0.0 
0.0 0.0 0.0 
-9.814838803796e-04 8.701103015361e-06 0.0 
8.701103015361e-06 1.304559205760e-02 0.0 
0.0 0.0 0.0 

TENSORS node_materi_strain_plasti float
-1.741775845201e-05 -2.168405097555e-06 0.0 
-2.168405097555e-06 1.395813736689e-04 0.0 
0.0 0.0 -3.282868849617e-05 
-7.193710724365e-04 -1.122442495585e-04 0.0 
-1.122442495585e-04 4.531072016065e-03 0.0 
0.0 0.0 -6.959116756397e-04 
-1.326721611229e-03 9.743109485010e-05 0.0 
9.743109485010e-05 8.921087027136e-03 0.0 
0.0 0.0 -1.332621093165e-03 
-1.328526300077e-03 -9.718698781146e-05 0.0 
-9.718698781146e-05 8.927311597372e-03 0.0 
0.0 0.0 -1.332621093165e-03 
-8.193859278095e-05 3.577520009443e-05 0.0 
3.577520009443e-05 3.368763971303e-04 0.0 
0.0 0.0 -8.453455331315e-05 
-1.695924659270e-04 1.267609683744e-04 0.0 
1.267609683744e-04 8.452299049113e-04 0.0 
0.0 0.0 -1.619080202416e-04 
-2.296336673595e-04 1.041833740940e-04 0.0 
1.041833740940e-04 1.224476071287e-03 0.0 
0.0 0.0 -2.266090766362e-04 
-2.971855348456e-04 9.450166671956e-05 0.0 
9.450166671956e-05 1.745895085854e-03 0.0 
0.0 0.0 -2.937643997455e-04 
-3.715291688780e-04 6.977872566512e-05 0.0 
6.977872566512e-05 2.214517262813e-03 0.0 
0.0 0.0 -3.610469555860e-04 
-4.249688263072e-04 6.584730845620e-05 0.0 
6.584730845620e-05 2.664484643095e-03 0.0 
0.0 0.0 -4.277228197774e-04 
-4.875317281637e-04 7.284843635981e-05 0.0 
7.284843635981e-05 3.123402469253e-03 0.0 
0.0 0.0 -4.940119848999e-04 
-5.560650258811e-04 6.506894170197e-05 0.0 
6.506894170197e-05 3.586726731214e-03 0.0 
0.0 0.0 -5.601824523721e-04 
-6.219544696600e-04 6.499150418632e-05 0.0 
6.499150418632e-05 4.044891981262e-03 0.0 
0.0 0.0 -6.267196139102e-04 
-6.989301157160e-04 8.304445482454e-05 0.0 
8.304445482454e-05 4.516508974108e-03 0.0 
0.0 0.0 -6.936951881209e-04 
-7.842461813792e-04 1.250766207628e-04 0.0 
1.250766207628e-04 5.027932232893e-03 0.0 
0.0 0.0 -7.607197531558e-04 
-8.342478146059e-04 1.327780010267e-04 0.0 
1.327780010267e-04 5.490101288132e-03 0.0 
0.0 0.0 -8.270758575053e-04 
-8.797786789151e-04 1.730981527132e-04 0.0 
1.730981527132e-04 5.870913224211e-03 0.0 
0.0 0.0 -8.903361771249e-04 
-9.530636179411e-04 6.774981962034e-05 0.0 
6.774981962034e-05 6.360455625450e-03 0.0 
0.0 0.0 -9.558084330571e-04 
-1.021468397639e-03 6.438406854751e-05 0.0 
6.438406854751e-05 6.838909130197e-03 0.0 
0.0 0.0 -1.024523475697e-03 
-1.087303877607e-03 6.616077821815e-05 0.0 
6.616077821815e-05 7.302617105742e-03 0.0 
0.0 0.0 -1.091244731156e-03 
-1.157611465321e-03 6.099216604955e-05 0.0 
6.099216604955e-05 7.775325521779e-03 0.0 
0.0 0.0 -1.158330123333e-03 
-1.229956863987e-03 7.577779225227e-05 0.0 
7.577779225227e-05 8.251739665694e-03 0.0 
0.0 0.0 -1.226073836101e-03 
-1.285597262298e-03 9.777469732990e-05 0.0 
9.777469732990e-05 8.717344745921e-03 0.0 
0.0 0.0 -1.289832767750e-03 
-1.328056332164e-03 -6.444803612954e-06 0.0 
-6.444803612954e-06 8.942057407760e-03 0.0 
0.0 0.0 -1.336902025401e-03 
-1.335490548137e-03 -3.051268407675e-06 0.0 
-3.051268407675e-06 8.928554519845e-03 0.0 
0.0 0.0 -1.332945767435e-03 
-1.336130347494e-03 -6.396074884473e-05 0.0 
-6.396074884473e-05 8.918857970665e-03 0.0 
0.0 0.0 -1.334903170087e-03 
-1.339230604727e-03 3.012709249355e-05 0.0 
3.012709249355e-05 8.923856553285e-03 0.0 
0.0 0.0 -1.334459899807e-03 
-1.337146058389e-03 -8.398799894841e-06 0.0 
-8.398799894841e-06 8.911324906834e-03 0.0 
0.0 0.0 -1.332067731643e-03 
-1.335355832928e-03 1.075181302778e-06 0.0 
1.075181302778e-06 8.911332561918e-03 0.0 
0.0 0.0 -1.335050935171e-03 
-1.325449513940e-03 2.957247518010e-06 0.0 
2.957247518010e-06 8.920139941522e-03 0.0 
0.0 0.0 -1.335055123498e-03 
-1.337345353037e-03 -9.523690686144e-06 0.0 
-9.523690686144e-06 8.921732771433e-03 0.0 
0.0 0.0 -1.333530254363e-03 
-1.334717977068e-03 -4.294761687244e-05 0.0 
-4.294761687244e-05 8.930458145260e-03 0.0 
0.0 0.0 -1.336259905589e-03 
-1.337792100019e-03 2.741258004608e-05 0.0 
2.741258004608e-05 8.934606220421e-03 0.0 
0.0 0.0 -1.335712483792e-03 
-1.336136187727e-03 -6.884802183734e-06 0.0 
-6.884802183734e-06 8.921957108707e-03 0.0 
0.0 0.0 -1.333313947604e-03 
-1.338126723765e-03 -4.814512478223e-06 0.0 
-4.814512478223e-06 8.924502617003e-03 0.0 
0.0 0.0 -1.335862559377e-03 
-1.327324523368e-03 -1.060172701740e-07 0.0 
-1.060172701740e-07 8.942333996565e-03 0.0 
0.0 0.0 -1.336097458551e-03 
-1.338609928482e-03 -2.842890241061e-06 0.0 
-2.842890241061e-06 8.932107808072e-03 0.0 
0.0 0.0 -1.335235043394e-03 
-1.329400644355e-03 -1.048596426291e-05 0.0 
-1.048596426291e-05 8.921074213048e-03 0.0 
0.0 0.0 -1.334297546486e-03 
-1.338340837827e-03 9.966400157395e-06 0.0 
9.966400157395e-06 8.903421378777e-03 0.0 
0.0 0.0 -1.332308435384e-03 
-1.339067962771e-03 -2.558483156536e-06 0.0 
-2.558483156536e-06 8.895896267544e-03 0.0 
0.0 0.0 -1.332019584455e-03 
-1.327125647707e-03 1.639257363238e-06 0.0 
1.639257363238e-06 8.917700513123e-03 0.0 
0.0 0.0 -1.333392124151e-03 
-1.334568721853e-03 -4.268105943771e-06 0.0 
-4.268105943771e-06 8.928545997729e-03 0.0 
0.0 0.0 -1.334727449481e-03 
-1.336827804858e-03 -5.001027102469e-06 0.0 
-5.001027102469e-06 8.928021219147e-03 0.0 
0.0 0.0 -1.336576889699e-03 
-1.337235537648e-03 1.693416763898e-05 0.0 
1.693416763898e-05 8.930023700079e-03 0.0 
0.0 0.0 -1.335888391555e-03 
-1.331872643832e-03 -1.070662442933e-06 0.0 
-1.070662442933e-06 8.931108733201e-03 0.0 
0.0 0.0 -1.334783226448e-03 
-1.335383687196e-03 3.225376233206e-06 0.0 
3.225376233206e-06 8.925108831379e-03 0.0 
0.0 0.0 -1.335053869153e-03 
-1.335647092677e-03 -1.629379981325e-06 0.0 
-1.629379981325e-06 8.920485307702e-03 0.0 
0.0 0.0 -1.334960189349e-03 
-1.336340449165e-03 -1.285585314744e-06 0.0 
-1.285585314744e-06 8.933772799625e-03 0.0 
0.0 0.0 -1.334889991128e-03 
-1.330589077276e-03 -4.874946038578e-06 0.0 
-4.874946038578e-06 8.935469598915e-03 0.0 
0.0 0.0 -1.335774086633e-03 
-1.341165284707e-03 -5.814943729733e-06 0.0 
-5.814943729733e-06 8.933862901487e-03 0.0 
0.0 0.0 -1.336605656894e-03 
-1.330240946256e-03 -4.520075279764e-06 0.0 
-4.520075279764e-06 8.938118272604e-03 0.0 
0.0 0.0 -1.336508443943e-03 
-1.338673330008e-03 -5.862543655786e-06 0.0 
-5.862543655786e-06 8.942517447788e-03 0.0 
0.0 0.0 -1.335343284290e-03 
-1.336600650314e-03 -3.582742261955e-05 0.0 
-3.582742261955e-05 8.951381047284e-03 0.0 
0.0 0.0 -1.337998490269e-03 
-1.341076503417e-03 3.451828262938e-05 0.0 
3.451828262938e-05 8.946627943271e-03 0.0 
0.0 0.0 -1.337247094005e-03 
-1.334448453648e-03 1.095281049642e-05 0.0 
1.095281049642e-05 8.923080866366e-03 0.0 
0.0 0.0 -1.333783489999e-03 
-1.333263826440e-03 -4.659210695480e-08 0.0 
-4.659210695480e-08 8.908320836892e-03 0.0 
0.0 0.0 -1.334548731617e-03 
-1.334150017560e-03 -8.272198035497e-06 0.0 
-8.272198035497e-06 8.929832025163e-03 0.0 
0.0 0.0 -1.334619746794e-03 
-1.331619300726e-03 -1.909948370357e-06 0.0 
-1.909948370357e-06 8.928586538444e-03 0.0 
0.0 0.0 -1.335242115105e-03 
-1.340870630612e-03 -1.061733168398e-05 0.0 
-1.061733168398e-05 8.926675419192e-03 0.0 
0.0 0.0 -1.335691437541e-03 
-1.329659514104e-03 -2.082049369219e-06 0.0 
-2.082049369219e-06 8.934711562866e-03 0.0 
0.0 0.0 -1.335646478247e-03 
-1.339117702311e-03 -4.029677061736e-07 0.0 
-4.029677061736e-07 8.924836081587e-03 0.0 
0.0 0.0 -1.334931242407e-03 
-1.328302087749e-03 -6.726834891380e-06 0.0 
-6.726834891380e-06 8.915098302923e-03 0.0 
0.0 0.0 -1.334100791702e-03 
-1.338339244626e-03 1.868410609583e-06 0.0 
1.868410609583e-06 8.913909047127e-03 0.0 
0.0 0.0 -1.332237298415e-03 
-1.340573467967e-03 -1.512560094747e-05 0.0 
-1.512560094747e-05 8.916790452845e-03 0.0 
0.0 0.0 -1.333749945600e-03 
-1.332872318884e-03 1.070088453610e-05 0.0 
1.070088453610e-05 8.939654193892e-03 0.0 
0.0 0.0 -1.336652505695e-03 
-1.326343527950e-03 -1.064817557575e-05 0.0 
-1.064817557575e-05 8.953327537606e-03 0.0 
0.0 0.0 -1.337094627689e-03 
-1.334975160234e-03 -1.103658676067e-05 0.0 
-1.103658676067e-05 8.887287544370e-03 0.0 
0.0 0.0 -1.328990728106e-03 
-1.326727222271e-03 3.789706117036e-06 0.0 
3.789706117036e-06 8.937395178325e-03 0.0 
0.0 0.0 -1.335900064369e-03 
-1.338702731113e-03 6.248103656109e-07 0.0 
6.248103656109e-07 8.926718973225e-03 0.0 
0.0 0.0 -1.332523500780e-03 
-1.338833780446e-03 -4.056504769858e-05 0.0 
-4.056504769858e-05 8.921997078910e-03 0.0 
0.0 0.0 -1.335219049675e-03 
-1.336003357241e-03 1.668194413567e-05 0.0 
1.668194413567e-05 8.951047853454e-03 0.0 
0.0 0.0 -1.336566422126e-03 
-1.338588357839e-03 -8.318316931957e-07 0.0 
-8.318316931957e-07 8.955066587464e-03 0.0 
0.0 0.0 -1.335855682064e-03 
-7.644479361829e-04 -7.854511718931e-05 0.0 
-7.854511718931e-05 4.967324475694e-03 0.0 
0.0 0.0 -7.648954205800e-04 
-8.429692067442e-04 -8.894340543483e-05 0.0 
-8.894340543483e-05 5.465473064469e-03 0.0 
0.0 0.0 -8.298981322982e-04 
-9.045101262401e-04 -8.649802336560e-05 0.0 
-8.649802336560e-05 5.927599153875e-03 0.0 
0.0 0.0 -8.959277352460e-04 
-9.682355907570e-04 -9.235019684024e-05 0.0 
-9.235019684024e-05 6.375436758553e-03 0.0 
0.0 0.0 -9.610467530554e-04 
-1.034301386645e-03 -8.131875668406e-05 0.0 
-8.131875668406e-05 6.841207604472e-03 0.0 
0.0 0.0 -1.026987810050e-03 
-1.084652817885e-03 -8.917462571028e-05 0.0 
-8.917462571028e-05 7.307643626561e-03 0.0 
0.0 0.0 -1.092790196867e-03 
-1.153469442186e-03 -7.930470280158e-05 0.0 
-7.930470280158e-05 7.768901773096e-03 0.0 
0.0 0.0 -1.158290425478e-03 
-1.218602686822e-03 -9.135197616377e-05 0.0 
-9.135197616377e-05 8.209166370611e-03 0.0 
0.0 0.0 -1.224481705251e-03 
-1.280117147855e-03 -1.008986322443e-04 0.0 
-1.008986322443e-04 8.709401710635e-03 0.0 
0.0 0.0 -1.288782062784e-03 
-1.752208263150e-05 3.240785673635e-05 0.0 
3.240785673635e-05 1.037696529891e-04 0.0 
0.0 0.0 -2.939528373048e-05 
-6.988773384999e-04 -6.414203901465e-06 0.0 
-6.414203901465e-06 4.541118799231e-03 0.0 
0.0 0.0 -6.945495707198e-04 
-1.068839245990e-04 4.195670543775e-05 0.0 
4.195670543775e-05 4.592598232628e-04 0.0 
0.0 0.0 -1.088012745759e-04 
-1.837805977244e-04 6.636119579704e-05 0.0 
6.636119579704e-05 9.280212819520e-04 0.0 
0.0 0.0 -1.795578361538e-04 
-2.541701604252e-04 6.773423425563e-05 0.0 
6.773423425563e-05 1.406381745625e-03 0.0 
0.0 0.0 -2.466011808795e-04 
-3.308726835263e-04 6.738605726992e-05 0.0 
6.738605726992e-05 1.832720200709e-03 0.0 
0.0 0.0 -3.108790080757e-04 
-3.964115229650e-04 7.265451737656e-05 0.0 
7.265451737656e-05 2.303753556439e-03 0.0 
0.0 0.0 -3.778135794433e-04 
-4.516675705781e-04 3.445608641046e-05 0.0 
3.445608641046e-05 2.777117745363e-03 0.0 
0.0 0.0 -4.454545662751e-04 
-5.195439966860e-04 4.328034517296e-05 0.0 
4.328034517296e-05 3.247818275896e-03 0.0 
0.0 0.0 -5.121313000160e-04 
-5.855984779945e-04 4.637183372918e-05 0.0 
4.637183372918e-05 3.709926365435e-03 0.0 
0.0 0.0 -5.789936928845e-04 
-6.358069741065e-04 2.139693975841e-05 0.0 
2.139693975841e-05 4.179780221576e-03 0.0 
0.0 0.0 -6.438411031842e-04 
-6.728441559653e-04 -1.307063730577e-04 0.0 
-1.307063730577e-04 4.250587972745e-03 0.0 
0.0 0.0 -6.488888888889e-04 
-6.913130996728e-04 5.498609571761e-05 0.0 
5.498609571761e-05 4.454824349021e-03 0.0 
0.0 0.0 -6.874962403976e-04 
-6.868874145390e-04 4.265374631601e-06 0.0 
4.265374631601e-06 4.486723904769e-03 0.0 
0.0 0.0 -6.910932206029e-04 
-6.934978988667e-04 4.367505525864e-06 0.0 
4.367505525864e-06 4.491335876748e-03 0.0 
0.0 0.0 -6.911911970487e-04 
-6.907997940409e-04 -7.067285999277e-06 0.0 
-7.067285999277e-06 4.485601554890e-03 0.0 
0.0 0.0 -6.903356507966e-04 
-6.907918205776e-04 4.658551261973e-06 0.0 
4.658551261973e-06 4.562156077984e-03 0.0 
0.0 0.0 -6.980756478071e-04 
-6.892878188424e-04 5.414637571102e-06 0.0 
5.414637571102e-06 4.494915586897e-03 0.0 
0.0 0.0 -6.911448554634e-04 
-6.797647522223e-04 -6.151835168552e-06 0.0 
-6.151835168552e-06 4.487621365133e-03 0.0 
0.0 0.0 -6.903833977050e-04 
-6.832908759363e-04 1.181523808998e-05 0.0 
1.181523808998e-05 4.498914041665e-03 0.0 
0.0 0.0 -6.905588330458e-04 
-6.949806625349e-04 2.423611152461e-06 0.0 
2.423611152461e-06 4.508372842652e-03 0.0 
0.0 0.0 -6.922444453805e-04 
-6.970682970385e-04 1.264857313788e-05 0.0 
1.264857313788e-05 4.510203072304e-03 0.0 
0.0 0.0 -6.916098530255e-04 
-6.888508586807e-04 7.096050779000e-06 0.0 
7.096050779000e-06 4.506612582973e-03 0.0 
0.0 0.0 -6.911665914957e-04 
-6.923116819991e-04 3.442306794751e-06 0.0 
3.442306794751e-06 4.500662587744e-03 0.0 
0.0 0.0 -6.911615840689e-04 
-6.874005628903e-04 1.547082050475e-05 0.0 
1.547082050475e-05 4.496710901947e-03 0.0 
0.0 0.0 -6.914992001314e-04 
-6.904170598993e-04 2.109837221793e-05 0.0 
2.109837221793e-05 4.507680445908e-03 0.0 
0.0 0.0 -6.922481495424e-04 
-2.592440264177e-05 -1.590076434165e-05 0.0 
-1.590076434165e-05 1.361807839618e-04 0.0 
0.0 0.0 -2.981554499673e-05 
-3.446067835928e-05 -4.722769695024e-06 0.0 
-4.722769695024e-06 1.514232641040e-04 0.0 
0.0 0.0 -3.001360406192e-05 
-1.576164107189e-05 6.855840384423e-06 0.0 
6.855840384423e-06 1.420727738414e-04 0.0 
0.0 0.0 -2.891678940537e-05 
-1.058332407332e-05 -2.088674468884e-05 0.0 
-2.088674468884e-05 1.367187831327e-04 0.0 
0.0 0.0 -2.889836327124e-05 
-3.364373544555e-05 -3.089965635262e-05 0.0 
-3.089965635262e-05 1.595260388365e-04 0.0 
0.0 0.0 -3.040745255895e-05 
-4.176671741939e-05 -6.138377296836e-06 0.0 
-6.138377296836e-06 1.798263625009e-04 0.0 
0.0 0.0 -3.068777868300e-05 
-3.824342451589e-05 5.591674158897e-07 0.0 
5.591674158897e-07 1.791426173783e-04 0.0 
0.0 0.0 -3.058835961954e-05 
-3.226360630243e-05 -1.341036859016e-06 0.0 
-1.341036859016e-06 1.722310666212e-04 0.0 
0.0 0.0 -3.053879953887e-05 
-3.075195274388e-05 -3.753502375142e-06 0.0 
-3.753502375142e-06 1.736984769829e-04 0.0 
0.0 0.0 -3.044251428418e-05 
-2.638860610350e-05 -7.894449171776e-06 0.0 
-7.894449171776e-06 1.709687444737e-04 0.0 
0.0 0.0 -3.048531495051e-05 
-2.681419529698e-05 -1.626482453994e-05 0.0 
-1.626482453994e-05 1.776638784057e-04 0.0 
0.0 0.0 -3.060061046523e-05 
-4.178895109067e-05 4.651397470064e-06 0.0 
4.651397470064e-06 1.936858804511e-04 0.0 
0.0 0.0 -3.133350520012e-05 
-3.584663091306e-05 2.920944978623e-05 0.0 
2.920944978623e-05 1.814285478668e-04 0.0 
0.0 0.0 -3.101487170496e-05 
-1.892508329037e-05 9.286208390908e-06 0.0 
9.286208390908e-06 1.578481945027e-04 0.0 
0.0 0.0 -3.010388419214e-05 
-2.660519595212e-05 -4.398298942796e-06 0.0 
-4.398298942796e-06 1.591906609278e-04 0.0 
0.0 0.0 -3.041972112533e-05 
-4.134075465171e-05 1.617060886407e-06 0.0 
1.617060886407e-06 1.756452327158e-04 0.0 
0.0 0.0 -3.060566238437e-05 
-4.636580504519e-05 5.643116689764e-06 0.0 
5.643116689764e-06 1.798643178415e-04 0.0 
0.0 0.0 -3.058114983003e-05 
-3.066571027206e-05 2.752472550757e-05 0.0 
2.752472550757e-05 1.500341931888e-04 0.0 
0.0 0.0 -3.041506914824e-05 
-1.475246436927e-05 4.693943976204e-06 0.0 
4.693943976204e-06 1.322021267256e-04 0.0 
0.0 0.0 -2.944997384815e-05 
-5.872690351652e-04 -7.854441333774e-06 0.0 
-7.854441333774e-06 4.159256177000e-03 0.0 
0.0 0.0 -6.414103448165e-04 
-6.656267754157e-04 -1.963632078139e-05 0.0 
-1.963632078139e-05 4.331654701030e-03 0.0 
0.0 0.0 -6.534848181696e-04 
-6.624265806205e-04 2.883901312686e-05 0.0 
2.883901312686e-05 4.350263865589e-03 0.0 
0.0 0.0 -6.562962962963e-04 
-6.572264673727e-04 1.654001275797e-05 0.0 
1.654001275797e-05 4.342633430371e-03 0.0 
0.0 0.0 -6.562962962963e-04 
-6.590973604842e-04 3.391300653353e-06 0.0 
3.391300653353e-06 4.348003070149e-03 0.0 
0.0 0.0 -6.562962962963e-04 
-6.593829283196e-04 8.705739569159e-06 0.0 
8.705739569159e-06 4.351558146907e-03 0.0 
0.0 0.0 -6.562962962963e-04 
-6.595047587951e-04 1.349599189851e-05 0.0 
1.349599189851e-05 4.344901980639e-03 0.0 
0.0 0.0 -6.562962962963e-04 
-6.590339524144e-04 9.828937396090e-07 0.0 
9.828937396090e-07 4.344484374322e-03 0.0 
0.0 0.0 -6.562962962963e-04 
-6.475199090622e-04 8.853544597701e-06 0.0 
8.853544597701e-06 4.346920292132e-03 0.0 
0.0 0.0 -6.562962962963e-04 
-6.544554966392e-04 -2.554219939936e-06 0.0 
-2.554219939936e-06 4.345703687719e-03 0.0 
0.0 0.0 -6.562962962963e-04 
-6.528751430860e-04 3.912709881806e-06 0.0 
3.912709881806e-06 4.343441741456e-03 0.0 
0.0 0.0 -6.562962962963e-04 
-6.517741319918e-04 -1.177766766837e-05 0.0 
-1.177766766837e-05 4.342350692572e-03 0.0 
0.0 0.0 -6.562962962963e-04 
-6.565906923178e-04 -2.877071332411e-06 0.0 
-2.877071332411e-06 4.346562018484e-03 0.0 
0.0 0.0 -6.562962962963e-04 
-6.555128903100e-04 -8.215689855884e-06 0.0 
-8.215689855884e-06 4.335582091075e-03 0.0 
0.0 0.0 -6.562962962963e-04 
-6.552172147108e-04 -4.482634974353e-05 0.0 
-4.482634974353e-05 4.303353533581e-03 0.0 
0.0 0.0 -6.562962962963e-04 
-6.471191930006e-04 1.133376548941e-04 0.0 
1.133376548941e-04 4.244849879664e-03 0.0 
0.0 0.0 -6.488888888889e-04 
-6.112648154112e-05 2.057582376636e-05 0.0 
2.057582376636e-05 2.373049901764e-04 0.0 
0.0 0.0 -7.119425116786e-05 
-1.546216371726e-04 6.400049167798e-05 0.0 
6.400049167798e-05 7.010998205819e-04 0.0 
0.0 0.0 -1.457676002711e-04 
-2.180259668060e-04 8.313364542154e-05 0.0 
8.313364542154e-05 1.168903010383e-03 0.0 
0.0 0.0 -2.130143027807e-04 
-2.888761379291e-04 8.199755792821e-05 0.0 
8.199755792821e-05 1.646730006385e-03 0.0 
0.0 0.0 -2.801731950103e-04 
-3.556189171031e-04 3.435503475517e-05 0.0 
3.435503475517e-05 2.100711759406e-03 0.0 
0.0 0.0 -3.440931072323e-04 
-4.072044444476e-04 4.893832875794e-05 0.0 
4.893832875794e-05 2.564834203635e-03 0.0 
0.0 0.0 -4.108392228286e-04 
-4.870759962323e-04 5.278682620990e-05 0.0 
5.278682620990e-05 3.019866235023e-03 0.0 
0.0 0.0 -4.786325096809e-04 
-5.502705052573e-04 6.503016515131e-05 0.0 
6.503016515131e-05 3.480762125304e-03 0.0 
0.0 0.0 -5.455426008747e-04 
-6.168300014571e-04 5.819245694313e-05 0.0 
5.819245694313e-05 3.947567695400e-03 0.0 
0.0 0.0 -6.123661653548e-04 
-6.338217617634e-04 2.537668650010e-05 0.0 
2.537668650010e-05 4.304554206396e-03 0.0 
0.0 0.0 -6.659008930010e-04 
-1.935964666812e-04 2.967460992406e-06 0.0 
2.967460992406e-06 9.892888486110e-04 0.0 
0.0 0.0 -1.870278901045e-04 
-1.298255034363e-03 -1.439677610189e-05 0.0 
-1.439677610189e-05 8.770849623045e-03 0.0 
0.0 0.0 -1.303388942653e-03 
-5.711706292197e-05 -1.132529147629e-05 0.0 
-1.132529147629e-05 2.965576224762e-04 0.0 
0.0 0.0 -5.718844814379e-05 
-5.424579011879e-05 -2.911933097956e-05 0.0 
-2.911933097956e-05 2.725297638318e-04 0.0 
0.0 0.0 -5.560925106412e-05 
-1.303094143304e-03 2.083700262778e-05 0.0 
2.083700262778e-05 8.775603321897e-03 0.0 
0.0 0.0 -1.303360877099e-03 
-3.337502689384e-04 2.573658945222e-05 0.0 
2.573658945222e-05 1.945399262405e-03 0.0 
0.0 0.0 -3.213286234882e-04 
-7.420382513691e-04 -8.331648497414e-06 0.0 
-8.331648497414e-06 4.783425200817e-03 0.0 
0.0 0.0 -7.300567563597e-04 
-1.300502925116e-03 1.312346542061e-05 0.0 
1.312346542061e-05 8.760360600138e-03 0.0 
0.0 0.0 -1.300998267065e-03 
-4.558051091763e-04 -3.180946065222e-05 0.0 
-3.180946065222e-05 2.815581106164e-03 0.0 
0.0 0.0 -4.497936382440e-04 
-1.301730818783e-03 3.906861163020e-06 0.0 
3.906861163020e-06 8.781071212001e-03 0.0 
0.0 0.0 -1.304014651794e-03 
-5.931132187702e-04 3.451249603910e-06 0.0 
3.451249603910e-06 3.770920661498e-03 0.0 
0.0 0.0 -5.857980290939e-04 
-1.294626432424e-03 1.231524946245e-05 0.0 
1.231524946245e-05 8.803233335001e-03 0.0 
0.0 0.0 -1.307658508868e-03 
-5.100449476861e-05 8.243347627880e-06 0.0 
8.243347627880e-06 2.661035943334e-04 0.0 
0.0 0.0 -5.457498774670e-05 
-1.304712708061e-03 6.002193481844e-06 0.0 
6.002193481844e-06 8.782841008775e-03 0.0 
0.0 0.0 -1.304481600125e-03 
-7.263025570844e-04 1.579439830822e-05 0.0 
1.579439830822e-05 4.732739805173e-03 0.0 
0.0 0.0 -7.203075318094e-04 
-4.572752679378e-04 6.754709539201e-06 0.0 
6.754709539201e-06 2.913924238746e-03 0.0 
0.0 0.0 -4.640473930190e-04 
-9.144584483085e-04 1.326427603797e-05 0.0 
1.326427603797e-05 6.048992087784e-03 0.0 
0.0 0.0 -9.125512086551e-04 
-1.295486455605e-03 -9.635721854309e-06 0.0 
-9.635721854309e-06 8.767400550756e-03 0.0 
0.0 0.0 -1.301280071178e-03 
-1.304620553661e-03 1.736330334078e-05 0.0 
1.736330334078e-05 8.785218481020e-03 0.0 
0.0 0.0 -1.304294760550e-03 
-1.308798115864e-03 -1.758872586471e-05 0.0 
-1.758872586471e-05 8.782113468746e-03 0.0 
0.0 0.0 -1.303238611778e-03 
-1.297364651419e-03 1.079949245934e-05 0.0 
1.079949245934e-05 8.741492182536e-03 0.0 
0.0 0.0 -1.297727402575e-03 
-1.310467176952e-03 -2.184753791197e-05 0.0 
-2.184753791197e-05 8.795852425490e-03 0.0 
0.0 0.0 -1.305306183856e-03 
-7.504043158260e-04 1.146340899481e-05 0.0 
1.146340899481e-05 4.928957716144e-03 0.0 
0.0 0.0 -7.522011426764e-04 
-7.523353912947e-04 1.162137769558e-05 0.0 
1.162137769558e-05 4.926512636401e-03 0.0 
0.0 0.0 -7.529849494387e-04 
-7.546537283985e-04 -1.241349829193e-05 0.0 
-1.241349829193e-05 4.950472109635e-03 0.0 
0.0 0.0 -7.580270452736e-04 
-9.976077557881e-04 -3.465320003210e-05 0.0 
-3.465320003210e-05 6.602229680106e-03 0.0 
0.0 0.0 -9.950081682429e-04 
-1.300592036334e-03 -1.108396441712e-05 0.0 
-1.108396441712e-05 8.788475349475e-03 0.0 
0.0 0.0 -1.302874185639e-03 
-4.947082956206e-05 -1.829296119633e-05 0.0 
-1.829296119633e-05 2.690780974868e-04 0.0 
0.0 0.0 -5.461765089471e-05 
-6.582489508632e-05 5.524694071877e-06 0.0 
5.524694071877e-06 3.064286723343e-04 0.0 
0.0 0.0 -5.841730026857e-05 
-1.120911548220e-03 -1.158571369170e-06 0.0 
-1.158571369170e-06 7.515613535503e-03 0.0 
0.0 0.0 -1.122886395833e-03 
-7.582082522979e-04 1.961281355472e-05 0.0 
1.961281355472e-05 4.902933380827e-03 0.0 
0.0 0.0 -7.500338828344e-04 
-2.694321437334e-04 2.278372598568e-06 0.0 
2.278372598568e-06 1.494554554088e-03 0.0 
0.0 0.0 -2.594501920933e-04 
-1.298427704971e-03 5.282056354372e-06 0.0 
5.282056354372e-06 8.696713485831e-03 0.0 
0.0 0.0 -1.293200138473e-03 
-1.306703206650e-03 1.354031549594e-05 0.0 
1.354031549594e-05 8.802982423650e-03 0.0 
0.0 0.0 -1.307307853467e-03 
-1.306558631645e-03 5.032010017815e-06 0.0 
5.032010017815e-06 8.775985095811e-03 0.0 
0.0 0.0 -1.304733450272e-03 
-1.299335994773e-03 1.249139207265e-05 0.0 
1.249139207265e-05 8.749655727550e-03 0.0 
0.0 0.0 -1.297928233296e-03 
-1.308929768589e-03 -1.641174944339e-05 0.0 
-1.641174944339e-05 8.785621003878e-03 0.0 
0.0 0.0 -1.305578568836e-03 
-6.266603041313e-05 2.501207789146e-06 0.0 
2.501207789146e-06 3.071735198218e-04 0.0 
0.0 0.0 -5.851952868525e-05 
-7.474245186294e-04 1.424161896041e-05 0.0 
1.424161896041e-05 4.916877911110e-03 0.0 
0.0 0.0 -7.500980793754e-04 
-1.296702677324e-03 1.017615489424e-05 0.0 
1.017615489424e-05 8.704965271547e-03 0.0 
0.0 0.0 -1.293180865222e-03 
-1.128899365850e-03 -3.031105506869e-05 0.0 
-3.031105506869e-05 7.537413441575e-03 0.0 
0.0 0.0 -1.123598490052e-03 
-5.732050020506e-05 -1.482205262673e-05 0.0 
-1.482205262673e-05 2.925850224953e-04 0.0 
0.0 0.0 -5.798785095130e-05 
-5.914251289981e-04 -6.471482804683e-06 0.0 
-6.471482804683e-06 3.820964198355e-03 0.0 
0.0 0.0 -5.937437734062e-04 
-1.319868342544e-03 -1.044247080549e-05 0.0 
-1.044247080549e-05 8.859569502417e-03 0.0 
0.0 0.0 -1.311981303940e-03 
-4.039407312574e-04 -1.513566039236e-05 0.0 
-1.513566039236e-05 2.425755132441e-03 0.0 
0.0 0.0 -3.897472533596e-04 
-2.622920170020e-04 7.443498411070e-06 0.0 
7.443498411070e-06 1.467365751784e-03 0.0 
0.0 0.0 -2.548795656134e-04 
-5.270389969687e-04 -7.501595445509e-06 0.0 
-7.501595445509e-06 3.294996993381e-03 0.0 
0.0 0.0 -5.178568985205e-04 
-6.568994839779e-04 -7.061170510206e-06 0.0 
-7.061170510206e-06 4.237934581571e-03 0.0 
0.0 0.0 -6.527703211191e-04 
-1.172487669236e-04 -1.455488225107e-05 0.0 
-1.455488225107e-05 4.809709659116e-04 0.0 
0.0 0.0 -1.118557093815e-04 
-8.696005125465e-04 -8.177489350844e-06 0.0 
-8.177489350844e-06 5.725890687358e-03 0.0 
0.0 0.0 -8.684787984471e-04 
-1.317974587429e-03 -1.269961975263e-05 0.0 
-1.269961975263e-05 8.865515668911e-03 0.0 
0.0 0.0 -1.313906642692e-03 
-5.185989643575e-05 2.926503183839e-05 0.0 
2.926503183839e-05 2.746618289318e-04 0.0 
0.0 0.0 -5.836448670120e-05 
-1.244012605559e-03 -1.337379541716e-07 0.0 
-1.337379541716e-07 8.417025004517e-03 0.0 
0.0 0.0 -1.253930875827e-03 
-7.490231005430e-04 1.074391793069e-05 0.0 
1.074391793069e-05 4.928373640173e-03 0.0 
0.0 0.0 -7.532271817479e-04 
-7.806985373677e-04 4.966139412134e-06 0.0 
4.966139412134e-06 5.109831204569e-03 0.0 
0.0 0.0 -7.809350190597e-04 
-8.062001814621e-04 2.173167671072e-05 0.0 
2.173167671072e-05 5.343609321704e-03 0.0 
0.0 0.0 -8.115578932774e-04 
-8.489268176994e-04 -8.110940848576e-06 0.0 
-8.110940848576e-06 5.566485028911e-03 0.0 
0.0 0.0 -8.428390908522e-04 
-8.804673106023e-04 1.251244415484e-07 0.0 
1.251244415484e-07 5.795279077470e-03 0.0 
0.0 0.0 -8.784658474099e-04 
-9.121627378672e-04 -7.430796722976e-06 0.0 
-7.430796722976e-06 6.000836909728e-03 0.0 
0.0 0.0 -9.060409163497e-04 
-8.756777626729e-04 -7.143189004738e-06 0.0 
-7.143189004738e-06 5.761383353658e-03 0.0 
0.0 0.0 -8.711257577414e-04 
-9.375016757268e-04 -9.018261483613e-06 0.0 
-9.018261483613e-06 6.200512371454e-03 0.0 
0.0 0.0 -9.341442283280e-04 
-9.034456709669e-04 -5.627619604466e-06 0.0 
-5.627619604466e-06 5.955351813444e-03 0.0 
0.0 0.0 -8.989774131092e-04 
-9.375397006910e-04 -9.487100187209e-06 0.0 
-9.487100187209e-06 6.248793060300e-03 0.0 
0.0 0.0 -9.415083590319e-04 
-9.651447206159e-04 -1.078565163388e-05 0.0 
-1.078565163388e-05 6.396664073005e-03 0.0 
0.0 0.0 -9.622976032585e-04 
-9.304266532056e-04 -6.330576673736e-06 0.0 
-6.330576673736e-06 6.148924780633e-03 0.0 
0.0 0.0 -9.268639294333e-04 
-9.923459703203e-04 -8.832674575544e-06 0.0 
-8.832674575544e-06 6.591396283472e-03 0.0 
0.0 0.0 -9.903372159162e-04 
-9.579486406670e-04 -6.976346530342e-06 0.0 
-6.976346530342e-06 6.343540435811e-03 0.0 
0.0 0.0 -9.547708836903e-04 
-8.957338589247e-04 -3.445195682080e-06 0.0 
-3.445195682080e-06 5.904490313780e-03 0.0 
0.0 0.0 -8.916807130883e-04 
-9.234034349690e-04 -3.140263271669e-06 0.0 
-3.140263271669e-06 6.097553141781e-03 0.0 
0.0 0.0 -9.194532194038e-04 
-8.597658352201e-04 -5.745984388486e-07 0.0 
-5.745984388486e-07 5.659471370407e-03 0.0 
0.0 0.0 -8.565021464485e-04 
-8.876676417698e-04 -1.521204235366e-06 0.0 
-1.521204235366e-06 5.852313305850e-03 0.0 
0.0 0.0 -8.841639842141e-04 
-9.508204613182e-04 -2.297031587579e-06 0.0 
-2.297031587579e-06 6.292146332209e-03 0.0 
0.0 0.0 -9.471984275390e-04 
-9.148993498348e-04 -3.275082318970e-06 0.0 
-3.275082318970e-06 6.045345094116e-03 0.0 
0.0 0.0 -9.118195294070e-04 
-8.520584533063e-04 -1.219021611579e-06 0.0 
-1.219021611579e-06 5.605756351829e-03 0.0 
0.0 0.0 -8.488396520500e-04 
-8.789321886970e-04 -2.050593653238e-06 0.0 
-2.050593653238e-06 5.797286878756e-03 0.0 
0.0 0.0 -8.764089341820e-04 
-8.161164546335e-04 3.435109532420e-07 0.0 
3.435109532420e-07 5.359457664966e-03 0.0 
0.0 0.0 -8.135623229517e-04 
-8.427829602136e-04 -1.073992276177e-06 0.0 
-1.073992276177e-06 5.550412011619e-03 0.0 
0.0 0.0 -8.410744910442e-04 
-7.803403629458e-04 1.482617335658e-07 0.0 
1.482617335658e-07 5.112144953619e-03 0.0 
0.0 0.0 -7.781617608290e-04 
-8.069161494671e-04 -9.832122125661e-07 0.0 
-9.832122125661e-07 5.303670065228e-03 0.0 
0.0 0.0 -8.056965831182e-04 
-8.693622760752e-04 -2.102828341515e-06 0.0 
-2.102828341515e-06 5.742393281941e-03 0.0 
0.0 0.0 -8.686949506212e-04 
-8.339431778097e-04 -6.526060623781e-07 0.0 
-6.526060623781e-07 5.495228078517e-03 0.0 
0.0 0.0 -8.332427817419e-04 
-7.711323033225e-04 2.736293389715e-07 0.0 
2.736293389715e-07 5.056666474078e-03 0.0 
0.0 0.0 -7.703313069557e-04 
-7.984646574761e-04 4.457733912313e-07 0.0 
4.457733912313e-07 5.248286890054e-03 0.0 
0.0 0.0 -7.977945042040e-04 
-7.355637814563e-04 1.290713586139e-06 0.0 
1.290713586139e-06 4.810484252267e-03 0.0 
0.0 0.0 -7.349073124327e-04 
-7.625544307913e-04 1.894462684370e-06 0.0 
1.894462684370e-06 4.999988831075e-03 0.0 
0.0 0.0 -7.622392297106e-04 
-8.257237067376e-04 1.120212681232e-06 0.0 
1.120212681232e-06 5.439584299338e-03 0.0 
0.0 0.0 -8.253152238873e-04 
-7.900934727742e-04 5.597935307128e-07 0.0 
5.597935307128e-07 5.191568262959e-03 0.0 
0.0 0.0 -7.896995018144e-04 
-7.266613947027e-04 4.187926819649e-07 0.0 
4.187926819649e-07 4.748654817893e-03 0.0 
0.0 0.0 -7.264132926704e-04 
-7.549260771137e-04 -7.052768559213e-07 0.0 
-7.052768559213e-07 4.942867002026e-03 0.0 
0.0 0.0 -7.539848323805e-04 
-6.914939078144e-04 -3.149044509647e-06 0.0 
-3.149044509647e-06 4.497991263929e-03 0.0 
0.0 0.0 -6.903858661722e-04 
-7.195945743336e-04 -6.350033787540e-09 0.0 
-6.350033787540e-09 4.694794432778e-03 0.0 
0.0 0.0 -7.182351804274e-04 
-6.554914090724e-04 -2.338725356814e-06 0.0 
-2.338725356814e-06 4.247612436471e-03 0.0 
0.0 0.0 -6.542402593883e-04 
-6.835277346368e-04 5.013350339302e-07 0.0 
5.013350339302e-07 4.443250069824e-03 0.0 
0.0 0.0 -6.821763112594e-04 
-7.475539329935e-04 -2.134179080118e-07 0.0 
-2.134179080118e-07 4.889262543532e-03 0.0 
0.0 0.0 -7.460902125261e-04 
-7.115638396740e-04 -9.716415015816e-07 0.0 
-9.716415015816e-07 4.638756710994e-03 0.0 
0.0 0.0 -7.100832486075e-04 
-6.472258987921e-04 -7.491708783299e-07 0.0 
-7.491708783299e-07 4.191362599469e-03 0.0 
0.0 0.0 -6.458624074531e-04 
-6.748538623222e-04 -1.344545062227e-06 0.0 
-1.344545062227e-06 4.385359401490e-03 0.0 
0.0 0.0 -6.737786430284e-04 
-7.391037565522e-04 -1.870094726741e-06 0.0 
-1.870094726741e-06 4.833803711944e-03 0.0 
0.0 0.0 -7.381473126730e-04 
-7.024920060125e-04 -1.771787760443e-06 0.0 
-1.771787760443e-06 4.579736205562e-03 0.0 
0.0 0.0 -7.017500108595e-04 
-7.668451599419e-04 -2.200372036206e-06 0.0 
-2.200372036206e-06 5.029184891420e-03 0.0 
0.0 0.0 -7.662494016216e-04 
-7.304037803270e-04 -1.328124908049e-06 0.0 
-1.328124908049e-06 4.775158829539e-03 0.0 
0.0 0.0 -7.297828278826e-04 
-6.661738894366e-04 -1.523527641000e-06 0.0 
-1.523527641000e-06 4.327585164653e-03 0.0 
0.0 0.0 -6.655364893108e-04 
-6.940255140087e-04 -3.189861403840e-07 0.0 
-3.189861403840e-07 4.522445273198e-03 0.0 
0.0 0.0 -6.934067383651e-04 
-7.582740677644e-04 -6.702170425333e-07 0.0 
-6.702170425333e-07 4.970550121083e-03 0.0 
0.0 0.0 -7.577868799165e-04 
-7.219132454205e-04 -3.552688472856e-07 0.0 
-3.552688472856e-07 4.715591284681e-03 0.0 
0.0 0.0 -7.212202614536e-04 
-6.579749567302e-04 -8.528343254354e-07 0.0 
-8.528343254354e-07 4.269380617603e-03 0.0 
0.0 0.0 -6.571136838490e-04 
-6.854396942303e-04 1.404532946377e-06 0.0 
1.404532946377e-06 4.463099019341e-03 0.0 
0.0 0.0 -6.848379476561e-04 
-7.499209568980e-04 9.788669448490e-07 0.0 
9.788669448490e-07 4.910836491420e-03 0.0 
0.0 0.0 -7.491645792950e-04 
-7.130866886284e-04 2.531462605044e-06 0.0 
2.531462605044e-06 4.656380230421e-03 0.0 
0.0 0.0 -7.127097857715e-04 
-6.490463142765e-04 2.026928070065e-06 0.0 
2.026928070065e-06 4.209801950481e-03 0.0 
0.0 0.0 -6.486049398320e-04 
-6.764658608434e-04 3.508718195911e-06 0.0 
3.508718195911e-06 4.404145734277e-03 0.0 
0.0 0.0 -6.763006240845e-04 
-7.410587565243e-04 2.977071001507e-06 0.0 
2.977071001507e-06 4.853988703533e-03 0.0 
0.0 0.0 -7.409416231994e-04 
-7.040690402047e-04 2.351563892176e-06 0.0 
2.351563892176e-06 4.597607851949e-03 0.0 
0.0 0.0 -7.042275185679e-04 
-6.395068044753e-04 3.551759029564e-06 0.0 
3.551759029564e-06 4.148883800447e-03 0.0 
0.0 0.0 -6.398389559308e-04 
-6.666949009552e-04 4.033462501281e-06 0.0 
4.033462501281e-06 4.341905952590e-03 0.0 
0.0 0.0 -6.674633383154e-04 
-7.319239687129e-04 2.339911819107e-06 0.0 
2.339911819107e-06 4.794577675996e-03 0.0 
0.0 0.0 -7.324886333286e-04 
-6.941465830902e-04 3.043408887489e-06 0.0 
3.043408887489e-06 4.534944571325e-03 0.0 
0.0 0.0 -6.954027321054e-04 
-7.599625173412e-04 1.739203305398e-06 0.0 
1.739203305398e-06 4.991507953981e-03 0.0 
0.0 0.0 -7.608997874520e-04 
-6.288087524292e-04 4.620726933277e-06 0.0 
4.620726933277e-06 4.080538413552e-03 0.0 
0.0 0.0 -6.302092384919e-04 
-6.562200550336e-04 2.527596513670e-06 0.0 
2.527596513670e-06 4.273760246295e-03 0.0 
0.0 0.0 -6.580989212857e-04 
-5.905021683275e-04 5.113861583814e-06 0.0 
5.113861583814e-06 3.817210818870e-03 0.0 
0.0 0.0 -5.925517106747e-04 
-6.180070563345e-04 1.748353135706e-06 0.0 
1.748353135706e-06 4.012241935297e-03 0.0 
0.0 0.0 -6.207111136070e-04 
-8.536335610934e-04 1.348609631281e-06 0.0 
1.348609631281e-06 5.632618076260e-03 0.0 
0.0 0.0 -8.529317679587e-04 
-5.517808621482e-04 4.295824092658e-06 0.0 
4.295824092658e-06 3.553884541992e-03 0.0 
0.0 0.0 -5.549884598765e-04 
-5.256512596246e-04 6.824695261283e-06 0.0 
6.824695261283e-06 3.365117692799e-03 0.0 
0.0 0.0 -5.276250340903e-04 
-5.798411198689e-04 -4.887552614971e-09 0.0 
-4.887552614971e-09 3.751124839276e-03 0.0 
0.0 0.0 -5.833260987948e-04 
-6.468648656295e-04 -6.634229100997e-07 0.0 
-6.634229100997e-07 4.212613913655e-03 0.0 
0.0 0.0 -6.493616581942e-04 
-5.137698154976e-04 1.586824553316e-06 0.0 
1.586824553316e-06 3.290773483107e-03 0.0 
0.0 0.0 -5.173870653820e-04 
-5.418307247046e-04 -1.136001153201e-06 0.0 
-1.136001153201e-06 3.490016299043e-03 0.0 
0.0 0.0 -5.459094278256e-04 
-4.770030151011e-04 2.075579507861e-06 0.0 
2.075579507861e-06 3.029794249274e-03 0.0 
0.0 0.0 -4.798161731008e-04 
-6.265889875599e-04 -3.099894472577e-06 0.0 
-3.099894472577e-06 4.044775427509e-03 0.0 
0.0 0.0 -6.252159162693e-04 
-9.779259260500e-04 -4.603917606284e-06 0.0 
-4.603917606284e-06 6.486620776824e-03 0.0 
0.0 0.0 -9.750716696758e-04 
-5.048311626822e-04 8.069914569194e-07 0.0 
8.069914569194e-07 3.230775089179e-03 0.0 
0.0 0.0 -5.084495576641e-04 
-4.414277464692e-04 -9.314775103438e-07 0.0 
-9.314775103438e-07 2.769397101649e-03 0.0 
0.0 0.0 -4.423119711188e-04 
-4.126781969751e-04 2.777234300749e-06 0.0 
2.777234300749e-06 2.568725273303e-03 0.0 
0.0 0.0 -4.136824817550e-04 
-3.752383636154e-04 2.627021531192e-07 0.0 
2.627021531192e-07 2.307149796782e-03 0.0 
0.0 0.0 -3.761903503575e-04 
-9.032923406135e-04 -1.942635711141e-05 0.0 
-1.942635711141e-05 6.054768473392e-03 0.0 
0.0 0.0 -9.126358703463e-04 
-9.750351070606e-04 8.331650578498e-07 0.0 
8.331650578498e-07 6.501449499714e-03 0.0 
0.0 0.0 -9.772611937912e-04 
-9.426936007590e-04 -8.476577603227e-06 0.0 
-8.476577603227e-06 6.285634427722e-03 0.0 
0.0 0.0 -9.468612964576e-04 
-1.013350986754e-03 -2.420793703351e-06 0.0 
-2.420793703351e-06 6.752430832338e-03 0.0 
0.0 0.0 -1.012955122490e-03 
-9.819905249802e-04 -9.218190891257e-06 0.0 
-9.218190891257e-06 6.546568860747e-03 0.0 
0.0 0.0 -9.835180958883e-04 
-4.033189249180e-04 -7.405594451594e-06 0.0 
-7.405594451594e-06 2.507023825451e-03 0.0 
0.0 0.0 -4.047791634435e-04 
-1.026297749493e-03 -7.873848128140e-06 0.0 
-7.873848128140e-06 6.842470359288e-03 0.0 
0.0 0.0 -1.026687169009e-03 
-1.041976492742e-03 3.297528438882e-06 0.0 
3.297528438882e-06 6.953471480802e-03 0.0 
0.0 0.0 -1.042264213861e-03 
-7.894126093117e-04 1.238093184259e-06 0.0 
1.238093184259e-06 5.169984540206e-03 0.0 
0.0 0.0 -7.861871271282e-04 
-7.083334352115e-04 1.160791963814e-06 0.0 
1.160791963814e-06 4.619009573669e-03 0.0 
0.0 0.0 -7.076088937226e-04 
-8.034448321061e-04 -3.641604808727e-06 0.0 
-3.641604808727e-06 5.283437919380e-03 0.0 
0.0 0.0 -8.027518904046e-04 
-5.699317647336e-04 -5.077104347375e-06 0.0 
-5.077104347375e-06 3.690391390143e-03 0.0 
0.0 0.0 -5.745905038755e-04 
-5.325923514100e-04 1.264931689698e-06 0.0 
1.264931689698e-06 3.434700451156e-03 0.0 
0.0 0.0 -5.371338854166e-04 
-6.021414154153e-04 -1.123287284899e-05 0.0 
-1.123287284899e-05 3.895898666929e-03 0.0 
0.0 0.0 -6.033452624549e-04 
-7.975586205945e-04 7.346724403241e-07 0.0 
7.346724403241e-07 5.250837552224e-03 0.0 
0.0 0.0 -7.980428604176e-04 
-8.260589898795e-04 8.470418804301e-07 0.0 
8.470418804301e-07 5.449813526142e-03 0.0 
0.0 0.0 -8.266132305475e-04 
-8.633840041631e-04 4.108677630604e-07 0.0 
4.108677630604e-07 5.709024598085e-03 0.0 
0.0 0.0 -8.638188500004e-04 
-8.921637692903e-04 4.125221994130e-07 0.0 
4.125221994130e-07 5.908664068470e-03 0.0 
0.0 0.0 -8.924533907576e-04 
-9.293171742377e-04 3.033539280216e-07 0.0 
3.033539280216e-07 6.168083546013e-03 0.0 
0.0 0.0 -9.297164513315e-04 
-9.582709124814e-04 8.513827699028e-07 0.0 
8.513827699028e-07 6.368400937687e-03 0.0 
0.0 0.0 -9.583747859490e-04 
-9.209100768105e-04 -4.256218772052e-07 0.0 
-4.256218772052e-07 6.108351576790e-03 0.0 
0.0 0.0 -9.210728288235e-04 
-9.873571107966e-04 -7.195723232425e-07 0.0 
-7.195723232425e-07 6.568673837727e-03 0.0 
0.0 0.0 -9.870277070005e-04 
-9.496224461858e-04 -1.641275595005e-06 0.0 
-1.641275595005e-06 6.308003890192e-03 0.0 
0.0 0.0 -9.497007337289e-04 
-9.952004913146e-04 1.269240357772e-06 0.0 
1.269240357772e-06 6.627713601016e-03 0.0 
0.0 0.0 -9.956835613869e-04 
-9.665012269537e-04 -8.709086142769e-07 0.0 
-8.709086142769e-07 6.427165842683e-03 0.0 
0.0 0.0 -9.668198671257e-04 
-1.015999965498e-03 -2.659789521436e-06 0.0 
-2.659789521436e-06 6.768164853944e-03 0.0 
0.0 0.0 -1.015681523326e-03 
-9.780689760981e-04 -1.773026811924e-06 0.0 
-1.773026811924e-06 6.507705614272e-03 0.0 
0.0 0.0 -9.783260305705e-04 
-1.043750394909e-03 -2.772279525269e-06 0.0 
-2.772279525269e-06 6.967527210065e-03 0.0 
0.0 0.0 -1.044362401637e-03 
-1.005977853166e-03 -2.262113223712e-06 0.0 
-2.262113223712e-06 6.706658029639e-03 0.0 
0.0 0.0 -1.007007767922e-03 
-9.404749716457e-04 -1.193534276240e-06 0.0 
-1.193534276240e-06 6.246239019973e-03 0.0 
0.0 0.0 -9.408676861799e-04 
-9.684909118554e-04 -8.529271608852e-07 0.0 
-8.529271608852e-07 6.444829778042e-03 0.0 
0.0 0.0 -9.695029660748e-04 
-9.037723104014e-04 -2.350012697862e-06 0.0 
-2.350012697862e-06 5.986848649888e-03 0.0 
0.0 0.0 -9.035672079865e-04 
-8.314464570683e-04 -3.616594317120e-06 0.0 
-3.616594317120e-06 5.479880314984e-03 0.0 
0.0 0.0 -8.309624794500e-04 
-8.682753299777e-04 -4.472916759998e-06 0.0 
-4.472916759998e-06 5.735257211893e-03 0.0 
0.0 0.0 -8.675775700443e-04 
-8.962132157839e-04 -3.994715245343e-06 0.0 
-3.994715245343e-06 5.931796623670e-03 0.0 
0.0 0.0 -8.958500940740e-04 
-9.334915543321e-04 -5.104595478868e-06 0.0 
-5.104595478868e-06 6.188168080628e-03 0.0 
0.0 0.0 -9.325549191312e-04 
-9.611906856985e-04 -4.832422115400e-06 0.0 
-4.832422115400e-06 6.384949120317e-03 0.0 
0.0 0.0 -9.609176734917e-04 
-9.993166695242e-04 -5.921015935425e-06 0.0 
-5.921015935425e-06 6.642197475408e-03 0.0 
0.0 0.0 -9.976363410588e-04 
-1.026869107811e-03 -5.279541534962e-06 0.0 
-5.279541534962e-06 6.837737939095e-03 0.0 
0.0 0.0 -1.026032504441e-03 
-9.888890578615e-04 -3.536873257987e-06 0.0 
-3.536873257987e-06 6.582021445560e-03 0.0 
0.0 0.0 -9.892761093609e-04 
-1.020948249731e-03 -5.775826579323e-06 0.0 
-5.775826579323e-06 6.785097853957e-03 0.0 
0.0 0.0 -1.018102500310e-03 
-6.106564943980e-04 -8.377932010442e-07 0.0 
-8.377932010442e-07 3.937861241286e-03 0.0 
0.0 0.0 -6.095594541484e-04 
-5.829707017919e-04 -8.761996171910e-07 0.0 
-8.761996171910e-07 3.743841342214e-03 0.0 
0.0 0.0 -5.816898710390e-04 
-5.468224651884e-04 3.532374184939e-07 0.0 
3.532374184939e-07 3.491149788400e-03 0.0 
0.0 0.0 -5.454521931755e-04 
-5.191424428682e-04 -2.726566040459e-07 0.0 
-2.726566040459e-07 3.297674531074e-03 0.0 
0.0 0.0 -5.176388733440e-04 
-4.833226440277e-04 2.092058671686e-06 0.0 
2.092058671686e-06 3.045002640289e-03 0.0 
0.0 0.0 -4.814163979944e-04 
-4.557758029646e-04 1.050100036915e-06 0.0 
1.050100036915e-06 2.852852491029e-03 0.0 
0.0 0.0 -4.537165770244e-04 
-4.203756978464e-04 3.745088126594e-06 0.0 
3.745088126594e-06 2.598843361212e-03 0.0 
0.0 0.0 -4.172264234068e-04 
-4.466735727578e-04 5.480427943032e-06 0.0 
5.480427943032e-06 2.790981770740e-03 0.0 
0.0 0.0 -4.450327826477e-04 
-3.836326554131e-04 7.904997896629e-06 0.0 
7.904997896629e-06 2.342835906920e-03 0.0 
0.0 0.0 -3.805252178390e-04 
-4.084193757355e-04 7.242552144221e-06 0.0 
7.242552144221e-06 2.535005811079e-03 0.0 
0.0 0.0 -4.085362445790e-04 
-3.461331758914e-04 8.763341315909e-06 0.0 
8.763341315909e-06 2.084280570054e-03 0.0 
0.0 0.0 -3.437934912881e-04 
-3.698709012629e-04 8.292346557788e-06 0.0 
8.292346557788e-06 2.277114687721e-03 0.0 
0.0 0.0 -3.717096690223e-04 
-8.965032625882e-04 -1.627591660556e-06 0.0 
-1.627591660556e-06 5.934603885101e-03 0.0 
0.0 0.0 -8.963565068603e-04 
-9.708908500796e-04 -5.045480792170e-06 0.0 
-5.045480792170e-06 6.444533853224e-03 0.0 
0.0 0.0 -9.691568884624e-04 
-1.036699855876e-03 -2.770010414097e-06 0.0 
-2.770010414097e-06 6.900219655108e-03 0.0 
0.0 0.0 -1.034312087004e-03 
-1.006639220865e-03 -3.033633605211e-06 0.0 
-3.033633605211e-06 6.698197690662e-03 0.0 
0.0 0.0 -1.005320805676e-03 
-3.491849021405e-04 5.274199755838e-07 0.0 
5.274199755838e-07 2.108115059856e-03 0.0 
0.0 0.0 -3.475522021424e-04 
-1.033063842021e-03 -2.635650059534e-06 0.0 
-2.635650059534e-06 6.905166544597e-03 0.0 
0.0 0.0 -1.035773625862e-03 
-1.032236772368e-03 -1.431372014474e-06 0.0 
-1.431372014474e-06 6.887149851833e-03 0.0 
0.0 0.0 -1.032922975483e-03 
-1.003745583219e-03 -3.564129010650e-06 0.0 
-3.564129010650e-06 6.683661322661e-03 0.0 
0.0 0.0 -1.003739924893e-03 
-1.054629030311e-03 -7.601280978039e-07 0.0 
-7.601280978039e-07 7.036563315422e-03 0.0 
0.0 0.0 -1.054598834243e-03 
-3.382801587767e-04 -2.979708598332e-06 0.0 
-2.979708598332e-06 2.049061231215e-03 0.0 
0.0 0.0 -3.392587823741e-04 
-3.925929468368e-04 -3.827429239535e-07 0.0 
-3.827429239535e-07 2.409736501278e-03 0.0 
0.0 0.0 -3.899405068163e-04 
-4.274717193387e-04 -8.415189164555e-08 0.0 
-8.415189164555e-08 2.658832617141e-03 0.0 
0.0 0.0 -4.261104576107e-04 
-1.049394948444e-03 -6.226283885141e-06 0.0 
-6.226283885141e-06 7.001982288460e-03 0.0 
0.0 0.0 -1.048874596840e-03 
-1.017918189327e-03 -8.563044135216e-06 0.0 
-8.563044135216e-06 6.794247194180e-03 0.0 
0.0 0.0 -1.019458214591e-03 
-1.069216758149e-03 -3.894499857360e-06 0.0 
-3.894499857360e-06 7.146438403505e-03 0.0 
0.0 0.0 -1.070157681403e-03 
-3.646275857635e-04 -4.854414982703e-06 0.0 
-4.854414982703e-06 2.250210390791e-03 0.0 
0.0 0.0 -3.675747464493e-04 
-1.054357939260e-03 -2.436299897869e-06 0.0 
-2.436299897869e-06 7.029823091953e-03 0.0 
0.0 0.0 -1.052997445444e-03 
-3.197645753905e-04 1.264604075079e-05 0.0 
1.264604075079e-05 1.895364248012e-03 0.0 
0.0 0.0 -3.160508651072e-04 
-9.953050425208e-04 1.480628501678e-06 0.0 
1.480628501678e-06 6.643084749548e-03 0.0 
0.0 0.0 -9.982306137915e-04 
-1.060585647238e-03 -1.664106558620e-06 0.0 
-1.664106558620e-06 7.103829563321e-03 0.0 
0.0 0.0 -1.064501221861e-03 
-8.833816014428e-04 -1.312725406902e-06 0.0 
-1.312725406902e-06 5.848632048973e-03 0.0 
0.0 0.0 -8.838659695519e-04 
-1.072126527592e-03 1.342848407698e-06 0.0 
1.342848407698e-06 7.156046509616e-03 0.0 
0.0 0.0 -1.070909199420e-03 
-1.040873144494e-03 -1.559728385230e-06 0.0 
-1.559728385230e-06 6.945723517804e-03 0.0 
0.0 0.0 -1.041442769611e-03 
-4.361432558223e-04 3.964498909213e-06 0.0 
3.964498909213e-06 2.732385665183e-03 0.0 
0.0 0.0 -4.368024751037e-04 
-4.014490958451e-04 -4.456139007959e-06 0.0 
-4.456139007959e-06 2.476345149205e-03 0.0 
0.0 0.0 -4.000028750317e-04 
-3.379276697082e-04 -9.389203744037e-07 0.0 
-9.389203744037e-07 2.030025360652e-03 0.0 
0.0 0.0 -3.362177140684e-04 
-3.635969428548e-04 1.373767669615e-06 0.0 
1.373767669615e-06 2.244616072891e-03 0.0 
0.0 0.0 -3.646174584383e-04 
-4.300938244296e-04 1.567544356571e-06 0.0 
1.567544356571e-06 2.681550340782e-03 0.0 
0.0 0.0 -4.284477484795e-04 
-3.889085083712e-04 9.835552762117e-06 0.0 
9.835552762117e-06 2.418297915731e-03 0.0 
0.0 0.0 -3.914172224959e-04 
-3.204770754165e-04 1.907323267821e-05 0.0 
1.907323267821e-05 1.962571053020e-03 0.0 
0.0 0.0 -3.275549428413e-04 
-3.502907991613e-04 7.488671343041e-06 0.0 
7.488671343041e-06 2.156719423536e-03 0.0 
0.0 0.0 -3.541853722931e-04 
-4.167106155497e-04 6.881429257356e-06 0.0 
6.881429257356e-06 2.610903268491e-03 0.0 
0.0 0.0 -4.192720002935e-04 
-3.788914181042e-04 4.343078442166e-06 0.0 
4.343078442166e-06 2.349536149817e-03 0.0 
0.0 0.0 -3.818909459020e-04 
-3.084459074470e-04 6.289188176845e-07 0.0 
6.289188176845e-07 1.890259859558e-03 0.0 
0.0 0.0 -3.163726278224e-04 
-3.419617535017e-04 -1.002237531296e-06 0.0 
-1.002237531296e-06 2.083935112305e-03 0.0 
0.0 0.0 -3.442135738104e-04 
-1.099071483736e-03 -4.059536723363e-06 0.0 
-4.059536723363e-06 7.365286043721e-03 0.0 
0.0 0.0 -1.101875158976e-03 
-2.778270531889e-04 5.606786557982e-06 0.0 
5.606786557982e-06 1.634146459113e-03 0.0 
0.0 0.0 -2.790856233436e-04 
-8.331232600789e-04 -1.470432704239e-06 0.0 
-1.470432704239e-06 5.468049203594e-03 0.0 
0.0 0.0 -8.288706041983e-04 
-1.097753538925e-03 -6.819421047782e-08 0.0 
-6.819421047782e-08 7.345996197340e-03 0.0 
0.0 0.0 -1.099012274073e-03 
-1.093116720620e-03 -8.666493399993e-07 0.0 
-8.666493399993e-07 7.286837829642e-03 0.0 
0.0 0.0 -1.090660416876e-03 
-1.084365567575e-03 -6.280824779061e-06 0.0 
-6.280824779061e-06 7.252032631151e-03 0.0 
0.0 0.0 -1.085032576515e-03 
-1.054657705810e-03 -6.435631966227e-06 0.0 
-6.435631966227e-06 7.045218181684e-03 0.0 
0.0 0.0 -1.055603631703e-03 
-9.875851288997e-04 -1.413805567797e-06 0.0 
-1.413805567797e-06 6.584177510452e-03 0.0 
0.0 0.0 -9.897378988699e-04 
-1.026769546168e-03 -2.237330550631e-06 0.0 
-2.237330550631e-06 6.840866959104e-03 0.0 
0.0 0.0 -1.026001677571e-03 
-1.092973095107e-03 -7.454569989656e-06 0.0 
-7.454569989656e-06 7.301089234385e-03 0.0 
0.0 0.0 -1.091942449670e-03 
-1.064751991023e-03 -3.501272267757e-06 0.0 
-3.501272267757e-06 7.095620902661e-03 0.0 
0.0 0.0 -1.062342898562e-03 
-9.988564979816e-04 -1.668871402208e-06 0.0 
-1.668871402208e-06 6.635005463114e-03 0.0 
0.0 0.0 -9.962627399151e-04 
-1.034436478479e-03 -1.481002808329e-06 0.0 
-1.481002808329e-06 6.886326563749e-03 0.0 
0.0 0.0 -1.032646955902e-03 
-9.669903561008e-04 -1.588757973743e-06 0.0 
-1.588757973743e-06 6.424013170772e-03 0.0 
0.0 0.0 -9.664557332607e-04 
-1.003700280699e-03 7.299281572319e-07 0.0 
7.299281572319e-07 6.676052297610e-03 0.0 
0.0 0.0 -1.002889032254e-03 
-1.069539961128e-03 -1.406306334187e-06 0.0 
-1.406306334187e-06 7.137459283332e-03 0.0 
0.0 0.0 -1.069134413525e-03 
-1.040251277345e-03 -2.304501535935e-06 0.0 
-2.304501535935e-06 6.929939891367e-03 0.0 
0.0 0.0 -1.039387411609e-03 
-9.757356294361e-04 3.492291009929e-06 0.0 
3.492291009929e-06 6.469291385121e-03 0.0 
0.0 0.0 -9.730575354659e-04 
-1.011311036558e-03 -3.920010342677e-06 0.0 
-3.920010342677e-06 6.721391753202e-03 0.0 
0.0 0.0 -1.009574527126e-03 
-9.473976655286e-04 1.069754497064e-06 0.0 
1.069754497064e-06 6.259448801403e-03 0.0 
0.0 0.0 -9.431603702596e-04 
-9.787243902099e-04 -9.076392670537e-06 0.0 
-9.076392670537e-06 6.505694726987e-03 0.0 
0.0 0.0 -9.796061197752e-04 
-1.045613844249e-03 -1.722974318839e-06 0.0 
-1.722974318839e-06 6.974649094867e-03 0.0 
0.0 0.0 -1.046101832713e-03 
-2.943775444909e-04 -6.928567679434e-07 0.0 
-6.928567679434e-07 1.805789486149e-03 0.0 
0.0 0.0 -3.035957800550e-04 
-1.017758437713e-03 8.339975111652e-07 0.0 
8.339975111652e-07 6.780275813963e-03 0.0 
0.0 0.0 -1.017732614895e-03 
-1.085695951343e-03 9.008470653870e-06 0.0 
9.008470653870e-06 7.238624846316e-03 0.0 
0.0 0.0 -1.083831836677e-03 
-5.709103913775e-04 -2.325431224873e-05 0.0 
-2.325431224873e-05 3.664168357293e-03 0.0 
0.0 0.0 -5.671321338944e-04 
-6.324387949388e-04 -2.542767452312e-05 0.0 
-2.542767452312e-05 4.079572971033e-03 0.0 
0.0 0.0 -6.325382687906e-04 
-6.703304024063e-04 2.057485422859e-06 0.0 
2.057485422859e-06 4.353279279577e-03 0.0 
0.0 0.0 -6.695659616924e-04 
-6.965174910300e-04 -2.385319859479e-06 0.0 
-2.385319859479e-06 4.560833435242e-03 0.0 
0.0 0.0 -6.986863204145e-04 
-1.013217864429e-03 -6.931448216259e-06 0.0 
-6.931448216259e-06 6.760757040862e-03 0.0 
0.0 0.0 -1.015477767897e-03 
-1.085754476307e-03 4.526117246910e-06 0.0 
4.526117246910e-06 7.228792746516e-03 0.0 
0.0 0.0 -1.082739357160e-03 
-3.632786350414e-04 -5.324944035335e-07 0.0 
-5.324944035335e-07 2.218076515491e-03 0.0 
0.0 0.0 -3.630904347118e-04 
-3.989196443091e-04 3.443700858761e-06 0.0 
3.443700858761e-06 2.465366928233e-03 0.0 
0.0 0.0 -3.987635198617e-04 
-1.114604240908e-03 -4.187271034228e-06 0.0 
-4.187271034228e-06 7.457266297093e-03 0.0 
0.0 0.0 -1.114382729655e-03 
-1.023827423401e-03 3.244776891224e-07 0.0 
3.244776891224e-07 6.846372715936e-03 0.0 
0.0 0.0 -1.027045364000e-03 
-9.591711885291e-04 5.195306824493e-06 0.0 
5.195306824493e-06 6.383348184143e-03 0.0 
0.0 0.0 -9.609938998495e-04 
-6.727539858769e-04 1.372459178946e-06 0.0 
1.372459178946e-06 4.373266699252e-03 0.0 
0.0 0.0 -6.721935305596e-04 
-6.457182263888e-04 2.843205903179e-06 0.0 
2.843205903179e-06 4.180265241662e-03 0.0 
0.0 0.0 -6.449639573754e-04 
-6.090109741668e-04 -1.269187225444e-06 0.0 
-1.269187225444e-06 3.932858286179e-03 0.0 
0.0 0.0 -6.093131083769e-04 
-5.816903259702e-04 4.641891431309e-06 0.0 
4.641891431309e-06 3.732340485873e-03 0.0 
0.0 0.0 -5.812298138028e-04 
-6.200283683434e-04 9.586645545086e-06 0.0 
9.586645545086e-06 3.992414838426e-03 0.0 
0.0 0.0 -6.173664885638e-04 
-5.434193891668e-04 -9.403867661893e-06 0.0 
-9.403867661893e-06 3.478668698049e-03 0.0 
0.0 0.0 -5.448148816535e-04 
-9.373928058819e-04 -1.601369738949e-06 0.0 
-1.601369738949e-06 6.221929865538e-03 0.0 
0.0 0.0 -9.373051277721e-04 
-1.105789133782e-03 -5.097961888882e-06 0.0 
-5.097961888882e-06 7.391609738888e-03 0.0 
0.0 0.0 -1.105708206284e-03 
-3.854345613970e-04 8.443027839789e-06 0.0 
8.443027839789e-06 2.371646984252e-03 0.0 
0.0 0.0 -3.852871208612e-04 
-3.201910169613e-04 4.758000015150e-06 0.0 
4.758000015150e-06 1.911169802832e-03 0.0 
0.0 0.0 -3.193625892355e-04 
-1.092402492623e-03 -1.167819157839e-06 0.0 
-1.167819157839e-06 7.309660398486e-03 0.0 
0.0 0.0 -1.093300181677e-03 
-9.522712570359e-04 -2.708707743094e-07 0.0 
-2.708707743094e-07 6.324723503682e-03 0.0 
0.0 0.0 -9.522822042369e-04 
-9.318364452749e-04 -3.558001127054e-06 0.0 
-3.558001127054e-06 6.182417451607e-03 0.0 
0.0 0.0 -9.319735432435e-04 
-9.592391997822e-04 -2.458009781570e-06 0.0 
-2.458009781570e-06 6.375907434676e-03 0.0 
0.0 0.0 -9.598347391831e-04 
-9.950739296231e-04 -4.572796618561e-06 0.0 
-4.572796618561e-06 6.625947379230e-03 0.0 
0.0 0.0 -9.957130113267e-04 
-1.022389104434e-03 -1.719325875493e-06 0.0 
-1.719325875493e-06 6.820013246431e-03 0.0 
0.0 0.0 -1.023751803962e-03 
-1.059370439720e-03 -5.405362556182e-06 0.0 
-5.405362556182e-06 7.072199763534e-03 0.0 
0.0 0.0 -1.059873349132e-03 
-1.087678763415e-03 -2.923161999976e-06 0.0 
-2.923161999976e-06 7.265128234670e-03 0.0 
0.0 0.0 -1.087854580038e-03 
-1.051303081443e-03 5.171402569021e-07 0.0 
5.171402569021e-07 7.018896459243e-03 0.0 
0.0 0.0 -1.051791170495e-03 
-1.103769166382e-03 7.691851827816e-06 0.0 
7.691851827816e-06 7.404894528321e-03 0.0 
0.0 0.0 -1.107463318235e-03 
-1.117712624745e-03 -3.586966882226e-06 0.0 
-3.586966882226e-06 7.467456065744e-03 0.0 
0.0 0.0 -1.115916943430e-03 
-9.389683298366e-04 8.173508751319e-06 0.0 
8.173508751319e-06 6.277342985551e-03 0.0 
0.0 0.0 -9.487150400336e-04 
-9.410739694122e-04 -1.111791304633e-06 0.0 
-1.111791304633e-06 6.241243045591e-03 0.0 
0.0 0.0 -9.398448712237e-04 
-4.457204000866e-04 5.557813324707e-06 0.0 
5.557813324707e-06 2.807268937135e-03 0.0 
0.0 0.0 -4.474652294669e-04 
-2.787239558753e-04 -1.594210911560e-05 0.0 
-1.594210911560e-05 1.590980471387e-03 0.0 
0.0 0.0 -2.752498982733e-04 
-2.801629165478e-04 1.388173637086e-07 0.0 
1.388173637086e-07 1.614413284500e-03 0.0 
0.0 0.0 -2.770275614452e-04 
-3.257086370933e-04 6.463444473936e-06 0.0 
6.463444473936e-06 1.982032803988e-03 0.0 
0.0 0.0 -3.299748606085e-04 
-3.924316838371e-04 3.341960258316e-06 0.0 
3.341960258316e-06 2.447443434601e-03 0.0 
0.0 0.0 -3.961554456411e-04 
-1.134349550786e-03 -1.652632845499e-06 0.0 
-1.652632845499e-06 7.607275251226e-03 0.0 
0.0 0.0 -1.136360603439e-03 
-1.125800754315e-03 -5.253853129318e-06 0.0 
-5.253853129318e-06 7.520991050392e-03 0.0 
0.0 0.0 -1.124065295910e-03 
-1.096791908378e-03 -5.220402544509e-06 0.0 
-5.220402544509e-06 7.320289406061e-03 0.0 
0.0 0.0 -1.095615423988e-03 
-5.557080703907e-04 2.060507655016e-05 0.0 
2.060507655016e-05 3.553838567094e-03 0.0 
0.0 0.0 -5.539799138139e-04 
-5.938414920039e-04 6.065843658320e-06 0.0 
6.065843658320e-06 3.806784454423e-03 0.0 
0.0 0.0 -5.905304635153e-04 
-1.132061157024e-03 2.994999273336e-06 0.0 
2.994999273336e-06 7.609332849678e-03 0.0 
0.0 0.0 -1.136278651916e-03 
-9.052603845710e-04 -1.496793008780e-06 0.0 
-1.496793008780e-06 6.089428360264e-03 0.0 
0.0 0.0 -9.177848451843e-04 
-9.302886435712e-04 -1.143901140707e-06 0.0 
-1.143901140707e-06 6.175006027383e-03 0.0 
0.0 0.0 -9.302130594432e-04 
-8.986318941469e-04 1.808913455713e-06 0.0 
1.808913455713e-06 5.958837749668e-03 0.0 
0.0 0.0 -9.001900590098e-04 
-2.448154097378e-04 -1.421673720988e-05 0.0 
-1.421673720988e-05 1.469020257813e-03 0.0 
0.0 0.0 -2.595221258752e-04 
-2.425141975508e-04 4.798340757523e-06 0.0 
4.798340757523e-06 1.427444744679e-03 0.0 
0.0 0.0 -2.525597767350e-04 
-1.129866785975e-03 -6.589135683467e-06 0.0 
-6.589135683467e-06 7.556758245339e-03 0.0 
0.0 0.0 -1.128363834889e-03 
-4.625030533362e-04 2.152653740952e-06 0.0 
2.152653740952e-06 2.905591162520e-03 0.0 
0.0 0.0 -4.615872697407e-04 
-4.348533942840e-04 3.201452625993e-06 0.0 
3.201452625993e-06 2.712395630356e-03 0.0 
0.0 0.0 -4.342639779644e-04 
-2.556862254963e-04 9.465200077415e-06 0.0 
9.465200077415e-06 1.446637132956e-03 0.0 
0.0 0.0 -2.508181872060e-04 
-2.123142658658e-04 2.153637717968e-06 0.0 
2.153637717968e-06 1.175585796085e-03 0.0 
0.0 0.0 -2.143868084631e-04 
-1.042731456099e-03 1.901936730490e-05 0.0 
1.901936730490e-05 6.995442815012e-03 0.0 
0.0 0.0 -1.051814883004e-03 
-1.110984337992e-03 1.360393105757e-05 0.0 
1.360393105757e-05 7.468547826848e-03 0.0 
0.0 0.0 -1.117859435171e-03 
-7.312716402703e-04 -2.190675999985e-06 0.0 
-2.190675999985e-06 4.814374156657e-03 0.0 
0.0 0.0 -7.356929296387e-04 
-7.645892286358e-04 -1.102166449944e-05 0.0 
-1.102166449944e-05 5.018862629850e-03 0.0 
0.0 0.0 -7.648299719236e-04 
-1.105578814045e-03 -4.864618337799e-06 0.0 
-4.864618337799e-06 7.407304501986e-03 0.0 
0.0 0.0 -1.107558395918e-03 
-3.066920262704e-04 -9.941053824373e-07 0.0 
-9.941053824373e-07 1.825477502809e-03 0.0 
0.0 0.0 -3.060794667268e-04 
-1.146252104278e-03 9.473611415335e-07 0.0 
9.473611415335e-07 7.693660702169e-03 0.0 
0.0 0.0 -1.149181664990e-03 
-9.819770468004e-04 3.151631864524e-06 0.0 
3.151631864524e-06 6.525650668115e-03 0.0 
0.0 0.0 -9.807908033776e-04 
-9.159380280943e-04 1.195442860158e-06 0.0 
1.195442860158e-06 6.068082639928e-03 0.0 
0.0 0.0 -9.152404036620e-04 
-6.511413906153e-04 1.424536279066e-05 0.0 
1.424536279066e-05 4.294241389317e-03 0.0 
0.0 0.0 -6.604623333687e-04 
-3.374810340453e-04 6.844433927076e-06 0.0 
6.844433927076e-06 2.031763814607e-03 0.0 
0.0 0.0 -3.366432492119e-04 
-3.027001806186e-04 4.554754580680e-06 0.0 
4.554754580680e-06 1.781580953442e-03 0.0 
0.0 0.0 -3.009099309908e-04 
-4.837618896288e-04 7.408810593364e-06 0.0 
7.408810593364e-06 3.065907824055e-03 0.0 
0.0 0.0 -4.845585894574e-04 
-3.706525314116e-04 2.979043878536e-06 0.0 
2.979043878536e-06 2.283251894813e-03 0.0 
0.0 0.0 -3.723415964733e-04 
-3.535775650443e-04 1.642795960159e-06 0.0 
1.642795960159e-06 2.183712345689e-03 0.0 
0.0 0.0 -3.583452993329e-04 
-1.171956394673e-03 7.296733533155e-06 0.0 
7.296733533155e-06 7.865937936914e-03 0.0 
0.0 0.0 -1.173829981771e-03 
-1.155496536768e-03 -7.585900876938e-06 0.0 
-7.585900876938e-06 7.757441294242e-03 0.0 
0.0 0.0 -1.157575248917e-03 
-1.081331483118e-03 -1.018192650105e-05 0.0 
-1.018192650105e-05 7.219793718708e-03 0.0 
0.0 0.0 -1.080172819833e-03 
-1.016976595983e-03 3.080934608910e-08 0.0 
3.080934608910e-08 6.767850029250e-03 0.0 
0.0 0.0 -1.015677837919e-03 
-1.139278177336e-03 -7.940019038876e-06 0.0 
-7.940019038876e-06 7.665797132760e-03 0.0 
0.0 0.0 -1.144955025780e-03 
-2.327287223155e-04 -5.619721676057e-06 0.0 
-5.619721676057e-06 1.369838176642e-03 0.0 
0.0 0.0 -2.399185640008e-04 
-1.167065302037e-03 -2.167295117524e-06 0.0 
-2.167295117524e-06 7.816099518397e-03 0.0 
0.0 0.0 -1.165794428787e-03 
-1.057599608467e-03 -1.462585030790e-06 0.0 
-1.462585030790e-06 7.053925433098e-03 0.0 
0.0 0.0 -1.056136825731e-03 
-1.166821884924e-03 8.580756338021e-06 0.0 
8.580756338021e-06 7.754116842770e-03 0.0 
0.0 0.0 -1.157598467365e-03 
-1.133408506306e-03 -8.435792570644e-07 0.0 
-8.435792570644e-07 7.569033753462e-03 0.0 
0.0 0.0 -1.131219827106e-03 
-4.984456519411e-04 4.300557589802e-06 0.0 
4.300557589802e-06 3.150357815837e-03 0.0 
0.0 0.0 -4.968499830348e-04 
-4.727344614058e-04 -4.063132868484e-06 0.0 
-4.063132868484e-06 2.963684111716e-03 0.0 
0.0 0.0 -4.705806478706e-04 
-4.091383170965e-04 2.862069894870e-06 0.0 
2.862069894870e-06 2.529363987017e-03 0.0 
0.0 0.0 -4.078257031896e-04 
-4.471058786427e-04 1.072951437622e-05 0.0 
1.072951437622e-05 2.788633828474e-03 0.0 
0.0 0.0 -4.438024830152e-04 
-8.440631779025e-04 -4.493147098222e-06 0.0 
-4.493147098222e-06 5.518369027804e-03 0.0 
0.0 0.0 -8.361670615231e-04 
-5.357092529258e-04 -9.292843076392e-07 0.0 
-9.292843076392e-07 3.402933662769e-03 0.0 
0.0 0.0 -5.333915535664e-04 
-7.972227851670e-04 -9.360487059479e-07 0.0 
-9.360487059479e-07 5.222669072684e-03 0.0 
0.0 0.0 -7.939299641313e-04 
-7.702508874020e-04 -1.538210288726e-06 0.0 
-1.538210288726e-06 5.031866795854e-03 0.0 
0.0 0.0 -7.665196690739e-04 
-7.355056886190e-04 7.347932432802e-07 0.0 
7.347932432802e-07 4.791036993934e-03 0.0 
0.0 0.0 -7.319524942586e-04 
-6.561872916337e-04 1.268419360751e-06 0.0 
1.268419360751e-06 4.239606973166e-03 0.0 
0.0 0.0 -6.527873785750e-04 
-6.291613184761e-04 -1.439650198992e-06 0.0 
-1.439650198992e-06 4.053875822961e-03 0.0 
0.0 0.0 -6.261871041946e-04 
-5.548406946331e-04 -1.134560045706e-06 0.0 
-1.134560045706e-06 3.546628030902e-03 0.0 
0.0 0.0 -5.534964465553e-04 
-8.399940984115e-04 -3.577201231008e-06 0.0 
-3.577201231008e-06 5.537581821643e-03 0.0 
0.0 0.0 -8.390310526140e-04 
-7.058409553932e-04 5.047899969827e-07 0.0 
5.047899969827e-07 4.614117323526e-03 0.0 
0.0 0.0 -7.069621042110e-04 
-8.747594299032e-04 -2.558061717916e-06 0.0 
-2.558061717916e-06 5.788017369400e-03 0.0 
0.0 0.0 -8.751042800696e-04 
-8.345970192924e-04 7.968047685424e-07 0.0 
7.968047685424e-07 5.508873449258e-03 0.0 
0.0 0.0 -8.350146568664e-04 
-1.135366159085e-03 -3.784163045625e-06 0.0 
-3.784163045625e-06 7.595187475630e-03 0.0 
0.0 0.0 -1.135109731873e-03 
-1.173430748718e-03 -9.063019793229e-06 0.0 
-9.063019793229e-06 7.855172062360e-03 0.0 
0.0 0.0 -1.171938512032e-03 
-9.103494794308e-04 9.134385712317e-06 0.0 
9.134385712317e-06 6.008446285683e-03 0.0 
0.0 0.0 -9.065739516476e-04 
-8.719468559850e-04 9.049287930879e-07 0.0 
9.049287930879e-07 5.790867004059e-03 0.0 
0.0 0.0 -8.764137937918e-04 
-2.822142401262e-04 -1.729015805274e-06 0.0 
-1.729015805274e-06 1.647043850495e-03 0.0 
0.0 0.0 -2.813159824896e-04 
-2.590672524343e-04 7.758668078462e-06 0.0 
7.758668078462e-06 1.453070456664e-03 0.0 
0.0 0.0 -2.532569443854e-04 
-7.885436432884e-04 5.287197585390e-07 0.0 
5.287197585390e-07 5.190389624089e-03 0.0 
0.0 0.0 -7.894497706086e-04 
-1.129157536929e-03 4.394584270014e-06 0.0 
4.394584270014e-06 7.545263270116e-03 0.0 
0.0 0.0 -1.127529358476e-03 
-1.150499129859e-03 -1.601096256573e-07 0.0 
-1.601096256573e-07 7.703368893988e-03 0.0 
0.0 0.0 -1.150095860580e-03 
-1.180515255213e-03 -2.827683268668e-06 0.0 
-2.827683268668e-06 7.908952217123e-03 0.0 
0.0 0.0 -1.179372829571e-03 
-1.142938913333e-03 -3.318694813183e-06 0.0 
-3.318694813183e-06 7.657003561438e-03 0.0 
0.0 0.0 -1.143369325256e-03 
-1.140111309187e-03 8.981293941597e-07 0.0 
8.981293941597e-07 7.659653688633e-03 0.0 
0.0 0.0 -1.144273392007e-03 
-5.742583376343e-04 1.322470559695e-07 0.0 
1.322470559695e-07 3.685291735877e-03 0.0 
0.0 0.0 -5.733740095480e-04 
-8.593234151620e-04 -2.874076437018e-06 0.0 
-2.874076437018e-06 5.675695790787e-03 0.0 
0.0 0.0 -8.590966742019e-04 
-2.435677437140e-04 -1.068446741351e-05 0.0 
-1.068446741351e-05 1.382271228051e-03 0.0 
0.0 0.0 -2.423215009416e-04 
-8.888171571715e-04 7.702896637560e-07 0.0 
7.702896637560e-07 5.879388839658e-03 0.0 
0.0 0.0 -8.884627649733e-04 
-2.162237035633e-04 -3.672272412215e-06 0.0 
-3.672272412215e-06 1.184819371308e-03 0.0 
0.0 0.0 -2.162536877156e-04 
-1.014212058360e-03 -1.424401912228e-06 0.0 
-1.424401912228e-06 6.732806316095e-03 0.0 
0.0 0.0 -1.010319580236e-03 
-1.121146682577e-03 5.393536552770e-07 0.0 
5.393536552770e-07 7.512550218556e-03 0.0 
0.0 0.0 -1.122815839103e-03 
-1.157064342210e-03 3.278319431587e-08 0.0 
3.278319431587e-08 7.769042756358e-03 0.0 
0.0 0.0 -1.159213750608e-03 
-1.166424981014e-03 1.813592645850e-06 0.0 
1.813592645850e-06 7.856112587899e-03 0.0 
0.0 0.0 -1.171959308352e-03 
-7.504080630279e-04 1.142017006419e-05 0.0 
1.142017006419e-05 4.900584458038e-03 0.0 
0.0 0.0 -7.470952864203e-04 
-9.172347539121e-04 2.804117413080e-06 0.0 
2.804117413080e-06 6.075069916316e-03 0.0 
0.0 0.0 -9.162722660995e-04 
-8.822868772852e-04 1.786082975063e-06 0.0 
1.786082975063e-06 5.828052429250e-03 0.0 
0.0 0.0 -8.808726170640e-04 
-7.075025449256e-04 3.734403441954e-06 0.0 
3.734403441954e-06 4.602949033639e-03 0.0 
0.0 0.0 -7.048691535495e-04 
-6.736902723486e-04 3.915004124877e-06 0.0 
3.915004124877e-06 4.364959797177e-03 0.0 
0.0 0.0 -6.707530558731e-04 
-7.003926698376e-04 3.499859416376e-06 0.0 
3.499859416376e-06 4.548937086678e-03 0.0 
0.0 0.0 -6.972958566626e-04 
-6.396081130526e-04 3.801189656250e-06 0.0 
3.801189656250e-06 4.126284090508e-03 0.0 
0.0 0.0 -6.359606378414e-04 
-5.113814833482e-04 4.985013341250e-06 0.0 
4.985013341250e-06 3.258506878652e-03 0.0 
0.0 0.0 -5.122594947013e-04 
-4.735906672379e-04 3.101741148840e-06 0.0 
3.101741148840e-06 2.998270021668e-03 0.0 
0.0 0.0 -4.750188804659e-04 
-1.196527535369e-03 2.030860363359e-06 0.0 
2.030860363359e-06 8.017120294099e-03 0.0 
0.0 0.0 -1.192042136895e-03 
-1.179471908673e-03 2.186350744697e-05 0.0 
2.186350744697e-05 7.917990259976e-03 0.0 
0.0 0.0 -1.178660172201e-03 
-1.197525366512e-03 -5.361254675000e-06 0.0 
-5.361254675000e-06 8.017772106938e-03 0.0 
0.0 0.0 -1.193029175878e-03 
-1.157007599871e-03 -4.254495392820e-07 0.0 
-4.254495392820e-07 7.831852404544e-03 0.0 
0.0 0.0 -1.168165168231e-03 
-1.184219832489e-03 -2.995135238666e-06 0.0 
-2.995135238666e-06 8.054139615854e-03 0.0 
0.0 0.0 -1.200910491468e-03 
-1.156433585434e-03 -1.143666503542e-06 0.0 
-1.143666503542e-06 7.807020133364e-03 0.0 
0.0 0.0 -1.164168769488e-03 
-4.264796299705e-04 -5.762809161324e-06 0.0 
-5.762809161324e-06 2.638842137297e-03 0.0 
0.0 0.0 -4.227350873389e-04 
-5.681760473818e-04 2.318592575023e-06 0.0 
2.318592575023e-06 3.626581176623e-03 0.0 
0.0 0.0 -5.646260317871e-04 
-1.184636686047e-03 -1.016095806196e-05 0.0 
-1.016095806196e-05 8.009054334469e-03 0.0 
0.0 0.0 -1.194151889699e-03 
-7.414862310133e-04 3.192804147293e-06 0.0 
3.192804147293e-06 4.838396811126e-03 0.0 
0.0 0.0 -7.390869131010e-04 
-1.198370689590e-03 -4.208230376703e-06 0.0 
-4.208230376703e-06 8.000236790466e-03 0.0 
0.0 0.0 -1.192835421428e-03 
-1.157965586969e-03 3.621187988871e-06 0.0 
3.621187988871e-06 7.751872966735e-03 0.0 
0.0 0.0 -1.156047193884e-03 
-1.679677723563e-04 -6.471467775008e-06 0.0 
-6.471467775008e-06 9.157850137993e-04 0.0 
0.0 0.0 -1.776502893165e-04 
-2.010012491603e-04 -2.186198543596e-05 0.0 
-2.186198543596e-05 1.109886420371e-03 0.0 
0.0 0.0 -2.034953494974e-04 
-1.179928424182e-03 1.756406795450e-06 0.0 
1.756406795450e-06 7.951460578279e-03 0.0 
0.0 0.0 -1.184588873336e-03 
-3.838885301584e-04 -2.308315346318e-07 0.0 
-2.308315346318e-07 2.344842445821e-03 0.0 
0.0 0.0 -3.811925308841e-04 
-4.219559892700e-04 7.989363516707e-06 0.0 
7.989363516707e-06 2.586701229719e-03 0.0 
0.0 0.0 -4.158690271831e-04 
-3.474814854535e-04 -1.898705035342e-06 0.0 
-1.898705035342e-06 2.092244309525e-03 0.0 
0.0 0.0 -3.459699425273e-04 
-1.258412294817e-03 4.723230244906e-06 0.0 
4.723230244906e-06 8.451854294521e-03 0.0 
0.0 0.0 -1.258310293365e-03 
-7.484881504012e-04 -2.960864060537e-06 0.0 
-2.960864060537e-06 4.893199602045e-03 0.0 
0.0 0.0 -7.479256703001e-04 
-1.180456674817e-03 2.203572108480e-06 0.0 
2.203572108480e-06 7.969948982011e-03 0.0 
0.0 0.0 -1.189418985649e-03 
-6.915459890032e-04 2.639723401829e-07 0.0 
2.639723401829e-07 4.488659587492e-03 0.0 
0.0 0.0 -6.884682336192e-04 
-1.207477073685e-03 3.654066082089e-06 0.0 
3.654066082089e-06 8.169097270233e-03 0.0 
0.0 0.0 -1.216510697198e-03 
-9.459891485395e-04 2.183343284727e-06 0.0 
2.183343284727e-06 6.276634781059e-03 0.0 
0.0 0.0 -9.449116413281e-04 
-6.354655665352e-04 7.994205054170e-06 0.0 
7.994205054170e-06 4.117898953292e-03 0.0 
0.0 0.0 -6.353966017694e-04 
-1.078683645923e-03 -8.754256551620e-06 0.0 
-8.754256551620e-06 7.202760317134e-03 0.0 
0.0 0.0 -1.078177493492e-03 
-1.141578224774e-03 -1.678015124370e-05 0.0 
-1.678015124370e-05 7.703318796330e-03 0.0 
0.0 0.0 -1.149140729088e-03 
-1.226390364052e-03 1.281801736300e-05 0.0 
1.281801736300e-05 8.221773688785e-03 0.0 
0.0 0.0 -1.221625961084e-03 
-8.548571335586e-04 9.585095622204e-06 0.0 
9.585095622204e-06 5.710330831809e-03 0.0 
0.0 0.0 -8.638707813346e-04 
-8.315226367926e-04 -1.796676276349e-05 0.0 
-1.796676276349e-05 5.471080815741e-03 0.0 
0.0 0.0 -8.327709333130e-04 
-8.913153694948e-04 3.187001622893e-06 0.0 
3.187001622893e-06 5.908304703834e-03 0.0 
0.0 0.0 -8.925140200429e-04 
-2.901697666163e-04 2.957652242807e-06 0.0 
2.957652242807e-06 1.700907778148e-03 0.0 
0.0 0.0 -2.887053311254e-04 
-2.259876589125e-04 -1.628476741887e-06 0.0 
-1.628476741887e-06 1.207242233754e-03 0.0 
0.0 0.0 -2.186270541161e-04 
-1.144042553285e-03 -3.972510573065e-06 0.0 
-3.972510573065e-06 7.644643748638e-03 0.0 
0.0 0.0 -1.142090266074e-03 
-5.015691225624e-04 -4.004972649539e-06 0.0 
-4.004972649539e-06 3.172327891301e-03 0.0 
0.0 0.0 -5.006138788623e-04 
-5.490396028458e-04 1.473261204918e-05 0.0 
1.473261204918e-05 3.431798845594e-03 0.0 
0.0 0.0 -5.359218444892e-04 
-3.334097721275e-04 4.182676571346e-07 0.0 
4.182676571346e-07 2.008435002854e-03 0.0 
0.0 0.0 -3.328711069468e-04 
-3.967994371980e-04 3.163349435490e-06 0.0 
3.163349435490e-06 2.463726324997e-03 0.0 
0.0 0.0 -3.985542937016e-04 
-7.704918098593e-04 -2.506920415004e-06 0.0 
-2.506920415004e-06 5.073323433467e-03 0.0 
0.0 0.0 -7.728092966600e-04 
-7.429755971663e-04 -1.604665723007e-06 0.0 
-1.604665723007e-06 4.873825415622e-03 0.0 
0.0 0.0 -7.441750962829e-04 
-1.041105417575e-03 -3.532804275432e-06 0.0 
-3.532804275432e-06 6.930458439110e-03 0.0 
0.0 0.0 -1.038692069610e-03 
-1.077691050121e-03 5.915919111276e-07 0.0 
5.915919111276e-07 7.178307862229e-03 0.0 
0.0 0.0 -1.074129358999e-03 
-9.680145315127e-04 -4.800744221102e-06 0.0 
-4.800744221102e-06 6.431374472253e-03 0.0 
0.0 0.0 -9.675620497173e-04 
-9.449072701309e-04 5.755247328018e-07 0.0 
5.755247328018e-07 6.268683015175e-03 0.0 
0.0 0.0 -9.439558448496e-04 
-8.793469056983e-04 2.651871179728e-07 0.0 
2.651871179728e-07 5.812169911194e-03 0.0 
0.0 0.0 -8.783802297791e-04 
-8.506353188412e-04 -1.205932606195e-06 0.0 
-1.205932606195e-06 5.614865789540e-03 0.0 
0.0 0.0 -8.502765121186e-04 
-1.205371287344e-03 -1.017172525851e-05 0.0 
-1.017172525851e-05 8.044519540676e-03 0.0 
0.0 0.0 -1.199867006878e-03 
-1.246871842620e-03 -1.782584577396e-06 0.0 
-1.782584577396e-06 8.370823131876e-03 0.0 
0.0 0.0 -1.242728214876e-03 
-5.491066158242e-04 3.796504913795e-06 0.0 
3.796504913795e-06 3.515286504074e-03 0.0 
0.0 0.0 -5.488632449009e-04 
-5.218883337208e-04 5.205294616476e-06 0.0 
5.205294616476e-06 3.322312941731e-03 0.0 
0.0 0.0 -5.212126360957e-04 
-5.377854580404e-04 4.143852354807e-06 0.0 
4.143852354807e-06 3.445251353484e-03 0.0 
0.0 0.0 -5.390128571062e-04 
-1.214529256448e-03 -6.301616693017e-06 0.0 
-6.301616693017e-06 8.215301645721e-03 0.0 
0.0 0.0 -1.223056365294e-03 
-1.220614911318e-03 1.691106897417e-05 0.0 
1.691106897417e-05 8.234319209605e-03 0.0 
0.0 0.0 -1.224004481682e-03 
-1.202636442924e-03 -1.450484537668e-05 0.0 
-1.450484537668e-05 8.019827799738e-03 0.0 
0.0 0.0 -1.195820777905e-03 
-1.923031463658e-04 -1.299529721394e-05 0.0 
-1.299529721394e-05 1.005842812599e-03 0.0 
0.0 0.0 -1.880780275778e-04 
-2.380587333974e-04 -7.138126159431e-06 0.0 
-7.138126159431e-06 1.256954979671e-03 0.0 
0.0 0.0 -2.247092568812e-04 
-2.809188805545e-04 -7.804988416224e-07 0.0 
-7.804988416224e-07 1.601881524077e-03 0.0 
0.0 0.0 -2.751197234063e-04 
-2.390831316058e-04 -1.697522519497e-05 0.0 
-1.697522519497e-05 1.345355817379e-03 0.0 
0.0 0.0 -2.407125716443e-04 
-1.208745358060e-03 2.226513834322e-07 0.0 
2.226513834322e-07 8.094728759758e-03 0.0 
0.0 0.0 -1.207258722210e-03 
-1.173002429905e-03 -1.580225166915e-08 0.0 
-1.580225166915e-08 7.865013445176e-03 0.0 
0.0 0.0 -1.172631524865e-03 
-1.245587066994e-03 -1.350830728560e-07 0.0 
-1.350830728560e-07 8.403006214559e-03 0.0 
0.0 0.0 -1.247471551777e-03 
-3.784912276641e-04 1.355145565503e-05 0.0 
1.355145565503e-05 2.351827936340e-03 0.0 
0.0 0.0 -3.801539159394e-04 
-1.045351836581e-03 6.057785964149e-06 0.0 
6.057785964149e-06 6.969505785323e-03 0.0 
0.0 0.0 -1.045322365442e-03 
-1.205298536187e-03 1.211257299848e-05 0.0 
1.211257299848e-05 8.100207033565e-03 0.0 
0.0 0.0 -1.207899217314e-03 
-1.178583019777e-03 1.757022163116e-05 0.0 
1.757022163116e-05 7.916687945301e-03 0.0 
0.0 0.0 -1.178012378629e-03 
-1.242442001561e-03 9.743401619654e-06 0.0 
9.743401619654e-06 8.382783963078e-03 0.0 
0.0 0.0 -1.244624083072e-03 
-1.137070212873e-03 -2.028754131547e-06 0.0 
-2.028754131547e-06 7.646903784891e-03 0.0 
0.0 0.0 -1.142102124289e-03 
-1.209034666392e-03 -7.012965144966e-06 0.0 
-7.012965144966e-06 8.081623741308e-03 0.0 
0.0 0.0 -1.205428683694e-03 
-1.206763234680e-03 6.340388102844e-06 0.0 
6.340388102844e-06 8.101632159503e-03 0.0 
0.0 0.0 -1.209323031234e-03 
-1.526588308959e-04 -1.278274148865e-05 0.0 
-1.278274148865e-05 7.096255753314e-04 0.0 
0.0 0.0 -1.515181680101e-04 
-1.197635794990e-03 -1.679642684382e-05 0.0 
-1.679642684382e-05 8.038463106290e-03 0.0 
0.0 0.0 -1.199992767657e-03 
-8.372255126924e-04 -1.581405743943e-06 0.0 
-1.581405743943e-06 5.516497338344e-03 0.0 
0.0 0.0 -8.371571859873e-04 
-1.098991945020e-04 -3.154449405114e-05 0.0 
-3.154449405114e-05 5.330743413542e-04 0.0 
0.0 0.0 -1.134605161963e-04 
-7.981850025034e-04 -4.161080113051e-07 0.0 
-4.161080113051e-07 5.308479178574e-03 0.0 
0.0 0.0 -8.070151920887e-04 
-8.429634412097e-04 -1.709371110710e-06 0.0 
-1.709371110710e-06 5.581100165216e-03 0.0 
0.0 0.0 -8.451615393777e-04 
-7.696584184699e-04 -4.438777502690e-06 0.0 
-4.438777502690e-06 5.046252634616e-03 0.0 
0.0 0.0 -7.748096441827e-04 
-3.107010397172e-04 9.959927229254e-06 0.0 
9.959927229254e-06 1.894638977858e-03 0.0 
0.0 0.0 -3.155299188714e-04 
-8.095068364426e-04 -1.064416675752e-05 0.0 
-1.064416675752e-05 5.359424365734e-03 0.0 
0.0 0.0 -8.174106193842e-04 
-8.516632903957e-04 -1.548663215885e-05 0.0 
-1.548663215885e-05 5.659882039523e-03 0.0 
0.0 0.0 -8.556612431672e-04 
-1.454483653541e-04 3.285604104571e-06 0.0 
3.285604104571e-06 7.139538730243e-04 0.0 
0.0 0.0 -1.421329337195e-04 
-1.249632985061e-03 3.450770483263e-06 0.0 
3.450770483263e-06 8.450128189206e-03 0.0 
0.0 0.0 -1.259301554906e-03 
-1.652376678941e-04 -1.286666981347e-05 0.0 
-1.286666981347e-05 7.455520390208e-04 0.0 
0.0 0.0 -1.556443337539e-04 
-1.771144640534e-04 -1.673852043297e-05 0.0 
-1.673852043297e-05 9.409763732996e-04 0.0 
0.0 0.0 -1.806578101979e-04 
-1.211541890789e-03 1.467961613660e-05 0.0 
1.467961613660e-05 8.216069586299e-03 0.0 
0.0 0.0 -1.221214701962e-03 
-1.182137557378e-03 -1.347893005179e-06 0.0 
-1.347893005179e-06 7.946617508211e-03 0.0 
0.0 0.0 -1.184344882880e-03 
-1.248636598491e-03 -6.710766209712e-06 0.0 
-6.710766209712e-06 8.399111666310e-03 0.0 
0.0 0.0 -1.247726601234e-03 
-1.216304493113e-03 1.376146948645e-05 0.0 
1.376146948645e-05 8.121468603000e-03 0.0 
0.0 0.0 -1.211018817991e-03 
-1.146160367712e-03 -4.978228076882e-06 0.0 
-4.978228076882e-06 7.680298396241e-03 0.0 
0.0 0.0 -1.147066289601e-03 
-1.174333499691e-03 6.447300312305e-06 0.0 
6.447300312305e-06 7.890872304648e-03 0.0 
0.0 0.0 -1.176490610025e-03 
-8.022613359354e-04 -1.465561338708e-05 0.0 
-1.465561338708e-05 5.265642214057e-03 0.0 
0.0 0.0 -7.985989294648e-04 
-1.243628943204e-03 1.764986030872e-05 0.0 
1.764986030872e-05 8.400828657624e-03 0.0 
0.0 0.0 -1.249018369598e-03 
-1.202560827820e-03 4.472912903620e-06 0.0 
4.472912903620e-06 8.095627160272e-03 0.0 
0.0 0.0 -1.207442871744e-03 
-1.280707394095e-03 9.871433926358e-06 0.0 
9.871433926358e-06 8.646120131381e-03 0.0 
0.0 0.0 -1.277927415301e-03 
-6.139046463498e-04 4.062295408135e-06 0.0 
4.062295408135e-06 3.949909662933e-03 0.0 
0.0 0.0 -6.108003466767e-04 
-4.855763441254e-04 3.057596715553e-06 0.0 
3.057596715553e-06 3.031592722143e-03 0.0 
0.0 0.0 -4.789358348571e-04 
-4.592668061051e-04 2.643196690481e-06 0.0 
2.643196690481e-06 2.831145132009e-03 0.0 
0.0 0.0 -4.527251363391e-04 
-3.939664762502e-04 4.015896243424e-05 0.0 
4.015896243424e-05 2.394779108390e-03 0.0 
0.0 0.0 -3.875663759467e-04 
-1.235451159508e-03 5.414867173196e-06 0.0 
5.414867173196e-06 8.338545045283e-03 0.0 
0.0 0.0 -1.240180566941e-03 
-1.197541601819e-03 2.184484790424e-05 0.0 
2.184484790424e-05 8.058909055166e-03 0.0 
0.0 0.0 -1.200590015451e-03 
-1.087867486780e-03 1.085013592512e-06 0.0 
1.085013592512e-06 7.270465583492e-03 0.0 
0.0 0.0 -1.087555896896e-03 
-1.022984886136e-03 4.510930018261e-06 0.0 
4.510930018261e-06 6.802736585016e-03 0.0 
0.0 0.0 -1.020738973070e-03 
-8.163996236660e-04 7.186741062483e-06 0.0 
7.186741062483e-06 5.339991771102e-03 0.0 
0.0 0.0 -8.108182148135e-04 
-8.104965103200e-04 -8.251273631999e-06 0.0 
-8.251273631999e-06 5.308853861974e-03 0.0 
0.0 0.0 -8.077352941366e-04 
-8.720514006204e-04 3.179792081286e-05 0.0 
3.179792081286e-05 5.733381675574e-03 0.0 
0.0 0.0 -8.678526801547e-04 
-8.648510791427e-04 -7.111218047989e-06 0.0 
-7.111218047989e-06 5.661166370703e-03 0.0 
0.0 0.0 -8.609153521579e-04 
-9.263549734801e-04 3.033239231777e-05 0.0 
3.033239231777e-05 6.105443762298e-03 0.0 
0.0 0.0 -9.200517378055e-04 
-9.083479877115e-04 -1.416522287398e-05 0.0 
-1.416522287398e-05 6.036653926986e-03 0.0 
0.0 0.0 -9.108947733944e-04 
-9.698621139042e-04 -2.949214397531e-05 0.0 
-2.949214397531e-05 6.467199866666e-03 0.0 
0.0 0.0 -9.726914458129e-04 
-1.247222366311e-03 2.606056517107e-05 0.0 
2.606056517107e-05 8.375150940582e-03 0.0 
0.0 0.0 -1.245087786853e-03 
-3.186375953883e-04 9.254464651470e-06 0.0 
9.254464651470e-06 1.904578218722e-03 0.0 
0.0 0.0 -3.180830487989e-04 
-6.795655702328e-04 3.950407328816e-06 0.0 
3.950407328816e-06 4.416747400763e-03 0.0 
0.0 0.0 -6.783069842581e-04 
-1.217523867403e-03 -1.107710803929e-05 0.0 
-1.107710803929e-05 8.250220171501e-03 0.0 
0.0 0.0 -1.228261380050e-03 
-1.189954932966e-03 -3.389414248167e-06 0.0 
-3.389414248167e-06 7.976695802146e-03 0.0 
0.0 0.0 -1.187396807988e-03 
-6.030585832721e-04 2.040094254679e-06 0.0 
2.040094254679e-06 3.869813641297e-03 0.0 
0.0 0.0 -6.000944487132e-04 
-5.459736888774e-04 1.094222006423e-05 0.0 
1.094222006423e-05 3.457763009941e-03 0.0 
0.0 0.0 -5.401620014017e-04 
-1.244604975369e-03 1.395843640121e-05 0.0 
1.395843640121e-05 8.345755076324e-03 0.0 
0.0 0.0 -1.238794375355e-03 
-5.618086059147e-04 1.672788938663e-06 0.0 
1.672788938663e-06 3.593027472553e-03 0.0 
0.0 0.0 -5.600314934590e-04 
-1.295241739404e-03 -3.069672707253e-06 0.0 
-3.069672707253e-06 8.734931616820e-03 0.0 
0.0 0.0 -1.295459716840e-03 
-4.726518995245e-05 -5.619949717432e-06 0.0 
-5.619949717432e-06 2.661811301103e-04 0.0 
0.0 0.0 -5.690003420296e-05 
-1.291194022148e-04 1.153791065657e-05 0.0 
1.153791065657e-05 6.783732708890e-04 0.0 
0.0 0.0 -1.353443326634e-04 
-5.978702258073e-04 2.845759188031e-06 0.0 
2.845759188031e-06 3.846572588730e-03 0.0 
0.0 0.0 -5.969207367497e-04 
-6.645061217588e-04 1.210892726750e-06 0.0 
1.210892726750e-06 4.303380572845e-03 0.0 
0.0 0.0 -6.620222007989e-04 
-5.132181813278e-04 9.130074641247e-06 0.0 
9.130074641247e-06 3.278288147999e-03 0.0 
0.0 0.0 -5.157319100482e-04 
-4.860075133993e-04 2.990028342236e-06 0.0 
2.990028342236e-06 3.124396954495e-03 0.0 
0.0 0.0 -4.917183783407e-04 
-1.011317378684e-03 6.487621353870e-07 0.0 
6.487621353870e-07 6.733904614894e-03 0.0 
0.0 0.0 -1.010552660601e-03 
-1.970258742010e-04 -2.540004491936e-06 0.0 
-2.540004491936e-06 1.065332307301e-03 0.0 
0.0 0.0 -1.995083582888e-04 
-3.139166667020e-04 -2.253789274913e-06 0.0 
-2.253789274913e-06 1.850494599455e-03 0.0 
0.0 0.0 -3.106934562087e-04 
-9.732483420248e-04 2.855591412463e-05 0.0 
2.855591412463e-05 6.524849625930e-03 0.0 
0.0 0.0 -9.796923013958e-04 
-2.492954901946e-04 5.421975703598e-07 0.0 
5.421975703598e-07 1.421478567984e-03 0.0 
0.0 0.0 -2.487700610537e-04 
-1.054075874997e-03 3.591188931439e-06 0.0 
3.591188931439e-06 7.044165573929e-03 0.0 
0.0 0.0 -1.055800198362e-03 
-5.906078188001e-04 -3.257939390625e-06 0.0 
-3.257939390625e-06 3.796619652219e-03 0.0 
0.0 0.0 -5.891999696964e-04 
-7.180999395262e-04 1.178684333600e-07 0.0 
1.178684333600e-07 4.675154024113e-03 0.0 
0.0 0.0 -7.153500975001e-04 
-3.728153202836e-04 5.624284337180e-06 0.0 
5.624284337180e-06 2.280349559801e-03 0.0 
0.0 0.0 -3.721998919698e-04 
-5.103591414383e-04 -9.070033727982e-06 0.0 
-9.070033727982e-06 3.229749929793e-03 0.0 
0.0 0.0 -5.080103017801e-04 
-8.695833745558e-04 -3.060324942185e-06 0.0 
-3.060324942185e-06 5.711345853531e-03 0.0 
0.0 0.0 -8.638580894607e-04 
-8.186088136840e-04 -7.130242765401e-06 0.0 
-7.130242765401e-06 5.325410070609e-03 0.0 
0.0 0.0 -8.086477316853e-04 
-7.808475722582e-04 4.208348100153e-06 0.0 
4.208348100153e-06 5.088284712977e-03 0.0 
0.0 0.0 -7.738406155293e-04 
-6.192436331633e-04 -2.766602775214e-06 0.0 
-2.766602775214e-06 3.995359302638e-03 0.0 
0.0 0.0 -6.178822433291e-04 
-5.311490319335e-04 1.040423507353e-05 0.0 
1.040423507353e-05 3.373878795457e-03 0.0 
0.0 0.0 -5.288330985435e-04 
-4.650941372061e-04 3.123945634371e-06 0.0 
3.123945634371e-06 2.898874049441e-03 0.0 
0.0 0.0 -4.617239487405e-04 
-8.245081772930e-04 8.576273435803e-07 0.0 
8.576273435803e-07 5.414129368543e-03 0.0 
0.0 0.0 -8.213029907542e-04 
-1.107776256753e-03 4.822798209686e-06 0.0 
4.822798209686e-06 7.407183480602e-03 0.0 
0.0 0.0 -1.107475121065e-03 
-1.139123580733e-03 8.505935532864e-06 0.0 
8.505935532864e-06 7.608538315330e-03 0.0 
0.0 0.0 -1.136341617999e-03 
-1.199876040135e-03 -5.928463900690e-08 0.0 
-5.928463900690e-08 8.046533922637e-03 0.0 
0.0 0.0 -1.199268560344e-03 
-1.168168474149e-03 4.195650786327e-06 0.0 
4.195650786327e-06 7.812169121329e-03 0.0 
0.0 0.0 -1.164598082371e-03 
-1.102136352719e-03 2.455120919214e-06 0.0 
2.455120919214e-06 7.358887921961e-03 0.0 
0.0 0.0 -1.100413285504e-03 
-1.128466826395e-03 -6.206260029604e-06 0.0 
-6.206260029604e-06 7.555420673368e-03 0.0 
0.0 0.0 -1.129075729544e-03 
-1.196306272628e-03 1.070052804672e-05 0.0 
1.070052804672e-05 8.004295185816e-03 0.0 
0.0 0.0 -1.193594387005e-03 
-1.153224420722e-03 -4.335162695513e-08 0.0 
-4.335162695513e-08 7.767660328472e-03 0.0 
0.0 0.0 -1.159256375294e-03 
-1.235596637609e-03 -1.164422989239e-05 0.0 
-1.164422989239e-05 8.301735673801e-03 0.0 
0.0 0.0 -1.234286862126e-03 
-1.186419994292e-03 -1.475121185168e-05 0.0 
-1.475121185168e-05 7.963391228364e-03 0.0 
0.0 0.0 -1.187309181180e-03 
-1.120005548931e-03 2.940168057844e-06 0.0 
2.940168057844e-06 7.498615446152e-03 0.0 
0.0 0.0 -1.120864512401e-03 
-1.154875778754e-03 1.588860619805e-06 0.0 
1.588860619805e-06 7.686132635796e-03 0.0 
0.0 0.0 -1.147759711419e-03 
-1.213465252650e-03 -6.064802065597e-06 0.0 
-6.064802065597e-06 8.128624196229e-03 0.0 
0.0 0.0 -1.207767947030e-03 
-1.084932373400e-03 -2.016919157364e-06 0.0 
-2.016919157364e-06 7.235951787837e-03 0.0 
0.0 0.0 -1.082593982084e-03 
-1.254330692315e-03 -4.481726023087e-06 0.0 
-4.481726023087e-06 8.484172233715e-03 0.0 
0.0 0.0 -1.264544343569e-03 
-6.624416308103e-04 2.474610527097e-06 0.0 
2.474610527097e-06 4.298662523578e-03 0.0 
0.0 0.0 -6.621140475474e-04 
-1.785384896330e-04 7.817361308899e-06 0.0 
7.817361308899e-06 9.797346640556e-04 0.0 
0.0 0.0 -1.850918921636e-04 
-1.812548087706e-04 3.762529197937e-05 0.0 
3.762529197937e-05 9.321215546565e-04 0.0 
0.0 0.0 -1.767209935827e-04 
-7.539589003549e-04 1.955358916878e-06 0.0 
1.955358916878e-06 4.924010090496e-03 0.0 
0.0 0.0 -7.509174086159e-04 
-1.304930514548e-03 2.715145444477e-06 0.0 
2.715145444477e-06 8.760435441101e-03 0.0 
0.0 0.0 -1.299806302097e-03 
-1.304281806298e-03 1.236291440949e-07 0.0 
1.236291440949e-07 8.779429009152e-03 0.0 
0.0 0.0 -1.301753673823e-03 
-4.909194379315e-04 2.965411161257e-07 0.0 
2.965411161257e-07 3.101621980483e-03 0.0 
0.0 0.0 -4.895692906686e-04 
-1.302172698065e-03 -1.121402078109e-06 0.0 
-1.121402078109e-06 8.776859442822e-03 0.0 
0.0 0.0 -1.303413959896e-03 
-8.069978020621e-04 -2.494686579821e-06 0.0 
-2.494686579821e-06 5.276076784830e-03 0.0 
0.0 0.0 -8.012154088905e-04 
-3.570511327706e-04 3.379375906443e-06 0.0 
3.379375906443e-06 2.154968683645e-03 0.0 
0.0 0.0 -3.530685601169e-04 
-1.302556100553e-03 -9.155318300849e-06 0.0 
-9.155318300849e-06 8.779430224672e-03 0.0 
0.0 0.0 -1.304286792737e-03 
-1.070880273795e-03 7.212077137812e-06 0.0 
7.212077137812e-06 7.154951258216e-03 0.0 
0.0 0.0 -1.071440646998e-03 
-1.034235002280e-03 -1.284962224397e-06 0.0 
-1.284962224397e-06 6.899499474228e-03 0.0 
0.0 0.0 -1.034857077839e-03 
-1.003722632452e-03 2.735580280944e-06 0.0 
2.735580280944e-06 6.699806917378e-03 0.0 
0.0 0.0 -1.006057961993e-03 
-1.300150248326e-03 -1.392366785444e-05 0.0 
-1.392366785444e-05 8.797329976127e-03 0.0 
0.0 0.0 -1.305867370806e-03 
-9.260727886855e-04 3.160967958010e-07 0.0 
3.160967958010e-07 6.120955206479e-03 0.0 
0.0 0.0 -9.232948652302e-04 
-1.306196713142e-03 -8.296229578647e-06 0.0 
-8.296229578647e-06 8.804073325104e-03 0.0 
0.0 0.0 -1.306016332489e-03 
-9.052728605033e-04 -4.849094365266e-06 0.0 
-4.849094365266e-06 5.990555075409e-03 0.0 
0.0 0.0 -9.039903713831e-04 
-8.761060883680e-04 -1.507187481081e-06 0.0 
-1.507187481081e-06 5.787161046779e-03 0.0 
0.0 0.0 -8.747633066757e-04 
-8.116067085345e-04 -5.312091983297e-07 0.0 
-5.312091983297e-07 5.336659872116e-03 0.0 
0.0 0.0 -8.101682821885e-04 
-1.090435695547e-03 -5.471004820641e-06 0.0 
-5.471004820641e-06 7.297274492399e-03 0.0 
0.0 0.0 -1.092245366321e-03 
-1.304752605299e-03 5.119868144754e-06 0.0 
5.119868144754e-06 8.772978853590e-03 0.0 
0.0 0.0 -1.302677999426e-03 
-1.251945645214e-03 -2.706015879737e-06 0.0 
-2.706015879737e-06 8.407016214184e-03 0.0 
0.0 0.0 -1.248400714067e-03 
-1.246920299523e-03 -1.300681603294e-05 0.0 
-1.300681603294e-05 8.402409073512e-03 0.0 
0.0 0.0 -1.248426544684e-03 
-1.200536970879e-03 5.026882822598e-07 0.0 
5.026882822598e-07 8.002917905198e-03 0.0 
0.0 0.0 -1.189114855724e-03 
-1.300430795451e-03 -3.697458702316e-07 0.0 
-3.697458702316e-07 8.777742711435e-03 0.0 
0.0 0.0 -1.303398793257e-03 
-1.305040401458e-03 -2.477912411202e-06 0.0 
-2.477912411202e-06 8.792831145886e-03 0.0 
0.0 0.0 -1.306665994082e-03 
-1.309321026579e-03 -3.535422289669e-06 0.0 
-3.535422289669e-06 8.803291043654e-03 0.0 
0.0 0.0 -1.308500709484e-03 
-4.563282024572e-04 7.998262252154e-06 0.0 
7.998262252154e-06 2.871636865217e-03 0.0 
0.0 0.0 -4.564773689951e-04 
-4.946429183726e-04 2.495592359726e-06 0.0 
2.495592359726e-06 3.130328514227e-03 0.0 
0.0 0.0 -4.934415926888e-04 
-5.584596756046e-04 8.667542273929e-07 0.0 
8.667542273929e-07 3.577137698620e-03 0.0 
0.0 0.0 -5.576035839405e-04 
-5.302623041630e-04 -1.383760276119e-07 0.0 
-1.383760276119e-07 3.381956619872e-03 0.0 
0.0 0.0 -5.298816096007e-04 
-4.659671190879e-04 -4.163529231181e-07 0.0 
-4.163529231181e-07 2.931155601344e-03 0.0 
0.0 0.0 -4.652367627802e-04 
-5.016537237260e-04 2.063261409906e-06 0.0 
2.063261409906e-06 3.184734037305e-03 0.0 
0.0 0.0 -5.016361848483e-04 
-5.661735479294e-04 -1.745642799752e-06 0.0 
-1.745642799752e-06 3.632429034736e-03 0.0 
0.0 0.0 -5.657331850765e-04 
-4.736975024201e-04 4.166873871265e-06 0.0 
4.166873871265e-06 2.986059562016e-03 0.0 
0.0 0.0 -4.731795164401e-04 
-1.136859235010e-03 -3.377117996698e-07 0.0 
-3.377117996698e-07 7.623291641590e-03 0.0 
0.0 0.0 -1.138512926666e-03 
-1.305247072706e-03 8.619226715471e-06 0.0 
8.619226715471e-06 8.792398553622e-03 0.0 
0.0 0.0 -1.305779161548e-03 
-9.003036646772e-04 5.242872870008e-08 0.0 
5.242872870008e-08 5.967493708530e-03 0.0 
0.0 0.0 -9.007942405787e-04 
-8.714438606503e-04 -2.881495110675e-08 0.0 
-2.881495110675e-08 5.762779516703e-03 0.0 
0.0 0.0 -8.713600568839e-04 
-8.060291522058e-04 2.568870967988e-06 0.0 
2.568870967988e-06 5.307363937555e-03 0.0 
0.0 0.0 -8.059887332522e-04 
-6.767854044606e-04 -2.452778344841e-06 0.0 
-2.452778344841e-06 4.414816973838e-03 0.0 
0.0 0.0 -6.781883600425e-04 
-7.139648610370e-04 -1.142183076152e-06 0.0 
-1.142183076152e-06 4.673969170683e-03 0.0 
0.0 0.0 -7.153987595530e-04 
-7.802120795526e-04 -1.536270118856e-06 0.0 
-1.536270118856e-06 5.133033430624e-03 0.0 
0.0 0.0 -7.812419408864e-04 
-6.404629301343e-04 -4.612028746758e-06 0.0 
-4.612028746758e-06 4.156213633446e-03 0.0 
0.0 0.0 -6.407943132712e-04 
-9.874131908799e-04 -6.712457213198e-07 0.0 
-6.712457213198e-07 6.570776206516e-03 0.0 
0.0 0.0 -9.876394229526e-04 
-1.303361853095e-03 -8.460317239557e-06 0.0 
-8.460317239557e-06 8.788997264875e-03 0.0 
0.0 0.0 -1.305003056577e-03 
-8.872565026320e-04 -1.178797543715e-06 0.0 
-1.178797543715e-06 5.871190587017e-03 0.0 
0.0 0.0 -8.871663004355e-04 
-6.846436599198e-04 7.853769409057e-07 0.0 
7.853769409057e-07 4.472455721995e-03 0.0 
0.0 0.0 -6.865966444657e-04 
-7.539028914794e-04 -4.959050989061e-06 0.0 
-4.959050989061e-06 4.922681506756e-03 0.0 
0.0 0.0 -7.516786372745e-04 
-8.065421024267e-04 1.420005202742e-05 0.0 
1.420005202742e-05 5.322326400601e-03 0.0 
0.0 0.0 -8.094822736869e-04 
-8.086043951130e-04 -1.965516725377e-05 0.0 
-1.965516725377e-05 5.337498560082e-03 0.0 
0.0 0.0 -8.097394517040e-04 
-8.597670883848e-04 -1.890965562489e-05 0.0 
-1.890965562489e-05 5.752558822544e-03 0.0 
0.0 0.0 -8.733121467894e-04 
-8.092120706638e-04 -2.844643670805e-05 0.0 
-2.844643670805e-05 5.361887279047e-03 0.0 
0.0 0.0 -8.155917408702e-04 
-8.008122296240e-04 -3.960466263523e-06 0.0 
-3.960466263523e-06 5.274822743462e-03 0.0 
0.0 0.0 -8.015266587451e-04 
-8.309313177437e-04 -3.374628280082e-06 0.0 
-3.374628280082e-06 5.475720121039e-03 0.0 
0.0 0.0 -8.302790088839e-04 
-7.940624788884e-04 8.919203165315e-07 0.0 
8.919203165315e-07 5.224020544311e-03 0.0 
0.0 0.0 -7.937858958383e-04 
-8.582675862213e-04 -3.216784494421e-06 0.0 
-3.216784494421e-06 5.673950666655e-03 0.0 
0.0 0.0 -8.590670690980e-04 
-8.174868470622e-04 -1.134099850246e-05 0.0 
-1.134099850246e-05 5.408679153658e-03 0.0 
0.0 0.0 -8.213578559547e-04 
-7.534944197864e-04 -1.238974191231e-05 0.0 
-1.238974191231e-05 4.986891128186e-03 0.0 
0.0 0.0 -7.608744282309e-04 
-8.810221771506e-04 -8.901330273947e-06 0.0 
-8.901330273947e-06 5.862708610279e-03 0.0 
0.0 0.0 -8.866101721103e-04 
-8.418977428013e-04 7.461726785164e-06 0.0 
7.461726785164e-06 5.581554122099e-03 0.0 
0.0 0.0 -8.437388122980e-04 
-7.467365547974e-04 -1.323074519901e-05 0.0 
-1.323074519901e-05 4.916042254111e-03 0.0 
0.0 0.0 -7.509531518293e-04 
-6.281984343026e-05 -8.116789961943e-06 0.0 
-8.116789961943e-06 3.039228182762e-04 0.0 
0.0 0.0 -5.875963060191e-05 
-1.355333239518e-04 1.033404854003e-05 0.0 
1.033404854003e-05 6.720001517331e-04 0.0 
0.0 0.0 -1.336704791874e-04 
-1.282422711095e-04 -8.546555161067e-06 0.0 
-8.546555161067e-06 6.602474725937e-04 0.0 
0.0 0.0 -1.318084371690e-04 
-1.928083139697e-04 -4.221005670836e-06 0.0 
-4.221005670836e-06 1.041957248050e-03 0.0 
0.0 0.0 -1.954650243430e-04 
-2.029746956204e-04 1.944205005130e-05 0.0 
1.944205005130e-05 1.074330231207e-03 0.0 
0.0 0.0 -1.996745964068e-04 
-2.516532851574e-04 2.529704688885e-06 0.0 
2.529704688885e-06 1.468491691138e-03 0.0 
0.0 0.0 -2.586654344069e-04 
-2.430663838691e-04 -2.535368885226e-05 0.0 
-2.535368885226e-05 1.426461466079e-03 0.0 
0.0 0.0 -2.494736616194e-04 
-1.355920943443e-04 -1.133959606150e-05 0.0 
-1.133959606150e-05 6.743890404386e-04 0.0 
0.0 0.0 -1.329747880817e-04 
-5.916993316141e-05 -2.320129164536e-06 0.0 
-2.320129164536e-06 2.981065881978e-04 0.0 
0.0 0.0 -5.794854899121e-05 
-1.308876834568e-04 2.474427721016e-06 0.0 
2.474427721016e-06 6.544145800914e-04 0.0 
0.0 0.0 -1.315689628225e-04 
-5.700489183938e-05 1.676517162928e-06 0.0 
1.676517162928e-06 2.920832994483e-04 0.0 
0.0 0.0 -5.719792189481e-05 
-1.267870388795e-04 3.184293720067e-07 0.0 
3.184293720067e-07 6.426508649646e-04 0.0 
0.0 0.0 -1.299421249981e-04 
-1.994525793345e-04 4.316150581252e-06 0.0 
4.316150581252e-06 1.086316860704e-03 0.0 
0.0 0.0 -2.038865569970e-04 
-2.958463202672e-04 -2.325840136608e-07 0.0 
-2.325840136608e-07 1.726726422813e-03 0.0 
0.0 0.0 -2.925150634556e-04 
-1.301927001702e-03 1.803371535174e-05 0.0 
1.803371535174e-05 8.724914391627e-03 0.0 
0.0 0.0 -1.294874803588e-03 
-6.623633125060e-04 4.679424212514e-06 0.0 
4.679424212514e-06 4.281040174428e-03 0.0 
0.0 0.0 -6.595503360071e-04 
-6.354861751499e-04 1.876466608724e-05 0.0 
1.876466608724e-05 4.076331016795e-03 0.0 
0.0 0.0 -6.264797819744e-04 
-5.600446600075e-04 1.786449294601e-05 0.0 
1.786449294601e-05 3.606391450714e-03 0.0 
0.0 0.0 -5.641716646261e-04 
-6.018396249448e-04 -5.225124560804e-06 0.0 
-5.225124560804e-06 3.865969919155e-03 0.0 
0.0 0.0 -5.974662984275e-04 
-6.971605018600e-04 2.093612217780e-05 0.0 
2.093612217780e-05 4.459125829408e-03 0.0 
0.0 0.0 -6.865721209800e-04 
-5.253766316691e-04 1.379974747340e-05 0.0 
1.379974747340e-05 3.365120840457e-03 0.0 
0.0 0.0 -5.286920563404e-04 
-4.997160733495e-04 2.272416899085e-05 0.0 
2.272416899085e-05 3.215754431319e-03 0.0 
0.0 0.0 -5.038291843518e-04 
-6.458044435334e-05 -2.268465343248e-06 0.0 
-2.268465343248e-06 3.061057402814e-04 0.0 
0.0 0.0 -5.826474687104e-05 
-1.365107396446e-04 -1.511681688148e-05 0.0 
-1.511681688148e-05 6.671209083265e-04 0.0 
0.0 0.0 -1.338235891287e-04 
-1.329944671513e-04 1.728312419837e-05 0.0 
1.728312419837e-05 6.296869018316e-04 0.0 
0.0 0.0 -1.329549719063e-04 
-2.100970973320e-04 9.757108245941e-06 0.0 
9.757108245941e-06 1.064616598962e-03 0.0 
0.0 0.0 -1.976702944042e-04 
-1.907673612491e-04 -8.037251829839e-06 0.0 
-8.037251829839e-06 1.054607848416e-03 0.0 
0.0 0.0 -1.960684762570e-04 
-1.291399276805e-04 5.589927261900e-07 0.0 
5.589927261900e-07 6.717799826530e-04 0.0 
0.0 0.0 -1.329856363161e-04 
-1.332115243411e-04 1.116366171221e-05 0.0 
1.116366171221e-05 6.698553752901e-04 0.0 
0.0 0.0 -1.328726424774e-04 
-6.123018265422e-05 -2.226991271356e-06 0.0 
-2.226991271356e-06 2.966407899736e-04 0.0 
0.0 0.0 -5.786540529839e-05 
-1.318562850822e-04 -3.804233771773e-06 0.0 
-3.804233771773e-06 6.638255964619e-04 0.0 
0.0 0.0 -1.308611123410e-04 
-1.930153503724e-04 1.076682971487e-05 0.0 
1.076682971487e-05 1.064256298509e-03 0.0 
0.0 0.0 -1.994574706984e-04 
-5.202007941149e-05 -5.137534308526e-06 0.0 
-5.137534308526e-06 2.737802621694e-04 0.0 
0.0 0.0 -5.534513975843e-05 
-1.060096701056e-03 -2.854203109808e-05 0.0 
-2.854203109808e-05 7.080511066382e-03 0.0 
0.0 0.0 -1.060427308513e-03 
-1.101245431622e-03 -2.265554676226e-05 0.0 
-2.265554676226e-05 7.326835296988e-03 0.0 
0.0 0.0 -1.097082233180e-03 
-1.303771853134e-03 -3.955883839581e-06 0.0 
-3.955883839581e-06 8.773017437093e-03 0.0 
0.0 0.0 -1.300897016293e-03 
-7.525731418623e-04 -2.553654618198e-05 0.0 
-2.553654618198e-05 4.964909214712e-03 0.0 
0.0 0.0 -7.584009903415e-04 
-5.671099606206e-05 2.025225744384e-06 0.0 
2.025225744384e-06 2.971089711715e-04 0.0 
0.0 0.0 -5.884959645352e-05 
-1.296052575560e-03 -1.034030829996e-06 0.0 
-1.034030829996e-06 8.715505616406e-03 0.0 
0.0 0.0 -1.292107529982e-03 
-1.300241625373e-03 -1.196764903613e-05 0.0 
-1.196764903613e-05 8.782711832524e-03 0.0 
0.0 0.0 -1.303172775453e-03 
-1.297505069925e-03 9.380535181827e-06 0.0 
9.380535181827e-06 8.784349503541e-03 0.0 
0.0 0.0 -1.304823151597e-03 
-1.190737660973e-03 8.854859890049e-06 0.0 
8.854859890049e-06 7.990764728896e-03 0.0 
0.0 0.0 -1.191058493115e-03 
-1.217720710694e-03 3.907545697867e-06 0.0 
3.907545697867e-06 8.218811643119e-03 0.0 
0.0 0.0 -1.224322658093e-03 
-1.301588133362e-03 5.941663257066e-06 0.0 
5.941663257066e-06 8.722214772172e-03 0.0 
0.0 0.0 -1.294569364341e-03 
-4.491538872292e-04 3.425462149076e-06 0.0 
3.425462149076e-06 2.829494640627e-03 0.0 
0.0 0.0 -4.512809064328e-04 
-1.219121534789e-03 1.093707084889e-05 0.0 
1.093707084889e-05 8.264877250953e-03 0.0 
0.0 0.0 -1.225740639889e-03 
-1.181600644536e-03 2.602984545298e-06 0.0 
2.602984545298e-06 7.898254142128e-03 0.0 
0.0 0.0 -1.178628832109e-03 
-3.271245572877e-04 -7.559619564448e-07 0.0 
-7.559619564448e-07 1.969290585494e-03 0.0 
0.0 0.0 -3.268383546744e-04 
-4.353641825210e-04 2.390544680941e-06 0.0 
2.390544680941e-06 2.735090082528e-03 0.0 
0.0 0.0 -4.373623857420e-04 
-9.887113880157e-04 2.647202920658e-06 0.0 
2.647202920658e-06 6.590846789922e-03 0.0 
0.0 0.0 -9.899674718230e-04 
-9.119629022756e-04 -1.217041315548e-06 0.0 
-1.217041315548e-06 6.048161892543e-03 0.0 
0.0 0.0 -9.123979313600e-04 
-1.130689760044e-03 -2.404858458437e-06 0.0 
-2.404858458437e-06 7.563292742476e-03 0.0 
0.0 0.0 -1.130390451587e-03 
-9.324694232769e-04 5.707369421321e-08 0.0 
5.707369421321e-08 6.185987888161e-03 0.0 
0.0 0.0 -9.322225209316e-04 
-1.071273223037e-03 -3.400166334329e-06 0.0 
-3.400166334329e-06 7.166794807332e-03 0.0 
0.0 0.0 -1.073123358692e-03 
-1.246132006402e-03 2.306789458162e-05 0.0 
2.306789458162e-05 8.374889379432e-03 0.0 
0.0 0.0 -1.244129926109e-03 
-2.805652380378e-04 -4.717906580444e-06 0.0 
-4.717906580444e-06 1.732830044642e-03 0.0 
0.0 0.0 -2.939217362394e-04 
-9.366102056303e-04 6.334636788540e-06 0.0 
6.334636788540e-06 6.210934504197e-03 0.0 
0.0 0.0 -9.364826870394e-04 
-9.120035044512e-04 6.559904903640e-06 0.0 
6.559904903640e-06 6.042070421320e-03 0.0 
0.0 0.0 -9.130351872960e-04 
-1.076387052139e-03 -3.360138210492e-06 0.0 
-3.360138210492e-06 7.184148688862e-03 0.0 
0.0 0.0 -1.075939795031e-03 
-4.728102684627e-04 -4.847791376172e-06 0.0 
-4.847791376172e-06 2.971951481931e-03 0.0 
0.0 0.0 -4.709579147287e-04 
-7.280869989337e-04 -1.354131871902e-05 0.0 
-1.354131871902e-05 4.780585004203e-03 0.0 
0.0 0.0 -7.304257169629e-04 
-3.156217836785e-04 -5.089469505394e-06 0.0 
-5.089469505394e-06 1.850033331779e-03 0.0 
0.0 0.0 -3.104331955072e-04 
-1.248490279357e-03 4.323593742190e-06 0.0 
4.323593742190e-06 8.417241528006e-03 0.0 
0.0 0.0 -1.251461238623e-03 
-7.622164195474e-04 2.744443286131e-08 0.0 
2.744443286131e-08 4.979735740211e-03 0.0 
0.0 0.0 -7.590395520047e-04 
-7.692339302932e-04 1.865673827908e-06 0.0 
1.865673827908e-06 5.052106796517e-03 0.0 
0.0 0.0 -7.694287042311e-04 
-6.089514047186e-04 -2.827610219313e-06 0.0 
-2.827610219313e-06 3.952389816829e-03 0.0 
0.0 0.0 -6.120242822960e-04 
-4.863994982411e-04 4.620884363803e-06 0.0 
4.620884363803e-06 3.095071946727e-03 0.0 
0.0 0.0 -4.894362539292e-04 
-4.085285658609e-04 2.731393984611e-06 0.0 
2.731393984611e-06 2.545768838986e-03 0.0 
0.0 0.0 -4.100935076628e-04 
-6.992575820323e-04 4.870514854700e-06 0.0 
4.870514854700e-06 4.559959934010e-03 0.0 
0.0 0.0 -6.990242139688e-04 
-7.223263303115e-04 1.302313524945e-06 0.0 
1.302313524945e-06 4.731940689569e-03 0.0 
0.0 0.0 -7.237531747479e-04 
-1.024699739881e-03 1.653915686907e-06 0.0 
1.653915686907e-06 6.828723699735e-03 0.0 
0.0 0.0 -1.024340108609e-03 
-1.114669738223e-03 -2.759101931756e-06 0.0 
-2.759101931756e-06 7.438940293733e-03 0.0 
0.0 0.0 -1.112552678551e-03 
-7.837510010110e-05 1.769113863605e-05 0.0 
1.769113863605e-05 3.475076993491e-04 0.0 
0.0 0.0 -7.176178390651e-05 
-1.061119640742e-03 3.173187948481e-06 0.0 
3.173187948481e-06 7.087064478518e-03 0.0 
0.0 0.0 -1.061672265243e-03 
-8.547259828445e-04 -2.557127369105e-07 0.0 
-2.557127369105e-07 5.648936137093e-03 0.0 
0.0 0.0 -8.552253422611e-04 
-9.623974161653e-04 3.311768495808e-06 0.0 
3.311768495808e-06 6.381924133008e-03 0.0 
0.0 0.0 -9.599091010803e-04 
-1.065648191468e-03 -5.923271574284e-06 0.0 
-5.923271574284e-06 7.096345784584e-03 0.0 
0.0 0.0 -1.062640036239e-03 
-2.783998705012e-04 -2.298480854645e-06 0.0 
-2.298480854645e-06 1.715267207971e-03 0.0 
0.0 0.0 -2.909097700217e-04 
-1.100348444179e-03 -1.047118262826e-06 0.0 
-1.047118262826e-06 7.347575470432e-03 0.0 
0.0 0.0 -1.098747615487e-03 
-1.217488030174e-03 6.848117353208e-06 0.0 
6.848117353208e-06 8.139341092548e-03 0.0 
0.0 0.0 -1.212453547082e-03 
-8.838417845426e-04 -2.547521654436e-05 0.0 
-2.547521654436e-05 5.856172789859e-03 0.0 
0.0 0.0 -8.875094802107e-04 
-2.462642296247e-04 -5.029644419162e-06 0.0 
-5.029644419162e-06 1.395111957816e-03 0.0 
0.0 0.0 -2.442495876194e-04 
-8.759046619095e-04 5.034941322806e-06 0.0 
5.034941322806e-06 5.740576630140e-03 0.0 
0.0 0.0 -8.692469099983e-04 
-1.203793389362e-03 4.534763565521e-06 0.0 
4.534763565521e-06 8.059936526886e-03 0.0 
0.0 0.0 -1.202705989510e-03 
-1.079080060508e-03 -5.136331411331e-07 0.0 
-5.136331411331e-07 7.205755043523e-03 0.0 
0.0 0.0 -1.078220320736e-03 
-4.314372885713e-04 -1.108621221051e-05 0.0 
-1.108621221051e-05 2.708353444584e-03 0.0 
0.0 0.0 -4.336020471383e-04 
-7.948364969143e-04 -2.495821117465e-06 0.0 
-2.495821117465e-06 5.224923007330e-03 0.0 
0.0 0.0 -7.943514531093e-04 
-7.442299034792e-04 7.080946298815e-07 0.0 
7.080946298815e-07 4.865637424934e-03 0.0 
0.0 0.0 -7.428158978947e-04 
-6.789224573102e-04 -9.062719812300e-06 0.0 
-9.062719812300e-06 4.471649261705e-03 0.0 
0.0 0.0 -6.865907729104e-04 
-1.214586438871e-03 8.024689912006e-06 0.0 
8.024689912006e-06 8.094834481891e-03 0.0 
0.0 0.0 -1.206557591227e-03 
-8.183792108392e-04 -4.169826119291e-07 0.0 
-4.169826119291e-07 5.384604412960e-03 0.0 
0.0 0.0 -8.172945450071e-04 
-1.123489439230e-03 6.695635103125e-06 0.0 
6.695635103125e-06 7.497291039553e-03 0.0 
0.0 0.0 -1.120054252910e-03 
-9.239887439885e-04 -3.012520915636e-06 0.0 
-3.012520915636e-06 6.128004255690e-03 0.0 
0.0 0.0 -9.240809108919e-04 
-4.625644487372e-04 -4.132620430772e-06 0.0 
-4.132620430772e-06 2.914638302916e-03 0.0 
0.0 0.0 -4.629711029823e-04 
-1.121328625940e-03 -6.182944165331e-06 0.0 
-6.182944165331e-06 7.491651595506e-03 0.0 
0.0 0.0 -1.118919378802e-03 
-7.755037056980e-04 -1.629710765716e-06 0.0 
-1.629710765716e-06 5.087191610180e-03 0.0 
0.0 0.0 -7.743986277066e-04 
-1.165062879850e-03 -3.169874331000e-06 0.0 
-3.169874331000e-06 7.809274989077e-03 0.0 
0.0 0.0 -1.164614768973e-03 
-1.031438669585e-03 -5.272017896805e-06 0.0 
-5.272017896805e-06 6.875819044250e-03 0.0 
0.0 0.0 -1.031533309622e-03 
-6.383681651354e-04 -1.646563539663e-06 0.0 
-1.646563539663e-06 4.132113027582e-03 0.0 
0.0 0.0 -6.375205594687e-04 
-1.120494149395e-03 -5.362450288190e-06 0.0 
-5.362450288190e-06 7.500323563236e-03 0.0 
0.0 0.0 -1.121170216299e-03 
-7.780649319143e-04 1.815637845549e-06 0.0 
1.815637845549e-06 5.106477756251e-03 0.0 
0.0 0.0 -7.773091661689e-04 
-1.101658644117e-03 9.961254280396e-07 0.0 
9.961254280396e-07 7.356355521752e-03 0.0 
0.0 0.0 -1.099429584637e-03 
-7.271456150641e-04 1.682914491908e-06 0.0 
1.682914491908e-06 4.735785920808e-03 0.0 
0.0 0.0 -7.240542973723e-04 
-9.053111554421e-04 -2.304698340665e-06 0.0 
-2.304698340665e-06 5.989601996014e-03 0.0 
0.0 0.0 -9.041109700986e-04 
-9.863008524358e-04 -3.464876425147e-06 0.0 
-3.464876425147e-06 6.537147458198e-03 0.0 
0.0 0.0 -9.824247929831e-04 
-8.612973840953e-04 -1.473763681915e-07 0.0 
-1.473763681915e-07 5.687311619382e-03 0.0 
0.0 0.0 -8.608216255090e-04 
-9.529955923155e-04 1.728497531747e-05 0.0 
1.728497531747e-05 6.336375010902e-03 0.0 
0.0 0.0 -9.534332399069e-04 
-1.092284604608e-03 2.589702392237e-06 0.0 
2.589702392237e-06 7.290468944473e-03 0.0 
0.0 0.0 -1.090315851396e-03 
-3.119597294078e-04 5.757369509454e-07 0.0 
5.757369509454e-07 1.828570008309e-03 0.0 
0.0 0.0 -3.071334217218e-04 
-5.718786607335e-04 -4.107371136139e-07 0.0 
-4.107371136139e-07 3.675898340669e-03 0.0 
0.0 0.0 -5.719042557127e-04 
-9.488327861295e-04 -5.202841949995e-06 0.0 
-5.202841949995e-06 6.331676782321e-03 0.0 
0.0 0.0 -9.536514739466e-04 
-1.157212024015e-03 -6.515732433152e-06 0.0 
-6.515732433152e-06 7.701144359915e-03 0.0 
0.0 0.0 -1.150585697120e-03 
-1.224312444037e-03 6.690841738660e-06 0.0 
6.690841738660e-06 8.269264616708e-03 0.0 
0.0 0.0 -1.229329624135e-03 
-6.820956806615e-04 3.615386019402e-06 0.0 
3.615386019402e-06 4.429302489243e-03 0.0 
0.0 0.0 -6.801182747099e-04 
-1.081664045678e-03 -5.547367653092e-06 0.0 
-5.547367653092e-06 7.227268260236e-03 0.0 
0.0 0.0 -1.081576975854e-03 
-1.187584404498e-03 2.370146928359e-06 0.0 
2.370146928359e-06 7.946791552093e-03 0.0 
0.0 0.0 -1.185355684152e-03 
-7.511569300737e-04 3.681739321803e-07 0.0 
3.681739321803e-07 4.931952546785e-03 0.0 
0.0 0.0 -7.524367508395e-04 
-3.356805227239e-04 3.379744479913e-06 0.0 
3.379744479913e-06 2.005119320146e-03 0.0 
0.0 0.0 -3.333104686742e-04 
-2.618377986137e-04 -2.555233257103e-06 0.0 
-2.555233257103e-06 1.542022096797e-03 0.0 
0.0 0.0 -2.654833071040e-04 
-5.104550227812e-04 2.453007206934e-06 0.0 
2.453007206934e-06 3.238650363468e-03 0.0 
0.0 0.0 -5.092532232582e-04 
-7.832353398933e-04 -9.887778137279e-09 0.0 
-9.887778137279e-09 5.137653853930e-03 0.0 
0.0 0.0 -7.817448632792e-04 
-8.173389799679e-04 -1.106611203733e-06 0.0 
-1.106611203733e-06 5.390375532825e-03 0.0 
0.0 0.0 -8.181699076277e-04 
-1.246124432281e-03 8.592622963334e-06 0.0 
8.592622963334e-06 8.369587963902e-03 0.0 
0.0 0.0 -1.242275372262e-03 
-1.107849420052e-03 -3.778759466968e-06 0.0 
-3.778759466968e-06 7.425444910215e-03 0.0 
0.0 0.0 -1.110186454522e-03 
-1.040708302916e-03 -6.884984212010e-06 0.0 
-6.884984212010e-06 6.941970815521e-03 0.0 
0.0 0.0 -1.040857148505e-03 
-1.527209700993e-04 7.546329121840e-06 0.0 
7.546329121840e-06 7.439800217049e-04 0.0 
0.0 0.0 -1.519369657486e-04 
-7.102565865705e-04 9.145208254822e-06 0.0 
9.145208254822e-06 4.653234839291e-03 0.0 
0.0 0.0 -7.126371066839e-04 
-1.135597595821e-03 -4.213475059683e-06 0.0 
-4.213475059683e-06 7.626732622695e-03 0.0 
0.0 0.0 -1.139074001596e-03 
-8.226822624901e-04 -1.510040807202e-06 0.0 
-1.510040807202e-06 5.420363658064e-03 0.0 
0.0 0.0 -8.223634564932e-04 
-1.130518051871e-03 1.404153544734e-06 0.0 
1.404153544734e-06 7.542933512680e-03 0.0 
0.0 0.0 -1.126725356868e-03 
-7.730615027956e-04 -9.222257900681e-07 0.0 
-9.222257900681e-07 5.135473060459e-03 0.0 
0.0 0.0 -7.817916451012e-04 
-1.247411460160e-03 -9.243273431626e-06 0.0 
-9.243273431626e-06 8.408376939558e-03 0.0 
0.0 0.0 -1.249754184115e-03 
-5.771690213087e-04 1.052821776230e-05 0.0 
1.052821776230e-05 3.703652171226e-03 0.0 
0.0 0.0 -5.757576642514e-04 
-1.170100609579e-03 -4.592953287667e-06 0.0 
-4.592953287667e-06 7.841109684677e-03 0.0 
0.0 0.0 -1.168790087466e-03 
-1.048740829087e-03 7.093154405120e-06 0.0 
7.093154405120e-06 6.993148920806e-03 0.0 
0.0 0.0 -1.047452346298e-03 
-5.261911269690e-04 1.909166491035e-06 0.0 
1.909166491035e-06 3.348024093927e-03 0.0 
0.0 0.0 -5.248669331578e-04 
-7.497340550745e-04 3.779029275121e-06 0.0 
3.779029275121e-06 4.910648048132e-03 0.0 
0.0 0.0 -7.498068730476e-04 
-1.245763281564e-03 6.672330238112e-06 0.0 
6.672330238112e-06 8.371772027766e-03 0.0 
0.0 0.0 -1.243807156011e-03 
-1.117703748533e-03 2.194090469623e-06 0.0 
2.194090469623e-06 7.455079503703e-03 0.0 
0.0 0.0 -1.114542488500e-03 
-9.240113812817e-04 -1.198482107009e-06 0.0 
-1.198482107009e-06 6.127698402996e-03 0.0 
0.0 0.0 -9.240346875991e-04 
-7.861216138726e-04 -9.318371198972e-07 0.0 
-9.318371198972e-07 5.164682558518e-03 0.0 
0.0 0.0 -7.856950878877e-04 
-6.177367695525e-04 -9.517786211564e-06 0.0 
-9.517786211564e-06 3.998918706787e-03 0.0 
0.0 0.0 -6.191377506773e-04 
-8.459389819467e-04 -1.995047945433e-06 0.0 
-1.995047945433e-06 5.590510800112e-03 0.0 
0.0 0.0 -8.467704336814e-04 
-9.417404110639e-04 -4.713677469941e-06 0.0 
-4.713677469941e-06 6.237570578551e-03 0.0 
0.0 0.0 -9.395224721591e-04 
-1.301810218994e-03 1.765430740851e-06 0.0 
1.765430740851e-06 8.802491938361e-03 0.0 
0.0 0.0 -1.306889097489e-03 
-1.157353199815e-03 -3.220404905657e-06 0.0 
-3.220404905657e-06 7.685679656852e-03 0.0 
0.0 0.0 -1.148622835147e-03 
-9.680073786691e-04 -7.171826150540e-06 0.0 
-7.171826150540e-06 6.444265355765e-03 0.0 
0.0 0.0 -9.696660045843e-04 
-8.086257517038e-04 -2.588621595282e-06 0.0 
-2.588621595282e-06 5.331381971752e-03 0.0 
0.0 0.0 -8.097439408559e-04 
-9.758814597954e-04 -1.266881133517e-06 0.0 
-1.266881133517e-06 6.485358460050e-03 0.0 
0.0 0.0 -9.749840279683e-04 
-1.830817571470e-04 -6.180925807514e-06 0.0 
-6.180925807514e-06 1.047535156776e-03 0.0 
0.0 0.0 -1.970089232863e-04 
-6.448165884168e-04 4.844410112050e-06 0.0 
4.844410112050e-06 4.184395435775e-03 0.0 
0.0 0.0 -6.447622526173e-04 
-8.380376970069e-04 -3.326700526570e-06 0.0 
-3.326700526570e-06 5.530905952602e-03 0.0 
0.0 0.0 -8.382314227178e-04 
-5.380831595536e-04 5.638960694158e-07 0.0 
5.638960694158e-07 3.435054469080e-03 0.0 
0.0 0.0 -5.374563060555e-04 
-8.145911171393e-04 -5.272270293880e-07 0.0 
-5.272270293880e-07 5.360444702331e-03 0.0 
0.0 0.0 -8.136389561866e-04 
-1.227174802196e-03 1.276784792674e-05 0.0 
1.276784792674e-05 8.302917635780e-03 0.0 
0.0 0.0 -1.234277959947e-03 
-8.676280294557e-04 -2.040186177103e-06 0.0 
-2.040186177103e-06 5.731120870230e-03 0.0 
0.0 0.0 -8.668853676281e-04 
-6.021329393957e-04 -1.386838022365e-06 0.0 
-1.386838022365e-06 3.881394728410e-03 0.0 
0.0 0.0 -6.015264011954e-04 
-8.964491756309e-04 6.553805878038e-07 0.0 
6.553805878038e-07 5.929532426753e-03 0.0 
0.0 0.0 -8.955981815692e-04 
-5.512424861372e-04 -5.409275769266e-06 0.0 
-5.409275769266e-06 3.527258760375e-03 0.0 
0.0 0.0 -5.519888345566e-04 
-9.985595773763e-04 -1.015463228059e-05 0.0 
-1.015463228059e-05 6.646851321069e-03 0.0 
0.0 0.0 -9.983267706061e-04 
-9.215064714085e-04 1.407126120282e-07 0.0 
1.407126120282e-07 6.123536504565e-03 0.0 
0.0 0.0 -9.243533921793e-04 
-1.004433427130e-03 -6.175544373032e-06 0.0 
-6.175544373032e-06 6.679704057184e-03 0.0 
0.0 0.0 -1.003151257071e-03 
-2.014979142818e-04 -1.982424414319e-05 0.0 
-1.982424414319e-05 1.118628598720e-03 0.0 
0.0 0.0 -2.040322045631e-04 
-9.524490800155e-04 -1.599154771325e-06 0.0 
-1.599154771325e-06 6.321577882661e-03 0.0 
0.0 0.0 -9.517466134248e-04 
-1.151323095747e-03 8.970357597644e-06 0.0 
8.970357597644e-06 7.737810625971e-03 0.0 
0.0 0.0 -1.155419075730e-03 
-5.642242598448e-04 4.052530886012e-06 0.0 
4.052530886012e-06 3.629354201895e-03 0.0 
0.0 0.0 -5.654343806685e-04 
-8.430123869833e-04 1.789712430401e-06 0.0 
1.789712430401e-06 5.558821852331e-03 0.0 
0.0 0.0 -8.420324705410e-04 
-1.064235786948e-03 -6.087517053089e-06 0.0 
-6.087517053089e-06 7.102031703649e-03 0.0 
0.0 0.0 -1.063653581392e-03 
-4.868392782287e-04 -2.122282903210e-05 0.0 
-2.122282903210e-05 3.049667270729e-03 0.0 
0.0 0.0 -4.839843007303e-04 
-9.081670479201e-04 2.415755652443e-07 0.0 
2.415755652443e-07 6.014517114267e-03 0.0 
0.0 0.0 -9.074658271045e-04 
-1.068096740287e-03 -5.575043742395e-06 0.0 
-5.575043742395e-06 7.125147388201e-03 0.0 
0.0 0.0 -1.067288052377e-03 
-9.808487270250e-04 4.928616331367e-06 0.0 
4.928616331367e-06 6.520553626334e-03 0.0 
0.0 0.0 -9.801762873724e-04 
-8.470889807538e-04 7.350311736707e-07 0.0 
7.350311736707e-07 5.583629027931e-03 0.0 
0.0 0.0 -8.455731917576e-04 
-9.738610544212e-04 -1.605198629572e-06 0.0 
-1.605198629572e-06 6.476533283027e-03 0.0 
0.0 0.0 -9.738262179589e-04 
-5.107285056984e-04 1.726041735429e-05 0.0 
1.726041735429e-05 3.222108758113e-03 0.0 
0.0 0.0 -5.057041985798e-04 
-4.224983753939e-04 8.320492048914e-06 0.0 
8.320492048914e-06 2.639215696168e-03 0.0 
0.0 0.0 -4.238464704258e-04 
-3.592226638991e-04 1.930188485338e-06 0.0 
1.930188485338e-06 2.185168436497e-03 0.0 
0.0 0.0 -3.586180353125e-04 
-6.301304693072e-04 -1.957277653439e-06 0.0 
-1.957277653439e-06 4.076615728565e-03 0.0 
0.0 0.0 -6.294631353604e-04 
-1.103647244802e-03 -2.847244465014e-06 0.0 
-2.847244465014e-06 7.378786394117e-03 0.0 
0.0 0.0 -1.103081964739e-03 
-2.559482480598e-04 -2.299545213337e-05 0.0 
-2.299545213337e-05 1.449439224095e-03 0.0 
0.0 0.0 -2.521214004998e-04 
-1.054932560315e-03 -8.075575040938e-06 0.0 
-8.075575040938e-06 7.041307941420e-03 0.0 
0.0 0.0 -1.054898413167e-03 
-2.650995954687e-04 -9.741906018429e-06 0.0 
-9.741906018429e-06 1.540523614087e-03 0.0 
0.0 0.0 -2.660187670962e-04 
-5.941857965255e-04 -1.478675907358e-06 0.0 
-1.478675907358e-06 3.826673915507e-03 0.0 
0.0 0.0 -5.935709857392e-04 
-1.072876015775e-03 5.343583090717e-06 0.0 
5.343583090717e-06 7.192683716525e-03 0.0 
0.0 0.0 -1.077081564483e-03 
-9.321388457541e-04 -4.809931635804e-05 0.0 
-4.809931635804e-05 6.189086367178e-03 0.0 
0.0 0.0 -9.315431351609e-04 
-6.217808576271e-04 7.207492673365e-07 0.0 
7.207492673365e-07 4.019499781701e-03 0.0 
0.0 0.0 -6.211106552582e-04 
-3.980785928310e-04 9.124267879156e-06 0.0 
9.124267879156e-06 2.462820491612e-03 0.0 
0.0 0.0 -3.989951351066e-04 
-5.857792725332e-04 1.985647166840e-06 0.0 
1.985647166840e-06 3.767357559114e-03 0.0 
0.0 0.0 -5.850331209179e-04 
-9.112445775697e-04 1.341366700748e-06 0.0 
1.341366700748e-06 6.030641515549e-03 0.0 
0.0 0.0 -9.098959706900e-04 
-6.128747489382e-04 2.675469426610e-06 0.0 
2.675469426610e-06 3.959229262623e-03 0.0 
0.0 0.0 -6.124823626799e-04 
-5.756573688348e-04 3.659606376946e-06 0.0 
3.659606376946e-06 3.704306399129e-03 0.0 
0.0 0.0 -5.760838601101e-04 
-1.248717565768e-03 -5.535813130845e-06 0.0 
-5.535813130845e-06 8.366851373819e-03 0.0 
0.0 0.0 -1.242975171717e-03 
-6.019390184711e-04 5.185969946797e-06 0.0 
5.185969946797e-06 3.892334269077e-03 0.0 
0.0 0.0 -6.030381679152e-04 
-1.295271260153e-03 -1.307857609192e-05 0.0 
-1.307857609192e-05 8.801391727423e-03 0.0 
0.0 0.0 -1.305370344976e-03 
-1.297876901994e-03 -6.017750132352e-06 0.0 
-6.017750132352e-06 8.756844234735e-03 0.0 
0.0 0.0 -1.298405437673e-03 
-8.024513087945e-04 -3.501513188687e-05 0.0 
-3.501513188687e-05 5.274019348334e-03 0.0 
0.0 0.0 -7.997855503562e-04 
-4.254874939528e-04 2.211998048868e-05 0.0 
2.211998048868e-05 2.578130903576e-03 0.0 
0.0 0.0 -4.121418992062e-04 
-6.508445551723e-05 3.373963354691e-06 0.0 
3.373963354691e-06 3.129607731290e-04 0.0 
0.0 0.0 -6.767973558354e-05 
-4.292600751843e-04 -1.740584050413e-05 0.0 
-1.740584050413e-05 2.722306669060e-03 0.0 
0.0 0.0 -4.369243393394e-04 
-4.999202719491e-04 4.843301359547e-06 0.0 
4.843301359547e-06 3.182731173833e-03 0.0 
0.0 0.0 -5.013603847490e-04 
-1.049593438910e-03 4.881772467589e-07 0.0 
4.881772467589e-07 6.980157933883e-03 0.0 
0.0 0.0 -1.045752072333e-03 
-8.016418655660e-04 8.516902983733e-06 0.0 
8.516902983733e-06 5.282246051091e-03 0.0 
0.0 0.0 -8.029817139903e-04 
-4.608886666597e-04 1.012378092174e-05 0.0 
1.012378092174e-05 2.916090626050e-03 0.0 
0.0 0.0 -4.630712860745e-04 
-1.246806949158e-03 1.140227857437e-06 0.0 
1.140227857437e-06 8.413894031447e-03 0.0 
0.0 0.0 -1.250093291501e-03 
-1.307722546221e-03 -1.676098542472e-05 0.0 
-1.676098542472e-05 8.791128539895e-03 0.0 
0.0 0.0 -1.306737725957e-03 
-1.028575866269e-03 -1.191239422504e-05 0.0 
-1.191239422504e-05 6.846657277970e-03 0.0 
0.0 0.0 -1.028769680629e-03 
-1.163087821654e-03 1.345534459018e-05 0.0 
1.345534459018e-05 7.719562356736e-03 0.0 
0.0 0.0 -1.152835590205e-03 
-1.010012111677e-03 5.602799068576e-06 0.0 
5.602799068576e-06 6.735304706068e-03 0.0 
0.0 0.0 -1.010595862668e-03 
-1.192917845756e-03 -1.946426676365e-05 0.0 
-1.946426676365e-05 7.943592006894e-03 0.0 
0.0 0.0 -1.185717314024e-03 
-7.402744024553e-04 -5.561571202994e-05 0.0 
-5.561571202994e-05 4.875197844443e-03 0.0 
0.0 0.0 -7.451086181774e-04 
-1.274079564101e-04 8.533594738719e-07 0.0 
8.533594738719e-07 6.386951496409e-04 0.0 
0.0 0.0 -1.305770345747e-04 
-9.879127130266e-04 1.076817561932e-05 0.0 
1.076817561932e-05 6.567110452730e-03 0.0 
0.0 0.0 -9.879584850274e-04 
-3.534515362331e-04 7.236051672509e-06 0.0 
7.236051672509e-06 2.087202708593e-03 0.0 
0.0 0.0 -3.437331075899e-04 
-3.524709716392e-04 5.779652154937e-07 0.0 
5.779652154937e-07 2.140761807693e-03 0.0 
0.0 0.0 -3.524505972177e-04 
-2.862323044565e-04 -1.529779689703e-06 0.0 
-1.529779689703e-06 1.660184670344e-03 0.0 
0.0 0.0 -2.832406441101e-04 
-4.971401695179e-04 3.027225826791e-06 0.0 
3.027225826791e-06 3.086653370969e-03 0.0 
0.0 0.0 -4.856826860430e-04 
-1.849802147030e-04 7.362673378462e-06 0.0 
7.362673378462e-06 1.024898749324e-03 0.0 
0.0 0.0 -1.942844358666e-04 
-2.871589559832e-04 8.860091783272e-06 0.0 
8.860091783272e-06 1.702387296045e-03 0.0 
0.0 0.0 -2.888902821290e-04 
-1.252722980053e-03 -1.832850037119e-05 0.0 
-1.832850037119e-05 8.369674222349e-03 0.0 
0.0 0.0 -1.245112051941e-03 
-7.926742292646e-04 -4.732996368771e-05 0.0 
-4.732996368771e-05 5.282443543312e-03 0.0 
0.0 0.0 -8.050116406322e-04 
-1.106262153398e-03 -9.161465296483e-06 0.0 
-9.161465296483e-06 7.422861484469e-03 0.0 
0.0 0.0 -1.110409235593e-03 
-2.195876704695e-04 6.903728268320e-06 0.0 
6.903728268320e-06 1.223775342103e-03 0.0 
0.0 0.0 -2.210826640180e-04 
-1.251801969841e-03 -1.462670654941e-05 0.0 
-1.462670654941e-05 8.397461752409e-03 0.0 
0.0 0.0 -1.247366155457e-03 
-1.250359073208e-03 6.645071777125e-06 0.0 
6.645071777125e-06 8.395286537502e-03 0.0 
0.0 0.0 -1.246608778627e-03 
-1.310061522222e-03 -1.730900586740e-05 0.0 
-1.730900586740e-05 8.803293803047e-03 0.0 
0.0 0.0 -1.306249356034e-03 
-1.172119357565e-03 -2.987465004731e-06 0.0 
-2.987465004731e-06 7.878008992010e-03 0.0 
0.0 0.0 -1.176371721005e-03 
-2.180388128944e-04 -2.924544915624e-06 0.0 
-2.924544915624e-06 1.180274271759e-03 0.0 
0.0 0.0 -2.130604828246e-04 
-8.442593127821e-04 -4.359073983633e-05 0.0 
-4.359073983633e-05 5.668047935442e-03 0.0 
0.0 0.0 -8.603500797662e-04 
-1.256774464996e-03 -9.387217043005e-06 0.0 
-9.387217043005e-06 8.415646483150e-03 0.0 
0.0 0.0 -1.250827372426e-03 
-1.072962494745e-03 -3.075351322395e-06 0.0 
-3.075351322395e-06 7.220489030587e-03 0.0 
0.0 0.0 -1.080253149739e-03 
-1.299956315864e-03 5.907340655945e-05 0.0 
5.907340655945e-05 8.822006705032e-03 0.0 
0.0 0.0 -1.309985050881e-03 
-7.806106637019e-04 -1.684448248671e-06 0.0 
-1.684448248671e-06 5.212548371629e-03 0.0 
0.0 0.0 -7.979019438933e-04 
-1.254167562389e-03 1.146355027263e-05 0.0 
1.146355027263e-05 8.413941643761e-03 0.0 
0.0 0.0 -1.252774941638e-03 
-2.773224831107e-04 -1.248540399814e-05 0.0 
-1.248540399814e-05 1.578602427722e-03 0.0 
0.0 0.0 -2.737139294578e-04 
-1.253589576776e-03 1.816421682348e-05 0.0 
1.816421682348e-05 8.411285343410e-03 0.0 
0.0 0.0 -1.254166199180e-03 
-1.115104807484e-03 -2.535602796043e-06 0.0 
-2.535602796043e-06 7.430825592014e-03 0.0 
0.0 0.0 -1.110316242656e-03 
-8.788088159188e-04 2.953384655579e-05 0.0 
2.953384655579e-05 5.848517526204e-03 0.0 
0.0 0.0 -8.840149073763e-04 
-8.453655219935e-04 1.276109640107e-05 0.0 
1.276109640107e-05 5.644378390582e-03 0.0 
0.0 0.0 -8.570326279659e-04 
-1.251636506986e-03 8.563362149488e-06 0.0 
8.563362149488e-06 8.428656629745e-03 0.0 
0.0 0.0 -1.256337174517e-03 
-1.259327999631e-03 -2.468624830886e-05 0.0 
-2.468624830886e-05 8.412107540714e-03 0.0 
0.0 0.0 -1.249505442739e-03 
-1.752421740853e-04 1.599785091571e-05 0.0 
1.599785091571e-05 9.248205746741e-04 0.0 
0.0 0.0 -1.769373265848e-04 
-1.014009013286e-03 3.718452203751e-05 0.0 
3.718452203751e-05 6.827048883928e-03 0.0 
0.0 0.0 -1.024357608964e-03 
-6.037112023629e-04 -1.928016981808e-05 0.0 
-1.928016981808e-05 3.870166564208e-03 0.0 
0.0 0.0 -5.984289768806e-04 
-1.136473903534e-04 -2.305801768321e-05 0.0 
-2.305801768321e-05 5.992740239483e-04 0.0 
0.0 0.0 -1.205697443559e-04 
-1.256657915508e-03 3.816415809549e-05 0.0 
3.816415809549e-05 8.403684845898e-03 0.0 
0.0 0.0 -1.249521112489e-03 
-1.181297459508e-03 -1.601502097638e-06 0.0 
-1.601502097638e-06 7.855797415999e-03 0.0 
0.0 0.0 -1.172189067419e-03 
-1.260809781498e-03 3.729628833418e-05 0.0 
3.729628833418e-05 8.413738862441e-03 0.0 
0.0 0.0 -1.251863004148e-03 
-2.027346260532e-04 2.709152210177e-05 0.0 
2.709152210177e-05 1.045860090397e-03 0.0 
0.0 0.0 -1.953152674555e-04 
-1.282550990439e-04 1.596967550426e-05 0.0 
1.596967550426e-05 5.957593377885e-04 0.0 
0.0 0.0 -1.273034037094e-04 
-1.264740521524e-03 1.076136126604e-05 0.0 
1.076136126604e-05 8.488256231164e-03 0.0 
0.0 0.0 -1.258522865334e-03 
-1.257630123801e-03 7.011893020698e-06 0.0 
7.011893020698e-06 8.461160637007e-03 0.0 
0.0 0.0 -1.257106814994e-03 
-2.964921431859e-04 1.458101898900e-05 0.0 
1.458101898900e-05 1.817377003358e-03 0.0 
0.0 0.0 -3.034980657766e-04 
-1.315300675602e-03 -4.616213654122e-06 0.0 
-4.616213654122e-06 8.874722920157e-03 0.0 
0.0 0.0 -1.314710167832e-03 
-1.230668747669e-04 -1.081893831763e-05 0.0 
-1.081893831763e-05 5.709731362741e-04 0.0 
0.0 0.0 -1.229206800733e-04 
-7.274132408296e-04 6.183789390236e-06 0.0 
6.183789390236e-06 4.811004360547e-03 0.0 
0.0 0.0 -7.389643750272e-04 
-1.204537552606e-04 -1.859174322418e-05 0.0 
-1.859174322418e-05 6.217166808925e-04 0.0 
0.0 0.0 -1.247417965529e-04 
-1.299793796178e-03 -5.184403467027e-05 0.0 
-5.184403467027e-05 8.811604799613e-03 0.0 
0.0 0.0 -1.308531455474e-03 
-1.262934174837e-03 2.444499081750e-05 0.0 
2.444499081750e-05 8.445031740868e-03 0.0 
0.0 0.0 -1.254845750201e-03 
-6.580718270354e-04 3.721306501361e-05 0.0 
3.721306501361e-05 4.264446760778e-03 0.0 
0.0 0.0 -6.564513288157e-04 
-7.456337922437e-04 2.770990182636e-05 0.0 
2.770990182636e-05 4.941313475091e-03 0.0 
0.0 0.0 -7.541421605440e-04 
-4.450321519268e-04 1.831097352044e-05 0.0 
1.831097352044e-05 2.791375237210e-03 0.0 
0.0 0.0 -4.426424662127e-04 
-1.211596464916e-03 3.979318020068e-05 0.0 
3.979318020068e-05 8.090084984478e-03 0.0 
0.0 0.0 -1.203498912175e-03 
-1.699334618160e-04 1.120862622912e-05 0.0 
1.120862622912e-05 9.446237105802e-04 0.0 
0.0 0.0 -1.843356288727e-04 
-1.269994123481e-03 -1.450914975506e-05 0.0 
-1.450914975506e-05 8.504040731719e-03 0.0 
0.0 0.0 -1.260296891839e-03 
-1.268600913962e-03 -6.159942340734e-06 0.0 
-6.159942340734e-06 8.509424202183e-03 0.0 
0.0 0.0 -1.261416966621e-03 
-1.266492101745e-03 9.280004247652e-06 0.0 
9.280004247652e-06 8.502341661499e-03 0.0 
0.0 0.0 -1.260618436842e-03 
-1.320646394007e-03 1.164813461446e-06 0.0 
1.164813461446e-06 8.896090470956e-03 0.0 
0.0 0.0 -1.317725628150e-03 
-1.063917710965e-04 3.406664009707e-05 0.0 
3.406664009707e-05 5.707022560973e-04 0.0 
0.0 0.0 -1.219614697575e-04 
-1.271929683323e-03 -9.688594658040e-06 0.0 
-9.688594658040e-06 8.520583266263e-03 0.0 
0.0 0.0 -1.263090216482e-03 
-1.211976787312e-03 3.126546850388e-05 0.0 
3.126546850388e-05 8.084092320638e-03 0.0 
0.0 0.0 -1.202239909569e-03 
-7.453046702514e-04 4.651614229786e-05 0.0 
4.651614229786e-05 4.880400084605e-03 0.0 
0.0 0.0 -7.439744481034e-04 
-1.252851707889e-03 4.006401018327e-05 0.0 
4.006401018327e-05 8.422629498426e-03 0.0 
0.0 0.0 -1.252574368527e-03 
-5.410687361656e-04 2.769520936269e-05 0.0 
2.769520936269e-05 3.454688790362e-03 0.0 
0.0 0.0 -5.383891422301e-04 
-2.371733345551e-04 -4.470106712651e-05 0.0 
-4.470106712651e-05 1.418248240622e-03 0.0 
0.0 0.0 -2.492021827984e-04 
-1.298998890690e-03 -2.770464845184e-05 0.0 
-2.770464845184e-05 8.833071909488e-03 0.0 
0.0 0.0 -1.313490227100e-03 
-4.294380069023e-05 -4.186010349566e-06 0.0 
-4.186010349566e-06 2.320436162997e-04 0.0 
0.0 0.0 -5.297760877488e-05 
-7.470694764219e-04 -2.192265105768e-05 0.0 
-2.192265105768e-05 4.855390412225e-03 0.0 
0.0 0.0 -7.402411036050e-04 
-1.312354484328e-03 4.131093532360e-05 0.0 
4.131093532360e-05 8.846630708308e-03 0.0 
0.0 0.0 -1.313492844077e-03 
-2.211400451138e-04 -3.676306702383e-06 0.0 
-3.676306702383e-06 1.335213202641e-03 0.0 
0.0 0.0 -2.401910970207e-04 
-8.452827785452e-04 -2.606429286929e-05 0.0 
-2.606429286929e-05 5.603903241888e-03 0.0 
0.0 0.0 -8.489638187885e-04 
-1.255507124853e-03 -9.186014831564e-06 0.0 
-9.186014831564e-06 8.480922712531e-03 0.0 
0.0 0.0 -1.260211869575e-03 
-8.025976065576e-04 9.592064473669e-06 0.0 
9.592064473669e-06 5.261098351640e-03 0.0 
0.0 0.0 -7.986629621775e-04 
-1.151240916671e-03 -6.084869299020e-05 0.0 
-6.084869299020e-05 7.669030971500e-03 0.0 
0.0 0.0 -1.148445367820e-03 
-2.192829735374e-04 1.243334644941e-05 0.0 
1.243334644941e-05 1.310510961281e-03 0.0 
0.0 0.0 -2.379222736554e-04 
-3.921137447330e-05 -2.374603163330e-06 0.0 
-2.374603163330e-06 2.327919393128e-04 0.0 
0.0 0.0 -4.855001867801e-05 
-9.645913781642e-04 -4.083102734347e-05 0.0 
-4.083102734347e-05 6.424950689754e-03 0.0 
0.0 0.0 -9.668795991591e-04 
-1.266746155896e-03 3.603621751388e-05 0.0 
3.603621751388e-05 8.474273100537e-03 0.0 
0.0 0.0 -1.258714341260e-03 
-1.271487619191e-03 -1.652780192113e-05 0.0 
-1.652780192113e-05 8.532655002207e-03 0.0 
0.0 0.0 -1.263997700767e-03 
-9.164544161814e-04 3.965640940816e-05 0.0 
3.965640940816e-05 6.111358236627e-03 0.0 
0.0 0.0 -9.199601189493e-04 
-2.093975888615e-04 -4.665649638245e-05 0.0 
-4.665649638245e-05 1.197818786362e-03 0.0 
0.0 0.0 -2.164625706183e-04 
-1.227420417668e-03 9.834631553130e-06 0.0 
9.834631553130e-06 8.219790599597e-03 0.0 
0.0 0.0 -1.221038716794e-03 
-6.921621610822e-04 -2.719005194183e-06 0.0 
-2.719005194183e-06 4.614590635001e-03 0.0 
0.0 0.0 -7.060606045913e-04 
-1.222382248160e-03 -1.550215016822e-05 0.0 
-1.550215016822e-05 8.147929268757e-03 0.0 
0.0 0.0 -1.208939113964e-03 
-1.221146925072e-03 -7.968249279302e-06 0.0 
-7.968249279302e-06 8.100682442682e-03 0.0 
0.0 0.0 -1.203806565432e-03 
-5.670525863280e-05 -1.771698635754e-05 0.0 
-1.771698635754e-05 2.585053466944e-04 0.0 
0.0 0.0 -6.449378323917e-05 
-8.615762060499e-04 1.909652726146e-05 0.0 
1.909652726146e-05 5.665696184107e-03 0.0 
0.0 0.0 -8.562696210230e-04 
-1.225143862683e-04 -2.984290666876e-05 0.0 
-2.984290666876e-05 5.860977302171e-04 0.0 
0.0 0.0 -1.223049983750e-04 
-1.270837356719e-03 -1.933520143365e-05 0.0 
-1.933520143365e-05 8.510135783999e-03 0.0 
0.0 0.0 -1.263714160583e-03 
-7.340830126836e-04 -1.335821332730e-05 0.0 
-1.335821332730e-05 4.821918862365e-03 0.0 
0.0 0.0 -7.344436328926e-04 
-6.243718679034e-04 -3.415404525654e-05 0.0 
-3.415404525654e-05 4.270916912135e-03 0.0 
0.0 0.0 -6.534314656709e-04 
-6.733326468399e-04 3.722248756964e-05 0.0 
3.722248756964e-05 4.248015244343e-03 0.0 
0.0 0.0 -6.600000000000e-04 

SCALARS node_materi_plasti_kappa_shear float
LOOKUP_TABLE default
1.154246033666e-04
3.030366954187e-03
5.919693902232e-03
5.923852315190e-03
2.859947626271e-04
6.218445993993e-04
8.718334659107e-04
1.197083009525e-03
1.504800919970e-03
1.797006115044e-03
2.096281833338e-03
2.401455262769e-03
2.703248692656e-03
3.016765538726e-03
3.359027883224e-03
3.663996831824e-03
3.908074174929e-03
4.228433772035e-03
4.543227631705e-03
4.848753617487e-03
5.161467818816e-03
5.477271259315e-03
5.779376537800e-03
5.932061195851e-03
5.925336573631e-03
5.920984287690e-03
5.924407700450e-03
5.915528138253e-03
5.915864416857e-03
5.918097125373e-03
5.921994664725e-03
5.927387718192e-03
5.930449677587e-03
5.921712747723e-03
5.924515498722e-03
5.931743115084e-03
5.928847067526e-03
5.919544915052e-03
5.911436947506e-03
5.907167024861e-03
5.916691287179e-03
5.925466264875e-03
5.926352037367e-03
5.927462665333e-03
5.926179788313e-03
5.923807961778e-03
5.921183308973e-03
5.929039143344e-03
5.928617810733e-03
5.930983770204e-03
5.930261081197e-03
5.934897168252e-03
5.940412066918e-03
5.938845524631e-03
5.922011629466e-03
5.913355498151e-03
5.926067531878e-03
5.924785671548e-03
5.926499683681e-03
5.927876554226e-03
5.924703349372e-03
5.915717987273e-03
5.917408892843e-03
5.920280365368e-03
5.931958681328e-03
5.938110150403e-03
5.906803770761e-03
5.928713183382e-03
5.925023434437e-03
5.923453604397e-03
5.939442334280e-03
5.942268996102e-03
3.313640150810e-03
3.643609585951e-03
3.947542440607e-03
4.242858391353e-03
4.550358348147e-03
4.852089997296e-03
5.156894848885e-03
5.448757344777e-03
5.772918013305e-03
9.252120421735e-05
3.026620073330e-03
3.625369357501e-04
6.731817662417e-04
9.805698534578e-04
1.254524899220e-03
1.561406696237e-03
1.870015848719e-03
2.180014997265e-03
2.484591610966e-03
2.787223053840e-03
2.845163404534e-03
2.974381815992e-03
2.988250338395e-03
2.992834626340e-03
2.988540146830e-03
3.040036634150e-03
2.993658303481e-03
2.986565369329e-03
2.994325014933e-03
3.003444053817e-03
3.004893136958e-03
3.000286560446e-03
2.997851424533e-03
2.994316307864e-03
3.001824735141e-03
9.621576344535e-05
1.072789967255e-04
9.631852337865e-05
9.634646192600e-05
1.161697218308e-04
1.255618245921e-04
1.234927640208e-04
1.176143698925e-04
1.181040846591e-04
1.155364499888e-04
1.206715439587e-04
1.365993450730e-04
1.279414962217e-04
1.070815165248e-04
1.087456221067e-04
1.225517974272e-04
1.266454771602e-04
1.116507655708e-04
1.010315185057e-04
2.756437702531e-03
2.882976383604e-03
2.892478693368e-03
2.886456684411e-03
2.890049440422e-03
2.892193673753e-03
2.888405631559e-03
2.888009844415e-03
2.886113899480e-03
2.887378563132e-03
2.885623528103e-03
2.884708539371e-03
2.888502868744e-03
2.881854115020e-03
2.863931220087e-03
2.835047054086e-03
2.292941970270e-04
5.236807730249e-04
8.235808296833e-04
1.134523506932e-03
1.423638051930e-03
1.725266219408e-03
2.028413709058e-03
2.331155750867e-03
2.639083122008e-03
2.863249793974e-03
7.103606478164e-04
5.814911313878e-03
2.047918518275e-04
1.970502068753e-04
5.819197632046e-03
1.328946267278e-03
3.191329080053e-03
5.810273490245e-03
1.892382905539e-03
5.822030968612e-03
2.522985579042e-03
5.833950524206e-03
1.864247367510e-04
5.824179591591e-03
3.155514371104e-03
1.957918245127e-03
4.023649944342e-03
5.811714724389e-03
5.825466270030e-03
5.824996473377e-03
5.797525205524e-03
5.833870913862e-03
3.279705906600e-03
3.278932509466e-03
3.299538154266e-03
4.392988308339e-03
5.825782847880e-03
1.875803799629e-04
2.130243859941e-04
4.990941270632e-03
3.266764248665e-03
1.027578116983e-03
5.770593586357e-03
5.837121425949e-03
5.820649096206e-03
5.802522940311e-03
5.827315517430e-03
2.124904197991e-04
3.271394634805e-03
5.775055632193e-03
5.005410343617e-03
2.049450714894e-04
2.556345996281e-03
5.876876022666e-03
1.638575426776e-03
1.018536859922e-03
2.209222523540e-03
2.829980156742e-03
3.757872655430e-04
3.812034731290e-03
5.879774981020e-03
2.000834389720e-04
5.582228690945e-03
3.282968380463e-03
3.405879163641e-03
3.554924991576e-03
3.706761369563e-03
3.858428676321e-03
3.994172834541e-03
3.835090176788e-03
4.124628089981e-03
3.963011153955e-03
4.154617485841e-03
4.253890367715e-03
4.090560016023e-03
4.382096032079e-03
4.218726563058e-03
3.929419603329e-03
4.056695462337e-03
3.767499058174e-03
3.894823734663e-03
4.184913419616e-03
4.022005877425e-03
3.732190171091e-03
3.858313833382e-03
3.569562641982e-03
3.695377336778e-03
3.406514106271e-03
3.532562577704e-03
3.821712444258e-03
3.658737601044e-03
3.369644961438e-03
3.495886750392e-03
3.207187652528e-03
3.332149617847e-03
3.621982769517e-03
3.458496973122e-03
3.166845774337e-03
3.294707675905e-03
3.002130027116e-03
3.131260622861e-03
2.837304896117e-03
2.965670032421e-03
3.259556182238e-03
3.094478366317e-03
2.799648397582e-03
2.927396624230e-03
3.222929756525e-03
3.055408384458e-03
3.351641860097e-03
3.184131490321e-03
2.889094859221e-03
3.017387565719e-03
3.312807633971e-03
3.144807155985e-03
2.850539984923e-03
2.978148191045e-03
3.273453875391e-03
3.105701933788e-03
2.811118638057e-03
2.939152856274e-03
3.235930558971e-03
3.066878938369e-03
2.770729598448e-03
2.897992444106e-03
3.196676201024e-03
3.025458962526e-03
3.326539777395e-03
2.725836099392e-03
2.853445082624e-03
2.552546008883e-03
2.681203652164e-03
3.749361599789e-03
2.379164116958e-03
2.254416588919e-03
2.509143601858e-03
2.813194765712e-03
2.206243071564e-03
2.337199456257e-03
2.035089294135e-03
2.704627779472e-03
4.313057656759e-03
2.166880539926e-03
1.864421071359e-03
1.732868546084e-03
1.561342170473e-03
4.024498791055e-03
4.321449536869e-03
4.179690524696e-03
4.487558501959e-03
4.351378253477e-03
1.692293086120e-03
4.547507496043e-03
4.620310667296e-03
3.444574795783e-03
3.081228819560e-03
3.519317618785e-03
2.468789982299e-03
2.300880945692e-03
2.604574973058e-03
3.497581244636e-03
3.628764160508e-03
3.799698635942e-03
3.931379681523e-03
4.102448612731e-03
4.234588908537e-03
4.063072780301e-03
4.366751221426e-03
4.194735028229e-03
4.405545622725e-03
4.273365102485e-03
4.498318737704e-03
4.326379418243e-03
4.629602997623e-03
4.457503609016e-03
4.153929470569e-03
4.284864263683e-03
3.982884066866e-03
3.648745610141e-03
3.817193794493e-03
3.946719407469e-03
4.115926409861e-03
4.245574739592e-03
4.415539763342e-03
4.544399560802e-03
4.375426891281e-03
4.509920023172e-03
2.632653377112e-03
2.504948411976e-03
2.338614636793e-03
2.211400256375e-03
2.045332097660e-03
1.919061142858e-03
1.752635209565e-03
1.878513981748e-03
1.584910331352e-03
1.710339413602e-03
1.415942396810e-03
1.540924270131e-03
3.948384266438e-03
4.285218450736e-03
4.585788453075e-03
4.452548000313e-03
1.432045145505e-03
4.588120534622e-03
4.576656745919e-03
4.442906503729e-03
4.675416510747e-03
1.391840176144e-03
1.627976054007e-03
1.791438559949e-03
4.652375729059e-03
4.515073750359e-03
4.747734229222e-03
1.522378979602e-03
4.671085369189e-03
1.291851135584e-03
4.415253925120e-03
4.718848314432e-03
3.891705484867e-03
4.754278458359e-03
4.616084921715e-03
1.839848146906e-03
1.672605894671e-03
1.378135101855e-03
1.515420670763e-03
1.805900116599e-03
1.632448232839e-03
1.332653763525e-03
1.460848178870e-03
1.759405537371e-03
1.587950129179e-03
1.285510927899e-03
1.415480434626e-03
4.891516996896e-03
1.121510096864e-03
3.641366942474e-03
4.879243427220e-03
4.841045972056e-03
4.817221487039e-03
4.680859314151e-03
4.376749942027e-03
4.546436710308e-03
4.850021688501e-03
4.714841530376e-03
4.411085338888e-03
4.576823668989e-03
4.271643822444e-03
4.438121527056e-03
4.742306724662e-03
4.605607762388e-03
4.302170490177e-03
4.468415119196e-03
4.164526586705e-03
4.326213013675e-03
4.634793358128e-03
1.226849014185e-03
4.506378239639e-03
4.809738295993e-03
2.453146888506e-03
2.728545033659e-03
2.907124081246e-03
3.043059147020e-03
4.493803980505e-03
4.803851567309e-03
1.501869364537e-03
1.664240495932e-03
4.952759396910e-03
4.548949919363e-03
4.244032685451e-03
2.918967585879e-03
2.792586959038e-03
2.629168594188e-03
2.499093692646e-03
2.668968419875e-03
2.332626947432e-03
4.138292167915e-03
4.909939925648e-03
1.603914124137e-03
1.302913386403e-03
4.855203702972e-03
4.205737706829e-03
4.111791117138e-03
4.239349827017e-03
4.404279031402e-03
4.532163345971e-03
4.698797086860e-03
4.826101189867e-03
4.663500232458e-03
4.917627217648e-03
4.959771601570e-03
4.174662190372e-03
4.151213148999e-03
1.888480938751e-03
1.096487228567e-03
1.112867725487e-03
1.347315636886e-03
1.652113615696e-03
5.051413102721e-03
4.995155339568e-03
4.862932033424e-03
2.379373966366e-03
2.546273267234e-03
5.051913667086e-03
4.046495241743e-03
4.106805891897e-03
3.964719198022e-03
1.001701890259e-03
9.814910827123e-04
5.018736248123e-03
1.953490702354e-03
1.826326942528e-03
1.000603477325e-03
8.270248169060e-04
4.649062039121e-03
4.959360782526e-03
3.209003612840e-03
3.344763241722e-03
4.919412739713e-03
1.246851632543e-03
5.108760944893e-03
4.338688324758e-03
4.036566623443e-03
2.862194265683e-03
1.379647792169e-03
1.216950747748e-03
2.058445277619e-03
1.544704251302e-03
1.478187698947e-03
5.222097844678e-03
5.150166074507e-03
4.796698922504e-03
4.498570299624e-03
5.089656245451e-03
9.457015925929e-04
5.189931181500e-03
4.686738709316e-03
5.150549732461e-03
5.027069730600e-03
2.114316632001e-03
1.991901980435e-03
1.705778784395e-03
1.877221421128e-03
3.675799238899e-03
2.280051155843e-03
3.479503618634e-03
3.353779208918e-03
3.194968393760e-03
2.831556800728e-03
2.708824037533e-03
2.375496384323e-03
3.686936591630e-03
3.078073203987e-03
3.851596386181e-03
3.667740788258e-03
5.044158210038e-03
5.215830386065e-03
3.998289725651e-03
3.853491964182e-03
1.131663708096e-03
1.005870343686e-03
3.457686078413e-03
5.011327749084e-03
5.115127262102e-03
5.250667570774e-03
5.084339547061e-03
5.085185550635e-03
2.466333230067e-03
3.777777636612e-03
9.588302078742e-04
3.912004250684e-03
8.314503266492e-04
4.475699055473e-03
4.989278594651e-03
5.157849786266e-03
5.214381496867e-03
3.266010047436e-03
4.041180497852e-03
3.878621153168e-03
3.070483235828e-03
2.913482248638e-03
3.035157386404e-03
2.755770959431e-03
2.184615498058e-03
2.013559352505e-03
5.319773126116e-03
5.255640298353e-03
5.321605394694e-03
5.197016645099e-03
5.342046142709e-03
5.180952194182e-03
1.777196002727e-03
2.427249311879e-03
5.314454420742e-03
3.225902650504e-03
5.312357786981e-03
5.147322410379e-03
6.540445478406e-04
7.723794913411e-04
5.277227190096e-03
1.587049601255e-03
1.745337399366e-03
1.421339300996e-03
5.610035015994e-03
3.257775872683e-03
5.289370763037e-03
2.995256057925e-03
5.420258365801e-03
4.174507003320e-03
2.750543209626e-03
4.785821545600e-03
5.111095174845e-03
5.457139877325e-03
3.797889722827e-03
3.646479732755e-03
3.931549897695e-03
1.164427047641e-03
8.448239735481e-04
5.077361997568e-03
2.130717764018e-03
2.299994958429e-03
1.365911109574e-03
1.662041853713e-03
3.380077755549e-03
3.249013876935e-03
4.605823304079e-03
4.769919328613e-03
4.276226867883e-03
4.169358572453e-03
3.867935193715e-03
3.737504250769e-03
5.341787835815e-03
5.553309217008e-03
2.353647089942e-03
2.227016294383e-03
2.307076216506e-03
5.450349556697e-03
5.463341176944e-03
5.325739410321e-03
7.148670898350e-04
8.870883348093e-04
1.101873869960e-03
9.316626042024e-04
5.373764850267e-03
5.221517258001e-03
5.572702457976e-03
1.582372335378e-03
4.632172669378e-03
5.375893312072e-03
5.254154539084e-03
5.559534277686e-03
5.076810545238e-03
5.365925183894e-03
5.378240200423e-03
5.392140300883e-04
5.334646512646e-03
3.675752576569e-03
3.994140177195e-04
3.535833562514e-03
3.716995656290e-03
3.370679194070e-03
1.282169154075e-03
3.567296707678e-03
3.765939256375e-03
5.126327859221e-04
5.605887865963e-03
5.560267422025e-04
6.660332016854e-04
5.449756143397e-03
5.274590684749e-03
5.572244234081e-03
5.392478454778e-03
5.099677131758e-03
5.238383322143e-03
3.509567093749e-03
5.572364392840e-03
5.374148307929e-03
5.737141131835e-03
2.638726436383e-03
2.039901378839e-03
1.905448348708e-03
1.617406521166e-03
5.530794330127e-03
5.348359015461e-03
4.829734702657e-03
4.521447046327e-03
3.557349194756e-03
3.532569652196e-03
3.813584889459e-03
3.767894522616e-03
4.058668074403e-03
4.012436085661e-03
4.295379223318e-03
5.556472121404e-03
1.300890945793e-03
2.946721722792e-03
5.471988497704e-03
5.293800497184e-03
2.587723201717e-03
2.314665718403e-03
5.537328889683e-03
2.406283520918e-03
5.792762283983e-03
1.858040090612e-04
4.857765212983e-04
2.573038789786e-03
2.873030274745e-03
2.199216706967e-03
2.091680435174e-03
4.476442988489e-03
7.504877515353e-04
1.263024816417e-03
4.334362747608e-03
9.849535248275e-04
4.679903303412e-03
2.540562741112e-03
3.118474233540e-03
1.542099058054e-03
2.168158947901e-03
3.802386178974e-03
3.549362578402e-03
3.391116114852e-03
2.670946485909e-03
2.260803135557e-03
1.949223813238e-03
3.605674145861e-03
4.919767447334e-03
5.053137848748e-03
5.341032503506e-03
5.187217989567e-03
4.888560595270e-03
5.017653317247e-03
5.314535410036e-03
5.156798542278e-03
5.508315270460e-03
5.286399283860e-03
4.980351695302e-03
5.106165886697e-03
5.394021959470e-03
4.807746362982e-03
5.628111934766e-03
2.871243858978e-03
6.965101933153e-04
6.551789095587e-04
3.282360146456e-03
5.809860564826e-03
5.821157866103e-03
2.082528349660e-03
5.819524766679e-03
3.515099545658e-03
1.460932159611e-03
5.821354656771e-03
4.753391499877e-03
4.585238946775e-03
4.452711673430e-03
5.831503303158e-03
4.073161563167e-03
5.837134571400e-03
3.985700881929e-03
3.851791908228e-03
3.554575317506e-03
4.847344029507e-03
5.817888275316e-03
5.575635814432e-03
5.571525256645e-03
5.311966086722e-03
5.819541179728e-03
5.830698806893e-03
5.838402623043e-03
1.930986719212e-03
2.101024040918e-03
2.394475490464e-03
2.266384359489e-03
1.970817861414e-03
2.136867911929e-03
2.431134490451e-03
2.006483688020e-03
5.062450549600e-03
5.830124137920e-03
3.970119493304e-03
3.835301643933e-03
3.534841884466e-03
2.946573758729e-03
3.117318954907e-03
3.419825569632e-03
2.776365598311e-03
4.367919564162e-03
5.827346570942e-03
3.906600699280e-03
2.984402664609e-03
3.276820545210e-03
3.539493379070e-03
3.549133742473e-03
3.824596042644e-03
3.567726925698e-03
3.513236360802e-03
3.646056828441e-03
3.479442829320e-03
3.776440321699e-03
3.600754084134e-03
3.319682840169e-03
3.899235541114e-03
3.712790048005e-03
3.270946734921e-03
2.113632266740e-04
4.663590485079e-04
4.566049970039e-04
7.156745567248e-04
7.373279452377e-04
1.003154234088e-03
9.722585000682e-04
4.717549759512e-04
2.060508248568e-04
4.540770013058e-04
2.016183866916e-04
4.467968440684e-04
7.550412036772e-04
1.182852220765e-03
5.788845613533e-03
2.859709310104e-03
2.724978007808e-03
2.413348020450e-03
2.580932184492e-03
2.979254934651e-03
2.254988964791e-03
2.151777952318e-03
2.124248935492e-04
4.645380525494e-04
4.620287622044e-04
7.358870940255e-04
7.228556758076e-04
4.637229493946e-04
4.638167508819e-04
2.058552859172e-04
4.611112548754e-04
7.280621305049e-04
1.906731245643e-04
4.704546691336e-03
4.866377932286e-03
5.817051415440e-03
3.306461396406e-03
2.060812032613e-04
5.781234699132e-03
5.822288119502e-03
5.823020880710e-03
5.305314190989e-03
5.454685450902e-03
5.787205338867e-03
1.904164271810e-03
5.481003932717e-03
5.244910374536e-03
1.337919885917e-03
1.840104844977e-03
4.380249884781e-03
4.023192351168e-03
5.022936148851e-03
4.114296708412e-03
4.760794110997e-03
5.555554324813e-03
1.179594138024e-03
4.131571153262e-03
4.020912679793e-03
4.773210184270e-03
1.997971753623e-03
3.186209854797e-03
1.264320056221e-03
5.581499467917e-03
3.319123411055e-03
3.366608306896e-03
2.641689808122e-03
2.077782102881e-03
1.716997042932e-03
3.042088607286e-03
3.155408692379e-03
4.538280633475e-03
4.941818270038e-03
2.600596271961e-04
4.708539861147e-03
3.760089428882e-03
4.244105085551e-03
4.715328609436e-03
1.167410736667e-03
4.880974533881e-03
5.403313920794e-03
3.898336749169e-03
9.671126416542e-04
3.824252090180e-03
5.351558397039e-03
4.786917829570e-03
1.824211420534e-03
3.480609807162e-03
3.243878701939e-03
2.980785244645e-03
5.375575519212e-03
3.585995865997e-03
4.980015277353e-03
4.076017659109e-03
1.959475074490e-03
4.975844888607e-03
3.389984283037e-03
5.185084528177e-03
4.569389381663e-03
2.760527645323e-03
4.981119205122e-03
3.402542523838e-03
4.886475886782e-03
3.158193069385e-03
3.984904577625e-03
4.346595079122e-03
3.785347613028e-03
4.212795144998e-03
4.843183184598e-03
1.250416126476e-03
2.458873987470e-03
4.209667670053e-03
5.115121627223e-03
5.486043343848e-03
2.956453768341e-03
4.801040750307e-03
5.276018678210e-03
3.287319671934e-03
1.360173557846e-03
1.054118268605e-03
2.172491032492e-03
3.423285296841e-03
3.589532674148e-03
5.552240847616e-03
4.931191158355e-03
4.613419327886e-03
5.464000382780e-04
3.101627176124e-03
5.063754079328e-03
3.609293720743e-03
5.009794558603e-03
3.416052821845e-03
5.575482653537e-03
2.475536180774e-03
5.206362114330e-03
4.647615435026e-03
2.244695150429e-03
3.268136202907e-03
5.555008699614e-03
4.952886856145e-03
4.075675641162e-03
3.440761170649e-03
2.670689667684e-03
3.721275175177e-03
4.148714793035e-03
5.835319629331e-03
5.106135759620e-03
4.284472671237e-03
3.550391241370e-03
4.312448323242e-03
7.156855192344e-04
2.792869111198e-03
3.682084945283e-03
2.301558692687e-03
3.569870679035e-03
5.507448749153e-03
3.814302881920e-03
2.595277141504e-03
3.945212643466e-03
2.359824458181e-03
4.418520852231e-03
4.072359630917e-03
4.440337999663e-03
7.757686492747e-04
4.203718467632e-03
5.137853672774e-03
2.428401079217e-03
3.700926420415e-03
4.718919712422e-03
2.045517196664e-03
4.001751556342e-03
4.734200010830e-03
4.335389309684e-03
3.717467635180e-03
4.306468150559e-03
2.158315669710e-03
1.778111948175e-03
1.480789573342e-03
2.723576269686e-03
4.901358873080e-03
9.907929562044e-04
4.678560104240e-03
1.061568277770e-03
2.558752785224e-03
4.777870338073e-03
4.115757970203e-03
2.685651994210e-03
1.661993244650e-03
2.519680303368e-03
4.012449715584e-03
2.645863061595e-03
2.477781824869e-03
5.552773111686e-03
2.601556434606e-03
5.832588277671e-03
5.807498199142e-03
3.510356051034e-03
1.737451315662e-03
2.405479085723e-04
1.829108936978e-03
2.134121346790e-03
4.639057668376e-03
3.513173410346e-03
1.958554503757e-03
5.579740788869e-03
5.830554327362e-03
4.549382429434e-03
5.128190593651e-03
4.477241356342e-03
5.275457844279e-03
3.249070074697e-03
4.477567605621e-04
4.366937944895e-03
1.414652943865e-03
1.454830351756e-03
1.141526190888e-03
2.071482774289e-03
7.048676555723e-04
1.168371653296e-03
5.554008919411e-03
3.515193931760e-03
4.930134979138e-03
8.572356047719e-04
5.572156000341e-03
5.569776879399e-03
5.838339516943e-03
5.230953075188e-03
8.277135440664e-04
3.767849181542e-03
5.583236268413e-03
4.792801184414e-03
5.849741729017e-03
3.467504393821e-03
5.585086652784e-03
1.085481836247e-03
5.581941862217e-03
4.937207249790e-03
3.891365713394e-03
3.752927955089e-03
5.593723576573e-03
5.582903556172e-03
6.530334131598e-04
4.532821262706e-03
2.586505146794e-03
4.309456059287e-04
5.577341518437e-03
5.218037136217e-03
5.584899765061e-03
7.371716874996e-04
4.403063957912e-04
5.630357557198e-03
5.612012503027e-03
1.230585207076e-03
5.884366405666e-03
4.092504687394e-04
3.203199811466e-03
4.370733977465e-04
5.843994283019e-03
5.604234858727e-03
2.845335710463e-03
3.286444788878e-03
1.873211432721e-03
5.369777350956e-03
6.577588307218e-04
5.641946929749e-03
5.644321122624e-03
5.639466704751e-03
5.898898139880e-03
4.211607310232e-04
5.652386425481e-03
5.366048530729e-03
3.253953958084e-03
5.587679770306e-03
2.309938481824e-03
9.687550335974e-04
5.854893632795e-03
1.859115235788e-04
3.234858844656e-03
5.866847427828e-03
9.109470946294e-04
3.727440323860e-03
5.623149802079e-03
3.507013142730e-03
5.092976750137e-03
8.975669244278e-04
1.659950822664e-04
4.270563646727e-03
5.623311015092e-03
5.659663736694e-03
4.061400799491e-03
8.220481444569e-04
5.453937277557e-03
3.071062049363e-03
5.407469273276e-03
5.377966207611e-03
2.102243503154e-04
3.774256867795e-03
4.259532598859e-04
5.646002650817e-03
3.210355763876e-03
2.836141926984e-03
2.849139881866e-03

SCALARS node_materi_plasti_phimob float
LOOKUP_TABLE default
1.850009793634e+01
-2.563719243971e+01
2.062787172447e+01
1.784345829031e+01
-3.050115667181e+01
-4.781545431423e+00
5.560245188500e+00
1.150953756367e+01
1.500625112057e+01
1.712387446115e+01
1.863012348757e+01
1.973096687652e+01
2.049708782943e+01
2.107057265279e+01
2.147961457989e+01
2.163195969483e+01
2.166121777719e+01
2.168955748985e+01
2.161193505795e+01
2.147292900343e+01
2.129326057767e+01
2.107229801045e+01
2.083879918657e+01
1.790136867403e+01
1.789220427600e+01
1.791994095136e+01
1.795440493846e+01
1.796394013355e+01
1.804379705913e+01
1.811722775165e+01
1.823921355331e+01
1.838915502510e+01
1.855870582460e+01
1.871418092850e+01
1.896818330766e+01
1.922043312950e+01
1.958373513898e+01
1.984986464471e+01
2.022034517875e+01
2.050750427394e+01
2.077018604410e+01
2.105389534889e+01
2.126997565463e+01
2.142360230747e+01
2.148112585292e+01
2.154587665623e+01
2.155468803027e+01
2.153115462059e+01
2.148450110315e+01
2.144548587910e+01
2.137651588332e+01
2.131485651113e+01
2.120919138231e+01
2.117972547257e+01
2.111530657605e+01
2.103654406881e+01
2.097580721445e+01
2.092272527721e+01
2.086694544093e+01
2.082949974405e+01
2.079112359002e+01
2.076178343658e+01
2.073989006354e+01
2.070107864238e+01
2.066526646023e+01
2.064922163067e+01
2.068565853802e+01
2.062022335290e+01
2.062772679960e+01
2.060695884754e+01
2.060366174789e+01
2.060734650649e+01
-1.085427040926e+01
-1.424565006271e-01
5.663292671324e+00
9.248992539185e+00
1.180212052039e+01
1.366762141512e+01
1.512824856056e+01
1.630403848710e+01
1.728220747283e+01
-2.847677834121e+01
-8.938237288347e+00
-5.569291787919e+00
3.615691594068e+00
7.390814011127e+00
8.773262534027e+00
9.027984869600e+00
9.146826596396e+00
9.173411820842e+00
9.490555248934e+00
3.565967491968e+00
-3.184448504226e+01
-2.734293855566e+01
-2.693285970052e+01
-2.700323593525e+01
-2.729722241655e+01
-2.478779903950e+01
-2.701854856129e+01
-2.710962659976e+01
-2.693322986437e+01
-2.654994192516e+01
-2.637219864665e+01
-2.564267878681e+01
-2.419220815984e+01
-2.157757531872e+01
-1.732871652512e+01
-2.997084203410e+01
-2.666234644494e+01
-2.602184886826e+01
-2.867595386193e+01
-3.341574424060e+01
-3.722575106280e+01
-4.129584681636e+01
-4.567542410326e+01
-5.014001133356e+01
-5.428207658557e+01
-5.758040929469e+01
-5.733997949518e+01
-5.850539169686e+01
-6.105724132645e+01
-6.071258301637e+01
-5.975142025522e+01
-5.954994971612e+01
-9.352727580322e+00
4.034572271206e+01
-1.174996433285e+01
-2.606681294136e+01
-3.141713159873e+01
-3.432261974768e+01
-3.538686993201e+01
-3.543010327528e+01
-3.493345622621e+01
-3.435959290999e+01
-3.358779551920e+01
-3.323449915561e+01
-3.282699300210e+01
-3.252806850907e+01
-3.250343860487e+01
-3.252336242549e+01
-3.248143444308e+01
-3.202136104869e+01
-1.650481114508e+01
1.548435345041e-01
5.808812216858e+00
8.142408164225e+00
1.026177038198e+01
1.032703348360e+01
9.144467713886e+00
9.058404841125e+00
1.009581080432e+01
-2.957645209141e+00
-1.347045771833e+00
2.136365667545e+01
-3.765428146074e+01
-2.947769023819e+01
2.107377669907e+01
7.013564826482e+00
2.131085275977e+01
2.162644327562e+01
9.660718242775e+00
2.168471150584e+01
1.035606475270e+01
2.086846467841e+01
-4.130695985974e+01
2.127925277077e+01
-1.532963615403e-01
1.801012950158e+01
2.171230404637e+01
2.033135453812e+01
1.879767504294e+01
1.754245401068e+01
1.759534169406e+01
1.810128897231e+01
-7.448321042496e+00
-1.329625385723e+01
-1.290166164310e+01
1.063672734925e+01
2.081500472000e+01
-2.880431351842e+01
-3.901386216945e+01
2.139498757458e+01
-1.453446667165e+01
8.935355746804e+00
1.935058459401e+01
2.167299353026e+01
2.156756092988e+01
2.156439925488e+01
2.121475289630e+01
-3.159443581715e+01
-1.207182907621e+01
2.103664404035e+01
1.441938090160e+01
-3.960471810214e+01
2.017214836982e+01
1.763293884836e+01
8.631611738574e+00
4.330984113543e+00
9.970925224724e+00
8.216973222741e+00
-1.384725312949e+01
3.552757333743e+00
2.075272965173e+01
-1.480898456067e+01
1.676374897357e+01
-1.602185006866e-01
4.650468935051e+00
4.149613625890e+00
8.484630335271e+00
8.555164077265e+00
1.115115696597e+01
1.121157695016e+01
1.313142064991e+01
1.324555411237e+01
1.135239380524e+01
1.468186861521e+01
1.479906204504e+01
1.591284569922e+01
1.612526756657e+01
1.511590400761e+01
1.673600717199e+01
1.588456306330e+01
1.757306313957e+01
1.821417414348e+01
1.893648365224e+01
1.840264718631e+01
1.965181168583e+01
1.916345895271e+01
2.031037208025e+01
1.982006716608e+01
2.089488903864e+01
2.121980355959e+01
2.174222387655e+01
2.139583525052e+01
2.218962435332e+01
2.179053490345e+01
2.254112203804e+01
2.278196358903e+01
2.309328948570e+01
2.278795995971e+01
2.331454914705e+01
2.292280537218e+01
2.342936056372e+01
2.291705308068e+01
2.341911929716e+01
2.375174681458e+01
2.373609698836e+01
2.327269893893e+01
2.359516184296e+01
2.390968492158e+01
2.377240028704e+01
2.396898697986e+01
2.383568333357e+01
2.351867868191e+01
2.359738640871e+01
2.381090836980e+01
2.358906714177e+01
2.324916827138e+01
2.326864764835e+01
2.351762908958e+01
2.322467313058e+01
2.284791590702e+01
2.284597064178e+01
2.313723412812e+01
2.279847331369e+01
2.237458605495e+01
2.237862195974e+01
2.272109384475e+01
2.234991711126e+01
2.262145552128e+01
2.187155292523e+01
2.190798927371e+01
2.127132536594e+01
2.138832301692e+01
2.320129738590e+01
2.057605281148e+01
2.031556857010e+01
2.079174188855e+01
2.147537785574e+01
1.978499311582e+01
2.011205131295e+01
1.888286035229e+01
2.217119897053e+01
1.940170798262e+01
1.934236434371e+01
1.785223733355e+01
1.709258927194e+01
1.565335722723e+01
9.185150130604e+00
1.177522954125e+01
9.800094407362e+00
1.234427356469e+01
1.076114948446e+01
1.663575436882e+01
1.587195532482e+01
1.374824110550e+01
1.773329697828e+01
2.079711668215e+01
2.400490200734e+01
2.037601082428e+01
1.972073298942e+01
2.061249812967e+01
2.288307302919e+01
2.273178067962e+01
2.290215756415e+01
2.271414315867e+01
2.280767696250e+01
2.259581839883e+01
2.252676940875e+01
2.238882872746e+01
2.234376838007e+01
2.262417972688e+01
2.285780851659e+01
2.218869435016e+01
2.216692289988e+01
2.199611840172e+01
2.199759067070e+01
2.211596396436e+01
2.197530264293e+01
2.203876212099e+01
2.398261893835e+01
2.394463267882e+01
2.386266407742e+01
2.376891481905e+01
2.364086776914e+01
2.350667637314e+01
2.334109255015e+01
2.346239239690e+01
1.703119287673e+01
2.298173607867e+01
2.244483806390e+01
2.194494282751e+01
2.109036673325e+01
2.029464871936e+01
1.896516961197e+01
1.772723156266e+01
1.922381360130e+01
1.609944091818e+01
1.782253819983e+01
1.400926343884e+01
1.602792520749e+01
2.192771257835e+01
2.361784035046e+01
2.332293879857e+01
2.341554081461e+01
1.444393919800e+01
2.183782931544e+01
2.261316254215e+01
2.286262383145e+01
2.313143779235e+01
1.396078121058e+01
1.570952385450e+01
1.714033564267e+01
1.300494986804e+01
1.170515788656e+01
2.256004660825e+01
1.520896594699e+01
2.217923830949e+01
1.129995750215e+01
2.184174575166e+01
2.169166796709e+01
2.241783969762e+01
2.310264387148e+01
2.316867826088e+01
1.907977907469e+01
1.755612647082e+01
1.388434015401e+01
1.570658879298e+01
1.872686946591e+01
1.707439052389e+01
1.338901916861e+01
1.508799137877e+01
1.813564049163e+01
1.645258190227e+01
1.257806366388e+01
1.441307930293e+01
2.164624922059e+01
8.027682714288e+00
1.394112930985e+01
2.230517257480e+01
2.297501362615e+01
1.370968822802e+01
1.264279364326e+01
1.031471062921e+01
1.153101350298e+01
1.355005753635e+01
1.262690575846e+01
1.035567864913e+01
1.164993826054e+01
9.068594421448e+00
1.059707555231e+01
1.278092937126e+01
1.190607537958e+01
9.440650930291e+00
1.093967822934e+01
8.103043008811e+00
9.822529854701e+00
1.220579469452e+01
1.190467571661e+01
2.324623613124e+01
2.288924452089e+01
2.010157157343e+01
2.081266580014e+01
2.122384415338e+01
2.130149838095e+01
1.125213282917e+01
1.329730259815e+01
1.305905444364e+01
1.471320836900e+01
1.472399268321e+01
2.172175062688e+01
2.182606104839e+01
2.108637556777e+01
1.978859162963e+01
1.990015807068e+01
1.810470762966e+01
1.811678700304e+01
1.793366734051e+01
2.309285572941e+01
1.378321141617e+01
1.616494260557e+01
1.289534395167e+01
2.156593419103e+01
2.353796540782e+01
2.141913952202e+01
2.201232300649e+01
2.154362881518e+01
2.203225514912e+01
2.162109099915e+01
2.201015185088e+01
2.237017884920e+01
2.285262776475e+01
2.225948414936e+01
8.447853581348e+00
2.366542572592e+01
1.895663923437e+01
9.926747700083e+00
9.456942189932e+00
1.346043236010e+01
1.622919366422e+01
2.220310263552e+01
2.166818117481e+01
2.122202686071e+01
1.594802690463e+01
1.607558976746e+01
2.272488609395e+01
7.662709125602e+00
7.265011712708e+00
5.431338252437e+00
8.478894195927e+00
6.621601573616e+00
1.439119408048e+01
1.817388105265e+01
1.593962755928e+01
3.954311405273e+00
-5.862111819705e-01
1.242818347432e+01
1.418394818556e+01
2.159028235007e+01
2.162545621102e+01
2.246587097424e+01
1.193798527928e+01
1.485963072887e+01
2.332118125093e+01
2.355849751750e+01
2.091334746036e+01
9.755315689416e+00
7.203285147710e+00
2.016069910329e+01
1.583289723668e+01
1.476874471856e+01
2.207160086800e+01
1.513632051665e+01
2.256519660765e+01
2.273528015932e+01
2.235281921912e+01
5.524210643738e+00
2.194755818460e+01
2.162047226182e+01
2.134601429816e+01
2.085890409051e+01
1.890990095276e+01
1.686374248662e+01
1.312203143704e+01
1.421601934532e+01
1.144888039756e+01
1.943127606008e+01
1.493674401468e+01
1.263105950254e+01
1.383953192820e+01
1.788804272159e+01
1.592785358550e+01
2.164795377625e+01
2.395243697758e+01
2.157862860296e+01
2.215145599555e+01
2.308388240763e+01
1.447787094231e+01
1.528212253921e+01
5.971676116725e+00
3.892455427045e+00
1.027783476956e+01
7.686780020934e+00
2.250988586673e+01
2.206014250244e+01
1.527550068982e+01
1.610394911306e+01
1.566573162505e+01
2.234108680573e+01
2.253025974349e+01
2.389039477869e+01
4.106726621283e+00
2.285886529987e+01
3.375444006567e+00
1.880843821603e+01
2.143638051794e+01
2.135662148471e+01
2.248655560378e+01
5.490911966384e+00
2.317774171621e+01
2.347125414552e+01
1.135563146683e+01
1.260805575770e+01
1.482655481005e+01
1.333774031484e+01
2.060273063073e+01
1.956320211215e+01
2.168845859009e+01
2.212386318344e+01
2.112978913048e+01
2.054598347277e+01
2.230568359282e+01
2.255497670758e+01
1.707769321371e+01
1.368859733674e+01
1.579802396542e+01
9.922164629088e+00
2.168995879340e+01
2.182112841532e+01
-6.409586093817e+00
-1.093613284735e+00
1.558883785413e+01
9.773242414916e+00
1.093712832894e+01
8.192401979168e+00
2.093566397819e+01
-1.475508298977e+01
2.120613524518e+01
1.745101626718e+01
1.613390882180e+01
2.336305450188e+01
2.120928789478e+01
2.273431848201e+01
1.490230959770e+01
1.626908428489e+01
2.709258776995e+00
-4.276558047626e-01
4.950448606371e+00
7.703459488339e+00
-1.843108291751e+00
1.466220260484e+01
1.900792634198e+01
1.959777114775e+01
1.370982131819e+01
1.685542897176e+01
2.185867312329e+01
2.189418607263e+01
1.982278344521e+01
1.935955712599e+01
2.088496109663e+01
2.334245909132e+01
2.351846849100e+01
2.369918588455e+01
1.584954804095e+01
1.661335356288e+01
2.147740888391e+01
2.116564009699e+01
2.090720869975e+01
1.643236811969e+01
2.112633121267e+01
2.126233482731e+01
-1.285586913426e+00
4.160040266307e+00
3.246003327988e+00
-3.033723538750e-01
1.687063651730e+01
1.654868331040e+01
1.732820334497e+01
1.564013976149e+01
2.287829376016e+01
2.191023253035e+01
2.222666277359e+01
2.159085938115e+01
2.260709319920e+01
2.225455424659e+01
2.208516370480e+01
-1.382042824312e+01
1.588600473786e+01
1.922202236732e-01
-2.134633432024e+01
-3.291398322748e+00
1.270961712672e+00
-8.907811936993e+00
1.269597174733e+01
-2.379469563534e+00
2.335090319317e+00
-1.113258481045e+01
1.698472003664e+01
-8.603933746583e+00
-2.262097203011e+00
2.146527309874e+01
2.159842112372e+01
2.126431716935e+01
2.138816202298e+01
2.169539730739e+01
2.149625537640e+01
-4.526791197741e+00
2.114704319515e+01
2.128907282364e+01
2.100922170667e+01
1.114183168860e+01
1.502265624906e+01
1.189467158047e+01
7.892977601528e+00
2.098956466053e+01
2.033323144907e+01
2.150971803324e+01
2.165155722210e+01
-2.797148097003e+00
-3.099845959264e+00
3.417580755838e+00
2.766250658455e+00
7.088717007867e+00
6.574520798900e+00
9.715488697201e+00
2.190289381709e+01
5.179121252388e+00
8.754833736911e+00
2.210791076020e+01
2.237555529129e+01
1.360890891408e+01
1.106891090226e+01
2.149625310609e+01
2.089729396463e+01
1.775856336596e+01
-2.844790710811e+01
-1.692073394282e+01
2.112773445091e+01
1.550958355931e+01
1.550407777382e+01
1.292205119533e+01
2.308310903469e+01
-5.092185500610e-02
6.114208771930e+00
9.950121867262e+00
2.438720830175e-01
2.155689645319e+01
2.199585471529e+01
1.906210188877e+01
1.168457336918e+01
1.755631420447e+01
1.345377310640e+01
8.709182376770e+00
9.185985395555e+00
2.276009162857e+01
1.340463476894e+01
9.837680032907e+00
1.685175328339e+01
1.528769172305e+01
1.626328251030e+01
1.731410747199e+01
1.711877998193e+01
1.606216538676e+01
1.697616615088e+01
1.786595843436e+01
1.779733954855e+01
1.895942492530e+01
1.876498748428e+01
1.780097092979e+01
1.881572269979e+01
1.966283506410e+01
1.792201500785e+01
2.183265207448e+01
2.218338766396e+01
-6.396784337581e+00
-9.122307338577e+00
1.847948240832e+01
1.998808523094e+01
1.907840492820e+01
1.986820451945e+01
2.142899495270e+01
1.180056947287e+01
1.378550868373e+01
2.163515470873e+01
1.498183655054e+01
1.476446199422e+01
1.338744811709e+01
1.852042528986e+01
7.104168984358e+00
2.162379012998e+01
2.383652687063e+01
2.382043642398e+01
2.386435395999e+01
1.689135550337e+01
2.144562397136e+01
2.186472873884e+01
2.177466287122e+01
2.227683269478e+01
2.130137939666e+01
2.077027627129e+01
2.107907226048e+01
1.955091734432e+01
2.070872176609e+01
2.198085966355e+01
2.162425151370e+01
2.003273454201e+01
2.107961839761e+01
2.235121058336e+01
2.030319935143e+01
1.985458981187e+01
2.116583051145e+01
2.302148534465e+01
2.322798944514e+01
2.325244415240e+01
2.153897325110e+01
2.191514033575e+01
2.216519059756e+01
2.111037925061e+01
2.244579240438e+01
2.110635464477e+01
2.374433170837e+01
2.192022954981e+01
-1.007676701636e+01
-9.249466475039e-01
1.271363482621e+00
5.571859521161e+00
-1.548038748372e+00
2.183050805975e+01
2.180331693299e+01
2.164662084170e+01
2.176687676824e+01
2.164403883155e+01
2.145408784777e+01
2.172175223842e+01
2.164935717496e+01
-1.293040652036e+01
-3.000462578612e+01
-1.392510579121e+01
-1.410066811241e+01
-1.619597525045e+00
-1.134732680520e+00
6.910132973002e+00
5.761493532931e+00
-1.446391810904e+01
-3.362871434895e+01
-1.399697454749e+01
-3.572923977682e+01
-1.421889201162e+01
8.935752927342e-03
1.102287244794e+01
2.083870906834e+01
2.082336941423e+01
2.059726802496e+01
1.981710745423e+01
2.030629658422e+01
2.108627108617e+01
1.927139973786e+01
1.887360149181e+01
-3.889385508162e+01
-1.105955887463e+01
-1.289372026015e+01
1.810756060677e+00
1.474534627048e+00
-1.108839990595e+01
-1.134716039122e+01
-3.958717783092e+01
-1.195267066291e+01
1.521236308107e+00
-4.091115362059e+01
1.281237964329e+01
1.376682370286e+01
2.104209195757e+01
-1.234107474956e+01
-3.875529707174e+01
1.735565351806e+01
1.760719860105e+01
1.757768602124e+01
2.118735328923e+01
2.107616008028e+01
1.737566668732e+01
1.831611167730e+01
1.799259401338e+01
1.544099895617e+01
1.082742933192e+01
1.833292439901e+01
2.173459139254e+01
2.226393006193e+01
2.150110878329e+01
2.193151268286e+01
2.181346595386e+01
2.174765883728e+01
1.130398396482e+01
7.619839470004e+00
6.473602335688e+00
1.303202846446e+01
1.848564674139e+01
2.139907788737e+01
1.241103668777e+01
2.157084568457e+01
1.595881398089e+01
2.302105629204e+01
2.096427398459e+01
1.938108543003e+01
1.753354872241e+01
2.205652029618e+01
2.230117074568e+01
2.239807150688e+01
1.401237068696e+01
-3.565311377402e+01
2.236988444870e+01
2.257484909257e+01
8.860070535421e+00
2.317659664218e+01
1.041010575724e+01
1.360457551130e+01
1.652945711870e+01
5.125657924133e+00
7.036519762865e+00
3.175695267956e+00
2.177892479606e+01
1.420002239338e+01
1.744027527833e+01
2.394054860676e+01
2.036721629492e+01
2.532554149123e+00
1.596879506380e+01
2.346931293387e+01
2.274395995264e+01
2.372230595297e+01
1.812355517129e+01
2.191173435312e+01
2.393666168535e+01
1.515527444583e+01
2.107334411957e+01
2.332494229665e+01
1.442635604150e+01
2.339994688331e+01
2.296903998679e+01
1.681326897406e+01
2.064502163048e+01
1.752666286625e+01
2.238844653862e+01
2.172869265624e+01
2.213698353922e+01
1.140397463649e+01
1.979434356101e+01
9.008299269530e+00
2.196267830360e+01
1.641296247511e+01
1.951374161784e+01
2.196795658925e+01
1.584401392387e+01
2.223782940888e+01
1.369358243695e+01
3.998879916498e+00
2.124012950668e+01
2.365934644647e+01
2.239135895073e+01
1.772882680506e+01
2.176522356514e+01
2.281977891956e+01
-6.477433112368e+00
6.702856368996e+00
2.157799523020e+01
2.384530947473e+01
2.279259444876e+01
2.148086002822e+01
2.171786126396e+01
1.124440685505e+01
2.142001263765e+01
2.300818578767e+01
2.049611877931e+01
-1.434785370225e+01
2.110386532581e+01
2.261853067865e+01
2.245753858577e+01
2.372157015507e+01
1.020951964760e+01
2.227021481221e+01
2.002867978656e+01
1.828780059718e+01
2.246963115168e+01
1.316103201992e+01
2.208493751338e+01
2.343812899144e+01
1.298789550019e+00
1.044444388912e+01
2.200793346711e+01
2.190353131516e+01
2.358617549648e+01
2.211068421332e+01
2.193474569884e+01
2.291377892359e+01
2.186252066481e+01
1.015784608008e+01
1.466351838351e+01
2.178443921933e+01
2.034237782203e+01
1.962209240560e+00
2.283164824726e+01
2.130861801478e+01
2.111851601604e+01
2.341966348643e+01
1.593040007502e+01
9.540238458387e+00
2.331487827132e+01
2.061803708838e+01
2.306500763095e+01
2.370544834317e+01
2.311199848388e+01
1.082207297527e+01
1.763931138568e+01
1.505995868591e+01
2.314157053656e+01
2.019352960745e+01
8.286967235660e+00
1.687128738811e+01
8.595491824994e+00
2.263099397667e+01
2.290542126920e+01
7.838284418348e+00
2.278528376838e+01
1.628024084222e+01
2.220012399614e+01
2.361983782229e+01
2.232347142543e+01
2.167878441165e+01
1.660825070286e+01
2.180080806614e+01
1.750123109638e+01
2.079874193033e+01
-3.973162820559e+00
9.605595506234e+00
-2.751760794494e+01
9.506692899257e+00
1.999633952168e+01
1.828822801098e+01
-3.594866398504e+00
1.891125627284e+01
1.983189013410e+01
2.167021015598e+01
1.179792576757e+01
2.255627760146e+01
2.317088519989e+01
1.564830865832e+01
-1.516386298568e+01
-1.403267447304e+01
2.166730457901e+01
8.492653321551e+00
6.667876937844e+00
3.118039810968e+00
1.864986804287e+01
-1.597264071887e+00
5.858330508625e+00
2.193222969350e+01
-3.685999931021e+00
2.263522474362e+01
1.916323449939e+00
1.702226221214e+01
2.200710419343e+01
2.092571106739e+01
2.235382170558e+01
-3.765447337907e+00
3.733167211544e+00
2.137830718661e+01
1.329242850830e+01
2.082913511541e+01
-4.559472928573e+00
1.675184082962e+01
8.353896830937e+00
1.677598806327e+01
1.901432780014e+01
4.613836675913e+00
5.996014970144e+00
2.095401905046e+01
1.876296071746e+01
-9.123197670906e+00
1.164517723856e+01
2.043141146906e+01
-1.807295061197e+01
2.135187518577e+01
1.968130234040e+01
2.103491158584e+01
1.613298266512e+00
-1.518206583222e+01
2.143089479912e+01
2.071478139839e+01
1.131368971484e+01
1.797033915562e+01
-1.851314214097e+01
-1.683645093516e+01
-1.408889804665e+01
2.079780446435e+01
1.684945139077e+01
2.086955378372e+01
-3.823337738402e+00
1.757652473933e+01
2.191864397815e+01
-2.998187507160e+00
1.691023202039e+01
2.155414121418e+01
1.778596617600e+01
2.147250274112e+01
-2.049026074513e+01
2.189849472101e+01
2.211415380535e+01
-1.537363505759e+01
1.817207353900e+01
1.952412393859e+01
7.657865176189e+00
1.759703278460e+01
-1.409506868978e+01
-1.619087800189e+01
2.073001342920e+01
6.877785778547e+00
1.900914991836e+00
2.037867434682e+01
2.154415700972e+01
1.491672729606e+01
4.700142750202e+00
-2.940957827987e+01
9.512505678613e+00
2.196095330843e+01
1.744402230920e+01
7.084718711791e+00
-2.927836221063e+00
2.019204996920e+01
2.115572661214e+01
2.144300286602e+01
2.222010587360e+01
-2.347554291769e+01
2.167237666866e+01
-1.598352180238e+01
2.112979109530e+01
2.132823281971e+01
-1.533864641324e+01
-3.099501734764e+01

SCALARS node_materi_stress_average_a_sig float
LOOKUP_TABLE default
-4.776055787981e+00
-1.885479116824e+01
-2.357010696424e+02
-1.311408892453e+02
-1.198773810170e+01
-2.349685931292e+01
-3.429494964760e+01
-4.672836419822e+01
-5.856644421039e+01
-7.036486710854e+01
-8.213691529811e+01
-9.390315074404e+01
-1.057371707461e+02
-1.176971245162e+02
-1.300005050909e+02
-1.421388341718e+02
-1.532991275943e+02
-1.655127601646e+02
-1.781776140938e+02
-1.905622256053e+02
-2.031069154434e+02
-2.158420918024e+02
-2.280486495491e+02
-1.317968696184e+02
-1.311561777343e+02
-1.314394784071e+02
-1.315796341013e+02
-1.315613067265e+02
-1.323123869334e+02
-1.332149833092e+02
-1.336714721139e+02
-1.351933072037e+02
-1.362680326343e+02
-1.375436164837e+02
-1.397205608961e+02
-1.425609484616e+02
-1.447979720607e+02
-1.478492578858e+02
-1.507585963007e+02
-1.547176132236e+02
-1.596936255241e+02
-1.643937933767e+02
-1.692655995774e+02
-1.739333280957e+02
-1.787544548727e+02
-1.834836591502e+02
-1.881318933157e+02
-1.927993041100e+02
-1.973350350562e+02
-2.014721245287e+02
-2.053581130794e+02
-2.088126007475e+02
-2.126043959670e+02
-2.154133356923e+02
-2.176346019874e+02
-2.203292040045e+02
-2.227429925962e+02
-2.248824005514e+02
-2.267678517906e+02
-2.283765747925e+02
-2.296386991423e+02
-2.306600735768e+02
-2.314502037141e+02
-2.325957406241e+02
-2.339163768138e+02
-2.346547467068e+02
-2.335721085538e+02
-2.353790554311e+02
-2.351612951710e+02
-2.357807812152e+02
-2.363260013862e+02
-2.363419312865e+02
-3.100296428434e+01
-4.295204097274e+01
-5.485442165074e+01
-6.643432231674e+01
-7.821217258586e+01
-9.008907898826e+01
-1.016235009855e+02
-1.129378967198e+02
-1.247594483607e+02
-1.039352175971e+01
-2.551866446462e+01
-1.563109035195e+01
-1.889293603633e+01
-2.023331387538e+01
-2.016966589277e+01
-2.059977407723e+01
-2.093383583718e+01
-2.127589767335e+01
-2.217041578622e+01
-2.401546593196e+01
-1.097018041327e+01
-1.726115687307e+01
-1.792407155324e+01
-1.790973943021e+01
-1.778736022880e+01
-1.949890292922e+01
-1.802860236612e+01
-1.798547236825e+01
-1.811047972890e+01
-1.846106347154e+01
-1.855411320885e+01
-1.880834125196e+01
-1.926347956168e+01
-2.022041725373e+01
-2.181851058210e+01
-1.092149850116e+01
-1.228666617186e+01
-1.228235296246e+01
-1.178140689520e+01
-1.139950832263e+01
-1.085997450910e+01
-1.007173352919e+01
-9.268913986417e+00
-8.529594668626e+00
-7.881414914509e+00
-7.281752349917e+00
-7.106957840234e+00
-6.368161783407e+00
-5.486335880944e+00
-5.139377554313e+00
-4.960268236444e+00
-4.724925306925e+00
-4.348430332125e+00
-3.977181851853e+00
-1.389469282861e+01
-1.387642577555e+01
-1.281525552475e+01
-1.206995915799e+01
-1.179734725603e+01
-1.176895367644e+01
-1.182498736401e+01
-1.192835072584e+01
-1.211485333349e+01
-1.218558300941e+01
-1.226964887467e+01
-1.233674769363e+01
-1.235157963828e+01
-1.227502973387e+01
-1.204413938092e+01
-1.096940299944e+01
-1.244563741315e+01
-1.765011233168e+01
-1.965381917313e+01
-2.055554852523e+01
-2.092576639368e+01
-2.101247042207e+01
-2.107887721216e+01
-2.143985153429e+01
-2.412464257362e+01
-2.195669608508e+01
-2.087158348388e+01
-2.156033907225e+02
-1.280729628421e+01
-1.525389928179e+01
-2.242675256710e+02
-2.417353497611e+01
-1.242821067547e+02
-2.040087249875e+02
-2.557748050658e+01
-1.895538091903e+02
-2.786955830629e+01
-2.289445469661e+02
-1.054172834762e+01
-1.714563601583e+02
-3.602820356944e+01
-7.680473499067e+01
-1.574351471431e+02
-1.575228700639e+02
-1.424104693967e+02
-1.279822299999e+02
-1.294830127722e+02
-1.351973891379e+02
-3.470133781753e+01
-3.054002456674e+01
-3.050927224046e+01
-7.243356623032e+01
-2.296486507107e+02
-1.496027536911e+01
-1.019449883356e+01
-1.963709293674e+02
-2.860023404825e+01
-4.046096086710e+01
-1.472437711756e+02
-1.980226467796e+02
-1.806720497285e+02
-2.091061317329e+02
-2.201465212616e+02
-1.473633200305e+01
-3.142487287480e+01
-2.245702021006e+02
-9.555016325732e+01
-1.190331839924e+01
-9.986139439034e+01
-1.289044033085e+02
-2.584510868462e+01
-2.308825553412e+01
-2.674118116408e+01
-3.113242827107e+01
-1.623960833437e+01
-4.991289064681e+01
-2.322232000938e+02
-9.434199608406e+00
-1.181326309933e+02
-4.024954562740e+01
-4.882389046483e+01
-5.221936869434e+01
-6.224524997784e+01
-6.635492536610e+01
-7.513134267234e+01
-7.151862296128e+01
-8.408153109720e+01
-8.067759882476e+01
-7.946809497380e+01
-9.301095543376e+01
-8.977813213073e+01
-1.019300353096e+02
-9.881213135356e+01
-8.687840451697e+01
-9.593380835005e+01
-8.419611215404e+01
-9.324736526742e+01
-1.048612498362e+02
-1.021459259316e+02
-9.068729289455e+01
-9.948397885479e+01
-8.824253944054e+01
-9.691101256596e+01
-8.586398705354e+01
-9.436614010217e+01
-1.054166675225e+02
-1.026767192187e+02
-9.181157544533e+01
-9.991322876428e+01
-8.923607288981e+01
-9.709353775281e+01
-1.078572743149e+02
-1.048010540638e+02
-9.415966798679e+01
-1.016409657188e+02
-9.111106428478e+01
-9.838538181541e+01
-8.795266298899e+01
-9.496719336293e+01
-1.055282849474e+02
-1.018863316313e+02
-9.139946808631e+01
-9.805223187275e+01
-1.087184871842e+02
-1.046222584185e+02
-1.154667950643e+02
-1.111283608106e+02
-1.003998598469e+02
-1.066579774185e+02
-1.175613512839e+02
-1.128404854670e+02
-1.020378888249e+02
-1.080127097432e+02
-1.189962043871e+02
-1.139546629368e+02
-1.030392191367e+02
-1.087942765308e+02
-1.199330156694e+02
-1.145415998732e+02
-1.034640239948e+02
-1.090229537763e+02
-1.203281199997e+02
-1.146007625100e+02
-1.261048658195e+02
-1.032788589755e+02
-1.087201461919e+02
-9.734979763616e+01
-1.027193293741e+02
-1.156686497487e+02
-9.130767705936e+01
-8.619571364580e+01
-9.661449057739e+01
-1.081870448939e+02
-8.514539352151e+01
-9.040696858709e+01
-7.889159130014e+01
-8.063687616601e+01
-1.137086604720e+02
-8.411096171203e+01
-7.253881801281e+01
-6.742348296459e+01
-6.104025047364e+01
-7.125249186674e+01
-8.384122478928e+01
-7.543663262242e+01
-8.832067944452e+01
-8.056628527985e+01
-6.610087176026e+01
-1.053638191184e+02
-9.631962552425e+01
-7.935976111513e+01
-8.119539025834e+01
-1.196656221539e+02
-9.571348811590e+01
-8.938593727669e+01
-1.010467447901e+02
-1.318654370116e+02
-1.377811418278e+02
-1.435909562397e+02
-1.496165570797e+02
-1.554903529433e+02
-1.616071059490e+02
-1.555866051974e+02
-1.676604598286e+02
-1.615059228713e+02
-1.675510736349e+02
-1.612512154297e+02
-1.736511163381e+02
-1.673718681908e+02
-1.795831359912e+02
-1.731873384637e+02
-1.610125037341e+02
-1.667120965047e+02
-1.546279163753e+02
-1.265767607886e+02
-1.308843494972e+02
-1.379438623908e+02
-1.423643752197e+02
-1.495651583417e+02
-1.540838554692e+02
-1.614048173178e+02
-1.566669228769e+02
-1.107962968942e+02
-8.765794936515e+01
-8.118433906544e+01
-7.755157810757e+01
-7.128487026156e+01
-6.774112991761e+01
-6.171588139666e+01
-5.821471101134e+01
-6.396307787090e+01
-5.445953814612e+01
-5.992527414354e+01
-5.040581458905e+01
-5.557320306295e+01
-1.137754214140e+02
-1.466485868314e+02
-1.584941855829e+02
-1.507701228184e+02
-5.601070064460e+01
-1.789596538741e+02
-1.734038664409e+02
-1.668880786596e+02
-1.686434528381e+02
-5.465731172111e+01
-5.250734143155e+01
-5.560365316308e+01
-9.298442301488e+01
-8.554715207633e+01
-1.791858159021e+02
-5.969416637188e+01
-1.798691247979e+02
-4.527946483458e+01
-1.723821324714e+02
-1.846751654183e+02
-1.495065644065e+02
-1.627896761172e+02
-1.547641889822e+02
-6.544111978686e+01
-6.082823771803e+01
-5.110728656131e+01
-5.645955646522e+01
-6.623350144952e+01
-6.112521207726e+01
-5.109046924483e+01
-5.577569415282e+01
-6.615882708904e+01
-6.061460785310e+01
-5.010687769202e+01
-5.478215454221e+01
-1.912684569761e+02
-4.120642547607e+01
-7.494400635331e+01
-1.857064770117e+02
-1.733529890174e+02
-9.777848663172e+01
-9.066149730285e+01
-7.829772623814e+01
-8.377763063060e+01
-9.590073348234e+01
-8.928157856466e+01
-7.709641889666e+01
-8.283342294546e+01
-7.062328605246e+01
-7.656367329349e+01
-8.859009552764e+01
-8.252833545107e+01
-7.048035748914e+01
-7.658767889769e+01
-6.452126953163e+01
-7.073093476312e+01
-8.271601617128e+01
-4.858092245570e+01
-1.636904886600e+02
-1.758695781075e+02
-9.497234476344e+01
-1.062308925615e+02
-1.127462838807e+02
-1.182537133366e+02
-7.691106386436e+01
-8.882241004477e+01
-4.674478694913e+01
-4.942571932203e+01
-1.051104225099e+02
-1.780343543702e+02
-1.658071733375e+02
-7.882498221659e+01
-7.084209702425e+01
-6.867558007977e+01
-6.062788026108e+01
-6.260881369950e+01
-5.864443434093e+01
-1.547616852294e+02
-9.441702726356e+01
-6.240214971257e+01
-5.114788466885e+01
-1.903520176314e+02
-1.517701481744e+02
-1.166760348296e+02
-1.251138703729e+02
-1.281735679244e+02
-1.367088673064e+02
-1.398749068052e+02
-1.484673940071e+02
-1.451579367106e+02
-1.669462913132e+02
-1.570077907231e+02
-6.483258740104e+01
-1.389798700388e+02
-7.129129856070e+01
-4.334305798410e+01
-4.382426073086e+01
-5.304849891220e+01
-6.473202864101e+01
-1.916194373830e+02
-1.516756179360e+02
-1.428840491959e+02
-5.249950389581e+01
-5.420505485120e+01
-1.750240307263e+02
-6.775821977098e+01
-6.471637145766e+01
-5.817737669655e+01
-4.054330717084e+01
-3.979645322863e+01
-1.012314602707e+02
-5.839269827057e+01
-5.185745070446e+01
-3.632806932298e+01
-3.219561267062e+01
-8.301150533516e+01
-9.478844192118e+01
-1.246182797272e+02
-1.300957290945e+02
-1.849160372109e+02
-4.879592335076e+01
-1.006422342600e+02
-1.585947507253e+02
-1.467519249050e+02
-1.116743263778e+02
-4.096128110415e+01
-3.834186216929e+01
-7.672648925883e+01
-5.970124355833e+01
-5.810152751233e+01
-1.973836420678e+02
-1.077163096875e+02
-1.535585509924e+02
-1.416788131612e+02
-1.656706998702e+02
-3.811970524185e+01
-1.983343058669e+02
-1.836695399224e+02
-1.542150689519e+02
-1.458377449275e+02
-6.093058200771e+01
-5.416534344511e+01
-4.526408872260e+01
-4.719324507432e+01
-6.817794983087e+01
-6.347212833046e+01
-7.246089095699e+01
-6.299899923988e+01
-6.091127424987e+01
-6.444529895298e+01
-5.574212266953e+01
-7.455522416300e+01
-1.236941543725e+02
-1.191392459389e+02
-1.490118865864e+02
-1.374900364251e+02
-1.003487301778e+02
-1.061193432966e+02
-5.828421579161e+01
-5.235139637720e+01
-4.466278210186e+01
-3.991333582470e+01
-1.318799201728e+02
-1.920960436089e+02
-1.095215735419e+02
-1.167735108812e+02
-1.125781750066e+02
-1.903851521999e+02
-8.375887965329e+01
-1.333879610397e+02
-3.686121723037e+01
-1.188654223947e+02
-3.345756496876e+01
-1.165275608974e+02
-1.960878584889e+02
-2.027066722321e+02
-1.791715094052e+02
-4.585958369062e+01
-1.267740064236e+02
-1.233765348846e+02
-5.131655600525e+01
-4.950749475406e+01
-5.899593972719e+01
-4.808412371664e+01
-8.197281671074e+01
-7.635614611643e+01
-1.644091011946e+02
-1.688415721825e+02
-1.573310491149e+02
-1.490990101151e+02
-1.873796932389e+02
-1.828018546544e+02
-6.944590039367e+01
-4.565847057940e+01
-1.129129480300e+02
-5.327650490619e+01
-2.045029795436e+02
-1.984180749525e+02
-2.791603251593e+01
-3.188817121053e+01
-1.066790114904e+02
-3.857200827989e+01
-3.985245779432e+01
-3.696618532634e+01
-2.218067541857e+02
-2.830081855809e+01
-2.085988037523e+02
-6.630122295686e+01
-1.125706354928e+02
-1.346840634479e+02
-7.620056886518e+01
-1.780269109537e+02
-1.002668818873e+02
-1.129495537869e+02
-5.206588998097e+01
-4.527689357082e+01
-5.842049801427e+01
-4.007099171160e+01
-3.057609928166e+01
-1.002092200097e+02
-8.297381883223e+01
-8.934582202751e+01
-5.329242402186e+01
-6.429563557454e+01
-1.309424474973e+02
-1.254118199950e+02
-1.253837672170e+02
-1.282837408308e+02
-1.195527180421e+02
-1.534119428493e+02
-1.416488602108e+02
-1.352003195492e+02
-1.116329919068e+02
-1.186968211814e+02
-8.730947359641e+01
-8.189432590700e+01
-8.708944197055e+01
-1.193042422821e+02
-2.149931419262e+02
-2.092731788707e+02
-2.896173048988e+01
-3.511963516653e+01
-3.305438308232e+01
-3.066805596165e+01
-1.238738238963e+02
-1.204589566759e+02
-1.290210087822e+02
-6.210665055535e+01
-1.499349541954e+02
-2.023643470349e+02
-1.952034385491e+02
-2.109587942702e+02
-1.707826284750e+02
-1.828474780363e+02
-1.777306899476e+02
-2.368944775282e+01
-1.087095985597e+02
-4.537552063929e+01
-2.074931570733e+01
-3.958907146614e+01
-4.641172752357e+01
-3.316575911463e+01
-5.063423458919e+01
-4.356188839884e+01
-5.242824540461e+01
-2.263656064052e+01
-1.239063524756e+02
-2.283284796769e+01
-2.731073588104e+01
-2.109096637840e+02
-2.045645638263e+02
-2.166805964337e+02
-2.102347187456e+02
-1.981910097061e+02
-2.043684132253e+02
-3.862496813974e+01
-2.181316703969e+02
-2.106839647410e+02
-2.243553518518e+02
-3.837410894742e+01
-4.884509185706e+01
-4.116776862696e+01
-3.187343465573e+01
-1.621644807218e+02
-1.512771287025e+02
-1.896686750573e+02
-1.772422410248e+02
-3.990017425258e+01
-3.913388694926e+01
-5.010719959151e+01
-4.850037052928e+01
-5.945044392667e+01
-5.772466668927e+01
-6.886326969750e+01
-1.809240992133e+02
-3.050030201121e+01
-4.139875713448e+01
-1.951964275893e+02
-1.895318692158e+02
-4.673019840092e+01
-3.653509998171e+01
-2.123915214174e+02
-7.047898287308e+01
-1.317500608445e+02
-1.378137334039e+01
-2.153399694474e+01
-7.325889214299e+01
-5.733566668782e+01
-5.053407256085e+01
-4.300080848678e+01
-1.655313813761e+02
-3.104528727002e+01
-3.523831288963e+01
-7.044085072916e+01
-2.770966484347e+01
-1.838481361388e+02
-7.766856092415e+01
-7.501668059273e+01
-4.323833907551e+01
-5.653958463899e+01
-7.763212549741e+01
-5.856322136589e+01
-5.574782330111e+01
-8.463102025295e+01
-4.428562258517e+01
-3.375602547853e+01
-8.167225559154e+01
-1.085106234839e+02
-1.164837498929e+02
-1.279398702095e+02
-1.247186367207e+02
-1.128506906161e+02
-1.212862068729e+02
-1.328813214831e+02
-1.302470634480e+02
-1.437522061913e+02
-1.389315640066e+02
-1.265551493383e+02
-1.349444726604e+02
-1.465054658672e+02
-1.229371538253e+02
-1.997394280846e+02
-8.360812402627e+01
-2.773819331507e+01
-2.474225601266e+01
-7.715229307978e+01
-1.529398664738e+02
-1.452629908326e+02
-6.488028633767e+01
-1.759495968690e+02
-6.544450402002e+01
-4.902538549513e+01
-1.851715637363e+02
-1.045019451583e+02
-1.004908803387e+02
-9.207230777936e+01
-1.400251792402e+02
-6.548722542335e+01
-2.013777624745e+02
-1.350361990221e+02
-1.275116230707e+02
-1.163558553236e+02
-1.177532537815e+02
-2.130463447591e+02
-2.039113033329e+02
-2.061542088193e+02
-1.938018227363e+02
-2.178336880085e+02
-1.626969863319e+02
-1.674769173094e+02
-7.144165194298e+01
-7.648551540636e+01
-8.684825546740e+01
-8.121164562842e+01
-7.095718846557e+01
-7.549488381688e+01
-8.568008514315e+01
-6.971645801162e+01
-1.400490720760e+02
-2.218965071958e+02
-1.492702148098e+02
-1.428983762418e+02
-1.313038584005e+02
-1.136803733966e+02
-1.198533919829e+02
-1.315868471814e+02
-1.074019200169e+02
-1.334381188781e+02
-2.233057101106e+02
-1.401087041510e+02
-1.142650062843e+02
-3.286943755563e+01
-4.599433202826e+01
-4.854994684222e+01
-6.045560960393e+01
-4.553735669797e+01
-1.364507355045e+02
-1.419250440511e+02
-1.355548853705e+02
-1.473759018229e+02
-1.406853868373e+02
-1.297645926073e+02
-1.525922509078e+02
-1.449952162032e+02
-3.085392265655e+01
-1.527102017437e+01
-2.316467469181e+01
-2.271895581440e+01
-3.095187688960e+01
-3.152269087766e+01
-4.035900598223e+01
-3.891475900121e+01
-2.336795003256e+01
-1.406267024315e+01
-2.230496823452e+01
-1.336256183045e+01
-2.167895667268e+01
-3.195884631095e+01
-4.657129818689e+01
-2.283664188604e+02
-1.115975776545e+02
-1.058039696339e+02
-9.448222948128e+01
-1.005271064155e+02
-1.162167665964e+02
-8.825806301019e+01
-8.405929156024e+01
-9.993814398046e+00
-1.964654628754e+01
-1.861383057564e+01
-2.949887159433e+01
-2.946207921148e+01
-2.000835115579e+01
-2.013189676347e+01
-1.033542368318e+01
-2.022582658963e+01
-3.012317497887e+01
-1.030545525471e+01
-8.429081157175e+01
-9.065408377503e+01
-2.250167680814e+02
-3.124821039250e+01
-1.241533174262e+01
-1.257251920988e+02
-1.294511306016e+02
-1.288507854298e+02
-2.091491794619e+02
-2.153388259695e+02
-1.254475033193e+02
-7.372007288119e+01
-1.362214419835e+02
-1.060918475984e+02
-4.374344016081e+01
-7.050963186626e+01
-1.714239181211e+02
-1.552927945734e+02
-1.969666682482e+02
-1.602311831139e+02
-1.854633037235e+02
-2.075502881280e+02
-4.680678693622e+01
-6.431548545402e+01
-5.867074967193e+01
-8.851036993020e+01
-7.768288911399e+01
-1.241355234985e+02
-4.960686228242e+01
-1.732665574377e+02
-7.023210596546e+01
-1.259056462538e+02
-1.020017229382e+02
-8.000557160090e+01
-6.560052035111e+01
-8.654502060267e+01
-1.202352091383e+02
-1.737452494474e+02
-9.450707598661e+01
-1.253980239803e+01
-1.797645029195e+02
-1.436614106209e+02
-7.135600496310e+01
-1.660123345110e+02
-4.592163667187e+01
-9.483152179592e+01
-1.204524142039e+02
-5.971184918742e+01
-3.828246904469e+01
-5.172310927298e+01
-2.041721070912e+02
-1.006321784482e+02
-7.124419548179e+01
-1.221321996607e+02
-8.352626496761e+01
-3.241071258709e+01
-1.114100219286e+02
-1.123746116254e+02
-1.807996887852e+02
-1.449026342077e+02
-7.649165209297e+01
-1.922034650478e+02
-1.126456180712e+02
-1.066184931582e+02
-1.311815051649e+02
-9.405718599669e+01
-1.026054489432e+02
-1.251213157530e+02
-1.705603216759e+02
-6.820710637727e+01
-1.081286930414e+02
-1.077071269113e+02
-1.108361084405e+02
-1.648671514468e+02
-1.860274050271e+02
-4.606756437989e+01
-6.622302563851e+01
-7.288294997258e+01
-1.601016048643e+02
-1.180778482305e+02
-7.293822277906e+01
-1.859058993972e+02
-1.139610705685e+02
-1.259111169980e+02
-5.356777816168e+01
-3.559339842021e+01
-7.373153372976e+01
-1.090041763759e+02
-1.376531473795e+02
-1.332265087478e+02
-1.918759755780e+02
-1.724844984079e+02
-1.898545122308e+01
-4.332372372997e+01
-1.978256542327e+02
-1.287097331249e+02
-1.779569973524e+02
-1.336858362604e+02
-1.772776001292e+02
-3.737886628770e+01
-2.038693911632e+02
-1.708193621022e+02
-6.777492399399e+01
-2.867314340106e+01
-2.181393064927e+02
-1.832468175928e+02
-1.220052503833e+02
-1.239087640369e+02
-2.888431136736e+01
-1.433797269282e+02
-1.108861143685e+02
-1.376332379784e+02
-1.879446383704e+02
-8.787786856151e+01
-1.371806323835e+02
-1.427204776118e+02
-2.966047183735e+01
-3.952744574243e+01
-1.427430147086e+02
-7.972069267561e+01
-1.302038640381e+02
-1.912267562588e+02
-1.482944012302e+02
-8.994122087576e+01
-1.538085826409e+02
-2.721543655706e+01
-9.662424078596e+01
-1.592909602704e+02
-1.224599012453e+02
-3.123985072989e+01
-1.301208639526e+02
-2.023458256637e+02
-9.215895766437e+01
-1.364943052959e+02
-1.090861904550e+02
-2.617667425600e+01
-1.481651919179e+02
-1.341705103123e+02
-1.381726720808e+02
-1.199200643948e+02
-1.601743602278e+02
-3.575960009222e+01
-6.880042206883e+01
-5.772140534217e+01
-9.603781503888e+01
-1.371454175771e+02
-3.929849959244e+01
-1.142256099437e+02
-4.215365764879e+01
-9.153179257326e+01
-1.585997041506e+02
-6.144471494563e+01
-9.731327402782e+01
-6.523709594760e+01
-9.239351270811e+01
-1.311328434738e+02
-9.794777531426e+01
-9.264931980811e+01
-1.175355568145e+02
-9.795282812342e+01
-1.274544987155e+02
-2.294684746672e+02
-3.781399911741e+01
-2.396115493056e+01
-1.608489304576e+01
-3.523644294582e+01
-8.127547772097e+01
-1.195448025891e+02
-3.830372652943e+01
-7.521754249595e+01
-1.511522649695e+02
-1.940820488307e+02
-7.858715325460e+01
-1.849495390722e+02
-1.464849266598e+02
-1.060873635700e+02
-2.810101109920e+01
-2.129797961193e+01
-1.712532742210e+02
-2.317794391881e+01
-3.151251202255e+01
-2.922857088297e+01
-8.060220755558e+01
-3.067072806940e+01
-2.380854111114e+01
-2.008786954104e+02
-4.059380550291e+01
-1.619944596775e+02
-2.210237482304e+01
-1.250209293929e+02
-1.880466925035e+02
-2.279840077629e+02
-1.744366691011e+02
-2.574814183471e+01
-5.585976376044e+01
-1.688251346100e+02
-8.813179038173e+01
-2.299205322789e+02
-4.057581276086e+01
-1.183004499756e+02
-4.172857305496e+01
-1.180843402922e+02
-1.315176942969e+02
-5.331637788201e+01
-5.967400999223e+01
-2.211767221378e+02
-1.426052082112e+02
-2.334286342677e+01
-7.820551673320e+01
-1.005075442676e+02
-2.217654321767e+01
-2.154488246910e+02
-1.427340346007e+02
-2.199013005779e+02
-2.912143063585e+01
-1.950768948354e+01
-2.150249505004e+02
-1.605928341237e+02
-4.714453019240e+01
-1.337259714053e+02
-1.842846336353e+01
-2.713984371021e+01
-1.958149727218e+01
-2.303668267720e+02
-1.214019241545e+02
-1.109707759832e+02
-3.744857101905e+01
-7.317230673360e+01
-1.704892064844e+02
-2.871389814479e+01
-1.211612405077e+02
-2.125790701733e+02
-1.338294333313e+02
-2.102901017096e+02
-2.082429634706e+01
-1.879563938942e+02
-1.982392248841e+02
-2.779915202749e+01
-1.377944617011e+02
-9.005667174060e+01
-3.899278516595e+01
-1.284956922979e+02
-8.125443757831e+00
-2.703453912532e+01
-2.323294328154e+02
-3.714824762575e+01
-4.661610986146e+01
-1.569974723809e+02
-1.367611246097e+02
-9.950403333645e+01
-3.735180899868e+01
-1.497948616723e+01
-6.769398047161e+01
-1.935061149248e+02
-1.297321240002e+02
-5.977452344508e+01
-2.915372021345e+01
-1.520201713856e+02
-1.200490128377e+02
-1.636262053821e+02
-1.944862059760e+02
-1.320470584670e+01
-1.472303341639e+02
-1.863292023194e+01
-2.202885077301e+02
-1.251850643269e+02
-1.471871962822e+01
-1.229884692023e+01

SCALARS node_materi_stress_size_dev_sd_sig float
LOOKUP_TABLE default
4.641700373308e+00
7.841697361755e+00
1.791981919266e+02
9.854358627411e+01
1.081399258877e+01
2.082347233783e+01
3.001003866168e+01
4.048462563480e+01
5.065974293520e+01
6.052710431421e+01
7.040457300646e+01
8.022452714776e+01
8.989250419051e+01
9.955561816260e+01
1.092898940734e+02
1.183010077395e+02
1.263118291166e+02
1.350604427034e+02
1.437261030426e+02
1.518868194954e+02
1.598963810172e+02
1.677370367792e+02
1.750312091786e+02
9.925745506690e+01
9.888555392174e+01
9.914555265891e+01
9.938020678916e+01
9.928742860707e+01
1.000368032793e+02
1.006824369456e+02
1.014988398477e+02
1.029286875668e+02
1.043099163374e+02
1.055238333012e+02
1.079758275859e+02
1.106393721391e+02
1.134223024840e+02
1.163259027724e+02
1.195512032133e+02
1.232379637816e+02
1.275868586158e+02
1.318905292779e+02
1.361105879330e+02
1.399855466507e+02
1.436078328771e+02
1.472092672472e+02
1.505271849815e+02
1.537192820868e+02
1.567122825756e+02
1.594484151082e+02
1.618633800791e+02
1.639967743540e+02
1.661481887141e+02
1.679663333150e+02
1.691962424247e+02
1.706828273925e+02
1.720552593997e+02
1.732701571646e+02
1.742914222240e+02
1.752103865711e+02
1.758834053604e+02
1.764351354646e+02
1.768644227707e+02
1.774504351178e+02
1.781723058108e+02
1.785955615063e+02
1.780338505816e+02
1.789389337451e+02
1.788278894370e+02
1.791431508030e+02
1.795001041481e+02
1.795307925816e+02
1.341955609556e+01
2.184420247492e+01
3.086009852979e+01
4.009383188124e+01
4.986122225572e+01
5.987945111289e+01
7.020331289266e+01
8.074498171494e+01
9.174770340446e+01
1.092338644152e+01
1.600448783638e+01
1.969161821064e+01
2.433726294637e+01
2.655050408670e+01
2.721725958172e+01
2.749090650336e+01
2.769016002037e+01
2.787099704817e+01
2.836707822044e+01
2.506266660365e+01
9.310699278522e+00
7.732016564884e+00
7.737606506147e+00
7.695926764747e+00
7.701877841037e+00
8.001253311788e+00
7.770691093501e+00
7.831588439736e+00
7.848459058021e+00
7.929014435341e+00
8.042441884178e+00
8.293330223261e+00
8.731068306187e+00
9.638550808324e+00
1.142107286125e+01
1.025887226259e+01
1.099307340984e+01
1.129217980894e+01
1.041171423001e+01
8.544172352596e+00
7.238752236699e+00
6.126712138079e+00
5.072939242178e+00
4.123925102398e+00
3.393016670779e+00
2.921470423025e+00
3.058754467894e+00
3.197942848989e+00
3.151774093878e+00
3.614386126658e+00
4.144164228647e+00
4.477866360582e+00
4.444927178705e+00
4.150394703213e+00
1.748674631325e+01
1.065160995910e+01
8.545209806268e+00
7.701559266512e+00
7.374080625259e+00
7.329849916238e+00
7.472221802958e+00
7.630480901334e+00
7.836129934935e+00
7.936160833150e+00
8.060236558901e+00
8.150424472640e+00
8.148953833421e+00
8.201566326911e+00
8.417717763204e+00
9.335394571826e+00
1.551094248458e+01
2.245934536838e+01
2.559876746663e+01
2.703192982876e+01
2.824101837164e+01
2.832578644649e+01
2.775944429807e+01
2.787376351401e+01
2.929667066246e+01
1.999981103048e+01
2.135248411778e+01
1.689818535944e+02
5.910775668642e+00
6.354169328847e+00
1.736027866934e+02
2.691223661273e+01
1.047954549022e+02
1.620504387717e+02
2.903858791555e+01
1.520849192583e+02
3.048718920621e+01
1.758013320805e+02
7.063551269675e+00
1.377060308389e+02
2.286559931704e+01
6.593508213473e+01
1.294185038583e+02
1.245841850480e+02
1.091836781809e+02
9.484086833004e+01
9.565619940595e+01
1.015419432517e+02
1.498490346897e+01
1.221061017892e+01
1.262272718191e+01
4.494635350191e+01
1.760126434829e+02
7.095119321988e+00
8.669104482050e+00
1.556302150274e+02
1.187299584052e+01
3.525346331052e+01
1.143103983026e+02
1.580342639896e+02
1.453245649793e+02
1.653572627783e+02
1.714362595633e+02
5.944799962751e+00
1.248802538422e+01
1.736192834922e+02
6.481102755572e+01
6.717897055329e+00
8.516035146503e+01
9.596370085258e+01
2.841314856560e+01
2.493689764534e+01
2.973720079107e+01
2.971456793126e+01
1.512412388467e+01
2.694805522036e+01
1.774660072348e+02
8.564717716980e+00
8.562184612371e+01
2.184071160522e+01
2.907558468295e+01
2.783393335773e+01
3.764747839128e+01
3.800907228157e+01
4.700242039308e+01
4.690744408311e+01
5.629349099575e+01
5.628561832725e+01
4.818789165437e+01
6.567679739358e+01
6.560995051641e+01
7.502884354354e+01
7.485683180339e+01
6.593167791150e+01
7.495801302267e+01
6.633692760192e+01
7.514389259052e+01
8.380701083697e+01
8.378343044665e+01
7.529738438495e+01
8.369320932642e+01
7.529396705536e+01
8.345235121074e+01
7.504622717990e+01
8.299421756418e+01
9.137680889285e+01
9.068948121216e+01
8.228620542153e+01
8.974934044409e+01
8.128879670890e+01
8.850072606289e+01
9.689778117380e+01
9.540005355399e+01
8.690051940528e+01
9.357493329434e+01
8.495284427737e+01
9.141140958451e+01
8.262817064904e+01
8.884383983914e+01
9.750499244884e+01
9.472667495275e+01
8.588825539540e+01
9.153235147361e+01
1.002961645317e+02
9.687366569004e+01
1.055619072058e+02
1.019379438916e+02
9.312070358405e+01
9.799034807543e+01
1.067353652092e+02
1.026074241636e+02
9.372854351214e+01
9.820880890846e+01
1.070351028793e+02
1.025093819729e+02
9.354110667689e+01
9.775371609746e+01
1.067092808801e+02
1.018446073648e+02
9.274832305370e+01
9.677184159749e+01
1.058721769377e+02
1.007273007211e+02
1.098103250487e+02
9.144110379473e+01
9.539655926667e+01
8.590941861336e+01
8.992029867244e+01
1.037106618270e+02
8.026692757731e+01
7.628553088510e+01
8.434695610104e+01
9.395762322195e+01
7.455234269391e+01
7.870144449485e+01
6.880350104715e+01
7.591874904154e+01
9.244643762588e+01
7.301903141238e+01
6.304290653887e+01
5.873487475730e+01
5.292358261564e+01
3.998698674774e+01
5.039211746029e+01
4.231528079160e+01
5.341074515927e+01
4.609443240630e+01
5.725326733175e+01
7.570747402447e+01
6.143262866895e+01
6.693718865599e+01
7.377430033905e+01
1.088449656441e+02
8.282623155485e+01
7.721767501519e+01
8.697592902168e+01
1.147881961573e+02
1.186653241075e+02
1.234694805634e+02
1.272671481332e+02
1.318933872191e+02
1.356083725371e+02
1.309759369945e+02
1.392374812212e+02
1.346137722881e+02
1.400499009068e+02
1.363035329429e+02
1.427920027239e+02
1.381878600467e+02
1.462813899573e+02
1.417087832804e+02
1.334265105760e+02
1.369896719005e+02
1.285707255821e+02
1.140356925869e+02
1.171962267487e+02
1.223013773785e+02
1.253482247680e+02
1.303567688588e+02
1.332905575946e+02
1.381762375095e+02
1.350713070892e+02
8.428087681291e+01
8.254463220988e+01
7.681566861911e+01
7.332818615477e+01
6.751719498709e+01
6.386497080710e+01
5.797794105668e+01
5.411276313792e+01
5.978995790870e+01
4.980770831247e+01
5.528595705063e+01
4.508071636051e+01
5.035259312009e+01
9.902588630470e+01
1.280837038980e+02
1.359383873045e+02
1.304941757236e+02
4.855278993166e+01
1.451937805872e+02
1.442780338219e+02
1.404642361214e+02
1.427782655084e+02
4.721587681483e+01
4.821509267896e+01
5.177051218652e+01
5.716039716097e+01
5.032758817001e+01
1.482812124387e+02
5.155365065866e+01
1.472314462355e+02
3.956275771737e+01
1.405238043795e+02
1.486548087121e+02
1.261848912263e+02
1.383290224789e+02
1.326145531847e+02
6.053087610599e+01
5.547347641892e+01
4.529607611759e+01
5.042660405799e+01
6.050528436392e+01
5.497645776359e+01
4.471070697606e+01
4.926191963027e+01
5.956959036256e+01
5.381067551927e+01
4.327688060046e+01
4.787880618946e+01
1.531337681536e+02
3.456010531844e+01
5.741153254471e+01
1.519620329111e+02
1.456557208620e+02
6.152045297785e+01
5.510154597807e+01
4.427537204818e+01
4.940303585053e+01
6.035003613064e+01
5.481589088837e+01
4.431288953866e+01
4.976732772397e+01
3.966643885876e+01
4.512560589912e+01
5.540864246601e+01
5.077590959028e+01
4.082032574357e+01
4.637693624051e+01
3.667610089407e+01
4.206892632580e+01
5.205489341129e+01
4.173797649378e+01
1.395309787494e+02
1.471718121727e+02
8.173043089431e+01
9.098524305814e+01
9.651021539008e+01
1.005562777054e+02
4.758718422901e+01
5.785984896679e+01
4.211674402869e+01
4.533731136196e+01
6.865340653687e+01
1.440674947459e+02
1.357820308544e+02
7.267678070325e+01
6.508611625974e+01
6.384022439744e+01
5.604605628084e+01
5.726971137066e+01
5.460309336859e+01
1.323554833022e+02
6.125490376243e+01
5.442396708101e+01
4.415236529273e+01
1.521390602779e+02
1.316649355389e+02
9.974625518556e+01
1.073490351842e+02
1.081748315833e+02
1.157050720185e+02
1.166686983034e+02
1.240522417194e+02
1.228656064695e+02
1.404633140601e+02
1.310533544655e+02
3.764681722846e+01
1.224670068126e+02
6.408117514592e+01
3.731557862058e+01
3.707044117989e+01
4.577526843248e+01
5.584729149822e+01
1.557926760138e+02
1.251766437601e+02
1.175034840474e+02
4.839321463087e+01
4.950612071317e+01
1.458933724184e+02
3.552521043001e+01
3.443896826523e+01
3.018213874309e+01
3.483892456467e+01
3.270293297839e+01
6.588481849711e+01
5.480180995648e+01
4.809632882569e+01
2.895030974234e+01
2.374516007715e+01
5.305364091691e+01
6.340641959526e+01
1.058188902818e+02
1.097860229842e+02
1.520611224343e+02
4.191372728510e+01
6.840384168519e+01
1.360098059693e+02
1.279685767676e+02
9.498728461621e+01
3.602997948739e+01
3.262969815350e+01
6.965576769845e+01
5.242931533314e+01
5.008923666023e+01
1.593593649271e+02
7.173957611605e+01
1.296239352490e+02
1.215187943422e+02
1.376492296872e+02
3.115584495802e+01
1.594851863882e+02
1.476456235583e+02
1.258498276379e+02
1.183662154561e+02
5.738503306879e+01
5.054024885619e+01
4.139238951733e+01
4.355856113321e+01
4.753726877183e+01
5.974295707613e+01
5.801729764764e+01
4.937228337809e+01
5.010908054350e+01
5.805237799512e+01
5.017364472256e+01
7.070435799241e+01
1.117607888086e+02
1.019228043479e+02
1.249280047846e+02
1.195458096319e+02
6.617142537056e+01
7.224143572574e+01
3.137776038721e+01
2.737429794462e+01
3.824860595548e+01
3.378503875383e+01
1.136867123257e+02
1.555169997469e+02
7.305146218714e+01
8.049140114034e+01
7.635404876501e+01
1.554976766672e+02
7.883562646963e+01
1.189350211601e+02
2.926022358528e+01
1.051613100340e+02
2.798973833045e+01
9.272334560108e+01
1.556142930756e+02
1.599061295034e+02
1.479659362361e+02
3.100780838910e+01
1.118812132143e+02
1.101800651616e+02
4.206782258881e+01
4.270843777405e+01
5.047616521135e+01
4.286388861762e+01
7.398093978375e+01
6.837065596314e+01
1.342775801715e+02
1.390756495162e+02
1.272657469733e+02
1.195629301493e+02
1.531657821495e+02
1.508883282427e+02
5.990771805951e+01
4.206204466838e+01
7.731383941635e+01
4.093289388806e+01
1.627030098147e+02
1.589795591326e+02
1.816542585760e+01
2.332097570381e+01
7.428325026559e+01
3.493259381384e+01
3.657117893688e+01
3.288371697005e+01
1.711994671398e+02
1.171778023161e+01
1.633303417673e+02
5.851252638824e+01
7.948612820874e+01
1.183128172752e+02
7.108173220095e+01
1.481353208624e+02
6.860387111821e+01
8.052059255521e+01
2.526097177672e+01
2.119503912580e+01
2.922842075072e+01
3.381164235719e+01
2.255734989608e+01
6.717551277839e+01
7.165073735668e+01
7.696373180208e+01
4.622035831304e+01
5.652785246793e+01
1.110760435743e+02
1.072414362916e+02
1.013087337537e+02
1.018886794791e+02
1.003126910089e+02
1.322204146370e+02
1.240104335546e+02
1.197276415664e+02
7.729619513215e+01
8.472369980106e+01
7.933431605239e+01
7.497122271708e+01
7.805570796694e+01
8.357602438167e+01
1.674118709298e+02
1.640675747967e+02
2.345605144482e+01
2.915224345436e+01
2.744678818112e+01
2.406390687950e+01
8.825378266390e+01
8.477809337336e+01
9.363943673282e+01
5.349686818478e+01
1.280479203508e+02
1.621945716596e+02
1.584825383987e+02
1.668050601156e+02
1.423347267805e+02
1.496774798397e+02
1.453057233333e+02
1.333219109028e+01
7.672562878730e+01
2.207219582145e+01
9.289197128025e+00
1.841923464252e+01
2.343850489364e+01
1.442814445984e+01
4.366820109266e+01
1.926576595455e+01
2.463653767968e+01
1.691729966054e+01
8.914633999309e+01
1.833311165275e+01
2.257272093015e+01
1.661777372013e+02
1.623275234120e+02
1.692611617335e+02
1.653382463294e+02
1.582555739613e+02
1.617168278726e+02
1.731140474612e+01
1.696933069386e+02
1.651774242748e+02
1.733367788320e+02
3.591103115739e+01
4.531435129051e+01
3.811070604297e+01
3.047296523431e+01
1.301365318654e+02
1.203256454491e+02
1.514145284204e+02
1.432235629032e+02
1.912103730048e+01
1.875268543579e+01
2.668786367073e+01
2.570513042924e+01
3.406703400177e+01
3.286274230906e+01
4.165157801896e+01
1.468606847192e+02
2.798952312643e+01
3.473881088988e+01
1.579458401220e+02
1.550276600681e+02
4.251887737807e+01
3.506564390762e+01
1.673649891588e+02
6.664870000675e+01
9.764667171517e+01
8.298526347116e+00
1.161748929041e+01
6.892171708022e+01
5.050254124327e+01
4.678280259973e+01
3.993859734634e+01
1.402911987211e+02
2.472395337621e+01
3.046359793946e+01
4.254014057987e+01
2.372656266296e+01
1.475076051901e+02
7.349557484237e+01
6.657391650238e+01
3.893595408398e+01
5.282590518674e+01
5.677213413539e+01
3.833819129912e+01
3.968377830037e+01
7.989894467103e+01
4.109102735321e+01
3.282074406156e+01
6.670242006086e+01
7.287243047294e+01
8.150824204934e+01
9.309549673043e+01
9.044769040066e+01
7.906378411064e+01
8.820046466268e+01
9.941456957337e+01
9.770244729517e+01
1.107136370566e+02
1.069700541936e+02
9.581849151427e+01
1.045969446688e+02
1.148578898228e+02
9.428392436116e+01
1.599588162028e+02
7.806184688710e+01
1.819919561639e+01
1.631665075350e+01
6.690957795897e+01
1.202763761908e+02
1.119957559667e+02
6.132198041319e+01
1.414429144723e+02
4.845447915967e+01
4.409947271578e+01
1.487806222943e+02
7.002157620816e+01
6.781764012475e+01
5.883637170598e+01
1.063754133482e+02
3.405419620586e+01
1.601886031749e+02
1.200185838344e+02
1.142790024711e+02
1.059612818101e+02
8.641076394280e+01
1.675801767187e+02
1.630894889622e+02
1.642748493944e+02
1.576866783088e+02
1.702402554402e+02
1.297003709995e+02
1.341632810673e+02
6.514266756783e+01
7.044306153774e+01
7.999780134769e+01
7.534007107917e+01
6.560300026969e+01
7.040238911469e+01
7.988189113768e+01
6.520367983325e+01
1.111795542322e+02
1.724129935145e+02
1.280505382239e+02
1.240114822091e+02
1.154702829485e+02
9.797653056783e+01
1.033411388105e+02
1.124476029647e+02
9.251854514751e+01
1.146136900352e+02
1.730993305213e+02
1.235687228077e+02
9.937429234337e+01
1.341294893551e+01
2.059360478432e+01
2.330764524059e+01
3.065675193941e+01
2.005356735603e+01
1.149092696673e+02
1.187151882337e+02
1.137063755371e+02
1.224681637434e+02
1.173252646180e+02
1.090485456506e+02
1.260176311433e+02
1.203960479341e+02
1.223920843601e+01
6.107501278268e+00
1.372656910570e+01
1.383124246388e+01
2.286337533299e+01
2.326026935821e+01
3.317101833533e+01
3.139106689759e+01
1.328697031284e+01
5.792130058039e+00
1.428748951888e+01
5.779779456326e+00
1.445268782739e+01
2.489558451210e+01
3.988063578672e+01
1.752439643553e+02
9.470373792644e+01
9.017593712245e+01
8.079022526140e+01
8.592920729537e+01
9.856205123432e+01
7.557571966741e+01
7.207847556896e+01
8.882957901860e+00
1.743763334565e+01
1.666878246521e+01
2.600837168077e+01
2.562875054693e+01
1.738348609017e+01
1.724420631561e+01
8.300264027641e+00
1.696469678429e+01
2.583536456124e+01
7.636980714631e+00
5.490206687733e+01
6.045354188426e+01
1.739642460883e+02
1.273562895603e+01
6.370746888300e+00
9.266246054679e+01
9.576392929634e+01
9.538977856438e+01
1.636267380895e+02
1.674051482038e+02
9.274716928575e+01
6.455091195910e+01
1.018165562999e+02
7.320571252079e+01
3.834943670369e+01
6.257518467762e+01
1.394271743125e+02
1.298387111434e+02
1.565230536158e+02
1.321960384242e+02
1.497244249119e+02
1.651322655690e+02
4.025205649781e+01
3.536324813636e+01
3.254052982463e+01
5.655665004064e+01
6.732796175938e+01
1.049403109489e+02
4.282498267881e+01
1.401000184096e+02
5.845470594406e+01
1.108012432020e+02
8.843770601130e+01
7.042598242718e+01
5.832000287902e+01
7.991030511944e+01
1.046633969916e+02
1.436827189708e+02
6.245413187684e+01
8.230561146866e+00
1.479309171032e+02
1.224585048623e+02
3.907063834870e+01
1.409960128686e+02
3.890085599954e+01
6.042468240490e+01
8.460533356568e+01
2.953193070120e+01
3.260761562457e+01
2.611326858606e+01
1.628759541181e+02
6.470134000880e+01
6.157391446750e+01
1.105443543897e+02
7.454566954939e+01
2.574382528610e+01
7.801806976285e+01
1.019478479018e+02
1.502069379973e+02
1.271146402832e+02
6.594749277437e+01
1.549493398452e+02
1.033381259327e+02
7.158508344867e+01
1.088950597895e+02
8.797075674022e+01
6.637762267892e+01
1.112913821488e+02
1.435703519694e+02
5.865145379815e+01
9.185056601916e+01
8.391016988126e+01
9.808963999794e+01
1.347500710729e+02
1.514873020293e+02
4.004597812857e+01
6.206588364969e+01
3.960701949238e+01
1.322108989907e+02
8.304695239214e+01
6.599965018160e+01
1.506893089113e+02
7.790873611452e+01
1.085769270242e+02
4.633882120220e+01
2.874747479724e+01
6.945290556629e+01
9.989661820224e+01
1.175120274804e+02
9.844271908373e+01
1.540796581084e+02
1.444106975501e+02
1.853298433634e+01
3.309828312653e+01
1.574710505848e+02
1.152599048995e+02
1.483196204892e+02
1.118824315998e+02
1.435250409983e+02
3.558844212617e+01
1.610142413646e+02
1.439146674910e+02
6.419063400660e+01
1.191642096460e+01
1.694865733764e+02
1.514809148461e+02
1.063574217902e+02
1.112829216183e+02
3.063436672549e+01
1.212652302395e+02
9.217868930733e+01
1.039745900344e+02
1.542778169232e+02
5.703627226027e+01
1.162186979417e+02
1.245501373018e+02
2.554870773075e+01
3.570201174518e+01
1.199584581508e+02
7.479434825852e+01
1.156315289233e+02
1.551057735578e+02
1.236846065456e+02
8.408577982645e+01
1.273699996824e+02
3.007209047494e+01
6.637048824806e+01
1.309941763541e+02
1.008068324405e+02
2.652893563732e+01
1.133452191129e+02
1.594316323576e+02
8.197874724881e+01
1.198433177438e+02
7.711801573579e+01
2.921154751486e+01
1.282153171914e+02
1.095841748893e+02
1.199830522492e+02
1.082284867790e+02
1.364310695569e+02
3.447686501675e+01
6.041657722482e+01
5.028401125024e+01
8.904756580124e+01
1.102981804254e+02
3.410798421302e+01
8.512588047324e+01
3.553208203051e+01
8.467030504017e+01
1.345194828003e+02
3.592627384283e+01
8.921062485728e+01
5.621275620184e+01
8.439984815384e+01
1.164239165874e+02
8.865517703739e+01
8.349289259535e+01
8.428610740883e+01
8.750298144750e+01
9.443544102980e+01
1.757986242235e+02
1.799372691527e+01
2.850049102584e+01
6.792491214471e+00
3.322507409342e+01
7.238792465961e+01
9.325140094145e+01
1.824147362244e+01
6.650842167495e+01
1.185242190997e+02
1.552328067335e+02
4.993634826588e+01
1.524635734232e+02
1.264799099076e+02
7.449718758363e+01
1.140931833431e+01
1.476330242013e+01
1.390430529949e+02
2.750334964816e+01
2.945656350945e+01
2.609494548681e+01
6.946256236798e+01
2.295138956891e+01
2.601882438431e+01
1.612320473140e+02
1.784052063920e+01
1.360271428145e+02
2.334305101683e+01
8.980822338295e+01
1.523800901101e+02
1.754304381826e+02
1.439986256471e+02
2.071415100959e+01
2.682880630572e+01
1.362232548730e+02
5.771764294398e+01
1.762710599021e+02
1.710817346578e+01
8.557812049234e+01
3.509036753121e+01
8.563857795947e+01
1.029772577063e+02
2.874010959068e+01
3.130661910033e+01
1.708559349657e+02
1.092639975203e+02
1.678538991144e+01
4.916635609712e+01
8.617904679902e+01
1.116705340801e+01
1.688295669868e+02
1.124105311627e+02
1.703829838787e+02
2.561681288990e+01
1.455648016224e+01
1.689192905277e+02
1.280488174950e+02
4.041110706893e+01
1.000404595089e+02
1.166092464453e+01
1.075699605099e+01
1.578350957438e+01
1.764121356832e+02
8.725135035787e+01
9.437485469374e+01
1.791334821158e+01
6.296317798979e+01
1.394706546855e+02
2.188952586043e+01
8.762258600716e+01
1.677894608894e+02
9.903851826328e+01
1.657788353258e+02
9.663834004641e+00
1.518644735538e+02
1.601722064946e+02
1.134918481534e+01
1.036088811843e+02
7.723996312116e+01
3.332421170140e+01
9.557566676461e+01
7.415568246327e+00
1.103162130096e+01
1.774207209204e+02
3.195082866150e+01
2.431519249475e+01
1.243707441671e+02
1.142420537811e+02
6.840466636412e+01
2.992095532181e+01
7.059404601720e+00
4.087376075665e+01
1.560931661709e+02
9.475421701524e+01
3.392039185822e+01
2.136198407382e+01
1.203360827996e+02
1.014111604052e+02
1.328122855895e+02
1.579489364417e+02
1.170168948767e+01
1.220452772370e+02
1.444910197603e+01
1.711263487733e+02
1.054699173598e+02
1.519212242890e+01
8.706628579590e+00

SCALARS node_materi_strain_total_average_a_ept float
LOOKUP_TABLE default
4.843765767996e-05
4.105108706033e-03
2.766976525109e-03
5.556721296159e-03
1.211946097669e-04
2.659474436358e-04
4.079053049988e-04
5.634132482222e-04
7.155700747425e-04
8.665006926999e-04
1.016143541357e-03
1.164826588242e-03
1.312697131301e-03
1.460190017416e-03
1.609258424970e-03
1.754739311898e-03
1.885193442652e-03
2.025610341177e-03
2.168139024614e-03
2.304113160129e-03
2.439148668105e-03
2.572952110785e-03
2.702893456428e-03
5.565705073490e-03
5.556029865940e-03
5.554816745079e-03
5.549495683632e-03
5.534541206104e-03
5.530027711739e-03
5.512217316217e-03
5.488985599356e-03
5.465835836356e-03
5.434797366623e-03
5.385124716556e-03
5.340000915179e-03
5.274976269290e-03
5.203839699656e-03
5.117176489482e-03
5.020784233661e-03
4.911015449017e-03
4.796433339694e-03
4.678906293764e-03
4.557310708972e-03
4.429927040479e-03
4.297987143204e-03
4.170057927598e-03
4.044007641113e-03
3.923390407302e-03
3.809340783324e-03
3.699115280408e-03
3.600062757491e-03
3.500772885220e-03
3.416579802326e-03
3.334841442628e-03
3.252649979017e-03
3.180094999226e-03
3.122957378382e-03
3.069446751172e-03
3.017693847261e-03
2.980985524134e-03
2.937308139107e-03
2.906278512630e-03
2.872148771643e-03
2.849380084092e-03
2.838864216221e-03
2.828119007261e-03
2.791579318251e-03
2.797392606809e-03
2.778766157823e-03
2.774106626571e-03
2.776931350178e-03
2.773430763664e-03
4.256468012932e-03
4.402715299237e-03
4.548994885866e-03
4.693830003873e-03
4.842694298347e-03
4.993683591984e-03
5.144413989192e-03
5.298696952770e-03
5.451197656340e-03
-1.076732292833e-04
3.930775065897e-03
1.151636946245e-04
4.998355589875e-04
9.352991738980e-04
1.374930900077e-03
1.833299044093e-03
2.301965045090e-03
2.760501766305e-03
3.202977783714e-03
3.617895284670e-03
4.002265350128e-03
4.089465212934e-03
4.101880802782e-03
4.102086704176e-03
4.100060345942e-03
4.118640024503e-03
4.101281914683e-03
4.099367707453e-03
4.099500205479e-03
4.097835705478e-03
4.092095615758e-03
4.084642209968e-03
4.069343211726e-03
4.045832764687e-03
4.009612705304e-03
-1.360234975877e-04
-1.681459569913e-04
-1.762485071832e-04
-1.631389066790e-04
-1.374454073271e-04
-1.161020217874e-04
-9.516307671870e-05
-7.457725392622e-05
-5.486399844348e-05
-3.659239340454e-05
-1.732015645044e-05
-4.736641847784e-06
9.567036082002e-06
2.144925393479e-05
3.185257554234e-05
3.912322139168e-05
4.487708136147e-05
4.849077035112e-05
4.777847153726e-05
3.878522126857e-03
3.977173156483e-03
4.026798206922e-03
4.045862669379e-03
4.054298568987e-03
4.056145567417e-03
4.052392003500e-03
4.049653380539e-03
4.049329964723e-03
4.044726442702e-03
4.042257488725e-03
4.040471507623e-03
4.039874244294e-03
4.038614866611e-03
4.034127648725e-03
4.008948371125e-03
-2.655546677493e-05
2.981055114249e-04
7.157064615903e-04
1.163113748309e-03
1.601920490875e-03
2.070851267062e-03
2.533100346789e-03
2.990591947919e-03
3.386530700570e-03
3.822125521965e-03
5.015724627068e-04
3.116163601337e-03
1.971231294007e-05
-6.061809675558e-05
2.884951204910e-03
1.357009627012e-03
1.541001029268e-03
3.409155671775e-03
2.211271821151e-03
3.816196256080e-03
3.102848849322e-03
2.793751370548e-03
6.690495008346e-05
4.300725607752e-03
3.834042424336e-03
9.487714667242e-04
1.933774443730e-03
4.654206297016e-03
5.075171705733e-03
5.452216487635e-03
5.374910293764e-03
5.274173402894e-03
4.086265616132e-03
4.199694284894e-03
4.232938538146e-03
4.769464160956e-03
2.744145791400e-03
-5.255617763077e-05
9.652344897768e-05
2.367218969575e-03
4.226849326839e-03
4.844439185731e-04
4.863373165748e-03
3.612472869989e-03
4.053332524436e-03
3.254695342305e-03
3.007327133409e-03
-2.270813601892e-05
4.160089362154e-03
2.804564245943e-03
5.063937233082e-03
5.124784469812e-05
1.240039150852e-03
5.493467262541e-03
1.791249280047e-03
9.181800365291e-04
2.656616771476e-03
3.485109662009e-03
1.227583585191e-04
4.487924744369e-03
2.750539349229e-03
9.881890730592e-05
5.368232796743e-03
3.943709316330e-03
3.903526683081e-03
4.035520459063e-03
3.984619303034e-03
4.118912927354e-03
4.080704612217e-03
3.934811817846e-03
4.040661655402e-03
3.885230922156e-03
4.216588160172e-03
3.999480099966e-03
3.837513277268e-03
3.957679686820e-03
3.791839291849e-03
3.669009374386e-03
3.621525554399e-03
3.494960697642e-03
3.446883179744e-03
3.577911876805e-03
3.403132648065e-03
3.268214193681e-03
3.226367909247e-03
3.086902077566e-03
3.048066248375e-03
2.902815124053e-03
2.868748262565e-03
3.014485065573e-03
2.839707474225e-03
2.689637024266e-03
2.665671609276e-03
2.510992553150e-03
2.492291053017e-03
2.646113446350e-03
2.478738775210e-03
2.319584235879e-03
2.313256495483e-03
2.148911179749e-03
2.150410117652e-03
1.980948404146e-03
1.989441622793e-03
2.154710778657e-03
2.000289467755e-03
1.831149566301e-03
1.848779989369e-03
2.014254668027e-03
1.869015674099e-03
2.030690161329e-03
1.891520645311e-03
1.728601053485e-03
1.756738658172e-03
1.915834827563e-03
1.786025485679e-03
1.626137715316e-03
1.660848364611e-03
1.817340402103e-03
1.696966875585e-03
1.540008512026e-03
1.580660148522e-03
1.735248791593e-03
1.622318977913e-03
1.467724249560e-03
1.512886052532e-03
1.665688980190e-03
1.559037100783e-03
1.709995438732e-03
1.405297617931e-03
1.454915216176e-03
1.300111277701e-03
1.353562855490e-03
2.630934129328e-03
1.198549915525e-03
1.143839395399e-03
1.255116429490e-03
1.408181220921e-03
1.099837166651e-03
1.159200946029e-03
1.004013286669e-03
1.972936141347e-03
3.537136797163e-03
1.065714562609e-03
9.109589380899e-04
8.469129996062e-04
7.549599946571e-04
4.238049390655e-03
4.350455883237e-03
4.361420999122e-03
4.480361886902e-03
4.481793428345e-03
8.202186482329e-04
4.120235982930e-03
4.471073829125e-03
3.132643760647e-03
2.534170552321e-03
2.173785001453e-03
1.218523822534e-03
1.127191577398e-03
1.277843312820e-03
1.816006736767e-03
1.857931660529e-03
1.962993392696e-03
2.002436642499e-03
2.106206079872e-03
2.143505557286e-03
2.043312949958e-03
2.182409626328e-03
2.085583984523e-03
2.245671324349e-03
2.212066240523e-03
2.222877254872e-03
2.129370324934e-03
2.265298431248e-03
2.174714317179e-03
2.037037458544e-03
2.085082990089e-03
1.946561494198e-03
2.186687839971e-03
2.327743602045e-03
2.337053053690e-03
2.475727876341e-03
2.481881400997e-03
2.618016939188e-03
2.620768115268e-03
2.490751177099e-03
3.915105563561e-03
1.677097981079e-03
1.654934971369e-03
1.498439101857e-03
1.471219633591e-03
1.312322968701e-03
1.279629388344e-03
1.117673488964e-03
1.158695680453e-03
9.612172669119e-04
1.011313835293e-03
8.119726432308e-04
8.701219700297e-04
2.984915948545e-03
2.617480905634e-03
2.757333196998e-03
2.761031354269e-03
6.882301572055e-04
2.221756037969e-03
2.349927243257e-03
2.319433884467e-03
2.627591301682e-03
6.668037345647e-04
1.079665725165e-03
1.249352947417e-03
4.606761928255e-03
4.599254463650e-03
2.456018309187e-03
7.323346751166e-04
2.318076727951e-03
7.557795985987e-04
2.134667216508e-03
2.270027447959e-03
1.945349390539e-03
2.899239072427e-03
2.906230044080e-03
1.062107762100e-03
9.273378315752e-04
7.400379367995e-04
8.022832742425e-04
9.842753203058e-04
8.613213706504e-04
6.805046379897e-04
7.434956699597e-04
9.212999411846e-04
8.077245417762e-04
6.307288291392e-04
6.986459786385e-04
2.355399573291e-03
6.064743504420e-04
3.548599277186e-03
2.483413980635e-03
2.752907191368e-03
4.731403371366e-03
4.715009500173e-03
4.584058699628e-03
4.691748486462e-03
4.829509179691e-03
4.798939812744e-03
4.661903295153e-03
4.762751307166e-03
4.625776420906e-03
4.721308990191e-03
4.863687072068e-03
4.817188761802e-03
4.674774507292e-03
4.766672548350e-03
4.623696153524e-03
4.711973561896e-03
4.858871593649e-03
5.840693931201e-04
2.502200280069e-03
2.638057843284e-03
1.191928575530e-03
1.336690045456e-03
1.426689641811e-03
1.485882338946e-03
4.800051306357e-03
4.950556385785e-03
1.044968259510e-03
1.222391956473e-03
4.740967511185e-03
2.186270245416e-03
2.049281653230e-03
2.350250142592e-03
2.371657315766e-03
2.180943621539e-03
2.197400093131e-03
2.399170678638e-03
1.996417039915e-03
2.178837497072e-03
4.963804950537e-03
7.822268640337e-04
6.209733947430e-04
2.320644184614e-03
2.362802263193e-03
3.156478233983e-03
3.126137675381e-03
3.295338839629e-03
3.263508383414e-03
3.431423449904e-03
3.397069994863e-03
3.235053110572e-03
3.043568387912e-03
3.367069222642e-03
4.651942199156e-03
2.617595291587e-03
9.811854758428e-04
5.156312280720e-04
5.190187548318e-04
6.451334987929e-04
7.973714924773e-04
2.587371031571e-03
3.565151211060e-03
3.600112751723e-03
2.227067408527e-03
2.435942953462e-03
3.030954115539e-03
4.367872135037e-03
4.531312297393e-03
4.494066646093e-03
4.823018319565e-04
4.543147577324e-04
4.942388498123e-03
1.422938208994e-03
1.405413060838e-03
5.401038343480e-04
3.922526589498e-04
4.887449170165e-03
5.038570998689e-03
1.574122472043e-03
1.630799328612e-03
2.565050661059e-03
5.932123142379e-04
5.102362721760e-03
2.380429649096e-03
2.237976669232e-03
1.396474074113e-03
1.013454121247e-03
8.328380324918e-04
1.095246322971e-03
7.649857197230e-04
7.101751343285e-04
2.694691078908e-03
4.973867349855e-03
3.209901262345e-03
3.075023094165e-03
3.340173895278e-03
4.198816094412e-04
2.614179837383e-03
2.239382783378e-03
3.729133261835e-03
3.770078797628e-03
1.601182894045e-03
1.596588408698e-03
1.396605817763e-03
1.598812974149e-03
3.778636373204e-03
1.787886926745e-03
3.370285935421e-03
3.430941446234e-03
3.245083370846e-03
2.597646592417e-03
2.643828195725e-03
1.634383144964e-03
2.320284831992e-03
1.518300529840e-03
1.897401515654e-03
1.924542234097e-03
5.010634071248e-03
5.114868287907e-03
4.535767383657e-03
4.483449559369e-03
5.282933709661e-04
4.577079457895e-04
1.755510753147e-03
2.511565318313e-03
4.871971707603e-03
4.883493956105e-03
4.743894619915e-03
2.675388138964e-03
1.528088834178e-03
2.201706312937e-03
4.659873177885e-04
2.793870899614e-03
3.697097064374e-04
3.708172140940e-03
2.373315258914e-03
2.452328076014e-03
3.169563271031e-03
3.753724109799e-03
2.777777324448e-03
2.620688450164e-03
3.312164214956e-03
3.121766371977e-03
3.053880140646e-03
2.917562993693e-03
1.148841937432e-03
1.038268068479e-03
3.707276683305e-03
3.494809497684e-03
3.900844594244e-03
3.947578284089e-03
3.155511676532e-03
3.020767683746e-03
8.570167064166e-04
2.482817097676e-03
5.092331161614e-03
3.498142405822e-03
2.635830797381e-03
2.544834208387e-03
2.508741044164e-04
3.278650167208e-04
5.193125889413e-03
1.388804849955e-03
1.595972452661e-03
1.183450156403e-03
2.632296466220e-03
4.224288118277e-03
2.505402041691e-03
2.797790866520e-03
5.258987716144e-03
2.767642836648e-03
2.163556745806e-03
2.542639843546e-03
5.116944763409e-03
5.285713923792e-03
4.407199184375e-03
4.360768008770e-03
4.434797709058e-03
7.029906582728e-04
4.626352591279e-04
5.062850306342e-03
1.038464926142e-03
1.115751493739e-03
6.593437488379e-04
8.249745935641e-04
1.664302869020e-03
1.611287998811e-03
3.670788673887e-03
3.841063754654e-03
3.328635525488e-03
2.261163774393e-03
2.116650322883e-03
2.091895307293e-03
5.159949112431e-03
5.280820717075e-03
1.262568002461e-03
1.213467136740e-03
1.199612242576e-03
5.125203939817e-03
2.582551167586e-03
2.528660683023e-03
2.970349913480e-04
3.844325398339e-04
7.922470604548e-04
6.122833722795e-04
4.886097218827e-03
4.739366895834e-03
5.040381684991e-03
7.601489122242e-04
3.060842142694e-03
2.799194109211e-03
2.788449618124e-03
2.835444333106e-03
3.184029497227e-03
3.299851473584e-03
3.463197510288e-03
1.693055925650e-04
5.239094758238e-03
4.393307099217e-03
6.274038118586e-05
4.340576557815e-03
4.425318315373e-03
4.272937161017e-03
6.131604291368e-04
4.299819693827e-03
4.340737032533e-03
1.936318238602e-04
5.250281221010e-03
2.200528752442e-04
2.874011750216e-04
2.674436151849e-03
2.579273807087e-03
2.701753234991e-03
2.608334071145e-03
2.486061643130e-03
2.529252743544e-03
4.308566900749e-03
2.671758319990e-03
2.574441854221e-03
2.719743050664e-03
3.000471611425e-03
1.798593295214e-03
1.814222404723e-03
1.612588944071e-03
4.101992421823e-03
4.113793574083e-03
2.298591959634e-03
2.161596782095e-03
4.355728254255e-03
4.352336380365e-03
4.481292614429e-03
4.467783088306e-03
4.599054225033e-03
4.582362512794e-03
4.717327065830e-03
3.634550257780e-03
1.163498509251e-03
3.391073118992e-03
3.138078710346e-03
3.002825595023e-03
2.701029749994e-03
2.554914892296e-03
2.755025783743e-03
1.788901990670e-03
5.301638031930e-03
-2.364693210713e-05
1.832711338458e-04
1.971711792021e-03
2.851895820459e-03
2.010552048620e-03
2.049144590199e-03
2.403899989493e-03
3.168807197213e-04
9.837493593488e-04
4.728350359947e-03
7.534313798171e-04
2.230858372198e-03
1.801286612755e-03
2.753101477668e-03
1.201599608786e-03
1.796570625757e-03
3.720799038142e-03
3.841597618756e-03
3.676184614301e-03
1.815733677503e-03
2.268569922732e-03
2.077496812798e-03
3.316239646191e-03
4.601339164815e-03
4.589724115497e-03
4.724610001412e-03
4.569604759477e-03
4.436076311951e-03
4.411175524543e-03
4.551577444315e-03
4.385616598216e-03
4.551199602036e-03
4.348472388192e-03
4.213499656502e-03
4.175142682946e-03
4.294858070995e-03
4.042763391003e-03
3.264061927168e-03
2.150871672404e-03
3.106174750014e-04
3.318781673155e-04
2.944987402110e-03
4.763581157814e-03
4.984582125641e-03
1.445717442967e-03
4.174420575673e-03
3.608361042619e-03
9.150828154501e-04
3.933594749865e-03
4.456286136686e-03
4.307394515257e-03
4.331500808604e-03
5.152169761336e-03
4.459553565237e-03
3.517077978220e-03
2.471858399073e-03
2.468302682074e-03
2.314147434619e-03
4.247864107492e-03
3.179340664097e-03
3.047170115560e-03
2.987627857346e-03
2.902763761536e-03
3.058310702499e-03
4.548451694148e-03
4.432220202636e-03
1.040156791860e-03
1.163933862337e-03
1.336068226021e-03
1.292106714260e-03
1.113499393349e-03
1.247121904762e-03
1.423726594945e-03
1.202023832867e-03
3.977844624610e-03
2.965150553936e-03
2.070273267029e-03
2.034399914434e-03
1.886730148476e-03
1.463253477207e-03
1.558682559213e-03
1.705945341061e-03
1.369615044788e-03
3.098746061003e-03
2.923185928308e-03
2.218688530724e-03
1.506298186550e-03
4.129245501092e-03
4.183935058184e-03
4.121441175495e-03
4.243119500340e-03
4.238965372977e-03
1.718061629329e-03
1.772767915267e-03
1.688563002230e-03
1.828316768136e-03
1.743354177423e-03
1.612893018871e-03
1.882264091832e-03
1.789818200283e-03
4.179540832521e-03
-3.666679559917e-05
1.327185735933e-04
1.340226848647e-04
2.927691604639e-04
3.059975149362e-04
4.804775922798e-04
4.618842065792e-04
1.290347350426e-04
-8.920810914575e-06
1.439583059203e-04
6.307901027106e-06
1.492839690745e-04
3.205960882605e-04
5.554118442540e-04
2.716709756081e-03
1.385819674335e-03
1.315685777962e-03
1.174558911643e-03
1.252429863572e-03
1.445513049289e-03
1.094271115471e-03
1.040688710587e-03
1.010237218513e-04
2.168215313011e-04
2.040028247075e-04
3.443325078267e-04
3.404115424788e-04
2.152500531886e-04
2.116931476613e-04
9.025832347764e-05
2.074252453561e-04
3.421941145455e-04
8.000678223871e-05
4.918964133539e-03
5.000943331464e-03
2.851564238391e-03
4.220609143302e-03
3.767442308801e-05
5.438794652003e-03
5.415768241383e-03
5.441487402171e-03
2.502434480344e-03
2.570719353198e-03
5.458900057239e-03
9.417606175756e-04
4.702494429717e-03
5.160690501562e-03
8.728664895968e-04
9.309081567233e-04
2.103689120965e-03
1.990692576042e-03
2.401486543240e-03
1.997231654360e-03
2.309547000046e-03
2.920005515919e-03
5.632937428771e-04
4.583219700390e-03
4.568422695296e-03
4.913120767033e-03
9.740707128708e-04
1.550458404390e-03
5.985646104829e-04
3.884226188769e-03
3.185959152277e-03
1.775061687574e-03
1.312332714944e-03
1.041034620895e-03
8.713115311036e-04
2.331932415543e-03
1.606809527582e-03
2.280946322178e-03
5.008442662724e-03
7.334241751155e-05
2.381067305398e-03
1.901003590608e-03
4.561005389777e-03
2.754214903049e-03
5.667054291263e-04
4.905084282737e-03
5.015265488540e-03
4.360452868939e-03
4.411091174134e-04
4.446286736567e-03
2.712099248735e-03
4.607579617179e-03
8.849148526259e-04
2.049371889178e-03
2.718292708600e-03
3.690688241472e-03
5.213047830157e-03
2.469669260176e-03
2.761324541496e-03
2.348783923933e-03
9.502138549363e-04
2.450389927036e-03
2.163117069240e-03
5.052429174832e-03
3.465397646379e-03
1.701770569359e-03
4.854093358735e-03
1.850559463321e-03
2.891549415481e-03
2.995406529827e-03
3.189664427357e-03
3.747993893645e-03
2.814927758672e-03
2.022946411593e-03
2.414687680658e-03
6.705132625569e-04
1.986024932626e-03
4.476771146972e-03
3.522640912295e-03
5.204000669863e-03
2.562418813413e-03
2.356706744642e-03
4.998663365910e-03
1.655930284266e-03
6.523356359782e-04
6.627651214867e-04
1.347268108171e-03
2.311196895495e-03
1.802222236748e-03
4.890935583017e-03
2.397882531696e-03
2.429564400293e-03
3.082702577737e-04
3.579990095971e-03
2.441508681843e-03
2.069895975438e-03
2.883356452993e-03
1.655917555561e-03
3.766134521375e-03
2.781957381336e-03
2.488880809123e-03
2.521325883782e-03
1.615392126046e-03
4.229166316673e-03
2.635101633428e-03
2.656367002863e-03
2.959040212790e-03
1.941539824448e-03
3.310278873780e-03
1.849694500821e-03
3.363703811243e-03
5.222230825590e-03
2.765143749315e-03
4.188117298091e-03
1.755932691847e-03
2.763310848057e-03
3.400276117564e-04
3.207383436852e-03
1.806743917669e-03
1.384831273215e-03
1.969154046092e-03
3.288368355141e-03
1.858851530037e-03
1.560064490073e-03
1.911900898908e-03
2.883982400451e-03
4.155529124414e-03
1.965795809183e-03
3.499693573275e-03
3.505863426090e-04
2.936330740380e-03
2.434480315469e-03
1.249087457420e-03
2.000028477709e-03
4.279679244836e-03
2.433930632103e-03
2.146151817604e-03
3.635354647307e-03
2.920622925589e-03
2.466622035097e-03
2.289816671033e-03
2.336502852356e-03
8.812379816629e-04
7.202790694149e-04
1.592913473295e-03
3.807689515855e-03
4.682551164900e-04
4.081712038815e-03
4.889154154969e-04
1.462280944181e-03
3.053796056426e-03
4.629283562174e-03
1.500883388018e-03
8.013448609685e-04
1.379642472345e-03
2.616847451253e-03
1.423700420692e-03
1.310431560210e-03
5.311083390659e-03
1.357691617598e-03
5.487883026000e-03
2.716968085931e-03
4.338854899608e-03
1.997070945535e-03
-5.606546474476e-05
1.867109860545e-03
1.091503929591e-03
3.875531568724e-03
4.344788368786e-03
9.857337280553e-04
4.466546196860e-03
3.710413769968e-03
4.845329231369e-03
2.875459531904e-03
2.912923244987e-03
5.207592706413e-03
4.212268386682e-03
1.568888878043e-04
2.090548803589e-03
1.536281868679e-03
1.375794055283e-03
9.525365634116e-04
9.999700736611e-04
2.912867201341e-04
1.139077538813e-03
3.098889907301e-03
4.296924272210e-03
3.195504808034e-03
7.085236597980e-04
5.142603698774e-03
3.457885692252e-03
2.807195111210e-03
3.323288418255e-03
5.572082292632e-04
4.277864017217e-03
3.996201723025e-03
4.958037961577e-03
2.783838967800e-03
4.242578392931e-03
5.353565180409e-03
5.473454584717e-04
5.365591621429e-03
4.007460737987e-03
4.512651807901e-03
4.151304940677e-03
2.633757767607e-03
4.686759286203e-03
3.698475195176e-04
4.831765333261e-03
1.258539935659e-03
9.955058795988e-05
2.742423658593e-03
4.137315511016e-03
2.637367810086e-03
3.388244528805e-04
1.590510638458e-04
2.824231994316e-03
4.262013113852e-03
6.250422549209e-04
5.385110127650e-03
1.593434369693e-04
4.190067527214e-03
1.888970012662e-04
2.761256675704e-03
5.288654406673e-03
1.382938706885e-03
4.028419914272e-03
9.018429577064e-04
3.621723005592e-03
2.719820545347e-04
5.339644692844e-03
2.909695169002e-03
5.004034926404e-03
3.363817898587e-03
1.032555836613e-04
3.577276217319e-03
2.873303173154e-03
4.214704435679e-03
4.836056571894e-03
1.119418927244e-03
4.576727227002e-04
5.510034791597e-03
8.007875319421e-05
4.207502564395e-03
2.741215864411e-03
4.394710453702e-04
4.445707429862e-03
4.380709724719e-03
1.690296180766e-03
5.119160412849e-03
4.150835686714e-04
-8.603463388885e-05
4.707122731527e-03
3.393695400966e-03
5.138632102612e-03
4.595225687471e-03
4.921318243440e-04
4.239890185444e-03
1.494249949701e-03
3.847623544273e-03
2.983690284781e-03
-9.650685168931e-06
1.814356964541e-03
1.630598957199e-04
2.715087850318e-03
1.554339510084e-03
3.943117470651e-03
4.021369392406e-03

SCALARS node_materi_strain_total_size_dev_sd_ept float
LOOKUP_TABLE default
5.955507296045e-05
1.124757306042e-02
6.701774516307e-03
1.369806392682e-02
1.878673701201e-04
4.746518617358e-04
7.324828368398e-04
1.024443225769e-03
1.304809282939e-03
1.581091146152e-03
1.862184348549e-03
2.151224951967e-03
2.450035871829e-03
2.766999288773e-03
3.111368880291e-03
3.454924981207e-03
3.781827846478e-03
4.166519828070e-03
4.582673049497e-03
5.007883730058e-03
5.460126984757e-03
5.939633329129e-03
6.409493035895e-03
1.369671724545e-02
1.368270679387e-02
1.368468372050e-02
1.367698722541e-02
1.366740264444e-02
1.366170083541e-02
1.364584151547e-02
1.361400903128e-02
1.358680377471e-02
1.353350452611e-02
1.347888745529e-02
1.340340145726e-02
1.330557893175e-02
1.317881845055e-02
1.303893638562e-02
1.285347210350e-02
1.265611075514e-02
1.243118604166e-02
1.218589198508e-02
1.192022687805e-02
1.162575626858e-02
1.132558061720e-02
1.100962369316e-02
1.068967259424e-02
1.037520168552e-02
1.006381298974e-02
9.756805259396e-03
9.454571935804e-03
9.161516187920e-03
8.912877980938e-03
8.636692767440e-03
8.369634564855e-03
8.129783726871e-03
7.936205864856e-03
7.749683375181e-03
7.587599353475e-03
7.439573586194e-03
7.304363174667e-03
7.180985717438e-03
7.077382039049e-03
7.008008520852e-03
6.959061703827e-03
6.908848617092e-03
6.792666101825e-03
6.808999214272e-03
6.764409915566e-03
6.753479961773e-03
6.752657516076e-03
6.742520539510e-03
1.157107978844e-02
1.190238847909e-02
1.221137220557e-02
1.249579064766e-02
1.276491996929e-02
1.301007533978e-02
1.323058026768e-02
1.342423313174e-02
1.360803644308e-02
1.171973599839e-03
1.161654162136e-02
2.262939382284e-03
3.330160249169e-03
4.369150296828e-03
5.363912494969e-03
6.393374585758e-03
7.452510458570e-03
8.542733001789e-03
9.737322787039e-03
1.125012613797e-02
1.105076980084e-02
1.120060859816e-02
1.121432193614e-02
1.121493712765e-02
1.121121310498e-02
1.125977486889e-02
1.121989869071e-02
1.121702498632e-02
1.122211921349e-02
1.124090213313e-02
1.125139803856e-02
1.126610042554e-02
1.129767019694e-02
1.134827558912e-02
1.143870660265e-02
1.145604399102e-03
1.234134430720e-03
1.223710519392e-03
1.138786199517e-03
1.019168760997e-03
9.143631707445e-04
8.029907416039e-04
6.895818978940e-04
5.840995022787e-04
4.838665939684e-04
3.919824518968e-04
3.306911768105e-04
2.453305133667e-04
1.713307461760e-04
1.251629355218e-04
9.613289689524e-05
7.303048032030e-05
5.978075692780e-05
6.033291622000e-05
1.138835670829e-02
1.115128711330e-02
1.106797381191e-02
1.101293542607e-02
1.099671480071e-02
1.099602311155e-02
1.100247289800e-02
1.101429298727e-02
1.102444368501e-02
1.103398387360e-02
1.104056859644e-02
1.104576109760e-02
1.105065558511e-02
1.104915076682e-02
1.105080800299e-02
1.103819981336e-02
1.668084092077e-03
2.816417384693e-03
3.853514971984e-03
4.887767591817e-03
5.925185367957e-03
6.953455206825e-03
7.995098923801e-03
9.112246179432e-03
1.051012912509e-02
1.156968942200e-02
2.881926523002e-03
7.746848031676e-03
5.417302832832e-04
9.446404937184e-04
6.987364273259e-03
5.046444363179e-03
2.947923720452e-03
8.705048780830e-03
7.082142398960e-03
9.970094916393e-03
9.395489468447e-03
6.701670006817e-03
2.669444822363e-04
1.132352562721e-02
1.159602961062e-02
1.733735078760e-03
3.914073376006e-03
1.223019811824e-02
1.311794991072e-02
1.363223840623e-02
1.358738335350e-02
1.345301991678e-02
1.182914919084e-02
1.165505854420e-02
1.160905182328e-02
1.263748022085e-02
6.561413047469e-03
1.068280213944e-03
1.787935514452e-04
5.216626515685e-03
1.152780522163e-02
8.801248575745e-04
1.272259225881e-02
9.362098457562e-03
1.065497515422e-02
8.187775437437e-03
7.406308640899e-03
7.945122173267e-04
1.171761550294e-02
6.716013943453e-03
1.312239763122e-02
4.017704987272e-04
2.300828653436e-03
1.365859491059e-02
6.039791408697e-03
3.957468807911e-03
8.174738121581e-03
1.076623218175e-02
1.804431102842e-03
1.208449572064e-02
6.605724897169e-03
1.392193690257e-04
1.350442104501e-02
1.184030649791e-02
1.171355489585e-02
1.201823817176e-02
1.184271557159e-02
1.216427956541e-02
1.197362288294e-02
1.158105775552e-02
1.172312254862e-02
1.126416671017e-02
1.229703316078e-02
1.143133985570e-02
1.092878220707e-02
1.111916289760e-02
1.059235943633e-02
1.037174661607e-02
1.002074969839e-02
9.775530271346e-03
9.415791084784e-03
9.686246429254e-03
9.076130408178e-03
8.785979833699e-03
8.450189542466e-03
8.146366602659e-03
7.818771566486e-03
7.504054517527e-03
7.189735524579e-03
7.524395004573e-03
6.910546671786e-03
6.571324364183e-03
6.308611510848e-03
5.967443170292e-03
5.721625863296e-03
6.082910914942e-03
5.516815640789e-03
5.151932272970e-03
4.972262325372e-03
4.605770434837e-03
4.454142768509e-03
4.088888015385e-03
3.963232072561e-03
4.340751027653e-03
3.876529512496e-03
3.505741870263e-03
3.446795698085e-03
3.826289115695e-03
3.423345855063e-03
3.809461958021e-03
3.431213542871e-03
3.061666399778e-03
3.092429151542e-03
3.465555710814e-03
3.145626131310e-03
2.792153374058e-03
2.863615720113e-03
3.220417478109e-03
2.952486619135e-03
2.616169024035e-03
2.716164758862e-03
3.058149680920e-03
2.828045647719e-03
2.506413676137e-03
2.622809895262e-03
2.951907816903e-03
2.748097415650e-03
3.085145473756e-03
2.435005071778e-03
2.561157200622e-03
2.261896152468e-03
2.388241563634e-03
5.896888693726e-03
2.100951977648e-03
1.986036591454e-03
2.225394808987e-03
2.522496089096e-03
1.946592013448e-03
2.068621049098e-03
1.796669185635e-03
4.251653084084e-03
9.372907896925e-03
1.915618842827e-03
1.647934466759e-03
1.537419361323e-03
1.389576597326e-03
1.241007298034e-02
1.255723906883e-02
1.261760560312e-02
1.278054649035e-02
1.280043594569e-02
1.497254128849e-03
1.159317759623e-02
1.269470160826e-02
8.507468144539e-03
6.250217917363e-03
4.225268531350e-03
2.196061859679e-03
2.039924573362e-03
2.328883001992e-03
3.306985848287e-03
3.446726427084e-03
3.687338588566e-03
3.832722415295e-03
4.092613242689e-03
4.243374175257e-03
3.986426009394e-03
4.402504863309e-03
4.147129146825e-03
4.522638665900e-03
4.376259508715e-03
4.568385722828e-03
4.314062941138e-03
4.740885461592e-03
4.486150925434e-03
4.075947738079e-03
4.245876013589e-03
3.853371967686e-03
4.215363518275e-03
4.644426075205e-03
4.641162798429e-03
5.082941546096e-03
5.087980048399e-03
5.542380540154e-03
5.556505094253e-03
5.120948670264e-03
1.080438081242e-02
3.085952355107e-03
3.152956494000e-03
2.743160661614e-03
2.819334364900e-03
2.419461467442e-03
2.508429615851e-03
2.117615574406e-03
2.067433950163e-03
1.778516933399e-03
1.768358444087e-03
1.497600839025e-03
1.525054059473e-03
7.264802707234e-03
5.555793521949e-03
6.027328691637e-03
6.052693087944e-03
1.287149807529e-03
4.662427835603e-03
4.826890561613e-03
4.684777454790e-03
5.601587659323e-03
1.240294141808e-03
2.225172034701e-03
2.655631337894e-03
1.296420353624e-02
1.295341644486e-02
5.158060528783e-03
1.345680147742e-03
4.843021610241e-03
1.517369383033e-03
4.419310587358e-03
4.841707376334e-03
3.750095565284e-03
6.535943396235e-03
6.568840879513e-03
1.799963747831e-03
1.584294922968e-03
1.343788764687e-03
1.419170989177e-03
1.656725157734e-03
1.493050541995e-03
1.269533989549e-03
1.353288295322e-03
1.582383548829e-03
1.443082626171e-03
1.228083637268e-03
1.311768496165e-03
5.100630646720e-03
1.260574055909e-03
1.015530065120e-02
5.301808294772e-03
6.048439696790e-03
1.311798624000e-02
1.308441673411e-02
1.288293318166e-02
1.300352789483e-02
1.319527204445e-02
1.311026854423e-02
1.288513577435e-02
1.299405137416e-02
1.273858573255e-02
1.285480378909e-02
1.309447450233e-02
1.296246521480e-02
1.270041288062e-02
1.281807635097e-02
1.253801789147e-02
1.266481818821e-02
1.292891961311e-02
1.093280365775e-03
5.180664745378e-03
5.677468711775e-03
2.177798329891e-03
2.461519144149e-03
2.632370777559e-03
2.778063220236e-03
1.278543816256e-02
1.303543626258e-02
2.402120112602e-03
2.871327126735e-03
1.310001505145e-02
4.598377652720e-03
4.191063795671e-03
5.646211288528e-03
5.950508492384e-03
5.347855188837e-03
5.674492926104e-03
6.296353242468e-03
5.070129335393e-03
4.237185810143e-03
1.318592518287e-02
1.433600910244e-03
1.192210261069e-03
5.028450318710e-03
4.715116721079e-03
7.873296846371e-03
7.634004207668e-03
8.237003307035e-03
8.018755240170e-03
8.616456531638e-03
8.422077243304e-03
7.839972845203e-03
7.063791882808e-03
8.272416157216e-03
1.250476861288e-02
5.591945034571e-03
1.679896799234e-03
9.890017847066e-04
1.097467281163e-03
1.187255646361e-03
1.456633928283e-03
5.654766632160e-03
9.016621221686e-03
9.209150853604e-03
6.057486567998e-03
6.677763973873e-03
7.040908689185e-03
1.259576384779e-02
1.261456684449e-02
1.243611562317e-02
9.003722353355e-04
1.036341086323e-03
1.329159590086e-02
3.126650419289e-03
3.378056671192e-03
1.298463091668e-03
1.073273761312e-03
1.289990615826e-02
1.313344403666e-02
2.953078186234e-03
3.105651601803e-03
5.520100120975e-03
1.181197210880e-03
1.325085270189e-02
4.792337884009e-03
4.342120466637e-03
2.601018405899e-03
2.662504381262e-03
2.191768122023e-03
1.835370920584e-03
1.401915003411e-03
1.298683956235e-03
6.040612435640e-03
1.334402668603e-02
7.704010522779e-03
7.265227096594e-03
8.160149376307e-03
9.779748018485e-04
5.809330097138e-03
4.783887986258e-03
9.594036088618e-03
9.788157755580e-03
3.631645132137e-03
3.916950960111e-03
3.707988967802e-03
4.271337399061e-03
1.110164899652e-02
4.173413063239e-03
9.537429273519e-03
9.940217322368e-03
9.304748609076e-03
6.926196416145e-03
7.319195690658e-03
3.261220718718e-03
4.676101178624e-03
2.805956767702e-03
3.690256079730e-03
3.551257809595e-03
1.329203365725e-02
1.337103682912e-02
1.240091287187e-02
1.222250771980e-02
1.040996129096e-03
9.559234028359e-04
3.227230035804e-03
5.455123252857e-03
1.324587926673e-02
1.320651384441e-02
1.303418213755e-02
5.907159752291e-03
2.709356255202e-03
4.233047880359e-03
1.085379385809e-03
6.459833679873e-03
7.992521288892e-04
9.958612680280e-03
5.221249430770e-03
5.477174986773e-03
7.569146575617e-03
1.131267186512e-02
6.295130923689e-03
5.752011396342e-03
9.728047904321e-03
9.082592835121e-03
8.651552513818e-03
8.421915124951e-03
1.935605079069e-03
1.779719994164e-03
9.484236901134e-03
8.726955901088e-03
1.015228118959e-02
1.035913250998e-02
7.559765143354e-03
7.036819040564e-03
1.565018605658e-03
7.102313045972e-03
1.343229195960e-02
1.034735507637e-02
5.958426905855e-03
5.623247320330e-03
9.541059721203e-04
9.699788397067e-04
1.334113072421e-02
4.104826372990e-03
4.666716260719e-03
3.542717714980e-03
6.168277675978e-03
1.150799655502e-02
5.678080710454e-03
7.580426384128e-03
1.344139093844e-02
6.173658799493e-03
5.053502893432e-03
5.394594885024e-03
1.321988525963e-02
1.343561831933e-02
1.228838965862e-02
1.208430255832e-02
1.246953428105e-02
1.599420459806e-03
1.410433321923e-03
1.327166298086e-02
1.886924082712e-03
2.043029552314e-03
1.261528467400e-03
1.490311339116e-03
3.136574846125e-03
2.986103475179e-03
9.679270820177e-03
1.024641689180e-02
8.485710881780e-03
4.433898744031e-03
4.002800194705e-03
3.919921099677e-03
1.344249173717e-02
1.352364692832e-02
2.108382116393e-03
2.013089042128e-03
2.038271880553e-03
1.345748853896e-02
5.942308810515e-03
5.748467336924e-03
7.312136288936e-04
8.795512801591e-04
2.497253158197e-03
2.010701988537e-03
1.311410289776e-02
1.292520231089e-02
1.328152059743e-02
1.388964779903e-03
7.156954704116e-03
6.441546036521e-03
6.320110879323e-03
6.651808990117e-03
7.589028625126e-03
8.083812324321e-03
8.651372092771e-03
9.532680906935e-04
1.336132706795e-02
1.204895897886e-02
9.508448663590e-04
1.186201002900e-02
1.204309247007e-02
1.166574395715e-02
1.120679860868e-03
1.206910748025e-02
1.232029498753e-02
6.192570102648e-04
1.352215541535e-02
5.758116989264e-04
6.432763093347e-04
6.125512039819e-03
5.788753476833e-03
6.286767472385e-03
5.956794117778e-03
5.475286103106e-03
5.665131142380e-03
1.187075489332e-02
6.220486771844e-03
5.867014650445e-03
6.419001614775e-03
8.888574423822e-03
4.841379199103e-03
5.245605257785e-03
5.197132049575e-03
1.076772182010e-02
1.087293317204e-02
4.985349543298e-03
4.558354204584e-03
1.185014836593e-02
1.181707189262e-02
1.211729439017e-02
1.206364276050e-02
1.235002963818e-02
1.229058281602e-02
1.256728586789e-02
9.274843393929e-03
3.986718715547e-03
1.019090253602e-02
7.566518102038e-03
7.030005610829e-03
7.746086221225e-03
7.598159340171e-03
6.406594167153e-03
3.923046635528e-03
1.351788385746e-02
1.124076596403e-03
1.179041605218e-03
4.467871348105e-03
7.986494810712e-03
5.433047214517e-03
5.876294620294e-03
4.897441740704e-03
8.215645313624e-04
3.009517057533e-03
1.261978007969e-02
2.902719070705e-03
4.776979340896e-03
3.740485297251e-03
7.205548600268e-03
3.170400649165e-03
4.489965071388e-03
1.073488316770e-02
1.144666574968e-02
1.093753142953e-02
3.602973894283e-03
6.483787290766e-03
6.365351750680e-03
9.149875982461e-03
1.281713982068e-02
1.267236007269e-02
1.276886088740e-02
1.249431947438e-02
1.236855544354e-02
1.215585069132e-02
1.230330422949e-02
1.193268308574e-02
1.215410582666e-02
1.169458808029e-02
1.149167564761e-02
1.124446535460e-02
1.145629813165e-02
1.101972229529e-02
8.105756253737e-03
4.799531294201e-03
1.115120720710e-03
1.493672083025e-03
7.856730702509e-03
1.248079290537e-02
1.296584187908e-02
2.944031151113e-03
1.099205779771e-02
1.054590046369e-02
1.844590820464e-03
1.031459698003e-02
1.255424805984e-02
1.223810216454e-02
1.242718081750e-02
1.326447744779e-02
1.263135953529e-02
9.074224751025e-03
5.105717202279e-03
5.154013576286e-03
4.737357781989e-03
1.175423306112e-02
7.959511584623e-03
7.335159113364e-03
7.147291525331e-03
6.717213697082e-03
7.556119334522e-03
1.195861141910e-02
1.166490036462e-02
1.741244879178e-03
1.928118189475e-03
2.220812963970e-03
2.150139252602e-03
1.855845339436e-03
2.095727657903e-03
2.409919021738e-03
2.064057082235e-03
1.055405442601e-02
7.254369141888e-03
3.950837349332e-03
3.817750650877e-03
3.425443439415e-03
2.662498126384e-03
2.839228181166e-03
3.175592309418e-03
2.493406010681e-03
7.429155631386e-03
7.118547113543e-03
4.275620410320e-03
2.696662966937e-03
1.178473253234e-02
1.213650358078e-02
1.215304689276e-02
1.239845333752e-02
1.213972595269e-02
3.291279164587e-03
3.448633222149e-03
3.259840181759e-03
3.607949678042e-03
3.406084742287e-03
3.090934563965e-03
3.762026806663e-03
3.533956729549e-03
1.168366031446e-02
8.706613612208e-04
8.426571177122e-04
7.990192266053e-04
9.228022232463e-04
9.361383226987e-04
1.070611350946e-03
1.060397368143e-03
8.773098617298e-04
7.081362891939e-04
7.433411272275e-04
6.187401707430e-04
6.881496623520e-04
8.818198571320e-04
1.111526969898e-03
6.475678268549e-03
2.604532400074e-03
2.455110445490e-03
2.165828397728e-03
2.319260019426e-03
2.728455989014e-03
2.012094512553e-03
1.908273758147e-03
1.600936499281e-04
3.776708478149e-04
3.492284731425e-04
6.207337446589e-04
6.236122849573e-04
3.923021786088e-04
4.113238147885e-04
2.004739150135e-04
4.329633511887e-04
6.632774028475e-04
2.244324120659e-04
1.289602585072e-02
1.303177342380e-02
6.878661437858e-03
1.165480825882e-02
4.632861625898e-04
1.361349314284e-02
1.361781962520e-02
1.362866200516e-02
5.684436203102e-03
5.920817567956e-03
1.361463275204e-02
1.683135456062e-03
1.261640759376e-02
1.335333201687e-02
1.977034393802e-03
1.634207122365e-03
4.368336066268e-03
3.910833586649e-03
5.284029867790e-03
4.020745166637e-03
4.919044225157e-03
6.914580265260e-03
1.036383982826e-03
1.257249471841e-02
1.237152867679e-02
1.306334168221e-02
1.764132101867e-03
2.936279867877e-03
1.138540588291e-03
1.008142491246e-02
8.897188179545e-03
3.176896414002e-03
2.356775321765e-03
1.832092390840e-03
1.538161114466e-03
5.377842110153e-03
2.882920480107e-03
4.678612372328e-03
1.315921535746e-02
3.648961396027e-04
4.976922297270e-03
3.594842957630e-03
1.276544541137e-02
6.023675402219e-03
1.159141320159e-03
1.320558273697e-02
1.333296482956e-02
1.248943129228e-02
8.868807421697e-04
1.224782406781e-02
6.183881926597e-03
1.291787296821e-02
1.610950657935e-03
3.822122329570e-03
6.870157391629e-03
1.125594626094e-02
1.343625984128e-02
5.353280029056e-03
6.117536159603e-03
4.665349477889e-03
1.732534397929e-03
5.307555757775e-03
4.266300944458e-03
1.337623559173e-02
8.838583579974e-03
3.057360613739e-03
1.324215255890e-02
3.313863997914e-03
6.521803903881e-03
8.242317516878e-03
8.145682853825e-03
1.026465248832e-02
6.666905241473e-03
4.149927598462e-03
5.139260390021e-03
1.279246435409e-03
4.756097294091e-03
1.274577005169e-02
8.836567982367e-03
1.350554269061e-02
6.570613343149e-03
5.012134470878e-03
1.335824408060e-02
3.026125822179e-03
1.185810685318e-03
1.789535767607e-03
2.379083787145e-03
4.834305274070e-03
3.376911975756e-03
1.299723160292e-02
5.189165087911e-03
5.023380395949e-03
2.336464270163e-03
1.078333228011e-02
5.373452475726e-03
3.860061841307e-03
6.524368928269e-03
3.202203625792e-03
9.713904216263e-03
8.227589930547e-03
5.568480899382e-03
5.277148886082e-03
3.417187777494e-03
1.152277066404e-02
6.121451141860e-03
5.791354078441e-03
7.040336279184e-03
3.522050036632e-03
1.007480998570e-02
3.531960869679e-03
8.764615325146e-03
1.336929460738e-02
6.198105447548e-03
1.210816132228e-02
3.328178502619e-03
6.095971322592e-03
6.380774311840e-04
9.552348889916e-03
3.485083627858e-03
2.379180224478e-03
3.599912482958e-03
8.089852351429e-03
3.646077768958e-03
2.711566306403e-03
3.809841952320e-03
8.759320350678e-03
1.186775502942e-02
3.974620786701e-03
9.088806260603e-03
7.104035297182e-04
6.853316415371e-03
5.438607061835e-03
2.145788293013e-03
3.698774946072e-03
1.200971491553e-02
7.601550988825e-03
4.110030751721e-03
9.428937009201e-03
6.713944234993e-03
5.233783444321e-03
4.551145308641e-03
7.013883098616e-03
1.579836734380e-03
1.342385055195e-03
2.740977538981e-03
1.000950930549e-02
8.589384476349e-04
1.130423587571e-02
1.038116179141e-03
2.461896107463e-03
7.101102837887e-03
1.237638054741e-02
2.531431369194e-03
1.460275787058e-03
2.304585892891e-03
5.651992832073e-03
2.400798001148e-03
2.210232296236e-03
1.351167041084e-02
2.318834245631e-03
1.364164476359e-02
6.477457386465e-03
1.176412802242e-02
6.633197267948e-03
1.051183521790e-03
5.705786470877e-03
1.880280139302e-03
1.050857227515e-02
1.178514932034e-02
1.730348195825e-03
1.185308963734e-02
9.672674767092e-03
1.278325782193e-02
6.560056264534e-03
6.625259674432e-03
1.331595629471e-02
1.152393347897e-02
6.379161375165e-04
4.354844750080e-03
5.540052151020e-03
4.539914167465e-03
3.438586356231e-03
1.830253803111e-03
8.898200357921e-04
4.483571611605e-03
7.505431308574e-03
1.195706744434e-02
7.623111385435e-03
3.411147839703e-03
1.343149585901e-02
8.697546313474e-03
6.752440111732e-03
8.113970804450e-03
2.383943454791e-03
1.237700803960e-02
1.043765204169e-02
1.299389522175e-02
6.685642718670e-03
1.199981219020e-02
1.351626706564e-02
1.126766494979e-03
1.350833103981e-02
1.076950846141e-02
1.221415473985e-02
1.226107174881e-02
6.162339217425e-03
1.246961284875e-02
1.840694339127e-03
1.278553306574e-02
2.316372177494e-03
9.091132101301e-04
6.410793918953e-03
1.102748966954e-02
6.161096569085e-03
6.079274346990e-04
5.252692111091e-04
6.666062893193e-03
1.124972627716e-02
1.219135685064e-03
1.357747238729e-02
1.419515528216e-03
1.151451718432e-02
4.431571823846e-04
6.618991759750e-03
1.354284306325e-02
2.586123174984e-03
1.186477860123e-02
1.649724088874e-03
9.190610390569e-03
7.974355518450e-04
1.355496179057e-02
6.935986698125e-03
1.316757230649e-02
8.614776528772e-03
1.010097302015e-03
9.135096789379e-03
6.656603804122e-03
1.150721707127e-02
1.281642991487e-02
2.057891510653e-03
8.793193243106e-04
1.365643940443e-02
1.087407298592e-04
1.146878910835e-02
6.579167140027e-03
8.105220853855e-04
1.200349155054e-02
1.158621217584e-02
3.295840554009e-03
1.320014223364e-02
1.002976810342e-03
1.018088424887e-03
1.253281890726e-02
8.518396821061e-03
1.339216488801e-02
1.236945073473e-02
1.681284558987e-03
1.124780054414e-02
2.822017858489e-03
9.972485303203e-03
7.022563551328e-03
1.355918377360e-03
3.603863627421e-03
4.563065170894e-04
6.380283420473e-03
2.967092128887e-03
1.141107743051e-02
1.107414551054e-02


CELL_DATA 1956

SCALARS element_number int
LOOKUP_TABLE default
407
408
409
410
411
412
413
414
415
416
417
418
419
420
421
422
423
424
425
426
427
428
429
430
431
432
433
434
435
436
437
438
439
440
441
442
443
444
445
446
447
448
449
450
451
452
453
454
455
456
457
458
459
460
461
462
463
464
465
466
467
468
469
470
471
472
473
474
475
476
477
478
479
480
481
482
483
484
485
486
487
488
489
490
491
492
493
494
495
496
497
498
499
500
501
502
503
504
505
506
507
508
509
510
511
512
513
514
515
516
517
518
519
520
521
522
523
524
525
526
527
528
529
530
531
532
533
534
535
536
537
538
539
540
541
542
543
544
545
546
547
548
549
550
551
552
553
554
555
556
557
558
559
560
561
562
563
564
565
566
567
568
569
570
571
572
573
574
575
576
577
578
579
580
581
582
583
584
585
586
587
588
589
590
591
592
593
594
595
596
597
598
599
600
601
602
603
604
605
606
607
608
609
610
611
612
613
614
615
616
617
618
619
620
621
622
623
624
625
626
627
628
629
630
631
632
633
634
635
636
637
638
639
640
641
642
643
644
645
646
647
648
649
650
651
652
653
654
655
656
657
658
659
660
661
662
663
664
665
666
667
668
669
670
671
672
673
674
675
676
677
678
679
680
681
682
683
684
685
686
687
688
689
690
691
692
693
694
695
696
697
698
699
700
701
702
703
704
705
706
707
708
709
710
711
712
713
714
715
716
717
718
719
720
721
722
723
724
725
726
727
728
729
730
731
732
733
734
735
736
737
738
739
740
741
742
743
744
745
746
747
748
749
750
751
752
753
754
755
756
757
758
759
760
761
762
763
764
765
766
767
768
769
770
771
772
773
774
775
776
777
778
779
780
781
782
783
784
785
786
787
788
789
790
791
792
793
794
795
796
797
798
799
800
801
802
803
804
805
806
807
808
809
810
811
812
813
814
815
816
817
818
819
820
821
822
823
824
825
826
827
828
829
830
831
832
833
834
835
836
837
838
839
840
841
842
843
844
845
846
847
848
849
850
851
852
853
854
855
856
857
858
859
860
861
862
863
864
865
866
867
868
869
870
871
872
873
874
875
876
877
878
879
880
881
882
883
884
885
886
887
888
889
890
891
892
893
894
895
896
897
898
899
900
901
902
903
904
905
906
907
908
909
910
911
912
913
914
915
916
917
918
919
920
921
922
923
924
925
926
927
928
929
930
931
932
933
934
935
936
937
938
939
940
941
942
943
944
945
946
947
948
949
950
951
952
953
954
955
956
957
958
959
960
961
962
963
964
965
966
967
968
969
970
971
972
973
974
975
976
977
978
979
980
981
982
983
984
985
986
987
988
989
990
991
992
993
994
995
996
997
998
999
1000
1001
1002
1003
1004
1005
1006
1007
1008
1009
1010
1011
1012
1013
1014
1015
1016
1017
1018
1019
1020
1021
1022
1023
1024
1025
1026
1027
1028
1029
1030
1031
1032
1033
1034
1035
1036
1037
1038
1039
1040
1041
1042
1043
1044
1045
1046
1047
1048
1049
1050
1051
1052
1053
1054
1055
1056
1057
1058
1059
1060
1061
1062
1063
1064
1065
1066
1067
1068
1069
1070
1071
1072
1073
1074
1075
1076
1077
1078
1079
1080
1081
1082
1083
1084
1085
1086
1087
1088
1089
1090
1091
1092
1093
1094
1095
1096
1097
1098
1099
1100
1101
1102
1103
1104
1105
1106
1107
1108
1109
1110
1111
1112
1113
1114
1115
1116
1117
1118
1119
1120
1121
1122
1123
1124
1125
1126
1127
1128
1129
1130
1131
1132
1133
1134
1135
1136
1137
1138
1139
1140
1141
1142
1143
1144
1145
1146
1147
1148
1149
1150
1151
1152
1153
1154
1155
1156
1157
1158
1159
1160
1161
1162
1163
1164
1165
1166
1167
1168
1169
1170
1171
1172
1173
1174
1175
1176
1177
1178
1179
1180
1181
1182
1183
1184
1185
1186
1187
1188
1189
1190
1191
1192
1193
1194
1195
1196
1197
1198
1199
1200
1201
1202
1203
1204
1205
1206
1207
1208
1209
1210
1211
1212
1213
1214
1215
1216
1217
1218
1219
1220
1221
1222
1223
1224
1225
1226
1227
1228
1229
1230
1231
1232
1233
1234
1235
1236
1237
1238
1239
1240
1241
1242
1243
1244
1245
1246
1247
1248
1249
1250
1251
1252
1253
1254
1255
1256
1257
1258
1259
1260
1261
1262
1263
1264
1265
1266
1267
1268
1269
1270
1271
1272
1273
1274
1275
1276
1277
1278
1279
1280
1281
1282
1283
1284
1285
1286
1287
1288
1289
1290
1291
1292
1293
1294
1295
1296
1297
1298
1299
1300
1301
1302
1303
1304
1305
1306
1307
1308
1309
1310
1311
1312
1313
1314
1315
1316
1317
1318
1319
1320
1321
1322
1323
1324
1325
1326
1327
1328
1329
1330
1331
1332
1333
1334
1335
1336
1337
1338
1339
1340
1341
1342
1343
1344
1345
1346
1347
1348
1349
1350
1351
1352
1353
1354
1355
1356
1357
1358
1359
1360
1361
1362
1363
1364
1365
1366
1367
1368
1369
1370
1371
1372
1373
1374
1375
1376
1377
1378
1379
1380
1381
1382
1383
1384
1385
1386
1387
1388
1389
1390
1391
1392
1393
1394
1395
1396
1397
1398
1399
1400
1401
1402
1403
1404
1405
1406
1407
1408
1409
1410
1411
1412
1413
1414
1415
1416
1417
1418
1419
1420
1421
1422
1423
1424
1425
1426
1427
1428
1429
1430
1431
1432
1433
1434
1435
1436
1437
1438
1439
1440
1441
1442
1443
1444
1445
1446
1447
1448
1449
1450
1451
1452
1453
1454
1455
1456
1457
1458
1459
1460
1461
1462
1463
1464
1465
1466
1467
1468
1469
1470
1471
1472
1473
1474
1475
1476
1477
1478
1479
1480
1481
1482
1483
1484
1485
1486
1487
1488
1489
1490
1491
1492
1493
1494
1495
1496
1497
1498
1499
1500
1501
1502
1503
1504
1505
1506
1507
1508
1509
1510
1511
1512
1513
1514
1515
1516
1517
1518
1519
1520
1521
1522
1523
1524
1525
1526
1527
1528
1529
1530
1531
1532
1533
1534
1535
1536
1537
1538
1539
1540
1541
1542
1543
1544
1545
1546
1547
1548
1549
1550
1551
1552
1553
1554
1555
1556
1557
1558
1559
1560
1561
1562
1563
1564
1565
1566
1567
1568
1569
1570
1571
1572
1573
1574
1575
1576
1577
1578
1579
1580
1581
1582
1583
1584
1585
1586
1587
1588
1589
1590
1591
1592
1593
1594
1595
1596
1597
1598
1599
1600
1601
1602
1603
1604
1605
1606
1607
1608
1609
1610
1611
1612
1613
1614
1615
1616
1617
1618
1619
1620
1621
1622
1623
1624
1625
1626
1627
1628
1629
1630
1631
1632
1633
1634
1635
1636
1637
1638
1639
1640
1641
1642
1643
1644
1645
1646
1647
1648
1649
1650
1651
1652
1653
1654
1655
1656
1657
1658
1659
1660
1661
1662
1663
1664
1665
1666
1667
1668
1669
1670
1671
1672
1673
1674
1675
1676
1677
1678
1679
1680
1681
1682
1683
1684
1685
1686
1687
1688
1689
1690
1691
1692
1693
1694
1695
1696
1697
1698
1699
1700
1701
1702
1703
1704
1705
1706
1707
1708
1709
1710
1711
1712
1713
1714
1715
1716
1717
1718
1719
1720
1721
1722
1723
1724
1725
1726
1727
1728
1729
1730
1731
1732
1733
1734
1735
1736
1737
1738
1739
1740
1741
1742
1743
1744
1745
1746
1747
1748
1749
1750
1751
1752
1753
1754
1755
1756
1757
1758
1759
1760
1761
1762
1763
1764
1765
1766
1767
1768
1769
1770
1771
1772
1773
1774
1775
1776
1777
1778
1779
1780
1781
1782
1783
1784
1785
1786
1787
1788
1789
1790
1791
1792
1793
1794
1795
1796
1797
1798
1799
1800
1801
1802
1803
1804
1805
1806
1807
1808
1809
1810
1811
1812
1813
1814
1815
1816
1817
1818
1819
1820
1821
1822
1823
1824
1825
1826
1827
1828
1829
1830
1831
1832
1833
1834
1835
1836
1837
1838
1839
1840
1841
1842
1843
1844
1845
1846
1847
1848
1849
1850
1851
1852
1853
1854
1855
1856
1857
1858
1859
1860
1861
1862
1863
1864
1865
1866
1867
1868
1869
1870
1871
1872
1873
1874
1875
1876
1877
1878
1879
1880
1881
1882
1883
1884
1885
1886
1887
1888
1889
1890
1891
1892
1893
1894
1895
1896
1897
1898
1899
1900
1901
1902
1903
1904
1905
1906
1907
1908
1909
1910
1911
1912
1913
1914
1915
1916
1917
1918
1919
1920
1921
1922
1923
1924
1925
1926
1927
1928
1929
1930
1931
1932
1933
1934
1935
1936
1937
1938
1939
1940
1941
1942
1943
1944
1945
1946
1947
1948
1949
1950
1951
1952
1953
1954
1955
1956
1957
1958
1959
1960
1961
1962
1963
1964
1965
1966
1967
1968
1969
1970
1971
1972
1973
1974
1975
1976
1977
1978
1979
1980
1981
1982
1983
1984
1985
1986
1987
1988
1989
1990
1991
1992
1993
1994
1995
1996
1997
1998
1999
2000
2001
2002
2003
2004
2005
2006
2007
2008
2009
2010
2011
2012
2013
2014
2015
2016
2017
2018
2019
2020
2021
2022
2023
2024
2025
2026
2027
2028
2029
2030
2031
2032
2033
2034
2035
2036
2037
2038
2039
2040
2041
2042
2043
2044
2045
2046
2047
2048
2049
2050
2051
2052
2053
2054
2055
2056
2057
2058
2059
2060
2061
2062
2063
2064
2065
2066
2067
2068
2069
2070
2071
2072
2073
2074
2075
2076
2077
2078
2079
2080
2081
2082
2083
2084
2085
2086
2087
2088
2089
2090
2091
2092
2093
2094
2095
2096
2097
2098
2099
2100
2101
2102
2103
2104
2105
2106
2107
2108
2109
2110
2111
2112
2113
2114
2115
2116
2117
2118
2119
2120
2121
2122
2123
2124
2125
2126
2127
2128
2129
2130
2131
2132
2133
2134
2135
2136
2137
2138
2139
2140
2141
2142
2143
2144
2145
2146
2147
2148
2149
2150
2151
2152
2153
2154
2155
2156
2157
2158
2159
2160
2161
2162
2163
2164
2165
2166
2167
2168
2169
2170
2171
2172
2173
2174
2175
2176
2177
2178
2179
2180
2181
2182
2183
2184
2185
2186
2187
2188
2189
2190
2191
2192
2193
2194
2195
2196
2197
2198
2199
2200
2201
2202
2203
2204
2205
2206
2207
2208
2209
2210
2211
2212
2213
2214
2215
2216
2217
2218
2219
2220
2221
2222
2223
2224
2225
2226
2227
2228
2229
2230
2231
2232
2233
2234
2235
2236
2237
2238
2239
2240
2241
2242
2243
2244
2245
2246
2247
2248
2249
2250
2251
2252
2253
2254
2255
2256
2257
2258
2259
2260
2261
2262
2263
2264
2265
2266
2267
2268
2269
2270
2271
2272
2273
2274
2275
2276
2277
2278
2279
2280
2281
2282
2283
2284
2285
2286
2287
2288
2289
2290
2291
2292
2293
2294
2295
2296
2297
2298
2299
2300
2301
2302
2303
2304
2305
2306
2307
2308
2309
2310
2311
2312
2313
2314
2315
2316
2317
2318
2319
2320
2321
2322
2323
2324
2325
2794
2795
2796
2797
2798
2799
2800
2801
2802
2803
2804
2805
2806
2807
2808
2809
2810
2811
2812
2813
2814
2815
2816
2817
2818
2819
2820
2821
2822
2823
2824
2825
2826
2827
2828
2829
2830

SCALARS element_group int
LOOKUP_TABLE default
0
0
0
0
0
0
0
0
0
0
0
0
0
0
0
0
0
0
0
0
0
0
0
0
0
0
0
0
0
0
0
0
0
0
0
0
0
0
0
0
0
0
0
0
0
0
0
0
0
0
0
0
0
0
0
0
0
0
0
0
0
0
0
0
0
0
0
0
0
0
0
0
0
0
0
0
0
0
0
0
0
0
0
0
0
0
0
0
0
0
0
0
0
0
0
0
0
0
0
0
0
0
0
0
0
0
0
0
0
0
0
0
0
0
0
0
0
0
0
0
0
0
0
0
0
0
0
0
0
0
0
0
0
0
0
0
0
0
0
0
0
0
0
0
0
0
0
0
0
0
0
0
0
0
0
0
0
0
0
0
0
0
0
0
0
0
0
0
0
0
0
0
0
0
0
0
0
0
0
0
0
0
0
0
0
0
0
0
0
0
0
0
0
0
0
0
0
0
0
0
0
0
0
0
0
0
0
0
0
0
0
0
0
0
0
0
0
0
0
0
0
0
0
0
0
0
0
0
0
0
0
0
0
0
0
0
0
0
0
0
0
0
0
0
0
0
0
0
0
0
0
0
0
0
0
0
0
0
0
0
0
0
0
0
0
0
0
0
0
0
0
0
0
0
0
0
0
0
0
0
0
0
0
0
0
0
0
0
0
0
0
0
0
0
0
0
0
0
0
0
0
0
0
0
0
0
0
0
0
0
0
0
0
0
0
0
0
0
0
0
0
0
0
0
0
0
0
0
0
0
0
0
0
0
0
0
0
0
0
0
0
0
0
0
0
0
0
0
0
0
0
0
0
0
0
0
0
0
0
0
0
0
0
0
0
0
0
0
0
0
0
0
0
0
0
0
0
0
0
0
0
0
0
0
0
0
0
0
0
0
0
0
0
0
0
0
0
0
0
0
0
0
0
0
0
0
0
0
0
0
0
0
0
0
0
0
0
0
0
0
0
0
0
0
0
0
0
0
0
0
0
0
0
0
0
0
0
0
0
0
0
0
0
0
0
0
0
0
0
0
0
0
0
0
0
0
0
0
0
0
0
0
0
0
0
0
0
0
0
0
0
0
0
0
0
0
0
0
0
0
0
0
0
0
0
0
0
0
0
0
0
0
0
0
0
0
0
0
0
0
0
0
0
0
0
0
0
0
0
0
0
0
0
0
0
0
0
0
0
0
0
0
0
0
0
0
0
0
0
0
0
0
0
0
0
0
0
0
0
0
0
0
0
0
0
0
0
0
0
0
0
0
0
0
0
0
0
0
0
0
0
0
0
0
0
0
0
0
0
0
0
0
0
0
0
0
0
0
0
0
0
0
0
0
0
0
0
0
0
0
0
0
0
0
0
0
0
0
0
0
0
0
0
0
0
0
0
0
0
0
0
0
0
0
0
0
0
0
0
0
0
0
0
0
0
0
0
0
0
0
0
0
0
0
0
0
0
0
0
0
0
0
0
0
0
0
0
0
0
0
0
0
0
0
0
0
0
0
0
0
0
0
0
0
0
0
0
0
0
0
0
0
0
0
0
0
0
0
0
0
0
0
0
0
0
0
0
0
0
0
0
0
0
0
0
0
0
0
0
0
0
0
0
0
0
0
0
0
0
0
0
0
0
0
0
0
0
0
0
0
0
0
0
0
0
0
0
0
0
0
0
0
0
0
0
0
0
0
0
0
0
0
0
0
0
0
0
0
0
0
0
0
0
0
0
0
0
0
0
0
0
0
0
0
0
0
0
0
0
0
0
0
0
0
0
0
0
0
0
0
0
0
0
0
0
0
0
0
0
0
0
0
0
0
0
0
0
0
0
0
0
0
0
0
0
0
0
0
0
0
0
0
0
0
0
0
0
0
0
0
0
0
0
0
0
0
0
0
0
0
0
0
0
0
0
0
0
0
0
0
0
0
0
0
0
0
0
0
0
0
0
0
0
0
0
0
0
0
0
0
0
0
0
0
0
0
0
0
0
0
0
0
0
0
0
0
0
0
0
0
0
0
0
0
0
0
0
0
0
0
0
0
0
0
0
0
0
0
0
0
0
0
0
0
0
0
0
0
0
0
0
0
0
0
0
0
0
0
0
0
0
0
0
0
0
0
0
0
0
0
0
0
0
0
0
0
0
0
0
0
0
0
0
0
0
0
0
0
0
0
0
0
0
0
0
0
0
0
0
0
0
0
0
0
0
0
0
0
0
0
0
0
0
0
0
0
0
0
0
0
0
0
0
0
0
0
0
0
0
0
0
0
0
0
0
0
0
0
0
0
0
0
0
0
0
0
0
0
0
0
0
0
0
0
0
0
0
0
0
0
0
0
0
0
0
0
0
0
0
0
0
0
0
0
0
0
0
0
0
0
0
0
0
0
0
0
0
0
0
0
0
0
0
0
0
0
0
0
0
0
0
0
0
0
0
0
0
0
0
0
0
0
0
0
0
0
0
0
0
0
0
0
0
0
0
0
0
0
0
0
0
0
0
0
0
0
0
0
0
0
0
0
0
0
0
0
0
0
0
0
0
0
0
0
0
0
0
0
0
0
0
0
0
0
0
0
0
0
0
0
0
0
0
0
0
0
0
0
0
0
0
0
0
0
0
0
0
0
0
0
0
0
0
0
0
0
0
0
0
0
0
0
0
0
0
0
0
0
0
0
0
0
0
0
0
0
0
0
0
0
0
0
0
0
0
0
0
0
0
0
0
0
0
0
0
0
0
0
0
0
0
0
0
0
0
0
0
0
0
0
0
0
0
0
0
0
0
0
0
0
0
0
0
0
0
0
0
0
0
0
0
0
0
0
0
0
0
0
0
0
0
0
0
0
0
0
0
0
0
0
0
0
0
0
0
0
0
0
0
0
0
0
0
0
0
0
0
0
0
0
0
0
0
0
0
0
0
0
0
0
0
0
0
0
0
0
0
0
0
0
0
0
0
0
0
0
0
0
0
0
0
0
0
0
0
0
0
0
0
0
0
0
0
0
0
0
0
0
0
0
0
0
0
0
0
0
0
0
0
0
0
0
0
0
0
0
0
0
0
0
0
0
0
0
0
0
0
0
0
0
0
0
0
0
0
0
0
0
0
0
0
0
0
0
0
0
0
0
0
0
0
0
0
0
0
0
0
0
0
0
0
0
0
0
0
0
0
0
0
0
0
0
0
0
0
0
0
0
0
0
0
0
0
0
0
0
0
0
0
0
0
0
0
0
0
0
0
0
0
0
0
0
0
0
0
0
0
0
0
0
0
0
0
0
0
0
0
0
0
0
0
0
0
0
0
0
0
0
0
0
0
0
0
0
0
0
0
0
0
0
0
0
0
0
0
0
0
0
0
0
0
0
0
0
0
0
0
0
0
0
0
0
0
0
0
0
0
0
0
0
0
0
0
0
0
0
0
0
0
0
0
0
0
0
0
0
0
0
0
0
0
0
0
0
0
0
0
0
0
0
0
0
0
0
0
0
0
0
0
0
0
0
0
0
0
0
0
0
0
0
0
0
0
0
0
0
0
0
0
0
0
0
0
0
0
0
0
0
0
0
0
0
0
0
0
0
0
0
0
0
0
0
0
0
0
0
0
0
0
0
0
0
0
0
0
0
0
0
0
0
0
0
0
0
0
0
0
0
0
0
0
0
0
0
0
0
0
0
0
0
0
0
0
0
0
0
0
0
0
0
0
0
0
0
0
0
0
0
0
0
0
0
0
0
0
0
0
0
0
0
0
0
0
0
0
0
0
0
0
0
0
0
0
0
0
0
0
0
0
0
0
0
0
0
0
0
0
0
0
0
0
0
0
0
0
0
0
0
0
0
0
0
0
0
0
0
0
0
0
0
0
0
0
0
0
0
0
0
0
0
0
0
0
0
0
0
0
0
0
0
0
0
0
0
0
0
0
0
0
0
0
0
0
0
0
0
0
0
0
0
0
0
0
0
0
0
0
0
0
0
0
0
0
0
0
0
0
0
0
0
0
0
0
0
0
0
0
0
0
0
0
0
0
0
0
0
0
0
0
0
0
0
0
0
0
0
0
0
0
0
0
0
0
0
0
0
0
0
0
0
0
0
0
0
0
0
0
0
0
0
0
0
0
0
0
0
0
0
0
0
0
0
0
0
0
0
0
0
0
0
0
0
0
0
0
0
0
0
0
0
0
0
0
0
0
0
0
0
0
0
0
0
0
0
0
0
0
0
0
0
0
0
0
0
0
0
0
0
0
0
0
0
0
0
0
0
0
0
0
0
0
0
0
0
0
0
0
0
0
0
0
0
0
0
0
0
0
0
0
0
0
0
0
0
0
0
0
0
0
0
0
0
0
0
0
0
0
0
0
0
0
0
0
0
0
0
0
0
0
0
0
0
0
0
0
0
0
0
0
0
0
0
0
0
0
0
0
0
0
0
0
0
0
0
0
0
0
0
0
0
0
0
0
0
0
0


VECTORS element_materi_velocity float
3.548346402531e-04 6.177771225815e-04 0.0 
3.998631013275e-04 5.035606408114e-04 0.0 
8.208423069178e-04 5.170690251318e-04 0.0 
1.353203612048e-04 1.491061740668e-03 0.0 
9.760359447646e-04 8.389872765751e-03 0.0 
2.301592682831e-04 -1.816176409251e-04 0.0 
7.545896697878e-04 8.369949225631e-03 0.0 
3.497215059310e-04 3.984168595584e-04 0.0 
8.271261264083e-04 8.409662627977e-03 0.0 
2.008691789608e-04 1.523544232474e-03 0.0 
3.249315938702e-05 -5.819239568331e-05 0.0 
2.810715451174e-04 3.985240314590e-04 0.0 
1.289029019138e-05 -1.552381935128e-06 0.0 
1.612732123175e-03 7.026931846236e-03 0.0 
1.054747283044e-05 -3.308627140421e-07 0.0 
1.108114141568e-04 1.050942774743e-03 0.0 
1.190823169972e-03 8.553398431789e-03 0.0 
2.378512963150e-04 -2.008721097297e-04 0.0 
3.773616978854e-05 -1.879078773700e-04 0.0 
2.852103342837e-05 -1.826100130012e-04 0.0 
2.406599372042e-04 1.558862664923e-03 0.0 
5.006827045880e-04 9.806239570748e-04 0.0 
6.250491983384e-04 1.022022115619e-03 0.0 
2.266369723159e-04 2.418876769800e-06 0.0 
2.049761317465e-03 5.533259712960e-03 0.0 
3.532748622145e-05 -5.047573644491e-05 0.0 
1.558849120634e-03 7.725012632717e-03 0.0 
5.239440420121e-04 1.204504538942e-04 0.0 
2.165770564791e-03 5.299541703556e-03 0.0 
1.829185119045e-04 4.886552181195e-06 0.0 
2.641692956479e-04 -2.754357238299e-04 0.0 
1.836971049127e-04 -2.613001006848e-04 0.0 
9.760237936042e-04 6.675501166669e-04 0.0 
9.476866835798e-06 -1.843951817785e-05 0.0 
7.669629175948e-05 -1.125352587338e-06 0.0 
2.027303183517e-05 -8.367678859096e-09 0.0 
1.843247463915e-05 -5.098973085191e-08 0.0 
2.736140717959e-04 2.989002009452e-05 0.0 
6.138187914325e-04 9.341724905689e-03 0.0 
5.635444702503e-04 9.357078896700e-03 0.0 
1.067165034502e-03 1.798347126883e-03 0.0 
7.806219682156e-05 1.525700031634e-06 0.0 
2.438626862816e-04 2.028314913568e-04 0.0 
1.808237668829e-03 7.063418887973e-03 0.0 
6.989362525348e-05 2.119656281036e-03 0.0 
2.604391465572e-04 1.386968460608e-04 0.0 
2.497142220328e-04 -2.759697889612e-04 0.0 
8.026590471358e-05 1.797736626715e-03 0.0 
2.286010456157e-04 -2.797649066439e-04 0.0 
1.501574386097e-03 7.554107187980e-03 0.0 
8.074735060367e-04 1.353342847652e-03 0.0 
3.528806969417e-05 -1.759652021413e-04 0.0 
3.092537561797e-04 -2.704431449690e-04 0.0 
8.497078382437e-04 1.669416258297e-03 0.0 
7.555281761662e-04 7.468890351802e-04 0.0 
5.594725519300e-05 -1.579139601738e-04 0.0 
2.748555177759e-05 -1.706441753188e-04 0.0 
1.923005261737e-05 -1.893172607998e-05 0.0 
8.821351110007e-05 -2.069911789806e-04 0.0 
1.342281703252e-04 1.058264329387e-03 0.0 
2.152466812345e-04 -2.643315141125e-04 0.0 
6.158935760636e-04 9.474148087801e-05 0.0 
7.764438744455e-04 2.711053108602e-04 0.0 
2.922470105777e-04 -2.728690574469e-04 0.0 
2.114140476241e-05 -1.621912841214e-06 0.0 
6.363976161431e-04 1.279744771612e-03 0.0 
2.176962341341e-04 -2.579479553768e-04 0.0 
9.546515247349e-04 5.697668941927e-04 0.0 
2.293381480733e-04 -2.653143633228e-04 0.0 
6.304106241811e-04 2.310723747272e-04 0.0 
5.247667070248e-05 -4.359957379754e-05 0.0 
1.447620534205e-04 2.733876505974e-04 0.0 
6.849839620222e-04 1.519590735213e-04 0.0 
7.114449124538e-06 -2.094094560443e-04 0.0 
4.893136734884e-05 -1.514574250268e-04 0.0 
4.958271082569e-04 1.314658769046e-03 0.0 
9.141067063220e-04 8.732316114504e-04 0.0 
2.251942955058e-04 -1.757803150331e-06 0.0 
9.736551315010e-05 -2.067114515704e-04 0.0 
2.130370170167e-04 4.194499092217e-05 0.0 
2.387708621790e-04 -2.690341002512e-04 0.0 
1.164876980866e-03 8.338458904364e-03 0.0 
5.003902131851e-04 7.759973181896e-04 0.0 
3.922759854475e-04 7.571056859634e-04 0.0 
9.654732865754e-04 7.827709347393e-03 0.0 
8.877332279133e-04 7.816224750634e-03 0.0 
3.032787300878e-05 -3.642024674338e-05 0.0 
5.162980564625e-06 -2.329015362026e-05 0.0 
2.021475970082e-03 1.365528642781e-03 0.0 
1.048361218052e-03 8.324392024895e-03 0.0 
1.909945671640e-04 -2.636880589427e-04 0.0 
2.047496025283e-03 6.580083283780e-03 0.0 
1.976031058538e-04 4.262050566090e-03 0.0 
2.364057984993e-04 4.611453430648e-03 0.0 
2.876404737384e-04 4.989521349921e-04 0.0 
2.006404985072e-04 2.616609875605e-05 0.0 
1.290754639651e-03 8.246797152611e-03 0.0 
8.898588343342e-05 4.266275765123e-07 0.0 
1.320377027960e-04 6.781287319577e-03 0.0 
6.863703344825e-04 3.291292335801e-04 0.0 
9.149017910588e-04 8.891380391893e-03 0.0 
1.358116703838e-05 -3.834240647324e-07 0.0 
8.987250196650e-04 4.109045169882e-05 0.0 
5.812588051075e-04 8.123208220310e-05 0.0 
5.600468375999e-04 1.351136353345e-05 0.0 
2.403058702004e-04 -2.794409169399e-04 0.0 
1.535116478523e-05 -6.509350294090e-06 0.0 
2.047999938996e-04 3.668232708449e-03 0.0 
2.222640321065e-04 -2.760870063725e-04 0.0 
2.557118338274e-05 -4.209886633909e-07 0.0 
2.131005272302e-03 1.440953387326e-03 0.0 
1.290082877483e-05 -2.138670541109e-04 0.0 
8.789487043131e-04 -2.702018980258e-05 0.0 
2.080802910266e-03 4.772592351390e-03 0.0 
7.996241503453e-05 -1.340288755331e-04 0.0 
5.812538025350e-04 2.915231429946e-04 0.0 
7.567623571128e-04 1.868210997436e-04 0.0 
5.364446718500e-05 4.227316838465e-07 0.0 
1.650668960601e-04 7.200217181976e-03 0.0 
6.562248932849e-04 1.564602042142e-04 0.0 
2.000733662028e-04 -2.519655758240e-04 0.0 
2.062404362919e-03 6.496278659234e-03 0.0 
1.634455578351e-04 3.360157327152e-03 0.0 
6.479944599494e-04 8.980109989530e-05 0.0 
2.027249830211e-04 -9.665108145146e-05 0.0 
1.665144570603e-03 3.069069670648e-03 0.0 
7.053720917308e-05 -1.369581797887e-04 0.0 
1.471550033512e-03 2.906021053448e-03 0.0 
3.827842328592e-04 9.211828256632e-04 0.0 
2.275947234962e-04 -1.142650012574e-04 0.0 
4.964961473482e-05 -5.045476511810e-05 0.0 
1.064919275551e-04 1.476792281162e-03 0.0 
1.321941585160e-03 8.534209526592e-04 0.0 
1.391049761268e-03 2.404575564682e-03 0.0 
8.372447561399e-05 -8.715153752565e-07 0.0 
8.818439588111e-06 -1.458178233799e-06 0.0 
4.282399059960e-05 -3.679738746931e-05 0.0 
1.484940051355e-03 9.458471688155e-04 0.0 
1.237561730298e-04 4.737449657444e-06 0.0 
1.282508950776e-03 1.182037653182e-03 0.0 
2.857612461030e-04 1.067068611411e-03 0.0 
7.678537581621e-04 3.005141812059e-04 0.0 
1.724430116468e-03 6.843136085591e-03 0.0 
4.402513620435e-04 5.600971278877e-03 0.0 
1.215051941102e-03 9.530217943682e-04 0.0 
1.155585146317e-03 2.225495549200e-03 0.0 
1.557095340157e-03 8.412601407571e-04 0.0 
6.974413053741e-04 3.715876972303e-07 0.0 
7.054361824752e-04 8.859544043758e-03 0.0 
8.415061699306e-04 -6.633047473987e-05 0.0 
1.766421334759e-04 -2.557918215479e-04 0.0 
1.820532698017e-04 8.113388070879e-03 0.0 
3.477679356473e-05 -1.942723098769e-04 0.0 
1.888516391124e-03 3.902020608996e-03 0.0 
9.774926955900e-05 4.000768631052e-06 0.0 
5.649070184666e-04 6.776715842265e-05 0.0 
2.268645233776e-05 -2.988929327120e-05 0.0 
2.864273097898e-04 2.382882867057e-04 0.0 
9.539804267429e-04 6.089328992851e-05 0.0 
4.179849793047e-04 8.544467821658e-03 0.0 
7.675126550983e-04 -8.584488132950e-05 0.0 
2.141215309120e-05 -1.435154594616e-05 0.0 
2.103875915831e-04 -2.564919867516e-04 0.0 
2.155519309653e-05 -6.640188208258e-06 0.0 
2.299753140259e-03 3.191719797136e-03 0.0 
2.925894270233e-05 -1.157876488162e-06 0.0 
1.794523164033e-04 8.616455262177e-03 0.0 
6.195766883948e-04 -1.809742171045e-05 0.0 
1.900727654063e-03 4.656242481628e-03 0.0 
2.090381342120e-05 -5.981151363367e-05 0.0 
2.622926962636e-04 3.166062461767e-04 0.0 
7.405237577594e-04 -1.162776369959e-04 0.0 
3.935293353252e-04 5.070040547907e-03 0.0 
4.706875007737e-04 8.883449592521e-03 0.0 
7.495511331940e-04 -2.715776795883e-05 0.0 
1.704729648179e-03 3.719448585886e-03 0.0 
1.517951353698e-03 6.091996018378e-04 0.0 
7.966536885313e-05 -1.241552113197e-04 0.0 
4.020813914431e-04 8.849783283923e-05 0.0 
7.209466933483e-04 2.480649483719e-04 0.0 
5.038939638448e-04 3.475074963036e-04 0.0 
6.972147941884e-05 -1.180704790600e-04 0.0 
3.669101813458e-04 -1.095881515996e-06 0.0 
1.150574773819e-03 1.306882140111e-03 0.0 
4.182890482806e-04 3.096489468327e-04 0.0 
2.241498722875e-03 4.194053608007e-03 0.0 
8.330305789169e-04 -5.394235434699e-06 0.0 
2.015831540496e-04 1.142141638450e-03 0.0 
2.204100111479e-03 1.988123354301e-03 0.0 
1.473378060651e-05 -9.976445105189e-06 0.0 
2.402348892945e-04 6.153407826601e-05 0.0 
6.553639384857e-04 -1.549987043678e-04 0.0 
2.046164681923e-03 1.516844598225e-03 0.0 
1.549333850203e-04 -1.636085647537e-04 0.0 
1.222903301946e-03 1.609295891346e-03 0.0 
3.695397549546e-04 -2.881162022409e-05 0.0 
1.203034041426e-04 -2.256568158248e-04 0.0 
1.002668408642e-03 8.499260256787e-04 0.0 
2.324429425052e-03 3.919459452667e-03 0.0 
2.957913928196e-04 -1.858649050604e-04 0.0 
3.947826414142e-04 -2.680486792313e-05 0.0 
2.173320773824e-03 6.088477249613e-03 0.0 
1.955682211970e-03 6.087482671967e-03 0.0 
1.686519270502e-04 3.321347852899e-06 0.0 
2.249366277361e-04 -2.064010031413e-04 0.0 
1.527708199382e-03 5.933729264525e-04 0.0 
2.283343917637e-03 2.421916187294e-03 0.0 
2.225873285168e-03 3.652645379220e-03 0.0 
2.417642561628e-03 3.295501641906e-03 0.0 
2.208779238622e-03 3.585607983171e-03 0.0 
9.150696716464e-04 -2.685227302164e-05 0.0 
1.683043549398e-03 7.227070618126e-04 0.0 
1.896561500205e-04 -1.865286283579e-04 0.0 
5.047745080736e-04 4.610877555964e-04 0.0 
7.057707546381e-04 4.376024452450e-04 0.0 
1.476338300530e-03 6.708420976183e-04 0.0 
2.064264494167e-03 1.841435564051e-03 0.0 
2.872434438728e-04 -1.922570128135e-04 0.0 
3.614674508618e-04 -4.256560210474e-05 0.0 
5.272640586986e-04 8.757501402483e-03 0.0 
6.766783840605e-04 -1.310099176011e-04 0.0 
3.480779890965e-04 -5.541912007805e-05 0.0 
1.531430604451e-04 -2.436054964274e-04 0.0 
2.178081273790e-03 3.175940751645e-03 0.0 
1.481506125683e-04 -2.441719605525e-04 0.0 
1.105945890681e-04 -2.193106663253e-04 0.0 
2.270324894932e-04 1.142501090000e-04 0.0 
2.158463228053e-04 -2.207386065084e-04 0.0 
2.035620723446e-03 2.901534225365e-03 0.0 
2.183376952601e-04 -2.297399722493e-04 0.0 
3.388929749305e-04 -4.113605320471e-05 0.0 
2.816218783908e-04 -2.733348907934e-04 0.0 
1.984320338537e-04 -2.446339081292e-04 0.0 
3.982954697791e-04 -1.204956824060e-05 0.0 
2.230293722991e-03 2.716135127753e-03 0.0 
2.527685577029e-05 -1.700361174075e-06 0.0 
1.698354961775e-04 -1.838042429455e-04 0.0 
4.318410968897e-04 -5.903011852809e-05 0.0 
7.764237186721e-04 -1.259618826331e-04 0.0 
9.526021741690e-04 1.179859965004e-03 0.0 
3.866158067309e-04 -4.141334220038e-05 0.0 
3.181349150829e-05 -7.495808220580e-07 0.0 
2.319638486747e-03 2.327801640758e-03 0.0 
4.999110864147e-04 -1.835792215444e-04 0.0 
3.725690315017e-04 -1.500299827672e-05 0.0 
2.565842459828e-05 -4.324340439843e-05 0.0 
1.696245161325e-03 9.223958757529e-04 0.0 
2.353029920401e-03 3.203391425947e-03 0.0 
5.318716815154e-04 9.217091993794e-05 0.0 
7.450281777635e-04 -1.484839310682e-04 0.0 
3.821416999865e-04 -2.963768509802e-05 0.0 
2.508588731233e-03 2.939120135793e-03 0.0 
2.340748396631e-04 4.686094613178e-04 0.0 
1.449674994066e-03 4.635304928476e-04 0.0 
8.354489586936e-04 -1.245905159168e-04 0.0 
4.114862538824e-04 7.940082711729e-03 0.0 
2.367267881716e-04 -2.740213241707e-04 0.0 
2.451937436906e-03 3.783882644251e-03 0.0 
5.106117213429e-04 -1.625926931807e-04 0.0 
3.451106340286e-04 -2.043464686073e-04 0.0 
2.781813675430e-04 -2.723878307869e-04 0.0 
1.961108543002e-03 3.058912583550e-03 0.0 
2.386705925591e-03 2.506221020503e-03 0.0 
7.209988960619e-04 5.401431441378e-05 0.0 
1.795698961916e-03 2.736968664150e-03 0.0 
2.192741664218e-03 1.800164824172e-03 0.0 
1.917130687698e-03 1.215317982839e-03 0.0 
3.717255108461e-05 -2.764550772968e-08 0.0 
8.256496399167e-04 -1.165529068686e-04 0.0 
2.127181427869e-03 1.544043009289e-03 0.0 
9.623803900738e-04 -1.594999662026e-06 0.0 
8.560974598197e-04 -9.540330360204e-05 0.0 
4.081217615359e-04 -2.121817168577e-04 0.0 
1.819572908572e-03 7.241353259924e-03 0.0 
7.340560945733e-04 -1.681419942190e-04 0.0 
4.222100646511e-04 -2.515005122140e-04 0.0 
2.309030736449e-03 2.547500265999e-03 0.0 
1.676785124250e-04 -1.995636271784e-04 0.0 
2.515653912531e-03 3.791803099079e-03 0.0 
5.333276136689e-04 -1.938971653355e-04 0.0 
4.308827488351e-04 -9.542251115796e-05 0.0 
4.007455007447e-04 -2.261530138433e-04 0.0 
2.492917833042e-03 2.582928912560e-03 0.0 
1.946621432423e-04 -2.609435739881e-04 0.0 
8.553755676380e-04 6.189043474582e-04 0.0 
8.325884981622e-04 -8.571274361639e-05 0.0 
2.451545152315e-03 2.904221805733e-03 0.0 
1.964674338083e-03 6.626772552644e-03 0.0 
2.636798107530e-04 -2.139260645648e-04 0.0 
4.385142755607e-04 -2.489471315366e-04 0.0 
3.792880225930e-04 -2.582741936001e-04 0.0 
6.015347669194e-04 5.135766139524e-04 0.0 
2.390393591871e-03 2.957810136610e-03 0.0 
8.282063592183e-04 4.851842725768e-04 0.0 
6.843670421089e-04 -1.822613623389e-04 0.0 
6.878137712760e-04 -1.627884721977e-04 0.0 
2.871933099720e-04 -2.103658692742e-04 0.0 
9.952040603738e-04 -1.791914044508e-05 0.0 
2.704234814513e-04 -6.334495480474e-05 0.0 
3.912016172139e-04 3.643846453514e-04 0.0 
4.435349837332e-04 3.119269903626e-04 0.0 
1.482553207479e-03 4.082126808427e-04 0.0 
4.555343061160e-04 -1.901338490131e-04 0.0 
3.856472924822e-04 -1.334707973854e-04 0.0 
2.127819531694e-03 1.369713299289e-03 0.0 
4.207797912193e-04 -1.761313823566e-04 0.0 
3.939733386418e-04 -2.570980081282e-04 0.0 
1.786212997868e-03 1.130053122014e-03 0.0 
3.714541519322e-04 1.293241586382e-03 0.0 
5.997852303636e-04 -1.662185657151e-04 0.0 
9.703136270577e-04 -9.249035148708e-06 0.0 
3.071786759986e-04 -8.721346585496e-05 0.0 
6.496770537769e-05 5.210043540230e-06 0.0 
4.251988633311e-04 -1.531373437313e-04 0.0 
1.733566669647e-03 8.187147759329e-04 0.0 
3.139253593948e-04 -2.240462031407e-04 0.0 
5.624095683601e-04 -9.097193724525e-05 0.0 
7.686351425435e-04 -1.518007727580e-04 0.0 
3.890992078652e-04 -2.528381747558e-04 0.0 
2.196934513066e-03 2.056023992228e-03 0.0 
3.438810870059e-04 1.603346774726e-04 0.0 
6.113169505062e-04 -1.914658563893e-04 0.0 
7.850823740897e-04 -9.600314520902e-05 0.0 
3.114333028743e-04 -1.182398023048e-04 0.0 
1.531911641997e-03 5.603016924331e-03 0.0 
3.725005441131e-04 -5.513393895941e-05 0.0 
4.318029091708e-04 3.178599495101e-05 0.0 
1.467081165592e-03 6.145076494362e-03 0.0 
2.891107507114e-04 9.386829809966e-05 0.0 
3.238134115670e-04 -3.196896739480e-05 0.0 
3.878549669295e-04 2.066059011760e-04 0.0 
1.812273054830e-03 5.847955629810e-03 0.0 
2.083928023951e-03 1.277147956558e-03 0.0 
3.257619846980e-04 4.963502074101e-05 0.0 
1.990359309805e-03 2.181171765578e-03 0.0 
2.220439673199e-03 1.827563261846e-03 0.0 
2.308184360070e-03 1.899788571200e-03 0.0 
1.268447602707e-03 3.040573717441e-04 0.0 
2.361985358929e-04 6.144483516404e-05 0.0 
2.204462406436e-03 5.560632999174e-03 0.0 
2.366767499789e-03 4.288546424317e-03 0.0 
6.617316835916e-04 -1.802246820074e-04 0.0 
2.068738513300e-04 -2.335569018839e-04 0.0 
1.969945337776e-03 2.880212996666e-03 0.0 
4.905896998263e-04 -2.838805349796e-06 0.0 
3.585657708066e-04 8.852964486174e-03 0.0 
3.724538920921e-04 -2.518429910142e-04 0.0 
5.818203300683e-04 -1.852495079268e-04 0.0 
2.146961155987e-03 2.552213923228e-03 0.0 
4.868358652507e-04 -4.750882423521e-05 0.0 
2.060850632169e-03 1.951103241733e-03 0.0 
7.553444143343e-04 -8.435314583982e-05 0.0 
3.666245766388e-04 -1.289399939982e-04 0.0 
1.554777013942e-04 2.927939420074e-05 0.0 
1.433440614969e-03 1.763178846662e-03 0.0 
4.363887343348e-04 -2.449752114678e-04 0.0 
3.010998756616e-04 -1.976959197379e-04 0.0 
4.152571896361e-04 2.262961273017e-04 0.0 
4.290987829452e-04 8.742680193109e-05 0.0 
1.895834785591e-03 1.397108835883e-03 0.0 
1.843835411691e-03 8.896226702315e-04 0.0 
9.126389890109e-04 9.593811562528e-04 0.0 
1.815434315643e-03 2.044759221510e-03 0.0 
1.041943681543e-04 1.241231118315e-05 0.0 
2.685146345159e-04 2.539898575258e-05 0.0 
1.902576150574e-03 1.533741271580e-03 0.0 
2.237511660014e-03 2.976854978411e-03 0.0 
3.817285252227e-04 -1.428972788121e-04 0.0 
8.944184094835e-04 3.117571098979e-04 0.0 
4.466268278450e-04 -2.071674975340e-04 0.0 
5.182690336874e-04 -2.090105230364e-04 0.0 
1.645786747331e-03 6.601098697712e-04 0.0 
5.924440205422e-04 -1.049845672811e-04 0.0 
1.965801143775e-04 -1.333538013773e-04 0.0 
1.847259133493e-03 1.941848530059e-03 0.0 
4.225858297003e-04 -2.506349265496e-04 0.0 
1.106015559330e-03 1.766176997212e-04 0.0 
2.012271262853e-03 1.460433971562e-03 0.0 
9.407418312543e-04 1.778221015482e-04 0.0 
4.191061254316e-04 2.546023911714e-04 0.0 
4.341469972603e-04 3.509502469668e-04 0.0 
1.017787886918e-03 8.033055433677e-04 0.0 
3.740957389290e-04 -1.174271090660e-04 0.0 
1.712122027515e-03 2.847626905694e-03 0.0 
3.783496776920e-04 1.650840949567e-05 0.0 
5.891498554837e-04 -2.049443443673e-04 0.0 
3.420539270586e-04 -2.203779025695e-04 0.0 
1.000225700878e-03 6.853339426330e-04 0.0 
1.623882558737e-03 7.675772659735e-03 0.0 
1.694048845723e-03 5.977928455139e-03 0.0 
1.697823082260e-04 9.563790473115e-06 0.0 
1.854864094732e-03 1.140897584339e-03 0.0 
2.538402616171e-03 3.338320426794e-03 0.0 
2.286669655266e-03 1.678071768017e-03 0.0 
3.678182395289e-04 -2.303257800949e-04 0.0 
2.188767560332e-04 -2.749994890483e-04 0.0 
8.785161598677e-04 -7.853442444251e-05 0.0 
1.244829792760e-03 1.826986628113e-04 0.0 
9.487823645502e-04 -5.554828028828e-05 0.0 
1.947181997986e-04 -6.538888230057e-05 0.0 
3.462110308406e-04 7.677506710622e-03 0.0 
2.085385639787e-04 -2.417152517283e-04 0.0 
4.765602176936e-04 -1.182224842266e-04 0.0 
3.524641286279e-05 3.078589226139e-06 0.0 
8.158025006294e-04 -3.220282452275e-05 0.0 
2.352297963913e-03 4.843349958643e-03 0.0 
2.388725211009e-05 -1.963989789182e-04 0.0 
1.332791445010e-03 4.064672341060e-04 0.0 
8.404226059482e-04 -1.077330766694e-04 0.0 
2.437209536423e-03 2.254363696788e-03 0.0 
3.310840301662e-04 1.358034671247e-04 0.0 
2.073392996056e-03 2.580311456532e-03 0.0 
2.033210272178e-03 1.149354909599e-03 0.0 
2.145139709691e-04 -1.370300014355e-04 0.0 
1.935207117654e-03 2.470000332004e-03 0.0 
3.546858378423e-04 -1.036320326910e-04 0.0 
3.201203570048e-04 1.170136907350e-04 0.0 
2.069584290302e-04 1.171874553371e-04 0.0 
1.884419072854e-04 1.879464529129e-04 0.0 
2.313872873318e-04 1.745120545283e-04 0.0 
2.395136134311e-03 1.980824493350e-03 0.0 
1.987117163971e-03 2.319765803101e-03 0.0 
1.704158242368e-03 1.141857455600e-03 0.0 
9.773617403865e-04 2.605308172617e-04 0.0 
9.267804741008e-04 4.173628599495e-04 0.0 
1.711958731490e-04 -1.373662792483e-04 0.0 
1.877875258495e-03 1.807910234695e-03 0.0 
2.624065098942e-04 7.603819393721e-05 0.0 
1.684599145512e-03 2.301433100218e-03 0.0 
8.506710619092e-04 -6.378618512243e-05 0.0 
1.749595120806e-03 2.191843126257e-03 0.0 
1.368054521087e-03 2.239037481269e-04 0.0 
1.151379087637e-03 1.434967366018e-04 0.0 
1.043154578987e-03 8.573874725453e-04 0.0 
3.476115423563e-04 -1.396031093120e-04 0.0 
5.479292769280e-04 9.736392971588e-04 0.0 
8.381169830187e-04 1.447641830677e-04 0.0 
7.747569757359e-04 1.989406555621e-04 0.0 
1.882622064619e-04 -1.409771113211e-04 0.0 
3.344853372630e-04 -2.550676628373e-04 0.0 
1.284783409276e-04 7.779487255114e-06 0.0 
5.392071340576e-04 -7.443071329860e-05 0.0 
1.808965378993e-04 8.941844583887e-05 0.0 
7.811674347015e-04 6.652392761500e-04 0.0 
1.846004731906e-03 7.898122577113e-04 0.0 
2.136153723551e-04 -2.777380912733e-04 0.0 
1.680994810595e-04 6.488723549100e-05 0.0 
1.685451403228e-04 1.464904457939e-05 0.0 
3.495008773940e-04 -2.571315808626e-04 0.0 
7.647272289788e-04 -6.396547082787e-05 0.0 
1.432061986673e-04 2.418679569503e-05 0.0 
2.063361392366e-04 -2.782351907948e-04 0.0 
1.005222047575e-03 1.400596655500e-04 0.0 
2.015494423118e-03 1.018517754496e-03 0.0 
1.664544506315e-03 5.848405329325e-04 0.0 
1.937431593199e-03 1.078568630877e-03 0.0 
3.854249734486e-04 -1.036867626095e-04 0.0 
1.370898747661e-04 4.174184285561e-05 0.0 
6.551521089453e-04 -1.944514476576e-04 0.0 
2.665587098838e-04 -2.308791139172e-04 0.0 
4.851402659560e-05 -5.157779098767e-07 0.0 
2.074102745788e-04 -2.761107642902e-04 0.0 
1.548923615512e-03 1.580853838015e-03 0.0 
2.679300761420e-04 -2.772607885268e-04 0.0 
2.035872163075e-03 3.409924853922e-03 0.0 
8.755145015663e-05 8.957552611113e-06 0.0 
1.108819007648e-04 2.714848408244e-05 0.0 
2.388041207891e-03 2.212554134792e-03 0.0 
2.436334200383e-04 -2.806892209520e-04 0.0 
2.470305703529e-04 -2.344730919981e-04 0.0 
2.568025523648e-04 -2.790431576702e-04 0.0 
1.615477204459e-04 -1.959138304402e-05 0.0 
1.637917458777e-03 7.782929753302e-03 0.0 
2.425827446870e-03 4.799474829211e-03 0.0 
8.224117372910e-05 1.629126576489e-05 0.0 
1.462397485428e-03 8.157002216196e-03 0.0 
3.586555181306e-04 3.831239030737e-04 0.0 
1.287384324215e-03 1.997963745008e-04 0.0 
1.495553826418e-03 6.635858013546e-03 0.0 
4.903981813354e-04 1.757698585233e-04 0.0 
8.125477524813e-04 -5.368891170310e-05 0.0 
3.170322002657e-04 -1.899059127178e-04 0.0 
6.996967100221e-05 1.119866725918e-05 0.0 
2.121476964014e-04 1.374149358343e-04 0.0 
2.027597099285e-04 1.764381924384e-04 0.0 
3.308103319919e-04 -1.016225607229e-04 0.0 
1.465669618895e-04 -1.410968135235e-04 0.0 
1.096542030221e-03 8.023234927198e-05 0.0 
3.106797734007e-04 -8.863000041083e-05 0.0 
5.774345895536e-05 7.461669033806e-06 0.0 
4.706540131561e-04 -1.461532820241e-04 0.0 
4.333670781357e-04 -2.464886595298e-04 0.0 
4.215916700330e-04 -2.390583408246e-04 0.0 
1.357620802011e-03 6.195000582377e-03 0.0 
5.566809306573e-05 3.901809804210e-06 0.0 
2.349840735950e-04 -2.817693419755e-04 0.0 
4.110054095765e-05 4.006910461766e-06 0.0 
3.783361454595e-04 -2.440479316408e-04 0.0 
1.629845491066e-04 7.091623163371e-05 0.0 
1.687876263351e-03 1.036962159500e-03 0.0 
2.098388686125e-04 -2.813452387055e-04 0.0 
1.008475508713e-03 4.841619971851e-05 0.0 
1.528551387037e-03 2.481759560246e-03 0.0 
1.520208759453e-04 5.212645524405e-05 0.0 
2.324453100975e-03 1.717298128171e-03 0.0 
1.131533690412e-03 1.411562954343e-04 0.0 
2.812324934251e-04 -1.244171057298e-04 0.0 
2.615003784719e-04 1.254524303434e-05 0.0 
3.628257008473e-04 -2.319527559377e-04 0.0 
4.016315938669e-04 -2.374513196074e-04 0.0 
2.232026219342e-04 -2.820826636642e-04 0.0 
1.253166351281e-04 3.429635108160e-05 0.0 
3.782512072901e-04 -2.003230491471e-04 0.0 
3.049913331847e-04 -2.140611307216e-05 0.0 
1.394602313585e-03 7.236318747134e-03 0.0 
2.752055026464e-04 -2.308098984070e-04 0.0 
4.149415373986e-04 -2.466501365997e-04 0.0 
2.199563072220e-03 1.431516748662e-03 0.0 
7.323652766514e-05 1.298812843584e-05 0.0 
1.383158771247e-04 -1.309348176774e-04 0.0 
3.309884475727e-04 -6.709161327807e-05 0.0 
1.421625707629e-03 2.700054305885e-04 0.0 
4.911508822163e-04 -1.091215091180e-04 0.0 
4.620696844867e-04 -2.394007648030e-04 0.0 
3.574313171071e-04 -9.185297294664e-05 0.0 
1.406933643288e-03 3.090629039650e-04 0.0 
1.604676614568e-03 4.262827638425e-04 0.0 
7.633944307889e-04 -2.310116187928e-05 0.0 
1.268343679200e-03 1.536410802810e-04 0.0 
2.422156392723e-04 -1.528842298329e-04 0.0 
5.298898345550e-04 -1.087519806602e-04 0.0 
1.628920703065e-04 -1.445298963114e-04 0.0 
1.217450068279e-03 1.560464036631e-04 0.0 
7.636387357984e-04 -1.160895853376e-04 0.0 
7.634695382045e-05 7.085499687906e-06 0.0 
1.480900541553e-03 1.981993876578e-03 0.0 
2.601797118886e-04 -2.354323901114e-04 0.0 
4.645090919898e-05 4.950642149346e-06 0.0 
1.931194909371e-04 1.361415996213e-05 0.0 
9.689851048667e-04 -6.356758005760e-05 0.0 
2.262581000755e-04 -2.828387949838e-04 0.0 
4.850521886340e-05 2.996529244465e-06 0.0 
1.647334812136e-03 1.706538494880e-03 0.0 
3.394183537957e-04 -2.471707082165e-04 0.0 
2.972129251490e-05 2.131454314090e-06 0.0 
3.108243453975e-04 -7.751434298954e-05 0.0 
1.104659722764e-03 6.041893700530e-04 0.0 
2.504013458371e-03 4.252591749713e-03 0.0 
7.806970399678e-04 -1.269487870115e-04 0.0 
3.425515149955e-04 -1.262305946502e-04 0.0 
5.279807489000e-04 -9.304522342369e-05 0.0 
2.392155674060e-03 3.669291272627e-03 0.0 
1.565861935967e-03 1.165536753113e-03 0.0 
7.976730767675e-04 9.066990769740e-06 0.0 
3.341573823137e-04 7.098201467660e-03 0.0 
2.236775420100e-04 -1.487849854637e-04 0.0 
7.223850174331e-04 -5.261580007212e-05 0.0 
3.439464745100e-04 -2.282542729381e-04 0.0 
1.619645566883e-04 -6.553590371263e-05 0.0 
2.139271397414e-04 -2.838760309154e-04 0.0 
6.024908194281e-04 -6.136947965709e-05 0.0 
3.603161472940e-04 -2.414395668684e-04 0.0 
1.867144070458e-04 -1.220647807994e-04 0.0 
1.085678147848e-03 -1.678964804861e-06 0.0 
3.337003832535e-04 -7.872784355727e-05 0.0 
1.285027720247e-03 6.723773822416e-03 0.0 
3.231142125234e-04 -2.437542424061e-04 0.0 
2.594680055083e-05 1.770355490119e-06 0.0 
1.921885064354e-03 8.479210632533e-04 0.0 
1.591473034624e-04 -1.082577632057e-04 0.0 
1.754493748845e-03 6.436350265740e-04 0.0 
1.694421379715e-04 -1.189332828435e-04 0.0 
2.128268882484e-04 -2.823811009241e-04 0.0 
2.518531616599e-03 4.167283340198e-03 0.0 
5.112899566869e-05 -1.258195341547e-04 0.0 
1.338851068478e-04 -2.422807720260e-04 0.0 
1.363208781636e-04 -1.133883289792e-04 0.0 
3.033004947986e-04 -5.525780664909e-05 0.0 
4.238247211447e-04 3.085438805778e-03 0.0 
5.479513965199e-04 -1.228096550630e-04 0.0 
5.233434335389e-04 -1.084946194757e-04 0.0 
2.185570306728e-03 5.476897750339e-03 0.0 
1.302200136096e-03 8.776062915658e-03 0.0 
6.353123037813e-04 8.316601164908e-04 0.0 
1.579344171779e-03 4.627857776089e-04 0.0 
1.258764294639e-04 -2.415382099840e-04 0.0 
1.870791735035e-04 -2.398191415747e-04 0.0 
2.212520418392e-04 -2.817161446409e-04 0.0 
2.280724972526e-04 -2.161895741653e-04 0.0 
1.461173839768e-03 5.327973184973e-04 0.0 
4.873694891749e-04 3.113652437356e-03 0.0 
1.729303761942e-04 -2.672772583749e-05 0.0 
1.894506793772e-04 -1.865125737528e-04 0.0 
1.463422715554e-04 -6.414500058375e-05 0.0 
2.636742582444e-04 -1.377360407971e-05 0.0 
3.115633635430e-04 -2.375901279391e-04 0.0 
3.629947445262e-05 -1.247423700010e-04 0.0 
2.812014473763e-05 -1.451891964753e-04 0.0 
4.318698552121e-05 2.178172261689e-06 0.0 
2.255841831258e-05 1.226173754346e-06 0.0 
3.580607606967e-05 -1.100536600586e-04 0.0 
1.425809312619e-04 -1.057111881245e-04 0.0 
3.261471714352e-04 -1.127082377500e-04 0.0 
2.571341961025e-04 -3.979676040171e-06 0.0 
1.842679200918e-04 -2.320094093832e-04 0.0 
2.669107712213e-04 -2.413869597043e-05 0.0 
1.004936934748e-04 -2.191305315007e-04 0.0 
1.456866243829e-04 -1.236130925656e-04 0.0 
1.935428194647e-04 -1.139553841589e-04 0.0 
8.014872650366e-05 -2.192711432759e-04 0.0 
2.925055318194e-05 -1.168344843985e-04 0.0 
1.408429717479e-03 2.051662095062e-03 0.0 
1.052523085411e-04 -2.355758203465e-04 0.0 
1.436491495908e-03 8.374679369166e-03 0.0 
1.383666735146e-03 8.410891995987e-03 0.0 
5.632350864913e-04 -7.450888304661e-05 0.0 
1.407118009974e-05 -1.452318971369e-04 0.0 
3.251327796844e-04 -2.343246180584e-04 0.0 
3.431345964471e-04 -7.879273808634e-05 0.0 
1.051238429443e-04 -8.954207242761e-06 0.0 
4.995789475418e-04 1.422085532736e-04 0.0 
8.862692991710e-04 3.702566217773e-03 0.0 
4.927457544675e-04 1.070577965195e-04 0.0 
1.916718007804e-04 -2.544578695659e-04 0.0 
1.732557126295e-03 1.708128558243e-03 0.0 
1.004673522318e-03 9.270158294713e-03 0.0 
9.308811536962e-04 9.612421684766e-03 0.0 
1.143220606509e-04 -2.358451354090e-04 0.0 
1.015784876331e-04 -2.247946196714e-04 0.0 
4.582176936679e-05 -2.046738108029e-04 0.0 
1.737962940440e-04 -2.061085357730e-04 0.0 
6.951118132644e-05 -2.197906671855e-04 0.0 
2.861823462852e-05 -1.017100988847e-04 0.0 
2.122840180942e-04 -2.752387813226e-04 0.0 
1.791808328530e-04 -1.918560711164e-04 0.0 
3.122303948869e-04 5.958480072263e-03 0.0 
1.168766668439e-03 9.214441670385e-03 0.0 
1.389794388008e-03 5.742761988571e-04 0.0 
2.872039952432e-04 -6.551007771007e-05 0.0 
2.695138482906e-04 6.866268008220e-03 0.0 
7.185837817932e-06 -1.381595188303e-04 0.0 
5.721550797306e-05 -2.092802311688e-04 0.0 
8.137482756285e-05 2.602683565971e-04 0.0 
1.869545779574e-04 5.378666337339e-04 0.0 
1.293536570996e-03 7.274310467988e-03 0.0 
1.099418178303e-03 9.189910238854e-03 0.0 
3.567698021209e-05 -1.386311552386e-04 0.0 
1.180338089679e-04 5.214378348457e-04 0.0 
1.837779312750e-04 -2.016056212570e-04 0.0 
1.262259246536e-03 8.886582975061e-03 0.0 
1.193798487553e-03 9.039246876580e-03 0.0 
1.783004488250e-03 2.721929836503e-03 0.0 
1.702136108452e-04 1.951774501607e-04 0.0 
1.454393163375e-04 5.152790995475e-04 0.0 
9.159819263195e-05 -2.246666833325e-04 0.0 
9.322234999826e-05 -2.301568892052e-04 0.0 
1.787956558668e-04 -2.422646277322e-04 0.0 
2.115679781206e-04 -1.170800460171e-04 0.0 
9.820910692477e-06 -3.595929666727e-06 0.0 
2.045568515123e-04 -2.689468076856e-04 0.0 
1.067151370258e-04 3.913434613216e-03 0.0 
2.160588623294e-04 -2.819710394146e-04 0.0 
4.962020267792e-04 -7.924814012860e-05 0.0 
2.144918067734e-04 -2.834043360810e-04 0.0 
2.114772719987e-04 -2.788050573444e-04 0.0 
4.647464287013e-04 -9.495518565721e-05 0.0 
4.016878832225e-05 -6.490466462688e-06 0.0 
2.575453433092e-04 6.294886157838e-03 0.0 
1.727985061312e-03 1.268606971315e-03 0.0 
5.786157911321e-05 -2.149907413388e-04 0.0 
1.181392203656e-04 -5.402305379744e-05 0.0 
2.667971579751e-05 3.145855503156e-04 0.0 
5.308481050980e-05 5.324537655962e-04 0.0 
1.091351828096e-03 9.419036938678e-03 0.0 
5.250052603883e-04 -6.141397129036e-05 0.0 
6.406448877466e-05 2.550107429504e-04 0.0 
1.070303766309e-03 1.096663278838e-04 0.0 
3.401153890189e-05 -2.064799822441e-04 0.0 
4.707765957568e-05 -2.163650908114e-04 0.0 
3.462135797061e-05 -2.124607520827e-04 0.0 
7.365874335245e-06 -1.235828509132e-04 0.0 
7.694489489415e-06 1.029151257662e-07 0.0 
1.388189931544e-05 1.455884560543e-03 0.0 
4.794244678689e-05 -2.221893538946e-04 0.0 
1.469683740554e-05 -1.006653763864e-04 0.0 
2.588453088961e-06 5.370978884481e-08 0.0 
1.096183367680e-05 1.547074633262e-07 0.0 
3.867778076221e-05 1.597753076110e-06 0.0 
5.737026280692e-05 4.902515005184e-03 0.0 
2.396463617722e-05 3.415252182379e-03 0.0 
5.106036400455e-06 4.920533692140e-08 0.0 
5.855797276345e-06 1.055021264048e-07 0.0 
5.207609862267e-05 3.913692375314e-03 0.0 
3.656229204534e-05 -2.239160888146e-04 0.0 
7.478619960086e-04 9.697102165642e-03 0.0 
1.014333270725e-03 9.541497697168e-03 0.0 
7.082372957498e-05 -2.254992448491e-04 0.0 
1.015187614669e-05 3.112963857978e-07 0.0 
3.542391187111e-05 1.145045054606e-06 0.0 
1.737469831754e-05 4.992904858406e-07 0.0 
6.003891457296e-05 -2.265235820855e-04 0.0 
8.308543211851e-05 -2.304699268123e-04 0.0 
2.062856720864e-05 9.519985073436e-07 0.0 
1.804921355357e-05 6.457545687659e-07 0.0 
2.925880036146e-05 5.411217424846e-03 0.0 
4.246747362402e-04 9.730189909491e-03 0.0 
2.811146244545e-05 4.402509360210e-03 0.0 
3.300400476878e-05 7.410983393661e-03 0.0 
1.910104049598e-04 9.722234420380e-03 0.0 
1.450842787346e-04 -2.482178730532e-04 0.0 
1.788706829536e-04 -2.631777613386e-04 0.0 
1.920270544217e-04 -2.702293691333e-04 0.0 
2.024695404536e-04 -2.765365777346e-04 0.0 
7.303580919950e-06 -9.275745902439e-05 0.0 
7.393256485595e-06 -1.083637555424e-04 0.0 
1.846415391325e-04 -2.651346503114e-04 0.0 
6.808944304398e-06 -4.890006281521e-05 0.0 
1.968605892259e-04 -2.721842915365e-04 0.0 
1.428784203178e-04 2.255644843947e-04 0.0 
5.396932019323e-05 2.664270918953e-04 0.0 
1.055797503945e-04 2.775982771368e-04 0.0 
7.267200448643e-06 -1.887843149025e-04 0.0 
6.885342281810e-06 -1.519423954746e-04 0.0 
5.009647196584e-05 3.219071049596e-04 0.0 
4.313886271173e-06 -1.361828107535e-05 0.0 
2.640509471229e-05 2.178682152807e-04 0.0 
3.074813296881e-06 -6.186608478363e-06 0.0 
1.814826945700e-06 -1.589411895542e-06 0.0 
1.475913082084e-05 -1.161893023806e-04 0.0 
1.040657921591e-04 5.883341968549e-04 0.0 
7.650156667813e-05 5.397753202403e-04 0.0 
7.388699568053e-06 -9.735388136515e-06 0.0 
4.889640242581e-06 -3.514244819675e-06 0.0 
6.796058551899e-05 -3.735637431141e-05 0.0 
2.161192769409e-04 -2.839321148476e-04 0.0 
1.226123665684e-04 -1.281868864610e-04 0.0 
1.122723971092e-04 -2.305541406066e-04 0.0 
9.701442643029e-05 -9.250543422780e-06 0.0 
1.622415119903e-04 -1.266114713486e-04 0.0 
7.573019618463e-05 -1.941390538119e-05 0.0 
1.776959603204e-04 -2.151277086004e-04 0.0 
1.302161049854e-04 -2.276049352665e-04 0.0 
5.103544088342e-05 -9.996951961673e-06 0.0 
1.203067281332e-04 -1.110278285753e-04 0.0 
2.899388990945e-05 -1.316187577989e-04 0.0 
6.620773536854e-05 -1.935568618874e-05 0.0 
1.550689722943e-04 2.471515820740e-03 0.0 
1.455171215318e-05 -1.311044207290e-04 0.0 
2.947371622528e-04 -4.442589823952e-05 0.0 
2.121044770190e-04 -7.017592932907e-05 0.0 
8.026451030541e-05 -3.774417904002e-05 0.0 
5.742954036489e-05 -3.075627479678e-05 0.0 
6.103496554055e-04 -2.058932553041e-04 0.0 
1.470320479446e-03 1.302126395771e-03 0.0 
1.070343382561e-03 1.037932649403e-05 0.0 
1.324610884878e-04 -5.504320854502e-05 0.0 
4.629321404588e-05 -1.443449429093e-05 0.0 
3.716129147156e-05 -2.472102149205e-05 0.0 
2.321699171428e-04 -2.346054898289e-04 0.0 
2.989735095550e-04 2.545897499492e-03 0.0 
3.679077972806e-04 3.540363306768e-03 0.0 
5.539131947128e-04 8.225680498668e-03 0.0 
1.465403143290e-04 -4.828347950422e-05 0.0 
1.051949457754e-04 -4.578489981893e-05 0.0 
2.015502174773e-04 2.522836123837e-03 0.0 
2.542452001878e-04 3.033884510873e-03 0.0 
2.293034896012e-04 -8.120674915867e-05 0.0 
3.401324267147e-05 -6.637096711311e-06 0.0 
7.994640875678e-04 3.690931639264e-03 0.0 
2.639455906109e-05 -2.439733636717e-05 0.0 
6.969505605135e-05 -5.454466166691e-06 0.0 
3.508757810679e-04 2.568412250039e-03 0.0 
6.129191505304e-04 5.134300289843e-03 0.0 
2.823920803252e-04 -5.488977164882e-05 0.0 
9.085373540248e-05 -1.821305058185e-04 0.0 
2.455368830235e-04 -2.479489387550e-04 0.0 
1.817469507945e-04 -2.495716880286e-04 0.0 
2.207418106383e-04 -2.832549495007e-04 0.0 
3.095364306778e-04 3.031784949366e-03 0.0 
3.659964524418e-05 -1.022547898608e-05 0.0 
2.155292566489e-04 -2.808983799965e-04 0.0 
1.716811640593e-03 1.373480094221e-03 0.0 
6.624374860577e-04 7.723301371916e-03 0.0 
8.916006830993e-05 -2.530514667438e-05 0.0 
4.763721677067e-05 -1.935842060199e-05 0.0 
3.072674054291e-04 -2.198287231211e-04 0.0 
3.841799214237e-05 -1.939366822393e-05 0.0 
6.220925855267e-04 8.241554127896e-03 0.0 
7.177974710951e-04 -3.323757830388e-05 0.0 
5.224153475094e-05 -2.612682759305e-06 0.0 
4.961735714468e-05 -1.759268958472e-04 0.0 
9.058568784392e-05 -4.787963260313e-06 0.0 
4.822512016684e-04 4.581878576718e-03 0.0 
7.027000001188e-05 -1.719981130049e-04 0.0 
2.454537550130e-04 -2.304698658987e-04 0.0 
6.151136763761e-05 -8.090514626490e-05 0.0 
7.932533263012e-04 6.210584156622e-03 0.0 
1.615253089454e-04 -1.615826976559e-04 0.0 
3.625968570131e-04 4.024496914892e-03 0.0 
5.136619334203e-04 5.602046517224e-03 0.0 
1.321335635715e-04 -9.567766783304e-05 0.0 
4.594930233905e-05 -3.059011912201e-05 0.0 
5.786075412571e-05 -2.485192954488e-05 0.0 
4.132514478508e-04 4.547460406882e-03 0.0 
1.169422534571e-04 -2.008783621835e-04 0.0 
1.107384265043e-04 -1.013847936789e-04 0.0 
6.896217158142e-04 5.723404518773e-05 0.0 
5.660993977469e-04 4.118779742491e-03 0.0 
1.139689637963e-04 -1.185046609454e-04 0.0 
1.947191830909e-04 -6.858149841574e-05 0.0 
1.217189006575e-04 -8.273707626175e-06 0.0 
5.359396605196e-04 5.105533956089e-03 0.0 
2.479446262176e-04 -2.473572450576e-04 0.0 
1.512478462546e-04 -2.350814448206e-04 0.0 
3.617521341640e-04 -2.418320009014e-04 0.0 
5.457346403433e-05 -1.435259751515e-05 0.0 
6.648921176596e-04 5.659495346399e-03 0.0 
4.308701762244e-05 -6.550833870012e-05 0.0 
7.844469019768e-04 7.237892077129e-03 0.0 
2.467987306885e-04 -1.529795390484e-05 0.0 
1.059572970737e-04 -8.433977411535e-05 0.0 
6.815102273512e-05 -2.493109190742e-05 0.0 
7.714656514814e-05 -1.794959965173e-04 0.0 
7.679794986853e-05 -5.237052527402e-06 0.0 
1.163052088443e-04 -9.371177379131e-05 0.0 
5.623787141156e-05 -1.703700561816e-04 0.0 
9.543209604546e-05 -9.939930316737e-05 0.0 
1.384172129717e-04 -1.478632551788e-04 0.0 
1.642690114952e-04 -1.872430469853e-04 0.0 
5.673788465559e-05 -6.530062434124e-05 0.0 
1.520878221432e-04 -2.491202242405e-04 0.0 
1.693806575356e-04 -2.569801061241e-04 0.0 
9.208727218009e-05 -4.513024087792e-05 0.0 
9.742742208165e-05 -1.897645311314e-04 0.0 
1.323143224420e-04 -4.739515973911e-05 0.0 
1.623093655077e-04 -5.732243143901e-05 0.0 
2.140318369668e-04 -1.563036405186e-04 0.0 
3.045459219177e-04 -2.487155773885e-04 0.0 
7.007536173332e-04 3.183378578416e-03 0.0 
2.425910001278e-04 -1.711509793157e-04 0.0 
1.154551174072e-04 -1.352577880694e-04 0.0 
2.391571694335e-04 -5.864791908656e-06 0.0 
9.139257185552e-05 -1.946760576481e-04 0.0 
7.516863284448e-04 6.711710714359e-03 0.0 
7.352161585384e-04 7.750173466593e-03 0.0 
1.720602029920e-04 -2.270730718797e-04 0.0 
1.588403176023e-04 -1.255431745949e-05 0.0 
9.742066698185e-04 4.710962333899e-03 0.0 
1.108327323125e-04 -1.931255003234e-04 0.0 
7.450062820115e-04 2.724509988692e-03 0.0 
6.687668373727e-04 2.707808746360e-03 0.0 
1.183226811920e-04 -1.887027846081e-04 0.0 
5.707898786701e-04 2.031383247454e-04 0.0 
1.598380415146e-04 -2.013109703906e-04 0.0 
8.002373376072e-05 -3.122324188792e-05 0.0 
8.081707637250e-05 -7.424717410328e-05 0.0 
1.601580845766e-03 1.806298562175e-03 0.0 
6.251323349373e-04 3.163833352898e-03 0.0 
1.048587686594e-04 -3.871467355554e-05 0.0 
1.176562772038e-04 -3.930477872814e-05 0.0 
1.683379029496e-04 -2.187908218604e-04 0.0 
9.151031851944e-05 -3.153907746243e-05 0.0 
8.820447302232e-04 4.701675955566e-03 0.0 
6.638196683230e-05 -7.341464562700e-05 0.0 
7.464272104629e-04 5.685817259241e-03 0.0 
8.040544655378e-04 4.186862834136e-03 0.0 
7.959330471609e-04 -1.439356446171e-04 0.0 
5.659553522269e-04 3.628441596109e-03 0.0 
8.932342119424e-05 -1.069495717452e-04 0.0 
9.084372069598e-05 -8.296230351314e-05 0.0 
1.151589197161e-04 -1.512530456937e-04 0.0 
2.453268496306e-04 -1.838360536645e-04 0.0 
7.745218581796e-04 5.185760476695e-03 0.0 
3.115221663663e-04 -1.336571121200e-04 0.0 
1.406010358426e-04 -1.878870639623e-04 0.0 
1.678482203688e-04 -2.373929392456e-04 0.0 
8.614036387465e-04 5.204435243681e-03 0.0 
1.549078573877e-04 -1.921950317435e-04 0.0 
9.698263665830e-05 -4.393180332809e-06 0.0 
6.313474596414e-04 4.639370462370e-03 0.0 
1.000520949010e-04 -2.554554708258e-05 0.0 
1.473722136338e-04 1.100125722000e-05 0.0 
9.829198731621e-05 -1.164118946268e-04 0.0 
1.321198726431e-04 -1.925694016846e-04 0.0 
1.639240209057e-04 -2.300111155846e-04 0.0 
1.442927366142e-04 -4.062867814088e-05 0.0 
5.601430340503e-04 6.129153320068e-03 0.0 
1.614606589536e-04 -2.395359652144e-04 0.0 
1.457052479135e-04 -1.577842434795e-04 0.0 
5.719311951265e-05 -1.824809508498e-04 0.0 
8.785089206130e-04 6.230430114136e-03 0.0 
1.230088790456e-04 -1.447721609411e-04 0.0 
1.780749046666e-04 -5.854490435294e-05 0.0 
9.959305565206e-05 -1.478823939004e-04 0.0 
4.302938162346e-04 3.571502412633e-03 0.0 
1.586686436865e-04 -1.775287380337e-04 0.0 
1.879982111420e-04 -4.264718511633e-05 0.0 
2.327473640196e-04 -2.432002552016e-04 0.0 
1.763723244553e-04 -5.017833768479e-05 0.0 
7.098805848952e-05 -8.912418390565e-05 0.0 
1.276103211783e-04 -3.280516269087e-05 0.0 
4.825155186858e-04 -2.379080113381e-04 0.0 
7.069019891579e-05 -1.844219946967e-04 0.0 
6.343437242769e-04 7.184593554162e-03 0.0 
4.651602579031e-04 -8.053121271984e-05 0.0 
1.158202279588e-03 2.579061440669e-04 0.0 
6.343937282788e-04 6.157835815489e-03 0.0 
2.596853930223e-04 -2.443166975951e-04 0.0 
1.206310010711e-03 5.723548517319e-03 0.0 
7.836251894400e-05 -1.919680305146e-04 0.0 
1.266398550913e-04 -1.383389429941e-05 0.0 
4.924010201364e-04 -6.407994219391e-05 0.0 
7.501065932159e-04 -3.674274355681e-06 0.0 
5.479623910888e-04 2.193498767269e-03 0.0 
3.036519608541e-04 -1.102032821886e-04 0.0 
1.298443124920e-04 -2.049178099071e-04 0.0 
2.489059607653e-04 -7.333771043545e-05 0.0 
1.310804162226e-04 -7.660119780210e-06 0.0 
3.079108657496e-04 -2.301001745973e-04 0.0 
1.151998536549e-04 -3.236958304324e-05 0.0 
7.114150744873e-04 4.664508736380e-03 0.0 
3.143408991505e-04 -2.595741233598e-04 0.0 
2.113118954644e-04 -6.108576115581e-05 0.0 
1.115522741183e-03 7.272073589009e-03 0.0 
7.746146423386e-05 -1.663800430342e-04 0.0 
1.680626348217e-04 -1.717908591989e-04 0.0 
1.347917538351e-03 1.938557977011e-04 0.0 
1.583592075816e-04 -4.130106340752e-05 0.0 
1.058383704406e-03 4.699383622509e-04 0.0 
1.203937177624e-03 9.272642163004e-05 0.0 
1.045895293018e-03 5.222711376190e-03 0.0 
6.743618232257e-04 6.685284286069e-03 0.0 
1.186494163941e-03 6.749203365600e-03 0.0 
8.588530200769e-05 -9.034881267760e-05 0.0 
2.010790522653e-04 -1.816925201229e-05 0.0 
2.888696521433e-04 -8.688518223748e-05 0.0 
8.644275147312e-04 7.264229958824e-03 0.0 
1.477187355210e-03 9.851389847281e-04 0.0 
7.730320316886e-04 2.761676291368e-05 0.0 
1.922240213251e-04 -5.112476357433e-05 0.0 
7.203065903688e-04 4.168370381936e-03 0.0 
2.213842063373e-04 -1.677784543689e-04 0.0 
1.939874776691e-04 -1.699847472939e-04 0.0 
1.555435252835e-04 -2.139258446908e-04 0.0 
2.668379102337e-04 -6.456593878573e-05 0.0 
1.705623824205e-04 -1.550947921431e-04 0.0 
1.010894300017e-03 5.733327737918e-03 0.0 
1.154194391816e-03 6.244570004711e-03 0.0 
7.093461177788e-04 -1.528756879129e-04 0.0 
2.052254119418e-04 -1.912560739984e-04 0.0 
5.445946550644e-04 -2.138413536058e-04 0.0 
1.839328491546e-04 -1.761616707869e-04 0.0 
2.107358682385e-04 -1.745054973853e-04 0.0 
1.509433301248e-04 -2.054651660484e-04 0.0 
2.491828757653e-04 -2.506596644598e-05 0.0 
3.014395282975e-04 -1.653792224430e-04 0.0 
6.400949300029e-04 3.652893961545e-03 0.0 
3.350824748476e-04 -1.602956107400e-04 0.0 
2.686481391305e-04 -7.482538589185e-05 0.0 
2.975706498103e-04 -1.204939929180e-04 0.0 
1.030741565978e-03 -3.799673151329e-05 0.0 
1.375319827984e-04 -2.010315651235e-04 0.0 
1.704698631207e-04 -1.184237246492e-05 0.0 
1.472968543244e-04 -5.796495916803e-06 0.0 
1.600036612495e-03 3.957249700182e-04 0.0 
2.391352526491e-04 -1.723122744726e-04 0.0 
2.865050001534e-04 -9.737278698814e-05 0.0 
9.185645853416e-04 5.724337983742e-03 0.0 
1.965503580102e-04 -1.521719664341e-04 0.0 
9.625190543741e-04 7.512255287708e-05 0.0 
1.435430792581e-04 -1.734396727662e-04 0.0 
2.896716960266e-04 -2.446457396899e-04 0.0 
2.503209805409e-04 -1.649367049915e-04 0.0 
1.348366255217e-04 -1.788460139366e-04 0.0 
9.822163459204e-05 -1.771140508654e-04 0.0 
2.763846646190e-04 -1.175064958874e-04 0.0 
2.290591391628e-04 -6.230884950106e-05 0.0 
1.346813813964e-03 4.027124014706e-04 0.0 
1.626414124882e-04 -2.551630847507e-04 0.0 
4.398971987173e-04 -1.867296349480e-04 0.0 
3.669909100557e-04 -1.772538549294e-04 0.0 
2.693647104895e-04 -1.693294667449e-04 0.0 
1.057977931175e-03 6.249620226107e-03 0.0 
3.023041740115e-04 -1.434017562988e-04 0.0 
1.371170093615e-04 -1.639033397550e-04 0.0 
2.809766480649e-04 -1.612215396359e-04 0.0 
4.939826297848e-04 4.090054190592e-03 0.0 
1.219790150901e-04 -1.604632362070e-04 0.0 
1.458328168917e-04 -2.281224289161e-04 0.0 
1.474632345479e-04 -2.173921047744e-04 0.0 
2.910180726974e-04 -2.354599612464e-04 0.0 
2.332959073690e-04 -1.902226572994e-04 0.0 
4.059227741150e-04 -1.705743811306e-04 0.0 
3.131668093253e-04 -1.564694673639e-04 0.0 
2.440581987404e-04 -2.557999825669e-04 0.0 
1.351753690828e-04 -2.128176709156e-04 0.0 
1.606474721060e-03 6.550770998627e-03 0.0 
1.203180512809e-04 -1.751509275138e-04 0.0 
2.637777825186e-04 -3.447135288649e-05 0.0 
1.354640076334e-03 3.404501683557e-04 0.0 
2.546678948233e-03 3.303398163915e-03 0.0 
1.135868582908e-03 3.194564159499e-03 0.0 
1.295304659612e-03 4.465053063956e-04 0.0 
7.549899636468e-04 -1.546656260352e-04 0.0 
1.511387683880e-03 3.746039717562e-04 0.0 
2.707197363507e-04 -2.567378948707e-04 0.0 
2.519575503750e-04 -1.447182603369e-04 0.0 
8.634718463546e-04 -1.128789918922e-04 0.0 
3.546377043668e-04 -2.630950253168e-04 0.0 
2.524125283376e-04 -2.664417726470e-04 0.0 
1.871543368113e-04 -1.591260301931e-04 0.0 
3.443673801516e-04 -1.734517597687e-04 0.0 
3.813536473606e-04 -1.673968270739e-04 0.0 
1.138865107459e-04 -1.663044827954e-04 0.0 
3.340078209705e-04 -1.368887582909e-04 0.0 
4.146427273409e-04 -1.839605094758e-04 0.0 
4.856376308328e-04 -1.775547231855e-04 0.0 
2.164559722887e-04 -1.854259211239e-04 0.0 
5.955674137380e-04 -5.360367361012e-05 0.0 
1.145094543070e-03 5.217982376987e-03 0.0 
5.215322301001e-04 -1.913902621730e-04 0.0 
2.156539591902e-04 -1.740478133992e-05 0.0 
3.007056250775e-04 -2.566385037213e-04 0.0 
1.943933607927e-04 -1.031443426982e-06 0.0 
3.703531367468e-04 -1.537586670190e-04 0.0 
1.173267401146e-03 4.570783954955e-04 0.0 
2.069676003304e-03 1.069432472932e-03 0.0 
2.733648071093e-04 -2.488799843342e-04 0.0 
2.497406769501e-03 2.576534135121e-03 0.0 
1.442382387333e-03 2.552289526178e-03 0.0 
4.072059255574e-04 -1.455854387332e-04 0.0 
7.214757437580e-04 -6.829812891634e-05 0.0 
2.392867830013e-03 1.984353515550e-03 0.0 
1.309711587572e-03 2.619708536079e-04 0.0 
2.555616379806e-04 -2.600256519435e-04 0.0 
6.064899184167e-04 1.321296088229e-03 0.0 
2.314763749917e-04 -2.584963663419e-04 0.0 
4.178468749096e-04 2.546820870106e-05 0.0 
4.658715732250e-04 2.641692699383e-03 0.0 
5.156735775286e-04 -4.581346617586e-05 0.0 
9.169225355111e-04 6.757894553569e-03 0.0 
1.168599774455e-03 3.689989334659e-03 0.0 
4.579031250223e-04 -1.757541692591e-04 0.0 
7.204275798007e-04 -1.233354599675e-04 0.0 
9.154296119961e-04 2.251777381306e-03 0.0 
2.038406825545e-04 -4.323629567723e-05 0.0 
1.274283165584e-03 4.683559333231e-03 0.0 
4.327528419018e-04 -6.719869609304e-05 0.0 
2.831863284278e-04 -2.604265765592e-04 0.0 
1.388816687599e-03 4.133686583795e-03 0.0 
5.771796476528e-04 1.526371775917e-04 0.0 
1.571620662433e-04 -4.755101453086e-06 0.0 
2.716748292190e-04 -1.486628083865e-04 0.0 
1.004061831397e-03 6.768094911364e-03 0.0 
1.029306869280e-03 7.285914913378e-03 0.0 
3.467054941379e-04 -1.504595458457e-04 0.0 
2.438503291415e-04 -5.370637630875e-05 0.0 
2.557297945247e-04 -4.437751922117e-05 0.0 
1.521214301277e-04 -2.251951256489e-04 0.0 
4.759450281622e-04 -2.157262277662e-04 0.0 
5.760052859412e-04 -1.783667816311e-04 0.0 
4.931689580906e-04 -1.905566880636e-04 0.0 
1.125586233768e-03 5.851961683055e-05 0.0 
7.415143447626e-04 1.797148659130e-03 0.0 
1.704486548744e-03 1.487030536726e-03 0.0 
5.294948412113e-04 2.667421249490e-03 0.0 
1.254478244930e-03 6.766420582562e-04 0.0 
1.683892214166e-03 3.424712060795e-03 0.0 
2.258137364360e-04 -5.293696248049e-05 0.0 
6.862355676024e-04 2.247108251841e-03 0.0 
1.605557849114e-03 4.531071527489e-03 0.0 
2.812750741378e-04 -1.397527801285e-04 0.0 
6.133456275153e-04 -1.879010865409e-04 0.0 
1.281985334709e-03 4.170873207400e-03 0.0 
9.906287576105e-04 2.721779345059e-03 0.0 
9.830216167363e-04 4.207783790978e-03 0.0 
1.169740984557e-03 4.704444861071e-03 0.0 
1.741885584930e-04 -1.921111073914e-05 0.0 
5.260932091980e-04 3.295980984426e-05 0.0 
2.165090155857e-04 -2.615009310028e-05 0.0 
2.483577296491e-04 -8.314544191980e-05 0.0 
1.513166962476e-03 2.131310097681e-03 0.0 
5.337340444240e-04 -2.616928171345e-05 0.0 
2.141254187746e-03 3.855656226688e-03 0.0 
1.122852701508e-04 -1.803253604630e-04 0.0 
5.445313194792e-04 -1.789585491759e-04 0.0 
5.358176513407e-04 -1.377689898139e-04 0.0 
7.110864045229e-04 -9.174582614344e-05 0.0 
3.924045930697e-04 -2.556192566758e-04 0.0 
5.815180171087e-04 -1.901871858975e-04 0.0 
6.790596078707e-04 -6.014481822622e-05 0.0 
1.816077115575e-03 1.532471334201e-03 0.0 
2.693070813014e-04 -1.270206389191e-04 0.0 
1.647958427485e-03 5.520955900027e-03 0.0 
8.437320313646e-04 8.922654850877e-03 0.0 
1.641638400793e-04 -1.310106275847e-05 0.0 
2.657352560244e-04 -9.512072212686e-05 0.0 
4.697351558924e-04 -3.450650519231e-05 0.0 
1.466763187381e-03 1.377907600954e-03 0.0 
6.972787265181e-04 -1.413539720765e-04 0.0 
2.616962315340e-04 -1.049637202967e-04 0.0 
1.311202864600e-03 5.699408638168e-03 0.0 
1.680031421306e-04 1.174476882711e-04 0.0 
5.495989013241e-04 -4.170150381255e-05 0.0 
6.570682359907e-04 -1.154940086375e-04 0.0 
1.969445627285e-03 1.639033473623e-03 0.0 
2.375541283505e-04 -4.413826280544e-05 0.0 
3.414958749409e-04 -2.629475963208e-04 0.0 
2.456788292639e-04 -3.479100886841e-05 0.0 
2.083268580068e-04 -8.856950369312e-06 0.0 
6.342168887309e-04 -4.814162931506e-05 0.0 
1.079356681421e-03 4.205995317353e-03 0.0 
1.095783828850e-03 1.595211999527e-04 0.0 
1.949099819645e-04 -1.003650732883e-05 0.0 
1.772704374959e-04 3.135063362548e-04 0.0 
1.465777991802e-03 5.126489344174e-03 0.0 
6.289049189191e-04 6.609353790360e-05 0.0 
1.070513302195e-03 3.704225916773e-03 0.0 
6.771438096050e-04 -7.888716928559e-05 0.0 
6.428135405336e-04 -1.737254100676e-04 0.0 
1.532734618650e-04 -8.995104860694e-05 0.0 
2.877102132509e-04 -2.408628434250e-04 0.0 
8.637982735752e-04 3.211714399258e-03 0.0 
9.170592855968e-05 -1.688614715935e-04 0.0 
2.035283855203e-04 5.997019154126e-04 0.0 
1.263353499089e-03 2.216669835790e-04 0.0 
4.843116773233e-04 2.172656495918e-03 0.0 
3.078471432791e-04 -2.655995806637e-04 0.0 
1.499033822750e-03 3.155282591249e-04 0.0 
1.492362932289e-03 4.599905083804e-03 0.0 
2.177814248937e-04 -1.084869743644e-04 0.0 
3.800963129208e-04 -2.595289575769e-04 0.0 
6.522800469714e-04 -8.404083120692e-05 0.0 
2.627838141279e-04 -2.693849278136e-04 0.0 
3.199865789385e-04 -2.669091355996e-04 0.0 
2.894250566263e-04 -2.688948732646e-04 0.0 
6.976132082805e-04 -1.106417001426e-04 0.0 
3.213528052127e-04 3.986553044544e-04 0.0 
2.734843457473e-04 1.052537484462e-03 0.0 
1.368379639900e-04 -1.354817761033e-05 0.0 
6.691955668679e-04 -1.916295833026e-04 0.0 
1.811977455438e-03 4.864443552213e-03 0.0 
3.336258258419e-04 -2.454280481745e-04 0.0 
1.804385769218e-04 -2.499252062503e-06 0.0 
2.783995158480e-04 -2.666574887986e-04 0.0 
9.186466386359e-05 -1.540144380909e-04 0.0 
6.634369186710e-04 -2.337395815128e-05 0.0 
4.203996638360e-04 -1.596243809968e-04 0.0 
6.488630614928e-04 4.404504216303e-05 0.0 
8.105839553033e-04 7.861650205684e-05 0.0 
2.018949995924e-03 3.536329957297e-03 0.0 
4.388018174774e-04 3.219285502844e-05 0.0 
1.354529577987e-03 5.172956969996e-03 0.0 
1.493298798987e-03 1.292337938164e-03 0.0 
1.477042320984e-03 3.576179588913e-03 0.0 
1.527145040347e-03 3.021296063776e-03 0.0 
3.820017587026e-04 -1.813063631669e-04 0.0 
1.380189615980e-04 -1.981830331895e-05 0.0 
1.606778832991e-03 4.012925431313e-03 0.0 
8.816392890427e-04 -1.097949568089e-04 0.0 
4.701885325377e-04 1.753459555910e-03 0.0 
3.715717747332e-04 3.601640615271e-05 0.0 
4.264660505222e-04 -2.331418105763e-04 0.0 
9.933802358342e-05 -1.632263364726e-04 0.0 
6.941873464841e-04 3.070024502456e-05 0.0 
1.407669521321e-05 -1.832565629396e-04 0.0 
1.149415476054e-03 2.862317161331e-05 0.0 
5.686674139761e-04 -2.067881320432e-05 0.0 
1.251433819598e-03 2.169984180732e-03 0.0 
1.182552882718e-03 1.685321097243e-03 0.0 
6.231817458692e-04 -3.074899100836e-05 0.0 
1.232712547980e-03 3.169868633525e-03 0.0 
7.475256404523e-04 -1.662083059038e-04 0.0 
1.477744754959e-03 3.924054695552e-04 0.0 
1.095605622293e-03 2.946615856891e-03 0.0 
1.496007481475e-03 8.456892564100e-04 0.0 
1.472124886964e-03 5.231361182330e-03 0.0 
1.489134528027e-03 6.288790390161e-03 0.0 
7.495532752307e-04 -1.457163774779e-04 0.0 
1.609572019917e-03 6.960298101330e-03 0.0 
1.104126644599e-03 1.075220807681e-05 0.0 
9.217681405906e-04 -9.169963943464e-05 0.0 
5.996616863199e-04 -1.642631752820e-04 0.0 
3.536451225090e-04 -2.637776353588e-04 0.0 
6.786806955437e-04 -1.692343287252e-04 0.0 
9.045538588766e-04 2.728141175329e-03 0.0 
1.483099388453e-03 1.080129187652e-03 0.0 
1.673922403838e-04 -3.410120590996e-05 0.0 
5.581536952157e-04 4.280751856560e-05 0.0 
4.471255433669e-04 -1.620350436531e-04 0.0 
1.429340146716e-03 3.084825353162e-03 0.0 
6.346423305057e-04 -1.619079030752e-04 0.0 
1.073319759316e-04 -1.416568465802e-05 0.0 
1.372275092417e-03 3.628107185080e-03 0.0 
1.782700201630e-03 3.321572868644e-03 0.0 
5.998719160453e-04 -7.081054772967e-05 0.0 
7.169309407611e-04 -1.712977241237e-04 0.0 
1.285316223369e-03 3.454504565766e-04 0.0 
2.159135392890e-03 1.262073077408e-03 0.0 
3.428718300038e-04 -2.661675176267e-04 0.0 
4.156500023234e-04 -2.426337128647e-04 0.0 
8.705058103384e-04 4.673730786442e-05 0.0 
1.581132722709e-03 4.091588292675e-04 0.0 
8.052070539840e-05 -9.603563425117e-06 0.0 
1.715823832543e-03 3.924987192582e-03 0.0 
6.808288301100e-04 -1.787071163787e-04 0.0 
1.661522144368e-03 4.471212893404e-04 0.0 
4.798526977712e-04 -1.656177337222e-05 0.0 
9.517072119141e-04 3.215162571883e-03 0.0 
1.247788101233e-03 3.924215147996e-04 0.0 
1.883140397915e-03 5.279831863356e-03 0.0 
3.255693207032e-04 -1.940102580582e-05 0.0 
6.584420942551e-04 -1.458951058964e-04 0.0 
4.497791330352e-04 -2.078703448778e-05 0.0 
1.212431654623e-03 7.488826771169e-05 0.0 
9.999661130171e-04 2.251012505693e-03 0.0 
1.135555186680e-03 4.057097863745e-04 0.0 
6.300032154006e-04 -1.018018198467e-04 0.0 
3.838633471809e-04 -2.471511369382e-04 0.0 
9.878498476893e-04 1.423660741664e-04 0.0 
1.193649054516e-03 5.068395185604e-05 0.0 
7.118800459106e-04 -1.775058096687e-04 0.0 
6.366055927726e-04 -8.409085449398e-05 0.0 
3.026083771594e-04 -3.317720046793e-05 0.0 
3.744208425618e-04 -2.544769656676e-04 0.0 
6.410459752478e-04 -1.327289022824e-04 0.0 
2.439430168585e-03 2.251497941549e-03 0.0 
7.283924412012e-05 -9.751453525114e-06 0.0 
2.309204049430e-03 1.724231531989e-03 0.0 
1.157669381592e-03 1.962819172596e-04 0.0 
2.521353999754e-03 2.897803095475e-03 0.0 
2.470900985770e-03 4.560141512113e-03 0.0 
2.013028772172e-03 9.411454493119e-04 0.0 
5.758866735630e-04 2.248946569648e-05 0.0 
1.595997262451e-04 -2.666892942334e-05 0.0 
1.831560609988e-03 4.331982077414e-03 0.0 
1.111725984542e-03 1.733113216983e-03 0.0 
2.538448402821e-03 3.671572426684e-03 0.0 
5.854190527738e-04 -2.148133703362e-04 0.0 
9.228941753088e-04 1.509415357935e-04 0.0 
7.578742061287e-04 2.247291265853e-03 0.0 
1.033717331190e-03 -4.248396182020e-05 0.0 
1.144956132543e-03 1.969921413738e-05 0.0 
6.383779997173e-04 -1.995848370884e-04 0.0 
1.924118588952e-03 3.688332000848e-03 0.0 
1.142688576368e-03 4.078586205467e-04 0.0 
1.070295242779e-03 1.034329730401e-05 0.0 
1.094028676965e-03 3.040568256092e-04 0.0 
6.845496462249e-04 3.167630043050e-06 0.0 
7.006795883610e-04 1.295777724817e-04 0.0 
6.133443205243e-04 -1.975733445293e-04 0.0 
2.857915200523e-04 -2.517892349537e-04 0.0 
1.305390767175e-03 1.565152456551e-03 0.0 
1.336719671499e-03 5.986502312739e-04 0.0 
4.904648480910e-04 -1.512166171439e-04 0.0 
7.942264441955e-04 1.304966982960e-04 0.0 
1.941047378934e-03 4.198466077831e-03 0.0 
1.965653617454e-04 -3.474911288501e-05 0.0 
8.230799238586e-04 -1.344246395457e-04 0.0 
2.655540725498e-04 -2.546896585053e-04 0.0 
5.068556955213e-05 -5.931547041714e-06 0.0 
1.485187364481e-03 2.783121766287e-04 0.0 
8.621680755458e-04 2.769588867268e-06 0.0 
1.132269684491e-03 2.923193263181e-04 0.0 
2.327940591308e-04 -2.497648713160e-04 0.0 
2.122422148359e-04 -3.488166618496e-05 0.0 
5.619931488924e-04 -1.538796947601e-04 0.0 
2.001343372039e-03 5.114655687192e-03 0.0 
2.085340131714e-04 -8.822661257414e-05 0.0 
6.449603681088e-04 -1.928704557095e-04 0.0 
9.794114871687e-05 -1.430129102106e-05 0.0 
1.168180664361e-03 4.374217066352e-05 0.0 
5.994039391629e-04 -2.113268164754e-04 0.0 
1.537395405249e-03 3.196184004133e-04 0.0 
2.636993179050e-04 -2.636876157921e-04 0.0 
1.434421206583e-03 3.080807853345e-04 0.0 
6.434769313738e-04 -6.395637327951e-06 0.0 
1.014381280927e-03 4.104356274753e-04 0.0 
1.287520319126e-03 2.861562644886e-04 0.0 
4.707373113904e-04 -2.390495842635e-04 0.0 
1.536049336932e-04 -3.370151009069e-05 0.0 
6.700338376289e-04 1.786300713407e-03 0.0 
3.104412374482e-04 4.042902011995e-05 0.0 
6.532714445720e-04 1.899237727935e-05 0.0 
7.935196188169e-04 -1.492702389406e-04 0.0 
1.517112857314e-03 3.182321558705e-04 0.0 
5.831989605715e-05 -9.924220437129e-06 0.0 
4.730799496415e-05 -8.042575754625e-05 0.0 
1.333658520454e-03 2.715883792664e-04 0.0 
1.695019694116e-03 4.975594763556e-03 0.0 
1.268204989524e-04 -1.985375749753e-05 0.0 
2.012480673318e-04 -2.648000683256e-05 0.0 
3.644594702389e-04 9.438758882153e-03 0.0 
2.483589316276e-04 9.436635997935e-03 0.0 
2.392814068076e-03 2.199271439391e-03 0.0 
1.444786382090e-03 2.822667632732e-04 0.0 
1.765517243124e-04 -7.550172281782e-05 0.0 
2.023013777273e-03 9.702794742371e-04 0.0 
1.068833471761e-03 -1.709537745574e-05 0.0 
3.156844655466e-04 3.460536964851e-06 0.0 
8.344948542529e-04 -1.338277940436e-04 0.0 
2.940176146853e-04 4.290423386884e-04 0.0 
2.355431521247e-03 5.327055093430e-03 0.0 
1.084194569549e-03 -1.509015258770e-05 0.0 
2.269113972883e-04 -9.051408621248e-05 0.0 
4.631605116306e-04 -2.277292438230e-04 0.0 
2.493281904445e-04 -1.236670640883e-04 0.0 
1.494360029575e-03 2.834879142795e-04 0.0 
1.739685315653e-03 5.705047496675e-04 0.0 
2.039667198508e-03 4.565751376465e-03 0.0 
1.929141308411e-03 8.457749864676e-04 0.0 
1.893902839109e-03 8.533189525808e-04 0.0 
4.643427270554e-05 -1.989968548059e-04 0.0 
2.415789044369e-04 -1.324546572481e-04 0.0 
1.271206021294e-03 4.641178013664e-04 0.0 
2.261658924712e-03 1.504714105229e-03 0.0 
2.248678177465e-03 1.508118486847e-03 0.0 
4.714486819195e-04 1.772915797460e-05 0.0 
6.809494764569e-06 -1.772136076699e-04 0.0 
3.385953789852e-04 -2.636496956789e-04 0.0 
1.346911507171e-03 1.679327429808e-04 0.0 
2.226734222932e-04 -1.288656427158e-04 0.0 
1.611386492133e-03 5.418126449232e-03 0.0 
1.737016809685e-03 6.254947030564e-03 0.0 
2.145042600348e-03 4.374943568872e-03 0.0 
3.483850806886e-04 -1.644446364682e-04 0.0 
2.046944985485e-04 -9.701029996623e-05 0.0 
4.404651025489e-04 -3.757090859154e-05 0.0 
3.470628188891e-04 -2.582587268888e-04 0.0 
4.508891107701e-04 1.136153023378e-04 0.0 
1.263869593873e-03 2.663203259276e-03 0.0 
1.649181421116e-04 -1.003054742346e-04 0.0 
1.346139569088e-04 -2.630468778266e-05 0.0 
8.961070476361e-05 -2.133707454124e-04 0.0 
4.251928745747e-04 -5.337952178651e-05 0.0 
1.406773218179e-03 2.068662933720e-04 0.0 
6.796241647629e-05 -2.084483072662e-04 0.0 
1.172009223703e-03 2.696318943472e-03 0.0 
3.283790151861e-04 -2.545289454325e-04 0.0 
2.183447799674e-03 1.296044073821e-03 0.0 
1.651524624052e-03 4.580833076846e-04 0.0 
5.039866239261e-04 -1.651918794861e-04 0.0 
3.826321848213e-04 -9.325560805075e-05 0.0 
1.170725919769e-03 2.217368624444e-03 0.0 
3.546632426857e-04 -6.761980865003e-05 0.0 
1.261508868423e-03 9.459951326263e-05 0.0 
1.275832125018e-03 1.098798716423e-04 0.0 
1.618317359299e-04 -6.115201594408e-05 0.0 
3.043978596886e-04 -2.576174167258e-04 0.0 
1.102351660562e-03 2.084396824000e-04 0.0 
2.448772444593e-03 4.376533608008e-03 0.0 
9.755104354398e-04 1.802544267202e-04 0.0 
5.753650575670e-04 -1.279697800370e-04 0.0 
2.051888693937e-03 2.002054084662e-03 0.0 
1.075970795061e-03 2.495554075500e-04 0.0 
2.039344029995e-03 5.500632959397e-03 0.0 
1.161897576732e-03 2.483926339415e-04 0.0 
1.226858153613e-04 -2.608072564948e-05 0.0 
1.361033696557e-03 1.943873802548e-04 0.0 
2.366361550739e-04 -1.114849779033e-04 0.0 
2.419266128457e-04 -1.022957771435e-04 0.0 
1.361075096094e-03 1.499047116110e-03 0.0 
3.998434289950e-04 -1.195982293174e-04 0.0 
1.621633764861e-03 4.057589613265e-04 0.0 
9.056622778876e-04 -8.121706927663e-05 0.0 
3.158398614376e-04 -4.405901629652e-05 0.0 
9.801727062763e-04 -6.947030458662e-05 0.0 
4.885372544396e-04 -2.382046931962e-04 0.0 
5.826231640632e-04 -1.213728890468e-04 0.0 
5.454277761835e-04 -2.241464392133e-04 0.0 
2.103973415188e-03 1.132537494270e-03 0.0 
5.241175813241e-04 -2.304737336333e-04 0.0 
1.924408065245e-03 7.924515512829e-04 0.0 
5.421970888523e-04 1.398346015420e-05 0.0 
5.785091450103e-04 9.231043660710e-07 0.0 
9.299799767876e-04 -9.311513365675e-05 0.0 
2.222728021206e-03 4.690129870195e-03 0.0 
1.055015301902e-04 -1.976540172740e-05 0.0 
9.527827725326e-05 -1.966580280813e-05 0.0 
2.855817477317e-04 -1.503565428278e-04 0.0 
1.854034196256e-03 6.968094011596e-04 0.0 
5.654886313756e-05 -5.747283110963e-06 0.0 
7.561619030740e-04 8.751413829077e-04 0.0 
1.572471361720e-04 -8.191036242291e-05 0.0 
1.727722561931e-04 -4.703435111716e-05 0.0 
8.003643450169e-05 -1.434958220180e-05 0.0 
4.866930404873e-04 -2.312955189071e-04 0.0 
3.852772712570e-05 -7.314297126723e-05 0.0 
9.157127636213e-04 1.932286829006e-05 0.0 
2.317495748487e-03 4.437656601456e-03 0.0 
2.371648065333e-03 4.694045844632e-03 0.0 
1.379633959194e-03 1.826907566871e-04 0.0 
1.373671973408e-03 3.212566586419e-03 0.0 
1.577679305949e-03 4.286905191616e-03 0.0 
7.138038002415e-05 -1.433808518306e-05 0.0 
3.825760460807e-04 -8.065867403334e-05 0.0 
5.039080223632e-04 -1.377021592203e-04 0.0 
4.537992839331e-04 -5.154384047863e-05 0.0 
5.865755730003e-04 -1.509465110782e-04 0.0 
5.258031783959e-04 -2.241233334197e-04 0.0 
1.440216168269e-03 3.943071809350e-03 0.0 
2.385986901920e-03 5.173030185847e-03 0.0 
3.109743261210e-04 9.728964238385e-03 0.0 
5.439548004143e-04 -5.985038653216e-06 0.0 
8.830986129460e-04 -1.136976406122e-04 0.0 
3.961727283388e-04 4.281840795276e-05 0.0 
2.983336020572e-05 -1.448980296522e-05 0.0 
6.041600981788e-04 -1.354250352574e-04 0.0 
4.677680311543e-05 -2.757609603581e-06 0.0 
5.143197155423e-04 -2.296220524286e-04 0.0 
5.254558264827e-04 5.893958186315e-05 0.0 
1.305448991591e-03 1.284768479161e-04 0.0 
1.224399241211e-03 1.307082899870e-04 0.0 
3.022292724319e-04 -9.883400944883e-06 0.0 
2.761857836556e-04 -1.814069029602e-04 0.0 
1.748484859877e-03 5.478436872423e-04 0.0 
5.529048937055e-04 -1.518536996185e-04 0.0 
1.796757171971e-03 6.189028012112e-04 0.0 
6.344715846129e-04 -1.163198642253e-04 0.0 
1.089388995658e-03 8.786170952513e-05 0.0 
5.345170405631e-04 -1.657621313672e-04 0.0 
1.935408115562e-04 -7.732484460700e-05 0.0 
1.887445937612e-03 7.501418836597e-04 0.0 
1.907639449576e-04 -1.309055692677e-04 0.0 
9.019858198691e-04 -5.007903206210e-05 0.0 
2.130335551755e-04 -5.295698763124e-05 0.0 
1.279424495541e-04 -2.162566179297e-04 0.0 
1.738300487293e-04 -8.391277551064e-05 0.0 
1.489581838793e-03 4.700264458083e-04 0.0 
2.462346376755e-03 3.869976184793e-03 0.0 
6.643278595989e-04 1.884779763410e-03 0.0 
1.511391943675e-04 2.034778542937e-04 0.0 
1.576877081628e-04 -1.001701417243e-04 0.0 
9.580190674458e-04 2.460990308438e-03 0.0 
4.838492162198e-04 -1.233697141117e-04 0.0 
1.370552555254e-04 -8.786981728664e-05 0.0 
1.711527152367e-03 2.285615752302e-03 0.0 
4.497061210932e-04 -2.219091070197e-04 0.0 
4.056343956225e-04 -1.072057880465e-04 0.0 
1.415012729821e-03 2.180061538100e-04 0.0 
8.670096618347e-04 -1.907333890163e-05 0.0 
1.647364923966e-03 8.564969316639e-04 0.0 
3.165560955131e-04 -1.690207665590e-04 0.0 
1.820413890395e-04 -1.028715972318e-04 0.0 
1.255919358838e-04 -7.825324824150e-05 0.0 
2.092816427758e-04 -2.015084542390e-04 0.0 
2.118673860324e-03 6.005670453257e-03 0.0 
2.504391704155e-03 3.557873175384e-03 0.0 
1.120805962286e-05 -2.927431842642e-05 0.0 
7.924603279366e-05 -2.136392935266e-04 0.0 
2.158367070143e-04 -2.413666751050e-04 0.0 
1.939560677933e-04 -2.286658260933e-04 0.0 
1.103223321593e-04 -7.668909911195e-05 0.0 
5.523349089936e-04 -2.121345843118e-04 0.0 
4.471879032510e-04 -2.314910005884e-04 0.0 
4.701171232444e-04 -2.424425253874e-04 0.0 
1.443465266222e-04 -7.210840660120e-05 0.0 
2.409733092356e-03 2.446215694230e-03 0.0 
9.928560174618e-05 -6.782323039169e-05 0.0 
5.801547412039e-04 -2.095726680671e-04 0.0 
1.768799756529e-03 5.834406195675e-04 0.0 
1.394365471149e-03 7.678407073958e-03 0.0 
8.205392865107e-04 4.308694441997e-05 0.0 
8.489392233708e-05 -6.675877598524e-05 0.0 
1.289095326737e-04 -7.053252374010e-05 0.0 
3.719020299490e-04 1.132383983752e-03 0.0 
5.251850573608e-04 -2.030326688613e-04 0.0 
7.418708307484e-05 -5.858933316533e-05 0.0 
6.036121530528e-05 5.900537669562e-03 0.0 
6.410641971259e-05 6.883201521718e-03 0.0 
4.844926212888e-04 1.464497974756e-03 0.0 
1.165834094846e-04 -6.154896297507e-05 0.0 
3.835332836532e-04 -2.250575192717e-04 0.0 
2.617311357215e-04 -2.679369515852e-05 0.0 
4.954632571007e-04 4.884256554984e-05 0.0 
2.205798547856e-04 -2.464930874664e-04 0.0 
3.828280160313e-04 -2.141299276271e-04 0.0 
9.334680741899e-04 -5.781935623065e-05 0.0 
6.842189769865e-04 2.249205391235e-03 0.0 
6.046615493355e-05 -5.796370999762e-05 0.0 
1.352716258039e-05 -1.585920428030e-04 0.0 
2.215005591886e-03 5.899702925779e-03 0.0 
1.022290822816e-04 -6.040381875621e-05 0.0 
4.613382733422e-04 -1.498603352372e-04 0.0 
1.869796213503e-04 -9.451958469191e-05 0.0 
2.078872041004e-04 -1.676665774264e-04 0.0 
8.462795101318e-05 3.013395399964e-03 0.0 
4.458816663933e-04 -1.993353874950e-04 0.0 
3.923519978566e-04 2.679759653228e-06 0.0 
1.157568092693e-03 9.401356339956e-05 0.0 
9.067721956729e-05 -5.222325063758e-05 0.0 
7.702689976966e-05 -5.147321945314e-05 0.0 
5.217949645806e-04 -2.223701203925e-04 0.0 
2.192603695381e-04 -2.664279791836e-04 0.0 
2.072220262536e-04 -1.467228615981e-04 0.0 
6.613302759603e-05 -4.399240496488e-05 0.0 
3.239860967706e-04 -7.492125716751e-06 0.0 
3.239846296224e-04 -2.134571512040e-04 0.0 
1.686477043093e-03 5.132760154899e-04 0.0 
6.104221636710e-04 6.489721978513e-04 0.0 
1.848782434321e-03 7.209988114192e-04 0.0 
9.804441298796e-05 1.533454072719e-06 0.0 
1.815947095884e-04 -2.301712441549e-04 0.0 
1.327516160938e-05 2.602900538158e-04 0.0 
2.072342192515e-06 1.017666876117e-07 0.0 
3.826045025348e-05 8.437419011414e-03 0.0 
3.743609428560e-04 -1.900844422398e-04 0.0 
1.287312672616e-03 1.449418929526e-04 0.0 
5.727967282340e-04 -2.166117586343e-04 0.0 
1.339417017832e-04 -2.237583550558e-04 0.0 
1.680333737910e-04 -8.908285480964e-05 0.0 
3.778838414620e-04 2.148945875543e-03 0.0 
2.480296423117e-03 2.819711156742e-03 0.0 
1.845002793823e-03 6.734756733080e-03 0.0 
2.037098250730e-04 4.736633020130e-05 0.0 
1.345131506315e-05 -1.712460309090e-04 0.0 
1.750690980373e-04 3.650911188375e-05 0.0 
2.471564672930e-03 3.111606973882e-03 0.0 
3.094331998862e-04 -1.779451516522e-04 0.0 
1.267106738277e-03 1.143467577368e-04 0.0 
3.578622918275e-04 -1.986434218312e-04 0.0 
2.849057408143e-04 3.161945802491e-05 0.0 
3.208665616039e-04 -2.021372410817e-04 0.0 
2.291361015207e-03 1.892898855790e-03 0.0 
2.935901603233e-05 -1.024554003842e-05 0.0 
4.253408165358e-04 -2.088260203265e-04 0.0 
1.743703235770e-03 6.282655702993e-04 0.0 
1.937839310063e-04 -2.436770640513e-04 0.0 
4.991895840714e-04 -2.136259887855e-04 0.0 
2.181116560952e-03 2.368440500152e-03 0.0 
2.633336506884e-04 -1.885379203986e-04 0.0 
2.894487548225e-04 -2.153307752548e-04 0.0 
1.197698224953e-03 7.352764189078e-05 0.0 
2.917405996994e-04 -2.737100896832e-04 0.0 
2.495467625724e-04 6.647515126093e-04 0.0 
2.941507926487e-04 8.818858255594e-04 0.0 
2.546563008201e-04 -2.058387197975e-04 0.0 
4.543239038989e-04 -1.226873448165e-04 0.0 
9.730568417256e-04 -6.782896816841e-05 0.0 
1.666632284269e-03 5.339115559622e-04 0.0 
1.247563506519e-03 7.571396157342e-04 0.0 
3.443635288453e-04 1.358535345439e-03 0.0 
1.168424698943e-04 4.880388331656e-03 0.0 
9.458406067617e-04 3.193785657674e-04 0.0 
5.375016469855e-04 -2.264256069151e-04 0.0 
2.036852861339e-04 -1.709748654094e-05 0.0 
7.418273598095e-04 7.067181040254e-04 0.0 
4.178496670396e-04 -1.337992741708e-04 0.0 
1.964018470362e-03 9.834598833887e-04 0.0 
4.452561352935e-04 -1.356635080185e-04 0.0 
2.649150839021e-04 -1.752513178038e-04 0.0 
4.358292610783e-04 -9.494671553235e-05 0.0 
3.144977902423e-04 1.039963780429e-04 0.0 
9.214047883336e-04 -8.757111343529e-05 0.0 
4.327084022725e-04 -1.084306696979e-04 0.0 
1.151073010775e-03 6.742805051918e-05 0.0 
4.241478135918e-04 6.097594111690e-03 0.0 
2.377203319824e-04 -2.009453590762e-04 0.0 
2.432349102771e-04 -7.416856388685e-05 0.0 
4.086991156877e-04 -8.112489986353e-05 0.0 
3.528873368338e-04 1.966678371445e-04 0.0 
2.130814259003e-04 -2.299677915483e-04 0.0 
3.240778985261e-05 1.965592034367e-03 0.0 
4.249052671439e-05 2.941104946820e-03 0.0 
2.034556227580e-04 -2.717053906660e-04 0.0 
4.052088673094e-04 -6.780085336157e-05 0.0 
2.015328191461e-04 -2.159560853795e-04 0.0 
1.981040086332e-04 -2.065145041340e-04 0.0 
1.556425306218e-03 5.460275712390e-04 0.0 
1.087724048362e-03 3.723366851911e-05 0.0 
1.551188926824e-03 4.647198021138e-04 0.0 
4.737867186763e-04 -2.127887807179e-04 0.0 
6.487746991988e-04 9.758989496646e-03 0.0 
6.697616569160e-05 9.979711068285e-07 0.0 
1.911064080643e-04 -2.200663753298e-04 0.0 
4.538108510259e-04 -4.048665955812e-06 0.0 
1.011240368851e-03 -4.284785027003e-05 0.0 
5.207896842231e-05 -1.878171215128e-04 0.0 
2.146710214817e-03 1.305084898478e-03 0.0 
5.536968779073e-04 -2.024213601307e-04 0.0 
2.272468435252e-04 -2.764225917989e-04 0.0 
4.692403769676e-04 -2.319949016366e-04 0.0 
6.045079058238e-06 -3.504518555551e-05 0.0 
2.254313335132e-03 1.685003374388e-03 0.0 
2.207875500408e-04 -2.539381547949e-04 0.0 
2.600187398078e-05 -7.457014826689e-05 0.0 
1.764944074999e-03 7.353521491147e-04 0.0 
7.824532556276e-04 5.935942955554e-05 0.0 
2.863992930737e-04 -2.045178819938e-04 0.0 
2.725455779617e-05 -1.583380192760e-04 0.0 
9.873941117614e-04 -3.919228249093e-05 0.0 
3.110241494381e-05 6.414133118478e-03 0.0 
2.359239873559e-04 -2.804483105199e-04 0.0 
6.328978626404e-04 1.897920113277e-04 0.0 
8.056748994497e-04 5.795955372348e-04 0.0 
1.353960632302e-04 7.779178205660e-03 0.0 
6.788870253841e-04 1.347620512590e-03 0.0 
7.338118811480e-04 3.967187060712e-04 0.0 
4.714189199562e-04 -2.013618866843e-04 0.0 
4.021572549057e-04 -2.058733010332e-04 0.0 
2.209847796665e-04 1.835017508308e-05 0.0 
1.827024626125e-04 -2.168731981302e-04 0.0 
6.641820298578e-06 -1.649714079931e-04 0.0 
1.897181851170e-05 -6.855463365014e-05 0.0 
2.682386772645e-04 -1.998178847548e-04 0.0 
4.043191785074e-04 -2.279477181689e-04 0.0 
2.016225592140e-04 3.559953860768e-04 0.0 
2.214312526436e-04 4.878369354058e-04 0.0 
1.203494705273e-03 7.776053704330e-03 0.0 
4.971614602049e-04 -2.232502161356e-04 0.0 
7.055010641428e-05 -1.587862303519e-04 0.0 
9.838133123080e-04 1.023724351074e-04 0.0 
2.189757504817e-05 6.356487436637e-07 0.0 
2.912039721902e-05 8.236428437064e-07 0.0 
3.974436333867e-04 -1.936135427296e-04 0.0 
1.436961837657e-03 8.059652991920e-03 0.0 
2.069120711543e-04 -2.469580783917e-04 0.0 
1.868521199394e-04 1.445203588831e-04 0.0 
2.844772757369e-04 -2.752469551923e-04 0.0 
1.953759510374e-04 2.386604010058e-04 0.0 
1.011155812852e-03 -1.384872044945e-05 0.0 
3.434417847685e-04 -2.176582575598e-04 0.0 
4.267974725157e-04 -2.199728458175e-04 0.0 
2.415780251449e-04 -2.715417716722e-04 0.0 
9.814915023682e-05 2.658916102497e-03 0.0 
3.616157434839e-04 -2.104291489148e-04 0.0 
3.264328173352e-04 2.103879057777e-03 0.0 
2.537699799672e-04 3.537239599269e-03 0.0 
3.995487740689e-05 5.748756041313e-04 0.0 
4.660795281475e-06 1.554764764565e-07 0.0 
7.126445502226e-05 7.888030215204e-03 0.0 
3.365702650936e-04 -1.945526203539e-04 0.0 
2.208696563520e-04 8.143439987726e-04 0.0 
3.304453862179e-04 -1.821915456018e-04 0.0 
8.174926433275e-06 2.147223534033e-07 0.0 
1.767615146433e-04 4.403907148414e-06 0.0 
1.809856394066e-04 6.758835104412e-05 0.0 
4.467855217800e-04 1.169144109374e-05 0.0 
1.063812240790e-03 8.703631308974e-03 0.0 
1.926077259912e-04 2.020884937619e-03 0.0 
1.695103345749e-03 6.350749418816e-04 0.0 
6.676950315163e-04 7.945496490782e-05 0.0 
1.823819281327e-03 1.028499794356e-03 0.0 
4.616365853688e-04 7.559849435698e-03 0.0 
2.576478068988e-04 -2.161601056732e-04 0.0 
2.742796450921e-04 -2.209521638915e-04 0.0 
1.433634610419e-04 5.372271770255e-03 0.0 
7.802569411469e-04 8.775040378548e-05 0.0 
1.606864365036e-03 7.809504742777e-03 0.0 
2.424317445570e-04 8.875957623344e-03 0.0 
2.932974250744e-04 8.011418802194e-03 0.0 
5.266657756161e-04 7.677339381455e-03 0.0 
2.796743975513e-04 -2.676594208122e-04 0.0 
2.438477075776e-04 -2.210553159759e-04 0.0 
3.035250807808e-04 1.269639166426e-03 0.0 
5.325188093695e-04 6.626513429414e-03 0.0 
2.128667105540e-04 2.990309698143e-05 0.0 
1.282665611800e-03 7.225851835162e-04 0.0 
2.080216577579e-03 1.138173937309e-03 0.0 
9.773473893332e-04 1.822180010825e-03 0.0 
9.331803281550e-05 -1.236727888520e-04 0.0 
9.382565770875e-05 -1.389801778573e-04 0.0 
1.179592286614e-04 -2.374076405918e-06 0.0 
2.258326598033e-04 -2.713349993796e-04 0.0 
3.440345222880e-05 -1.641155288759e-04 0.0 
9.282792430817e-05 2.021784611886e-05 0.0 
1.240229011874e-05 -1.943534130551e-04 0.0 
2.991534396181e-04 8.582491467816e-03 0.0 
2.709450416847e-04 8.814128363897e-06 0.0 
1.749690497009e-04 -2.506962046436e-04 0.0 
1.309547589509e-04 -2.372697587798e-04 0.0 
1.948925366371e-04 4.728200878572e-04 0.0 
9.033082493321e-04 9.415109410749e-03 0.0 
4.576928066386e-04 1.347479749160e-03 0.0 
2.885408421715e-04 1.865764422468e-05 0.0 
8.042445725795e-04 9.458754918128e-03 0.0 
1.980700641996e-04 -2.176584870577e-04 0.0 
6.885304740417e-05 1.079095153772e-03 0.0 
1.165757034535e-04 -2.117090276164e-04 0.0 
4.982271656095e-04 1.782030437270e-03 0.0 
6.334369237262e-06 1.721003014105e-07 0.0 
1.269658541260e-03 9.296855606350e-04 0.0 
3.156492074260e-04 -2.667921427944e-04 0.0 
1.749896901577e-03 7.100832033103e-03 0.0 
5.667399087331e-05 -1.191610583908e-04 0.0 
9.276398063241e-04 8.004471424319e-05 0.0 
1.142270929727e-04 1.770402167404e-05 0.0 
1.422227079359e-04 4.380124924584e-03 0.0 
1.020008809259e-04 1.396702344866e-05 0.0 
2.457769559900e-04 -2.652823319528e-04 0.0 
3.911878033981e-05 -5.620319257899e-07 0.0 
3.214266352336e-04 -2.696905801214e-04 0.0 
5.725096839586e-05 -1.984749030763e-04 0.0 
1.417972498481e-04 6.663752809712e-06 0.0 
7.838169746945e-04 9.770963353263e-04 0.0 
4.219665358853e-04 9.169721991238e-04 0.0 
6.457177706948e-04 8.758021040700e-03 0.0 
2.307782475106e-03 5.502986846099e-03 0.0 
2.942447087522e-04 -1.300552132711e-05 0.0 
8.239939755782e-04 4.217457389546e-04 0.0 
4.899699892789e-05 -1.389632403133e-04 0.0 
2.371856663279e-04 -1.383471797742e-04 0.0 
8.342983683631e-04 7.651436114908e-05 0.0 
5.293495142051e-04 9.776602929558e-03 0.0 
1.037165867381e-03 1.333144268200e-03 0.0 
5.591957658154e-06 5.471328422357e-04 0.0 
5.591957658154e-06 2.307011120988e-04 0.0 
1.397697563834e-05 -2.229070210697e-04 0.0 
5.786379650292e-06 -2.192153671958e-04 0.0 
2.994190586672e-05 9.410138266968e-03 0.0 
7.383325760613e-05 9.753175592261e-03 0.0 
8.015202715480e-07 5.315875809527e-08 0.0 
8.015202715480e-07 -5.799306308795e-08 0.0 
2.499560983491e-05 -2.149792408642e-04 0.0 
2.039508869558e-04 -2.627915474684e-04 0.0 
3.883753268495e-05 -3.283571025429e-06 0.0 
7.522729069052e-04 1.510404061111e-04 0.0 
9.876219257648e-05 -2.013892975352e-04 0.0 
6.676272511049e-05 -2.445589136498e-06 0.0 
1.093373901997e-05 -5.599795192292e-05 0.0 
1.218053031485e-05 -8.492356402588e-05 0.0 
3.669751028615e-04 6.239119765193e-03 0.0 
2.662374787947e-04 -2.752847222926e-04 0.0 
1.029239162076e-03 6.141639243411e-05 0.0 
1.088636024070e-04 -2.132711528268e-04 0.0 
7.498138249423e-05 -1.041878611692e-04 0.0 
1.079935724446e-03 5.602394948581e-04 0.0 
1.852589053717e-05 2.432561402684e-03 0.0 
2.333538049950e-05 -8.337485005268e-05 0.0 
2.274467551548e-04 7.235972215412e-03 0.0 
8.837646364184e-04 2.410740998908e-04 0.0 
1.614883394111e-03 7.745365412286e-04 0.0 
1.889937991974e-03 9.625483100306e-04 0.0 
7.072037129759e-04 9.441338664484e-03 0.0 
9.757983053213e-04 1.508317839410e-05 0.0 
1.190593828845e-03 1.181913461605e-03 0.0 
4.882648441226e-05 -1.638797160328e-04 0.0 
1.967725361881e-04 -2.694775309725e-04 0.0 
1.047425770536e-03 2.890309787014e-04 0.0 
4.829795841169e-04 1.037600254059e-06 0.0 
2.569746117501e-04 -2.781618001853e-04 0.0 
1.975200195626e-04 5.479961885877e-03 0.0 
2.098396223365e-05 -4.100800600343e-07 0.0 
9.393504663217e-04 2.106202521404e-04 0.0 
8.095063588633e-04 1.914273999353e-04 0.0 
1.285402336264e-05 -4.248331805534e-05 0.0 
1.916761409176e-04 -1.697959496136e-04 0.0 
1.800676067760e-04 4.468946406200e-04 0.0 
3.643813570108e-04 1.265105737777e-04 0.0 
1.909033231127e-03 6.593408419389e-03 0.0 
1.034069296699e-03 3.737386430847e-05 0.0 
3.839577194809e-04 1.742843359610e-03 0.0 
1.977345484557e-04 2.012035214861e-05 0.0 
2.277082450374e-04 -2.799789586683e-04 0.0 
2.066902655719e-04 -2.690954523020e-04 0.0 
1.717720417592e-04 2.047960055929e-04 0.0 
3.327074510653e-04 5.027473029655e-03 0.0 
7.732121102028e-05 -1.520557605295e-04 0.0 
9.096303412174e-04 1.411335261707e-03 0.0 
5.993628788883e-05 -1.936596022900e-04 0.0 
3.455173948854e-04 2.480072548339e-05 0.0 
1.124014431766e-03 7.748387282167e-03 0.0 
3.143225162865e-04 5.524174508984e-05 0.0 
9.371092552504e-04 1.167072768717e-04 0.0 
2.112270753646e-03 6.125528881130e-03 0.0 
1.098338987281e-04 2.883921750784e-06 0.0 
7.080339302287e-04 1.015795613227e-03 0.0 
5.605523092210e-05 1.264938236360e-03 0.0 
1.662191464051e-04 4.538695066097e-05 0.0 
8.984479527510e-04 1.822708207877e-03 0.0 
5.477463009381e-04 1.757481072354e-04 0.0 
3.422933713302e-04 1.982956102103e-05 0.0 
8.268943220504e-04 1.056155986438e-04 0.0 
1.174569890148e-05 3.243523578659e-07 0.0 
1.943353908326e-03 1.089325422030e-03 0.0 
1.596059307150e-04 -1.491892488105e-04 0.0 
2.497892953753e-04 -1.042143783621e-04 0.0 
1.486540955496e-03 7.776218185572e-04 0.0 
1.836396923460e-03 6.237002412653e-03 0.0 
2.009678960705e-05 -3.820971282226e-06 0.0 
7.489671833759e-04 1.108295584411e-04 0.0 
4.141397699244e-05 3.622386949200e-07 0.0 
3.037502701898e-04 4.019273645886e-03 0.0 
2.720136152038e-04 4.325631990446e-05 0.0 
1.343036164797e-04 -5.320993845715e-07 0.0 
1.441632511160e-04 5.441930464915e-07 0.0 
5.570982866680e-05 -1.453330352908e-04 0.0 
1.832680257996e-05 5.260187392012e-07 0.0 
1.301796307439e-03 8.503518897578e-03 0.0 
2.347397875788e-04 2.046045874781e-03 0.0 
2.159063010709e-04 -2.707622237013e-04 0.0 
1.462923548329e-04 2.853217093900e-03 0.0 
2.994734245917e-04 5.432980987788e-03 0.0 
1.224953879464e-05 -2.043920885434e-04 0.0 
3.001354918324e-04 -2.644896452975e-04 0.0 
1.737921835121e-03 8.197622919206e-04 0.0 
3.367119725612e-04 1.019050351655e-03 0.0 
1.172980471584e-04 1.955295175016e-03 0.0 
3.406090364034e-04 4.729946902199e-05 0.0 
5.667514046492e-04 7.154505192928e-03 0.0 
1.680965422777e-04 -2.534287159601e-04 0.0 
2.228243472449e-04 -2.088339017838e-04 0.0 
1.613487337633e-04 -2.473975519396e-04 0.0 
2.109986379987e-04 -2.621638141594e-04 0.0 
1.514425001278e-04 -1.302301731986e-04 0.0 
6.808906206340e-05 -1.092052566039e-04 0.0 
2.531420997013e-05 -3.837940837620e-06 0.0 
1.292183043643e-03 1.028343868642e-03 0.0 
2.315572179696e-03 5.207610408989e-03 0.0 
1.018377601344e-04 -1.328364567790e-04 0.0 
1.133723360780e-04 -3.525755274761e-06 0.0 
2.462327711236e-04 4.025000382059e-06 0.0 
3.937843530136e-04 7.126771562261e-05 0.0 
8.195062234339e-04 2.423540799747e-04 0.0 
1.431848142698e-03 6.425579081399e-04 0.0 
2.036747550803e-04 -2.641231076539e-04 0.0 
2.324811435480e-04 -2.586920009244e-04 0.0 
3.560520662880e-05 -3.769758921860e-06 0.0 
2.373450078599e-05 -2.029296952885e-04 0.0 
5.135089670102e-06 -1.994173593698e-04 0.0 
1.869806772767e-04 -1.062273891336e-04 0.0 
1.656301933579e-04 -2.455321703160e-04 0.0 
8.121841524118e-05 2.831680871540e-06 0.0 
6.205480400924e-04 2.573717288475e-04 0.0 
3.411531516059e-04 1.744861289341e-03 0.0 
3.277674624295e-04 6.552321085236e-05 0.0 
2.984868192490e-04 1.772280022065e-08 0.0 
4.699341602878e-04 6.596029459383e-03 0.0 
8.931278624256e-05 1.952218107204e-04 0.0 
3.116832135942e-04 -2.705796270902e-04 0.0 
8.386574529584e-04 9.756144306503e-03 0.0 
2.447453931845e-04 -2.784868320114e-04 0.0 
1.208964180254e-04 -2.312362019354e-04 0.0 
1.219016651361e-05 2.776024278153e-07 0.0 
1.841344575595e-03 7.231715622579e-03 0.0 
6.738537356034e-05 -2.033199351707e-04 0.0 
4.839999254496e-05 -1.113030698972e-04 0.0 
7.495890824933e-04 3.346989815770e-04 0.0 
5.602608974843e-04 1.818938679509e-03 0.0 
6.582993834112e-04 7.320379762029e-04 0.0 
3.466170213547e-05 -1.516456712859e-04 0.0 
2.291247221521e-04 -2.254818346998e-04 0.0 
5.578617081173e-05 -3.499688507378e-07 0.0 
1.886711926753e-05 4.909911659146e-04 0.0 
2.873862464063e-06 1.549254457070e-07 0.0 
6.820235612021e-05 8.869070705906e-03 0.0 
2.249742487422e-04 8.445578544809e-06 0.0 
7.727179621418e-05 -2.021313549993e-04 0.0 
8.559596458384e-04 1.453017611837e-03 0.0 
1.382167212628e-04 -2.382585961190e-04 0.0 
1.042334148491e-04 5.864664584947e-06 0.0 
8.524123315182e-04 9.193649158709e-04 0.0 
2.028667678550e-04 -2.030733015183e-04 0.0 
8.984360228706e-04 1.812722228520e-04 0.0 
2.935829767676e-04 4.499669619624e-03 0.0 
2.171724712086e-04 9.842767464571e-04 0.0 
4.425742197052e-05 6.505354414852e-06 0.0 
1.149936688983e-04 5.883718688499e-03 0.0 
6.410216104663e-04 3.025491656931e-04 0.0 
1.087532927765e-03 1.282643845992e-03 0.0 
2.363292970181e-04 5.171671795101e-03 0.0 
9.768670570884e-04 4.447548066675e-04 0.0 
5.714342984132e-05 -1.330280070273e-04 0.0 
4.714835582769e-04 9.483377284375e-03 0.0 
5.713984329932e-04 1.073400716868e-04 0.0 
1.947385697360e-05 1.047561475140e-03 0.0 
2.607175669842e-05 -2.206103145129e-04 0.0 
1.353639124157e-04 9.468875701193e-03 0.0 
2.616347217248e-06 -4.501285522573e-07 0.0 
1.109065639472e-04 -2.042306328786e-04 0.0 
3.044820903626e-04 1.388759679320e-05 0.0 
1.250527953762e-03 1.160534013743e-03 0.0 
2.506253443244e-04 1.283073445102e-03 0.0 
7.272275900737e-05 -1.958694674450e-04 0.0 
2.263447539946e-04 -1.486502503076e-04 0.0 
4.876949394899e-06 -7.720838299936e-05 0.0 
1.207410988791e-04 3.487284873425e-03 0.0 
1.932722997075e-04 -2.531269743922e-04 0.0 
5.369528519779e-04 8.083552855856e-04 0.0 
2.059790955585e-04 6.077677164139e-03 0.0 
2.584249553100e-04 -2.735721437788e-04 0.0 
3.769335853069e-04 6.807459310209e-03 0.0 
4.438978550704e-04 9.036344772541e-05 0.0 
9.001744110473e-06 -6.964415440940e-05 0.0 
1.621520813471e-04 -1.211146905211e-04 0.0 
6.949682111695e-05 -1.450591006154e-04 0.0 
6.619281382728e-05 -9.541296381945e-05 0.0 
4.124794715573e-06 -6.229714945754e-05 0.0 
4.563330966760e-04 5.978587316811e-05 0.0 
3.462823405026e-05 -9.605797784680e-05 0.0 
4.330844833168e-05 -8.676065974508e-05 0.0 
1.472117073407e-04 -2.372855944101e-04 0.0 
7.244104657183e-05 -2.292836049427e-06 0.0 
1.101446596684e-03 3.318712222889e-04 0.0 
2.637294925136e-04 -1.542359939769e-04 0.0 
3.274901858298e-05 9.914197988188e-04 0.0 
4.688689409763e-06 -2.372100434624e-07 0.0 
1.297330109298e-04 8.923774917581e-03 0.0 
1.536661516202e-04 6.295399935273e-03 0.0 
4.788763132618e-05 -9.865810283643e-05 0.0 
5.271657634290e-05 -9.352882837753e-05 0.0 
3.186168701194e-05 -8.828257525185e-05 0.0 
3.899596912149e-04 1.445932735784e-05 0.0 
2.460095955125e-04 -2.756162125316e-04 0.0 
9.592485751450e-04 2.996237932778e-04 0.0 
2.391766834117e-04 7.801817766424e-03 0.0 
6.461024608000e-04 1.079564593459e-03 0.0 
3.646949003825e-04 1.053391212719e-05 0.0 
4.391375653201e-04 7.006531277140e-03 0.0 
1.317504695304e-03 6.453769974924e-04 0.0 
4.733459627035e-04 6.871694650384e-05 0.0 
3.608887590939e-04 5.802000353438e-05 0.0 
1.762810146562e-04 -1.347055837406e-04 0.0 
1.295293412362e-03 5.922734775104e-04 0.0 
1.094353537453e-03 4.773490002074e-04 0.0 
1.380710811800e-04 -2.341731587164e-04 0.0 
5.447154837974e-05 -1.055596337130e-04 0.0 
1.765280327694e-04 -1.526522482581e-04 0.0 
1.124241333930e-03 5.510987466872e-04 0.0 
1.968067517576e-04 1.069322628989e-02 0.0 
2.248829639348e-04 1.035219915309e-02 0.0 
3.090967856522e-04 1.069424197606e-02 0.0 
3.378396211706e-04 1.035660548379e-02 0.0 
4.139802155040e-04 1.069855921970e-02 0.0 
4.473301864557e-04 1.036234900163e-02 0.0 
5.174188920890e-04 1.070150363416e-02 0.0 
5.526293978018e-04 1.036257018720e-02 0.0 
6.165794117209e-04 1.069709887779e-02 0.0 
6.529506650045e-04 1.035752228143e-02 0.0 
7.075710718427e-04 1.068598172969e-02 0.0 
7.440533890697e-04 1.034321244607e-02 0.0 
1.029251096267e-03 8.204125982442e-03 0.0 
7.856919497650e-04 1.066194512456e-02 0.0 
1.128238045542e-03 8.336937598904e-03 0.0 
8.239134370828e-04 1.031322423251e-02 0.0 
8.479678717163e-04 1.061511799013e-02 0.0 
8.902847919560e-04 1.025535033813e-02 0.0 
8.925695440380e-04 1.053772061561e-02 0.0 
9.428256541848e-04 1.016613136469e-02 0.0 
9.144018557230e-04 1.042287540719e-02 0.0 
9.778431220555e-04 1.002736843949e-02 0.0 
6.954825127765e-04 8.386954684731e-03 0.0 
9.108202636082e-04 1.024456112285e-02 0.0 
9.992971505344e-04 9.811424415838e-03 0.0 
8.873870867709e-04 9.977779562635e-03 0.0 
1.016915715116e-03 9.491316876586e-03 0.0 
1.047775109719e-03 9.023610181938e-03 0.0 
8.552563390604e-04 9.592131456641e-03 0.0 
8.403616645169e-04 9.034147894916e-03 0.0 
1.288034643446e-03 7.568827522435e-03 0.0 
9.542660599559e-04 7.751656224724e-03 0.0 
2.519213601804e-05 1.051315408955e-02 0.0 
1.265956739910e-04 1.051958270522e-02 0.0 
6.908348775744e-05 1.017206022756e-02 0.0 
8.270432225163e-05 1.086067656721e-02 0.0 
1.027921154768e-03 7.176970163217e-03 0.0 

VECTORS element_materi_displacement float
0.0 0.0 0.0 
0.0 0.0 0.0 
0.0 0.0 0.0 
0.0 0.0 0.0 
0.0 0.0 0.0 
0.0 0.0 0.0 
0.0 0.0 0.0 
0.0 0.0 0.0 
0.0 0.0 0.0 
0.0 0.0 0.0 
0.0 0.0 0.0 
0.0 0.0 0.0 
0.0 0.0 0.0 
0.0 0.0 0.0 
0.0 0.0 0.0 
0.0 0.0 0.0 
0.0 0.0 0.0 
0.0 0.0 0.0 
0.0 0.0 0.0 
0.0 0.0 0.0 
0.0 0.0 0.0 
0.0 0.0 0.0 
0.0 0.0 0.0 
0.0 0.0 0.0 
0.0 0.0 0.0 
0.0 0.0 0.0 
0.0 0.0 0.0 
0.0 0.0 0.0 
0.0 0.0 0.0 
0.0 0.0 0.0 
0.0 0.0 0.0 
0.0 0.0 0.0 
0.0 0.0 0.0 
0.0 0.0 0.0 
0.0 0.0 0.0 
0.0 0.0 0.0 
0.0 0.0 0.0 
0.0 0.0 0.0 
0.0 0.0 0.0 
0.0 0.0 0.0 
0.0 0.0 0.0 
0.0 0.0 0.0 
0.0 0.0 0.0 
0.0 0.0 0.0 
0.0 0.0 0.0 
0.0 0.0 0.0 
0.0 0.0 0.0 
0.0 0.0 0.0 
0.0 0.0 0.0 
0.0 0.0 0.0 
0.0 0.0 0.0 
0.0 0.0 0.0 
0.0 0.0 0.0 
0.0 0.0 0.0 
0.0 0.0 0.0 
0.0 0.0 0.0 
0.0 0.0 0.0 
0.0 0.0 0.0 
0.0 0.0 0.0 
0.0 0.0 0.0 
0.0 0.0 0.0 
0.0 0.0 0.0 
0.0 0.0 0.0 
0.0 0.0 0.0 
0.0 0.0 0.0 
0.0 0.0 0.0 
0.0 0.0 0.0 
0.0 0.0 0.0 
0.0 0.0 0.0 
0.0 0.0 0.0 
0.0 0.0 0.0 
0.0 0.0 0.0 
0.0 0.0 0.0 
0.0 0.0 0.0 
0.0 0.0 0.0 
0.0 0.0 0.0 
0.0 0.0 0.0 
0.0 0.0 0.0 
0.0 0.0 0.0 
0.0 0.0 0.0 
0.0 0.0 0.0 
0.0 0.0 0.0 
0.0 0.0 0.0 
0.0 0.0 0.0 
0.0 0.0 0.0 
0.0 0.0 0.0 
0.0 0.0 0.0 
0.0 0.0 0.0 
0.0 0.0 0.0 
0.0 0.0 0.0 
0.0 0.0 0.0 
0.0 0.0 0.0 
0.0 0.0 0.0 
0.0 0.0 0.0 
0.0 0.0 0.0 
0.0 0.0 0.0 
0.0 0.0 0.0 
0.0 0.0 0.0 
0.0 0.0 0.0 
0.0 0.0 0.0 
0.0 0.0 0.0 
0.0 0.0 0.0 
0.0 0.0 0.0 
0.0 0.0 0.0 
0.0 0.0 0.0 
0.0 0.0 0.0 
0.0 0.0 0.0 
0.0 0.0 0.0 
0.0 0.0 0.0 
0.0 0.0 0.0 
0.0 0.0 0.0 
0.0 0.0 0.0 
0.0 0.0 0.0 
0.0 0.0 0.0 
0.0 0.0 0.0 
0.0 0.0 0.0 
0.0 0.0 0.0 
0.0 0.0 0.0 
0.0 0.0 0.0 
0.0 0.0 0.0 
0.0 0.0 0.0 
0.0 0.0 0.0 
0.0 0.0 0.0 
0.0 0.0 0.0 
0.0 0.0 0.0 
0.0 0.0 0.0 
0.0 0.0 0.0 
0.0 0.0 0.0 
0.0 0.0 0.0 
0.0 0.0 0.0 
0.0 0.0 0.0 
0.0 0.0 0.0 
0.0 0.0 0.0 
0.0 0.0 0.0 
0.0 0.0 0.0 
0.0 0.0 0.0 
0.0 0.0 0.0 
0.0 0.0 0.0 
0.0 0.0 0.0 
0.0 0.0 0.0 
0.0 0.0 0.0 
0.0 0.0 0.0 
0.0 0.0 0.0 
0.0 0.0 0.0 
0.0 0.0 0.0 
0.0 0.0 0.0 
0.0 0.0 0.0 
0.0 0.0 0.0 
0.0 0.0 0.0 
0.0 0.0 0.0 
0.0 0.0 0.0 
0.0 0.0 0.0 
0.0 0.0 0.0 
0.0 0.0 0.0 
0.0 0.0 0.0 
0.0 0.0 0.0 
0.0 0.0 0.0 
0.0 0.0 0.0 
0.0 0.0 0.0 
0.0 0.0 0.0 
0.0 0.0 0.0 
0.0 0.0 0.0 
0.0 0.0 0.0 
0.0 0.0 0.0 
0.0 0.0 0.0 
0.0 0.0 0.0 
0.0 0.0 0.0 
0.0 0.0 0.0 
0.0 0.0 0.0 
0.0 0.0 0.0 
0.0 0.0 0.0 
0.0 0.0 0.0 
0.0 0.0 0.0 
0.0 0.0 0.0 
0.0 0.0 0.0 
0.0 0.0 0.0 
0.0 0.0 0.0 
0.0 0.0 0.0 
0.0 0.0 0.0 
0.0 0.0 0.0 
0.0 0.0 0.0 
0.0 0.0 0.0 
0.0 0.0 0.0 
0.0 0.0 0.0 
0.0 0.0 0.0 
0.0 0.0 0.0 
0.0 0.0 0.0 
0.0 0.0 0.0 
0.0 0.0 0.0 
0.0 0.0 0.0 
0.0 0.0 0.0 
0.0 0.0 0.0 
0.0 0.0 0.0 
0.0 0.0 0.0 
0.0 0.0 0.0 
0.0 0.0 0.0 
0.0 0.0 0.0 
0.0 0.0 0.0 
0.0 0.0 0.0 
0.0 0.0 0.0 
0.0 0.0 0.0 
0.0 0.0 0.0 
0.0 0.0 0.0 
0.0 0.0 0.0 
0.0 0.0 0.0 
0.0 0.0 0.0 
0.0 0.0 0.0 
0.0 0.0 0.0 
0.0 0.0 0.0 
0.0 0.0 0.0 
0.0 0.0 0.0 
0.0 0.0 0.0 
0.0 0.0 0.0 
0.0 0.0 0.0 
0.0 0.0 0.0 
0.0 0.0 0.0 
0.0 0.0 0.0 
0.0 0.0 0.0 
0.0 0.0 0.0 
0.0 0.0 0.0 
0.0 0.0 0.0 
0.0 0.0 0.0 
0.0 0.0 0.0 
0.0 0.0 0.0 
0.0 0.0 0.0 
0.0 0.0 0.0 
0.0 0.0 0.0 
0.0 0.0 0.0 
0.0 0.0 0.0 
0.0 0.0 0.0 
0.0 0.0 0.0 
0.0 0.0 0.0 
0.0 0.0 0.0 
0.0 0.0 0.0 
0.0 0.0 0.0 
0.0 0.0 0.0 
0.0 0.0 0.0 
0.0 0.0 0.0 
0.0 0.0 0.0 
0.0 0.0 0.0 
0.0 0.0 0.0 
0.0 0.0 0.0 
0.0 0.0 0.0 
0.0 0.0 0.0 
0.0 0.0 0.0 
0.0 0.0 0.0 
0.0 0.0 0.0 
0.0 0.0 0.0 
0.0 0.0 0.0 
0.0 0.0 0.0 
0.0 0.0 0.0 
0.0 0.0 0.0 
0.0 0.0 0.0 
0.0 0.0 0.0 
0.0 0.0 0.0 
0.0 0.0 0.0 
0.0 0.0 0.0 
0.0 0.0 0.0 
0.0 0.0 0.0 
0.0 0.0 0.0 
0.0 0.0 0.0 
0.0 0.0 0.0 
0.0 0.0 0.0 
0.0 0.0 0.0 
0.0 0.0 0.0 
0.0 0.0 0.0 
0.0 0.0 0.0 
0.0 0.0 0.0 
0.0 0.0 0.0 
0.0 0.0 0.0 
0.0 0.0 0.0 
0.0 0.0 0.0 
0.0 0.0 0.0 
0.0 0.0 0.0 
0.0 0.0 0.0 
0.0 0.0 0.0 
0.0 0.0 0.0 
0.0 0.0 0.0 
0.0 0.0 0.0 
0.0 0.0 0.0 
0.0 0.0 0.0 
0.0 0.0 0.0 
0.0 0.0 0.0 
0.0 0.0 0.0 
0.0 0.0 0.0 
0.0 0.0 0.0 
0.0 0.0 0.0 
0.0 0.0 0.0 
0.0 0.0 0.0 
0.0 0.0 0.0 
0.0 0.0 0.0 
0.0 0.0 0.0 
0.0 0.0 0.0 
0.0 0.0 0.0 
0.0 0.0 0.0 
0.0 0.0 0.0 
0.0 0.0 0.0 
0.0 0.0 0.0 
0.0 0.0 0.0 
0.0 0.0 0.0 
0.0 0.0 0.0 
0.0 0.0 0.0 
0.0 0.0 0.0 
0.0 0.0 0.0 
0.0 0.0 0.0 
0.0 0.0 0.0 
0.0 0.0 0.0 
0.0 0.0 0.0 
0.0 0.0 0.0 
0.0 0.0 0.0 
0.0 0.0 0.0 
0.0 0.0 0.0 
0.0 0.0 0.0 
0.0 0.0 0.0 
0.0 0.0 0.0 
0.0 0.0 0.0 
0.0 0.0 0.0 
0.0 0.0 0.0 
0.0 0.0 0.0 
0.0 0.0 0.0 
0.0 0.0 0.0 
0.0 0.0 0.0 
0.0 0.0 0.0 
0.0 0.0 0.0 
0.0 0.0 0.0 
0.0 0.0 0.0 
0.0 0.0 0.0 
0.0 0.0 0.0 
0.0 0.0 0.0 
0.0 0.0 0.0 
0.0 0.0 0.0 
0.0 0.0 0.0 
0.0 0.0 0.0 
0.0 0.0 0.0 
0.0 0.0 0.0 
0.0 0.0 0.0 
0.0 0.0 0.0 
0.0 0.0 0.0 
0.0 0.0 0.0 
0.0 0.0 0.0 
0.0 0.0 0.0 
0.0 0.0 0.0 
0.0 0.0 0.0 
0.0 0.0 0.0 
0.0 0.0 0.0 
0.0 0.0 0.0 
0.0 0.0 0.0 
0.0 0.0 0.0 
0.0 0.0 0.0 
0.0 0.0 0.0 
0.0 0.0 0.0 
0.0 0.0 0.0 
0.0 0.0 0.0 
0.0 0.0 0.0 
0.0 0.0 0.0 
0.0 0.0 0.0 
0.0 0.0 0.0 
0.0 0.0 0.0 
0.0 0.0 0.0 
0.0 0.0 0.0 
0.0 0.0 0.0 
0.0 0.0 0.0 
0.0 0.0 0.0 
0.0 0.0 0.0 
0.0 0.0 0.0 
0.0 0.0 0.0 
0.0 0.0 0.0 
0.0 0.0 0.0 
0.0 0.0 0.0 
0.0 0.0 0.0 
0.0 0.0 0.0 
0.0 0.0 0.0 
0.0 0.0 0.0 
0.0 0.0 0.0 
0.0 0.0 0.0 
0.0 0.0 0.0 
0.0 0.0 0.0 
0.0 0.0 0.0 
0.0 0.0 0.0 
0.0 0.0 0.0 
0.0 0.0 0.0 
0.0 0.0 0.0 
0.0 0.0 0.0 
0.0 0.0 0.0 
0.0 0.0 0.0 
0.0 0.0 0.0 
0.0 0.0 0.0 
0.0 0.0 0.0 
0.0 0.0 0.0 
0.0 0.0 0.0 
0.0 0.0 0.0 
0.0 0.0 0.0 
0.0 0.0 0.0 
0.0 0.0 0.0 
0.0 0.0 0.0 
0.0 0.0 0.0 
0.0 0.0 0.0 
0.0 0.0 0.0 
0.0 0.0 0.0 
0.0 0.0 0.0 
0.0 0.0 0.0 
0.0 0.0 0.0 
0.0 0.0 0.0 
0.0 0.0 0.0 
0.0 0.0 0.0 
0.0 0.0 0.0 
0.0 0.0 0.0 
0.0 0.0 0.0 
0.0 0.0 0.0 
0.0 0.0 0.0 
0.0 0.0 0.0 
0.0 0.0 0.0 
0.0 0.0 0.0 
0.0 0.0 0.0 
0.0 0.0 0.0 
0.0 0.0 0.0 
0.0 0.0 0.0 
0.0 0.0 0.0 
0.0 0.0 0.0 
0.0 0.0 0.0 
0.0 0.0 0.0 
0.0 0.0 0.0 
0.0 0.0 0.0 
0.0 0.0 0.0 
0.0 0.0 0.0 
0.0 0.0 0.0 
0.0 0.0 0.0 
0.0 0.0 0.0 
0.0 0.0 0.0 
0.0 0.0 0.0 
0.0 0.0 0.0 
0.0 0.0 0.0 
0.0 0.0 0.0 
0.0 0.0 0.0 
0.0 0.0 0.0 
0.0 0.0 0.0 
0.0 0.0 0.0 
0.0 0.0 0.0 
0.0 0.0 0.0 
0.0 0.0 0.0 
0.0 0.0 0.0 
0.0 0.0 0.0 
0.0 0.0 0.0 
0.0 0.0 0.0 
0.0 0.0 0.0 
0.0 0.0 0.0 
0.0 0.0 0.0 
0.0 0.0 0.0 
0.0 0.0 0.0 
0.0 0.0 0.0 
0.0 0.0 0.0 
0.0 0.0 0.0 
0.0 0.0 0.0 
0.0 0.0 0.0 
0.0 0.0 0.0 
0.0 0.0 0.0 
0.0 0.0 0.0 
0.0 0.0 0.0 
0.0 0.0 0.0 
0.0 0.0 0.0 
0.0 0.0 0.0 
0.0 0.0 0.0 
0.0 0.0 0.0 
0.0 0.0 0.0 
0.0 0.0 0.0 
0.0 0.0 0.0 
0.0 0.0 0.0 
0.0 0.0 0.0 
0.0 0.0 0.0 
0.0 0.0 0.0 
0.0 0.0 0.0 
0.0 0.0 0.0 
0.0 0.0 0.0 
0.0 0.0 0.0 
0.0 0.0 0.0 
0.0 0.0 0.0 
0.0 0.0 0.0 
0.0 0.0 0.0 
0.0 0.0 0.0 
0.0 0.0 0.0 
0.0 0.0 0.0 
0.0 0.0 0.0 
0.0 0.0 0.0 
0.0 0.0 0.0 
0.0 0.0 0.0 
0.0 0.0 0.0 
0.0 0.0 0.0 
0.0 0.0 0.0 
0.0 0.0 0.0 
0.0 0.0 0.0 
0.0 0.0 0.0 
0.0 0.0 0.0 
0.0 0.0 0.0 
0.0 0.0 0.0 
0.0 0.0 0.0 
0.0 0.0 0.0 
0.0 0.0 0.0 
0.0 0.0 0.0 
0.0 0.0 0.0 
0.0 0.0 0.0 
0.0 0.0 0.0 
0.0 0.0 0.0 
0.0 0.0 0.0 
0.0 0.0 0.0 
0.0 0.0 0.0 
0.0 0.0 0.0 
0.0 0.0 0.0 
0.0 0.0 0.0 
0.0 0.0 0.0 
0.0 0.0 0.0 
0.0 0.0 0.0 
0.0 0.0 0.0 
0.0 0.0 0.0 
0.0 0.0 0.0 
0.0 0.0 0.0 
0.0 0.0 0.0 
0.0 0.0 0.0 
0.0 0.0 0.0 
0.0 0.0 0.0 
0.0 0.0 0.0 
0.0 0.0 0.0 
0.0 0.0 0.0 
0.0 0.0 0.0 
0.0 0.0 0.0 
0.0 0.0 0.0 
0.0 0.0 0.0 
0.0 0.0 0.0 
0.0 0.0 0.0 
0.0 0.0 0.0 
0.0 0.0 0.0 
0.0 0.0 0.0 
0.0 0.0 0.0 
0.0 0.0 0.0 
0.0 0.0 0.0 
0.0 0.0 0.0 
0.0 0.0 0.0 
0.0 0.0 0.0 
0.0 0.0 0.0 
0.0 0.0 0.0 
0.0 0.0 0.0 
0.0 0.0 0.0 
0.0 0.0 0.0 
0.0 0.0 0.0 
0.0 0.0 0.0 
0.0 0.0 0.0 
0.0 0.0 0.0 
0.0 0.0 0.0 
0.0 0.0 0.0 
0.0 0.0 0.0 
0.0 0.0 0.0 
0.0 0.0 0.0 
0.0 0.0 0.0 
0.0 0.0 0.0 
0.0 0.0 0.0 
0.0 0.0 0.0 
0.0 0.0 0.0 
0.0 0.0 0.0 
0.0 0.0 0.0 
0.0 0.0 0.0 
0.0 0.0 0.0 
0.0 0.0 0.0 
0.0 0.0 0.0 
0.0 0.0 0.0 
0.0 0.0 0.0 
0.0 0.0 0.0 
0.0 0.0 0.0 
0.0 0.0 0.0 
0.0 0.0 0.0 
0.0 0.0 0.0 
0.0 0.0 0.0 
0.0 0.0 0.0 
0.0 0.0 0.0 
0.0 0.0 0.0 
0.0 0.0 0.0 
0.0 0.0 0.0 
0.0 0.0 0.0 
0.0 0.0 0.0 
0.0 0.0 0.0 
0.0 0.0 0.0 
0.0 0.0 0.0 
0.0 0.0 0.0 
0.0 0.0 0.0 
0.0 0.0 0.0 
0.0 0.0 0.0 
0.0 0.0 0.0 
0.0 0.0 0.0 
0.0 0.0 0.0 
0.0 0.0 0.0 
0.0 0.0 0.0 
0.0 0.0 0.0 
0.0 0.0 0.0 
0.0 0.0 0.0 
0.0 0.0 0.0 
0.0 0.0 0.0 
0.0 0.0 0.0 
0.0 0.0 0.0 
0.0 0.0 0.0 
0.0 0.0 0.0 
0.0 0.0 0.0 
0.0 0.0 0.0 
0.0 0.0 0.0 
0.0 0.0 0.0 
0.0 0.0 0.0 
0.0 0.0 0.0 
0.0 0.0 0.0 
0.0 0.0 0.0 
0.0 0.0 0.0 
0.0 0.0 0.0 
0.0 0.0 0.0 
0.0 0.0 0.0 
0.0 0.0 0.0 
0.0 0.0 0.0 
0.0 0.0 0.0 
0.0 0.0 0.0 
0.0 0.0 0.0 
0.0 0.0 0.0 
0.0 0.0 0.0 
0.0 0.0 0.0 
0.0 0.0 0.0 
0.0 0.0 0.0 
0.0 0.0 0.0 
0.0 0.0 0.0 
0.0 0.0 0.0 
0.0 0.0 0.0 
0.0 0.0 0.0 
0.0 0.0 0.0 
0.0 0.0 0.0 
0.0 0.0 0.0 
0.0 0.0 0.0 
0.0 0.0 0.0 
0.0 0.0 0.0 
0.0 0.0 0.0 
0.0 0.0 0.0 
0.0 0.0 0.0 
0.0 0.0 0.0 
0.0 0.0 0.0 
0.0 0.0 0.0 
0.0 0.0 0.0 
0.0 0.0 0.0 
0.0 0.0 0.0 
0.0 0.0 0.0 
0.0 0.0 0.0 
0.0 0.0 0.0 
0.0 0.0 0.0 
0.0 0.0 0.0 
0.0 0.0 0.0 
0.0 0.0 0.0 
0.0 0.0 0.0 
0.0 0.0 0.0 
0.0 0.0 0.0 
0.0 0.0 0.0 
0.0 0.0 0.0 
0.0 0.0 0.0 
0.0 0.0 0.0 
0.0 0.0 0.0 
0.0 0.0 0.0 
0.0 0.0 0.0 
0.0 0.0 0.0 
0.0 0.0 0.0 
0.0 0.0 0.0 
0.0 0.0 0.0 
0.0 0.0 0.0 
0.0 0.0 0.0 
0.0 0.0 0.0 
0.0 0.0 0.0 
0.0 0.0 0.0 
0.0 0.0 0.0 
0.0 0.0 0.0 
0.0 0.0 0.0 
0.0 0.0 0.0 
0.0 0.0 0.0 
0.0 0.0 0.0 
0.0 0.0 0.0 
0.0 0.0 0.0 
0.0 0.0 0.0 
0.0 0.0 0.0 
0.0 0.0 0.0 
0.0 0.0 0.0 
0.0 0.0 0.0 
0.0 0.0 0.0 
0.0 0.0 0.0 
0.0 0.0 0.0 
0.0 0.0 0.0 
0.0 0.0 0.0 
0.0 0.0 0.0 
0.0 0.0 0.0 
0.0 0.0 0.0 
0.0 0.0 0.0 
0.0 0.0 0.0 
0.0 0.0 0.0 
0.0 0.0 0.0 
0.0 0.0 0.0 
0.0 0.0 0.0 
0.0 0.0 0.0 
0.0 0.0 0.0 
0.0 0.0 0.0 
0.0 0.0 0.0 
0.0 0.0 0.0 
0.0 0.0 0.0 
0.0 0.0 0.0 
0.0 0.0 0.0 
0.0 0.0 0.0 
0.0 0.0 0.0 
0.0 0.0 0.0 
0.0 0.0 0.0 
0.0 0.0 0.0 
0.0 0.0 0.0 
0.0 0.0 0.0 
0.0 0.0 0.0 
0.0 0.0 0.0 
0.0 0.0 0.0 
0.0 0.0 0.0 
0.0 0.0 0.0 
0.0 0.0 0.0 
0.0 0.0 0.0 
0.0 0.0 0.0 
0.0 0.0 0.0 
0.0 0.0 0.0 
0.0 0.0 0.0 
0.0 0.0 0.0 
0.0 0.0 0.0 
0.0 0.0 0.0 
0.0 0.0 0.0 
0.0 0.0 0.0 
0.0 0.0 0.0 
0.0 0.0 0.0 
0.0 0.0 0.0 
0.0 0.0 0.0 
0.0 0.0 0.0 
0.0 0.0 0.0 
0.0 0.0 0.0 
0.0 0.0 0.0 
0.0 0.0 0.0 
0.0 0.0 0.0 
0.0 0.0 0.0 
0.0 0.0 0.0 
0.0 0.0 0.0 
0.0 0.0 0.0 
0.0 0.0 0.0 
0.0 0.0 0.0 
0.0 0.0 0.0 
0.0 0.0 0.0 
0.0 0.0 0.0 
0.0 0.0 0.0 
0.0 0.0 0.0 
0.0 0.0 0.0 
0.0 0.0 0.0 
0.0 0.0 0.0 
0.0 0.0 0.0 
0.0 0.0 0.0 
0.0 0.0 0.0 
0.0 0.0 0.0 
0.0 0.0 0.0 
0.0 0.0 0.0 
0.0 0.0 0.0 
0.0 0.0 0.0 
0.0 0.0 0.0 
0.0 0.0 0.0 
0.0 0.0 0.0 
0.0 0.0 0.0 
0.0 0.0 0.0 
0.0 0.0 0.0 
0.0 0.0 0.0 
0.0 0.0 0.0 
0.0 0.0 0.0 
0.0 0.0 0.0 
0.0 0.0 0.0 
0.0 0.0 0.0 
0.0 0.0 0.0 
0.0 0.0 0.0 
0.0 0.0 0.0 
0.0 0.0 0.0 
0.0 0.0 0.0 
0.0 0.0 0.0 
0.0 0.0 0.0 
0.0 0.0 0.0 
0.0 0.0 0.0 
0.0 0.0 0.0 
0.0 0.0 0.0 
0.0 0.0 0.0 
0.0 0.0 0.0 
0.0 0.0 0.0 
0.0 0.0 0.0 
0.0 0.0 0.0 
0.0 0.0 0.0 
0.0 0.0 0.0 
0.0 0.0 0.0 
0.0 0.0 0.0 
0.0 0.0 0.0 
0.0 0.0 0.0 
0.0 0.0 0.0 
0.0 0.0 0.0 
0.0 0.0 0.0 
0.0 0.0 0.0 
0.0 0.0 0.0 
0.0 0.0 0.0 
0.0 0.0 0.0 
0.0 0.0 0.0 
0.0 0.0 0.0 
0.0 0.0 0.0 
0.0 0.0 0.0 
0.0 0.0 0.0 
0.0 0.0 0.0 
0.0 0.0 0.0 
0.0 0.0 0.0 
0.0 0.0 0.0 
0.0 0.0 0.0 
0.0 0.0 0.0 
0.0 0.0 0.0 
0.0 0.0 0.0 
0.0 0.0 0.0 
0.0 0.0 0.0 
0.0 0.0 0.0 
0.0 0.0 0.0 
0.0 0.0 0.0 
0.0 0.0 0.0 
0.0 0.0 0.0 
0.0 0.0 0.0 
0.0 0.0 0.0 
0.0 0.0 0.0 
0.0 0.0 0.0 
0.0 0.0 0.0 
0.0 0.0 0.0 
0.0 0.0 0.0 
0.0 0.0 0.0 
0.0 0.0 0.0 
0.0 0.0 0.0 
0.0 0.0 0.0 
0.0 0.0 0.0 
0.0 0.0 0.0 
0.0 0.0 0.0 
0.0 0.0 0.0 
0.0 0.0 0.0 
0.0 0.0 0.0 
0.0 0.0 0.0 
0.0 0.0 0.0 
0.0 0.0 0.0 
0.0 0.0 0.0 
0.0 0.0 0.0 
0.0 0.0 0.0 
0.0 0.0 0.0 
0.0 0.0 0.0 
0.0 0.0 0.0 
0.0 0.0 0.0 
0.0 0.0 0.0 
0.0 0.0 0.0 
0.0 0.0 0.0 
0.0 0.0 0.0 
0.0 0.0 0.0 
0.0 0.0 0.0 
0.0 0.0 0.0 
0.0 0.0 0.0 
0.0 0.0 0.0 
0.0 0.0 0.0 
0.0 0.0 0.0 
0.0 0.0 0.0 
0.0 0.0 0.0 
0.0 0.0 0.0 
0.0 0.0 0.0 
0.0 0.0 0.0 
0.0 0.0 0.0 
0.0 0.0 0.0 
0.0 0.0 0.0 
0.0 0.0 0.0 
0.0 0.0 0.0 
0.0 0.0 0.0 
0.0 0.0 0.0 
0.0 0.0 0.0 
0.0 0.0 0.0 
0.0 0.0 0.0 
0.0 0.0 0.0 
0.0 0.0 0.0 
0.0 0.0 0.0 
0.0 0.0 0.0 
0.0 0.0 0.0 
0.0 0.0 0.0 
0.0 0.0 0.0 
0.0 0.0 0.0 
0.0 0.0 0.0 
0.0 0.0 0.0 
0.0 0.0 0.0 
0.0 0.0 0.0 
0.0 0.0 0.0 
0.0 0.0 0.0 
0.0 0.0 0.0 
0.0 0.0 0.0 
0.0 0.0 0.0 
0.0 0.0 0.0 
0.0 0.0 0.0 
0.0 0.0 0.0 
0.0 0.0 0.0 
0.0 0.0 0.0 
0.0 0.0 0.0 
0.0 0.0 0.0 
0.0 0.0 0.0 
0.0 0.0 0.0 
0.0 0.0 0.0 
0.0 0.0 0.0 
0.0 0.0 0.0 
0.0 0.0 0.0 
0.0 0.0 0.0 
0.0 0.0 0.0 
0.0 0.0 0.0 
0.0 0.0 0.0 
0.0 0.0 0.0 
0.0 0.0 0.0 
0.0 0.0 0.0 
0.0 0.0 0.0 
0.0 0.0 0.0 
0.0 0.0 0.0 
0.0 0.0 0.0 
0.0 0.0 0.0 
0.0 0.0 0.0 
0.0 0.0 0.0 
0.0 0.0 0.0 
0.0 0.0 0.0 
0.0 0.0 0.0 
0.0 0.0 0.0 
0.0 0.0 0.0 
0.0 0.0 0.0 
0.0 0.0 0.0 
0.0 0.0 0.0 
0.0 0.0 0.0 
0.0 0.0 0.0 
0.0 0.0 0.0 
0.0 0.0 0.0 
0.0 0.0 0.0 
0.0 0.0 0.0 
0.0 0.0 0.0 
0.0 0.0 0.0 
0.0 0.0 0.0 
0.0 0.0 0.0 
0.0 0.0 0.0 
0.0 0.0 0.0 
0.0 0.0 0.0 
0.0 0.0 0.0 
0.0 0.0 0.0 
0.0 0.0 0.0 
0.0 0.0 0.0 
0.0 0.0 0.0 
0.0 0.0 0.0 
0.0 0.0 0.0 
0.0 0.0 0.0 
0.0 0.0 0.0 
0.0 0.0 0.0 
0.0 0.0 0.0 
0.0 0.0 0.0 
0.0 0.0 0.0 
0.0 0.0 0.0 
0.0 0.0 0.0 
0.0 0.0 0.0 
0.0 0.0 0.0 
0.0 0.0 0.0 
0.0 0.0 0.0 
0.0 0.0 0.0 
0.0 0.0 0.0 
0.0 0.0 0.0 
0.0 0.0 0.0 
0.0 0.0 0.0 
0.0 0.0 0.0 
0.0 0.0 0.0 
0.0 0.0 0.0 
0.0 0.0 0.0 
0.0 0.0 0.0 
0.0 0.0 0.0 
0.0 0.0 0.0 
0.0 0.0 0.0 
0.0 0.0 0.0 
0.0 0.0 0.0 
0.0 0.0 0.0 
0.0 0.0 0.0 
0.0 0.0 0.0 
0.0 0.0 0.0 
0.0 0.0 0.0 
0.0 0.0 0.0 
0.0 0.0 0.0 
0.0 0.0 0.0 
0.0 0.0 0.0 
0.0 0.0 0.0 
0.0 0.0 0.0 
0.0 0.0 0.0 
0.0 0.0 0.0 
0.0 0.0 0.0 
0.0 0.0 0.0 
0.0 0.0 0.0 
0.0 0.0 0.0 
0.0 0.0 0.0 
0.0 0.0 0.0 
0.0 0.0 0.0 
0.0 0.0 0.0 
0.0 0.0 0.0 
0.0 0.0 0.0 
0.0 0.0 0.0 
0.0 0.0 0.0 
0.0 0.0 0.0 
0.0 0.0 0.0 
0.0 0.0 0.0 
0.0 0.0 0.0 
0.0 0.0 0.0 
0.0 0.0 0.0 
0.0 0.0 0.0 
0.0 0.0 0.0 
0.0 0.0 0.0 
0.0 0.0 0.0 
0.0 0.0 0.0 
0.0 0.0 0.0 
0.0 0.0 0.0 
0.0 0.0 0.0 
0.0 0.0 0.0 
0.0 0.0 0.0 
0.0 0.0 0.0 
0.0 0.0 0.0 
0.0 0.0 0.0 
0.0 0.0 0.0 
0.0 0.0 0.0 
0.0 0.0 0.0 
0.0 0.0 0.0 
0.0 0.0 0.0 
0.0 0.0 0.0 
0.0 0.0 0.0 
0.0 0.0 0.0 
0.0 0.0 0.0 
0.0 0.0 0.0 
0.0 0.0 0.0 
0.0 0.0 0.0 
0.0 0.0 0.0 
0.0 0.0 0.0 
0.0 0.0 0.0 
0.0 0.0 0.0 
0.0 0.0 0.0 
0.0 0.0 0.0 
0.0 0.0 0.0 
0.0 0.0 0.0 
0.0 0.0 0.0 
0.0 0.0 0.0 
0.0 0.0 0.0 
0.0 0.0 0.0 
0.0 0.0 0.0 
0.0 0.0 0.0 
0.0 0.0 0.0 
0.0 0.0 0.0 
0.0 0.0 0.0 
0.0 0.0 0.0 
0.0 0.0 0.0 
0.0 0.0 0.0 
0.0 0.0 0.0 
0.0 0.0 0.0 
0.0 0.0 0.0 
0.0 0.0 0.0 
0.0 0.0 0.0 
0.0 0.0 0.0 
0.0 0.0 0.0 
0.0 0.0 0.0 
0.0 0.0 0.0 
0.0 0.0 0.0 
0.0 0.0 0.0 
0.0 0.0 0.0 
0.0 0.0 0.0 
0.0 0.0 0.0 
0.0 0.0 0.0 
0.0 0.0 0.0 
0.0 0.0 0.0 
0.0 0.0 0.0 
0.0 0.0 0.0 
0.0 0.0 0.0 
0.0 0.0 0.0 
0.0 0.0 0.0 
0.0 0.0 0.0 
0.0 0.0 0.0 
0.0 0.0 0.0 
0.0 0.0 0.0 
0.0 0.0 0.0 
0.0 0.0 0.0 
0.0 0.0 0.0 
0.0 0.0 0.0 
0.0 0.0 0.0 
0.0 0.0 0.0 
0.0 0.0 0.0 
0.0 0.0 0.0 
0.0 0.0 0.0 
0.0 0.0 0.0 
0.0 0.0 0.0 
0.0 0.0 0.0 
0.0 0.0 0.0 
0.0 0.0 0.0 
0.0 0.0 0.0 
0.0 0.0 0.0 
0.0 0.0 0.0 
0.0 0.0 0.0 
0.0 0.0 0.0 
0.0 0.0 0.0 
0.0 0.0 0.0 
0.0 0.0 0.0 
0.0 0.0 0.0 
0.0 0.0 0.0 
0.0 0.0 0.0 
0.0 0.0 0.0 
0.0 0.0 0.0 
0.0 0.0 0.0 
0.0 0.0 0.0 
0.0 0.0 0.0 
0.0 0.0 0.0 
0.0 0.0 0.0 
0.0 0.0 0.0 
0.0 0.0 0.0 
0.0 0.0 0.0 
0.0 0.0 0.0 
0.0 0.0 0.0 
0.0 0.0 0.0 
0.0 0.0 0.0 
0.0 0.0 0.0 
0.0 0.0 0.0 
0.0 0.0 0.0 
0.0 0.0 0.0 
0.0 0.0 0.0 
0.0 0.0 0.0 
0.0 0.0 0.0 
0.0 0.0 0.0 
0.0 0.0 0.0 
0.0 0.0 0.0 
0.0 0.0 0.0 
0.0 0.0 0.0 
0.0 0.0 0.0 
0.0 0.0 0.0 
0.0 0.0 0.0 
0.0 0.0 0.0 
0.0 0.0 0.0 
0.0 0.0 0.0 
0.0 0.0 0.0 
0.0 0.0 0.0 
0.0 0.0 0.0 
0.0 0.0 0.0 
0.0 0.0 0.0 
0.0 0.0 0.0 
0.0 0.0 0.0 
0.0 0.0 0.0 
0.0 0.0 0.0 
0.0 0.0 0.0 
0.0 0.0 0.0 
0.0 0.0 0.0 
0.0 0.0 0.0 
0.0 0.0 0.0 
0.0 0.0 0.0 
0.0 0.0 0.0 
0.0 0.0 0.0 
0.0 0.0 0.0 
0.0 0.0 0.0 
0.0 0.0 0.0 
0.0 0.0 0.0 
0.0 0.0 0.0 
0.0 0.0 0.0 
0.0 0.0 0.0 
0.0 0.0 0.0 
0.0 0.0 0.0 
0.0 0.0 0.0 
0.0 0.0 0.0 
0.0 0.0 0.0 
0.0 0.0 0.0 
0.0 0.0 0.0 
0.0 0.0 0.0 
0.0 0.0 0.0 
0.0 0.0 0.0 
0.0 0.0 0.0 
0.0 0.0 0.0 
0.0 0.0 0.0 
0.0 0.0 0.0 
0.0 0.0 0.0 
0.0 0.0 0.0 
0.0 0.0 0.0 
0.0 0.0 0.0 
0.0 0.0 0.0 
0.0 0.0 0.0 
0.0 0.0 0.0 
0.0 0.0 0.0 
0.0 0.0 0.0 
0.0 0.0 0.0 
0.0 0.0 0.0 
0.0 0.0 0.0 
0.0 0.0 0.0 
0.0 0.0 0.0 
0.0 0.0 0.0 
0.0 0.0 0.0 
0.0 0.0 0.0 
0.0 0.0 0.0 
0.0 0.0 0.0 
0.0 0.0 0.0 
0.0 0.0 0.0 
0.0 0.0 0.0 
0.0 0.0 0.0 
0.0 0.0 0.0 
0.0 0.0 0.0 
0.0 0.0 0.0 
0.0 0.0 0.0 
0.0 0.0 0.0 
0.0 0.0 0.0 
0.0 0.0 0.0 
0.0 0.0 0.0 
0.0 0.0 0.0 
0.0 0.0 0.0 
0.0 0.0 0.0 
0.0 0.0 0.0 
0.0 0.0 0.0 
0.0 0.0 0.0 
0.0 0.0 0.0 
0.0 0.0 0.0 
0.0 0.0 0.0 
0.0 0.0 0.0 
0.0 0.0 0.0 
0.0 0.0 0.0 
0.0 0.0 0.0 
0.0 0.0 0.0 
0.0 0.0 0.0 
0.0 0.0 0.0 
0.0 0.0 0.0 
0.0 0.0 0.0 
0.0 0.0 0.0 
0.0 0.0 0.0 
0.0 0.0 0.0 
0.0 0.0 0.0 
0.0 0.0 0.0 
0.0 0.0 0.0 
0.0 0.0 0.0 
0.0 0.0 0.0 
0.0 0.0 0.0 
0.0 0.0 0.0 
0.0 0.0 0.0 
0.0 0.0 0.0 
0.0 0.0 0.0 
0.0 0.0 0.0 
0.0 0.0 0.0 
0.0 0.0 0.0 
0.0 0.0 0.0 
0.0 0.0 0.0 
0.0 0.0 0.0 
0.0 0.0 0.0 
0.0 0.0 0.0 
0.0 0.0 0.0 
0.0 0.0 0.0 
0.0 0.0 0.0 
0.0 0.0 0.0 
0.0 0.0 0.0 
0.0 0.0 0.0 
0.0 0.0 0.0 
0.0 0.0 0.0 
0.0 0.0 0.0 
0.0 0.0 0.0 
0.0 0.0 0.0 
0.0 0.0 0.0 
0.0 0.0 0.0 
0.0 0.0 0.0 
0.0 0.0 0.0 
0.0 0.0 0.0 
0.0 0.0 0.0 
0.0 0.0 0.0 
0.0 0.0 0.0 
0.0 0.0 0.0 
0.0 0.0 0.0 
0.0 0.0 0.0 
0.0 0.0 0.0 
0.0 0.0 0.0 
0.0 0.0 0.0 
0.0 0.0 0.0 
0.0 0.0 0.0 
0.0 0.0 0.0 
0.0 0.0 0.0 
0.0 0.0 0.0 
0.0 0.0 0.0 
0.0 0.0 0.0 
0.0 0.0 0.0 
0.0 0.0 0.0 
0.0 0.0 0.0 
0.0 0.0 0.0 
0.0 0.0 0.0 
0.0 0.0 0.0 
0.0 0.0 0.0 
0.0 0.0 0.0 
0.0 0.0 0.0 
0.0 0.0 0.0 
0.0 0.0 0.0 
0.0 0.0 0.0 
0.0 0.0 0.0 
0.0 0.0 0.0 
0.0 0.0 0.0 
0.0 0.0 0.0 
0.0 0.0 0.0 
0.0 0.0 0.0 
0.0 0.0 0.0 
0.0 0.0 0.0 
0.0 0.0 0.0 
0.0 0.0 0.0 
0.0 0.0 0.0 
0.0 0.0 0.0 
0.0 0.0 0.0 
0.0 0.0 0.0 
0.0 0.0 0.0 
0.0 0.0 0.0 
0.0 0.0 0.0 
0.0 0.0 0.0 
0.0 0.0 0.0 
0.0 0.0 0.0 
0.0 0.0 0.0 
0.0 0.0 0.0 
0.0 0.0 0.0 
0.0 0.0 0.0 
0.0 0.0 0.0 
0.0 0.0 0.0 
0.0 0.0 0.0 
0.0 0.0 0.0 
0.0 0.0 0.0 
0.0 0.0 0.0 
0.0 0.0 0.0 
0.0 0.0 0.0 
0.0 0.0 0.0 
0.0 0.0 0.0 
0.0 0.0 0.0 
0.0 0.0 0.0 
0.0 0.0 0.0 
0.0 0.0 0.0 
0.0 0.0 0.0 
0.0 0.0 0.0 
0.0 0.0 0.0 
0.0 0.0 0.0 
0.0 0.0 0.0 
0.0 0.0 0.0 
0.0 0.0 0.0 
0.0 0.0 0.0 
0.0 0.0 0.0 
0.0 0.0 0.0 
0.0 0.0 0.0 
0.0 0.0 0.0 
0.0 0.0 0.0 
0.0 0.0 0.0 
0.0 0.0 0.0 
0.0 0.0 0.0 
0.0 0.0 0.0 
0.0 0.0 0.0 
0.0 0.0 0.0 
0.0 0.0 0.0 
0.0 0.0 0.0 
0.0 0.0 0.0 
0.0 0.0 0.0 
0.0 0.0 0.0 
0.0 0.0 0.0 
0.0 0.0 0.0 
0.0 0.0 0.0 
0.0 0.0 0.0 
0.0 0.0 0.0 
0.0 0.0 0.0 
0.0 0.0 0.0 
0.0 0.0 0.0 
0.0 0.0 0.0 
0.0 0.0 0.0 
0.0 0.0 0.0 
0.0 0.0 0.0 
0.0 0.0 0.0 
0.0 0.0 0.0 
0.0 0.0 0.0 
0.0 0.0 0.0 
0.0 0.0 0.0 
0.0 0.0 0.0 
0.0 0.0 0.0 
0.0 0.0 0.0 
0.0 0.0 0.0 
0.0 0.0 0.0 
0.0 0.0 0.0 
0.0 0.0 0.0 
0.0 0.0 0.0 
0.0 0.0 0.0 
0.0 0.0 0.0 
0.0 0.0 0.0 
0.0 0.0 0.0 
0.0 0.0 0.0 
0.0 0.0 0.0 
0.0 0.0 0.0 
0.0 0.0 0.0 
0.0 0.0 0.0 
0.0 0.0 0.0 
0.0 0.0 0.0 
0.0 0.0 0.0 
0.0 0.0 0.0 
0.0 0.0 0.0 
0.0 0.0 0.0 
0.0 0.0 0.0 
0.0 0.0 0.0 
0.0 0.0 0.0 
0.0 0.0 0.0 
0.0 0.0 0.0 
0.0 0.0 0.0 
0.0 0.0 0.0 
0.0 0.0 0.0 
0.0 0.0 0.0 
0.0 0.0 0.0 
0.0 0.0 0.0 
0.0 0.0 0.0 
0.0 0.0 0.0 
0.0 0.0 0.0 
0.0 0.0 0.0 
0.0 0.0 0.0 
0.0 0.0 0.0 
0.0 0.0 0.0 
0.0 0.0 0.0 
0.0 0.0 0.0 
0.0 0.0 0.0 
0.0 0.0 0.0 
0.0 0.0 0.0 
0.0 0.0 0.0 
0.0 0.0 0.0 
0.0 0.0 0.0 
0.0 0.0 0.0 
0.0 0.0 0.0 
0.0 0.0 0.0 
0.0 0.0 0.0 
0.0 0.0 0.0 
0.0 0.0 0.0 
0.0 0.0 0.0 
0.0 0.0 0.0 
0.0 0.0 0.0 
0.0 0.0 0.0 
0.0 0.0 0.0 
0.0 0.0 0.0 
0.0 0.0 0.0 
0.0 0.0 0.0 
0.0 0.0 0.0 
0.0 0.0 0.0 
0.0 0.0 0.0 
0.0 0.0 0.0 
0.0 0.0 0.0 
0.0 0.0 0.0 
0.0 0.0 0.0 
0.0 0.0 0.0 
0.0 0.0 0.0 
0.0 0.0 0.0 
0.0 0.0 0.0 
0.0 0.0 0.0 
0.0 0.0 0.0 
0.0 0.0 0.0 
0.0 0.0 0.0 
0.0 0.0 0.0 
0.0 0.0 0.0 
0.0 0.0 0.0 
0.0 0.0 0.0 
0.0 0.0 0.0 
0.0 0.0 0.0 
0.0 0.0 0.0 
0.0 0.0 0.0 
0.0 0.0 0.0 
0.0 0.0 0.0 
0.0 0.0 0.0 
0.0 0.0 0.0 
0.0 0.0 0.0 
0.0 0.0 0.0 
0.0 0.0 0.0 
0.0 0.0 0.0 
0.0 0.0 0.0 
0.0 0.0 0.0 
0.0 0.0 0.0 
0.0 0.0 0.0 
0.0 0.0 0.0 
0.0 0.0 0.0 
0.0 0.0 0.0 
0.0 0.0 0.0 
0.0 0.0 0.0 
0.0 0.0 0.0 
0.0 0.0 0.0 
0.0 0.0 0.0 
0.0 0.0 0.0 
0.0 0.0 0.0 
0.0 0.0 0.0 
0.0 0.0 0.0 
0.0 0.0 0.0 
0.0 0.0 0.0 
0.0 0.0 0.0 
0.0 0.0 0.0 
0.0 0.0 0.0 
0.0 0.0 0.0 
0.0 0.0 0.0 
0.0 0.0 0.0 
0.0 0.0 0.0 
0.0 0.0 0.0 
0.0 0.0 0.0 
0.0 0.0 0.0 
0.0 0.0 0.0 
0.0 0.0 0.0 
0.0 0.0 0.0 
0.0 0.0 0.0 
0.0 0.0 0.0 
0.0 0.0 0.0 
0.0 0.0 0.0 
0.0 0.0 0.0 
0.0 0.0 0.0 
0.0 0.0 0.0 
0.0 0.0 0.0 
0.0 0.0 0.0 
0.0 0.0 0.0 
0.0 0.0 0.0 
0.0 0.0 0.0 
0.0 0.0 0.0 
0.0 0.0 0.0 
0.0 0.0 0.0 
0.0 0.0 0.0 
0.0 0.0 0.0 
0.0 0.0 0.0 
0.0 0.0 0.0 
0.0 0.0 0.0 
0.0 0.0 0.0 
0.0 0.0 0.0 
0.0 0.0 0.0 
0.0 0.0 0.0 
0.0 0.0 0.0 
0.0 0.0 0.0 
0.0 0.0 0.0 
0.0 0.0 0.0 
0.0 0.0 0.0 
0.0 0.0 0.0 
0.0 0.0 0.0 
0.0 0.0 0.0 
0.0 0.0 0.0 
0.0 0.0 0.0 
0.0 0.0 0.0 
0.0 0.0 0.0 
0.0 0.0 0.0 
0.0 0.0 0.0 
0.0 0.0 0.0 
0.0 0.0 0.0 
0.0 0.0 0.0 
0.0 0.0 0.0 
0.0 0.0 0.0 
0.0 0.0 0.0 
0.0 0.0 0.0 
0.0 0.0 0.0 
0.0 0.0 0.0 
0.0 0.0 0.0 
0.0 0.0 0.0 
0.0 0.0 0.0 
0.0 0.0 0.0 
0.0 0.0 0.0 
0.0 0.0 0.0 
0.0 0.0 0.0 
0.0 0.0 0.0 
0.0 0.0 0.0 
0.0 0.0 0.0 
0.0 0.0 0.0 
0.0 0.0 0.0 
0.0 0.0 0.0 
0.0 0.0 0.0 
0.0 0.0 0.0 
0.0 0.0 0.0 
0.0 0.0 0.0 
0.0 0.0 0.0 
0.0 0.0 0.0 
0.0 0.0 0.0 
0.0 0.0 0.0 
0.0 0.0 0.0 
0.0 0.0 0.0 
0.0 0.0 0.0 
0.0 0.0 0.0 
0.0 0.0 0.0 
0.0 0.0 0.0 
0.0 0.0 0.0 
0.0 0.0 0.0 
0.0 0.0 0.0 
0.0 0.0 0.0 
0.0 0.0 0.0 
0.0 0.0 0.0 
0.0 0.0 0.0 
0.0 0.0 0.0 
0.0 0.0 0.0 
0.0 0.0 0.0 
0.0 0.0 0.0 
0.0 0.0 0.0 
0.0 0.0 0.0 
0.0 0.0 0.0 
0.0 0.0 0.0 
0.0 0.0 0.0 
0.0 0.0 0.0 
0.0 0.0 0.0 
0.0 0.0 0.0 
0.0 0.0 0.0 
0.0 0.0 0.0 
0.0 0.0 0.0 
0.0 0.0 0.0 
0.0 0.0 0.0 
0.0 0.0 0.0 
0.0 0.0 0.0 
0.0 0.0 0.0 
0.0 0.0 0.0 
0.0 0.0 0.0 
0.0 0.0 0.0 
0.0 0.0 0.0 
0.0 0.0 0.0 
0.0 0.0 0.0 
0.0 0.0 0.0 
0.0 0.0 0.0 
0.0 0.0 0.0 
0.0 0.0 0.0 
0.0 0.0 0.0 
0.0 0.0 0.0 
0.0 0.0 0.0 
0.0 0.0 0.0 
0.0 0.0 0.0 
0.0 0.0 0.0 
0.0 0.0 0.0 
0.0 0.0 0.0 
0.0 0.0 0.0 
0.0 0.0 0.0 
0.0 0.0 0.0 
0.0 0.0 0.0 
0.0 0.0 0.0 
0.0 0.0 0.0 
0.0 0.0 0.0 
0.0 0.0 0.0 
0.0 0.0 0.0 
0.0 0.0 0.0 
0.0 0.0 0.0 
0.0 0.0 0.0 
0.0 0.0 0.0 
0.0 0.0 0.0 
0.0 0.0 0.0 
0.0 0.0 0.0 
0.0 0.0 0.0 
0.0 0.0 0.0 
0.0 0.0 0.0 
0.0 0.0 0.0 
0.0 0.0 0.0 
0.0 0.0 0.0 
0.0 0.0 0.0 
0.0 0.0 0.0 
0.0 0.0 0.0 
0.0 0.0 0.0 
0.0 0.0 0.0 
0.0 0.0 0.0 
0.0 0.0 0.0 
0.0 0.0 0.0 
0.0 0.0 0.0 
0.0 0.0 0.0 
0.0 0.0 0.0 
0.0 0.0 0.0 
0.0 0.0 0.0 
0.0 0.0 0.0 
0.0 0.0 0.0 
0.0 0.0 0.0 
0.0 0.0 0.0 
0.0 0.0 0.0 
0.0 0.0 0.0 
0.0 0.0 0.0 
0.0 0.0 0.0 
0.0 0.0 0.0 
0.0 0.0 0.0 
0.0 0.0 0.0 
0.0 0.0 0.0 
0.0 0.0 0.0 
0.0 0.0 0.0 
0.0 0.0 0.0 
0.0 0.0 0.0 
0.0 0.0 0.0 
0.0 0.0 0.0 
0.0 0.0 0.0 
0.0 0.0 0.0 
0.0 0.0 0.0 
0.0 0.0 0.0 
0.0 0.0 0.0 
0.0 0.0 0.0 
0.0 0.0 0.0 
0.0 0.0 0.0 
0.0 0.0 0.0 
0.0 0.0 0.0 
0.0 0.0 0.0 
0.0 0.0 0.0 
0.0 0.0 0.0 
0.0 0.0 0.0 
0.0 0.0 0.0 
0.0 0.0 0.0 
0.0 0.0 0.0 
0.0 0.0 0.0 
0.0 0.0 0.0 
0.0 0.0 0.0 
0.0 0.0 0.0 
0.0 0.0 0.0 
0.0 0.0 0.0 
0.0 0.0 0.0 
0.0 0.0 0.0 
0.0 0.0 0.0 
0.0 0.0 0.0 
0.0 0.0 0.0 
0.0 0.0 0.0 
0.0 0.0 0.0 
0.0 0.0 0.0 
0.0 0.0 0.0 
0.0 0.0 0.0 
0.0 0.0 0.0 
0.0 0.0 0.0 
0.0 0.0 0.0 
0.0 0.0 0.0 
0.0 0.0 0.0 
0.0 0.0 0.0 
0.0 0.0 0.0 
0.0 0.0 0.0 
0.0 0.0 0.0 
0.0 0.0 0.0 
0.0 0.0 0.0 
0.0 0.0 0.0 
0.0 0.0 0.0 
0.0 0.0 0.0 
0.0 0.0 0.0 
0.0 0.0 0.0 
0.0 0.0 0.0 
0.0 0.0 0.0 
0.0 0.0 0.0 
0.0 0.0 0.0 
0.0 0.0 0.0 
0.0 0.0 0.0 
0.0 0.0 0.0 
0.0 0.0 0.0 
0.0 0.0 0.0 
0.0 0.0 0.0 
0.0 0.0 0.0 
0.0 0.0 0.0 
0.0 0.0 0.0 
0.0 0.0 0.0 
0.0 0.0 0.0 
0.0 0.0 0.0 
0.0 0.0 0.0 
0.0 0.0 0.0 
0.0 0.0 0.0 
0.0 0.0 0.0 
0.0 0.0 0.0 
0.0 0.0 0.0 
0.0 0.0 0.0 
0.0 0.0 0.0 
0.0 0.0 0.0 
0.0 0.0 0.0 
0.0 0.0 0.0 
0.0 0.0 0.0 
0.0 0.0 0.0 
0.0 0.0 0.0 
0.0 0.0 0.0 
0.0 0.0 0.0 
0.0 0.0 0.0 
0.0 0.0 0.0 
0.0 0.0 0.0 
0.0 0.0 0.0 
0.0 0.0 0.0 
0.0 0.0 0.0 
0.0 0.0 0.0 
0.0 0.0 0.0 
0.0 0.0 0.0 
0.0 0.0 0.0 
0.0 0.0 0.0 
0.0 0.0 0.0 
0.0 0.0 0.0 
0.0 0.0 0.0 
0.0 0.0 0.0 
0.0 0.0 0.0 
0.0 0.0 0.0 
0.0 0.0 0.0 
0.0 0.0 0.0 
0.0 0.0 0.0 
0.0 0.0 0.0 
0.0 0.0 0.0 
0.0 0.0 0.0 
0.0 0.0 0.0 
0.0 0.0 0.0 
0.0 0.0 0.0 
0.0 0.0 0.0 
0.0 0.0 0.0 
0.0 0.0 0.0 
0.0 0.0 0.0 
0.0 0.0 0.0 
0.0 0.0 0.0 
0.0 0.0 0.0 
0.0 0.0 0.0 
0.0 0.0 0.0 
0.0 0.0 0.0 
0.0 0.0 0.0 
0.0 0.0 0.0 
0.0 0.0 0.0 
0.0 0.0 0.0 
0.0 0.0 0.0 
0.0 0.0 0.0 
0.0 0.0 0.0 
0.0 0.0 0.0 
0.0 0.0 0.0 
0.0 0.0 0.0 
0.0 0.0 0.0 
0.0 0.0 0.0 
0.0 0.0 0.0 
0.0 0.0 0.0 
0.0 0.0 0.0 
0.0 0.0 0.0 
0.0 0.0 0.0 
0.0 0.0 0.0 
0.0 0.0 0.0 
0.0 0.0 0.0 
0.0 0.0 0.0 
0.0 0.0 0.0 
0.0 0.0 0.0 
0.0 0.0 0.0 
0.0 0.0 0.0 
0.0 0.0 0.0 
0.0 0.0 0.0 
0.0 0.0 0.0 
0.0 0.0 0.0 
0.0 0.0 0.0 
0.0 0.0 0.0 
0.0 0.0 0.0 
0.0 0.0 0.0 
0.0 0.0 0.0 
0.0 0.0 0.0 
0.0 0.0 0.0 
0.0 0.0 0.0 
0.0 0.0 0.0 
0.0 0.0 0.0 
0.0 0.0 0.0 
0.0 0.0 0.0 
0.0 0.0 0.0 
0.0 0.0 0.0 
0.0 0.0 0.0 
0.0 0.0 0.0 
0.0 0.0 0.0 
0.0 0.0 0.0 
0.0 0.0 0.0 
0.0 0.0 0.0 
0.0 0.0 0.0 
0.0 0.0 0.0 
0.0 0.0 0.0 
0.0 0.0 0.0 
0.0 0.0 0.0 
0.0 0.0 0.0 
0.0 0.0 0.0 
0.0 0.0 0.0 
0.0 0.0 0.0 
0.0 0.0 0.0 
0.0 0.0 0.0 
0.0 0.0 0.0 
0.0 0.0 0.0 
0.0 0.0 0.0 
0.0 0.0 0.0 
0.0 0.0 0.0 
0.0 0.0 0.0 
0.0 0.0 0.0 
0.0 0.0 0.0 
0.0 0.0 0.0 
0.0 0.0 0.0 
0.0 0.0 0.0 
0.0 0.0 0.0 
0.0 0.0 0.0 
0.0 0.0 0.0 
0.0 0.0 0.0 
0.0 0.0 0.0 
0.0 0.0 0.0 
0.0 0.0 0.0 
0.0 0.0 0.0 
0.0 0.0 0.0 
0.0 0.0 0.0 
0.0 0.0 0.0 
0.0 0.0 0.0 
0.0 0.0 0.0 
0.0 0.0 0.0 
0.0 0.0 0.0 
0.0 0.0 0.0 
0.0 0.0 0.0 
0.0 0.0 0.0 
0.0 0.0 0.0 
0.0 0.0 0.0 
0.0 0.0 0.0 
0.0 0.0 0.0 
0.0 0.0 0.0 
0.0 0.0 0.0 
0.0 0.0 0.0 
0.0 0.0 0.0 
0.0 0.0 0.0 
0.0 0.0 0.0 
0.0 0.0 0.0 
0.0 0.0 0.0 
0.0 0.0 0.0 
0.0 0.0 0.0 
0.0 0.0 0.0 
0.0 0.0 0.0 
0.0 0.0 0.0 
0.0 0.0 0.0 
0.0 0.0 0.0 
0.0 0.0 0.0 
0.0 0.0 0.0 
0.0 0.0 0.0 
0.0 0.0 0.0 
0.0 0.0 0.0 
0.0 0.0 0.0 
0.0 0.0 0.0 
0.0 0.0 0.0 
0.0 0.0 0.0 
0.0 0.0 0.0 
0.0 0.0 0.0 
0.0 0.0 0.0 
0.0 0.0 0.0 
0.0 0.0 0.0 
0.0 0.0 0.0 
0.0 0.0 0.0 
0.0 0.0 0.0 
0.0 0.0 0.0 
0.0 0.0 0.0 
0.0 0.0 0.0 
0.0 0.0 0.0 
0.0 0.0 0.0 
0.0 0.0 0.0 
0.0 0.0 0.0 
0.0 0.0 0.0 
0.0 0.0 0.0 
0.0 0.0 0.0 
0.0 0.0 0.0 
0.0 0.0 0.0 
0.0 0.0 0.0 
0.0 0.0 0.0 
0.0 0.0 0.0 
0.0 0.0 0.0 
0.0 0.0 0.0 
0.0 0.0 0.0 
0.0 0.0 0.0 
0.0 0.0 0.0 
0.0 0.0 0.0 
0.0 0.0 0.0 
0.0 0.0 0.0 
0.0 0.0 0.0 
0.0 0.0 0.0 
0.0 0.0 0.0 
0.0 0.0 0.0 
0.0 0.0 0.0 
0.0 0.0 0.0 
0.0 0.0 0.0 
0.0 0.0 0.0 
0.0 0.0 0.0 
0.0 0.0 0.0 
0.0 0.0 0.0 
0.0 0.0 0.0 
0.0 0.0 0.0 
0.0 0.0 0.0 
0.0 0.0 0.0 
0.0 0.0 0.0 
0.0 0.0 0.0 
0.0 0.0 0.0 
0.0 0.0 0.0 
0.0 0.0 0.0 
0.0 0.0 0.0 
0.0 0.0 0.0 
0.0 0.0 0.0 
0.0 0.0 0.0 
0.0 0.0 0.0 
0.0 0.0 0.0 
0.0 0.0 0.0 
0.0 0.0 0.0 
0.0 0.0 0.0 
0.0 0.0 0.0 
0.0 0.0 0.0 
0.0 0.0 0.0 
0.0 0.0 0.0 
0.0 0.0 0.0 
0.0 0.0 0.0 

TENSORS element_materi_stress float
-2.954221018952e+01 2.015306432467e+01 0.0 
2.015306432467e+01 -3.896534153018e+01 0.0 
0.0 0.0 -2.015226551591e+01 
-2.911567758856e+01 1.808423983709e+01 0.0 
1.808423983709e+01 -4.093273313420e+01 0.0 
0.0 0.0 -2.061452321683e+01 
-1.056658276178e+02 2.826318321577e+01 0.0 
2.826318321577e+01 -2.383307408713e+02 0.0 
0.0 0.0 -1.027989705467e+02 
-8.606300237544e+01 3.464070514378e+00 0.0 
3.464070514378e+00 -1.896034589168e+02 0.0 
0.0 0.0 -8.229993838767e+01 
-3.829770999530e+01 -3.007102564609e-01 0.0 
-3.007102564609e-01 -5.003250895893e+01 0.0 
0.0 0.0 -2.609906568627e+01 
-2.157752181015e+01 4.588427852109e+00 0.0 
4.588427852109e+00 -3.894260425880e+01 0.0 
0.0 0.0 -1.775603782068e+01 
-3.750101236588e+01 -6.895531334965e-01 0.0 
-6.895531334965e-01 -5.023548723175e+01 0.0 
0.0 0.0 -2.592094987929e+01 
-3.053500801237e+01 1.930038531009e+01 0.0 
1.930038531009e+01 -4.395324025421e+01 0.0 
0.0 0.0 -2.194647447997e+01 
-3.859328796022e+01 1.794654983159e+00 0.0 
1.794654983159e+00 -5.108012979184e+01 0.0 
0.0 0.0 -2.650202532562e+01 
-8.536441685948e+01 3.548260138083e+00 0.0 
3.548260138083e+00 -1.878853525089e+02 0.0 
0.0 0.0 -8.157493081052e+01 
-9.596653990299e+01 -2.830074513513e-01 0.0 
-2.830074513513e-01 -2.526192923510e+02 0.0 
0.0 0.0 -1.041757496762e+02 
-2.612636207279e+01 1.742539752091e+01 0.0 
1.742539752091e+01 -3.377679618426e+01 0.0 
0.0 0.0 -1.757094747711e+01 
-1.504651335110e+02 6.532066850023e-01 0.0 
6.532066850023e-01 -3.618588338281e+02 0.0 
0.0 0.0 -1.532971902017e+02 
-5.117496154901e+01 3.684030694838e+00 0.0 
3.684030694838e+00 -6.918728159077e+01 0.0 
0.0 0.0 -3.570867294194e+01 
-1.554388569733e+02 2.867725299673e+00 0.0 
2.867725299673e+00 -3.695949615708e+02 0.0 
0.0 0.0 -1.571101455632e+02 
-8.725069396871e+01 2.799222548654e+00 0.0 
2.799222548654e+00 -1.978168007210e+02 0.0 
0.0 0.0 -8.512024840691e+01 
-3.778209598645e+01 1.225705341525e+00 0.0 
1.225705341525e+00 -4.634145587224e+01 0.0 
0.0 0.0 -2.483706555761e+01 
-2.095140897562e+01 2.652160889353e+00 0.0 
2.652160889353e+00 -3.937278585355e+01 0.0 
0.0 0.0 -1.769725844875e+01 
-2.772517467186e+01 -1.778582179435e-01 0.0 
-1.778582179435e-01 -7.733328456299e+01 0.0 
0.0 0.0 -3.111753777046e+01 
-2.808291326743e+01 -7.889308383563e-01 0.0 
-7.889308383563e-01 -7.996190697016e+01 0.0 
0.0 0.0 -3.201344607128e+01 
-8.740559181983e+01 5.767518621364e+00 0.0 
5.767518621364e+00 -1.892834487904e+02 0.0 
0.0 0.0 -8.260671218306e+01 
-2.938133026467e+01 1.905597945300e+01 0.0 
1.905597945300e+01 -3.960059660511e+01 0.0 
0.0 0.0 -2.029457806093e+01 
-3.196112970776e+01 2.080358287383e+01 0.0 
2.080358287383e+01 -4.266287016493e+01 0.0 
0.0 0.0 -2.198719996181e+01 
-1.335722255772e+02 1.584997421518e+01 0.0 
1.584997421518e+01 -3.324691431208e+02 0.0 
0.0 0.0 -1.394124106094e+02 
-6.274016419138e+01 8.882282938988e+00 0.0 
8.882282938988e+00 -9.223839688632e+01 0.0 
0.0 0.0 -4.609356832331e+01 
-1.016887509988e+02 1.127300065919e+00 0.0 
1.127300065919e+00 -2.655631119417e+02 0.0 
0.0 0.0 -1.097755588821e+02 
-3.723607087928e+01 6.815685599605e+00 0.0 
6.815685599605e+00 -3.308373118956e+01 0.0 
0.0 0.0 -2.069594062065e+01 
-1.238216891735e+02 3.120826810018e+01 0.0 
3.120826810018e+01 -2.998797068263e+02 0.0 
0.0 0.0 -1.267104187999e+02 
-6.666802101566e+01 1.324546784889e+01 0.0 
1.324546784889e+01 -9.445226641317e+01 0.0 
0.0 0.0 -4.793608622865e+01 
-1.375478758617e+02 1.434927059025e+01 0.0 
1.434927059025e+01 -3.413958046783e+02 0.0 
0.0 0.0 -1.432831041620e+02 
-2.591472763792e+01 -2.012970780308e+00 0.0 
-2.012970780308e+00 -5.778123537489e+01 0.0 
0.0 0.0 -2.470878890384e+01 
-1.393955285658e+01 -1.771793786405e+00 0.0 
-1.771793786405e+00 -2.601746185880e+01 0.0 
0.0 0.0 -1.158710441461e+01 
-1.072003653513e+02 2.916957452341e+01 0.0 
2.916957452341e+01 -2.371253284558e+02 0.0 
0.0 0.0 -1.028977081421e+02 
-1.252666727454e+02 1.202277929936e+00 0.0 
1.202277929936e+00 -3.137173536986e+02 0.0 
0.0 0.0 -1.312952079332e+02 
-1.470617833603e+02 9.891442049578e+00 0.0 
9.891442049578e+00 -3.560744908164e+02 0.0 
0.0 0.0 -1.505408822530e+02 
-1.576912432324e+02 4.589772074994e+00 0.0 
4.589772074994e+00 -3.759863798150e+02 0.0 
0.0 0.0 -1.597032869142e+02 
-1.586484092229e+02 7.209481785461e+00 0.0 
7.209481785461e+00 -3.761649679439e+02 0.0 
0.0 0.0 -1.600440131501e+02 
-1.341295455806e+02 2.202196323054e+01 0.0 
2.202196323054e+01 -3.308223201680e+02 0.0 
0.0 0.0 -1.390855597246e+02 
-2.916028370499e+01 1.315782020615e+00 0.0 
1.315782020615e+00 -3.164440804930e+01 0.0 
0.0 0.0 -1.784140752629e+01 
-2.893069962963e+01 -1.411803188561e+00 0.0 
-1.411803188561e+00 -3.218761305266e+01 0.0 
0.0 0.0 -1.793549380469e+01 
-3.442164985426e+01 2.196376108343e+01 0.0 
2.196376108343e+01 -4.330544499919e+01 0.0 
0.0 0.0 -2.291812845604e+01 
-1.496345430174e+02 1.131753701721e+01 0.0 
1.131753701721e+01 -3.584761033323e+02 0.0 
0.0 0.0 -1.520331939049e+02 
-2.744058108072e+01 1.727961094485e+01 0.0 
1.727961094485e+01 -3.717738084993e+01 0.0 
0.0 0.0 -1.898538857920e+01 
-4.083113114587e+01 6.723663112064e+00 0.0 
6.723663112064e+00 -3.299229974999e+01 0.0 
0.0 0.0 -2.174702926876e+01 
-8.261930036740e+01 1.353857111981e+00 0.0 
1.353857111981e+00 -1.779337708660e+02 0.0 
0.0 0.0 -7.776592137001e+01 
-2.648078567261e+01 1.640912686003e+01 0.0 
1.640912686003e+01 -3.688104364901e+01 0.0 
0.0 0.0 -1.860854879648e+01 
-1.980421937605e+01 -2.387194942716e+00 0.0 
-2.387194942716e+00 -4.322976886903e+01 0.0 
0.0 0.0 -1.851019647353e+01 
-8.126539925977e+01 1.236608618710e+00 0.0 
1.236608618710e+00 -1.789904988711e+02 0.0 
0.0 0.0 -7.767676943925e+01 
-1.696375140503e+01 -1.901178622016e+00 0.0 
-1.901178622016e+00 -2.564631642072e+01 0.0 
0.0 0.0 -1.277289377902e+01 
-4.874682633089e+01 4.681451780955e+00 0.0 
4.681451780955e+00 -6.047725895477e+01 0.0 
0.0 0.0 -3.236722558570e+01 
-3.332439658863e+01 2.164118980845e+01 0.0 
2.164118980845e+01 -4.389401042615e+01 0.0 
0.0 0.0 -2.276552210443e+01 
-3.541261999441e+01 -4.027381338855e-01 0.0 
-4.027381338855e-01 -9.725678176820e+01 0.0 
0.0 0.0 -3.940082052878e+01 
-2.847840064081e+01 -1.713383277714e+00 0.0 
-1.713383277714e+00 -7.890883332092e+01 0.0 
0.0 0.0 -3.181617018852e+01 
-3.090115862350e+01 1.943612583279e+01 0.0 
1.943612583279e+01 -4.078365144864e+01 0.0 
0.0 0.0 -2.110544302164e+01 
-9.881761623080e+01 2.292248754868e+01 0.0 
2.292248754868e+01 -2.184725395834e+02 0.0 
0.0 0.0 -9.478704674427e+01 
-4.626720178918e+01 -2.993350541581e-01 0.0 
-2.993350541581e-01 -1.283490909228e+02 0.0 
0.0 0.0 -5.198488781360e+01 
-3.559747270727e+01 -9.183843795130e-01 0.0 
-9.183843795130e-01 -1.001986303023e+02 0.0 
0.0 0.0 -4.033883090287e+01 
-1.248465056532e+02 -8.829721231132e-02 0.0 
-8.829721231132e-02 -3.135881039576e+02 0.0 
0.0 0.0 -1.311303828833e+02 
-2.192240803505e+01 -1.314728055248e+00 0.0 
-1.314728055248e+00 -5.928196655435e+01 0.0 
0.0 0.0 -2.396131237682e+01 
-8.823960601723e+01 4.768029323281e+00 0.0 
4.768029323281e+00 -1.982806221315e+02 0.0 
0.0 0.0 -8.555606844462e+01 
-2.194753226333e+01 -1.028751358599e+00 0.0 
-1.028751358599e+00 -2.214878098357e+01 0.0 
0.0 0.0 -1.282889397407e+01 
-1.182455101091e+02 2.517065818405e+01 0.0 
2.517065818405e+01 -2.972900283657e+02 0.0 
0.0 0.0 -1.242606615424e+02 
-3.618233537675e+01 1.859297189467e+01 0.0 
1.859297189467e+01 -9.101196844962e+01 0.0 
0.0 0.0 -3.775829114791e+01 
-2.715804276652e+01 -1.707754896791e+00 0.0 
-1.707754896791e+00 -7.246574680269e+01 0.0 
0.0 0.0 -2.948713687076e+01 
-1.501602973293e+02 3.635887632913e+00 0.0 
3.635887632913e+00 -3.611251200789e+02 0.0 
0.0 0.0 -1.529856252225e+02 
-3.001806808207e+01 1.914963310297e+01 0.0 
1.914963310297e+01 -3.992191856319e+01 0.0 
0.0 0.0 -2.058199599358e+01 
-1.806310444896e+01 -1.156929003230e+00 0.0 
-1.156929003230e+00 -2.091525810684e+01 0.0 
0.0 0.0 -1.199546272149e+01 
-1.099031118405e+02 3.087851186044e+01 0.0 
3.087851186044e+01 -2.432500223319e+02 0.0 
0.0 0.0 -1.055459402517e+02 
-2.494608788547e+01 -2.679358799315e+00 0.0 
-2.679358799315e+00 -6.358502155660e+01 0.0 
0.0 0.0 -2.615933283262e+01 
-1.163258736841e+02 3.098797403149e+01 0.0 
3.098797403149e+01 -2.720983243519e+02 0.0 
0.0 0.0 -1.161272594108e+02 
-1.064866998438e+02 1.682856399849e+00 0.0 
1.682856399849e+00 -2.759063453765e+02 0.0 
0.0 0.0 -1.143179135661e+02 
-9.332152229419e+01 1.518003763608e+01 0.0 
1.518003763608e+01 -2.190835520198e+02 0.0 
0.0 0.0 -9.332152229419e+01 
-1.186310690079e+02 2.807438019245e+01 0.0 
2.807438019245e+01 -2.861669900565e+02 0.0 
0.0 0.0 -1.210394177193e+02 
-1.012886566617e+01 -9.592904760789e-01 0.0 
-9.592904760789e-01 -2.985256213710e+01 0.0 
0.0 0.0 -1.159442834098e+01 
-4.763508599488e+01 -1.165740919853e+00 0.0 
-1.165740919853e+00 -1.335693186479e+02 0.0 
0.0 0.0 -5.396132139282e+01 
-9.156933565576e+01 1.171962075552e+01 0.0 
1.171962075552e+01 -1.956004336051e+02 0.0 
0.0 0.0 -8.575093077825e+01 
-1.041585065685e+02 2.515846722704e+01 0.0 
2.515846722704e+01 -2.236689009174e+02 0.0 
0.0 0.0 -9.794822224578e+01 
-2.409087971265e+01 1.379615520181e+01 0.0 
1.379615520181e+01 -3.398030102423e+01 0.0 
0.0 0.0 -1.702135422106e+01 
-2.109272073869e+01 -1.408108021458e+00 0.0 
-1.408108021458e+00 -5.913826324570e+01 0.0 
0.0 0.0 -2.366929519532e+01 
-2.588172672208e+01 1.562328189676e+01 0.0 
1.562328189676e+01 -3.463651533187e+01 0.0 
0.0 0.0 -1.775547261618e+01 
-2.419602256471e+01 -3.634829337201e+00 0.0 
-3.634829337201e+00 -6.305646614443e+01 0.0 
0.0 0.0 -2.577574661274e+01 
-3.867959412160e+01 8.532250735468e-01 0.0 
8.532250735468e-01 -4.581588403752e+01 0.0 
0.0 0.0 -2.494864344774e+01 
-3.170082222831e+01 2.072664244544e+01 0.0 
2.072664244544e+01 -4.266976426278e+01 0.0 
0.0 0.0 -2.191117594732e+01 
-2.746134713501e+01 1.829161693255e+01 0.0 
1.829161693255e+01 -3.516669577333e+01 0.0 
0.0 0.0 -1.838841287250e+01 
-4.419876883796e+01 2.263145544034e+00 0.0 
2.263145544034e+00 -6.157595302009e+01 0.0 
0.0 0.0 -3.133241655742e+01 
-4.241020004944e+01 -3.623989321984e-02 0.0 
-3.623989321984e-02 -6.077605426058e+01 0.0 
0.0 0.0 -3.055587629300e+01 
-1.106377780797e+02 1.453341956698e+00 0.0 
1.453341956698e+00 -2.843697363042e+02 0.0 
0.0 0.0 -1.181022543152e+02 
-1.208661077243e+02 -6.825760029346e-01 0.0 
-6.825760029346e-01 -3.054545975879e+02 0.0 
0.0 0.0 -1.274962115937e+02 
-9.154513733616e+01 2.747068282044e+01 0.0 
2.747068282044e+01 -1.887855132315e+02 0.0 
0.0 0.0 -8.369919517031e+01 
-3.990649353704e+01 2.262937210246e+00 0.0 
2.262937210246e+00 -4.988642718552e+01 0.0 
0.0 0.0 -2.653787621677e+01 
-1.305150913323e+01 -1.801901478880e+00 0.0 
-1.801901478880e+00 -2.576274643651e+01 0.0 
0.0 0.0 -1.160039189025e+01 
-4.882127489025e+01 8.819130549136e+00 0.0 
8.819130549136e+00 -5.202527626256e+01 0.0 
0.0 0.0 -2.985396534584e+01 
-6.595807124851e+01 1.449399180741e+00 0.0 
1.449399180741e+00 -1.297658414329e+02 0.0 
0.0 0.0 -5.831717380442e+01 
-6.581082791586e+01 8.882231055106e-01 0.0 
8.882231055106e-01 -1.263282001728e+02 0.0 
0.0 0.0 -5.724170842659e+01 
-1.004873126552e+02 1.699563249780e+01 0.0 
1.699563249780e+01 -2.233756694515e+02 0.0 
0.0 0.0 -9.675889463204e+01 
-1.405517900919e+02 2.524955534892e+01 0.0 
2.524955534892e+01 -3.363931999490e+02 0.0 
0.0 0.0 -1.426834970123e+02 
-4.043502170478e+01 2.129279740061e+00 0.0 
2.129279740061e+00 -4.569777528961e+01 0.0 
0.0 0.0 -2.543983909832e+01 
-1.464251145940e+02 1.112012786647e+01 0.0 
1.112012786647e+01 -3.579136714116e+02 0.0 
0.0 0.0 -1.509016358017e+02 
-4.824565822816e+01 7.957813227223e-01 0.0 
7.957813227223e-01 -8.072410393243e+01 0.0 
0.0 0.0 -3.829092864818e+01 
-3.525674651397e+01 1.982619590534e+01 0.0 
1.982619590534e+01 -7.604856360866e+01 0.0 
0.0 0.0 -3.299159303679e+01 
-3.458962651642e+01 1.294025308393e+00 0.0 
1.294025308393e+00 -4.110619994423e+01 0.0 
0.0 0.0 -2.230874793820e+01 
-1.547484282590e+02 1.615833675443e+00 0.0 
1.615833675443e+00 -3.691877523809e+02 0.0 
0.0 0.0 -1.567808541920e+02 
-9.743920906462e+01 2.161410929167e+01 0.0 
2.161410929167e+01 -2.570778578835e+02 0.0 
0.0 0.0 -1.059551200844e+02 
-1.211488946498e+02 2.666467581991e+01 0.0 
2.666467581991e+01 -2.988596810141e+02 0.0 
0.0 0.0 -1.256025726992e+02 
-3.376268374315e+01 1.568329774013e+01 0.0 
1.568329774013e+01 -8.708270667119e+01 0.0 
0.0 0.0 -3.585361712430e+01 
-2.365621415939e+01 -2.538210802851e+00 0.0 
-2.538210802851e+00 -4.243144251449e+01 0.0 
0.0 0.0 -1.942629700216e+01 
-1.400568143998e+02 2.024280297895e+00 0.0 
2.024280297895e+00 -3.422543143862e+02 0.0 
0.0 0.0 -1.442933386358e+02 
-7.248915603233e+01 1.402414146542e+00 0.0 
1.402414146542e+00 -1.458429781730e+02 0.0 
0.0 0.0 -6.509964026160e+01 
-2.161242404743e+01 -1.673347459307e+00 0.0 
-1.673347459307e+00 -2.541512996622e+01 0.0 
0.0 0.0 -1.370826620409e+01 
-1.543309053407e+02 4.952923186251e+00 0.0 
4.952923186251e+00 -3.665343864812e+02 0.0 
0.0 0.0 -1.558595875466e+02 
-8.620137727293e+01 2.486493982397e+01 0.0 
2.486493982397e+01 -1.821850571648e+02 0.0 
0.0 0.0 -8.011593033132e+01 
-7.302001006930e+00 3.498004624034e-01 0.0 
3.498004624034e-01 -2.207482190545e+01 0.0 
0.0 0.0 -8.413046873715e+00 
-4.491254177987e+01 1.551449266580e+01 0.0 
1.551449266580e+01 -1.350203452030e+02 0.0 
0.0 0.0 -5.357986609487e+01 
-4.575903203464e+01 1.957376667122e+01 0.0 
1.957376667122e+01 -4.645178949282e+01 0.0 
0.0 0.0 -2.726324645824e+01 
-5.798984526529e+01 -4.786304236591e-01 0.0 
-4.786304236591e-01 -1.621595536283e+02 0.0 
0.0 0.0 -6.564481966808e+01 
-3.213841993546e+01 1.805998875509e+01 0.0 
1.805998875509e+01 -7.246055794634e+01 0.0 
0.0 0.0 -3.097969336454e+01 
-3.770236229318e+01 1.897552825024e+01 0.0 
1.897552825024e+01 -9.170264066270e+01 0.0 
0.0 0.0 -3.842150088676e+01 
-1.512556478017e+02 7.949981979367e+00 0.0 
7.949981979367e+00 -3.633298077348e+02 0.0 
0.0 0.0 -1.539756366609e+02 
-4.589277109219e+01 -4.654968266601e-01 0.0 
-4.654968266601e-01 -7.405302265547e+01 0.0 
0.0 0.0 -3.558373812430e+01 
-3.425242811893e+01 1.738768371533e+01 0.0 
1.738768371533e+01 -8.880878312221e+01 0.0 
0.0 0.0 -3.651836337234e+01 
-2.375035640212e+01 -2.209231007069e+00 0.0 
-2.209231007069e+00 -6.093174663281e+01 0.0 
0.0 0.0 -2.500463091048e+01 
-5.022585509378e+01 1.037357155752e+01 0.0 
1.037357155752e+01 -5.665985982973e+01 0.0 
0.0 0.0 -3.166571447705e+01 
-7.194514560057e+01 1.722669498969e+00 0.0 
1.722669498969e+00 -1.471643927451e+02 0.0 
0.0 0.0 -6.533286150371e+01 
-3.567425753937e+01 1.740138679276e+01 0.0 
1.740138679276e+01 -8.941840941829e+01 0.0 
0.0 0.0 -3.712780008730e+01 
-2.173307979475e+01 9.742059077299e+00 0.0 
9.742059077299e+00 -2.931124851512e+01 0.0 
0.0 0.0 -1.491329849296e+01 
-3.908543180068e+01 2.258092962813e+01 0.0 
2.258092962813e+01 -4.357534206765e+01 0.0 
0.0 0.0 -2.439823216050e+01 
-5.814751302189e+01 -9.357570078562e-01 0.0 
-9.357570078562e-01 -1.608566583915e+02 0.0 
0.0 0.0 -6.530125142402e+01 
-3.463175307370e+01 1.969666627972e+01 0.0 
1.969666627972e+01 -4.101256042332e+01 0.0 
0.0 0.0 -2.229329404911e+01 
-9.157308339321e+01 1.181099393835e+01 0.0 
1.181099393835e+01 -2.046119639835e+02 0.0 
0.0 0.0 -8.845551421302e+01 
-2.258967542114e+01 9.432557068062e+00 0.0 
9.432557068062e+00 -3.995290732004e+01 0.0 
0.0 0.0 -1.836277482235e+01 
-1.011628335737e+02 -9.962643634343e-03 0.0 
-9.962643634343e-03 -2.645509105165e+02 0.0 
0.0 0.0 -1.093141232271e+02 
-8.518398966246e+01 1.558551318409e+00 0.0 
1.558551318409e+00 -1.893079013269e+02 0.0 
0.0 0.0 -8.194756729681e+01 
-4.382327649921e+01 2.205167129763e+01 0.0 
2.205167129763e+01 -9.667078152297e+01 0.0 
0.0 0.0 -4.174821740665e+01 
-3.650094067045e+01 2.258610215355e+01 0.0 
2.258610215355e+01 -4.352498294112e+01 0.0 
0.0 0.0 -2.360777708347e+01 
-1.455487263325e+02 8.456336483327e+00 0.0 
8.456336483327e+00 -3.554673649399e+02 0.0 
0.0 0.0 -1.499048273817e+02 
-1.509827355498e+02 2.334790157262e+00 0.0 
2.334790157262e+00 -3.625370344417e+02 0.0 
0.0 0.0 -1.536559309974e+02 
-1.102859825416e+02 1.600779962574e-01 0.0 
1.600779962574e-01 -2.842690544327e+02 0.0 
0.0 0.0 -1.179665110923e+02 
-4.728026774620e+01 2.417732760595e+01 0.0 
2.417732760595e+01 -9.836807607940e+01 0.0 
0.0 0.0 -4.329450314768e+01 
-1.440697376649e+02 1.484409061327e+01 0.0 
1.484409061327e+01 -3.534666534781e+02 0.0 
0.0 0.0 -1.488609173429e+02 
-4.039134040876e+01 2.190553612385e+01 0.0 
2.190553612385e+01 -7.924575601209e+01 0.0 
0.0 0.0 -3.549112892626e+01 
-8.822247318519e+01 8.183168607361e+00 0.0 
8.183168607361e+00 -1.965397166954e+02 0.0 
0.0 0.0 -8.502865696416e+01 
-1.150618145240e+02 3.259632391801e+01 0.0 
3.259632391801e+01 -2.691843834933e+02 0.0 
0.0 0.0 -1.148738594052e+02 
-5.420562952093e+01 7.105474343265e+00 0.0 
7.105474343265e+00 -6.948536175177e+01 0.0 
0.0 0.0 -3.670729738181e+01 
-5.836825649213e+01 8.669082557000e-01 0.0 
8.669082557000e-01 -1.050139194390e+02 0.0 
0.0 0.0 -4.861465277935e+01 
-4.121741153134e+01 2.327569473190e+01 0.0 
2.327569473190e+01 -7.968176389921e+01 0.0 
0.0 0.0 -3.586975262916e+01 
-3.256933526729e+01 1.976646465591e+01 0.0 
1.976646465591e+01 -4.158797408428e+01 0.0 
0.0 0.0 -2.184719280547e+01 
-5.024935385716e+01 2.274955553415e+01 0.0 
2.274955553415e+01 -1.150591230393e+02 0.0 
0.0 0.0 -4.919254306895e+01 
-3.813916294864e+01 1.626808953747e+01 0.0 
1.626808953747e+01 -1.047701715214e+02 0.0 
0.0 0.0 -4.247280034102e+01 
-3.456519085820e+01 1.096956734133e+00 0.0 
1.096956734133e+00 -4.376538856928e+01 0.0 
0.0 0.0 -2.309917382825e+01 
-4.647530865999e+01 1.569084492837e+01 0.0 
1.569084492837e+01 -1.357162364833e+02 0.0 
0.0 0.0 -5.425746354299e+01 
-1.178441633709e+01 -1.495944967884e+00 0.0 
-1.495944967884e+00 -2.506398697625e+01 0.0 
0.0 0.0 -1.107269858610e+01 
-3.966196009874e+01 1.825036132459e-01 0.0 
1.825036132459e-01 -5.875768141541e+01 0.0 
0.0 0.0 -2.912589245424e+01 
-2.043569665726e+01 -4.721672918610e-01 0.0 
-4.721672918610e-01 -6.020618583804e+01 0.0 
0.0 0.0 -2.379256474859e+01 
-4.286247610826e+01 2.121403307221e+01 0.0 
2.121403307221e+01 -4.551671471402e+01 0.0 
0.0 0.0 -2.611375724669e+01 
-1.483214105501e+02 1.395043171676e+01 0.0 
1.395043171676e+01 -3.556922822541e+02 0.0 
0.0 0.0 -1.508041078413e+02 
-3.264332569509e+01 1.605675903128e+01 0.0 
1.605675903128e+01 -8.664367544766e+01 0.0 
0.0 0.0 -3.538610034283e+01 
-1.153476325365e+02 -2.738436309249e-01 0.0 
-2.738436309249e-01 -2.944460938476e+02 0.0 
0.0 0.0 -1.225381179152e+02 
-2.761983974360e+01 1.735592233314e+01 0.0 
1.735592233314e+01 -3.750878250810e+01 0.0 
0.0 0.0 -1.913858667551e+01 
-9.489544179060e+01 2.044669487815e+01 0.0 
2.044669487815e+01 -2.558410069526e+02 0.0 
0.0 0.0 -1.048209346230e+02 
-3.412594774338e+01 9.749343334399e-02 0.0 
9.749343334399e-02 -4.523731866878e+01 0.0 
0.0 0.0 -2.340897992365e+01 
-4.233899830564e+01 1.376058380222e+01 0.0 
1.376058380222e+01 -1.309653650172e+02 0.0 
0.0 0.0 -5.159130899686e+01 
-1.297791959698e+02 1.948933488402e+00 0.0 
1.948933488402e+00 -3.228826786120e+02 0.0 
0.0 0.0 -1.353985623745e+02 
-2.358430093933e+01 -3.386827666813e+00 0.0 
-3.386827666813e+00 -6.054271051983e+01 0.0 
0.0 0.0 -2.483810343775e+01 
-1.396950532688e+02 5.708010969161e-01 0.0 
5.708010969161e-01 -3.418804146296e+02 0.0 
0.0 0.0 -1.440726403695e+02 
-5.330095878358e+01 2.089384758659e+01 0.0 
2.089384758659e+01 -8.362297534111e+01 0.0 
0.0 0.0 -4.067718023740e+01 
-1.510020266429e+02 4.206371134316e+00 0.0 
4.206371134316e+00 -3.647941207700e+02 0.0 
0.0 0.0 -1.543388442239e+02 
-3.342430714592e+01 -6.572903153740e-02 0.0 
-6.572903153740e-02 -4.422150774719e+01 0.0 
0.0 0.0 -2.289374446793e+01 
-3.481239843671e+01 1.454877423443e+01 0.0 
1.454877423443e+01 -1.003571678898e+02 0.0 
0.0 0.0 -4.015086989795e+01 
-4.121224127557e+01 1.696453891071e+01 0.0 
1.696453891071e+01 -4.247503960561e+01 0.0 
0.0 0.0 -2.470618426436e+01 
-9.595820606184e+01 7.111159593687e-01 0.0 
7.111159593687e-01 -2.535699741243e+02 0.0 
0.0 0.0 -1.044584540559e+02 
-2.873066980315e+01 1.874958719483e+01 0.0 
1.874958719483e+01 -3.740583074366e+01 0.0 
0.0 0.0 -1.944095016404e+01 
-4.397761140291e+01 1.360003472197e+01 0.0 
1.360003472197e+01 -1.316303189134e+02 0.0 
0.0 0.0 -5.228237909489e+01 
-6.282080500148e+01 2.612866920552e+00 0.0 
2.612866920552e+00 -1.162162412460e+02 0.0 
0.0 0.0 -5.331111387424e+01 
-3.365185550947e+01 -5.030828138719e-01 0.0 
-5.030828138719e-01 -4.395702753560e+01 0.0 
0.0 0.0 -2.288266491352e+01 
-3.944822110199e+01 1.497051617389e+01 0.0 
1.497051617389e+01 -1.173456715015e+02 0.0 
0.0 0.0 -4.663816778104e+01 
-3.907213357038e+01 1.898641298611e+01 0.0 
1.898641298611e+01 -4.151684643841e+01 0.0 
0.0 0.0 -2.377669400264e+01 
-9.866201822157e+01 2.734794109390e+01 0.0 
2.734794109390e+01 -2.305698756741e+02 0.0 
0.0 0.0 -9.836956816869e+01 
-6.533597599496e+01 -2.651541936329e-01 0.0 
-2.651541936329e-01 -1.793271394917e+02 0.0 
0.0 0.0 -7.299893464601e+01 
-1.274730534459e+02 2.896703220937e+01 0.0 
2.896703220937e+01 -3.049778192349e+02 0.0 
0.0 0.0 -1.293352618042e+02 
-1.177414670452e+02 3.314984799866e+01 0.0 
3.314984799866e+01 -2.761365667656e+02 0.0 
0.0 0.0 -1.177634101432e+02 
-3.156911027955e+01 1.922447088026e+01 0.0 
1.922447088026e+01 -5.850374205340e+01 0.0 
0.0 0.0 -2.662185569989e+01 
-6.540148616921e+01 -7.183110863941e-01 0.0 
-7.183110863941e-01 -1.803124842581e+02 0.0 
0.0 0.0 -7.331419112821e+01 
-1.218796746191e+02 1.694960025824e+01 0.0 
1.694960025824e+01 -3.116851498140e+02 0.0 
0.0 0.0 -1.296694473299e+02 
-3.789890807430e+01 2.290187279747e+01 0.0 
2.290187279747e+01 -6.178970273203e+01 0.0 
0.0 0.0 -2.950658324190e+01 
-2.887998910454e+01 1.733756917647e+01 0.0 
1.733756917647e+01 -5.502095548310e+01 0.0 
0.0 0.0 -2.477028337629e+01 
-4.917333042273e+01 1.839917577197e+01 0.0 
1.839917577197e+01 -6.506309333474e+01 0.0 
0.0 0.0 -3.387092712724e+01 
-4.330688720247e+01 1.699770678537e+01 0.0 
1.699770678537e+01 -1.222301687360e+02 0.0 
0.0 0.0 -4.926111678155e+01 
-8.621738595448e+01 5.200304519978e+00 0.0 
5.200304519978e+00 -1.945157152559e+02 0.0 
0.0 0.0 -8.381993036311e+01 
-8.557411550951e+01 2.281938731610e+01 0.0 
2.281938731610e+01 -1.701540768969e+02 0.0 
0.0 0.0 -7.631845772192e+01 
-1.348666602803e+02 -1.680784085264e-01 0.0 
-1.680784085264e-01 -3.327651647266e+02 0.0 
0.0 0.0 -1.398895475021e+02 
-2.566275041209e+01 1.542990787110e+01 0.0 
1.542990787110e+01 -3.578468092890e+01 0.0 
0.0 0.0 -1.803422940230e+01 
-4.171817269792e+01 1.141994573819e+01 0.0 
1.141994573819e+01 -1.273751039277e+02 0.0 
0.0 0.0 -5.032798298767e+01 
-8.945312200914e+01 2.450853553114e+01 0.0 
2.450853553114e+01 -1.868247225339e+02 0.0 
0.0 0.0 -8.248335336291e+01 
-1.740485372280e+01 3.262953591739e+00 0.0 
3.262953591739e+00 -4.255211339428e+00 0.0 
0.0 0.0 -6.098019518669e+00 
-3.688779165340e+01 2.132660376224e+01 0.0 
2.132660376224e+01 -6.131350893971e+01 0.0 
0.0 0.0 -2.906039017793e+01 
-1.135271087072e+02 1.318727189213e+01 0.0 
1.318727189213e+01 -2.974649585809e+02 0.0 
0.0 0.0 -1.228976201864e+02 
-1.626447621294e+01 -1.060941422407e+00 0.0 
-1.060941422407e+00 -4.271805487905e+01 0.0 
0.0 0.0 -1.729475932760e+01 
-1.021259476105e+02 2.493105239537e+01 0.0 
2.493105239537e+01 -2.235193499191e+02 0.0 
0.0 0.0 -9.729358925888e+01 
-7.342771787668e+01 1.554866897052e+01 0.0 
1.554866897052e+01 -1.222784528830e+02 0.0 
0.0 0.0 -5.831185122792e+01 
-5.640662812678e+01 -1.156050752751e+00 0.0 
-1.156050752751e+00 -1.677319473375e+02 0.0 
0.0 0.0 -6.684157263927e+01 
-1.108752080767e+02 1.190281448971e+01 0.0 
1.190281448971e+01 -2.962061056537e+02 0.0 
0.0 0.0 -1.217243941191e+02 
-5.798715664543e+01 1.202807033213e+01 0.0 
1.202807033213e+01 -7.265661748247e+01 0.0 
0.0 0.0 -3.879313223837e+01 
-6.225762164947e+01 9.820955033070e+00 0.0 
9.820955033070e+00 -8.421291901066e+01 0.0 
0.0 0.0 -4.354116219804e+01 
-1.396785195646e+02 1.502500530690e+01 0.0 
1.502500530690e+01 -3.420249412858e+02 0.0 
0.0 0.0 -1.441110382551e+02 
-4.358582920076e+01 -2.929511345463e+00 0.0 
-2.929511345463e+00 -1.270959791534e+02 0.0 
0.0 0.0 -5.080454250624e+01 
-5.375579522430e+01 2.243786455393e+01 0.0 
2.243786455393e+01 -1.316559800969e+02 0.0 
0.0 0.0 -5.522353259637e+01 
-5.722408425065e+01 2.251569970376e+01 0.0 
2.251569970376e+01 -1.018730377404e+02 0.0 
0.0 0.0 -4.732913659731e+01 
-7.915460236734e+01 1.794700416360e+01 0.0 
1.794700416360e+01 -1.317249063828e+02 0.0 
0.0 0.0 -6.286385262506e+01 
-5.736468958625e+01 2.310417805035e+01 0.0 
2.310417805035e+01 -8.666289763037e+01 0.0 
0.0 0.0 -4.280827616499e+01 
-4.950212106594e+01 2.222680208753e+01 0.0 
2.222680208753e+01 -6.517295230165e+01 0.0 
0.0 0.0 -3.400252201028e+01 
-8.426492264519e+01 1.811766437570e+01 0.0 
1.811766437570e+01 -2.333579895656e+02 0.0 
0.0 0.0 -9.488687366324e+01 
-9.568824709304e+01 2.869467168975e+01 0.0 
2.869467168975e+01 -2.152614126332e+02 0.0 
0.0 0.0 -9.288489791787e+01 
-2.118544896625e+01 3.039876114773e+00 0.0 
3.039876114773e+00 -2.049438207601e+01 0.0 
0.0 0.0 -1.210394931268e+01 
-3.124465034653e+01 1.927005585260e+01 0.0 
1.927005585260e+01 -5.835769696455e+01 0.0 
0.0 0.0 -2.648070419332e+01 
-3.388509812188e+01 1.928030410248e+01 0.0 
1.928030410248e+01 -7.534072751247e+01 0.0 
0.0 0.0 -3.236774769031e+01 
-5.072757638043e+01 2.392843125325e+01 0.0 
2.392843125325e+01 -1.154917728166e+02 0.0 
0.0 0.0 -4.946580475912e+01 
-9.085130925625e+01 2.519790492953e+01 0.0 
2.519790492953e+01 -1.776146904414e+02 0.0 
0.0 0.0 -8.013979990929e+01 
-2.308851754379e+01 4.340892576750e+00 0.0 
4.340892576750e+00 -5.826660972096e+01 0.0 
0.0 0.0 -2.400653817943e+01 
-1.091177570024e+02 1.133369970099e+01 0.0 
1.133369970099e+01 -2.893715603341e+02 0.0 
0.0 0.0 -1.191467952010e+02 
-3.378641881959e+01 1.111326558381e+00 0.0 
1.111326558381e+00 -4.276256501956e+01 0.0 
0.0 0.0 -2.256469515174e+01 
-4.017270121087e+01 1.186016793689e+01 0.0 
1.186016793689e+01 -1.268077711428e+02 0.0 
0.0 0.0 -4.969414170611e+01 
-1.048921642227e+02 9.587977799006e+00 0.0 
9.587977799006e+00 -2.810247458736e+02 0.0 
0.0 0.0 -1.153750730289e+02 
-1.208629023535e+01 -8.324270027830e-01 0.0 
-8.324270027830e-01 -2.860911160195e+01 0.0 
0.0 0.0 -1.180862055119e+01 
-8.034464586129e+01 1.721665490755e+01 0.0 
1.721665490755e+01 -1.443329281814e+02 0.0 
0.0 0.0 -6.700327221281e+01 
-1.161182310424e+01 -1.315657719978e+00 0.0 
-1.315657719978e+00 -2.420886192887e+01 0.0 
0.0 0.0 -1.034620550993e+01 
-1.542788767353e+01 -1.359099188300e+00 0.0 
-1.359099188300e+00 -4.301572861445e+01 0.0 
0.0 0.0 -1.713308488639e+01 
-2.649616253135e+01 1.643322133118e+01 0.0 
1.643322133118e+01 -3.606888793813e+01 0.0 
0.0 0.0 -1.836951514084e+01 
-3.724232981342e+01 -3.196398095407e+00 0.0 
-3.196398095407e+00 -1.076918019995e+02 0.0 
0.0 0.0 -4.308023954388e+01 
-8.571120405513e+01 1.942654486424e+01 0.0 
1.942654486424e+01 -1.534826847927e+02 0.0 
0.0 0.0 -7.135816665436e+01 
-3.614030001837e+01 -2.357689498883e+00 0.0 
-2.357689498883e+00 -1.011295006750e+02 0.0 
0.0 0.0 -4.078094020801e+01 
-2.689907380165e+01 1.276824347583e+01 0.0 
1.276824347583e+01 -6.393272113526e+01 0.0 
0.0 0.0 -2.684953848107e+01 
-2.905383262178e+01 -2.573221713146e+00 0.0 
-2.573221713146e+00 -7.809991228448e+01 0.0 
0.0 0.0 -3.174612347188e+01 
-2.561979515332e+01 -3.372609303278e+00 0.0 
-3.372609303278e+00 -6.877132628510e+01 0.0 
0.0 0.0 -2.791733643153e+01 
-1.151705117244e+02 1.379961925383e+01 0.0 
1.379961925383e+01 -3.034246813902e+02 0.0 
0.0 0.0 -1.251785579344e+02 
-5.352199591982e+01 2.406095688774e+01 0.0 
2.406095688774e+01 -8.389336233216e+01 0.0 
0.0 0.0 -4.082460747559e+01 
-1.496230284668e+02 2.184569122054e+00 0.0 
2.184569122054e+00 -3.610095017932e+02 0.0 
0.0 0.0 -1.527897590780e+02 
-1.714950345793e+01 1.896865081562e+00 0.0 
1.896865081562e+00 -8.623810080195e+00 0.0 
0.0 0.0 -8.273693586290e+00 
-2.945140679892e+01 1.264349115522e+01 0.0 
1.264349115522e+01 -8.012872839243e+01 0.0 
0.0 0.0 -3.247404055740e+01 
-4.579252429916e+01 1.251844924933e+01 0.0 
1.251844924933e+01 -1.443730358450e+02 0.0 
0.0 0.0 -5.664966804326e+01 
-3.444917956684e+01 2.058799089597e+01 0.0 
2.058799089597e+01 -6.043028415381e+01 0.0 
0.0 0.0 -2.806383911619e+01 
-1.065945694825e+02 1.011233758792e+01 0.0 
1.011233758792e+01 -2.881728613187e+02 0.0 
0.0 0.0 -1.180302292404e+02 
-1.519502684214e+02 4.159948020823e+00 0.0 
4.159948020823e+00 -3.662789869974e+02 0.0 
0.0 0.0 -1.550687766256e+02 
-8.386874231661e+01 2.413959039818e+01 0.0 
2.413959039818e+01 -1.556743778368e+02 0.0 
0.0 0.0 -7.146293604603e+01 
-3.484353062874e+01 8.386659926608e+00 0.0 
8.386659926608e+00 -1.053693272894e+02 0.0 
0.0 0.0 -4.166385737545e+01 
-1.175997345789e+02 1.489645104258e+01 0.0 
1.489645104258e+01 -3.044765342600e+02 0.0 
0.0 0.0 -1.262228806517e+02 
-1.055950415564e+02 -5.995804300926e-01 0.0 
-5.995804300926e-01 -2.741058517900e+02 0.0 
0.0 0.0 -1.135102680039e+02 
-5.389503472483e+01 2.492320943792e+01 0.0 
2.492320943792e+01 -1.170047045911e+02 0.0 
0.0 0.0 -5.086992179479e+01 
-7.765355997836e+01 1.826713340040e+01 0.0 
1.826713340040e+01 -1.374718625337e+02 0.0 
0.0 0.0 -6.413762675361e+01 
-1.245098569517e+02 2.788050682039e+01 0.0 
2.788050682039e+01 -3.011919173287e+02 0.0 
0.0 0.0 -1.273105322841e+02 
-4.760423068810e+01 1.244309422437e+01 0.0 
1.244309422437e+01 -1.451256187225e+02 0.0 
0.0 0.0 -5.741895482318e+01 
-2.835918853694e+01 1.332859515975e+01 0.0 
1.332859515975e+01 -6.665278083614e+01 0.0 
0.0 0.0 -2.810359081193e+01 
-6.498653362252e+01 2.379737207138e+01 0.0 
2.379737207138e+01 -1.077917635552e+02 0.0 
0.0 0.0 -5.143348915331e+01 
-9.828057901161e+01 1.452916059831e+01 0.0 
1.452916059831e+01 -2.212120137915e+02 0.0 
0.0 0.0 -9.544777784092e+01 
-5.431813133326e+01 2.340881477513e+01 0.0 
2.340881477513e+01 -1.320702531596e+02 0.0 
0.0 0.0 -5.551651534787e+01 
-6.494805454395e+01 1.359051934999e+01 0.0 
1.359051934999e+01 -1.926968597706e+02 0.0 
0.0 0.0 -7.689347429436e+01 
-4.156849341790e+01 5.913877726385e-01 0.0 
5.913877726385e-01 -6.252372092361e+01 0.0 
0.0 0.0 -3.082766430245e+01 
-2.469224364910e+01 -2.973953402408e+00 0.0 
-2.973953402408e+00 -5.743672886978e+01 0.0 
0.0 0.0 -2.423869175566e+01 
-5.634815820497e+01 1.927202244463e+01 0.0 
1.927202244463e+01 -8.536604559157e+01 0.0 
0.0 0.0 -4.211426113896e+01 
-3.343056661967e+01 9.214705436030e+00 0.0 
9.214705436030e+00 -1.049492191245e+02 0.0 
0.0 0.0 -4.111393572325e+01 
-2.633263404769e+01 4.692339962321e+00 0.0 
4.692339962321e+00 -7.589671096278e+01 0.0 
0.0 0.0 -3.026880350314e+01 
-2.395764737130e+01 -2.016958690022e+00 0.0 
-2.016958690022e+00 -6.088102102313e+01 0.0 
0.0 0.0 -2.505160051833e+01 
-8.256871758309e+01 1.627334158993e+01 0.0 
1.627334158993e+01 -1.515653727696e+02 0.0 
0.0 0.0 -6.984022710582e+01 
-6.114035098198e+01 2.467145766802e+01 0.0 
2.467145766802e+01 -1.048294162781e+02 0.0 
0.0 0.0 -4.939093017803e+01 
-3.706399150190e+01 1.635022565055e+01 0.0 
1.635022565055e+01 -1.043339903420e+02 0.0 
0.0 0.0 -4.201939455316e+01 
-8.790718611724e+01 1.839975332845e+01 0.0 
1.839975332845e+01 -1.612137614403e+02 0.0 
0.0 0.0 -7.433628426727e+01 
-8.758707103146e+01 2.585752352506e+01 0.0 
2.585752352506e+01 -1.718869469641e+02 0.0 
0.0 0.0 -7.744220539867e+01 
-5.731672809651e+01 2.557651196576e+01 0.0 
2.557651196576e+01 -1.185891949448e+02 0.0 
0.0 0.0 -5.237177691240e+01 
-1.536188918904e+02 6.319901734249e+00 0.0 
6.319901734249e+00 -3.657620275618e+02 0.0 
0.0 0.0 -1.554142758356e+02 
-6.744767645748e+01 1.243368481302e+01 0.0 
1.243368481302e+01 -2.040490430065e+02 0.0 
0.0 0.0 -8.104901583921e+01 
-6.098457878881e+01 2.583430659485e+01 0.0 
2.583430659485e+01 -1.203502610100e+02 0.0 
0.0 0.0 -5.400045193963e+01 
-4.919615090935e+01 1.767905745865e+01 0.0 
1.767905745865e+01 -1.398124573232e+02 0.0 
0.0 0.0 -5.630258246977e+01 
-7.262572270949e+01 1.485633560717e+01 0.0 
1.485633560717e+01 -2.104297799147e+02 0.0 
0.0 0.0 -8.451665078724e+01 
-2.982534069448e+01 5.030903411297e+00 0.0 
5.030903411297e+00 -9.296977125328e+01 0.0 
0.0 0.0 -3.643853358433e+01 
-4.532136837843e+01 5.467341025985e+00 0.0 
5.467341025985e+00 -4.819138265590e+01 0.0 
0.0 0.0 -2.765382531030e+01 
-5.125654546106e+01 1.128487943192e+01 0.0 
1.128487943192e+01 -1.575831940088e+02 0.0 
0.0 0.0 -6.225192184096e+01 
-4.036367066660e+01 1.510729170619e+00 0.0 
1.510729170619e+00 -1.242381789140e+02 0.0 
0.0 0.0 -4.898055487417e+01 
-8.179113648034e+01 2.081836465025e+01 0.0 
2.081836465025e+01 -1.538968544392e+02 0.0 
0.0 0.0 -7.030639727587e+01 
-2.225912914428e+01 9.057894073349e-01 0.0 
9.057894073349e-01 -6.116559167358e+00 0.0 
0.0 0.0 -8.112706493491e+00 
-6.125625114713e+01 2.176719102781e+01 0.0 
2.176719102781e+01 -9.025817537478e+01 0.0 
0.0 0.0 -4.505432795657e+01 
-3.603376073110e+01 7.717233835147e+00 0.0 
7.717233835147e+00 -1.165753227049e+02 0.0 
0.0 0.0 -4.538272503080e+01 
-3.008299343008e+01 1.156594947032e+01 0.0 
1.156594947032e+01 -8.018259353544e+01 0.0 
0.0 0.0 -3.267967608966e+01 
-3.158242971398e+01 4.186103218940e+00 0.0 
4.186103218940e+00 -9.350701763559e+01 0.0 
0.0 0.0 -3.712683420487e+01 
-6.836769271303e+01 2.221839904567e+01 0.0 
2.221839904567e+01 -1.245858390361e+02 0.0 
0.0 0.0 -5.748605952474e+01 
-1.885280134112e+01 -2.280394577002e+00 0.0 
-2.280394577002e+00 -4.146463170124e+01 0.0 
0.0 0.0 -1.769522991271e+01 
-3.586426980552e+01 2.031999518812e+01 0.0 
2.031999518812e+01 -7.715042733527e+01 0.0 
0.0 0.0 -3.350440914224e+01 
-7.537475292962e+01 1.361537711967e+01 0.0 
1.361537711967e+01 -2.219086140858e+02 0.0 
0.0 0.0 -8.878501010462e+01 
-6.070043438128e+01 2.154058208006e+01 0.0 
2.154058208006e+01 -1.038666216669e+02 0.0 
0.0 0.0 -4.897011681445e+01 
-5.462310796450e+01 8.711019474412e+00 0.0 
8.711019474412e+00 -6.944382293239e+01 0.0 
0.0 0.0 -3.682007926907e+01 
-2.253849796153e+01 2.884762220926e+00 0.0 
2.884762220926e+00 -5.135313486967e+01 0.0 
0.0 0.0 -2.176748984936e+01 
-3.808316917699e+01 1.629520622980e+00 0.0 
1.629520622980e+00 -1.232981153746e+02 0.0 
0.0 0.0 -4.801438536549e+01 
-3.820627061112e+01 1.337804008102e-01 0.0 
1.337804008102e-01 -1.155727503561e+02 0.0 
0.0 0.0 -4.573370629017e+01 
-3.302842127844e+01 2.035917711742e+01 0.0 
2.035917711742e+01 -5.940822910190e+01 0.0 
0.0 0.0 -2.733099511410e+01 
-8.007073754535e+01 2.198169896100e+01 0.0 
2.198169896100e+01 -1.394886140372e+02 0.0 
0.0 0.0 -6.546780547478e+01 
-3.705708642917e+01 2.113341222715e+01 0.0 
2.113341222715e+01 -7.783050220620e+01 0.0 
0.0 0.0 -3.406627659061e+01 
-4.685696720496e+01 9.319304999656e+00 0.0 
9.319304999656e+00 -1.511999781973e+02 0.0 
0.0 0.0 -5.901708362069e+01 
-4.337154097626e+01 1.052970586144e+01 0.0 
1.052970586144e+01 -1.393083675847e+02 0.0 
0.0 0.0 -5.440397256830e+01 
-2.456940903650e+01 3.296673786363e+00 0.0 
3.296673786363e+00 -5.834451817296e+01 0.0 
0.0 0.0 -2.447417816284e+01 
-5.140259730888e+01 1.637095759935e+01 0.0 
1.637095759935e+01 -1.531055760997e+02 0.0 
0.0 0.0 -6.095245202257e+01 
-2.475843248054e+01 1.157556859432e+01 0.0 
1.157556859432e+01 -4.789061258819e+01 0.0 
0.0 0.0 -2.139471352062e+01 
-1.078882031334e+02 2.645273777656e+01 0.0 
2.645273777656e+01 -2.403867838645e+02 0.0 
0.0 0.0 -1.040824960994e+02 
-1.112089890326e+02 3.044063303786e+01 0.0 
3.044063303786e+01 -2.509467804941e+02 0.0 
0.0 0.0 -1.082467308580e+02 
-5.735277059713e+01 2.191990800989e+01 0.0 
2.191990800989e+01 -1.476622297701e+02 0.0 
0.0 0.0 -6.110450011016e+01 
-3.160351828169e+01 7.110653182525e+00 0.0 
7.110653182525e+00 -9.945364225791e+01 0.0 
0.0 0.0 -3.891714816188e+01 
-2.862325822908e+01 9.449880055689e+00 0.0 
9.449880055689e+00 -7.626260905452e+01 0.0 
0.0 0.0 -3.106576018508e+01 
-6.457200873579e+01 2.413676964900e+01 0.0 
2.413676964900e+01 -1.372907136429e+02 0.0 
0.0 0.0 -6.015881671360e+01 
-3.073841122744e+01 7.758509264158e+00 0.0 
7.758509264158e+00 -8.839261567984e+01 0.0 
0.0 0.0 -3.533930807218e+01 
-3.604105403763e+01 4.979435014731e-02 0.0 
4.979435014731e-02 -1.146368030312e+02 0.0 
0.0 0.0 -4.480335712065e+01 
-5.362096536446e+01 2.339240049447e+01 0.0 
2.339240049447e+01 -1.164988428417e+02 0.0 
0.0 0.0 -5.063594246184e+01 
-9.191012253004e+01 9.249908820061e+00 0.0 
9.249908820061e+00 -1.990011769166e+02 0.0 
0.0 0.0 -8.687338983398e+01 
-3.802242800597e+01 9.786176661420e+00 0.0 
9.786176661420e+00 -1.219966150963e+02 0.0 
0.0 0.0 -4.760571293068e+01 
-8.222427540031e+01 1.742105063417e+01 0.0 
1.742105063417e+01 -2.323696492707e+02 0.0 
0.0 0.0 -9.397817740130e+01 
-2.547874088616e+01 1.089476208175e+01 0.0 
1.089476208175e+01 -6.016881797381e+01 0.0 
0.0 0.0 -2.529426765799e+01 
-1.513719817694e+02 1.875690825552e+01 0.0 
1.875690825552e+01 -3.634277209464e+02 0.0 
0.0 0.0 -1.540399108147e+02 
-2.952944752768e+01 8.822694882130e+00 0.0 
8.822694882130e+00 -8.812716370821e+01 0.0 
0.0 0.0 -3.489698337077e+01 
-5.718628244888e+01 2.332399096073e+01 0.0 
2.332399096073e+01 -1.335545721342e+02 0.0 
0.0 0.0 -5.682225637492e+01 
-2.488890510249e+01 2.760700924941e+00 0.0 
2.760700924941e+00 -6.863621371424e+01 0.0 
0.0 0.0 -2.765753564502e+01 
-8.660340930962e+01 9.717209503042e+00 0.0 
9.717209503042e+00 -2.486704029569e+02 0.0 
0.0 0.0 -1.001821436800e+02 
-4.938777170435e+01 1.131693672240e+01 0.0 
1.131693672240e+01 -1.567993185746e+02 0.0 
0.0 0.0 -6.145612708368e+01 
-3.918700684707e+01 -4.300818798464e-01 0.0 
-4.300818798464e-01 -1.242081200437e+02 0.0 
0.0 0.0 -4.861853806722e+01 
-5.730160318191e+01 2.524941780662e+01 0.0 
2.524941780662e+01 -1.024077032943e+02 0.0 
0.0 0.0 -4.751279194286e+01 
-1.187881591007e+02 3.438184606671e+01 0.0 
3.438184606671e+01 -2.741938785752e+02 0.0 
0.0 0.0 -1.174946113028e+02 
-4.111370342948e+01 8.468223466737e+00 0.0 
8.468223466737e+00 -1.338171180081e+02 0.0 
0.0 0.0 -5.207924643128e+01 
-7.748649600693e+01 1.417865271060e+01 0.0 
1.417865271060e+01 -2.229186022609e+02 0.0 
0.0 0.0 -8.972152948036e+01 
-2.569271592878e+01 9.260641869425e+00 0.0 
9.260641869425e+00 -5.994020076406e+01 0.0 
0.0 0.0 -2.528987500785e+01 
-6.292639669299e+01 5.513667258399e+00 0.0 
5.513667258399e+00 -1.003868261094e+02 0.0 
0.0 0.0 -4.859396684072e+01 
-1.024845325319e+02 8.420159566001e+00 0.0 
8.420159566001e+00 -2.797896855278e+02 0.0 
0.0 0.0 -1.142822654179e+02 
-2.996998029159e+01 1.516953366616e+01 0.0 
1.516953366616e+01 -6.936642104433e+01 0.0 
0.0 0.0 -2.940092040078e+01 
-6.125313796486e+01 6.241617312875e+00 0.0 
6.241617312875e+00 -9.194902435753e+01 0.0 
0.0 0.0 -4.556064869672e+01 
-1.260442012194e+02 3.504642074405e+01 0.0 
3.504642074405e+01 -2.969364908795e+02 0.0 
0.0 0.0 -1.264942076297e+02 
-1.125689084404e+02 9.752218222206e+00 0.0 
9.752218222206e+00 -2.985698993381e+02 0.0 
0.0 0.0 -1.229416423336e+02 
-1.165176134000e+02 3.342021022529e+01 0.0 
3.342021022529e+01 -2.663745057512e+02 0.0 
0.0 0.0 -1.144676357453e+02 
-6.416137946004e+01 9.084450456884e+00 0.0 
9.084450456884e+00 -9.251872909965e+01 0.0 
0.0 0.0 -4.660403256791e+01 
-8.751148777593e+01 2.740759372983e+01 0.0 
2.740759372983e+01 -1.834725688056e+02 0.0 
0.0 0.0 -8.089521697446e+01 
-2.733490093795e+01 1.505254204735e+01 0.0 
1.505254204735e+01 -5.253328140357e+01 0.0 
0.0 0.0 -2.356045470245e+01 
-5.010074001408e+01 2.457341721463e+01 0.0 
2.457341721463e+01 -8.267964400391e+01 0.0 
0.0 0.0 -3.943411520540e+01 
-6.093615777233e+01 2.355784130628e+01 0.0 
2.355784130628e+01 -1.198648139616e+02 0.0 
0.0 0.0 -5.384029152017e+01 
-6.481866680544e+01 2.569426707431e+01 0.0 
2.569426707431e+01 -1.225695866178e+02 0.0 
0.0 0.0 -5.581647602697e+01 
-5.129951511904e+01 2.205090188414e+01 0.0 
2.205090188414e+01 -1.301124261624e+02 0.0 
0.0 0.0 -5.402358238442e+01 
-1.312288064381e+02 3.397467378559e+01 0.0 
3.397467378559e+01 -3.117142531194e+02 0.0 
0.0 0.0 -1.324829178673e+02 
-6.192606961581e+01 1.116052978809e+01 0.0 
1.116052978809e+01 -8.737119359508e+01 0.0 
0.0 0.0 -4.438917896327e+01 
-5.352387911964e+01 2.075243480269e+01 0.0 
2.075243480269e+01 -6.863799047897e+01 0.0 
0.0 0.0 -3.624856087958e+01 
-4.516348141282e+01 1.023163881527e+01 0.0 
1.023163881527e+01 -1.400032658900e+02 0.0 
0.0 0.0 -5.515002419085e+01 
-3.135739084708e+01 -3.421756350849e+00 0.0 
-3.421756350849e+00 -8.841546684668e+01 0.0 
0.0 0.0 -3.553185730813e+01 
-4.640774837479e+01 2.322341898117e+01 0.0 
2.322341898117e+01 -6.404757702760e+01 0.0 
0.0 0.0 -3.273659762072e+01 
-3.091210618193e+01 1.434601092364e+01 0.0 
1.434601092364e+01 -8.337192850995e+01 0.0 
0.0 0.0 -3.388521040757e+01 
-3.410178996339e+01 2.627092363205e-01 0.0 
2.627092363205e-01 -4.491148212862e+01 0.0 
0.0 0.0 -2.330398162760e+01 
-4.144922192953e+01 -2.945771370388e-01 0.0 
-2.945771370388e-01 -1.251962462470e+02 0.0 
0.0 0.0 -4.959364045296e+01 
-3.967356910019e+01 9.240487692288e+00 0.0 
9.240487692288e+00 -1.225858915120e+02 0.0 
0.0 0.0 -4.827783818367e+01 
-8.446106071138e+01 1.976799733917e+01 0.0 
1.976799733917e+01 -1.598279598640e+02 0.0 
0.0 0.0 -7.288670617261e+01 
-3.174820104663e+01 1.365341880369e+01 0.0 
1.365341880369e+01 -8.359827924499e+01 0.0 
0.0 0.0 -3.420394408749e+01 
-5.338971337933e+01 2.302270324721e+01 0.0 
2.302270324721e+01 -1.002212667864e+02 0.0 
0.0 0.0 -4.568329404972e+01 
-8.022875523127e+01 1.286417904937e+01 0.0 
1.286417904937e+01 -2.337053362154e+02 0.0 
0.0 0.0 -9.378022743399e+01 
-7.757753665225e+01 2.985752326036e+00 0.0 
2.985752326036e+00 -2.248474150115e+02 0.0 
0.0 0.0 -9.032748549913e+01 
-1.387436165669e+02 3.044592327669e+01 0.0 
3.044592327669e+01 -3.320733966705e+02 0.0 
0.0 0.0 -1.408451039712e+02 
-4.030601112718e+01 2.364948966072e+01 0.0 
2.364948966072e+01 -6.250302069033e+01 0.0 
0.0 0.0 -3.044270954525e+01 
-3.500927243951e+01 2.509479079055e+00 0.0 
2.509479079055e+00 -1.133648721112e+02 0.0 
0.0 0.0 -4.411224336522e+01 
-5.492668179360e+01 -3.737824844070e-01 0.0 
-3.737824844070e-01 -1.604383709372e+02 0.0 
0.0 0.0 -6.420951581924e+01 
-2.976174153810e+01 1.762682704461e+01 0.0 
1.762682704461e+01 -5.545459125580e+01 0.0 
0.0 0.0 -2.516489983817e+01 
-2.958827836728e+01 1.578316246585e+01 0.0 
1.578316246585e+01 -6.930035286689e+01 0.0 
0.0 0.0 -2.926658937025e+01 
-9.452239804402e+01 2.683690013653e+01 0.0 
2.683690013653e+01 -1.936718155635e+02 0.0 
0.0 0.0 -8.605826408225e+01 
-6.103306922267e+01 2.549791849690e+01 0.0 
2.549791849690e+01 -1.358158315706e+02 0.0 
0.0 0.0 -5.865467023798e+01 
-3.617311727406e+01 2.209956282621e+01 0.0 
2.209956282621e+01 -6.134616502587e+01 0.0 
0.0 0.0 -2.885578468998e+01 
-4.621241132524e+01 2.232335488960e+01 0.0 
2.232335488960e+01 -8.084919588130e+01 0.0 
0.0 0.0 -3.771848216196e+01 
-1.460924577833e+02 2.392188133972e+01 0.0 
2.392188133972e+01 -3.518632533152e+02 0.0 
0.0 0.0 -1.489867133295e+02 
-1.349469875107e+02 2.335402730078e+01 0.0 
2.335402730078e+01 -3.318432415635e+02 0.0 
0.0 0.0 -1.396370687223e+02 
-9.229342229508e+01 2.396887590542e+01 0.0 
2.396887590542e+01 -1.918421310451e+02 0.0 
0.0 0.0 -8.484066600204e+01 
-8.329087732102e+01 2.067044327939e+01 0.0 
2.067044327939e+01 -1.464386656712e+02 0.0 
0.0 0.0 -6.851886289767e+01 
-7.537401445310e+01 4.018380876930e+00 0.0 
4.018380876930e+00 -2.166024667828e+02 0.0 
0.0 0.0 -8.719294437076e+01 
-3.988328500594e+01 2.052444752625e+01 0.0 
2.052444752625e+01 -9.417297719238e+01 0.0 
0.0 0.0 -3.981687865950e+01 
-3.322306921059e+01 6.246993459477e+00 0.0 
6.246993459477e+00 -9.994357616454e+01 0.0 
0.0 0.0 -3.954999361254e+01 
-3.780142223424e+01 7.088405106467e+00 0.0 
7.088405106467e+00 -1.171866234840e+02 0.0 
0.0 0.0 -4.609641371548e+01 
-5.754800466710e+01 2.461453358181e+01 0.0 
2.461453358181e+01 -1.339804734314e+02 0.0 
0.0 0.0 -5.705854342955e+01 
-8.394021540223e+01 1.100124173374e+01 0.0 
1.100124173374e+01 -2.391797458411e+02 0.0 
0.0 0.0 -9.653598837301e+01 
-6.981783707238e+01 5.287770802114e-01 0.0 
5.287770802114e-01 -1.948979830338e+02 0.0 
0.0 0.0 -7.901474603184e+01 
-9.071307203260e+01 2.133984034916e+01 0.0 
2.133984034916e+01 -1.817612450313e+02 0.0 
0.0 0.0 -8.134229511918e+01 
-3.718590832176e+01 2.129590239106e+00 0.0 
2.129590239106e+00 -1.142023217368e+02 0.0 
0.0 0.0 -4.501646901757e+01 
-4.844865035773e+01 2.046631795815e+01 0.0 
2.046631795815e+01 -1.279045433574e+02 0.0 
0.0 0.0 -5.250595811454e+01 
-5.710330959189e+01 2.361337647715e+01 0.0 
2.361337647715e+01 -1.179581823728e+02 0.0 
0.0 0.0 -5.211844758940e+01 
-4.271298271681e+01 1.971530671456e+01 0.0 
1.971530671456e+01 -1.100964912348e+02 0.0 
0.0 0.0 -4.544284218548e+01 
-1.145716682480e+02 3.219654769200e+01 0.0 
3.219654769200e+01 -2.589684091904e+02 0.0 
0.0 0.0 -1.116620232315e+02 
-1.086467748051e+02 2.821064513053e+01 0.0 
2.821064513053e+01 -2.449958914809e+02 0.0 
0.0 0.0 -1.056927998858e+02 
-1.053319423874e+02 2.777535193077e+01 0.0 
2.777535193077e+01 -2.254817211871e+02 0.0 
0.0 0.0 -9.884409907235e+01 
-8.335372614133e+01 5.311304853540e+00 0.0 
5.311304853540e+00 -2.350903003007e+02 0.0 
0.0 0.0 -9.513320793260e+01 
-8.441940941369e+01 1.543772257201e+01 0.0 
1.543772257201e+01 -1.591887070613e+02 0.0 
0.0 0.0 -7.268243494250e+01 
-2.824052833578e+01 1.439971799556e+01 0.0 
1.439971799556e+01 -6.678014078563e+01 0.0 
0.0 0.0 -2.810620073642e+01 
-4.301314885417e+01 8.064817242530e+00 0.0 
8.064817242530e+00 -1.345333155919e+02 0.0 
0.0 0.0 -5.286393933384e+01 
-2.785372054081e+01 3.537738178065e+00 0.0 
3.537738178065e+00 -7.625801333386e+01 0.0 
0.0 0.0 -3.083352016240e+01 
-3.905888641140e+01 2.218560900531e+01 0.0 
2.218560900531e+01 -7.903878852793e+01 0.0 
0.0 0.0 -3.502930248180e+01 
-4.406991841113e+01 3.823585836444e+00 0.0 
3.823585836444e+00 -4.716530402108e+01 0.0 
0.0 0.0 -2.697056672966e+01 
-5.995301519629e+01 5.650559438541e+00 0.0 
5.650559438541e+00 -9.025932278003e+01 0.0 
0.0 0.0 -4.466370139289e+01 
-1.406573094519e+02 1.824173249735e+01 0.0 
1.824173249735e+01 -3.464904476678e+02 0.0 
0.0 0.0 -1.457443271359e+02 
-9.286257817585e+01 2.567378369360e+01 0.0 
2.567378369360e+01 -2.027464741338e+02 0.0 
0.0 0.0 -8.828271569290e+01 
-6.446102008797e+01 2.021399764078e+01 0.0 
2.021399764078e+01 -1.067859452708e+02 0.0 
0.0 0.0 -5.097408960764e+01 
-6.833461741590e+01 2.403114518310e+01 0.0 
2.403114518310e+01 -1.394602995278e+02 0.0 
0.0 0.0 -6.193847508310e+01 
-2.828289826725e+01 3.121209157295e+00 0.0 
3.121209157295e+00 -8.591669446507e+01 0.0 
0.0 0.0 -3.385987781970e+01 
-2.088867547942e+01 -2.839436629035e+00 0.0 
-2.839436629035e+00 -4.214424552865e+01 0.0 
0.0 0.0 -1.850987630242e+01 
-4.843266401755e+01 1.446728498369e+01 0.0 
1.446728498369e+01 -1.489207704738e+02 0.0 
0.0 0.0 -5.880603034739e+01 
-5.486557082912e+01 2.124213710541e+01 0.0 
2.124213710541e+01 -1.456616301283e+02 0.0 
0.0 0.0 -5.975816028724e+01 
-5.277366394691e+01 1.657310272569e+01 0.0 
1.657310272569e+01 -1.537287896967e+02 0.0 
0.0 0.0 -6.155073609308e+01 
-2.334300470775e+01 1.257617037627e+01 0.0 
1.257617037627e+01 -2.991955944415e+01 0.0 
0.0 0.0 -1.557876924557e+01 
-4.060310624614e+01 -7.588870005754e-03 0.0 
-7.588870005754e-03 -6.149111352821e+01 0.0 
0.0 0.0 -3.022826593230e+01 
-2.996655911495e+01 -2.490282471167e+00 0.0 
-2.490282471167e+00 -8.124066121236e+01 0.0 
0.0 0.0 -3.296216609819e+01 
-3.121167166989e+01 1.083730084694e+01 0.0 
1.083730084694e+01 -9.281310422668e+01 0.0 
0.0 0.0 -3.680743276897e+01 
-1.553892574272e+02 1.880619000883e+01 0.0 
1.880619000883e+01 -3.639082673300e+02 0.0 
0.0 0.0 -1.553892574272e+02 
-8.963445959248e+01 1.763126301841e+01 0.0 
1.763126301841e+01 -2.466773191257e+02 0.0 
0.0 0.0 -1.004935336155e+02 
-5.139541185106e+01 1.590573713845e+01 0.0 
1.590573713845e+01 -6.688463687760e+01 0.0 
0.0 0.0 -3.508401461860e+01 
-2.145860288844e+01 -8.955553009044e-01 0.0 
-8.955553009044e-01 -5.936180299831e+01 0.0 
0.0 0.0 -2.384612176603e+01 
-5.055059149272e+01 2.133363515824e+01 0.0 
2.133363515824e+01 -1.296534626182e+02 0.0 
0.0 0.0 -5.366121623327e+01 
-5.009676140975e+01 1.451660778511e+01 0.0 
1.451660778511e+01 -1.496371520862e+02 0.0 
0.0 0.0 -5.952017404880e+01 
-6.866293331062e+01 2.520387577767e+01 0.0 
2.520387577767e+01 -1.252539465647e+02 0.0 
0.0 0.0 -5.777506396260e+01 
-1.207858776958e+02 3.474830372070e+01 0.0 
3.474830372070e+01 -2.817761662103e+02 0.0 
0.0 0.0 -1.203686131718e+02 
-4.953247136800e+01 2.182731420465e+01 0.0 
2.182731420465e+01 -8.199436720429e+01 0.0 
0.0 0.0 -3.905805157169e+01 
-6.467589969545e+01 2.608696767335e+01 0.0 
2.608696767335e+01 -1.376935033496e+02 0.0 
0.0 0.0 -6.031082091352e+01 
-6.813065262330e+01 -7.684330385465e-01 0.0 
-7.684330385465e-01 -1.939046376614e+02 0.0 
0.0 0.0 -7.821058708540e+01 
-8.678963307024e+01 1.895638675126e+01 0.0 
1.895638675126e+01 -1.663849050555e+02 0.0 
0.0 0.0 -7.555236143771e+01 
-8.587439208837e+01 4.173930107867e+00 0.0 
4.173930107867e+00 -2.435567808191e+02 0.0 
0.0 0.0 -9.842935187224e+01 
-1.238867473414e+02 3.529818006808e+01 0.0 
3.529818006808e+01 -2.893999171006e+02 0.0 
0.0 0.0 -1.235859993326e+02 
-1.112926093232e+02 3.087745692671e+01 0.0 
3.087745692671e+01 -2.610160884208e+02 0.0 
0.0 0.0 -1.112926093232e+02 
-9.994093861271e+01 2.388874722704e+01 0.0 
2.388874722704e+01 -2.345288567630e+02 0.0 
0.0 0.0 -9.994093861271e+01 
-1.043731069187e+02 2.761601637012e+01 0.0 
2.761601637012e+01 -2.448705828102e+02 0.0 
0.0 0.0 -1.043731069187e+02 
-7.210600264526e+01 2.358494541008e+01 0.0 
2.358494541008e+01 -1.420337563983e+02 0.0 
0.0 0.0 -6.384192771308e+01 
-8.959671738848e+01 2.193956369031e+01 0.0 
2.193956369031e+01 -1.681348817577e+02 0.0 
0.0 0.0 -7.691947974385e+01 
-9.616258823481e+01 2.578251633309e+01 0.0 
2.578251633309e+01 -2.085741809126e+02 0.0 
0.0 0.0 -9.102103074423e+01 
-4.164509984488e+01 1.936986248499e+01 0.0 
1.936986248499e+01 -1.095818193111e+02 0.0 
0.0 0.0 -4.496807574679e+01 
-3.857838474365e+01 1.995170116418e+01 0.0 
1.995170116418e+01 -9.351468647367e+01 0.0 
0.0 0.0 -3.922792136520e+01 
-6.609235708677e+01 9.842157779731e-02 0.0 
9.842157779731e-02 -1.842603556498e+02 0.0 
0.0 0.0 -7.470581382097e+01 
-9.347915003509e+01 2.436372131783e+01 0.0 
2.436372131783e+01 -1.835750647410e+02 0.0 
0.0 0.0 -8.271626443284e+01 
-1.285784182889e+02 3.466538466729e+01 0.0 
3.466538466729e+01 -3.043750624880e+02 0.0 
0.0 0.0 -1.294860442331e+02 
-8.858820605136e+01 1.804848285768e+01 0.0 
1.804848285768e+01 -1.732304175331e+02 0.0 
0.0 0.0 -7.814558707534e+01 
-8.086902480832e+01 1.621016429418e+01 0.0 
1.621016429418e+01 -2.284662121567e+02 0.0 
0.0 0.0 -9.240057108949e+01 
-9.172821366853e+01 2.094811857855e+01 0.0 
2.094811857855e+01 -1.751306384089e+02 0.0 
0.0 0.0 -7.965765562321e+01 
-8.534417080276e+01 2.464165780693e+01 0.0 
2.464165780693e+01 -2.179756717565e+02 0.0 
0.0 0.0 -9.059595276777e+01 
-5.100930029111e+01 1.917062635340e+01 0.0 
1.917062635340e+01 -1.425110395592e+02 0.0 
0.0 0.0 -5.765610195510e+01 
-3.787076508606e+01 2.120431656556e+01 0.0 
2.120431656556e+01 -7.838527640219e+01 0.0 
0.0 0.0 -3.447681244647e+01 
-2.641649547271e+01 8.679121306359e+00 0.0 
8.679121306359e+00 -7.157815316969e+01 0.0 
0.0 0.0 -2.899839459272e+01 
-9.166333498073e+01 1.509099446271e+01 0.0 
1.509099446271e+01 -2.037925033306e+02 0.0 
0.0 0.0 -8.823675149340e+01 
-3.930457170752e+01 1.798002395006e+01 0.0 
1.798002395006e+01 -1.073125775117e+02 0.0 
0.0 0.0 -4.358514476575e+01 
-1.161308278692e+02 2.876526095823e+01 0.0 
2.876526095823e+01 -2.779957806575e+02 0.0 
0.0 0.0 -1.178379825580e+02 
-6.458194053615e+01 -1.257382588759e+00 0.0 
-1.257382588759e+00 -1.833288984585e+02 0.0 
0.0 0.0 -7.397325169838e+01 
-3.911179858937e+01 -1.354531343764e+00 0.0 
-1.354531343764e+00 -1.155928062811e+02 0.0 
0.0 0.0 -4.601138146114e+01 
-1.455981883335e+02 1.658430033641e+01 0.0 
1.658430033641e+01 -3.503023812042e+02 0.0 
0.0 0.0 -1.483701708613e+02 
-3.294956801985e+01 1.277799346361e+01 0.0 
1.277799346361e+01 -9.677252360769e+01 0.0 
0.0 0.0 -3.851662748826e+01 
-1.147499411754e+02 3.207264768125e+01 0.0 
3.207264768125e+01 -2.690831960758e+02 0.0 
0.0 0.0 -1.147499411754e+02 
-1.007242059679e+02 2.452509141366e+01 0.0 
2.452509141366e+01 -2.236703706013e+02 0.0 
0.0 0.0 -9.691837297077e+01 
-6.445992121391e+01 2.383777600158e+01 0.0 
2.383777600158e+01 -1.520683376270e+02 0.0 
0.0 0.0 -6.455847765227e+01 
-1.420368445627e+01 -2.004335358154e+00 0.0 
-2.004335358154e+00 -2.480186881225e+01 0.0 
0.0 0.0 -1.172871480938e+01 
-1.215704523827e+02 3.315157961160e+01 0.0 
3.315157961160e+01 -2.849977222263e+02 0.0 
0.0 0.0 -1.215704523827e+02 
-1.426652829440e+02 1.987838408870e+01 0.0 
1.987838408870e+01 -3.432863292321e+02 0.0 
0.0 0.0 -1.453854836528e+02 
-3.697503172569e+01 -1.689390478539e+00 0.0 
-1.689390478539e+00 -1.146147141912e+02 0.0 
0.0 0.0 -4.507692377507e+01 
-8.596526919241e+01 1.557475497418e+01 0.0 
1.557475497418e+01 -2.409576200916e+02 0.0 
0.0 0.0 -9.767686678520e+01 
-1.406703740721e+02 2.885060862608e+01 0.0 
2.885060862608e+01 -3.376537540404e+02 0.0 
0.0 0.0 -1.430972384338e+02 
-1.073335737714e+01 -8.107467597070e-01 0.0 
-8.107467597070e-01 -8.880399964493e+00 0.0 
0.0 0.0 -6.454040345279e+00 
-4.488480472153e+01 1.855851155660e+01 0.0 
1.855851155660e+01 -1.250064922006e+02 0.0 
0.0 0.0 -5.056738907665e+01 
-6.824904841457e+01 2.436831807733e+01 0.0 
2.436831807733e+01 -1.542520004337e+02 0.0 
0.0 0.0 -6.635031465447e+01 
-6.082596340777e+01 2.301440987868e+01 0.0 
2.301440987868e+01 -1.499248506669e+02 0.0 
0.0 0.0 -6.282524422240e+01 
-6.077311086833e+01 2.390209249395e+01 0.0 
2.390209249395e+01 -1.353852786322e+02 0.0 
0.0 0.0 -5.844751685016e+01 
-2.785978833972e+01 1.068040876866e+01 0.0 
1.068040876866e+01 -7.620419020921e+01 0.0 
0.0 0.0 -3.081919356468e+01 
-1.284844375850e+02 3.305973342088e+01 0.0 
3.305973342088e+01 -3.011303543651e+02 0.0 
0.0 0.0 -1.284844375850e+02 
-4.881656317863e+01 9.144674114711e+00 0.0 
9.144674114711e+00 -1.519905583474e+02 0.0 
0.0 0.0 -5.984213645780e+01 
-2.360747408743e+01 1.120684531044e+00 0.0 
1.120684531044e+00 -5.138228156993e+01 0.0 
0.0 0.0 -2.209692669721e+01 
-1.503661944119e+02 7.006506408789e+00 0.0 
7.006506408789e+00 -3.641158728371e+02 0.0 
0.0 0.0 -1.539446201747e+02 
-1.638245808493e+01 -1.915830348823e+00 0.0 
-1.915830348823e+00 -2.524155256975e+01 0.0 
0.0 0.0 -1.208720319641e+01 
-4.288685195513e+01 2.226950853124e+01 0.0 
2.226950853124e+01 -7.987460144599e+01 0.0 
0.0 0.0 -3.642843602034e+01 
-2.269068070305e+01 -2.484370882313e+00 0.0 
-2.484370882313e+00 -5.842089107599e+01 0.0 
0.0 0.0 -2.393347153371e+01 
-4.548286757061e+01 1.983892856004e+01 0.0 
1.983892856004e+01 -6.304143987304e+01 0.0 
0.0 0.0 -3.215729223310e+01 
-1.480817262871e+02 2.213937536134e+01 0.0 
2.213937536134e+01 -3.561087667145e+02 0.0 
0.0 0.0 -1.508571479005e+02 
-1.351814171390e+02 3.175126400172e+01 0.0 
3.175126400172e+01 -3.167566399911e+02 0.0 
0.0 0.0 -1.351814171390e+02 
-6.460978118405e+01 2.305921590303e+01 0.0 
2.305921590303e+01 -1.219571935928e+02 0.0 
0.0 0.0 -5.557009243305e+01 
-1.883966325345e+01 -2.634630206102e+00 0.0 
-2.634630206102e+00 -4.187753898241e+01 0.0 
0.0 0.0 -1.781516067076e+01 
-2.114785925424e+01 8.078046611594e-01 0.0 
8.078046611594e-01 -4.263267449040e+01 0.0 
0.0 0.0 -1.873416012339e+01 
-2.570567777887e+01 -2.812859999483e+00 0.0 
-2.812859999483e+00 -5.796212165745e+01 0.0 
0.0 0.0 -2.470033983089e+01 
-1.259518131780e+02 8.091601840076e+00 0.0 
8.091601840076e+00 -3.191437821728e+02 0.0 
0.0 0.0 -1.331286786052e+02 
-4.364490689318e+01 4.808919662483e+00 0.0 
4.808919662483e+00 -4.913592565601e+01 0.0 
0.0 0.0 -2.743424976476e+01 
-5.709202691373e+01 1.872107570598e+01 0.0 
1.872107570598e+01 -7.279544885242e+01 0.0 
0.0 0.0 -3.856624272985e+01 
-1.410761814226e+02 2.969049777140e+01 0.0 
2.969049777140e+01 -3.305110899860e+02 0.0 
0.0 0.0 -1.410761814226e+02 
-4.096882855859e+01 3.404735763510e+00 0.0 
3.404735763510e+00 -4.777143469080e+01 0.0 
0.0 0.0 -2.622207897482e+01 
-1.049003045464e+02 2.393551920551e+01 0.0 
2.393551920551e+01 -2.351535728350e+02 0.0 
0.0 0.0 -1.016161632144e+02 
-8.874158325863e+01 2.295429757354e+01 0.0 
2.295429757354e+01 -2.318684222621e+02 0.0 
0.0 0.0 -9.578300165621e+01 
-5.421661205767e+01 3.427367521881e+00 0.0 
3.427367521881e+00 -7.932899984926e+01 0.0 
0.0 0.0 -3.966368357208e+01 
-3.085687646152e+01 1.728240931146e+01 0.0 
1.728240931146e+01 -7.123153673155e+01 0.0 
0.0 0.0 -3.022652395792e+01 
-8.380501303848e+01 1.483444389012e+01 0.0 
1.483444389012e+01 -2.398924442884e+02 0.0 
0.0 0.0 -9.670923719806e+01 
-2.629354445663e+01 5.107253329802e+00 0.0 
5.107253329802e+00 -6.624647322018e+01 0.0 
0.0 0.0 -2.736200530304e+01 
-1.459987521168e+02 2.690138000667e+01 0.0 
2.690138000667e+01 -3.419970882725e+02 0.0 
0.0 0.0 -1.459987521168e+02 
-1.077936666107e+02 2.929205002732e+01 0.0 
2.929205002732e+01 -2.528518887583e+02 0.0 
0.0 0.0 -1.077936666107e+02 
-1.021250239739e+02 2.588991534792e+01 0.0 
2.588991534792e+01 -2.396250559390e+02 0.0 
0.0 0.0 -1.021250239739e+02 
-8.815936928061e+01 5.212746422368e+00 0.0 
5.212746422368e+00 -2.447464473613e+02 0.0 
0.0 0.0 -9.947174499257e+01 
-6.229705051726e+01 -1.778292696503e-01 0.0 
-1.778292696503e-01 -1.734142676662e+02 0.0 
0.0 0.0 -7.031339545504e+01 
-5.193708869512e+01 1.953757244156e+01 0.0 
1.953757244156e+01 -1.429847513960e+02 0.0 
0.0 0.0 -5.807655202734e+01 
-9.078235337433e+01 3.989040462717e+00 0.0 
3.989040462717e+00 -2.529230473803e+02 0.0 
0.0 0.0 -1.027116202264e+02 
-1.500376487562e+02 2.384887561788e+01 0.0 
2.384887561788e+01 -3.514211804311e+02 0.0 
0.0 0.0 -1.500376487562e+02 
-3.225133751437e+01 9.901251560413e+00 0.0 
9.901251560413e+00 -9.305411009088e+01 0.0 
0.0 0.0 -3.719163428158e+01 
-4.133386994768e+01 9.619327910258e-01 0.0 
9.619327910258e-01 -1.329687627894e+02 0.0 
0.0 0.0 -5.189078982112e+01 
-4.475170380616e+01 5.017575034511e-01 0.0 
5.017575034511e-01 -1.424191091984e+02 0.0 
0.0 0.0 -5.575124390135e+01 
-5.775698630599e+01 3.628893241812e+00 0.0 
3.628893241812e+00 -9.003545282494e+01 0.0 
0.0 0.0 -4.393773173928e+01 
-1.529232108381e+02 1.710470153373e+01 0.0 
1.710470153373e+01 -3.665109116425e+02 0.0 
0.0 0.0 -1.554302367442e+02 
-2.288983695522e+01 -2.676878157574e+00 0.0 
-2.676878157574e+00 -4.163006456748e+01 0.0 
0.0 0.0 -1.895597045681e+01 
-1.537636952977e+02 2.038528082701e+01 0.0 
2.038528082701e+01 -3.601152890279e+02 0.0 
0.0 0.0 -1.537636952977e+02 
-4.238973132632e+01 -8.580111834705e-01 0.0 
-8.580111834705e-01 -1.331907505929e+02 0.0 
0.0 0.0 -5.227414457576e+01 
-1.183840004904e+02 3.289379704246e+01 0.0 
3.289379704246e+01 -2.775626678108e+02 0.0 
0.0 0.0 -1.183840004904e+02 
-9.870449285953e+01 2.842708382284e+01 0.0 
2.842708382284e+01 -2.102951985730e+02 0.0 
0.0 0.0 -9.229990742977e+01 
-1.272165802178e+01 -7.824827597458e-01 0.0 
-7.824827597458e-01 -7.918806045072e+00 0.0 
0.0 0.0 -5.792139220056e+00 
-4.803052460900e+01 1.746988318584e+01 0.0 
1.746988318584e+01 -1.392729984770e+02 0.0 
0.0 0.0 -5.579105692579e+01 
-8.984048820231e+01 1.751674758929e+01 0.0 
1.751674758929e+01 -1.696348962988e+02 0.0 
0.0 0.0 -7.744261535034e+01 
-1.251797237895e+02 3.332726911980e+01 0.0 
3.332726911980e+01 -2.934193555088e+02 0.0 
0.0 0.0 -1.251797237895e+02 
-7.234733999626e+01 2.617353872372e+01 0.0 
2.617353872372e+01 -1.426237846376e+02 0.0 
0.0 0.0 -6.409133739017e+01 
-9.348530794084e+01 2.246607597233e+01 0.0 
2.246607597233e+01 -2.460511902892e+02 0.0 
0.0 0.0 -1.014609494690e+02 
-2.396122585595e+01 8.804715021414e+00 0.0 
8.804715021414e+00 -5.547392902037e+01 0.0 
0.0 0.0 -2.343054646289e+01 
-1.336844262656e+02 1.773217119729e+01 0.0 
1.773217119729e+01 -3.303344769726e+02 0.0 
0.0 0.0 -1.388056709715e+02 
-4.583150477809e+01 -1.054198223121e+00 0.0 
-1.054198223121e+00 -1.421956151782e+02 0.0 
0.0 0.0 -5.600813598688e+01 
-4.706791263973e+01 7.080249238907e-01 0.0 
7.080249238907e-01 -1.434427499476e+02 0.0 
0.0 0.0 -5.675319877620e+01 
-2.061026819970e+01 -2.072423899084e+00 0.0 
-2.072423899084e+00 -2.581549512786e+01 0.0 
0.0 0.0 -1.352772899827e+01 
-1.318419119915e+02 3.251851633621e+01 0.0 
3.251851633621e+01 -3.089644613134e+02 0.0 
0.0 0.0 -1.318419119915e+02 
-2.934787233175e+01 5.599245128801e+00 0.0 
5.599245128801e+00 -8.288608053221e+01 0.0 
0.0 0.0 -3.327018585919e+01 
-1.191763759615e+02 1.271205431980e+01 0.0 
1.271205431980e+01 -3.081367495679e+02 0.0 
0.0 0.0 -1.277939376588e+02 
-5.159162958569e+01 4.550745651881e+00 0.0 
4.550745651881e+00 -6.984736586242e+01 0.0 
0.0 0.0 -3.603169863443e+01 
-4.246354958553e+01 -1.902190610483e+00 0.0 
-1.902190610483e+00 -1.230314431552e+02 0.0 
0.0 0.0 -4.924849782223e+01 
-4.361458613246e+01 1.071955471652e+00 0.0 
1.071955471652e+00 -1.339592284541e+02 0.0 
0.0 0.0 -5.287214437597e+01 
-6.849146404642e+01 2.629592637625e+01 0.0 
2.629592637625e+01 -1.399653076544e+02 0.0 
0.0 0.0 -6.213703151026e+01 
-1.436686417711e+02 2.841096960602e+01 0.0 
2.841096960602e+01 -3.365601641327e+02 0.0 
0.0 0.0 -1.436686417711e+02 
-6.471013363361e+01 -1.321468585778e+00 0.0 
-1.321468585778e+00 -1.813684176583e+02 0.0 
0.0 0.0 -7.342356538756e+01 
-1.007965827841e+02 7.953810181294e+00 0.0 
7.953810181294e+00 -2.723258725101e+02 0.0 
0.0 0.0 -1.115367365883e+02 
-6.105022562347e+01 2.125099490397e+01 0.0 
2.125099490397e+01 -1.630245708041e+02 0.0 
0.0 0.0 -6.682243892828e+01 
-8.536073194056e+01 8.704806506225e+00 0.0 
8.704806506225e+00 -2.419854603158e+02 0.0 
0.0 0.0 -9.780385767691e+01 
-4.579562634643e+01 2.573939950152e+00 0.0 
2.573939950152e+00 -1.421515607932e+02 0.0 
0.0 0.0 -5.598415614188e+01 
-9.181639009498e+01 6.625302052353e+00 0.0 
6.625302052353e+00 -2.536533305077e+02 0.0 
0.0 0.0 -1.032409161808e+02 
-5.800060464224e+01 2.276180581337e+01 0.0 
2.276180581337e+01 -1.480983935428e+02 0.0 
0.0 0.0 -6.142969945550e+01 
-8.456593420660e+01 2.633009443817e+01 0.0 
2.633009443817e+01 -2.058077416941e+02 0.0 
0.0 0.0 -8.671210277022e+01 
-9.281679017573e+01 1.611194754982e+01 0.0 
1.611194754982e+01 -2.579632842287e+02 0.0 
0.0 0.0 -1.048340223213e+02 
-5.770001498336e+01 1.981019338080e+01 0.0 
1.981019338080e+01 -1.601217384818e+02 0.0 
0.0 0.0 -6.494652603956e+01 
-6.410573939982e+01 -9.359364117232e-01 0.0 
-9.359364117232e-01 -1.850718162799e+02 0.0 
0.0 0.0 -7.435326670392e+01 
-3.391228660793e+01 1.200132457441e+01 0.0 
1.200132457441e+01 -9.702103778886e+01 0.0 
0.0 0.0 -3.887999731904e+01 
-6.096557295502e+01 -1.583731827373e+00 0.0 
-1.583731827373e+00 -1.725476507791e+02 0.0 
0.0 0.0 -6.965396712025e+01 
-9.011676363743e+01 2.417218470864e+01 0.0 
2.417218470864e+01 -2.327557697514e+02 0.0 
0.0 0.0 -9.646176001664e+01 
-7.201023764020e+01 1.162393767531e+01 0.0 
1.162393767531e+01 -2.157544455152e+02 0.0 
0.0 0.0 -8.592940494661e+01 
-1.498433845941e+02 2.052920382091e+01 0.0 
2.052920382091e+01 -3.599700550661e+02 0.0 
0.0 0.0 -1.525440318981e+02 
-9.372097931035e+01 2.006089636466e+01 0.0 
2.006089636466e+01 -1.826907405081e+02 0.0 
0.0 0.0 -8.252351594554e+01 
-3.796808973158e+01 -3.149061978228e+00 0.0 
-3.149061978228e+00 -1.116022842920e+02 0.0 
0.0 0.0 -4.447111220708e+01 
-1.520628881958e+02 2.203389056237e+01 0.0 
2.203389056237e+01 -3.561467391235e+02 0.0 
0.0 0.0 -1.520628881958e+02 
-1.391437780456e+02 1.998004486551e+01 0.0 
1.998004486551e+01 -3.430996472373e+02 0.0 
0.0 0.0 -1.442730275849e+02 
-5.513700412728e+01 1.533767265405e+01 0.0 
1.533767265405e+01 -1.665970700128e+02 0.0 
0.0 0.0 -6.612022224202e+01 
-1.625348025033e+01 -2.037211219393e+00 0.0 
-2.037211219393e+00 -2.538322624056e+01 0.0 
0.0 0.0 -1.246879546896e+01 
-1.540363749920e+02 1.547488025459e+01 0.0 
1.547488025459e+01 -3.691140032263e+02 0.0 
0.0 0.0 -1.565451134655e+02 
-9.537922057330e+01 2.329304516158e+01 0.0 
2.329304516158e+01 -1.894628296677e+02 0.0 
0.0 0.0 -8.505261507231e+01 
-4.009570103651e+01 -1.929963145965e+00 0.0 
-1.929963145965e+00 -1.235506842281e+02 0.0 
0.0 0.0 -4.869391557939e+01 
-1.567112021342e+02 1.721102819028e+01 0.0 
1.721102819028e+01 -3.669928049798e+02 0.0 
0.0 0.0 -1.567112021342e+02 
-9.685174086267e+01 6.461775188832e+00 0.0 
6.461775188832e+00 -2.634245610398e+02 0.0 
0.0 0.0 -1.076828905707e+02 
-4.104858906066e+01 2.108790273854e+01 0.0 
2.108790273854e+01 -9.528418149663e+01 0.0 
0.0 0.0 -4.049983116719e+01 
-6.021458880296e+01 1.743025158863e+01 0.0 
1.743025158863e+01 -8.894891338985e+01 0.0 
0.0 0.0 -4.434905065784e+01 
-6.952543979693e+01 1.282627171214e+01 0.0 
1.282627171214e+01 -2.050036348342e+02 0.0 
0.0 0.0 -8.195872238934e+01 
-7.991073788075e+01 3.981503244119e+00 0.0 
3.981503244119e+00 -2.260436939760e+02 0.0 
0.0 0.0 -9.138632955701e+01 
-8.895061585700e+01 1.053444990338e+01 0.0 
1.053444990338e+01 -2.498541581883e+02 0.0 
0.0 0.0 -1.012414322136e+02 
-7.629850712097e+01 1.936572947014e+01 0.0 
1.936572947014e+01 -1.242767661518e+02 0.0 
0.0 0.0 -5.977258198183e+01 
-4.668685624148e+01 2.271122483604e+01 0.0 
2.271122483604e+01 -9.783025039149e+01 0.0 
0.0 0.0 -4.295513198989e+01 
-9.668078405696e+01 1.806499687741e+01 0.0 
1.806499687741e+01 -2.637890063354e+02 0.0 
0.0 0.0 -1.077409371177e+02 
-4.784151004911e+01 5.922043417713e-01 0.0 
5.922043417713e-01 -7.836549960809e+01 0.0 
0.0 0.0 -3.746210289716e+01 
-6.594283810948e+01 2.772378357942e-01 0.0 
2.772378357942e-01 -1.861115425414e+02 0.0 
0.0 0.0 -7.521631419528e+01 
-8.895218133968e+01 1.415855468158e+01 0.0 
1.415855468158e+01 -2.517333695365e+02 0.0 
0.0 0.0 -1.018056652629e+02 
-4.801486908231e+01 -5.459419976480e-01 0.0 
-5.459419976480e-01 -1.432166137568e+02 0.0 
0.0 0.0 -5.696944485174e+01 
-9.691836845748e+01 1.527505813784e+00 0.0 
1.527505813784e+00 -2.598579317094e+02 0.0 
0.0 0.0 -1.066328900501e+02 
-1.459549524161e+01 -7.862980828298e-01 0.0 
-7.862980828298e-01 -8.062470513121e+00 0.0 
0.0 0.0 -6.397389726419e+00 
-3.578911711895e+01 1.410083096989e+01 0.0 
1.410083096989e+01 -1.006711518461e+02 0.0 
0.0 0.0 -4.053808068951e+01 
-4.464706960685e+01 -4.857181197483e-01 0.0 
-4.857181197483e-01 -1.342245019175e+02 0.0 
0.0 0.0 -5.326147145730e+01 
-7.220033293040e+01 -5.905258139433e-01 0.0 
-5.905258139433e-01 -2.027381472763e+02 0.0 
0.0 0.0 -8.208154406201e+01 
-5.823555647044e+01 1.718502672142e+01 0.0 
1.718502672142e+01 -1.707365504113e+02 0.0 
0.0 0.0 -6.829163206453e+01 
-9.462771892673e+01 5.357898317012e+00 0.0 
5.357898317012e+00 -2.622483810146e+02 0.0 
0.0 0.0 -1.066628299824e+02 
-5.592906360628e+01 4.421592401906e+00 0.0 
4.421592401906e+00 -8.202027630048e+01 0.0 
0.0 0.0 -4.098480197203e+01 
-4.216124375646e+01 -1.386975190466e+00 0.0 
-1.386975190466e+00 -1.245465755434e+02 0.0 
0.0 0.0 -4.961234578996e+01 
-1.579148686868e+02 1.567889672049e+01 0.0 
1.567889672049e+01 -3.698013602693e+02 0.0 
0.0 0.0 -1.579148686868e+02 
-6.844421338880e+01 2.605775520633e+01 0.0 
2.605775520633e+01 -1.546661487385e+02 0.0 
0.0 0.0 -6.653310863820e+01 
-7.627637485491e+01 -4.523666525010e-01 0.0 
-4.523666525010e-01 -2.114230433677e+02 0.0 
0.0 0.0 -8.590982546677e+01 
-6.478511773053e+01 2.522305265702e+01 0.0 
2.522305265702e+01 -1.524835065942e+02 0.0 
0.0 0.0 -6.478058729743e+01 
-7.371580300328e+01 7.354381539928e-01 0.0 
7.354381539928e-01 -2.036633838081e+02 0.0 
0.0 0.0 -8.281375604340e+01 
-1.212548503284e+01 -8.360181542352e-01 0.0 
-8.360181542352e-01 -8.919146605969e+00 0.0 
0.0 0.0 -6.887635470891e+00 
-6.520209246733e+01 1.971507900434e+01 0.0 
1.971507900434e+01 -9.567900790456e+01 0.0 
0.0 0.0 -4.786433011156e+01 
-6.128368064725e+01 -1.196499884784e+00 0.0 
-1.196499884784e+00 -1.695874308339e+02 0.0 
0.0 0.0 -6.886133344433e+01 
-5.172817002074e+00 -5.096824710218e-01 0.0 
-5.096824710218e-01 -8.744099293963e+00 0.0 
0.0 0.0 -4.729749677458e+00 
-7.237658460744e+01 -8.990022350070e-01 0.0 
-8.990022350070e-01 -2.006852347129e+02 0.0 
0.0 0.0 -8.151854579610e+01 
-1.038953205712e+02 6.539566956020e+00 0.0 
6.539566956020e+00 -2.809206142337e+02 0.0 
0.0 0.0 -1.150447804415e+02 
-7.560924127001e+01 3.398365503101e+00 0.0 
3.398365503101e+00 -1.546885767475e+02 0.0 
0.0 0.0 -6.868934540526e+01 
-8.050509562572e+01 9.107773924860e+00 0.0 
9.107773924860e+00 -2.317119756649e+02 0.0 
0.0 0.0 -9.326512138719e+01 
-8.297898782993e+01 7.910285238249e+00 0.0 
7.910285238249e+00 -2.407833849327e+02 0.0 
0.0 0.0 -9.672871182879e+01 
-4.987778926055e+01 1.676761359700e+01 0.0 
1.676761359700e+01 -5.197686413000e+01 0.0 
0.0 0.0 -3.015639601717e+01 
-3.247417366707e+01 1.234961573028e+00 0.0 
1.234961573028e+00 -2.827472093251e+01 0.0 
0.0 0.0 -1.782466837988e+01 
-9.567328351493e+01 1.937459441645e+01 0.0 
1.937459441645e+01 -2.107622741794e+02 0.0 
0.0 0.0 -9.153066730831e+01 
-6.130679884800e+01 2.409625128948e+01 0.0 
2.409625128948e+01 -1.503308772311e+02 0.0 
0.0 0.0 -6.309130282372e+01 
-4.022393087701e+00 -3.811391126520e-01 0.0 
-3.811391126520e-01 -7.349801696044e+00 0.0 
0.0 0.0 -3.011658435123e+00 
-2.600882617521e+01 -2.211854144354e+00 0.0 
-2.211854144354e+00 -6.922718736080e+01 0.0 
0.0 0.0 -2.817080406081e+01 
-1.545428914963e+01 -2.023384969274e+00 0.0 
-2.023384969274e+00 -2.514908657785e+01 0.0 
0.0 0.0 -1.217452597564e+01 
-4.231334612302e+01 -2.139656615132e+00 0.0 
-2.139656615132e+00 -1.203153866627e+02 0.0 
0.0 0.0 -4.838861983573e+01 
-1.002868002814e+02 2.918689150901e+01 0.0 
2.918689150901e+01 -2.313808222187e+02 0.0 
0.0 0.0 -9.910028675001e+01 
-7.769333495556e+01 5.278121412909e+00 0.0 
5.278121412909e+00 -1.558975773481e+02 0.0 
0.0 0.0 -6.967727369109e+01 
-1.196870744045e+02 5.484108247241e+00 0.0 
5.484108247241e+00 -3.086974468388e+02 0.0 
0.0 0.0 -1.281153563730e+02 
-4.822100647907e+01 -1.393711454539e+00 0.0 
-1.393711454539e+00 -1.364715194708e+02 0.0 
0.0 0.0 -5.500775778496e+01 
-9.829145775030e+01 2.848946170511e+00 0.0 
2.848946170511e+00 -2.607438882771e+02 0.0 
0.0 0.0 -1.073106038082e+02 
-1.229406639598e+02 1.099329547771e+01 0.0 
1.099329547771e+01 -3.170296606003e+02 0.0 
0.0 0.0 -1.315910973680e+02 
-2.660333852828e+01 1.555236554832e+00 0.0 
1.555236554832e+00 -6.907641756497e+01 0.0 
0.0 0.0 -2.830392682797e+01 
-6.167693185608e+01 5.157557544319e-01 0.0 
5.157557544319e-01 -1.697999364448e+02 0.0 
0.0 0.0 -6.904306049026e+01 
-5.038566229662e+01 -1.061631404158e+00 0.0 
-1.061631404158e+00 -1.398466822094e+02 0.0 
0.0 0.0 -5.666970335180e+01 
-1.549843626615e+02 1.380425627076e+01 0.0 
1.380425627076e+01 -3.711713457137e+02 0.0 
0.0 0.0 -1.574467125126e+02 
-1.589375193398e+02 1.415206500199e+01 0.0 
1.415206500199e+01 -3.721875451263e+02 0.0 
0.0 0.0 -1.589375193398e+02 
-6.880875936138e+01 4.293900251598e-01 0.0 
4.293900251598e-01 -1.884051780212e+02 0.0 
0.0 0.0 -7.676418121478e+01 
-7.770419512035e+01 9.194137069717e-01 0.0 
9.194137069717e-01 -2.123280069302e+02 0.0 
0.0 0.0 -8.660966061518e+01 
-8.225570592476e+01 2.865106500683e+00 0.0 
2.865106500683e+00 -2.341382450643e+02 0.0 
0.0 0.0 -9.451818529672e+01 
-1.274605537925e+02 1.296819166054e+01 0.0 
1.296819166054e+01 -3.250458004216e+02 0.0 
0.0 0.0 -1.353519062642e+02 
-2.784975850173e+01 -3.302762695486e+00 0.0 
-3.302762695486e+00 -7.673722768409e+01 0.0 
0.0 0.0 -3.097609585575e+01 
-1.182274044552e+02 9.260974889409e+00 0.0 
9.260974889409e+00 -3.084528012108e+02 0.0 
0.0 0.0 -1.276040616998e+02 
-1.638922505614e+01 -1.332345650582e+00 0.0 
-1.332345650582e+00 -4.312101545073e+01 0.0 
0.0 0.0 -1.745307215206e+01 
-6.976153947385e+01 3.364811302698e-01 0.0 
3.364811302698e-01 -1.929472620236e+02 0.0 
0.0 0.0 -7.841264044925e+01 
-7.757538441964e+01 1.298014050698e+00 0.0 
1.298014050698e+00 -2.141819122697e+02 0.0 
0.0 0.0 -8.712718900680e+01 
-9.038897822434e+00 -7.119820222823e-01 0.0 
-7.119820222823e-01 -2.555890055925e+01 0.0 
0.0 0.0 -1.035993468428e+01 
-6.533242621571e+01 -9.312208849088e-01 0.0 
-9.312208849088e-01 -1.789965268930e+02 0.0 
0.0 0.0 -7.289868593260e+01 
-8.980101928319e+01 1.745444183043e+01 0.0 
1.745444183043e+01 -1.803850734866e+02 0.0 
0.0 0.0 -8.065582783093e+01 
-3.120833686990e+00 -3.437659964493e-01 0.0 
-3.437659964493e-01 -7.820291620220e+00 0.0 
0.0 0.0 -2.882337592163e+00 
-3.480128673640e+01 2.255861043262e+00 0.0 
2.255861043262e+00 -2.886546099359e+01 0.0 
0.0 0.0 -1.870002431900e+01 
-3.314368226041e+01 3.539119523744e+00 0.0 
3.539119523744e+00 -3.073287190748e+01 0.0 
0.0 0.0 -1.876296625037e+01 
-9.265867599783e+01 1.245452456708e+01 0.0 
1.245452456708e+01 -2.573094367812e+02 0.0 
0.0 0.0 -1.045904338337e+02 
-5.049038946655e+01 4.892934345629e-01 0.0 
4.892934345629e-01 -1.398098332251e+02 0.0 
0.0 0.0 -5.669006680749e+01 
-4.333328781774e+01 -2.035554574547e+00 0.0 
-2.035554574547e+00 -1.323952614973e+02 0.0 
0.0 0.0 -5.231856479451e+01 
-2.704178565960e+01 1.137857349105e+01 0.0 
1.137857349105e+01 -6.373559806238e+01 0.0 
0.0 0.0 -2.683321511659e+01 
-1.349964998674e+02 5.834206918557e+00 0.0 
5.834206918557e+00 -3.359005603882e+02 0.0 
0.0 0.0 -1.408691180767e+02 
-1.223399959594e+02 3.072871070639e+01 0.0 
3.072871070639e+01 -2.894849038164e+02 0.0 
0.0 0.0 -1.231474699327e+02 
-7.680424064529e+01 7.360290155971e+00 0.0 
7.360290155971e+00 -1.440094936650e+02 0.0 
0.0 0.0 -6.584412029309e+01 
-3.133346470854e+01 1.662510889694e+01 0.0 
1.662510889694e+01 -7.131616211679e+01 0.0 
0.0 0.0 -3.039488804760e+01 
-1.928074289825e+01 -3.235142606214e+00 0.0 
-3.235142606214e+00 -4.783510268555e+01 0.0 
0.0 0.0 -1.973475367514e+01 
-4.681302256926e+01 2.458000133343e+01 0.0 
2.458000133343e+01 -8.152232661401e+01 0.0 
0.0 0.0 -3.810060475498e+01 
-2.969200359397e+01 8.288104543705e-02 0.0 
8.288104543705e-02 -2.890857487173e+01 0.0 
0.0 0.0 -1.718017353971e+01 
-2.745668335630e+01 1.626231799208e-01 0.0 
1.626231799208e-01 -2.853655395333e+01 0.0 
0.0 0.0 -1.639797119289e+01 
-4.468343488174e+00 -4.316421247104e-01 0.0 
-4.316421247104e-01 -8.976421450239e+00 0.0 
0.0 0.0 -4.602316932164e+00 
-9.381224900972e+00 -8.650034930486e-01 0.0 
-8.650034930486e-01 -2.540465884468e+01 0.0 
0.0 0.0 -1.045709449365e+01 
-1.414685923201e+01 -3.385449351423e-01 0.0 
-3.385449351423e-01 -4.211346006898e+01 0.0 
0.0 0.0 -1.647809579030e+01 
-3.692377871959e+01 -3.063021531414e+00 0.0 
-3.063021531414e+00 -1.049987233831e+02 0.0 
0.0 0.0 -4.217675063081e+01 
-9.174486294676e+00 -5.553296645070e-01 0.0 
-5.553296645070e-01 -2.593495701363e+01 0.0 
0.0 0.0 -1.013283299249e+01 
-7.265506063664e+01 -8.005956882744e-01 0.0 
-8.005956882744e-01 -1.986296687205e+02 0.0 
0.0 0.0 -8.098541880715e+01 
-1.608218077211e+01 -7.465645421205e-01 0.0 
-7.465645421205e-01 -8.835637172777e+00 0.0 
0.0 0.0 -8.043680748619e+00 
-4.347183044924e+01 -2.816228537895e+00 0.0 
-2.816228537895e+00 -1.246601594866e+02 0.0 
0.0 0.0 -5.003959698076e+01 
-5.402689831620e+01 6.064265001638e-01 0.0 
6.064265001638e-01 -9.533565018016e+01 0.0 
0.0 0.0 -4.440876454891e+01 
-2.904083886891e+01 8.893504917538e-01 0.0 
8.893504917538e-01 -2.865937611904e+01 0.0 
0.0 0.0 -1.691006449638e+01 
-1.037679438249e+02 2.988098946986e+01 0.0 
2.988098946986e+01 -2.347342291831e+02 0.0 
0.0 0.0 -1.011506519024e+02 
-9.977332472924e+01 5.105364905182e+00 0.0 
5.105364905182e+00 -2.716663770750e+02 0.0 
0.0 0.0 -1.110319105413e+02 
-4.683987325925e+01 1.417106190128e-01 0.0 
1.417106190128e-01 -7.756391212900e+01 0.0 
0.0 0.0 -3.692113561647e+01 
-5.391512140839e+01 -8.127564861615e-01 0.0 
-8.127564861615e-01 -1.493151411902e+02 0.0 
0.0 0.0 -6.056907877959e+01 
-1.564097939074e+01 -6.420129526744e-01 0.0 
-6.420129526744e-01 -4.286500034843e+01 0.0 
0.0 0.0 -1.715179392175e+01 
-9.127753201288e+01 9.838726487087e+00 0.0 
9.838726487087e+00 -2.143142413634e+02 0.0 
0.0 0.0 -9.127753201288e+01 
-9.647954912377e+01 1.095010857415e+01 0.0 
1.095010857415e+01 -2.170050307493e+02 0.0 
0.0 0.0 -9.364537396192e+01 
-4.857643006562e+01 1.573481770256e+00 0.0 
1.573481770256e+00 -6.824037833985e+01 0.0 
0.0 0.0 -3.464504252164e+01 
-3.024335661737e+01 2.565729363829e-01 0.0 
2.565729363829e-01 -2.847233035353e+01 0.0 
0.0 0.0 -1.721470609127e+01 
-5.486745952056e+01 -3.836004476226e-02 0.0 
-3.836004476226e-02 -1.514024608559e+02 0.0 
0.0 0.0 -6.148097611295e+01 
-9.491431710116e+01 7.596590294766e+00 0.0 
7.596590294766e+00 -2.147461031422e+02 0.0 
0.0 0.0 -9.249812607301e+01 
-4.145177509264e+01 -1.803148540679e+00 0.0 
-1.803148540679e+00 -1.167905485547e+02 0.0 
0.0 0.0 -4.707269709421e+01 
-3.056739812291e+01 1.855247562284e+00 0.0 
1.855247562284e+00 -2.922208439462e+01 0.0 
0.0 0.0 -1.753684475526e+01 
-3.145445654376e+01 5.997794760361e-01 0.0 
5.997794760361e-01 -2.829441238628e+01 0.0 
0.0 0.0 -1.752466067901e+01 
-4.248215314320e+01 2.101900499169e+01 0.0 
2.101900499169e+01 -6.196898348106e+01 0.0 
0.0 0.0 -3.093534098728e+01 
-9.825407091440e+01 2.194979983884e+01 0.0 
2.194979983884e+01 -2.305928321336e+02 0.0 
0.0 0.0 -9.825407091440e+01 
-9.662029827066e+01 9.097325596617e+00 0.0 
9.097325596617e+00 -2.163382313764e+02 0.0 
0.0 0.0 -9.348755889413e+01 
-9.618328692733e+00 -7.507052533589e-01 0.0 
-7.507052533589e-01 -2.572796674031e+01 0.0 
0.0 0.0 -1.020388862991e+01 
-4.034816480853e+00 -3.133145220002e-01 0.0 
-3.133145220002e-01 -9.090886693901e+00 0.0 
0.0 0.0 -4.514965759723e+00 
-2.196304445476e+01 -3.012478831371e+00 0.0 
-3.012478831371e+00 -5.742646856569e+01 0.0 
0.0 0.0 -2.341685390614e+01 
-7.589376190397e+01 1.101854531578e-03 0.0 
1.101854531578e-03 -2.131925453801e+02 0.0 
0.0 0.0 -8.632589218524e+01 
-1.452777777128e+02 -1.317671495220e-01 0.0 
-1.317671495220e-01 -3.523061808763e+02 0.0 
0.0 0.0 -1.488751875767e+02 
-2.038076794084e+01 -5.355494349787e-01 0.0 
-5.355494349787e-01 -7.138239944052e+00 0.0 
0.0 0.0 -7.855702365467e+00 
-6.937008472117e+01 1.501311738688e+00 0.0 
1.501311738688e+00 -1.385535873527e+02 0.0 
0.0 0.0 -6.197710162216e+01 
-1.486191722829e+01 -8.683964971073e-01 0.0 
-8.683964971073e-01 -8.987524538039e+00 0.0 
0.0 0.0 -7.735782570635e+00 
-9.172285134082e+01 9.217110850021e+00 0.0 
9.217110850021e+00 -2.590410070327e+02 0.0 
0.0 0.0 -1.048291575120e+02 
-1.659432730882e+01 -8.875247082977e-01 0.0 
-8.875247082977e-01 -8.248119064305e+00 0.0 
0.0 0.0 -7.052733911939e+00 
-1.852391492588e+01 -7.921709932857e-01 0.0 
-7.921709932857e-01 -8.137135812464e+00 0.0 
0.0 0.0 -7.598315221503e+00 
-8.795685679103e+01 7.467355785595e+00 0.0 
7.467355785595e+00 -2.508506609227e+02 0.0 
0.0 0.0 -1.012422553141e+02 
-1.396288613039e+02 2.058506154292e+00 0.0 
2.058506154292e+00 -3.422868297302e+02 0.0 
0.0 0.0 -1.441747073102e+02 
-5.414538304083e+01 1.061176772957e+00 0.0 
1.061176772957e+00 -9.432935784552e+01 0.0 
0.0 0.0 -4.414242226590e+01 
-5.031869562727e+01 2.490963916217e+01 0.0 
2.490963916217e+01 -9.944007164233e+01 0.0 
0.0 0.0 -4.452763018088e+01 
-8.691789568823e+00 -4.218925936371e-01 0.0 
-4.218925936371e-01 -2.555138316372e+01 0.0 
0.0 0.0 -1.025544594426e+01 
-1.026148799958e+02 2.754669909035e+00 0.0 
2.754669909035e+00 -2.693118379093e+02 0.0 
0.0 0.0 -1.111780153715e+02 
-8.971867731277e+01 2.994240892059e+00 0.0 
2.994240892059e+00 -2.106769137298e+02 0.0 
0.0 0.0 -8.971867731277e+01 
-9.358537909571e+01 4.013918277836e+00 0.0 
4.013918277836e+00 -2.130582435528e+02 0.0 
0.0 0.0 -9.159308679456e+01 
-2.818979293861e+01 3.466535396285e-01 0.0 
3.466535396285e-01 -2.841820816968e+01 0.0 
0.0 0.0 -1.658240033249e+01 
-9.561837479794e+01 1.105460171029e+01 0.0 
1.105460171029e+01 -2.668711022122e+02 0.0 
0.0 0.0 -1.083468431030e+02 
-9.098910519675e+01 7.972508178587e+00 0.0 
7.972508178587e+00 -2.136412454591e+02 0.0 
0.0 0.0 -9.098910519675e+01 
-9.535927523633e+01 2.375008824582e+01 0.0 
2.375008824582e+01 -2.471132295506e+02 0.0 
0.0 0.0 -1.023417514361e+02 
-1.484446102885e+01 -5.968342220959e-01 0.0 
-5.968342220959e-01 -4.168211321393e+01 0.0 
0.0 0.0 -1.655797227283e+01 
-8.783993509314e+00 -3.626826084257e-01 0.0 
-3.626826084257e-01 -2.571378449265e+01 0.0 
0.0 0.0 -9.949333400590e+00 
-8.222809446074e+00 -1.523755214443e-01 0.0 
-1.523755214443e-01 -2.513880618046e+01 0.0 
0.0 0.0 -9.849752201989e+00 
-6.147832349229e+01 -7.717339131006e-01 0.0 
-7.717339131006e-01 -1.691149213443e+02 0.0 
0.0 0.0 -6.877797345099e+01 
-1.605397473036e+02 3.434635360197e+00 0.0 
3.434635360197e+00 -3.810911289466e+02 0.0 
0.0 0.0 -1.620892628751e+02 
-8.576721295327e+01 1.121961451600e+00 0.0 
1.121961451600e+00 -1.900773887118e+02 0.0 
0.0 0.0 -8.235338049953e+01 
-3.075972608708e+00 -8.387011121859e-02 0.0 
-8.387011121859e-02 -9.067049856539e+00 0.0 
0.0 0.0 -4.211584851245e+00 
-7.305521253850e+01 6.504075657170e-01 0.0 
6.504075657170e-01 -1.988041517308e+02 0.0 
0.0 0.0 -8.115780928078e+01 
-1.637949157910e+02 2.374897126218e+00 0.0 
2.374897126218e+00 -3.835214701789e+02 0.0 
0.0 0.0 -1.637949157910e+02 
-1.597170571897e+02 3.697088847801e+00 0.0 
3.697088847801e+00 -3.801803793172e+02 0.0 
0.0 0.0 -1.615692309521e+02 
-1.557333901565e+02 1.241681821263e+01 0.0 
1.241681821263e+01 -3.728365224909e+02 0.0 
0.0 0.0 -1.581709737942e+02 
-6.214474954677e+01 -5.042910833222e-01 0.0 
-5.042910833222e-01 -1.185956688675e+02 0.0 
0.0 0.0 -5.382212552429e+01 
-7.293261433561e+01 9.691785139775e-01 0.0 
9.691785139775e-01 -1.490233388581e+02 0.0 
0.0 0.0 -6.618678595810e+01 
-1.628912900117e+02 3.265286057227e+00 0.0 
3.265286057227e+00 -3.814130100273e+02 0.0 
0.0 0.0 -1.628912900117e+02 
-1.630283228530e+02 4.312550031009e+00 0.0 
4.312550031009e+00 -3.817327533236e+02 0.0 
0.0 0.0 -1.630283228530e+02 
-6.932450168029e+01 -2.075486208380e-01 0.0 
-2.075486208380e-01 -1.386201807477e+02 0.0 
0.0 0.0 -6.198340472839e+01 
-1.475421331495e+00 -3.600521405529e-01 0.0 
-3.600521405529e-01 -6.806928322542e+00 0.0 
0.0 0.0 -2.084704896211e+00 
-2.697220179465e+01 -6.650810918157e-02 0.0 
-6.650810918157e-02 -2.772510695187e+01 0.0 
0.0 0.0 -1.600919262395e+01 
-2.772837764873e+01 -9.835757370835e-03 0.0 
-9.835757370835e-03 -2.851364301221e+01 0.0 
0.0 0.0 -1.647260619828e+01 
-3.518274589809e+00 -1.959863611470e-01 0.0 
-1.959863611470e-01 -9.063019720524e+00 0.0 
0.0 0.0 -4.350540035451e+00 
-1.623580022824e+02 7.523042401369e+00 0.0 
7.523042401369e+00 -3.801686719923e+02 0.0 
0.0 0.0 -1.623580022824e+02 
-1.561869876376e+02 1.084339685106e+01 0.0 
1.084339685106e+01 -3.740952815774e+02 0.0 
0.0 0.0 -1.586846807645e+02 
-1.607619373737e+02 9.909206871684e+00 0.0 
9.909206871684e+00 -3.764445205386e+02 0.0 
0.0 0.0 -1.607619373737e+02 
-1.906921339160e+00 -1.360314536360e-01 0.0 
-1.360314536360e-01 -7.950164139600e+00 0.0 
0.0 0.0 -2.557125643628e+00 
-2.389724683718e+00 -2.968943927500e-01 0.0 
-2.968943927500e-01 -8.055107850243e+00 0.0 
0.0 0.0 -2.733449760188e+00 
-1.596346048279e+02 1.269953418574e+01 0.0 
1.269953418574e+01 -3.738140779317e+02 0.0 
0.0 0.0 -1.596346048279e+02 
-1.603345741912e+02 1.134844861137e+01 0.0 
1.134844861137e+01 -3.754473397794e+02 0.0 
0.0 0.0 -1.603345741912e+02 
-5.835538498157e+01 9.723867399615e-01 0.0 
9.723867399615e-01 -1.085800955938e+02 0.0 
0.0 0.0 -4.968064417262e+01 
-2.661504092566e+01 -1.315754863155e-01 0.0 
-1.315754863155e-01 -2.739988136467e+01 0.0 
0.0 0.0 -1.580447668710e+01 
-6.598615636668e+01 9.884848239968e-01 0.0 
9.884848239968e-01 -1.287299086996e+02 0.0 
0.0 0.0 -5.801481951988e+01 
-4.314554401678e+01 8.845312573931e-01 0.0 
8.845312573931e-01 -6.888359545512e+01 0.0 
0.0 0.0 -3.320874184157e+01 
-2.701016672874e+01 -7.207130181435e-02 0.0 
-7.207130181435e-02 -2.756418792621e+01 0.0 
0.0 0.0 -1.597230639648e+01 
-5.216129769016e+00 -5.781697442621e-01 0.0 
-5.781697442621e-01 -7.665796181856e+00 0.0 
0.0 0.0 -3.464577785261e+00 
-7.965422254809e+00 -4.329956066298e-01 0.0 
-4.329956066298e-01 -8.321336246228e+00 0.0 
0.0 0.0 -4.486027550311e+00 
-9.292619980077e+00 -5.962794783444e-01 0.0 
-5.962794783444e-01 -7.922735707985e+00 0.0 
0.0 0.0 -4.764606706419e+00 
-1.092956014606e+01 -6.793705878278e-01 0.0 
-6.793705878278e-01 -8.044248349171e+00 0.0 
0.0 0.0 -5.292142548571e+00 
-7.699455917584e+01 -8.989633268460e-01 0.0 
-8.989633268460e-01 -2.088341966822e+02 0.0 
0.0 0.0 -8.534862675742e+01 
-6.915524188504e+01 -7.920340314272e-01 0.0 
-7.920340314272e-01 -1.889059615610e+02 0.0 
0.0 0.0 -7.701836103382e+01 
-8.105442704253e+00 -6.338051392196e-01 0.0 
-6.338051392196e-01 -8.976092089970e+00 0.0 
0.0 0.0 -5.701487909202e+00 
-1.021537549816e+02 -7.971036216013e-01 0.0 
-7.971036216013e-01 -2.664871857892e+02 0.0 
0.0 0.0 -1.101922822312e+02 
-9.604365048852e+00 -7.579600707313e-01 0.0 
-7.579600707313e-01 -8.945620812320e+00 0.0 
0.0 0.0 -6.136834931124e+00 
-9.466401730919e+01 1.742768288515e+01 0.0 
1.742768288515e+01 -2.222160403881e+02 0.0 
0.0 0.0 -9.466401730919e+01 
-9.039234159189e+01 6.561720298513e+00 0.0 
6.561720298513e+00 -2.122487970477e+02 0.0 
0.0 0.0 -9.039234159189e+01 
-9.177938226170e+01 1.157602417535e+01 0.0 
1.157602417535e+01 -2.154852252773e+02 0.0 
0.0 0.0 -9.177938226170e+01 
-2.471586983735e+01 -9.812527201192e-01 0.0 
-9.812527201192e-01 -6.912115268368e+01 0.0 
0.0 0.0 -2.775110675631e+01 
-4.663270488978e+01 -8.352082660946e-01 0.0 
-8.352082660946e-01 -1.294000695761e+02 0.0 
0.0 0.0 -5.240983233976e+01 
-8.995801686557e+01 5.196838634111e+00 0.0 
5.196838634111e+00 -2.112353726863e+02 0.0 
0.0 0.0 -8.995801686557e+01 
-1.304845064480e+02 -6.542244641026e-01 0.0 
-6.542244641026e-01 -3.244107852169e+02 0.0 
0.0 0.0 -1.360685874995e+02 
-9.075484489206e+01 4.148480033603e+00 0.0 
4.148480033603e+00 -2.130946380815e+02 0.0 
0.0 0.0 -9.075484489206e+01 
-1.404852952303e+02 -6.935558784377e-01 0.0 
-6.935558784377e-01 -3.434466637809e+02 0.0 
0.0 0.0 -1.447795877033e+02 
-1.508430187632e+02 -7.548161152771e-01 0.0 
-7.548161152771e-01 -3.623611313258e+02 0.0 
0.0 0.0 -1.535612450267e+02 
-6.530820796713e+01 6.479282235646e-01 0.0 
6.479282235646e-01 -1.789869873770e+02 0.0 
0.0 0.0 -7.288855860323e+01 
-9.437446236019e+01 6.103640053740e+00 0.0 
6.103640053740e+00 -2.135231329392e+02 0.0 
0.0 0.0 -9.196927858981e+01 
-9.349163474195e+01 4.331968270445e+00 0.0 
4.331968270445e+00 -2.133244980491e+02 0.0 
0.0 0.0 -9.164483983731e+01 
-1.351854889186e+02 1.369576818753e+00 0.0 
1.369576818753e+00 -3.330351365520e+02 0.0 
0.0 0.0 -1.400661876412e+02 
-1.455344790449e+02 1.448965089048e+00 0.0 
1.448965089048e+00 -3.525438935642e+02 0.0 
0.0 0.0 -1.490235117827e+02 
-1.112688553144e+02 2.341619923610e+00 0.0 
2.341619923610e+00 -2.863235673433e+02 0.0 
0.0 0.0 -1.188777267973e+02 
-1.350972465848e+01 -8.969856643186e-01 0.0 
-8.969856643186e-01 -8.889190582792e+00 0.0 
0.0 0.0 -7.296150755260e+00 
-6.565381347534e+01 1.056714061715e-01 0.0 
1.056714061715e-01 -1.820574219110e+02 0.0 
0.0 0.0 -7.391337061591e+01 
-1.005147845438e+01 -7.750992820751e-01 0.0 
-7.750992820751e-01 -2.543563715372e+01 0.0 
0.0 0.0 -1.024613468243e+01 
-1.359736128675e+02 7.078639259325e+00 0.0 
7.078639259325e+00 -3.364973515099e+02 0.0 
0.0 0.0 -1.413412893132e+02 
-6.847966665341e+01 -1.040124891737e+00 0.0 
-1.040124891737e+00 -1.921053876750e+02 0.0 
0.0 0.0 -7.777551629853e+01 
-1.249751427403e+02 2.180633231977e+00 0.0 
2.180633231977e+00 -3.150692724299e+02 0.0 
0.0 0.0 -1.316133245511e+02 
-3.482292565563e+01 -2.035629502880e+00 0.0 
-2.035629502880e+00 -9.705499479644e+01 0.0 
0.0 0.0 -3.916337613562e+01 
-1.582301452359e+01 -1.877423596377e+00 0.0 
-1.877423596377e+00 -4.159357562239e+01 0.0 
0.0 0.0 -1.682497704379e+01 
-1.353300951379e+02 3.923119359439e+00 0.0 
3.923119359439e+00 -3.341947081633e+02 0.0 
0.0 0.0 -1.404574409904e+02 
-7.373686466830e+01 5.664586272027e-01 0.0 
5.664586272027e-01 -2.015981137280e+02 0.0 
0.0 0.0 -8.220049351889e+01 
-5.737042234414e+01 -1.028240562081e+00 0.0 
-1.028240562081e+00 -1.592793945237e+02 0.0 
0.0 0.0 -6.459494506036e+01 
-1.256288535579e+02 3.520461121327e+00 0.0 
3.520461121327e+00 -3.156507285100e+02 0.0 
0.0 0.0 -1.319838746204e+02 
-7.846317463556e+01 1.278028413760e+00 0.0 
1.278028413760e+00 -1.670709750701e+02 0.0 
0.0 0.0 -7.326024491170e+01 
-5.778496131538e+01 5.876874529068e-01 0.0 
5.876874529068e-01 -1.594133440927e+02 0.0 
0.0 0.0 -6.475949162243e+01 
-1.102328238955e+02 9.246401787069e+00 0.0 
9.246401787069e+00 -2.909721108315e+02 0.0 
0.0 0.0 -1.199614804181e+02 
-9.646464941135e+01 2.545167966221e+00 0.0 
2.545167966221e+00 -2.612730671531e+02 0.0 
0.0 0.0 -1.069213149693e+02 
-1.105112895902e+02 9.648752811042e-01 0.0 
9.648752811042e-01 -2.856986002359e+02 0.0 
0.0 0.0 -1.184629669478e+02 
-1.150413933153e+02 7.207953381092e-01 0.0 
7.207953381092e-01 -2.944554808996e+02 0.0 
0.0 0.0 -1.224490622645e+02 
-4.442212958598e+01 7.265290095978e+00 0.0 
7.265290095978e+00 -1.450067727437e+02 0.0 
0.0 0.0 -5.642867069890e+01 
-4.387106156052e+01 2.406381104087e+01 0.0 
2.406381104087e+01 -8.065777378482e+01 0.0 
0.0 0.0 -3.695865060360e+01 
-5.562755775432e+01 1.851217317945e+01 0.0 
1.851217317945e+01 -1.574160229719e+02 0.0 
0.0 0.0 -6.351307421787e+01 
-1.014571556203e+02 1.395032891679e+00 0.0 
1.395032891679e+00 -2.685212052529e+02 0.0 
0.0 0.0 -1.105935082620e+02 
-1.301869631031e+02 3.116990524030e+00 0.0 
3.116990524030e+00 -3.242193298661e+02 0.0 
0.0 0.0 -1.359218878908e+02 
-1.195941865700e+02 3.216726314616e-01 0.0 
3.216726314616e-01 -3.033032064680e+02 0.0 
0.0 0.0 -1.264692179114e+02 
-3.484034541487e+01 -3.462574022489e+00 0.0 
-3.462574022489e+00 -1.003082970187e+02 0.0 
0.0 0.0 -4.014459273008e+01 
-7.905470475689e+01 2.833719270770e+00 0.0 
2.833719270770e+00 -1.661252072552e+02 0.0 
0.0 0.0 -7.315397360363e+01 
-7.213405940566e+01 2.184604470758e+00 0.0 
2.184604470758e+00 -1.453650281746e+02 0.0 
0.0 0.0 -6.484972627409e+01 
-3.819602705228e+01 -5.665418773962e-01 0.0 
-5.665418773962e-01 -5.406189626946e+01 0.0 
0.0 0.0 -2.727737699652e+01 
-1.059317623604e+02 2.224229254676e+00 0.0 
2.224229254676e+00 -2.788615879613e+02 0.0 
0.0 0.0 -1.150380050965e+02 
-1.059991033082e+02 1.211425731183e+00 0.0 
1.211425731183e+00 -2.771532832825e+02 0.0 
0.0 0.0 -1.145457159772e+02 
-7.980013100994e+01 3.208710014477e+00 0.0 
3.208710014477e+00 -1.684061788490e+02 0.0 
0.0 0.0 -7.406189295769e+01 
-7.558585325032e+01 1.942083853497e+00 0.0 
1.942083853497e+00 -1.564627522748e+02 0.0 
0.0 0.0 -6.921458165753e+01 
-9.360499734076e+01 3.870318071147e+00 0.0 
3.870318071147e+00 -2.534057484961e+02 0.0 
0.0 0.0 -1.037032237510e+02 
-1.400516944042e+02 3.365190602011e+00 0.0 
3.365190602011e+00 -3.426353181807e+02 0.0 
0.0 0.0 -1.444061037755e+02 
-7.375209358384e+01 5.286340052943e+00 0.0 
5.286340052943e+00 -1.423605829027e+02 0.0 
0.0 0.0 -6.443380294596e+01 
-1.200166728848e+02 1.643012853296e+00 0.0 
1.643012853296e+00 -3.034824957869e+02 0.0 
0.0 0.0 -1.266497506015e+02 
-1.414869149978e+02 6.682498946053e+00 0.0 
6.682498946053e+00 -3.461268589971e+02 0.0 
0.0 0.0 -1.458841321984e+02 
-8.049456044273e+01 4.903349998344e+00 0.0 
4.903349998344e+00 -1.672252922318e+02 0.0 
0.0 0.0 -7.391595580237e+01 
-6.385599138739e+01 3.473901035231e+00 0.0 
3.473901035231e+00 -1.151356604112e+02 0.0 
0.0 0.0 -5.329749553957e+01 
-1.059752791901e+02 7.680734345080e+00 0.0 
7.680734345080e+00 -2.820495176282e+02 0.0 
0.0 0.0 -1.160074390455e+02 
-3.565260687715e+01 -2.070129081768e+00 0.0 
-2.070129081768e+00 -9.999350265647e+01 0.0 
0.0 0.0 -4.029383286009e+01 
-3.241004253433e+01 -3.478618716447e+00 0.0 
-3.478618716447e+00 -9.240987530033e+01 0.0 
0.0 0.0 -3.704597535040e+01 
-1.920886878389e+01 -1.747498302989e+00 0.0 
-1.747498302989e+00 -4.809455998520e+01 0.0 
0.0 0.0 -1.979102863073e+01 
-1.927640451401e+01 -2.075290608982e+00 0.0 
-2.075290608982e+00 -2.566168098648e+01 0.0 
0.0 0.0 -1.308142565015e+01 
-7.688954633772e+01 3.727781962798e+00 0.0 
3.727781962798e+00 -1.572673545851e+02 0.0 
0.0 0.0 -6.984707027686e+01 
-1.344615924251e+02 1.203853684746e+00 0.0 
1.203853684746e+00 -3.321752614780e+02 0.0 
0.0 0.0 -1.395910561709e+02 
-1.778908088665e+01 -2.058142052429e+00 0.0 
-2.058142052429e+00 -2.532473675615e+01 0.0 
0.0 0.0 -1.253414529284e+01 
-9.730724701030e+01 2.626576774077e+01 0.0 
2.626576774077e+01 -1.986706138645e+02 0.0 
0.0 0.0 -8.839335826245e+01 
-4.263695110032e+01 -1.887164426904e-01 0.0 
-1.887164426904e-01 -6.301247574089e+01 0.0 
0.0 0.0 -3.129482805236e+01 
-1.211131740343e+02 3.918258735018e+00 0.0 
3.918258735018e+00 -3.071727248996e+02 0.0 
0.0 0.0 -1.280857696802e+02 
-1.245270442578e+02 9.743403856053e-01 0.0 
9.743403856053e-01 -3.132795996173e+02 0.0 
0.0 0.0 -1.309419931625e+02 
-4.658144034361e+01 -2.002242725085e+00 0.0 
-2.002242725085e+00 -1.408611246117e+02 0.0 
0.0 0.0 -5.583276948660e+01 
-1.249402721334e+02 2.365971851031e+00 0.0 
2.365971851031e+00 -3.137414571255e+02 0.0 
0.0 0.0 -1.312045187777e+02 
-3.907346701734e+01 1.545144995553e+00 0.0 
1.545144995553e+00 -5.437087174468e+01 0.0 
0.0 0.0 -2.763330162861e+01 
-9.492076779807e+01 1.701789764219e+01 0.0 
1.701789764219e+01 -2.590465300268e+02 0.0 
0.0 0.0 -1.057901893475e+02 
-1.462331874817e+02 4.551394175183e+00 0.0 
4.551394175183e+00 -3.547420972778e+02 0.0 
0.0 0.0 -1.498925854279e+02 
-3.442940014080e+01 -1.253101242230e+00 0.0 
-1.253101242230e+00 -9.660962021465e+01 0.0 
0.0 0.0 -3.891170610663e+01 
-1.409988157398e+02 8.293928035574e+00 0.0 
8.293928035574e+00 -3.461638983783e+02 0.0 
0.0 0.0 -1.457488142354e+02 
-6.708983722956e+01 3.270396341535e+00 0.0 
3.270396341535e+00 -1.261407546388e+02 0.0 
0.0 0.0 -5.756917756050e+01 
-3.874981543878e+01 -1.784995227546e+00 0.0 
-1.784995227546e+00 -1.085832941943e+02 0.0 
0.0 0.0 -4.379993288991e+01 
-3.948058518039e+01 -2.303422045138e+00 0.0 
-2.303422045138e+00 -1.124118576969e+02 0.0 
0.0 0.0 -4.516773286318e+01 
-8.424720963176e+01 -5.577399098347e-01 0.0 
-5.577399098347e-01 -2.267929439647e+02 0.0 
0.0 0.0 -9.291204607893e+01 
-5.490883111255e+01 1.406659303471e+00 0.0 
1.406659303471e+00 -9.225033504624e+01 0.0 
0.0 0.0 -4.374774984763e+01 
-5.373595665159e+01 -2.080852663997e+00 0.0 
-2.080852663997e+00 -1.529367552860e+02 0.0 
0.0 0.0 -6.160181358127e+01 
-7.023725873783e+01 3.123530388731e+00 0.0 
3.123530388731e+00 -1.370451411199e+02 0.0 
0.0 0.0 -6.178471995733e+01 
-5.952402561951e+01 2.693804411936e+00 0.0 
2.693804411936e+00 -1.054139677193e+02 0.0 
0.0 0.0 -4.908139800164e+01 
-8.038415945268e+01 -3.137642314814e-01 0.0 
-3.137642314814e-01 -2.201383371764e+02 0.0 
0.0 0.0 -8.975674898874e+01 
-1.154520701858e+02 2.032382516472e+00 0.0 
2.032382516472e+00 -2.947645814741e+02 0.0 
0.0 0.0 -1.226649954980e+02 
-1.205427664975e+02 2.764862530141e+00 0.0 
2.764862530141e+00 -3.053208019200e+02 0.0 
0.0 0.0 -1.273590705252e+02 
-6.513322926035e+01 1.412585485468e+00 0.0 
1.412585485468e+00 -1.249322334399e+02 0.0 
0.0 0.0 -5.661963881008e+01 
-3.028345998154e+01 -1.251046527048e+00 0.0 
-1.251046527048e+00 -8.367216313285e+01 0.0 
0.0 0.0 -3.378668693432e+01 
-7.636964824805e+01 -6.777823214870e-01 0.0 
-6.777823214870e-01 -2.094816033129e+02 0.0 
0.0 0.0 -8.535537546828e+01 
-1.104908185988e+02 2.150188241722e+01 0.0 
2.150188241722e+01 -2.874893172709e+02 0.0 
0.0 0.0 -1.189940407609e+02 
-7.109426662285e+01 4.355226225969e+00 0.0 
4.355226225969e+00 -1.354938912994e+02 0.0 
0.0 0.0 -6.157644737667e+01 
-6.838766244810e+01 -1.224270825386e+00 0.0 
-1.224270825386e+00 -1.896654977000e+02 0.0 
0.0 0.0 -7.701594804443e+01 
-9.816530003692e+01 3.806360379291e+00 0.0 
3.806360379291e+00 -2.622827244003e+02 0.0 
0.0 0.0 -1.077344073312e+02 
-1.361268450723e+02 8.968873682992e+00 0.0 
8.968873682992e+00 -3.374458857370e+02 0.0 
0.0 0.0 -1.416718192428e+02 
-6.205311363018e+01 1.640795536763e+00 0.0 
1.640795536763e+00 -1.140621928672e+02 0.0 
0.0 0.0 -5.243459194922e+01 
-2.234466193083e+01 -1.237649019985e-01 0.0 
-1.237649019985e-01 -4.300079412939e+01 0.0 
0.0 0.0 -1.920363681806e+01 
-1.804417767382e+01 -1.281942663898e+00 0.0 
-1.281942663898e+00 -4.676710487862e+01 0.0 
0.0 0.0 -1.904338476573e+01 
-3.005613635763e+01 2.224792286447e+00 0.0 
2.224792286447e+00 -8.645478410423e+01 0.0 
0.0 0.0 -3.455327613856e+01 
-1.296814649440e+02 1.714664945467e+00 0.0 
1.714664945467e+00 -3.237018044768e+02 0.0 
0.0 0.0 -1.356149808262e+02 
-5.844730361675e+01 1.589489472183e+00 0.0 
1.589489472183e+00 -1.031204272315e+02 0.0 
0.0 0.0 -4.807031925447e+01 
-9.326784205197e+01 1.212656111741e+00 0.0 
1.212656111741e+00 -2.464999730968e+02 0.0 
0.0 0.0 -1.015303445446e+02 
-4.694550074556e+01 4.645727272212e-01 0.0 
4.645727272212e-01 -7.244865813854e+01 0.0 
0.0 0.0 -3.541824766523e+01 
-1.247701877863e+02 1.217012283364e+01 0.0 
1.217012283364e+01 -3.180499813110e+02 0.0 
0.0 0.0 -1.324460507292e+02 
-8.446207828863e+01 -2.429625981822e-01 0.0 
-2.429625981822e-01 -2.287937560014e+02 0.0 
0.0 0.0 -9.357675028702e+01 
-1.199746457215e+02 1.376335439872e+00 0.0 
1.376335439872e+00 -3.047754724248e+02 0.0 
0.0 0.0 -1.270250354439e+02 
-3.624415566287e+01 -5.991280065927e-01 0.0 
-5.991280065927e-01 -1.005849382737e+02 0.0 
0.0 0.0 -4.064872818096e+01 
-1.405293740521e+02 5.181295541096e+00 0.0 
5.181295541096e+00 -3.458059248227e+02 0.0 
0.0 0.0 -1.455005896624e+02 
-8.157133504312e+01 1.081606047056e+00 0.0 
1.081606047056e+00 -2.209559439911e+02 0.0 
0.0 0.0 -9.035818371027e+01 
-3.927864324962e+01 -1.943721871118e-01 0.0 
-1.943721871118e-01 -1.091615514058e+02 0.0 
0.0 0.0 -4.413205839662e+01 
-7.737944069768e+01 8.124079000450e-01 0.0 
8.124079000450e-01 -2.102577163026e+02 0.0 
0.0 0.0 -8.589114710010e+01 
-5.729778198992e+01 -1.757765573944e+00 0.0 
-1.757765573944e+00 -1.616039882871e+02 0.0 
0.0 0.0 -6.527053108311e+01 
-4.459344611416e+01 -1.450871886607e+00 0.0 
-1.450871886607e+00 -1.254407187220e+02 0.0 
0.0 0.0 -5.061024945084e+01 
-9.253535303426e+01 -2.784403202844e-01 0.0 
-2.784403202844e-01 -2.457780062275e+02 0.0 
0.0 0.0 -1.010940077785e+02 
-6.331778662439e+00 -5.958838269349e-01 0.0 
-5.958838269349e-01 -9.229806495503e+00 0.0 
0.0 0.0 -5.264144774106e+00 
-7.751388292949e+00 -6.370910791550e-01 0.0 
-6.370910791550e-01 -9.509076625720e+00 0.0 
0.0 0.0 -5.788147209606e+00 
-1.069314010929e+02 2.589447281265e+00 0.0 
2.589447281265e+00 -2.778514484976e+02 0.0 
0.0 0.0 -1.150348548771e+02 
-3.337490739419e+01 -9.989640363799e-01 0.0 
-9.989640363799e-01 -9.231837597237e+01 0.0 
0.0 0.0 -3.730798500997e+01 
-1.072117065842e+02 3.559951666537e+00 0.0 
3.559951666537e+00 -2.796978121030e+02 0.0 
0.0 0.0 -1.156728556062e+02 
-1.027052514449e+02 3.702280345032e+00 0.0 
3.702280345032e+00 -2.710519241820e+02 0.0 
0.0 0.0 -1.117271526881e+02 
-6.071537399194e+01 -1.484588744411e+00 0.0 
-1.484588744411e+00 -1.745230858185e+02 0.0 
0.0 0.0 -7.017153794313e+01 
-3.768254218353e+01 -2.716176703589e+00 0.0 
-2.716176703589e+00 -1.134482407495e+02 0.0 
0.0 0.0 -4.493923487990e+01 
-7.916201292745e+01 7.108974069535e+00 0.0 
7.108974069535e+00 -1.548233359686e+02 0.0 
0.0 0.0 -6.979560466882e+01 
-2.052966753712e+01 4.866373619958e+00 0.0 
4.866373619958e+00 -4.174161541300e+01 0.0 
0.0 0.0 -1.828138488503e+01 
-6.088829058261e+01 -1.427988502381e+00 0.0 
-1.427988502381e+00 -1.704628396804e+02 0.0 
0.0 0.0 -6.900533907892e+01 
-1.293509952975e+02 1.394944128329e+01 0.0 
1.394944128329e+01 -3.257240853918e+02 0.0 
0.0 0.0 -1.361225242068e+02 
-2.857548586131e+01 -2.097676350969e+00 0.0 
-2.097676350969e+00 -7.962903728211e+01 0.0 
0.0 0.0 -3.206135694303e+01 
-5.249500551107e+01 2.467322805887e+00 0.0 
2.467322805887e+00 -8.424790951712e+01 0.0 
0.0 0.0 -4.062287450846e+01 
-4.399051836049e+01 1.762298533220e+00 0.0 
1.762298533220e+00 -6.396105839158e+01 0.0 
0.0 0.0 -3.198547302562e+01 
-2.843735561509e+01 -2.071942619401e+00 0.0 
-2.071942619401e+00 -7.728316650084e+01 0.0 
0.0 0.0 -3.131615663478e+01 
-1.307826200074e+02 9.495996274155e+00 0.0 
9.495996274155e+00 -3.282990816782e+02 0.0 
0.0 0.0 -1.373245105057e+02 
-6.982770764217e+01 5.962283258450e+00 0.0 
5.962283258450e+00 -1.234448337580e+02 0.0 
0.0 0.0 -5.758176242004e+01 
-3.272063509332e+01 -2.307989384587e+00 0.0 
-2.307989384587e+00 -9.166585575734e+01 0.0 
0.0 0.0 -3.691594725520e+01 
-8.303224527882e+01 8.677774264077e+00 0.0 
8.677774264077e+00 -1.645172048547e+02 0.0 
0.0 0.0 -7.386483504007e+01 
-7.977808771666e+01 6.809592073304e+00 0.0 
6.809592073304e+00 -1.627211789304e+02 0.0 
0.0 0.0 -7.234977999413e+01 
-3.705117843263e+01 -1.119410013359e+00 0.0 
-1.119410013359e+00 -1.030831210717e+02 0.0 
0.0 0.0 -4.164028985130e+01 
-3.306842588353e+01 1.848292089134e+01 0.0 
1.848292089134e+01 -7.291546508506e+01 0.0 
0.0 0.0 -3.139516729058e+01 
-3.780701016037e+01 -1.718661744666e+00 0.0 
-1.718661744666e+00 -1.056733070852e+02 0.0 
0.0 0.0 -4.264409517369e+01 
-1.161886734511e+02 3.085243837525e+00 0.0 
3.085243837525e+00 -2.968356676434e+02 0.0 
0.0 0.0 -1.235073023283e+02 
-8.851561916359e+01 -2.367866298763e-01 0.0 
-2.367866298763e-01 -2.373925857000e+02 0.0 
0.0 0.0 -9.737246145908e+01 
-9.214893351559e+01 2.074432168256e+01 0.0 
2.074432168256e+01 -1.874677852703e+02 0.0 
0.0 0.0 -8.348501563577e+01 
-7.640438500898e+01 5.041627271695e+00 0.0 
5.041627271695e+00 -1.533020471955e+02 0.0 
0.0 0.0 -6.851192966135e+01 
-1.117061640713e+02 3.350166470490e+00 0.0 
3.350166470490e+00 -2.882974988212e+02 0.0 
0.0 0.0 -1.196010988677e+02 
-1.106454401593e+02 1.997472826089e+00 0.0 
1.997472826089e+00 -2.875514029568e+02 0.0 
0.0 0.0 -1.190590529348e+02 
-3.058731246789e+01 -3.137891617560e+00 0.0 
-3.137891617560e+00 -8.535194498271e+01 0.0 
0.0 0.0 -3.438177723518e+01 
-1.153318014909e+02 1.708521651646e+00 0.0 
1.708521651646e+00 -2.961707488880e+02 0.0 
0.0 0.0 -1.230507651137e+02 
-6.684775527427e+01 3.842076976184e+00 0.0 
3.842076976184e+00 -1.218218196811e+02 0.0 
0.0 0.0 -5.620087248661e+01 
-8.933859533285e+01 1.167081510009e+00 0.0 
1.167081510009e+00 -2.380527289842e+02 0.0 
0.0 0.0 -9.781739729512e+01 
-6.059835814179e+01 3.457873838471e+00 0.0 
3.457873838471e+00 -1.043473913314e+02 0.0 
0.0 0.0 -4.908372484196e+01 
-7.252019360191e+01 5.843841953254e+00 0.0 
5.843841953254e+00 -1.342022028545e+02 0.0 
0.0 0.0 -6.161671893691e+01 
-6.005201503011e+01 1.131071611239e+01 0.0 
1.131071611239e+01 -1.863229766881e+02 0.0 
0.0 0.0 -7.351249751547e+01 
-7.265835320411e+01 3.658447859142e+00 0.0 
3.658447859142e+00 -1.436530597538e+02 0.0 
0.0 0.0 -6.449342388739e+01 
-7.258241419069e+01 -9.907550233343e-01 0.0 
-9.907550233343e-01 -1.996143552378e+02 0.0 
0.0 0.0 -8.125903082855e+01 
-8.539963678238e+01 1.181800979987e+00 0.0 
1.181800979987e+00 -2.295116914440e+02 0.0 
0.0 0.0 -9.407339846791e+01 
-5.365734276541e+01 -1.980881212635e+00 0.0 
-1.980881212635e+00 -1.509443443234e+02 0.0 
0.0 0.0 -6.098050612663e+01 
-5.515704212437e+01 -8.132746869778e-01 0.0 
-8.132746869778e-01 -1.582430935118e+02 0.0 
0.0 0.0 -6.362004069084e+01 
-6.260048462255e+01 2.574033649966e+00 0.0 
2.574033649966e+00 -1.123425248318e+02 0.0 
0.0 0.0 -5.208290283630e+01 
-7.643938392680e+01 2.778085636891e+00 0.0 
2.778085636891e+00 -2.165094347752e+02 0.0 
0.0 0.0 -8.748464561060e+01 
-4.089437583561e+01 -1.352256471115e+00 0.0 
-1.352256471115e+00 -1.143214830555e+02 0.0 
0.0 0.0 -4.616475766735e+01 
-2.208190733086e+01 -1.973355347879e+00 0.0 
-1.973355347879e+00 -5.766346930851e+01 0.0 
0.0 0.0 -2.352361299181e+01 
-6.521536685070e+01 4.566358544988e+00 0.0 
4.566358544988e+00 -1.137885675917e+02 0.0 
0.0 0.0 -5.330118033273e+01 
-3.997400858862e+01 -2.770958842050e+00 0.0 
-2.770958842050e+00 -1.136167654611e+02 0.0 
0.0 0.0 -4.567723221493e+01 
-1.404761205687e+02 7.056411766153e+00 0.0 
7.056411766153e+00 -3.457636303441e+02 0.0 
0.0 0.0 -1.454719252738e+02 
-6.583877959400e+01 2.595549514617e+00 0.0 
2.595549514617e+00 -1.232634269314e+02 0.0 
0.0 0.0 -5.633066195764e+01 
-1.201970253910e+02 2.570748072790e+00 0.0 
2.570748072790e+00 -3.064915424504e+02 0.0 
0.0 0.0 -1.276065703524e+02 
-1.441399162233e+02 1.831114834557e+01 0.0 
1.831114834557e+01 -3.469060008730e+02 0.0 
0.0 0.0 -1.469137751289e+02 
-6.950022450287e+01 4.357359489678e-01 0.0 
4.357359489678e-01 -1.906317205462e+02 0.0 
0.0 0.0 -7.763958351473e+01 
-3.634045402218e+01 -2.622073015219e+00 0.0 
-2.622073015219e+00 -1.024498224762e+02 0.0 
0.0 0.0 -4.123708294952e+01 
-2.432519105394e+01 -3.059396600514e+00 0.0 
-3.059396600514e+00 -6.548873963659e+01 0.0 
0.0 0.0 -2.654417920716e+01 
-1.118210940710e+02 4.499584482657e+00 0.0 
4.499584482657e+00 -2.898930180507e+02 0.0 
0.0 0.0 -1.201142336365e+02 
-5.446678823114e+01 8.000205470568e-01 0.0 
8.000205470568e-01 -9.412186103643e+01 0.0 
0.0 0.0 -4.417659478027e+01 
-1.850029794862e+01 -2.592416930023e+00 0.0 
-2.592416930023e+00 -4.649698473652e+01 0.0 
0.0 0.0 -1.909918480554e+01 
-5.505570514995e+01 -6.826898336048e-01 0.0 
-6.826898336048e-01 -1.538035313679e+02 0.0 
0.0 0.0 -6.225777095536e+01 
-3.253027521946e+01 -3.295381309814e-01 0.0 
-3.295381309814e-01 -8.969194698134e+01 0.0 
0.0 0.0 -3.626666666024e+01 
-5.729153837015e+01 3.333211979649e+00 0.0 
3.333211979649e+00 -9.358400787874e+01 0.0 
0.0 0.0 -4.486266387467e+01 
-5.868676978891e+01 -2.905462883502e-01 0.0 
-2.905462883502e-01 -1.625141526726e+02 0.0 
0.0 0.0 -6.596027673844e+01 
-1.012103656703e+02 2.408917422594e+00 0.0 
2.408917422594e+00 -2.701254608421e+02 0.0 
0.0 0.0 -1.110007479537e+02 
-5.428931894751e+01 -3.234555377456e-01 0.0 
-3.234555377456e-01 -1.514611146061e+02 0.0 
0.0 0.0 -6.132513006608e+01 
-7.398332729600e+01 4.145222866512e+00 0.0 
4.145222866512e+00 -1.465171143269e+02 0.0 
0.0 0.0 -6.575013248686e+01 
-4.676353681648e+01 -2.502505325812e+00 0.0 
-2.502505325812e+00 -1.333450044671e+02 0.0 
0.0 0.0 -5.363256238508e+01 
-1.115927535698e+02 5.835322658989e+00 0.0 
5.835322658989e+00 -2.909706044731e+02 0.0 
0.0 0.0 -1.203690074129e+02 
-3.360866319978e+01 -2.601837305866e+00 0.0 
-2.601837305866e+00 -9.311426585470e+01 0.0 
0.0 0.0 -3.761687871634e+01 
-1.071224767027e+02 4.705783586283e+00 0.0 
4.705783586283e+00 -2.811107055497e+02 0.0 
0.0 0.0 -1.160699546757e+02 
-8.125120525283e+01 7.646189795424e-01 0.0 
7.646189795424e-01 -2.192689515231e+02 0.0 
0.0 0.0 -8.975604703279e+01 
-1.153383355974e+02 2.904483807789e+00 0.0 
2.904483807789e+00 -2.978009960979e+02 0.0 
0.0 0.0 -1.235417995086e+02 
-4.349247637996e+01 2.615506629724e+00 0.0 
2.615506629724e+00 -1.411819400326e+02 0.0 
0.0 0.0 -5.500232492376e+01 
-3.168034374530e+01 -1.855396227982e+00 0.0 
-1.855396227982e+00 -8.878485795186e+01 0.0 
0.0 0.0 -3.573956050915e+01 
-4.812207503058e+01 1.812456241161e+00 0.0 
1.812456241161e+00 -7.504569949584e+01 0.0 
0.0 0.0 -3.655033235793e+01 
-9.407701259062e+01 1.013258159911e+01 0.0 
1.013258159911e+01 -2.602341555580e+02 0.0 
0.0 0.0 -1.058933504446e+02 
-4.758197896814e+01 2.003330485401e+01 0.0 
2.003330485401e+01 -1.274500738442e+02 0.0 
0.0 0.0 -5.210961584371e+01 
-5.609258727802e+01 2.627171948042e+00 0.0 
2.627171948042e+00 -9.490363922995e+01 0.0 
0.0 0.0 -4.489886795239e+01 
-3.653987937278e+01 -2.416824734197e+00 0.0 
-2.416824734197e+00 -1.037845713650e+02 0.0 
0.0 0.0 -4.169733522134e+01 
-6.087265654367e+01 3.724149448330e+00 0.0 
3.724149448330e+00 -1.005428226695e+02 0.0 
0.0 0.0 -4.802464376396e+01 
-2.892402274161e+01 -5.757631969417e-01 0.0 
-5.757631969417e-01 -8.060159667315e+01 0.0 
0.0 0.0 -3.245768582443e+01 
-1.310562627492e+02 7.626305220799e+00 0.0 
7.626305220799e+00 -3.281369337836e+02 0.0 
0.0 0.0 -1.373579589599e+02 
-9.792723911414e+01 1.199399408520e+01 0.0 
1.199399408520e+01 -2.680517011339e+02 0.0 
0.0 0.0 -1.093936820744e+02 
-9.885236383433e+01 1.905510475333e+01 0.0 
1.905510475333e+01 -2.649078984226e+02 0.0 
0.0 0.0 -1.087280786771e+02 
-8.516593031064e+01 8.334276722429e+00 0.0 
8.334276722429e+00 -1.759254236110e+02 0.0 
0.0 0.0 -7.792740617649e+01 
-8.446786323618e+01 3.936993006242e+00 0.0 
3.936993006242e+00 -2.353070397053e+02 0.0 
0.0 0.0 -9.553247088244e+01 
-2.974369318490e+01 -2.656209487378e+00 0.0 
-2.656209487378e+00 -8.300608268687e+01 0.0 
0.0 0.0 -3.342493276153e+01 
-9.766729803753e+01 4.993960023107e+00 0.0 
4.993960023107e+00 -2.632136349473e+02 0.0 
0.0 0.0 -1.078642798954e+02 
-1.348923077254e+02 7.683134911532e+00 0.0 
7.683134911532e+00 -3.366376660802e+02 0.0 
0.0 0.0 -1.410589921417e+02 
-4.534740715776e+01 -1.336190597137e+00 0.0 
-1.336190597137e+00 -1.333958071259e+02 0.0 
0.0 0.0 -5.322296428509e+01 
-1.164899269267e+02 4.244645862763e+00 0.0 
4.244645862763e+00 -2.985816035521e+02 0.0 
0.0 0.0 -1.241214591436e+02 
-6.816404117282e+01 4.527433388354e+00 0.0 
4.527433388354e+00 -1.245765493108e+02 0.0 
0.0 0.0 -5.742217714509e+01 
-3.482222995367e+01 -2.577149950515e+00 0.0 
-2.577149950515e+00 -1.047108690036e+02 0.0 
0.0 0.0 -4.145992968719e+01 
-1.024043570801e+02 4.865265822022e+00 0.0 
4.865265822022e+00 -2.722222902511e+02 0.0 
0.0 0.0 -1.119879941993e+02 
-5.006972152732e+01 3.098741312769e+00 0.0 
3.098741312769e+00 -7.206916547447e+01 0.0 
0.0 0.0 -3.624166610054e+01 
-4.334038199788e+01 -4.870829135618e-01 0.0 
-4.870829135618e-01 -1.204523937835e+02 0.0 
0.0 0.0 -4.873783273443e+01 
-5.158531427867e+01 -1.042284453202e+00 0.0 
-1.042284453202e+00 -1.451348915957e+02 0.0 
0.0 0.0 -5.861606176231e+01 
-6.181216750502e+01 2.200961098889e+01 0.0 
2.200961098889e+01 -1.635031454348e+02 0.0 
0.0 0.0 -6.719459388193e+01 
-1.104472249215e+02 3.188453356265e+00 0.0 
3.188453356265e+00 -2.890219185770e+02 0.0 
0.0 0.0 -1.194407430496e+02 
-4.207355895595e+01 2.187788507653e+01 0.0 
2.187788507653e+01 -9.587832110900e+01 0.0 
0.0 0.0 -4.098556401948e+01 
-5.862730755970e+01 2.033872555294e+01 0.0 
2.033872555294e+01 -1.606280075964e+02 0.0 
0.0 0.0 -6.537659454683e+01 
-6.390479033076e+01 3.795553821779e+00 0.0 
3.795553821779e+00 -1.111271511083e+02 0.0 
0.0 0.0 -5.210958243173e+01 
-5.065170034996e+01 6.065393551315e-01 0.0 
6.065393551315e-01 -8.315408976386e+01 0.0 
0.0 0.0 -3.974173703415e+01 
-5.259159231801e+01 2.039969897227e+00 0.0 
2.039969897227e+00 -8.015243922279e+01 0.0 
0.0 0.0 -3.942320946224e+01 
-8.044770671772e+01 -4.823858457099e-01 0.0 
-4.823858457099e-01 -2.185410767871e+02 0.0 
0.0 0.0 -8.929663505146e+01 
-1.254666688512e+02 9.984403267826e+00 0.0 
9.984403267826e+00 -3.189890394078e+02 0.0 
0.0 0.0 -1.329367124777e+02 
-9.291779523127e+01 5.108382015621e+00 0.0 
5.108382015621e+00 -2.540679870472e+02 0.0 
0.0 0.0 -1.036957346835e+02 
-4.869326086594e+01 2.264103869369e+00 0.0 
2.264103869369e+00 -7.348742530528e+01 0.0 
0.0 0.0 -3.625420585137e+01 
-1.022367744762e+02 2.859698392088e+01 0.0 
2.859698392088e+01 -2.162679500844e+02 0.0 
0.0 0.0 -9.515141736818e+01 
-1.029021061251e+02 2.109140687565e+01 0.0 
2.109140687565e+01 -2.703516464256e+02 0.0 
0.0 0.0 -1.115761257652e+02 
-1.055424921274e+02 3.422015991316e+00 0.0 
3.422015991316e+00 -2.801581197620e+02 0.0 
0.0 0.0 -1.153101835668e+02 
-6.977393493419e+01 3.810862351272e+00 0.0 
3.810862351272e+00 -1.326927424423e+02 0.0 
0.0 0.0 -6.034000321295e+01 
-5.869034841754e+01 -4.911949585397e-01 0.0 
-4.911949585397e-01 -1.667795261078e+02 0.0 
0.0 0.0 -6.724096235761e+01 
-5.517390184977e+01 -8.451901806572e-01 0.0 
-8.451901806572e-01 -1.560291987347e+02 0.0 
0.0 0.0 -6.296093017534e+01 
-3.101181121359e+01 -1.790006791064e+00 0.0 
-1.790006791064e+00 -8.582873242484e+01 0.0 
0.0 0.0 -3.465216309153e+01 
-1.017837054001e+02 6.265738409388e+00 0.0 
6.265738409388e+00 -2.727703395549e+02 0.0 
0.0 0.0 -1.119662134865e+02 
-5.872278554354e+01 -5.080579821559e-01 0.0 
-5.080579821559e-01 -1.647287892574e+02 0.0 
0.0 0.0 -6.663547244028e+01 
-6.216645349069e+01 4.563344705200e+00 0.0 
4.563344705200e+00 -1.030134865717e+02 0.0 
0.0 0.0 -4.915398201871e+01 
-5.901912736975e+01 4.538498807949e+00 0.0 
4.538498807949e+00 -9.236417269724e+01 0.0 
0.0 0.0 -4.501499002010e+01 
-6.649346017413e+01 1.077160637521e+01 0.0 
1.077160637521e+01 -1.989108577411e+02 0.0 
0.0 0.0 -7.922129537458e+01 
-4.683839476960e+01 -2.662578657205e+00 0.0 
-2.662578657205e+00 -1.356235552255e+02 0.0 
0.0 0.0 -5.433858499853e+01 
-3.893822791859e+01 6.389906908875e+00 0.0 
6.389906908875e+00 -1.275953308221e+02 0.0 
0.0 0.0 -4.956006762219e+01 
-5.023766801598e+01 -2.384231908586e+00 0.0 
-2.384231908586e+00 -1.442661682600e+02 0.0 
0.0 0.0 -5.795115088280e+01 
-5.363122680430e+01 -2.123214354301e+00 0.0 
-2.123214354301e+00 -1.550932404694e+02 0.0 
0.0 0.0 -6.221734018210e+01 
-3.339113732941e+01 -2.914430147077e+00 0.0 
-2.914430147077e+00 -9.392725378329e+01 0.0 
0.0 0.0 -3.779551733381e+01 
-1.200860648163e+02 1.048761212103e+01 0.0 
1.048761212103e+01 -3.094963497223e+02 0.0 
0.0 0.0 -1.284747243616e+02 
-6.341123159579e+01 -2.713178279754e-01 0.0 
-2.713178279754e-01 -1.866017389786e+02 0.0 
0.0 0.0 -7.460389117232e+01 
-7.513009830118e+01 5.619741320927e+00 0.0 
5.619741320927e+00 -1.450352093127e+02 0.0 
0.0 0.0 -6.564959228417e+01 
-6.659244128654e+01 7.052686710169e-01 0.0 
7.052686710169e-01 -1.965673683932e+02 0.0 
0.0 0.0 -7.854794290391e+01 
-9.570504700044e+01 3.809419342393e+00 0.0 
3.809419342393e+00 -2.621232235967e+02 0.0 
0.0 0.0 -1.069484811791e+02 
-7.868165079085e+01 1.707573653828e+00 0.0 
1.707573653828e+00 -2.244126249278e+02 0.0 
0.0 0.0 -9.052828271561e+01 
-5.949351771548e+01 1.751667620205e+01 0.0 
1.751667620205e+01 -1.713414963782e+02 0.0 
0.0 0.0 -6.885050422811e+01 
-3.407805924241e+01 -1.531063034123e+00 0.0 
-1.531063034123e+00 -9.454517567192e+01 0.0 
0.0 0.0 -3.818697047430e+01 
-1.293160006780e+02 8.242831050427e+00 0.0 
8.242831050427e+00 -3.273488270771e+02 0.0 
0.0 0.0 -1.365994483265e+02 
-1.361417828041e+02 1.117734665242e+01 0.0 
1.117734665242e+01 -3.382554375656e+02 0.0 
0.0 0.0 -1.419191661109e+02 
-7.992745743058e+01 2.385748131549e+01 0.0 
2.385748131549e+01 -2.021398000901e+02 0.0 
0.0 0.0 -8.422017725622e+01 
-5.692789493317e+01 -1.711877946405e+00 0.0 
-1.711877946405e+00 -1.657629654324e+02 0.0 
0.0 0.0 -6.640725810968e+01 
-8.697032466209e+01 2.756299136637e+00 0.0 
2.756299136637e+00 -2.432924465895e+02 0.0 
0.0 0.0 -9.867883137548e+01 
-5.934313032412e+01 2.430537190993e+00 0.0 
2.430537190993e+00 -1.014574906709e+02 0.0 
0.0 0.0 -4.784018629852e+01 
-6.236217544733e+01 -1.965027103899e-01 0.0 
-1.965027103899e-01 -1.755036563131e+02 0.0 
0.0 0.0 -7.095974952813e+01 
-4.582384855467e+01 1.878747709000e+01 0.0 
1.878747709000e+01 -1.254549423180e+02 0.0 
0.0 0.0 -5.098363726182e+01 
-4.779867890340e+01 -1.079540209680e+00 0.0 
-1.079540209680e+00 -1.340982101544e+02 0.0 
0.0 0.0 -5.416906671733e+01 
-3.946565566727e+01 -2.049435999162e+00 0.0 
-2.049435999162e+00 -1.143510441197e+02 0.0 
0.0 0.0 -4.574500993610e+01 
-6.212806130404e+01 3.155255167882e-02 0.0 
3.155255167882e-02 -1.773545989982e+02 0.0 
0.0 0.0 -7.144479809067e+01 
-4.313002776699e+01 -2.430845468360e+00 0.0 
-2.430845468360e+00 -1.222535319843e+02 0.0 
0.0 0.0 -4.921506792538e+01 
-4.017241165760e+01 -8.046655863654e-01 0.0 
-8.046655863654e-01 -1.117718061466e+02 0.0 
0.0 0.0 -4.518326534126e+01 
-8.080340879493e+01 2.824203148666e+00 0.0 
2.824203148666e+00 -2.255568898409e+02 0.0 
0.0 0.0 -9.150808959075e+01 
-1.006263946166e+02 3.624019219159e+00 0.0 
3.624019219159e+00 -2.711963355127e+02 0.0 
0.0 0.0 -1.111468190388e+02 
-9.983125639490e+01 2.690159965344e+01 0.0 
2.690159965344e+01 -2.424473220584e+02 0.0 
0.0 0.0 -1.022835735360e+02 
-6.690424221109e+00 -7.274924827084e-01 0.0 
-7.274924827084e-01 -9.110516073107e+00 0.0 
0.0 0.0 -4.340282088265e+00 
-6.119323687961e+01 2.240572931044e+00 0.0 
2.240572931044e+00 -1.875559719239e+02 0.0 
0.0 0.0 -7.422476264106e+01 
-6.242520756981e+01 7.714506657239e-01 0.0 
7.714506657239e-01 -1.875304312335e+02 0.0 
0.0 0.0 -7.458669164098e+01 
-6.016941542273e+01 -1.089656439064e+00 0.0 
-1.089656439064e+00 -1.762918008541e+02 0.0 
0.0 0.0 -7.053836488305e+01 
-5.603076093789e+01 2.257815624451e+00 0.0 
2.257815624451e+00 -9.071736251072e+01 0.0 
0.0 0.0 -4.362443703458e+01 
-7.082810863565e+01 6.844264587036e-01 0.0 
6.844264587036e-01 -2.054980385077e+02 0.0 
0.0 0.0 -8.249784414300e+01 
-5.014832309664e+01 -2.205712793581e+00 0.0 
-2.205712793581e+00 -1.420535620911e+02 0.0 
0.0 0.0 -5.726056555633e+01 
-6.551292306212e+01 7.465979478036e-01 0.0 
7.465979478036e-01 -1.877158020573e+02 0.0 
0.0 0.0 -7.556861753582e+01 
-6.887704570115e+01 2.487814664817e+00 0.0 
2.487814664817e+00 -1.342398789815e+02 0.0 
0.0 0.0 -6.053507740480e+01 
-5.099004520398e+01 -7.122300865400e-01 0.0 
-7.122300865400e-01 -1.427420463250e+02 0.0 
0.0 0.0 -5.771962745869e+01 
-2.067120242705e+01 -2.525742323507e+00 0.0 
-2.525742323507e+00 -5.461525521290e+01 0.0 
0.0 0.0 -2.218593729199e+01 
-2.702232489307e+01 -2.814820321008e+00 0.0 
-2.814820321008e+00 -7.446691172339e+01 0.0 
0.0 0.0 -3.004677098494e+01 
-4.071123753389e+01 -2.724631686296e+00 0.0 
-2.724631686296e+00 -1.221181384573e+02 0.0 
0.0 0.0 -4.844881279737e+01 
-5.011757807289e+01 -2.355074687477e+00 0.0 
-2.355074687477e+00 -1.465068901141e+02 0.0 
0.0 0.0 -5.858734045608e+01 
-6.542780735974e+01 1.999128465064e+00 0.0 
1.999128465064e+00 -1.969193291115e+02 0.0 
0.0 0.0 -7.830414094137e+01 
-6.883520228388e+01 1.655279597212e+00 0.0 
1.655279597212e+00 -1.977393418110e+02 0.0 
0.0 0.0 -7.957236322846e+01 
-3.074342409327e+01 -2.615460911477e+00 0.0 
-2.615460911477e+00 -8.403797344237e+01 0.0 
0.0 0.0 -3.403441926069e+01 
-2.695926344346e+01 -1.437072997466e+00 0.0 
-1.437072997466e+00 -7.472995523633e+01 0.0 
0.0 0.0 -3.010676560394e+01 
-5.795993422612e+01 6.549229084136e+00 0.0 
6.549229084136e+00 -8.090233790377e+01 0.0 
0.0 0.0 -4.125868163897e+01 
-4.403017360119e+01 -9.486641513477e-01 0.0 
-9.486641513477e-01 -1.229584612675e+02 0.0 
0.0 0.0 -4.969659046061e+01 
-1.136278194382e+02 7.689282000132e+00 0.0 
7.689282000132e+00 -2.995113518987e+02 0.0 
0.0 0.0 -1.235417514011e+02 
-9.631667973722e+01 2.571436065702e+01 0.0 
2.571436065702e+01 -2.392280079929e+02 0.0 
0.0 0.0 -1.002634063190e+02 
-6.893902897648e+01 2.238217666818e+01 0.0 
2.238217666818e+01 -1.120191713707e+02 0.0 
0.0 0.0 -5.388746010414e+01 
-7.962128149697e+01 9.324158380833e+00 0.0 
9.324158380833e+00 -1.529192720139e+02 0.0 
0.0 0.0 -6.936216605327e+01 
-1.032285598046e+02 2.778687715712e+01 0.0 
2.778687715712e+01 -2.457298725302e+02 0.0 
0.0 0.0 -1.042875297005e+02 
-6.208106781651e+01 1.153380751374e+01 0.0 
1.153380751374e+01 -1.872311053841e+02 0.0 
0.0 0.0 -7.439365196017e+01 
-8.798149683310e+01 2.468716384501e+01 0.0 
2.468716384501e+01 -2.206146480743e+02 0.0 
0.0 0.0 -9.217884347221e+01 
-3.392295339856e+01 -2.584446508556e+00 0.0 
-2.584446508556e+00 -9.515207008176e+01 0.0 
0.0 0.0 -3.832250704410e+01 
-6.946734734584e+01 9.327147152583e-01 0.0 
9.327147152583e-01 -1.965002215397e+02 0.0 
0.0 0.0 -7.939027066567e+01 
-5.220432358085e+01 1.339351203712e+01 0.0 
1.339351203712e+01 -1.620330571358e+02 0.0 
0.0 0.0 -6.387121421500e+01 
-3.427278347173e+01 -1.093996655727e+00 0.0 
-1.093996655727e+00 -1.060497292682e+02 0.0 
0.0 0.0 -4.169675382199e+01 
-2.881914634542e+01 -2.807144256661e+00 0.0 
-2.807144256661e+00 -7.596407711787e+01 0.0 
0.0 0.0 -3.103496703899e+01 
-5.726735045158e+01 -1.859884364204e+00 0.0 
-1.859884364204e+00 -1.638161697426e+02 0.0 
0.0 0.0 -6.592505605824e+01 
-6.473347150059e+01 1.596685214709e+00 0.0 
1.596685214709e+00 -1.887095395479e+02 0.0 
0.0 0.0 -7.563290331454e+01 
-6.783888879777e+01 2.780169177084e+00 0.0 
2.780169177084e+00 -1.981190834181e+02 0.0 
0.0 0.0 -7.938739166475e+01 
-4.634845313004e+01 -2.057682263220e+00 0.0 
-2.057682263220e+00 -1.309038742077e+02 0.0 
0.0 0.0 -5.277569820133e+01 
-7.417987727631e+01 1.760319927824e+00 0.0 
1.760319927824e+00 -2.153290242146e+02 0.0 
0.0 0.0 -8.645267044728e+01 
-6.362522360323e+01 2.869285416600e+00 0.0 
2.869285416600e+00 -1.887391956945e+02 0.0 
0.0 0.0 -7.530932578933e+01 
-6.406642853775e+01 3.740725480081e+00 0.0 
3.740725480081e+00 -1.962817088936e+02 0.0 
0.0 0.0 -7.770444122941e+01 
-5.174914456041e+01 -1.187272238250e+00 0.0 
-1.187272238250e+00 -1.474473471968e+02 0.0 
0.0 0.0 -5.935894752717e+01 
-9.647661087981e+01 1.444441189290e+01 0.0 
1.444441189290e+01 -2.643571038577e+02 0.0 
0.0 0.0 -1.078501144213e+02 
-6.708837233561e+01 6.077584029381e+00 0.0 
6.077584029381e+00 -1.128598810835e+02 0.0 
0.0 0.0 -5.358447602573e+01 
-5.981478543664e+01 4.169730386860e+00 0.0 
4.169730386860e+00 -1.865093372033e+02 0.0 
0.0 0.0 -7.349723679197e+01 
-1.238161511567e+02 8.794438735287e+00 0.0 
8.794438735287e+00 -3.180313210643e+02 0.0 
0.0 0.0 -1.321542416663e+02 
-3.660194098144e+01 -2.104897745256e+00 0.0 
-2.104897745256e+00 -1.055668196953e+02 0.0 
0.0 0.0 -4.225062820304e+01 
-1.337360305206e+02 1.233698375345e+01 0.0 
1.233698375345e+01 -3.358080603558e+02 0.0 
0.0 0.0 -1.404632272629e+02 
-6.975338637286e+01 1.840446313852e+00 0.0 
1.840446313852e+00 -2.061273550856e+02 0.0 
0.0 0.0 -8.236422243755e+01 
-1.065518184215e+02 2.897106888786e+01 0.0 
2.897106888786e+01 -2.505026502560e+02 0.0 
0.0 0.0 -1.067163406033e+02 
-7.224076263713e+01 2.656676710603e+01 0.0 
2.656676710603e+01 -1.569963484045e+02 0.0 
0.0 0.0 -6.837113331248e+01 
-3.512366113162e+01 -3.249444935988e+00 0.0 
-3.249444935988e+00 -1.030014966033e+02 0.0 
0.0 0.0 -4.103754732049e+01 
-7.253072051671e+01 2.431811126150e+01 0.0 
2.431811126150e+01 -1.288038760393e+02 0.0 
0.0 0.0 -6.000037896679e+01 
-8.612652641554e+01 1.468785022429e+01 0.0 
1.468785022429e+01 -1.675439487597e+02 0.0 
0.0 0.0 -7.570114255258e+01 
-7.296593542920e+01 3.165688200737e+00 0.0 
3.165688200737e+00 -2.153944313998e+02 0.0 
0.0 0.0 -8.610811004870e+01 
-4.063070281337e+01 1.478859845573e+01 0.0 
1.478859845573e+01 -1.178095982524e+02 0.0 
0.0 0.0 -4.713209031974e+01 
-7.616787418295e+01 2.567531309956e+01 0.0 
2.567531309956e+01 -1.457757357973e+02 0.0 
0.0 0.0 -6.618308299408e+01 
-5.405909942142e+01 2.062393539256e+01 0.0 
2.062393539256e+01 -1.451861909235e+02 0.0 
0.0 0.0 -5.937358710347e+01 
-2.981831934968e+01 -3.567458437208e+00 0.0 
-3.567458437208e+00 -8.342402698824e+01 0.0 
0.0 0.0 -3.357270390138e+01 
-9.099091312070e+01 1.271643082152e+01 0.0 
1.271643082152e+01 -1.960329340492e+02 0.0 
0.0 0.0 -8.570715415096e+01 
-2.707705578923e+01 -3.569365698556e+00 0.0 
-3.569365698556e+00 -7.297598884231e+01 0.0 
0.0 0.0 -2.961591338946e+01 
-1.246586025820e+02 2.176490876345e+01 0.0 
2.176490876345e+01 -3.133684601476e+02 0.0 
0.0 0.0 -1.310081188189e+02 
-7.892512152371e+01 4.704684376059e+00 0.0 
4.704684376059e+00 -1.640637010704e+02 0.0 
0.0 0.0 -7.249664677823e+01 
-1.018989898613e+02 1.393963225529e+01 0.0 
1.393963225529e+01 -2.754797841008e+02 0.0 
0.0 0.0 -1.128136321886e+02 
-5.127196994834e+01 1.105515892738e+00 0.0 
1.105515892738e+00 -8.123393005963e+01 0.0 
0.0 0.0 -3.935177000239e+01 
-7.898536890745e+01 9.633956819578e+00 0.0 
9.633956819578e+00 -1.440115906731e+02 0.0 
0.0 0.0 -6.649908787416e+01 
-6.655159122866e+01 4.318687416965e+00 0.0 
4.318687416965e+00 -1.974678829575e+02 0.0 
0.0 0.0 -7.880584225586e+01 
-7.420390852609e+01 1.213038458938e+01 0.0 
1.213038458938e+01 -2.167880788346e+02 0.0 
0.0 0.0 -8.689759620819e+01 
-8.568597618609e+01 1.102177172200e+01 0.0 
1.102177172200e+01 -1.741439649167e+02 0.0 
0.0 0.0 -7.754898233082e+01 
-1.099547187332e+02 4.573276695393e+00 0.0 
4.573276695393e+00 -2.899952377046e+02 0.0 
0.0 0.0 -1.195849869314e+02 
-7.205365977777e+01 7.898670728287e+00 0.0 
7.898670728287e+00 -1.231166219250e+02 0.0 
0.0 0.0 -5.815108451084e+01 
-9.698469721263e+01 8.773701195479e+00 0.0 
8.773701195479e+00 -2.693431995416e+02 0.0 
0.0 0.0 -1.094983690263e+02 
-3.242903592815e+01 -3.203436448071e+00 0.0 
-3.203436448071e+00 -9.437987896424e+01 0.0 
0.0 0.0 -3.764267446772e+01 
-7.691272391481e+01 1.004298764648e+01 0.0 
1.004298764648e+01 -1.338127967490e+02 0.0 
0.0 0.0 -6.281765619914e+01 
-1.221986408511e+02 3.214949400964e+01 0.0 
3.214949400964e+01 -2.926685084108e+02 0.0 
0.0 0.0 -1.240601447786e+02 
-1.348776504012e+02 9.789742064943e+00 0.0 
9.789742064943e+00 -3.372841076073e+02 0.0 
0.0 0.0 -1.412485274026e+02 
-6.747680588421e+01 -2.083042947488e-01 0.0 
-2.083042947488e-01 -1.954074920474e+02 0.0 
0.0 0.0 -7.846528937948e+01 
-5.369899747362e+01 3.280091368164e+00 0.0 
3.280091368164e+00 -8.255913189604e+01 0.0 
0.0 0.0 -4.047743881090e+01 
-4.750037844286e+01 8.496114060890e-01 0.0 
8.496114060890e-01 -7.060621208152e+01 0.0 
0.0 0.0 -3.503197715731e+01 
-7.208928669322e+01 2.764225551729e+00 0.0 
2.764225551729e+00 -2.073203075761e+02 0.0 
0.0 0.0 -8.342287828081e+01 
-1.048662274102e+02 4.844631498222e+00 0.0 
4.844631498222e+00 -2.808954286511e+02 0.0 
0.0 0.0 -1.153284968184e+02 
-1.092045846992e+02 6.196310138772e+00 0.0 
6.196310138772e+00 -2.903461238268e+02 0.0 
0.0 0.0 -1.194652125578e+02 
-2.454412792866e+01 -1.616268219091e+00 0.0 
-1.616268219091e+00 -6.590628758515e+01 0.0 
0.0 0.0 -2.673512465414e+01 
-3.406362608999e+01 5.632590800679e+00 0.0 
5.632590800679e+00 -1.102763233381e+02 0.0 
0.0 0.0 -4.290198482844e+01 
-6.267470620078e+01 5.907580399048e+00 0.0 
5.907580399048e+00 -1.945299024882e+02 0.0 
0.0 0.0 -7.676138260670e+01 
-6.227812022073e+01 4.614899912594e+00 0.0 
4.614899912594e+00 -1.876578640510e+02 0.0 
0.0 0.0 -7.458079528152e+01 
-5.450633953190e+01 1.817779555639e+01 0.0 
1.817779555639e+01 -1.568697586529e+02 0.0 
0.0 0.0 -6.301282945544e+01 
-9.068296468932e+01 1.266188652916e+01 0.0 
1.266188652916e+01 -1.856151798930e+02 0.0 
0.0 0.0 -8.248944337470e+01 
-9.451087731163e+01 2.379946869235e+01 0.0 
2.379946869235e+01 -1.970711159942e+02 0.0 
0.0 0.0 -8.707459799175e+01 
-8.130299914542e+01 6.606519769400e+00 0.0 
6.606519769400e+00 -1.652925440836e+02 0.0 
0.0 0.0 -7.357866296870e+01 
-4.448733920856e+01 2.313020387710e+01 0.0 
2.313020387710e+01 -9.709310039354e+01 0.0 
0.0 0.0 -4.207413188063e+01 
-8.008664107852e+01 1.273797229481e+01 0.0 
1.273797229481e+01 -1.458843035125e+02 0.0 
0.0 0.0 -6.739128337729e+01 
-1.066982910236e+02 6.062554984408e+00 0.0 
6.062554984408e+00 -2.819370796960e+02 0.0 
0.0 0.0 -1.161906112159e+02 
-8.384428406845e+01 8.399124768195e+00 0.0 
8.399124768195e+00 -1.736366418902e+02 0.0 
0.0 0.0 -7.684427778758e+01 
-7.468191326302e+01 1.051025409047e+01 0.0 
1.051025409047e+01 -1.237734184760e+02 0.0 
0.0 0.0 -5.913659952172e+01 
-7.295837915034e+01 1.766806242383e+00 0.0 
1.766806242383e+00 -2.066408784321e+02 0.0 
0.0 0.0 -8.347977727473e+01 
-5.843218559843e+01 6.549687999750e+00 0.0 
6.549687999750e+00 -1.841591980118e+02 0.0 
0.0 0.0 -7.237741508307e+01 
-7.304478991400e+01 7.453349299087e+00 0.0 
7.453349299087e+00 -1.317340341799e+02 0.0 
0.0 0.0 -6.103364722818e+01 
-8.519637986465e+01 1.128963511128e+01 0.0 
1.128963511128e+01 -1.650564776673e+02 0.0 
0.0 0.0 -7.467585725958e+01 
-7.115171193280e+01 5.366587674717e+00 0.0 
5.366587674717e+00 -1.317356102258e+02 0.0 
0.0 0.0 -6.046619664758e+01 
-6.847422750135e+01 5.463282741087e+00 0.0 
5.463282741087e+00 -1.211870722415e+02 0.0 
0.0 0.0 -5.649838992286e+01 
-1.244663604969e+02 6.799876155010e+00 0.0 
6.799876155010e+00 -3.182138599199e+02 0.0 
0.0 0.0 -1.324040661250e+02 
-1.189402016971e+02 2.223636435595e+01 0.0 
2.223636435595e+01 -3.013921491714e+02 0.0 
0.0 0.0 -1.256997052606e+02 
-1.190863727428e+02 7.240140474293e+00 0.0 
7.240140474293e+00 -3.089682457881e+02 0.0 
0.0 0.0 -1.280163855593e+02 
-9.171380879791e+01 2.654804870492e+00 0.0 
2.654804870492e+00 -2.523296441659e+02 0.0 
0.0 0.0 -1.028130358892e+02 
-3.907145329027e+01 2.130841358487e+01 0.0 
2.130841358487e+01 -6.118785652366e+01 0.0 
0.0 0.0 -2.967779294418e+01 
-1.059003627618e+02 1.592498329112e+01 0.0 
1.592498329112e+01 -2.824054892656e+02 0.0 
0.0 0.0 -1.160917556082e+02 
-7.591990081294e+01 1.444867748390e+01 0.0 
1.444867748390e+01 -1.296332587368e+02 0.0 
0.0 0.0 -6.126594786492e+01 
-3.943280053452e+01 -2.258805444427e+00 0.0 
-2.258805444427e+00 -1.111435635553e+02 0.0 
0.0 0.0 -4.477290922693e+01 
-6.512131747297e+01 6.331351041977e+00 0.0 
6.331351041977e+00 -1.956632477245e+02 0.0 
0.0 0.0 -7.783536955924e+01 
-7.476377037551e+01 6.637214410949e+00 0.0 
6.637214410949e+00 -2.226534327536e+02 0.0 
0.0 0.0 -8.882516093875e+01 
-8.242233823389e+01 1.353504906735e+01 0.0 
1.353504906735e+01 -2.347746020510e+02 0.0 
0.0 0.0 -9.475908208547e+01 
-3.317050874151e+01 7.789613979511e-01 0.0 
7.789613979511e-01 -1.052104427266e+02 0.0 
0.0 0.0 -4.111428544043e+01 
-6.081300810113e+01 6.828639763529e+00 0.0 
6.828639763529e+00 -1.852330633540e+02 0.0 
0.0 0.0 -7.341382143654e+01 
-9.114850058547e+01 1.497714947855e+01 0.0 
1.497714947855e+01 -2.528385782219e+02 0.0 
0.0 0.0 -1.027961236422e+02 
-4.991558341036e+01 2.307801330380e+01 0.0 
2.307801330380e+01 -9.889591636454e+01 0.0 
0.0 0.0 -4.424344993247e+01 
-7.514862817351e+01 7.171444861158e-01 0.0 
7.171444861158e-01 -2.144361007754e+02 0.0 
0.0 0.0 -8.647541868468e+01 
-6.696500476963e+01 8.527174939661e+00 0.0 
8.527174939661e+00 -1.024917401081e+02 0.0 
0.0 0.0 -5.043702346331e+01 
-3.335213862534e+01 -5.185754651427e-01 0.0 
-5.185754651427e-01 -4.064082705149e+01 0.0 
0.0 0.0 -2.179788970305e+01 
-2.547687468499e+01 1.613808338585e+01 0.0 
1.613808338585e+01 -1.846223035996e+01 0.0 
0.0 0.0 -1.278173151348e+01 
-8.903799789294e+01 3.908372606750e+00 0.0 
3.908372606750e+00 -2.444208131353e+02 0.0 
0.0 0.0 -9.963764330847e+01 
-1.051553723735e+02 1.241487125603e+01 0.0 
1.241487125603e+01 -2.851099361090e+02 0.0 
0.0 0.0 -1.166795925448e+02 
-9.655235168190e+01 2.291601046873e+01 0.0 
2.291601046873e+01 -2.027834535830e+02 0.0 
0.0 0.0 -8.940074157948e+01 
-6.874625570370e+01 9.656168785756e+00 0.0 
9.656168785756e+00 -2.091216110927e+02 0.0 
0.0 0.0 -8.296036003893e+01 
-8.322247067071e+01 1.676225856544e+00 0.0 
1.676225856544e+00 -2.334115104456e+02 0.0 
0.0 0.0 -9.459019433489e+01 
-6.425715143615e+01 6.155309280896e+00 0.0 
6.155309280896e+00 -1.023772481190e+02 0.0 
0.0 0.0 -4.959031986653e+01 
-2.702797779351e+01 1.770239258066e+01 0.0 
1.770239258066e+01 -2.009626067514e+01 0.0 
0.0 0.0 -1.373727154060e+01 
-9.961436432163e+01 1.297200078797e+01 0.0 
1.297200078797e+01 -2.743025213389e+02 0.0 
0.0 0.0 -1.117750656982e+02 
-7.901567131857e+01 1.152765537847e+01 0.0 
1.152765537847e+01 -2.281737188081e+02 0.0 
0.0 0.0 -9.175681703799e+01 
-5.377403993288e+01 2.530052046732e+01 0.0 
2.530052046732e+01 -1.008591677938e+02 0.0 
0.0 0.0 -4.598996231802e+01 
-1.110604640078e+02 7.398468854289e+00 0.0 
7.398468854289e+00 -2.913927243107e+02 0.0 
0.0 0.0 -1.203359564955e+02 
-3.630645331948e+01 -1.242940893877e+00 0.0 
-1.242940893877e+00 -1.068870766748e+02 0.0 
0.0 0.0 -4.255805899828e+01 
-1.155180694391e+02 8.867839134204e+00 0.0 
8.867839134204e+00 -3.005691504520e+02 0.0 
0.0 0.0 -1.244261659673e+02 
-1.286620130669e+02 1.040429976456e+01 0.0 
1.040429976456e+01 -3.269596099379e+02 0.0 
0.0 0.0 -1.362864869014e+02 
-9.420078795419e+01 1.353873888437e+01 0.0 
1.353873888437e+01 -2.631977138241e+02 0.0 
0.0 0.0 -1.068195505335e+02 
-7.444189559624e+01 7.654478795336e+00 0.0 
7.654478795336e+00 -1.335272177965e+02 0.0 
0.0 0.0 -6.199073401783e+01 
-9.924085500385e+01 2.543125995108e+01 0.0 
2.543125995108e+01 -2.512763719390e+02 0.0 
0.0 0.0 -1.047551680829e+02 
-1.305011648784e+02 1.174658109502e+01 0.0 
1.174658109502e+01 -3.279853143582e+02 0.0 
0.0 0.0 -1.371459437710e+02 
-2.744762485913e+01 1.821035609052e+01 0.0 
1.821035609052e+01 -2.081999940092e+01 0.0 
0.0 0.0 -1.408028727802e+01 
-6.959369429062e+01 8.140097021715e+00 0.0 
8.140097021715e+00 -1.128111410669e+02 0.0 
0.0 0.0 -5.432145060727e+01 
-1.170023237184e+02 2.465736503302e+01 0.0 
2.465736503302e+01 -2.938078437803e+02 0.0 
0.0 0.0 -1.228430502496e+02 
-7.539968306706e+01 7.217332474025e+00 0.0 
7.217332474025e+00 -1.420764646999e+02 0.0 
0.0 0.0 -6.484284433010e+01 
-8.521725350457e+01 1.220158171628e+01 0.0 
1.220158171628e+01 -2.451013911459e+02 0.0 
0.0 0.0 -9.869559339514e+01 
-6.358754888514e+01 8.761525208876e+00 0.0 
8.761525208876e+00 -1.923027460239e+02 0.0 
0.0 0.0 -7.636708847271e+01 
-8.435564676581e+01 1.901996114455e-01 0.0 
1.901996114455e-01 -2.306068298650e+02 0.0 
0.0 0.0 -9.408874298925e+01 
-2.359563293630e+01 8.784730384309e-01 0.0 
8.784730384309e-01 -6.025436708154e+01 0.0 
0.0 0.0 -2.475500000535e+01 
-7.776606027353e+01 6.908694634514e+00 0.0 
6.908694634514e+00 -1.525635734070e+02 0.0 
0.0 0.0 -6.869889010415e+01 
-4.269144807115e+01 -1.989999893835e+00 0.0 
-1.989999893835e+00 -1.198990264233e+02 0.0 
0.0 0.0 -4.837714234833e+01 
-2.735516094803e+01 1.829658728541e+01 0.0 
1.829658728541e+01 -2.082550997267e+01 0.0 
0.0 0.0 -1.405420127621e+01 
-9.401863703108e+01 2.573899296581e+01 0.0 
2.573899296581e+01 -2.365558465635e+02 0.0 
0.0 0.0 -9.877234507838e+01 
-8.278742304897e+01 6.213223336277e+00 0.0 
6.213223336277e+00 -1.745255392367e+02 0.0 
0.0 0.0 -7.679388868569e+01 
-3.393583494225e+01 -2.036965275471e+00 0.0 
-2.036965275471e+00 -9.690908421607e+01 0.0 
0.0 0.0 -3.885347574749e+01 
-6.518371158862e+01 2.348951430551e+01 0.0 
2.348951430551e+01 -1.661661992478e+02 0.0 
0.0 0.0 -6.900497325092e+01 
-7.066430171480e+01 7.662147985505e+00 0.0 
7.662147985505e+00 -1.215950356470e+02 0.0 
0.0 0.0 -5.727780120853e+01 
-8.137781843920e+01 1.999266769334e+00 0.0 
1.999266769334e+00 -2.244261434411e+02 0.0 
0.0 0.0 -9.134118856410e+01 
-3.541603392711e+01 5.417592163035e-01 0.0 
5.417592163035e-01 -1.061077596248e+02 0.0 
0.0 0.0 -4.205713806558e+01 
-3.728031538278e+01 1.318392682143e+01 0.0 
1.318392682143e+01 -1.136373288388e+02 0.0 
0.0 0.0 -4.487529326648e+01 
-2.776947731644e+01 -3.350360564883e+00 0.0 
-3.350360564883e+00 -7.539034334485e+01 0.0 
0.0 0.0 -3.054794619839e+01 
-3.220492440699e+01 -2.309225975252e+00 0.0 
-2.309225975252e+00 -9.612442084241e+01 0.0 
0.0 0.0 -3.809880357482e+01 
-3.001793634657e+01 -2.982137392528e+00 0.0 
-2.982137392528e+00 -8.618700364560e+01 0.0 
0.0 0.0 -3.446148199765e+01 
-7.672695527965e+01 1.090895240630e+01 0.0 
1.090895240630e+01 -2.270712372434e+02 0.0 
0.0 0.0 -9.073945775690e+01 
-1.044512169259e+02 2.171542638838e+01 0.0 
2.171542638838e+01 -2.316192924719e+02 0.0 
0.0 0.0 -1.004211528193e+02 
-2.674487667835e+01 1.812071995050e+01 0.0 
1.812071995050e+01 -2.065011758356e+01 0.0 
0.0 0.0 -1.381849827857e+01 
-1.298775772341e+02 6.323326258993e+00 0.0 
6.323326258993e+00 -3.273355461940e+02 0.0 
0.0 0.0 -1.367639370284e+02 
-5.050103571948e+01 8.241168219962e+00 0.0 
8.241168219962e+00 -1.625386991149e+02 0.0 
0.0 0.0 -6.351192045031e+01 
-7.234491928184e+01 1.115668876069e+01 0.0 
1.115668876069e+01 -1.141008713569e+02 0.0 
0.0 0.0 -5.553373719162e+01 
-2.674718081177e+01 1.281617069821e+00 0.0 
1.281617069821e+00 -7.801828722673e+01 0.0 
0.0 0.0 -3.102964041155e+01 
-1.353923783887e+02 1.344071954971e+01 0.0 
1.344071954971e+01 -3.364267620141e+02 0.0 
0.0 0.0 -1.411457421209e+02 
-3.164249367773e+01 -2.674673650337e+00 0.0 
-2.674673650337e+00 -8.692186860739e+01 0.0 
0.0 0.0 -3.516930868553e+01 
-5.011788956652e+01 -1.788856473612e+00 0.0 
-1.788856473612e+00 -1.403077589869e+02 0.0 
0.0 0.0 -5.672769456603e+01 
-9.816584126377e+01 1.549679975445e+01 0.0 
1.549679975445e+01 -2.698159048081e+02 0.0 
0.0 0.0 -1.099945238216e+02 
-7.089689526968e+01 4.134345000376e+00 0.0 
4.134345000376e+00 -2.070375465583e+02 0.0 
0.0 0.0 -8.298033254839e+01 
-1.128700644197e+02 2.269961825368e+01 0.0 
2.269961825368e+01 -2.887238494496e+02 0.0 
0.0 0.0 -1.200781741608e+02 
-4.045100321750e+01 1.809571004276e+01 0.0 
1.809571004276e+01 -1.078209985161e+02 0.0 
0.0 0.0 -4.408160052008e+01 
-8.154453964566e+01 1.672800573031e+01 0.0 
1.672800573031e+01 -1.395197460700e+02 0.0 
0.0 0.0 -6.591928571471e+01 
-1.227860275820e+02 2.046215234501e+01 0.0 
2.046215234501e+01 -3.122895264564e+02 0.0 
0.0 0.0 -1.301226662115e+02 
-6.574964147757e+01 5.496886991649e+00 0.0 
5.496886991649e+00 -1.107556757662e+02 0.0 
0.0 0.0 -5.255159517314e+01 
-9.900939062755e+01 2.569288972570e+01 0.0 
2.569288972570e+01 -2.044218140837e+02 0.0 
0.0 0.0 -9.062936141339e+01 
-8.147186393057e+01 1.240547591854e+01 0.0 
1.240547591854e+01 -1.449818261973e+02 0.0 
0.0 0.0 -6.753610703837e+01 
-8.577076553926e+01 1.490883113566e+01 0.0 
1.490883113566e+01 -1.569250630500e+02 0.0 
0.0 0.0 -7.240874857678e+01 
-2.791976541237e+01 6.762627432118e+00 0.0 
6.762627432118e+00 -8.256721831380e+01 0.0 
0.0 0.0 -3.274609511785e+01 
-1.248696930629e+02 5.084311287346e+00 0.0 
5.084311287346e+00 -3.176016305721e+02 0.0 
0.0 0.0 -1.323413970905e+02 
-7.551000468144e+01 1.013236522256e+01 0.0 
1.013236522256e+01 -1.333562920106e+02 0.0 
0.0 0.0 -6.225988900763e+01 
-6.307959801910e+01 1.331759501398e+01 0.0 
1.331759501398e+01 -1.918491395741e+02 0.0 
0.0 0.0 -7.607862127797e+01 
-2.630790092923e+01 1.782201273027e+01 0.0 
1.782201273027e+01 -2.089819344738e+01 0.0 
0.0 0.0 -1.376182831298e+01 
-1.297242113993e+02 2.394386996160e+01 0.0 
2.394386996160e+01 -3.195386152897e+02 0.0 
0.0 0.0 -1.343788480067e+02 
-3.226237013080e+01 3.655227231543e+00 0.0 
3.655227231543e+00 -1.033397669956e+02 0.0 
0.0 0.0 -4.028064113793e+01 
-4.732125450892e+01 -5.402441369438e-01 0.0 
-5.402441369438e-01 -1.316309720286e+02 0.0 
0.0 0.0 -5.328566796127e+01 
-1.063678321938e+02 1.941875665132e+01 0.0 
1.941875665132e+01 -2.819745091511e+02 0.0 
0.0 0.0 -1.161027024035e+02 
-2.880501056222e+01 3.033696777671e-01 0.0 
3.033696777671e-01 -8.049694203097e+01 0.0 
0.0 0.0 -3.239058577796e+01 
-6.258107647212e+01 1.941704267977e+01 0.0 
1.941704267977e+01 -1.750431455941e+02 0.0 
0.0 0.0 -7.088726661987e+01 
-1.036672279601e+02 1.492348354554e+01 0.0 
1.492348354554e+01 -2.812651572519e+02 0.0 
0.0 0.0 -1.150797155636e+02 
-9.093061439194e+01 1.642744658273e+01 0.0 
1.642744658273e+01 -1.776223254252e+02 0.0 
0.0 0.0 -8.016588194514e+01 
-9.485517991085e+01 1.917117212768e+01 0.0 
1.917117212768e+01 -1.909702707436e+02 0.0 
0.0 0.0 -8.534763519633e+01 
-1.003522299530e+02 1.645181926969e+01 0.0 
1.645181926969e+01 -2.709425165697e+02 0.0 
0.0 0.0 -1.109884239568e+02 
-8.333222912532e+01 1.184852296789e+01 0.0 
1.184852296789e+01 -1.549293597877e+02 0.0 
0.0 0.0 -7.107847667390e+01 
-5.315434797485e+01 1.026309418485e+01 0.0 
1.026309418485e+01 -1.687116618817e+02 0.0 
0.0 0.0 -6.615980295696e+01 
-9.297810305753e+01 2.732389979606e+01 0.0 
2.732389979606e+01 -2.247296649709e+02 0.0 
0.0 0.0 -9.491233040854e+01 
-2.700603108280e+01 1.757475908477e+01 0.0 
1.757475908477e+01 -2.100822933560e+01 0.0 
0.0 0.0 -1.400427812552e+01 
-9.977158282545e+01 2.713030366890e+01 0.0 
2.713030366890e+01 -2.233222408539e+02 0.0 
0.0 0.0 -9.652814710381e+01 
-3.829919691173e+01 1.738114443945e+01 0.0 
1.738114443945e+01 -2.254806740453e+01 0.0 
0.0 0.0 -1.785417929488e+01 
-3.354068455680e+01 1.015599933804e+01 0.0 
1.015599933804e+01 -1.849529860072e+01 0.0 
0.0 0.0 -1.521079494726e+01 
-6.429219510235e+01 1.042633067892e+01 0.0 
1.042633067892e+01 -1.979046433242e+02 0.0 
0.0 0.0 -7.825905152797e+01 
-3.522629903677e+01 7.531785071216e+00 0.0 
7.531785071216e+00 -2.500924203113e+01 0.0 
0.0 0.0 -1.767066232037e+01 
-7.447782258575e+01 1.955997470868e+01 0.0 
1.955997470868e+01 -2.066546468090e+02 0.0 
0.0 0.0 -8.393974081843e+01 
-5.657723572468e+01 1.551280229750e+01 0.0 
1.551280229750e+01 -1.672454748078e+02 0.0 
0.0 0.0 -6.674681315974e+01 
-6.802094043144e+01 8.177016892275e+00 0.0 
8.177016892275e+00 -2.031371660600e+02 0.0 
0.0 0.0 -8.094743194742e+01 
-3.130746075427e+01 -7.142005334106e-01 0.0 
-7.142005334106e-01 -9.622344384717e+01 0.0 
0.0 0.0 -3.785927138043e+01 
-6.128132881385e+01 8.454472336011e+00 0.0 
8.454472336011e+00 -1.912584906753e+02 0.0 
0.0 0.0 -7.536194584674e+01 
-8.166938279035e+01 8.937247712762e+00 0.0 
8.937247712762e+00 -1.631545828567e+02 0.0 
0.0 0.0 -7.304718969412e+01 
-9.903046807363e+01 2.570579341831e+01 0.0 
2.570579341831e+01 -2.146874427525e+02 0.0 
0.0 0.0 -9.371537324784e+01 
-1.150196453737e+02 4.275394878040e+00 0.0 
4.275394878040e+00 -2.989546020398e+02 0.0 
0.0 0.0 -1.237922742241e+02 
-1.166592690502e+02 2.095380003367e+01 0.0 
2.095380003367e+01 -3.001515472313e+02 0.0 
0.0 0.0 -1.246432448844e+02 
-6.843441522012e+01 3.402578122978e+00 0.0 
3.402578122978e+00 -2.058308525485e+02 0.0 
0.0 0.0 -8.187958033059e+01 
-8.198621778393e+01 1.213736014981e+01 0.0 
1.213736014981e+01 -1.548362354095e+02 0.0 
0.0 0.0 -7.064673595804e+01 
-6.562754004707e+01 7.738610853277e+00 0.0 
7.738610853277e+00 -2.020285290993e+02 0.0 
0.0 0.0 -7.989682074392e+01 
-1.300435903586e+02 4.639816898043e+00 0.0 
4.639816898043e+00 -3.264079198641e+02 0.0 
0.0 0.0 -1.365354530668e+02 
-7.753981094684e+01 9.740490053217e+00 0.0 
9.740490053217e+00 -1.428592058926e+02 0.0 
0.0 0.0 -6.571970505184e+01 
-8.380127968711e+01 1.574308349444e+01 0.0 
1.574308349444e+01 -1.479992057340e+02 0.0 
0.0 0.0 -6.914014562633e+01 
-9.034849757033e+01 1.160530389662e+01 0.0 
1.160530389662e+01 -2.561450088830e+02 0.0 
0.0 0.0 -1.035480519360e+02 
-5.711951297337e+01 9.297373951184e+00 0.0 
9.297373951184e+00 -1.801695603913e+02 0.0 
0.0 0.0 -7.078672200941e+01 
-1.013212383790e+02 2.837424326628e+01 0.0 
2.837424326628e+01 -2.432260348040e+02 0.0 
0.0 0.0 -1.029641819549e+02 
-7.201460549738e+01 2.461356961291e+01 0.0 
2.461356961291e+01 -1.565218565755e+02 0.0 
0.0 0.0 -6.816093862187e+01 
-3.321769732769e+01 -7.170879257808e-01 0.0 
-7.170879257808e-01 -9.703150522337e+01 0.0 
0.0 0.0 -3.867476076532e+01 
-3.424075410272e+01 3.014256193468e+00 0.0 
3.014256193468e+00 -1.040302320412e+02 0.0 
0.0 0.0 -4.108129584319e+01 
-4.215988181501e+01 1.684225367439e+01 0.0 
1.684225367439e+01 -1.217102065902e+02 0.0 
0.0 0.0 -4.876102652157e+01 
-6.456900255254e+01 2.250774750857e+01 0.0 
2.250774750857e+01 -1.657088631207e+02 0.0 
0.0 0.0 -6.868335970197e+01 
-1.351941149918e+02 4.097675977705e+00 0.0 
4.097675977705e+00 -3.353188718195e+02 0.0 
0.0 0.0 -1.407538960434e+02 
-7.938427004566e+01 1.309273803195e+01 0.0 
1.309273803195e+01 -1.355086393537e+02 0.0 
0.0 0.0 -6.406787281981e+01 
-5.930485505631e+01 9.463056247321e+00 0.0 
9.463056247321e+00 -1.811319758677e+02 0.0 
0.0 0.0 -7.173104927720e+01 
-7.643923684347e+01 2.547953601679e+01 0.0 
2.547953601679e+01 -1.870671001428e+02 0.0 
0.0 0.0 -7.865190109590e+01 
-1.093923876074e+02 1.438862875291e+01 0.0 
1.438862875291e+01 -2.925097357735e+02 0.0 
0.0 0.0 -1.201706370143e+02 
-8.105436980257e+01 9.219171711263e+00 0.0 
9.219171711263e+00 -1.543676729856e+02 0.0 
0.0 0.0 -7.022661283644e+01 
-1.045692021085e+02 2.951924416925e+01 0.0 
2.951924416925e+01 -2.465679030133e+02 0.0 
0.0 0.0 -1.049411315365e+02 
-6.565766529573e+01 8.424863128312e+00 0.0 
8.424863128312e+00 -1.024629995749e+02 0.0 
0.0 0.0 -5.003619946120e+01 
-1.171302245101e+02 1.149258990477e+01 0.0 
1.149258990477e+01 -3.070031784225e+02 0.0 
0.0 0.0 -1.268400208798e+02 
-7.105674985050e+01 1.012424723585e+01 0.0 
1.012424723585e+01 -2.102020443226e+02 0.0 
0.0 0.0 -8.397763825194e+01 
-1.115683908336e+02 1.540014725341e+01 0.0 
1.540014725341e+01 -2.935720126426e+02 0.0 
0.0 0.0 -1.211421210429e+02 
-6.147787079125e+01 1.891995916449e+01 0.0 
1.891995916449e+01 -1.744690212325e+02 0.0 
0.0 0.0 -7.038406760711e+01 
-8.892506661868e+01 1.340587787358e+01 0.0 
1.340587787358e+01 -1.758744944351e+02 0.0 
0.0 0.0 -7.903986831613e+01 
-1.091033184726e+02 3.105023089731e+01 0.0 
3.105023089731e+01 -2.517760773209e+02 0.0 
0.0 0.0 -1.078638187381e+02 
-8.159464243202e+01 1.027500122843e+01 0.0 
1.027500122843e+01 -2.380233847814e+02 0.0 
0.0 0.0 -9.548540816403e+01 
-3.056018134640e+01 1.806048379258e+00 0.0 
1.806048379258e+00 -9.566803224734e+01 0.0 
0.0 0.0 -3.746846407812e+01 
-1.025435765298e+02 2.375882594172e+01 0.0 
2.375882594172e+01 -2.643234904741e+02 0.0 
0.0 0.0 -1.096601201012e+02 
-7.003181910852e+01 2.035969094090e+01 0.0 
2.035969094090e+01 -1.927525160047e+02 0.0 
0.0 0.0 -7.843530053397e+01 
-5.518641406623e+01 1.030271135616e+01 0.0 
1.030271135616e+01 -1.695812852705e+02 0.0 
0.0 0.0 -6.703030980101e+01 
-8.748901423590e+01 1.296418606627e+01 0.0 
1.296418606627e+01 -2.462278856069e+02 0.0 
0.0 0.0 -9.971506995283e+01 
-1.146366611403e+02 1.090346194497e+01 0.0 
1.090346194497e+01 -2.996627599181e+02 0.0 
0.0 0.0 -1.238898263175e+02 
-3.255672317471e+01 1.239315689743e+00 0.0 
1.239315689743e+00 -9.638146992065e+01 0.0 
0.0 0.0 -3.828145792861e+01 
-7.335629095122e+01 8.990326370604e+00 0.0 
8.990326370604e+00 -2.199849351419e+02 0.0 
0.0 0.0 -8.760236782792e+01 
-7.563082227691e+01 2.287030885925e+01 0.0 
2.287030885925e+01 -1.450087838673e+02 0.0 
0.0 0.0 -6.579188184327e+01 
-1.360378642310e+02 5.488283136559e+00 0.0 
5.488283136559e+00 -3.359557044977e+02 0.0 
0.0 0.0 -1.411980706186e+02 
-7.933243944018e+01 2.420144979235e+01 0.0 
2.420144979235e+01 -1.619857419969e+02 0.0 
0.0 0.0 -7.199545443111e+01 
-9.739431870044e+01 2.412156437116e+01 0.0 
2.412156437116e+01 -2.502202111533e+02 0.0 
0.0 0.0 -1.038843589561e+02 
-7.178012620352e+01 2.105151260155e+01 0.0 
2.105151260155e+01 -1.278688817198e+02 0.0 
0.0 0.0 -5.949470237700e+01 
-6.247422105530e+01 1.532021864700e+01 0.0 
1.532021864700e+01 -9.353539160458e+01 0.0 
0.0 0.0 -4.640288379796e+01 
-7.574500169230e+01 2.486691587835e+01 0.0 
2.486691587835e+01 -1.731688608314e+02 0.0 
0.0 0.0 -7.427415875711e+01 
-1.122319890849e+02 1.887730273414e+01 0.0 
1.887730273414e+01 -2.942152159917e+02 0.0 
0.0 0.0 -1.215341615230e+02 
-1.211557773202e+02 6.766912185012e+00 0.0 
6.766912185012e+00 -3.096113631517e+02 0.0 
0.0 0.0 -1.288301421416e+02 
-7.333408474251e+01 1.071515855424e+01 0.0 
1.071515855424e+01 -1.242717243786e+02 0.0 
0.0 0.0 -5.888174273634e+01 
-9.178018790791e+01 1.670395181105e+01 0.0 
1.670395181105e+01 -1.892196198374e+02 0.0 
0.0 0.0 -8.389994232360e+01 
-6.762253118063e+01 1.858052903330e+01 0.0 
1.858052903330e+01 -1.107172842599e+02 0.0 
0.0 0.0 -5.310194463216e+01 
-4.652654005856e+01 7.057657548419e+00 0.0 
7.057657548419e+00 -1.458498024036e+02 0.0 
0.0 0.0 -5.731290273866e+01 
-1.084455774521e+02 2.683661541911e+01 0.0 
2.683661541911e+01 -2.697207065568e+02 0.0 
0.0 0.0 -1.130498852026e+02 
-8.708240694052e+01 1.081010829324e+01 0.0 
1.081010829324e+01 -1.754137878107e+02 0.0 
0.0 0.0 -7.834885842536e+01 
-6.211958723551e+01 1.619101490160e+01 0.0 
1.619101490160e+01 -1.840016078491e+02 0.0 
0.0 0.0 -7.343635852538e+01 
-6.543386279047e+01 1.800090597037e+01 0.0 
1.800090597037e+01 -1.882569998927e+02 0.0 
0.0 0.0 -7.570725880494e+01 
-5.265230523230e+01 8.226850408452e+00 0.0 
8.226850408452e+00 -1.634466784758e+02 0.0 
0.0 0.0 -6.442969511243e+01 
-7.806308893713e+01 1.347853962901e+01 0.0 
1.347853962901e+01 -1.374237640540e+02 0.0 
0.0 0.0 -6.424605589734e+01 
-4.426477409799e+01 2.070808495813e+01 0.0 
2.070808495813e+01 -1.117207222493e+02 0.0 
0.0 0.0 -4.639564890419e+01 
-7.749816363223e+01 1.807753156521e+01 0.0 
1.807753156521e+01 -2.191950285820e+02 0.0 
0.0 0.0 -8.860795766428e+01 
-4.519606294044e+01 2.128041176318e+01 0.0 
2.128041176318e+01 -1.122277285303e+02 0.0 
0.0 0.0 -4.682713744123e+01 
-1.022367902130e+02 1.746566122667e+01 0.0 
1.746566122667e+01 -2.760649345564e+02 0.0 
0.0 0.0 -1.130905174308e+02 
-1.179313162740e+02 2.818892462738e+01 0.0 
2.818892462738e+01 -2.875569619434e+02 0.0 
0.0 0.0 -1.212464834652e+02 
-5.664583817392e+01 7.461224554429e+00 0.0 
7.461224554429e+00 -1.744977533874e+02 0.0 
0.0 0.0 -6.894307746839e+01 
-2.523088385025e+01 1.332935002024e-01 0.0 
1.332935002024e-01 -6.077379890908e+01 0.0 
0.0 0.0 -2.540140482780e+01 
-9.403399913774e+01 2.004704355158e+01 0.0 
2.004704355158e+01 -1.950800576970e+02 0.0 
0.0 0.0 -8.633421705044e+01 
-4.717231385326e+01 2.182222245658e+01 0.0 
2.182222245658e+01 -1.134401056983e+02 0.0 
0.0 0.0 -4.778372586548e+01 
-7.154282943965e+01 4.953948537533e+00 0.0 
4.953948537533e+00 -2.144272768830e+02 0.0 
0.0 0.0 -8.539103189681e+01 
-1.120872293145e+02 2.526310702382e+01 0.0 
2.526310702382e+01 -2.829361003597e+02 0.0 
0.0 0.0 -1.181069989023e+02 
-7.713116469551e+01 1.392885536601e+01 0.0 
1.392885536601e+01 -1.264346139869e+02 0.0 
0.0 0.0 -6.066973360471e+01 
-1.161249992863e+02 7.098964146245e+00 0.0 
7.098964146245e+00 -3.005775050747e+02 0.0 
0.0 0.0 -1.246107513083e+02 
-5.386058282964e+01 1.340585094262e+01 0.0 
1.340585094262e+01 -1.627378798946e+02 0.0 
0.0 0.0 -6.457953881726e+01 
-2.229332949175e+01 -4.697930183589e-01 0.0 
-4.697930183589e-01 -5.136780232358e+01 0.0 
0.0 0.0 -2.169833954460e+01 
-1.410669554116e+02 4.998619309407e+00 0.0 
4.998619309407e+00 -3.456887885714e+02 0.0 
0.0 0.0 -1.456267231949e+02 
-6.842849955403e+01 2.189851484171e+01 0.0 
2.189851484171e+01 -1.809385836940e+02 0.0 
0.0 0.0 -7.441012497440e+01 
-9.336134669862e+01 1.958014847562e+01 0.0 
1.958014847562e+01 -2.517359294234e+02 0.0 
0.0 0.0 -1.031291828366e+02 
-1.049640866979e+02 2.716334582930e+01 0.0 
2.716334582930e+01 -2.581303131357e+02 0.0 
0.0 0.0 -1.085283199501e+02 
-2.031087013599e+01 -1.969860907334e-01 0.0 
-1.969860907334e-01 -3.431745454829e+01 0.0 
0.0 0.0 -1.598849740528e+01 
-1.144544466908e+02 5.847627494365e+00 0.0 
5.847627494365e+00 -2.995924851441e+02 0.0 
0.0 0.0 -1.238140795505e+02 
-3.662385249828e+01 1.056966649340e+01 0.0 
1.056966649340e+01 -1.100844967489e+02 0.0 
0.0 0.0 -4.361250477416e+01 
-7.006767702883e+01 1.189070577922e+01 0.0 
1.189070577922e+01 -1.049016858845e+02 0.0 
0.0 0.0 -5.209080887399e+01 
-8.959627639640e+01 2.901015453480e+00 0.0 
2.901015453480e+00 -2.434027203150e+02 0.0 
0.0 0.0 -9.949969901343e+01 
-5.436232463847e+01 7.317420752595e+00 0.0 
7.317420752595e+00 -1.734977945087e+02 0.0 
0.0 0.0 -6.795803574414e+01 
-1.310551109459e+02 5.937022004598e+00 0.0 
5.937022004598e+00 -3.271229994315e+02 0.0 
0.0 0.0 -1.370534331132e+02 
-7.309450113267e+01 1.888657689881e+01 0.0 
1.888657689881e+01 -2.059215627533e+02 0.0 
0.0 0.0 -8.330481916578e+01 
-4.797729964509e+01 6.253520009684e+00 0.0 
6.253520009684e+00 -1.558432220889e+02 0.0 
0.0 0.0 -6.074615652020e+01 
-7.279609714881e+01 2.424980280865e+01 0.0 
2.424980280865e+01 -1.843687081396e+02 0.0 
0.0 0.0 -7.674944158651e+01 
-2.394022630100e+01 -1.286881870489e+00 0.0 
-1.286881870489e+00 -5.185256901300e+01 0.0 
0.0 0.0 -2.233783859420e+01 
-8.914850586276e+01 2.604723257222e+01 0.0 
2.604723257222e+01 -2.213762572385e+02 0.0 
0.0 0.0 -9.275742893038e+01 
-1.043887239714e+02 1.850996449704e+01 0.0 
1.850996449704e+01 -2.772012018483e+02 0.0 
0.0 0.0 -1.140769777459e+02 
-1.106216628829e+02 3.062309117594e+01 0.0 
3.062309117594e+01 -2.525231965314e+02 0.0 
0.0 0.0 -1.085434578243e+02 
-9.780897033703e+01 2.718038450502e+01 0.0 
2.718038450502e+01 -2.401517222047e+02 0.0 
0.0 0.0 -1.009882077625e+02 
-3.901756020927e+01 3.955566394594e+00 0.0 
3.955566394594e+00 -1.215962308938e+02 0.0 
0.0 0.0 -4.778413733094e+01 
-1.164525312304e+02 5.569621499915e+00 0.0 
5.569621499915e+00 -2.998531518929e+02 0.0 
0.0 0.0 -1.244917049370e+02 
-8.744262794339e+01 1.061431417946e+01 0.0 
1.061431417946e+01 -1.841124719338e+02 0.0 
0.0 0.0 -8.106652996317e+01 
-1.338500875603e+02 2.596459798003e+01 0.0 
2.596459798003e+01 -3.243130419971e+02 0.0 
0.0 0.0 -1.370489388672e+02 
-1.085705262679e+02 2.058897723688e+01 0.0 
2.058897723688e+01 -2.831586563480e+02 0.0 
0.0 0.0 -1.171187547847e+02 
-5.784065520541e+01 1.241139391682e+01 0.0 
1.241139391682e+01 -1.751293737508e+02 0.0 
0.0 0.0 -6.949100868687e+01 
-8.078743462539e+01 2.508825313582e+01 0.0 
2.508825313582e+01 -2.027403267328e+02 0.0 
0.0 0.0 -8.465832840746e+01 
-1.347049411033e+02 2.604955986643e+00 0.0 
2.604955986643e+00 -3.336042241259e+02 0.0 
0.0 0.0 -1.400927495688e+02 
-8.481185950361e+01 9.040863747542e-01 0.0 
9.040863747542e-01 -2.274133984345e+02 0.0 
0.0 0.0 -9.326757738143e+01 
-9.257227712356e+01 2.440903250392e+01 0.0 
2.440903250392e+01 -2.356692992551e+02 0.0 
0.0 0.0 -9.807247291360e+01 
-6.824299840158e+01 7.970163354051e+00 0.0 
7.970163354051e+00 -1.118360466034e+02 0.0 
0.0 0.0 -5.362371350150e+01 
-1.261253251545e+02 6.386694195746e+00 0.0 
6.386694195746e+00 -3.184199849829e+02 0.0 
0.0 0.0 -1.329635930412e+02 
-1.207504431964e+02 8.488651389530e+00 0.0 
8.488651389530e+00 -3.099500070491e+02 0.0 
0.0 0.0 -1.288101350736e+02 
-2.673314462545e+01 5.274294704262e-02 0.0 
5.274294704262e-02 -2.773082568679e+01 0.0 
0.0 0.0 -1.593919109367e+01 
-2.667882762413e+01 -1.207663619178e-01 0.0 
-1.207663619178e-01 -2.762614640159e+01 0.0 
0.0 0.0 -1.589149220771e+01 
-8.012713215360e+01 2.505311685702e+01 0.0 
2.505311685702e+01 -1.501939998189e+02 0.0 
0.0 0.0 -6.869633959174e+01 
-8.422923734135e+01 2.342832028701e+01 0.0 
2.342832028701e+01 -2.172382542082e+02 0.0 
0.0 0.0 -9.004024746486e+01 
-9.397955575307e+01 2.889918344509e+00 0.0 
2.889918344509e+00 -2.521743481590e+02 0.0 
0.0 0.0 -1.034461711736e+02 
-7.991390123145e+01 2.710742561644e+01 0.0 
2.710742561644e+01 -1.763493457683e+02 0.0 
0.0 0.0 -7.647897409993e+01 
-6.957909645698e+01 1.708943269115e+01 0.0 
1.708943269115e+01 -2.015149750661e+02 0.0 
0.0 0.0 -8.092822145693e+01 
-1.254893858295e+02 1.527896583667e+01 0.0 
1.527896583667e+01 -3.203031618756e+02 0.0 
0.0 0.0 -1.333377643116e+02 
-5.599352767273e+01 1.229681387173e+01 0.0 
1.229681387173e+01 -1.743216645281e+02 0.0 
0.0 0.0 -6.869455766026e+01 
-1.015503275148e+02 1.942419098009e+01 0.0 
1.942419098009e+01 -2.268228056266e+02 0.0 
0.0 0.0 -9.811193994241e+01 
-5.519086221559e+01 1.383221995377e+01 0.0 
1.383221995377e+01 -7.167882255861e+01 0.0 
0.0 0.0 -3.766090543226e+01 
-6.676115012750e+01 1.852053375005e+01 0.0 
1.852053375005e+01 -1.889331207158e+02 0.0 
0.0 0.0 -7.630828125298e+01 
-8.780301596444e+01 1.654263666537e+00 0.0 
1.654263666537e+00 -2.423556980611e+02 0.0 
0.0 0.0 -9.864761420766e+01 
-3.596497401817e+01 4.989365224781e+00 0.0 
4.989365224781e+00 -1.109377333733e+02 0.0 
0.0 0.0 -4.367081221745e+01 
-7.714451257927e+01 1.882512824752e+00 0.0 
1.882512824752e+00 -2.155402404362e+02 0.0 
0.0 0.0 -8.740542590466e+01 
-7.615377725636e+01 2.261224488801e+01 0.0 
2.261224488801e+01 -1.989830088594e+02 0.0 
0.0 0.0 -8.214103583473e+01 
-6.820250079854e+01 2.357434558537e+01 0.0 
2.357434558537e+01 -1.682091119925e+02 0.0 
0.0 0.0 -7.052348383730e+01 
-7.104456433532e+01 1.147528183596e+01 0.0 
1.147528183596e+01 -1.156273640826e+02 0.0 
0.0 0.0 -5.560157852539e+01 
-8.329335145356e+01 2.548321670712e+01 0.0 
2.548321670712e+01 -1.922028168729e+02 0.0 
0.0 0.0 -8.224885049795e+01 
-8.768524518588e+01 2.777204677069e+01 0.0 
2.777204677069e+01 -1.958186580021e+02 0.0 
0.0 0.0 -8.465117095640e+01 
-2.154705650872e+01 -2.546039439456e-01 0.0 
-2.546039439456e-01 -5.942292066900e+01 0.0 
0.0 0.0 -2.389099315332e+01 
-7.164572220565e+01 -1.084204478134e-01 0.0 
-1.084204478134e-01 -2.042750287297e+02 0.0 
0.0 0.0 -8.237622528060e+01 
-4.783673921073e+01 2.267892873097e+01 0.0 
2.267892873097e+01 -1.138659324765e+02 0.0 
0.0 0.0 -4.811080150617e+01 
-7.572821509246e+01 2.454336536511e+01 0.0 
2.454336536511e+01 -1.590055996165e+02 0.0 
0.0 0.0 -7.002014441268e+01 
-7.993964120873e+01 2.675153710841e+01 0.0 
2.675153710841e+01 -1.629679954214e+02 0.0 
0.0 0.0 -7.247229098904e+01 
-1.179871240754e+02 1.828690536317e+01 0.0 
1.828690536317e+01 -3.054197581290e+02 0.0 
0.0 0.0 -1.266220646613e+02 
-3.176786583478e+01 -8.494052664800e-01 0.0 
-8.494052664800e-01 -8.952029580793e+01 0.0 
0.0 0.0 -3.598644849281e+01 
-3.081708350172e+01 -3.074635488498e-01 0.0 
-3.074635488498e-01 -8.797184225523e+01 0.0 
0.0 0.0 -3.523667772709e+01 
-6.487941092233e+01 2.049401027227e+01 0.0 
2.049401027227e+01 -1.778388683807e+02 0.0 
0.0 0.0 -7.241548379091e+01 
-7.349661303687e+01 1.119791896670e+00 0.0 
1.119791896670e+00 -2.053248506175e+02 0.0 
0.0 0.0 -8.324643909631e+01 
-3.955378805412e+01 1.808353095506e+01 0.0 
1.808353095506e+01 -2.336164621375e+01 0.0 
0.0 0.0 -1.847463028036e+01 
-4.230493942726e+01 1.436914561085e+01 0.0 
1.436914561085e+01 -2.937421938495e+01 0.0 
0.0 0.0 -2.110374764366e+01 
-7.465271448728e+01 1.498926615329e+01 0.0 
1.498926615329e+01 -1.177531493876e+02 0.0 
0.0 0.0 -5.732175916246e+01 
-2.730110887432e+01 7.331948279157e+00 0.0 
7.331948279157e+00 -7.162541877979e+01 0.0 
0.0 0.0 -2.927795829623e+01 
-8.396997635439e+01 8.123186810416e-01 0.0 
8.123186810416e-01 -2.322691048385e+02 0.0 
0.0 0.0 -9.447172435788e+01 
-1.074777988336e+02 1.348597548114e+01 0.0 
1.348597548114e+01 -2.863271027049e+02 0.0 
0.0 0.0 -1.177414704616e+02 
-2.886545312970e+01 1.443667525470e-01 0.0 
1.443667525470e-01 -8.729305157579e+01 0.0 
0.0 0.0 -3.444755141165e+01 
-1.249963301462e+02 3.007013495581e+01 0.0 
3.007013495581e+01 -2.973688204491e+02 0.0 
0.0 0.0 -1.263095451786e+02 
-8.717701524763e+01 1.400644859297e+01 0.0 
1.400644859297e+01 -1.658049736384e+02 0.0 
0.0 0.0 -7.549459666581e+01 
-8.165013113067e+01 1.421450185147e+00 0.0 
1.421450185147e+00 -2.228589540203e+02 0.0 
0.0 0.0 -9.095272554529e+01 
-1.200652332645e+02 3.939974484166e+00 0.0 
3.939974484166e+00 -3.077988997620e+02 0.0 
0.0 0.0 -1.279592399080e+02 
-1.468466473583e+01 -1.102088717578e+00 0.0 
-1.102088717578e+00 -4.240323956355e+01 0.0 
0.0 0.0 -1.672637128982e+01 
-1.033730893655e+02 1.160201270300e+01 0.0 
1.160201270300e+01 -2.786060769484e+02 0.0 
0.0 0.0 -1.141937498942e+02 
-6.922978260618e+01 2.280704206766e+01 0.0 
2.280704206766e+01 -1.814686392051e+02 0.0 
0.0 0.0 -7.480952654339e+01 
-1.485615732599e+01 -8.726565304733e-01 0.0 
-8.726565304733e-01 -4.233481265370e+01 0.0 
0.0 0.0 -1.675729099391e+01 
-8.362731262561e+01 1.166181057758e+01 0.0 
1.166181057758e+01 -1.639909347818e+02 0.0 
0.0 0.0 -7.388547422221e+01 
-2.855251923002e+01 5.874591290803e-01 0.0 
5.874591290803e-01 -7.861899826193e+01 0.0 
0.0 0.0 -3.175145524759e+01 
-7.604039996297e+01 2.677841052977e+01 0.0 
2.677841052977e+01 -1.596269332852e+02 0.0 
0.0 0.0 -7.030019997444e+01 
-6.869539290763e+01 2.476951708202e+01 0.0 
2.476951708202e+01 -1.686489573706e+02 0.0 
0.0 0.0 -7.080330508347e+01 
-6.950463070202e+01 5.946205114763e+00 0.0 
5.946205114763e+00 -2.057428725687e+02 0.0 
0.0 0.0 -8.217425098121e+01 
-8.942829172108e+01 5.594774376933e+00 0.0 
5.594774376933e+00 -2.524261277993e+02 0.0 
0.0 0.0 -1.021563258561e+02 
-8.758849752930e+01 1.408431981257e+01 0.0 
1.408431981257e+01 -1.759865273896e+02 0.0 
0.0 0.0 -7.867250747567e+01 
-9.847053761212e+01 6.820600976323e+00 0.0 
6.820600976323e+00 -2.710990129725e+02 0.0 
0.0 0.0 -1.104708651754e+02 
-6.888547274786e+01 1.968503593152e+01 0.0 
1.968503593152e+01 -1.921202451084e+02 0.0 
0.0 0.0 -7.790171535689e+01 
-6.581834418552e+01 2.119124458896e+01 0.0 
2.119124458896e+01 -1.783841935090e+02 0.0 
0.0 0.0 -7.286076130835e+01 
-2.382548418031e+01 1.468715131013e+01 0.0 
1.468715131013e+01 -1.649366523269e+01 0.0 
0.0 0.0 -1.169574482390e+01 
-2.536125867485e+01 -2.340192845602e-01 0.0 
-2.340192845602e-01 -6.956397736213e+01 0.0 
0.0 0.0 -2.807757081109e+01 
-1.028705196825e+02 2.699276653832e+01 0.0 
2.699276653832e+01 -2.550817300763e+02 0.0 
0.0 0.0 -1.069856749277e+02 
-6.867824880058e+01 1.813658847584e+01 0.0 
1.813658847584e+01 -1.020448964461e+02 0.0 
0.0 0.0 -5.081694357401e+01 
-1.062270520457e+02 2.557173404939e+01 0.0 
2.557173404939e+01 -2.684557696296e+02 0.0 
0.0 0.0 -1.120048465026e+02 
-3.532765353899e+01 1.124296738541e+01 0.0 
1.124296738541e+01 -1.096811011636e+02 0.0 
0.0 0.0 -4.310262641077e+01 
-8.830481494580e+01 2.211486311914e+01 0.0 
2.211486311914e+01 -1.756731966848e+02 0.0 
0.0 0.0 -7.879340348919e+01 
-1.066288703823e+02 2.857687451714e+01 0.0 
2.857687451714e+01 -2.589891705493e+02 0.0 
0.0 0.0 -1.092854122795e+02 
-4.373650084082e+01 1.382198906605e+01 0.0 
1.382198906605e+01 -4.434468710344e+01 0.0 
0.0 0.0 -2.602435638328e+01 
-1.011905686070e+02 2.556036390997e+01 0.0 
2.556036390997e+01 -2.540144316718e+02 0.0 
0.0 0.0 -1.061615000836e+02 
-1.212797305439e+02 5.248894422237e+00 0.0 
5.248894422237e+00 -3.086097489454e+02 0.0 
0.0 0.0 -1.285668438468e+02 
-8.039991694626e+01 2.203588579327e+01 0.0 
2.203588579327e+01 -2.136309005326e+02 0.0 
0.0 0.0 -8.780924524364e+01 
-7.953838520456e+01 7.600228665307e-01 0.0 
7.600228665307e-01 -2.233752287672e+02 0.0 
0.0 0.0 -9.047408419153e+01 
-8.519070577304e+01 2.873799357939e+00 0.0 
2.873799357939e+00 -2.345077363154e+02 0.0 
0.0 0.0 -9.550953262652e+01 
-9.794099005724e+01 2.301024321385e+01 0.0 
2.301024321385e+01 -1.979784389696e+02 0.0 
0.0 0.0 -8.837582870806e+01 
-8.094887318333e+01 4.374817711401e+00 0.0 
4.374817711401e+00 -2.338759710933e+02 0.0 
0.0 0.0 -9.404745328299e+01 
-7.210174007208e+01 2.313485107476e+01 0.0 
2.313485107476e+01 -1.838557949147e+02 0.0 
0.0 0.0 -7.638726049603e+01 
-7.064454955757e+01 1.438301926717e+01 0.0 
1.438301926717e+01 -2.095020776598e+02 0.0 
0.0 0.0 -8.364398816520e+01 
-1.081385210425e+02 8.064220781948e+00 0.0 
8.064220781948e+00 -2.898358595063e+02 0.0 
0.0 0.0 -1.189923141646e+02 
-6.360527217509e+01 1.654574269465e+01 0.0 
1.654574269465e+01 -1.847059532990e+02 0.0 
0.0 0.0 -7.409336764222e+01 
-4.007093872347e+01 3.386684397217e+00 0.0 
3.386684397217e+00 -1.310700087456e+02 0.0 
0.0 0.0 -5.094228424073e+01 
-7.810398537429e+01 8.412168876374e+00 0.0 
8.412168876374e+00 -2.305308497231e+02 0.0 
0.0 0.0 -9.219045052921e+01 
-4.216075197991e+01 5.282241808219e+00 0.0 
5.282241808219e+00 -1.382802204623e+02 0.0 
0.0 0.0 -5.373229173266e+01 
-7.941250385544e+01 2.516804458518e+01 0.0 
2.516804458518e+01 -1.757406318361e+02 0.0 
0.0 0.0 -7.614594070746e+01 
-4.435650285476e+01 5.038105943079e+00 0.0 
5.038105943079e+00 -1.391561001930e+02 0.0 
0.0 0.0 -5.465378091432e+01 
-7.614667917056e+01 2.663880974261e+01 0.0 
2.663880974261e+01 -1.736839057003e+02 0.0 
0.0 0.0 -7.454917546126e+01 
-1.143076238237e+02 2.004523031424e+01 0.0 
2.004523031424e+01 -2.953520780115e+02 0.0 
0.0 0.0 -1.224979105505e+02 
-1.078619199735e+02 1.688381744152e+01 0.0 
1.688381744152e+01 -2.878609477300e+02 0.0 
0.0 0.0 -1.183168603111e+02 
-5.897022999432e+01 1.428505963528e+01 0.0 
1.428505963528e+01 -1.793881529410e+02 0.0 
0.0 0.0 -7.110751488060e+01 
-6.856516521222e+01 1.244785073000e+01 0.0 
1.244785073000e+01 -1.076422058471e+02 0.0 
0.0 0.0 -5.246221131781e+01 
-1.250928326437e+02 3.544276589861e+00 0.0 
3.544276589861e+00 -3.165690551835e+02 0.0 
0.0 0.0 -1.320985663482e+02 
-1.260639786247e+02 4.868430490648e+00 0.0 
4.868430490648e+00 -3.172848140606e+02 0.0 
0.0 0.0 -1.326046378056e+02 
-2.438237376370e+01 7.181363564596e+00 0.0 
7.181363564596e+00 -5.525412541956e+01 0.0 
0.0 0.0 -2.349094975498e+01 
-7.953476588035e+01 2.492561480400e+01 0.0 
2.492561480400e+01 -1.892888084414e+02 0.0 
0.0 0.0 -8.024707229654e+01 
-1.407581962751e+02 3.362741043281e+00 0.0 
3.362741043281e+00 -3.450254737739e+02 0.0 
0.0 0.0 -1.453351010147e+02 
-3.330182063056e+01 2.040513510178e+01 0.0 
2.040513510178e+01 -6.023380879364e+01 0.0 
0.0 0.0 -2.766068882726e+01 
-8.979267923626e+01 2.128059141442e+00 0.0 
2.128059141442e+00 -2.418429315369e+02 0.0 
0.0 0.0 -9.909068323195e+01 
-2.180110423040e+01 1.340717174943e+01 0.0 
1.340717174943e+01 -1.705680360790e+01 0.0 
0.0 0.0 -1.125737235149e+01 
-1.300437628017e+02 3.098631756644e+00 0.0 
3.098631756644e+00 -3.252314878363e+02 0.0 
0.0 0.0 -1.361825751914e+02 
-3.691928454297e+01 4.401249517458e+00 0.0 
4.401249517458e+00 -1.208057196614e+02 0.0 
0.0 0.0 -4.691750126132e+01 
-8.746632866993e+01 -3.753027292765e-01 0.0 
-3.753027292765e-01 -2.335934249685e+02 0.0 
0.0 0.0 -9.591792609152e+01 
-9.099376223431e+01 1.856134118153e+01 0.0 
1.856134118153e+01 -2.505540925682e+02 0.0 
0.0 0.0 -1.020643564408e+02 
-7.211549695090e+01 1.624424641594e+01 0.0 
1.624424641594e+01 -1.098570799838e+02 0.0 
0.0 0.0 -5.419177308040e+01 
-6.645318865396e+01 1.389853895726e+01 0.0 
1.389853895726e+01 -1.003091653278e+02 0.0 
0.0 0.0 -4.962870619453e+01 
-7.246089163542e+01 2.123139221485e+01 0.0 
2.123139221485e+01 -1.956608023008e+02 0.0 
0.0 0.0 -8.003650818087e+01 
-3.254051399838e+01 2.089787421398e+01 0.0 
2.089787421398e+01 -2.325562252059e+01 0.0 
0.0 0.0 -1.633884095569e+01 
-3.468379701170e+01 2.087892125934e+01 0.0 
2.087892125934e+01 -2.180859798371e+01 0.0 
0.0 0.0 -1.654771849862e+01 
-1.307162513426e+02 4.389046885301e+00 0.0 
4.389046885301e+00 -3.258194584428e+02 0.0 
0.0 0.0 -1.365607129356e+02 
-9.555175988511e+01 8.192059322449e+00 0.0 
8.192059322449e+00 -2.622562511945e+02 0.0 
0.0 0.0 -1.069424033239e+02 
-7.719781491543e+01 7.310206905141e+00 0.0 
7.310206905141e+00 -2.238421464033e+02 0.0 
0.0 0.0 -8.991198839562e+01 
-1.010020753199e+02 1.055277065035e+01 0.0 
1.055277065035e+01 -2.774103664229e+02 0.0 
0.0 0.0 -1.131237325229e+02 
-7.013743742281e+01 7.143570173192e+00 0.0 
7.143570173192e+00 -2.125028027375e+02 0.0 
0.0 0.0 -8.439207204809e+01 
-4.095669198548e+01 5.962661406179e+00 0.0 
5.962661406179e+00 -1.283543029293e+02 0.0 
0.0 0.0 -5.039329847444e+01 
-2.966034911419e+01 1.750936476596e+01 0.0 
1.750936476596e+01 -2.093982477612e+01 0.0 
0.0 0.0 -1.478005216709e+01 
-6.080762413992e+01 1.629567403998e+01 0.0 
1.629567403998e+01 -8.008446132674e+01 0.0 
0.0 0.0 -4.186762564000e+01 
-2.679216533295e+01 -6.266636571038e-03 0.0 
-6.266636571038e-03 -2.785663340339e+01 0.0 
0.0 0.0 -1.599463962090e+01 
-1.099787570844e+02 1.796165637217e+01 0.0 
1.796165637217e+01 -2.889780494310e+02 0.0 
0.0 0.0 -1.192870419546e+02 
-6.063521639567e+01 1.449409853668e+01 0.0 
1.449409853668e+01 -1.801379411696e+02 0.0 
0.0 0.0 -7.183194726959e+01 
-1.270658845275e+02 2.261921894856e+01 0.0 
2.261921894856e+01 -3.180453532248e+02 0.0 
0.0 0.0 -1.331333713257e+02 
-1.294159921041e+02 4.053175682658e-01 0.0 
4.053175682658e-01 -3.224370412199e+02 0.0 
0.0 0.0 -1.351559099972e+02 
-7.573040088530e+01 9.576060336047e+00 0.0 
9.576060336047e+00 -2.211225429675e+02 0.0 
0.0 0.0 -8.865588315583e+01 
-1.468903836080e+02 5.972773396931e+00 0.0 
5.972773396931e+00 -3.552390746159e+02 0.0 
0.0 0.0 -1.502388374672e+02 
-4.797194943057e+01 4.334394659857e+00 0.0 
4.334394659857e+00 -1.497129553943e+02 0.0 
0.0 0.0 -5.890547144745e+01 
-1.205534737669e+02 2.300937258938e+01 0.0 
2.300937258938e+01 -3.051925021840e+02 0.0 
0.0 0.0 -1.273237927853e+02 
-7.347707432016e+01 2.208827936056e+01 0.0 
2.208827936056e+01 -1.962762381007e+02 0.0 
0.0 0.0 -8.052599372625e+01 
-8.486355652677e+01 2.142950995053e+01 0.0 
2.142950995053e+01 -2.277803844682e+02 0.0 
0.0 0.0 -9.339318229850e+01 
-1.234829669109e+02 1.443485831155e+01 0.0 
1.443485831155e+01 -3.154670063931e+02 0.0 
0.0 0.0 -1.312849919912e+02 
-5.845241383534e+01 -2.068987098082e-01 0.0 
-2.068987098082e-01 -1.688036038255e+02 0.0 
0.0 0.0 -6.777680529825e+01 
-7.579549815775e+01 2.418027727226e+01 0.0 
2.418027727226e+01 -1.865809571087e+02 0.0 
0.0 0.0 -7.831293657993e+01 
-7.256676414564e+01 7.691140442930e+00 0.0 
7.691140442930e+00 -2.136518625149e+02 0.0 
0.0 0.0 -8.546558799816e+01 
-7.233720024686e+01 2.583281498991e+01 0.0 
2.583281498991e+01 -1.710791823256e+02 0.0 
0.0 0.0 -7.262491477175e+01 
-3.844124149601e+01 1.264532181242e+01 0.0 
1.264532181242e+01 -1.140170408510e+02 0.0 
0.0 0.0 -4.533748470410e+01 
-8.943726970843e+01 2.089521088628e+01 0.0 
2.089521088628e+01 -2.414733751901e+02 0.0 
0.0 0.0 -9.887319346956e+01 
-6.704314835931e+01 5.372289074541e+00 0.0 
5.372289074541e+00 -2.045694145265e+02 0.0 
0.0 0.0 -8.108376886576e+01 
-9.238586019382e+01 1.614080273743e+00 0.0 
1.614080273743e+00 -2.511969878597e+02 0.0 
0.0 0.0 -1.026748544161e+02 
-7.195048623247e+01 2.434788572150e+01 0.0 
2.434788572150e+01 -1.706309034081e+02 0.0 
0.0 0.0 -7.237441689217e+01 
-2.032922159541e+01 7.502333358257e+00 0.0 
7.502333358257e+00 -2.420406726066e+01 0.0 
0.0 0.0 -1.295998665682e+01 
-7.876489802722e+01 1.551186189760e+01 0.0 
1.551186189760e+01 -2.274372447755e+02 0.0 
0.0 0.0 -9.146064284081e+01 
-2.309929032097e+01 1.215839671951e+01 0.0 
1.215839671951e+01 -3.225256962244e+01 0.0 
0.0 0.0 -1.620555798302e+01 
-2.326027630056e+01 -2.575147832901e+00 0.0 
-2.575147832901e+00 -6.361931391195e+01 0.0 
0.0 0.0 -2.566387706375e+01 
-8.833143877031e+01 8.316520383508e-01 0.0 
8.316520383508e-01 -2.409004462112e+02 0.0 
0.0 0.0 -9.836956549446e+01 
-9.666341328064e+01 2.834345511500e+01 0.0 
2.834345511500e+01 -2.279923586069e+02 0.0 
0.0 0.0 -9.699673156626e+01 
-7.079817846102e+01 1.700021329590e+01 0.0 
1.700021329590e+01 -1.156359240575e+02 0.0 
0.0 0.0 -5.553023075555e+01 
-3.037649894217e+01 2.019468259162e+01 0.0 
2.019468259162e+01 -2.339100429026e+01 0.0 
0.0 0.0 -1.573025096973e+01 
-9.648982307106e+01 1.948413192901e+01 0.0 
1.948413192901e+01 -2.264762538325e+02 0.0 
0.0 0.0 -9.648982307106e+01 
-2.120256565606e+01 1.227844636290e+01 0.0 
1.227844636290e+01 -1.279187940535e+01 0.0 
0.0 0.0 -9.905911534843e+00 
-3.082291057770e+01 2.030824260575e+01 0.0 
2.030824260575e+01 -2.327149180411e+01 0.0 
0.0 0.0 -1.582832071454e+01 
-7.949996200840e+01 6.207856417696e+00 0.0 
6.207856417696e+00 -2.325678156070e+02 0.0 
0.0 0.0 -9.322033328461e+01 
-8.568607450887e+01 1.530984162505e+00 0.0 
1.530984162505e+00 -2.314836736921e+02 0.0 
0.0 0.0 -9.475092446029e+01 
-4.305747166627e+01 2.382489017376e+01 0.0 
2.382489017376e+01 -6.305031965993e+01 0.0 
0.0 0.0 -3.143233739786e+01 
-5.073199863811e+01 1.520560177625e+00 0.0 
1.520560177625e+00 -1.603662307247e+02 0.0 
0.0 0.0 -6.292946880884e+01 
-8.677286810633e+01 6.795787235198e+00 0.0 
6.795787235198e+00 -2.436420037997e+02 0.0 
0.0 0.0 -9.872446157180e+01 
-7.709690851958e+01 2.368235999603e+01 0.0 
2.368235999603e+01 -1.996124437356e+02 0.0 
0.0 0.0 -8.261280567655e+01 
-8.743214674450e+01 1.679840858862e+01 0.0 
1.679840858862e+01 -2.455811411540e+02 0.0 
0.0 0.0 -9.950398636956e+01 
-9.665273036354e+01 2.687239531003e+01 0.0 
2.687239531003e+01 -2.182546193843e+02 0.0 
0.0 0.0 -9.407220492434e+01 
-2.497070824632e+01 6.633333070253e+00 0.0 
6.633333070253e+00 -6.613702089495e+01 0.0 
0.0 0.0 -2.693231874238e+01 
-8.011524206837e+01 1.126268823527e-01 0.0 
1.126268823527e-01 -2.219187984738e+02 0.0 
0.0 0.0 -9.021021216264e+01 
-8.860016355884e+01 2.194023002865e-01 0.0 
2.194023002865e-01 -2.392908204979e+02 0.0 
0.0 0.0 -9.796729521702e+01 
-4.497396438370e+01 -1.678920776528e+00 0.0 
-1.678920776528e+00 -1.278532057564e+02 0.0 
0.0 0.0 -5.144815104203e+01 
-4.588525741855e+01 1.105227173674e+01 0.0 
1.105227173674e+01 -4.869264468460e+01 0.0 
0.0 0.0 -2.797337063094e+01 
-7.257142549913e+01 2.087812819583e+01 0.0 
2.087812819583e+01 -1.171670814189e+02 0.0 
0.0 0.0 -5.652155207540e+01 
-1.157390751515e+02 1.144783524800e+00 0.0 
1.144783524800e+00 -2.946644195789e+02 0.0 
0.0 0.0 -1.227210484191e+02 
-1.596250056737e+01 -9.786939387050e-01 0.0 
-9.786939387050e-01 -4.268800568346e+01 0.0 
0.0 0.0 -1.719515187525e+01 
-2.002969481655e+01 -1.699491052749e-01 0.0 
-1.699491052749e-01 -2.540797526506e+01 0.0 
0.0 0.0 -1.323130102448e+01 
-3.236973503497e+01 -2.325384912592e+00 0.0 
-2.325384912592e+00 -8.911557914057e+01 0.0 
0.0 0.0 -3.604559425266e+01 
-8.971629194167e+01 1.579220739142e+00 0.0 
1.579220739142e+00 -2.400813959097e+02 0.0 
0.0 0.0 -9.853930635540e+01 
-5.414461882246e+01 5.544993656518e+00 0.0 
5.544993656518e+00 -1.674532935985e+02 0.0 
0.0 0.0 -6.607937372628e+01 
-4.938803854367e+01 2.151883344695e+00 0.0 
2.151883344695e+00 -1.519477865258e+02 0.0 
0.0 0.0 -6.000074752084e+01 
-4.229011941972e+01 3.160179441735e+00 0.0 
3.160179441735e+00 -1.319624399310e+02 0.0 
0.0 0.0 -5.187576780523e+01 
-9.270476563807e+01 8.100848157221e-01 0.0 
8.100848157221e-01 -2.495498489282e+02 0.0 
0.0 0.0 -1.022763843699e+02 
-7.881986385410e+01 2.183158294280e+01 0.0 
2.183158294280e+01 -1.487434921176e+02 0.0 
0.0 0.0 -6.786900679152e+01 
-9.281945614744e+01 1.913465051358e-01 0.0 
1.913465051358e-01 -2.479038278406e+02 0.0 
0.0 0.0 -1.018169851964e+02 
-5.179218109708e+01 5.436977976419e+00 0.0 
5.436977976419e+00 -1.664326746736e+02 0.0 
0.0 0.0 -6.506745673122e+01 
-8.026417675614e+01 2.654122885078e+01 0.0 
2.654122885078e+01 -1.898997893662e+02 0.0 
0.0 0.0 -8.064918983669e+01 
-4.529272722850e+01 1.881700011171e+00 0.0 
1.881700011171e+00 -5.904977046343e+01 0.0 
0.0 0.0 -3.090274930758e+01 
-1.006607266886e+02 1.989892167023e+01 0.0 
1.989892167023e+01 -2.691884568644e+02 0.0 
0.0 0.0 -1.105547550659e+02 
-9.374093034246e+01 1.574546703718e+00 0.0 
1.574546703718e+00 -2.486248788375e+02 0.0 
0.0 0.0 -1.023097427540e+02 
-9.396187200538e+01 2.131456604641e+00 0.0 
2.131456604641e+00 -2.504125897321e+02 0.0 
0.0 0.0 -1.029123385212e+02 
-2.887849963053e+01 1.926816735142e+01 0.0 
1.926816735142e+01 -2.222032881883e+01 0.0 
0.0 0.0 -1.492964853481e+01 
-5.816147290000e+01 5.021038715567e+00 0.0 
5.021038715567e+00 -1.777338326205e+02 0.0 
0.0 0.0 -7.036859165613e+01 
-9.702587976087e+01 1.124352327763e-01 0.0 
1.124352327763e-01 -2.564016643670e+02 0.0 
0.0 0.0 -1.056282632384e+02 
-5.507603487319e+01 -4.085735082552e-01 0.0 
-4.085735082552e-01 -9.908929849276e+01 0.0 
0.0 0.0 -4.584960000978e+01 
-4.811318162063e+01 -5.599149818626e-01 0.0 
-5.599149818626e-01 -8.078994977652e+01 0.0 
0.0 0.0 -3.827093941914e+01 
-2.952286852373e+01 1.973444120088e+01 0.0 
1.973444120088e+01 -2.276899240693e+01 0.0 
0.0 0.0 -1.528755827920e+01 
-9.708754726048e+01 7.323163463007e-01 0.0 
7.323163463007e-01 -2.581910245189e+02 0.0 
0.0 0.0 -1.061835715338e+02 
-5.055243643933e+01 5.301341161671e-01 0.0 
5.301341161671e-01 -1.525150407572e+02 0.0 
0.0 0.0 -6.052024315895e+01 
-2.541888675464e+01 1.325622653110e+01 0.0 
1.325622653110e+01 -4.814067490136e+01 0.0 
0.0 0.0 -2.166786849680e+01 
-1.230915835682e+02 2.423009913046e+01 0.0 
2.423009913046e+01 -3.066498448795e+02 0.0 
0.0 0.0 -1.285224285343e+02 
-2.903589747880e+01 -3.593508841626e+00 0.0 
-3.593508841626e+00 -8.058390800593e+01 0.0 
0.0 0.0 -3.248594164542e+01 
-5.193207221912e+01 -8.897811220837e-02 0.0 
-8.897811220837e-02 -1.604796876283e+02 0.0 
0.0 0.0 -6.332352795424e+01 
-7.588924115764e+01 1.687787359922e+01 0.0 
1.687787359922e+01 -2.154795862740e+02 0.0 
0.0 0.0 -8.701064822948e+01 
-2.655246594348e+01 1.761726688836e+01 0.0 
1.761726688836e+01 -2.069168957064e+01 0.0 
0.0 0.0 -1.377324665423e+01 
-9.780471149361e+01 1.507882413153e+00 0.0 
1.507882413153e+00 -2.572246104571e+02 0.0 
0.0 0.0 -1.061087965852e+02 
-4.322992374118e+01 5.912145006675e-01 0.0 
5.912145006675e-01 -1.201602649542e+02 0.0 
0.0 0.0 -4.861705660862e+01 
-5.182429679308e+01 1.375355496536e+01 0.0 
1.375355496536e+01 -5.457519103418e+01 0.0 
0.0 0.0 -3.151984634818e+01 
-9.812379078380e+01 2.073608072820e+00 0.0 
2.073608072820e+00 -2.589644676066e+02 0.0 
0.0 0.0 -1.067264775171e+02 
-7.400234021014e+01 5.643215217797e+00 0.0 
5.643215217797e+00 -2.156330777091e+02 0.0 
0.0 0.0 -8.649062537577e+01 
-8.563122636981e+01 2.083276049200e+00 0.0 
2.083276049200e+00 -2.332659700922e+02 0.0 
0.0 0.0 -9.526915893859e+01 
-2.122985279652e+01 4.634452681544e+00 0.0 
4.634452681544e+00 -3.011769167503e+01 0.0 
0.0 0.0 -1.500426334146e+01 
-7.559320476827e+01 1.550157538678e+00 0.0 
1.550157538678e+00 -1.579297274760e+02 0.0 
0.0 0.0 -6.965687967329e+01 
-5.957767238138e+01 3.047041757119e+00 0.0 
3.047041757119e+00 -1.793937346455e+02 0.0 
0.0 0.0 -7.129142210807e+01 
-1.195985072347e+02 1.596729507385e+01 0.0 
1.596729507385e+01 -3.107820441304e+02 0.0 
0.0 0.0 -1.287141654095e+02 
-8.639429945757e+01 2.254679924064e+01 0.0 
2.254679924064e+01 -2.287223758593e+02 0.0 
0.0 0.0 -9.413500259506e+01 
-1.014479589568e+02 5.928344824306e-01 0.0 
5.928344824306e-01 -2.667550229795e+02 0.0 
0.0 0.0 -1.100608945809e+02 
-1.022678545018e+02 1.916497098777e+00 0.0 
1.916497098777e+00 -2.674277198259e+02 0.0 
0.0 0.0 -1.105086722983e+02 
-4.935273677632e+01 3.635627632115e+00 0.0 
3.635627632115e+00 -1.588916775891e+02 0.0 
0.0 0.0 -6.207332430961e+01 
-2.326191014869e+01 -3.212400258906e+00 0.0 
-3.212400258906e+00 -5.466703012340e+01 0.0 
0.0 0.0 -2.297868208163e+01 
-1.921582490692e+01 6.432754119806e+00 0.0 
6.432754119806e+00 -2.978132738547e+01 0.0 
0.0 0.0 -1.429914568772e+01 
-1.058442157730e+02 3.939282991191e-01 0.0 
3.939282991191e-01 -2.753098505617e+02 0.0 
0.0 0.0 -1.139462199004e+02 
-1.212987757708e+02 1.352994373603e+01 0.0 
1.352994373603e+01 -3.145779801887e+02 0.0 
0.0 0.0 -1.303630267879e+02 
-5.146653835642e+01 -5.012533746712e-01 0.0 
-5.012533746712e-01 -1.519727333372e+02 0.0 
0.0 0.0 -6.063178150809e+01 
-8.359885815741e+01 2.484274388536e+01 0.0 
2.484274388536e+01 -2.051049306293e+02 0.0 
0.0 0.0 -8.621113663602e+01 
-3.142180780409e+01 1.936370255422e+01 0.0 
1.936370255422e+01 -5.842809116198e+01 0.0 
0.0 0.0 -2.655496968982e+01 
-8.405407409945e+01 2.731288907578e+01 0.0 
2.731288907578e+01 -1.928922492388e+02 0.0 
0.0 0.0 -8.268389700148e+01 
-1.457303869413e+02 1.178139745974e+01 0.0 
1.178139745974e+01 -3.567831097857e+02 0.0 
0.0 0.0 -1.503540490181e+02 
-2.313856113888e+01 -3.485724924119e-01 0.0 
-3.485724924119e-01 -6.795700926442e+00 0.0 
0.0 0.0 -8.580278619598e+00 
-9.032075741229e+01 1.884374387388e+00 0.0 
1.884374387388e+00 -2.120817672953e+02 0.0 
0.0 0.0 -9.032075741229e+01 
-1.635770344156e+02 1.455760618669e+00 0.0 
1.455760618669e+00 -3.830130803031e+02 0.0 
0.0 0.0 -1.635770344156e+02 
-3.540060606296e+01 7.414547758699e-01 0.0 
7.414547758699e-01 -4.907244937091e+01 0.0 
0.0 0.0 -2.494191663016e+01 
-6.077981703434e+01 1.581263821655e+00 0.0 
1.581263821655e+00 -1.797822392293e+02 0.0 
0.0 0.0 -7.176861687908e+01 
-8.159092765248e+01 2.308395167503e+01 0.0 
2.308395167503e+01 -2.143828091789e+02 0.0 
0.0 0.0 -8.839212104940e+01 
-5.023783522199e+01 6.211005043124e+00 0.0 
6.211005043124e+00 -1.567905143494e+02 0.0 
0.0 0.0 -6.170850487141e+01 
-2.085170591938e+01 -1.355438622684e+00 0.0 
-1.355438622684e+00 -5.526448526767e+01 0.0 
0.0 0.0 -2.243485735612e+01 
-1.990243212312e+01 1.126849402029e+01 0.0 
1.126849402029e+01 -1.483953890334e+01 0.0 
0.0 0.0 -1.002259130794e+01 
-8.350343064846e+01 5.934381962485e+00 0.0 
5.934381962485e+00 -1.761386791681e+02 0.0 
0.0 0.0 -7.749263294498e+01 
-7.650769079141e+01 2.329202075924e+01 0.0 
2.329202075924e+01 -1.336747628006e+02 0.0 
0.0 0.0 -6.265473607761e+01 
-4.559948056437e+01 1.232169077432e+01 0.0 
1.232169077432e+01 -3.867027938668e+01 0.0 
0.0 0.0 -2.488092798532e+01 
-1.340734750086e+02 3.309665533338e+01 0.0 
3.309665533338e+01 -3.189653470482e+02 0.0 
0.0 0.0 -1.355116466170e+02 
-3.594301085750e+01 5.370493131099e-01 0.0 
5.370493131099e-01 -1.005104013662e+02 0.0 
0.0 0.0 -4.053602366711e+01 
-1.362919162476e+02 3.179485052365e+01 0.0 
3.179485052365e+01 -3.257390801864e+02 0.0 
0.0 0.0 -1.382092989302e+02 
-7.500981921869e+01 1.974489531141e+01 0.0 
1.974489531141e+01 -1.321741655983e+02 0.0 
0.0 0.0 -6.175519544511e+01 
-6.168071411363e+01 5.848991853826e-01 0.0 
5.848991853826e-01 -1.790829050669e+02 0.0 
0.0 0.0 -7.182908575417e+01 
-7.669368917692e+01 2.051674876650e+01 0.0 
2.051674876650e+01 -2.098670185926e+02 0.0 
0.0 0.0 -8.556821233086e+01 
-5.563149891361e+01 -2.126297813627e-01 0.0 
-2.126297813627e-01 -1.691953570774e+02 0.0 
0.0 0.0 -6.704805679731e+01 
-2.628921636274e+01 1.464703832615e+01 0.0 
1.464703832615e+01 -5.036789969318e+01 0.0 
0.0 0.0 -2.259713481678e+01 
-5.283324160449e+01 -1.191696518932e+00 0.0 
-1.191696518932e+00 -1.593782072142e+02 0.0 
0.0 0.0 -6.326343464561e+01 
-8.254891130623e+01 2.347955647064e+01 0.0 
2.347955647064e+01 -1.655510733721e+02 0.0 
0.0 0.0 -7.402999540351e+01 
-1.348553013515e+02 2.609112152371e+00 0.0 
2.609112152371e+00 -3.326689551641e+02 0.0 
0.0 0.0 -1.398572769547e+02 
-5.447482403310e+01 1.159090898650e+00 0.0 
1.159090898650e+00 -1.694771429165e+02 0.0 
0.0 0.0 -6.678559008489e+01 
-8.729924174619e+01 2.565954797768e+01 0.0 
2.565954797768e+01 -2.081904155437e+02 0.0 
0.0 0.0 -8.824689718698e+01 
-1.859946602390e+01 -5.785287870267e-01 0.0 
-5.785287870267e-01 -8.464301088512e+00 0.0 
0.0 0.0 -8.620385656966e+00 
-5.316332785308e+01 3.060590536135e+00 0.0 
3.060590536135e+00 -1.686552603943e+02 0.0 
0.0 0.0 -6.614557647422e+01 
-8.707083735484e+01 2.313197609942e+01 0.0 
2.313197609942e+01 -1.617961772145e+02 0.0 
0.0 0.0 -7.426010437081e+01 
-5.327735406255e+01 -1.855935266856e+00 0.0 
-1.855935266856e+00 -1.571981845043e+02 0.0 
0.0 0.0 -6.274266157004e+01 
-4.856257390276e+01 -1.235511378752e+00 0.0 
-1.235511378752e+00 -1.418547948263e+02 0.0 
0.0 0.0 -5.672521061873e+01 
-7.795378206436e+01 2.137280930100e+01 0.0 
2.137280930100e+01 -2.106011602014e+02 0.0 
0.0 0.0 -8.616648267972e+01 
-2.745669429214e+01 -2.882461306362e+00 0.0 
-2.882461306362e+00 -7.736466706028e+01 0.0 
0.0 0.0 -3.104640840573e+01 
-2.713811649129e+01 1.817420658751e+01 0.0 
1.817420658751e+01 -2.074058326551e+01 0.0 
0.0 0.0 -1.396360992704e+01 
-2.938502935793e+01 2.009176300188e+01 0.0 
2.009176300188e+01 -2.213647559884e+01 0.0 
0.0 0.0 -1.505645148703e+01 
-4.682926244924e+01 -2.498536419034e+00 0.0 
-2.498536419034e+00 -1.383383259506e+02 0.0 
0.0 0.0 -5.515027651996e+01 
-8.191994566404e+01 7.016298997254e+00 0.0 
7.016298997254e+00 -2.338049383964e+02 0.0 
0.0 0.0 -9.431746521813e+01 
-6.623840632774e+01 1.524715156618e+01 0.0 
1.524715156618e+01 -1.968701135807e+02 0.0 
0.0 0.0 -7.853255597253e+01 
-8.838990235245e+01 2.732941113848e+01 0.0 
2.732941113848e+01 -2.089275742622e+02 0.0 
0.0 0.0 -8.879524298438e+01 
-1.021108221697e+02 2.733243452691e+01 0.0 
2.733243452691e+01 -2.290327239251e+02 0.0 
0.0 0.0 -9.894306382844e+01 
-2.652902811440e+01 1.790812709511e+01 0.0 
1.790812709511e+01 -2.082678189327e+01 0.0 
0.0 0.0 -1.380674300230e+01 
-6.259272781977e+01 1.479962334718e+00 0.0 
1.479962334718e+00 -1.190044816216e+02 0.0 
0.0 0.0 -5.407916283240e+01 
-1.106377826851e+02 2.907663118547e+01 0.0 
2.907663118547e+01 -2.634689829181e+02 0.0 
0.0 0.0 -1.118320296810e+02 
-4.566353174164e+01 4.365014510993e+00 0.0 
4.365014510993e+00 -1.487421665080e+02 0.0 
0.0 0.0 -5.792170947488e+01 
-2.476760498210e+01 1.420555099262e+01 0.0 
1.420555099262e+01 -3.286099610278e+01 0.0 
0.0 0.0 -1.688858032547e+01 
-3.461032072161e+01 2.127166329072e+01 0.0 
2.127166329072e+01 -6.100671585458e+01 0.0 
0.0 0.0 -2.828511097286e+01 
-7.857550425357e+01 5.426021020174e+00 0.0 
5.426021020174e+00 -2.252934031519e+02 0.0 
0.0 0.0 -9.076067222163e+01 
-8.664287224640e+01 2.581911834099e+01 0.0 
2.581911834099e+01 -1.950215068532e+02 0.0 
0.0 0.0 -8.409931372989e+01 
-7.614276836579e+01 4.623930024760e+00 0.0 
4.623930024760e+00 -2.240879710795e+02 0.0 
0.0 0.0 -8.966922183359e+01 
-2.425895669527e+01 5.705478572167e+00 0.0 
5.705478572167e+00 -5.054020208554e+01 0.0 
0.0 0.0 -2.203974763424e+01 
-9.039815769709e+01 8.413904391459e+00 0.0 
8.413904391459e+00 -2.520904781118e+02 0.0 
0.0 0.0 -1.023465907427e+02 
-2.766101771019e+01 1.607566093316e+01 0.0 
1.607566093316e+01 -5.259740060777e+01 0.0 
0.0 0.0 -2.367752549539e+01 
-6.796801865121e+01 1.565091148775e+01 0.0 
1.565091148775e+01 -1.976867076926e+02 0.0 
0.0 0.0 -7.929641790314e+01 
-8.431601841835e+01 5.826586057701e+00 0.0 
5.826586057701e+00 -2.423870385844e+02 0.0 
0.0 0.0 -9.761091710082e+01 
-8.109922755139e+01 1.987395879633e+01 0.0 
1.987395879633e+01 -2.235704239988e+02 0.0 
0.0 0.0 -9.100089546505e+01 
-5.478275336113e+01 1.780569125325e+00 0.0 
1.780569125325e+00 -9.430655239836e+01 0.0 
0.0 0.0 -4.432679172785e+01 
-4.856259438173e+01 -1.544650472227e+00 0.0 
-1.544650472227e+00 -1.392611239665e+02 0.0 
0.0 0.0 -5.594711550446e+01 
-2.381094352109e+01 1.139315729420e+01 0.0 
1.139315729420e+01 -4.444724428315e+01 0.0 
0.0 0.0 -2.007745634127e+01 
-9.310971355239e+01 7.094234399120e+00 0.0 
7.094234399120e+00 -2.609854869168e+02 0.0 
0.0 0.0 -1.058285601407e+02 
-2.847008142268e+01 1.702864875707e+01 0.0 
1.702864875707e+01 -5.378851785085e+01 0.0 
0.0 0.0 -2.427757978206e+01 
-1.905106575617e+01 4.266008257161e-01 0.0 
4.266008257161e-01 -2.507985994622e+01 0.0 
0.0 0.0 -1.283927771071e+01 
-8.111462988929e+01 6.764291594562e-02 0.0 
6.764291594562e-02 -1.768886920293e+02 0.0 
0.0 0.0 -7.700099657559e+01 
-7.555156015933e+01 -1.843626856175e-01 0.0 
-1.843626856175e-01 -1.580099782239e+02 0.0 
0.0 0.0 -6.966846151498e+01 
-1.357077937755e+01 -1.750118653318e+00 0.0 
-1.750118653318e+00 -2.469853063859e+01 0.0 
0.0 0.0 -1.146284083841e+01 
-9.942209045302e+01 9.829220439533e+00 0.0 
9.829220439533e+00 -2.705590070270e+02 0.0 
0.0 0.0 -1.105943292440e+02 
-3.859753354267e+01 -2.174705903367e+00 0.0 
-2.174705903367e+00 -1.085683410154e+02 0.0 
0.0 0.0 -4.374976236742e+01 
-4.026789216986e+01 -3.127371042957e+00 0.0 
-3.127371042957e+00 -1.159617726706e+02 0.0 
0.0 0.0 -4.646889945214e+01 
-9.522205339834e+01 2.662060815152e+01 0.0 
2.662060815152e+01 -2.272184429925e+02 0.0 
0.0 0.0 -9.633214891724e+01 
-8.270308482684e+01 2.068400667551e+01 0.0 
2.068400667551e+01 -2.244091463426e+02 0.0 
0.0 0.0 -9.173366935083e+01 
-9.163493677202e+01 2.575481023805e+01 0.0 
2.575481023805e+01 -2.238716651194e+02 0.0 
0.0 0.0 -9.425198056742e+01 
-5.557706129587e+01 3.333084201253e+00 0.0 
3.333084201253e+00 -1.697448601069e+02 0.0 
0.0 0.0 -6.719657642082e+01 
-2.686435420418e+01 -1.563077279407e-01 0.0 
-1.563077279407e-01 -2.768060277574e+01 0.0 
0.0 0.0 -1.596348709398e+01 
-1.504004982255e+02 1.035251529766e+01 0.0 
1.035251529766e+01 -3.599789162510e+02 0.0 
0.0 0.0 -1.527138243429e+02 
-3.399498940282e+01 -3.318093683166e+00 0.0 
-3.318093683166e+00 -9.644264409362e+01 0.0 
0.0 0.0 -3.873129004893e+01 
-1.156991948147e+02 1.736121506517e+01 0.0 
1.736121506517e+01 -2.999441695175e+02 0.0 
0.0 0.0 -1.242930092997e+02 
-7.115887042642e+01 1.764695264628e+01 0.0 
1.764695264628e+01 -2.023141615531e+02 0.0 
0.0 0.0 -8.164190959384e+01 
-2.748507692787e+01 -1.395125773311e+00 0.0 
-1.395125773311e+00 -7.641655513112e+01 0.0 
0.0 0.0 -3.077048961770e+01 
-8.290921984147e+01 2.507974530796e+01 0.0 
2.507974530796e+01 -1.785806072246e+02 0.0 
0.0 0.0 -7.804694811982e+01 
-5.574871905024e+01 4.742080171987e+00 0.0 
4.742080171987e+00 -1.766455255506e+02 0.0 
0.0 0.0 -6.931827338025e+01 
-1.854040353344e+01 -2.720381495596e+00 0.0 
-2.720381495596e+00 -4.201889910602e+01 0.0 
0.0 0.0 -1.776779079184e+01 
-4.705636600565e+01 2.007216463250e+00 0.0 
2.007216463250e+00 -1.509284547737e+02 0.0 
0.0 0.0 -5.899544623381e+01 
-1.114768173836e+02 -6.903819325754e-01 0.0 
-6.903819325754e-01 -2.862593878383e+02 0.0 
0.0 0.0 -1.189208615666e+02 
-8.380268801716e+01 2.641178548423e+01 0.0 
2.641178548423e+01 -1.670599020574e+02 0.0 
0.0 0.0 -7.485877702236e+01 
-2.794715791206e+01 -2.712155039867e+00 0.0 
-2.712155039867e+00 -7.353776317276e+01 0.0 
0.0 0.0 -3.004547632545e+01 
-8.818655753150e+01 5.879245603936e-01 0.0 
5.879245603936e-01 -2.341934558985e+02 0.0 
0.0 0.0 -9.631400402900e+01 
-9.089096882957e+01 2.631342031089e+01 0.0 
2.631342031089e+01 -2.114203863982e+02 0.0 
0.0 0.0 -9.029340656833e+01 
-1.069401113084e+02 2.303628822363e+01 0.0 
2.303628822363e+01 -2.754507489182e+02 0.0 
0.0 0.0 -1.143172580680e+02 
-4.984545118797e+01 -1.930365763648e+00 0.0 
-1.930365763648e+00 -1.489788076305e+02 0.0 
0.0 0.0 -5.924727764555e+01 
-4.289996238989e+01 -1.092306792736e+00 0.0 
-1.092306792736e+00 -1.200721127325e+02 0.0 
0.0 0.0 -4.849162253671e+01 
-7.397928414335e+01 1.626235212927e+01 0.0 
1.626235212927e+01 -2.145467976733e+02 0.0 
0.0 0.0 -8.615782454501e+01 
-5.122475077860e+01 8.714008675352e-01 0.0 
8.714008675352e-01 -8.852743593442e+01 0.0 
0.0 0.0 -4.152565601391e+01 
-1.900411296973e+01 -2.662779575359e+00 0.0 
-2.662779575359e+00 -4.138282018659e+01 0.0 
0.0 0.0 -1.771607994690e+01 
-1.200223767839e+02 3.266145365667e+01 0.0 
3.266145365667e+01 -2.851602351247e+02 0.0 
0.0 0.0 -1.211547835726e+02 
-1.024915464476e+02 2.687186042297e+01 0.0 
2.687186042297e+01 -2.323198631745e+02 0.0 
0.0 0.0 -1.000434228866e+02 
-4.039451933578e+01 8.353807641108e-01 0.0 
8.353807641108e-01 -6.092420486027e+01 0.0 
0.0 0.0 -2.999561725882e+01 
-9.477181733769e+01 1.533771226330e+01 0.0 
1.533771226330e+01 -1.981712432824e+02 0.0 
0.0 0.0 -8.748291818602e+01 
-1.081221758260e+02 2.925965502113e+01 0.0 
2.925965502113e+01 -2.489192742170e+02 0.0 
0.0 0.0 -1.067124350129e+02 
-5.713522214544e+01 2.599409903277e+00 0.0 
2.599409903277e+00 -1.782473164249e+02 0.0 
0.0 0.0 -7.021476157111e+01 
-5.685363814937e+01 1.658150527305e+00 0.0 
1.658150527305e+00 -1.706111727525e+02 0.0 
0.0 0.0 -6.783944327055e+01 
-1.375808448619e+02 2.170137181967e+01 0.0 
2.170137181967e+01 -3.390887719751e+02 0.0 
0.0 0.0 -1.426008850511e+02 
-1.827153006925e+01 5.662496814652e-01 0.0 
5.662496814652e-01 -8.671891372236e+00 0.0 
0.0 0.0 -8.633638615233e+00 
-3.914770745187e+01 -8.456821024667e-01 0.0 
-8.456821024667e-01 -1.094937939844e+02 0.0 
0.0 0.0 -4.419245043088e+01 
-8.954735969548e+01 -7.264906859636e-01 0.0 
-7.264906859636e-01 -2.386032699986e+02 0.0 
0.0 0.0 -9.804518890822e+01 
-5.180659106793e+01 -1.072411938306e+00 0.0 
-1.072411938306e+00 -1.500272256591e+02 0.0 
0.0 0.0 -6.015014501810e+01 
-4.824753376367e+01 1.405108674514e-01 0.0 
1.405108674514e-01 -1.514627425342e+02 0.0 
0.0 0.0 -5.951308288937e+01 
-2.593143661449e+01 1.752681047248e+01 0.0 
1.752681047248e+01 -1.939208414782e+01 0.0 
0.0 0.0 -1.319705622869e+01 
-2.889142166347e+01 1.951626252117e+01 0.0 
1.951626252117e+01 -2.175359436756e+01 0.0 
0.0 0.0 -1.479350480931e+01 
-4.633892792294e+01 2.906453467011e+00 0.0 
2.906453467011e+00 -6.215683303907e+01 0.0 
0.0 0.0 -3.214872828860e+01 
-5.172388210990e+01 3.768680262225e+00 0.0 
3.768680262225e+00 -1.599261686581e+02 0.0 
0.0 0.0 -6.309501523041e+01 
-4.543938870398e+01 -1.528993243442e+00 0.0 
-1.528993243442e+00 -1.278190809996e+02 0.0 
0.0 0.0 -5.157754091108e+01 
-9.837135093836e+01 2.215447523622e+01 0.0 
2.215447523622e+01 -2.595777839349e+02 0.0 
0.0 0.0 -1.069847404620e+02 
-1.588990784413e+02 8.415017969328e+00 0.0 
8.415017969328e+00 -3.781439501610e+02 0.0 
0.0 0.0 -1.607129085807e+02 
-1.574134176453e+02 1.002528526382e+01 0.0 
1.002528526382e+01 -3.758069613906e+02 0.0 
0.0 0.0 -1.595661137108e+02 
-5.842424379126e+01 9.294564939453e-01 0.0 
9.294564939453e-01 -1.786169774302e+02 0.0 
0.0 0.0 -7.071236636644e+01 
-4.079955808550e+01 1.654763070592e+00 0.0 
1.654763070592e+00 -4.549657057015e+01 0.0 
0.0 0.0 -2.548883859669e+01 
-2.234290136945e+01 -1.559002340045e-01 0.0 
-1.559002340045e-01 -2.057218627367e+01 0.0 
0.0 0.0 -1.247452629294e+01 
-2.590203256812e+01 1.712463623792e+01 0.0 
1.712463623792e+01 -2.009290633435e+01 0.0 
0.0 0.0 -1.339848167074e+01 
-2.869958213285e+01 -2.175505174364e+00 0.0 
-2.175505174364e+00 -7.258533666402e+01 0.0 
0.0 0.0 -2.998547563906e+01 
-2.655317706510e+01 1.763067528785e+01 0.0 
1.763067528785e+01 -2.052923131413e+01 0.0 
0.0 0.0 -1.372472251377e+01 
-7.918772829155e+01 1.876933004023e+01 0.0 
1.876933004023e+01 -2.200300616435e+02 0.0 
0.0 0.0 -8.936533698051e+01 
-4.932113827670e+01 -1.126895030603e+00 0.0 
-1.126895030603e+00 -1.509481638622e+02 0.0 
0.0 0.0 -5.968079064167e+01 
-5.309292673821e+01 1.853504384635e+00 0.0 
1.853504384635e+00 -1.614417272577e+02 0.0 
0.0 0.0 -6.396039619877e+01 
-2.325966229861e+01 -1.534569943130e+00 0.0 
-1.534569943130e+00 -4.103933637674e+01 0.0 
0.0 0.0 -1.888969960261e+01 
-7.539425209828e+01 1.234624631982e+00 0.0 
1.234624631982e+00 -1.607600952300e+02 0.0 
0.0 0.0 -7.044630419848e+01 
-5.418436852375e+01 4.894163965056e-01 0.0 
4.894163965056e-01 -1.615550469868e+02 0.0 
0.0 0.0 -6.432182465315e+01 
-8.161580365598e+01 4.206704808889e+00 0.0 
4.206704808889e+00 -1.749548784534e+02 0.0 
0.0 0.0 -7.657120463282e+01 
-7.230603704097e+01 2.418118647878e+00 0.0 
2.418118647878e+00 -1.453773866196e+02 0.0 
0.0 0.0 -6.490502709818e+01 
-9.333700012018e+01 2.104541350669e+00 0.0 
2.104541350669e+00 -2.127922684439e+02 0.0 
0.0 0.0 -9.143878056922e+01 
-1.610394422128e+02 1.680088217358e+00 0.0 
1.680088217358e+00 -3.820802205417e+02 0.0 
0.0 0.0 -1.625358988264e+02 
-4.040386505310e+01 -5.245509313632e-01 0.0 
-5.245509313632e-01 -6.137730062163e+01 0.0 
0.0 0.0 -3.013434970242e+01 
-5.788064418094e+01 4.861238028789e-01 0.0 
4.861238028789e-01 -1.703159513171e+02 0.0 
0.0 0.0 -6.805897864942e+01 
-2.687892464401e+01 1.839715855698e+01 0.0 
1.839715855698e+01 -2.059860213623e+01 0.0 
0.0 0.0 -1.384325803407e+01 
-5.948995958496e+01 -2.721464230422e-01 0.0 
-2.721464230422e-01 -1.779508304315e+02 0.0 
0.0 0.0 -7.083223700495e+01 
-1.627683027341e+02 6.649221370712e+00 0.0 
6.649221370712e+00 -3.811260397129e+02 0.0 
0.0 0.0 -1.627683027341e+02 
-2.341539565655e+01 1.501043918268e+01 0.0 
1.501043918268e+01 -1.838187605689e+01 0.0 
0.0 0.0 -1.213918151403e+01 
-2.460335267216e+01 1.608934101295e+01 0.0 
1.608934101295e+01 -1.927643810312e+01 0.0 
0.0 0.0 -1.276393723259e+01 
-1.195370462109e+02 1.935959152992e+01 0.0 
1.935959152992e+01 -3.062050347138e+02 0.0 
0.0 0.0 -1.273226242774e+02 
-3.678748104044e+01 7.586279530359e-01 0.0 
7.586279530359e-01 -4.574323530674e+01 0.0 
0.0 0.0 -2.435921490415e+01 
-8.150261817878e+01 2.396409729851e+00 0.0 
2.396409729851e+00 -1.767385779359e+02 0.0 
0.0 0.0 -7.707235883439e+01 
-9.208691757119e+01 2.812519473760e+01 0.0 
2.812519473760e+01 -2.120947596020e+02 0.0 
0.0 0.0 -9.085450315197e+01 
-1.141538501241e+02 2.324705799483e+01 0.0 
2.324705799483e+01 -2.921133869885e+02 0.0 
0.0 0.0 -1.214801711338e+02 
-9.552431038738e+01 2.856566704854e+01 0.0 
2.856566704854e+01 -2.048423454926e+02 0.0 
0.0 0.0 -8.970999676401e+01 
-4.256894172536e+01 -2.284734526717e-01 0.0 
-2.284734526717e-01 -6.474687055711e+01 0.0 
0.0 0.0 -3.179474368474e+01 
-4.550243449716e+01 -1.786520844813e+00 0.0 
-1.786520844813e+00 -1.312958717450e+02 0.0 
0.0 0.0 -5.263949187266e+01 
-4.375808872259e+01 -2.612350382348e+00 0.0 
-2.612350382348e+00 -1.303994946510e+02 0.0 
0.0 0.0 -5.184727501209e+01 
-5.865790836138e+01 -1.048292047148e-01 0.0 
-1.048292047148e-01 -1.081864832469e+02 0.0 
0.0 0.0 -4.965331748248e+01 
-1.107555329346e+02 2.495306572141e+01 0.0 
2.495306572141e+01 -2.795637985248e+02 0.0 
0.0 0.0 -1.166957994378e+02 
-3.717740663321e+01 3.926147133452e+00 0.0 
3.926147133452e+00 -3.022997576669e+01 0.0 
0.0 0.0 -1.982221471997e+01 
-3.386036254249e+01 -2.791618862689e-03 0.0 
-2.791618862689e-03 -4.438276857811e+01 0.0 
0.0 0.0 -2.307293933618e+01 
-4.064244711322e+01 4.840013170372e-01 0.0 
4.840013170372e-01 -6.030979106725e+01 0.0 
0.0 0.0 -2.988567145414e+01 
-4.347603323335e+01 1.555283575481e+00 0.0 
1.555283575481e+00 -6.603200606624e+01 0.0 
0.0 0.0 -3.245241178988e+01 
-2.428062819315e+01 -1.250131757345e+00 0.0 
-1.250131757345e+00 -6.083552245068e+01 0.0 
0.0 0.0 -2.513484519315e+01 
-4.074328411564e+01 -2.984590778510e+00 0.0 
-2.984590778510e+00 -1.194763809289e+02 0.0 
0.0 0.0 -4.766589951336e+01 
-9.049794538563e+01 7.438780005709e+00 0.0 
7.438780005709e+00 -1.981722655501e+02 0.0 
0.0 0.0 -8.620106328073e+01 
-5.178650876147e+01 2.012496546539e+00 0.0 
2.012496546539e+00 -8.542286024333e+01 0.0 
0.0 0.0 -4.076281070144e+01 
-1.380529125983e+02 2.421130794820e+01 0.0 
2.421130794820e+01 -3.349820418613e+02 0.0 
0.0 0.0 -1.415104863379e+02 
-1.062601854021e+02 3.036145369634e+01 0.0 
3.036145369634e+01 -2.327752228519e+02 0.0 
0.0 0.0 -1.013106224762e+02 
-8.369751362209e+01 2.738134538207e+01 0.0 
2.738134538207e+01 -1.795263424207e+02 0.0 
0.0 0.0 -7.856715681283e+01 
-9.188194373022e+01 1.542798615248e+01 0.0 
1.542798615248e+01 -1.860554109596e+02 0.0 
0.0 0.0 -8.298120640696e+01 
-6.429291802978e+01 -1.108730482572e+00 0.0 
-1.108730482572e+00 -1.781917857820e+02 0.0 
0.0 0.0 -7.234541114354e+01 
-5.818847446765e+01 -1.344788412110e+00 0.0 
-1.344788412110e+00 -1.627519419278e+02 0.0 
0.0 0.0 -6.588212491862e+01 
-1.402014813547e+02 9.173481860054e+00 0.0 
9.173481860054e+00 -3.449116803696e+02 0.0 
0.0 0.0 -1.451339485173e+02 
-1.748574876475e+01 -1.608542947765e+00 0.0 
-1.608542947765e+00 -2.421024925058e+01 0.0 
0.0 0.0 -1.256148407562e+01 
-4.206876515938e+01 -4.112567792750e-01 0.0 
-4.112567792750e-01 -1.158069751663e+02 0.0 
0.0 0.0 -4.696272209769e+01 
-1.382335475145e+02 3.090781050750e+01 0.0 
3.090781050750e+01 -3.238782775339e+02 0.0 
0.0 0.0 -1.382335475145e+02 
-2.025207745085e+01 4.924847823193e-01 0.0 
4.924847823193e-01 -5.779736281814e+01 0.0 
0.0 0.0 -2.301483208070e+01 
-3.379163086313e+01 -8.956067610493e-03 0.0 
-8.956067610493e-03 -4.439313148001e+01 0.0 
0.0 0.0 -2.305542870294e+01 
-1.312919467761e+02 1.812698046558e+01 0.0 
1.812698046558e+01 -3.305046409830e+02 0.0 
0.0 0.0 -1.381389763277e+02 
-1.752328995858e+01 -2.402423682881e+00 0.0 
-2.402423682881e+00 -3.934608338582e+01 0.0 
0.0 0.0 -1.666081200332e+01 
-1.039128381976e+01 -8.177965974992e-01 0.0 
-8.177965974992e-01 -2.408256033455e+01 0.0 
0.0 0.0 -9.942153246293e+00 
-9.796643304804e+01 1.314837473841e+01 0.0 
1.314837473841e+01 -2.192262197028e+02 0.0 
0.0 0.0 -9.475779582526e+01 
-2.825541763738e+01 -5.204674258422e-01 0.0 
-5.204674258422e-01 -2.773371351991e+01 0.0 
0.0 0.0 -1.639673934719e+01 
-9.043636851792e+01 9.635918448188e+00 0.0 
9.635918448188e+00 -1.955314372036e+02 0.0 
0.0 0.0 -8.539034171645e+01 
-1.322331019912e+02 1.889695133068e+01 0.0 
1.889695133068e+01 -3.276325407797e+02 0.0 
0.0 0.0 -1.375596928313e+02 
-2.790328966264e+01 1.988366020794e-01 0.0 
1.988366020794e-01 -2.745131280445e+01 0.0 
0.0 0.0 -1.620638074013e+01 
-2.269430828158e+01 6.858466351774e-01 0.0 
6.858466351774e-01 -2.144277786813e+01 0.0 
0.0 0.0 -1.284112584491e+01 
-8.578444558970e+01 2.275284457277e+00 0.0 
2.275284457277e+00 -1.944347403417e+02 0.0 
0.0 0.0 -8.366575577941e+01 
-2.291084245066e+01 -9.228980767147e-01 0.0 
-9.228980767147e-01 -6.358907806718e+01 0.0 
0.0 0.0 -2.554997615535e+01 
-8.462464253904e+01 8.119777406166e+00 0.0 
8.119777406166e+00 -1.821876841944e+02 0.0 
0.0 0.0 -7.964369802004e+01 
-1.630686978121e+02 5.113515942027e+00 0.0 
5.113515942027e+00 -3.818269615617e+02 0.0 
0.0 0.0 -1.630686978121e+02 
-1.016221339491e+02 2.682289628237e+01 0.0 
2.682289628237e+01 -2.178411573448e+02 0.0 
0.0 0.0 -9.543898738819e+01 
-2.724610318612e+01 -1.223270551700e+00 0.0 
-1.223270551700e+00 -7.868220838539e+01 0.0 
0.0 0.0 -3.137849347145e+01 
-5.155741251777e+01 6.009499214906e+00 0.0 
6.009499214906e+00 -6.665095395244e+01 0.0 
0.0 0.0 -3.506250994106e+01 
-6.574475211361e+01 8.740972941181e-02 0.0 
8.740972941181e-02 -1.811463459483e+02 0.0 
0.0 0.0 -7.366732941856e+01 
-1.008488305285e+02 2.310807147334e+01 0.0 
2.310807147334e+01 -2.607386976761e+02 0.0 
0.0 0.0 -1.080762584614e+02 
-1.438110136445e+02 2.774856416789e+01 0.0 
2.774856416789e+01 -3.433844128984e+02 0.0 
0.0 0.0 -1.457586279629e+02 
-6.625196655250e+01 4.616509042593e-01 0.0 
4.616509042593e-01 -1.297756847095e+02 0.0 
0.0 0.0 -5.840829537861e+01 
-1.447409367503e+02 2.503586620445e+01 0.0 
2.503586620445e+01 -3.484380067850e+02 0.0 
0.0 0.0 -1.475536830606e+02 
-2.044201012039e+01 -1.571428014075e+00 0.0 
-1.571428014075e+00 -4.005188361035e+01 0.0 
0.0 0.0 -1.774816811922e+01 
-1.525198460000e+02 7.037373346484e+00 0.0 
7.037373346484e+00 -3.659600271772e+02 0.0 
0.0 0.0 -1.551439619532e+02 
-3.060179876664e+01 -1.323616328236e+00 0.0 
-1.323616328236e+00 -8.899912902418e+01 0.0 
0.0 0.0 -3.548027833725e+01 
-2.020872916042e+01 -1.168444611046e+00 0.0 
-1.168444611046e+00 -5.774205245521e+01 0.0 
0.0 0.0 -2.298523448469e+01 
-1.432912464703e+02 1.723251147916e+01 0.0 
1.723251147916e+01 -3.504905908110e+02 0.0 
0.0 0.0 -1.477345511844e+02 
-1.013653693755e+02 2.139448718747e+01 0.0 
2.139448718747e+01 -2.152793975750e+02 0.0 
0.0 0.0 -9.459343008513e+01 
-9.372412314057e+01 1.363183291682e+01 0.0 
1.363183291682e+01 -2.055165413309e+02 0.0 
0.0 0.0 -8.937219934144e+01 
-3.379184289410e+01 -6.443510535570e-01 0.0 
-6.443510535570e-01 -4.309826371816e+01 0.0 
0.0 0.0 -2.266703198368e+01 
-5.711782623226e+01 1.124454133830e+01 0.0 
1.124454133830e+01 -7.604236978859e+01 0.0 
0.0 0.0 -3.954805880625e+01 
-2.597697539642e+01 1.342058043204e+01 0.0 
1.342058043204e+01 -5.031893575481e+01 0.0 
0.0 0.0 -2.248877334537e+01 
-1.129180309274e+02 3.209575842116e+01 0.0 
3.209575842116e+01 -2.541923737316e+02 0.0 
0.0 0.0 -1.097331213977e+02 
-5.465625295138e+01 -1.149427551168e+00 0.0 
-1.149427551168e+00 -1.513772772763e+02 0.0 
0.0 0.0 -6.141005906831e+01 
-2.136729573416e+01 6.911138552280e+00 0.0 
6.911138552280e+00 -4.036058609418e+01 0.0 
0.0 0.0 -1.811836454850e+01 
-1.045192704154e+02 2.208286058450e+01 0.0 
2.208286058450e+01 -2.742416993792e+02 0.0 
0.0 0.0 -1.132282909384e+02 
-2.661784559409e+01 9.216766377970e-02 0.0 
9.216766377970e-02 -2.701880248648e+01 0.0 
0.0 0.0 -1.569099442417e+01 
-9.421205794074e+01 1.916158135967e+01 0.0 
1.916158135967e+01 -2.005525337262e+02 0.0 
0.0 0.0 -8.802937750007e+01 
-9.219596138617e+01 8.861123433416e-01 0.0 
8.861123433416e-01 -2.106914455356e+02 0.0 
0.0 0.0 -9.046622207653e+01 
-9.049808610932e+01 8.648696548135e-01 0.0 
8.648696548135e-01 -2.124955342551e+02 0.0 
0.0 0.0 -9.049808610932e+01 
-1.445227479028e+00 3.163077746344e-01 0.0 
3.163077746344e-01 -6.656632323194e+00 0.0 
0.0 0.0 -2.030557940667e+00 
-3.635597117114e+00 -2.853517444919e-01 0.0 
-2.853517444919e-01 -1.043164167891e+01 0.0 
0.0 0.0 -4.456678188969e+00 
-2.750733668551e+01 6.071096589447e-01 0.0 
6.071096589447e-01 -2.967226279105e+01 0.0 
0.0 0.0 -1.675387984297e+01 
-2.635378385208e+01 -1.379789376143e-01 0.0 
-1.379789376143e-01 -2.710037264168e+01 0.0 
0.0 0.0 -1.563624694813e+01 
-1.638141400186e+02 6.520277132489e-01 0.0 
6.520277132489e-01 -3.835663267100e+02 0.0 
0.0 0.0 -1.638141400186e+02 
-1.606217471367e+02 -6.068639236963e-01 0.0 
-6.068639236963e-01 -3.804642614072e+02 0.0 
0.0 0.0 -1.619258025632e+02 
-8.106093769969e+00 -7.720671499886e-01 0.0 
-7.720671499886e-01 -2.307874275307e+01 0.0 
0.0 0.0 -8.955450956911e+00 
-1.773303746903e+01 -4.994238534000e-01 0.0 
-4.994238534000e-01 -8.278533493587e+00 0.0 
0.0 0.0 -8.303897635991e+00 
-1.450229616260e+02 3.116356412619e+00 0.0 
3.116356412619e+00 -3.513601148084e+02 0.0 
0.0 0.0 -1.485149229303e+02 
-1.154311928281e+02 2.744574744376e+01 0.0 
2.744574744376e+01 -2.867121529557e+02 0.0 
0.0 0.0 -1.202430037351e+02 
-2.755454163141e+01 -1.030100670176e+00 0.0 
-1.030100670176e+00 -7.450394358899e+01 0.0 
0.0 0.0 -3.021754556612e+01 
-1.457134476600e+02 7.443597322620e+00 0.0 
7.443597322620e+00 -3.528386258588e+02 0.0 
0.0 0.0 -1.491656220556e+02 
-9.690869103226e+01 3.608511671686e-01 0.0 
3.608511671686e-01 -2.543170904802e+02 0.0 
0.0 0.0 -1.049677344537e+02 
-8.161323147528e+01 7.784538219469e-01 0.0 
7.784538219469e-01 -2.199688449131e+02 0.0 
0.0 0.0 -9.007462291653e+01 
-5.458782968193e+01 5.643195798935e-01 0.0 
5.643195798935e-01 -9.531783377006e+01 0.0 
0.0 0.0 -4.457169903560e+01 
-2.687010467980e+01 -2.985045572994e+00 0.0 
-2.985045572994e+00 -6.898253921789e+01 0.0 
0.0 0.0 -2.835579316931e+01 
-9.162036535666e+01 2.192786593288e+01 0.0 
2.192786593288e+01 -2.425919696884e+02 0.0 
0.0 0.0 -9.986370051353e+01 
-2.262384825612e+01 -1.588525092229e+00 0.0 
-1.588525092229e+00 -5.983530101407e+01 0.0 
0.0 0.0 -2.433774478106e+01 
-7.361420781658e+01 5.263976630717e-01 0.0 
5.263976630717e-01 -2.002607163973e+02 0.0 
0.0 0.0 -8.176247726418e+01 
-1.058433935721e+02 2.872982319820e+01 0.0 
2.872982319820e+01 -2.413963320131e+02 0.0 
0.0 0.0 -1.037719176756e+02 
-7.947338214793e+01 9.756384250295e-01 0.0 
9.756384250295e-01 -1.694795177130e+02 0.0 
0.0 0.0 -7.428586995829e+01 
-8.168290914534e+01 -3.991103004663e-01 0.0 
-3.991103004663e-01 -2.190629442726e+02 0.0 
0.0 0.0 -8.982375602538e+01 
-4.621445859018e+01 1.030401336699e+00 0.0 
1.030401336699e+00 -7.475817799741e+01 0.0 
0.0 0.0 -3.589179097628e+01 
-1.135213091625e+02 3.047865297628e+01 0.0 
3.047865297628e+01 -2.745826066494e+02 0.0 
0.0 0.0 -1.160311747436e+02 
-9.955647467138e+01 2.933443203962e+01 0.0 
2.933443203962e+01 -2.200005848212e+02 0.0 
0.0 0.0 -9.546711784778e+01 
-9.160864386963e+01 2.827498071297e+01 0.0 
2.827498071297e+01 -1.997350699996e+02 0.0 
0.0 0.0 -8.700311416077e+01 
-2.748339857365e+01 -1.019933454790e-01 0.0 
-1.019933454790e-01 -2.772716395085e+01 0.0 
0.0 0.0 -1.616316875735e+01 
-8.790400632167e+01 2.014897102871e+01 0.0 
2.014897102871e+01 -2.381965818287e+02 0.0 
0.0 0.0 -9.743017644511e+01 
-9.589175358271e+01 2.244313387297e+01 0.0 
2.244313387297e+01 -2.065214106775e+02 0.0 
0.0 0.0 -9.032394927805e+01 
-4.084133143638e+01 -1.091048899425e+00 0.0 
-1.091048899425e+00 -1.151226007597e+02 0.0 
0.0 0.0 -4.638917965884e+01 
-1.517131344820e+01 -1.577896287396e+00 0.0 
-1.577896287396e+00 -2.518822415722e+01 0.0 
0.0 0.0 -1.170786128163e+01 
-1.093215861255e+02 2.931992707736e+01 0.0 
2.931992707736e+01 -2.600968920339e+02 0.0 
0.0 0.0 -1.104255434478e+02 
-1.134801516296e+02 1.633876487689e+01 0.0 
1.633876487689e+01 -2.988976263741e+02 0.0 
0.0 0.0 -1.233133334011e+02 
-2.286107608222e+01 -2.846718637568e+00 0.0 
-2.846718637568e+00 -5.735390346205e+01 0.0 
0.0 0.0 -2.366449386328e+01 
-5.977971898074e+01 1.369368267936e+00 0.0 
1.369368267936e+00 -1.096466065510e+02 0.0 
0.0 0.0 -5.042789765953e+01 
-1.536465833713e+02 3.923620901834e+00 0.0 
3.923620901834e+00 -3.658165186548e+02 0.0 
0.0 0.0 -1.554389306078e+02 
-1.097357930149e+02 2.687154171230e+01 0.0 
2.687154171230e+01 -2.712952216018e+02 0.0 
0.0 0.0 -1.139093043850e+02 
-1.155403703251e+02 3.025291740942e+01 0.0 
3.025291740942e+01 -2.810603449388e+02 0.0 
0.0 0.0 -1.185802145792e+02 
-1.060530365254e+02 1.103295502628e+00 0.0 
1.103295502628e+00 -2.743504647752e+02 0.0 
0.0 0.0 -1.137210503902e+02 
-1.782405107739e+01 4.484694121819e+00 0.0 
4.484694121819e+00 -2.108224573207e+01 0.0 
0.0 0.0 -1.154868009207e+01 
-2.717071643222e+01 1.849967920485e+01 0.0 
1.849967920485e+01 -1.979736395690e+01 0.0 
0.0 0.0 -1.369042411673e+01 
-2.865236580882e+01 1.651135846695e+01 0.0 
1.651135846695e+01 -5.389544648487e+01 0.0 
0.0 0.0 -2.436434368811e+01 
-5.307864084424e+01 6.629905815184e+00 0.0 
6.629905815184e+00 -6.580800693340e+01 0.0 
0.0 0.0 -3.526599433329e+01 
-8.583566751564e+01 1.917863612116e+01 0.0 
1.917863612116e+01 -2.371490233151e+02 0.0 
0.0 0.0 -9.649540724921e+01 
-8.583875339159e+01 7.231292890096e+00 0.0 
7.231292890096e+00 -1.841649378728e+02 0.0 
0.0 0.0 -8.060110737932e+01 
-1.400050597560e+02 2.089294866417e+01 0.0 
2.089294866417e+01 -3.387364995527e+02 0.0 
0.0 0.0 -1.432224677926e+02 
-2.206031468886e+01 -2.573789491385e+00 0.0 
-2.573789491385e+00 -4.167768897493e+01 0.0 
0.0 0.0 -1.872140109914e+01 
-1.991637964036e+01 -2.894471352384e+00 0.0 
-2.894471352384e+00 -4.056736839870e+01 0.0 
0.0 0.0 -1.774512441172e+01 
-2.729876291266e+01 1.798785441274e+01 0.0 
1.798785441274e+01 -2.058192500734e+01 0.0 
0.0 0.0 -1.396420637600e+01 
-6.154587751727e+01 3.677227170561e-01 0.0 
3.677227170561e-01 -1.150514578223e+02 0.0 
0.0 0.0 -5.257920060186e+01 
-5.079314403448e+01 -3.101739736199e-01 0.0 
-3.101739736199e-01 -1.411485975669e+02 0.0 
0.0 0.0 -5.718252248041e+01 
-9.450905063055e+01 1.761042601924e+01 0.0 
1.761042601924e+01 -1.965342397513e+02 0.0 
0.0 0.0 -8.691298711456e+01 
-2.606951182058e+01 -2.953555231276e-01 0.0 
-2.953555231276e-01 -7.138698072306e+01 0.0 
0.0 0.0 -2.883694776309e+01 
-1.286021643576e+02 1.966253078624e+01 0.0 
1.966253078624e+01 -3.218562178293e+02 0.0 
0.0 0.0 -1.347375146561e+02 
-4.408371537517e+01 7.481552635272e-01 0.0 
7.481552635272e-01 -6.052993346756e+01 0.0 
0.0 0.0 -3.098409465282e+01 
-1.328384862740e+02 2.727542927941e+01 0.0 
2.727542927941e+01 -3.180520683328e+02 0.0 
0.0 0.0 -1.348671663820e+02 
-1.049477951672e+02 2.530506802808e+01 0.0 
2.530506802808e+01 -2.657512482748e+02 0.0 
0.0 0.0 -1.108097130326e+02 
-5.589249921827e+01 9.920918432016e+00 0.0 
9.920918432016e+00 -6.803173256228e+01 0.0 
0.0 0.0 -3.677726953416e+01 
-1.455570970481e+02 1.408270443235e+01 0.0 
1.408270443235e+01 -3.554790597266e+02 0.0 
0.0 0.0 -1.499108470324e+02 
-9.864698430013e+01 1.897145244193e+01 0.0 
1.897145244193e+01 -2.119789232427e+02 0.0 
0.0 0.0 -9.278777226286e+01 
-8.882445926670e+01 1.253521321297e+00 0.0 
1.253521321297e+00 -1.966356015036e+02 0.0 
0.0 0.0 -8.523801823110e+01 
-2.645211634811e+01 1.704399049650e+01 0.0 
1.704399049650e+01 -1.953183329885e+01 0.0 
0.0 0.0 -1.339518489409e+01 
-8.847702351583e+01 1.338969660306e+01 0.0 
1.338969660306e+01 -1.843794689381e+02 0.0 
0.0 0.0 -8.145694773618e+01 
-1.193689812041e+02 3.091783252925e+01 0.0 
3.091783252925e+01 -2.815336923725e+02 0.0 
0.0 0.0 -1.198708020730e+02 
-1.283014556677e+02 2.079949845103e+01 0.0 
2.079949845103e+01 -3.224165890680e+02 0.0 
0.0 0.0 -1.348154134207e+02 
-1.077384272441e+02 2.341023016513e+01 0.0 
2.341023016513e+01 -2.777919297479e+02 0.0 
0.0 0.0 -1.152591070976e+02 
-1.618323332887e+02 8.648470824654e+00 0.0 
8.648470824654e+00 -3.789421110070e+02 0.0 
0.0 0.0 -1.618323332887e+02 
-8.985446992337e+01 2.588223183699e+01 0.0 
2.588223183699e+01 -1.985215794200e+02 0.0 
0.0 0.0 -8.611281480300e+01 
-1.747249014762e+01 4.276514023008e+00 0.0 
4.276514023008e+00 -9.675573192206e+00 0.0 
0.0 0.0 -8.696161902474e+00 
-2.349350482120e+01 9.539507834303e+00 0.0 
9.539507834303e+00 -4.440585917038e+01 0.0 
0.0 0.0 -1.996980919747e+01 
-1.022855443094e+02 2.958622678657e+01 0.0 
2.958622678657e+01 -2.250459656308e+02 0.0 
0.0 0.0 -9.779945298206e+01 
-5.758187369772e+01 6.361196645497e+00 0.0 
6.361196645497e+00 -8.123577735747e+01 0.0 
0.0 0.0 -4.124529531656e+01 
-1.449824492733e+02 2.809783901796e+00 0.0 
2.809783901796e+00 -3.511639253925e+02 0.0 
0.0 0.0 -1.484439123997e+02 
-1.149789716069e+02 2.675861111639e+01 0.0 
2.675861111639e+01 -2.844830993216e+02 0.0 
0.0 0.0 -1.194386212785e+02 
-1.536265052572e+02 7.657456184951e+00 0.0 
7.657456184951e+00 -3.657534565228e+02 0.0 
0.0 0.0 -1.554139885340e+02 
-6.931583572959e+01 1.156342702111e+00 0.0 
1.156342702111e+00 -1.363152502478e+02 0.0 
0.0 0.0 -6.128932579323e+01 
-1.353486809167e+02 2.618872060437e+01 0.0 
2.618872060437e+01 -3.239575589050e+02 0.0 
0.0 0.0 -1.373918719465e+02 
-1.410952766516e+02 1.256376035667e+01 0.0 
1.256376035667e+01 -3.453634616752e+02 0.0 
0.0 0.0 -1.455376214980e+02 
-1.396738522316e+02 1.153389074914e+01 0.0 
1.153389074914e+01 -3.446229685132e+02 0.0 
0.0 0.0 -1.448890462234e+02 
-5.299482343417e+01 -2.985952014787e-01 0.0 
-2.985952014787e-01 -1.466402886421e+02 0.0 
0.0 0.0 -5.949053362289e+01 
-1.596011156972e+02 7.291178042654e+00 0.0 
7.291178042654e+00 -3.794338063207e+02 0.0 
0.0 0.0 -1.613104766054e+02 
-3.858034812211e+01 1.856909729347e+00 0.0 
1.856909729347e+00 -4.514505972168e+01 0.0 
0.0 0.0 -2.471762235314e+01 
-8.329214132391e+01 4.185787664616e+00 0.0 
4.185787664616e+00 -1.778150933406e+02 0.0 
0.0 0.0 -7.793217039936e+01 
-1.789830886932e+01 -2.579441966596e+00 0.0 
-2.579441966596e+00 -4.108008925638e+01 0.0 
0.0 0.0 -1.729351943771e+01 
-7.849691298992e+01 2.031291995110e+00 0.0 
2.031291995110e+00 -1.624385561957e+02 0.0 
0.0 0.0 -7.188064075569e+01 
-6.105789751794e+01 1.259354482978e+00 0.0 
1.259354482978e+00 -1.116125390348e+02 0.0 
0.0 0.0 -5.140113096582e+01 
-1.495989278010e+01 9.257225101619e-02 0.0 
9.257225101619e-02 -4.218913219732e+01 0.0 
0.0 0.0 -1.674470749322e+01 
-2.669277896821e+01 -6.418191061209e-01 0.0 
-6.418191061209e-01 -7.003946303662e+01 0.0 
0.0 0.0 -2.861967260145e+01 
-9.389238808374e+01 2.665210103544e+01 0.0 
2.665210103544e+01 -2.144171661553e+02 0.0 
0.0 0.0 -9.209286627170e+01 
-8.862420266678e+01 9.639858137124e+00 0.0 
9.639858137124e+00 -1.979138488235e+02 0.0 
0.0 0.0 -8.556141544707e+01 
-8.323562422410e+01 2.378283362930e+00 0.0 
2.378283362930e+00 -1.803874202491e+02 0.0 
0.0 0.0 -7.868691334195e+01 
-1.306802014473e+02 2.497802994130e+01 0.0 
2.497802994130e+01 -3.229794833139e+02 0.0 
0.0 0.0 -1.356979054284e+02 
-4.649587054732e+01 -1.056753547187e-01 0.0 
-1.056753547187e-01 -7.394670010493e+01 0.0 
0.0 0.0 -3.573277119567e+01 
-1.269746426893e+01 -1.645420114353e+00 0.0 
-1.645420114353e+00 -2.467952748015e+01 0.0 
0.0 0.0 -1.081309752472e+01 
-2.197647478993e+01 2.322753837480e+00 0.0 
2.322753837480e+00 -3.441987235965e+01 0.0 
0.0 0.0 -1.651890414488e+01 
-1.242160179818e+01 -2.195866715728e+00 0.0 
-2.195866715728e+00 -2.824598962740e+01 0.0 
0.0 0.0 -1.179169228480e+01 
-2.297305441224e+01 -2.507749558886e+00 0.0 
-2.507749558886e+00 -5.455937589298e+01 0.0 
0.0 0.0 -2.285972909157e+01 
-1.627669457130e+01 7.875229398827e+00 0.0 
7.875229398827e+00 -6.910816363212e+00 0.0 
0.0 0.0 -6.751875079674e+00 
-7.177063374598e+01 -6.883782980446e-01 0.0 
-6.883782980446e-01 -1.952876716324e+02 0.0 
0.0 0.0 -7.971749161351e+01 
-1.446066424587e+02 1.419514753442e+00 0.0 
1.419514753442e+00 -3.509606746977e+02 0.0 
0.0 0.0 -1.482701951469e+02 
-1.001041536633e+02 2.550193864831e+01 0.0 
2.550193864831e+01 -2.174649597066e+02 0.0 
0.0 0.0 -9.487073401099e+01 
-6.479841469884e+01 1.461347160299e+01 0.0 
1.461347160299e+01 -8.826085084050e+01 0.0 
0.0 0.0 -4.551777966180e+01 
-6.180010050973e+01 2.914736818101e-01 0.0 
2.914736818101e-01 -1.712031602986e+02 0.0 
0.0 0.0 -6.950097824251e+01 
-1.408919140542e+02 1.029750503703e+01 0.0 
1.029750503703e+01 -3.457470712093e+02 0.0 
0.0 0.0 -1.455916955791e+02 
-1.312499612523e+02 1.505638825875e+01 0.0 
1.505638825875e+01 -3.317876406357e+02 0.0 
0.0 0.0 -1.385112805664e+02 
-1.286337680029e+02 2.879821216593e+01 0.0 
2.879821216593e+01 -3.149053581302e+02 0.0 
0.0 0.0 -1.326617378399e+02 
-1.146043701724e+02 2.950416454853e+01 0.0 
2.950416454853e+01 -2.722120090651e+02 0.0 
0.0 0.0 -1.156449137712e+02 
-1.010488974004e+02 2.794021814841e+01 0.0 
2.794021814841e+01 -2.333879140591e+02 0.0 
0.0 0.0 -9.993104343786e+01 
-1.734905784117e+01 -2.716140821436e+00 0.0 
-2.716140821436e+00 -4.058009631822e+01 0.0 
0.0 0.0 -1.697874624782e+01 
-2.336099813150e+01 -8.907913335686e-01 0.0 
-8.907913335686e-01 -3.509323509995e+01 0.0 
0.0 0.0 -1.713626996943e+01 
-1.448282306663e+02 4.139144089181e+00 0.0 
4.139144089181e+00 -3.517580737150e+02 0.0 
0.0 0.0 -1.485758913144e+02 
-1.377378673971e+01 -4.518160975392e-01 0.0 
-4.518160975392e-01 -4.129912238594e+01 0.0 
0.0 0.0 -1.612187273769e+01 
-1.716281763156e+01 -1.122440585969e+00 0.0 
-1.122440585969e+00 -4.930037098488e+01 0.0 
0.0 0.0 -1.953895658493e+01 
-2.118913100197e+01 1.016022281166e+01 0.0 
1.016022281166e+01 -2.530658057808e+01 0.0 
0.0 0.0 -1.354871347401e+01 
-1.592785075292e+01 -1.477008425501e+00 0.0 
-1.477008425501e+00 -3.862190464844e+01 0.0 
0.0 0.0 -1.596492662041e+01 
-1.497219043403e+02 1.273490710357e+01 0.0 
1.273490710357e+01 -3.585684657834e+02 0.0 
0.0 0.0 -1.520871110371e+02 
-1.148881685126e+02 3.144450016427e+01 0.0 
3.144450016427e+01 -2.658818469762e+02 0.0 
0.0 0.0 -1.138310046466e+02 
-8.426606099688e+01 5.467240674531e+00 0.0 
5.467240674531e+00 -1.836372672867e+02 0.0 
0.0 0.0 -7.997099848506e+01 
-1.311037990656e+02 2.847342251156e+01 0.0 
2.847342251156e+01 -3.137294252934e+02 0.0 
0.0 0.0 -1.330499673077e+02 
-1.270963351924e+02 1.620997115528e+01 0.0 
1.620997115528e+01 -3.211546060392e+02 0.0 
0.0 0.0 -1.340752823695e+02 
-5.097572490575e+01 -1.609240675643e-02 0.0 
-1.609240675643e-02 -8.534491503755e+01 0.0 
0.0 0.0 -4.049619198299e+01 
-9.332584456693e+01 1.348613131671e+01 0.0 
1.348613131671e+01 -2.190936373228e+02 0.0 
0.0 0.0 -9.332584456693e+01 
-3.218185482271e+01 -2.154028250460e+00 0.0 
-2.154028250460e+00 -8.971648560096e+01 0.0 
0.0 0.0 -3.616950212710e+01 
-2.687032632354e+01 -9.874241643302e-02 0.0 
-9.874241643302e-02 -2.678765226314e+01 0.0 
0.0 0.0 -1.569739357600e+01 
-2.519041270579e+01 -3.238641151839e+00 0.0 
-3.238641151839e+00 -5.571337448552e+01 0.0 
0.0 0.0 -2.387113615739e+01 
-9.588009648800e+00 -1.183694236025e+00 0.0 
-1.183694236025e+00 -2.435390262058e+01 0.0 
0.0 0.0 -1.032943356129e+01 
-1.602338819521e+02 4.750322567152e+00 0.0 
4.750322567152e+00 -3.805797662515e+02 0.0 
0.0 0.0 -1.618440944611e+02 
-4.792246655080e+01 7.985119575442e+00 0.0 
7.985119575442e+00 -5.315948150286e+01 0.0 
0.0 0.0 -2.992458441610e+01 
-2.137357257066e+01 -1.092338279654e+00 0.0 
-1.092338279654e+00 -5.753103485209e+01 0.0 
0.0 0.0 -2.327138222683e+01 
-6.821103361853e+01 -1.148440750665e+00 0.0 
-1.148440750665e+00 -1.878311929768e+02 0.0 
0.0 0.0 -7.641266797859e+01 
-1.144645744335e+02 3.253266762683e+01 0.0 
3.253266762683e+01 -2.633174686637e+02 0.0 
0.0 0.0 -1.129346129292e+02 
-8.786270651152e+01 9.738282516437e+00 0.0 
9.738282516437e+00 -1.842377041876e+02 0.0 
0.0 0.0 -8.123012320975e+01 
-9.686984090268e+01 2.132622941532e+01 0.0 
2.132622941532e+01 -2.157348725667e+02 0.0 
0.0 0.0 -9.338141404081e+01 
-4.845836648739e+01 -1.942421423683e-02 0.0 
-1.942421423683e-02 -1.339103586714e+02 0.0 
0.0 0.0 -5.431061754762e+01 
-2.155149653593e+01 5.673209654929e-01 0.0 
5.673209654929e-01 -3.497948515302e+01 0.0 
0.0 0.0 -1.655929450669e+01 
-1.502714546091e+02 8.773703752936e+00 0.0 
8.773703752936e+00 -3.632730759346e+02 0.0 
0.0 0.0 -1.536633591631e+02 
-9.406748450491e+01 1.124620899950e+00 0.0 
1.124620899950e+00 -2.138993139352e+02 0.0 
0.0 0.0 -9.199003953202e+01 
-1.609771274816e+02 1.094484441300e+00 0.0 
1.094484441300e+00 -3.821887384393e+02 0.0 
0.0 0.0 -1.625497597763e+02 
-3.241647711792e+01 -4.885674809777e-01 0.0 
-4.885674809777e-01 -4.148985147863e+01 0.0 
0.0 0.0 -2.177189857896e+01 
-1.357352065218e+02 1.648915370291e+01 0.0 
1.648915370291e+01 -3.343012481729e+02 0.0 
0.0 0.0 -1.406109364084e+02 
-2.098945188601e+01 -8.542348306041e-01 0.0 
-8.542348306041e-01 -5.850179562755e+01 0.0 
0.0 0.0 -2.344737425407e+01 
-9.190143165373e+01 1.571500104881e+01 0.0 
1.571500104881e+01 -1.956389628476e+02 0.0 
0.0 0.0 -8.586211835040e+01 
-9.931488901234e+00 -1.148937264520e+00 0.0 
-1.148937264520e+00 -2.333125334818e+01 0.0 
0.0 0.0 -1.008658042236e+01 
-1.477986262588e+02 1.549782272158e+01 0.0 
1.549782272158e+01 -3.546098905421e+02 0.0 
0.0 0.0 -1.503225550403e+02 
-1.015985462830e+02 2.292679282707e+01 0.0 
2.292679282707e+01 -2.193913470947e+02 0.0 
0.0 0.0 -9.589696801330e+01 
-1.792637802134e+01 1.892365429891e+00 0.0 
1.892365429891e+00 -2.230533795828e+01 0.0 
0.0 0.0 -1.217878632851e+01 
-1.114132206930e+02 2.832964186037e+01 0.0 
2.832964186037e+01 -2.727352578591e+02 0.0 
0.0 0.0 -1.148445435656e+02 
-6.627742113542e+01 2.243383448013e+00 0.0 
2.243383448013e+00 -1.263454764597e+02 0.0 
0.0 0.0 -5.738686927855e+01 
-8.756991255647e+01 7.078867299847e+00 0.0 
7.078867299847e+00 -1.976823381864e+02 0.0 
0.0 0.0 -8.517567522287e+01 
-1.488825192364e+02 2.557305628350e+01 0.0 
2.557305628350e+01 -3.487258782183e+02 0.0 
0.0 0.0 -1.488825192364e+02 
-5.532640521365e+01 1.537786513230e+00 0.0 
1.537786513230e+00 -9.916321687785e+01 0.0 
0.0 0.0 -4.594688662745e+01 
-1.118288613344e+02 3.071685922393e+01 0.0 
3.071685922393e+01 -2.588856467886e+02 0.0 
0.0 0.0 -1.108143524369e+02 
-9.764849072884e+01 2.140833727967e+01 0.0 
2.140833727967e+01 -2.030717745521e+02 0.0 
0.0 0.0 -8.981607958428e+01 
-5.924652643409e+01 8.718654012349e-01 0.0 
8.718654012349e-01 -1.106335844499e+02 0.0 
0.0 0.0 -5.056403326519e+01 
-1.090972990556e+02 2.972542749736e+01 0.0 
2.972542749736e+01 -2.495229182931e+02 0.0 
0.0 0.0 -1.071860652046e+02 
-5.829936142190e+01 -1.276284158126e-01 0.0 
-1.276284158126e-01 -1.604610302956e+02 0.0 
0.0 0.0 -6.522811751525e+01 
-2.644248896037e+01 7.274974993506e-02 0.0 
7.274974993506e-02 -2.694259140207e+01 0.0 
0.0 0.0 -1.561552410873e+01 
-1.214842016203e+02 2.727252418712e+01 0.0 
2.727252418712e+01 -3.000374368481e+02 0.0 
0.0 0.0 -1.260564915405e+02 
-8.772431897778e+01 3.785246460808e-01 0.0 
3.785246460808e-01 -1.981860072401e+02 0.0 
0.0 0.0 -8.537309786537e+01 
-2.815301149465e+00 7.690619802006e-02 0.0 
7.690619802006e-02 -8.546172350820e+00 0.0 
0.0 0.0 -3.933690873252e+00 
-2.629947394026e+01 -2.297817237873e-01 0.0 
-2.297817237873e-01 -2.718525288915e+01 0.0 
0.0 0.0 -1.564541804883e+01 
-1.553869781383e+02 1.176011885056e+00 0.0 
1.176011885056e+00 -3.700442831842e+02 0.0 
0.0 0.0 -1.572293783967e+02 
-2.669961303710e+01 -2.077753846068e+00 0.0 
-2.077753846068e+00 -7.350706142336e+01 0.0 
0.0 0.0 -2.966200233814e+01 
-1.292432769931e+02 1.908172958434e+01 0.0 
1.908172958434e+01 -3.272409534652e+02 0.0 
0.0 0.0 -1.365452691375e+02 
-1.010594437875e+02 2.482196110176e+01 0.0 
2.482196110176e+01 -2.101346684568e+02 0.0 
0.0 0.0 -9.295823367329e+01 
-9.023118115252e+01 6.911244470772e+00 0.0 
6.911244470772e+00 -1.974921127100e+02 0.0 
0.0 0.0 -8.591698815877e+01 
-2.568236082829e+01 -1.516637155694e+00 0.0 
-1.516637155694e+00 -7.068659806555e+01 0.0 
0.0 0.0 -2.851068766815e+01 
-2.369779707287e+01 7.102340530087e+00 0.0 
7.102340530087e+00 -4.019212805945e+01 0.0 
0.0 0.0 -1.876697753970e+01 
-8.502145777473e+01 -1.317315069093e+00 0.0 
-1.317315069093e+00 -2.284942836851e+02 0.0 
0.0 0.0 -9.365472243796e+01 
-7.214604419567e+01 9.020860700127e-01 0.0 
9.020860700127e-01 -1.477935918134e+02 0.0 
0.0 0.0 -6.558189080272e+01 
-2.259631093717e+01 -6.255996147289e-01 0.0 
-6.255996147289e-01 -5.667137684232e+00 0.0 
0.0 0.0 -8.079034586421e+00 
-9.383687765281e+01 1.768523357974e+01 0.0 
1.768523357974e+01 -2.092290789061e+02 0.0 
0.0 0.0 -9.051978696767e+01 
-5.259193549318e+01 3.978679095500e-01 0.0 
3.978679095500e-01 -9.293148258252e+01 0.0 
0.0 0.0 -4.325702542271e+01 
-2.751534733493e+01 -2.842262567462e+00 0.0 
-2.842262567462e+00 -6.923334099460e+01 0.0 
0.0 0.0 -2.862460649886e+01 
-4.764735863503e+01 3.895419169981e-01 0.0 
3.895419169981e-01 -7.900504016184e+01 0.0 
0.0 0.0 -3.759571963906e+01 
-1.273322224593e+02 3.088573416464e+01 0.0 
3.088573416464e+01 -3.073380976949e+02 0.0 
0.0 0.0 -1.300010960463e+02 
-8.992676841625e+01 1.209663320973e+00 0.0 
1.209663320973e+00 -2.391606425589e+02 0.0 
0.0 0.0 -9.832622329256e+01 
-1.803274128961e+01 8.573069222739e+00 0.0 
8.573069222739e+00 -1.165725623602e+01 0.0 
0.0 0.0 -8.480996582313e+00 
-5.160291785123e+01 -1.350319792398e+00 0.0 
-1.350319792398e+00 -1.456177814131e+02 0.0 
0.0 0.0 -5.876620977931e+01 
-7.730813060122e+01 -4.090794087284e-01 0.0 
-4.090794087284e-01 -2.101197884540e+02 0.0 
0.0 0.0 -8.582837571656e+01 
-9.418816857093e+01 -1.329710613145e+00 0.0 
-1.329710613145e+00 -2.481698386450e+02 0.0 
0.0 0.0 -1.023074021648e+02 
-1.265171630624e+02 2.606229286992e+01 0.0 
2.606229286992e+01 -3.106626209745e+02 0.0 
0.0 0.0 -1.307539352111e+02 
-7.521282442641e+01 5.913343628356e-01 0.0 
5.913343628356e-01 -2.048615413245e+02 0.0 
0.0 0.0 -8.362230972528e+01 
-8.067999401388e+01 -2.759265232780e-01 0.0 
-2.759265232780e-01 -2.173772040185e+02 0.0 
0.0 0.0 -8.901715940971e+01 
-1.499374850557e+01 -1.867076419341e+00 0.0 
-1.867076419341e+00 -3.728482110130e+01 0.0 
0.0 0.0 -1.528357088206e+01 
-1.446946633961e+02 6.609320059628e+00 0.0 
6.609320059628e+00 -3.526756388598e+02 0.0 
0.0 0.0 -1.488110906768e+02 
-1.072840118956e+02 2.836979013653e+01 0.0 
2.836979013653e+01 -2.593718773022e+02 0.0 
0.0 0.0 -1.095967667594e+02 
-2.364475582612e+01 7.253837328876e+00 0.0 
7.253837328876e+00 -5.159453640676e+01 0.0 
0.0 0.0 -2.217178766987e+01 
-8.709626206057e+01 1.330098894103e+00 0.0 
1.330098894103e+00 -1.973266509714e+02 0.0 
0.0 0.0 -8.492687390959e+01 
-1.555136966150e+02 2.171552585504e-01 0.0 
2.171552585504e-01 -3.696853872010e+02 0.0 
0.0 0.0 -1.571597251448e+02 
-3.293841800147e+01 5.930262167132e-01 0.0 
5.930262167132e-01 -4.251222204828e+01 0.0 
0.0 0.0 -2.223519201492e+01 
-5.317880265781e+01 3.499555647273e-01 0.0 
3.499555647273e-01 -9.316029163042e+01 0.0 
0.0 0.0 -4.350172828647e+01 
-7.539075034305e+01 -7.050837727727e-01 0.0 
-7.050837727727e-01 -2.047304825629e+02 0.0 
0.0 0.0 -8.363636987179e+01 
-7.827438763611e+01 3.686656022122e-01 0.0 
3.686656022122e-01 -2.110415938359e+02 0.0 
0.0 0.0 -8.639479444161e+01 
-8.059098787504e+01 1.835460596571e-01 0.0 
1.835460596571e-01 -2.178217454277e+02 0.0 
0.0 0.0 -8.912381999082e+01 
-1.230504228737e+02 1.779846063843e+01 0.0 
1.779846063843e+01 -3.147306981030e+02 0.0 
0.0 0.0 -1.309343362930e+02 
-2.245677544477e+01 -3.316275200072e+00 0.0 
-3.316275200072e+00 -5.634399865409e+01 0.0 
0.0 0.0 -2.324023222966e+01 
-1.125959985636e+02 3.155850048665e+01 0.0 
3.155850048665e+01 -2.659424780535e+02 0.0 
0.0 0.0 -1.131615429852e+02 
-3.955038845279e+01 -8.456441919188e-02 0.0 
-8.456441919188e-02 -5.920946774942e+01 0.0 
0.0 0.0 -2.922795686066e+01 
-9.785374605688e+01 1.746877292592e+01 0.0 
1.746877292592e+01 -2.083182895757e+02 0.0 
0.0 0.0 -9.145161068976e+01 
-1.252123162191e+02 1.836926761576e+01 0.0 
1.836926761576e+01 -3.155487137932e+02 0.0 
0.0 0.0 -1.318283090037e+02 
-4.924274218934e+01 9.925349762681e-01 0.0 
9.925349762681e-01 -8.003375114837e+01 0.0 
0.0 0.0 -3.838294800132e+01 
-1.034237031801e+02 2.846531840393e+01 0.0 
2.846531840393e+01 -2.360687918298e+02 0.0 
0.0 0.0 -1.014477485030e+02 
-1.244226718732e+02 2.475187847113e+01 0.0 
2.475187847113e+01 -3.091460529812e+02 0.0 
0.0 0.0 -1.296706174563e+02 
-1.306521679126e+02 2.819869152700e+01 0.0 
2.819869152700e+01 -3.199347246681e+02 0.0 
0.0 0.0 -1.347760677742e+02 
-1.898668406098e+01 7.900844929063e+00 0.0 
7.900844929063e+00 -1.803278020985e+01 0.0 
0.0 0.0 -1.091987214231e+01 
-1.053231917963e+02 2.995923399640e+01 0.0 
2.995923399640e+01 -2.371151385631e+02 0.0 
0.0 0.0 -1.023314991078e+02 
-1.088692518478e+02 3.026139687802e+01 0.0 
3.026139687802e+01 -2.520066564986e+02 0.0 
0.0 0.0 -1.078627725039e+02 
-1.580002056975e+01 -9.914605404783e-01 0.0 
-9.914605404783e-01 -3.828569280473e+01 0.0 
0.0 0.0 -1.582571401234e+01 
-7.140835398178e+01 2.247801209210e-01 0.0 
2.247801209210e-01 -1.948565376691e+02 0.0 
0.0 0.0 -7.947946749528e+01 
-1.920521447902e+01 6.059586942459e+00 0.0 
6.059586942459e+00 -1.662297469246e+01 0.0 
0.0 0.0 -1.034845675144e+01 
-1.090342104290e+02 3.138354984091e+01 0.0 
3.138354984091e+01 -2.451562006480e+02 0.0 
0.0 0.0 -1.058571233231e+02 
-1.842514491827e+01 6.655381865799e-01 0.0 
6.655381865799e-01 -8.322605243018e+00 0.0 
0.0 0.0 -7.624325048388e+00 
-1.940245937610e+01 1.555567325658e-01 0.0 
1.555567325658e-01 -9.812870770047e+00 0.0 
0.0 0.0 -8.364599043843e+00 
-1.878474526728e+01 2.023207991068e-01 0.0 
2.023207991068e-01 -9.557754754714e+00 0.0 
0.0 0.0 -8.102750006598e+00 
-1.907942027303e+01 8.202049780859e-02 0.0 
8.202049780859e-02 -9.860228263574e+00 0.0 
0.0 0.0 -8.281894560981e+00 
-1.887194429412e+01 -7.619053689970e-03 0.0 
-7.619053689970e-03 -9.749959150972e+00 0.0 
0.0 0.0 -8.186571033528e+00 
-1.915193964481e+01 -1.088721171537e-01 0.0 
-1.088721171537e-01 -9.985978376025e+00 0.0 
0.0 0.0 -8.341375406250e+00 
-1.879080521321e+01 3.330277217604e-02 0.0 
3.330277217604e-02 -9.883386201260e+00 0.0 
0.0 0.0 -8.202257424340e+00 
-1.931202714664e+01 -5.562871721325e-02 0.0 
-5.562871721325e-02 -9.971892775748e+00 0.0 
0.0 0.0 -8.385175976715e+00 
-1.867365061902e+01 -7.946753233725e-02 0.0 
-7.946753233725e-02 -9.699568230789e+00 0.0 
0.0 0.0 -8.111965654942e+00 
-1.931317990180e+01 -2.563369099463e-01 0.0 
-2.563369099463e-01 -1.006119607019e+01 0.0 
0.0 0.0 -8.412312791596e+00 
-1.835038418005e+01 -6.956541944817e-02 0.0 
-6.956541944817e-02 -9.768820899750e+00 0.0 
0.0 0.0 -8.035761523940e+00 
-1.942097313144e+01 -2.732111970305e-01 0.0 
-2.732111970305e-01 -1.010557340438e+01 0.0 
0.0 0.0 -8.457963960745e+00 
-2.506409226908e+01 4.353543995838e+00 0.0 
4.353543995838e+00 -1.335160209476e+01 0.0 
0.0 0.0 -1.112470830915e+01 
-1.799060487653e+01 -9.715088859423e-02 0.0 
-9.715088859423e-02 -9.648448957606e+00 0.0 
0.0 0.0 -7.891716150241e+00 
-2.773147362275e+01 2.080418532081e+00 0.0 
2.080418532081e+00 -1.090633759098e+01 0.0 
0.0 0.0 -1.119134336412e+01 
-1.977301707229e+01 -4.231069687005e-01 0.0 
-4.231069687005e-01 -1.022726401020e+01 0.0 
0.0 0.0 -8.600084324748e+00 
-1.752181785919e+01 -3.492261736410e-02 0.0 
-3.492261736410e-02 -9.633985686778e+00 0.0 
0.0 0.0 -7.746741063789e+00 
-1.960177537884e+01 -3.559740857278e-01 0.0 
-3.559740857278e-01 -1.020843533926e+01 0.0 
0.0 0.0 -8.543063215428e+00 
-1.707585947317e+01 -1.158368862743e-01 0.0 
-1.158368862743e-01 -9.462092826300e+00 0.0 
0.0 0.0 -7.561385689841e+00 
-1.993883526532e+01 -5.563560264186e-01 0.0 
-5.563560264186e-01 -1.033804411758e+01 0.0 
0.0 0.0 -8.683063814870e+00 
-1.644600776503e+01 -6.331831315208e-02 0.0 
-6.331831315208e-02 -9.527534611106e+00 0.0 
0.0 0.0 -7.392062712840e+00 
-2.048733140083e+01 -5.059662574594e-01 0.0 
-5.059662574594e-01 -1.044579791485e+01 0.0 
0.0 0.0 -8.879938794702e+00 
-1.772290212921e+01 1.142642773532e+00 0.0 
1.142642773532e+00 -6.159325718747e+00 0.0 
0.0 0.0 -6.764668354388e+00 
-1.598676835488e+01 1.009952699707e-01 0.0 
1.009952699707e-01 -9.507008482485e+00 0.0 
0.0 0.0 -7.248133051209e+00 
-2.126637914224e+01 -3.199309476954e-01 0.0 
-3.199309476954e-01 -1.051897009016e+01 0.0 
0.0 0.0 -9.135604769721e+00 
-1.587889886501e+01 2.904353140922e-01 0.0 
2.904353140922e-01 -9.438994530084e+00 0.0 
0.0 0.0 -7.195368018527e+00 
-2.259937958869e+01 -9.483719333996e-02 0.0 
-9.483719333996e-02 -1.063004114810e+01 0.0 
0.0 0.0 -9.568826221039e+00 
-2.457729750670e+01 5.393877605861e-01 0.0 
5.393877605861e-01 -1.074464081549e+01 0.0 
0.0 0.0 -1.019658149666e+01 
-1.629239266208e+01 6.899014952269e-01 0.0 
6.899014952269e-01 -9.644625838289e+00 0.0 
0.0 0.0 -7.381105550111e+00 
-1.803061293574e+01 1.673241368739e+00 0.0 
1.673241368739e+00 -1.035450695150e+01 0.0 
0.0 0.0 -8.115535966170e+00 
-3.519246713231e+01 7.642207986924e+00 0.0 
7.642207986924e+00 -1.348391927340e+01 0.0 
0.0 0.0 -1.420291592171e+01 
-2.695346675465e+01 2.422429227378e+00 0.0 
2.422429227378e+00 7.900738604924e-01 0.0 
0.0 0.0 -7.394641441680e+00 
-1.923804913189e+01 1.263092453882e+00 0.0 
1.263092453882e+00 -9.936627823056e+00 0.0 
0.0 0.0 -8.352403086485e+00 
-1.945879048869e+01 -1.459234374061e+00 0.0 
-1.459234374061e+00 -8.586247470617e+00 0.0 
0.0 0.0 -8.013511387793e+00 
-2.095750564612e+01 -3.843659084315e-02 0.0 
-3.843659084315e-02 -1.450905682777e+01 0.0 
0.0 0.0 -1.023996874217e+01 
-1.785713390653e+01 -2.228126014141e-01 0.0 
-2.228126014141e-01 -4.215175661282e+00 0.0 
0.0 0.0 -6.221692870345e+00 
-3.675185370217e+01 8.859034458141e+00 0.0 
8.859034458141e+00 -1.036145777424e+01 0.0 
0.0 0.0 -1.373399344292e+01 

TENSORS element_materi_strain_total float
-8.659118785285e-04 1.863741823485e-03 0.0 
1.863741823485e-03 6.745881328992e-03 0.0 
0.0 0.0 0.0 
-6.962040322060e-04 1.435454236913e-03 0.0 
1.435454236913e-03 6.435931660685e-03 0.0 
0.0 0.0 0.0 
-2.295657584011e-04 2.434023342772e-03 0.0 
2.434023342772e-03 1.421399206547e-02 0.0 
0.0 0.0 0.0 
-3.319986452847e-04 2.128236816535e-04 0.0 
2.128236816535e-04 1.641256868794e-02 0.0 
0.0 0.0 0.0 
-1.059357860292e-03 8.909294584568e-05 0.0 
8.909294584568e-05 1.398019720406e-02 0.0 
0.0 0.0 0.0 
-3.577839884557e-04 5.080440974837e-04 0.0 
5.080440974837e-04 1.337109473931e-03 0.0 
0.0 0.0 0.0 
-9.903997730599e-04 7.500117160969e-05 0.0 
7.500117160969e-05 1.396606970662e-02 0.0 
0.0 0.0 0.0 
-7.525980520120e-04 1.693104677214e-03 0.0 
1.693104677214e-03 6.097426061947e-03 0.0 
0.0 0.0 0.0 
-1.053067605992e-03 1.164843939642e-05 0.0 
1.164843939642e-05 1.397300664510e-02 0.0 
0.0 0.0 0.0 
-3.239514610219e-04 4.196205990046e-04 0.0 
4.196205990046e-04 1.638215204925e-02 0.0 
0.0 0.0 0.0 
7.197121164528e-04 4.949450988756e-05 0.0 
4.949450988756e-05 4.855641233487e-03 0.0 
0.0 0.0 0.0 
-7.492865495921e-04 1.510310667207e-03 0.0 
1.510310667207e-03 5.631737318676e-03 0.0 
0.0 0.0 0.0 
2.527496288558e-04 1.695639239636e-04 0.0 
1.695639239636e-04 7.674415342239e-03 0.0 
0.0 0.0 0.0 
-1.335709622674e-03 4.122903575595e-04 0.0 
4.122903575595e-04 1.432717007824e-02 0.0 
0.0 0.0 0.0 
1.461944513217e-04 1.568937647011e-04 0.0 
1.568937647011e-04 7.918089737118e-03 0.0 
0.0 0.0 0.0 
-1.998350774858e-04 3.445815783656e-04 0.0 
3.445815783656e-04 1.651615015318e-02 0.0 
0.0 0.0 0.0 
-1.136744705055e-03 1.085724727927e-04 0.0 
1.085724727927e-04 1.388265261935e-02 0.0 
0.0 0.0 0.0 
-2.735058125275e-04 1.306245665821e-04 0.0 
1.306245665821e-04 1.242205172162e-03 0.0 
0.0 0.0 0.0 
2.612130243249e-04 -7.485686571183e-05 0.0 
-7.485686571183e-05 1.343129327228e-03 0.0 
0.0 0.0 0.0 
3.420306715751e-04 -1.331187934124e-05 0.0 
-1.331187934124e-05 1.385854104581e-03 0.0 
0.0 0.0 0.0 
-4.024928164982e-04 3.861845033309e-04 0.0 
3.861845033309e-04 1.638833478961e-02 0.0 
0.0 0.0 0.0 
-7.852875708528e-04 1.697697075306e-03 0.0 
1.697697075306e-03 7.654297724272e-03 0.0 
0.0 0.0 0.0 
-8.705995666600e-04 1.752961652331e-03 0.0 
1.752961652331e-03 8.311737264259e-03 0.0 
0.0 0.0 0.0 
5.086079328624e-04 1.297612773281e-03 0.0 
1.297612773281e-03 7.986119611304e-03 0.0 
0.0 0.0 0.0 
-1.430095453180e-03 8.796467211250e-04 0.0 
8.796467211250e-04 1.444857867400e-02 0.0 
0.0 0.0 0.0 
7.013573288133e-04 2.515877042974e-05 0.0 
2.515877042974e-05 5.165615950223e-03 0.0 
0.0 0.0 0.0 
-1.431775228616e-03 5.815436257585e-04 0.0 
5.815436257585e-04 1.345211700789e-02 0.0 
0.0 0.0 0.0 
2.413902983343e-04 2.711317685500e-03 0.0 
2.711317685500e-03 1.107635184616e-02 0.0 
0.0 0.0 0.0 
-1.620521379938e-03 1.021309241712e-03 0.0 
1.021309241712e-03 1.443674862210e-02 0.0 
0.0 0.0 0.0 
4.862958001230e-04 1.318640680511e-03 0.0 
1.318640680511e-03 8.133808109624e-03 0.0 
0.0 0.0 0.0 
-1.021674452280e-04 -1.576815639086e-04 0.0 
-1.576815639086e-04 1.238188276839e-03 0.0 
0.0 0.0 0.0 
-2.081810493443e-04 -1.380931489869e-04 0.0 
-1.380931489869e-04 4.871719554886e-04 0.0 
0.0 0.0 0.0 
-4.028814166882e-04 2.555844866770e-03 0.0 
2.555844866770e-03 1.438412208446e-02 0.0 
0.0 0.0 0.0 
5.265040872966e-04 1.203964286580e-05 0.0 
1.203964286580e-05 6.357134322244e-03 0.0 
0.0 0.0 0.0 
3.268845398716e-04 7.531675031297e-04 0.0 
7.531675031297e-04 7.871780695512e-03 0.0 
0.0 0.0 0.0 
1.553353388981e-04 5.913282115181e-04 0.0 
5.913282115181e-04 8.235973930377e-03 0.0 
0.0 0.0 0.0 
1.160563920262e-04 4.206890719064e-04 0.0 
4.206890719064e-04 8.225488314108e-03 0.0 
0.0 0.0 0.0 
4.432163005434e-04 1.996325371624e-03 0.0 
1.996325371624e-03 9.181133764757e-03 0.0 
0.0 0.0 0.0 
-9.690624818444e-04 -4.466792628319e-05 0.0 
-4.466792628319e-05 1.353009381636e-02 0.0 
0.0 0.0 0.0 
-9.451566691022e-04 5.604339474168e-05 0.0 
5.604339474168e-05 1.354643604732e-02 0.0 
0.0 0.0 0.0 
-9.958918151236e-04 1.835233558283e-03 0.0 
1.835233558283e-03 9.783236519245e-03 0.0 
0.0 0.0 0.0 
2.257618480972e-04 9.859516591305e-04 0.0 
9.859516591305e-04 8.142756239871e-03 0.0 
0.0 0.0 0.0 
-7.346080036249e-04 1.606539988757e-03 0.0 
1.606539988757e-03 4.491062643348e-03 0.0 
0.0 0.0 0.0 
-1.641776112726e-03 6.103816238939e-04 0.0 
6.103816238939e-04 1.359797053260e-02 0.0 
0.0 0.0 0.0 
-4.328235639199e-04 6.825140992729e-05 0.0 
6.825140992729e-05 1.624553370358e-02 0.0 
0.0 0.0 0.0 
-6.830730757390e-04 1.326910544273e-03 0.0 
1.326910544273e-03 4.465484002255e-03 0.0 
0.0 0.0 0.0 
-1.073436329763e-04 -2.090792601701e-04 0.0 
-2.090792601701e-04 8.543110644166e-04 0.0 
0.0 0.0 0.0 
-2.967726919640e-04 1.387574821973e-04 0.0 
1.387574821973e-04 1.626584002019e-02 0.0 
0.0 0.0 0.0 
-3.631953291396e-04 -1.624768396908e-04 0.0 
-1.624768396908e-04 5.795014762113e-04 0.0 
0.0 0.0 0.0 
-1.398826532189e-03 3.151259677303e-04 0.0 
3.151259677303e-04 1.417763977881e-02 0.0 
0.0 0.0 0.0 
-9.200095836115e-04 1.818916806033e-03 0.0 
1.818916806033e-03 9.012295103030e-03 0.0 
0.0 0.0 0.0 
3.511791887010e-04 -7.011836141285e-05 0.0 
-7.011836141285e-05 1.708520411001e-03 0.0 
0.0 0.0 0.0 
2.866472011400e-04 -2.218830248878e-04 0.0 
-2.218830248878e-04 1.653397933458e-03 0.0 
0.0 0.0 0.0 
-8.421753257023e-04 1.749141672448e-03 0.0 
1.749141672448e-03 9.051607873710e-03 0.0 
0.0 0.0 0.0 
-3.337065795437e-04 1.982668969968e-03 0.0 
1.982668969968e-03 1.535324460123e-02 0.0 
0.0 0.0 0.0 
4.870351371651e-04 -9.855173351445e-05 0.0 
-9.855173351445e-05 2.289731835121e-03 0.0 
0.0 0.0 0.0 
4.191510859175e-04 -7.384539260701e-06 0.0 
-7.384539260701e-06 1.764649027198e-03 0.0 
0.0 0.0 0.0 
5.442522277703e-04 8.370212248176e-05 0.0 
8.370212248176e-05 6.359103683672e-03 0.0 
0.0 0.0 0.0 
1.741011416940e-04 -1.030446941154e-04 0.0 
-1.030446941154e-04 1.013673395441e-03 0.0 
0.0 0.0 0.0 
-2.388183402058e-04 3.103190891711e-04 0.0 
3.103190891711e-04 1.651663991481e-02 0.0 
0.0 0.0 0.0 
-7.890185244745e-04 -1.523287315760e-04 0.0 
-1.523287315760e-04 6.980701961588e-04 0.0 
0.0 0.0 0.0 
5.250296718389e-04 2.295543412045e-03 0.0 
2.295543412045e-03 9.708162270591e-03 0.0 
0.0 0.0 0.0 
1.355660096627e-04 1.724575568673e-03 0.0 
1.724575568673e-03 6.201255214896e-03 0.0 
0.0 0.0 0.0 
2.154897117508e-04 -8.742330845418e-05 0.0 
-8.742330845418e-05 1.400629330289e-03 0.0 
0.0 0.0 0.0 
2.486174045193e-04 2.238761976673e-04 0.0 
2.238761976673e-04 7.684721754895e-03 0.0 
0.0 0.0 0.0 
-8.259344241908e-04 1.711933152296e-03 0.0 
1.711933152296e-03 8.338958802533e-03 0.0 
0.0 0.0 0.0 
-5.239375530498e-04 -7.757275338627e-05 0.0 
-7.757275338627e-05 5.647755918659e-04 0.0 
0.0 0.0 0.0 
-3.809350962863e-04 2.636463577442e-03 0.0 
2.636463577442e-03 1.405418589202e-02 0.0 
0.0 0.0 0.0 
1.008815956214e-04 -3.373797097944e-04 0.0 
-3.373797097944e-04 1.174450871105e-03 0.0 
0.0 0.0 0.0 
-8.364798061433e-06 2.683731076449e-03 0.0 
2.683731076449e-03 1.253772973591e-02 0.0 
0.0 0.0 0.0 
6.851873012828e-04 6.110026671011e-05 0.0 
6.110026671011e-05 5.416008197713e-03 0.0 
0.0 0.0 0.0 
0.0 1.313212056261e-03 0.0 
1.313212056261e-03 1.632960839132e-02 0.0 
0.0 0.0 0.0 
2.041411656897e-04 2.433952812581e-03 0.0 
2.433952812581e-03 1.072239581547e-02 0.0 
0.0 0.0 0.0 
1.259173457768e-04 2.694445441916e-05 0.0 
2.694445441916e-05 4.456565735225e-04 0.0 
0.0 0.0 0.0 
5.397205227682e-04 -2.507532749935e-05 0.0 
-2.507532749935e-05 2.391613037320e-03 0.0 
0.0 0.0 0.0 
-4.957687324563e-04 9.291172502487e-04 0.0 
9.291172502487e-04 1.630488770839e-02 0.0 
0.0 0.0 0.0 
-5.518391130293e-04 2.177668960036e-03 0.0 
2.177668960036e-03 1.518877592797e-02 0.0 
0.0 0.0 0.0 
-6.116635651775e-04 1.100462587135e-03 0.0 
1.100462587135e-03 3.145553323888e-03 0.0 
0.0 0.0 0.0 
2.465755557624e-04 -1.280504320326e-04 0.0 
-1.280504320326e-04 1.011734901777e-03 0.0 
0.0 0.0 0.0 
-7.136079838030e-04 1.454065615063e-03 0.0 
1.454065615063e-03 3.160584019705e-03 0.0 
0.0 0.0 0.0 
1.247934769326e-04 -2.063559838606e-04 0.0 
-2.063559838606e-04 1.154131503368e-03 0.0 
0.0 0.0 0.0 
-1.173822696512e-03 8.994581236375e-05 0.0 
8.994581236375e-05 1.391385763291e-02 0.0 
0.0 0.0 0.0 
-8.660170113700e-04 1.746636312887e-03 0.0 
1.746636312887e-03 7.625835711619e-03 0.0 
0.0 0.0 0.0 
-7.970674084813e-04 1.596036942287e-03 0.0 
1.596036942287e-03 7.030836257428e-03 0.0 
0.0 0.0 0.0 
-1.135377552916e-03 7.280713241573e-05 0.0 
7.280713241573e-05 1.421038137882e-02 0.0 
0.0 0.0 0.0 
-1.035097581439e-03 1.082718109549e-04 0.0 
1.082718109549e-04 1.421001811143e-02 0.0 
0.0 0.0 0.0 
6.440170582471e-04 3.359244051705e-05 0.0 
3.359244051705e-05 5.618514543284e-03 0.0 
0.0 0.0 0.0 
5.776041339833e-04 3.796717592618e-05 0.0 
3.796717592618e-05 6.146563638539e-03 0.0 
0.0 0.0 0.0 
-6.815964816331e-04 2.275798683598e-03 0.0 
2.275798683598e-03 1.307479806458e-02 0.0 
0.0 0.0 0.0 
-1.154161263597e-03 4.933617749070e-05 0.0 
4.933617749070e-05 1.397252465794e-02 0.0 
0.0 0.0 0.0 
-1.249674062558e-04 -1.376348660911e-04 0.0 
-1.376348660911e-04 4.621780915448e-04 0.0 
0.0 0.0 0.0 
-1.639442463407e-03 7.747426987849e-04 0.0 
7.747426987849e-04 1.389384501042e-02 0.0 
0.0 0.0 0.0 
-6.731878877225e-04 7.051305155173e-05 0.0 
7.051305155173e-05 1.546637059990e-02 0.0 
0.0 0.0 0.0 
-7.420956816646e-04 1.332034127464e-04 0.0 
1.332034127464e-04 1.541186713909e-02 0.0 
0.0 0.0 0.0 
-3.315962823827e-04 1.462305933551e-03 0.0 
1.462305933551e-03 1.626784527279e-02 0.0 
0.0 0.0 0.0 
1.785188226202e-04 2.113844153529e-03 0.0 
2.113844153529e-03 9.707329561980e-03 0.0 
0.0 0.0 0.0 
-1.281819376610e-03 1.296024105263e-04 0.0 
1.296024105263e-04 1.393181298230e-02 0.0 
0.0 0.0 0.0 
3.663549013873e-04 9.629082932397e-04 0.0 
9.629082932397e-04 8.116392830232e-03 0.0 
0.0 0.0 0.0 
-8.535769954050e-04 -8.345381841162e-06 0.0 
-8.345381841162e-06 1.453478740437e-02 0.0 
0.0 0.0 0.0 
-1.917068133875e-04 1.649412476759e-03 0.0 
1.649412476759e-03 6.587160005538e-03 0.0 
0.0 0.0 0.0 
-1.053760426800e-03 2.157614674109e-05 0.0 
2.157614674109e-05 1.375767985825e-02 0.0 
0.0 0.0 0.0 
1.636094146331e-04 2.367296819673e-04 0.0 
2.367296819673e-04 7.913081218936e-03 0.0 
0.0 0.0 0.0 
7.396586476593e-04 1.762282726880e-03 0.0 
1.762282726880e-03 8.163853968119e-03 0.0 
0.0 0.0 0.0 
3.826059990126e-04 2.203449637704e-03 0.0 
2.203449637704e-03 9.723709983655e-03 0.0 
0.0 0.0 0.0 
1.787675621048e-04 1.257119131814e-03 0.0 
1.257119131814e-03 4.907528687855e-03 0.0 
0.0 0.0 0.0 
-3.641937555787e-04 -1.911051783471e-04 0.0 
-1.911051783471e-04 9.597375522983e-04 0.0 
0.0 0.0 0.0 
3.710813940099e-04 7.570393457331e-05 0.0 
7.570393457331e-05 7.129269471835e-03 0.0 
0.0 0.0 0.0 
-6.513981538628e-04 1.580023744512e-04 0.0 
1.580023744512e-04 1.574052158240e-02 0.0 
0.0 0.0 0.0 
-6.872954239243e-04 -1.672296157310e-04 0.0 
-1.672296157310e-04 6.989047517578e-04 0.0 
0.0 0.0 0.0 
1.630206295689e-04 3.862516649357e-04 0.0 
3.862516649357e-04 7.878595267756e-03 0.0 
0.0 0.0 0.0 
-5.305243006160e-04 2.246495420522e-03 0.0 
2.246495420522e-03 1.249016353251e-02 0.0 
0.0 0.0 0.0 
9.614944069392e-05 -5.451853905842e-05 0.0 
-5.451853905842e-05 2.708617409044e-04 0.0 
0.0 0.0 0.0 
7.519903934625e-04 1.449105086535e-03 0.0 
1.449105086535e-03 5.453413632726e-03 0.0 
0.0 0.0 0.0 
-1.598220324317e-03 1.622872992521e-03 0.0 
1.622872992521e-03 1.271536352272e-02 0.0 
0.0 0.0 0.0 
6.580098509414e-04 -7.715973499416e-05 0.0 
-7.715973499416e-05 2.935674704043e-03 0.0 
0.0 0.0 0.0 
-8.519597294898e-05 1.648948605504e-03 0.0 
1.648948605504e-03 5.838049061122e-03 0.0 
0.0 0.0 0.0 
6.301779921869e-05 1.532385073494e-03 0.0 
1.532385073494e-03 6.215757978026e-03 0.0 
0.0 0.0 0.0 
2.238809409059e-04 7.442921936776e-04 0.0 
7.442921936776e-04 8.030247412910e-03 0.0 
0.0 0.0 0.0 
-8.737567126214e-04 5.273733626197e-05 0.0 
5.273733626197e-05 1.440835654145e-02 0.0 
0.0 0.0 0.0 
1.996227772989e-04 1.624906697234e-03 0.0 
1.624906697234e-03 5.526138568411e-03 0.0 
0.0 0.0 0.0 
9.807422208019e-05 -3.078258164607e-04 0.0 
-3.078258164607e-04 1.105180093974e-03 0.0 
0.0 0.0 0.0 
-1.596407707476e-03 9.631946701885e-04 0.0 
9.631946701885e-04 1.355587436514e-02 0.0 
0.0 0.0 0.0 
-5.476467204953e-04 1.034021252139e-04 0.0 
1.034021252139e-04 1.575898440095e-02 0.0 
0.0 0.0 0.0 
1.259268237703e-04 1.382650853278e-03 0.0 
1.382650853278e-03 5.537818903374e-03 0.0 
0.0 0.0 0.0 
-5.808175042742e-04 7.675756783957e-04 0.0 
7.675756783957e-04 1.914234922169e-03 0.0 
0.0 0.0 0.0 
-1.272859156308e-03 1.880859363338e-03 0.0 
1.880859363338e-03 1.130420841130e-02 0.0 
0.0 0.0 0.0 
5.966183163257e-04 -4.504685676204e-05 0.0 
-4.504685676204e-05 2.921900513897e-03 0.0 
0.0 0.0 0.0 
-1.065147829796e-03 1.784950174647e-03 0.0 
1.784950174647e-03 1.058903437192e-02 0.0 
0.0 0.0 0.0 
-2.711707945902e-04 1.106452575991e-03 0.0 
1.106452575991e-03 1.631078251110e-02 0.0 
0.0 0.0 0.0 
-3.808339322767e-04 9.061035090938e-04 0.0 
9.061035090938e-04 1.863078738720e-03 0.0 
0.0 0.0 0.0 
7.139650927011e-04 8.334660508512e-05 0.0 
8.334660508512e-05 5.136490398032e-03 0.0 
0.0 0.0 0.0 
-2.957420839993e-04 2.498539843682e-04 0.0 
2.498539843682e-04 1.641366246544e-02 0.0 
0.0 0.0 0.0 
-1.818908245412e-04 1.999310732398e-03 0.0 
1.999310732398e-03 8.357323946286e-03 0.0 
0.0 0.0 0.0 
-1.118243152947e-03 1.879939366643e-03 0.0 
1.879939366643e-03 1.055121326644e-02 0.0 
0.0 0.0 0.0 
3.907490651915e-04 8.589190562176e-04 0.0 
8.589190562176e-04 7.873899472244e-03 0.0 
0.0 0.0 0.0 
2.366833091763e-04 7.119265122879e-05 0.0 
7.119265122879e-05 7.693334371092e-03 0.0 
0.0 0.0 0.0 
6.626962026417e-04 1.026068393439e-04 0.0 
1.026068393439e-04 5.620380036903e-03 0.0 
0.0 0.0 0.0 
-3.480544441483e-04 2.007858382886e-03 0.0 
2.007858382886e-03 9.116033777576e-03 0.0 
0.0 0.0 0.0 
4.135412125059e-04 1.323001967205e-03 0.0 
1.323001967205e-03 8.425153312830e-03 0.0 
0.0 0.0 0.0 
-4.266724284392e-04 1.988067231596e-03 0.0 
1.988067231596e-03 8.777220966486e-03 0.0 
0.0 0.0 0.0 
-2.477096147196e-04 7.052124950850e-04 0.0 
7.052124950850e-04 1.641653882384e-02 0.0 
0.0 0.0 0.0 
-2.513236992274e-05 2.863181603648e-03 0.0 
2.863181603648e-03 1.272780516822e-02 0.0 
0.0 0.0 0.0 
-1.518666760760e-03 4.810426989577e-04 0.0 
4.810426989577e-04 1.434265253946e-02 0.0 
0.0 0.0 0.0 
-8.348518815203e-04 1.724491777649e-04 0.0 
1.724491777649e-04 1.504284649580e-02 0.0 
0.0 0.0 0.0 
-4.656731910120e-04 1.925876969314e-03 0.0 
1.925876969314e-03 8.779851770416e-03 0.0 
0.0 0.0 0.0 
-9.364733066282e-04 1.794245185819e-03 0.0 
1.794245185819e-03 9.794272029443e-03 0.0 
0.0 0.0 0.0 
-9.537529863024e-05 2.062092572488e-03 0.0 
2.062092572488e-03 8.714692860919e-03 0.0 
0.0 0.0 0.0 
3.734972772158e-04 1.325423940700e-03 0.0 
1.325423940700e-03 5.303600692482e-03 0.0 
0.0 0.0 0.0 
-9.904331836134e-04 -3.355253200478e-06 0.0 
-3.355253200478e-06 1.380050584141e-02 0.0 
0.0 0.0 0.0 
6.725390828544e-04 1.251685353546e-03 0.0 
1.251685353546e-03 5.477914581364e-03 0.0 
0.0 0.0 0.0 
-5.835348358518e-05 -1.662789708523e-04 0.0 
-1.662789708523e-04 4.255366090165e-04 0.0 
0.0 0.0 0.0 
-9.179067823932e-04 9.005654563096e-06 0.0 
9.005654563096e-06 1.409327442624e-02 0.0 
0.0 0.0 0.0 
2.573792775047e-04 -3.935345210903e-05 0.0 
-3.935345210903e-05 1.018323821463e-03 0.0 
0.0 0.0 0.0 
-1.453134193247e-03 1.761602288041e-03 0.0 
1.761602288041e-03 1.199887895403e-02 0.0 
0.0 0.0 0.0 
2.332130060723e-04 1.211137489659e-03 0.0 
1.211137489659e-03 8.356577386666e-03 0.0 
0.0 0.0 0.0 
2.303138858630e-04 1.505804377794e-03 0.0 
1.505804377794e-03 4.889082483889e-03 0.0 
0.0 0.0 0.0 
6.233950701557e-04 7.846657805902e-05 0.0 
7.846657805902e-05 5.868130176224e-03 0.0 
0.0 0.0 0.0 
-7.300084115551e-04 1.393136088505e-03 0.0 
1.393136088505e-03 5.166495432536e-03 0.0 
0.0 0.0 0.0 
8.618326354723e-04 1.890454886839e-03 0.0 
1.890454886839e-03 8.152016261387e-03 0.0 
0.0 0.0 0.0 
-9.402013695523e-04 1.164434293070e-05 0.0 
1.164434293070e-05 1.382374832948e-02 0.0 
0.0 0.0 0.0 
8.002448962909e-04 1.296646760333e-03 0.0 
1.296646760333e-03 4.865452669602e-03 0.0 
0.0 0.0 0.0 
4.861810979864e-04 6.092330978762e-05 0.0 
6.092330978762e-05 6.607106229681e-03 0.0 
0.0 0.0 0.0 
1.252091015855e-04 -2.056994542469e-04 0.0 
-2.056994542469e-04 1.085641343598e-03 0.0 
0.0 0.0 0.0 
3.898505454472e-04 1.595082630454e-04 0.0 
1.595082630454e-04 7.120361114464e-03 0.0 
0.0 0.0 0.0 
-1.099994144362e-03 1.900752284846e-03 0.0 
1.900752284846e-03 1.176399298665e-02 0.0 
0.0 0.0 0.0 
2.751139805317e-04 3.710103711406e-04 0.0 
3.710103711406e-04 7.852820705611e-03 0.0 
0.0 0.0 0.0 
-9.170530173245e-04 6.436675997723e-06 0.0 
6.436675997723e-06 1.378714375925e-02 0.0 
0.0 0.0 0.0 
4.584436579806e-04 1.342129734448e-03 0.0 
1.342129734448e-03 4.627593750636e-03 0.0 
0.0 0.0 0.0 
-1.414457207080e-03 1.547430740867e-03 0.0 
1.547430740867e-03 1.208024799146e-02 0.0 
0.0 0.0 0.0 
7.081772254802e-04 -7.452822333657e-07 0.0 
-7.452822333657e-07 4.889071906873e-03 0.0 
0.0 0.0 0.0 
-8.193147165677e-04 1.748472782946e-03 0.0 
1.748472782946e-03 5.267555347138e-03 0.0 
0.0 0.0 0.0 
7.184326554068e-04 1.073005306637e-03 0.0 
1.073005306637e-03 4.896144376387e-03 0.0 
0.0 0.0 0.0 
-8.287525070225e-04 1.104722872431e-04 0.0 
1.104722872431e-04 1.523269709924e-02 0.0 
0.0 0.0 0.0 
-9.486225007580e-04 3.352480227895e-05 0.0 
3.352480227895e-05 1.380013895232e-02 0.0 
0.0 0.0 0.0 
6.220843907967e-04 1.383039548857e-03 0.0 
1.383039548857e-03 5.022156340954e-03 0.0 
0.0 0.0 0.0 
-1.329432374761e-03 1.718360336831e-03 0.0 
1.718360336831e-03 1.137029360333e-02 0.0 
0.0 0.0 0.0 
-2.089113188308e-05 2.473617690953e-03 0.0 
2.473617690953e-03 1.169812648818e-02 0.0 
0.0 0.0 0.0 
6.586717619754e-04 -5.126696051773e-05 0.0 
-5.126696051773e-05 3.283004796393e-03 0.0 
0.0 0.0 0.0 
1.770112668638e-04 2.537268672482e-03 0.0 
2.537268672482e-03 1.087784520750e-02 0.0 
0.0 0.0 0.0 
-6.196110826417e-06 2.855748464856e-03 0.0 
2.855748464856e-03 1.235109433946e-02 0.0 
0.0 0.0 0.0 
-4.266430137081e-04 1.597774836159e-03 0.0 
1.597774836159e-03 6.292941253784e-03 0.0 
0.0 0.0 0.0 
7.049673827730e-04 -2.630135830990e-05 0.0 
-2.630135830990e-05 3.296086817611e-03 0.0 
0.0 0.0 0.0 
6.702744971365e-04 1.371374989745e-03 0.0 
1.371374989745e-03 7.762118064009e-03 0.0 
0.0 0.0 0.0 
-7.294733299922e-04 1.906397851135e-03 0.0 
1.906397851135e-03 9.251105391557e-03 0.0 
0.0 0.0 0.0 
-3.720110294917e-04 1.584936579811e-03 0.0 
1.584936579811e-03 5.512678358973e-03 0.0 
0.0 0.0 0.0 
-1.331075369183e-03 1.683252436942e-03 0.0 
1.683252436942e-03 1.222060281131e-02 0.0 
0.0 0.0 0.0 
5.155672748705e-04 1.388489385924e-03 0.0 
1.388489385924e-03 5.696843241147e-03 0.0 
0.0 0.0 0.0 
-2.174833733010e-04 5.122847290227e-04 0.0 
5.122847290227e-04 1.644508295874e-02 0.0 
0.0 0.0 0.0 
-8.020097822934e-04 2.074597359067e-03 0.0 
2.074597359067e-03 1.339764483883e-02 0.0 
0.0 0.0 0.0 
4.390403299011e-04 9.968795842107e-05 0.0 
9.968795842107e-05 6.866400558237e-03 0.0 
0.0 0.0 0.0 
-6.641424933539e-04 1.228583177621e-03 0.0 
1.228583177621e-03 3.802736893691e-03 0.0 
0.0 0.0 0.0 
7.452461465158e-04 8.913958092436e-04 0.0 
8.913958092436e-04 4.356967630004e-03 0.0 
0.0 0.0 0.0 
-6.005339070289e-04 2.221103757372e-03 0.0 
2.221103757372e-03 1.308748729802e-02 0.0 
0.0 0.0 0.0 
-9.638333524569e-04 2.738448190460e-04 0.0 
2.738448190460e-04 6.217898070437e-04 0.0 
0.0 0.0 0.0 
-6.845169130186e-04 1.926073584305e-03 0.0 
1.926073584305e-03 9.250725938114e-03 0.0 
0.0 0.0 0.0 
8.119186624933e-04 1.027074169730e-03 0.0 
1.027074169730e-03 6.902954880303e-03 0.0 
0.0 0.0 0.0 
7.336892725540e-05 -1.330361511937e-04 0.0 
-1.330361511937e-04 7.173834491789e-04 0.0 
0.0 0.0 0.0 
-3.998827608331e-04 2.278417064763e-03 0.0 
2.278417064763e-03 1.479013394340e-02 0.0 
0.0 0.0 0.0 
-1.306400103631e-03 1.444867498998e-03 0.0 
1.444867498998e-03 1.420117282690e-02 0.0 
0.0 0.0 0.0 
9.056868419952e-04 -6.237492792881e-06 0.0 
-6.237492792881e-06 3.116142742258e-03 0.0 
0.0 0.0 0.0 
9.380502182172e-04 1.151187999402e-03 0.0 
1.151187999402e-03 6.894370049221e-03 0.0 
0.0 0.0 0.0 
-1.659392705114e-03 1.037318483390e-03 0.0 
1.037318483390e-03 1.390854735598e-02 0.0 
0.0 0.0 0.0 
-1.598325377584e-03 7.704053119772e-04 0.0 
7.704053119772e-04 1.443527165875e-02 0.0 
0.0 0.0 0.0 
3.868322954490e-04 1.231012837635e-03 0.0 
1.231012837635e-03 8.112609488492e-03 0.0 
0.0 0.0 0.0 
6.283592194385e-04 -1.520699435629e-04 0.0 
-1.520699435629e-04 2.281777793831e-03 0.0 
0.0 0.0 0.0 
1.244245260836e-04 2.037309245954e-03 0.0 
2.037309245954e-03 8.362713253472e-03 0.0 
0.0 0.0 0.0 
-8.615128337782e-04 2.039604411533e-03 0.0 
2.039604411533e-03 1.133187533640e-02 0.0 
0.0 0.0 0.0 
-1.410846483057e-03 1.459290226406e-03 0.0 
1.459290226406e-03 1.456409863326e-02 0.0 
0.0 0.0 0.0 
-1.269195562504e-03 1.911320703660e-03 0.0 
1.911320703660e-03 1.243778805715e-02 0.0 
0.0 0.0 0.0 
-1.344229885941e-03 1.845725288010e-03 0.0 
1.845725288010e-03 1.222152548337e-02 0.0 
0.0 0.0 0.0 
9.199954060990e-04 1.471188250733e-03 0.0 
1.471188250733e-03 7.108427179536e-03 0.0 
0.0 0.0 0.0 
-2.446117264557e-04 2.383225932719e-03 0.0 
2.383225932719e-03 1.193676968251e-02 0.0 
0.0 0.0 0.0 
-7.731916661869e-04 2.608917564629e-04 0.0 
2.608917564629e-04 9.106568583821e-04 0.0 
0.0 0.0 0.0 
-3.931407301282e-04 1.723997560206e-03 0.0 
1.723997560206e-03 6.308267430330e-03 0.0 
0.0 0.0 0.0 
-1.366791616355e-04 1.763724190255e-03 0.0 
1.763724190255e-03 6.568167205229e-03 0.0 
0.0 0.0 0.0 
-1.126894460488e-04 1.984083079697e-03 0.0 
1.984083079697e-03 8.725382805860e-03 0.0 
0.0 0.0 0.0 
-9.285643017696e-04 2.078852226097e-03 0.0 
2.078852226097e-03 1.390969128042e-02 0.0 
0.0 0.0 0.0 
9.598514552378e-05 4.674242569092e-04 0.0 
4.674242569092e-04 1.682461995272e-03 0.0 
0.0 0.0 0.0 
8.698718055873e-04 8.716708866680e-04 0.0 
8.716708866680e-04 6.498545722126e-03 0.0 
0.0 0.0 0.0 
-9.672125245951e-04 -2.091133198412e-05 0.0 
-2.091133198412e-05 1.377290542613e-02 0.0 
0.0 0.0 0.0 
8.230214172857e-04 1.126092040569e-03 0.0 
1.126092040569e-03 4.323533588522e-03 0.0 
0.0 0.0 0.0 
9.088531605330e-04 7.258016213952e-04 0.0 
7.258016213952e-04 6.124290995517e-03 0.0 
0.0 0.0 0.0 
-3.181489816528e-05 -1.684641646059e-04 0.0 
-1.684641646059e-04 5.006615518013e-04 0.0 
0.0 0.0 0.0 
-1.153989961270e-03 1.593401412802e-03 0.0 
1.593401412802e-03 1.440583704525e-02 0.0 
0.0 0.0 0.0 
-1.048335712581e-04 -7.970893314572e-05 0.0 
-7.970893314572e-05 3.933414750241e-04 0.0 
0.0 0.0 0.0 
1.583531865410e-04 -1.204522958203e-04 0.0 
-1.204522958203e-04 7.090740553344e-04 0.0 
0.0 0.0 0.0 
-6.965551110114e-04 1.540040786259e-03 0.0 
1.540040786259e-03 3.818515004996e-03 0.0 
0.0 0.0 0.0 
5.068872068166e-04 -1.903497539164e-04 0.0 
-1.903497539164e-04 1.916555327992e-03 0.0 
0.0 0.0 0.0 
-1.243637276034e-03 1.590749165337e-03 0.0 
1.590749165337e-03 1.477697471293e-02 0.0 
0.0 0.0 0.0 
4.008347097153e-04 -3.007750505413e-04 0.0 
-3.007750505413e-04 1.809367892074e-03 0.0 
0.0 0.0 0.0 
-5.230882497709e-06 1.194831000019e-03 0.0 
1.194831000019e-03 3.278270165333e-03 0.0 
0.0 0.0 0.0 
2.345299686510e-04 -3.134779614824e-04 0.0 
-3.134779614824e-04 1.490875934274e-03 0.0 
0.0 0.0 0.0 
1.983162076957e-04 -1.976624718925e-04 0.0 
-1.976624718925e-04 1.221015291046e-03 0.0 
0.0 0.0 0.0 
8.644909596183e-04 1.295809957865e-03 0.0 
1.295809957865e-03 7.298006188341e-03 0.0 
0.0 0.0 0.0 
-1.103437763709e-03 1.991230951498e-03 0.0 
1.991230951498e-03 1.176048075116e-02 0.0 
0.0 0.0 0.0 
2.749908966360e-04 3.132556696362e-04 0.0 
3.132556696362e-04 7.689627825816e-03 0.0 
0.0 0.0 0.0 
-7.692368555420e-04 1.643949737353e-04 0.0 
1.643949737353e-04 4.391294920674e-04 0.0 
0.0 0.0 0.0 
2.614944173283e-04 1.188421848355e-03 0.0 
1.188421848355e-03 3.646344248687e-03 0.0 
0.0 0.0 0.0 
9.400986267400e-04 1.187250327206e-03 0.0 
1.187250327206e-03 4.766907162971e-03 0.0 
0.0 0.0 0.0 
-5.565432892704e-04 1.876808343381e-03 0.0 
1.876808343381e-03 8.454872295102e-03 0.0 
0.0 0.0 0.0 
9.892574702846e-04 9.879261239526e-04 0.0 
9.879261239526e-04 6.490429901354e-03 0.0 
0.0 0.0 0.0 
2.608015911485e-04 4.584027430755e-04 0.0 
4.584027430755e-04 7.910101206919e-03 0.0 
0.0 0.0 0.0 
-1.075383923408e-03 1.989290672653e-03 0.0 
1.989290672653e-03 1.368184776055e-02 0.0 
0.0 0.0 0.0 
5.896225184905e-04 6.326329915931e-04 0.0 
6.326329915931e-04 3.435182883210e-03 0.0 
0.0 0.0 0.0 
7.426746462273e-04 1.195408343033e-03 0.0 
1.195408343033e-03 7.298698424197e-03 0.0 
0.0 0.0 0.0 
6.799632512264e-04 7.659956043289e-05 0.0 
7.659956043289e-05 5.368840047607e-03 0.0 
0.0 0.0 0.0 
-2.654899675907e-04 2.070630013683e-03 0.0 
2.070630013683e-03 9.460867384752e-03 0.0 
0.0 0.0 0.0 
-1.167680210955e-03 1.685403978234e-03 0.0 
1.685403978234e-03 1.397201726096e-02 0.0 
0.0 0.0 0.0 
2.399510087134e-04 2.336748950626e-03 0.0 
2.336748950626e-03 1.023416463385e-02 0.0 
0.0 0.0 0.0 
8.489973992358e-04 9.754839345128e-04 0.0 
9.754839345128e-04 4.798522221184e-03 0.0 
0.0 0.0 0.0 
-2.304061015190e-05 1.069584020339e-03 0.0 
1.069584020339e-03 3.912213302273e-03 0.0 
0.0 0.0 0.0 
-1.180162344430e-03 1.967285406593e-03 0.0 
1.967285406593e-03 1.266407624904e-02 0.0 
0.0 0.0 0.0 
-2.517482834750e-04 1.308825791594e-03 0.0 
1.308825791594e-03 1.637836011234e-02 0.0 
0.0 0.0 0.0 
1.018106485176e-04 1.934849401312e-03 0.0 
1.934849401312e-03 8.375715087839e-03 0.0 
0.0 0.0 0.0 
1.034043002432e-03 1.082098964514e-03 0.0 
1.082098964514e-03 5.635301637001e-03 0.0 
0.0 0.0 0.0 
-9.418958483388e-04 2.513346380748e-05 0.0 
2.513346380748e-05 1.418307556411e-02 0.0 
0.0 0.0 0.0 
-3.518938827518e-05 -3.165107069828e-04 0.0 
-3.165107069828e-04 1.109292537604e-03 0.0 
0.0 0.0 0.0 
-1.248427949548e-03 1.762398636661e-03 0.0 
1.762398636661e-03 1.246116372917e-02 0.0 
0.0 0.0 0.0 
6.645841018755e-04 8.925065251856e-04 0.0 
8.925065251856e-04 3.395556580367e-03 0.0 
0.0 0.0 0.0 
3.375596206063e-04 4.944046128834e-04 0.0 
4.944046128834e-04 2.112423669117e-03 0.0 
0.0 0.0 0.0 
1.002167283148e-04 -2.708079785654e-04 0.0 
-2.708079785654e-04 1.242922574615e-03 0.0 
0.0 0.0 0.0 
-1.103716669897e-03 1.507757649443e-03 0.0 
1.507757649443e-03 1.478708317241e-02 0.0 
0.0 0.0 0.0 
-1.023723332166e-03 2.047137388002e-03 0.0 
2.047137388002e-03 1.201201056042e-02 0.0 
0.0 0.0 0.0 
4.315705035300e-04 1.506401386288e-03 0.0 
1.506401386288e-03 5.274127034927e-03 0.0 
0.0 0.0 0.0 
-1.176940089395e-03 1.498631193925e-03 0.0 
1.498631193925e-03 1.512236697151e-02 0.0 
0.0 0.0 0.0 
-8.761466989406e-04 2.136634104043e-03 0.0 
2.136634104043e-03 1.338578665387e-02 0.0 
0.0 0.0 0.0 
-4.322771677412e-04 2.127332067319e-03 0.0 
2.127332067319e-03 1.018784466795e-02 0.0 
0.0 0.0 0.0 
1.861088133730e-04 5.855616598281e-04 0.0 
5.855616598281e-04 7.959180349874e-03 0.0 
0.0 0.0 0.0 
1.177560536247e-03 1.174184835386e-03 0.0 
1.174184835386e-03 5.588634007452e-03 0.0 
0.0 0.0 0.0 
-6.077922275812e-04 2.147369030359e-03 0.0 
2.147369030359e-03 1.090826543479e-02 0.0 
0.0 0.0 0.0 
6.165276891021e-04 1.442634472234e-03 0.0 
1.442634472234e-03 6.113139331913e-03 0.0 
0.0 0.0 0.0 
1.029464479492e-03 1.188208168385e-03 0.0 
1.188208168385e-03 6.106425556564e-03 0.0 
0.0 0.0 0.0 
5.697766565251e-04 5.317768699422e-04 0.0 
5.317768699422e-04 2.503562480969e-03 0.0 
0.0 0.0 0.0 
-1.550368894023e-03 4.962876723749e-04 0.0 
4.962876723749e-04 1.394529520079e-02 0.0 
0.0 0.0 0.0 
9.513658516431e-04 8.820978836104e-04 0.0 
8.820978836104e-04 4.727268102986e-03 0.0 
0.0 0.0 0.0 
7.472687126608e-04 3.553141121548e-05 0.0 
3.553141121548e-05 2.678614183888e-03 0.0 
0.0 0.0 0.0 
-9.953190467525e-04 1.901608109727e-03 0.0 
1.901608109727e-03 1.369774187853e-02 0.0 
0.0 0.0 0.0 
-1.230442147905e-03 6.359509436126e-05 0.0 
6.359509436126e-05 6.783815785034e-04 0.0 
0.0 0.0 0.0 
-1.411567290376e-03 1.786742327101e-03 0.0 
1.786742327101e-03 1.304845687303e-02 0.0 
0.0 0.0 0.0 
8.088098759802e-04 7.640727599357e-04 0.0 
7.640727599357e-04 3.345582810337e-03 0.0 
0.0 0.0 0.0 
2.254642235433e-04 9.128853520190e-04 0.0 
9.128853520190e-04 3.684801443606e-03 0.0 
0.0 0.0 0.0 
4.758505938636e-04 2.703091985125e-04 0.0 
2.703091985125e-04 2.548608868840e-03 0.0 
0.0 0.0 0.0 
-9.476577676578e-04 2.016626146511e-03 0.0 
2.016626146511e-03 1.228928953552e-02 0.0 
0.0 0.0 0.0 
-9.289408166779e-05 -2.561910749654e-04 0.0 
-2.561910749654e-04 7.762994143024e-04 0.0 
0.0 0.0 0.0 
-2.073709255520e-04 1.852516763966e-03 0.0 
1.852516763966e-03 7.284197678114e-03 0.0 
0.0 0.0 0.0 
1.161022464957e-03 1.275449205315e-03 0.0 
1.275449205315e-03 6.069973568833e-03 0.0 
0.0 0.0 0.0 
-1.025360480278e-03 1.957319438687e-03 0.0 
1.957319438687e-03 1.202757519215e-02 0.0 
0.0 0.0 0.0 
-1.561140816034e-03 7.421050194142e-04 0.0 
7.421050194142e-04 1.409379564711e-02 0.0 
0.0 0.0 0.0 
-7.821413965226e-05 3.448395813210e-04 0.0 
3.448395813210e-04 1.357129164947e-03 0.0 
0.0 0.0 0.0 
8.605202600342e-04 2.391985344288e-04 0.0 
2.391985344288e-04 2.646559240613e-03 0.0 
0.0 0.0 0.0 
6.495921030381e-04 -8.984233235092e-05 0.0 
-8.984233235092e-05 2.373517049073e-03 0.0 
0.0 0.0 0.0 
-4.960234245398e-04 1.680195775954e-03 0.0 
1.680195775954e-03 7.019406783929e-03 0.0 
0.0 0.0 0.0 
-1.266463699748e-03 1.798875466366e-03 0.0 
1.798875466366e-03 1.395161979895e-02 0.0 
0.0 0.0 0.0 
-2.621651445416e-04 1.746164942855e-03 0.0 
1.746164942855e-03 7.300421754481e-03 0.0 
0.0 0.0 0.0 
1.052723545441e-03 9.023940760869e-04 0.0 
9.023940760869e-04 4.209811209241e-03 0.0 
0.0 0.0 0.0 
9.545842157035e-04 1.009186567116e-03 0.0 
1.009186567116e-03 4.250703589640e-03 0.0 
0.0 0.0 0.0 
-2.440048637764e-05 1.838772900415e-04 0.0 
1.838772900415e-04 1.783699526711e-03 0.0 
0.0 0.0 0.0 
8.277208754861e-04 1.517806416007e-03 0.0 
1.517806416007e-03 5.900715285463e-03 0.0 
0.0 0.0 0.0 
-2.988017660861e-04 9.084951877907e-04 0.0 
9.084951877907e-04 2.924001253195e-03 0.0 
0.0 0.0 0.0 
-3.151372365564e-04 2.291265307650e-03 0.0 
2.291265307650e-03 1.544070802320e-02 0.0 
0.0 0.0 0.0 
-2.778741767484e-04 2.623385610279e-03 0.0 
2.623385610279e-03 1.482964931221e-02 0.0 
0.0 0.0 0.0 
3.231674042767e-04 1.993242868036e-03 0.0 
1.993242868036e-03 8.063496508187e-03 0.0 
0.0 0.0 0.0 
6.319644361164e-04 7.110294779012e-04 0.0 
7.110294779012e-04 2.929149827445e-03 0.0 
0.0 0.0 0.0 
2.128215035921e-04 7.271216555463e-04 0.0 
7.271216555463e-04 3.140065620651e-03 0.0 
0.0 0.0 0.0 
-3.859325598374e-04 2.184764781128e-03 0.0 
2.184764781128e-03 1.052632158978e-02 0.0 
0.0 0.0 0.0 
3.968446160285e-04 5.780677070851e-04 0.0 
5.780677070851e-04 3.033414021457e-03 0.0 
0.0 0.0 0.0 
7.601377185473e-04 1.033304557074e-04 0.0 
1.033304557074e-04 2.342864065815e-03 0.0 
0.0 0.0 0.0 
-2.619529916643e-04 2.116105774359e-03 0.0 
2.116105774359e-03 9.452753198633e-03 0.0 
0.0 0.0 0.0 
-4.578613734562e-04 7.823584217401e-04 0.0 
7.823584217401e-04 1.639950374783e-02 0.0 
0.0 0.0 0.0 
8.291264713376e-04 9.453834950725e-04 0.0 
9.453834950725e-04 3.816523293340e-03 0.0 
0.0 0.0 0.0 
1.016683219970e-03 1.607870871587e-03 0.0 
1.607870871587e-03 7.091648763806e-03 0.0 
0.0 0.0 0.0 
-1.908151973229e-05 1.035442079389e-03 0.0 
1.035442079389e-03 2.718705064107e-03 0.0 
0.0 0.0 0.0 
2.420889604029e-04 1.629345321949e-03 0.0 
1.629345321949e-03 9.128445136719e-03 0.0 
0.0 0.0 0.0 
4.643833667188e-04 8.580544448051e-04 0.0 
8.580544448051e-04 2.987753786669e-03 0.0 
0.0 0.0 0.0 
-3.422146087140e-05 2.114334551545e-03 0.0 
2.114334551545e-03 9.081774217917e-03 0.0 
0.0 0.0 0.0 
2.315154805665e-04 3.427352250654e-04 0.0 
3.427352250654e-04 1.727150092105e-03 0.0 
0.0 0.0 0.0 
1.177018997833e-03 9.366944510734e-04 0.0 
9.366944510734e-04 5.742009269198e-03 0.0 
0.0 0.0 0.0 
1.044843508780e-03 1.076792868747e-03 0.0 
1.076792868747e-03 4.695650722112e-03 0.0 
0.0 0.0 0.0 
8.155623337138e-04 5.830112803406e-05 0.0 
5.830112803406e-05 2.451033168714e-03 0.0 
0.0 0.0 0.0 
-8.524865677052e-04 2.095814241253e-03 0.0 
2.095814241253e-03 1.132462983951e-02 0.0 
0.0 0.0 0.0 
-1.128602212984e-04 2.969894026932e-03 0.0 
2.969894026932e-03 1.371260912675e-02 0.0 
0.0 0.0 0.0 
9.486094494326e-04 8.283153352671e-04 0.0 
8.283153352671e-04 3.772550411098e-03 0.0 
0.0 0.0 0.0 
1.059520598787e-03 1.130290296026e-03 0.0 
1.130290296026e-03 6.090909992903e-03 0.0 
0.0 0.0 0.0 
-3.597113553100e-05 7.180863601285e-04 0.0 
7.180863601285e-04 2.762131761262e-03 0.0 
0.0 0.0 0.0 
-1.242982977071e-03 5.828299293757e-04 0.0 
5.828299293757e-04 1.489919031126e-02 0.0 
0.0 0.0 0.0 
1.022953861439e-03 8.333250322812e-04 0.0 
8.333250322812e-04 6.110255689037e-03 0.0 
0.0 0.0 0.0 
-5.148024345980e-05 1.225389645292e-03 0.0 
1.225389645292e-03 4.545551155171e-03 0.0 
0.0 0.0 0.0 
-1.367102708979e-03 4.472245965242e-04 0.0 
4.472245965242e-04 1.477465843723e-02 0.0 
0.0 0.0 0.0 
3.801110142665e-05 3.043972218179e-03 0.0 
3.043972218179e-03 1.249753311032e-02 0.0 
0.0 0.0 0.0 
8.982129860584e-04 9.400931558453e-04 0.0 
9.400931558453e-04 6.638608699710e-03 0.0 
0.0 0.0 0.0 
-1.771885471804e-04 2.887851854498e-03 0.0 
2.887851854498e-03 1.410240588933e-02 0.0 
0.0 0.0 0.0 
-1.509930945550e-03 6.824266665902e-04 0.0 
6.824266665902e-04 1.466887175773e-02 0.0 
0.0 0.0 0.0 
-5.761372591220e-04 2.281009071543e-03 0.0 
2.281009071543e-03 1.248365678631e-02 0.0 
0.0 0.0 0.0 
-3.290521992831e-04 1.206859061212e-03 0.0 
1.206859061212e-03 4.175478311679e-03 0.0 
0.0 0.0 0.0 
-9.275566934653e-04 2.039514111754e-03 0.0 
2.039514111754e-03 1.103111269166e-02 0.0 
0.0 0.0 0.0 
-6.179069856755e-04 2.133557112068e-03 0.0 
2.133557112068e-03 1.091028703666e-02 0.0 
0.0 0.0 0.0 
-7.832473967893e-04 2.133474529733e-03 0.0 
2.133474529733e-03 1.160918092438e-02 0.0 
0.0 0.0 0.0 
2.352188157309e-04 1.818307477995e-03 0.0 
1.818307477995e-03 7.679837328565e-03 0.0 
0.0 0.0 0.0 
1.043382830774e-04 2.938613066870e-03 0.0 
2.938613066870e-03 1.174184967538e-02 0.0 
0.0 0.0 0.0 
-1.504334854668e-03 1.039181512923e-03 0.0 
1.039181512923e-03 1.414041143576e-02 0.0 
0.0 0.0 0.0 
-1.505040996305e-03 1.712042291974e-03 0.0 
1.712042291974e-03 1.286421389760e-02 0.0 
0.0 0.0 0.0 
8.643045191350e-04 7.899600663717e-04 0.0 
7.899600663717e-04 4.284431309951e-03 0.0 
0.0 0.0 0.0 
3.603251258877e-04 -2.020739195095e-04 0.0 
-2.020739195095e-04 1.569393411419e-03 0.0 
0.0 0.0 0.0 
-1.186506048773e-03 1.922093455011e-03 0.0 
1.922093455011e-03 1.148456506319e-02 0.0 
0.0 0.0 0.0 
2.559279375927e-04 1.336853034518e-03 0.0 
1.336853034518e-03 4.240027098382e-03 0.0 
0.0 0.0 0.0 
-9.385678389228e-04 2.067823060196e-06 0.0 
2.067823060196e-06 1.381199120399e-02 0.0 
0.0 0.0 0.0 
7.047216777025e-04 -1.181478132032e-04 0.0 
-1.181478132032e-04 2.477834410888e-03 0.0 
0.0 0.0 0.0 
7.444934541250e-04 7.042904938549e-04 0.0 
7.042904938549e-04 3.851356119073e-03 0.0 
0.0 0.0 0.0 
-1.002314636241e-03 1.816562180250e-03 0.0 
1.816562180250e-03 1.417952558822e-02 0.0 
0.0 0.0 0.0 
2.123000927297e-04 1.091614637400e-03 0.0 
1.091614637400e-03 4.272147111834e-03 0.0 
0.0 0.0 0.0 
-6.723846206856e-04 2.086939203718e-03 0.0 
2.086939203718e-03 1.060037897399e-02 0.0 
0.0 0.0 0.0 
1.173584711721e-03 1.208883702511e-03 0.0 
1.208883702511e-03 6.074977706633e-03 0.0 
0.0 0.0 0.0 
1.105165698857e-03 3.577102349234e-04 0.0 
3.577102349234e-04 4.493075417974e-03 0.0 
0.0 0.0 0.0 
2.009314014348e-04 2.637598737651e-03 0.0 
2.637598737651e-03 1.072938895483e-02 0.0 
0.0 0.0 0.0 
-8.603790705773e-04 1.965712298566e-03 0.0 
1.965712298566e-03 1.001535205562e-02 0.0 
0.0 0.0 0.0 
7.876451243507e-04 3.156907824173e-04 0.0 
3.156907824173e-04 2.569709788535e-03 0.0 
0.0 0.0 0.0 
8.055745621607e-04 -1.218933144166e-04 0.0 
-1.218933144166e-04 2.990876705407e-03 0.0 
0.0 0.0 0.0 
-4.081557454512e-04 1.453535996613e-03 0.0 
1.453535996613e-03 5.531730225607e-03 0.0 
0.0 0.0 0.0 
-2.930942761847e-05 1.465566876345e-03 0.0 
1.465566876345e-03 4.519058670777e-03 0.0 
0.0 0.0 0.0 
-7.336915541181e-04 2.225498100132e-03 0.0 
2.225498100132e-03 1.362688190712e-02 0.0 
0.0 0.0 0.0 
-2.086701289301e-04 2.116451974270e-03 0.0 
2.116451974270e-03 9.809636609565e-03 0.0 
0.0 0.0 0.0 
-6.387097571356e-04 1.821347285567e-03 0.0 
1.821347285567e-03 8.459620269816e-03 0.0 
0.0 0.0 0.0 
-7.396869697194e-04 2.027160782674e-03 0.0 
2.027160782674e-03 1.029567840982e-02 0.0 
0.0 0.0 0.0 
2.488405897323e-04 2.084795829070e-03 0.0 
2.084795829070e-03 9.665947369798e-03 0.0 
0.0 0.0 0.0 
4.032917082295e-04 1.951678680498e-03 0.0 
1.951678680498e-03 9.198439021656e-03 0.0 
0.0 0.0 0.0 
-6.414156757993e-04 2.176625808622e-03 0.0 
2.176625808622e-03 1.363642387653e-02 0.0 
0.0 0.0 0.0 
-1.278921039993e-03 1.693849623019e-03 0.0 
1.693849623019e-03 1.438930422552e-02 0.0 
0.0 0.0 0.0 
1.024544874593e-03 2.538346107959e-04 0.0 
2.538346107959e-04 4.362289141098e-03 0.0 
0.0 0.0 0.0 
-7.699980542064e-06 1.689051971380e-03 0.0 
1.689051971380e-03 6.929176312944e-03 0.0 
0.0 0.0 0.0 
5.450850981930e-04 4.472120220777e-04 0.0 
4.472120220777e-04 2.971460077290e-03 0.0 
0.0 0.0 0.0 
7.171753414579e-04 5.200658003268e-04 0.0 
5.200658003268e-04 3.383455326854e-03 0.0 
0.0 0.0 0.0 
-4.478256089113e-05 2.042140674605e-03 0.0 
2.042140674605e-03 9.092476923013e-03 0.0 
0.0 0.0 0.0 
1.091588443041e-03 8.562983011066e-04 0.0 
8.562983011066e-04 5.689353790337e-03 0.0 
0.0 0.0 0.0 
7.989289470760e-04 -5.347286058334e-05 0.0 
-5.347286058334e-05 3.621541478926e-03 0.0 
0.0 0.0 0.0 
-8.158816825745e-04 1.950791026544e-03 0.0 
1.950791026544e-03 1.439016724606e-02 0.0 
0.0 0.0 0.0 
6.792082430702e-04 9.091235022742e-05 0.0 
9.091235022742e-05 2.605323949714e-03 0.0 
0.0 0.0 0.0 
3.514559652418e-04 1.680717769235e-03 0.0 
1.680717769235e-03 7.000821040240e-03 0.0 
0.0 0.0 0.0 
-4.345122288323e-04 2.137362097259e-03 0.0 
2.137362097259e-03 1.018593753734e-02 0.0 
0.0 0.0 0.0 
2.367846981999e-04 1.610577215543e-03 0.0 
1.610577215543e-03 6.608490026225e-03 0.0 
0.0 0.0 0.0 
-2.333698054308e-04 2.780141089488e-03 0.0 
2.780141089488e-03 1.447152937745e-02 0.0 
0.0 0.0 0.0 
-2.741083670040e-04 2.471445919101e-03 0.0 
2.471445919101e-03 1.513119628432e-02 0.0 
0.0 0.0 0.0 
-5.474844437173e-04 2.294484470761e-03 0.0 
2.294484470761e-03 1.478856428978e-02 0.0 
0.0 0.0 0.0 
1.021383453239e-03 3.632097306797e-04 0.0 
3.632097306797e-04 4.813543762786e-03 0.0 
0.0 0.0 0.0 
-1.017481246251e-03 1.434342919609e-03 0.0 
1.434342919609e-03 1.512993468219e-02 0.0 
0.0 0.0 0.0 
-1.372764063101e-05 1.336922891462e-03 0.0 
1.336922891462e-03 3.881147849984e-03 0.0 
0.0 0.0 0.0 
8.525752934909e-04 6.045300224547e-04 0.0 
6.045300224547e-04 3.807469961757e-03 0.0 
0.0 0.0 0.0 
2.539481530133e-04 2.198032280579e-04 0.0 
2.198032280579e-04 2.159760647287e-03 0.0 
0.0 0.0 0.0 
-3.519732316282e-04 1.834056192622e-03 0.0 
1.834056192622e-03 8.020560512082e-03 0.0 
0.0 0.0 0.0 
-1.465887631817e-03 3.224375196705e-04 0.0 
3.224375196705e-04 1.398290645057e-02 0.0 
0.0 0.0 0.0 
-1.322790106373e-03 5.967274184185e-04 0.0 
5.967274184185e-04 1.467654412251e-02 0.0 
0.0 0.0 0.0 
4.339717122992e-04 1.579858253317e-03 0.0 
1.579858253317e-03 8.672526337965e-03 0.0 
0.0 0.0 0.0 
-3.951622369377e-04 2.332301363922e-03 0.0 
2.332301363922e-03 1.277964335748e-02 0.0 
0.0 0.0 0.0 
-1.172082007970e-03 1.841717133305e-03 0.0 
1.841717133305e-03 1.268319025224e-02 0.0 
0.0 0.0 0.0 
-5.585376055658e-04 2.174830718499e-03 0.0 
2.174830718499e-03 1.123211910601e-02 0.0 
0.0 0.0 0.0 
4.791717335051e-04 3.689459262274e-04 0.0 
3.689459262274e-04 2.120274661878e-03 0.0 
0.0 0.0 0.0 
-2.181561049596e-04 -2.270869313522e-04 0.0 
-2.270869313522e-04 8.408628650785e-04 0.0 
0.0 0.0 0.0 
8.978399881410e-04 1.354235937530e-03 0.0 
1.354235937530e-03 5.316803881630e-03 0.0 
0.0 0.0 0.0 
4.233886863441e-04 1.747932143989e-03 0.0 
1.747932143989e-03 7.405271840093e-03 0.0 
0.0 0.0 0.0 
7.602874802144e-04 1.337587397065e-03 0.0 
1.337587397065e-03 5.926797880910e-03 0.0 
0.0 0.0 0.0 
-6.816215289758e-04 1.185305159254e-03 0.0 
1.185305159254e-03 1.922656014397e-03 0.0 
0.0 0.0 0.0 
-9.083140364725e-04 3.910460106035e-05 0.0 
3.910460106035e-05 1.416575258485e-02 0.0 
0.0 0.0 0.0 
2.555659059473e-04 -3.143285372227e-04 0.0 
-3.143285372227e-04 1.456567378872e-03 0.0 
0.0 0.0 0.0 
4.843417359903e-04 1.035464721366e-03 0.0 
1.035464721366e-03 3.491796404176e-03 0.0 
0.0 0.0 0.0 
0.0 1.629813171673e-03 0.0 
1.629813171673e-03 9.212000530044e-03 0.0 
0.0 0.0 0.0 
9.393052858044e-04 1.426437339594e-03 0.0 
1.426437339594e-03 7.090160731606e-03 0.0 
0.0 0.0 0.0 
-1.438519549080e-03 1.470554817947e-03 0.0 
1.470554817947e-03 1.289348224138e-02 0.0 
0.0 0.0 0.0 
1.982096894086e-04 -7.011380501900e-06 0.0 
-7.011380501900e-06 1.000965804151e-03 0.0 
0.0 0.0 0.0 
2.674200712702e-04 1.943183942211e-03 0.0 
1.943183942211e-03 7.662551355892e-03 0.0 
0.0 0.0 0.0 
8.153465076868e-04 1.155873105456e-03 0.0 
1.155873105456e-03 5.345126115178e-03 0.0 
0.0 0.0 0.0 
-9.476331831436e-04 2.087509893345e-03 0.0 
2.087509893345e-03 1.228028784902e-02 0.0 
0.0 0.0 0.0 
-4.020436368768e-05 3.031581869407e-03 0.0 
3.031581869407e-03 1.329643707064e-02 0.0 
0.0 0.0 0.0 
-9.114884741308e-04 1.983906568310e-03 0.0 
1.983906568310e-03 1.103733539296e-02 0.0 
0.0 0.0 0.0 
-3.815163185240e-04 2.166489761297e-03 0.0 
2.166489761297e-03 1.052865157447e-02 0.0 
0.0 0.0 0.0 
8.754971356386e-04 3.134079577759e-05 0.0 
3.134079577759e-05 3.608420221002e-03 0.0 
0.0 0.0 0.0 
-9.738261549307e-04 1.742587178309e-03 0.0 
1.742587178309e-03 1.461121113749e-02 0.0 
0.0 0.0 0.0 
1.088586550703e-03 4.597917782072e-04 0.0 
4.597917782072e-04 4.952057809028e-03 0.0 
0.0 0.0 0.0 
-1.733307957830e-05 3.054834677239e-03 0.0 
3.054834677239e-03 1.290083147185e-02 0.0 
0.0 0.0 0.0 
0.0 2.677267183594e-03 0.0 
2.677267183594e-03 1.428096744999e-02 0.0 
0.0 0.0 0.0 
0.0 2.067008702170e-03 0.0 
2.067008702170e-03 1.559763830350e-02 0.0 
0.0 0.0 0.0 
0.0 2.392888600427e-03 0.0 
2.392888600427e-03 1.499859087044e-02 0.0 
0.0 0.0 0.0 
-7.196471667056e-04 2.135553262966e-03 0.0 
2.135553262966e-03 1.191395514809e-02 0.0 
0.0 0.0 0.0 
-1.100073763985e-03 1.809211210462e-03 0.0 
1.809211210462e-03 1.460306058338e-02 0.0 
0.0 0.0 0.0 
-4.405528831480e-04 2.338680827959e-03 0.0 
2.338680827959e-03 1.334429308173e-02 0.0 
0.0 0.0 0.0 
2.862613762833e-04 1.780280578764e-03 0.0 
1.780280578764e-03 6.587619830194e-03 0.0 
0.0 0.0 0.0 
5.241641689202e-05 1.829002257468e-03 0.0 
1.829002257468e-03 6.911301533942e-03 0.0 
0.0 0.0 0.0 
7.487122212506e-04 -9.178915247669e-05 0.0 
-9.178915247669e-05 3.389097247024e-03 0.0 
0.0 0.0 0.0 
-9.355724557968e-04 2.011187732413e-03 0.0 
2.011187732413e-03 1.438188503311e-02 0.0 
0.0 0.0 0.0 
7.660020517886e-05 3.001849910821e-03 0.0 
3.001849910821e-03 1.210621730002e-02 0.0 
0.0 0.0 0.0 
-9.040734294782e-04 1.661763085903e-03 0.0 
1.661763085903e-03 1.499218897812e-02 0.0 
0.0 0.0 0.0 
9.977178300480e-04 1.302995542657e-03 0.0 
1.302995542657e-03 6.592633592570e-03 0.0 
0.0 0.0 0.0 
-1.047862654155e-03 1.724207879122e-03 0.0 
1.724207879122e-03 1.498433626810e-02 0.0 
0.0 0.0 0.0 
4.559503006420e-04 2.040110507784e-03 0.0 
2.040110507784e-03 9.110045538741e-03 0.0 
0.0 0.0 0.0 
5.754356816781e-04 1.753536809228e-03 0.0 
1.753536809228e-03 6.728326512187e-03 0.0 
0.0 0.0 0.0 
-2.979039554244e-04 1.925453676653e-03 0.0 
1.925453676653e-03 8.010840757793e-03 0.0 
0.0 0.0 0.0 
2.235691354935e-04 8.468368322872e-04 0.0 
8.468368322872e-04 2.591457102584e-03 0.0 
0.0 0.0 0.0 
-3.022394703494e-04 1.354888619137e-03 0.0 
1.354888619137e-03 1.608414102627e-02 0.0 
0.0 0.0 0.0 
3.720220495895e-04 1.657427470906e-03 0.0 
1.657427470906e-03 5.924950361657e-03 0.0 
0.0 0.0 0.0 
1.712304334056e-04 2.488233436238e-03 0.0 
2.488233436238e-03 1.111054272152e-02 0.0 
0.0 0.0 0.0 
8.162100770939e-04 -1.176284965594e-05 0.0 
-1.176284965594e-05 3.376720192256e-03 0.0 
0.0 0.0 0.0 
6.003979179063e-04 -2.086408483324e-04 0.0 
-2.086408483324e-04 2.215284943434e-03 0.0 
0.0 0.0 0.0 
2.509491567795e-04 1.458987741915e-03 0.0 
1.458987741915e-03 8.592999215998e-03 0.0 
0.0 0.0 0.0 
4.806742966330e-04 1.200769855423e-03 0.0 
1.200769855423e-03 4.035763999261e-03 0.0 
0.0 0.0 0.0 
0.0 2.780572755206e-03 0.0 
2.780572755206e-03 1.390397185175e-02 0.0 
0.0 0.0 0.0 
-3.435961245654e-04 2.118413174940e-03 0.0 
2.118413174940e-03 1.509556153031e-02 0.0 
0.0 0.0 0.0 
5.287939954357e-06 2.158095969554e-03 0.0 
2.158095969554e-03 9.463776359872e-03 0.0 
0.0 0.0 0.0 
-2.144943580199e-04 -1.748080409760e-04 0.0 
-1.748080409760e-04 4.946933047210e-04 0.0 
0.0 0.0 0.0 
0.0 2.877054802153e-03 0.0 
2.877054802153e-03 1.310103503381e-02 0.0 
0.0 0.0 0.0 
2.395961252368e-04 1.711643010068e-03 0.0 
1.711643010068e-03 8.947497655704e-03 0.0 
0.0 0.0 0.0 
7.014355658554e-04 -4.642721446820e-05 0.0 
-4.642721446820e-05 2.190267509898e-03 0.0 
0.0 0.0 0.0 
1.013816036523e-03 1.250961661777e-03 0.0 
1.250961661777e-03 6.580736013470e-03 0.0 
0.0 0.0 0.0 
2.003381075244e-04 2.502558471495e-03 0.0 
2.502558471495e-03 1.042864928177e-02 0.0 
0.0 0.0 0.0 
-3.708741427616e-04 -7.026471917461e-05 0.0 
-7.026471917461e-05 2.836402234176e-04 0.0 
0.0 0.0 0.0 
4.922131424696e-04 1.700572445116e-03 0.0 
1.700572445116e-03 6.320916409859e-03 0.0 
0.0 0.0 0.0 
-1.680947367688e-04 2.204514365683e-03 0.0 
2.204514365683e-03 1.017219753572e-02 0.0 
0.0 0.0 0.0 
1.707454106321e-04 2.088329841501e-03 0.0 
2.088329841501e-03 8.757622188099e-03 0.0 
0.0 0.0 0.0 
-2.054103710817e-04 2.165590632019e-03 0.0 
2.165590632019e-03 9.802733700699e-03 0.0 
0.0 0.0 0.0 
2.562168246485e-04 1.021476179883e-03 0.0 
1.021476179883e-03 3.095513391797e-03 0.0 
0.0 0.0 0.0 
0.0 2.864582174616e-03 0.0 
2.864582174616e-03 1.229762627389e-02 0.0 
0.0 0.0 0.0 
9.544945522830e-04 6.974204568602e-04 0.0 
6.974204568602e-04 4.242649228678e-03 0.0 
0.0 0.0 0.0 
-1.337915033218e-04 9.357172390072e-06 0.0 
9.357172390072e-06 1.413641499452e-03 0.0 
0.0 0.0 0.0 
3.033427657653e-04 6.370523019312e-04 0.0 
6.370523019312e-04 7.978491327664e-03 0.0 
0.0 0.0 0.0 
-3.725388491684e-04 -1.635772201122e-04 0.0 
-1.635772201122e-04 5.370895450680e-04 0.0 
0.0 0.0 0.0 
-5.629055425979e-04 2.022778931587e-03 0.0 
2.022778931587e-03 9.542038296813e-03 0.0 
0.0 0.0 0.0 
1.141766130142e-04 -2.092511369307e-04 0.0 
-2.092511369307e-04 1.101435924601e-03 0.0 
0.0 0.0 0.0 
-1.154038624833e-03 1.812046451436e-03 0.0 
1.812046451436e-03 1.149835856920e-02 0.0 
0.0 0.0 0.0 
2.443912553578e-04 1.914851593322e-03 0.0 
1.914851593322e-03 9.456999449019e-03 0.0 
0.0 0.0 0.0 
0.0 2.755072417826e-03 0.0 
2.755072417826e-03 1.154870071633e-02 0.0 
0.0 0.0 0.0 
-7.894523605950e-04 2.090818972673e-03 0.0 
2.090818972673e-03 1.161513276868e-02 0.0 
0.0 0.0 0.0 
-1.063568681234e-04 -2.415525963902e-04 0.0 
-2.415525963902e-04 8.281609560998e-04 0.0 
0.0 0.0 0.0 
-2.080102354879e-04 1.677933385260e-04 0.0 
1.677933385260e-04 1.075440287712e-03 0.0 
0.0 0.0 0.0 
-1.053826425221e-04 -2.217580406263e-04 0.0 
-2.217580406263e-04 1.197389226012e-03 0.0 
0.0 0.0 0.0 
6.186661525960e-04 6.022938070704e-04 0.0 
6.022938070704e-04 6.797918332637e-03 0.0 
0.0 0.0 0.0 
-1.404877255756e-03 4.312930957633e-04 0.0 
4.312930957633e-04 1.382987468242e-02 0.0 
0.0 0.0 0.0 
-1.611450413871e-03 1.516794041767e-03 0.0 
1.516794041767e-03 1.339563332669e-02 0.0 
0.0 0.0 0.0 
0.0 2.576034507202e-03 0.0 
2.576034507202e-03 1.088738530290e-02 0.0 
0.0 0.0 0.0 
-1.296622312467e-03 2.737144588877e-04 0.0 
2.737144588877e-04 1.386308773723e-02 0.0 
0.0 0.0 0.0 
-2.947502373696e-04 2.082823677502e-03 0.0 
2.082823677502e-03 1.570473501521e-02 0.0 
0.0 0.0 0.0 
6.116414449386e-04 2.085338469183e-03 0.0 
2.085338469183e-03 8.911770436131e-03 0.0 
0.0 0.0 0.0 
-1.264737385165e-03 3.977718182236e-04 0.0 
3.977718182236e-04 1.455572137386e-02 0.0 
0.0 0.0 0.0 
-7.795881935002e-05 1.588609479150e-03 0.0 
1.588609479150e-03 5.150296719152e-03 0.0 
0.0 0.0 0.0 
1.116468099914e-03 1.380928551922e-03 0.0 
1.380928551922e-03 6.562090566957e-03 0.0 
0.0 0.0 0.0 
9.984582681200e-05 3.577135694854e-04 0.0 
3.577135694854e-04 2.193882178274e-03 0.0 
0.0 0.0 0.0 
0.0 2.329076928131e-03 0.0 
2.329076928131e-03 1.029510941943e-02 0.0 
0.0 0.0 0.0 
0.0 2.550108682285e-03 0.0 
2.550108682285e-03 1.464877303524e-02 0.0 
0.0 0.0 0.0 
0.0 2.232718407584e-03 0.0 
2.232718407584e-03 1.533137931519e-02 0.0 
0.0 0.0 0.0 
9.809935605223e-04 3.546070090906e-04 0.0 
3.546070090906e-04 4.968254133903e-03 0.0 
0.0 0.0 0.0 
6.974880949213e-04 -1.170624331963e-04 0.0 
-1.170624331963e-04 3.162993782518e-03 0.0 
0.0 0.0 0.0 
5.315083871054e-04 1.602499930877e-03 0.0 
1.602499930877e-03 6.751733679274e-03 0.0 
0.0 0.0 0.0 
1.034379373716e-03 4.433022795111e-04 0.0 
4.433022795111e-04 5.113685438348e-03 0.0 
0.0 0.0 0.0 
0.0 2.068708607781e-03 0.0 
2.068708607781e-03 9.807918309954e-03 0.0 
0.0 0.0 0.0 
4.273581731473e-04 7.643108329164e-04 0.0 
7.643108329164e-04 3.532538741978e-03 0.0 
0.0 0.0 0.0 
9.150740323267e-04 1.800918046722e-04 0.0 
1.800918046722e-04 2.740570376467e-03 0.0 
0.0 0.0 0.0 
9.519593966130e-04 1.361048640641e-04 0.0 
1.361048640641e-04 2.846494493105e-03 0.0 
0.0 0.0 0.0 
-1.199524563625e-03 4.106870711123e-04 0.0 
4.106870711123e-04 1.477826729519e-02 0.0 
0.0 0.0 0.0 
2.017379993144e-04 1.470095708931e-03 0.0 
1.470095708931e-03 8.985994482771e-03 0.0 
0.0 0.0 0.0 
-3.311714699267e-04 -2.222991475580e-04 0.0 
-2.222991475580e-04 9.049745443857e-04 0.0 
0.0 0.0 0.0 
0.0 1.767491672955e-03 0.0 
1.767491672955e-03 9.368320746989e-03 0.0 
0.0 0.0 0.0 
8.553688602908e-04 2.344802045630e-05 0.0 
2.344802045630e-05 2.571184975260e-03 0.0 
0.0 0.0 0.0 
0.0 2.852216879044e-03 0.0 
2.852216879044e-03 1.351207562355e-02 0.0 
0.0 0.0 0.0 
-5.584828383312e-04 2.369394640452e-03 0.0 
2.369394640452e-03 1.333991000930e-02 0.0 
0.0 0.0 0.0 
-5.997381880962e-04 -6.731493821799e-05 0.0 
-6.731493821799e-05 3.648371839566e-04 0.0 
0.0 0.0 0.0 
6.716623679326e-04 1.607674619751e-03 0.0 
1.607674619751e-03 6.087822912307e-03 0.0 
0.0 0.0 0.0 
-1.074302629715e-03 1.418772985477e-03 0.0 
1.418772985477e-03 1.542181755607e-02 0.0 
0.0 0.0 0.0 
0.0 2.887180356232e-03 0.0 
2.887180356232e-03 1.269735086276e-02 0.0 
0.0 0.0 0.0 
-7.191184537627e-04 2.172216001968e-03 0.0 
2.172216001968e-03 1.190912910933e-02 0.0 
0.0 0.0 0.0 
6.898718225647e-04 2.045581391040e-03 0.0 
2.045581391040e-03 8.766525457248e-03 0.0 
0.0 0.0 0.0 
-4.912349993957e-05 8.596605866634e-04 0.0 
8.596605866634e-04 2.205598418513e-03 0.0 
0.0 0.0 0.0 
4.638396468524e-04 1.539903362430e-03 0.0 
1.539903362430e-03 8.358229719258e-03 0.0 
0.0 0.0 0.0 
8.811445426682e-04 4.116903436471e-06 0.0 
4.116903436471e-06 2.701950102372e-03 0.0 
0.0 0.0 0.0 
8.388734630373e-04 -2.880825539121e-05 0.0 
-2.880825539121e-05 2.869021406712e-03 0.0 
0.0 0.0 0.0 
-6.196591121757e-04 -1.714881394484e-04 0.0 
-1.714881394484e-04 6.738640987403e-04 0.0 
0.0 0.0 0.0 
0.0 2.818905494704e-03 0.0 
2.818905494704e-03 1.191562499093e-02 0.0 
0.0 0.0 0.0 
3.361122998291e-04 3.927516770117e-04 0.0 
3.927516770117e-04 2.574441292669e-03 0.0 
0.0 0.0 0.0 
7.473708595767e-04 9.990941030625e-04 0.0 
9.990941030625e-04 7.047526985300e-03 0.0 
0.0 0.0 0.0 
-1.345482364388e-03 2.786330193204e-04 0.0 
2.786330193204e-04 1.438027147121e-02 0.0 
0.0 0.0 0.0 
5.889681202831e-04 -2.584006151369e-04 0.0 
-2.584006151369e-04 2.246391633955e-03 0.0 
0.0 0.0 0.0 
8.012110951174e-04 -2.825299665572e-06 0.0 
-2.825299665572e-06 2.767544240918e-03 0.0 
0.0 0.0 0.0 
-5.541477573305e-04 2.185302235491e-03 0.0 
2.185302235491e-03 1.123068299871e-02 0.0 
0.0 0.0 0.0 
0.0 2.453693832251e-03 0.0 
2.453693832251e-03 1.058285915825e-02 0.0 
0.0 0.0 0.0 
7.533733234670e-04 -2.022332535959e-05 0.0 
-2.022332535959e-05 3.326769404822e-03 0.0 
0.0 0.0 0.0 
9.309730591249e-04 5.883430957093e-04 0.0 
5.883430957093e-04 5.772262959019e-03 0.0 
0.0 0.0 0.0 
4.991636721428e-04 1.934902903337e-03 0.0 
1.934902903337e-03 7.803180761544e-03 0.0 
0.0 0.0 0.0 
1.077704740725e-03 6.600839011760e-04 0.0 
6.600839011760e-04 5.371106658336e-03 0.0 
0.0 0.0 0.0 
8.836509969754e-04 1.298871863062e-04 0.0 
1.298871863062e-04 3.082281041551e-03 0.0 
0.0 0.0 0.0 
9.905987960701e-04 4.752982890923e-04 0.0 
4.752982890923e-04 5.283162726901e-03 0.0 
0.0 0.0 0.0 
2.965462587636e-04 1.879265562385e-03 0.0 
1.879265562385e-03 8.078832302683e-03 0.0 
0.0 0.0 0.0 
1.861030206878e-04 2.183751258598e-03 0.0 
2.183751258598e-03 9.990873463396e-03 0.0 
0.0 0.0 0.0 
1.040214757089e-03 1.491975179914e-03 0.0 
1.491975179914e-03 7.065401865801e-03 0.0 
0.0 0.0 0.0 
6.270816402714e-04 1.810048983796e-03 0.0 
1.810048983796e-03 7.148935786768e-03 0.0 
0.0 0.0 0.0 
8.900913489807e-04 1.676342556080e-05 0.0 
1.676342556080e-05 3.436463404533e-03 0.0 
0.0 0.0 0.0 
4.300065997767e-04 9.486693972112e-04 0.0 
9.486693972112e-04 4.072300521524e-03 0.0 
0.0 0.0 0.0 
7.556638794661e-04 -4.174248781989e-05 0.0 
-4.174248781989e-05 3.151363646478e-03 0.0 
0.0 0.0 0.0 
5.487422519621e-04 1.999770688536e-03 0.0 
1.999770688536e-03 8.927288637545e-03 0.0 
0.0 0.0 0.0 
1.205472501098e-03 1.101116641541e-03 0.0 
1.101116641541e-03 5.589788406170e-03 0.0 
0.0 0.0 0.0 
2.354652873779e-04 1.766078661903e-03 0.0 
1.766078661903e-03 9.290829841031e-03 0.0 
0.0 0.0 0.0 
-9.656367819582e-04 1.643907626857e-03 0.0 
1.643907626857e-03 1.532527746620e-02 0.0 
0.0 0.0 0.0 
5.651159803479e-04 -1.778061603173e-04 0.0 
-1.778061603173e-04 2.010297598118e-03 0.0 
0.0 0.0 0.0 
0.0 1.912660897292e-03 0.0 
1.912660897292e-03 9.551143541668e-03 0.0 
0.0 0.0 0.0 
4.645062708362e-04 1.728079805666e-03 0.0 
1.728079805666e-03 8.853021726155e-03 0.0 
0.0 0.0 0.0 
9.513345330197e-04 1.422025833948e-03 0.0 
1.422025833948e-03 5.766614462812e-03 0.0 
0.0 0.0 0.0 
-3.279524137267e-04 -1.813221382206e-04 0.0 
-1.813221382206e-04 5.552246456157e-04 0.0 
0.0 0.0 0.0 
2.353848934655e-04 1.343082990878e-03 0.0 
1.343082990878e-03 8.864455131492e-03 0.0 
0.0 0.0 0.0 
-8.993240034120e-04 1.934822838118e-03 0.0 
1.934822838118e-03 1.480646014654e-02 0.0 
0.0 0.0 0.0 
7.465330117979e-04 -6.661767972439e-05 0.0 
-6.661767972439e-05 2.319089621177e-03 0.0 
0.0 0.0 0.0 
0.0 1.485067543224e-03 0.0 
1.485067543224e-03 9.042486133384e-03 0.0 
0.0 0.0 0.0 
9.392183321542e-04 4.619123838784e-04 0.0 
4.619123838784e-04 5.443020596334e-03 0.0 
0.0 0.0 0.0 
-5.141443648271e-05 1.918035510709e-03 0.0 
1.918035510709e-03 7.616490934387e-03 0.0 
0.0 0.0 0.0 
-1.373961324512e-03 1.596965590964e-03 0.0 
1.596965590964e-03 1.307477459342e-02 0.0 
0.0 0.0 0.0 
1.076981838550e-03 1.012988418273e-03 0.0 
1.012988418273e-03 5.609373024795e-03 0.0 
0.0 0.0 0.0 
9.949776171632e-04 2.474404175739e-04 0.0 
2.474404175739e-04 4.509610912188e-03 0.0 
0.0 0.0 0.0 
1.065107760781e-03 8.181609974490e-04 0.0 
8.181609974490e-04 5.762039731241e-03 0.0 
0.0 0.0 0.0 
-1.430178335497e-03 1.579415631323e-03 0.0 
1.579415631323e-03 1.418260069738e-02 0.0 
0.0 0.0 0.0 
-3.265678660652e-04 2.059410812593e-03 0.0 
2.059410812593e-03 9.108914539197e-03 0.0 
0.0 0.0 0.0 
9.579500979213e-04 1.665134159090e-03 0.0 
1.665134159090e-03 7.581768456442e-03 0.0 
0.0 0.0 0.0 
-9.131489485514e-04 3.879145679484e-05 0.0 
3.879145679484e-05 1.450392648559e-02 0.0 
0.0 0.0 0.0 
8.063719244382e-04 -7.320769301192e-05 0.0 
-7.320769301192e-05 3.450445331992e-03 0.0 
0.0 0.0 0.0 
1.112233357964e-03 1.320355075885e-03 0.0 
1.320355075885e-03 6.571697381655e-03 0.0 
0.0 0.0 0.0 
7.772320481292e-04 -1.362297273383e-04 0.0 
-1.362297273383e-04 2.720216606486e-03 0.0 
0.0 0.0 0.0 
8.424082349703e-04 2.283235464496e-04 0.0 
2.283235464496e-04 5.084017297041e-03 0.0 
0.0 0.0 0.0 
-7.164970063271e-04 -7.065762342708e-05 0.0 
-7.065762342708e-05 4.125341368570e-04 0.0 
0.0 0.0 0.0 
4.094007512294e-04 1.135552472859e-03 0.0 
1.135552472859e-03 4.660016410327e-03 0.0 
0.0 0.0 0.0 
7.468246332443e-04 -1.326762667106e-04 0.0 
-1.326762667106e-04 2.593879126030e-03 0.0 
0.0 0.0 0.0 
8.575242476112e-04 4.526348038746e-05 0.0 
4.526348038746e-05 3.785230850391e-03 0.0 
0.0 0.0 0.0 
8.713885748699e-04 1.583598141515e-03 0.0 
1.583598141515e-03 6.345322600323e-03 0.0 
0.0 0.0 0.0 
1.043407239353e-03 5.630389008393e-04 0.0 
5.630389008393e-04 5.427554249487e-03 0.0 
0.0 0.0 0.0 
-1.289135535285e-03 2.898205841638e-04 0.0 
2.898205841638e-04 1.461820595337e-02 0.0 
0.0 0.0 0.0 
6.471737069387e-04 -2.136925239034e-04 0.0 
-2.136925239034e-04 2.342547036849e-03 0.0 
0.0 0.0 0.0 
0.0 1.361778375508e-03 0.0 
1.361778375508e-03 8.929026009877e-03 0.0 
0.0 0.0 0.0 
-1.685398598056e-04 2.163605321292e-03 0.0 
2.163605321292e-03 1.017780318108e-02 0.0 
0.0 0.0 0.0 
8.367138410270e-04 5.778145100102e-05 0.0 
5.778145100102e-05 3.963399860038e-03 0.0 
0.0 0.0 0.0 
-2.360877931484e-06 2.092689924699e-03 0.0 
2.092689924699e-03 9.472952775758e-03 0.0 
0.0 0.0 0.0 
7.884896606809e-04 -3.406732091977e-05 0.0 
-3.406732091977e-05 3.797421184764e-03 0.0 
0.0 0.0 0.0 
-4.539469620353e-04 -7.245490670038e-05 0.0 
-7.245490670038e-05 3.216155503090e-04 0.0 
0.0 0.0 0.0 
-1.508036947502e-03 1.615122888915e-03 0.0 
1.615122888915e-03 1.355164797136e-02 0.0 
0.0 0.0 0.0 
6.508979734410e-04 7.046894575072e-07 0.0 
7.046894575072e-07 3.089066178857e-03 0.0 
0.0 0.0 0.0 
-3.839916813342e-05 -4.417248082189e-05 0.0 
-4.417248082189e-05 1.328078500631e-04 0.0 
0.0 0.0 0.0 
7.949946292303e-04 2.368497414399e-05 0.0 
2.368497414399e-05 3.727619123707e-03 0.0 
0.0 0.0 0.0 
9.659628411383e-04 6.642298736343e-04 0.0 
6.642298736343e-04 5.920293817760e-03 0.0 
0.0 0.0 0.0 
-5.986276599399e-04 3.921486701814e-04 0.0 
3.921486701814e-04 1.589790930918e-02 0.0 
0.0 0.0 0.0 
1.105605999496e-03 6.943028738623e-04 0.0 
6.943028738623e-04 5.282078359762e-03 0.0 
0.0 0.0 0.0 
1.191498223319e-03 7.801449801537e-04 0.0 
7.801449801537e-04 5.349626817109e-03 0.0 
0.0 0.0 0.0 
-1.709531125733e-03 1.378172018415e-03 0.0 
1.378172018415e-03 1.321155073875e-02 0.0 
0.0 0.0 0.0 
-1.288317481943e-03 1.032054704278e-04 0.0 
1.032054704278e-04 1.357125821535e-02 0.0 
0.0 0.0 0.0 
-3.327299188547e-04 1.667871802066e-03 0.0 
1.667871802066e-03 1.580840953326e-02 0.0 
0.0 0.0 0.0 
1.532847445642e-04 1.993860534832e-03 0.0 
1.993860534832e-03 8.769998099156e-03 0.0 
0.0 0.0 0.0 
-6.825235609675e-05 -3.725377140946e-05 0.0 
-3.725377140946e-05 1.366293726743e-04 0.0 
0.0 0.0 0.0 
1.763551969305e-04 -2.906566293161e-04 0.0 
-2.906566293161e-04 1.237482126602e-03 0.0 
0.0 0.0 0.0 
-2.840755081922e-04 -1.837704956572e-04 0.0 
-1.837704956572e-04 5.286230202595e-04 0.0 
0.0 0.0 0.0 
5.283611076303e-04 -2.648399941759e-04 0.0 
-2.648399941759e-04 2.161044748448e-03 0.0 
0.0 0.0 0.0 
-1.051190924414e-04 2.427003977814e-03 0.0 
2.427003977814e-03 1.170021151492e-02 0.0 
0.0 0.0 0.0 
-6.973082635122e-04 3.580135969315e-04 0.0 
3.580135969315e-04 1.590234857749e-02 0.0 
0.0 0.0 0.0 
7.271577703980e-04 5.716453503904e-04 0.0 
5.716453503904e-04 6.452188384879e-03 0.0 
0.0 0.0 0.0 
5.915469011040e-04 -2.182543635934e-04 0.0 
-2.182543635934e-04 2.448270863658e-03 0.0 
0.0 0.0 0.0 
7.815295253915e-04 1.493239529976e-04 0.0 
1.493239529976e-04 5.097130549863e-03 0.0 
0.0 0.0 0.0 
7.563056908666e-04 1.048141915626e-03 0.0 
1.048141915626e-03 7.171841809132e-03 0.0 
0.0 0.0 0.0 
1.506343422808e-04 4.903367942182e-05 0.0 
4.903367942182e-05 1.776165140601e-03 0.0 
0.0 0.0 0.0 
6.363544633285e-04 -6.744836727125e-05 0.0 
-6.744836727125e-05 3.090293117676e-03 0.0 
0.0 0.0 0.0 
5.605131184132e-04 4.932568169258e-06 0.0 
4.932568169258e-06 2.510206975116e-03 0.0 
0.0 0.0 0.0 
2.008442740475e-04 1.204336566758e-03 0.0 
1.204336566758e-03 8.744201602660e-03 0.0 
0.0 0.0 0.0 
0.0 1.218521864240e-03 0.0 
1.218521864240e-03 8.800003682369e-03 0.0 
0.0 0.0 0.0 
6.795492383400e-04 -4.757399790746e-05 0.0 
-4.757399790746e-05 3.467204085035e-03 0.0 
0.0 0.0 0.0 
7.778688867606e-04 -1.789815337989e-05 0.0 
-1.789815337989e-05 3.975293144683e-03 0.0 
0.0 0.0 0.0 
1.063084834084e-03 3.455943432307e-04 0.0 
3.455943432307e-04 4.651026463293e-03 0.0 
0.0 0.0 0.0 
6.981542103985e-04 1.212848567744e-03 0.0 
1.212848567744e-03 7.576814066399e-03 0.0 
0.0 0.0 0.0 
2.690622838968e-04 -1.864294084125e-04 0.0 
-1.864294084125e-04 1.349921637592e-03 0.0 
0.0 0.0 0.0 
8.158199822457e-04 8.994955647444e-04 0.0 
8.994955647444e-04 6.788660424409e-03 0.0 
0.0 0.0 0.0 
9.321800458895e-05 -9.897007894059e-05 0.0 
-9.897007894059e-05 7.075424586378e-04 0.0 
0.0 0.0 0.0 
7.450284533119e-04 -6.893652221781e-05 0.0 
-6.893652221781e-05 3.563894270272e-03 0.0 
0.0 0.0 0.0 
8.285212862726e-04 1.375700993149e-05 0.0 
1.375700993149e-05 4.039263362530e-03 0.0 
0.0 0.0 0.0 
1.146111854853e-04 -5.454833518023e-05 0.0 
-5.454833518023e-05 3.549827343694e-04 0.0 
0.0 0.0 0.0 
6.717123528786e-04 1.739197274350e-05 0.0 
1.739197274350e-05 3.274317439978e-03 0.0 
0.0 0.0 0.0 
-7.948720087434e-04 1.598856630809e-03 0.0 
1.598856630809e-03 1.533182368992e-02 0.0 
0.0 0.0 0.0 
-2.857073315865e-05 -3.216878646019e-05 0.0 
-3.216878646019e-05 1.213091323282e-04 0.0 
0.0 0.0 0.0 
-1.394420613654e-03 2.023198901414e-04 0.0 
2.023198901414e-04 1.359801821006e-02 0.0 
0.0 0.0 0.0 
-1.238073679176e-03 3.072856530712e-04 0.0 
3.072856530712e-04 1.344618038661e-02 0.0 
0.0 0.0 0.0 
1.034547623579e-03 9.821238282669e-04 0.0 
9.821238282669e-04 6.180492612647e-03 0.0 
0.0 0.0 0.0 
5.438907332880e-04 -5.305654002961e-05 0.0 
-5.305654002961e-05 2.508074522321e-03 0.0 
0.0 0.0 0.0 
7.801564626169e-04 -7.733138244267e-05 0.0 
-7.733138244267e-05 2.457686915171e-03 0.0 
0.0 0.0 0.0 
-1.962831136959e-05 9.013304508685e-04 0.0 
9.013304508685e-04 3.316374744948e-03 0.0 
0.0 0.0 0.0 
5.120129896152e-04 5.929071103788e-04 0.0 
5.929071103788e-04 7.149191519469e-03 0.0 
0.0 0.0 0.0 
6.806220447397e-05 2.659199877954e-03 0.0 
2.659199877954e-03 1.171218730118e-02 0.0 
0.0 0.0 0.0 
-9.498220891810e-04 5.398443937724e-04 0.0 
5.398443937724e-04 1.568897127927e-02 0.0 
0.0 0.0 0.0 
-8.599124041575e-05 1.358991113447e-03 0.0 
1.358991113447e-03 5.179156964546e-03 0.0 
0.0 0.0 0.0 
1.578837142269e-05 -1.610280258281e-04 0.0 
-1.610280258281e-04 8.514024504127e-04 0.0 
0.0 0.0 0.0 
-7.580585797865e-04 2.040404231545e-03 0.0 
2.040404231545e-03 1.029404208203e-02 0.0 
0.0 0.0 0.0 
-1.071239896095e-03 6.904864467330e-06 0.0 
6.904864467330e-06 1.351312836451e-02 0.0 
0.0 0.0 0.0 
-9.661217983955e-04 -3.201573693223e-06 0.0 
-3.201573693223e-06 1.346475525365e-02 0.0 
0.0 0.0 0.0 
1.161103181246e-05 -3.740898414157e-05 0.0 
-3.740898414157e-05 1.139467323215e-04 0.0 
0.0 0.0 0.0 
9.329577996597e-05 -7.027131160326e-05 0.0 
-7.027131160326e-05 3.641047076728e-04 0.0 
0.0 0.0 0.0 
1.925974595842e-04 -5.494470678095e-05 0.0 
-5.494470678095e-05 6.764531727566e-04 0.0 
0.0 0.0 0.0 
4.560223974386e-04 -1.657732100049e-04 0.0 
-1.657732100049e-04 1.859523898964e-03 0.0 
0.0 0.0 0.0 
7.189741749780e-05 -4.701183125870e-05 0.0 
-4.701183125870e-05 3.605215914455e-04 0.0 
0.0 0.0 0.0 
6.960093742150e-04 2.441384920918e-05 0.0 
2.441384920918e-05 3.680828349061e-03 0.0 
0.0 0.0 0.0 
-6.966700020360e-04 -6.470226031711e-05 0.0 
-6.470226031711e-05 4.239210930386e-04 0.0 
0.0 0.0 0.0 
5.707646765603e-04 -1.427827594059e-04 0.0 
-1.427827594059e-04 2.224597841776e-03 0.0 
0.0 0.0 0.0 
-8.237757778495e-04 8.224567045129e-05 0.0 
8.224567045129e-05 1.484156247095e-02 0.0 
0.0 0.0 0.0 
-1.050703428336e-03 8.211753098849e-05 0.0 
8.211753098849e-05 1.346236922682e-02 0.0 
0.0 0.0 0.0 
-2.121684586954e-04 2.488752709221e-03 0.0 
2.488752709221e-03 1.230292941714e-02 0.0 
0.0 0.0 0.0 
9.762539196430e-04 5.401405826944e-04 0.0 
5.401405826944e-04 5.592756293578e-03 0.0 
0.0 0.0 0.0 
-8.632421890141e-04 5.143437706042e-05 0.0 
5.143437706042e-05 1.448878435944e-02 0.0 
0.0 0.0 0.0 
5.787472220611e-04 3.106245892286e-05 0.0 
3.106245892286e-05 2.691952564323e-03 0.0 
0.0 0.0 0.0 
1.354459004772e-04 -6.277411425454e-05 0.0 
-6.277411425454e-05 6.863293191226e-04 0.0 
0.0 0.0 0.0 
0.0 8.423058116075e-04 0.0 
8.423058116075e-04 1.658914120638e-02 0.0 
0.0 0.0 0.0 
-2.570738100490e-04 9.484757505405e-04 0.0 
9.484757505405e-04 1.655350289379e-02 0.0 
0.0 0.0 0.0 
-1.196847418264e-03 2.518777335774e-04 0.0 
2.518777335774e-04 1.438206420790e-02 0.0 
0.0 0.0 0.0 
-1.142799822421e-03 1.848291634566e-05 0.0 
1.848291634566e-05 1.352481206393e-02 0.0 
0.0 0.0 0.0 
5.794682651998e-04 -6.362347451387e-05 0.0 
-6.362347451387e-05 2.729260773422e-03 0.0 
0.0 0.0 0.0 
-2.103179157110e-04 6.469524388607e-04 0.0 
6.469524388607e-04 1.666033253199e-02 0.0 
0.0 0.0 0.0 
4.880597476831e-04 -2.522005517572e-04 0.0 
-2.522005517572e-04 2.081061390977e-03 0.0 
0.0 0.0 0.0 
-1.122520449973e-03 1.587060703630e-04 0.0 
1.587060703630e-04 1.345391946964e-02 0.0 
0.0 0.0 0.0 
-1.189103106610e-03 5.559437386940e-05 0.0 
5.559437386940e-05 1.354277437101e-02 0.0 
0.0 0.0 0.0 
-1.002072132067e-03 1.911659106340e-03 0.0 
1.911659106340e-03 1.078105407080e-02 0.0 
0.0 0.0 0.0 
0.0 1.892989028487e-03 0.0 
1.892989028487e-03 1.582693421556e-02 0.0 
0.0 0.0 0.0 
-2.426872506249e-04 7.964717878364e-04 0.0 
7.964717878364e-04 1.661692564241e-02 0.0 
0.0 0.0 0.0 
4.164513636518e-05 -6.156187758913e-05 0.0 
-6.156187758913e-05 3.713471471256e-04 0.0 
0.0 0.0 0.0 
4.161293750204e-05 -2.715392524002e-05 0.0 
-2.715392524002e-05 1.037076853616e-04 0.0 
0.0 0.0 0.0 
1.090742873491e-04 -1.642569167211e-04 0.0 
-1.642569167211e-04 1.007872625997e-03 0.0 
0.0 0.0 0.0 
9.054130023176e-04 9.802656680539e-05 0.0 
9.802656680539e-05 4.026301173005e-03 0.0 
0.0 0.0 0.0 
3.125956047114e-04 1.059670906113e-04 0.0 
1.059670906113e-04 7.399556192395e-03 0.0 
0.0 0.0 0.0 
-1.078948381995e-03 -8.020566224282e-05 0.0 
-8.020566224282e-05 5.614698927703e-04 0.0 
0.0 0.0 0.0 
-6.432421114568e-04 2.335214962977e-05 0.0 
2.335214962977e-05 1.560946190717e-02 0.0 
0.0 0.0 0.0 
-6.175983369970e-04 -7.526102974930e-05 0.0 
-7.526102974930e-05 3.950057314621e-04 0.0 
0.0 0.0 0.0 
1.135418550830e-03 8.959246044288e-04 0.0 
8.959246044288e-04 5.839093603486e-03 0.0 
0.0 0.0 0.0 
-8.439087607418e-04 -7.356826734679e-05 0.0 
-7.356826734679e-05 4.683644379129e-04 0.0 
0.0 0.0 0.0 
-9.631514575767e-04 -8.121292606901e-05 0.0 
-8.121292606901e-05 5.163701898543e-04 0.0 
0.0 0.0 0.0 
1.150080987490e-03 7.443201063206e-04 0.0 
7.443201063206e-04 5.462641421965e-03 0.0 
0.0 0.0 0.0 
3.958925191156e-04 2.761342043652e-04 0.0 
2.761342043652e-04 7.160739228803e-03 0.0 
0.0 0.0 0.0 
-8.661391445791e-04 4.478036064048e-05 0.0 
4.478036064048e-05 1.481095529927e-02 0.0 
0.0 0.0 0.0 
-5.043174175585e-04 2.070442133594e-03 0.0 
2.070442133594e-03 9.865813761461e-03 0.0 
0.0 0.0 0.0 
1.356264787848e-04 -4.335788162582e-05 0.0 
-4.335788162582e-05 3.441615167810e-04 0.0 
0.0 0.0 0.0 
7.416767434163e-04 1.406009297484e-04 0.0 
1.406009297484e-04 5.287435092739e-03 0.0 
0.0 0.0 0.0 
0.0 2.468467395555e-04 0.0 
2.468467395555e-04 1.671349007522e-02 0.0 
0.0 0.0 0.0 
-1.763468649881e-04 2.751071654708e-04 0.0 
2.751071654708e-04 1.672133551619e-02 0.0 
0.0 0.0 0.0 
-1.005741315050e-03 3.591261727583e-05 0.0 
3.591261727583e-05 1.345895582554e-02 0.0 
0.0 0.0 0.0 
1.103489256757e-03 1.053061233556e-03 0.0 
1.053061233556e-03 6.240450248867e-03 0.0 
0.0 0.0 0.0 
0.0 6.977334945650e-04 0.0 
6.977334945650e-04 1.664657624779e-02 0.0 
0.0 0.0 0.0 
6.035441149035e-04 1.954223382242e-03 0.0 
1.954223382242e-03 8.780248347219e-03 0.0 
0.0 0.0 0.0 
1.399648897300e-04 -3.117848812467e-05 0.0 
-3.117848812467e-05 6.666321122653e-04 0.0 
0.0 0.0 0.0 
9.720140286684e-05 -3.622412185173e-05 0.0 
-3.622412185173e-05 3.487077001760e-04 0.0 
0.0 0.0 0.0 
1.420377496411e-04 -3.478085023642e-05 0.0 
-3.478085023642e-05 3.376298612350e-04 0.0 
0.0 0.0 0.0 
6.388098959325e-04 3.079970364668e-05 0.0 
3.079970364668e-05 3.078378332354e-03 0.0 
0.0 0.0 0.0 
1.234471572111e-04 2.375577726811e-04 0.0 
2.375577726811e-04 8.279043415534e-03 0.0 
0.0 0.0 0.0 
-2.866342901915e-04 -1.903250272984e-05 0.0 
-1.903250272984e-05 1.642100042168e-02 0.0 
0.0 0.0 0.0 
9.841972768654e-05 -7.268742972278e-06 0.0 
-7.268742972278e-06 7.204739632272e-05 0.0 
0.0 0.0 0.0 
6.971311375352e-04 -3.650581003831e-05 0.0 
-3.650581003831e-05 3.680916207571e-03 0.0 
0.0 0.0 0.0 
0.0 2.085716113479e-04 0.0 
2.085716113479e-04 8.297956839170e-03 0.0 
0.0 0.0 0.0 
1.419840350745e-04 3.388015226962e-04 0.0 
3.388015226962e-04 8.288652430856e-03 0.0 
0.0 0.0 0.0 
2.286533604574e-04 1.076839590320e-03 0.0 
1.076839590320e-03 8.641300732284e-03 0.0 
0.0 0.0 0.0 
-7.285952583789e-04 6.341675744394e-05 0.0 
6.341675744394e-05 1.526058605932e-02 0.0 
0.0 0.0 0.0 
-5.768086512496e-04 -2.414141719954e-05 0.0 
-2.414141719954e-05 1.578321984945e-02 0.0 
0.0 0.0 0.0 
0.0 2.795073182055e-04 0.0 
2.795073182055e-04 8.266512227220e-03 0.0 
0.0 0.0 0.0 
0.0 3.597885357700e-04 0.0 
3.597885357700e-04 8.311746727252e-03 0.0 
0.0 0.0 0.0 
-6.280969309713e-04 6.982389021656e-05 0.0 
6.982389021656e-05 1.561109632696e-02 0.0 
0.0 0.0 0.0 
7.510241268771e-05 6.419219142985e-06 0.0 
6.419219142985e-06 6.404991065567e-05 0.0 
0.0 0.0 0.0 
-9.491665700597e-04 -6.526898526532e-06 0.0 
-6.526898526532e-06 1.344800141018e-02 0.0 
0.0 0.0 0.0 
-9.835256738562e-04 1.422886919347e-05 0.0 
1.422886919347e-05 1.347534076197e-02 0.0 
0.0 0.0 0.0 
7.212967195569e-05 -1.698548463274e-05 0.0 
-1.698548463274e-05 9.091660399818e-05 0.0 
0.0 0.0 0.0 
0.0 6.572736540468e-04 0.0 
6.572736540468e-04 8.442750546778e-03 0.0 
0.0 0.0 0.0 
1.981608990338e-04 9.524631160021e-04 0.0 
9.524631160021e-04 8.549038851331e-03 0.0 
0.0 0.0 0.0 
0.0 8.591223811943e-04 0.0 
8.591223811943e-04 8.506310366376e-03 0.0 
0.0 0.0 0.0 
3.330127927015e-05 -8.126042377995e-06 0.0 
-8.126042377995e-06 9.349620653731e-05 0.0 
0.0 0.0 0.0 
5.485301432406e-06 -2.092952260748e-05 0.0 
-2.092952260748e-05 1.085646690595e-04 0.0 
0.0 0.0 0.0 
0.0 1.100044590512e-03 0.0 
1.100044590512e-03 8.690723692888e-03 0.0 
0.0 0.0 0.0 
0.0 9.733083210082e-04 0.0 
9.733083210082e-04 8.595828828042e-03 0.0 
0.0 0.0 0.0 
-7.749012807492e-04 -3.139011471762e-05 0.0 
-3.139011471762e-05 1.507341743127e-02 0.0 
0.0 0.0 0.0 
-9.401065351540e-04 4.469943361283e-06 0.0 
4.469943361283e-06 1.343629734531e-02 0.0 
0.0 0.0 0.0 
-6.823983361052e-04 -2.776780276396e-05 0.0 
-2.776780276396e-05 1.543614006977e-02 0.0 
0.0 0.0 0.0 
-8.841649309658e-04 -3.568035198731e-05 0.0 
-3.568035198731e-05 1.429569564092e-02 0.0 
0.0 0.0 0.0 
-9.418694515765e-04 3.327030287697e-07 0.0 
3.327030287697e-07 1.343506733095e-02 0.0 
0.0 0.0 0.0 
-1.376094163467e-04 -3.195701693674e-05 0.0 
-3.195701693674e-05 1.678670032526e-04 0.0 
0.0 0.0 0.0 
-3.042268455251e-04 -5.621233681620e-05 0.0 
-5.621233681620e-05 2.497337818610e-04 0.0 
0.0 0.0 0.0 
-3.783892670770e-04 -5.738874069149e-05 0.0 
-5.738874069149e-05 2.690522257807e-04 0.0 
0.0 0.0 0.0 
-4.903246152151e-04 -6.500927213444e-05 0.0 
-6.500927213444e-05 3.186835527074e-04 0.0 
0.0 0.0 0.0 
7.100550487575e-04 3.796053167692e-05 0.0 
3.796053167692e-05 3.892595018315e-03 0.0 
0.0 0.0 0.0 
6.848235985508e-04 3.292751191000e-05 0.0 
3.292751191000e-05 3.476189146010e-03 0.0 
0.0 0.0 0.0 
-2.083427489044e-04 -5.492977873236e-05 0.0 
-5.492977873236e-05 2.162914458108e-04 0.0 
0.0 0.0 0.0 
6.989740007441e-04 4.129364130237e-05 0.0 
4.129364130237e-05 5.182699899411e-03 0.0 
0.0 0.0 0.0 
-3.005192768697e-04 -6.568987279672e-05 0.0 
-6.568987279672e-05 2.521658400330e-04 0.0 
0.0 0.0 0.0 
0.0 1.513112068563e-03 0.0 
1.513112068563e-03 1.620026506728e-02 0.0 
0.0 0.0 0.0 
0.0 5.749311320901e-04 0.0 
5.749311320901e-04 1.667365854158e-02 0.0 
0.0 0.0 0.0 
0.0 9.998873689936e-04 0.0 
9.998873689936e-04 1.651530010408e-02 0.0 
0.0 0.0 0.0 
2.713460867565e-04 3.384018609841e-05 0.0 
3.384018609841e-05 1.184670154856e-03 0.0 
0.0 0.0 0.0 
5.114688689107e-04 3.084855477973e-05 0.0 
3.084855477973e-05 2.311157961314e-03 0.0 
0.0 0.0 0.0 
0.0 4.479959174045e-04 0.0 
4.479959174045e-04 1.668257751608e-02 0.0 
0.0 0.0 0.0 
4.887500821171e-04 3.757572865314e-05 0.0 
3.757572865314e-05 6.640462176982e-03 0.0 
0.0 0.0 0.0 
0.0 3.490137026764e-04 0.0 
3.490137026764e-04 1.673487197929e-02 0.0 
0.0 0.0 0.0 
3.690522551294e-04 4.032305149013e-05 0.0 
4.032305149013e-05 7.159066842257e-03 0.0 
0.0 0.0 0.0 
2.309443559807e-04 5.037452411412e-05 0.0 
5.037452411412e-05 7.694754202445e-03 0.0 
0.0 0.0 0.0 
6.617323160434e-04 -4.561273509401e-05 0.0 
-4.561273509401e-05 3.274340892814e-03 0.0 
0.0 0.0 0.0 
-2.236842403367e-04 5.125319961481e-04 0.0 
5.125319961481e-04 1.667831903761e-02 0.0 
0.0 0.0 0.0 
-1.743676731623e-04 4.335458866333e-04 0.0 
4.335458866333e-04 1.670237933048e-02 0.0 
0.0 0.0 0.0 
4.234732315358e-04 1.547849686954e-05 0.0 
1.547849686954e-05 6.871533424921e-03 0.0 
0.0 0.0 0.0 
2.984887663451e-04 2.302051436971e-05 0.0 
2.302051436971e-05 7.404262574910e-03 0.0 
0.0 0.0 0.0 
6.648138799823e-04 1.096129841460e-04 0.0 
1.096129841460e-04 5.680981600394e-03 0.0 
0.0 0.0 0.0 
-5.385097382787e-04 -7.773875757428e-05 0.0 
-7.773875757428e-05 3.615492401094e-04 0.0 
0.0 0.0 0.0 
6.983452465508e-04 -9.195616488537e-05 0.0 
-9.195616488537e-05 3.337169604360e-03 0.0 
0.0 0.0 0.0 
1.363225682649e-05 -7.967541365558e-05 0.0 
-7.967541365558e-05 3.770080084744e-04 0.0 
0.0 0.0 0.0 
4.654849932271e-04 5.268012689081e-04 0.0 
5.268012689081e-04 7.155999220326e-03 0.0 
0.0 0.0 0.0 
8.065324380824e-04 6.269339735847e-06 0.0 
6.269339735847e-06 3.552154044565e-03 0.0 
0.0 0.0 0.0 
5.785445457041e-04 2.821763183214e-04 0.0 
2.821763183214e-04 6.437144628491e-03 0.0 
0.0 0.0 0.0 
3.737768847394e-04 -2.737392819508e-04 0.0 
-2.737392819508e-04 1.719502492567e-03 0.0 
0.0 0.0 0.0 
1.053559561792e-04 -1.023800974386e-04 0.0 
-1.023800974386e-04 6.878990997814e-04 0.0 
0.0 0.0 0.0 
4.454366942124e-04 2.452681334967e-04 0.0 
2.452681334967e-04 6.946960306354e-03 0.0 
0.0 0.0 0.0 
7.457457036812e-04 -4.966001041415e-05 0.0 
-4.966001041415e-05 3.739713272496e-03 0.0 
0.0 0.0 0.0 
6.110607189096e-04 1.118524239888e-05 0.0 
1.118524239888e-05 2.888153905917e-03 0.0 
0.0 0.0 0.0 
5.533809928151e-04 2.096320779276e-04 0.0 
2.096320779276e-04 6.448819134374e-03 0.0 
0.0 0.0 0.0 
-4.406481295002e-04 2.082423749895e-04 0.0 
2.082423749895e-04 1.608069185023e-02 0.0 
0.0 0.0 0.0 
6.085670900153e-04 -5.064833870071e-05 0.0 
-5.064833870071e-05 2.886984189489e-03 0.0 
0.0 0.0 0.0 
8.433933010292e-04 6.997745251774e-04 0.0 
6.997745251774e-04 6.281036387226e-03 0.0 
0.0 0.0 0.0 
9.063937022933e-04 3.171550592468e-04 0.0 
3.171550592468e-04 5.172962483343e-03 0.0 
0.0 0.0 0.0 
6.926484826084e-04 1.847846514967e-04 0.0 
1.847846514967e-04 5.669227473949e-03 0.0 
0.0 0.0 0.0 
6.418455307424e-04 1.555675684692e-04 0.0 
1.555675684692e-04 5.879833635803e-03 0.0 
0.0 0.0 0.0 
1.039183601534e-03 7.242270011306e-04 0.0 
7.242270011306e-04 3.760026402592e-03 0.0 
0.0 0.0 0.0 
-6.019566428566e-04 1.999164904534e-03 0.0 
1.999164904534e-03 9.545595165369e-03 0.0 
0.0 0.0 0.0 
6.834625757359e-04 1.512047022794e-03 0.0 
1.512047022794e-03 6.538779763083e-03 0.0 
0.0 0.0 0.0 
7.922549472492e-04 2.181407465713e-04 0.0 
2.181407465713e-04 5.275185412831e-03 0.0 
0.0 0.0 0.0 
4.973842764173e-04 1.678944163438e-04 0.0 
1.678944163438e-04 6.664507356035e-03 0.0 
0.0 0.0 0.0 
5.923165416162e-04 1.254902560724e-04 0.0 
1.254902560724e-04 6.099365478347e-03 0.0 
0.0 0.0 0.0 
4.629787266959e-04 -2.002884784170e-04 0.0 
-2.002884784170e-04 1.791652450797e-03 0.0 
0.0 0.0 0.0 
-4.924638285616e-04 3.550315440572e-04 0.0 
3.550315440572e-04 1.606579814537e-02 0.0 
0.0 0.0 0.0 
-6.338530419829e-04 2.936997989636e-04 0.0 
2.936997989636e-04 1.574806045279e-02 0.0 
0.0 0.0 0.0 
-9.496305018211e-04 6.796194110159e-05 0.0 
6.796194110159e-05 1.402442420815e-02 0.0 
0.0 0.0 0.0 
7.896046978608e-04 2.897309819279e-04 0.0 
2.897309819279e-04 5.551183770436e-03 0.0 
0.0 0.0 0.0 
7.420422015245e-04 2.035278557786e-04 0.0 
2.035278557786e-04 5.470513254678e-03 0.0 
0.0 0.0 0.0 
-5.068407037561e-04 1.724751412923e-04 0.0 
1.724751412923e-04 1.609208800994e-02 0.0 
0.0 0.0 0.0 
-5.524453456105e-04 2.609708629745e-04 0.0 
2.609708629745e-04 1.592043876637e-02 0.0 
0.0 0.0 0.0 
8.755707316657e-04 2.378474659812e-04 0.0 
2.378474659812e-04 5.006795108394e-03 0.0 
0.0 0.0 0.0 
3.844853496751e-04 1.944415059200e-04 0.0 
1.944415059200e-04 7.168106947842e-03 0.0 
0.0 0.0 0.0 
-8.073726180106e-04 5.547811387550e-04 0.0 
5.547811387550e-04 1.568671780377e-02 0.0 
0.0 0.0 0.0 
5.752678893336e-04 5.199106412157e-05 0.0 
5.199106412157e-05 6.099296322910e-03 0.0 
0.0 0.0 0.0 
3.838078719112e-04 4.696812040503e-04 0.0 
4.696812040503e-04 7.387677893942e-03 0.0 
0.0 0.0 0.0 
-5.718597289400e-04 3.217476864334e-04 0.0 
3.217476864334e-04 1.607185466026e-02 0.0 
0.0 0.0 0.0 
-9.156625919048e-04 1.978595983854e-04 0.0 
1.978595983854e-04 1.522660249091e-02 0.0 
0.0 0.0 0.0 
8.701368587702e-04 5.683154281644e-04 0.0 
5.683154281644e-04 5.935352163058e-03 0.0 
0.0 0.0 0.0 
4.048302564341e-04 -8.427601006970e-05 0.0 
-8.427601006970e-05 1.763768224603e-03 0.0 
0.0 0.0 0.0 
4.035877902580e-04 -2.053611200295e-04 0.0 
-2.053611200295e-04 1.656740303570e-03 0.0 
0.0 0.0 0.0 
3.328858018614e-05 -2.683484151837e-04 0.0 
-2.683484151837e-04 8.659362633137e-04 0.0 
0.0 0.0 0.0 
-5.390210648302e-04 -1.790635360491e-04 0.0 
-1.790635360491e-04 6.238948245691e-04 0.0 
0.0 0.0 0.0 
-6.060044795987e-04 2.212477261254e-04 0.0 
2.212477261254e-04 1.592442947911e-02 0.0 
0.0 0.0 0.0 
4.480218089602e-04 2.008123190801e-04 0.0 
2.008123190801e-04 6.864933137048e-03 0.0 
0.0 0.0 0.0 
-4.548092650654e-04 -1.752054275316e-04 0.0 
-1.752054275316e-04 5.780681761625e-04 0.0 
0.0 0.0 0.0 
-7.651412058355e-04 2.179069332882e-03 0.0 
2.179069332882e-03 1.414674182977e-02 0.0 
0.0 0.0 0.0 
-9.633635189865e-04 9.031390550210e-05 0.0 
9.031390550210e-05 1.423194330181e-02 0.0 
0.0 0.0 0.0 
6.086097340092e-04 2.395647610996e-04 0.0 
2.395647610996e-04 6.248080049012e-03 0.0 
0.0 0.0 0.0 
5.553071430380e-04 1.807723914809e-04 0.0 
1.807723914809e-04 6.362438154285e-03 0.0 
0.0 0.0 0.0 
8.024761665757e-04 -8.080129719546e-05 0.0 
-8.080129719546e-05 2.596080135780e-03 0.0 
0.0 0.0 0.0 
5.424381885193e-04 1.057703912250e-04 0.0 
1.057703912250e-04 6.373289659276e-03 0.0 
0.0 0.0 0.0 
-9.867370609903e-04 -1.467572762980e-06 0.0 
-1.467572762980e-06 1.402288726713e-02 0.0 
0.0 0.0 0.0 
9.395282537763e-04 1.376040434079e-03 0.0 
1.376040434079e-03 7.083003950859e-03 0.0 
0.0 0.0 0.0 
3.289431205660e-04 5.061905388707e-04 0.0 
5.061905388707e-04 7.606499961714e-03 0.0 
0.0 0.0 0.0 
3.907747707075e-04 -3.498145093666e-05 0.0 
-3.498145093666e-05 1.701441639097e-03 0.0 
0.0 0.0 0.0 
4.054097493620e-04 6.350892008191e-04 0.0 
6.350892008191e-04 7.504037217384e-03 0.0 
0.0 0.0 0.0 
-8.246859147336e-04 1.893552419357e-04 0.0 
1.893552419357e-04 1.541327490766e-02 0.0 
0.0 0.0 0.0 
4.417775217744e-04 -5.284110371989e-05 0.0 
-5.284110371989e-05 1.921785578935e-03 0.0 
0.0 0.0 0.0 
4.957805721566e-04 -2.894063139526e-04 0.0 
-2.894063139526e-04 2.026048994561e-03 0.0 
0.0 0.0 0.0 
7.523531213620e-04 5.131510801787e-05 0.0 
5.131510801787e-05 4.278729959124e-03 0.0 
0.0 0.0 0.0 
-9.741499736663e-04 2.233115866633e-04 0.0 
2.233115866633e-04 1.483705633833e-02 0.0 
0.0 0.0 0.0 
6.857676728336e-04 -8.375842365784e-05 0.0 
-8.375842365784e-05 2.762573364617e-03 0.0 
0.0 0.0 0.0 
-7.323397208405e-04 1.701443488603e-04 0.0 
1.701443488603e-04 1.559739096867e-02 0.0 
0.0 0.0 0.0 
-8.991684290584e-04 1.215156343884e-04 0.0 
1.215156343884e-04 1.504101463903e-02 0.0 
0.0 0.0 0.0 
8.142099750252e-04 6.681589032960e-05 0.0 
6.681589032960e-05 4.146281713624e-03 0.0 
0.0 0.0 0.0 
6.203972193195e-04 8.389478662338e-05 0.0 
8.389478662338e-05 5.884965538737e-03 0.0 
0.0 0.0 0.0 
5.914828625735e-04 1.397190396145e-04 0.0 
1.397190396145e-04 6.165210148546e-03 0.0 
0.0 0.0 0.0 
-7.451056856729e-04 2.312115658456e-04 0.0 
2.312115658456e-04 1.540692349803e-02 0.0 
0.0 0.0 0.0 
3.061131632656e-04 -2.003361793148e-04 0.0 
-2.003361793148e-04 1.469581270758e-03 0.0 
0.0 0.0 0.0 
7.810793811913e-04 3.474019178792e-05 0.0 
3.474019178792e-05 3.910557892909e-03 0.0 
0.0 0.0 0.0 
7.418907629062e-04 1.967640306680e-03 0.0 
1.967640306680e-03 8.637086302129e-03 0.0 
0.0 0.0 0.0 
-8.251137368411e-04 2.782454744748e-04 0.0 
2.782454744748e-04 1.557692968808e-02 0.0 
0.0 0.0 0.0 
7.522830099524e-04 2.132196515811e-06 0.0 
2.132196515811e-06 3.495477510757e-03 0.0 
0.0 0.0 0.0 
8.297178487278e-04 2.322465350457e-04 0.0 
2.322465350457e-04 5.187073342483e-03 0.0 
0.0 0.0 0.0 
4.804625512431e-04 6.760082153541e-04 0.0 
6.760082153541e-04 7.329332980591e-03 0.0 
0.0 0.0 0.0 
-8.249629968929e-04 2.373060173429e-04 0.0 
2.373060173429e-04 1.522169428957e-02 0.0 
0.0 0.0 0.0 
-2.824776074339e-04 -1.174434622855e-04 0.0 
-1.174434622855e-04 1.106053758768e-03 0.0 
0.0 0.0 0.0 
7.313683112664e-05 -2.140948546461e-04 0.0 
-2.140948546461e-04 8.229538131861e-04 0.0 
0.0 0.0 0.0 
3.848903909924e-04 1.022174638498e-04 0.0 
1.022174638498e-04 2.164940553546e-03 0.0 
0.0 0.0 0.0 
5.132196246447e-04 2.486826271090e-04 0.0 
2.486826271090e-04 6.652218119147e-03 0.0 
0.0 0.0 0.0 
-9.034950590481e-04 2.344463503363e-04 0.0 
2.344463503363e-04 1.503252695136e-02 0.0 
0.0 0.0 0.0 
7.302314734232e-04 -2.311323477191e-06 0.0 
-2.311323477191e-06 4.717909187729e-03 0.0 
0.0 0.0 0.0 
-9.975375558964e-04 1.350760488159e-04 0.0 
1.350760488159e-04 1.444240015430e-02 0.0 
0.0 0.0 0.0 
6.671084060532e-04 9.576708118998e-04 0.0 
9.576708118998e-04 7.185415815418e-03 0.0 
0.0 0.0 0.0 
7.906565822793e-04 7.357150879905e-05 0.0 
7.357150879905e-05 4.330965415133e-03 0.0 
0.0 0.0 0.0 
6.143869483952e-04 2.169927520757e-04 0.0 
2.169927520757e-04 6.153240562786e-03 0.0 
0.0 0.0 0.0 
3.876057695158e-04 -1.431830710281e-04 0.0 
-1.431830710281e-04 1.773415489528e-03 0.0 
0.0 0.0 0.0 
4.289792597847e-04 5.689431548189e-04 0.0 
5.689431548189e-04 7.391781797717e-03 0.0 
0.0 0.0 0.0 
7.628349766398e-04 -5.587689052013e-06 0.0 
-5.587689052013e-06 4.158005796822e-03 0.0 
0.0 0.0 0.0 
4.167692043047e-04 -1.138960016551e-04 0.0 
-1.138960016551e-04 1.931429948584e-03 0.0 
0.0 0.0 0.0 
7.373645418121e-04 -3.661941533105e-05 0.0 
-3.661941533105e-05 3.922510273588e-03 0.0 
0.0 0.0 0.0 
6.956486476331e-04 -5.934069472685e-05 0.0 
-5.934069472685e-05 2.930627369733e-03 0.0 
0.0 0.0 0.0 
5.225416838235e-04 -2.230887046066e-04 0.0 
-2.230887046066e-04 2.237435690290e-03 0.0 
0.0 0.0 0.0 
7.441098190317e-04 6.977859194431e-05 0.0 
6.977859194431e-05 4.703836151673e-03 0.0 
0.0 0.0 0.0 
-9.252827032225e-05 -5.164326500102e-05 0.0 
-5.164326500102e-05 1.725559806389e-04 0.0 
0.0 0.0 0.0 
-1.701475605563e-04 -5.521456019343e-05 0.0 
-5.521456019343e-05 2.061928200749e-04 0.0 
0.0 0.0 0.0 
7.025072507578e-04 1.279624818397e-04 0.0 
1.279624818397e-04 5.482351882788e-03 0.0 
0.0 0.0 0.0 
3.483500893446e-04 -1.743252910921e-04 0.0 
-1.743252910921e-04 1.621039008772e-03 0.0 
0.0 0.0 0.0 
7.340759336920e-04 2.097800076156e-04 0.0 
2.097800076156e-04 5.563792520765e-03 0.0 
0.0 0.0 0.0 
7.822901001306e-04 2.234754939348e-04 0.0 
2.234754939348e-04 5.373201263553e-03 0.0 
0.0 0.0 0.0 
8.223529207334e-04 -3.074550578544e-05 0.0 
-3.074550578544e-05 3.204395972744e-03 0.0 
0.0 0.0 0.0 
6.316615403950e-04 -1.363081662262e-04 0.0 
-1.363081662262e-04 2.086322614919e-03 0.0 
0.0 0.0 0.0 
-8.107510632297e-04 5.141648764607e-04 0.0 
5.141648764607e-04 1.586277582364e-02 0.0 
0.0 0.0 0.0 
-2.056861046761e-04 3.776055994121e-04 0.0 
3.776055994121e-04 1.443999669024e-03 0.0 
0.0 0.0 0.0 
7.017872817925e-04 -3.697764935753e-05 0.0 
-3.697764935753e-05 3.104103910443e-03 0.0 
0.0 0.0 0.0 
5.902651812473e-04 1.125723944688e-03 0.0 
1.125723944688e-03 7.569051683398e-03 0.0 
0.0 0.0 0.0 
3.175834908800e-04 -8.736449486339e-05 0.0 
-8.736449486339e-05 1.383601189471e-03 0.0 
0.0 0.0 0.0 
-1.033636701617e-03 1.177620414236e-04 0.0 
1.177620414236e-04 1.465355129224e-02 0.0 
0.0 0.0 0.0 
-1.032820573385e-03 4.132685090982e-05 0.0 
4.132685090982e-05 1.423880466218e-02 0.0 
0.0 0.0 0.0 
2.508025082291e-04 -2.757671645545e-04 0.0 
-2.757671645545e-04 1.365122825884e-03 0.0 
0.0 0.0 0.0 
5.657594796717e-04 7.332916916272e-04 0.0 
7.332916916272e-04 7.133137036155e-03 0.0 
0.0 0.0 0.0 
-1.062006631996e-03 4.174317865899e-04 0.0 
4.174317865899e-04 1.536777297926e-02 0.0 
0.0 0.0 0.0 
3.641098604508e-04 -1.107052644253e-04 0.0 
-1.107052644253e-04 1.608091341610e-03 0.0 
0.0 0.0 0.0 
-7.931406115518e-04 6.595944306300e-04 0.0 
6.595944306300e-04 1.597766251749e-02 0.0 
0.0 0.0 0.0 
-6.466034708713e-04 6.752181824917e-04 0.0 
6.752181824917e-04 1.597433188186e-02 0.0 
0.0 0.0 0.0 
4.008650195639e-04 -2.001168012477e-04 0.0 
-2.001168012477e-04 1.821309517106e-03 0.0 
0.0 0.0 0.0 
-1.526842095059e-04 1.495353551300e-03 0.0 
1.495353551300e-03 5.852956456823e-03 0.0 
0.0 0.0 0.0 
4.198393974435e-04 -2.465464759285e-04 0.0 
-2.465464759285e-04 1.872347806499e-03 0.0 
0.0 0.0 0.0 
6.407701087789e-04 1.696199076301e-04 0.0 
1.696199076301e-04 5.958423182922e-03 0.0 
0.0 0.0 0.0 
7.668760886745e-04 7.485614577959e-05 0.0 
7.485614577959e-05 4.518715661863e-03 0.0 
0.0 0.0 0.0 
-7.564087107924e-04 1.889741612539e-03 0.0 
1.889741612539e-03 1.481317566721e-02 0.0 
0.0 0.0 0.0 
-6.852155741838e-04 5.324089789017e-04 0.0 
5.324089789017e-04 1.586020159019e-02 0.0 
0.0 0.0 0.0 
6.867600976341e-04 1.919447325971e-04 0.0 
1.919447325971e-04 5.759671785523e-03 0.0 
0.0 0.0 0.0 
7.306314994251e-04 2.700693024408e-04 0.0 
2.700693024408e-04 5.747454332130e-03 0.0 
0.0 0.0 0.0 
3.276587597685e-04 -1.732264123350e-04 0.0 
-1.732264123350e-04 1.500949544212e-03 0.0 
0.0 0.0 0.0 
6.724621156298e-04 2.454412114413e-04 0.0 
2.454412114413e-04 5.946632060342e-03 0.0 
0.0 0.0 0.0 
-9.239091728541e-04 4.314352254240e-04 0.0 
4.314352254240e-04 1.536566706571e-02 0.0 
0.0 0.0 0.0 
7.376717821637e-04 6.074247434031e-06 0.0 
6.074247434031e-06 4.529545984336e-03 0.0 
0.0 0.0 0.0 
-1.001101999597e-03 1.998840484051e-04 0.0 
1.998840484051e-04 1.503687910441e-02 0.0 
0.0 0.0 0.0 
-9.445953691155e-04 4.057559893016e-04 0.0 
4.057559893016e-04 1.555040202786e-02 0.0 
0.0 0.0 0.0 
1.165113100317e-03 1.075270815490e-03 0.0 
1.075270815490e-03 5.116542343152e-03 0.0 
0.0 0.0 0.0 
-7.096702633490e-04 4.147313970826e-04 0.0 
4.147313970826e-04 1.572515079775e-02 0.0 
0.0 0.0 0.0 
7.436737474018e-04 1.931166611911e-05 0.0 
1.931166611911e-05 3.698292460346e-03 0.0 
0.0 0.0 0.0 
7.499589322650e-04 2.591403838954e-06 0.0 
2.591403838954e-06 4.342376962715e-03 0.0 
0.0 0.0 0.0 
6.353917379698e-04 -5.971480687389e-05 0.0 
-5.971480687389e-05 2.722129582104e-03 0.0 
0.0 0.0 0.0 
7.362606034325e-04 -1.612972079141e-04 0.0 
-1.612972079141e-04 2.895233846274e-03 0.0 
0.0 0.0 0.0 
-9.144940263760e-04 3.214443513230e-04 0.0 
3.214443513230e-04 1.520630016832e-02 0.0 
0.0 0.0 0.0 
9.581815479349e-04 1.451871278496e-04 0.0 
1.451871278496e-04 4.221318342249e-03 0.0 
0.0 0.0 0.0 
4.588623306692e-04 -2.169256380007e-04 0.0 
-2.169256380007e-04 2.028719336467e-03 0.0 
0.0 0.0 0.0 
1.199646960670e-04 -2.542932693901e-04 0.0 
-2.542932693901e-04 1.019118921788e-03 0.0 
0.0 0.0 0.0 
-1.032817397247e-03 2.972869316546e-04 0.0 
2.972869316546e-04 1.520952245753e-02 0.0 
0.0 0.0 0.0 
4.953580821840e-04 -1.419271559482e-04 0.0 
-1.419271559482e-04 2.016881379273e-03 0.0 
0.0 0.0 0.0 
4.548907528719e-04 7.120878886154e-04 0.0 
7.120878886154e-04 7.496197950948e-03 0.0 
0.0 0.0 0.0 
-8.229605585367e-04 3.225536814601e-04 0.0 
3.225536814601e-04 1.539150931217e-02 0.0 
0.0 0.0 0.0 
6.446647500369e-04 3.187663689263e-04 0.0 
3.187663689263e-04 6.235852769045e-03 0.0 
0.0 0.0 0.0 
2.421239437593e-04 1.574696161230e-03 0.0 
1.574696161230e-03 8.748192522603e-03 0.0 
0.0 0.0 0.0 
7.079946479389e-04 -7.050508173534e-05 0.0 
-7.050508173534e-05 3.511189658947e-03 0.0 
0.0 0.0 0.0 
4.256131457114e-04 -1.299415341768e-04 0.0 
-1.299415341768e-04 1.810331187815e-03 0.0 
0.0 0.0 0.0 
1.909528713868e-04 -1.600757614173e-04 0.0 
-1.600757614173e-04 1.143013042488e-03 0.0 
0.0 0.0 0.0 
7.193748943044e-04 2.911186910722e-04 0.0 
2.911186910722e-04 5.851130644861e-03 0.0 
0.0 0.0 0.0 
-8.947569767008e-04 1.697358754633e-04 0.0 
1.697358754633e-04 1.485092037663e-02 0.0 
0.0 0.0 0.0 
5.900167103445e-05 -1.386119085808e-04 0.0 
-1.386119085808e-04 8.047351792615e-04 0.0 
0.0 0.0 0.0 
6.335776624786e-04 -1.581783833809e-04 0.0 
-1.581783833809e-04 2.774310708067e-03 0.0 
0.0 0.0 0.0 
3.419393211057e-04 -1.160446334283e-04 0.0 
-1.160446334283e-04 1.568904142311e-03 0.0 
0.0 0.0 0.0 
-1.077679398197e-03 1.957431466782e-04 0.0 
1.957431466782e-04 1.484059428231e-02 0.0 
0.0 0.0 0.0 
6.511424800550e-04 -1.301986748955e-04 0.0 
-1.301986748955e-04 2.941730484469e-03 0.0 
0.0 0.0 0.0 
8.485783371057e-04 3.049761400338e-04 0.0 
3.049761400338e-04 5.359875032328e-03 0.0 
0.0 0.0 0.0 
6.006803088741e-04 -1.322890683841e-04 0.0 
-1.322890683841e-04 2.729796121512e-03 0.0 
0.0 0.0 0.0 
-7.160809872313e-04 2.556971439281e-04 0.0 
2.556971439281e-04 1.575336667123e-02 0.0 
0.0 0.0 0.0 
5.976770991154e-04 -1.172739966542e-04 0.0 
-1.172739966542e-04 2.386265006933e-03 0.0 
0.0 0.0 0.0 
7.601153779377e-04 4.071662335897e-04 0.0 
4.071662335897e-04 5.962966348048e-03 0.0 
0.0 0.0 0.0 
3.477303200299e-04 -3.211100370536e-04 0.0 
-3.211100370536e-04 1.675213638837e-03 0.0 
0.0 0.0 0.0 
7.755838133876e-04 3.091907871530e-04 0.0 
3.091907871530e-04 5.660283699059e-03 0.0 
0.0 0.0 0.0 
7.344824420761e-04 -1.619505730428e-05 0.0 
-1.619505730428e-05 4.115345945881e-03 0.0 
0.0 0.0 0.0 
7.119181616524e-04 3.483893750380e-04 0.0 
3.483893750380e-04 6.034901763434e-03 0.0 
0.0 0.0 0.0 
9.964807398501e-04 3.205013857155e-04 0.0 
3.205013857155e-04 3.055165774261e-03 0.0 
0.0 0.0 0.0 
3.538614898364e-04 -5.555803996336e-05 0.0 
-5.555803996336e-05 1.553447542215e-03 0.0 
0.0 0.0 0.0 
-9.950885292032e-04 6.053666795989e-05 0.0 
6.053666795989e-05 1.445975014642e-02 0.0 
0.0 0.0 0.0 
1.022618739069e-03 7.820561955423e-04 0.0 
7.820561955423e-04 5.856642811832e-03 0.0 
0.0 0.0 0.0 
3.911243991332e-04 1.832025761403e-03 0.0 
1.832025761403e-03 6.979516699495e-03 0.0 
0.0 0.0 0.0 
-9.716439004077e-04 1.234232018438e-04 0.0 
1.234232018438e-04 1.485245532063e-02 0.0 
0.0 0.0 0.0 
4.472628776231e-04 -3.061601214661e-04 0.0 
-3.061601214661e-04 1.887333702021e-03 0.0 
0.0 0.0 0.0 
-1.115661375729e-03 4.195418124310e-04 0.0 
4.195418124310e-04 1.498109421524e-02 0.0 
0.0 0.0 0.0 
2.983605889957e-04 -1.463143576165e-04 0.0 
-1.463143576165e-04 1.406539838677e-03 0.0 
0.0 0.0 0.0 
5.433703565287e-04 5.583689672537e-04 0.0 
5.583689672537e-04 6.985987245464e-03 0.0 
0.0 0.0 0.0 
9.933690800412e-04 9.441194598843e-04 0.0 
9.441194598843e-04 6.257404002220e-03 0.0 
0.0 0.0 0.0 
8.534980759456e-04 1.554443007489e-03 0.0 
1.554443007489e-03 7.597639134767e-03 0.0 
0.0 0.0 0.0 
-6.324854854759e-04 6.191012298663e-04 0.0 
6.191012298663e-04 1.615290837278e-02 0.0 
0.0 0.0 0.0 
9.594817586658e-04 2.443123632269e-04 0.0 
2.443123632269e-04 4.666853078092e-03 0.0 
0.0 0.0 0.0 
3.162075774465e-04 -1.348586043300e-04 0.0 
-1.348586043300e-04 1.455181668157e-03 0.0 
0.0 0.0 0.0 
8.839120595407e-04 3.355373857772e-04 0.0 
3.355373857772e-04 5.298777293478e-03 0.0 
0.0 0.0 0.0 
5.333668258432e-04 7.692566386578e-04 0.0 
7.692566386578e-04 7.314574524925e-03 0.0 
0.0 0.0 0.0 
6.836518828532e-04 -2.080978391014e-04 0.0 
-2.080978391014e-04 2.477282548354e-03 0.0 
0.0 0.0 0.0 
6.633664546216e-04 2.680905202785e-04 0.0 
2.680905202785e-04 6.047423036037e-03 0.0 
0.0 0.0 0.0 
-9.315701576854e-04 2.909696169600e-04 0.0 
2.909696169600e-04 1.539557223628e-02 0.0 
0.0 0.0 0.0 
5.795362337373e-04 -1.236469433108e-04 0.0 
-1.236469433108e-04 1.949371186668e-03 0.0 
0.0 0.0 0.0 
8.306722925160e-04 3.235709890341e-04 0.0 
3.235709890341e-04 5.476294216654e-03 0.0 
0.0 0.0 0.0 
-1.190762092946e-03 1.720036495228e-04 0.0 
1.720036495228e-04 1.442500958028e-02 0.0 
0.0 0.0 0.0 
4.708541111522e-04 -1.358877898244e-04 0.0 
-1.358877898244e-04 2.141787079245e-03 0.0 
0.0 0.0 0.0 
6.143825401401e-04 -1.882110909249e-04 0.0 
-1.882110909249e-04 2.609735820722e-03 0.0 
0.0 0.0 0.0 
4.657686670906e-04 1.814034897037e-03 0.0 
1.814034897037e-03 7.820623848019e-03 0.0 
0.0 0.0 0.0 
7.793411845771e-04 3.727236908931e-04 0.0 
3.727236908931e-04 5.838218411214e-03 0.0 
0.0 0.0 0.0 
-9.787297173747e-05 1.806652331340e-03 0.0 
1.806652331340e-03 7.632381042362e-03 0.0 
0.0 0.0 0.0 
5.844429171553e-04 1.670471473969e-03 0.0 
1.670471473969e-03 7.170030213449e-03 0.0 
0.0 0.0 0.0 
-1.023713618408e-03 4.272556180067e-04 0.0 
4.272556180067e-04 1.517656304134e-02 0.0 
0.0 0.0 0.0 
-9.505338934387e-04 1.578202841620e-04 0.0 
1.578202841620e-04 1.464862328422e-02 0.0 
0.0 0.0 0.0 
-1.141359166340e-03 2.729909672169e-04 0.0 
2.729909672169e-04 1.461978251699e-02 0.0 
0.0 0.0 0.0 
7.660925521840e-04 4.320496714028e-05 0.0 
4.320496714028e-05 4.101984607486e-03 0.0 
0.0 0.0 0.0 
6.476761901031e-04 7.703982025104e-04 0.0 
7.703982025104e-04 6.967196657861e-03 0.0 
0.0 0.0 0.0 
9.344480612647e-04 3.455163496455e-04 0.0 
3.455163496455e-04 5.128854328512e-03 0.0 
0.0 0.0 0.0 
-1.087893737100e-03 1.057840085567e-04 0.0 
1.057840085567e-04 1.444604533314e-02 0.0 
0.0 0.0 0.0 
-6.008022218138e-04 2.351204288336e-03 0.0 
2.351204288336e-03 1.391142948590e-02 0.0 
0.0 0.0 0.0 
7.508646700183e-04 1.726472567974e-03 0.0 
1.726472567974e-03 8.130469915585e-03 0.0 
0.0 0.0 0.0 
8.461537423967e-04 3.932409639047e-04 0.0 
3.932409639047e-04 5.646923211126e-03 0.0 
0.0 0.0 0.0 
-8.181502683099e-04 4.271269756106e-04 0.0 
4.271269756106e-04 1.554747014833e-02 0.0 
0.0 0.0 0.0 
7.446096378239e-04 -1.396473547798e-04 0.0 
-1.396473547798e-04 3.052085526730e-03 0.0 
0.0 0.0 0.0 
6.789461141312e-04 -1.710132196401e-04 0.0 
-1.710132196401e-04 2.827346649434e-03 0.0 
0.0 0.0 0.0 
3.085357576456e-04 -2.555344396519e-04 0.0 
-2.555344396519e-04 1.513722122936e-03 0.0 
0.0 0.0 0.0 
8.827076998712e-04 4.461336729230e-04 0.0 
4.461336729230e-04 5.607538633094e-03 0.0 
0.0 0.0 0.0 
6.901749559476e-04 -1.436959099899e-04 0.0 
-1.436959099899e-04 2.993239020927e-03 0.0 
0.0 0.0 0.0 
-1.126717401067e-03 2.965683469624e-04 0.0 
2.965683469624e-04 1.501736892573e-02 0.0 
0.0 0.0 0.0 
-1.212223140784e-03 2.928581908106e-04 0.0 
2.928581908106e-04 1.481924787457e-02 0.0 
0.0 0.0 0.0 
1.102652312272e-03 8.365554233134e-04 0.0 
8.365554233134e-04 5.138518236742e-03 0.0 
0.0 0.0 0.0 
6.534196028358e-04 -1.324230336312e-04 0.0 
-1.324230336312e-04 2.435607233070e-03 0.0 
0.0 0.0 0.0 
9.188029993226e-04 6.485607201926e-04 0.0 
6.485607201926e-04 3.331072361717e-03 0.0 
0.0 0.0 0.0 
6.719627286607e-04 -1.086145887336e-04 0.0 
-1.086145887336e-04 2.597058307254e-03 0.0 
0.0 0.0 0.0 
7.477445243023e-04 -8.588072791318e-05 0.0 
-8.588072791318e-05 2.813806756387e-03 0.0 
0.0 0.0 0.0 
3.810782876683e-04 -1.541001692060e-04 0.0 
-1.541001692060e-04 1.655185479818e-03 0.0 
0.0 0.0 0.0 
7.278142380216e-04 8.091734710070e-04 0.0 
8.091734710070e-04 6.802237845616e-03 0.0 
0.0 0.0 0.0 
9.710692722424e-04 7.266472007072e-05 0.0 
7.266472007072e-05 3.517072134567e-03 0.0 
0.0 0.0 0.0 
-8.219731149138e-04 3.854550303381e-04 0.0 
3.854550303381e-04 1.572897972363e-02 0.0 
0.0 0.0 0.0 
1.036338410699e-03 1.575207782718e-04 0.0 
1.575207782718e-04 3.775826700843e-03 0.0 
0.0 0.0 0.0 
9.747048970115e-04 4.280138878899e-04 0.0 
4.280138878899e-04 5.284141864168e-03 0.0 
0.0 0.0 0.0 
1.027226309168e-03 2.457770868589e-04 0.0 
2.457770868589e-04 4.367860540739e-03 0.0 
0.0 0.0 0.0 
8.104067223698e-04 1.424477687159e-03 0.0 
1.424477687159e-03 6.369685491530e-03 0.0 
0.0 0.0 0.0 
3.574135984747e-04 -2.285893356487e-04 0.0 
-2.285893356487e-04 1.667649871806e-03 0.0 
0.0 0.0 0.0 
6.245574344999e-04 8.054613669882e-04 0.0 
8.054613669882e-04 7.119302091155e-03 0.0 
0.0 0.0 0.0 
4.911394169789e-04 8.617722697105e-04 0.0 
8.617722697105e-04 7.538066734087e-03 0.0 
0.0 0.0 0.0 
3.722831250610e-04 2.159679557067e-03 0.0 
2.159679557067e-03 9.318174614138e-03 0.0 
0.0 0.0 0.0 
8.241720402147e-04 -4.850968978671e-05 0.0 
-4.850968978671e-05 3.037546620004e-03 0.0 
0.0 0.0 0.0 
1.015003384923e-03 3.365094457543e-04 0.0 
3.365094457543e-04 4.817816653202e-03 0.0 
0.0 0.0 0.0 
-9.992318892071e-04 3.127585989589e-04 0.0 
3.127585989589e-04 1.501506346465e-02 0.0 
0.0 0.0 0.0 
7.485517045465e-04 -1.155528098666e-04 0.0 
-1.155528098666e-04 3.217826070137e-03 0.0 
0.0 0.0 0.0 
4.463898284477e-04 1.538282814078e-03 0.0 
1.538282814078e-03 6.346216639906e-03 0.0 
0.0 0.0 0.0 
5.503309982682e-04 -1.920739589569e-04 0.0 
-1.920739589569e-04 2.398094445664e-03 0.0 
0.0 0.0 0.0 
5.458761508685e-04 -2.716696997296e-04 0.0 
-2.716696997296e-04 2.107711692449e-03 0.0 
0.0 0.0 0.0 
8.100295126172e-04 -9.335812116897e-05 0.0 
-9.335812116897e-05 3.285567158010e-03 0.0 
0.0 0.0 0.0 
5.278232229271e-04 -1.157097560118e-04 0.0 
-1.157097560118e-04 2.177271610003e-03 0.0 
0.0 0.0 0.0 
4.374577522737e-04 -1.699896293700e-04 0.0 
-1.699896293700e-04 1.979398615830e-03 0.0 
0.0 0.0 0.0 
9.287262596824e-04 1.482124269440e-04 0.0 
1.482124269440e-04 4.383394682341e-03 0.0 
0.0 0.0 0.0 
9.117357058073e-04 4.117787650732e-04 0.0 
4.117787650732e-04 5.462295674174e-03 0.0 
0.0 0.0 0.0 
2.092095666106e-04 2.418940459680e-03 0.0 
2.418940459680e-03 1.082283476370e-02 0.0 
0.0 0.0 0.0 
-2.323660180495e-04 -3.738620138802e-05 0.0 
-3.738620138802e-05 2.081840455650e-04 0.0 
0.0 0.0 0.0 
1.129158326522e-03 2.884406521051e-04 0.0 
2.884406521051e-04 3.772336529499e-03 0.0 
0.0 0.0 0.0 
1.053958564739e-03 1.616800516918e-04 0.0 
1.616800516918e-04 3.624616680502e-03 0.0 
0.0 0.0 0.0 
9.001159373239e-04 3.905207944492e-06 0.0 
3.905207944492e-06 3.271057951513e-03 0.0 
0.0 0.0 0.0 
-1.075033593926e-03 2.953152424521e-04 0.0 
2.953152424521e-04 1.481851521755e-02 0.0 
0.0 0.0 0.0 
1.012271348078e-03 1.573595208693e-04 0.0 
1.573595208693e-04 3.934030901377e-03 0.0 
0.0 0.0 0.0 
6.190026556692e-04 -8.952722964384e-05 0.0 
-8.952722964384e-05 2.551144152462e-03 0.0 
0.0 0.0 0.0 
8.732474424182e-04 -2.916379624114e-05 0.0 
-2.916379624114e-05 3.533253665021e-03 0.0 
0.0 0.0 0.0 
-7.293700762879e-04 3.142302844186e-04 0.0 
3.142302844186e-04 1.557243387248e-02 0.0 
0.0 0.0 0.0 
5.723062136243e-04 -1.604969837601e-04 0.0 
-1.604969837601e-04 2.562436698894e-03 0.0 
0.0 0.0 0.0 
1.376556130199e-04 -1.298571030675e-04 0.0 
-1.298571030675e-04 9.315230364022e-04 0.0 
0.0 0.0 0.0 
2.584315393175e-04 -1.514037032451e-04 0.0 
-1.514037032451e-04 1.297372665410e-03 0.0 
0.0 0.0 0.0 
6.726976243521e-04 -1.378038937264e-04 0.0 
-1.378038937264e-04 2.228570389405e-03 0.0 
0.0 0.0 0.0 
7.368998817059e-04 -1.068188279621e-04 0.0 
-1.068188279621e-04 2.654179723709e-03 0.0 
0.0 0.0 0.0 
1.115546996640e-03 2.701382281442e-04 0.0 
2.701382281442e-04 3.906257814968e-03 0.0 
0.0 0.0 0.0 
9.315425199679e-04 5.048145034154e-05 0.0 
5.048145034154e-05 3.794078102965e-03 0.0 
0.0 0.0 0.0 
2.833865476666e-04 -3.350108517754e-04 0.0 
-3.350108517754e-04 1.533949319816e-03 0.0 
0.0 0.0 0.0 
2.544603921639e-04 -2.298943972045e-04 0.0 
-2.298943972045e-04 1.308924027848e-03 0.0 
0.0 0.0 0.0 
-1.461881399727e-03 4.516979070827e-04 0.0 
4.516979070827e-04 1.455609744370e-02 0.0 
0.0 0.0 0.0 
4.921542483958e-04 -1.859540266427e-04 0.0 
-1.859540266427e-04 2.188181583425e-03 0.0 
0.0 0.0 0.0 
8.604926875730e-04 7.625705991430e-04 0.0 
7.625705991430e-04 6.428308413975e-03 0.0 
0.0 0.0 0.0 
3.419998617276e-04 2.321554404859e-03 0.0 
2.321554404859e-03 1.018271399873e-02 0.0 
0.0 0.0 0.0 
-1.308661776180e-03 1.844296204752e-03 0.0 
1.844296204752e-03 1.324506515215e-02 0.0 
0.0 0.0 0.0 
-8.904327024493e-04 9.029380948016e-04 0.0 
9.029380948016e-04 1.568033130772e-02 0.0 
0.0 0.0 0.0 
1.006251318267e-04 2.495397684888e-03 0.0 
2.495397684888e-03 1.144702280346e-02 0.0 
0.0 0.0 0.0 
1.065906892147e-03 9.027802346748e-04 0.0 
9.027802346748e-04 5.142931262694e-03 0.0 
0.0 0.0 0.0 
3.638661556431e-04 2.232516074649e-03 0.0 
2.232516074649e-03 9.746568915939e-03 0.0 
0.0 0.0 0.0 
3.842914361984e-04 -3.184368197488e-04 0.0 
-3.184368197488e-04 1.750052935334e-03 0.0 
0.0 0.0 0.0 
8.619684147311e-04 -1.547269601582e-05 0.0 
-1.547269601582e-05 3.693927444633e-03 0.0 
0.0 0.0 0.0 
1.009292472517e-03 1.253646597081e-03 0.0 
1.253646597081e-03 5.217916040155e-03 0.0 
0.0 0.0 0.0 
6.389232635169e-04 -5.876626364175e-06 0.0 
-5.876626364175e-06 2.073344940364e-03 0.0 
0.0 0.0 0.0 
1.925138715164e-04 -3.410141444478e-04 0.0 
-3.410141444478e-04 1.410283686422e-03 0.0 
0.0 0.0 0.0 
7.537555764683e-04 -6.389157175623e-05 0.0 
-6.389157175623e-05 2.980674277391e-03 0.0 
0.0 0.0 0.0 
9.451138049517e-04 4.597181797382e-05 0.0 
4.597181797382e-05 3.645374209360e-03 0.0 
0.0 0.0 0.0 
1.000981602112e-03 1.477202388081e-04 0.0 
1.477202388081e-04 3.926584772993e-03 0.0 
0.0 0.0 0.0 
5.544811388878e-04 -8.845325008309e-05 0.0 
-8.845325008309e-05 2.340045863453e-03 0.0 
0.0 0.0 0.0 
1.063791713003e-03 2.497897826119e-04 0.0 
2.497897826119e-04 4.204708145220e-03 0.0 
0.0 0.0 0.0 
1.012326718279e-03 1.565236374401e-04 0.0 
1.565236374401e-04 3.796025438023e-03 0.0 
0.0 0.0 0.0 
1.181059685612e-03 4.185049322553e-04 0.0 
4.185049322553e-04 4.085242317962e-03 0.0 
0.0 0.0 0.0 
6.633089478261e-04 -1.973908216019e-04 0.0 
-1.973908216019e-04 2.668050371049e-03 0.0 
0.0 0.0 0.0 
9.861297385889e-04 1.153197309839e-03 0.0 
1.153197309839e-03 6.624587923075e-03 0.0 
0.0 0.0 0.0 
-1.172596248968e-03 4.266298732972e-04 0.0 
4.266298732972e-04 1.517713168077e-02 0.0 
0.0 0.0 0.0 
1.185176332973e-03 4.548412221195e-04 0.0 
4.548412221195e-04 3.979413262776e-03 0.0 
0.0 0.0 0.0 
7.250548009767e-04 8.587023963370e-04 0.0 
8.587023963370e-04 6.953378856641e-03 0.0 
0.0 0.0 0.0 
4.927040863205e-04 -2.764897042922e-04 0.0 
-2.764897042922e-04 1.972777041180e-03 0.0 
0.0 0.0 0.0 
5.866095460354e-04 1.172000705302e-03 0.0 
1.172000705302e-03 7.750326040463e-03 0.0 
0.0 0.0 0.0 
1.092889010541e-03 2.570695078152e-04 0.0 
2.570695078152e-04 4.049743934607e-03 0.0 
0.0 0.0 0.0 
3.782379338957e-05 2.627135765826e-03 0.0 
2.627135765826e-03 1.209747314372e-02 0.0 
0.0 0.0 0.0 
-3.384491463650e-04 2.207441321778e-03 0.0 
2.207441321778e-03 1.087750625287e-02 0.0 
0.0 0.0 0.0 
5.154098951039e-04 -1.825697895140e-04 0.0 
-1.825697895140e-04 1.867971895339e-03 0.0 
0.0 0.0 0.0 
-1.089621234971e-03 2.010821799326e-03 0.0 
2.010821799326e-03 1.290419728592e-02 0.0 
0.0 0.0 0.0 
-9.034800392713e-04 1.368517326400e-03 0.0 
1.368517326400e-03 1.542748436487e-02 0.0 
0.0 0.0 0.0 
1.138566234810e-03 3.711366275778e-04 0.0 
3.711366275778e-04 4.343593607843e-03 0.0 
0.0 0.0 0.0 
5.619810107018e-04 1.188875519355e-03 0.0 
1.188875519355e-03 5.050624741606e-03 0.0 
0.0 0.0 0.0 
-8.673483401641e-04 2.127514323957e-03 0.0 
2.127514323957e-03 1.255419399531e-02 0.0 
0.0 0.0 0.0 
4.598130637719e-04 1.881855121506e-03 0.0 
1.881855121506e-03 7.384859909302e-03 0.0 
0.0 0.0 0.0 
3.327637539092e-04 -2.078633778624e-04 0.0 
-2.078633778624e-04 1.512877158654e-03 0.0 
0.0 0.0 0.0 
-4.461520839188e-04 1.204805260290e-03 0.0 
1.204805260290e-03 1.614759029901e-02 0.0 
0.0 0.0 0.0 
2.115776311067e-04 -2.076729916712e-04 0.0 
-2.076729916712e-04 1.310728170854e-03 0.0 
0.0 0.0 0.0 
5.639922383176e-04 1.788327865850e-03 0.0 
1.788327865850e-03 8.656806571510e-03 0.0 
0.0 0.0 0.0 
-5.621970722369e-04 5.020244464475e-04 0.0 
5.020244464475e-04 1.602929292636e-02 0.0 
0.0 0.0 0.0 
9.466782429142e-04 1.109700979521e-03 0.0 
1.109700979521e-03 6.687031276652e-03 0.0 
0.0 0.0 0.0 
-1.035300683224e-03 2.066464951217e-04 0.0 
2.066464951217e-04 1.463036355521e-02 0.0 
0.0 0.0 0.0 
-1.084075519977e-03 7.328752299879e-04 0.0 
7.328752299879e-04 1.560929618157e-02 0.0 
0.0 0.0 0.0 
1.061713213635e-03 2.817951321961e-04 0.0 
2.817951321961e-04 4.108242140929e-03 0.0 
0.0 0.0 0.0 
1.099603545350e-03 9.532822610791e-04 0.0 
9.532822610791e-04 5.611205099303e-03 0.0 
0.0 0.0 0.0 
-6.926725942022e-04 1.050975894075e-03 0.0 
1.050975894075e-03 1.592015723551e-02 0.0 
0.0 0.0 0.0 
8.337316045248e-04 4.937458175160e-04 0.0 
4.937458175160e-04 5.949038079746e-03 0.0 
0.0 0.0 0.0 
-1.206468207474e-03 5.847841807518e-04 0.0 
5.847841807518e-04 1.531053236728e-02 0.0 
0.0 0.0 0.0 
1.082525564478e-03 8.620679408312e-04 0.0 
8.620679408312e-04 5.962417756474e-03 0.0 
0.0 0.0 0.0 
4.564111465002e-04 -1.801759080165e-04 0.0 
-1.801759080165e-04 1.727851317365e-03 0.0 
0.0 0.0 0.0 
-1.220709332638e-03 7.691886889834e-04 0.0 
7.691886889834e-04 1.540905283945e-02 0.0 
0.0 0.0 0.0 
1.841997131908e-04 2.784815036132e-03 0.0 
2.784815036132e-03 1.150186425070e-02 0.0 
0.0 0.0 0.0 
5.543699895121e-04 9.576666897381e-04 0.0 
9.576666897381e-04 7.516002576351e-03 0.0 
0.0 0.0 0.0 
9.538478275619e-04 7.957933545938e-05 0.0 
7.957933545938e-05 3.678903783827e-03 0.0 
0.0 0.0 0.0 
-1.142807763027e-03 1.827501994960e-04 0.0 
1.827501994960e-04 1.463281989022e-02 0.0 
0.0 0.0 0.0 
-1.083526409061e-03 1.817849536452e-04 0.0 
1.817849536452e-04 1.442353671614e-02 0.0 
0.0 0.0 0.0 
9.824796390212e-04 1.434735819391e-04 0.0 
1.434735819391e-04 4.067834272067e-03 0.0 
0.0 0.0 0.0 
9.069844119207e-04 5.183004918678e-04 0.0 
5.183004918678e-04 5.766854771118e-03 0.0 
0.0 0.0 0.0 
8.903390476231e-04 6.350591312118e-04 0.0 
6.350591312118e-04 6.087534921728e-03 0.0 
0.0 0.0 0.0 
1.963932329085e-04 -2.450078341606e-04 0.0 
-2.450078341606e-04 1.156325807203e-03 0.0 
0.0 0.0 0.0 
7.633976549668e-04 5.839570618879e-04 0.0 
5.839570618879e-04 2.912443139843e-03 0.0 
0.0 0.0 0.0 
1.220159515202e-03 6.063601235904e-04 0.0 
6.063601235904e-04 4.336436433905e-03 0.0 
0.0 0.0 0.0 
1.065277843505e-03 3.058849806423e-04 0.0 
3.058849806423e-04 4.005243155131e-03 0.0 
0.0 0.0 0.0 
7.365695498072e-04 1.670060499410e-03 0.0 
1.670060499410e-03 6.515141062566e-03 0.0 
0.0 0.0 0.0 
-6.920928076348e-04 1.001282125994e-03 0.0 
1.001282125994e-03 1.612286048633e-02 0.0 
0.0 0.0 0.0 
-6.477026231505e-04 2.149033967576e-03 0.0 
2.149033967576e-03 1.414982713746e-02 0.0 
0.0 0.0 0.0 
-6.699355502973e-04 4.742413261242e-04 0.0 
4.742413261242e-04 1.603163173724e-02 0.0 
0.0 0.0 0.0 
-2.123686946613e-04 1.914015813097e-03 0.0 
1.914015813097e-03 8.365063935831e-03 0.0 
0.0 0.0 0.0 
-1.100298243353e-03 1.198509355531e-03 0.0 
1.198509355531e-03 1.521000278295e-02 0.0 
0.0 0.0 0.0 
8.223997726196e-04 4.281513127573e-04 0.0 
4.281513127573e-04 5.781047248345e-03 0.0 
0.0 0.0 0.0 
-6.121528468700e-04 8.280063311820e-04 0.0 
8.280063311820e-04 1.606277988577e-02 0.0 
0.0 0.0 0.0 
-1.344546558945e-03 8.094206815133e-04 0.0 
8.094206815133e-04 1.519554646544e-02 0.0 
0.0 0.0 0.0 
9.132032677142e-04 5.724463352208e-05 0.0 
5.724463352208e-05 3.950147548364e-03 0.0 
0.0 0.0 0.0 
1.207913724847e-03 6.613470936580e-04 0.0 
6.613470936580e-04 4.266450758200e-03 0.0 
0.0 0.0 0.0 
-1.043555860480e-03 7.419516114958e-04 0.0 
7.419516114958e-04 1.541162576820e-02 0.0 
0.0 0.0 0.0 
-9.107307689133e-04 8.734145106444e-04 0.0 
8.734145106444e-04 1.587996982749e-02 0.0 
0.0 0.0 0.0 
-9.272805801306e-04 5.638556200195e-04 0.0 
5.638556200195e-04 1.550182260264e-02 0.0 
0.0 0.0 0.0 
-1.040800363603e-03 5.711118122151e-04 0.0 
5.711118122151e-04 1.531156250459e-02 0.0 
0.0 0.0 0.0 
6.847328690174e-04 6.910305668001e-04 0.0 
6.910305668001e-04 6.783029784205e-03 0.0 
0.0 0.0 0.0 
5.976762409425e-04 1.827958270026e-03 0.0 
1.827958270026e-03 8.641045360265e-03 0.0 
0.0 0.0 0.0 
7.755668855423e-04 7.263048072754e-04 0.0 
7.263048072754e-04 6.597885136362e-03 0.0 
0.0 0.0 0.0 
9.621394333601e-04 3.274732535087e-04 0.0 
3.274732535087e-04 4.992084398014e-03 0.0 
0.0 0.0 0.0 
-8.140647467876e-04 1.929721917338e-03 0.0 
1.929721917338e-03 1.002325820186e-02 0.0 
0.0 0.0 0.0 
8.824562271337e-04 1.284396071722e-03 0.0 
1.284396071722e-03 7.133566922182e-03 0.0 
0.0 0.0 0.0 
-1.269610629117e-03 1.348457589177e-03 0.0 
1.348457589177e-03 1.457928077154e-02 0.0 
0.0 0.0 0.0 
4.635764141767e-04 -1.036804228068e-04 0.0 
-1.036804228068e-04 1.969228051933e-03 0.0 
0.0 0.0 0.0 
1.101400497014e-03 4.546864420723e-04 0.0 
4.546864420723e-04 4.361638949499e-03 0.0 
0.0 0.0 0.0 
1.218216859055e-03 6.684218107457e-04 0.0 
6.684218107457e-04 4.880129036273e-03 0.0 
0.0 0.0 0.0 
1.068641385127e-03 1.074685824729e-03 0.0 
1.074685824729e-03 6.094871269723e-03 0.0 
0.0 0.0 0.0 
6.891620384135e-04 1.672406616207e-04 0.0 
1.672406616207e-04 2.248130471424e-03 0.0 
0.0 0.0 0.0 
1.091504171919e-03 4.974013688515e-04 0.0 
4.974013688515e-04 4.294900181984e-03 0.0 
0.0 0.0 0.0 
1.008836410736e-03 1.198984414074e-03 0.0 
1.198984414074e-03 6.590262104561e-03 0.0 
0.0 0.0 0.0 
-4.955493799471e-04 2.091355742384e-03 0.0 
2.091355742384e-03 9.862794115578e-03 0.0 
0.0 0.0 0.0 
9.826047621848e-04 1.595509148431e-04 0.0 
1.595509148431e-04 4.100952387337e-03 0.0 
0.0 0.0 0.0 
-1.425527222999e-03 6.368633022389e-04 0.0 
6.368633022389e-04 1.489477428603e-02 0.0 
0.0 0.0 0.0 
-9.986083197484e-04 4.231603695093e-05 0.0 
4.231603695093e-05 1.375819036301e-02 0.0 
0.0 0.0 0.0 
-1.126190681673e-03 1.502768682995e-03 0.0 
1.502768682995e-03 2.143591141610e-03 0.0 
0.0 0.0 0.0 
9.190935674888e-04 2.415612035894e-04 0.0 
2.415612035894e-04 4.832883624028e-03 0.0 
0.0 0.0 0.0 
9.994067050547e-04 1.171225311086e-03 0.0 
1.171225311086e-03 6.754205896399e-03 0.0 
0.0 0.0 0.0 
-6.171580283241e-04 2.087196622596e-03 0.0 
2.087196622596e-03 1.459143082489e-02 0.0 
0.0 0.0 0.0 
1.231065282958e-03 9.311702105002e-04 0.0 
9.311702105002e-04 5.139750177400e-03 0.0 
0.0 0.0 0.0 
9.857498312735e-04 2.430064413523e-04 0.0 
2.430064413523e-04 4.538680199922e-03 0.0 
0.0 0.0 0.0 
-1.274959388500e-03 4.347321376138e-04 0.0 
4.347321376138e-04 1.497988666799e-02 0.0 
0.0 0.0 0.0 
-1.183293680557e-03 1.644141553977e-03 0.0 
1.644141553977e-03 3.499627144880e-03 0.0 
0.0 0.0 0.0 
1.054156676236e-03 1.218606440305e-03 0.0 
1.218606440305e-03 6.670015849452e-03 0.0 
0.0 0.0 0.0 
1.103962028740e-03 9.015065274572e-04 0.0 
9.015065274572e-04 5.638067111663e-03 0.0 
0.0 0.0 0.0 
-6.778351139717e-04 2.099591213841e-03 0.0 
2.099591213841e-03 1.059856575973e-02 0.0 
0.0 0.0 0.0 
8.040189200029e-04 5.450999206261e-04 0.0 
5.450999206261e-04 6.101606197868e-03 0.0 
0.0 0.0 0.0 
5.428959038996e-04 -1.934624177435e-04 0.0 
-1.934624177435e-04 2.097827838842e-03 0.0 
0.0 0.0 0.0 
7.731799743798e-04 6.715013046029e-04 0.0 
6.715013046029e-04 6.442659964375e-03 0.0 
0.0 0.0 0.0 
6.608967987989e-04 1.001655504441e-03 0.0 
1.001655504441e-03 7.327799075362e-03 0.0 
0.0 0.0 0.0 
1.092730608104e-03 1.266398367016e-03 0.0 
1.266398367016e-03 6.607011151987e-03 0.0 
0.0 0.0 0.0 
-1.081328561363e-03 5.636523759116e-04 0.0 
5.636523759116e-04 1.550239672485e-02 0.0 
0.0 0.0 0.0 
4.796999916463e-04 2.103570114654e-03 0.0 
2.103570114654e-03 9.390781174288e-03 0.0 
0.0 0.0 0.0 
5.795774138388e-04 9.165602377431e-04 0.0 
9.165602377431e-04 7.338914910899e-03 0.0 
0.0 0.0 0.0 
-1.196675961173e-03 1.694080030612e-03 0.0 
1.694080030612e-03 4.885135000725e-03 0.0 
0.0 0.0 0.0 
-1.322078225951e-03 6.075189516457e-04 0.0 
6.075189516457e-04 1.510820470728e-02 0.0 
0.0 0.0 0.0 
5.113723150458e-04 2.041477321131e-03 0.0 
2.041477321131e-03 9.171239380708e-03 0.0 
0.0 0.0 0.0 
-9.181585714600e-04 7.229471138093e-04 0.0 
7.229471138093e-04 1.560989016728e-02 0.0 
0.0 0.0 0.0 
1.167470864913e-03 1.151125511754e-03 0.0 
1.151125511754e-03 6.105974531108e-03 0.0 
0.0 0.0 0.0 
1.107010369153e-03 6.631789404510e-04 0.0 
6.631789404510e-04 4.699320981223e-03 0.0 
0.0 0.0 0.0 
8.444106086147e-04 1.100271548842e-04 0.0 
1.100271548842e-04 4.387147897188e-03 0.0 
0.0 0.0 0.0 
1.068707031493e-04 1.815853435590e-04 0.0 
1.815853435590e-04 1.411469197804e-03 0.0 
0.0 0.0 0.0 
-7.871833499724e-04 6.981888104497e-04 0.0 
6.981888104497e-04 1.579582717926e-02 0.0 
0.0 0.0 0.0 
4.962764293017e-04 -7.424991005098e-05 0.0 
-7.424991005098e-05 2.133730035998e-03 0.0 
0.0 0.0 0.0 
-1.182663072676e-03 1.677362015380e-03 0.0 
1.677362015380e-03 6.241731677761e-03 0.0 
0.0 0.0 0.0 
4.144683363272e-04 2.136539513107e-03 0.0 
2.136539513107e-03 9.549767505403e-03 0.0 
0.0 0.0 0.0 
-5.197379963134e-04 6.342414944711e-04 0.0 
6.342414944711e-04 1.615050891699e-02 0.0 
0.0 0.0 0.0 
4.287333220545e-04 -2.669304188242e-04 0.0 
-2.669304188242e-04 1.851220022165e-03 0.0 
0.0 0.0 0.0 
3.303921739768e-04 1.941483493697e-03 0.0 
1.941483493697e-03 8.489303246663e-03 0.0 
0.0 0.0 0.0 
-1.160151238206e-03 7.610998985884e-04 0.0 
7.610998985884e-04 1.520048247768e-02 0.0 
0.0 0.0 0.0 
8.645909899330e-04 7.555512163346e-05 0.0 
7.555512163346e-05 4.289558092404e-03 0.0 
0.0 0.0 0.0 
5.772315773598e-04 -4.882248338957e-05 0.0 
-4.882248338957e-05 2.282919256264e-03 0.0 
0.0 0.0 0.0 
6.553267053389e-04 1.236788067570e-03 0.0 
1.236788067570e-03 4.437238952150e-03 0.0 
0.0 0.0 0.0 
2.630398480332e-04 -2.080594515578e-04 0.0 
-2.080594515578e-04 1.387611264521e-03 0.0 
0.0 0.0 0.0 
5.162527011948e-04 -1.029365052108e-04 0.0 
-1.029365052108e-04 1.830561526051e-03 0.0 
0.0 0.0 0.0 
3.840523394369e-04 -1.616783213069e-04 0.0 
-1.616783213069e-04 1.604842857795e-03 0.0 
0.0 0.0 0.0 
1.213869971086e-03 1.039222667021e-03 0.0 
1.039222667021e-03 5.616939648905e-03 0.0 
0.0 0.0 0.0 
-3.229534170190e-04 1.884396176510e-03 0.0 
1.884396176510e-03 1.593042988231e-02 0.0 
0.0 0.0 0.0 
-1.142566763313e-03 1.656791095718e-03 0.0 
1.656791095718e-03 7.620475131810e-03 0.0 
0.0 0.0 0.0 
5.942233574683e-04 6.437594350960e-04 0.0 
6.437594350960e-04 6.971811856618e-03 0.0 
0.0 0.0 0.0 
1.126468913454e-03 8.086602204384e-04 0.0 
8.086602204384e-04 4.200585980357e-03 0.0 
0.0 0.0 0.0 
-1.454052500580e-03 8.632092402102e-04 0.0 
8.632092402102e-04 1.496638434052e-02 0.0 
0.0 0.0 0.0 
3.673760790137e-04 2.102480944849e-04 0.0 
2.102480944849e-04 1.788205499988e-03 0.0 
0.0 0.0 0.0 
4.943037289398e-04 1.068918749380e-03 0.0 
1.068918749380e-03 7.744515644631e-03 0.0 
0.0 0.0 0.0 
3.155593138389e-04 -3.188152636089e-04 0.0 
-3.188152636089e-04 1.619863192214e-03 0.0 
0.0 0.0 0.0 
5.819582159250e-04 -5.641439149777e-05 0.0 
-5.641439149777e-05 2.519205575728e-03 0.0 
0.0 0.0 0.0 
1.022717360132e-03 1.436281191594e-03 0.0 
1.436281191594e-03 7.079921262901e-03 0.0 
0.0 0.0 0.0 
1.047053723216e-03 2.636723628137e-04 0.0 
2.636723628137e-04 4.226426535249e-03 0.0 
0.0 0.0 0.0 
6.309051178603e-04 1.870602242313e-03 0.0 
1.870602242313e-03 8.650185610802e-03 0.0 
0.0 0.0 0.0 
3.159961181201e-04 1.471198643961e-03 0.0 
1.471198643961e-03 5.948557800542e-03 0.0 
0.0 0.0 0.0 
-1.355853693379e-03 1.353723032911e-03 0.0 
1.353723032911e-03 1.490370930161e-02 0.0 
0.0 0.0 0.0 
6.552734070442e-04 1.871219002072e-03 0.0 
1.871219002072e-03 8.643594696732e-03 0.0 
0.0 0.0 0.0 
-1.146660947575e-03 5.755701151858e-04 0.0 
5.755701151858e-04 1.511119840874e-02 0.0 
0.0 0.0 0.0 
-7.362264006767e-04 2.134652660443e-03 0.0 
2.134652660443e-03 1.458498047645e-02 0.0 
0.0 0.0 0.0 
-1.206431196722e-03 9.739152536964e-04 0.0 
9.739152536964e-04 1.546511524361e-02 0.0 
0.0 0.0 0.0 
-1.158165645142e-03 1.191285935153e-03 0.0 
1.191285935153e-03 1.547132209339e-02 0.0 
0.0 0.0 0.0 
4.165871481543e-04 6.754547800029e-04 0.0 
6.754547800029e-04 2.525585098291e-03 0.0 
0.0 0.0 0.0 
6.459373910959e-04 5.319841905327e-04 0.0 
5.319841905327e-04 6.639305346661e-03 0.0 
0.0 0.0 0.0 
-1.147352048143e-03 9.723728955329e-04 0.0 
9.723728955329e-04 1.523504070841e-02 0.0 
0.0 0.0 0.0 
1.124711953677e-03 1.249291180409e-03 0.0 
1.249291180409e-03 5.611606703944e-03 0.0 
0.0 0.0 0.0 
-1.117337205711e-03 1.636788489638e-03 0.0 
1.636788489638e-03 8.988344796074e-03 0.0 
0.0 0.0 0.0 
4.284312744525e-04 1.978195733784e-03 0.0 
1.978195733784e-03 9.160249424023e-03 0.0 
0.0 0.0 0.0 
6.919487976247e-04 4.159005173157e-04 0.0 
4.159005173157e-04 2.518992341384e-03 0.0 
0.0 0.0 0.0 
5.239193448483e-04 -1.562700589434e-04 0.0 
-1.562700589434e-04 2.350017868743e-03 0.0 
0.0 0.0 0.0 
8.443791922481e-04 1.783570252777e-03 0.0 
1.783570252777e-03 8.099067864904e-03 0.0 
0.0 0.0 0.0 
3.078872576301e-04 -5.581084858296e-05 0.0 
-5.581084858296e-05 1.392251772536e-03 0.0 
0.0 0.0 0.0 
7.198696805724e-04 1.590397304220e-03 0.0 
1.590397304220e-03 6.973340404132e-03 0.0 
0.0 0.0 0.0 
9.870041955520e-04 1.383973806898e-03 0.0 
1.383973806898e-03 7.119803719811e-03 0.0 
0.0 0.0 0.0 
-9.332698467869e-04 1.333241985468e-03 0.0 
1.333241985468e-03 1.568887779275e-02 0.0 
0.0 0.0 0.0 
-8.295630586460e-04 1.573233205331e-03 0.0 
1.573233205331e-03 1.562304217908e-02 0.0 
0.0 0.0 0.0 
9.198999032445e-04 1.326393977817e-03 0.0 
1.326393977817e-03 7.096463159456e-03 0.0 
0.0 0.0 0.0 
-1.062968803143e-03 9.236314806692e-04 0.0 
9.236314806692e-04 1.567847771302e-02 0.0 
0.0 0.0 0.0 
1.125231560097e-03 9.845371427258e-04 0.0 
9.845371427258e-04 4.657600783581e-03 0.0 
0.0 0.0 0.0 
1.677339725541e-04 2.268784515579e-03 0.0 
2.268784515579e-03 1.040710337078e-02 0.0 
0.0 0.0 0.0 
-1.154985745041e-03 1.616899423105e-03 0.0 
1.616899423105e-03 1.039875578239e-02 0.0 
0.0 0.0 0.0 
-2.908086762234e-04 2.440860146169e-03 0.0 
2.440860146169e-03 1.306900569442e-02 0.0 
0.0 0.0 0.0 
-1.801221931180e-03 1.598366825500e-03 0.0 
1.598366825500e-03 1.200033047916e-02 0.0 
0.0 0.0 0.0 
-1.570605822347e-03 9.536629647347e-04 0.0 
9.536629647347e-04 1.280864219250e-02 0.0 
0.0 0.0 0.0 
1.209494443222e-03 9.983028816502e-04 0.0 
9.983028816502e-04 5.114225158302e-03 0.0 
0.0 0.0 0.0 
-1.542334123501e-03 7.544160568158e-04 0.0 
7.544160568158e-04 1.318523731291e-02 0.0 
0.0 0.0 0.0 
8.185818958444e-04 1.602161489905e-03 0.0 
1.602161489905e-03 7.271263831180e-03 0.0 
0.0 0.0 0.0 
8.800240011495e-04 1.249935810598e-03 0.0 
1.249935810598e-03 5.793017872075e-03 0.0 
0.0 0.0 0.0 
1.119794380236e-03 6.124234289163e-04 0.0 
6.124234289163e-04 4.745738864842e-03 0.0 
0.0 0.0 0.0 
5.686770067082e-04 3.638605034491e-05 0.0 
3.638605034491e-05 1.961948081762e-03 0.0 
0.0 0.0 0.0 
1.219579352038e-03 8.274077817818e-04 0.0 
8.274077817818e-04 4.673744747161e-03 0.0 
0.0 0.0 0.0 
-7.492142057356e-04 8.705826986640e-04 0.0 
8.705826986640e-04 1.587973496262e-02 0.0 
0.0 0.0 0.0 
-4.545130622061e-04 2.349050833288e-03 0.0 
2.349050833288e-03 1.391144518975e-02 0.0 
0.0 0.0 0.0 
7.589612077967e-04 4.655765375141e-04 0.0 
4.655765375141e-04 6.136505328656e-03 0.0 
0.0 0.0 0.0 
6.983957642992e-04 1.912963965373e-03 0.0 
1.912963965373e-03 8.627833257523e-03 0.0 
0.0 0.0 0.0 
1.164423566514e-03 3.906228123782e-04 0.0 
3.906228123782e-04 4.205892757061e-03 0.0 
0.0 0.0 0.0 
-9.806100340114e-04 1.148162184571e-03 0.0 
1.148162184571e-03 1.547587634987e-02 0.0 
0.0 0.0 0.0 
1.235921479595e-03 7.654366332608e-04 0.0 
7.654366332608e-04 4.722220754493e-03 0.0 
0.0 0.0 0.0 
5.668738312889e-04 4.968529792329e-04 0.0 
4.968529792329e-04 6.838558193761e-03 0.0 
0.0 0.0 0.0 
-1.024648640089e-03 9.374848319072e-04 0.0 
9.374848319072e-04 1.546877228327e-02 0.0 
0.0 0.0 0.0 
-1.271758722702e-03 1.265467631637e-03 0.0 
1.265467631637e-03 1.520234024830e-02 0.0 
0.0 0.0 0.0 
1.144068509427e-03 1.100140764950e-03 0.0 
1.100140764950e-03 6.161873229590e-03 0.0 
0.0 0.0 0.0 
1.182867131190e-03 9.004588228033e-04 0.0 
9.004588228033e-04 4.651468674283e-03 0.0 
0.0 0.0 0.0 
1.407622941410e-04 2.367639963102e-03 0.0 
2.367639963102e-03 1.082636152375e-02 0.0 
0.0 0.0 0.0 
-3.382916458879e-04 2.226178191472e-03 0.0 
2.226178191472e-03 1.087496944855e-02 0.0 
0.0 0.0 0.0 
4.682805732141e-04 -1.645392471018e-04 0.0 
-1.645392471018e-04 1.994645332692e-03 0.0 
0.0 0.0 0.0 
5.922772673910e-04 1.693532897746e-04 0.0 
1.693532897746e-04 2.559111315281e-03 0.0 
0.0 0.0 0.0 
5.724010936214e-04 1.549671711178e-03 0.0 
1.549671711178e-03 5.672047019064e-03 0.0 
0.0 0.0 0.0 
3.551355844582e-04 2.043234226410e-03 0.0 
2.043234226410e-03 8.474967969749e-03 0.0 
0.0 0.0 0.0 
4.861655997310e-04 4.544868362790e-04 0.0 
4.544868362790e-04 7.046850483925e-03 0.0 
0.0 0.0 0.0 
-1.327731723384e-03 1.032856273134e-03 0.0 
1.032856273134e-03 1.522849239711e-02 0.0 
0.0 0.0 0.0 
1.076140197682e-03 7.242606538039e-04 0.0 
7.242606538039e-04 4.679055616756e-03 0.0 
0.0 0.0 0.0 
1.919034969531e-04 2.111775814433e-03 0.0 
2.111775814433e-03 9.578353388717e-03 0.0 
0.0 0.0 0.0 
9.345115330004e-04 1.345189187951e-03 0.0 
1.345189187951e-03 7.198117160316e-03 0.0 
0.0 0.0 0.0 
-9.400406210353e-04 6.980051365539e-04 0.0 
6.980051365539e-04 1.579642290912e-02 0.0 
0.0 0.0 0.0 
1.783781776288e-05 2.486728761110e-03 0.0 
2.486728761110e-03 1.144819531522e-02 0.0 
0.0 0.0 0.0 
-1.351367746472e-03 8.229732972143e-04 0.0 
8.229732972143e-04 1.472883009191e-02 0.0 
0.0 0.0 0.0 
8.400574223804e-04 1.092360332164e-03 0.0 
1.092360332164e-03 7.032761788651e-03 0.0 
0.0 0.0 0.0 
1.119526309445e-03 7.802245634823e-04 0.0 
7.802245634823e-04 5.163112901443e-03 0.0 
0.0 0.0 0.0 
8.283305885162e-04 1.238757803504e-03 0.0 
1.238757803504e-03 7.208166352412e-03 0.0 
0.0 0.0 0.0 
7.712210094752e-04 1.733504926865e-03 0.0 
1.733504926865e-03 6.951670603144e-03 0.0 
0.0 0.0 0.0 
-8.580398256085e-04 1.067387999636e-03 0.0 
1.067387999636e-03 1.591890981119e-02 0.0 
0.0 0.0 0.0 
-8.972097288817e-05 2.586229070652e-03 0.0 
2.586229070652e-03 1.210009647688e-02 0.0 
0.0 0.0 0.0 
1.203699792101e-03 9.848436310532e-04 0.0 
9.848436310532e-04 5.668538217194e-03 0.0 
0.0 0.0 0.0 
5.973035974902e-04 2.576504251457e-04 0.0 
2.576504251457e-04 2.168540682619e-03 0.0 
0.0 0.0 0.0 
6.138310750128e-04 2.150773701044e-03 0.0 
2.150773701044e-03 9.248476971446e-03 0.0 
0.0 0.0 0.0 
7.278353541129e-04 1.671974272344e-03 0.0 
1.671974272344e-03 7.415228301310e-03 0.0 
0.0 0.0 0.0 
1.025114094335e-03 7.974815076058e-04 0.0 
7.974815076058e-04 4.687378371319e-03 0.0 
0.0 0.0 0.0 
1.059591854712e-03 1.025708600386e-03 0.0 
1.025708600386e-03 6.125328291141e-03 0.0 
0.0 0.0 0.0 
8.024154779362e-04 8.428949934128e-04 0.0 
8.428949934128e-04 6.651624762356e-03 0.0 
0.0 0.0 0.0 
4.988467963785e-04 1.560989872398e-05 0.0 
1.560989872398e-05 2.208389760612e-03 0.0 
0.0 0.0 0.0 
1.234197472697e-03 8.730143339271e-04 0.0 
8.730143339271e-04 5.189081570476e-03 0.0 
0.0 0.0 0.0 
-8.563983722045e-04 2.071798809862e-03 0.0 
2.071798809862e-03 1.256162124182e-02 0.0 
0.0 0.0 0.0 
4.522350445040e-04 3.722672608934e-04 0.0 
3.722672608934e-04 7.058523201633e-03 0.0 
0.0 0.0 0.0 
-6.377329279174e-04 2.185431883538e-03 0.0 
2.185431883538e-03 1.221033940715e-02 0.0 
0.0 0.0 0.0 
5.622482197445e-04 2.187397124605e-03 0.0 
2.187397124605e-03 9.378150712503e-03 0.0 
0.0 0.0 0.0 
-1.070332756110e-03 1.914106455751e-03 0.0 
1.914106455751e-03 1.291685601126e-02 0.0 
0.0 0.0 0.0 
-1.414786738468e-03 1.427103829062e-03 0.0 
1.427103829062e-03 1.358059153078e-02 0.0 
0.0 0.0 0.0 
-1.309654474104e-04 2.247731647007e-03 0.0 
2.247731647007e-03 1.054312518861e-02 0.0 
0.0 0.0 0.0 
8.087944872726e-04 1.738494485020e-03 0.0 
1.738494485020e-03 8.106796860436e-03 0.0 
0.0 0.0 0.0 
6.642597507271e-04 4.860350539147e-04 0.0 
4.860350539147e-04 6.466192741582e-03 0.0 
0.0 0.0 0.0 
-1.252222936504e-03 1.020427448831e-03 0.0 
1.020427448831e-03 1.497687763301e-02 0.0 
0.0 0.0 0.0 
-6.818511164661e-04 1.535567697716e-03 0.0 
1.535567697716e-03 1.562718432682e-02 0.0 
0.0 0.0 0.0 
-1.266576181071e-03 1.701459118079e-03 0.0 
1.701459118079e-03 1.326436340663e-02 0.0 
0.0 0.0 0.0 
9.337089629304e-04 5.163927519821e-04 0.0 
5.163927519821e-04 3.794076746097e-03 0.0 
0.0 0.0 0.0 
3.989157187387e-04 2.225238762337e-03 0.0 
2.225238762337e-03 9.855821454223e-03 0.0 
0.0 0.0 0.0 
-7.505244198633e-04 8.252968228121e-04 0.0 
8.252968228121e-04 1.606355374775e-02 0.0 
0.0 0.0 0.0 
9.799985244319e-04 1.496707808569e-03 0.0 
1.496707808569e-03 6.218012022691e-03 0.0 
0.0 0.0 0.0 
8.901063879636e-04 1.654569684142e-03 0.0 
1.654569684142e-03 6.795028334424e-03 0.0 
0.0 0.0 0.0 
1.019948537497e-03 6.170700000049e-04 0.0 
6.170700000049e-04 4.231225323130e-03 0.0 
0.0 0.0 0.0 
-1.198189628935e-03 1.263775356211e-03 0.0 
1.263775356211e-03 1.491493878377e-02 0.0 
0.0 0.0 0.0 
1.811029555179e-04 1.891102345655e-03 0.0 
1.891102345655e-03 7.275757603168e-03 0.0 
0.0 0.0 0.0 
9.612520575148e-04 1.664913419784e-03 0.0 
1.664913419784e-03 7.149228882252e-03 0.0 
0.0 0.0 0.0 
1.400928390280e-04 1.754411176377e-03 0.0 
1.754411176377e-03 7.294535257424e-03 0.0 
0.0 0.0 0.0 
9.390371041009e-04 1.611220086403e-03 0.0 
1.611220086403e-03 7.579534468605e-03 0.0 
0.0 0.0 0.0 
2.889524284895e-04 2.365535839467e-03 0.0 
2.365535839467e-03 1.031593012209e-02 0.0 
0.0 0.0 0.0 
1.064842563491e-03 5.508848743535e-04 0.0 
5.508848743535e-04 4.250436854589e-03 0.0 
0.0 0.0 0.0 
2.481969255586e-05 -9.002259893649e-05 0.0 
-9.002259893649e-05 1.455929150064e-03 0.0 
0.0 0.0 0.0 
-6.645509029598e-04 1.835473860759e-03 0.0 
1.835473860759e-03 1.518904927059e-02 0.0 
0.0 0.0 0.0 
4.954138631263e-05 1.981247045259e-03 0.0 
1.981247045259e-03 7.982575592610e-03 0.0 
0.0 0.0 0.0 
1.199463799472e-03 5.233152539425e-04 0.0 
5.233152539425e-04 4.529262693422e-03 0.0 
0.0 0.0 0.0 
5.392307846994e-04 2.289746237862e-03 0.0 
2.289746237862e-03 9.723549008128e-03 0.0 
0.0 0.0 0.0 
-1.427907765547e-03 1.107301855106e-03 0.0 
1.107301855106e-03 1.496717188388e-02 0.0 
0.0 0.0 0.0 
7.341323000085e-04 5.181336043280e-04 0.0 
5.181336043280e-04 6.280132208816e-03 0.0 
0.0 0.0 0.0 
9.282030719446e-04 1.068789407542e-03 0.0 
1.068789407542e-03 5.246167426122e-03 0.0 
0.0 0.0 0.0 
-4.360816685756e-05 5.857159680914e-05 0.0 
5.857159680914e-05 1.134211084693e-03 0.0 
0.0 0.0 0.0 
3.792989737545e-04 3.169722243027e-04 0.0 
3.169722243027e-04 7.302414710497e-03 0.0 
0.0 0.0 0.0 
5.178786505662e-04 1.990793375350e-03 0.0 
1.990793375350e-03 8.228120101927e-03 0.0 
0.0 0.0 0.0 
8.451289068410e-04 1.589908495755e-03 0.0 
1.589908495755e-03 7.609616952926e-03 0.0 
0.0 0.0 0.0 
3.062635342248e-04 2.447002788151e-03 0.0 
2.447002788151e-03 1.063265113031e-02 0.0 
0.0 0.0 0.0 
-3.860293173074e-04 5.410834103488e-05 0.0 
5.410834103488e-05 8.413248341776e-04 0.0 
0.0 0.0 0.0 
8.110722511887e-04 6.064093182855e-04 0.0 
6.064093182855e-04 6.266016033037e-03 0.0 
0.0 0.0 0.0 
6.044311188984e-04 8.212972949305e-04 0.0 
8.212972949305e-04 3.937644746370e-03 0.0 
0.0 0.0 0.0 
-1.553322910880e-03 9.298928099391e-04 0.0 
9.298928099391e-04 1.471739414759e-02 0.0 
0.0 0.0 0.0 
8.591573013936e-04 1.538981682046e-04 0.0 
1.538981682046e-04 4.730698163924e-03 0.0 
0.0 0.0 0.0 
1.177521151470e-03 7.282455079156e-04 0.0 
7.282455079156e-04 4.220265817168e-03 0.0 
0.0 0.0 0.0 
5.230909553309e-04 4.160453386389e-04 0.0 
4.160453386389e-04 6.851279282850e-03 0.0 
0.0 0.0 0.0 
8.844716107450e-04 1.732174345469e-03 0.0 
1.732174345469e-03 7.251093111248e-03 0.0 
0.0 0.0 0.0 
1.105499265855e-03 6.367767577385e-04 0.0 
6.367767577385e-04 3.779896145006e-03 0.0 
0.0 0.0 0.0 
3.427308902433e-04 2.006368708813e-03 0.0 
2.006368708813e-03 8.905180312653e-03 0.0 
0.0 0.0 0.0 
-1.260547916515e-04 -2.067849084171e-04 0.0 
-2.067849084171e-04 1.182491740030e-03 0.0 
0.0 0.0 0.0 
3.142024122951e-04 2.160667240052e-03 0.0 
2.160667240052e-03 9.756614187752e-03 0.0 
0.0 0.0 0.0 
8.355406166682e-04 1.505369272649e-03 0.0 
1.505369272649e-03 7.595960695322e-03 0.0 
0.0 0.0 0.0 
-1.762543640834e-04 2.580785967368e-03 0.0 
2.580785967368e-03 1.265528740264e-02 0.0 
0.0 0.0 0.0 
2.761002387548e-04 2.257070624240e-03 0.0 
2.257070624240e-03 1.019193899070e-02 0.0 
0.0 0.0 0.0 
7.588864617980e-04 2.502693354424e-04 0.0 
2.502693354424e-04 2.966136141661e-03 0.0 
0.0 0.0 0.0 
6.969851623762e-04 3.838270558512e-04 0.0 
3.838270558512e-04 6.149753101122e-03 0.0 
0.0 0.0 0.0 
-5.315233535070e-04 1.010328581111e-03 0.0 
1.010328581111e-03 1.612244279921e-02 0.0 
0.0 0.0 0.0 
2.837107604416e-04 2.158638837596e-03 0.0 
2.158638837596e-03 9.686530563092e-03 0.0 
0.0 0.0 0.0 
7.383487263590e-04 1.689213451998e-03 0.0 
1.689213451998e-03 8.113745596783e-03 0.0 
0.0 0.0 0.0 
1.008348597010e-03 9.802116285753e-04 0.0 
9.802116285753e-04 5.176707609460e-03 0.0 
0.0 0.0 0.0 
3.362266160898e-04 2.077699673324e-03 0.0 
2.077699673324e-03 9.329275856492e-03 0.0 
0.0 0.0 0.0 
4.583964113509e-04 3.115813707749e-04 0.0 
3.115813707749e-04 6.935406804008e-03 0.0 
0.0 0.0 0.0 
7.286064219503e-04 -1.773136354378e-05 0.0 
-1.773136354378e-05 4.291522800211e-03 0.0 
0.0 0.0 0.0 
4.775584096048e-04 2.207904122487e-03 0.0 
2.207904122487e-03 9.539221583788e-03 0.0 
0.0 0.0 0.0 
-1.264389169437e-03 7.860628895837e-04 0.0 
7.860628895837e-04 1.497453373822e-02 0.0 
0.0 0.0 0.0 
5.948875118817e-04 4.544818603807e-04 0.0 
4.544818603807e-04 6.651500977018e-03 0.0 
0.0 0.0 0.0 
6.979133853640e-04 6.418616639162e-04 0.0 
6.418616639162e-04 6.611418779701e-03 0.0 
0.0 0.0 0.0 
-9.384423084040e-04 -1.615231119349e-07 0.0 
-1.615231119349e-07 1.344066498493e-02 0.0 
0.0 0.0 0.0 
-9.344039683427e-04 6.546976950958e-06 0.0 
6.546976950958e-06 1.343978375737e-02 0.0 
0.0 0.0 0.0 
-9.931114947375e-04 2.068219581564e-03 0.0 
2.068219581564e-03 1.314528831559e-02 0.0 
0.0 0.0 0.0 
5.048318672483e-04 2.123308424577e-03 0.0 
2.123308424577e-03 9.097078878588e-03 0.0 
0.0 0.0 0.0 
8.211272023460e-04 1.541158902415e-04 0.0 
1.541158902415e-04 4.912939392650e-03 0.0 
0.0 0.0 0.0 
-3.006757114108e-04 2.253082032044e-03 0.0 
2.253082032044e-03 1.122599317294e-02 0.0 
0.0 0.0 0.0 
9.826253678853e-04 1.575349892387e-03 0.0 
1.575349892387e-03 6.676440922720e-03 0.0 
0.0 0.0 0.0 
6.669400706778e-04 1.389842438529e-03 0.0 
1.389842438529e-03 7.822440628712e-03 0.0 
0.0 0.0 0.0 
1.099324474083e-03 1.160585726665e-03 0.0 
1.160585726665e-03 5.149237502447e-03 0.0 
0.0 0.0 0.0 
-3.047860827692e-04 1.666719855584e-03 0.0 
1.666719855584e-03 1.612415350934e-02 0.0 
0.0 0.0 0.0 
-1.511556402500e-03 1.275706323428e-03 0.0 
1.275706323428e-03 1.340602895546e-02 0.0 
0.0 0.0 0.0 
8.267673433398e-04 1.510632774509e-03 0.0 
1.510632774509e-03 6.817371867131e-03 0.0 
0.0 0.0 0.0 
9.404008383807e-04 2.400224050135e-04 0.0 
2.400224050135e-04 4.716281191683e-03 0.0 
0.0 0.0 0.0 
6.657846619100e-04 3.396488180260e-04 0.0 
3.396488180260e-04 2.951212429950e-03 0.0 
0.0 0.0 0.0 
8.905483586903e-04 6.643041322073e-05 0.0 
6.643041322073e-05 4.115929930559e-03 0.0 
0.0 0.0 0.0 
5.190268060147e-04 2.052761000743e-03 0.0 
2.052761000743e-03 8.660008667017e-03 0.0 
0.0 0.0 0.0 
1.990140805046e-04 2.136213647612e-03 0.0 
2.136213647612e-03 9.160254683990e-03 0.0 
0.0 0.0 0.0 
-1.338371213400e-03 1.086475406143e-03 0.0 
1.086475406143e-03 1.469286868669e-02 0.0 
0.0 0.0 0.0 
-9.336848154951e-05 2.302086925768e-03 0.0 
2.302086925768e-03 1.091496550719e-02 0.0 
0.0 0.0 0.0 
-2.665397442360e-04 2.310579019030e-03 0.0 
2.310579019030e-03 1.157038018507e-02 0.0 
0.0 0.0 0.0 
1.936155494073e-04 -7.357103969625e-05 0.0 
-7.357103969625e-05 1.002666436404e-03 0.0 
0.0 0.0 0.0 
9.314761294892e-04 8.838697846071e-05 0.0 
8.838697846071e-05 3.849061641388e-03 0.0 
0.0 0.0 0.0 
2.103265888476e-05 1.872538624635e-03 0.0 
1.872538624635e-03 7.995348657322e-03 0.0 
0.0 0.0 0.0 
-4.991021232719e-04 2.216633996573e-03 0.0 
2.216633996573e-03 1.155624931568e-02 0.0 
0.0 0.0 0.0 
-6.509479984640e-04 2.222334448006e-03 0.0 
2.222334448006e-03 1.220313728802e-02 0.0 
0.0 0.0 0.0 
7.527220226444e-04 1.674745987159e-03 0.0 
1.674745987159e-03 8.120386501504e-03 0.0 
0.0 0.0 0.0 
3.499174656827e-04 3.135817579843e-05 0.0 
3.135817579843e-05 1.564646496539e-03 0.0 
0.0 0.0 0.0 
3.875387190397e-04 -1.149859425862e-04 0.0 
-1.149859425862e-04 1.902749138585e-03 0.0 
0.0 0.0 0.0 
6.524963507519e-04 1.869716584220e-03 0.0 
1.869716584220e-03 7.580587319433e-03 0.0 
0.0 0.0 0.0 
8.466761138690e-04 -6.519523132083e-07 0.0 
-6.519523132083e-07 3.862968247198e-03 0.0 
0.0 0.0 0.0 
-1.832640410300e-03 1.459940106215e-03 0.0 
1.459940106215e-03 1.270721631847e-02 0.0 
0.0 0.0 0.0 
-1.837745008443e-03 1.159721054226e-03 0.0 
1.159721054226e-03 1.313037896458e-02 0.0 
0.0 0.0 0.0 
-1.501181974380e-03 1.203885316543e-03 0.0 
1.203885316543e-03 1.467965944152e-02 0.0 
0.0 0.0 0.0 
1.736528119418e-04 5.426148027623e-04 0.0 
5.426148027623e-04 2.643294459593e-03 0.0 
0.0 0.0 0.0 
9.109582108073e-04 1.659392906624e-04 0.0 
1.659392906624e-04 4.455748328270e-03 0.0 
0.0 0.0 0.0 
8.888355566088e-04 1.072625491052e-03 0.0 
1.072625491052e-03 6.769805594294e-03 0.0 
0.0 0.0 0.0 
4.843800914693e-04 1.152862327309e-04 0.0 
1.152862327309e-04 1.852222522518e-03 0.0 
0.0 0.0 0.0 
1.096577070703e-04 2.591749911897e-03 0.0 
2.591749911897e-03 1.128410386637e-02 0.0 
0.0 0.0 0.0 
-1.013182750813e-03 1.123346655075e-03 0.0 
1.123346655075e-03 1.570666919547e-02 0.0 
0.0 0.0 0.0 
8.087497187672e-04 2.637668313162e-05 0.0 
2.637668313162e-05 4.217252998836e-03 0.0 
0.0 0.0 0.0 
6.849258716337e-04 4.367719381336e-04 0.0 
4.367719381336e-04 6.331507013008e-03 0.0 
0.0 0.0 0.0 
1.748740396177e-04 -9.817483022150e-05 0.0 
-9.817483022150e-05 6.887488613709e-04 0.0 
0.0 0.0 0.0 
9.358021244390e-04 9.054787333600e-04 0.0 
9.054787333600e-04 6.363512269430e-03 0.0 
0.0 0.0 0.0 
4.831212184799e-04 1.882750501107e-03 0.0 
1.882750501107e-03 8.244098525466e-03 0.0 
0.0 0.0 0.0 
1.863079414497e-04 -7.259982582289e-05 0.0 
-7.259982582289e-05 6.785102692779e-04 0.0 
0.0 0.0 0.0 
-8.417928581080e-04 1.100048292417e-03 0.0 
1.100048292417e-03 1.570840395487e-02 0.0 
0.0 0.0 0.0 
2.699480380759e-04 -4.347681772310e-05 0.0 
-4.347681772310e-05 1.830463565451e-03 0.0 
0.0 0.0 0.0 
-5.012416758747e-04 2.226534234722e-03 0.0 
2.226534234722e-03 1.155474926260e-02 0.0 
0.0 0.0 0.0 
1.818808252669e-04 2.051844594882e-03 0.0 
2.051844594882e-03 9.171696986506e-03 0.0 
0.0 0.0 0.0 
1.097305773651e-03 4.201305042873e-04 0.0 
4.201305042873e-04 4.446714765357e-03 0.0 
0.0 0.0 0.0 
1.102264552466e-03 5.841927426502e-04 0.0 
5.841927426502e-04 5.266781409033e-03 0.0 
0.0 0.0 0.0 
-7.761800232240e-04 1.310161147618e-03 0.0 
1.310161147618e-03 1.569014927976e-02 0.0 
0.0 0.0 0.0 
1.039911632037e-03 6.920053130566e-04 0.0 
6.920053130566e-04 5.756305722054e-03 0.0 
0.0 0.0 0.0 
7.809159605001e-04 1.799565724583e-03 0.0 
1.799565724583e-03 7.395595387254e-03 0.0 
0.0 0.0 0.0 
6.097541353400e-04 1.743084929810e-03 0.0 
1.743084929810e-03 7.599476476076e-03 0.0 
0.0 0.0 0.0 
-1.042883800343e-03 1.351366093145e-03 0.0 
1.351366093145e-03 1.506161856207e-03 0.0 
0.0 0.0 0.0 
2.343451878428e-04 7.363119287776e-05 0.0 
7.363119287776e-05 1.500311711130e-03 0.0 
0.0 0.0 0.0 
3.560990309432e-04 2.250604289522e-03 0.0 
2.250604289522e-03 9.990956933540e-03 0.0 
0.0 0.0 0.0 
-1.552911999383e-03 1.464284123084e-03 0.0 
1.464284123084e-03 1.398753479151e-02 0.0 
0.0 0.0 0.0 
4.920052537769e-04 2.306761517324e-03 0.0 
2.306761517324e-03 9.840259471693e-03 0.0 
0.0 0.0 0.0 
6.728496805548e-04 1.070701268651e-03 0.0 
1.070701268651e-03 3.899479357238e-03 0.0 
0.0 0.0 0.0 
-8.263069851956e-04 2.014864300092e-03 0.0 
2.014864300092e-03 1.392129353202e-02 0.0 
0.0 0.0 0.0 
2.256639736626e-04 2.381683037400e-03 0.0 
2.381683037400e-03 1.063751630685e-02 0.0 
0.0 0.0 0.0 
-1.521754272291e-03 1.286494763167e-03 0.0 
1.286494763167e-03 1.276596240155e-02 0.0 
0.0 0.0 0.0 
4.287172451889e-04 2.298650588869e-03 0.0 
2.298650588869e-03 9.982032701030e-03 0.0 
0.0 0.0 0.0 
6.326960881440e-04 3.559401216986e-04 0.0 
3.559401216986e-04 6.344619466140e-03 0.0 
0.0 0.0 0.0 
6.425628089444e-04 2.004042041220e-03 0.0 
2.004042041220e-03 8.462587601481e-03 0.0 
0.0 0.0 0.0 
9.485859575471e-04 1.633946268699e-04 0.0 
1.633946268699e-04 4.275635480384e-03 0.0 
0.0 0.0 0.0 
8.951565530833e-04 1.512634095596e-04 0.0 
1.512634095596e-04 4.553229153647e-03 0.0 
0.0 0.0 0.0 
-8.324497651090e-04 1.892647736301e-03 0.0 
1.892647736301e-03 1.517555871924e-02 0.0 
0.0 0.0 0.0 
1.134728310552e-03 4.769227799526e-04 0.0 
4.769227799526e-04 4.796500567738e-03 0.0 
0.0 0.0 0.0 
3.708597661294e-04 2.097629242997e-03 0.0 
2.097629242997e-03 8.892584672182e-03 0.0 
0.0 0.0 0.0 
1.125050217673e-03 1.344669679287e-03 0.0 
1.344669679287e-03 6.086411949729e-03 0.0 
0.0 0.0 0.0 
9.403313625203e-04 7.975766524056e-04 0.0 
7.975766524056e-04 6.266194682450e-03 0.0 
0.0 0.0 0.0 
9.078560074585e-04 1.339518933470e-03 0.0 
1.339518933470e-03 6.241325116216e-03 0.0 
0.0 0.0 0.0 
9.410021961302e-04 3.897818264721e-04 0.0 
3.897818264721e-04 2.979428658603e-03 0.0 
0.0 0.0 0.0 
1.220639375475e-03 8.233998659600e-04 0.0 
8.233998659600e-04 5.259826785450e-03 0.0 
0.0 0.0 0.0 
1.001273122829e-03 5.527907546107e-04 0.0 
5.527907546107e-04 3.350062778828e-03 0.0 
0.0 0.0 0.0 
-2.872137906854e-04 2.274239700033e-03 0.0 
2.274239700033e-03 1.122290787456e-02 0.0 
0.0 0.0 0.0 
8.921872911123e-04 3.425419730471e-04 0.0 
3.425419730471e-04 3.383379775519e-03 0.0 
0.0 0.0 0.0 
-1.408483101469e-04 2.211658863653e-03 0.0 
2.211658863653e-03 1.054806920609e-02 0.0 
0.0 0.0 0.0 
7.042844170981e-04 1.640804926278e-03 0.0 
1.640804926278e-03 8.122445503658e-03 0.0 
0.0 0.0 0.0 
9.038797392957e-04 1.556702119644e-03 0.0 
1.556702119644e-03 7.599521263062e-03 0.0 
0.0 0.0 0.0 
1.050566997666e-03 1.332262022400e-03 0.0 
1.332262022400e-03 5.669775167275e-03 0.0 
0.0 0.0 0.0 
-1.391633026752e-03 1.174034896545e-03 0.0 
1.174034896545e-03 1.436545437082e-02 0.0 
0.0 0.0 0.0 
6.095411710043e-04 4.022836283840e-04 0.0 
4.022836283840e-04 6.532405208477e-03 0.0 
0.0 0.0 0.0 
5.690116192123e-04 3.227243546659e-04 0.0 
3.227243546659e-04 6.545445513020e-03 0.0 
0.0 0.0 0.0 
-8.374151062251e-05 5.312522553409e-04 0.0 
5.312522553409e-04 2.262004634103e-03 0.0 
0.0 0.0 0.0 
5.896900547464e-05 2.253286245190e-03 0.0 
2.253286245190e-03 1.024463032090e-02 0.0 
0.0 0.0 0.0 
4.036028692547e-04 4.135765392890e-04 0.0 
4.135765392890e-04 7.280137838501e-03 0.0 
0.0 0.0 0.0 
-4.968392042287e-04 1.857074286716e-03 0.0 
1.857074286716e-03 7.719620151678e-03 0.0 
0.0 0.0 0.0 
8.060696514605e-04 8.805586072979e-05 0.0 
8.805586072979e-05 4.649906512723e-03 0.0 
0.0 0.0 0.0 
-9.227675439463e-04 1.075341186646e-03 0.0 
1.075341186646e-03 2.125038630969e-03 0.0 
0.0 0.0 0.0 
5.357853346000e-04 3.625265521478e-04 0.0 
3.625265521478e-04 6.736822858890e-03 0.0 
0.0 0.0 0.0 
8.644223080239e-04 4.777576563976e-04 0.0 
4.777576563976e-04 2.930395610242e-03 0.0 
0.0 0.0 0.0 
7.391697173933e-04 3.845463400006e-05 0.0 
3.845463400006e-05 4.426688775212e-03 0.0 
0.0 0.0 0.0 
9.599394063027e-04 1.717348246551e-03 0.0 
1.717348246551e-03 7.593990307842e-03 0.0 
0.0 0.0 0.0 
-1.549882139842e-03 1.312859173667e-03 0.0 
1.312859173667e-03 1.434809421101e-02 0.0 
0.0 0.0 0.0 
-1.443671675285e-03 1.291608274100e-03 0.0 
1.291608274100e-03 1.400955794745e-02 0.0 
0.0 0.0 0.0 
6.561544645010e-04 1.933767674853e-03 0.0 
1.933767674853e-03 8.019284221333e-03 0.0 
0.0 0.0 0.0 
-1.412057158984e-03 1.712685591237e-03 0.0 
1.712685591237e-03 1.112131210420e-02 0.0 
0.0 0.0 0.0 
-1.572129537084e-03 1.730526598333e-03 0.0 
1.730526598333e-03 1.197802222337e-02 0.0 
0.0 0.0 0.0 
5.073748849518e-04 2.842946296083e-04 0.0 
2.842946296083e-04 6.749855632259e-03 0.0 
0.0 0.0 0.0 
9.866143127897e-04 6.061694690536e-04 0.0 
6.061694690536e-04 5.619238288967e-03 0.0 
0.0 0.0 0.0 
1.101781661219e-03 5.387203458681e-04 0.0 
5.387203458681e-04 4.902325222465e-03 0.0 
0.0 0.0 0.0 
1.049721779929e-03 1.016729455420e-03 0.0 
1.016729455420e-03 6.349207401500e-03 0.0 
0.0 0.0 0.0 
1.234716943754e-03 7.129378871326e-04 0.0 
7.129378871326e-04 4.792624282533e-03 0.0 
0.0 0.0 0.0 
8.166200067092e-04 4.231816294355e-04 0.0 
4.231816294355e-04 3.367031595618e-03 0.0 
0.0 0.0 0.0 
-1.273360773385e-03 1.591745901861e-03 0.0 
1.591745901861e-03 1.114713584425e-02 0.0 
0.0 0.0 0.0 
-1.653500560427e-03 1.324566144759e-03 0.0 
1.324566144759e-03 1.378776346417e-02 0.0 
0.0 0.0 0.0 
-9.396508872865e-04 3.249743742681e-06 0.0 
3.249743742681e-06 1.344525431336e-02 0.0 
0.0 0.0 0.0 
8.014089931674e-04 1.459896692978e-03 0.0 
1.459896692978e-03 7.613747346263e-03 0.0 
0.0 0.0 0.0 
9.689400022652e-04 1.161733286761e-03 0.0 
1.161733286761e-03 5.694917090043e-03 0.0 
0.0 0.0 0.0 
5.492383939054e-04 2.048628192919e-03 0.0 
2.048628192919e-03 9.145164825584e-03 0.0 
0.0 0.0 0.0 
5.003526754275e-04 1.470841993685e-04 0.0 
1.470841993685e-04 6.595685278866e-03 0.0 
0.0 0.0 0.0 
1.119980531630e-03 7.334611179028e-04 0.0 
7.334611179028e-04 5.211778514057e-03 0.0 
0.0 0.0 0.0 
2.887077269214e-04 4.106814712236e-04 0.0 
4.106814712236e-04 7.616801763369e-03 0.0 
0.0 0.0 0.0 
9.471048392857e-04 2.798915300459e-04 0.0 
2.798915300459e-04 3.429813425272e-03 0.0 
0.0 0.0 0.0 
5.832028247243e-04 2.086615678120e-03 0.0 
2.086615678120e-03 9.147720009740e-03 0.0 
0.0 0.0 0.0 
6.106177346363e-04 1.820412840761e-03 0.0 
1.820412840761e-03 8.036597862319e-03 0.0 
0.0 0.0 0.0 
7.387833801906e-04 1.950802816046e-03 0.0 
1.950802816046e-03 8.299014956967e-03 0.0 
0.0 0.0 0.0 
6.778529536220e-04 1.158896207894e-03 0.0 
1.158896207894e-03 7.448983850373e-03 0.0 
0.0 0.0 0.0 
8.095712019398e-04 -1.095411874462e-04 0.0 
-1.095411874462e-04 3.132216973732e-03 0.0 
0.0 0.0 0.0 
2.161427336174e-04 2.189429994068e-03 0.0 
2.189429994068e-03 9.569418776839e-03 0.0 
0.0 0.0 0.0 
1.117785381031e-03 5.721667628855e-04 0.0 
5.721667628855e-04 4.814745489369e-03 0.0 
0.0 0.0 0.0 
2.312483143196e-05 2.143708919481e-03 0.0 
2.143708919481e-03 9.858725450286e-03 0.0 
0.0 0.0 0.0 
5.964950215469e-04 1.002958913409e-03 0.0 
1.002958913409e-03 4.471739797222e-03 0.0 
0.0 0.0 0.0 
8.164032009035e-04 1.916114062069e-03 0.0 
1.916114062069e-03 8.193836233172e-03 0.0 
0.0 0.0 0.0 
1.216399401684e-03 5.600701996855e-04 0.0 
5.600701996855e-04 4.423586757064e-03 0.0 
0.0 0.0 0.0 
8.922870294279e-04 2.354633605238e-04 0.0 
2.354633605238e-04 4.898951287995e-03 0.0 
0.0 0.0 0.0 
3.368198018316e-05 2.201915717083e-03 0.0 
2.201915717083e-03 9.850901821113e-03 0.0 
0.0 0.0 0.0 
-6.773428146677e-04 5.986598102371e-04 0.0 
5.986598102371e-04 1.402675526188e-03 0.0 
0.0 0.0 0.0 
1.099299011125e-03 1.446815213295e-03 0.0 
1.446815213295e-03 6.572737433209e-03 0.0 
0.0 0.0 0.0 
-5.941012171727e-04 9.486373541050e-04 0.0 
9.486373541050e-04 2.514164121752e-03 0.0 
0.0 0.0 0.0 
1.972932506591e-04 -1.201841620870e-04 0.0 
-1.201841620870e-04 1.098809178047e-03 0.0 
0.0 0.0 0.0 
8.707567353596e-04 1.655850696588e-04 0.0 
1.655850696588e-04 4.635832636726e-03 0.0 
0.0 0.0 0.0 
2.662436470047e-05 2.356672791619e-03 0.0 
2.356672791619e-03 1.105028020674e-02 0.0 
0.0 0.0 0.0 
-1.318145553973e-03 1.561982749020e-03 0.0 
1.561982749020e-03 1.377081621646e-02 0.0 
0.0 0.0 0.0 
-1.279492615268e-03 1.652649771699e-03 0.0 
1.652649771699e-03 9.665042354527e-03 0.0 
0.0 0.0 0.0 
0.0 1.695400142638e-03 0.0 
1.695400142638e-03 1.604037574276e-02 0.0 
0.0 0.0 0.0 
-9.659225333151e-04 1.131209277640e-03 0.0 
1.131209277640e-03 9.074824526711e-04 0.0 
0.0 0.0 0.0 
-1.303471625827e-03 1.693576786814e-03 0.0 
1.693576786814e-03 1.038707055262e-02 0.0 
0.0 0.0 0.0 
1.188603279930e-03 6.308140519792e-04 0.0 
6.308140519792e-04 4.985438673583e-03 0.0 
0.0 0.0 0.0 
7.863292307371e-04 3.502233390264e-05 0.0 
3.502233390264e-05 4.399793767065e-03 0.0 
0.0 0.0 0.0 
-1.009922845480e-03 1.982123892378e-03 0.0 
1.982123892378e-03 1.076644340441e-02 0.0 
0.0 0.0 0.0 
1.056524953690e-03 2.229354724665e-04 0.0 
2.229354724665e-04 3.246289660439e-03 0.0 
0.0 0.0 0.0 
1.035157379002e-03 4.897443171300e-04 0.0 
4.897443171300e-04 5.134433142302e-03 0.0 
0.0 0.0 0.0 
4.783095624203e-04 1.957060221620e-03 0.0 
1.957060221620e-03 8.674573653184e-03 0.0 
0.0 0.0 0.0 
1.045819370983e-03 1.557296253488e-03 0.0 
1.557296253488e-03 7.072060740723e-03 0.0 
0.0 0.0 0.0 
-2.345179948607e-04 2.430510596835e-03 0.0 
2.430510596835e-03 1.251918820164e-02 0.0 
0.0 0.0 0.0 
1.678086428818e-04 6.657774295308e-04 0.0 
6.657774295308e-04 2.130403764573e-03 0.0 
0.0 0.0 0.0 
8.759035099106e-04 1.048765557971e-04 0.0 
1.048765557971e-04 4.204713457773e-03 0.0 
0.0 0.0 0.0 
8.119406545464e-04 1.124362297613e-04 0.0 
1.124362297613e-04 4.573875693524e-03 0.0 
0.0 0.0 0.0 
5.638073992871e-04 -2.471141295161e-04 0.0 
-2.471141295161e-04 2.290669664051e-03 0.0 
0.0 0.0 0.0 
-1.552033767846e-03 1.067225808220e-03 0.0 
1.067225808220e-03 1.327089637503e-02 0.0 
0.0 0.0 0.0 
-1.392370593543e-03 1.709087144864e-03 0.0 
1.709087144864e-03 1.375055711711e-02 0.0 
0.0 0.0 0.0 
6.081537613436e-04 1.871296701312e-06 0.0 
1.871296701312e-06 5.870045386083e-03 0.0 
0.0 0.0 0.0 
1.147807464172e-04 -8.052023454343e-05 0.0 
-8.052023454343e-05 6.913258562860e-04 0.0 
0.0 0.0 0.0 
-5.976159576406e-04 -1.412790136316e-04 0.0 
-1.412790136316e-04 7.481013793327e-04 0.0 
0.0 0.0 0.0 
3.178094676877e-04 -2.936831084240e-04 0.0 
-2.936831084240e-04 1.585599162996e-03 0.0 
0.0 0.0 0.0 
7.641710283270e-04 3.991581714380e-05 0.0 
3.991581714380e-05 4.586044494200e-03 0.0 
0.0 0.0 0.0 
1.034025199812e-03 3.865000252326e-04 0.0 
3.865000252326e-04 3.857378436710e-03 0.0 
0.0 0.0 0.0 
9.196178627044e-04 9.467724752178e-05 0.0 
9.467724752178e-05 3.170328232680e-03 0.0 
0.0 0.0 0.0 
8.306174310553e-04 1.801362077652e-04 0.0 
1.801362077652e-04 3.011391496041e-03 0.0 
0.0 0.0 0.0 
8.295405701062e-04 1.633892428765e-04 0.0 
1.633892428765e-04 4.821968973127e-03 0.0 
0.0 0.0 0.0 
-9.485565611103e-04 1.985269401600e-03 0.0 
1.985269401600e-03 1.316102861544e-02 0.0 
0.0 0.0 0.0 
7.790350615244e-04 1.103551609836e-04 0.0 
1.103551609836e-04 4.763581787401e-03 0.0 
0.0 0.0 0.0 
1.149557262411e-03 5.643035176032e-04 0.0 
5.643035176032e-04 3.827553691558e-03 0.0 
0.0 0.0 0.0 
3.212674017616e-05 2.199633947807e-03 0.0 
2.199633947807e-03 1.025172604641e-02 0.0 
0.0 0.0 0.0 
-1.233706518318e-03 2.451465114950e-04 0.0 
2.451465114950e-04 1.417671026223e-02 0.0 
0.0 0.0 0.0 
8.616963669703e-04 1.831121397511e-03 0.0 
1.831121397511e-03 8.117203096807e-03 0.0 
0.0 0.0 0.0 
7.417232144205e-04 3.934043927495e-05 0.0 
3.934043927495e-05 4.775717246009e-03 0.0 
0.0 0.0 0.0 
7.749194520885e-04 8.863858472289e-05 0.0 
8.863858472289e-05 4.835487506855e-03 0.0 
0.0 0.0 0.0 
-1.218607867540e-03 1.570811554376e-03 0.0 
1.570811554376e-03 8.279291485293e-03 0.0 
0.0 0.0 0.0 
1.056990090438e-03 3.419520984494e-04 0.0 
3.419520984494e-04 3.923420294175e-03 0.0 
0.0 0.0 0.0 
7.460064834643e-04 1.018965637178e-04 0.0 
1.018965637178e-04 4.953614493409e-03 0.0 
0.0 0.0 0.0 
-8.060157756095e-04 4.943772384282e-05 0.0 
4.943772384282e-05 1.489683173098e-02 0.0 
0.0 0.0 0.0 
-8.636814063127e-04 4.177581845591e-05 0.0 
4.177581845591e-05 1.453796674018e-02 0.0 
0.0 0.0 0.0 
-1.242395496879e-03 1.632832711356e-03 0.0 
1.632832711356e-03 8.990197608052e-03 0.0 
0.0 0.0 0.0 
7.880325922669e-04 1.578070889400e-04 0.0 
1.578070889400e-04 5.012945529630e-03 0.0 
0.0 0.0 0.0 
8.638197397119e-04 -4.322360378017e-05 0.0 
-4.322360378017e-05 2.982626756896e-03 0.0 
0.0 0.0 0.0 
-3.285070334225e-04 1.247753347180e-03 0.0 
1.247753347180e-03 2.928660461340e-03 0.0 
0.0 0.0 0.0 
4.846630278013e-04 2.003993177298e-03 0.0 
2.003993177298e-03 9.167644505010e-03 0.0 
0.0 0.0 0.0 
2.990123421081e-04 -2.138987101607e-04 0.0 
-2.138987101607e-04 1.439545576698e-03 0.0 
0.0 0.0 0.0 
9.866177869817e-04 8.531421055852e-05 0.0 
8.531421055852e-05 3.089876325731e-03 0.0 
0.0 0.0 0.0 
9.623305488899e-04 1.363408716651e-03 0.0 
1.363408716651e-03 6.626381624248e-03 0.0 
0.0 0.0 0.0 
-1.089608391785e-03 1.597092314645e-03 0.0 
1.597092314645e-03 9.677566958910e-03 0.0 
0.0 0.0 0.0 
7.204397746694e-04 3.178596385564e-05 0.0 
3.178596385564e-05 4.971445126736e-03 0.0 
0.0 0.0 0.0 
4.692982357268e-04 -5.770619663824e-05 0.0 
-5.770619663824e-05 2.136968424132e-03 0.0 
0.0 0.0 0.0 
-1.735245136034e-03 1.109259743560e-03 0.0 
1.109259743560e-03 1.364422505322e-02 0.0 
0.0 0.0 0.0 
7.433058027095e-04 8.509694250534e-05 0.0 
8.509694250534e-05 5.025987937588e-03 0.0 
0.0 0.0 0.0 
1.081268878876e-03 3.956991562520e-04 0.0 
3.956991562520e-04 4.551537645361e-03 0.0 
0.0 0.0 0.0 
8.365616592829e-04 8.380901636722e-05 0.0 
8.380901636722e-05 4.469483066599e-03 0.0 
0.0 0.0 0.0 
-5.362424199445e-04 3.439883557154e-04 0.0 
3.439883557154e-04 1.261939946550e-03 0.0 
0.0 0.0 0.0 
-5.455337168966e-04 3.455164657895e-05 0.0 
3.455164657895e-05 1.593197790202e-02 0.0 
0.0 0.0 0.0 
1.014786974601e-03 1.739837160719e-04 0.0 
1.739837160719e-04 3.683179912072e-03 0.0 
0.0 0.0 0.0 
7.821056746284e-04 1.487122087886e-03 0.0 
1.487122087886e-03 7.768083515843e-03 0.0 
0.0 0.0 0.0 
6.690078018095e-04 1.856122068472e-03 0.0 
1.856122068472e-03 8.317149490477e-03 0.0 
0.0 0.0 0.0 
7.464408617650e-04 1.478820802668e-04 0.0 
1.478820802668e-04 5.206930628618e-03 0.0 
0.0 0.0 0.0 
7.125635863814e-04 7.737152330526e-05 0.0 
7.737152330526e-05 5.219309077054e-03 0.0 
0.0 0.0 0.0 
1.101790316321e-03 4.076905226058e-04 0.0 
4.076905226058e-04 3.468422722920e-03 0.0 
0.0 0.0 0.0 
-8.687734561530e-06 -1.992025372914e-04 0.0 
-1.992025372914e-04 1.015431023017e-03 0.0 
0.0 0.0 0.0 
-4.207047955650e-04 6.171747950017e-04 0.0 
6.171747950017e-04 1.206737161384e-03 0.0 
0.0 0.0 0.0 
7.056747547380e-04 1.305697378322e-04 0.0 
1.305697378322e-04 5.403620279109e-03 0.0 
0.0 0.0 0.0 
7.734512621862e-04 1.266795765172e-03 0.0 
1.266795765172e-03 7.452831893657e-03 0.0 
0.0 0.0 0.0 
7.957057692287e-04 -1.304867717284e-04 0.0 
-1.304867717284e-04 2.853639776683e-03 0.0 
0.0 0.0 0.0 
2.264704867283e-04 2.248045216197e-03 0.0 
2.248045216197e-03 9.981863566052e-03 0.0 
0.0 0.0 0.0 
-4.229906357944e-04 1.773074410200e-03 0.0 
1.773074410200e-03 6.998629016822e-03 0.0 
0.0 0.0 0.0 
-1.213925290313e-04 2.267364758292e-03 0.0 
2.267364758292e-03 1.091996042728e-02 0.0 
0.0 0.0 0.0 
3.914655286577e-04 1.075490041280e-03 0.0 
1.075490041280e-03 8.187941314408e-03 0.0 
0.0 0.0 0.0 
-1.270640189727e-03 -2.238711627713e-05 0.0 
-2.238711627713e-05 6.707890860809e-04 0.0 
0.0 0.0 0.0 
0.0 1.461945996788e-04 0.0 
1.461945996788e-04 1.673757631017e-02 0.0 
0.0 0.0 0.0 
0.0 1.278755961587e-04 0.0 
1.278755961587e-04 8.277757307922e-03 0.0 
0.0 0.0 0.0 
-9.112500273604e-04 -3.441290269544e-05 0.0 
-3.441290269544e-05 1.388203014350e-02 0.0 
0.0 0.0 0.0 
9.524682558573e-04 4.846167023574e-05 0.0 
4.846167023574e-05 3.511281805298e-03 0.0 
0.0 0.0 0.0 
5.898003704368e-04 1.905437324087e-03 0.0 
1.905437324087e-03 8.479241370076e-03 0.0 
0.0 0.0 0.0 
9.935912633179e-04 4.430528763063e-04 0.0 
4.430528763063e-04 3.811532372964e-03 0.0 
0.0 0.0 0.0 
1.452622302656e-04 -2.068642276031e-04 0.0 
-2.068642276031e-04 9.575131401960e-04 0.0 
0.0 0.0 0.0 
-8.719819217875e-04 8.939809674590e-04 0.0 
8.939809674590e-04 1.503617198188e-03 0.0 
0.0 0.0 0.0 
-5.355531184136e-04 4.342320952480e-04 0.0 
4.342320952480e-04 1.619691880895e-02 0.0 
0.0 0.0 0.0 
-1.202802497866e-03 1.913536948046e-03 0.0 
1.913536948046e-03 1.346247324636e-02 0.0 
0.0 0.0 0.0 
-1.823708336361e-03 9.762764682852e-04 0.0 
9.762764682852e-04 1.343584447941e-02 0.0 
0.0 0.0 0.0 
1.401965674679e-04 2.863594622372e-03 0.0 
2.863594622372e-03 1.139008717488e-02 0.0 
0.0 0.0 0.0 
3.872433983534e-04 -5.824341479862e-05 0.0 
-5.824341479862e-05 1.768710567893e-03 0.0 
0.0 0.0 0.0 
1.524942823861e-04 2.749799712988e-03 0.0 
2.749799712988e-03 1.104707534715e-02 0.0 
0.0 0.0 0.0 
-1.147370246686e-03 1.804328766748e-03 0.0 
1.804328766748e-03 1.348070891517e-02 0.0 
0.0 0.0 0.0 
8.808798514197e-04 -3.844224242424e-05 0.0 
-3.844224242424e-05 3.385043108338e-03 0.0 
0.0 0.0 0.0 
7.689029865519e-04 1.871031327678e-03 0.0 
1.871031327678e-03 7.844091194332e-03 0.0 
0.0 0.0 0.0 
9.893939200258e-04 7.243375870818e-05 0.0 
7.243375870818e-05 3.221654007565e-03 0.0 
0.0 0.0 0.0 
-3.201464252724e-04 1.375359790250e-03 0.0 
1.375359790250e-03 3.533464651349e-03 0.0 
0.0 0.0 0.0 
9.053346438039e-04 -9.005061595845e-06 0.0 
-9.005061595845e-06 2.973735417603e-03 0.0 
0.0 0.0 0.0 
-7.370526079870e-04 2.131366320870e-03 0.0 
2.131366320870e-03 1.282491257692e-02 0.0 
0.0 0.0 0.0 
4.379189036170e-04 1.245018111917e-04 0.0 
1.245018111917e-04 6.877398078965e-03 0.0 
0.0 0.0 0.0 
1.066418118296e-03 1.913653082431e-04 0.0 
1.913653082431e-04 3.358319301601e-03 0.0 
0.0 0.0 0.0 
8.092108478963e-05 2.318295339094e-03 0.0 
2.318295339094e-03 1.063904009470e-02 0.0 
0.0 0.0 0.0 
-8.648536318011e-04 -5.013916154231e-05 0.0 
-5.013916154231e-05 4.479487827422e-04 0.0 
0.0 0.0 0.0 
1.124090307051e-03 3.548859262956e-04 0.0 
3.548859262956e-04 3.552889270319e-03 0.0 
0.0 0.0 0.0 
-1.111496804937e-03 1.901772278965e-03 0.0 
1.901772278965e-03 1.416508796105e-02 0.0 
0.0 0.0 0.0 
8.216860284500e-04 -6.518525998796e-05 0.0 
-6.518525998796e-05 2.878545125114e-03 0.0 
0.0 0.0 0.0 
7.092848816022e-04 -1.953934726060e-04 0.0 
-1.953934726060e-04 2.612443184036e-03 0.0 
0.0 0.0 0.0 
7.115327213225e-04 1.759277928761e-03 0.0 
1.759277928761e-03 7.862793968717e-03 0.0 
0.0 0.0 0.0 
3.292210379531e-04 -1.485851825173e-04 0.0 
-1.485851825173e-04 1.469637132903e-03 0.0 
0.0 0.0 0.0 
-1.178840400564e-03 1.515412672198e-03 0.0 
1.515412672198e-03 6.861413249119e-03 0.0 
0.0 0.0 0.0 
-1.219794347217e-03 1.651355695818e-03 0.0 
1.651355695818e-03 7.621497439079e-03 0.0 
0.0 0.0 0.0 
7.221863454812e-04 -1.240852277780e-04 0.0 
-1.240852277780e-04 2.506169294684e-03 0.0 
0.0 0.0 0.0 
1.072931096509e-03 5.127219555181e-04 0.0 
5.127219555181e-04 5.008604091035e-03 0.0 
0.0 0.0 0.0 
1.063967964909e-03 1.417280796806e-03 0.0 
1.417280796806e-03 6.132433336519e-03 0.0 
0.0 0.0 0.0 
3.522166051906e-05 2.267838957083e-03 0.0 
2.267838957083e-03 1.064494741495e-02 0.0 
0.0 0.0 0.0 
-2.719120720400e-04 2.435187263290e-03 0.0 
2.435187263290e-03 1.362385027057e-02 0.0 
0.0 0.0 0.0 
-1.089248981381e-03 1.616489393931e-03 0.0 
1.616489393931e-03 8.268342400942e-03 0.0 
0.0 0.0 0.0 
-7.355036216851e-04 4.781140473655e-06 0.0 
4.781140473655e-06 1.526508952036e-02 0.0 
0.0 0.0 0.0 
9.957530891680e-05 2.581587987851e-03 0.0 
2.581587987851e-03 1.184062410494e-02 0.0 
0.0 0.0 0.0 
1.061684137119e-03 4.734955156547e-04 0.0 
4.734955156547e-04 3.398707153617e-03 0.0 
0.0 0.0 0.0 
-6.771852964972e-04 1.336257512209e-03 0.0 
1.336257512209e-03 2.528254487501e-03 0.0 
0.0 0.0 0.0 
-5.476492048774e-04 1.765318676934e-03 0.0 
1.765318676934e-03 7.736314667539e-03 0.0 
0.0 0.0 0.0 
1.055806795289e-03 3.759962613387e-04 0.0 
3.759962613387e-04 4.671944807786e-03 0.0 
0.0 0.0 0.0 
-2.253421439002e-04 2.335476816169e-03 0.0 
2.335476816169e-03 1.156706278313e-02 0.0 
0.0 0.0 0.0 
1.170472119702e-03 4.959537507008e-04 0.0 
4.959537507008e-04 4.653083668072e-03 0.0 
0.0 0.0 0.0 
-2.038353776446e-04 4.375649645147e-04 0.0 
4.375649645147e-04 1.916176203448e-03 0.0 
0.0 0.0 0.0 
1.034934616492e-03 6.285172898606e-04 0.0 
6.285172898606e-04 5.480809625062e-03 0.0 
0.0 0.0 0.0 
-3.504014985078e-04 1.500793139650e-03 0.0 
1.500793139650e-03 4.190665105724e-03 0.0 
0.0 0.0 0.0 
9.801334408581e-04 1.260065891144e-03 0.0 
1.260065891144e-03 6.155310338077e-03 0.0 
0.0 0.0 0.0 
1.151056614213e-03 6.061949633465e-04 0.0 
6.061949633465e-04 5.115794006560e-03 0.0 
0.0 0.0 0.0 
8.563271525337e-04 1.817258473910e-03 0.0 
1.817258473910e-03 7.717307933433e-03 0.0 
0.0 0.0 0.0 
-8.841959349905e-04 6.892947755807e-05 0.0 
6.892947755807e-05 1.482624150088e-02 0.0 
0.0 0.0 0.0 
6.427141273704e-04 -2.213479659876e-04 0.0 
-2.213479659876e-04 2.519829211937e-03 0.0 
0.0 0.0 0.0 
-3.260709597478e-04 1.080058733201e-03 0.0 
1.080058733201e-03 2.357461027136e-03 0.0 
0.0 0.0 0.0 
1.101910810969e-03 7.187425791695e-04 0.0 
7.187425791695e-04 5.601737959023e-03 0.0 
0.0 0.0 0.0 
-3.573035891415e-04 1.575168812106e-03 0.0 
1.575168812106e-03 4.845423174434e-03 0.0 
0.0 0.0 0.0 
-5.258282719749e-04 1.417069029792e-04 0.0 
1.417069029792e-04 7.183484269515e-04 0.0 
0.0 0.0 0.0 
-3.501289016256e-04 9.166115710032e-05 0.0 
9.166115710032e-05 1.623921669022e-02 0.0 
0.0 0.0 0.0 
-5.052552880285e-04 7.975930821721e-05 0.0 
7.975930821721e-05 1.593375133771e-02 0.0 
0.0 0.0 0.0 
-1.825269950790e-04 -1.597783685344e-04 0.0 
-1.597783685344e-04 4.683465454118e-04 0.0 
0.0 0.0 0.0 
9.683143698331e-04 7.476422726993e-04 0.0 
7.476422726993e-04 5.976313276393e-03 0.0 
0.0 0.0 0.0 
4.455794597416e-04 -2.766483403507e-04 0.0 
-2.766483403507e-04 1.935355947337e-03 0.0 
0.0 0.0 0.0 
5.382352018233e-04 -1.653852231654e-04 0.0 
-1.653852231654e-04 2.065650593536e-03 0.0 
0.0 0.0 0.0 
9.650025364771e-05 2.403810819248e-03 0.0 
2.403810819248e-03 1.104719571114e-02 0.0 
0.0 0.0 0.0 
7.823981922384e-04 1.698714383025e-03 0.0 
1.698714383025e-03 7.733740483034e-03 0.0 
0.0 0.0 0.0 
2.269143505982e-04 2.326485280436e-03 0.0 
2.326485280436e-03 1.039949125698e-02 0.0 
0.0 0.0 0.0 
1.006233181782e-03 1.981824926812e-04 0.0 
1.981824926812e-04 3.582714674014e-03 0.0 
0.0 0.0 0.0 
-9.408233605596e-04 -3.149679979302e-06 0.0 
-3.149679979302e-06 1.344570047110e-02 0.0 
0.0 0.0 0.0 
1.878804679964e-04 8.778945030022e-04 0.0 
8.778945030022e-04 8.076027332300e-03 0.0 
0.0 0.0 0.0 
4.104446980058e-04 -1.861617269717e-04 0.0 
-1.861617269717e-04 1.706870839796e-03 0.0 
0.0 0.0 0.0 
7.408124662167e-04 1.416930035334e-03 0.0 
1.416930035334e-03 7.648824746888e-03 0.0 
0.0 0.0 0.0 
9.070638105180e-04 1.433463961415e-03 0.0 
1.433463961415e-03 6.700184399357e-03 0.0 
0.0 0.0 0.0 
3.191541980598e-04 -3.757236332939e-05 0.0 
-3.757236332939e-05 1.322746925772e-03 0.0 
0.0 0.0 0.0 
-4.236745254251e-04 2.267109099425e-03 0.0 
2.267109099425e-03 1.187009757268e-02 0.0 
0.0 0.0 0.0 
1.175647815246e-03 5.038382280065e-04 0.0 
5.038382280065e-04 3.894608301969e-03 0.0 
0.0 0.0 0.0 
-5.633615014455e-05 -2.255475349304e-04 0.0 
-2.255475349304e-04 7.902273882421e-04 0.0 
0.0 0.0 0.0 
1.034245007343e-03 2.649351477847e-04 0.0 
2.649351477847e-04 3.144944080874e-03 0.0 
0.0 0.0 0.0 
6.482711865765e-04 3.696251459891e-05 0.0 
3.696251459891e-05 5.662613115003e-03 0.0 
0.0 0.0 0.0 
-7.784512446301e-04 2.189103705279e-03 0.0 
2.189103705279e-03 1.281197381360e-02 0.0 
0.0 0.0 0.0 
1.863015305275e-04 -3.294106366562e-04 0.0 
-3.294106366562e-04 1.330048484811e-03 0.0 
0.0 0.0 0.0 
7.333562862573e-04 -8.051025571164e-06 0.0 
-8.051025571164e-06 4.436785394337e-03 0.0 
0.0 0.0 0.0 
-5.411634998231e-05 2.379788842886e-03 0.0 
2.379788842886e-03 1.129509868298e-02 0.0 
0.0 0.0 0.0 
6.463498649054e-04 1.906397876179e-03 0.0 
1.906397876179e-03 8.674132217272e-03 0.0 
0.0 0.0 0.0 
8.158071240534e-04 -7.700905333618e-05 0.0 
-7.700905333618e-05 2.732061999427e-03 0.0 
0.0 0.0 0.0 
4.874994439228e-04 1.916273554202e-06 0.0 
1.916273554202e-06 2.138285657964e-03 0.0 
0.0 0.0 0.0 
1.054123709099e-03 1.509231975193e-03 0.0 
1.509231975193e-03 6.605805291861e-03 0.0 
0.0 0.0 0.0 
-8.326728946237e-04 -3.218768245131e-05 0.0 
-3.218768245131e-05 1.468781082359e-02 0.0 
0.0 0.0 0.0 
-1.027629301644e-04 -2.382809438704e-04 0.0 
-2.382809438704e-04 7.980285410913e-04 0.0 
0.0 0.0 0.0 
9.320518647482e-05 2.831497154550e-03 0.0 
2.831497154550e-03 1.192162902802e-02 0.0 
0.0 0.0 0.0 
-2.294810069019e-04 2.338242084414e-03 0.0 
2.338242084414e-03 1.456956713000e-02 0.0 
0.0 0.0 0.0 
-8.917574817183e-04 -2.345909192759e-05 0.0 
-2.345909192759e-05 1.413064973170e-02 0.0 
0.0 0.0 0.0 
-6.216199639643e-04 1.215167878372e-03 0.0 
1.215167878372e-03 1.614700370665e-02 0.0 
0.0 0.0 0.0 
-1.222730850743e-04 2.579628081557e-03 0.0 
2.579628081557e-03 1.379596496442e-02 0.0 
0.0 0.0 0.0 
1.132772130113e-03 3.175867603286e-04 0.0 
3.175867603286e-04 3.656258333409e-03 0.0 
0.0 0.0 0.0 
9.513847861853e-04 5.407828741323e-05 0.0 
5.407828741323e-05 3.384383087399e-03 0.0 
0.0 0.0 0.0 
4.175724714217e-04 1.862393872539e-03 0.0 
1.862393872539e-03 9.069897051742e-03 0.0 
0.0 0.0 0.0 
-8.352839260150e-04 4.907497239365e-05 0.0 
4.907497239365e-05 4.738819861412e-04 0.0 
0.0 0.0 0.0 
4.322751614649e-04 3.119002932535e-05 0.0 
3.119002932535e-05 1.937337582750e-03 0.0 
0.0 0.0 0.0 
7.179651585889e-04 4.320796737524e-05 0.0 
4.320796737524e-05 4.542019129860e-03 0.0 
0.0 0.0 0.0 
7.241826524209e-04 -1.795813253961e-04 0.0 
-1.795813253961e-04 2.751222276609e-03 0.0 
0.0 0.0 0.0 
9.747355604717e-04 1.044234255400e-04 0.0 
1.044234255400e-04 2.962979294621e-03 0.0 
0.0 0.0 0.0 
-1.125551282345e-03 1.453587493851e-03 0.0 
1.453587493851e-03 5.480872100079e-03 0.0 
0.0 0.0 0.0 
-1.226580982556e-03 1.600651523090e-03 0.0 
1.600651523090e-03 6.254198551946e-03 0.0 
0.0 0.0 0.0 
-1.220614286098e-03 1.694186810789e-04 0.0 
1.694186810789e-04 1.421788175971e-02 0.0 
0.0 0.0 0.0 
9.848533637442e-04 2.329223175774e-04 0.0 
2.329223175774e-04 3.498326400613e-03 0.0 
0.0 0.0 0.0 
5.246457072914e-04 -4.758452002653e-05 0.0 
-4.758452002653e-05 2.284508359511e-03 0.0 
0.0 0.0 0.0 
7.423349230633e-04 2.021070344775e-03 0.0 
2.021070344775e-03 8.690187627610e-03 0.0 
0.0 0.0 0.0 
1.685391725139e-04 7.277631070260e-04 0.0 
7.277631070260e-04 8.461366957384e-03 0.0 
0.0 0.0 0.0 
1.660964252379e-04 8.335320712694e-04 0.0 
8.335320712694e-04 8.494892695902e-03 0.0 
0.0 0.0 0.0 
1.064496352721e-03 1.733343450741e-04 0.0 
1.733343450741e-04 3.487337671267e-03 0.0 
0.0 0.0 0.0 
-1.310049569718e-03 1.955019920263e-04 0.0 
1.955019920263e-04 1.392997941845e-02 0.0 
0.0 0.0 0.0 
-8.508033150511e-04 1.737942965529e-05 0.0 
1.737942965529e-05 7.199667144973e-04 0.0 
0.0 0.0 0.0 
-1.090434792482e-03 1.373980054347e-03 0.0 
1.373980054347e-03 4.153440335663e-03 0.0 
0.0 0.0 0.0 
1.156228282519e-04 -2.393421376677e-04 0.0 
-2.393421376677e-04 1.501748556241e-03 0.0 
0.0 0.0 0.0 
-1.115254100439e-03 1.433316785068e-03 0.0 
1.433316785068e-03 4.856465238086e-03 0.0 
0.0 0.0 0.0 
8.804031431140e-04 1.528720571247e-03 0.0 
1.528720571247e-03 7.165418791606e-03 0.0 
0.0 0.0 0.0 
8.973207315874e-04 -6.264728143256e-06 0.0 
-6.264728143256e-06 2.837705830316e-03 0.0 
0.0 0.0 0.0 
9.409142905372e-04 6.920841263245e-05 0.0 
6.920841263245e-05 3.271489453774e-03 0.0 
0.0 0.0 0.0 
-4.020103568404e-04 -2.055945490083e-04 0.0 
-2.055945490083e-04 9.944771684951e-04 0.0 
0.0 0.0 0.0 
-4.417948762009e-04 1.225076091049e-04 0.0 
1.225076091049e-04 1.599690677371e-02 0.0 
0.0 0.0 0.0 
8.779950124180e-04 -4.801698707050e-05 0.0 
-4.801698707050e-05 3.109718561006e-03 0.0 
0.0 0.0 0.0 
-4.321492458020e-04 4.631951570822e-04 0.0 
4.631951570822e-04 1.619179983473e-02 0.0 
0.0 0.0 0.0 
-6.268449775628e-04 1.379011096162e-04 0.0 
1.379011096162e-04 1.573472659361e-02 0.0 
0.0 0.0 0.0 
-1.721467031898e-04 2.075886660975e-04 0.0 
2.075886660975e-04 1.672534911127e-02 0.0 
0.0 0.0 0.0 
1.313821011628e-04 1.661736920915e-04 0.0 
1.661736920915e-04 8.285285903350e-03 0.0 
0.0 0.0 0.0 
-9.014322014315e-04 3.213585536182e-05 0.0 
3.213585536182e-05 1.414355906847e-02 0.0 
0.0 0.0 0.0 
8.830534139979e-04 -4.594904824200e-05 0.0 
-4.594904824200e-05 3.242510999547e-03 0.0 
0.0 0.0 0.0 
-1.118588537313e-03 1.671429632412e-03 0.0 
1.671429632412e-03 6.876638480509e-03 0.0 
0.0 0.0 0.0 
9.835350260028e-04 7.045512610318e-05 0.0 
7.045512610318e-05 3.366075804229e-03 0.0 
0.0 0.0 0.0 
0.0 5.650546919818e-04 0.0 
5.650546919818e-04 8.407384481762e-03 0.0 
0.0 0.0 0.0 
-9.820589341684e-04 1.196896229653e-03 0.0 
1.196896229653e-03 2.778525134926e-03 0.0 
0.0 0.0 0.0 
-1.027748888782e-03 1.309760321948e-03 0.0 
1.309760321948e-03 3.468120208579e-03 0.0 
0.0 0.0 0.0 
6.636626811662e-04 1.603075423635e-03 0.0 
1.603075423635e-03 8.126281551919e-03 0.0 
0.0 0.0 0.0 
-1.066013127246e-03 7.121783594537e-05 0.0 
7.121783594537e-05 1.385885160661e-02 0.0 
0.0 0.0 0.0 
-3.835269968705e-04 3.106210770742e-04 0.0 
3.106210770742e-04 1.623003647084e-02 0.0 
0.0 0.0 0.0 
-1.086771064134e-04 2.335700719016e-03 0.0 
2.335700719016e-03 1.129792435917e-02 0.0 
0.0 0.0 0.0 
6.366679961534e-04 2.113111152077e-03 0.0 
2.113111152077e-03 9.151215212371e-03 0.0 
0.0 0.0 0.0 
-5.087886770417e-04 2.365327245853e-03 0.0 
2.365327245853e-03 1.277340788826e-02 0.0 
0.0 0.0 0.0 
-9.206959906827e-04 7.132872300093e-05 0.0 
7.132872300093e-05 1.424214454570e-02 0.0 
0.0 0.0 0.0 
6.203727167764e-04 -2.404935680738e-04 0.0 
-2.404935680738e-04 2.382361592131e-03 0.0 
0.0 0.0 0.0 
7.029307776172e-04 -1.340011650629e-04 0.0 
-1.340011650629e-04 2.368047887806e-03 0.0 
0.0 0.0 0.0 
-7.617909926667e-04 8.401282697917e-05 0.0 
8.401282697917e-05 1.507784954885e-02 0.0 
0.0 0.0 0.0 
5.199802934712e-04 2.046675787429e-03 0.0 
2.046675787429e-03 9.201236215943e-03 0.0 
0.0 0.0 0.0 
-1.492928477186e-03 3.600283077026e-04 0.0 
3.600283077026e-04 1.360376565326e-02 0.0 
0.0 0.0 0.0 
-9.344024477302e-04 4.467587211615e-06 0.0 
4.467587211615e-06 1.379588624212e-02 0.0 
0.0 0.0 0.0 
-9.235010659385e-04 9.801996294746e-06 0.0 
9.801996294746e-06 1.413308667433e-02 0.0 
0.0 0.0 0.0 
-9.717934569169e-04 1.477906289488e-05 0.0 
1.477906289488e-05 1.426390850613e-02 0.0 
0.0 0.0 0.0 
6.166632470217e-05 -2.475732371506e-05 0.0 
-2.475732371506e-05 1.283968696308e-03 0.0 
0.0 0.0 0.0 
6.028990984792e-04 -1.700257188389e-04 0.0 
-1.700257188389e-04 2.147131848788e-03 0.0 
0.0 0.0 0.0 
-3.856774040382e-04 6.887275594055e-04 0.0 
6.887275594055e-04 1.643242626930e-02 0.0 
0.0 0.0 0.0 
-9.483161588628e-04 6.617417594752e-05 0.0 
6.617417594752e-05 1.466076953104e-02 0.0 
0.0 0.0 0.0 
2.985763803238e-04 2.171833695358e-03 0.0 
2.171833695358e-03 9.691014617299e-03 0.0 
0.0 0.0 0.0 
-4.314351286051e-04 2.548419782214e-03 0.0 
2.548419782214e-03 1.357800826568e-02 0.0 
0.0 0.0 0.0 
-4.495599987907e-04 2.276966076102e-03 0.0 
2.276966076102e-03 1.186848888459e-02 0.0 
0.0 0.0 0.0 
-7.818604188645e-04 1.263063217118e-03 0.0 
1.263063217118e-03 1.591513756837e-02 0.0 
0.0 0.0 0.0 
7.157229542325e-04 -2.109343355668e-05 0.0 
-2.109343355668e-05 3.259062514976e-03 0.0 
0.0 0.0 0.0 
6.385561519722e-04 -3.886656318016e-05 0.0 
-3.886656318016e-05 2.952111822089e-03 0.0 
0.0 0.0 0.0 
4.140802845809e-04 8.650984228849e-04 0.0 
8.650984228849e-04 7.643259150916e-03 0.0 
0.0 0.0 0.0 
-4.241411916828e-04 -1.075972207785e-04 0.0 
-1.075972207785e-04 5.838729077297e-04 0.0 
0.0 0.0 0.0 
4.318601361235e-04 -6.781108936298e-05 0.0 
-6.781108936298e-05 2.050928775988e-03 0.0 
0.0 0.0 0.0 
0.0 2.672850460436e-03 0.0 
2.672850460436e-03 1.120508259123e-02 0.0 
0.0 0.0 0.0 
2.378006330968e-04 -5.391364787831e-05 0.0 
-5.391364787831e-05 9.722606649230e-04 0.0 
0.0 0.0 0.0 
-9.214504995608e-04 1.047800983327e-05 0.0 
1.047800983327e-05 1.379833114860e-02 0.0 
0.0 0.0 0.0 
5.715699228963e-04 1.548018635243e-03 0.0 
1.548018635243e-03 8.322658944927e-03 0.0 
0.0 0.0 0.0 
-6.448300917483e-05 -1.379678319218e-04 0.0 
-1.379678319218e-04 6.975455954055e-04 0.0 
0.0 0.0 0.0 
-3.662907467850e-05 -9.320995059576e-05 0.0 
-9.320995059576e-05 3.710938450994e-04 0.0 
0.0 0.0 0.0 
-2.734561070779e-04 1.084594242360e-03 0.0 
1.084594242360e-03 1.649372245078e-02 0.0 
0.0 0.0 0.0 
-1.016371682031e-03 -1.781671573218e-07 0.0 
-1.781671573218e-07 1.347268111878e-02 0.0 
0.0 0.0 0.0 
-4.279472287223e-04 9.452211365974e-04 0.0 
9.452211365974e-04 1.630678909432e-02 0.0 
0.0 0.0 0.0 
4.451131194694e-04 1.643300408227e-03 0.0 
1.643300408227e-03 8.524442080553e-03 0.0 
0.0 0.0 0.0 
-1.005726904925e-03 -1.032076887196e-05 0.0 
-1.032076887196e-05 1.345921436632e-02 0.0 
0.0 0.0 0.0 
-8.354138672070e-04 5.435089021325e-05 0.0 
5.435089021325e-05 8.240280240313e-04 0.0 
0.0 0.0 0.0 
-1.851202515933e-04 1.488458836929e-04 0.0 
1.488458836929e-04 1.649553481931e-02 0.0 
0.0 0.0 0.0 
2.277909418851e-04 -1.957909298391e-04 0.0 
-1.957909298391e-04 1.102611318412e-03 0.0 
0.0 0.0 0.0 
-4.428923281713e-04 7.661220085516e-04 0.0 
7.661220085516e-04 1.620920070529e-02 0.0 
0.0 0.0 0.0 
0.0 4.428940860825e-04 0.0 
4.428940860825e-04 8.358713361843e-03 0.0 
0.0 0.0 0.0 
-5.526558353894e-04 2.250817094979e-03 0.0 
2.250817094979e-03 1.436943211741e-02 0.0 
0.0 0.0 0.0 
3.572995561887e-04 -6.236999908526e-06 0.0 
-6.236999908526e-06 1.570289104348e-03 0.0 
0.0 0.0 0.0 
-1.422561763517e-03 5.318313377473e-04 0.0 
5.318313377473e-04 1.414316102291e-02 0.0 
0.0 0.0 0.0 
6.540009749540e-04 -5.849258581564e-05 0.0 
-5.849258581564e-05 3.319777549859e-03 0.0 
0.0 0.0 0.0 
6.309669507623e-04 1.901892833820e-03 0.0 
1.901892833820e-03 8.699258617126e-03 0.0 
0.0 0.0 0.0 
1.729867607900e-04 2.358746528688e-03 0.0 
2.358746528688e-03 1.020318766209e-02 0.0 
0.0 0.0 0.0 
-6.869041103882e-04 1.031305134893e-04 0.0 
1.031305134893e-04 1.546372088910e-02 0.0 
0.0 0.0 0.0 
2.322831186576e-04 2.224982536384e-03 0.0 
2.224982536384e-03 9.895437176414e-03 0.0 
0.0 0.0 0.0 
-2.057400614015e-04 -4.702315174195e-05 0.0 
-4.702315174195e-05 8.702390655142e-04 0.0 
0.0 0.0 0.0 
2.338466672169e-04 5.474533078406e-04 0.0 
5.474533078406e-04 7.976818898696e-03 0.0 
0.0 0.0 0.0 
4.153132099141e-04 -5.147285134362e-05 0.0 
-5.147285134362e-05 1.753897005341e-03 0.0 
0.0 0.0 0.0 
2.437096152035e-04 -5.750926541764e-05 0.0 
-5.750926541764e-05 9.758479804727e-04 0.0 
0.0 0.0 0.0 
3.745200031589e-04 1.442999530563e-03 0.0 
1.442999530563e-03 8.585040776984e-03 0.0 
0.0 0.0 0.0 
-5.855106741613e-04 1.825671728955e-03 0.0 
1.825671728955e-03 1.571049567130e-02 0.0 
0.0 0.0 0.0 
-3.775247393456e-04 1.098473376688e-03 0.0 
1.098473376688e-03 1.631073068559e-02 0.0 
0.0 0.0 0.0 
-9.596441829924e-04 4.668680878194e-05 0.0 
4.668680878194e-05 1.379356555455e-02 0.0 
0.0 0.0 0.0 
-1.525973844938e-03 1.074658908180e-03 0.0 
1.074658908180e-03 1.387116425582e-02 0.0 
0.0 0.0 0.0 
-3.053680077670e-04 1.057529299458e-03 0.0 
1.057529299458e-03 3.518094300232e-03 0.0 
0.0 0.0 0.0 
-2.654392678597e-04 2.741170878932e-03 0.0 
2.741170878932e-03 1.367674896470e-02 0.0 
0.0 0.0 0.0 
6.038485823163e-04 -1.361803207130e-05 0.0 
-1.361803207130e-05 2.731306116573e-03 0.0 
0.0 0.0 0.0 
-2.483388615026e-04 5.143666393102e-04 0.0 
5.143666393102e-04 1.762077584885e-03 0.0 
0.0 0.0 0.0 
7.609778717079e-04 2.006749691909e-03 0.0 
2.006749691909e-03 8.660382517482e-03 0.0 
0.0 0.0 0.0 
-9.380092694891e-04 -2.098416492146e-06 0.0 
-2.098416492146e-06 1.342369945349e-02 0.0 
0.0 0.0 0.0 
-5.348530807360e-04 1.736805775324e-03 0.0 
1.736805775324e-03 1.548419097618e-02 0.0 
0.0 0.0 0.0 
-1.417211539918e-04 -1.629579163371e-05 0.0 
-1.629579163371e-05 1.672472867384e-02 0.0 
0.0 0.0 0.0 
0.0 7.086057699570e-05 0.0 
7.086057699570e-05 1.675732025711e-02 0.0 
0.0 0.0 0.0 
7.252333136631e-05 -3.169481558287e-06 0.0 
-3.169481558287e-06 6.593622770890e-05 0.0 
0.0 0.0 0.0 
8.018752829142e-05 3.683932406413e-06 0.0 
3.683932406413e-06 7.197885871313e-05 0.0 
0.0 0.0 0.0 
-9.270866174003e-04 -3.220631426017e-05 0.0 
-3.220631426017e-05 1.346296807974e-02 0.0 
0.0 0.0 0.0 
-9.544460549787e-04 1.698146204502e-06 0.0 
1.698146204502e-06 1.342251859639e-02 0.0 
0.0 0.0 0.0 
0.0 6.240855041721e-05 0.0 
6.240855041721e-05 8.277457764436e-03 0.0 
0.0 0.0 0.0 
1.248171008341e-04 3.893673952745e-05 0.0 
3.893673952745e-05 8.199584285381e-03 0.0 
0.0 0.0 0.0 
9.309933763069e-05 9.625472024674e-06 0.0 
9.625472024674e-06 2.980504711876e-04 0.0 
0.0 0.0 0.0 
-8.171921188634e-04 -4.328340062800e-05 0.0 
-4.328340062800e-05 4.359010599200e-04 0.0 
0.0 0.0 0.0 
2.923896420044e-04 3.331682921807e-04 0.0 
3.331682921807e-04 7.433327396162e-03 0.0 
0.0 0.0 0.0 
4.193121710430e-04 2.501649172752e-03 0.0 
2.501649172752e-03 1.034116686021e-02 0.0 
0.0 0.0 0.0 
2.503641581968e-04 -1.623467968332e-04 0.0 
-1.623467968332e-04 1.300026186760e-03 0.0 
0.0 0.0 0.0 
2.941181566891e-04 5.795148581952e-04 0.0 
5.795148581952e-04 7.647327834885e-03 0.0 
0.0 0.0 0.0 
7.057720575183e-04 5.200500562129e-06 0.0 
5.200500562129e-06 4.895503431638e-03 0.0 
0.0 0.0 0.0 
7.113910742425e-04 -2.993733519798e-05 0.0 
-2.993733519798e-05 4.133476434489e-03 0.0 
0.0 0.0 0.0 
-8.840912372572e-04 9.790171205615e-05 0.0 
9.790171205615e-05 1.484355185735e-02 0.0 
0.0 0.0 0.0 
1.432704510274e-04 -1.838858607850e-04 0.0 
-1.838858607850e-04 1.324828708484e-03 0.0 
0.0 0.0 0.0 
7.151719499727e-04 1.798893091380e-03 0.0 
1.798893091380e-03 8.209357706893e-03 0.0 
0.0 0.0 0.0 
1.570083965481e-04 -1.214313892593e-04 0.0 
-1.214313892593e-04 1.024590064506e-03 0.0 
0.0 0.0 0.0 
7.266610308820e-04 -4.901059487312e-05 0.0 
-4.901059487312e-05 3.704820408436e-03 0.0 
0.0 0.0 0.0 
-1.671409509979e-04 2.546212949566e-03 0.0 
2.546212949566e-03 1.330820878694e-02 0.0 
0.0 0.0 0.0 
-4.475645091756e-04 -2.200224325961e-05 0.0 
-2.200224325961e-05 1.611238316403e-02 0.0 
0.0 0.0 0.0 
7.369625965281e-04 2.060150074167e-05 0.0 
2.060150074167e-05 4.104512966971e-03 0.0 
0.0 0.0 0.0 
-8.995621016603e-04 -2.679490944075e-06 0.0 
-2.679490944075e-06 1.442353162638e-02 0.0 
0.0 0.0 0.0 
2.013395975142e-04 2.682283449010e-03 0.0 
2.682283449010e-03 1.130994537068e-02 0.0 
0.0 0.0 0.0 
-3.550405020339e-04 2.434016474927e-03 0.0 
2.434016474927e-03 1.251931778890e-02 0.0 
0.0 0.0 0.0 
-4.039126800309e-04 2.346162762390e-03 0.0 
2.346162762390e-03 1.218860845332e-02 0.0 
0.0 0.0 0.0 
-9.805351363307e-04 -3.679054986977e-06 0.0 
-3.679054986977e-06 1.345465846216e-02 0.0 
0.0 0.0 0.0 
8.241145018808e-04 1.640311209797e-03 0.0 
1.640311209797e-03 7.652170508117e-03 0.0 
0.0 0.0 0.0 
-4.886165463510e-04 2.006280334865e-03 0.0 
2.006280334865e-03 1.498197626165e-02 0.0 
0.0 0.0 0.0 
4.708557775397e-04 -3.529899759813e-05 0.0 
-3.529899759813e-05 2.045120454876e-03 0.0 
0.0 0.0 0.0 
-2.978667058232e-04 -1.589563896862e-04 0.0 
-1.589563896862e-04 5.095465112006e-04 0.0 
0.0 0.0 0.0 
8.513072483285e-05 2.468488725984e-03 0.0 
2.468488725984e-03 1.122512517013e-02 0.0 
0.0 0.0 0.0 
8.492443810273e-04 1.504904355425e-03 0.0 
1.504904355425e-03 7.642831753073e-03 0.0 
0.0 0.0 0.0 
9.249978237746e-05 -3.007282650529e-04 0.0 
-3.007282650529e-04 1.080175916608e-03 0.0 
0.0 0.0 0.0 
-8.146303810621e-04 3.871326855921e-05 0.0 
3.871326855921e-05 1.510255058122e-02 0.0 
0.0 0.0 0.0 
1.435908591303e-04 3.189897126583e-04 0.0 
3.189897126583e-04 7.833026237240e-03 0.0 
0.0 0.0 0.0 
3.553506385097e-04 2.389247564503e-03 0.0 
2.389247564503e-03 1.040750718091e-02 0.0 
0.0 0.0 0.0 
2.490660335563e-04 2.607307451587e-03 0.0 
2.607307451587e-03 1.093547753329e-02 0.0 
0.0 0.0 0.0 
6.673733171354e-04 -9.927897604966e-06 0.0 
-9.927897604966e-06 5.370561551725e-03 0.0 
0.0 0.0 0.0 
-5.366430745017e-04 4.138328038379e-04 0.0 
4.138328038379e-04 7.646432473070e-04 0.0 
0.0 0.0 0.0 
-1.168194673975e-03 1.653938194654e-03 0.0 
1.653938194654e-03 5.498792917379e-03 0.0 
0.0 0.0 0.0 
-3.750281978566e-04 1.323080441272e-03 0.0 
1.323080441272e-03 4.835585413214e-03 0.0 
0.0 0.0 0.0 
-1.511827181921e-03 5.910023336612e-04 0.0 
5.910023336612e-04 1.423246158657e-02 0.0 
0.0 0.0 0.0 
9.243597642750e-04 1.770245166715e-03 0.0 
1.770245166715e-03 7.636152751852e-03 0.0 
0.0 0.0 0.0 
-4.607414630916e-04 5.447681531614e-04 0.0 
5.447681531614e-04 1.628325388781e-02 0.0 
0.0 0.0 0.0 
2.781868511974e-04 1.844894894594e-03 0.0 
1.844894894594e-03 9.108059592862e-03 0.0 
0.0 0.0 0.0 
-2.847070774181e-04 -2.385123526985e-04 0.0 
-2.385123526985e-04 8.713532159010e-04 0.0 
0.0 0.0 0.0 
-1.859448567637e-04 -2.241162251572e-04 0.0 
-2.241162251572e-04 7.789643766090e-04 0.0 
0.0 0.0 0.0 
-1.140142318467e-03 1.660769623108e-03 0.0 
1.660769623108e-03 4.178495876045e-03 0.0 
0.0 0.0 0.0 
-7.615415567795e-04 1.718169396635e-04 0.0 
1.718169396635e-04 1.522008887314e-02 0.0 
0.0 0.0 0.0 
5.408102739011e-04 -1.179215793170e-04 0.0 
-1.179215793170e-04 2.536136387209e-03 0.0 
0.0 0.0 0.0 
-6.593767495767e-04 1.450833954088e-03 0.0 
1.450833954088e-03 1.586302520068e-02 0.0 
0.0 0.0 0.0 
2.552524720378e-04 -1.122981681096e-04 0.0 
-1.122981681096e-04 1.235553468943e-03 0.0 
0.0 0.0 0.0 
5.274806983735e-04 1.752507895647e-03 0.0 
1.752507895647e-03 8.623507680594e-03 0.0 
0.0 0.0 0.0 
-1.114564958591e-03 1.543044944071e-04 0.0 
1.543044944071e-04 1.421992475803e-02 0.0 
0.0 0.0 0.0 
1.948065903239e-04 2.364560260241e-03 0.0 
2.364560260241e-03 1.028846039510e-02 0.0 
0.0 0.0 0.0 
5.093371796070e-04 2.075937379262e-03 0.0 
2.075937379262e-03 9.263384037607e-03 0.0 
0.0 0.0 0.0 
-1.630380950804e-03 8.156596064890e-04 0.0 
8.156596064890e-04 1.417486789698e-02 0.0 
0.0 0.0 0.0 
3.755880485288e-04 1.196240436163e-03 0.0 
1.196240436163e-03 8.331605589227e-03 0.0 
0.0 0.0 0.0 
-5.177501631879e-04 1.683140710600e-03 0.0 
1.683140710600e-03 1.587330225910e-02 0.0 
0.0 0.0 0.0 
-2.967886970665e-04 1.397590285733e-04 0.0 
1.397590285733e-04 1.651070103783e-02 0.0 
0.0 0.0 0.0 
-1.113537028767e-03 1.576561346683e-03 0.0 
1.576561346683e-03 2.798190398960e-03 0.0 
0.0 0.0 0.0 
-6.083255106305e-04 1.247701895314e-03 0.0 
1.247701895314e-03 1.591605216397e-02 0.0 
0.0 0.0 0.0 
4.244582627244e-05 2.694221123393e-03 0.0 
2.694221123393e-03 1.210646790259e-02 0.0 
0.0 0.0 0.0 
5.609867044787e-04 1.750207204603e-03 0.0 
1.750207204603e-03 8.623041350849e-03 0.0 
0.0 0.0 0.0 
6.635861320301e-04 2.141383071669e-03 0.0 
2.141383071669e-03 9.177454178201e-03 0.0 
0.0 0.0 0.0 
0.0 7.618472693284e-04 0.0 
7.618472693284e-04 8.477121269312e-03 0.0 
0.0 0.0 0.0 
-3.277239576306e-04 2.347975366382e-03 0.0 
2.347975366382e-03 1.218800432189e-02 0.0 
0.0 0.0 0.0 
-7.606151145796e-04 3.706312153274e-04 0.0 
3.706312153274e-04 3.932948686787e-04 0.0 
0.0 0.0 0.0 
-3.231169883392e-04 7.231727899066e-04 0.0 
7.231727899066e-04 2.344715433350e-03 0.0 
0.0 0.0 0.0 
-4.043665293760e-04 2.475179150603e-03 0.0 
2.475179150603e-03 1.306354009470e-02 0.0 
0.0 0.0 0.0 
-1.395938066444e-03 6.304174925655e-04 0.0 
6.304174925655e-04 1.446173260079e-02 0.0 
0.0 0.0 0.0 
3.120983625322e-04 1.457483394148e-04 0.0 
1.457483394148e-04 7.380953020798e-03 0.0 
0.0 0.0 0.0 
3.930087866018e-04 2.208580457545e-03 0.0 
2.208580457545e-03 9.736534788715e-03 0.0 
0.0 0.0 0.0 
1.657924118934e-04 6.392329152533e-04 0.0 
6.392329152533e-04 8.019016287807e-03 0.0 
0.0 0.0 0.0 
-6.707006032153e-04 2.180613221998e-04 0.0 
2.180613221998e-04 1.559141988466e-02 0.0 
0.0 0.0 0.0 
1.706258841212e-04 2.262964850825e-03 0.0 
2.262964850825e-03 1.002767117773e-02 0.0 
0.0 0.0 0.0 
3.780523930941e-04 1.006661235471e-03 0.0 
1.006661235471e-03 7.889898250428e-03 0.0 
0.0 0.0 0.0 
4.506980759418e-04 1.083654650860e-03 0.0 
1.083654650860e-03 7.882757619441e-03 0.0 
0.0 0.0 0.0 
5.534172696264e-04 -8.421613401188e-05 0.0 
-8.421613401188e-05 2.632519669877e-03 0.0 
0.0 0.0 0.0 
1.803979112589e-04 6.218643478847e-04 0.0 
6.218643478847e-04 8.422538125547e-03 0.0 
0.0 0.0 0.0 
-1.183786168171e-03 1.681010397180e-04 0.0 
1.681010397180e-04 1.383072161716e-02 0.0 
0.0 0.0 0.0 
-4.504780351106e-04 2.704455518502e-04 0.0 
2.704455518502e-04 1.623523452731e-02 0.0 
0.0 0.0 0.0 
-2.360225165432e-05 -2.615928991388e-04 0.0 
-2.615928991388e-04 7.644182220981e-04 0.0 
0.0 0.0 0.0 
-5.499702948496e-04 1.138962515296e-04 0.0 
1.138962515296e-04 1.600418315372e-02 0.0 
0.0 0.0 0.0 
-8.290202997023e-04 9.450495844380e-05 0.0 
9.450495844380e-05 1.513459845667e-02 0.0 
0.0 0.0 0.0 
1.484565819143e-04 -4.590721634134e-05 0.0 
-4.590721634134e-05 6.684262861516e-04 0.0 
0.0 0.0 0.0 
1.421366915082e-04 -1.676351607035e-04 0.0 
-1.676351607035e-04 1.537554399868e-03 0.0 
0.0 0.0 0.0 
-1.600924630802e-04 2.418824103803e-03 0.0 
2.418824103803e-03 1.193584290443e-02 0.0 
0.0 0.0 0.0 
-2.729694425216e-04 8.257277920237e-04 0.0 
8.257277920237e-04 1.638651752202e-02 0.0 
0.0 0.0 0.0 
-4.028639692536e-04 1.223890833743e-04 0.0 
1.223890833743e-04 1.627542367253e-02 0.0 
0.0 0.0 0.0 
4.451853910179e-04 2.281857620674e-03 0.0 
2.281857620674e-03 9.688683101642e-03 0.0 
0.0 0.0 0.0 
-9.320131796267e-04 1.139169805462e-04 0.0 
1.139169805462e-04 1.445144249462e-02 0.0 
0.0 0.0 0.0 
-1.556549126788e-04 -1.472150890816e-04 0.0 
-1.472150890816e-04 4.424411929083e-04 0.0 
0.0 0.0 0.0 
-4.386490457782e-04 2.979250212911e-04 0.0 
2.979250212911e-04 1.076675793448e-03 0.0 
0.0 0.0 0.0 
-7.695830451449e-05 -8.743484296693e-05 0.0 
-8.743484296693e-05 4.811172372747e-04 0.0 
0.0 0.0 0.0 
9.188332024568e-06 -3.033747773044e-04 0.0 
-3.033747773044e-04 1.017098620252e-03 0.0 
0.0 0.0 0.0 
-8.059570312117e-04 7.400761585742e-04 0.0 
7.400761585742e-04 5.462617589758e-04 0.0 
0.0 0.0 0.0 
7.076242470871e-04 5.260925072949e-06 0.0 
5.260925072949e-06 3.608183127375e-03 0.0 
0.0 0.0 0.0 
3.337313698517e-04 2.197140142511e-04 0.0 
2.197140142511e-04 7.379378111234e-03 0.0 
0.0 0.0 0.0 
-4.533932409614e-04 2.297836418983e-03 0.0 
2.297836418983e-03 1.437559961504e-02 0.0 
0.0 0.0 0.0 
-1.655282872532e-03 1.175603626127e-03 0.0 
1.175603626127e-03 1.414994839368e-02 0.0 
0.0 0.0 0.0 
6.622575305832e-04 -1.116523175774e-04 0.0 
-1.116523175774e-04 3.115026947675e-03 0.0 
0.0 0.0 0.0 
4.060283444320e-04 8.119205537549e-04 0.0 
8.119205537549e-04 7.661683029618e-03 0.0 
0.0 0.0 0.0 
6.342700812041e-04 1.418797317937e-03 0.0 
1.418797317937e-03 8.014346411316e-03 0.0 
0.0 0.0 0.0 
3.423172693777e-04 2.539675149351e-03 0.0 
2.539675149351e-03 1.041201324443e-02 0.0 
0.0 0.0 0.0 
8.489749557694e-05 2.538545688173e-03 0.0 
2.538545688173e-03 1.155696809509e-02 0.0 
0.0 0.0 0.0 
-9.965829280278e-05 2.520913920982e-03 0.0 
2.520913920982e-03 1.230067953677e-02 0.0 
0.0 0.0 0.0 
-2.599482267807e-05 -1.892430052467e-04 0.0 
-1.892430052467e-04 7.388599096769e-04 0.0 
0.0 0.0 0.0 
-5.082049108438e-04 -1.542787385905e-04 0.0 
-1.542787385905e-04 9.335282518070e-04 0.0 
0.0 0.0 0.0 
3.155922413101e-04 2.795553524201e-04 0.0 
2.795553524201e-04 7.450037366844e-03 0.0 
0.0 0.0 0.0 
1.987059593251e-04 -2.549482997837e-05 0.0 
-2.549482997837e-05 6.524709688800e-04 0.0 
0.0 0.0 0.0 
1.902041514990e-04 3.671045086100e-05 0.0 
3.671045086100e-05 8.148660538583e-04 0.0 
0.0 0.0 0.0 
-6.520364097869e-04 9.753132457067e-04 0.0 
9.753132457067e-04 1.329264727110e-03 0.0 
0.0 0.0 0.0 
-4.297617360871e-07 -2.199566149667e-04 0.0 
-2.199566149667e-04 6.950047947720e-04 0.0 
0.0 0.0 0.0 
1.931213311708e-04 1.098567581519e-03 0.0 
1.098567581519e-03 8.282351763838e-03 0.0 
0.0 0.0 0.0 
-9.770333823156e-05 2.687283882774e-03 0.0 
2.687283882774e-03 1.303796040861e-02 0.0 
0.0 0.0 0.0 
-3.931283499733e-04 5.682029483839e-04 0.0 
5.682029483839e-04 1.628454821581e-02 0.0 
0.0 0.0 0.0 
1.549579878020e-04 2.467741658204e-03 0.0 
2.467741658204e-03 1.061468088407e-02 0.0 
0.0 0.0 0.0 
5.902066541839e-04 1.328701735434e-03 0.0 
1.328701735434e-03 7.830454198723e-03 0.0 
0.0 0.0 0.0 
-8.921838654772e-04 1.309840800478e-04 0.0 
1.309840800478e-04 1.466664028804e-02 0.0 
0.0 0.0 0.0 
0.0 1.162676249977e-03 0.0 
1.162676249977e-03 1.645695607942e-02 0.0 
0.0 0.0 0.0 
3.618200525854e-04 -2.438020384361e-04 0.0 
-2.438020384361e-04 1.747336588750e-03 0.0 
0.0 0.0 0.0 
-9.432931087738e-04 -7.160468589122e-06 0.0 
-7.160468589122e-06 1.342100764414e-02 0.0 
0.0 0.0 0.0 
-1.040775070681e-04 -2.503280266016e-04 0.0 
-2.503280266016e-04 1.118367339580e-03 0.0 
0.0 0.0 0.0 
6.580482861995e-05 -7.894333371319e-05 0.0 
-7.894333371319e-05 3.608687533139e-04 0.0 
0.0 0.0 0.0 
1.670702770764e-04 4.316222774727e-04 0.0 
4.316222774727e-04 8.339003095111e-03 0.0 
0.0 0.0 0.0 
-1.550365350672e-03 6.623262981762e-04 0.0 
6.623262981762e-04 1.376068122768e-02 0.0 
0.0 0.0 0.0 
1.861213770538e-04 -8.132491210498e-05 0.0 
-8.132491210498e-05 9.698027434089e-04 0.0 
0.0 0.0 0.0 
6.912184424399e-04 1.726643273770e-05 0.0 
1.726643273770e-05 3.457952186530e-03 0.0 
0.0 0.0 0.0 
-1.261813542409e-04 2.828454833803e-03 0.0 
2.828454833803e-03 1.323963987622e-02 0.0 
0.0 0.0 0.0 
-5.845582102685e-04 7.616077132221e-04 0.0 
7.616077132221e-04 1.621403361378e-02 0.0 
0.0 0.0 0.0 
-3.119092934856e-04 1.844801475420e-03 0.0 
1.844801475420e-03 1.560590492729e-02 0.0 
0.0 0.0 0.0 
5.092594766776e-04 -7.376930219060e-05 0.0 
-7.376930219060e-05 2.391262983251e-03 0.0 
0.0 0.0 0.0 
-4.231042603636e-04 -2.961204704414e-05 0.0 
-2.961204704414e-05 9.812976294368e-04 0.0 
0.0 0.0 0.0 
2.811963032119e-04 7.021314770141e-04 0.0 
7.021314770141e-04 8.041362124708e-03 0.0 
0.0 0.0 0.0 
-1.535081512721e-04 1.090125795592e-04 0.0 
1.090125795592e-04 1.674995724540e-02 0.0 
0.0 0.0 0.0 
1.280967715487e-04 8.599841289647e-05 0.0 
8.599841289647e-05 8.277565029070e-03 0.0 
0.0 0.0 0.0 
-9.212370526208e-04 2.333461050418e-05 0.0 
2.333461050418e-05 1.372278759053e-02 0.0 
0.0 0.0 0.0 
4.186505979780e-04 1.426796693779e-03 0.0 
1.426796693779e-03 8.228010086696e-03 0.0 
0.0 0.0 0.0 
2.501221682376e-04 -1.214891111438e-04 0.0 
-1.214891111438e-04 9.921284713601e-04 0.0 
0.0 0.0 0.0 
-5.394158700021e-04 1.445001073713e-03 0.0 
1.445001073713e-03 1.586235865027e-02 0.0 
0.0 0.0 0.0 
1.352360551699e-05 -1.049760380472e-04 0.0 
-1.049760380472e-04 3.630988426462e-04 0.0 
0.0 0.0 0.0 
2.031581663104e-04 1.337832523201e-03 0.0 
1.337832523201e-03 8.524468369546e-03 0.0 
0.0 0.0 0.0 
-5.066880703360e-04 2.042739657327e-03 0.0 
2.042739657327e-03 1.541305125005e-02 0.0 
0.0 0.0 0.0 
-4.952250816397e-04 1.316860995955e-04 0.0 
1.316860995955e-04 6.667044080160e-04 0.0 
0.0 0.0 0.0 
2.799281974881e-04 2.385092429332e-03 0.0 
2.385092429332e-03 1.041149948772e-02 0.0 
0.0 0.0 0.0 
-7.448878174813e-04 1.014423821365e-04 0.0 
1.014423821365e-04 1.540889263024e-02 0.0 
0.0 0.0 0.0 
-2.073010504402e-04 5.982046283097e-04 0.0 
5.982046283097e-04 1.646766695929e-02 0.0 
0.0 0.0 0.0 
0.0 2.211095448952e-03 0.0 
2.211095448952e-03 1.007793437863e-02 0.0 
0.0 0.0 0.0 
-8.126516889490e-04 -1.660631217808e-05 0.0 
-1.660631217808e-05 1.489603922447e-02 0.0 
0.0 0.0 0.0 
-8.838466287808e-05 2.668853307728e-03 0.0 
2.668853307728e-03 1.344657548202e-02 0.0 
0.0 0.0 0.0 
-6.884169930842e-04 1.778691806256e-03 0.0 
1.778691806256e-03 1.547425918303e-02 0.0 
0.0 0.0 0.0 
-7.503976911374e-04 7.997453885228e-05 0.0 
7.997453885228e-05 1.512897594655e-02 0.0 
0.0 0.0 0.0 
-1.577164920332e-04 2.569035380309e-03 0.0 
2.569035380309e-03 1.303146339690e-02 0.0 
0.0 0.0 0.0 
6.233785468641e-04 -7.572130685723e-05 0.0 
-7.572130685723e-05 2.908971767074e-03 0.0 
0.0 0.0 0.0 
-9.517779430219e-04 -5.617068762301e-06 0.0 
-5.617068762301e-06 1.342816556290e-02 0.0 
0.0 0.0 0.0 
3.850203708291e-04 2.435841703224e-03 0.0 
2.435841703224e-03 1.024802131065e-02 0.0 
0.0 0.0 0.0 
-1.951985269305e-04 9.081887755245e-05 0.0 
9.081887755245e-05 1.653860378266e-02 0.0 
0.0 0.0 0.0 
9.692710939491e-05 6.665203828405e-06 0.0 
6.665203828405e-06 5.546725202188e-05 0.0 
0.0 0.0 0.0 
-9.340621389652e-04 7.385809940590e-06 0.0 
7.385809940590e-06 1.342395132830e-02 0.0 
0.0 0.0 0.0 
1.652174950726e-04 4.125954234707e-05 0.0 
4.125954234707e-05 7.910723668134e-03 0.0 
0.0 0.0 0.0 
2.665050087312e-04 -1.131732144280e-04 0.0 
-1.131732144280e-04 1.277884307923e-03 0.0 
0.0 0.0 0.0 
6.017770170299e-04 1.670018076901e-03 0.0 
1.670018076901e-03 8.463569195823e-03 0.0 
0.0 0.0 0.0 
-6.889679598668e-04 2.082288345123e-03 0.0 
2.082288345123e-03 1.495730341973e-02 0.0 
0.0 0.0 0.0 
-3.815997068846e-04 5.215340325680e-04 0.0 
5.215340325680e-04 1.645522303489e-02 0.0 
0.0 0.0 0.0 
2.631429716773e-04 -6.357687799084e-05 0.0 
-6.357687799084e-05 1.220384412158e-03 0.0 
0.0 0.0 0.0 
-4.212991875434e-04 6.413606119726e-04 0.0 
6.413606119726e-04 1.670102755029e-03 0.0 
0.0 0.0 0.0 
7.135306451216e-04 5.498027158595e-05 0.0 
5.498027158595e-05 4.322277603808e-03 0.0 
0.0 0.0 0.0 
-5.877039714467e-04 1.183925454424e-04 0.0 
1.183925454424e-04 1.576800354221e-02 0.0 
0.0 0.0 0.0 
-1.209776134009e-03 -5.175737243176e-05 0.0 
-5.175737243176e-05 6.402955220655e-04 0.0 
0.0 0.0 0.0 
-2.928792665559e-04 1.517870181911e-03 0.0 
1.517870181911e-03 1.599458278224e-02 0.0 
0.0 0.0 0.0 
-8.084748043091e-04 5.369658014472e-05 0.0 
5.369658014472e-05 1.478568252892e-02 0.0 
0.0 0.0 0.0 
1.244000399812e-04 -3.296460438067e-04 0.0 
-3.296460438067e-04 1.307823806015e-03 0.0 
0.0 0.0 0.0 
-8.862962283314e-04 6.664317661917e-05 0.0 
6.664317661917e-05 1.453088910358e-02 0.0 
0.0 0.0 0.0 
2.216073620305e-04 2.616005705584e-03 0.0 
2.616005705584e-03 1.080640918804e-02 0.0 
0.0 0.0 0.0 
7.190732824727e-04 -4.048762937081e-05 0.0 
-4.048762937081e-05 4.553980681118e-03 0.0 
0.0 0.0 0.0 
-8.302627143384e-04 6.492295314224e-04 0.0 
6.492295314224e-04 9.093988662439e-04 0.0 
0.0 0.0 0.0 
5.989322183884e-04 -4.684273751268e-05 0.0 
-4.684273751268e-05 2.620390907724e-03 0.0 
0.0 0.0 0.0 
7.440106626184e-04 1.785551438217e-05 0.0 
1.785551438217e-05 3.913012606303e-03 0.0 
0.0 0.0 0.0 
7.257161393313e-04 6.010295468196e-05 0.0 
6.010295468196e-05 4.758075455228e-03 0.0 
0.0 0.0 0.0 
3.591899942939e-04 2.186749697011e-03 0.0 
2.186749697011e-03 9.649696995277e-03 0.0 
0.0 0.0 0.0 
7.087064963784e-04 -3.511307303629e-05 0.0 
-3.511307303629e-05 3.809557976387e-03 0.0 
0.0 0.0 0.0 
7.402944474744e-04 1.961923885772e-05 0.0 
1.961923885772e-05 4.069737659576e-03 0.0 
0.0 0.0 0.0 
7.680250337705e-06 -9.808826397110e-05 0.0 
-9.808826397110e-05 6.258633900167e-04 0.0 
0.0 0.0 0.0 
3.348903718206e-04 6.429143671955e-04 0.0 
6.429143671955e-04 7.660780170332e-03 0.0 
0.0 0.0 0.0 
1.776273076224e-04 2.539781249107e-03 0.0 
2.539781249107e-03 1.123239956472e-02 0.0 
0.0 0.0 0.0 
-1.092671441598e-04 6.718555561262e-04 0.0 
6.718555561262e-04 1.778047828299e-03 0.0 
0.0 0.0 0.0 
-1.588575930701e-04 7.364176104849e-05 0.0 
7.364176104849e-05 1.652919734021e-02 0.0 
0.0 0.0 0.0 
1.392038621066e-04 9.418475890722e-05 0.0 
9.418475890722e-05 7.895571989586e-03 0.0 
0.0 0.0 0.0 
-9.316240276164e-04 -2.522220981582e-05 0.0 
-2.522220981582e-05 1.374876876254e-02 0.0 
0.0 0.0 0.0 
-8.424970144755e-04 4.578565253279e-05 0.0 
4.578565253279e-05 1.478476397091e-02 0.0 
0.0 0.0 0.0 
7.206575774366e-04 2.082403711921e-05 0.0 
2.082403711921e-05 3.803281286727e-03 0.0 
0.0 0.0 0.0 
7.301447850596e-04 -2.316515620877e-05 0.0 
-2.316515620877e-05 3.933833488044e-03 0.0 
0.0 0.0 0.0 
7.112772539051e-04 -1.474150233426e-06 0.0 
-1.474150233426e-06 4.087601680276e-03 0.0 
0.0 0.0 0.0 
6.687557896989e-04 1.619198326488e-03 0.0 
1.619198326488e-03 8.163236919350e-03 0.0 
0.0 0.0 0.0 
8.519102575777e-05 -2.241701755580e-04 0.0 
-2.241701755580e-04 1.053773967307e-03 0.0 
0.0 0.0 0.0 
3.662023838746e-05 2.665501898501e-03 0.0 
2.665501898501e-03 1.180429959954e-02 0.0 
0.0 0.0 0.0 
-8.956672179898e-04 2.908098045107e-05 0.0 
2.908098045107e-05 1.410844941855e-02 0.0 
0.0 0.0 0.0 
-5.598915015635e-04 1.440911362909e-03 0.0 
1.440911362909e-03 1.605552619778e-02 0.0 
0.0 0.0 0.0 
5.523443060462e-04 1.526000687670e-03 0.0 
1.526000687670e-03 8.152087788416e-03 0.0 
0.0 0.0 0.0 
-9.305026135900e-04 5.629158718902e-05 0.0 
5.629158718902e-05 1.453833244185e-02 0.0 
0.0 0.0 0.0 
-1.814410868789e-04 2.526710074909e-03 0.0 
2.526710074909e-03 1.280887354209e-02 0.0 
0.0 0.0 0.0 
4.412243774108e-04 2.208253325967e-03 0.0 
2.208253325967e-03 9.639481436122e-03 0.0 
0.0 0.0 0.0 
3.349730390099e-04 2.432498211832e-03 0.0 
2.432498211832e-03 1.014869961786e-02 0.0 
0.0 0.0 0.0 
-6.978863005284e-04 7.071714485411e-04 0.0 
7.071714485411e-04 8.526443773658e-04 0.0 
0.0 0.0 0.0 
-2.738871061698e-04 2.528210081480e-03 0.0 
2.528210081480e-03 1.280899154632e-02 0.0 
0.0 0.0 0.0 
-9.363849202182e-05 2.714855973730e-03 0.0 
2.714855973730e-03 1.270070620729e-02 0.0 
0.0 0.0 0.0 
2.143207945338e-05 -1.568516423172e-04 0.0 
-1.568516423172e-04 6.569457104248e-04 0.0 
0.0 0.0 0.0 
7.055100887499e-04 -3.908890916452e-05 0.0 
-3.908890916452e-05 3.598759785898e-03 0.0 
0.0 0.0 0.0 
-7.469629308037e-04 4.946537049694e-04 0.0 
4.946537049694e-04 9.953239426637e-04 0.0 
0.0 0.0 0.0 
-2.839707916896e-04 2.668002041894e-03 0.0 
2.668002041894e-03 1.323897205786e-02 0.0 
0.0 0.0 0.0 
-9.505557532032e-04 -8.085184046786e-08 0.0 
-8.085184046786e-08 1.303200885309e-02 0.0 
0.0 0.0 0.0 
-9.418694515765e-04 1.100696899517e-05 0.0 
1.100696899517e-05 1.304518560506e-02 0.0 
0.0 0.0 0.0 
-9.227960905750e-04 1.053038714522e-05 0.0 
1.053038714522e-05 1.304517567572e-02 0.0 
0.0 0.0 0.0 
-9.396508872865e-04 1.998133894100e-06 0.0 
1.998133894100e-06 1.304362850426e-02 0.0 
0.0 0.0 0.0 
-9.228269710675e-04 -8.694614102710e-07 0.0 
-8.694614102710e-07 1.304400356844e-02 0.0 
0.0 0.0 0.0 
-9.401065351540e-04 -5.947040134452e-06 0.0 
-5.947040134452e-06 1.304849608322e-02 0.0 
0.0 0.0 0.0 
-9.186050734713e-04 -4.708766671755e-06 0.0 
-4.708766671755e-06 1.304790712667e-02 0.0 
0.0 0.0 0.0 
-9.380092694891e-04 -1.578137431374e-05 0.0 
-1.578137431374e-05 1.304313528116e-02 0.0 
0.0 0.0 0.0 
-9.098331041076e-04 -5.998461889516e-06 0.0 
-5.998461889516e-06 1.303964860784e-02 0.0 
0.0 0.0 0.0 
-9.408233605596e-04 -1.584745363917e-05 0.0 
-1.584745363917e-05 1.304444435245e-02 0.0 
0.0 0.0 0.0 
-8.931018856690e-04 -7.417074332016e-06 0.0 
-7.417074332016e-06 1.303998278857e-02 0.0 
0.0 0.0 0.0 
-9.491665700597e-04 -2.720922727163e-05 0.0 
-2.720922727163e-05 1.304390386308e-02 0.0 
0.0 0.0 0.0 
-1.267768784006e-03 2.954819505237e-04 0.0 
2.954819505237e-04 1.311762331318e-02 0.0 
0.0 0.0 0.0 
-8.715075932346e-04 -7.332078745908e-06 0.0 
-7.332078745908e-06 1.303242738163e-02 0.0 
0.0 0.0 0.0 
-1.431775228616e-03 2.011908812867e-04 0.0 
2.011908812867e-04 1.323274298502e-02 0.0 
0.0 0.0 0.0 
-9.432931087738e-04 -2.576258824840e-05 0.0 
-2.576258824840e-05 1.304621792464e-02 0.0 
0.0 0.0 0.0 
-8.496013196224e-04 -1.740657246236e-06 0.0 
-1.740657246236e-06 1.302972639786e-02 0.0 
0.0 0.0 0.0 
-9.661217983955e-04 -3.662865975516e-05 0.0 
-3.662865975516e-05 1.304141817554e-02 0.0 
0.0 0.0 0.0 
-8.226726213214e-04 -4.073253467595e-06 0.0 
-4.073253467595e-06 1.301413159079e-02 0.0 
0.0 0.0 0.0 
-9.835256738562e-04 -3.864261925836e-05 0.0 
-3.864261925836e-05 1.304547601408e-02 0.0 
0.0 0.0 0.0 
-7.881902504359e-04 -7.844456661838e-07 0.0 
-7.844456661838e-07 1.300630897225e-02 0.0 
0.0 0.0 0.0 
-1.005741315050e-03 -3.737994127052e-05 0.0 
-3.737994127052e-05 1.305635149655e-02 0.0 
0.0 0.0 0.0 
-9.201781540336e-04 1.105646867313e-04 0.0 
1.105646867313e-04 1.286606998273e-02 0.0 
0.0 0.0 0.0 
-7.633259872887e-04 1.063792356824e-05 0.0 
1.063792356824e-05 1.299990719073e-02 0.0 
0.0 0.0 0.0 
-1.050703428336e-03 -2.931794916746e-05 0.0 
-2.931794916746e-05 1.306852024946e-02 0.0 
0.0 0.0 0.0 
-7.556286222367e-04 2.996361173111e-05 0.0 
2.996361173111e-05 1.298991771855e-02 0.0 
0.0 0.0 0.0 
-1.122520449973e-03 -2.281579480675e-07 0.0 
-2.281579480675e-07 1.309258679205e-02 0.0 
0.0 0.0 0.0 
-1.238073679176e-03 6.785009043409e-05 0.0 
6.785009043409e-05 1.314148519194e-02 0.0 
0.0 0.0 0.0 
-7.788402892820e-04 7.181786540544e-05 0.0 
7.181786540544e-05 1.298724887530e-02 0.0 
0.0 0.0 0.0 
-8.794238257843e-04 1.551432179786e-04 0.0 
1.551432179786e-04 1.300878758930e-02 0.0 
0.0 0.0 0.0 
-1.756338755198e-03 6.722392526922e-04 0.0 
6.722392526922e-04 1.342021732186e-02 0.0 
0.0 0.0 0.0 
-1.611462084746e-03 2.020107647913e-04 0.0 
2.020107647913e-04 1.346924680803e-02 0.0 
0.0 0.0 0.0 
-9.909541734696e-04 -5.292109631494e-05 0.0 
-5.292109631494e-05 1.306163992845e-02 0.0 
0.0 0.0 0.0 
-9.717513853149e-04 6.961759533955e-05 0.0 
6.961759533955e-05 1.302792727976e-02 0.0 
0.0 0.0 0.0 
-9.544460549787e-04 5.735602565681e-06 0.0 
5.735602565681e-06 1.314111076864e-02 0.0 
0.0 0.0 0.0 
-1.008783907755e-03 1.237231047116e-05 0.0 
1.237231047116e-05 1.295169025354e-02 0.0 
0.0 0.0 0.0 
-1.945628842343e-03 7.523987795945e-04 0.0 
7.523987795945e-04 1.304865143208e-02 0.0 
0.0 0.0 0.0 

TENSORS element_materi_strain_plasti float
-4.741889373871e-04 2.342858306946e-04 0.0 
2.342858306946e-04 2.814002888893e-03 0.0 
0.0 0.0 -4.220722639049e-04 
-3.897703972720e-04 -2.636930979350e-04 0.0 
-2.636930979350e-04 2.518846771568e-03 0.0 
0.0 0.0 -4.303330772826e-04 
-1.259341393326e-03 -3.090507185476e-05 0.0 
-3.090507185476e-05 8.411433358411e-03 0.0 
0.0 0.0 -1.278236581085e-03 
-1.261464826866e-03 -1.747915258518e-04 0.0 
-1.747915258518e-04 8.480496286503e-03 0.0 
0.0 0.0 -1.255598393855e-03 
-7.983281552708e-04 2.303090028113e-04 0.0 
2.303090028113e-04 5.254489729699e-03 0.0 
0.0 0.0 -7.961861350945e-04 
-2.059346616286e-04 2.207607006017e-04 0.0 
2.207607006017e-04 1.009101900264e-03 0.0 
0.0 0.0 -1.793459522598e-04 
-7.878967474187e-04 2.695248863588e-04 0.0 
2.695248863588e-04 5.204562819075e-03 0.0 
0.0 0.0 -8.011023898636e-04 
-4.128254064944e-04 4.080923401225e-05 0.0 
4.080923401225e-05 2.687408780313e-03 0.0 
0.0 0.0 -4.045669272905e-04 
-8.029485881417e-04 -2.877766516214e-04 0.0 
-2.877766516214e-04 5.280709952101e-03 0.0 
0.0 0.0 -7.977904104816e-04 
-1.248589478216e-03 2.242094407416e-04 0.0 
2.242094407416e-04 8.399546616313e-03 0.0 
0.0 0.0 -1.253060141438e-03 
-8.734037686266e-04 1.480436446760e-04 0.0 
1.480436446760e-04 5.724300399011e-03 0.0 
0.0 0.0 -8.816510380685e-04 
-3.813204680076e-04 2.190974573017e-07 0.0 
2.190974573017e-07 2.153866306060e-03 0.0 
0.0 0.0 -3.735031833740e-04 
-1.251882997596e-03 2.259053558601e-04 0.0 
2.259053558601e-04 8.467796470942e-03 0.0 
0.0 0.0 -1.259187713256e-03 
-8.479147549375e-04 1.860153946805e-04 0.0 
1.860153946805e-04 5.638680799524e-03 0.0 
0.0 0.0 -8.526168115438e-04 
-1.288189434839e-03 -1.832848558744e-04 0.0 
-1.832848558744e-04 8.626562874010e-03 0.0 
0.0 0.0 -1.289538875031e-03 
-1.301181403367e-03 2.039645816312e-04 0.0 
2.039645816312e-04 8.626062176419e-03 0.0 
0.0 0.0 -1.285984941237e-03 
-7.889097476292e-04 4.689353054498e-06 0.0 
4.689353054498e-06 5.256085596916e-03 0.0 
0.0 0.0 -7.740676797406e-04 
-1.741032192830e-04 -1.984587543237e-04 0.0 
-1.984587543237e-04 9.106845467383e-04 0.0 
0.0 0.0 -1.826237857505e-04 
-3.103934600629e-04 -1.188849736468e-04 0.0 
-1.188849736468e-04 1.808737160777e-03 0.0 
0.0 0.0 -2.776016825098e-04 
-3.017260514233e-04 1.101242532993e-04 0.0 
1.101242532993e-04 1.644506395847e-03 0.0 
0.0 0.0 -3.031105466646e-04 
-1.236978180346e-03 -2.273342210413e-04 0.0 
-2.273342210413e-04 8.474882909105e-03 0.0 
0.0 0.0 -1.250388265701e-03 
-4.788832533263e-04 9.235771209212e-05 0.0 
9.235771209212e-05 2.938553769608e-03 0.0 
0.0 0.0 -4.811142067971e-04 
-5.153479436011e-04 -1.000310601358e-04 0.0 
-1.000310601358e-04 3.322116646267e-03 0.0 
0.0 0.0 -5.091556215902e-04 
-1.207914407075e-03 -1.521033174033e-04 0.0 
-1.521033174033e-04 8.119148175608e-03 0.0 
0.0 0.0 -1.210372970477e-03 
-9.004893154001e-04 2.196977328254e-04 0.0 
2.196977328254e-04 6.011080091783e-03 0.0 
0.0 0.0 -9.130988374533e-04 
-9.174590915307e-04 -1.450811372332e-04 0.0 
-1.450811372332e-04 6.162434229051e-03 0.0 
0.0 0.0 -9.179597371190e-04 
-7.131055436639e-04 -1.829825241457e-05 0.0 
-1.829825241457e-05 4.865076399380e-03 0.0 
0.0 0.0 -7.148082707961e-04 
-1.275014108034e-03 1.320223363471e-05 0.0 
1.320223363471e-05 8.706353732723e-03 0.0 
0.0 0.0 -1.266047838742e-03 
-9.084778585211e-04 -2.532626103826e-04 0.0 
-2.532626103826e-04 6.055345996359e-03 0.0 
0.0 0.0 -9.113908267906e-04 
-1.248671644074e-03 1.500744587119e-04 0.0 
1.500744587119e-04 8.319441606585e-03 0.0 
0.0 0.0 -1.237914324842e-03 
-2.162503473685e-04 3.355180743616e-05 0.0 
3.355180743616e-05 1.390767343688e-03 0.0 
0.0 0.0 -2.185975924268e-04 
-1.102777646679e-04 3.092462500308e-05 0.0 
3.092462500308e-05 6.008114765358e-04 0.0 
0.0 0.0 -1.059755802940e-04 
-1.291285801941e-03 5.563014948252e-05 0.0 
5.563014948252e-05 8.705630370944e-03 0.0 
0.0 0.0 -1.261301343383e-03 
-1.086169392383e-03 -1.843155554573e-04 0.0 
-1.843155554573e-04 7.250914267633e-03 0.0 
0.0 0.0 -1.090200430068e-03 
-1.229627234356e-03 -2.081816156675e-04 0.0 
-2.081816156675e-04 8.461501921680e-03 0.0 
0.0 0.0 -1.254989870190e-03 
-1.333928130876e-03 3.870959300371e-04 0.0 
3.870959300371e-04 8.918766405510e-03 0.0 
0.0 0.0 -1.314886350686e-03 
-1.319549054242e-03 -4.082653656671e-04 0.0 
-4.082653656671e-04 8.897494246722e-03 0.0 
0.0 0.0 -1.314653105918e-03 
-1.251043943053e-03 1.755104499557e-04 0.0 
1.755104499557e-04 8.438640087517e-03 0.0 
0.0 0.0 -1.264739017786e-03 
-7.261695585194e-04 -3.174047361397e-04 0.0 
-3.174047361397e-04 4.739951691414e-03 0.0 
0.0 0.0 -7.380763454960e-04 
-7.293562810949e-04 3.567993421673e-04 0.0 
3.567993421673e-04 4.808642079977e-03 0.0 
0.0 0.0 -7.371174501546e-04 
-5.783756129442e-04 -1.365848045621e-04 0.0 
-1.365848045621e-04 3.784424820314e-03 0.0 
0.0 0.0 -5.794556523337e-04 
-1.262877717034e-03 1.019690194500e-05 0.0 
1.019690194500e-05 8.450550888573e-03 0.0 
0.0 0.0 -1.280756488215e-03 
-3.226099019571e-04 2.179474137412e-04 0.0 
2.179474137412e-04 1.923375161646e-03 0.0 
0.0 0.0 -3.207852484642e-04 
-7.228265239816e-04 5.532830836335e-05 0.0 
5.532830836335e-05 4.629144605835e-03 0.0 
0.0 0.0 -7.350059072715e-04 
-1.225055898073e-03 -9.816574622214e-05 0.0 
-9.816574622214e-05 8.293394798268e-03 0.0 
0.0 0.0 -1.212858513926e-03 
-3.206551623609e-04 -1.904275671922e-04 0.0 
-1.904275671922e-04 1.917970267075e-03 0.0 
0.0 0.0 -3.198426158856e-04 
-1.782809379457e-04 -4.378063602814e-06 0.0 
-4.378063602814e-06 7.801372807209e-04 0.0 
0.0 0.0 -1.830859565219e-04 
-1.220501464306e-03 6.316947048485e-05 0.0 
6.316947048485e-05 8.106622909265e-03 0.0 
0.0 0.0 -1.234743356787e-03 
-9.829459878545e-05 4.583948434493e-06 0.0 
4.583948434493e-06 3.276774367732e-04 0.0 
0.0 0.0 -9.830693056617e-05 
-8.022047642295e-04 -1.811997065716e-04 0.0 
-1.811997065716e-04 5.439298518069e-03 0.0 
0.0 0.0 -8.229436299569e-04 
-5.489987759976e-04 -1.133059547326e-04 0.0 
-1.133059547326e-04 3.572814356686e-03 0.0 
0.0 0.0 -5.440916476828e-04 
-3.388458973027e-04 -7.042877961888e-05 0.0 
-7.042877961888e-05 2.248035829402e-03 0.0 
0.0 0.0 -3.443810396916e-04 
-3.074157494333e-04 -1.467796149718e-04 0.0 
-1.467796149718e-04 1.814374481458e-03 0.0 
0.0 0.0 -3.047895897720e-04 
-5.421593945536e-04 1.293548672114e-04 0.0 
1.293548672114e-04 3.418474043213e-03 0.0 
0.0 0.0 -5.489460876789e-04 
-1.266579725590e-03 -7.893235167106e-06 0.0 
-7.893235167106e-06 8.468672292321e-03 0.0 
0.0 0.0 -1.282189168212e-03 
-4.597210026087e-04 -1.452187243082e-04 0.0 
-1.452187243082e-04 2.937502524048e-03 0.0 
0.0 0.0 -4.512233509908e-04 
-3.611878323951e-04 1.444175472609e-04 0.0 
1.444175472609e-04 2.127268062759e-03 0.0 
0.0 0.0 -3.694212080277e-04 
-1.088084509005e-03 1.827090950975e-04 0.0 
1.827090950975e-04 7.290496234404e-03 0.0 
0.0 0.0 -1.087734043503e-03 
-2.215722591698e-04 2.179680801215e-05 0.0 
2.179680801215e-05 1.355906413413e-03 0.0 
0.0 0.0 -2.189683579105e-04 
-1.291565119731e-03 -2.058202376930e-04 0.0 
-2.058202376930e-04 8.638287399564e-03 0.0 
0.0 0.0 -1.285320035817e-03 
-9.406322495114e-05 -1.263405609948e-04 0.0 
-1.263405609948e-04 5.178868060056e-04 0.0 
0.0 0.0 -9.532668554595e-05 
-1.207108165930e-03 2.281727388557e-04 0.0 
2.281727388557e-04 8.099161405670e-03 0.0 
0.0 0.0 -1.210824713543e-03 
-5.507253245742e-04 2.263693422712e-04 0.0 
2.263693422712e-04 3.467321570737e-03 0.0 
0.0 0.0 -5.497085007362e-04 
-2.633068753573e-04 1.211642318687e-04 0.0 
1.211642318687e-04 1.594924151360e-03 0.0 
0.0 0.0 -2.769417647402e-04 
-1.253722868311e-03 -1.824681277037e-04 0.0 
-1.824681277037e-04 8.465445333240e-03 0.0 
0.0 0.0 -1.257478522087e-03 
-5.218987792326e-04 1.045965667427e-04 0.0 
1.045965667427e-04 3.169150320614e-03 0.0 
0.0 0.0 -5.137572693775e-04 
-6.027079853022e-05 4.538885378733e-05 0.0 
4.538885378733e-05 2.053936984274e-04 0.0 
0.0 0.0 -6.219552852736e-05 
-1.264974411680e-03 -7.934823425825e-05 0.0 
-7.934823425825e-05 8.671954395754e-03 0.0 
0.0 0.0 -1.261660853087e-03 
-2.446973118895e-04 -2.103372277075e-04 0.0 
-2.103372277075e-04 1.398643057908e-03 0.0 
0.0 0.0 -2.404310120911e-04 
-1.273528016320e-03 -3.786679226442e-06 0.0 
-3.786679226442e-06 8.448618323595e-03 0.0 
0.0 0.0 -1.282376455277e-03 
-9.491469452999e-04 -1.694945758870e-04 0.0 
-1.694945758870e-04 6.388198818832e-03 0.0 
0.0 0.0 -9.556290573178e-04 
-1.338499280800e-03 -4.782411066384e-06 0.0 
-4.782411066384e-06 8.836661036334e-03 0.0 
0.0 0.0 -1.338499280800e-03 
-1.237491500558e-03 1.679725136133e-06 0.0 
1.679725136133e-06 8.119391193773e-03 0.0 
0.0 0.0 -1.232909111256e-03 
-1.306267830690e-04 2.201659246920e-04 0.0 
2.201659246920e-04 5.612930774450e-04 0.0 
0.0 0.0 -1.295286970291e-04 
-4.862904107144e-04 1.519111044425e-04 0.0 
1.519111044425e-04 2.949318680170e-03 0.0 
0.0 0.0 -4.777371989943e-04 
-1.254133957623e-03 -1.731664304593e-04 0.0 
-1.731664304593e-04 8.495066883004e-03 0.0 
0.0 0.0 -1.262626981217e-03 
-1.278966520388e-03 -5.463065947737e-06 0.0 
-5.463065947737e-06 8.716306064884e-03 0.0 
0.0 0.0 -1.265352048664e-03 
-2.500278062254e-04 -1.904083940436e-04 0.0 
-1.904083940436e-04 1.447205075698e-03 0.0 
0.0 0.0 -2.510564503189e-04 
-2.134033531635e-04 -1.202880701253e-05 0.0 
-1.202880701253e-05 1.118917748560e-03 0.0 
0.0 0.0 -2.366757893512e-04 
-2.618885880878e-04 2.000957013545e-04 0.0 
2.000957013545e-04 1.434490946595e-03 0.0 
0.0 0.0 -2.525559601288e-04 
-2.561151872773e-04 2.173251173938e-04 0.0 
2.173251173938e-04 1.315804408785e-03 0.0 
0.0 0.0 -2.439992467140e-04 
-7.756433689863e-04 3.199927864604e-05 0.0 
3.199927864604e-05 4.983308918424e-03 0.0 
0.0 0.0 -7.918363975426e-04 
-4.925212314280e-04 -9.934539810259e-05 0.0 
-9.934539810259e-05 3.122416797223e-03 0.0 
0.0 0.0 -4.749402310763e-04 
-4.545793902690e-04 2.152694959795e-05 0.0 
2.152694959795e-05 2.617959458630e-03 0.0 
0.0 0.0 -4.438329512050e-04 
-8.539707940100e-04 -2.466642961344e-04 0.0 
-2.466642961344e-04 5.506675063211e-03 0.0 
0.0 0.0 -8.336771054075e-04 
-8.435305426983e-04 2.228252034013e-04 0.0 
2.228252034013e-04 5.474459253188e-03 0.0 
0.0 0.0 -8.358076868167e-04 
-9.896151407778e-04 -1.847277247936e-04 0.0 
-1.847277247936e-04 6.561076695027e-03 0.0 
0.0 0.0 -9.867109252839e-04 
-1.055581697673e-03 1.942475256944e-04 0.0 
1.942475256944e-04 7.096214809641e-03 0.0 
0.0 0.0 -1.058576829647e-03 
-1.087556198862e-03 -2.099876550133e-04 0.0 
-2.099876550133e-04 7.325766427452e-03 0.0 
0.0 0.0 -1.085941371602e-03 
-7.938707313230e-04 -2.935700947946e-04 0.0 
-2.935700947946e-04 5.166210845136e-03 0.0 
0.0 0.0 -7.983229688164e-04 
-9.891997245645e-05 3.705985749018e-05 0.0 
3.705985749018e-05 3.315907805062e-04 0.0 
0.0 0.0 -9.971606059273e-05 
-7.885073175136e-04 2.083610238613e-05 0.0 
2.083610238613e-05 5.061448418496e-03 0.0 
0.0 0.0 -7.928983479555e-04 
-1.080416093341e-03 -1.102030882250e-04 0.0 
-1.102030882250e-04 7.033104683541e-03 0.0 
0.0 0.0 -1.069439317440e-03 
-1.045886068578e-03 1.124481538710e-04 0.0 
1.124481538710e-04 7.095766026653e-03 0.0 
0.0 0.0 -1.046447409317e-03 
-1.328437641777e-03 -2.129776585030e-05 0.0 
-2.129776585030e-05 9.108372857470e-03 0.0 
0.0 0.0 -1.319970921405e-03 
-1.300424073257e-03 -1.489012867547e-04 0.0 
-1.489012867547e-04 8.723441004214e-03 0.0 
0.0 0.0 -1.294194962782e-03 
-7.712114504191e-04 -1.098703338913e-04 0.0 
-1.098703338913e-04 4.988523523052e-03 0.0 
0.0 0.0 -7.889745663688e-04 
-1.284794183645e-03 -1.672243708717e-06 0.0 
-1.672243708717e-06 8.719527791253e-03 0.0 
0.0 0.0 -1.263183913703e-03 
-8.948346215206e-04 -1.546261929542e-04 0.0 
-1.546261929542e-04 5.902983939671e-03 0.0 
0.0 0.0 -9.040008563810e-04 
-5.152734121650e-04 -1.377156700746e-04 0.0 
-1.377156700746e-04 3.387112186572e-03 0.0 
0.0 0.0 -5.198799001330e-04 
-7.537468891923e-04 -1.811454266392e-04 0.0 
-1.811454266392e-04 5.032849217033e-03 0.0 
0.0 0.0 -7.643292725053e-04 
-1.300051982580e-03 1.933815268577e-04 0.0 
1.933815268577e-04 8.643096299671e-03 0.0 
0.0 0.0 -1.287517816355e-03 
-1.042138929644e-03 -2.218801567961e-04 0.0 
-2.218801567961e-04 6.995297199161e-03 0.0 
0.0 0.0 -1.043751955586e-03 
-1.212978672895e-03 -2.149778667110e-04 0.0 
-2.149778667110e-04 8.151603330808e-03 0.0 
0.0 0.0 -1.209599240962e-03 
-4.772009659135e-04 -2.042000113292e-04 0.0 
-2.042000113292e-04 3.047489558792e-03 0.0 
0.0 0.0 -4.747543016519e-04 
-1.600906628411e-04 5.774618246661e-05 0.0 
5.774618246661e-05 1.025327310925e-03 0.0 
0.0 0.0 -1.624897275554e-04 
-1.185986913304e-03 -1.994673824885e-04 0.0 
-1.994673824885e-04 7.973913807476e-03 0.0 
0.0 0.0 -1.189902873528e-03 
-1.119764034804e-03 7.291963016848e-05 0.0 
7.291963016848e-05 7.561876066393e-03 0.0 
0.0 0.0 -1.108790581071e-03 
-1.060815689674e-04 -4.441233851537e-05 0.0 
-4.441233851537e-05 6.067820639570e-04 0.0 
0.0 0.0 -1.038131581323e-04 
-1.254593141611e-03 -8.600335574532e-05 0.0 
-8.600335574532e-05 8.491952788715e-03 0.0 
0.0 0.0 -1.285127980003e-03 
-1.054610615232e-03 1.830679382236e-04 0.0 
1.830679382236e-04 6.961937164299e-03 0.0 
0.0 0.0 -1.051491716222e-03 
-1.014932494026e-04 -1.696691582668e-04 0.0 
-1.696691582668e-04 3.826202340035e-04 0.0 
0.0 0.0 -1.013520483084e-04 
-6.301709070232e-04 2.090314443316e-04 0.0 
2.090314443316e-04 4.024350450833e-03 0.0 
0.0 0.0 -6.309931931857e-04 
-7.106440805021e-04 -1.470402379689e-04 0.0 
-1.470402379689e-04 4.709551499753e-03 0.0 
0.0 0.0 -7.153918394734e-04 
-5.826588176687e-04 -7.135686322073e-05 0.0 
-7.135686322073e-05 3.565625895428e-03 0.0 
0.0 0.0 -5.772375537024e-04 
-4.700128970004e-04 1.674991601262e-04 0.0 
1.674991601262e-04 2.986365482111e-03 0.0 
0.0 0.0 -4.852398935310e-04 
-5.464898507642e-04 -2.243214163868e-04 0.0 
-2.243214163868e-04 3.519571152392e-03 0.0 
0.0 0.0 -5.471823052058e-04 
-1.295684493703e-03 1.105875109316e-04 0.0 
1.105875109316e-04 8.547279304038e-03 0.0 
0.0 0.0 -1.283833066805e-03 
-8.570047827625e-04 1.861607891450e-04 0.0 
1.861607891450e-04 5.815261551137e-03 0.0 
0.0 0.0 -8.766975940251e-04 
-5.090056138741e-04 2.359482171436e-04 0.0 
2.359482171436e-04 3.233178911117e-03 0.0 
0.0 0.0 -5.122473358773e-04 
-2.401563577846e-04 -2.327182583627e-04 0.0 
-2.327182583627e-04 1.352155075276e-03 0.0 
0.0 0.0 -2.295267891405e-04 
-7.623542819022e-04 1.283036037405e-04 0.0 
1.283036037405e-04 5.225810972112e-03 0.0 
0.0 0.0 -7.744920945421e-04 
-1.103870852233e-03 -9.179179606017e-05 0.0 
-9.179179606017e-05 7.387674560018e-03 0.0 
0.0 0.0 -1.129288753466e-03 
-5.110192863145e-04 -2.509386708552e-04 0.0 
-2.509386708552e-04 3.262724462356e-03 0.0 
0.0 0.0 -5.109724225979e-04 
-1.701414425471e-04 -1.534722166071e-04 0.0 
-1.534722166071e-04 9.835208087659e-04 0.0 
0.0 0.0 -1.803716510945e-04 
-6.470086521654e-04 -1.523090755331e-04 0.0 
-1.523090755331e-04 4.254329431162e-03 0.0 
0.0 0.0 -6.470401313398e-04 
-5.812575166428e-04 7.210416783764e-05 0.0 
7.210416783764e-05 3.739643384108e-03 0.0 
0.0 0.0 -5.578851714504e-04 
-6.125337073477e-04 1.558115274757e-04 0.0 
1.558115274757e-04 3.923971555451e-03 0.0 
0.0 0.0 -6.167189930164e-04 
-1.291653437089e-03 1.656662026679e-04 0.0 
1.656662026679e-04 8.654933890924e-03 0.0 
0.0 0.0 -1.290671971449e-03 
-2.237296866694e-04 1.772304597235e-04 0.0 
1.772304597235e-04 1.151710267161e-03 0.0 
0.0 0.0 -2.092271396208e-04 
-9.141643905242e-04 1.684200684002e-04 0.0 
1.684200684002e-04 6.033430644026e-03 0.0 
0.0 0.0 -9.216843799351e-04 
-1.271942419784e-03 2.295590735456e-04 0.0 
2.295590735456e-04 8.471227576744e-03 0.0 
0.0 0.0 -1.256690274141e-03 
-6.609256603744e-04 1.763317732062e-04 0.0 
1.763317732062e-04 4.239720102404e-03 0.0 
0.0 0.0 -6.588732905211e-04 
-6.147586220519e-04 -1.550456399962e-04 0.0 
-1.550456399962e-04 4.029116054442e-03 0.0 
0.0 0.0 -6.139229799761e-04 
-1.241743830704e-03 2.520731219918e-04 0.0 
2.520731219918e-04 8.466488124430e-03 0.0 
0.0 0.0 -1.254964138299e-03 
-1.256064603940e-03 -2.623116581345e-04 0.0 
-2.623116581345e-04 8.488036362470e-03 0.0 
0.0 0.0 -1.261070974318e-03 
-9.903209289541e-04 1.774668260032e-04 0.0 
1.774668260032e-04 6.556735258886e-03 0.0 
0.0 0.0 -9.873713238705e-04 
-6.942353831373e-04 -1.750200192602e-04 0.0 
-1.750200192602e-04 4.553149239605e-03 0.0 
0.0 0.0 -6.916138708610e-04 
-1.272024970549e-03 7.302822811060e-05 0.0 
7.302822811060e-05 8.719688557752e-03 0.0 
0.0 0.0 -1.270330610962e-03 
-6.345922402826e-04 1.791748683913e-04 0.0 
1.791748683913e-04 4.059488016012e-03 0.0 
0.0 0.0 -6.326048069937e-04 
-1.254086704545e-03 -7.990901772482e-06 0.0 
-7.990901772482e-06 8.463054394802e-03 0.0 
0.0 0.0 -1.283174495648e-03 
-1.276280299661e-03 7.633372817429e-05 0.0 
7.633372817429e-05 8.703927362015e-03 0.0 
0.0 0.0 -1.267437373369e-03 
-8.565153591279e-04 -2.695301549172e-04 0.0 
-2.695301549172e-04 5.568894745570e-03 0.0 
0.0 0.0 -8.543707170918e-04 
-9.713226980400e-04 1.946342578751e-04 0.0 
1.946342578751e-04 6.532485670191e-03 0.0 
0.0 0.0 -9.817831382938e-04 
-6.315283379598e-04 -1.826998149000e-04 0.0 
-1.826998149000e-04 4.113094555245e-03 0.0 
0.0 0.0 -6.293189184696e-04 
-5.902450977428e-04 1.623031646130e-04 0.0 
1.623031646130e-04 3.689468477665e-03 0.0 
0.0 0.0 -5.830241378053e-04 
-7.249782629771e-04 1.809288523893e-04 0.0 
1.809288523893e-04 4.673091201127e-03 0.0 
0.0 0.0 -7.211932326589e-04 
-5.403888112139e-04 -1.689543050932e-04 0.0 
-1.689543050932e-04 3.513114326182e-03 0.0 
0.0 0.0 -5.383041810906e-04 
-7.661110268238e-04 -1.968496736506e-04 0.0 
-1.968496736506e-04 5.166653984338e-03 0.0 
0.0 0.0 -7.693993191400e-04 
-6.294182824657e-04 -2.163757471590e-04 0.0 
-2.163757471590e-04 4.099286379753e-03 0.0 
0.0 0.0 -6.275039421266e-04 
-9.046107145180e-05 -7.326081393818e-05 0.0 
-7.326081393818e-05 3.093039216746e-04 0.0 
0.0 0.0 -9.378979295261e-05 
-8.218888591145e-04 -1.362265050310e-05 0.0 
-1.362265050310e-05 5.568518320124e-03 0.0 
0.0 0.0 -8.171079392438e-04 
-2.708662158631e-04 3.135426371183e-06 0.0 
3.135426371183e-06 1.198400692882e-03 0.0 
0.0 0.0 -2.373169254524e-04 
-6.825469564227e-04 -1.538944897681e-04 0.0 
-1.538944897681e-04 4.493577698030e-03 0.0 
0.0 0.0 -6.809683978454e-04 
-1.266750237588e-03 4.200148413705e-06 0.0 
4.200148413705e-06 8.473073137795e-03 0.0 
0.0 0.0 -1.284796145094e-03 
-4.841925383156e-04 2.284371901656e-04 0.0 
2.284371901656e-04 3.002882293729e-03 0.0 
0.0 0.0 -4.767992880414e-04 
-1.020870051268e-03 2.043993854784e-04 0.0 
2.043993854784e-04 6.818231983257e-03 0.0 
0.0 0.0 -1.021089721936e-03 
-3.490407114895e-04 -2.220876940667e-04 0.0 
-2.220876940667e-04 2.148206482994e-03 0.0 
0.0 0.0 -3.540742325023e-04 
-1.043282338519e-03 2.368159947985e-04 0.0 
2.368159947985e-04 6.958410863996e-03 0.0 
0.0 0.0 -1.044905595188e-03 
-8.013630412541e-04 6.389824081770e-06 0.0 
6.389824081770e-06 5.002686662292e-03 0.0 
0.0 0.0 -7.899655494116e-04 
-5.947683694498e-04 2.081256616157e-04 0.0 
2.081256616157e-04 3.787155443009e-03 0.0 
0.0 0.0 -5.931463391684e-04 
-1.121794229525e-03 -2.159685184144e-04 0.0 
-2.159685184144e-04 7.508906289541e-03 0.0 
0.0 0.0 -1.120963572432e-03 
-2.180914166738e-04 1.756512204205e-04 0.0 
1.756512204205e-04 1.241780399830e-03 0.0 
0.0 0.0 -2.346376350630e-04 
-1.178651579784e-03 2.200776692921e-04 0.0 
2.200776692921e-04 7.962810812677e-03 0.0 
0.0 0.0 -1.189111243166e-03 
-7.770557330009e-04 1.799043213504e-04 0.0 
1.799043213504e-04 5.036915018676e-03 0.0 
0.0 0.0 -7.711223959738e-04 
-1.280064085681e-03 1.291641233302e-05 0.0 
1.291641233302e-05 8.715123744244e-03 0.0 
0.0 0.0 -1.265987209193e-03 
-7.886647595986e-04 2.426638412859e-05 0.0 
2.426638412859e-05 5.002569468986e-03 0.0 
0.0 0.0 -7.842605076999e-04 
-5.085061027867e-04 1.624719349291e-04 0.0 
1.624719349291e-04 3.132188298831e-03 0.0 
0.0 0.0 -5.042822341261e-04 
-6.680122214844e-04 1.543414038777e-04 0.0 
1.543414038777e-04 4.389762745766e-03 0.0 
0.0 0.0 -6.840799553763e-04 
-9.007934225225e-04 -1.247506640906e-04 0.0 
-1.247506640906e-04 5.946782140169e-03 0.0 
0.0 0.0 -8.722824885218e-04 
-3.656654935952e-04 2.470171187882e-04 0.0 
2.470171187882e-04 2.250740956869e-03 0.0 
0.0 0.0 -3.514598124168e-04 
-5.924594186081e-04 -2.113287385342e-04 0.0 
-2.113287385342e-04 3.843594924053e-03 0.0 
0.0 0.0 -5.911455407098e-04 
-1.021044424836e-03 -2.319523584095e-04 0.0 
-2.319523584095e-04 6.800629387681e-03 0.0 
0.0 0.0 -1.016465148841e-03 
-7.832948860766e-04 1.542506256290e-04 0.0 
1.542506256290e-04 5.221219062028e-03 0.0 
0.0 0.0 -7.680022369673e-04 
-5.676669992827e-04 1.711896275724e-04 0.0 
1.711896275724e-04 3.564089172862e-03 0.0 
0.0 0.0 -5.666226778950e-04 
-6.536822883720e-04 1.457424227354e-04 0.0 
1.457424227354e-04 4.156474681675e-03 0.0 
0.0 0.0 -6.498546761489e-04 
-1.132270982309e-03 2.069255922965e-04 0.0 
2.069255922965e-04 7.587995835191e-03 0.0 
0.0 0.0 -1.136725521675e-03 
-6.243703934397e-04 -5.657386080576e-05 0.0 
-5.657386080576e-05 4.179915537147e-03 0.0 
0.0 0.0 -6.189190723244e-04 
-1.269582323065e-03 5.358509534077e-05 0.0 
5.358509534077e-05 8.454036067307e-03 0.0 
0.0 0.0 -1.285202198870e-03 
-1.273584082277e-03 -3.447672338956e-05 0.0 
-3.447672338956e-05 8.706627272042e-03 0.0 
0.0 0.0 -1.265486236287e-03 
-4.574522532321e-04 -1.366919469267e-04 0.0 
-1.366919469267e-04 2.968706494426e-03 0.0 
0.0 0.0 -4.595713030950e-04 
-6.193411254741e-04 7.190453835518e-05 0.0 
7.190453835518e-05 3.976368456989e-03 0.0 
0.0 0.0 -6.385407451345e-04 
-1.157661612575e-03 -1.951807319382e-04 0.0 
-1.951807319382e-04 7.743964299132e-03 0.0 
0.0 0.0 -1.152822474774e-03 
-6.058642039219e-04 -1.568622492917e-04 0.0 
-1.568622492917e-04 3.943482715706e-03 0.0 
0.0 0.0 -6.037256927378e-04 
-4.410111678775e-04 1.646945023676e-04 0.0 
1.646945023676e-04 2.528625053889e-03 0.0 
0.0 0.0 -4.251746348339e-04 
-7.492101616992e-04 1.773144067427e-04 0.0 
1.773144067427e-04 4.849787455535e-03 0.0 
0.0 0.0 -7.443430781256e-04 
-6.015846242072e-04 -1.692904042825e-04 0.0 
-1.692904042825e-04 3.951833046067e-03 0.0 
0.0 0.0 -6.011186688906e-04 
-1.288763796550e-03 1.231833412492e-04 0.0 
1.231833412492e-04 8.478545606423e-03 0.0 
0.0 0.0 -1.279059907835e-03 
-1.060544670799e-03 1.938342500095e-04 0.0 
1.938342500095e-04 7.027045279308e-03 0.0 
0.0 0.0 -1.060691896764e-03 
-1.152244772895e-03 2.285095076534e-04 0.0 
2.285095076534e-04 7.745399107629e-03 0.0 
0.0 0.0 -1.155968210243e-03 
-2.882194771885e-04 -2.173510090808e-04 0.0 
-2.173510090808e-04 1.694759427097e-03 0.0 
0.0 0.0 -2.852154713500e-04 
-5.567709701176e-04 -1.966656427987e-04 0.0 
-1.966656427987e-04 3.599381630168e-03 0.0 
0.0 0.0 -5.558335581882e-04 
-1.085941057106e-03 1.940613560134e-04 0.0 
1.940613560134e-04 7.224719901000e-03 0.0 
0.0 0.0 -1.089453766084e-03 
-2.843827826583e-05 -1.788898447607e-05 0.0 
-1.788898447607e-05 1.853186358372e-04 0.0 
0.0 0.0 -4.453055683374e-05 
-6.135292459430e-04 1.555358498215e-04 0.0 
1.555358498215e-04 3.889243112960e-03 0.0 
0.0 0.0 -6.073871274648e-04 
-1.080867878280e-03 -2.316454551772e-04 0.0 
-2.316454551772e-04 7.249333231753e-03 0.0 
0.0 0.0 -1.080675545910e-03 
-1.764831160191e-04 -8.217578917013e-05 0.0 
-8.217578917013e-05 1.019550636912e-03 0.0 
0.0 0.0 -1.605608400042e-04 
-1.238595889810e-03 2.354517143287e-04 0.0 
2.354517143287e-04 8.471121261651e-03 0.0 
0.0 0.0 -1.257517519450e-03 
-9.713207705101e-04 1.946323764391e-04 0.0 
1.946323764391e-04 6.442137433534e-03 0.0 
0.0 0.0 -9.749624431058e-04 
-5.981973631964e-04 1.879071448910e-04 0.0 
1.879071448910e-04 3.813329018576e-03 0.0 
0.0 0.0 -5.995223474422e-04 
-1.084348145166e-03 2.392214872559e-04 0.0 
2.392214872559e-04 7.212887026288e-03 0.0 
0.0 0.0 -1.082135573043e-03 
-8.219004318722e-04 -1.022855745582e-05 0.0 
-1.022855745582e-05 5.626191621955e-03 0.0 
0.0 0.0 -8.259898420369e-04 
-8.600931526374e-04 -1.614882484442e-04 0.0 
-1.614882484442e-04 5.932770930688e-03 0.0 
0.0 0.0 -8.838609275114e-04 
-1.235110349403e-03 -1.423085779250e-04 0.0 
-1.423085779250e-04 8.282740067778e-03 0.0 
0.0 0.0 -1.237791025003e-03 
-4.556209105529e-04 2.036420794211e-04 0.0 
2.036420794211e-04 2.823352627341e-03 0.0 
0.0 0.0 -4.583583101839e-04 
-7.508195319224e-04 1.853886358928e-04 0.0 
1.853886358928e-04 4.860963236206e-03 0.0 
0.0 0.0 -7.480401524272e-04 
-8.027906713221e-04 1.764875410810e-04 0.0 
1.764875410810e-04 5.221920557136e-03 0.0 
0.0 0.0 -7.988399675000e-04 
-1.007530328557e-03 -1.922336022121e-04 0.0 
-1.922336022121e-04 6.759039767950e-03 0.0 
0.0 0.0 -1.008548823165e-03 
-8.112396533279e-04 -1.820827880749e-04 0.0 
-1.820827880749e-04 5.334789694812e-03 0.0 
0.0 0.0 -8.035999206669e-04 
-7.424823838501e-04 -1.611951191526e-04 0.0 
-1.611951191526e-04 4.887914283700e-03 0.0 
0.0 0.0 -7.415510827328e-04 
-9.420049562242e-04 -1.980186569885e-04 0.0 
-1.980186569885e-04 6.275886053793e-03 0.0 
0.0 0.0 -9.414312740916e-04 
-1.106765657790e-03 -2.072912274522e-04 0.0 
-2.072912274522e-04 7.417848919971e-03 0.0 
0.0 0.0 -1.105110859848e-03 
-8.771550322174e-05 -5.128346968204e-06 0.0 
-5.128346968204e-06 5.622743997178e-04 0.0 
0.0 0.0 -1.015871403443e-04 
-4.452411510456e-04 1.078521059613e-04 0.0 
1.078521059613e-04 2.907946245102e-03 0.0 
0.0 0.0 -4.649757541953e-04 
-5.301149448615e-04 1.855290027463e-04 0.0 
1.855290027463e-04 3.290005967673e-03 0.0 
0.0 0.0 -5.249394872960e-04 
-7.215069587740e-04 -1.794285911688e-04 0.0 
-1.794285911688e-04 4.739905292165e-03 0.0 
0.0 0.0 -7.181710532390e-04 
-1.095309768585e-03 -2.099324022586e-04 0.0 
-2.099324022586e-04 7.373113916822e-03 0.0 
0.0 0.0 -1.095076276885e-03 
-2.412241836648e-04 1.824271338485e-04 0.0 
1.824271338485e-04 1.391269291466e-03 0.0 
0.0 0.0 -2.576475407671e-04 
-1.042666947128e-03 -2.211661748355e-04 0.0 
-2.211661748355e-04 6.991049176526e-03 0.0 
0.0 0.0 -1.043355442177e-03 
-7.709980970025e-04 -2.344526007542e-04 0.0 
-2.344526007542e-04 5.001364750652e-03 0.0 
0.0 0.0 -7.763349569542e-04 
-5.598484848317e-04 1.964216387435e-04 0.0 
1.964216387435e-04 3.545883977612e-03 0.0 
0.0 0.0 -5.576783925304e-04 
-1.005904581142e-03 -2.103129090372e-04 0.0 
-2.103129090372e-04 6.739916943409e-03 0.0 
0.0 0.0 -1.006238978475e-03 
-1.328137378895e-04 -1.926409820628e-04 0.0 
-1.926409820628e-04 5.524811366159e-04 0.0 
0.0 0.0 -1.250635456846e-04 
-1.037748486931e-03 2.025826416299e-04 0.0 
2.025826416299e-04 6.894254509779e-03 0.0 
0.0 0.0 -1.040010908530e-03 
-9.586550230840e-05 6.862947183806e-05 0.0 
6.862947183806e-05 5.313753155377e-04 0.0 
0.0 0.0 -1.007187892234e-04 
-1.713724236673e-04 -5.327399001852e-06 0.0 
-5.327399001852e-06 7.517172537926e-04 0.0 
0.0 0.0 -1.819418517600e-04 
-2.796122854916e-04 2.316565417802e-04 0.0 
2.316565417802e-04 1.675994704222e-03 0.0 
0.0 0.0 -2.873666149908e-04 
-3.926605428350e-04 1.733428287045e-04 0.0 
1.733428287045e-04 2.352552718651e-03 0.0 
0.0 0.0 -3.935955730116e-04 
-1.073504857728e-03 -1.857694457952e-04 0.0 
-1.857694457952e-04 7.207934761623e-03 0.0 
0.0 0.0 -1.073797489760e-03 
-3.651136453237e-04 -1.928839212762e-04 0.0 
-1.928839212762e-04 2.293609592088e-03 0.0 
0.0 0.0 -3.637595386041e-04 
-3.442210319020e-04 1.764997975594e-04 0.0 
1.764997975594e-04 2.032847714738e-03 0.0 
0.0 0.0 -3.432832105208e-04 
-2.910729329916e-04 -1.809308260194e-04 0.0 
-1.809308260194e-04 1.763076573158e-03 0.0 
0.0 0.0 -2.922710279673e-04 
-2.622356291375e-04 1.892606687833e-04 0.0 
1.892606687833e-04 1.448318780245e-03 0.0 
0.0 0.0 -2.614315927221e-04 
-1.120397219207e-03 1.996859117335e-04 0.0 
1.996859117335e-04 7.447331785752e-03 0.0 
0.0 0.0 -1.117524173959e-03 
-7.717946648580e-04 -1.881039575464e-04 0.0 
-1.881039575464e-04 5.076611576994e-03 0.0 
0.0 0.0 -7.687972329812e-04 
-1.256202704630e-03 2.478526914498e-04 0.0 
2.478526914498e-04 8.487594918351e-03 0.0 
0.0 0.0 -1.256743614961e-03 
0.0 0.0 0.0 
0.0 0.0 0.0 
0.0 0.0 0.0 
-4.048716956913e-04 1.853052298050e-04 0.0 
1.853052298050e-04 2.461420572415e-03 0.0 
0.0 0.0 -4.044045206172e-04 
-6.239445424560e-04 2.046361178611e-04 0.0 
2.046361178611e-04 3.992995746549e-03 0.0 
0.0 0.0 -6.230907113744e-04 
-5.740868944919e-04 1.850315981272e-04 0.0 
1.850315981272e-04 3.613473978480e-03 0.0 
0.0 0.0 -5.709397776106e-04 
-1.047068133195e-03 2.230470659995e-04 0.0 
2.230470659995e-04 6.949500072304e-03 0.0 
0.0 0.0 -1.045235091131e-03 
-1.285400109254e-03 1.957478292084e-04 0.0 
1.957478292084e-04 8.698618921316e-03 0.0 
0.0 0.0 -1.275930989368e-03 
-1.029713153133e-03 -2.056143237118e-04 0.0 
-2.056143237118e-04 6.913851891301e-03 0.0 
0.0 0.0 -1.029499106509e-03 
-4.579566149125e-04 -1.884217374258e-04 0.0 
-1.884217374258e-04 2.912212194121e-03 0.0 
0.0 0.0 -4.564841486881e-04 
-1.120831572504e-03 -1.912348279819e-04 0.0 
-1.912348279819e-04 7.467678576310e-03 0.0 
0.0 0.0 -1.116166892424e-03 
-9.572670568062e-04 2.571263954152e-04 0.0 
2.571263954152e-04 6.316374419588e-03 0.0 
0.0 0.0 -9.512440159151e-04 
-7.570218913511e-04 -1.787629418727e-04 0.0 
-1.787629418727e-04 4.987297939344e-03 0.0 
0.0 0.0 -7.537083776970e-04 
-9.994998658216e-04 2.045048337303e-04 0.0 
2.045048337303e-04 6.629510214408e-03 0.0 
0.0 0.0 -1.003200534345e-03 
-1.242505065463e-03 -1.591232809489e-04 0.0 
-1.591232809489e-04 8.294319035880e-03 0.0 
0.0 0.0 -1.239730878702e-03 
-6.222328359965e-04 -2.058351298643e-04 0.0 
-2.058351298643e-04 4.057741749781e-03 0.0 
0.0 0.0 -6.206208101913e-04 
-3.761575650769e-04 -1.711217870111e-04 0.0 
-1.711217870111e-04 2.346047162404e-03 0.0 
0.0 0.0 -3.752687577596e-04 
-8.718273414275e-04 -1.903070125198e-04 0.0 
-1.903070125198e-04 5.767456116596e-03 0.0 
0.0 0.0 -8.662621843288e-04 
-1.329807574370e-03 9.926374614617e-05 0.0 
9.926374614617e-05 9.094631735092e-03 0.0 
0.0 0.0 -1.323568725688e-03 
-7.473763321356e-04 -1.878290917318e-04 0.0 
-1.878290917318e-04 4.922460573441e-03 0.0 
0.0 0.0 -7.453270327204e-04 
-7.780710127091e-04 -1.914920916377e-04 0.0 
-1.914920916377e-04 5.142441463468e-03 0.0 
0.0 0.0 -7.768443034385e-04 
-8.403853568470e-04 -5.224028630905e-05 0.0 
-5.224028630905e-05 5.665674692091e-03 0.0 
0.0 0.0 -8.293613651800e-04 
-2.119957057011e-04 -1.175361575482e-04 0.0 
-1.175361575482e-04 1.307524346166e-03 0.0 
0.0 0.0 -2.161141481901e-04 
-8.208799096496e-04 1.843133829192e-04 0.0 
1.843133829192e-04 5.271529166893e-03 0.0 
0.0 0.0 -8.060563724883e-04 
-4.603670611931e-04 1.877974414593e-04 0.0 
1.877974414593e-04 2.847786037855e-03 0.0 
0.0 0.0 -4.590591740919e-04 
-3.265147701176e-04 1.754702989645e-04 0.0 
1.754702989645e-04 1.892353118097e-03 0.0 
0.0 0.0 -3.229397045850e-04 
-2.372523115321e-04 -1.920097841935e-04 0.0 
-1.920097841935e-04 1.297568945568e-03 0.0 
0.0 0.0 -2.426597671045e-04 
-1.076566808285e-03 1.948027566312e-04 0.0 
1.948027566312e-04 7.152792080089e-03 0.0 
0.0 0.0 -1.075985979751e-03 
-8.366892688468e-04 -1.821112197861e-04 0.0 
-1.821112197861e-04 5.525859000099e-03 0.0 
0.0 0.0 -8.312490730234e-04 
-5.408471440859e-04 1.787636598150e-04 0.0 
1.787636598150e-04 3.420100638870e-03 0.0 
0.0 0.0 -5.429493831729e-04 
-1.110558394075e-03 -1.920281890810e-04 0.0 
-1.920281890810e-04 7.461731149687e-03 0.0 
0.0 0.0 -1.109763131677e-03 
-1.054698518121e-03 -2.087025362573e-04 0.0 
-2.087025362573e-04 7.108835153234e-03 0.0 
0.0 0.0 -1.057773507355e-03 
-7.924197653506e-04 -1.785979394266e-04 0.0 
-1.785979394266e-04 5.231483760846e-03 0.0 
0.0 0.0 -7.887050335656e-04 
-1.257903229921e-03 7.567368571961e-05 0.0 
7.567368571961e-05 8.498216080292e-03 0.0 
0.0 0.0 -1.288412101370e-03 
-8.091181034430e-04 1.931976365145e-04 0.0 
1.931976365145e-04 5.284760522789e-03 0.0 
0.0 0.0 -8.078958932737e-04 
-8.263277637735e-04 -1.832084157212e-04 0.0 
-1.832084157212e-04 5.471677470531e-03 0.0 
0.0 0.0 -8.238265297874e-04 
-6.650106902351e-04 -1.791010150323e-04 0.0 
-1.791010150323e-04 4.378261468460e-03 0.0 
0.0 0.0 -6.656476441012e-04 
-8.423857986256e-04 -1.986818351392e-04 0.0 
-1.986818351392e-04 5.587318921638e-03 0.0 
0.0 0.0 -8.413031780454e-04 
-3.899474951329e-04 1.915304819261e-04 0.0 
1.915304819261e-04 2.337472328750e-03 0.0 
0.0 0.0 -3.865807678710e-04 
-8.089876515704e-04 4.490290024565e-05 0.0 
4.490290024565e-05 5.014601975749e-03 0.0 
0.0 0.0 -7.898058234521e-04 
-6.502027287347e-04 -1.918500009783e-04 0.0 
-1.918500009783e-04 4.255074906530e-03 0.0 
0.0 0.0 -6.486359607860e-04 
-4.676332506753e-04 -1.907969004763e-04 0.0 
-1.907969004763e-04 2.994133619140e-03 0.0 
0.0 0.0 -4.681053320140e-04 
-1.032293230965e-03 1.946996800783e-04 0.0 
1.946996800783e-04 6.836459352288e-03 0.0 
0.0 0.0 -1.032318248600e-03 
-4.933492965950e-05 -2.981330854887e-05 0.0 
-2.981330854887e-05 2.232237160482e-04 0.0 
0.0 0.0 -4.491607815645e-05 
-8.460396934351e-04 -1.994951239522e-04 0.0 
-1.994951239522e-04 5.571843201912e-03 0.0 
0.0 0.0 -8.386390795737e-04 
-4.884576987713e-04 1.904916551125e-04 0.0 
1.904916551125e-04 3.043938579203e-03 0.0 
0.0 0.0 -4.870240021111e-04 
-4.011070509712e-04 -1.789938708171e-04 0.0 
-1.789938708171e-04 2.527031405991e-03 0.0 
0.0 0.0 -4.015254440178e-04 
-3.881231226590e-04 -1.849728275913e-04 0.0 
-1.849728275913e-04 2.413136850469e-03 0.0 
0.0 0.0 -3.834586606452e-04 
-9.010939454830e-04 1.820631251066e-04 0.0 
1.820631251066e-04 5.900115668490e-03 0.0 
0.0 0.0 -8.965110541436e-04 
-1.535639171873e-04 -1.171137565838e-04 0.0 
-1.171137565838e-04 9.290832055630e-04 0.0 
0.0 0.0 -1.609926926485e-04 
-5.642000446768e-04 1.829010286562e-04 0.0 
1.829010286562e-04 3.554613982315e-03 0.0 
0.0 0.0 -5.613503766092e-04 
-8.738800955345e-04 1.908997098880e-04 0.0 
1.908997098880e-04 5.736495439307e-03 0.0 
0.0 0.0 -8.726802719924e-04 
-8.424168210171e-04 1.809379834970e-04 0.0 
1.809379834970e-04 5.460364861261e-03 0.0 
0.0 0.0 -8.336838631977e-04 
-8.483140592107e-04 -2.570000340293e-05 0.0 
-2.570000340293e-05 5.646419876325e-03 0.0 
0.0 0.0 -8.301023967811e-04 
-2.301022018194e-04 1.896537110149e-04 0.0 
1.896537110149e-04 1.205962353600e-03 0.0 
0.0 0.0 -2.187087652219e-04 
-4.708793642351e-04 1.959468275411e-04 0.0 
1.959468275411e-04 2.928096743676e-03 0.0 
0.0 0.0 -4.706942212664e-04 
-4.339228685621e-04 -2.028732675089e-04 0.0 
-2.028732675089e-04 2.736979889631e-03 0.0 
0.0 0.0 -4.311372127493e-04 
-4.979504220913e-04 -1.685324817792e-04 0.0 
-1.685324817792e-04 3.206245351086e-03 0.0 
0.0 0.0 -4.957039317942e-04 
-1.001539925556e-03 -2.124102205074e-04 0.0 
-2.124102205074e-04 6.704131800771e-03 0.0 
0.0 0.0 -1.000663671924e-03 
-5.607402459632e-04 -1.707949003296e-04 0.0 
-1.707949003296e-04 3.631087283813e-03 0.0 
0.0 0.0 -5.577786207633e-04 
-6.163072057109e-04 1.894419522334e-04 0.0 
1.894419522334e-04 3.933506140839e-03 0.0 
0.0 0.0 -6.151539951222e-04 
-5.883906607910e-04 1.932241182488e-04 0.0 
1.932241182488e-04 3.740119885148e-03 0.0 
0.0 0.0 -5.868308051845e-04 
-2.691521273047e-04 -2.036688762200e-04 0.0 
-2.036688762200e-04 1.523725894567e-03 0.0 
0.0 0.0 -2.530049833111e-04 
-6.958714508919e-04 1.979801814587e-04 0.0 
1.979801814587e-04 4.490850522134e-03 0.0 
0.0 0.0 -6.959382511914e-04 
-2.861043400588e-04 -1.894415141015e-04 0.0 
-1.894415141015e-04 1.663430798726e-03 0.0 
0.0 0.0 -2.788248838327e-04 
-1.306755613337e-03 -2.610599304148e-06 0.0 
-2.610599304148e-06 9.100164486650e-03 0.0 
0.0 0.0 -1.321446319728e-03 
-1.339174511630e-03 -2.960517267117e-05 0.0 
-2.960517267117e-05 9.091242340448e-03 0.0 
0.0 0.0 -1.318029376683e-03 
-7.775136936644e-04 1.870350143580e-04 0.0 
1.870350143580e-04 5.054396183358e-03 0.0 
0.0 0.0 -7.755312068111e-04 
-4.251819947504e-04 1.895457374981e-04 0.0 
1.895457374981e-04 2.596133538266e-03 0.0 
0.0 0.0 -4.232985079168e-04 
-3.648329347482e-04 -1.837358985601e-04 0.0 
-1.837358985601e-04 2.280199425849e-03 0.0 
0.0 0.0 -3.659709354871e-04 
-8.573750887322e-04 1.858228230958e-04 0.0 
1.858228230958e-04 5.602884265534e-03 0.0 
0.0 0.0 -8.539191708179e-04 
-3.949528212466e-04 -1.886728582839e-04 0.0 
-1.886728582839e-04 2.475291397225e-03 0.0 
0.0 0.0 -3.930530440640e-04 
-4.332493895502e-04 1.980298907225e-04 0.0 
1.980298907225e-04 2.665937605433e-03 0.0 
0.0 0.0 -4.339875075689e-04 
-7.596321613464e-04 1.775287963430e-04 0.0 
1.775287963430e-04 4.918201734153e-03 0.0 
0.0 0.0 -7.563811545761e-04 
-1.287984799363e-03 -3.860068533034e-05 0.0 
-3.860068533034e-05 8.730948327736e-03 0.0 
0.0 0.0 -1.266640259566e-03 
-5.240495846065e-04 1.944963688322e-04 0.0 
1.944963688322e-04 3.293655739786e-03 0.0 
0.0 0.0 -5.226246958029e-04 
-9.447998235248e-04 1.960929665843e-04 0.0 
1.960929665843e-04 6.232881478096e-03 0.0 
0.0 0.0 -9.428115367422e-04 
-3.107562741713e-04 1.824587312734e-04 0.0 
1.824587312734e-04 1.780558679157e-03 0.0 
0.0 0.0 -3.076624342134e-04 
-1.311994729519e-03 7.493212939776e-06 0.0 
7.493212939776e-06 9.101970930917e-03 0.0 
0.0 0.0 -1.322863172658e-03 
-3.967767638387e-04 1.868417767078e-04 0.0 
1.868417767078e-04 2.404071077719e-03 0.0 
0.0 0.0 -3.959736908235e-04 
-7.861913752228e-04 1.858440032300e-04 0.0 
1.858440032300e-04 5.109311146391e-03 0.0 
0.0 0.0 -7.835188407616e-04 
-2.939612478105e-04 2.069489564744e-04 0.0 
2.069489564744e-04 1.627899719100e-03 0.0 
0.0 0.0 -2.855287480241e-04 
-9.209672284179e-04 1.890725882862e-04 0.0 
1.890725882862e-04 6.061382275032e-03 0.0 
0.0 0.0 -9.211625808215e-04 
-6.527425537756e-04 1.919833722786e-04 0.0 
1.919833722786e-04 4.182126969127e-03 0.0 
0.0 0.0 -6.516619296807e-04 
-4.643737788932e-04 1.911497819082e-04 0.0 
1.911497819082e-04 2.873282577301e-03 0.0 
0.0 0.0 -4.625367401933e-04 
-8.005133107045e-04 -1.849372706410e-04 0.0 
-1.849372706410e-04 5.279390117932e-03 0.0 
0.0 0.0 -7.963903837170e-04 
-1.325618080026e-03 -1.973193103060e-05 0.0 
-1.973193103060e-05 9.091764273344e-03 0.0 
0.0 0.0 -1.324865334549e-03 
-5.527714494018e-04 1.888052696331e-04 0.0 
1.888052696331e-04 3.488692206257e-03 0.0 
0.0 0.0 -5.510338386786e-04 
-8.711724193670e-04 -1.970525444519e-04 0.0 
-1.970525444519e-04 5.796794660819e-03 0.0 
0.0 0.0 -8.703234504572e-04 
-3.052115937337e-04 -1.690052037767e-04 0.0 
-1.690052037767e-04 1.853679927902e-03 0.0 
0.0 0.0 -3.041533380165e-04 
-9.585285003453e-04 2.099575339621e-04 0.0 
2.099575339621e-04 6.326919234623e-03 0.0 
0.0 0.0 -9.576894438039e-04 
-1.007861502229e-03 2.071557397888e-04 0.0 
2.071557397888e-04 6.684066242240e-03 0.0 
0.0 0.0 -1.008345180213e-03 
-4.131133098155e-04 -1.786065448845e-04 0.0 
-1.786065448845e-04 2.602572281114e-03 0.0 
0.0 0.0 -4.109515902261e-04 
-9.327998617517e-04 -1.874311411833e-04 0.0 
-1.874311411833e-04 6.181670543660e-03 0.0 
0.0 0.0 -9.257128893455e-04 
-1.323570257858e-03 1.323150738927e-05 0.0 
1.323150738927e-05 9.099733073090e-03 0.0 
0.0 0.0 -1.322580803729e-03 
-1.076618962997e-03 1.898018198415e-04 0.0 
1.898018198415e-04 7.144327477010e-03 0.0 
0.0 0.0 -1.075861678316e-03 
-1.321614991336e-03 -1.713273005325e-05 0.0 
-1.713273005325e-05 9.105058184061e-03 0.0 
0.0 0.0 -1.322091174222e-03 
-9.079440508188e-04 -2.097847460127e-04 0.0 
-2.097847460127e-04 6.119714420928e-03 0.0 
0.0 0.0 -9.196498359204e-04 
-1.050990778737e-03 -1.886314367517e-04 0.0 
-1.886314367517e-04 7.044669431277e-03 0.0 
0.0 0.0 -1.048263655743e-03 
-3.511245847016e-04 -1.953891657846e-04 0.0 
-1.953891657846e-04 2.144448464187e-03 0.0 
0.0 0.0 -3.491910591611e-04 
-7.374872672360e-04 -1.803640936936e-04 0.0 
-1.803640936936e-04 4.844525720206e-03 0.0 
0.0 0.0 -7.343713905235e-04 
-8.293244045423e-04 1.837550643812e-04 0.0 
1.837550643812e-04 5.409584064822e-03 0.0 
0.0 0.0 -8.263924940540e-04 
-8.620298851759e-04 -1.867239000810e-04 0.0 
-1.867239000810e-04 5.715504193618e-03 0.0 
0.0 0.0 -8.589723558544e-04 
-7.110415388043e-04 -1.855413705945e-04 0.0 
-1.855413705945e-04 4.678427107823e-03 0.0 
0.0 0.0 -7.101745248689e-04 
-1.326686360804e-03 -1.171732242914e-05 0.0 
-1.171732242914e-05 9.109208916885e-03 0.0 
0.0 0.0 -1.322334986692e-03 
-8.655458594576e-04 1.438711959111e-04 0.0 
1.438711959111e-04 5.877137978370e-03 0.0 
0.0 0.0 -8.810748613436e-04 
-7.842175920213e-04 -1.730041151839e-04 0.0 
-1.730041151839e-04 5.148772658244e-03 0.0 
0.0 0.0 -7.763708431881e-04 
-5.855858139709e-04 -1.935639285696e-04 0.0 
-1.935639285696e-04 3.803586164403e-03 0.0 
0.0 0.0 -5.843899590101e-04 
-3.295388154563e-04 1.889565951281e-04 0.0 
1.889565951281e-04 1.906230365352e-03 0.0 
0.0 0.0 -3.280768480529e-04 
-7.085854070096e-04 -1.812057133810e-04 0.0 
-1.812057133810e-04 4.648076014877e-03 0.0 
0.0 0.0 -7.069124235890e-04 
-4.422183154957e-04 1.870641756047e-04 0.0 
1.870641756047e-04 2.708861584455e-03 0.0 
0.0 0.0 -4.404772202000e-04 
-7.723719974628e-04 -4.140062150849e-05 0.0 
-4.140062150849e-05 5.256708913763e-03 0.0 
0.0 0.0 -7.696142143080e-04 
-4.606920221105e-04 -1.852355893197e-04 0.0 
-1.852355893197e-04 2.942829590752e-03 0.0 
0.0 0.0 -4.595640944490e-04 
-5.214756889107e-04 -1.931035456201e-04 0.0 
-1.931035456201e-04 3.354332559651e-03 0.0 
0.0 0.0 -5.202658224677e-04 
-1.068256360121e-03 2.066714883780e-04 0.0 
2.066714883780e-04 7.094366600133e-03 0.0 
0.0 0.0 -1.069052450572e-03 
-4.377877323945e-04 -1.833633178396e-04 0.0 
-1.833633178396e-04 2.778061496653e-03 0.0 
0.0 0.0 -4.372567615832e-04 
-7.685639283948e-04 1.832765112524e-04 0.0 
1.832765112524e-04 4.976704183313e-03 0.0 
0.0 0.0 -7.640689829422e-04 
-9.023009032283e-04 1.879763697979e-04 0.0 
1.879763697979e-04 5.928541464361e-03 0.0 
0.0 0.0 -9.014246907137e-04 
-8.033627654917e-04 1.978900666673e-04 0.0 
1.978900666673e-04 5.248675409052e-03 0.0 
0.0 0.0 -8.035328976187e-04 
-1.305960172853e-03 -2.095892658933e-06 0.0 
-2.095892658933e-06 9.102496999303e-03 0.0 
0.0 0.0 -1.324762665914e-03 
-6.445820078638e-04 -1.678202773937e-04 0.0 
-1.678202773937e-04 4.194265313441e-03 0.0 
0.0 0.0 -6.390224077203e-04 
-4.435428954874e-04 1.964051911317e-04 0.0 
1.964051911317e-04 2.726576725320e-03 0.0 
0.0 0.0 -4.422638729430e-04 
-5.680634224623e-04 -1.789976648694e-04 0.0 
-1.789976648694e-04 3.709617648682e-03 0.0 
0.0 0.0 -5.691257024010e-04 
-4.282333792406e-04 -1.482446945054e-04 0.0 
-1.482446945054e-04 2.644915346169e-03 0.0 
0.0 0.0 -4.184705811166e-04 
-4.155606553471e-04 1.953855919425e-04 0.0 
1.953855919425e-04 2.537485002560e-03 0.0 
0.0 0.0 -4.141309408042e-04 
-1.124019592153e-03 -2.007331567345e-04 0.0 
-2.007331567345e-04 7.565647962713e-03 0.0 
0.0 0.0 -1.123886314723e-03 
-8.186901870458e-04 -1.867352575880e-04 0.0 
-1.867352575880e-04 5.417532343352e-03 0.0 
0.0 0.0 -8.161479701220e-04 
-5.717796681142e-04 -1.878963187409e-04 0.0 
-1.878963187409e-04 3.680777609877e-03 0.0 
0.0 0.0 -5.672387349321e-04 
-7.059258560286e-04 1.849400511514e-04 0.0 
1.849400511514e-04 4.547028472385e-03 0.0 
0.0 0.0 -7.023794137935e-04 
-1.322670125945e-03 2.313222592219e-05 0.0 
2.313222592219e-05 9.105794211902e-03 0.0 
0.0 0.0 -1.320675234999e-03 
-1.261246667212e-03 -1.446740378058e-04 0.0 
-1.446740378058e-04 8.590068615086e-03 0.0 
0.0 0.0 -1.258064670439e-03 
-1.122100566517e-03 1.986464603035e-04 0.0 
1.986464603035e-04 7.484284741315e-03 0.0 
0.0 0.0 -1.126590436115e-03 
-1.036201990782e-03 -1.951775890560e-04 0.0 
-1.951775890560e-04 6.963709654535e-03 0.0 
0.0 0.0 -1.037522200811e-03 
-7.719052834795e-04 -1.888501304093e-04 0.0 
-1.888501304093e-04 5.114447170550e-03 0.0 
0.0 0.0 -7.721428985420e-04 
-5.862259843954e-04 -1.794669617907e-04 0.0 
-1.794669617907e-04 3.806767764826e-03 0.0 
0.0 0.0 -5.842812205453e-04 
-4.235649518208e-04 -1.883881554874e-04 0.0 
-1.883881554874e-04 2.667804805964e-03 0.0 
0.0 0.0 -4.203166018451e-04 
-4.860729007888e-04 -1.885252844674e-04 0.0 
-1.885252844674e-04 3.110387779236e-03 0.0 
0.0 0.0 -4.843489805398e-04 
-7.832353818819e-04 -1.822378049694e-04 0.0 
-1.822378049694e-04 5.173491727743e-03 0.0 
0.0 0.0 -7.808727949117e-04 
-8.901416230108e-04 -1.942852983019e-04 0.0 
-1.942852983019e-04 5.937129717394e-03 0.0 
0.0 0.0 -8.900964085843e-04 
-6.791455967192e-04 -1.986004150700e-04 0.0 
-1.986004150700e-04 4.477294610112e-03 0.0 
0.0 0.0 -6.810091006415e-04 
-1.137984490542e-03 2.026763925672e-04 0.0 
2.026763925672e-04 7.560494271962e-03 0.0 
0.0 0.0 -1.134236807130e-03 
-4.390058928460e-04 -1.873042743236e-04 0.0 
-1.873042743236e-04 2.794180260139e-03 0.0 
0.0 0.0 -4.395655422792e-04 
-6.752152374307e-04 -1.860595742761e-04 0.0 
-1.860595742761e-04 4.431501668800e-03 0.0 
0.0 0.0 -6.750378637491e-04 
-7.938192706807e-04 1.817389384797e-04 0.0 
1.817389384797e-04 5.160116736331e-03 0.0 
0.0 0.0 -7.913284153978e-04 
-6.120290380758e-04 -1.961653994373e-04 0.0 
-1.961653994373e-04 3.987310124629e-03 0.0 
0.0 0.0 -6.122259156574e-04 
-1.301288756895e-03 -2.045275430421e-05 0.0 
-2.045275430421e-05 9.103514886722e-03 0.0 
0.0 0.0 -1.320088186226e-03 
-1.336559860406e-03 5.304668224230e-05 0.0 
5.304668224230e-05 9.092320412842e-03 0.0 
0.0 0.0 -1.318462653075e-03 
-1.241699233934e-03 -2.254253931459e-04 0.0 
-2.254253931459e-04 8.519567921102e-03 0.0 
0.0 0.0 -1.256494544188e-03 
-8.370305663979e-04 -1.942067132543e-04 0.0 
-1.942067132543e-04 5.564466733165e-03 0.0 
0.0 0.0 -8.375255977276e-04 
-1.112341827327e-03 1.928139267360e-04 0.0 
1.928139267360e-04 7.404901105712e-03 0.0 
0.0 0.0 -1.112065035246e-03 
-3.806812841049e-04 1.778946636947e-04 0.0 
1.778946636947e-04 2.279220825059e-03 0.0 
0.0 0.0 -3.785953687517e-04 
-5.494616984378e-04 -1.888416104626e-04 0.0 
-1.888416104626e-04 3.555923799118e-03 0.0 
0.0 0.0 -5.483018170244e-04 
-3.235962926905e-04 -1.736014947489e-04 0.0 
-1.736014947489e-04 1.973084689826e-03 0.0 
0.0 0.0 -3.192951451658e-04 
-5.963652417522e-04 -1.773931756758e-04 0.0 
-1.773931756758e-04 3.870665993091e-03 0.0 
0.0 0.0 -5.936226173563e-04 
-7.754418230907e-04 -1.787983897596e-05 0.0 
-1.787983897596e-05 4.998811631156e-03 0.0 
0.0 0.0 -7.914980036671e-04 
-9.191665137011e-04 2.140245341565e-04 0.0 
2.140245341565e-04 6.074527525348e-03 0.0 
0.0 0.0 -9.214502702889e-04 
-1.272306740568e-03 -2.183792906092e-06 0.0 
-2.183792906092e-06 8.701539900471e-03 0.0 
0.0 0.0 -1.265403586923e-03 
-1.115465796477e-03 2.144802209519e-04 0.0 
2.144802209519e-04 7.405352776166e-03 0.0 
0.0 0.0 -1.117224974728e-03 
-8.719756485575e-04 1.796746755414e-04 0.0 
1.796746755414e-04 5.704231125349e-03 0.0 
0.0 0.0 -8.687609488834e-04 
-8.934000445298e-04 1.842629385947e-04 0.0 
1.842629385947e-04 5.848617048582e-03 0.0 
0.0 0.0 -8.891947744737e-04 
-3.538517022685e-04 1.968822651903e-04 0.0 
1.968822651903e-04 2.082939193951e-03 0.0 
0.0 0.0 -3.496852078947e-04 
-1.730179310379e-04 3.799515299487e-05 0.0 
3.799515299487e-05 9.814996314958e-04 0.0 
0.0 0.0 -1.610244214183e-04 
-6.605957920443e-04 2.008091445533e-04 0.0 
2.008091445533e-04 4.241664916870e-03 0.0 
0.0 0.0 -6.594106982652e-04 
-7.382500259092e-04 -1.861061436274e-04 0.0 
-1.861061436274e-04 4.870305797290e-03 0.0 
0.0 0.0 -7.376142925499e-04 
-6.935826622016e-04 -1.974963449897e-04 0.0 
-1.974963449897e-04 4.557561403421e-03 0.0 
0.0 0.0 -6.931905564144e-04 
-1.927200046455e-04 1.907407866213e-04 0.0 
1.907407866213e-04 9.362068114562e-04 0.0 
0.0 0.0 -1.839988823918e-04 
-8.553897316391e-04 7.952460625503e-05 0.0 
7.952460625503e-05 5.374666730048e-03 0.0 
0.0 0.0 -8.462285223656e-04 
-3.012637912477e-04 -1.970081127765e-04 0.0 
-1.970081127765e-04 1.826424334369e-03 0.0 
0.0 0.0 -2.972104253142e-04 
-4.320291499202e-04 1.924639625952e-04 0.0 
1.924639625952e-04 2.652618994648e-03 0.0 
0.0 0.0 -4.314049239902e-04 
-1.341153861134e-03 -1.132581839858e-07 0.0 
-1.132581839858e-07 8.854160665758e-03 0.0 
0.0 0.0 -1.341153861134e-03 
-9.735832254612e-04 -2.032109106710e-04 0.0 
-2.032109106710e-04 6.501326132665e-03 0.0 
0.0 0.0 -9.717687626070e-04 
-8.038658590279e-04 1.841151985618e-04 0.0 
1.841151985618e-04 5.090192522503e-03 0.0 
0.0 0.0 -7.790007367612e-04 
-2.263569738137e-04 1.412068244863e-04 0.0 
1.412068244863e-04 1.378581130634e-03 0.0 
0.0 0.0 -2.176483604987e-04 
-7.148393686400e-04 1.885377903274e-04 0.0 
1.885377903274e-04 4.617805235716e-03 0.0 
0.0 0.0 -7.126719623954e-04 
-6.583475203356e-04 -2.044658051723e-04 0.0 
-2.044658051723e-04 4.303955154821e-03 0.0 
0.0 0.0 -6.569982659716e-04 
-8.980808506786e-04 -1.936520147713e-04 0.0 
-1.936520147713e-04 5.958242186783e-03 0.0 
0.0 0.0 -8.940630110299e-04 
-1.327874025612e-03 4.012442722688e-05 0.0 
4.012442722688e-05 9.098102111315e-03 0.0 
0.0 0.0 -1.323832587333e-03 
-7.403554818969e-04 1.844120078152e-04 0.0 
1.844120078152e-04 4.792048619543e-03 0.0 
0.0 0.0 -7.366500567795e-04 
-8.545868996671e-04 -1.887615407860e-04 0.0 
-1.887615407860e-04 5.662533660862e-03 0.0 
0.0 0.0 -8.513774089097e-04 
-6.818667097911e-04 1.958766515699e-04 0.0 
1.958766515699e-04 4.409131248910e-03 0.0 
0.0 0.0 -6.837695253815e-04 
-1.105187862003e-03 1.994006530664e-04 0.0 
1.994006530664e-04 7.356411437885e-03 0.0 
0.0 0.0 -1.105258581891e-03 
-8.686753316721e-04 1.961023377174e-04 0.0 
1.961023377174e-04 5.708119835605e-03 0.0 
0.0 0.0 -8.691653677727e-04 
-1.313443091824e-03 -8.681857321593e-06 0.0 
-8.681857321593e-06 9.107589922997e-03 0.0 
0.0 0.0 -1.322174839672e-03 
-1.340103718614e-03 2.441833226492e-06 0.0 
2.441833226492e-06 8.842216911178e-03 0.0 
0.0 0.0 -1.340103718614e-03 
-1.341028575724e-03 -6.698781680331e-06 0.0 
-6.698781680331e-06 8.834191149721e-03 0.0 
0.0 0.0 -1.341028575724e-03 
-1.338044909071e-03 -9.989699658734e-07 0.0 
-9.989699658734e-07 8.789076720715e-03 0.0 
0.0 0.0 -1.338044909071e-03 
-9.278953530001e-04 1.830493215193e-04 0.0 
1.830493215193e-04 6.094694774967e-03 0.0 
0.0 0.0 -9.244680137507e-04 
-1.104382085207e-03 -1.844352853961e-04 0.0 
-1.844352853961e-04 7.413030585339e-03 0.0 
0.0 0.0 -1.103002250422e-03 
-1.150866030357e-03 2.083921581833e-04 0.0 
2.083921581833e-04 7.696092280171e-03 0.0 
0.0 0.0 -1.155914796392e-03 
-6.164628833105e-04 2.031183267964e-04 0.0 
2.031183267964e-04 3.927882065765e-03 0.0 
0.0 0.0 -6.147330147620e-04 
-5.911685103851e-04 1.997096464783e-04 0.0 
1.997096464783e-04 3.740736628945e-03 0.0 
0.0 0.0 -5.872917534094e-04 
-6.414807696811e-04 -2.006380451049e-04 0.0 
-2.006380451049e-04 4.218783169970e-03 0.0 
0.0 0.0 -6.436934073013e-04 
-1.134641282245e-03 -2.006695635977e-04 0.0 
-2.006695635977e-04 7.623716292157e-03 0.0 
0.0 0.0 -1.131852245309e-03 
-1.324500994006e-03 -4.966854021265e-06 0.0 
-4.966854021265e-06 9.095768239117e-03 0.0 
0.0 0.0 -1.322440284024e-03 
-1.140227253108e-03 1.951224764734e-04 0.0 
1.951224764734e-04 7.603009729401e-03 0.0 
0.0 0.0 -1.141180801552e-03 
-9.080174246261e-04 -2.037707256770e-04 0.0 
-2.037707256770e-04 6.042971740774e-03 0.0 
0.0 0.0 -9.063345769726e-04 
-1.140612365318e-03 -1.825914620366e-04 0.0 
-1.825914620366e-04 7.661221724928e-03 0.0 
0.0 0.0 -1.138864741757e-03 
-9.895587303989e-04 -1.909996709670e-04 0.0 
-1.909996709670e-04 6.631323534056e-03 0.0 
0.0 0.0 -9.903545940741e-04 
-7.055944550106e-04 1.841650505336e-04 0.0 
1.841650505336e-04 4.559451876543e-03 0.0 
0.0 0.0 -7.049739924763e-04 
-6.005001548621e-04 1.754924819421e-04 0.0 
1.754924819421e-04 3.808564972462e-03 0.0 
0.0 0.0 -5.967387615352e-04 
-3.335508235582e-04 1.892926381389e-04 0.0 
1.892926381389e-04 1.961394351476e-03 0.0 
0.0 0.0 -3.333553686509e-04 
-1.287482303742e-03 9.400486473720e-05 0.0 
9.400486473720e-05 8.494651886702e-03 0.0 
0.0 0.0 -1.282213402295e-03 
-5.782088747012e-04 1.983174571351e-04 0.0 
1.983174571351e-04 3.685190236892e-03 0.0 
0.0 0.0 -5.792479259103e-04 
-1.207490032650e-03 -9.511693616603e-06 0.0 
-9.511693616603e-06 8.106813054446e-03 0.0 
0.0 0.0 -1.230767059693e-03 
-6.442432414831e-04 1.944206160730e-04 0.0 
1.944206160730e-04 4.149320661563e-03 0.0 
0.0 0.0 -6.465396845166e-04 
-4.198574354174e-04 -1.824962637457e-04 0.0 
-1.824962637457e-04 2.680260699037e-03 0.0 
0.0 0.0 -4.222915044375e-04 
-1.273602229187e-03 4.336342551849e-05 0.0 
4.336342551849e-05 8.460076842639e-03 0.0 
0.0 0.0 -1.284312900220e-03 
-4.687866799151e-04 1.866875104872e-04 0.0 
1.866875104872e-04 2.893520146277e-03 0.0 
0.0 0.0 -4.669824892858e-04 
-1.341987455608e-03 1.886578995443e-06 0.0 
1.886578995443e-06 8.838362897947e-03 0.0 
0.0 0.0 -1.341987455608e-03 
-1.296411374061e-03 -1.418949515450e-05 0.0 
-1.418949515450e-05 8.470243795444e-03 0.0 
0.0 0.0 -1.282654109251e-03 
-8.495078228820e-04 1.843107655011e-04 0.0 
1.843107655011e-04 5.547072023185e-03 0.0 
0.0 0.0 -8.462542048450e-04 
-9.255048927816e-05 -2.197953205318e-06 0.0 
-2.197953205318e-06 3.085086574748e-04 0.0 
0.0 0.0 -9.255350065570e-05 
-1.340954708391e-03 7.835804962296e-06 0.0 
7.835804962296e-06 8.838032502772e-03 0.0 
0.0 0.0 -1.340954708391e-03 
-1.280816053348e-03 -2.230055523915e-05 0.0 
-2.230055523915e-05 8.460310632468e-03 0.0 
0.0 0.0 -1.284661450484e-03 
-4.260944399250e-04 1.999732540104e-04 0.0 
1.999732540104e-04 2.608418284960e-03 0.0 
0.0 0.0 -4.253660281670e-04 
-9.365021749047e-04 -1.977008719716e-04 0.0 
-1.977008719716e-04 6.250684752616e-03 0.0 
0.0 0.0 -9.353130867196e-04 
-1.333005063589e-03 4.344781136889e-06 0.0 
4.344781136889e-06 9.114671664273e-03 0.0 
0.0 0.0 -1.323014926434e-03 
0.0 0.0 0.0 
0.0 0.0 0.0 
0.0 0.0 0.0 
-6.428281947913e-04 1.843362204216e-04 0.0 
1.843362204216e-04 4.123262309836e-03 0.0 
0.0 0.0 -6.425506931502e-04 
-8.851411761515e-04 1.851869312966e-04 0.0 
1.851869312966e-04 5.794563189636e-03 0.0 
0.0 0.0 -8.816033652580e-04 
-8.134395165507e-04 1.874953040298e-04 0.0 
1.874953040298e-04 5.300126487808e-03 0.0 
0.0 0.0 -8.109139232486e-04 
-8.225202755535e-04 1.881518984198e-04 0.0 
1.881518984198e-04 5.356080317152e-03 0.0 
0.0 0.0 -8.186613860469e-04 
-3.691769062860e-04 1.916815065322e-04 0.0 
1.916815065322e-04 2.210779207524e-03 0.0 
0.0 0.0 -3.689119447714e-04 
-1.341360672448e-03 -1.189443720153e-06 0.0 
-1.189443720153e-06 8.827889647213e-03 0.0 
0.0 0.0 -1.341360672448e-03 
-6.134329689946e-04 -1.902359328294e-04 0.0 
-1.902359328294e-04 4.002222739953e-03 0.0 
0.0 0.0 -6.123778370826e-04 
-2.202070906780e-04 -1.755376406009e-04 0.0 
-1.755376406009e-04 1.255756531969e-03 0.0 
0.0 0.0 -2.173296945085e-04 
-1.279142293538e-03 5.964349300566e-05 0.0 
5.964349300566e-05 8.727032320364e-03 0.0 
0.0 0.0 -1.272354826527e-03 
-1.022272037246e-04 4.922820238372e-06 0.0 
4.922820238372e-06 5.965869288915e-04 0.0 
0.0 0.0 -1.019437782286e-04 
-6.710661406479e-04 1.855097177597e-04 0.0 
1.855097177597e-04 4.303579593448e-03 0.0 
0.0 0.0 -6.678899790657e-04 
-2.300720776572e-04 1.212201240613e-05 0.0 
1.212201240613e-05 1.125450156733e-03 0.0 
0.0 0.0 -2.365401520142e-04 
-7.086437154644e-04 1.853452857981e-04 0.0 
1.853452857981e-04 4.588815352963e-03 0.0 
0.0 0.0 -7.094882865497e-04 
-1.317968381893e-03 -7.788542654244e-06 0.0 
-7.788542654244e-06 9.086616382280e-03 0.0 
0.0 0.0 -1.321823097425e-03 
-1.341255375116e-03 6.592408687469e-06 0.0 
6.592408687469e-06 8.854311445215e-03 0.0 
0.0 0.0 -1.341255375116e-03 
-8.673920198819e-04 1.847071888204e-04 0.0 
1.847071888204e-04 5.656037287956e-03 0.0 
0.0 0.0 -8.613793510407e-04 
-1.969643249742e-04 -2.643595705593e-05 0.0 
-2.643595705593e-05 7.486662135306e-04 0.0 
0.0 0.0 -1.793976806842e-04 
-1.826266447966e-04 1.955672024510e-04 0.0 
1.955672024510e-04 9.200601904336e-04 0.0 
0.0 0.0 -1.838036673156e-04 
-2.361898229358e-04 4.404631865767e-05 0.0 
4.404631865767e-05 1.375633081646e-03 0.0 
0.0 0.0 -2.179364692381e-04 
-1.125162068454e-03 -1.979567048057e-04 0.0 
-1.979567048057e-04 7.560228932207e-03 0.0 
0.0 0.0 -1.121833217354e-03 
-7.703836607526e-04 2.904011669624e-05 0.0 
2.904011669624e-05 5.271332940567e-03 0.0 
0.0 0.0 -7.704300227928e-04 
-8.168157235620e-04 -2.113983721697e-04 0.0 
-2.113983721697e-04 5.355765378531e-03 0.0 
0.0 0.0 -8.109332722942e-04 
-1.342502730507e-03 5.716067361730e-06 0.0 
5.716067361730e-06 8.856705817959e-03 0.0 
0.0 0.0 -1.342502730507e-03 
-7.906151483404e-04 -4.272528123303e-05 0.0 
-4.272528123303e-05 5.268742702063e-03 0.0 
0.0 0.0 -7.720444664677e-04 
-1.332977220355e-03 1.682402604832e-05 0.0 
1.682402604832e-05 9.104707937730e-03 0.0 
0.0 0.0 -1.322852565091e-03 
-1.019613459442e-03 1.919320256201e-04 0.0 
1.919320256201e-04 6.758525883042e-03 0.0 
0.0 0.0 -1.020998643257e-03 
-8.942284646778e-04 2.014665993211e-04 0.0 
2.014665993211e-04 5.869620442183e-03 0.0 
0.0 0.0 -8.907448815977e-04 
-4.710891496910e-04 1.816013443133e-04 0.0 
1.816013443133e-04 2.782078830397e-03 0.0 
0.0 0.0 -4.477608806526e-04 
-9.397641453592e-04 1.905534962230e-04 0.0 
1.905534962230e-04 6.187842394577e-03 0.0 
0.0 0.0 -9.378661514434e-04 
-2.865699781098e-04 -1.698301048615e-04 0.0 
-1.698301048615e-04 1.797113955836e-03 0.0 
0.0 0.0 -2.938158648993e-04 
-1.340754991027e-03 -4.752011562157e-06 0.0 
-4.752011562157e-06 8.857728678543e-03 0.0 
0.0 0.0 -1.340754991027e-03 
-1.339984467612e-03 2.292869316743e-05 0.0 
2.292869316743e-05 8.807369741469e-03 0.0 
0.0 0.0 -1.339984467612e-03 
-1.340417744004e-03 -2.214851180425e-05 0.0 
-2.214851180425e-05 8.828867002772e-03 0.0 
0.0 0.0 -1.340417744004e-03 
-8.660623943402e-04 -1.943286950292e-04 0.0 
-1.943286950292e-04 5.772294168294e-03 0.0 
0.0 0.0 -8.666500598261e-04 
-6.034856013852e-04 -2.033011263199e-04 0.0 
-2.033011263199e-04 3.957936150372e-03 0.0 
0.0 0.0 -6.062238016986e-04 
-7.026976706331e-04 -1.815126947840e-04 0.0 
-1.815126947840e-04 4.627441659305e-03 0.0 
0.0 0.0 -7.021192356133e-04 
-8.976477462119e-04 1.951708788180e-04 0.0 
1.951708788180e-04 5.904473226514e-03 0.0 
0.0 0.0 -8.981573260837e-04 
-1.339627896631e-03 3.612108461992e-06 0.0 
3.612108461992e-06 8.853033835610e-03 0.0 
0.0 0.0 -1.339627896631e-03 
-4.295950600907e-04 -1.875952713054e-04 0.0 
-1.875952713054e-04 2.717501457664e-03 0.0 
0.0 0.0 -4.287941800800e-04 
-4.990450639494e-04 1.934485922333e-04 0.0 
1.934485922333e-04 3.125390132284e-03 0.0 
0.0 0.0 -4.991860405784e-04 
-5.285799076226e-04 1.852384275300e-04 0.0 
1.852384275300e-04 3.322934541718e-03 0.0 
0.0 0.0 -5.272458293186e-04 
-9.298142287186e-04 1.923659803104e-04 0.0 
1.923659803104e-04 6.128652270364e-03 0.0 
0.0 0.0 -9.279583942086e-04 
-1.339074735525e-03 -2.462351465060e-05 0.0 
-2.462351465060e-05 9.096799452257e-03 0.0 
0.0 0.0 -1.323537156312e-03 
-1.500618556416e-04 1.939391886362e-05 0.0 
1.939391886362e-05 9.791726158994e-04 0.0 
0.0 0.0 -1.598254822437e-04 
-1.340775759057e-03 1.534669228297e-06 0.0 
1.534669228297e-06 8.827931576809e-03 0.0 
0.0 0.0 -1.340775759057e-03 
-4.918224965486e-04 1.956179793808e-04 0.0 
1.956179793808e-04 3.063033243647e-03 0.0 
0.0 0.0 -4.905422085546e-04 
-1.342877878941e-03 2.842270727751e-06 0.0 
2.842270727751e-06 8.853936486152e-03 0.0 
0.0 0.0 -1.342877878941e-03 
-1.156184618631e-03 -1.885719150538e-04 0.0 
-1.885719150538e-04 7.774113329411e-03 0.0 
0.0 0.0 -1.152765850879e-03 
-4.494164570379e-05 1.000468586625e-06 0.0 
1.000468586625e-06 2.551504228595e-04 0.0 
0.0 0.0 -4.576175375704e-05 
-6.699730055747e-04 1.872361539573e-04 0.0 
1.872361539573e-04 4.302808495342e-03 0.0 
0.0 0.0 -6.690559060524e-04 
-1.145839910847e-03 -1.986902778568e-04 0.0 
-1.986902778568e-04 7.714207575352e-03 0.0 
0.0 0.0 -1.146019594970e-03 
-1.341220131281e-03 -2.365934969502e-06 0.0 
-2.365934969502e-06 8.847703773833e-03 0.0 
0.0 0.0 -1.341220131281e-03 
-9.256050002818e-04 -1.923147081747e-04 0.0 
-1.923147081747e-04 6.153846390776e-03 0.0 
0.0 0.0 -9.220067723808e-04 
-1.050351148173e-03 1.970429468760e-04 0.0 
1.970429468760e-04 6.958336458839e-03 0.0 
0.0 0.0 -1.049000704964e-03 
-2.748725954192e-04 1.931705696151e-04 0.0 
1.931705696151e-04 1.524979906539e-03 0.0 
0.0 0.0 -2.717413095444e-04 
-1.208683908170e-03 6.230383996261e-06 0.0 
6.230383996261e-06 8.102506712124e-03 0.0 
0.0 0.0 -1.228682347183e-03 
-5.192327213786e-04 1.909614988805e-04 0.0 
1.909614988805e-04 3.260562468968e-03 0.0 
0.0 0.0 -5.184025592846e-04 
-5.248109421633e-04 -1.803408309235e-04 0.0 
-1.803408309235e-04 3.388681347671e-03 0.0 
0.0 0.0 -5.242929400402e-04 
-1.101238409147e-04 1.624386361107e-05 0.0 
1.624386361107e-05 6.254833965552e-04 0.0 
0.0 0.0 -1.042847928631e-04 
-1.341079611575e-03 1.268157797444e-06 0.0 
1.268157797444e-06 8.837798036775e-03 0.0 
0.0 0.0 -1.341079611575e-03 
-3.602734137551e-04 -1.850324683020e-04 0.0 
-1.850324683020e-04 2.230825920775e-03 0.0 
0.0 0.0 -3.564518745397e-04 
-1.109985979917e-03 -2.052345426402e-04 0.0 
-2.052345426402e-04 7.476883123942e-03 0.0 
0.0 0.0 -1.110501492391e-03 
-8.524872272040e-04 -2.315298743519e-04 0.0 
-2.315298743519e-04 5.680178330686e-03 0.0 
0.0 0.0 -8.555322119248e-04 
-4.402194268269e-04 -1.870881911234e-04 0.0 
-1.870881911234e-04 2.811358430465e-03 0.0 
0.0 0.0 -4.411586999297e-04 
-4.975783628974e-04 -1.914562144175e-04 0.0 
-1.914562144175e-04 3.191209784275e-03 0.0 
0.0 0.0 -4.964677435772e-04 
-8.901378245668e-04 -1.873561009026e-04 0.0 
-1.873561009026e-04 5.908561179355e-03 0.0 
0.0 0.0 -8.867075537039e-04 
-1.342259935407e-03 -1.718040054209e-05 0.0 
-1.718040054209e-05 8.855152000548e-03 0.0 
0.0 0.0 -1.342259935407e-03 
-6.396775884645e-04 1.886079041491e-04 0.0 
1.886079041491e-04 4.098241029371e-03 0.0 
0.0 0.0 -6.378868265889e-04 
-9.691742763952e-04 -2.019742400056e-04 0.0 
-2.019742400056e-04 6.483311990656e-03 0.0 
0.0 0.0 -9.693340058278e-04 
-8.041747505047e-04 1.863000233207e-04 0.0 
1.863000233207e-04 5.244246416891e-03 0.0 
0.0 0.0 -8.030799362305e-04 
-8.818155169255e-04 -1.886653253936e-04 0.0 
-1.886653253936e-04 5.877887840043e-03 0.0 
0.0 0.0 -8.811160271665e-04 
-5.320000478192e-04 -1.863752187474e-04 0.0 
-1.863752187474e-04 3.439757636019e-03 0.0 
0.0 0.0 -5.326451291888e-04 
-9.026994633867e-04 -1.977891108898e-04 0.0 
-1.977891108898e-04 6.021154653626e-03 0.0 
0.0 0.0 -9.031726653527e-04 
-7.735880944809e-04 -1.868485495488e-04 0.0 
-1.868485495488e-04 5.115539884919e-03 0.0 
0.0 0.0 -7.729461360948e-04 
-9.981479559481e-04 -1.963805187542e-04 0.0 
-1.963805187542e-04 6.683666354433e-03 0.0 
0.0 0.0 -9.982497011217e-04 
-1.004413229733e-03 1.912127845263e-04 0.0 
1.912127845263e-04 6.639387752267e-03 0.0 
0.0 0.0 -1.003134534203e-03 
-7.686187780919e-04 1.863311149205e-04 0.0 
1.863311149205e-04 4.996748422869e-03 0.0 
0.0 0.0 -7.676694601592e-04 
-6.531466934909e-04 1.957558291536e-04 0.0 
1.957558291536e-04 4.207071568820e-03 0.0 
0.0 0.0 -6.551190094499e-04 
-4.645380568116e-04 -1.828907984747e-04 0.0 
-1.828907984747e-04 2.961721166152e-03 0.0 
0.0 0.0 -4.640097282922e-04 
-6.064572421459e-04 1.910285411048e-04 0.0 
1.910285411048e-04 3.887705448155e-03 0.0 
0.0 0.0 -6.091269606258e-04 
-1.019361563877e-03 -1.903039724259e-04 0.0 
-1.903039724259e-04 6.831244999586e-03 0.0 
0.0 0.0 -1.018204129641e-03 
-8.373723247002e-04 1.874174193606e-04 0.0 
1.874174193606e-04 5.476720692713e-03 0.0 
0.0 0.0 -8.365169925761e-04 
-1.320520432489e-03 -2.623800515080e-05 0.0 
-2.623800515080e-05 9.107403832922e-03 0.0 
0.0 0.0 -1.321929620191e-03 
-1.169515206127e-03 -1.894067828277e-04 0.0 
-1.894067828277e-04 7.912550107300e-03 0.0 
0.0 0.0 -1.174325249119e-03 
-4.054788487746e-04 1.902250889250e-04 0.0 
1.902250889250e-04 2.477005508033e-03 0.0 
0.0 0.0 -4.069995479128e-04 
-1.341047338368e-03 6.114097105083e-06 0.0 
6.114097105083e-06 8.810414551587e-03 0.0 
0.0 0.0 -1.341047338368e-03 
-1.246442799579e-03 -7.048165356659e-06 0.0 
-7.048165356659e-06 8.701531217890e-03 0.0 
0.0 0.0 -1.266414110344e-03 
-7.243231333996e-04 1.855217411942e-04 0.0 
1.855217411942e-04 4.688371918965e-03 0.0 
0.0 0.0 -7.237787631415e-04 
-9.766466055391e-05 -9.527665079689e-06 0.0 
-9.527665079689e-06 3.256739367154e-04 0.0 
0.0 0.0 -9.771826121206e-05 
-1.305508824941e-03 3.853404293035e-06 0.0 
3.853404293035e-06 9.105182867572e-03 0.0 
0.0 0.0 -1.323469717371e-03 
-1.171509388478e-03 -1.678154851060e-04 0.0 
-1.678154851060e-04 7.861802012676e-03 0.0 
0.0 0.0 -1.167157861819e-03 
-4.521694521813e-04 2.012915858519e-04 0.0 
2.012915858519e-04 2.804008720375e-03 0.0 
0.0 0.0 -4.535238702637e-04 
-1.341709311524e-03 -1.310979986686e-05 0.0 
-1.310979986686e-05 8.829628018658e-03 0.0 
0.0 0.0 -1.341709311524e-03 
-9.320413057689e-04 -1.962162649741e-04 0.0 
-1.962162649741e-04 6.231458751848e-03 0.0 
0.0 0.0 -9.325599965574e-04 
-6.268046795760e-04 1.808345467380e-04 0.0 
1.808345467380e-04 3.989844982223e-03 0.0 
0.0 0.0 -6.229492605273e-04 
-8.398341044081e-04 1.726875732325e-04 0.0 
1.726875732325e-04 5.514357495571e-03 0.0 
0.0 0.0 -8.408860858065e-04 
-8.060358487983e-04 -1.972435935582e-04 0.0 
-1.972435935582e-04 5.343400692596e-03 0.0 
0.0 0.0 -8.054665293395e-04 
-8.004419744920e-04 -1.952463938329e-04 0.0 
-1.952463938329e-04 5.314426112526e-03 0.0 
0.0 0.0 -8.008683130455e-04 
-9.182717976000e-04 -1.896493216883e-04 0.0 
-1.896493216883e-04 6.134019344383e-03 0.0 
0.0 0.0 -9.181754741429e-04 
-9.700343521080e-04 -1.978951788456e-04 0.0 
-1.978951788456e-04 6.510189924062e-03 0.0 
0.0 0.0 -9.721028620036e-04 
-6.977402691425e-04 1.822093202730e-04 0.0 
1.822093202730e-04 4.487185732323e-03 0.0 
0.0 0.0 -6.945885048819e-04 
-1.040005538332e-03 1.990021927621e-04 0.0 
1.990021927621e-04 6.900874594821e-03 0.0 
0.0 0.0 -1.039409037654e-03 
-8.975501320031e-04 -2.506583898402e-05 0.0 
-2.506583898402e-05 6.020256954513e-03 0.0 
0.0 0.0 -8.839498032872e-04 
-6.495260709226e-04 -1.944699442282e-04 0.0 
-1.944699442282e-04 4.277277504375e-03 0.0 
0.0 0.0 -6.521967345917e-04 
-9.682052284533e-04 1.865606736299e-04 0.0 
1.865606736299e-04 6.381518702333e-03 0.0 
0.0 0.0 -9.664699797409e-04 
-5.143750252182e-04 -1.778295084176e-04 0.0 
-1.778295084176e-04 3.324024151635e-03 0.0 
0.0 0.0 -5.155438399970e-04 
-9.088890292892e-04 1.918794185100e-04 0.0 
1.918794185100e-04 5.978978740211e-03 0.0 
0.0 0.0 -9.093720595694e-04 
-5.184917320349e-05 -5.023579163672e-06 0.0 
-5.023579163672e-06 2.615427770040e-04 0.0 
0.0 0.0 -4.585464485956e-05 
-5.019069719293e-04 -1.730390890632e-04 0.0 
-1.730390890632e-04 3.221983585288e-03 0.0 
0.0 0.0 -4.997308803768e-04 
-4.873333685603e-04 -1.811613926647e-04 0.0 
-1.811613926647e-04 3.131270652529e-03 0.0 
0.0 0.0 -4.875765080988e-04 
-7.115036268068e-04 1.928847685251e-04 0.0 
1.928847685251e-04 4.611615726792e-03 0.0 
0.0 0.0 -7.126562430122e-04 
-7.596608402965e-04 1.884583179831e-04 0.0 
1.884583179831e-04 4.937228765552e-03 0.0 
0.0 0.0 -7.595228636782e-04 
-9.346957466832e-04 1.973754267299e-04 0.0 
1.973754267299e-04 6.167461615292e-03 0.0 
0.0 0.0 -9.350600278798e-04 
-8.902631525082e-04 -1.867681813360e-04 0.0 
-1.867681813360e-04 5.973122971149e-03 0.0 
0.0 0.0 -8.962969588583e-04 
-4.491438895743e-04 -1.869760147927e-04 0.0 
-1.869760147927e-04 2.875737731611e-03 0.0 
0.0 0.0 -4.505554202764e-04 
-1.341827844788e-03 5.881319465520e-06 0.0 
5.881319465520e-06 8.853598786661e-03 0.0 
0.0 0.0 -1.341827844788e-03 
-8.819043585379e-04 -1.894669265130e-04 0.0 
-1.894669265130e-04 5.856756576790e-03 0.0 
0.0 0.0 -8.789935771182e-04 
-7.395748600620e-04 1.939731217689e-04 0.0 
1.939731217689e-04 4.808423671935e-03 0.0 
0.0 0.0 -7.413896480605e-04 
-8.456344442179e-04 -1.866159444842e-04 0.0 
-1.866159444842e-04 5.609212261315e-03 0.0 
0.0 0.0 -8.436662038215e-04 
-7.098621749807e-04 -1.956105885316e-04 0.0 
-1.956105885316e-04 4.679646247114e-03 0.0 
0.0 0.0 -7.098625721847e-04 
0.0 0.0 0.0 
0.0 0.0 0.0 
0.0 0.0 0.0 
-8.787853985481e-04 -1.870345829221e-04 0.0 
-1.870345829221e-04 5.815290073788e-03 0.0 
0.0 0.0 -8.733545218784e-04 
-6.014622352257e-04 2.088026922776e-04 0.0 
2.088026922776e-04 3.826503758406e-03 0.0 
0.0 0.0 -5.956302995864e-04 
0.0 0.0 0.0 
0.0 0.0 0.0 
0.0 0.0 0.0 
-7.014361857610e-04 2.031970023559e-04 0.0 
2.031970023559e-04 4.544280328863e-03 0.0 
0.0 0.0 -7.041275119738e-04 
-1.001578329479e-03 1.949348082252e-04 0.0 
1.949348082252e-04 6.625301000395e-03 0.0 
0.0 0.0 -1.001254648526e-03 
-1.145850176714e-03 1.952473198253e-04 0.0 
1.952473198253e-04 7.640587141445e-03 0.0 
0.0 0.0 -1.146946825052e-03 
-8.534899184108e-04 -1.900750659178e-04 0.0 
-1.900750659178e-04 5.682294137052e-03 0.0 
0.0 0.0 -8.532270185794e-04 
-8.843005196867e-04 1.891738523443e-04 0.0 
1.891738523443e-04 5.802847869315e-03 0.0 
0.0 0.0 -8.841559964380e-04 
-7.498668879057e-04 -1.500423199850e-04 0.0 
-1.500423199850e-04 4.956000169468e-03 0.0 
0.0 0.0 -7.495231765994e-04 
-7.499562203702e-04 -7.649065135860e-06 0.0 
-7.649065135860e-06 4.585920683461e-03 0.0 
0.0 0.0 -7.312625299843e-04 
-1.259814766287e-03 -2.251942805186e-05 0.0 
-2.251942805186e-05 8.482919934012e-03 0.0 
0.0 0.0 -1.286111585339e-03 
-8.096577215198e-04 -1.889624871780e-04 0.0 
-1.889624871780e-04 5.361431513159e-03 0.0 
0.0 0.0 -8.082854548548e-04 
-2.601123029567e-05 -8.443429959233e-06 0.0 
-8.443429959233e-06 2.242861713756e-04 0.0 
0.0 0.0 -4.535587742227e-05 
-2.679801948708e-04 -1.979252069441e-04 0.0 
-1.979252069441e-04 1.544873028567e-03 0.0 
0.0 0.0 -2.569639750501e-04 
-9.553383276932e-05 -1.682092997359e-05 0.0 
-1.682092997359e-05 3.188442541893e-04 0.0 
0.0 0.0 -9.570446632286e-05 
-4.265759374031e-04 -1.588061750622e-04 0.0 
-1.588061750622e-04 2.743578014403e-03 0.0 
0.0 0.0 -4.284133232656e-04 
-1.136810990824e-03 -2.050532392672e-04 0.0 
-2.050532392672e-04 7.627868260152e-03 0.0 
0.0 0.0 -1.134523071099e-03 
-1.147232605264e-03 -1.988471843745e-04 0.0 
-1.988471843745e-04 7.696346442353e-03 0.0 
0.0 0.0 -1.144649651339e-03 
-1.090721102207e-03 1.927119379256e-04 0.0 
1.927119379256e-04 7.225314130525e-03 0.0 
0.0 0.0 -1.087427768671e-03 
-4.794185500659e-04 -1.949320750668e-04 0.0 
-1.949320750668e-04 3.096205477872e-03 0.0 
0.0 0.0 -4.827803379924e-04 
-9.064466102036e-04 -1.951694302266e-04 0.0 
-1.951694302266e-04 6.052913189119e-03 0.0 
0.0 0.0 -9.063168105749e-04 
-1.135504702689e-03 1.907792817819e-04 0.0 
1.907792817819e-04 7.600364314815e-03 0.0 
0.0 0.0 -1.142106164842e-03 
-2.788698608247e-04 -1.715069773272e-04 0.0 
-1.715069773272e-04 1.706769297964e-03 0.0 
0.0 0.0 -2.821198837983e-04 
-5.962549057610e-04 -2.242943986440e-04 0.0 
-2.242943986440e-04 3.850260609285e-03 0.0 
0.0 0.0 -5.942115541274e-04 
-4.821057558984e-04 1.938812463926e-04 0.0 
1.938812463926e-04 3.093517382698e-03 0.0 
0.0 0.0 -4.980019828625e-04 
-1.334956243324e-03 1.593537991859e-05 0.0 
1.593537991859e-05 9.100113722888e-03 0.0 
0.0 0.0 -1.322396863610e-03 
-1.341641872583e-03 -1.598087186621e-05 0.0 
-1.598087186621e-05 8.845353034364e-03 0.0 
0.0 0.0 -1.341641872583e-03 
-6.679494605950e-04 -1.695756001759e-04 0.0 
-1.695756001759e-04 4.277020538631e-03 0.0 
0.0 0.0 -6.580288049735e-04 
-7.324961324261e-04 -1.951613493015e-04 0.0 
-1.951613493015e-04 4.877737690436e-03 0.0 
0.0 0.0 -7.385580096348e-04 
-8.320090833607e-04 1.945702263429e-04 0.0 
1.945702263429e-04 5.445258436908e-03 0.0 
0.0 0.0 -8.323457052078e-04 
-1.163041303964e-03 1.778772476613e-04 0.0 
1.778772476613e-04 7.881722024609e-03 0.0 
0.0 0.0 -1.177278300149e-03 
-2.899237030429e-04 1.996200503925e-04 0.0 
1.996200503925e-04 1.630038568431e-03 0.0 
0.0 0.0 -2.880367495917e-04 
-1.101530990218e-03 1.937554819912e-04 0.0 
1.937554819912e-04 7.342981690998e-03 0.0 
0.0 0.0 -1.104707344597e-03 
-1.602377275387e-04 3.299975488637e-05 0.0 
3.299975488637e-05 1.021185104458e-03 0.0 
0.0 0.0 -1.612556504808e-04 
-6.771993620364e-04 -1.961964403491e-04 0.0 
-1.961964403491e-04 4.422374575330e-03 0.0 
0.0 0.0 -6.724657308136e-04 
-7.463531003114e-04 -1.974750822580e-04 0.0 
-1.974750822580e-04 4.938620865557e-03 0.0 
0.0 0.0 -7.470513223636e-04 
-9.733051936627e-05 1.431354683513e-05 0.0 
1.431354683513e-05 3.247181541802e-04 0.0 
0.0 0.0 -9.745184349170e-05 
-6.107893375517e-04 1.961955655378e-04 0.0 
1.961955655378e-04 4.041501780348e-03 0.0 
0.0 0.0 -6.267591816330e-04 
-1.179150888516e-03 1.722766776771e-04 0.0 
1.722766776771e-04 7.845621701176e-03 0.0 
0.0 0.0 -1.176862138969e-03 
-5.380435756070e-05 -4.751466869154e-06 0.0 
-4.751466869154e-06 2.532858114077e-04 0.0 
0.0 0.0 -4.590328595372e-05 
-7.312532489837e-04 1.362386611749e-05 0.0 
1.362386611749e-05 4.573834094121e-03 0.0 
0.0 0.0 -7.322753781719e-04 
-7.047922472484e-04 1.123922026685e-06 0.0 
1.123922026685e-06 4.847576831705e-03 0.0 
0.0 0.0 -7.130472889423e-04 
-9.547380700052e-04 -1.945366017599e-04 0.0 
-1.945366017599e-04 6.390005998802e-03 0.0 
0.0 0.0 -9.552000144736e-04 
-4.877659469443e-04 -1.909239420501e-04 0.0 
-1.909239420501e-04 3.137535928941e-03 0.0 
0.0 0.0 -4.943513106837e-04 
-4.803168808599e-04 1.981666947029e-04 0.0 
1.981666947029e-04 2.999843219209e-03 0.0 
0.0 0.0 -4.817493388239e-04 
-3.413576717745e-04 -1.696251700452e-04 0.0 
-1.696251700452e-04 2.103971295735e-03 0.0 
0.0 0.0 -3.398054741319e-04 
-1.177842708252e-03 1.745516882076e-04 0.0 
1.745516882076e-04 7.866046843566e-03 0.0 
0.0 0.0 -1.180895453064e-03 
-1.288113258455e-03 -7.910099866539e-06 0.0 
-7.910099866539e-06 8.468043511099e-03 0.0 
0.0 0.0 -1.286194385238e-03 
-1.101033919243e-03 -1.960948394900e-04 0.0 
-1.960948394900e-04 7.394725323298e-03 0.0 
0.0 0.0 -1.101088927253e-03 
-4.503494869687e-04 -1.637033152419e-04 0.0 
-1.637033152419e-04 2.832512250195e-03 0.0 
0.0 0.0 -4.457015571677e-04 
-2.141424004700e-04 2.387020000876e-04 0.0 
2.387020000876e-04 9.652683007768e-04 0.0 
0.0 0.0 -1.905831712289e-04 
-7.028954825784e-04 -1.797251013726e-04 0.0 
-1.797251013726e-04 4.605141056062e-03 0.0 
0.0 0.0 -6.999131133628e-04 
-7.213924053117e-04 -5.563189410969e-07 0.0 
-5.563189410969e-07 4.593100885078e-03 0.0 
0.0 0.0 -7.345111139194e-04 
-7.221802994753e-04 -3.459116523938e-05 0.0 
-3.459116523938e-05 4.860709319501e-03 0.0 
0.0 0.0 -7.144802219087e-04 
0.0 0.0 0.0 
0.0 0.0 0.0 
0.0 0.0 0.0 
-9.462674636507e-05 9.391315588563e-06 0.0 
9.391315588563e-06 3.155479012844e-04 0.0 
0.0 0.0 -9.468049496542e-05 
-1.889846684321e-04 -5.120829147058e-05 0.0 
-5.120829147058e-05 7.312686420689e-04 0.0 
0.0 0.0 -1.795416262981e-04 
-3.813293178289e-04 1.993773121019e-04 0.0 
1.993773121019e-04 2.301443442693e-03 0.0 
0.0 0.0 -3.820941496288e-04 
-1.147287239146e-04 2.233479330491e-06 0.0 
2.233479330491e-06 6.267336868549e-04 0.0 
0.0 0.0 -1.035694276016e-04 
-7.177698882455e-04 1.875976177193e-04 0.0 
1.875976177193e-04 4.537921580666e-03 0.0 
0.0 0.0 -6.918148876825e-04 
0.0 0.0 0.0 
0.0 0.0 0.0 
0.0 0.0 0.0 
-4.466789787724e-04 2.025807610901e-04 0.0 
2.025807610901e-04 2.763058809203e-03 0.0 
0.0 0.0 -4.482372226011e-04 
-9.484602570363e-04 5.937741420751e-05 0.0 
5.937741420751e-05 6.186307546056e-03 0.0 
0.0 0.0 -9.582560723523e-04 
-7.114040901391e-04 1.008097673964e-05 0.0 
1.008097673964e-05 4.858827396879e-03 0.0 
0.0 0.0 -7.120344407548e-04 
-1.154819602250e-03 -2.018660896655e-04 0.0 
-2.018660896655e-04 7.854075905782e-03 0.0 
0.0 0.0 -1.169483110168e-03 
-9.636351090390e-04 1.953512484906e-04 0.0 
1.953512484906e-04 6.363047776900e-03 0.0 
0.0 0.0 -9.641449249716e-04 
-9.024629704431e-04 7.830558015861e-05 0.0 
7.830558015861e-05 5.773999043953e-03 0.0 
0.0 0.0 -8.988447104697e-04 
-5.248669465082e-04 2.030027087804e-04 0.0 
2.030027087804e-04 3.352814556998e-03 0.0 
0.0 0.0 -5.269378630653e-04 
-1.557908844091e-04 -1.426598337885e-05 0.0 
-1.426598337885e-05 1.017280518651e-03 0.0 
0.0 0.0 -1.602995255322e-04 
-1.340974968048e-03 -2.076763454680e-05 0.0 
-2.076763454680e-05 8.825339797415e-03 0.0 
0.0 0.0 -1.340974968048e-03 
-1.331740677566e-03 -1.067318438911e-06 0.0 
-1.067318438911e-06 9.107204473734e-03 0.0 
0.0 0.0 -1.320295381545e-03 
-8.482992821085e-04 2.310186269771e-04 0.0 
2.310186269771e-04 5.616583664962e-03 0.0 
0.0 0.0 -8.588387843224e-04 
-7.462574470129e-04 -7.506809615044e-06 0.0 
-7.506809615044e-06 4.590636784032e-03 0.0 
0.0 0.0 -7.326073368541e-04 
-5.251543525857e-04 -1.205978746023e-04 0.0 
-1.205978746023e-04 3.428806267578e-03 0.0 
0.0 0.0 -5.314511797787e-04 
-1.323491096028e-03 -2.283744003803e-05 0.0 
-2.283744003803e-05 9.085754239402e-03 0.0 
0.0 0.0 -1.322576402756e-03 
-4.157468964118e-04 -1.918553564634e-04 0.0 
-1.918553564634e-04 2.636700862140e-03 0.0 
0.0 0.0 -4.166600706249e-04 
-7.057672473389e-04 -4.164103403237e-06 0.0 
-4.164103403237e-06 4.837446989167e-03 0.0 
0.0 0.0 -7.125614225629e-04 
-7.131316839303e-04 7.226971892558e-06 0.0 
7.226971892558e-06 4.584933787265e-03 0.0 
0.0 0.0 -7.312775522649e-04 
-6.769264019625e-04 1.800240141216e-04 0.0 
1.800240141216e-04 4.359211225872e-03 0.0 
0.0 0.0 -6.755779900756e-04 
-1.341823989366e-03 -1.865391509117e-05 0.0 
-1.865391509117e-05 8.857424336763e-03 0.0 
0.0 0.0 -1.341823989366e-03 
-1.293765856573e-03 1.607380559243e-05 0.0 
1.607380559243e-05 9.094492997413e-03 0.0 
0.0 0.0 -1.322582685247e-03 
-1.126722208426e-04 6.998488737266e-06 0.0 
6.998488737266e-06 6.134703062313e-04 0.0 
0.0 0.0 -1.035688293187e-04 
0.0 0.0 0.0 
0.0 0.0 0.0 
0.0 0.0 0.0 
-2.390355384623e-04 1.936491639953e-04 0.0 
1.936491639953e-04 1.192457136132e-03 0.0 
0.0 0.0 -2.221130066924e-04 
-7.484754656573e-04 1.958621454920e-04 0.0 
1.958621454920e-04 4.871290639516e-03 0.0 
0.0 0.0 -7.497705102653e-04 
-1.223848934685e-03 2.347738204731e-04 0.0 
2.347738204731e-04 8.231542695031e-03 0.0 
0.0 0.0 -1.224669017856e-03 
-3.851215442265e-05 -6.758275575601e-05 0.0 
-6.758275575601e-05 2.149841041377e-04 0.0 
0.0 0.0 -4.506945562690e-05 
-1.095035538177e-03 -2.135230687797e-04 0.0 
-2.135230687797e-04 7.297496536284e-03 0.0 
0.0 0.0 -1.092518628633e-03 
0.0 0.0 0.0 
0.0 0.0 0.0 
0.0 0.0 0.0 
-9.497696422961e-04 1.942166615206e-04 0.0 
1.942166615206e-04 6.260470679264e-03 0.0 
0.0 0.0 -9.493083249531e-04 
-6.288110034417e-05 6.701081411341e-06 0.0 
6.701081411341e-06 2.758850751309e-04 0.0 
0.0 0.0 -4.591043399907e-05 
-6.241905191399e-05 -2.511621330185e-05 0.0 
-2.511621330185e-05 2.635940123717e-04 0.0 
0.0 0.0 -4.615290204994e-05 
-9.135771074388e-04 1.942985431381e-04 0.0 
1.942985431381e-04 6.003773453710e-03 0.0 
0.0 0.0 -9.122568895951e-04 
-1.191044637578e-03 1.954606753198e-04 0.0 
1.954606753198e-04 7.975629465802e-03 0.0 
0.0 0.0 -1.192963836147e-03 
-9.353430265023e-04 -9.437658603161e-05 0.0 
-9.437658603161e-05 6.401376295666e-03 0.0 
0.0 0.0 -9.361271490834e-04 
-7.292657224304e-04 -1.767865209210e-04 0.0 
-1.767865209210e-04 4.795789678295e-03 0.0 
0.0 0.0 -7.268406435589e-04 
-9.710718174905e-05 -1.358771368788e-05 0.0 
-1.358771368788e-05 3.239463226279e-04 0.0 
0.0 0.0 -9.721677466237e-05 
-9.353638871598e-04 -1.962742580692e-04 0.0 
-1.962742580692e-04 6.250401807132e-03 0.0 
0.0 0.0 -9.349022313484e-04 
-1.337797817327e-03 -2.530827551252e-05 0.0 
-2.530827551252e-05 8.814034455446e-03 0.0 
0.0 0.0 -1.337797817327e-03 
-1.326036287352e-03 -1.455315038832e-04 0.0 
-1.455315038832e-04 9.082015863419e-03 0.0 
0.0 0.0 -1.322354755130e-03 
-7.123437340294e-04 1.173862101604e-05 0.0 
1.173862101604e-05 4.855322276952e-03 0.0 
0.0 0.0 -7.125764448434e-04 
-9.860203699540e-04 1.899915039947e-04 0.0 
1.899915039947e-04 6.516626141221e-03 0.0 
0.0 0.0 -9.863757069361e-04 
-1.341607717199e-03 1.356557150840e-05 0.0 
1.356557150840e-05 8.840587029738e-03 0.0 
0.0 0.0 -1.341607717199e-03 
-1.048314093038e-03 -2.082351981232e-04 0.0 
-2.082351981232e-04 7.019832661667e-03 0.0 
0.0 0.0 -1.046710270629e-03 
-1.675301838823e-04 4.109428891396e-05 0.0 
4.109428891396e-05 9.648536059596e-04 0.0 
0.0 0.0 -1.589907658001e-04 
-1.067672517152e-04 -9.583258243013e-06 0.0 
-9.583258243013e-06 6.200113654204e-04 0.0 
0.0 0.0 -1.029725306715e-04 
-1.028842676796e-04 -4.314994342249e-05 0.0 
-4.314994342249e-05 3.453649952318e-04 0.0 
0.0 0.0 -1.039203118081e-04 
-5.871622493136e-04 1.953666188975e-04 0.0 
1.953666188975e-04 3.814212399553e-03 0.0 
0.0 0.0 -5.933358154923e-04 
-1.333672766825e-03 -1.202212504053e-04 0.0 
-1.202212504053e-04 9.086271765214e-03 0.0 
0.0 0.0 -1.322828574513e-03 
-1.249098589656e-03 -2.325383237370e-04 0.0 
-2.325383237370e-04 8.487130897030e-03 0.0 
0.0 0.0 -1.258329778789e-03 
0.0 0.0 0.0 
0.0 0.0 0.0 
0.0 0.0 0.0 
-6.989700289776e-04 -1.857489314676e-04 0.0 
-1.857489314676e-04 4.509333602690e-03 0.0 
0.0 0.0 -6.938761155152e-04 
-1.344798314370e-03 5.494387484636e-06 0.0 
5.494387484636e-06 8.860415151620e-03 0.0 
0.0 0.0 -1.344798314369e-03 
-1.337322942170e-03 3.677431177348e-05 0.0 
3.677431177348e-05 9.118625106116e-03 0.0 
0.0 0.0 -1.318785251170e-03 
-1.303755075695e-03 1.430690451396e-06 0.0 
1.430690451396e-06 9.096198326928e-03 0.0 
0.0 0.0 -1.321151187552e-03 
-1.034449558172e-03 2.142439693304e-04 0.0 
2.142439693304e-04 6.840882471351e-03 0.0 
0.0 0.0 -1.027148381742e-03 
-1.117879717661e-03 -2.162737768218e-04 0.0 
-2.162737768218e-04 7.549121072968e-03 0.0 
0.0 0.0 -1.125709525796e-03 
-1.338030260144e-03 -6.968280175092e-06 0.0 
-6.968280175092e-06 8.819304319896e-03 0.0 
0.0 0.0 -1.338030260144e-03 
-1.340754991027e-03 -2.793160050155e-05 0.0 
-2.793160050155e-05 8.842227493663e-03 0.0 
0.0 0.0 -1.340754991027e-03 
-1.084387157107e-03 1.756228747117e-04 0.0 
1.756228747117e-04 7.304356114432e-03 0.0 
0.0 0.0 -1.092518628633e-03 
-2.311762207506e-05 7.524747598181e-05 0.0 
7.524747598181e-05 1.841595127813e-04 0.0 
0.0 0.0 -4.541545915403e-05 
-7.129930244863e-04 -1.525724794926e-06 0.0 
-1.525724794926e-06 4.814692496190e-03 0.0 
0.0 0.0 -7.139539158865e-04 
-7.213897068280e-04 3.016260299788e-05 0.0 
3.016260299788e-05 4.878464797693e-03 0.0 
0.0 0.0 -7.133642253441e-04 
0.0 0.0 0.0 
0.0 0.0 0.0 
0.0 0.0 0.0 
-1.342313591240e-03 1.055329185635e-05 0.0 
1.055329185635e-05 8.873951644271e-03 0.0 
0.0 0.0 -1.342313591240e-03 
-1.336661786255e-03 2.540411115345e-05 0.0 
2.540411115345e-05 9.107640988403e-03 0.0 
0.0 0.0 -1.318355947622e-03 
-1.337959751097e-03 6.489046299365e-07 0.0 
6.489046299365e-07 8.814031058647e-03 0.0 
0.0 0.0 -1.337959751097e-03 
-6.887950874113e-05 7.326700540917e-06 0.0 
7.326700540917e-06 2.659430667850e-04 0.0 
0.0 0.0 -4.582974829071e-05 
-7.021790639444e-05 9.602649528375e-06 0.0 
9.602649528375e-06 2.736498867396e-04 0.0 
0.0 0.0 -4.591370119938e-05 
-1.340754991027e-03 -1.163411170896e-06 0.0 
-1.163411170896e-06 8.829041487509e-03 0.0 
0.0 0.0 -1.340754991027e-03 
-1.340396196526e-03 -2.044778395464e-05 0.0 
-2.044778395464e-05 8.820055094331e-03 0.0 
0.0 0.0 -1.340396196526e-03 
-1.016763022878e-03 -2.313272643619e-04 0.0 
-2.313272643619e-04 6.613286649783e-03 0.0 
0.0 0.0 -9.936726122374e-04 
-7.156761650400e-04 3.174630435060e-05 0.0 
3.174630435060e-05 4.813106322843e-03 0.0 
0.0 0.0 -7.124851972278e-04 
-1.051691578887e-03 -2.268729750207e-04 0.0 
-2.268729750207e-04 7.069453692283e-03 0.0 
0.0 0.0 -1.060142436171e-03 
-8.856361613045e-04 -2.246794552561e-04 0.0 
-2.246794552561e-04 5.656932423438e-03 0.0 
0.0 0.0 -8.626607521899e-04 
-6.974461573381e-04 1.315776503869e-05 0.0 
1.315776503869e-05 4.815685979733e-03 0.0 
0.0 0.0 -7.121912678902e-04 
-3.076401957545e-05 3.630205513196e-05 0.0 
3.630205513196e-05 2.492584121326e-04 0.0 
0.0 0.0 -4.495577515415e-05 
-4.859098010828e-05 -3.737210181655e-05 0.0 
-3.737210181655e-05 2.860304098853e-04 0.0 
0.0 0.0 -4.591167563965e-05 
-3.185160578265e-05 -1.142237180328e-05 0.0 
-1.142237180328e-05 2.469612253318e-04 0.0 
0.0 0.0 -4.589015575604e-05 
-4.731421252786e-05 -1.226097571205e-05 0.0 
-1.226097571205e-05 2.659450080892e-04 0.0 
0.0 0.0 -4.556578909549e-05 
-7.410966517881e-04 2.317413733405e-04 0.0 
2.317413733405e-04 4.761489269815e-03 0.0 
0.0 0.0 -7.271325101417e-04 
-6.567236663823e-04 2.031409226007e-04 0.0 
2.031409226007e-04 4.278704049819e-03 0.0 
0.0 0.0 -6.600769387058e-04 
0.0 0.0 0.0 
0.0 0.0 0.0 
0.0 0.0 0.0 
-9.198692932468e-04 2.207519103490e-04 0.0 
2.207519103490e-04 6.164531821473e-03 0.0 
0.0 0.0 -9.221709323543e-04 
0.0 0.0 0.0 
0.0 0.0 0.0 
0.0 0.0 0.0 
-1.341471640605e-03 5.425770365484e-06 0.0 
5.425770365484e-06 8.820837432317e-03 0.0 
0.0 0.0 -1.341471640605e-03 
-1.340968685557e-03 1.249741243797e-05 0.0 
1.249741243797e-05 8.807656416615e-03 0.0 
0.0 0.0 -1.340968685557e-03 
-1.339320413496e-03 -6.736119072725e-06 0.0 
-6.736119072725e-06 8.832654043149e-03 0.0 
0.0 0.0 -1.339320413496e-03 
-2.516213945074e-04 2.377641770175e-04 0.0 
2.377641770175e-04 1.477950192533e-03 0.0 
0.0 0.0 -2.599136149544e-04 
-4.499622910387e-04 2.064665423492e-04 0.0 
2.064665423492e-04 2.879856921820e-03 0.0 
0.0 0.0 -4.607467809507e-04 
-1.337132911908e-03 -4.793528436987e-06 0.0 
-4.793528436987e-06 8.820087587172e-03 0.0 
0.0 0.0 -1.337132911908e-03 
-1.120160542764e-03 1.885503644174e-04 0.0 
1.885503644174e-04 7.560722239950e-03 0.0 
0.0 0.0 -1.124956933753e-03 
-1.344556937803e-03 -2.104246713843e-05 0.0 
-2.104246713843e-05 8.860523593132e-03 0.0 
0.0 0.0 -1.344556937803e-03 
-1.195658010449e-03 2.008624552428e-04 0.0 
2.008624552428e-04 8.028011251528e-03 0.0 
0.0 0.0 -1.192538251246e-03 
-1.264541089761e-03 2.315838415429e-04 0.0 
2.315838415429e-04 8.498729307699e-03 0.0 
0.0 0.0 -1.259905836238e-03 
-6.219774932840e-04 -2.035330289392e-04 0.0 
-2.035330289392e-04 4.041759494414e-03 0.0 
0.0 0.0 -6.267460875326e-04 
-1.333336577702e-03 -3.290028368550e-05 0.0 
-3.290028368550e-05 9.106230716714e-03 0.0 
0.0 0.0 -1.318101597465e-03 
-1.336001964470e-03 1.162172730561e-04 0.0 
1.162172730561e-04 9.090958479552e-03 0.0 
0.0 0.0 -1.321689849711e-03 
-1.157015842751e-03 -2.064363215115e-04 0.0 
-2.064363215115e-04 7.737243073859e-03 0.0 
0.0 0.0 -1.157495185000e-03 
-1.229671491752e-03 -2.051129200289e-04 0.0 
-2.051129200289e-04 8.228478437854e-03 0.0 
0.0 0.0 -1.225777420818e-03 
-9.871372975694e-04 -1.866548184672e-04 0.0 
-1.866548184672e-04 6.644402027939e-03 0.0 
0.0 0.0 -9.925156490314e-04 
0.0 0.0 0.0 
0.0 0.0 0.0 
0.0 0.0 0.0 
-6.525071487266e-04 -2.022287068405e-04 0.0 
-2.022287068405e-04 4.165983179946e-03 0.0 
0.0 0.0 -6.350241097613e-04 
-1.062777711570e-04 -2.500028508481e-05 0.0 
-2.500028508481e-05 5.975407209184e-04 0.0 
0.0 0.0 -1.030398215525e-04 
-1.177532662352e-03 -1.733616004669e-04 0.0 
-1.733616004669e-04 7.926724853394e-03 0.0 
0.0 0.0 -1.177819030284e-03 
-6.744770170929e-04 1.928269940394e-04 0.0 
1.928269940394e-04 4.352241427477e-03 0.0 
0.0 0.0 -6.753691525988e-04 
-1.095781442937e-03 1.863762097668e-04 0.0 
1.863762097668e-04 7.297090200674e-03 0.0 
0.0 0.0 -1.099016898379e-03 
-3.528730048210e-04 -1.946361167359e-04 0.0 
-1.946361167359e-04 2.176757571714e-03 0.0 
0.0 0.0 -3.504775146279e-04 
-1.550760112037e-04 1.206598951615e-04 0.0 
1.206598951615e-04 7.508446244136e-04 0.0 
0.0 0.0 -1.735952156319e-04 
-1.160601579575e-03 -1.894710886425e-04 0.0 
-1.894710886425e-04 7.820833929290e-03 0.0 
0.0 0.0 -1.161668299909e-03 
-6.889768412053e-04 -1.975061828768e-04 0.0 
-1.975061828768e-04 4.617261067584e-03 0.0 
0.0 0.0 -7.012080445024e-04 
-5.762009062567e-04 2.005988488918e-04 0.0 
2.005988488918e-04 3.584897669436e-03 0.0 
0.0 0.0 -5.611363230934e-04 
-1.093490207039e-03 -1.909491051748e-04 0.0 
-1.909491051748e-04 7.367841895943e-03 0.0 
0.0 0.0 -1.096102707776e-03 
-1.178635420303e-03 1.949598249273e-04 0.0 
1.949598249273e-04 7.912911661083e-03 0.0 
0.0 0.0 -1.188907866872e-03 
-5.561658818215e-04 -2.031625025719e-04 0.0 
-2.031625025719e-04 3.593153237093e-03 0.0 
0.0 0.0 -5.602736785587e-04 
-1.035403721303e-03 -2.031605927371e-04 0.0 
-2.031605927371e-04 6.949569291118e-03 0.0 
0.0 0.0 -1.035646790376e-03 
-9.180249208977e-04 1.931476710153e-04 0.0 
1.931476710153e-04 6.042341158293e-03 0.0 
0.0 0.0 -9.181742748318e-04 
-9.917755747799e-04 2.023242542686e-04 0.0 
2.023242542686e-04 6.575747416083e-03 0.0 
0.0 0.0 -9.952786863929e-04 
-1.024377024952e-03 1.861972783327e-04 0.0 
1.861972783327e-04 6.794579129447e-03 0.0 
0.0 0.0 -1.024224580100e-03 
-5.802650742356e-04 1.891370522918e-04 0.0 
1.891370522918e-04 3.679117002713e-03 0.0 
0.0 0.0 -5.788817793163e-04 
-6.680148396562e-04 -1.727307713497e-04 0.0 
-1.727307713497e-04 4.367645791481e-03 0.0 
0.0 0.0 -6.651338130661e-04 
-7.292546132971e-04 -1.846826388501e-04 0.0 
-1.846826388501e-04 4.813421317749e-03 0.0 
0.0 0.0 -7.293057621917e-04 
-9.374184943370e-04 1.944757919182e-04 0.0 
1.944757919182e-04 6.178932175003e-03 0.0 
0.0 0.0 -9.378562126457e-04 
-1.124743441142e-03 -2.044895248108e-04 0.0 
-2.044895248108e-04 7.578873023721e-03 0.0 
0.0 0.0 -1.125100902632e-03 
-1.057275381377e-03 1.952239226915e-04 0.0 
1.952239226915e-04 7.019062258927e-03 0.0 
0.0 0.0 -1.053755873404e-03 
-3.652721065736e-04 1.996025403975e-04 0.0 
1.996025403975e-04 2.192815232503e-03 0.0 
0.0 0.0 -3.685493992842e-04 
-1.164581229115e-03 2.188850811810e-04 0.0 
2.188850811810e-04 7.900774321480e-03 0.0 
0.0 0.0 -1.183514100502e-03 
-1.119628239997e-03 2.087348229959e-04 0.0 
2.087348229959e-04 7.433542979005e-03 0.0 
0.0 0.0 -1.117084069417e-03 
-8.143956589139e-04 2.341244742852e-04 0.0 
2.341244742852e-04 5.337741611520e-03 0.0 
0.0 0.0 -8.110481619253e-04 
-9.749777922597e-04 1.939288930454e-04 0.0 
1.939288930454e-04 6.440647276838e-03 0.0 
0.0 0.0 -9.753747863247e-04 
-9.652234430735e-04 1.970752514855e-04 0.0 
1.970752514855e-04 6.378006768513e-03 0.0 
0.0 0.0 -9.665592132828e-04 
-1.194888926874e-03 -2.112261199247e-04 0.0 
-2.112261199247e-04 8.020188826812e-03 0.0 
0.0 0.0 -1.185362187646e-03 
-1.151241251503e-03 1.853138580095e-04 0.0 
1.853138580095e-04 7.714994671460e-03 0.0 
0.0 0.0 -1.150972777267e-03 
-8.863019395197e-04 -1.951602003697e-04 0.0 
-1.951602003697e-04 5.913977900844e-03 0.0 
0.0 0.0 -8.866930489607e-04 
-1.183768845123e-03 -1.944166925086e-04 0.0 
-1.944166925086e-04 8.022430172969e-03 0.0 
0.0 0.0 -1.190872049285e-03 
-1.103203670140e-03 1.932633349998e-04 0.0 
1.932633349998e-04 7.339211362922e-03 0.0 
0.0 0.0 -1.103416240745e-03 
-1.053347130920e-03 -1.808067663282e-04 0.0 
-1.808067663282e-04 7.018991585010e-03 0.0 
0.0 0.0 -1.053748284807e-03 
-1.207301516059e-03 -2.189374092153e-04 0.0 
-2.189374092153e-04 8.148472988394e-03 0.0 
0.0 0.0 -1.210017230578e-03 
-1.183451424094e-03 -2.064186268461e-04 0.0 
-2.064186268461e-04 7.961006455012e-03 0.0 
0.0 0.0 -1.181737430652e-03 
-1.012410866899e-03 -2.064236493359e-04 0.0 
-2.064236493359e-04 6.767125967856e-03 0.0 
0.0 0.0 -1.011817915138e-03 
-9.978825943573e-04 -1.946964301517e-04 0.0 
-1.946964301517e-04 6.692413921007e-03 0.0 
0.0 0.0 -9.985655989919e-04 
-3.618458064176e-04 1.902703540338e-04 0.0 
1.902703540338e-04 2.182295586331e-03 0.0 
0.0 0.0 -3.644364776638e-04 
-3.396688960244e-04 1.922383374584e-04 0.0 
1.922383374584e-04 2.020949841441e-03 0.0 
0.0 0.0 -3.414758422231e-04 
-2.048022796594e-04 -2.337971245160e-04 0.0 
-2.337971245160e-04 1.038657557028e-03 0.0 
0.0 0.0 -1.876370064529e-04 
-1.053265806660e-04 1.589966792157e-06 0.0 
1.589966792157e-06 6.159987105294e-04 0.0 
0.0 0.0 -1.032036840373e-04 
-1.146654591444e-03 -2.036534213010e-04 0.0 
-2.036534213010e-04 7.733548266154e-03 0.0 
0.0 0.0 -1.150998037120e-03 
-1.153371435519e-03 1.929566661377e-04 0.0 
1.929566661377e-04 7.706474852566e-03 0.0 
0.0 0.0 -1.156839719840e-03 
-1.023100123297e-04 6.333767357888e-06 0.0 
6.333767357888e-06 5.922537874641e-04 0.0 
0.0 0.0 -1.029284987275e-04 
-1.152902847458e-03 -1.945944093031e-04 0.0 
-1.945944093031e-04 7.806589318492e-03 0.0 
0.0 0.0 -1.160298666437e-03 
-8.240593874314e-04 2.133386610705e-04 0.0 
2.133386610705e-04 5.515954645069e-03 0.0 
0.0 0.0 -8.436798659344e-04 
-1.063159338098e-03 -2.000353252039e-04 0.0 
-2.000353252039e-04 7.170931875512e-03 0.0 
0.0 0.0 -1.067477449466e-03 
-1.091085119062e-03 1.926591161235e-04 0.0 
1.926591161235e-04 7.245677048731e-03 0.0 
0.0 0.0 -1.090430023688e-03 
-5.083685843408e-04 1.854528112905e-04 0.0 
1.854528112905e-04 3.184990427277e-03 0.0 
0.0 0.0 -5.090628918580e-04 
-1.088419020765e-03 -1.985610050621e-04 0.0 
-1.985610050621e-04 7.308442647816e-03 0.0 
0.0 0.0 -1.087955833448e-03 
-8.052736907314e-04 -2.707602780884e-04 0.0 
-2.707602780884e-04 5.346563189152e-03 0.0 
0.0 0.0 -8.100176300978e-04 
-1.002877096566e-03 -1.976880564896e-04 0.0 
-1.976880564896e-04 6.706443384887e-03 0.0 
0.0 0.0 -1.000388816061e-03 
-1.231169607282e-03 2.234727540430e-04 0.0 
2.234727540430e-04 8.305282306820e-03 0.0 
0.0 0.0 -1.242964905849e-03 
-3.519355017218e-04 1.472413134465e-04 0.0 
1.472413134465e-04 2.089181619658e-03 0.0 
0.0 0.0 -3.542437553904e-04 
-1.221302329282e-03 -1.674357911947e-04 0.0 
-1.674357911947e-04 8.209373583472e-03 0.0 
0.0 0.0 -1.215045542354e-03 
-1.047850802636e-03 -1.881582153281e-04 0.0 
-1.881582153281e-04 7.026769425363e-03 0.0 
0.0 0.0 -1.048288725887e-03 
-3.889604497647e-04 2.037169653349e-04 0.0 
2.037169653349e-04 2.380154464468e-03 0.0 
0.0 0.0 -3.930611257745e-04 
-4.005955795872e-04 -1.795528067479e-04 0.0 
-1.795528067479e-04 2.551679544192e-03 0.0 
0.0 0.0 -4.034900192350e-04 
-7.895600060851e-04 1.993051337404e-04 0.0 
1.993051337404e-04 5.154958880860e-03 0.0 
0.0 0.0 -7.909606353592e-04 
-9.478370252283e-04 2.028022273916e-04 0.0 
2.028022273916e-04 6.213549732246e-03 0.0 
0.0 0.0 -9.409807611877e-04 
-5.389171118930e-04 1.931642811105e-04 0.0 
1.931642811105e-04 3.423254400861e-03 0.0 
0.0 0.0 -5.429771841545e-04 
-1.084906178257e-03 -2.011232363262e-04 0.0 
-2.011232363262e-04 7.274950011924e-03 0.0 
0.0 0.0 -1.085119818393e-03 
-9.758201311387e-04 -2.238948292921e-04 0.0 
-2.238948292921e-04 6.526325342415e-03 0.0 
0.0 0.0 -9.816794289629e-04 
-7.681741524081e-04 1.880175807826e-04 0.0 
1.880175807826e-04 5.011383542904e-03 0.0 
0.0 0.0 -7.700930343086e-04 
-1.026480683520e-03 -1.844900629417e-04 0.0 
-1.844900629417e-04 6.842321728991e-03 0.0 
0.0 0.0 -1.021757709120e-03 
-1.057960421125e-03 -1.998047593287e-04 0.0 
-1.998047593287e-04 7.113469784678e-03 0.0 
0.0 0.0 -1.058696934625e-03 
-1.057942238941e-03 2.175749808768e-04 0.0 
2.175749808768e-04 6.964480207197e-03 0.0 
0.0 0.0 -1.050681058959e-03 
-3.033747618520e-04 -1.838242939413e-04 0.0 
-1.838242939413e-04 1.857406959021e-03 0.0 
0.0 0.0 -3.058749225436e-04 
-7.305418871957e-04 1.869626526336e-04 0.0 
1.869626526336e-04 4.754815575901e-03 0.0 
0.0 0.0 -7.328582426338e-04 
-1.136183616218e-03 2.082876610418e-04 0.0 
2.082876610418e-04 7.610878515336e-03 0.0 
0.0 0.0 -1.141128458404e-03 
-1.078434925953e-03 -1.984149302182e-04 0.0 
-1.984149302182e-04 7.234990828440e-03 0.0 
0.0 0.0 -1.078198857115e-03 
-6.621852882438e-04 2.164713360985e-04 0.0 
2.164713360985e-04 4.271535496369e-03 0.0 
0.0 0.0 -6.666835465145e-04 
-9.149083998473e-04 -1.952760623192e-04 0.0 
-1.952760623192e-04 6.113676858772e-03 0.0 
0.0 0.0 -9.153036164073e-04 
-1.187688204395e-03 -2.025883410103e-04 0.0 
-2.025883410103e-04 8.016876824675e-03 0.0 
0.0 0.0 -1.187586327529e-03 
-1.005326890981e-03 1.902074749802e-04 0.0 
1.902074749802e-04 6.713852212323e-03 0.0 
0.0 0.0 -1.013969106439e-03 
-1.909283182059e-04 -2.134343415579e-04 0.0 
-2.134343415579e-04 9.857203047885e-04 0.0 
0.0 0.0 -1.806728872115e-04 
-1.970147197368e-04 -2.059863142165e-04 0.0 
-2.059863142165e-04 1.002592449070e-03 0.0 
0.0 0.0 -1.835536028976e-04 
-3.515992897123e-04 -1.811957352846e-04 0.0 
-1.811957352846e-04 2.155411981566e-03 0.0 
0.0 0.0 -3.467375663575e-04 
-1.128856114321e-03 2.001566636704e-04 0.0 
2.001566636704e-04 7.510015093798e-03 0.0 
0.0 0.0 -1.127837695838e-03 
-9.816567297486e-04 1.933811921609e-04 0.0 
1.933811921609e-04 6.465198559992e-03 0.0 
0.0 0.0 -9.775003154318e-04 
-8.371572204410e-04 -2.148163729894e-04 0.0 
-2.148163729894e-04 5.710338305934e-03 0.0 
0.0 0.0 -8.513051444990e-04 
-8.730704368828e-04 1.896261582467e-04 0.0 
1.896261582467e-04 5.754508324044e-03 0.0 
0.0 0.0 -8.745614812816e-04 
-1.137329719499e-03 -1.941463340313e-04 0.0 
-1.941463340313e-04 7.669003078820e-03 0.0 
0.0 0.0 -1.139196670502e-03 
-7.981531024245e-04 1.892565346163e-04 0.0 
1.892565346163e-04 5.212239015909e-03 0.0 
0.0 0.0 -7.988714448434e-04 
-1.058279653052e-03 1.954206945734e-04 0.0 
1.954206945734e-04 7.042085544045e-03 0.0 
0.0 0.0 -1.061632825506e-03 
-3.556360797851e-04 -1.825172875801e-04 0.0 
-1.825172875801e-04 2.253382462632e-03 0.0 
0.0 0.0 -3.615122310665e-04 
-1.213390557451e-03 2.397950825144e-04 0.0 
2.397950825144e-04 8.136808344214e-03 0.0 
0.0 0.0 -1.211531131004e-03 
-7.660046426258e-04 -1.986537595937e-04 0.0 
-1.986537595937e-04 5.080766734255e-03 0.0 
0.0 0.0 -7.673127347790e-04 
-3.927767409547e-04 -1.941008242108e-04 0.0 
-1.941008242108e-04 2.469153154105e-03 0.0 
0.0 0.0 -3.889166325194e-04 
-7.314298842455e-04 -2.140562000032e-04 0.0 
-2.140562000032e-04 4.812028074598e-03 0.0 
0.0 0.0 -7.311132045151e-04 
-5.669903072896e-04 1.859979766966e-04 0.0 
1.859979766966e-04 3.622850524897e-03 0.0 
0.0 0.0 -5.716673668464e-04 
-4.441913073698e-04 -1.946929488681e-04 0.0 
-1.946929488681e-04 2.835535865590e-03 0.0 
0.0 0.0 -4.452767020142e-04 
-8.541353571324e-04 1.878201727379e-04 0.0 
1.878201727379e-04 5.598851307335e-03 0.0 
0.0 0.0 -8.564950983273e-04 
0.0 0.0 0.0 
0.0 0.0 0.0 
0.0 0.0 0.0 
0.0 0.0 0.0 
0.0 0.0 0.0 
0.0 0.0 0.0 
-9.633926432213e-04 -1.929125650732e-04 0.0 
-1.929125650732e-04 6.449382072422e-03 0.0 
0.0 0.0 -9.636005660098e-04 
-3.261615758852e-04 -1.754968158783e-04 0.0 
-1.754968158783e-04 2.064243752771e-03 0.0 
0.0 0.0 -3.336449385292e-04 
-9.716625480636e-04 -1.974982736352e-04 0.0 
-1.974982736352e-04 6.511810819199e-03 0.0 
0.0 0.0 -9.724388998541e-04 
-9.434553557208e-04 -1.947776052692e-04 0.0 
-1.947776052692e-04 6.314151919472e-03 0.0 
0.0 0.0 -9.438473481109e-04 
-6.149570530548e-04 1.958377041270e-04 0.0 
1.958377041270e-04 3.946002749694e-03 0.0 
0.0 0.0 -6.177757646845e-04 
-4.134741271649e-04 1.981876295031e-04 0.0 
1.981876295031e-04 2.543324249367e-03 0.0 
0.0 0.0 -4.162223005415e-04 
-1.136715502842e-03 -2.038924191314e-04 0.0 
-2.038924191314e-04 7.650435027918e-03 0.0 
0.0 0.0 -1.137719822027e-03 
-2.155883669570e-04 -8.829356196837e-05 0.0 
-8.829356196837e-05 9.573383583193e-04 0.0 
0.0 0.0 -2.047534254615e-04 
-6.021718484836e-04 1.735627083644e-04 0.0 
1.735627083644e-04 3.837011647565e-03 0.0 
0.0 0.0 -6.004815939294e-04 
-1.172134314024e-03 -1.664552663930e-04 0.0 
-1.664552663930e-04 7.890382462293e-03 0.0 
0.0 0.0 -1.175533656463e-03 
-2.822824235296e-04 1.888682444412e-04 0.0 
1.888682444412e-04 1.684200929602e-03 0.0 
0.0 0.0 -2.977570873278e-04 
-9.136045934539e-04 -1.921452035066e-04 0.0 
-1.921452035066e-04 6.056651557430e-03 0.0 
0.0 0.0 -9.088859120638e-04 
-8.340119380579e-04 -2.228113772719e-04 0.0 
-2.228113772719e-04 5.573887948833e-03 0.0 
0.0 0.0 -8.416286270284e-04 
-2.829330432203e-04 -1.923976084130e-04 0.0 
-1.923976084130e-04 1.716244531209e-03 0.0 
0.0 0.0 -2.842394630762e-04 
-1.159926400282e-03 -1.793893042658e-04 0.0 
-1.793893042658e-04 7.808824689671e-03 0.0 
0.0 0.0 -1.158722036769e-03 
-1.035589941137e-03 -1.985988582849e-04 0.0 
-1.985988582849e-04 6.933992631060e-03 0.0 
0.0 0.0 -1.034898561726e-03 
-3.359494272763e-04 1.786409644777e-04 0.0 
1.786409644777e-04 1.989232140030e-03 0.0 
0.0 0.0 -3.364655670308e-04 
-1.165152170532e-03 -1.849586778466e-04 0.0 
-1.849586778466e-04 7.849581652679e-03 0.0 
0.0 0.0 -1.166520446339e-03 
-1.171818434168e-03 1.701070722775e-04 0.0 
1.701070722775e-04 7.787163600185e-03 0.0 
0.0 0.0 -1.169001632583e-03 
-3.670484435220e-04 -2.062025335132e-04 0.0 
-2.062025335132e-04 2.310354927649e-03 0.0 
0.0 0.0 -3.701904734684e-04 
-4.878019895888e-04 -2.129991852320e-04 0.0 
-2.129991852320e-04 3.076179585064e-03 0.0 
0.0 0.0 -4.801335248058e-04 
-3.784853096696e-04 -1.951915827816e-04 0.0 
-1.951915827816e-04 2.373996755404e-03 0.0 
0.0 0.0 -3.791106726259e-04 
-1.023434568927e-03 -1.955357832441e-04 0.0 
-1.955357832441e-04 6.907952393425e-03 0.0 
0.0 0.0 -1.029923508343e-03 
-8.283537341300e-04 1.907553074044e-04 0.0 
1.907553074044e-04 5.413544228672e-03 0.0 
0.0 0.0 -8.276368238623e-04 
-1.175065292852e-03 1.838008001023e-04 0.0 
1.838008001023e-04 7.798269859187e-03 0.0 
0.0 0.0 -1.169529464977e-03 
-1.141233486497e-03 1.909358973763e-04 0.0 
1.909358973763e-04 7.594915182305e-03 0.0 
0.0 0.0 -1.140030709108e-03 
-9.986353517479e-04 -1.968060563576e-04 0.0 
-1.968060563576e-04 6.710344376514e-03 0.0 
0.0 0.0 -1.001167767022e-03 
-1.002641746751e-03 1.939099816930e-04 0.0 
1.939099816930e-04 6.639482721891e-03 0.0 
0.0 0.0 -1.004093472296e-03 
-3.170641866385e-04 1.974483890405e-04 0.0 
1.974483890405e-04 1.842860083610e-03 0.0 
0.0 0.0 -3.158693332420e-04 
-1.029368673375e-03 1.947386699308e-04 0.0 
1.947386699308e-04 6.837075470330e-03 0.0 
0.0 0.0 -1.032853941699e-03 
-1.038324079738e-03 1.969104416427e-04 0.0 
1.969104416427e-04 6.879456010501e-03 0.0 
0.0 0.0 -1.037144748481e-03 
-8.220289990508e-04 -1.901456335334e-04 0.0 
-1.901456335334e-04 5.481743507948e-03 0.0 
0.0 0.0 -8.248712778174e-04 
-9.784412971014e-04 -1.995967018582e-04 0.0 
-1.995967018582e-04 6.519224964638e-03 0.0 
0.0 0.0 -9.752741834902e-04 
-1.071043316413e-03 -2.014206266275e-04 0.0 
-2.014206266275e-04 7.187990111684e-03 0.0 
0.0 0.0 -1.071415751597e-03 
-7.449992410114e-04 1.900175048328e-04 0.0 
1.900175048328e-04 4.830596508428e-03 0.0 
0.0 0.0 -7.435371925968e-04 
-1.112301323396e-03 1.953318319138e-04 0.0 
1.953318319138e-04 7.388703494557e-03 0.0 
0.0 0.0 -1.110258267496e-03 
-7.048168666413e-04 2.103542029495e-04 0.0 
2.103542029495e-04 4.551180166485e-03 0.0 
0.0 0.0 -6.965171720950e-04 
-7.978310569570e-04 -1.996626955199e-04 0.0 
-1.996626955199e-04 5.282133349968e-03 0.0 
0.0 0.0 -7.960639764766e-04 
-5.335116196934e-04 2.239231297756e-04 0.0 
2.239231297756e-04 3.386453430155e-03 0.0 
0.0 0.0 -5.342291996904e-04 
-5.553576446558e-04 -1.816268034186e-04 0.0 
-1.816268034186e-04 3.628347878161e-03 0.0 
0.0 0.0 -5.581583723280e-04 
-1.010310088917e-03 1.967228699852e-04 0.0 
1.967228699852e-04 6.672709965049e-03 0.0 
0.0 0.0 -1.007339817349e-03 
-7.628577911211e-04 -1.911605880285e-04 0.0 
-1.911605880285e-04 5.057166832743e-03 0.0 
0.0 0.0 -7.637833264599e-04 
-4.056535220845e-04 -1.994601543415e-04 0.0 
-1.994601543415e-04 2.573810220736e-03 0.0 
0.0 0.0 -4.077494273363e-04 
-2.235505229119e-04 -1.665382784812e-04 0.0 
-1.665382784812e-04 1.264629605483e-03 0.0 
0.0 0.0 -2.185673950299e-04 
-1.005369566171e-03 -1.969282844887e-04 0.0 
-1.969282844887e-04 6.726819346583e-03 0.0 
0.0 0.0 -1.005115000480e-03 
-4.096373717980e-04 1.964452207256e-04 0.0 
1.964452207256e-04 2.501615904785e-03 0.0 
0.0 0.0 -4.107160730352e-04 
-1.196795855234e-03 2.010644044309e-04 0.0 
2.010644044309e-04 8.139442919111e-03 0.0 
0.0 0.0 -1.218716866995e-03 
-1.042807145316e-03 1.952121137200e-04 0.0 
1.952121137200e-04 6.924647329534e-03 0.0 
0.0 0.0 -1.043883448597e-03 
-1.067869276877e-03 1.919364052357e-04 0.0 
1.919364052357e-04 7.100655193935e-03 0.0 
0.0 0.0 -1.070373463590e-03 
-1.283006779812e-03 -2.454005743877e-05 0.0 
-2.454005743877e-05 8.441304095904e-03 0.0 
0.0 0.0 -1.284729618418e-03 
-6.611541786482e-04 -2.165377279584e-04 0.0 
-2.165377279584e-04 4.358180230514e-03 0.0 
0.0 0.0 -6.637377122259e-04 
-3.719232158052e-04 1.946095876176e-04 0.0 
1.946095876176e-04 2.237835984063e-03 0.0 
0.0 0.0 -3.731618544808e-04 
-2.509805120976e-04 2.101438879213e-04 0.0 
2.101438879213e-04 1.370179870162e-03 0.0 
0.0 0.0 -2.496210768721e-04 
-1.009272610852e-03 -1.976905948495e-04 0.0 
-1.976905948495e-04 6.773236228030e-03 0.0 
0.0 0.0 -1.009908742814e-03 
-9.502891484141e-04 2.008015227702e-04 0.0 
2.008015227702e-04 6.263291661127e-03 0.0 
0.0 0.0 -9.473489374553e-04 
-1.787867007396e-04 1.721284507091e-04 0.0 
1.721284507091e-04 9.234900215078e-04 0.0 
0.0 0.0 -1.858848441742e-04 
-5.306487836806e-04 -1.980238622702e-04 0.0 
-1.980238622702e-04 3.494279541485e-03 0.0 
0.0 0.0 -5.400474096907e-04 
-3.064883048416e-04 -1.749693241531e-04 0.0 
-1.749693241531e-04 2.001263288358e-03 0.0 
0.0 0.0 -3.246070344129e-04 
-9.392936976825e-04 -1.862704497827e-04 0.0 
-1.862704497827e-04 6.266809515345e-03 0.0 
0.0 0.0 -9.387834224271e-04 
-5.480159981423e-04 -2.100359931436e-04 0.0 
-2.100359931436e-04 3.693369469425e-03 0.0 
0.0 0.0 -5.687878759048e-04 
-9.467150260524e-04 1.924065934846e-04 0.0 
1.924065934846e-04 6.242240235616e-03 0.0 
0.0 0.0 -9.467935652645e-04 
-5.428455294621e-04 -2.085125102257e-04 0.0 
-2.085125102257e-04 3.415670535466e-03 0.0 
0.0 0.0 -5.337555413937e-04 
-1.117346964304e-03 -2.071110090059e-04 0.0 
-2.071110090059e-04 7.492505049919e-03 0.0 
0.0 0.0 -1.114809527198e-03 
-4.745048492879e-04 1.992195964989e-04 0.0 
1.992195964989e-04 2.965213732964e-03 0.0 
0.0 0.0 -4.768663991247e-04 
-1.019084130149e-03 -1.971234603786e-04 0.0 
-1.971234603786e-04 6.834832976306e-03 0.0 
0.0 0.0 -1.018590841688e-03 
-3.372917149944e-04 -1.912349410904e-04 0.0 
-1.912349410904e-04 2.104646860584e-03 0.0 
0.0 0.0 -3.376433569222e-04 
-9.810862783946e-04 -1.972875806497e-04 0.0 
-1.972875806497e-04 6.573374097127e-03 0.0 
0.0 0.0 -9.812220007866e-04 
-7.630262787413e-04 -1.649240710626e-04 0.0 
-1.649240710626e-04 5.040550269951e-03 0.0 
0.0 0.0 -7.604224332210e-04 
-1.040603755793e-03 1.933348900592e-04 0.0 
1.933348900592e-04 6.902261502476e-03 0.0 
0.0 0.0 -1.041555045145e-03 
-5.360677599798e-04 1.876482889455e-04 0.0 
1.876482889455e-04 3.380336319222e-03 0.0 
0.0 0.0 -5.350282927002e-04 
-3.256683131977e-04 2.104859329235e-04 0.0 
2.104859329235e-04 1.909139084910e-03 0.0 
0.0 0.0 -3.277310168338e-04 
-8.709310065230e-04 -1.930857458815e-04 0.0 
-1.930857458815e-04 5.840506173078e-03 0.0 
0.0 0.0 -8.787268422831e-04 
-9.478935846187e-04 -1.922017527602e-04 0.0 
-1.922017527602e-04 6.329496652854e-03 0.0 
0.0 0.0 -9.464297096767e-04 
-6.788789609642e-04 1.916120147782e-04 0.0 
1.916120147782e-04 4.369175427210e-03 0.0 
0.0 0.0 -6.776081642141e-04 
-9.468425740779e-04 -2.085300673065e-04 0.0 
-2.085300673065e-04 6.298374618209e-03 0.0 
0.0 0.0 -9.453210152248e-04 
-3.756080425156e-04 -1.934039556713e-04 0.0 
-1.934039556713e-04 2.352414382127e-03 0.0 
0.0 0.0 -3.758914132629e-04 
-9.664473934007e-04 1.935643871515e-04 0.0 
1.935643871515e-04 6.379409966944e-03 0.0 
0.0 0.0 -9.642804585795e-04 
-3.026576237448e-04 -1.928297610964e-04 0.0 
-1.928297610964e-04 1.798935007683e-03 0.0 
0.0 0.0 -2.947674122297e-04 
-1.153179427147e-03 -2.051549704311e-04 0.0 
-2.051549704311e-04 7.761192827607e-03 0.0 
0.0 0.0 -1.150402778756e-03 
-9.838604339423e-04 -1.907200549992e-04 0.0 
-1.907200549992e-04 6.585836583388e-03 0.0 
0.0 0.0 -9.834711240942e-04 
-1.039448222436e-03 -1.939988089318e-04 0.0 
-1.939988089318e-04 6.961176011231e-03 0.0 
0.0 0.0 -1.037051012011e-03 
-1.209610339595e-03 -2.064055054885e-04 0.0 
-2.064055054885e-04 8.130245976668e-03 0.0 
0.0 0.0 -1.204463612412e-03 
-8.289278457568e-04 -1.937873946282e-04 0.0 
-1.937873946282e-04 5.514638524943e-03 0.0 
0.0 0.0 -8.294769417472e-04 
-3.109821114722e-04 1.906924358187e-04 0.0 
1.906924358187e-04 1.784796369805e-03 0.0 
0.0 0.0 -3.081489256106e-04 
-9.237752216618e-04 -1.945449657842e-04 0.0 
-1.945449657842e-04 6.173770782065e-03 0.0 
0.0 0.0 -9.239488535170e-04 
-1.191042257491e-03 2.067698926501e-04 0.0 
2.067698926501e-04 7.951909524646e-03 0.0 
0.0 0.0 -1.189963100592e-03 
-4.775062598439e-04 -1.845893080325e-04 0.0 
-1.845893080325e-04 3.071724244623e-03 0.0 
0.0 0.0 -4.786098583285e-04 
-1.036708665275e-03 -1.995575756552e-04 0.0 
-1.995575756552e-04 6.972509629402e-03 0.0 
0.0 0.0 -1.038675661098e-03 
-1.042240091366e-03 -2.028158867280e-04 0.0 
-2.028158867280e-04 6.979443732142e-03 0.0 
0.0 0.0 -1.041631482750e-03 
-3.838009065761e-04 1.994121048010e-04 0.0 
1.994121048010e-04 2.344808306372e-03 0.0 
0.0 0.0 -3.880698300753e-04 
-9.524861751472e-04 -1.961707644156e-04 0.0 
-1.961707644156e-04 6.373861031903e-03 0.0 
0.0 0.0 -9.525765839929e-04 
-8.586433483391e-04 -1.931078618343e-04 0.0 
-1.931078618343e-04 5.748348032680e-03 0.0 
0.0 0.0 -8.663127257150e-04 
-4.249902311886e-04 -1.873478746315e-04 0.0 
-1.873478746315e-04 2.710801804411e-03 0.0 
0.0 0.0 -4.280652785065e-04 
-5.063403877371e-04 -1.957595432947e-04 0.0 
-1.957595432947e-04 3.295220362808e-03 0.0 
0.0 0.0 -5.113914792957e-04 
-8.011417777980e-04 -1.869294440003e-04 0.0 
-1.869294440003e-04 5.307962758149e-03 0.0 
0.0 0.0 -8.004334922225e-04 
-1.012906793309e-03 1.927821333669e-04 0.0 
1.927821333669e-04 6.702583928550e-03 0.0 
0.0 0.0 -1.012809740122e-03 
-6.237702296699e-04 -1.788620839172e-04 0.0 
-1.788620839172e-04 4.053757856152e-03 0.0 
0.0 0.0 -6.201901524263e-04 
-7.654836975307e-04 -1.844361479045e-04 0.0 
-1.844361479045e-04 5.061981616524e-03 0.0 
0.0 0.0 -7.649884091348e-04 
-1.002132587578e-03 1.966152402384e-04 0.0 
1.966152402384e-04 6.628701174112e-03 0.0 
0.0 0.0 -1.000670320419e-03 
-9.160037735612e-04 2.105070801011e-04 0.0 
2.105070801011e-04 6.003693375901e-03 0.0 
0.0 0.0 -9.110000341593e-04 
-8.984996443820e-04 1.923871522477e-04 0.0 
1.923871522477e-04 5.918711205323e-03 0.0 
0.0 0.0 -8.984003255416e-04 
-7.635747983665e-04 1.700234808703e-04 0.0 
1.700234808703e-04 4.971193028469e-03 0.0 
0.0 0.0 -7.627602282935e-04 
-1.130358647028e-03 -1.898334947356e-04 0.0 
-1.898334947356e-04 7.609563538776e-03 0.0 
0.0 0.0 -1.130631056169e-03 
-8.949695730274e-04 -1.944201834166e-04 0.0 
-1.944201834166e-04 5.973169188704e-03 0.0 
0.0 0.0 -8.953295484280e-04 
-8.818948229552e-04 -1.808766535772e-04 0.0 
-1.808766535772e-04 5.810855732820e-03 0.0 
0.0 0.0 -8.720525204519e-04 
-1.180322083838e-03 -2.544019696132e-04 0.0 
-2.544019696132e-04 8.044684295215e-03 0.0 
0.0 0.0 -1.193584144721e-03 
-1.074317409630e-03 -2.028987224978e-04 0.0 
-2.028987224978e-04 7.209609754448e-03 0.0 
0.0 0.0 -1.073433710836e-03 
-9.845138767756e-04 1.933324893146e-04 0.0 
1.933324893146e-04 6.502529959442e-03 0.0 
0.0 0.0 -9.841343610905e-04 
-1.074220521467e-03 1.937044770007e-04 0.0 
1.937044770007e-04 7.133220182241e-03 0.0 
0.0 0.0 -1.073677668998e-03 
-5.827062234071e-04 -1.941542500794e-04 0.0 
-1.941542500794e-04 3.817750575136e-03 0.0 
0.0 0.0 -5.862626530914e-04 
-5.447661780291e-04 -1.955268079663e-04 0.0 
-1.955268079663e-04 3.556218869368e-03 0.0 
0.0 0.0 -5.488365039436e-04 
-3.200298242821e-04 -2.008010355195e-04 0.0 
-2.008010355195e-04 1.912733596730e-03 0.0 
0.0 0.0 -3.130684191733e-04 
-9.610361432964e-04 -1.937939784480e-04 0.0 
-1.937939784480e-04 6.432925566233e-03 0.0 
0.0 0.0 -9.612598090090e-04 
-5.730915420071e-04 -1.993284364061e-04 0.0 
-1.993284364061e-04 3.756322275087e-03 0.0 
0.0 0.0 -5.775003002374e-04 
-9.676234080517e-04 -1.978430549766e-04 0.0 
-1.978430549766e-04 6.470709836540e-03 0.0 
0.0 0.0 -9.686535345556e-04 
-9.307775843259e-04 -2.009567450900e-04 0.0 
-2.009567450900e-04 6.218061512745e-03 0.0 
0.0 0.0 -9.322463471790e-04 
-7.694630900906e-04 -1.939675917432e-04 0.0 
-1.939675917432e-04 5.091771385308e-03 0.0 
0.0 0.0 -7.690363516573e-04 
-4.826168522865e-04 1.966675666533e-04 0.0 
1.966675666533e-04 3.022691758794e-03 0.0 
0.0 0.0 -4.860199686152e-04 
-5.166152208989e-04 1.895375761803e-04 0.0 
1.895375761803e-04 3.232772262981e-03 0.0 
0.0 0.0 -5.148587792422e-04 
-5.108840173734e-04 1.960376866878e-04 0.0 
1.960376866878e-04 3.223531247209e-03 0.0 
0.0 0.0 -5.143448975765e-04 
-5.481816317278e-04 1.962623655857e-04 0.0 
1.962623655857e-04 3.484569495256e-03 0.0 
0.0 0.0 -5.517963299543e-04 
-3.453277696027e-04 1.969675537481e-04 0.0 
1.969675537481e-04 2.040898908983e-03 0.0 
0.0 0.0 -3.446931235564e-04 
-1.101052151537e-03 -1.995058256316e-04 0.0 
-1.995058256316e-04 7.411556171306e-03 0.0 
0.0 0.0 -1.101849228970e-03 
-6.632570071378e-04 1.923578636572e-04 0.0 
1.923578636572e-04 4.270077985980e-03 0.0 
0.0 0.0 -6.642957827475e-04 
-1.108318305334e-03 -2.031784349512e-04 0.0 
-2.031784349512e-04 7.443886566257e-03 0.0 
0.0 0.0 -1.107989045227e-03 
-7.011090036509e-04 1.927949869006e-04 0.0 
1.927949869006e-04 4.532588404756e-03 0.0 
0.0 0.0 -7.013039408444e-04 
-9.265731680826e-04 1.957284230982e-04 0.0 
1.957284230982e-04 6.103426765876e-03 0.0 
0.0 0.0 -9.268471029392e-04 
-7.946469523286e-04 1.955747403876e-04 0.0 
1.955747403876e-04 5.185524606882e-03 0.0 
0.0 0.0 -7.951651613512e-04 
-7.572756681298e-04 -1.872685007043e-04 0.0 
-1.872685007043e-04 5.004494979539e-03 0.0 
0.0 0.0 -7.567435594048e-04 
-3.404029927324e-04 -1.917944120495e-04 0.0 
-1.917944120495e-04 2.114741006724e-03 0.0 
0.0 0.0 -3.417109511102e-04 
-1.168366620594e-03 1.821653519024e-04 0.0 
1.821653519024e-04 7.733894625141e-03 0.0 
0.0 0.0 -1.161691925552e-03 
-1.208283455631e-03 -2.138622136652e-04 0.0 
-2.138622136652e-04 8.118515122607e-03 0.0 
0.0 0.0 -1.198716319349e-03 
-9.647894746907e-04 1.840623527821e-04 0.0 
1.840623527821e-04 6.374025584992e-03 0.0 
0.0 0.0 -9.650368815299e-04 
-5.866113351029e-04 1.997061311368e-04 0.0 
1.997061311368e-04 3.745701321029e-03 0.0 
0.0 0.0 -5.892385666867e-04 
-8.606873822814e-04 1.952603744915e-04 0.0 
1.952603744915e-04 5.644314043148e-03 0.0 
0.0 0.0 -8.609535187098e-04 
-9.731621015164e-04 2.042240848124e-04 0.0 
2.042240848124e-04 6.416634786867e-03 0.0 
0.0 0.0 -9.708520278613e-04 
-6.114505218062e-04 -1.970451499323e-04 0.0 
-1.970451499323e-04 4.016656707276e-03 0.0 
0.0 0.0 -6.148791393494e-04 
-6.402153518211e-04 -1.799304007788e-04 0.0 
-1.799304007788e-04 4.195134185683e-03 0.0 
0.0 0.0 -6.394234923164e-04 
-4.756790629450e-04 -1.970276149026e-04 0.0 
-1.970276149026e-04 3.037216567460e-03 0.0 
0.0 0.0 -4.739097840058e-04 
-4.115649622256e-04 -1.881038262712e-04 0.0 
-1.881038262712e-04 2.615008917890e-03 0.0 
0.0 0.0 -4.132304097957e-04 
-6.210949620284e-04 -1.921853512956e-04 0.0 
-1.921853512956e-04 4.079647892730e-03 0.0 
0.0 0.0 -6.236739531379e-04 
-4.389003653302e-04 1.899270358256e-04 0.0 
1.899270358256e-04 2.702990318359e-03 0.0 
0.0 0.0 -4.393534411964e-04 
-3.957050609939e-04 -2.005038904366e-04 0.0 
-2.005038904366e-04 2.512628569390e-03 0.0 
0.0 0.0 -3.988888273503e-04 
-7.912937221892e-04 -1.931036918808e-04 0.0 
-1.931036918808e-04 5.255690323409e-03 0.0 
0.0 0.0 -7.922809795675e-04 
-9.555190717992e-04 1.953941988256e-04 0.0 
1.953941988256e-04 6.303135181036e-03 0.0 
0.0 0.0 -9.554846610150e-04 
-1.131935364223e-03 1.749369794293e-04 0.0 
1.749369794293e-04 7.516475401832e-03 0.0 
0.0 0.0 -1.128610778606e-03 
-7.677587316374e-05 5.132629422675e-05 0.0 
5.132629422675e-05 2.950272314679e-04 0.0 
0.0 0.0 -4.808883996072e-05 
-6.821273879062e-04 1.885153294960e-04 0.0 
1.885153294960e-04 4.394625922574e-03 0.0 
0.0 0.0 -6.818868151028e-04 
-6.732798359077e-04 1.896419879915e-04 0.0 
1.896419879915e-04 4.334337175818e-03 0.0 
0.0 0.0 -6.732431144785e-04 
-6.253359345237e-04 1.966841986601e-04 0.0 
1.966841986601e-04 4.007688208335e-03 0.0 
0.0 0.0 -6.268095852860e-04 
-9.342352764228e-04 1.992757766658e-04 0.0 
1.992757766658e-04 6.164738867849e-03 0.0 
0.0 0.0 -9.344164207832e-04 
-7.286499736730e-04 1.960851222301e-04 0.0 
1.960851222301e-04 4.727094990714e-03 0.0 
0.0 0.0 -7.295442444478e-04 
-5.028967805497e-04 2.032690915997e-04 0.0 
2.032690915997e-04 3.169465929495e-03 0.0 
0.0 0.0 -5.055050897130e-04 
-6.594115462037e-04 -1.877379034349e-04 0.0 
-1.877379034349e-04 4.343026444268e-03 0.0 
0.0 0.0 -6.611654675676e-04 
-1.086852433707e-03 1.972393602690e-04 0.0 
1.972393602690e-04 7.180508805687e-03 0.0 
0.0 0.0 -1.080452943103e-03 
-5.134906191046e-04 -1.975407525199e-04 0.0 
-1.975407525199e-04 3.241783811479e-03 0.0 
0.0 0.0 -5.025663706543e-04 
-2.068765507079e-04 1.780811299395e-04 0.0 
1.780811299395e-04 1.103158600140e-03 0.0 
0.0 0.0 -2.132551421006e-04 
-2.821446593327e-04 1.850947824845e-04 0.0 
1.850947824845e-04 1.595379339776e-03 0.0 
0.0 0.0 -2.784575373548e-04 
-4.423162808512e-04 1.966617048386e-04 0.0 
1.966617048386e-04 2.737975260110e-03 0.0 
0.0 0.0 -4.444240490352e-04 
-5.210766744925e-04 1.945752899052e-04 0.0 
1.945752899052e-04 3.285513932228e-03 0.0 
0.0 0.0 -5.239304829885e-04 
-7.103179674584e-04 1.937608556774e-04 0.0 
1.937608556774e-04 4.594082704701e-03 0.0 
0.0 0.0 -7.099160536912e-04 
-6.974191009827e-04 -1.859522295004e-04 0.0 
-1.859522295004e-04 4.604175499566e-03 0.0 
0.0 0.0 -6.984076724203e-04 
-3.111089899344e-04 -2.166751455614e-04 0.0 
-2.166751455614e-04 1.884393958953e-03 0.0 
0.0 0.0 -3.092759564244e-04 
-2.948433446490e-04 -2.106961415148e-04 0.0 
-2.106961415148e-04 1.651650768654e-03 0.0 
0.0 0.0 -2.765202162382e-04 
-9.029473964606e-04 -2.318038937515e-04 0.0 
-2.318038937515e-04 5.899437226641e-03 0.0 
0.0 0.0 -8.885078876198e-04 
-4.353328022797e-04 -2.074729337185e-04 0.0 
-2.074729337185e-04 2.774644133328e-03 0.0 
0.0 0.0 -4.363975895258e-04 
-1.066115861838e-03 1.923323182630e-04 0.0 
1.923323182630e-04 7.082058213666e-03 0.0 
0.0 0.0 -1.067401112627e-03 
-1.093430528172e-03 1.859529625014e-04 0.0 
1.859529625014e-04 7.265648937776e-03 0.0 
0.0 0.0 -1.093380752811e-03 
-9.055761456836e-04 -1.909848796465e-04 0.0 
-1.909848796465e-04 6.010442057108e-03 0.0 
0.0 0.0 -9.013836717722e-04 
-1.127393681638e-03 1.896887369254e-04 0.0 
1.896887369254e-04 7.503433377312e-03 0.0 
0.0 0.0 -1.126084317643e-03 
-1.155463123535e-03 1.744033292086e-04 0.0 
1.744033292086e-04 7.751673747269e-03 0.0 
0.0 0.0 -1.164310864388e-03 
-7.420687839785e-04 -1.936328330324e-04 0.0 
-1.936328330324e-04 4.896453187980e-03 0.0 
0.0 0.0 -7.408850503417e-04 
-1.028946225618e-03 1.859237494966e-04 0.0 
1.859237494966e-04 6.817745899264e-03 0.0 
0.0 0.0 -1.029042339204e-03 
-3.444765648254e-04 -1.889029113480e-04 0.0 
-1.889029113480e-04 2.157321474184e-03 0.0 
0.0 0.0 -3.474733517438e-04 
-6.874756161390e-04 -1.926159426764e-04 0.0 
-1.926159426764e-04 4.537720382930e-03 0.0 
0.0 0.0 -6.894573431515e-04 
-6.898061862194e-04 1.857511077275e-04 0.0 
1.857511077275e-04 4.440388507088e-03 0.0 
0.0 0.0 -6.879681371099e-04 
-4.019279772504e-04 1.778728342644e-04 0.0 
1.778728342644e-04 2.433102799940e-03 0.0 
0.0 0.0 -3.974404770784e-04 
-2.808996377464e-04 -1.954566177411e-04 0.0 
-1.954566177411e-04 1.711546538442e-03 0.0 
0.0 0.0 -2.813757158202e-04 
-5.769851111882e-04 1.945968129496e-04 0.0 
1.945968129496e-04 3.685550638925e-03 0.0 
0.0 0.0 -5.804062017457e-04 
-6.698465200997e-04 -1.848151346019e-04 0.0 
-1.848151346019e-04 4.407215399786e-03 0.0 
0.0 0.0 -6.703429011759e-04 
-7.069533997817e-04 -1.864555130785e-04 0.0 
-1.864555130785e-04 4.664424843705e-03 0.0 
0.0 0.0 -7.070647534220e-04 
-4.705619805672e-04 1.797584254587e-04 0.0 
1.797584254587e-04 2.905608131468e-03 0.0 
0.0 0.0 -4.680152132766e-04 
-7.664680765081e-04 1.944574444010e-04 0.0 
1.944574444010e-04 4.988010799345e-03 0.0 
0.0 0.0 -7.666177146937e-04 
-6.793079833930e-04 -1.842955306638e-04 0.0 
-1.842955306638e-04 4.467105658874e-03 0.0 
0.0 0.0 -6.790125122095e-04 
-7.192535587873e-04 1.886174479633e-04 0.0 
1.886174479633e-04 4.651675493154e-03 0.0 
0.0 0.0 -7.183521444552e-04 
-5.167516635029e-04 -1.889877885738e-04 0.0 
-1.889877885738e-04 3.361424050145e-03 0.0 
0.0 0.0 -5.205443542100e-04 
-9.916854113120e-04 -1.973034417571e-04 0.0 
-1.973034417571e-04 6.645632539252e-03 0.0 
0.0 0.0 -9.921115096417e-04 
-1.000725886826e-03 -2.001881518317e-04 0.0 
-2.001881518317e-04 6.682457666445e-03 0.0 
0.0 0.0 -9.984673180476e-04 
-6.910740697018e-04 1.869291771832e-04 0.0 
1.869291771832e-04 4.454330638785e-03 0.0 
0.0 0.0 -6.904379518788e-04 
-1.131075422052e-03 1.930354118908e-04 0.0 
1.930354118908e-04 7.540452433703e-03 0.0 
0.0 0.0 -1.133495712197e-03 
-3.818178823842e-04 -1.881304660734e-04 0.0 
-1.881304660734e-04 2.417279904182e-03 0.0 
0.0 0.0 -3.849690761666e-04 
-1.204919198583e-03 2.055908933390e-04 0.0 
2.055908933390e-04 8.107807864514e-03 0.0 
0.0 0.0 -1.208505026952e-03 
-7.381856154466e-04 1.951283212295e-04 0.0 
1.951283212295e-04 4.788651758778e-03 0.0 
0.0 0.0 -7.381355003807e-04 
-1.179893914325e-03 2.326195910896e-04 0.0 
2.326195910896e-04 8.057192319457e-03 0.0 
0.0 0.0 -1.203459118631e-03 
-9.174882615910e-04 -1.900236548234e-04 0.0 
-1.900236548234e-04 6.103327033778e-03 0.0 
0.0 0.0 -9.144069900286e-04 
-3.759838339719e-04 1.980975432100e-04 0.0 
1.980975432100e-04 2.280850535288e-03 0.0 
0.0 0.0 -3.788569260404e-04 
-9.329446838714e-04 -1.934956866743e-04 0.0 
-1.934956866743e-04 6.203824333692e-03 0.0 
0.0 0.0 -9.292863832265e-04 
-1.148316362968e-03 1.911406139228e-04 0.0 
1.911406139228e-04 7.656686617329e-03 0.0 
0.0 0.0 -1.148369591821e-03 
-7.751955477395e-04 1.935539670278e-04 0.0 
1.935539670278e-04 5.048248374235e-03 0.0 
0.0 0.0 -7.747733155264e-04 
-5.636121724150e-04 -1.856060269500e-04 0.0 
-1.856060269500e-04 3.652721039859e-03 0.0 
0.0 0.0 -5.621395992319e-04 
-9.592421645063e-04 -1.953589560094e-04 0.0 
-1.953589560094e-04 6.397497054977e-03 0.0 
0.0 0.0 -9.572423940436e-04 
-7.410203931500e-04 1.888947749690e-04 0.0 
1.888947749690e-04 4.805195564350e-03 0.0 
0.0 0.0 -7.402445244775e-04 
-3.049241937385e-04 2.026327067246e-04 0.0 
2.026327067246e-04 1.807680481835e-03 0.0 
0.0 0.0 -3.123079531677e-04 
-1.247303547099e-03 2.054291781832e-04 0.0 
2.054291781832e-04 8.428743189038e-03 0.0 
0.0 0.0 -1.259077240559e-03 
-2.832321787005e-04 2.033440710739e-04 0.0 
2.033440710739e-04 1.568411261078e-03 0.0 
0.0 0.0 -2.747754844540e-04 
-1.180725818141e-03 -1.959284539653e-04 0.0 
-1.959284539653e-04 8.086063063664e-03 0.0 
0.0 0.0 -1.194426649262e-03 
-1.181044415914e-03 1.885702677114e-04 0.0 
1.885702677114e-04 7.848025462359e-03 0.0 
0.0 0.0 -1.175981821618e-03 
-1.019774229423e-03 -1.968009652079e-04 0.0 
-1.968009652079e-04 6.844195853493e-03 0.0 
0.0 0.0 -1.020516803968e-03 
-9.063963003822e-04 2.216702355021e-04 0.0 
2.216702355021e-04 5.948302852210e-03 0.0 
0.0 0.0 -9.041796124736e-04 
-1.096159842107e-03 -2.041353887512e-04 0.0 
-2.041353887512e-04 7.354511593932e-03 0.0 
0.0 0.0 -1.094228678348e-03 
-7.158215028595e-04 -1.849822212151e-04 0.0 
-1.849822212151e-04 4.721957550486e-03 0.0 
0.0 0.0 -7.154996274706e-04 
-8.342688439829e-04 -1.960354733344e-04 0.0 
-1.960354733344e-04 5.542507863884e-03 0.0 
0.0 0.0 -8.337527902170e-04 
-1.179248762261e-03 1.915113563363e-04 0.0 
1.915113563363e-04 7.953436829066e-03 0.0 
0.0 0.0 -1.191782302182e-03 
-1.022355738208e-03 1.947903411638e-04 0.0 
1.947903411638e-04 6.764095762216e-03 0.0 
0.0 0.0 -1.021464098896e-03 
-1.029803380413e-03 -1.995345647328e-04 0.0 
-1.995345647328e-04 6.892395198165e-03 0.0 
0.0 0.0 -1.028225029406e-03 
-9.800703698298e-04 2.033610077795e-04 0.0 
2.033610077795e-04 6.469215121367e-03 0.0 
0.0 0.0 -9.780777104595e-04 
-3.460311380533e-04 1.949105016325e-04 0.0 
1.949105016325e-04 2.083431817991e-03 0.0 
0.0 0.0 -3.505936111242e-04 
-1.056998258985e-03 -2.024071474235e-04 0.0 
-2.024071474235e-04 7.098571223248e-03 0.0 
0.0 0.0 -1.057861461704e-03 
-1.245215734681e-03 -2.948889405545e-06 0.0 
-2.948889405545e-06 8.708064260567e-03 0.0 
0.0 0.0 -1.268085107495e-03 
-1.199968332554e-03 2.184447548860e-04 0.0 
2.184447548860e-04 8.021680446852e-03 0.0 
0.0 0.0 -1.202195648613e-03 
-6.908555778158e-04 1.952647486752e-04 0.0 
1.952647486752e-04 4.467406980685e-03 0.0 
0.0 0.0 -6.923681691211e-04 
-8.989504497264e-04 -2.030487714899e-04 0.0 
-2.030487714899e-04 5.998411166372e-03 0.0 
0.0 0.0 -9.020111041354e-04 
-8.706850616849e-04 2.163039302349e-04 0.0 
2.163039302349e-04 5.704755713039e-03 0.0 
0.0 0.0 -8.677534307045e-04 
-7.350398663415e-04 -1.921852650881e-04 0.0 
-1.921852650881e-04 4.858429528850e-03 0.0 
0.0 0.0 -7.352749011056e-04 
-9.925381973485e-04 1.968648573770e-04 0.0 
1.968648573770e-04 6.563559215451e-03 0.0 
0.0 0.0 -9.927925938930e-04 
-1.029028532084e-03 1.960911717032e-04 0.0 
1.960911717032e-04 6.822296250893e-03 0.0 
0.0 0.0 -1.030113165296e-03 
-2.401332151859e-04 -2.098625103455e-04 0.0 
-2.098625103455e-04 1.444865681486e-03 0.0 
0.0 0.0 -2.466400652194e-04 
-4.534206567438e-04 1.915983849915e-04 0.0 
1.915983849915e-04 2.786638049384e-03 0.0 
0.0 0.0 -4.508272210452e-04 
-7.276651503282e-04 1.887396446790e-04 0.0 
1.887396446790e-04 4.711996878728e-03 0.0 
0.0 0.0 -7.269793770173e-04 
-6.885109501689e-04 -1.881460235649e-04 0.0 
-1.881460235649e-04 4.526125077483e-03 0.0 
0.0 0.0 -6.875569550717e-04 
-7.327380615621e-04 1.893031023786e-04 0.0 
1.893031023786e-04 4.746976141071e-03 0.0 
0.0 0.0 -7.320784846625e-04 
-1.207414471784e-03 -1.921627464004e-04 0.0 
-1.921627464004e-04 8.251115158096e-03 0.0 
0.0 0.0 -1.225426844749e-03 
-1.165911235799e-03 1.728266951446e-04 0.0 
1.728266951446e-04 7.751919212480e-03 0.0 
0.0 0.0 -1.162686153705e-03 
-1.174125183305e-03 -1.966474411142e-04 0.0 
-1.966474411142e-04 7.895985343999e-03 0.0 
0.0 0.0 -1.173632101657e-03 
-6.588438363322e-04 -1.812037125043e-04 0.0 
-1.812037125043e-04 4.301364332342e-03 0.0 
0.0 0.0 -6.556197767577e-04 
-1.082747471146e-03 1.891035132956e-04 0.0 
1.891035132956e-04 7.201407994731e-03 0.0 
0.0 0.0 -1.082713561900e-03 
-9.901836726999e-04 -1.945402384493e-04 0.0 
-1.945402384493e-04 6.633588115461e-03 0.0 
0.0 0.0 -9.899156953211e-04 
-1.203900706285e-03 2.001643692101e-04 0.0 
2.001643692101e-04 8.020307122063e-03 0.0 
0.0 0.0 -1.198415070424e-03 
-1.018917370980e-03 -2.029360126540e-04 0.0 
-2.029360126540e-04 6.841232066874e-03 0.0 
0.0 0.0 -1.021631336281e-03 
-7.252862927281e-04 -1.917571483022e-04 0.0 
-1.917571483022e-04 4.797885526737e-03 0.0 
0.0 0.0 -7.266350563285e-04 
-6.996186826149e-04 1.874149340260e-04 0.0 
1.874149340260e-04 4.515630015583e-03 0.0 
0.0 0.0 -6.989458521267e-04 
-1.062701287971e-03 1.919893444833e-04 0.0 
1.919893444833e-04 7.044103527011e-03 0.0 
0.0 0.0 -1.060111126929e-03 
-1.159236038185e-03 -2.100410646672e-04 0.0 
-2.100410646672e-04 7.815649065545e-03 0.0 
0.0 0.0 -1.160283895044e-03 
-1.068044840095e-03 1.975027097548e-04 0.0 
1.975027097548e-04 7.089380260529e-03 0.0 
0.0 0.0 -1.066842251349e-03 
-1.033322736071e-03 1.952546159751e-04 0.0 
1.952546159751e-04 6.838585495745e-03 0.0 
0.0 0.0 -1.030428295937e-03 
-1.127957771235e-03 2.034159333983e-04 0.0 
2.034159333983e-04 7.486625778373e-03 0.0 
0.0 0.0 -1.124756152480e-03 
-1.155677614868e-03 -1.983866149799e-04 0.0 
-1.983866149799e-04 7.868967508162e-03 0.0 
0.0 0.0 -1.167530213646e-03 
-1.094507555949e-03 1.976519323401e-04 0.0 
1.976519323401e-04 7.281086392671e-03 0.0 
0.0 0.0 -1.096139997395e-03 
-8.893531318376e-04 1.947803294654e-04 0.0 
1.947803294654e-04 5.843023406601e-03 0.0 
0.0 0.0 -8.895595506239e-04 
-6.419372915529e-04 1.659854799663e-04 0.0 
1.659854799663e-04 4.112940198776e-03 0.0 
0.0 0.0 -6.419897747600e-04 
-1.057958817333e-03 -1.915382936823e-04 0.0 
-1.915382936823e-04 7.093836536897e-03 0.0 
0.0 0.0 -1.057160997780e-03 
-1.010397126926e-03 1.924777478121e-04 0.0 
1.924777478121e-04 6.699973834187e-03 0.0 
0.0 0.0 -1.010795753303e-03 
-4.010552004861e-04 1.841654314205e-04 0.0 
1.841654314205e-04 2.442507368575e-03 0.0 
0.0 0.0 -4.018221946533e-04 
-7.246063133898e-04 -1.880612964647e-04 0.0 
-1.880612964647e-04 4.782342909510e-03 0.0 
0.0 0.0 -7.241222962603e-04 
-8.198364604857e-04 1.863931235936e-04 0.0 
1.863931235936e-04 5.353653336719e-03 0.0 
0.0 0.0 -8.193994707270e-04 
-8.991995514688e-04 -1.967035222148e-04 0.0 
-1.967035222148e-04 5.995025760983e-03 0.0 
0.0 0.0 -8.986564694586e-04 
-4.050243053020e-04 1.994613475966e-04 0.0 
1.994613475966e-04 2.469637685563e-03 0.0 
0.0 0.0 -4.057256964758e-04 
-6.967689891126e-04 -1.888281546421e-04 0.0 
-1.888281546421e-04 4.585730407348e-03 0.0 
0.0 0.0 -6.962026719631e-04 
-9.643194553962e-04 -1.980704148002e-04 0.0 
-1.980704148002e-04 6.448875351116e-03 0.0 
0.0 0.0 -9.636952012155e-04 
-7.333735645701e-04 1.825225121088e-04 0.0 
1.825225121088e-04 4.734280668460e-03 0.0 
0.0 0.0 -7.294090860402e-04 
-7.570403720068e-04 1.947967854262e-04 0.0 
1.947967854262e-04 4.925685443404e-03 0.0 
0.0 0.0 -7.579899565569e-04 
-9.487659951765e-04 -2.043170517301e-04 0.0 
-2.043170517301e-04 6.373556266418e-03 0.0 
0.0 0.0 -9.556638187253e-04 
-7.610430462996e-04 1.745184878599e-04 0.0 
1.745184878599e-04 5.044670069107e-03 0.0 
0.0 0.0 -7.638029664831e-04 
-1.838096952562e-04 2.082695791091e-04 0.0 
2.082695791091e-04 7.724611367138e-04 0.0 
0.0 0.0 -1.578647551136e-04 
-8.576241388509e-04 -1.943288446579e-04 0.0 
-1.943288446579e-04 5.714280224429e-03 0.0 
0.0 0.0 -8.580817703278e-04 
-1.051194806149e-03 1.905396044606e-04 0.0 
1.905396044606e-04 6.972468322912e-03 0.0 
0.0 0.0 -1.051835763028e-03 
-1.194223105728e-03 2.022847639454e-04 0.0 
2.022847639454e-04 8.008401190618e-03 0.0 
0.0 0.0 -1.196871286280e-03 
-8.007996408172e-04 1.886044981360e-04 0.0 
1.886044981360e-04 5.220729595959e-03 0.0 
0.0 0.0 -7.999758813884e-04 
-8.231738978703e-04 1.954670675703e-04 0.0 
1.954670675703e-04 5.384433434041e-03 0.0 
0.0 0.0 -8.237210115815e-04 
-9.659298580920e-04 -1.974560001278e-04 0.0 
-1.974560001278e-04 6.432078237772e-03 0.0 
0.0 0.0 -9.620958722924e-04 
-2.561485936918e-04 2.198683939719e-04 0.0 
2.198683939719e-04 1.251380499118e-03 0.0 
0.0 0.0 -2.247161217206e-04 
-1.023132414130e-03 1.887327440293e-04 0.0 
1.887327440293e-04 6.775332410064e-03 0.0 
0.0 0.0 -1.023361637732e-03 
-8.622181034216e-04 -1.951138773542e-04 0.0 
-1.951138773542e-04 5.740266887697e-03 0.0 
0.0 0.0 -8.619475031456e-04 
-7.647880329061e-04 -1.862411199868e-04 0.0 
-1.862411199868e-04 5.038541863179e-03 0.0 
0.0 0.0 -7.615729788896e-04 
-1.027082371763e-03 -1.922014268246e-04 0.0 
-1.922014268246e-04 6.892038875610e-03 0.0 
0.0 0.0 -1.027225276160e-03 
-3.935518598362e-04 -1.714817472149e-04 0.0 
-1.714817472149e-04 2.494688902106e-03 0.0 
0.0 0.0 -3.946419382404e-04 
-1.063411595146e-03 -1.940895073896e-04 0.0 
-1.940895073896e-04 7.151260433919e-03 0.0 
0.0 0.0 -1.064556537081e-03 
-1.170769687049e-03 1.998990496914e-04 0.0 
1.998990496914e-04 7.807167189230e-03 0.0 
0.0 0.0 -1.170878753521e-03 
-9.957874322238e-04 1.860819940759e-04 0.0 
1.860819940759e-04 6.577964668805e-03 0.0 
0.0 0.0 -9.948919501216e-04 
-1.066802879167e-03 -1.994715727017e-04 0.0 
-1.994715727017e-04 7.144842154603e-03 0.0 
0.0 0.0 -1.064574987933e-03 
-1.080893362265e-03 -2.009448288779e-04 0.0 
-2.009448288779e-04 7.278345089593e-03 0.0 
0.0 0.0 -1.082686220397e-03 
-1.164339334361e-03 -2.029535809835e-04 0.0 
-2.029535809835e-04 7.872490943299e-03 0.0 
0.0 0.0 -1.168035910845e-03 
-3.299141803929e-04 2.316983388685e-04 0.0 
2.316983388685e-04 1.731538717207e-03 0.0 
0.0 0.0 -2.917408095836e-04 
-9.904023149971e-04 -1.959122471391e-04 0.0 
-1.959122471391e-04 6.637118298013e-03 0.0 
0.0 0.0 -9.919185416031e-04 
-1.168730602385e-03 -1.909886301281e-04 0.0 
-1.909886301281e-04 7.900162167174e-03 0.0 
0.0 0.0 -1.173906618061e-03 
-1.099721820410e-03 1.948899321208e-04 0.0 
1.948899321208e-04 7.299287446510e-03 0.0 
0.0 0.0 -1.096489272820e-03 
-9.304220125415e-04 1.873101926856e-04 0.0 
1.873101926856e-04 6.124362452359e-03 0.0 
0.0 0.0 -9.297700869391e-04 
-7.330744366569e-04 -1.923064886364e-04 0.0 
-1.923064886364e-04 4.838398720579e-03 0.0 
0.0 0.0 -7.325247082200e-04 
-8.060696050279e-04 1.870863771178e-04 0.0 
1.870863771178e-04 5.268149186535e-03 0.0 
0.0 0.0 -8.069452076110e-04 
-2.418248245405e-04 2.109020271233e-04 0.0 
2.109020271233e-04 1.359709000534e-03 0.0 
0.0 0.0 -2.482170483719e-04 
-1.134273257583e-03 1.988705509170e-04 0.0 
1.988705509170e-04 7.550007886780e-03 0.0 
0.0 0.0 -1.132911322290e-03 
-4.274524748729e-04 1.964334948294e-04 0.0 
1.964334948294e-04 2.645397720372e-03 0.0 
0.0 0.0 -4.309687334850e-04 
-3.881418594362e-04 1.833155679551e-04 0.0 
1.833155679551e-04 2.160044348329e-03 0.0 
0.0 0.0 -3.582286249851e-04 
-1.052002855886e-03 -1.883464211934e-04 0.0 
-1.883464211934e-04 7.074906707182e-03 0.0 
0.0 0.0 -1.054483161448e-03 
-1.207081545900e-03 1.915242773209e-04 0.0 
1.915242773209e-04 8.072287243083e-03 0.0 
0.0 0.0 -1.206783194404e-03 
-3.547804392101e-04 -1.807868565668e-04 0.0 
-1.807868565668e-04 2.226917608772e-03 0.0 
0.0 0.0 -3.573182248098e-04 
-8.366419951609e-04 -1.885488255625e-04 0.0 
-1.885488255625e-04 5.554595282055e-03 0.0 
0.0 0.0 -8.358581584049e-04 
-1.023802301552e-03 1.940941463559e-04 0.0 
1.940941463559e-04 6.787907294573e-03 0.0 
0.0 0.0 -1.023814440555e-03 
-7.829083596588e-04 -1.954293300844e-04 0.0 
-1.954293300844e-04 5.194152372337e-03 0.0 
0.0 0.0 -7.840072721007e-04 
-4.010673323253e-04 -1.915498976051e-04 0.0 
-1.915498976051e-04 2.542328077149e-03 0.0 
0.0 0.0 -4.027365510179e-04 
-5.321744599270e-04 1.883621527590e-04 0.0 
1.883621527590e-04 3.333505553591e-03 0.0 
0.0 0.0 -5.292697486782e-04 
-2.639771075776e-04 1.646102614642e-04 0.0 
1.646102614642e-04 1.613590548762e-03 0.0 
0.0 0.0 -2.862163191752e-04 
-3.553659692625e-04 1.943928252887e-04 0.0 
1.943928252887e-04 2.154693693141e-03 0.0 
0.0 0.0 -3.608158092454e-04 
-3.249476260035e-04 1.935471720910e-04 0.0 
1.935471720910e-04 1.899890607766e-03 0.0 
0.0 0.0 -3.238926756799e-04 
-8.653379371192e-04 1.875602502825e-04 0.0 
1.875602502825e-04 5.671952828596e-03 0.0 
0.0 0.0 -8.647910268431e-04 
-1.297827382279e-03 4.785112367271e-06 0.0 
4.785112367271e-06 9.109555355960e-03 0.0 
0.0 0.0 -1.324146187826e-03 
-4.467143920627e-04 1.726574000164e-04 0.0 
1.726574000164e-04 2.617142877359e-03 0.0 
0.0 0.0 -4.244337567297e-04 
-1.156016819955e-03 1.914756519666e-04 0.0 
1.914756519666e-04 7.686772050836e-03 0.0 
0.0 0.0 -1.153422328581e-03 
-6.441918423609e-04 1.888512827499e-04 0.0 
1.888512827499e-04 4.126863023303e-03 0.0 
0.0 0.0 -6.430507458085e-04 
-9.827241532880e-04 -2.074075714334e-04 0.0 
-2.074075714334e-04 6.589898560790e-03 0.0 
0.0 0.0 -9.856407671940e-04 
-3.167090590366e-04 1.983492302007e-04 0.0 
1.983492302007e-04 1.826080605665e-03 0.0 
0.0 0.0 -3.129386394028e-04 
-1.211080746195e-03 -1.918872231890e-04 0.0 
-1.918872231890e-04 8.120902711811e-03 0.0 
0.0 0.0 -1.206759618350e-03 
-3.103668027408e-04 -1.740204278261e-04 0.0 
-1.740204278261e-04 1.967988296131e-03 0.0 
0.0 0.0 -3.202688159031e-04 
-4.904887743195e-04 1.972396724306e-04 0.0 
1.972396724306e-04 3.115116694861e-03 0.0 
0.0 0.0 -4.995972236199e-04 
-1.033982221523e-03 1.864504257492e-04 0.0 
1.864504257492e-04 6.836114975340e-03 0.0 
0.0 0.0 -1.031547093314e-03 
-7.437947252400e-04 -1.892750744378e-04 0.0 
-1.892750744378e-04 4.914077369227e-03 0.0 
0.0 0.0 -7.436172176343e-04 
-1.132860593058e-03 -1.933960126786e-04 0.0 
-1.933960126786e-04 7.665930668868e-03 0.0 
0.0 0.0 -1.139062866688e-03 
-5.749455652610e-04 -1.941924528230e-04 0.0 
-1.941924528230e-04 3.751246786669e-03 0.0 
0.0 0.0 -5.762899171568e-04 
-1.046111348023e-03 -1.920749274325e-04 0.0 
-1.920749274325e-04 7.006833931181e-03 0.0 
0.0 0.0 -1.044446328659e-03 
-1.179461128015e-03 1.956649310083e-04 0.0 
1.956649310083e-04 7.993560630903e-03 0.0 
0.0 0.0 -1.198892520503e-03 
-9.969097330870e-04 1.983464851524e-04 0.0 
1.983464851524e-04 6.585106213615e-03 0.0 
0.0 0.0 -9.940794652285e-04 
-1.204741342101e-03 -1.841288982354e-04 0.0 
-1.841288982354e-04 8.066681748081e-03 0.0 
0.0 0.0 -1.194784139986e-03 
-1.085983696521e-03 -2.024519851537e-04 0.0 
-2.024519851537e-04 7.301290877674e-03 0.0 
0.0 0.0 -1.087318097122e-03 
-1.116801267184e-03 -2.016255265415e-04 0.0 
-2.016255265415e-04 7.509256724676e-03 0.0 
0.0 0.0 -1.116677092124e-03 
-3.616370043148e-04 1.787208051054e-04 0.0 
1.787208051054e-04 2.150891016686e-03 0.0 
0.0 0.0 -3.599422446610e-04 
-1.117518330453e-03 1.826877579253e-04 0.0 
1.826877579253e-04 7.419146366892e-03 0.0 
0.0 0.0 -1.115908039155e-03 
-1.052373239860e-03 1.884691524878e-04 0.0 
1.884691524878e-04 6.996291933739e-03 0.0 
0.0 0.0 -1.053364550114e-03 
-7.811189844041e-04 1.901992250615e-04 0.0 
1.901992250615e-04 5.082233377235e-03 0.0 
0.0 0.0 -7.792489223127e-04 
-5.208782508076e-04 1.844281060277e-04 0.0 
1.844281060277e-04 3.081353701983e-03 0.0 
0.0 0.0 -4.908673385051e-04 
-1.207263385308e-03 -1.938793257757e-04 0.0 
-1.938793257757e-04 8.301996435605e-03 0.0 
0.0 0.0 -1.232292820449e-03 
-4.172393042970e-04 1.982283144972e-04 0.0 
1.982283144972e-04 2.530985310794e-03 0.0 
0.0 0.0 -4.142712813041e-04 
-4.585162122278e-04 -2.188978008166e-04 0.0 
-2.188978008166e-04 2.969334744373e-03 0.0 
0.0 0.0 -4.655197245388e-04 
-1.104373486365e-03 2.012226859916e-04 0.0 
2.012226859916e-04 7.350396136819e-03 0.0 
0.0 0.0 -1.105063927110e-03 
-2.968425273524e-04 -1.642057746455e-04 0.0 
-1.642057746455e-04 1.792416919804e-03 0.0 
0.0 0.0 -2.939799329518e-04 
-7.924236500379e-04 -1.848261227191e-04 0.0 
-1.848261227191e-04 5.252920665959e-03 0.0 
0.0 0.0 -7.924235178053e-04 
-1.061921988885e-03 1.812104659022e-04 0.0 
1.812104659022e-04 7.031393709581e-03 0.0 
0.0 0.0 -1.059843925468e-03 
-1.181481514864e-03 -1.809401034034e-04 0.0 
-1.809401034034e-04 7.945597505832e-03 0.0 
0.0 0.0 -1.181155146799e-03 
-1.216519596998e-03 -1.765367581353e-04 0.0 
-1.765367581353e-04 8.170458135963e-03 0.0 
0.0 0.0 -1.210943746944e-03 
-1.030728582983e-03 -1.988607177778e-04 0.0 
-1.988607177778e-04 6.902267769970e-03 0.0 
0.0 0.0 -1.028825005900e-03 
-1.124714132978e-03 -2.064810197621e-04 0.0 
-2.064810197621e-04 7.559899990810e-03 0.0 
0.0 0.0 -1.123737208958e-03 
-6.812903531147e-04 1.901379600772e-04 0.0 
1.901379600772e-04 4.380740483724e-03 0.0 
0.0 0.0 -6.793824814286e-04 
-1.062351922354e-03 -1.985736001597e-04 0.0 
-1.985736001597e-04 7.130265690032e-03 0.0 
0.0 0.0 -1.062452857821e-03 
-5.858181118698e-04 1.875072715160e-04 0.0 
1.875072715160e-04 3.545318163494e-03 0.0 
0.0 0.0 -5.576509564599e-04 
-1.191462796189e-03 1.791343230628e-04 0.0 
1.791343230628e-04 7.859967464318e-03 0.0 
0.0 0.0 -1.181751882508e-03 
-6.536967362184e-04 1.840019481607e-04 0.0 
1.840019481607e-04 4.012532136348e-03 0.0 
0.0 0.0 -6.243763318321e-04 
-6.397657085006e-04 1.469527108765e-04 0.0 
1.469527108765e-04 4.231461376740e-03 0.0 
0.0 0.0 -6.577503189808e-04 
-7.727292442473e-04 1.893751122867e-04 0.0 
1.893751122867e-04 5.025497285819e-03 0.0 
0.0 0.0 -7.717627972493e-04 
-7.120157842107e-04 2.033227012876e-04 0.0 
2.033227012876e-04 4.491531755345e-03 0.0 
0.0 0.0 -6.911701761307e-04 
-8.847543506959e-04 -1.860726363621e-04 0.0 
-1.860726363621e-04 5.886975687793e-03 0.0 
0.0 0.0 -8.833033330409e-04 
-7.223081526863e-04 -1.890141103709e-04 0.0 
-1.890141103709e-04 4.756005682412e-03 0.0 
0.0 0.0 -7.209687761305e-04 
-7.611226546141e-04 -1.925027368284e-04 0.0 
-1.925027368284e-04 5.033487039423e-03 0.0 
0.0 0.0 -7.606211034647e-04 
-3.677272213406e-04 1.965668598143e-04 0.0 
1.965668598143e-04 2.206714062611e-03 0.0 
0.0 0.0 -3.685806404478e-04 
-7.360898597851e-04 1.893736919884e-04 0.0 
1.893736919884e-04 4.769891666687e-03 0.0 
0.0 0.0 -7.353490689725e-04 
-1.164475384932e-03 1.920424604491e-04 0.0 
1.920424604491e-04 7.760458237861e-03 0.0 
0.0 0.0 -1.162517914204e-03 
-1.189135404011e-03 2.424308074022e-04 0.0 
2.424308074022e-04 8.008663372928e-03 0.0 
0.0 0.0 -1.195263893373e-03 
-1.051433761328e-03 1.900846295012e-04 0.0 
1.900846295012e-04 6.962500509983e-03 0.0 
0.0 0.0 -1.050100468764e-03 
-1.163815806160e-03 1.939359249112e-04 0.0 
1.939359249112e-04 7.801481486737e-03 0.0 
0.0 0.0 -1.170266998156e-03 
-7.471505649134e-04 1.914654167736e-04 0.0 
1.914654167736e-04 4.846432176661e-03 0.0 
0.0 0.0 -7.463264885205e-04 
-1.116874559966e-03 1.925152765080e-04 0.0 
1.925152765080e-04 7.452691656896e-03 0.0 
0.0 0.0 -1.119019617531e-03 
-7.641727686352e-04 1.895140519536e-04 0.0 
1.895140519536e-04 4.965709915575e-03 0.0 
0.0 0.0 -7.634232545038e-04 
-1.140149646673e-03 1.894710294717e-04 0.0 
1.894710294717e-04 7.619303377370e-03 0.0 
0.0 0.0 -1.144395376583e-03 
-1.089871366962e-03 1.866180545902e-04 0.0 
1.866180545902e-04 7.246015693997e-03 0.0 
0.0 0.0 -1.089631904438e-03 
-1.081578605974e-03 -1.978658757615e-04 0.0 
-1.978658757615e-04 7.257137764756e-03 0.0 
0.0 0.0 -1.080451501872e-03 
-9.579838523443e-04 1.886955211530e-04 0.0 
1.886955211530e-04 6.320335730528e-03 0.0 
0.0 0.0 -9.580909834143e-04 
-7.089543903964e-04 1.893728274013e-04 0.0 
1.893728274013e-04 4.575360328887e-03 0.0 
0.0 0.0 -7.073300717972e-04 
-1.127664739308e-03 -1.829222399519e-04 0.0 
-1.829222399519e-04 7.564515174457e-03 0.0 
0.0 0.0 -1.126038590206e-03 
-9.212765999104e-04 1.860043167073e-04 0.0 
1.860043167073e-04 6.042010505937e-03 0.0 
0.0 0.0 -9.169694165663e-04 
-3.707997860418e-04 -2.047832537350e-04 0.0 
-2.047832537350e-04 2.273008460466e-03 0.0 
0.0 0.0 -3.661348613279e-04 
-4.119491099640e-04 -1.837644939853e-04 0.0 
-1.837644939853e-04 2.602040481245e-03 0.0 
0.0 0.0 -4.113794265144e-04 
-6.058388203502e-04 1.800194521297e-04 0.0 
1.800194521297e-04 3.855006073365e-03 0.0 
0.0 0.0 -6.061407060701e-04 
-8.399206414718e-04 1.851255513351e-04 0.0 
1.851255513351e-04 5.491811110990e-03 0.0 
0.0 0.0 -8.384786063130e-04 
-1.169227413895e-03 1.987098364224e-04 0.0 
1.987098364224e-04 7.826180536376e-03 0.0 
0.0 0.0 -1.173545322487e-03 
-1.051413170775e-03 -2.036953792706e-04 0.0 
-2.036953792706e-04 7.051256599190e-03 0.0 
0.0 0.0 -1.051102540299e-03 
-7.053171708153e-04 -1.917417752613e-04 0.0 
-1.917417752613e-04 4.643848416984e-03 0.0 
0.0 0.0 -7.045205360201e-04 
-9.343548124899e-04 -1.929012807103e-04 0.0 
-1.929012807103e-04 6.238086933522e-03 0.0 
0.0 0.0 -9.344940742331e-04 
-1.088202517562e-03 1.963493920645e-04 0.0 
1.963493920645e-04 7.240451625201e-03 0.0 
0.0 0.0 -1.088599101970e-03 
-1.132213948578e-03 -2.019794901778e-04 0.0 
-2.019794901778e-04 7.607209750872e-03 0.0 
0.0 0.0 -1.130578931274e-03 
-1.175177652279e-03 -1.432114671164e-04 0.0 
-1.432114671164e-04 7.818239968608e-03 0.0 
0.0 0.0 -1.160781586281e-03 
-9.493017134459e-04 1.856369855212e-04 0.0 
1.856369855212e-04 6.294032018234e-03 0.0 
0.0 0.0 -9.517943393003e-04 
-1.114893974024e-03 1.926717475023e-04 0.0 
1.926717475023e-04 7.405468821271e-03 0.0 
0.0 0.0 -1.113435711030e-03 
-7.974711636665e-04 -1.944203939156e-04 0.0 
-1.944203939156e-04 5.288608064412e-03 0.0 
0.0 0.0 -7.971871449874e-04 
-1.087511397267e-03 -1.918432502510e-04 0.0 
-1.918432502510e-04 7.293095143965e-03 0.0 
0.0 0.0 -1.086118700983e-03 
-7.957657220237e-04 1.875502652183e-04 0.0 
1.875502652183e-04 5.187404479596e-03 0.0 
0.0 0.0 -7.951163407912e-04 
-1.190027282138e-03 -1.889094988141e-04 0.0 
-1.889094988141e-04 8.016045742998e-03 0.0 
0.0 0.0 -1.188704642750e-03 
-1.182786985987e-03 -2.095818808978e-04 0.0 
-2.095818808978e-04 8.112308359412e-03 0.0 
0.0 0.0 -1.200489323427e-03 
-8.931557397796e-04 1.886870491784e-04 0.0 
1.886870491784e-04 5.866647832542e-03 0.0 
0.0 0.0 -8.929891684399e-04 
-3.790334035775e-04 2.022524645534e-04 0.0 
2.022524645534e-04 2.272501623496e-03 0.0 
0.0 0.0 -3.776191643183e-04 
-1.116621675417e-03 1.833509055246e-04 0.0 
1.833509055246e-04 7.407703431036e-03 0.0 
0.0 0.0 -1.113685640909e-03 
-8.560269120279e-04 -1.850645517349e-04 0.0 
-1.850645517349e-04 5.691539379015e-03 0.0 
0.0 0.0 -8.555605426019e-04 
-6.779302938367e-04 -1.908402865228e-04 0.0 
-1.908402865228e-04 4.449768302467e-03 0.0 
0.0 0.0 -6.765734244908e-04 
-9.269459503729e-04 -1.957083840496e-04 0.0 
-1.957083840496e-04 6.192523979842e-03 0.0 
0.0 0.0 -9.269463096178e-04 
-1.072502528949e-03 -2.041434169699e-04 0.0 
-2.041434169699e-04 7.210267326329e-03 0.0 
0.0 0.0 -1.072977024862e-03 
-3.719606472363e-04 -1.835949221075e-04 0.0 
-1.835949221075e-04 2.345098090713e-03 0.0 
0.0 0.0 -3.746637649435e-04 
-8.285830534024e-04 1.877054302829e-04 0.0 
1.877054302829e-04 5.415216649357e-03 0.0 
0.0 0.0 -8.281205301186e-04 
-9.633029216945e-04 1.794107507866e-04 0.0 
1.794107507866e-04 6.339174664891e-03 0.0 
0.0 0.0 -9.596127204057e-04 
-1.165821597608e-03 -2.067678885502e-04 0.0 
-2.067678885502e-04 7.892442231831e-03 0.0 
0.0 0.0 -1.170838755190e-03 
-9.895100639472e-04 1.759458030688e-04 0.0 
1.759458030688e-04 6.529075947432e-03 0.0 
0.0 0.0 -9.876491701490e-04 
-1.085596099012e-03 1.937230915425e-04 0.0 
1.937230915425e-04 7.212019617214e-03 0.0 
0.0 0.0 -1.085374163265e-03 
-9.372562607785e-04 1.792840605658e-04 0.0 
1.792840605658e-04 6.146041579427e-03 0.0 
0.0 0.0 -9.316602363005e-04 
-8.975747507543e-04 1.987030926428e-04 0.0 
1.987030926428e-04 5.753154163109e-03 0.0 
0.0 0.0 -8.756372412555e-04 
-9.482059618595e-04 1.851978750998e-04 0.0 
1.851978750998e-04 6.234676071384e-03 0.0 
0.0 0.0 -9.447135688329e-04 
-1.130898821175e-03 2.049231627906e-04 0.0 
2.049231627906e-04 7.550084487667e-03 0.0 
0.0 0.0 -1.133505030480e-03 
-1.085374007423e-03 -2.008613375727e-04 0.0 
-2.008613375727e-04 7.297255264970e-03 0.0 
0.0 0.0 -1.084522140297e-03 
-1.016986910713e-03 1.835607482604e-04 0.0 
1.835607482604e-04 6.748472102274e-03 0.0 
0.0 0.0 -1.017300281410e-03 
-1.211783257084e-03 1.757837481836e-04 0.0 
1.757837481836e-04 8.121141767087e-03 0.0 
0.0 0.0 -1.212886757924e-03 
-9.118555854047e-04 1.822932037185e-04 0.0 
1.822932037185e-04 5.952136168219e-03 0.0 
0.0 0.0 -9.037302385344e-04 
-5.771676927997e-04 -1.905418044285e-04 0.0 
-1.905418044285e-04 3.749121588691e-03 0.0 
0.0 0.0 -5.760585567884e-04 
-1.146857850750e-03 -2.012024813042e-04 0.0 
-2.012024813042e-04 7.726356069459e-03 0.0 
0.0 0.0 -1.146733564437e-03 
-1.190361811188e-03 -2.231584585378e-04 0.0 
-2.231584585378e-04 8.068085284209e-03 0.0 
0.0 0.0 -1.196744929305e-03 
-7.877111731868e-04 1.869730341934e-04 0.0 
1.869730341934e-04 5.130080362463e-03 0.0 
0.0 0.0 -7.869228524964e-04 
-8.229073892259e-04 1.889823334213e-04 0.0 
1.889823334213e-04 5.378866845597e-03 0.0 
0.0 0.0 -8.226527892688e-04 
-6.410005540226e-04 -1.918474041219e-04 0.0 
-1.918474041219e-04 4.195976321249e-03 0.0 
0.0 0.0 -6.402419685743e-04 
-1.047323379365e-03 1.912705100611e-04 0.0 
1.912705100611e-04 6.951134229714e-03 0.0 
0.0 0.0 -1.046609947212e-03 
-6.536475585395e-04 1.928032985675e-04 0.0 
1.928032985675e-04 4.182884861133e-03 0.0 
0.0 0.0 -6.500746975200e-04 
-9.153598550125e-04 1.963880349302e-04 0.0 
1.963880349302e-04 6.020758345298e-03 0.0 
0.0 0.0 -9.137630964162e-04 
-6.488950437602e-04 -1.797823528638e-04 0.0 
-1.797823528638e-04 4.242459853736e-03 0.0 
0.0 0.0 -6.476280927198e-04 
-1.069873888271e-03 1.950588935170e-04 0.0 
1.950588935170e-04 7.095085750561e-03 0.0 
0.0 0.0 -1.068254633495e-03 
-1.209590731991e-03 -1.550085898134e-04 0.0 
-1.550085898134e-04 8.118970202182e-03 0.0 
0.0 0.0 -1.211228670573e-03 
-6.691229637013e-04 -1.915091740608e-04 0.0 
-1.915091740608e-04 4.390308397494e-03 0.0 
0.0 0.0 -6.682047883386e-04 
-2.351166358341e-04 -2.031494045747e-04 0.0 
-2.031494045747e-04 1.435993492405e-03 0.0 
0.0 0.0 -2.451578436693e-04 
-1.204420763458e-03 1.961268392442e-04 0.0 
1.961268392442e-04 8.059775147050e-03 0.0 
0.0 0.0 -1.207184308065e-03 
-6.887858324241e-04 1.799755313790e-04 0.0 
1.799755313790e-04 4.424727357305e-03 0.0 
0.0 0.0 -6.853381776776e-04 
-7.835288517237e-04 1.879460947127e-04 0.0 
1.879460947127e-04 5.099659123499e-03 0.0 
0.0 0.0 -7.828151049093e-04 
-1.160407951921e-03 2.005539249279e-04 0.0 
2.005539249279e-04 7.864449254895e-03 0.0 
0.0 0.0 -1.177925372349e-03 
-1.016320152694e-03 -1.997312198958e-04 0.0 
-1.997312198958e-04 6.802485040097e-03 0.0 
0.0 0.0 -1.015069748350e-03 
-1.057178896244e-03 -1.942199100265e-04 0.0 
-1.942199100265e-04 7.094939907720e-03 0.0 
0.0 0.0 -1.055879354346e-03 
-6.858748156510e-04 -1.861020149715e-04 0.0 
-1.861020149715e-04 4.508466491458e-03 0.0 
0.0 0.0 -6.851017020021e-04 
-2.031820811394e-04 1.985739834672e-04 0.0 
1.985739834672e-04 1.096275256380e-03 0.0 
0.0 0.0 -2.111397097017e-04 
-1.218012060933e-03 -2.324828983585e-04 0.0 
-2.324828983585e-04 8.157957467951e-03 0.0 
0.0 0.0 -1.202131160132e-03 
-8.665795831995e-04 1.858441781355e-04 0.0 
1.858441781355e-04 5.682543428283e-03 0.0 
0.0 0.0 -8.660506973337e-04 
-1.008559534197e-03 -2.140754109309e-04 0.0 
-2.140754109309e-04 6.735537996686e-03 0.0 
0.0 0.0 -1.007142642412e-03 
-1.160459194418e-03 1.856922992242e-04 0.0 
1.856922992242e-04 7.735308684736e-03 0.0 
0.0 0.0 -1.157822513452e-03 
-1.616552956257e-04 1.423609377969e-04 0.0 
1.423609377969e-04 6.732585101887e-04 0.0 
0.0 0.0 -1.502316149797e-04 
-1.058859563023e-03 1.992298708810e-04 0.0 
1.992298708810e-04 7.024120321951e-03 0.0 
0.0 0.0 -1.058763633038e-03 
-4.932099791950e-04 -1.894809356614e-04 0.0 
-1.894809356614e-04 3.157806772283e-03 0.0 
0.0 0.0 -4.919579008500e-04 
-9.451714429142e-04 -2.012700485207e-04 0.0 
-2.012700485207e-04 6.343190678808e-03 0.0 
0.0 0.0 -9.498437721210e-04 
-8.487405687036e-04 -1.950463421940e-04 0.0 
-1.950463421940e-04 5.654542604036e-03 0.0 
0.0 0.0 -8.496012432876e-04 
-6.717289225013e-04 1.881380853814e-04 0.0 
1.881380853814e-04 4.320340016049e-03 0.0 
0.0 0.0 -6.709551114794e-04 
-1.138399201716e-03 -1.969931368524e-04 0.0 
-1.969931368524e-04 7.687743728139e-03 0.0 
0.0 0.0 -1.141635569211e-03 
-8.863371368954e-04 1.906753618111e-04 0.0 
1.906753618111e-04 5.821740968712e-03 0.0 
0.0 0.0 -8.859145181037e-04 
-6.078808339746e-04 1.896100471318e-04 0.0 
1.896100471318e-04 3.873866771809e-03 0.0 
0.0 0.0 -6.067458373204e-04 
-8.988471733596e-04 -1.905617358742e-04 0.0 
-1.905617358742e-04 5.993481774552e-03 0.0 
0.0 0.0 -8.989548790023e-04 
-1.952954180545e-04 -1.905102926163e-04 0.0 
-1.905102926163e-04 1.173502522438e-03 0.0 
0.0 0.0 -2.081142276587e-04 
-1.024988576596e-03 -1.935191657477e-04 0.0 
-1.935191657477e-04 6.880398785368e-03 0.0 
0.0 0.0 -1.026417656363e-03 
-1.069604476726e-03 -1.976553008557e-04 0.0 
-1.976553008557e-04 7.163110056360e-03 0.0 
0.0 0.0 -1.065496432940e-03 
-1.229744167387e-03 -1.464305357593e-04 0.0 
-1.464305357593e-04 8.209785373221e-03 0.0 
0.0 0.0 -1.233600908384e-03 
-1.090183204667e-03 -1.971253990561e-04 0.0 
-1.971253990561e-04 7.328950110722e-03 0.0 
0.0 0.0 -1.090749533212e-03 
-4.766984691118e-04 -1.850928375114e-04 0.0 
-1.850928375114e-04 3.048442125330e-03 0.0 
0.0 0.0 -4.758149136988e-04 
-1.046974953030e-03 -1.977469482829e-04 0.0 
-1.977469482829e-04 7.033167652259e-03 0.0 
0.0 0.0 -1.047231727503e-03 
-1.207083647933e-03 1.808427044483e-04 0.0 
1.808427044483e-04 8.205581432035e-03 0.0 
0.0 0.0 -1.228155452712e-03 
-1.260668266969e-03 -1.832526413473e-04 0.0 
-1.832526413473e-04 8.522719369677e-03 0.0 
0.0 0.0 -1.267145247477e-03 
-1.104740620517e-03 -1.903291503950e-04 0.0 
-1.903291503950e-04 7.419136809817e-03 0.0 
0.0 0.0 -1.102242875413e-03 
-7.141399757063e-04 -1.908850217655e-04 0.0 
-1.908850217655e-04 4.699621454475e-03 0.0 
0.0 0.0 -7.127912709901e-04 
-9.617225215176e-04 -1.932311968947e-04 0.0 
-1.932311968947e-04 6.435112240426e-03 0.0 
0.0 0.0 -9.624716764950e-04 
-1.172863749534e-03 1.716370371983e-04 0.0 
1.716370371983e-04 7.752633284680e-03 0.0 
0.0 0.0 -1.164316760544e-03 
-7.921196063416e-04 -1.921710320450e-04 0.0 
-1.921710320450e-04 5.233600587143e-03 0.0 
0.0 0.0 -7.878971455476e-04 
-1.056322180914e-03 1.849092776284e-04 0.0 
1.849092776284e-04 7.010189158039e-03 0.0 
0.0 0.0 -1.057196955382e-03 
-9.850942903468e-04 1.906307977985e-04 0.0 
1.906307977985e-04 6.538331902211e-03 0.0 
0.0 0.0 -9.877098122506e-04 
-1.110739431392e-03 -1.980632731678e-04 0.0 
-1.980632731678e-04 7.489376108620e-03 0.0 
0.0 0.0 -1.112977059762e-03 
-1.093828226484e-03 -1.876429130193e-04 0.0 
-1.876429130193e-04 7.351584596061e-03 0.0 
0.0 0.0 -1.093234982489e-03 
-7.343177045735e-04 -9.465157044590e-06 0.0 
-9.465157044590e-06 4.570354151395e-03 0.0 
0.0 0.0 -7.313513689239e-04 
-7.305590051733e-04 3.402678996767e-05 0.0 
3.402678996767e-05 4.568649633296e-03 0.0 
0.0 0.0 -7.310574395863e-04 
-9.952316992060e-04 -2.061010920873e-04 0.0 
-2.061010920873e-04 6.656041030992e-03 0.0 
0.0 0.0 -9.927888931629e-04 
-9.918488233690e-04 1.857079994066e-04 0.0 
1.857079994066e-04 6.564735410895e-03 0.0 
0.0 0.0 -9.930598132463e-04 
-8.773556303313e-04 -1.926873992318e-04 0.0 
-1.926873992318e-04 5.856781784187e-03 0.0 
0.0 0.0 -8.780428295617e-04 
-9.805249871409e-04 -1.924563760952e-04 0.0 
-1.924563760952e-04 6.542490604406e-03 0.0 
0.0 0.0 -9.775429604617e-04 
-8.511934619470e-04 1.885314516425e-04 0.0 
1.885314516425e-04 5.570767617800e-03 0.0 
0.0 0.0 -8.502279965035e-04 
-1.193540881150e-03 1.313307987014e-04 0.0 
1.313307987014e-04 7.848740983510e-03 0.0 
0.0 0.0 -1.180288150054e-03 
-7.169159808387e-04 1.897237155631e-04 0.0 
1.897237155631e-04 4.633470113633e-03 0.0 
0.0 0.0 -7.154845226688e-04 
-1.330586332229e-03 -3.342005871353e-05 0.0 
-3.342005871353e-05 9.092648121720e-03 0.0 
0.0 0.0 -1.323793839065e-03 
-8.042874267729e-04 1.538278548702e-04 0.0 
1.538278548702e-04 5.332999869485e-03 0.0 
0.0 0.0 -8.119939454945e-04 
-8.205821157683e-04 -1.889603009902e-04 0.0 
-1.889603009902e-04 5.445817958641e-03 0.0 
0.0 0.0 -8.199314282332e-04 
-8.518598072760e-04 1.933057744939e-04 0.0 
1.933057744939e-04 5.584111954891e-03 0.0 
0.0 0.0 -8.523954645778e-04 
-4.499586564247e-04 -1.855256695766e-04 0.0 
-1.855256695766e-04 2.857022821909e-03 0.0 
0.0 0.0 -4.479040077299e-04 
-7.538979209402e-04 -1.934413965155e-04 0.0 
-1.934413965155e-04 4.995274109938e-03 0.0 
0.0 0.0 -7.551671247638e-04 
-9.291971374277e-04 1.860662208979e-04 0.0 
1.860662208979e-04 6.122384862718e-03 0.0 
0.0 0.0 -9.293281999836e-04 
-8.759687264254e-04 1.862073937602e-04 0.0 
1.862073937602e-04 5.739375914108e-03 0.0 
0.0 0.0 -8.738309435711e-04 
-9.814387768267e-04 1.839019607207e-04 0.0 
1.839019607207e-04 6.501334764277e-03 0.0 
0.0 0.0 -9.814596669550e-04 
-1.010867161751e-03 1.870829556364e-04 0.0 
1.870829556364e-04 6.678666577386e-03 0.0 
0.0 0.0 -1.008022096355e-03 
-1.044436862417e-03 -1.926634021926e-04 0.0 
-1.926634021926e-04 6.979659342720e-03 0.0 
0.0 0.0 -1.040850218070e-03 
-2.258973833718e-04 -1.030107291086e-04 0.0 
-1.030107291086e-04 1.399562224303e-03 0.0 
0.0 0.0 -2.163717569139e-04 
-7.194022022389e-04 1.955668345424e-04 0.0 
1.955668345424e-04 4.667671693721e-03 0.0 
0.0 0.0 -7.209013985657e-04 
-6.852716132608e-04 -1.859370640984e-04 0.0 
-1.859370640984e-04 4.485062449844e-03 0.0 
0.0 0.0 -6.825522065409e-04 
-9.565981315295e-04 1.790846631940e-04 0.0 
1.790846631940e-04 6.284252226282e-03 0.0 
0.0 0.0 -9.521954671713e-04 
-9.888411307371e-04 -1.922642027801e-04 0.0 
-1.922642027801e-04 6.601876220435e-03 0.0 
0.0 0.0 -9.850634846466e-04 
-1.155748252282e-03 1.797617113703e-04 0.0 
1.797617113703e-04 7.721330663973e-03 0.0 
0.0 0.0 -1.160108757481e-03 
-3.430926826770e-04 2.099465977867e-04 0.0 
2.099465977867e-04 1.967318145224e-03 0.0 
0.0 0.0 -3.273996513303e-04 
-3.332214715971e-04 -1.766782033718e-04 0.0 
-1.766782033718e-04 2.091595055548e-03 0.0 
0.0 0.0 -3.377286911054e-04 
-8.312276761858e-04 1.871380545801e-04 0.0 
1.871380545801e-04 5.435579353952e-03 0.0 
0.0 0.0 -8.305977116616e-04 
-7.164446669360e-04 -1.954011667160e-04 0.0 
-1.954011667160e-04 4.735861933211e-03 0.0 
0.0 0.0 -7.181358556540e-04 
-6.612400540538e-04 -2.145984864481e-04 0.0 
-2.145984864481e-04 4.300984587983e-03 0.0 
0.0 0.0 -6.554599841463e-04 
-6.892288823092e-04 -1.712097974294e-04 0.0 
-1.712097974294e-04 4.548932917262e-03 0.0 
0.0 0.0 -6.889204951115e-04 
-9.785151366904e-04 -1.903688334857e-04 0.0 
-1.903688334857e-04 6.552823194572e-03 0.0 
0.0 0.0 -9.793492904611e-04 
-3.279214625417e-04 -1.856414295293e-04 0.0 
-1.856414295293e-04 2.036611823989e-03 0.0 
0.0 0.0 -3.302473245842e-04 
-8.146691974455e-04 1.910766766110e-04 0.0 
1.910766766110e-04 5.328191831945e-03 0.0 
0.0 0.0 -8.154759146177e-04 
-1.049892567768e-03 -1.923181012939e-04 0.0 
-1.923181012939e-04 7.038288222671e-03 0.0 
0.0 0.0 -1.049209916622e-03 
-3.402244297759e-04 2.055488950203e-04 0.0 
2.055488950203e-04 2.007315154740e-03 0.0 
0.0 0.0 -3.408226701431e-04 
-1.289740643797e-03 -2.865690188004e-05 0.0 
-2.865690188004e-05 8.457698383589e-03 0.0 
0.0 0.0 -1.285586381397e-03 
-1.153161816539e-03 -1.810911126316e-04 0.0 
-1.810911126316e-04 7.745860400322e-03 0.0 
0.0 0.0 -1.152455342817e-03 
-7.730865248008e-04 -1.936313324955e-04 0.0 
-1.936313324955e-04 5.137233279798e-03 0.0 
0.0 0.0 -7.756113943005e-04 
-1.077943790440e-03 1.906149656784e-04 0.0 
1.906149656784e-04 7.162163658694e-03 0.0 
0.0 0.0 -1.078722419643e-03 
-1.818286327115e-04 -5.320949396074e-06 0.0 
-5.320949396074e-06 7.441773179852e-04 0.0 
0.0 0.0 -1.797547709840e-04 
-1.014460031072e-03 -2.000580684662e-04 0.0 
-2.000580684662e-04 6.784645211728e-03 0.0 
0.0 0.0 -1.012471576362e-03 
-8.638932840094e-04 -1.877196228479e-04 0.0 
-1.877196228479e-04 5.746441231772e-03 0.0 
0.0 0.0 -8.634366945984e-04 
-1.573089574218e-04 6.060813636257e-06 0.0 
6.060813636257e-06 7.379677460024e-04 0.0 
0.0 0.0 -1.788519809851e-04 
-1.152359323407e-03 1.787160847201e-04 0.0 
1.787160847201e-04 7.696182759720e-03 0.0 
0.0 0.0 -1.154859126927e-03 
-3.172722260096e-04 -1.887798844868e-04 0.0 
-1.887798844868e-04 1.899275964143e-03 0.0 
0.0 0.0 -3.099791425632e-04 
-9.534030089958e-04 -1.885226890488e-04 0.0 
-1.885226890488e-04 6.348031499756e-03 0.0 
0.0 0.0 -9.496453321265e-04 
-8.720767110959e-04 -1.896937711200e-04 0.0 
-1.896937711200e-04 5.800514782336e-03 0.0 
0.0 0.0 -8.712718144564e-04 
-7.527095169076e-04 -1.904145446511e-04 0.0 
-1.904145446511e-04 4.974920507200e-03 0.0 
0.0 0.0 -7.519815330289e-04 
-9.060865555047e-04 1.986245932987e-04 0.0 
1.986245932987e-04 5.963263483029e-03 0.0 
0.0 0.0 -9.052548162676e-04 
-1.186359257630e-03 1.790401943917e-04 0.0 
1.790401943917e-04 7.910120458871e-03 0.0 
0.0 0.0 -1.182898372388e-03 
-9.717172959483e-04 2.017731235506e-04 0.0 
2.017731235506e-04 6.421670982773e-03 0.0 
0.0 0.0 -9.716005391690e-04 
-8.586682738839e-04 1.870585543685e-04 0.0 
1.870585543685e-04 5.626729716629e-03 0.0 
0.0 0.0 -8.581765416018e-04 
-8.285502932263e-04 -1.869792024667e-04 0.0 
-1.869792024667e-04 5.500044709232e-03 0.0 
0.0 0.0 -8.279616112547e-04 
-1.157597014143e-04 1.569592925357e-04 0.0 
1.569592925357e-04 5.309685908670e-04 0.0 
0.0 0.0 -1.241199786263e-04 
-2.771697128881e-04 1.878257284126e-04 0.0 
1.878257284126e-04 1.577050393967e-03 0.0 
0.0 0.0 -2.761011822561e-04 
-1.118878802421e-03 -1.775376209317e-04 0.0 
-1.775376209317e-04 7.515980410063e-03 0.0 
0.0 0.0 -1.118331045454e-03 
-9.134689604251e-04 -2.151070896450e-04 0.0 
-2.151070896450e-04 6.054442910930e-03 0.0 
0.0 0.0 -9.085367473448e-04 
-1.157427958602e-03 1.810891327533e-04 0.0 
1.810891327533e-04 7.664331777096e-03 0.0 
0.0 0.0 -1.148691026115e-03 
-4.952790128067e-04 1.926215238326e-04 0.0 
1.926215238326e-04 3.096112546519e-03 0.0 
0.0 0.0 -4.942977111402e-04 
-1.099935257767e-03 1.964856595336e-04 0.0 
1.964856595336e-04 7.292900558944e-03 0.0 
0.0 0.0 -1.097950598811e-03 
-1.159977421736e-03 -1.899588415039e-04 0.0 
-1.899588415039e-04 7.782799989863e-03 0.0 
0.0 0.0 -1.155407764312e-03 
-7.046437970110e-04 1.771780882184e-04 0.0 
1.771780882184e-04 4.649202442725e-03 0.0 
0.0 0.0 -7.179420443741e-04 
-1.123089437587e-03 1.668381000104e-04 0.0 
1.668381000104e-04 7.448723404798e-03 0.0 
0.0 0.0 -1.120992621467e-03 
-1.074800466033e-03 -1.979281231238e-04 0.0 
-1.979281231238e-04 7.231750290380e-03 0.0 
0.0 0.0 -1.075946734593e-03 
-9.566951811484e-04 1.885305449409e-04 0.0 
1.885305449409e-04 6.314170866049e-03 0.0 
0.0 0.0 -9.571162043194e-04 
-7.858129650109e-04 1.950519568745e-04 0.0 
1.950519568745e-04 5.127464531984e-03 0.0 
0.0 0.0 -7.866383436874e-04 
-8.200429817129e-04 -1.955984029235e-04 0.0 
-1.955984029235e-04 5.453789901756e-03 0.0 
0.0 0.0 -8.209012074946e-04 
-1.208173698565e-03 -2.031466844656e-04 0.0 
-2.031466844656e-04 8.155254103189e-03 0.0 
0.0 0.0 -1.204704583718e-03 
-8.401419513637e-04 1.955438232624e-04 0.0 
1.955438232624e-04 5.506398965405e-03 0.0 
0.0 0.0 -8.396599866114e-04 
-9.021075521636e-04 1.852176330369e-04 0.0 
1.852176330369e-04 5.931413313431e-03 0.0 
0.0 0.0 -9.015555482168e-04 
-8.449278259679e-04 1.962826855989e-04 0.0 
1.962826855989e-04 5.533739272216e-03 0.0 
0.0 0.0 -8.433600309793e-04 
-1.038695295048e-03 1.973550359402e-04 0.0 
1.973550359402e-04 6.882197727615e-03 0.0 
0.0 0.0 -1.038364586984e-03 
-7.853544279650e-04 -1.888908667992e-04 0.0 
-1.888908667992e-04 5.195025610649e-03 0.0 
0.0 0.0 -7.842421616061e-04 
-5.077615371431e-04 1.925383574265e-04 0.0 
1.925383574265e-04 3.178371744144e-03 0.0 
0.0 0.0 -5.065804551108e-04 
-8.563679286656e-04 1.886904600152e-04 0.0 
1.886904600152e-04 5.609470178926e-03 0.0 
0.0 0.0 -8.561803240471e-04 
-5.442096767108e-04 1.899929291301e-04 0.0 
1.899929291301e-04 3.427592308512e-03 0.0 
0.0 0.0 -5.426160209679e-04 
-9.840239484115e-04 1.860183386348e-04 0.0 
1.860183386348e-04 6.482342277994e-03 0.0 
0.0 0.0 -9.799122972177e-04 
-5.401920244119e-04 -1.881877507061e-04 0.0 
-1.881877507061e-04 3.494301074598e-03 0.0 
0.0 0.0 -5.399485503622e-04 
-9.444560097486e-04 -1.940759614132e-04 0.0 
-1.940759614132e-04 6.297600198433e-03 0.0 
0.0 0.0 -9.420580210740e-04 
-1.136089878121e-03 -1.928967352453e-04 0.0 
-1.928967352453e-04 7.622114445815e-03 0.0 
0.0 0.0 -1.130549445556e-03 
-1.098744179893e-03 1.868758827566e-04 0.0 
1.868758827566e-04 7.288601580292e-03 0.0 
0.0 0.0 -1.096529089934e-03 
-7.525839073148e-04 1.884470413513e-04 0.0 
1.884470413513e-04 4.883223458127e-03 0.0 
0.0 0.0 -7.512528815036e-04 
-9.420690742012e-04 1.904423332235e-04 0.0 
1.904423332235e-04 6.250031840530e-03 0.0 
0.0 0.0 -9.460253849645e-04 
-1.105063984059e-03 1.902259811921e-04 0.0 
1.902259811921e-04 7.362332298091e-03 0.0 
0.0 0.0 -1.107441567342e-03 
-1.102593190183e-03 -1.984125757140e-04 0.0 
-1.984125757140e-04 7.431259929710e-03 0.0 
0.0 0.0 -1.104747680386e-03 
-2.748138935716e-04 -1.822651738482e-04 0.0 
-1.822651738482e-04 1.604872033163e-03 0.0 
0.0 0.0 -2.683291303717e-04 
-9.752435611011e-04 1.861325910200e-04 0.0 
1.861325910200e-04 6.426869973039e-03 0.0 
0.0 0.0 -9.724793438395e-04 
-1.198880595075e-03 2.442779644092e-04 0.0 
2.442779644092e-04 8.051846061103e-03 0.0 
0.0 0.0 -1.205818386895e-03 
-5.437300718267e-04 1.772584891247e-04 0.0 
1.772584891247e-04 3.388245147726e-03 0.0 
0.0 0.0 -5.357889572170e-04 
-8.407105615714e-04 -1.927518630570e-04 0.0 
-1.927518630570e-04 5.595089898141e-03 0.0 
0.0 0.0 -8.409532000723e-04 
-1.642955148473e-04 -1.732273966109e-04 0.0 
-1.732273966109e-04 7.998697341648e-04 0.0 
0.0 0.0 -1.553180670733e-04 
-1.132480187466e-03 1.879569331440e-04 0.0 
1.879569331440e-04 7.560437012022e-03 0.0 
0.0 0.0 -1.136235114959e-03 
-4.806530012621e-04 1.926320631025e-04 0.0 
1.926320631025e-04 2.980823159841e-03 0.0 
0.0 0.0 -4.785631936959e-04 
-8.099198933223e-04 1.419617410747e-04 0.0 
1.419617410747e-04 5.272582332729e-03 0.0 
0.0 0.0 -8.166178341775e-04 
-1.008233793579e-03 2.173973549694e-04 0.0 
2.173973549694e-04 6.687663611020e-03 0.0 
0.0 0.0 -1.008721701990e-03 
-9.403782054792e-04 -1.899510314299e-04 0.0 
-1.899510314299e-04 6.304690927512e-03 0.0 
0.0 0.0 -9.438854677472e-04 
-8.963572268652e-04 1.741364622751e-04 0.0 
1.741364622751e-04 5.997227966099e-03 0.0 
0.0 0.0 -9.108073647308e-04 
-8.940895927013e-04 1.874273657985e-04 0.0 
1.874273657985e-04 5.875054319372e-03 0.0 
0.0 0.0 -8.936906232635e-04 
-5.964027012772e-04 -1.969270146159e-04 0.0 
-1.969270146159e-04 3.828565622584e-03 0.0 
0.0 0.0 -5.884905393267e-04 
-6.222186473161e-04 -1.579598216188e-04 0.0 
-1.579598216188e-04 4.074275639624e-03 0.0 
0.0 0.0 -6.218825813656e-04 
-1.132545466856e-03 -1.921788675688e-04 0.0 
-1.921788675688e-04 7.631342050474e-03 0.0 
0.0 0.0 -1.133400347077e-03 
-9.399834973732e-04 -2.076180111174e-04 0.0 
-2.076180111174e-04 6.274716467853e-03 0.0 
0.0 0.0 -9.394087121358e-04 
-8.165998643398e-04 -1.896618384882e-04 0.0 
-1.896618384882e-04 5.425461381261e-03 0.0 
0.0 0.0 -8.164864906097e-04 
-1.015808219044e-03 2.043119981127e-04 0.0 
2.043119981127e-04 6.724239760090e-03 0.0 
0.0 0.0 -1.014986374720e-03 
-7.921952984756e-04 1.876569442452e-04 0.0 
1.876569442452e-04 5.161072896404e-03 0.0 
0.0 0.0 -7.915105747054e-04 
-5.132154280476e-04 -1.871647182001e-04 0.0 
-1.871647182001e-04 3.302371768383e-03 0.0 
0.0 0.0 -5.119962057136e-04 
-5.745746208367e-04 1.485352442875e-04 0.0 
1.485352442875e-04 3.755895310226e-03 0.0 
0.0 0.0 -5.908395828668e-04 
-8.562635021512e-04 -1.754512107452e-04 0.0 
-1.754512107452e-04 5.627343192984e-03 0.0 
0.0 0.0 -8.442294783838e-04 
-7.160648306052e-04 7.585704491009e-06 0.0 
7.585704491009e-06 4.849167370763e-03 0.0 
0.0 0.0 -7.121995050294e-04 
-1.098907698795e-03 -1.935603852202e-04 0.0 
-1.935603852202e-04 7.356586615962e-03 0.0 
0.0 0.0 -1.093598669875e-03 
-7.500784032912e-04 -1.888438395023e-04 0.0 
-1.888438395023e-04 4.947212343952e-03 0.0 
0.0 0.0 -7.486350631497e-04 
-1.210182417684e-03 1.765917680884e-04 0.0 
1.765917680884e-04 8.247529209770e-03 0.0 
0.0 0.0 -1.233571955743e-03 
-1.118284649088e-03 2.239133535709e-04 0.0 
2.239133535709e-04 7.476894485255e-03 0.0 
0.0 0.0 -1.121177773779e-03 
-8.254740426919e-04 -1.929282224425e-04 0.0 
-1.929282224425e-04 5.485443478807e-03 0.0 
0.0 0.0 -8.252461108756e-04 
-1.242964237003e-03 -2.139177796874e-04 0.0 
-2.139177796874e-04 8.349538837109e-03 0.0 
0.0 0.0 -1.241472629463e-03 
-5.687293433059e-04 -1.915120142833e-04 0.0 
-1.915120142833e-04 3.690790191525e-03 0.0 
0.0 0.0 -5.682622744621e-04 
-1.208040625364e-03 1.849401074130e-04 0.0 
1.849401074130e-04 8.046920265334e-03 0.0 
0.0 0.0 -1.204482468497e-03 
-8.913551845653e-04 -1.878094076417e-04 0.0 
-1.878094076417e-04 5.940020385334e-03 0.0 
0.0 0.0 -8.910665706739e-04 
-9.852542746410e-04 1.871572406668e-04 0.0 
1.871572406668e-04 6.505324580404e-03 0.0 
0.0 0.0 -9.848034212814e-04 
-1.145107580505e-03 -1.842496915473e-04 0.0 
-1.842496915473e-04 7.703101384869e-03 0.0 
0.0 0.0 -1.146785027167e-03 
-5.943655314035e-04 -1.832199318589e-04 0.0 
-1.832199318589e-04 3.893020220943e-03 0.0 
0.0 0.0 -5.958228065582e-04 
-9.389816814797e-04 1.876119276122e-04 0.0 
1.876119276122e-04 6.182064030220e-03 0.0 
0.0 0.0 -9.369464185080e-04 
-7.887299262109e-04 -1.887974843369e-04 0.0 
-1.887974843369e-04 5.230247920474e-03 0.0 
0.0 0.0 -7.886172400246e-04 
-9.083774489983e-04 -1.902700926230e-04 0.0 
-1.902700926230e-04 6.046157002466e-03 0.0 
0.0 0.0 -9.065670216064e-04 
-5.279887302567e-04 -1.859379540021e-04 0.0 
-1.859379540021e-04 3.395303897193e-03 0.0 
0.0 0.0 -5.268093404353e-04 
-1.014606245907e-03 2.103915705160e-04 0.0 
2.103915705160e-04 6.713973890446e-03 0.0 
0.0 0.0 -1.013229387512e-03 
-7.553250635679e-04 1.889436264505e-04 0.0 
1.889436264505e-04 4.904153081957e-03 0.0 
0.0 0.0 -7.548706880268e-04 
-8.804539724126e-04 1.911528069323e-04 0.0 
1.911528069323e-04 5.783141817002e-03 0.0 
0.0 0.0 -8.810281692460e-04 
-9.122003311205e-04 1.835312424394e-04 0.0 
1.835312424394e-04 5.985147494673e-03 0.0 
0.0 0.0 -9.091416541300e-04 
-1.779440610295e-04 -1.030848282903e-04 0.0 
-1.030848282903e-04 7.740733373014e-04 0.0 
0.0 0.0 -1.392682743729e-04 
-9.092484897749e-04 2.049076976716e-04 0.0 
2.049076976716e-04 5.988548295435e-03 0.0 
0.0 0.0 -9.082496170556e-04 
-2.130732635602e-04 -2.101807231715e-04 0.0 
-2.101807231715e-04 1.221567911034e-03 0.0 
0.0 0.0 -2.164288490095e-04 
-2.520548988868e-04 2.059906335289e-04 0.0 
2.059906335289e-04 1.360441870585e-03 0.0 
0.0 0.0 -2.410360834028e-04 
-8.430214645806e-04 1.870171193368e-04 0.0 
1.870171193368e-04 5.521874591652e-03 0.0 
0.0 0.0 -8.438072171805e-04 
-1.100618043992e-03 -1.995199700289e-04 0.0 
-1.995199700289e-04 7.372933681793e-03 0.0 
0.0 0.0 -1.098354823938e-03 
-9.336786887582e-04 1.772618600829e-04 0.0 
1.772618600829e-04 6.184069199665e-03 0.0 
0.0 0.0 -9.387552692590e-04 
-5.316814076804e-04 -1.951121058158e-04 0.0 
-1.951121058158e-04 3.374217008638e-03 0.0 
0.0 0.0 -5.215302833573e-04 
-1.342322198460e-03 1.355075091338e-05 0.0 
1.355075091338e-05 8.860022296973e-03 0.0 
0.0 0.0 -1.342322198460e-03 
-6.904184216633e-05 1.341545190439e-04 0.0 
1.341545190439e-04 2.607547295547e-04 0.0 
0.0 0.0 -8.216266602360e-05 
-5.589210723321e-04 -1.329418113690e-04 0.0 
-1.329418113690e-04 3.609084095352e-03 0.0 
0.0 0.0 -5.549805679787e-04 
-8.477696331988e-04 1.855996582246e-04 0.0 
1.855996582246e-04 5.547050172852e-03 0.0 
0.0 0.0 -8.472740691907e-04 
-8.035495844310e-04 -1.953259203623e-04 0.0 
-1.953259203623e-04 5.337013229194e-03 0.0 
0.0 0.0 -8.042584860449e-04 
-6.757348554203e-04 -1.653998453620e-04 0.0 
-1.653998453620e-04 4.426804148949e-03 0.0 
0.0 0.0 -6.733236465360e-04 
-5.914609098287e-04 1.823071808114e-04 0.0 
1.823071808114e-04 3.765270744377e-03 0.0 
0.0 0.0 -5.908717820549e-04 
-8.740292955769e-04 -1.984478198410e-04 0.0 
-1.984478198410e-04 5.813273429386e-03 0.0 
0.0 0.0 -8.733819075714e-04 
-9.264128048314e-04 -1.908219560731e-04 0.0 
-1.908219560731e-04 6.187717693911e-03 0.0 
0.0 0.0 -9.266779469803e-04 
-9.738255750276e-04 2.028683516140e-04 0.0 
2.028683516140e-04 6.450883656299e-03 0.0 
0.0 0.0 -9.734188451722e-04 
-1.155174733819e-03 2.031393399309e-04 0.0 
2.031393399309e-04 7.608098909853e-03 0.0 
0.0 0.0 -1.144302277022e-03 
-2.998307148874e-04 1.817771268844e-04 0.0 
1.817771268844e-04 1.707947677580e-03 0.0 
0.0 0.0 -2.976331147772e-04 
-7.774732960360e-04 1.902311186531e-04 0.0 
1.902311186531e-04 5.067412702539e-03 0.0 
0.0 0.0 -7.784793977761e-04 
-8.354929195800e-04 1.868427274729e-04 0.0 
1.868427274729e-04 5.469964258699e-03 0.0 
0.0 0.0 -8.356154970834e-04 
-4.516910884492e-04 -2.032153244339e-04 0.0 
-2.032153244339e-04 2.897475389763e-03 0.0 
0.0 0.0 -4.544023106810e-04 
-7.514806211766e-04 2.187245154034e-04 0.0 
2.187245154034e-04 4.887888210751e-03 0.0 
0.0 0.0 -7.518103749233e-04 
-9.376130433125e-04 -2.007012642150e-04 0.0 
-2.007012642150e-04 6.245928942655e-03 0.0 
0.0 0.0 -9.362314798257e-04 
-1.020402468730e-03 -1.946865508960e-04 0.0 
-1.946865508960e-04 6.790144563629e-03 0.0 
0.0 0.0 -1.023451880212e-03 
-1.525732992224e-04 8.599813621991e-06 0.0 
8.599813621991e-06 1.000033467602e-03 0.0 
0.0 0.0 -1.605242656235e-04 
-1.269812495822e-04 -2.531001823489e-04 0.0 
-2.531001823489e-04 4.902479252968e-04 0.0 
0.0 0.0 -1.185594205871e-04 
-3.241357878482e-04 -1.842994986653e-04 0.0 
-1.842994986653e-04 2.004473459914e-03 0.0 
0.0 0.0 -3.233707900025e-04 
-8.334989762747e-04 -1.938999604970e-04 0.0 
-1.938999604970e-04 5.537569679809e-03 0.0 
0.0 0.0 -8.330087554115e-04 
-6.325222328161e-04 -1.881321833313e-04 0.0 
-1.881321833313e-04 4.138956718805e-03 0.0 
0.0 0.0 -6.322020076307e-04 
-5.606822046863e-04 -1.836386180369e-04 0.0 
-1.836386180369e-04 3.638290895272e-03 0.0 
0.0 0.0 -5.605319560360e-04 
-5.042968556974e-04 -1.874920210369e-04 0.0 
-1.874920210369e-04 3.240689773487e-03 0.0 
0.0 0.0 -5.041580933422e-04 
-8.721332834429e-04 1.863637843611e-04 0.0 
1.863637843611e-04 5.722466013089e-03 0.0 
0.0 0.0 -8.721335634590e-04 
-9.951021354220e-04 1.863977597818e-04 0.0 
1.863977597818e-04 6.578139400737e-03 0.0 
0.0 0.0 -9.956198530692e-04 
-8.650795473337e-04 1.875435944103e-04 0.0 
1.875435944103e-04 5.670505538654e-03 0.0 
0.0 0.0 -8.643287579461e-04 
-6.358273554876e-04 1.861975192937e-04 0.0 
1.861975192937e-04 4.071155698746e-03 0.0 
0.0 0.0 -6.348607296063e-04 
-9.711834339353e-04 -2.012117718550e-04 0.0 
-2.012117718550e-04 6.487584772475e-03 0.0 
0.0 0.0 -9.699423737970e-04 
-8.101971348646e-04 1.641316877204e-04 0.0 
1.641316877204e-04 5.432076920036e-03 0.0 
0.0 0.0 -8.236220363599e-04 
-1.071983661584e-03 2.130963721819e-04 0.0 
2.130963721819e-04 7.145357950686e-03 0.0 
0.0 0.0 -1.076197569190e-03 
-8.626714893425e-04 -1.942405500946e-04 0.0 
-1.942405500946e-04 5.738328913224e-03 0.0 
0.0 0.0 -8.617642947636e-04 
-8.702702279884e-04 -1.921753086919e-04 0.0 
-1.921753086919e-04 5.792753129953e-03 0.0 
0.0 0.0 -8.694825820363e-04 
-4.645559553229e-04 -1.981925654935e-04 0.0 
-1.981925654935e-04 2.889937884798e-03 0.0 
0.0 0.0 -4.548485160793e-04 
-6.608554486331e-04 -1.864091804662e-04 0.0 
-1.864091804662e-04 4.336541054874e-03 0.0 
0.0 0.0 -6.598952468720e-04 
-8.926027030231e-04 1.843043537544e-04 0.0 
1.843043537544e-04 5.864339266433e-03 0.0 
0.0 0.0 -8.930692851043e-04 
-9.679615503639e-04 1.696948557832e-04 0.0 
1.696948557832e-04 6.395623785343e-03 0.0 
0.0 0.0 -9.615701295831e-04 
-9.079120183865e-04 1.806035671013e-04 0.0 
1.806035671013e-04 6.008465197653e-03 0.0 
0.0 0.0 -8.972249362023e-04 
-4.966173735405e-04 -1.549710521066e-04 0.0 
-1.549710521066e-04 3.153972529156e-03 0.0 
0.0 0.0 -4.879487645214e-04 
-9.010013592765e-04 1.886793445213e-04 0.0 
1.886793445213e-04 5.923625585035e-03 0.0 
0.0 0.0 -9.007118478549e-04 
-5.518253028037e-04 -1.783371210293e-04 0.0 
-1.783371210293e-04 3.577417440001e-03 0.0 
0.0 0.0 -5.517684601482e-04 
-2.845535083016e-04 1.977607623022e-04 0.0 
1.977607623022e-04 1.633750881917e-03 0.0 
0.0 0.0 -2.811347238918e-04 
-1.188918642902e-03 -1.918974946843e-04 0.0 
-1.918974946843e-04 8.111302423947e-03 0.0 
0.0 0.0 -1.202908440308e-03 
-3.019785591690e-04 1.950774455603e-04 0.0 
1.950774455603e-04 1.726883632229e-03 0.0 
0.0 0.0 -3.019870735033e-04 
-5.828626320579e-04 1.860512938998e-04 0.0 
1.860512938998e-04 3.705650589538e-03 0.0 
0.0 0.0 -5.822209219963e-04 
-8.781768956790e-04 -1.986806572288e-04 0.0 
-1.986806572288e-04 5.833892611307e-03 0.0 
0.0 0.0 -8.766521650092e-04 
-5.060723315699e-04 1.405250353070e-04 0.0 
1.405250353070e-04 3.287884117067e-03 0.0 
0.0 0.0 -5.239962781855e-04 
-8.898132346489e-04 -1.977943572352e-04 0.0 
-1.977943572352e-04 5.946896776319e-03 0.0 
0.0 0.0 -8.905656347129e-04 
-4.258375091185e-04 -2.178895733922e-04 0.0 
-2.178895733922e-04 2.688533932087e-03 0.0 
0.0 0.0 -4.282508963332e-04 
-7.578747057613e-04 -1.654300402080e-04 0.0 
-1.654300402080e-04 5.036141076678e-03 0.0 
0.0 0.0 -7.823486082854e-04 
-9.004251462807e-04 -1.892315142781e-04 0.0 
-1.892315142781e-04 5.992307029229e-03 0.0 
0.0 0.0 -8.981647654366e-04 
-7.810617461966e-04 -1.867589919143e-04 0.0 
-1.867589919143e-04 5.170374097518e-03 0.0 
0.0 0.0 -7.800125773855e-04 
-8.113930582064e-04 -1.934831491269e-04 0.0 
-1.934831491269e-04 5.398532171848e-03 0.0 
0.0 0.0 -8.126672281948e-04 
-1.456223754453e-04 -1.153284200368e-04 0.0 
-1.153284200368e-04 8.334024863152e-04 0.0 
0.0 0.0 -1.489310416055e-04 
-1.183619524390e-03 -1.995906802130e-04 0.0 
-1.995906802130e-04 7.793015624773e-03 0.0 
0.0 0.0 -1.152567315725e-03 
-6.518619288048e-04 -1.801864724235e-04 0.0 
-1.801864724235e-04 4.278312019353e-03 0.0 
0.0 0.0 -6.514572604261e-04 
-1.161957516655e-03 2.065796963047e-04 0.0 
2.065796963047e-04 7.737413579119e-03 0.0 
0.0 0.0 -1.154039482800e-03 
-9.839722502603e-04 -1.958677314331e-04 0.0 
-1.958677314331e-04 6.578387584555e-03 0.0 
0.0 0.0 -9.821191134873e-04 
-9.294100606496e-04 1.930061835790e-04 0.0 
1.930061835790e-04 6.122204066633e-03 0.0 
0.0 0.0 -9.293965016571e-04 
-9.285061071557e-04 -1.774497838441e-04 0.0 
-1.774497838441e-04 6.189509746344e-03 0.0 
0.0 0.0 -9.268654845074e-04 
-5.996189068560e-04 1.852055889783e-04 0.0 
1.852055889783e-04 3.820597089734e-03 0.0 
0.0 0.0 -5.989583036242e-04 
-1.944838745679e-04 1.584109702943e-04 0.0 
1.584109702943e-04 1.163625171840e-03 0.0 
0.0 0.0 -2.103425724855e-04 
-1.545095455242e-04 1.193388759037e-04 0.0 
1.193388759037e-04 6.563556231282e-04 0.0 
0.0 0.0 -1.599169489567e-04 
-9.548054477989e-04 1.928585704838e-04 0.0 
1.928585704838e-04 6.318843775437e-03 0.0 
0.0 0.0 -9.583065114986e-04 
-1.160173340718e-03 1.884012827660e-04 0.0 
1.884012827660e-04 7.692007981726e-03 0.0 
0.0 0.0 -1.148056181429e-03 
-5.412400896945e-04 -1.740896251805e-04 0.0 
-1.740896251805e-04 3.519775267643e-03 0.0 
0.0 0.0 -5.426247857783e-04 
-1.000629830532e-03 1.900148255986e-04 0.0 
1.900148255986e-04 6.622819157878e-03 0.0 
0.0 0.0 -1.000702849114e-03 
-5.014074309498e-04 1.897737110036e-04 0.0 
1.897737110036e-04 3.104700833587e-03 0.0 
0.0 0.0 -5.002094317253e-04 
-1.008257874699e-03 -1.995045898855e-04 0.0 
-1.995045898855e-04 6.739421236299e-03 0.0 
0.0 0.0 -1.005614027492e-03 
-1.275786431467e-03 1.088711895384e-04 0.0 
1.088711895384e-04 8.693642459064e-03 0.0 
0.0 0.0 -1.266534580134e-03 
-5.404710541836e-05 1.564499946379e-05 0.0 
1.564499946379e-05 2.310460762638e-04 0.0 
0.0 0.0 -4.512473402930e-05 
-1.341620833825e-03 -3.423569445624e-05 0.0 
-3.423569445624e-05 8.854172159817e-03 0.0 
0.0 0.0 -1.341620833825e-03 
-1.340051318819e-03 3.419351748213e-06 0.0 
3.419351748213e-06 8.881496154702e-03 0.0 
0.0 0.0 -1.340051318819e-03 
-8.003500561082e-04 -1.973446332083e-04 0.0 
-1.973446332083e-04 5.182732733425e-03 0.0 
0.0 0.0 -7.955197795907e-04 
-6.427190039752e-04 -1.771623886154e-04 0.0 
-1.771623886154e-04 4.219584582941e-03 0.0 
0.0 0.0 -6.428246066218e-04 
-9.539959357727e-04 -1.903436421629e-04 0.0 
-1.903436421629e-04 6.384067375959e-03 0.0 
0.0 0.0 -9.543595451431e-04 
-6.046483611248e-04 -1.904684548622e-04 0.0 
-1.904684548622e-04 3.941030960147e-03 0.0 
0.0 0.0 -6.041149214933e-04 
-2.015327089857e-04 -1.787857606077e-04 0.0 
-1.787857606077e-04 1.215175486256e-03 0.0 
0.0 0.0 -2.095884814006e-04 
-1.358502302165e-04 -1.652436952664e-04 0.0 
-1.652436952664e-04 5.860561493667e-04 0.0 
0.0 0.0 -1.201211790779e-04 
-1.224116731780e-03 -1.601620163346e-04 0.0 
-1.601620163346e-04 8.159917680932e-03 0.0 
0.0 0.0 -1.209499414335e-03 
-9.670306227229e-04 -2.102097021759e-04 0.0 
-2.102097021759e-04 6.456763428288e-03 0.0 
0.0 0.0 -9.648175333861e-04 
-7.505793698933e-04 -1.832067976458e-04 0.0 
-1.832067976458e-04 4.862883335491e-03 0.0 
0.0 0.0 -7.224789237172e-04 
-1.308106101880e-03 -9.564346375640e-06 0.0 
-9.564346375640e-06 9.104818726286e-03 0.0 
0.0 0.0 -1.323661129950e-03 
-3.723881451927e-04 -2.095753772030e-04 0.0 
-2.095753772030e-04 2.251170567838e-03 0.0 
0.0 0.0 -3.615704333793e-04 
-1.338587368780e-03 -1.150799812337e-05 0.0 
-1.150799812337e-05 9.097604261257e-03 0.0 
0.0 0.0 -1.324908485340e-03 
-9.656783964584e-04 1.862090128514e-04 0.0 
1.862090128514e-04 6.391762053029e-03 0.0 
0.0 0.0 -9.670422101491e-04 
-6.322851321105e-04 -1.782670103148e-04 0.0 
-1.782670103148e-04 4.156088603212e-03 0.0 
0.0 0.0 -6.336394413500e-04 
-9.215195886709e-04 1.858262024962e-04 0.0 
1.858262024962e-04 6.065159777351e-03 0.0 
0.0 0.0 -9.212972352143e-04 
-6.095245585205e-04 1.817233461859e-04 0.0 
1.817233461859e-04 3.888318231073e-03 0.0 
0.0 0.0 -6.094834619596e-04 
-3.161972729321e-04 2.118996039674e-04 0.0 
2.118996039674e-04 1.862493464303e-03 0.0 
0.0 0.0 -3.160312483096e-04 
-5.714172847083e-04 1.885506067566e-04 0.0 
1.885506067566e-04 3.631122930928e-03 0.0 
0.0 0.0 -5.728018649490e-04 
-1.022496320278e-03 1.929428534962e-04 0.0 
1.929428534962e-04 6.770909400157e-03 0.0 
0.0 0.0 -1.023749757194e-03 
-1.150976429886e-03 -2.032424840275e-04 0.0 
-2.032424840275e-04 7.758939253249e-03 0.0 
0.0 0.0 -1.155390781228e-03 
-6.187002398341e-04 1.818215273869e-04 0.0 
1.818215273869e-04 3.950326342677e-03 0.0 
0.0 0.0 -6.181853003094e-04 
-1.037480631671e-03 1.889356953886e-04 0.0 
1.889356953886e-04 6.873009589990e-03 0.0 
0.0 0.0 -1.036271578259e-03 
0.0 0.0 0.0 
0.0 0.0 0.0 
0.0 0.0 0.0 
-6.276661230388e-04 1.792694929945e-04 0.0 
1.792694929945e-04 4.010933515786e-03 0.0 
0.0 0.0 -6.266282162577e-04 
-1.067618640436e-03 -2.059979659696e-04 0.0 
-2.059979659696e-04 7.168819223232e-03 0.0 
0.0 0.0 -1.066385360782e-03 
-5.602476022505e-04 1.913249262792e-04 0.0 
1.913249262792e-04 3.548859392025e-03 0.0 
0.0 0.0 -5.616069800515e-04 
-5.034317169211e-04 -1.766316395616e-04 0.0 
-1.766316395616e-04 3.262973984744e-03 0.0 
0.0 0.0 -5.052880831394e-04 
-9.189958469858e-04 -1.860644213167e-04 0.0 
-1.860644213167e-04 6.131142810909e-03 0.0 
0.0 0.0 -9.187611816440e-04 
-2.798438621563e-04 2.024562614015e-04 0.0 
2.024562614015e-04 1.659164072585e-03 0.0 
0.0 0.0 -2.979563435985e-04 
-4.237702008277e-04 -1.193704641066e-04 0.0 
-1.193704641066e-04 2.381332436810e-03 0.0 
0.0 0.0 -3.867203691650e-04 
-3.975764326489e-04 -1.798608620237e-04 0.0 
-1.798608620237e-04 2.707475849368e-03 0.0 
0.0 0.0 -4.195921675762e-04 
-4.963058465455e-04 1.849091904100e-04 0.0 
1.849091904100e-04 3.099739962777e-03 0.0 
0.0 0.0 -4.973376392308e-04 
-8.459383987434e-04 -1.907145818210e-04 0.0 
-1.907145818210e-04 5.622335891913e-03 0.0 
0.0 0.0 -8.444178005646e-04 
-8.162577903273e-04 1.917219888079e-04 0.0 
1.917219888079e-04 5.328762658263e-03 0.0 
0.0 0.0 -8.147327860213e-04 
-1.033805230839e-03 -2.014200165048e-04 0.0 
-2.014200165048e-04 6.928519613423e-03 0.0 
0.0 0.0 -1.033897369924e-03 
-1.221633880436e-03 1.327525419154e-04 0.0 
1.327525419154e-04 8.105302040654e-03 0.0 
0.0 0.0 -1.224260864640e-03 
-4.437323643489e-04 1.289034247085e-04 0.0 
1.289034247085e-04 2.824272473931e-03 0.0 
0.0 0.0 -4.570814260163e-04 
-1.026282183515e-03 -2.469645237371e-04 0.0 
-2.469645237371e-04 6.837925098464e-03 0.0 
0.0 0.0 -1.028620860735e-03 
-1.232340650598e-03 1.232265702215e-04 0.0 
1.232265702215e-04 8.131356307241e-03 0.0 
0.0 0.0 -1.228414553209e-03 
-5.714514367838e-04 1.903885160707e-04 0.0 
1.903885160707e-04 3.625837711505e-03 0.0 
0.0 0.0 -5.707601703556e-04 
-2.135565257302e-04 2.102195190306e-04 0.0 
2.102195190306e-04 1.190116728888e-03 0.0 
0.0 0.0 -2.192200328082e-04 
-5.324811030586e-04 -1.564509498562e-04 0.0 
-1.564509498562e-04 3.456619354267e-03 0.0 
0.0 0.0 -5.330167430730e-04 
-8.085387987626e-04 -1.885177874860e-04 0.0 
-1.885177874860e-04 5.361946972923e-03 0.0 
0.0 0.0 -8.082977034869e-04 
-1.047924752938e-03 1.956397865657e-04 0.0 
1.956397865657e-04 6.924645327261e-03 0.0 
0.0 0.0 -1.043024347135e-03 
-8.126482086337e-04 1.904262971100e-04 0.0 
1.904262971100e-04 5.297787546946e-03 0.0 
0.0 0.0 -8.108276944599e-04 
-2.458088517301e-04 -1.138196901462e-04 0.0 
-1.138196901462e-04 1.452613291321e-03 0.0 
0.0 0.0 -2.343049260409e-04 
-9.102031090638e-04 -2.013755147983e-04 0.0 
-2.013755147983e-04 6.070783801232e-03 0.0 
0.0 0.0 -9.096068616062e-04 
-3.560167896549e-04 2.151383842189e-04 0.0 
2.151383842189e-04 2.131802985450e-03 0.0 
0.0 0.0 -3.508512830963e-04 
-8.140185260576e-04 -1.926928755880e-04 0.0 
-1.926928755880e-04 5.389465675351e-03 0.0 
0.0 0.0 -8.123573650817e-04 
-8.767776688194e-04 2.024483433581e-04 0.0 
2.024483433581e-04 5.751188307413e-03 0.0 
0.0 0.0 -8.756097305517e-04 
-9.509565837624e-04 1.896974231217e-04 0.0 
1.896974231217e-04 6.265385166788e-03 0.0 
0.0 0.0 -9.491391837787e-04 
-9.274205801970e-04 -1.707730266069e-04 0.0 
-1.707730266069e-04 6.212775611049e-03 0.0 
0.0 0.0 -9.494079867578e-04 
-4.906398001625e-04 -1.749565167891e-04 0.0 
-1.749565167891e-04 3.179973922092e-03 0.0 
0.0 0.0 -4.933620968966e-04 
-2.484574972914e-04 1.853035354059e-04 0.0 
1.853035354059e-04 1.372800011643e-03 0.0 
0.0 0.0 -2.459554264611e-04 
-9.419221611826e-04 2.078178624915e-04 0.0 
2.078178624915e-04 6.213877196692e-03 0.0 
0.0 0.0 -9.415329344942e-04 
-3.796687070467e-04 1.987051729866e-04 0.0 
1.987051729866e-04 2.349690832434e-03 0.0 
0.0 0.0 -3.857152600925e-04 
-1.079925297708e-04 2.094696628342e-04 0.0 
2.094696628342e-04 4.385964497386e-04 0.0 
0.0 0.0 -1.205192217350e-04 
-1.217003238982e-03 1.715975421034e-04 0.0 
1.715975421034e-04 8.115367819263e-03 0.0 
0.0 0.0 -1.223389224544e-03 
-1.152822377069e-03 1.914748152748e-04 0.0 
1.914748152748e-04 7.732583850779e-03 0.0 
0.0 0.0 -1.157435638217e-03 
-9.394432781398e-05 -1.620283716039e-05 0.0 
-1.620283716039e-05 3.135234532214e-04 0.0 
0.0 0.0 -9.410533946034e-05 
-9.757772886518e-04 -2.084469974537e-04 0.0 
-2.084469974537e-04 6.524951865197e-03 0.0 
0.0 0.0 -9.758309632659e-04 
-3.896708157340e-04 -1.763476574511e-04 0.0 
-1.763476574511e-04 2.457499880861e-03 0.0 
0.0 0.0 -3.887237773309e-04 
-4.187709573894e-04 2.113072011152e-04 0.0 
2.113072011152e-04 2.560835545987e-03 0.0 
0.0 0.0 -4.195855280820e-04 
-1.100445862982e-03 1.933828922323e-04 0.0 
1.933828922323e-04 7.327011461119e-03 0.0 
0.0 0.0 -1.100737838324e-03 
-9.470047501208e-04 -1.877990577056e-04 0.0 
-1.877990577056e-04 6.324416518396e-03 0.0 
0.0 0.0 -9.467522836136e-04 
-1.064750852218e-03 1.888034529427e-04 0.0 
1.888034529427e-04 7.071897550473e-03 0.0 
0.0 0.0 -1.064854740548e-03 
-6.246803119835e-04 -1.813696095215e-04 0.0 
-1.813696095215e-04 4.082455365693e-03 0.0 
0.0 0.0 -6.238888496032e-04 
-7.066733059565e-04 2.079397955112e-05 0.0 
2.079397955112e-05 4.859565834242e-03 0.0 
0.0 0.0 -7.105917616147e-04 
-1.294146159652e-03 -3.864697892397e-05 0.0 
-3.864697892397e-05 8.444131533072e-03 0.0 
0.0 0.0 -1.281538364137e-03 
-3.542163761970e-04 2.028127844720e-04 0.0 
2.028127844720e-04 2.096644602115e-03 0.0 
0.0 0.0 -3.541816848729e-04 
-1.125206372116e-03 -1.754172072947e-04 0.0 
-1.754172072947e-04 7.521489804146e-03 0.0 
0.0 0.0 -1.121221582973e-03 
-8.491762958406e-04 -1.918772025260e-04 0.0 
-1.918772025260e-04 5.637172269943e-03 0.0 
0.0 0.0 -8.477100451819e-04 
-2.548170229509e-04 1.666770740484e-04 0.0 
1.666770740484e-04 1.576109573106e-03 0.0 
0.0 0.0 -2.892354545592e-04 
-1.017444257442e-03 1.870623454717e-04 0.0 
1.870623454717e-04 6.717348757917e-03 0.0 
0.0 0.0 -1.015166614560e-03 
-6.631831128869e-04 1.857158928685e-04 0.0 
1.857158928685e-04 4.263729749942e-03 0.0 
0.0 0.0 -6.628028861993e-04 
-1.684732311542e-04 2.043772270918e-05 0.0 
2.043772270918e-05 7.313008481942e-04 0.0 
0.0 0.0 -1.790968519484e-04 
-5.636882380034e-04 1.819527752727e-04 0.0 
1.819527752727e-04 3.574156729662e-03 0.0 
0.0 0.0 -5.632129589051e-04 
-9.884210265131e-04 1.935912308442e-04 0.0 
1.935912308442e-04 6.630368017320e-03 0.0 
0.0 0.0 -9.915417172310e-04 
-1.024292652289e-03 -1.998354067082e-04 0.0 
-1.998354067082e-04 6.855679602380e-03 0.0 
0.0 0.0 -1.020980360542e-03 
-2.668718187998e-04 -1.887143997354e-04 0.0 
-1.887143997354e-04 1.647579462571e-03 0.0 
0.0 0.0 -2.713190868338e-04 
-7.786512140660e-04 -1.180089749439e-04 0.0 
-1.180089749439e-04 5.426201302135e-03 0.0 
0.0 0.0 -8.076288038732e-04 
-1.074110154891e-03 1.985848318847e-04 0.0 
1.985848318847e-04 7.134481455861e-03 0.0 
0.0 0.0 -1.071782534217e-03 
-1.102896231441e-03 -1.801608730721e-04 0.0 
-1.801608730721e-04 7.447194143767e-03 0.0 
0.0 0.0 -1.109893377180e-03 
-5.341916501155e-04 1.805786256932e-04 0.0 
1.805786256932e-04 3.363027861628e-03 0.0 
0.0 0.0 -5.351738145117e-04 
-4.305045173780e-04 1.931657245159e-04 0.0 
1.931657245159e-04 2.621086994850e-03 0.0 
0.0 0.0 -4.333934152438e-04 
-8.799765506504e-04 1.996562479781e-04 0.0 
1.996562479781e-04 5.778741680504e-03 0.0 
0.0 0.0 -8.786267582723e-04 
-9.199821990293e-04 -2.154181819420e-04 0.0 
-2.154181819420e-04 6.117399840533e-03 0.0 
0.0 0.0 -9.278975173457e-04 
-1.674260928547e-04 -1.501342801196e-05 0.0 
-1.501342801196e-05 7.277150164985e-04 0.0 
0.0 0.0 -1.762926913357e-04 
-1.274115998275e-03 1.675675276402e-06 0.0 
1.675675276402e-06 8.713591812970e-03 0.0 
0.0 0.0 -1.269179263065e-03 
-1.298508155882e-03 1.869502884704e-05 0.0 
1.869502884704e-05 8.443421948614e-03 0.0 
0.0 0.0 -1.281197857596e-03 
-8.292940884850e-04 -1.917175163011e-04 0.0 
-1.917175163011e-04 5.414946975704e-03 0.0 
0.0 0.0 -8.387747867703e-04 
-1.244952979202e-03 -2.282010355606e-04 0.0 
-2.282010355606e-04 8.516132030964e-03 0.0 
0.0 0.0 -1.255037608383e-03 
-1.285595461777e-03 8.758262611812e-05 0.0 
8.758262611812e-05 8.470225568410e-03 0.0 
0.0 0.0 -1.285499913836e-03 
-6.550628368552e-04 1.846091374224e-04 0.0 
1.846091374224e-04 4.205898052995e-03 0.0 
0.0 0.0 -6.542748834104e-04 
-6.160633711768e-04 -1.792561832397e-04 0.0 
-1.792561832397e-04 4.023102319788e-03 0.0 
0.0 0.0 -6.153450468602e-04 
-1.283033344166e-03 -3.678337033124e-05 0.0 
-3.678337033124e-05 8.728014596535e-03 0.0 
0.0 0.0 -1.265535665854e-03 
0.0 0.0 0.0 
0.0 0.0 0.0 
0.0 0.0 0.0 
-3.991066787644e-04 2.089649564116e-04 0.0 
2.089649564116e-04 2.425063075378e-03 0.0 
0.0 0.0 -3.941707820484e-04 
-8.514609378297e-04 2.123409869842e-04 0.0 
2.123409869842e-04 5.409120252618e-03 0.0 
0.0 0.0 -8.329475646481e-04 
-5.302799896406e-04 -1.732779148191e-04 0.0 
-1.732779148191e-04 3.448271069514e-03 0.0 
0.0 0.0 -5.313546330462e-04 
-5.563051708704e-04 1.844916340551e-04 0.0 
1.844916340551e-04 3.512912497570e-03 0.0 
0.0 0.0 -5.546931404481e-04 
-3.415568276898e-04 -1.308054941934e-04 0.0 
-1.308054941934e-04 1.889315350148e-03 0.0 
0.0 0.0 -3.196518454468e-04 
-3.575678493770e-04 -1.815157908242e-04 0.0 
-1.815157908242e-04 2.264784395116e-03 0.0 
0.0 0.0 -3.528063275151e-04 
-8.197996438863e-04 -1.649479054574e-04 0.0 
-1.649479054574e-04 5.559213606059e-03 0.0 
0.0 0.0 -8.290026594306e-04 
-5.969369916122e-04 -1.873932769643e-04 0.0 
-1.873932769643e-04 3.888936242251e-03 0.0 
0.0 0.0 -5.962921515785e-04 
-4.656748358331e-04 1.698564554769e-04 0.0 
1.698564554769e-04 2.821912241395e-03 0.0 
0.0 0.0 -4.583473518421e-04 
-1.081990949278e-03 2.020316486048e-04 0.0 
2.020316486048e-04 7.171935137813e-03 0.0 
0.0 0.0 -1.077832113627e-03 
-1.313638198111e-03 -3.076900631439e-06 0.0 
-3.076900631439e-06 9.102354608081e-03 0.0 
0.0 0.0 -1.324978758543e-03 
-1.341095485501e-03 -7.065196985574e-05 0.0 
-7.065196985574e-05 9.093683970561e-03 0.0 
0.0 0.0 -1.320624918399e-03 
-6.462169745443e-04 1.855628978644e-04 0.0 
1.855628978644e-04 4.145339439620e-03 0.0 
0.0 0.0 -6.457427040837e-04 
-7.708747032324e-04 1.041783851500e-04 0.0 
1.041783851500e-04 4.982091340538e-03 0.0 
0.0 0.0 -7.877541558771e-04 
-8.769640556113e-05 6.178156653804e-05 0.0 
6.178156653804e-05 4.782988861832e-04 0.0 
0.0 0.0 -9.215226380795e-05 
-2.633621526956e-04 -2.203101725457e-04 0.0 
-2.203101725457e-04 1.488332341374e-03 0.0 
0.0 0.0 -2.565684379859e-04 
-2.684503074307e-04 -1.015967117788e-04 0.0 
-1.015967117788e-04 1.723596733047e-03 0.0 
0.0 0.0 -2.726290318112e-04 
-2.937144985059e-04 -1.893501464246e-04 0.0 
-1.893501464246e-04 1.729218905568e-03 0.0 
0.0 0.0 -2.902597925154e-04 
-9.132607495649e-04 -1.959093978123e-04 0.0 
-1.959093978123e-04 6.073898974161e-03 0.0 
0.0 0.0 -9.116044729693e-04 
-5.464820601322e-04 1.827990156846e-04 0.0 
1.827990156846e-04 3.450683961523e-03 0.0 
0.0 0.0 -5.459662534218e-04 
-5.889189184564e-04 -1.828572680718e-04 0.0 
-1.828572680718e-04 3.834736165113e-03 0.0 
0.0 0.0 -5.879858557453e-04 
-1.839870051548e-04 -1.451969745408e-04 0.0 
-1.451969745408e-04 1.010884541365e-03 0.0 
0.0 0.0 -1.607067486349e-04 
-1.189299804196e-03 3.101361533276e-05 0.0 
3.101361533276e-05 7.702189552740e-03 0.0 
0.0 0.0 -1.176327079312e-03 
-5.798619533544e-04 -1.808661495353e-04 0.0 
-1.808661495353e-04 3.773380412779e-03 0.0 
0.0 0.0 -5.792774345575e-04 
-1.207908513450e-03 1.972281472903e-04 0.0 
1.972281472903e-04 8.083641670665e-03 0.0 
0.0 0.0 -1.212957849656e-03 
-1.102884565855e-03 -1.433383463998e-04 0.0 
-1.433383463998e-04 7.411218118786e-03 0.0 
0.0 0.0 -1.117460450001e-03 
-1.327052993259e-03 5.039016474574e-05 0.0 
5.039016474574e-05 9.117456944274e-03 0.0 
0.0 0.0 -1.319418651152e-03 
-1.323160438534e-03 4.113209317417e-05 0.0 
4.113209317417e-05 9.111232254039e-03 0.0 
0.0 0.0 -1.324849633189e-03 
-8.429214028197e-04 1.551938721599e-04 0.0 
1.551938721599e-04 5.556754036543e-03 0.0 
0.0 0.0 -8.315138651140e-04 
-6.054182665991e-04 -1.761595556497e-04 0.0 
-1.761595556497e-04 3.962557590825e-03 0.0 
0.0 0.0 -6.063493599945e-04 
-3.773225086312e-04 1.540184482811e-04 0.0 
1.540184482811e-04 2.369883884178e-03 0.0 
0.0 0.0 -3.884917441798e-04 
-6.362526417499e-04 1.880822988670e-04 0.0 
1.880822988670e-04 4.081289822239e-03 0.0 
0.0 0.0 -6.367902913543e-04 
-1.343328350294e-03 -2.242232029301e-05 0.0 
-2.242232029301e-05 8.871791449146e-03 0.0 
0.0 0.0 -1.343328350294e-03 
-1.941237960476e-04 -2.080169990243e-04 0.0 
-2.080169990243e-04 1.015510769409e-03 0.0 
0.0 0.0 -1.893367542308e-04 
-2.245210048569e-04 -1.692984650136e-04 0.0 
-1.692984650136e-04 1.259236592297e-03 0.0 
0.0 0.0 -2.228547875044e-04 
-1.167115373107e-03 -1.495116845835e-04 0.0 
-1.495116845835e-04 7.791699083978e-03 0.0 
0.0 0.0 -1.156027955174e-03 
-7.604196719999e-04 1.094016003118e-05 0.0 
1.094016003118e-05 5.257478836262e-03 0.0 
0.0 0.0 -7.715229432315e-04 
-1.218850929264e-03 2.058644676408e-04 0.0 
2.058644676408e-04 8.144525734943e-03 0.0 
0.0 0.0 -1.219279742240e-03 
-1.071479820018e-03 -2.036323164842e-04 0.0 
-2.036323164842e-04 7.177512432405e-03 0.0 
0.0 0.0 -1.069611963270e-03 
-1.173316210076e-03 1.967322517175e-04 0.0 
1.967322517175e-04 7.835584524311e-03 0.0 
0.0 0.0 -1.175036385391e-03 
-1.118458415257e-03 -2.207277967068e-04 0.0 
-2.207277967068e-04 7.508134580034e-03 0.0 
0.0 0.0 -1.113576918908e-03 
-8.412072480000e-04 1.822595111316e-04 0.0 
1.822595111316e-04 5.484810982914e-03 0.0 
0.0 0.0 -8.542750875040e-04 
-4.656106938285e-04 -1.713235230467e-04 0.0 
-1.713235230467e-04 3.001776381545e-03 0.0 
0.0 0.0 -4.674384380614e-04 
-4.697017346435e-04 1.848050694813e-04 0.0 
1.848050694813e-04 2.920597782787e-03 0.0 
0.0 0.0 -4.715697005044e-04 
-9.776991098989e-04 1.861960494422e-04 0.0 
1.861960494422e-04 6.549106674112e-03 0.0 
0.0 0.0 -9.963059934037e-04 
-1.137349181097e-03 -2.318464835195e-04 0.0 
-2.318464835195e-04 7.668040183404e-03 0.0 
0.0 0.0 -1.142506377625e-03 
-7.233340711098e-04 3.952444560700e-05 0.0 
3.952444560700e-05 4.569127107640e-03 0.0 
0.0 0.0 -7.345222264051e-04 
-7.670993363219e-04 9.419055026096e-06 0.0 
9.419055026096e-06 5.242908179151e-03 0.0 
0.0 0.0 -7.676068998053e-04 
-8.154774784067e-04 -6.428956903028e-05 0.0 
-6.428956903028e-05 5.577286133226e-03 0.0 
0.0 0.0 -8.242303029217e-04 
-8.631530775677e-04 -2.400243606270e-04 0.0 
-2.400243606270e-04 5.666444636218e-03 0.0 
0.0 0.0 -8.467401457521e-04 
-2.520894261651e-04 1.671748571763e-04 0.0 
1.671748571763e-04 1.368563506489e-03 0.0 
0.0 0.0 -2.397236108670e-04 
-4.305788114654e-04 1.772776305973e-04 0.0 
1.772776305973e-04 2.648122848143e-03 0.0 
0.0 0.0 -4.335179088089e-04 
-1.282591321733e-03 8.806658448807e-05 0.0 
8.806658448807e-05 8.712918664304e-03 0.0 
0.0 0.0 -1.269310366786e-03 
-9.079866980401e-04 -2.164843828384e-04 0.0 
-2.164843828384e-04 6.067165963346e-03 0.0 
0.0 0.0 -9.150577043801e-04 
-1.296402067617e-03 1.470406796951e-04 0.0 
1.470406796951e-04 8.670707295504e-03 0.0 
0.0 0.0 -1.295322057178e-03 
-1.218050556302e-03 -1.658124096046e-04 0.0 
-1.658124096046e-04 8.300187960416e-03 0.0 
0.0 0.0 -1.215577547940e-03 
-1.017494637499e-03 -1.921677140224e-04 0.0 
-1.921677140224e-04 6.789033766802e-03 0.0 
0.0 0.0 -1.012565562176e-03 
-1.225370251071e-03 -1.480578321934e-04 0.0 
-1.480578321934e-04 8.186203026488e-03 0.0 
0.0 0.0 -1.214907066889e-03 
-6.126094482220e-04 1.499930831992e-04 0.0 
1.499930831992e-04 3.952786327319e-03 0.0 
0.0 0.0 -6.304496659280e-04 
-5.949124951754e-04 1.553635317388e-04 0.0 
1.553635317388e-04 3.760564116659e-03 0.0 
0.0 0.0 -5.666856080635e-04 
-1.240251440986e-03 1.401266566938e-04 0.0 
1.401266566938e-04 8.128078577480e-03 0.0 
0.0 0.0 -1.226851238141e-03 
-8.681779237156e-05 6.361966938885e-05 0.0 
6.361966938885e-05 2.955256088907e-04 0.0 
0.0 0.0 -8.944620707962e-05 
-3.994468741372e-04 -6.433767031829e-05 0.0 
-6.433767031829e-05 2.663800316761e-03 0.0 
0.0 0.0 -4.071640756073e-04 
-1.342405754833e-03 -1.165290042756e-05 0.0 
-1.165290042756e-05 8.847278625245e-03 0.0 
0.0 0.0 -1.342405754833e-03 
-2.282183831112e-04 -1.931913246920e-04 0.0 
-1.931913246920e-04 1.161289386138e-03 0.0 
0.0 0.0 -2.265802816212e-04 
-7.779914563104e-04 2.250840471903e-05 0.0 
2.250840471903e-05 4.976100040424e-03 0.0 
0.0 0.0 -7.870118106326e-04 
-1.235301241696e-03 -4.597267687938e-05 0.0 
-4.597267687938e-05 8.352549433381e-03 0.0 
0.0 0.0 -1.213461936786e-03 
-1.459711515859e-04 1.404844411891e-04 0.0 
1.404844411891e-04 8.229618690863e-04 0.0 
0.0 0.0 -1.562362318668e-04 
-9.769154927044e-05 -4.466849095833e-05 0.0 
-4.466849095833e-05 5.434427193163e-04 0.0 
0.0 0.0 -9.998712429274e-05 
-1.319764072821e-03 -1.098631366030e-04 0.0 
-1.098631366030e-04 9.086194502793e-03 0.0 
0.0 0.0 -1.324389858384e-03 
-7.180738404627e-04 8.985801949801e-05 0.0 
8.985801949801e-05 4.589525670273e-03 0.0 
0.0 0.0 -7.294542769151e-04 
-1.252043255197e-03 2.202164088421e-04 0.0 
2.202164088421e-04 8.539160480101e-03 0.0 
0.0 0.0 -1.261418349269e-03 
-1.248383097869e-03 1.112925246997e-05 0.0 
1.112925246997e-05 8.098072079257e-03 0.0 
0.0 0.0 -1.231858344535e-03 
-7.209227692000e-04 -5.510654877102e-05 0.0 
-5.510654877102e-05 4.575450219389e-03 0.0 
0.0 0.0 -7.289279708929e-04 
-7.887389828812e-05 -1.017830300424e-05 0.0 
-1.017830300424e-05 5.525360744204e-04 0.0 
0.0 0.0 -9.740250892546e-05 
-1.285641185581e-03 -9.669087187551e-05 0.0 
-9.669087187551e-05 8.464210102403e-03 0.0 
0.0 0.0 -1.284140717545e-03 
-2.442885352264e-04 -2.316128597143e-04 0.0 
-2.316128597143e-04 1.339036366238e-03 0.0 
0.0 0.0 -2.433545560381e-04 
-1.243394787484e-03 1.248159333678e-04 0.0 
1.248159333678e-04 8.192432393622e-03 0.0 
0.0 0.0 -1.232184317627e-03 
-1.343095105526e-03 -5.545911197491e-07 0.0 
-5.545911197491e-07 8.861098076103e-03 0.0 
0.0 0.0 -1.343095105526e-03 
-1.242483488035e-03 -1.476678323207e-04 0.0 
-1.476678323207e-04 8.164481882699e-03 0.0 
0.0 0.0 -1.225700354592e-03 
-3.053173479734e-04 1.995595624776e-04 0.0 
1.995595624776e-04 1.753941284829e-03 0.0 
0.0 0.0 -3.044764127662e-04 
-8.209179416884e-04 2.201614491102e-05 0.0 
2.201614491102e-05 5.636691216410e-03 0.0 
0.0 0.0 -8.279144014868e-04 
-6.598213782971e-04 -1.321361913960e-04 0.0 
-1.321361913960e-04 4.200506500251e-03 0.0 
0.0 0.0 -6.271989868224e-04 
-1.073009497438e-03 -2.016133877390e-04 0.0 
-2.016133877390e-04 7.190278966189e-03 0.0 
0.0 0.0 -1.077599360682e-03 
-1.322804215539e-03 -9.225806505936e-05 0.0 
-9.225806505936e-05 9.099454060859e-03 0.0 
0.0 0.0 -1.326997735404e-03 
-1.068734190482e-03 1.262415369069e-04 0.0 
1.262415369069e-04 7.132952485478e-03 0.0 
0.0 0.0 -1.061614915164e-03 
-1.337358869243e-03 1.104149306633e-04 0.0 
1.104149306633e-04 9.089889591754e-03 0.0 
0.0 0.0 -1.325870641008e-03 
-1.438532979018e-04 1.783345522892e-04 0.0 
1.783345522892e-04 7.477808023261e-04 0.0 
0.0 0.0 -1.715795432680e-04 
-1.271233225915e-03 -1.249047643759e-04 0.0 
-1.249047643759e-04 8.707020070809e-03 0.0 
0.0 0.0 -1.277656510522e-03 
-3.430844418630e-04 1.264811275403e-04 0.0 
1.264811275403e-04 2.040518818998e-03 0.0 
0.0 0.0 -3.355960889912e-04 
-2.267326677211e-04 8.751186841265e-05 0.0 
8.751186841265e-05 1.117406703756e-03 0.0 
0.0 0.0 -2.298118214877e-04 
-1.280901782935e-03 -1.009695952617e-04 0.0 
-1.009695952617e-04 8.719202259105e-03 0.0 
0.0 0.0 -1.270335377537e-03 
-1.269212628500e-03 -5.703432125204e-05 0.0 
-5.703432125204e-05 8.728165820739e-03 0.0 
0.0 0.0 -1.270603359501e-03 
-1.290208848841e-03 -1.659042855401e-04 0.0 
-1.659042855401e-04 8.665328582140e-03 0.0 
0.0 0.0 -1.289850838753e-03 
-7.717572245572e-04 2.050611335138e-04 0.0 
2.050611335138e-04 5.043252484980e-03 0.0 
0.0 0.0 -7.762633204683e-04 
-8.522136042615e-04 2.002639843872e-04 0.0 
2.002639843872e-04 5.495330100218e-03 0.0 
0.0 0.0 -8.489529362435e-04 
-3.165071740037e-04 -2.111753426379e-04 0.0 
-2.111753426379e-04 1.888408226457e-03 0.0 
0.0 0.0 -3.134500106614e-04 
-1.262455248765e-03 -8.092303513726e-05 0.0 
-8.092303513726e-05 8.720636871640e-03 0.0 
0.0 0.0 -1.273041473476e-03 
-5.172296523503e-04 1.719980447266e-04 0.0 
1.719980447266e-04 3.374654497821e-03 0.0 
0.0 0.0 -5.357483711987e-04 
-1.781924616035e-04 -1.691974037748e-04 0.0 
-1.691974037748e-04 1.076416545497e-03 0.0 
0.0 0.0 -2.114276361914e-04 
-1.103945436021e-03 1.858035491712e-04 0.0 
1.858035491712e-04 7.419563175353e-03 0.0 
0.0 0.0 -1.110141529071e-03 
-7.006483677025e-04 -2.017256137277e-05 0.0 
-2.017256137277e-05 4.817249357728e-03 0.0 
0.0 0.0 -7.096328662732e-04 
-1.236750495474e-03 1.522707816399e-04 0.0 
1.522707816399e-04 8.254648441428e-03 0.0 
0.0 0.0 -1.237729719596e-03 
-1.313320395878e-03 -1.861843894466e-04 0.0 
-1.861843894466e-04 8.989774958204e-03 0.0 
0.0 0.0 -1.321509982054e-03 
-1.343732204276e-03 -8.189586176291e-06 0.0 
-8.189586176291e-06 8.864848236539e-03 0.0 
0.0 0.0 -1.343732204276e-03 
-2.113977103276e-05 -6.116564405319e-05 0.0 
-6.116564405319e-05 2.124468673954e-04 0.0 
0.0 0.0 -4.293446239042e-05 
-1.369574587126e-05 5.682883385809e-05 0.0 
5.682883385809e-05 6.671587994240e-05 0.0 
0.0 0.0 -2.272291460191e-05 
-7.269437089926e-04 -1.696449694041e-04 0.0 
-1.696449694041e-04 4.683701017331e-03 0.0 
0.0 0.0 -7.318233512793e-04 
-7.351939856936e-04 2.731264159549e-05 0.0 
2.731264159549e-05 4.828327016366e-03 0.0 
0.0 0.0 -7.096011290571e-04 
-1.343732204276e-03 1.179896387127e-05 0.0 
1.179896387127e-05 8.857063084495e-03 0.0 
0.0 0.0 -1.343732204276e-03 
-1.309711018183e-03 1.830632258289e-04 0.0 
1.830632258289e-04 8.985110969777e-03 0.0 
0.0 0.0 -1.321509982054e-03 
-7.839023714454e-05 1.530759167140e-04 0.0 
1.530759167140e-04 4.984351001574e-04 0.0 
0.0 0.0 -9.787861857360e-05 
0.0 0.0 0.0 
0.0 0.0 0.0 
0.0 0.0 0.0 
-1.240428741391e-03 1.261681395074e-04 0.0 
1.261681395074e-04 8.137366373926e-03 0.0 
0.0 0.0 -1.230181737024e-03 
-1.207075559038e-03 2.460354552528e-04 0.0 
2.460354552528e-04 8.184062138694e-03 0.0 
0.0 0.0 -1.209364118140e-03 
-2.516969952369e-04 -1.461428108360e-04 0.0 
-1.461428108360e-04 1.687102641450e-03 0.0 
0.0 0.0 -2.712674790923e-04 
-1.245262172265e-03 -1.311938195304e-04 0.0 
-1.311938195304e-04 8.282968492479e-03 0.0 
0.0 0.0 -1.240191881334e-03 
-8.815159713630e-04 -5.214653451830e-05 0.0 
-5.214653451830e-05 5.742054567636e-03 0.0 
0.0 0.0 -8.888375990210e-04 
-7.830091470663e-04 -1.948066662001e-04 0.0 
-1.948066662001e-04 5.082527524584e-03 0.0 
0.0 0.0 -7.610796297342e-04 
-9.561048422874e-04 9.798803026410e-05 0.0 
9.798803026410e-05 6.427121213030e-03 0.0 
0.0 0.0 -9.400782610458e-04 
-2.481095332731e-04 1.496361777490e-04 0.0 
1.496361777490e-04 1.515795619755e-03 0.0 
0.0 0.0 -2.626203152100e-04 
-1.010907895305e-03 -2.030439122721e-04 0.0 
-2.030439122721e-04 6.762603191826e-03 0.0 
0.0 0.0 -1.011657465016e-03 
-2.096777059838e-04 3.248157080114e-05 0.0 
3.248157080114e-05 1.393633952846e-03 0.0 
0.0 0.0 -2.181484037039e-04 
-6.792638343958e-04 -1.892634513453e-04 0.0 
-1.892634513453e-04 4.524953282507e-03 0.0 
0.0 0.0 -6.997415131527e-04 
-1.228132135990e-03 1.125898781112e-04 0.0 
1.125898781112e-04 8.215057351811e-03 0.0 
0.0 0.0 -1.240519096027e-03 
-1.189706231828e-03 -2.131151468577e-04 0.0 
-2.131151468577e-04 8.025000395541e-03 0.0 
0.0 0.0 -1.191726112421e-03 
-7.376716687014e-04 1.103821202308e-04 0.0 
1.103821202308e-04 4.884590449632e-03 0.0 
0.0 0.0 -7.690942022927e-04 
-8.794968587204e-04 -1.839618802493e-04 0.0 
-1.839618802493e-04 5.894695197839e-03 0.0 
0.0 0.0 -8.745659502648e-04 
-1.233301431487e-03 8.160038213142e-05 0.0 
8.160038213142e-05 8.358065301524e-03 0.0 
0.0 0.0 -1.217119345310e-03 
-1.141574387304e-03 -2.166019370136e-04 0.0 
-2.166019370136e-04 7.685657586840e-03 0.0 
0.0 0.0 -1.140944809983e-03 
-1.081193771009e-03 -2.086711321348e-04 0.0 
-2.086711321348e-04 7.235399972245e-03 0.0 
0.0 0.0 -1.076426999079e-03 
-7.306608964195e-04 1.032073657573e-05 0.0 
1.032073657573e-05 4.566565227243e-03 0.0 
0.0 0.0 -7.312123441678e-04 
-9.778650762194e-04 -2.118658920496e-04 0.0 
-2.118658920496e-04 6.529297964408e-03 0.0 
0.0 0.0 -9.763781674015e-04 
-1.237478436388e-03 1.224174650820e-04 0.0 
1.224174650820e-04 8.159420566097e-03 0.0 
0.0 0.0 -1.231404929774e-03 
-4.267545194732e-04 1.185171473708e-04 0.0 
1.185171473708e-04 2.513528635352e-03 0.0 
0.0 0.0 -4.167967844001e-04 
-9.921663346532e-05 -4.441075622368e-05 0.0 
-4.441075622368e-05 6.032903446550e-04 0.0 
0.0 0.0 -1.015157820784e-04 
-1.196520802042e-03 -1.451432414406e-04 0.0 
-1.451432414406e-04 7.939655555732e-03 0.0 
0.0 0.0 -1.185975225609e-03 
-1.126502929027e-03 1.777561321906e-04 0.0 
1.777561321906e-04 7.477268686063e-03 0.0 
0.0 0.0 -1.123538223191e-03 
-2.078344596569e-04 -1.080252995940e-04 0.0 
-1.080252995940e-04 1.116725601039e-03 0.0 
0.0 0.0 -2.307047010092e-04 
-9.934730169899e-04 -1.599306293238e-04 0.0 
-1.599306293238e-04 6.730831912440e-03 0.0 
0.0 0.0 -9.893338170986e-04 
-1.294485487258e-03 -4.211486433477e-05 0.0 
-4.211486433477e-05 8.454062998903e-03 0.0 
0.0 0.0 -1.282739585886e-03 
-1.188427124013e-03 1.207612322075e-04 0.0 
1.207612322075e-04 7.845258460139e-03 0.0 
0.0 0.0 -1.182073443778e-03 
-1.229516741237e-03 -2.922411445841e-05 0.0 
-2.922411445841e-05 8.351941012253e-03 0.0 
0.0 0.0 -1.215129606110e-03 
-9.509005340635e-04 -2.110936823322e-04 0.0 
-2.110936823322e-04 6.286467037558e-03 0.0 
0.0 0.0 -9.537126495859e-04 
-9.113657589557e-05 5.031862656050e-05 0.0 
5.031862656050e-05 3.206408784025e-04 0.0 
0.0 0.0 -9.835898678870e-05 
-3.211470424961e-04 1.012653271346e-04 0.0 
1.012653271346e-04 1.877306534774e-03 0.0 
0.0 0.0 -3.212443691966e-04 
-3.868345573261e-04 -2.158079183948e-04 0.0 
-2.158079183948e-04 2.373525116556e-03 0.0 
0.0 0.0 -3.834349432650e-04 
-8.152074782471e-04 3.282099269051e-05 0.0 
3.282099269051e-05 5.366100763401e-03 0.0 
0.0 0.0 -8.471429939415e-04 
-9.776446367943e-04 2.161934057613e-04 0.0 
2.161934057613e-04 6.478555405996e-03 0.0 
0.0 0.0 -9.781602908260e-04 
-1.243353399719e-03 -1.638877946273e-04 0.0 
-1.638877946273e-04 8.293874922919e-03 0.0 
0.0 0.0 -1.236541257690e-03 
-1.282980388071e-03 6.834535406589e-05 0.0 
6.834535406589e-05 8.446722746771e-03 0.0 
0.0 0.0 -1.282325209426e-03 
-1.534406041715e-04 -3.090119355694e-05 0.0 
-3.090119355694e-05 9.940803017300e-04 0.0 
0.0 0.0 -1.581060378624e-04 
-1.515974677088e-04 5.347591743209e-05 0.0 
5.347591743209e-05 9.499659581657e-04 0.0 
0.0 0.0 -1.538280640939e-04 
-2.429997348883e-04 2.036444813407e-04 0.0 
2.036444813407e-04 1.479432396381e-03 0.0 
0.0 0.0 -2.585189829319e-04 
-1.003671688667e-03 2.798952750374e-04 0.0 
2.798952750374e-04 6.711627995117e-03 0.0 
0.0 0.0 -1.019242131223e-03 
-5.082641639813e-04 -1.820796698733e-04 0.0 
-1.820796698733e-04 3.225266612081e-03 0.0 
0.0 0.0 -4.953283059016e-04 
-1.242349672414e-03 -1.508059351584e-04 0.0 
-1.508059351584e-04 8.332022443394e-03 0.0 
0.0 0.0 -1.241298427557e-03 
-2.469827383889e-04 -1.734013788771e-04 0.0 
-1.734013788771e-04 1.596418989747e-03 0.0 
0.0 0.0 -2.623907620756e-04 
-1.225402262687e-03 9.684378834706e-05 0.0 
9.684378834706e-05 8.090992196230e-03 0.0 
0.0 0.0 -1.221152601860e-03 
-8.136377301276e-04 1.789287431362e-04 0.0 
1.789287431362e-04 5.446005510680e-03 0.0 
0.0 0.0 -8.343732341398e-04 
-1.267827958096e-03 1.379445383963e-06 0.0 
1.379445383963e-06 8.495733417342e-03 0.0 
0.0 0.0 -1.286815605725e-03 
-1.109817670536e-03 -2.343370330106e-04 0.0 
-2.343370330106e-04 7.482609533300e-03 0.0 
0.0 0.0 -1.111121968474e-03 
-8.202418952196e-04 -8.830664857145e-05 0.0 
-8.830664857145e-05 5.379056120884e-03 0.0 
0.0 0.0 -8.465141837044e-04 
-1.270879538861e-03 -4.852122928064e-05 0.0 
-4.852122928064e-05 8.726187780208e-03 0.0 
0.0 0.0 -1.269142588751e-03 
-1.282679052200e-03 7.789633126416e-05 0.0 
7.789633126416e-05 8.731686959293e-03 0.0 
0.0 0.0 -1.272727265576e-03 
-1.257303152988e-03 6.224102812164e-05 0.0 
6.224102812164e-05 8.713074082016e-03 0.0 
0.0 0.0 -1.271339345674e-03 
-1.734083018693e-04 1.988310073063e-04 0.0 
1.988310073063e-04 9.960919397328e-04 0.0 
0.0 0.0 -1.914719991171e-04 
-1.218228496203e-03 1.745230460975e-04 0.0 
1.745230460975e-04 8.126336924162e-03 0.0 
0.0 0.0 -1.218309553141e-03 
-1.287690608828e-03 2.935127504917e-05 0.0 
2.935127504917e-05 8.450884291377e-03 0.0 
0.0 0.0 -1.286645293131e-03 
-1.215292120313e-03 -1.048319889730e-04 0.0 
-1.048319889730e-04 8.264175100215e-03 0.0 
0.0 0.0 -1.211735819529e-03 
-1.131460186021e-03 2.249929147143e-04 0.0 
2.249929147143e-04 7.604741910755e-03 0.0 
0.0 0.0 -1.143254064081e-03 
-1.342665167303e-03 2.462626238338e-05 0.0 
2.462626238338e-05 8.842656329326e-03 0.0 
0.0 0.0 -1.342665167303e-03 
-1.082512435834e-03 2.096972143521e-04 0.0 
2.096972143521e-04 7.169850347795e-03 0.0 
0.0 0.0 -1.079065255302e-03 
0.0 0.0 0.0 
0.0 0.0 0.0 
0.0 0.0 0.0 
-2.601109826526e-04 -2.071691114659e-04 0.0 
-2.071691114659e-04 1.415839820494e-03 0.0 
0.0 0.0 -2.423809483696e-04 
-1.192508312149e-03 -1.779210084662e-04 0.0 
-1.779210084662e-04 7.961128754995e-03 0.0 
0.0 0.0 -1.176936364471e-03 
-8.685626322098e-04 1.582275665783e-04 0.0 
1.582275665783e-04 5.835782021141e-03 0.0 
0.0 0.0 -8.884613587993e-04 
-1.209889234857e-03 -1.955325308150e-04 0.0 
-1.955325308150e-04 8.188769710119e-03 0.0 
0.0 0.0 -1.221994126432e-03 
-1.170503729369e-03 -2.209983450853e-04 0.0 
-2.209983450853e-04 7.908922597115e-03 0.0 
0.0 0.0 -1.177009544428e-03 
-1.281372639421e-03 -4.882657488487e-05 0.0 
-4.882657488487e-05 8.503605837596e-03 0.0 
0.0 0.0 -1.292249833993e-03 
-1.060591200895e-03 2.356899093670e-04 0.0 
2.356899093670e-04 7.243032913762e-03 0.0 
0.0 0.0 -1.085521458831e-03 
-1.295424128128e-03 -1.344853644126e-05 0.0 
-1.344853644126e-05 8.497735658802e-03 0.0 
0.0 0.0 -1.288973456333e-03 
-1.240273266268e-03 -1.643959908807e-04 0.0 
-1.643959908807e-04 8.288290248441e-03 0.0 
0.0 0.0 -1.233322439334e-03 
-1.236328969747e-03 1.681015718690e-04 0.0 
1.681015718690e-04 8.249087621686e-03 0.0 
0.0 0.0 -1.235043566395e-03 
-5.200406812990e-04 -1.166757664341e-04 0.0 
-1.166757664341e-04 3.385215487565e-03 0.0 
0.0 0.0 -5.104964012366e-04 
-1.293388642315e-03 -2.007549829058e-05 0.0 
-2.007549829058e-05 9.114239519402e-03 0.0 
0.0 0.0 -1.325641941534e-03 
-7.485652657637e-04 1.433772634919e-05 0.0 
1.433772634919e-05 5.220751556451e-03 0.0 
0.0 0.0 -7.662153309038e-04 
-1.203353616891e-03 -1.846454248329e-04 0.0 
-1.846454248329e-04 8.194731648824e-03 0.0 
0.0 0.0 -1.217406395242e-03 
-1.473848137133e-04 -7.608252406758e-05 0.0 
-7.608252406758e-05 7.058205605385e-04 0.0 
0.0 0.0 -1.761976461317e-04 
-1.139762521842e-03 -1.242981094265e-04 0.0 
-1.242981094265e-04 7.914367669760e-03 0.0 
0.0 0.0 -1.163202487293e-03 
-9.847139031094e-04 -2.927819349531e-05 0.0 
-2.927819349531e-05 6.802999958382e-03 0.0 
0.0 0.0 -9.926133712568e-04 
-1.690893902523e-04 -1.078602895255e-04 0.0 
-1.078602895255e-04 9.402080020993e-04 0.0 
0.0 0.0 -1.628620303624e-04 
-2.985531882030e-04 -2.240216763461e-04 0.0 
-2.240216763461e-04 1.642242196626e-03 0.0 
0.0 0.0 -2.736924314970e-04 
-1.111715101682e-03 2.179506947960e-04 0.0 
2.179506947960e-04 7.377812155317e-03 0.0 
0.0 0.0 -1.107581195644e-03 
-1.292896746142e-03 -1.945315972067e-05 0.0 
-1.945315972067e-05 8.475231004044e-03 0.0 
0.0 0.0 -1.285368862661e-03 
-1.232559661219e-03 -1.674576161592e-04 0.0 
-1.674576161592e-04 8.301292046622e-03 0.0 
0.0 0.0 -1.223917301752e-03 
-1.254461742942e-03 2.341900515223e-04 0.0 
2.341900515223e-04 8.559507473306e-03 0.0 
0.0 0.0 -1.264779455601e-03 
-8.799678260909e-04 2.461510225769e-04 0.0 
2.461510225769e-04 5.779390736262e-03 0.0 
0.0 0.0 -8.807565902733e-04 
-9.459318500233e-05 -9.224025008730e-06 0.0 
-9.224025008730e-06 5.593643268762e-04 0.0 
0.0 0.0 -1.022500568216e-04 
-1.184228338263e-04 1.932393774192e-04 0.0 
1.932393774192e-04 8.360742900508e-04 0.0 
0.0 0.0 -1.527632439532e-04 
-1.485774023437e-04 2.057472114591e-04 0.0 
2.057472114591e-04 4.943058849460e-04 0.0 
0.0 0.0 -1.262112556552e-04 
-1.889957332613e-04 -1.720729644020e-04 0.0 
-1.720729644020e-04 1.198989706623e-03 0.0 
0.0 0.0 -2.080055930776e-04 
-2.412796962869e-05 1.151125546851e-04 0.0 
1.151125546851e-04 1.259903231300e-04 0.0 
0.0 0.0 -4.365529435769e-05 
-6.564338874859e-04 1.298407551403e-04 0.0 
1.298407551403e-04 4.516305724261e-03 0.0 
0.0 0.0 -6.753304527203e-04 
-1.206082523732e-03 1.933788045722e-04 0.0 
1.933788045722e-04 8.180269090487e-03 0.0 
0.0 0.0 -1.222305993939e-03 
-1.222663318362e-03 1.753368055927e-04 0.0 
1.753368055927e-04 8.227435580213e-03 0.0 
0.0 0.0 -1.222833113937e-03 
-8.669258191564e-04 -1.817944922656e-04 0.0 
-1.817944922656e-04 5.844176131481e-03 0.0 
0.0 0.0 -8.826313165011e-04 
-6.040048573085e-04 -2.738267400019e-04 0.0 
-2.738267400019e-04 3.891940944486e-03 0.0 
0.0 0.0 -5.988529843847e-04 
-1.222353962553e-03 -1.610597655754e-04 0.0 
-1.610597655754e-04 8.260198203253e-03 0.0 
0.0 0.0 -1.221067908166e-03 
-1.203746913663e-03 2.278206710251e-04 0.0 
2.278206710251e-04 8.189793790316e-03 0.0 
0.0 0.0 -1.208702654310e-03 
-1.279025858978e-03 8.766018994022e-05 0.0 
8.766018994022e-05 8.741593274881e-03 0.0 
0.0 0.0 -1.272252409145e-03 
-1.242705220595e-03 -3.696381206599e-05 0.0 
-3.696381206599e-05 8.148871227430e-03 0.0 
0.0 0.0 -1.237422270938e-03 
-1.174009678725e-03 1.988566962408e-04 0.0 
1.988566962408e-04 7.816359446438e-03 0.0 
0.0 0.0 -1.171232062679e-03 
-1.672054198288e-04 9.231173188879e-05 0.0 
9.231173188879e-05 7.047171557342e-04 0.0 
0.0 0.0 -1.733042685746e-04 
-1.128922232108e-04 -1.541536460290e-04 0.0 
-1.541536460290e-04 8.181726866747e-04 0.0 
0.0 0.0 -1.441637530793e-04 
-1.232867888531e-03 -1.583409372845e-04 0.0 
-1.583409372845e-04 8.274546276780e-03 0.0 
0.0 0.0 -1.223662873675e-03 
-1.809471586290e-04 2.732513028338e-05 0.0 
2.732513028338e-05 7.150332979246e-04 0.0 
0.0 0.0 -1.761523314621e-04 
-2.090612244597e-04 2.679772699566e-04 0.0 
2.679772699566e-04 1.034188635190e-03 0.0 
0.0 0.0 -1.933333333332e-04 
-1.375589269253e-04 1.895212040583e-04 0.0 
1.895212040583e-04 6.272580356086e-04 0.0 
0.0 0.0 -1.476920362276e-04 
-1.616726848356e-04 -1.838984361800e-04 0.0 
-1.838984361800e-04 7.928606863594e-04 0.0 
0.0 0.0 -1.580296812506e-04 
-1.300434401275e-03 -1.024873491582e-05 0.0 
-1.024873491582e-05 8.484073046421e-03 0.0 
0.0 0.0 -1.288571152055e-03 
-1.296196106557e-03 -7.581226292437e-05 0.0 
-7.581226292437e-05 8.500775829958e-03 0.0 
0.0 0.0 -1.290113636706e-03 
-1.257797356609e-03 1.887508465158e-04 0.0 
1.887508465158e-04 8.298916238051e-03 0.0 
0.0 0.0 -1.236907757659e-03 
-1.306315150684e-03 9.008107202712e-08 0.0 
9.008107202712e-08 8.523760771155e-03 0.0 
0.0 0.0 -1.292605224168e-03 
-1.191514572737e-03 -1.523248627148e-04 0.0 
-1.523248627148e-04 7.914354314681e-03 0.0 
0.0 0.0 -1.176879138244e-03 
-9.009707231897e-04 2.647575106000e-04 0.0 
2.647575106000e-04 6.062013665177e-03 0.0 
0.0 0.0 -9.170130443517e-04 
-1.345069444888e-03 -1.224359494155e-05 0.0 
-1.224359494155e-05 8.872525889838e-03 0.0 
0.0 0.0 -1.345069444888e-03 
-3.168516228751e-04 -1.142391801259e-04 0.0 
-1.142391801259e-04 2.071683762697e-03 0.0 
0.0 0.0 -3.330755757467e-04 
-6.832796589934e-04 2.794415003479e-06 0.0 
2.794415003479e-06 4.812526626932e-03 0.0 
0.0 0.0 -7.083073883397e-04 
-1.983733277546e-04 6.070841311558e-05 0.0 
6.070841311558e-05 1.303830959688e-03 0.0 
0.0 0.0 -2.086331215474e-04 
-8.213992574581e-05 4.728700015122e-05 0.0 
4.728700015122e-05 2.774119614064e-04 0.0 
0.0 0.0 -8.368801528309e-05 
-1.296331570259e-03 3.985530997241e-05 0.0 
3.985530997241e-05 9.108859965209e-03 0.0 
0.0 0.0 -1.323850096553e-03 
-7.636750152913e-04 -5.943479672422e-05 0.0 
-5.943479672422e-05 5.297273347084e-03 0.0 
0.0 0.0 -7.731261162940e-04 
-1.898896061389e-04 2.668881093009e-05 0.0 
2.668881093009e-05 1.324161255717e-03 0.0 
0.0 0.0 -2.115341463249e-04 
-6.766397334691e-04 2.335959289239e-04 0.0 
2.335959289239e-04 4.262192913851e-03 0.0 
0.0 0.0 -6.570498647039e-04 
-1.270388897102e-03 1.791394562199e-05 0.0 
1.791394562199e-05 8.744228481245e-03 0.0 
0.0 0.0 -1.276804206569e-03 
-1.238351285998e-03 -1.647535430714e-04 0.0 
-1.647535430714e-04 8.287386498838e-03 0.0 
0.0 0.0 -1.228616961883e-03 
-1.299245503170e-03 -6.943481147171e-06 0.0 
-6.943481147171e-06 8.501206471558e-03 0.0 
0.0 0.0 -1.289666537713e-03 
-4.674755872492e-04 -1.441717405802e-04 0.0 
-1.441717405802e-04 3.063014272079e-03 0.0 
0.0 0.0 -4.695399720401e-04 
-1.457689473944e-04 -1.575597281071e-04 0.0 
-1.575597281071e-04 7.498700715420e-04 0.0 
0.0 0.0 -1.553221962317e-04 
-1.285913149297e-03 -1.165123631474e-04 0.0 
-1.165123631474e-04 8.730182768681e-03 0.0 
0.0 0.0 -1.273144391159e-03 
-1.298815958390e-03 2.309086979367e-05 0.0 
2.309086979367e-05 9.107151826923e-03 0.0 
0.0 0.0 -1.325353038101e-03 
-1.331981550421e-03 -1.771381069907e-05 0.0 
-1.771381069907e-05 9.126640523196e-03 0.0 
0.0 0.0 -1.323783523096e-03 
-7.660500434480e-04 1.313542510445e-04 0.0 
1.313542510445e-04 5.035539676325e-03 0.0 
0.0 0.0 -7.673431308700e-04 
-1.235780327313e-03 -4.526587612999e-06 0.0 
-4.526587612999e-06 8.115023081303e-03 0.0 
0.0 0.0 -1.231867668451e-03 
-1.953177882174e-04 -9.491085164949e-05 0.0 
-9.491085164949e-05 1.122964739939e-03 0.0 
0.0 0.0 -2.324200178898e-04 
-1.257584227981e-03 1.660686322992e-04 0.0 
1.660686322992e-04 8.340961353616e-03 0.0 
0.0 0.0 -1.241575510934e-03 
-8.170589745739e-05 -1.080295024441e-05 0.0 
-1.080295024441e-05 2.725451190137e-04 0.0 
0.0 0.0 -8.178823780987e-05 
-1.306295822847e-03 -1.062422533943e-05 0.0 
-1.062422533943e-05 8.506048519693e-03 0.0 
0.0 0.0 -1.290713494763e-03 
-1.281136683791e-03 1.115018912951e-04 0.0 
1.115018912951e-04 8.702368548138e-03 0.0 
0.0 0.0 -1.268585396830e-03 
-8.090064620301e-05 -6.463780865666e-05 0.0 
-6.463780865666e-05 2.764343947345e-04 0.0 
0.0 0.0 -8.380017794208e-05 
-1.195471399734e-03 -1.402863971345e-04 0.0 
-1.402863971345e-04 7.949772117529e-03 0.0 
0.0 0.0 -1.178018281593e-03 
-1.028233004996e-03 -1.859683667160e-04 0.0 
-1.859683667160e-04 6.977936374390e-03 0.0 
0.0 0.0 -1.053859681778e-03 
-1.289487723471e-03 -3.059440868742e-05 0.0 
-3.059440868742e-05 8.509289695588e-03 0.0 
0.0 0.0 -1.289687241943e-03 
-1.346242744377e-03 -1.047219123713e-05 0.0 
-1.047219123713e-05 8.896960402449e-03 0.0 
0.0 0.0 -1.346242744377e-03 
-9.624911099011e-04 -2.997622866494e-04 0.0 
-2.997622866494e-04 6.376553401582e-03 0.0 
0.0 0.0 -9.627310317561e-04 
-1.292971171235e-03 1.345101664033e-05 0.0 
1.345101664033e-05 8.530939079912e-03 0.0 
0.0 0.0 -1.292510612804e-03 
-1.246115197789e-03 -1.533948492975e-04 0.0 
-1.533948492975e-04 8.325319025632e-03 0.0 
0.0 0.0 -1.236507170568e-03 
-1.007540401079e-03 8.825741490512e-06 0.0 
8.825741490512e-06 6.546914065101e-03 0.0 
0.0 0.0 -1.009625451247e-03 
-1.239682124839e-03 -1.433667225738e-05 0.0 
-1.433667225738e-05 8.247508066060e-03 0.0 
0.0 0.0 -1.247605899893e-03 
-5.439659078653e-04 -1.293203549736e-04 0.0 
-1.293203549736e-04 3.573225901759e-03 0.0 
0.0 0.0 -5.668522599723e-04 
-7.422257193807e-04 -2.384409418001e-05 0.0 
-2.384409418001e-05 4.553525172640e-03 0.0 
0.0 0.0 -7.287847301676e-04 
-1.250463763405e-03 1.444458806810e-04 0.0 
1.444458806810e-04 8.323970461278e-03 0.0 
0.0 0.0 -1.239219007812e-03 
-1.277932458032e-03 1.160268164509e-04 0.0 
1.160268164509e-04 8.651299276670e-03 0.0 
0.0 0.0 -1.286506427510e-03 
0.0 0.0 0.0 
0.0 0.0 0.0 
0.0 0.0 0.0 
-7.391696919878e-04 5.460045200431e-05 0.0 
5.460045200431e-05 4.572310123870e-03 0.0 
0.0 0.0 -7.284590636140e-04 
-1.282539678950e-03 -1.213229753822e-04 0.0 
-1.213229753822e-04 8.668193960288e-03 0.0 
0.0 0.0 -1.288082484959e-03 
-2.668000831652e-04 1.337975711291e-04 0.0 
1.337975711291e-04 1.552550494018e-03 0.0 
0.0 0.0 -2.765646858065e-04 
-1.244314668154e-03 3.253635918239e-05 0.0 
3.253635918239e-05 8.351662046828e-03 0.0 
0.0 0.0 -1.213252366005e-03 
-1.212806318798e-03 -1.378965673921e-04 0.0 
-1.378965673921e-04 8.296055804055e-03 0.0 
0.0 0.0 -1.225943235494e-03 
-1.276740815873e-03 -1.548809764645e-04 0.0 
-1.548809764645e-04 8.705204137735e-03 0.0 
0.0 0.0 -1.269037835114e-03 
-2.467774251027e-04 1.357300176719e-04 0.0 
1.357300176719e-04 1.515114324046e-03 0.0 
0.0 0.0 -2.647987373252e-04 
-1.846190942981e-04 5.164886539666e-05 0.0 
5.164886539666e-05 1.204409405256e-03 0.0 
0.0 0.0 -1.906575996298e-04 
-8.286327452832e-04 3.382951551479e-04 0.0 
3.382951551479e-04 5.239779904281e-03 0.0 
0.0 0.0 -7.939471195916e-04 
-1.139651880695e-03 8.042350541592e-05 0.0 
8.042350541592e-05 7.547907450212e-03 0.0 
0.0 0.0 -1.120841203304e-03 
6.762182202678e-06 4.922521689476e-06 0.0 
4.922521689476e-06 1.951722452603e-04 0.0 
0.0 0.0 -4.162563418681e-05 
-1.297631582513e-03 -2.970012333431e-05 0.0 
-2.970012333431e-05 8.538118962210e-03 0.0 
0.0 0.0 -1.292233508669e-03 
-9.496420787081e-04 3.842938930079e-05 0.0 
3.842938930079e-05 6.134769422350e-03 0.0 
0.0 0.0 -9.501928138396e-04 
-2.319252204205e-04 -1.666332425867e-04 0.0 
-1.666332425867e-04 1.531261602253e-03 0.0 
0.0 0.0 -2.601894661948e-04 
-9.182086126088e-04 6.576575429200e-05 0.0 
6.576575429200e-05 5.823601520571e-03 0.0 
0.0 0.0 -9.030544305944e-04 
-1.281338578084e-03 -1.215158440346e-04 0.0 
-1.215158440346e-04 8.719272788120e-03 0.0 
0.0 0.0 -1.271643562581e-03 
-8.361599263990e-04 -2.906502343770e-04 0.0 
-2.906502343770e-04 5.524370676589e-03 0.0 
0.0 0.0 -8.272804529249e-04 
-9.020963282834e-05 -1.875396024300e-04 0.0 
-1.875396024300e-04 3.251699178446e-04 0.0 
0.0 0.0 -8.776479312228e-05 
-5.428499226707e-04 1.403699556570e-04 0.0 
1.403699556570e-04 3.200704680557e-03 0.0 
0.0 0.0 -5.209635072927e-04 
-7.264103312116e-04 1.066181262773e-04 0.0 
1.066181262773e-04 4.783605203211e-03 0.0 
0.0 0.0 -7.319997505001e-04 
-8.379507721355e-04 3.506890823091e-04 0.0 
3.506890823091e-04 5.706153283525e-03 0.0 
0.0 0.0 -8.599999999992e-04 
-1.240777117315e-03 -1.439647034316e-04 0.0 
-1.439647034316e-04 8.329527072644e-03 0.0 
0.0 0.0 -1.232780192057e-03 
-7.376665261259e-04 -1.727241022974e-04 0.0 
-1.727241022974e-04 4.617911229220e-03 0.0 
0.0 0.0 -7.175509632692e-04 
-7.419227856637e-04 8.706574175029e-05 0.0 
8.706574175029e-05 4.905660942002e-03 0.0 
0.0 0.0 -7.596628988333e-04 
-1.725607618193e-04 1.274500514102e-04 0.0 
1.274500514102e-04 7.075820556251e-04 0.0 
0.0 0.0 -1.551230728613e-04 
-1.262496529076e-03 1.402132573888e-04 0.0 
1.402132573888e-04 8.306889500876e-03 0.0 
0.0 0.0 -1.240629869904e-03 
-1.209173557273e-03 1.621322078836e-04 0.0 
1.621322078836e-04 7.950506271258e-03 0.0 
0.0 0.0 -1.186362110037e-03 
-2.227791697187e-04 8.637930858051e-05 0.0 
8.637930858051e-05 1.298316331417e-03 0.0 
0.0 0.0 -2.411692657676e-04 
-1.261193436875e-03 -8.326695288083e-05 0.0 
-8.326695288083e-05 8.552285249105e-03 0.0 
0.0 0.0 -1.290349483557e-03 
-1.293807969811e-03 1.507292729990e-04 0.0 
1.507292729990e-04 8.596145003785e-03 0.0 
0.0 0.0 -1.290356026000e-03 
-7.679899519873e-04 -1.532356305286e-04 0.0 
-1.532356305286e-04 5.157074227234e-03 0.0 
0.0 0.0 -7.639788432047e-04 
-9.396515753232e-04 3.091234051286e-05 0.0 
3.091234051286e-05 6.333492038285e-03 0.0 
0.0 0.0 -9.358343396975e-04 
-7.048143922743e-04 1.638625948524e-04 0.0 
1.638625948524e-04 4.692848505541e-03 0.0 
0.0 0.0 -7.108516105536e-04 
-7.079275106751e-04 -1.102323501343e-04 0.0 
-1.102323501343e-04 4.802970885948e-03 0.0 
0.0 0.0 -7.343037059241e-04 
-7.780838486787e-04 -3.476295080742e-05 0.0 
-3.476295080742e-05 5.090202749114e-03 0.0 
0.0 0.0 -7.498489858827e-04 
-1.195445771267e-03 1.533301423154e-04 0.0 
1.533301423154e-04 7.905914704818e-03 0.0 
0.0 0.0 -1.180929064624e-03 
-2.101723265820e-04 1.264806835631e-04 0.0 
1.264806835631e-04 1.084941023670e-03 0.0 
0.0 0.0 -2.274637643159e-04 
-1.230210229403e-03 -1.391362873496e-04 0.0 
-1.391362873496e-04 8.342547987840e-03 0.0 
0.0 0.0 -1.217816617926e-03 
-8.387293036437e-04 7.281979356206e-05 0.0 
7.281979356206e-05 5.326094164637e-03 0.0 
0.0 0.0 -8.376728236383e-04 
-1.277193560845e-03 -1.460979146763e-04 0.0 
-1.460979146763e-04 8.720485292524e-03 0.0 
0.0 0.0 -1.272153791098e-03 
-1.202298967755e-03 -1.320050113913e-04 0.0 
-1.320050113913e-04 7.883588282291e-03 0.0 
0.0 0.0 -1.181257232468e-03 
-8.795673226242e-04 -5.945622150844e-05 0.0 
-5.945622150844e-05 6.031279173311e-03 0.0 
0.0 0.0 -8.902468719968e-04 
-1.211224544084e-03 1.194316264715e-04 0.0 
1.194316264715e-04 8.008237221313e-03 0.0 
0.0 0.0 -1.201032862555e-03 
-1.250364770317e-03 1.261810502704e-04 0.0 
1.261810502704e-04 8.225945087578e-03 0.0 
0.0 0.0 -1.236767197193e-03 
-1.292703020779e-03 -2.277677435045e-05 0.0 
-2.277677435045e-05 8.758650210356e-03 0.0 
0.0 0.0 -1.270271405117e-03 
-9.288790837536e-05 4.486310937797e-05 0.0 
4.486310937797e-05 3.125136257933e-04 0.0 
0.0 0.0 -9.412530746485e-05 
-1.213293100967e-03 -1.365137297491e-04 0.0 
-1.365137297491e-04 8.055302576551e-03 0.0 
0.0 0.0 -1.198686027802e-03 
-1.233489147260e-03 1.844031552690e-04 0.0 
1.844031552690e-04 8.360738709544e-03 0.0 
0.0 0.0 -1.227078865044e-03 
-1.296260318671e-04 -1.418501242849e-04 0.0 
-1.418501242849e-04 8.665050242929e-04 0.0 
0.0 0.0 -1.488313462956e-04 
-6.781230104505e-04 -1.171397059554e-04 0.0 
-1.171397059554e-04 4.366860208538e-03 0.0 
0.0 0.0 -6.841365946973e-04 
-7.630078233159e-05 -6.102099342082e-05 0.0 
-6.102099342082e-05 5.288528667040e-04 0.0 
0.0 0.0 -9.692352125104e-05 
-1.239413171189e-03 -1.038112219683e-04 0.0 
-1.038112219683e-04 8.427166424518e-03 0.0 
0.0 0.0 -1.230789928679e-03 
-6.633735867020e-04 -1.155216560215e-04 0.0 
-1.155216560215e-04 4.354748692185e-03 0.0 
0.0 0.0 -6.488888888889e-04 
-6.563660005590e-04 -4.949228987729e-06 0.0 
-4.949228987729e-06 4.121813599109e-03 0.0 
0.0 0.0 -6.711111111111e-04 
-6.459120568716e-04 -1.400816422142e-05 0.0 
-1.400816422142e-05 4.433498309450e-03 0.0 
0.0 0.0 -6.488888888889e-04 
-6.749764366868e-04 -1.022061849862e-05 0.0 
-1.022061849862e-05 4.131528536263e-03 0.0 
0.0 0.0 -6.711111111111e-04 
-6.456501773717e-04 -4.182868476138e-07 0.0 
-4.182868476138e-07 4.441719427511e-03 0.0 
0.0 0.0 -6.488888888889e-04 
-6.743020789233e-04 6.977086704406e-06 0.0 
6.977086704406e-06 4.142139451712e-03 0.0 
0.0 0.0 -6.711111111111e-04 
-6.498198206584e-04 -1.519001385402e-05 0.0 
-1.519001385402e-05 4.455827176230e-03 0.0 
0.0 0.0 -6.488888888889e-04 
-6.621266125404e-04 -2.192043764385e-05 0.0 
-2.192043764385e-05 4.131761848184e-03 0.0 
0.0 0.0 -6.711111111111e-04 
-6.433759627766e-04 1.777448492757e-06 0.0 
1.777448492757e-06 4.439463053302e-03 0.0 
0.0 0.0 -6.488888888889e-04 
-6.671926554529e-04 1.273682377901e-05 0.0 
1.273682377901e-05 4.138458681040e-03 0.0 
0.0 0.0 -6.711111111111e-04 
-6.480568110285e-04 -2.776142626349e-06 0.0 
-2.776142626349e-06 4.452403490028e-03 0.0 
0.0 0.0 -6.488888888889e-04 
-6.701502197109e-04 -7.061847057976e-06 0.0 
-7.061847057976e-06 4.137807792637e-03 0.0 
0.0 0.0 -6.711111111111e-04 
-7.177695882629e-04 -1.636503915645e-04 0.0 
-1.636503915645e-04 4.444156976963e-03 0.0 
0.0 0.0 -6.580807474504e-04 
-6.451594591783e-04 2.175329864517e-06 0.0 
2.175329864517e-06 4.446899780493e-03 0.0 
0.0 0.0 -6.488888888889e-04 
-6.694083839789e-04 4.177588367940e-05 0.0 
4.177588367940e-05 4.159153595791e-03 0.0 
0.0 0.0 -6.711111111111e-04 
-6.460833817648e-04 2.181336474462e-05 0.0 
2.181336474462e-05 4.138351275158e-03 0.0 
0.0 0.0 -6.711111111111e-04 
-6.513168862435e-04 2.571939183972e-06 0.0 
2.571939183972e-06 4.455509820746e-03 0.0 
0.0 0.0 -6.488888888889e-04 
-6.788111886778e-04 -1.155514465084e-05 0.0 
-1.155514465084e-05 4.136861537379e-03 0.0 
0.0 0.0 -6.711111111111e-04 
-6.469737823218e-04 1.193188668569e-05 0.0 
1.193188668569e-05 4.441081764841e-03 0.0 
0.0 0.0 -6.488888888889e-04 
-6.791365925950e-04 1.914980606251e-05 0.0 
1.914980606251e-05 4.140018751422e-03 0.0 
0.0 0.0 -6.711111111111e-04 
-6.524039014686e-04 9.406282947327e-06 0.0 
9.406282947327e-06 4.453605425654e-03 0.0 
0.0 0.0 -6.488888888889e-04 
-6.708784002972e-04 1.294093541859e-05 0.0 
1.294093541859e-05 4.143170398070e-03 0.0 
0.0 0.0 -6.711111111111e-04 
-6.063230854436e-04 2.307129271710e-05 0.0 
2.307129271710e-05 4.258254267781e-03 0.0 
0.0 0.0 -6.358585252281e-04 
-6.548664831930e-04 3.770000341560e-06 0.0 
3.770000341560e-06 4.457898616998e-03 0.0 
0.0 0.0 -6.488888888889e-04 
-6.704807604954e-04 -3.181200734393e-06 0.0 
-3.181200734393e-06 4.139523021675e-03 0.0 
0.0 0.0 -6.711111111111e-04 
-6.519448377641e-04 9.585102352893e-06 0.0 
9.585102352893e-06 4.446587571773e-03 0.0 
0.0 0.0 -6.488888888889e-04 
-6.643169358871e-04 1.598213094946e-05 0.0 
1.598213094946e-05 4.135669863508e-03 0.0 
0.0 0.0 -6.711111111111e-04 
-6.628560694171e-04 4.220630236658e-05 0.0 
4.220630236658e-05 4.140094777351e-03 0.0 
0.0 0.0 -6.711111111111e-04 
-6.554176284668e-04 2.405280497155e-05 0.0 
2.405280497155e-05 4.445642855833e-03 0.0 
0.0 0.0 -6.488888888889e-04 
-6.690060439774e-04 2.025793204246e-05 0.0 
2.025793204246e-05 4.465053963584e-03 0.0 
0.0 0.0 -6.488888888889e-04 
-6.064361755080e-04 1.982912098429e-05 0.0 
1.982912098429e-05 4.335884925808e-03 0.0 
0.0 0.0 -6.691918585615e-04 
-5.669586223989e-04 -1.586620316302e-05 0.0 
-1.586620316302e-05 4.045371477985e-03 0.0 
0.0 0.0 -6.505947314437e-04 
-7.075315162010e-04 -3.247782179694e-04 0.0 
-3.247782179694e-04 4.305606072287e-03 0.0 
0.0 0.0 -6.600000000000e-04 
-6.398271965703e-04 3.921691488498e-04 0.0 
3.921691488498e-04 4.184231073606e-03 0.0 
0.0 0.0 -6.600000000000e-04 
-7.078150788587e-04 1.813354754417e-05 0.0 
1.813354754417e-05 4.306653958276e-03 0.0 
0.0 0.0 -6.822222222222e-04 
-6.381567957297e-04 6.336547185409e-05 0.0 
6.336547185409e-05 4.195569873202e-03 0.0 
0.0 0.0 -6.377777777778e-04 
-5.885253976530e-04 -3.076841355540e-05 0.0 
-3.076841355540e-05 4.174142785234e-03 0.0 
0.0 0.0 -6.377777777778e-04 

SCALARS element_materi_plasti_kappa_shear float
LOOKUP_TABLE default
1.898088649643e-03
1.711557051641e-03
5.588972410085e-03
5.625547274701e-03
3.501560146999e-03
7.282216725179e-04
3.474037579751e-03
1.788007566792e-03
3.522688057585e-03
5.576154387884e-03
3.814443258077e-03
1.461439354055e-03
5.618312958953e-03
3.751010953381e-03
5.727607835366e-03
5.730745783213e-03
3.485806207147e-03
6.593526459412e-04
1.219931793149e-03
1.129439279567e-03
5.615624188563e-03
1.975862239362e-03
2.216034645177e-03
5.387839390641e-03
4.000079313324e-03
4.090296639934e-03
3.221108468051e-03
5.760173945043e-03
4.029373913921e-03
5.523089313001e-03
9.290964436138e-04
4.104778426902e-04
5.763354464700e-03
4.818108341585e-03
5.606378478043e-03
5.926561905728e-03
5.911514681661e-03
5.601049808397e-03
3.175213616511e-03
3.219440155070e-03
2.522875806809e-03
5.613228156909e-03
1.314389251867e-03
3.093978597461e-03
5.492839635271e-03
1.306192107028e-03
5.547525844143e-04
5.389503964808e-03
2.459813448032e-04
3.614080566479e-03
2.381012112028e-03
1.496795143349e-03
1.233026261794e-03
2.292287135613e-03
5.625167383412e-03
1.964314716114e-03
1.446321564822e-03
4.840724010361e-03
9.102679910466e-04
5.734895616735e-03
3.755633206834e-04
5.378892164199e-03
2.330546822697e-03
1.083603178692e-03
5.615414212048e-03
2.131250052149e-03
1.604920622130e-04
5.736681007188e-03
9.706183660792e-04
5.615641150241e-03
4.241478972054e-03
5.874633494774e-03
5.400876667698e-03
4.558558305772e-04
1.986901141796e-03
5.633818988721e-03
5.766849763577e-03
9.985176399269e-04
7.761145875021e-04
9.970078257236e-04
9.298249562962e-04
3.329770783062e-03
2.084397622031e-03
1.770967893659e-03
3.674764228873e-03
3.652269385491e-03
4.362468712188e-03
4.711312884167e-03
4.861505206044e-03
3.454836133152e-03
2.515307574216e-04
3.378806059228e-03
4.682474906469e-03
4.702091845048e-03
6.023290360785e-03
5.787399672559e-03
3.332335907633e-03
5.769769997493e-03
3.930413862469e-03
2.258576815211e-03
3.348854702644e-03
5.740322727269e-03
4.646182631344e-03
5.409941681963e-03
2.044498184613e-03
6.875243722322e-04
5.293361504949e-03
5.009713215505e-03
4.133118292856e-04
5.636662395566e-03
4.631075715070e-03
3.269354662114e-04
2.695643369684e-03
3.134173944672e-03
2.394513305480e-03
2.006953041182e-03
2.358433690428e-03
5.680496234391e-03
3.862421047183e-03
2.174327584433e-03
9.453599785676e-04
3.463155550842e-03
4.910807945138e-03
2.193161772477e-03
6.864169327036e-04
2.833893873667e-03
2.488998346477e-03
2.624989890950e-03
5.744770783808e-03
8.095945313104e-04
4.016900758618e-03
5.625509815893e-03
2.834287320742e-03
2.685380764041e-03
5.614532063030e-03
5.633315586868e-03
4.360056895282e-03
3.033874980370e-03
5.768691703590e-03
2.715472649556e-03
5.618615457511e-03
5.760030365689e-03
3.718873437018e-03
4.339715431150e-03
2.744759010980e-03
2.474141180373e-03
3.120734003300e-03
2.345781934128e-03
3.431883328348e-03
2.738129196427e-03
2.430742527300e-04
3.688149105754e-03
8.387704164436e-04
2.991941880911e-03
5.628507851818e-03
2.024064835673e-03
4.530584219247e-03
1.460229167458e-03
4.626313542846e-03
3.347690434935e-03
2.537984777281e-03
4.987375735797e-03
8.656817948043e-04
5.285431651825e-03
3.359806122999e-03
5.766679500674e-03
3.342388058740e-03
2.107011085319e-03
2.928826646772e-03
3.947216798782e-03
1.526615979923e-03
2.569483147169e-03
4.520478967461e-03
3.465735922799e-03
2.391304591019e-03
2.779864257648e-03
5.040184275248e-03
2.772760665208e-03
5.618703717082e-03
5.759844672989e-03
1.983421498389e-03
2.659866027685e-03
5.141665672042e-03
2.630630496975e-03
1.717879912429e-03
3.236040194099e-03
2.634227826825e-03
5.637705462983e-03
4.673436176070e-03
5.143211062278e-03
1.164471534235e-03
2.407331954242e-03
4.803098661724e-03
1.296887470610e-04
2.602557350130e-03
4.814963733127e-03
6.908847608837e-04
5.616315559470e-03
4.285635638516e-03
2.554299594861e-03
4.795742518615e-03
3.724002802598e-03
3.932058578281e-03
5.497749636997e-03
1.904823798155e-03
3.244463136207e-03
3.481704692684e-03
4.488443812894e-03
3.550879868320e-03
3.254436741122e-03
4.171787960097e-03
4.925574717127e-03
3.793743182903e-04
1.944678655638e-03
2.211850110251e-03
3.157287865960e-03
4.893684273428e-03
9.647028340037e-04
4.643736636013e-03
3.342449784473e-03
2.377945774863e-03
4.477091166640e-03
4.380675775184e-04
4.584675247436e-03
3.699679224087e-04
5.360497299544e-04
1.154789664667e-03
1.594668909351e-03
4.784983334352e-03
1.546697935713e-03
1.383435816543e-03
1.200027858935e-03
1.005332530085e-03
4.949781021208e-03
3.380950736680e-03
5.631197498489e-03
0.0
1.665063222897e-03
2.673189362063e-03
2.423854183086e-03
4.621677125616e-03
5.764868817004e-03
4.590764537563e-03
1.954446704586e-03
4.960919873089e-03
4.205568891908e-03
3.320344157998e-03
4.410423547979e-03
5.507586445396e-03
2.709349539675e-03
1.580698985764e-03
3.836309747163e-03
6.017571415290e-03
3.278275707600e-03
3.423215564413e-03
3.753460771055e-03
8.863145511107e-04
3.518014179913e-03
1.918797851399e-03
1.292004175147e-03
9.082232253616e-04
4.755046881876e-03
3.676362788182e-03
2.294435875197e-03
4.952708212390e-03
4.718723855839e-03
3.481414558201e-03
5.642033395162e-03
3.523250685796e-03
3.640046674313e-03
2.917421140027e-03
3.717192777981e-03
1.585318004735e-03
3.357027743210e-03
2.838102944494e-03
2.007874057392e-03
4.547203828395e-03
1.589585432750e-04
3.708601455527e-03
2.047895045112e-03
1.700131027140e-03
1.626515464048e-03
3.929577795643e-03
6.380620704985e-04
2.384202047897e-03
3.820927590901e-03
3.640893065081e-03
3.744578397567e-03
8.473399745818e-04
1.972105034185e-03
1.841129336947e-03
2.144602490372e-03
4.453686851147e-03
2.425319558498e-03
2.633326203696e-03
2.506076668662e-03
1.050423010888e-03
3.001112002868e-03
1.139329181863e-03
6.012684016247e-03
6.015982038197e-03
3.371674230462e-03
1.754085065341e-03
1.538449888003e-03
3.733462517399e-03
1.667297713938e-03
1.800453244169e-03
3.281965826457e-03
5.778410886410e-03
2.212308197419e-03
4.148099921920e-03
1.220247403596e-03
6.015650448016e-03
1.627598388192e-03
3.408069598847e-03
1.126335977517e-03
4.035749165321e-03
2.797696233239e-03
1.935926706622e-03
3.513914298156e-03
6.014293587579e-03
2.340466570169e-03
3.854547700326e-03
1.257539573865e-03
4.211250131042e-03
4.445904991404e-03
1.749623395989e-03
4.109773335894e-03
6.017625920185e-03
4.749940685194e-03
6.020004411071e-03
4.066219120171e-03
4.677049970116e-03
1.453454976364e-03
3.226922138058e-03
3.605874528002e-03
3.801247617448e-03
3.116888250637e-03
6.023922603081e-03
3.900035487013e-03
3.427519582657e-03
2.541127325687e-03
1.304161433012e-03
3.097491959287e-03
1.828369059598e-03
3.480341907346e-03
1.973411461228e-03
2.245667589757e-03
4.717451703464e-03
1.865551334307e-03
3.320796694163e-03
3.948013352555e-03
3.499794145216e-03
6.014761074790e-03
2.797145162977e-03
1.840410315571e-03
2.476504328130e-03
1.777663760713e-03
1.715690849975e-03
5.020957594455e-03
3.604591250536e-03
2.461088412607e-03
3.037406839291e-03
6.020345341033e-03
5.688581187917e-03
4.974163615528e-03
4.623253995230e-03
3.403798714710e-03
2.542077870463e-03
1.793786123597e-03
2.084462978973e-03
3.443262116423e-03
3.946499106711e-03
2.984226002412e-03
5.025076478443e-03
1.876215262827e-03
2.954178187483e-03
3.441589599409e-03
2.662722220519e-03
6.012685245852e-03
6.016133295997e-03
5.644449372993e-03
3.701147822208e-03
4.921131353075e-03
1.545366707812e-03
2.377422492958e-03
1.336075859690e-03
2.584345771663e-03
3.338459339121e-03
4.044137853151e-03
5.756411723275e-03
4.924677558882e-03
3.800097117390e-03
3.895652219981e-03
1.419401544672e-03
6.642135258918e-04
2.837095037860e-03
3.243261720869e-03
3.038062407003e-03
6.767206337308e-04
3.595162726105e-03
1.242964933884e-03
1.791112892290e-03
5.886267587663e-03
4.319899469577e-03
3.400768600181e-03
9.348339381145e-04
3.083946857624e-03
2.871885156030e-03
3.962075947404e-03
6.018407561000e-03
3.198386693765e-03
3.766468143188e-03
2.946356736400e-03
4.889394747190e-03
3.802316230935e-03
6.019114699465e-03
5.878766063712e-03
5.874669666802e-03
5.846896484413e-03
4.057636266581e-03
4.920589971590e-03
5.113499940864e-03
2.631031740165e-03
2.507872621076e-03
2.813875816799e-03
5.059815959048e-03
6.015552509770e-03
5.051955043481e-03
4.017840351881e-03
5.084516464713e-03
4.404291654299e-03
3.045170865042e-03
2.550534457101e-03
1.338384591573e-03
5.646979922164e-03
2.469749811606e-03
5.384355873580e-03
2.775047533559e-03
1.799833226776e-03
5.623003894310e-03
1.949666713895e-03
5.877628319843e-03
5.634831675280e-03
3.696725743160e-03
2.315629071755e-04
5.876846230322e-03
5.625196717779e-03
1.763143550620e-03
4.153888461443e-03
6.029088701749e-03
0.0
2.757791127203e-03
3.859953108443e-03
3.533917503000e-03
3.571063382657e-03
1.501745143730e-03
5.871219529997e-03
2.671327868410e-03
8.692276940893e-04
5.775417212412e-03
4.034087724254e-04
2.877183319108e-03
7.845786155791e-04
3.064343649170e-03
6.008207932276e-03
5.886416939798e-03
3.769097730369e-03
5.416058611578e-04
6.663225248162e-04
9.264097944293e-04
5.017458723071e-03
3.488320970718e-03
3.568311924561e-03
5.888518575312e-03
3.493284622980e-03
6.023303222970e-03
4.495210095570e-03
3.909299515792e-03
1.880309591682e-03
4.118987834466e-03
1.217020428602e-03
5.888099209517e-03
5.858622551973e-03
5.871281062107e-03
3.837749785842e-03
2.642161995129e-03
3.082539161524e-03
3.932200029967e-03
5.884737103442e-03
1.826405636236e-03
2.101531865548e-03
2.230991329468e-03
4.079210194316e-03
6.020724823755e-03
6.550876827097e-04
5.870906118256e-03
2.061330388785e-03
5.887134204678e-03
5.158371209842e-03
1.735033884423e-04
2.876871465872e-03
5.119259939334e-03
5.882578435152e-03
4.090807838191e-03
4.627625074894e-03
1.056059908013e-03
5.381604359168e-03
2.190366286691e-03
2.266492401597e-03
4.233392830062e-04
5.876777887152e-03
1.506277909376e-03
4.962026184372e-03
3.779613678589e-03
1.886868617371e-03
2.137991957806e-03
3.928710791902e-03
5.887503593490e-03
2.741417539435e-03
4.307478873942e-03
3.496708023987e-03
3.907072451988e-03
2.300842511533e-03
4.002515627125e-03
3.405034769092e-03
4.439472514518e-03
4.416922306321e-03
3.333573885478e-03
2.813436354788e-03
1.986436464636e-03
2.602497471918e-03
4.536209320527e-03
3.650011259562e-03
6.021028889714e-03
5.248340798342e-03
1.675475904991e-03
5.860952443923e-03
5.749243689854e-03
3.130366137552e-03
2.446157471383e-04
6.015808451350e-03
5.216828897001e-03
1.891089920309e-03
5.872438978963e-03
4.140650168509e-03
2.670441489397e-03
3.672959727573e-03
3.555689535213e-03
3.535938459604e-03
4.076028772190e-03
4.323837798527e-03
2.998150908977e-03
4.588814172264e-03
3.990156233101e-03
2.851900776380e-03
4.246963853771e-03
2.223560657060e-03
3.981478068334e-03
1.793397212351e-04
2.156315504880e-03
2.097111767555e-03
3.079683430517e-03
3.294455684710e-03
4.105285117446e-03
3.968717882503e-03
1.929111457824e-03
5.886335248325e-03
3.894339398565e-03
3.209529361218e-03
3.730809639925e-03
3.117776647955e-03
0.0
3.867784336933e-03
2.563323944442e-03
0.0
3.036200146822e-03
4.407600196631e-03
5.076924335598e-03
3.778145075046e-03
3.865417070565e-03
3.297599931106e-03
3.075297279978e-03
5.632622103086e-03
3.567491943935e-03
1.510039486835e-04
1.062090790194e-03
2.398810579769e-04
1.837694429977e-03
5.063783013299e-03
5.108968424711e-03
4.804181478442e-03
2.074537259418e-03
4.022688107491e-03
5.049168604238e-03
1.160096365863e-03
2.576389109968e-03
2.078055360937e-03
6.021089235366e-03
5.881485963002e-03
2.857156921414e-03
3.246692301347e-03
3.629498285744e-03
5.229137518708e-03
1.125785695799e-03
4.880206649917e-03
6.831862832840e-04
2.949407645451e-03
3.288357648769e-03
2.441249237017e-04
2.697767110358e-03
5.212641935745e-03
1.752329176366e-04
3.063219008196e-03
3.208047659791e-03
4.245083115866e-03
2.103654506232e-03
2.019431576275e-03
1.421520152248e-03
5.225289819944e-03
5.632171442564e-03
4.908962959162e-03
1.901082200919e-03
7.152422822502e-04
3.069002747989e-03
3.072118229683e-03
3.221248037221e-03
0.0
2.370160903131e-04
5.310782124113e-04
1.561897998935e-03
4.249046179327e-04
3.032717901044e-03
0.0
1.864630217503e-03
4.122518464148e-03
3.216172429738e-03
5.209439031162e-03
4.234717777356e-03
3.854408568460e-03
2.248560931312e-03
6.787283102328e-04
5.869561306561e-03
6.023626633703e-03
3.742684779077e-03
3.077333598062e-03
2.287820883481e-03
6.009559958077e-03
1.773006016400e-03
3.202342050267e-03
3.064099742472e-03
2.912794716067e-03
5.888568312805e-03
6.006021539653e-03
4.166942996851e-04
0.0
8.441431879688e-04
3.250853044044e-03
5.464355466467e-03
1.629622625435e-04
4.849407318231e-03
0.0
4.167229288684e-03
1.911385708274e-04
1.855469029488e-04
3.998077199970e-03
5.296543687334e-03
4.237134437895e-03
3.194088539209e-03
2.435063913800e-04
4.153210895562e-03
5.861217735276e-03
6.009791560538e-03
3.214582083037e-03
4.335922088801e-03
5.878708529905e-03
4.662336340161e-03
6.526260522665e-04
4.186243951470e-04
2.626649538589e-04
2.550412609600e-03
6.014031515604e-03
5.628686910939e-03
0.0
3.011280459441e-03
5.891985303537e-03
6.031512279974e-03
6.009444186578e-03
4.549765932770e-03
5.010826545378e-03
5.864343994050e-03
5.879214029285e-03
4.848773824588e-03
1.474383398766e-04
3.191688509645e-03
3.230904037540e-03
0.0
5.898372924748e-03
6.024797090299e-03
5.861254662737e-03
1.875139568358e-04
1.924224746449e-04
5.871534849748e-03
5.866174925494e-03
4.404639489746e-03
3.191281210692e-03
4.696669621923e-03
3.777426634559e-03
3.187300555971e-03
1.702406008909e-04
1.962141474448e-04
1.658004844312e-04
1.808088655351e-04
3.181347729344e-03
2.857668427393e-03
0.0
4.096797302130e-03
0.0
5.867214387611e-03
5.859324762587e-03
5.872796053912e-03
1.028821985916e-03
1.936630062470e-03
5.864275948506e-03
5.016839626708e-03
5.891943567255e-03
5.328174982674e-03
5.640245512771e-03
2.701665040976e-03
6.022983703665e-03
6.017003585591e-03
5.139388847067e-03
5.463393282501e-03
4.411575174769e-03
0.0
2.784277416710e-03
4.061884078683e-04
5.259286228377e-03
2.908833121132e-03
4.850143225763e-03
1.472710261241e-03
5.420604269261e-04
5.189202363176e-03
3.073447472489e-03
2.406449859391e-03
4.889636581614e-03
5.255592395657e-03
2.405392247394e-03
4.614670723085e-03
4.023251322217e-03
4.374804059548e-03
4.518070815714e-03
2.466020010935e-03
2.911636777842e-03
3.205404967252e-03
4.113353234630e-03
5.029297459228e-03
4.665945937406e-03
1.491277829959e-03
5.243929663885e-03
4.941851688277e-03
3.558682000750e-03
4.285917425276e-03
4.244579152953e-03
5.321773155122e-03
5.122199489663e-03
3.931103671375e-03
5.320806263415e-03
4.878121851522e-03
4.664188533065e-03
5.406777608810e-03
5.283094587084e-03
4.496087669439e-03
4.444458481023e-03
1.481875117849e-03
1.376911560334e-03
7.503612397896e-04
4.158489178226e-04
5.132283977735e-03
5.119873486994e-03
4.012352521065e-04
5.178558947058e-03
3.672287986049e-03
4.759407346754e-03
4.816897172186e-03
2.140610803278e-03
4.851861367702e-03
3.563436395175e-03
4.454648778840e-03
5.513811741196e-03
1.417713283077e-03
5.445572691693e-03
4.665806061983e-03
1.612851643597e-03
1.714759419245e-03
3.438255392646e-03
4.137623841864e-03
2.296870595819e-03
4.830815432738e-03
4.338838747336e-03
3.342675223842e-03
4.545437980776e-03
4.722218982109e-03
4.634762812797e-03
1.261713162161e-03
3.173154214210e-03
5.055839016286e-03
4.803789849080e-03
2.857994266569e-03
4.062765352512e-03
5.318088809597e-03
4.463221862301e-03
7.092725784376e-04
7.188837629253e-04
1.457330486298e-03
4.991375457446e-03
4.302592537165e-03
3.790381226361e-03
3.831560113469e-03
5.088582652342e-03
3.475465703060e-03
4.681796565250e-03
1.519021719428e-03
5.403126934034e-03
3.381852318330e-03
1.662591917742e-03
3.207575975263e-03
2.427493216678e-03
1.903845874229e-03
3.731045389276e-03
0.0
0.0
4.284173046855e-03
1.393362755241e-03
4.325320826384e-03
4.194819161297e-03
2.641355429632e-03
1.719362769164e-03
5.077648961166e-03
6.798414436796e-04
2.568347176664e-03
5.235874665598e-03
1.155384575714e-03
4.027503858662e-03
3.708502873321e-03
1.170523382264e-03
5.180869859233e-03
4.605325228012e-03
1.354425768675e-03
5.208339196432e-03
5.174454579939e-03
1.560392004205e-03
2.066462287853e-03
1.601268088310e-03
4.585233918787e-03
3.608599847271e-03
5.182420533551e-03
5.047083544607e-03
4.455861124158e-03
4.416860348409e-03
1.262227011679e-03
4.546872248422e-03
4.575231375888e-03
3.645268122884e-03
4.332465809534e-03
4.772714813264e-03
3.224253829144e-03
4.911353602778e-03
3.039446067918e-03
3.515433690721e-03
2.274449684328e-03
2.423089078890e-03
4.439297428605e-03
3.365892711140e-03
1.732320824868e-03
8.737837506730e-04
4.468449371054e-03
1.692563081125e-03
5.400363428095e-03
4.604462714681e-03
4.720726376404e-03
5.614884535387e-03
2.906736885669e-03
1.519615723243e-03
9.588952552173e-04
4.497763875840e-03
4.168753252709e-03
6.612546370243e-04
2.334923660638e-03
1.349036943465e-03
4.164466221195e-03
2.463752493733e-03
4.155025201166e-03
2.292333716335e-03
4.974481416777e-03
1.996568548932e-03
4.538601579327e-03
1.422865093935e-03
4.366068561900e-03
3.354002373652e-03
4.590163414602e-03
2.268610930300e-03
1.307910686375e-03
3.881907493683e-03
4.205574957263e-03
2.920421497113e-03
4.187784013099e-03
1.586935699350e-03
4.244922793799e-03
1.226338966711e-03
5.150001748039e-03
4.374413810112e-03
4.622543358684e-03
5.394833408084e-03
3.667741289077e-03
1.224125341458e-03
4.102435654437e-03
5.282422523208e-03
2.057763750215e-03
4.628995763583e-03
4.635584555752e-03
1.589158083945e-03
4.234441115404e-03
3.821646127754e-03
1.821001696294e-03
2.204998645608e-03
3.531838972984e-03
4.458682283978e-03
2.705458114869e-03
3.369397376082e-03
4.409627360570e-03
3.999189459908e-03
3.940589006345e-03
3.315097548747e-03
5.049644574621e-03
3.970188919273e-03
3.865457449799e-03
5.335960465199e-03
4.786774600188e-03
4.326858616178e-03
4.742369029763e-03
2.549037087326e-03
2.376936366428e-03
1.302651264701e-03
4.273366818875e-03
2.508792953611e-03
4.299375558000e-03
4.132696996014e-03
3.389416804488e-03
2.034302780513e-03
2.172486861284e-03
2.165955219120e-03
2.337607654919e-03
1.391516248166e-03
4.919034255652e-03
2.855049591197e-03
4.941701353565e-03
3.027877065094e-03
4.063567962409e-03
3.458337729904e-03
3.331673446639e-03
1.430769057123e-03
5.141025598269e-03
5.386317345378e-03
4.241134245443e-03
2.509978051558e-03
3.760813505748e-03
4.270720268813e-03
2.680282115890e-03
2.797254708148e-03
2.037210772217e-03
1.757966815576e-03
2.721514213298e-03
1.824017326781e-03
1.691969220267e-03
3.496848774705e-03
4.195328690588e-03
4.995266969494e-03
2.135838877742e-04
2.937051639141e-03
2.897351463058e-03
2.682523461315e-03
4.103488450026e-03
3.156230924954e-03
2.130711016344e-03
2.894759596741e-03
4.775391991284e-03
2.173955602432e-03
7.788298120350e-04
1.098630592694e-03
1.847249263452e-03
2.207153680070e-03
3.068504768790e-03
3.066805177260e-03
1.285438509384e-03
1.138227833186e-03
3.930039062681e-03
1.865163626252e-03
4.708651258612e-03
4.829683528524e-03
3.996321467094e-03
4.986241804288e-03
5.148048922335e-03
3.260814721480e-03
4.534131096749e-03
1.457572490377e-03
3.023482251318e-03
2.967208668201e-03
1.645155887212e-03
1.166961927379e-03
2.469642956954e-03
2.937206611966e-03
3.106798960592e-03
1.956772177711e-03
3.328078992345e-03
2.976908204584e-03
3.106378807451e-03
2.248119148986e-03
4.413942525391e-03
4.439751776256e-03
2.976392922480e-03
5.010927287276e-03
1.627877766205e-03
5.381669347488e-03
3.196867194148e-03
5.344914307263e-03
4.057033022443e-03
1.547485956853e-03
4.123901821043e-03
5.087178339347e-03
3.367611906554e-03
2.440942977478e-03
4.251329185006e-03
3.207452396219e-03
1.238538391459e-03
5.593643574323e-03
1.085824202323e-03
5.357726211726e-03
5.214885560155e-03
4.544742657186e-03
3.963126868919e-03
4.882709138368e-03
3.144855381723e-03
3.686700440280e-03
5.279854728997e-03
4.499470890681e-03
4.577778607108e-03
4.305077680676e-03
1.417434976899e-03
4.713217591497e-03
5.753142823153e-03
5.329243380659e-03
2.984954618286e-03
3.988249552619e-03
3.801645055376e-03
3.235172335353e-03
4.367027888534e-03
4.537516687745e-03
9.970547420202e-04
1.879690939538e-03
3.146058965649e-03
3.016269873665e-03
3.169182906176e-03
5.469468509572e-03
5.150681403781e-03
5.240179499594e-03
2.868576175316e-03
4.786586511308e-03
4.405806436379e-03
5.327777423767e-03
4.543377517499e-03
3.194953866719e-03
3.016658390279e-03
4.683655011930e-03
5.186209915555e-03
4.713484120123e-03
4.548206090170e-03
4.976866936040e-03
5.217579174467e-03
4.840160058745e-03
3.891876227783e-03
2.750258353967e-03
4.710107048531e-03
4.455858956637e-03
1.652249011372e-03
3.184856128294e-03
3.569010409292e-03
3.985083673358e-03
1.671830613806e-03
3.055529241679e-03
4.284410717116e-03
3.160882025297e-03
3.286974656951e-03
4.234469480443e-03
3.357266040902e-03
5.832224582001e-04
3.799395819488e-03
4.636565872287e-03
5.317751045333e-03
3.481406310990e-03
3.589447844127e-03
4.274698478407e-03
8.890581030903e-04
4.506465777264e-03
3.816858646073e-03
3.354799917759e-03
4.576186082816e-03
1.676633756965e-03
4.747043128416e-03
5.187298868340e-03
4.376407166304e-03
4.744547438801e-03
4.830907234008e-03
5.222428902797e-03
1.201860364893e-03
4.408544086062e-03
5.240903661220e-03
4.852152895878e-03
4.077198400922e-03
3.222276421181e-03
3.512191017662e-03
9.501978410136e-04
5.017421712005e-03
1.785962296740e-03
1.474080171039e-03
4.696567737555e-03
5.360782323002e-03
1.502195583134e-03
3.694570648950e-03
4.514270677664e-03
3.456703744762e-03
1.710610669055e-03
2.238950842234e-03
1.102844825229e-03
1.463725195595e-03
1.298709706981e-03
3.778806340878e-03
6.016319104850e-03
1.770958764898e-03
5.108227611126e-03
2.760707398476e-03
4.377813891095e-03
1.251866579467e-03
5.389992930062e-03
1.329712956055e-03
2.093643212440e-03
4.546924323321e-03
3.272001809033e-03
5.085454575005e-03
2.505652950449e-03
4.652855770583e-03
5.305274251484e-03
4.381154287587e-03
5.353154153797e-03
4.847010383273e-03
4.984300817298e-03
1.461091507052e-03
4.931565832531e-03
4.651005362573e-03
3.390008201393e-03
2.079335679828e-03
5.500831082514e-03
1.712811546916e-03
1.993152190864e-03
4.885708378640e-03
1.216541976104e-03
3.495171392387e-03
4.675591106622e-03
5.272532937545e-03
5.420840566733e-03
4.583883740699e-03
5.018032232522e-03
2.928193951873e-03
4.734205484299e-03
2.384407325899e-03
5.226115629599e-03
2.691920380854e-03
2.821439891355e-03
3.352681362175e-03
3.005156168196e-03
3.913667205993e-03
3.168162756046e-03
3.350908701417e-03
1.499540076307e-03
3.184302201097e-03
5.155825657334e-03
5.317650690563e-03
4.630365567379e-03
5.181610671434e-03
3.234889799458e-03
4.952004252636e-03
3.313357221722e-03
5.062045811440e-03
4.816274352400e-03
4.818099421099e-03
4.206405183177e-03
3.056304276052e-03
5.021296019776e-03
4.023314824600e-03
1.538746154334e-03
1.749640413363e-03
2.581840747201e-03
3.659895849796e-03
5.198547264467e-03
4.682421595145e-03
3.094059173860e-03
4.145541869622e-03
4.812672239436e-03
5.049278077315e-03
5.190177469339e-03
4.186777916003e-03
4.922584909276e-03
3.519092201106e-03
4.841945469780e-03
3.459285380478e-03
5.318103245047e-03
5.375730321285e-03
3.907284938938e-03
1.543762532817e-03
4.924088818987e-03
3.784631978290e-03
2.966232018542e-03
4.115084444643e-03
4.786551662215e-03
1.580177343230e-03
3.609609721518e-03
4.218839080460e-03
5.235324707913e-03
4.343885302361e-03
4.794481932196e-03
4.091858975395e-03
3.838629298260e-03
4.150165290363e-03
5.016907512540e-03
4.843633938431e-03
4.487236376390e-03
5.391551705940e-03
3.964776956212e-03
2.504722224904e-03
5.126866157334e-03
5.351865102208e-03
3.421523486689e-03
3.585506366848e-03
2.798993443276e-03
4.621665338398e-03
2.797993190934e-03
4.008922037687e-03
2.829376981743e-03
4.717608549950e-03
5.388550033297e-03
2.927070685157e-03
9.888206599125e-04
5.353078015974e-03
2.956776001860e-03
3.401650254318e-03
5.219422455657e-03
4.518245132016e-03
4.710258760874e-03
3.004500417497e-03
7.783076031665e-04
5.413634110948e-03
3.785549847173e-03
4.475770357229e-03
5.138569278830e-03
4.994909691428e-04
4.670933741567e-03
2.116054709690e-03
4.214096454066e-03
3.759983120660e-03
2.888083435173e-03
5.100516085727e-03
3.877479781614e-03
2.594149316670e-03
3.983879265493e-03
8.165376085929e-04
4.568690469439e-03
4.756083401337e-03
5.452995028681e-03
4.864947734128e-03
2.043386112127e-03
4.669335817464e-03
5.443502610785e-03
5.653283028556e-03
4.924221690428e-03
3.131071400812e-03
4.275149951314e-03
5.153531541623e-03
3.483038301481e-03
4.661124208018e-03
4.348587759454e-03
4.969873350217e-03
4.879399467596e-03
3.061812406022e-03
3.059832632554e-03
4.421565437881e-03
4.367095910945e-03
3.892926071110e-03
4.346817112173e-03
3.712232804534e-03
5.218395199065e-03
3.094455246611e-03
6.015990180958e-03
3.548926640244e-03
3.622651461457e-03
3.720989189851e-03
1.917689178557e-03
3.325283759535e-03
4.075520205487e-03
3.823291195348e-03
4.324099751295e-03
4.442674123027e-03
4.635684442585e-03
9.413748427401e-04
3.116803001466e-03
2.990095831993e-03
4.183071766205e-03
4.385629020003e-03
5.129593891230e-03
1.345885066556e-03
1.412365657132e-03
3.622797484364e-03
3.154436867303e-03
2.871305297426e-03
3.029007655749e-03
4.352626062824e-03
1.378394098464e-03
3.551958554456e-03
4.673475020982e-03
1.371021261255e-03
5.626560674904e-03
5.140839489265e-03
3.418542020247e-03
4.761469995819e-03
5.340586268801e-04
4.506684223349e-03
3.820960628806e-03
5.232531716934e-04
5.112554520633e-03
1.291496177796e-03
4.218615333140e-03
3.856857888662e-03
3.312116629244e-03
3.970751915483e-03
5.253907736522e-03
4.273307236226e-03
3.748874096129e-03
3.658427402968e-03
4.072848571604e-04
1.086582957134e-03
4.988340503471e-03
4.027251590836e-03
5.093944963423e-03
2.082136659873e-03
4.849015704641e-03
5.165290452317e-03
3.099958031898e-03
4.951145023831e-03
4.800202598035e-03
4.202189340322e-03
3.419837614494e-03
3.627723820665e-03
5.408792691943e-03
3.669252203194e-03
3.949521165471e-03
3.687500356751e-03
4.577290825851e-03
3.457616430748e-03
2.136542330794e-03
3.737765005846e-03
2.300519927022e-03
4.313534934977e-03
2.336835197399e-03
4.185013498204e-03
5.058632123647e-03
4.845402042790e-03
3.258903797757e-03
4.157867652743e-03
4.893039108893e-03
4.931637404463e-03
1.098595117713e-03
4.276866742041e-03
5.348494697504e-03
2.274754905370e-03
3.720777205156e-03
5.805350037142e-04
5.023459904507e-03
2.007146323956e-03
3.516536072154e-03
4.448684330717e-03
4.188265097601e-03
3.987994876210e-03
3.912543751932e-03
2.560060998670e-03
2.716022476841e-03
5.063727723485e-03
4.170414237267e-03
3.608810319198e-03
4.473149988466e-03
3.442042596625e-03
2.210516303654e-03
2.509306508329e-03
3.743956289805e-03
3.211982025181e-03
4.884087041847e-03
3.294332851053e-03
5.470028085312e-03
4.968312631613e-03
3.648648400585e-03
5.541933827682e-03
2.466546029825e-03
5.345527466215e-03
3.948482313971e-03
4.328605554235e-03
5.112321421620e-03
2.597683647667e-03
4.115029269880e-03
3.480150837066e-03
4.019186076767e-03
2.272393606485e-03
4.466658165347e-03
3.272828574776e-03
3.852140252587e-03
3.985530946530e-03
5.486019707335e-04
3.987424940170e-03
8.554820142323e-04
9.504026979452e-04
3.679756779393e-03
4.895621551102e-03
4.114719913355e-03
2.260582699587e-03
5.890341927598e-03
2.361196323926e-04
2.408933314321e-03
3.696570178526e-03
3.550836608979e-03
2.949897068498e-03
2.521788525811e-03
3.865826064652e-03
4.111851899735e-03
4.291338337805e-03
5.060421643315e-03
1.172731196860e-03
3.380194152908e-03
3.645284340248e-03
1.945070109137e-03
3.263324571413e-03
4.151874911649e-03
4.514501832049e-03
6.678202814271e-04
4.351335771458e-04
1.356777941614e-03
3.683303970356e-03
2.761138937455e-03
2.431180347952e-03
2.170243072616e-03
3.811952085602e-03
4.376533666742e-03
3.777763179950e-03
2.723670872440e-03
4.310662224790e-03
3.611591761329e-03
4.750283438547e-03
3.815774579288e-03
3.851468414051e-03
1.944050795949e-03
2.890987107893e-03
3.905608017060e-03
4.252910968047e-03
3.994175970999e-03
2.110867462038e-03
3.944631663858e-03
2.390664015243e-03
1.124080825948e-03
5.376953591042e-03
1.187499430943e-03
2.482769913719e-03
3.879865431681e-03
2.200126612380e-03
3.952345974418e-03
1.811928905985e-03
3.356343314340e-03
3.983365723056e-03
3.440832380153e-03
3.590886272855e-03
5.778240294564e-04
5.177570466669e-03
2.852018100216e-03
5.139923105349e-03
4.369987342579e-03
4.075819768185e-03
4.112944593259e-03
2.558534294897e-03
8.044732495801e-04
4.846447285547e-04
4.204879470093e-03
5.110788681143e-03
2.351481271792e-03
4.405521083047e-03
2.090274329685e-03
4.476809174747e-03
5.754213561495e-03
1.628784469015e-04
5.886643384746e-03
5.901414175980e-03
3.458575707159e-03
2.812867409509e-03
4.241011420016e-03
2.631198119222e-03
8.395301720451e-04
4.442063176974e-04
5.416028733597e-03
4.290643224771e-03
3.238039868260e-03
6.016407931762e-03
1.526058316679e-03
6.021404174662e-03
4.252293004767e-03
2.770700704573e-03
4.037975120995e-03
2.603169544957e-03
1.275543801189e-03
2.434051418874e-03
4.504021302162e-03
5.149429450184e-03
2.644039120232e-03
4.570681309338e-03
0.0
2.683791218028e-03
4.759413754436e-03
2.380487600569e-03
2.182231533104e-03
4.074582213105e-03
1.142827734401e-03
1.613360141681e-03
1.808060117334e-03
2.084692713343e-03
3.738888209100e-03
3.552566181395e-03
4.601487464017e-03
5.387303345294e-03
1.895037985309e-03
4.547788030597e-03
5.406404464742e-03
2.430574595185e-03
8.388200309560e-04
2.308570276636e-03
3.567446514914e-03
4.605708546548e-03
3.532472732913e-03
9.838862332245e-04
4.035330324993e-03
1.450893591273e-03
3.586284318698e-03
3.831672797715e-03
4.170149154859e-03
4.132286282917e-03
2.127223100425e-03
9.534914560383e-04
4.136513997941e-03
1.590009906794e-03
3.818359164413e-04
5.392622240487e-03
5.134895118372e-03
2.358553379801e-04
4.335577273877e-03
1.652975194542e-03
1.733439247888e-03
4.869520458032e-03
4.202282593856e-03
4.701518647351e-03
2.723483443401e-03
3.214868672807e-03
5.618894135867e-03
1.429456025818e-03
4.994104156300e-03
3.749384831161e-03
1.080098481845e-03
4.468944246879e-03
2.850501028317e-03
5.229780796344e-04
2.395768144624e-03
4.403868178899e-03
4.552935884602e-03
1.122570998338e-03
3.592706244326e-03
4.742720139637e-03
4.941703297221e-03
2.257577943858e-03
1.773224354185e-03
3.849204691397e-03
4.071024716265e-03
5.196053913261e-04
5.764981452673e-03
5.619546678147e-03
3.612944456399e-03
5.643094491975e-03
5.633179208426e-03
2.812315344072e-03
2.684208433063e-03
5.774953852408e-03
0.0
1.642459376677e-03
3.615456688328e-03
2.303853360214e-03
2.356132906425e-03
1.288375400597e-03
1.523495052580e-03
3.689273836909e-03
2.596505031526e-03
1.903570888892e-03
4.768488117706e-03
6.016953446853e-03
6.019036760985e-03
2.772486331110e-03
3.327990862488e-03
3.338379874677e-04
1.033148740315e-03
1.155791037094e-03
1.182207438934e-03
4.038315348238e-03
2.314844929729e-03
2.560267431529e-03
6.984958962329e-04
5.129856721972e-03
2.519676737210e-03
5.369560606069e-03
4.921920194395e-03
6.028148600870e-03
6.024927523322e-03
3.694826416134e-03
2.643467046654e-03
1.596779775992e-03
2.730315514544e-03
5.897744789275e-03
7.273837460651e-04
8.727452914999e-04
5.171338012505e-03
3.477662201300e-03
5.409990092851e-03
4.766370635139e-03
5.205506796535e-03
4.984047288898e-03
3.660646591584e-03
2.009740382611e-03
1.966632147612e-03
4.354966851432e-03
5.090565716970e-03
3.059094088471e-03
3.470038770667e-03
3.693952598066e-03
3.772778857696e-03
9.470076460965e-04
1.787152598033e-03
5.767752696873e-03
4.034960654971e-03
5.756079931259e-03
5.497145112359e-03
4.509775173530e-03
5.432774287522e-03
2.645253503307e-03
2.511337306943e-03
5.406759837386e-03
2.304638287393e-04
1.771966949554e-03
5.883028560639e-03
8.247074295860e-04
3.324809475671e-03
5.529445601793e-03
5.796810560745e-04
3.735041338849e-04
6.010222977965e-03
3.068950323843e-03
5.659948107382e-03
5.391425944959e-03
3.060672020253e-03
3.701494320501e-04
5.629476601577e-03
9.427571928059e-04
5.445974576444e-03
5.891393706380e-03
5.428284510192e-03
1.205305933195e-03
3.730388698424e-03
2.799861645862e-03
4.776394335281e-03
6.019211625133e-03
4.734875419906e-03
6.017874104347e-03
5.525430350756e-04
5.764155817737e-03
1.379826528368e-03
7.818426790372e-04
5.771398210854e-03
5.772672408195e-03
5.750122728571e-03
3.364853212441e-03
3.669284283972e-03
1.289535518306e-03
5.767367083341e-03
2.258902969130e-03
7.533765705701e-04
4.926344783199e-03
3.188420317882e-03
5.482259513434e-03
5.953772275136e-03
5.893932355244e-03
1.556562156404e-04
7.519299109276e-05
3.129847729158e-03
3.204854259840e-03
5.889443725007e-03
5.949944079457e-03
3.717729449494e-04
0.0
5.412787547920e-03
5.428215329942e-03
1.134510679474e-03
5.501228040530e-03
3.826590884489e-03
3.385765392231e-03
4.259215926484e-03
1.033495775153e-03
4.492845514927e-03
9.286955643622e-04
3.016528213225e-03
5.456768976604e-03
5.324962882905e-03
3.256994374191e-03
3.913984556786e-03
5.533514411026e-03
5.100824001865e-03
4.804745634301e-03
3.058531543379e-03
4.339009031687e-03
5.424931143324e-03
1.698845153725e-03
4.086781350246e-04
5.273729960381e-03
4.969714239598e-03
7.789488230220e-04
4.461302677928e-03
5.625097067299e-03
5.215165969830e-03
5.527785936846e-03
4.184635835076e-03
2.450732908034e-04
1.273338932172e-03
1.607268086116e-03
3.578185125380e-03
4.310413086534e-03
5.506795170732e-03
5.617673364480e-03
6.645911850498e-04
6.388748237895e-04
1.019502716968e-03
4.467708076661e-03
2.159520161712e-03
5.529519713859e-03
1.082739524012e-03
5.378468444182e-03
3.624426704377e-03
5.642484205688e-03
4.966747949266e-03
3.587861483021e-03
5.771512121934e-03
5.779451194585e-03
5.760792399076e-03
7.089390944598e-04
5.397932790268e-03
5.622343722044e-03
5.472950722519e-03
5.052268972404e-03
5.880549672383e-03
4.768122438881e-03
0.0
9.845756963829e-04
5.283361989644e-03
3.879740068610e-03
5.433335536349e-03
5.248543119057e-03
5.652713428879e-03
4.807093912347e-03
5.652238210164e-03
5.501769948461e-03
5.478616351915e-03
2.254971077609e-03
6.018212737185e-03
3.451522871175e-03
5.433186761320e-03
5.068656971482e-04
5.235659828438e-03
4.498616084438e-03
6.477069853907e-04
1.135724772342e-03
4.905082491478e-03
5.637492893173e-03
5.504426529729e-03
5.673913725339e-03
3.852881204388e-03
3.799041860716e-04
5.935897059171e-04
4.188938165998e-04
8.250409444332e-04
1.478748655911e-04
2.994768496769e-03
5.427348189453e-03
5.458882754827e-03
3.883455718842e-03
2.608660953034e-03
5.476751558410e-03
5.429576111220e-03
5.784117117048e-03
5.420830804507e-03
5.193598780718e-03
5.135394386581e-04
5.681154926280e-04
5.488737210923e-03
5.166391021770e-04
7.619709822300e-04
4.832364846617e-04
5.799786674799e-04
5.645675802182e-03
5.655037542831e-03
5.514781828190e-03
5.671443408193e-03
5.255264111174e-03
4.033418773149e-03
5.899144122698e-03
1.388436502105e-03
3.180255969687e-03
8.723897877041e-04
2.133422569491e-04
6.015531814482e-03
3.502525969212e-03
8.808568387309e-04
2.855369314806e-03
5.783822611068e-03
5.499347830224e-03
5.655534667044e-03
2.044016280955e-03
5.432286145460e-04
5.780287558169e-03
6.015607847563e-03
6.035949087319e-03
3.352497016113e-03
5.397561630392e-03
7.778562056283e-04
5.539597143375e-03
2.048357633213e-04
5.660676748682e-03
5.761438663708e-03
2.169999861618e-04
5.276842850465e-03
4.633513032721e-03
5.657467102238e-03
5.913925366103e-03
4.247858577439e-03
5.671720231098e-03
5.525428271373e-03
4.362177274662e-03
5.479739394229e-03
2.387201356291e-03
3.053723610195e-03
5.526446984934e-03
5.736294853841e-03
0.0
3.063983621229e-03
5.747940021174e-03
1.061697143843e-03
5.531390322423e-03
5.495470709881e-03
5.762937850711e-03
1.031440225739e-03
8.053626735849e-04
3.509970528096e-03
5.010988788466e-03
1.260771232344e-04
5.677193264911e-03
4.090526400836e-03
1.039673297651e-03
3.888574816327e-03
5.772338171833e-03
3.681185629208e-03
3.038880930972e-04
2.159618659613e-03
3.184608949978e-03
3.800834338169e-03
5.524986598456e-03
3.091083311451e-03
3.266927546245e-03
5.190819916672e-04
5.520367014093e-03
5.284258696945e-03
8.877738012256e-04
5.674860832192e-03
5.710960226183e-03
3.423111596940e-03
4.198163726001e-03
3.122389092001e-03
3.191264477013e-03
3.380114392671e-03
5.252725700940e-03
7.633269386087e-04
5.525012493520e-03
3.559702453178e-03
5.772557366742e-03
5.241338347213e-03
3.993508198578e-03
5.321259532480e-03
5.468684898978e-03
5.796731642521e-03
2.386710946759e-04
5.348756869278e-03
5.540450075665e-03
5.978130445140e-04
2.916813067192e-03
3.606876982128e-04
5.579480516134e-03
2.895347462543e-03
2.762954093961e-03
2.933492103758e-03
2.773940618943e-03
2.938129622360e-03
2.779861874844e-03
2.947517109028e-03
2.770436758339e-03
2.936171750745e-03
2.775705167697e-03
2.944993665868e-03
2.776162261490e-03
2.967674935110e-03
2.940979762039e-03
2.788576165275e-03
2.769633692862e-03
2.947728243539e-03
2.778133822446e-03
2.938167467260e-03
2.780092728751e-03
2.946956698666e-03
2.779489675693e-03
2.817224370005e-03
2.950134646900e-03
2.777240784832e-03
2.942772889533e-03
2.773283112852e-03
2.775691965232e-03
2.943314050847e-03
2.958430064026e-03
2.871806310958e-03
2.687862091863e-03
2.898963514100e-03
2.818430404747e-03
2.887802313650e-03
2.791363294968e-03
2.764226645725e-03

SCALARS element_materi_plasti_phimob float
LOOKUP_TABLE default
9.956336444228e+00
6.771370577553e+00
1.970031279243e+01
1.681764326863e+01
-4.494550802794e+00
-7.378122931189e+00
-4.190752224843e+00
8.653988154893e+00
-3.760214607422e+00
1.675301797670e+01
2.168009351743e+01
5.578050372342e+00
2.097424766516e+01
2.293631530680e+00
2.076957052901e+01
1.729235175955e+01
-6.541325475321e+00
-7.684012472414e+00
1.106735501620e+01
1.205461712816e+01
1.670988798326e+01
8.133917293635e+00
1.038585367995e+01
2.186523768009e+01
7.707669957914e+00
2.173917890632e+01
-7.442883667040e+00
2.203871597874e+01
8.628736822960e+00
2.181841222328e+01
2.235013104223e+00
-2.069522583888e+01
1.935513556741e+01
2.145176039994e+01
2.120383665873e+01
2.090925885454e+01
2.080389004613e+01
2.194189719095e+01
-1.668076368112e+01
-1.609850718920e+01
1.143700601848e+01
2.099587663748e+01
5.359692447930e+00
-5.953070004954e+00
1.620844537067e+01
4.074991119830e+00
-4.575191839272e+00
1.641873155419e+01
-2.200345731771e+01
-1.519835682487e-01
1.130423337219e+01
1.430459881110e+01
1.134966685338e+01
8.364434809075e+00
1.830538166784e+01
1.785137100920e+01
1.523372813024e+01
2.152054682262e+01
5.358230908542e+00
1.726083991296e+01
-2.721864424799e+01
2.238499847635e+01
1.718953427557e+01
9.135218062334e+00
2.098212048443e+01
8.103287475359e+00
-2.998719299616e+01
1.964014102336e+01
5.945407649943e+00
2.107206871373e+01
2.173171636176e+01
1.885966308011e+01
2.156631104204e+01
-1.352600892371e+01
1.850675745340e+01
1.696142179349e+01
1.825002766336e+01
-6.777195418481e-01
5.945862742295e+00
2.343835247098e+00
6.396967701322e+00
-7.133346215779e+00
1.035561720284e+01
6.977552050300e+00
3.282515684822e-01
1.382251499803e-01
2.167256401951e+01
2.156448705171e+01
1.740860063328e+01
-4.525565422084e+00
-2.114365305619e+01
-2.997215878226e-01
1.297845140524e+01
1.252521878831e+01
1.814501832129e+01
2.143831493993e+01
-7.002695135771e+00
2.148767621488e+01
6.086782959245e+00
1.448588295130e+01
-9.530629563952e+00
2.084371664542e+01
2.286385580315e+01
2.205859141103e+01
1.584850129853e+01
-5.993206746077e+00
2.118077661710e+01
1.418094453433e+01
-2.269543337906e+01
2.073107331004e+01
1.722627748159e+01
-2.497765696760e+01
2.202986551557e+01
5.792738336537e+00
2.020062039765e+01
1.383032209236e+01
1.674065045642e+01
2.103062647528e+01
4.482243515500e+00
1.701494030133e+01
5.123863725967e+00
1.582019996352e+00
1.438779732130e+01
1.636423986813e+01
-9.632631138240e+00
1.112411512236e+01
1.989209886428e+01
7.733901457370e+00
1.755730211329e+01
-3.859524047581e+00
2.175101904999e+01
1.685841464355e+01
1.657531172334e+01
1.178733272091e+01
2.138214443036e+01
2.094736679544e+01
2.173609833332e+01
1.659268756393e+01
2.165614405056e+01
1.426705605389e+01
1.720519285910e+01
2.126944311636e+01
2.951288844943e+00
1.007493095897e+01
1.506192599174e+01
8.430985562580e+00
1.783418622043e+01
1.866154505797e+01
-7.665890592484e+00
2.146816224360e+01
-2.207452048442e+01
-2.387446369070e-01
7.133253211033e+00
8.346295316898e+00
2.107599473884e+01
1.659950246758e+01
2.165435018447e+01
5.489637222453e+00
2.325824466536e+01
-6.665474211046e+00
2.202478745949e+01
2.140632770366e+01
5.251490119497e+00
2.120906918406e+01
1.027889049227e+01
2.113459294331e+01
-7.219103414558e+00
1.868054155400e+01
2.848471459927e+00
2.179270299005e+01
7.605695954057e+00
2.131332103688e+01
1.143251664665e+01
-7.432214507314e+00
2.068628703354e+01
5.845310448493e+00
2.038437484383e+01
2.055488295156e+01
2.154591027301e+01
2.141004080302e+01
1.121437436759e+01
2.070077088701e+01
2.237849343274e+01
1.300241935409e+01
9.491609085332e+00
6.989745465994e+00
2.044494707116e+01
1.717924590991e+01
1.630267910642e+01
2.131082017851e+01
2.333868089490e+00
2.101740446154e+01
1.723295151506e+01
-3.079658888934e+01
1.161179150338e+01
2.262811299848e+01
-3.315540166811e+00
1.839597381467e+01
1.221735524939e+01
2.187475494945e+01
2.302826717102e+01
5.213557821225e+00
6.378313536801e+00
2.151417385635e+01
1.891739041890e+01
1.940631635413e+01
1.262118688547e+01
1.304650423975e+01
1.099339286602e+01
8.770693839470e+00
2.335026986356e+01
1.961252702386e+01
-2.522517591811e+01
1.140212231092e+01
1.463111486141e+01
1.824330657173e+01
1.658499385985e+01
4.458535848865e+00
2.273506707287e+01
-8.219062417422e+00
2.178324153083e+01
2.279478217029e+01
-1.702122999913e+01
1.410856227038e+01
-2.308094612515e+01
-2.212446302591e+00
3.943889684600e+00
1.685673554929e+01
1.467656610754e+01
1.530069862194e+01
9.774074811325e+00
1.066673392081e+01
8.534262599850e+00
2.286101800732e+01
1.154929506008e+01
2.105286917221e+01
-3.568666927880e+01
1.458999701650e+01
2.292686666729e+01
1.174655607307e+01
2.313663259285e+01
2.109280694688e+01
1.549904344973e+01
1.829279174852e+01
2.249981669095e+01
2.174157926656e+01
1.765591646042e+01
1.380633011250e+01
2.169948065381e+01
2.221690876775e+01
1.039984550701e+01
1.282953506031e+01
1.810735384909e+01
1.959082008759e+01
2.359224575134e+01
1.054202860929e+00
2.443242756401e+00
9.786275262015e+00
1.920721415980e+01
1.190569836068e+01
4.904234703198e+00
1.449399933109e+01
1.304624033240e+01
1.918355498063e+01
1.504240396463e+01
1.652244433793e+01
1.689194643480e+01
2.080468148947e+01
2.424627454189e+01
1.595894951523e+01
2.152985333104e+01
2.363684433677e+01
1.665791175127e+01
-3.711033251491e+00
2.283520450887e+01
1.977846373077e+01
1.519264760642e+01
-2.342926793417e+01
1.073829735545e+01
2.070013725563e+01
1.365443798650e+01
1.557659662278e+01
1.393415930353e+01
-5.659588609266e+00
1.483300060427e+01
2.415920742230e+01
1.231441120095e+01
3.485639702830e+00
-1.001733826682e-01
2.076929813165e+01
1.855147486411e+01
1.196849058838e+01
1.423759683233e+01
1.500829482898e+01
2.333393968929e+01
2.271738582747e+01
3.080702479678e+00
2.277975279187e+01
2.168346350405e+00
1.916465306175e+01
2.006407156655e+01
2.065476201385e+01
1.814606937862e+01
1.205947873454e+01
1.686793814105e+01
1.494377440883e+01
1.950836123564e+01
1.698004570789e+01
1.709032672313e+01
2.136100728583e+01
2.374460364366e+01
7.530462092778e+00
2.134841586927e+01
1.596088656024e+01
1.867252431719e+01
8.891029852895e+00
2.389359661433e+01
2.351347410662e+01
2.038074032931e+01
1.398615610087e+01
2.117706641378e+01
2.233921059423e+01
2.368996303975e+01
6.103552395597e+00
8.810850845069e+00
2.318906641662e+01
1.182811866056e+01
7.396146189506e+00
2.176582613291e+01
2.280658791899e+01
2.081239747838e+01
7.636544448681e+00
1.759548524764e+01
6.810130559492e+00
1.293655566740e+01
1.488879744032e+01
1.494274515493e+01
2.002708201797e+01
2.187207459709e+01
7.365886424913e+00
8.296914447565e+00
2.194363687142e+01
1.367575393982e+01
1.053177525812e+01
1.569294791857e+01
-6.878216883883e+00
1.943864187834e+01
2.050907761702e+01
1.534727300164e+01
1.487266747226e+01
1.376002397196e+01
2.410924789008e+01
2.334626895254e+01
2.179886476286e+01
1.293277582059e+01
1.981319348393e+01
2.109849316459e+01
9.477844402075e+00
1.252367040483e+01
1.742181708864e+01
1.837219817076e+01
1.280339286843e+01
1.236210301758e+01
2.160718167184e+01
2.195682823009e+01
1.728324711230e+01
1.440995428009e+01
2.294595840986e+01
1.708553191134e+01
1.712422398270e+01
1.976384631505e+01
1.906464452600e+01
2.358777153353e+01
2.153736343256e+01
1.657670258083e+01
1.877744482573e+01
2.032209371371e+01
1.597817995897e+01
1.898171948711e+01
2.036288702369e+01
1.971886354215e+01
1.839617721130e+01
2.301360334907e+01
1.494389831276e+01
1.134861204732e+01
2.148035601900e+01
1.076530980420e+01
1.509830878545e+01
-5.309928181495e+00
7.118454815540e+00
2.183583171873e+01
1.829732005618e+01
1.203137064064e+01
1.591866262716e+01
1.468539848328e+01
-5.505023462394e+00
2.294728641465e+01
2.112149729505e+01
2.234540568702e+01
-4.221407931042e+00
7.906940621421e-01
1.147026134564e+01
1.718424284444e+01
2.073161505684e+01
2.337199920577e+01
6.112893759722e+00
5.749408232180e+00
2.001879064736e+01
2.234677000124e+01
1.443664279616e+01
2.148393749276e+01
1.093313932944e+01
1.758635487171e+01
2.195246415603e+01
1.560198484422e+01
2.330882947940e+01
2.158555198323e+01
2.108990025437e+01
2.004343927929e+01
2.060067040104e+01
1.536910615320e+01
1.574667879939e+01
1.819900779137e+01
1.926083939994e+01
1.728780259919e+01
2.111372993779e+01
1.669930151099e+01
2.184905154972e+01
1.591047531541e+01
2.355419292512e+01
1.600072077539e+01
2.201077661721e+01
2.162615871559e+01
1.477210314327e+01
1.114931601985e+01
1.761084156655e+01
1.936997024758e+01
2.140732211000e+01
2.150037286596e+01
1.807937898231e+01
2.120944499460e+01
1.806598437649e+01
2.125938831392e+01
1.869000204106e+01
1.925901779299e+01
-2.269727125221e+01
2.141339719343e+01
2.130637010144e+01
1.899777653154e+01
2.354369975302e+01
2.176979974889e+01
-5.216973947414e+01
2.077183915436e+01
1.844368638090e+01
2.000430498382e+01
1.782715077861e+01
1.312892648832e+01
2.142737545366e+01
2.257263833526e+01
-5.207669817179e-01
2.122315539152e+01
-2.216414042758e+01
1.353350294885e+01
4.356003506175e+00
7.469193795149e+00
2.149853264938e+01
2.133375217725e+01
1.416164994508e+01
-5.273028210000e+00
-5.543316727679e+00
2.442014101831e+00
2.190260828839e+01
-3.927550986141e+00
7.873901846311e+00
2.120220615891e+01
-5.260185170894e+00
1.894401489562e+01
2.248003856408e+01
4.915301537413e+00
1.359074296954e+01
2.396285019354e+01
7.119480583713e+00
2.104629305628e+01
2.085777085425e+01
2.034150159307e+01
2.285272935963e+01
2.062807859117e+01
2.140817940589e+01
2.308001537224e+01
2.090494653890e+01
1.629127759998e+01
2.144711903358e+01
2.190883297639e+01
7.153761843304e+00
2.126053566770e+01
-6.372056835872e+00
2.077730803964e+01
2.095788972642e+01
2.137347223620e+01
1.824612849421e+01
-4.662797123717e+01
2.190229010487e+01
1.548734528313e+01
2.144442838211e+01
1.586661736915e+01
2.276449592578e+01
4.469531028040e+00
2.175168992286e+01
2.134721685976e+01
2.103597762742e+01
-2.175576531105e+01
2.138763708742e+01
1.312213708015e+01
2.241348996544e+01
2.636104409951e+00
1.838177156601e+01
2.053024805867e+01
1.673028550109e+01
2.112847672820e+01
2.112936672860e+01
2.280322132341e+01
2.162798607893e+01
2.341029787819e+01
2.139445062017e+01
2.295839866122e+01
2.070989135560e+01
2.102557687622e+01
2.366215861508e+01
2.212173602709e+01
2.195347628001e+01
1.727043565950e+01
2.098229678025e+01
2.236716141849e+01
2.426576132988e+01
2.141849854687e+01
1.630905591133e+01
1.763509359172e+01
2.083379151741e+01
2.191676052168e+01
2.340308250462e+01
-2.215312032653e+01
2.121673884538e+01
1.684915208361e+01
1.975400987996e+01
2.068814490553e+01
2.276511460565e+01
1.707326338290e+01
9.446811589559e+00
2.371657119489e+01
2.282791773344e+01
2.343618821762e+01
1.273598255043e+01
1.588162381473e+01
2.344976730115e+01
5.474680192240e+00
2.146904378847e+01
2.385642723045e+01
2.054661917524e+01
2.226961221764e+01
-4.182926029061e+01
1.802181229987e+01
2.007780706737e+01
2.193744494923e+01
2.315913622337e+01
2.316382458974e+01
5.520556653381e+00
1.891931616618e+01
2.065215574955e+01
1.892747512290e+01
2.190139822766e+01
1.960806392553e+01
2.158898069922e+01
-4.856904078201e+01
1.052909766693e+01
2.032671503213e+01
-5.857041881310e+01
2.157810544741e+01
2.292192000564e+01
1.481157896331e+01
2.356100862100e+01
2.389964361112e+01
4.490335822168e+00
-1.589449725017e+01
1.789400213711e+01
2.019955503109e+01
-6.294159911179e+01
8.306683634981e+00
-2.237411986190e+01
1.773732949233e+01
2.035701485035e+01
1.476126748588e+01
2.215407112898e+01
1.893015460266e+01
2.204272348992e+01
2.239048153689e+01
7.723704601982e+00
2.021234951796e+01
1.872652081306e+01
2.116443574818e+01
2.061960463723e+01
2.085393667194e+01
2.159448377760e+01
2.315394557169e+01
2.227435055076e+01
1.095671885394e+01
2.251873949784e+01
-2.981294561303e+00
2.125285584402e+01
2.189430352434e+01
-1.970013843633e+01
2.050351354709e+01
1.630121096306e+01
-6.136195354200e+01
-1.315724669777e+01
-1.306772415263e+01
2.340047004958e+01
1.866500829641e+01
2.031922547124e+01
8.560158405414e+00
2.160007504731e+01
2.138284276179e+01
1.367840418998e+01
1.280337532186e+01
-6.146831057325e-01
1.401095120554e+01
-1.961581300855e+01
-2.070988605862e+01
-5.783419639530e+01
-2.023561111761e+01
-2.043481149045e+00
1.617586153443e+01
-1.918366636346e+01
2.117913726409e+01
-3.895281860090e+01
1.834140588666e+01
8.760807823783e+00
-1.934181993979e+01
1.999847618361e+01
2.290423127386e+01
5.401296354028e+00
1.927773577684e+01
-2.658259049940e+00
1.833348192315e+01
1.790296081942e+01
2.080821004669e+00
-1.882995569716e+01
1.931421174744e+01
1.781897831157e+01
1.718919197749e+01
-1.691119381171e+01
-1.730528521170e+01
9.212312480450e+00
1.976375124204e+01
1.781034763265e+01
-1.989740933599e+01
-5.741875888372e+01
4.377123109090e+00
2.226575355845e+01
2.108879565566e+01
-2.842230052649e+01
1.368826587287e+01
-4.174816651358e+01
2.367626939950e+01
-3.705697308042e+01
-3.287211359441e+01
2.368543570698e+01
2.125980108517e+01
8.531512861323e+00
1.593515407697e+01
-1.945656580158e+01
2.193926218610e+01
1.794764189440e+01
1.777234000324e+01
-2.067998884302e+01
2.361088414631e+01
1.820785369916e+01
2.254497488098e+01
-3.134555826985e+00
-1.925506392965e+01
-1.980942749056e+01
2.016370197964e+01
2.083198392877e+01
1.686178730134e+01
-5.729153358662e+01
2.107606749360e+01
2.050039732756e+01
2.089526707250e+01
2.112931389733e+01
1.185367844620e+01
1.447634382554e+01
2.048849528630e+01
2.049941804000e+01
1.369395773397e+01
8.999999999681e+01
-2.167725236915e+01
-2.083112707924e+01
-5.740965165727e+01
2.052679592181e+01
2.111139827905e+01
2.054156588381e+01
-6.076664915116e+01
-6.047354833995e+01
2.058933038466e+01
2.056670602777e+01
1.072012042911e+01
-2.200665405797e+01
1.283256268585e+01
3.229339591234e+00
-2.189107536967e+01
-6.165970605446e+01
-5.917446848622e+01
-5.632350015151e+01
-5.162232328936e+01
2.131649233694e+01
2.081915812784e+01
-5.724325924633e+01
2.172825058025e+01
-5.490040631584e+01
1.913786138410e+01
1.810455916665e+01
1.848119791736e+01
9.090310349461e+00
1.794762638944e+01
1.802405224931e+01
2.140253955865e+01
1.803984095645e+01
2.119931139024e+01
2.095109753138e+01
2.050840338080e+01
1.776320898468e+01
1.779932160962e+01
2.127793078413e+01
2.106648510973e+01
2.173756001963e+01
-4.500130707804e+01
2.090250657516e+01
-2.077513771091e+01
2.149320450062e+01
2.155594762183e+01
2.163738337734e+01
1.464364769446e+01
-3.883243676713e+00
2.136894556004e+01
2.127662078030e+01
1.989345892036e+01
2.157318557925e+01
1.567682470454e+01
1.975146287307e+01
2.256893605546e+01
2.254856021624e+01
2.183273003520e+01
2.172105990486e+01
2.299924687418e+01
1.467889620822e+01
2.221241201856e+01
2.211670569781e+01
2.145541386155e+01
2.162068253181e+01
1.587917728064e+01
1.554767926859e+01
1.417488179995e+01
-2.234708270948e+00
2.217015329628e+01
2.197075779716e+01
1.568378663290e+01
1.497148661342e+01
2.240300381474e+01
2.122272829417e+01
1.373320494343e+01
2.155532214619e+01
2.129985426649e+01
1.554100049373e+01
1.115792807811e+01
2.258853930123e+01
1.518069041245e+01
1.455309925551e+01
-7.670083663121e-01
-2.185128259330e+01
1.494288254998e+01
2.133666227987e+01
-2.214727548783e+01
1.746207458161e+01
1.047693347124e+00
2.169899414743e+01
2.155688523678e+01
2.071570021470e+01
2.152460732407e+01
-2.153135492913e+00
2.330990710490e+01
2.114636403468e+01
1.468099621496e+01
2.141922729898e+01
1.238815225564e+01
1.620483512022e+01
1.699094644697e+01
2.163199144843e+01
7.961742744836e+00
2.012810931276e+01
1.343399064650e+01
1.003534217791e+01
2.186345941202e+01
2.167032611732e+01
2.162927245606e+01
1.241777378750e+01
1.222355318456e+01
2.159925741331e+01
2.284328301797e+01
1.317994671275e+01
2.120360954481e+01
2.225791757844e+01
2.158525935817e+01
1.116408114835e+01
-5.590068633391e+00
-1.023844268154e+00
1.360995367746e+01
2.149617782744e+01
9.720661491383e+00
2.165285189430e+01
3.775871474298e+00
2.215900959688e+01
2.182966035953e+01
2.168467018512e+01
1.498166596126e+01
2.141994580994e+01
2.162976726979e+01
1.605562828426e+01
2.140098456997e+01
2.038350399753e+01
1.793394060460e+01
2.175280648469e+01
-5.700237587045e+01
-5.599137683365e+01
2.184105024480e+01
1.373083192989e+01
2.197998828702e+01
2.211660079751e+01
2.142250232130e+01
1.831004658710e+01
1.456519454809e+01
-5.034715442847e+00
2.063644491026e+01
2.200772289816e+01
1.164634562061e+01
6.429431768023e+00
1.274389596979e+00
1.064995813428e+01
2.181168939909e+01
1.179962926240e+01
1.396212123116e+01
1.516788649699e+01
1.525158026697e+01
1.537003614189e+01
1.376313656593e+01
1.580877516298e+01
2.172521116044e+01
2.179829374335e+01
1.680445597836e+01
1.462555667676e+01
2.185016191943e+01
2.199493997006e+01
1.289825368040e+01
2.183056335295e+01
1.182128905004e+01
2.166219841351e+01
9.726176989108e+00
1.291622656899e+01
2.417920279503e+01
1.395241386048e+01
2.135214776219e+01
2.166337291245e+01
1.974812292288e+01
2.058002751130e+01
1.083257836366e+01
2.257898871369e+01
1.675700966433e+01
4.229591356860e+00
1.081986093264e+01
1.710636046546e+01
2.145484392303e+01
1.211540417060e+01
2.180780792524e+01
2.126447019367e+01
2.097637021512e+01
1.564503300554e+01
7.600605036447e+00
2.199982591351e+01
8.433665962873e+00
-1.339193327578e+00
1.973308543813e+01
1.322480959630e+01
8.002834259185e+00
1.999508797532e+01
2.235552439016e+01
1.956661873360e+01
1.413976129767e+01
1.890112493273e+01
2.218036326610e+01
1.398354705476e+01
2.216316228220e+01
2.149417379142e+01
2.199612797977e+01
2.229902298101e+01
1.346453313435e+01
4.470601585908e+00
2.324315029157e+01
2.048391670343e+01
8.423500269577e+00
1.595551979047e+01
8.975385761532e+00
1.175852710203e+01
2.170149429965e+01
2.321038401956e+01
2.311088373579e+01
1.593668492856e+01
2.269299409964e+01
1.240836568001e+01
2.250495213135e+01
2.171463336666e+01
1.955207143695e+01
2.184450857754e+01
1.208532028317e+01
1.727326147634e+01
2.233176147348e+01
3.324636983897e+00
1.720969425291e+01
1.937824169739e+01
2.159194909933e+01
2.219627071964e+01
1.715286840396e+01
2.195900385224e+01
1.050747890502e+01
6.356744789938e+00
5.274670369933e+00
2.162969474104e+01
2.203407176947e+01
2.268025772071e+01
3.915801953047e+00
1.820108066576e+01
2.286610919891e+01
2.240568433992e+01
1.296117707900e+01
2.079511844055e+01
2.013493872439e+01
1.268971007103e+01
2.256736095682e+01
2.040099082586e+01
9.333482871442e+00
7.587010549192e+00
2.370244357640e+01
1.941458340087e+01
2.174957259859e+01
1.981229438970e+01
2.060963834735e+01
1.444738704471e+01
2.227093879909e+01
2.244767615535e+01
1.389790868076e+01
2.288640207485e+01
2.284908184569e+01
2.294159478238e+01
2.282797053282e+01
1.415557802034e+01
2.197674090841e+01
2.170871449158e+01
2.147862327520e+01
2.131324595798e+01
2.295300326098e+01
9.300712292323e+00
2.097052057012e+01
2.048769231223e+01
1.855629720245e+01
1.755511384747e+01
2.137655131322e+01
1.785869113174e+01
1.637409013234e+01
2.248064262844e+01
2.262380650029e+01
2.132671531680e+01
-5.685409316568e+01
2.343159646904e+01
2.295649072687e+01
2.193044040540e+01
7.474193176337e+00
2.278593163826e+01
1.935732747880e+01
2.188097519384e+01
1.322925580166e+01
1.910727012387e+01
3.326393295131e+00
1.036936974851e+01
1.908406189730e+01
2.034993738173e+01
2.335720919902e+01
2.230901162099e+01
1.218485138833e+01
1.039580956205e+01
5.330987060249e+00
1.754773043516e+01
2.260849535854e+01
2.168910870957e+01
1.263782802077e+01
1.442677237913e+01
2.098027331441e+01
2.358820012325e+01
2.160624503456e+01
1.454131228838e+01
2.190214720689e+01
2.353399154915e+01
1.796150551494e+01
9.847124128529e+00
2.081773292758e+01
2.232321463906e+01
2.272153705929e+01
1.848656407628e+01
2.310299727431e+01
2.274673307650e+01
2.377864650296e+01
1.980834922997e+01
2.331226628744e+01
1.053401526516e+01
2.383143479796e+01
2.224118844297e+01
1.647782985792e+01
2.198149797346e+01
2.323996363569e+01
2.085981031708e+01
1.818226464260e+01
1.658973164150e+01
1.427364314367e+01
1.545286469595e+01
2.351677631188e+01
2.011235738211e+01
1.556419730283e+01
2.120195164715e+01
1.265396145339e+01
1.707383022168e+01
9.713340818087e+00
2.225592687529e+01
1.540377127621e+01
2.312581460647e+01
5.744374500959e+00
1.357767175174e+01
2.310536305888e+01
2.374504967573e+01
1.584426073521e+01
2.242034695795e+01
1.162759581825e+01
2.344072247225e+01
1.524145719125e+01
1.265186775858e+01
2.184140053797e+01
2.182024889049e+01
2.240434524291e+01
5.863439719777e+00
3.064078715490e+00
2.266323174640e+01
2.265869913180e+01
2.265183101249e+01
7.459111946696e+00
1.976394899131e+01
2.409330539276e+01
2.311712804336e+01
2.250663412487e+01
1.636348217440e+01
1.741731354518e+01
1.533229764893e+01
1.698620848631e+01
1.388439151959e+01
2.237100982702e+01
1.587154892401e+01
1.166295053819e+01
2.227156281619e+01
2.409044171427e+01
1.263153171651e+01
1.513120890249e+01
1.273682221274e+01
1.160693913191e+01
2.208295326438e+01
2.238196731605e+01
2.233708755913e+01
2.274853231639e+01
1.065109850564e+01
2.300288486495e+01
1.269141251442e+01
1.663602583423e+01
2.341309176617e+01
2.402371103494e+01
2.365308819022e+01
1.835800647194e+01
2.337805244481e+01
2.345563883054e+01
1.491920060601e+01
2.267001254873e+01
9.053273458370e+00
-9.841828930738e+00
4.051724355448e+00
2.254903167691e+01
2.325675803556e+01
1.754581497050e+01
2.430211056141e+01
2.277341762939e+01
9.078685098906e+00
7.744951801951e+00
2.349885521316e+01
2.369688986513e+01
1.504835710072e+01
2.237441668510e+01
1.703107767721e+01
2.233925351957e+01
2.212435487165e+01
2.370490967571e+01
1.271474478599e+01
2.221865558926e+01
2.190438460468e+01
8.783673935714e+00
1.040952841668e+01
2.228654843145e+01
1.360295134636e+01
2.399538701997e+01
2.359129189985e+01
2.209168645718e+01
4.651371861472e+00
1.447095520836e+01
1.742418610612e+01
9.004560695368e+00
2.198006222423e+01
1.598142116592e+01
1.512660267147e+01
2.112840019889e+01
1.155410648877e+01
2.215423853978e+01
1.728710005241e+01
2.042511303296e+01
1.037644991896e+01
1.593824580446e+01
1.360072007287e+01
2.420468594727e+01
1.847257635425e+01
8.600580724812e+00
2.182962681522e+01
2.374472977644e+01
1.065402613822e+01
1.212434859307e+01
2.176653833099e+01
1.280807700277e+01
1.896592710945e+01
2.353196804773e+01
2.304196015300e+01
2.253502902110e+01
1.892864818896e+01
1.347240216982e+01
2.245004323232e+01
1.031145081906e+01
1.762439520046e+01
1.362912975662e+01
1.457863204870e+01
1.426302652543e+01
2.191843991645e+01
1.275222734292e+01
2.410394011211e+01
7.696977902132e+00
2.195048027671e+01
1.848819095026e+01
1.817305508581e+01
2.308247568849e+01
1.178730551891e+01
2.259007088667e+01
2.334643191011e+01
1.593898021216e+01
1.672419444904e+01
2.318120734950e+01
1.440602163763e+01
2.391544578508e+01
2.115478123214e+01
7.038708985605e+00
1.926882571890e+01
7.987708815333e+00
-5.077129688350e+00
2.429747570572e+01
-8.229606637059e+00
2.308864221732e+01
2.296029607637e+01
2.361298301928e+01
1.647299254914e+01
2.424912650912e+01
1.518498477879e+01
1.821681005164e+01
2.219093219621e+01
2.265255495069e+01
2.366517682703e+01
1.454435056335e+01
2.424802553046e+01
2.169140329564e+01
1.360647997449e+01
1.399682423913e+01
2.382606407843e+01
2.414759426105e+01
2.124887000824e+01
1.762784930007e+01
1.555532460867e+01
1.743424867301e+01
2.086107903383e+01
2.104873955351e+01
2.149145885745e+01
1.286939813693e+01
2.347326935392e+01
2.084443736077e+01
2.311424745447e+01
1.442357532439e+01
2.098901038447e+01
9.189942728183e+00
2.268602034344e+01
2.372092380192e+01
2.279006657951e+01
2.281947512254e+01
1.580717337091e+01
2.069595132735e+01
2.407499271920e+01
1.680225710229e+01
2.258815440394e+01
2.275302574059e+01
2.323423553865e+01
2.355094072272e+01
2.250691732944e+01
1.575007864208e+01
2.422605377863e+01
1.521662357088e+01
2.140906320253e+01
1.636382795747e+01
2.241065937334e+01
1.376678850529e+01
9.374537942376e+00
1.899492776935e+01
2.291017088882e+01
2.196416567004e+01
1.189479113493e+01
1.671909907501e+01
1.188605642763e+01
2.215105832357e+01
2.208324243508e+01
1.581269594240e+01
2.362283648996e+01
2.332362284297e+01
2.298705624173e+01
1.325060634285e+01
1.900253838455e+01
2.359229366149e+01
1.891114131926e+01
2.331950860603e+01
2.184853899646e+01
2.324618635912e+01
3.738502671132e+00
1.710653425832e+01
1.847439703732e+01
2.388656750677e+01
2.238306713177e+01
1.213368783480e+01
2.216555063765e+01
2.296430739204e+01
-2.529892816385e-01
2.131301640040e+01
2.187086914743e+01
2.312907890495e+01
2.176824917241e+01
-1.257041146487e+01
2.239840580178e+01
1.913899904992e+01
9.640743237330e+00
2.226158447345e+01
2.398408588600e+01
2.158166552827e+01
2.334142187535e+01
2.343568692083e+01
2.137312651563e+01
-3.284001274356e-01
2.158238487308e+01
2.300320668188e+01
2.037465447469e+01
2.161225874051e+01
1.993192999302e+01
2.199575329690e+01
1.645151125926e+01
2.171892517742e+01
2.278711869853e+01
2.335190342711e+01
2.151044162092e+01
2.142166099329e+01
2.155526566515e+01
2.208176740505e+01
1.039755402819e+01
2.176776678469e+01
2.211831211415e+01
-2.162423789239e+01
-2.173119290444e+01
1.549497500336e+01
2.205850121109e+01
2.215055849676e+01
1.871292469532e+01
2.366497170077e+01
2.234012261369e+01
2.393438056322e+01
1.834171674665e+01
5.894109247624e+00
2.303609993840e+01
2.260260521179e+01
1.875251707765e+01
2.221822318580e+01
2.200158483740e+01
2.041050656767e+01
1.105370583331e+01
1.950073403328e+01
1.919965594246e+01
5.689442197625e+00
2.234073347353e+01
1.863898063447e+01
1.682718753928e+01
1.676066907749e+01
2.268431238295e+01
1.365099682264e+01
1.363539551668e+01
2.238300640813e+01
2.190351239391e+01
9.153219199605e+00
1.215181620698e+00
1.146382669292e+01
9.977844412939e+00
2.241270627137e+01
2.289954064097e+01
1.466397801270e+01
2.147792171837e+01
1.516966824238e+01
2.186288132889e+01
2.197068167119e+01
-2.180636392783e+00
2.298252598410e+01
2.185113232658e+01
-2.443897281100e+00
1.520248607451e+01
1.110496460547e+01
1.744544069516e+01
2.059106241989e+01
2.337850811635e+01
2.341557813899e+01
1.596850837636e+01
2.320063082479e+01
2.294301133080e+01
2.226257561062e+01
3.924884375469e-01
8.823203952602e+00
2.192757899070e+01
1.064360807917e+01
2.232861410385e+01
1.995111700223e+01
1.641006629536e+01
2.164201604668e+01
1.262843966318e+00
2.204858437143e+01
2.181805082931e+01
2.252070012074e+01
2.254451530182e+01
2.237250390619e+01
1.716085762357e+01
2.352676838730e+01
2.130662352219e+01
2.410668806359e+01
2.288625260913e+01
2.323872971566e+01
2.173797378574e+01
2.408778165261e+01
2.247421724613e+01
1.832163775838e+01
2.155864868165e+01
1.936419103081e+01
2.264743955007e+01
2.314679549539e+01
2.383437956285e+01
1.030588389973e+01
2.176177328178e+01
2.165252712951e+01
2.943078001231e+00
2.009724017014e+01
2.129555248568e+01
1.207014194457e+01
2.201187684720e+01
-3.979682189482e+00
2.157148338167e+01
2.092280142995e+01
2.160911908321e+01
2.352247137906e+01
1.092639465129e+01
9.693364921992e+00
2.249762901143e+01
1.425406725977e+01
1.512083409619e+01
2.150929936235e+01
2.301548083829e+01
2.346099061897e+01
2.337403533858e+01
2.416642638719e+01
2.081520590360e+01
7.178889501426e+00
7.789323718829e+00
-2.147669953441e+01
2.284997036846e+01
2.334880823866e+01
2.224389681393e+01
2.143082167111e+01
2.366887912305e+01
2.109214409499e+01
2.207997764625e+01
2.244675923427e+01
2.239332454418e+01
2.288178341128e+01
2.227445553971e+01
2.125727289488e+01
2.071805017342e+01
2.356405002957e+01
1.999944973898e+01
1.972494334553e+01
2.314932860307e+01
2.401559362381e+01
2.243336689109e+01
1.970635696689e+01
-1.592740359393e+01
2.398388504264e+01
-4.083249011683e+00
7.223626426596e+00
2.227903875560e+01
2.074300044938e+01
1.189765737919e+01
1.257814455259e+01
1.942497179221e+01
-6.502451731739e+00
1.289139252996e+01
2.383946354309e+01
2.183812953641e+01
1.215790304797e+01
2.286786463132e+01
2.314475865485e+01
2.197193363160e+01
2.376935712489e+01
1.941051090927e+01
8.576389028604e+00
2.218010770643e+01
2.200893506070e+01
1.837338946004e+01
3.030824879462e-01
1.257598430055e+01
2.159491211420e+01
-3.087872503307e+00
-2.340358169093e+01
1.319355431342e+01
2.181309672005e+01
2.289567608838e+01
2.180840405970e+01
2.078935588849e+01
2.215492616619e+01
1.512995576737e+01
2.193084311175e+01
2.369089999127e+01
2.028679063913e+01
-1.013499054141e+00
2.318078697805e+01
2.178463475082e+01
2.194204673502e+01
1.088194706185e+01
2.305761855698e+01
2.184876363929e+01
9.388973135759e+00
6.122654370048e+00
1.177847323700e+01
2.203690845090e+01
2.138129169215e+01
3.886506121203e+00
2.215515896719e+01
1.194948966634e+01
2.235897768619e+01
2.348180075345e+01
7.245113007806e+00
2.175456357777e+01
1.718648866558e+01
3.228490446536e+00
2.187664411463e+01
2.329151252547e+01
2.208403398498e+01
-1.467416794191e+01
1.511159961948e+01
2.272037902898e+01
2.271036190683e+01
2.270393671635e+01
2.192445330356e+01
2.180978506882e+01
2.325417252686e+01
1.519251216412e+00
-1.311710943412e+01
2.181078761837e+01
2.259451132829e+01
2.087142559441e+01
2.095628825507e+01
1.143227105613e+01
1.974023019685e+01
2.153509801806e+01
-2.235838233503e+01
1.796708930457e+01
2.049260808824e+01
-4.444822877509e+00
2.230146283341e+01
2.241429429448e+01
2.260573838095e+01
3.444807598215e+00
-1.059791206956e+01
1.604182782331e+01
1.420922570070e+01
3.838457068601e-02
2.183989429055e+01
1.513024821065e+01
2.185439463676e+01
1.371264094452e+01
2.183819795246e+01
2.294734991220e+01
2.244475997081e+01
6.056044099410e+00
2.177181417074e+01
1.628263428411e+01
2.131389273425e+01
2.297216480373e+01
2.044622979969e+01
-3.332139486185e+01
2.340795516131e+01
1.559297013234e+01
2.117041411285e+01
2.000257678106e+01
2.277505839608e+01
1.146687593199e+01
8.713569310648e+00
1.301469512321e+01
2.004325102462e+01
2.331955280580e+01
2.393009009527e+01
2.052748787131e+01
1.938175581636e+01
7.957952002529e+00
1.186850669295e+01
2.124498387149e+01
2.295620890782e+01
-4.550260480536e-01
1.255463667446e+01
2.316528950372e+01
1.899671615911e+01
2.371896597876e+01
-2.439721416826e-01
2.321341542378e+01
7.855803961505e+00
2.350013095425e+01
2.364264558816e+01
2.326746675319e+01
8.450889960261e+00
1.942286268869e+01
6.243746280814e-01
2.345739098384e+01
8.954018019544e+00
-2.363348835083e+01
1.625986800598e+01
1.511794170215e+01
-2.284334143580e+01
2.301463966947e+01
1.630307865746e+01
1.764794473604e+01
2.075741022764e+01
2.300156739381e+01
2.116968544813e+01
2.262210028177e+01
-2.167782563489e+01
2.096158068894e+01
1.502993103352e+01
2.260957233495e+01
2.332314966315e+01
1.084345371727e+01
1.768608141955e+01
2.381081549360e+01
-5.078642188445e+00
2.265645433367e+01
2.167640600794e+01
1.655481607667e+01
9.243583492674e+00
2.148937935154e+01
1.998544196485e+01
2.260808268395e+01
2.098324227301e+01
1.733767863129e+01
2.389083052932e+01
7.637884052691e+00
-5.673914024706e+00
2.168421597995e+01
1.958833358131e+01
6.074097820369e-01
1.701246386527e+01
2.038248865652e+01
2.345877278687e+01
2.222423110832e+01
2.196676130278e+01
-3.419938906561e+01
1.623750832843e+01
2.167199621322e+01
2.032691870143e+01
2.219365760883e+01
7.498769830775e+00
1.174340661499e+01
3.176535216548e-01
2.242318539223e+01
1.813453657439e+01
2.294734645630e+01
2.093268928181e+01
2.102535586625e+01
2.299239095556e+01
-7.405998125510e+00
-2.832467651392e+01
6.127859242432e+00
8.176998288728e+00
7.343919567963e+00
2.326763710108e+01
2.161134189182e+01
2.207042107763e+01
-7.159066348818e+00
1.540153709765e+01
2.161900599828e+01
1.608654769454e+01
1.416080159111e+01
1.776188162904e+01
2.081797982786e+01
7.881137843936e-01
2.175435884384e+01
9.365824602782e+00
2.246722931572e+01
2.052139929810e+01
6.053661938156e-01
3.491500615684e+00
2.250007407174e+01
-6.825955667332e+00
1.622187254589e+01
2.006440873416e+01
2.261733177878e+01
1.841456272868e+01
1.762087088096e+00
1.897901757309e+01
1.964303077688e+01
1.060399845420e+01
2.232710961303e+01
-1.019562857458e+01
-7.199326370861e+00
2.771670437716e-01
2.155132778683e+00
4.537955635198e+00
1.836768643938e+01
1.710897594221e+01
6.816915077651e+00
2.170239804792e+01
1.929312641907e+01
1.811896070763e+01
1.642324912837e+01
2.073839909759e+01
2.024449044060e+01
2.147705373914e+01
-2.435715302330e+01
1.655579308713e+01
2.127985684164e+01
5.665240771688e+00
-7.177448627498e+00
2.223069825575e+01
-6.973414212386e+00
-2.314957557420e+01
1.797716661335e+01
-2.068512272355e+01
1.698646095270e+01
2.185333697451e+01
-2.144155232751e+01
-2.738234279638e+01
1.717939361283e+01
7.280559350740e+00
1.647545165037e+01
2.050808595331e+01
1.822073856013e+01
1.207421885367e+01
2.046903431922e+00
2.071784244117e+01
2.256135381469e+01
2.158757083891e+01
1.293730642786e+01
2.164051962709e+01
-7.269838120241e+00
2.101086626282e+01
1.421844254254e+01
5.709436084985e+00
2.164856192402e+01
1.781844600480e+01
1.750077265774e+01
-8.060694570352e+00
5.639515738490e+00
4.765704850455e+00
2.024402300422e+01
1.940476399170e+01
-5.092840756220e+00
2.296020366998e+01
-2.251838869676e+01
1.738821730725e+01
1.771817321464e+01
1.796874336598e+01
8.999999999681e+01
-5.299980412413e+01
-1.912988745752e+01
-2.234660178005e+01
2.049534651107e+01
2.076039693787e+01
-2.353505049653e+01
-3.521979165139e+01
2.106787109939e+01
2.222213634309e+01
9.836630336882e+00
2.112443511114e+01
2.164030718265e+01
2.148334927558e+01
8.673505916652e+00
7.675488996048e+00
2.280851414053e+01
5.197701454483e+00
2.111596441999e+01
2.004980588508e+01
1.579046015398e+01
2.133943370214e+01
4.665408683518e+00
2.183722465911e+01
1.930804759745e+01
1.874228063220e+01
-2.173414044957e+01
2.311299303250e+01
1.778557995970e+01
1.701009404128e+01
-2.222573782171e+01
2.123720572725e+01
2.292697482394e+01
3.586816065432e+00
1.071904178289e+01
2.077651088875e+01
2.195169621856e+01
2.197549619663e+01
2.166401588135e+01
-2.422988834872e+01
1.003734383559e+01
8.273118855801e+00
1.866289399351e+00
2.345923217876e+01
1.649542167087e+01
2.146110658534e+01
-6.179515032134e+00
-6.444922088962e+00
8.299630988997e+00
1.137566503448e+01
1.883393189903e+01
1.703255463118e+01
9.278863186849e+00
2.209228875585e+01
-2.627858715658e-01
2.148814675811e+01
2.232755238962e+01
3.570480803356e+00
2.153274839026e+01
1.772090981041e+01
1.706743659196e+01
6.189984232941e+00
1.649299835070e+01
2.129605370122e+01
2.226305631244e+01
2.268778251811e+01
2.053631417708e+01
1.858984389975e+01
-3.123544935782e+01
-1.420246526976e+00
1.925698829148e+01
5.423040844703e+00
2.105670456427e+01
2.204711643619e+01
2.082399631373e+01
1.341964591240e+01
2.143089692352e+01
2.144910375101e+01
2.160891832757e+01
1.909190073157e+01
2.089946967210e+01
-7.223188759196e+00
1.616531951400e+01
-5.658653402748e+00
1.525452578632e+01
1.088253673005e+01
-2.743811814913e+00
8.122086877841e+00
1.962072103349e+01
1.730088164883e+01
1.635596391381e+01
2.212921913636e+01
4.340186328178e+00
-2.244945772333e+01
-1.235073386997e+01
-1.717231670072e+01
1.472190565818e+00
-2.339829677649e+01
2.095489688904e+01
2.109775441447e+01
1.825441866716e+01
8.190634062734e+00
2.041866445792e+01
2.145092085553e+01
2.220759670556e+01
2.214400752314e+01
2.127206805861e+01
2.020339218899e+01
-5.878803826321e+00
-1.244580893532e+01
2.114271382555e+01
-2.529530300744e+00
1.925184444350e+00
-1.082545378343e+01
-7.240620040228e+00
2.102860550871e+01
2.085111812511e+01
1.655803079758e+01
2.155034134179e+01
2.214382483710e+01
6.875377350424e+00
1.870910054460e+01
1.353493661008e+01
-2.268312113006e+01
1.572583753046e+00
-2.219599411825e+01
2.085316606539e+01
-6.307425923692e-01
4.593966959766e+00
2.096925093944e+01
2.084254553413e+01
1.639413597880e+01
1.822976110535e+01
1.819745421366e+01
-1.218170259104e+01
2.120528429018e+01
1.776827335155e+01
2.083408492016e+01
-8.988100892763e+00
2.164852661465e+01
5.552945608997e+00
1.709435128915e+01
-2.437873672108e+01
2.113341401667e+01
1.809880024780e+01
-2.690303611744e+01
2.187758009040e+01
1.248950881841e+01
1.731476768274e+01
2.099371025173e+01
9.385086937289e+00
2.074629376090e+01
1.739460621481e+01
1.095295682154e+01
2.028893024586e+01
1.975114551576e+01
-2.260000247727e+01
2.214778053421e+01
1.726666190252e+01
-5.896283185744e+01
-2.217290839051e+01
2.080490309047e+01
1.002857199654e+01
2.239345360977e+01
1.773878421620e+01
1.707396400854e+01
9.253717052136e+00
-5.407420942822e+00
2.163900212714e+01
1.442817665558e+01
-2.238576940790e+01
1.787262674245e+01
8.446076163631e+00
7.333164631967e+00
5.690498899175e+00
2.195086355210e+01
2.164178138870e+01
-1.961368492701e+01
1.948071058964e+01
2.140150203961e+01
2.161509556867e+01
2.197014595074e+01
2.129221316906e+01
2.140268629029e+01
-7.826398143686e+00
2.127208436991e+01
2.150603517977e+01
1.139768178256e+00
1.726331208830e+01
2.075533568644e+01
-8.316891488607e+00
8.408325055058e+00
2.121808071050e+01
2.123890785173e+01
2.148927607697e+01
2.245767334948e+01
3.332660304518e+00
2.136248070539e+01
-1.174238496947e-02
1.749966907281e+01
2.213300912180e+01
5.733321432444e+00
2.000781641935e+01
2.214794867326e+01
2.212655585829e+01
-1.961661267127e+01
1.990105863585e+01
2.066199689418e+01
-7.610298022858e+00
2.100500776196e+01
-2.351367085588e+01
2.010044765076e+01
-3.315629427679e+01
-3.154259076655e+01
-3.274541828588e+01
-3.221018134218e+01
-3.261448764840e+01
-3.208715513612e+01
-3.280867303008e+01
-3.176246110107e+01
-3.301307139606e+01
-3.176357557736e+01
-3.370433203287e+01
-3.155416530389e+01
-1.992503288162e+01
-3.444500013005e+01
-1.707586426695e+01
-3.085666833787e+01
-3.546171808969e+01
-3.120286284640e+01
-3.641419779389e+01
-3.052576476426e+01
-3.786040612048e+01
-2.950594937572e+01
-3.357516457992e+01
-3.892395432963e+01
-2.809907502098e+01
-3.913758044541e+01
-2.576908249095e+01
-2.249900845258e+01
-3.806119630668e+01
-3.369119003694e+01
-3.979588131500e+00
-3.874800059924e+00
-3.153071152841e+01
-3.074953031317e+01
-2.954156899285e+01
-3.215825855611e+01
2.200071641286e+00


