# vtk DataFile Version 2.0
Calculation C:\Users\NickSteudtner\Documents\GitHub\TOCHNOG\standsicherheit_phiC at time 2.000000000000e+00 
ASCII
DATASET UNSTRUCTURED_GRID
Field FieldData 1
Time 1 1 double
2.000000000000e+00

POINTS 1251 float
0.0 0.0 0.0 
5.000000000000e+01 -1.000000000000e+01 0.0 
0.0 -2.000000000000e+01 0.0 
5.000000000000e+01 -2.000000000000e+01 0.0 
0.0 -9.999999999991e-01 0.0 
0.0 -1.999999999998e+00 0.0 
0.0 -2.999999999997e+00 0.0 
0.0 -3.999999999994e+00 0.0 
0.0 -4.999999999991e+00 0.0 
0.0 -5.999999999988e+00 0.0 
0.0 -6.999999999985e+00 0.0 
0.0 -7.999999999982e+00 0.0 
0.0 -8.999999999983e+00 0.0 
0.0 -9.999999999985e+00 0.0 
0.0 -1.099999999999e+01 0.0 
0.0 -1.199999999999e+01 0.0 
0.0 -1.299999999999e+01 0.0 
0.0 -1.399999999999e+01 0.0 
0.0 -1.499999999999e+01 0.0 
0.0 -1.599999999999e+01 0.0 
0.0 -1.700000000000e+01 0.0 
0.0 -1.800000000000e+01 0.0 
0.0 -1.900000000000e+01 0.0 
4.900000000001e+01 -2.000000000000e+01 0.0 
4.800000000001e+01 -2.000000000000e+01 0.0 
4.700000000002e+01 -2.000000000000e+01 0.0 
4.600000000003e+01 -2.000000000000e+01 0.0 
4.500000000004e+01 -2.000000000000e+01 0.0 
4.400000000004e+01 -2.000000000000e+01 0.0 
4.300000000005e+01 -2.000000000000e+01 0.0 
4.200000000006e+01 -2.000000000000e+01 0.0 
4.100000000006e+01 -2.000000000000e+01 0.0 
4.000000000007e+01 -2.000000000000e+01 0.0 
3.900000000008e+01 -2.000000000000e+01 0.0 
3.800000000009e+01 -2.000000000000e+01 0.0 
3.700000000009e+01 -2.000000000000e+01 0.0 
3.600000000010e+01 -2.000000000000e+01 0.0 
3.500000000011e+01 -2.000000000000e+01 0.0 
3.400000000011e+01 -2.000000000000e+01 0.0 
3.300000000012e+01 -2.000000000000e+01 0.0 
3.200000000013e+01 -2.000000000000e+01 0.0 
3.100000000013e+01 -2.000000000000e+01 0.0 
3.000000000013e+01 -2.000000000000e+01 0.0 
2.900000000013e+01 -2.000000000000e+01 0.0 
2.800000000013e+01 -2.000000000000e+01 0.0 
2.700000000013e+01 -2.000000000000e+01 0.0 
2.600000000013e+01 -2.000000000000e+01 0.0 
2.500000000013e+01 -2.000000000000e+01 0.0 
2.400000000013e+01 -2.000000000000e+01 0.0 
2.300000000013e+01 -2.000000000000e+01 0.0 
2.200000000013e+01 -2.000000000000e+01 0.0 
2.100000000013e+01 -2.000000000000e+01 0.0 
2.000000000013e+01 -2.000000000000e+01 0.0 
1.900000000013e+01 -2.000000000000e+01 0.0 
1.800000000013e+01 -2.000000000000e+01 0.0 
1.700000000012e+01 -2.000000000000e+01 0.0 
1.600000000011e+01 -2.000000000000e+01 0.0 
1.500000000011e+01 -2.000000000000e+01 0.0 
1.400000000010e+01 -2.000000000000e+01 0.0 
1.300000000009e+01 -2.000000000000e+01 0.0 
1.200000000009e+01 -2.000000000000e+01 0.0 
1.100000000008e+01 -2.000000000000e+01 0.0 
1.000000000007e+01 -2.000000000000e+01 0.0 
9.000000000064e+00 -2.000000000000e+01 0.0 
8.000000000057e+00 -2.000000000000e+01 0.0 
7.000000000050e+00 -2.000000000000e+01 0.0 
6.000000000043e+00 -2.000000000000e+01 0.0 
5.000000000036e+00 -2.000000000000e+01 0.0 
4.000000000028e+00 -2.000000000000e+01 0.0 
3.000000000021e+00 -2.000000000000e+01 0.0 
2.000000000014e+00 -2.000000000000e+01 0.0 
1.000000000007e+00 -2.000000000000e+01 0.0 
5.000000000000e+01 -1.100000000000e+01 0.0 
5.000000000000e+01 -1.200000000000e+01 0.0 
5.000000000000e+01 -1.300000000000e+01 0.0 
5.000000000000e+01 -1.400000000000e+01 0.0 
5.000000000000e+01 -1.500000000000e+01 0.0 
5.000000000000e+01 -1.600000000000e+01 0.0 
5.000000000000e+01 -1.700000000000e+01 0.0 
5.000000000000e+01 -1.800000000000e+01 0.0 
5.000000000000e+01 -1.900000000000e+01 0.0 
2.000000000000e+01 0.0 0.0 
3.500000000000e+01 -1.000000000000e+01 0.0 
2.150000000000e+01 -1.000000000000e+00 0.0 
2.300000000000e+01 -2.000000000000e+00 0.0 
2.450000000000e+01 -3.000000000000e+00 0.0 
2.600000000000e+01 -4.000000000000e+00 0.0 
2.750000000000e+01 -5.000000000000e+00 0.0 
2.900000000000e+01 -6.000000000000e+00 0.0 
3.050000000000e+01 -7.000000000000e+00 0.0 
3.200000000000e+01 -8.000000000000e+00 0.0 
3.350000000000e+01 -9.000000000000e+00 0.0 
5.000000000000e+01 -1.000000000000e+00 0.0 
5.000000000000e+01 -2.000000000000e+00 0.0 
5.000000000000e+01 -3.000000000000e+00 0.0 
5.000000000000e+01 -4.000000000000e+00 0.0 
5.000000000000e+01 -5.000000000000e+00 0.0 
5.000000000000e+01 -6.000000000000e+00 0.0 
5.000000000000e+01 -7.000000000000e+00 0.0 
5.000000000000e+01 -8.000000000000e+00 0.0 
5.000000000000e+01 -9.000000000000e+00 0.0 
4.900000000000e+01 -1.000000000000e+01 0.0 
4.800000000000e+01 -1.000000000000e+01 0.0 
4.700000000000e+01 -1.000000000000e+01 0.0 
4.600000000000e+01 -1.000000000000e+01 0.0 
4.500000000000e+01 -1.000000000000e+01 0.0 
4.400000000000e+01 -1.000000000000e+01 0.0 
4.300000000000e+01 -1.000000000000e+01 0.0 
4.200000000000e+01 -1.000000000000e+01 0.0 
4.100000000000e+01 -1.000000000000e+01 0.0 
4.000000000000e+01 -1.000000000000e+01 0.0 
3.900000000000e+01 -1.000000000000e+01 0.0 
3.800000000000e+01 -1.000000000000e+01 0.0 
3.700000000000e+01 -1.000000000000e+01 0.0 
3.600000000000e+01 -1.000000000000e+01 0.0 
1.900000000000e+01 0.0 0.0 
1.800000000000e+01 0.0 0.0 
1.700000000000e+01 0.0 0.0 
1.600000000000e+01 0.0 0.0 
1.500000000000e+01 0.0 0.0 
1.400000000000e+01 0.0 0.0 
1.300000000000e+01 0.0 0.0 
1.200000000000e+01 0.0 0.0 
1.100000000000e+01 0.0 0.0 
1.000000000000e+01 0.0 0.0 
9.000000000000e+00 0.0 0.0 
8.000000000000e+00 0.0 0.0 
7.000000000000e+00 0.0 0.0 
6.000000000000e+00 0.0 0.0 
5.000000000000e+00 0.0 0.0 
4.000000000000e+00 0.0 0.0 
3.000000000000e+00 0.0 0.0 
2.000000000000e+00 0.0 0.0 
1.000000000000e+00 0.0 0.0 
4.901724137931e+01 -1.000000000000e+00 0.0 
4.803448275862e+01 -1.000000000000e+00 0.0 
4.705172413793e+01 -1.000000000000e+00 0.0 
4.606896551724e+01 -1.000000000000e+00 0.0 
4.508620689655e+01 -1.000000000000e+00 0.0 
4.410344827586e+01 -1.000000000000e+00 0.0 
4.312068965517e+01 -1.000000000000e+00 0.0 
4.213793103448e+01 -1.000000000000e+00 0.0 
4.115517241379e+01 -1.000000000000e+00 0.0 
4.017241379310e+01 -1.000000000000e+00 0.0 
3.918965517241e+01 -1.000000000000e+00 0.0 
3.820689655172e+01 -1.000000000000e+00 0.0 
3.722413793103e+01 -1.000000000000e+00 0.0 
3.624137931034e+01 -1.000000000000e+00 0.0 
3.525862068966e+01 -1.000000000000e+00 0.0 
3.427586206897e+01 -1.000000000000e+00 0.0 
3.329310344828e+01 -1.000000000000e+00 0.0 
3.231034482759e+01 -1.000000000000e+00 0.0 
3.132758620690e+01 -1.000000000000e+00 0.0 
3.034482758621e+01 -1.000000000000e+00 0.0 
2.936206896552e+01 -1.000000000000e+00 0.0 
2.837931034483e+01 -1.000000000000e+00 0.0 
2.739655172414e+01 -1.000000000000e+00 0.0 
2.641379310345e+01 -1.000000000000e+00 0.0 
2.543103448276e+01 -1.000000000000e+00 0.0 
2.444827586207e+01 -1.000000000000e+00 0.0 
2.346551724138e+01 -1.000000000000e+00 0.0 
2.248275862069e+01 -1.000000000000e+00 0.0 
2.400000000000e+01 -2.000000000000e+00 0.0 
2.500000000000e+01 -2.000000000000e+00 0.0 
2.600000000000e+01 -2.000000000000e+00 0.0 
2.700000000000e+01 -2.000000000000e+00 0.0 
2.800000000000e+01 -2.000000000000e+00 0.0 
2.900000000000e+01 -2.000000000000e+00 0.0 
3.000000000000e+01 -2.000000000000e+00 0.0 
3.100000000000e+01 -2.000000000000e+00 0.0 
3.200000000000e+01 -2.000000000000e+00 0.0 
3.300000000000e+01 -2.000000000000e+00 0.0 
3.400000000000e+01 -2.000000000000e+00 0.0 
3.500000000000e+01 -2.000000000000e+00 0.0 
3.600000000000e+01 -2.000000000000e+00 0.0 
3.700000000000e+01 -2.000000000000e+00 0.0 
3.800000000000e+01 -2.000000000000e+00 0.0 
3.900000000000e+01 -2.000000000000e+00 0.0 
4.000000000000e+01 -2.000000000000e+00 0.0 
4.100000000000e+01 -2.000000000000e+00 0.0 
4.200000000000e+01 -2.000000000000e+00 0.0 
4.300000000000e+01 -2.000000000000e+00 0.0 
4.400000000000e+01 -2.000000000000e+00 0.0 
4.500000000000e+01 -2.000000000000e+00 0.0 
4.600000000000e+01 -2.000000000000e+00 0.0 
4.700000000000e+01 -2.000000000000e+00 0.0 
4.800000000000e+01 -2.000000000000e+00 0.0 
4.900000000000e+01 -2.000000000000e+00 0.0 
2.548076923077e+01 -3.000000000000e+00 0.0 
2.646153846153e+01 -3.000000000000e+00 0.0 
2.744230769230e+01 -3.000000000000e+00 0.0 
2.842307692306e+01 -3.000000000000e+00 0.0 
2.940384615383e+01 -3.000000000000e+00 0.0 
3.038461538459e+01 -3.000000000000e+00 0.0 
3.136538461536e+01 -3.000000000000e+00 0.0 
3.234615384612e+01 -3.000000000000e+00 0.0 
3.332692307687e+01 -3.000000000000e+00 0.0 
3.430769230762e+01 -3.000000000000e+00 0.0 
3.528846153837e+01 -3.000000000000e+00 0.0 
3.626923076912e+01 -3.000000000000e+00 0.0 
3.724999999988e+01 -3.000000000000e+00 0.0 
3.823076923065e+01 -3.000000000000e+00 0.0 
3.921153846143e+01 -3.000000000000e+00 0.0 
4.019230769221e+01 -3.000000000000e+00 0.0 
4.117307692299e+01 -3.000000000000e+00 0.0 
4.215384615377e+01 -3.000000000000e+00 0.0 
4.313461538455e+01 -3.000000000000e+00 0.0 
4.411538461533e+01 -3.000000000000e+00 0.0 
4.509615384611e+01 -3.000000000000e+00 0.0 
4.607692307688e+01 -3.000000000000e+00 0.0 
4.705769230766e+01 -3.000000000000e+00 0.0 
4.803846153844e+01 -3.000000000000e+00 0.0 
4.901923076922e+01 -3.000000000000e+00 0.0 
4.900000000000e+01 -4.000000000000e+00 0.0 
4.800000000000e+01 -4.000000000000e+00 0.0 
4.700000000000e+01 -4.000000000000e+00 0.0 
4.600000000000e+01 -4.000000000000e+00 0.0 
4.500000000000e+01 -4.000000000000e+00 0.0 
4.400000000000e+01 -4.000000000000e+00 0.0 
4.300000000000e+01 -4.000000000000e+00 0.0 
4.200000000000e+01 -4.000000000000e+00 0.0 
4.100000000000e+01 -4.000000000000e+00 0.0 
4.000000000000e+01 -4.000000000000e+00 0.0 
3.900000000000e+01 -4.000000000000e+00 0.0 
3.800000000000e+01 -4.000000000000e+00 0.0 
3.700000000000e+01 -4.000000000000e+00 0.0 
3.600000000000e+01 -4.000000000000e+00 0.0 
3.500000000000e+01 -4.000000000000e+00 0.0 
3.400000000000e+01 -4.000000000000e+00 0.0 
3.300000000000e+01 -4.000000000000e+00 0.0 
3.200000000000e+01 -4.000000000000e+00 0.0 
3.100000000000e+01 -4.000000000000e+00 0.0 
3.000000000000e+01 -4.000000000000e+00 0.0 
2.900000000000e+01 -4.000000000000e+00 0.0 
2.800000000000e+01 -4.000000000000e+00 0.0 
2.700000000000e+01 -4.000000000000e+00 0.0 
2.847826086957e+01 -5.000000000000e+00 0.0 
2.945652173913e+01 -5.000000000000e+00 0.0 
3.043478260870e+01 -5.000000000000e+00 0.0 
3.141304347826e+01 -5.000000000000e+00 0.0 
3.239130434783e+01 -5.000000000000e+00 0.0 
3.336956521739e+01 -5.000000000000e+00 0.0 
3.434782608696e+01 -5.000000000000e+00 0.0 
3.532608695652e+01 -5.000000000000e+00 0.0 
3.630434782609e+01 -5.000000000000e+00 0.0 
3.728260869565e+01 -5.000000000000e+00 0.0 
3.826086956522e+01 -5.000000000000e+00 0.0 
3.923913043478e+01 -5.000000000000e+00 0.0 
4.021739130435e+01 -5.000000000000e+00 0.0 
4.119565217391e+01 -5.000000000000e+00 0.0 
4.217391304348e+01 -5.000000000000e+00 0.0 
4.315217391304e+01 -5.000000000000e+00 0.0 
4.413043478261e+01 -5.000000000000e+00 0.0 
4.510869565217e+01 -5.000000000000e+00 0.0 
4.608695652174e+01 -5.000000000000e+00 0.0 
4.706521739130e+01 -5.000000000000e+00 0.0 
4.804347826087e+01 -5.000000000000e+00 0.0 
4.902173913043e+01 -5.000000000000e+00 0.0 
4.900000000001e+01 -6.000000000000e+00 0.0 
4.800000000003e+01 -6.000000000000e+00 0.0 
4.700000000004e+01 -6.000000000000e+00 0.0 
4.600000000006e+01 -6.000000000000e+00 0.0 
4.500000000007e+01 -6.000000000000e+00 0.0 
4.400000000009e+01 -6.000000000000e+00 0.0 
4.300000000010e+01 -6.000000000000e+00 0.0 
4.200000000012e+01 -6.000000000000e+00 0.0 
4.100000000013e+01 -6.000000000000e+00 0.0 
4.000000000014e+01 -6.000000000000e+00 0.0 
3.900000000014e+01 -6.000000000000e+00 0.0 
3.800000000012e+01 -6.000000000000e+00 0.0 
3.700000000010e+01 -6.000000000000e+00 0.0 
3.600000000008e+01 -6.000000000000e+00 0.0 
3.500000000006e+01 -6.000000000000e+00 0.0 
3.400000000005e+01 -6.000000000000e+00 0.0 
3.300000000003e+01 -6.000000000000e+00 0.0 
3.200000000001e+01 -6.000000000000e+00 0.0 
3.100000000000e+01 -6.000000000000e+00 0.0 
3.000000000000e+01 -6.000000000000e+00 0.0 
3.147499999998e+01 -7.000000000000e+00 0.0 
3.244999999998e+01 -7.000000000000e+00 0.0 
3.342499999998e+01 -7.000000000000e+00 0.0 
3.439999999998e+01 -7.000000000000e+00 0.0 
3.537499999998e+01 -7.000000000000e+00 0.0 
3.634999999998e+01 -7.000000000000e+00 0.0 
3.732499999998e+01 -7.000000000000e+00 0.0 
3.829999999998e+01 -7.000000000000e+00 0.0 
3.927499999999e+01 -7.000000000000e+00 0.0 
4.024999999999e+01 -7.000000000000e+00 0.0 
4.122499999999e+01 -7.000000000000e+00 0.0 
4.219999999999e+01 -7.000000000000e+00 0.0 
4.317499999999e+01 -7.000000000000e+00 0.0 
4.414999999999e+01 -7.000000000000e+00 0.0 
4.512499999999e+01 -7.000000000000e+00 0.0 
4.609999999999e+01 -7.000000000000e+00 0.0 
4.707500000000e+01 -7.000000000000e+00 0.0 
4.805000000000e+01 -7.000000000000e+00 0.0 
4.902500000000e+01 -7.000000000000e+00 0.0 
4.900000000000e+01 -8.000000000000e+00 0.0 
4.800000000000e+01 -8.000000000000e+00 0.0 
4.700000000000e+01 -8.000000000000e+00 0.0 
4.600000000000e+01 -8.000000000000e+00 0.0 
4.500000000000e+01 -8.000000000000e+00 0.0 
4.400000000000e+01 -8.000000000000e+00 0.0 
4.300000000000e+01 -8.000000000000e+00 0.0 
4.200000000000e+01 -8.000000000000e+00 0.0 
4.100000000000e+01 -8.000000000000e+00 0.0 
4.000000000000e+01 -8.000000000000e+00 0.0 
3.900000000000e+01 -8.000000000000e+00 0.0 
3.800000000000e+01 -8.000000000000e+00 0.0 
3.700000000000e+01 -8.000000000000e+00 0.0 
3.600000000000e+01 -8.000000000000e+00 0.0 
3.500000000000e+01 -8.000000000000e+00 0.0 
3.400000000000e+01 -8.000000000000e+00 0.0 
3.300000000000e+01 -8.000000000000e+00 0.0 
3.447058823527e+01 -9.000000000000e+00 0.0 
3.544117647055e+01 -9.000000000000e+00 0.0 
3.641176470582e+01 -9.000000000000e+00 0.0 
3.738235294109e+01 -9.000000000000e+00 0.0 
3.835294117637e+01 -9.000000000000e+00 0.0 
3.932352941164e+01 -9.000000000000e+00 0.0 
4.029411764691e+01 -9.000000000000e+00 0.0 
4.126470588219e+01 -9.000000000000e+00 0.0 
4.223529411748e+01 -9.000000000000e+00 0.0 
4.320588235279e+01 -9.000000000000e+00 0.0 
4.417647058811e+01 -9.000000000000e+00 0.0 
4.514705882342e+01 -9.000000000000e+00 0.0 
4.611764705874e+01 -9.000000000000e+00 0.0 
4.708823529405e+01 -9.000000000000e+00 0.0 
4.805882352937e+01 -9.000000000000e+00 0.0 
4.902941176468e+01 -9.000000000000e+00 0.0 
2.075000000000e+01 -5.000000000006e-01 0.0 
2.225000000000e+01 -1.500000000000e+00 0.0 
2.375000000000e+01 -2.500000000000e+00 0.0 
2.525000000000e+01 -3.500000000000e+00 0.0 
2.675000000000e+01 -4.500000000000e+00 0.0 
2.825000000000e+01 -5.500000000000e+00 0.0 
2.975000000000e+01 -6.500000000000e+00 0.0 
3.125000000000e+01 -7.500000000000e+00 0.0 
3.275000000000e+01 -8.500000000000e+00 0.0 
3.425000000000e+01 -9.500000000000e+00 0.0 
2.226951693683e+01 -2.403913980114e+00 0.0 
1.650149491944e+01 -1.913490915758e+01 0.0 
1.050042386896e+01 -8.504605092970e-01 0.0 
1.553146524712e+01 -8.281255032105e-01 0.0 
1.150000000008e+01 -1.913397459621e+01 0.0 
2.530060260647e+01 -4.428336431260e+00 0.0 
8.651114563942e-01 -1.052096295641e+01 0.0 
2.050000000013e+01 -1.913397459622e+01 0.0 
2.819198729811e+01 -6.399519052838e+00 0.0 
2.445670302931e+01 -1.915649188023e+01 0.0 
3.117591465718e+01 -8.394293040695e+00 0.0 
7.465053044742e+00 -1.920411160581e+01 0.0 
6.398295709691e+00 -8.230098819370e-01 0.0 
2.849659607461e+01 -1.914296187762e+01 0.0 
3.418732642882e+01 -1.040265792588e+01 0.0 
8.386450935063e-01 -6.533605142809e+00 0.0 
9.178661865596e-01 -1.329769195597e+01 0.0 
3.149448624493e+01 -1.910466733764e+01 0.0 
3.552916747426e+01 -1.914628590759e+01 0.0 
4.449210346537e+01 -1.914359085008e+01 0.0 
4.140975975145e+01 -1.906941860733e+01 0.0 
3.847475958753e+01 -1.916622382724e+01 0.0 
3.653774794640e+01 -1.088712800241e+01 0.0 
4.047886341787e+01 -1.090139014048e+01 0.0 
4.348006339825e+01 -1.092792621489e+01 0.0 
4.919519968029e+01 -1.451526755068e+01 0.0 
4.500000000032e+00 -1.913397459621e+01 0.0 
1.856136921614e+01 -8.212235170404e-01 0.0 
3.499895312306e+00 -8.661165539723e-01 0.0 
9.076088696565e-01 -1.642306201891e+01 0.0 
4.655174095477e+01 -1.086183387525e+01 0.0 
9.430688970604e-01 -3.496112672958e+00 0.0 
3.353992337063e+01 -1.901202090820e+01 0.0 
2.249746016977e+01 -1.921262287282e+01 0.0 
2.650122741777e+01 -1.916123026018e+01 0.0 
1.863571384842e+01 -1.908325534840e+01 0.0 
1.450089971693e+01 -1.917691901860e+01 0.0 
1.350044695317e+01 -8.659695299584e-01 0.0 
3.849987469880e+01 -1.084154983397e+01 0.0 
9.454419857884e+00 -1.900818879936e+01 0.0 
4.917398660523e+01 -1.645692866081e+01 0.0 
8.500000000000e+00 -8.660254037844e-01 0.0 
8.660319230785e-01 -8.500111697188e+00 0.0 
4.649022621545e+01 -1.930506220113e+01 0.0 
2.667688107845e+01 -5.420288124331e+00 0.0 
2.379251615665e+01 -3.412225477429e+00 0.0 
2.966631491830e+01 -7.389030232731e+00 0.0 
3.267915035995e+01 -9.396934932445e+00 0.0 
2.074836922338e+01 -1.320054020319e+00 0.0 
4.915985743621e+01 -1.261973384855e+01 0.0 
2.527129768623e+00 -1.931592414663e+01 0.0 
1.538676247410e+00 -8.436956619311e-01 0.0 
4.908096641539e+01 -1.842484004551e+01 0.0 
3.478612492673e+01 -1.090889364140e+01 0.0 
3.409757055860e+01 -1.131991530427e+01 0.0 
3.501895309466e+01 -1.177687842717e+01 0.0 
3.407758073088e+01 -1.224293381580e+01 0.0 
3.484541875390e+01 -1.277051428430e+01 0.0 
3.400322025842e+01 -1.319022775640e+01 0.0 
3.321672625034e+01 -1.266779191233e+01 0.0 
3.315244139236e+01 -1.360984106532e+01 0.0 
3.236335186892e+01 -1.308463225210e+01 0.0 
3.478337442841e+01 -1.372341158982e+01 0.0 
3.230105923633e+01 -1.403023731610e+01 0.0 
3.150954055289e+01 -1.350301767700e+01 0.0 
3.144604792090e+01 -1.444931742516e+01 0.0 
3.065653897123e+01 -1.392357262981e+01 0.0 
3.071897610812e+01 -1.297447031198e+01 0.0 
2.986790411740e+01 -1.339226181535e+01 0.0 
2.993181466745e+01 -1.244703272398e+01 0.0 
2.908023061869e+01 -1.286254537734e+01 0.0 
2.901619051372e+01 -1.380881655279e+01 0.0 
2.822986160390e+01 -1.327695262116e+01 0.0 
2.829453476870e+01 -1.233265343811e+01 0.0 
2.744542905518e+01 -1.274510491105e+01 0.0 
2.751120089246e+01 -1.180368086886e+01 0.0 
2.666218649885e+01 -1.221619339205e+01 0.0 
2.672371209234e+01 -1.127125228527e+01 0.0 
2.587763216302e+01 -1.168539979114e+01 0.0 
2.581165585299e+01 -1.262994410089e+01 0.0 
2.502890882577e+01 -1.209827323619e+01 0.0 
2.509631327757e+01 -1.115492410304e+01 0.0 
2.424662989877e+01 -1.156630981079e+01 0.0 
2.431704046904e+01 -1.062389179334e+01 0.0 
2.346445438728e+01 -1.103427680694e+01 0.0 
2.339382552877e+01 -1.197964871788e+01 0.0 
2.260936050780e+01 -1.144513277642e+01 0.0 
2.268075012022e+01 -1.049911928216e+01 0.0 
2.182525737661e+01 -1.090920811464e+01 0.0 
2.189682319817e+01 -9.961716944568e+00 0.0 
2.104174127792e+01 -1.037266986667e+01 0.0 
2.111304367575e+01 -9.424179358711e+00 0.0 
2.025306185381e+01 -9.832727364719e+00 0.0 
2.018141124247e+01 -1.079140628871e+01 0.0 
1.938594498257e+01 -1.025147354112e+01 0.0 
1.946106490453e+01 -9.288010758448e+00 0.0 
1.858929958352e+01 -9.706319802516e+00 0.0 
1.851540991219e+01 -1.067205988724e+01 0.0 
1.771485303178e+01 -1.012504443115e+01 0.0 
1.764134552256e+01 -1.109360378538e+01 0.0 
1.683745148095e+01 -1.054496365337e+01 0.0 
1.691852964353e+01 -9.582555261178e+00 0.0 
1.603603813062e+01 -1.000160132379e+01 0.0 
1.595824239350e+01 -1.096750698862e+01 0.0 
1.515080624291e+01 -1.041639501931e+01 0.0 
1.523171602559e+01 -9.451711491453e+00 0.0 
1.434621060709e+01 -9.871956467464e+00 0.0 
1.426777178765e+01 -1.083749501371e+01 0.0 
1.345775282374e+01 -1.028803175500e+01 0.0 
1.354103873368e+01 -9.324918457162e+00 0.0 
1.265072018622e+01 -9.742612837270e+00 0.0 
1.257285762070e+01 -1.071557782384e+01 0.0 
1.175874815690e+01 -1.015972324288e+01 0.0 
1.184203019714e+01 -9.193604071377e+00 0.0 
1.094927709905e+01 -9.612103238656e+00 0.0 
1.086938022910e+01 -1.058685085646e+01 0.0 
1.005424098961e+01 -1.002939116380e+01 0.0 
9.977974613295e+00 -1.101324897989e+01 0.0 
1.012915646404e+01 -9.051815821181e+00 0.0 
9.237127782494e+00 -9.471239055559e+00 0.0 
9.308426593771e+00 -8.483376461131e+00 0.0 
8.418806073345e+00 -8.910712374517e+00 0.0 
2.253688464062e+01 -1.239459402279e+01 0.0 
8.495126726666e+00 -7.921646665254e+00 0.0 
9.389727383206e+00 -7.512103628377e+00 0.0 
7.601560812974e+00 -8.349460349344e+00 0.0 
7.525680547759e+00 -9.339736686940e+00 0.0 
7.677888324502e+00 -7.359727833346e+00 0.0 
6.782001206724e+00 -7.788454494773e+00 0.0 
6.858778622885e+00 -6.797338062822e+00 0.0 
2.196596590865e+01 -8.979025665442e+00 0.0 
2.816540108272e+01 -1.422634142353e+01 0.0 
5.961601194403e+00 -7.226824010712e+00 0.0 
6.038171749656e+00 -6.234825887079e+00 0.0 
6.936257279557e+00 -5.805287640737e+00 0.0 
6.115068918323e+00 -5.242109758768e+00 0.0 
3.564391741903e+01 -1.329240553876e+01 0.0 
3.558115605778e+01 -1.425902892003e+01 0.0 
3.645445282201e+01 -1.381970786460e+01 0.0 
3.639744204358e+01 -1.479198128612e+01 0.0 
3.727266909778e+01 -1.435399586226e+01 0.0 
5.216667013081e+00 -5.671788584287e+00 0.0 
3.220697293295e+01 -1.499594545107e+01 0.0 
3.551112158269e+01 -1.523479869250e+01 0.0 
2.836056961467e+01 -1.139032434851e+01 0.0 
2.516730388602e+01 -1.021382726837e+01 0.0 
1.844436907403e+01 -1.164097215196e+01 0.0 
5.885434318740e+00 -8.218694781467e+00 0.0 
5.064071066867e+00 -7.656614643901e+00 0.0 
4.988089103470e+00 -8.649722082718e+00 0.0 
1.079421050408e+01 -1.157014985435e+01 0.0 
9.902420005256e+00 -1.199903342656e+01 0.0 
1.071994252214e+01 -1.255727909771e+01 0.0 
9.826974788171e+00 -1.298659581767e+01 0.0 
1.064607883789e+01 -1.354595476388e+01 0.0 
9.751541265343e+00 -1.397556905071e+01 0.0 
8.932296185869e+00 -1.341553353988e+01 0.0 
8.856399248106e+00 -1.440570715508e+01 0.0 
8.036186803543e+00 -1.384470558472e+01 0.0 
1.057112875118e+01 -1.453516759081e+01 0.0 
1.146582585687e+01 -1.410539926903e+01 0.0 
7.959894480382e+00 -1.483563350928e+01 0.0 
7.138792279156e+00 -1.427465094140e+01 0.0 
7.062506792418e+00 -1.526615385482e+01 0.0 
6.240693558277e+00 -1.470508863040e+01 0.0 
6.316957575451e+00 -1.371212581281e+01 0.0 
5.418183007107e+00 -1.414253605022e+01 0.0 
5.494748364428e+00 -1.314886770603e+01 0.0 
1.756825565873e+01 -1.206433872514e+01 0.0 
1.837565773345e+01 -1.261356468266e+01 0.0 
1.749574831391e+01 -1.303769280014e+01 0.0 
1.830539187332e+01 -1.358828364284e+01 0.0 
1.742278925170e+01 -1.401367746928e+01 0.0 
1.823303007798e+01 -1.456432294258e+01 0.0 
1.734941694138e+01 -1.499213734361e+01 0.0 
1.653760041637e+01 -1.443920312098e+01 0.0 
3.056237977307e+01 -1.487132260174e+01 0.0 
1.866469084762e+01 -8.742953000418e+00 0.0 
1.953669694916e+01 -8.326038909849e+00 0.0 
1.874194303780e+01 -7.780688158966e+00 0.0 
1.961032016741e+01 -7.366854697285e+00 0.0 
1.881715755159e+01 -6.821102209649e+00 0.0 
1.968369797150e+01 -6.407747217358e+00 0.0 
1.889237123259e+01 -5.858375520026e+00 0.0 
1.802038875366e+01 -6.276202618170e+00 0.0 
1.809793837984e+01 -5.307629520489e+00 0.0 
1.721985207997e+01 -5.728242054488e+00 0.0 
1.729850893523e+01 -4.756990819347e+00 0.0 
1.641745664240e+01 -5.174636548624e+00 0.0 
2.495978509456e+01 -1.304406404294e+01 0.0 
1.911567814831e+01 -1.413854250293e+01 0.0 
1.904387332608e+01 -1.511463127723e+01 0.0 
1.992115934240e+01 -1.468788025898e+01 0.0 
7.013706899628e+00 -4.812582868662e+00 0.0 
5.342091874585e+00 -1.513658157269e+01 0.0 
1.139098043784e+01 -1.509488509480e+01 0.0 
1.228151810610e+01 -1.465617481983e+01 0.0 
1.646373110164e+01 -1.541993323337e+01 0.0 
5.293328636712e+00 -4.678385108584e+00 0.0 
1.975965862987e+01 -5.448124345648e+00 0.0 
2.054318374236e+01 -5.992561293251e+00 0.0 
3.721453439063e+01 -1.533216152738e+01 0.0 
3.809302733893e+01 -1.489235527381e+01 0.0 
1.220852788900e+01 -1.565304565230e+01 0.0 
4.394120899730e+00 -5.108397613210e+00 0.0 
8.779354620288e+00 -1.539524721159e+01 0.0 
1.817791047702e+01 -4.338570146253e+00 0.0 
4.518860013839e+00 -1.457343189307e+01 0.0 
4.442712140414e+00 -1.556841391069e+01 0.0 
8.115343466391e+00 -1.285760324283e+01 0.0 
1.985334703171e+01 -1.566478400426e+01 0.0 
2.071953850276e+01 -1.522074243119e+01 0.0 
1.634012953883e+01 -6.154777738301e+00 0.0 
1.553479994708e+01 -5.593730508879e+00 0.0 
1.561265946942e+01 -4.617761762647e+00 0.0 
1.470674212978e+01 -5.064576488228e+00 0.0 
1.464498299883e+01 -6.026514471420e+00 0.0 
1.383271561817e+01 -5.467796261169e+00 0.0 
1.389241253067e+01 -4.504338666645e+00 0.0 
1.301868735463e+01 -4.907185188626e+00 0.0 
1.294514184846e+01 -5.888160903592e+00 0.0 
1.212955968622e+01 -5.328262335277e+00 0.0 
1.220721122383e+01 -4.341264976687e+00 0.0 
1.131324345897e+01 -4.766773516508e+00 0.0 
5.266597955397e+00 -1.613148974258e+01 0.0 
1.737805990867e+01 -3.786677807525e+00 0.0 
3.078438094513e+01 -1.203225297748e+01 0.0 
1.131569882285e+01 -1.608511932110e+01 0.0 
1.728478341782e+01 -1.596017432313e+01 0.0 
3.803465906019e+01 -1.587509751228e+01 0.0 
3.891681276677e+01 -1.543395196905e+01 0.0 
3.897340985302e+01 -1.444710288980e+01 0.0 
3.980095968193e+01 -1.499059496613e+01 0.0 
3.974334598189e+01 -1.597921884150e+01 0.0 
4.062964983717e+01 -1.553518690417e+01 0.0 
4.068729602479e+01 -1.454434445295e+01 0.0 
4.151772679790e+01 -1.508974196007e+01 0.0 
4.157505195739e+01 -1.409694289912e+01 0.0 
4.240699932656e+01 -1.464347955968e+01 0.0 
4.234898051011e+01 -1.563721375790e+01 0.0 
4.323934606035e+01 -1.519082036405e+01 0.0 
4.329740528208e+01 -1.419587509788e+01 0.0 
4.413056841369e+01 -1.474359631875e+01 0.0 
4.418850110108e+01 -1.374786684042e+01 0.0 
4.502219770667e+01 -1.429605103525e+01 0.0 
4.496411937907e+01 -1.529215882720e+01 0.0 
4.490027319897e+00 -4.154167794594e+00 0.0 
1.565080385988e+01 -1.486411982419e+01 0.0 
1.557610691279e+01 -1.584855627870e+01 0.0 
4.195350646612e+00 -8.089117689096e+00 0.0 
4.124027797830e+00 -9.082831955007e+00 0.0 
4.917944318925e+00 -9.643530901533e+00 0.0 
4.020105689502e+00 -1.007439673661e+01 0.0 
4.587185899277e+01 -1.484039992728e+01 0.0 
4.580078661551e+01 -1.584043391042e+01 0.0 
2.061956522375e+01 -5.046701343981e+00 0.0 
2.139572955529e+01 -5.579553449826e+00 0.0 
3.715344357292e+01 -1.631485124583e+01 0.0 
3.618886196443e+00 -1.500471207167e+01 0.0 
3.695606940204e+00 -1.400939692294e+01 0.0 
2.438890661143e+01 -9.686110599723e+00 0.0 
2.523267572778e+01 -9.276766000622e+00 0.0 
2.446094171539e+01 -8.751904591412e+00 0.0 
2.529089822738e+01 -8.321495612547e+00 0.0 
2.606882688827e+01 -8.864724051119e+00 0.0 
2.452116646430e+01 -7.792756462004e+00 0.0 
1.235543269617e+01 -1.365845617339e+01 0.0 
4.318116874181e+01 -1.618567469992e+01 0.0 
7.835066111909e+00 -5.376366223896e+00 0.0 
7.905687335704e+00 -4.382539065697e+00 0.0 
3.542640009567e+00 -1.600035116542e+01 0.0 
1.572431503071e+01 -1.388358386695e+01 0.0 
2.574684696680e+01 -1.357896141127e+01 0.0 
2.488842657651e+01 -1.399674354505e+01 0.0 
2.568301775611e+01 -1.453552048595e+01 0.0 
2.481535572009e+01 -1.495542756508e+01 0.0 
2.561729699688e+01 -1.549784648532e+01 0.0 
2.474623061296e+01 -1.592058894178e+01 0.0 
2.394234041695e+01 -1.537572575827e+01 0.0 
2.065825452567e+01 -1.621899055217e+01 0.0 
2.387180528935e+01 -1.634552264687e+01 0.0 
4.585364400844e+01 -1.383912334080e+01 0.0 
1.998744432052e+01 -1.370317155541e+01 0.0 
1.205356951443e+01 -6.313580285498e+00 0.0 
5.396543905849e+00 -3.731818611283e+00 0.0 
1.139652573295e+01 -3.745819399350e+00 0.0 
3.574124306703e+00 -4.551456826011e+00 0.0 
3.494140761930e+00 -5.539787055649e+00 0.0 
1.213651452413e+01 -1.664505033022e+01 0.0 
2.555045568519e+01 -1.646529356744e+01 0.0 
2.641671114986e+01 -1.603899382371e+01 0.0 
2.612920721894e+01 -7.906435260873e+00 0.0 
2.690339829698e+01 -8.456969591431e+00 0.0 
1.978024383368e+01 -1.664410216353e+01 0.0 
3.732829979082e+01 -1.336926601859e+01 0.0 
4.074336584605e+01 -1.355133328401e+01 0.0 
4.163204691081e+01 -1.310280943992e+01 0.0 
3.773826114429e+00 -3.493444309145e+00 0.0 
1.228783001032e+01 -3.374822835872e+00 0.0 
4.057110462520e+01 -1.652588478000e+01 0.0 
2.132535497898e+01 -6.523623360525e+00 0.0 
2.216932532211e+01 -6.110044769206e+00 0.0 
1.825781152128e+01 -3.370146817147e+00 0.0 
1.745679445888e+01 -2.812942552063e+00 0.0 
4.666517057280e+01 -1.539981381543e+01 0.0 
4.660575894464e+01 -1.639014410186e+01 0.0 
4.838230979954e+00 -1.063643436446e+01 0.0 
3.938942630206e+00 -1.106778981745e+01 0.0 
1.302967218620e+01 -1.621373452436e+01 0.0 
1.049548003190e+01 -4.204825123240e+00 0.0 
4.573571907195e+01 -1.683820511148e+01 0.0 
1.483686335807e+01 -1.430849689310e+01 0.0 
1.490982658890e+01 -1.332679386284e+01 0.0 
3.190805600162e+00 -9.510968358545e+00 0.0 
2.146625721848e+01 -4.642437303115e+00 0.0 
2.069866208266e+01 -4.111852942193e+00 0.0 
1.286859345584e+01 -6.873252723348e+00 0.0 
1.041794493184e+01 -5.194814260291e+00 0.0 
2.671081808965e+00 -4.976806516331e+00 0.0 
1.295786792925e+01 -1.720506531799e+01 0.0 
3.968438206511e+01 -1.696869067241e+01 0.0 
2.308550456051e+01 -1.579963151273e+01 0.0 
2.315593682844e+01 -1.482967445235e+01 0.0 
2.299471449450e+01 -1.677069968132e+01 0.0 
1.057344714696e+01 -3.214252277840e+00 0.0 
1.124057603753e+01 -1.707713739755e+01 0.0 
2.718402535754e+00 -1.543629882103e+01 0.0 
2.638549692805e+01 -1.696744916809e+01 0.0 
2.723416349007e+01 -1.658104204545e+01 0.0 
2.210193351704e+01 -7.046769643417e+00 0.0 
2.295180925161e+01 -6.657397605239e+00 0.0 
2.301355235833e+01 -5.709111896800e+00 0.0 
2.379052718281e+01 -6.254965406962e+00 0.0 
3.243528601237e+01 -1.214181853533e+01 0.0 
2.287977995457e+01 -7.583722368300e+00 0.0 
2.999876029544e+01 -1.150837653096e+01 0.0 
3.084435366963e+01 -1.109693775882e+01 0.0 
3.006650579669e+01 -1.057778994262e+01 0.0 
2.683802665066e+01 -9.386863216633e+00 0.0 
2.768641973621e+01 -8.988883915666e+00 0.0 
2.040296980397e+01 -7.903629133404e+00 0.0 
1.925235024054e+01 -1.218872783130e+01 0.0 
5.735667000424e+00 -1.020577277283e+01 0.0 
6.396559909872e+00 -1.272326295703e+01 0.0 
1.161199420714e+01 -1.212812778229e+01 0.0 
4.229046132615e+01 -1.663084237572e+01 0.0 
4.312275399692e+01 -1.718087491556e+01 0.0 
4.335502068163e+01 -1.320039231514e+01 0.0 
4.424630298089e+01 -1.275160688731e+01 0.0 
7.090116643816e+00 -3.818998061530e+00 0.0 
7.989472176569e+00 -3.389238711200e+00 0.0 
9.085824861778e+00 -1.144036167408e+01 0.0 
1.041972423731e+01 -1.651614080893e+01 0.0 
3.797525112640e+01 -1.686052038746e+01 0.0 
3.709114253394e+01 -1.730125999865e+01 0.0 
3.626966748340e+01 -1.675477052919e+01 0.0 
1.385164591440e+01 -1.677597757552e+01 0.0 
1.787152588784e+01 -8.198993896093e+00 0.0 
1.668849729812e+01 -1.248560611628e+01 0.0 
1.659546177905e+01 -3.232482605530e+00 0.0 
2.332214717345e+01 -1.292598167641e+01 0.0 
7.168238450786e+00 -2.824711686516e+00 0.0 
2.894878403906e+01 -1.475427524446e+01 0.0 
2.646763248247e+00 -1.643270107952e+01 0.0 
3.467431944285e+00 -1.699648837348e+01 0.0 
2.059475877282e+01 -1.719473628526e+01 0.0 
3.333868355437e+01 -1.080596971682e+01 0.0 
2.246451062637e+01 -1.334557761546e+01 0.0 
2.167821896388e+01 -1.280847834858e+01 0.0 
3.089653185767e+01 -1.017198487212e+01 0.0 
3.012604365669e+01 -9.657298805968e+00 0.0 
2.929627299435e+01 -1.006100135274e+01 0.0 
2.936201435219e+01 -9.136748899251e+00 0.0 
1.198219052702e+01 -7.291887238230e+00 0.0 
1.116702076035e+01 -6.731976101053e+00 0.0 
2.551388807505e+01 -1.746927036981e+01 0.0 
2.378639090370e+01 -1.728678807149e+01 0.0 
2.718543627188e+01 -1.748668016909e+01 0.0 
2.804681050301e+01 -1.712626668293e+01 0.0 
1.970737034667e+01 -1.762317646822e+01 0.0 
1.889535776135e+01 -1.707158098231e+01 0.0 
2.593777711283e+00 -5.971157087874e+00 0.0 
2.773468281110e+01 -8.067164273938e+00 0.0 
4.051205884347e+01 -1.751819982458e+01 0.0 
3.166903145421e+01 -1.068032992414e+01 0.0 
1.033042452886e+01 -1.748285844336e+01 0.0 
9.519274604626e+00 -1.694349240233e+01 0.0 
1.668308673328e+01 -2.255861778986e+00 0.0 
1.570531902832e+01 -2.676795860126e+00 0.0 
4.655826903379e+01 -1.736656245706e+01 0.0 
2.384148070773e+01 -5.328744256413e+00 0.0 
2.460255123641e+01 -5.852182672816e+00 0.0 
2.306638135119e+01 -4.798935440613e+00 0.0 
8.467720450578e-01 -1.849576263072e+01 0.0 
4.849657322345e+01 -1.084860705506e+01 0.0 
2.565860899507e+00 -1.742859793981e+01 0.0 
2.764418872564e+01 -9.927142821799e+00 0.0 
4.565165880064e+01 -1.785336695404e+01 0.0 
2.162231831329e+01 -1.376528337468e+01 0.0 
2.360646352969e+01 -9.136041963102e+00 0.0 
1.392738739903e+01 -1.578285505772e+01 0.0 
4.756405947478e+01 -1.683706841809e+01 0.0 
4.740895034054e+01 -1.793766756892e+01 0.0 
4.080779328826e+01 -1.257387192544e+01 0.0 
4.168907939671e+01 -1.210739129181e+01 0.0 
3.991197722154e+01 -1.300815793917e+01 0.0 
1.905536506762e+01 -3.940076697685e+00 0.0 
1.923879596617e+01 -2.875000734166e+00 0.0 
4.401386745746e+01 -1.673483229438e+01 0.0 
4.247233362525e+00 -7.094581653070e+00 0.0 
3.286051630211e+00 -7.635300020553e+00 0.0 
9.609533347623e+00 -4.594311677967e+00 0.0 
9.523554636369e+00 -5.595597029530e+00 0.0 
5.660336628893e+00 -1.119290329628e+01 0.0 
6.558070063295e+00 -1.076385809362e+01 0.0 
2.809866407414e+01 -1.518037766799e+01 0.0 
2.888868674504e+01 -1.570360690070e+01 0.0 
2.654431550819e+01 -1.411217777162e+01 0.0 
1.402158265969e+01 -1.375404617952e+01 0.0 
1.409592494026e+01 -1.277071998942e+01 0.0 
1.499355196178e+01 -1.235270737023e+01 0.0 
4.221535326155e+01 -1.759335617494e+01 0.0 
4.305583287033e+01 -1.822663146802e+01 0.0 
1.280748808359e+01 -7.834332838285e+00 0.0 
1.368988389326e+01 -7.420529606172e+00 0.0 
1.110091796060e+01 -7.683966794328e+00 0.0 
3.963446145980e+01 -1.794331310122e+01 0.0 
3.423932362213e+00 -1.796415590455e+01 0.0 
4.280814572302e+00 -1.752272834860e+01 0.0 
8.050136380041e+00 -2.421582378631e+00 0.0 
8.888674091650e+00 -2.984264211327e+00 0.0 
2.152839430898e+01 -3.732609965436e+00 0.0 
2.077799585292e+01 -3.183896021866e+00 0.0 
3.618719395821e+01 -1.770276572576e+01 0.0 
3.538165138340e+01 -1.718709995539e+01 0.0 
3.702925326420e+01 -1.828844288807e+01 0.0 
1.756739438711e+00 -5.353284859169e+00 0.0 
2.233710191104e+01 -1.527265621324e+01 0.0 
1.389483555057e+01 -1.771797164730e+01 0.0 
1.475634224300e+01 -1.728357428390e+01 0.0 
1.298797563052e+01 -1.825968924755e+01 0.0 
2.145331271866e+01 -1.673705379077e+01 0.0 
2.133282821169e+01 -1.769400773673e+01 0.0 
2.292139194136e+01 -1.774915400288e+01 0.0 
1.750750053243e+01 -1.861475593469e+00 0.0 
4.830478841772e+01 -1.752611802221e+01 0.0 
4.341203507805e+01 -1.220326745522e+01 0.0 
1.685254151866e+01 -1.443085301632e+00 0.0 
4.431538535165e+01 -1.171841387375e+01 0.0 
4.511308610496e+01 -1.229557320599e+01 0.0 
4.510133242889e+01 -1.123680627466e+01 0.0 
1.846818030617e+00 -4.410877617069e+00 0.0 
3.995468694584e+01 -1.186571542989e+01 0.0 
3.901387459804e+01 -1.242507616755e+01 0.0 
8.966735877533e+00 -1.837818700423e+00 0.0 
4.049310011091e+01 -1.848269508791e+01 0.0 
7.278862053803e+00 -1.918523922691e+00 0.0 
6.429715522129e+00 -2.316676521184e+00 0.0 
9.443505505022e+00 -1.792198868094e+01 0.0 
8.620386951051e+00 -1.737590365556e+01 0.0 
8.571868171503e+00 -1.834436667826e+01 0.0 
7.758629848526e+00 -1.775677907213e+01 0.0 
7.806648388584e+00 -1.680761266021e+01 0.0 
6.908555145436e+00 -1.723746463044e+01 0.0 
4.251709122090e+01 -1.156937480156e+01 0.0 
6.931136405615e+00 -1.832465719263e+01 0.0 
6.015545461353e+00 -1.768865355295e+01 0.0 
5.960535926343e+00 -1.872011001764e+01 0.0 
3.023253444786e+01 -8.761960642196e+00 0.0 
2.454622702599e+01 -6.749421992767e+00 0.0 
2.537499741604e+01 -6.347634963783e+00 0.0 
2.544077378460e+01 -5.431358513649e+00 0.0 
2.801367161747e+01 -1.820907270221e+01 0.0 
2.884507806914e+01 -1.762032095326e+01 0.0 
1.821474531936e+00 -1.588901260460e+01 0.0 
1.821006262604e+00 -1.489370287756e+01 0.0 
4.599962488908e+01 -1.176478780598e+01 0.0 
4.705457470007e+01 -1.172182804229e+01 0.0 
4.667668314802e+01 -1.263464558483e+01 0.0 
4.759648056504e+01 -1.252380987933e+01 0.0 
4.728041618103e+01 -1.341928568376e+01 0.0 
4.825209352360e+01 -1.330491640804e+01 0.0 
4.778118233428e+01 -1.420151961695e+01 0.0 
2.388192727579e+01 -1.826934810142e+01 0.0 
2.381714684947e+01 -4.385917965223e+00 0.0 
3.172733219247e+01 -9.758744265248e+00 0.0 
1.882012070658e+01 -1.805540597212e+01 0.0 
1.805667505243e+01 -1.742221226236e+01 0.0 
2.852599958080e+01 -8.597196079481e+00 0.0 
2.856486123437e+01 -7.661382718527e+00 0.0 
1.111792842875e+01 -1.818223852980e+01 0.0 
2.203322722466e+01 -7.986646678802e+00 0.0 
3.955703676900e+01 -1.903246763601e+01 0.0 
1.944842206513e+01 -8.038750575182e-01 0.0 
1.909882767783e+01 -1.746322740933e+00 0.0 
2.281147422941e+01 -8.525912918334e+00 0.0 
2.850633001468e+01 -9.533271335986e+00 0.0 
2.532883344309e+01 -7.308951659710e+00 0.0 
2.620475466461e+01 -6.979208585400e+00 0.0 
1.396278270396e+01 -1.475095389807e+01 0.0 
9.791001166724e+00 -2.554159793552e+00 0.0 
2.229293380421e+01 -4.269762271052e+00 0.0 
4.677238984118e+01 -1.430071795514e+01 0.0 
2.228658385918e+01 -3.344747535984e+00 0.0 
8.940223674553e-01 -1.543595733415e+01 0.0 
2.118566862474e+01 -8.435876987696e+00 0.0 
2.678325936437e+01 -1.032621195706e+01 0.0 
2.223400220487e+01 -5.179046761770e+00 0.0 
2.375370625384e+01 -7.251580562134e+00 0.0 
3.156971327386e+01 -1.255534750737e+01 0.0 
3.328226391312e+01 -1.172914813316e+01 0.0 
3.250948774219e+01 -1.120157009348e+01 0.0 
2.032993445717e+01 -8.867880112202e+00 0.0 
2.697226974856e+01 -7.536633082045e+00 0.0 
2.707377810386e+01 -6.590835263295e+00 0.0 
2.914099246827e+01 -1.191678458549e+01 0.0 
3.544824072239e+01 -1.621126558525e+01 0.0 
3.456511855436e+01 -1.665054783843e+01 0.0 
3.448395810225e+01 -1.759117813016e+01 0.0 
3.368378673938e+01 -1.708037781328e+01 0.0 
3.375560452567e+01 -1.610973066913e+01 0.0 
3.288001547988e+01 -1.654324255651e+01 0.0 
3.282475929147e+01 -1.749725654692e+01 0.0 
3.199880906313e+01 -1.697294088625e+01 0.0 
3.197001272932e+01 -1.811667776864e+01 0.0 
3.111884713021e+01 -1.742166785755e+01 0.0 
3.120418962865e+01 -1.642155709385e+01 0.0 
3.034666704371e+01 -1.683123833816e+01 0.0 
3.026224379976e+01 -1.772592851714e+01 0.0 
3.046632362943e+01 -1.582232843075e+01 0.0 
1.961344017324e+01 -1.857459447985e+01 0.0 
2.274975894774e+01 -9.532738811922e+00 0.0 
1.833923246887e+01 -2.396746883672e+00 0.0 
1.988859500848e+01 -2.249244376594e+00 0.0 
2.758045562861e+01 -1.086434261689e+01 0.0 
3.247300178163e+01 -1.909930104252e+01 0.0 
3.461947482503e+01 -1.911879848019e+01 0.0 
2.047161538662e+01 -6.941478180358e+00 0.0 
2.750230940214e+01 -1.915490590764e+01 0.0 
3.165081350803e+01 -1.161860780120e+01 0.0 
1.897456727641e+01 -4.889634688522e+00 0.0 
2.549338539756e+01 -1.914858252089e+01 0.0 
3.462873135081e+01 -1.567482276144e+01 0.0 
3.384432415243e+01 -1.512280684518e+01 0.0 
3.471433767690e+01 -1.469086942990e+01 0.0 
3.651470373046e+01 -1.918207952149e+01 0.0 
3.901742690249e+01 -1.345028556517e+01 0.0 
2.153224102692e+01 -1.920169709333e+01 0.0 
1.918382939341e+01 -1.316226275662e+01 0.0 
2.005389162382e+01 -1.271962165174e+01 0.0 
2.011472087878e+01 -1.175029352900e+01 0.0 
3.210679478412e+01 -1.598038618242e+01 0.0 
1.752175226543e+01 -1.914713022656e+01 0.0 
1.696897240059e+01 -1.832772588765e+01 0.0 
1.599682523337e+01 -1.832599992024e+01 0.0 
1.644507199462e+01 -1.743697981535e+01 0.0 
1.549987712903e+01 -1.915192375101e+01 0.0 
3.050250861901e+01 -1.918943550234e+01 0.0 
2.949944061527e+01 -1.922950455235e+01 0.0 
1.375892575273e+01 -6.447160534926e+00 0.0 
1.457223670180e+01 -7.006709243857e+00 0.0 
1.450818793236e+01 -7.965943451779e+00 0.0 
1.538804712402e+01 -7.553409623699e+00 0.0 
1.545817644768e+01 -6.580929593419e+00 0.0 
1.626506893751e+01 -7.129032608911e+00 0.0 
1.619833811522e+01 -8.086588580887e+00 0.0 
1.714448609609e+01 -6.697429609777e+00 0.0 
2.887616543568e+01 -1.668015232137e+01 0.0 
1.349814589130e+01 -1.918225301544e+01 0.0 
1.153887772210e+01 -1.311384581217e+01 0.0 
1.242708159886e+01 -1.267046795531e+01 0.0 
1.249799674267e+01 -1.169005616014e+01 0.0 
6.631723893693e+00 -9.774184881867e+00 0.0 
7.451471631867e+00 -1.033148796006e+01 0.0 
7.377795355458e+00 -1.132196345268e+01 0.0 
5.810931797536e+00 -9.211654212252e+00 0.0 
2.402683899133e+01 -1.441378562320e+01 0.0 
1.249768692036e+01 -1.917388426624e+01 0.0 
1.580373499437e+01 -1.290751860664e+01 0.0 
8.344650507834e+00 -9.898403995170e+00 0.0 
3.750622115305e+01 -1.086526401533e+01 0.0 
3.699391251667e+01 -1.171695900794e+01 0.0 
3.606517829518e+01 -1.173717504500e+01 0.0 
3.650257641795e+01 -1.270047380221e+01 0.0 
3.808951488918e+01 -1.183518714175e+01 0.0 
4.760380962420e+00 -1.162484888315e+01 0.0 
3.861210370848e+00 -1.205657631736e+01 0.0 
3.038284309476e+00 -1.149851280664e+01 0.0 
2.961598794889e+00 -1.248856794980e+01 0.0 
2.138953225512e+00 -1.193212674534e+01 0.0 
2.227383593457e+00 -1.096258903918e+01 0.0 
2.043265419276e+00 -1.292158472959e+01 0.0 
1.252449446028e+00 -1.225502002753e+01 0.0 
3.949985210740e+01 -1.086594001795e+01 0.0 
1.453499444792e+01 -8.768805922472e-01 0.0 
1.403518950933e+01 -1.749965556633e+00 0.0 
1.300715031023e+01 -1.714737233040e+00 0.0 
1.350929389899e+01 -2.527443911291e+00 0.0 
1.449600910711e+01 -2.595486162864e+00 0.0 
1.395693872901e+01 -3.484211041558e+00 0.0 
1.495105865208e+01 -3.364609636216e+00 0.0 
1.508822528740e+01 -1.766586020494e+00 0.0 
1.250223858430e+01 -8.634590186802e-01 0.0 
1.200279523409e+01 -1.709044504992e+00 0.0 
1.150086239419e+01 -8.592789190668e-01 0.0 
1.101482754194e+01 -1.677730591922e+00 0.0 
1.148018564526e+01 -2.659323866909e+00 0.0 
8.800552119754e+00 -3.989875954728e+00 0.0 
3.452790439430e+00 -1.901136170646e+01 0.0 
8.658451825200e-01 -9.503462241795e+00 0.0 
1.694787786797e+00 -9.000589234502e+00 0.0 
1.703436717094e+00 -8.038819004041e+00 0.0 
2.594197971110e+00 -8.563955242845e+00 0.0 
1.630513735412e+00 -9.907244747511e+00 0.0 
8.566859292791e-01 -7.512203837972e+00 0.0 
1.685461277022e+00 -7.164280248030e+00 0.0 
2.506394468801e+00 -8.623386730818e-01 0.0 
2.007475081581e+00 -1.727729545205e+00 0.0 
9.211534699767e-01 -1.628791366312e+00 0.0 
1.500000000020e+00 -2.598063549486e+00 0.0 
2.482078929963e+00 -2.553580088725e+00 0.0 
2.999795253092e+00 -1.732169015019e+00 0.0 
3.999712607169e+00 -1.728832897453e+00 0.0 
4.499752199340e+00 -8.656478679175e-01 0.0 
4.964377774841e+00 -1.730129617941e+00 0.0 
4.425017908337e+00 -2.597541756243e+00 0.0 
5.446573195014e+00 -8.410144840023e-01 0.0 
4.915722346614e+01 -1.550640962770e+01 0.0 
4.826794919243e+01 -1.600000000000e+01 0.0 
1.053139533193e+01 -1.911782884365e+01 0.0 
4.156049861949e+01 -1.095160998589e+01 0.0 
9.494526624416e+00 -8.650570090219e-01 0.0 
4.555762166964e+01 -1.897098103585e+01 0.0 
4.250656411371e+01 -1.914387356218e+01 0.0 
4.350906466345e+01 -1.917234727395e+01 0.0 
8.759665722424e-01 -1.746422130609e+01 0.0 
1.698936011838e+00 -1.795012186674e+01 0.0 
4.742476811029e+01 -1.900090177972e+01 0.0 
7.749196752349e+00 -6.368049313489e+00 0.0 
3.361572113416e+01 -1.798765193915e+01 0.0 
4.484660149212e+01 -1.728661231383e+01 0.0 
1.984038172228e+01 -4.502575320116e+00 0.0 
1.035080352627e+01 -6.166639575753e+00 0.0 
2.753558010652e+00 -1.444909521181e+01 0.0 
7.217069543032e+00 -1.328635391078e+01 0.0 
4.364336727739e+00 -1.655585677381e+01 0.0 
4.595208426108e+00 -1.357919665443e+01 0.0 
6.164967006980e+00 -1.569873454630e+01 0.0 
1.487855768353e+01 -1.826523774028e+01 0.0 
2.791876456372e+00 -4.019632415181e+00 0.0 
4.246464893515e+01 -1.364898659620e+01 0.0 
4.503855590351e+01 -1.329552780944e+01 0.0 
4.407239109604e+01 -1.573900004093e+01 0.0 
5.141054449252e+00 -6.664290382472e+00 0.0 
3.141083947149e+00 -1.055790764912e+01 0.0 
6.196463198741e+00 -4.256497932609e+00 0.0 
2.599618716181e+01 -1.836893455464e+01 0.0 
2.923057372337e+01 -1.098461757645e+01 0.0 
1.168343877486e+01 -1.114079645041e+01 0.0 
6.706222096238e+00 -8.780364234441e+00 0.0 
8.567858614669e+00 -6.943121440850e+00 0.0 
1.123755132901e+01 -5.753525820030e+00 0.0 
2.353456234423e+01 -1.008536320953e+01 0.0 
9.162073319168e+00 -1.045593739109e+01 0.0 
9.676343469685e+00 -1.496493008366e+01 0.0 
4.490637882905e+01 -1.628778970202e+01 0.0 
7.398129387772e+00 -9.639977982323e-01 0.0 
1.049641705805e+01 -1.552503975272e+01 0.0 
9.010356286268e+00 -1.242805042052e+01 0.0 
3.985573925497e+01 -1.399863651620e+01 0.0 
1.816196318262e+01 -1.554066497931e+01 0.0 
1.306332244168e+01 -3.963646550326e+00 0.0 
4.145850903932e+01 -1.608094559275e+01 0.0 
3.794664933633e+01 -1.779020121986e+01 0.0 
3.819614412903e+01 -1.290749321016e+01 0.0 
6.270014188119e+00 -3.255093186826e+00 0.0 
4.251165370388e+01 -1.263870364997e+01 0.0 
1.207347709171e+01 -1.763942826023e+01 0.0 
3.633240829927e+01 -1.577330481104e+01 0.0 
4.319052668832e+00 -6.101812561904e+00 0.0 
1.676492415806e+01 -1.151547901392e+01 0.0 
2.594059220037e+01 -1.074225223009e+01 0.0 
3.340750911501e+01 -9.898764354137e+00 0.0 
4.397619591281e+01 -1.769773736461e+01 0.0 
2.175611595028e+01 -1.185718747128e+01 0.0 
1.641818733106e+01 -1.640685203215e+01 0.0 
1.661211421753e+01 -1.346121366338e+01 0.0 
3.428853504935e+00 -6.551993389271e+00 0.0 
8.700728832502e+00 -1.638460872825e+01 0.0 
1.931369795309e+01 -1.121629383702e+01 0.0 
4.139798872363e+01 -1.706922153459e+01 0.0 
2.647837478700e+01 -1.507353829290e+01 0.0 
1.779469616424e+01 -9.161615782908e+00 0.0 
3.885879219319e+01 -1.642026488918e+01 0.0 
1.338194936770e+01 -1.125916521471e+01 0.0 
1.897071181111e+01 -1.609204322578e+01 0.0 
2.844308548793e+01 -1.046221003096e+01 0.0 
2.659854702194e+01 -1.316109415760e+01 0.0 
2.979604503271e+01 -1.433296157755e+01 0.0 
2.417694041347e+01 -1.251231397779e+01 0.0 
1.807401327411e+00 -1.388891148480e+01 0.0 
9.599810618782e+00 -1.595439365034e+01 0.0 
1.652144692160e+01 -4.205392788472e+00 0.0 
2.367839450246e+01 -8.188385218643e+00 0.0 
3.814894930468e+01 -1.390748338767e+01 0.0 
2.466448215774e+01 -1.685878545680e+01 0.0 
4.134044524611e+01 -1.806610045954e+01 0.0 
2.600511411958e+01 -9.801774120648e+00 0.0 
7.882158050716e+00 -1.582364037353e+01 0.0 
3.881607873422e+01 -1.737970515013e+01 0.0 
8.270182347708e+00 -1.088622154920e+01 0.0 
8.672520392520e-01 -4.532984309881e+00 0.0 
1.993447205337e+01 -3.579061902667e+00 0.0 
1.794616079549e+01 -7.238038888498e+00 0.0 
2.097277068165e+01 -1.132450168636e+01 0.0 
8.194803300681e+00 -1.187214224265e+01 0.0 
3.522279404911e+01 -1.823342818178e+01 0.0 
6.984481050295e+00 -1.625271465557e+01 0.0 
1.309433007797e+01 -1.521718594215e+01 0.0 
2.150246167611e+01 -1.885399038185e+00 0.0 
3.250689370209e+01 -1.028789870535e+01 0.0 
6.085886272238e+00 -1.668342132851e+01 0.0 
1.588455661727e+01 -1.193498985921e+01 0.0 
1.809323400821e+01 -1.651110084195e+01 0.0 
1.348885082381e+00 -1.136065576512e+01 0.0 
2.497670221995e+01 -1.834631276173e+01 0.0 
2.937062818424e+01 -8.233711194470e+00 0.0 
5.185823744469e+00 -1.711566910207e+01 0.0 
1.477497877209e+01 -1.530177014512e+01 0.0 
2.125346158933e+01 -7.473003997367e+00 0.0 
4.751561118290e+01 -1.084897772632e+01 0.0 
5.056026576843e+00 -1.825750475525e+01 0.0 
1.473948554523e+01 -1.634577436309e+01 0.0 
2.410566630936e+01 -1.345970002612e+01 0.0 
1.507337507513e+01 -1.138527895328e+01 0.0 
3.189857338687e+01 -8.887781229006e+00 0.0 
7.298712468334e+00 -1.230231046246e+01 0.0 
2.738235495295e+01 -1.368931690364e+01 0.0 
3.750141041969e+01 -1.920449893070e+01 0.0 
1.557271965640e+01 -1.683317951731e+01 0.0 
3.393731848929e+01 -1.413034777044e+01 0.0 
6.482156824153e+00 -1.174575135362e+01 0.0 
2.077971718439e+01 -1.421279621836e+01 0.0 
3.455084320178e+00 -2.562590040585e+00 0.0 
3.099056096250e+01 -9.270280416035e+00 0.0 
5.580176125418e+00 -1.217387969259e+01 0.0 
1.707247630389e+01 -7.660651981710e+00 0.0 
1.418658814174e+01 -1.180390575393e+01 0.0 
2.049103025389e+01 -1.811296706038e+01 0.0 
4.680386172316e+00 -1.260396879301e+01 0.0 
1.699679896554e+01 -8.624561788199e+00 0.0 
3.779470168555e+00 -1.303424899720e+01 0.0 
3.036589870126e+01 -7.879832518349e+00 0.0 
3.306993001774e+01 -1.457671062095e+01 0.0 
2.840150110165e+00 -1.346530088269e+01 0.0 
2.732011135052e+01 -1.464591214560e+01 0.0 
5.423639259568e+00 -2.659711955016e+00 0.0 
2.324455961696e+01 -1.387269388211e+01 0.0 
1.752768355571e+00 -1.693128613594e+01 0.0 
1.020244783051e+01 -8.076834012808e+00 0.0 
1.330873875224e+01 -1.222417528206e+01 0.0 
3.297727364880e+01 -1.555480372087e+01 0.0 
2.890929955439e+01 -6.868664170731e+00 0.0 
1.323294664622e+01 -1.320754260334e+01 0.0 
2.726532861246e+01 -1.560593120806e+01 0.0 
2.240020643398e+01 -1.429299177247e+01 0.0 
2.090445823633e+01 -1.228128621332e+01 0.0 
1.315809881502e+01 -1.420739326938e+01 0.0 
2.781328038068e+01 -7.181956082300e+00 0.0 
8.614200829057e+00 -5.936933226306e+00 0.0 
8.714765730069e+00 -4.979270529687e+00 0.0 
1.611881701099e+01 -9.041973294003e+00 0.0 
2.806830314340e+01 -1.614622947108e+01 0.0 
2.084435391396e+00 -3.385085422913e+00 0.0 
3.133211811152e+01 -1.542347619750e+01 0.0 
9.693114650768e+00 -3.590281506442e+00 0.0 
1.531883592202e+01 -8.504584946143e+00 0.0 
2.151589117094e+01 -1.578915763018e+01 0.0 
4.918943882696e+01 -1.355538828056e+01 0.0 
1.443236615188e+01 -8.918701794549e+00 0.0 
8.276250966452e-01 -5.537685192197e+00 0.0 
1.362790867918e+01 -8.374718262212e+00 0.0 
2.083767477370e+01 -1.324843956035e+01 0.0 
1.273834678703e+01 -8.790890389337e+00 0.0 
1.192275845670e+01 -8.242261327467e+00 0.0 
4.477236023583e+01 -1.824312396664e+01 0.0 
1.102989384254e+01 -8.649855800911e+00 0.0 
4.849096516045e+01 -1.917293752213e+01 0.0 
1.588996752238e+00 -1.910230934687e+01 0.0 
4.904245197583e+01 -1.159839008158e+01 0.0 
2.753852929608e+01 -5.782128488093e+00 0.0 
1.756133602833e+01 -8.306130313187e-01 0.0 
2.615423700951e+01 -6.153865090092e+00 0.0 
1.028818761294e+01 -7.122020845892e+00 0.0 
2.970818901196e+01 -1.527821347593e+01 0.0 
4.801461623449e+01 -1.164472570985e+01 0.0 
9.455722100419e+00 -6.546069291118e+00 0.0 
3.089099236677e+01 -1.835339328261e+01 0.0 
2.350000000013e+01 -1.920825896750e+01 0.0 
4.830620531887e+01 -1.506626155470e+01 0.0 
1.725381944701e+01 -1.688794487850e+01 0.0 
2.156246225273e+01 -1.475893794002e+01 0.0 
4.919319648787e+01 -1.742767505896e+01 0.0 
4.437935623576e+01 -1.077662927266e+01 0.0 
1.001520521978e+01 -1.652692675208e+00 0.0 
9.067160240050e-01 -1.441937727541e+01 0.0 
2.603365149390e+01 -4.755996613848e+00 0.0 
2.458344439002e+01 -4.873645517696e+00 0.0 
2.304312390142e+01 -3.836552768096e+00 0.0 
2.546923202198e+00 -6.902480355749e+00 0.0 
1.251534969393e+01 -2.490989965776e+00 0.0 
2.454061833377e+01 -3.933354231935e+00 0.0 
1.788186558740e+01 -1.827424884923e+01 0.0 
4.090785243552e+01 -1.166553231904e+01 0.0 
2.230128851568e+01 -1.623015738726e+01 0.0 
2.302362347568e+01 -2.916239960270e+00 0.0 
3.878119254461e+01 -1.830091164002e+01 0.0 
2.210081359958e+01 -1.829238229150e+01 0.0 
8.443704882233e+00 -1.921993252862e+01 0.0 
2.218405824691e+01 -1.724557581508e+01 0.0 
2.151157503963e+01 -2.790636689331e+00 0.0 
3.741658958955e+01 -1.250400191722e+01 0.0 
2.697247663737e+01 -1.838290202309e+01 0.0 
4.743362342862e+01 -1.585850773010e+01 0.0 
6.671345075358e+00 -1.924977576322e+01 0.0 
3.900825404537e+01 -1.157220003875e+01 0.0 
4.649692961375e+01 -1.836335837481e+01 0.0 
1.578831424832e+01 -3.678284023361e+00 0.0 
4.814208768888e+01 -1.841249298770e+01 0.0 
2.964123298315e+01 -1.625739458193e+01 0.0 
4.580760351902e+01 -1.284294554687e+01 0.0 
3.561520879615e+01 -1.245548941949e+01 0.0 
2.555418095658e+00 -1.841101588290e+01 0.0 
3.288468366144e+01 -1.834258164109e+01 0.0 
2.065894391445e+01 -2.240688571739e+00 0.0 
4.739171429915e+01 -1.496536413446e+01 0.0 
3.478086729185e+00 -8.576434653209e+00 0.0 
1.606010630246e+01 -1.588421807951e+00 0.0 
1.018329200594e+01 -1.834320874317e+01 0.0 
2.957213339430e+01 -1.720496954591e+01 0.0 
4.142712790164e+00 -1.837794506222e+01 0.0 
6.698721532573e-01 -2.499999999997e+00 0.0 
8.037039123140e+00 -1.571229354954e+00 0.0 
1.203541361428e+01 -1.847784298001e+01 0.0 
2.899968332038e+01 -1.848264722179e+01 0.0 
1.469229460948e+01 -4.219485753730e+00 0.0 
4.049590781957e+01 -1.932812501995e+01 0.0 
1.996211678340e+01 -1.506329754720e+00 0.0 
4.250588298353e+01 -1.067383247529e+01 0.0 
5.831497011152e+00 -1.635396227234e+00 0.0 
5.317606125670e+00 -1.923927974868e+01 0.0 
4.208546426993e+01 -1.842830665025e+01 0.0 
2.327553405011e+00 -9.459409929662e+00 0.0 
3.568351902251e+01 -1.096637218582e+01 0.0 
1.682104374890e+00 -6.231413350963e+00 0.0 
2.451812238018e+01 -1.766524914339e+01 0.0 
1.058003429638e+01 -2.391839617098e+00 0.0 
4.399988753123e+01 -1.851998776342e+01 0.0 
1.400000000010e+01 -1.852293523028e+01 0.0 
3.604719565984e+01 -1.850662876800e+01 0.0 
1.951297136734e+01 -1.938092349694e+01 0.0 
1.821365318472e+01 -1.531276353287e+00 0.0 
2.298031859732e+01 -1.854635324722e+01 0.0 
1.552168066204e+01 -1.764280741977e+01 0.0 
4.572957713638e+01 -1.073347898229e+01 0.0 
3.429637429624e+01 -1.838861552790e+01 0.0 
2.427434426052e+00 -7.705577451869e+00 0.0 
4.662792031485e+00 -3.359424455416e+00 0.0 
4.926794919243e+01 -1.926794919243e+01 0.0 
7.320508075690e-01 -7.320508075688e-01 0.0 
4.926794919243e+01 -1.073205080757e+01 0.0 
7.320508075705e-01 -1.926794919243e+01 0.0 
2.917460242467e+00 -3.202866455310e+00 0.0 
4.838200575963e+01 -1.232674147454e+01 0.0 
2.998445708009e+01 -1.854403752148e+01 0.0 
5.949940090766e-01 -1.152762038165e+01 0.0 
4.844763495759e+01 -1.678092548787e+01 0.0 
1.301685480160e+01 -3.170056592566e+00 0.0 
1.650046335855e+01 -6.731535384067e-01 0.0 
4.854881540991e+01 -1.405224059779e+01 0.0 
2.119545114693e+01 -1.846813384545e+01 0.0 
3.797852849897e+01 -1.857978513215e+01 0.0 
4.649823708745e+01 -1.338351810816e+01 0.0 
2.012685900976e+01 -2.889659035009e+00 0.0 
2.953271913273e+01 -1.791558075192e+01 0.0 
2.408509097292e+00 -1.021949208421e+01 0.0 
2.642589566221e+01 -1.773216561448e+01 0.0 
1.730010270775e+01 -1.763165076721e+01 0.0 
2.017406551304e+01 -8.513536440582e-01 0.0 
5.254761581934e-01 -1.249999999999e+01 0.0 
6.640448215642e+00 -1.545337834885e+00 0.0 
7.843361506349e+00 -1.852719839527e+01 0.0 
1.588442191088e+00 -1.066158564320e+01 0.0 
2.280866189488e+01 -1.416779325160e+00 0.0 
4.950862068966e+01 -1.500000000000e+00 0.0 
2.431250000000e+01 -2.420918367347e+00 0.0 
4.950961538461e+01 -2.500000000000e+00 0.0 
2.580823483239e+01 -3.416278049680e+00 0.0 
4.950961538461e+01 -3.500000000000e+00 0.0 
2.731250000000e+01 -4.420918367347e+00 0.0 
4.951086956522e+01 -4.500000000000e+00 0.0 
2.880770112393e+01 -5.415638864241e+00 0.0 
4.951086956522e+01 -5.500000000000e+00 0.0 
3.031250000000e+01 -6.420918367347e+00 0.0 
4.951250000000e+01 -6.500000000000e+00 0.0 
3.180701530612e+01 -7.414795918363e+00 0.0 
4.951250000000e+01 -7.500000000000e+00 0.0 
3.331250000000e+01 -8.420918367347e+00 0.0 
4.951470588234e+01 -8.500000000000e+00 0.0 
3.480610198624e+01 -9.413633635267e+00 0.0 
4.951470588234e+01 -9.500000000000e+00 0.0 

CELLS 2360 9440 
3 384 854 1130 
3 854 384 1132 
3 864 357 875 
3 977 742 1166 
3 744 804 970 
3 834 747 873 
3 364 786 788 
3 384 811 1132 
3 786 364 804 
3 737 972 1166 
3 356 931 932 
3 811 384 1146 
3 976 1128 1172 
3 793 924 1014 
3 1128 390 1172 
3 383 977 1166 
3 792 363 933 
3 747 834 872 
3 371 791 1113 
3 791 371 1051 
3 972 737 1125 
3 1102 348 1108 
3 829 1102 1108 
3 779 778 988 
3 478 634 923 
3 931 356 1040 
3 114 82 1193 
3 823 349 1065 
3 476 478 923 
3 988 778 1198 
3 728 938 940 
3 381 794 971 
3 864 875 1173 
3 19 369 844 
3 379 798 800 
3 807 66 1164 
3 66 807 1190 
3 826 375 870 
3 790 105 1143 
3 105 790 1204 
3 1066 808 1092 
3 344 830 969 
3 1147 345 1151 
3 82 393 1193 
3 785 392 1142 
3 824 1147 1151 
3 938 728 941 
3 392 785 1168 
3 934 935 941 
3 924 793 1165 
3 386 829 1066 
3 776 791 1051 
3 554 1167 1185 
3 386 1066 1092 
3 876 358 1056 
3 1149 721 1194 
3 776 1051 1120 
3 369 814 844 
3 637 965 1083 
3 972 383 1166 
3 343 1177 1218 
3 1157 783 1159 
3 603 631 837 
3 1167 940 1185 
3 948 767 1172 
3 829 386 1102 
3 1177 787 1218 
3 357 864 1137 
3 664 625 946 
3 353 812 878 
3 1040 983 1094 
3 33 32 832 
3 823 1065 1195 
3 4 5 958 
3 955 1149 1194 
3 795 360 1046 
3 876 1056 1205 
3 843 1148 1155 
3 965 637 1207 
3 1148 385 1155 
3 625 638 946 
3 363 792 1153 
3 348 854 1108 
3 854 348 1130 
3 804 744 1016 
3 786 804 1016 
3 815 1040 1145 
3 18 19 844 
3 869 866 1114 
3 744 970 1153 
3 971 794 1144 
3 395 922 1193 
3 968 1139 1163 
3 1163 1139 1175 
3 361 33 832 
3 870 375 1200 
3 792 933 1165 
3 969 830 1178 
3 389 821 1118 
3 837 631 838 
3 970 804 1188 
3 390 948 1172 
3 551 1117 1141 
3 782 1157 1159 
3 672 670 848 
3 935 938 941 
3 975 976 1098 
3 741 968 1163 
3 343 934 941 
3 1071 366 1190 
3 516 869 1114 
3 4 958 1209 
3 739 835 871 
3 706 1022 1060 
3 750 952 1176 
3 810 837 838 
3 605 603 837 
3 379 800 1158 
3 821 389 1213 
3 809 605 837 
3 840 770 1115 
3 393 395 1193 
3 968 741 1216 
3 605 809 848 
3 1160 1059 1174 
3 825 1075 1084 
3 952 750 1206 
3 1075 350 1084 
3 360 795 1186 
3 772 1160 1174 
3 931 1040 1094 
3 742 977 1168 
3 679 736 836 
3 350 808 1084 
3 798 379 1178 
3 976 733 1128 
3 815 983 1040 
3 836 736 1036 
3 780 908 1198 
3 712 828 836 
3 762 973 974 
3 812 353 1184 
3 1014 924 1161 
3 621 593 842 
3 828 679 836 
3 808 350 1092 
3 736 874 1036 
3 848 674 1043 
3 364 788 1143 
3 835 470 871 
3 794 381 1182 
3 1129 1135 1213 
3 959 371 1113 
3 387 825 1060 
3 908 780 917 
3 809 672 848 
3 844 815 1145 
3 811 345 1147 
3 1117 777 1141 
3 370 816 817 
3 831 470 835 
3 814 369 1098 
3 664 840 1115 
3 976 735 1098 
3 851 724 879 
3 366 1071 1180 
3 1129 734 1135 
3 670 674 848 
3 1022 387 1060 
3 356 932 1229 
3 345 811 1146 
3 470 831 845 
3 593 644 842 
3 816 370 1204 
3 674 835 1043 
3 825 387 1075 
3 718 907 1112 
3 952 653 1176 
3 349 823 1138 
3 878 812 1162 
3 810 838 1132 
3 653 952 1192 
3 895 1025 1079 
3 828 712 1066 
3 811 810 1132 
3 851 706 1060 
3 835 739 1043 
3 359 972 1125 
3 482 891 1101 
3 369 975 1098 
3 824 385 1148 
3 680 845 1069 
3 866 891 1114 
3 81 115 833 
3 712 808 1066 
3 1068 740 1072 
3 964 1096 1189 
3 979 372 1205 
3 477 402 884 
3 1099 458 1126 
3 588 1068 1072 
3 922 395 1171 
3 923 634 1161 
3 778 780 1198 
3 1109 1000 1136 
3 846 417 874 
3 676 566 879 
3 483 477 884 
3 673 851 879 
3 724 851 1060 
3 622 1082 1122 
3 907 756 1112 
3 833 367 834 
3 838 854 1132 
3 838 631 853 
3 736 846 874 
3 891 861 1101 
3 747 746 1052 
3 740 839 1058 
3 790 816 1204 
3 845 831 1069 
3 536 1058 1107 
3 796 1006 1230 
3 882 483 884 
3 1006 352 1230 
3 964 965 1096 
3 385 824 1151 
3 1109 752 1110 
3 856 483 882 
3 752 751 1110 
3 732 841 847 
3 558 939 1011 
3 770 947 1115 
3 1025 588 1079 
3 724 676 879 
3 767 948 1180 
3 115 367 833 
3 641 671 847 
3 431 470 845 
3 829 828 1066 
3 839 740 1068 
3 807 1071 1190 
3 1093 482 1101 
3 540 522 877 
3 588 1072 1079 
3 1040 356 1145 
3 874 484 1036 
3 883 884 1080 
3 783 1157 1202 
3 431 845 852 
3 671 732 847 
3 401 673 849 
3 832 32 1186 
3 417 846 1021 
3 890 433 1029 
3 817 816 818 
3 946 638 1150 
3 673 850 851 
3 640 540 877 
3 746 880 981 
3 728 940 1167 
3 483 856 1018 
3 566 849 879 
3 605 848 1043 
3 856 695 1018 
3 891 482 1114 
3 484 855 997 
3 351 805 1164 
3 681 890 1029 
3 409 675 855 
3 739 871 1002 
3 681 889 890 
3 523 539 880 
3 921 362 922 
3 435 432 852 
3 552 903 904 
3 883 1093 1101 
3 115 116 367 
3 673 399 850 
3 522 520 877 
3 596 641 847 
3 525 523 880 
3 404 401 849 
3 794 840 1144 
3 632 722 853 
3 681 888 889 
3 849 673 879 
3 921 922 923 
3 642 747 872 
3 552 904 906 
3 553 556 903 
3 838 853 854 
3 883 1080 1093 
3 631 632 853 
3 518 435 852 
3 845 680 852 
3 642 746 747 
3 871 427 1002 
3 771 841 843 
3 37 358 876 
3 39 372 875 
3 418 417 1021 
3 539 522 540 
3 595 596 654 
3 410 409 855 
3 539 540 595 
3 552 553 903 
3 484 997 1036 
3 973 762 1191 
3 877 680 1069 
3 1082 738 1122 
3 771 654 841 
3 376 57 896 
3 595 540 596 
3 415 484 874 
3 642 546 746 
3 918 611 1026 
3 432 431 852 
3 556 900 903 
3 675 566 676 
3 42 897 898 
3 520 518 680 
3 681 509 888 
3 655 654 771 
3 886 571 1009 
3 1058 839 1107 
3 671 672 730 
3 745 886 1009 
3 374 45 878 
3 648 740 1058 
3 41 357 897 
3 1014 634 1044 
3 869 516 1134 
3 732 730 824 
3 677 676 709 
3 409 566 675 
3 409 407 566 
3 485 1021 1047 
3 349 47 881 
3 476 923 1171 
3 850 706 851 
3 680 518 852 
3 751 947 1110 
3 709 724 825 
3 671 670 672 
3 370 817 1070 
3 556 899 900 
3 520 680 877 
3 860 882 883 
3 641 670 671 
3 675 676 677 
3 509 511 888 
3 684 911 998 
3 50 373 887 
3 712 710 808 
3 524 526 906 
3 765 1099 1126 
3 731 810 811 
3 730 672 731 
3 866 863 891 
3 415 413 484 
3 722 828 829 
3 677 709 710 
3 54 375 892 
3 375 826 1152 
3 863 861 891 
3 883 882 884 
3 911 451 998 
3 603 604 631 
3 523 522 539 
3 521 520 522 
3 417 415 874 
3 698 918 1026 
3 466 912 913 
3 859 857 860 
3 526 552 906 
3 600 485 601 
3 855 675 997 
3 602 601 603 
3 357 40 875 
3 372 38 876 
3 372 979 1173 
3 684 910 911 
3 695 597 1018 
3 671 730 732 
3 519 518 520 
3 746 546 880 
3 632 679 722 
3 920 921 924 
3 886 1014 1044 
3 896 894 988 
3 867 866 869 
3 401 399 673 
3 408 407 409 
3 546 525 880 
3 943 945 946 
3 470 429 871 
3 423 421 485 
3 429 427 871 
3 340 1059 1160 
3 817 818 819 
3 947 751 1115 
3 596 640 641 
3 57 56 896 
3 530 532 622 
3 394 706 850 
3 371 959 1181 
3 1021 846 1047 
3 431 429 470 
3 407 404 849 
3 353 43 898 
3 709 676 724 
3 413 410 855 
3 466 913 919 
3 857 856 882 
3 684 909 910 
3 44 353 878 
3 41 40 357 
3 37 36 358 
3 39 38 372 
3 406 404 407 
3 860 857 882 
3 865 863 866 
3 603 601 604 
3 631 604 632 
3 915 912 999 
3 859 860 861 
3 46 374 881 
3 774 695 856 
3 888 622 889 
3 774 856 857 
3 615 613 916 
3 423 485 600 
3 722 679 828 
3 595 654 655 
3 361 832 1156 
3 602 603 605 
3 996 715 1065 
3 912 466 999 
3 557 560 899 
3 376 896 988 
3 641 669 670 
3 42 41 897 
3 372 876 1205 
3 414 413 415 
3 943 944 945 
3 44 43 353 
3 341 892 893 
3 556 557 899 
3 511 530 888 
3 347 51 887 
3 123 342 944 
3 600 601 602 
3 412 410 413 
3 416 415 417 
3 484 413 855 
3 654 596 847 
3 46 45 374 
3 517 435 518 
3 643 642 872 
3 805 351 1231 
3 944 342 945 
3 711 710 712 
3 938 939 940 
3 825 724 1060 
3 341 55 892 
3 48 47 349 
3 566 407 849 
3 935 937 938 
3 784 643 872 
3 938 937 939 
3 1028 726 1041 
3 920 362 921 
3 396 394 850 
3 50 49 373 
3 378 920 924 
3 358 36 885 
3 618 615 916 
3 745 793 886 
3 731 809 810 
3 530 622 888 
3 746 981 1052 
3 52 51 347 
3 40 39 875 
3 38 37 876 
3 684 492 909 
3 487 489 915 
3 423 600 1002 
3 492 494 909 
3 54 53 375 
3 596 540 640 
3 903 902 904 
3 900 901 902 
3 635 745 1009 
3 58 376 908 
3 935 936 937 
3 56 55 341 
3 899 764 900 
3 43 42 898 
3 865 866 867 
3 122 123 944 
3 600 739 1002 
3 694 597 695 
3 45 44 878 
3 406 407 408 
3 661 618 662 
3 655 771 772 
3 894 893 895 
3 656 763 764 
3 900 764 901 
3 934 377 935 
3 47 46 881 
3 880 539 981 
3 648 696 740 
3 745 792 793 
3 982 714 1001 
3 900 902 903 
3 408 409 410 
3 51 50 887 
3 489 591 915 
3 500 536 606 
3 420 418 421 
3 759 652 760 
3 904 902 905 
3 909 606 910 
3 421 418 1021 
3 757 614 1031 
3 530 531 532 
3 422 421 423 
3 459 461 919 
3 641 640 669 
3 487 915 999 
3 662 618 916 
3 486 509 681 
3 56 341 896 
3 773 695 774 
3 657 982 1001 
3 55 54 892 
3 341 893 894 
3 428 427 429 
3 935 377 936 
3 59 908 917 
3 858 857 859 
3 560 656 899 
3 58 57 376 
3 494 500 909 
3 632 678 679 
3 399 396 850 
3 486 681 1029 
3 490 684 998 
3 652 611 918 
3 884 402 1080 
3 711 836 1036 
3 532 550 551 
3 819 818 820 
3 461 466 919 
3 511 513 530 
3 656 713 763 
3 683 505 984 
3 121 122 942 
3 670 669 674 
3 656 764 899 
3 912 754 913 
3 426 424 427 
3 500 606 909 
3 635 743 745 
3 560 623 656 
3 59 58 908 
3 412 413 414 
3 682 753 754 
3 414 415 416 
3 682 754 912 
3 942 122 944 
3 398 396 399 
3 951 950 952 
3 352 128 966 
3 591 646 682 
3 500 535 536 
3 980 650 1005 
3 760 918 1062 
3 760 652 918 
3 394 354 706 
3 378 112 920 
3 775 885 1078 
3 416 417 418 
3 128 129 966 
3 770 690 947 
3 936 942 943 
3 752 1109 1136 
3 668 718 1112 
3 748 980 1005 
3 545 1028 1041 
3 469 467 978 
3 507 505 683 
3 648 659 696 
3 565 546 642 
3 382 950 951 
3 355 954 955 
3 344 60 917 
3 60 59 917 
3 950 949 953 
3 682 646 753 
3 490 492 684 
3 696 778 779 
3 690 609 947 
3 543 628 648 
3 964 962 965 
3 591 682 915 
3 913 754 914 
3 368 961 962 
3 382 949 950 
3 694 695 773 
3 129 130 963 
3 113 362 920 
3 113 114 362 
3 611 515 1026 
3 355 10 954 
3 656 623 713 
3 841 654 847 
3 801 799 802 
3 881 374 996 
3 685 579 1012 
3 731 672 809 
3 794 770 840 
3 677 710 711 
3 109 363 970 
3 108 109 970 
3 129 963 966 
3 963 962 964 
3 957 959 960 
3 533 474 608 
3 368 956 961 
3 949 346 953 
3 343 119 934 
3 474 469 978 
3 822 820 842 
3 111 112 378 
3 718 813 907 
3 494 499 500 
3 819 820 821 
3 10 11 954 
3 957 960 961 
3 30 29 973 
3 360 30 973 
3 745 743 792 
3 363 110 933 
3 954 951 955 
3 28 359 974 
3 608 474 978 
3 112 113 920 
3 111 378 933 
3 709 825 1084 
3 36 35 885 
3 973 29 974 
3 368 962 963 
3 130 368 963 
3 769 690 770 
3 913 914 1050 
3 975 733 976 
3 118 119 343 
3 380 967 968 
3 120 377 934 
3 651 611 652 
3 120 121 377 
3 119 120 934 
3 758 652 759 
3 704 767 768 
3 821 820 822 
3 997 711 1036 
3 956 957 961 
3 506 507 986 
3 25 24 977 
3 383 25 977 
3 110 111 933 
3 587 515 611 
3 29 28 974 
3 661 662 777 
3 957 958 959 
3 956 391 957 
3 957 391 958 
3 11 12 382 
3 390 69 948 
3 80 79 392 
3 132 391 956 
3 13 346 949 
3 70 69 390 
3 68 366 948 
3 61 344 969 
3 76 365 967 
3 78 77 380 
3 69 68 948 
3 68 67 366 
3 380 77 967 
3 132 133 391 
3 106 107 364 
3 109 110 363 
3 368 131 956 
3 65 64 351 
3 379 62 969 
3 63 62 379 
3 131 132 956 
3 130 131 368 
3 61 60 344 
3 62 61 969 
3 76 75 365 
3 103 104 370 
3 77 76 967 
3 74 73 389 
3 101 102 734 
3 127 128 352 
3 125 126 381 
3 124 125 971 
3 123 124 342 
3 13 14 346 
3 12 13 949 
3 125 381 971 
3 16 17 356 
3 342 124 971 
3 34 33 361 
3 28 27 359 
3 31 30 360 
3 6 7 371 
3 9 10 355 
3 27 26 972 
3 19 20 369 
3 26 25 383 
3 20 21 975 
3 21 22 733 
3 382 12 949 
3 359 27 972 
3 26 383 972 
3 369 20 975 
3 21 733 975 
3 598 599 983 
3 377 121 942 
3 489 590 591 
3 963 964 966 
3 801 802 803 
3 682 912 915 
3 564 548 985 
3 533 608 609 
3 1096 797 1189 
3 704 768 985 
3 591 592 646 
3 382 951 954 
3 548 610 985 
3 741 742 785 
3 11 382 954 
3 536 535 543 
3 498 496 549 
3 598 547 599 
3 666 598 983 
3 517 518 519 
3 711 712 836 
3 427 424 1002 
3 506 505 507 
3 610 703 704 
3 814 666 815 
3 657 751 752 
3 729 650 737 
3 645 594 650 
3 790 789 816 
3 504 502 505 
3 547 506 986 
3 741 729 742 
3 645 729 741 
3 549 496 1008 
3 704 735 767 
3 607 579 685 
3 814 815 844 
3 805 803 806 
3 737 650 980 
3 584 582 585 
3 500 499 535 
3 544 626 627 
3 563 649 657 
3 769 770 794 
3 936 377 942 
3 645 650 729 
3 704 703 735 
3 943 942 944 
3 862 861 863 
3 788 688 789 
3 534 548 564 
3 610 666 703 
3 713 714 765 
3 703 666 814 
3 788 789 790 
3 530 513 531 
3 805 806 807 
3 776 658 791 
3 800 799 801 
3 593 585 594 
3 627 658 721 
3 657 752 982 
3 929 927 930 
3 581 583 687 
3 468 472 487 
3 644 594 645 
3 584 593 621 
3 753 646 925 
3 815 666 983 
3 610 598 666 
3 593 594 644 
3 586 538 624 
3 646 592 647 
3 619 705 781 
3 585 992 1005 
3 591 590 592 
3 498 549 984 
3 798 726 799 
3 584 585 593 
3 727 643 784 
3 701 796 797 
3 527 525 546 
3 610 704 985 
3 583 582 584 
3 931 929 932 
3 687 688 786 
3 648 628 659 
3 925 647 926 
3 548 598 610 
3 627 626 658 
3 801 803 805 
3 646 647 925 
3 721 658 776 
3 647 592 994 
3 487 488 489 
3 473 469 474 
3 928 929 931 
3 127 352 1006 
3 381 126 1006 
3 599 547 986 
3 544 586 626 
3 504 505 506 
3 505 502 984 
3 461 465 466 
3 560 561 623 
3 607 685 686 
3 873 747 1223 
3 489 589 590 
3 696 659 778 
3 626 586 637 
3 687 583 688 
3 786 688 788 
3 689 609 690 
3 725 692 726 
3 578 576 579 
3 544 538 586 
3 761 685 1030 
3 686 685 761 
3 481 538 544 
3 810 809 837 
3 475 474 533 
3 548 547 598 
3 926 927 928 
3 774 857 858 
3 607 686 748 
3 534 506 547 
3 504 506 534 
3 533 609 689 
3 534 547 548 
3 578 579 580 
3 928 927 929 
3 581 582 583 
3 580 579 607 
3 433 434 1029 
3 992 748 1005 
3 592 653 994 
3 926 647 927 
3 589 488 749 
3 463 460 464 
3 581 580 582 
3 455 457 490 
3 473 475 481 
3 701 690 769 
3 578 580 581 
3 473 474 475 
3 798 799 800 
3 585 582 992 
3 534 564 987 
3 341 894 896 
3 592 590 653 
3 481 475 538 
3 689 690 701 
3 503 502 504 
3 584 621 991 
3 701 769 796 
3 487 472 488 
3 791 658 989 
3 581 687 990 
3 489 488 589 
3 502 498 984 
3 589 749 750 
3 650 594 1005 
3 472 469 473 
3 497 501 545 
3 657 649 751 
3 501 498 502 
3 930 927 994 
3 503 504 987 
3 904 905 1086 
3 658 626 989 
3 789 688 991 
3 651 652 758 
3 601 485 1047 
3 583 584 991 
3 563 657 1001 
3 575 577 635 
3 626 637 989 
3 802 799 1028 
3 587 611 651 
3 532 531 550 
3 686 761 762 
3 490 491 492 
3 624 538 995 
3 495 493 496 
3 725 726 798 
3 713 623 714 
3 504 534 987 
3 582 580 992 
3 557 559 560 
3 497 496 498 
3 743 636 744 
3 627 721 1027 
3 468 469 472 
3 420 421 422 
3 501 502 503 
3 632 604 678 
3 422 423 424 
3 577 576 578 
3 688 583 991 
3 635 636 743 
3 927 647 994 
3 665 567 692 
3 492 493 494 
3 687 786 1016 
3 864 863 865 
3 551 550 619 
3 497 498 501 
3 580 607 992 
3 461 463 465 
3 465 467 468 
3 533 689 995 
3 494 495 499 
3 468 487 999 
3 577 578 990 
3 635 577 636 
3 437 439 486 
3 978 467 1000 
3 519 520 521 
3 468 467 469 
3 465 463 467 
3 475 533 995 
3 543 567 628 
3 456 454 458 
3 607 748 992 
3 452 454 455 
3 494 493 495 
3 490 457 491 
3 426 427 428 
3 538 475 995 
3 665 692 725 
3 665 725 830 
3 612 614 757 
3 461 460 463 
3 492 491 493 
3 578 581 990 
3 466 465 999 
3 600 602 739 
3 472 473 993 
3 623 561 1001 
3 459 460 461 
3 473 481 993 
3 544 627 1019 
3 491 457 691 
3 495 496 497 
3 630 667 668 
3 126 127 1006 
3 448 446 449 
3 452 450 453 
3 459 458 460 
3 636 577 990 
3 455 456 457 
3 488 472 993 
3 456 458 459 
3 594 585 1005 
3 749 488 993 
3 701 797 1015 
3 995 689 1015 
3 714 623 1001 
3 463 464 1000 
3 448 450 451 
3 455 454 456 
3 563 625 649 
3 624 995 1015 
3 886 793 1014 
3 993 481 1019 
3 543 535 567 
3 616 629 630 
3 400 399 401 
3 639 573 660 
3 668 717 718 
3 434 437 1029 
3 614 616 1031 
3 561 562 563 
3 459 919 1003 
3 430 429 431 
3 553 555 556 
3 625 562 638 
3 465 468 999 
3 452 453 454 
3 451 450 452 
3 749 993 1019 
3 455 490 998 
3 448 449 450 
3 444 446 447 
3 467 463 1000 
3 514 512 515 
3 575 576 577 
3 444 442 445 
3 628 567 665 
3 560 559 561 
3 778 659 780 
3 451 452 998 
3 718 812 813 
3 411 410 412 
3 561 563 1001 
3 403 401 404 
3 693 597 694 
3 451 911 1034 
3 674 831 835 
3 405 404 406 
3 485 421 1021 
3 563 562 625 
3 795 766 832 
3 649 625 664 
3 826 720 827 
3 980 748 1023 
3 537 515 587 
3 990 687 1016 
3 574 573 639 
3 447 446 448 
3 486 508 509 
3 723 660 766 
3 497 545 1004 
3 572 574 575 
3 651 758 839 
3 561 559 562 
3 572 570 573 
3 881 996 1065 
3 665 830 1017 
3 456 459 1003 
3 636 990 1016 
3 744 636 1016 
3 452 455 998 
3 499 495 1004 
3 535 499 1007 
3 689 701 1015 
3 521 522 523 
3 440 442 443 
3 444 445 446 
3 424 423 1002 
3 723 766 795 
3 859 861 862 
3 748 686 1023 
3 679 678 736 
3 569 541 597 
3 495 497 1004 
3 761 1030 1046 
3 542 570 571 
3 457 456 1003 
3 440 438 441 
3 572 573 574 
3 639 660 723 
3 579 576 1012 
3 575 574 576 
3 726 692 1041 
3 719 633 720 
3 692 567 1007 
3 496 493 1008 
3 808 710 1084 
3 514 537 568 
3 479 477 483 
3 481 544 1019 
3 443 442 444 
3 760 1062 1074 
3 509 510 511 
3 526 528 552 
3 440 441 442 
3 511 512 513 
3 677 711 997 
3 691 457 1003 
3 571 886 1044 
3 804 364 1188 
3 84 331 340 
3 493 491 1008 
3 537 587 588 
3 858 859 979 
3 486 439 508 
3 491 691 1008 
3 575 635 1009 
3 85 332 385 
3 514 515 537 
3 510 508 698 
3 675 677 997 
3 499 1004 1007 
3 556 555 557 
3 567 535 1007 
3 659 628 1017 
3 513 512 514 
3 576 574 1012 
3 620 618 661 
3 628 665 1017 
3 86 333 345 
3 571 572 1009 
3 781 705 782 
3 574 639 1012 
3 511 510 512 
3 439 438 440 
3 1081 753 1085 
3 565 642 643 
3 685 1012 1030 
3 1019 627 1027 
3 87 334 384 
3 617 615 618 
3 686 762 1023 
3 557 558 559 
3 419 418 420 
3 571 570 572 
3 1050 914 1055 
3 552 528 553 
3 674 669 831 
3 638 562 1011 
3 557 555 558 
3 559 558 1011 
3 509 508 510 
3 885 35 1078 
3 88 335 348 
3 799 726 1028 
3 436 435 517 
3 480 542 1044 
3 527 546 565 
3 780 659 1017 
3 562 559 1011 
3 750 749 1027 
3 531 513 1010 
3 448 451 1034 
3 619 633 705 
3 602 605 1043 
3 479 483 1018 
3 719 720 826 
3 572 575 1009 
3 859 862 979 
3 570 569 1033 
3 569 597 693 
3 539 595 981 
3 802 1028 1048 
3 542 569 570 
3 433 890 1054 
3 89 336 386 
3 719 826 870 
3 524 523 525 
3 749 1019 1027 
3 619 550 633 
3 371 7 1051 
3 425 424 426 
3 514 568 1010 
3 693 694 1013 
3 694 773 775 
3 513 514 1010 
3 660 573 1033 
3 434 432 435 
3 616 630 1031 
3 90 337 350 
3 865 867 868 
3 91 338 387 
3 339 91 1022 
3 437 486 1029 
3 82 339 354 
3 707 462 708 
3 428 429 430 
3 440 443 1020 
3 553 528 554 
3 437 438 439 
3 639 723 1030 
3 862 863 864 
3 545 501 1048 
3 705 633 719 
3 447 448 1034 
3 569 693 1033 
3 439 440 1020 
3 803 802 1057 
3 573 570 1033 
3 597 541 1018 
3 515 512 1026 
3 434 436 437 
3 630 629 667 
3 408 410 411 
3 553 554 555 
3 524 525 526 
3 739 602 1043 
3 416 418 419 
3 806 803 1061 
3 542 541 569 
3 437 436 438 
3 612 757 1037 
3 568 537 1025 
3 1012 639 1030 
3 668 667 717 
3 634 480 1044 
3 740 696 1072 
3 508 439 1020 
3 537 588 1025 
3 422 424 425 
3 766 660 1049 
3 718 717 812 
3 510 698 1026 
3 526 525 527 
3 620 661 663 
3 425 462 700 
3 434 435 436 
3 512 510 1026 
3 543 648 1058 
3 526 527 528 
3 698 508 1020 
3 403 404 405 
3 806 1061 1067 
3 405 406 516 
3 617 618 620 
3 400 401 403 
3 397 396 398 
3 411 412 471 
3 720 633 1035 
3 1028 545 1048 
3 480 541 542 
3 694 775 1013 
3 398 399 400 
3 517 519 697 
3 620 663 716 
3 1030 723 1046 
3 426 428 1024 
3 425 426 462 
3 436 517 1032 
3 541 479 1018 
3 678 604 1047 
3 707 708 738 
3 604 601 1047 
3 550 531 1035 
3 716 783 823 
3 441 438 1032 
3 565 643 699 
3 773 774 1056 
3 736 678 846 
3 1074 447 1087 
3 716 663 783 
3 480 479 541 
3 1004 545 1041 
3 430 431 432 
3 699 643 727 
3 1067 768 1071 
3 419 420 529 
3 532 551 1082 
3 667 629 715 
3 727 784 787 
3 1007 1004 1041 
3 640 877 1069 
3 478 480 634 
3 549 1055 1076 
3 438 436 1032 
3 803 1057 1061 
3 700 462 707 
3 517 697 1032 
3 419 529 612 
3 699 727 728 
3 614 615 616 
3 531 1010 1035 
3 813 812 1184 
3 616 617 629 
3 524 906 1053 
3 501 503 1048 
3 723 795 1046 
3 870 347 1088 
3 633 550 1035 
3 433 432 434 
3 612 613 614 
3 985 768 1067 
3 929 930 1064 
3 616 615 617 
3 542 571 1044 
3 802 1048 1057 
3 692 1007 1041 
3 103 370 1070 
3 734 102 1070 
3 403 405 482 
3 614 613 615 
3 683 984 1076 
3 411 471 702 
3 708 462 1024 
3 895 1079 1203 
3 430 432 433 
3 34 361 1078 
3 395 394 396 
3 462 426 1024 
3 549 1008 1055 
3 521 523 524 
3 691 1003 1050 
3 612 529 613 
3 414 416 1037 
3 478 479 480 
3 702 471 755 
3 702 755 756 
3 960 959 1113 
3 1003 919 1050 
3 846 678 1047 
3 406 408 1038 
3 516 406 1038 
3 827 720 1063 
3 7 8 1051 
3 554 528 1042 
3 420 422 1039 
3 919 913 1050 
3 91 387 1022 
3 354 339 1022 
3 478 477 479 
3 595 655 981 
3 1055 914 1076 
3 588 587 1068 
3 528 527 1042 
3 349 881 1065 
3 1033 693 1049 
3 754 753 1081 
3 1048 503 1057 
3 965 962 1083 
3 651 839 1068 
3 529 420 1039 
3 961 960 1083 
3 660 1033 1049 
3 527 565 1042 
3 408 411 1038 
3 416 419 1037 
3 444 447 1074 
3 910 606 1103 
3 693 1013 1049 
3 606 536 1107 
3 425 700 1039 
3 422 425 1039 
3 331 83 1059 
3 565 699 1042 
3 617 620 1045 
3 397 398 402 
3 620 716 1045 
3 669 640 1069 
3 861 860 1101 
3 715 629 1045 
3 706 354 1022 
3 629 617 1045 
3 503 987 1057 
3 916 613 1073 
3 691 1050 1055 
3 1008 691 1055 
3 774 858 1056 
3 911 910 1100 
3 419 612 1037 
3 890 889 1106 
3 536 543 1058 
3 1024 428 1054 
3 1053 906 1086 
3 918 698 1062 
3 697 519 1053 
3 411 702 1038 
3 697 1053 1086 
3 471 412 1077 
3 720 1035 1063 
3 1035 1010 1063 
3 428 430 1054 
3 476 477 478 
3 1057 987 1061 
3 987 564 1061 
3 655 772 1052 
3 471 1077 1095 
3 806 1067 1071 
3 722 829 1108 
3 683 1081 1085 
3 340 331 1059 
3 1061 564 1067 
3 521 524 1053 
3 932 929 1064 
3 1082 551 1141 
3 476 402 477 
3 397 402 476 
3 529 1039 1073 
3 90 350 1075 
3 387 338 1075 
3 564 985 1067 
3 1103 606 1107 
3 760 1074 1087 
3 587 651 1068 
3 1020 443 1062 
3 519 521 1053 
3 338 90 1075 
3 395 396 397 
3 102 103 1070 
3 1010 568 1063 
3 430 433 1054 
3 719 870 1088 
3 703 814 1098 
3 698 1020 1062 
3 807 806 1071 
3 1086 905 1090 
3 782 705 1088 
3 1039 700 1073 
3 662 916 1097 
3 696 779 1072 
3 460 458 1099 
3 1037 757 1077 
3 1062 443 1074 
3 414 1037 1077 
3 831 669 1069 
3 777 662 1105 
3 443 444 1074 
3 984 549 1076 
3 412 414 1077 
3 1174 388 1187 
3 889 622 1122 
3 843 340 1160 
3 624 1015 1096 
3 683 1076 1081 
3 630 668 1104 
3 402 398 1080 
3 89 386 1092 
3 35 34 1078 
3 83 330 388 
3 350 337 1092 
3 759 760 1087 
3 753 925 1085 
3 710 709 1084 
3 1116 901 1119 
3 1100 910 1103 
3 613 529 1073 
3 622 532 1082 
3 867 1169 1179 
3 981 655 1052 
3 914 754 1081 
3 1085 925 1089 
3 978 1000 1109 
3 393 354 394 
3 398 400 1080 
3 18 844 1145 
3 962 961 1083 
3 787 784 1131 
3 947 609 1110 
3 925 926 1089 
3 441 1090 1111 
3 902 901 1116 
3 906 904 1086 
3 507 683 1085 
3 403 482 1093 
3 1089 926 1091 
3 441 1032 1090 
3 1077 757 1095 
3 793 792 1165 
3 551 619 1117 
3 926 928 1091 
3 507 1085 1089 
3 88 348 1102 
3 445 442 1111 
3 1091 928 1094 
3 365 75 1118 
3 74 389 1118 
3 386 336 1102 
3 986 507 1089 
3 764 763 1121 
3 843 841 1148 
3 705 719 1088 
3 751 649 1115 
3 1121 763 1123 
3 1106 889 1122 
3 337 89 1092 
3 928 931 1094 
3 9 355 1120 
3 393 394 395 
3 986 1089 1091 
3 447 1034 1087 
3 1076 914 1081 
3 834 873 1187 
3 1142 380 1216 
3 449 446 1119 
3 1025 895 1140 
3 662 1097 1105 
3 599 986 1091 
3 599 1091 1094 
3 1090 905 1111 
3 664 946 1196 
3 873 1174 1187 
3 983 599 1094 
3 1072 779 1079 
3 713 765 1124 
3 757 1031 1095 
3 854 853 1108 
3 755 471 1095 
3 830 344 1183 
3 116 117 1131 
3 24 23 1127 
3 71 70 1128 
3 73 72 1129 
3 453 450 1123 
3 916 1073 1097 
3 1032 697 1090 
3 1015 797 1096 
3 83 388 1059 
3 980 1023 1125 
3 400 403 1093 
3 82 354 393 
3 48 349 1138 
3 1051 8 1120 
3 373 49 1138 
3 1080 400 1093 
3 458 454 1126 
3 1073 700 1097 
3 453 1123 1124 
3 732 824 1148 
3 1124 765 1126 
3 482 405 1114 
3 735 703 1098 
3 449 1119 1121 
3 755 1095 1104 
3 1131 117 1218 
3 445 1111 1116 
3 860 883 1101 
3 464 460 1099 
3 765 714 1133 
3 700 707 1097 
3 939 558 1185 
3 87 384 1130 
3 348 335 1130 
3 464 1133 1136 
3 759 1087 1100 
3 1024 1054 1106 
3 1095 1031 1104 
3 864 865 1137 
3 336 88 1102 
3 967 365 1139 
3 812 717 1162 
3 697 1086 1090 
3 340 843 1155 
3 853 722 1108 
3 1034 911 1100 
3 702 756 1134 
3 1087 1034 1100 
3 747 1052 1223 
3 758 759 1103 
3 824 730 1147 
3 1054 890 1106 
3 759 1100 1103 
3 1097 707 1105 
3 621 842 1222 
3 1000 464 1136 
3 771 843 1160 
3 758 1103 1107 
3 731 811 1147 
3 1131 784 1201 
3 392 79 1142 
3 78 380 1142 
3 945 342 1144 
3 839 758 1107 
3 608 1109 1110 
3 608 978 1109 
3 1104 668 1112 
3 707 738 1105 
3 1031 630 1104 
3 445 1116 1119 
3 105 106 1143 
3 379 969 1178 
3 609 608 1110 
3 568 1025 1140 
3 708 1024 1106 
3 791 989 1113 
3 516 1038 1134 
3 442 441 1111 
3 943 946 1150 
3 905 902 1116 
3 17 18 1145 
3 405 516 1114 
3 649 664 1115 
3 932 1064 1215 
3 756 755 1112 
3 619 781 1117 
3 1099 765 1133 
3 1120 355 1194 
3 708 1106 1122 
3 75 74 1118 
3 937 936 1150 
3 996 374 1162 
3 875 372 1173 
3 389 1129 1213 
3 832 766 1156 
3 897 357 1137 
3 446 445 1119 
3 449 1121 1123 
3 893 892 1152 
3 367 116 1131 
3 8 9 1120 
3 932 1215 1229 
3 464 1099 1133 
3 901 764 1121 
3 86 345 1146 
3 384 334 1146 
3 792 743 1153 
3 1111 905 1116 
3 1027 721 1149 
3 661 777 1154 
3 351 64 1158 
3 63 379 1158 
3 450 449 1123 
3 378 924 1165 
3 787 1131 1218 
3 85 385 1151 
3 940 939 1185 
3 345 333 1151 
3 738 708 1122 
3 763 713 1124 
3 1119 901 1121 
3 941 728 1177 
3 785 1142 1216 
3 1123 763 1124 
3 737 980 1125 
3 645 741 1163 
3 977 24 1127 
3 70 390 1128 
3 389 73 1129 
3 453 1124 1126 
3 335 87 1130 
3 454 453 1126 
3 66 65 1164 
3 84 340 1155 
3 385 332 1155 
3 827 1063 1140 
3 970 363 1153 
3 742 729 1166 
3 755 1104 1112 
3 781 782 1159 
3 867 869 1169 
3 818 816 1170 
3 1133 982 1136 
3 714 982 1133 
3 1139 365 1219 
3 1154 781 1159 
3 362 114 1193 
3 734 1070 1135 
3 817 819 1135 
3 816 789 1170 
3 699 728 1167 
3 982 752 1136 
3 762 974 1197 
3 991 621 1170 
3 347 870 1200 
3 865 868 1137 
3 1038 702 1134 
3 1049 1013 1156 
3 653 590 1176 
3 589 750 1176 
3 830 725 1178 
3 343 941 1177 
3 776 1120 1194 
3 49 48 1138 
3 6 371 1181 
3 1070 817 1135 
3 894 895 1203 
3 769 794 1182 
3 352 966 1189 
3 31 360 1186 
3 108 970 1188 
3 1046 360 1191 
3 893 1152 1227 
3 364 107 1188 
3 367 1131 1201 
3 977 1127 1168 
3 624 1096 1207 
3 762 761 1191 
3 67 66 1190 
3 862 864 1173 
3 554 1042 1167 
3 924 921 1161 
3 952 950 1192 
3 777 1117 1154 
3 52 347 1200 
3 968 967 1139 
3 375 53 1200 
3 728 727 1177 
3 805 807 1164 
3 555 554 1185 
3 960 1113 1212 
3 376 988 1198 
3 885 775 1199 
3 795 832 1186 
3 788 790 1143 
3 395 397 1171 
3 841 732 1148 
3 897 1137 1214 
3 955 951 1206 
3 772 1174 1223 
3 1117 781 1154 
3 104 105 1204 
3 775 773 1199 
3 3 80 1208 
3 23 3 1208 
3 133 0 1209 
3 0 4 1209 
3 72 1 1210 
3 1 101 1210 
3 2 71 1211 
3 22 2 1211 
3 958 391 1209 
3 118 343 1218 
3 1071 768 1180 
3 716 823 1195 
3 637 586 1207 
3 801 805 1231 
3 16 356 1229 
3 346 14 1215 
3 842 820 1222 
3 1011 939 1217 
3 777 1105 1141 
3 1096 965 1207 
3 994 653 1225 
3 1137 868 1214 
3 79 78 1142 
3 1064 346 1215 
3 819 821 1213 
3 715 996 1226 
3 1169 907 1179 
3 1134 756 1169 
3 106 364 1143 
3 738 1082 1141 
3 1056 858 1205 
3 721 776 1194 
3 342 971 1144 
3 667 715 1226 
3 1063 568 1140 
3 939 937 1217 
3 822 1139 1219 
3 948 366 1180 
3 715 1045 1195 
3 1065 715 1195 
3 356 17 1145 
3 833 834 1187 
3 334 86 1146 
3 730 731 1147 
3 921 923 1161 
3 1105 738 1141 
3 1023 762 1197 
3 892 375 1152 
3 936 943 1150 
3 945 1144 1196 
3 333 85 1151 
3 842 644 1175 
3 750 1027 1149 
3 1013 775 1221 
3 1113 989 1212 
3 826 827 1152 
3 743 744 1153 
3 887 373 1157 
3 663 661 1154 
3 923 922 1171 
3 917 780 1183 
3 775 1078 1221 
3 1127 392 1168 
3 332 84 1155 
3 766 1049 1156 
3 374 878 1162 
3 1152 827 1227 
3 663 1154 1159 
3 64 63 1158 
3 869 1134 1169 
3 81 833 1228 
3 772 771 1160 
3 868 867 1179 
3 634 1014 1161 
3 735 976 1172 
3 783 663 1159 
3 351 1158 1231 
3 644 645 1163 
3 347 887 1220 
3 1017 830 1183 
3 780 1017 1183 
3 1149 955 1206 
3 65 351 1164 
3 933 378 1165 
3 729 737 1166 
3 946 945 1196 
3 741 785 1216 
3 822 842 1175 
3 958 5 1181 
3 1042 699 1167 
3 756 907 1169 
3 360 973 1191 
3 785 742 1168 
3 1088 347 1220 
3 789 991 1170 
3 381 1006 1182 
3 872 834 1201 
3 1006 796 1182 
3 840 664 1196 
3 330 81 1228 
3 653 1192 1225 
3 767 735 1172 
3 979 862 1173 
3 397 476 1171 
3 590 589 1176 
3 725 798 1178 
3 779 988 1203 
3 1157 373 1202 
3 996 1162 1226 
3 907 813 1179 
3 1144 840 1196 
3 727 787 1177 
3 768 767 1180 
3 959 958 1181 
3 5 6 1181 
3 1059 388 1174 
3 796 769 1182 
3 344 917 1183 
3 353 898 1184 
3 1125 1023 1197 
3 373 1138 1202 
3 1079 779 1203 
3 1170 621 1222 
3 32 31 1186 
3 558 555 1185 
3 107 108 1188 
3 937 1150 1217 
3 966 964 1189 
3 366 67 1190 
3 922 362 1193 
3 1083 960 1212 
3 950 953 1192 
3 1184 898 1214 
3 761 1046 1191 
3 358 885 1199 
3 355 955 1194 
3 784 872 1201 
3 1158 800 1231 
3 1127 23 1208 
3 71 1128 1211 
3 1129 72 1210 
3 988 894 1203 
3 637 1083 1212 
3 1156 1013 1221 
3 352 1189 1230 
3 908 376 1198 
3 1056 358 1199 
3 834 367 1201 
3 1045 716 1195 
3 644 1163 1175 
3 974 359 1197 
3 53 52 1200 
3 365 1118 1219 
3 898 897 1214 
3 773 1056 1199 
3 1139 822 1175 
3 1184 1214 1224 
3 951 952 1206 
3 370 104 1204 
3 823 783 1202 
3 80 392 1208 
3 391 133 1209 
3 101 734 1210 
3 733 22 1211 
3 586 624 1207 
3 895 893 1227 
3 858 979 1205 
3 359 1125 1197 
3 989 637 1212 
3 1174 873 1223 
3 14 15 1215 
3 380 968 1216 
3 117 118 1218 
3 1078 361 1221 
3 821 822 1219 
3 638 1011 1217 
3 820 818 1222 
3 1138 823 1202 
3 1215 15 1229 
3 388 330 1228 
3 750 1149 1206 
3 930 994 1225 
3 15 16 1229 
3 782 1088 1220 
3 953 346 1232 
3 1064 930 1232 
3 797 796 1230 
3 800 801 1231 
3 717 667 1226 
3 1052 772 1223 
3 392 1127 1208 
3 1128 733 1211 
3 734 1129 1210 
3 1118 821 1219 
3 1225 953 1232 
3 930 1225 1232 
3 346 1064 1232 
3 827 1140 1227 
3 1150 638 1217 
3 1162 717 1226 
3 1135 819 1213 
3 361 1156 1221 
3 1140 895 1227 
3 818 1170 1222 
3 868 1179 1224 
3 1157 782 1220 
3 887 1157 1220 
3 1187 388 1228 
3 1179 813 1224 
3 813 1184 1224 
3 1189 797 1230 
3 1192 953 1225 
3 833 1187 1228 
3 1214 868 1224 
3 135 187 134 
3 186 187 135 
3 136 186 135 
3 185 186 136 
3 137 185 136 
3 184 185 137 
3 138 184 137 
3 183 184 138 
3 139 183 138 
3 182 183 139 
3 140 182 139 
3 181 182 140 
3 181 140 141 
3 180 181 141 
3 142 180 141 
3 179 180 142 
3 143 179 142 
3 178 179 143 
3 144 178 143 
3 177 178 144 
3 177 144 145 
3 176 177 145 
3 84 160 1233 
3 176 145 146 
3 175 176 146 
3 175 146 147 
3 84 162 160 
3 174 175 147 
3 174 147 148 
3 173 174 148 
3 173 148 149 
3 172 173 149 
3 160 161 1233 
3 150 172 149 
3 171 172 150 
3 171 150 151 
3 170 171 151 
3 170 151 152 
3 169 170 152 
3 169 152 153 
3 168 169 153 
3 168 153 154 
3 167 168 154 
3 167 154 155 
3 166 167 155 
3 331 84 1233 
3 165 166 156 
3 166 155 156 
3 164 165 157 
3 165 156 157 
3 163 164 158 
3 164 157 158 
3 162 163 159 
3 159 163 158 
3 162 159 160 
3 161 331 1233 
3 93 92 1234 
3 134 187 1234 
3 187 93 1234 
3 92 134 1234 
3 161 83 331 
3 212 211 187 
3 211 186 187 
3 211 210 186 
3 210 185 186 
3 210 209 185 
3 209 184 185 
3 209 208 184 
3 208 183 184 
3 208 207 183 
3 207 182 183 
3 207 206 182 
3 206 181 182 
3 206 205 181 
3 205 180 181 
3 205 204 180 
3 180 204 179 
3 204 203 179 
3 203 178 179 
3 203 202 178 
3 202 177 178 
3 163 85 1235 
3 202 201 177 
3 201 176 177 
3 201 200 176 
3 162 163 1235 
3 200 175 176 
3 200 199 175 
3 188 85 163 
3 199 174 175 
3 199 198 174 
3 198 173 174 
3 198 197 173 
3 197 172 173 
3 197 196 172 
3 196 171 172 
3 196 195 171 
3 171 195 170 
3 85 332 1235 
3 195 194 170 
3 170 194 169 
3 194 193 169 
3 169 193 168 
3 192 167 168 
3 193 192 168 
3 167 191 166 
3 192 191 167 
3 166 190 165 
3 191 190 166 
3 165 189 164 
3 188 163 164 
3 190 189 165 
3 189 188 164 
3 332 162 1235 
3 93 94 1236 
3 212 187 1236 
3 187 93 1236 
3 94 212 1236 
3 162 332 84 
3 211 212 213 
3 211 213 214 
3 210 211 214 
3 215 210 214 
3 209 210 215 
3 216 209 215 
3 208 209 216 
3 217 208 216 
3 207 208 217 
3 218 207 217 
3 206 207 218 
3 219 206 218 
3 205 206 219 
3 220 205 219 
3 204 205 220 
3 221 204 220 
3 203 204 221 
3 203 221 222 
3 202 203 222 
3 189 86 1237 
3 223 202 222 
3 201 202 223 
3 201 223 224 
3 86 189 235 
3 200 201 224 
3 200 224 225 
3 199 200 225 
3 199 225 226 
3 198 199 226 
3 188 189 1237 
3 198 226 227 
3 197 198 227 
3 197 227 228 
3 196 197 228 
3 196 228 229 
3 195 196 229 
3 195 229 230 
3 194 195 230 
3 194 230 231 
3 193 194 231 
3 193 231 232 
3 86 333 1237 
3 192 232 233 
3 192 193 232 
3 191 233 234 
3 191 192 233 
3 190 234 235 
3 190 191 234 
3 189 190 235 
3 333 188 1237 
3 94 95 1238 
3 213 212 1238 
3 95 213 1238 
3 212 94 1238 
3 188 333 85 
3 213 256 257 
3 213 214 256 
3 214 255 256 
3 214 215 255 
3 215 254 255 
3 215 216 254 
3 216 253 254 
3 216 217 253 
3 217 252 253 
3 217 218 252 
3 218 251 252 
3 218 219 251 
3 219 250 251 
3 219 220 250 
3 250 220 249 
3 220 221 249 
3 221 248 249 
3 221 222 248 
3 87 234 1239 
3 222 247 248 
3 222 223 247 
3 223 246 247 
3 234 235 1239 
3 246 223 224 
3 234 87 236 
3 245 246 224 
3 225 245 224 
3 244 245 225 
3 226 244 225 
3 244 226 243 
3 226 227 243 
3 243 227 242 
3 227 228 242 
3 334 87 1239 
3 242 228 241 
3 228 229 241 
3 241 229 240 
3 229 230 240 
3 230 231 239 
3 230 239 240 
3 231 232 238 
3 239 231 238 
3 232 233 237 
3 233 234 236 
3 238 232 237 
3 237 233 236 
3 235 334 1239 
3 96 95 1240 
3 213 257 1240 
3 95 213 1240 
3 257 96 1240 
3 334 235 86 
3 256 257 258 
3 256 258 259 
3 255 256 259 
3 255 259 260 
3 254 255 260 
3 261 254 260 
3 261 253 254 
3 261 262 253 
3 262 252 253 
3 262 263 252 
3 263 251 252 
3 263 264 251 
3 264 250 251 
3 264 265 250 
3 250 265 249 
3 265 266 249 
3 266 248 249 
3 237 88 1241 
3 266 267 248 
3 267 247 248 
3 277 88 237 
3 267 268 247 
3 268 246 247 
3 268 269 246 
3 246 269 245 
3 269 270 245 
3 236 237 1241 
3 245 270 244 
3 270 271 244 
3 244 271 243 
3 271 272 243 
3 243 272 242 
3 272 273 242 
3 242 273 241 
3 273 274 241 
3 241 274 240 
3 274 275 240 
3 88 335 1241 
3 275 276 239 
3 275 239 240 
3 276 277 238 
3 239 276 238 
3 238 277 237 
3 335 236 1241 
3 96 97 1242 
3 258 257 1242 
3 97 258 1242 
3 257 96 1242 
3 335 87 236 
3 295 296 258 
3 259 295 258 
3 294 295 259 
3 260 294 259 
3 293 294 260 
3 261 293 260 
3 292 293 261 
3 262 292 261 
3 291 292 262 
3 291 262 263 
3 290 291 263 
3 264 290 263 
3 289 290 264 
3 265 289 264 
3 288 289 265 
3 266 288 265 
3 89 276 1243 
3 287 288 266 
3 287 266 267 
3 276 277 1243 
3 287 267 286 
3 286 267 268 
3 276 89 278 
3 285 286 268 
3 285 268 269 
3 284 285 269 
3 284 269 270 
3 283 284 270 
3 271 283 270 
3 336 89 1243 
3 282 283 271 
3 282 271 272 
3 281 282 272 
3 281 272 273 
3 280 273 274 
3 280 281 273 
3 274 275 279 
3 280 274 279 
3 275 276 278 
3 275 278 279 
3 277 336 1243 
3 98 97 1244 
3 258 296 1244 
3 97 258 1244 
3 296 98 1244 
3 277 88 336 
3 295 296 297 
3 298 295 297 
3 294 295 298 
3 299 294 298 
3 293 294 299 
3 300 293 299 
3 292 293 300 
3 301 292 300 
3 291 292 301 
3 302 291 301 
3 290 291 302 
3 303 290 302 
3 289 290 303 
3 289 303 304 
3 288 289 304 
3 279 90 1245 
3 305 288 304 
3 90 279 313 
3 288 305 287 
3 305 306 287 
3 287 306 286 
3 306 307 286 
3 307 285 286 
3 285 307 308 
3 278 279 1245 
3 285 308 284 
3 308 309 284 
3 309 283 284 
3 309 310 283 
3 310 282 283 
3 311 282 310 
3 282 311 281 
3 281 311 312 
3 280 312 313 
3 280 281 312 
3 90 337 1245 
3 279 280 313 
3 337 278 1245 
3 98 99 1246 
3 297 296 1246 
3 99 297 1246 
3 296 98 1246 
3 89 278 337 
3 328 329 297 
3 298 328 297 
3 327 328 298 
3 299 327 298 
3 326 327 299 
3 300 326 299 
3 325 326 300 
3 301 325 300 
3 324 325 301 
3 302 324 301 
3 323 324 302 
3 303 323 302 
3 322 323 303 
3 91 312 1247 
3 322 303 304 
3 321 322 304 
3 312 313 1247 
3 305 321 304 
3 321 305 320 
3 312 91 314 
3 305 306 320 
3 306 319 320 
3 306 307 319 
3 307 318 319 
3 307 308 318 
3 338 91 1247 
3 308 317 318 
3 308 309 317 
3 309 310 316 
3 309 316 317 
3 310 311 315 
3 310 315 316 
3 311 312 314 
3 311 314 315 
3 313 338 1247 
3 100 99 1248 
3 297 329 1248 
3 99 297 1248 
3 329 100 1248 
3 90 338 313 
3 328 329 101 
3 328 101 102 
3 327 328 102 
3 327 102 103 
3 326 327 103 
3 326 103 104 
3 325 326 104 
3 325 104 105 
3 324 325 105 
3 324 105 106 
3 323 324 106 
3 323 106 107 
3 315 82 1249 
3 322 323 107 
3 114 82 315 
3 322 107 108 
3 321 322 108 
3 109 321 108 
3 320 321 109 
3 110 320 109 
3 319 320 110 
3 319 110 111 
3 314 315 1249 
3 319 111 318 
3 111 112 318 
3 112 317 318 
3 112 113 317 
3 113 114 316 
3 317 113 316 
3 316 114 315 
3 82 339 1249 
3 339 314 1249 
3 100 1 1250 
3 101 329 1250 
3 1 101 1250 
3 329 100 1250 
3 339 91 314 

CELL_TYPES 2360
5
5
5
5
5
5
5
5
5
5
5
5
5
5
5
5
5
5
5
5
5
5
5
5
5
5
5
5
5
5
5
5
5
5
5
5
5
5
5
5
5
5
5
5
5
5
5
5
5
5
5
5
5
5
5
5
5
5
5
5
5
5
5
5
5
5
5
5
5
5
5
5
5
5
5
5
5
5
5
5
5
5
5
5
5
5
5
5
5
5
5
5
5
5
5
5
5
5
5
5
5
5
5
5
5
5
5
5
5
5
5
5
5
5
5
5
5
5
5
5
5
5
5
5
5
5
5
5
5
5
5
5
5
5
5
5
5
5
5
5
5
5
5
5
5
5
5
5
5
5
5
5
5
5
5
5
5
5
5
5
5
5
5
5
5
5
5
5
5
5
5
5
5
5
5
5
5
5
5
5
5
5
5
5
5
5
5
5
5
5
5
5
5
5
5
5
5
5
5
5
5
5
5
5
5
5
5
5
5
5
5
5
5
5
5
5
5
5
5
5
5
5
5
5
5
5
5
5
5
5
5
5
5
5
5
5
5
5
5
5
5
5
5
5
5
5
5
5
5
5
5
5
5
5
5
5
5
5
5
5
5
5
5
5
5
5
5
5
5
5
5
5
5
5
5
5
5
5
5
5
5
5
5
5
5
5
5
5
5
5
5
5
5
5
5
5
5
5
5
5
5
5
5
5
5
5
5
5
5
5
5
5
5
5
5
5
5
5
5
5
5
5
5
5
5
5
5
5
5
5
5
5
5
5
5
5
5
5
5
5
5
5
5
5
5
5
5
5
5
5
5
5
5
5
5
5
5
5
5
5
5
5
5
5
5
5
5
5
5
5
5
5
5
5
5
5
5
5
5
5
5
5
5
5
5
5
5
5
5
5
5
5
5
5
5
5
5
5
5
5
5
5
5
5
5
5
5
5
5
5
5
5
5
5
5
5
5
5
5
5
5
5
5
5
5
5
5
5
5
5
5
5
5
5
5
5
5
5
5
5
5
5
5
5
5
5
5
5
5
5
5
5
5
5
5
5
5
5
5
5
5
5
5
5
5
5
5
5
5
5
5
5
5
5
5
5
5
5
5
5
5
5
5
5
5
5
5
5
5
5
5
5
5
5
5
5
5
5
5
5
5
5
5
5
5
5
5
5
5
5
5
5
5
5
5
5
5
5
5
5
5
5
5
5
5
5
5
5
5
5
5
5
5
5
5
5
5
5
5
5
5
5
5
5
5
5
5
5
5
5
5
5
5
5
5
5
5
5
5
5
5
5
5
5
5
5
5
5
5
5
5
5
5
5
5
5
5
5
5
5
5
5
5
5
5
5
5
5
5
5
5
5
5
5
5
5
5
5
5
5
5
5
5
5
5
5
5
5
5
5
5
5
5
5
5
5
5
5
5
5
5
5
5
5
5
5
5
5
5
5
5
5
5
5
5
5
5
5
5
5
5
5
5
5
5
5
5
5
5
5
5
5
5
5
5
5
5
5
5
5
5
5
5
5
5
5
5
5
5
5
5
5
5
5
5
5
5
5
5
5
5
5
5
5
5
5
5
5
5
5
5
5
5
5
5
5
5
5
5
5
5
5
5
5
5
5
5
5
5
5
5
5
5
5
5
5
5
5
5
5
5
5
5
5
5
5
5
5
5
5
5
5
5
5
5
5
5
5
5
5
5
5
5
5
5
5
5
5
5
5
5
5
5
5
5
5
5
5
5
5
5
5
5
5
5
5
5
5
5
5
5
5
5
5
5
5
5
5
5
5
5
5
5
5
5
5
5
5
5
5
5
5
5
5
5
5
5
5
5
5
5
5
5
5
5
5
5
5
5
5
5
5
5
5
5
5
5
5
5
5
5
5
5
5
5
5
5
5
5
5
5
5
5
5
5
5
5
5
5
5
5
5
5
5
5
5
5
5
5
5
5
5
5
5
5
5
5
5
5
5
5
5
5
5
5
5
5
5
5
5
5
5
5
5
5
5
5
5
5
5
5
5
5
5
5
5
5
5
5
5
5
5
5
5
5
5
5
5
5
5
5
5
5
5
5
5
5
5
5
5
5
5
5
5
5
5
5
5
5
5
5
5
5
5
5
5
5
5
5
5
5
5
5
5
5
5
5
5
5
5
5
5
5
5
5
5
5
5
5
5
5
5
5
5
5
5
5
5
5
5
5
5
5
5
5
5
5
5
5
5
5
5
5
5
5
5
5
5
5
5
5
5
5
5
5
5
5
5
5
5
5
5
5
5
5
5
5
5
5
5
5
5
5
5
5
5
5
5
5
5
5
5
5
5
5
5
5
5
5
5
5
5
5
5
5
5
5
5
5
5
5
5
5
5
5
5
5
5
5
5
5
5
5
5
5
5
5
5
5
5
5
5
5
5
5
5
5
5
5
5
5
5
5
5
5
5
5
5
5
5
5
5
5
5
5
5
5
5
5
5
5
5
5
5
5
5
5
5
5
5
5
5
5
5
5
5
5
5
5
5
5
5
5
5
5
5
5
5
5
5
5
5
5
5
5
5
5
5
5
5
5
5
5
5
5
5
5
5
5
5
5
5
5
5
5
5
5
5
5
5
5
5
5
5
5
5
5
5
5
5
5
5
5
5
5
5
5
5
5
5
5
5
5
5
5
5
5
5
5
5
5
5
5
5
5
5
5
5
5
5
5
5
5
5
5
5
5
5
5
5
5
5
5
5
5
5
5
5
5
5
5
5
5
5
5
5
5
5
5
5
5
5
5
5
5
5
5
5
5
5
5
5
5
5
5
5
5
5
5
5
5
5
5
5
5
5
5
5
5
5
5
5
5
5
5
5
5
5
5
5
5
5
5
5
5
5
5
5
5
5
5
5
5
5
5
5
5
5
5
5
5
5
5
5
5
5
5
5
5
5
5
5
5
5
5
5
5
5
5
5
5
5
5
5
5
5
5
5
5
5
5
5
5
5
5
5
5
5
5
5
5
5
5
5
5
5
5
5
5
5
5
5
5
5
5
5
5
5
5
5
5
5
5
5
5
5
5
5
5
5
5
5
5
5
5
5
5
5
5
5
5
5
5
5
5
5
5
5
5
5
5
5
5
5
5
5
5
5
5
5
5
5
5
5
5
5
5
5
5
5
5
5
5
5
5
5
5
5
5
5
5
5
5
5
5
5
5
5
5
5
5
5
5
5
5
5
5
5
5
5
5
5
5
5
5
5
5
5
5
5
5
5
5
5
5
5
5
5
5
5
5
5
5
5
5
5
5
5
5
5
5
5
5
5
5
5
5
5
5
5
5
5
5
5
5
5
5
5
5
5
5
5
5
5
5
5
5
5
5
5
5
5
5
5
5
5
5
5
5
5
5
5
5
5
5
5
5
5
5
5
5
5
5
5
5
5
5
5
5
5
5
5
5
5
5
5
5
5
5
5
5
5
5
5
5
5
5
5
5
5
5
5
5
5
5
5
5
5
5
5
5
5
5
5
5
5
5
5
5
5
5
5
5
5
5
5
5
5
5
5
5
5
5
5
5
5
5
5
5
5
5
5
5
5
5
5
5
5
5
5
5
5
5
5
5
5
5
5
5
5
5
5
5
5
5
5
5
5
5
5
5
5
5
5
5
5
5
5
5
5
5
5
5
5
5
5
5
5
5
5
5
5
5
5
5
5
5
5
5
5
5
5
5
5
5
5
5
5
5
5
5
5
5
5
5
5
5
5
5
5
5
5
5
5
5
5
5
5
5
5
5
5
5
5
5
5
5
5
5
5
5
5
5
5
5
5
5
5
5
5
5
5
5
5
5
5
5
5
5
5
5
5
5
5
5
5
5
5
5
5
5
5
5
5
5
5
5
5
5
5
5
5
5
5
5
5
5
5
5
5
5
5
5
5
5
5
5
5
5
5
5
5
5
5
5
5
5
5
5
5
5
5
5
5
5
5
5
5
5
5
5
5
5
5
5
5
5
5
5
5
5
5
5
5
5
5
5
5
5
5
5
5
5
5
5
5
5
5
5
5
5
5
5
5
5
5
5
5
5
5
5
5
5
5
5
5
5
5
5
5
5
5
5
5
5
5
5
5
5
5
5
5
5
5
5
5
5
5
5
5
5
5
5
5
5
5
5
5
5
5
5
5
5
5
5
5
5
5
5
5
5
5
5
5
5
5
5
5
5
5
5
5
5
5
5
5
5
5
5
5
5
5
5
5
5
5
5
5
5
5
5
5
5
5
5
5
5
5
5
5
5
5
5
5
5
5
5
5
5
5
5
5
5
5
5
5
5
5
5
5
5
5
5
5
5
5
5
5
5
5
5
5
5
5
5
5
5
5
5
5
5
5
5
5
5
5
5
5
5
5
5
5
5
5
5
5
5
5
5
5
5
5
5
5
5
5
5
5
5
5
5
5
5
5
5
5
5
5
5
5
5
5
5
5
5
5
5
5
5
5
5
5
5
5
5
5
5
5
5
5
5
5
5
5
5
5
5
5
5
5
5
5
5
5
5
5
5
5
5
5
5
5
5
5
5
5
5
5
5
5
5
5
5
5
5
5
5
5
5
5
5
5
5
5
5
5
5
5
5
5
5
5
5
5
5
5
5
5
5
5
5
5
5
5
5
5
5
5
5
5
5
5
5
5
5
5
5
5
5
5
5
5
5
5
5
5
5
5
5
5
5
5
5
5
5
5
5
5
5
5
5
5
5
5
5
5
5
5
5
5
5
5
5
5
5
5
5
5
5
5
5
5
5
5
5
5
5
5
5
5
5
5
5
5
5
5
5
5
5
5
5
5
5
5
5
5
5
5
5
5
5
5
5
5
5
5
5
5
5
5
5
5
5
5
5
5
5
5
5
5
5
5
5
5
5
5
5
5
5
5
5
5
5
5
5
5
5
5
5
5
5
5
5
5
5
5
5
5
5
5
5
5
5
5
5
5
5
5
5
5
5
5
5
5
5
5
5
5
5
5
5
5
5
5
5
5
5
5
5
5
5
5
5
5
5
5
5
5
5
5
5
5
5
5
5
5
5
5
5
5
5
5
5
5
5
5
5
5
5
5
5
5
5
5
5
5
5
5
5
5
5
5
5
5
5
5
5
5
5
5
5
5
5
5
5
5
5
5
5
5
5
5
5
5
5
5
5
5
5
5
5
5
5
5
5
5
5
5
5
5
5
5
5
5
5
5
5
5
5
5
5
5
5
5
5
5
5
5
5
5
5
5
5
5
5
5
5
5
5
5
5
5
5
5
5
5
5
5
5
5
5
5
5
5
5
5
5
5
5
5
5
5
5
5
5
5
5
5
5
5
5
5
5
5
5
5
5
5
5
5
5
5
5
5
5
5
5
5
5
5

POINT_DATA 1251

VECTORS coord float
0.0 0.0 0.0 
5.000000000000e+01 -1.000000000000e+01 0.0 
0.0 -2.000000000000e+01 0.0 
5.000000000000e+01 -2.000000000000e+01 0.0 
0.0 -9.999999999991e-01 0.0 
0.0 -1.999999999998e+00 0.0 
0.0 -2.999999999997e+00 0.0 
0.0 -3.999999999994e+00 0.0 
0.0 -4.999999999991e+00 0.0 
0.0 -5.999999999988e+00 0.0 
0.0 -6.999999999985e+00 0.0 
0.0 -7.999999999982e+00 0.0 
0.0 -8.999999999983e+00 0.0 
0.0 -9.999999999985e+00 0.0 
0.0 -1.099999999999e+01 0.0 
0.0 -1.199999999999e+01 0.0 
0.0 -1.299999999999e+01 0.0 
0.0 -1.399999999999e+01 0.0 
0.0 -1.499999999999e+01 0.0 
0.0 -1.599999999999e+01 0.0 
0.0 -1.700000000000e+01 0.0 
0.0 -1.800000000000e+01 0.0 
0.0 -1.900000000000e+01 0.0 
4.900000000001e+01 -2.000000000000e+01 0.0 
4.800000000001e+01 -2.000000000000e+01 0.0 
4.700000000002e+01 -2.000000000000e+01 0.0 
4.600000000003e+01 -2.000000000000e+01 0.0 
4.500000000004e+01 -2.000000000000e+01 0.0 
4.400000000004e+01 -2.000000000000e+01 0.0 
4.300000000005e+01 -2.000000000000e+01 0.0 
4.200000000006e+01 -2.000000000000e+01 0.0 
4.100000000006e+01 -2.000000000000e+01 0.0 
4.000000000007e+01 -2.000000000000e+01 0.0 
3.900000000008e+01 -2.000000000000e+01 0.0 
3.800000000009e+01 -2.000000000000e+01 0.0 
3.700000000009e+01 -2.000000000000e+01 0.0 
3.600000000010e+01 -2.000000000000e+01 0.0 
3.500000000011e+01 -2.000000000000e+01 0.0 
3.400000000011e+01 -2.000000000000e+01 0.0 
3.300000000012e+01 -2.000000000000e+01 0.0 
3.200000000013e+01 -2.000000000000e+01 0.0 
3.100000000013e+01 -2.000000000000e+01 0.0 
3.000000000013e+01 -2.000000000000e+01 0.0 
2.900000000013e+01 -2.000000000000e+01 0.0 
2.800000000013e+01 -2.000000000000e+01 0.0 
2.700000000013e+01 -2.000000000000e+01 0.0 
2.600000000013e+01 -2.000000000000e+01 0.0 
2.500000000013e+01 -2.000000000000e+01 0.0 
2.400000000013e+01 -2.000000000000e+01 0.0 
2.300000000013e+01 -2.000000000000e+01 0.0 
2.200000000013e+01 -2.000000000000e+01 0.0 
2.100000000013e+01 -2.000000000000e+01 0.0 
2.000000000013e+01 -2.000000000000e+01 0.0 
1.900000000013e+01 -2.000000000000e+01 0.0 
1.800000000013e+01 -2.000000000000e+01 0.0 
1.700000000012e+01 -2.000000000000e+01 0.0 
1.600000000011e+01 -2.000000000000e+01 0.0 
1.500000000011e+01 -2.000000000000e+01 0.0 
1.400000000010e+01 -2.000000000000e+01 0.0 
1.300000000009e+01 -2.000000000000e+01 0.0 
1.200000000009e+01 -2.000000000000e+01 0.0 
1.100000000008e+01 -2.000000000000e+01 0.0 
1.000000000007e+01 -2.000000000000e+01 0.0 
9.000000000064e+00 -2.000000000000e+01 0.0 
8.000000000057e+00 -2.000000000000e+01 0.0 
7.000000000050e+00 -2.000000000000e+01 0.0 
6.000000000043e+00 -2.000000000000e+01 0.0 
5.000000000036e+00 -2.000000000000e+01 0.0 
4.000000000028e+00 -2.000000000000e+01 0.0 
3.000000000021e+00 -2.000000000000e+01 0.0 
2.000000000014e+00 -2.000000000000e+01 0.0 
1.000000000007e+00 -2.000000000000e+01 0.0 
5.000000000000e+01 -1.100000000000e+01 0.0 
5.000000000000e+01 -1.200000000000e+01 0.0 
5.000000000000e+01 -1.300000000000e+01 0.0 
5.000000000000e+01 -1.400000000000e+01 0.0 
5.000000000000e+01 -1.500000000000e+01 0.0 
5.000000000000e+01 -1.600000000000e+01 0.0 
5.000000000000e+01 -1.700000000000e+01 0.0 
5.000000000000e+01 -1.800000000000e+01 0.0 
5.000000000000e+01 -1.900000000000e+01 0.0 
2.000000000000e+01 0.0 0.0 
3.500000000000e+01 -1.000000000000e+01 0.0 
2.150000000000e+01 -1.000000000000e+00 0.0 
2.300000000000e+01 -2.000000000000e+00 0.0 
2.450000000000e+01 -3.000000000000e+00 0.0 
2.600000000000e+01 -4.000000000000e+00 0.0 
2.750000000000e+01 -5.000000000000e+00 0.0 
2.900000000000e+01 -6.000000000000e+00 0.0 
3.050000000000e+01 -7.000000000000e+00 0.0 
3.200000000000e+01 -8.000000000000e+00 0.0 
3.350000000000e+01 -9.000000000000e+00 0.0 
5.000000000000e+01 -1.000000000000e+00 0.0 
5.000000000000e+01 -2.000000000000e+00 0.0 
5.000000000000e+01 -3.000000000000e+00 0.0 
5.000000000000e+01 -4.000000000000e+00 0.0 
5.000000000000e+01 -5.000000000000e+00 0.0 
5.000000000000e+01 -6.000000000000e+00 0.0 
5.000000000000e+01 -7.000000000000e+00 0.0 
5.000000000000e+01 -8.000000000000e+00 0.0 
5.000000000000e+01 -9.000000000000e+00 0.0 
4.900000000000e+01 -1.000000000000e+01 0.0 
4.800000000000e+01 -1.000000000000e+01 0.0 
4.700000000000e+01 -1.000000000000e+01 0.0 
4.600000000000e+01 -1.000000000000e+01 0.0 
4.500000000000e+01 -1.000000000000e+01 0.0 
4.400000000000e+01 -1.000000000000e+01 0.0 
4.300000000000e+01 -1.000000000000e+01 0.0 
4.200000000000e+01 -1.000000000000e+01 0.0 
4.100000000000e+01 -1.000000000000e+01 0.0 
4.000000000000e+01 -1.000000000000e+01 0.0 
3.900000000000e+01 -1.000000000000e+01 0.0 
3.800000000000e+01 -1.000000000000e+01 0.0 
3.700000000000e+01 -1.000000000000e+01 0.0 
3.600000000000e+01 -1.000000000000e+01 0.0 
1.900000000000e+01 0.0 0.0 
1.800000000000e+01 0.0 0.0 
1.700000000000e+01 0.0 0.0 
1.600000000000e+01 0.0 0.0 
1.500000000000e+01 0.0 0.0 
1.400000000000e+01 0.0 0.0 
1.300000000000e+01 0.0 0.0 
1.200000000000e+01 0.0 0.0 
1.100000000000e+01 0.0 0.0 
1.000000000000e+01 0.0 0.0 
9.000000000000e+00 0.0 0.0 
8.000000000000e+00 0.0 0.0 
7.000000000000e+00 0.0 0.0 
6.000000000000e+00 0.0 0.0 
5.000000000000e+00 0.0 0.0 
4.000000000000e+00 0.0 0.0 
3.000000000000e+00 0.0 0.0 
2.000000000000e+00 0.0 0.0 
1.000000000000e+00 0.0 0.0 
4.901724137931e+01 -1.000000000000e+00 0.0 
4.803448275862e+01 -1.000000000000e+00 0.0 
4.705172413793e+01 -1.000000000000e+00 0.0 
4.606896551724e+01 -1.000000000000e+00 0.0 
4.508620689655e+01 -1.000000000000e+00 0.0 
4.410344827586e+01 -1.000000000000e+00 0.0 
4.312068965517e+01 -1.000000000000e+00 0.0 
4.213793103448e+01 -1.000000000000e+00 0.0 
4.115517241379e+01 -1.000000000000e+00 0.0 
4.017241379310e+01 -1.000000000000e+00 0.0 
3.918965517241e+01 -1.000000000000e+00 0.0 
3.820689655172e+01 -1.000000000000e+00 0.0 
3.722413793103e+01 -1.000000000000e+00 0.0 
3.624137931034e+01 -1.000000000000e+00 0.0 
3.525862068966e+01 -1.000000000000e+00 0.0 
3.427586206897e+01 -1.000000000000e+00 0.0 
3.329310344828e+01 -1.000000000000e+00 0.0 
3.231034482759e+01 -1.000000000000e+00 0.0 
3.132758620690e+01 -1.000000000000e+00 0.0 
3.034482758621e+01 -1.000000000000e+00 0.0 
2.936206896552e+01 -1.000000000000e+00 0.0 
2.837931034483e+01 -1.000000000000e+00 0.0 
2.739655172414e+01 -1.000000000000e+00 0.0 
2.641379310345e+01 -1.000000000000e+00 0.0 
2.543103448276e+01 -1.000000000000e+00 0.0 
2.444827586207e+01 -1.000000000000e+00 0.0 
2.346551724138e+01 -1.000000000000e+00 0.0 
2.248275862069e+01 -1.000000000000e+00 0.0 
2.400000000000e+01 -2.000000000000e+00 0.0 
2.500000000000e+01 -2.000000000000e+00 0.0 
2.600000000000e+01 -2.000000000000e+00 0.0 
2.700000000000e+01 -2.000000000000e+00 0.0 
2.800000000000e+01 -2.000000000000e+00 0.0 
2.900000000000e+01 -2.000000000000e+00 0.0 
3.000000000000e+01 -2.000000000000e+00 0.0 
3.100000000000e+01 -2.000000000000e+00 0.0 
3.200000000000e+01 -2.000000000000e+00 0.0 
3.300000000000e+01 -2.000000000000e+00 0.0 
3.400000000000e+01 -2.000000000000e+00 0.0 
3.500000000000e+01 -2.000000000000e+00 0.0 
3.600000000000e+01 -2.000000000000e+00 0.0 
3.700000000000e+01 -2.000000000000e+00 0.0 
3.800000000000e+01 -2.000000000000e+00 0.0 
3.900000000000e+01 -2.000000000000e+00 0.0 
4.000000000000e+01 -2.000000000000e+00 0.0 
4.100000000000e+01 -2.000000000000e+00 0.0 
4.200000000000e+01 -2.000000000000e+00 0.0 
4.300000000000e+01 -2.000000000000e+00 0.0 
4.400000000000e+01 -2.000000000000e+00 0.0 
4.500000000000e+01 -2.000000000000e+00 0.0 
4.600000000000e+01 -2.000000000000e+00 0.0 
4.700000000000e+01 -2.000000000000e+00 0.0 
4.800000000000e+01 -2.000000000000e+00 0.0 
4.900000000000e+01 -2.000000000000e+00 0.0 
2.548076923077e+01 -3.000000000000e+00 0.0 
2.646153846153e+01 -3.000000000000e+00 0.0 
2.744230769230e+01 -3.000000000000e+00 0.0 
2.842307692306e+01 -3.000000000000e+00 0.0 
2.940384615383e+01 -3.000000000000e+00 0.0 
3.038461538459e+01 -3.000000000000e+00 0.0 
3.136538461536e+01 -3.000000000000e+00 0.0 
3.234615384612e+01 -3.000000000000e+00 0.0 
3.332692307687e+01 -3.000000000000e+00 0.0 
3.430769230762e+01 -3.000000000000e+00 0.0 
3.528846153837e+01 -3.000000000000e+00 0.0 
3.626923076912e+01 -3.000000000000e+00 0.0 
3.724999999988e+01 -3.000000000000e+00 0.0 
3.823076923065e+01 -3.000000000000e+00 0.0 
3.921153846143e+01 -3.000000000000e+00 0.0 
4.019230769221e+01 -3.000000000000e+00 0.0 
4.117307692299e+01 -3.000000000000e+00 0.0 
4.215384615377e+01 -3.000000000000e+00 0.0 
4.313461538455e+01 -3.000000000000e+00 0.0 
4.411538461533e+01 -3.000000000000e+00 0.0 
4.509615384611e+01 -3.000000000000e+00 0.0 
4.607692307688e+01 -3.000000000000e+00 0.0 
4.705769230766e+01 -3.000000000000e+00 0.0 
4.803846153844e+01 -3.000000000000e+00 0.0 
4.901923076922e+01 -3.000000000000e+00 0.0 
4.900000000000e+01 -4.000000000000e+00 0.0 
4.800000000000e+01 -4.000000000000e+00 0.0 
4.700000000000e+01 -4.000000000000e+00 0.0 
4.600000000000e+01 -4.000000000000e+00 0.0 
4.500000000000e+01 -4.000000000000e+00 0.0 
4.400000000000e+01 -4.000000000000e+00 0.0 
4.300000000000e+01 -4.000000000000e+00 0.0 
4.200000000000e+01 -4.000000000000e+00 0.0 
4.100000000000e+01 -4.000000000000e+00 0.0 
4.000000000000e+01 -4.000000000000e+00 0.0 
3.900000000000e+01 -4.000000000000e+00 0.0 
3.800000000000e+01 -4.000000000000e+00 0.0 
3.700000000000e+01 -4.000000000000e+00 0.0 
3.600000000000e+01 -4.000000000000e+00 0.0 
3.500000000000e+01 -4.000000000000e+00 0.0 
3.400000000000e+01 -4.000000000000e+00 0.0 
3.300000000000e+01 -4.000000000000e+00 0.0 
3.200000000000e+01 -4.000000000000e+00 0.0 
3.100000000000e+01 -4.000000000000e+00 0.0 
3.000000000000e+01 -4.000000000000e+00 0.0 
2.900000000000e+01 -4.000000000000e+00 0.0 
2.800000000000e+01 -4.000000000000e+00 0.0 
2.700000000000e+01 -4.000000000000e+00 0.0 
2.847826086957e+01 -5.000000000000e+00 0.0 
2.945652173913e+01 -5.000000000000e+00 0.0 
3.043478260870e+01 -5.000000000000e+00 0.0 
3.141304347826e+01 -5.000000000000e+00 0.0 
3.239130434783e+01 -5.000000000000e+00 0.0 
3.336956521739e+01 -5.000000000000e+00 0.0 
3.434782608696e+01 -5.000000000000e+00 0.0 
3.532608695652e+01 -5.000000000000e+00 0.0 
3.630434782609e+01 -5.000000000000e+00 0.0 
3.728260869565e+01 -5.000000000000e+00 0.0 
3.826086956522e+01 -5.000000000000e+00 0.0 
3.923913043478e+01 -5.000000000000e+00 0.0 
4.021739130435e+01 -5.000000000000e+00 0.0 
4.119565217391e+01 -5.000000000000e+00 0.0 
4.217391304348e+01 -5.000000000000e+00 0.0 
4.315217391304e+01 -5.000000000000e+00 0.0 
4.413043478261e+01 -5.000000000000e+00 0.0 
4.510869565217e+01 -5.000000000000e+00 0.0 
4.608695652174e+01 -5.000000000000e+00 0.0 
4.706521739130e+01 -5.000000000000e+00 0.0 
4.804347826087e+01 -5.000000000000e+00 0.0 
4.902173913043e+01 -5.000000000000e+00 0.0 
4.900000000001e+01 -6.000000000000e+00 0.0 
4.800000000003e+01 -6.000000000000e+00 0.0 
4.700000000004e+01 -6.000000000000e+00 0.0 
4.600000000006e+01 -6.000000000000e+00 0.0 
4.500000000007e+01 -6.000000000000e+00 0.0 
4.400000000009e+01 -6.000000000000e+00 0.0 
4.300000000010e+01 -6.000000000000e+00 0.0 
4.200000000012e+01 -6.000000000000e+00 0.0 
4.100000000013e+01 -6.000000000000e+00 0.0 
4.000000000014e+01 -6.000000000000e+00 0.0 
3.900000000014e+01 -6.000000000000e+00 0.0 
3.800000000012e+01 -6.000000000000e+00 0.0 
3.700000000010e+01 -6.000000000000e+00 0.0 
3.600000000008e+01 -6.000000000000e+00 0.0 
3.500000000006e+01 -6.000000000000e+00 0.0 
3.400000000005e+01 -6.000000000000e+00 0.0 
3.300000000003e+01 -6.000000000000e+00 0.0 
3.200000000001e+01 -6.000000000000e+00 0.0 
3.100000000000e+01 -6.000000000000e+00 0.0 
3.000000000000e+01 -6.000000000000e+00 0.0 
3.147499999998e+01 -7.000000000000e+00 0.0 
3.244999999998e+01 -7.000000000000e+00 0.0 
3.342499999998e+01 -7.000000000000e+00 0.0 
3.439999999998e+01 -7.000000000000e+00 0.0 
3.537499999998e+01 -7.000000000000e+00 0.0 
3.634999999998e+01 -7.000000000000e+00 0.0 
3.732499999998e+01 -7.000000000000e+00 0.0 
3.829999999998e+01 -7.000000000000e+00 0.0 
3.927499999999e+01 -7.000000000000e+00 0.0 
4.024999999999e+01 -7.000000000000e+00 0.0 
4.122499999999e+01 -7.000000000000e+00 0.0 
4.219999999999e+01 -7.000000000000e+00 0.0 
4.317499999999e+01 -7.000000000000e+00 0.0 
4.414999999999e+01 -7.000000000000e+00 0.0 
4.512499999999e+01 -7.000000000000e+00 0.0 
4.609999999999e+01 -7.000000000000e+00 0.0 
4.707500000000e+01 -7.000000000000e+00 0.0 
4.805000000000e+01 -7.000000000000e+00 0.0 
4.902500000000e+01 -7.000000000000e+00 0.0 
4.900000000000e+01 -8.000000000000e+00 0.0 
4.800000000000e+01 -8.000000000000e+00 0.0 
4.700000000000e+01 -8.000000000000e+00 0.0 
4.600000000000e+01 -8.000000000000e+00 0.0 
4.500000000000e+01 -8.000000000000e+00 0.0 
4.400000000000e+01 -8.000000000000e+00 0.0 
4.300000000000e+01 -8.000000000000e+00 0.0 
4.200000000000e+01 -8.000000000000e+00 0.0 
4.100000000000e+01 -8.000000000000e+00 0.0 
4.000000000000e+01 -8.000000000000e+00 0.0 
3.900000000000e+01 -8.000000000000e+00 0.0 
3.800000000000e+01 -8.000000000000e+00 0.0 
3.700000000000e+01 -8.000000000000e+00 0.0 
3.600000000000e+01 -8.000000000000e+00 0.0 
3.500000000000e+01 -8.000000000000e+00 0.0 
3.400000000000e+01 -8.000000000000e+00 0.0 
3.300000000000e+01 -8.000000000000e+00 0.0 
3.447058823527e+01 -9.000000000000e+00 0.0 
3.544117647055e+01 -9.000000000000e+00 0.0 
3.641176470582e+01 -9.000000000000e+00 0.0 
3.738235294109e+01 -9.000000000000e+00 0.0 
3.835294117637e+01 -9.000000000000e+00 0.0 
3.932352941164e+01 -9.000000000000e+00 0.0 
4.029411764691e+01 -9.000000000000e+00 0.0 
4.126470588219e+01 -9.000000000000e+00 0.0 
4.223529411748e+01 -9.000000000000e+00 0.0 
4.320588235279e+01 -9.000000000000e+00 0.0 
4.417647058811e+01 -9.000000000000e+00 0.0 
4.514705882342e+01 -9.000000000000e+00 0.0 
4.611764705874e+01 -9.000000000000e+00 0.0 
4.708823529405e+01 -9.000000000000e+00 0.0 
4.805882352937e+01 -9.000000000000e+00 0.0 
4.902941176468e+01 -9.000000000000e+00 0.0 
2.075000000000e+01 -5.000000000006e-01 0.0 
2.225000000000e+01 -1.500000000000e+00 0.0 
2.375000000000e+01 -2.500000000000e+00 0.0 
2.525000000000e+01 -3.500000000000e+00 0.0 
2.675000000000e+01 -4.500000000000e+00 0.0 
2.825000000000e+01 -5.500000000000e+00 0.0 
2.975000000000e+01 -6.500000000000e+00 0.0 
3.125000000000e+01 -7.500000000000e+00 0.0 
3.275000000000e+01 -8.500000000000e+00 0.0 
3.425000000000e+01 -9.500000000000e+00 0.0 
2.226951693683e+01 -2.403913980114e+00 0.0 
1.650149491944e+01 -1.913490915758e+01 0.0 
1.050042386896e+01 -8.504605092970e-01 0.0 
1.553146524712e+01 -8.281255032105e-01 0.0 
1.150000000008e+01 -1.913397459621e+01 0.0 
2.530060260647e+01 -4.428336431260e+00 0.0 
8.651114563942e-01 -1.052096295641e+01 0.0 
2.050000000013e+01 -1.913397459622e+01 0.0 
2.819198729811e+01 -6.399519052838e+00 0.0 
2.445670302931e+01 -1.915649188023e+01 0.0 
3.117591465718e+01 -8.394293040695e+00 0.0 
7.465053044742e+00 -1.920411160581e+01 0.0 
6.398295709691e+00 -8.230098819370e-01 0.0 
2.849659607461e+01 -1.914296187762e+01 0.0 
3.418732642882e+01 -1.040265792588e+01 0.0 
8.386450935063e-01 -6.533605142809e+00 0.0 
9.178661865596e-01 -1.329769195597e+01 0.0 
3.149448624493e+01 -1.910466733764e+01 0.0 
3.552916747426e+01 -1.914628590759e+01 0.0 
4.449210346537e+01 -1.914359085008e+01 0.0 
4.140975975145e+01 -1.906941860733e+01 0.0 
3.847475958753e+01 -1.916622382724e+01 0.0 
3.653774794640e+01 -1.088712800241e+01 0.0 
4.047886341787e+01 -1.090139014048e+01 0.0 
4.348006339825e+01 -1.092792621489e+01 0.0 
4.919519968029e+01 -1.451526755068e+01 0.0 
4.500000000032e+00 -1.913397459621e+01 0.0 
1.856136921614e+01 -8.212235170404e-01 0.0 
3.499895312306e+00 -8.661165539723e-01 0.0 
9.076088696565e-01 -1.642306201891e+01 0.0 
4.655174095477e+01 -1.086183387525e+01 0.0 
9.430688970604e-01 -3.496112672958e+00 0.0 
3.353992337063e+01 -1.901202090820e+01 0.0 
2.249746016977e+01 -1.921262287282e+01 0.0 
2.650122741777e+01 -1.916123026018e+01 0.0 
1.863571384842e+01 -1.908325534840e+01 0.0 
1.450089971693e+01 -1.917691901860e+01 0.0 
1.350044695317e+01 -8.659695299584e-01 0.0 
3.849987469880e+01 -1.084154983397e+01 0.0 
9.454419857884e+00 -1.900818879936e+01 0.0 
4.917398660523e+01 -1.645692866081e+01 0.0 
8.500000000000e+00 -8.660254037844e-01 0.0 
8.660319230785e-01 -8.500111697188e+00 0.0 
4.649022621545e+01 -1.930506220113e+01 0.0 
2.667688107845e+01 -5.420288124331e+00 0.0 
2.379251615665e+01 -3.412225477429e+00 0.0 
2.966631491830e+01 -7.389030232731e+00 0.0 
3.267915035995e+01 -9.396934932445e+00 0.0 
2.074836922338e+01 -1.320054020319e+00 0.0 
4.915985743621e+01 -1.261973384855e+01 0.0 
2.527129768623e+00 -1.931592414663e+01 0.0 
1.538676247410e+00 -8.436956619311e-01 0.0 
4.908096641539e+01 -1.842484004551e+01 0.0 
3.478612492673e+01 -1.090889364140e+01 0.0 
3.409757055860e+01 -1.131991530427e+01 0.0 
3.501895309466e+01 -1.177687842717e+01 0.0 
3.407758073088e+01 -1.224293381580e+01 0.0 
3.484541875390e+01 -1.277051428430e+01 0.0 
3.400322025842e+01 -1.319022775640e+01 0.0 
3.321672625034e+01 -1.266779191233e+01 0.0 
3.315244139236e+01 -1.360984106532e+01 0.0 
3.236335186892e+01 -1.308463225210e+01 0.0 
3.478337442841e+01 -1.372341158982e+01 0.0 
3.230105923633e+01 -1.403023731610e+01 0.0 
3.150954055289e+01 -1.350301767700e+01 0.0 
3.144604792090e+01 -1.444931742516e+01 0.0 
3.065653897123e+01 -1.392357262981e+01 0.0 
3.071897610812e+01 -1.297447031198e+01 0.0 
2.986790411740e+01 -1.339226181535e+01 0.0 
2.993181466745e+01 -1.244703272398e+01 0.0 
2.908023061869e+01 -1.286254537734e+01 0.0 
2.901619051372e+01 -1.380881655279e+01 0.0 
2.822986160390e+01 -1.327695262116e+01 0.0 
2.829453476870e+01 -1.233265343811e+01 0.0 
2.744542905518e+01 -1.274510491105e+01 0.0 
2.751120089246e+01 -1.180368086886e+01 0.0 
2.666218649885e+01 -1.221619339205e+01 0.0 
2.672371209234e+01 -1.127125228527e+01 0.0 
2.587763216302e+01 -1.168539979114e+01 0.0 
2.581165585299e+01 -1.262994410089e+01 0.0 
2.502890882577e+01 -1.209827323619e+01 0.0 
2.509631327757e+01 -1.115492410304e+01 0.0 
2.424662989877e+01 -1.156630981079e+01 0.0 
2.431704046904e+01 -1.062389179334e+01 0.0 
2.346445438728e+01 -1.103427680694e+01 0.0 
2.339382552877e+01 -1.197964871788e+01 0.0 
2.260936050780e+01 -1.144513277642e+01 0.0 
2.268075012022e+01 -1.049911928216e+01 0.0 
2.182525737661e+01 -1.090920811464e+01 0.0 
2.189682319817e+01 -9.961716944568e+00 0.0 
2.104174127792e+01 -1.037266986667e+01 0.0 
2.111304367575e+01 -9.424179358711e+00 0.0 
2.025306185381e+01 -9.832727364719e+00 0.0 
2.018141124247e+01 -1.079140628871e+01 0.0 
1.938594498257e+01 -1.025147354112e+01 0.0 
1.946106490453e+01 -9.288010758448e+00 0.0 
1.858929958352e+01 -9.706319802516e+00 0.0 
1.851540991219e+01 -1.067205988724e+01 0.0 
1.771485303178e+01 -1.012504443115e+01 0.0 
1.764134552256e+01 -1.109360378538e+01 0.0 
1.683745148095e+01 -1.054496365337e+01 0.0 
1.691852964353e+01 -9.582555261178e+00 0.0 
1.603603813062e+01 -1.000160132379e+01 0.0 
1.595824239350e+01 -1.096750698862e+01 0.0 
1.515080624291e+01 -1.041639501931e+01 0.0 
1.523171602559e+01 -9.451711491453e+00 0.0 
1.434621060709e+01 -9.871956467464e+00 0.0 
1.426777178765e+01 -1.083749501371e+01 0.0 
1.345775282374e+01 -1.028803175500e+01 0.0 
1.354103873368e+01 -9.324918457162e+00 0.0 
1.265072018622e+01 -9.742612837270e+00 0.0 
1.257285762070e+01 -1.071557782384e+01 0.0 
1.175874815690e+01 -1.015972324288e+01 0.0 
1.184203019714e+01 -9.193604071377e+00 0.0 
1.094927709905e+01 -9.612103238656e+00 0.0 
1.086938022910e+01 -1.058685085646e+01 0.0 
1.005424098961e+01 -1.002939116380e+01 0.0 
9.977974613295e+00 -1.101324897989e+01 0.0 
1.012915646404e+01 -9.051815821181e+00 0.0 
9.237127782494e+00 -9.471239055559e+00 0.0 
9.308426593771e+00 -8.483376461131e+00 0.0 
8.418806073345e+00 -8.910712374517e+00 0.0 
2.253688464062e+01 -1.239459402279e+01 0.0 
8.495126726666e+00 -7.921646665254e+00 0.0 
9.389727383206e+00 -7.512103628377e+00 0.0 
7.601560812974e+00 -8.349460349344e+00 0.0 
7.525680547759e+00 -9.339736686940e+00 0.0 
7.677888324502e+00 -7.359727833346e+00 0.0 
6.782001206724e+00 -7.788454494773e+00 0.0 
6.858778622885e+00 -6.797338062822e+00 0.0 
2.196596590865e+01 -8.979025665442e+00 0.0 
2.816540108272e+01 -1.422634142353e+01 0.0 
5.961601194403e+00 -7.226824010712e+00 0.0 
6.038171749656e+00 -6.234825887079e+00 0.0 
6.936257279557e+00 -5.805287640737e+00 0.0 
6.115068918323e+00 -5.242109758768e+00 0.0 
3.564391741903e+01 -1.329240553876e+01 0.0 
3.558115605778e+01 -1.425902892003e+01 0.0 
3.645445282201e+01 -1.381970786460e+01 0.0 
3.639744204358e+01 -1.479198128612e+01 0.0 
3.727266909778e+01 -1.435399586226e+01 0.0 
5.216667013081e+00 -5.671788584287e+00 0.0 
3.220697293295e+01 -1.499594545107e+01 0.0 
3.551112158269e+01 -1.523479869250e+01 0.0 
2.836056961467e+01 -1.139032434851e+01 0.0 
2.516730388602e+01 -1.021382726837e+01 0.0 
1.844436907403e+01 -1.164097215196e+01 0.0 
5.885434318740e+00 -8.218694781467e+00 0.0 
5.064071066867e+00 -7.656614643901e+00 0.0 
4.988089103470e+00 -8.649722082718e+00 0.0 
1.079421050408e+01 -1.157014985435e+01 0.0 
9.902420005256e+00 -1.199903342656e+01 0.0 
1.071994252214e+01 -1.255727909771e+01 0.0 
9.826974788171e+00 -1.298659581767e+01 0.0 
1.064607883789e+01 -1.354595476388e+01 0.0 
9.751541265343e+00 -1.397556905071e+01 0.0 
8.932296185869e+00 -1.341553353988e+01 0.0 
8.856399248106e+00 -1.440570715508e+01 0.0 
8.036186803543e+00 -1.384470558472e+01 0.0 
1.057112875118e+01 -1.453516759081e+01 0.0 
1.146582585687e+01 -1.410539926903e+01 0.0 
7.959894480382e+00 -1.483563350928e+01 0.0 
7.138792279156e+00 -1.427465094140e+01 0.0 
7.062506792418e+00 -1.526615385482e+01 0.0 
6.240693558277e+00 -1.470508863040e+01 0.0 
6.316957575451e+00 -1.371212581281e+01 0.0 
5.418183007107e+00 -1.414253605022e+01 0.0 
5.494748364428e+00 -1.314886770603e+01 0.0 
1.756825565873e+01 -1.206433872514e+01 0.0 
1.837565773345e+01 -1.261356468266e+01 0.0 
1.749574831391e+01 -1.303769280014e+01 0.0 
1.830539187332e+01 -1.358828364284e+01 0.0 
1.742278925170e+01 -1.401367746928e+01 0.0 
1.823303007798e+01 -1.456432294258e+01 0.0 
1.734941694138e+01 -1.499213734361e+01 0.0 
1.653760041637e+01 -1.443920312098e+01 0.0 
3.056237977307e+01 -1.487132260174e+01 0.0 
1.866469084762e+01 -8.742953000418e+00 0.0 
1.953669694916e+01 -8.326038909849e+00 0.0 
1.874194303780e+01 -7.780688158966e+00 0.0 
1.961032016741e+01 -7.366854697285e+00 0.0 
1.881715755159e+01 -6.821102209649e+00 0.0 
1.968369797150e+01 -6.407747217358e+00 0.0 
1.889237123259e+01 -5.858375520026e+00 0.0 
1.802038875366e+01 -6.276202618170e+00 0.0 
1.809793837984e+01 -5.307629520489e+00 0.0 
1.721985207997e+01 -5.728242054488e+00 0.0 
1.729850893523e+01 -4.756990819347e+00 0.0 
1.641745664240e+01 -5.174636548624e+00 0.0 
2.495978509456e+01 -1.304406404294e+01 0.0 
1.911567814831e+01 -1.413854250293e+01 0.0 
1.904387332608e+01 -1.511463127723e+01 0.0 
1.992115934240e+01 -1.468788025898e+01 0.0 
7.013706899628e+00 -4.812582868662e+00 0.0 
5.342091874585e+00 -1.513658157269e+01 0.0 
1.139098043784e+01 -1.509488509480e+01 0.0 
1.228151810610e+01 -1.465617481983e+01 0.0 
1.646373110164e+01 -1.541993323337e+01 0.0 
5.293328636712e+00 -4.678385108584e+00 0.0 
1.975965862987e+01 -5.448124345648e+00 0.0 
2.054318374236e+01 -5.992561293251e+00 0.0 
3.721453439063e+01 -1.533216152738e+01 0.0 
3.809302733893e+01 -1.489235527381e+01 0.0 
1.220852788900e+01 -1.565304565230e+01 0.0 
4.394120899730e+00 -5.108397613210e+00 0.0 
8.779354620288e+00 -1.539524721159e+01 0.0 
1.817791047702e+01 -4.338570146253e+00 0.0 
4.518860013839e+00 -1.457343189307e+01 0.0 
4.442712140414e+00 -1.556841391069e+01 0.0 
8.115343466391e+00 -1.285760324283e+01 0.0 
1.985334703171e+01 -1.566478400426e+01 0.0 
2.071953850276e+01 -1.522074243119e+01 0.0 
1.634012953883e+01 -6.154777738301e+00 0.0 
1.553479994708e+01 -5.593730508879e+00 0.0 
1.561265946942e+01 -4.617761762647e+00 0.0 
1.470674212978e+01 -5.064576488228e+00 0.0 
1.464498299883e+01 -6.026514471420e+00 0.0 
1.383271561817e+01 -5.467796261169e+00 0.0 
1.389241253067e+01 -4.504338666645e+00 0.0 
1.301868735463e+01 -4.907185188626e+00 0.0 
1.294514184846e+01 -5.888160903592e+00 0.0 
1.212955968622e+01 -5.328262335277e+00 0.0 
1.220721122383e+01 -4.341264976687e+00 0.0 
1.131324345897e+01 -4.766773516508e+00 0.0 
5.266597955397e+00 -1.613148974258e+01 0.0 
1.737805990867e+01 -3.786677807525e+00 0.0 
3.078438094513e+01 -1.203225297748e+01 0.0 
1.131569882285e+01 -1.608511932110e+01 0.0 
1.728478341782e+01 -1.596017432313e+01 0.0 
3.803465906019e+01 -1.587509751228e+01 0.0 
3.891681276677e+01 -1.543395196905e+01 0.0 
3.897340985302e+01 -1.444710288980e+01 0.0 
3.980095968193e+01 -1.499059496613e+01 0.0 
3.974334598189e+01 -1.597921884150e+01 0.0 
4.062964983717e+01 -1.553518690417e+01 0.0 
4.068729602479e+01 -1.454434445295e+01 0.0 
4.151772679790e+01 -1.508974196007e+01 0.0 
4.157505195739e+01 -1.409694289912e+01 0.0 
4.240699932656e+01 -1.464347955968e+01 0.0 
4.234898051011e+01 -1.563721375790e+01 0.0 
4.323934606035e+01 -1.519082036405e+01 0.0 
4.329740528208e+01 -1.419587509788e+01 0.0 
4.413056841369e+01 -1.474359631875e+01 0.0 
4.418850110108e+01 -1.374786684042e+01 0.0 
4.502219770667e+01 -1.429605103525e+01 0.0 
4.496411937907e+01 -1.529215882720e+01 0.0 
4.490027319897e+00 -4.154167794594e+00 0.0 
1.565080385988e+01 -1.486411982419e+01 0.0 
1.557610691279e+01 -1.584855627870e+01 0.0 
4.195350646612e+00 -8.089117689096e+00 0.0 
4.124027797830e+00 -9.082831955007e+00 0.0 
4.917944318925e+00 -9.643530901533e+00 0.0 
4.020105689502e+00 -1.007439673661e+01 0.0 
4.587185899277e+01 -1.484039992728e+01 0.0 
4.580078661551e+01 -1.584043391042e+01 0.0 
2.061956522375e+01 -5.046701343981e+00 0.0 
2.139572955529e+01 -5.579553449826e+00 0.0 
3.715344357292e+01 -1.631485124583e+01 0.0 
3.618886196443e+00 -1.500471207167e+01 0.0 
3.695606940204e+00 -1.400939692294e+01 0.0 
2.438890661143e+01 -9.686110599723e+00 0.0 
2.523267572778e+01 -9.276766000622e+00 0.0 
2.446094171539e+01 -8.751904591412e+00 0.0 
2.529089822738e+01 -8.321495612547e+00 0.0 
2.606882688827e+01 -8.864724051119e+00 0.0 
2.452116646430e+01 -7.792756462004e+00 0.0 
1.235543269617e+01 -1.365845617339e+01 0.0 
4.318116874181e+01 -1.618567469992e+01 0.0 
7.835066111909e+00 -5.376366223896e+00 0.0 
7.905687335704e+00 -4.382539065697e+00 0.0 
3.542640009567e+00 -1.600035116542e+01 0.0 
1.572431503071e+01 -1.388358386695e+01 0.0 
2.574684696680e+01 -1.357896141127e+01 0.0 
2.488842657651e+01 -1.399674354505e+01 0.0 
2.568301775611e+01 -1.453552048595e+01 0.0 
2.481535572009e+01 -1.495542756508e+01 0.0 
2.561729699688e+01 -1.549784648532e+01 0.0 
2.474623061296e+01 -1.592058894178e+01 0.0 
2.394234041695e+01 -1.537572575827e+01 0.0 
2.065825452567e+01 -1.621899055217e+01 0.0 
2.387180528935e+01 -1.634552264687e+01 0.0 
4.585364400844e+01 -1.383912334080e+01 0.0 
1.998744432052e+01 -1.370317155541e+01 0.0 
1.205356951443e+01 -6.313580285498e+00 0.0 
5.396543905849e+00 -3.731818611283e+00 0.0 
1.139652573295e+01 -3.745819399350e+00 0.0 
3.574124306703e+00 -4.551456826011e+00 0.0 
3.494140761930e+00 -5.539787055649e+00 0.0 
1.213651452413e+01 -1.664505033022e+01 0.0 
2.555045568519e+01 -1.646529356744e+01 0.0 
2.641671114986e+01 -1.603899382371e+01 0.0 
2.612920721894e+01 -7.906435260873e+00 0.0 
2.690339829698e+01 -8.456969591431e+00 0.0 
1.978024383368e+01 -1.664410216353e+01 0.0 
3.732829979082e+01 -1.336926601859e+01 0.0 
4.074336584605e+01 -1.355133328401e+01 0.0 
4.163204691081e+01 -1.310280943992e+01 0.0 
3.773826114429e+00 -3.493444309145e+00 0.0 
1.228783001032e+01 -3.374822835872e+00 0.0 
4.057110462520e+01 -1.652588478000e+01 0.0 
2.132535497898e+01 -6.523623360525e+00 0.0 
2.216932532211e+01 -6.110044769206e+00 0.0 
1.825781152128e+01 -3.370146817147e+00 0.0 
1.745679445888e+01 -2.812942552063e+00 0.0 
4.666517057280e+01 -1.539981381543e+01 0.0 
4.660575894464e+01 -1.639014410186e+01 0.0 
4.838230979954e+00 -1.063643436446e+01 0.0 
3.938942630206e+00 -1.106778981745e+01 0.0 
1.302967218620e+01 -1.621373452436e+01 0.0 
1.049548003190e+01 -4.204825123240e+00 0.0 
4.573571907195e+01 -1.683820511148e+01 0.0 
1.483686335807e+01 -1.430849689310e+01 0.0 
1.490982658890e+01 -1.332679386284e+01 0.0 
3.190805600162e+00 -9.510968358545e+00 0.0 
2.146625721848e+01 -4.642437303115e+00 0.0 
2.069866208266e+01 -4.111852942193e+00 0.0 
1.286859345584e+01 -6.873252723348e+00 0.0 
1.041794493184e+01 -5.194814260291e+00 0.0 
2.671081808965e+00 -4.976806516331e+00 0.0 
1.295786792925e+01 -1.720506531799e+01 0.0 
3.968438206511e+01 -1.696869067241e+01 0.0 
2.308550456051e+01 -1.579963151273e+01 0.0 
2.315593682844e+01 -1.482967445235e+01 0.0 
2.299471449450e+01 -1.677069968132e+01 0.0 
1.057344714696e+01 -3.214252277840e+00 0.0 
1.124057603753e+01 -1.707713739755e+01 0.0 
2.718402535754e+00 -1.543629882103e+01 0.0 
2.638549692805e+01 -1.696744916809e+01 0.0 
2.723416349007e+01 -1.658104204545e+01 0.0 
2.210193351704e+01 -7.046769643417e+00 0.0 
2.295180925161e+01 -6.657397605239e+00 0.0 
2.301355235833e+01 -5.709111896800e+00 0.0 
2.379052718281e+01 -6.254965406962e+00 0.0 
3.243528601237e+01 -1.214181853533e+01 0.0 
2.287977995457e+01 -7.583722368300e+00 0.0 
2.999876029544e+01 -1.150837653096e+01 0.0 
3.084435366963e+01 -1.109693775882e+01 0.0 
3.006650579669e+01 -1.057778994262e+01 0.0 
2.683802665066e+01 -9.386863216633e+00 0.0 
2.768641973621e+01 -8.988883915666e+00 0.0 
2.040296980397e+01 -7.903629133404e+00 0.0 
1.925235024054e+01 -1.218872783130e+01 0.0 
5.735667000424e+00 -1.020577277283e+01 0.0 
6.396559909872e+00 -1.272326295703e+01 0.0 
1.161199420714e+01 -1.212812778229e+01 0.0 
4.229046132615e+01 -1.663084237572e+01 0.0 
4.312275399692e+01 -1.718087491556e+01 0.0 
4.335502068163e+01 -1.320039231514e+01 0.0 
4.424630298089e+01 -1.275160688731e+01 0.0 
7.090116643816e+00 -3.818998061530e+00 0.0 
7.989472176569e+00 -3.389238711200e+00 0.0 
9.085824861778e+00 -1.144036167408e+01 0.0 
1.041972423731e+01 -1.651614080893e+01 0.0 
3.797525112640e+01 -1.686052038746e+01 0.0 
3.709114253394e+01 -1.730125999865e+01 0.0 
3.626966748340e+01 -1.675477052919e+01 0.0 
1.385164591440e+01 -1.677597757552e+01 0.0 
1.787152588784e+01 -8.198993896093e+00 0.0 
1.668849729812e+01 -1.248560611628e+01 0.0 
1.659546177905e+01 -3.232482605530e+00 0.0 
2.332214717345e+01 -1.292598167641e+01 0.0 
7.168238450786e+00 -2.824711686516e+00 0.0 
2.894878403906e+01 -1.475427524446e+01 0.0 
2.646763248247e+00 -1.643270107952e+01 0.0 
3.467431944285e+00 -1.699648837348e+01 0.0 
2.059475877282e+01 -1.719473628526e+01 0.0 
3.333868355437e+01 -1.080596971682e+01 0.0 
2.246451062637e+01 -1.334557761546e+01 0.0 
2.167821896388e+01 -1.280847834858e+01 0.0 
3.089653185767e+01 -1.017198487212e+01 0.0 
3.012604365669e+01 -9.657298805968e+00 0.0 
2.929627299435e+01 -1.006100135274e+01 0.0 
2.936201435219e+01 -9.136748899251e+00 0.0 
1.198219052702e+01 -7.291887238230e+00 0.0 
1.116702076035e+01 -6.731976101053e+00 0.0 
2.551388807505e+01 -1.746927036981e+01 0.0 
2.378639090370e+01 -1.728678807149e+01 0.0 
2.718543627188e+01 -1.748668016909e+01 0.0 
2.804681050301e+01 -1.712626668293e+01 0.0 
1.970737034667e+01 -1.762317646822e+01 0.0 
1.889535776135e+01 -1.707158098231e+01 0.0 
2.593777711283e+00 -5.971157087874e+00 0.0 
2.773468281110e+01 -8.067164273938e+00 0.0 
4.051205884347e+01 -1.751819982458e+01 0.0 
3.166903145421e+01 -1.068032992414e+01 0.0 
1.033042452886e+01 -1.748285844336e+01 0.0 
9.519274604626e+00 -1.694349240233e+01 0.0 
1.668308673328e+01 -2.255861778986e+00 0.0 
1.570531902832e+01 -2.676795860126e+00 0.0 
4.655826903379e+01 -1.736656245706e+01 0.0 
2.384148070773e+01 -5.328744256413e+00 0.0 
2.460255123641e+01 -5.852182672816e+00 0.0 
2.306638135119e+01 -4.798935440613e+00 0.0 
8.467720450578e-01 -1.849576263072e+01 0.0 
4.849657322345e+01 -1.084860705506e+01 0.0 
2.565860899507e+00 -1.742859793981e+01 0.0 
2.764418872564e+01 -9.927142821799e+00 0.0 
4.565165880064e+01 -1.785336695404e+01 0.0 
2.162231831329e+01 -1.376528337468e+01 0.0 
2.360646352969e+01 -9.136041963102e+00 0.0 
1.392738739903e+01 -1.578285505772e+01 0.0 
4.756405947478e+01 -1.683706841809e+01 0.0 
4.740895034054e+01 -1.793766756892e+01 0.0 
4.080779328826e+01 -1.257387192544e+01 0.0 
4.168907939671e+01 -1.210739129181e+01 0.0 
3.991197722154e+01 -1.300815793917e+01 0.0 
1.905536506762e+01 -3.940076697685e+00 0.0 
1.923879596617e+01 -2.875000734166e+00 0.0 
4.401386745746e+01 -1.673483229438e+01 0.0 
4.247233362525e+00 -7.094581653070e+00 0.0 
3.286051630211e+00 -7.635300020553e+00 0.0 
9.609533347623e+00 -4.594311677967e+00 0.0 
9.523554636369e+00 -5.595597029530e+00 0.0 
5.660336628893e+00 -1.119290329628e+01 0.0 
6.558070063295e+00 -1.076385809362e+01 0.0 
2.809866407414e+01 -1.518037766799e+01 0.0 
2.888868674504e+01 -1.570360690070e+01 0.0 
2.654431550819e+01 -1.411217777162e+01 0.0 
1.402158265969e+01 -1.375404617952e+01 0.0 
1.409592494026e+01 -1.277071998942e+01 0.0 
1.499355196178e+01 -1.235270737023e+01 0.0 
4.221535326155e+01 -1.759335617494e+01 0.0 
4.305583287033e+01 -1.822663146802e+01 0.0 
1.280748808359e+01 -7.834332838285e+00 0.0 
1.368988389326e+01 -7.420529606172e+00 0.0 
1.110091796060e+01 -7.683966794328e+00 0.0 
3.963446145980e+01 -1.794331310122e+01 0.0 
3.423932362213e+00 -1.796415590455e+01 0.0 
4.280814572302e+00 -1.752272834860e+01 0.0 
8.050136380041e+00 -2.421582378631e+00 0.0 
8.888674091650e+00 -2.984264211327e+00 0.0 
2.152839430898e+01 -3.732609965436e+00 0.0 
2.077799585292e+01 -3.183896021866e+00 0.0 
3.618719395821e+01 -1.770276572576e+01 0.0 
3.538165138340e+01 -1.718709995539e+01 0.0 
3.702925326420e+01 -1.828844288807e+01 0.0 
1.756739438711e+00 -5.353284859169e+00 0.0 
2.233710191104e+01 -1.527265621324e+01 0.0 
1.389483555057e+01 -1.771797164730e+01 0.0 
1.475634224300e+01 -1.728357428390e+01 0.0 
1.298797563052e+01 -1.825968924755e+01 0.0 
2.145331271866e+01 -1.673705379077e+01 0.0 
2.133282821169e+01 -1.769400773673e+01 0.0 
2.292139194136e+01 -1.774915400288e+01 0.0 
1.750750053243e+01 -1.861475593469e+00 0.0 
4.830478841772e+01 -1.752611802221e+01 0.0 
4.341203507805e+01 -1.220326745522e+01 0.0 
1.685254151866e+01 -1.443085301632e+00 0.0 
4.431538535165e+01 -1.171841387375e+01 0.0 
4.511308610496e+01 -1.229557320599e+01 0.0 
4.510133242889e+01 -1.123680627466e+01 0.0 
1.846818030617e+00 -4.410877617069e+00 0.0 
3.995468694584e+01 -1.186571542989e+01 0.0 
3.901387459804e+01 -1.242507616755e+01 0.0 
8.966735877533e+00 -1.837818700423e+00 0.0 
4.049310011091e+01 -1.848269508791e+01 0.0 
7.278862053803e+00 -1.918523922691e+00 0.0 
6.429715522129e+00 -2.316676521184e+00 0.0 
9.443505505022e+00 -1.792198868094e+01 0.0 
8.620386951051e+00 -1.737590365556e+01 0.0 
8.571868171503e+00 -1.834436667826e+01 0.0 
7.758629848526e+00 -1.775677907213e+01 0.0 
7.806648388584e+00 -1.680761266021e+01 0.0 
6.908555145436e+00 -1.723746463044e+01 0.0 
4.251709122090e+01 -1.156937480156e+01 0.0 
6.931136405615e+00 -1.832465719263e+01 0.0 
6.015545461353e+00 -1.768865355295e+01 0.0 
5.960535926343e+00 -1.872011001764e+01 0.0 
3.023253444786e+01 -8.761960642196e+00 0.0 
2.454622702599e+01 -6.749421992767e+00 0.0 
2.537499741604e+01 -6.347634963783e+00 0.0 
2.544077378460e+01 -5.431358513649e+00 0.0 
2.801367161747e+01 -1.820907270221e+01 0.0 
2.884507806914e+01 -1.762032095326e+01 0.0 
1.821474531936e+00 -1.588901260460e+01 0.0 
1.821006262604e+00 -1.489370287756e+01 0.0 
4.599962488908e+01 -1.176478780598e+01 0.0 
4.705457470007e+01 -1.172182804229e+01 0.0 
4.667668314802e+01 -1.263464558483e+01 0.0 
4.759648056504e+01 -1.252380987933e+01 0.0 
4.728041618103e+01 -1.341928568376e+01 0.0 
4.825209352360e+01 -1.330491640804e+01 0.0 
4.778118233428e+01 -1.420151961695e+01 0.0 
2.388192727579e+01 -1.826934810142e+01 0.0 
2.381714684947e+01 -4.385917965223e+00 0.0 
3.172733219247e+01 -9.758744265248e+00 0.0 
1.882012070658e+01 -1.805540597212e+01 0.0 
1.805667505243e+01 -1.742221226236e+01 0.0 
2.852599958080e+01 -8.597196079481e+00 0.0 
2.856486123437e+01 -7.661382718527e+00 0.0 
1.111792842875e+01 -1.818223852980e+01 0.0 
2.203322722466e+01 -7.986646678802e+00 0.0 
3.955703676900e+01 -1.903246763601e+01 0.0 
1.944842206513e+01 -8.038750575182e-01 0.0 
1.909882767783e+01 -1.746322740933e+00 0.0 
2.281147422941e+01 -8.525912918334e+00 0.0 
2.850633001468e+01 -9.533271335986e+00 0.0 
2.532883344309e+01 -7.308951659710e+00 0.0 
2.620475466461e+01 -6.979208585400e+00 0.0 
1.396278270396e+01 -1.475095389807e+01 0.0 
9.791001166724e+00 -2.554159793552e+00 0.0 
2.229293380421e+01 -4.269762271052e+00 0.0 
4.677238984118e+01 -1.430071795514e+01 0.0 
2.228658385918e+01 -3.344747535984e+00 0.0 
8.940223674553e-01 -1.543595733415e+01 0.0 
2.118566862474e+01 -8.435876987696e+00 0.0 
2.678325936437e+01 -1.032621195706e+01 0.0 
2.223400220487e+01 -5.179046761770e+00 0.0 
2.375370625384e+01 -7.251580562134e+00 0.0 
3.156971327386e+01 -1.255534750737e+01 0.0 
3.328226391312e+01 -1.172914813316e+01 0.0 
3.250948774219e+01 -1.120157009348e+01 0.0 
2.032993445717e+01 -8.867880112202e+00 0.0 
2.697226974856e+01 -7.536633082045e+00 0.0 
2.707377810386e+01 -6.590835263295e+00 0.0 
2.914099246827e+01 -1.191678458549e+01 0.0 
3.544824072239e+01 -1.621126558525e+01 0.0 
3.456511855436e+01 -1.665054783843e+01 0.0 
3.448395810225e+01 -1.759117813016e+01 0.0 
3.368378673938e+01 -1.708037781328e+01 0.0 
3.375560452567e+01 -1.610973066913e+01 0.0 
3.288001547988e+01 -1.654324255651e+01 0.0 
3.282475929147e+01 -1.749725654692e+01 0.0 
3.199880906313e+01 -1.697294088625e+01 0.0 
3.197001272932e+01 -1.811667776864e+01 0.0 
3.111884713021e+01 -1.742166785755e+01 0.0 
3.120418962865e+01 -1.642155709385e+01 0.0 
3.034666704371e+01 -1.683123833816e+01 0.0 
3.026224379976e+01 -1.772592851714e+01 0.0 
3.046632362943e+01 -1.582232843075e+01 0.0 
1.961344017324e+01 -1.857459447985e+01 0.0 
2.274975894774e+01 -9.532738811922e+00 0.0 
1.833923246887e+01 -2.396746883672e+00 0.0 
1.988859500848e+01 -2.249244376594e+00 0.0 
2.758045562861e+01 -1.086434261689e+01 0.0 
3.247300178163e+01 -1.909930104252e+01 0.0 
3.461947482503e+01 -1.911879848019e+01 0.0 
2.047161538662e+01 -6.941478180358e+00 0.0 
2.750230940214e+01 -1.915490590764e+01 0.0 
3.165081350803e+01 -1.161860780120e+01 0.0 
1.897456727641e+01 -4.889634688522e+00 0.0 
2.549338539756e+01 -1.914858252089e+01 0.0 
3.462873135081e+01 -1.567482276144e+01 0.0 
3.384432415243e+01 -1.512280684518e+01 0.0 
3.471433767690e+01 -1.469086942990e+01 0.0 
3.651470373046e+01 -1.918207952149e+01 0.0 
3.901742690249e+01 -1.345028556517e+01 0.0 
2.153224102692e+01 -1.920169709333e+01 0.0 
1.918382939341e+01 -1.316226275662e+01 0.0 
2.005389162382e+01 -1.271962165174e+01 0.0 
2.011472087878e+01 -1.175029352900e+01 0.0 
3.210679478412e+01 -1.598038618242e+01 0.0 
1.752175226543e+01 -1.914713022656e+01 0.0 
1.696897240059e+01 -1.832772588765e+01 0.0 
1.599682523337e+01 -1.832599992024e+01 0.0 
1.644507199462e+01 -1.743697981535e+01 0.0 
1.549987712903e+01 -1.915192375101e+01 0.0 
3.050250861901e+01 -1.918943550234e+01 0.0 
2.949944061527e+01 -1.922950455235e+01 0.0 
1.375892575273e+01 -6.447160534926e+00 0.0 
1.457223670180e+01 -7.006709243857e+00 0.0 
1.450818793236e+01 -7.965943451779e+00 0.0 
1.538804712402e+01 -7.553409623699e+00 0.0 
1.545817644768e+01 -6.580929593419e+00 0.0 
1.626506893751e+01 -7.129032608911e+00 0.0 
1.619833811522e+01 -8.086588580887e+00 0.0 
1.714448609609e+01 -6.697429609777e+00 0.0 
2.887616543568e+01 -1.668015232137e+01 0.0 
1.349814589130e+01 -1.918225301544e+01 0.0 
1.153887772210e+01 -1.311384581217e+01 0.0 
1.242708159886e+01 -1.267046795531e+01 0.0 
1.249799674267e+01 -1.169005616014e+01 0.0 
6.631723893693e+00 -9.774184881867e+00 0.0 
7.451471631867e+00 -1.033148796006e+01 0.0 
7.377795355458e+00 -1.132196345268e+01 0.0 
5.810931797536e+00 -9.211654212252e+00 0.0 
2.402683899133e+01 -1.441378562320e+01 0.0 
1.249768692036e+01 -1.917388426624e+01 0.0 
1.580373499437e+01 -1.290751860664e+01 0.0 
8.344650507834e+00 -9.898403995170e+00 0.0 
3.750622115305e+01 -1.086526401533e+01 0.0 
3.699391251667e+01 -1.171695900794e+01 0.0 
3.606517829518e+01 -1.173717504500e+01 0.0 
3.650257641795e+01 -1.270047380221e+01 0.0 
3.808951488918e+01 -1.183518714175e+01 0.0 
4.760380962420e+00 -1.162484888315e+01 0.0 
3.861210370848e+00 -1.205657631736e+01 0.0 
3.038284309476e+00 -1.149851280664e+01 0.0 
2.961598794889e+00 -1.248856794980e+01 0.0 
2.138953225512e+00 -1.193212674534e+01 0.0 
2.227383593457e+00 -1.096258903918e+01 0.0 
2.043265419276e+00 -1.292158472959e+01 0.0 
1.252449446028e+00 -1.225502002753e+01 0.0 
3.949985210740e+01 -1.086594001795e+01 0.0 
1.453499444792e+01 -8.768805922472e-01 0.0 
1.403518950933e+01 -1.749965556633e+00 0.0 
1.300715031023e+01 -1.714737233040e+00 0.0 
1.350929389899e+01 -2.527443911291e+00 0.0 
1.449600910711e+01 -2.595486162864e+00 0.0 
1.395693872901e+01 -3.484211041558e+00 0.0 
1.495105865208e+01 -3.364609636216e+00 0.0 
1.508822528740e+01 -1.766586020494e+00 0.0 
1.250223858430e+01 -8.634590186802e-01 0.0 
1.200279523409e+01 -1.709044504992e+00 0.0 
1.150086239419e+01 -8.592789190668e-01 0.0 
1.101482754194e+01 -1.677730591922e+00 0.0 
1.148018564526e+01 -2.659323866909e+00 0.0 
8.800552119754e+00 -3.989875954728e+00 0.0 
3.452790439430e+00 -1.901136170646e+01 0.0 
8.658451825200e-01 -9.503462241795e+00 0.0 
1.694787786797e+00 -9.000589234502e+00 0.0 
1.703436717094e+00 -8.038819004041e+00 0.0 
2.594197971110e+00 -8.563955242845e+00 0.0 
1.630513735412e+00 -9.907244747511e+00 0.0 
8.566859292791e-01 -7.512203837972e+00 0.0 
1.685461277022e+00 -7.164280248030e+00 0.0 
2.506394468801e+00 -8.623386730818e-01 0.0 
2.007475081581e+00 -1.727729545205e+00 0.0 
9.211534699767e-01 -1.628791366312e+00 0.0 
1.500000000020e+00 -2.598063549486e+00 0.0 
2.482078929963e+00 -2.553580088725e+00 0.0 
2.999795253092e+00 -1.732169015019e+00 0.0 
3.999712607169e+00 -1.728832897453e+00 0.0 
4.499752199340e+00 -8.656478679175e-01 0.0 
4.964377774841e+00 -1.730129617941e+00 0.0 
4.425017908337e+00 -2.597541756243e+00 0.0 
5.446573195014e+00 -8.410144840023e-01 0.0 
4.915722346614e+01 -1.550640962770e+01 0.0 
4.826794919243e+01 -1.600000000000e+01 0.0 
1.053139533193e+01 -1.911782884365e+01 0.0 
4.156049861949e+01 -1.095160998589e+01 0.0 
9.494526624416e+00 -8.650570090219e-01 0.0 
4.555762166964e+01 -1.897098103585e+01 0.0 
4.250656411371e+01 -1.914387356218e+01 0.0 
4.350906466345e+01 -1.917234727395e+01 0.0 
8.759665722424e-01 -1.746422130609e+01 0.0 
1.698936011838e+00 -1.795012186674e+01 0.0 
4.742476811029e+01 -1.900090177972e+01 0.0 
7.749196752349e+00 -6.368049313489e+00 0.0 
3.361572113416e+01 -1.798765193915e+01 0.0 
4.484660149212e+01 -1.728661231383e+01 0.0 
1.984038172228e+01 -4.502575320116e+00 0.0 
1.035080352627e+01 -6.166639575753e+00 0.0 
2.753558010652e+00 -1.444909521181e+01 0.0 
7.217069543032e+00 -1.328635391078e+01 0.0 
4.364336727739e+00 -1.655585677381e+01 0.0 
4.595208426108e+00 -1.357919665443e+01 0.0 
6.164967006980e+00 -1.569873454630e+01 0.0 
1.487855768353e+01 -1.826523774028e+01 0.0 
2.791876456372e+00 -4.019632415181e+00 0.0 
4.246464893515e+01 -1.364898659620e+01 0.0 
4.503855590351e+01 -1.329552780944e+01 0.0 
4.407239109604e+01 -1.573900004093e+01 0.0 
5.141054449252e+00 -6.664290382472e+00 0.0 
3.141083947149e+00 -1.055790764912e+01 0.0 
6.196463198741e+00 -4.256497932609e+00 0.0 
2.599618716181e+01 -1.836893455464e+01 0.0 
2.923057372337e+01 -1.098461757645e+01 0.0 
1.168343877486e+01 -1.114079645041e+01 0.0 
6.706222096238e+00 -8.780364234441e+00 0.0 
8.567858614669e+00 -6.943121440850e+00 0.0 
1.123755132901e+01 -5.753525820030e+00 0.0 
2.353456234423e+01 -1.008536320953e+01 0.0 
9.162073319168e+00 -1.045593739109e+01 0.0 
9.676343469685e+00 -1.496493008366e+01 0.0 
4.490637882905e+01 -1.628778970202e+01 0.0 
7.398129387772e+00 -9.639977982323e-01 0.0 
1.049641705805e+01 -1.552503975272e+01 0.0 
9.010356286268e+00 -1.242805042052e+01 0.0 
3.985573925497e+01 -1.399863651620e+01 0.0 
1.816196318262e+01 -1.554066497931e+01 0.0 
1.306332244168e+01 -3.963646550326e+00 0.0 
4.145850903932e+01 -1.608094559275e+01 0.0 
3.794664933633e+01 -1.779020121986e+01 0.0 
3.819614412903e+01 -1.290749321016e+01 0.0 
6.270014188119e+00 -3.255093186826e+00 0.0 
4.251165370388e+01 -1.263870364997e+01 0.0 
1.207347709171e+01 -1.763942826023e+01 0.0 
3.633240829927e+01 -1.577330481104e+01 0.0 
4.319052668832e+00 -6.101812561904e+00 0.0 
1.676492415806e+01 -1.151547901392e+01 0.0 
2.594059220037e+01 -1.074225223009e+01 0.0 
3.340750911501e+01 -9.898764354137e+00 0.0 
4.397619591281e+01 -1.769773736461e+01 0.0 
2.175611595028e+01 -1.185718747128e+01 0.0 
1.641818733106e+01 -1.640685203215e+01 0.0 
1.661211421753e+01 -1.346121366338e+01 0.0 
3.428853504935e+00 -6.551993389271e+00 0.0 
8.700728832502e+00 -1.638460872825e+01 0.0 
1.931369795309e+01 -1.121629383702e+01 0.0 
4.139798872363e+01 -1.706922153459e+01 0.0 
2.647837478700e+01 -1.507353829290e+01 0.0 
1.779469616424e+01 -9.161615782908e+00 0.0 
3.885879219319e+01 -1.642026488918e+01 0.0 
1.338194936770e+01 -1.125916521471e+01 0.0 
1.897071181111e+01 -1.609204322578e+01 0.0 
2.844308548793e+01 -1.046221003096e+01 0.0 
2.659854702194e+01 -1.316109415760e+01 0.0 
2.979604503271e+01 -1.433296157755e+01 0.0 
2.417694041347e+01 -1.251231397779e+01 0.0 
1.807401327411e+00 -1.388891148480e+01 0.0 
9.599810618782e+00 -1.595439365034e+01 0.0 
1.652144692160e+01 -4.205392788472e+00 0.0 
2.367839450246e+01 -8.188385218643e+00 0.0 
3.814894930468e+01 -1.390748338767e+01 0.0 
2.466448215774e+01 -1.685878545680e+01 0.0 
4.134044524611e+01 -1.806610045954e+01 0.0 
2.600511411958e+01 -9.801774120648e+00 0.0 
7.882158050716e+00 -1.582364037353e+01 0.0 
3.881607873422e+01 -1.737970515013e+01 0.0 
8.270182347708e+00 -1.088622154920e+01 0.0 
8.672520392520e-01 -4.532984309881e+00 0.0 
1.993447205337e+01 -3.579061902667e+00 0.0 
1.794616079549e+01 -7.238038888498e+00 0.0 
2.097277068165e+01 -1.132450168636e+01 0.0 
8.194803300681e+00 -1.187214224265e+01 0.0 
3.522279404911e+01 -1.823342818178e+01 0.0 
6.984481050295e+00 -1.625271465557e+01 0.0 
1.309433007797e+01 -1.521718594215e+01 0.0 
2.150246167611e+01 -1.885399038185e+00 0.0 
3.250689370209e+01 -1.028789870535e+01 0.0 
6.085886272238e+00 -1.668342132851e+01 0.0 
1.588455661727e+01 -1.193498985921e+01 0.0 
1.809323400821e+01 -1.651110084195e+01 0.0 
1.348885082381e+00 -1.136065576512e+01 0.0 
2.497670221995e+01 -1.834631276173e+01 0.0 
2.937062818424e+01 -8.233711194470e+00 0.0 
5.185823744469e+00 -1.711566910207e+01 0.0 
1.477497877209e+01 -1.530177014512e+01 0.0 
2.125346158933e+01 -7.473003997367e+00 0.0 
4.751561118290e+01 -1.084897772632e+01 0.0 
5.056026576843e+00 -1.825750475525e+01 0.0 
1.473948554523e+01 -1.634577436309e+01 0.0 
2.410566630936e+01 -1.345970002612e+01 0.0 
1.507337507513e+01 -1.138527895328e+01 0.0 
3.189857338687e+01 -8.887781229006e+00 0.0 
7.298712468334e+00 -1.230231046246e+01 0.0 
2.738235495295e+01 -1.368931690364e+01 0.0 
3.750141041969e+01 -1.920449893070e+01 0.0 
1.557271965640e+01 -1.683317951731e+01 0.0 
3.393731848929e+01 -1.413034777044e+01 0.0 
6.482156824153e+00 -1.174575135362e+01 0.0 
2.077971718439e+01 -1.421279621836e+01 0.0 
3.455084320178e+00 -2.562590040585e+00 0.0 
3.099056096250e+01 -9.270280416035e+00 0.0 
5.580176125418e+00 -1.217387969259e+01 0.0 
1.707247630389e+01 -7.660651981710e+00 0.0 
1.418658814174e+01 -1.180390575393e+01 0.0 
2.049103025389e+01 -1.811296706038e+01 0.0 
4.680386172316e+00 -1.260396879301e+01 0.0 
1.699679896554e+01 -8.624561788199e+00 0.0 
3.779470168555e+00 -1.303424899720e+01 0.0 
3.036589870126e+01 -7.879832518349e+00 0.0 
3.306993001774e+01 -1.457671062095e+01 0.0 
2.840150110165e+00 -1.346530088269e+01 0.0 
2.732011135052e+01 -1.464591214560e+01 0.0 
5.423639259568e+00 -2.659711955016e+00 0.0 
2.324455961696e+01 -1.387269388211e+01 0.0 
1.752768355571e+00 -1.693128613594e+01 0.0 
1.020244783051e+01 -8.076834012808e+00 0.0 
1.330873875224e+01 -1.222417528206e+01 0.0 
3.297727364880e+01 -1.555480372087e+01 0.0 
2.890929955439e+01 -6.868664170731e+00 0.0 
1.323294664622e+01 -1.320754260334e+01 0.0 
2.726532861246e+01 -1.560593120806e+01 0.0 
2.240020643398e+01 -1.429299177247e+01 0.0 
2.090445823633e+01 -1.228128621332e+01 0.0 
1.315809881502e+01 -1.420739326938e+01 0.0 
2.781328038068e+01 -7.181956082300e+00 0.0 
8.614200829057e+00 -5.936933226306e+00 0.0 
8.714765730069e+00 -4.979270529687e+00 0.0 
1.611881701099e+01 -9.041973294003e+00 0.0 
2.806830314340e+01 -1.614622947108e+01 0.0 
2.084435391396e+00 -3.385085422913e+00 0.0 
3.133211811152e+01 -1.542347619750e+01 0.0 
9.693114650768e+00 -3.590281506442e+00 0.0 
1.531883592202e+01 -8.504584946143e+00 0.0 
2.151589117094e+01 -1.578915763018e+01 0.0 
4.918943882696e+01 -1.355538828056e+01 0.0 
1.443236615188e+01 -8.918701794549e+00 0.0 
8.276250966452e-01 -5.537685192197e+00 0.0 
1.362790867918e+01 -8.374718262212e+00 0.0 
2.083767477370e+01 -1.324843956035e+01 0.0 
1.273834678703e+01 -8.790890389337e+00 0.0 
1.192275845670e+01 -8.242261327467e+00 0.0 
4.477236023583e+01 -1.824312396664e+01 0.0 
1.102989384254e+01 -8.649855800911e+00 0.0 
4.849096516045e+01 -1.917293752213e+01 0.0 
1.588996752238e+00 -1.910230934687e+01 0.0 
4.904245197583e+01 -1.159839008158e+01 0.0 
2.753852929608e+01 -5.782128488093e+00 0.0 
1.756133602833e+01 -8.306130313187e-01 0.0 
2.615423700951e+01 -6.153865090092e+00 0.0 
1.028818761294e+01 -7.122020845892e+00 0.0 
2.970818901196e+01 -1.527821347593e+01 0.0 
4.801461623449e+01 -1.164472570985e+01 0.0 
9.455722100419e+00 -6.546069291118e+00 0.0 
3.089099236677e+01 -1.835339328261e+01 0.0 
2.350000000013e+01 -1.920825896750e+01 0.0 
4.830620531887e+01 -1.506626155470e+01 0.0 
1.725381944701e+01 -1.688794487850e+01 0.0 
2.156246225273e+01 -1.475893794002e+01 0.0 
4.919319648787e+01 -1.742767505896e+01 0.0 
4.437935623576e+01 -1.077662927266e+01 0.0 
1.001520521978e+01 -1.652692675208e+00 0.0 
9.067160240050e-01 -1.441937727541e+01 0.0 
2.603365149390e+01 -4.755996613848e+00 0.0 
2.458344439002e+01 -4.873645517696e+00 0.0 
2.304312390142e+01 -3.836552768096e+00 0.0 
2.546923202198e+00 -6.902480355749e+00 0.0 
1.251534969393e+01 -2.490989965776e+00 0.0 
2.454061833377e+01 -3.933354231935e+00 0.0 
1.788186558740e+01 -1.827424884923e+01 0.0 
4.090785243552e+01 -1.166553231904e+01 0.0 
2.230128851568e+01 -1.623015738726e+01 0.0 
2.302362347568e+01 -2.916239960270e+00 0.0 
3.878119254461e+01 -1.830091164002e+01 0.0 
2.210081359958e+01 -1.829238229150e+01 0.0 
8.443704882233e+00 -1.921993252862e+01 0.0 
2.218405824691e+01 -1.724557581508e+01 0.0 
2.151157503963e+01 -2.790636689331e+00 0.0 
3.741658958955e+01 -1.250400191722e+01 0.0 
2.697247663737e+01 -1.838290202309e+01 0.0 
4.743362342862e+01 -1.585850773010e+01 0.0 
6.671345075358e+00 -1.924977576322e+01 0.0 
3.900825404537e+01 -1.157220003875e+01 0.0 
4.649692961375e+01 -1.836335837481e+01 0.0 
1.578831424832e+01 -3.678284023361e+00 0.0 
4.814208768888e+01 -1.841249298770e+01 0.0 
2.964123298315e+01 -1.625739458193e+01 0.0 
4.580760351902e+01 -1.284294554687e+01 0.0 
3.561520879615e+01 -1.245548941949e+01 0.0 
2.555418095658e+00 -1.841101588290e+01 0.0 
3.288468366144e+01 -1.834258164109e+01 0.0 
2.065894391445e+01 -2.240688571739e+00 0.0 
4.739171429915e+01 -1.496536413446e+01 0.0 
3.478086729185e+00 -8.576434653209e+00 0.0 
1.606010630246e+01 -1.588421807951e+00 0.0 
1.018329200594e+01 -1.834320874317e+01 0.0 
2.957213339430e+01 -1.720496954591e+01 0.0 
4.142712790164e+00 -1.837794506222e+01 0.0 
6.698721532573e-01 -2.499999999997e+00 0.0 
8.037039123140e+00 -1.571229354954e+00 0.0 
1.203541361428e+01 -1.847784298001e+01 0.0 
2.899968332038e+01 -1.848264722179e+01 0.0 
1.469229460948e+01 -4.219485753730e+00 0.0 
4.049590781957e+01 -1.932812501995e+01 0.0 
1.996211678340e+01 -1.506329754720e+00 0.0 
4.250588298353e+01 -1.067383247529e+01 0.0 
5.831497011152e+00 -1.635396227234e+00 0.0 
5.317606125670e+00 -1.923927974868e+01 0.0 
4.208546426993e+01 -1.842830665025e+01 0.0 
2.327553405011e+00 -9.459409929662e+00 0.0 
3.568351902251e+01 -1.096637218582e+01 0.0 
1.682104374890e+00 -6.231413350963e+00 0.0 
2.451812238018e+01 -1.766524914339e+01 0.0 
1.058003429638e+01 -2.391839617098e+00 0.0 
4.399988753123e+01 -1.851998776342e+01 0.0 
1.400000000010e+01 -1.852293523028e+01 0.0 
3.604719565984e+01 -1.850662876800e+01 0.0 
1.951297136734e+01 -1.938092349694e+01 0.0 
1.821365318472e+01 -1.531276353287e+00 0.0 
2.298031859732e+01 -1.854635324722e+01 0.0 
1.552168066204e+01 -1.764280741977e+01 0.0 
4.572957713638e+01 -1.073347898229e+01 0.0 
3.429637429624e+01 -1.838861552790e+01 0.0 
2.427434426052e+00 -7.705577451869e+00 0.0 
4.662792031485e+00 -3.359424455416e+00 0.0 
4.926794919243e+01 -1.926794919243e+01 0.0 
7.320508075690e-01 -7.320508075688e-01 0.0 
4.926794919243e+01 -1.073205080757e+01 0.0 
7.320508075705e-01 -1.926794919243e+01 0.0 
2.917460242467e+00 -3.202866455310e+00 0.0 
4.838200575963e+01 -1.232674147454e+01 0.0 
2.998445708009e+01 -1.854403752148e+01 0.0 
5.949940090766e-01 -1.152762038165e+01 0.0 
4.844763495759e+01 -1.678092548787e+01 0.0 
1.301685480160e+01 -3.170056592566e+00 0.0 
1.650046335855e+01 -6.731535384067e-01 0.0 
4.854881540991e+01 -1.405224059779e+01 0.0 
2.119545114693e+01 -1.846813384545e+01 0.0 
3.797852849897e+01 -1.857978513215e+01 0.0 
4.649823708745e+01 -1.338351810816e+01 0.0 
2.012685900976e+01 -2.889659035009e+00 0.0 
2.953271913273e+01 -1.791558075192e+01 0.0 
2.408509097292e+00 -1.021949208421e+01 0.0 
2.642589566221e+01 -1.773216561448e+01 0.0 
1.730010270775e+01 -1.763165076721e+01 0.0 
2.017406551304e+01 -8.513536440582e-01 0.0 
5.254761581934e-01 -1.249999999999e+01 0.0 
6.640448215642e+00 -1.545337834885e+00 0.0 
7.843361506349e+00 -1.852719839527e+01 0.0 
1.588442191088e+00 -1.066158564320e+01 0.0 
2.280866189488e+01 -1.416779325160e+00 0.0 
4.950862068966e+01 -1.500000000000e+00 0.0 
2.431250000000e+01 -2.420918367347e+00 0.0 
4.950961538461e+01 -2.500000000000e+00 0.0 
2.580823483239e+01 -3.416278049680e+00 0.0 
4.950961538461e+01 -3.500000000000e+00 0.0 
2.731250000000e+01 -4.420918367347e+00 0.0 
4.951086956522e+01 -4.500000000000e+00 0.0 
2.880770112393e+01 -5.415638864241e+00 0.0 
4.951086956522e+01 -5.500000000000e+00 0.0 
3.031250000000e+01 -6.420918367347e+00 0.0 
4.951250000000e+01 -6.500000000000e+00 0.0 
3.180701530612e+01 -7.414795918363e+00 0.0 
4.951250000000e+01 -7.500000000000e+00 0.0 
3.331250000000e+01 -8.420918367347e+00 0.0 
4.951470588234e+01 -8.500000000000e+00 0.0 
3.480610198624e+01 -9.413633635267e+00 0.0 
4.951470588234e+01 -9.500000000000e+00 0.0 

SCALARS node_number int
LOOKUP_TABLE default
1
2
3
4
5
6
7
8
9
10
11
12
13
14
15
16
17
18
19
20
21
22
23
24
25
26
27
28
29
30
31
32
33
34
35
36
37
38
39
40
41
42
43
44
45
46
47
48
49
50
51
52
53
54
55
56
57
58
59
60
61
62
63
64
65
66
67
68
69
70
71
72
73
74
75
76
77
78
79
80
81
82
84
85
86
87
88
89
90
91
92
93
94
95
96
97
98
99
100
101
102
104
105
106
107
108
109
110
111
112
113
114
115
116
117
118
119
120
121
122
123
124
125
126
127
128
129
130
131
132
133
134
135
136
166
167
168
169
170
171
172
173
174
175
176
177
178
179
180
181
182
183
184
185
186
187
188
189
190
191
192
193
194
195
196
197
198
199
200
201
202
203
204
205
206
207
208
209
210
211
212
213
214
215
216
217
218
219
220
221
222
223
224
225
226
227
228
229
230
231
232
233
234
235
236
237
238
239
240
241
242
243
244
245
246
247
248
249
250
251
252
253
254
255
256
257
258
259
260
261
262
263
264
265
266
267
268
269
270
271
272
273
274
275
276
277
278
279
280
281
282
283
284
285
286
287
288
289
290
291
292
293
294
295
296
297
298
299
300
301
302
303
304
305
306
307
308
309
310
311
312
313
314
315
316
317
318
319
320
321
322
323
324
325
326
327
328
329
330
331
332
333
334
335
336
337
338
339
340
341
342
343
344
345
346
347
348
349
350
351
352
353
354
355
356
357
358
359
360
361
362
363
364
365
366
367
368
369
370
371
372
373
374
375
376
377
378
379
380
381
382
383
384
385
386
387
388
389
390
391
392
393
394
395
396
397
398
399
400
401
402
403
404
405
406
407
408
409
410
411
412
413
414
415
416
417
418
419
420
421
422
423
424
425
426
427
428
429
430
431
432
433
434
435
436
437
438
439
440
441
442
443
444
445
446
447
448
449
450
451
452
453
454
455
456
457
458
459
460
461
462
463
464
465
466
467
468
469
470
471
472
473
474
475
476
477
478
479
480
481
482
483
484
485
486
487
488
489
490
491
492
493
494
495
496
497
498
499
500
501
502
503
504
505
506
507
508
509
510
511
512
513
514
515
516
517
518
519
520
521
522
523
524
525
526
527
528
529
530
531
532
533
534
535
536
537
538
539
540
541
542
543
544
545
546
547
548
549
550
551
552
553
554
555
556
557
558
559
560
561
562
563
564
565
566
567
568
569
570
571
572
573
574
575
576
577
578
579
580
581
582
583
584
585
586
587
588
589
590
591
592
593
594
595
596
597
598
599
600
601
602
603
604
605
606
607
608
609
610
611
612
613
614
615
616
617
618
619
620
621
622
623
624
625
626
627
628
629
630
631
632
633
634
635
636
637
638
639
640
641
642
643
644
645
646
647
648
649
650
651
652
653
654
655
656
657
658
659
660
661
662
663
664
665
666
667
668
669
670
671
672
673
674
675
676
677
678
679
680
681
682
683
684
685
686
687
688
689
690
691
692
693
694
695
696
697
698
699
700
701
702
703
704
705
706
707
708
709
710
711
712
713
714
715
716
717
718
719
720
721
722
723
724
725
726
727
728
729
730
731
732
733
734
735
736
737
738
739
740
741
742
743
744
745
746
747
748
749
750
751
752
753
754
755
756
757
758
759
760
761
762
763
764
765
766
767
768
769
770
771
772
773
774
775
776
777
778
779
780
781
782
783
784
785
786
787
788
789
790
791
792
793
794
795
796
797
798
799
800
801
802
803
804
805
806
807
808
809
810
811
812
813
814
815
816
817
818
819
820
821
822
823
824
825
826
827
828
829
830
831
832
833
834
835
836
837
838
839
840
841
842
843
844
845
846
847
848
849
850
851
852
853
854
855
856
857
858
859
860
861
862
863
864
865
866
867
868
869
870
871
872
873
874
875
876
877
878
879
880
881
882
883
884
885
886
887
888
889
890
891
892
893
894
895
896
897
898
899
900
901
902
903
904
905
906
907
908
909
910
911
912
913
914
915
916
917
918
919
920
921
922
923
924
925
926
927
928
929
930
931
932
933
934
935
936
937
938
939
940
941
942
943
944
945
946
947
948
949
950
951
952
953
954
955
956
957
958
959
960
961
962
963
964
965
966
967
968
969
970
971
972
973
974
975
976
977
978
979
980
981
982
983
984
985
986
987
988
989
990
991
992
993
994
995
996
997
998
999
1000
1001
1002
1003
1004
1005
1006
1007
1008
1009
1010
1011
1012
1013
1014
1015
1016
1017
1018
1019
1020
1021
1022
1023
1024
1025
1026
1027
1028
1029
1030
1031
1032
1033
1034
1035
1036
1037
1038
1039
1040
1041
1042
1043
1044
1045
1046
1047
1048
1049
1050
1051
1052
1053
1054
1055
1056
1057
1058
1059
1060
1061
1062
1063
1064
1065
1066
1067
1068
1069
1070
1071
1072
1073
1074
1075
1076
1077
1078
1079
1080
1081
1082
1083
1084
1085
1086
1087
1088
1089
1090
1091
1092
1093
1094
1095
1096
1097
1098
1099
1100
1101
1102
1103
1104
1105
1106
1107
1108
1109
1110
1111
1112
1113
1114
1115
1116
1117
1118
1119
1120
1121
1122
1123
1124
1125
1126
1127
1128
1129
1130
1131
1132
1133
1134
1135
1136
1137
1138
1139
1140
1141
1142
1143
1144
1145
1146
1147
1148
1149
1150
1151
1152
1153
1154
1155
1156
1157
1158
1159
1160
1161
1162
1163
1164
1165
1166
1167
1168
1169
1170
1171
1172
1173
1174
1175
1176
1177
1178
1179
1180
1181
1182
1183
1184
1185
1186
1187
1188
1189
1190
1191
1192
1193
1194
1195
1196
1197
1198
1199
1200
1201
1202
1203
1204
1205
1206
1207
1208
1209
1210
1211
1212
1213
1214
1215
1216
1217
1218
1219
1220
1221
1222
1223
1224
1225
1226
1227
1228
1229
1230
1231
1232
1233
1234
1235
1236
1237
1238
1239
1240
1241
1242
1243
1244
1245
1246
1247
1248
1249
1250
1251
1252
1253
1254
1255
1256
1257
1258
1259
1260
1261
1262
1263
1264
1267
1268
1269
1270
1271
1272
1273
1274
1275
1276
1277
1278
1279
1280
1281
1282
1283
1284

VECTORS node_mesh_deformation float
0.0 8.145113400762e-02 0.0 
0.000000000000e+00 7.239443828610e-02 0.0 
0.0 0.000000000000e+00 0.0 
0.000000000000e+00 0.000000000000e+00 0.0 
0.0 8.134107259824e-02 0.0 
0.0 8.083799867943e-02 0.0 
0.0 7.993818637066e-02 0.0 
0.0 7.863474860650e-02 0.0 
0.0 7.690744783122e-02 0.0 
0.0 7.476662912402e-02 0.0 
0.0 7.221270160151e-02 0.0 
0.0 6.924053868544e-02 0.0 
0.0 6.585052387040e-02 0.0 
0.0 6.203793696076e-02 0.0 
0.0 5.779312501234e-02 0.0 
0.0 5.311503022682e-02 0.0 
0.0 4.800775412264e-02 0.0 
0.0 4.248891253614e-02 0.0 
0.0 3.652060892147e-02 0.0 
0.0 3.011001643386e-02 0.0 
0.0 2.325764483404e-02 0.0 
0.0 1.595343541776e-02 0.0 
0.0 8.193441138285e-03 0.0 
0.000000000000e+00 0.000000000000e+00 0.0 
0.000000000000e+00 0.000000000000e+00 0.0 
0.000000000000e+00 0.000000000000e+00 0.0 
0.000000000000e+00 0.000000000000e+00 0.0 
0.000000000000e+00 0.000000000000e+00 0.0 
0.000000000000e+00 0.000000000000e+00 0.0 
0.000000000000e+00 0.000000000000e+00 0.0 
0.000000000000e+00 0.000000000000e+00 0.0 
0.000000000000e+00 0.000000000000e+00 0.0 
0.000000000000e+00 0.000000000000e+00 0.0 
0.000000000000e+00 0.000000000000e+00 0.0 
0.000000000000e+00 0.000000000000e+00 0.0 
0.000000000000e+00 0.000000000000e+00 0.0 
0.000000000000e+00 0.000000000000e+00 0.0 
0.000000000000e+00 0.000000000000e+00 0.0 
0.000000000000e+00 0.000000000000e+00 0.0 
0.000000000000e+00 0.000000000000e+00 0.0 
0.000000000000e+00 0.000000000000e+00 0.0 
0.000000000000e+00 0.000000000000e+00 0.0 
0.000000000000e+00 0.000000000000e+00 0.0 
0.000000000000e+00 0.000000000000e+00 0.0 
0.000000000000e+00 0.000000000000e+00 0.0 
0.000000000000e+00 0.000000000000e+00 0.0 
0.000000000000e+00 0.000000000000e+00 0.0 
0.000000000000e+00 0.000000000000e+00 0.0 
0.000000000000e+00 0.000000000000e+00 0.0 
0.000000000000e+00 0.000000000000e+00 0.0 
0.000000000000e+00 0.000000000000e+00 0.0 
0.000000000000e+00 0.000000000000e+00 0.0 
0.000000000000e+00 0.000000000000e+00 0.0 
0.000000000000e+00 0.000000000000e+00 0.0 
0.000000000000e+00 0.000000000000e+00 0.0 
0.000000000000e+00 0.000000000000e+00 0.0 
0.000000000000e+00 0.000000000000e+00 0.0 
0.000000000000e+00 0.000000000000e+00 0.0 
0.000000000000e+00 0.000000000000e+00 0.0 
0.000000000000e+00 0.000000000000e+00 0.0 
0.000000000000e+00 0.000000000000e+00 0.0 
0.000000000000e+00 0.000000000000e+00 0.0 
0.000000000000e+00 0.000000000000e+00 0.0 
0.000000000000e+00 0.000000000000e+00 0.0 
0.000000000000e+00 0.000000000000e+00 0.0 
0.000000000000e+00 0.000000000000e+00 0.0 
0.000000000000e+00 0.000000000000e+00 0.0 
0.000000000000e+00 0.000000000000e+00 0.0 
0.000000000000e+00 0.000000000000e+00 0.0 
0.000000000000e+00 0.000000000000e+00 0.0 
0.000000000000e+00 0.000000000000e+00 0.0 
0.000000000000e+00 0.000000000000e+00 0.0 
0.000000000000e+00 6.705208549884e-02 0.0 
0.000000000000e+00 6.128663335085e-02 0.0 
0.000000000000e+00 5.509236830843e-02 0.0 
0.000000000000e+00 4.848248926712e-02 0.0 
0.000000000000e+00 4.144557685177e-02 0.0 
0.000000000000e+00 3.399170478675e-02 0.0 
0.000000000000e+00 2.611890271440e-02 0.0 
0.000000000000e+00 1.782753624501e-02 0.0 
0.000000000000e+00 9.120491665772e-03 0.0 
-2.435074808645e-03 8.984338025593e-02 0.0 
1.538990603350e-03 7.220374877449e-02 0.0 
-8.897741389475e-04 9.309846426967e-02 0.0 
3.666404821914e-04 9.421345157821e-02 0.0 
1.112674666341e-03 9.394626406528e-02 0.0 
1.558169139006e-03 9.276469137967e-02 0.0 
1.807225795066e-03 9.082438546413e-02 0.0 
1.914055738602e-03 8.822400723408e-02 0.0 
1.917893128894e-03 8.502249484420e-02 0.0 
1.843196294125e-03 8.126333912616e-02 0.0 
1.709206254503e-03 7.697950592149e-02 0.0 
0.000000000000e+00 1.012596993415e-01 0.0 
0.000000000000e+00 9.972583252723e-02 0.0 
0.000000000000e+00 9.781534150953e-02 0.0 
0.000000000000e+00 9.545315421815e-02 0.0 
0.000000000000e+00 9.269468765158e-02 0.0 
0.000000000000e+00 8.947588872368e-02 0.0 
0.000000000000e+00 8.586015852894e-02 0.0 
0.000000000000e+00 8.178419315802e-02 0.0 
0.000000000000e+00 7.731491366520e-02 0.0 
9.029562439622e-05 7.239597555449e-02 0.0 
1.689203343460e-04 7.239995975625e-02 0.0 
2.544317654483e-04 7.240462436909e-02 0.0 
3.415708484056e-04 7.240276044142e-02 0.0 
4.274446360739e-04 7.241173569868e-02 0.0 
5.172014146098e-04 7.240878563626e-02 0.0 
6.113332336568e-04 7.241085345971e-02 0.0 
7.019141787268e-04 7.240563002312e-02 0.0 
8.066611903459e-04 7.240818091362e-02 0.0 
9.165628363590e-04 7.239350004937e-02 0.0 
1.029189674519e-03 7.237423656446e-02 0.0 
1.147794649356e-03 7.235291246697e-02 0.0 
1.270816121810e-03 7.231759672413e-02 0.0 
1.400197331975e-03 7.226496738661e-02 0.0 
-2.182039129540e-03 8.810495428167e-02 0.0 
-1.877211733937e-03 8.681304827523e-02 0.0 
-1.579523750330e-03 8.578064929317e-02 0.0 
-1.336447053966e-03 8.495534984759e-02 0.0 
-1.114449967590e-03 8.429976664383e-02 0.0 
-9.111868468512e-04 8.375000976556e-02 0.0 
-7.323918653714e-04 8.329004589879e-02 0.0 
-5.822490907619e-04 8.291014578400e-02 0.0 
-4.553102392570e-04 8.259627036830e-02 0.0 
-3.471736545571e-04 8.234418442484e-02 0.0 
-2.663900399487e-04 8.213133818799e-02 0.0 
-1.880719656242e-04 8.197096345267e-02 0.0 
-1.083042777994e-04 8.182420570737e-02 0.0 
-7.174801454557e-05 8.170268225757e-02 0.0 
-5.341690937666e-05 8.161939443646e-02 0.0 
-3.189723742958e-05 8.155576881314e-02 0.0 
-1.016758394856e-05 8.150600787139e-02 0.0 
8.153018684398e-06 8.147459018215e-02 0.0 
-1.339665519406e-06 8.144718303854e-02 0.0 
1.117067643293e-04 1.012197638655e-01 0.0 
1.852724414277e-04 1.012159385152e-01 0.0 
2.282011863173e-04 1.012295771508e-01 0.0 
2.789202710787e-04 1.012366012024e-01 0.0 
3.329168604509e-04 1.012418251694e-01 0.0 
3.865439644315e-04 1.012456660102e-01 0.0 
4.376213821473e-04 1.012475415869e-01 0.0 
4.846872004407e-04 1.012465212251e-01 0.0 
5.266015225942e-04 1.012414140642e-01 0.0 
5.623497251577e-04 1.012307630881e-01 0.0 
5.909410393556e-04 1.012128203284e-01 0.0 
6.113530256400e-04 1.011855156042e-01 0.0 
6.225037905594e-04 1.011464155911e-01 0.0 
6.232523588636e-04 1.010926821966e-01 0.0 
6.124220108177e-04 1.010210037219e-01 0.0 
5.888281341839e-04 1.009275458145e-01 0.0 
5.513040994174e-04 1.008077879231e-01 0.0 
4.987467539053e-04 1.006565307978e-01 0.0 
4.301421103143e-04 1.004674180876e-01 0.0 
3.446966239657e-04 1.002333516361e-01 0.0 
2.417028855177e-04 9.994477428679e-02 0.0 
1.213276091647e-04 9.959209929742e-02 0.0 
-1.675082089037e-05 9.915912327800e-02 0.0 
-1.696478373461e-04 9.863410323810e-02 0.0 
-3.399973845823e-04 9.798503821214e-02 0.0 
-5.162203140721e-04 9.719652733217e-02 0.0 
-7.027976888025e-04 9.620696695127e-02 0.0 
-8.963441200116e-04 9.493257236741e-02 0.0 
3.519997677053e-04 9.535113316793e-02 0.0 
3.785793943010e-04 9.625056047121e-02 0.0 
4.212264636330e-04 9.695981191513e-02 0.0 
4.687652151389e-04 9.754260949552e-02 0.0 
5.220711793967e-04 9.801205147880e-02 0.0 
5.715526922678e-04 9.839539142709e-02 0.0 
6.163901579050e-04 9.870543228219e-02 0.0 
6.534438813546e-04 9.895606658315e-02 0.0 
6.820871467639e-04 9.915683478406e-02 0.0 
7.014293377665e-04 9.931642175014e-02 0.0 
7.114381449966e-04 9.944173668241e-02 0.0 
7.122109294215e-04 9.953870235206e-02 0.0 
7.041526439124e-04 9.961228841887e-02 0.0 
6.877780192127e-04 9.966674752211e-02 0.0 
6.637190234784e-04 9.970570360150e-02 0.0 
6.326578444842e-04 9.973225914686e-02 0.0 
5.953084294035e-04 9.974906628692e-02 0.0 
5.523989538574e-04 9.975838100349e-02 0.0 
5.046727682227e-04 9.976210843483e-02 0.0 
4.528924403786e-04 9.976184666438e-02 0.0 
3.978435675975e-04 9.975892051368e-02 0.0 
3.403149088044e-04 9.975439563218e-02 0.0 
2.809963876729e-04 9.974903243972e-02 0.0 
2.201671374422e-04 9.974311249605e-02 0.0 
1.570633853447e-04 9.973721615980e-02 0.0 
9.100506266435e-05 9.975481648473e-02 0.0 
1.056900696547e-03 9.472617509261e-02 0.0 
1.025875352166e-03 9.537148027530e-02 0.0 
9.877218722458e-04 9.588025877803e-02 0.0 
9.659268846072e-04 9.630568028812e-02 0.0 
9.471567848998e-04 9.664656224751e-02 0.0 
9.325301915020e-04 9.692581582858e-02 0.0 
9.172648554241e-04 9.714936956115e-02 0.0 
9.004804220183e-04 9.732870777409e-02 0.0 
8.805941593337e-04 9.747032577179e-02 0.0 
8.570364563028e-04 9.758107512815e-02 0.0 
8.292866227322e-04 9.766603106904e-02 0.0 
7.971888653771e-04 9.772986084660e-02 0.0 
7.607045421238e-04 9.777638826844e-02 0.0 
7.199468568615e-04 9.780895481075e-02 0.0 
6.751346172180e-04 9.783041047601e-02 0.0 
6.265816448447e-04 9.784322024306e-02 0.0 
5.746527356152e-04 9.784947118081e-02 0.0 
5.197416249771e-04 9.785092061237e-02 0.0 
4.622496937117e-04 9.784903319122e-02 0.0 
4.025550458380e-04 9.784499628902e-02 0.0 
3.409509345786e-04 9.783969664686e-02 0.0 
2.775599611340e-04 9.783364373995e-02 0.0 
2.123139031340e-04 9.782688839937e-02 0.0 
1.450790026851e-04 9.781867390410e-02 0.0 
7.316790836143e-05 9.779204167220e-02 0.0 
7.330562691266e-05 9.548355626074e-02 0.0 
1.465571388763e-04 9.547286096001e-02 0.0 
2.184758564709e-04 9.547947846636e-02 0.0 
2.891065065498e-04 9.548677803990e-02 0.0 
3.584789633493e-04 9.549357736687e-02 0.0 
4.266495171379e-04 9.549956928756e-02 0.0 
4.936081670976e-04 9.550420186069e-02 0.0 
5.592591291403e-04 9.550655513342e-02 0.0 
6.234707594004e-04 9.550536004277e-02 0.0 
6.861066317825e-04 9.549902611677e-02 0.0 
7.470559973086e-04 9.548561762969e-02 0.0 
8.062475993924e-04 9.546281566906e-02 0.0 
8.636751365998e-04 9.542783991893e-02 0.0 
9.195431290294e-04 9.537748357783e-02 0.0 
9.741363557936e-04 9.530799933257e-02 0.0 
1.028097839196e-03 9.521516577282e-02 0.0 
1.081793319848e-03 9.509362142204e-02 0.0 
1.136812149575e-03 9.493796051676e-02 0.0 
1.193197900207e-03 9.473971407961e-02 0.0 
1.255060757330e-03 9.449326775252e-02 0.0 
1.319883859495e-03 9.418078968418e-02 0.0 
1.400277524720e-03 9.380712404939e-02 0.0 
1.472573155564e-03 9.332753050885e-02 0.0 
1.701278251740e-03 9.122042078693e-02 0.0 
1.607060435614e-03 9.157054000622e-02 0.0 
1.503004796305e-03 9.183528971603e-02 0.0 
1.411583506073e-03 9.205956942840e-02 0.0 
1.323508904207e-03 9.223324613385e-02 0.0 
1.241372292739e-03 9.237328762094e-02 0.0 
1.162256679770e-03 9.248075968704e-02 0.0 
1.086197076212e-03 9.256351119626e-02 0.0 
1.012040431227e-03 9.262474778554e-02 0.0 
9.391908729981e-04 9.266883423207e-02 0.0 
8.669885224037e-04 9.269889752166e-02 0.0 
7.952018931121e-04 9.271811424259e-02 0.0 
7.236476972707e-04 9.272896516795e-02 0.0 
6.521540394431e-04 9.273352983949e-02 0.0 
5.805938300583e-04 9.273356104049e-02 0.0 
5.088812676064e-04 9.273048153993e-02 0.0 
4.369929660655e-04 9.272543808142e-02 0.0 
3.648604444919e-04 9.271919692868e-02 0.0 
2.924021693715e-04 9.271224086912e-02 0.0 
2.195780355692e-04 9.270486911350e-02 0.0 
1.464199401653e-04 9.269648517969e-02 0.0 
7.317834699450e-05 9.266940375430e-02 0.0 
7.720505436737e-05 8.950560593877e-02 0.0 
1.546549750060e-04 8.949371485999e-02 0.0 
2.322708625471e-04 8.949983348533e-02 0.0 
3.101722822834e-04 8.950693978556e-02 0.0 
3.884840332802e-04 8.951371849880e-02 0.0 
4.673558601951e-04 8.951973270527e-02 0.0 
5.470250965871e-04 8.952441576511e-02 0.0 
6.275932020259e-04 8.952700578512e-02 0.0 
7.092001721176e-04 8.952612599570e-02 0.0 
7.921674251889e-04 8.952015737352e-02 0.0 
8.769164517730e-04 8.950711556341e-02 0.0 
9.637787673995e-04 8.948479596986e-02 0.0 
1.053010943103e-03 8.945053514857e-02 0.0 
1.144824793386e-03 8.940030777608e-02 0.0 
1.240860825966e-03 8.933080961151e-02 0.0 
1.340972249750e-03 8.923685083161e-02 0.0 
1.448364263247e-03 8.911670165453e-02 0.0 
1.558629894475e-03 8.895788438533e-02 0.0 
1.681717099025e-03 8.876821528081e-02 0.0 
1.795138767534e-03 8.851312094270e-02 0.0 
1.794249963528e-03 8.522089553819e-02 0.0 
1.675273589861e-03 8.540282713613e-02 0.0 
1.544712449437e-03 8.552951696408e-02 0.0 
1.426115411732e-03 8.564078686664e-02 0.0 
1.312082383166e-03 8.572129672686e-02 0.0 
1.205299878016e-03 8.578375441573e-02 0.0 
1.102292147912e-03 8.582644965978e-02 0.0 
1.003372545625e-03 8.585616776427e-02 0.0 
9.081456626419e-04 8.587569818928e-02 0.0 
8.164342009707e-04 8.588713040796e-02 0.0 
7.277605536444e-04 8.589216690190e-02 0.0 
6.411815280813e-04 8.589253880103e-02 0.0 
5.566353887474e-04 8.589007172121e-02 0.0 
4.740239033652e-04 8.588604874782e-02 0.0 
3.929653461299e-04 8.588074534283e-02 0.0 
3.130949672041e-04 8.587475462428e-02 0.0 
2.342899178558e-04 8.586839340945e-02 0.0 
1.559766193466e-04 8.586089071579e-02 0.0 
7.788708138889e-05 8.583440862501e-02 0.0 
8.227517977843e-05 8.181287790065e-02 0.0 
1.647874273516e-04 8.180075168927e-02 0.0 
2.469607640876e-04 8.180653186946e-02 0.0 
3.307069654426e-04 8.181180612703e-02 0.0 
4.155329771507e-04 8.181708006619e-02 0.0 
5.024517940413e-04 8.182122047099e-02 0.0 
5.916324146042e-04 8.182382015427e-02 0.0 
6.843534377907e-04 8.182478942539e-02 0.0 
7.792041231269e-04 8.182351004030e-02 0.0 
8.779837840933e-04 8.181563001322e-02 0.0 
9.818409022060e-04 8.180037824583e-02 0.0 
1.090325271875e-03 8.177683858634e-02 0.0 
1.204117471922e-03 8.174202798237e-02 0.0 
1.324289012750e-03 8.169386674420e-02 0.0 
1.447330215427e-03 8.161902462809e-02 0.0 
1.584855852428e-03 8.152954969985e-02 0.0 
1.712466053498e-03 8.139955614631e-02 0.0 
1.582772689147e-03 7.706844147020e-02 0.0 
1.459361912858e-03 7.716669211902e-02 0.0 
1.326371820070e-03 7.721693128763e-02 0.0 
1.203976654679e-03 7.725978411655e-02 0.0 
1.088548207484e-03 7.728959766800e-02 0.0 
9.777918861218e-04 7.730960639265e-02 0.0 
8.726921765074e-04 7.732485227998e-02 0.0 
7.735698691107e-04 7.733232431624e-02 0.0 
6.770552054789e-04 7.733082660237e-02 0.0 
5.859159499053e-04 7.733279601742e-02 0.0 
4.968324576495e-04 7.733070619677e-02 0.0 
4.117606362115e-04 7.732859120118e-02 0.0 
3.269462168447e-04 7.732324280007e-02 0.0 
2.451479883376e-04 7.732040038772e-02 0.0 
1.647565823362e-04 7.731217384199e-02 0.0 
8.018611579530e-05 7.728319663714e-02 0.0 
-1.678766042915e-03 9.155871902522e-02 0.0 
-1.452947436462e-04 9.387840216676e-02 0.0 
8.030837100179e-04 9.421007733938e-02 0.0 
1.378548103997e-03 9.345868169958e-02 0.0 
1.712595721930e-03 9.188112051384e-02 0.0 
1.879712214670e-03 8.959987301903e-02 0.0 
1.937313103326e-03 8.669676993331e-02 0.0 
1.898736559358e-03 8.321296365738e-02 0.0 
1.790988472486e-03 7.918722001362e-02 0.0 
1.635873348100e-03 7.465243334674e-02 0.0 
8.828697902707e-04 9.246384575854e-02 0.0 
5.438295119120e-04 7.362028515942e-03 0.0 
-1.653649671507e-04 8.233223346048e-02 0.0 
-6.317562911420e-04 8.449016604805e-02 0.0 
3.957586653467e-04 7.236088096928e-03 0.0 
1.878447355725e-03 9.115291561580e-02 0.0 
1.437192171581e-04 5.989159243334e-02 0.0 
5.964435319896e-04 7.518148759981e-03 0.0 
2.148758487344e-03 8.653097902815e-02 0.0 
5.525762722662e-04 7.458801485548e-03 0.0 
2.022976919193e-03 7.939299858308e-02 0.0 
2.370112225183e-04 6.607942640251e-03 0.0 
1.401806315560e-05 8.164135409228e-02 0.0 
4.647926783505e-04 7.688200188394e-03 0.0 
1.671049042322e-03 7.002423423890e-02 0.0 
1.070357342056e-04 7.345949803399e-02 0.0 
1.513149185581e-04 4.643194726244e-02 0.0 
3.913985818684e-04 8.092609803281e-03 0.0 
2.561870612823e-04 7.770423731085e-03 0.0 
7.810082404092e-05 7.829755628851e-03 0.0 
1.351840957469e-04 8.500311367886e-03 0.0 
1.828887594968e-04 7.608614588506e-03 0.0 
1.336338105766e-03 6.757376110652e-02 0.0 
8.562121111808e-04 6.759484419645e-02 0.0 
5.601895939051e-04 6.748130161886e-02 0.0 
5.781100178126e-05 4.491248814130e-02 0.0 
1.393784298482e-04 7.147557853170e-03 0.0 
-9.803588346742e-04 8.734196402030e-02 0.0 
2.769573258332e-05 8.142294983729e-02 0.0 
1.049251473639e-04 2.726787272169e-02 0.0 
2.861083368941e-04 6.783487584264e-02 0.0 
6.098717789449e-05 7.936212552285e-02 0.0 
3.599601929807e-04 8.942132107197e-03 0.0 
5.395768379834e-04 6.905802023208e-03 0.0 
5.055655971624e-04 7.471801766417e-03 0.0 
6.169937283040e-04 7.879762389020e-03 0.0 
4.647072527337e-04 6.950208782481e-03 0.0 
-3.990408374008e-04 8.335442518743e-02 0.0 
1.082181388632e-03 6.788610193397e-02 0.0 
3.703576701444e-04 8.227208748256e-03 0.0 
3.707040192324e-05 3.044751086019e-02 0.0 
-6.395516806101e-05 8.191417476105e-02 0.0 
1.351696584585e-04 6.760030324969e-02 0.0 
3.355149301854e-05 6.376597211286e-03 0.0 
2.090267372939e-03 8.912518295353e-02 0.0 
1.498657350709e-03 9.235920046855e-02 0.0 
2.124243103736e-03 8.327525349698e-02 0.0 
1.865888746806e-03 7.497361704006e-02 0.0 
-2.778865284228e-04 9.099237173750e-02 0.0 
7.000778426658e-05 5.750512891165e-02 0.0 
6.811539249485e-05 5.653798687437e-03 0.0 
2.127108149619e-06 8.138272266844e-02 0.0 
1.858499986440e-05 1.419114973449e-02 0.0 
1.575479062993e-03 6.732412356827e-02 0.0 
1.667864187517e-03 6.497338967340e-02 0.0 
1.523631246975e-03 6.240940335859e-02 0.0 
1.640585926303e-03 5.954554438392e-02 0.0 
1.489756158001e-03 5.633977665439e-02 0.0 
1.579153648876e-03 5.359662657334e-02 0.0 
1.742211931948e-03 5.684927175279e-02 0.0 
1.658258279804e-03 5.077559464904e-02 0.0 
1.834725267763e-03 5.412306045782e-02 0.0 
1.419860822303e-03 5.014388892780e-02 0.0 
1.724749742408e-03 4.787229228131e-02 0.0 
1.915214037528e-03 5.130876469587e-02 0.0 
1.776490727416e-03 4.490206420513e-02 0.0 
1.979608505668e-03 4.840448042876e-02 0.0 
2.103120396747e-03 5.461188767131e-02 0.0 
2.180705920306e-03 5.179864666286e-02 0.0 
2.285466345750e-03 5.776137833724e-02 0.0 
2.375600305758e-03 5.503082392159e-02 0.0 
2.239420511312e-03 4.891971499140e-02 0.0 
2.445381558960e-03 5.223512290929e-02 0.0 
2.561601649560e-03 5.810841036099e-02 0.0 
2.641091634530e-03 5.539034086198e-02 0.0 
2.735994860391e-03 6.101917656689e-02 0.0 
2.823337985358e-03 5.836162241027e-02 0.0 
2.897516052592e-03 6.377923412995e-02 0.0 
2.990328450398e-03 6.117245340555e-02 0.0 
2.882706259847e-03 5.563200223471e-02 0.0 
3.052981709757e-03 5.850904175489e-02 0.0 
3.137926332563e-03 6.380376839391e-02 0.0 
3.201514678398e-03 6.120650671535e-02 0.0 
3.262819668404e-03 6.625358048752e-02 0.0 
3.324290474424e-03 6.371673276961e-02 0.0 
3.229024377251e-03 5.854650188442e-02 0.0 
3.346802804963e-03 6.113223305390e-02 0.0 
3.416973886495e-03 6.604816230732e-02 0.0 
3.430947000474e-03 6.353367309278e-02 0.0 
3.474257501139e-03 6.819160825719e-02 0.0 
3.476455271716e-03 6.574344359369e-02 0.0 
3.490846415108e-03 7.013258125149e-02 0.0 
3.477924931786e-03 6.776976886392e-02 0.0 
3.436850454470e-03 6.323747363253e-02 0.0 
3.423971203581e-03 6.535160399692e-02 0.0 
3.429874725207e-03 6.961919863039e-02 0.0 
3.361351045694e-03 6.730328063036e-02 0.0 
3.333655361484e-03 6.292055876052e-02 0.0 
3.259585544075e-03 6.499061059410e-02 0.0 
3.212139710762e-03 6.048050491514e-02 0.0 
3.130323951357e-03 6.267437948427e-02 0.0 
3.137431798844e-03 6.687601292053e-02 0.0 
3.003533142682e-03 6.468639765274e-02 0.0 
2.978892658653e-03 6.034289393778e-02 0.0 
2.850652102001e-03 6.251388934773e-02 0.0 
2.834594023060e-03 6.657662118671e-02 0.0 
2.685680690425e-03 6.451343308611e-02 0.0 
2.683618940802e-03 6.030708481433e-02 0.0 
2.523425191999e-03 6.245626550069e-02 0.0 
2.489159033807e-03 6.639020552483e-02 0.0 
2.336276905108e-03 6.445816248183e-02 0.0 
2.352402529231e-03 6.033232161033e-02 0.0 
2.174060918954e-03 6.250708630894e-02 0.0 
2.127774899174e-03 6.635040459141e-02 0.0 
1.978337679287e-03 6.452321049467e-02 0.0 
2.005515837894e-03 6.048545381773e-02 0.0 
1.820972517773e-03 6.266771218952e-02 0.0 
1.830690143805e-03 5.842837589274e-02 0.0 
1.767418375806e-03 6.646448036140e-02 0.0 
1.624828019397e-03 6.472791892361e-02 0.0 
1.549842103394e-03 6.831304140139e-02 0.0 
1.423081779551e-03 6.667514474628e-02 0.0 
3.219266873234e-03 5.583267378877e-02 0.0 
1.334905094907e-03 7.001959640810e-02 0.0 
1.438909937532e-03 7.143268961698e-02 0.0 
1.221879973424e-03 6.850486439697e-02 0.0 
1.287244593519e-03 6.498149851295e-02 0.0 
1.125195588224e-03 7.160982061032e-02 0.0 
1.025647064587e-03 7.021469504738e-02 0.0 
9.262670327148e-04 7.308533984065e-02 0.0 
3.456737855114e-03 7.263506327104e-02 0.0 
2.275005638538e-03 4.596641363075e-02 0.0 
8.389088903860e-04 7.180819615934e-02 0.0 
7.434031738116e-04 7.444589781770e-02 0.0 
8.034023772723e-04 7.554650148500e-02 0.0 
6.279515658525e-04 7.667379758043e-02 0.0 
1.346098074151e-03 5.304738257512e-02 0.0 
1.258195878627e-03 4.654407655350e-02 0.0 
1.197838790809e-03 4.959056400497e-02 0.0 
1.096020033728e-03 4.283033580603e-02 0.0 
1.048068770878e-03 4.595465266916e-02 0.0 
5.779332455402e-04 7.569169361194e-02 0.0 
1.572392161165e-03 4.110768322914e-02 0.0 
1.132949951945e-03 3.958603732727e-02 0.0 
2.624707408366e-03 6.360985721308e-02 0.0 
3.164523982374e-03 6.873292610257e-02 0.0 
3.247002739624e-03 5.812249718230e-02 0.0 
9.145182135306e-04 6.875883549976e-02 0.0 
7.374311057147e-04 7.047101807116e-02 0.0 
7.938031582686e-04 6.724033893057e-02 0.0 
1.987093751556e-03 5.599402891547e-02 0.0 
1.797323752712e-03 5.375846357543e-02 0.0 
1.922595360066e-03 5.106029988988e-02 0.0 
1.721257362261e-03 4.865450908395e-02 0.0 
1.812542183439e-03 4.569100736714e-02 0.0 
1.603024566670e-03 4.311490727927e-02 0.0 
1.520398798643e-03 4.620124303907e-02 0.0 
1.396679169579e-03 4.048361278177e-02 0.0 
1.322157995459e-03 4.369299363209e-02 0.0 
1.657329124775e-03 3.988861645828e-02 0.0 
1.874709665175e-03 4.258369019644e-02 0.0 
1.195937403379e-03 3.779721310263e-02 0.0 
1.128671606510e-03 4.112206431272e-02 0.0 
1.002888529420e-03 3.504629200765e-02 0.0 
9.420261828508e-04 3.848603078371e-02 0.0 
1.037961756688e-03 4.431586440515e-02 0.0 
8.576625009109e-04 4.179472264062e-02 0.0 
9.281829550041e-04 4.737619886945e-02 0.0 
3.106549939115e-03 5.555264869270e-02 0.0 
3.102771072687e-03 5.290190189278e-02 0.0 
2.943588452467e-03 5.020301546550e-02 0.0 
2.900579924802e-03 4.726264303128e-02 0.0 
2.722929964179e-03 4.442853874166e-02 0.0 
2.639856030477e-03 4.120728424138e-02 0.0 
2.443533278193e-03 3.822744081123e-02 0.0 
2.525084677746e-03 4.156841845806e-02 0.0 
1.812695650166e-03 4.183575475060e-02 0.0 
3.327099023782e-03 7.127628847307e-02 0.0 
3.372216402074e-03 7.348717920133e-02 0.0 
3.226358561626e-03 7.484572874288e-02 0.0 
3.245849008785e-03 7.695055551250e-02 0.0 
3.052112066189e-03 7.800299421251e-02 0.0 
3.042448037068e-03 8.002051780972e-02 0.0 
2.792881814877e-03 8.076507230931e-02 0.0 
2.792535960069e-03 7.887131480767e-02 0.0 
2.470361873630e-03 8.133093205224e-02 0.0 
2.472015790786e-03 7.959442341802e-02 0.0 
2.087061194086e-03 8.175184446625e-02 0.0 
2.103769919366e-03 8.020731883982e-02 0.0 
2.910992478302e-03 5.284127251850e-02 0.0 
2.813444047600e-03 4.414712411678e-02 0.0 
2.513129798501e-03 3.781187077406e-02 0.0 
2.683999106655e-03 4.085621579594e-02 0.0 
6.590885612070e-04 7.759853826998e-02 0.0 
7.638776616306e-04 3.577859118788e-02 0.0 
1.679030519842e-03 3.651442690651e-02 0.0 
1.904179908008e-03 3.938064117488e-02 0.0 
2.229435280821e-03 3.521633105737e-02 0.0 
4.747503911986e-04 7.768720117286e-02 0.0 
2.749284889223e-03 8.270050955403e-02 0.0 
2.979028762958e-03 8.208197776130e-02 0.0 
9.373106010386e-04 3.893289305546e-02 0.0 
9.021282912371e-04 4.216155650048e-02 0.0 
1.664030305260e-03 3.299755450192e-02 0.0 
4.321004384433e-04 7.682109127102e-02 0.0 
1.235196867098e-03 3.433785414268e-02 0.0 
2.034426074154e-03 8.337114916311e-02 0.0 
6.843942336676e-04 3.920438172173e-02 0.0 
5.958891059468e-04 3.300107979084e-02 0.0 
1.414128749884e-03 4.913780232206e-02 0.0 
2.344697963835e-03 3.423967233852e-02 0.0 
2.520630992880e-03 3.749523937777e-02 0.0 
2.447908783999e-03 7.789571657412e-02 0.0 
2.098452888395e-03 7.870358116862e-02 0.0 
1.710522374974e-03 8.072805739121e-02 0.0 
1.744322758565e-03 7.933715785219e-02 0.0 
2.074984314245e-03 7.718871238980e-02 0.0 
1.739331059202e-03 7.805793823335e-02 0.0 
1.384128513033e-03 7.995716640668e-02 0.0 
1.408375782885e-03 7.883753110741e-02 0.0 
1.716526706794e-03 7.673815403158e-02 0.0 
1.412257119863e-03 7.767035438658e-02 0.0 
1.095550070660e-03 7.954041367394e-02 0.0 
1.126026875236e-03 7.851111287353e-02 0.0 
6.478594266923e-04 2.932126669559e-02 0.0 
1.580091803053e-03 8.348562592374e-02 0.0 
2.178841218704e-03 6.041045970259e-02 0.0 
1.435582644072e-03 3.000810933951e-02 0.0 
2.108175528232e-03 3.168779188793e-02 0.0 
7.850562904324e-04 3.488460964331e-02 0.0 
7.618338218407e-04 3.821808052519e-02 0.0 
8.583888276590e-04 4.534467036487e-02 0.0 
7.281337926486e-04 4.148477314465e-02 0.0 
6.286846629493e-04 3.411922508036e-02 0.0 
6.044464399793e-04 3.748855584803e-02 0.0 
6.853592698661e-04 4.468787605712e-02 0.0 
5.707141848106e-04 4.078455113404e-02 0.0 
6.352953032973e-04 4.781221161611e-02 0.0 
5.293731315419e-04 4.400088971599e-02 0.0 
4.640974037287e-04 3.674007427855e-02 0.0 
4.305144494623e-04 4.005787184550e-02 0.0 
4.816682208713e-04 4.714110724510e-02 0.0 
3.891430390652e-04 4.329603041063e-02 0.0 
4.276587452310e-04 5.019717097475e-02 0.0 
3.410036171019e-04 4.645013826406e-02 0.0 
3.054835988792e-04 3.931955070526e-02 0.0 
3.506550587762e-04 7.852313344530e-02 0.0 
2.312032336629e-03 3.868405842916e-02 0.0 
2.002006925306e-03 3.216625323697e-02 0.0 
6.270498472505e-04 6.906377296507e-02 0.0 
6.756742238911e-04 6.564831084161e-02 0.0 
8.313458296048e-04 6.358641961998e-02 0.0 
6.822756093650e-04 6.182776398206e-02 0.0 
2.642591410478e-04 4.260727893758e-02 0.0 
2.275269813339e-04 3.521862911918e-02 0.0 
2.649345290095e-03 8.467357897892e-02 0.0 
2.851274950601e-03 8.416509907664e-02 0.0 
7.958015166452e-04 3.147998189899e-02 0.0 
5.193111517805e-04 3.654250253116e-02 0.0 
5.861808684653e-04 4.249652487994e-02 0.0 
3.264909492398e-03 7.092535573298e-02 0.0 
3.132122665754e-03 7.328854508657e-02 0.0 
3.205594673698e-03 7.523352868124e-02 0.0 
3.035709154517e-03 7.757098021452e-02 0.0 
2.967708237620e-03 7.559223082463e-02 0.0 
3.077511698304e-03 7.929140075985e-02 0.0 
2.094336410790e-03 4.533040139977e-02 0.0 
3.668698702270e-04 3.256138415529e-02 0.0 
8.457538322206e-04 7.659170454927e-02 0.0 
6.673674772575e-04 7.847105309567e-02 0.0 
4.415568243963e-04 3.014886516764e-02 0.0 
2.563310361701e-03 4.475619694325e-02 0.0 
2.717795039072e-03 4.970431564470e-02 0.0 
2.710895715783e-03 4.676703140335e-02 0.0 
2.493942274747e-03 4.336175653041e-02 0.0 
2.450805468968e-03 4.028357598768e-02 0.0 
2.209382370555e-03 3.660687035932e-02 0.0 
2.127617723101e-03 3.338087356781e-02 0.0 
2.375102739329e-03 3.715164681613e-02 0.0 
2.136231651143e-03 3.045891299308e-02 0.0 
2.013526785060e-03 3.008603342290e-02 0.0 
2.931005498681e-04 4.957938033803e-02 0.0 
2.962964281878e-03 4.711645044009e-02 0.0 
1.674850931632e-03 7.539352982232e-02 0.0 
3.712397295885e-04 7.921068069534e-02 0.0 
8.030227962408e-04 8.019522132214e-02 0.0 
3.077281815473e-04 7.781831990893e-02 0.0 
3.724769081539e-04 7.588668717229e-02 0.0 
1.373379497213e-03 2.621030839556e-02 0.0 
1.861551195024e-03 2.943694159346e-02 0.0 
1.952639093552e-03 3.276855871865e-02 0.0 
2.834327767790e-03 7.977006467906e-02 0.0 
2.777679088048e-03 7.779407428245e-02 0.0 
1.938749015153e-03 2.720031653682e-02 0.0 
1.130583999000e-03 5.262131732006e-02 0.0 
7.468318788995e-04 5.149105561690e-02 0.0 
6.840025149870e-04 5.443399339772e-02 0.0 
2.359896999837e-04 7.944939884914e-02 0.0 
7.354283115362e-04 8.097926515152e-02 0.0 
5.043474987545e-04 2.988117293657e-02 0.0 
3.128700177236e-03 8.126948704697e-02 0.0 
2.979502170849e-03 8.340139000336e-02 0.0 
1.461885911993e-03 8.498162389067e-02 0.0 
9.299797894577e-04 8.479557902970e-02 0.0 
1.915121200398e-04 3.852714291556e-02 0.0 
1.622974876341e-04 3.098295255618e-02 0.0 
8.409088987031e-04 5.951946023628e-02 0.0 
6.845446019632e-04 5.757591767867e-02 0.0 
1.608686279216e-03 2.930788137699e-02 0.0 
8.663563280500e-04 7.925720870302e-02 0.0 
1.871768313606e-04 2.742904065480e-02 0.0 
2.351178438593e-03 4.198184773034e-02 0.0 
2.558700267663e-03 4.778440720762e-02 0.0 
5.287968110621e-04 6.402358525927e-02 0.0 
2.474533664611e-03 8.669460990999e-02 0.0 
2.211903872325e-03 8.687765477986e-02 0.0 
1.962822965430e-03 7.421316958830e-02 0.0 
1.130752886409e-03 7.744842034107e-02 0.0 
2.520205368528e-04 7.700147494612e-02 0.0 
1.267217827982e-03 2.225359473857e-02 0.0 
5.069957087400e-04 2.634110609020e-02 0.0 
2.265411174228e-03 3.395243242528e-02 0.0 
2.600127802054e-03 4.075975445432e-02 0.0 
1.869027471891e-03 2.674557158232e-02 0.0 
5.730805792297e-04 8.066197976186e-02 0.0 
1.143028736598e-03 2.305511558403e-02 0.0 
3.680653877440e-04 3.380610321294e-02 0.0 
1.595601151251e-03 2.566055311085e-02 0.0 
1.681745431227e-03 2.876159113451e-02 0.0 
3.213217322845e-03 8.024174275467e-02 0.0 
3.053877427728e-03 8.233416044137e-02 0.0 
2.769294167244e-03 8.546384729612e-02 0.0 
2.839055111309e-03 8.440593688325e-02 0.0 
1.900721778412e-03 5.998974232380e-02 0.0 
3.247962823448e-03 7.893205797030e-02 0.0 
2.340544779226e-03 6.332234681216e-02 0.0 
2.208677025326e-03 6.580580539430e-02 0.0 
2.347132951481e-03 6.848049201940e-02 0.0 
2.876770915986e-03 7.351130079469e-02 0.0 
2.695675879384e-03 7.571157131134e-02 0.0 
3.372949225582e-03 7.572999847619e-02 0.0 
3.235413798421e-03 5.558682438573e-02 0.0 
9.960808923006e-04 6.139439543650e-02 0.0 
1.106856673726e-03 4.969309461524e-02 0.0 
2.122260459874e-03 5.342064048875e-02 0.0 
3.839454530947e-04 2.906820589284e-02 0.0 
2.900429194312e-04 2.464953235472e-02 0.0 
5.214645235796e-04 5.381265240571e-02 0.0 
4.579038543184e-04 5.668411881043e-02 0.0 
4.966696215822e-04 7.924430864913e-02 0.0 
4.744766510472e-04 7.994297370849e-02 0.0 
1.651835279469e-03 5.632449409603e-02 0.0 
1.212700407249e-03 2.697123536653e-02 0.0 
6.400380038940e-04 2.718643997726e-02 0.0 
6.234340772266e-04 2.359930831801e-02 0.0 
7.913663741661e-04 2.799300841597e-02 0.0 
1.509604534574e-03 2.544523740789e-02 0.0 
3.169269396622e-03 7.275297244175e-02 0.0 
2.942377828109e-03 5.297999119402e-02 0.0 
1.104279397222e-03 8.354469508377e-02 0.0 
3.076856487748e-03 5.300898226992e-02 0.0 
3.288442119782e-04 8.048128677893e-02 0.0 
2.052068250222e-03 4.245048285904e-02 0.0 
3.042597888747e-04 2.722068668992e-02 0.0 
3.517510680151e-04 2.331134682646e-02 0.0 
1.694885536146e-03 2.317689894013e-02 0.0 
1.798862267805e-03 6.777022140642e-02 0.0 
3.034723297674e-03 5.015617430973e-02 0.0 
3.173248904300e-03 5.308882229127e-02 0.0 
2.196045530773e-03 7.078503518868e-02 0.0 
2.309624409804e-03 7.323100858009e-02 0.0 
2.473712029992e-03 7.099541274052e-02 0.0 
2.408981262345e-03 7.555842556215e-02 0.0 
1.881277194391e-03 7.272364648052e-02 0.0 
1.614414931508e-03 7.404697051877e-02 0.0 
1.431010744898e-03 2.160107643600e-02 0.0 
1.602832692761e-03 2.285651687206e-02 0.0 
1.311136483523e-03 2.160445391242e-02 0.0 
1.403076632027e-03 2.456672174633e-02 0.0 
1.467370549619e-03 1.975866602440e-02 0.0 
1.716089581162e-03 2.388688294670e-02 0.0 
2.963289445646e-04 7.488264167308e-02 0.0 
2.574346657791e-03 7.982428406497e-02 0.0 
3.852494026120e-04 2.185338709215e-02 0.0 
2.071836274016e-03 6.823000062263e-02 0.0 
9.327166823336e-04 2.003372679513e-02 0.0 
1.001537750222e-03 2.389712989837e-02 0.0 
4.225925057177e-04 8.459876584415e-02 0.0 
6.433439015172e-04 8.348252590185e-02 0.0 
1.313702285302e-04 2.314073031159e-02 0.0 
2.512546643612e-03 8.738393698179e-02 0.0 
2.585270836065e-03 8.638272026381e-02 0.0 
2.398265831474e-03 8.814488315382e-02 0.0 
4.525841951641e-05 1.217238293783e-02 0.0 
1.231194682916e-04 6.790088522154e-02 0.0 
2.297482759208e-04 2.019760540156e-02 0.0 
2.761773550564e-03 7.117429471606e-02 0.0 
1.349831360784e-04 1.907918774565e-02 0.0 
2.957876440284e-03 4.727001546255e-02 0.0 
3.337608856942e-03 7.301878523614e-02 0.0 
1.844324551129e-03 3.235600076144e-02 0.0 
1.048778461197e-04 2.745503209186e-02 0.0 
7.791313768024e-05 1.837020944960e-02 0.0 
7.894868558935e-04 5.778183357180e-02 0.0 
7.208106104599e-04 6.064599780649e-02 0.0 
8.619090190933e-04 5.502583866487e-02 0.0 
1.953153848326e-03 8.505887918851e-02 0.0 
1.244729411074e-03 8.684992765148e-02 0.0 
2.792969090848e-04 2.824973354659e-02 0.0 
5.803760703706e-04 7.206687378227e-02 0.0 
4.720653597907e-04 7.045671491994e-02 0.0 
8.812125666307e-04 7.840136113616e-02 0.0 
1.105357887848e-03 7.640982520766e-02 0.0 
9.979774945172e-04 5.710996047813e-02 0.0 
1.161482617097e-03 5.909383307254e-02 0.0 
2.049242892237e-03 3.929905735414e-02 0.0 
1.809214963806e-03 3.559142409630e-02 0.0 
2.506456517125e-03 4.640775959368e-02 0.0 
2.348280214882e-03 4.511237029091e-02 0.0 
2.513239829948e-03 5.064993428500e-02 0.0 
2.711958678056e-03 5.312793221002e-02 0.0 
2.940639250255e-04 2.124456112145e-02 0.0 
1.957224784732e-04 1.589654388618e-02 0.0 
2.146063901513e-03 7.134952235799e-02 0.0 
2.246521486278e-03 7.296605685387e-02 0.0 
1.782584753157e-03 7.129552482821e-02 0.0 
3.618731964679e-04 1.828591672916e-02 0.0 
2.560147065642e-04 1.624598440308e-02 0.0 
3.750915833871e-04 1.953873715428e-02 0.0 
2.763052086010e-04 8.098657712643e-02 0.0 
4.250543865663e-04 8.057078221018e-02 0.0 
1.986074683735e-03 8.882431941918e-02 0.0 
1.630158110306e-03 8.871737334712e-02 0.0 
5.988007400219e-04 2.025914585030e-02 0.0 
7.706877307712e-04 2.448921631220e-02 0.0 
4.204682132993e-04 1.531694292635e-02 0.0 
1.795442564421e-04 7.622713951124e-02 0.0 
2.485005638356e-03 3.751959766460e-02 0.0 
1.141473249499e-03 1.849912088103e-02 0.0 
1.394575112679e-03 2.182979683956e-02 0.0 
8.483346334422e-04 1.428018353429e-02 0.0 
1.911463209158e-03 2.677304854427e-02 0.0 
1.443947906491e-03 1.937990441977e-02 0.0 
1.392182616875e-03 1.909859903787e-02 0.0 
1.403811225700e-04 8.565420431466e-02 0.0 
6.103224917808e-05 2.181805717641e-02 0.0 
5.458599455039e-04 6.007723765273e-02 0.0 
-2.350701428426e-04 8.526911514400e-02 0.0 
4.757418419317e-04 6.296551125905e-02 0.0 
3.992873745631e-04 5.950945686379e-02 0.0 
4.118000595525e-04 6.573573339343e-02 0.0 
1.493423588284e-04 7.800169352794e-02 0.0 
9.031465041147e-04 6.208248490885e-02 0.0 
9.875664182388e-04 5.867404472035e-02 0.0 
1.446532098655e-04 8.159084523723e-02 0.0 
2.475143933083e-04 1.366425505705e-02 0.0 
1.666978410571e-04 8.126218495598e-02 0.0 
2.249344586156e-04 8.087228139062e-02 0.0 
7.262297048332e-04 1.670104637185e-02 0.0 
8.017645821656e-04 2.073139774544e-02 0.0 
5.289505940418e-04 1.344578716656e-02 0.0 
6.290773734072e-04 1.789093220950e-02 0.0 
8.455377559837e-04 2.477426522274e-02 0.0 
6.644418332353e-04 2.167401309897e-02 0.0 
6.447303455275e-04 6.383539414729e-02 0.0 
4.364817950409e-04 1.356417372221e-02 0.0 
4.967126971716e-04 1.834898897919e-02 0.0 
2.871598934853e-04 1.045432502330e-02 0.0 
2.221140222897e-03 7.752733970193e-02 0.0 
2.857070170069e-03 8.327166819091e-02 0.0 
2.606127742929e-03 8.526104945698e-02 0.0 
2.295259095387e-03 8.833581646157e-02 0.0 
9.408224311755e-04 1.571288089987e-02 0.0 
1.148576378089e-03 2.063696850519e-02 0.0 
2.306612158220e-04 3.085449557694e-02 0.0 
2.643147897239e-04 3.719162847787e-02 0.0 
3.290307694499e-04 6.269690757729e-02 0.0 
2.377211673874e-04 6.294371738186e-02 0.0 
2.628776610010e-04 5.741939547396e-02 0.0 
1.884613594143e-04 5.811442113635e-02 0.0 
1.969168883207e-04 5.239204751616e-02 0.0 
1.258426156738e-04 5.313968394120e-02 0.0 
1.530189057277e-04 4.711533577310e-02 0.0 
1.082788852141e-03 1.494398575875e-02 0.0 
2.084111494312e-03 9.000974126313e-02 0.0 
2.040042859111e-03 7.304085333645e-02 0.0 
1.212813784470e-03 1.627342763530e-02 0.0 
1.512239528900e-03 2.113307530658e-02 0.0 
2.503901081084e-03 7.779128264677e-02 0.0 
2.360556489450e-03 8.182602443069e-02 0.0 
7.603343052445e-04 1.479667814284e-02 0.0 
3.368141103092e-03 7.672512519563e-02 0.0 
1.826391568258e-04 8.827291305185e-03 0.0 
-1.037455339091e-03 8.867730809048e-02 0.0 
1.586449151603e-04 8.770445357129e-02 0.0 
3.371542681951e-03 7.513404670903e-02 0.0 
2.590431942519e-03 7.340336938288e-02 0.0 
2.858999734890e-03 8.170421887487e-02 0.0 
2.636353136143e-03 8.347284213450e-02 0.0 
2.128492525571e-03 3.906830097288e-02 0.0 
3.360571860327e-04 8.118393400223e-02 0.0 
2.229849619795e-03 8.862687370699e-02 0.0 
2.189075196242e-04 4.642241569922e-02 0.0 
1.660980035748e-03 9.069757261882e-02 0.0 
1.214895026946e-04 3.378354854358e-02 0.0 
3.440211093995e-03 7.431183673374e-02 0.0 
2.915640720268e-03 6.883838635477e-02 0.0 
2.655625947220e-03 8.620490139899e-02 0.0 
3.087057941563e-03 8.085117292615e-02 0.0 
2.009693291377e-03 5.735664721585e-02 0.0 
1.784977355626e-03 6.253479083139e-02 0.0 
1.927518777649e-03 6.547616383087e-02 0.0 
3.458764960079e-03 7.194663359703e-02 0.0 
2.619799482254e-03 8.169321778858e-02 0.0 
2.391710272839e-03 8.536323544674e-02 0.0 
2.460977126336e-03 6.077454259091e-02 0.0 
9.697552250785e-04 3.223049558735e-02 0.0 
9.609123029222e-04 2.876059921060e-02 0.0 
7.388871254719e-04 2.114184118181e-02 0.0 
9.352193996151e-04 2.528850342100e-02 0.0 
1.160522084454e-03 3.293343849796e-02 0.0 
1.147783888719e-03 2.952454030035e-02 0.0 
8.889698639223e-04 2.185878601622e-02 0.0 
1.112340535485e-03 2.607564503718e-02 0.0 
7.486005978024e-04 1.666817974666e-02 0.0 
1.042173577336e-03 2.240295245446e-02 0.0 
1.348357687217e-03 3.036911608294e-02 0.0 
1.306885218767e-03 2.709595359834e-02 0.0 
1.000091612763e-03 1.984903180932e-02 0.0 
1.594307020365e-03 3.487818123414e-02 0.0 
9.384298981239e-04 1.214125177784e-02 0.0 
3.428180030049e-03 7.069538811125e-02 0.0 
6.977954073761e-04 8.617297823089e-02 0.0 
7.434733027125e-04 8.851341046868e-02 0.0 
2.775979344218e-03 6.628040325857e-02 0.0 
3.662202399113e-04 8.149337084909e-03 0.0 
2.867373376816e-04 8.006630332879e-03 0.0 
3.215189437132e-03 7.911569801892e-02 0.0 
4.845687914603e-04 7.558985967083e-03 0.0 
2.056895208774e-03 6.297527958762e-02 0.0 
2.430646571849e-03 8.313814459696e-02 0.0 
5.361993708703e-04 7.555816013429e-03 0.0 
1.155011506988e-03 3.627979287703e-02 0.0 
1.344605863579e-03 4.031128591424e-02 0.0 
1.307863184699e-03 4.346751798528e-02 0.0 
2.194538865794e-04 7.460304721633e-03 0.0 
9.346074727077e-04 5.212937633771e-02 0.0 
5.470629266462e-04 6.968006817257e-03 0.0 
3.053874663145e-03 5.007701699817e-02 0.0 
3.181362263547e-03 5.296141541016e-02 0.0 
3.338263390788e-03 5.832137225629e-02 0.0 
1.368742755950e-03 3.382067678767e-02 0.0 
5.574766719114e-04 7.286992401678e-03 0.0 
1.015674578660e-03 1.396244723730e-02 0.0 
9.696380931423e-04 1.391331791429e-02 0.0 
1.437497840310e-03 2.085886308527e-02 0.0 
5.101450845846e-04 7.195576373071e-03 0.0 
3.836939393658e-04 7.315242709058e-03 0.0 
3.922862989185e-04 6.941469118431e-03 0.0 
2.027561447292e-03 7.571080468090e-02 0.0 
2.332950784584e-03 7.457767594738e-02 0.0 
2.516347170893e-03 7.161633417776e-02 0.0 
2.617934428809e-03 7.337165312519e-02 0.0 
2.400585250342e-03 7.622895273797e-02 0.0 
2.699564539768e-03 7.517322311527e-02 0.0 
2.870273358692e-03 7.208899822979e-02 0.0 
2.758371695702e-03 7.701943251670e-02 0.0 
1.498066931134e-03 2.815911202999e-02 0.0 
4.396622787333e-04 6.887308294587e-03 0.0 
2.022888340605e-03 4.823279438214e-02 0.0 
2.231599518488e-03 5.079048717695e-02 0.0 
2.317231281241e-03 5.578490288469e-02 0.0 
1.144593667570e-03 6.321239808797e-02 0.0 
1.320651304354e-03 6.103256698380e-02 0.0 
1.321269294502e-03 5.666641681655e-02 0.0 
9.675839245027e-04 6.528911176359e-02 0.0 
2.671502056373e-03 4.378314305890e-02 0.0 
4.052974629740e-04 6.930875649136e-03 0.0 
2.758389809237e-03 5.038637312556e-02 0.0 
1.475518405170e-03 6.291785306202e-02 0.0 
1.210326421692e-03 6.773598587204e-02 0.0 
1.249996738210e-03 6.286744998888e-02 0.0 
1.378455684133e-03 6.270479545558e-02 0.0 
1.276277270392e-03 5.688893527960e-02 0.0 
1.112254388040e-03 6.221670216662e-02 0.0 
8.334439248365e-04 5.504999792851e-02 0.0 
6.693894485590e-04 5.292501623424e-02 0.0 
5.268914545082e-04 5.556872645712e-02 0.0 
5.070522727673e-04 5.073076551771e-02 0.0 
3.681224545793e-04 5.347646149241e-02 0.0 
3.832432748068e-04 5.798267509531e-02 0.0 
3.440397143724e-04 4.846234739104e-02 0.0 
2.105264334404e-04 5.188144504329e-02 0.0 
9.698909818638e-04 6.777617817402e-02 0.0 
-4.970750812880e-04 8.387295035042e-02 0.0 
3.733187733879e-05 8.322491049532e-02 0.0 
4.455475640874e-05 8.277850721021e-02 0.0 
4.415307363814e-04 8.238324079592e-02 0.0 
5.150843586730e-04 8.281122099957e-02 0.0 
9.398968753604e-04 8.154090919156e-02 0.0 
9.812296834593e-04 8.222923222946e-02 0.0 
3.015923979710e-05 8.380943556238e-02 0.0 
-3.085835848093e-04 8.294664324883e-02 0.0 
6.831709631427e-05 8.241538010417e-02 0.0 
-2.295863202750e-04 8.260800144342e-02 0.0 
7.445446722087e-05 8.213017530841e-02 0.0 
4.270930434753e-04 8.152181384646e-02 0.0 
6.610436538157e-04 7.923895448983e-02 0.0 
1.279238980709e-04 8.133434066330e-03 0.0 
1.431337671531e-04 6.398850783588e-02 0.0 
2.764500789880e-04 6.585881533951e-02 0.0 
2.505022877748e-04 6.913299677248e-02 0.0 
4.042245201377e-04 6.743056646756e-02 0.0 
2.659795619000e-04 6.241318377437e-02 0.0 
1.212119906694e-04 7.074663281196e-02 0.0 
2.336004667201e-04 7.176939348222e-02 0.0 
1.954285859362e-05 8.138718792462e-02 0.0 
3.950119756801e-05 8.103969364384e-02 0.0 
8.707741135483e-06 8.107789351200e-02 0.0 
5.830440239452e-05 8.038511900631e-02 0.0 
9.526428457951e-05 8.042682964052e-02 0.0 
6.935256448060e-05 8.105732067316e-02 0.0 
9.386382797194e-05 8.110719219103e-02 0.0 
2.893270748050e-05 8.148187808919e-02 0.0 
1.155313161894e-04 8.117371596087e-02 0.0 
1.847860529383e-04 8.047528388915e-02 0.0 
2.765677543337e-05 8.155584370147e-02 0.0 
4.575498995507e-05 3.772792922829e-02 0.0 
8.921795584627e-05 3.400366144715e-02 0.0 
3.611664445788e-04 7.346920058687e-03 0.0 
7.457820674759e-04 6.733539210303e-02 0.0 
-1.022611585739e-04 8.210741446345e-02 0.0 
6.979286249731e-05 9.396197944518e-03 0.0 
1.023623260608e-04 7.827422211143e-03 0.0 
9.020761128653e-05 7.575388737791e-03 0.0 
7.528592821637e-05 1.992505840251e-02 0.0 
1.226391883480e-04 1.633899951969e-02 0.0 
3.158496419786e-05 9.126085561693e-03 0.0 
9.974571795555e-04 7.430595834411e-02 0.0 
6.844914662523e-04 1.779406024797e-02 0.0 
2.015460868279e-04 2.379152220381e-02 0.0 
2.354187506175e-03 8.496063182623e-02 0.0 
1.353909356123e-03 7.527708595873e-02 0.0 
4.170373015735e-04 3.989802578879e-02 0.0 
1.224018985931e-03 4.674835676352e-02 0.0 
4.911231875973e-04 2.641197499588e-02 0.0 
7.542912255278e-04 4.496984625398e-02 0.0 
8.194652299345e-04 3.221794405781e-02 0.0 
9.511093821253e-04 1.433471069736e-02 0.0 
2.095383363994e-04 7.865216255123e-02 0.0 
5.806594701454e-04 5.085249524052e-02 0.0 
3.735274926626e-04 5.319341858953e-02 0.0 
3.401558858869e-04 3.598197449365e-02 0.0 
6.681013542309e-04 7.328769272107e-02 0.0 
5.380406131250e-04 5.977668568837e-02 0.0 
4.992399351114e-04 7.848133289422e-02 0.0 
9.577216015515e-04 1.424252763977e-02 0.0 
2.490053832140e-03 6.608651225898e-02 0.0 
2.172672065523e-03 5.818962430247e-02 0.0 
1.098859927375e-03 6.692648204789e-02 0.0 
1.212273772326e-03 7.291900505053e-02 0.0 
1.394414629468e-03 7.647263828193e-02 0.0 
3.361626030014e-03 6.854548729254e-02 0.0 
1.658450425072e-03 6.073557503685e-02 0.0 
1.443235347457e-03 3.714251816223e-02 0.0 
2.583436820203e-04 3.177526753329e-02 0.0 
3.541001253993e-06 8.173698408696e-02 0.0 
1.457510383338e-03 3.365078379122e-02 0.0 
1.605880878321e-03 5.147542799836e-02 0.0 
8.068697095567e-04 4.846557356124e-02 0.0 
2.318967415487e-03 3.474215235973e-02 0.0 
1.053128218722e-03 8.046046943454e-02 0.0 
4.892082480978e-04 3.335703506975e-02 0.0 
4.764388578096e-04 1.955580031040e-02 0.0 
1.063845952181e-03 5.562873405029e-02 0.0 
3.533383947341e-04 7.990960475266e-02 0.0 
6.204119279190e-04 5.738584439062e-02 0.0 
1.030661046936e-03 1.896971502631e-02 0.0 
9.606586174158e-04 3.561036764330e-02 0.0 
5.116513914674e-04 7.464853183201e-02 0.0 
3.065145275148e-03 5.803198307285e-02 0.0 
3.041664223943e-03 6.634666688321e-02 0.0 
1.778705838014e-03 7.256546213294e-02 0.0 
2.093064563837e-04 2.037853763458e-02 0.0 
3.330286009916e-03 5.850752829261e-02 0.0 
1.872788797332e-03 2.840814912206e-02 0.0 
2.762296248882e-03 4.748763100085e-02 0.0 
4.313888195719e-04 7.349087034931e-02 0.0 
1.037192628969e-03 2.775946016616e-02 0.0 
3.358720776220e-03 6.068486942162e-02 0.0 
3.916084141693e-04 2.554372753198e-02 0.0 
2.260324695310e-03 3.979024049223e-02 0.0 
3.246918768042e-03 6.907651079700e-02 0.0 
6.413491312998e-04 3.069093014339e-02 0.0 
2.504779850423e-03 5.807966911730e-02 0.0 
2.149335130294e-03 3.106108226809e-02 0.0 
2.631692975662e-03 6.868212134097e-02 0.0 
2.693931199836e-03 5.258427127002e-02 0.0 
2.028725004035e-03 4.550189241931e-02 0.0 
3.082335781730e-03 5.578235133869e-02 0.0 
2.855131679829e-04 4.314793072779e-02 0.0 
1.242294795858e-03 3.073660262777e-02 0.0 
1.671079852059e-03 8.209015300868e-02 0.0 
3.247311851915e-03 7.712911063502e-02 0.0 
9.929450335946e-04 4.905074858288e-02 0.0 
1.753983351943e-03 2.630469736648e-02 0.0 
2.800740348263e-04 1.725233044639e-02 0.0 
3.034677913607e-03 7.115324039957e-02 0.0 
1.036370038145e-03 3.148751913187e-02 0.0 
4.979460269610e-04 2.298314226524e-02 0.0 
1.491474552136e-03 5.874005880836e-02 0.0 
7.003986714404e-05 7.777262841439e-02 0.0 
1.848133812526e-03 8.681288490492e-02 0.0 
3.020708210002e-03 7.601568516184e-02 0.0 
3.404093646932e-03 6.096712641384e-02 0.0 
1.470979676617e-03 5.414916662439e-02 0.0 
5.257598662283e-04 1.575941286004e-02 0.0 
8.477178764874e-04 2.856957497399e-02 0.0 
1.894088215288e-03 3.596249508818e-02 0.0 
4.290799164401e-04 9.197091086058e-02 0.0 
1.929106863500e-03 7.044403465081e-02 0.0 
6.717265586689e-04 2.557482745636e-02 0.0 
2.897369805380e-03 5.558410818464e-02 0.0 
1.936338926399e-03 2.791137796279e-02 0.0 
2.329705891129e-04 5.616658598128e-02 0.0 
1.002957464994e-03 1.437261837213e-02 0.0 
2.308789137633e-03 7.966265127789e-02 0.0 
5.104335092678e-04 2.250140719474e-02 0.0 
2.086358873280e-03 3.568314460401e-02 0.0 
3.321241909148e-03 7.799784091891e-02 0.0 
2.042066616710e-04 6.789397548507e-02 0.0 
3.236391727626e-04 1.405011374765e-02 0.0 
1.748877507158e-03 2.859971493151e-02 0.0 
2.906143352870e-03 4.998794865945e-02 0.0 
2.809250163537e-03 5.802335422494e-02 0.0 
1.956353670224e-03 7.728201563380e-02 0.0 
1.288638793807e-03 5.192649862970e-02 0.0 
2.491174872961e-03 4.938625669153e-02 0.0 
1.968769762613e-04 7.265516004381e-03 0.0 
1.638126679094e-03 2.523185770522e-02 0.0 
1.484637752874e-03 4.732735706146e-02 0.0 
1.148820650436e-03 5.459115691621e-02 0.0 
2.841136661534e-03 4.417444621938e-02 0.0 
1.419567248657e-04 8.045469778034e-02 0.0 
2.135960801194e-03 7.530592213804e-02 0.0 
9.755663968871e-04 5.243553373092e-02 0.0 
2.957818217808e-03 7.404546479792e-02 0.0 
2.625747636031e-03 5.568577177754e-02 0.0 
1.218474904903e-03 1.595220393120e-02 0.0 
8.045208153682e-04 5.020706622818e-02 0.0 
3.081892598807e-03 7.065415037733e-02 0.0 
6.367536231555e-04 4.791088488819e-02 0.0 
2.091943126974e-03 8.144171817066e-02 0.0 
1.534703139185e-03 4.416113233796e-02 0.0 
4.668675400445e-04 4.554100920397e-02 0.0 
2.283534850406e-03 4.293616105569e-02 0.0 
2.334491705298e-04 8.049320518365e-02 0.0 
2.868306160654e-03 4.710345730691e-02 0.0 
1.794459432338e-04 2.374975487140e-02 0.0 
1.669886031282e-03 6.984059043656e-02 0.0 
2.434090495592e-03 5.332077971893e-02 0.0 
1.365314195169e-03 3.707888133989e-02 0.0 
2.148045716929e-03 8.506932955801e-02 0.0 
2.309142529272e-03 4.805058308820e-02 0.0 
2.016383852620e-03 3.609237689336e-02 0.0 
2.794591615125e-03 4.413437328961e-02 0.0 
3.274700282745e-03 5.578775445571e-02 0.0 
2.129096051013e-03 4.225719569916e-02 0.0 
2.400245259572e-03 8.346090013525e-02 0.0 
1.048184952435e-03 7.547510955899e-02 0.0 
8.713315453512e-04 7.752480777147e-02 0.0 
2.968896853442e-03 6.859854443456e-02 0.0 
1.758833435577e-03 3.217881224621e-02 0.0 
1.163065277359e-04 7.951381899743e-02 0.0 
1.590721818872e-03 3.792091316283e-02 0.0 
6.265595113994e-04 7.998244853143e-02 0.0 
2.760293363046e-03 7.017058627262e-02 0.0 
2.309993752728e-03 3.371178455939e-02 0.0 
5.613516837144e-05 5.147408707614e-02 0.0 
2.632304915393e-03 6.826751341891e-02 0.0 
8.646296545112e-05 7.581189224256e-02 0.0 
2.400096068138e-03 6.987505285488e-02 0.0 
3.086598111285e-03 5.016619105032e-02 0.0 
2.270686211567e-03 6.809675048568e-02 0.0 
2.032025109909e-03 6.973806224545e-02 0.0 
1.343108851870e-04 1.575588169511e-02 0.0 
1.905378651232e-03 6.810500368447e-02 0.0 
1.109434840885e-05 7.577966046085e-03 0.0 
5.504052275795e-05 7.404804184578e-03 0.0 
7.805989626775e-05 6.365985180244e-02 0.0 
2.066133715413e-03 8.837585154235e-02 0.0 
-8.682942586304e-04 8.617066817200e-02 0.0 
2.410152076337e-03 8.640726282613e-02 0.0 
1.534296245024e-03 7.275506771932e-02 0.0 
1.827136523591e-03 3.881085925674e-02 0.0 
1.622596337114e-04 6.338798298240e-02 0.0 
1.287729489079e-03 7.413551455571e-02 0.0 
7.218724357898e-04 1.460421182106e-02 0.0 
5.295995631975e-04 6.973156904966e-03 0.0 
1.037928211645e-04 4.098874922467e-02 0.0 
1.727607855369e-03 2.504240769851e-02 0.0 
2.673468921984e-03 4.082450042211e-02 0.0 
2.860332931220e-05 2.262388229754e-02 0.0 
4.779372066963e-04 6.828641084303e-02 0.0 
8.735654738246e-05 8.189258580159e-02 0.0 
1.383700524047e-04 4.004427748841e-02 0.0 
1.919815265410e-03 9.073755189134e-02 0.0 
2.199951841337e-03 8.935642181109e-02 0.0 
1.885185012970e-03 9.055977072203e-02 0.0 
3.368876044130e-04 7.252522866396e-02 0.0 
3.944421785373e-04 8.200381821752e-02 0.0 
1.725229189255e-03 9.183629417006e-02 0.0 
1.069825841437e-03 1.445497849367e-02 0.0 
8.070078029476e-04 6.325487151865e-02 0.0 
2.120806642427e-03 3.067478116043e-02 0.0 
1.240265041751e-03 9.254975166581e-02 0.0 
3.363221774606e-04 1.522555919018e-02 0.0 
1.109535990587e-03 1.463302213241e-02 0.0 
2.674345604952e-04 6.480201942740e-03 0.0 
1.663419750496e-03 2.299143746333e-02 0.0 
1.305170605001e-03 9.058921643413e-02 0.0 
1.175619903719e-03 5.813396020025e-02 0.0 
9.075969259413e-04 1.417446151373e-02 0.0 
1.401640178074e-04 3.509116155046e-02 0.0 
1.886786810532e-04 6.223404175252e-03 0.0 
1.012848466864e-03 6.376456537085e-02 0.0 
8.432154959337e-05 1.472235338278e-02 0.0 
1.268828471721e-03 8.235155762650e-02 0.0 
3.724443924824e-05 1.428657117559e-02 0.0 
1.559987045781e-03 3.150138321310e-02 0.0 
3.260397260050e-04 5.610036241215e-02 0.0 
1.402451511879e-03 5.834890933616e-02 0.0 
1.502987388480e-04 1.283775219519e-02 0.0 
6.106279422085e-04 1.475325936923e-02 0.0 
8.234971082466e-04 8.989134837338e-02 0.0 
1.621758885832e-04 4.170353825122e-02 0.0 
5.434641581421e-04 6.740479968756e-02 0.0 
-1.010473952192e-04 8.455974391050e-02 0.0 
6.433910896781e-04 1.349515211945e-02 0.0 
1.249442658736e-03 2.405634715133e-02 0.0 
2.497090347013e-04 1.309833306537e-02 0.0 
2.231945805631e-05 8.044081991062e-02 0.0 
8.818532575816e-05 8.157290660021e-02 0.0 
6.958222740945e-04 1.250638867570e-02 0.0 
7.597828960968e-04 1.342419489755e-02 0.0 
1.380642502770e-03 8.085286937468e-02 0.0 
1.112794702678e-04 6.158601864126e-03 0.0 
-5.452637769920e-05 8.927421366009e-02 0.0 
6.545711337438e-04 6.884546980907e-02 0.0 
1.240195524472e-04 8.129331489644e-02 0.0 
1.553578711562e-04 6.297029574448e-03 0.0 
2.077455023795e-04 1.413726754312e-02 0.0 
3.781872596016e-04 6.416786830509e-02 0.0 
1.449890268468e-03 6.709302946509e-02 0.0 
2.024019418689e-04 7.423689254425e-02 0.0 
1.382437085585e-03 1.991955990048e-02 0.0 
3.071668580006e-04 8.149914462126e-02 0.0 
1.374975716715e-04 1.334252343348e-02 0.0 
7.805723976571e-04 1.223372523202e-02 0.0 
4.104874630357e-04 1.340341828858e-02 0.0 
4.245125146163e-04 5.370395446562e-03 0.0 
-1.583974832577e-04 8.662672380899e-02 0.0 
9.426037786753e-04 1.257068760283e-02 0.0 
1.287125135807e-03 1.919389847287e-02 0.0 
3.613584101672e-04 6.852435253906e-02 0.0 
5.292617933108e-04 1.439316534184e-02 0.0 
3.545685997892e-04 7.018674803694e-02 0.0 
2.810743117809e-04 7.965106823089e-02 0.0 
6.494352184916e-06 6.716828183084e-03 0.0 
-5.102541343005e-06 8.137418291636e-02 0.0 
5.883161554010e-05 6.852173998971e-02 0.0 
2.366265767162e-05 6.042800132313e-03 0.0 
1.548324566150e-04 7.975545942580e-02 0.0 
1.283545084618e-04 5.931137440788e-02 0.0 
6.866861896526e-04 1.293367234380e-02 0.0 
9.578147478484e-05 5.538876788539e-02 0.0 
7.290657817549e-05 2.787816853348e-02 0.0 
7.086749609506e-04 8.149533805831e-02 0.0 
-8.745984545655e-04 8.522883364160e-02 0.0 
1.013830356200e-04 4.813063234368e-02 0.0 
1.011974983697e-03 1.310982185218e-02 0.0 
3.159362066185e-04 1.278901251592e-02 0.0 
2.603050270835e-04 5.261114744336e-02 0.0 
1.347304867057e-03 8.813577019044e-02 0.0 
9.760872092457e-04 1.823134107696e-02 0.0 
4.024677426493e-04 6.117006541458e-02 0.0 
1.248506471157e-03 1.953822722765e-02 0.0 
1.376830949052e-03 1.943818517401e-02 0.0 
-9.895645942350e-04 9.004761782698e-02 0.0 
9.278800922263e-05 5.062032038873e-02 0.0 
1.165872589679e-04 8.140495729963e-02 0.0 
4.378563462577e-04 1.199413991339e-02 0.0 
2.630863943753e-04 5.927633436586e-02 0.0 
-2.818979474384e-04 9.483333259407e-02 0.0 
6.004342770183e-05 1.005417722285e-01 0.0 
7.065719117278e-04 9.489954202062e-02 0.0 
3.313403995975e-05 9.882458410672e-02 0.0 
1.286877402194e-03 9.403019186265e-02 0.0 
4.396273983076e-05 9.669068016008e-02 0.0 
1.626151997609e-03 9.236855951103e-02 0.0 
2.821216315851e-05 9.413018512888e-02 0.0 
1.795716767614e-03 9.006057038427e-02 0.0 
4.509531940045e-05 9.114150993724e-02 0.0 
1.852628080709e-03 8.711528477753e-02 0.0 
3.026478518109e-05 8.772409230072e-02 0.0 
1.817132803303e-03 8.364638407703e-02 0.0 
4.741075638037e-05 8.387795389766e-02 0.0 
1.713661746791e-03 7.959744540986e-02 0.0 
3.124331389159e-05 7.960345041776e-02 0.0 
1.564391488344e-03 7.511329323821e-02 0.0 
4.706511717956e-05 7.490302309117e-02 0.0 

VECTORS node_bounda_dof_materi_velocity_x float
1.000000000000e+00 0.0 0.0 
1.000000000000e+00 0.0 0.0 
1.000000000000e+00 0.0 0.0 
1.000000000000e+00 0.0 0.0 
1.000000000000e+00 0.0 0.0 
1.000000000000e+00 0.0 0.0 
1.000000000000e+00 0.0 0.0 
1.000000000000e+00 0.0 0.0 
1.000000000000e+00 0.0 0.0 
1.000000000000e+00 0.0 0.0 
1.000000000000e+00 0.0 0.0 
1.000000000000e+00 0.0 0.0 
1.000000000000e+00 0.0 0.0 
1.000000000000e+00 0.0 0.0 
1.000000000000e+00 0.0 0.0 
1.000000000000e+00 0.0 0.0 
1.000000000000e+00 0.0 0.0 
1.000000000000e+00 0.0 0.0 
1.000000000000e+00 0.0 0.0 
1.000000000000e+00 0.0 0.0 
1.000000000000e+00 0.0 0.0 
1.000000000000e+00 0.0 0.0 
1.000000000000e+00 0.0 0.0 
1.000000000000e+00 0.0 0.0 
1.000000000000e+00 0.0 0.0 
1.000000000000e+00 0.0 0.0 
1.000000000000e+00 0.0 0.0 
1.000000000000e+00 0.0 0.0 
1.000000000000e+00 0.0 0.0 
1.000000000000e+00 0.0 0.0 
1.000000000000e+00 0.0 0.0 
1.000000000000e+00 0.0 0.0 
1.000000000000e+00 0.0 0.0 
1.000000000000e+00 0.0 0.0 
1.000000000000e+00 0.0 0.0 
1.000000000000e+00 0.0 0.0 
1.000000000000e+00 0.0 0.0 
1.000000000000e+00 0.0 0.0 
1.000000000000e+00 0.0 0.0 
1.000000000000e+00 0.0 0.0 
1.000000000000e+00 0.0 0.0 
1.000000000000e+00 0.0 0.0 
1.000000000000e+00 0.0 0.0 
1.000000000000e+00 0.0 0.0 
1.000000000000e+00 0.0 0.0 
1.000000000000e+00 0.0 0.0 
1.000000000000e+00 0.0 0.0 
1.000000000000e+00 0.0 0.0 
1.000000000000e+00 0.0 0.0 
1.000000000000e+00 0.0 0.0 
1.000000000000e+00 0.0 0.0 
1.000000000000e+00 0.0 0.0 
1.000000000000e+00 0.0 0.0 
1.000000000000e+00 0.0 0.0 
1.000000000000e+00 0.0 0.0 
1.000000000000e+00 0.0 0.0 
1.000000000000e+00 0.0 0.0 
1.000000000000e+00 0.0 0.0 
1.000000000000e+00 0.0 0.0 
1.000000000000e+00 0.0 0.0 
1.000000000000e+00 0.0 0.0 
1.000000000000e+00 0.0 0.0 
1.000000000000e+00 0.0 0.0 
1.000000000000e+00 0.0 0.0 
1.000000000000e+00 0.0 0.0 
1.000000000000e+00 0.0 0.0 
1.000000000000e+00 0.0 0.0 
1.000000000000e+00 0.0 0.0 
1.000000000000e+00 0.0 0.0 
1.000000000000e+00 0.0 0.0 
1.000000000000e+00 0.0 0.0 
1.000000000000e+00 0.0 0.0 
1.000000000000e+00 0.0 0.0 
1.000000000000e+00 0.0 0.0 
1.000000000000e+00 0.0 0.0 
1.000000000000e+00 0.0 0.0 
1.000000000000e+00 0.0 0.0 
1.000000000000e+00 0.0 0.0 
1.000000000000e+00 0.0 0.0 
1.000000000000e+00 0.0 0.0 
1.000000000000e+00 0.0 0.0 
0.0 0.0 0.0 
0.0 0.0 0.0 
0.0 0.0 0.0 
0.0 0.0 0.0 
0.0 0.0 0.0 
0.0 0.0 0.0 
0.0 0.0 0.0 
0.0 0.0 0.0 
0.0 0.0 0.0 
0.0 0.0 0.0 
0.0 0.0 0.0 
1.000000000000e+00 0.0 0.0 
1.000000000000e+00 0.0 0.0 
1.000000000000e+00 0.0 0.0 
1.000000000000e+00 0.0 0.0 
1.000000000000e+00 0.0 0.0 
1.000000000000e+00 0.0 0.0 
1.000000000000e+00 0.0 0.0 
1.000000000000e+00 0.0 0.0 
1.000000000000e+00 0.0 0.0 
0.0 0.0 0.0 
0.0 0.0 0.0 
0.0 0.0 0.0 
0.0 0.0 0.0 
0.0 0.0 0.0 
0.0 0.0 0.0 
0.0 0.0 0.0 
0.0 0.0 0.0 
0.0 0.0 0.0 
0.0 0.0 0.0 
0.0 0.0 0.0 
0.0 0.0 0.0 
0.0 0.0 0.0 
0.0 0.0 0.0 
0.0 0.0 0.0 
0.0 0.0 0.0 
0.0 0.0 0.0 
0.0 0.0 0.0 
0.0 0.0 0.0 
0.0 0.0 0.0 
0.0 0.0 0.0 
0.0 0.0 0.0 
0.0 0.0 0.0 
0.0 0.0 0.0 
0.0 0.0 0.0 
0.0 0.0 0.0 
0.0 0.0 0.0 
0.0 0.0 0.0 
0.0 0.0 0.0 
0.0 0.0 0.0 
0.0 0.0 0.0 
0.0 0.0 0.0 
0.0 0.0 0.0 
0.0 0.0 0.0 
0.0 0.0 0.0 
0.0 0.0 0.0 
0.0 0.0 0.0 
0.0 0.0 0.0 
0.0 0.0 0.0 
0.0 0.0 0.0 
0.0 0.0 0.0 
0.0 0.0 0.0 
0.0 0.0 0.0 
0.0 0.0 0.0 
0.0 0.0 0.0 
0.0 0.0 0.0 
0.0 0.0 0.0 
0.0 0.0 0.0 
0.0 0.0 0.0 
0.0 0.0 0.0 
0.0 0.0 0.0 
0.0 0.0 0.0 
0.0 0.0 0.0 
0.0 0.0 0.0 
0.0 0.0 0.0 
0.0 0.0 0.0 
0.0 0.0 0.0 
0.0 0.0 0.0 
0.0 0.0 0.0 
0.0 0.0 0.0 
0.0 0.0 0.0 
0.0 0.0 0.0 
0.0 0.0 0.0 
0.0 0.0 0.0 
0.0 0.0 0.0 
0.0 0.0 0.0 
0.0 0.0 0.0 
0.0 0.0 0.0 
0.0 0.0 0.0 
0.0 0.0 0.0 
0.0 0.0 0.0 
0.0 0.0 0.0 
0.0 0.0 0.0 
0.0 0.0 0.0 
0.0 0.0 0.0 
0.0 0.0 0.0 
0.0 0.0 0.0 
0.0 0.0 0.0 
0.0 0.0 0.0 
0.0 0.0 0.0 
0.0 0.0 0.0 
0.0 0.0 0.0 
0.0 0.0 0.0 
0.0 0.0 0.0 
0.0 0.0 0.0 
0.0 0.0 0.0 
0.0 0.0 0.0 
0.0 0.0 0.0 
0.0 0.0 0.0 
0.0 0.0 0.0 
0.0 0.0 0.0 
0.0 0.0 0.0 
0.0 0.0 0.0 
0.0 0.0 0.0 
0.0 0.0 0.0 
0.0 0.0 0.0 
0.0 0.0 0.0 
0.0 0.0 0.0 
0.0 0.0 0.0 
0.0 0.0 0.0 
0.0 0.0 0.0 
0.0 0.0 0.0 
0.0 0.0 0.0 
0.0 0.0 0.0 
0.0 0.0 0.0 
0.0 0.0 0.0 
0.0 0.0 0.0 
0.0 0.0 0.0 
0.0 0.0 0.0 
0.0 0.0 0.0 
0.0 0.0 0.0 
0.0 0.0 0.0 
0.0 0.0 0.0 
0.0 0.0 0.0 
0.0 0.0 0.0 
0.0 0.0 0.0 
0.0 0.0 0.0 
0.0 0.0 0.0 
0.0 0.0 0.0 
0.0 0.0 0.0 
0.0 0.0 0.0 
0.0 0.0 0.0 
0.0 0.0 0.0 
0.0 0.0 0.0 
0.0 0.0 0.0 
0.0 0.0 0.0 
0.0 0.0 0.0 
0.0 0.0 0.0 
0.0 0.0 0.0 
0.0 0.0 0.0 
0.0 0.0 0.0 
0.0 0.0 0.0 
0.0 0.0 0.0 
0.0 0.0 0.0 
0.0 0.0 0.0 
0.0 0.0 0.0 
0.0 0.0 0.0 
0.0 0.0 0.0 
0.0 0.0 0.0 
0.0 0.0 0.0 
0.0 0.0 0.0 
0.0 0.0 0.0 
0.0 0.0 0.0 
0.0 0.0 0.0 
0.0 0.0 0.0 
0.0 0.0 0.0 
0.0 0.0 0.0 
0.0 0.0 0.0 
0.0 0.0 0.0 
0.0 0.0 0.0 
0.0 0.0 0.0 
0.0 0.0 0.0 
0.0 0.0 0.0 
0.0 0.0 0.0 
0.0 0.0 0.0 
0.0 0.0 0.0 
0.0 0.0 0.0 
0.0 0.0 0.0 
0.0 0.0 0.0 
0.0 0.0 0.0 
0.0 0.0 0.0 
0.0 0.0 0.0 
0.0 0.0 0.0 
0.0 0.0 0.0 
0.0 0.0 0.0 
0.0 0.0 0.0 
0.0 0.0 0.0 
0.0 0.0 0.0 
0.0 0.0 0.0 
0.0 0.0 0.0 
0.0 0.0 0.0 
0.0 0.0 0.0 
0.0 0.0 0.0 
0.0 0.0 0.0 
0.0 0.0 0.0 
0.0 0.0 0.0 
0.0 0.0 0.0 
0.0 0.0 0.0 
0.0 0.0 0.0 
0.0 0.0 0.0 
0.0 0.0 0.0 
0.0 0.0 0.0 
0.0 0.0 0.0 
0.0 0.0 0.0 
0.0 0.0 0.0 
0.0 0.0 0.0 
0.0 0.0 0.0 
0.0 0.0 0.0 
0.0 0.0 0.0 
0.0 0.0 0.0 
0.0 0.0 0.0 
0.0 0.0 0.0 
0.0 0.0 0.0 
0.0 0.0 0.0 
0.0 0.0 0.0 
0.0 0.0 0.0 
0.0 0.0 0.0 
0.0 0.0 0.0 
0.0 0.0 0.0 
0.0 0.0 0.0 
0.0 0.0 0.0 
0.0 0.0 0.0 
0.0 0.0 0.0 
0.0 0.0 0.0 
0.0 0.0 0.0 
0.0 0.0 0.0 
0.0 0.0 0.0 
0.0 0.0 0.0 
0.0 0.0 0.0 
0.0 0.0 0.0 
0.0 0.0 0.0 
0.0 0.0 0.0 
0.0 0.0 0.0 
0.0 0.0 0.0 
0.0 0.0 0.0 
0.0 0.0 0.0 
0.0 0.0 0.0 
0.0 0.0 0.0 
0.0 0.0 0.0 
0.0 0.0 0.0 
0.0 0.0 0.0 
0.0 0.0 0.0 
0.0 0.0 0.0 
0.0 0.0 0.0 
0.0 0.0 0.0 
0.0 0.0 0.0 
0.0 0.0 0.0 
0.0 0.0 0.0 
0.0 0.0 0.0 
0.0 0.0 0.0 
0.0 0.0 0.0 
0.0 0.0 0.0 
0.0 0.0 0.0 
0.0 0.0 0.0 
0.0 0.0 0.0 
0.0 0.0 0.0 
0.0 0.0 0.0 
0.0 0.0 0.0 
0.0 0.0 0.0 
0.0 0.0 0.0 
0.0 0.0 0.0 
0.0 0.0 0.0 
0.0 0.0 0.0 
0.0 0.0 0.0 
0.0 0.0 0.0 
0.0 0.0 0.0 
0.0 0.0 0.0 
0.0 0.0 0.0 
0.0 0.0 0.0 
0.0 0.0 0.0 
0.0 0.0 0.0 
0.0 0.0 0.0 
0.0 0.0 0.0 
0.0 0.0 0.0 
0.0 0.0 0.0 
0.0 0.0 0.0 
0.0 0.0 0.0 
0.0 0.0 0.0 
0.0 0.0 0.0 
0.0 0.0 0.0 
0.0 0.0 0.0 
0.0 0.0 0.0 
0.0 0.0 0.0 
0.0 0.0 0.0 
0.0 0.0 0.0 
0.0 0.0 0.0 
0.0 0.0 0.0 
0.0 0.0 0.0 
0.0 0.0 0.0 
0.0 0.0 0.0 
0.0 0.0 0.0 
0.0 0.0 0.0 
0.0 0.0 0.0 
0.0 0.0 0.0 
0.0 0.0 0.0 
0.0 0.0 0.0 
0.0 0.0 0.0 
0.0 0.0 0.0 
0.0 0.0 0.0 
0.0 0.0 0.0 
0.0 0.0 0.0 
0.0 0.0 0.0 
0.0 0.0 0.0 
0.0 0.0 0.0 
0.0 0.0 0.0 
0.0 0.0 0.0 
0.0 0.0 0.0 
0.0 0.0 0.0 
0.0 0.0 0.0 
0.0 0.0 0.0 
0.0 0.0 0.0 
0.0 0.0 0.0 
0.0 0.0 0.0 
0.0 0.0 0.0 
0.0 0.0 0.0 
0.0 0.0 0.0 
0.0 0.0 0.0 
0.0 0.0 0.0 
0.0 0.0 0.0 
0.0 0.0 0.0 
0.0 0.0 0.0 
0.0 0.0 0.0 
0.0 0.0 0.0 
0.0 0.0 0.0 
0.0 0.0 0.0 
0.0 0.0 0.0 
0.0 0.0 0.0 
0.0 0.0 0.0 
0.0 0.0 0.0 
0.0 0.0 0.0 
0.0 0.0 0.0 
0.0 0.0 0.0 
0.0 0.0 0.0 
0.0 0.0 0.0 
0.0 0.0 0.0 
0.0 0.0 0.0 
0.0 0.0 0.0 
0.0 0.0 0.0 
0.0 0.0 0.0 
0.0 0.0 0.0 
0.0 0.0 0.0 
0.0 0.0 0.0 
0.0 0.0 0.0 
0.0 0.0 0.0 
0.0 0.0 0.0 
0.0 0.0 0.0 
0.0 0.0 0.0 
0.0 0.0 0.0 
0.0 0.0 0.0 
0.0 0.0 0.0 
0.0 0.0 0.0 
0.0 0.0 0.0 
0.0 0.0 0.0 
0.0 0.0 0.0 
0.0 0.0 0.0 
0.0 0.0 0.0 
0.0 0.0 0.0 
0.0 0.0 0.0 
0.0 0.0 0.0 
0.0 0.0 0.0 
0.0 0.0 0.0 
0.0 0.0 0.0 
0.0 0.0 0.0 
0.0 0.0 0.0 
0.0 0.0 0.0 
0.0 0.0 0.0 
0.0 0.0 0.0 
0.0 0.0 0.0 
0.0 0.0 0.0 
0.0 0.0 0.0 
0.0 0.0 0.0 
0.0 0.0 0.0 
0.0 0.0 0.0 
0.0 0.0 0.0 
0.0 0.0 0.0 
0.0 0.0 0.0 
0.0 0.0 0.0 
0.0 0.0 0.0 
0.0 0.0 0.0 
0.0 0.0 0.0 
0.0 0.0 0.0 
0.0 0.0 0.0 
0.0 0.0 0.0 
0.0 0.0 0.0 
0.0 0.0 0.0 
0.0 0.0 0.0 
0.0 0.0 0.0 
0.0 0.0 0.0 
0.0 0.0 0.0 
0.0 0.0 0.0 
0.0 0.0 0.0 
0.0 0.0 0.0 
0.0 0.0 0.0 
0.0 0.0 0.0 
0.0 0.0 0.0 
0.0 0.0 0.0 
0.0 0.0 0.0 
0.0 0.0 0.0 
0.0 0.0 0.0 
0.0 0.0 0.0 
0.0 0.0 0.0 
0.0 0.0 0.0 
0.0 0.0 0.0 
0.0 0.0 0.0 
0.0 0.0 0.0 
0.0 0.0 0.0 
0.0 0.0 0.0 
0.0 0.0 0.0 
0.0 0.0 0.0 
0.0 0.0 0.0 
0.0 0.0 0.0 
0.0 0.0 0.0 
0.0 0.0 0.0 
0.0 0.0 0.0 
0.0 0.0 0.0 
0.0 0.0 0.0 
0.0 0.0 0.0 
0.0 0.0 0.0 
0.0 0.0 0.0 
0.0 0.0 0.0 
0.0 0.0 0.0 
0.0 0.0 0.0 
0.0 0.0 0.0 
0.0 0.0 0.0 
0.0 0.0 0.0 
0.0 0.0 0.0 
0.0 0.0 0.0 
0.0 0.0 0.0 
0.0 0.0 0.0 
0.0 0.0 0.0 
0.0 0.0 0.0 
0.0 0.0 0.0 
0.0 0.0 0.0 
0.0 0.0 0.0 
0.0 0.0 0.0 
0.0 0.0 0.0 
0.0 0.0 0.0 
0.0 0.0 0.0 
0.0 0.0 0.0 
0.0 0.0 0.0 
0.0 0.0 0.0 
0.0 0.0 0.0 
0.0 0.0 0.0 
0.0 0.0 0.0 
0.0 0.0 0.0 
0.0 0.0 0.0 
0.0 0.0 0.0 
0.0 0.0 0.0 
0.0 0.0 0.0 
0.0 0.0 0.0 
0.0 0.0 0.0 
0.0 0.0 0.0 
0.0 0.0 0.0 
0.0 0.0 0.0 
0.0 0.0 0.0 
0.0 0.0 0.0 
0.0 0.0 0.0 
0.0 0.0 0.0 
0.0 0.0 0.0 
0.0 0.0 0.0 
0.0 0.0 0.0 
0.0 0.0 0.0 
0.0 0.0 0.0 
0.0 0.0 0.0 
0.0 0.0 0.0 
0.0 0.0 0.0 
0.0 0.0 0.0 
0.0 0.0 0.0 
0.0 0.0 0.0 
0.0 0.0 0.0 
0.0 0.0 0.0 
0.0 0.0 0.0 
0.0 0.0 0.0 
0.0 0.0 0.0 
0.0 0.0 0.0 
0.0 0.0 0.0 
0.0 0.0 0.0 
0.0 0.0 0.0 
0.0 0.0 0.0 
0.0 0.0 0.0 
0.0 0.0 0.0 
0.0 0.0 0.0 
0.0 0.0 0.0 
0.0 0.0 0.0 
0.0 0.0 0.0 
0.0 0.0 0.0 
0.0 0.0 0.0 
0.0 0.0 0.0 
0.0 0.0 0.0 
0.0 0.0 0.0 
0.0 0.0 0.0 
0.0 0.0 0.0 
0.0 0.0 0.0 
0.0 0.0 0.0 
0.0 0.0 0.0 
0.0 0.0 0.0 
0.0 0.0 0.0 
0.0 0.0 0.0 
0.0 0.0 0.0 
0.0 0.0 0.0 
0.0 0.0 0.0 
0.0 0.0 0.0 
0.0 0.0 0.0 
0.0 0.0 0.0 
0.0 0.0 0.0 
0.0 0.0 0.0 
0.0 0.0 0.0 
0.0 0.0 0.0 
0.0 0.0 0.0 
0.0 0.0 0.0 
0.0 0.0 0.0 
0.0 0.0 0.0 
0.0 0.0 0.0 
0.0 0.0 0.0 
0.0 0.0 0.0 
0.0 0.0 0.0 
0.0 0.0 0.0 
0.0 0.0 0.0 
0.0 0.0 0.0 
0.0 0.0 0.0 
0.0 0.0 0.0 
0.0 0.0 0.0 
0.0 0.0 0.0 
0.0 0.0 0.0 
0.0 0.0 0.0 
0.0 0.0 0.0 
0.0 0.0 0.0 
0.0 0.0 0.0 
0.0 0.0 0.0 
0.0 0.0 0.0 
0.0 0.0 0.0 
0.0 0.0 0.0 
0.0 0.0 0.0 
0.0 0.0 0.0 
0.0 0.0 0.0 
0.0 0.0 0.0 
0.0 0.0 0.0 
0.0 0.0 0.0 
0.0 0.0 0.0 
0.0 0.0 0.0 
0.0 0.0 0.0 
0.0 0.0 0.0 
0.0 0.0 0.0 
0.0 0.0 0.0 
0.0 0.0 0.0 
0.0 0.0 0.0 
0.0 0.0 0.0 
0.0 0.0 0.0 
0.0 0.0 0.0 
0.0 0.0 0.0 
0.0 0.0 0.0 
0.0 0.0 0.0 
0.0 0.0 0.0 
0.0 0.0 0.0 
0.0 0.0 0.0 
0.0 0.0 0.0 
0.0 0.0 0.0 
0.0 0.0 0.0 
0.0 0.0 0.0 
0.0 0.0 0.0 
0.0 0.0 0.0 
0.0 0.0 0.0 
0.0 0.0 0.0 
0.0 0.0 0.0 
0.0 0.0 0.0 
0.0 0.0 0.0 
0.0 0.0 0.0 
0.0 0.0 0.0 
0.0 0.0 0.0 
0.0 0.0 0.0 
0.0 0.0 0.0 
0.0 0.0 0.0 
0.0 0.0 0.0 
0.0 0.0 0.0 
0.0 0.0 0.0 
0.0 0.0 0.0 
0.0 0.0 0.0 
0.0 0.0 0.0 
0.0 0.0 0.0 
0.0 0.0 0.0 
0.0 0.0 0.0 
0.0 0.0 0.0 
0.0 0.0 0.0 
0.0 0.0 0.0 
0.0 0.0 0.0 
0.0 0.0 0.0 
0.0 0.0 0.0 
0.0 0.0 0.0 
0.0 0.0 0.0 
0.0 0.0 0.0 
0.0 0.0 0.0 
0.0 0.0 0.0 
0.0 0.0 0.0 
0.0 0.0 0.0 
0.0 0.0 0.0 
0.0 0.0 0.0 
0.0 0.0 0.0 
0.0 0.0 0.0 
0.0 0.0 0.0 
0.0 0.0 0.0 
0.0 0.0 0.0 
0.0 0.0 0.0 
0.0 0.0 0.0 
0.0 0.0 0.0 
0.0 0.0 0.0 
0.0 0.0 0.0 
0.0 0.0 0.0 
0.0 0.0 0.0 
0.0 0.0 0.0 
0.0 0.0 0.0 
0.0 0.0 0.0 
0.0 0.0 0.0 
0.0 0.0 0.0 
0.0 0.0 0.0 
0.0 0.0 0.0 
0.0 0.0 0.0 
0.0 0.0 0.0 
0.0 0.0 0.0 
0.0 0.0 0.0 
0.0 0.0 0.0 
0.0 0.0 0.0 
0.0 0.0 0.0 
0.0 0.0 0.0 
0.0 0.0 0.0 
0.0 0.0 0.0 
0.0 0.0 0.0 
0.0 0.0 0.0 
0.0 0.0 0.0 
0.0 0.0 0.0 
0.0 0.0 0.0 
0.0 0.0 0.0 
0.0 0.0 0.0 
0.0 0.0 0.0 
0.0 0.0 0.0 
0.0 0.0 0.0 
0.0 0.0 0.0 
0.0 0.0 0.0 
0.0 0.0 0.0 
0.0 0.0 0.0 
0.0 0.0 0.0 
0.0 0.0 0.0 
0.0 0.0 0.0 
0.0 0.0 0.0 
0.0 0.0 0.0 
0.0 0.0 0.0 
0.0 0.0 0.0 
0.0 0.0 0.0 
0.0 0.0 0.0 
0.0 0.0 0.0 
0.0 0.0 0.0 
0.0 0.0 0.0 
0.0 0.0 0.0 
0.0 0.0 0.0 
0.0 0.0 0.0 
0.0 0.0 0.0 
0.0 0.0 0.0 
0.0 0.0 0.0 
0.0 0.0 0.0 
0.0 0.0 0.0 
0.0 0.0 0.0 
0.0 0.0 0.0 
0.0 0.0 0.0 
0.0 0.0 0.0 
0.0 0.0 0.0 
0.0 0.0 0.0 
0.0 0.0 0.0 
0.0 0.0 0.0 
0.0 0.0 0.0 
0.0 0.0 0.0 
0.0 0.0 0.0 
0.0 0.0 0.0 
0.0 0.0 0.0 
0.0 0.0 0.0 
0.0 0.0 0.0 
0.0 0.0 0.0 
0.0 0.0 0.0 
0.0 0.0 0.0 
0.0 0.0 0.0 
0.0 0.0 0.0 
0.0 0.0 0.0 
0.0 0.0 0.0 
0.0 0.0 0.0 
0.0 0.0 0.0 
0.0 0.0 0.0 
0.0 0.0 0.0 
0.0 0.0 0.0 
0.0 0.0 0.0 
0.0 0.0 0.0 
0.0 0.0 0.0 
0.0 0.0 0.0 
0.0 0.0 0.0 
0.0 0.0 0.0 
0.0 0.0 0.0 
0.0 0.0 0.0 
0.0 0.0 0.0 
0.0 0.0 0.0 
0.0 0.0 0.0 
0.0 0.0 0.0 
0.0 0.0 0.0 
0.0 0.0 0.0 
0.0 0.0 0.0 
0.0 0.0 0.0 
0.0 0.0 0.0 
0.0 0.0 0.0 
0.0 0.0 0.0 
0.0 0.0 0.0 
0.0 0.0 0.0 
0.0 0.0 0.0 
0.0 0.0 0.0 
0.0 0.0 0.0 
0.0 0.0 0.0 
0.0 0.0 0.0 
0.0 0.0 0.0 
0.0 0.0 0.0 
0.0 0.0 0.0 
0.0 0.0 0.0 
0.0 0.0 0.0 
0.0 0.0 0.0 
0.0 0.0 0.0 
0.0 0.0 0.0 
0.0 0.0 0.0 
0.0 0.0 0.0 
0.0 0.0 0.0 
0.0 0.0 0.0 
0.0 0.0 0.0 
0.0 0.0 0.0 
0.0 0.0 0.0 
0.0 0.0 0.0 
0.0 0.0 0.0 
0.0 0.0 0.0 
0.0 0.0 0.0 
0.0 0.0 0.0 
0.0 0.0 0.0 
0.0 0.0 0.0 
0.0 0.0 0.0 
0.0 0.0 0.0 
0.0 0.0 0.0 
0.0 0.0 0.0 
0.0 0.0 0.0 
0.0 0.0 0.0 
0.0 0.0 0.0 
0.0 0.0 0.0 
0.0 0.0 0.0 
0.0 0.0 0.0 
0.0 0.0 0.0 
0.0 0.0 0.0 
0.0 0.0 0.0 
0.0 0.0 0.0 
0.0 0.0 0.0 
0.0 0.0 0.0 
0.0 0.0 0.0 
0.0 0.0 0.0 
0.0 0.0 0.0 
0.0 0.0 0.0 
0.0 0.0 0.0 
0.0 0.0 0.0 
0.0 0.0 0.0 
0.0 0.0 0.0 
0.0 0.0 0.0 
0.0 0.0 0.0 
0.0 0.0 0.0 
0.0 0.0 0.0 
0.0 0.0 0.0 
0.0 0.0 0.0 
0.0 0.0 0.0 
0.0 0.0 0.0 
0.0 0.0 0.0 
0.0 0.0 0.0 
0.0 0.0 0.0 
0.0 0.0 0.0 
0.0 0.0 0.0 
0.0 0.0 0.0 
0.0 0.0 0.0 
0.0 0.0 0.0 
0.0 0.0 0.0 
0.0 0.0 0.0 
0.0 0.0 0.0 
0.0 0.0 0.0 
0.0 0.0 0.0 
0.0 0.0 0.0 
0.0 0.0 0.0 
0.0 0.0 0.0 
0.0 0.0 0.0 
0.0 0.0 0.0 
0.0 0.0 0.0 
0.0 0.0 0.0 
0.0 0.0 0.0 
0.0 0.0 0.0 
0.0 0.0 0.0 
0.0 0.0 0.0 
0.0 0.0 0.0 
0.0 0.0 0.0 
0.0 0.0 0.0 
0.0 0.0 0.0 
0.0 0.0 0.0 
0.0 0.0 0.0 
0.0 0.0 0.0 
0.0 0.0 0.0 
0.0 0.0 0.0 
0.0 0.0 0.0 
0.0 0.0 0.0 
0.0 0.0 0.0 
0.0 0.0 0.0 
0.0 0.0 0.0 
0.0 0.0 0.0 
0.0 0.0 0.0 
0.0 0.0 0.0 
0.0 0.0 0.0 
0.0 0.0 0.0 
0.0 0.0 0.0 
0.0 0.0 0.0 
0.0 0.0 0.0 
0.0 0.0 0.0 
0.0 0.0 0.0 
0.0 0.0 0.0 
0.0 0.0 0.0 
0.0 0.0 0.0 
0.0 0.0 0.0 
0.0 0.0 0.0 
0.0 0.0 0.0 
0.0 0.0 0.0 
0.0 0.0 0.0 
0.0 0.0 0.0 
0.0 0.0 0.0 
0.0 0.0 0.0 
0.0 0.0 0.0 
0.0 0.0 0.0 
0.0 0.0 0.0 
0.0 0.0 0.0 
0.0 0.0 0.0 
0.0 0.0 0.0 
0.0 0.0 0.0 
0.0 0.0 0.0 
0.0 0.0 0.0 
0.0 0.0 0.0 
0.0 0.0 0.0 
0.0 0.0 0.0 
0.0 0.0 0.0 
0.0 0.0 0.0 
0.0 0.0 0.0 
0.0 0.0 0.0 
0.0 0.0 0.0 
0.0 0.0 0.0 
0.0 0.0 0.0 
0.0 0.0 0.0 
0.0 0.0 0.0 
0.0 0.0 0.0 
0.0 0.0 0.0 
0.0 0.0 0.0 
0.0 0.0 0.0 
0.0 0.0 0.0 
0.0 0.0 0.0 
0.0 0.0 0.0 
0.0 0.0 0.0 
0.0 0.0 0.0 
0.0 0.0 0.0 
0.0 0.0 0.0 
0.0 0.0 0.0 
0.0 0.0 0.0 
0.0 0.0 0.0 
0.0 0.0 0.0 
0.0 0.0 0.0 
0.0 0.0 0.0 
0.0 0.0 0.0 
0.0 0.0 0.0 
0.0 0.0 0.0 
0.0 0.0 0.0 
0.0 0.0 0.0 
0.0 0.0 0.0 
0.0 0.0 0.0 
0.0 0.0 0.0 
0.0 0.0 0.0 
0.0 0.0 0.0 
0.0 0.0 0.0 
0.0 0.0 0.0 
0.0 0.0 0.0 
0.0 0.0 0.0 
0.0 0.0 0.0 
0.0 0.0 0.0 
0.0 0.0 0.0 
0.0 0.0 0.0 
0.0 0.0 0.0 
0.0 0.0 0.0 
0.0 0.0 0.0 
0.0 0.0 0.0 
0.0 0.0 0.0 
0.0 0.0 0.0 
0.0 0.0 0.0 
0.0 0.0 0.0 
0.0 0.0 0.0 
0.0 0.0 0.0 
0.0 0.0 0.0 
0.0 0.0 0.0 
0.0 0.0 0.0 
0.0 0.0 0.0 
0.0 0.0 0.0 
0.0 0.0 0.0 
0.0 0.0 0.0 
0.0 0.0 0.0 
0.0 0.0 0.0 
0.0 0.0 0.0 
0.0 0.0 0.0 
0.0 0.0 0.0 
0.0 0.0 0.0 
0.0 0.0 0.0 
0.0 0.0 0.0 
0.0 0.0 0.0 
0.0 0.0 0.0 
0.0 0.0 0.0 
0.0 0.0 0.0 
0.0 0.0 0.0 
0.0 0.0 0.0 
0.0 0.0 0.0 
0.0 0.0 0.0 
0.0 0.0 0.0 
0.0 0.0 0.0 
0.0 0.0 0.0 
0.0 0.0 0.0 
0.0 0.0 0.0 
0.0 0.0 0.0 
0.0 0.0 0.0 
0.0 0.0 0.0 
0.0 0.0 0.0 
0.0 0.0 0.0 
0.0 0.0 0.0 
0.0 0.0 0.0 
0.0 0.0 0.0 
0.0 0.0 0.0 
0.0 0.0 0.0 
0.0 0.0 0.0 
0.0 0.0 0.0 
0.0 0.0 0.0 
0.0 0.0 0.0 
0.0 0.0 0.0 
0.0 0.0 0.0 
0.0 0.0 0.0 
0.0 0.0 0.0 
0.0 0.0 0.0 
0.0 0.0 0.0 
0.0 0.0 0.0 
0.0 0.0 0.0 
0.0 0.0 0.0 
0.0 0.0 0.0 
0.0 0.0 0.0 
0.0 0.0 0.0 
0.0 0.0 0.0 
0.0 0.0 0.0 
0.0 0.0 0.0 
0.0 0.0 0.0 
0.0 0.0 0.0 
0.0 0.0 0.0 
0.0 0.0 0.0 
0.0 0.0 0.0 
0.0 0.0 0.0 
0.0 0.0 0.0 
0.0 0.0 0.0 
0.0 0.0 0.0 
0.0 0.0 0.0 
0.0 0.0 0.0 
0.0 0.0 0.0 
0.0 0.0 0.0 
0.0 0.0 0.0 
0.0 0.0 0.0 
0.0 0.0 0.0 
0.0 0.0 0.0 
0.0 0.0 0.0 
0.0 0.0 0.0 
0.0 0.0 0.0 
0.0 0.0 0.0 
0.0 0.0 0.0 
0.0 0.0 0.0 
0.0 0.0 0.0 
0.0 0.0 0.0 
0.0 0.0 0.0 
0.0 0.0 0.0 
0.0 0.0 0.0 
0.0 0.0 0.0 
0.0 0.0 0.0 
0.0 0.0 0.0 
0.0 0.0 0.0 
0.0 0.0 0.0 
0.0 0.0 0.0 
0.0 0.0 0.0 
0.0 0.0 0.0 
0.0 0.0 0.0 
0.0 0.0 0.0 
0.0 0.0 0.0 
0.0 0.0 0.0 
0.0 0.0 0.0 
0.0 0.0 0.0 
0.0 0.0 0.0 
0.0 0.0 0.0 
0.0 0.0 0.0 
0.0 0.0 0.0 
0.0 0.0 0.0 
0.0 0.0 0.0 
0.0 0.0 0.0 
0.0 0.0 0.0 
0.0 0.0 0.0 
0.0 0.0 0.0 
0.0 0.0 0.0 
0.0 0.0 0.0 
0.0 0.0 0.0 
0.0 0.0 0.0 
0.0 0.0 0.0 
0.0 0.0 0.0 
0.0 0.0 0.0 
0.0 0.0 0.0 
0.0 0.0 0.0 
0.0 0.0 0.0 
0.0 0.0 0.0 
0.0 0.0 0.0 
0.0 0.0 0.0 
0.0 0.0 0.0 
0.0 0.0 0.0 
0.0 0.0 0.0 
0.0 0.0 0.0 
0.0 0.0 0.0 
0.0 0.0 0.0 
0.0 0.0 0.0 
0.0 0.0 0.0 
0.0 0.0 0.0 
0.0 0.0 0.0 
0.0 0.0 0.0 
0.0 0.0 0.0 
0.0 0.0 0.0 
0.0 0.0 0.0 
0.0 0.0 0.0 
0.0 0.0 0.0 
0.0 0.0 0.0 
0.0 0.0 0.0 
0.0 0.0 0.0 
0.0 0.0 0.0 
0.0 0.0 0.0 
0.0 0.0 0.0 
0.0 0.0 0.0 
0.0 0.0 0.0 
0.0 0.0 0.0 
0.0 0.0 0.0 
0.0 0.0 0.0 
0.0 0.0 0.0 
0.0 0.0 0.0 
0.0 0.0 0.0 
0.0 0.0 0.0 
0.0 0.0 0.0 
0.0 0.0 0.0 
0.0 0.0 0.0 
0.0 0.0 0.0 
0.0 0.0 0.0 
0.0 0.0 0.0 
0.0 0.0 0.0 
0.0 0.0 0.0 
0.0 0.0 0.0 
0.0 0.0 0.0 
0.0 0.0 0.0 
0.0 0.0 0.0 
0.0 0.0 0.0 
0.0 0.0 0.0 
0.0 0.0 0.0 
0.0 0.0 0.0 
0.0 0.0 0.0 
0.0 0.0 0.0 
0.0 0.0 0.0 
0.0 0.0 0.0 
0.0 0.0 0.0 
0.0 0.0 0.0 
0.0 0.0 0.0 
0.0 0.0 0.0 
0.0 0.0 0.0 
0.0 0.0 0.0 
0.0 0.0 0.0 
0.0 0.0 0.0 
0.0 0.0 0.0 
0.0 0.0 0.0 
0.0 0.0 0.0 
0.0 0.0 0.0 
0.0 0.0 0.0 
0.0 0.0 0.0 
0.0 0.0 0.0 
0.0 0.0 0.0 
0.0 0.0 0.0 
0.0 0.0 0.0 
0.0 0.0 0.0 
0.0 0.0 0.0 
0.0 0.0 0.0 
0.0 0.0 0.0 
0.0 0.0 0.0 
0.0 0.0 0.0 
0.0 0.0 0.0 
0.0 0.0 0.0 
0.0 0.0 0.0 
0.0 0.0 0.0 
0.0 0.0 0.0 
0.0 0.0 0.0 
0.0 0.0 0.0 
0.0 0.0 0.0 
0.0 0.0 0.0 
0.0 0.0 0.0 
0.0 0.0 0.0 
0.0 0.0 0.0 
0.0 0.0 0.0 
0.0 0.0 0.0 
0.0 0.0 0.0 
0.0 0.0 0.0 
0.0 0.0 0.0 
0.0 0.0 0.0 
0.0 0.0 0.0 
0.0 0.0 0.0 
0.0 0.0 0.0 
0.0 0.0 0.0 
0.0 0.0 0.0 
0.0 0.0 0.0 
0.0 0.0 0.0 
0.0 0.0 0.0 
0.0 0.0 0.0 
0.0 0.0 0.0 
0.0 0.0 0.0 
0.0 0.0 0.0 
0.0 0.0 0.0 
0.0 0.0 0.0 
0.0 0.0 0.0 
0.0 0.0 0.0 
0.0 0.0 0.0 
0.0 0.0 0.0 
0.0 0.0 0.0 
0.0 0.0 0.0 
0.0 0.0 0.0 
0.0 0.0 0.0 
0.0 0.0 0.0 
0.0 0.0 0.0 
0.0 0.0 0.0 
0.0 0.0 0.0 
0.0 0.0 0.0 
0.0 0.0 0.0 
0.0 0.0 0.0 
0.0 0.0 0.0 
0.0 0.0 0.0 
0.0 0.0 0.0 
0.0 0.0 0.0 
0.0 0.0 0.0 
0.0 0.0 0.0 
0.0 0.0 0.0 
0.0 0.0 0.0 
0.0 0.0 0.0 
0.0 0.0 0.0 
0.0 0.0 0.0 
0.0 0.0 0.0 
0.0 0.0 0.0 
0.0 0.0 0.0 
0.0 0.0 0.0 
0.0 0.0 0.0 
0.0 0.0 0.0 
0.0 0.0 0.0 
0.0 0.0 0.0 
0.0 0.0 0.0 
0.0 0.0 0.0 
0.0 0.0 0.0 
0.0 0.0 0.0 
0.0 0.0 0.0 
0.0 0.0 0.0 
0.0 0.0 0.0 
0.0 0.0 0.0 
0.0 0.0 0.0 
0.0 0.0 0.0 
0.0 0.0 0.0 
0.0 0.0 0.0 
0.0 0.0 0.0 
0.0 0.0 0.0 
0.0 0.0 0.0 
0.0 0.0 0.0 

VECTORS node_bounda_dof_materi_velocity_y float
0.0 0.0 0.0 
0.0 0.0 0.0 
0.0 1.000000000000e+00 0.0 
0.0 1.000000000000e+00 0.0 
0.0 0.0 0.0 
0.0 0.0 0.0 
0.0 0.0 0.0 
0.0 0.0 0.0 
0.0 0.0 0.0 
0.0 0.0 0.0 
0.0 0.0 0.0 
0.0 0.0 0.0 
0.0 0.0 0.0 
0.0 0.0 0.0 
0.0 0.0 0.0 
0.0 0.0 0.0 
0.0 0.0 0.0 
0.0 0.0 0.0 
0.0 0.0 0.0 
0.0 0.0 0.0 
0.0 0.0 0.0 
0.0 0.0 0.0 
0.0 0.0 0.0 
0.0 1.000000000000e+00 0.0 
0.0 1.000000000000e+00 0.0 
0.0 1.000000000000e+00 0.0 
0.0 1.000000000000e+00 0.0 
0.0 1.000000000000e+00 0.0 
0.0 1.000000000000e+00 0.0 
0.0 1.000000000000e+00 0.0 
0.0 1.000000000000e+00 0.0 
0.0 1.000000000000e+00 0.0 
0.0 1.000000000000e+00 0.0 
0.0 1.000000000000e+00 0.0 
0.0 1.000000000000e+00 0.0 
0.0 1.000000000000e+00 0.0 
0.0 1.000000000000e+00 0.0 
0.0 1.000000000000e+00 0.0 
0.0 1.000000000000e+00 0.0 
0.0 1.000000000000e+00 0.0 
0.0 1.000000000000e+00 0.0 
0.0 1.000000000000e+00 0.0 
0.0 1.000000000000e+00 0.0 
0.0 1.000000000000e+00 0.0 
0.0 1.000000000000e+00 0.0 
0.0 1.000000000000e+00 0.0 
0.0 1.000000000000e+00 0.0 
0.0 1.000000000000e+00 0.0 
0.0 1.000000000000e+00 0.0 
0.0 1.000000000000e+00 0.0 
0.0 1.000000000000e+00 0.0 
0.0 1.000000000000e+00 0.0 
0.0 1.000000000000e+00 0.0 
0.0 1.000000000000e+00 0.0 
0.0 1.000000000000e+00 0.0 
0.0 1.000000000000e+00 0.0 
0.0 1.000000000000e+00 0.0 
0.0 1.000000000000e+00 0.0 
0.0 1.000000000000e+00 0.0 
0.0 1.000000000000e+00 0.0 
0.0 1.000000000000e+00 0.0 
0.0 1.000000000000e+00 0.0 
0.0 1.000000000000e+00 0.0 
0.0 1.000000000000e+00 0.0 
0.0 1.000000000000e+00 0.0 
0.0 1.000000000000e+00 0.0 
0.0 1.000000000000e+00 0.0 
0.0 1.000000000000e+00 0.0 
0.0 1.000000000000e+00 0.0 
0.0 1.000000000000e+00 0.0 
0.0 1.000000000000e+00 0.0 
0.0 1.000000000000e+00 0.0 
0.0 0.0 0.0 
0.0 0.0 0.0 
0.0 0.0 0.0 
0.0 0.0 0.0 
0.0 0.0 0.0 
0.0 0.0 0.0 
0.0 0.0 0.0 
0.0 0.0 0.0 
0.0 0.0 0.0 
0.0 0.0 0.0 
0.0 0.0 0.0 
0.0 0.0 0.0 
0.0 0.0 0.0 
0.0 0.0 0.0 
0.0 0.0 0.0 
0.0 0.0 0.0 
0.0 0.0 0.0 
0.0 0.0 0.0 
0.0 0.0 0.0 
0.0 0.0 0.0 
0.0 0.0 0.0 
0.0 0.0 0.0 
0.0 0.0 0.0 
0.0 0.0 0.0 
0.0 0.0 0.0 
0.0 0.0 0.0 
0.0 0.0 0.0 
0.0 0.0 0.0 
0.0 0.0 0.0 
0.0 0.0 0.0 
0.0 0.0 0.0 
0.0 0.0 0.0 
0.0 0.0 0.0 
0.0 0.0 0.0 
0.0 0.0 0.0 
0.0 0.0 0.0 
0.0 0.0 0.0 
0.0 0.0 0.0 
0.0 0.0 0.0 
0.0 0.0 0.0 
0.0 0.0 0.0 
0.0 0.0 0.0 
0.0 0.0 0.0 
0.0 0.0 0.0 
0.0 0.0 0.0 
0.0 0.0 0.0 
0.0 0.0 0.0 
0.0 0.0 0.0 
0.0 0.0 0.0 
0.0 0.0 0.0 
0.0 0.0 0.0 
0.0 0.0 0.0 
0.0 0.0 0.0 
0.0 0.0 0.0 
0.0 0.0 0.0 
0.0 0.0 0.0 
0.0 0.0 0.0 
0.0 0.0 0.0 
0.0 0.0 0.0 
0.0 0.0 0.0 
0.0 0.0 0.0 
0.0 0.0 0.0 
0.0 0.0 0.0 
0.0 0.0 0.0 
0.0 0.0 0.0 
0.0 0.0 0.0 
0.0 0.0 0.0 
0.0 0.0 0.0 
0.0 0.0 0.0 
0.0 0.0 0.0 
0.0 0.0 0.0 
0.0 0.0 0.0 
0.0 0.0 0.0 
0.0 0.0 0.0 
0.0 0.0 0.0 
0.0 0.0 0.0 
0.0 0.0 0.0 
0.0 0.0 0.0 
0.0 0.0 0.0 
0.0 0.0 0.0 
0.0 0.0 0.0 
0.0 0.0 0.0 
0.0 0.0 0.0 
0.0 0.0 0.0 
0.0 0.0 0.0 
0.0 0.0 0.0 
0.0 0.0 0.0 
0.0 0.0 0.0 
0.0 0.0 0.0 
0.0 0.0 0.0 
0.0 0.0 0.0 
0.0 0.0 0.0 
0.0 0.0 0.0 
0.0 0.0 0.0 
0.0 0.0 0.0 
0.0 0.0 0.0 
0.0 0.0 0.0 
0.0 0.0 0.0 
0.0 0.0 0.0 
0.0 0.0 0.0 
0.0 0.0 0.0 
0.0 0.0 0.0 
0.0 0.0 0.0 
0.0 0.0 0.0 
0.0 0.0 0.0 
0.0 0.0 0.0 
0.0 0.0 0.0 
0.0 0.0 0.0 
0.0 0.0 0.0 
0.0 0.0 0.0 
0.0 0.0 0.0 
0.0 0.0 0.0 
0.0 0.0 0.0 
0.0 0.0 0.0 
0.0 0.0 0.0 
0.0 0.0 0.0 
0.0 0.0 0.0 
0.0 0.0 0.0 
0.0 0.0 0.0 
0.0 0.0 0.0 
0.0 0.0 0.0 
0.0 0.0 0.0 
0.0 0.0 0.0 
0.0 0.0 0.0 
0.0 0.0 0.0 
0.0 0.0 0.0 
0.0 0.0 0.0 
0.0 0.0 0.0 
0.0 0.0 0.0 
0.0 0.0 0.0 
0.0 0.0 0.0 
0.0 0.0 0.0 
0.0 0.0 0.0 
0.0 0.0 0.0 
0.0 0.0 0.0 
0.0 0.0 0.0 
0.0 0.0 0.0 
0.0 0.0 0.0 
0.0 0.0 0.0 
0.0 0.0 0.0 
0.0 0.0 0.0 
0.0 0.0 0.0 
0.0 0.0 0.0 
0.0 0.0 0.0 
0.0 0.0 0.0 
0.0 0.0 0.0 
0.0 0.0 0.0 
0.0 0.0 0.0 
0.0 0.0 0.0 
0.0 0.0 0.0 
0.0 0.0 0.0 
0.0 0.0 0.0 
0.0 0.0 0.0 
0.0 0.0 0.0 
0.0 0.0 0.0 
0.0 0.0 0.0 
0.0 0.0 0.0 
0.0 0.0 0.0 
0.0 0.0 0.0 
0.0 0.0 0.0 
0.0 0.0 0.0 
0.0 0.0 0.0 
0.0 0.0 0.0 
0.0 0.0 0.0 
0.0 0.0 0.0 
0.0 0.0 0.0 
0.0 0.0 0.0 
0.0 0.0 0.0 
0.0 0.0 0.0 
0.0 0.0 0.0 
0.0 0.0 0.0 
0.0 0.0 0.0 
0.0 0.0 0.0 
0.0 0.0 0.0 
0.0 0.0 0.0 
0.0 0.0 0.0 
0.0 0.0 0.0 
0.0 0.0 0.0 
0.0 0.0 0.0 
0.0 0.0 0.0 
0.0 0.0 0.0 
0.0 0.0 0.0 
0.0 0.0 0.0 
0.0 0.0 0.0 
0.0 0.0 0.0 
0.0 0.0 0.0 
0.0 0.0 0.0 
0.0 0.0 0.0 
0.0 0.0 0.0 
0.0 0.0 0.0 
0.0 0.0 0.0 
0.0 0.0 0.0 
0.0 0.0 0.0 
0.0 0.0 0.0 
0.0 0.0 0.0 
0.0 0.0 0.0 
0.0 0.0 0.0 
0.0 0.0 0.0 
0.0 0.0 0.0 
0.0 0.0 0.0 
0.0 0.0 0.0 
0.0 0.0 0.0 
0.0 0.0 0.0 
0.0 0.0 0.0 
0.0 0.0 0.0 
0.0 0.0 0.0 
0.0 0.0 0.0 
0.0 0.0 0.0 
0.0 0.0 0.0 
0.0 0.0 0.0 
0.0 0.0 0.0 
0.0 0.0 0.0 
0.0 0.0 0.0 
0.0 0.0 0.0 
0.0 0.0 0.0 
0.0 0.0 0.0 
0.0 0.0 0.0 
0.0 0.0 0.0 
0.0 0.0 0.0 
0.0 0.0 0.0 
0.0 0.0 0.0 
0.0 0.0 0.0 
0.0 0.0 0.0 
0.0 0.0 0.0 
0.0 0.0 0.0 
0.0 0.0 0.0 
0.0 0.0 0.0 
0.0 0.0 0.0 
0.0 0.0 0.0 
0.0 0.0 0.0 
0.0 0.0 0.0 
0.0 0.0 0.0 
0.0 0.0 0.0 
0.0 0.0 0.0 
0.0 0.0 0.0 
0.0 0.0 0.0 
0.0 0.0 0.0 
0.0 0.0 0.0 
0.0 0.0 0.0 
0.0 0.0 0.0 
0.0 0.0 0.0 
0.0 0.0 0.0 
0.0 0.0 0.0 
0.0 0.0 0.0 
0.0 0.0 0.0 
0.0 0.0 0.0 
0.0 0.0 0.0 
0.0 0.0 0.0 
0.0 0.0 0.0 
0.0 0.0 0.0 
0.0 0.0 0.0 
0.0 0.0 0.0 
0.0 0.0 0.0 
0.0 0.0 0.0 
0.0 0.0 0.0 
0.0 0.0 0.0 
0.0 0.0 0.0 
0.0 0.0 0.0 
0.0 0.0 0.0 
0.0 0.0 0.0 
0.0 0.0 0.0 
0.0 0.0 0.0 
0.0 0.0 0.0 
0.0 0.0 0.0 
0.0 0.0 0.0 
0.0 0.0 0.0 
0.0 0.0 0.0 
0.0 0.0 0.0 
0.0 0.0 0.0 
0.0 0.0 0.0 
0.0 0.0 0.0 
0.0 0.0 0.0 
0.0 0.0 0.0 
0.0 0.0 0.0 
0.0 0.0 0.0 
0.0 0.0 0.0 
0.0 0.0 0.0 
0.0 0.0 0.0 
0.0 0.0 0.0 
0.0 0.0 0.0 
0.0 0.0 0.0 
0.0 0.0 0.0 
0.0 0.0 0.0 
0.0 0.0 0.0 
0.0 0.0 0.0 
0.0 0.0 0.0 
0.0 0.0 0.0 
0.0 0.0 0.0 
0.0 0.0 0.0 
0.0 0.0 0.0 
0.0 0.0 0.0 
0.0 0.0 0.0 
0.0 0.0 0.0 
0.0 0.0 0.0 
0.0 0.0 0.0 
0.0 0.0 0.0 
0.0 0.0 0.0 
0.0 0.0 0.0 
0.0 0.0 0.0 
0.0 0.0 0.0 
0.0 0.0 0.0 
0.0 0.0 0.0 
0.0 0.0 0.0 
0.0 0.0 0.0 
0.0 0.0 0.0 
0.0 0.0 0.0 
0.0 0.0 0.0 
0.0 0.0 0.0 
0.0 0.0 0.0 
0.0 0.0 0.0 
0.0 0.0 0.0 
0.0 0.0 0.0 
0.0 0.0 0.0 
0.0 0.0 0.0 
0.0 0.0 0.0 
0.0 0.0 0.0 
0.0 0.0 0.0 
0.0 0.0 0.0 
0.0 0.0 0.0 
0.0 0.0 0.0 
0.0 0.0 0.0 
0.0 0.0 0.0 
0.0 0.0 0.0 
0.0 0.0 0.0 
0.0 0.0 0.0 
0.0 0.0 0.0 
0.0 0.0 0.0 
0.0 0.0 0.0 
0.0 0.0 0.0 
0.0 0.0 0.0 
0.0 0.0 0.0 
0.0 0.0 0.0 
0.0 0.0 0.0 
0.0 0.0 0.0 
0.0 0.0 0.0 
0.0 0.0 0.0 
0.0 0.0 0.0 
0.0 0.0 0.0 
0.0 0.0 0.0 
0.0 0.0 0.0 
0.0 0.0 0.0 
0.0 0.0 0.0 
0.0 0.0 0.0 
0.0 0.0 0.0 
0.0 0.0 0.0 
0.0 0.0 0.0 
0.0 0.0 0.0 
0.0 0.0 0.0 
0.0 0.0 0.0 
0.0 0.0 0.0 
0.0 0.0 0.0 
0.0 0.0 0.0 
0.0 0.0 0.0 
0.0 0.0 0.0 
0.0 0.0 0.0 
0.0 0.0 0.0 
0.0 0.0 0.0 
0.0 0.0 0.0 
0.0 0.0 0.0 
0.0 0.0 0.0 
0.0 0.0 0.0 
0.0 0.0 0.0 
0.0 0.0 0.0 
0.0 0.0 0.0 
0.0 0.0 0.0 
0.0 0.0 0.0 
0.0 0.0 0.0 
0.0 0.0 0.0 
0.0 0.0 0.0 
0.0 0.0 0.0 
0.0 0.0 0.0 
0.0 0.0 0.0 
0.0 0.0 0.0 
0.0 0.0 0.0 
0.0 0.0 0.0 
0.0 0.0 0.0 
0.0 0.0 0.0 
0.0 0.0 0.0 
0.0 0.0 0.0 
0.0 0.0 0.0 
0.0 0.0 0.0 
0.0 0.0 0.0 
0.0 0.0 0.0 
0.0 0.0 0.0 
0.0 0.0 0.0 
0.0 0.0 0.0 
0.0 0.0 0.0 
0.0 0.0 0.0 
0.0 0.0 0.0 
0.0 0.0 0.0 
0.0 0.0 0.0 
0.0 0.0 0.0 
0.0 0.0 0.0 
0.0 0.0 0.0 
0.0 0.0 0.0 
0.0 0.0 0.0 
0.0 0.0 0.0 
0.0 0.0 0.0 
0.0 0.0 0.0 
0.0 0.0 0.0 
0.0 0.0 0.0 
0.0 0.0 0.0 
0.0 0.0 0.0 
0.0 0.0 0.0 
0.0 0.0 0.0 
0.0 0.0 0.0 
0.0 0.0 0.0 
0.0 0.0 0.0 
0.0 0.0 0.0 
0.0 0.0 0.0 
0.0 0.0 0.0 
0.0 0.0 0.0 
0.0 0.0 0.0 
0.0 0.0 0.0 
0.0 0.0 0.0 
0.0 0.0 0.0 
0.0 0.0 0.0 
0.0 0.0 0.0 
0.0 0.0 0.0 
0.0 0.0 0.0 
0.0 0.0 0.0 
0.0 0.0 0.0 
0.0 0.0 0.0 
0.0 0.0 0.0 
0.0 0.0 0.0 
0.0 0.0 0.0 
0.0 0.0 0.0 
0.0 0.0 0.0 
0.0 0.0 0.0 
0.0 0.0 0.0 
0.0 0.0 0.0 
0.0 0.0 0.0 
0.0 0.0 0.0 
0.0 0.0 0.0 
0.0 0.0 0.0 
0.0 0.0 0.0 
0.0 0.0 0.0 
0.0 0.0 0.0 
0.0 0.0 0.0 
0.0 0.0 0.0 
0.0 0.0 0.0 
0.0 0.0 0.0 
0.0 0.0 0.0 
0.0 0.0 0.0 
0.0 0.0 0.0 
0.0 0.0 0.0 
0.0 0.0 0.0 
0.0 0.0 0.0 
0.0 0.0 0.0 
0.0 0.0 0.0 
0.0 0.0 0.0 
0.0 0.0 0.0 
0.0 0.0 0.0 
0.0 0.0 0.0 
0.0 0.0 0.0 
0.0 0.0 0.0 
0.0 0.0 0.0 
0.0 0.0 0.0 
0.0 0.0 0.0 
0.0 0.0 0.0 
0.0 0.0 0.0 
0.0 0.0 0.0 
0.0 0.0 0.0 
0.0 0.0 0.0 
0.0 0.0 0.0 
0.0 0.0 0.0 
0.0 0.0 0.0 
0.0 0.0 0.0 
0.0 0.0 0.0 
0.0 0.0 0.0 
0.0 0.0 0.0 
0.0 0.0 0.0 
0.0 0.0 0.0 
0.0 0.0 0.0 
0.0 0.0 0.0 
0.0 0.0 0.0 
0.0 0.0 0.0 
0.0 0.0 0.0 
0.0 0.0 0.0 
0.0 0.0 0.0 
0.0 0.0 0.0 
0.0 0.0 0.0 
0.0 0.0 0.0 
0.0 0.0 0.0 
0.0 0.0 0.0 
0.0 0.0 0.0 
0.0 0.0 0.0 
0.0 0.0 0.0 
0.0 0.0 0.0 
0.0 0.0 0.0 
0.0 0.0 0.0 
0.0 0.0 0.0 
0.0 0.0 0.0 
0.0 0.0 0.0 
0.0 0.0 0.0 
0.0 0.0 0.0 
0.0 0.0 0.0 
0.0 0.0 0.0 
0.0 0.0 0.0 
0.0 0.0 0.0 
0.0 0.0 0.0 
0.0 0.0 0.0 
0.0 0.0 0.0 
0.0 0.0 0.0 
0.0 0.0 0.0 
0.0 0.0 0.0 
0.0 0.0 0.0 
0.0 0.0 0.0 
0.0 0.0 0.0 
0.0 0.0 0.0 
0.0 0.0 0.0 
0.0 0.0 0.0 
0.0 0.0 0.0 
0.0 0.0 0.0 
0.0 0.0 0.0 
0.0 0.0 0.0 
0.0 0.0 0.0 
0.0 0.0 0.0 
0.0 0.0 0.0 
0.0 0.0 0.0 
0.0 0.0 0.0 
0.0 0.0 0.0 
0.0 0.0 0.0 
0.0 0.0 0.0 
0.0 0.0 0.0 
0.0 0.0 0.0 
0.0 0.0 0.0 
0.0 0.0 0.0 
0.0 0.0 0.0 
0.0 0.0 0.0 
0.0 0.0 0.0 
0.0 0.0 0.0 
0.0 0.0 0.0 
0.0 0.0 0.0 
0.0 0.0 0.0 
0.0 0.0 0.0 
0.0 0.0 0.0 
0.0 0.0 0.0 
0.0 0.0 0.0 
0.0 0.0 0.0 
0.0 0.0 0.0 
0.0 0.0 0.0 
0.0 0.0 0.0 
0.0 0.0 0.0 
0.0 0.0 0.0 
0.0 0.0 0.0 
0.0 0.0 0.0 
0.0 0.0 0.0 
0.0 0.0 0.0 
0.0 0.0 0.0 
0.0 0.0 0.0 
0.0 0.0 0.0 
0.0 0.0 0.0 
0.0 0.0 0.0 
0.0 0.0 0.0 
0.0 0.0 0.0 
0.0 0.0 0.0 
0.0 0.0 0.0 
0.0 0.0 0.0 
0.0 0.0 0.0 
0.0 0.0 0.0 
0.0 0.0 0.0 
0.0 0.0 0.0 
0.0 0.0 0.0 
0.0 0.0 0.0 
0.0 0.0 0.0 
0.0 0.0 0.0 
0.0 0.0 0.0 
0.0 0.0 0.0 
0.0 0.0 0.0 
0.0 0.0 0.0 
0.0 0.0 0.0 
0.0 0.0 0.0 
0.0 0.0 0.0 
0.0 0.0 0.0 
0.0 0.0 0.0 
0.0 0.0 0.0 
0.0 0.0 0.0 
0.0 0.0 0.0 
0.0 0.0 0.0 
0.0 0.0 0.0 
0.0 0.0 0.0 
0.0 0.0 0.0 
0.0 0.0 0.0 
0.0 0.0 0.0 
0.0 0.0 0.0 
0.0 0.0 0.0 
0.0 0.0 0.0 
0.0 0.0 0.0 
0.0 0.0 0.0 
0.0 0.0 0.0 
0.0 0.0 0.0 
0.0 0.0 0.0 
0.0 0.0 0.0 
0.0 0.0 0.0 
0.0 0.0 0.0 
0.0 0.0 0.0 
0.0 0.0 0.0 
0.0 0.0 0.0 
0.0 0.0 0.0 
0.0 0.0 0.0 
0.0 0.0 0.0 
0.0 0.0 0.0 
0.0 0.0 0.0 
0.0 0.0 0.0 
0.0 0.0 0.0 
0.0 0.0 0.0 
0.0 0.0 0.0 
0.0 0.0 0.0 
0.0 0.0 0.0 
0.0 0.0 0.0 
0.0 0.0 0.0 
0.0 0.0 0.0 
0.0 0.0 0.0 
0.0 0.0 0.0 
0.0 0.0 0.0 
0.0 0.0 0.0 
0.0 0.0 0.0 
0.0 0.0 0.0 
0.0 0.0 0.0 
0.0 0.0 0.0 
0.0 0.0 0.0 
0.0 0.0 0.0 
0.0 0.0 0.0 
0.0 0.0 0.0 
0.0 0.0 0.0 
0.0 0.0 0.0 
0.0 0.0 0.0 
0.0 0.0 0.0 
0.0 0.0 0.0 
0.0 0.0 0.0 
0.0 0.0 0.0 
0.0 0.0 0.0 
0.0 0.0 0.0 
0.0 0.0 0.0 
0.0 0.0 0.0 
0.0 0.0 0.0 
0.0 0.0 0.0 
0.0 0.0 0.0 
0.0 0.0 0.0 
0.0 0.0 0.0 
0.0 0.0 0.0 
0.0 0.0 0.0 
0.0 0.0 0.0 
0.0 0.0 0.0 
0.0 0.0 0.0 
0.0 0.0 0.0 
0.0 0.0 0.0 
0.0 0.0 0.0 
0.0 0.0 0.0 
0.0 0.0 0.0 
0.0 0.0 0.0 
0.0 0.0 0.0 
0.0 0.0 0.0 
0.0 0.0 0.0 
0.0 0.0 0.0 
0.0 0.0 0.0 
0.0 0.0 0.0 
0.0 0.0 0.0 
0.0 0.0 0.0 
0.0 0.0 0.0 
0.0 0.0 0.0 
0.0 0.0 0.0 
0.0 0.0 0.0 
0.0 0.0 0.0 
0.0 0.0 0.0 
0.0 0.0 0.0 
0.0 0.0 0.0 
0.0 0.0 0.0 
0.0 0.0 0.0 
0.0 0.0 0.0 
0.0 0.0 0.0 
0.0 0.0 0.0 
0.0 0.0 0.0 
0.0 0.0 0.0 
0.0 0.0 0.0 
0.0 0.0 0.0 
0.0 0.0 0.0 
0.0 0.0 0.0 
0.0 0.0 0.0 
0.0 0.0 0.0 
0.0 0.0 0.0 
0.0 0.0 0.0 
0.0 0.0 0.0 
0.0 0.0 0.0 
0.0 0.0 0.0 
0.0 0.0 0.0 
0.0 0.0 0.0 
0.0 0.0 0.0 
0.0 0.0 0.0 
0.0 0.0 0.0 
0.0 0.0 0.0 
0.0 0.0 0.0 
0.0 0.0 0.0 
0.0 0.0 0.0 
0.0 0.0 0.0 
0.0 0.0 0.0 
0.0 0.0 0.0 
0.0 0.0 0.0 
0.0 0.0 0.0 
0.0 0.0 0.0 
0.0 0.0 0.0 
0.0 0.0 0.0 
0.0 0.0 0.0 
0.0 0.0 0.0 
0.0 0.0 0.0 
0.0 0.0 0.0 
0.0 0.0 0.0 
0.0 0.0 0.0 
0.0 0.0 0.0 
0.0 0.0 0.0 
0.0 0.0 0.0 
0.0 0.0 0.0 
0.0 0.0 0.0 
0.0 0.0 0.0 
0.0 0.0 0.0 
0.0 0.0 0.0 
0.0 0.0 0.0 
0.0 0.0 0.0 
0.0 0.0 0.0 
0.0 0.0 0.0 
0.0 0.0 0.0 
0.0 0.0 0.0 
0.0 0.0 0.0 
0.0 0.0 0.0 
0.0 0.0 0.0 
0.0 0.0 0.0 
0.0 0.0 0.0 
0.0 0.0 0.0 
0.0 0.0 0.0 
0.0 0.0 0.0 
0.0 0.0 0.0 
0.0 0.0 0.0 
0.0 0.0 0.0 
0.0 0.0 0.0 
0.0 0.0 0.0 
0.0 0.0 0.0 
0.0 0.0 0.0 
0.0 0.0 0.0 
0.0 0.0 0.0 
0.0 0.0 0.0 
0.0 0.0 0.0 
0.0 0.0 0.0 
0.0 0.0 0.0 
0.0 0.0 0.0 
0.0 0.0 0.0 
0.0 0.0 0.0 
0.0 0.0 0.0 
0.0 0.0 0.0 
0.0 0.0 0.0 
0.0 0.0 0.0 
0.0 0.0 0.0 
0.0 0.0 0.0 
0.0 0.0 0.0 
0.0 0.0 0.0 
0.0 0.0 0.0 
0.0 0.0 0.0 
0.0 0.0 0.0 
0.0 0.0 0.0 
0.0 0.0 0.0 
0.0 0.0 0.0 
0.0 0.0 0.0 
0.0 0.0 0.0 
0.0 0.0 0.0 
0.0 0.0 0.0 
0.0 0.0 0.0 
0.0 0.0 0.0 
0.0 0.0 0.0 
0.0 0.0 0.0 
0.0 0.0 0.0 
0.0 0.0 0.0 
0.0 0.0 0.0 
0.0 0.0 0.0 
0.0 0.0 0.0 
0.0 0.0 0.0 
0.0 0.0 0.0 
0.0 0.0 0.0 
0.0 0.0 0.0 
0.0 0.0 0.0 
0.0 0.0 0.0 
0.0 0.0 0.0 
0.0 0.0 0.0 
0.0 0.0 0.0 
0.0 0.0 0.0 
0.0 0.0 0.0 
0.0 0.0 0.0 
0.0 0.0 0.0 
0.0 0.0 0.0 
0.0 0.0 0.0 
0.0 0.0 0.0 
0.0 0.0 0.0 
0.0 0.0 0.0 
0.0 0.0 0.0 
0.0 0.0 0.0 
0.0 0.0 0.0 
0.0 0.0 0.0 
0.0 0.0 0.0 
0.0 0.0 0.0 
0.0 0.0 0.0 
0.0 0.0 0.0 
0.0 0.0 0.0 
0.0 0.0 0.0 
0.0 0.0 0.0 
0.0 0.0 0.0 
0.0 0.0 0.0 
0.0 0.0 0.0 
0.0 0.0 0.0 
0.0 0.0 0.0 
0.0 0.0 0.0 
0.0 0.0 0.0 
0.0 0.0 0.0 
0.0 0.0 0.0 
0.0 0.0 0.0 
0.0 0.0 0.0 
0.0 0.0 0.0 
0.0 0.0 0.0 
0.0 0.0 0.0 
0.0 0.0 0.0 
0.0 0.0 0.0 
0.0 0.0 0.0 
0.0 0.0 0.0 
0.0 0.0 0.0 
0.0 0.0 0.0 
0.0 0.0 0.0 
0.0 0.0 0.0 
0.0 0.0 0.0 
0.0 0.0 0.0 
0.0 0.0 0.0 
0.0 0.0 0.0 
0.0 0.0 0.0 
0.0 0.0 0.0 
0.0 0.0 0.0 
0.0 0.0 0.0 
0.0 0.0 0.0 
0.0 0.0 0.0 
0.0 0.0 0.0 
0.0 0.0 0.0 
0.0 0.0 0.0 
0.0 0.0 0.0 
0.0 0.0 0.0 
0.0 0.0 0.0 
0.0 0.0 0.0 
0.0 0.0 0.0 
0.0 0.0 0.0 
0.0 0.0 0.0 
0.0 0.0 0.0 
0.0 0.0 0.0 
0.0 0.0 0.0 
0.0 0.0 0.0 
0.0 0.0 0.0 
0.0 0.0 0.0 
0.0 0.0 0.0 
0.0 0.0 0.0 
0.0 0.0 0.0 
0.0 0.0 0.0 
0.0 0.0 0.0 
0.0 0.0 0.0 
0.0 0.0 0.0 
0.0 0.0 0.0 
0.0 0.0 0.0 
0.0 0.0 0.0 
0.0 0.0 0.0 
0.0 0.0 0.0 
0.0 0.0 0.0 
0.0 0.0 0.0 
0.0 0.0 0.0 
0.0 0.0 0.0 
0.0 0.0 0.0 
0.0 0.0 0.0 
0.0 0.0 0.0 
0.0 0.0 0.0 
0.0 0.0 0.0 
0.0 0.0 0.0 
0.0 0.0 0.0 
0.0 0.0 0.0 
0.0 0.0 0.0 
0.0 0.0 0.0 
0.0 0.0 0.0 
0.0 0.0 0.0 
0.0 0.0 0.0 
0.0 0.0 0.0 
0.0 0.0 0.0 
0.0 0.0 0.0 
0.0 0.0 0.0 
0.0 0.0 0.0 
0.0 0.0 0.0 
0.0 0.0 0.0 
0.0 0.0 0.0 
0.0 0.0 0.0 
0.0 0.0 0.0 
0.0 0.0 0.0 
0.0 0.0 0.0 
0.0 0.0 0.0 
0.0 0.0 0.0 
0.0 0.0 0.0 
0.0 0.0 0.0 
0.0 0.0 0.0 
0.0 0.0 0.0 
0.0 0.0 0.0 
0.0 0.0 0.0 
0.0 0.0 0.0 
0.0 0.0 0.0 
0.0 0.0 0.0 
0.0 0.0 0.0 
0.0 0.0 0.0 
0.0 0.0 0.0 
0.0 0.0 0.0 
0.0 0.0 0.0 
0.0 0.0 0.0 
0.0 0.0 0.0 
0.0 0.0 0.0 
0.0 0.0 0.0 
0.0 0.0 0.0 
0.0 0.0 0.0 
0.0 0.0 0.0 
0.0 0.0 0.0 
0.0 0.0 0.0 
0.0 0.0 0.0 
0.0 0.0 0.0 
0.0 0.0 0.0 
0.0 0.0 0.0 
0.0 0.0 0.0 
0.0 0.0 0.0 
0.0 0.0 0.0 
0.0 0.0 0.0 
0.0 0.0 0.0 
0.0 0.0 0.0 
0.0 0.0 0.0 
0.0 0.0 0.0 
0.0 0.0 0.0 
0.0 0.0 0.0 
0.0 0.0 0.0 
0.0 0.0 0.0 
0.0 0.0 0.0 
0.0 0.0 0.0 
0.0 0.0 0.0 
0.0 0.0 0.0 
0.0 0.0 0.0 
0.0 0.0 0.0 
0.0 0.0 0.0 
0.0 0.0 0.0 
0.0 0.0 0.0 
0.0 0.0 0.0 
0.0 0.0 0.0 
0.0 0.0 0.0 
0.0 0.0 0.0 
0.0 0.0 0.0 
0.0 0.0 0.0 
0.0 0.0 0.0 
0.0 0.0 0.0 
0.0 0.0 0.0 
0.0 0.0 0.0 
0.0 0.0 0.0 
0.0 0.0 0.0 
0.0 0.0 0.0 
0.0 0.0 0.0 
0.0 0.0 0.0 
0.0 0.0 0.0 
0.0 0.0 0.0 
0.0 0.0 0.0 
0.0 0.0 0.0 
0.0 0.0 0.0 
0.0 0.0 0.0 
0.0 0.0 0.0 
0.0 0.0 0.0 
0.0 0.0 0.0 
0.0 0.0 0.0 
0.0 0.0 0.0 
0.0 0.0 0.0 
0.0 0.0 0.0 
0.0 0.0 0.0 
0.0 0.0 0.0 
0.0 0.0 0.0 
0.0 0.0 0.0 
0.0 0.0 0.0 
0.0 0.0 0.0 
0.0 0.0 0.0 
0.0 0.0 0.0 
0.0 0.0 0.0 
0.0 0.0 0.0 
0.0 0.0 0.0 
0.0 0.0 0.0 
0.0 0.0 0.0 
0.0 0.0 0.0 
0.0 0.0 0.0 
0.0 0.0 0.0 
0.0 0.0 0.0 
0.0 0.0 0.0 
0.0 0.0 0.0 
0.0 0.0 0.0 
0.0 0.0 0.0 
0.0 0.0 0.0 
0.0 0.0 0.0 
0.0 0.0 0.0 
0.0 0.0 0.0 
0.0 0.0 0.0 
0.0 0.0 0.0 
0.0 0.0 0.0 
0.0 0.0 0.0 
0.0 0.0 0.0 
0.0 0.0 0.0 
0.0 0.0 0.0 
0.0 0.0 0.0 
0.0 0.0 0.0 
0.0 0.0 0.0 
0.0 0.0 0.0 
0.0 0.0 0.0 
0.0 0.0 0.0 
0.0 0.0 0.0 
0.0 0.0 0.0 
0.0 0.0 0.0 
0.0 0.0 0.0 
0.0 0.0 0.0 
0.0 0.0 0.0 
0.0 0.0 0.0 
0.0 0.0 0.0 
0.0 0.0 0.0 
0.0 0.0 0.0 
0.0 0.0 0.0 
0.0 0.0 0.0 
0.0 0.0 0.0 
0.0 0.0 0.0 
0.0 0.0 0.0 
0.0 0.0 0.0 
0.0 0.0 0.0 
0.0 0.0 0.0 
0.0 0.0 0.0 
0.0 0.0 0.0 
0.0 0.0 0.0 
0.0 0.0 0.0 
0.0 0.0 0.0 
0.0 0.0 0.0 
0.0 0.0 0.0 
0.0 0.0 0.0 
0.0 0.0 0.0 
0.0 0.0 0.0 
0.0 0.0 0.0 
0.0 0.0 0.0 
0.0 0.0 0.0 
0.0 0.0 0.0 
0.0 0.0 0.0 
0.0 0.0 0.0 
0.0 0.0 0.0 
0.0 0.0 0.0 
0.0 0.0 0.0 
0.0 0.0 0.0 
0.0 0.0 0.0 
0.0 0.0 0.0 
0.0 0.0 0.0 
0.0 0.0 0.0 
0.0 0.0 0.0 
0.0 0.0 0.0 
0.0 0.0 0.0 
0.0 0.0 0.0 
0.0 0.0 0.0 
0.0 0.0 0.0 
0.0 0.0 0.0 
0.0 0.0 0.0 
0.0 0.0 0.0 
0.0 0.0 0.0 
0.0 0.0 0.0 
0.0 0.0 0.0 
0.0 0.0 0.0 
0.0 0.0 0.0 
0.0 0.0 0.0 
0.0 0.0 0.0 
0.0 0.0 0.0 
0.0 0.0 0.0 
0.0 0.0 0.0 
0.0 0.0 0.0 
0.0 0.0 0.0 
0.0 0.0 0.0 
0.0 0.0 0.0 
0.0 0.0 0.0 
0.0 0.0 0.0 
0.0 0.0 0.0 
0.0 0.0 0.0 
0.0 0.0 0.0 
0.0 0.0 0.0 
0.0 0.0 0.0 
0.0 0.0 0.0 
0.0 0.0 0.0 
0.0 0.0 0.0 
0.0 0.0 0.0 
0.0 0.0 0.0 
0.0 0.0 0.0 
0.0 0.0 0.0 
0.0 0.0 0.0 
0.0 0.0 0.0 
0.0 0.0 0.0 
0.0 0.0 0.0 
0.0 0.0 0.0 
0.0 0.0 0.0 
0.0 0.0 0.0 
0.0 0.0 0.0 
0.0 0.0 0.0 
0.0 0.0 0.0 
0.0 0.0 0.0 
0.0 0.0 0.0 
0.0 0.0 0.0 
0.0 0.0 0.0 
0.0 0.0 0.0 
0.0 0.0 0.0 
0.0 0.0 0.0 
0.0 0.0 0.0 
0.0 0.0 0.0 
0.0 0.0 0.0 
0.0 0.0 0.0 
0.0 0.0 0.0 
0.0 0.0 0.0 
0.0 0.0 0.0 
0.0 0.0 0.0 
0.0 0.0 0.0 
0.0 0.0 0.0 
0.0 0.0 0.0 
0.0 0.0 0.0 
0.0 0.0 0.0 
0.0 0.0 0.0 
0.0 0.0 0.0 
0.0 0.0 0.0 
0.0 0.0 0.0 
0.0 0.0 0.0 
0.0 0.0 0.0 
0.0 0.0 0.0 
0.0 0.0 0.0 
0.0 0.0 0.0 
0.0 0.0 0.0 
0.0 0.0 0.0 
0.0 0.0 0.0 
0.0 0.0 0.0 
0.0 0.0 0.0 
0.0 0.0 0.0 
0.0 0.0 0.0 
0.0 0.0 0.0 
0.0 0.0 0.0 
0.0 0.0 0.0 
0.0 0.0 0.0 
0.0 0.0 0.0 
0.0 0.0 0.0 
0.0 0.0 0.0 
0.0 0.0 0.0 
0.0 0.0 0.0 
0.0 0.0 0.0 
0.0 0.0 0.0 
0.0 0.0 0.0 
0.0 0.0 0.0 
0.0 0.0 0.0 
0.0 0.0 0.0 
0.0 0.0 0.0 
0.0 0.0 0.0 
0.0 0.0 0.0 
0.0 0.0 0.0 
0.0 0.0 0.0 
0.0 0.0 0.0 
0.0 0.0 0.0 
0.0 0.0 0.0 
0.0 0.0 0.0 
0.0 0.0 0.0 
0.0 0.0 0.0 
0.0 0.0 0.0 
0.0 0.0 0.0 
0.0 0.0 0.0 
0.0 0.0 0.0 
0.0 0.0 0.0 
0.0 0.0 0.0 
0.0 0.0 0.0 
0.0 0.0 0.0 
0.0 0.0 0.0 
0.0 0.0 0.0 
0.0 0.0 0.0 
0.0 0.0 0.0 
0.0 0.0 0.0 
0.0 0.0 0.0 
0.0 0.0 0.0 
0.0 0.0 0.0 
0.0 0.0 0.0 
0.0 0.0 0.0 
0.0 0.0 0.0 
0.0 0.0 0.0 

SCALARS node_boundary float
LOOKUP_TABLE default
1.000000000000e+00 
1.000000000000e+00 
1.000000000000e+00 
1.000000000000e+00 
1.000000000000e+00 
1.000000000000e+00 
1.000000000000e+00 
1.000000000000e+00 
1.000000000000e+00 
1.000000000000e+00 
1.000000000000e+00 
1.000000000000e+00 
1.000000000000e+00 
1.000000000000e+00 
1.000000000000e+00 
1.000000000000e+00 
1.000000000000e+00 
1.000000000000e+00 
1.000000000000e+00 
1.000000000000e+00 
1.000000000000e+00 
1.000000000000e+00 
1.000000000000e+00 
1.000000000000e+00 
1.000000000000e+00 
1.000000000000e+00 
1.000000000000e+00 
1.000000000000e+00 
1.000000000000e+00 
1.000000000000e+00 
1.000000000000e+00 
1.000000000000e+00 
1.000000000000e+00 
1.000000000000e+00 
1.000000000000e+00 
1.000000000000e+00 
1.000000000000e+00 
1.000000000000e+00 
1.000000000000e+00 
1.000000000000e+00 
1.000000000000e+00 
1.000000000000e+00 
1.000000000000e+00 
1.000000000000e+00 
1.000000000000e+00 
1.000000000000e+00 
1.000000000000e+00 
1.000000000000e+00 
1.000000000000e+00 
1.000000000000e+00 
1.000000000000e+00 
1.000000000000e+00 
1.000000000000e+00 
1.000000000000e+00 
1.000000000000e+00 
1.000000000000e+00 
1.000000000000e+00 
1.000000000000e+00 
1.000000000000e+00 
1.000000000000e+00 
1.000000000000e+00 
1.000000000000e+00 
1.000000000000e+00 
1.000000000000e+00 
1.000000000000e+00 
1.000000000000e+00 
1.000000000000e+00 
1.000000000000e+00 
1.000000000000e+00 
1.000000000000e+00 
1.000000000000e+00 
1.000000000000e+00 
1.000000000000e+00 
1.000000000000e+00 
1.000000000000e+00 
1.000000000000e+00 
1.000000000000e+00 
1.000000000000e+00 
1.000000000000e+00 
1.000000000000e+00 
1.000000000000e+00 
1.000000000000e+00 
0.0
1.000000000000e+00 
0.0
0.0
0.0
0.0
0.0
0.0
0.0
0.0
1.000000000000e+00 
1.000000000000e+00 
1.000000000000e+00 
1.000000000000e+00 
1.000000000000e+00 
1.000000000000e+00 
1.000000000000e+00 
1.000000000000e+00 
1.000000000000e+00 
0.0
0.0
0.0
0.0
0.0
0.0
0.0
0.0
0.0
0.0
0.0
0.0
0.0
0.0
1.000000000000e+00 
1.000000000000e+00 
1.000000000000e+00 
1.000000000000e+00 
1.000000000000e+00 
1.000000000000e+00 
1.000000000000e+00 
1.000000000000e+00 
1.000000000000e+00 
1.000000000000e+00 
1.000000000000e+00 
1.000000000000e+00 
1.000000000000e+00 
1.000000000000e+00 
1.000000000000e+00 
1.000000000000e+00 
1.000000000000e+00 
1.000000000000e+00 
1.000000000000e+00 
1.000000000000e+00 
1.000000000000e+00 
1.000000000000e+00 
1.000000000000e+00 
1.000000000000e+00 
1.000000000000e+00 
1.000000000000e+00 
1.000000000000e+00 
1.000000000000e+00 
1.000000000000e+00 
1.000000000000e+00 
1.000000000000e+00 
1.000000000000e+00 
1.000000000000e+00 
1.000000000000e+00 
1.000000000000e+00 
1.000000000000e+00 
1.000000000000e+00 
1.000000000000e+00 
1.000000000000e+00 
1.000000000000e+00 
1.000000000000e+00 
1.000000000000e+00 
1.000000000000e+00 
1.000000000000e+00 
1.000000000000e+00 
1.000000000000e+00 
1.000000000000e+00 
0.0
0.0
0.0
0.0
0.0
0.0
0.0
0.0
0.0
0.0
0.0
0.0
0.0
0.0
0.0
0.0
0.0
0.0
0.0
0.0
0.0
0.0
0.0
0.0
0.0
0.0
0.0
0.0
0.0
0.0
0.0
0.0
0.0
0.0
0.0
0.0
0.0
0.0
0.0
0.0
0.0
0.0
0.0
0.0
0.0
0.0
0.0
0.0
0.0
0.0
0.0
0.0
0.0
0.0
0.0
0.0
0.0
0.0
0.0
0.0
0.0
0.0
0.0
0.0
0.0
0.0
0.0
0.0
0.0
0.0
0.0
0.0
0.0
0.0
0.0
0.0
0.0
0.0
0.0
0.0
0.0
0.0
0.0
0.0
0.0
0.0
0.0
0.0
0.0
0.0
0.0
0.0
0.0
0.0
0.0
0.0
0.0
0.0
0.0
0.0
0.0
0.0
0.0
0.0
0.0
0.0
0.0
0.0
0.0
0.0
0.0
0.0
0.0
0.0
0.0
0.0
0.0
0.0
0.0
0.0
0.0
0.0
0.0
0.0
0.0
0.0
0.0
0.0
0.0
0.0
0.0
0.0
0.0
0.0
0.0
0.0
0.0
0.0
0.0
0.0
0.0
0.0
0.0
0.0
0.0
0.0
0.0
0.0
0.0
0.0
0.0
0.0
0.0
0.0
0.0
0.0
0.0
0.0
0.0
0.0
0.0
0.0
0.0
0.0
0.0
0.0
0.0
0.0
1.000000000000e+00 
0.0
0.0
0.0
0.0
0.0
0.0
0.0
0.0
0.0
0.0
0.0
0.0
0.0
0.0
0.0
0.0
0.0
0.0
0.0
0.0
0.0
0.0
0.0
0.0
0.0
0.0
0.0
0.0
0.0
0.0
0.0
0.0
0.0
0.0
0.0
0.0
0.0
0.0
0.0
0.0
0.0
0.0
0.0
0.0
0.0
0.0
0.0
0.0
0.0
0.0
0.0
0.0
0.0
0.0
0.0
0.0
0.0
0.0
0.0
0.0
0.0
0.0
0.0
0.0
0.0
0.0
0.0
0.0
0.0
0.0
0.0
0.0
0.0
0.0
0.0
0.0
0.0
0.0
0.0
0.0
0.0
0.0
0.0
0.0
0.0
0.0
0.0
0.0
0.0
0.0
0.0
0.0
0.0
0.0
0.0
0.0
0.0
0.0
0.0
0.0
0.0
0.0
0.0
0.0
0.0
0.0
0.0
0.0
0.0
0.0
0.0
0.0
0.0
0.0
0.0
0.0
0.0
0.0
0.0
0.0
0.0
0.0
0.0
0.0
0.0
0.0
0.0
0.0
0.0
0.0
0.0
0.0
0.0
0.0
0.0
0.0
0.0
0.0
0.0
0.0
0.0
0.0
0.0
0.0
0.0
0.0
0.0
0.0
0.0
0.0
0.0
0.0
0.0
0.0
0.0
0.0
0.0
0.0
0.0
0.0
0.0
0.0
0.0
0.0
0.0
0.0
0.0
0.0
0.0
0.0
0.0
0.0
0.0
0.0
0.0
0.0
0.0
0.0
0.0
0.0
0.0
0.0
0.0
0.0
0.0
0.0
0.0
0.0
0.0
0.0
0.0
0.0
0.0
0.0
0.0
0.0
0.0
0.0
0.0
0.0
0.0
0.0
0.0
0.0
0.0
0.0
0.0
0.0
0.0
0.0
0.0
0.0
0.0
0.0
0.0
0.0
0.0
0.0
0.0
0.0
0.0
0.0
0.0
0.0
0.0
0.0
0.0
0.0
0.0
0.0
0.0
0.0
0.0
0.0
0.0
0.0
0.0
0.0
0.0
0.0
0.0
0.0
0.0
0.0
0.0
0.0
0.0
0.0
0.0
0.0
0.0
0.0
0.0
0.0
0.0
0.0
0.0
0.0
0.0
0.0
0.0
0.0
0.0
0.0
0.0
0.0
0.0
0.0
0.0
0.0
0.0
0.0
0.0
0.0
0.0
0.0
0.0
0.0
0.0
0.0
0.0
0.0
0.0
0.0
0.0
0.0
0.0
0.0
0.0
0.0
0.0
0.0
0.0
0.0
0.0
0.0
0.0
0.0
0.0
0.0
0.0
0.0
0.0
0.0
0.0
0.0
0.0
0.0
0.0
0.0
0.0
0.0
0.0
0.0
0.0
0.0
0.0
0.0
0.0
0.0
0.0
0.0
0.0
0.0
0.0
0.0
0.0
0.0
0.0
0.0
0.0
0.0
0.0
0.0
0.0
0.0
0.0
0.0
0.0
0.0
0.0
0.0
0.0
0.0
0.0
0.0
0.0
0.0
0.0
0.0
0.0
0.0
0.0
0.0
0.0
0.0
0.0
0.0
0.0
0.0
0.0
0.0
0.0
0.0
0.0
0.0
0.0
0.0
0.0
0.0
0.0
0.0
0.0
0.0
0.0
0.0
0.0
0.0
0.0
0.0
0.0
0.0
0.0
0.0
0.0
0.0
0.0
0.0
0.0
0.0
0.0
0.0
0.0
0.0
0.0
0.0
0.0
0.0
0.0
0.0
0.0
0.0
0.0
0.0
0.0
0.0
0.0
0.0
0.0
0.0
0.0
0.0
0.0
0.0
0.0
0.0
0.0
0.0
0.0
0.0
0.0
0.0
0.0
0.0
0.0
0.0
0.0
0.0
0.0
0.0
0.0
0.0
0.0
0.0
0.0
0.0
0.0
0.0
0.0
0.0
0.0
0.0
0.0
0.0
0.0
0.0
0.0
0.0
0.0
0.0
0.0
0.0
0.0
0.0
0.0
0.0
0.0
0.0
0.0
0.0
0.0
0.0
0.0
0.0
0.0
0.0
0.0
0.0
0.0
0.0
0.0
0.0
0.0
0.0
0.0
0.0
0.0
0.0
0.0
0.0
0.0
0.0
0.0
0.0
0.0
0.0
0.0
0.0
0.0
0.0
0.0
0.0
0.0
0.0
0.0
0.0
0.0
0.0
0.0
0.0
0.0
0.0
0.0
0.0
0.0
0.0
0.0
0.0
0.0
0.0
0.0
0.0
0.0
0.0
0.0
0.0
0.0
0.0
0.0
0.0
0.0
0.0
0.0
0.0
0.0
0.0
0.0
0.0
0.0
0.0
0.0
0.0
0.0
0.0
0.0
0.0
0.0
0.0
0.0
0.0
0.0
0.0
0.0
0.0
0.0
0.0
0.0
0.0
0.0
0.0
0.0
0.0
0.0
0.0
0.0
0.0
0.0
0.0
0.0
0.0
0.0
0.0
0.0
0.0
0.0
0.0
0.0
0.0
0.0
0.0
0.0
0.0
0.0
0.0
0.0
0.0
0.0
0.0
0.0
0.0
0.0
0.0
0.0
0.0
0.0
0.0
0.0
0.0
0.0
0.0
0.0
0.0
0.0
0.0
0.0
0.0
0.0
0.0
0.0
0.0
0.0
0.0
0.0
0.0
0.0
0.0
0.0
0.0
0.0
0.0
0.0
0.0
0.0
0.0
0.0
0.0
0.0
0.0
0.0
0.0
0.0
0.0
0.0
0.0
0.0
0.0
0.0
0.0
0.0
0.0
0.0
0.0
0.0
0.0
0.0
0.0
0.0
0.0
0.0
0.0
0.0
0.0
0.0
0.0
0.0
0.0
0.0
0.0
0.0
0.0
0.0
0.0
0.0
0.0
0.0
0.0
0.0
0.0
0.0
0.0
0.0
0.0
0.0
0.0
0.0
0.0
0.0
0.0
0.0
0.0
0.0
0.0
0.0
0.0
0.0
0.0
0.0
0.0
0.0
0.0
0.0
0.0
0.0
0.0
0.0
0.0
0.0
0.0
0.0
0.0
0.0
0.0
0.0
0.0
0.0
0.0
0.0
0.0
0.0
0.0
0.0
0.0
0.0
0.0
0.0
0.0
0.0
0.0
0.0
0.0
0.0
0.0
0.0
0.0
0.0
0.0
0.0
0.0
0.0
0.0
0.0
0.0
0.0
0.0
0.0
0.0
0.0
0.0
0.0
0.0
0.0
0.0
0.0
0.0
0.0
0.0
0.0
0.0
0.0
0.0
0.0
0.0
0.0
0.0
0.0
0.0
0.0
0.0
0.0
0.0
0.0
0.0
0.0
0.0
0.0
0.0
0.0
0.0
0.0
0.0
0.0
0.0
0.0
0.0
0.0
0.0
0.0
0.0
0.0
0.0
0.0
0.0
0.0
0.0
0.0
0.0
0.0
0.0
0.0
0.0
0.0
0.0
0.0
0.0
0.0
0.0
0.0
0.0
0.0
0.0
0.0
0.0
0.0
0.0
0.0
0.0
0.0
0.0
0.0
0.0
0.0
0.0
0.0
0.0
0.0
0.0
0.0
0.0
0.0
0.0
0.0
0.0
0.0
0.0
0.0
0.0
0.0
0.0
0.0
0.0
0.0
0.0
0.0
0.0
0.0
0.0
0.0
0.0
0.0
0.0
0.0
0.0
0.0
0.0
0.0
0.0
0.0
0.0
0.0
0.0
0.0
0.0
0.0
0.0
0.0
0.0
0.0
0.0
0.0
0.0
0.0
0.0
0.0
0.0
0.0
0.0
0.0
0.0
0.0
0.0
0.0
0.0
0.0
0.0
0.0
0.0
0.0
0.0
0.0
0.0
0.0
0.0
0.0
0.0
0.0
0.0
0.0
0.0
0.0
0.0
0.0
0.0
0.0
0.0
0.0
0.0
0.0
0.0
0.0
0.0
0.0
0.0
0.0
0.0
0.0
0.0
0.0
0.0
0.0
0.0
0.0
0.0
0.0
0.0
0.0
0.0
0.0
0.0
0.0
0.0
0.0
0.0
0.0
0.0
0.0
0.0
0.0
0.0
0.0
0.0

VECTORS node_force_gravity float
0.0 -1.962000000000e+01 0.0 
0.0 -1.962000000000e+01 0.0 
0.0 -1.962000000000e+01 0.0 
0.0 -1.962000000000e+01 0.0 
0.0 -1.962000000000e+01 0.0 
0.0 -1.962000000000e+01 0.0 
0.0 -1.962000000000e+01 0.0 
0.0 -1.962000000000e+01 0.0 
0.0 -1.962000000000e+01 0.0 
0.0 -1.962000000000e+01 0.0 
0.0 -1.962000000000e+01 0.0 
0.0 -1.962000000000e+01 0.0 
0.0 -1.962000000000e+01 0.0 
0.0 -1.962000000000e+01 0.0 
0.0 -1.962000000000e+01 0.0 
0.0 -1.962000000000e+01 0.0 
0.0 -1.962000000000e+01 0.0 
0.0 -1.962000000000e+01 0.0 
0.0 -1.962000000000e+01 0.0 
0.0 -1.962000000000e+01 0.0 
0.0 -1.962000000000e+01 0.0 
0.0 -1.962000000000e+01 0.0 
0.0 -1.962000000000e+01 0.0 
0.0 -1.962000000000e+01 0.0 
0.0 -1.962000000000e+01 0.0 
0.0 -1.962000000000e+01 0.0 
0.0 -1.962000000000e+01 0.0 
0.0 -1.962000000000e+01 0.0 
0.0 -1.962000000000e+01 0.0 
0.0 -1.962000000000e+01 0.0 
0.0 -1.962000000000e+01 0.0 
0.0 -1.962000000000e+01 0.0 
0.0 -1.962000000000e+01 0.0 
0.0 -1.962000000000e+01 0.0 
0.0 -1.962000000000e+01 0.0 
0.0 -1.962000000000e+01 0.0 
0.0 -1.962000000000e+01 0.0 
0.0 -1.962000000000e+01 0.0 
0.0 -1.962000000000e+01 0.0 
0.0 -1.962000000000e+01 0.0 
0.0 -1.962000000000e+01 0.0 
0.0 -1.962000000000e+01 0.0 
0.0 -1.962000000000e+01 0.0 
0.0 -1.962000000000e+01 0.0 
0.0 -1.962000000000e+01 0.0 
0.0 -1.962000000000e+01 0.0 
0.0 -1.962000000000e+01 0.0 
0.0 -1.962000000000e+01 0.0 
0.0 -1.962000000000e+01 0.0 
0.0 -1.962000000000e+01 0.0 
0.0 -1.962000000000e+01 0.0 
0.0 -1.962000000000e+01 0.0 
0.0 -1.962000000000e+01 0.0 
0.0 -1.962000000000e+01 0.0 
0.0 -1.962000000000e+01 0.0 
0.0 -1.962000000000e+01 0.0 
0.0 -1.962000000000e+01 0.0 
0.0 -1.962000000000e+01 0.0 
0.0 -1.962000000000e+01 0.0 
0.0 -1.962000000000e+01 0.0 
0.0 -1.962000000000e+01 0.0 
0.0 -1.962000000000e+01 0.0 
0.0 -1.962000000000e+01 0.0 
0.0 -1.962000000000e+01 0.0 
0.0 -1.962000000000e+01 0.0 
0.0 -1.962000000000e+01 0.0 
0.0 -1.962000000000e+01 0.0 
0.0 -1.962000000000e+01 0.0 
0.0 -1.962000000000e+01 0.0 
0.0 -1.962000000000e+01 0.0 
0.0 -1.962000000000e+01 0.0 
0.0 -1.962000000000e+01 0.0 
0.0 -1.962000000000e+01 0.0 
0.0 -1.962000000000e+01 0.0 
0.0 -1.962000000000e+01 0.0 
0.0 -1.962000000000e+01 0.0 
0.0 -1.962000000000e+01 0.0 
0.0 -1.962000000000e+01 0.0 
0.0 -1.962000000000e+01 0.0 
0.0 -1.962000000000e+01 0.0 
0.0 -1.962000000000e+01 0.0 
0.0 -1.962000000000e+01 0.0 
0.0 -1.962000000000e+01 0.0 
0.0 -1.962000000000e+01 0.0 
0.0 -1.962000000000e+01 0.0 
0.0 -1.962000000000e+01 0.0 
0.0 -1.962000000000e+01 0.0 
0.0 -1.962000000000e+01 0.0 
0.0 -1.962000000000e+01 0.0 
0.0 -1.962000000000e+01 0.0 
0.0 -1.962000000000e+01 0.0 
0.0 -1.962000000000e+01 0.0 
0.0 -1.962000000000e+01 0.0 
0.0 -1.962000000000e+01 0.0 
0.0 -1.962000000000e+01 0.0 
0.0 -1.962000000000e+01 0.0 
0.0 -1.962000000000e+01 0.0 
0.0 -1.962000000000e+01 0.0 
0.0 -1.962000000000e+01 0.0 
0.0 -1.962000000000e+01 0.0 
0.0 -1.962000000000e+01 0.0 
0.0 -1.962000000000e+01 0.0 
0.0 -1.962000000000e+01 0.0 
0.0 -1.962000000000e+01 0.0 
0.0 -1.962000000000e+01 0.0 
0.0 -1.962000000000e+01 0.0 
0.0 -1.962000000000e+01 0.0 
0.0 -1.962000000000e+01 0.0 
0.0 -1.962000000000e+01 0.0 
0.0 -1.962000000000e+01 0.0 
0.0 -1.962000000000e+01 0.0 
0.0 -1.962000000000e+01 0.0 
0.0 -1.962000000000e+01 0.0 
0.0 -1.962000000000e+01 0.0 
0.0 -1.962000000000e+01 0.0 
0.0 -1.962000000000e+01 0.0 
0.0 -1.962000000000e+01 0.0 
0.0 -1.962000000000e+01 0.0 
0.0 -1.962000000000e+01 0.0 
0.0 -1.962000000000e+01 0.0 
0.0 -1.962000000000e+01 0.0 
0.0 -1.962000000000e+01 0.0 
0.0 -1.962000000000e+01 0.0 
0.0 -1.962000000000e+01 0.0 
0.0 -1.962000000000e+01 0.0 
0.0 -1.962000000000e+01 0.0 
0.0 -1.962000000000e+01 0.0 
0.0 -1.962000000000e+01 0.0 
0.0 -1.962000000000e+01 0.0 
0.0 -1.962000000000e+01 0.0 
0.0 -1.962000000000e+01 0.0 
0.0 -1.962000000000e+01 0.0 
0.0 -1.962000000000e+01 0.0 
0.0 -1.962000000000e+01 0.0 
0.0 -1.962000000000e+01 0.0 
0.0 -1.962000000000e+01 0.0 
0.0 -1.962000000000e+01 0.0 
0.0 -1.962000000000e+01 0.0 
0.0 -1.962000000000e+01 0.0 
0.0 -1.962000000000e+01 0.0 
0.0 -1.962000000000e+01 0.0 
0.0 -1.962000000000e+01 0.0 
0.0 -1.962000000000e+01 0.0 
0.0 -1.962000000000e+01 0.0 
0.0 -1.962000000000e+01 0.0 
0.0 -1.962000000000e+01 0.0 
0.0 -1.962000000000e+01 0.0 
0.0 -1.962000000000e+01 0.0 
0.0 -1.962000000000e+01 0.0 
0.0 -1.962000000000e+01 0.0 
0.0 -1.962000000000e+01 0.0 
0.0 -1.962000000000e+01 0.0 
0.0 -1.962000000000e+01 0.0 
0.0 -1.962000000000e+01 0.0 
0.0 -1.962000000000e+01 0.0 
0.0 -1.962000000000e+01 0.0 
0.0 -1.962000000000e+01 0.0 
0.0 -1.962000000000e+01 0.0 
0.0 -1.962000000000e+01 0.0 
0.0 -1.962000000000e+01 0.0 
0.0 -1.962000000000e+01 0.0 
0.0 -1.962000000000e+01 0.0 
0.0 -1.962000000000e+01 0.0 
0.0 -1.962000000000e+01 0.0 
0.0 -1.962000000000e+01 0.0 
0.0 -1.962000000000e+01 0.0 
0.0 -1.962000000000e+01 0.0 
0.0 -1.962000000000e+01 0.0 
0.0 -1.962000000000e+01 0.0 
0.0 -1.962000000000e+01 0.0 
0.0 -1.962000000000e+01 0.0 
0.0 -1.962000000000e+01 0.0 
0.0 -1.962000000000e+01 0.0 
0.0 -1.962000000000e+01 0.0 
0.0 -1.962000000000e+01 0.0 
0.0 -1.962000000000e+01 0.0 
0.0 -1.962000000000e+01 0.0 
0.0 -1.962000000000e+01 0.0 
0.0 -1.962000000000e+01 0.0 
0.0 -1.962000000000e+01 0.0 
0.0 -1.962000000000e+01 0.0 
0.0 -1.962000000000e+01 0.0 
0.0 -1.962000000000e+01 0.0 
0.0 -1.962000000000e+01 0.0 
0.0 -1.962000000000e+01 0.0 
0.0 -1.962000000000e+01 0.0 
0.0 -1.962000000000e+01 0.0 
0.0 -1.962000000000e+01 0.0 
0.0 -1.962000000000e+01 0.0 
0.0 -1.962000000000e+01 0.0 
0.0 -1.962000000000e+01 0.0 
0.0 -1.962000000000e+01 0.0 
0.0 -1.962000000000e+01 0.0 
0.0 -1.962000000000e+01 0.0 
0.0 -1.962000000000e+01 0.0 
0.0 -1.962000000000e+01 0.0 
0.0 -1.962000000000e+01 0.0 
0.0 -1.962000000000e+01 0.0 
0.0 -1.962000000000e+01 0.0 
0.0 -1.962000000000e+01 0.0 
0.0 -1.962000000000e+01 0.0 
0.0 -1.962000000000e+01 0.0 
0.0 -1.962000000000e+01 0.0 
0.0 -1.962000000000e+01 0.0 
0.0 -1.962000000000e+01 0.0 
0.0 -1.962000000000e+01 0.0 
0.0 -1.962000000000e+01 0.0 
0.0 -1.962000000000e+01 0.0 
0.0 -1.962000000000e+01 0.0 
0.0 -1.962000000000e+01 0.0 
0.0 -1.962000000000e+01 0.0 
0.0 -1.962000000000e+01 0.0 
0.0 -1.962000000000e+01 0.0 
0.0 -1.962000000000e+01 0.0 
0.0 -1.962000000000e+01 0.0 
0.0 -1.962000000000e+01 0.0 
0.0 -1.962000000000e+01 0.0 
0.0 -1.962000000000e+01 0.0 
0.0 -1.962000000000e+01 0.0 
0.0 -1.962000000000e+01 0.0 
0.0 -1.962000000000e+01 0.0 
0.0 -1.962000000000e+01 0.0 
0.0 -1.962000000000e+01 0.0 
0.0 -1.962000000000e+01 0.0 
0.0 -1.962000000000e+01 0.0 
0.0 -1.962000000000e+01 0.0 
0.0 -1.962000000000e+01 0.0 
0.0 -1.962000000000e+01 0.0 
0.0 -1.962000000000e+01 0.0 
0.0 -1.962000000000e+01 0.0 
0.0 -1.962000000000e+01 0.0 
0.0 -1.962000000000e+01 0.0 
0.0 -1.962000000000e+01 0.0 
0.0 -1.962000000000e+01 0.0 
0.0 -1.962000000000e+01 0.0 
0.0 -1.962000000000e+01 0.0 
0.0 -1.962000000000e+01 0.0 
0.0 -1.962000000000e+01 0.0 
0.0 -1.962000000000e+01 0.0 
0.0 -1.962000000000e+01 0.0 
0.0 -1.962000000000e+01 0.0 
0.0 -1.962000000000e+01 0.0 
0.0 -1.962000000000e+01 0.0 
0.0 -1.962000000000e+01 0.0 
0.0 -1.962000000000e+01 0.0 
0.0 -1.962000000000e+01 0.0 
0.0 -1.962000000000e+01 0.0 
0.0 -1.962000000000e+01 0.0 
0.0 -1.962000000000e+01 0.0 
0.0 -1.962000000000e+01 0.0 
0.0 -1.962000000000e+01 0.0 
0.0 -1.962000000000e+01 0.0 
0.0 -1.962000000000e+01 0.0 
0.0 -1.962000000000e+01 0.0 
0.0 -1.962000000000e+01 0.0 
0.0 -1.962000000000e+01 0.0 
0.0 -1.962000000000e+01 0.0 
0.0 -1.962000000000e+01 0.0 
0.0 -1.962000000000e+01 0.0 
0.0 -1.962000000000e+01 0.0 
0.0 -1.962000000000e+01 0.0 
0.0 -1.962000000000e+01 0.0 
0.0 -1.962000000000e+01 0.0 
0.0 -1.962000000000e+01 0.0 
0.0 -1.962000000000e+01 0.0 
0.0 -1.962000000000e+01 0.0 
0.0 -1.962000000000e+01 0.0 
0.0 -1.962000000000e+01 0.0 
0.0 -1.962000000000e+01 0.0 
0.0 -1.962000000000e+01 0.0 
0.0 -1.962000000000e+01 0.0 
0.0 -1.962000000000e+01 0.0 
0.0 -1.962000000000e+01 0.0 
0.0 -1.962000000000e+01 0.0 
0.0 -1.962000000000e+01 0.0 
0.0 -1.962000000000e+01 0.0 
0.0 -1.962000000000e+01 0.0 
0.0 -1.962000000000e+01 0.0 
0.0 -1.962000000000e+01 0.0 
0.0 -1.962000000000e+01 0.0 
0.0 -1.962000000000e+01 0.0 
0.0 -1.962000000000e+01 0.0 
0.0 -1.962000000000e+01 0.0 
0.0 -1.962000000000e+01 0.0 
0.0 -1.962000000000e+01 0.0 
0.0 -1.962000000000e+01 0.0 
0.0 -1.962000000000e+01 0.0 
0.0 -1.962000000000e+01 0.0 
0.0 -1.962000000000e+01 0.0 
0.0 -1.962000000000e+01 0.0 
0.0 -1.962000000000e+01 0.0 
0.0 -1.962000000000e+01 0.0 
0.0 -1.962000000000e+01 0.0 
0.0 -1.962000000000e+01 0.0 
0.0 -1.962000000000e+01 0.0 
0.0 -1.962000000000e+01 0.0 
0.0 -1.962000000000e+01 0.0 
0.0 -1.962000000000e+01 0.0 
0.0 -1.962000000000e+01 0.0 
0.0 -1.962000000000e+01 0.0 
0.0 -1.962000000000e+01 0.0 
0.0 -1.962000000000e+01 0.0 
0.0 -1.962000000000e+01 0.0 
0.0 -1.962000000000e+01 0.0 
0.0 -1.962000000000e+01 0.0 
0.0 -1.962000000000e+01 0.0 
0.0 -1.962000000000e+01 0.0 
0.0 -1.962000000000e+01 0.0 
0.0 -1.962000000000e+01 0.0 
0.0 -1.962000000000e+01 0.0 
0.0 -1.962000000000e+01 0.0 
0.0 -1.962000000000e+01 0.0 
0.0 -1.962000000000e+01 0.0 
0.0 -1.962000000000e+01 0.0 
0.0 -1.962000000000e+01 0.0 
0.0 -1.962000000000e+01 0.0 
0.0 -1.962000000000e+01 0.0 
0.0 -1.962000000000e+01 0.0 
0.0 -1.962000000000e+01 0.0 
0.0 -1.962000000000e+01 0.0 
0.0 -1.962000000000e+01 0.0 
0.0 -1.962000000000e+01 0.0 
0.0 -1.962000000000e+01 0.0 
0.0 -1.962000000000e+01 0.0 
0.0 -1.962000000000e+01 0.0 
0.0 -1.962000000000e+01 0.0 
0.0 -1.962000000000e+01 0.0 
0.0 -1.962000000000e+01 0.0 
0.0 -1.962000000000e+01 0.0 
0.0 -1.962000000000e+01 0.0 
0.0 -1.962000000000e+01 0.0 
0.0 -1.962000000000e+01 0.0 
0.0 -1.962000000000e+01 0.0 
0.0 -1.962000000000e+01 0.0 
0.0 -1.962000000000e+01 0.0 
0.0 -1.962000000000e+01 0.0 
0.0 -1.962000000000e+01 0.0 
0.0 -1.962000000000e+01 0.0 
0.0 -1.962000000000e+01 0.0 
0.0 -1.962000000000e+01 0.0 
0.0 -1.962000000000e+01 0.0 
0.0 -1.962000000000e+01 0.0 
0.0 -1.962000000000e+01 0.0 
0.0 -1.962000000000e+01 0.0 
0.0 -1.962000000000e+01 0.0 
0.0 -1.962000000000e+01 0.0 
0.0 -1.962000000000e+01 0.0 
0.0 -1.962000000000e+01 0.0 
0.0 -1.962000000000e+01 0.0 
0.0 -1.962000000000e+01 0.0 
0.0 -1.962000000000e+01 0.0 
0.0 -1.962000000000e+01 0.0 
0.0 -1.962000000000e+01 0.0 
0.0 -1.962000000000e+01 0.0 
0.0 -1.962000000000e+01 0.0 
0.0 -1.962000000000e+01 0.0 
0.0 -1.962000000000e+01 0.0 
0.0 -1.962000000000e+01 0.0 
0.0 -1.962000000000e+01 0.0 
0.0 -1.962000000000e+01 0.0 
0.0 -1.962000000000e+01 0.0 
0.0 -1.962000000000e+01 0.0 
0.0 -1.962000000000e+01 0.0 
0.0 -1.962000000000e+01 0.0 
0.0 -1.962000000000e+01 0.0 
0.0 -1.962000000000e+01 0.0 
0.0 -1.962000000000e+01 0.0 
0.0 -1.962000000000e+01 0.0 
0.0 -1.962000000000e+01 0.0 
0.0 -1.962000000000e+01 0.0 
0.0 -1.962000000000e+01 0.0 
0.0 -1.962000000000e+01 0.0 
0.0 -1.962000000000e+01 0.0 
0.0 -1.962000000000e+01 0.0 
0.0 -1.962000000000e+01 0.0 
0.0 -1.962000000000e+01 0.0 
0.0 -1.962000000000e+01 0.0 
0.0 -1.962000000000e+01 0.0 
0.0 -1.962000000000e+01 0.0 
0.0 -1.962000000000e+01 0.0 
0.0 -1.962000000000e+01 0.0 
0.0 -1.962000000000e+01 0.0 
0.0 -1.962000000000e+01 0.0 
0.0 -1.962000000000e+01 0.0 
0.0 -1.962000000000e+01 0.0 
0.0 -1.962000000000e+01 0.0 
0.0 -1.962000000000e+01 0.0 
0.0 -1.962000000000e+01 0.0 
0.0 -1.962000000000e+01 0.0 
0.0 -1.962000000000e+01 0.0 
0.0 -1.962000000000e+01 0.0 
0.0 -1.962000000000e+01 0.0 
0.0 -1.962000000000e+01 0.0 
0.0 -1.962000000000e+01 0.0 
0.0 -1.962000000000e+01 0.0 
0.0 -1.962000000000e+01 0.0 
0.0 -1.962000000000e+01 0.0 
0.0 -1.962000000000e+01 0.0 
0.0 -1.962000000000e+01 0.0 
0.0 -1.962000000000e+01 0.0 
0.0 -1.962000000000e+01 0.0 
0.0 -1.962000000000e+01 0.0 
0.0 -1.962000000000e+01 0.0 
0.0 -1.962000000000e+01 0.0 
0.0 -1.962000000000e+01 0.0 
0.0 -1.962000000000e+01 0.0 
0.0 -1.962000000000e+01 0.0 
0.0 -1.962000000000e+01 0.0 
0.0 -1.962000000000e+01 0.0 
0.0 -1.962000000000e+01 0.0 
0.0 -1.962000000000e+01 0.0 
0.0 -1.962000000000e+01 0.0 
0.0 -1.962000000000e+01 0.0 
0.0 -1.962000000000e+01 0.0 
0.0 -1.962000000000e+01 0.0 
0.0 -1.962000000000e+01 0.0 
0.0 -1.962000000000e+01 0.0 
0.0 -1.962000000000e+01 0.0 
0.0 -1.962000000000e+01 0.0 
0.0 -1.962000000000e+01 0.0 
0.0 -1.962000000000e+01 0.0 
0.0 -1.962000000000e+01 0.0 
0.0 -1.962000000000e+01 0.0 
0.0 -1.962000000000e+01 0.0 
0.0 -1.962000000000e+01 0.0 
0.0 -1.962000000000e+01 0.0 
0.0 -1.962000000000e+01 0.0 
0.0 -1.962000000000e+01 0.0 
0.0 -1.962000000000e+01 0.0 
0.0 -1.962000000000e+01 0.0 
0.0 -1.962000000000e+01 0.0 
0.0 -1.962000000000e+01 0.0 
0.0 -1.962000000000e+01 0.0 
0.0 -1.962000000000e+01 0.0 
0.0 -1.962000000000e+01 0.0 
0.0 -1.962000000000e+01 0.0 
0.0 -1.962000000000e+01 0.0 
0.0 -1.962000000000e+01 0.0 
0.0 -1.962000000000e+01 0.0 
0.0 -1.962000000000e+01 0.0 
0.0 -1.962000000000e+01 0.0 
0.0 -1.962000000000e+01 0.0 
0.0 -1.962000000000e+01 0.0 
0.0 -1.962000000000e+01 0.0 
0.0 -1.962000000000e+01 0.0 
0.0 -1.962000000000e+01 0.0 
0.0 -1.962000000000e+01 0.0 
0.0 -1.962000000000e+01 0.0 
0.0 -1.962000000000e+01 0.0 
0.0 -1.962000000000e+01 0.0 
0.0 -1.962000000000e+01 0.0 
0.0 -1.962000000000e+01 0.0 
0.0 -1.962000000000e+01 0.0 
0.0 -1.962000000000e+01 0.0 
0.0 -1.962000000000e+01 0.0 
0.0 -1.962000000000e+01 0.0 
0.0 -1.962000000000e+01 0.0 
0.0 -1.962000000000e+01 0.0 
0.0 -1.962000000000e+01 0.0 
0.0 -1.962000000000e+01 0.0 
0.0 -1.962000000000e+01 0.0 
0.0 -1.962000000000e+01 0.0 
0.0 -1.962000000000e+01 0.0 
0.0 -1.962000000000e+01 0.0 
0.0 -1.962000000000e+01 0.0 
0.0 -1.962000000000e+01 0.0 
0.0 -1.962000000000e+01 0.0 
0.0 -1.962000000000e+01 0.0 
0.0 -1.962000000000e+01 0.0 
0.0 -1.962000000000e+01 0.0 
0.0 -1.962000000000e+01 0.0 
0.0 -1.962000000000e+01 0.0 
0.0 -1.962000000000e+01 0.0 
0.0 -1.962000000000e+01 0.0 
0.0 -1.962000000000e+01 0.0 
0.0 -1.962000000000e+01 0.0 
0.0 -1.962000000000e+01 0.0 
0.0 -1.962000000000e+01 0.0 
0.0 -1.962000000000e+01 0.0 
0.0 -1.962000000000e+01 0.0 
0.0 -1.962000000000e+01 0.0 
0.0 -1.962000000000e+01 0.0 
0.0 -1.962000000000e+01 0.0 
0.0 -1.962000000000e+01 0.0 
0.0 -1.962000000000e+01 0.0 
0.0 -1.962000000000e+01 0.0 
0.0 -1.962000000000e+01 0.0 
0.0 -1.962000000000e+01 0.0 
0.0 -1.962000000000e+01 0.0 
0.0 -1.962000000000e+01 0.0 
0.0 -1.962000000000e+01 0.0 
0.0 -1.962000000000e+01 0.0 
0.0 -1.962000000000e+01 0.0 
0.0 -1.962000000000e+01 0.0 
0.0 -1.962000000000e+01 0.0 
0.0 -1.962000000000e+01 0.0 
0.0 -1.962000000000e+01 0.0 
0.0 -1.962000000000e+01 0.0 
0.0 -1.962000000000e+01 0.0 
0.0 -1.962000000000e+01 0.0 
0.0 -1.962000000000e+01 0.0 
0.0 -1.962000000000e+01 0.0 
0.0 -1.962000000000e+01 0.0 
0.0 -1.962000000000e+01 0.0 
0.0 -1.962000000000e+01 0.0 
0.0 -1.962000000000e+01 0.0 
0.0 -1.962000000000e+01 0.0 
0.0 -1.962000000000e+01 0.0 
0.0 -1.962000000000e+01 0.0 
0.0 -1.962000000000e+01 0.0 
0.0 -1.962000000000e+01 0.0 
0.0 -1.962000000000e+01 0.0 
0.0 -1.962000000000e+01 0.0 
0.0 -1.962000000000e+01 0.0 
0.0 -1.962000000000e+01 0.0 
0.0 -1.962000000000e+01 0.0 
0.0 -1.962000000000e+01 0.0 
0.0 -1.962000000000e+01 0.0 
0.0 -1.962000000000e+01 0.0 
0.0 -1.962000000000e+01 0.0 
0.0 -1.962000000000e+01 0.0 
0.0 -1.962000000000e+01 0.0 
0.0 -1.962000000000e+01 0.0 
0.0 -1.962000000000e+01 0.0 
0.0 -1.962000000000e+01 0.0 
0.0 -1.962000000000e+01 0.0 
0.0 -1.962000000000e+01 0.0 
0.0 -1.962000000000e+01 0.0 
0.0 -1.962000000000e+01 0.0 
0.0 -1.962000000000e+01 0.0 
0.0 -1.962000000000e+01 0.0 
0.0 -1.962000000000e+01 0.0 
0.0 -1.962000000000e+01 0.0 
0.0 -1.962000000000e+01 0.0 
0.0 -1.962000000000e+01 0.0 
0.0 -1.962000000000e+01 0.0 
0.0 -1.962000000000e+01 0.0 
0.0 -1.962000000000e+01 0.0 
0.0 -1.962000000000e+01 0.0 
0.0 -1.962000000000e+01 0.0 
0.0 -1.962000000000e+01 0.0 
0.0 -1.962000000000e+01 0.0 
0.0 -1.962000000000e+01 0.0 
0.0 -1.962000000000e+01 0.0 
0.0 -1.962000000000e+01 0.0 
0.0 -1.962000000000e+01 0.0 
0.0 -1.962000000000e+01 0.0 
0.0 -1.962000000000e+01 0.0 
0.0 -1.962000000000e+01 0.0 
0.0 -1.962000000000e+01 0.0 
0.0 -1.962000000000e+01 0.0 
0.0 -1.962000000000e+01 0.0 
0.0 -1.962000000000e+01 0.0 
0.0 -1.962000000000e+01 0.0 
0.0 -1.962000000000e+01 0.0 
0.0 -1.962000000000e+01 0.0 
0.0 -1.962000000000e+01 0.0 
0.0 -1.962000000000e+01 0.0 
0.0 -1.962000000000e+01 0.0 
0.0 -1.962000000000e+01 0.0 
0.0 -1.962000000000e+01 0.0 
0.0 -1.962000000000e+01 0.0 
0.0 -1.962000000000e+01 0.0 
0.0 -1.962000000000e+01 0.0 
0.0 -1.962000000000e+01 0.0 
0.0 -1.962000000000e+01 0.0 
0.0 -1.962000000000e+01 0.0 
0.0 -1.962000000000e+01 0.0 
0.0 -1.962000000000e+01 0.0 
0.0 -1.962000000000e+01 0.0 
0.0 -1.962000000000e+01 0.0 
0.0 -1.962000000000e+01 0.0 
0.0 -1.962000000000e+01 0.0 
0.0 -1.962000000000e+01 0.0 
0.0 -1.962000000000e+01 0.0 
0.0 -1.962000000000e+01 0.0 
0.0 -1.962000000000e+01 0.0 
0.0 -1.962000000000e+01 0.0 
0.0 -1.962000000000e+01 0.0 
0.0 -1.962000000000e+01 0.0 
0.0 -1.962000000000e+01 0.0 
0.0 -1.962000000000e+01 0.0 
0.0 -1.962000000000e+01 0.0 
0.0 -1.962000000000e+01 0.0 
0.0 -1.962000000000e+01 0.0 
0.0 -1.962000000000e+01 0.0 
0.0 -1.962000000000e+01 0.0 
0.0 -1.962000000000e+01 0.0 
0.0 -1.962000000000e+01 0.0 
0.0 -1.962000000000e+01 0.0 
0.0 -1.962000000000e+01 0.0 
0.0 -1.962000000000e+01 0.0 
0.0 -1.962000000000e+01 0.0 
0.0 -1.962000000000e+01 0.0 
0.0 -1.962000000000e+01 0.0 
0.0 -1.962000000000e+01 0.0 
0.0 -1.962000000000e+01 0.0 
0.0 -1.962000000000e+01 0.0 
0.0 -1.962000000000e+01 0.0 
0.0 -1.962000000000e+01 0.0 
0.0 -1.962000000000e+01 0.0 
0.0 -1.962000000000e+01 0.0 
0.0 -1.962000000000e+01 0.0 
0.0 -1.962000000000e+01 0.0 
0.0 -1.962000000000e+01 0.0 
0.0 -1.962000000000e+01 0.0 
0.0 -1.962000000000e+01 0.0 
0.0 -1.962000000000e+01 0.0 
0.0 -1.962000000000e+01 0.0 
0.0 -1.962000000000e+01 0.0 
0.0 -1.962000000000e+01 0.0 
0.0 -1.962000000000e+01 0.0 
0.0 -1.962000000000e+01 0.0 
0.0 -1.962000000000e+01 0.0 
0.0 -1.962000000000e+01 0.0 
0.0 -1.962000000000e+01 0.0 
0.0 -1.962000000000e+01 0.0 
0.0 -1.962000000000e+01 0.0 
0.0 -1.962000000000e+01 0.0 
0.0 -1.962000000000e+01 0.0 
0.0 -1.962000000000e+01 0.0 
0.0 -1.962000000000e+01 0.0 
0.0 -1.962000000000e+01 0.0 
0.0 -1.962000000000e+01 0.0 
0.0 -1.962000000000e+01 0.0 
0.0 -1.962000000000e+01 0.0 
0.0 -1.962000000000e+01 0.0 
0.0 -1.962000000000e+01 0.0 
0.0 -1.962000000000e+01 0.0 
0.0 -1.962000000000e+01 0.0 
0.0 -1.962000000000e+01 0.0 
0.0 -1.962000000000e+01 0.0 
0.0 -1.962000000000e+01 0.0 
0.0 -1.962000000000e+01 0.0 
0.0 -1.962000000000e+01 0.0 
0.0 -1.962000000000e+01 0.0 
0.0 -1.962000000000e+01 0.0 
0.0 -1.962000000000e+01 0.0 
0.0 -1.962000000000e+01 0.0 
0.0 -1.962000000000e+01 0.0 
0.0 -1.962000000000e+01 0.0 
0.0 -1.962000000000e+01 0.0 
0.0 -1.962000000000e+01 0.0 
0.0 -1.962000000000e+01 0.0 
0.0 -1.962000000000e+01 0.0 
0.0 -1.962000000000e+01 0.0 
0.0 -1.962000000000e+01 0.0 
0.0 -1.962000000000e+01 0.0 
0.0 -1.962000000000e+01 0.0 
0.0 -1.962000000000e+01 0.0 
0.0 -1.962000000000e+01 0.0 
0.0 -1.962000000000e+01 0.0 
0.0 -1.962000000000e+01 0.0 
0.0 -1.962000000000e+01 0.0 
0.0 -1.962000000000e+01 0.0 
0.0 -1.962000000000e+01 0.0 
0.0 -1.962000000000e+01 0.0 
0.0 -1.962000000000e+01 0.0 
0.0 -1.962000000000e+01 0.0 
0.0 -1.962000000000e+01 0.0 
0.0 -1.962000000000e+01 0.0 
0.0 -1.962000000000e+01 0.0 
0.0 -1.962000000000e+01 0.0 
0.0 -1.962000000000e+01 0.0 
0.0 -1.962000000000e+01 0.0 
0.0 -1.962000000000e+01 0.0 
0.0 -1.962000000000e+01 0.0 
0.0 -1.962000000000e+01 0.0 
0.0 -1.962000000000e+01 0.0 
0.0 -1.962000000000e+01 0.0 
0.0 -1.962000000000e+01 0.0 
0.0 -1.962000000000e+01 0.0 
0.0 -1.962000000000e+01 0.0 
0.0 -1.962000000000e+01 0.0 
0.0 -1.962000000000e+01 0.0 
0.0 -1.962000000000e+01 0.0 
0.0 -1.962000000000e+01 0.0 
0.0 -1.962000000000e+01 0.0 
0.0 -1.962000000000e+01 0.0 
0.0 -1.962000000000e+01 0.0 
0.0 -1.962000000000e+01 0.0 
0.0 -1.962000000000e+01 0.0 
0.0 -1.962000000000e+01 0.0 
0.0 -1.962000000000e+01 0.0 
0.0 -1.962000000000e+01 0.0 
0.0 -1.962000000000e+01 0.0 
0.0 -1.962000000000e+01 0.0 
0.0 -1.962000000000e+01 0.0 
0.0 -1.962000000000e+01 0.0 
0.0 -1.962000000000e+01 0.0 
0.0 -1.962000000000e+01 0.0 
0.0 -1.962000000000e+01 0.0 
0.0 -1.962000000000e+01 0.0 
0.0 -1.962000000000e+01 0.0 
0.0 -1.962000000000e+01 0.0 
0.0 -1.962000000000e+01 0.0 
0.0 -1.962000000000e+01 0.0 
0.0 -1.962000000000e+01 0.0 
0.0 -1.962000000000e+01 0.0 
0.0 -1.962000000000e+01 0.0 
0.0 -1.962000000000e+01 0.0 
0.0 -1.962000000000e+01 0.0 
0.0 -1.962000000000e+01 0.0 
0.0 -1.962000000000e+01 0.0 
0.0 -1.962000000000e+01 0.0 
0.0 -1.962000000000e+01 0.0 
0.0 -1.962000000000e+01 0.0 
0.0 -1.962000000000e+01 0.0 
0.0 -1.962000000000e+01 0.0 
0.0 -1.962000000000e+01 0.0 
0.0 -1.962000000000e+01 0.0 
0.0 -1.962000000000e+01 0.0 
0.0 -1.962000000000e+01 0.0 
0.0 -1.962000000000e+01 0.0 
0.0 -1.962000000000e+01 0.0 
0.0 -1.962000000000e+01 0.0 
0.0 -1.962000000000e+01 0.0 
0.0 -1.962000000000e+01 0.0 
0.0 -1.962000000000e+01 0.0 
0.0 -1.962000000000e+01 0.0 
0.0 -1.962000000000e+01 0.0 
0.0 -1.962000000000e+01 0.0 
0.0 -1.962000000000e+01 0.0 
0.0 -1.962000000000e+01 0.0 
0.0 -1.962000000000e+01 0.0 
0.0 -1.962000000000e+01 0.0 
0.0 -1.962000000000e+01 0.0 
0.0 -1.962000000000e+01 0.0 
0.0 -1.962000000000e+01 0.0 
0.0 -1.962000000000e+01 0.0 
0.0 -1.962000000000e+01 0.0 
0.0 -1.962000000000e+01 0.0 
0.0 -1.962000000000e+01 0.0 
0.0 -1.962000000000e+01 0.0 
0.0 -1.962000000000e+01 0.0 
0.0 -1.962000000000e+01 0.0 
0.0 -1.962000000000e+01 0.0 
0.0 -1.962000000000e+01 0.0 
0.0 -1.962000000000e+01 0.0 
0.0 -1.962000000000e+01 0.0 
0.0 -1.962000000000e+01 0.0 
0.0 -1.962000000000e+01 0.0 
0.0 -1.962000000000e+01 0.0 
0.0 -1.962000000000e+01 0.0 
0.0 -1.962000000000e+01 0.0 
0.0 -1.962000000000e+01 0.0 
0.0 -1.962000000000e+01 0.0 
0.0 -1.962000000000e+01 0.0 
0.0 -1.962000000000e+01 0.0 
0.0 -1.962000000000e+01 0.0 
0.0 -1.962000000000e+01 0.0 
0.0 -1.962000000000e+01 0.0 
0.0 -1.962000000000e+01 0.0 
0.0 -1.962000000000e+01 0.0 
0.0 -1.962000000000e+01 0.0 
0.0 -1.962000000000e+01 0.0 
0.0 -1.962000000000e+01 0.0 
0.0 -1.962000000000e+01 0.0 
0.0 -1.962000000000e+01 0.0 
0.0 -1.962000000000e+01 0.0 
0.0 -1.962000000000e+01 0.0 
0.0 -1.962000000000e+01 0.0 
0.0 -1.962000000000e+01 0.0 
0.0 -1.962000000000e+01 0.0 
0.0 -1.962000000000e+01 0.0 
0.0 -1.962000000000e+01 0.0 
0.0 -1.962000000000e+01 0.0 
0.0 -1.962000000000e+01 0.0 
0.0 -1.962000000000e+01 0.0 
0.0 -1.962000000000e+01 0.0 
0.0 -1.962000000000e+01 0.0 
0.0 -1.962000000000e+01 0.0 
0.0 -1.962000000000e+01 0.0 
0.0 -1.962000000000e+01 0.0 
0.0 -1.962000000000e+01 0.0 
0.0 -1.962000000000e+01 0.0 
0.0 -1.962000000000e+01 0.0 
0.0 -1.962000000000e+01 0.0 
0.0 -1.962000000000e+01 0.0 
0.0 -1.962000000000e+01 0.0 
0.0 -1.962000000000e+01 0.0 
0.0 -1.962000000000e+01 0.0 
0.0 -1.962000000000e+01 0.0 
0.0 -1.962000000000e+01 0.0 
0.0 -1.962000000000e+01 0.0 
0.0 -1.962000000000e+01 0.0 
0.0 -1.962000000000e+01 0.0 
0.0 -1.962000000000e+01 0.0 
0.0 -1.962000000000e+01 0.0 
0.0 -1.962000000000e+01 0.0 
0.0 -1.962000000000e+01 0.0 
0.0 -1.962000000000e+01 0.0 
0.0 -1.962000000000e+01 0.0 
0.0 -1.962000000000e+01 0.0 
0.0 -1.962000000000e+01 0.0 
0.0 -1.962000000000e+01 0.0 
0.0 -1.962000000000e+01 0.0 
0.0 -1.962000000000e+01 0.0 
0.0 -1.962000000000e+01 0.0 
0.0 -1.962000000000e+01 0.0 
0.0 -1.962000000000e+01 0.0 
0.0 -1.962000000000e+01 0.0 
0.0 -1.962000000000e+01 0.0 
0.0 -1.962000000000e+01 0.0 
0.0 -1.962000000000e+01 0.0 
0.0 -1.962000000000e+01 0.0 
0.0 -1.962000000000e+01 0.0 
0.0 -1.962000000000e+01 0.0 
0.0 -1.962000000000e+01 0.0 
0.0 -1.962000000000e+01 0.0 
0.0 -1.962000000000e+01 0.0 
0.0 -1.962000000000e+01 0.0 
0.0 -1.962000000000e+01 0.0 
0.0 -1.962000000000e+01 0.0 
0.0 -1.962000000000e+01 0.0 
0.0 -1.962000000000e+01 0.0 
0.0 -1.962000000000e+01 0.0 
0.0 -1.962000000000e+01 0.0 
0.0 -1.962000000000e+01 0.0 
0.0 -1.962000000000e+01 0.0 
0.0 -1.962000000000e+01 0.0 
0.0 -1.962000000000e+01 0.0 
0.0 -1.962000000000e+01 0.0 
0.0 -1.962000000000e+01 0.0 
0.0 -1.962000000000e+01 0.0 
0.0 -1.962000000000e+01 0.0 
0.0 -1.962000000000e+01 0.0 
0.0 -1.962000000000e+01 0.0 
0.0 -1.962000000000e+01 0.0 
0.0 -1.962000000000e+01 0.0 
0.0 -1.962000000000e+01 0.0 
0.0 -1.962000000000e+01 0.0 
0.0 -1.962000000000e+01 0.0 
0.0 -1.962000000000e+01 0.0 
0.0 -1.962000000000e+01 0.0 
0.0 -1.962000000000e+01 0.0 
0.0 -1.962000000000e+01 0.0 
0.0 -1.962000000000e+01 0.0 
0.0 -1.962000000000e+01 0.0 
0.0 -1.962000000000e+01 0.0 
0.0 -1.962000000000e+01 0.0 
0.0 -1.962000000000e+01 0.0 
0.0 -1.962000000000e+01 0.0 
0.0 -1.962000000000e+01 0.0 
0.0 -1.962000000000e+01 0.0 
0.0 -1.962000000000e+01 0.0 
0.0 -1.962000000000e+01 0.0 
0.0 -1.962000000000e+01 0.0 
0.0 -1.962000000000e+01 0.0 
0.0 -1.962000000000e+01 0.0 
0.0 -1.962000000000e+01 0.0 
0.0 -1.962000000000e+01 0.0 
0.0 -1.962000000000e+01 0.0 
0.0 -1.962000000000e+01 0.0 
0.0 -1.962000000000e+01 0.0 
0.0 -1.962000000000e+01 0.0 
0.0 -1.962000000000e+01 0.0 
0.0 -1.962000000000e+01 0.0 
0.0 -1.962000000000e+01 0.0 
0.0 -1.962000000000e+01 0.0 
0.0 -1.962000000000e+01 0.0 
0.0 -1.962000000000e+01 0.0 
0.0 -1.962000000000e+01 0.0 
0.0 -1.962000000000e+01 0.0 
0.0 -1.962000000000e+01 0.0 
0.0 -1.962000000000e+01 0.0 
0.0 -1.962000000000e+01 0.0 
0.0 -1.962000000000e+01 0.0 
0.0 -1.962000000000e+01 0.0 
0.0 -1.962000000000e+01 0.0 
0.0 -1.962000000000e+01 0.0 
0.0 -1.962000000000e+01 0.0 
0.0 -1.962000000000e+01 0.0 
0.0 -1.962000000000e+01 0.0 
0.0 -1.962000000000e+01 0.0 
0.0 -1.962000000000e+01 0.0 
0.0 -1.962000000000e+01 0.0 
0.0 -1.962000000000e+01 0.0 
0.0 -1.962000000000e+01 0.0 
0.0 -1.962000000000e+01 0.0 
0.0 -1.962000000000e+01 0.0 
0.0 -1.962000000000e+01 0.0 
0.0 -1.962000000000e+01 0.0 
0.0 -1.962000000000e+01 0.0 
0.0 -1.962000000000e+01 0.0 
0.0 -1.962000000000e+01 0.0 
0.0 -1.962000000000e+01 0.0 
0.0 -1.962000000000e+01 0.0 
0.0 -1.962000000000e+01 0.0 
0.0 -1.962000000000e+01 0.0 
0.0 -1.962000000000e+01 0.0 
0.0 -1.962000000000e+01 0.0 
0.0 -1.962000000000e+01 0.0 
0.0 -1.962000000000e+01 0.0 
0.0 -1.962000000000e+01 0.0 
0.0 -1.962000000000e+01 0.0 
0.0 -1.962000000000e+01 0.0 
0.0 -1.962000000000e+01 0.0 
0.0 -1.962000000000e+01 0.0 
0.0 -1.962000000000e+01 0.0 
0.0 -1.962000000000e+01 0.0 
0.0 -1.962000000000e+01 0.0 
0.0 -1.962000000000e+01 0.0 
0.0 -1.962000000000e+01 0.0 
0.0 -1.962000000000e+01 0.0 
0.0 -1.962000000000e+01 0.0 
0.0 -1.962000000000e+01 0.0 
0.0 -1.962000000000e+01 0.0 
0.0 -1.962000000000e+01 0.0 
0.0 -1.962000000000e+01 0.0 
0.0 -1.962000000000e+01 0.0 
0.0 -1.962000000000e+01 0.0 
0.0 -1.962000000000e+01 0.0 
0.0 -1.962000000000e+01 0.0 
0.0 -1.962000000000e+01 0.0 
0.0 -1.962000000000e+01 0.0 
0.0 -1.962000000000e+01 0.0 
0.0 -1.962000000000e+01 0.0 
0.0 -1.962000000000e+01 0.0 
0.0 -1.962000000000e+01 0.0 
0.0 -1.962000000000e+01 0.0 
0.0 -1.962000000000e+01 0.0 
0.0 -1.962000000000e+01 0.0 
0.0 -1.962000000000e+01 0.0 
0.0 -1.962000000000e+01 0.0 
0.0 -1.962000000000e+01 0.0 
0.0 -1.962000000000e+01 0.0 
0.0 -1.962000000000e+01 0.0 
0.0 -1.962000000000e+01 0.0 
0.0 -1.962000000000e+01 0.0 
0.0 -1.962000000000e+01 0.0 
0.0 -1.962000000000e+01 0.0 
0.0 -1.962000000000e+01 0.0 
0.0 -1.962000000000e+01 0.0 
0.0 -1.962000000000e+01 0.0 
0.0 -1.962000000000e+01 0.0 
0.0 -1.962000000000e+01 0.0 
0.0 -1.962000000000e+01 0.0 
0.0 -1.962000000000e+01 0.0 
0.0 -1.962000000000e+01 0.0 
0.0 -1.962000000000e+01 0.0 
0.0 -1.962000000000e+01 0.0 
0.0 -1.962000000000e+01 0.0 
0.0 -1.962000000000e+01 0.0 
0.0 -1.962000000000e+01 0.0 
0.0 -1.962000000000e+01 0.0 
0.0 -1.962000000000e+01 0.0 
0.0 -1.962000000000e+01 0.0 
0.0 -1.962000000000e+01 0.0 
0.0 -1.962000000000e+01 0.0 
0.0 -1.962000000000e+01 0.0 
0.0 -1.962000000000e+01 0.0 
0.0 -1.962000000000e+01 0.0 
0.0 -1.962000000000e+01 0.0 
0.0 -1.962000000000e+01 0.0 
0.0 -1.962000000000e+01 0.0 
0.0 -1.962000000000e+01 0.0 
0.0 -1.962000000000e+01 0.0 
0.0 -1.962000000000e+01 0.0 
0.0 -1.962000000000e+01 0.0 
0.0 -1.962000000000e+01 0.0 
0.0 -1.962000000000e+01 0.0 
0.0 -1.962000000000e+01 0.0 
0.0 -1.962000000000e+01 0.0 
0.0 -1.962000000000e+01 0.0 
0.0 -1.962000000000e+01 0.0 
0.0 -1.962000000000e+01 0.0 
0.0 -1.962000000000e+01 0.0 
0.0 -1.962000000000e+01 0.0 
0.0 -1.962000000000e+01 0.0 
0.0 -1.962000000000e+01 0.0 
0.0 -1.962000000000e+01 0.0 
0.0 -1.962000000000e+01 0.0 
0.0 -1.962000000000e+01 0.0 
0.0 -1.962000000000e+01 0.0 
0.0 -1.962000000000e+01 0.0 
0.0 -1.962000000000e+01 0.0 
0.0 -1.962000000000e+01 0.0 
0.0 -1.962000000000e+01 0.0 
0.0 -1.962000000000e+01 0.0 
0.0 -1.962000000000e+01 0.0 
0.0 -1.962000000000e+01 0.0 
0.0 -1.962000000000e+01 0.0 
0.0 -1.962000000000e+01 0.0 
0.0 -1.962000000000e+01 0.0 
0.0 -1.962000000000e+01 0.0 
0.0 -1.962000000000e+01 0.0 
0.0 -1.962000000000e+01 0.0 
0.0 -1.962000000000e+01 0.0 
0.0 -1.962000000000e+01 0.0 
0.0 -1.962000000000e+01 0.0 
0.0 -1.962000000000e+01 0.0 
0.0 -1.962000000000e+01 0.0 
0.0 -1.962000000000e+01 0.0 
0.0 -1.962000000000e+01 0.0 
0.0 -1.962000000000e+01 0.0 
0.0 -1.962000000000e+01 0.0 
0.0 -1.962000000000e+01 0.0 
0.0 -1.962000000000e+01 0.0 
0.0 -1.962000000000e+01 0.0 
0.0 -1.962000000000e+01 0.0 
0.0 -1.962000000000e+01 0.0 
0.0 -1.962000000000e+01 0.0 
0.0 -1.962000000000e+01 0.0 
0.0 -1.962000000000e+01 0.0 
0.0 -1.962000000000e+01 0.0 
0.0 -1.962000000000e+01 0.0 
0.0 -1.962000000000e+01 0.0 
0.0 -1.962000000000e+01 0.0 
0.0 -1.962000000000e+01 0.0 
0.0 -1.962000000000e+01 0.0 
0.0 -1.962000000000e+01 0.0 
0.0 -1.962000000000e+01 0.0 
0.0 -1.962000000000e+01 0.0 
0.0 -1.962000000000e+01 0.0 
0.0 -1.962000000000e+01 0.0 
0.0 -1.962000000000e+01 0.0 
0.0 -1.962000000000e+01 0.0 
0.0 -1.962000000000e+01 0.0 
0.0 -1.962000000000e+01 0.0 
0.0 -1.962000000000e+01 0.0 
0.0 -1.962000000000e+01 0.0 
0.0 -1.962000000000e+01 0.0 
0.0 -1.962000000000e+01 0.0 
0.0 -1.962000000000e+01 0.0 
0.0 -1.962000000000e+01 0.0 
0.0 -1.962000000000e+01 0.0 
0.0 -1.962000000000e+01 0.0 
0.0 -1.962000000000e+01 0.0 
0.0 -1.962000000000e+01 0.0 
0.0 -1.962000000000e+01 0.0 
0.0 -1.962000000000e+01 0.0 
0.0 -1.962000000000e+01 0.0 
0.0 -1.962000000000e+01 0.0 
0.0 -1.962000000000e+01 0.0 
0.0 -1.962000000000e+01 0.0 
0.0 -1.962000000000e+01 0.0 
0.0 -1.962000000000e+01 0.0 
0.0 -1.962000000000e+01 0.0 
0.0 -1.962000000000e+01 0.0 
0.0 -1.962000000000e+01 0.0 
0.0 -1.962000000000e+01 0.0 
0.0 -1.962000000000e+01 0.0 
0.0 -1.962000000000e+01 0.0 
0.0 -1.962000000000e+01 0.0 
0.0 -1.962000000000e+01 0.0 
0.0 -1.962000000000e+01 0.0 
0.0 -1.962000000000e+01 0.0 
0.0 -1.962000000000e+01 0.0 
0.0 -1.962000000000e+01 0.0 
0.0 -1.962000000000e+01 0.0 
0.0 -1.962000000000e+01 0.0 
0.0 -1.962000000000e+01 0.0 
0.0 -1.962000000000e+01 0.0 
0.0 -1.962000000000e+01 0.0 
0.0 -1.962000000000e+01 0.0 
0.0 -1.962000000000e+01 0.0 
0.0 -1.962000000000e+01 0.0 
0.0 -1.962000000000e+01 0.0 
0.0 -1.962000000000e+01 0.0 
0.0 -1.962000000000e+01 0.0 
0.0 -1.962000000000e+01 0.0 
0.0 -1.962000000000e+01 0.0 
0.0 -1.962000000000e+01 0.0 
0.0 -1.962000000000e+01 0.0 
0.0 -1.962000000000e+01 0.0 
0.0 -1.962000000000e+01 0.0 
0.0 -1.962000000000e+01 0.0 
0.0 -1.962000000000e+01 0.0 
0.0 -1.962000000000e+01 0.0 
0.0 -1.962000000000e+01 0.0 
0.0 -1.962000000000e+01 0.0 
0.0 -1.962000000000e+01 0.0 
0.0 -1.962000000000e+01 0.0 
0.0 -1.962000000000e+01 0.0 
0.0 -1.962000000000e+01 0.0 
0.0 -1.962000000000e+01 0.0 
0.0 -1.962000000000e+01 0.0 
0.0 -1.962000000000e+01 0.0 
0.0 -1.962000000000e+01 0.0 
0.0 -1.962000000000e+01 0.0 
0.0 -1.962000000000e+01 0.0 
0.0 -1.962000000000e+01 0.0 
0.0 -1.962000000000e+01 0.0 
0.0 -1.962000000000e+01 0.0 
0.0 -1.962000000000e+01 0.0 
0.0 -1.962000000000e+01 0.0 
0.0 -1.962000000000e+01 0.0 
0.0 -1.962000000000e+01 0.0 
0.0 -1.962000000000e+01 0.0 
0.0 -1.962000000000e+01 0.0 
0.0 -1.962000000000e+01 0.0 
0.0 -1.962000000000e+01 0.0 
0.0 -1.962000000000e+01 0.0 
0.0 -1.962000000000e+01 0.0 
0.0 -1.962000000000e+01 0.0 
0.0 -1.962000000000e+01 0.0 
0.0 -1.962000000000e+01 0.0 
0.0 -1.962000000000e+01 0.0 
0.0 -1.962000000000e+01 0.0 
0.0 -1.962000000000e+01 0.0 
0.0 -1.962000000000e+01 0.0 
0.0 -1.962000000000e+01 0.0 
0.0 -1.962000000000e+01 0.0 
0.0 -1.962000000000e+01 0.0 
0.0 -1.962000000000e+01 0.0 
0.0 -1.962000000000e+01 0.0 
0.0 -1.962000000000e+01 0.0 
0.0 -1.962000000000e+01 0.0 
0.0 -1.962000000000e+01 0.0 
0.0 -1.962000000000e+01 0.0 
0.0 -1.962000000000e+01 0.0 
0.0 -1.962000000000e+01 0.0 
0.0 -1.962000000000e+01 0.0 
0.0 -1.962000000000e+01 0.0 
0.0 -1.962000000000e+01 0.0 
0.0 -1.962000000000e+01 0.0 
0.0 -1.962000000000e+01 0.0 
0.0 -1.962000000000e+01 0.0 
0.0 -1.962000000000e+01 0.0 
0.0 -1.962000000000e+01 0.0 
0.0 -1.962000000000e+01 0.0 
0.0 -1.962000000000e+01 0.0 
0.0 -1.962000000000e+01 0.0 
0.0 -1.962000000000e+01 0.0 
0.0 -1.962000000000e+01 0.0 
0.0 -1.962000000000e+01 0.0 
0.0 -1.962000000000e+01 0.0 
0.0 -1.962000000000e+01 0.0 
0.0 -1.962000000000e+01 0.0 
0.0 -1.962000000000e+01 0.0 
0.0 -1.962000000000e+01 0.0 
0.0 -1.962000000000e+01 0.0 
0.0 -1.962000000000e+01 0.0 
0.0 -1.962000000000e+01 0.0 
0.0 -1.962000000000e+01 0.0 
0.0 -1.962000000000e+01 0.0 
0.0 -1.962000000000e+01 0.0 
0.0 -1.962000000000e+01 0.0 
0.0 -1.962000000000e+01 0.0 
0.0 -1.962000000000e+01 0.0 
0.0 -1.962000000000e+01 0.0 
0.0 -1.962000000000e+01 0.0 
0.0 -1.962000000000e+01 0.0 
0.0 -1.962000000000e+01 0.0 
0.0 -1.962000000000e+01 0.0 
0.0 -1.962000000000e+01 0.0 
0.0 -1.962000000000e+01 0.0 
0.0 -1.962000000000e+01 0.0 
0.0 -1.962000000000e+01 0.0 
0.0 -1.962000000000e+01 0.0 
0.0 -1.962000000000e+01 0.0 
0.0 -1.962000000000e+01 0.0 
0.0 -1.962000000000e+01 0.0 
0.0 -1.962000000000e+01 0.0 
0.0 -1.962000000000e+01 0.0 
0.0 -1.962000000000e+01 0.0 
0.0 -1.962000000000e+01 0.0 
0.0 -1.962000000000e+01 0.0 
0.0 -1.962000000000e+01 0.0 
0.0 -1.962000000000e+01 0.0 
0.0 -1.962000000000e+01 0.0 
0.0 -1.962000000000e+01 0.0 
0.0 -1.962000000000e+01 0.0 
0.0 -1.962000000000e+01 0.0 
0.0 -1.962000000000e+01 0.0 
0.0 -1.962000000000e+01 0.0 
0.0 -1.962000000000e+01 0.0 
0.0 -1.962000000000e+01 0.0 
0.0 -1.962000000000e+01 0.0 
0.0 -1.962000000000e+01 0.0 
0.0 -1.962000000000e+01 0.0 
0.0 -1.962000000000e+01 0.0 
0.0 -1.962000000000e+01 0.0 
0.0 -1.962000000000e+01 0.0 
0.0 -1.962000000000e+01 0.0 
0.0 -1.962000000000e+01 0.0 
0.0 -1.962000000000e+01 0.0 
0.0 -1.962000000000e+01 0.0 
0.0 -1.962000000000e+01 0.0 
0.0 -1.962000000000e+01 0.0 
0.0 -1.962000000000e+01 0.0 
0.0 -1.962000000000e+01 0.0 
0.0 -1.962000000000e+01 0.0 
0.0 -1.962000000000e+01 0.0 
0.0 -1.962000000000e+01 0.0 
0.0 -1.962000000000e+01 0.0 
0.0 -1.962000000000e+01 0.0 
0.0 -1.962000000000e+01 0.0 
0.0 -1.962000000000e+01 0.0 
0.0 -1.962000000000e+01 0.0 
0.0 -1.962000000000e+01 0.0 
0.0 -1.962000000000e+01 0.0 
0.0 -1.962000000000e+01 0.0 
0.0 -1.962000000000e+01 0.0 
0.0 -1.962000000000e+01 0.0 
0.0 -1.962000000000e+01 0.0 
0.0 -1.962000000000e+01 0.0 
0.0 -1.962000000000e+01 0.0 
0.0 -1.962000000000e+01 0.0 
0.0 -1.962000000000e+01 0.0 
0.0 -1.962000000000e+01 0.0 
0.0 -1.962000000000e+01 0.0 
0.0 -1.962000000000e+01 0.0 
0.0 -1.962000000000e+01 0.0 
0.0 -1.962000000000e+01 0.0 
0.0 -1.962000000000e+01 0.0 
0.0 -1.962000000000e+01 0.0 
0.0 -1.962000000000e+01 0.0 
0.0 -1.962000000000e+01 0.0 
0.0 -1.962000000000e+01 0.0 
0.0 -1.962000000000e+01 0.0 
0.0 -1.962000000000e+01 0.0 
0.0 -1.962000000000e+01 0.0 
0.0 -1.962000000000e+01 0.0 
0.0 -1.962000000000e+01 0.0 
0.0 -1.962000000000e+01 0.0 
0.0 -1.962000000000e+01 0.0 
0.0 -1.962000000000e+01 0.0 
0.0 -1.962000000000e+01 0.0 
0.0 -1.962000000000e+01 0.0 
0.0 -1.962000000000e+01 0.0 
0.0 -1.962000000000e+01 0.0 
0.0 -1.962000000000e+01 0.0 
0.0 -1.962000000000e+01 0.0 
0.0 -1.962000000000e+01 0.0 
0.0 -1.962000000000e+01 0.0 
0.0 -1.962000000000e+01 0.0 
0.0 -1.962000000000e+01 0.0 
0.0 -1.962000000000e+01 0.0 
0.0 -1.962000000000e+01 0.0 
0.0 -1.962000000000e+01 0.0 
0.0 -1.962000000000e+01 0.0 
0.0 -1.962000000000e+01 0.0 
0.0 -1.962000000000e+01 0.0 
0.0 -1.962000000000e+01 0.0 
0.0 -1.962000000000e+01 0.0 
0.0 -1.962000000000e+01 0.0 
0.0 -1.962000000000e+01 0.0 
0.0 -1.962000000000e+01 0.0 
0.0 -1.962000000000e+01 0.0 
0.0 -1.962000000000e+01 0.0 
0.0 -1.962000000000e+01 0.0 
0.0 -1.962000000000e+01 0.0 
0.0 -1.962000000000e+01 0.0 
0.0 -1.962000000000e+01 0.0 
0.0 -1.962000000000e+01 0.0 
0.0 -1.962000000000e+01 0.0 
0.0 -1.962000000000e+01 0.0 
0.0 -1.962000000000e+01 0.0 
0.0 -1.962000000000e+01 0.0 

VECTORS node_rhside_materi_fixed float
-1.581031995854e+00 0.0 0.0 
7.625150041368e+01 0.0 0.0 
-8.205057524348e+01 -1.958863728175e+02 0.0 
7.824000514830e+01 -1.868050473041e+02 0.0 
-7.692848912996e+00 0.0 0.0 
-1.615420403651e+01 0.0 0.0 
-2.328416779422e+01 0.0 0.0 
-3.213199577637e+01 0.0 0.0 
-3.999623109383e+01 0.0 0.0 
-4.813708950243e+01 0.0 0.0 
-5.629153827515e+01 0.0 0.0 
-6.444155162764e+01 0.0 0.0 
-7.260072558988e+01 0.0 0.0 
-8.071442740973e+01 0.0 0.0 
-8.930465224103e+01 0.0 0.0 
-9.783582315511e+01 0.0 0.0 
-1.059073907808e+02 0.0 0.0 
-1.146162682732e+02 0.0 0.0 
-1.232157453228e+02 0.0 0.0 
-1.318739598492e+02 0.0 0.0 
-1.405986019798e+02 0.0 0.0 
-1.493576126073e+02 0.0 0.0 
-1.586503530415e+02 0.0 0.0 
-1.891364597835e-02 -3.726007690895e+02 0.0 
-1.435470005601e-01 -3.736213235954e+02 0.0 
9.707131033784e-01 -3.728738647778e+02 0.0 
-1.903076145618e-01 -3.729807034956e+02 0.0 
6.486010468988e-01 -3.735076035071e+02 0.0 
6.976774400659e-01 -3.729531246285e+02 0.0 
5.869164076752e-01 -3.733511039177e+02 0.0 
7.861706046065e-01 -3.737149809218e+02 0.0 
1.485642354679e+00 -3.731401863329e+02 0.0 
5.568356012519e-01 -3.733854036536e+02 0.0 
1.351872048947e+00 -3.740399707086e+02 0.0 
1.550568274564e+00 -3.735376358499e+02 0.0 
1.511536370246e+00 -3.741615423747e+02 0.0 
1.618224098957e+00 -3.741209754631e+02 0.0 
1.907438843658e+00 -3.742303198038e+02 0.0 
1.797181345853e+00 -3.748455974460e+02 0.0 
2.504608487245e+00 -3.750565193592e+02 0.0 
2.653823198098e+00 -3.754717314056e+02 0.0 
2.860808668620e+00 -3.758053895890e+02 0.0 
3.080152110160e+00 -3.760062847545e+02 0.0 
2.958447866595e+00 -3.765987946606e+02 0.0 
3.448764647366e+00 -3.773839525645e+02 0.0 
3.517867669334e+00 -3.778193996237e+02 0.0 
3.793866330186e+00 -3.784336145350e+02 0.0 
3.992186462365e+00 -3.793987254202e+02 0.0 
4.103265792567e+00 -3.799232643901e+02 0.0 
4.193958918082e+00 -3.805184280755e+02 0.0 
4.199161655279e+00 -3.814586656148e+02 0.0 
4.202741271342e+00 -3.825063942562e+02 0.0 
4.651890228646e+00 -3.830616618987e+02 0.0 
3.692791071885e+00 -3.835487664084e+02 0.0 
3.961757479637e+00 -3.850903640704e+02 0.0 
3.972664359265e+00 -3.853318876964e+02 0.0 
3.893426335074e+00 -3.862710149483e+02 0.0 
3.540120163134e+00 -3.868854374687e+02 0.0 
3.479574934510e+00 -3.873373620058e+02 0.0 
3.125943652615e+00 -3.881670707827e+02 0.0 
2.831480193866e+00 -3.885254463338e+02 0.0 
2.646452903515e+00 -3.890287694964e+02 0.0 
2.319751756346e+00 -3.898209127075e+02 0.0 
2.431737551273e+00 -3.898675347031e+02 0.0 
1.934533731346e+00 -3.901539959818e+02 0.0 
1.715713365584e+00 -3.901972355700e+02 0.0 
1.434127790594e+00 -3.912049066239e+02 0.0 
9.985214158876e-01 -3.906075493247e+02 0.0 
7.659191229157e-01 -3.914583517701e+02 0.0 
1.132926796668e+00 -3.909389638281e+02 0.0 
3.223938013667e-01 -3.912965462440e+02 0.0 
2.628724554936e-01 -3.911835322006e+02 0.0 
8.432863642465e+01 0.0 0.0 
9.312028771980e+01 0.0 0.0 
1.014615085417e+02 0.0 0.0 
1.096753107407e+02 0.0 0.0 
1.179765400203e+02 0.0 0.0 
1.265871818507e+02 0.0 0.0 
1.347749452224e+02 0.0 0.0 
1.426661549901e+02 0.0 0.0 
1.516968572929e+02 0.0 0.0 
0.0 0.0 0.0 
0.0 0.0 0.0 
0.0 0.0 0.0 
0.0 0.0 0.0 
0.0 0.0 0.0 
0.0 0.0 0.0 
0.0 0.0 0.0 
0.0 0.0 0.0 
0.0 0.0 0.0 
0.0 0.0 0.0 
0.0 0.0 0.0 
1.721341889782e+00 0.0 0.0 
9.382406315148e+00 0.0 0.0 
1.747898605446e+01 0.0 0.0 
2.580417790845e+01 0.0 0.0 
3.422814774798e+01 0.0 0.0 
4.266231748054e+01 0.0 0.0 
5.110059358370e+01 0.0 0.0 
5.955300119144e+01 0.0 0.0 
6.798603250583e+01 0.0 0.0 
0.0 0.0 0.0 
0.0 0.0 0.0 
0.0 0.0 0.0 
0.0 0.0 0.0 
0.0 0.0 0.0 
0.0 0.0 0.0 
0.0 0.0 0.0 
0.0 0.0 0.0 
0.0 0.0 0.0 
0.0 0.0 0.0 
0.0 0.0 0.0 
0.0 0.0 0.0 
0.0 0.0 0.0 
0.0 0.0 0.0 
0.0 0.0 0.0 
0.0 0.0 0.0 
0.0 0.0 0.0 
0.0 0.0 0.0 
0.0 0.0 0.0 
0.0 0.0 0.0 
0.0 0.0 0.0 
0.0 0.0 0.0 
0.0 0.0 0.0 
0.0 0.0 0.0 
0.0 0.0 0.0 
0.0 0.0 0.0 
0.0 0.0 0.0 
0.0 0.0 0.0 
0.0 0.0 0.0 
0.0 0.0 0.0 
0.0 0.0 0.0 
0.0 0.0 0.0 
0.0 0.0 0.0 
0.0 0.0 0.0 
0.0 0.0 0.0 
0.0 0.0 0.0 
0.0 0.0 0.0 
0.0 0.0 0.0 
0.0 0.0 0.0 
0.0 0.0 0.0 
0.0 0.0 0.0 
0.0 0.0 0.0 
0.0 0.0 0.0 
0.0 0.0 0.0 
0.0 0.0 0.0 
0.0 0.0 0.0 
0.0 0.0 0.0 
0.0 0.0 0.0 
0.0 0.0 0.0 
0.0 0.0 0.0 
0.0 0.0 0.0 
0.0 0.0 0.0 
0.0 0.0 0.0 
0.0 0.0 0.0 
0.0 0.0 0.0 
0.0 0.0 0.0 
0.0 0.0 0.0 
0.0 0.0 0.0 
0.0 0.0 0.0 
0.0 0.0 0.0 
0.0 0.0 0.0 
0.0 0.0 0.0 
0.0 0.0 0.0 
0.0 0.0 0.0 
0.0 0.0 0.0 
0.0 0.0 0.0 
0.0 0.0 0.0 
0.0 0.0 0.0 
0.0 0.0 0.0 
0.0 0.0 0.0 
0.0 0.0 0.0 
0.0 0.0 0.0 
0.0 0.0 0.0 
0.0 0.0 0.0 
0.0 0.0 0.0 
0.0 0.0 0.0 
0.0 0.0 0.0 
0.0 0.0 0.0 
0.0 0.0 0.0 
0.0 0.0 0.0 
0.0 0.0 0.0 
0.0 0.0 0.0 
0.0 0.0 0.0 
0.0 0.0 0.0 
0.0 0.0 0.0 
0.0 0.0 0.0 
0.0 0.0 0.0 
0.0 0.0 0.0 
0.0 0.0 0.0 
0.0 0.0 0.0 
0.0 0.0 0.0 
0.0 0.0 0.0 
0.0 0.0 0.0 
0.0 0.0 0.0 
0.0 0.0 0.0 
0.0 0.0 0.0 
0.0 0.0 0.0 
0.0 0.0 0.0 
0.0 0.0 0.0 
0.0 0.0 0.0 
0.0 0.0 0.0 
0.0 0.0 0.0 
0.0 0.0 0.0 
0.0 0.0 0.0 
0.0 0.0 0.0 
0.0 0.0 0.0 
0.0 0.0 0.0 
0.0 0.0 0.0 
0.0 0.0 0.0 
0.0 0.0 0.0 
0.0 0.0 0.0 
0.0 0.0 0.0 
0.0 0.0 0.0 
0.0 0.0 0.0 
0.0 0.0 0.0 
0.0 0.0 0.0 
0.0 0.0 0.0 
0.0 0.0 0.0 
0.0 0.0 0.0 
0.0 0.0 0.0 
0.0 0.0 0.0 
0.0 0.0 0.0 
0.0 0.0 0.0 
0.0 0.0 0.0 
0.0 0.0 0.0 
0.0 0.0 0.0 
0.0 0.0 0.0 
0.0 0.0 0.0 
0.0 0.0 0.0 
0.0 0.0 0.0 
0.0 0.0 0.0 
0.0 0.0 0.0 
0.0 0.0 0.0 
0.0 0.0 0.0 
0.0 0.0 0.0 
0.0 0.0 0.0 
0.0 0.0 0.0 
0.0 0.0 0.0 
0.0 0.0 0.0 
0.0 0.0 0.0 
0.0 0.0 0.0 
0.0 0.0 0.0 
0.0 0.0 0.0 
0.0 0.0 0.0 
0.0 0.0 0.0 
0.0 0.0 0.0 
0.0 0.0 0.0 
0.0 0.0 0.0 
0.0 0.0 0.0 
0.0 0.0 0.0 
0.0 0.0 0.0 
0.0 0.0 0.0 
0.0 0.0 0.0 
0.0 0.0 0.0 
0.0 0.0 0.0 
0.0 0.0 0.0 
0.0 0.0 0.0 
0.0 0.0 0.0 
0.0 0.0 0.0 
0.0 0.0 0.0 
0.0 0.0 0.0 
0.0 0.0 0.0 
0.0 0.0 0.0 
0.0 0.0 0.0 
0.0 0.0 0.0 
0.0 0.0 0.0 
0.0 0.0 0.0 
0.0 0.0 0.0 
0.0 0.0 0.0 
0.0 0.0 0.0 
0.0 0.0 0.0 
0.0 0.0 0.0 
0.0 0.0 0.0 
0.0 0.0 0.0 
0.0 0.0 0.0 
0.0 0.0 0.0 
0.0 0.0 0.0 
0.0 0.0 0.0 
0.0 0.0 0.0 
0.0 0.0 0.0 
0.0 0.0 0.0 
0.0 0.0 0.0 
0.0 0.0 0.0 
0.0 0.0 0.0 
0.0 0.0 0.0 
0.0 0.0 0.0 
0.0 0.0 0.0 
0.0 0.0 0.0 
0.0 0.0 0.0 
0.0 0.0 0.0 
0.0 0.0 0.0 
0.0 0.0 0.0 
0.0 0.0 0.0 
0.0 0.0 0.0 
0.0 0.0 0.0 
0.0 0.0 0.0 
0.0 0.0 0.0 
0.0 0.0 0.0 
0.0 0.0 0.0 
0.0 0.0 0.0 
0.0 0.0 0.0 
0.0 0.0 0.0 
0.0 0.0 0.0 
0.0 0.0 0.0 
0.0 0.0 0.0 
0.0 0.0 0.0 
0.0 0.0 0.0 
0.0 0.0 0.0 
0.0 0.0 0.0 
0.0 0.0 0.0 
0.0 0.0 0.0 
0.0 0.0 0.0 
0.0 0.0 0.0 
0.0 0.0 0.0 
0.0 0.0 0.0 
0.0 0.0 0.0 
0.0 0.0 0.0 
0.0 0.0 0.0 
0.0 0.0 0.0 
0.0 0.0 0.0 
0.0 0.0 0.0 
0.0 0.0 0.0 
0.0 0.0 0.0 
0.0 0.0 0.0 
0.0 0.0 0.0 
0.0 0.0 0.0 
0.0 0.0 0.0 
0.0 0.0 0.0 
0.0 0.0 0.0 
0.0 0.0 0.0 
0.0 0.0 0.0 
0.0 0.0 0.0 
0.0 0.0 0.0 
0.0 0.0 0.0 
0.0 0.0 0.0 
0.0 0.0 0.0 
0.0 0.0 0.0 
0.0 0.0 0.0 
0.0 0.0 0.0 
0.0 0.0 0.0 
0.0 0.0 0.0 
0.0 0.0 0.0 
0.0 0.0 0.0 
0.0 0.0 0.0 
0.0 0.0 0.0 
0.0 0.0 0.0 
0.0 0.0 0.0 
0.0 0.0 0.0 
0.0 0.0 0.0 
0.0 0.0 0.0 
0.0 0.0 0.0 
0.0 0.0 0.0 
0.0 0.0 0.0 
0.0 0.0 0.0 
0.0 0.0 0.0 
0.0 0.0 0.0 
0.0 0.0 0.0 
0.0 0.0 0.0 
0.0 0.0 0.0 
0.0 0.0 0.0 
0.0 0.0 0.0 
0.0 0.0 0.0 
0.0 0.0 0.0 
0.0 0.0 0.0 
0.0 0.0 0.0 
0.0 0.0 0.0 
0.0 0.0 0.0 
0.0 0.0 0.0 
0.0 0.0 0.0 
0.0 0.0 0.0 
0.0 0.0 0.0 
0.0 0.0 0.0 
0.0 0.0 0.0 
0.0 0.0 0.0 
0.0 0.0 0.0 
0.0 0.0 0.0 
0.0 0.0 0.0 
0.0 0.0 0.0 
0.0 0.0 0.0 
0.0 0.0 0.0 
0.0 0.0 0.0 
0.0 0.0 0.0 
0.0 0.0 0.0 
0.0 0.0 0.0 
0.0 0.0 0.0 
0.0 0.0 0.0 
0.0 0.0 0.0 
0.0 0.0 0.0 
0.0 0.0 0.0 
0.0 0.0 0.0 
0.0 0.0 0.0 
0.0 0.0 0.0 
0.0 0.0 0.0 
0.0 0.0 0.0 
0.0 0.0 0.0 
0.0 0.0 0.0 
0.0 0.0 0.0 
0.0 0.0 0.0 
0.0 0.0 0.0 
0.0 0.0 0.0 
0.0 0.0 0.0 
0.0 0.0 0.0 
0.0 0.0 0.0 
0.0 0.0 0.0 
0.0 0.0 0.0 
0.0 0.0 0.0 
0.0 0.0 0.0 
0.0 0.0 0.0 
0.0 0.0 0.0 
0.0 0.0 0.0 
0.0 0.0 0.0 
0.0 0.0 0.0 
0.0 0.0 0.0 
0.0 0.0 0.0 
0.0 0.0 0.0 
0.0 0.0 0.0 
0.0 0.0 0.0 
0.0 0.0 0.0 
0.0 0.0 0.0 
0.0 0.0 0.0 
0.0 0.0 0.0 
0.0 0.0 0.0 
0.0 0.0 0.0 
0.0 0.0 0.0 
0.0 0.0 0.0 
0.0 0.0 0.0 
0.0 0.0 0.0 
0.0 0.0 0.0 
0.0 0.0 0.0 
0.0 0.0 0.0 
0.0 0.0 0.0 
0.0 0.0 0.0 
0.0 0.0 0.0 
0.0 0.0 0.0 
0.0 0.0 0.0 
0.0 0.0 0.0 
0.0 0.0 0.0 
0.0 0.0 0.0 
0.0 0.0 0.0 
0.0 0.0 0.0 
0.0 0.0 0.0 
0.0 0.0 0.0 
0.0 0.0 0.0 
0.0 0.0 0.0 
0.0 0.0 0.0 
0.0 0.0 0.0 
0.0 0.0 0.0 
0.0 0.0 0.0 
0.0 0.0 0.0 
0.0 0.0 0.0 
0.0 0.0 0.0 
0.0 0.0 0.0 
0.0 0.0 0.0 
0.0 0.0 0.0 
0.0 0.0 0.0 
0.0 0.0 0.0 
0.0 0.0 0.0 
0.0 0.0 0.0 
0.0 0.0 0.0 
0.0 0.0 0.0 
0.0 0.0 0.0 
0.0 0.0 0.0 
0.0 0.0 0.0 
0.0 0.0 0.0 
0.0 0.0 0.0 
0.0 0.0 0.0 
0.0 0.0 0.0 
0.0 0.0 0.0 
0.0 0.0 0.0 
0.0 0.0 0.0 
0.0 0.0 0.0 
0.0 0.0 0.0 
0.0 0.0 0.0 
0.0 0.0 0.0 
0.0 0.0 0.0 
0.0 0.0 0.0 
0.0 0.0 0.0 
0.0 0.0 0.0 
0.0 0.0 0.0 
0.0 0.0 0.0 
0.0 0.0 0.0 
0.0 0.0 0.0 
0.0 0.0 0.0 
0.0 0.0 0.0 
0.0 0.0 0.0 
0.0 0.0 0.0 
0.0 0.0 0.0 
0.0 0.0 0.0 
0.0 0.0 0.0 
0.0 0.0 0.0 
0.0 0.0 0.0 
0.0 0.0 0.0 
0.0 0.0 0.0 
0.0 0.0 0.0 
0.0 0.0 0.0 
0.0 0.0 0.0 
0.0 0.0 0.0 
0.0 0.0 0.0 
0.0 0.0 0.0 
0.0 0.0 0.0 
0.0 0.0 0.0 
0.0 0.0 0.0 
0.0 0.0 0.0 
0.0 0.0 0.0 
0.0 0.0 0.0 
0.0 0.0 0.0 
0.0 0.0 0.0 
0.0 0.0 0.0 
0.0 0.0 0.0 
0.0 0.0 0.0 
0.0 0.0 0.0 
0.0 0.0 0.0 
0.0 0.0 0.0 
0.0 0.0 0.0 
0.0 0.0 0.0 
0.0 0.0 0.0 
0.0 0.0 0.0 
0.0 0.0 0.0 
0.0 0.0 0.0 
0.0 0.0 0.0 
0.0 0.0 0.0 
0.0 0.0 0.0 
0.0 0.0 0.0 
0.0 0.0 0.0 
0.0 0.0 0.0 
0.0 0.0 0.0 
0.0 0.0 0.0 
0.0 0.0 0.0 
0.0 0.0 0.0 
0.0 0.0 0.0 
0.0 0.0 0.0 
0.0 0.0 0.0 
0.0 0.0 0.0 
0.0 0.0 0.0 
0.0 0.0 0.0 
0.0 0.0 0.0 
0.0 0.0 0.0 
0.0 0.0 0.0 
0.0 0.0 0.0 
0.0 0.0 0.0 
0.0 0.0 0.0 
0.0 0.0 0.0 
0.0 0.0 0.0 
0.0 0.0 0.0 
0.0 0.0 0.0 
0.0 0.0 0.0 
0.0 0.0 0.0 
0.0 0.0 0.0 
0.0 0.0 0.0 
0.0 0.0 0.0 
0.0 0.0 0.0 
0.0 0.0 0.0 
0.0 0.0 0.0 
0.0 0.0 0.0 
0.0 0.0 0.0 
0.0 0.0 0.0 
0.0 0.0 0.0 
0.0 0.0 0.0 
0.0 0.0 0.0 
0.0 0.0 0.0 
0.0 0.0 0.0 
0.0 0.0 0.0 
0.0 0.0 0.0 
0.0 0.0 0.0 
0.0 0.0 0.0 
0.0 0.0 0.0 
0.0 0.0 0.0 
0.0 0.0 0.0 
0.0 0.0 0.0 
0.0 0.0 0.0 
0.0 0.0 0.0 
0.0 0.0 0.0 
0.0 0.0 0.0 
0.0 0.0 0.0 
0.0 0.0 0.0 
0.0 0.0 0.0 
0.0 0.0 0.0 
0.0 0.0 0.0 
0.0 0.0 0.0 
0.0 0.0 0.0 
0.0 0.0 0.0 
0.0 0.0 0.0 
0.0 0.0 0.0 
0.0 0.0 0.0 
0.0 0.0 0.0 
0.0 0.0 0.0 
0.0 0.0 0.0 
0.0 0.0 0.0 
0.0 0.0 0.0 
0.0 0.0 0.0 
0.0 0.0 0.0 
0.0 0.0 0.0 
0.0 0.0 0.0 
0.0 0.0 0.0 
0.0 0.0 0.0 
0.0 0.0 0.0 
0.0 0.0 0.0 
0.0 0.0 0.0 
0.0 0.0 0.0 
0.0 0.0 0.0 
0.0 0.0 0.0 
0.0 0.0 0.0 
0.0 0.0 0.0 
0.0 0.0 0.0 
0.0 0.0 0.0 
0.0 0.0 0.0 
0.0 0.0 0.0 
0.0 0.0 0.0 
0.0 0.0 0.0 
0.0 0.0 0.0 
0.0 0.0 0.0 
0.0 0.0 0.0 
0.0 0.0 0.0 
0.0 0.0 0.0 
0.0 0.0 0.0 
0.0 0.0 0.0 
0.0 0.0 0.0 
0.0 0.0 0.0 
0.0 0.0 0.0 
0.0 0.0 0.0 
0.0 0.0 0.0 
0.0 0.0 0.0 
0.0 0.0 0.0 
0.0 0.0 0.0 
0.0 0.0 0.0 
0.0 0.0 0.0 
0.0 0.0 0.0 
0.0 0.0 0.0 
0.0 0.0 0.0 
0.0 0.0 0.0 
0.0 0.0 0.0 
0.0 0.0 0.0 
0.0 0.0 0.0 
0.0 0.0 0.0 
0.0 0.0 0.0 
0.0 0.0 0.0 
0.0 0.0 0.0 
0.0 0.0 0.0 
0.0 0.0 0.0 
0.0 0.0 0.0 
0.0 0.0 0.0 
0.0 0.0 0.0 
0.0 0.0 0.0 
0.0 0.0 0.0 
0.0 0.0 0.0 
0.0 0.0 0.0 
0.0 0.0 0.0 
0.0 0.0 0.0 
0.0 0.0 0.0 
0.0 0.0 0.0 
0.0 0.0 0.0 
0.0 0.0 0.0 
0.0 0.0 0.0 
0.0 0.0 0.0 
0.0 0.0 0.0 
0.0 0.0 0.0 
0.0 0.0 0.0 
0.0 0.0 0.0 
0.0 0.0 0.0 
0.0 0.0 0.0 
0.0 0.0 0.0 
0.0 0.0 0.0 
0.0 0.0 0.0 
0.0 0.0 0.0 
0.0 0.0 0.0 
0.0 0.0 0.0 
0.0 0.0 0.0 
0.0 0.0 0.0 
0.0 0.0 0.0 
0.0 0.0 0.0 
0.0 0.0 0.0 
0.0 0.0 0.0 
0.0 0.0 0.0 
0.0 0.0 0.0 
0.0 0.0 0.0 
0.0 0.0 0.0 
0.0 0.0 0.0 
0.0 0.0 0.0 
0.0 0.0 0.0 
0.0 0.0 0.0 
0.0 0.0 0.0 
0.0 0.0 0.0 
0.0 0.0 0.0 
0.0 0.0 0.0 
0.0 0.0 0.0 
0.0 0.0 0.0 
0.0 0.0 0.0 
0.0 0.0 0.0 
0.0 0.0 0.0 
0.0 0.0 0.0 
0.0 0.0 0.0 
0.0 0.0 0.0 
0.0 0.0 0.0 
0.0 0.0 0.0 
0.0 0.0 0.0 
0.0 0.0 0.0 
0.0 0.0 0.0 
0.0 0.0 0.0 
0.0 0.0 0.0 
0.0 0.0 0.0 
0.0 0.0 0.0 
0.0 0.0 0.0 
0.0 0.0 0.0 
0.0 0.0 0.0 
0.0 0.0 0.0 
0.0 0.0 0.0 
0.0 0.0 0.0 
0.0 0.0 0.0 
0.0 0.0 0.0 
0.0 0.0 0.0 
0.0 0.0 0.0 
0.0 0.0 0.0 
0.0 0.0 0.0 
0.0 0.0 0.0 
0.0 0.0 0.0 
0.0 0.0 0.0 
0.0 0.0 0.0 
0.0 0.0 0.0 
0.0 0.0 0.0 
0.0 0.0 0.0 
0.0 0.0 0.0 
0.0 0.0 0.0 
0.0 0.0 0.0 
0.0 0.0 0.0 
0.0 0.0 0.0 
0.0 0.0 0.0 
0.0 0.0 0.0 
0.0 0.0 0.0 
0.0 0.0 0.0 
0.0 0.0 0.0 
0.0 0.0 0.0 
0.0 0.0 0.0 
0.0 0.0 0.0 
0.0 0.0 0.0 
0.0 0.0 0.0 
0.0 0.0 0.0 
0.0 0.0 0.0 
0.0 0.0 0.0 
0.0 0.0 0.0 
0.0 0.0 0.0 
0.0 0.0 0.0 
0.0 0.0 0.0 
0.0 0.0 0.0 
0.0 0.0 0.0 
0.0 0.0 0.0 
0.0 0.0 0.0 
0.0 0.0 0.0 
0.0 0.0 0.0 
0.0 0.0 0.0 
0.0 0.0 0.0 
0.0 0.0 0.0 
0.0 0.0 0.0 
0.0 0.0 0.0 
0.0 0.0 0.0 
0.0 0.0 0.0 
0.0 0.0 0.0 
0.0 0.0 0.0 
0.0 0.0 0.0 
0.0 0.0 0.0 
0.0 0.0 0.0 
0.0 0.0 0.0 
0.0 0.0 0.0 
0.0 0.0 0.0 
0.0 0.0 0.0 
0.0 0.0 0.0 
0.0 0.0 0.0 
0.0 0.0 0.0 
0.0 0.0 0.0 
0.0 0.0 0.0 
0.0 0.0 0.0 
0.0 0.0 0.0 
0.0 0.0 0.0 
0.0 0.0 0.0 
0.0 0.0 0.0 
0.0 0.0 0.0 
0.0 0.0 0.0 
0.0 0.0 0.0 
0.0 0.0 0.0 
0.0 0.0 0.0 
0.0 0.0 0.0 
0.0 0.0 0.0 
0.0 0.0 0.0 
0.0 0.0 0.0 
0.0 0.0 0.0 
0.0 0.0 0.0 
0.0 0.0 0.0 
0.0 0.0 0.0 
0.0 0.0 0.0 
0.0 0.0 0.0 
0.0 0.0 0.0 
0.0 0.0 0.0 
0.0 0.0 0.0 
0.0 0.0 0.0 
0.0 0.0 0.0 
0.0 0.0 0.0 
0.0 0.0 0.0 
0.0 0.0 0.0 
0.0 0.0 0.0 
0.0 0.0 0.0 
0.0 0.0 0.0 
0.0 0.0 0.0 
0.0 0.0 0.0 
0.0 0.0 0.0 
0.0 0.0 0.0 
0.0 0.0 0.0 
0.0 0.0 0.0 
0.0 0.0 0.0 
0.0 0.0 0.0 
0.0 0.0 0.0 
0.0 0.0 0.0 
0.0 0.0 0.0 
0.0 0.0 0.0 
0.0 0.0 0.0 
0.0 0.0 0.0 
0.0 0.0 0.0 
0.0 0.0 0.0 
0.0 0.0 0.0 
0.0 0.0 0.0 
0.0 0.0 0.0 
0.0 0.0 0.0 
0.0 0.0 0.0 
0.0 0.0 0.0 
0.0 0.0 0.0 
0.0 0.0 0.0 
0.0 0.0 0.0 
0.0 0.0 0.0 
0.0 0.0 0.0 
0.0 0.0 0.0 
0.0 0.0 0.0 
0.0 0.0 0.0 
0.0 0.0 0.0 
0.0 0.0 0.0 
0.0 0.0 0.0 
0.0 0.0 0.0 
0.0 0.0 0.0 
0.0 0.0 0.0 
0.0 0.0 0.0 
0.0 0.0 0.0 
0.0 0.0 0.0 
0.0 0.0 0.0 
0.0 0.0 0.0 
0.0 0.0 0.0 
0.0 0.0 0.0 
0.0 0.0 0.0 
0.0 0.0 0.0 
0.0 0.0 0.0 
0.0 0.0 0.0 
0.0 0.0 0.0 
0.0 0.0 0.0 
0.0 0.0 0.0 
0.0 0.0 0.0 
0.0 0.0 0.0 
0.0 0.0 0.0 
0.0 0.0 0.0 
0.0 0.0 0.0 
0.0 0.0 0.0 
0.0 0.0 0.0 
0.0 0.0 0.0 
0.0 0.0 0.0 
0.0 0.0 0.0 
0.0 0.0 0.0 
0.0 0.0 0.0 
0.0 0.0 0.0 
0.0 0.0 0.0 
0.0 0.0 0.0 
0.0 0.0 0.0 
0.0 0.0 0.0 
0.0 0.0 0.0 
0.0 0.0 0.0 
0.0 0.0 0.0 
0.0 0.0 0.0 
0.0 0.0 0.0 
0.0 0.0 0.0 
0.0 0.0 0.0 
0.0 0.0 0.0 
0.0 0.0 0.0 
0.0 0.0 0.0 
0.0 0.0 0.0 
0.0 0.0 0.0 
0.0 0.0 0.0 
0.0 0.0 0.0 
0.0 0.0 0.0 
0.0 0.0 0.0 
0.0 0.0 0.0 
0.0 0.0 0.0 
0.0 0.0 0.0 
0.0 0.0 0.0 
0.0 0.0 0.0 
0.0 0.0 0.0 
0.0 0.0 0.0 
0.0 0.0 0.0 
0.0 0.0 0.0 
0.0 0.0 0.0 
0.0 0.0 0.0 
0.0 0.0 0.0 
0.0 0.0 0.0 
0.0 0.0 0.0 
0.0 0.0 0.0 
0.0 0.0 0.0 
0.0 0.0 0.0 
0.0 0.0 0.0 
0.0 0.0 0.0 
0.0 0.0 0.0 
0.0 0.0 0.0 
0.0 0.0 0.0 
0.0 0.0 0.0 
0.0 0.0 0.0 
0.0 0.0 0.0 
0.0 0.0 0.0 
0.0 0.0 0.0 
0.0 0.0 0.0 
0.0 0.0 0.0 
0.0 0.0 0.0 
0.0 0.0 0.0 
0.0 0.0 0.0 
0.0 0.0 0.0 
0.0 0.0 0.0 
0.0 0.0 0.0 
0.0 0.0 0.0 
0.0 0.0 0.0 
0.0 0.0 0.0 
0.0 0.0 0.0 
0.0 0.0 0.0 
0.0 0.0 0.0 
0.0 0.0 0.0 
0.0 0.0 0.0 
0.0 0.0 0.0 
0.0 0.0 0.0 
0.0 0.0 0.0 
0.0 0.0 0.0 
0.0 0.0 0.0 
0.0 0.0 0.0 
0.0 0.0 0.0 
0.0 0.0 0.0 
0.0 0.0 0.0 
0.0 0.0 0.0 
0.0 0.0 0.0 
0.0 0.0 0.0 
0.0 0.0 0.0 
0.0 0.0 0.0 
0.0 0.0 0.0 
0.0 0.0 0.0 
0.0 0.0 0.0 
0.0 0.0 0.0 
0.0 0.0 0.0 
0.0 0.0 0.0 
0.0 0.0 0.0 
0.0 0.0 0.0 
0.0 0.0 0.0 
0.0 0.0 0.0 
0.0 0.0 0.0 
0.0 0.0 0.0 
0.0 0.0 0.0 
0.0 0.0 0.0 
0.0 0.0 0.0 
0.0 0.0 0.0 
0.0 0.0 0.0 
0.0 0.0 0.0 
0.0 0.0 0.0 
0.0 0.0 0.0 
0.0 0.0 0.0 
0.0 0.0 0.0 
0.0 0.0 0.0 
0.0 0.0 0.0 
0.0 0.0 0.0 
0.0 0.0 0.0 
0.0 0.0 0.0 
0.0 0.0 0.0 
0.0 0.0 0.0 
0.0 0.0 0.0 
0.0 0.0 0.0 
0.0 0.0 0.0 
0.0 0.0 0.0 
0.0 0.0 0.0 
0.0 0.0 0.0 
0.0 0.0 0.0 
0.0 0.0 0.0 
0.0 0.0 0.0 
0.0 0.0 0.0 
0.0 0.0 0.0 
0.0 0.0 0.0 
0.0 0.0 0.0 
0.0 0.0 0.0 
0.0 0.0 0.0 
0.0 0.0 0.0 
0.0 0.0 0.0 
0.0 0.0 0.0 
0.0 0.0 0.0 
0.0 0.0 0.0 
0.0 0.0 0.0 
0.0 0.0 0.0 
0.0 0.0 0.0 
0.0 0.0 0.0 
0.0 0.0 0.0 
0.0 0.0 0.0 
0.0 0.0 0.0 
0.0 0.0 0.0 
0.0 0.0 0.0 
0.0 0.0 0.0 
0.0 0.0 0.0 
0.0 0.0 0.0 
0.0 0.0 0.0 
0.0 0.0 0.0 
0.0 0.0 0.0 
0.0 0.0 0.0 
0.0 0.0 0.0 
0.0 0.0 0.0 
0.0 0.0 0.0 
0.0 0.0 0.0 
0.0 0.0 0.0 
0.0 0.0 0.0 
0.0 0.0 0.0 
0.0 0.0 0.0 
0.0 0.0 0.0 
0.0 0.0 0.0 
0.0 0.0 0.0 
0.0 0.0 0.0 
0.0 0.0 0.0 
0.0 0.0 0.0 
0.0 0.0 0.0 
0.0 0.0 0.0 
0.0 0.0 0.0 
0.0 0.0 0.0 
0.0 0.0 0.0 
0.0 0.0 0.0 
0.0 0.0 0.0 
0.0 0.0 0.0 
0.0 0.0 0.0 
0.0 0.0 0.0 
0.0 0.0 0.0 
0.0 0.0 0.0 
0.0 0.0 0.0 
0.0 0.0 0.0 
0.0 0.0 0.0 
0.0 0.0 0.0 
0.0 0.0 0.0 
0.0 0.0 0.0 
0.0 0.0 0.0 
0.0 0.0 0.0 
0.0 0.0 0.0 
0.0 0.0 0.0 
0.0 0.0 0.0 
0.0 0.0 0.0 
0.0 0.0 0.0 
0.0 0.0 0.0 
0.0 0.0 0.0 
0.0 0.0 0.0 
0.0 0.0 0.0 
0.0 0.0 0.0 
0.0 0.0 0.0 
0.0 0.0 0.0 
0.0 0.0 0.0 
0.0 0.0 0.0 
0.0 0.0 0.0 
0.0 0.0 0.0 
0.0 0.0 0.0 
0.0 0.0 0.0 
0.0 0.0 0.0 
0.0 0.0 0.0 
0.0 0.0 0.0 
0.0 0.0 0.0 
0.0 0.0 0.0 
0.0 0.0 0.0 
0.0 0.0 0.0 
0.0 0.0 0.0 
0.0 0.0 0.0 
0.0 0.0 0.0 
0.0 0.0 0.0 
0.0 0.0 0.0 
0.0 0.0 0.0 
0.0 0.0 0.0 
0.0 0.0 0.0 
0.0 0.0 0.0 
0.0 0.0 0.0 
0.0 0.0 0.0 
0.0 0.0 0.0 
0.0 0.0 0.0 
0.0 0.0 0.0 
0.0 0.0 0.0 
0.0 0.0 0.0 
0.0 0.0 0.0 
0.0 0.0 0.0 
0.0 0.0 0.0 
0.0 0.0 0.0 
0.0 0.0 0.0 
0.0 0.0 0.0 
0.0 0.0 0.0 
0.0 0.0 0.0 
0.0 0.0 0.0 
0.0 0.0 0.0 
0.0 0.0 0.0 
0.0 0.0 0.0 
0.0 0.0 0.0 
0.0 0.0 0.0 
0.0 0.0 0.0 
0.0 0.0 0.0 
0.0 0.0 0.0 
0.0 0.0 0.0 
0.0 0.0 0.0 
0.0 0.0 0.0 
0.0 0.0 0.0 
0.0 0.0 0.0 
0.0 0.0 0.0 
0.0 0.0 0.0 
0.0 0.0 0.0 
0.0 0.0 0.0 
0.0 0.0 0.0 
0.0 0.0 0.0 
0.0 0.0 0.0 
0.0 0.0 0.0 
0.0 0.0 0.0 
0.0 0.0 0.0 
0.0 0.0 0.0 
0.0 0.0 0.0 
0.0 0.0 0.0 
0.0 0.0 0.0 
0.0 0.0 0.0 
0.0 0.0 0.0 
0.0 0.0 0.0 
0.0 0.0 0.0 
0.0 0.0 0.0 
0.0 0.0 0.0 
0.0 0.0 0.0 
0.0 0.0 0.0 
0.0 0.0 0.0 
0.0 0.0 0.0 
0.0 0.0 0.0 
0.0 0.0 0.0 
0.0 0.0 0.0 
0.0 0.0 0.0 
0.0 0.0 0.0 
0.0 0.0 0.0 
0.0 0.0 0.0 
0.0 0.0 0.0 
0.0 0.0 0.0 
0.0 0.0 0.0 
0.0 0.0 0.0 
0.0 0.0 0.0 
0.0 0.0 0.0 
0.0 0.0 0.0 
0.0 0.0 0.0 
0.0 0.0 0.0 
0.0 0.0 0.0 
0.0 0.0 0.0 
0.0 0.0 0.0 
0.0 0.0 0.0 
0.0 0.0 0.0 
0.0 0.0 0.0 
0.0 0.0 0.0 
0.0 0.0 0.0 
0.0 0.0 0.0 
0.0 0.0 0.0 
0.0 0.0 0.0 
0.0 0.0 0.0 
0.0 0.0 0.0 
0.0 0.0 0.0 
0.0 0.0 0.0 
0.0 0.0 0.0 
0.0 0.0 0.0 
0.0 0.0 0.0 
0.0 0.0 0.0 
0.0 0.0 0.0 
0.0 0.0 0.0 
0.0 0.0 0.0 
0.0 0.0 0.0 
0.0 0.0 0.0 
0.0 0.0 0.0 
0.0 0.0 0.0 
0.0 0.0 0.0 
0.0 0.0 0.0 
0.0 0.0 0.0 
0.0 0.0 0.0 
0.0 0.0 0.0 
0.0 0.0 0.0 
0.0 0.0 0.0 
0.0 0.0 0.0 
0.0 0.0 0.0 
0.0 0.0 0.0 
0.0 0.0 0.0 
0.0 0.0 0.0 
0.0 0.0 0.0 
0.0 0.0 0.0 
0.0 0.0 0.0 
0.0 0.0 0.0 
0.0 0.0 0.0 
0.0 0.0 0.0 
0.0 0.0 0.0 
0.0 0.0 0.0 
0.0 0.0 0.0 
0.0 0.0 0.0 
0.0 0.0 0.0 
0.0 0.0 0.0 
0.0 0.0 0.0 
0.0 0.0 0.0 
0.0 0.0 0.0 
0.0 0.0 0.0 
0.0 0.0 0.0 
0.0 0.0 0.0 
0.0 0.0 0.0 
0.0 0.0 0.0 
0.0 0.0 0.0 
0.0 0.0 0.0 
0.0 0.0 0.0 
0.0 0.0 0.0 
0.0 0.0 0.0 
0.0 0.0 0.0 
0.0 0.0 0.0 
0.0 0.0 0.0 
0.0 0.0 0.0 
0.0 0.0 0.0 
0.0 0.0 0.0 
0.0 0.0 0.0 
0.0 0.0 0.0 
0.0 0.0 0.0 
0.0 0.0 0.0 
0.0 0.0 0.0 
0.0 0.0 0.0 
0.0 0.0 0.0 
0.0 0.0 0.0 
0.0 0.0 0.0 
0.0 0.0 0.0 
0.0 0.0 0.0 
0.0 0.0 0.0 
0.0 0.0 0.0 
0.0 0.0 0.0 
0.0 0.0 0.0 
0.0 0.0 0.0 
0.0 0.0 0.0 
0.0 0.0 0.0 
0.0 0.0 0.0 
0.0 0.0 0.0 
0.0 0.0 0.0 
0.0 0.0 0.0 
0.0 0.0 0.0 
0.0 0.0 0.0 
0.0 0.0 0.0 
0.0 0.0 0.0 
0.0 0.0 0.0 
0.0 0.0 0.0 
0.0 0.0 0.0 
0.0 0.0 0.0 
0.0 0.0 0.0 
0.0 0.0 0.0 
0.0 0.0 0.0 
0.0 0.0 0.0 
0.0 0.0 0.0 
0.0 0.0 0.0 
0.0 0.0 0.0 
0.0 0.0 0.0 
0.0 0.0 0.0 

VECTORS node_materi_velocity float
0.0 -9.176074711261e-04 0.0 
0.0 9.944380346671e-03 0.0 
0.0 0.0 0.0 
0.0 0.0 0.0 
0.0 -9.146808161314e-04 0.0 
0.0 -9.033196748889e-04 0.0 
0.0 -8.820349341212e-04 0.0 
0.0 -8.494979456818e-04 0.0 
0.0 -8.035003869194e-04 0.0 
0.0 -7.462155739398e-04 0.0 
0.0 -6.789560916542e-04 0.0 
0.0 -6.029935395135e-04 0.0 
0.0 -5.206403930310e-04 0.0 
0.0 -4.342376788728e-04 0.0 
0.0 -3.465391506225e-04 0.0 
0.0 -2.610164066398e-04 0.0 
0.0 -1.804619655052e-04 0.0 
0.0 -1.062759163186e-04 0.0 
0.0 -4.334708115054e-05 0.0 
0.0 5.525352286630e-06 0.0 
0.0 3.764298789528e-05 0.0 
0.0 4.891900893381e-05 0.0 
0.0 3.553449160515e-05 0.0 
0.0 0.0 0.0 
0.0 0.0 0.0 
0.0 0.0 0.0 
0.0 0.0 0.0 
0.0 0.0 0.0 
0.0 0.0 0.0 
0.0 0.0 0.0 
0.0 0.0 0.0 
0.0 0.0 0.0 
0.0 0.0 0.0 
0.0 0.0 0.0 
0.0 0.0 0.0 
0.0 0.0 0.0 
0.0 0.0 0.0 
0.0 0.0 0.0 
0.0 0.0 0.0 
0.0 0.0 0.0 
0.0 0.0 0.0 
0.0 0.0 0.0 
0.0 0.0 0.0 
0.0 0.0 0.0 
0.0 0.0 0.0 
0.0 0.0 0.0 
0.0 0.0 0.0 
0.0 0.0 0.0 
0.0 0.0 0.0 
0.0 0.0 0.0 
0.0 0.0 0.0 
0.0 0.0 0.0 
0.0 0.0 0.0 
0.0 0.0 0.0 
0.0 0.0 0.0 
0.0 0.0 0.0 
0.0 0.0 0.0 
0.0 0.0 0.0 
0.0 0.0 0.0 
0.0 0.0 0.0 
0.0 0.0 0.0 
0.0 0.0 0.0 
0.0 0.0 0.0 
0.0 0.0 0.0 
0.0 0.0 0.0 
0.0 0.0 0.0 
0.0 0.0 0.0 
0.0 0.0 0.0 
0.0 0.0 0.0 
0.0 0.0 0.0 
0.0 0.0 0.0 
0.0 0.0 0.0 
0.0 8.930407489532e-03 0.0 
0.0 7.917468757579e-03 0.0 
0.0 6.906985430715e-03 0.0 
0.0 5.899839618813e-03 0.0 
0.0 4.897712491217e-03 0.0 
0.0 3.901529470747e-03 0.0 
0.0 2.912632738764e-03 0.0 
0.0 1.932150256661e-03 0.0 
0.0 9.612827473488e-04 0.0 
-2.462072875326e-03 7.508838076372e-03 0.0 
1.548021674512e-03 9.733368509526e-03 0.0 
-9.041841832357e-04 1.085514358391e-02 0.0 
3.824315768619e-04 1.251251411671e-02 0.0 
1.129870439755e-03 1.313631254849e-02 0.0 
1.573398607680e-03 1.328446345905e-02 0.0 
1.822600306464e-03 1.311374566546e-02 0.0 
1.930300323592e-03 1.270974943739e-02 0.0 
1.932696794959e-03 1.213034775563e-02 0.0 
1.857225764613e-03 1.141976945608e-02 0.0 
1.723589051713e-03 1.061171674359e-02 0.0 
0.0 1.900403701769e-02 0.0 
0.0 1.799465343625e-02 0.0 
0.0 1.699752255915e-02 0.0 
0.0 1.599868180979e-02 0.0 
0.0 1.499676740277e-02 0.0 
0.0 1.399093725212e-02 0.0 
0.0 1.298260061337e-02 0.0 
0.0 1.197127750965e-02 0.0 
0.0 1.095841461831e-02 0.0 
8.267729615726e-05 9.944918189246e-03 0.0 
1.659764608115e-04 9.946451350858e-03 0.0 
2.504825936243e-04 9.948683019281e-03 0.0 
3.368150350744e-04 9.951502009900e-03 0.0 
4.255876115024e-04 9.953820177206e-03 0.0 
5.166857540983e-04 9.955015672114e-03 0.0 
6.112486747470e-04 9.954999904506e-03 0.0 
7.095970909758e-04 9.951722322208e-03 0.0 
8.121267059929e-04 9.945276737554e-03 0.0 
9.197105481555e-04 9.933902853560e-03 0.0 
1.032536584928e-03 9.915709007357e-03 0.0 
1.151456308813e-03 9.888642335434e-03 0.0 
1.276659890550e-03 9.851200539086e-03 0.0 
1.408648908229e-03 9.800266958923e-03 0.0 
-2.199196710383e-03 5.755807492373e-03 0.0 
-1.899623081563e-03 4.451942335920e-03 0.0 
-1.611908228540e-03 3.425435914068e-03 0.0 
-1.336245581534e-03 2.603621976188e-03 0.0 
-1.110747355542e-03 1.936446668995e-03 0.0 
-9.145682947646e-04 1.386916012501e-03 0.0 
-7.405584499882e-04 9.305190389753e-04 0.0 
-5.896015857151e-04 5.519775382628e-04 0.0 
-4.600880268097e-04 2.397738678028e-04 0.0 
-3.514503588468e-04 -1.667556822124e-05 0.0 
-2.619865468775e-04 -2.290302787283e-04 0.0 
-1.888937649728e-04 -3.991929376610e-04 0.0 
-1.333647469268e-04 -5.384473164927e-04 0.0 
-8.833796036872e-05 -6.503620340534e-04 0.0 
-5.551242376533e-05 -7.389182643759e-04 0.0 
-3.304247643004e-05 -8.061893437331e-04 0.0 
-1.859587461703e-05 -8.560217072712e-04 0.0 
-9.838022934130e-06 -8.909068415726e-04 0.0 
-4.070913024831e-06 -9.101017219490e-04 0.0 
1.010094900727e-04 1.900322251942e-02 0.0 
1.703308145916e-04 1.901445143799e-02 0.0 
2.168259782985e-04 1.902423219858e-02 0.0 
2.697511096546e-04 1.902629562379e-02 0.0 
3.248072449171e-04 1.902718972013e-02 0.0 
3.790003250952e-04 1.902750789577e-02 0.0 
4.304121093442e-04 1.902651867641e-02 0.0 
4.776715489056e-04 1.902311858334e-02 0.0 
5.196699332903e-04 1.901600071059e-02 0.0 
5.554065194761e-04 1.900365637900e-02 0.0 
5.839034723763e-04 1.898433687779e-02 0.0 
6.041584949114e-04 1.895600218289e-02 0.0 
6.151225273510e-04 1.891625624049e-02 0.0 
6.156997987222e-04 1.886228110961e-02 0.0 
6.047662631743e-04 1.879075783344e-02 0.0 
5.811909242200e-04 1.869780914087e-02 0.0 
5.438657738040e-04 1.857884782436e-02 0.0 
4.917368102078e-04 1.842856739235e-02 0.0 
4.238618600620e-04 1.824052803387e-02 0.0 
3.394695129380e-04 1.800751845803e-02 0.0 
2.380505282649e-04 1.772001168526e-02 0.0 
1.195958515715e-04 1.736840966619e-02 0.0 
-1.553572975502e-05 1.693707865371e-02 0.0 
-1.655203821545e-04 1.641472524945e-02 0.0 
-3.290411376869e-04 1.577064385318e-02 0.0 
-4.981023455721e-04 1.498890513033e-02 0.0 
-6.621527460527e-04 1.400528496745e-02 0.0 
-9.397581630380e-04 1.274813253589e-02 0.0 
3.628450179556e-04 1.363965815094e-02 0.0 
3.845366723946e-04 1.452374000806e-02 0.0 
4.207628481033e-04 1.523362355906e-02 0.0 
4.674078732989e-04 1.581119126346e-02 0.0 
5.180524069658e-04 1.628060099326e-02 0.0 
5.667007531550e-04 1.666249238498e-02 0.0 
6.104267373049e-04 1.697188529300e-02 0.0 
6.469535804345e-04 1.722140417280e-02 0.0 
6.751082363008e-04 1.742118774326e-02 0.0 
6.942091339161e-04 1.757977208704e-02 0.0 
7.040988942320e-04 1.770426460793e-02 0.0 
7.048986431025e-04 1.780066077034e-02 0.0 
6.969593529427e-04 1.787402718236e-02 0.0 
6.807734163306e-04 1.792865958228e-02 0.0 
6.569341006180e-04 1.796820059845e-02 0.0 
6.260930842462e-04 1.799573517978e-02 0.0 
5.889359135920e-04 1.801387270402e-02 0.0 
5.461660522034e-04 1.802482465939e-02 0.0 
4.984984931944e-04 1.803047505417e-02 0.0 
4.466574953560e-04 1.803243542829e-02 0.0 
3.913693951333e-04 1.803207445598e-02 0.0 
3.333259374608e-04 1.803048775524e-02 0.0 
2.730622447885e-04 1.802829256529e-02 0.0 
2.106349055780e-04 1.802491325937e-02 0.0 
1.449752889294e-04 1.801691510394e-02 0.0 
7.372732872272e-05 1.800185919866e-02 0.0 
1.059253354978e-03 1.392039778589e-02 0.0 
1.015464707868e-03 1.455191158621e-02 0.0 
9.815327444503e-04 1.506728079776e-02 0.0 
9.582868663002e-04 1.548830346411e-02 0.0 
9.405689316376e-04 1.583032167423e-02 0.0 
9.254945219887e-04 1.610753037759e-02 0.0 
9.103611928469e-04 1.633048257132e-02 0.0 
8.934821776568e-04 1.650851242988e-02 0.0 
8.736513961220e-04 1.664924295608e-02 0.0 
8.501221733947e-04 1.675913868841e-02 0.0 
8.224504396642e-04 1.684362577518e-02 0.0 
7.904424772765e-04 1.690732174625e-02 0.0 
7.540857807400e-04 1.695414296537e-02 0.0 
7.135038389507e-04 1.698741670130e-02 0.0 
6.689178122582e-04 1.700996401709e-02 0.0 
6.206187414928e-04 1.702417619428e-02 0.0 
5.689436572946e-04 1.703208077261e-02 0.0 
5.142526092590e-04 1.703539726900e-02 0.0 
4.568995873224e-04 1.703557132606e-02 0.0 
3.971853865610e-04 1.703376983465e-02 0.0 
3.352796172185e-04 1.703080019745e-02 0.0 
2.711297997481e-04 1.702688895845e-02 0.0 
2.045395549241e-04 1.702131108996e-02 0.0 
1.360591356205e-04 1.701254623227e-02 0.0 
6.784093738548e-05 1.700210691907e-02 0.0 
6.967458370279e-05 1.600188734070e-02 0.0 
1.414317634804e-04 1.600927907837e-02 0.0 
2.133656930118e-04 1.601712607554e-02 0.0 
2.843632915261e-04 1.602350300577e-02 0.0 
3.539896953800e-04 1.602860685866e-02 0.0 
4.221922284127e-04 1.603264366821e-02 0.0 
4.889898271019e-04 1.603527687873e-02 0.0 
5.543602457119e-04 1.603567902981e-02 0.0 
6.182337619740e-04 1.603263997371e-02 0.0 
6.805205808772e-04 1.602462085122e-02 0.0 
7.411426741699e-04 1.600975528155e-02 0.0 
8.000641126290e-04 1.598581329564e-02 0.0 
8.573193143115e-04 1.595014207562e-02 0.0 
9.130465632585e-04 1.589959563147e-02 0.0 
9.675185260546e-04 1.583044759997e-02 0.0 
1.021195948026e-03 1.573829934541e-02 0.0 
1.074752680659e-03 1.561793910643e-02 0.0 
1.129191564334e-03 1.546326098264e-02 0.0 
1.185757272588e-03 1.526689217124e-02 0.0 
1.246297022412e-03 1.502028958828e-02 0.0 
1.312746197432e-03 1.471239079913e-02 0.0 
1.388589917366e-03 1.433261205733e-02 0.0 
1.472115473913e-03 1.386466606432e-02 0.0 
1.702110056209e-03 1.352710174385e-02 0.0 
1.595496898683e-03 1.386288803593e-02 0.0 
1.494969605766e-03 1.413437492184e-02 0.0 
1.402349224675e-03 1.435339835140e-02 0.0 
1.315668812834e-03 1.452769826629e-02 0.0 
1.233787275838e-03 1.466524365237e-02 0.0 
1.155427815854e-03 1.477209142081e-02 0.0 
1.079670196857e-03 1.485376050988e-02 0.0 
1.005744924709e-03 1.491481739306e-02 0.0 
9.330758417056e-04 1.495921159372e-02 0.0 
8.612198522754e-04 1.499026964895e-02 0.0 
7.898513436509e-04 1.501082196750e-02 0.0 
7.187263413202e-04 1.502324945407e-02 0.0 
6.476622573839e-04 1.502955173025e-02 0.0 
5.765157235797e-04 1.503139082002e-02 0.0 
5.051603261264e-04 1.503011897769e-02 0.0 
4.334697386349e-04 1.502678029350e-02 0.0 
3.613233701307e-04 1.502209835279e-02 0.0 
2.886777230281e-04 1.501649161399e-02 0.0 
2.157357069664e-04 1.501020478415e-02 0.0 
1.430984530557e-04 1.500372083671e-02 0.0 
7.140914399515e-05 1.499819962112e-02 0.0 
7.571523401808e-05 1.399279227222e-02 0.0 
1.522895072635e-04 1.399664682317e-02 0.0 
2.296299188123e-04 1.400223050993e-02 0.0 
3.075567061017e-04 1.400817477329e-02 0.0 
3.859154770034e-04 1.401375465233e-02 0.0 
4.647093850302e-04 1.401844078802e-02 0.0 
5.440728265851e-04 1.402161000125e-02 0.0 
6.242191723005e-04 1.402239976563e-02 0.0 
7.054046037162e-04 1.401964110075e-02 0.0 
7.879164762613e-04 1.401184455148e-02 0.0 
8.720870945699e-04 1.399717874223e-02 0.0 
9.583016938023e-04 1.397343401620e-02 0.0 
1.047006055207e-03 1.393797695485e-02 0.0 
1.138709696379e-03 1.388765260841e-02 0.0 
1.234059302554e-03 1.381876149197e-02 0.0 
1.333759236952e-03 1.372687516484e-02 0.0 
1.438782681545e-03 1.360698157711e-02 0.0 
1.549959046356e-03 1.345277159436e-02 0.0 
1.668711483781e-03 1.325825934736e-02 0.0 
1.793659300837e-03 1.301452875587e-02 0.0 
1.792154389849e-03 1.234235706973e-02 0.0 
1.661527955288e-03 1.251115040732e-02 0.0 
1.536384579687e-03 1.264477961507e-02 0.0 
1.418185941827e-03 1.274961256164e-02 0.0 
1.305908195979e-03 1.282993645268e-02 0.0 
1.199034640348e-03 1.289044409307e-02 0.0 
1.096871661555e-03 1.293470186295e-02 0.0 
9.989014379606e-04 1.296599912497e-02 0.0 
9.045981544861e-04 1.298700218481e-02 0.0 
8.134700036214e-04 1.299998312749e-02 0.0 
7.250526038124e-04 1.300686067307e-02 0.0 
6.389493813543e-04 1.300924581652e-02 0.0 
5.548027899606e-04 1.300844135520e-02 0.0 
4.722684006758e-04 1.300548146748e-02 0.0 
3.910830566716e-04 1.300118186632e-02 0.0 
3.110479598465e-04 1.299619179296e-02 0.0 
2.320567790374e-04 1.299111720163e-02 0.0 
1.540770480553e-04 1.298663878858e-02 0.0 
7.694097072430e-05 1.298327920706e-02 0.0 
8.100716918555e-05 1.197243374054e-02 0.0 
1.625522465268e-04 1.197484876502e-02 0.0 
2.450852830208e-04 1.197866783097e-02 0.0 
3.288917580676e-04 1.198311173868e-02 0.0 
4.142526820049e-04 1.198741310783e-02 0.0 
5.015179788728e-04 1.199087565419e-02 0.0 
5.909555600256e-04 1.199281495247e-02 0.0 
6.830338865435e-04 1.199220751734e-02 0.0 
7.781816495195e-04 1.198795628278e-02 0.0 
8.768234798744e-04 1.197862023840e-02 0.0 
9.795080483417e-04 1.196234728940e-02 0.0 
1.086812489220e-03 1.193706146995e-02 0.0 
1.199307503136e-03 1.190028885625e-02 0.0 
1.317556408560e-03 1.184920454748e-02 0.0 
1.441959800387e-03 1.177998972630e-02 0.0 
1.573223743035e-03 1.168919996384e-02 0.0 
1.710480859405e-03 1.157134513456e-02 0.0 
1.582503326979e-03 1.071248648574e-02 0.0 
1.450229514830e-03 1.078926190898e-02 0.0 
1.323048057532e-03 1.084782380169e-02 0.0 
1.202415402640e-03 1.089186737401e-02 0.0 
1.087709610114e-03 1.092386394234e-02 0.0 
9.785384084895e-04 1.094614292899e-02 0.0 
8.742987020146e-04 1.096066476460e-02 0.0 
7.744365910236e-04 1.096915916298e-02 0.0 
6.784748883458e-04 1.097338230325e-02 0.0 
5.860706347186e-04 1.097448301427e-02 0.0 
4.965808000753e-04 1.097314984185e-02 0.0 
4.097152351797e-04 1.097067937680e-02 0.0 
3.250121999301e-04 1.096733078367e-02 0.0 
2.420923152617e-04 1.096383990979e-02 0.0 
1.606615014334e-04 1.096096229920e-02 0.0 
8.022533506273e-05 1.095895277294e-02 0.0 
-1.707893551500e-03 9.225122672628e-03 0.0 
-1.446109630773e-04 1.185780914573e-02 0.0 
8.118318403863e-04 1.289378643727e-02 0.0 
1.385701991361e-03 1.325712942002e-02 0.0 
1.722934360047e-03 1.323204338864e-02 0.0 
1.893417073935e-03 1.293502536780e-02 0.0 
1.943818546012e-03 1.243822739146e-02 0.0 
1.903800362000e-03 1.178885286472e-02 0.0 
1.796991011138e-03 1.102579401596e-02 0.0 
1.640055032378e-03 1.017970857752e-02 0.0 
8.918154991037e-04 1.106515131601e-02 0.0 
5.437536067334e-04 2.753593709417e-04 0.0 
-1.672787819229e-04 7.444141120005e-05 0.0 
-6.528629829951e-04 2.212971824962e-03 0.0 
3.964068298075e-04 1.413902516563e-04 0.0 
1.883684456857e-03 1.238714565575e-02 0.0 
1.474927790205e-04 -3.846297228546e-04 0.0 
5.978457992976e-04 4.161065706754e-04 0.0 
2.157314283671e-03 1.201622747570e-02 0.0 
5.507939537535e-04 5.404351921977e-04 0.0 
2.031906528234e-03 1.086856777069e-02 0.0 
2.346861723367e-04 7.153814063996e-05 0.0 
-2.894039077992e-06 -6.195287417149e-04 0.0 
4.625689876839e-04 6.640560412796e-04 0.0 
1.675009599752e-03 9.253190633788e-03 0.0 
1.040879509283e-04 -7.075417387359e-04 0.0 
1.508078973736e-04 -1.530434276218e-04 0.0 
3.906061006015e-04 7.566056707728e-04 0.0 
2.579453551159e-04 7.740669427233e-04 0.0 
7.496220772332e-05 8.185109292694e-04 0.0 
1.372436248221e-04 8.812502287806e-04 0.0 
1.816027579778e-04 7.774646434477e-04 0.0 
1.341791819227e-03 8.921479435821e-03 0.0 
8.654839398247e-04 9.017942877516e-03 0.0 
5.611273759270e-04 9.009301663009e-03 0.0 
5.225803941722e-05 5.382581348147e-03 0.0 
1.469182315704e-04 4.922320501911e-05 0.0 
-9.957706445385e-04 5.072687171312e-03 0.0 
2.454123770804e-05 -8.351860042635e-04 0.0 
1.037077034963e-04 2.377194950193e-05 0.0 
2.859188030343e-04 9.074294479237e-03 0.0 
5.830212550964e-05 -8.637428559205e-04 0.0 
3.602014690799e-04 8.716535246069e-04 0.0 
5.382225990238e-04 4.430930939077e-04 0.0 
5.057149600438e-04 5.986068256090e-04 0.0 
6.162502873533e-04 3.674849152377e-04 0.0 
4.683401441118e-04 2.039104520289e-04 0.0 
-4.076146720456e-04 1.097514516242e-03 0.0 
1.092785323438e-03 9.041328579916e-03 0.0 
3.705069879379e-04 1.183553280033e-04 0.0 
3.912517908186e-05 3.448303259303e-03 0.0 
-6.176598622894e-05 -3.393310215883e-04 0.0 
1.335355969293e-04 -5.582605284182e-04 0.0 
3.808626172865e-05 6.654517542632e-04 0.0 
2.096289036571e-03 1.228845551065e-02 0.0 
1.507210432117e-03 1.205749147549e-02 0.0 
2.132462489342e-03 1.152077327704e-02 0.0 
1.874280544398e-03 1.010353739252e-02 0.0 
-3.039550539625e-04 8.867142769483e-03 0.0 
6.426790804982e-05 7.290946394243e-03 0.0 
6.704713495838e-05 3.118400444976e-05 0.0 
1.312066691258e-05 -9.014569503424e-04 0.0 
2.121868441446e-05 1.517223797307e-03 0.0 
1.586978571782e-03 8.788474120673e-03 0.0 
1.685564698083e-03 8.312951224304e-03 0.0 
1.535750789709e-03 7.924040089365e-03 0.0 
1.651315869004e-03 7.380420046828e-03 0.0 
1.505808888840e-03 6.908271254964e-03 0.0 
1.589591852241e-03 6.427160319606e-03 0.0 
1.751337846985e-03 6.877449071030e-03 0.0 
1.665912741345e-03 5.941118422204e-03 0.0 
1.842027801520e-03 6.377481902902e-03 0.0 
1.426157186218e-03 5.951018233666e-03 0.0 
1.729975262124e-03 5.451962870172e-03 0.0 
1.920554674754e-03 5.872315741886e-03 0.0 
1.779776143889e-03 4.963474267348e-03 0.0 
1.983420333347e-03 5.364044160262e-03 0.0 
2.108209191135e-03 6.270540659637e-03 0.0 
2.184218525448e-03 5.743567923021e-03 0.0 
2.289934946796e-03 6.640215534887e-03 0.0 
2.378682787201e-03 6.090519037646e-03 0.0 
2.241207684108e-03 5.219078412837e-03 0.0 
2.447057383570e-03 5.543085970003e-03 0.0 
2.564328883425e-03 6.401491601911e-03 0.0 
2.642587693579e-03 5.827526232961e-03 0.0 
2.738362059666e-03 6.669893760147e-03 0.0 
2.824820142996e-03 6.064048010070e-03 0.0 
2.899567050780e-03 6.891342248219e-03 0.0 
2.991818698734e-03 6.250050843227e-03 0.0 
2.883648432787e-03 5.464437915845e-03 0.0 
3.054138960236e-03 5.618706111569e-03 0.0 
3.139476740146e-03 6.378414095095e-03 0.0 
3.202873746754e-03 5.712719179815e-03 0.0 
3.264466265007e-03 6.442820335194e-03 0.0 
3.325898945019e-03 5.740088640635e-03 0.0 
3.230296747937e-03 5.066043875695e-03 0.0 
3.348507159608e-03 5.063499849323e-03 0.0 
3.418981544042e-03 5.696165973760e-03 0.0 
3.432941482014e-03 4.991454457360e-03 0.0 
3.476596527859e-03 5.576053776710e-03 0.0 
3.478530962736e-03 4.846983392487e-03 0.0 
3.493009281732e-03 5.375263154680e-03 0.0 
3.480000551305e-03 4.627785964598e-03 0.0 
3.438601777453e-03 4.167085401987e-03 0.0 
3.425652276735e-03 3.938941957080e-03 0.0 
3.431514164541e-03 4.337107222228e-03 0.0 
3.362636216224e-03 3.651408578137e-03 0.0 
3.334932438536e-03 3.319845721162e-03 0.0 
3.260594457131e-03 3.045139308427e-03 0.0 
3.213224914047e-03 2.771417693023e-03 0.0 
3.131119285878e-03 2.515178566782e-03 0.0 
3.137978146614e-03 2.730973226028e-03 0.0 
3.003835126125e-03 2.227114679568e-03 0.0 
2.979443287914e-03 2.057302647745e-03 0.0 
2.850719295655e-03 1.797282112920e-03 0.0 
2.834187153823e-03 1.917622596170e-03 0.0 
2.684951410662e-03 1.522224278163e-03 0.0 
2.683425558657e-03 1.434858656614e-03 0.0 
2.522596030037e-03 1.191083106168e-03 0.0 
2.487705771043e-03 1.241445262142e-03 0.0 
2.334763463959e-03 9.450732902310e-04 0.0 
2.351472908739e-03 9.178803346769e-04 0.0 
2.172638772666e-03 7.018002010092e-04 0.0 
2.125569295295e-03 7.028503448472e-04 0.0 
1.976460060474e-03 4.912951944980e-04 0.0 
2.004242294634e-03 5.056158477579e-04 0.0 
1.819536688364e-03 3.213531710148e-04 0.0 
1.829756548350e-03 3.487249982977e-04 0.0 
1.765341404102e-03 2.873647784683e-04 0.0 
1.623485423096e-03 1.448848443737e-04 0.0 
1.547645217874e-03 9.634252875497e-05 0.0 
1.422016475087e-03 -2.042998475232e-05 0.0 
3.220529632853e-03 4.446721522848e-03 0.0 
1.333016904749e-03 -7.666612285382e-05 0.0 
1.435673908818e-03 4.916519763496e-05 0.0 
1.221447288176e-03 -1.718799639465e-04 0.0 
1.287155010490e-03 -1.093033617758e-04 0.0 
1.124022047050e-03 -2.327182501421e-04 0.0 
1.026075252201e-03 -3.085635651203e-04 0.0 
9.256557517921e-04 -3.707561017929e-04 0.0 
3.459003770479e-03 6.198855390216e-03 0.0 
2.275248014244e-03 4.699460254895e-03 0.0 
8.402649697545e-04 -4.297088096581e-04 0.0 
7.421438159590e-04 -4.906568693113e-04 0.0 
8.006032933717e-04 -4.257948647722e-04 0.0 
6.245377445914e-04 -5.425158268318e-04 0.0 
1.353208524197e-03 6.432269583163e-03 0.0 
1.261674353042e-03 5.462786703572e-03 0.0 
1.202009745598e-03 5.942122944595e-03 0.0 
1.098351281849e-03 4.969045074383e-03 0.0 
1.051278876147e-03 5.437349188501e-03 0.0 
5.761590866416e-04 -5.931433866079e-04 0.0 
1.574798141652e-03 4.518748387096e-03 0.0 
1.134387433247e-03 4.494968383987e-03 0.0 
2.628057701593e-03 7.277577571349e-03 0.0 
3.166265268390e-03 7.161586259509e-03 0.0 
3.248104658697e-03 2.985606914218e-03 0.0 
9.163368543842e-04 -3.621818085757e-04 0.0 
7.415072920474e-04 -4.690756565471e-04 0.0 
7.960881511830e-04 -3.967293856522e-04 0.0 
1.986240159539e-03 5.122690623194e-04 0.0 
1.796573738024e-03 3.678127908145e-04 0.0 
1.921848494963e-03 5.087098949845e-04 0.0 
1.720446691455e-03 3.768441820446e-04 0.0 
1.811624138532e-03 4.935270365083e-04 0.0 
1.601975881145e-03 3.742149779766e-04 0.0 
1.519455701861e-03 2.740128174666e-04 0.0 
1.395372360454e-03 2.814747571316e-04 0.0 
1.321007987508e-03 1.957263612431e-04 0.0 
1.656153963539e-03 4.652188614622e-04 0.0 
1.873608603361e-03 6.003158295680e-04 0.0 
1.194178002833e-03 2.108656403830e-04 0.0 
1.127216499725e-03 1.378117971023e-04 0.0 
1.000692852193e-03 1.582760998432e-04 0.0 
9.403349769967e-04 9.666490247869e-05 0.0 
1.036841116479e-03 5.926069648142e-05 0.0 
8.564098356409e-04 2.955854932042e-05 0.0 
9.272754658256e-04 -2.194469905165e-05 0.0 
3.107322907425e-03 2.490707028352e-03 0.0 
3.103336371741e-03 2.648330128409e-03 0.0 
2.943841622547e-03 2.203964780294e-03 0.0 
2.900597000440e-03 2.307567996575e-03 0.0 
2.722603334064e-03 1.911469076940e-03 0.0 
2.639262437651e-03 1.963848527995e-03 0.0 
2.442477455960e-03 1.613632178557e-03 0.0 
2.524603644715e-03 1.567503450581e-03 0.0 
1.814535461358e-03 4.471513434096e-03 0.0 
3.328368279258e-03 3.979231920810e-03 0.0 
3.373899230042e-03 4.736580363988e-03 0.0 
3.227301823845e-03 4.302507154253e-03 0.0 
3.247240303044e-03 5.134258775339e-03 0.0 
3.052106428184e-03 4.615563145938e-03 0.0 
3.043064000328e-03 5.530794947286e-03 0.0 
2.791053725785e-03 4.918095318976e-03 0.0 
2.790338691715e-03 4.041858801603e-03 0.0 
2.465158103813e-03 4.253322496074e-03 0.0 
2.467345801737e-03 3.442724587388e-03 0.0 
2.078287169976e-03 3.574150705615e-03 0.0 
2.096884524465e-03 2.849665047066e-03 0.0 
2.911747481735e-03 4.878458897852e-03 0.0 
2.813440468256e-03 2.363567201774e-03 0.0 
2.512966755341e-03 1.969781645642e-03 0.0 
2.684076745193e-03 2.367367294555e-03 0.0 
6.540989933803e-04 -4.711727952083e-04 0.0 
7.623515549420e-04 6.920135899936e-05 0.0 
1.677514107443e-03 5.425819485052e-04 0.0 
1.903016434958e-03 6.923768254292e-04 0.0 
2.228138436993e-03 1.310753611453e-03 0.0 
4.701994182457e-04 -6.401902159771e-04 0.0 
2.748639115531e-03 5.927605364809e-03 0.0 
2.980475602558e-03 6.559002598421e-03 0.0 
9.394312816292e-04 4.461184344796e-03 0.0 
9.047054024915e-04 4.923139391863e-03 0.0 
1.662058651059e-03 6.016091628018e-04 0.0 
4.296115032942e-04 -6.794760324930e-04 0.0 
1.233314875074e-03 2.750446142850e-04 0.0 
2.026247977065e-03 4.443590254572e-03 0.0 
6.835934606144e-04 1.240922296229e-05 0.0 
5.952493811249e-04 5.271937545926e-05 0.0 
1.413344362551e-03 1.687610650578e-04 0.0 
2.345294806729e-03 1.926298937944e-03 0.0 
2.520969729067e-03 2.324859072527e-03 0.0 
2.443930759710e-03 2.759302695926e-03 0.0 
2.092628085560e-03 2.243372422365e-03 0.0 
1.700871613602e-03 2.288746347053e-03 0.0 
1.734629599472e-03 1.746718809996e-03 0.0 
2.068863704215e-03 1.732615147014e-03 0.0 
1.731005036154e-03 1.315581277035e-03 0.0 
1.374824928959e-03 1.309313582593e-03 0.0 
1.400038912815e-03 9.402098887710e-04 0.0 
1.709590053343e-03 9.526600447485e-04 0.0 
1.405187242313e-03 6.303476598795e-04 0.0 
1.088215699939e-03 6.121350579800e-04 0.0 
1.119514152022e-03 3.483608230667e-04 0.0 
6.459618682099e-04 9.426452885259e-05 0.0 
1.568139383371e-03 3.684068558164e-03 0.0 
2.184424962993e-03 7.186265825482e-03 0.0 
1.433738588530e-03 4.698442095815e-04 0.0 
2.106905976520e-03 1.316068457078e-03 0.0 
7.869216147958e-04 3.945700961734e-03 0.0 
7.637995076240e-04 4.401730146516e-03 0.0 
8.602519879868e-04 5.389778471822e-03 0.0 
7.300734825869e-04 4.860062812529e-03 0.0 
6.302457392347e-04 3.874556449983e-03 0.0 
6.068720878956e-04 4.327878739348e-03 0.0 
6.876748521592e-04 5.320499920827e-03 0.0 
5.738486974944e-04 4.782593878136e-03 0.0 
6.380034449504e-04 5.781015157182e-03 0.0 
5.326792684221e-04 5.237630961791e-03 0.0 
4.673889313872e-04 4.242515046966e-03 0.0 
4.340939341201e-04 4.694014863353e-03 0.0 
4.848046151496e-04 5.693306415286e-03 0.0 
3.932575918886e-04 5.146193966640e-03 0.0 
4.314068889598e-04 6.148549907184e-03 0.0 
3.459807656305e-04 5.598534911904e-03 0.0 
3.087428673434e-04 4.599661487050e-03 0.0 
3.438028999554e-04 -7.185503816075e-04 0.0 
2.311415992799e-03 1.273056509016e-03 0.0 
2.000527485384e-03 1.052611397723e-03 0.0 
6.355989796997e-04 -4.896789726507e-04 0.0 
6.722642937767e-04 -4.127003620926e-04 0.0 
8.308703131611e-04 -3.204912649638e-04 0.0 
6.860001665725e-04 -3.352378610980e-04 0.0 
2.658968873425e-04 5.053895300506e-03 0.0 
2.323356732568e-04 4.055269642670e-03 0.0 
2.650154173849e-03 7.065935700460e-03 0.0 
2.853557961060e-03 7.687752026683e-03 0.0 
7.973484358391e-04 3.492211938941e-03 0.0 
5.201906509909e-04 5.024513335253e-06 0.0 
5.850572679805e-04 -4.776728947157e-05 0.0 
3.266793324773e-03 7.194909127417e-03 0.0 
3.133971316024e-03 7.964430110011e-03 0.0 
3.207575098074e-03 7.971586357596e-03 0.0 
3.037552045939e-03 8.806421820451e-03 0.0 
2.969953381294e-03 8.733316734185e-03 0.0 
3.080010742303e-03 8.791558885860e-03 0.0 
2.093353291472e-03 7.688333739604e-04 0.0 
3.695324707964e-04 3.702425302361e-03 0.0 
8.412706218903e-04 -3.374724246887e-04 0.0 
6.618701902362e-04 -3.768637570823e-04 0.0 
4.411304077606e-04 4.384189213414e-05 0.0 
2.563245857927e-03 1.483190815459e-03 0.0 
2.717989985820e-03 4.696812213504e-03 0.0 
2.710934183153e-03 4.152914461801e-03 0.0 
2.493082054726e-03 3.943585415502e-03 0.0 
2.450013248451e-03 3.442119893130e-03 0.0 
2.207583189746e-03 3.205020008595e-03 0.0 
2.125640750770e-03 2.746231654839e-03 0.0 
2.374572918069e-03 2.965861901338e-03 0.0 
2.137292453277e-03 1.829923363617e-03 0.0 
2.010568087263e-03 2.313515342330e-03 0.0 
2.979669217433e-04 6.060079343735e-03 0.0 
2.963447335318e-03 2.815351884230e-03 0.0 
1.668828427665e-03 6.527860647369e-04 0.0 
3.610062877519e-04 -6.708399151012e-04 0.0 
7.995274445731e-04 3.312969075856e-04 0.0 
3.048421840604e-04 -7.489821361967e-04 0.0 
3.714184997416e-04 -7.015356113843e-04 0.0 
1.371324778034e-03 4.961446604169e-04 0.0 
1.858776605004e-03 2.481357224179e-03 0.0 
1.950226595405e-03 2.924008926408e-03 0.0 
2.836826917648e-03 9.626436493856e-03 0.0 
2.781079801174e-03 9.487557208615e-03 0.0 
1.940754050850e-03 1.486751512926e-03 0.0 
1.133442048165e-03 6.429914925748e-03 0.0 
7.487871758322e-04 6.323019586133e-03 0.0 
6.845897839620e-04 6.787386049003e-03 0.0 
2.337235056501e-04 -7.815064905204e-04 0.0 
7.337404031062e-04 6.063897085836e-04 0.0 
5.060181456229e-04 3.344981860131e-03 0.0 
3.131083495319e-03 7.086250482014e-03 0.0 
2.982173509987e-03 8.167277986146e-03 0.0 
1.446423808007e-03 4.604929572944e-03 0.0 
9.111977365890e-04 3.772581923274e-03 0.0 
1.966916109837e-04 4.495931531456e-03 0.0 
1.663589582534e-04 3.511109016602e-03 0.0 
8.428513915747e-04 -2.443124535944e-04 0.0 
6.860452501836e-04 -2.561669983667e-04 0.0 
1.605880676266e-03 6.377729895348e-04 0.0 
8.609352469608e-04 1.049349351581e-04 0.0 
1.895573015835e-04 3.066670820907e-03 0.0 
2.350756005717e-03 1.199422726281e-03 0.0 
2.558739668983e-03 1.364913253633e-03 0.0 
5.290864328244e-04 -4.194393603254e-04 0.0 
2.476255027888e-03 8.316077870921e-03 0.0 
2.210324074294e-03 7.584695810535e-03 0.0 
1.957761094421e-03 9.617328229449e-04 0.0 
1.124368234915e-03 1.323988050021e-04 0.0 
2.514513273467e-04 -7.635946640475e-04 0.0 
1.265075094836e-03 4.966459744827e-04 0.0 
5.080963414049e-04 2.899281035316e-03 0.0 
2.264423947197e-03 2.521479160236e-03 0.0 
2.599793941773e-03 3.140262986252e-03 0.0 
1.863464354803e-03 1.912727408012e-03 0.0 
5.675904773065e-04 9.087823164124e-05 0.0 
1.141848406824e-03 3.805214627878e-04 0.0 
3.684657970919e-04 5.140613301011e-06 0.0 
1.593172222342e-03 2.211145031928e-03 0.0 
1.680123485993e-03 2.605909308436e-03 0.0 
3.215852652715e-03 7.494280216416e-03 0.0 
3.056742733154e-03 8.507122281989e-03 0.0 
2.771897584732e-03 9.280861284159e-03 0.0 
2.841900487821e-03 9.533011916294e-03 0.0 
1.910102894429e-03 7.314245788211e-03 0.0 
3.251158856127e-03 7.778763795959e-03 0.0 
2.345614494385e-03 7.547460488415e-03 0.0 
2.215442542144e-03 8.108425954057e-03 0.0 
2.353228663258e-03 8.462194823456e-03 0.0 
2.879809312438e-03 8.604561564351e-03 0.0 
2.699960564328e-03 9.303909285646e-03 0.0 
3.375113421939e-03 5.582629823603e-03 0.0 
3.236333146712e-03 3.151884166159e-03 0.0 
9.963194928400e-04 -2.176645866289e-04 0.0 
1.106317707574e-03 1.117208394165e-05 0.0 
2.121510282071e-03 6.748283424696e-04 0.0 
3.862329754789e-04 3.256147889050e-03 0.0 
2.912400171106e-04 2.719771972448e-03 0.0 
5.220801365951e-04 6.699088723907e-03 0.0 
4.580827591237e-04 7.156530414070e-03 0.0 
4.911477851286e-04 -5.044319997420e-04 0.0 
4.670790871120e-04 -4.011688207898e-04 0.0 
1.651181383951e-03 2.257118370248e-04 0.0 
1.211169894864e-03 3.643398808342e-04 0.0 
6.413944344270e-04 2.977694592091e-03 0.0 
6.245694449092e-04 2.533535269490e-03 0.0 
7.927090845420e-04 3.040696276553e-03 0.0 
1.505465038341e-03 6.465777682684e-04 0.0 
3.169801986802e-03 3.570938808284e-03 0.0 
2.942856453995e-03 2.058661325989e-03 0.0 
1.091371557304e-03 2.993099122710e-03 0.0 
3.077850753894e-03 4.410926715271e-03 0.0 
3.182409362127e-04 -5.228575093623e-04 0.0 
2.052152355143e-03 4.366226586093e-03 0.0 
3.027077273238e-04 4.117677448682e-05 0.0 
3.487322246739e-04 6.580898333705e-05 0.0 
1.694094073421e-03 1.351184955025e-03 0.0 
1.808718649195e-03 8.757116769957e-03 0.0 
3.035728859711e-03 3.845855347303e-03 0.0 
3.174263954649e-03 3.865033540212e-03 0.0 
2.203264408165e-03 9.031127330118e-03 0.0 
2.316007215437e-03 9.378765976363e-03 0.0 
2.479063241635e-03 8.780785670249e-03 0.0 
2.414592187246e-03 9.698542688002e-03 0.0 
1.877033830412e-03 6.753168626651e-04 0.0 
1.609286824900e-03 4.089576911280e-04 0.0 
1.427702401788e-03 1.753256230578e-03 0.0 
1.593887805010e-03 1.693905039955e-03 0.0 
1.316064435431e-03 1.890420437093e-03 0.0 
1.403105995809e-03 2.250163451894e-03 0.0 
1.467623982076e-03 1.050590946729e-03 0.0 
1.720531724884e-03 1.181939685833e-03 0.0 
2.967416787158e-04 -7.097044052658e-04 0.0 
2.578655209719e-03 1.020166037854e-02 0.0 
3.850775713153e-04 2.371814220470e-03 0.0 
2.079822518314e-03 8.660300135212e-03 0.0 
9.286366088439e-04 2.897835813327e-04 0.0 
9.985177041146e-04 2.789798094351e-04 0.0 
3.984929159641e-04 3.055471658606e-03 0.0 
6.295389562677e-04 2.304404586843e-03 0.0 
1.291952613583e-04 2.548178845951e-03 0.0 
2.515521581584e-03 1.036260577638e-02 0.0 
2.588347449015e-03 1.052762676084e-02 0.0 
2.401438487688e-03 1.006134803658e-02 0.0 
4.650896701012e-05 4.855534238310e-05 0.0 
1.232496352716e-04 9.084735122998e-03 0.0 
2.270657684040e-04 5.898176684169e-05 0.0 
2.765401227634e-03 8.411106555976e-03 0.0 
1.383119162986e-04 2.070106224031e-03 0.0 
2.958569843356e-03 3.323873575069e-03 0.0 
3.339554658720e-03 7.164142278376e-03 0.0 
1.842339029053e-03 8.118464696352e-04 0.0 
1.060914593368e-04 3.070433274937e-03 0.0 
7.757774771106e-05 1.990615150890e-03 0.0 
7.884719031876e-04 7.315878295937e-03 0.0 
7.145373016931e-04 7.799640203264e-03 0.0 
8.638309121435e-04 6.861579229624e-03 0.0 
1.946035164135e-03 5.485300404043e-03 0.0 
1.234016526317e-03 5.879267128191e-03 0.0 
2.814426331132e-04 3.162893128690e-03 0.0 
5.789558580317e-04 -5.624005769982e-04 0.0 
4.734056806031e-04 -5.691907752937e-04 0.0 
8.755618592611e-04 -7.598825252254e-05 0.0 
1.100267997490e-03 -4.202532341614e-05 0.0 
9.985841230926e-04 -1.468435991861e-04 0.0 
1.161495159250e-03 -1.066654657849e-04 0.0 
2.047872012389e-03 3.870908909892e-03 0.0 
1.808132129038e-03 3.530057956656e-03 0.0 
2.505918087668e-03 4.468000746108e-03 0.0 
2.347677857522e-03 1.095997614790e-03 0.0 
2.513124230041e-03 1.219534101120e-03 0.0 
2.712218541002e-03 1.521425852182e-03 0.0 
2.931456778169e-04 2.310382636849e-03 0.0 
1.950385935006e-04 1.698614965191e-03 0.0 
2.142813675786e-03 9.692769172615e-04 0.0 
2.243136812200e-03 1.300905603364e-03 0.0 
1.778942440189e-03 4.416423210615e-04 0.0 
3.664807514461e-04 1.951309172805e-03 0.0 
2.496438172011e-04 6.841641268048e-05 0.0 
3.698337184530e-04 8.423062654364e-05 0.0 
2.678685379529e-04 -4.128917717541e-04 0.0 
4.223206068291e-04 -2.674316772331e-04 0.0 
1.987370498687e-03 8.956993288080e-03 0.0 
1.625061598248e-03 8.117230920312e-03 0.0 
5.986348832399e-04 2.130144362516e-03 0.0 
7.725181800301e-04 2.600908932402e-03 0.0 
4.222198175983e-04 1.589935844278e-03 0.0 
1.783784159472e-04 -7.680337443381e-04 0.0 
2.484158383250e-03 2.676973826578e-03 0.0 
1.139661545723e-03 4.856706342417e-04 0.0 
1.387868465690e-03 6.422568920948e-04 0.0 
8.489066238007e-04 3.337430848446e-04 0.0 
1.910142784160e-03 1.702039411324e-03 0.0 
1.440823723810e-03 1.188646713706e-03 0.0 
1.388850892226e-03 1.317516686238e-03 0.0 
1.205434094947e-04 3.827724415695e-03 0.0 
5.859549279153e-05 2.393831008441e-03 0.0 
5.465508100003e-04 7.711016841466e-03 0.0 
-2.667071038108e-04 3.210330246595e-03 0.0 
4.729020209345e-04 8.205783370872e-03 0.0 
3.930372177085e-04 7.620405040967e-03 0.0 
4.095190502160e-04 8.695400413299e-03 0.0 
1.515249085725e-04 -8.125671043372e-04 0.0 
9.048591629532e-04 8.025466016528e-03 0.0 
9.902600219215e-04 7.436861672046e-03 0.0 
1.459589793898e-04 -2.680236447361e-04 0.0 
2.474018168626e-04 1.438301715856e-03 0.0 
1.591643574035e-04 -5.202684594301e-04 0.0 
2.103628634948e-04 -6.139844471318e-04 0.0 
7.206835516610e-04 2.123778505069e-04 0.0 
7.975566431173e-04 2.123777108635e-04 0.0 
5.323644012247e-04 1.551326960493e-04 0.0 
6.262170792539e-04 1.646893249794e-04 0.0 
8.411241319339e-04 1.961207536911e-04 0.0 
6.607521262859e-04 1.509285731801e-04 0.0 
6.441800966617e-04 8.352707255440e-03 0.0 
4.334131373739e-04 1.169018192575e-04 0.0 
4.939745163860e-04 1.164053522028e-04 0.0 
2.893344419673e-04 7.999815138137e-05 0.0 
2.228930628250e-03 1.029296304987e-02 0.0 
2.861951204184e-03 9.694193308576e-03 0.0 
2.615949284471e-03 1.062021602585e-02 0.0 
2.297569095931e-03 1.152781028935e-02 0.0 
9.417573425120e-04 1.379692999974e-03 0.0 
1.143170696200e-03 1.905654282972e-03 0.0 
2.299454216911e-04 1.124391903693e-05 0.0 
2.636717622306e-04 -3.685364947621e-05 0.0 
3.255634804853e-04 8.158541546693e-03 0.0 
2.378253717442e-04 8.201019024867e-03 0.0 
2.577437352064e-04 7.276822338176e-03 0.0 
1.862710745322e-04 7.388181264163e-03 0.0 
1.993623186648e-04 6.483853842744e-03 0.0 
1.285833497164e-04 6.599144997570e-03 0.0 
1.506579664471e-04 5.696561235017e-03 0.0 
1.084576766776e-03 1.079933538909e-03 0.0 
2.087952922508e-03 1.117792451234e-02 0.0 
2.047629045343e-03 9.593041678721e-03 0.0 
1.218994683437e-03 7.857778735159e-04 0.0 
1.520782818863e-03 9.504112471086e-04 0.0 
2.509310884071e-03 9.973466074626e-03 0.0 
2.366473509026e-03 1.090312076353e-02 0.0 
7.582199640543e-04 2.578390159925e-04 0.0 
3.370954921836e-03 6.848979351794e-03 0.0 
1.841813939380e-04 9.078882958895e-04 0.0 
-1.065742102377e-03 6.402732160774e-03 0.0 
1.328147971653e-04 5.782658731250e-03 0.0 
3.374183056959e-03 7.075373918433e-03 0.0 
2.595006852341e-03 9.064047259633e-03 0.0 
2.861750177159e-03 9.717376392509e-03 0.0 
2.637675885610e-03 1.052452107417e-02 0.0 
2.127193057403e-03 9.615225377621e-04 0.0 
3.417129464695e-04 -1.007572510844e-04 0.0 
2.233527116983e-03 9.599166320683e-03 0.0 
2.192794862275e-04 5.596686634070e-03 0.0 
1.667055372169e-03 1.030813933731e-02 0.0 
1.207959021174e-04 -1.730239149624e-05 0.0 
3.442601144566e-03 5.939917786838e-03 0.0 
2.918035589273e-03 7.740052046377e-03 0.0 
2.658308068815e-03 8.871134073588e-03 0.0 
3.090904854889e-03 8.697521038294e-03 0.0 
2.016618761747e-03 6.796707710435e-03 0.0 
1.798055276018e-03 7.821247192804e-03 0.0 
1.936732004656e-03 8.259872639915e-03 0.0 
3.460733001690e-03 5.102296649719e-03 0.0 
2.623274381946e-03 1.038567233417e-02 0.0 
2.393048141096e-03 1.134641437296e-02 0.0 
2.465022926406e-03 6.978789370043e-03 0.0 
9.708958045552e-04 3.540013394045e-03 0.0 
9.618248106596e-04 3.083977333629e-03 0.0 
7.387381413934e-04 2.192692035828e-03 0.0 
9.344449475857e-04 2.643682418616e-03 0.0 
1.161192740072e-03 3.563330040743e-03 0.0 
1.147000245663e-03 3.107657894485e-03 0.0 
8.866215617058e-04 2.222021649328e-03 0.0 
1.112698716992e-03 2.663330641597e-03 0.0 
7.463508994690e-04 1.631507176862e-03 0.0 
1.044949336579e-03 2.211443762288e-03 0.0 
1.348499865437e-03 3.113810400786e-03 0.0 
1.307181595263e-03 2.684779600957e-03 0.0 
1.000365224310e-03 1.900355954150e-03 0.0 
1.595154375903e-03 3.594536837804e-03 0.0 
9.373432469409e-04 6.282851734630e-04 0.0 
3.430502890888e-03 6.361908133674e-03 0.0 
6.804778117240e-04 4.742030104869e-03 0.0 
7.329518799669e-04 6.968044644683e-03 0.0 
2.778918477808e-03 7.531971290234e-03 0.0 
3.598309905111e-04 7.793632623756e-04 0.0 
2.926710657678e-04 7.887483180904e-04 0.0 
3.217034664998e-03 6.067429127296e-03 0.0 
4.850068704908e-04 6.293250917948e-04 0.0 
2.064132447625e-03 7.726706287683e-03 0.0 
2.426555115227e-03 5.213951207816e-03 0.0 
5.357417453525e-04 5.774691308748e-04 0.0 
1.156299304220e-03 4.024788874690e-03 0.0 
1.346945568411e-03 4.516904816198e-03 0.0 
1.310607037808e-03 4.989912039887e-03 0.0 
2.241484883331e-04 7.487067733243e-04 0.0 
9.342861578023e-04 6.396131357457e-03 0.0 
5.513237855781e-04 4.168356080553e-04 0.0 
3.054238548918e-03 2.757538185123e-03 0.0 
3.182124012511e-03 3.267213153358e-03 0.0 
3.339543585951e-03 3.715495923308e-03 0.0 
1.368930918206e-03 3.584892484298e-03 0.0 
5.561794828288e-04 3.040321753114e-04 0.0 
1.014564329326e-03 5.509845455066e-04 0.0 
9.744946190252e-04 4.880657964996e-04 0.0 
1.437454598788e-03 7.734441485457e-04 0.0 
5.105175114936e-04 2.401054114409e-04 0.0 
3.830874296606e-04 6.682598950402e-04 0.0 
3.914671089417e-04 6.165153569560e-04 0.0 
2.021771102044e-03 1.311561274344e-03 0.0 
2.329423082406e-03 1.701102489308e-03 0.0 
2.514531050367e-03 1.660016134736e-03 0.0 
2.616287135202e-03 2.112976512776e-03 0.0 
2.397068436978e-03 2.184334150339e-03 0.0 
2.697675340835e-03 2.650899534059e-03 0.0 
2.869661729864e-03 2.530363646895e-03 0.0 
2.756245448030e-03 3.290869857227e-03 0.0 
1.496100958096e-03 2.694441618036e-03 0.0 
4.385368116065e-04 1.783072924946e-04 0.0 
2.022024674776e-03 6.440298430120e-04 0.0 
2.230791187997e-03 8.309827784558e-04 0.0 
2.316521448730e-03 8.800416293691e-04 0.0 
1.145027377809e-03 -1.736309087119e-04 0.0 
1.320554635322e-03 -4.746259042447e-05 0.0 
1.321033081039e-03 1.071817350587e-05 0.0 
9.688017078674e-04 -2.905515556841e-04 0.0 
2.671531039757e-03 3.632784374292e-03 0.0 
4.096608535863e-04 1.559187972445e-04 0.0 
2.758636199744e-03 1.685000036039e-03 0.0 
1.474908849120e-03 3.490555360473e-05 0.0 
1.215446627250e-03 8.985527224987e-03 0.0 
1.265862707355e-03 8.094625157819e-03 0.0 
1.389067690222e-03 8.030222786720e-03 0.0 
1.285248063974e-03 7.072946968704e-03 0.0 
1.123883017330e-03 8.014097960569e-03 0.0 
8.337770123297e-04 -1.703441719414e-04 0.0 
6.689758211743e-04 -1.797992928783e-04 0.0 
5.269876664957e-04 -2.553616993508e-04 0.0 
5.057036986017e-04 -1.776754374471e-04 0.0 
3.682221520262e-04 -2.436750885067e-04 0.0 
3.838993343273e-04 -3.239468265894e-04 0.0 
3.424638131910e-04 -1.661979788507e-04 0.0 
2.136506899724e-04 -2.314074937862e-04 0.0 
9.750080757796e-04 9.039623428863e-03 0.0 
-5.098280130932e-04 1.610892438081e-03 0.0 
2.455280533354e-05 1.324614483911e-03 0.0 
3.522125593273e-05 8.639394751557e-04 0.0 
4.265874687931e-04 1.077342037759e-03 0.0 
5.038120313983e-04 1.563705692051e-03 0.0 
9.254678496343e-04 1.303616537887e-03 0.0 
9.651051097705e-04 1.845196226251e-03 0.0 
1.117395219241e-05 1.904727766007e-03 0.0 
-3.147934822754e-04 6.891979575652e-04 0.0 
6.148955542674e-05 4.925366776513e-04 0.0 
-2.342455252848e-04 3.506948091932e-04 0.0 
7.158272035293e-05 1.946471924248e-04 0.0 
4.211201288189e-04 3.277382647266e-04 0.0 
6.549153458482e-04 -2.529700565266e-04 0.0 
1.301727592342e-04 4.850381460588e-05 0.0 
1.423013332168e-04 -4.732925474250e-04 0.0 
2.712233101394e-04 -5.047356519751e-04 0.0 
2.532012808538e-04 -5.838801020022e-04 0.0 
4.042459478372e-04 -5.197855846447e-04 0.0 
2.730977741377e-04 -4.279113694221e-04 0.0 
1.205915296908e-04 -6.368292159301e-04 0.0 
2.280353363683e-04 -6.512260388717e-04 0.0 
2.065289800995e-05 -8.752398472637e-04 0.0 
5.030185212981e-05 -8.834206213915e-04 0.0 
2.123847205634e-05 -9.053002457230e-04 0.0 
6.492321503693e-05 -8.804778025562e-04 0.0 
1.041374033144e-04 -8.557215293077e-04 0.0 
7.260980808639e-05 -8.510634283665e-04 0.0 
9.175741109901e-05 -8.054647496162e-04 0.0 
2.315198215223e-05 -7.797133628595e-04 0.0 
1.073175603034e-04 -7.455625983392e-04 0.0 
1.833584131582e-04 -7.683701217932e-04 0.0 
1.391265254245e-05 -7.099328147669e-04 0.0 
4.803007361358e-05 4.391982201342e-03 0.0 
9.078654568898e-05 3.899993227377e-03 0.0 
3.669966211792e-04 1.236927494772e-04 0.0 
7.507155795067e-04 8.977579284058e-03 0.0 
-1.047354681608e-04 -1.550192919316e-04 0.0 
7.142910051751e-05 9.847959211978e-04 0.0 
1.079227561129e-04 8.138287552509e-04 0.0 
8.691381386926e-05 7.889858587328e-04 0.0 
7.620356149654e-05 4.741392608988e-05 0.0 
1.235729830174e-04 5.413636725303e-05 0.0 
3.937835935029e-05 9.582901117145e-04 0.0 
9.951116407829e-04 -2.899216848759e-04 0.0 
6.859206449610e-04 1.801742204555e-03 0.0 
2.039417895363e-04 2.622592535871e-03 0.0 
2.351901915419e-03 6.321432274866e-03 0.0 
1.348336893572e-03 1.698556895120e-04 0.0 
4.181675475805e-04 -4.616285025254e-05 0.0 
1.223109414928e-03 1.047472626594e-04 0.0 
4.896130476178e-04 7.739099463258e-05 0.0 
7.530147897623e-04 -4.052011009898e-05 0.0 
8.171624535238e-04 1.204211337518e-04 0.0 
9.538914816522e-04 4.370597882119e-04 0.0 
2.052311358001e-04 -8.028216739001e-04 0.0 
5.823286486715e-04 6.240575738025e-03 0.0 
3.768328595099e-04 6.607481451926e-03 0.0 
3.433363675826e-04 4.150701916534e-03 0.0 
6.675945617567e-04 -5.353085228430e-04 0.0 
5.405136450114e-04 -3.313708060959e-04 0.0 
4.927912952889e-04 -5.821813734424e-04 0.0 
9.547657522734e-04 1.147592463528e-03 0.0 
2.494757972009e-03 7.878424999305e-03 0.0 
2.171745633814e-03 6.933584469549e-04 0.0 
1.099587139994e-03 -2.419895327400e-04 0.0 
1.209401412191e-03 -1.311314201923e-04 0.0 
1.388089345813e-03 3.760384314010e-04 0.0 
3.363475095052e-03 6.438712059273e-03 0.0 
1.657549394527e-03 1.884949852291e-04 0.0 
1.441923473479e-03 3.583356286407e-04 0.0 
2.614506077741e-04 3.608450138451e-03 0.0 
-6.423517805218e-06 -5.036300330218e-04 0.0 
1.456092845495e-03 4.227101428488e-04 0.0 
1.605153956408e-03 2.550241083682e-04 0.0 
8.079813551989e-04 5.857928397247e-03 0.0 
2.318238066935e-03 1.618636804815e-03 0.0 
1.041896433944e-03 9.204129172593e-04 0.0 
4.920728792721e-04 3.794077253466e-03 0.0 
4.776262838927e-04 2.077977257002e-03 0.0 
1.061506700334e-03 6.925709701362e-03 0.0 
3.476542272653e-04 -6.106988395052e-04 0.0 
6.185118521390e-04 7.264802491228e-03 0.0 
1.028438625403e-03 3.745543450914e-04 0.0 
9.621567589724e-04 3.998154051717e-03 0.0 
5.106745903146e-04 -6.259100186665e-04 0.0 
3.065977627572e-03 2.292044707254e-03 0.0 
3.043395039440e-03 7.055856654082e-03 0.0 
1.782696639180e-03 9.685281571921e-03 0.0 
2.096387789950e-04 2.216999846056e-03 0.0 
3.331877449133e-03 4.423964132788e-03 0.0 
1.871835432658e-03 1.049609694142e-03 0.0 
2.762329858692e-03 1.816600161870e-03 0.0 
4.319654139183e-04 -6.409259854453e-04 0.0 
1.033994504004e-03 2.527312033780e-04 0.0 
3.360078880621e-03 3.543567564443e-03 0.0 
3.927941703381e-04 2.818534205441e-03 0.0 
2.258831602813e-03 3.687487969583e-03 0.0 
3.247848420376e-03 3.313641806793e-03 0.0 
6.424148954746e-04 3.424731711169e-03 0.0 
2.504281014029e-03 1.130906095849e-03 0.0 
2.150037208044e-03 1.576182692536e-03 0.0 
2.635992227490e-03 8.164122214806e-03 0.0 
2.694518880458e-03 5.257284898259e-03 0.0 
2.030648410993e-03 4.866975666750e-03 0.0 
3.083362347557e-03 5.002705103529e-03 0.0 
2.866664558280e-04 -9.946228825773e-05 0.0 
1.240613626878e-03 3.273231838852e-04 0.0 
1.658377002990e-03 2.939656909833e-03 0.0 
3.250113639231e-03 7.917306843444e-03 0.0 
9.953844487503e-04 5.912929801658e-03 0.0 
1.749875942846e-03 2.084938846650e-03 0.0 
2.745550037284e-04 1.846264774893e-03 0.0 
3.036711056320e-03 7.883822663046e-03 0.0 
1.033626762497e-03 2.115438939727e-04 0.0 
5.001515801198e-04 2.486534169143e-03 0.0 
1.490991641160e-03 8.648784864086e-05 0.0 
7.378538897939e-05 -8.221533434949e-04 0.0 
1.838888017687e-03 6.719654340109e-03 0.0 
3.020376317932e-03 3.814333882083e-03 0.0 
3.405859137641e-03 4.330823386140e-03 0.0 
1.470468370029e-03 1.318811903725e-04 0.0 
5.249347992398e-04 1.610950366397e-03 0.0 
8.447682128775e-04 1.633592763540e-04 0.0 
1.892620522122e-03 7.635811587105e-04 0.0 
4.227349375815e-04 1.015650861072e-02 0.0 
1.936797164440e-03 9.177646185262e-03 0.0 
6.692389130006e-04 1.276691269701e-04 0.0 
2.897918073177e-03 1.877747005899e-03 0.0 
1.937323210121e-03 1.273677996531e-03 0.0 
2.322065986073e-04 -3.059566429165e-04 0.0 
1.007206068242e-03 1.100822785565e-03 0.0 
2.315367718064e-03 1.059170404459e-02 0.0 
5.091012330423e-04 1.017844197738e-04 0.0 
2.085186998116e-03 1.022685921907e-03 0.0 
3.323716319297e-03 6.504931162789e-03 0.0 
2.046643325219e-04 9.085734984996e-03 0.0 
3.231404486696e-04 8.611508578754e-05 0.0 
1.746065458223e-03 8.272980647222e-04 0.0 
2.906809131286e-03 4.311606704583e-03 0.0 
2.809625254133e-03 1.665485070582e-03 0.0 
1.963265053692e-03 1.050138800792e-02 0.0 
1.288179035858e-03 6.177046151521e-05 0.0 
2.491607867642e-03 5.003522792853e-03 0.0 
1.936582960469e-04 7.355596452100e-04 0.0 
1.636327454196e-03 8.313042205223e-04 0.0 
1.489856739797e-03 5.492060189677e-03 0.0 
1.148775449158e-03 -4.419498673409e-05 0.0 
2.841324579391e-03 2.830207417500e-03 0.0 
1.422554487993e-04 -8.192394692769e-04 0.0 
2.143061291446e-03 9.949286268020e-03 0.0 
9.752992982620e-04 -8.083271182888e-05 0.0 
2.957410072601e-03 3.122025889148e-03 0.0 
2.625898801978e-03 1.334302285569e-03 0.0 
1.212010242618e-03 9.017935410885e-04 0.0 
8.036744436228e-04 -1.016484954493e-04 0.0 
3.082185003301e-03 2.933602276826e-03 0.0 
6.350172731483e-04 -1.097611466234e-04 0.0 
2.097537243864e-03 1.121033335734e-02 0.0 
1.538298708170e-03 4.991575305159e-03 0.0 
4.648300401010e-04 -1.084206716423e-04 0.0 
2.282404497177e-03 4.188928036205e-03 0.0 
2.269158201244e-04 -6.990193574408e-04 0.0 
2.868974797420e-03 3.771808358193e-03 0.0 
1.783879230119e-04 4.326995766655e-05 0.0 
1.666858451990e-03 2.485128737686e-04 0.0 
2.433605332420e-03 1.059584429111e-03 0.0 
1.366510364972e-03 4.045832306117e-03 0.0 
2.152974197002e-03 1.180883358338e-02 0.0 
2.308569418771e-03 9.743606794527e-04 0.0 
2.014309526395e-03 3.392425942294e-03 0.0 
2.794558084248e-03 3.264163954906e-03 0.0 
3.275890085429e-03 3.823160217111e-03 0.0 
2.128130294958e-03 8.753006948489e-04 0.0 
2.403442861112e-03 1.109270516256e-02 0.0 
1.044262916334e-03 -1.871851130284e-04 0.0 
8.659069970618e-04 -2.237255383840e-04 0.0 
2.968922470538e-03 2.386483248678e-03 0.0 
1.756917440943e-03 3.056810075685e-03 0.0 
1.256513707594e-04 -8.451878804313e-04 0.0 
1.592844009034e-03 4.040138226838e-03 0.0 
6.219754836659e-04 -9.792261026551e-05 0.0 
2.759401957750e-03 2.026691782871e-03 0.0 
2.309500893998e-03 2.212826678904e-03 0.0 
5.822187296570e-05 6.347134411583e-03 0.0 
2.631053694949e-03 1.599587416285e-03 0.0 
8.739953557067e-05 -7.700225734635e-04 0.0 
2.397890038674e-03 1.281750104161e-03 0.0 
3.087264273821e-03 3.320545534911e-03 0.0 
2.268313783401e-03 9.649687389466e-04 0.0 
2.028739921143e-03 6.955873083886e-04 0.0 
1.405392227910e-04 1.687932706172e-03 0.0 
1.902648551291e-03 4.704314050008e-04 0.0 
1.977223222910e-05 7.929735499106e-04 0.0 
5.416830563666e-05 3.884371230345e-05 0.0 
7.682731877321e-05 8.324378219353e-03 0.0 
2.082657766925e-03 1.235120605004e-02 0.0 
-8.838307203942e-04 3.895944808749e-03 0.0 
2.422336943952e-03 1.127583722177e-02 0.0 
1.530246459564e-03 2.115075924616e-04 0.0 
1.827800203624e-03 4.002330365801e-03 0.0 
1.597095672869e-04 8.278194436526e-03 0.0 
1.283421191423e-03 6.954460391464e-07 0.0 
7.189430094122e-04 1.387428569314e-03 0.0 
5.323792072464e-04 4.772149352956e-04 0.0 
1.033224560416e-04 4.829942725850e-03 0.0 
1.729013601932e-03 1.029733146062e-03 0.0 
2.673423542315e-03 2.771711441570e-03 0.0 
2.916230468613e-05 2.491855316495e-03 0.0 
4.783977405224e-04 9.163980497137e-03 0.0 
8.571700053966e-05 -5.418350115530e-05 0.0 
1.376405516204e-04 -7.506364089047e-05 0.0 
1.927450082535e-03 1.255691330072e-02 0.0 
2.204471735484e-03 1.141004216151e-02 0.0 
1.890896862405e-03 1.085168084137e-02 0.0 
3.343669021872e-04 -6.490288902466e-04 0.0 
3.836292574624e-04 6.720618616590e-04 0.0 
1.729530858932e-03 1.226492075494e-02 0.0 
1.073733946427e-03 6.313644459338e-04 0.0 
8.060683971951e-04 8.242691347937e-03 0.0 
2.118226403385e-03 2.119483805354e-03 0.0 
1.247534741577e-03 1.165939145425e-02 0.0 
3.424439861794e-04 1.598667729910e-03 0.0 
1.107711838075e-03 9.361312446462e-04 0.0 
2.618308127305e-04 8.002219396420e-05 0.0 
1.660595389640e-03 1.527147969959e-03 0.0 
1.309389510184e-03 9.547905139259e-03 0.0 
1.178044057977e-03 7.310201911588e-03 0.0 
9.061161271902e-04 1.191412484482e-03 0.0 
1.386988024788e-04 4.039691413374e-03 0.0 
1.940094888719e-04 5.925561344305e-05 0.0 
1.020003948945e-03 8.306966463624e-03 0.0 
8.563745527602e-05 1.574515548282e-03 0.0 
1.249963972941e-03 2.388836889791e-03 0.0 
4.388507626538e-05 1.528982050457e-03 0.0 
1.559386703674e-03 3.129637687202e-03 0.0 
3.247565995192e-04 7.066202167425e-03 0.0 
1.418014816569e-03 7.274659440317e-03 0.0 
1.485632375785e-04 5.703841346987e-05 0.0 
6.147777277417e-04 1.458385725476e-03 0.0 
8.166373112284e-04 8.328959798173e-03 0.0 
1.621298765046e-04 4.930958438066e-03 0.0 
5.450248616842e-04 -4.848885692641e-04 0.0 
-1.267443677453e-04 2.560856388022e-03 0.0 
6.371217760728e-04 2.037010453089e-04 0.0 
1.246175924923e-03 2.304381241476e-03 0.0 
2.466728192743e-04 7.092695880266e-05 0.0 
2.779652981947e-05 -8.915252396025e-04 0.0 
9.418308291457e-05 -4.169265705474e-04 0.0 
6.968426842713e-04 2.548577413922e-04 0.0 
7.620722652941e-04 1.208251338950e-03 0.0 
1.365726013404e-03 1.714836991695e-03 0.0 
1.138888366368e-04 6.330127317169e-04 0.0 
-8.777827596730e-05 7.234231502962e-03 0.0 
6.573844304302e-04 9.266136934770e-03 0.0 
1.064898677079e-04 -6.765083088089e-04 0.0 
1.556549308438e-04 4.985888654159e-05 0.0 
2.029076789470e-04 1.499727159608e-03 0.0 
3.832420113313e-04 -4.511584845166e-04 0.0 
1.458175606075e-03 8.792942475036e-03 0.0 
1.997160241566e-04 -7.164015385941e-04 0.0 
1.377058892050e-03 1.523649506985e-03 0.0 
3.096156526290e-04 8.205479686451e-05 0.0 
1.392476840597e-04 1.418398463535e-03 0.0 
7.811143990190e-04 3.316500955045e-04 0.0 
4.132768646613e-04 1.371670501449e-03 0.0 
4.266373465639e-04 2.715971063405e-04 0.0 
-1.729975734152e-04 4.611555204374e-03 0.0 
9.424224549576e-04 8.494864325394e-04 0.0 
1.282790687125e-03 6.313760371109e-04 0.0 
3.575716626680e-04 9.206524052232e-03 0.0 
5.261647657648e-04 1.449507839151e-03 0.0 
3.500116824172e-04 -5.918338604493e-04 0.0 
2.724599722491e-04 -7.344783296045e-04 0.0 
8.341079538965e-06 7.023058463328e-04 0.0 
5.128176577746e-06 -9.121467618715e-04 0.0 
6.005975151277e-05 9.202384957876e-03 0.0 
2.105367499870e-05 2.993698692517e-05 0.0 
1.629416692928e-04 -8.246851547072e-04 0.0 
1.261903141540e-04 7.587506444375e-03 0.0 
6.868937404349e-04 1.193908751333e-03 0.0 
1.021516763514e-04 -2.988885141043e-04 0.0 
6.758804696509e-05 3.127590574221e-03 0.0 
7.005176373473e-04 8.792787620599e-04 0.0 
-8.969765991636e-04 2.933563368597e-03 0.0 
9.965770127282e-05 5.847068818639e-03 0.0 
1.005969023610e-03 7.797782745337e-04 0.0 
3.185636771182e-04 1.326445127116e-03 0.0 
2.590193122300e-04 6.520257581862e-03 0.0 
1.343936045074e-03 7.203921301369e-03 0.0 
9.745683367307e-04 1.700513386223e-03 0.0 
4.088298593348e-04 -3.838296974352e-04 0.0 
1.249055282581e-03 1.642665717128e-03 0.0 
1.383520357507e-03 7.993041906319e-04 0.0 
-1.026965033837e-03 7.770424145625e-03 0.0 
8.933078217926e-05 -2.179995012885e-04 0.0 
9.612156739942e-05 -5.960590676412e-04 0.0 
4.366289356070e-04 1.239921722621e-04 0.0 
2.717022792376e-04 -3.627637168319e-04 0.0 
-2.837515569005e-04 1.280981663975e-02 0.0 
4.441330737138e-05 1.849688878716e-02 0.0 
7.068186609133e-04 1.352186949970e-02 0.0 
3.470077609619e-05 1.749836944902e-02 0.0 
1.280206331825e-03 1.373013104546e-02 0.0 
3.384407078357e-05 1.650010473820e-02 0.0 
1.619483633221e-03 1.359804384197e-02 0.0 
3.464684090936e-05 1.549932431864e-02 0.0 
1.790574747543e-03 1.322735656386e-02 0.0 
3.642929572461e-05 1.449503947909e-02 0.0 
1.843941849771e-03 1.266815893618e-02 0.0 
3.752451121966e-05 1.348783136386e-02 0.0 
1.807375052498e-03 1.198034884282e-02 0.0 
3.904898676130e-05 1.247767914866e-02 0.0 
1.704916973667e-03 1.118011904446e-02 0.0 
3.962569600324e-05 1.146548798755e-02 0.0 
1.554576235327e-03 1.031728282582e-02 0.0 
4.011554834093e-05 1.045166542301e-02 0.0 

VECTORS node_materi_displacement float
0.0 8.145113400762e-02 0.0 
0.0 7.239443828610e-02 0.0 
0.0 0.0 0.0 
0.0 0.0 0.0 
0.0 8.134107259824e-02 0.0 
0.0 8.083799867943e-02 0.0 
0.0 7.993818637066e-02 0.0 
0.0 7.863474860650e-02 0.0 
0.0 7.690744783122e-02 0.0 
0.0 7.476662912402e-02 0.0 
0.0 7.221270160151e-02 0.0 
0.0 6.924053868544e-02 0.0 
0.0 6.585052387040e-02 0.0 
0.0 6.203793696076e-02 0.0 
0.0 5.779312501234e-02 0.0 
0.0 5.311503022682e-02 0.0 
0.0 4.800775412264e-02 0.0 
0.0 4.248891253614e-02 0.0 
0.0 3.652060892147e-02 0.0 
0.0 3.011001643386e-02 0.0 
0.0 2.325764483404e-02 0.0 
0.0 1.595343541776e-02 0.0 
0.0 8.193441138284e-03 0.0 
0.0 0.0 0.0 
0.0 0.0 0.0 
0.0 0.0 0.0 
0.0 0.0 0.0 
0.0 0.0 0.0 
0.0 0.0 0.0 
0.0 0.0 0.0 
0.0 0.0 0.0 
0.0 0.0 0.0 
0.0 0.0 0.0 
0.0 0.0 0.0 
0.0 0.0 0.0 
0.0 0.0 0.0 
0.0 0.0 0.0 
0.0 0.0 0.0 
0.0 0.0 0.0 
0.0 0.0 0.0 
0.0 0.0 0.0 
0.0 0.0 0.0 
0.0 0.0 0.0 
0.0 0.0 0.0 
0.0 0.0 0.0 
0.0 0.0 0.0 
0.0 0.0 0.0 
0.0 0.0 0.0 
0.0 0.0 0.0 
0.0 0.0 0.0 
0.0 0.0 0.0 
0.0 0.0 0.0 
0.0 0.0 0.0 
0.0 0.0 0.0 
0.0 0.0 0.0 
0.0 0.0 0.0 
0.0 0.0 0.0 
0.0 0.0 0.0 
0.0 0.0 0.0 
0.0 0.0 0.0 
0.0 0.0 0.0 
0.0 0.0 0.0 
0.0 0.0 0.0 
0.0 0.0 0.0 
0.0 0.0 0.0 
0.0 0.0 0.0 
0.0 0.0 0.0 
0.0 0.0 0.0 
0.0 0.0 0.0 
0.0 0.0 0.0 
0.0 0.0 0.0 
0.0 0.0 0.0 
0.0 6.705208549884e-02 0.0 
0.0 6.128663335085e-02 0.0 
0.0 5.509236830843e-02 0.0 
0.0 4.848248926712e-02 0.0 
0.0 4.144557685177e-02 0.0 
0.0 3.399170478675e-02 0.0 
0.0 2.611890271440e-02 0.0 
0.0 1.782753624501e-02 0.0 
0.0 9.120491665774e-03 0.0 
-2.435074808646e-03 8.984338025593e-02 0.0 
1.538990603352e-03 7.220374877449e-02 0.0 
-8.897741389460e-04 9.309846426967e-02 0.0 
3.666404821919e-04 9.421345157821e-02 0.0 
1.112674666340e-03 9.394626406528e-02 0.0 
1.558169139006e-03 9.276469137967e-02 0.0 
1.807225795064e-03 9.082438546413e-02 0.0 
1.914055738603e-03 8.822400723408e-02 0.0 
1.917893128894e-03 8.502249484420e-02 0.0 
1.843196294125e-03 8.126333912616e-02 0.0 
1.709206254501e-03 7.697950592150e-02 0.0 
0.0 1.012596993415e-01 0.0 
0.0 9.972583252723e-02 0.0 
0.0 9.781534150953e-02 0.0 
0.0 9.545315421815e-02 0.0 
0.0 9.269468765158e-02 0.0 
0.0 8.947588872368e-02 0.0 
0.0 8.586015852894e-02 0.0 
0.0 8.178419315802e-02 0.0 
0.0 7.731491366520e-02 0.0 
9.029562439672e-05 7.239597555449e-02 0.0 
1.689203343458e-04 7.239995975625e-02 0.0 
2.544317654474e-04 7.240462436909e-02 0.0 
3.415708484089e-04 7.240276044142e-02 0.0 
4.274446360724e-04 7.241173569868e-02 0.0 
5.172014146071e-04 7.240878563626e-02 0.0 
6.113332336553e-04 7.241085345971e-02 0.0 
7.019141787275e-04 7.240563002312e-02 0.0 
8.066611903453e-04 7.240818091362e-02 0.0 
9.165628363567e-04 7.239350004937e-02 0.0 
1.029189674519e-03 7.237423656446e-02 0.0 
1.147794649354e-03 7.235291246697e-02 0.0 
1.270816121809e-03 7.231759672413e-02 0.0 
1.400197331978e-03 7.226496738661e-02 0.0 
-2.182039129541e-03 8.810495428167e-02 0.0 
-1.877211733936e-03 8.681304827523e-02 0.0 
-1.579523750331e-03 8.578064929317e-02 0.0 
-1.336447053965e-03 8.495534984759e-02 0.0 
-1.114449967590e-03 8.429976664383e-02 0.0 
-9.111868468510e-04 8.375000976556e-02 0.0 
-7.323918653711e-04 8.329004589879e-02 0.0 
-5.822490907618e-04 8.291014578400e-02 0.0 
-4.553102392577e-04 8.259627036830e-02 0.0 
-3.471736545569e-04 8.234418442484e-02 0.0 
-2.663900399485e-04 8.213133818799e-02 0.0 
-1.880719656240e-04 8.197096345267e-02 0.0 
-1.083042777991e-04 8.182420570737e-02 0.0 
-7.174801454597e-05 8.170268225757e-02 0.0 
-5.341690937686e-05 8.161939443646e-02 0.0 
-3.189723742958e-05 8.155576881314e-02 0.0 
-1.016758394876e-05 8.150600787139e-02 0.0 
8.153018684291e-06 8.147459018215e-02 0.0 
-1.339665519439e-06 8.144718303854e-02 0.0 
1.117067643260e-04 1.012197638655e-01 0.0 
1.852724414272e-04 1.012159385152e-01 0.0 
2.282011863185e-04 1.012295771508e-01 0.0 
2.789202710752e-04 1.012366012024e-01 0.0 
3.329168604530e-04 1.012418251694e-01 0.0 
3.865439644329e-04 1.012456660102e-01 0.0 
4.376213821505e-04 1.012475415869e-01 0.0 
4.846872004416e-04 1.012465212251e-01 0.0 
5.266015225975e-04 1.012414140642e-01 0.0 
5.623497251593e-04 1.012307630881e-01 0.0 
5.909410393558e-04 1.012128203284e-01 0.0 
6.113530256374e-04 1.011855156042e-01 0.0 
6.225037905589e-04 1.011464155911e-01 0.0 
6.232523588645e-04 1.010926821966e-01 0.0 
6.124220108178e-04 1.010210037219e-01 0.0 
5.888281341833e-04 1.009275458145e-01 0.0 
5.513040994204e-04 1.008077879231e-01 0.0 
4.987467539079e-04 1.006565307978e-01 0.0 
4.301421103159e-04 1.004674180876e-01 0.0 
3.446966239649e-04 1.002333516361e-01 0.0 
2.417028855194e-04 9.994477428679e-02 0.0 
1.213276091664e-04 9.959209929742e-02 0.0 
-1.675082089155e-05 9.915912327800e-02 0.0 
-1.696478373458e-04 9.863410323810e-02 0.0 
-3.399973845817e-04 9.798503821214e-02 0.0 
-5.162203140717e-04 9.719652733217e-02 0.0 
-7.027976888038e-04 9.620696695127e-02 0.0 
-8.963441200123e-04 9.493257236741e-02 0.0 
3.519997677035e-04 9.535113316793e-02 0.0 
3.785793943010e-04 9.625056047121e-02 0.0 
4.212264636314e-04 9.695981191513e-02 0.0 
4.687652151384e-04 9.754260949552e-02 0.0 
5.220711793951e-04 9.801205147880e-02 0.0 
5.715526922692e-04 9.839539142709e-02 0.0 
6.163901579049e-04 9.870543228219e-02 0.0 
6.534438813540e-04 9.895606658315e-02 0.0 
6.820871467667e-04 9.915683478406e-02 0.0 
7.014293377693e-04 9.931642175014e-02 0.0 
7.114381449950e-04 9.944173668241e-02 0.0 
7.122109294229e-04 9.953870235206e-02 0.0 
7.041526439143e-04 9.961228841887e-02 0.0 
6.877780192134e-04 9.966674752211e-02 0.0 
6.637190234792e-04 9.970570360150e-02 0.0 
6.326578444847e-04 9.973225914686e-02 0.0 
5.953084294028e-04 9.974906628692e-02 0.0 
5.523989538596e-04 9.975838100349e-02 0.0 
5.046727682231e-04 9.976210843483e-02 0.0 
4.528924403759e-04 9.976184666438e-02 0.0 
3.978435675992e-04 9.975892051368e-02 0.0 
3.403149088024e-04 9.975439563218e-02 0.0 
2.809963876732e-04 9.974903243972e-02 0.0 
2.201671374447e-04 9.974311249605e-02 0.0 
1.570633853432e-04 9.973721615980e-02 0.0 
9.100506266270e-05 9.975481648473e-02 0.0 
1.056900696547e-03 9.472617509261e-02 0.0 
1.025875352167e-03 9.537148027530e-02 0.0 
9.877218722474e-04 9.588025877803e-02 0.0 
9.659268846058e-04 9.630568028812e-02 0.0 
9.471567848985e-04 9.664656224751e-02 0.0 
9.325301915004e-04 9.692581582858e-02 0.0 
9.172648554234e-04 9.714936956115e-02 0.0 
9.004804220176e-04 9.732870777409e-02 0.0 
8.805941593323e-04 9.747032577179e-02 0.0 
8.570364563023e-04 9.758107512815e-02 0.0 
8.292866227341e-04 9.766603106904e-02 0.0 
7.971888653801e-04 9.772986084660e-02 0.0 
7.607045421217e-04 9.777638826844e-02 0.0 
7.199468568642e-04 9.780895481075e-02 0.0 
6.751346172208e-04 9.783041047601e-02 0.0 
6.265816448435e-04 9.784322024306e-02 0.0 
5.746527356147e-04 9.784947118081e-02 0.0 
5.197416249737e-04 9.785092061237e-02 0.0 
4.622496937105e-04 9.784903319122e-02 0.0 
4.025550458348e-04 9.784499628902e-02 0.0 
3.409509345762e-04 9.783969664686e-02 0.0 
2.775599611344e-04 9.783364373995e-02 0.0 
2.123139031365e-04 9.782688839937e-02 0.0 
1.450790026859e-04 9.781867390410e-02 0.0 
7.316790835829e-05 9.779204167220e-02 0.0 
7.330562690952e-05 9.548355626074e-02 0.0 
1.465571388752e-04 9.547286096001e-02 0.0 
2.184758564713e-04 9.547947846636e-02 0.0 
2.891065065467e-04 9.548677803990e-02 0.0 
3.584789633526e-04 9.549357736687e-02 0.0 
4.266495171405e-04 9.549956928757e-02 0.0 
4.936081670968e-04 9.550420186069e-02 0.0 
5.592591291402e-04 9.550655513342e-02 0.0 
6.234707594036e-04 9.550536004277e-02 0.0 
6.861066317829e-04 9.549902611677e-02 0.0 
7.470559973120e-04 9.548561762969e-02 0.0 
8.062475993923e-04 9.546281566906e-02 0.0 
8.636751366020e-04 9.542783991893e-02 0.0 
9.195431290265e-04 9.537748357783e-02 0.0 
9.741363557939e-04 9.530799933257e-02 0.0 
1.028097839196e-03 9.521516577282e-02 0.0 
1.081793319845e-03 9.509362142204e-02 0.0 
1.136812149572e-03 9.493796051676e-02 0.0 
1.193197900207e-03 9.473971407961e-02 0.0 
1.255060757329e-03 9.449326775252e-02 0.0 
1.319883859495e-03 9.418078968418e-02 0.0 
1.400277524719e-03 9.380712404939e-02 0.0 
1.472573155565e-03 9.332753050885e-02 0.0 
1.701278251742e-03 9.122042078693e-02 0.0 
1.607060435613e-03 9.157054000622e-02 0.0 
1.503004796306e-03 9.183528971603e-02 0.0 
1.411583506074e-03 9.205956942840e-02 0.0 
1.323508904205e-03 9.223324613385e-02 0.0 
1.241372292738e-03 9.237328762094e-02 0.0 
1.162256679773e-03 9.248075968704e-02 0.0 
1.086197076214e-03 9.256351119626e-02 0.0 
1.012040431231e-03 9.262474778554e-02 0.0 
9.391908729986e-04 9.266883423207e-02 0.0 
8.669885224011e-04 9.269889752166e-02 0.0 
7.952018931147e-04 9.271811424259e-02 0.0 
7.236476972737e-04 9.272896516795e-02 0.0 
6.521540394398e-04 9.273352983949e-02 0.0 
5.805938300604e-04 9.273356104049e-02 0.0 
5.088812676076e-04 9.273048153993e-02 0.0 
4.369929660628e-04 9.272543808142e-02 0.0 
3.648604444891e-04 9.271919692868e-02 0.0 
2.924021693749e-04 9.271224086912e-02 0.0 
2.195780355700e-04 9.270486911350e-02 0.0 
1.464199401642e-04 9.269648517969e-02 0.0 
7.317834699473e-05 9.266940375430e-02 0.0 
7.720505436814e-05 8.950560593877e-02 0.0 
1.546549750070e-04 8.949371485999e-02 0.0 
2.322708625464e-04 8.949983348533e-02 0.0 
3.101722822839e-04 8.950693978556e-02 0.0 
3.884840332801e-04 8.951371849880e-02 0.0 
4.673558601956e-04 8.951973270527e-02 0.0 
5.470250965851e-04 8.952441576511e-02 0.0 
6.275932020284e-04 8.952700578512e-02 0.0 
7.092001721173e-04 8.952612599570e-02 0.0 
7.921674251867e-04 8.952015737352e-02 0.0 
8.769164517734e-04 8.950711556341e-02 0.0 
9.637787674017e-04 8.948479596986e-02 0.0 
1.053010943101e-03 8.945053514857e-02 0.0 
1.144824793384e-03 8.940030777608e-02 0.0 
1.240860825968e-03 8.933080961151e-02 0.0 
1.340972249752e-03 8.923685083161e-02 0.0 
1.448364263247e-03 8.911670165453e-02 0.0 
1.558629894476e-03 8.895788438533e-02 0.0 
1.681717099024e-03 8.876821528081e-02 0.0 
1.795138767535e-03 8.851312094270e-02 0.0 
1.794249963529e-03 8.522089553819e-02 0.0 
1.675273589864e-03 8.540282713613e-02 0.0 
1.544712449440e-03 8.552951696408e-02 0.0 
1.426115411736e-03 8.564078686664e-02 0.0 
1.312082383166e-03 8.572129672686e-02 0.0 
1.205299878013e-03 8.578375441573e-02 0.0 
1.102292147915e-03 8.582644965978e-02 0.0 
1.003372545622e-03 8.585616776427e-02 0.0 
9.081456626402e-04 8.587569818928e-02 0.0 
8.164342009707e-04 8.588713040796e-02 0.0 
7.277605536451e-04 8.589216690190e-02 0.0 
6.411815280840e-04 8.589253880103e-02 0.0 
5.566353887443e-04 8.589007172121e-02 0.0 
4.740239033627e-04 8.588604874782e-02 0.0 
3.929653461283e-04 8.588074534283e-02 0.0 
3.130949672069e-04 8.587475462428e-02 0.0 
2.342899178591e-04 8.586839340945e-02 0.0 
1.559766193474e-04 8.586089071579e-02 0.0 
7.788708139176e-05 8.583440862501e-02 0.0 
8.227517977499e-05 8.181287790065e-02 0.0 
1.647874273493e-04 8.180075168927e-02 0.0 
2.469607640847e-04 8.180653186946e-02 0.0 
3.307069654444e-04 8.181180612703e-02 0.0 
4.155329771507e-04 8.181708006619e-02 0.0 
5.024517940437e-04 8.182122047100e-02 0.0 
5.916324146047e-04 8.182382015427e-02 0.0 
6.843534377927e-04 8.182478942539e-02 0.0 
7.792041231247e-04 8.182351004030e-02 0.0 
8.779837840946e-04 8.181563001322e-02 0.0 
9.818409022086e-04 8.180037824583e-02 0.0 
1.090325271871e-03 8.177683858634e-02 0.0 
1.204117471923e-03 8.174202798238e-02 0.0 
1.324289012747e-03 8.169386674420e-02 0.0 
1.447330215428e-03 8.161902462808e-02 0.0 
1.584855852431e-03 8.152954969985e-02 0.0 
1.712466053497e-03 8.139955614632e-02 0.0 
1.582772689149e-03 7.706844147020e-02 0.0 
1.459361912855e-03 7.716669211902e-02 0.0 
1.326371820069e-03 7.721693128763e-02 0.0 
1.203976654682e-03 7.725978411655e-02 0.0 
1.088548207487e-03 7.728959766800e-02 0.0 
9.777918861236e-04 7.730960639265e-02 0.0 
8.726921765051e-04 7.732485227998e-02 0.0 
7.735698691102e-04 7.733232431624e-02 0.0 
6.770552054766e-04 7.733082660237e-02 0.0 
5.859159499056e-04 7.733279601742e-02 0.0 
4.968324576518e-04 7.733070619677e-02 0.0 
4.117606362142e-04 7.732859120118e-02 0.0 
3.269462168457e-04 7.732324280007e-02 0.0 
2.451479883376e-04 7.732040038772e-02 0.0 
1.647565823371e-04 7.731217384199e-02 0.0 
8.018611579416e-05 7.728319663714e-02 0.0 
-1.678766042914e-03 9.155871902522e-02 0.0 
-1.452947436474e-04 9.387840216676e-02 0.0 
8.030837100178e-04 9.421007733938e-02 0.0 
1.378548103996e-03 9.345868169958e-02 0.0 
1.712595721931e-03 9.188112051384e-02 0.0 
1.879712214670e-03 8.959987301903e-02 0.0 
1.937313103327e-03 8.669676993331e-02 0.0 
1.898736559359e-03 8.321296365738e-02 0.0 
1.790988472483e-03 7.918722001362e-02 0.0 
1.635873348100e-03 7.465243334674e-02 0.0 
8.828697902710e-04 9.246384575854e-02 0.0 
5.438295119110e-04 7.362028515944e-03 0.0 
-1.653649671511e-04 8.233223346048e-02 0.0 
-6.317562911422e-04 8.449016604805e-02 0.0 
3.957586653475e-04 7.236088096927e-03 0.0 
1.878447355726e-03 9.115291561580e-02 0.0 
1.437192171580e-04 5.989159243334e-02 0.0 
5.964435319899e-04 7.518148759980e-03 0.0 
2.148758487344e-03 8.653097902815e-02 0.0 
5.525762722654e-04 7.458801485548e-03 0.0 
2.022976919193e-03 7.939299858308e-02 0.0 
2.370112225180e-04 6.607942640251e-03 0.0 
1.401806315534e-05 8.164135409228e-02 0.0 
4.647926783503e-04 7.688200188396e-03 0.0 
1.671049042324e-03 7.002423423890e-02 0.0 
1.070357342056e-04 7.345949803399e-02 0.0 
1.513149185581e-04 4.643194726244e-02 0.0 
3.913985818667e-04 8.092609803281e-03 0.0 
2.561870612834e-04 7.770423731085e-03 0.0 
7.810082403841e-05 7.829755628851e-03 0.0 
1.351840957461e-04 8.500311367884e-03 0.0 
1.828887594997e-04 7.608614588506e-03 0.0 
1.336338105768e-03 6.757376110652e-02 0.0 
8.562121111806e-04 6.759484419645e-02 0.0 
5.601895939085e-04 6.748130161886e-02 0.0 
5.781100177817e-05 4.491248814130e-02 0.0 
1.393784298482e-04 7.147557853168e-03 0.0 
-9.803588346725e-04 8.734196402030e-02 0.0 
2.769573258325e-05 8.142294983729e-02 0.0 
1.049251473639e-04 2.726787272169e-02 0.0 
2.861083368930e-04 6.783487584263e-02 0.0 
6.098717789452e-05 7.936212552285e-02 0.0 
3.599601929778e-04 8.942132107197e-03 0.0 
5.395768379820e-04 6.905802023209e-03 0.0 
5.055655971635e-04 7.471801766417e-03 0.0 
6.169937283032e-04 7.879762389020e-03 0.0 
4.647072527331e-04 6.950208782481e-03 0.0 
-3.990408373999e-04 8.335442518743e-02 0.0 
1.082181388629e-03 6.788610193397e-02 0.0 
3.703576701439e-04 8.227208748254e-03 0.0 
3.707040192581e-05 3.044751086019e-02 0.0 
-6.395516806087e-05 8.191417476105e-02 0.0 
1.351696584585e-04 6.760030324969e-02 0.0 
3.355149301617e-05 6.376597211287e-03 0.0 
2.090267372939e-03 8.912518295353e-02 0.0 
1.498657350710e-03 9.235920046855e-02 0.0 
2.124243103736e-03 8.327525349698e-02 0.0 
1.865888746810e-03 7.497361704006e-02 0.0 
-2.778865284229e-04 9.099237173750e-02 0.0 
7.000778426384e-05 5.750512891165e-02 0.0 
6.811539249468e-05 5.653798687436e-03 0.0 
2.127108149655e-06 8.138272266844e-02 0.0 
1.858499986267e-05 1.419114973449e-02 0.0 
1.575479062993e-03 6.732412356827e-02 0.0 
1.667864187518e-03 6.497338967340e-02 0.0 
1.523631246974e-03 6.240940335859e-02 0.0 
1.640585926303e-03 5.954554438392e-02 0.0 
1.489756158002e-03 5.633977665439e-02 0.0 
1.579153648876e-03 5.359662657334e-02 0.0 
1.742211931947e-03 5.684927175279e-02 0.0 
1.658258279803e-03 5.077559464904e-02 0.0 
1.834725267762e-03 5.412306045782e-02 0.0 
1.419860822303e-03 5.014388892780e-02 0.0 
1.724749742407e-03 4.787229228131e-02 0.0 
1.915214037529e-03 5.130876469587e-02 0.0 
1.776490727416e-03 4.490206420513e-02 0.0 
1.979608505668e-03 4.840448042876e-02 0.0 
2.103120396745e-03 5.461188767131e-02 0.0 
2.180705920308e-03 5.179864666286e-02 0.0 
2.285466345751e-03 5.776137833724e-02 0.0 
2.375600305759e-03 5.503082392159e-02 0.0 
2.239420511311e-03 4.891971499140e-02 0.0 
2.445381558959e-03 5.223512290929e-02 0.0 
2.561601649562e-03 5.810841036099e-02 0.0 
2.641091634529e-03 5.539034086198e-02 0.0 
2.735994860390e-03 6.101917656689e-02 0.0 
2.823337985358e-03 5.836162241027e-02 0.0 
2.897516052591e-03 6.377923412995e-02 0.0 
2.990328450399e-03 6.117245340555e-02 0.0 
2.882706259846e-03 5.563200223471e-02 0.0 
3.052981709758e-03 5.850904175489e-02 0.0 
3.137926332563e-03 6.380376839391e-02 0.0 
3.201514678400e-03 6.120650671535e-02 0.0 
3.262819668404e-03 6.625358048752e-02 0.0 
3.324290474426e-03 6.371673276961e-02 0.0 
3.229024377251e-03 5.854650188442e-02 0.0 
3.346802804963e-03 6.113223305390e-02 0.0 
3.416973886494e-03 6.604816230732e-02 0.0 
3.430947000474e-03 6.353367309278e-02 0.0 
3.474257501141e-03 6.819160825720e-02 0.0 
3.476455271716e-03 6.574344359369e-02 0.0 
3.490846415109e-03 7.013258125149e-02 0.0 
3.477924931788e-03 6.776976886392e-02 0.0 
3.436850454469e-03 6.323747363253e-02 0.0 
3.423971203582e-03 6.535160399692e-02 0.0 
3.429874725208e-03 6.961919863039e-02 0.0 
3.361351045695e-03 6.730328063036e-02 0.0 
3.333655361484e-03 6.292055876052e-02 0.0 
3.259585544076e-03 6.499061059410e-02 0.0 
3.212139710762e-03 6.048050491514e-02 0.0 
3.130323951356e-03 6.267437948427e-02 0.0 
3.137431798845e-03 6.687601292053e-02 0.0 
3.003533142682e-03 6.468639765274e-02 0.0 
2.978892658654e-03 6.034289393778e-02 0.0 
2.850652102002e-03 6.251388934773e-02 0.0 
2.834594023059e-03 6.657662118671e-02 0.0 
2.685680690425e-03 6.451343308611e-02 0.0 
2.683618940801e-03 6.030708481433e-02 0.0 
2.523425191998e-03 6.245626550069e-02 0.0 
2.489159033808e-03 6.639020552483e-02 0.0 
2.336276905109e-03 6.445816248183e-02 0.0 
2.352402529231e-03 6.033232161033e-02 0.0 
2.174060918954e-03 6.250708630894e-02 0.0 
2.127774899174e-03 6.635040459141e-02 0.0 
1.978337679287e-03 6.452321049467e-02 0.0 
2.005515837894e-03 6.048545381773e-02 0.0 
1.820972517773e-03 6.266771218952e-02 0.0 
1.830690143806e-03 5.842837589274e-02 0.0 
1.767418375806e-03 6.646448036140e-02 0.0 
1.624828019397e-03 6.472791892361e-02 0.0 
1.549842103395e-03 6.831304140139e-02 0.0 
1.423081779551e-03 6.667514474628e-02 0.0 
3.219266873233e-03 5.583267378877e-02 0.0 
1.334905094907e-03 7.001959640810e-02 0.0 
1.438909937531e-03 7.143268961698e-02 0.0 
1.221879973424e-03 6.850486439696e-02 0.0 
1.287244593519e-03 6.498149851295e-02 0.0 
1.125195588224e-03 7.160982061032e-02 0.0 
1.025647064587e-03 7.021469504738e-02 0.0 
9.262670327152e-04 7.308533984065e-02 0.0 
3.456737855113e-03 7.263506327104e-02 0.0 
2.275005638536e-03 4.596641363075e-02 0.0 
8.389088903862e-04 7.180819615934e-02 0.0 
7.434031738120e-04 7.444589781770e-02 0.0 
8.034023772722e-04 7.554650148500e-02 0.0 
6.279515658524e-04 7.667379758043e-02 0.0 
1.346098074151e-03 5.304738257512e-02 0.0 
1.258195878625e-03 4.654407655350e-02 0.0 
1.197838790807e-03 4.959056400497e-02 0.0 
1.096020033725e-03 4.283033580603e-02 0.0 
1.048068770876e-03 4.595465266916e-02 0.0 
5.779332455406e-04 7.569169361194e-02 0.0 
1.572392161166e-03 4.110768322914e-02 0.0 
1.132949951946e-03 3.958603732727e-02 0.0 
2.624707408366e-03 6.360985721308e-02 0.0 
3.164523982375e-03 6.873292610257e-02 0.0 
3.247002739625e-03 5.812249718230e-02 0.0 
9.145182135306e-04 6.875883549976e-02 0.0 
7.374311057145e-04 7.047101807116e-02 0.0 
7.938031582689e-04 6.724033893057e-02 0.0 
1.987093751555e-03 5.599402891547e-02 0.0 
1.797323752712e-03 5.375846357543e-02 0.0 
1.922595360066e-03 5.106029988988e-02 0.0 
1.721257362261e-03 4.865450908395e-02 0.0 
1.812542183439e-03 4.569100736714e-02 0.0 
1.603024566671e-03 4.311490727927e-02 0.0 
1.520398798643e-03 4.620124303907e-02 0.0 
1.396679169579e-03 4.048361278177e-02 0.0 
1.322157995459e-03 4.369299363209e-02 0.0 
1.657329124775e-03 3.988861645828e-02 0.0 
1.874709665176e-03 4.258369019644e-02 0.0 
1.195937403379e-03 3.779721310263e-02 0.0 
1.128671606510e-03 4.112206431272e-02 0.0 
1.002888529421e-03 3.504629200765e-02 0.0 
9.420261828504e-04 3.848603078370e-02 0.0 
1.037961756687e-03 4.431586440515e-02 0.0 
8.576625009109e-04 4.179472264062e-02 0.0 
9.281829550043e-04 4.737619886945e-02 0.0 
3.106549939114e-03 5.555264869270e-02 0.0 
3.102771072686e-03 5.290190189278e-02 0.0 
2.943588452467e-03 5.020301546550e-02 0.0 
2.900579924801e-03 4.726264303128e-02 0.0 
2.722929964178e-03 4.442853874166e-02 0.0 
2.639856030477e-03 4.120728424138e-02 0.0 
2.443533278192e-03 3.822744081123e-02 0.0 
2.525084677747e-03 4.156841845806e-02 0.0 
1.812695650165e-03 4.183575475060e-02 0.0 
3.327099023783e-03 7.127628847307e-02 0.0 
3.372216402072e-03 7.348717920133e-02 0.0 
3.226358561626e-03 7.484572874288e-02 0.0 
3.245849008784e-03 7.695055551250e-02 0.0 
3.052112066189e-03 7.800299421251e-02 0.0 
3.042448037067e-03 8.002051780972e-02 0.0 
2.792881814876e-03 8.076507230931e-02 0.0 
2.792535960067e-03 7.887131480767e-02 0.0 
2.470361873630e-03 8.133093205224e-02 0.0 
2.472015790786e-03 7.959442341802e-02 0.0 
2.087061194087e-03 8.175184446625e-02 0.0 
2.103769919366e-03 8.020731883982e-02 0.0 
2.910992478304e-03 5.284127251850e-02 0.0 
2.813444047600e-03 4.414712411678e-02 0.0 
2.513129798501e-03 3.781187077406e-02 0.0 
2.683999106654e-03 4.085621579594e-02 0.0 
6.590885612071e-04 7.759853826998e-02 0.0 
7.638776616306e-04 3.577859118789e-02 0.0 
1.679030519843e-03 3.651442690651e-02 0.0 
1.904179908008e-03 3.938064117488e-02 0.0 
2.229435280823e-03 3.521633105737e-02 0.0 
4.747503911989e-04 7.768720117286e-02 0.0 
2.749284889223e-03 8.270050955403e-02 0.0 
2.979028762957e-03 8.208197776130e-02 0.0 
9.373106010384e-04 3.893289305546e-02 0.0 
9.021282912349e-04 4.216155650048e-02 0.0 
1.664030305261e-03 3.299755450192e-02 0.0 
4.321004384431e-04 7.682109127102e-02 0.0 
1.235196867098e-03 3.433785414268e-02 0.0 
2.034426074155e-03 8.337114916311e-02 0.0 
6.843942336678e-04 3.920438172173e-02 0.0 
5.958891059467e-04 3.300107979084e-02 0.0 
1.414128749884e-03 4.913780232206e-02 0.0 
2.344697963836e-03 3.423967233852e-02 0.0 
2.520630992879e-03 3.749523937777e-02 0.0 
2.447908784000e-03 7.789571657412e-02 0.0 
2.098452888395e-03 7.870358116862e-02 0.0 
1.710522374975e-03 8.072805739121e-02 0.0 
1.744322758565e-03 7.933715785219e-02 0.0 
2.074984314245e-03 7.718871238980e-02 0.0 
1.739331059201e-03 7.805793823335e-02 0.0 
1.384128513034e-03 7.995716640668e-02 0.0 
1.408375782886e-03 7.883753110741e-02 0.0 
1.716526706794e-03 7.673815403158e-02 0.0 
1.412257119863e-03 7.767035438658e-02 0.0 
1.095550070660e-03 7.954041367394e-02 0.0 
1.126026875235e-03 7.851111287353e-02 0.0 
6.478594266926e-04 2.932126669559e-02 0.0 
1.580091803054e-03 8.348562592374e-02 0.0 
2.178841218706e-03 6.041045970259e-02 0.0 
1.435582644072e-03 3.000810933951e-02 0.0 
2.108175528232e-03 3.168779188793e-02 0.0 
7.850562904345e-04 3.488460964331e-02 0.0 
7.618338218411e-04 3.821808052519e-02 0.0 
8.583888276605e-04 4.534467036487e-02 0.0 
7.281337926495e-04 4.148477314465e-02 0.0 
6.286846629466e-04 3.411922508036e-02 0.0 
6.044464399786e-04 3.748855584803e-02 0.0 
6.853592698646e-04 4.468787605712e-02 0.0 
5.707141848129e-04 4.078455113404e-02 0.0 
6.352953032979e-04 4.781221161611e-02 0.0 
5.293731315392e-04 4.400088971599e-02 0.0 
4.640974037280e-04 3.674007427855e-02 0.0 
4.305144494655e-04 4.005787184550e-02 0.0 
4.816682208725e-04 4.714110724510e-02 0.0 
3.891430390685e-04 4.329603041063e-02 0.0 
4.276587452342e-04 5.019717097475e-02 0.0 
3.410036170991e-04 4.645013826406e-02 0.0 
3.054835988824e-04 3.931955070526e-02 0.0 
3.506550587761e-04 7.852313344530e-02 0.0 
2.312032336630e-03 3.868405842916e-02 0.0 
2.002006925306e-03 3.216625323697e-02 0.0 
6.270498472506e-04 6.906377296507e-02 0.0 
6.756742238913e-04 6.564831084161e-02 0.0 
8.313458296048e-04 6.358641961998e-02 0.0 
6.822756093654e-04 6.182776398206e-02 0.0 
2.642591410471e-04 4.260727893758e-02 0.0 
2.275269813351e-04 3.521862911918e-02 0.0 
2.649345290096e-03 8.467357897892e-02 0.0 
2.851274950600e-03 8.416509907664e-02 0.0 
7.958015166476e-04 3.147998189899e-02 0.0 
5.193111517807e-04 3.654250253116e-02 0.0 
5.861808684653e-04 4.249652487994e-02 0.0 
3.264909492398e-03 7.092535573298e-02 0.0 
3.132122665755e-03 7.328854508658e-02 0.0 
3.205594673698e-03 7.523352868124e-02 0.0 
3.035709154515e-03 7.757098021452e-02 0.0 
2.967708237621e-03 7.559223082463e-02 0.0 
3.077511698304e-03 7.929140075985e-02 0.0 
2.094336410790e-03 4.533040139977e-02 0.0 
3.668698702237e-04 3.256138415529e-02 0.0 
8.457538322205e-04 7.659170454927e-02 0.0 
6.673674772572e-04 7.847105309567e-02 0.0 
4.415568243962e-04 3.014886516764e-02 0.0 
2.563310361700e-03 4.475619694325e-02 0.0 
2.717795039072e-03 4.970431564470e-02 0.0 
2.710895715783e-03 4.676703140335e-02 0.0 
2.493942274748e-03 4.336175653042e-02 0.0 
2.450805468968e-03 4.028357598768e-02 0.0 
2.209382370555e-03 3.660687035932e-02 0.0 
2.127617723100e-03 3.338087356781e-02 0.0 
2.375102739329e-03 3.715164681613e-02 0.0 
2.136231651142e-03 3.045891299308e-02 0.0 
2.013526785059e-03 3.008603342290e-02 0.0 
2.931005498682e-04 4.957938033803e-02 0.0 
2.962964281878e-03 4.711645044010e-02 0.0 
1.674850931632e-03 7.539352982232e-02 0.0 
3.712397295888e-04 7.921068069534e-02 0.0 
8.030227962402e-04 8.019522132214e-02 0.0 
3.077281815475e-04 7.781831990893e-02 0.0 
3.724769081541e-04 7.588668717229e-02 0.0 
1.373379497214e-03 2.621030839556e-02 0.0 
1.861551195023e-03 2.943694159345e-02 0.0 
1.952639093553e-03 3.276855871865e-02 0.0 
2.834327767791e-03 7.977006467906e-02 0.0 
2.777679088049e-03 7.779407428245e-02 0.0 
1.938749015154e-03 2.720031653682e-02 0.0 
1.130583999000e-03 5.262131732006e-02 0.0 
7.468318789012e-04 5.149105561690e-02 0.0 
6.840025149875e-04 5.443399339772e-02 0.0 
2.359896999837e-04 7.944939884914e-02 0.0 
7.354283115365e-04 8.097926515152e-02 0.0 
5.043474987580e-04 2.988117293657e-02 0.0 
3.128700177236e-03 8.126948704697e-02 0.0 
2.979502170848e-03 8.340139000336e-02 0.0 
1.461885911995e-03 8.498162389067e-02 0.0 
9.299797894561e-04 8.479557902970e-02 0.0 
1.915121200383e-04 3.852714291556e-02 0.0 
1.622974876310e-04 3.098295255618e-02 0.0 
8.409088987030e-04 5.951946023628e-02 0.0 
6.845446019634e-04 5.757591767867e-02 0.0 
1.608686279216e-03 2.930788137699e-02 0.0 
8.663563280508e-04 7.925720870302e-02 0.0 
1.871768313601e-04 2.742904065480e-02 0.0 
2.351178438592e-03 4.198184773034e-02 0.0 
2.558700267663e-03 4.778440720762e-02 0.0 
5.287968110623e-04 6.402358525927e-02 0.0 
2.474533664612e-03 8.669460990999e-02 0.0 
2.211903872325e-03 8.687765477986e-02 0.0 
1.962822965430e-03 7.421316958830e-02 0.0 
1.130752886408e-03 7.744842034107e-02 0.0 
2.520205368527e-04 7.700147494612e-02 0.0 
1.267217827982e-03 2.225359473857e-02 0.0 
5.069957087401e-04 2.634110609020e-02 0.0 
2.265411174227e-03 3.395243242528e-02 0.0 
2.600127802055e-03 4.075975445432e-02 0.0 
1.869027471891e-03 2.674557158232e-02 0.0 
5.730805792293e-04 8.066197976186e-02 0.0 
1.143028736597e-03 2.305511558403e-02 0.0 
3.680653877441e-04 3.380610321294e-02 0.0 
1.595601151252e-03 2.566055311085e-02 0.0 
1.681745431228e-03 2.876159113451e-02 0.0 
3.213217322844e-03 8.024174275467e-02 0.0 
3.053877427729e-03 8.233416044137e-02 0.0 
2.769294167245e-03 8.546384729612e-02 0.0 
2.839055111311e-03 8.440593688325e-02 0.0 
1.900721778412e-03 5.998974232379e-02 0.0 
3.247962823447e-03 7.893205797030e-02 0.0 
2.340544779228e-03 6.332234681216e-02 0.0 
2.208677025327e-03 6.580580539430e-02 0.0 
2.347132951483e-03 6.848049201939e-02 0.0 
2.876770915987e-03 7.351130079469e-02 0.0 
2.695675879382e-03 7.571157131134e-02 0.0 
3.372949225584e-03 7.572999847619e-02 0.0 
3.235413798420e-03 5.558682438573e-02 0.0 
9.960808923005e-04 6.139439543650e-02 0.0 
1.106856673726e-03 4.969309461524e-02 0.0 
2.122260459874e-03 5.342064048875e-02 0.0 
3.839454530954e-04 2.906820589285e-02 0.0 
2.900429194299e-04 2.464953235472e-02 0.0 
5.214645235796e-04 5.381265240571e-02 0.0 
4.579038543188e-04 5.668411881043e-02 0.0 
4.966696215819e-04 7.924430864913e-02 0.0 
4.744766510474e-04 7.994297370849e-02 0.0 
1.651835279469e-03 5.632449409603e-02 0.0 
1.212700407249e-03 2.697123536653e-02 0.0 
6.400380038928e-04 2.718643997726e-02 0.0 
6.234340772242e-04 2.359930831801e-02 0.0 
7.913663741637e-04 2.799300841597e-02 0.0 
1.509604534574e-03 2.544523740790e-02 0.0 
3.169269396622e-03 7.275297244175e-02 0.0 
2.942377828109e-03 5.297999119402e-02 0.0 
1.104279397222e-03 8.354469508377e-02 0.0 
3.076856487747e-03 5.300898226992e-02 0.0 
3.288442119780e-04 8.048128677893e-02 0.0 
2.052068250221e-03 4.245048285904e-02 0.0 
3.042597888746e-04 2.722068668992e-02 0.0 
3.517510680151e-04 2.331134682646e-02 0.0 
1.694885536145e-03 2.317689894013e-02 0.0 
1.798862267807e-03 6.777022140642e-02 0.0 
3.034723297672e-03 5.015617430973e-02 0.0 
3.173248904301e-03 5.308882229127e-02 0.0 
2.196045530774e-03 7.078503518869e-02 0.0 
2.309624409803e-03 7.323100858009e-02 0.0 
2.473712029993e-03 7.099541274052e-02 0.0 
2.408981262346e-03 7.555842556215e-02 0.0 
1.881277194391e-03 7.272364648052e-02 0.0 
1.614414931508e-03 7.404697051877e-02 0.0 
1.431010744897e-03 2.160107643599e-02 0.0 
1.602832692762e-03 2.285651687206e-02 0.0 
1.311136483524e-03 2.160445391242e-02 0.0 
1.403076632026e-03 2.456672174633e-02 0.0 
1.467370549618e-03 1.975866602441e-02 0.0 
1.716089581163e-03 2.388688294670e-02 0.0 
2.963289445647e-04 7.488264167308e-02 0.0 
2.574346657792e-03 7.982428406497e-02 0.0 
3.852494026087e-04 2.185338709215e-02 0.0 
2.071836274017e-03 6.823000062263e-02 0.0 
9.327166823330e-04 2.003372679513e-02 0.0 
1.001537750221e-03 2.389712989837e-02 0.0 
4.225925057180e-04 8.459876584415e-02 0.0 
6.433439015172e-04 8.348252590185e-02 0.0 
1.313702285329e-04 2.314073031159e-02 0.0 
2.512546643612e-03 8.738393698179e-02 0.0 
2.585270836065e-03 8.638272026381e-02 0.0 
2.398265831475e-03 8.814488315382e-02 0.0 
4.525841951642e-05 1.217238293783e-02 0.0 
1.231194682912e-04 6.790088522154e-02 0.0 
2.297482759208e-04 2.019760540156e-02 0.0 
2.761773550563e-03 7.117429471606e-02 0.0 
1.349831360756e-04 1.907918774565e-02 0.0 
2.957876440284e-03 4.727001546255e-02 0.0 
3.337608856941e-03 7.301878523614e-02 0.0 
1.844324551129e-03 3.235600076144e-02 0.0 
1.048778461225e-04 2.745503209186e-02 0.0 
7.791313768277e-05 1.837020944960e-02 0.0 
7.894868558924e-04 5.778183357180e-02 0.0 
7.208106104584e-04 6.064599780649e-02 0.0 
8.619090190913e-04 5.502583866487e-02 0.0 
1.953153848328e-03 8.505887918851e-02 0.0 
1.244729411072e-03 8.684992765148e-02 0.0 
2.792969090880e-04 2.824973354659e-02 0.0 
5.803760703706e-04 7.206687378227e-02 0.0 
4.720653597909e-04 7.045671491994e-02 0.0 
8.812125666301e-04 7.840136113616e-02 0.0 
1.105357887849e-03 7.640982520766e-02 0.0 
9.979774945172e-04 5.710996047813e-02 0.0 
1.161482617098e-03 5.909383307254e-02 0.0 
2.049242892237e-03 3.929905735414e-02 0.0 
1.809214963808e-03 3.559142409630e-02 0.0 
2.506456517125e-03 4.640775959368e-02 0.0 
2.348280214882e-03 4.511237029091e-02 0.0 
2.513239829949e-03 5.064993428500e-02 0.0 
2.711958678056e-03 5.312793221002e-02 0.0 
2.940639250255e-04 2.124456112145e-02 0.0 
1.957224784731e-04 1.589654388618e-02 0.0 
2.146063901513e-03 7.134952235799e-02 0.0 
2.246521486277e-03 7.296605685387e-02 0.0 
1.782584753156e-03 7.129552482820e-02 0.0 
3.618731964644e-04 1.828591672916e-02 0.0 
2.560147065644e-04 1.624598440308e-02 0.0 
3.750915833869e-04 1.953873715428e-02 0.0 
2.763052086005e-04 8.098657712643e-02 0.0 
4.250543865663e-04 8.057078221018e-02 0.0 
1.986074683735e-03 8.882431941918e-02 0.0 
1.630158110306e-03 8.871737334712e-02 0.0 
5.988007400220e-04 2.025914585030e-02 0.0 
7.706877307693e-04 2.448921631220e-02 0.0 
4.204682132972e-04 1.531694292636e-02 0.0 
1.795442564421e-04 7.622713951124e-02 0.0 
2.485005638355e-03 3.751959766460e-02 0.0 
1.141473249498e-03 1.849912088103e-02 0.0 
1.394575112679e-03 2.182979683956e-02 0.0 
8.483346334425e-04 1.428018353429e-02 0.0 
1.911463209158e-03 2.677304854428e-02 0.0 
1.443947906492e-03 1.937990441977e-02 0.0 
1.392182616874e-03 1.909859903788e-02 0.0 
1.403811225710e-04 8.565420431466e-02 0.0 
6.103224918044e-05 2.181805717642e-02 0.0 
5.458599455008e-04 6.007723765273e-02 0.0 
-2.350701428433e-04 8.526911514400e-02 0.0 
4.757418419290e-04 6.296551125905e-02 0.0 
3.992873745618e-04 5.950945686379e-02 0.0 
4.118000595491e-04 6.573573339343e-02 0.0 
1.493423588283e-04 7.800169352794e-02 0.0 
9.031465041114e-04 6.208248490885e-02 0.0 
9.875664182394e-04 5.867404472035e-02 0.0 
1.446532098649e-04 8.159084523723e-02 0.0 
2.475143933089e-04 1.366425505705e-02 0.0 
1.666978410569e-04 8.126218495598e-02 0.0 
2.249344586155e-04 8.087228139062e-02 0.0 
7.262297048325e-04 1.670104637185e-02 0.0 
8.017645821651e-04 2.073139774544e-02 0.0 
5.289505940416e-04 1.344578716656e-02 0.0 
6.290773734073e-04 1.789093220950e-02 0.0 
8.455377559841e-04 2.477426522274e-02 0.0 
6.644418332349e-04 2.167401309897e-02 0.0 
6.447303455258e-04 6.383539414729e-02 0.0 
4.364817950404e-04 1.356417372220e-02 0.0 
4.967126971713e-04 1.834898897919e-02 0.0 
2.871598934852e-04 1.045432502330e-02 0.0 
2.221140222896e-03 7.752733970193e-02 0.0 
2.857070170068e-03 8.327166819091e-02 0.0 
2.606127742930e-03 8.526104945698e-02 0.0 
2.295259095389e-03 8.833581646157e-02 0.0 
9.408224311742e-04 1.571288089987e-02 0.0 
1.148576378090e-03 2.063696850520e-02 0.0 
2.306612158219e-04 3.085449557694e-02 0.0 
2.643147897240e-04 3.719162847787e-02 0.0 
3.290307694492e-04 6.269690757729e-02 0.0 
2.377211673859e-04 6.294371738186e-02 0.0 
2.628776610015e-04 5.741939547396e-02 0.0 
1.884613594110e-04 5.811442113635e-02 0.0 
1.969168883194e-04 5.239204751616e-02 0.0 
1.258426156714e-04 5.313968394120e-02 0.0 
1.530189057309e-04 4.711533577310e-02 0.0 
1.082788852142e-03 1.494398575875e-02 0.0 
2.084111494312e-03 9.000974126313e-02 0.0 
2.040042859111e-03 7.304085333645e-02 0.0 
1.212813784471e-03 1.627342763530e-02 0.0 
1.512239528901e-03 2.113307530658e-02 0.0 
2.503901081085e-03 7.779128264677e-02 0.0 
2.360556489450e-03 8.182602443069e-02 0.0 
7.603343052447e-04 1.479667814284e-02 0.0 
3.368141103092e-03 7.672512519563e-02 0.0 
1.826391568257e-04 8.827291305184e-03 0.0 
-1.037455339093e-03 8.867730809048e-02 0.0 
1.586449151588e-04 8.770445357129e-02 0.0 
3.371542681950e-03 7.513404670903e-02 0.0 
2.590431942519e-03 7.340336938288e-02 0.0 
2.858999734892e-03 8.170421887487e-02 0.0 
2.636353136142e-03 8.347284213450e-02 0.0 
2.128492525571e-03 3.906830097288e-02 0.0 
3.360571860335e-04 8.118393400223e-02 0.0 
2.229849619794e-03 8.862687370699e-02 0.0 
2.189075196211e-04 4.642241569922e-02 0.0 
1.660980035749e-03 9.069757261882e-02 0.0 
1.214895026946e-04 3.378354854358e-02 0.0 
3.440211093995e-03 7.431183673374e-02 0.0 
2.915640720266e-03 6.883838635477e-02 0.0 
2.655625947220e-03 8.620490139899e-02 0.0 
3.087057941562e-03 8.085117292615e-02 0.0 
2.009693291378e-03 5.735664721585e-02 0.0 
1.784977355624e-03 6.253479083139e-02 0.0 
1.927518777648e-03 6.547616383086e-02 0.0 
3.458764960079e-03 7.194663359703e-02 0.0 
2.619799482254e-03 8.169321778858e-02 0.0 
2.391710272840e-03 8.536323544674e-02 0.0 
2.460977126336e-03 6.077454259091e-02 0.0 
9.697552250781e-04 3.223049558735e-02 0.0 
9.609123029188e-04 2.876059921059e-02 0.0 
7.388871254703e-04 2.114184118181e-02 0.0 
9.352193996138e-04 2.528850342100e-02 0.0 
1.160522084455e-03 3.293343849795e-02 0.0 
1.147783888721e-03 2.952454030035e-02 0.0 
8.889698639243e-04 2.185878601622e-02 0.0 
1.112340535485e-03 2.607564503718e-02 0.0 
7.486005978009e-04 1.666817974666e-02 0.0 
1.042173577337e-03 2.240295245446e-02 0.0 
1.348357687216e-03 3.036911608295e-02 0.0 
1.306885218767e-03 2.709595359834e-02 0.0 
1.000091612762e-03 1.984903180932e-02 0.0 
1.594307020365e-03 3.487818123414e-02 0.0 
9.384298981251e-04 1.214125177784e-02 0.0 
3.428180030049e-03 7.069538811125e-02 0.0 
6.977954073776e-04 8.617297823089e-02 0.0 
7.434733027128e-04 8.851341046868e-02 0.0 
2.775979344219e-03 6.628040325857e-02 0.0 
3.662202399139e-04 8.149337084907e-03 0.0 
2.867373376792e-04 8.006630332879e-03 0.0 
3.215189437133e-03 7.911569801892e-02 0.0 
4.845687914601e-04 7.558985967084e-03 0.0 
2.056895208776e-03 6.297527958762e-02 0.0 
2.430646571849e-03 8.313814459696e-02 0.0 
5.361993708704e-04 7.555816013429e-03 0.0 
1.155011506990e-03 3.627979287703e-02 0.0 
1.344605863577e-03 4.031128591424e-02 0.0 
1.307863184700e-03 4.346751798528e-02 0.0 
2.194538865787e-04 7.460304721632e-03 0.0 
9.346074727082e-04 5.212937633771e-02 0.0 
5.470629266457e-04 6.968006817256e-03 0.0 
3.053874663145e-03 5.007701699817e-02 0.0 
3.181362263548e-03 5.296141541016e-02 0.0 
3.338263390787e-03 5.832137225630e-02 0.0 
1.368742755949e-03 3.382067678767e-02 0.0 
5.574766719104e-04 7.286992401679e-03 0.0 
1.015674578661e-03 1.396244723730e-02 0.0 
9.696380931415e-04 1.391331791429e-02 0.0 
1.437497840311e-03 2.085886308527e-02 0.0 
5.101450845839e-04 7.195576373070e-03 0.0 
3.836939393671e-04 7.315242709060e-03 0.0 
3.922862989179e-04 6.941469118430e-03 0.0 
2.027561447293e-03 7.571080468090e-02 0.0 
2.332950784584e-03 7.457767594738e-02 0.0 
2.516347170893e-03 7.161633417776e-02 0.0 
2.617934428810e-03 7.337165312519e-02 0.0 
2.400585250343e-03 7.622895273797e-02 0.0 
2.699564539767e-03 7.517322311527e-02 0.0 
2.870273358690e-03 7.208899822979e-02 0.0 
2.758371695703e-03 7.701943251670e-02 0.0 
1.498066931134e-03 2.815911202999e-02 0.0 
4.396622787341e-04 6.887308294587e-03 0.0 
2.022888340604e-03 4.823279438214e-02 0.0 
2.231599518489e-03 5.079048717695e-02 0.0 
2.317231281242e-03 5.578490288469e-02 0.0 
1.144593667571e-03 6.321239808797e-02 0.0 
1.320651304354e-03 6.103256698380e-02 0.0 
1.321269294502e-03 5.666641681655e-02 0.0 
9.675839245026e-04 6.528911176359e-02 0.0 
2.671502056374e-03 4.378314305890e-02 0.0 
4.052974629736e-04 6.930875649135e-03 0.0 
2.758389809237e-03 5.038637312556e-02 0.0 
1.475518405170e-03 6.291785306202e-02 0.0 
1.210326421691e-03 6.773598587204e-02 0.0 
1.249996738212e-03 6.286744998888e-02 0.0 
1.378455684132e-03 6.270479545558e-02 0.0 
1.276277270395e-03 5.688893527960e-02 0.0 
1.112254388040e-03 6.221670216662e-02 0.0 
8.334439248362e-04 5.504999792851e-02 0.0 
6.693894485590e-04 5.292501623424e-02 0.0 
5.268914545084e-04 5.556872645712e-02 0.0 
5.070522727671e-04 5.073076551771e-02 0.0 
3.681224545793e-04 5.347646149241e-02 0.0 
3.832432748066e-04 5.798267509531e-02 0.0 
3.440397143724e-04 4.846234739104e-02 0.0 
2.105264334403e-04 5.188144504329e-02 0.0 
9.698909818621e-04 6.777617817402e-02 0.0 
-4.970750812887e-04 8.387295035042e-02 0.0 
3.733187733901e-05 8.322491049532e-02 0.0 
4.455475640891e-05 8.277850721021e-02 0.0 
4.415307363814e-04 8.238324079592e-02 0.0 
5.150843586737e-04 8.281122099957e-02 0.0 
9.398968753610e-04 8.154090919156e-02 0.0 
9.812296834593e-04 8.222923222946e-02 0.0 
3.015923979702e-05 8.380943556238e-02 0.0 
-3.085835848091e-04 8.294664324883e-02 0.0 
6.831709631462e-05 8.241538010417e-02 0.0 
-2.295863202748e-04 8.260800144342e-02 0.0 
7.445446722049e-05 8.213017530841e-02 0.0 
4.270930434761e-04 8.152181384646e-02 0.0 
6.610436538149e-04 7.923895448983e-02 0.0 
1.279238980711e-04 8.133434066332e-03 0.0 
1.431337671531e-04 6.398850783588e-02 0.0 
2.764500789881e-04 6.585881533951e-02 0.0 
2.505022877748e-04 6.913299677248e-02 0.0 
4.042245201375e-04 6.743056646756e-02 0.0 
2.659795619001e-04 6.241318377437e-02 0.0 
1.212119906693e-04 7.074663281196e-02 0.0 
2.336004667201e-04 7.176939348222e-02 0.0 
1.954285859378e-05 8.138718792462e-02 0.0 
3.950119756789e-05 8.103969364384e-02 0.0 
8.707741135443e-06 8.107789351200e-02 0.0 
5.830440239450e-05 8.038511900631e-02 0.0 
9.526428457939e-05 8.042682964052e-02 0.0 
6.935256448056e-05 8.105732067316e-02 0.0 
9.386382797176e-05 8.110719219103e-02 0.0 
2.893270748033e-05 8.148187808919e-02 0.0 
1.155313161889e-04 8.117371596087e-02 0.0 
1.847860529385e-04 8.047528388915e-02 0.0 
2.765677543377e-05 8.155584370147e-02 0.0 
4.575498995159e-05 3.772792922829e-02 0.0 
8.921795584511e-05 3.400366144715e-02 0.0 
3.611664445788e-04 7.346920058689e-03 0.0 
7.457820674757e-04 6.733539210303e-02 0.0 
-1.022611585743e-04 8.210741446345e-02 0.0 
6.979286249468e-05 9.396197944517e-03 0.0 
1.023623260626e-04 7.827422211144e-03 0.0 
9.020761128726e-05 7.575388737791e-03 0.0 
7.528592821643e-05 1.992505840251e-02 0.0 
1.226391883479e-04 1.633899951969e-02 0.0 
3.158496420125e-05 9.126085561693e-03 0.0 
9.974571795558e-04 7.430595834411e-02 0.0 
6.844914662499e-04 1.779406024797e-02 0.0 
2.015460868247e-04 2.379152220381e-02 0.0 
2.354187506173e-03 8.496063182623e-02 0.0 
1.353909356123e-03 7.527708595873e-02 0.0 
4.170373015733e-04 3.989802578879e-02 0.0 
1.224018985931e-03 4.674835676352e-02 0.0 
4.911231875970e-04 2.641197499588e-02 0.0 
7.542912255282e-04 4.496984625398e-02 0.0 
8.194652299349e-04 3.221794405781e-02 0.0 
9.511093821248e-04 1.433471069736e-02 0.0 
2.095383363992e-04 7.865216255123e-02 0.0 
5.806594701471e-04 5.085249524052e-02 0.0 
3.735274926606e-04 5.319341858953e-02 0.0 
3.401558858880e-04 3.598197449365e-02 0.0 
6.681013542311e-04 7.328769272107e-02 0.0 
5.380406131248e-04 5.977668568837e-02 0.0 
4.992399351111e-04 7.848133289422e-02 0.0 
9.577216015524e-04 1.424252763976e-02 0.0 
2.490053832139e-03 6.608651225898e-02 0.0 
2.172672065524e-03 5.818962430247e-02 0.0 
1.098859927375e-03 6.692648204789e-02 0.0 
1.212273772327e-03 7.291900505054e-02 0.0 
1.394414629468e-03 7.647263828193e-02 0.0 
3.361626030013e-03 6.854548729254e-02 0.0 
1.658450425072e-03 6.073557503685e-02 0.0 
1.443235347458e-03 3.714251816223e-02 0.0 
2.583436820189e-04 3.177526753329e-02 0.0 
3.541001253636e-06 8.173698408696e-02 0.0 
1.457510383338e-03 3.365078379122e-02 0.0 
1.605880878321e-03 5.147542799836e-02 0.0 
8.068697095537e-04 4.846557356124e-02 0.0 
2.318967415486e-03 3.474215235973e-02 0.0 
1.053128218722e-03 8.046046943454e-02 0.0 
4.892082480965e-04 3.335703506975e-02 0.0 
4.764388578101e-04 1.955580031040e-02 0.0 
1.063845952183e-03 5.562873405029e-02 0.0 
3.533383947341e-04 7.990960475266e-02 0.0 
6.204119279165e-04 5.738584439062e-02 0.0 
1.030661046936e-03 1.896971502630e-02 0.0 
9.606586174185e-04 3.561036764330e-02 0.0 
5.116513914673e-04 7.464853183201e-02 0.0 
3.065145275146e-03 5.803198307285e-02 0.0 
3.041664223944e-03 6.634666688321e-02 0.0 
1.778705838013e-03 7.256546213294e-02 0.0 
2.093064563821e-04 2.037853763458e-02 0.0 
3.330286009917e-03 5.850752829261e-02 0.0 
1.872788797331e-03 2.840814912206e-02 0.0 
2.762296248881e-03 4.748763100085e-02 0.0 
4.313888195719e-04 7.349087034931e-02 0.0 
1.037192628969e-03 2.775946016615e-02 0.0 
3.358720776219e-03 6.068486942163e-02 0.0 
3.916084141675e-04 2.554372753198e-02 0.0 
2.260324695309e-03 3.979024049223e-02 0.0 
3.246918768040e-03 6.907651079700e-02 0.0 
6.413491312989e-04 3.069093014339e-02 0.0 
2.504779850423e-03 5.807966911730e-02 0.0 
2.149335130294e-03 3.106108226809e-02 0.0 
2.631692975661e-03 6.868212134097e-02 0.0 
2.693931199837e-03 5.258427127002e-02 0.0 
2.028725004035e-03 4.550189241931e-02 0.0 
3.082335781730e-03 5.578235133869e-02 0.0 
2.855131679829e-04 4.314793072779e-02 0.0 
1.242294795858e-03 3.073660262777e-02 0.0 
1.671079852058e-03 8.209015300868e-02 0.0 
3.247311851916e-03 7.712911063502e-02 0.0 
9.929450335913e-04 4.905074858288e-02 0.0 
1.753983351943e-03 2.630469736648e-02 0.0 
2.800740348232e-04 1.725233044639e-02 0.0 
3.034677913606e-03 7.115324039957e-02 0.0 
1.036370038145e-03 3.148751913187e-02 0.0 
4.979460269591e-04 2.298314226523e-02 0.0 
1.491474552136e-03 5.874005880836e-02 0.0 
7.003986714404e-05 7.777262841439e-02 0.0 
1.848133812527e-03 8.681288490492e-02 0.0 
3.020708210002e-03 7.601568516184e-02 0.0 
3.404093646931e-03 6.096712641384e-02 0.0 
1.470979676617e-03 5.414916662439e-02 0.0 
5.257598662260e-04 1.575941286004e-02 0.0 
8.477178764876e-04 2.856957497398e-02 0.0 
1.894088215287e-03 3.596249508818e-02 0.0 
4.290799164415e-04 9.197091086058e-02 0.0 
1.929106863498e-03 7.044403465081e-02 0.0 
6.717265586693e-04 2.557482745636e-02 0.0 
2.897369805379e-03 5.558410818464e-02 0.0 
1.936338926398e-03 2.791137796280e-02 0.0 
2.329705891128e-04 5.616658598128e-02 0.0 
1.002957464994e-03 1.437261837213e-02 0.0 
2.308789137631e-03 7.966265127789e-02 0.0 
5.104335092676e-04 2.250140719474e-02 0.0 
2.086358873279e-03 3.568314460401e-02 0.0 
3.321241909147e-03 7.799784091891e-02 0.0 
2.042066616740e-04 6.789397548507e-02 0.0 
3.236391727626e-04 1.405011374765e-02 0.0 
1.748877507158e-03 2.859971493151e-02 0.0 
2.906143352872e-03 4.998794865945e-02 0.0 
2.809250163537e-03 5.802335422494e-02 0.0 
1.956353670224e-03 7.728201563380e-02 0.0 
1.288638793807e-03 5.192649862970e-02 0.0 
2.491174872962e-03 4.938625669153e-02 0.0 
1.968769762632e-04 7.265516004381e-03 0.0 
1.638126679094e-03 2.523185770522e-02 0.0 
1.484637752877e-03 4.732735706146e-02 0.0 
1.148820650437e-03 5.459115691621e-02 0.0 
2.841136661535e-03 4.417444621938e-02 0.0 
1.419567248658e-04 8.045469778034e-02 0.0 
2.135960801195e-03 7.530592213804e-02 0.0 
9.755663968868e-04 5.243553373092e-02 0.0 
2.957818217810e-03 7.404546479792e-02 0.0 
2.625747636031e-03 5.568577177754e-02 0.0 
1.218474904902e-03 1.595220393120e-02 0.0 
8.045208153684e-04 5.020706622818e-02 0.0 
3.081892598808e-03 7.065415037733e-02 0.0 
6.367536231553e-04 4.791088488819e-02 0.0 
2.091943126973e-03 8.144171817066e-02 0.0 
1.534703139184e-03 4.416113233796e-02 0.0 
4.668675400444e-04 4.554100920397e-02 0.0 
2.283534850405e-03 4.293616105568e-02 0.0 
2.334491705302e-04 8.049320518365e-02 0.0 
2.868306160655e-03 4.710345730691e-02 0.0 
1.794459432339e-04 2.374975487140e-02 0.0 
1.669886031282e-03 6.984059043656e-02 0.0 
2.434090495593e-03 5.332077971893e-02 0.0 
1.365314195170e-03 3.707888133989e-02 0.0 
2.148045716928e-03 8.506932955801e-02 0.0 
2.309142529273e-03 4.805058308820e-02 0.0 
2.016383852620e-03 3.609237689336e-02 0.0 
2.794591615126e-03 4.413437328961e-02 0.0 
3.274700282747e-03 5.578775445571e-02 0.0 
2.129096051012e-03 4.225719569916e-02 0.0 
2.400245259573e-03 8.346090013526e-02 0.0 
1.048184952435e-03 7.547510955899e-02 0.0 
8.713315453515e-04 7.752480777147e-02 0.0 
2.968896853441e-03 6.859854443456e-02 0.0 
1.758833435579e-03 3.217881224621e-02 0.0 
1.163065277359e-04 7.951381899743e-02 0.0 
1.590721818870e-03 3.792091316283e-02 0.0 
6.265595114002e-04 7.998244853143e-02 0.0 
2.760293363047e-03 7.017058627262e-02 0.0 
2.309993752729e-03 3.371178455939e-02 0.0 
5.613516837392e-05 5.147408707614e-02 0.0 
2.632304915392e-03 6.826751341891e-02 0.0 
8.646296545113e-05 7.581189224256e-02 0.0 
2.400096068138e-03 6.987505285488e-02 0.0 
3.086598111285e-03 5.016619105032e-02 0.0 
2.270686211567e-03 6.809675048568e-02 0.0 
2.032025109908e-03 6.973806224545e-02 0.0 
1.343108851836e-04 1.575588169511e-02 0.0 
1.905378651232e-03 6.810500368447e-02 0.0 
1.109434840556e-05 7.577966046085e-03 0.0 
5.504052275803e-05 7.404804184577e-03 0.0 
7.805989627014e-05 6.365985180244e-02 0.0 
2.066133715414e-03 8.837585154236e-02 0.0 
-8.682942586294e-04 8.617066817200e-02 0.0 
2.410152076335e-03 8.640726282613e-02 0.0 
1.534296245024e-03 7.275506771932e-02 0.0 
1.827136523590e-03 3.881085925674e-02 0.0 
1.622596337144e-04 6.338798298240e-02 0.0 
1.287729489079e-03 7.413551455571e-02 0.0 
7.218724357893e-04 1.460421182106e-02 0.0 
5.295995631958e-04 6.973156904966e-03 0.0 
1.037928211650e-04 4.098874922467e-02 0.0 
1.727607855370e-03 2.504240769851e-02 0.0 
2.673468921982e-03 4.082450042211e-02 0.0 
2.860332931042e-05 2.262388229754e-02 0.0 
4.779372066942e-04 6.828641084303e-02 0.0 
8.735654738172e-05 8.189258580159e-02 0.0 
1.383700524047e-04 4.004427748841e-02 0.0 
1.919815265408e-03 9.073755189134e-02 0.0 
2.199951841337e-03 8.935642181109e-02 0.0 
1.885185012970e-03 9.055977072203e-02 0.0 
3.368876044128e-04 7.252522866396e-02 0.0 
3.944421785382e-04 8.200381821752e-02 0.0 
1.725229189256e-03 9.183629417006e-02 0.0 
1.069825841437e-03 1.445497849367e-02 0.0 
8.070078029486e-04 6.325487151865e-02 0.0 
2.120806642428e-03 3.067478116043e-02 0.0 
1.240265041753e-03 9.254975166581e-02 0.0 
3.363221774607e-04 1.522555919018e-02 0.0 
1.109535990588e-03 1.463302213241e-02 0.0 
2.674345604950e-04 6.480201942741e-03 0.0 
1.663419750496e-03 2.299143746333e-02 0.0 
1.305170605002e-03 9.058921643413e-02 0.0 
1.175619903718e-03 5.813396020025e-02 0.0 
9.075969259423e-04 1.417446151373e-02 0.0 
1.401640178080e-04 3.509116155046e-02 0.0 
1.886786810532e-04 6.223404175250e-03 0.0 
1.012848466864e-03 6.376456537085e-02 0.0 
8.432154959104e-05 1.472235338278e-02 0.0 
1.268828471721e-03 8.235155762650e-02 0.0 
3.724443924937e-05 1.428657117559e-02 0.0 
1.559987045781e-03 3.150138321310e-02 0.0 
3.260397260078e-04 5.610036241215e-02 0.0 
1.402451511878e-03 5.834890933616e-02 0.0 
1.502987388478e-04 1.283775219518e-02 0.0 
6.106279422059e-04 1.475325936923e-02 0.0 
8.234971082464e-04 8.989134837338e-02 0.0 
1.621758885799e-04 4.170353825122e-02 0.0 
5.434641581420e-04 6.740479968756e-02 0.0 
-1.010473952182e-04 8.455974391050e-02 0.0 
6.433910896778e-04 1.349515211946e-02 0.0 
1.249442658737e-03 2.405634715133e-02 0.0 
2.497090347017e-04 1.309833306537e-02 0.0 
2.231945805636e-05 8.044081991062e-02 0.0 
8.818532575890e-05 8.157290660021e-02 0.0 
6.958222740936e-04 1.250638867570e-02 0.0 
7.597828960964e-04 1.342419489755e-02 0.0 
1.380642502770e-03 8.085286937468e-02 0.0 
1.112794702657e-04 6.158601864124e-03 0.0 
-5.452637770006e-05 8.927421366009e-02 0.0 
6.545711337452e-04 6.884546980907e-02 0.0 
1.240195524476e-04 8.129331489644e-02 0.0 
1.553578711565e-04 6.297029574447e-03 0.0 
2.077455023821e-04 1.413726754312e-02 0.0 
3.781872596017e-04 6.416786830509e-02 0.0 
1.449890268470e-03 6.709302946509e-02 0.0 
2.024019418689e-04 7.423689254425e-02 0.0 
1.382437085584e-03 1.991955990048e-02 0.0 
3.071668580008e-04 8.149914462126e-02 0.0 
1.374975716730e-04 1.334252343348e-02 0.0 
7.805723976571e-04 1.223372523202e-02 0.0 
4.104874630346e-04 1.340341828858e-02 0.0 
4.245125146169e-04 5.370395446563e-03 0.0 
-1.583974832561e-04 8.662672380899e-02 0.0 
9.426037786747e-04 1.257068760283e-02 0.0 
1.287125135807e-03 1.919389847287e-02 0.0 
3.613584101661e-04 6.852435253906e-02 0.0 
5.292617933082e-04 1.439316534184e-02 0.0 
3.545685997892e-04 7.018674803694e-02 0.0 
2.810743117809e-04 7.965106823089e-02 0.0 
6.494352182651e-06 6.716828183085e-03 0.0 
-5.102541343010e-06 8.137418291636e-02 0.0 
5.883161553747e-05 6.852173998971e-02 0.0 
2.366265767158e-05 6.042800132311e-03 0.0 
1.548324566152e-04 7.975545942580e-02 0.0 
1.283545084631e-04 5.931137440788e-02 0.0 
6.866861896511e-04 1.293367234380e-02 0.0 
9.578147478481e-05 5.538876788539e-02 0.0 
7.290657817605e-05 2.787816853348e-02 0.0 
7.086749609504e-04 8.149533805831e-02 0.0 
-8.745984545657e-04 8.522883364160e-02 0.0 
1.013830356175e-04 4.813063234368e-02 0.0 
1.011974983696e-03 1.310982185218e-02 0.0 
3.159362066161e-04 1.278901251592e-02 0.0 
2.603050270818e-04 5.261114744336e-02 0.0 
1.347304867058e-03 8.813577019044e-02 0.0 
9.760872092453e-04 1.823134107696e-02 0.0 
4.024677426494e-04 6.117006541458e-02 0.0 
1.248506471157e-03 1.953822722765e-02 0.0 
1.376830949052e-03 1.943818517401e-02 0.0 
-9.895645942357e-04 9.004761782698e-02 0.0 
9.278800922267e-05 5.062032038873e-02 0.0 
1.165872589680e-04 8.140495729963e-02 0.0 
4.378563462581e-04 1.199413991339e-02 0.0 
2.630863943754e-04 5.927633436586e-02 0.0 
-2.818979474381e-04 9.483333259407e-02 0.0 
6.004342770379e-05 1.005417722285e-01 0.0 
7.065719117270e-04 9.489954202062e-02 0.0 
3.313403995829e-05 9.882458410672e-02 0.0 
1.286877402194e-03 9.403019186265e-02 0.0 
4.396273982969e-05 9.669068016008e-02 0.0 
1.626151997609e-03 9.236855951103e-02 0.0 
2.821216315958e-05 9.413018512888e-02 0.0 
1.795716767614e-03 9.006057038427e-02 0.0 
4.509531940083e-05 9.114150993724e-02 0.0 
1.852628080709e-03 8.711528477753e-02 0.0 
3.026478517936e-05 8.772409230072e-02 0.0 
1.817132803302e-03 8.364638407703e-02 0.0 
4.741075638154e-05 8.387795389766e-02 0.0 
1.713661746791e-03 7.959744540986e-02 0.0 
3.124331389262e-05 7.960345041776e-02 0.0 
1.564391488347e-03 7.511329323821e-02 0.0 
4.706511717724e-05 7.490302309117e-02 0.0 

TENSORS node_materi_stress float
-3.848884777501e+00 3.161723239841e-02 0.0 
3.161723239841e-02 -8.500687024684e+00 0.0 
0.0 0.0 -3.623124815736e+00 
-7.635384372209e+01 4.479087629627e-01 0.0 
4.479087629627e-01 -1.769528615502e+02 0.0 
0.0 0.0 -7.559201158168e+01 
-1.632771749639e+02 -2.923876319540e-01 0.0 
-2.923876319540e-01 -3.827081164727e+02 0.0 
0.0 0.0 -1.633955874310e+02 
-1.557152690485e+02 4.280168092042e-01 0.0 
4.280168092042e-01 -3.643408642625e+02 0.0 
0.0 0.0 -1.556168399933e+02 
-8.643684892692e+00 -2.512057777735e-01 0.0 
-2.512057777735e-01 -2.071082139057e+01 0.0 
0.0 0.0 -8.618520735033e+00 
-1.617885046056e+01 -5.834490744722e-01 0.0 
-5.834490744722e-01 -4.015636870660e+01 0.0 
0.0 0.0 -1.650056575015e+01 
-2.354111028080e+01 -4.456227780027e-01 0.0 
-4.456227780027e-01 -5.829810194810e+01 0.0 
0.0 0.0 -2.415176366867e+01 
-3.199077324757e+01 -3.941017181670e-01 0.0 
-3.941017181670e-01 -7.889956844933e+01 0.0 
0.0 0.0 -3.286710250907e+01 
-4.003825620026e+01 -2.869198514662e-01 0.0 
-2.869198514662e-01 -9.870702324677e+01 0.0 
0.0 0.0 -4.122358383411e+01 
-4.824135965348e+01 -2.684362806938e-01 0.0 
-2.684362806938e-01 -1.182444056027e+02 0.0 
0.0 0.0 -4.954572957685e+01 
-5.636190897623e+01 -2.941319023304e-01 0.0 
-2.941319023304e-01 -1.377673595123e+02 0.0 
0.0 0.0 -5.783878054655e+01 
-6.444845280136e+01 -2.570149398862e-01 0.0 
-2.570149398862e-01 -1.572765107420e+02 0.0 
0.0 0.0 -6.611748906300e+01 
-7.262427592127e+01 -2.504897444842e-01 0.0 
-2.504897444842e-01 -1.767870686972e+02 0.0 
0.0 0.0 -7.442340338554e+01 
-8.081974408658e+01 -3.164275967622e-01 0.0 
-3.164275967622e-01 -1.964877789059e+02 0.0 
0.0 0.0 -8.279225689775e+01 
-8.920478586417e+01 -4.792240162988e-01 0.0 
-4.792240162988e-01 -2.166808440866e+02 0.0 
0.0 0.0 -9.136568898523e+01 
-9.777720363220e+01 -5.075506729133e-01 0.0 
-5.075506729133e-01 -2.362384535850e+02 0.0 
0.0 0.0 -9.980469716516e+01 
-1.056842068639e+02 -6.564734555977e-01 0.0 
-6.564734555977e-01 -2.540528531445e+02 0.0 
0.0 0.0 -1.075211180025e+02 
-1.141379129674e+02 -2.264301501109e-01 0.0 
-2.264301501109e-01 -2.736352200954e+02 0.0 
0.0 0.0 -1.159319399188e+02 
-1.229887366209e+02 -2.066732610092e-01 0.0 
-2.066732610092e-01 -2.937230542022e+02 0.0 
0.0 0.0 -1.246135372469e+02 
-1.316577753590e+02 -2.074022116852e-01 0.0 
-2.074022116852e-01 -3.132001883305e+02 0.0 
0.0 0.0 -1.330573891069e+02 
-1.404253576373e+02 -1.815015606271e-01 0.0 
-1.815015606271e-01 -3.328236217451e+02 0.0 
0.0 0.0 -1.415746938147e+02 
-1.493301443768e+02 -2.302754932175e-01 0.0 
-2.302754932175e-01 -3.525957896667e+02 0.0 
0.0 0.0 -1.501777802130e+02 
-1.580126660221e+02 -3.131318854011e-01 0.0 
-3.131318854011e-01 -3.714837956504e+02 0.0 
0.0 0.0 -1.584489385018e+02 
-1.562125355932e+02 1.255353073667e-01 0.0 
1.255353073667e-01 -3.654296930491e+02 0.0 
0.0 0.0 -1.560926685927e+02 
-1.556428564449e+02 1.941089289258e-01 0.0 
1.941089289258e-01 -3.643983455259e+02 0.0 
0.0 0.0 -1.556123605912e+02 
-1.557726154459e+02 5.263926977892e-01 0.0 
5.263926977892e-01 -3.646655629984e+02 0.0 
0.0 0.0 -1.557314535333e+02 
-1.557227845727e+02 2.411485428774e-01 0.0 
2.411485428774e-01 -3.646492792077e+02 0.0 
0.0 0.0 -1.557116191341e+02 
-1.554700025533e+02 4.869710521503e-01 0.0 
4.869710521503e-01 -3.640279913109e+02 0.0 
0.0 0.0 -1.554493981593e+02 
-1.557977223847e+02 5.539981181777e-01 0.0 
5.539981181777e-01 -3.646777002808e+02 0.0 
0.0 0.0 -1.557426267996e+02 
-1.560306798683e+02 6.587479123483e-01 0.0 
6.587479123483e-01 -3.649217076882e+02 0.0 
0.0 0.0 -1.558857162669e+02 
-1.557490562846e+02 8.312428296261e-01 0.0 
8.312428296261e-01 -3.646257337123e+02 0.0 
0.0 0.0 -1.557124369991e+02 
-1.561483016277e+02 1.087991448577e+00 0.0 
1.087991448577e+00 -3.654008614816e+02 0.0 
0.0 0.0 -1.560647489328e+02 
-1.561095658875e+02 9.381472452771e-01 0.0 
9.381472452771e-01 -3.654208779038e+02 0.0 
0.0 0.0 -1.560591331374e+02 
-1.558972109139e+02 1.212505850563e+00 0.0 
1.212505850563e+00 -3.648768497728e+02 0.0 
0.0 0.0 -1.558322182060e+02 
-1.561851217811e+02 1.360636215595e+00 0.0 
1.360636215595e+00 -3.655507846738e+02 0.0 
0.0 0.0 -1.561207719365e+02 
-1.565660812588e+02 1.508250938785e+00 0.0 
1.508250938785e+00 -3.660986392676e+02 0.0 
0.0 0.0 -1.563994161579e+02 
-1.563313842374e+02 1.689211302194e+00 0.0 
1.689211302194e+00 -3.658913336416e+02 0.0 
0.0 0.0 -1.562668153637e+02 
-1.564240045848e+02 1.898125551786e+00 0.0 
1.898125551786e+00 -3.658258102517e+02 0.0 
0.0 0.0 -1.562749444510e+02 
-1.560986343118e+02 1.997488807737e+00 0.0 
1.997488807737e+00 -3.653682455647e+02 0.0 
0.0 0.0 -1.560400639629e+02 
-1.561600851188e+02 2.242563355186e+00 0.0 
2.242563355186e+00 -3.654992152673e+02 0.0 
0.0 0.0 -1.560977901158e+02 
-1.567740940247e+02 2.439483998166e+00 0.0 
2.439483998166e+00 -3.665390249075e+02 0.0 
0.0 0.0 -1.565939356797e+02 
-1.570252750366e+02 2.672030112359e+00 0.0 
2.672030112359e+00 -3.673213935914e+02 0.0 
0.0 0.0 -1.569040005884e+02 
-1.573455689702e+02 2.886082213352e+00 0.0 
2.886082213352e+00 -3.681214511942e+02 0.0 
0.0 0.0 -1.572401060493e+02 
-1.574863481852e+02 2.996751245638e+00 0.0 
2.996751245638e+00 -3.685089179589e+02 0.0 
0.0 0.0 -1.573985798432e+02 
-1.577222500346e+02 3.267324479018e+00 0.0 
3.267324479018e+00 -3.688990791186e+02 0.0 
0.0 0.0 -1.575863987460e+02 
-1.578961160937e+02 3.433122867584e+00 0.0 
3.433122867584e+00 -3.694537610159e+02 0.0 
0.0 0.0 -1.578049631329e+02 
-1.581275597214e+02 3.619064681060e+00 0.0 
3.619064681060e+00 -3.700335278540e+02 0.0 
0.0 0.0 -1.580483262726e+02 
-1.584860649917e+02 3.762454154795e+00 0.0 
3.762454154795e+00 -3.709246340039e+02 0.0 
0.0 0.0 -1.584232096987e+02 
-1.589703516793e+02 3.904081970228e+00 0.0 
3.904081970228e+00 -3.719137633634e+02 0.0 
0.0 0.0 -1.588652345128e+02 
-1.591829573836e+02 3.995406532088e+00 0.0 
3.995406532088e+00 -3.727702311184e+02 0.0 
0.0 0.0 -1.591859565506e+02 
-1.596835288509e+02 4.046144324777e+00 0.0 
4.046144324777e+00 -3.736871918345e+02 0.0 
0.0 0.0 -1.596112162056e+02 
-1.597947843909e+02 4.070648295518e+00 0.0 
4.070648295518e+00 -3.742805485076e+02 0.0 
0.0 0.0 -1.598225998696e+02 
-1.604812424380e+02 4.180816098340e+00 0.0 
4.180816098340e+00 -3.757639491164e+02 0.0 
0.0 0.0 -1.604735574663e+02 
-1.606017603779e+02 3.840689414065e+00 0.0 
3.840689414065e+00 -3.763507862402e+02 0.0 
0.0 0.0 -1.606857639854e+02 
-1.605412502014e+02 3.840425760924e+00 0.0 
3.840425760924e+00 -3.761532504462e+02 0.0 
0.0 0.0 -1.606083501943e+02 
-1.608704216751e+02 3.753432385613e+00 0.0 
3.753432385613e+00 -3.769181234393e+02 0.0 
0.0 0.0 -1.609365635343e+02 
-1.612900652138e+02 3.638508920833e+00 0.0 
3.638508920833e+00 -3.779559257336e+02 0.0 
0.0 0.0 -1.613737972842e+02 
-1.616514648737e+02 3.440400203012e+00 0.0 
3.440400203012e+00 -3.787767590999e+02 0.0 
0.0 0.0 -1.617284671921e+02 
-1.618413781690e+02 3.275279302542e+00 0.0 
3.275279302542e+00 -3.794450344193e+02 0.0 
0.0 0.0 -1.619859237765e+02 
-1.622548356133e+02 3.029572540286e+00 0.0 
3.029572540286e+00 -3.801931884076e+02 0.0 
0.0 0.0 -1.623344072063e+02 
-1.622355827011e+02 2.790813632422e+00 0.0 
2.790813632422e+00 -3.804094212916e+02 0.0 
0.0 0.0 -1.623935011978e+02 
-1.624219290213e+02 2.583444532621e+00 0.0 
2.583444532621e+00 -3.806450368299e+02 0.0 
0.0 0.0 -1.625200897553e+02 
-1.622860185700e+02 2.301005673633e+00 0.0 
2.301005673633e+00 -3.806357803605e+02 0.0 
0.0 0.0 -1.624765396791e+02 
-1.626065861794e+02 2.139910793168e+00 0.0 
2.139910793168e+00 -3.813458599717e+02 0.0 
0.0 0.0 -1.627857338453e+02 
-1.632649953352e+02 1.797020585645e+00 0.0 
1.797020585645e+00 -3.826049245755e+02 0.0 
0.0 0.0 -1.633609759732e+02 
-1.635704230285e+02 1.653114037306e+00 0.0 
1.653114037306e+00 -3.831647143511e+02 0.0 
0.0 0.0 -1.636205412139e+02 
-1.623364379747e+02 1.386309098046e+00 0.0 
1.386309098046e+00 -3.808539137832e+02 0.0 
0.0 0.0 -1.625571055274e+02 
-1.635505841565e+02 1.085410640459e+00 0.0 
1.085410640459e+00 -3.831563576303e+02 0.0 
0.0 0.0 -1.636120825361e+02 
-1.630705324793e+02 8.781247160068e-01 0.0 
8.781247160068e-01 -3.824265480271e+02 0.0 
0.0 0.0 -1.632491241519e+02 
-1.633813354241e+02 8.368019153402e-01 0.0 
8.368019153402e-01 -3.830281494505e+02 0.0 
0.0 0.0 -1.635228454624e+02 
-1.637457559494e+02 3.837627892534e-01 0.0 
3.837627892534e-01 -3.837844060503e+02 0.0 
0.0 0.0 -1.638590485999e+02 
-1.636826348068e+02 2.559090546277e-01 0.0 
2.559090546277e-01 -3.837281927236e+02 0.0 
0.0 0.0 -1.638232482591e+02 
-8.510065844431e+01 3.163500486611e-01 0.0 
3.163500486611e-01 -1.967730659586e+02 0.0 
0.0 0.0 -8.416211732087e+01 
-9.334219995456e+01 3.620119843577e-01 0.0 
3.620119843577e-01 -2.164675465619e+02 0.0 
0.0 0.0 -9.254292395494e+01 
-1.016855971956e+02 3.555594933308e-01 0.0 
3.555594933308e-01 -2.359770870506e+02 0.0 
0.0 0.0 -1.008988052739e+02 
-1.097995813907e+02 3.834274005522e-01 0.0 
3.834274005522e-01 -2.550969056952e+02 0.0 
0.0 0.0 -1.090689461258e+02 
-1.180479309868e+02 3.427289310066e-01 0.0 
3.427289310066e-01 -2.746344777310e+02 0.0 
0.0 0.0 -1.174047226153e+02 
-1.264908682788e+02 3.788343407317e-01 0.0 
3.788343407317e-01 -2.942603330984e+02 0.0 
0.0 0.0 -1.258253604132e+02 
-1.345881628363e+02 3.413317708415e-01 0.0 
3.413317708415e-01 -3.136486047646e+02 0.0 
0.0 0.0 -1.340710302803e+02 
-1.426495705801e+02 3.955846567554e-01 0.0 
3.955846567554e-01 -3.329061331445e+02 0.0 
0.0 0.0 -1.422667111174e+02 
-1.509483466092e+02 4.359967261928e-01 0.0 
4.359967261928e-01 -3.526724395827e+02 0.0 
0.0 0.0 -1.506862358576e+02 
-5.565502437474e+00 1.928528603357e+00 0.0 
1.928528603357e+00 -6.924472316161e+00 0.0 
0.0 0.0 -3.729447326039e+00 
-7.773386724712e+01 3.372895923359e-01 0.0 
3.372895923359e-01 -1.772982541451e+02 0.0 
0.0 0.0 -7.610963641767e+01 
-5.176482066988e+00 3.243756178379e+00 0.0 
3.243756178379e+00 -1.021472703077e+01 0.0 
0.0 0.0 -4.244257233432e+00 
-9.012483118353e+00 1.395141821220e+00 0.0 
1.395141821220e+00 -1.991623922801e+01 0.0 
0.0 0.0 -8.278616703908e+00 
-1.791378786848e+01 9.775822858774e-01 0.0 
9.775822858774e-01 -3.949195181926e+01 0.0 
0.0 0.0 -1.682172190632e+01 
-2.640428115158e+01 6.937409908213e-01 0.0 
6.937409908213e-01 -5.852072026500e+01 0.0 
0.0 0.0 -2.507750042497e+01 
-3.517483505085e+01 4.940640075626e-01 0.0 
4.940640075626e-01 -7.818291655173e+01 0.0 
0.0 0.0 -3.360732548077e+01 
-4.396241445470e+01 4.433705574392e-01 0.0 
4.433705574392e-01 -9.794620518094e+01 0.0 
0.0 0.0 -4.217258589069e+01 
-5.238475697362e+01 3.312813088267e-01 0.0 
3.312813088267e-01 -1.174913918198e+02 0.0 
0.0 0.0 -5.056284463804e+01 
-6.079156597148e+01 2.844039302762e-01 0.0 
2.844039302762e-01 -1.370579391681e+02 0.0 
0.0 0.0 -5.895485154187e+01 
-6.915751053407e+01 2.965158935246e-01 0.0 
2.965158935246e-01 -1.566507422608e+02 0.0 
0.0 0.0 -6.734247583847e+01 
-4.150383103451e+00 7.201151014995e-01 0.0 
7.201151014995e-01 -7.272748699772e+00 0.0 
0.0 0.0 -3.026939540967e+00 
-9.349139355520e+00 8.329124619653e-01 0.0 
8.329124619653e-01 -1.973707837303e+01 0.0 
0.0 0.0 -8.325865318565e+00 
-1.747073134195e+01 6.385627730140e-01 0.0 
6.385627730140e-01 -3.936006899420e+01 0.0 
0.0 0.0 -1.664924010085e+01 
-2.580456871331e+01 7.928012018664e-01 0.0 
7.928012018664e-01 -5.892266899727e+01 0.0 
0.0 0.0 -2.501817131318e+01 
-3.423194310713e+01 6.449090397809e-01 0.0 
6.449090397809e-01 -7.848336693742e+01 0.0 
0.0 0.0 -3.341459301337e+01 
-4.266189854943e+01 8.055600999171e-01 0.0 
8.055600999171e-01 -9.805485030912e+01 0.0 
0.0 0.0 -4.181502465757e+01 
-5.110311372185e+01 6.553024398380e-01 0.0 
6.553024398380e-01 -1.176328945747e+02 0.0 
0.0 0.0 -5.022080248897e+01 
-5.953347156573e+01 7.929954845623e-01 0.0 
7.929954845623e-01 -1.371962344129e+02 0.0 
0.0 0.0 -5.861891179359e+01 
-6.794545100588e+01 5.625489878633e-01 0.0 
5.625489878633e-01 -1.566559931150e+02 0.0 
0.0 0.0 -6.698043323626e+01 
-7.546642103269e+01 -2.247959320311e-01 0.0 
-2.247959320311e-01 -1.743461797302e+02 0.0 
0.0 0.0 -7.454378022886e+01 
-7.608783475277e+01 -2.510145820724e-02 0.0 
-2.510145820724e-02 -1.755447065260e+02 0.0 
0.0 0.0 -7.508976238364e+01 
-7.605568759110e+01 -2.777054333423e-02 0.0 
-2.777054333423e-02 -1.755862876994e+02 0.0 
0.0 0.0 -7.509259258716e+01 
-7.601002954242e+01 1.745563757548e-02 0.0 
1.745563757548e-02 -1.753493423123e+02 0.0 
0.0 0.0 -7.500781155642e+01 
-7.727161065798e+01 -2.063328406039e-02 0.0 
-2.063328406039e-02 -1.779914604328e+02 0.0 
0.0 0.0 -7.617892132723e+01 
-7.625512448694e+01 -2.593717238375e-02 0.0 
-2.593717238375e-02 -1.756524697938e+02 0.0 
0.0 0.0 -7.517227828421e+01 
-7.633651137950e+01 2.600668181071e-02 0.0 
2.600668181071e-02 -1.754620147374e+02 0.0 
0.0 0.0 -7.513955783508e+01 
-7.643404340058e+01 -3.645828064438e-02 0.0 
-3.645828064438e-02 -1.756431524144e+02 0.0 
0.0 0.0 -7.522315874448e+01 
-7.657922696600e+01 1.643419507150e-02 0.0 
1.643419507150e-02 -1.760635926959e+02 0.0 
0.0 0.0 -7.539284589857e+01 
-7.659412405570e+01 -5.503954492278e-03 0.0 
-5.503954492278e-03 -1.759727483620e+02 0.0 
0.0 0.0 -7.537006172530e+01 
-7.675097543065e+01 4.514446266055e-02 0.0 
4.514446266055e-02 -1.759146285063e+02 0.0 
0.0 0.0 -7.539968118107e+01 
-7.678292581090e+01 9.590219742782e-02 0.0 
9.590219742782e-02 -1.758507104049e+02 0.0 
0.0 0.0 -7.539009086473e+01 
-7.699461011569e+01 9.705944624193e-02 0.0 
9.705944624193e-02 -1.759523172050e+02 0.0 
0.0 0.0 -7.548407819620e+01 
-7.723353350531e+01 1.387803125006e-01 0.0 
1.387803125006e-01 -1.763107429414e+02 0.0 
0.0 0.0 -7.566328293401e+01 
-6.208733042861e+00 5.221161340610e-01 0.0 
5.221161340610e-01 -7.009141587828e+00 0.0 
0.0 0.0 -3.879262230824e+00 
-6.965304724192e+00 -2.094320949704e-02 0.0 
-2.094320949704e-02 -7.679066658704e+00 0.0 
0.0 0.0 -4.310182142464e+00 
-6.874490638714e+00 -2.405747749542e-01 0.0 
-2.405747749542e-01 -7.207210307543e+00 0.0 
0.0 0.0 -4.124928791624e+00 
-6.471201138663e+00 -1.710813657454e-01 0.0 
-1.710813657454e-01 -7.151153477458e+00 0.0 
0.0 0.0 -3.986848500572e+00 
-6.202898131920e+00 -1.179877352405e-01 0.0 
-1.179877352405e-01 -8.077703007592e+00 0.0 
0.0 0.0 -4.206958796904e+00 
-5.971295565992e+00 -1.671923832762e-01 0.0 
-1.671923832762e-01 -8.417328661239e+00 0.0 
0.0 0.0 -4.243570615081e+00 
-5.652832300938e+00 -1.603619641461e-01 0.0 
-1.603619641461e-01 -8.339665599006e+00 0.0 
0.0 0.0 -4.123241430943e+00 
-5.358757399973e+00 -1.308515185045e-01 0.0 
-1.308515185045e-01 -8.237756854732e+00 0.0 
0.0 0.0 -4.003702936161e+00 
-5.067321047456e+00 -1.184086470158e-01 0.0 
-1.184086470158e-01 -8.220435863541e+00 0.0 
0.0 0.0 -3.909631454229e+00 
-4.849160373698e+00 -9.974070369569e-02 0.0 
-9.974070369569e-02 -8.230562811804e+00 0.0 
0.0 0.0 -3.847863346575e+00 
-4.619823117340e+00 -3.826421937739e-02 0.0 
-3.826421937739e-02 -8.350774659569e+00 0.0 
0.0 0.0 -3.816855156718e+00 
-4.675755790176e+00 -1.285972523517e-01 0.0 
-1.285972523517e-01 -8.904999805827e+00 0.0 
0.0 0.0 -4.010895923469e+00 
-4.305161803063e+00 -1.978833966850e-01 0.0 
-1.978833966850e-01 -8.601544361128e+00 0.0 
0.0 0.0 -3.803901591498e+00 
-3.805595213490e+00 -1.415073078372e-01 0.0 
-1.415073078372e-01 -7.861654952510e+00 0.0 
0.0 0.0 -3.418399979349e+00 
-3.599485603888e+00 -9.499168057388e-02 0.0 
-9.499168057388e-02 -8.012646184809e+00 0.0 
0.0 0.0 -3.406602020156e+00 
-3.495362468217e+00 -7.898913908251e-02 0.0 
-7.898913908251e-02 -8.278028872348e+00 0.0 
0.0 0.0 -3.457769004602e+00 
-3.369627780355e+00 -3.576965039410e-02 0.0 
-3.576965039410e-02 -8.308125702578e+00 0.0 
0.0 0.0 -3.428709958997e+00 
-3.225695312366e+00 -8.036958308552e-02 0.0 
-8.036958308552e-02 -7.910175997284e+00 0.0 
0.0 0.0 -3.263654096785e+00 
-3.150283694959e+00 8.065341269053e-02 0.0 
8.065341269053e-02 -7.313226865111e+00 0.0 
0.0 0.0 -3.047469442410e+00 
-4.224906238988e+00 -3.013264091838e-01 0.0 
-3.013264091838e-01 -6.882813371144e+00 0.0 
0.0 0.0 -2.932315883039e+00 
-4.499901209267e+00 2.063378346534e-01 0.0 
2.063378346534e-01 -9.150700225052e+00 0.0 
0.0 0.0 -3.802223551501e+00 
-4.551740884045e+00 1.216877890058e-01 0.0 
1.216877890058e-01 -9.755222621100e+00 0.0 
0.0 0.0 -3.978270755986e+00 
-4.610028158229e+00 5.689031881997e-02 0.0 
5.689031881997e-02 -9.807717560972e+00 0.0 
0.0 0.0 -4.007884722499e+00 
-4.626263136006e+00 1.644017899306e-02 0.0 
1.644017899306e-02 -9.833378226209e+00 0.0 
0.0 0.0 -4.019108191747e+00 
-4.608721838924e+00 -7.741186589824e-03 0.0 
-7.741186589824e-03 -9.846017132463e+00 0.0 
0.0 0.0 -4.016972887373e+00 
-4.565737384537e+00 -2.306519037731e-02 0.0 
-2.306519037731e-02 -9.851177371844e+00 0.0 
0.0 0.0 -4.005290664511e+00 
-4.502542639183e+00 -3.401187499260e-02 0.0 
-3.401187499260e-02 -9.852501883247e+00 0.0 
0.0 0.0 -3.986575025793e+00 
-4.421871745930e+00 -4.304122110723e-02 0.0 
-4.304122110723e-02 -9.851879122974e+00 0.0 
0.0 0.0 -3.962136789647e+00 
-4.324774164286e+00 -5.150372178347e-02 0.0 
-5.150372178347e-02 -9.850199673142e+00 0.0 
0.0 0.0 -3.932513082211e+00 
-4.211210681789e+00 -6.016328168629e-02 0.0 
-6.016328168629e-02 -9.847870702709e+00 0.0 
0.0 0.0 -3.897780010087e+00 
-4.080508429470e+00 -6.939941557963e-02 0.0 
-6.939941557963e-02 -9.845133201863e+00 0.0 
0.0 0.0 -3.857772093955e+00 
-3.931823441250e+00 -7.920943937653e-02 0.0 
-7.920943937653e-02 -9.842179583947e+00 0.0 
0.0 0.0 -3.812274244437e+00 
-3.764641004456e+00 -8.933055806299e-02 0.0 
-8.933055806299e-02 -9.839162952337e+00 0.0 
0.0 0.0 -3.761166124638e+00 
-3.579019390358e+00 -9.940597093171e-02 0.0 
-9.940597093171e-02 -9.836062847310e+00 0.0 
0.0 0.0 -3.704483319107e+00 
-3.375795882757e+00 -1.091396244134e-01 0.0 
-1.091396244134e-01 -9.833029484010e+00 0.0 
0.0 0.0 -3.642472105336e+00 
-3.156461060774e+00 -1.179977216627e-01 0.0 
-1.179977216627e-01 -9.829755212588e+00 0.0 
0.0 0.0 -3.575604914546e+00 
-2.923904962784e+00 -1.257494602887e-01 0.0 
-1.257494602887e-01 -9.826945968221e+00 0.0 
0.0 0.0 -3.504730038660e+00 
-2.681444499430e+00 -1.314688838726e-01 0.0 
-1.314688838726e-01 -9.822775482587e+00 0.0 
0.0 0.0 -3.430833201702e+00 
-2.435588000976e+00 -1.353654321571e-01 0.0 
-1.353654321571e-01 -9.821661491803e+00 0.0 
0.0 0.0 -3.356030760834e+00 
-2.192604412719e+00 -1.333730776630e-01 0.0 
-1.333730776630e-01 -9.814693554429e+00 0.0 
0.0 0.0 -3.282163531165e+00 
-1.967350885457e+00 -1.301885058857e-01 0.0 
-1.301885058857e-01 -9.820006764505e+00 0.0 
0.0 0.0 -3.214303370886e+00 
-1.766248225416e+00 -1.153895513606e-01 0.0 
-1.153895513606e-01 -9.794821768709e+00 0.0 
0.0 0.0 -3.151775780889e+00 
-1.615864397686e+00 -1.157187268195e-01 0.0 
-1.157187268195e-01 -9.824277633045e+00 0.0 
0.0 0.0 -3.107664524488e+00 
-1.529096320515e+00 -4.997511841694e-02 0.0 
-4.997511841694e-02 -9.777334997448e+00 0.0 
0.0 0.0 -3.083446255934e+00 
-1.643257238308e+00 8.117497711213e-03 0.0 
8.117497711213e-03 -9.928402283167e+00 0.0 
0.0 0.0 -3.100872489651e+00 
-1.736755462276e+00 3.661321646132e-01 0.0 
3.661321646132e-01 -9.274656771431e+00 0.0 
0.0 0.0 -2.875698071220e+00 
-1.329572279741e+00 7.078654221026e-01 0.0 
7.078654221026e-01 -4.359174530433e+00 0.0 
0.0 0.0 -1.282725937166e+00 
-7.071069154974e+00 4.716836344459e-01 0.0 
4.716836344459e-01 -1.732013303148e+01 0.0 
0.0 0.0 -6.932047972541e+00 
-8.024671838370e+00 2.595690917266e-01 0.0 
2.595690917266e-01 -2.084916520810e+01 0.0 
0.0 0.0 -8.313961754122e+00 
-7.185339029162e+00 -4.546825727061e-02 0.0 
-4.546825727061e-02 -1.976475635015e+01 0.0 
0.0 0.0 -7.768598001700e+00 
-6.999679426337e+00 -1.037546803556e-01 0.0 
-1.037546803556e-01 -1.964265410958e+01 0.0 
0.0 0.0 -7.672238409735e+00 
-7.027539914353e+00 -1.767896383776e-01 0.0 
-1.767896383776e-01 -1.967535608601e+01 0.0 
0.0 0.0 -7.691644229382e+00 
-7.083802435487e+00 -2.072912449201e-01 0.0 
-2.072912449201e-01 -1.963764642179e+01 0.0 
0.0 0.0 -7.695469765643e+00 
-7.203539284678e+00 -2.320811779789e-01 0.0 
-2.320811779789e-01 -1.963726455983e+01 0.0 
0.0 0.0 -7.731656180363e+00 
-7.340184528342e+00 -2.375048042185e-01 0.0 
-2.375048042185e-01 -1.962334852549e+01 0.0 
0.0 0.0 -7.768271476198e+00 
-7.494594681784e+00 -2.371491499377e-01 0.0 
-2.371491499377e-01 -1.962036958052e+01 0.0 
0.0 0.0 -7.814010261918e+00 
-7.653219196503e+00 -2.290625771891e-01 0.0 
-2.290625771891e-01 -1.961528821111e+01 0.0 
0.0 0.0 -7.860159618233e+00 
-7.811866306986e+00 -2.172776519999e-01 0.0 
-2.172776519999e-01 -1.961284962494e+01 0.0 
0.0 0.0 -7.907197043501e+00 
-7.964885812091e+00 -2.019558050023e-01 0.0 
-2.019558050023e-01 -1.961058836798e+01 0.0 
0.0 0.0 -7.952533825578e+00 
-8.109363425293e+00 -1.848847264151e-01 0.0 
-1.848847264151e-01 -1.960938415776e+01 0.0 
0.0 0.0 -7.995616067618e+00 
-8.242838875305e+00 -1.666961922996e-01 0.0 
-1.666961922996e-01 -1.960860745273e+01 0.0 
0.0 0.0 -8.035483035649e+00 
-8.364057062372e+00 -1.483533212177e-01 0.0 
-1.483533212177e-01 -1.960844872906e+01 0.0 
0.0 0.0 -8.071828208147e+00 
-8.472600408382e+00 -1.304925646084e-01 0.0 
-1.304925646084e-01 -1.960867991061e+01 0.0 
0.0 0.0 -8.104451695345e+00 
-8.568615353235e+00 -1.134558083047e-01 0.0 
-1.134558083047e-01 -1.960895299189e+01 0.0 
0.0 0.0 -8.133308766399e+00 
-8.652311816800e+00 -9.704477351692e-02 0.0 
-9.704477351692e-02 -1.960881900132e+01 0.0 
0.0 0.0 -8.158355475415e+00 
-8.723824523752e+00 -8.069928824089e-02 0.0 
-8.069928824089e-02 -1.960790169697e+01 0.0 
0.0 0.0 -8.179554465237e+00 
-8.783164986292e+00 -6.353687230787e-02 0.0 
-6.353687230787e-02 -1.960567900816e+01 0.0 
0.0 0.0 -8.196792151667e+00 
-8.830353608913e+00 -4.427768531469e-02 0.0 
-4.427768531469e-02 -1.960128303233e+01 0.0 
0.0 0.0 -8.209874709149e+00 
-8.865957637450e+00 -2.124909331821e-02 0.0 
-2.124909331821e-02 -1.959337342104e+01 0.0 
0.0 0.0 -8.218682807067e+00 
-8.892848225486e+00 6.934233471079e-03 0.0 
6.934233471079e-03 -1.958074010073e+01 0.0 
0.0 0.0 -8.223964892775e+00 
-8.921078948321e+00 3.671332966184e-02 0.0 
3.671332966184e-02 -1.956737206558e+01 0.0 
0.0 0.0 -8.230906659760e+00 
-8.984581069889e+00 5.136360895519e-03 0.0 
5.136360895519e-03 -1.958749966038e+01 0.0 
0.0 0.0 -8.268236631904e+00 
-9.229928178665e+00 -2.344642691928e-01 0.0 
-2.344642691928e-01 -1.969568497799e+01 0.0 
0.0 0.0 -8.317825117448e+00 
-1.652757049403e+01 3.839025386354e-01 0.0 
3.839025386354e-01 -3.691913925484e+01 0.0 
0.0 0.0 -1.563401292466e+01 
-1.749213719264e+01 2.904222335704e-01 0.0 
2.904222335704e-01 -4.044652941610e+01 0.0 
0.0 0.0 -1.698159998262e+01 
-1.669268862380e+01 -3.185945284658e-02 0.0 
-3.185945284658e-02 -3.946392220394e+01 0.0 
0.0 0.0 -1.644698324832e+01 
-1.647296306367e+01 -1.290405141858e-01 0.0 
-1.290405141858e-01 -3.931057764884e+01 0.0 
0.0 0.0 -1.633506221375e+01 
-1.643968640999e+01 -2.279212092864e-01 0.0 
-2.279212092864e-01 -3.932250300307e+01 0.0 
0.0 0.0 -1.632865682392e+01 
-1.640646166623e+01 -2.724384262784e-01 0.0 
-2.724384262784e-01 -3.926201543016e+01 0.0 
0.0 0.0 -1.630054312892e+01 
-1.643511565875e+01 -3.026010890952e-01 0.0 
-3.026010890952e-01 -3.925344771710e+01 0.0 
0.0 0.0 -1.630656901276e+01 
-1.647580508356e+01 -3.128374841375e-01 0.0 
-3.128374841375e-01 -3.923122142477e+01 0.0 
0.0 0.0 -1.631210795250e+01 
-1.654048169180e+01 -3.123619914559e-01 0.0 
-3.123619914559e-01 -3.922211420540e+01 0.0 
0.0 0.0 -1.632877876916e+01 
-1.661142726839e+01 -3.018514124697e-01 0.0 
-3.018514124697e-01 -3.921210504241e+01 0.0 
0.0 0.0 -1.634705969324e+01 
-1.668881199648e+01 -2.850976229098e-01 0.0 
-2.850976229098e-01 -3.920702152293e+01 0.0 
0.0 0.0 -1.636875005582e+01 
-1.676540275135e+01 -2.636110237625e-01 0.0 
-2.636110237625e-01 -3.920343444946e+01 0.0 
0.0 0.0 -1.639065116024e+01 
-1.683918040653e+01 -2.395218752501e-01 0.0 
-2.395218752501e-01 -3.920247613866e+01 0.0 
0.0 0.0 -1.641249696356e+01 
-1.690797692278e+01 -2.145412973868e-01 0.0 
-2.145412973868e-01 -3.920309048575e+01 0.0 
0.0 0.0 -1.643332022256e+01 
-1.697155722758e+01 -1.898402235285e-01 0.0 
-1.898402235285e-01 -3.920451149491e+01 0.0 
0.0 0.0 -1.645282061675e+01 
-1.702938006514e+01 -1.656122261167e-01 0.0 
-1.656122261167e-01 -3.920559692609e+01 0.0 
0.0 0.0 -1.647049309737e+01 
-1.708115542159e+01 -1.416065145649e-01 0.0 
-1.416065145649e-01 -3.920566159198e+01 0.0 
0.0 0.0 -1.648604510407e+01 
-1.712706493776e+01 -1.173524271972e-01 0.0 
-1.173524271972e-01 -3.920404088649e+01 0.0 
0.0 0.0 -1.649933174728e+01 
-1.716783987791e+01 -9.230310722386e-02 0.0 
-9.230310722386e-02 -3.919992038583e+01 0.0 
0.0 0.0 -1.651032807912e+01 
-1.720509294934e+01 -6.614482228861e-02 0.0 
-6.614482228861e-02 -3.919245182757e+01 0.0 
0.0 0.0 -1.651926343307e+01 
-1.724170006738e+01 -3.974571815900e-02 0.0 
-3.974571815900e-02 -3.918155604772e+01 0.0 
0.0 0.0 -1.652697683453e+01 
-1.728263634881e+01 -1.696249010871e-02 0.0 
-1.696249010871e-02 -3.917067674399e+01 0.0 
0.0 0.0 -1.653599392784e+01 
-1.733402339101e+01 -4.522783785706e-03 0.0 
-4.522783785706e-03 -3.917484534930e+01 0.0 
0.0 0.0 -1.655266062209e+01 
-1.739347140875e+01 8.136828743863e-03 0.0 
8.136828743863e-03 -3.922627949365e+01 0.0 
0.0 0.0 -1.658592527072e+01 
-1.745689940673e+01 -4.498210045016e-01 0.0 
-4.498210045016e-01 -3.932131073776e+01 0.0 
0.0 0.0 -1.663346304335e+01 
-2.581628604062e+01 -3.428273734889e-01 0.0 
-3.428273734889e-01 -5.887708227265e+01 0.0 
0.0 0.0 -2.500801049398e+01 
-2.580842184140e+01 -1.251381579528e-01 0.0 
-1.251381579528e-01 -5.880364034175e+01 0.0 
0.0 0.0 -2.498361865495e+01 
-2.578280289437e+01 -6.094727066826e-02 0.0 
-6.094727066826e-02 -5.877842391406e+01 0.0 
0.0 0.0 -2.496836804253e+01 
-2.575348448331e+01 -7.173492129299e-02 0.0 
-7.173492129299e-02 -5.877661235355e+01 0.0 
0.0 0.0 -2.495902905106e+01 
-2.572492494122e+01 -9.323326639454e-02 0.0 
-9.323326639454e-02 -5.878399801258e+01 0.0 
0.0 0.0 -2.495267688614e+01 
-2.569785707289e+01 -1.188195843197e-01 0.0 
-1.188195843197e-01 -5.879226923158e+01 0.0 
0.0 0.0 -2.494703789134e+01 
-2.567175723583e+01 -1.458737156052e-01 0.0 
-1.458737156052e-01 -5.879806139511e+01 0.0 
0.0 0.0 -2.494094558928e+01 
-2.564602174312e+01 -1.736433576443e-01 0.0 
-1.736433576443e-01 -5.880100409662e+01 0.0 
0.0 0.0 -2.493410775192e+01 
-2.561961801240e+01 -2.018594964164e-01 0.0 
-2.018594964164e-01 -5.880183069068e+01 0.0 
0.0 0.0 -2.492643461093e+01 
-2.559220383419e+01 -2.303349777437e-01 0.0 
-2.303349777437e-01 -5.880125435338e+01 0.0 
0.0 0.0 -2.491803745627e+01 
-2.556422253191e+01 -2.587328641952e-01 0.0 
-2.587328641952e-01 -5.880003209613e+01 0.0 
0.0 0.0 -2.490927638841e+01 
-2.553713189458e+01 -2.867847973617e-01 0.0 
-2.867847973617e-01 -5.879890967659e+01 0.0 
0.0 0.0 -2.490081247135e+01 
-2.551221303915e+01 -3.142575623524e-01 0.0 
-3.142575623524e-01 -5.880080772350e+01 0.0 
0.0 0.0 -2.489390622880e+01 
-2.548906206993e+01 -3.378770140121e-01 0.0 
-3.378770140121e-01 -5.880672036549e+01 0.0 
0.0 0.0 -2.488873473063e+01 
-2.547115259406e+01 -3.551094027608e-01 0.0 
-3.551094027608e-01 -5.881936752260e+01 0.0 
0.0 0.0 -2.488715603500e+01 
-2.546163554216e+01 -3.593619330767e-01 0.0 
-3.593619330767e-01 -5.883299239682e+01 0.0 
0.0 0.0 -2.488838838169e+01 
-2.547316761653e+01 -3.537685430984e-01 0.0 
-3.537685430984e-01 -5.886027813389e+01 0.0 
0.0 0.0 -2.490003372513e+01 
-2.549818738883e+01 -3.221394088176e-01 0.0 
-3.221394088176e-01 -5.887928016601e+01 0.0 
0.0 0.0 -2.491324026645e+01 
-2.557379055194e+01 -2.813661174612e-01 0.0 
-2.813661174612e-01 -5.893962331365e+01 0.0 
0.0 0.0 -2.495402415968e+01 
-2.564501061166e+01 -1.855480781514e-01 0.0 
-1.855480781514e-01 -5.894410200654e+01 0.0 
0.0 0.0 -2.497673378546e+01 
-2.587938530638e+01 -1.048453415079e-01 0.0 
-1.048453415079e-01 -5.910704168741e+01 0.0 
0.0 0.0 -2.509592809814e+01 
-2.659840365443e+01 1.996112227483e-01 0.0 
1.996112227483e-01 -6.015207047740e+01 0.0 
0.0 0.0 -2.562514223955e+01 
-2.562853980234e+01 3.075565475901e-01 0.0 
3.075565475901e-01 -5.665902000410e+01 0.0 
0.0 0.0 -2.428626794193e+01 
-3.447610633886e+01 1.646427637959e-01 0.0 
1.646427637959e-01 -7.626538739424e+01 0.0 
0.0 0.0 -3.282244811993e+01 
-3.549119180730e+01 1.403097814051e-01 0.0 
1.403097814051e-01 -7.974993037951e+01 0.0 
0.0 0.0 -3.417233665604e+01 
-3.477193959598e+01 -1.064655203239e-01 0.0 
-1.064655203239e-01 -7.873364859672e+01 0.0 
0.0 0.0 -3.365167645781e+01 
-3.452558047553e+01 -1.753643982413e-01 0.0 
-1.753643982413e-01 -7.856118327516e+01 0.0 
0.0 0.0 -3.352602912521e+01 
-3.444355457004e+01 -2.580391809017e-01 0.0 
-2.580391809017e-01 -7.855624332113e+01 0.0 
0.0 0.0 -3.349993936735e+01 
-3.433485470068e+01 -2.957970906486e-01 0.0 
-2.957970906486e-01 -7.848119118894e+01 0.0 
0.0 0.0 -3.344481376689e+01 
-3.428714794686e+01 -3.210582496014e-01 0.0 
-3.210582496014e-01 -7.845825191093e+01 0.0 
0.0 0.0 -3.342361995734e+01 
-3.424402590104e+01 -3.231176558997e-01 0.0 
-3.231176558997e-01 -7.842280849201e+01 0.0 
0.0 0.0 -3.340005031792e+01 
-3.421971515599e+01 -3.113919089002e-01 0.0 
-3.113919089002e-01 -7.840758534540e+01 0.0 
0.0 0.0 -3.338819015042e+01 
-3.419746052896e+01 -2.909939578139e-01 0.0 
-2.909939578139e-01 -7.839918958218e+01 0.0 
0.0 0.0 -3.337899503334e+01 
-3.418474017257e+01 -2.693551921782e-01 0.0 
-2.693551921782e-01 -7.839887542751e+01 0.0 
0.0 0.0 -3.337508468002e+01 
-3.417989419955e+01 -2.461508360779e-01 0.0 
-2.461508360779e-01 -7.839832909575e+01 0.0 
0.0 0.0 -3.337346698859e+01 
-3.418008220263e+01 -2.207145065409e-01 0.0 
-2.207145065409e-01 -7.839827503591e+01 0.0 
0.0 0.0 -3.337350717156e+01 
-3.418275007140e+01 -1.944945820515e-01 0.0 
-1.944945820515e-01 -7.839822450617e+01 0.0 
0.0 0.0 -3.337429237327e+01 
-3.418753073729e+01 -1.687487752067e-01 0.0 
-1.687487752067e-01 -7.839673054130e+01 0.0 
0.0 0.0 -3.337527838358e+01 
-3.419581553581e+01 -1.444680891215e-01 0.0 
-1.444680891215e-01 -7.839269742460e+01 0.0 
0.0 0.0 -3.337655388812e+01 
-3.420774730945e+01 -1.210686726319e-01 0.0 
-1.210686726319e-01 -7.838620619026e+01 0.0 
0.0 0.0 -3.337818604991e+01 
-3.422158895735e+01 -9.914003674839e-02 0.0 
-9.914003674839e-02 -7.838094028029e+01 0.0 
0.0 0.0 -3.338075877129e+01 
-3.423579969551e+01 -7.984655140975e-02 0.0 
-7.984655140975e-02 -7.838320801773e+01 0.0 
0.0 0.0 -3.338570231397e+01 
-3.424611319751e+01 -6.137318511862e-02 0.0 
-6.137318511862e-02 -7.840140565982e+01 0.0 
0.0 0.0 -3.339425565720e+01 
-3.424626350415e+01 -2.291411510554e-02 0.0 
-2.291411510554e-02 -7.844013979562e+01 0.0 
0.0 0.0 -3.340592098993e+01 
-3.423607864963e+01 -4.604875604831e-01 0.0 
-4.604875604831e-01 -7.847453095320e+01 0.0 
0.0 0.0 -3.341318288085e+01 
-4.266709056525e+01 -3.271159416700e-01 0.0 
-3.271159416700e-01 -9.803969792672e+01 0.0 
0.0 0.0 -4.181203654759e+01 
-4.268270589791e+01 -1.227647865001e-01 0.0 
-1.227647865001e-01 -9.800276209255e+01 0.0 
0.0 0.0 -4.180564039714e+01 
-4.269297966389e+01 -7.833884341030e-02 0.0 
-7.833884341030e-02 -9.798266088063e+01 0.0 
0.0 0.0 -4.180269216336e+01 
-4.269645593205e+01 -9.848422208493e-02 0.0 
-9.848422208493e-02 -9.797636904355e+01 0.0 
0.0 0.0 -4.180184749268e+01 
-4.269896768944e+01 -1.203712588498e-01 0.0 
-1.203712588498e-01 -9.797876985821e+01 0.0 
0.0 0.0 -4.180332126430e+01 
-4.270135485759e+01 -1.425271234466e-01 0.0 
-1.425271234466e-01 -9.798510414787e+01 0.0 
0.0 0.0 -4.180593770164e+01 
-4.270597520339e+01 -1.627564057772e-01 0.0 
-1.627564057772e-01 -9.799026116010e+01 0.0 
0.0 0.0 -4.180887090905e+01 
-4.271700344872e+01 -1.834092095508e-01 0.0 
-1.834092095508e-01 -9.798993334008e+01 0.0 
0.0 0.0 -4.181208103664e+01 
-4.273531341044e+01 -2.066008704962e-01 0.0 
-2.066008704962e-01 -9.798944568829e+01 0.0 
0.0 0.0 -4.181742772962e+01 
-4.275455306769e+01 -2.297127404979e-01 0.0 
-2.297127404979e-01 -9.799125450723e+01 0.0 
0.0 0.0 -4.182374227248e+01 
-4.278028722225e+01 -2.479282509951e-01 0.0 
-2.479282509951e-01 -9.799554718047e+01 0.0 
0.0 0.0 -4.183275032082e+01 
-4.281812253483e+01 -2.600045730381e-01 0.0 
-2.600045730381e-01 -9.799923928315e+01 0.0 
0.0 0.0 -4.184520854539e+01 
-4.286983648129e+01 -2.700834227208e-01 0.0 
-2.700834227208e-01 -9.799893150907e+01 0.0 
0.0 0.0 -4.186063039711e+01 
-4.293751911461e+01 -2.829426162704e-01 0.0 
-2.829426162704e-01 -9.802458241045e+01 0.0 
0.0 0.0 -4.188863045752e+01 
-4.300061019775e+01 -2.721741018594e-01 0.0 
-2.721741018594e-01 -9.805835513714e+01 0.0 
0.0 0.0 -4.191768960047e+01 
-4.309856578585e+01 -2.472700005908e-01 0.0 
-2.472700005908e-01 -9.813956170872e+01 0.0 
0.0 0.0 -4.197143824837e+01 
-4.318760854130e+01 -1.640579972735e-01 0.0 
-1.640579972735e-01 -9.815504754853e+01 0.0 
0.0 0.0 -4.200279682695e+01 
-4.343705765186e+01 -1.198209935583e-01 0.0 
-1.198209935583e-01 -9.830400177244e+01 0.0 
0.0 0.0 -4.212231782729e+01 
-4.411877458831e+01 1.034853482423e-01 0.0 
1.034853482423e-01 -9.936149969812e+01 0.0 
0.0 0.0 -4.264408228593e+01 
-4.313526607882e+01 1.663683383835e-01 0.0 
1.663683383835e-01 -9.586566274173e+01 0.0 
0.0 0.0 -4.130027864616e+01 
-5.163959996041e+01 1.124222598563e-01 0.0 
1.124222598563e-01 -1.153841727524e+02 0.0 
0.0 0.0 -4.970713181384e+01 
-5.262900217634e+01 1.157419525990e-01 0.0 
1.157419525990e-01 -1.189157395016e+02 0.0 
0.0 0.0 -5.106342250338e+01 
-5.196090791839e+01 -9.421177771454e-02 0.0 
-9.421177771454e-02 -1.179260506347e+02 0.0 
0.0 0.0 -5.056608756592e+01 
-5.173045105555e+01 -1.423439369212e-01 0.0 
-1.423439369212e-01 -1.177303394176e+02 0.0 
0.0 0.0 -5.043823714195e+01 
-5.167110845996e+01 -1.897304833070e-01 0.0 
-1.897304833070e-01 -1.176947082970e+02 0.0 
0.0 0.0 -5.040974502710e+01 
-5.154969849916e+01 -1.839744368987e-01 0.0 
-1.839744368987e-01 -1.176214864497e+02 0.0 
0.0 0.0 -5.035135548466e+01 
-5.146734116536e+01 -1.876229646210e-01 0.0 
-1.876229646210e-01 -1.176307845802e+02 0.0 
0.0 0.0 -5.032943772366e+01 
-5.139837163345e+01 -1.938297483102e-01 0.0 
-1.938297483102e-01 -1.176234981369e+02 0.0 
0.0 0.0 -5.030656093110e+01 
-5.134211794960e+01 -1.934601298814e-01 0.0 
-1.934601298814e-01 -1.176103864360e+02 0.0 
0.0 0.0 -5.028575131569e+01 
-5.130481841931e+01 -1.815971711993e-01 0.0 
-1.815971711993e-01 -1.175972602984e+02 0.0 
0.0 0.0 -5.027062361532e+01 
-5.126949799247e+01 -1.591863098221e-01 0.0 
-1.591863098221e-01 -1.175984114592e+02 0.0 
0.0 0.0 -5.026037283550e+01 
-5.123013327636e+01 -1.450359903000e-01 0.0 
-1.450359903000e-01 -1.176039999089e+02 0.0 
0.0 0.0 -5.025023995559e+01 
-5.121092694416e+01 -1.343243631944e-01 0.0 
-1.343243631944e-01 -1.175987788535e+02 0.0 
0.0 0.0 -5.024291173930e+01 
-5.119163709406e+01 -1.166543686837e-01 0.0 
-1.166543686837e-01 -1.175878266986e+02 0.0 
0.0 0.0 -5.023383913779e+01 
-5.117566301185e+01 -9.573079581784e-02 0.0 
-9.573079581784e-02 -1.175839692757e+02 0.0 
0.0 0.0 -5.022788968625e+01 
-5.115751002903e+01 -7.447906586628e-02 0.0 
-7.447906586628e-02 -1.175834318384e+02 0.0 
0.0 0.0 -5.022228256023e+01 
-5.114365778126e+01 -4.327810335113e-02 0.0 
-4.327810335113e-02 -1.175955223607e+02 0.0 
0.0 0.0 -5.022175404258e+01 
-5.111769034988e+01 6.633373394652e-03 0.0 
6.633373394652e-03 -1.176214276853e+02 0.0 
0.0 0.0 -5.022173541054e+01 
-5.110659603043e+01 -4.427800935866e-01 0.0 
-4.427800935866e-01 -1.176361527025e+02 0.0 
0.0 0.0 -5.022282461989e+01 
-5.951335352948e+01 -3.089800634211e-01 0.0 
-3.089800634211e-01 -1.372339713260e+02 0.0 
0.0 0.0 -5.862419745665e+01 
-5.956345530098e+01 -6.944924796538e-02 0.0 
-6.944924796538e-02 -1.371827967071e+02 0.0 
0.0 0.0 -5.862387560242e+01 
-5.959013471862e+01 -4.517399221307e-02 0.0 
-4.517399221307e-02 -1.371646762886e+02 0.0 
0.0 0.0 -5.862644330217e+01 
-5.961097756206e+01 -6.250560473095e-02 0.0 
-6.250560473095e-02 -1.371751477258e+02 0.0 
0.0 0.0 -5.863583758634e+01 
-5.965453462194e+01 -8.486563688179e-02 0.0 
-8.486563688179e-02 -1.371757318379e+02 0.0 
0.0 0.0 -5.864907993794e+01 
-5.967910237160e+01 -1.043107144753e-01 0.0 
-1.043107144753e-01 -1.371877140320e+02 0.0 
0.0 0.0 -5.866004492107e+01 
-5.971875252314e+01 -1.199386368997e-01 0.0 
-1.199386368997e-01 -1.372107474814e+02 0.0 
0.0 0.0 -5.867885000135e+01 
-5.975125972084e+01 -1.099523474454e-01 0.0 
-1.099523474454e-01 -1.372061384105e+02 0.0 
0.0 0.0 -5.868721943939e+01 
-5.980888126131e+01 -1.312112378307e-01 0.0 
-1.312112378307e-01 -1.371801451480e+02 0.0 
0.0 0.0 -5.869670792279e+01 
-5.985161203536e+01 -1.499238644828e-01 0.0 
-1.499238644828e-01 -1.372106137637e+02 0.0 
0.0 0.0 -5.871866773971e+01 
-5.991351953799e+01 -1.360959712412e-01 0.0 
-1.360959712412e-01 -1.372387670152e+02 0.0 
0.0 0.0 -5.874568596595e+01 
-6.000086954062e+01 -1.201953609273e-01 0.0 
-1.201953609273e-01 -1.372480370010e+02 0.0 
0.0 0.0 -5.877467196247e+01 
-6.008356581449e+01 -9.587296730701e-02 0.0 
-9.587296730701e-02 -1.372692571854e+02 0.0 
0.0 0.0 -5.880584689996e+01 
-6.017451181599e+01 -6.748318443229e-02 0.0 
-6.748318443229e-02 -1.372216079837e+02 0.0 
0.0 0.0 -5.881883593992e+01 
-6.038739500906e+01 -9.936682986648e-02 0.0 
-9.936682986648e-02 -1.374120752809e+02 0.0 
0.0 0.0 -5.893984108700e+01 
-6.104343513006e+01 1.003721472048e-01 0.0 
1.003721472048e-01 -1.385290134104e+02 0.0 
0.0 0.0 -5.947173456212e+01 
-6.006217531508e+01 1.225404252425e-01 0.0 
1.225404252425e-01 -1.350243898457e+02 0.0 
0.0 0.0 -5.812596954822e+01 
-6.838719603413e+01 1.071473677543e-01 0.0 
1.071473677543e-01 -1.545409149320e+02 0.0 
0.0 0.0 -6.647843328983e+01 
-6.927108495887e+01 1.341343886290e-01 0.0 
1.341343886290e-01 -1.579439212129e+02 0.0 
0.0 0.0 -6.776450185152e+01 
-6.868643195164e+01 7.645649412045e-03 0.0 
7.645649412045e-03 -1.569632541924e+02 0.0 
0.0 0.0 -6.729490584321e+01 
-6.861678396162e+01 -2.780569373706e-02 0.0 
-2.780569373706e-02 -1.568920750957e+02 0.0 
0.0 0.0 -6.725265771720e+01 
-6.851173881952e+01 -2.683685388236e-02 0.0 
-2.683685388236e-02 -1.568929774859e+02 0.0 
0.0 0.0 -6.722141489164e+01 
-6.842090257663e+01 -6.664158695484e-02 0.0 
-6.664158695484e-02 -1.568934826681e+02 0.0 
0.0 0.0 -6.719431557342e+01 
-6.832777587390e+01 -8.970258342116e-02 0.0 
-8.970258342116e-02 -1.568095259552e+02 0.0 
0.0 0.0 -6.714119054872e+01 
-6.825870814965e+01 -5.134370264720e-02 0.0 
-5.134370264720e-02 -1.567944463154e+02 0.0 
0.0 0.0 -6.711594633952e+01 
-6.829142846701e+01 -7.487449106871e-02 0.0 
-7.487449106871e-02 -1.568670574552e+02 0.0 
0.0 0.0 -6.714754577668e+01 
-6.818702725015e+01 -5.732481423619e-02 0.0 
-5.732481423619e-02 -1.568148608545e+02 0.0 
0.0 0.0 -6.710056643139e+01 
-6.814520463778e+01 -6.167443017858e-02 0.0 
-6.167443017858e-02 -1.567960712985e+02 0.0 
0.0 0.0 -6.708238278089e+01 
-6.810564331006e+01 -1.681369756109e-02 0.0 
-1.681369756109e-02 -1.567844140600e+02 0.0 
0.0 0.0 -6.706701721101e+01 
-6.804550036857e+01 -2.905373340029e-02 0.0 
-2.905373340029e-02 -1.568029536437e+02 0.0 
0.0 0.0 -6.705453620367e+01 
-6.800695814852e+01 6.844770146121e-03 0.0 
6.844770146121e-03 -1.567393294842e+02 0.0 
0.0 0.0 -6.702388628982e+01 
-6.800154574142e+01 1.140556973678e-01 0.0 
1.140556973678e-01 -1.568672714287e+02 0.0 
0.0 0.0 -6.706064515104e+01 
-6.791502474567e+01 -4.610820530294e-01 0.0 
-4.610820530294e-01 -1.569373660730e+02 0.0 
0.0 0.0 -6.705571724561e+01 
-5.676222741655e+00 3.794475073867e+00 0.0 
3.794475073867e+00 -8.953595176456e+00 0.0 
0.0 0.0 -4.081344422221e+00 
-6.189797655741e+00 1.839480916438e+00 0.0 
1.839480916438e+00 -1.239503378554e+01 0.0 
0.0 0.0 -5.181984112037e+00 
-1.469118062289e+01 1.129507443977e+00 0.0 
1.129507443977e+00 -3.157998243390e+01 0.0 
0.0 0.0 -1.348134891704e+01 
-2.349448601980e+01 7.597982388671e-01 0.0 
7.597982388671e-01 -5.125961817698e+01 0.0 
0.0 0.0 -2.202623125903e+01 
-3.205677467305e+01 6.263534881737e-01 0.0 
6.263534881737e-01 -7.050574240804e+01 0.0 
0.0 0.0 -3.036875512433e+01 
-4.081242142807e+01 3.876507473101e-01 0.0 
3.876507473101e-01 -9.013501151350e+01 0.0 
0.0 0.0 -3.888422988247e+01 
-4.920133437069e+01 3.130793617574e-01 0.0 
3.130793617574e-01 -1.096372549690e+02 0.0 
0.0 0.0 -4.725157680190e+01 
-5.765671638415e+01 2.078073451926e-01 0.0 
2.078073451926e-01 -1.291978997205e+02 0.0 
0.0 0.0 -5.565638483141e+01 
-6.602679357058e+01 2.077640962315e-01 0.0 
2.077640962315e-01 -1.487475022498e+02 0.0 
0.0 0.0 -6.403228874612e+01 
-7.441569622752e+01 2.110273245592e-01 0.0 
2.110273245592e-01 -1.684582121903e+02 0.0 
0.0 0.0 -7.246217252534e+01 
-1.450748414177e+01 3.192536428755e+00 0.0 
3.192536428755e+00 -3.082302343774e+01 0.0 
0.0 0.0 -1.319915227385e+01 
-1.574059502446e+02 3.663441512117e+00 0.0 
3.663441512117e+00 -3.692961805259e+02 0.0 
0.0 0.0 -1.576106392312e+02 
-8.216161212034e+00 -1.717164508448e-01 0.0 
-1.717164508448e-01 -1.677219041707e+01 0.0 
0.0 0.0 -7.483805513586e+00 
-8.805502894472e+00 -1.160215686429e-01 0.0 
-1.160215686429e-01 -1.614221339177e+01 0.0 
0.0 0.0 -7.471222616435e+00 
-1.584834231373e+02 2.538236649612e+00 0.0 
2.538236649612e+00 -3.724111160984e+02 0.0 
0.0 0.0 -1.588683617707e+02 
-3.104527934825e+01 1.258120554836e+00 0.0 
1.258120554836e+00 -6.858786096953e+01 0.0 
0.0 0.0 -2.948994209533e+01 
-8.533553431037e+01 6.706977348898e-02 0.0 
6.706977348898e-02 -2.073120216734e+02 0.0 
0.0 0.0 -8.739426679514e+01 
-1.560056217932e+02 3.891007610329e+00 0.0 
3.891007610329e+00 -3.654423449860e+02 0.0 
0.0 0.0 -1.560343900338e+02 
-4.726604384426e+01 9.100608875496e-01 0.0 
9.100608875496e-01 -1.056838718449e+02 0.0 
0.0 0.0 -4.548497470674e+01 
-1.553374460797e+02 3.732204482004e+00 0.0 
3.732204482004e+00 -3.631032149085e+02 0.0 
0.0 0.0 -1.551321982965e+02 
-6.436867157727e+01 4.996347042550e-01 0.0 
4.996347042550e-01 -1.455061161452e+02 0.0 
0.0 0.0 -6.256243631675e+01 
-1.598440615078e+02 1.625219690148e+00 0.0 
1.625219690148e+00 -3.752331071760e+02 0.0 
0.0 0.0 -1.601231506051e+02 
-7.312355711926e+00 -1.683754309924e-01 0.0 
-1.683754309924e-01 -1.615626479950e+01 0.0 
0.0 0.0 -7.050269780578e+00 
-1.543745754340e+02 3.077235720658e+00 0.0 
3.077235720658e+00 -3.605225401600e+02 0.0 
0.0 0.0 -1.540691346782e+02 
-8.121286171025e+01 4.042014183215e-01 0.0 
4.042014183215e-01 -1.851912504863e+02 0.0 
0.0 0.0 -7.952123365897e+01 
-5.269830154273e+01 -5.909456266319e-02 0.0 
-5.909456266319e-02 -1.289247643506e+02 0.0 
0.0 0.0 -5.408691976801e+01 
-1.084768195053e+02 4.224824138487e-02 0.0 
4.224824138487e-02 -2.607969202135e+02 0.0 
0.0 0.0 -1.103821219156e+02 
-1.535566588763e+02 2.533045193108e+00 0.0 
2.533045193108e+00 -3.582826072101e+02 0.0 
0.0 0.0 -1.531517798259e+02 
-1.531985226509e+02 1.649114346163e+00 0.0 
1.649114346163e+00 -3.578424085072e+02 0.0 
0.0 0.0 -1.529122793474e+02 
-1.524193108201e+02 5.698686040634e-01 0.0 
5.698686040634e-01 -3.565558167962e+02 0.0 
0.0 0.0 -1.522925382849e+02 
-1.519442642283e+02 7.898755581580e-01 0.0 
7.898755581580e-01 -3.551000891788e+02 0.0 
0.0 0.0 -1.517133060222e+02 
-1.529930418843e+02 1.329417512737e+00 0.0 
1.329417512737e+00 -3.576445930836e+02 0.0 
0.0 0.0 -1.527912904904e+02 
-8.480071063780e+01 2.764433146548e-01 0.0 
2.764433146548e-01 -1.940261373352e+02 0.0 
0.0 0.0 -8.324805439189e+01 
-8.432533529319e+01 8.253215967795e-02 0.0 
8.253215967795e-02 -1.939173487751e+02 0.0 
0.0 0.0 -8.307280522049e+01 
-8.468600334777e+01 1.163202451223e-01 0.0 
1.163202451223e-01 -1.952106873584e+02 0.0 
0.0 0.0 -8.356900721185e+01 
-1.140391603667e+02 1.772905499067e-01 0.0 
1.772905499067e-01 -2.649991284637e+02 0.0 
0.0 0.0 -1.133114866491e+02 
-1.594812829606e+02 1.039777805911e+00 0.0 
1.039777805911e+00 -3.746650462377e+02 0.0 
0.0 0.0 -1.598438987595e+02 
-8.186697716052e+00 5.626782635080e-01 0.0 
5.626782635080e-01 -1.560315969888e+01 0.0 
0.0 0.0 -7.137221098191e+00 
-7.153368915968e+00 -9.534257056079e-02 0.0 
-9.534257056079e-02 -1.715121369920e+01 0.0 
0.0 0.0 -7.280375071120e+00 
-1.357184190540e+02 1.543685701024e-01 0.0 
1.543685701024e-01 -3.223097103410e+02 0.0 
0.0 0.0 -1.370084388185e+02 
-8.340336059404e+01 -5.981774048338e-02 0.0 
-5.981774048338e-02 -1.928908200651e+02 0.0 
0.0 0.0 -8.248825419774e+01 
-2.766476220020e+01 -6.675901983427e-02 0.0 
-6.675901983427e-02 -6.855445955372e+01 0.0 
0.0 0.0 -2.846576652618e+01 
-1.519847888154e+02 2.038556099775e+00 0.0 
2.038556099775e+00 -3.548717173242e+02 0.0 
0.0 0.0 -1.516569518419e+02 
-1.562335057531e+02 3.874222885188e+00 0.0 
3.874222885188e+00 -3.656063264362e+02 0.0 
0.0 0.0 -1.561519496568e+02 
-1.547889989557e+02 3.438148774335e+00 0.0 
3.438148774335e+00 -3.616889103396e+02 0.0 
0.0 0.0 -1.545433727886e+02 
-1.561417757155e+02 3.796272265671e+00 0.0 
3.796272265671e+00 -3.662180587249e+02 0.0 
0.0 0.0 -1.563079503321e+02 
-1.580773456058e+02 3.332676157455e+00 0.0 
3.332676157455e+00 -3.712743797881e+02 0.0 
0.0 0.0 -1.584055176182e+02 
-8.893554484308e+00 -2.605128715208e-01 0.0 
-2.605128715208e-01 -1.717940979148e+01 0.0 
0.0 0.0 -7.811090906953e+00 
-8.428013042041e+01 1.448253465770e-01 0.0 
1.448253465770e-01 -1.933067266722e+02 0.0 
0.0 0.0 -8.287605712779e+01 
-1.574446417949e+02 2.074725938248e+00 0.0 
2.074725938248e+00 -3.703231562463e+02 0.0 
0.0 0.0 -1.579303394124e+02 
-1.302137413094e+02 1.785083803423e-01 0.0 
1.785083803423e-01 -3.034887057834e+02 0.0 
0.0 0.0 -1.297107341279e+02 
-7.998627979179e+00 -1.556034514948e-01 0.0 
-1.556034514948e-01 -1.705354665008e+01 0.0 
0.0 0.0 -7.516521188284e+00 
-6.854861562782e+01 2.213294325129e-02 0.0 
2.213294325129e-02 -1.671476796651e+02 0.0 
0.0 0.0 -7.030888858788e+01 
-1.535198372017e+02 3.520320246360e-01 0.0 
3.520320246360e-01 -3.593050714811e+02 0.0 
0.0 0.0 -1.534474726048e+02 
-3.978222496615e+01 1.162151919284e+00 0.0 
1.162151919284e+00 -8.860011688881e+01 0.0 
0.0 0.0 -3.811470255649e+01 
-2.270982791596e+01 1.975555418533e+00 0.0 
1.975555418533e+00 -4.930745925685e+01 0.0 
0.0 0.0 -2.120518615184e+01 
-5.582759468799e+01 6.533055103819e-01 0.0 
6.533055103819e-01 -1.256009008328e+02 0.0 
0.0 0.0 -5.402854865623e+01 
-7.274441585039e+01 5.004596254485e-01 0.0 
5.004596254485e-01 -1.651045802165e+02 0.0 
0.0 0.0 -7.095469882008e+01 
-7.737346619956e+00 4.198401609973e+00 0.0 
4.198401609973e+00 -1.734556632007e+01 0.0 
0.0 0.0 -7.174141915693e+00 
-9.829621708888e+01 5.335608824428e-02 0.0 
5.335608824428e-02 -2.277852433901e+02 0.0 
0.0 0.0 -9.742443814368e+01 
-1.609754817163e+02 6.055027331980e-01 0.0 
6.055027331980e-01 -3.780727652589e+02 0.0 
0.0 0.0 -1.613144740926e+02 
-6.804109132989e+00 -1.177698141365e-01 0.0 
-1.177698141365e-01 -1.632948246355e+01 0.0 
0.0 0.0 -6.895943220438e+00 
-1.463549765947e+02 7.886823120331e-02 0.0 
7.886823120331e-02 -3.416726224519e+02 0.0 
0.0 0.0 -1.460082797140e+02 
-8.523417644075e+01 4.369713079081e-01 0.0 
4.369713079081e-01 -1.944250685025e+02 0.0 
0.0 0.0 -8.349777348299e+01 
-8.873005127225e+01 6.192212088991e-01 0.0 
6.192212088991e-01 -2.025447271042e+02 0.0 
0.0 0.0 -8.698243351294e+01 
-9.263302698940e+01 5.328558685393e-01 0.0 
5.328558685393e-01 -2.117907548826e+02 0.0 
0.0 0.0 -9.092713456161e+01 
-9.661268445192e+01 8.564580839518e-01 0.0 
8.564580839518e-01 -2.212225239374e+02 0.0 
0.0 0.0 -9.495056251679e+01 
-1.008883476811e+02 8.161194220070e-01 0.0 
8.161194220070e-01 -2.313752167424e+02 0.0 
0.0 0.0 -9.927906932705e+01 
-1.045139971867e+02 1.036937167093e+00 0.0 
1.036937167093e+00 -2.398812711804e+02 0.0 
0.0 0.0 -1.029185805102e+02 
-1.003370146164e+02 1.056579434301e+00 0.0 
1.056579434301e+00 -2.297748395573e+02 0.0 
0.0 0.0 -9.863355625210e+01 
-1.082428313689e+02 1.253808829139e+00 0.0 
1.253808829139e+00 -2.484957684020e+02 0.0 
0.0 0.0 -1.066215799313e+02 
-1.039843194039e+02 1.271929938431e+00 0.0 
1.271929938431e+00 -2.382713377691e+02 0.0 
0.0 0.0 -1.022766971519e+02 
-1.089541655290e+02 1.033752750393e+00 0.0 
1.033752750393e+00 -2.503097917674e+02 0.0 
0.0 0.0 -1.073791871889e+02 
-1.119099656855e+02 1.484266757726e+00 0.0 
1.484266757726e+00 -2.571063370566e+02 0.0 
0.0 0.0 -1.103048908226e+02 
-1.076322426298e+02 1.509918858196e+00 0.0 
1.509918858196e+00 -2.468294483451e+02 0.0 
0.0 0.0 -1.059385072925e+02 
-1.155502654194e+02 1.710139836224e+00 0.0 
1.710139836224e+00 -2.657287192417e+02 0.0 
0.0 0.0 -1.139836953983e+02 
-1.112649571084e+02 1.757529762508e+00 0.0 
1.757529762508e+00 -2.554613831794e+02 0.0 
0.0 0.0 -1.096179020863e+02 
-1.033874952321e+02 1.556714968881e+00 0.0 
1.556714968881e+00 -2.366767854031e+02 0.0 
0.0 0.0 -1.016192841906e+02 
-1.070014158193e+02 1.811586646358e+00 0.0 
1.811586646358e+00 -2.453030307436e+02 0.0 
0.0 0.0 -1.052913339689e+02 
-9.914354193106e+01 1.619918758647e+00 0.0 
1.619918758647e+00 -2.265503762225e+02 0.0 
0.0 0.0 -9.730817544607e+01 
-1.027457288332e+02 1.893320929471e+00 0.0 
1.893320929471e+00 -2.352011941401e+02 0.0 
0.0 0.0 -1.009840768920e+02 
-1.106045951814e+02 2.064814273490e+00 0.0 
2.064814273490e+00 -2.540091290280e+02 0.0 
0.0 0.0 -1.089841172628e+02 
-1.063323552628e+02 2.166352724197e+00 0.0 
2.166352724197e+00 -2.439243788109e+02 0.0 
0.0 0.0 -1.046770202221e+02 
-9.845557775264e+01 2.001292937634e+00 0.0 
2.001292937634e+00 -2.251076844356e+02 0.0 
0.0 0.0 -9.666897865648e+01 
-1.020244276404e+02 2.280109637939e+00 0.0 
2.280109637939e+00 -2.338565693315e+02 0.0 
0.0 0.0 -1.003642990916e+02 
-9.415580623498e+01 2.128925097672e+00 0.0 
2.128925097672e+00 -2.150698430406e+02 0.0 
0.0 0.0 -9.236769478268e+01 
-9.770954955667e+01 2.417856670807e+00 0.0 
2.417856670807e+00 -2.238713669946e+02 0.0 
0.0 0.0 -9.607427496538e+01 
-8.981465282904e+01 2.290655080262e+00 0.0 
2.290655080262e+00 -2.050405597443e+02 0.0 
0.0 0.0 -8.805656377200e+01 
-9.335997560912e+01 2.583696536065e+00 0.0 
2.583696536065e+00 -2.139342968939e+02 0.0 
0.0 0.0 -9.178828175092e+01 
-1.012486868576e+02 2.678091436050e+00 0.0 
2.678091436050e+00 -2.327758371087e+02 0.0 
0.0 0.0 -9.980735718991e+01 
-9.686309333092e+01 2.833980379534e+00 0.0 
2.833980379534e+00 -2.228931765087e+02 0.0 
0.0 0.0 -9.552688095188e+01 
-8.897708361595e+01 2.769651444576e+00 0.0 
2.769651444576e+00 -2.040602329849e+02 0.0 
0.0 0.0 -8.751119498027e+01 
-9.244486753746e+01 3.008791389916e+00 0.0 
3.008791389916e+00 -2.130867269263e+02 0.0 
0.0 0.0 -9.125947833914e+01 
-8.455780116799e+01 2.978497956563e+00 0.0 
2.978497956563e+00 -1.942642725571e+02 0.0 
0.0 0.0 -8.324662211753e+01 
-8.797806090804e+01 3.193517568215e+00 0.0 
3.193517568215e+00 -2.033285989519e+02 0.0 
0.0 0.0 -8.699199795799e+01 
-9.589008019424e+01 3.188117304817e+00 0.0 
3.188117304817e+00 -2.221611976112e+02 0.0 
0.0 0.0 -9.501538334162e+01 
-9.139174008633e+01 3.343458673507e+00 0.0 
3.343458673507e+00 -2.124694640333e+02 0.0 
0.0 0.0 -9.075836123588e+01 
-8.342890795249e+01 3.389508940950e+00 0.0 
3.389508940950e+00 -1.935752142982e+02 0.0 
0.0 0.0 -8.270123667522e+01 
-8.683537357181e+01 3.485883735690e+00 0.0 
3.485883735690e+00 -2.028393699936e+02 0.0 
0.0 0.0 -8.650242306963e+01 
-7.881746045128e+01 3.578453849036e+00 0.0 
3.578453849036e+00 -1.838985828311e+02 0.0 
0.0 0.0 -7.841481298470e+01 
-8.224833503925e+01 3.588446118261e+00 0.0 
3.588446118261e+00 -1.933122996108e+02 0.0 
0.0 0.0 -8.226819039501e+01 
-7.417089814566e+01 3.712723663204e+00 0.0 
3.712723663204e+00 -1.743315428874e+02 0.0 
0.0 0.0 -7.415073230992e+01 
-7.759637622069e+01 3.633844713531e+00 0.0 
3.633844713531e+00 -1.837826095743e+02 0.0 
0.0 0.0 -7.801369573849e+01 
-8.568255713249e+01 3.527550101446e+00 0.0 
3.527550101446e+00 -2.026321928629e+02 0.0 
0.0 0.0 -8.609442499861e+01 
-8.104918071098e+01 3.496300358115e+00 0.0 
3.496300358115e+00 -1.931296974568e+02 0.0 
0.0 0.0 -8.185366345032e+01 
-7.291574447760e+01 3.603723226382e+00 0.0 
3.603723226382e+00 -1.742941783431e+02 0.0 
0.0 0.0 -7.376297684620e+01 
-7.638732697354e+01 3.376576654863e+00 0.0 
3.376576654863e+00 -1.835808908230e+02 0.0 
0.0 0.0 -7.759046533895e+01 
-8.455650117681e+01 3.306395735672e+00 0.0 
3.306395735672e+00 -2.023916632464e+02 0.0 
0.0 0.0 -8.568444932696e+01 
-7.990825969464e+01 3.121489697648e+00 0.0 
3.121489697648e+00 -1.927450688642e+02 0.0 
0.0 0.0 -8.139599856766e+01 
-8.810594126752e+01 3.090367795062e+00 0.0 
3.090367795062e+00 -2.115502604357e+02 0.0 
0.0 0.0 -8.949686051098e+01 
-8.347716148497e+01 2.858588149743e+00 0.0 
2.858588149743e+00 -2.018091288152e+02 0.0 
0.0 0.0 -8.518588709004e+01 
-7.532806800748e+01 2.854264929779e+00 0.0 
2.854264929779e+00 -1.831404035201e+02 0.0 
0.0 0.0 -7.714054145829e+01 
-7.891022788395e+01 2.561201061283e+00 0.0 
2.561201061283e+00 -1.920635129620e+02 0.0 
0.0 0.0 -8.089212225380e+01 
-8.707913080826e+01 2.604053497165e+00 0.0 
2.604053497165e+00 -2.107584794881e+02 0.0 
0.0 0.0 -8.895128308889e+01 
-8.250684262381e+01 2.296565367172e+00 0.0 
2.296565367172e+00 -2.008487794426e+02 0.0 
0.0 0.0 -8.460668661991e+01 
-7.440860516717e+01 2.214892960725e+00 0.0 
2.214892960725e+00 -1.822613472949e+02 0.0 
0.0 0.0 -7.660098573862e+01 
-7.802511180374e+01 1.948856225462e+00 0.0 
1.948856225462e+00 -1.909354425915e+02 0.0 
0.0 0.0 -8.028816631858e+01 
-8.614925516276e+01 2.057058587448e+00 0.0 
2.057058587448e+00 -2.096006494643e+02 0.0 
0.0 0.0 -8.832497138813e+01 
-8.166665360970e+01 1.721839831454e+00 0.0 
1.721839831454e+00 -1.995549454757e+02 0.0 
0.0 0.0 -8.396647972563e+01 
-7.361530048870e+01 1.583211613956e+00 0.0 
1.583211613956e+00 -1.809487633437e+02 0.0 
0.0 0.0 -7.596921914973e+01 
-7.725184390426e+01 1.380669353108e+00 0.0 
1.380669353108e+00 -1.894623381599e+02 0.0 
0.0 0.0 -7.961425461925e+01 
-8.537536485798e+01 1.531610896517e+00 0.0 
1.531610896517e+00 -2.082434734253e+02 0.0 
0.0 0.0 -8.768565148498e+01 
-8.090914088320e+01 1.220601935032e+00 0.0 
1.220601935032e+00 -1.979615163732e+02 0.0 
0.0 0.0 -8.326119717692e+01 
-7.287050269428e+01 1.047845249698e+00 0.0 
1.047845249698e+00 -1.792278357128e+02 0.0 
0.0 0.0 -7.522950152212e+01 
-7.648881582093e+01 9.136343425864e-01 0.0 
9.136343425864e-01 -1.875962261834e+02 0.0 
0.0 0.0 -7.882551260129e+01 
-8.461838521832e+01 1.086131065081e+00 0.0 
1.086131065081e+00 -2.065349447222e+02 0.0 
0.0 0.0 -8.694599898216e+01 
-8.013394094561e+01 8.103946321406e-01 0.0 
8.103946321406e-01 -1.959972228401e+02 0.0 
0.0 0.0 -8.243934913571e+01 
-8.834259719301e+01 9.769908769526e-01 0.0 
9.769908769526e-01 -2.151038226856e+02 0.0 
0.0 0.0 -9.063392596358e+01 
-7.203269201894e+01 6.313953591352e-01 0.0 
6.313953591352e-01 -1.769764944167e+02 0.0 
0.0 0.0 -7.430275593068e+01 
-7.565015013705e+01 5.634537097352e-01 0.0 
5.634537097352e-01 -1.853217713536e+02 0.0 
0.0 0.0 -7.789157644721e+01 
-6.756056517434e+01 3.823396556242e-01 0.0 
3.823396556242e-01 -1.661727375397e+02 0.0 
0.0 0.0 -6.971999081423e+01 
-7.118320064829e+01 3.505021017155e-01 0.0 
3.505021017155e-01 -1.745570401703e+02 0.0 
0.0 0.0 -7.332207224557e+01 
-9.933255228351e+01 3.308131998957e+00 0.0 
3.308131998957e+00 -2.312896886762e+02 0.0 
0.0 0.0 -9.878667228790e+01 
-6.311914219429e+01 1.802453458420e-01 0.0 
1.802453458420e-01 -1.553159400580e+02 0.0 
0.0 0.0 -6.513052467569e+01 
-5.962467536076e+01 2.016896339937e-01 0.0 
2.016896339937e-01 -1.471925847083e+02 0.0 
0.0 0.0 -6.164517802070e+01 
-6.673130895934e+01 1.791420305895e-01 0.0 
1.791420305895e-01 -1.637356038827e+02 0.0 
0.0 0.0 -6.874007385263e+01 
-7.486488990394e+01 3.275811747747e-01 0.0 
3.275811747747e-01 -1.830949210799e+02 0.0 
0.0 0.0 -7.698794329514e+01 
-5.867204911262e+01 2.804798506811e-02 0.0 
2.804798506811e-02 -1.443905149741e+02 0.0 
0.0 0.0 -6.051876922602e+01 
-6.228004626575e+01 4.333424428764e-02 0.0 
4.333424428764e-02 -1.528538786210e+02 0.0 
0.0 0.0 -6.414017746603e+01 
-5.422339218134e+01 -9.329376846924e-02 0.0 
-9.329376846924e-02 -1.334410810101e+02 0.0 
0.0 0.0 -5.589934195742e+01 
-7.061283619377e+01 3.680294689248e+00 0.0 
3.680294689248e+00 -1.644866905936e+02 0.0 
0.0 0.0 -7.012985803622e+01 
-1.142029012680e+02 2.324728877694e+00 0.0 
2.324728877694e+00 -2.628008742956e+02 0.0 
0.0 0.0 -1.127011326691e+02 
-5.782118947204e+01 -6.565365851650e-02 0.0 
-6.565365851650e-02 -1.419376250262e+02 0.0 
0.0 0.0 -5.952764434947e+01 
-4.975671431284e+01 -1.582337172669e-01 0.0 
-1.582337172669e-01 -1.224616838980e+02 0.0 
0.0 0.0 -5.126551946324e+01 
-4.621476456995e+01 -2.048118955766e-01 0.0 
-2.048118955766e-01 -1.139859985466e+02 0.0 
0.0 0.0 -4.766022893495e+01 
-4.178342711512e+01 -2.454498620482e-01 0.0 
-2.454498620482e-01 -1.029772206374e+02 0.0 
0.0 0.0 -4.302819432576e+01 
-1.053257204889e+02 8.954323710772e-01 0.0 
8.954323710772e-01 -2.417443559096e+02 0.0 
0.0 0.0 -1.037210229195e+02 
-1.132517007641e+02 9.799613293134e-01 0.0 
9.799613293134e-01 -2.607927651852e+02 0.0 
0.0 0.0 -1.118133397848e+02 
-1.093295113367e+02 8.371303253744e-01 0.0 
8.371303253744e-01 -2.516106751649e+02 0.0 
0.0 0.0 -1.078820559505e+02 
-1.175211312631e+02 9.805732473225e-01 0.0 
9.805732473225e-01 -2.712464716192e+02 0.0 
0.0 0.0 -1.162302808647e+02 
-1.137600185341e+02 8.370672281922e-01 0.0 
8.370672281922e-01 -2.624154780937e+02 0.0 
0.0 0.0 -1.124526489883e+02 
-4.529557774596e+01 -1.701074548401e-01 0.0 
-1.701074548401e-01 -1.114301475304e+02 0.0 
0.0 0.0 -4.661771758292e+01 
-1.199223344774e+02 1.663847729791e+00 0.0 
1.663847729791e+00 -2.762326345129e+02 0.0 
0.0 0.0 -1.184464906971e+02 
-1.212761065699e+02 1.141517378093e+00 0.0 
1.141517378093e+00 -2.800368212627e+02 0.0 
0.0 0.0 -1.199938783498e+02 
-9.058845258230e+01 1.824580074138e+00 0.0 
1.824580074138e+00 -2.063912327949e+02 0.0 
0.0 0.0 -8.869390561315e+01 
-8.109183776324e+01 2.696084921622e+00 0.0 
2.696084921622e+00 -1.852356443890e+02 0.0 
0.0 0.0 -7.949824464568e+01 
-9.276627178589e+01 3.256225790640e+00 0.0 
3.256225790640e+00 -2.212884603555e+02 0.0 
0.0 0.0 -9.381641964242e+01 
-6.591161952911e+01 6.835696190026e-02 0.0 
6.835696190026e-02 -1.613605377176e+02 0.0 
0.0 0.0 -6.778164717400e+01 
-6.144696585109e+01 -4.201650202754e-02 0.0 
-4.201650202754e-02 -1.504850082791e+02 0.0 
0.0 0.0 -6.317959223905e+01 
-6.952312890455e+01 1.041948009337e-01 0.0 
1.041948009337e-01 -1.699250210470e+02 0.0 
0.0 0.0 -7.143444498547e+01 
-9.288201318614e+01 1.247332180060e+00 0.0 
1.247332180060e+00 -2.256298772101e+02 0.0 
0.0 0.0 -9.515356711886e+01 
-9.664631973246e+01 1.132194696881e+00 0.0 
1.132194696881e+00 -2.342754629258e+02 0.0 
0.0 0.0 -9.887653479746e+01 
-1.012395048553e+02 1.394056152426e+00 0.0 
1.394056152426e+00 -2.447994702128e+02 0.0 
0.0 0.0 -1.034116925204e+02 
-1.050307915626e+02 1.277196649401e+00 0.0 
1.277196649401e+00 -2.534811520893e+02 0.0 
0.0 0.0 -1.071535830956e+02 
-1.096745356676e+02 1.532660782900e+00 0.0 
1.532660782900e+00 -2.640106817389e+02 0.0 
0.0 0.0 -1.117055652219e+02 
-1.134912951774e+02 1.412411895387e+00 0.0 
1.412411895387e+00 -2.727157214012e+02 0.0 
0.0 0.0 -1.154621049736e+02 
-1.088268547586e+02 1.174851227644e+00 0.0 
1.174851227644e+00 -2.621245762778e+02 0.0 
0.0 0.0 -1.108854293109e+02 
-1.173135046871e+02 1.308172438201e+00 0.0 
1.308172438201e+00 -2.813801960014e+02 0.0 
0.0 0.0 -1.192081102065e+02 
-1.126284410473e+02 1.081453282858e+00 0.0 
1.081453282858e+00 -2.707367691291e+02 0.0 
0.0 0.0 -1.146095630529e+02 
-1.181800265052e+02 1.662696382257e+00 0.0 
1.662696382257e+00 -2.832480340258e+02 0.0 
0.0 0.0 -1.200284181593e+02 
-1.143241091469e+02 1.797704970264e+00 0.0 
1.797704970264e+00 -2.744464256945e+02 0.0 
0.0 0.0 -1.162311604524e+02 
-1.211431594127e+02 1.210082504793e+00 0.0 
1.210082504793e+00 -2.900016277093e+02 0.0 
0.0 0.0 -1.229434361366e+02 
-1.164364574366e+02 9.873728353132e-01 0.0 
9.873728353132e-01 -2.793189247202e+02 0.0 
0.0 0.0 -1.183266146470e+02 
-1.249902895305e+02 1.106248862716e+00 0.0 
1.106248862716e+00 -2.985963497340e+02 0.0 
0.0 0.0 -1.266759917793e+02 
-1.202545117030e+02 8.938960487059e-01 0.0 
8.938960487059e-01 -2.878753986897e+02 0.0 
0.0 0.0 -1.220389731178e+02 
-1.117260306834e+02 7.826690822962e-01 0.0 
7.826690822962e-01 -2.685550061614e+02 0.0 
0.0 0.0 -1.136843110535e+02 
-1.155086213754e+02 6.966191223196e-01 0.0 
6.966191223196e-01 -2.770684114380e+02 0.0 
0.0 0.0 -1.173731098440e+02 
-1.070464764407e+02 6.058168049358e-01 0.0 
6.058168049358e-01 -2.578033226146e+02 0.0 
0.0 0.0 -1.090549397166e+02 
-9.634557010627e+01 3.073308726562e+00 0.0 
3.073308726562e+00 -2.304440303884e+02 0.0 
0.0 0.0 -9.763688014841e+01 
-1.010155070639e+02 3.222289574346e+00 0.0 
3.222289574346e+00 -2.402776610671e+02 0.0 
0.0 0.0 -1.019879504393e+02 
-1.046241434850e+02 3.067820639595e+00 0.0 
3.067820639595e+00 -2.494162050539e+02 0.0 
0.0 0.0 -1.058121045617e+02 
-1.092940890881e+02 3.210748436732e+00 0.0 
3.210748436732e+00 -2.593294510586e+02 0.0 
0.0 0.0 -1.101870620440e+02 
-1.129433445439e+02 3.085078427794e+00 0.0 
3.085078427794e+00 -2.684610597554e+02 0.0 
0.0 0.0 -1.140213212898e+02 
-1.175960732997e+02 3.227417274875e+00 0.0 
3.227417274875e+00 -2.784275533858e+02 0.0 
0.0 0.0 -1.184070880057e+02 
-1.212765572935e+02 3.126350878651e+00 0.0 
3.126350878651e+00 -2.875212891550e+02 0.0 
0.0 0.0 -1.222393539345e+02 
-1.166321940647e+02 2.947241805622e+00 0.0 
2.947241805622e+00 -2.775258947306e+02 0.0 
0.0 0.0 -1.178474266386e+02 
-1.191247357554e+02 1.938655944902e+00 0.0 
1.938655944902e+00 -2.743301776089e+02 0.0 
0.0 0.0 -1.176364740093e+02 
-6.824813454471e+01 3.456677433147e+00 0.0 
3.456677433147e+00 -1.648461755369e+02 0.0 
0.0 0.0 -6.952829302449e+01 
-6.479147933566e+01 3.728309324783e+00 0.0 
3.728309324783e+00 -1.554864762669e+02 0.0 
0.0 0.0 -6.568338668078e+01 
-6.013281182151e+01 3.536926585365e+00 0.0 
3.536926585365e+00 -1.461905676262e+02 0.0 
0.0 0.0 -6.149701383430e+01 
-5.668875032752e+01 3.862210192977e+00 0.0 
3.862210192977e+00 -1.367521462794e+02 0.0 
0.0 0.0 -5.763226898209e+01 
-5.204179022107e+01 3.607442442827e+00 0.0 
3.607442442827e+00 -1.276198002860e+02 0.0 
0.0 0.0 -5.349847715212e+01 
-4.860807986085e+01 3.998188621135e+00 0.0 
3.998188621135e+00 -1.181001533669e+02 0.0 
0.0 0.0 -4.961246996833e+01 
-4.395957950068e+01 3.655563343149e+00 0.0 
3.655563343149e+00 -1.090963620513e+02 0.0 
0.0 0.0 -4.551678246560e+01 
-4.749951690792e+01 3.149031107420e+00 0.0 
3.149031107420e+00 -1.184261240880e+02 0.0 
0.0 0.0 -4.937769229878e+01 
-3.947711164837e+01 3.054572022138e+00 0.0 
3.054572022138e+00 -9.998056746582e+01 0.0 
0.0 0.0 -4.143730373426e+01 
-4.313105661760e+01 2.526189033037e+00 0.0 
2.526189033037e+00 -1.090571996481e+02 0.0 
0.0 0.0 -4.525647687970e+01 
-3.523584292482e+01 2.276385764094e+00 0.0 
2.276385764094e+00 -9.060495602264e+01 0.0 
0.0 0.0 -3.735223968424e+01 
-3.892982637914e+01 1.814456227490e+00 0.0 
1.814456227490e+00 -9.936377643625e+01 0.0 
0.0 0.0 -4.108808084462e+01 
-1.047587302447e+02 2.898452174639e+00 0.0 
2.898452174639e+00 -2.417428977490e+02 0.0 
0.0 0.0 -1.035504883981e+02 
-1.139458947488e+02 3.308942419589e+00 0.0 
3.308942419589e+00 -2.692320038259e+02 0.0 
0.0 0.0 -1.145533695724e+02 
-1.222466431658e+02 3.322214525427e+00 0.0 
3.322214525427e+00 -2.884092493667e+02 0.0 
0.0 0.0 -1.227967677598e+02 
-1.185444743013e+02 3.366553459548e+00 0.0 
3.366553459548e+00 -2.790464772805e+02 0.0 
0.0 0.0 -1.188772854745e+02 
-3.825828130102e+01 -2.816724088933e-01 0.0 
-2.816724088933e-01 -9.451864316503e+01 0.0 
0.0 0.0 -3.943307733981e+01 
-1.240886084590e+02 7.957178129548e-01 0.0 
7.957178129548e-01 -2.964193925448e+02 0.0 
0.0 0.0 -1.257524003011e+02 
-1.228813247644e+02 1.929662039074e+00 0.0 
1.929662039074e+00 -2.937147216330e+02 0.0 
0.0 0.0 -1.245788139192e+02 
-1.189640125385e+02 2.066767277262e+00 0.0 
2.066767277262e+00 -2.847579735521e+02 0.0 
0.0 0.0 -1.207165958272e+02 
-1.250284855407e+02 3.002808752088e+00 0.0 
3.002808752088e+00 -2.966262708178e+02 0.0 
0.0 0.0 -1.260964269076e+02 
-3.739101690088e+01 -2.425235969322e-01 0.0 
-2.425235969322e-01 -9.209629770417e+01 0.0 
0.0 0.0 -3.844619438151e+01 
-4.056765265797e+01 4.138069890242e+00 0.0 
4.138069890242e+00 -9.955059503108e+01 0.0 
0.0 0.0 -4.163547430671e+01 
-4.524087508939e+01 4.273310537916e+00 0.0 
4.273310537916e+00 -1.082715622567e+02 0.0 
0.0 0.0 -4.565373120383e+01 
-1.218325304517e+02 9.789646293942e-01 0.0 
9.789646293942e-01 -2.817547533870e+02 0.0 
0.0 0.0 -1.206761851516e+02 
-1.180811114130e+02 8.268467772883e-01 0.0 
8.268467772883e-01 -2.729157026769e+02 0.0 
0.0 0.0 -1.168990442270e+02 
-1.276017912562e+02 2.195576785341e+00 0.0 
2.195576785341e+00 -3.041313917896e+02 0.0 
0.0 0.0 -1.291199549137e+02 
-4.089067234103e+01 -1.868484838411e-01 0.0 
-1.868484838411e-01 -1.005278336273e+02 0.0 
0.0 0.0 -4.202555179049e+01 
-1.258645987347e+02 1.443023594490e+00 0.0 
1.443023594490e+00 -3.006424520422e+02 0.0 
0.0 0.0 -1.275521152331e+02 
-3.160225334927e+01 2.835260357051e+00 0.0 
2.835260357051e+00 -8.167896557912e+01 0.0 
0.0 0.0 -3.358436567852e+01 
-1.193126788380e+02 5.985559788425e-01 0.0 
5.985559788425e-01 -2.855785598120e+02 0.0 
0.0 0.0 -1.210673715950e+02 
-1.279123824645e+02 6.867567482726e-01 0.0 
6.867567482726e-01 -3.049302923613e+02 0.0 
0.0 0.0 -1.294528024477e+02 
-1.041975821177e+02 9.506664745473e-01 0.0 
9.506664745473e-01 -2.515042576771e+02 0.0 
0.0 0.0 -1.063105519384e+02 
-1.268790792789e+02 3.388664122597e+00 0.0 
3.388664122597e+00 -2.983793997427e+02 0.0 
0.0 0.0 -1.271775437065e+02 
-1.230945466350e+02 3.398072571361e+00 0.0 
3.398072571361e+00 -2.888152584979e+02 0.0 
0.0 0.0 -1.231729415399e+02 
-4.683193810813e+01 2.097132885485e+00 0.0 
2.097132885485e+00 -1.180076008992e+02 0.0 
0.0 0.0 -4.905186170221e+01 
-4.260431430659e+01 1.507927138682e+00 0.0 
1.507927138682e+00 -1.080965345925e+02 0.0 
0.0 0.0 -4.481025466972e+01 
-3.501346401258e+01 1.163051842573e+00 0.0 
1.163051842573e+00 -8.974785463210e+01 0.0 
0.0 0.0 -3.702839559341e+01 
-3.886431555730e+01 9.081442017808e-01 0.0 
9.081442017808e-01 -9.862356706182e+01 0.0 
0.0 0.0 -4.084636478574e+01 
-4.634772103153e+01 1.203840076646e+00 0.0 
1.203840076646e+00 -1.168934307067e+02 0.0 
0.0 0.0 -4.857234552146e+01 
-4.224057372571e+01 6.639533431491e-01 0.0 
6.639533431491e-01 -1.065236569428e+02 0.0 
0.0 0.0 -4.422926920055e+01 
-3.478185009448e+01 3.169708046030e-01 0.0 
3.169708046030e-01 -8.791967005510e+01 0.0 
0.0 0.0 -3.641045604487e+01 
-3.814492362395e+01 2.535730294206e-01 0.0 
2.535730294206e-01 -9.594752455512e+01 0.0 
0.0 0.0 -3.982773445372e+01 
-4.579611197552e+01 5.242109192760e-01 0.0 
5.242109192760e-01 -1.148525622211e+02 0.0 
0.0 0.0 -4.779460225900e+01 
-4.161213060558e+01 1.790168644381e-01 0.0 
1.790168644381e-01 -1.041774479462e+02 0.0 
0.0 0.0 -4.333687356553e+01 
-3.404095320305e+01 -3.839677154766e-02 0.0 
-3.839677154766e-02 -8.506042235192e+01 0.0 
0.0 0.0 -3.533041266649e+01 
-3.736813433674e+01 -6.167207521956e-02 0.0 
-6.167207521956e-02 -9.325511116652e+01 0.0 
0.0 0.0 -3.878697365098e+01 
-1.326991933069e+02 8.871557357545e-01 0.0 
8.871557357545e-01 -3.157092559974e+02 0.0 
0.0 0.0 -1.341225347913e+02 
-2.766164693226e+01 1.892907156019e+00 0.0 
1.892907156019e+00 -7.227476234418e+01 0.0 
0.0 0.0 -2.958092278293e+01 
-9.551066189780e+01 1.357917805784e+00 0.0 
1.357917805784e+00 -2.179863249185e+02 0.0 
0.0 0.0 -9.364909604489e+01 
-1.314921088053e+02 2.057241402547e+00 0.0 
2.057241402547e+00 -3.129703481110e+02 0.0 
0.0 0.0 -1.329387370749e+02 
-1.295580755018e+02 3.178944749203e+00 0.0 
3.178944749203e+00 -3.064331599028e+02 0.0 
0.0 0.0 -1.303973706214e+02 
-1.261833843674e+02 9.579581150481e-01 0.0 
9.579581150481e-01 -2.923353306586e+02 0.0 
0.0 0.0 -1.251556145078e+02 
-1.224303240745e+02 8.050568063457e-01 0.0 
8.050568063457e-01 -2.835112928338e+02 0.0 
0.0 0.0 -1.213824850725e+02 
-1.142635768396e+02 6.514172166702e-01 0.0 
6.514172166702e-01 -2.640058860741e+02 0.0 
0.0 0.0 -1.130808388741e+02 
-1.186446854556e+02 6.483857888505e-01 0.0 
6.483857888505e-01 -2.747038669622e+02 0.0 
0.0 0.0 -1.176045657253e+02 
-1.268055796349e+02 7.895425162588e-01 0.0 
7.895425162588e-01 -2.942175149997e+02 0.0 
0.0 0.0 -1.259069283904e+02 
-1.230383662979e+02 6.398108675604e-01 0.0 
6.398108675604e-01 -2.854047458052e+02 0.0 
0.0 0.0 -1.221329336309e+02 
-1.148347941300e+02 5.218061517898e-01 0.0 
5.218061517898e-01 -2.658689592915e+02 0.0 
0.0 0.0 -1.138111260264e+02 
-1.192652296017e+02 5.120184779545e-01 0.0 
5.120184779545e-01 -2.765499815442e+02 0.0 
0.0 0.0 -1.183445633438e+02 
-1.110425711762e+02 4.117743538566e-01 0.0 
4.117743538566e-01 -2.569889275953e+02 0.0 
0.0 0.0 -1.100094496314e+02 
-1.154846289594e+02 3.977336914727e-01 0.0 
3.977336914727e-01 -2.676886226645e+02 0.0 
0.0 0.0 -1.145519754872e+02 
-1.237124609852e+02 4.954240590452e-01 0.0 
4.954240590452e-01 -2.872575891496e+02 0.0 
0.0 0.0 -1.228910150405e+02 
-1.199469676243e+02 3.980182001653e-01 0.0 
3.980182001653e-01 -2.784346128957e+02 0.0 
0.0 0.0 -1.191144741560e+02 
-1.116794373235e+02 2.951048093220e-01 0.0 
2.951048093220e-01 -2.588618623570e+02 0.0 
0.0 0.0 -1.107623899042e+02 
-1.161635705658e+02 3.161451382461e-01 0.0 
3.161451382461e-01 -2.695941904742e+02 0.0 
0.0 0.0 -1.153273283120e+02 
-1.078566786841e+02 2.271338635268e-01 0.0 
2.271338635268e-01 -2.499921204977e+02 0.0 
0.0 0.0 -1.069546397545e+02 
-1.123753500310e+02 2.613734440313e-01 0.0 
2.613734440313e-01 -2.606541670201e+02 0.0 
0.0 0.0 -1.115088551153e+02 
-1.206746387141e+02 2.897110067091e-01 0.0 
2.897110067091e-01 -2.803569987212e+02 0.0 
0.0 0.0 -1.199094912306e+02 
-3.328833190376e+01 -2.298450260240e-01 0.0 
-2.298450260240e-01 -8.171458862383e+01 0.0 
0.0 0.0 -3.410087615828e+01 
-1.203610311671e+02 2.798140796708e+00 0.0 
2.798140796708e+00 -2.865529680177e+02 0.0 
0.0 0.0 -1.216741997554e+02 
-1.288634002299e+02 2.858016208889e+00 0.0 
2.858016208889e+00 -3.058242326509e+02 0.0 
0.0 0.0 -1.300062898643e+02 
-6.520333071735e+01 8.362441659900e-02 0.0 
8.362441659900e-02 -1.595911047819e+02 0.0 
0.0 0.0 -6.703833064978e+01 
-7.306431848812e+01 1.699235589285e-01 0.0 
1.699235589285e-01 -1.782722346280e+02 0.0 
0.0 0.0 -7.500096593485e+01 
-7.765682851565e+01 1.489000557982e-01 0.0 
1.489000557982e-01 -1.893011459019e+02 0.0 
0.0 0.0 -7.968739232527e+01 
-8.142830210757e+01 1.595406689598e-01 0.0 
1.595406689598e-01 -1.979988552327e+02 0.0 
0.0 0.0 -8.342814720207e+01 
-1.168477587561e+02 2.362633307451e-01 0.0 
2.362633307451e-01 -2.713097644784e+02 0.0 
0.0 0.0 -1.160472569703e+02 
-1.251204920487e+02 2.381832318916e-01 0.0 
2.381832318916e-01 -2.911232774322e+02 0.0 
0.0 0.0 -1.244731308443e+02 
-3.729656272282e+01 4.459516382091e+00 0.0 
4.459516382091e+00 -8.966043037424e+01 0.0 
0.0 0.0 -3.768709792912e+01 
-4.192918338414e+01 4.300788275025e+00 0.0 
4.300788275025e+00 -9.821626209629e+01 0.0 
0.0 0.0 -4.164363364413e+01 
-1.299044619355e+02 1.117596589362e+00 0.0 
1.117596589362e+00 -3.011487243685e+02 0.0 
0.0 0.0 -1.289159558912e+02 
-1.231279656900e+02 5.065911300448e-01 0.0 
5.065911300448e-01 -2.941377446940e+02 0.0 
0.0 0.0 -1.247797131152e+02 
-1.145724194684e+02 4.234944797188e-01 0.0 
4.234944797188e-01 -2.747846176524e+02 0.0 
0.0 0.0 -1.164071111362e+02 
-7.667178861738e+01 2.941433789692e+00 0.0 
2.941433789692e+00 -1.754336666807e+02 0.0 
0.0 0.0 -7.523163658944e+01 
-7.317481852467e+01 2.597814680085e+00 0.0 
2.597814680085e+00 -1.663621027752e+02 0.0 
0.0 0.0 -7.146107638998e+01 
-6.874001443459e+01 2.893524618775e+00 0.0 
2.893524618775e+00 -1.564721281743e+02 0.0 
0.0 0.0 -6.716364278266e+01 
-6.507472222338e+01 2.462586316677e+00 0.0 
2.462586316677e+00 -1.470886314658e+02 0.0 
0.0 0.0 -6.324900610677e+01 
-6.958452472047e+01 2.183932519516e+00 0.0 
2.183932519516e+00 -1.573809696995e+02 0.0 
0.0 0.0 -6.768964832600e+01 
-6.055917873692e+01 2.831894713832e+00 0.0 
2.831894713832e+00 -1.369204812777e+02 0.0 
0.0 0.0 -5.884389800438e+01 
-1.103952345125e+02 1.935783728591e+00 0.0 
1.935783728591e+00 -2.654060862795e+02 0.0 
0.0 0.0 -1.123403962376e+02 
-1.281728730765e+02 4.864569130208e-01 0.0 
4.864569130208e-01 -2.980264895488e+02 0.0 
0.0 0.0 -1.274598087876e+02 
-4.270990686076e+01 -2.525898085078e-01 0.0 
-2.525898085078e-01 -1.055997243817e+02 0.0 
0.0 0.0 -4.409288937274e+01 
-3.485621277418e+01 -3.231880169843e-01 0.0 
-3.231880169843e-01 -8.619753367460e+01 0.0 
0.0 0.0 -3.591612393463e+01 
-1.317219650093e+02 5.727980396950e-01 0.0 
5.727980396950e-01 -3.134959313604e+02 0.0 
0.0 0.0 -1.331653689109e+02 
-1.119378330936e+02 2.733132790717e+00 0.0 
2.733132790717e+00 -2.674396071837e+02 0.0 
0.0 0.0 -1.134132320832e+02 
-1.091481981928e+02 2.773631875461e+00 0.0 
2.773631875461e+00 -2.516590913495e+02 0.0 
0.0 0.0 -1.078421868627e+02 
-1.126815360123e+02 2.969922357614e+00 0.0 
2.969922357614e+00 -2.606616111994e+02 0.0 
0.0 0.0 -1.116029441635e+02 
-1.170809361659e+02 2.874620329320e+00 0.0 
2.874620329320e+00 -2.706555839828e+02 0.0 
0.0 0.0 -1.159209560446e+02 
-1.206415182319e+02 3.049539728342e+00 0.0 
3.049539728342e+00 -2.796830494911e+02 0.0 
0.0 0.0 -1.196973703169e+02 
-1.250316214176e+02 2.988279620072e+00 0.0 
2.988279620072e+00 -2.897464536554e+02 0.0 
0.0 0.0 -1.240334225219e+02 
-1.285743860336e+02 3.157824621545e+00 0.0 
3.157824621545e+00 -2.987194077887e+02 0.0 
0.0 0.0 -1.277881381467e+02 
-1.242089213356e+02 3.197843662623e+00 0.0 
3.197843662623e+00 -2.887959440030e+02 0.0 
0.0 0.0 -1.235014596016e+02 
-1.314789990845e+02 3.428158643998e+00 0.0 
3.428158643998e+00 -3.082973702003e+02 0.0 
0.0 0.0 -1.315329107855e+02 
-1.321675113544e+02 3.317956292901e+00 0.0 
3.317956292901e+00 -3.078510867351e+02 0.0 
0.0 0.0 -1.316055794269e+02 
-1.085276617992e+02 1.285909890339e-01 0.0 
1.285909890339e-01 -2.514007414500e+02 0.0 
0.0 0.0 -1.075785209747e+02 
-1.102322274762e+02 3.356217274646e+00 0.0 
3.356217274646e+00 -2.597469725793e+02 0.0 
0.0 0.0 -1.105937600166e+02 
-4.938215135831e+01 4.141672314316e-01 0.0 
4.141672314316e-01 -1.232752701032e+02 0.0 
0.0 0.0 -5.139722643847e+01 
-2.956832721567e+01 -2.144546659742e-01 0.0 
-2.144546659742e-01 -7.302001874169e+01 0.0 
0.0 0.0 -3.037650378721e+01 
-2.950105855411e+01 -2.389391678234e-01 0.0 
-2.389391678234e-01 -7.353159598959e+01 0.0 
0.0 0.0 -3.050979636311e+01 
-3.635153525761e+01 -2.148701421946e-01 0.0 
-2.148701421946e-01 -8.936648729592e+01 0.0 
0.0 0.0 -3.731540676606e+01 
-4.437805320201e+01 -1.697115244477e-01 0.0 
-1.697115244477e-01 -1.089444753768e+02 0.0 
0.0 0.0 -4.559675857365e+01 
-1.362692968992e+02 2.324961420469e+00 0.0 
2.324961420469e+00 -3.234459484334e+02 0.0 
0.0 0.0 -1.375145735998e+02 
-1.329433391059e+02 3.116514231404e+00 0.0 
3.116514231404e+00 -3.088420958770e+02 0.0 
0.0 0.0 -1.321356304949e+02 
-1.293099667482e+02 2.916914857887e+00 0.0 
2.916914857887e+00 -2.997188544441e+02 0.0 
0.0 0.0 -1.283086463577e+02 
-6.150671661855e+01 1.952247524496e+00 0.0 
1.952247524496e+00 -1.383149042188e+02 0.0 
0.0 0.0 -5.954648625119e+01 
-6.601287541929e+01 1.778900176459e+00 0.0 
1.778900176459e+00 -1.487048668271e+02 0.0 
0.0 0.0 -6.401532267392e+01 
-1.352534143361e+02 3.465630606950e+00 0.0 
3.465630606950e+00 -3.176386874430e+02 0.0 
0.0 0.0 -1.354676305337e+02 
-1.057205577062e+02 6.530142510266e-01 0.0 
6.530142510266e-01 -2.430434063984e+02 0.0 
0.0 0.0 -1.042291892314e+02 
-1.066382428908e+02 4.066836451584e-01 0.0 
4.066836451584e-01 -2.463774030544e+02 0.0 
0.0 0.0 -1.055046937836e+02 
-1.027686438585e+02 2.966763718123e-01 0.0 
2.966763718123e-01 -2.373909688655e+02 0.0 
0.0 0.0 -1.016478838172e+02 
-2.785910597029e+01 -1.477849703570e-01 0.0 
-1.477849703570e-01 -6.832241491918e+01 0.0 
0.0 0.0 -2.845445626684e+01 
-2.666692165090e+01 -2.373509170857e-01 0.0 
-2.373509170857e-01 -6.615309443317e+01 0.0 
0.0 0.0 -2.744600482522e+01 
-1.312120513000e+02 7.580048655360e-01 0.0 
7.580048655360e-01 -3.049541302362e+02 0.0 
0.0 0.0 -1.304498544609e+02 
-4.986816665804e+01 4.146247759129e+00 0.0 
4.146247759129e+00 -1.170508468209e+02 0.0 
0.0 0.0 -4.967570404369e+01 
-4.652694713247e+01 3.958275400793e+00 0.0 
3.958275400793e+00 -1.071483577839e+02 0.0 
0.0 0.0 -4.570259147491e+01 
-2.390247390085e+01 2.464033782629e+00 0.0 
2.464033782629e+00 -6.333451080719e+01 0.0 
0.0 0.0 -2.577109541241e+01 
-2.045670679860e+01 1.360543782615e+00 0.0 
1.360543782615e+00 -5.385763649344e+01 0.0 
0.0 0.0 -2.189430298761e+01 
-1.213136019148e+02 1.070488253162e-01 0.0 
1.070488253162e-01 -2.818033268899e+02 0.0 
0.0 0.0 -1.205350786414e+02 
-1.295497769537e+02 1.660692283243e-01 0.0 
1.660692283243e-01 -3.014715561249e+02 0.0 
0.0 0.0 -1.289063999236e+02 
-8.597169951646e+01 2.637695906775e-01 0.0 
2.637695906775e-01 -2.087373440785e+02 0.0 
0.0 0.0 -8.801271307848e+01 
-8.965365514002e+01 2.741203478836e-01 0.0 
2.741203478836e-01 -2.173563598694e+02 0.0 
0.0 0.0 -9.170300450284e+01 
-1.323691023885e+02 2.454647849298e+00 0.0 
2.454647849298e+00 -3.145605830059e+02 0.0 
0.0 0.0 -1.336789056183e+02 
-3.308793271434e+01 -2.352675014231e-01 0.0 
-2.352675014231e-01 -8.225724251756e+01 0.0 
0.0 0.0 -3.420355256957e+01 
-1.334429011015e+02 2.986889828769e-01 0.0 
2.986889828769e-01 -3.108121160882e+02 0.0 
0.0 0.0 -1.328765051569e+02 
-1.156796085721e+02 2.567689259894e+00 0.0 
2.567689259894e+00 -2.764488223775e+02 0.0 
0.0 0.0 -1.172385292849e+02 
-1.072516157930e+02 2.496178182882e+00 0.0 
2.496178182882e+00 -2.573202695268e+02 0.0 
0.0 0.0 -1.089715655959e+02 
-7.684715801138e+01 1.571269302046e-02 0.0 
1.571269302046e-02 -1.868663264458e+02 0.0 
0.0 0.0 -7.871404533716e+01 
-3.406296201672e+01 4.432761815062e+00 0.0 
4.432761815062e+00 -7.949314567870e+01 0.0 
0.0 0.0 -3.366683230863e+01 
-2.944430110148e+01 4.603106584633e+00 0.0 
4.603106584633e+00 -7.125044743263e+01 0.0 
0.0 0.0 -2.980842456023e+01 
-5.360725632677e+01 7.739062084247e-01 0.0 
7.739062084247e-01 -1.337876735389e+02 0.0 
0.0 0.0 -5.581847895971e+01 
-4.084958260458e+01 -9.839727045925e-02 0.0 
-9.839727045925e-02 -1.016352396264e+02 0.0 
0.0 0.0 -4.234544666928e+01 
-3.983692606354e+01 -1.398895421481e-01 0.0 
-1.398895421481e-01 -9.780621530868e+01 0.0 
0.0 0.0 -4.089294241167e+01 
-1.410259217386e+02 2.557467553196e+00 0.0 
2.557467553196e+00 -3.338432623271e+02 0.0 
0.0 0.0 -1.420607552197e+02 
-1.349252514553e+02 9.009952547082e-01 0.0 
9.009952547082e-01 -3.136494287429e+02 0.0 
0.0 0.0 -1.341724040594e+02 
-1.278187021800e+02 3.369547717292e+00 0.0 
3.369547717292e+00 -2.980042324191e+02 0.0 
0.0 0.0 -1.273468803797e+02 
-1.197310466720e+02 3.257202498253e+00 0.0 
3.257202498253e+00 -2.788277688050e+02 0.0 
0.0 0.0 -1.191676446431e+02 
-1.359723415012e+02 3.466472392700e+00 0.0 
3.466472392700e+00 -3.171822977430e+02 0.0 
0.0 0.0 -1.355463917733e+02 
-2.560889601493e+01 -3.207209713934e-01 0.0 
-3.207209713934e-01 -6.294976023034e+01 0.0 
0.0 0.0 -2.616759687358e+01 
-1.402520547467e+02 2.208309705780e+00 0.0 
2.208309705780e+00 -3.325020292055e+02 0.0 
0.0 0.0 -1.414262251857e+02 
-1.269235180793e+02 4.065557102983e-01 0.0 
4.065557102983e-01 -3.027560040308e+02 0.0 
0.0 0.0 -1.285038566330e+02 
-1.368234227933e+02 3.001035765841e+00 0.0 
3.001035765841e+00 -3.181222266846e+02 0.0 
0.0 0.0 -1.360836948434e+02 
-1.335518437143e+02 2.837180754628e+00 0.0 
2.837180754628e+00 -3.097359868000e+02 0.0 
0.0 0.0 -1.325863491543e+02 
-5.442592170965e+01 3.866399484046e+00 0.0 
3.866399484046e+00 -1.260455935433e+02 0.0 
0.0 0.0 -5.374145457589e+01 
-5.114984569767e+01 3.576502709479e+00 0.0 
3.576502709479e+00 -1.166437983380e+02 0.0 
0.0 0.0 -4.993809321069e+01 
-4.319860775253e+01 3.505209538488e+00 0.0 
3.505209538488e+00 -9.758547004473e+01 0.0 
0.0 0.0 -4.183522333918e+01 
-4.774978465967e+01 3.018704137741e+00 0.0 
3.018704137741e+00 -1.074170858003e+02 0.0 
0.0 0.0 -4.615006113800e+01 
-9.605181490223e+01 1.074301443575e+00 0.0 
1.074301443575e+00 -2.195912332673e+02 0.0 
0.0 0.0 -9.429291445086e+01 
-5.909666172860e+01 3.551760634290e+00 0.0 
3.551760634290e+00 -1.356705474436e+02 0.0 
0.0 0.0 -5.803016275166e+01 
-9.126338697284e+01 1.431540466881e+00 0.0 
1.431540466881e+00 -2.078748880775e+02 0.0 
0.0 0.0 -8.934148251511e+01 
-8.763022571271e+01 1.161387122313e+00 0.0 
1.161387122313e+00 -1.993905919814e+02 0.0 
0.0 0.0 -8.570624530825e+01 
-8.340883061687e+01 1.225763863158e+00 0.0 
1.225763863158e+00 -1.893875143472e+02 0.0 
0.0 0.0 -8.143890348922e+01 
-7.396164095987e+01 1.990095718008e+00 0.0 
1.990095718008e+00 -1.674220135861e+02 0.0 
0.0 0.0 -7.201509636380e+01 
-7.041884307275e+01 1.612517736336e+00 0.0 
1.612517736336e+00 -1.589045822043e+02 0.0 
0.0 0.0 -6.839702758311e+01 
-6.133433384001e+01 3.926869882810e+00 0.0 
3.926869882810e+00 -1.458424030524e+02 0.0 
0.0 0.0 -6.175302106772e+01 
-9.741407791025e+01 3.353509257553e+00 0.0 
3.353509257553e+00 -2.309929684775e+02 0.0 
0.0 0.0 -9.812211391631e+01 
-8.224001516033e+01 2.753600109314e-01 0.0 
2.753600109314e-01 -2.002001076962e+02 0.0 
0.0 0.0 -8.433203685697e+01 
-1.033192121727e+02 6.766247057663e-01 0.0 
6.766247057663e-01 -2.493292221423e+02 0.0 
0.0 0.0 -1.053945302945e+02 
-9.743665076391e+01 1.524902821839e+00 0.0 
1.524902821839e+00 -2.360372097867e+02 0.0 
0.0 0.0 -9.964215816518e+01 
-1.318569017194e+02 5.902570427902e-01 0.0 
5.902570427902e-01 -3.067314121178e+02 0.0 
0.0 0.0 -1.311764941511e+02 
-1.363397860158e+02 5.748202689420e-01 0.0 
5.748202689420e-01 -3.176257006630e+02 0.0 
0.0 0.0 -1.357896460037e+02 
-1.033773283187e+02 1.930663296775e-01 0.0 
1.930663296775e-01 -2.392732326906e+02 0.0 
0.0 0.0 -1.023951683028e+02 
-9.961295589231e+01 1.581659353002e-01 0.0 
1.581659353002e-01 -2.303108954448e+02 0.0 
0.0 0.0 -9.857715540113e+01 
-3.039539788681e+01 -3.191996439587e-01 0.0 
-3.191996439587e-01 -7.503089679079e+01 0.0 
0.0 0.0 -3.122788840328e+01 
-2.701484938164e+01 -3.757439811672e-01 0.0 
-3.757439811672e-01 -6.674851355810e+01 0.0 
0.0 0.0 -2.772900888192e+01 
-9.208587821235e+01 8.881652605335e-01 0.0 
8.881652605335e-01 -2.236944813149e+02 0.0 
0.0 0.0 -9.433410785819e+01 
-1.353295862141e+02 1.917564626919e+00 0.0 
1.917564626919e+00 -3.216774349665e+02 0.0 
0.0 0.0 -1.367021063542e+02 
-1.341526275720e+02 1.063009698769e+00 0.0 
1.063009698769e+00 -3.115717279885e+02 0.0 
0.0 0.0 -1.333173066681e+02 
-1.378445696736e+02 1.249869123483e+00 0.0 
1.249869123483e+00 -3.203925324271e+02 0.0 
0.0 0.0 -1.370711306302e+02 
-1.335754170123e+02 1.296548301381e+00 0.0 
1.296548301381e+00 -3.098512208660e+02 0.0 
0.0 0.0 -1.326279913635e+02 
-1.370407406972e+02 2.685833185041e+00 0.0 
2.685833185041e+00 -3.246943664266e+02 0.0 
0.0 0.0 -1.381205321371e+02 
-6.364736221556e+01 3.181656765270e+00 0.0 
3.181656765270e+00 -1.554438077119e+02 0.0 
0.0 0.0 -6.532735097824e+01 
-9.995261186271e+01 2.879957079615e+00 0.0 
2.879957079615e+00 -2.394884513454e+02 0.0 
0.0 0.0 -1.014323189624e+02 
-2.402399933961e+01 1.059728480743e+00 0.0 
1.059728480743e+00 -6.252029139806e+01 0.0 
0.0 0.0 -2.556328722130e+01 
-1.038050160998e+02 3.191396067657e+00 0.0 
3.191396067657e+00 -2.409766192545e+02 0.0 
0.0 0.0 -1.030344906063e+02 
-2.268497587348e+01 -3.062694497059e-01 0.0 
-3.062694497059e-01 -5.574058635807e+01 0.0 
0.0 0.0 -2.312766866947e+01 
-1.184309739844e+02 2.227081620417e+00 0.0 
2.227081620417e+00 -2.728343524075e+02 0.0 
0.0 0.0 -1.169795979176e+02 
-1.356326906813e+02 4.419806428606e-01 0.0 
4.419806428606e-01 -3.221594228168e+02 0.0 
0.0 0.0 -1.369376340495e+02 
-1.403796474928e+02 6.240369444967e-01 0.0 
6.240369444967e-01 -3.327352456728e+02 0.0 
0.0 0.0 -1.415344679497e+02 
-1.396863002877e+02 3.560010305616e+00 0.0 
3.560010305616e+00 -3.273765628971e+02 0.0 
0.0 0.0 -1.397188589554e+02 
-8.469916582242e+01 6.051652810989e-01 0.0 
6.051652810989e-01 -1.930237481005e+02 0.0 
0.0 0.0 -8.291687417688e+01 
-1.072896731115e+02 3.289835164115e+00 0.0 
3.289835164115e+00 -2.501217571104e+02 0.0 
0.0 0.0 -1.068234290666e+02 
-1.028105266322e+02 3.365665307148e+00 0.0 
3.365665307148e+00 -2.404995814960e+02 0.0 
0.0 0.0 -1.025930324385e+02 
-7.980626900660e+01 9.374569241524e-01 0.0 
9.374569241524e-01 -1.810460867056e+02 0.0 
0.0 0.0 -7.785570671365e+01 
-7.560366796765e+01 1.004710428671e+00 0.0 
1.004710428671e+00 -1.711362623015e+02 0.0 
0.0 0.0 -7.362197908073e+01 
-7.916128550258e+01 1.308929532244e+00 0.0 
1.308929532244e+00 -1.793683172278e+02 0.0 
0.0 0.0 -7.715888081910e+01 
-7.133165705903e+01 1.098492995941e+00 0.0 
1.098492995941e+00 -1.611100348467e+02 0.0 
0.0 0.0 -6.933250757171e+01 
-5.718353365854e+01 6.451145270504e-01 0.0 
6.451145270504e-01 -1.421148008560e+02 0.0 
0.0 0.0 -5.938950035436e+01 
-5.288755272985e+01 3.368853809920e-01 0.0 
3.368853809920e-01 -1.314880013510e+02 0.0 
0.0 0.0 -5.491266622425e+01 
-1.414148332351e+02 3.259299621182e+00 0.0 
3.259299621182e+00 -3.293449119620e+02 0.0 
0.0 0.0 -1.408279235592e+02 
-1.400579411112e+02 3.353912442601e+00 0.0 
3.353912442601e+00 -3.266736919078e+02 0.0 
0.0 0.0 -1.396194899057e+02 
-1.411902409288e+02 3.027545671796e+00 0.0 
3.027545671796e+00 -3.283715038619e+02 0.0 
0.0 0.0 -1.404685234372e+02 
-1.381682410329e+02 2.786844586732e+00 0.0 
2.786844586732e+00 -3.203546726640e+02 0.0 
0.0 0.0 -1.371568741091e+02 
-1.436264380069e+02 3.619434116962e+00 0.0 
3.619434116962e+00 -3.366849816757e+02 0.0 
0.0 0.0 -1.436934259048e+02 
-1.389855292911e+02 3.482979606750e+00 0.0 
3.482979606750e+00 -3.266846538888e+02 0.0 
0.0 0.0 -1.393010549540e+02 
-4.756139396855e+01 -8.232068293075e-02 0.0 
-8.232068293075e-02 -1.168401824496e+02 0.0 
0.0 0.0 -4.892047292544e+01 
-6.249593715172e+01 1.372044693321e+00 0.0 
1.372044693321e+00 -1.404412398936e+02 0.0 
0.0 0.0 -6.048115311360e+01 
-1.394200644224e+02 8.694611001305e-01 0.0 
8.694611001305e-01 -3.244034664523e+02 0.0 
0.0 0.0 -1.387470592624e+02 
-8.398542502430e+01 8.869069970929e-01 0.0 
8.869069970929e-01 -1.909473521539e+02 0.0 
0.0 0.0 -8.207983315347e+01 
-1.439025431861e+02 2.084905547337e+00 0.0 
2.084905547337e+00 -3.407000466774e+02 0.0 
0.0 0.0 -1.449807769590e+02 
-1.392518675903e+02 1.799273065527e+00 0.0 
1.799273065527e+00 -3.304391896338e+02 0.0 
0.0 0.0 -1.405073171672e+02 
-1.732676068050e+01 5.666423288584e-01 0.0 
5.666423288584e-01 -4.386322273356e+01 0.0 
0.0 0.0 -1.795699502422e+01 
-2.038851599917e+01 3.623974569011e-01 0.0 
3.623974569011e-01 -5.170618400213e+01 0.0 
0.0 0.0 -2.122841000039e+01 
-1.378805353071e+02 2.487082833274e-01 0.0 
2.487082833274e-01 -3.214272683347e+02 0.0 
0.0 0.0 -1.373923410925e+02 
-3.965044056039e+01 2.861980845528e+00 0.0 
2.861980845528e+00 -8.816087003688e+01 0.0 
0.0 0.0 -3.794339317918e+01 
-4.391446892987e+01 2.399714993838e+00 0.0 
2.399714993838e+00 -9.777441569698e+01 0.0 
0.0 0.0 -4.210666538805e+01 
-3.521904918447e+01 3.374794428571e+00 0.0 
3.374794428571e+00 -7.850559160910e+01 0.0 
0.0 0.0 -3.371739223807e+01 
-1.535340691405e+02 1.562278187119e-01 0.0 
1.562278187119e-01 -3.616698899137e+02 0.0 
0.0 0.0 -1.541611877163e+02 
-8.323055660337e+01 1.841811257380e-02 0.0 
1.841811257380e-02 -1.923911432401e+02 0.0 
0.0 0.0 -8.228650995304e+01 
-1.444523733430e+02 4.751346265652e-01 0.0 
4.751346265652e-01 -3.415362316385e+02 0.0 
0.0 0.0 -1.453965814945e+02 
-7.836583659169e+01 1.801204750610e+00 0.0 
1.801204750610e+00 -1.776051417442e+02 0.0 
0.0 0.0 -7.639129350076e+01 
-1.418821592173e+02 3.307410920993e-01 0.0 
3.307410920993e-01 -3.308365400527e+02 0.0 
0.0 0.0 -1.414156097810e+02 
-1.108948219305e+02 3.347102367696e+00 0.0 
3.347102367696e+00 -2.594972565952e+02 0.0 
0.0 0.0 -1.107176235577e+02 
-7.204372708516e+01 3.188957639684e+00 0.0 
3.188957639684e+00 -1.653351678257e+02 0.0 
0.0 0.0 -7.081366847325e+01 
-1.283883597297e+02 2.588091863641e+00 0.0 
2.588091863641e+00 -3.054392061455e+02 0.0 
0.0 0.0 -1.297482697625e+02 
-1.335120547046e+02 2.354061246731e-01 0.0 
2.354061246731e-01 -3.109469038704e+02 0.0 
0.0 0.0 -1.329376875725e+02 
-1.423712262475e+02 1.483578176000e-01 0.0 
1.483578176000e-01 -3.324775324846e+02 0.0 
0.0 0.0 -1.420546276196e+02 
-9.843991075150e+01 2.535265542030e-01 0.0 
2.535265542030e-01 -2.268144963667e+02 0.0 
0.0 0.0 -9.717632213547e+01 
-9.420292319408e+01 2.772229098535e-01 0.0 
2.772229098535e-01 -2.172504169098e+02 0.0 
0.0 0.0 -9.303600203118e+01 
-1.020131215836e+02 3.776391551672e-01 0.0 
3.776391551672e-01 -2.352396865806e+02 0.0 
0.0 0.0 -1.007758424492e+02 
-2.801554677961e+01 3.554386340191e+00 0.0 
3.554386340191e+00 -7.231451145493e+01 0.0 
0.0 0.0 -2.969901747036e+01 
-1.956920230521e+01 3.289196099080e+00 0.0 
3.289196099080e+00 -5.232564013402e+01 0.0 
0.0 0.0 -2.116845273177e+01 
-1.325818617966e+02 4.482384152209e-01 0.0 
4.482384152209e-01 -3.087312066644e+02 0.0 
0.0 0.0 -1.319939205383e+02 
-5.693311862184e+01 -7.201690700105e-02 0.0 
-7.201690700105e-02 -1.396325185909e+02 0.0 
0.0 0.0 -5.856969116382e+01 
-6.121610421459e+01 -1.045827849742e-01 0.0 
-1.045827849742e-01 -1.501747988530e+02 0.0 
0.0 0.0 -6.301727092026e+01 
-3.630720757624e+01 -2.421103447294e-01 0.0 
-2.421103447294e-01 -9.012320298384e+01 0.0 
0.0 0.0 -3.752912316802e+01 
-4.408715281417e+01 -1.155434410338e-01 0.0 
-1.155434410338e-01 -1.093740318362e+02 0.0 
0.0 0.0 -4.563835539511e+01 
-9.050146415671e+01 3.991356494441e-01 0.0 
3.991356494441e-01 -2.195091449721e+02 0.0 
0.0 0.0 -9.260318273865e+01 
-8.678310340842e+01 4.340360471829e-01 0.0 
4.340360471829e-01 -2.109936463736e+02 0.0 
0.0 0.0 -8.893302493461e+01 
-1.220840388706e+02 2.473907921163e+00 0.0 
2.473907921163e+00 -2.817704013274e+02 0.0 
0.0 0.0 -1.207563320594e+02 
-1.263102984379e+02 2.384881495600e+00 0.0 
2.384881495600e+00 -2.918516338884e+02 0.0 
0.0 0.0 -1.250485796979e+02 
-1.134945209242e+02 2.662385138804e+00 0.0 
2.662385138804e+00 -2.616399242255e+02 0.0 
0.0 0.0 -1.121403335449e+02 
-1.110294257795e+02 2.332151034550e+00 0.0 
2.332151034550e+00 -2.663092639674e+02 0.0 
0.0 0.0 -1.128016069241e+02 
-1.026153552521e+02 2.242614121464e+00 0.0 
2.242614121464e+00 -2.472054885024e+02 0.0 
0.0 0.0 -1.045462531263e+02 
-9.893427926722e+01 2.437151661446e+00 0.0 
2.437151661446e+00 -2.383806180791e+02 0.0 
0.0 0.0 -1.007944692039e+02 
-1.397376003853e+02 6.921323450436e-01 0.0 
6.921323450436e-01 -3.258272824047e+02 0.0 
0.0 0.0 -1.392694648370e+02 
-1.451441052324e+02 6.126913568092e-01 0.0 
6.126913568092e-01 -3.388751456912e+02 0.0 
0.0 0.0 -1.448057752771e+02 
-6.143768770117e+01 1.015745384451e+00 0.0 
1.015745384451e+00 -1.524512640686e+02 0.0 
0.0 0.0 -6.376668553093e+01 
-5.783026725715e+01 1.201854981989e+00 0.0 
1.201854981989e+00 -1.440456908351e+02 0.0 
0.0 0.0 -6.016278742767e+01 
-6.064630533674e+01 5.385195779037e-01 0.0 
5.385195779037e-01 -1.501560124935e+02 0.0 
0.0 0.0 -6.284069534908e+01 
-1.430537512962e+02 9.981403482154e-01 0.0 
9.981403482154e-01 -3.331039003100e+02 0.0 
0.0 0.0 -1.424472954819e+02 
-1.490224363119e+02 6.146898674835e-01 0.0 
6.146898674835e-01 -3.518083487108e+02 0.0 
0.0 0.0 -1.498492355068e+02 
-1.450201664652e+02 8.732843674700e-01 0.0 
8.732843674700e-01 -3.431966085761e+02 0.0 
0.0 0.0 -1.460650325124e+02 
-1.949008367027e+01 -2.955137834274e-01 0.0 
-2.955137834274e-01 -4.764389267074e+01 0.0 
0.0 0.0 -1.974019290230e+01 
-2.356756028307e+01 -3.380938645604e-01 0.0 
-3.380938645604e-01 -5.830065197493e+01 0.0 
0.0 0.0 -2.416046367740e+01 
-2.618056450484e+01 4.553571119449e+00 0.0 
4.553571119449e+00 -6.074958134952e+01 0.0 
0.0 0.0 -2.567904375631e+01 
-2.187639273033e+01 4.761779734533e+00 0.0 
4.761779734533e+00 -5.331731875899e+01 0.0 
0.0 0.0 -2.215811344680e+01 
-1.412904973306e+02 1.422090880730e+00 0.0 
1.422090880730e+00 -3.286924765295e+02 0.0 
0.0 0.0 -1.405948921580e+02 
-1.372947143316e+02 1.482392145001e+00 0.0 
1.482392145001e+00 -3.187600812746e+02 0.0 
0.0 0.0 -1.364164386818e+02 
-1.463034374906e+02 1.372942103172e+00 0.0 
1.372942103172e+00 -3.409033538528e+02 0.0 
0.0 0.0 -1.457620374030e+02 
-4.255762499799e+01 -1.388742953767e-01 0.0 
-1.388742953767e-01 -1.044658374286e+02 0.0 
0.0 0.0 -4.370703872797e+01 
-1.234666288891e+02 3.323630703669e+00 0.0 
3.323630703669e+00 -2.883174565188e+02 0.0 
0.0 0.0 -1.231352256224e+02 
-1.453496818412e+02 2.805961331122e+00 0.0 
2.805961331122e+00 -3.431689749710e+02 0.0 
0.0 0.0 -1.461555970437e+02 
-1.413616143540e+02 2.883850830268e+00 0.0 
2.883850830268e+00 -3.342037793665e+02 0.0 
0.0 0.0 -1.422696181162e+02 
-1.504981520249e+02 2.743599046547e+00 0.0 
2.743599046547e+00 -3.547597372425e+02 0.0 
0.0 0.0 -1.511773667802e+02 
-1.357978590360e+02 3.520913354965e+00 0.0 
3.520913354965e+00 -3.177847693341e+02 0.0 
0.0 0.0 -1.356747885110e+02 
-1.436168606006e+02 3.662524987418e+00 0.0 
3.662524987418e+00 -3.363772902021e+02 0.0 
0.0 0.0 -1.435982452408e+02 
-1.438733072942e+02 3.544282606915e+00 0.0 
3.544282606915e+00 -3.360449180666e+02 0.0 
0.0 0.0 -1.435754676083e+02 
-1.399219854530e+01 7.468833251602e-01 0.0 
7.468833251602e-01 -3.568954895470e+01 0.0 
0.0 0.0 -1.450452425000e+01 
-1.395836171613e+02 1.946043461168e-01 0.0 
1.946043461168e-01 -3.256522451646e+02 0.0 
0.0 0.0 -1.391707586978e+02 
-9.467878714877e+01 1.547987270166e-01 0.0 
1.547987270166e-01 -2.187115375987e+02 0.0 
0.0 0.0 -9.361709742425e+01 
-1.225941894174e+01 2.845521947186e-01 0.0 
2.845521947186e-01 -2.807729660826e+01 0.0 
0.0 0.0 -1.184140545595e+01 
-9.096846202291e+01 9.775298989197e-02 0.0 
9.775298989197e-02 -2.099006363309e+02 0.0 
0.0 0.0 -8.986072950614e+01 
-9.565884212089e+01 1.151921585509e-01 0.0 
1.151921585509e-01 -2.211915062117e+02 0.0 
0.0 0.0 -9.465510449977e+01 
-8.659584479091e+01 7.114720844199e-02 0.0 
7.114720844199e-02 -1.998571811911e+02 0.0 
0.0 0.0 -8.553590779460e+01 
-3.472607811604e+01 -1.370309444904e-01 0.0 
-1.370309444904e-01 -8.531363297165e+01 0.0 
0.0 0.0 -3.561191332631e+01 
-9.252102627080e+01 3.003083304502e-01 0.0 
3.003083304502e-01 -2.127524830868e+02 0.0 
0.0 0.0 -9.118205280729e+01 
-9.759848425238e+01 4.440944453203e-01 0.0 
4.440944453203e-01 -2.245471173690e+02 0.0 
0.0 0.0 -9.624368048640e+01 
-1.503832735137e+01 -3.543532148279e-01 0.0 
-3.543532148279e-01 -3.602891854241e+01 0.0 
0.0 0.0 -1.503078702691e+01 
-1.473000712669e+02 8.936607736731e-01 0.0 
8.936607736731e-01 -3.435089897574e+02 0.0 
0.0 0.0 -1.468427183073e+02 
-1.537985198857e+01 -2.213079908979e-01 0.0 
-2.213079908979e-01 -3.751453567949e+01 0.0 
0.0 0.0 -1.546688544327e+01 
-1.854450493894e+01 -1.718522716989e-01 0.0 
-1.718522716989e-01 -4.532890805502e+01 0.0 
0.0 0.0 -1.876202389819e+01 
-1.480736931507e+02 1.895650489443e+00 0.0 
1.895650489443e+00 -3.496348050252e+02 0.0 
0.0 0.0 -1.489125494528e+02 
-1.431511760734e+02 1.688222506777e+00 0.0 
1.688222506777e+00 -3.389873425604e+02 0.0 
0.0 0.0 -1.442415555901e+02 
-1.515851488197e+02 1.834782355347e+00 0.0 
1.834782355347e+00 -3.575700008417e+02 0.0 
0.0 0.0 -1.523465448984e+02 
-1.466615222450e+02 1.502119465514e+00 0.0 
1.502119465514e+00 -3.468299693048e+02 0.0 
0.0 0.0 -1.476474474650e+02 
-1.383049853567e+02 1.458551642406e+00 0.0 
1.458551642406e+00 -3.282970073142e+02 0.0 
0.0 0.0 -1.395805978013e+02 
-1.423366464560e+02 1.295612594098e+00 0.0 
1.295612594098e+00 -3.371805037341e+02 0.0 
0.0 0.0 -1.434551450570e+02 
-8.996311039506e+01 1.922674163838e-01 0.0 
1.922674163838e-01 -2.075914593365e+02 0.0 
0.0 0.0 -8.886637091946e+01 
-1.520254904920e+02 1.392591295122e+00 0.0 
1.392591295122e+00 -3.583575951380e+02 0.0 
0.0 0.0 -1.527149256890e+02 
-1.465131208273e+02 1.163038174370e+00 0.0 
1.163038174370e+00 -3.462622168126e+02 0.0 
0.0 0.0 -1.474326012920e+02 
-1.560930651903e+02 1.259640680239e+00 0.0 
1.259640680239e+00 -3.675316649710e+02 0.0 
0.0 0.0 -1.566874190484e+02 
-6.789918610387e+01 7.824951358261e-01 0.0 
7.824951358261e-01 -1.532902080640e+02 0.0 
0.0 0.0 -6.595681825037e+01 
-5.209687056693e+01 2.649892608369e+00 0.0 
2.649892608369e+00 -1.170693926093e+02 0.0 
0.0 0.0 -5.034987895287e+01 
-4.844608319589e+01 2.057266397130e+00 0.0 
2.057266397130e+00 -1.080151085596e+02 0.0 
0.0 0.0 -4.653835752664e+01 
-3.990574743021e+01 1.508637015957e+00 0.0 
1.508637015957e+00 -8.844370079012e+01 0.0 
0.0 0.0 -3.810483446610e+01 
-1.468399853761e+02 2.970893601297e+00 0.0 
2.970893601297e+00 -3.417913739143e+02 0.0 
0.0 0.0 -1.461894077871e+02 
-1.418473532314e+02 2.629736684923e+00 0.0 
2.629736684923e+00 -3.294824898767e+02 0.0 
0.0 0.0 -1.409989529324e+02 
-1.310546643680e+02 2.786119341808e-01 0.0 
2.786119341808e-01 -3.119617500596e+02 0.0 
0.0 0.0 -1.325049243283e+02 
-1.223437085153e+02 2.305210536492e-01 0.0 
2.305210536492e-01 -2.924062462808e+02 0.0 
0.0 0.0 -1.240249864388e+02 
-9.118789498877e+01 3.283176669145e-02 0.0 
3.283176669145e-02 -2.110007543771e+02 0.0 
0.0 0.0 -9.025659480976e+01 
-9.073978953424e+01 7.509293106298e-02 0.0 
7.509293106298e-02 -2.099702562058e+02 0.0 
0.0 0.0 -8.981301372202e+01 
-9.830375088750e+01 -4.879331311720e-02 0.0 
-4.879331311720e-02 -2.277520324668e+02 0.0 
0.0 0.0 -9.741673500628e+01 
-9.726220798090e+01 8.233202025800e-02 0.0 
8.233202025800e-02 -2.253684633562e+02 0.0 
0.0 0.0 -9.638920140113e+01 
-1.048315477722e+02 -3.334911214371e-02 0.0 
-3.334911214371e-02 -2.432381538182e+02 0.0 
0.0 0.0 -1.040209104771e+02 
-1.037574062530e+02 1.122981943781e-01 0.0 
1.122981943781e-01 -2.405204731551e+02 0.0 
0.0 0.0 -1.028833638224e+02 
-1.114872660518e+02 2.100915410783e-01 0.0 
2.100915410783e-01 -2.587433038750e+02 0.0 
0.0 0.0 -1.106691709780e+02 
-1.482018291267e+02 3.504195915270e+00 0.0 
3.504195915270e+00 -3.461825858427e+02 0.0 
0.0 0.0 -1.479153244908e+02 
-3.136909811942e+01 2.502176989486e+00 0.0 
2.502176989486e+00 -6.880476414101e+01 0.0 
0.0 0.0 -2.965215867813e+01 
-7.624825033071e+01 6.817219123199e-01 0.0 
6.817219123199e-01 -1.729076336015e+02 0.0 
0.0 0.0 -7.434676517967e+01 
-1.472303518914e+02 3.670073510485e+00 0.0 
3.670073510485e+00 -3.455282478500e+02 0.0 
0.0 0.0 -1.474275799224e+02 
-1.419987798858e+02 3.464185338782e+00 0.0 
3.464185338782e+00 -3.342857427072e+02 0.0 
0.0 0.0 -1.424853567779e+02 
-6.687069313282e+01 1.223707352331e+00 0.0 
1.223707352331e+00 -1.506345252297e+02 0.0 
0.0 0.0 -6.485156550877e+01 
-5.908049016059e+01 9.405434498222e-01 0.0 
9.405434498222e-01 -1.327426327469e+02 0.0 
0.0 0.0 -5.714693687225e+01 
-1.499796608428e+02 2.308695866887e+00 0.0 
2.308695866887e+00 -3.540407212161e+02 0.0 
0.0 0.0 -1.508061146177e+02 
-6.240715355219e+01 3.773721195978e+00 0.0 
3.773721195978e+00 -1.450394381823e+02 0.0 
0.0 0.0 -6.183397752035e+01 
-1.518424795265e+02 1.085054994044e+00 0.0 
1.085054994044e+00 -3.547344065768e+02 0.0 
0.0 0.0 -1.515730658310e+02 
-7.126581419860e+00 1.537627130430e+00 0.0 
1.537627130430e+00 -1.456860080428e+01 0.0 
0.0 0.0 -6.470260246342e+00 
-1.206824327796e+01 2.117043769835e+00 0.0 
2.117043769835e+00 -3.197872159889e+01 0.0 
0.0 0.0 -1.292638411789e+01 
-6.712728891315e+01 3.493927573008e+00 0.0 
3.493927573008e+00 -1.548165157375e+02 0.0 
0.0 0.0 -6.618314139518e+01 
-7.484045604187e+01 1.442882524493e+00 0.0 
1.442882524493e+00 -1.692125781789e+02 0.0 
0.0 0.0 -7.281591026622e+01 
-5.676061288773e+01 2.272657507385e+00 0.0 
2.272657507385e+00 -1.273358202569e+02 0.0 
0.0 0.0 -5.482892994338e+01 
-5.359938107660e+01 1.796928056149e+00 0.0 
1.796928056149e+00 -1.196277740326e+02 0.0 
0.0 0.0 -5.156814653277e+01 
-1.196247886091e+02 2.435257493351e+00 0.0 
2.435257493351e+00 -2.857437362213e+02 0.0 
0.0 0.0 -1.212105574491e+02 
-2.076360448005e+01 -3.826245949349e-01 0.0 
-3.826245949349e-01 -5.072268105242e+01 0.0 
0.0 0.0 -2.104588565974e+01 
-3.078491333634e+01 3.982116692284e+00 0.0 
3.982116692284e+00 -6.938793756191e+01 0.0 
0.0 0.0 -2.965185526947e+01 
-1.125000286938e+02 2.437979869605e-02 0.0 
2.437979869605e-02 -2.609617913154e+02 0.0 
0.0 0.0 -1.116385460028e+02 
-2.278087621921e+01 3.775089290765e+00 0.0 
3.775089290765e+00 -5.027475153095e+01 0.0 
0.0 0.0 -2.151668832505e+01 
-1.269482043530e+02 1.189923264999e-01 0.0 
1.189923264999e-01 -3.026697279114e+02 0.0 
0.0 0.0 -1.284853796793e+02 
-6.597911442667e+01 3.856630863129e+00 0.0 
3.856630863129e+00 -1.550640371086e+02 0.0 
0.0 0.0 -6.591294546057e+01 
-8.189782240537e+01 2.154176413956e+00 0.0 
2.154176413956e+00 -1.862132714564e+02 0.0 
0.0 0.0 -8.003332815854e+01 
-3.866161282564e+01 3.992108329052e+00 0.0 
3.992108329052e+00 -8.829124668066e+01 0.0 
0.0 0.0 -3.768585785189e+01 
-5.592508553338e+01 3.200593774244e+00 0.0 
3.200593774244e+00 -1.268508584161e+02 0.0 
0.0 0.0 -5.443278318485e+01 
-9.972574401769e+01 1.305522570134e+00 0.0 
1.305522570134e+00 -2.280918057762e+02 0.0 
0.0 0.0 -9.794526493818e+01 
-9.238245914529e+01 8.678592754680e-01 0.0 
8.678592754680e-01 -2.111859790907e+02 0.0 
0.0 0.0 -9.067053147078e+01 
-8.821354719617e+01 8.457773273768e-01 0.0 
8.457773273768e-01 -2.011430080549e+02 0.0 
0.0 0.0 -8.640696657532e+01 
-6.947239063744e+01 3.780122778153e+00 0.0 
3.780122778153e+00 -1.648285645263e+02 0.0 
0.0 0.0 -6.989028654912e+01 
-5.803604287440e+01 1.527921320746e+00 0.0 
1.527921320746e+00 -1.300664965437e+02 0.0 
0.0 0.0 -5.603076182542e+01 
-4.916968568603e+01 1.224634633955e+00 0.0 
1.224634633955e+00 -1.097403254319e+02 0.0 
0.0 0.0 -4.727300333537e+01 
-9.486738856231e+01 1.708281816237e+00 0.0 
1.708281816237e+00 -2.164375717516e+02 0.0 
0.0 0.0 -9.299148809418e+01 
-1.292951406498e+02 1.300324576347e+00 0.0 
1.300324576347e+00 -2.993658200205e+02 0.0 
0.0 0.0 -1.281982882011e+02 
-1.329288693596e+02 1.488372144191e+00 0.0 
1.488372144191e+00 -3.081067242766e+02 0.0 
0.0 0.0 -1.319106780909e+02 
-1.406302226595e+02 1.681665889744e+00 0.0 
1.681665889744e+00 -3.268120321185e+02 0.0 
0.0 0.0 -1.398326764334e+02 
-1.365513726221e+02 1.718353222692e+00 0.0 
1.718353222692e+00 -3.168193732634e+02 0.0 
0.0 0.0 -1.356112237657e+02 
-1.286924853660e+02 1.552803892842e+00 0.0 
1.552803892842e+00 -2.976709366010e+02 0.0 
0.0 0.0 -1.275090265901e+02 
-1.323626473000e+02 1.808439644424e+00 0.0 
1.808439644424e+00 -3.063998972376e+02 0.0 
0.0 0.0 -1.312287633613e+02 
-1.401479341615e+02 1.910583955841e+00 0.0 
1.910583955841e+00 -3.255442260055e+02 0.0 
0.0 0.0 -1.393076480501e+02 
-1.362830842982e+02 2.018699397979e+00 0.0 
2.018699397979e+00 -3.157257658576e+02 0.0 
0.0 0.0 -1.352026550467e+02 
-1.453359769098e+02 2.271544573153e+00 0.0 
2.271544573153e+00 -3.381565407182e+02 0.0 
0.0 0.0 -1.446477552884e+02 
-1.397684963732e+02 2.320086330720e+00 0.0 
2.320086330720e+00 -3.243868213072e+02 0.0 
0.0 0.0 -1.388465953041e+02 
-1.316494197153e+02 2.052987632608e+00 0.0 
2.052987632608e+00 -3.045704727455e+02 0.0 
0.0 0.0 -1.304659677382e+02 
-1.349660926203e+02 2.286280015329e+00 0.0 
2.286280015329e+00 -3.128816587735e+02 0.0 
0.0 0.0 -1.339543254181e+02 
-1.424537024332e+02 2.509788643278e+00 0.0 
2.509788643278e+00 -3.311435013337e+02 0.0 
0.0 0.0 -1.416791611300e+02 
-1.270882681398e+02 2.114977144399e+00 0.0 
2.114977144399e+00 -2.935636535656e+02 0.0 
0.0 0.0 -1.257955765116e+02 
-1.515995464424e+02 3.792285299355e+00 0.0 
3.792285299355e+00 -3.552229106340e+02 0.0 
0.0 0.0 -1.516467371229e+02 
-7.532886395735e+01 3.435391029044e+00 0.0 
3.435391029044e+00 -1.743299641995e+02 0.0 
0.0 0.0 -7.449764844704e+01 
-1.692403863777e+01 1.768809212705e+00 0.0 
1.768809212705e+00 -4.498084289660e+01 0.0 
0.0 0.0 -1.817146446031e+01 
-1.451645760692e+01 3.610652325164e+00 0.0 
3.610652325164e+00 -3.939648866576e+01 0.0 
0.0 0.0 -1.577388388180e+01 
-8.627145771533e+01 1.967844013434e+00 0.0 
1.967844013434e+00 -1.963282591054e+02 0.0 
0.0 0.0 -8.437991504622e+01 
-1.530583620030e+02 2.284895176939e+00 0.0 
2.284895176939e+00 -3.574510867371e+02 0.0 
0.0 0.0 -1.527528346220e+02 
-1.530700941596e+02 1.881177839724e+00 0.0 
1.881177839724e+00 -3.574774750435e+02 0.0 
0.0 0.0 -1.527642707609e+02 
-5.325921806276e+01 4.091451397612e+00 0.0 
4.091451397612e+00 -1.269984909013e+02 0.0 
0.0 0.0 -5.367731268921e+01 
-1.545122856049e+02 3.287817155550e+00 0.0 
3.287817155550e+00 -3.608212487944e+02 0.0 
0.0 0.0 -1.542000603198e+02 
-9.184371593811e+01 1.107598055255e+00 0.0 
1.107598055255e+00 -2.094735924172e+02 0.0 
0.0 0.0 -8.999519250659e+01 
-3.595420191595e+01 3.662364765008e+00 0.0 
3.662364765008e+00 -9.071373510760e+01 0.0 
0.0 0.0 -3.760038110707e+01 
-1.550867845343e+02 3.651254518666e+00 0.0 
3.651254518666e+00 -3.623741944156e+02 0.0 
0.0 0.0 -1.548382936849e+02 
-1.250089689231e+02 1.323092023365e+00 0.0 
1.323092023365e+00 -2.888421751137e+02 0.0 
0.0 0.0 -1.237553432110e+02 
-1.206388155326e+02 1.384057674997e+00 0.0 
1.384057674997e+00 -2.781767237345e+02 0.0 
0.0 0.0 -1.192446617801e+02 
-1.169593970279e+02 1.163199540175e+00 0.0 
1.163199540175e+00 -2.694595769332e+02 0.0 
0.0 0.0 -1.155256921883e+02 
-1.533918206650e+02 1.608890226895e+00 0.0 
1.608890226895e+00 -3.581634852721e+02 0.0 
0.0 0.0 -1.530665917811e+02 
-1.059071856714e+02 5.086281098158e-01 0.0 
5.086281098158e-01 -2.443350172186e+02 0.0 
0.0 0.0 -1.046726608670e+02 
-1.564070818331e+02 3.997408107905e+00 0.0 
3.997408107905e+00 -3.661364161690e+02 0.0 
0.0 0.0 -1.563630494006e+02 
-1.056640909903e+02 3.319013209715e+00 0.0 
3.319013209715e+00 -2.500814415716e+02 0.0 
0.0 0.0 -1.063236597686e+02 
-1.019804478928e+02 3.387895538963e+00 0.0 
3.387895538963e+00 -2.405651735792e+02 0.0 
0.0 0.0 -1.023636864416e+02 
-9.379646866881e+01 3.443658558964e+00 0.0 
3.443658558964e+00 -2.215270895061e+02 0.0 
0.0 0.0 -9.419706745248e+01 
-1.280037174619e+02 1.846592532732e+00 0.0 
1.846592532732e+00 -2.957162480059e+02 0.0 
0.0 0.0 -1.267159896403e+02 
-1.569912836844e+02 3.721405624196e+00 0.0 
3.721405624196e+00 -3.683834477367e+02 0.0 
0.0 0.0 -1.572124194264e+02 
-1.501080729823e+02 3.498634402528e+00 0.0 
3.498634402528e+00 -3.530981270389e+02 0.0 
0.0 0.0 -1.505618600064e+02 
-1.503618916685e+02 3.401517551535e+00 0.0 
3.401517551535e+00 -3.537935742489e+02 0.0 
0.0 0.0 -1.508466397752e+02 
-1.424469789296e+02 3.257599867921e+00 0.0 
3.257599867921e+00 -3.362394456199e+02 0.0 
0.0 0.0 -1.432059273649e+02 
-1.576653887690e+02 3.445663522836e+00 0.0 
3.445663522836e+00 -3.701069212247e+02 0.0 
0.0 0.0 -1.579316929981e+02 
-1.542386247989e+02 2.717559318029e+00 0.0 
2.717559318029e+00 -3.601040910409e+02 0.0 
0.0 0.0 -1.539028147519e+02 
-1.545951601264e+02 2.928549453458e+00 0.0 
2.928549453458e+00 -3.610701333078e+02 0.0 
0.0 0.0 -1.542995880303e+02 
-4.997502559222e+01 9.484688261711e-01 0.0 
9.484688261711e-01 -1.253304408864e+02 0.0 
0.0 0.0 -5.219163994358e+01 
-5.421329506383e+01 1.453421448955e+00 0.0 
1.453421448955e+00 -1.355793426087e+02 0.0 
0.0 0.0 -5.653779130177e+01 
-6.211740103142e+01 1.664636529175e+00 0.0 
1.664636529175e+00 -1.540995366967e+02 0.0 
0.0 0.0 -6.446508131843e+01 
-5.849617691557e+01 1.958076618415e+00 0.0 
1.958076618415e+00 -1.454773662479e+02 0.0 
0.0 0.0 -6.079206294905e+01 
-5.052499496585e+01 1.758873521389e+00 0.0 
1.758873521389e+00 -1.268559273412e+02 0.0 
0.0 0.0 -5.281427669212e+01 
-5.482551887284e+01 2.291658936317e+00 0.0 
2.291658936317e+00 -1.366270363144e+02 0.0 
0.0 0.0 -5.703576655617e+01 
-6.282227906200e+01 2.431733637197e+00 0.0 
2.431733637197e+00 -1.551030768846e+02 0.0 
0.0 0.0 -6.497760678398e+01 
-5.112947150509e+01 2.687230992379e+00 0.0 
2.687230992379e+00 -1.275734539043e+02 0.0 
0.0 0.0 -5.321087762283e+01 
-1.342589804713e+02 2.553621444091e+00 0.0 
2.553621444091e+00 -3.109820915208e+02 0.0 
0.0 0.0 -1.331723215976e+02 
-1.583997619615e+02 3.029061416760e+00 0.0 
3.029061416760e+00 -3.720508996577e+02 0.0 
0.0 0.0 -1.587351984857e+02 
-1.058392301443e+02 1.663308359072e+00 0.0 
1.663308359072e+00 -2.552065466007e+02 0.0 
0.0 0.0 -1.079137330235e+02 
-1.019411500092e+02 1.806815142755e+00 0.0 
1.806815142755e+00 -2.461974571511e+02 0.0 
0.0 0.0 -1.040415821481e+02 
-9.361133264868e+01 1.669448768129e+00 0.0 
1.669448768129e+00 -2.271666650814e+02 0.0 
0.0 0.0 -9.583339931903e+01 
-7.855846085959e+01 3.095293925713e-01 0.0 
3.095293925713e-01 -1.916765072000e+02 0.0 
0.0 0.0 -8.067049041787e+01 
-8.306761938553e+01 4.729991790406e-01 0.0 
4.729991790406e-01 -2.024378139493e+02 0.0 
0.0 0.0 -8.525163000045e+01 
-9.131999268927e+01 6.122528363096e-01 0.0 
6.122528363096e-01 -2.217027742674e+02 0.0 
0.0 0.0 -9.350683008699e+01 
-7.403239868719e+01 1.814443206506e-01 0.0 
1.814443206506e-01 -1.808327993379e+02 0.0 
0.0 0.0 -7.605955940753e+01 
-1.161974602351e+02 3.128249209828e+00 0.0 
3.128249209828e+00 -2.697022060818e+02 0.0 
0.0 0.0 -1.153698998951e+02 
-1.585435411335e+02 2.885730065539e+00 0.0 
2.885730065539e+00 -3.724125334998e+02 0.0 
0.0 0.0 -1.588868223900e+02 
-1.035862929440e+02 2.685148549543e+00 0.0 
2.685148549543e+00 -2.484348513493e+02 0.0 
0.0 0.0 -1.052063432880e+02 
-7.934267868747e+01 5.121410892615e-01 0.0 
5.121410892615e-01 -1.938401962106e+02 0.0 
0.0 0.0 -8.155486246942e+01 
-8.452162431480e+01 2.767056373259e-01 0.0 
2.767056373259e-01 -1.937313342778e+02 0.0 
0.0 0.0 -8.307588757778e+01 
-9.195005472735e+01 3.658824956484e-01 0.0 
3.658824956484e-01 -2.108257698781e+02 0.0 
0.0 0.0 -9.043274738163e+01 
-9.221488098830e+01 5.871074913350e-01 0.0 
5.871074913350e-01 -2.111816949573e+02 0.0 
0.0 0.0 -9.061897278368e+01 
-1.001348179491e+02 6.985073942392e-01 0.0 
6.985073942392e-01 -2.296068052794e+02 0.0 
0.0 0.0 -9.852248696855e+01 
-9.260539543417e+01 4.765480439251e-01 0.0 
4.765480439251e-01 -2.125294716997e+02 0.0 
0.0 0.0 -9.114046014017e+01 
-9.419721578519e+01 3.657903289686e-01 0.0 
3.657903289686e-01 -2.280370269916e+02 0.0 
0.0 0.0 -9.627027283303e+01 
-9.789012040212e+01 3.194179185511e-01 0.0 
3.194179185511e-01 -2.365472221194e+02 0.0 
0.0 0.0 -9.993120275646e+01 
-9.336864627739e+01 1.946000769003e-01 0.0 
1.946000769003e-01 -2.259546377704e+02 0.0 
0.0 0.0 -9.539698521434e+01 
-1.016076827738e+02 2.658623929633e-01 0.0 
2.658623929633e-01 -2.450268461964e+02 0.0 
0.0 0.0 -1.035903586911e+02 
-9.690870490486e+01 1.981749765143e-01 0.0 
1.981749765143e-01 -2.340084413059e+02 0.0 
0.0 0.0 -9.887514386324e+01 
-8.934121841096e+01 1.656479738773e-01 0.0 
1.656479738773e-01 -2.162845118289e+02 0.0 
0.0 0.0 -9.128771907195e+01 
-1.052062967962e+02 2.211558109945e-01 0.0 
2.211558109945e-01 -2.531352281874e+02 0.0 
0.0 0.0 -1.071024574951e+02 
-9.984816465893e+01 6.734847183896e-02 0.0 
6.734847183896e-02 -2.408244225368e+02 0.0 
0.0 0.0 -1.018017761587e+02 
-8.426274152296e+01 2.142777492809e-01 0.0 
2.142777492809e-01 -1.934311621489e+02 0.0 
0.0 0.0 -8.290817110157e+01 
-9.020938565748e+00 -2.063398080784e-01 0.0 
-2.063398080784e-01 -1.721955082265e+01 0.0 
0.0 0.0 -7.862006622717e+00 
-1.452478614776e+01 -3.070965707258e-01 0.0 
-3.070965707258e-01 -3.394302583756e+01 0.0 
0.0 0.0 -1.426828642109e+01 
-1.447053308723e+01 -2.949879959898e-01 0.0 
-2.949879959898e-01 -3.348993525068e+01 0.0 
0.0 0.0 -1.411668996455e+01 
-2.012971277410e+01 -2.142451709053e-01 0.0 
-2.142451709053e-01 -4.947747830747e+01 0.0 
0.0 0.0 -2.048215732447e+01 
-2.024770445360e+01 -1.084900944139e-01 0.0 
-1.084900944139e-01 -5.062530697109e+01 0.0 
0.0 0.0 -2.086190342741e+01 
-2.690427551511e+01 8.399049691957e-02 0.0 
8.399049691957e-02 -6.769352294029e+01 0.0 
0.0 0.0 -2.797933953662e+01 
-2.568615647397e+01 4.181463489447e-01 0.0 
4.181463489447e-01 -6.518057695743e+01 0.0 
0.0 0.0 -2.686002002942e+01 
-1.438311019561e+01 -1.122579189488e-01 0.0 
-1.122579189488e-01 -3.396219494715e+01 0.0 
0.0 0.0 -1.424401789321e+01 
-8.672615532228e+00 -2.390734519975e-01 0.0 
-2.390734519975e-01 -1.697611270906e+01 0.0 
0.0 0.0 -7.685324375640e+00 
-1.434733880359e+01 -3.596928641449e-01 0.0 
-3.596928641449e-01 -3.345976394507e+01 0.0 
0.0 0.0 -1.407889117230e+01 
-8.408689761403e+00 -2.427268099964e-01 0.0 
-2.427268099964e-01 -1.681141721442e+01 0.0 
0.0 0.0 -7.561233417891e+00 
-1.411786658862e+01 -3.669850748049e-01 0.0 
-3.669850748049e-01 -3.297942825036e+01 0.0 
0.0 0.0 -1.386403789543e+01 
-2.115618383356e+01 -3.680244707292e-01 0.0 
-3.680244707292e-01 -5.184072402428e+01 0.0 
0.0 0.0 -2.149907235735e+01 
-3.161346212593e+01 -3.194031282730e-01 0.0 
-3.194031282730e-01 -7.828372515273e+01 0.0 
0.0 0.0 -3.256915618360e+01 
-1.583187385602e+02 6.765928149671e-01 0.0 
6.765928149671e-01 -3.723292686776e+02 0.0 
0.0 0.0 -1.587944021713e+02 
-7.662100829134e+01 -5.237408091625e-03 0.0 
-5.237408091625e-03 -1.864955490931e+02 0.0 
0.0 0.0 -7.853496721533e+01 
-7.257358784306e+01 -6.443045041683e-02 0.0 
-6.443045041683e-02 -1.770824698623e+02 0.0 
0.0 0.0 -7.449681731160e+01 
-6.486517188979e+01 -9.213967850157e-02 0.0 
-9.213967850157e-02 -1.583216787772e+02 0.0 
0.0 0.0 -6.655605520009e+01 
-6.898175261551e+01 1.995834626679e-02 0.0 
1.995834626679e-02 -1.684384379234e+02 0.0 
0.0 0.0 -7.082605716166e+01 
-7.978132718910e+01 -4.313521381655e-02 0.0 
-4.313521381655e-02 -1.942359536411e+02 0.0 
0.0 0.0 -8.180518424906e+01 
-6.055439025300e+01 -7.540372390662e-02 0.0 
-7.540372390662e-02 -1.479633597691e+02 0.0 
0.0 0.0 -6.215532500663e+01 
-5.765827117940e+01 -1.376506841550e-01 0.0 
-1.376506841550e-01 -1.409783161106e+02 0.0 
0.0 0.0 -5.919097618701e+01 
-7.044640486999e+00 -3.311941252937e-02 0.0 
-3.311941252937e-02 -1.712430554008e+01 0.0 
0.0 0.0 -7.238571137878e+00 
-1.349261232835e+01 -4.737543176182e-02 0.0 
-4.737543176182e-02 -3.364706104896e+01 0.0 
0.0 0.0 -1.384586228628e+01 
-1.290572618859e+01 -1.699498372181e-01 0.0 
-1.699498372181e-01 -3.201462110812e+01 0.0 
0.0 0.0 -1.311057097673e+01 
-2.013487544098e+01 -1.308232965945e-01 0.0 
-1.308232965945e-01 -5.030826054809e+01 0.0 
0.0 0.0 -2.073294079672e+01 
-2.020397768092e+01 -1.090416195489e-01 0.0 
-1.090416195489e-01 -4.995053423877e+01 0.0 
0.0 0.0 -2.064635357591e+01 
-1.376471048839e+01 -1.295857077200e-01 0.0 
-1.295857077200e-01 -3.393468553657e+01 0.0 
0.0 0.0 -1.403700035653e+01 
-1.378564835328e+01 -1.953493111954e-01 0.0 
-1.953493111954e-01 -3.394263779431e+01 0.0 
0.0 0.0 -1.405213993423e+01 
-7.209677140829e+00 -1.005167342565e-01 0.0 
-1.005167342565e-01 -1.700693351437e+01 0.0 
0.0 0.0 -7.259561801209e+00 
-1.377187781407e+01 -1.600857125821e-01 0.0 
-1.600857125821e-01 -3.381661857048e+01 0.0 
0.0 0.0 -1.403791379044e+01 
-2.058789509594e+01 -2.521626208665e-01 0.0 
-2.521626208665e-01 -5.075797828707e+01 0.0 
0.0 0.0 -2.100376201490e+01 
-7.166911383003e+00 -1.202456283756e-01 0.0 
-1.202456283756e-01 -1.643888965116e+01 0.0 
0.0 0.0 -7.093477330210e+00 
-1.223550692306e+02 1.635013431996e-01 0.0 
1.635013431996e-01 -2.846375929120e+02 0.0 
0.0 0.0 -1.216977986428e+02 
-1.267874374550e+02 1.972149311558e-01 0.0 
1.972149311558e-01 -2.953007074783e+02 0.0 
0.0 0.0 -1.262264434800e+02 
-1.583810865965e+02 2.413016751665e+00 0.0 
2.413016751665e+00 -3.723096925391e+02 0.0 
0.0 0.0 -1.588072337407e+02 
-8.498996264057e+01 2.107466534817e-01 0.0 
2.107466534817e-01 -1.955333674077e+02 0.0 
0.0 0.0 -8.375699901447e+01 
-8.112069906792e+00 -2.061819469523e-01 0.0 
-2.061819469523e-01 -1.706497790494e+01 0.0 
0.0 0.0 -7.537277987359e+00 
-1.511141761080e+02 3.929466781137e-01 0.0 
3.929466781137e-01 -3.533937391404e+02 0.0 
0.0 0.0 -1.509523745745e+02 
-1.526182116320e+02 7.552992039720e-01 0.0 
7.552992039720e-01 -3.567016275688e+02 0.0 
0.0 0.0 -1.523959517603e+02 
-1.527761078975e+02 5.637620429123e-01 0.0 
5.637620429123e-01 -3.570186563716e+02 0.0 
0.0 0.0 -1.525384292807e+02 
-1.446578493239e+02 1.288420810913e-01 0.0 
1.288420810913e-01 -3.421850952714e+02 0.0 
0.0 0.0 -1.456528833786e+02 
-1.490936986745e+02 3.182809737586e-01 0.0 
3.182809737586e-01 -3.518302003504e+02 0.0 
0.0 0.0 -1.498771697075e+02 
-1.512697311402e+02 1.955244178879e-01 0.0 
1.955244178879e-01 -3.539116034673e+02 0.0 
0.0 0.0 -1.511544003823e+02 
-5.064602987047e+01 -1.155322534292e-01 0.0 
-1.155322534292e-01 -1.249731036980e+02 0.0 
0.0 0.0 -5.228574007055e+01 
-1.443045845971e+02 1.856767606582e+00 0.0 
1.856767606582e+00 -3.354515505494e+02 0.0 
0.0 0.0 -1.435268405439e+02 
-1.370246306466e+02 3.819922636826e-01 0.0 
3.819922636826e-01 -3.194859762521e+02 0.0 
0.0 0.0 -1.365531820696e+02 
-3.267287899381e+01 4.247519686032e+00 0.0 
4.247519686032e+00 -8.125705722906e+01 0.0 
0.0 0.0 -3.377898086686e+01 
-4.856278415718e+01 8.372617828872e-02 0.0 
8.372617828872e-02 -1.206438221209e+02 0.0 
0.0 0.0 -5.036198188342e+01 
-1.183859295416e+02 3.408873278842e-01 0.0 
3.408873278842e-01 -2.834091461550e+02 0.0 
0.0 0.0 -1.201385227090e+02 
-1.079684472631e+02 8.659080877461e-01 0.0 
8.659080877461e-01 -2.600591390901e+02 0.0 
0.0 0.0 -1.100082759059e+02 
-1.364696486189e+02 7.596010579068e-01 0.0 
7.596010579068e-01 -3.241447945020e+02 0.0 
0.0 0.0 -1.377843329362e+02 
-1.107966189486e+02 5.235171601392e-01 0.0 
5.235171601392e-01 -2.662997676326e+02 0.0 
0.0 0.0 -1.127289159744e+02 
-1.288504866448e+02 1.000326763164e+00 0.0 
1.000326763164e+00 -3.071747251486e+02 0.0 
0.0 0.0 -1.304075635380e+02 
-1.499792331825e+02 3.059607922484e+00 0.0 
3.059607922484e+00 -3.533539773896e+02 0.0 
0.0 0.0 -1.505999631716e+02 
-3.215864849386e+01 -1.325261050814e-01 0.0 
-1.325261050814e-01 -7.881471583453e+01 0.0 
0.0 0.0 -3.289200929852e+01 
-1.072014677661e+02 2.845934005130e-01 0.0 
2.845934005130e-01 -2.480548059664e+02 0.0 
0.0 0.0 -1.061768821197e+02 
-1.040706321080e+02 1.399309021310e-01 0.0 
1.399309021310e-01 -2.410211811104e+02 0.0 
0.0 0.0 -1.031275439655e+02 
-1.244236723214e+02 3.818802541290e-01 0.0 
3.818802541290e-01 -2.892026369329e+02 0.0 
0.0 0.0 -1.236878927763e+02 
-5.328324639352e+01 -1.054572204375e-01 0.0 
-1.054572204375e-01 -1.309524089413e+02 0.0 
0.0 0.0 -5.487069660044e+01 
-8.544478200786e+01 1.927782115417e-01 0.0 
1.927782115417e-01 -2.073581657852e+02 0.0 
0.0 0.0 -8.744088433793e+01 
-3.382623144905e+01 -2.794097526878e-01 0.0 
-2.794097526878e-01 -8.358751866590e+01 0.0 
0.0 0.0 -3.482412503449e+01 
-1.486016324027e+02 3.346047916731e+00 0.0 
3.346047916731e+00 -3.464580613452e+02 0.0 
0.0 0.0 -1.481179081244e+02 
-8.700882023554e+01 1.523577158114e+00 0.0 
1.523577158114e+00 -1.978282569039e+02 0.0 
0.0 0.0 -8.505112314185e+01 
-8.911776193153e+01 1.377040552782e+00 0.0 
1.377040552782e+00 -2.169406649429e+02 0.0 
0.0 0.0 -9.141752806234e+01 
-7.038789209671e+01 1.802391148332e-01 0.0 
1.802391148332e-01 -1.722700897747e+02 0.0 
0.0 0.0 -7.239739456143e+01 
-5.513600889822e+01 1.974955408837e-02 0.0 
1.974955408837e-02 -1.360841980213e+02 0.0 
0.0 0.0 -5.696606207586e+01 
-4.512844385674e+01 1.273037088819e-01 0.0 
1.273037088819e-01 -1.125430145724e+02 0.0 
0.0 0.0 -4.690143752875e+01 
-8.004046432306e+01 3.194070312317e+00 0.0 
3.194070312317e+00 -1.844150236055e+02 0.0 
0.0 0.0 -7.893664637856e+01 
-8.383054818125e+01 7.315025223863e-01 0.0 
7.315025223863e-01 -2.045049276052e+02 0.0 
0.0 0.0 -8.610064273593e+01 
-1.220182063759e+02 1.542609805595e+00 0.0 
1.542609805595e+00 -2.919650630477e+02 0.0 
0.0 0.0 -1.237949808271e+02 
-1.288818662446e+02 3.512447617982e-01 0.0 
3.512447617982e-01 -2.999826537029e+02 0.0 
0.0 0.0 -1.282593559842e+02 
-8.525360616073e+00 -2.529679941037e-01 0.0 
-2.529679941037e-01 -1.900247008915e+01 0.0 
0.0 0.0 -8.143648042690e+00 
-1.267465496993e+02 1.788477290745e+00 0.0 
1.788477290745e+00 -3.024892269645e+02 0.0 
0.0 0.0 -1.283707329992e+02 
-1.004176030273e+02 1.036399055665e+00 0.0 
1.036399055665e+00 -2.428978529670e+02 0.0 
0.0 0.0 -1.025946367983e+02 
-1.104096309390e+02 5.030628389901e-01 0.0 
5.030628389901e-01 -2.551804993994e+02 0.0 
0.0 0.0 -1.092770391015e+02 
-1.259037269881e+02 3.273020461473e+00 0.0 
3.273020461473e+00 -2.975182559275e+02 0.0 
0.0 0.0 -1.266265948747e+02 
-3.100060237118e+01 3.965754930957e-02 0.0 
3.965754930957e-02 -7.757622317738e+01 0.0 
0.0 0.0 -3.217304766457e+01 
-1.274581694846e+02 6.074730798913e-01 0.0 
6.074730798913e-01 -2.961000043188e+02 0.0 
0.0 0.0 -1.266674521410e+02 
-1.417113567286e+02 1.146924822853e+00 0.0 
1.146924822853e+00 -3.300473619913e+02 0.0 
0.0 0.0 -1.411276156160e+02 
-1.015419019480e+02 6.068007262689e-01 0.0 
6.068007262689e-01 -2.336448985499e+02 0.0 
0.0 0.0 -1.001560401494e+02 
-2.602692934984e+01 -2.883377082523e-01 0.0 
-2.883377082523e-01 -6.419658997690e+01 0.0 
0.0 0.0 -2.666705579802e+01 
-9.868435136384e+01 1.981035062257e-01 0.0 
1.981035062257e-01 -2.281553835333e+02 0.0 
0.0 0.0 -9.765192046914e+01 
-1.449220218585e+02 2.447171821612e+00 0.0 
2.447171821612e+00 -3.426379680833e+02 0.0 
0.0 0.0 -1.458679969826e+02 
-1.255716187648e+02 1.131963585022e+00 0.0 
1.131963585022e+00 -2.905640940459e+02 0.0 
0.0 0.0 -1.244407138432e+02 
-4.885059814327e+01 -1.102308390494e-01 0.0 
-1.102308390494e-01 -1.199563748587e+02 0.0 
0.0 0.0 -5.024209190060e+01 
-9.169256484512e+01 2.867765695815e+00 0.0 
2.867765695815e+00 -2.206071602878e+02 0.0 
0.0 0.0 -9.328991753988e+01 
-8.546282629539e+01 2.479403973416e+00 0.0 
2.479403973416e+00 -1.950908704133e+02 0.0 
0.0 0.0 -8.376610901260e+01 
-7.708234935809e+01 5.009826690222e-01 0.0 
5.009826690222e-01 -1.750364502775e+02 0.0 
0.0 0.0 -7.523563989069e+01 
-1.404425782412e+02 4.536864992155e-01 0.0 
4.536864992155e-01 -3.277671714340e+02 0.0 
0.0 0.0 -1.400629249025e+02 
-9.480802537485e+01 3.419173179379e+00 0.0 
3.419173179379e+00 -2.216439885961e+02 0.0 
0.0 0.0 -9.453560419129e+01 
-1.334599616274e+02 3.074615857778e+00 0.0 
3.074615857778e+00 -3.158070369973e+02 0.0 
0.0 0.0 -1.343800995874e+02 
-1.082661638915e+02 2.903351065188e+00 0.0 
2.903351065188e+00 -2.584654399822e+02 0.0 
0.0 0.0 -1.096194811621e+02 
-5.245207225175e+01 -9.158752003134e-02 0.0 
-9.158752003134e-02 -1.286414041418e+02 0.0 
0.0 0.0 -5.392804291807e+01 
-1.344813775834e+02 1.582621292243e+00 0.0 
1.582621292243e+00 -3.198982802103e+02 0.0 
0.0 0.0 -1.359138973381e+02 
-8.920945049259e+01 3.410930022032e+00 0.0 
3.410930022032e+00 -2.120132518205e+02 0.0 
0.0 0.0 -8.996681069392e+01 
-1.356150522170e+02 7.080016467263e-01 0.0 
7.080016467263e-01 -3.156292507473e+02 0.0 
0.0 0.0 -1.349732908893e+02 
-1.214268071801e+02 2.786025441453e+00 0.0 
2.786025441453e+00 -2.806866263847e+02 0.0 
0.0 0.0 -1.202340300695e+02 
-7.176198101442e+01 3.157635507023e+00 0.0 
3.157635507023e+00 -1.740543737993e+02 0.0 
0.0 0.0 -7.334490644413e+01 
-1.305026119220e+02 9.268785910163e-01 0.0 
9.268785910163e-01 -3.028912428932e+02 0.0 
0.0 0.0 -1.296181564446e+02 
-8.983046447556e+01 1.848616057572e+00 0.0 
1.848616057572e+00 -2.183229009022e+02 0.0 
0.0 0.0 -9.204600961334e+01 
-1.305735781455e+02 3.368508504321e+00 0.0 
3.368508504321e+00 -3.075940859659e+02 0.0 
0.0 0.0 -1.310502992334e+02 
-8.272713417053e+01 1.639201259401e+00 0.0 
1.639201259401e+00 -1.877797687129e+02 0.0 
0.0 0.0 -8.075207086504e+01 
-1.055892025813e+02 2.537665932121e+00 0.0 
2.537665932121e+00 -2.427094446002e+02 0.0 
0.0 0.0 -1.040895941544e+02 
-1.148375107964e+02 1.990790967148e+00 0.0 
1.990790967148e+00 -2.640819322174e+02 0.0 
0.0 0.0 -1.132758329041e+02 
-1.003404724299e+02 3.038298178471e+00 0.0 
3.038298178471e+00 -2.319134042398e+02 0.0 
0.0 0.0 -9.927616300091e+01 
-1.137238725415e+02 1.453537426599e-01 0.0 
1.453537426599e-01 -2.727783851225e+02 0.0 
0.0 0.0 -1.155506772992e+02 
-1.306033599436e+02 1.671378701353e+00 0.0 
1.671378701353e+00 -3.112267557325e+02 0.0 
0.0 0.0 -1.321490347028e+02 
-3.123584230819e+01 1.483827371276e+00 0.0 
1.483827371276e+00 -8.094036757955e+01 0.0 
0.0 0.0 -3.325286296632e+01 
-6.404745716396e+01 3.211486879359e+00 0.0 
3.211486879359e+00 -1.462139456172e+02 0.0 
0.0 0.0 -6.267842083434e+01 
-1.099135002254e+02 6.679989444538e-01 0.0 
6.679989444538e-01 -2.534090565503e+02 0.0 
0.0 0.0 -1.085967670327e+02 
-1.362341374652e+02 3.297431502818e+00 0.0 
3.297431502818e+00 -3.173069692512e+02 0.0 
0.0 0.0 -1.356623320149e+02 
-1.436956537548e+02 7.478776600067e-01 0.0 
7.478776600067e-01 -3.349440175505e+02 0.0 
0.0 0.0 -1.431919013916e+02 
-7.755101255777e+01 2.353242473670e+00 0.0 
2.353242473670e+00 -1.762661826402e+02 0.0 
0.0 0.0 -7.574515855940e+01 
-1.297200033199e+02 1.341981136662e+00 0.0 
1.341981136662e+00 -3.092322429491e+02 0.0 
0.0 0.0 -1.312856738807e+02 
-1.383272323695e+02 1.009018522082e+00 0.0 
1.009018522082e+00 -3.218718265180e+02 0.0 
0.0 0.0 -1.376597176662e+02 
-8.756801544948e+01 6.649662148217e-01 0.0 
6.649662148217e-01 -2.130948767696e+02 0.0 
0.0 0.0 -8.979886766574e+01 
-3.668539090985e+01 -6.168880979301e-02 0.0 
-6.168880979301e-02 -9.034065069298e+01 0.0 
0.0 0.0 -3.770781248085e+01 
-2.509103904239e+01 4.326375394690e+00 0.0 
4.326375394690e+00 -6.356792389320e+01 0.0 
0.0 0.0 -2.619768888068e+01 
-5.556057588514e+01 3.184809304347e+00 0.0 
3.184809304347e+00 -1.369088000011e+02 0.0 
0.0 0.0 -5.734081276587e+01 
-9.026283651924e+01 3.495218893062e+00 0.0 
3.495218893062e+00 -2.121134491236e+02 0.0 
0.0 0.0 -9.031288569286e+01 
-9.585076440469e+01 8.140870572996e-01 0.0 
8.140870572996e-01 -2.323074575518e+02 0.0 
0.0 0.0 -9.804746658694e+01 
-1.458299449110e+02 1.619991819443e+00 0.0 
1.619991819443e+00 -3.397237761031e+02 0.0 
0.0 0.0 -1.452661163042e+02 
-1.336014719604e+02 1.221323635888e+00 0.0 
1.221323635888e+00 -3.178031303327e+02 0.0 
0.0 0.0 -1.350213806880e+02 
-1.236588156467e+02 2.333101035041e+00 0.0 
2.333101035041e+00 -2.950870261576e+02 0.0 
0.0 0.0 -1.252237525413e+02 
-1.043402476853e+01 3.959648040126e+00 0.0 
3.959648040126e+00 -2.285823476126e+01 0.0 
0.0 0.0 -9.587677858938e+00 
-8.050553902535e+01 6.323566603217e-01 0.0 
6.323566603217e-01 -1.828990278590e+02 0.0 
0.0 0.0 -7.862137006529e+01 
-1.375100311595e+02 1.101349688956e+00 0.0 
1.101349688956e+00 -3.264303377870e+02 0.0 
0.0 0.0 -1.387821106839e+02 
-9.530527774624e+01 2.645588433628e+00 0.0 
2.645588433628e+00 -2.295505360059e+02 0.0 
0.0 0.0 -9.705674412564e+01 
-1.341159868354e+02 3.326133775657e+00 0.0 
3.326133775657e+00 -3.163255258930e+02 0.0 
0.0 0.0 -1.347324538185e+02 
-9.204058151356e+01 8.544741452371e-02 0.0 
8.544741452371e-02 -2.224995364527e+02 0.0 
0.0 0.0 -9.396203538989e+01 
-1.486288043596e+02 3.532101355464e+00 0.0 
3.532101355464e+00 -3.467187199920e+02 0.0 
0.0 0.0 -1.482042573055e+02 
-6.355887295747e+01 8.419653677239e-01 0.0 
8.419653677239e-01 -1.430770174788e+02 0.0 
0.0 0.0 -6.159076713087e+01 
-1.414827833466e+02 9.710515026970e-01 0.0 
9.710515026970e-01 -3.353368128469e+02 0.0 
0.0 0.0 -1.426458788581e+02 
-1.243022625475e+02 2.650973387175e+00 0.0 
2.650973387175e+00 -2.959409219556e+02 0.0 
0.0 0.0 -1.256729553509e+02 
-5.785703711610e+01 3.987965922579e+00 0.0 
3.987965922579e+00 -1.359340827516e+02 0.0 
0.0 0.0 -5.773733596029e+01 
-8.352037579885e+01 -2.607380883903e-03 0.0 
-2.607380883903e-03 -1.930073698849e+02 0.0 
0.0 0.0 -8.255832370513e+01 
-1.514658866144e+02 1.009231968431e+00 0.0 
1.009231968431e+00 -3.573031536480e+02 0.0 
0.0 0.0 -1.522307120787e+02 
-1.329544726834e+02 2.785537746136e+00 0.0 
2.785537746136e+00 -3.154312021063e+02 0.0 
0.0 0.0 -1.341157024369e+02 
-1.082527325504e+02 3.078631630375e+00 0.0 
3.078631630375e+00 -2.507640936127e+02 0.0 
0.0 0.0 -1.073050478489e+02 
-9.069587128596e+01 2.370066014023e+00 0.0 
2.370066014023e+00 -2.195805549553e+02 0.0 
0.0 0.0 -9.268292787239e+01 
-6.861695815325e+01 5.235154311269e-01 0.0 
5.235154311269e-01 -1.552367304752e+02 0.0 
0.0 0.0 -6.675610658854e+01 
-9.960759500658e+01 7.446877509842e-01 0.0 
7.446877509842e-01 -2.408755108444e+02 0.0 
0.0 0.0 -1.017449317553e+02 
-1.098990705999e+02 2.426721189216e+00 0.0 
2.426721189216e+00 -2.527083394613e+02 0.0 
0.0 0.0 -1.083822230184e+02 
-1.533880680462e+02 1.389363528057e+00 0.0 
1.389363528057e+00 -3.582585890865e+02 0.0 
0.0 0.0 -1.530939971398e+02 
-1.371638218288e+02 3.023943091048e+00 0.0 
3.023943091048e+00 -3.246382089760e+02 0.0 
0.0 0.0 -1.381406092415e+02 
-1.125673820566e+02 1.221346947391e+00 0.0 
1.221346947391e+00 -2.588130699380e+02 0.0 
0.0 0.0 -1.110141355984e+02 
-9.503396018272e+01 5.603680001472e-01 0.0 
5.603680001472e-01 -2.301961663041e+02 0.0 
0.0 0.0 -9.716903794603e+01 
-1.146857263634e+02 3.374988732704e+00 0.0 
3.374988732704e+00 -2.692312586936e+02 0.0 
0.0 0.0 -1.147750955171e+02 
-2.038439574453e+01 -1.600344701301e-01 0.0 
-1.600344701301e-01 -5.009325087289e+01 0.0 
0.0 0.0 -2.074329398523e+01 
-7.213030289941e+01 7.195038066924e-01 0.0 
7.195038066924e-01 -1.631577137097e+02 0.0 
0.0 0.0 -7.018640498274e+01 
-9.873718197082e+01 5.087989016577e-01 0.0 
5.087989016577e-01 -2.386781011632e+02 0.0 
0.0 0.0 -1.008245849402e+02 
-5.917197615415e+01 2.787375761892e+00 0.0 
2.787375761892e+00 -1.460786646807e+02 0.0 
0.0 0.0 -6.117519225044e+01 
-9.434297348937e+01 2.157362868480e+00 0.0 
2.157362868480e+00 -2.283484885886e+02 0.0 
0.0 0.0 -9.640743862340e+01 
-1.476879023087e+02 3.676140831080e+00 0.0 
3.676140831080e+00 -3.459630419125e+02 0.0 
0.0 0.0 -1.476952832664e+02 
-1.024548113206e+02 4.472383187281e-01 0.0 
4.472383187281e-01 -2.471825034945e+02 0.0 
0.0 0.0 -1.044911944445e+02 
-6.723556721441e+01 2.836987147108e+00 0.0 
2.836987147108e+00 -1.645845821468e+02 0.0 
0.0 0.0 -6.914604480838e+01 
-1.061758570132e+02 3.742756882721e-01 0.0 
3.742756882721e-01 -2.556586557097e+02 0.0 
0.0 0.0 -1.081503538169e+02 
-6.020567237012e+01 5.804859955462e-01 0.0 
5.804859955462e-01 -1.355499229294e+02 0.0 
0.0 0.0 -5.832667858987e+01 
-1.162661942077e+02 1.448488350174e+00 0.0 
1.448488350174e+00 -2.675698681198e+02 0.0 
0.0 0.0 -1.147508186982e+02 
-1.099253203526e+02 3.022356771701e-01 0.0 
3.022356771701e-01 -2.640881163751e+02 0.0 
0.0 0.0 -1.118040310183e+02 
-1.178016885678e+02 2.568677570062e+00 0.0 
2.568677570062e+00 -2.716689837589e+02 0.0 
0.0 0.0 -1.164412016980e+02 
-2.125224413898e+01 -1.643795513322e-01 0.0 
-1.643795513322e-01 -5.239809004710e+01 0.0 
0.0 0.0 -2.169510025583e+01 
-1.117350587242e+02 3.221598028157e+00 0.0 
3.221598028157e+00 -2.598216222085e+02 0.0 
0.0 0.0 -1.110670042798e+02 
-1.399660792123e+02 2.755238869592e-01 0.0 
2.755238869592e-01 -3.317142521254e+02 0.0 
0.0 0.0 -1.411040994013e+02 
-6.406011230748e+01 4.514803656964e-01 0.0 
4.514803656964e-01 -1.580759952042e+02 0.0 
0.0 0.0 -6.624083225350e+01 
-9.806881322622e+01 1.962082702329e+00 0.0 
1.962082702329e+00 -2.371688314026e+02 0.0 
0.0 0.0 -1.001712933887e+02 
-1.243312822692e+02 1.622468624336e+00 0.0 
1.622468624336e+00 -2.869819643485e+02 0.0 
0.0 0.0 -1.229939739853e+02 
-5.159663654723e+01 7.798740333118e-01 0.0 
7.798740333118e-01 -1.156058252864e+02 0.0 
0.0 0.0 -4.976073855008e+01 
-1.064437815837e+02 2.075785912468e+00 0.0 
2.075785912468e+00 -2.562235826212e+02 0.0 
0.0 0.0 -1.084002092615e+02 
-1.257231884189e+02 2.708055914394e+00 0.0 
2.708055914394e+00 -2.907505528015e+02 0.0 
0.0 0.0 -1.245421223661e+02 
-1.153164192851e+02 3.292896187955e+00 0.0 
3.292896187955e+00 -2.690837212616e+02 0.0 
0.0 0.0 -1.149200421640e+02 
-9.832709856452e+01 3.423210450654e+00 0.0 
3.423210450654e+00 -2.310045310061e+02 0.0 
0.0 0.0 -9.839948887118e+01 
-1.149878253169e+02 2.193678976807e+00 0.0 
2.193678976807e+00 -2.755627829642e+02 0.0 
0.0 0.0 -1.167651824843e+02 
-5.481675595752e+01 1.039233552535e+00 0.0 
1.039233552535e+00 -1.228088705196e+02 0.0 
0.0 0.0 -5.288768794315e+01 
-4.722612697094e+01 -1.427406540139e-01 0.0 
-1.427406540139e-01 -1.168582860221e+02 0.0 
0.0 0.0 -4.882532389792e+01 
-3.943139707205e+01 -2.405146880016e-01 0.0 
-2.405146880016e-01 -9.770246465494e+01 0.0 
0.0 0.0 -4.074015851810e+01 
-7.082915630420e+01 2.513006833828e+00 0.0 
2.513006833828e+00 -1.735246750956e+02 0.0 
0.0 0.0 -7.290614941993e+01 
-1.300335875038e+02 2.625148527026e+00 0.0 
2.625148527026e+00 -3.009376403997e+02 0.0 
0.0 0.0 -1.288913683710e+02 
-2.689979615199e+01 -2.469591899782e-02 0.0 
-2.469591899782e-02 -6.649266440374e+01 0.0 
0.0 0.0 -2.761773816672e+01 
-1.235607767821e+02 1.901997345513e+00 0.0 
1.901997345513e+00 -2.849607141724e+02 0.0 
0.0 0.0 -1.221564472864e+02 
-2.850998245729e+01 -3.036514015508e-01 0.0 
-3.036514015508e-01 -7.045873597733e+01 0.0 
0.0 0.0 -2.929061553039e+01 
-6.643274617298e+01 2.110261374004e+00 0.0 
2.110261374004e+00 -1.638717930444e+02 0.0 
0.0 0.0 -6.869136176522e+01 
-1.275828539527e+02 3.396350375303e+00 0.0 
3.396350375303e+00 -2.985368875325e+02 0.0 
0.0 0.0 -1.274359224455e+02 
-1.063355272471e+02 2.226816781823e-01 0.0 
2.226816781823e-01 -2.467109418840e+02 0.0 
0.0 0.0 -1.055139407393e+02 
-7.002602087402e+01 1.824657360287e+00 0.0 
1.824657360287e+00 -1.724692671324e+02 0.0 
0.0 0.0 -7.234858640192e+01 
-4.470829269062e+01 -7.716782161405e-02 0.0 
-7.716782161405e-02 -1.097370845051e+02 0.0 
0.0 0.0 -4.593361315873e+01 
-6.569597351940e+01 1.417491005795e+00 0.0 
1.417491005795e+00 -1.625238688999e+02 0.0 
0.0 0.0 -6.806595272578e+01 
-1.064454618973e+02 3.376078110004e+00 0.0 
3.376078110004e+00 -2.499932534744e+02 0.0 
0.0 0.0 -1.065316146115e+02 
-6.929035329524e+01 1.215815245274e+00 0.0 
1.215815245274e+00 -1.709206668722e+02 0.0 
0.0 0.0 -7.166330605024e+01 
-6.498587544902e+01 8.606256033445e-01 0.0 
8.606256033445e-01 -1.606829993596e+02 0.0 
0.0 0.0 -6.730066244258e+01 
-1.450370459376e+02 4.623894054232e-01 0.0 
4.623894054232e-01 -3.387880130180e+02 0.0 
0.0 0.0 -1.447475176867e+02 
-6.850303941574e+01 7.290742342523e-01 0.0 
7.290742342523e-01 -1.688197862762e+02 0.0 
0.0 0.0 -7.079684770759e+01 
-1.528663320637e+02 1.802424786470e-01 0.0 
1.802424786470e-01 -3.572562401294e+02 0.0 
0.0 0.0 -1.526367716579e+02 
-1.589986143252e+02 3.681114345467e-01 0.0 
3.681114345467e-01 -3.736474741959e+02 0.0 
0.0 0.0 -1.593938265563e+02 
-8.982908236864e+01 1.529031167513e-01 0.0 
1.529031167513e-01 -2.079208074516e+02 0.0 
0.0 0.0 -8.892496694606e+01 
-4.241293937277e+01 7.107962014313e-01 0.0 
7.107962014313e-01 -9.489239107365e+01 0.0 
0.0 0.0 -4.079159913393e+01 
-9.076338387909e+00 1.081550978209e-01 0.0 
1.081550978209e-01 -1.726664397976e+01 0.0 
0.0 0.0 -7.767447239733e+00 
-4.637973136086e+01 1.649455282982e+00 0.0 
1.649455282982e+00 -1.028093037335e+02 0.0 
0.0 0.0 -4.435671052831e+01 
-5.626105000389e+01 2.610754582572e-01 0.0 
2.610754582572e-01 -1.393665131412e+02 0.0 
0.0 0.0 -5.828826894352e+01 
-1.226775827442e+02 2.153363221254e+00 0.0 
2.153363221254e+00 -2.829744301893e+02 0.0 
0.0 0.0 -1.212956038801e+02 
-9.021504119851e+01 -6.999619134054e-03 0.0 
-6.999619134054e-03 -2.086857388323e+02 0.0 
0.0 0.0 -8.927023400924e+01 
-5.182573520417e+01 1.759329904296e-02 0.0 
1.759329904296e-02 -1.283147241897e+02 0.0 
0.0 0.0 -5.364213781815e+01 
-1.475065255608e+02 2.469997187704e+00 0.0 
2.469997187704e+00 -3.433468378981e+02 0.0 
0.0 0.0 -1.468560090377e+02 
-1.558393335778e+02 3.924614517856e+00 0.0 
3.924614517856e+00 -3.645186247184e+02 0.0 
0.0 0.0 -1.557073874889e+02 
-1.183458228452e+02 1.362233369065e-01 0.0 
1.362233369065e-01 -2.751046347197e+02 0.0 
0.0 0.0 -1.176351372695e+02 
-1.374768092377e+02 3.222947137239e+00 0.0 
3.222947137239e+00 -3.245729311592e+02 0.0 
0.0 0.0 -1.382149221191e+02 
-1.191955079982e+02 3.347485721998e+00 0.0 
3.347485721998e+00 -2.789507497277e+02 0.0 
0.0 0.0 -1.190438773178e+02 
-1.377041003163e+02 1.420084433374e-01 0.0 
1.420084433374e-01 -3.214371813242e+02 0.0 
0.0 0.0 -1.373423844922e+02 
-8.311261621617e+01 2.647482375749e-01 0.0 
2.647482375749e-01 -1.916185442902e+02 0.0 
0.0 0.0 -8.201934815192e+01 
-1.401893345522e+01 -3.480077008357e-01 0.0 
-3.480077008357e-01 -3.289828300411e+01 0.0 
0.0 0.0 -1.379819211328e+01 
-1.181302795494e+02 7.155079231758e-02 0.0 
7.155079231758e-02 -2.827740750149e+02 0.0 
0.0 0.0 -1.198713063693e+02 
-3.368109793994e+01 1.048058210712e+00 0.0 
1.048058210712e+00 -7.472789864363e+01 0.0 
0.0 0.0 -3.212269897507e+01 
-3.563738339007e+01 2.108133479502e+00 0.0 
2.108133479502e+00 -7.842201130715e+01 0.0 
0.0 0.0 -3.381781840916e+01 
-2.702666928920e+01 3.087611168214e+00 0.0 
3.087611168214e+00 -5.919820262891e+01 0.0 
0.0 0.0 -2.546746157543e+01 
-5.517195814270e+01 -8.648391228402e-02 0.0 
-8.648391228402e-02 -1.354817883816e+02 0.0 
0.0 0.0 -5.679612395728e+01 
-2.013072118538e+01 -3.300380892755e-01 0.0 
-3.300380892755e-01 -4.908735255611e+01 0.0 
0.0 0.0 -2.036542212245e+01 
-2.702954892525e+01 1.608790627866e+00 0.0 
1.608790627866e+00 -5.905576660121e+01 0.0 
0.0 0.0 -2.542559465794e+01 
-1.493477939690e+02 3.652874894750e+00 0.0 
3.652874894750e+00 -3.511537111260e+02 0.0 
0.0 0.0 -1.497504515285e+02 
-9.098026308727e+01 3.889242995785e-01 0.0 
3.889242995785e-01 -2.092247395671e+02 0.0 
0.0 0.0 -8.966150079631e+01 
-1.316970451192e+02 3.463612512904e+00 0.0 
3.463612512904e+00 -3.076131905244e+02 0.0 
0.0 0.0 -1.313930706931e+02 
-1.857451044967e+01 2.444478265708e+00 0.0 
2.444478265708e+00 -3.974262766359e+01 0.0 
0.0 0.0 -1.709514143398e+01 
-1.459841348212e+02 1.182074608208e+00 0.0 
1.182074608208e+00 -3.405136418193e+02 0.0 
0.0 0.0 -1.455493329921e+02 
-1.488049529497e+02 3.713396867734e+00 0.0 
3.713396867734e+00 -3.482309588840e+02 0.0 
0.0 0.0 -1.487107735501e+02 
-1.593764868270e+02 1.963645210113e+00 0.0 
1.963645210113e+00 -3.745793138739e+02 0.0 
0.0 0.0 -1.597867402103e+02 
-1.399429435420e+02 3.559007109997e+00 0.0 
3.559007109997e+00 -3.270890480651e+02 0.0 
0.0 0.0 -1.397095974821e+02 
-1.832345055419e+01 4.565749358696e+00 0.0 
4.565749358696e+00 -4.199970575616e+01 0.0 
0.0 0.0 -1.769694689311e+01 
-9.843719693295e+01 6.879128622520e-01 0.0 
6.879128622520e-01 -2.257801995440e+02 0.0 
0.0 0.0 -9.686521894308e+01 
-1.482086864503e+02 3.244421472225e+00 0.0 
3.244421472225e+00 -3.455932394820e+02 0.0 
0.0 0.0 -1.477405777797e+02 
-1.249624919789e+02 1.606626197921e-01 0.0 
1.606626197921e-01 -2.905631579423e+02 0.0 
0.0 0.0 -1.242576949763e+02 
-1.602308285477e+02 1.271071712977e+00 0.0 
1.271071712977e+00 -3.761373356277e+02 0.0 
0.0 0.0 -1.605104492526e+02 
-9.024585749041e+01 2.767052869728e-01 0.0 
2.767052869728e-01 -2.069419338086e+02 0.0 
0.0 0.0 -8.875633738971e+01 
-1.461160712729e+02 2.404540611353e-01 0.0 
2.404540611353e-01 -3.413617989866e+02 0.0 
0.0 0.0 -1.458433610778e+02 
-2.772751944754e+01 8.129293806960e-01 0.0 
8.129293806960e-01 -7.162719113445e+01 0.0 
0.0 0.0 -2.940641317460e+01 
-1.462120973781e+02 7.419083408757e-02 0.0 
7.419083408757e-02 -3.415855089650e+02 0.0 
0.0 0.0 -1.459392819029e+02 
-1.306056837316e+02 2.346075425599e+00 0.0 
2.346075425599e+00 -3.022043255129e+02 0.0 
0.0 0.0 -1.294430027733e+02 
-1.005137535683e+02 -4.123234357514e-03 0.0 
-4.123234357514e-03 -2.326105360576e+02 0.0 
0.0 0.0 -9.953728688778e+01 
-9.824589585358e+01 6.240446488668e-01 0.0 
6.240446488668e-01 -2.249642767256e+02 0.0 
0.0 0.0 -9.656305177376e+01 
-1.532332955869e+02 4.881838143602e-01 0.0 
4.881838143602e-01 -3.609027240979e+02 0.0 
0.0 0.0 -1.538408059054e+02 
-1.469135670404e+02 2.189980492476e+00 0.0 
2.189980492476e+00 -3.423646603013e+02 0.0 
0.0 0.0 -1.463834682025e+02 
-1.411311146952e+01 4.536742846831e+00 0.0 
4.536742846831e+00 -3.569668047308e+01 0.0 
0.0 0.0 -1.454293758278e+01 
-1.180386209499e+02 -1.931666661363e-02 0.0 
-1.931666661363e-02 -2.740281921230e+02 0.0 
0.0 0.0 -1.172200439219e+02 
-6.900206827743e+01 9.442946007393e-02 0.0 
9.442946007393e-02 -1.686482319145e+02 0.0 
0.0 0.0 -7.089509005757e+01 
-1.345056584374e+01 8.222602296340e-02 0.0 
8.222602296340e-02 -3.117758711527e+01 0.0 
0.0 0.0 -1.318088565867e+01 
-1.514614720926e+02 2.027811290638e+00 0.0 
2.027811290638e+00 -3.573602725382e+02 0.0 
0.0 0.0 -1.522465233893e+02 
-1.380461620400e+02 2.509120199121e+00 0.0 
2.509120199121e+00 -3.204974340831e+02 0.0 
0.0 0.0 -1.371630788369e+02 
-1.524484360250e+02 7.125201095593e-01 0.0 
7.125201095593e-01 -3.595638028309e+02 0.0 
0.0 0.0 -1.532036716568e+02 
-1.997069173751e+01 -1.875312928184e-01 0.0 
-1.875312928184e-01 -4.962500688767e+01 0.0 
0.0 0.0 -2.047870958755e+01 
-1.309505949277e+01 -3.796771155304e-01 0.0 
-3.796771155304e-01 -3.105714856297e+01 0.0 
0.0 0.0 -1.292758090657e+01 
-1.524609394109e+02 2.577027254309e+00 0.0 
2.577027254309e+00 -3.593981377134e+02 0.0 
0.0 0.0 -1.531577231373e+02 
-1.486396859708e+02 2.819905881664e+00 0.0 
2.819905881664e+00 -3.462716037688e+02 0.0 
0.0 0.0 -1.480733869219e+02 
-3.185280636882e+01 5.428183706074e-01 0.0 
5.428183706074e-01 -8.097571767279e+01 0.0 
0.0 0.0 -3.344855721248e+01 
-1.541536097779e+02 9.864181156638e-01 0.0 
9.864181156638e-01 -3.604233491786e+02 0.0 
0.0 0.0 -1.539730876870e+02 
-9.530306890282e+00 3.388794727191e+00 0.0 
3.388794727191e+00 -2.534385581158e+01 0.0 
0.0 0.0 -1.014405279561e+01 
-8.242736447154e+01 3.769714977388e-02 0.0 
3.769714977388e-02 -1.895612390142e+02 0.0 
0.0 0.0 -8.119658104572e+01 
-1.335809579110e+01 -1.159303945493e-01 0.0 
-1.159303945493e-01 -3.225001255032e+01 0.0 
0.0 0.0 -1.345820210709e+01 
-1.601744161883e+02 1.374273695010e+00 0.0 
1.374273695010e+00 -3.760041721070e+02 0.0 
0.0 0.0 -1.604535764886e+02 
-1.465570823812e+02 6.153699196253e-01 0.0 
6.153699196253e-01 -3.423385251630e+02 0.0 
0.0 0.0 -1.462686822633e+02 
-7.623246997775e+01 -1.083703864408e-01 0.0 
-1.083703864408e-01 -1.856339043793e+02 0.0 
0.0 0.0 -7.815991230711e+01 
-8.528428535847e+01 2.924482205172e-01 0.0 
2.924482205172e-01 -1.947153251356e+02 0.0 
0.0 0.0 -8.359988314821e+01 
-5.011788974313e+01 -1.417215378816e-01 0.0 
-1.417215378816e-01 -1.229330071390e+02 0.0 
0.0 0.0 -5.151526906463e+01 
-1.428917709385e+02 3.253189903875e+00 0.0 
3.253189903875e+00 -3.333739499115e+02 0.0 
0.0 0.0 -1.424797162550e+02 
-1.909989836537e+01 -4.324941113783e-01 0.0 
-4.324941113783e-01 -4.610200144535e+01 0.0 
0.0 0.0 -1.916056994322e+01 
-1.472457964445e+02 5.841171749850e-01 0.0 
5.841171749850e-01 -3.441549706514e+02 0.0 
0.0 0.0 -1.470202301287e+02 
-1.524567450842e+02 3.056728265674e+00 0.0 
3.056728265674e+00 -3.591360441558e+02 0.0 
0.0 0.0 -1.530778367720e+02 
-1.479432828303e+02 1.508695573539e+00 0.0 
1.508695573539e+00 -3.450453748652e+02 0.0 
0.0 0.0 -1.474965973086e+02 
-1.584655879200e+02 3.985287897142e+00 0.0 
3.985287897142e+00 -3.713889426762e+02 0.0 
0.0 0.0 -1.585563591789e+02 
-1.181323360888e+01 8.012773284130e-01 0.0 
8.012773284130e-01 -2.920152419959e+01 0.0 
0.0 0.0 -1.200628164947e+01 
-1.506713242406e+02 3.790485614029e+00 0.0 
3.790485614029e+00 -3.524763305341e+02 0.0 
0.0 0.0 -1.505442964324e+02 
-1.442763224028e+02 3.022297422663e+00 0.0 
3.022297422663e+00 -3.406548970955e+02 0.0 
0.0 0.0 -1.450793658495e+02 
-8.289271388223e+01 -1.630371866275e-01 0.0 
-1.630371866275e-01 -1.914261585296e+02 0.0 
0.0 0.0 -8.189566172356e+01 
-1.471276172484e+02 1.664779078924e+00 0.0 
1.664779078924e+00 -3.427520399319e+02 0.0 
0.0 0.0 -1.465638971541e+02 
-6.175645946417e+01 -1.511363873396e-01 0.0 
-1.511363873396e-01 -1.510723857174e+02 0.0 
0.0 0.0 -6.344865355448e+01 
-2.672668837080e+01 -6.230664785962e-02 0.0 
-6.230664785962e-02 -6.555576198592e+01 0.0 
0.0 0.0 -2.728473510702e+01 
-1.537622625395e+02 1.751313282230e-01 0.0 
1.751313282230e-01 -3.593173334971e+02 0.0 
0.0 0.0 -1.535238788110e+02 
-6.062871351232e+00 1.233192279414e-02 0.0 
1.233192279414e-02 -1.410446171761e+01 0.0 
0.0 0.0 -5.962550995319e+00 
-8.226326983394e+01 9.060716774090e-02 0.0 
9.060716774090e-02 -1.903140224177e+02 0.0 
0.0 0.0 -8.137318767550e+01 
-1.609553818583e+02 -5.719516101094e-03 0.0 
-5.719516101094e-03 -3.778765968166e+02 0.0 
0.0 0.0 -1.612495936025e+02 
-2.559127798283e+01 -1.517277655035e-01 0.0 
-1.517277655035e-01 -6.266127946505e+01 0.0 
0.0 0.0 -2.607576723436e+01 
-9.601724945086e+01 1.386697864401e-01 0.0 
1.386697864401e-01 -2.222612450787e+02 0.0 
0.0 0.0 -9.508354835888e+01 
-1.488994420952e+02 2.717158573332e+00 0.0 
2.717158573332e+00 -3.467322565863e+02 0.0 
0.0 0.0 -1.482895096044e+02 
-9.405720762118e+01 1.538099587595e-03 0.0 
1.538099587595e-03 -2.274969102152e+02 0.0 
0.0 0.0 -9.606623535092e+01 
-1.330698677658e+02 3.528330947522e-01 0.0 
3.528330947522e-01 -3.102473596396e+02 0.0 
0.0 0.0 -1.325951682216e+02 
-2.489889941352e+01 -2.040017838741e-01 0.0 
-2.040017838741e-01 -6.164062370245e+01 0.0 
0.0 0.0 -2.556185693479e+01 
-8.543061585925e+00 -1.330950393211e-01 0.0 
-1.330950393211e-01 -1.458059241415e+01 0.0 
0.0 0.0 -6.954368837557e+00 
-1.107281453871e+02 2.262808237868e-01 0.0 
2.262808237868e-01 -2.569972857099e+02 0.0 
0.0 0.0 -1.099176293291e+02 
-1.504185638379e+02 3.650603661826e+00 0.0 
3.650603661826e+00 -3.524819648705e+02 0.0 
0.0 0.0 -1.504701586125e+02 
-1.481658792224e+02 1.328951821433e+00 0.0 
1.328951821433e+00 -3.458142245621e+02 0.0 
0.0 0.0 -1.477940311353e+02 
-1.050339994985e+02 -4.443451888220e-02 0.0 
-4.443451888220e-02 -2.433680130050e+02 0.0 
0.0 0.0 -1.041206037511e+02 
-1.906980239585e+01 4.490431109486e+00 0.0 
4.490431109486e+00 -4.911590118422e+01 0.0 
0.0 0.0 -2.005571107402e+01 
-1.441737155248e+02 2.610628632868e+00 0.0 
2.610628632868e+00 -3.354104470077e+02 0.0 
0.0 0.0 -1.434752487598e+02 
-8.264225969995e+01 9.029018692778e-02 0.0 
9.029018692778e-02 -2.003642778359e+02 0.0 
0.0 0.0 -8.450196126075e+01 
-1.432746019829e+02 3.242742680562e+00 0.0 
3.242742680562e+00 -3.338229350154e+02 0.0 
0.0 0.0 -1.427292610995e+02 
-1.441000239072e+02 3.441152431489e+00 0.0 
3.441152431489e+00 -3.397276936747e+02 0.0 
0.0 0.0 -1.447483152746e+02 
-6.383280565981e+00 3.040934384440e+00 0.0 
3.040934384440e+00 -1.264065550297e+01 0.0 
0.0 0.0 -5.574259797792e+00 
-1.013315876975e+02 -2.834242394089e-02 0.0 
-2.834242394089e-02 -2.444202482930e+02 0.0 
0.0 0.0 -1.033255507972e+02 
-1.266020702405e+01 -7.626605945240e-02 0.0 
-7.626605945240e-02 -3.021977507344e+01 0.0 
0.0 0.0 -1.256554617875e+01 
-1.537488105684e+02 1.753203522410e+00 0.0 
1.753203522410e+00 -3.624052931165e+02 0.0 
0.0 0.0 -1.544462311055e+02 
-8.607706783788e+01 1.216306296065e-01 0.0 
1.216306296065e-01 -2.087711154841e+02 0.0 
0.0 0.0 -8.805445499659e+01 
-2.685295773864e+00 7.204900405721e-01 0.0 
7.204900405721e-01 -7.828756581431e+00 0.0 
0.0 0.0 -2.736292127174e+00 
-5.164074078339e+00 8.955123441593e-02 0.0 
8.955123441593e-02 -9.364530336486e+00 0.0 
0.0 0.0 -3.958581324447e+00 
-1.253736741466e+01 8.612354199511e-01 0.0 
8.612354199511e-01 -2.807119223045e+01 0.0 
0.0 0.0 -1.178256789353e+01 
-1.361902533717e+01 5.867926807778e-03 0.0 
5.867926807778e-03 -3.011783876300e+01 0.0 
0.0 0.0 -1.272105923005e+01 
-2.160791891287e+01 6.953935354808e-01 0.0 
6.953935354808e-01 -4.769660666975e+01 0.0 
0.0 0.0 -2.039135767479e+01 
-2.137770741492e+01 -1.514561984328e-02 0.0 
-1.514561984328e-02 -4.857207697558e+01 0.0 
0.0 0.0 -2.058493531715e+01 
-3.058562257299e+01 5.714079226508e-01 0.0 
5.714079226508e-01 -6.740296086213e+01 0.0 
0.0 0.0 -2.899657503054e+01 
-3.025458663871e+01 -1.195733809755e-02 0.0 
-1.195733809755e-02 -6.924699998548e+01 0.0 
0.0 0.0 -2.945047598726e+01 
-3.940939233302e+01 4.191224101843e-01 0.0 
4.191224101843e-01 -8.708902241154e+01 0.0 
0.0 0.0 -3.754952442337e+01 
-3.820621694275e+01 -1.910729939021e-03 0.0 
-1.910729939021e-03 -8.771165759174e+01 0.0 
0.0 0.0 -3.737536236035e+01 
-4.779444614693e+01 3.985465186347e-01 0.0 
3.985465186347e-01 -1.065929396854e+02 0.0 
0.0 0.0 -4.591621574971e+01 
-4.712222320956e+01 -2.434024490919e-04 0.0 
-2.434024490919e-04 -1.083917646796e+02 0.0 
0.0 0.0 -4.625419636675e+01 
-5.627695339164e+01 3.575547136784e-01 0.0 
3.575547136784e-01 -1.262066353365e+02 0.0 
0.0 0.0 -5.434507661844e+01 
-5.507423708116e+01 6.299639933201e-03 0.0 
6.299639933201e-03 -1.268761721967e+02 0.0 
0.0 0.0 -5.418512278336e+01 
-6.464640230650e+01 3.628906078156e-01 0.0 
3.628906078156e-01 -1.457455861433e+02 0.0 
0.0 0.0 -6.271759653495e+01 
-6.399451955737e+01 -4.029694636158e-02 0.0 
-4.029694636158e-02 -1.475655208839e+02 0.0 
0.0 0.0 -6.306801213239e+01 
-7.299073864371e+01 3.759815840623e-01 0.0 
3.759815840623e-01 -1.653805280653e+02 0.0 
0.0 0.0 -7.111138001271e+01 
-7.177269451735e+01 -1.526207713226e-01 0.0 
-1.526207713226e-01 -1.659864615021e+02 0.0 
0.0 0.0 -7.092774680583e+01 

TENSORS node_materi_strain_total float
-4.154933308909e-06 1.655957592473e-06 0.0 
1.655957592473e-06 1.056137929093e-04 0.0 
0.0 0.0 0.0 
-8.948484896493e-05 -1.730336532246e-05 0.0 
-1.730336532246e-05 5.142561811083e-03 0.0 
0.0 0.0 0.0 
1.616189575016e-05 2.337528598908e-05 0.0 
2.337528598908e-05 8.224029814500e-03 0.0 
0.0 0.0 0.0 
-4.435725031338e-06 -1.149870377471e-05 0.0 
-1.149870377471e-05 9.147924798354e-03 0.0 
0.0 0.0 0.0 
4.150668684681e-07 -3.883567359774e-06 0.0 
-3.883567359774e-06 3.095737567473e-04 0.0 
0.0 0.0 0.0 
2.019754607896e-05 1.281489773290e-05 0.0 
1.281489773290e-05 7.151059320671e-04 0.0 
0.0 0.0 0.0 
4.989870289200e-05 1.347104628670e-05 0.0 
1.347104628670e-05 1.090987159977e-03 0.0 
0.0 0.0 0.0 
7.252740089658e-05 1.309535111863e-05 0.0 
1.309535111863e-05 1.522449634135e-03 0.0 
0.0 0.0 0.0 
9.224618164165e-05 1.002297570553e-05 0.0 
1.002297570553e-05 1.940609891920e-03 0.0 
0.0 0.0 0.0 
1.157993868292e-04 9.659176567990e-06 0.0 
9.659176567990e-06 2.352052197739e-03 0.0 
0.0 0.0 0.0 
1.344757928311e-04 1.093278664458e-05 0.0 
1.093278664458e-05 2.765760080822e-03 0.0 
0.0 0.0 0.0 
1.487672358328e-04 1.025984272750e-05 0.0 
1.025984272750e-05 3.182165852246e-03 0.0 
0.0 0.0 0.0 
1.606895244871e-04 1.078664090453e-05 0.0 
1.078664090453e-05 3.600782248995e-03 0.0 
0.0 0.0 0.0 
1.657161827062e-04 1.409850235954e-05 0.0 
1.409850235954e-05 4.027963033760e-03 0.0 
0.0 0.0 0.0 
1.637518422689e-04 2.100556230213e-05 0.0 
2.100556230213e-05 4.470695334956e-03 0.0 
0.0 0.0 0.0 
1.685441490889e-04 2.240127552749e-05 0.0 
2.240127552749e-05 4.898237736819e-03 0.0 
0.0 0.0 0.0 
1.697564635553e-04 2.965471020475e-05 0.0 
2.965471020475e-05 5.289535991654e-03 0.0 
0.0 0.0 0.0 
1.582271509083e-04 1.425096346718e-05 0.0 
1.425096346718e-05 5.727489406279e-03 0.0 
0.0 0.0 0.0 
1.438711323103e-04 1.428035165295e-05 0.0 
1.428035165295e-05 6.179412987165e-03 0.0 
0.0 0.0 0.0 
1.252407116959e-04 1.510553076297e-05 0.0 
1.510553076297e-05 6.621000742543e-03 0.0 
0.0 0.0 0.0 
1.003277933861e-04 1.476594777046e-05 0.0 
1.476594777046e-05 7.070373494477e-03 0.0 
0.0 0.0 0.0 
6.957874458687e-05 1.793168671399e-05 0.0 
1.793168671399e-05 7.527212551789e-03 0.0 
0.0 0.0 0.0 
4.204578702101e-05 2.174925193026e-05 0.0 
2.174925193026e-05 7.965315874876e-03 0.0 
0.0 0.0 0.0 
-1.542780138641e-06 7.657324831986e-06 0.0 
7.657324831986e-06 9.169476977148e-03 0.0 
0.0 0.0 0.0 
-5.187754688311e-06 1.529713963639e-05 0.0 
1.529713963639e-05 9.148343236265e-03 0.0 
0.0 0.0 0.0 
-4.794543167819e-06 1.364032605269e-05 0.0 
1.364032605269e-05 9.153212864903e-03 0.0 
0.0 0.0 0.0 
-5.738376263979e-06 3.596308662946e-05 0.0 
3.596308662946e-05 9.151697944206e-03 0.0 
0.0 0.0 0.0 
-6.864040896189e-06 3.800475790559e-05 0.0 
3.800475790559e-05 9.136795076699e-03 0.0 
0.0 0.0 0.0 
-5.079848459211e-06 4.855076089343e-05 0.0 
4.855076089343e-05 9.147672619276e-03 0.0 
0.0 0.0 0.0 
-2.957902557110e-06 5.857010949583e-05 0.0 
5.857010949583e-05 9.147792413990e-03 0.0 
0.0 0.0 0.0 
-6.988770087794e-06 6.727919989116e-05 0.0 
6.727919989116e-05 9.138670617369e-03 0.0 
0.0 0.0 0.0 
-5.699305035060e-06 7.281878377375e-05 0.0 
7.281878377375e-05 9.148967069278e-03 0.0 
0.0 0.0 0.0 
-6.450454572075e-06 9.501238461374e-05 0.0 
9.501238461374e-05 9.143229780421e-03 0.0 
0.0 0.0 0.0 
-8.454941472761e-06 1.016414392903e-04 0.0 
1.016414392903e-04 9.124484306035e-03 0.0 
0.0 0.0 0.0 
-7.841150922524e-06 1.155145491124e-04 0.0 
1.155145491124e-04 9.129310677710e-03 0.0 
0.0 0.0 0.0 
-5.671373557485e-06 1.306620727263e-04 0.0 
1.306620727263e-04 9.127099080105e-03 0.0 
0.0 0.0 0.0 
-8.970854138313e-06 1.449768677363e-04 0.0 
1.449768677363e-04 9.111273498162e-03 0.0 
0.0 0.0 0.0 
-8.021642805149e-06 1.592612323567e-04 0.0 
1.592612323567e-04 9.093498161116e-03 0.0 
0.0 0.0 0.0 
-1.110849934557e-05 1.780988967492e-04 0.0 
1.780988967492e-04 9.067297068665e-03 0.0 
0.0 0.0 0.0 
-1.244727856971e-05 1.930762492045e-04 0.0 
1.930762492045e-04 9.049380270120e-03 0.0 
0.0 0.0 0.0 
-9.347246793726e-06 2.122415751894e-04 0.0 
2.122415751894e-04 9.043282518152e-03 0.0 
0.0 0.0 0.0 
-1.035172454655e-05 2.294418900993e-04 0.0 
2.294418900993e-04 9.031889563537e-03 0.0 
0.0 0.0 0.0 
-9.391034970367e-06 2.476266116059e-04 0.0 
2.476266116059e-04 9.017047762379e-03 0.0 
0.0 0.0 0.0 
-8.953735730177e-06 2.681855251081e-04 0.0 
2.681855251081e-04 8.989565211827e-03 0.0 
0.0 0.0 0.0 
-8.863195732271e-06 2.826327902934e-04 0.0 
2.826327902934e-04 8.957641604511e-03 0.0 
0.0 0.0 0.0 
-8.229741315979e-06 2.991500033072e-04 0.0 
2.991500033072e-04 8.926300516321e-03 0.0 
0.0 0.0 0.0 
-7.553802222134e-06 3.128375823679e-04 0.0 
3.128375823679e-04 8.891210488206e-03 0.0 
0.0 0.0 0.0 
-6.897916766039e-06 3.254365674248e-04 0.0 
3.254365674248e-04 8.858775902296e-03 0.0 
0.0 0.0 0.0 
-3.925145070749e-06 3.359162977338e-04 0.0 
3.359162977338e-04 8.825434311391e-03 0.0 
0.0 0.0 0.0 
-4.299700009517e-06 3.433610942495e-04 0.0 
3.433610942495e-04 8.789038302125e-03 0.0 
0.0 0.0 0.0 
4.017657317945e-10 3.484058038408e-04 0.0 
3.484058038408e-04 8.749318599965e-03 0.0 
0.0 0.0 0.0 
-9.193709031852e-07 3.498582471171e-04 0.0 
3.498582471171e-04 8.704301212544e-03 0.0 
0.0 0.0 0.0 
7.318090743021e-07 3.444236838796e-04 0.0 
3.444236838796e-04 8.678192634713e-03 0.0 
0.0 0.0 0.0 
3.450903239092e-06 3.501188905337e-04 0.0 
3.501188905337e-04 8.630451997262e-03 0.0 
0.0 0.0 0.0 
5.150369071523e-06 3.383133045283e-04 0.0 
3.383133045283e-04 8.568825037854e-03 0.0 
0.0 0.0 0.0 
7.017199646168e-06 3.252741773663e-04 0.0 
3.252741773663e-04 8.526934554426e-03 0.0 
0.0 0.0 0.0 
7.726508670869e-06 3.112013407878e-04 0.0 
3.112013407878e-04 8.497390681331e-03 0.0 
0.0 0.0 0.0 
1.029634864095e-05 2.972130434092e-04 0.0 
2.972130434092e-04 8.464457517908e-03 0.0 
0.0 0.0 0.0 
7.348092911104e-06 2.785488737116e-04 0.0 
2.785488737116e-04 8.433232622396e-03 0.0 
0.0 0.0 0.0 
1.288316887068e-05 2.615219288069e-04 0.0 
2.615219288069e-04 8.406001220874e-03 0.0 
0.0 0.0 0.0 
9.499809808577e-06 2.416690309568e-04 0.0 
2.416690309568e-04 8.372493733820e-03 0.0 
0.0 0.0 0.0 
1.430596757242e-05 2.205351087149e-04 0.0 
2.205351087149e-04 8.341680640286e-03 0.0 
0.0 0.0 0.0 
1.040988325007e-05 2.003546970197e-04 0.0 
2.003546970197e-04 8.311430365887e-03 0.0 
0.0 0.0 0.0 
8.702608680355e-06 1.778961349342e-04 0.0 
1.778961349342e-04 8.300745426955e-03 0.0 
0.0 0.0 0.0 
1.209850877282e-05 1.610922263573e-04 0.0 
1.610922263573e-04 8.304980394760e-03 0.0 
0.0 0.0 0.0 
1.509467580559e-05 1.379457954453e-04 0.0 
1.379457954453e-04 8.298823986697e-03 0.0 
0.0 0.0 0.0 
1.314008910108e-05 1.146284951170e-04 0.0 
1.146284951170e-04 8.227434355681e-03 0.0 
0.0 0.0 0.0 
1.450270165500e-05 9.596377523165e-05 0.0 
9.596377523165e-05 8.266158904653e-03 0.0 
0.0 0.0 0.0 
9.298714627774e-06 7.641654723673e-05 0.0 
7.641654723673e-05 8.240004581635e-03 0.0 
0.0 0.0 0.0 
8.649472546270e-06 5.224030881353e-05 0.0 
5.224030881353e-05 8.244604095396e-03 0.0 
0.0 0.0 0.0 
1.038176126385e-05 4.160041380313e-05 0.0 
4.160041380313e-05 8.256113450848e-03 0.0 
0.0 0.0 0.0 
9.453823424321e-06 2.176286888778e-05 0.0 
2.176286888778e-05 8.251950949438e-03 0.0 
0.0 0.0 0.0 
-8.089274630170e-05 -1.185555437735e-05 0.0 
-1.185555437735e-05 5.569578148546e-03 0.0 
0.0 0.0 0.0 
-8.234166107953e-05 -1.309733073979e-05 0.0 
-1.309733073979e-05 5.997246290705e-03 0.0 
0.0 0.0 0.0 
-7.677102421296e-05 -1.243385559411e-05 0.0 
-1.243385559411e-05 6.417136359999e-03 0.0 
0.0 0.0 0.0 
-7.051056066365e-05 -1.294472370562e-05 0.0 
-1.294472370562e-05 6.827668138644e-03 0.0 
0.0 0.0 0.0 
-6.305830211980e-05 -1.095620432146e-05 0.0 
-1.095620432146e-05 7.245791501814e-03 0.0 
0.0 0.0 0.0 
-4.953996937411e-05 -1.175500332500e-05 0.0 
-1.175500332500e-05 7.662342083307e-03 0.0 
0.0 0.0 0.0 
-3.999717156544e-05 -1.007026459456e-05 0.0 
-1.007026459456e-05 8.074911274484e-03 0.0 
0.0 0.0 0.0 
-2.730213500364e-05 -1.139198449646e-05 0.0 
-1.139198449646e-05 8.483160335110e-03 0.0 
0.0 0.0 0.0 
-1.405135021230e-05 -1.266293318543e-05 0.0 
-1.266293318543e-05 8.900212933434e-03 0.0 
0.0 0.0 0.0 
-1.472515752253e-04 1.833430739925e-04 0.0 
1.833430739925e-04 2.231957060275e-04 0.0 
0.0 0.0 0.0 
-1.450944396655e-04 2.602466271836e-05 0.0 
2.602466271836e-05 5.148465919595e-03 0.0 
0.0 0.0 0.0 
-6.835685283751e-05 2.923958254818e-04 0.0 
2.923958254818e-04 1.120928613299e-03 0.0 
0.0 0.0 0.0 
-5.132969797261e-05 1.283325219271e-04 0.0 
1.283325219271e-04 1.638414834561e-03 0.0 
0.0 0.0 0.0 
-8.094649758493e-05 9.342104514420e-05 0.0 
9.342104514420e-05 2.087102730007e-03 0.0 
0.0 0.0 0.0 
-1.068286158201e-04 6.759519258283e-05 0.0 
6.759519258283e-05 2.520022784257e-03 0.0 
0.0 0.0 0.0 
-1.249660356702e-04 5.094007245924e-05 0.0 
5.094007245924e-05 2.957623281962e-03 0.0 
0.0 0.0 0.0 
-1.338775710217e-04 3.632501742303e-05 0.0 
3.632501742303e-05 3.394410691284e-03 0.0 
0.0 0.0 0.0 
-1.426577053818e-04 2.903365559978e-05 0.0 
2.903365559978e-05 3.829425348810e-03 0.0 
0.0 0.0 0.0 
-1.457894525629e-04 2.481500749652e-05 0.0 
2.481500749652e-05 4.262706351094e-03 0.0 
0.0 0.0 0.0 
-1.444396417083e-04 2.412404196651e-05 0.0 
2.412404196651e-05 4.694311857169e-03 0.0 
0.0 0.0 0.0 
-1.179300872329e-04 -1.686902502237e-05 0.0 
-1.686902502237e-05 1.464892782100e-03 0.0 
0.0 0.0 0.0 
-9.294280542546e-05 -2.677175012997e-05 0.0 
-2.677175012997e-05 1.719669103795e-03 0.0 
0.0 0.0 0.0 
-7.660552728950e-05 -2.491666740211e-05 0.0 
-2.491666740211e-05 2.135121550589e-03 0.0 
0.0 0.0 0.0 
-7.348474068197e-05 -3.244918142503e-05 0.0 
-3.244918142503e-05 2.560391915262e-03 0.0 
0.0 0.0 0.0 
-7.487053510599e-05 -2.650575645701e-05 0.0 
-2.650575645701e-05 2.988653969441e-03 0.0 
0.0 0.0 0.0 
-7.717164864557e-05 -3.249750330584e-05 0.0 
-3.249750330584e-05 3.417316872930e-03 0.0 
0.0 0.0 0.0 
-7.977570407822e-05 -2.636260168707e-05 0.0 
-2.636260168707e-05 3.845993092943e-03 0.0 
0.0 0.0 0.0 
-8.154583877806e-05 -3.135932474085e-05 0.0 
-3.135932474085e-05 4.273531318299e-03 0.0 
0.0 0.0 0.0 
-8.164870595853e-05 -2.212152038529e-05 0.0 
-2.212152038529e-05 4.697652381279e-03 0.0 
0.0 0.0 0.0 
-8.377906227311e-05 8.010733749480e-06 0.0 
8.010733749480e-06 5.083563757806e-03 0.0 
0.0 0.0 0.0 
-8.229379926091e-05 -4.277239545332e-08 0.0 
-4.277239545332e-08 5.109267167535e-03 0.0 
0.0 0.0 0.0 
-8.577493549313e-05 -2.230276593898e-07 0.0 
-2.230276593898e-07 5.111892392366e-03 0.0 
0.0 0.0 0.0 
-8.732303536389e-05 -2.020821076437e-06 0.0 
-2.020821076437e-06 5.107368000531e-03 0.0 
0.0 0.0 0.0 
-8.741591476829e-05 5.410576790811e-07 0.0 
5.410576790811e-07 5.164795091467e-03 0.0 
0.0 0.0 0.0 
-9.198963428222e-05 4.594305122915e-07 0.0 
4.594305122915e-07 5.115993632555e-03 0.0 
0.0 0.0 0.0 
-9.311732836736e-05 -8.220051607212e-07 0.0 
-8.220051607212e-07 5.111709334801e-03 0.0 
0.0 0.0 0.0 
-9.767537975193e-05 2.747901389106e-06 0.0 
2.747901389106e-06 5.117004919582e-03 0.0 
0.0 0.0 0.0 
-1.055559096654e-04 2.636102482394e-06 0.0 
2.636102482394e-06 5.128330355545e-03 0.0 
0.0 0.0 0.0 
-1.115438459811e-04 5.847277179590e-06 0.0 
5.847277179590e-06 5.127174839483e-03 0.0 
0.0 0.0 0.0 
-1.147964354815e-04 7.460545486739e-06 0.0 
7.460545486739e-06 5.124982762396e-03 0.0 
0.0 0.0 0.0 
-1.218624599312e-04 1.003267717441e-05 0.0 
1.003267717441e-05 5.123671071229e-03 0.0 
0.0 0.0 0.0 
-1.268141291147e-04 1.614722892664e-05 0.0 
1.614722892664e-05 5.123785656359e-03 0.0 
0.0 0.0 0.0 
-1.342572932031e-04 2.257681319233e-05 0.0 
2.257681319233e-05 5.129708005530e-03 0.0 
0.0 0.0 0.0 
-1.979963280215e-04 3.729968278113e-05 0.0 
3.729968278113e-05 2.077220657111e-04 0.0 
0.0 0.0 0.0 
-2.345576980471e-04 -4.176463003905e-06 0.0 
-4.176463003905e-06 2.075983601462e-04 0.0 
0.0 0.0 0.0 
-2.251402117476e-04 -1.742189363717e-05 0.0 
-1.742189363717e-05 1.934728008513e-04 0.0 
0.0 0.0 0.0 
-1.969955227701e-04 -2.527042404238e-05 0.0 
-2.527042404238e-05 1.805126045705e-04 0.0 
0.0 0.0 0.0 
-1.762176919213e-04 -2.567543189714e-05 0.0 
-2.567543189714e-05 1.828405374462e-04 0.0 
0.0 0.0 0.0 
-1.608151011486e-04 -1.755919519899e-05 0.0 
-1.755919519899e-05 1.844484673861e-04 0.0 
0.0 0.0 0.0 
-1.402196069625e-04 -1.361845318471e-05 0.0 
-1.361845318471e-05 1.773826769850e-04 0.0 
0.0 0.0 0.0 
-1.191628602939e-04 -1.201098336657e-05 0.0 
-1.201098336657e-05 1.676050923389e-04 0.0 
0.0 0.0 0.0 
-1.006425365394e-04 -1.213883392896e-05 0.0 
-1.213883392896e-05 1.598210916264e-04 0.0 
0.0 0.0 0.0 
-8.268236683691e-05 -1.259141890620e-05 0.0 
-1.259141890620e-05 1.520160722621e-04 0.0 
0.0 0.0 0.0 
-6.580414141895e-05 -1.144864461599e-05 0.0 
-1.144864461599e-05 1.487184484976e-04 0.0 
0.0 0.0 0.0 
-6.807663433846e-05 -8.819396468736e-06 0.0 
-8.819396468736e-06 1.533126288279e-04 0.0 
0.0 0.0 0.0 
-4.827431087699e-05 -2.545169486240e-06 0.0 
-2.545169486240e-06 1.408121549772e-04 0.0 
0.0 0.0 0.0 
-2.237811939036e-05 -7.620862483804e-06 0.0 
-7.620862483804e-06 1.233487477944e-04 0.0 
0.0 0.0 0.0 
-1.290205208360e-05 -1.043176178781e-05 0.0 
-1.043176178781e-05 1.191104148196e-04 0.0 
0.0 0.0 0.0 
-1.399319244736e-05 -6.037194943946e-06 0.0 
-6.037194943946e-06 1.220200396668e-04 0.0 
0.0 0.0 0.0 
-1.066419973287e-05 -2.784780226221e-07 0.0 
-2.784780226221e-07 1.204504432531e-04 0.0 
0.0 0.0 0.0 
3.039120192505e-06 6.796998886361e-06 0.0 
6.796998886361e-06 1.063202732592e-04 0.0 
0.0 0.0 0.0 
5.786940924531e-06 9.336934421292e-06 0.0 
9.336934421292e-06 9.543022176920e-05 0.0 
0.0 0.0 0.0 
-9.038260223922e-05 3.153852892998e-05 0.0 
3.153852892998e-05 1.441289236172e-03 0.0 
0.0 0.0 0.0 
-6.153216882080e-05 1.496824356477e-05 0.0 
1.496824356477e-05 1.474065540321e-03 0.0 
0.0 0.0 0.0 
-5.279817537640e-05 4.132551929015e-06 0.0 
4.132551929015e-06 1.484268294448e-03 0.0 
0.0 0.0 0.0 
-5.579401381769e-05 -6.412072567471e-07 0.0 
-6.412072567471e-07 1.487582244370e-03 0.0 
0.0 0.0 0.0 
-5.627678315268e-05 -2.975368900906e-06 0.0 
-2.975368900906e-06 1.487864563768e-03 0.0 
0.0 0.0 0.0 
-5.469003397588e-05 -4.051149812909e-06 0.0 
-4.051149812909e-06 1.487307655463e-03 0.0 
0.0 0.0 0.0 
-5.163797331450e-05 -4.639612743436e-06 0.0 
-4.639612743436e-06 1.486186873034e-03 0.0 
0.0 0.0 0.0 
-4.744050779656e-05 -5.077350387803e-06 0.0 
-5.077350387803e-06 1.484571502373e-03 0.0 
0.0 0.0 0.0 
-4.225040359592e-05 -5.480908514097e-06 0.0 
-5.480908514097e-06 1.482500663173e-03 0.0 
0.0 0.0 0.0 
-3.612591858448e-05 -5.874347406499e-06 0.0 
-5.874347406499e-06 1.479997030591e-03 0.0 
0.0 0.0 0.0 
-2.907080752867e-05 -6.250865002379e-06 0.0 
-6.250865002379e-06 1.477071472651e-03 0.0 
0.0 0.0 0.0 
-2.105922089161e-05 -6.601731193170e-06 0.0 
-6.601731193170e-06 1.473730007254e-03 0.0 
0.0 0.0 0.0 
-1.205569639780e-05 -6.930920458369e-06 0.0 
-6.930920458369e-06 1.469976679709e-03 0.0 
0.0 0.0 0.0 
-2.038657210342e-06 -7.256746977354e-06 0.0 
-7.256746977354e-06 1.465816699811e-03 0.0 
0.0 0.0 0.0 
8.989957646310e-06 -7.607250810235e-06 0.0 
-7.607250810235e-06 1.461255404133e-03 0.0 
0.0 0.0 0.0 
2.098764662832e-05 -8.007000494630e-06 0.0 
-8.007000494630e-06 1.456320015766e-03 0.0 
0.0 0.0 0.0 
3.389018753119e-05 -8.486260876868e-06 0.0 
-8.486260876868e-06 1.451027738261e-03 0.0 
0.0 0.0 0.0 
4.754327634626e-05 -9.036698817311e-06 0.0 
-9.036698817311e-06 1.445466544514e-03 0.0 
0.0 0.0 0.0 
6.179867640480e-05 -9.683661364436e-06 0.0 
-9.683661364436e-06 1.439629391855e-03 0.0 
0.0 0.0 0.0 
7.626629985258e-05 -1.027311271179e-05 0.0 
-1.027311271179e-05 1.433829076799e-03 0.0 
0.0 0.0 0.0 
9.070841169330e-05 -1.092851789000e-05 0.0 
-1.092851789000e-05 1.427746933499e-03 0.0 
0.0 0.0 0.0 
1.041564982787e-04 -1.082895066409e-05 0.0 
-1.082895066409e-05 1.422342415596e-03 0.0 
0.0 0.0 0.0 
1.164620810547e-04 -1.060965663338e-05 0.0 
-1.060965663338e-05 1.415984537611e-03 0.0 
0.0 0.0 0.0 
1.254854358476e-04 -7.146104688279e-06 0.0 
-7.146104688279e-06 1.412932693384e-03 0.0 
0.0 0.0 0.0 
1.317665883154e-04 -3.896520023044e-06 0.0 
-3.896520023044e-06 1.406135444352e-03 0.0 
0.0 0.0 0.0 
1.319149494792e-04 1.322743693456e-05 0.0 
1.322743693456e-05 1.408285998357e-03 0.0 
0.0 0.0 0.0 
1.064444070507e-04 2.293152572791e-05 0.0 
2.293152572791e-05 1.389407488436e-03 0.0 
0.0 0.0 0.0 
5.598347134324e-05 5.854628311570e-05 0.0 
5.854628311570e-05 1.300699328004e-03 0.0 
0.0 0.0 0.0 
2.760074729261e-05 4.689577094309e-05 0.0 
4.689577094309e-05 1.591581330975e-03 0.0 
0.0 0.0 0.0 
3.158214141617e-05 2.146544430832e-05 0.0 
2.146544430832e-05 1.668165610485e-03 0.0 
0.0 0.0 0.0 
5.367934883218e-05 2.719037865804e-06 0.0 
2.719037865804e-06 1.646265309335e-03 0.0 
0.0 0.0 0.0 
5.306121073512e-05 -1.009974306717e-05 0.0 
-1.009974306717e-05 1.647876091912e-03 0.0 
0.0 0.0 0.0 
5.397557876278e-05 -1.432188905379e-05 0.0 
-1.432188905379e-05 1.651060229782e-03 0.0 
0.0 0.0 0.0 
4.866448990802e-05 -1.752967575125e-05 0.0 
-1.752967575125e-05 1.653833911634e-03 0.0 
0.0 0.0 0.0 
4.227827249339e-05 -1.832733954764e-05 0.0 
-1.832733954764e-05 1.657410745740e-03 0.0 
0.0 0.0 0.0 
3.379564188372e-05 -1.873133276654e-05 0.0 
-1.873133276654e-05 1.661076056551e-03 0.0 
0.0 0.0 0.0 
2.477760111965e-05 -1.836732242181e-05 0.0 
-1.836732242181e-05 1.665095663607e-03 0.0 
0.0 0.0 0.0 
1.531753520954e-05 -1.778975366533e-05 0.0 
-1.778975366533e-05 1.669132384741e-03 0.0 
0.0 0.0 0.0 
5.954319282205e-06 -1.699385860101e-05 0.0 
-1.699385860101e-05 1.673142785783e-03 0.0 
0.0 0.0 0.0 
-3.142857636566e-06 -1.614177569756e-05 0.0 
-1.614177569756e-05 1.677015193054e-03 0.0 
0.0 0.0 0.0 
-1.176209856868e-05 -1.523314242003e-05 0.0 
-1.523314242003e-05 1.680707441537e-03 0.0 
0.0 0.0 0.0 
-1.980477401659e-05 -1.429994221262e-05 0.0 
-1.429994221262e-05 1.684167531968e-03 0.0 
0.0 0.0 0.0 
-2.719059956500e-05 -1.333169394572e-05 0.0 
-1.333169394572e-05 1.687370246743e-03 0.0 
0.0 0.0 0.0 
-3.388036507760e-05 -1.232338070325e-05 0.0 
-1.232338070325e-05 1.690290100927e-03 0.0 
0.0 0.0 0.0 
-3.985261481554e-05 -1.127252962932e-05 0.0 
-1.127252962932e-05 1.692902085076e-03 0.0 
0.0 0.0 0.0 
-4.509896825074e-05 -1.018886101970e-05 0.0 
-1.018886101970e-05 1.695183671535e-03 0.0 
0.0 0.0 0.0 
-4.960841453215e-05 -9.080293998929e-06 0.0 
-9.080293998929e-06 1.697119541299e-03 0.0 
0.0 0.0 0.0 
-5.336152661363e-05 -7.939564910476e-06 0.0 
-7.939564910476e-06 1.698698020615e-03 0.0 
0.0 0.0 0.0 
-5.633228451320e-05 -6.723057018309e-06 0.0 
-6.723057018309e-06 1.699912596349e-03 0.0 
0.0 0.0 0.0 
-5.851238753761e-05 -5.314947080597e-06 0.0 
-5.314947080597e-06 1.700772791901e-03 0.0 
0.0 0.0 0.0 
-5.997889573060e-05 -3.468635906784e-06 0.0 
-3.468635906784e-06 1.701305808004e-03 0.0 
0.0 0.0 0.0 
-6.100004839817e-05 -5.468338721634e-07 0.0 
-5.468338721634e-07 1.701370830098e-03 0.0 
0.0 0.0 0.0 
-6.175987702700e-05 7.971568988066e-06 0.0 
7.971568988066e-06 1.699568203773e-03 0.0 
0.0 0.0 0.0 
-8.035425652146e-05 2.095708525145e-05 0.0 
2.095708525145e-05 1.710824638278e-03 0.0 
0.0 0.0 0.0 
-3.452153598255e-05 4.335021998617e-05 0.0 
4.335021998617e-05 2.039566166713e-03 0.0 
0.0 0.0 0.0 
-3.780066661463e-05 2.040915746216e-05 0.0 
2.040915746216e-05 2.121623752183e-03 0.0 
0.0 0.0 0.0 
-2.353958700132e-05 1.983597464886e-06 0.0 
1.983597464886e-06 2.105099215148e-03 0.0 
0.0 0.0 0.0 
-1.893885246457e-05 -1.084441905532e-05 0.0 
-1.084441905532e-05 2.104758263420e-03 0.0 
0.0 0.0 0.0 
-1.468144949690e-05 -1.699482418103e-05 0.0 
-1.699482418103e-05 2.106730626049e-03 0.0 
0.0 0.0 0.0 
-1.429420419182e-05 -2.138643248559e-05 0.0 
-2.138643248559e-05 2.107048720342e-03 0.0 
0.0 0.0 0.0 
-1.551647964902e-05 -2.354721107869e-05 0.0 
-2.354721107869e-05 2.108750114678e-03 0.0 
0.0 0.0 0.0 
-1.840934957009e-05 -2.452723530370e-05 0.0 
-2.452723530370e-05 2.110317980626e-03 0.0 
0.0 0.0 0.0 
-2.204638163091e-05 -2.458920886591e-05 0.0 
-2.458920886591e-05 2.112234042648e-03 0.0 
0.0 0.0 0.0 
-2.630263873854e-05 -2.412658001224e-05 0.0 
-2.412658001224e-05 2.114186042848e-03 0.0 
0.0 0.0 0.0 
-3.078227641212e-05 -2.327844283946e-05 0.0 
-2.327844283946e-05 2.116232349629e-03 0.0 
0.0 0.0 0.0 
-3.534937861832e-05 -2.218230678348e-05 0.0 
-2.218230678348e-05 2.118270312512e-03 0.0 
0.0 0.0 0.0 
-3.983327472490e-05 -2.089659945155e-05 0.0 
-2.089659945155e-05 2.120283036855e-03 0.0 
0.0 0.0 0.0 
-4.412471903411e-05 -1.945360245727e-05 0.0 
-1.945360245727e-05 2.122213932320e-03 0.0 
0.0 0.0 0.0 
-4.811509758570e-05 -1.787599805100e-05 0.0 
-1.787599805100e-05 2.124007025051e-03 0.0 
0.0 0.0 0.0 
-5.174159617966e-05 -1.619642847263e-05 0.0 
-1.619642847263e-05 2.125612421660e-03 0.0 
0.0 0.0 0.0 
-5.496794338968e-05 -1.443762384143e-05 0.0 
-1.443762384143e-05 2.127005585429e-03 0.0 
0.0 0.0 0.0 
-5.777422268736e-05 -1.260522527176e-05 0.0 
-1.260522527176e-05 2.128178862683e-03 0.0 
0.0 0.0 0.0 
-6.016270552189e-05 -1.068948839138e-05 0.0 
-1.068948839138e-05 2.129145090699e-03 0.0 
0.0 0.0 0.0 
-6.217559082241e-05 -8.675339380529e-06 0.0 
-8.675339380529e-06 2.129948331880e-03 0.0 
0.0 0.0 0.0 
-6.393048589350e-05 -6.565359912897e-06 0.0 
-6.565359912897e-06 2.130671503380e-03 0.0 
0.0 0.0 0.0 
-6.562975877485e-05 -4.426108279074e-06 0.0 
-4.426108279074e-06 2.131374825782e-03 0.0 
0.0 0.0 0.0 
-6.752995304928e-05 -2.386933546983e-06 0.0 
-2.386933546983e-06 2.131944144190e-03 0.0 
0.0 0.0 0.0 
-7.050975497958e-05 -3.146480982062e-07 0.0 
-3.146480982062e-07 2.133372700238e-03 0.0 
0.0 0.0 0.0 
-7.538338745601e-05 1.785513183236e-05 0.0 
1.785513183236e-05 2.135043658380e-03 0.0 
0.0 0.0 0.0 
-7.373903510714e-05 9.216249634728e-06 0.0 
9.216249634728e-06 2.561081690382e-03 0.0 
0.0 0.0 0.0 
-7.227958696900e-05 -1.688309240868e-06 0.0 
-1.688309240868e-06 2.561058351759e-03 0.0 
0.0 0.0 0.0 
-7.101109595002e-05 -6.157900457075e-06 0.0 
-6.157900457075e-06 2.560870721337e-03 0.0 
0.0 0.0 0.0 
-6.978476774551e-05 -8.176798049308e-06 0.0 
-8.176798049308e-06 2.560500560921e-03 0.0 
0.0 0.0 0.0 
-6.860558711552e-05 -1.029116475930e-05 0.0 
-1.029116475930e-05 2.560034716675e-03 0.0 
0.0 0.0 0.0 
-6.743489300198e-05 -1.256598960255e-05 0.0 
-1.256598960255e-05 2.559549835740e-03 0.0 
0.0 0.0 0.0 
-6.619077049730e-05 -1.490972933269e-05 0.0 
-1.490972933269e-05 2.559019055803e-03 0.0 
0.0 0.0 0.0 
-6.481056999208e-05 -1.724063697952e-05 0.0 
-1.724063697952e-05 2.558403071120e-03 0.0 
0.0 0.0 0.0 
-6.328742236765e-05 -1.951054557878e-05 0.0 
-1.951054557878e-05 2.557688907102e-03 0.0 
0.0 0.0 0.0 
-6.163662605698e-05 -2.168292896231e-05 0.0 
-2.168292896231e-05 2.556872470956e-03 0.0 
0.0 0.0 0.0 
-5.989245565709e-05 -2.371508801097e-05 0.0 
-2.371508801097e-05 2.555962632894e-03 0.0 
0.0 0.0 0.0 
-5.810033023564e-05 -2.553300137270e-05 0.0 
-2.553300137270e-05 2.554974939363e-03 0.0 
0.0 0.0 0.0 
-5.637653311983e-05 -2.701951954510e-05 0.0 
-2.701951954510e-05 2.554001027899e-03 0.0 
0.0 0.0 0.0 
-5.490902232617e-05 -2.812745732245e-05 0.0 
-2.812745732245e-05 2.553109703135e-03 0.0 
0.0 0.0 0.0 
-5.385886421033e-05 -2.871705014953e-05 0.0 
-2.871705014953e-05 2.552382019507e-03 0.0 
0.0 0.0 0.0 
-5.336788076260e-05 -2.873968541451e-05 0.0 
-2.873968541451e-05 2.551674183339e-03 0.0 
0.0 0.0 0.0 
-5.361111327608e-05 -2.765002882301e-05 0.0 
-2.765002882301e-05 2.551241263961e-03 0.0 
0.0 0.0 0.0 
-5.499241931867e-05 -2.555395212248e-05 0.0 
-2.555395212248e-05 2.550562437216e-03 0.0 
0.0 0.0 0.0 
-5.758579106095e-05 -2.093577628883e-05 0.0 
-2.093577628883e-05 2.550558210099e-03 0.0 
0.0 0.0 0.0 
-6.244221579495e-05 -1.455591714839e-05 0.0 
-1.455591714839e-05 2.549008881513e-03 0.0 
0.0 0.0 0.0 
-6.764720350603e-05 -1.791348392659e-06 0.0 
-1.791348392659e-06 2.549568350426e-03 0.0 
0.0 0.0 0.0 
-7.861739086572e-05 1.358590073474e-05 0.0 
1.358590073474e-05 2.566719813960e-03 0.0 
0.0 0.0 0.0 
-7.456498218505e-05 3.295504538327e-05 0.0 
3.295504538327e-05 2.483691260735e-03 0.0 
0.0 0.0 0.0 
-9.890276431283e-05 2.633274013532e-05 0.0 
2.633274013532e-05 2.921046003535e-03 0.0 
0.0 0.0 0.0 
-1.031571810747e-04 9.099465439213e-06 0.0 
9.099465439213e-06 3.003372524830e-03 0.0 
0.0 0.0 0.0 
-9.582104137410e-05 -3.743682848250e-06 0.0 
-3.743682848250e-06 2.988005402275e-03 0.0 
0.0 0.0 0.0 
-9.107372243189e-05 -1.414918440022e-05 0.0 
-1.414918440022e-05 2.987769423389e-03 0.0 
0.0 0.0 0.0 
-8.554530507339e-05 -1.939421077024e-05 0.0 
-1.939421077024e-05 2.989306155242e-03 0.0 
0.0 0.0 0.0 
-8.179311808933e-05 -2.320422416189e-05 0.0 
-2.320422416189e-05 2.988778347320e-03 0.0 
0.0 0.0 0.0 
-7.855333608679e-05 -2.506060555917e-05 0.0 
-2.506060555917e-05 2.988904703763e-03 0.0 
0.0 0.0 0.0 
-7.628967235762e-05 -2.598821403599e-05 0.0 
-2.598821403599e-05 2.988591784165e-03 0.0 
0.0 0.0 0.0 
-7.470464302820e-05 -2.608735687561e-05 0.0 
-2.608735687561e-05 2.988615937531e-03 0.0 
0.0 0.0 0.0 
-7.386838034520e-05 -2.553191051202e-05 0.0 
-2.553191051202e-05 2.988805214171e-03 0.0 
0.0 0.0 0.0 
-7.340523128196e-05 -2.431937879950e-05 0.0 
-2.431937879950e-05 2.989111216594e-03 0.0 
0.0 0.0 0.0 
-7.312512428492e-05 -2.268071245511e-05 0.0 
-2.268071245511e-05 2.989326759906e-03 0.0 
0.0 0.0 0.0 
-7.300941919756e-05 -2.080102121310e-05 0.0 
-2.080102121310e-05 2.989508491242e-03 0.0 
0.0 0.0 0.0 
-7.304738073899e-05 -1.874321467843e-05 0.0 
-1.874321467843e-05 2.989679855302e-03 0.0 
0.0 0.0 0.0 
-7.318871498341e-05 -1.655551344428e-05 0.0 
-1.655551344428e-05 2.989820994271e-03 0.0 
0.0 0.0 0.0 
-7.336864582737e-05 -1.429404615666e-05 0.0 
-1.429404615666e-05 2.989902742705e-03 0.0 
0.0 0.0 0.0 
-7.358082540219e-05 -1.209156881210e-05 0.0 
-1.209156881210e-05 2.989922489918e-03 0.0 
0.0 0.0 0.0 
-7.388200980156e-05 -1.005527173249e-05 0.0 
-1.005527173249e-05 2.989925624978e-03 0.0 
0.0 0.0 0.0 
-7.425898060069e-05 -8.249384387302e-06 0.0 
-8.249384387302e-06 2.989884113891e-03 0.0 
0.0 0.0 0.0 
-7.466452710566e-05 -6.688671428524e-06 0.0 
-6.688671428524e-06 2.989733921061e-03 0.0 
0.0 0.0 0.0 
-7.500124376362e-05 -5.819428106656e-06 0.0 
-5.819428106656e-06 2.989365088611e-03 0.0 
0.0 0.0 0.0 
-7.493330722865e-05 1.412758585385e-05 0.0 
1.412758585385e-05 2.988872997514e-03 0.0 
0.0 0.0 0.0 
-7.737828698905e-05 8.386463675574e-06 0.0 
8.386463675574e-06 3.417584953385e-03 0.0 
0.0 0.0 0.0 
-7.753946317116e-05 -3.381219779819e-06 0.0 
-3.381219779819e-06 3.417945032000e-03 0.0 
0.0 0.0 0.0 
-7.771712568107e-05 -7.800723734151e-06 0.0 
-7.800723734151e-06 3.418381205349e-03 0.0 
0.0 0.0 0.0 
-7.806885630542e-05 -9.546626274648e-06 0.0 
-9.546626274648e-06 3.418870790981e-03 0.0 
0.0 0.0 0.0 
-7.853993401735e-05 -1.132026494355e-05 0.0 
-1.132026494355e-05 3.419346308542e-03 0.0 
0.0 0.0 0.0 
-7.921627909461e-05 -1.324818533583e-05 0.0 
-1.324818533583e-05 3.419836243815e-03 0.0 
0.0 0.0 0.0 
-8.008247461468e-05 -1.535502886313e-05 0.0 
-1.535502886313e-05 3.420283939909e-03 0.0 
0.0 0.0 0.0 
-8.104993131652e-05 -1.744364925306e-05 0.0 
-1.744364925306e-05 3.420572735140e-03 0.0 
0.0 0.0 0.0 
-8.219636378291e-05 -1.931131868964e-05 0.0 
-1.931131868964e-05 3.420838402930e-03 0.0 
0.0 0.0 0.0 
-8.377331433425e-05 -2.091989120371e-05 0.0 
-2.091989120371e-05 3.421211337950e-03 0.0 
0.0 0.0 0.0 
-8.571219501184e-05 -2.230197360565e-05 0.0 
-2.230197360565e-05 3.421619034033e-03 0.0 
0.0 0.0 0.0 
-8.790863871305e-05 -2.332179090461e-05 0.0 
-2.332179090461e-05 3.421882829716e-03 0.0 
0.0 0.0 0.0 
-9.036824053484e-05 -2.357451017351e-05 0.0 
-2.357451017351e-05 3.421833921250e-03 0.0 
0.0 0.0 0.0 
-9.350414237634e-05 -2.253722479577e-05 0.0 
-2.253722479577e-05 3.422210481665e-03 0.0 
0.0 0.0 0.0 
-9.783361367971e-05 -2.083142374826e-05 0.0 
-2.083142374826e-05 3.422680802932e-03 0.0 
0.0 0.0 0.0 
-1.029197666063e-04 -1.754667102730e-05 0.0 
-1.754667102730e-05 3.423785973165e-03 0.0 
0.0 0.0 0.0 
-1.088643368185e-04 -1.381062892813e-05 0.0 
-1.381062892813e-05 3.422710307916e-03 0.0 
0.0 0.0 0.0 
-1.131274227846e-04 -4.905906895462e-06 0.0 
-4.905906895462e-06 3.422513792409e-03 0.0 
0.0 0.0 0.0 
-1.204523995335e-04 4.482843443622e-06 0.0 
4.482843443622e-06 3.439769572845e-03 0.0 
0.0 0.0 0.0 
-1.149967476240e-04 1.650187398755e-05 0.0 
1.650187398755e-05 3.355998076854e-03 0.0 
0.0 0.0 0.0 
-1.239618832497e-04 1.433984202692e-05 0.0 
1.433984202692e-05 3.787771669738e-03 0.0 
0.0 0.0 0.0 
-1.301571311574e-04 3.848029978464e-06 0.0 
3.848029978464e-06 3.872392602330e-03 0.0 
0.0 0.0 0.0 
-1.243493188803e-04 -2.102433226403e-06 0.0 
-2.102433226403e-06 3.856234714698e-03 0.0 
0.0 0.0 0.0 
-1.191378233872e-04 -8.536901349216e-06 0.0 
-8.536901349216e-06 3.854696797932e-03 0.0 
0.0 0.0 0.0 
-1.120053627051e-04 -1.205575095246e-05 0.0 
-1.205575095246e-05 3.854667836148e-03 0.0 
0.0 0.0 0.0 
-1.070540558681e-04 -1.550190343472e-05 0.0 
-1.550190343472e-05 3.853685396161e-03 0.0 
0.0 0.0 0.0 
-1.028723813909e-04 -1.693049389838e-05 0.0 
-1.693049389838e-05 3.854132172757e-03 0.0 
0.0 0.0 0.0 
-9.893264764216e-05 -1.705408045541e-05 0.0 
-1.705408045541e-05 3.853714344140e-03 0.0 
0.0 0.0 0.0 
-9.534490262995e-05 -1.655032015177e-05 0.0 
-1.655032015177e-05 3.852899042869e-03 0.0 
0.0 0.0 0.0 
-9.196127507336e-05 -1.583774524455e-05 0.0 
-1.583774524455e-05 3.851865470797e-03 0.0 
0.0 0.0 0.0 
-8.932505295893e-05 -1.504458230691e-05 0.0 
-1.504458230691e-05 3.851226393584e-03 0.0 
0.0 0.0 0.0 
-8.738585131931e-05 -1.362952530532e-05 0.0 
-1.362952530532e-05 3.850784030086e-03 0.0 
0.0 0.0 0.0 
-8.528954871277e-05 -1.193681253316e-05 0.0 
-1.193681253316e-05 3.849889810841e-03 0.0 
0.0 0.0 0.0 
-8.358734409331e-05 -1.044328390811e-05 0.0 
-1.044328390811e-05 3.848896971819e-03 0.0 
0.0 0.0 0.0 
-8.220806682855e-05 -9.086531133018e-06 0.0 
-9.086531133018e-06 3.848037071166e-03 0.0 
0.0 0.0 0.0 
-8.118927984766e-05 -7.741053893449e-06 0.0 
-7.741053893449e-06 3.847230954777e-03 0.0 
0.0 0.0 0.0 
-8.034721186116e-05 -6.625669907905e-06 0.0 
-6.625669907905e-06 3.846590169847e-03 0.0 
0.0 0.0 0.0 
-8.013141657148e-05 -5.898083493626e-06 0.0 
-5.898083493626e-06 3.846440437154e-03 0.0 
0.0 0.0 0.0 
-7.997589224880e-05 1.417722057697e-05 0.0 
1.417722057697e-05 3.846286933593e-03 0.0 
0.0 0.0 0.0 
-8.276441407976e-05 9.082034444801e-06 0.0 
9.082034444801e-06 4.275059156384e-03 0.0 
0.0 0.0 0.0 
-8.208666827284e-05 -2.880718069048e-06 0.0 
-2.880718069048e-06 4.274223906320e-03 0.0 
0.0 0.0 0.0 
-8.282362175540e-05 -5.922406099425e-06 0.0 
-5.922406099425e-06 4.274593202208e-03 0.0 
0.0 0.0 0.0 
-8.440788612898e-05 -7.057226791352e-06 0.0 
-7.057226791352e-06 4.275822419946e-03 0.0 
0.0 0.0 0.0 
-8.571273239932e-05 -7.792983323763e-06 0.0 
-7.792983323763e-06 4.276630728058e-03 0.0 
0.0 0.0 0.0 
-8.811859925358e-05 -8.599963324186e-06 0.0 
-8.599963324186e-06 4.278001645701e-03 0.0 
0.0 0.0 0.0 
-9.073638795942e-05 -9.354848986191e-06 0.0 
-9.354848986191e-06 4.279501612706e-03 0.0 
0.0 0.0 0.0 
-9.389696133764e-05 -1.089786977966e-05 0.0 
-1.089786977966e-05 4.280474033895e-03 0.0 
0.0 0.0 0.0 
-9.672233947931e-05 -1.094899576684e-05 0.0 
-1.094899576684e-05 4.280539551152e-03 0.0 
0.0 0.0 0.0 
-1.012701908473e-04 -1.051633647348e-05 0.0 
-1.051633647348e-05 4.282237414646e-03 0.0 
0.0 0.0 0.0 
-1.060773578355e-04 -1.059019371879e-05 0.0 
-1.059019371879e-05 4.283650176596e-03 0.0 
0.0 0.0 0.0 
-1.108225701184e-04 -9.828749299837e-06 0.0 
-9.828749299837e-06 4.284124283809e-03 0.0 
0.0 0.0 0.0 
-1.166134242488e-04 -8.198743531140e-06 0.0 
-8.198743531140e-06 4.284629173205e-03 0.0 
0.0 0.0 0.0 
-1.221610167861e-04 -5.104051658463e-06 0.0 
-5.104051658463e-06 4.282511865617e-03 0.0 
0.0 0.0 0.0 
-1.275401880897e-04 2.594402825307e-06 0.0 
2.594402825307e-06 4.284419555247e-03 0.0 
0.0 0.0 0.0 
-1.346376890135e-04 6.368409727536e-06 0.0 
6.368409727536e-06 4.304771809990e-03 0.0 
0.0 0.0 0.0 
-1.291175482057e-04 1.333246518177e-05 0.0 
1.333246518177e-05 4.221516410957e-03 0.0 
0.0 0.0 0.0 
-1.287742448127e-04 1.739135584821e-05 0.0 
1.739135584821e-05 4.649972525707e-03 0.0 
0.0 0.0 0.0 
-1.356378123417e-04 1.046249128312e-05 0.0 
1.046249128312e-05 4.731207038274e-03 0.0 
0.0 0.0 0.0 
-1.293001936309e-04 6.491119870363e-06 0.0 
6.491119870363e-06 4.713398361302e-03 0.0 
0.0 0.0 0.0 
-1.211457416595e-04 2.710441065698e-06 0.0 
2.710441065698e-06 4.712099249087e-03 0.0 
0.0 0.0 0.0 
-1.155278415694e-04 -9.323089924509e-07 0.0 
-9.323089924509e-07 4.712462647193e-03 0.0 
0.0 0.0 0.0 
-1.102130336578e-04 -1.939851257900e-06 0.0 
-1.939851257900e-06 4.712185902996e-03 0.0 
0.0 0.0 0.0 
-1.049170721595e-04 -2.664201442766e-06 0.0 
-2.664201442766e-06 4.709598134693e-03 0.0 
0.0 0.0 0.0 
-1.004547375223e-04 -4.901336672608e-06 0.0 
-4.901336672608e-06 4.708471925354e-03 0.0 
0.0 0.0 0.0 
-9.499712857760e-05 -4.174974411453e-06 0.0 
-4.174974411453e-06 4.708304731903e-03 0.0 
0.0 0.0 0.0 
-9.244675433804e-05 -4.837292459464e-06 0.0 
-4.837292459464e-06 4.706376453885e-03 0.0 
0.0 0.0 0.0 
-8.925684838323e-05 -4.230407958179e-06 0.0 
-4.230407958179e-06 4.704827129676e-03 0.0 
0.0 0.0 0.0 
-8.679473613014e-05 -5.346786082746e-06 0.0 
-5.346786082746e-06 4.703379788686e-03 0.0 
0.0 0.0 0.0 
-8.570138605035e-05 -4.090664542052e-06 0.0 
-4.090664542052e-06 4.703193180849e-03 0.0 
0.0 0.0 0.0 
-8.364895194429e-05 -4.336160592341e-06 0.0 
-4.336160592341e-06 4.700751416890e-03 0.0 
0.0 0.0 0.0 
-8.350973197463e-05 -7.086266799819e-06 0.0 
-7.086266799819e-06 4.703238980595e-03 0.0 
0.0 0.0 0.0 
-8.597076428359e-05 1.624722417039e-05 0.0 
1.624722417039e-05 4.705697892425e-03 0.0 
0.0 0.0 0.0 
-1.281550180575e-04 3.391424182850e-04 0.0 
3.391424182850e-04 5.451752817094e-04 0.0 
0.0 0.0 0.0 
-6.022439904800e-05 1.730594350409e-04 0.0 
1.730594350409e-04 1.446079410165e-03 0.0 
0.0 0.0 0.0 
-7.441499409931e-05 1.189268236633e-04 0.0 
1.189268236633e-04 1.911223169554e-03 0.0 
0.0 0.0 0.0 
-9.730581465556e-05 8.873208881912e-05 0.0 
8.873208881912e-05 2.353172884208e-03 0.0 
0.0 0.0 0.0 
-1.144153291025e-04 6.301824414409e-05 0.0 
6.301824414409e-05 2.781178701644e-03 0.0 
0.0 0.0 0.0 
-1.248489083426e-04 4.956813112412e-05 0.0 
4.956813112412e-05 3.218518151601e-03 0.0 
0.0 0.0 0.0 
-1.378561230055e-04 3.738645391280e-05 0.0 
3.738645391280e-05 3.653300465281e-03 0.0 
0.0 0.0 0.0 
-1.413930955620e-04 3.238175010264e-05 0.0 
3.238175010264e-05 4.086529767531e-03 0.0 
0.0 0.0 0.0 
-1.415832842203e-04 2.940078223747e-05 0.0 
2.940078223747e-05 4.517981959253e-03 0.0 
0.0 0.0 0.0 
-1.372457714306e-04 3.075218427295e-05 0.0 
3.075218427295e-05 4.950390288959e-03 0.0 
0.0 0.0 0.0 
-1.199573384626e-04 2.781702209882e-04 0.0 
2.781702209882e-04 1.733610475871e-03 0.0 
0.0 0.0 0.0 
2.287362045994e-05 3.102998763326e-04 0.0 
3.102998763326e-04 8.325547907977e-03 0.0 
0.0 0.0 0.0 
-6.339944197697e-05 -2.054473814472e-05 0.0 
-2.054473814472e-05 2.811958930620e-04 0.0 
0.0 0.0 0.0 
-1.142741631512e-04 -2.461486810551e-05 0.0 
-2.461486810551e-05 2.882267780227e-04 0.0 
0.0 0.0 0.0 
3.362808202438e-05 2.303990109470e-04 0.0 
2.303990109470e-04 8.168950226213e-03 0.0 
0.0 0.0 0.0 
-1.472175407028e-04 1.219054094786e-04 0.0 
1.219054094786e-04 2.708847022143e-03 0.0 
0.0 0.0 0.0 
1.664419870038e-04 1.646889453666e-06 0.0 
1.646889453666e-06 4.264681033735e-03 0.0 
0.0 0.0 0.0 
2.988589466061e-06 3.437823922721e-04 0.0 
3.437823922721e-04 8.478980243181e-03 0.0 
0.0 0.0 0.0 
-1.603707961841e-04 6.296721326157e-05 0.0 
6.296721326157e-05 3.548787622941e-03 0.0 
0.0 0.0 0.0 
-1.550430820579e-05 3.254111523552e-04 0.0 
3.254111523552e-04 8.666454897414e-03 0.0 
0.0 0.0 0.0 
-1.638555789214e-04 4.502729917074e-05 0.0 
4.502729917074e-05 4.436974150343e-03 0.0 
0.0 0.0 0.0 
3.721979821658e-05 1.470099978774e-04 0.0 
1.470099978774e-04 8.120922889673e-03 0.0 
0.0 0.0 0.0 
-1.914362107206e-05 -1.047086353871e-05 0.0 
-1.047086353871e-05 2.493596646785e-04 0.0 
0.0 0.0 0.0 
-2.670264010686e-05 2.696948591980e-04 0.0 
2.696948591980e-04 8.806288268768e-03 0.0 
0.0 0.0 0.0 
-1.526027897188e-04 4.292798874199e-05 0.0 
4.292798874199e-05 5.312310458800e-03 0.0 
0.0 0.0 0.0 
1.271190379388e-04 -1.744173994535e-06 0.0 
-1.744173994535e-06 2.577974543850e-03 0.0 
0.0 0.0 0.0 
1.632189692393e-04 1.029365227231e-05 0.0 
1.029365227231e-05 5.442093156478e-03 0.0 
0.0 0.0 0.0 
-2.929590212891e-05 2.147127224755e-04 0.0 
2.147127224755e-04 8.860649840622e-03 0.0 
0.0 0.0 0.0 
-2.513354607879e-05 1.516048950045e-04 0.0 
1.516048950045e-04 8.938067268206e-03 0.0 
0.0 0.0 0.0 
-1.654645713321e-05 4.059424941980e-05 0.0 
4.059424941980e-05 8.977969895995e-03 0.0 
0.0 0.0 0.0 
-1.965362671487e-05 7.385562793669e-05 0.0 
7.385562793669e-05 8.936154611668e-03 0.0 
0.0 0.0 0.0 
-2.264611390018e-05 1.042924154812e-04 0.0 
1.042924154812e-04 8.969519441397e-03 0.0 
0.0 0.0 0.0 
-1.327667144622e-04 2.969012510083e-05 0.0 
2.969012510083e-05 5.512339858530e-03 0.0 
0.0 0.0 0.0 
-1.079030481568e-04 1.296347601982e-05 0.0 
1.296347601982e-05 5.515108153809e-03 0.0 
0.0 0.0 0.0 
-9.343301490458e-05 3.874338764602e-06 0.0 
3.874338764602e-06 5.540571797432e-03 0.0 
0.0 0.0 0.0 
-6.566464307021e-05 -1.961419024188e-06 0.0 
-1.961419024188e-06 7.039415078242e-03 0.0 
0.0 0.0 0.0 
3.370885187703e-05 8.457209430371e-05 0.0 
8.457209430371e-05 8.064214500305e-03 0.0 
0.0 0.0 0.0 
-8.580781888201e-05 3.961896890588e-05 0.0 
3.961896890588e-05 3.002392218349e-04 0.0 
0.0 0.0 0.0 
3.599605295427e-06 -5.500675745983e-06 0.0 
-5.500675745983e-06 2.592651100216e-04 0.0 
0.0 0.0 0.0 
1.137765605369e-04 1.279932372431e-05 0.0 
1.279932372431e-05 6.829912878550e-03 0.0 
0.0 0.0 0.0 
-8.748359047646e-05 4.622202602156e-06 0.0 
4.622202602156e-06 5.488518698671e-03 0.0 
0.0 0.0 0.0 
5.943842327784e-05 -4.646595419703e-06 0.0 
-4.646595419703e-06 1.305837181006e-03 0.0 
0.0 0.0 0.0 
-3.364010420421e-05 1.793158901576e-04 0.0 
1.793158901576e-04 8.842902415993e-03 0.0 
0.0 0.0 0.0 
-6.463548194224e-06 3.425361411309e-04 0.0 
3.425361411309e-04 8.605913051300e-03 0.0 
0.0 0.0 0.0 
-2.311278251902e-05 3.004888987846e-04 0.0 
3.004888987846e-04 8.742973478535e-03 0.0 
0.0 0.0 0.0 
1.299403862747e-05 3.352559590612e-04 0.0 
3.352559590612e-04 8.381774932987e-03 0.0 
0.0 0.0 0.0 
2.509037465389e-05 2.806260589244e-04 0.0 
2.806260589244e-04 8.268419579515e-03 0.0 
0.0 0.0 0.0 
-9.796001176519e-05 -2.132717830389e-05 0.0 
-2.132717830389e-05 3.051673590795e-04 0.0 
0.0 0.0 0.0 
-1.190127912806e-04 1.967233951686e-05 0.0 
1.967233951686e-05 5.500926328514e-03 0.0 
0.0 0.0 0.0 
3.857198140917e-05 1.848976587619e-04 0.0 
1.848976587619e-04 8.055453259041e-03 0.0 
0.0 0.0 0.0 
-4.889483153370e-05 3.151987619777e-07 0.0 
3.151987619777e-07 7.860368092146e-03 0.0 
0.0 0.0 0.0 
-4.111523779802e-05 -2.089665877627e-05 0.0 
-2.089665877627e-05 2.786256886969e-04 0.0 
0.0 0.0 0.0 
1.548756342797e-04 -1.317552987258e-06 0.0 
-1.317552987258e-06 3.394015132682e-03 0.0 
0.0 0.0 0.0 
-1.415863700003e-05 2.528820673234e-05 0.0 
2.528820673234e-05 9.039649188298e-03 0.0 
0.0 0.0 0.0 
-1.587120867352e-04 9.315200280840e-05 0.0 
9.315200280840e-05 3.160147437341e-03 0.0 
0.0 0.0 0.0 
-1.378147376122e-04 1.749365521451e-04 0.0 
1.749365521451e-04 2.253482667938e-03 0.0 
0.0 0.0 0.0 
-1.650994212003e-04 5.286901317704e-05 0.0 
5.286901317704e-05 3.995389717367e-03 0.0 
0.0 0.0 0.0 
-1.592379721522e-04 3.984258228373e-05 0.0 
3.984258228373e-05 4.870396022878e-03 0.0 
0.0 0.0 0.0 
-5.420413191148e-05 3.565840317388e-04 0.0 
3.565840317388e-04 8.614597447324e-04 0.0 
0.0 0.0 0.0 
-7.667588934979e-05 5.354496391103e-07 0.0 
5.354496391103e-07 6.239990744264e-03 0.0 
0.0 0.0 0.0 
2.531139453490e-05 4.612709366753e-05 0.0 
4.612709366753e-05 8.127823432180e-03 0.0 
0.0 0.0 0.0 
1.446354451099e-05 4.425798694004e-06 0.0 
4.425798694004e-06 2.359415509599e-04 0.0 
0.0 0.0 0.0 
-2.012879272473e-05 6.768377727195e-06 0.0 
6.768377727195e-06 8.667814228802e-03 0.0 
0.0 0.0 0.0 
-1.462841751349e-04 4.324280565067e-05 0.0 
4.324280565067e-05 5.513188616284e-03 0.0 
0.0 0.0 0.0 
-1.512237241151e-04 5.614890781065e-05 0.0 
5.614890781065e-05 5.680856026828e-03 0.0 
0.0 0.0 0.0 
-1.424862985931e-04 5.704668029541e-05 0.0 
5.704668029541e-05 5.883906066432e-03 0.0 
0.0 0.0 0.0 
-1.501382945584e-04 7.017089685155e-05 0.0 
7.017089685155e-05 6.075995644391e-03 0.0 
0.0 0.0 0.0 
-1.414722538747e-04 7.079291212805e-05 0.0 
7.079291212805e-05 6.298801498543e-03 0.0 
0.0 0.0 0.0 
-1.443912668225e-04 8.615248945322e-05 0.0 
8.615248945322e-05 6.468643213866e-03 0.0 
0.0 0.0 0.0 
-1.521850631692e-04 8.799862313707e-05 0.0 
8.799862313707e-05 6.244899408922e-03 0.0 
0.0 0.0 0.0 
-1.438659053286e-04 1.041543011169e-04 0.0 
1.041543011169e-04 6.636101900586e-03 0.0 
0.0 0.0 0.0 
-1.524621863642e-04 1.074201181951e-04 0.0 
1.074201181951e-04 6.408166743483e-03 0.0 
0.0 0.0 0.0 
-1.325294644633e-04 8.484835494044e-05 0.0 
8.484835494044e-05 6.695924356609e-03 0.0 
0.0 0.0 0.0 
-1.419536054717e-04 1.232436265193e-04 0.0 
1.232436265193e-04 6.799371845010e-03 0.0 
0.0 0.0 0.0 
-1.503531196763e-04 1.276943460401e-04 0.0 
1.276943460401e-04 6.567804901475e-03 0.0 
0.0 0.0 0.0 
-1.377781562264e-04 1.437957818517e-04 0.0 
1.437957818517e-04 6.958215239870e-03 0.0 
0.0 0.0 0.0 
-1.459225255522e-04 1.488310728189e-04 0.0 
1.488310728189e-04 6.723897779410e-03 0.0 
0.0 0.0 0.0 
-1.572981027682e-04 1.331926994620e-04 0.0 
1.331926994620e-04 6.336370191928e-03 0.0 
0.0 0.0 0.0 
-1.521573092682e-04 1.554340443818e-04 0.0 
1.554340443818e-04 6.488884492958e-03 0.0 
0.0 0.0 0.0 
-1.623287841369e-04 1.401056598633e-04 0.0 
1.401056598633e-04 6.102844020061e-03 0.0 
0.0 0.0 0.0 
-1.561801591309e-04 1.633272117699e-04 0.0 
1.633272117699e-04 6.251792256682e-03 0.0 
0.0 0.0 0.0 
-1.440634533885e-04 1.778020545753e-04 0.0 
1.778020545753e-04 6.637423298105e-03 0.0 
0.0 0.0 0.0 
-1.465421906204e-04 1.861130282709e-04 0.0 
1.861130282709e-04 6.396047428119e-03 0.0 
0.0 0.0 0.0 
-1.580573895897e-04 1.728358771225e-04 0.0 
1.728358771225e-04 6.011490313002e-03 0.0 
0.0 0.0 0.0 
-1.464010620768e-04 1.965842051281e-04 0.0 
1.965842051281e-04 6.151015203174e-03 0.0 
0.0 0.0 0.0 
-1.575237908817e-04 1.846785972749e-04 0.0 
1.846785972749e-04 5.768477337269e-03 0.0 
0.0 0.0 0.0 
-1.434322670817e-04 2.090105819986e-04 0.0 
2.090105819986e-04 5.903040243707e-03 0.0 
0.0 0.0 0.0 
-1.545463203939e-04 1.985975711562e-04 0.0 
1.985975711562e-04 5.521129954293e-03 0.0 
0.0 0.0 0.0 
-1.374330340594e-04 2.234287603526e-04 0.0 
2.234287603526e-04 5.650767583154e-03 0.0 
0.0 0.0 0.0 
-1.255825633224e-04 2.310498436202e-04 0.0 
2.310498436202e-04 6.033520997672e-03 0.0 
0.0 0.0 0.0 
-1.165054689179e-04 2.452853298617e-04 0.0 
2.452853298617e-04 5.775548074647e-03 0.0 
0.0 0.0 0.0 
-1.278446781258e-04 2.401732731994e-04 0.0 
2.401732731994e-04 5.393721477720e-03 0.0 
0.0 0.0 0.0 
-1.034038837935e-04 2.609848071550e-04 0.0 
2.609848071550e-04 5.512381738019e-03 0.0 
0.0 0.0 0.0 
-1.142919867306e-04 2.587818463619e-04 0.0 
2.587818463619e-04 5.130990254895e-03 0.0 
0.0 0.0 0.0 
-8.577399008469e-05 2.777187539208e-04 0.0 
2.777187539208e-04 5.242165960882e-03 0.0 
0.0 0.0 0.0 
-7.621554341107e-05 2.768636060914e-04 0.0 
2.768636060914e-04 5.628026863733e-03 0.0 
0.0 0.0 0.0 
-5.528680466532e-05 2.900463151359e-04 0.0 
2.900463151359e-04 5.352399045920e-03 0.0 
0.0 0.0 0.0 
-6.331294606304e-05 2.939668378900e-04 0.0 
2.939668378900e-04 4.962696187950e-03 0.0 
0.0 0.0 0.0 
-2.979695492237e-05 3.017572853319e-04 0.0 
3.017572853319e-04 5.069452588607e-03 0.0 
0.0 0.0 0.0 
-3.600415541262e-05 3.085581446616e-04 0.0 
3.085581446616e-04 4.674800003656e-03 0.0 
0.0 0.0 0.0 
3.614035924785e-07 3.109954885657e-04 0.0 
3.109954885657e-04 4.779597493396e-03 0.0 
0.0 0.0 0.0 
-2.998855448207e-06 3.206000214660e-04 0.0 
3.206000214660e-04 4.377972484525e-03 0.0 
0.0 0.0 0.0 
3.481626816467e-05 3.151838760229e-04 0.0 
3.151838760229e-04 4.480412561689e-03 0.0 
0.0 0.0 0.0 
3.423149459662e-05 3.056142998379e-04 0.0 
3.056142998379e-04 4.887918970660e-03 0.0 
0.0 0.0 0.0 
6.824124634356e-05 3.025268769525e-04 0.0 
3.025268769525e-04 4.589332577607e-03 0.0 
0.0 0.0 0.0 
7.206331393972e-05 3.119480941806e-04 0.0 
3.119480941806e-04 4.174065507417e-03 0.0 
0.0 0.0 0.0 
1.031967723750e-04 2.919643708904e-04 0.0 
2.919643708904e-04 4.285756861940e-03 0.0 
0.0 0.0 0.0 
9.679906246710e-05 2.856192497282e-04 0.0 
2.856192497282e-04 4.706574216349e-03 0.0 
0.0 0.0 0.0 
1.281953738418e-04 2.696432132493e-04 0.0 
2.696432132493e-04 4.407316931894e-03 0.0 
0.0 0.0 0.0 
1.199505761130e-04 2.667316895539e-04 0.0 
2.667316895539e-04 4.832048520642e-03 0.0 
0.0 0.0 0.0 
1.474685999954e-04 2.470802438570e-04 0.0 
2.470802438570e-04 4.538104137051e-03 0.0 
0.0 0.0 0.0 
1.564436322774e-04 2.466078634270e-04 0.0 
2.466078634270e-04 4.111774636309e-03 0.0 
0.0 0.0 0.0 
1.711454030764e-04 2.218112655743e-04 0.0 
2.218112655743e-04 4.248619082261e-03 0.0 
0.0 0.0 0.0 
1.617660098076e-04 2.253495278996e-04 0.0 
2.253495278996e-04 4.676276085320e-03 0.0 
0.0 0.0 0.0 
1.812934956954e-04 1.988580307313e-04 0.0 
1.988580307313e-04 4.391693567068e-03 0.0 
0.0 0.0 0.0 
1.891450433107e-04 1.915309727668e-04 0.0 
1.915309727668e-04 3.965074189945e-03 0.0 
0.0 0.0 0.0 
1.955296447122e-04 1.696031393465e-04 0.0 
1.696031393465e-04 4.114733009537e-03 0.0 
0.0 0.0 0.0 
1.878056952623e-04 1.787678443846e-04 0.0 
1.787678443846e-04 4.541915168278e-03 0.0 
0.0 0.0 0.0 
1.989413605231e-04 1.504918500286e-04 0.0 
1.504918500286e-04 4.269983532880e-03 0.0 
0.0 0.0 0.0 
2.035649095120e-04 1.382251372445e-04 0.0 
1.382251372445e-04 3.845377277980e-03 0.0 
0.0 0.0 0.0 
2.045770252067e-04 1.214123697007e-04 0.0 
1.214123697007e-04 4.005520564603e-03 0.0 
0.0 0.0 0.0 
2.001077076813e-04 1.342281465323e-04 0.0 
1.342281465323e-04 4.432160193499e-03 0.0 
0.0 0.0 0.0 
2.040033571526e-04 1.069612829823e-04 0.0 
1.069612829823e-04 4.169432114887e-03 0.0 
0.0 0.0 0.0 
2.047787165350e-04 9.258913448862e-05 0.0 
9.258913448862e-05 3.746773553620e-03 0.0 
0.0 0.0 0.0 
2.032821583245e-04 8.119837427484e-05 0.0 
8.119837427484e-05 3.912930845225e-03 0.0 
0.0 0.0 0.0 
2.022911908149e-04 9.530131488329e-05 0.0 
9.530131488329e-05 4.338376578459e-03 0.0 
0.0 0.0 0.0 
2.010581921579e-04 7.175590589595e-05 0.0 
7.175590589595e-05 4.082233766421e-03 0.0 
0.0 0.0 0.0 
1.995190968931e-04 8.554214432189e-05 0.0 
8.554214432189e-05 4.510047262402e-03 0.0 
0.0 0.0 0.0 
1.981393584135e-04 5.703129459174e-05 0.0 
5.703129459174e-05 3.658410416987e-03 0.0 
0.0 0.0 0.0 
1.961358131323e-04 5.009645310060e-05 0.0 
5.009645310060e-05 3.829861585736e-03 0.0 
0.0 0.0 0.0 
1.891997644708e-04 3.569303427941e-05 0.0 
3.569303427941e-05 3.407030052105e-03 0.0 
0.0 0.0 0.0 
1.880729290366e-04 3.125102538327e-05 0.0 
3.125102538327e-05 3.581833638988e-03 0.0 
0.0 0.0 0.0 
-4.801139275429e-05 2.873790780586e-04 0.0 
2.873790780586e-04 5.743401407365e-03 0.0 
0.0 0.0 0.0 
1.775274127829e-04 1.776917535270e-05 0.0 
1.776917535270e-05 3.160986980462e-03 0.0 
0.0 0.0 0.0 
1.770840049943e-04 2.089211591012e-05 0.0 
2.089211591012e-05 2.991092923809e-03 0.0 
0.0 0.0 0.0 
1.775779363440e-04 1.552319887485e-05 0.0 
1.552319887485e-05 3.338077619793e-03 0.0 
0.0 0.0 0.0 
1.864947531357e-04 2.805865702544e-05 0.0 
2.805865702544e-05 3.761072387031e-03 0.0 
0.0 0.0 0.0 
1.636663263789e-04 3.224237649267e-06 0.0 
3.224237649267e-06 2.918641100288e-03 0.0 
0.0 0.0 0.0 
1.652900738125e-04 3.187633928383e-06 0.0 
3.187633928383e-06 3.097560855168e-03 0.0 
0.0 0.0 0.0 
1.480621385931e-04 -7.047670180042e-06 0.0 
-7.047670180042e-06 2.680269954790e-03 0.0 
0.0 0.0 0.0 
-4.323117827846e-05 3.174089258319e-04 0.0 
3.174089258319e-04 4.273539433638e-03 0.0 
0.0 0.0 0.0 
-1.330075349460e-04 1.991745439303e-04 0.0 
1.991745439303e-04 6.782313211319e-03 0.0 
0.0 0.0 0.0 
1.515111510259e-04 -5.286488009627e-06 0.0 
-5.286488009627e-06 2.860203904494e-03 0.0 
0.0 0.0 0.0 
1.316473376848e-04 -1.417932758496e-05 0.0 
-1.417932758496e-05 2.444763779635e-03 0.0 
0.0 0.0 0.0 
1.262778630804e-04 -1.636174713290e-05 0.0 
-1.636174713290e-05 2.265379984867e-03 0.0 
0.0 0.0 0.0 
1.088318116641e-04 -2.114097030096e-05 0.0 
-2.114097030096e-05 2.031565754777e-03 0.0 
0.0 0.0 0.0 
-1.297302596081e-04 6.789096027099e-05 0.0 
6.789096027099e-05 6.522981799100e-03 0.0 
0.0 0.0 0.0 
-1.224318648109e-04 8.534656440273e-05 0.0 
8.534656440273e-05 6.924889344755e-03 0.0 
0.0 0.0 0.0 
-1.212784377730e-04 6.831300606411e-05 0.0 
6.831300606411e-05 6.738545579545e-03 0.0 
0.0 0.0 0.0 
-1.122695654592e-04 8.377261791623e-05 0.0 
8.377261791623e-05 7.152399348475e-03 0.0 
0.0 0.0 0.0 
-1.117777897231e-04 6.793673099765e-05 0.0 
6.793673099765e-05 6.972377014052e-03 0.0 
0.0 0.0 0.0 
1.160456910620e-04 -1.844544331196e-05 0.0 
-1.844544331196e-05 2.210188184876e-03 0.0 
0.0 0.0 0.0 
-1.275170414413e-04 1.402632125178e-04 0.0 
1.402632125178e-04 7.194624928039e-03 0.0 
0.0 0.0 0.0 
-1.108387246234e-04 1.005802703208e-04 0.0 
1.005802703208e-04 7.328115422409e-03 0.0 
0.0 0.0 0.0 
-1.674195528433e-04 1.587493196840e-04 0.0 
1.587493196840e-04 5.629502630919e-03 0.0 
0.0 0.0 0.0 
-1.388359450106e-04 2.342410891891e-04 0.0 
2.342410891891e-04 5.014959441363e-03 0.0 
0.0 0.0 0.0 
9.031987253105e-05 2.803854327844e-04 0.0 
2.803854327844e-04 5.127720856576e-03 0.0 
0.0 0.0 0.0 
1.667278016998e-04 3.385717857720e-06 0.0 
3.385717857720e-06 3.277821263958e-03 0.0 
0.0 0.0 0.0 
1.547024876297e-04 -3.008964330837e-06 0.0 
-3.008964330837e-06 3.041438790186e-03 0.0 
0.0 0.0 0.0 
1.668512407192e-04 3.413779656488e-06 0.0 
3.413779656488e-06 3.460215749297e-03 0.0 
0.0 0.0 0.0 
1.973522473253e-04 1.084694584920e-04 0.0 
1.084694584920e-04 4.768824056833e-03 0.0 
0.0 0.0 0.0 
1.938395463013e-04 9.854706133658e-05 0.0 
9.854706133658e-05 4.941158316022e-03 0.0 
0.0 0.0 0.0 
1.886911101468e-04 1.210236337585e-04 0.0 
1.210236337585e-04 5.202214431421e-03 0.0 
0.0 0.0 0.0 
1.842648876550e-04 1.108966373811e-04 0.0 
1.108966373811e-04 5.374622226289e-03 0.0 
0.0 0.0 0.0 
1.764218384738e-04 1.329822781487e-04 0.0 
1.329822781487e-04 5.637670433183e-03 0.0 
0.0 0.0 0.0 
1.709073891356e-04 1.228347223185e-04 0.0 
1.228347223185e-04 5.810334517246e-03 0.0 
0.0 0.0 0.0 
1.785725465498e-04 1.016076287906e-04 0.0 
1.016076287906e-04 5.549311776522e-03 0.0 
0.0 0.0 0.0 
1.638697412247e-04 1.130151584825e-04 0.0 
1.130151584825e-04 5.985480966846e-03 0.0 
0.0 0.0 0.0 
1.717755280315e-04 9.290531338357e-05 0.0 
9.290531338357e-05 5.726122969126e-03 0.0 
0.0 0.0 0.0 
1.606770134277e-04 1.447349733078e-04 0.0 
1.447349733078e-04 6.074916752004e-03 0.0 
0.0 0.0 0.0 
1.655964199828e-04 1.553656431157e-04 0.0 
1.553656431157e-04 5.903987661461e-03 0.0 
0.0 0.0 0.0 
1.557055405695e-04 1.035439223214e-04 0.0 
1.035439223214e-04 6.162662910867e-03 0.0 
0.0 0.0 0.0 
1.640706793754e-04 8.468579898787e-05 0.0 
8.468579898787e-05 5.904936502586e-03 0.0 
0.0 0.0 0.0 
1.467062016289e-04 9.448876167280e-05 0.0 
9.448876167280e-05 6.342169810242e-03 0.0 
0.0 0.0 0.0 
1.556832373728e-04 7.633993427598e-05 0.0 
7.633993427598e-05 6.085609897646e-03 0.0 
0.0 0.0 0.0 
1.701103466044e-04 6.723455332758e-05 0.0 
6.723455332758e-05 5.649593050468e-03 0.0 
0.0 0.0 0.0 
1.626010548343e-04 5.994719368725e-05 0.0 
5.994719368725e-05 5.830945164946e-03 0.0 
0.0 0.0 0.0 
1.738617148269e-04 5.132911674552e-05 0.0 
5.132911674552e-05 5.398596377206e-03 0.0 
0.0 0.0 0.0 
1.114295593672e-04 2.645451258102e-04 0.0 
2.645451258102e-04 5.256735339817e-03 0.0 
0.0 0.0 0.0 
8.358066593857e-05 2.770286380633e-04 0.0 
2.770286380633e-04 5.549568271433e-03 0.0 
0.0 0.0 0.0 
1.025935049321e-04 2.638804311422e-04 0.0 
2.638804311422e-04 5.681342564713e-03 0.0 
0.0 0.0 0.0 
7.645435431021e-05 2.757125667773e-04 0.0 
2.757125667773e-04 5.971596567200e-03 0.0 
0.0 0.0 0.0 
9.315163910488e-05 2.649572526844e-04 0.0 
2.649572526844e-04 6.106352548849e-03 0.0 
0.0 0.0 0.0 
6.860761271562e-05 2.767489891881e-04 0.0 
2.767489891881e-04 6.393999250617e-03 0.0 
0.0 0.0 0.0 
8.260577218958e-05 2.683106387157e-04 0.0 
2.683106387157e-04 6.531091948824e-03 0.0 
0.0 0.0 0.0 
1.057072079013e-04 2.536591865249e-04 0.0 
2.536591865249e-04 6.246419741974e-03 0.0 
0.0 0.0 0.0 
-1.318284340811e-04 1.651289352685e-04 0.0 
1.651289352685e-04 7.111745213004e-03 0.0 
0.0 0.0 0.0 
1.098500279977e-04 2.991598142722e-04 0.0 
2.991598142722e-04 3.864143781620e-03 0.0 
0.0 0.0 0.0 
7.601780582456e-05 3.226820416726e-04 0.0 
3.226820416726e-04 3.757898439293e-03 0.0 
0.0 0.0 0.0 
1.168605690958e-04 3.067102561076e-04 0.0 
3.067102561076e-04 3.440705830895e-03 0.0 
0.0 0.0 0.0 
8.026804720510e-05 3.345885550894e-04 0.0 
3.345885550894e-04 3.340896058786e-03 0.0 
0.0 0.0 0.0 
1.243399546584e-04 3.136910410475e-04 0.0 
3.136910410475e-04 3.014317540608e-03 0.0 
0.0 0.0 0.0 
8.498791670856e-05 3.470347305169e-04 0.0 
3.470347305169e-04 2.922618674825e-03 0.0 
0.0 0.0 0.0 
1.318083158537e-04 3.186880338029e-04 0.0 
3.186880338029e-04 2.583116391477e-03 0.0 
0.0 0.0 0.0 
1.611344104314e-04 2.756562432812e-04 0.0 
2.756562432812e-04 2.690576639406e-03 0.0 
0.0 0.0 0.0 
1.667758765362e-04 2.686820742003e-04 0.0 
2.686820742003e-04 2.249772766598e-03 0.0 
0.0 0.0 0.0 
1.843199582252e-04 2.225576589353e-04 0.0 
2.225576589353e-04 2.378450595261e-03 0.0 
0.0 0.0 0.0 
1.810813678799e-04 2.016684368794e-04 0.0 
2.016684368794e-04 1.935487365425e-03 0.0 
0.0 0.0 0.0 
1.888874881005e-04 1.613990463280e-04 0.0 
1.613990463280e-04 2.083823102757e-03 0.0 
0.0 0.0 0.0 
-1.048610491026e-04 2.503853926384e-04 0.0 
2.503853926384e-04 6.160252837405e-03 0.0 
0.0 0.0 0.0 
5.091385643012e-05 2.842522693016e-04 0.0 
2.842522693016e-04 6.260581989727e-03 0.0 
0.0 0.0 0.0 
4.528969593883e-05 2.865402536632e-04 0.0 
2.865402536632e-04 6.680840467224e-03 0.0 
0.0 0.0 0.0 
2.752521982726e-05 2.902511496916e-04 0.0 
2.902511496916e-04 6.544692346949e-03 0.0 
0.0 0.0 0.0 
1.001829566977e-04 -2.414789878291e-05 0.0 
-2.414789878291e-05 1.853096851664e-03 0.0 
0.0 0.0 0.0 
1.469050768289e-04 6.764438542631e-05 0.0 
6.764438542631e-05 6.268191312211e-03 0.0 
0.0 0.0 0.0 
1.478019298679e-04 1.665216907125e-04 0.0 
1.665216907125e-04 6.342959506731e-03 0.0 
0.0 0.0 0.0 
1.518848933599e-04 1.773377661907e-04 0.0 
1.773377661907e-04 6.172434201670e-03 0.0 
0.0 0.0 0.0 
9.252472239259e-05 2.598633611320e-04 0.0 
2.598633611320e-04 6.675027189275e-03 0.0 
0.0 0.0 0.0 
9.242733858594e-05 -2.250856603327e-05 0.0 
-2.250856603327e-05 1.802341896489e-03 0.0 
0.0 0.0 0.0 
8.989210287080e-05 3.584413523590e-04 0.0 
3.584413523590e-04 2.502926467261e-03 0.0 
0.0 0.0 0.0 
3.441960152376e-05 3.703115040069e-04 0.0 
3.703115040069e-04 2.850833665775e-03 0.0 
0.0 0.0 0.0 
-1.007369442765e-04 8.173045927163e-05 0.0 
8.173045927163e-05 7.379417397157e-03 0.0 
0.0 0.0 0.0 
-1.009057975263e-04 6.737853196406e-05 0.0 
6.737853196406e-05 7.198551799466e-03 0.0 
0.0 0.0 0.0 
1.325151069091e-04 1.883360714676e-04 0.0 
1.883360714676e-04 6.614321413903e-03 0.0 
0.0 0.0 0.0 
1.013033796385e-04 -1.862074275759e-05 0.0 
-1.862074275759e-05 1.979392415228e-03 0.0 
0.0 0.0 0.0 
1.448909360440e-04 1.238438949069e-04 0.0 
1.238438949069e-04 6.423958138040e-03 0.0 
0.0 0.0 0.0 
1.680693582514e-04 2.520455846531e-04 0.0 
2.520455846531e-04 1.805211034794e-03 0.0 
0.0 0.0 0.0 
1.549989435456e-04 5.261516575052e-05 0.0 
5.261516575052e-05 6.014010363824e-03 0.0 
0.0 0.0 0.0 
1.374186398379e-04 5.868686490430e-05 0.0 
5.868686490430e-05 6.452130876874e-03 0.0 
0.0 0.0 0.0 
1.836084192396e-04 8.173473175737e-05 0.0 
8.173473175737e-05 5.292634458684e-03 0.0 
0.0 0.0 0.0 
2.464958888249e-05 2.943556481623e-04 0.0 
2.943556481623e-04 6.964614445023e-03 0.0 
0.0 0.0 0.0 
7.363850208127e-06 2.937197586587e-04 0.0 
2.937197586587e-04 6.823588155998e-03 0.0 
0.0 0.0 0.0 
1.930525974352e-04 1.837337661966e-04 0.0 
1.837337661966e-04 2.524789586225e-03 0.0 
0.0 0.0 0.0 
1.897352773246e-04 1.284589491818e-04 0.0 
1.284589491818e-04 2.244907806342e-03 0.0 
0.0 0.0 0.0 
1.729174480315e-04 1.003283661691e-04 0.0 
1.003283661691e-04 1.821386907589e-03 0.0 
0.0 0.0 0.0 
1.727981153810e-04 7.939271465578e-05 0.0 
7.939271465578e-05 1.995236293767e-03 0.0 
0.0 0.0 0.0 
1.911547131771e-04 1.051165788209e-04 0.0 
1.051165788209e-04 2.411991436777e-03 0.0 
0.0 0.0 0.0 
1.748623219446e-04 6.246039945392e-05 0.0 
6.246039945392e-05 2.152625426345e-03 0.0 
0.0 0.0 0.0 
1.482237164589e-04 3.700741940468e-05 0.0 
3.700741940468e-05 1.737541705244e-03 0.0 
0.0 0.0 0.0 
1.497381783792e-04 2.572066488792e-05 0.0 
2.572066488792e-05 1.904932826851e-03 0.0 
0.0 0.0 0.0 
1.757638759784e-04 4.887232763262e-05 0.0 
4.887232763262e-05 2.322354742548e-03 0.0 
0.0 0.0 0.0 
1.524772509932e-04 1.768633413906e-05 0.0 
1.768633413906e-05 2.076492946122e-03 0.0 
0.0 0.0 0.0 
1.196798738735e-04 -3.013260791976e-06 0.0 
-3.013260791976e-06 1.662875809667e-03 0.0 
0.0 0.0 0.0 
1.252178942095e-04 -5.846031951325e-06 0.0 
-5.846031951325e-06 1.835686560970e-03 0.0 
0.0 0.0 0.0 
1.261599372220e-04 7.485706207038e-05 0.0 
7.485706207038e-05 6.707355764861e-03 0.0 
0.0 0.0 0.0 
1.675958105462e-04 1.668553468007e-04 0.0 
1.668553468007e-04 1.494545757282e-03 0.0 
0.0 0.0 0.0 
-1.655883631328e-04 1.169509934825e-04 0.0 
1.169509934825e-04 5.949677826656e-03 0.0 
0.0 0.0 0.0 
1.266331851792e-04 1.782601577822e-04 0.0 
1.782601577822e-04 6.782761744565e-03 0.0 
0.0 0.0 0.0 
7.028260661964e-05 2.750752202610e-04 0.0 
2.750752202610e-04 6.952981928185e-03 0.0 
0.0 0.0 0.0 
-8.840637889070e-05 7.988262424800e-05 0.0 
7.988262424800e-05 7.606913302624e-03 0.0 
0.0 0.0 0.0 
-8.986678761539e-05 6.655377390019e-05 0.0 
6.655377390019e-05 7.425839019539e-03 0.0 
0.0 0.0 0.0 
-1.003511870422e-04 5.574925599420e-05 0.0 
5.574925599420e-05 7.013670670635e-03 0.0 
0.0 0.0 0.0 
-9.091157855279e-05 5.507476975842e-05 0.0 
5.507476975842e-05 7.242951004570e-03 0.0 
0.0 0.0 0.0 
-7.891375329233e-05 6.469973308094e-05 0.0 
6.469973308094e-05 7.654699356955e-03 0.0 
0.0 0.0 0.0 
-8.087992359653e-05 5.369963905470e-05 0.0 
5.369963905470e-05 7.471531094094e-03 0.0 
0.0 0.0 0.0 
-9.131166037254e-05 4.438876412067e-05 0.0 
4.438876412067e-05 7.057671605623e-03 0.0 
0.0 0.0 0.0 
-8.158059826678e-05 4.363443335186e-05 0.0 
4.363443335186e-05 7.285581035677e-03 0.0 
0.0 0.0 0.0 
-9.007182338557e-05 3.489273168067e-05 0.0 
3.489273168067e-05 6.869505346224e-03 0.0 
0.0 0.0 0.0 
-8.164121603627e-05 3.483521733957e-05 0.0 
3.483521733957e-05 7.097989327126e-03 0.0 
0.0 0.0 0.0 
-7.159752948308e-05 4.223359861682e-05 0.0 
4.223359861682e-05 7.513571316556e-03 0.0 
0.0 0.0 0.0 
-7.301329965768e-05 3.334265991301e-05 0.0 
3.334265991301e-05 7.326951629787e-03 0.0 
0.0 0.0 0.0 
-8.215553697917e-05 2.732189564621e-05 0.0 
2.732189564621e-05 6.910142602394e-03 0.0 
0.0 0.0 0.0 
-7.421083809306e-05 2.543924014330e-05 0.0 
2.543924014330e-05 7.138973745576e-03 0.0 
0.0 0.0 0.0 
-8.241400250060e-05 2.021981208752e-05 0.0 
2.021981208752e-05 6.720445653967e-03 0.0 
0.0 0.0 0.0 
-7.421449645989e-05 1.811416881409e-05 0.0 
1.811416881409e-05 6.947586705429e-03 0.0 
0.0 0.0 0.0 
-6.582479343749e-05 2.424680008867e-05 0.0 
2.424680008867e-05 7.367957436995e-03 0.0 
0.0 0.0 0.0 
7.963873762229e-05 -2.026633063934e-05 0.0 
-2.026633063934e-05 1.582941993238e-03 0.0 
0.0 0.0 0.0 
1.137821215040e-04 2.429225344703e-04 0.0 
2.429225344703e-04 6.392372506425e-03 0.0 
0.0 0.0 0.0 
9.718632030886e-05 2.521989734306e-04 0.0 
2.521989734306e-04 6.828048851608e-03 0.0 
0.0 0.0 0.0 
1.552550699943e-04 -4.379706685760e-06 0.0 
-4.379706685760e-06 3.236111140363e-03 0.0 
0.0 0.0 0.0 
1.679422525684e-04 2.012871178943e-06 0.0 
2.012871178943e-06 3.638265447359e-03 0.0 
0.0 0.0 0.0 
1.752177561200e-04 1.393341421395e-05 0.0 
1.393341421395e-05 3.880677433295e-03 0.0 
0.0 0.0 0.0 
1.754887375743e-04 1.263419804683e-05 0.0 
1.263419804683e-05 4.066313891726e-03 0.0 
0.0 0.0 0.0 
-6.711691796391e-05 1.701043122314e-05 0.0 
1.701043122314e-05 7.174695140723e-03 0.0 
0.0 0.0 0.0 
-5.911975686200e-05 2.290560538741e-05 0.0 
2.290560538741e-05 7.597464375792e-03 0.0 
0.0 0.0 0.0 
3.365818421662e-05 3.862251725794e-04 0.0 
3.862251725794e-04 2.450320456211e-03 0.0 
0.0 0.0 0.0 
-2.490376858177e-05 3.744568342649e-04 0.0 
3.744568342649e-04 2.798428407109e-03 0.0 
0.0 0.0 0.0 
-8.589203509041e-05 9.476473556093e-05 0.0 
9.476473556093e-05 7.785117910905e-03 0.0 
0.0 0.0 0.0 
1.463693841156e-04 4.406680344842e-05 0.0 
4.406680344842e-05 6.200645075101e-03 0.0 
0.0 0.0 0.0 
1.608293225330e-04 3.930050832121e-05 0.0 
3.930050832121e-05 5.764545550638e-03 0.0 
0.0 0.0 0.0 
-1.253736310725e-04 2.556104913628e-04 0.0 
2.556104913628e-04 4.753133519173e-03 0.0 
0.0 0.0 0.0 
-1.492785873539e-04 2.265655418924e-04 0.0 
2.265655418924e-04 4.638338358195e-03 0.0 
0.0 0.0 0.0 
-1.363167422904e-04 2.501375400145e-04 0.0 
2.501375400145e-04 4.376506402848e-03 0.0 
0.0 0.0 0.0 
-1.586892422739e-04 2.157450931610e-04 0.0 
2.157450931610e-04 4.256790347993e-03 0.0 
0.0 0.0 0.0 
-1.668845006339e-04 1.940674744639e-04 0.0 
1.940674744639e-04 4.515631159280e-03 0.0 
0.0 0.0 0.0 
-1.472621709995e-04 2.407289413679e-04 0.0 
2.407289413679e-04 3.992773157511e-03 0.0 
0.0 0.0 0.0 
1.684930047331e-04 1.669672382751e-04 0.0 
1.669672382751e-04 5.731841850716e-03 0.0 
0.0 0.0 0.0 
-6.187983253699e-05 3.961061818401e-05 0.0 
3.961061818401e-05 7.742412294220e-03 0.0 
0.0 0.0 0.0 
1.197110438357e-04 -1.766960281744e-05 0.0 
-1.766960281744e-05 2.088407642199e-03 0.0 
0.0 0.0 0.0 
9.103053951380e-05 -2.563062813110e-05 0.0 
-2.563062813110e-05 1.677857207999e-03 0.0 
0.0 0.0 0.0 
1.259926938590e-04 4.905858719469e-05 0.0 
4.905858719469e-05 6.640547529679e-03 0.0 
0.0 0.0 0.0 
1.278788596309e-04 2.367360731417e-04 0.0 
2.367360731417e-04 5.961055187619e-03 0.0 
0.0 0.0 0.0 
-1.130505506413e-04 2.386024286431e-04 0.0 
2.386024286431e-04 6.419248668157e-03 0.0 
0.0 0.0 0.0 
-9.288242082534e-05 2.561642661024e-04 0.0 
2.561642661024e-04 6.548509306795e-03 0.0 
0.0 0.0 0.0 
-9.989252880902e-05 2.468473635651e-04 0.0 
2.468473635651e-04 6.808928449827e-03 0.0 
0.0 0.0 0.0 
-8.046345310399e-05 2.634337801852e-04 0.0 
2.634337801852e-04 6.940446306798e-03 0.0 
0.0 0.0 0.0 
-8.600766155009e-05 2.562815524615e-04 0.0 
2.562815524615e-04 7.201963953147e-03 0.0 
0.0 0.0 0.0 
-6.796566690994e-05 2.722165528673e-04 0.0 
2.722165528673e-04 7.334382319564e-03 0.0 
0.0 0.0 0.0 
-6.082526123145e-05 2.774050208891e-04 0.0 
2.774050208891e-04 7.071784198055e-03 0.0 
0.0 0.0 0.0 
8.366499268497e-06 3.009530083937e-04 0.0 
3.009530083937e-04 7.243127834318e-03 0.0 
0.0 0.0 0.0 
-5.049644837091e-05 2.857627286103e-04 0.0 
2.857627286103e-04 7.469015973709e-03 0.0 
0.0 0.0 0.0 
-7.251216125331e-05 1.523130675858e-05 0.0 
1.523130675858e-05 6.748094438167e-03 0.0 
0.0 0.0 0.0 
3.010372198542e-05 2.903162681504e-04 0.0 
2.903162681504e-04 6.125792820626e-03 0.0 
0.0 0.0 0.0 
1.763846696609e-04 3.867340005312e-05 0.0 
3.867340005312e-05 2.495685032057e-03 0.0 
0.0 0.0 0.0 
6.656791193142e-05 -2.655712560882e-05 0.0 
-2.655712560882e-05 1.402041084491e-03 0.0 
0.0 0.0 0.0 
8.428858834431e-05 -2.063865252949e-05 0.0 
-2.063865252949e-05 1.417576510438e-03 0.0 
0.0 0.0 0.0 
8.780175424761e-05 -1.539035675322e-05 0.0 
-1.539035675322e-05 1.743920539919e-03 0.0 
0.0 0.0 0.0 
1.093448940126e-04 -1.303735198962e-05 0.0 
-1.303735198962e-05 2.156817550635e-03 0.0 
0.0 0.0 0.0 
1.099350333711e-04 2.006703400179e-04 0.0 
2.006703400179e-04 7.055604547119e-03 0.0 
0.0 0.0 0.0 
-7.173687136171e-05 2.674709734904e-04 0.0 
2.674709734904e-04 7.596678193348e-03 0.0 
0.0 0.0 0.0 
-8.795758489864e-05 2.501890864113e-04 0.0 
2.501890864113e-04 7.456687307738e-03 0.0 
0.0 0.0 0.0 
-1.716147884147e-04 1.794973237314e-04 0.0 
1.794973237314e-04 4.136294469966e-03 0.0 
0.0 0.0 0.0 
-1.764322664208e-04 1.572042704556e-04 0.0 
1.572042704556e-04 4.387783783695e-03 0.0 
0.0 0.0 0.0 
2.278289868326e-05 3.018521522390e-04 0.0 
3.018521522390e-04 7.382409044362e-03 0.0 
0.0 0.0 0.0 
-1.167274738686e-04 5.584617191789e-05 0.0 
5.584617191789e-05 6.561184038366e-03 0.0 
0.0 0.0 0.0 
-9.831650675666e-05 3.467396534336e-05 0.0 
3.467396534336e-05 6.642354056116e-03 0.0 
0.0 0.0 0.0 
-9.557437204742e-05 2.661640895159e-05 0.0 
2.661640895159e-05 6.450431204951e-03 0.0 
0.0 0.0 0.0 
6.630374183844e-05 -1.991639936917e-05 0.0 
-1.991639936917e-05 1.300440270197e-03 0.0 
0.0 0.0 0.0 
7.756612095851e-05 -1.817124243535e-05 0.0 
-1.817124243535e-05 1.262000519614e-03 0.0 
0.0 0.0 0.0 
-6.756001047866e-05 6.239918717139e-05 0.0 
6.239918717139e-05 7.883481366587e-03 0.0 
0.0 0.0 0.0 
-1.759587683901e-05 3.604177993283e-04 0.0 
3.604177993283e-04 3.181967231529e-03 0.0 
0.0 0.0 0.0 
-7.203357330808e-05 3.446512610484e-04 0.0 
3.446512610484e-04 3.120124908412e-03 0.0 
0.0 0.0 0.0 
1.570791593784e-04 2.182821945332e-04 0.0 
2.182821945332e-04 1.355929086291e-03 0.0 
0.0 0.0 0.0 
1.266642123114e-04 1.189906133523e-04 0.0 
1.189906133523e-04 1.060178877397e-03 0.0 
0.0 0.0 0.0 
-5.838859011888e-05 1.878724851322e-05 0.0 
1.878724851322e-05 7.397602995530e-03 0.0 
0.0 0.0 0.0 
-4.888424542980e-05 2.119463198359e-05 0.0 
2.119463198359e-05 7.816266381800e-03 0.0 
0.0 0.0 0.0 
1.813091314108e-04 2.176469319206e-05 0.0 
2.176469319206e-05 4.304607151599e-03 0.0 
0.0 0.0 0.0 
1.778510213984e-04 1.824626456687e-05 0.0 
1.824626456687e-05 4.489858105008e-03 0.0 
0.0 0.0 0.0 
1.154958617913e-04 2.103038377703e-04 0.0 
2.103038377703e-04 6.890043337918e-03 0.0 
0.0 0.0 0.0 
9.607449457638e-05 -2.088690281454e-05 0.0 
-2.088690281454e-05 1.599270241492e-03 0.0 
0.0 0.0 0.0 
-4.615808782110e-05 2.636005908676e-05 0.0 
2.636005908676e-05 8.014451064654e-03 0.0 
0.0 0.0 0.0 
1.339202183492e-04 2.241088851231e-04 0.0 
2.241088851231e-04 6.111829847376e-03 0.0 
0.0 0.0 0.0 
1.483646918206e-04 2.169331639465e-04 0.0 
2.169331639465e-04 5.677893950525e-03 0.0 
0.0 0.0 0.0 
1.711178443210e-04 8.484448123780e-06 0.0 
8.484448123780e-06 3.820849693729e-03 0.0 
0.0 0.0 0.0 
-3.516902620193e-05 3.875949076022e-04 0.0 
3.875949076022e-04 2.426488811501e-03 0.0 
0.0 0.0 0.0 
2.976711679731e-05 4.012132812919e-04 0.0 
4.012132812919e-04 2.056011338372e-03 0.0 
0.0 0.0 0.0 
1.924359946842e-04 7.077627669350e-05 0.0 
7.077627669350e-05 2.745731212925e-03 0.0 
0.0 0.0 0.0 
1.313306173359e-04 -7.038241500450e-06 0.0 
-7.038241500450e-06 2.010918855827e-03 0.0 
0.0 0.0 0.0 
9.628915112629e-05 -1.130236233941e-05 0.0 
-1.130236233941e-05 1.921396218609e-03 0.0 
0.0 0.0 0.0 
9.155915546274e-05 2.252955547102e-04 0.0 
2.252955547102e-04 7.331740399072e-03 0.0 
0.0 0.0 0.0 
-6.316806215547e-05 7.429330496957e-05 0.0 
7.429330496957e-05 8.062152639853e-03 0.0 
0.0 0.0 0.0 
-4.204988597323e-05 2.869365055815e-04 0.0 
2.869365055815e-04 7.205242686299e-03 0.0 
0.0 0.0 0.0 
-5.012693390503e-05 2.823062878550e-04 0.0 
2.823062878550e-04 6.803462332756e-03 0.0 
0.0 0.0 0.0 
-3.123879464149e-05 2.964575978479e-04 0.0 
2.964575978479e-04 7.606722309629e-03 0.0 
0.0 0.0 0.0 
5.561058276830e-05 -3.060567835878e-05 0.0 
-3.060567835878e-05 1.194243915068e-03 0.0 
0.0 0.0 0.0 
1.004905647965e-04 1.903031936088e-04 0.0 
1.903031936088e-04 7.230651839700e-03 0.0 
0.0 0.0 0.0 
1.354998919205e-04 3.450353571048e-05 0.0 
3.450353571048e-05 6.391321552192e-03 0.0 
0.0 0.0 0.0 
-7.333317322208e-05 2.643801445419e-04 0.0 
2.643801445419e-04 7.837155959641e-03 0.0 
0.0 0.0 0.0 
-8.586487440380e-05 2.454672091060e-04 0.0 
2.454672091060e-04 7.706476070324e-03 0.0 
0.0 0.0 0.0 
-6.091615383288e-05 3.372382340789e-04 0.0 
3.372382340789e-04 3.493232201147e-03 0.0 
0.0 0.0 0.0 
-1.071723624072e-04 3.079320017206e-04 0.0 
3.079320017206e-04 3.423985404209e-03 0.0 
0.0 0.0 0.0 
-1.194725963972e-04 3.052158616164e-04 0.0 
3.052158616164e-04 3.060569117190e-03 0.0 
0.0 0.0 0.0 
-1.419461008394e-04 2.669857824590e-04 0.0 
2.669857824590e-04 3.345393119953e-03 0.0 
0.0 0.0 0.0 
-1.603341554975e-04 9.085955156073e-05 0.0 
9.085955156073e-05 6.018853591702e-03 0.0 
0.0 0.0 0.0 
-9.474761069371e-05 3.073546128179e-04 0.0 
3.073546128179e-04 3.794915406063e-03 0.0 
0.0 0.0 0.0 
-1.698578740386e-04 1.235988161101e-04 0.0 
1.235988161101e-04 5.718126755113e-03 0.0 
0.0 0.0 0.0 
-1.704761867147e-04 9.988444545612e-05 0.0 
9.988444545612e-05 5.563832117878e-03 0.0 
0.0 0.0 0.0 
-1.742802120896e-04 1.066002647621e-04 0.0 
1.066002647621e-04 5.336158972529e-03 0.0 
0.0 0.0 0.0 
-1.721004447182e-04 1.731091719077e-04 0.0 
1.731091719077e-04 4.763364113947e-03 0.0 
0.0 0.0 0.0 
-1.781982233841e-04 1.390317120496e-04 0.0 
1.390317120496e-04 4.629840547850e-03 0.0 
0.0 0.0 0.0 
3.494197832373e-05 3.397614431541e-04 0.0 
3.397614431541e-04 3.661165177339e-03 0.0 
0.0 0.0 0.0 
6.040007472785e-05 2.888488683725e-04 0.0 
2.888488683725e-04 5.421875829608e-03 0.0 
0.0 0.0 0.0 
1.824296958599e-04 2.411692927927e-05 0.0 
2.411692927927e-05 4.123020643078e-03 0.0 
0.0 0.0 0.0 
1.802057540562e-04 5.736177697417e-05 0.0 
5.736177697417e-05 5.218470663564e-03 0.0 
0.0 0.0 0.0 
1.915616123505e-04 1.325566469437e-04 0.0 
1.325566469437e-04 5.031507504858e-03 0.0 
0.0 0.0 0.0 
-5.922508312671e-05 4.926352885233e-05 0.0 
4.926352885233e-05 7.925297498074e-03 0.0 
0.0 0.0 0.0 
-4.917103773962e-05 4.528624674503e-05 0.0 
4.528624674503e-05 8.156519826990e-03 0.0 
0.0 0.0 0.0 
-8.889606249675e-05 2.129960809486e-05 0.0 
2.129960809486e-05 6.491049361806e-03 0.0 
0.0 0.0 0.0 
-8.530243809546e-05 1.416017878923e-05 0.0 
1.416017878923e-05 6.297069313360e-03 0.0 
0.0 0.0 0.0 
7.125092045757e-05 -2.852847704569e-05 0.0 
-2.852847704569e-05 1.442540211766e-03 0.0 
0.0 0.0 0.0 
5.608351530906e-05 -2.868514432863e-05 0.0 
-2.868514432863e-05 1.270310606124e-03 0.0 
0.0 0.0 0.0 
1.957526966264e-04 7.723868245881e-05 0.0 
7.723868245881e-05 4.684787379691e-03 0.0 
0.0 0.0 0.0 
1.173235670231e-04 1.683862264681e-04 0.0 
1.683862264681e-04 6.952812475705e-03 0.0 
0.0 0.0 0.0 
-7.279774761171e-05 9.204745241384e-05 0.0 
9.204745241384e-05 8.009327761012e-03 0.0 
0.0 0.0 0.0 
-6.817380940083e-05 1.069081490676e-04 0.0 
1.069081490676e-04 8.185650342055e-03 0.0 
0.0 0.0 0.0 
-8.167981097216e-05 1.107081720464e-04 0.0 
1.107081720464e-04 7.958160891461e-03 0.0 
0.0 0.0 0.0 
9.774400761827e-05 2.332212740673e-04 0.0 
2.332212740673e-04 7.163082204974e-03 0.0 
0.0 0.0 0.0 
1.447146980126e-04 2.758097098514e-04 0.0 
2.758097098514e-04 3.555768285964e-03 0.0 
0.0 0.0 0.0 
1.280145410165e-04 2.481592420148e-04 0.0 
2.481592420148e-04 5.391517756422e-03 0.0 
0.0 0.0 0.0 
1.321587069738e-04 8.650090129101e-05 0.0 
8.650090129101e-05 1.225165212582e-03 0.0 
0.0 0.0 0.0 
-6.713326830573e-05 2.769728040289e-04 0.0 
2.769728040289e-04 6.016216399775e-03 0.0 
0.0 0.0 0.0 
3.839669313751e-05 -2.837948851395e-05 0.0 
-2.837948851395e-05 1.039251466314e-03 0.0 
0.0 0.0 0.0 
-1.296784039173e-04 1.923015394800e-04 0.0 
1.923015394800e-04 7.023201716938e-03 0.0 
0.0 0.0 0.0 
1.147642484292e-04 3.857466587558e-05 0.0 
3.857466587558e-05 6.832750272819e-03 0.0 
0.0 0.0 0.0 
1.022338479949e-04 5.409959345358e-05 0.0 
5.409959345358e-05 7.080634528872e-03 0.0 
0.0 0.0 0.0 
8.356078545046e-06 3.094410228096e-04 0.0 
3.094410228096e-04 7.653208563221e-03 0.0 
0.0 0.0 0.0 
-1.577780525545e-04 5.815774272740e-05 0.0 
5.815774272740e-05 5.470656061208e-03 0.0 
0.0 0.0 0.0 
-4.137030503948e-05 2.865211062632e-04 0.0 
2.865211062632e-04 6.137026544578e-03 0.0 
0.0 0.0 0.0 
-2.026375700812e-05 2.925840347737e-04 0.0 
2.925840347737e-04 5.861701483156e-03 0.0 
0.0 0.0 0.0 
-1.716821234319e-04 8.311346848088e-05 0.0 
8.311346848088e-05 5.181284250699e-03 0.0 
0.0 0.0 0.0 
-1.746835866751e-04 8.903240588066e-05 0.0 
8.903240588066e-05 4.957598033603e-03 0.0 
0.0 0.0 0.0 
-1.766385524093e-04 1.151904891694e-04 0.0 
1.151904891694e-04 5.106261257871e-03 0.0 
0.0 0.0 0.0 
-1.769070974454e-04 9.710332114295e-05 0.0 
9.710332114295e-05 4.729013989792e-03 0.0 
0.0 0.0 0.0 
1.920617916569e-04 5.840243234830e-05 0.0 
5.840243234830e-05 2.913947094329e-03 0.0 
0.0 0.0 0.0 
1.769380494092e-04 3.074760359374e-05 0.0 
3.074760359374e-05 2.665338637206e-03 0.0 
0.0 0.0 0.0 
-5.535090372693e-05 2.834880640175e-04 0.0 
2.834880640175e-04 8.020904549042e-03 0.0 
0.0 0.0 0.0 
-3.881084095081e-05 3.016041654156e-04 0.0 
3.016041654156e-04 7.861201830609e-03 0.0 
0.0 0.0 0.0 
-6.704503990459e-05 2.597066642181e-04 0.0 
2.597066642181e-04 8.088588932421e-03 0.0 
0.0 0.0 0.0 
-7.649423170429e-05 2.413138060805e-04 0.0 
2.413138060805e-04 7.962355551692e-03 0.0 
0.0 0.0 0.0 
2.249627679389e-05 3.121867225173e-04 0.0 
3.121867225173e-04 7.794284996254e-03 0.0 
0.0 0.0 0.0 
3.508074150423e-05 3.012863993332e-04 0.0 
3.012863993332e-04 7.518804331844e-03 0.0 
0.0 0.0 0.0 
1.140423002994e-04 -1.001586376799e-05 0.0 
-1.001586376799e-05 2.324091867948e-03 0.0 
0.0 0.0 0.0 
-1.781646322319e-04 1.200698363754e-04 0.0 
1.200698363754e-04 4.254804767375e-03 0.0 
0.0 0.0 0.0 
-4.881191021215e-05 7.027281631364e-05 0.0 
7.027281631364e-05 8.290292167134e-03 0.0 
0.0 0.0 0.0 
-1.675506133849e-04 7.846167515500e-05 0.0 
7.846167515500e-05 5.403761947834e-03 0.0 
0.0 0.0 0.0 
8.791165882804e-05 1.785876989142e-04 0.0 
1.785876989142e-04 7.390929314871e-03 0.0 
0.0 0.0 0.0 
1.068872369132e-04 1.577475930069e-04 0.0 
1.577475930069e-04 7.129104734013e-03 0.0 
0.0 0.0 0.0 
6.430282674913e-05 4.587326794690e-05 0.0 
4.587326794690e-05 8.110159960873e-04 0.0 
0.0 0.0 0.0 
7.528491377598e-05 2.047678688009e-05 0.0 
2.047678688009e-05 9.707475665172e-04 0.0 
0.0 0.0 0.0 
-3.764971610855e-05 2.243292128609e-05 0.0 
2.243292128609e-05 8.239344444001e-03 0.0 
0.0 0.0 0.0 
-1.506401056456e-04 2.479229241784e-04 0.0 
2.479229241784e-04 2.982689883864e-03 0.0 
0.0 0.0 0.0 
-1.627632690441e-04 2.119699812243e-04 0.0 
2.119699812243e-04 3.237662583508e-03 0.0 
0.0 0.0 0.0 
-1.316551449476e-04 2.915328312918e-04 0.0 
2.915328312918e-04 2.707512892752e-03 0.0 
0.0 0.0 0.0 
5.424827511569e-05 1.590135941084e-05 0.0 
1.590135941084e-05 7.737444211185e-03 0.0 
0.0 0.0 0.0 
-8.237985646285e-05 1.158043928181e-07 0.0 
1.158043928181e-07 5.475090768034e-03 0.0 
0.0 0.0 0.0 
9.079368395681e-05 4.228012035659e-05 0.0 
4.228012035659e-05 7.276378435273e-03 0.0 
0.0 0.0 0.0 
-1.742048232649e-04 1.562363978896e-04 0.0 
1.562363978896e-04 5.008681343732e-03 0.0 
0.0 0.0 0.0 
-3.140066096476e-05 3.049126102294e-05 0.0 
3.049126102294e-05 8.437099740795e-03 0.0 
0.0 0.0 0.0 
-1.643469952051e-05 2.911738768427e-04 0.0 
2.911738768427e-04 6.264496229736e-03 0.0 
0.0 0.0 0.0 
-1.066740444648e-04 2.803734312996e-04 0.0 
2.803734312996e-04 4.474921434187e-03 0.0 
0.0 0.0 0.0 
1.173527170845e-04 2.199241665731e-04 0.0 
2.199241665731e-04 6.724030739509e-03 0.0 
0.0 0.0 0.0 
-4.221598046743e-05 1.201178851650e-05 0.0 
1.201178851650e-05 8.017156924411e-03 0.0 
0.0 0.0 0.0 
-3.220295071904e-05 1.926668620685e-05 0.0 
1.926668620685e-05 8.474552055668e-03 0.0 
0.0 0.0 0.0 
-1.004973656132e-04 2.676484917534e-05 0.0 
2.676484917534e-05 6.222546670450e-03 0.0 
0.0 0.0 0.0 
-9.988487093149e-05 1.504260413890e-05 0.0 
1.504260413890e-05 6.017957925971e-03 0.0 
0.0 0.0 0.0 
-1.060322077596e-04 3.432222759260e-05 0.0 
3.432222759260e-05 6.403301159718e-03 0.0 
0.0 0.0 0.0 
1.444363577076e-04 3.095256422713e-04 0.0 
3.095256422713e-04 1.702772935241e-03 0.0 
0.0 0.0 0.0 
1.312410988387e-04 2.842494235492e-04 0.0 
2.842494235492e-04 1.221064749851e-03 0.0 
0.0 0.0 0.0 
-5.290719626207e-05 3.686107403258e-05 0.0 
3.686107403258e-05 7.970009342750e-03 0.0 
0.0 0.0 0.0 
1.408810432714e-04 -8.243951598174e-06 0.0 
-8.243951598174e-06 2.808810485027e-03 0.0 
0.0 0.0 0.0 
1.429833561352e-04 -1.697535339825e-06 0.0 
-1.697535339825e-06 3.034385580943e-03 0.0 
0.0 0.0 0.0 
1.053606861073e-04 -2.077376271463e-05 0.0 
-2.077376271463e-05 1.763810249406e-03 0.0 
0.0 0.0 0.0 
1.361924135184e-04 -8.432090171860e-06 0.0 
-8.432090171860e-06 2.173061145258e-03 0.0 
0.0 0.0 0.0 
1.844664305685e-04 3.333829607768e-05 0.0 
3.333829607768e-05 4.547470193140e-03 0.0 
0.0 0.0 0.0 
1.875260313864e-04 3.681412456107e-05 0.0 
3.681412456107e-05 4.367022905537e-03 0.0 
0.0 0.0 0.0 
-1.174812716044e-04 2.126389510297e-04 0.0 
2.126389510297e-04 7.170928077098e-03 0.0 
0.0 0.0 0.0 
-1.129106485883e-04 2.069855255742e-04 0.0 
2.069855255742e-04 7.413187525035e-03 0.0 
0.0 0.0 0.0 
-1.178153880042e-04 2.283396732525e-04 0.0 
2.283396732525e-04 6.673945309314e-03 0.0 
0.0 0.0 0.0 
1.526376072482e-04 2.024075186941e-04 0.0 
2.024075186941e-04 5.833401232650e-03 0.0 
0.0 0.0 0.0 
1.663778065193e-04 1.944924840858e-04 0.0 
1.944924840858e-04 5.399026062174e-03 0.0 
0.0 0.0 0.0 
1.608576544550e-04 2.106168443555e-04 0.0 
2.106168443555e-04 5.247937390017e-03 0.0 
0.0 0.0 0.0 
-4.607602798695e-05 5.489894060787e-05 0.0 
5.489894060787e-05 8.327646781100e-03 0.0 
0.0 0.0 0.0 
-3.346555720490e-05 5.220862530141e-05 0.0 
5.220862530141e-05 8.603006037583e-03 0.0 
0.0 0.0 0.0 
2.016031076558e-04 8.992951910933e-05 0.0 
8.992951910933e-05 3.166708459422e-03 0.0 
0.0 0.0 0.0 
2.014760504875e-04 1.067634124140e-04 0.0 
1.067634124140e-04 3.002771551761e-03 0.0 
0.0 0.0 0.0 
1.914078668022e-04 4.874362292908e-05 0.0 
4.874362292908e-05 3.077437200452e-03 0.0 
0.0 0.0 0.0 
-4.403239506627e-05 8.335468849882e-05 0.0 
8.335468849882e-05 8.467851674736e-03 0.0 
0.0 0.0 0.0 
7.504550058875e-05 6.172865633568e-05 0.0 
6.172865633568e-05 7.520592142143e-03 0.0 
0.0 0.0 0.0 
8.373939240465e-05 6.843222249242e-05 0.0 
6.843222249242e-05 7.329915431556e-03 0.0 
0.0 0.0 0.0 
1.745101465513e-05 -3.210884317070e-05 0.0 
-3.210884317070e-05 8.739478854241e-04 0.0 
0.0 0.0 0.0 
3.803548432590e-05 -3.287053134167e-05 0.0 
-3.287053134167e-05 1.097401590221e-03 0.0 
0.0 0.0 0.0 
-4.926428868746e-05 3.942525809314e-04 0.0 
3.942525809314e-04 2.067444393686e-03 0.0 
0.0 0.0 0.0 
2.604523546533e-05 4.041999643954e-04 0.0 
4.041999643954e-04 1.668200693342e-03 0.0 
0.0 0.0 0.0 
-6.177241747501e-05 1.233592020217e-04 0.0 
1.233592020217e-04 8.347893558504e-03 0.0 
0.0 0.0 0.0 
-7.648812801597e-05 1.284660847742e-04 0.0 
1.284660847742e-04 8.132072435246e-03 0.0 
0.0 0.0 0.0 
-4.503685614050e-05 1.189207740718e-04 0.0 
1.189207740718e-04 8.608693847122e-03 0.0 
0.0 0.0 0.0 
1.012785448736e-04 -5.260044438438e-06 0.0 
-5.260044438438e-06 2.061553538772e-03 0.0 
0.0 0.0 0.0 
-2.875108758834e-05 2.910768873001e-04 0.0 
2.910768873001e-04 6.941558890494e-03 0.0 
0.0 0.0 0.0 
7.244666534053e-05 2.492396018632e-04 0.0 
2.492396018632e-04 7.589636655593e-03 0.0 
0.0 0.0 0.0 
7.812301823788e-05 2.587188494388e-04 0.0 
2.587188494388e-04 7.427900604418e-03 0.0 
0.0 0.0 0.0 
6.104736030767e-05 2.426502848439e-04 0.0 
2.426502848439e-04 7.817049019361e-03 0.0 
0.0 0.0 0.0 
-5.634200750522e-06 3.041314470312e-04 0.0 
3.041314470312e-04 7.506801853603e-03 0.0 
0.0 0.0 0.0 
-5.219313881181e-06 3.139123496704e-04 0.0 
3.139123496704e-04 7.903441416372e-03 0.0 
0.0 0.0 0.0 
-2.325297622848e-05 3.103413533174e-04 0.0 
3.103413533174e-04 8.004802223726e-03 0.0 
0.0 0.0 0.0 
4.326089818822e-05 5.833851743626e-05 0.0 
5.833851743626e-05 6.481777863990e-04 0.0 
0.0 0.0 0.0 
-3.342409417264e-05 8.467496574858e-06 0.0 
8.467496574858e-06 8.329966359693e-03 0.0 
0.0 0.0 0.0 
-9.208143616316e-05 1.262518680279e-05 0.0 
1.262518680279e-05 6.048513127043e-03 0.0 
0.0 0.0 0.0 
-3.266651374090e-05 8.888943183424e-06 0.0 
8.888943183424e-06 4.894163537259e-04 0.0 
0.0 0.0 0.0 
-8.717329520197e-05 8.263871784940e-06 0.0 
8.263871784940e-06 5.856566609673e-03 0.0 
0.0 0.0 0.0 
-8.479249566260e-05 9.128634852340e-06 0.0 
9.128634852340e-06 6.100206901472e-03 0.0 
0.0 0.0 0.0 
-8.670998063415e-05 3.946702646886e-06 0.0 
3.946702646886e-06 5.639077292145e-03 0.0 
0.0 0.0 0.0 
8.160126404396e-05 -6.896051574521e-06 0.0 
-6.896051574521e-06 1.657908806128e-03 0.0 
0.0 0.0 0.0 
-1.081405838960e-04 2.070463859356e-05 0.0 
2.070463859356e-05 5.920402412886e-03 0.0 
0.0 0.0 0.0 
-1.134183736133e-04 3.074486918167e-05 0.0 
3.074486918167e-05 6.172841580709e-03 0.0 
0.0 0.0 0.0 
-3.968926421468e-06 -2.906780989952e-05 0.0 
-2.906780989952e-05 6.331750380258e-04 0.0 
0.0 0.0 0.0 
-2.996868665336e-05 7.917598562663e-05 0.0 
7.917598562663e-05 8.689273098883e-03 0.0 
0.0 0.0 0.0 
-2.050434732411e-06 -2.561336078457e-05 0.0 
-2.561336078457e-05 6.658696149114e-04 0.0 
0.0 0.0 0.0 
2.239498927945e-05 -2.326312376365e-05 0.0 
-2.326312376365e-05 8.210557558117e-04 0.0 
0.0 0.0 0.0 
8.237369068601e-05 1.716295171534e-04 0.0 
1.716295171534e-04 7.570479930819e-03 0.0 
0.0 0.0 0.0 
9.670688362325e-05 1.456386707514e-04 0.0 
1.456386707514e-04 7.302810997773e-03 0.0 
0.0 0.0 0.0 
6.507766289643e-05 1.556590876919e-04 0.0 
1.556590876919e-04 7.734584568509e-03 0.0 
0.0 0.0 0.0 
8.016117727006e-05 1.370644217544e-04 0.0 
1.370644217544e-04 7.466580162085e-03 0.0 
0.0 0.0 0.0 
1.114590004171e-04 1.239186949701e-04 0.0 
1.239186949701e-04 7.037137626200e-03 0.0 
0.0 0.0 0.0 
9.909365575759e-05 1.155100749779e-04 0.0 
1.155100749779e-04 7.225543092977e-03 0.0 
0.0 0.0 0.0 
-9.871316102213e-05 9.335369393047e-06 0.0 
9.335369393047e-06 5.809852897088e-03 0.0 
0.0 0.0 0.0 
6.514047680084e-05 1.295161757316e-04 0.0 
1.295161757316e-04 7.718054479747e-03 0.0 
0.0 0.0 0.0 
8.457035086003e-05 1.030330982306e-04 0.0 
1.030330982306e-04 7.421260686226e-03 0.0 
0.0 0.0 0.0 
4.873068890428e-05 1.141045759172e-04 0.0 
1.141045759172e-04 7.917269298971e-03 0.0 
0.0 0.0 0.0 
-1.714428469765e-04 6.984739280898e-05 0.0 
6.984739280898e-05 4.585554065890e-03 0.0 
0.0 0.0 0.0 
-1.580464491537e-04 2.311861577498e-04 0.0 
2.311861577498e-04 3.607669893252e-03 0.0 
0.0 0.0 0.0 
-1.718778944346e-04 1.796180194298e-04 0.0 
1.796180194298e-04 3.494645284570e-03 0.0 
0.0 0.0 0.0 
-1.624792238595e-04 1.508280226001e-04 0.0 
1.508280226001e-04 3.111339956894e-03 0.0 
0.0 0.0 0.0 
-5.165398361048e-05 2.601848790323e-04 0.0 
2.601848790323e-04 8.402235918095e-03 0.0 
0.0 0.0 0.0 
-7.047961227587e-05 2.388329366455e-04 0.0 
2.388329366455e-04 8.185262736310e-03 0.0 
0.0 0.0 0.0 
1.253776066735e-04 2.468887442527e-05 0.0 
2.468887442527e-05 6.596656576653e-03 0.0 
0.0 0.0 0.0 
1.434648403080e-04 2.223395632540e-05 0.0 
2.223395632540e-05 6.153373021696e-03 0.0 
0.0 0.0 0.0 
-8.629409103387e-05 6.438790311169e-06 0.0 
6.438790311169e-06 5.880286282656e-03 0.0 
0.0 0.0 0.0 
-8.308178657572e-05 2.382417209493e-06 0.0 
2.382417209493e-06 5.856853631289e-03 0.0 
0.0 0.0 0.0 
-8.107343017203e-05 1.167020660292e-05 0.0 
1.167020660292e-05 6.240926751165e-03 0.0 
0.0 0.0 0.0 
-7.959629723118e-05 3.579832731705e-06 0.0 
3.579832731705e-06 6.189111931473e-03 0.0 
0.0 0.0 0.0 
-7.655846791745e-05 1.227593977302e-05 0.0 
1.227593977302e-05 6.574007002017e-03 0.0 
0.0 0.0 0.0 
-7.320355829732e-05 2.649898742471e-06 0.0 
2.649898742471e-06 6.513964612340e-03 0.0 
0.0 0.0 0.0 
-6.807224115011e-05 3.461861572435e-06 0.0 
3.461861572435e-06 6.905121923644e-03 0.0 
0.0 0.0 0.0 
-2.696498123492e-05 3.167272619089e-04 0.0 
3.167272619089e-04 8.276550639368e-03 0.0 
0.0 0.0 0.0 
-1.493559648344e-04 2.214825714145e-04 0.0 
2.214825714145e-04 2.617848428457e-03 0.0 
0.0 0.0 0.0 
-1.660539657322e-04 6.105776939877e-05 0.0 
6.105776939877e-05 5.024436583816e-03 0.0 
0.0 0.0 0.0 
2.783060867125e-05 3.125344835558e-04 0.0 
3.125344835558e-04 7.930488271806e-03 0.0 
0.0 0.0 0.0 
3.961187233862e-05 2.985346889037e-04 0.0 
2.985346889037e-04 7.630884333441e-03 0.0 
0.0 0.0 0.0 
-1.779551953106e-04 1.070746843294e-04 0.0 
1.070746843294e-04 4.489946080798e-03 0.0 
0.0 0.0 0.0 
-1.733863057992e-04 8.698487568342e-05 0.0 
8.698487568342e-05 4.121737387096e-03 0.0 
0.0 0.0 0.0 
6.581539380966e-05 2.070661933308e-04 0.0 
2.070661933308e-04 7.728543759435e-03 0.0 
0.0 0.0 0.0 
-5.145236854888e-05 3.278922314541e-04 0.0 
3.278922314541e-04 3.875661790276e-03 0.0 
0.0 0.0 0.0 
-2.313120950949e-05 9.250326313020e-05 0.0 
9.250326313020e-05 8.917384787948e-03 0.0 
0.0 0.0 0.0 
-4.724632412093e-05 1.304510431119e-04 0.0 
1.304510431119e-04 3.277369291512e-04 0.0 
0.0 0.0 0.0 
8.059713657636e-05 1.892460820473e-04 0.0 
1.892460820473e-04 6.726467140142e-04 0.0 
0.0 0.0 0.0 
-8.277560728156e-05 3.042299359214e-04 0.0 
3.042299359214e-04 4.175237126896e-03 0.0 
0.0 0.0 0.0 
-1.779445548493e-04 1.256552651527e-04 0.0 
1.256552651527e-04 4.870646831601e-03 0.0 
0.0 0.0 0.0 
-1.648987931240e-04 2.015286879606e-04 0.0 
2.015286879606e-04 3.867937728172e-03 0.0 
0.0 0.0 0.0 
-1.703294621904e-04 1.572287790374e-04 0.0 
1.572287790374e-04 3.763286534610e-03 0.0 
0.0 0.0 0.0 
1.366685813877e-04 2.113800304914e-04 0.0 
2.113800304914e-04 6.275433036391e-03 0.0 
0.0 0.0 0.0 
2.694685299454e-05 -3.443080047364e-05 0.0 
-3.443080047364e-05 9.397937226456e-04 0.0 
0.0 0.0 0.0 
-1.014215762882e-04 3.439898853605e-04 0.0 
3.439898853605e-04 2.409742521032e-03 0.0 
0.0 0.0 0.0 
-6.821787385235e-05 1.639087294928e-05 0.0 
1.639087294928e-05 6.952527251709e-03 0.0 
0.0 0.0 0.0 
-1.100883799680e-04 3.274455039848e-04 0.0 
3.274455039848e-04 2.065227278225e-03 0.0 
0.0 0.0 0.0 
1.349461849834e-04 1.210826276236e-05 0.0 
1.210826276236e-05 6.382724837552e-03 0.0 
0.0 0.0 0.0 
-7.142492832105e-06 3.326123717759e-04 0.0 
3.326123717759e-04 3.972324618476e-03 0.0 
0.0 0.0 0.0 
-1.643393434176e-04 1.867542234263e-04 0.0 
1.867542234263e-04 5.141126969963e-03 0.0 
0.0 0.0 0.0 
-8.518085937226e-05 3.487948640198e-04 0.0 
3.487948640198e-04 2.758681015552e-03 0.0 
0.0 0.0 0.0 
-1.316817098645e-04 2.728497769038e-04 0.0 
2.728497769038e-04 3.718994301339e-03 0.0 
0.0 0.0 0.0 
-1.600334719857e-04 1.116151269405e-04 0.0 
1.116151269405e-04 6.179325566681e-03 0.0 
0.0 0.0 0.0 
-1.583281471225e-04 7.164934915792e-05 0.0 
7.164934915792e-05 5.855139520481e-03 0.0 
0.0 0.0 0.0 
-1.635772772034e-04 7.540487575610e-05 0.0 
7.540487575610e-05 5.631596402158e-03 0.0 
0.0 0.0 0.0 
3.485625584539e-05 3.262273393856e-04 0.0 
3.262273393856e-04 4.071059951223e-03 0.0 
0.0 0.0 0.0 
-1.761069576350e-04 1.376219653348e-04 0.0 
1.376219653348e-04 4.014445166151e-03 0.0 
0.0 0.0 0.0 
-1.677493255225e-04 1.076969744266e-04 0.0 
1.076969744266e-04 3.602508083444e-03 0.0 
0.0 0.0 0.0 
-1.657832271100e-04 1.484799044124e-04 0.0 
1.484799044124e-04 5.867043988789e-03 0.0 
0.0 0.0 0.0 
-9.536168124308e-05 1.151061957216e-04 0.0 
1.151061957216e-04 7.730649084492e-03 0.0 
0.0 0.0 0.0 
-9.102520602755e-05 1.332452202630e-04 0.0 
1.332452202630e-04 7.900330297895e-03 0.0 
0.0 0.0 0.0 
-6.972815272122e-05 1.457147347917e-04 0.0 
1.457147347917e-04 8.284749608077e-03 0.0 
0.0 0.0 0.0 
-8.504995933743e-05 1.510217713598e-04 0.0 
1.510217713598e-04 8.065169318058e-03 0.0 
0.0 0.0 0.0 
-1.042894944595e-04 1.358038978392e-04 0.0 
1.358038978392e-04 7.670641718077e-03 0.0 
0.0 0.0 0.0 
-9.766103820955e-05 1.536283058353e-04 0.0 
1.536283058353e-04 7.834315951036e-03 0.0 
0.0 0.0 0.0 
-7.553668194436e-05 1.709342068629e-04 0.0 
1.709342068629e-04 8.227446514418e-03 0.0 
0.0 0.0 0.0 
-8.760524722405e-05 1.749322720113e-04 0.0 
1.749322720113e-04 8.005246645643e-03 0.0 
0.0 0.0 0.0 
-6.095564933914e-05 1.910450813937e-04 0.0 
1.910450813937e-04 8.464323672981e-03 0.0 
0.0 0.0 0.0 
-7.900890576440e-05 1.936985427365e-04 0.0 
1.936985427365e-04 8.158900177952e-03 0.0 
0.0 0.0 0.0 
-1.017068745412e-04 1.793956788549e-04 0.0 
1.793956788549e-04 7.754994852474e-03 0.0 
0.0 0.0 0.0 
-9.480255818987e-05 1.989386983050e-04 0.0 
1.989386983050e-04 7.901066371538e-03 0.0 
0.0 0.0 0.0 
-7.282421855690e-05 2.144826147179e-04 0.0 
2.144826147179e-04 8.270465970335e-03 0.0 
0.0 0.0 0.0 
-1.143716657604e-04 1.822895596026e-04 0.0 
1.822895596026e-04 7.505700859005e-03 0.0 
0.0 0.0 0.0 
1.430351023418e-05 3.264238629326e-04 0.0 
3.264238629326e-04 8.197858006056e-03 0.0 
0.0 0.0 0.0 
-7.236626082256e-05 2.989711944473e-04 0.0 
2.989711944473e-04 4.569458490699e-03 0.0 
0.0 0.0 0.0 
1.146636404842e-04 1.572054790889e-04 0.0 
1.572054790889e-04 9.008750232002e-04 0.0 
0.0 0.0 0.0 
1.044431286354e-04 3.317358475039e-04 0.0 
3.317358475039e-04 1.012256383538e-03 0.0 
0.0 0.0 0.0 
-1.669751897284e-04 1.715241606227e-04 0.0 
1.715241606227e-04 5.387997325989e-03 0.0 
0.0 0.0 0.0 
-3.160325213697e-05 1.993818213902e-04 0.0 
1.993818213902e-04 8.870541820494e-03 0.0 
0.0 0.0 0.0 
-2.903282702453e-05 1.630972273481e-04 0.0 
1.630972273481e-04 8.915502738176e-03 0.0 
0.0 0.0 0.0 
3.488472036284e-05 3.547407250178e-04 0.0 
3.547407250178e-04 3.254423271464e-03 0.0 
0.0 0.0 0.0 
-2.581826287710e-05 2.843834524419e-04 0.0 
2.843834524419e-04 8.770818546905e-03 0.0 
0.0 0.0 0.0 
-1.659877572368e-04 9.474448816555e-05 0.0 
9.474448816555e-05 5.791631183712e-03 0.0 
0.0 0.0 0.0 
1.386862905763e-04 3.190946342540e-04 0.0 
3.190946342540e-04 2.148104511901e-03 0.0 
0.0 0.0 0.0 
-1.980518142305e-05 3.118643991340e-04 0.0 
3.118643991340e-04 8.706333926331e-03 0.0 
0.0 0.0 0.0 
-1.080871885058e-04 1.182740139272e-04 0.0 
1.182740139272e-04 7.500928217951e-03 0.0 
0.0 0.0 0.0 
-1.202045829862e-04 1.193091840542e-04 0.0 
1.193091840542e-04 7.266719861261e-03 0.0 
0.0 0.0 0.0 
-1.219190898839e-04 1.021784169556e-04 0.0 
1.021784169556e-04 7.097015040728e-03 0.0 
0.0 0.0 0.0 
-2.246938078931e-05 1.324753190703e-04 0.0 
1.324753190703e-04 8.957742398197e-03 0.0 
0.0 0.0 0.0 
-1.097700731679e-04 4.423915124862e-05 0.0 
4.423915124862e-05 6.596345769230e-03 0.0 
0.0 0.0 0.0 
-3.996524799303e-06 3.422939212292e-04 0.0 
3.422939212292e-04 8.561276860021e-03 0.0 
0.0 0.0 0.0 
5.588013833128e-05 2.852232643260e-04 0.0 
2.852232643260e-04 5.840745851842e-03 0.0 
0.0 0.0 0.0 
3.187122586967e-05 2.928640196363e-04 0.0 
2.928640196363e-04 5.709718454983e-03 0.0 
0.0 0.0 0.0 
3.328013490519e-05 2.981848038444e-04 0.0 
2.981848038444e-04 5.297080578107e-03 0.0 
0.0 0.0 0.0 
-1.097934070955e-04 1.573025170931e-04 0.0 
1.573025170931e-04 7.595353895875e-03 0.0 
0.0 0.0 0.0 
1.709049176083e-05 3.250817548360e-04 0.0 
3.250817548360e-04 8.362315058655e-03 0.0 
0.0 0.0 0.0 
3.578327760449e-05 3.018619736126e-04 0.0 
3.018619736126e-04 7.984816401641e-03 0.0 
0.0 0.0 0.0 
4.351774774528e-05 2.882947797833e-04 0.0 
2.882947797833e-04 7.944979711370e-03 0.0 
0.0 0.0 0.0 
5.435341589893e-05 2.825766660276e-04 0.0 
2.825766660276e-04 7.574287636564e-03 0.0 
0.0 0.0 0.0 
2.604769766027e-05 2.984392990440e-04 0.0 
2.984392990440e-04 8.290139370734e-03 0.0 
0.0 0.0 0.0 
-2.747794477716e-05 2.342828513569e-04 0.0 
2.342828513569e-04 8.868711117993e-03 0.0 
0.0 0.0 0.0 
-2.643656542848e-05 2.520399081549e-04 0.0 
2.520399081549e-04 8.855520385707e-03 0.0 
0.0 0.0 0.0 
1.922557436559e-04 8.619976272760e-05 0.0 
8.619976272760e-05 2.576957282772e-03 0.0 
0.0 0.0 0.0 
2.002550149381e-04 1.272109884226e-04 0.0 
1.272109884226e-04 2.841576365266e-03 0.0 
0.0 0.0 0.0 
2.026095332098e-04 1.447018763089e-04 0.0 
1.447018763089e-04 3.268601741006e-03 0.0 
0.0 0.0 0.0 
1.985960950054e-04 1.696307855821e-04 0.0 
1.696307855821e-04 3.114239535046e-03 0.0 
0.0 0.0 0.0 
1.976740599684e-04 1.522275287255e-04 0.0 
1.522275287255e-04 2.680860557346e-03 0.0 
0.0 0.0 0.0 
1.915372603447e-04 1.996420718524e-04 0.0 
1.996420718524e-04 2.963063912801e-03 0.0 
0.0 0.0 0.0 
1.863547063857e-04 2.098774271572e-04 0.0 
2.098774271572e-04 3.395152883752e-03 0.0 
0.0 0.0 0.0 
1.798705442242e-04 2.349767896085e-04 0.0 
2.349767896085e-04 2.819149514446e-03 0.0 
0.0 0.0 0.0 
-9.252341072861e-05 2.211450025881e-04 0.0 
2.211450025881e-04 7.805625888242e-03 0.0 
0.0 0.0 0.0 
2.960325427977e-05 2.668282694769e-04 0.0 
2.668282694769e-04 8.239279380394e-03 0.0 
0.0 0.0 0.0 
1.802808254339e-04 1.441796054839e-04 0.0 
1.441796054839e-04 5.466569233275e-03 0.0 
0.0 0.0 0.0 
1.819536482728e-04 1.565762382299e-04 0.0 
1.565762382299e-04 5.294977812816e-03 0.0 
0.0 0.0 0.0 
1.925386924768e-04 1.459699953885e-04 0.0 
1.459699953885e-04 4.862323170345e-03 0.0 
0.0 0.0 0.0 
1.844455173003e-04 2.559949151714e-05 0.0 
2.559949151714e-05 3.942265893316e-03 0.0 
0.0 0.0 0.0 
1.907148184761e-04 4.042217064548e-05 0.0 
4.042217064548e-05 4.186749195524e-03 0.0 
0.0 0.0 0.0 
1.905557691360e-04 5.229377742079e-05 0.0 
5.229377742079e-05 4.613438774068e-03 0.0 
0.0 0.0 0.0 
1.760186455660e-04 1.341916008304e-05 0.0 
1.341916008304e-05 3.700319891943e-03 0.0 
0.0 0.0 0.0 
-7.149566406611e-05 2.707793086578e-04 0.0 
2.707793086578e-04 6.675594925005e-03 0.0 
0.0 0.0 0.0 
3.139224571147e-05 2.458664470603e-04 0.0 
2.458664470603e-04 8.206811760773e-03 0.0 
0.0 0.0 0.0 
1.403141609507e-04 2.321234755219e-04 0.0 
2.321234755219e-04 5.531714761132e-03 0.0 
0.0 0.0 0.0 
1.936755789813e-04 4.477824953981e-05 0.0 
4.477824953981e-05 4.006746486947e-03 0.0 
0.0 0.0 0.0 
-1.275214380807e-04 2.150162974035e-05 0.0 
2.150162974035e-05 5.509377047931e-03 0.0 
0.0 0.0 0.0 
-1.285597987022e-04 3.880984230324e-05 0.0 
3.880984230324e-05 5.874349615859e-03 0.0 
0.0 0.0 0.0 
-1.371769878098e-04 4.105506562220e-05 0.0 
4.105506562220e-05 5.878414962225e-03 0.0 
0.0 0.0 0.0 
-1.261902932417e-04 5.108247968830e-05 0.0 
5.108247968830e-05 6.271621290655e-03 0.0 
0.0 0.0 0.0 
-1.205813886066e-04 2.707761211947e-05 0.0 
2.707761211947e-05 5.913123982734e-03 0.0 
0.0 0.0 0.0 
1.803793732674e-04 2.972159537889e-05 0.0 
2.972159537889e-05 4.729743938819e-03 0.0 
0.0 0.0 0.0 
1.762414951832e-04 2.599557213438e-05 0.0 
2.599557213438e-05 4.912904567291e-03 0.0 
0.0 0.0 0.0 
1.755127914852e-04 1.731130015630e-05 0.0 
1.731130015630e-05 4.675359864523e-03 0.0 
0.0 0.0 0.0 
1.726313957021e-04 2.143301514296e-05 0.0 
2.143301514296e-05 5.096394050234e-03 0.0 
0.0 0.0 0.0 
1.742957186188e-04 1.150466538001e-05 0.0 
1.150466538001e-05 4.849470025323e-03 0.0 
0.0 0.0 0.0 
1.760767323972e-04 8.161286779914e-06 0.0 
8.161286779914e-06 4.459411084485e-03 0.0 
0.0 0.0 0.0 
1.699219221958e-04 1.471617181590e-05 0.0 
1.471617181590e-05 5.272410893155e-03 0.0 
0.0 0.0 0.0 
1.711540661442e-04 9.567730951963e-06 0.0 
9.567730951963e-06 4.998601474840e-03 0.0 
0.0 0.0 0.0 
-1.131795061556e-04 1.195536567150e-05 0.0 
1.195536567150e-05 5.504060488950e-03 0.0 
0.0 0.0 0.0 
-1.045009812244e-04 -2.194117834776e-05 0.0 
-2.194117834776e-05 3.067823147468e-04 0.0 
0.0 0.0 0.0 
-2.409282107511e-05 -2.144801185958e-05 0.0 
-2.144801185958e-05 6.024598930292e-04 0.0 
0.0 0.0 0.0 
-2.710023790538e-05 -2.983890389966e-05 0.0 
-2.983890389966e-05 5.912938695861e-04 0.0 
0.0 0.0 0.0 
3.320190473882e-05 -2.067841764720e-05 0.0 
-2.067841764720e-05 9.188731036596e-04 0.0 
0.0 0.0 0.0 
4.993047851591e-05 3.185501764160e-07 0.0 
3.185501764160e-07 9.436129404496e-04 0.0 
0.0 0.0 0.0 
1.001843644469e-04 8.544028744117e-06 0.0 
8.544028744117e-06 1.301245211183e-03 0.0 
0.0 0.0 0.0 
1.081421192227e-04 2.356250581572e-05 0.0 
2.356250581572e-05 1.251311128323e-03 0.0 
0.0 0.0 0.0 
-1.467197247002e-05 -1.539881767301e-05 0.0 
-1.539881767301e-05 6.021635659101e-04 0.0 
0.0 0.0 0.0 
-8.678661774110e-05 -2.187976375538e-05 0.0 
-2.187976375538e-05 2.961297346650e-04 0.0 
0.0 0.0 0.0 
-2.258418201232e-05 -2.993616769874e-05 0.0 
-2.993616769874e-05 5.885633873094e-04 0.0 
0.0 0.0 0.0 
-7.325318638224e-05 -2.019806495156e-05 0.0 
-2.019806495156e-05 2.870127587341e-04 0.0 
0.0 0.0 0.0 
-1.884340062504e-05 -3.164615846376e-05 0.0 
-3.164615846376e-05 5.753763020787e-04 0.0 
0.0 0.0 0.0 
3.415098305778e-05 -2.973737883925e-05 0.0 
-2.973737883925e-05 9.644521808615e-04 0.0 
0.0 0.0 0.0 
7.949556151961e-05 -2.779789645723e-05 0.0 
-2.779789645723e-05 1.513341333866e-03 0.0 
0.0 0.0 0.0 
3.417198151709e-05 6.765490163970e-05 0.0 
6.765490163970e-05 8.000139877985e-03 0.0 
0.0 0.0 0.0 
1.630634635800e-04 1.885803404961e-06 0.0 
1.885803404961e-06 3.811494449122e-03 0.0 
0.0 0.0 0.0 
1.576734940982e-04 3.798360674097e-06 0.0 
3.798360674097e-06 3.609624743378e-03 0.0 
0.0 0.0 0.0 
1.506702248442e-04 9.468076695366e-07 0.0 
9.468076695366e-07 3.205107378801e-03 0.0 
0.0 0.0 0.0 
1.554664008158e-04 -8.828389372855e-07 0.0 
-8.828389372855e-07 3.424091764461e-03 0.0 
0.0 0.0 0.0 
1.648125643167e-04 6.729675891408e-06 0.0 
6.729675891408e-06 3.980468842484e-03 0.0 
0.0 0.0 0.0 
1.420631033190e-04 3.648843314641e-07 0.0 
3.648843314641e-07 2.983446616476e-03 0.0 
0.0 0.0 0.0 
1.369475449953e-04 -5.676414646938e-07 0.0 
-5.676414646938e-07 2.834460218863e-03 0.0 
0.0 0.0 0.0 
1.049162559380e-05 -4.004581757522e-06 0.0 
-4.004581757522e-06 2.545509007381e-04 0.0 
0.0 0.0 0.0 
2.792784583823e-05 -1.166427919344e-05 0.0 
-1.166427919344e-05 5.679795000394e-04 0.0 
0.0 0.0 0.0 
1.771371972684e-05 -6.087423793033e-06 0.0 
-6.087423793033e-06 5.359100464885e-04 0.0 
0.0 0.0 0.0 
3.940552790290e-05 -6.459464915187e-06 0.0 
-6.459464915187e-06 9.221396755027e-04 0.0 
0.0 0.0 0.0 
4.364035923980e-05 -1.346889960916e-05 0.0 
-1.346889960916e-05 9.132041918995e-04 0.0 
0.0 0.0 0.0 
2.744416387438e-05 -1.095126497262e-05 0.0 
-1.095126497262e-05 5.726701846478e-04 0.0 
0.0 0.0 0.0 
2.275705515220e-05 -1.134844278084e-05 0.0 
-1.134844278084e-05 5.753961000606e-04 0.0 
0.0 0.0 0.0 
9.585598770660e-07 -9.824945937896e-06 0.0 
-9.824945937896e-06 2.572857063726e-04 0.0 
0.0 0.0 0.0 
2.206127854421e-05 -1.577621197634e-05 0.0 
-1.577621197634e-05 5.749096466953e-04 0.0 
0.0 0.0 0.0 
4.248391996945e-05 -1.647067895100e-05 0.0 
-1.647067895100e-05 9.312954780325e-04 0.0 
0.0 0.0 0.0 
-3.039224228526e-06 -1.299005494681e-05 0.0 
-1.299005494681e-05 2.488485682713e-04 0.0 
0.0 0.0 0.0 
-5.663284349004e-05 -1.008991384177e-07 0.0 
-1.008991384177e-07 7.458377882235e-03 0.0 
0.0 0.0 0.0 
-5.278267627871e-05 5.764187318963e-06 0.0 
5.764187318963e-06 7.686217014987e-03 0.0 
0.0 0.0 0.0 
3.405791565144e-05 2.071501765578e-04 0.0 
2.071501765578e-04 8.135362569326e-03 0.0 
0.0 0.0 0.0 
-1.010289991160e-04 5.496436877394e-06 0.0 
5.496436877394e-06 5.548571152083e-03 0.0 
0.0 0.0 0.0 
-4.767669929268e-05 -1.685648919702e-05 0.0 
-1.685648919702e-05 2.815444866576e-04 0.0 
0.0 0.0 0.0 
-1.796784514466e-05 3.353836335483e-05 0.0 
3.353836335483e-05 8.913426107112e-03 0.0 
0.0 0.0 0.0 
-1.633137214063e-05 5.947543982616e-05 0.0 
5.947543982616e-05 8.973972118784e-03 0.0 
0.0 0.0 0.0 
-1.328073178251e-05 5.354964464330e-05 0.0 
5.354964464330e-05 8.983587278020e-03 0.0 
0.0 0.0 0.0 
8.655711688525e-05 1.559374363963e-05 0.0 
1.559374363963e-05 7.286125268463e-03 0.0 
0.0 0.0 0.0 
7.450277025582e-05 2.953812390803e-05 0.0 
2.953812390803e-05 7.510066200701e-03 0.0 
0.0 0.0 0.0 
-1.701410137679e-05 1.991628117880e-05 0.0 
1.991628117880e-05 8.927228272241e-03 0.0 
0.0 0.0 0.0 
1.442352365437e-04 -8.300064222644e-06 0.0 
-8.300064222644e-06 2.501189149637e-03 0.0 
0.0 0.0 0.0 
-6.078537950854e-05 1.663883946616e-04 0.0 
1.663883946616e-04 8.445104675595e-03 0.0 
0.0 0.0 0.0 
-4.383068910172e-05 3.440748845844e-05 0.0 
3.440748845844e-05 8.198215629170e-03 0.0 
0.0 0.0 0.0 
9.557595971762e-05 3.677403918112e-04 0.0 
3.677403918112e-04 2.083594266212e-03 0.0 
0.0 0.0 0.0 
1.579286728286e-04 8.451541125538e-06 0.0 
8.451541125538e-06 2.420403995669e-03 0.0 
0.0 0.0 0.0 
1.531474916447e-04 3.086716987698e-05 0.0 
3.086716987698e-05 5.953604030125e-03 0.0 
0.0 0.0 0.0 
1.772201781338e-04 7.443684694694e-05 0.0 
7.443684694694e-05 5.470658122291e-03 0.0 
0.0 0.0 0.0 
1.136399990496e-04 6.462966245604e-05 0.0 
6.462966245604e-05 6.890852395667e-03 0.0 
0.0 0.0 0.0 
1.672188398901e-04 4.540002405915e-05 0.0 
4.540002405915e-05 5.580962704152e-03 0.0 
0.0 0.0 0.0 
1.367967997329e-04 8.499490297372e-05 0.0 
8.499490297372e-05 6.524034489446e-03 0.0 
0.0 0.0 0.0 
5.179451876705e-05 2.766999672394e-04 0.0 
2.766999672394e-04 7.874027112728e-03 0.0 
0.0 0.0 0.0 
7.691443460522e-05 -1.384454906391e-05 0.0 
-1.384454906391e-05 1.521099785539e-03 0.0 
0.0 0.0 0.0 
-8.892494127103e-05 2.783207977205e-05 0.0 
2.783207977205e-05 6.678938722703e-03 0.0 
0.0 0.0 0.0 
-8.070262283766e-05 1.540729730313e-05 0.0 
1.540729730313e-05 6.527114490910e-03 0.0 
0.0 0.0 0.0 
-6.421481768169e-05 3.141621958588e-05 0.0 
3.141621958588e-05 7.556027992381e-03 0.0 
0.0 0.0 0.0 
1.357266641988e-04 -1.156352145937e-05 0.0 
-1.156352145937e-05 2.624947218593e-03 0.0 
0.0 0.0 0.0 
1.753342533021e-04 9.936785640798e-06 0.0 
9.936785640798e-06 4.267047316250e-03 0.0 
0.0 0.0 0.0 
8.129552256616e-05 -2.676024665226e-05 0.0 
-2.676024665226e-05 1.623270620824e-03 0.0 
0.0 0.0 0.0 
-3.895181152434e-05 2.921526163211e-04 0.0 
2.921526163211e-04 8.401552256256e-03 0.0 
0.0 0.0 0.0 
-1.728439489962e-04 1.320570759197e-04 0.0 
1.320570759197e-04 5.485604542228e-03 0.0 
0.0 0.0 0.0 
1.995078386076e-04 1.202763514884e-04 0.0 
1.202763514884e-04 4.598770126101e-03 0.0 
0.0 0.0 0.0 
1.772297578528e-04 1.420691817591e-05 0.0 
1.420691817591e-05 3.518429517155e-03 0.0 
0.0 0.0 0.0 
1.616413644168e-04 4.022070202908e-06 0.0 
4.022070202908e-06 2.743607719797e-03 0.0 
0.0 0.0 0.0 
1.552243933759e-04 1.239868509546e-05 0.0 
1.239868509546e-05 2.251474602479e-03 0.0 
0.0 0.0 0.0 
-9.589758992092e-05 2.792546844948e-04 0.0 
2.792546844948e-04 4.858172903241e-03 0.0 
0.0 0.0 0.0 
1.981683725092e-04 6.404804203594e-05 0.0 
6.404804203594e-05 4.256113780704e-03 0.0 
0.0 0.0 0.0 
1.536274878291e-04 1.345198076617e-04 0.0 
1.345198076617e-04 6.248078094475e-03 0.0 
0.0 0.0 0.0 
-5.606794889953e-05 2.906166172327e-05 0.0 
2.906166172327e-05 7.785325324488e-03 0.0 
0.0 0.0 0.0 
-3.969507255444e-05 -1.307832350429e-05 0.0 
-1.307832350429e-05 3.116670836533e-04 0.0 
0.0 0.0 0.0 
1.413151771537e-04 1.565879591722e-04 0.0 
1.565879591722e-04 6.513540048254e-03 0.0 
0.0 0.0 0.0 
1.891756195700e-04 8.969339512246e-05 0.0 
8.969339512246e-05 5.115812194128e-03 0.0 
0.0 0.0 0.0 
-1.006462743359e-04 4.525466362708e-05 0.0 
4.525466362708e-05 6.829018322318e-03 0.0 
0.0 0.0 0.0 
5.964039494159e-05 2.807001375405e-04 0.0 
2.807001375405e-04 6.816029000678e-03 0.0 
0.0 0.0 0.0 
1.141218249474e-04 2.287747179447e-06 0.0 
2.287747179447e-06 1.506395443831e-03 0.0 
0.0 0.0 0.0 
-7.012966513973e-05 5.212410779248e-05 0.0 
5.212410779248e-05 7.699220898505e-03 0.0 
0.0 0.0 0.0 
-5.562537951896e-05 1.028242099905e-04 0.0 
1.028242099905e-04 8.393979399166e-03 0.0 
0.0 0.0 0.0 
-1.164403268770e-04 3.985178800448e-05 0.0 
3.985178800448e-05 6.365604451426e-03 0.0 
0.0 0.0 0.0 
5.346298350350e-05 -2.750409025807e-05 0.0 
-2.750409025807e-05 1.215379888985e-03 0.0 
0.0 0.0 0.0 
-9.613509611781e-05 1.968644120095e-05 0.0 
1.968644120095e-05 6.253066571222e-03 0.0 
0.0 0.0 0.0 
8.089711089713e-05 2.143556063225e-04 0.0 
2.143556063225e-04 7.497756217954e-03 0.0 
0.0 0.0 0.0 
-9.887149964244e-05 9.784669413134e-05 0.0 
9.784669413134e-05 7.556813249596e-03 0.0 
0.0 0.0 0.0 
1.227608842027e-04 -1.509644548950e-05 0.0 
-1.509644548950e-05 2.390210914815e-03 0.0 
0.0 0.0 0.0 
1.379521897407e-04 2.472917830786e-04 0.0 
2.472917830786e-04 4.965015646039e-03 0.0 
0.0 0.0 0.0 
-1.484628367600e-04 2.152357250110e-04 0.0 
2.152357250110e-04 5.270247340736e-03 0.0 
0.0 0.0 0.0 
-1.523798382413e-04 3.888713807580e-05 0.0 
3.888713807580e-05 5.087849848923e-03 0.0 
0.0 0.0 0.0 
-4.093213699417e-05 4.333184155465e-05 0.0 
4.333184155465e-05 8.372272726351e-03 0.0 
0.0 0.0 0.0 
-2.469450174071e-05 2.961198509068e-04 0.0 
2.961198509068e-04 5.464001394640e-03 0.0 
0.0 0.0 0.0 
7.631010354573e-05 2.698145252257e-04 0.0 
2.698145252257e-04 7.107716004766e-03 0.0 
0.0 0.0 0.0 
1.173796636894e-04 2.501174985252e-04 0.0 
2.501174985252e-04 5.818487243769e-03 0.0 
0.0 0.0 0.0 
1.283241119933e-04 -1.000389528473e-05 0.0 
-1.000389528473e-05 2.574409105276e-03 0.0 
0.0 0.0 0.0 
1.217424649391e-04 1.340690399118e-04 0.0 
1.340690399118e-04 6.864543049814e-03 0.0 
0.0 0.0 0.0 
6.453280612436e-05 2.947990798599e-04 0.0 
2.947990798599e-04 5.004747500437e-03 0.0 
0.0 0.0 0.0 
-5.606742594559e-05 5.977520555078e-05 0.0 
5.977520555078e-05 8.110365233665e-03 0.0 
0.0 0.0 0.0 
-1.032793762226e-04 2.388195293109e-04 0.0 
2.388195293109e-04 7.064727031638e-03 0.0 
0.0 0.0 0.0 
1.363392649078e-04 2.728384621722e-04 0.0 
2.728384621722e-04 3.982580356026e-03 0.0 
0.0 0.0 0.0 
-7.597674114349e-05 7.764825274398e-05 0.0 
7.764825274398e-05 7.833039099209e-03 0.0 
0.0 0.0 0.0 
1.912581461948e-04 1.611212105791e-04 0.0 
1.611212105791e-04 4.698142170913e-03 0.0 
0.0 0.0 0.0 
3.908676813820e-05 2.924354664218e-04 0.0 
2.924354664218e-04 7.101241523182e-03 0.0 
0.0 0.0 0.0 
-1.742634708341e-04 1.429055663941e-04 0.0 
1.429055663941e-04 5.250145603868e-03 0.0 
0.0 0.0 0.0 
-1.311662490039e-04 2.187786982802e-04 0.0 
2.187786982802e-04 6.286768538763e-03 0.0 
0.0 0.0 0.0 
-1.392214767846e-04 1.708027789403e-04 0.0 
1.708027789403e-04 6.874565952816e-03 0.0 
0.0 0.0 0.0 
-9.271590909939e-05 2.632454872834e-04 0.0 
2.632454872834e-04 5.896920135804e-03 0.0 
0.0 0.0 0.0 
1.587607265930e-04 2.123981202262e-05 0.0 
2.123981202262e-05 5.711372358245e-03 0.0 
0.0 0.0 0.0 
1.319897259228e-04 1.461476719801e-04 0.0 
1.461476719801e-04 6.688155041449e-03 0.0 
0.0 0.0 0.0 
1.699821493520e-04 1.288862406527e-04 0.0 
1.288862406527e-04 1.648854179268e-03 0.0 
0.0 0.0 0.0 
-1.186242202542e-04 2.781234943209e-04 0.0 
2.781234943209e-04 4.096145772801e-03 0.0 
0.0 0.0 0.0 
-1.092981888848e-04 5.529182087765e-05 0.0 
5.529182087765e-05 6.785732326050e-03 0.0 
0.0 0.0 0.0 
-5.618279925431e-05 2.825195306943e-04 0.0 
2.825195306943e-04 7.720142225784e-03 0.0 
0.0 0.0 0.0 
-3.864135804567e-05 6.816148473661e-05 0.0 
6.816148473661e-05 8.514695954157e-03 0.0 
0.0 0.0 0.0 
-1.584847524768e-04 2.057553740611e-04 0.0 
2.057553740611e-04 4.892469581509e-03 0.0 
0.0 0.0 0.0 
1.356043787779e-04 1.135313480175e-04 0.0 
1.135313480175e-04 6.600643269599e-03 0.0 
0.0 0.0 0.0 
-6.007999462746e-05 8.863334537795e-05 0.0 
8.863334537795e-05 8.230055029739e-03 0.0 
0.0 0.0 0.0 
1.946203461748e-04 5.781449225064e-05 0.0 
5.781449225064e-05 4.433746269532e-03 0.0 
0.0 0.0 0.0 
8.623981543669e-05 -3.656491275396e-06 0.0 
-3.656491275396e-06 1.763286569867e-03 0.0 
0.0 0.0 0.0 
9.955516114165e-05 3.736749175779e-04 0.0 
3.736749175779e-04 1.673368028501e-03 0.0 
0.0 0.0 0.0 
1.530853968071e-04 2.772433099802e-04 0.0 
2.772433099802e-04 3.125636595364e-03 0.0 
0.0 0.0 0.0 
2.847118433365e-06 3.029140268429e-04 0.0 
3.029140268429e-04 5.179366442504e-03 0.0 
0.0 0.0 0.0 
1.912117834551e-04 7.000090603079e-05 0.0 
7.000090603079e-05 4.862221689326e-03 0.0 
0.0 0.0 0.0 
-5.271420593825e-05 1.446956025001e-04 0.0 
1.446956025001e-04 8.561779326331e-03 0.0 
0.0 0.0 0.0 
1.253957908543e-04 1.039586687101e-04 0.0 
1.039586687101e-04 6.780303637647e-03 0.0 
0.0 0.0 0.0 
1.357767097860e-04 1.987595975975e-04 0.0 
1.987595975975e-04 6.445820514506e-03 0.0 
0.0 0.0 0.0 
-7.413406984904e-05 3.469426613718e-04 0.0 
3.469426613718e-04 1.374315943984e-03 0.0 
0.0 0.0 0.0 
-1.609141230917e-04 5.937684802196e-05 0.0 
5.937684802196e-05 5.246090657415e-03 0.0 
0.0 0.0 0.0 
1.137232978968e-04 9.334356884640e-05 0.0 
9.334356884640e-05 6.964255629436e-03 0.0 
0.0 0.0 0.0 
1.514749468846e-04 2.285293105109e-04 0.0 
2.285293105109e-04 5.103990086013e-03 0.0 
0.0 0.0 0.0 
4.963444353386e-05 2.889670039960e-04 0.0 
2.889670039960e-04 7.232355595718e-03 0.0 
0.0 0.0 0.0 
1.752561449211e-04 6.944329697028e-06 0.0 
6.944329697028e-06 4.593972666428e-03 0.0 
0.0 0.0 0.0 
-3.445135406518e-05 3.014938140911e-04 0.0 
3.014938140911e-04 8.353682084340e-03 0.0 
0.0 0.0 0.0 
-1.719805286957e-04 7.823444075055e-05 0.0 
7.823444075055e-05 4.355451107262e-03 0.0 
0.0 0.0 0.0 
9.949108887682e-05 8.186132025658e-05 0.0 
8.186132025658e-05 7.157623296837e-03 0.0 
0.0 0.0 0.0 
1.175048935059e-04 2.332976040911e-04 0.0 
2.332976040911e-04 6.554257996575e-03 0.0 
0.0 0.0 0.0 
-1.169829398064e-05 3.465782965356e-04 0.0 
3.465782965356e-04 3.572443102894e-03 0.0 
0.0 0.0 0.0 
-8.330503014929e-05 1.663541627607e-06 0.0 
1.663541627607e-06 5.489026935217e-03 0.0 
0.0 0.0 0.0 
6.432874802379e-05 9.080293571642e-05 0.0 
9.080293571642e-05 7.665460609248e-03 0.0 
0.0 0.0 0.0 
9.747865193869e-05 2.425103165666e-04 0.0 
2.425103165666e-04 6.997997704693e-03 0.0 
0.0 0.0 0.0 
-8.210936780917e-05 2.662155002457e-04 0.0 
2.662155002457e-04 6.284400063188e-03 0.0 
0.0 0.0 0.0 
1.717850448388e-04 2.049398026554e-04 0.0 
2.049398026554e-04 4.819952775090e-03 0.0 
0.0 0.0 0.0 
-1.598728211507e-04 4.061244425854e-05 0.0 
4.061244425854e-05 4.651859812759e-03 0.0 
0.0 0.0 0.0 
1.860673032890e-04 6.354208111264e-05 0.0 
6.354208111264e-05 5.040646683931e-03 0.0 
0.0 0.0 0.0 
-1.336780626369e-04 2.079589976638e-04 0.0 
2.079589976638e-04 6.535955097055e-03 0.0 
0.0 0.0 0.0 
-2.040726672612e-05 1.212942211353e-04 0.0 
1.212942211353e-04 8.971341334498e-03 0.0 
0.0 0.0 0.0 
7.592454442799e-05 2.604648654380e-04 0.0 
2.604648654380e-04 7.256607371917e-03 0.0 
0.0 0.0 0.0 
-1.329560671322e-04 1.022641556986e-04 0.0 
1.022641556986e-04 6.863681777177e-03 0.0 
0.0 0.0 0.0 
1.861582619726e-04 4.727091588182e-05 0.0 
4.727091588182e-05 4.792112686038e-03 0.0 
0.0 0.0 0.0 
6.847894825672e-06 2.918655829343e-04 0.0 
2.918655829343e-04 6.402267376313e-03 0.0 
0.0 0.0 0.0 
4.503168033317e-05 -1.696011698171e-05 0.0 
-1.696011698171e-05 9.153304858533e-04 0.0 
0.0 0.0 0.0 
-1.685254885774e-04 6.477920163606e-05 0.0 
6.477920163606e-05 4.806886882745e-03 0.0 
0.0 0.0 0.0 
1.811019830569e-04 4.243255454708e-05 0.0 
4.243255454708e-05 4.972174464659e-03 0.0 
0.0 0.0 0.0 
1.729852081807e-04 2.418545140654e-04 0.0 
2.418545140654e-04 3.254475143239e-03 0.0 
0.0 0.0 0.0 
1.779681506633e-04 1.867078350868e-04 0.0 
1.867078350868e-04 4.969832425290e-03 0.0 
0.0 0.0 0.0 
7.742840747449e-06 3.249827959903e-04 0.0 
3.249827959903e-04 8.052936659041e-03 0.0 
0.0 0.0 0.0 
1.757438755815e-04 3.774056120120e-05 0.0 
3.774056120120e-05 5.154269232690e-03 0.0 
0.0 0.0 0.0 
1.649681866099e-04 2.451788004049e-04 0.0 
2.451788004049e-04 3.684757775811e-03 0.0 
0.0 0.0 0.0 
1.702720622542e-04 3.276491661082e-05 0.0 
3.276491661082e-05 5.337187471343e-03 0.0 
0.0 0.0 0.0 
-1.620997792031e-04 4.760414839608e-05 0.0 
4.760414839608e-05 4.215754601405e-03 0.0 
0.0 0.0 0.0 
-1.315653509203e-04 1.204583408747e-04 0.0 
1.204583408747e-04 7.032441826352e-03 0.0 
0.0 0.0 0.0 
1.656685117953e-04 2.626411499411e-05 0.0 
2.626411499411e-05 5.519863264158e-03 0.0 
0.0 0.0 0.0 
-1.191910321065e-04 2.195309505521e-04 0.0 
2.195309505521e-04 6.924080544232e-03 0.0 
0.0 0.0 0.0 
4.091515374080e-05 -2.415834985366e-05 0.0 
-2.415834985366e-05 9.674870140262e-04 0.0 
0.0 0.0 0.0 
-5.860051843985e-05 2.784055850546e-04 0.0 
2.784055850546e-04 6.407296916791e-03 0.0 
0.0 0.0 0.0 
1.027243963603e-04 2.836391566865e-05 0.0 
2.836391566865e-05 7.047464450100e-03 0.0 
0.0 0.0 0.0 
1.902058494789e-04 4.115456380342e-05 0.0 
4.115456380342e-05 3.239721408860e-03 0.0 
0.0 0.0 0.0 
1.812350309690e-04 1.709420237504e-04 0.0 
1.709420237504e-04 5.127489812026e-03 0.0 
0.0 0.0 0.0 
-1.164822568283e-04 1.375701889159e-04 0.0 
1.375701889159e-04 7.434222678325e-03 0.0 
0.0 0.0 0.0 
-1.619661372519e-04 5.697766837101e-05 0.0 
5.697766837101e-05 3.772206630476e-03 0.0 
0.0 0.0 0.0 
1.688558445895e-04 1.800222335299e-04 0.0 
1.800222335299e-04 5.561013002555e-03 0.0 
0.0 0.0 0.0 
-1.031677458146e-04 2.319106573763e-04 0.0 
2.319106573763e-04 7.315782817081e-03 0.0 
0.0 0.0 0.0 
-3.502512347886e-05 2.878486444552e-04 0.0 
2.878486444552e-04 6.535502794423e-03 0.0 
0.0 0.0 0.0 
4.758037581598e-06 2.970457546435e-04 0.0 
2.970457546435e-04 5.582550060845e-03 0.0 
0.0 0.0 0.0 
1.540027847165e-04 1.893162453418e-04 0.0 
1.893162453418e-04 6.000974959530e-03 0.0 
0.0 0.0 0.0 
-1.722102016975e-04 9.869711656352e-05 0.0 
9.869711656352e-05 3.895465048267e-03 0.0 
0.0 0.0 0.0 
1.399451620364e-04 -8.210610656782e-06 0.0 
-8.210610656782e-06 2.330209564699e-03 0.0 
0.0 0.0 0.0 
1.128213634040e-04 -1.987951205087e-05 0.0 
-1.987951205087e-05 1.922421065679e-03 0.0 
0.0 0.0 0.0 
1.793387360827e-04 2.168152867716e-04 0.0 
2.168152867716e-04 3.822160731723e-03 0.0 
0.0 0.0 0.0 
-9.955760490075e-05 2.260892501098e-04 0.0 
2.260892501098e-04 7.564590324647e-03 0.0 
0.0 0.0 0.0 
5.839479371635e-05 -1.363803904648e-05 0.0 
-1.363803904648e-05 1.263311890550e-03 0.0 
0.0 0.0 0.0 
-1.217427034493e-04 1.608019824240e-04 0.0 
1.608019824240e-04 7.353515928963e-03 0.0 
0.0 0.0 0.0 
6.857403796249e-05 -3.118740781027e-05 0.0 
-3.118740781027e-05 1.350215914698e-03 0.0 
0.0 0.0 0.0 
1.951318738742e-04 1.821499811266e-04 0.0 
1.821499811266e-04 3.541030338326e-03 0.0 
0.0 0.0 0.0 
-8.528515242393e-06 2.970221574050e-04 0.0 
2.970221574050e-04 7.096408645085e-03 0.0 
0.0 0.0 0.0 
-7.179987460289e-05 -4.750579403211e-06 0.0 
-4.750579403211e-06 6.646950160229e-03 0.0 
0.0 0.0 0.0 
2.006188100492e-04 1.584973458586e-04 0.0 
1.584973458586e-04 3.691256625342e-03 0.0 
0.0 0.0 0.0 
1.071109828447e-04 -2.125743933634e-06 0.0 
-2.125743933634e-06 2.172451533083e-03 0.0 
0.0 0.0 0.0 
2.046520462710e-04 1.238420440857e-04 0.0 
1.238420440857e-04 3.424801850210e-03 0.0 
0.0 0.0 0.0 
6.117961682299e-06 2.932641195507e-04 0.0 
2.932641195507e-04 5.989176403762e-03 0.0 
0.0 0.0 0.0 
2.052635191744e-04 1.067083893037e-04 0.0 
1.067083893037e-04 3.585011068903e-03 0.0 
0.0 0.0 0.0 
2.010413640509e-04 7.641735547832e-05 0.0 
7.641735547832e-05 3.329677907863e-03 0.0 
0.0 0.0 0.0 
-3.083484246528e-05 3.730584190457e-05 0.0 
3.730584190457e-05 8.604994182470e-03 0.0 
0.0 0.0 0.0 
1.998958680713e-04 6.577941860860e-05 0.0 
6.577941860860e-05 3.492880610607e-03 0.0 
0.0 0.0 0.0 
-9.796150346316e-06 9.081726770118e-06 0.0 
9.081726770118e-06 8.996222622891e-03 0.0 
0.0 0.0 0.0 
3.478026237743e-05 2.889411592788e-05 0.0 
2.889411592788e-05 8.019204233392e-03 0.0 
0.0 0.0 0.0 
-8.102242839471e-05 -4.255962491654e-06 0.0 
-4.255962491654e-06 5.811377542844e-03 0.0 
0.0 0.0 0.0 
-1.538617487799e-04 7.266232770170e-05 0.0 
7.266232770170e-05 3.312715524353e-03 0.0 
0.0 0.0 0.0 
-1.108419527756e-04 1.106042348853e-05 0.0 
1.106042348853e-05 3.198255460046e-04 0.0 
0.0 0.0 0.0 
-1.676642079992e-04 1.342498709397e-04 0.0 
1.342498709397e-04 3.426689342028e-03 0.0 
0.0 0.0 0.0 
1.771324209018e-04 2.504819039540e-05 0.0 
2.504819039540e-05 2.828328729853e-03 0.0 
0.0 0.0 0.0 
-1.236128681367e-04 1.868689011321e-04 0.0 
1.868689011321e-04 7.261855333072e-03 0.0 
0.0 0.0 0.0 
-8.054344131216e-05 3.651817833563e-06 0.0 
3.651817833563e-06 5.827979628957e-03 0.0 
0.0 0.0 0.0 
1.596041792935e-04 6.586643044571e-06 0.0 
6.586643044571e-06 2.580797812228e-03 0.0 
0.0 0.0 0.0 
-5.309175632923e-05 2.146365368630e-04 0.0 
2.146365368630e-04 8.539328277892e-03 0.0 
0.0 0.0 0.0 
-1.242014797032e-05 3.317527655018e-04 0.0 
3.317527655018e-04 8.641816143397e-03 0.0 
0.0 0.0 0.0 
-6.139893553720e-05 5.849825419292e-06 0.0 
5.849825419292e-06 7.255409694426e-03 0.0 
0.0 0.0 0.0 
5.371755160274e-05 2.860497575225e-04 0.0 
2.860497575225e-04 7.361566502792e-03 0.0 
0.0 0.0 0.0 
-1.255757464782e-05 2.929168287741e-04 0.0 
2.929168287741e-04 6.678384507894e-03 0.0 
0.0 0.0 0.0 
-3.854923649340e-05 2.575265040696e-06 0.0 
2.575265040696e-06 8.242085344457e-03 0.0 
0.0 0.0 0.0 
-8.991568317898e-05 -4.863008758529e-06 0.0 
-4.863008758529e-06 5.461454833605e-03 0.0 
0.0 0.0 0.0 
-1.596183813686e-05 -2.973398766881e-05 0.0 
-2.973398766881e-05 5.713893085675e-04 0.0 
0.0 0.0 0.0 
1.509347630589e-04 1.158515647716e-05 0.0 
1.158515647716e-05 5.933622627158e-03 0.0 
0.0 0.0 0.0 
-1.447796722651e-04 9.444973743135e-05 0.0 
9.444973743135e-05 2.860348910243e-03 0.0 
0.0 0.0 0.0 
-1.577160060997e-04 1.829938841646e-04 0.0 
1.829938841646e-04 2.862706784248e-03 0.0 
0.0 0.0 0.0 
-1.381229955394e-04 2.668280780671e-04 0.0 
2.668280780671e-04 2.355556129917e-03 0.0 
0.0 0.0 0.0 
1.293035537887e-04 -5.981659484614e-06 0.0 
-5.981659484614e-06 2.720120058801e-03 0.0 
0.0 0.0 0.0 
2.964496904245e-05 -2.492196438129e-05 0.0 
-2.492196438129e-05 9.089802138733e-04 0.0 
0.0 0.0 0.0 
-1.372780436880e-04 1.438585669734e-04 0.0 
1.438585669734e-04 2.485569677434e-03 0.0 
0.0 0.0 0.0 
2.728606037772e-05 3.074182406927e-04 0.0 
3.074182406927e-04 7.999627117735e-03 0.0 
0.0 0.0 0.0 
-1.019553205152e-04 1.004179078626e-05 0.0 
1.004179078626e-05 5.843792485360e-03 0.0 
0.0 0.0 0.0 
-2.219736807037e-05 2.955990184701e-04 0.0 
2.955990184701e-04 7.349513730728e-03 0.0 
0.0 0.0 0.0 
-1.267169878114e-04 2.153066471622e-04 0.0 
2.153066471622e-04 2.009483831789e-03 0.0 
0.0 0.0 0.0 
-4.211863956990e-05 9.513311277003e-05 0.0 
9.513311277003e-05 8.617014497120e-03 0.0 
0.0 0.0 0.0 
-1.191250921232e-05 3.251502644256e-04 0.0 
3.251502644256e-04 8.209393376010e-03 0.0 
0.0 0.0 0.0 
3.174312702962e-05 1.615280819428e-04 0.0 
1.615280819428e-04 8.128761736671e-03 0.0 
0.0 0.0 0.0 
-1.597096174966e-05 3.069535503640e-04 0.0 
3.069535503640e-04 7.760994035559e-03 0.0 
0.0 0.0 0.0 
-5.927531403066e-05 3.942360052958e-04 0.0 
3.942360052958e-04 1.710215263172e-03 0.0 
0.0 0.0 0.0 
-1.201473254716e-04 3.782374481036e-05 0.0 
3.782374481036e-05 6.193650733424e-03 0.0 
0.0 0.0 0.0 
-4.651651069236e-05 2.764895857380e-04 0.0 
2.764895857380e-04 8.433332349579e-03 0.0 
0.0 0.0 0.0 
-5.379175189243e-05 1.238641805406e-05 0.0 
1.238641805406e-05 7.584226336561e-03 0.0 
0.0 0.0 0.0 
3.426252944427e-05 1.396962517377e-04 0.0 
1.396962517377e-04 8.127467264860e-03 0.0 
0.0 0.0 0.0 
-1.118004618694e-04 2.313890074663e-05 0.0 
2.313890074663e-05 5.793757229831e-03 0.0 
0.0 0.0 0.0 
-2.502750432437e-05 2.657112710134e-05 0.0 
2.657112710134e-05 8.661192874606e-03 0.0 
0.0 0.0 0.0 
1.418955693586e-04 6.421117766122e-05 0.0 
6.421117766122e-05 1.404796683610e-03 0.0 
0.0 0.0 0.0 
-2.306738544118e-05 1.551198069933e-05 0.0 
1.551198069933e-05 8.666939119880e-03 0.0 
0.0 0.0 0.0 
-1.055542478750e-04 2.020587354872e-04 0.0 
2.020587354872e-04 7.655938351778e-03 0.0 
0.0 0.0 0.0 
-7.942102085712e-05 1.440957630019e-05 0.0 
1.440957630019e-05 6.345044634755e-03 0.0 
0.0 0.0 0.0 
-1.341793809450e-04 6.046441776901e-05 0.0 
6.046441776901e-05 6.168062352942e-03 0.0 
0.0 0.0 0.0 
5.735156180605e-05 4.659094498599e-05 0.0 
4.659094498599e-05 7.725344162966e-03 0.0 
0.0 0.0 0.0 
-5.576445617597e-05 1.774551851935e-04 0.0 
1.774551851935e-04 8.573480423833e-03 0.0 
0.0 0.0 0.0 
3.894674898194e-05 4.011833055165e-04 0.0 
4.011833055165e-04 1.221952096369e-03 0.0 
0.0 0.0 0.0 
-6.059474675328e-05 1.691814991220e-05 0.0 
1.691814991220e-05 7.231349231999e-03 0.0 
0.0 0.0 0.0 
1.587796621298e-04 -1.456198369279e-06 0.0 
-1.456198369279e-06 3.429566612938e-03 0.0 
0.0 0.0 0.0 
-1.644992870388e-05 -4.402753518142e-06 0.0 
-4.402753518142e-06 5.476507868588e-04 0.0 
0.0 0.0 0.0 
6.090097602232e-05 1.948257242363e-04 0.0 
1.948257242363e-04 7.773788827835e-03 0.0 
0.0 0.0 0.0 
-8.564226968714e-05 2.166563328750e-04 0.0 
2.166563328750e-04 8.030800238523e-03 0.0 
0.0 0.0 0.0 
5.650697740425e-05 8.039988699557e-05 0.0 
8.039988699557e-05 7.708609552081e-03 0.0 
0.0 0.0 0.0 
3.660885507277e-05 -2.706950993419e-06 0.0 
-2.706950993419e-06 9.075947354309e-04 0.0 
0.0 0.0 0.0 
-1.546650613873e-05 -2.492051226058e-05 0.0 
-2.492051226058e-05 5.311071506980e-04 0.0 
0.0 0.0 0.0 
5.417026676509e-05 2.287230426732e-04 0.0 
2.287230426732e-04 7.886740415907e-03 0.0 
0.0 0.0 0.0 
-4.960255971411e-05 2.478977895879e-04 0.0 
2.478977895879e-04 8.536810586858e-03 0.0 
0.0 0.0 0.0 
1.453043290416e-04 5.433476828048e-05 0.0 
5.433476828048e-05 1.600662684337e-03 0.0 
0.0 0.0 0.0 
-1.623575565173e-05 8.318146319715e-05 0.0 
8.318146319715e-05 9.041642607198e-03 0.0 
0.0 0.0 0.0 
5.304511710128e-05 2.882860738644e-04 0.0 
2.882860738644e-04 6.987765162903e-04 0.0 
0.0 0.0 0.0 
-9.511676270690e-05 6.358981008861e-06 0.0 
6.358981008861e-06 5.418235253661e-03 0.0 
0.0 0.0 0.0 
1.296392201183e-05 -1.934317247297e-05 0.0 
-1.934317247297e-05 5.451452516007e-04 0.0 
0.0 0.0 0.0 
3.293155198878e-05 9.318170289903e-05 0.0 
9.318170289903e-05 8.103326889315e-03 0.0 
0.0 0.0 0.0 
-3.308310152497e-05 6.555455510962e-05 0.0 
6.555455510962e-05 8.673485859040e-03 0.0 
0.0 0.0 0.0 
1.654245036584e-04 9.214432348516e-06 0.0 
9.214432348516e-06 3.793686051275e-03 0.0 
0.0 0.0 0.0 
-1.374731565887e-04 3.920046335799e-05 0.0 
3.920046335799e-05 5.522632083804e-03 0.0 
0.0 0.0 0.0 
1.187165221490e-04 -3.127046522889e-06 0.0 
-3.127046522889e-06 2.452165797746e-03 0.0 
0.0 0.0 0.0 
-4.380895864289e-05 3.018397151029e-04 0.0 
3.018397151029e-04 8.048236171370e-03 0.0 
0.0 0.0 0.0 
1.966037046990e-05 -3.187850987154e-05 0.0 
-3.187850987154e-05 8.437317846125e-04 0.0 
0.0 0.0 0.0 
-2.924631233800e-05 4.336891362115e-05 0.0 
4.336891362115e-05 8.716519705501e-03 0.0 
0.0 0.0 0.0 
4.664399893288e-05 2.618364785213e-04 0.0 
2.618364785213e-04 7.964217094952e-03 0.0 
0.0 0.0 0.0 
-4.458641011287e-05 1.353936184972e-04 0.0 
1.353936184972e-04 8.683439055715e-03 0.0 
0.0 0.0 0.0 
4.946076575418e-06 3.459740244830e-04 0.0 
3.459740244830e-04 8.552092028614e-03 0.0 
0.0 0.0 0.0 
3.230052884480e-05 8.647735517766e-05 0.0 
8.647735517766e-05 5.295155443591e-04 0.0 
0.0 0.0 0.0 
-1.984854355181e-05 3.236644558869e-04 0.0 
3.236644558869e-04 8.356403341524e-03 0.0 
0.0 0.0 0.0 
5.986022097026e-05 2.775651775494e-04 0.0 
2.775651775494e-04 7.618905013283e-03 0.0 
0.0 0.0 0.0 
-8.774140923280e-05 9.128181641227e-06 0.0 
9.128181641227e-06 5.456732634860e-03 0.0 
0.0 0.0 0.0 
-4.913308086765e-05 1.643128585984e-04 0.0 
1.643128585984e-04 8.609031617053e-03 0.0 
0.0 0.0 0.0 
1.439772272246e-04 7.491177785506e-07 0.0 
7.491177785506e-07 3.051413327462e-03 0.0 
0.0 0.0 0.0 
6.039289871520e-05 -2.775044304438e-05 0.0 
-2.775044304438e-05 1.243589803628e-03 0.0 
0.0 0.0 0.0 
-6.168586730437e-06 1.325724220090e-06 0.0 
1.325724220090e-06 9.039835682754e-03 0.0 
0.0 0.0 0.0 
1.339377238785e-06 -1.024238532585e-06 0.0 
-1.024238532585e-06 1.921354745925e-04 0.0 
0.0 0.0 0.0 
-8.396882654893e-05 -3.108704324544e-06 0.0 
-3.108704324544e-06 5.430560185037e-03 0.0 
0.0 0.0 0.0 
2.663671090897e-05 2.015977626640e-05 0.0 
2.015977626640e-05 8.114523580161e-03 0.0 
0.0 0.0 0.0 
6.104012037307e-05 -1.498789302812e-05 0.0 
-1.498789302812e-05 1.180477500937e-03 0.0 
0.0 0.0 0.0 
-7.723972106179e-05 -1.014098276473e-06 0.0 
-1.014098276473e-06 6.120662989206e-03 0.0 
0.0 0.0 0.0 
-4.815607114156e-05 2.308940689397e-04 0.0 
2.308940689397e-04 8.578850814816e-03 0.0 
0.0 0.0 0.0 
1.701810921968e-04 4.929334201124e-06 0.0 
4.929334201124e-06 4.705054667219e-03 0.0 
0.0 0.0 0.0 
-4.393617601779e-05 1.545217167443e-07 0.0 
1.545217167443e-07 8.004076198093e-03 0.0 
0.0 0.0 0.0 
7.609561862814e-05 -1.146348137776e-05 0.0 
-1.146348137776e-05 1.167929672593e-03 0.0 
0.0 0.0 0.0 
-1.283480606539e-04 -1.272220498950e-05 0.0 
-1.272220498950e-05 2.665224433621e-04 0.0 
0.0 0.0 0.0 
-6.795650403006e-05 -8.045089435487e-07 0.0 
-8.045089435487e-07 6.867694858311e-03 0.0 
0.0 0.0 0.0 
-3.560267502145e-06 3.344037594486e-04 0.0 
3.344037594486e-04 8.241917335821e-03 0.0 
0.0 0.0 0.0 
-3.971675263443e-05 1.069119235636e-04 0.0 
1.069119235636e-04 8.720206049292e-03 0.0 
0.0 0.0 0.0 
-7.565526200952e-05 1.597721306755e-05 0.0 
1.597721306755e-05 6.576024433240e-03 0.0 
0.0 0.0 0.0 
9.251040053160e-05 3.658424479642e-04 0.0 
3.658424479642e-04 1.363078298801e-03 0.0 
0.0 0.0 0.0 
-6.691548717748e-05 2.311717972918e-04 0.0 
2.311717972918e-04 8.333282119895e-03 0.0 
0.0 0.0 0.0 
1.750725787786e-04 6.465646936625e-06 0.0 
6.465646936625e-06 4.111371662768e-03 0.0 
0.0 0.0 0.0 
-6.070601075649e-05 2.732866238979e-04 0.0 
2.732866238979e-04 8.164958458199e-03 0.0 
0.0 0.0 0.0 
3.884489220125e-05 2.942490860894e-04 0.0 
2.942490860894e-04 7.709094897383e-03 0.0 
0.0 0.0 0.0 
-6.232660863670e-05 2.546891534727e-04 0.0 
2.546891534727e-04 4.337991310860e-04 0.0 
0.0 0.0 0.0 
1.675035502777e-04 7.091920222495e-06 0.0 
7.091920222495e-06 5.078597095453e-03 0.0 
0.0 0.0 0.0 
-8.413327818690e-06 -2.153117848685e-05 0.0 
-2.153117848685e-05 5.096792128334e-04 0.0 
0.0 0.0 0.0 
5.331991707922e-05 1.422767045587e-04 0.0 
1.422767045587e-04 7.832348657875e-03 0.0 
0.0 0.0 0.0 
1.717341739641e-04 3.862214568908e-06 0.0 
3.862214568908e-06 4.295352480611e-03 0.0 
0.0 0.0 0.0 
3.826630928960e-05 5.054431763257e-05 0.0 
5.054431763257e-05 1.414531300552e-03 0.0 
0.0 0.0 0.0 
-1.023725521774e-04 8.160145616511e-06 0.0 
8.160145616511e-06 1.499062355486e-03 0.0 
0.0 0.0 0.0 
-3.279373756479e-05 6.047034260983e-05 0.0 
6.047034260983e-05 1.848764751960e-03 0.0 
0.0 0.0 0.0 
-8.276999525658e-05 2.376563902677e-06 0.0 
2.376563902677e-06 1.936985444433e-03 0.0 
0.0 0.0 0.0 
-6.998960420915e-05 4.955019176631e-05 0.0 
4.955019176631e-05 2.285632028420e-03 0.0 
0.0 0.0 0.0 
-7.402644110419e-05 -1.712546443640e-06 0.0 
-1.712546443640e-06 2.334974042071e-03 0.0 
0.0 0.0 0.0 
-9.608979666467e-05 3.495113041451e-05 0.0 
3.495113041451e-05 2.722389515566e-03 0.0 
0.0 0.0 0.0 
-7.396200180390e-05 -1.933989532944e-06 0.0 
-1.933989532944e-06 2.786728059333e-03 0.0 
0.0 0.0 0.0 
-1.118492274351e-04 2.655877669998e-05 0.0 
2.655877669998e-05 3.157894037099e-03 0.0 
0.0 0.0 0.0 
-7.609930615859e-05 -1.983752669161e-06 0.0 
-1.983752669161e-06 3.190872866464e-03 0.0 
0.0 0.0 0.0 
-1.277701593571e-04 1.628760247694e-05 0.0 
1.628760247694e-05 3.592586622459e-03 0.0 
0.0 0.0 0.0 
-7.843335410970e-05 -1.975991194187e-06 0.0 
-1.975991194187e-06 3.643954084396e-03 0.0 
0.0 0.0 0.0 
-1.340608271798e-04 1.313254321652e-05 0.0 
1.313254321652e-05 4.025860615834e-03 0.0 
0.0 0.0 0.0 
-8.118823695613e-05 -1.644454381281e-06 0.0 
-1.644454381281e-06 4.048248444341e-03 0.0 
0.0 0.0 0.0 
-1.361335056709e-04 1.230088564562e-05 0.0 
1.230088564562e-05 4.456770841847e-03 0.0 
0.0 0.0 0.0 
-8.231150190183e-05 3.221307539386e-07 0.0 
3.221307539386e-07 4.500084360186e-03 0.0 
0.0 0.0 0.0 
-1.338474229713e-04 1.517025733215e-05 0.0 
1.517025733215e-05 4.886618460901e-03 0.0 
0.0 0.0 0.0 
-8.656144850469e-05 5.384110270235e-06 0.0 
5.384110270235e-06 4.902926637334e-03 0.0 
0.0 0.0 0.0 

TENSORS node_materi_strain_plasti float
-1.741775845211e-05 -2.168405097446e-06 0.0 
-2.168405097446e-06 1.395813736689e-04 0.0 
0.0 0.0 -3.282868849617e-05 
-7.193710724364e-04 -1.122442495584e-04 0.0 
-1.122442495584e-04 4.531072016065e-03 0.0 
0.0 0.0 -6.959116756397e-04 
-1.326721611229e-03 9.743109485019e-05 0.0 
9.743109485019e-05 8.921087027136e-03 0.0 
0.0 0.0 -1.332621093165e-03 
-1.328526300077e-03 -9.718698781147e-05 0.0 
-9.718698781147e-05 8.927311597372e-03 0.0 
0.0 0.0 -1.332621093165e-03 
-8.193859278094e-05 3.577520009453e-05 0.0 
3.577520009453e-05 3.368763971302e-04 0.0 
0.0 0.0 -8.453455331316e-05 
-1.695924659271e-04 1.267609683743e-04 0.0 
1.267609683743e-04 8.452299049113e-04 0.0 
0.0 0.0 -1.619080202416e-04 
-2.296336673595e-04 1.041833740939e-04 0.0 
1.041833740939e-04 1.224476071287e-03 0.0 
0.0 0.0 -2.266090766362e-04 
-2.971855348456e-04 9.450166671955e-05 0.0 
9.450166671955e-05 1.745895085854e-03 0.0 
0.0 0.0 -2.937643997455e-04 
-3.715291688780e-04 6.977872566520e-05 0.0 
6.977872566520e-05 2.214517262813e-03 0.0 
0.0 0.0 -3.610469555860e-04 
-4.249688263073e-04 6.584730845625e-05 0.0 
6.584730845625e-05 2.664484643095e-03 0.0 
0.0 0.0 -4.277228197774e-04 
-4.875317281638e-04 7.284843635977e-05 0.0 
7.284843635977e-05 3.123402469253e-03 0.0 
0.0 0.0 -4.940119848999e-04 
-5.560650258811e-04 6.506894170195e-05 0.0 
6.506894170195e-05 3.586726731214e-03 0.0 
0.0 0.0 -5.601824523721e-04 
-6.219544696599e-04 6.499150418632e-05 0.0 
6.499150418632e-05 4.044891981262e-03 0.0 
0.0 0.0 -6.267196139102e-04 
-6.989301157160e-04 8.304445482453e-05 0.0 
8.304445482453e-05 4.516508974108e-03 0.0 
0.0 0.0 -6.936951881209e-04 
-7.842461813792e-04 1.250766207627e-04 0.0 
1.250766207627e-04 5.027932232893e-03 0.0 
0.0 0.0 -7.607197531558e-04 
-8.342478146059e-04 1.327780010266e-04 0.0 
1.327780010266e-04 5.490101288131e-03 0.0 
0.0 0.0 -8.270758575053e-04 
-8.797786789152e-04 1.730981527131e-04 0.0 
1.730981527131e-04 5.870913224211e-03 0.0 
0.0 0.0 -8.903361771248e-04 
-9.530636179412e-04 6.774981962024e-05 0.0 
6.774981962024e-05 6.360455625450e-03 0.0 
0.0 0.0 -9.558084330571e-04 
-1.021468397639e-03 6.438406854748e-05 0.0 
6.438406854748e-05 6.838909130196e-03 0.0 
0.0 0.0 -1.024523475697e-03 
-1.087303877607e-03 6.616077821805e-05 0.0 
6.616077821805e-05 7.302617105742e-03 0.0 
0.0 0.0 -1.091244731156e-03 
-1.157611465321e-03 6.099216604961e-05 0.0 
6.099216604961e-05 7.775325521779e-03 0.0 
0.0 0.0 -1.158330123333e-03 
-1.229956863987e-03 7.577779225234e-05 0.0 
7.577779225234e-05 8.251739665694e-03 0.0 
0.0 0.0 -1.226073836101e-03 
-1.285597262298e-03 9.777469733004e-05 0.0 
9.777469733004e-05 8.717344745921e-03 0.0 
0.0 0.0 -1.289832767750e-03 
-1.328056332164e-03 -6.444803612929e-06 0.0 
-6.444803612929e-06 8.942057407760e-03 0.0 
0.0 0.0 -1.336902025401e-03 
-1.335490548137e-03 -3.051268407678e-06 0.0 
-3.051268407678e-06 8.928554519845e-03 0.0 
0.0 0.0 -1.332945767435e-03 
-1.336130347494e-03 -6.396074884476e-05 0.0 
-6.396074884476e-05 8.918857970665e-03 0.0 
0.0 0.0 -1.334903170087e-03 
-1.339230604727e-03 3.012709249351e-05 0.0 
3.012709249351e-05 8.923856553285e-03 0.0 
0.0 0.0 -1.334459899807e-03 
-1.337146058389e-03 -8.398799894874e-06 0.0 
-8.398799894874e-06 8.911324906834e-03 0.0 
0.0 0.0 -1.332067731643e-03 
-1.335355832928e-03 1.075181302724e-06 0.0 
1.075181302724e-06 8.911332561918e-03 0.0 
0.0 0.0 -1.335050935171e-03 
-1.325449513940e-03 2.957247517956e-06 0.0 
2.957247517956e-06 8.920139941522e-03 0.0 
0.0 0.0 -1.335055123498e-03 
-1.337345353037e-03 -9.523690686198e-06 0.0 
-9.523690686198e-06 8.921732771433e-03 0.0 
0.0 0.0 -1.333530254363e-03 
-1.334717977068e-03 -4.294761687245e-05 0.0 
-4.294761687245e-05 8.930458145260e-03 0.0 
0.0 0.0 -1.336259905589e-03 
-1.337792100019e-03 2.741258004611e-05 0.0 
2.741258004611e-05 8.934606220421e-03 0.0 
0.0 0.0 -1.335712483792e-03 
-1.336136187727e-03 -6.884802183741e-06 0.0 
-6.884802183741e-06 8.921957108707e-03 0.0 
0.0 0.0 -1.333313947604e-03 
-1.338126723765e-03 -4.814512478211e-06 0.0 
-4.814512478211e-06 8.924502617003e-03 0.0 
0.0 0.0 -1.335862559377e-03 
-1.327324523368e-03 -1.060172701920e-07 0.0 
-1.060172701920e-07 8.942333996565e-03 0.0 
0.0 0.0 -1.336097458551e-03 
-1.338609928482e-03 -2.842890241029e-06 0.0 
-2.842890241029e-06 8.932107808072e-03 0.0 
0.0 0.0 -1.335235043394e-03 
-1.329400644355e-03 -1.048596426291e-05 0.0 
-1.048596426291e-05 8.921074213048e-03 0.0 
0.0 0.0 -1.334297546486e-03 
-1.338340837827e-03 9.966400157380e-06 0.0 
9.966400157380e-06 8.903421378777e-03 0.0 
0.0 0.0 -1.332308435384e-03 
-1.339067962771e-03 -2.558483156546e-06 0.0 
-2.558483156546e-06 8.895896267544e-03 0.0 
0.0 0.0 -1.332019584455e-03 
-1.327125647707e-03 1.639257363251e-06 0.0 
1.639257363251e-06 8.917700513123e-03 0.0 
0.0 0.0 -1.333392124151e-03 
-1.334568721853e-03 -4.268105943785e-06 0.0 
-4.268105943785e-06 8.928545997729e-03 0.0 
0.0 0.0 -1.334727449481e-03 
-1.336827804858e-03 -5.001027102512e-06 0.0 
-5.001027102512e-06 8.928021219148e-03 0.0 
0.0 0.0 -1.336576889699e-03 
-1.337235537648e-03 1.693416763899e-05 0.0 
1.693416763899e-05 8.930023700079e-03 0.0 
0.0 0.0 -1.335888391555e-03 
-1.331872643832e-03 -1.070662442944e-06 0.0 
-1.070662442944e-06 8.931108733201e-03 0.0 
0.0 0.0 -1.334783226448e-03 
-1.335383687196e-03 3.225376233217e-06 0.0 
3.225376233217e-06 8.925108831379e-03 0.0 
0.0 0.0 -1.335053869153e-03 
-1.335647092676e-03 -1.629379981326e-06 0.0 
-1.629379981326e-06 8.920485307702e-03 0.0 
0.0 0.0 -1.334960189349e-03 
-1.336340449165e-03 -1.285585314755e-06 0.0 
-1.285585314755e-06 8.933772799625e-03 0.0 
0.0 0.0 -1.334889991128e-03 
-1.330589077276e-03 -4.874946038578e-06 0.0 
-4.874946038578e-06 8.935469598915e-03 0.0 
0.0 0.0 -1.335774086633e-03 
-1.341165284707e-03 -5.814943729686e-06 0.0 
-5.814943729686e-06 8.933862901487e-03 0.0 
0.0 0.0 -1.336605656894e-03 
-1.330240946256e-03 -4.520075279769e-06 0.0 
-4.520075279769e-06 8.938118272604e-03 0.0 
0.0 0.0 -1.336508443943e-03 
-1.338673330008e-03 -5.862543655719e-06 0.0 
-5.862543655719e-06 8.942517447788e-03 0.0 
0.0 0.0 -1.335343284290e-03 
-1.336600650314e-03 -3.582742261962e-05 0.0 
-3.582742261962e-05 8.951381047284e-03 0.0 
0.0 0.0 -1.337998490269e-03 
-1.341076503417e-03 3.451828262941e-05 0.0 
3.451828262941e-05 8.946627943271e-03 0.0 
0.0 0.0 -1.337247094005e-03 
-1.334448453648e-03 1.095281049644e-05 0.0 
1.095281049644e-05 8.923080866366e-03 0.0 
0.0 0.0 -1.333783489999e-03 
-1.333263826439e-03 -4.659210696583e-08 0.0 
-4.659210696583e-08 8.908320836892e-03 0.0 
0.0 0.0 -1.334548731617e-03 
-1.334150017560e-03 -8.272198035474e-06 0.0 
-8.272198035474e-06 8.929832025163e-03 0.0 
0.0 0.0 -1.334619746794e-03 
-1.331619300726e-03 -1.909948370259e-06 0.0 
-1.909948370259e-06 8.928586538444e-03 0.0 
0.0 0.0 -1.335242115105e-03 
-1.340870630612e-03 -1.061733168398e-05 0.0 
-1.061733168398e-05 8.926675419192e-03 0.0 
0.0 0.0 -1.335691437541e-03 
-1.329659514104e-03 -2.082049369195e-06 0.0 
-2.082049369195e-06 8.934711562866e-03 0.0 
0.0 0.0 -1.335646478247e-03 
-1.339117702311e-03 -4.029677061323e-07 0.0 
-4.029677061323e-07 8.924836081587e-03 0.0 
0.0 0.0 -1.334931242407e-03 
-1.328302087749e-03 -6.726834891335e-06 0.0 
-6.726834891335e-06 8.915098302923e-03 0.0 
0.0 0.0 -1.334100791702e-03 
-1.338339244626e-03 1.868410609640e-06 0.0 
1.868410609640e-06 8.913909047127e-03 0.0 
0.0 0.0 -1.332237298415e-03 
-1.340573467967e-03 -1.512560094744e-05 0.0 
-1.512560094744e-05 8.916790452845e-03 0.0 
0.0 0.0 -1.333749945600e-03 
-1.332872318884e-03 1.070088453614e-05 0.0 
1.070088453614e-05 8.939654193892e-03 0.0 
0.0 0.0 -1.336652505695e-03 
-1.326343527950e-03 -1.064817557574e-05 0.0 
-1.064817557574e-05 8.953327537606e-03 0.0 
0.0 0.0 -1.337094627689e-03 
-1.334975160234e-03 -1.103658676067e-05 0.0 
-1.103658676067e-05 8.887287544370e-03 0.0 
0.0 0.0 -1.328990728106e-03 
-1.326727222271e-03 3.789706117049e-06 0.0 
3.789706117049e-06 8.937395178325e-03 0.0 
0.0 0.0 -1.335900064369e-03 
-1.338702731113e-03 6.248103656251e-07 0.0 
6.248103656251e-07 8.926718973225e-03 0.0 
0.0 0.0 -1.332523500780e-03 
-1.338833780446e-03 -4.056504769856e-05 0.0 
-4.056504769856e-05 8.921997078910e-03 0.0 
0.0 0.0 -1.335219049675e-03 
-1.336003357241e-03 1.668194413568e-05 0.0 
1.668194413568e-05 8.951047853454e-03 0.0 
0.0 0.0 -1.336566422126e-03 
-1.338588357839e-03 -8.318316932401e-07 0.0 
-8.318316932401e-07 8.955066587464e-03 0.0 
0.0 0.0 -1.335855682064e-03 
-7.644479361830e-04 -7.854511718928e-05 0.0 
-7.854511718928e-05 4.967324475694e-03 0.0 
0.0 0.0 -7.648954205800e-04 
-8.429692067441e-04 -8.894340543493e-05 0.0 
-8.894340543493e-05 5.465473064469e-03 0.0 
0.0 0.0 -8.298981322982e-04 
-9.045101262401e-04 -8.649802336555e-05 0.0 
-8.649802336555e-05 5.927599153875e-03 0.0 
0.0 0.0 -8.959277352460e-04 
-9.682355907570e-04 -9.235019684030e-05 0.0 
-9.235019684030e-05 6.375436758553e-03 0.0 
0.0 0.0 -9.610467530554e-04 
-1.034301386645e-03 -8.131875668407e-05 0.0 
-8.131875668407e-05 6.841207604472e-03 0.0 
0.0 0.0 -1.026987810050e-03 
-1.084652817885e-03 -8.917462571015e-05 0.0 
-8.917462571015e-05 7.307643626561e-03 0.0 
0.0 0.0 -1.092790196867e-03 
-1.153469442186e-03 -7.930470280165e-05 0.0 
-7.930470280165e-05 7.768901773096e-03 0.0 
0.0 0.0 -1.158290425478e-03 
-1.218602686822e-03 -9.135197616384e-05 0.0 
-9.135197616384e-05 8.209166370611e-03 0.0 
0.0 0.0 -1.224481705251e-03 
-1.280117147855e-03 -1.008986322443e-04 0.0 
-1.008986322443e-04 8.709401710635e-03 0.0 
0.0 0.0 -1.288782062784e-03 
-1.752208263143e-05 3.240785673632e-05 0.0 
3.240785673632e-05 1.037696529891e-04 0.0 
0.0 0.0 -2.939528373048e-05 
-6.988773385000e-04 -6.414203901489e-06 0.0 
-6.414203901489e-06 4.541118799231e-03 0.0 
0.0 0.0 -6.945495707198e-04 
-9.527610097245e-05 2.254058004454e-05 0.0 
2.254058004454e-05 4.537584869079e-04 0.0 
0.0 0.0 -1.077120670431e-04 
-1.460576770734e-04 1.484046150929e-05 0.0 
1.484046150929e-05 7.770591630460e-04 0.0 
0.0 0.0 -1.583297350193e-04 
-2.114848956374e-04 1.739449406964e-05 0.0 
1.739449406964e-05 1.245945048977e-03 0.0 
0.0 0.0 -2.251841147728e-04 
-2.826384836080e-04 1.494194675664e-05 0.0 
1.494194675664e-05 1.693936406411e-03 0.0 
0.0 0.0 -2.907975307606e-04 
-3.467236823258e-04 1.624238360764e-05 0.0 
1.624238360764e-05 2.160989176577e-03 0.0 
0.0 0.0 -3.576084760620e-04 
-4.034182833337e-04 -4.200861776736e-06 0.0 
-4.200861776736e-06 2.629562399744e-03 0.0 
0.0 0.0 -4.246591878591e-04 
-4.761223259385e-04 6.452176696025e-07 0.0 
6.452176696025e-07 3.097474449594e-03 0.0 
0.0 0.0 -4.913636896408e-04 
-5.446829016033e-04 3.333337451638e-07 0.0 
3.333337451638e-07 3.565252150871e-03 0.0 
0.0 0.0 -5.580753662734e-04 
-6.120040484324e-04 -3.148004277915e-06 0.0 
-3.148004277915e-06 4.032884488981e-03 0.0 
0.0 0.0 -6.248674136757e-04 
-1.361205340398e-04 -1.585580009713e-04 0.0 
-1.585580009713e-04 5.617517980858e-04 0.0 
0.0 0.0 -1.155555555556e-04 
-1.642590555560e-04 -1.979149936673e-04 0.0 
-1.979149936673e-04 8.153075685150e-04 0.0 
0.0 0.0 -1.600000000000e-04 
-2.320762863941e-04 -1.605175487933e-04 0.0 
-1.605175487933e-04 1.276726721346e-03 0.0 
0.0 0.0 -2.266666666667e-04 
-2.986636326699e-04 -2.023172378402e-04 0.0 
-2.023172378402e-04 1.738781714550e-03 0.0 
0.0 0.0 -2.933333333333e-04 
-3.640335269793e-04 -1.647957464760e-04 0.0 
-1.647957464760e-04 2.201281042858e-03 0.0 
0.0 0.0 -3.600000000000e-04 
-4.304425780171e-04 -2.046254239306e-04 0.0 
-2.046254239306e-04 2.664768429398e-03 0.0 
0.0 0.0 -4.266666666667e-04 
-4.966420638955e-04 -1.663109596127e-04 0.0 
-1.663109596127e-04 3.128374407042e-03 0.0 
0.0 0.0 -4.933333333333e-04 
-5.622839918589e-04 -2.001712001392e-04 0.0 
-2.001712001392e-04 3.590232611973e-03 0.0 
0.0 0.0 -5.600000000000e-04 
-6.246804992584e-04 -1.417515320002e-04 0.0 
-1.417515320002e-04 4.042867570769e-03 0.0 
0.0 0.0 -6.266666666667e-04 
-6.913130996727e-04 5.498609571768e-05 0.0 
5.498609571768e-05 4.454824349021e-03 0.0 
0.0 0.0 -6.874962403976e-04 
-6.868874145389e-04 4.265374631682e-06 0.0 
4.265374631682e-06 4.486723904769e-03 0.0 
0.0 0.0 -6.910932206029e-04 
-6.934978988667e-04 4.367505525820e-06 0.0 
4.367505525820e-06 4.491335876748e-03 0.0 
0.0 0.0 -6.911911970487e-04 
-6.907997940409e-04 -7.067285999291e-06 0.0 
-7.067285999291e-06 4.485601554890e-03 0.0 
0.0 0.0 -6.903356507966e-04 
-6.907918205776e-04 4.658551261964e-06 0.0 
4.658551261964e-06 4.562156077984e-03 0.0 
0.0 0.0 -6.980756478071e-04 
-6.892878188424e-04 5.414637571099e-06 0.0 
5.414637571099e-06 4.494915586897e-03 0.0 
0.0 0.0 -6.911448554634e-04 
-6.797647522222e-04 -6.151835168632e-06 0.0 
-6.151835168632e-06 4.487621365133e-03 0.0 
0.0 0.0 -6.903833977050e-04 
-6.832908759363e-04 1.181523808990e-05 0.0 
1.181523808990e-05 4.498914041665e-03 0.0 
0.0 0.0 -6.905588330458e-04 
-6.949806625349e-04 2.423611152395e-06 0.0 
2.423611152395e-06 4.508372842652e-03 0.0 
0.0 0.0 -6.922444453805e-04 
-6.970682970385e-04 1.264857313784e-05 0.0 
1.264857313784e-05 4.510203072304e-03 0.0 
0.0 0.0 -6.916098530255e-04 
-6.888508586807e-04 7.096050778982e-06 0.0 
7.096050778982e-06 4.506612582973e-03 0.0 
0.0 0.0 -6.911665914957e-04 
-6.923116819991e-04 3.442306794673e-06 0.0 
3.442306794673e-06 4.500662587744e-03 0.0 
0.0 0.0 -6.911615840689e-04 
-6.874005628903e-04 1.547082050469e-05 0.0 
1.547082050469e-05 4.496710901948e-03 0.0 
0.0 0.0 -6.914992001314e-04 
-6.904170598993e-04 2.109837221789e-05 0.0 
2.109837221789e-05 4.507680445908e-03 0.0 
0.0 0.0 -6.922481495424e-04 
-2.592440264170e-05 -1.590076434165e-05 0.0 
-1.590076434165e-05 1.361807839619e-04 0.0 
0.0 0.0 -2.981554499673e-05 
-3.446067835921e-05 -4.722769694990e-06 0.0 
-4.722769694990e-06 1.514232641041e-04 0.0 
0.0 0.0 -3.001360406192e-05 
-1.576164107189e-05 6.855840384387e-06 0.0 
6.855840384387e-06 1.420727738414e-04 0.0 
0.0 0.0 -2.891678940537e-05 
-1.058332407340e-05 -2.088674468891e-05 0.0 
-2.088674468891e-05 1.367187831328e-04 0.0 
0.0 0.0 -2.889836327124e-05 
-3.364373544555e-05 -3.089965635258e-05 0.0 
-3.089965635258e-05 1.595260388365e-04 0.0 
0.0 0.0 -3.040745255895e-05 
-4.176671741931e-05 -6.138377296778e-06 0.0 
-6.138377296778e-06 1.798263625009e-04 0.0 
0.0 0.0 -3.068777868300e-05 
-3.824342451581e-05 5.591674158897e-07 0.0 
5.591674158897e-07 1.791426173783e-04 0.0 
0.0 0.0 -3.058835961954e-05 
-3.226360630243e-05 -1.341036859016e-06 0.0 
-1.341036859016e-06 1.722310666212e-04 0.0 
0.0 0.0 -3.053879953887e-05 
-3.075195274388e-05 -3.753502375185e-06 0.0 
-3.753502375185e-06 1.736984769830e-04 0.0 
0.0 0.0 -3.044251428418e-05 
-2.638860610343e-05 -7.894449171806e-06 0.0 
-7.894449171806e-06 1.709687444738e-04 0.0 
0.0 0.0 -3.048531495051e-05 
-2.681419529694e-05 -1.626482453990e-05 0.0 
-1.626482453990e-05 1.776638784057e-04 0.0 
0.0 0.0 -3.060061046523e-05 
-4.178895109071e-05 4.651397470156e-06 0.0 
4.651397470156e-06 1.936858804511e-04 0.0 
0.0 0.0 -3.133350520012e-05 
-3.584663091299e-05 2.920944978626e-05 0.0 
2.920944978626e-05 1.814285478668e-04 0.0 
0.0 0.0 -3.101487170496e-05 
-1.892508329030e-05 9.286208390834e-06 0.0 
9.286208390834e-06 1.578481945027e-04 0.0 
0.0 0.0 -3.010388419214e-05 
-2.660519595212e-05 -4.398298942812e-06 0.0 
-4.398298942812e-06 1.591906609278e-04 0.0 
0.0 0.0 -3.041972112533e-05 
-4.134075465171e-05 1.617060886410e-06 0.0 
1.617060886410e-06 1.756452327158e-04 0.0 
0.0 0.0 -3.060566238437e-05 
-4.636580504523e-05 5.643116689733e-06 0.0 
5.643116689733e-06 1.798643178415e-04 0.0 
0.0 0.0 -3.058114983003e-05 
-3.066571027210e-05 2.752472550755e-05 0.0 
2.752472550755e-05 1.500341931887e-04 0.0 
0.0 0.0 -3.041506914824e-05 
-1.475246436935e-05 4.693943976226e-06 0.0 
4.693943976226e-06 1.322021267255e-04 0.0 
0.0 0.0 -2.944997384815e-05 
-9.391366027924e-05 1.153069687851e-04 0.0 
1.153069687851e-04 5.125545740300e-04 0.0 
0.0 0.0 -1.155555555556e-04 
-1.168935266970e-04 -5.828737543718e-06 0.0 
-5.828737543718e-06 5.699215786277e-04 0.0 
0.0 0.0 -1.158267548826e-04 
-1.203149469447e-04 -1.282744623631e-05 0.0 
-1.282744623631e-05 6.158680882393e-04 0.0 
0.0 0.0 -1.172175160001e-04 
-1.210671452348e-04 -1.114340310896e-05 0.0 
-1.114340310896e-05 6.209236760057e-04 0.0 
0.0 0.0 -1.174588958471e-04 
-1.212052654077e-04 -8.800368827275e-06 0.0 
-8.800368827275e-06 6.223675374787e-04 0.0 
0.0 0.0 -1.175485774241e-04 
-1.209980080739e-04 -6.760493950248e-06 0.0 
-6.760493950248e-06 6.230467549535e-04 0.0 
0.0 0.0 -1.175928832325e-04 
-1.206811380354e-04 -5.281259154805e-06 0.0 
-5.281259154805e-06 6.233633220276e-04 0.0 
0.0 0.0 -1.176152137899e-04 
-1.203488329948e-04 -4.259309110223e-06 0.0 
-4.259309110223e-06 6.234744598087e-04 0.0 
0.0 0.0 -1.176255183587e-04 
-1.200355684160e-04 -3.501338702941e-06 0.0 
-3.501338702941e-06 6.234642858451e-04 0.0 
0.0 0.0 -1.176288610312e-04 
-1.197581923688e-04 -2.821383037197e-06 0.0 
-2.821383037197e-06 6.233831157221e-04 0.0 
0.0 0.0 -1.176282342308e-04 
-1.195327392950e-04 -2.073427845800e-06 0.0 
-2.073427845800e-06 6.232682241797e-04 0.0 
0.0 0.0 -1.176259233138e-04 
-1.193797278063e-04 -1.174230352538e-06 0.0 
-1.174230352538e-06 6.231584620947e-04 0.0 
0.0 0.0 -1.176243226593e-04 
-1.193195065118e-04 -1.322047581388e-07 0.0 
-1.322047581388e-07 6.230918834439e-04 0.0 
0.0 0.0 -1.176247405044e-04 
-1.193654680824e-04 9.704694428765e-07 0.0 
9.704694428765e-07 6.230966059031e-04 0.0 
0.0 0.0 -1.176279671229e-04 
-1.195159692878e-04 2.015866674361e-06 0.0 
2.015866674361e-06 6.231747249492e-04 0.0 
0.0 0.0 -1.176323864425e-04 
-1.197656226045e-04 2.903533909055e-06 0.0 
2.903533909055e-06 6.233418067899e-04 0.0 
0.0 0.0 -1.176413299426e-04 
-1.200825739229e-04 3.480416667797e-06 0.0 
3.480416667797e-06 6.235552847788e-04 0.0 
0.0 0.0 -1.176469607938e-04 
-1.204595425687e-04 3.723175482090e-06 0.0 
3.723175482090e-06 6.238754275519e-04 0.0 
0.0 0.0 -1.176646456724e-04 
-1.208068269486e-04 3.420617142377e-06 0.0 
3.420617142377e-06 6.240873885235e-04 0.0 
0.0 0.0 -1.176584824898e-04 
-1.212113080980e-04 2.917116150320e-06 0.0 
2.917116150320e-06 6.246259862014e-04 0.0 
0.0 0.0 -1.177059020963e-04 
-1.213513988003e-04 1.260964348253e-06 0.0 
1.260964348253e-06 6.244163301016e-04 0.0 
0.0 0.0 -1.176313535616e-04 
-1.216692750283e-04 9.081063586732e-07 0.0 
9.081063586732e-07 6.252282999550e-04 0.0 
0.0 0.0 -1.177565579031e-04 
-1.210162845392e-04 -1.218457697594e-06 0.0 
-1.218457697594e-06 6.224640272507e-04 0.0 
0.0 0.0 -1.173993107862e-04 
-1.217254104203e-04 5.765703272149e-06 0.0 
5.765703272149e-06 6.252658089957e-04 0.0 
0.0 0.0 -1.179215019451e-04 
-1.198055783475e-04 8.693138128469e-07 0.0 
8.693138128469e-07 6.175587778381e-04 0.0 
0.0 0.0 -1.168618389266e-04 
-1.154163597196e-04 2.504784093250e-05 0.0 
2.504784093250e-05 6.271487411945e-04 0.0 
0.0 0.0 -1.210046540824e-04 
-1.142987625969e-04 -1.759985707714e-05 0.0 
-1.759985707714e-05 6.061920852815e-04 0.0 
0.0 0.0 -1.220348102057e-04 
-4.846496862099e-05 -5.604106933050e-06 0.0 
-5.604106933050e-06 4.155848426983e-04 0.0 
0.0 0.0 -1.085084563207e-04 
-1.113783985107e-04 1.203304524889e-05 0.0 
1.203304524889e-05 7.114326190948e-04 0.0 
0.0 0.0 -1.510276482808e-04 
-1.527081061741e-04 -2.061087282645e-06 0.0 
-2.061087282645e-06 8.272556531888e-04 0.0 
0.0 0.0 -1.592184548918e-04 
-1.512984695940e-04 1.331924032518e-05 0.0 
1.331924032518e-05 7.981703253947e-04 0.0 
0.0 0.0 -1.544287074729e-04 
-1.599246778953e-04 -2.215341539375e-06 0.0 
-2.215341539375e-06 7.972813424957e-04 0.0 
0.0 0.0 -1.546974434027e-04 
-1.581950999215e-04 1.999759211200e-06 0.0 
1.999759211200e-06 8.017002859748e-04 0.0 
0.0 0.0 -1.546149713817e-04 
-1.590776714749e-04 8.711309503170e-07 0.0 
8.711309503170e-07 8.007582290638e-04 0.0 
0.0 0.0 -1.547309927694e-04 
-1.581975233319e-04 3.572725087716e-06 0.0 
3.572725087716e-06 8.011911404276e-04 0.0 
0.0 0.0 -1.547056648660e-04 
-1.580244562606e-04 3.704833864791e-06 0.0 
3.704833864791e-06 8.004635048260e-04 0.0 
0.0 0.0 -1.547192293301e-04 
-1.576036836101e-04 4.371207812252e-06 0.0 
4.371207812252e-06 8.002815367676e-04 0.0 
0.0 0.0 -1.546986011181e-04 
-1.573101416105e-04 4.124672715451e-06 0.0 
4.124672715451e-06 7.998840225206e-04 0.0 
0.0 0.0 -1.546928402701e-04 
-1.569888602877e-04 3.673742477981e-06 0.0 
3.673742477981e-06 7.996181604363e-04 0.0 
0.0 0.0 -1.546811824052e-04 
-1.567462473684e-04 2.722121471942e-06 0.0 
2.722121471942e-06 7.993726914993e-04 0.0 
0.0 0.0 -1.546738952296e-04 
-1.565712080567e-04 1.580401071907e-06 0.0 
1.580401071907e-06 7.992334621964e-04 0.0 
0.0 0.0 -1.546672138198e-04 
-1.564973254304e-04 2.941222400167e-07 0.0 
2.941222400167e-07 7.991749239304e-04 0.0 
0.0 0.0 -1.546633908507e-04 
-1.565256674844e-04 -9.488122137070e-07 0.0 
-9.488122137070e-07 7.992157899371e-04 0.0 
0.0 0.0 -1.546615686189e-04 
-1.566363033046e-04 -2.028050207720e-06 0.0 
-2.028050207720e-06 7.993277195599e-04 0.0 
0.0 0.0 -1.546621600236e-04 
-1.567901597657e-04 -2.879385819155e-06 0.0 
-2.879385819155e-06 7.994604688096e-04 0.0 
0.0 0.0 -1.546641158093e-04 
-1.569550033321e-04 -3.556627963128e-06 0.0 
-3.556627963128e-06 7.995582591122e-04 0.0 
0.0 0.0 -1.546655846681e-04 
-1.571025695262e-04 -4.172711369437e-06 0.0 
-4.172711369437e-06 7.995787413170e-04 0.0 
0.0 0.0 -1.546642267320e-04 
-1.571999507241e-04 -4.866071954256e-06 0.0 
-4.866071954256e-06 7.994774784002e-04 0.0 
0.0 0.0 -1.546574031113e-04 
-1.571985320819e-04 -5.771315248739e-06 0.0 
-5.771315248739e-06 7.991935654768e-04 0.0 
0.0 0.0 -1.546410855482e-04 
-1.570230029365e-04 -6.946717986038e-06 0.0 
-6.946717986038e-06 7.986382110800e-04 0.0 
0.0 0.0 -1.546077673654e-04 
-1.565497805683e-04 -8.139205615221e-06 0.0 
-8.139205615221e-06 7.976855523537e-04 0.0 
0.0 0.0 -1.545407736726e-04 
-1.555603596835e-04 -7.457311552378e-06 0.0 
-7.457311552378e-06 7.961559223087e-04 0.0 
0.0 0.0 -1.543752429606e-04 
-1.532358648800e-04 1.505283542091e-05 0.0 
1.505283542091e-05 7.936784937623e-04 0.0 
0.0 0.0 -1.535591724784e-04 
-1.586292465192e-04 8.255464382965e-05 0.0 
8.255464382965e-05 8.062485708882e-04 0.0 
0.0 0.0 -1.573239219699e-04 
-1.757189766350e-04 2.015733327553e-05 0.0 
2.015733327553e-05 1.169996428695e-03 0.0 
0.0 0.0 -2.186390966643e-04 
-2.228638103157e-04 -9.521538894536e-06 0.0 
-9.521538894536e-06 1.291581809780e-03 0.0 
0.0 0.0 -2.293097019027e-04 
-2.289117877934e-04 9.489500089846e-06 0.0 
9.489500089846e-06 1.273233924635e-03 0.0 
0.0 0.0 -2.266666666667e-04 
-2.336541121386e-04 6.781843482313e-07 0.0 
6.781843482313e-07 1.269302934461e-03 0.0 
0.0 0.0 -2.266666666667e-04 
-2.317255520371e-04 5.516694580913e-06 0.0 
5.516694580913e-06 1.272863961575e-03 0.0 
0.0 0.0 -2.266666666667e-04 
-2.317812642911e-04 4.449795583727e-06 0.0 
4.449795583727e-06 1.270376319783e-03 0.0 
0.0 0.0 -2.266666666667e-04 
-2.310424369959e-04 5.356433285779e-06 0.0 
5.356433285779e-06 1.270812935721e-03 0.0 
0.0 0.0 -2.266666666667e-04 
-2.308889315447e-04 5.170693309765e-06 0.0 
5.170693309765e-06 1.269974481556e-03 0.0 
0.0 0.0 -2.266666666667e-04 
-2.303654616689e-04 4.964327453866e-06 0.0 
4.964327453866e-06 1.269656447122e-03 0.0 
0.0 0.0 -2.266666666667e-04 
-2.300574488920e-04 4.067751470256e-06 0.0 
4.067751470256e-06 1.269156639776e-03 0.0 
0.0 0.0 -2.266666666667e-04 
-2.297102415552e-04 2.860035625450e-06 0.0 
2.860035625450e-06 1.268882543445e-03 0.0 
0.0 0.0 -2.266666666667e-04 
-2.295375740557e-04 1.327963885220e-06 0.0 
1.327963885220e-06 1.268711530911e-03 0.0 
0.0 0.0 -2.266666666667e-04 
-2.295207096673e-04 -2.760738597427e-07 0.0 
-2.760738597427e-07 1.268747898697e-03 0.0 
0.0 0.0 -2.266666666667e-04 
-2.296544716819e-04 -1.720046700831e-06 0.0 
-1.720046700831e-06 1.268927355130e-03 0.0 
0.0 0.0 -2.266666666667e-04 
-2.298245913135e-04 -2.846357357064e-06 0.0 
-2.846357357064e-06 1.269153567826e-03 0.0 
0.0 0.0 -2.266666666667e-04 
-2.299713923060e-04 -3.686737751708e-06 0.0 
-3.686737751708e-06 1.269321420150e-03 0.0 
0.0 0.0 -2.266666666667e-04 
-2.300583825379e-04 -4.330118491625e-06 0.0 
-4.330118491625e-06 1.269372347715e-03 0.0 
0.0 0.0 -2.266666666667e-04 
-2.300373461787e-04 -4.869363162665e-06 0.0 
-4.869363162665e-06 1.269253654748e-03 0.0 
0.0 0.0 -2.266666666667e-04 
-2.298450162938e-04 -5.379771530632e-06 0.0 
-5.379771530632e-06 1.268909757281e-03 0.0 
0.0 0.0 -2.266666666667e-04 
-2.294036994122e-04 -5.885576231033e-06 0.0 
-5.885576231033e-06 1.268291326069e-03 0.0 
0.0 0.0 -2.266666666667e-04 
-2.286544723799e-04 -6.241462011569e-06 0.0 
-6.241462011569e-06 1.267401701856e-03 0.0 
0.0 0.0 -2.266666666667e-04 
-2.275874156242e-04 -5.912051605971e-06 0.0 
-5.912051605971e-06 1.266380669848e-03 0.0 
0.0 0.0 -2.266666666667e-04 
-2.264785130765e-04 -3.989917904443e-06 0.0 
-3.989917904443e-06 1.265866820548e-03 0.0 
0.0 0.0 -2.266666666667e-04 
-2.271890896838e-04 -2.039679845349e-06 0.0 
-2.039679845349e-06 1.268870066226e-03 0.0 
0.0 0.0 -2.266666666667e-04 
-2.306855692958e-04 1.136792377783e-04 0.0 
1.136792377783e-04 1.274657125229e-03 0.0 
0.0 0.0 -2.266666666667e-04 
-2.970218210651e-04 7.785591067420e-05 0.0 
7.785591067420e-05 1.736401244533e-03 0.0 
0.0 0.0 -2.933333333333e-04 
-2.941299774760e-04 1.831399556342e-05 0.0 
1.831399556342e-05 1.732126897949e-03 0.0 
0.0 0.0 -2.933333333333e-04 
-2.937600754571e-04 -1.751607331651e-06 0.0 
-1.751607331651e-06 1.731075563536e-03 0.0 
0.0 0.0 -2.933333333333e-04 
-2.942652969506e-04 -3.919543074497e-06 0.0 
-3.919543074497e-06 1.731357780471e-03 0.0 
0.0 0.0 -2.933333333333e-04 
-2.950107556751e-04 -4.421896676889e-06 0.0 
-4.421896676889e-06 1.732082547633e-03 0.0 
0.0 0.0 -2.933333333333e-04 
-2.956972306013e-04 -4.536584589682e-06 0.0 
-4.536584589682e-06 1.732803218560e-03 0.0 
0.0 0.0 -2.933333333333e-04 
-2.961870944633e-04 -4.534681293830e-06 0.0 
-4.534681293830e-06 1.733302425641e-03 0.0 
0.0 0.0 -2.933333333333e-04 
-2.964446907551e-04 -4.383091967362e-06 0.0 
-4.383091967362e-06 1.733534087661e-03 0.0 
0.0 0.0 -2.933333333333e-04 
-2.965448609062e-04 -4.032111778719e-06 0.0 
-4.032111778719e-06 1.733556567348e-03 0.0 
0.0 0.0 -2.933333333333e-04 
-2.965422066374e-04 -3.441128449051e-06 0.0 
-3.441128449051e-06 1.733417935372e-03 0.0 
0.0 0.0 -2.933333333333e-04 
-2.964637898873e-04 -2.583146228101e-06 0.0 
-2.583146228101e-06 1.733161460896e-03 0.0 
0.0 0.0 -2.933333333333e-04 
-2.962859802227e-04 -1.356637869366e-06 0.0 
-1.356637869366e-06 1.732810030484e-03 0.0 
0.0 0.0 -2.933333333333e-04 
-2.961232762222e-04 4.322717175537e-07 0.0 
4.322717175537e-07 1.732599157441e-03 0.0 
0.0 0.0 -2.933333333333e-04 
-2.962139862529e-04 2.310434450526e-06 0.0 
2.310434450526e-06 1.732668458157e-03 0.0 
0.0 0.0 -2.933333333333e-04 
-2.965791624248e-04 4.118196179478e-06 0.0 
4.118196179478e-06 1.733173681766e-03 0.0 
0.0 0.0 -2.933333333333e-04 
-2.970197935224e-04 4.810030904273e-06 0.0 
4.810030904273e-06 1.733539864650e-03 0.0 
0.0 0.0 -2.933333333333e-04 
-2.972728426878e-04 6.019823157692e-06 0.0 
6.019823157692e-06 1.734462446054e-03 0.0 
0.0 0.0 -2.933333333333e-04 
-2.976303353794e-04 4.729593283435e-06 0.0 
4.729593283435e-06 1.734285895178e-03 0.0 
0.0 0.0 -2.933333333333e-04 
-2.972060370648e-04 6.898574448954e-06 0.0 
6.898574448954e-06 1.735976803444e-03 0.0 
0.0 0.0 -2.933333333333e-04 
-2.978582241911e-04 3.049832582786e-06 0.0 
3.049832582786e-06 1.732847460673e-03 0.0 
0.0 0.0 -2.933333333333e-04 
-2.930809121252e-04 1.459049574271e-05 0.0 
1.459049574271e-05 1.737198194830e-03 0.0 
0.0 0.0 -2.933333333333e-04 
-2.902738991463e-04 -7.427477140233e-06 0.0 
-7.427477140233e-06 1.761638628587e-03 0.0 
0.0 0.0 -2.960058309038e-04 
-2.435748903376e-04 1.260028918425e-05 0.0 
1.260028918425e-05 1.641234534695e-03 0.0 
0.0 0.0 -2.853401360544e-04 
-3.075534139628e-04 2.412740121267e-05 0.0 
2.412740121267e-05 2.105219673239e-03 0.0 
0.0 0.0 -3.519676952907e-04 
-3.514953782151e-04 -6.121431231784e-06 0.0 
-6.121431231784e-06 2.223151637376e-03 0.0 
0.0 0.0 -3.626389769158e-04 
-3.587315693995e-04 1.096665782630e-05 0.0 
1.096665782630e-05 2.201776320981e-03 0.0 
0.0 0.0 -3.600000000000e-04 
-3.644459387370e-04 2.098126894706e-06 0.0 
2.098126894706e-06 2.197482783051e-03 0.0 
0.0 0.0 -3.600000000000e-04 
-3.637653208407e-04 5.938369815804e-06 0.0 
5.938369815804e-06 2.200852497904e-03 0.0 
0.0 0.0 -3.600000000000e-04 
-3.646562371602e-04 4.863047388640e-06 0.0 
4.863047388640e-06 2.198597723898e-03 0.0 
0.0 0.0 -3.600000000000e-04 
-3.637142436613e-04 5.528885479230e-06 0.0 
5.528885479230e-06 2.198572806408e-03 0.0 
0.0 0.0 -3.600000000000e-04 
-3.631451218203e-04 4.030632283972e-06 0.0 
4.030632283972e-06 2.197230825920e-03 0.0 
0.0 0.0 -3.600000000000e-04 
-3.626391425451e-04 1.799883791491e-06 0.0 
1.799883791491e-06 2.196963521096e-03 0.0 
0.0 0.0 -3.600000000000e-04 
-3.629347040581e-04 -6.248683363075e-07 0.0 
-6.248683363075e-07 2.197222075070e-03 0.0 
0.0 0.0 -3.600000000000e-04 
-3.632350885950e-04 -1.950524288105e-06 0.0 
-1.950524288105e-06 2.197839748043e-03 0.0 
0.0 0.0 -3.600000000000e-04 
-3.632347660019e-04 -2.695279990052e-06 0.0 
-2.695279990052e-06 2.198148142527e-03 0.0 
0.0 0.0 -3.600000000000e-04 
-3.631062498386e-04 -3.344861292445e-06 0.0 
-3.344861292445e-06 2.198321706153e-03 0.0 
0.0 0.0 -3.600000000000e-04 
-3.629810469011e-04 -3.774035134601e-06 0.0 
-3.774035134601e-06 2.198420640153e-03 0.0 
0.0 0.0 -3.600000000000e-04 
-3.627935109947e-04 -3.861239186074e-06 0.0 
-3.861239186074e-06 2.198346847940e-03 0.0 
0.0 0.0 -3.600000000000e-04 
-3.623659696942e-04 -3.546956865600e-06 0.0 
-3.546956865600e-06 2.197968515867e-03 0.0 
0.0 0.0 -3.600000000000e-04 
-3.616855162427e-04 -3.197901034656e-06 0.0 
-3.197901034656e-06 2.197284235415e-03 0.0 
0.0 0.0 -3.600000000000e-04 
-3.610100603434e-04 -2.926270428592e-06 0.0 
-2.926270428592e-06 2.196608022425e-03 0.0 
0.0 0.0 -3.600000000000e-04 
-3.605838742006e-04 -2.658699863581e-06 0.0 
-2.658699863581e-06 2.196334608217e-03 0.0 
0.0 0.0 -3.600000000000e-04 
-3.608368736123e-04 -2.739324103154e-06 0.0 
-2.739324103154e-06 2.197020254621e-03 0.0 
0.0 0.0 -3.600000000000e-04 
-3.621715591980e-04 -7.667076261686e-06 0.0 
-7.667076261686e-06 2.198997385104e-03 0.0 
0.0 0.0 -3.600000000000e-04 
-3.636156739341e-04 1.080730155248e-04 0.0 
1.080730155248e-04 2.200856497118e-03 0.0 
0.0 0.0 -3.600000000000e-04 
-4.299402721252e-04 7.347302390729e-05 0.0 
7.347302390729e-05 2.663982272910e-03 0.0 
0.0 0.0 -4.266666666667e-04 
-4.281937864377e-04 1.451679010037e-05 0.0 
1.451679010037e-05 2.661695578936e-03 0.0 
0.0 0.0 -4.266666666667e-04 
-4.272255423018e-04 -2.022714610518e-06 0.0 
-2.022714610518e-06 2.660645160847e-03 0.0 
0.0 0.0 -4.266666666667e-04 
-4.272027915601e-04 -2.022654054574e-06 0.0 
-2.022654054574e-06 2.660662658724e-03 0.0 
0.0 0.0 -4.266666666667e-04 
-4.275839105045e-04 -1.776178353133e-06 0.0 
-1.776178353133e-06 2.661218520015e-03 0.0 
0.0 0.0 -4.266666666667e-04 
-4.282801255787e-04 -1.791669274238e-06 0.0 
-1.791669274238e-06 2.662030669155e-03 0.0 
0.0 0.0 -4.266666666667e-04 
-4.290001024384e-04 -2.498947391547e-06 0.0 
-2.498947391547e-06 2.662671095001e-03 0.0 
0.0 0.0 -4.266666666667e-04 
-4.292899889364e-04 -3.096368850653e-06 0.0 
-3.096368850653e-06 2.662653268105e-03 0.0 
0.0 0.0 -4.266666666667e-04 
-4.293129381118e-04 -2.811819826603e-06 0.0 
-2.811819826603e-06 2.662413292682e-03 0.0 
0.0 0.0 -4.266666666667e-04 
-4.297697120825e-04 -2.022907387796e-06 0.0 
-2.022907387796e-06 2.662395731629e-03 0.0 
0.0 0.0 -4.266666666667e-04 
-4.302589968875e-04 -1.629717038830e-06 0.0 
-1.629717038830e-06 2.662394761870e-03 0.0 
0.0 0.0 -4.266666666667e-04 
-4.302560929618e-04 -1.576122482616e-06 0.0 
-1.576122482616e-06 2.661898826988e-03 0.0 
0.0 0.0 -4.266666666667e-04 
-4.295703799059e-04 -3.345604087402e-07 0.0 
-3.345604087402e-07 2.660486684286e-03 0.0 
0.0 0.0 -4.266666666667e-04 
-4.292671254285e-04 3.968937228656e-06 0.0 
3.968937228656e-06 2.660659650919e-03 0.0 
0.0 0.0 -4.266666666667e-04 
-4.306471619154e-04 5.513996825783e-06 0.0 
5.513996825783e-06 2.661538482777e-03 0.0 
0.0 0.0 -4.266666666667e-04 
-4.319020466915e-04 7.766791381144e-06 0.0 
7.766791381144e-06 2.665023339729e-03 0.0 
0.0 0.0 -4.266666666667e-04 
-4.328473215748e-04 8.154616711558e-07 0.0 
8.154616711558e-07 2.662572037119e-03 0.0 
0.0 0.0 -4.266666666667e-04 
-4.258499713217e-04 1.095715842585e-05 0.0 
1.095715842585e-05 2.664926400988e-03 0.0 
0.0 0.0 -4.266666666667e-04 
-4.219848975642e-04 -8.971773474757e-06 0.0 
-8.971773474757e-06 2.691197449249e-03 0.0 
0.0 0.0 -4.293391642371e-04 
-3.746379728484e-04 4.166569321959e-06 0.0 
4.166569321959e-06 2.570236127040e-03 0.0 
0.0 0.0 -4.186734693878e-04 
-4.417760951276e-04 9.193159012092e-06 0.0 
9.193159012092e-06 3.032321566953e-03 0.0 
0.0 0.0 -4.852947845805e-04 
-4.904405177129e-04 -1.236587849357e-05 0.0 
-1.236587849357e-05 3.156055993877e-03 0.0 
0.0 0.0 -4.959669582118e-04 
-4.967982216663e-04 1.212517501771e-05 0.0 
1.212517501771e-05 3.134098180657e-03 0.0 
0.0 0.0 -4.933333333333e-04 
-5.004792842088e-04 7.599146367907e-06 0.0 
7.599146367907e-06 3.126678995157e-03 0.0 
0.0 0.0 -4.933333333333e-04 
-4.960205318575e-04 8.775115201624e-06 0.0 
8.775115201624e-06 3.126031319544e-03 0.0 
0.0 0.0 -4.933333333333e-04 
-4.965309946115e-04 8.850955263351e-07 0.0 
8.850955263351e-07 3.123763413131e-03 0.0 
0.0 0.0 -4.933333333333e-04 
-4.975874164433e-04 -1.339673929123e-06 0.0 
-1.339673929123e-06 3.126915566987e-03 0.0 
0.0 0.0 -4.933333333333e-04 
-4.976423867723e-04 -5.110045370489e-07 0.0 
-5.110045370489e-07 3.127848901976e-03 0.0 
0.0 0.0 -4.933333333333e-04 
-4.971264610240e-04 4.324488759022e-07 0.0 
4.324488759022e-07 3.127700753298e-03 0.0 
0.0 0.0 -4.933333333333e-04 
-4.956643920610e-04 -1.986474812227e-07 0.0 
-1.986474812227e-07 3.126840649999e-03 0.0 
0.0 0.0 -4.933333333333e-04 
-4.952008726881e-04 -2.496870911332e-06 0.0 
-2.496870911332e-06 3.127189740971e-03 0.0 
0.0 0.0 -4.933333333333e-04 
-4.957950968528e-04 -2.119478958632e-06 0.0 
-2.119478958632e-06 3.128109892710e-03 0.0 
0.0 0.0 -4.933333333333e-04 
-4.947282309581e-04 -5.907354459501e-07 0.0 
-5.907354459501e-07 3.127398294072e-03 0.0 
0.0 0.0 -4.933333333333e-04 
-4.939115212163e-04 -6.664772443831e-07 0.0 
-6.664772443831e-07 3.126242560420e-03 0.0 
0.0 0.0 -4.933333333333e-04 
-4.934010452772e-04 -1.579724324278e-06 0.0 
-1.579724324278e-06 3.125563968915e-03 0.0 
0.0 0.0 -4.933333333333e-04 
-4.934695658846e-04 -2.572403036742e-06 0.0 
-2.572403036742e-06 3.125197225552e-03 0.0 
0.0 0.0 -4.933333333333e-04 
-4.937822211755e-04 -5.749801901612e-06 0.0 
-5.749801901612e-06 3.125650090747e-03 0.0 
0.0 0.0 -4.933333333333e-04 
-4.958153218285e-04 -1.294595170899e-05 0.0 
-1.294595170899e-05 3.127747100962e-03 0.0 
0.0 0.0 -4.933333333333e-04 
-4.967157033350e-04 1.051029907090e-04 0.0 
1.051029907090e-04 3.128775367421e-03 0.0 
0.0 0.0 -4.933333333333e-04 
-5.657042211010e-04 7.172061321592e-05 0.0 
7.172061321592e-05 3.594572891729e-03 0.0 
0.0 0.0 -5.600000000000e-04 
-5.606564277312e-04 6.276433509236e-06 0.0 
6.276433509236e-06 3.589330402058e-03 0.0 
0.0 0.0 -5.600000000000e-04 
-5.593036989964e-04 -4.014653548583e-06 0.0 
-4.014653548583e-06 3.587906727700e-03 0.0 
0.0 0.0 -5.600000000000e-04 
-5.598957549005e-04 -3.280148762673e-06 0.0 
-3.280148762673e-06 3.589229298695e-03 0.0 
0.0 0.0 -5.600000000000e-04 
-5.585733264525e-04 -8.759229213482e-07 0.0 
-8.759229213482e-07 3.588940559384e-03 0.0 
0.0 0.0 -5.600000000000e-04 
-5.598002868747e-04 8.805971940142e-07 0.0 
8.805971940142e-07 3.590399635312e-03 0.0 
0.0 0.0 -5.600000000000e-04 
-5.606115027376e-04 2.079665756902e-06 0.0 
2.079665756902e-06 3.592266060973e-03 0.0 
0.0 0.0 -5.600000000000e-04 
-5.616801369451e-04 -2.737332668778e-06 0.0 
-2.737332668778e-06 3.592113678054e-03 0.0 
0.0 0.0 -5.600000000000e-04 
-5.603339834742e-04 8.452896903076e-07 0.0 
8.452896903076e-07 3.589104110669e-03 0.0 
0.0 0.0 -5.600000000000e-04 
-5.630816852247e-04 4.954130230059e-06 0.0 
4.954130230059e-06 3.591539403390e-03 0.0 
0.0 0.0 -5.600000000000e-04 
-5.648651149249e-04 2.409580910900e-06 0.0 
2.409580910900e-06 3.593050534195e-03 0.0 
0.0 0.0 -5.600000000000e-04 
-5.645521133458e-04 1.176363961052e-06 0.0 
1.176363961052e-06 3.591815920478e-03 0.0 
0.0 0.0 -5.600000000000e-04 
-5.658777849897e-04 2.204939376018e-07 0.0 
2.204939376018e-07 3.591458064609e-03 0.0 
0.0 0.0 -5.600000000000e-04 
-5.646691075266e-04 1.488981984672e-06 0.0 
1.488981984672e-06 3.584085442749e-03 0.0 
0.0 0.0 -5.600000000000e-04 
-5.620855148441e-04 2.241238949414e-05 0.0 
2.241238949414e-05 3.592013185388e-03 0.0 
0.0 0.0 -5.600000000000e-04 
-5.610961373633e-04 -4.661019393758e-06 0.0 
-4.661019393758e-06 3.625654344184e-03 0.0 
0.0 0.0 -5.626724975705e-04 
-5.133198511328e-04 5.424589988168e-06 0.0 
5.424589988168e-06 3.504617598641e-03 0.0 
0.0 0.0 -5.520068027211e-04 
-5.819676487162e-04 1.621050128568e-05 0.0 
1.621050128568e-05 3.968047816962e-03 0.0 
0.0 0.0 -6.186195084094e-04 
-6.343601883411e-04 -2.324978129448e-06 0.0 
-2.324978129448e-06 4.083322615344e-03 0.0 
0.0 0.0 -6.292929119699e-04 
-6.353679309005e-04 1.165699384264e-05 0.0 
1.165699384264e-05 4.057988551565e-03 0.0 
0.0 0.0 -6.266666666667e-04 
-6.295881338101e-04 1.024053571249e-05 0.0 
1.024053571249e-05 4.054182088558e-03 0.0 
0.0 0.0 -6.266666666667e-04 
-6.303664344858e-04 2.787103354708e-06 0.0 
2.787103354708e-06 4.057331405365e-03 0.0 
0.0 0.0 -6.266666666667e-04 
-6.305754933791e-04 7.671505889705e-06 0.0 
7.671505889705e-06 4.059447051202e-03 0.0 
0.0 0.0 -6.266666666667e-04 
-6.287463439774e-04 1.022004490747e-05 0.0 
1.022004490747e-05 4.054187203252e-03 0.0 
0.0 0.0 -6.266666666667e-04 
-6.280820473115e-04 -9.030982197010e-07 0.0 
-9.030982197010e-07 4.053941923266e-03 0.0 
0.0 0.0 -6.266666666667e-04 
-6.225272954156e-04 4.628296295670e-06 0.0 
4.628296295670e-06 4.057329077379e-03 0.0 
0.0 0.0 -6.266666666667e-04 
-6.249534833788e-04 2.617162153450e-07 0.0 
2.617162153450e-07 4.054948637219e-03 0.0 
0.0 0.0 -6.266666666667e-04 
-6.238122874529e-04 2.229418647929e-06 0.0 
2.229418647929e-06 4.053346801204e-03 0.0 
0.0 0.0 -6.266666666667e-04 
-6.234471408791e-04 -7.779197921569e-06 0.0 
-7.779197921569e-06 4.052220848929e-03 0.0 
0.0 0.0 -6.266666666667e-04 
-6.264844917596e-04 -3.145348628054e-06 0.0 
-3.145348628054e-06 4.054722692316e-03 0.0 
0.0 0.0 -6.266666666667e-04 
-6.251160575234e-04 -9.858748010009e-06 0.0 
-9.858748010009e-06 4.049423160403e-03 0.0 
0.0 0.0 -6.266666666667e-04 
-6.286316808084e-04 -3.394218781005e-05 0.0 
-3.394218781005e-05 4.059813257993e-03 0.0 
0.0 0.0 -6.266666666667e-04 
-6.381641142781e-04 1.124153375325e-04 0.0 
1.124153375325e-04 4.068774124134e-03 0.0 
0.0 0.0 -6.266666666667e-04 
-6.112648154110e-05 2.057582376640e-05 0.0 
2.057582376640e-05 2.373049901765e-04 0.0 
0.0 0.0 -7.119425116788e-05 
-1.043418936054e-04 2.727551123256e-05 0.0 
2.727551123256e-05 5.717549693390e-04 0.0 
0.0 0.0 -1.314613350118e-04 
-1.684472374073e-04 4.207235703727e-05 0.0 
4.207235703727e-05 1.042057531603e-03 0.0 
0.0 0.0 -1.988843244818e-04 
-2.358197999292e-04 4.576581623460e-05 0.0 
4.576581623460e-05 1.512721513540e-03 0.0 
0.0 0.0 -2.657627312065e-04 
-2.992106949204e-04 1.746855033808e-05 0.0 
1.746855033808e-05 1.971118758993e-03 0.0 
0.0 0.0 -3.310903933743e-04 
-3.554966514658e-04 3.194346604781e-05 0.0 
3.194346604781e-05 2.438311747236e-03 0.0 
0.0 0.0 -3.977576770754e-04 
-4.339038949759e-04 2.050581845431e-05 0.0 
2.050581845431e-05 2.896351248714e-03 0.0 
0.0 0.0 -4.650267612653e-04 
-4.998008163795e-04 2.874356037189e-05 0.0 
2.874356037189e-05 3.362017349155e-03 0.0 
0.0 0.0 -5.317697887215e-04 
-5.672864552025e-04 2.278912112814e-05 0.0 
2.278912112814e-05 3.826790215475e-03 0.0 
0.0 0.0 -5.985602557689e-04 
-6.332370943918e-04 2.492629895563e-05 0.0 
2.492629895563e-05 4.302559779817e-03 0.0 
0.0 0.0 -6.652967104836e-04 
-1.935964666812e-04 2.967460992316e-06 0.0 
2.967460992316e-06 9.892888486110e-04 0.0 
0.0 0.0 -1.870278901045e-04 
-1.298255034363e-03 -1.439677610187e-05 0.0 
-1.439677610187e-05 8.770849623045e-03 0.0 
0.0 0.0 -1.303388942653e-03 
-5.711706292193e-05 -1.132529147633e-05 0.0 
-1.132529147633e-05 2.965576224762e-04 0.0 
0.0 0.0 -5.718844814378e-05 
-5.424579011881e-05 -2.911933097958e-05 0.0 
-2.911933097958e-05 2.725297638317e-04 0.0 
0.0 0.0 -5.560925106410e-05 
-1.303094143304e-03 2.083700262783e-05 0.0 
2.083700262783e-05 8.775603321897e-03 0.0 
0.0 0.0 -1.303360877099e-03 
-3.337502689384e-04 2.573658945227e-05 0.0 
2.573658945227e-05 1.945399262405e-03 0.0 
0.0 0.0 -3.213286234882e-04 
-7.420382513691e-04 -8.331648497424e-06 0.0 
-8.331648497424e-06 4.783425200817e-03 0.0 
0.0 0.0 -7.300567563597e-04 
-1.300502925116e-03 1.312346542057e-05 0.0 
1.312346542057e-05 8.760360600138e-03 0.0 
0.0 0.0 -1.300998267065e-03 
-4.558051091763e-04 -3.180946065212e-05 0.0 
-3.180946065212e-05 2.815581106164e-03 0.0 
0.0 0.0 -4.497936382440e-04 
-1.301730818783e-03 3.906861163013e-06 0.0 
3.906861163013e-06 8.781071212001e-03 0.0 
0.0 0.0 -1.304014651794e-03 
-5.931132187703e-04 3.451249603952e-06 0.0 
3.451249603952e-06 3.770920661498e-03 0.0 
0.0 0.0 -5.857980290939e-04 
-1.294626432424e-03 1.231524946250e-05 0.0 
1.231524946250e-05 8.803233335001e-03 0.0 
0.0 0.0 -1.307658508868e-03 
-5.100449476858e-05 8.243347627931e-06 0.0 
8.243347627931e-06 2.661035943334e-04 0.0 
0.0 0.0 -5.457498774670e-05 
-1.304712708061e-03 6.002193481849e-06 0.0 
6.002193481849e-06 8.782841008775e-03 0.0 
0.0 0.0 -1.304481600125e-03 
-7.263025570845e-04 1.579439830825e-05 0.0 
1.579439830825e-05 4.732739805173e-03 0.0 
0.0 0.0 -7.203075318094e-04 
-4.572752679378e-04 6.754709539216e-06 0.0 
6.754709539216e-06 2.913924238746e-03 0.0 
0.0 0.0 -4.640473930190e-04 
-9.144584483086e-04 1.326427603790e-05 0.0 
1.326427603790e-05 6.048992087784e-03 0.0 
0.0 0.0 -9.125512086551e-04 
-1.295486455605e-03 -9.635721854318e-06 0.0 
-9.635721854318e-06 8.767400550756e-03 0.0 
0.0 0.0 -1.301280071178e-03 
-1.304620553661e-03 1.736330334082e-05 0.0 
1.736330334082e-05 8.785218481020e-03 0.0 
0.0 0.0 -1.304294760550e-03 
-1.308798115864e-03 -1.758872586472e-05 0.0 
-1.758872586472e-05 8.782113468746e-03 0.0 
0.0 0.0 -1.303238611779e-03 
-1.297364651419e-03 1.079949245934e-05 0.0 
1.079949245934e-05 8.741492182535e-03 0.0 
0.0 0.0 -1.297727402575e-03 
-1.310467176952e-03 -2.184753791196e-05 0.0 
-2.184753791196e-05 8.795852425490e-03 0.0 
0.0 0.0 -1.305306183856e-03 
-7.504043158260e-04 1.146340899483e-05 0.0 
1.146340899483e-05 4.928957716144e-03 0.0 
0.0 0.0 -7.522011426764e-04 
-7.523353912946e-04 1.162137769546e-05 0.0 
1.162137769546e-05 4.926512636401e-03 0.0 
0.0 0.0 -7.529849494387e-04 
-7.546537283985e-04 -1.241349829200e-05 0.0 
-1.241349829200e-05 4.950472109635e-03 0.0 
0.0 0.0 -7.580270452736e-04 
-9.976077557880e-04 -3.465320003220e-05 0.0 
-3.465320003220e-05 6.602229680106e-03 0.0 
0.0 0.0 -9.950081682429e-04 
-1.300592036334e-03 -1.108396441711e-05 0.0 
-1.108396441711e-05 8.788475349475e-03 0.0 
0.0 0.0 -1.302874185639e-03 
-4.947082956209e-05 -1.829296119630e-05 0.0 
-1.829296119630e-05 2.690780974868e-04 0.0 
0.0 0.0 -5.461765089469e-05 
-6.582489508630e-05 5.524694071904e-06 0.0 
5.524694071904e-06 3.064286723342e-04 0.0 
0.0 0.0 -5.841730026856e-05 
-1.120911548220e-03 -1.158571369125e-06 0.0 
-1.158571369125e-06 7.515613535503e-03 0.0 
0.0 0.0 -1.122886395833e-03 
-7.582082522979e-04 1.961281355476e-05 0.0 
1.961281355476e-05 4.902933380827e-03 0.0 
0.0 0.0 -7.500338828344e-04 
-2.694321437334e-04 2.278372598534e-06 0.0 
2.278372598534e-06 1.494554554088e-03 0.0 
0.0 0.0 -2.594501920933e-04 
-1.298427704971e-03 5.282056354334e-06 0.0 
5.282056354334e-06 8.696713485831e-03 0.0 
0.0 0.0 -1.293200138473e-03 
-1.306703206650e-03 1.354031549595e-05 0.0 
1.354031549595e-05 8.802982423650e-03 0.0 
0.0 0.0 -1.307307853467e-03 
-1.306558631645e-03 5.032010017838e-06 0.0 
5.032010017838e-06 8.775985095811e-03 0.0 
0.0 0.0 -1.304733450272e-03 
-1.299335994773e-03 1.249139207268e-05 0.0 
1.249139207268e-05 8.749655727550e-03 0.0 
0.0 0.0 -1.297928233296e-03 
-1.308929768589e-03 -1.641174944338e-05 0.0 
-1.641174944338e-05 8.785621003878e-03 0.0 
0.0 0.0 -1.305578568836e-03 
-6.266603041308e-05 2.501207789150e-06 0.0 
2.501207789150e-06 3.071735198218e-04 0.0 
0.0 0.0 -5.851952868526e-05 
-7.474245186294e-04 1.424161896037e-05 0.0 
1.424161896037e-05 4.916877911110e-03 0.0 
0.0 0.0 -7.500980793755e-04 
-1.296702677324e-03 1.017615489427e-05 0.0 
1.017615489427e-05 8.704965271547e-03 0.0 
0.0 0.0 -1.293180865222e-03 
-1.128899365850e-03 -3.031105506872e-05 0.0 
-3.031105506872e-05 7.537413441575e-03 0.0 
0.0 0.0 -1.123598490052e-03 
-5.732050020511e-05 -1.482205262677e-05 0.0 
-1.482205262677e-05 2.925850224953e-04 0.0 
0.0 0.0 -5.798785095132e-05 
-5.914251289981e-04 -6.471482804739e-06 0.0 
-6.471482804739e-06 3.820964198355e-03 0.0 
0.0 0.0 -5.937437734062e-04 
-1.319868342544e-03 -1.044247080556e-05 0.0 
-1.044247080556e-05 8.859569502417e-03 0.0 
0.0 0.0 -1.311981303940e-03 
-4.039407312574e-04 -1.513566039237e-05 0.0 
-1.513566039237e-05 2.425755132442e-03 0.0 
0.0 0.0 -3.897472533596e-04 
-2.622920170020e-04 7.443498411070e-06 0.0 
7.443498411070e-06 1.467365751784e-03 0.0 
0.0 0.0 -2.548795656134e-04 
-5.270389969687e-04 -7.501595445452e-06 0.0 
-7.501595445452e-06 3.294996993381e-03 0.0 
0.0 0.0 -5.178568985205e-04 
-6.568994839779e-04 -7.061170510265e-06 0.0 
-7.061170510265e-06 4.237934581571e-03 0.0 
0.0 0.0 -6.527703211191e-04 
-1.172487669235e-04 -1.455488225111e-05 0.0 
-1.455488225111e-05 4.809709659116e-04 0.0 
0.0 0.0 -1.118557093815e-04 
-8.696005125465e-04 -8.177489350787e-06 0.0 
-8.177489350787e-06 5.725890687358e-03 0.0 
0.0 0.0 -8.684787984471e-04 
-1.317974587429e-03 -1.269961975259e-05 0.0 
-1.269961975259e-05 8.865515668911e-03 0.0 
0.0 0.0 -1.313906642692e-03 
-5.185989643578e-05 2.926503183834e-05 0.0 
2.926503183834e-05 2.746618289318e-04 0.0 
0.0 0.0 -5.836448670120e-05 
-1.244012605559e-03 -1.337379541831e-07 0.0 
-1.337379541831e-07 8.417025004517e-03 0.0 
0.0 0.0 -1.253930875827e-03 
-7.490231005429e-04 1.074391793059e-05 0.0 
1.074391793059e-05 4.928373640173e-03 0.0 
0.0 0.0 -7.532271817479e-04 
-7.806985373677e-04 4.966139412122e-06 0.0 
4.966139412122e-06 5.109831204569e-03 0.0 
0.0 0.0 -7.809350190597e-04 
-8.062001814621e-04 2.173167671068e-05 0.0 
2.173167671068e-05 5.343609321704e-03 0.0 
0.0 0.0 -8.115578932774e-04 
-8.489268176994e-04 -8.110940848539e-06 0.0 
-8.110940848539e-06 5.566485028911e-03 0.0 
0.0 0.0 -8.428390908522e-04 
-8.804673106023e-04 1.251244415453e-07 0.0 
1.251244415453e-07 5.795279077470e-03 0.0 
0.0 0.0 -8.784658474099e-04 
-9.121627378671e-04 -7.430796722992e-06 0.0 
-7.430796722992e-06 6.000836909727e-03 0.0 
0.0 0.0 -9.060409163497e-04 
-8.756777626728e-04 -7.143189004675e-06 0.0 
-7.143189004675e-06 5.761383353658e-03 0.0 
0.0 0.0 -8.711257577414e-04 
-9.375016757267e-04 -9.018261483619e-06 0.0 
-9.018261483619e-06 6.200512371454e-03 0.0 
0.0 0.0 -9.341442283280e-04 
-9.034456709669e-04 -5.627619604456e-06 0.0 
-5.627619604456e-06 5.955351813444e-03 0.0 
0.0 0.0 -8.989774131092e-04 
-9.375397006910e-04 -9.487100187186e-06 0.0 
-9.487100187186e-06 6.248793060300e-03 0.0 
0.0 0.0 -9.415083590319e-04 
-9.651447206159e-04 -1.078565163385e-05 0.0 
-1.078565163385e-05 6.396664073004e-03 0.0 
0.0 0.0 -9.622976032585e-04 
-9.304266532056e-04 -6.330576673760e-06 0.0 
-6.330576673760e-06 6.148924780633e-03 0.0 
0.0 0.0 -9.268639294333e-04 
-9.923459703203e-04 -8.832674575488e-06 0.0 
-8.832674575488e-06 6.591396283471e-03 0.0 
0.0 0.0 -9.903372159162e-04 
-9.579486406670e-04 -6.976346530304e-06 0.0 
-6.976346530304e-06 6.343540435811e-03 0.0 
0.0 0.0 -9.547708836903e-04 
-8.957338589247e-04 -3.445195682092e-06 0.0 
-3.445195682092e-06 5.904490313780e-03 0.0 
0.0 0.0 -8.916807130883e-04 
-9.234034349690e-04 -3.140263271689e-06 0.0 
-3.140263271689e-06 6.097553141781e-03 0.0 
0.0 0.0 -9.194532194038e-04 
-8.597658352201e-04 -5.745984388001e-07 0.0 
-5.745984388001e-07 5.659471370407e-03 0.0 
0.0 0.0 -8.565021464485e-04 
-8.876676417698e-04 -1.521204235314e-06 0.0 
-1.521204235314e-06 5.852313305850e-03 0.0 
0.0 0.0 -8.841639842141e-04 
-9.508204613182e-04 -2.297031587625e-06 0.0 
-2.297031587625e-06 6.292146332209e-03 0.0 
0.0 0.0 -9.471984275390e-04 
-9.148993498349e-04 -3.275082318902e-06 0.0 
-3.275082318902e-06 6.045345094116e-03 0.0 
0.0 0.0 -9.118195294070e-04 
-8.520584533063e-04 -1.219021611571e-06 0.0 
-1.219021611571e-06 5.605756351829e-03 0.0 
0.0 0.0 -8.488396520500e-04 
-8.789321886970e-04 -2.050593653236e-06 0.0 
-2.050593653236e-06 5.797286878756e-03 0.0 
0.0 0.0 -8.764089341820e-04 
-8.161164546335e-04 3.435109532190e-07 0.0 
3.435109532190e-07 5.359457664966e-03 0.0 
0.0 0.0 -8.135623229517e-04 
-8.427829602136e-04 -1.073992276181e-06 0.0 
-1.073992276181e-06 5.550412011619e-03 0.0 
0.0 0.0 -8.410744910442e-04 
-7.803403629458e-04 1.482617336377e-07 0.0 
1.482617336377e-07 5.112144953619e-03 0.0 
0.0 0.0 -7.781617608290e-04 
-8.069161494671e-04 -9.832122125777e-07 0.0 
-9.832122125777e-07 5.303670065228e-03 0.0 
0.0 0.0 -8.056965831182e-04 
-8.693622760752e-04 -2.102828341541e-06 0.0 
-2.102828341541e-06 5.742393281941e-03 0.0 
0.0 0.0 -8.686949506212e-04 
-8.339431778097e-04 -6.526060624197e-07 0.0 
-6.526060624197e-07 5.495228078517e-03 0.0 
0.0 0.0 -8.332427817419e-04 
-7.711323033224e-04 2.736293388887e-07 0.0 
2.736293388887e-07 5.056666474078e-03 0.0 
0.0 0.0 -7.703313069557e-04 
-7.984646574761e-04 4.457733912399e-07 0.0 
4.457733912399e-07 5.248286890054e-03 0.0 
0.0 0.0 -7.977945042040e-04 
-7.355637814562e-04 1.290713586090e-06 0.0 
1.290713586090e-06 4.810484252267e-03 0.0 
0.0 0.0 -7.349073124327e-04 
-7.625544307914e-04 1.894462684329e-06 0.0 
1.894462684329e-06 4.999988831075e-03 0.0 
0.0 0.0 -7.622392297106e-04 
-8.257237067376e-04 1.120212681242e-06 0.0 
1.120212681242e-06 5.439584299338e-03 0.0 
0.0 0.0 -8.253152238873e-04 
-7.900934727742e-04 5.597935307212e-07 0.0 
5.597935307212e-07 5.191568262959e-03 0.0 
0.0 0.0 -7.896995018144e-04 
-7.266613947029e-04 4.187926819452e-07 0.0 
4.187926819452e-07 4.748654817893e-03 0.0 
0.0 0.0 -7.264132926704e-04 
-7.549260771137e-04 -7.052768559301e-07 0.0 
-7.052768559301e-07 4.942867002026e-03 0.0 
0.0 0.0 -7.539848323805e-04 
-6.914939078145e-04 -3.149044509631e-06 0.0 
-3.149044509631e-06 4.497991263930e-03 0.0 
0.0 0.0 -6.903858661722e-04 
-7.195945743336e-04 -6.350033753085e-09 0.0 
-6.350033753085e-09 4.694794432778e-03 0.0 
0.0 0.0 -7.182351804274e-04 
-6.554914090724e-04 -2.338725356749e-06 0.0 
-2.338725356749e-06 4.247612436471e-03 0.0 
0.0 0.0 -6.542402593883e-04 
-6.835277346369e-04 5.013350338705e-07 0.0 
5.013350338705e-07 4.443250069824e-03 0.0 
0.0 0.0 -6.821763112594e-04 
-7.475539329935e-04 -2.134179080389e-07 0.0 
-2.134179080389e-07 4.889262543532e-03 0.0 
0.0 0.0 -7.460902125261e-04 
-7.115638396740e-04 -9.716415016320e-07 0.0 
-9.716415016320e-07 4.638756710994e-03 0.0 
0.0 0.0 -7.100832486075e-04 
-6.472258987921e-04 -7.491708784539e-07 0.0 
-7.491708784539e-07 4.191362599469e-03 0.0 
0.0 0.0 -6.458624074531e-04 
-6.748538623222e-04 -1.344545062166e-06 0.0 
-1.344545062166e-06 4.385359401490e-03 0.0 
0.0 0.0 -6.737786430284e-04 
-7.391037565522e-04 -1.870094726724e-06 0.0 
-1.870094726724e-06 4.833803711944e-03 0.0 
0.0 0.0 -7.381473126730e-04 
-7.024920060125e-04 -1.771787760385e-06 0.0 
-1.771787760385e-06 4.579736205562e-03 0.0 
0.0 0.0 -7.017500108595e-04 
-7.668451599419e-04 -2.200372036208e-06 0.0 
-2.200372036208e-06 5.029184891420e-03 0.0 
0.0 0.0 -7.662494016216e-04 
-7.304037803269e-04 -1.328124908123e-06 0.0 
-1.328124908123e-06 4.775158829539e-03 0.0 
0.0 0.0 -7.297828278826e-04 
-6.661738894366e-04 -1.523527640984e-06 0.0 
-1.523527640984e-06 4.327585164653e-03 0.0 
0.0 0.0 -6.655364893108e-04 
-6.940255140087e-04 -3.189861404591e-07 0.0 
-3.189861404591e-07 4.522445273198e-03 0.0 
0.0 0.0 -6.934067383651e-04 
-7.582740677644e-04 -6.702170425951e-07 0.0 
-6.702170425951e-07 4.970550121083e-03 0.0 
0.0 0.0 -7.577868799165e-04 
-7.219132454206e-04 -3.552688473155e-07 0.0 
-3.552688473155e-07 4.715591284682e-03 0.0 
0.0 0.0 -7.212202614536e-04 
-6.579749567302e-04 -8.528343255424e-07 0.0 
-8.528343255424e-07 4.269380617602e-03 0.0 
0.0 0.0 -6.571136838490e-04 
-6.854396942303e-04 1.404532946379e-06 0.0 
1.404532946379e-06 4.463099019341e-03 0.0 
0.0 0.0 -6.848379476561e-04 
-7.499209568980e-04 9.788669448939e-07 0.0 
9.788669448939e-07 4.910836491420e-03 0.0 
0.0 0.0 -7.491645792950e-04 
-7.130866886284e-04 2.531462605068e-06 0.0 
2.531462605068e-06 4.656380230421e-03 0.0 
0.0 0.0 -7.127097857715e-04 
-6.490463142765e-04 2.026928070046e-06 0.0 
2.026928070046e-06 4.209801950481e-03 0.0 
0.0 0.0 -6.486049398320e-04 
-6.764658608434e-04 3.508718195961e-06 0.0 
3.508718195961e-06 4.404145734277e-03 0.0 
0.0 0.0 -6.763006240845e-04 
-7.410587565243e-04 2.977071001621e-06 0.0 
2.977071001621e-06 4.853988703533e-03 0.0 
0.0 0.0 -7.409416231994e-04 
-7.040690402047e-04 2.351563892333e-06 0.0 
2.351563892333e-06 4.597607851949e-03 0.0 
0.0 0.0 -7.042275185679e-04 
-6.395068044754e-04 3.551759029581e-06 0.0 
3.551759029581e-06 4.148883800447e-03 0.0 
0.0 0.0 -6.398389559308e-04 
-6.666949009551e-04 4.033462501374e-06 0.0 
4.033462501374e-06 4.341905952590e-03 0.0 
0.0 0.0 -6.674633383154e-04 
-7.319239687128e-04 2.339911819127e-06 0.0 
2.339911819127e-06 4.794577675996e-03 0.0 
0.0 0.0 -7.324886333286e-04 
-6.941465830900e-04 3.043408887515e-06 0.0 
3.043408887515e-06 4.534944571325e-03 0.0 
0.0 0.0 -6.954027321055e-04 
-7.599625173411e-04 1.739203305330e-06 0.0 
1.739203305330e-06 4.991507953981e-03 0.0 
0.0 0.0 -7.608997874520e-04 
-6.288087524291e-04 4.620726933368e-06 0.0 
4.620726933368e-06 4.080538413552e-03 0.0 
0.0 0.0 -6.302092384919e-04 
-6.562200550336e-04 2.527596513767e-06 0.0 
2.527596513767e-06 4.273760246295e-03 0.0 
0.0 0.0 -6.580989212857e-04 
-5.905021683275e-04 5.113861583962e-06 0.0 
5.113861583962e-06 3.817210818870e-03 0.0 
0.0 0.0 -5.925517106747e-04 
-6.180070563344e-04 1.748353135852e-06 0.0 
1.748353135852e-06 4.012241935297e-03 0.0 
0.0 0.0 -6.207111136070e-04 
-8.536335610934e-04 1.348609631237e-06 0.0 
1.348609631237e-06 5.632618076260e-03 0.0 
0.0 0.0 -8.529317679587e-04 
-5.517808621481e-04 4.295824092782e-06 0.0 
4.295824092782e-06 3.553884541992e-03 0.0 
0.0 0.0 -5.549884598765e-04 
-5.256512596245e-04 6.824695261328e-06 0.0 
6.824695261328e-06 3.365117692800e-03 0.0 
0.0 0.0 -5.276250340903e-04 
-5.798411198688e-04 -4.887552469919e-09 0.0 
-4.887552469919e-09 3.751124839276e-03 0.0 
0.0 0.0 -5.833260987948e-04 
-6.468648656294e-04 -6.634229100666e-07 0.0 
-6.634229100666e-07 4.212613913655e-03 0.0 
0.0 0.0 -6.493616581942e-04 
-5.137698154976e-04 1.586824553395e-06 0.0 
1.586824553395e-06 3.290773483107e-03 0.0 
0.0 0.0 -5.173870653820e-04 
-5.418307247047e-04 -1.136001153091e-06 0.0 
-1.136001153091e-06 3.490016299043e-03 0.0 
0.0 0.0 -5.459094278256e-04 
-4.770030151011e-04 2.075579507917e-06 0.0 
2.075579507917e-06 3.029794249274e-03 0.0 
0.0 0.0 -4.798161731008e-04 
-6.265889875599e-04 -3.099894472637e-06 0.0 
-3.099894472637e-06 4.044775427509e-03 0.0 
0.0 0.0 -6.252159162693e-04 
-9.779259260500e-04 -4.603917606302e-06 0.0 
-4.603917606302e-06 6.486620776824e-03 0.0 
0.0 0.0 -9.750716696758e-04 
-5.048311626822e-04 8.069914569390e-07 0.0 
8.069914569390e-07 3.230775089179e-03 0.0 
0.0 0.0 -5.084495576641e-04 
-4.414277464692e-04 -9.314775103287e-07 0.0 
-9.314775103287e-07 2.769397101649e-03 0.0 
0.0 0.0 -4.423119711188e-04 
-4.126781969750e-04 2.777234300813e-06 0.0 
2.777234300813e-06 2.568725273303e-03 0.0 
0.0 0.0 -4.136824817550e-04 
-3.752383636154e-04 2.627021531010e-07 0.0 
2.627021531010e-07 2.307149796782e-03 0.0 
0.0 0.0 -3.761903503575e-04 
-9.032923406135e-04 -1.942635711141e-05 0.0 
-1.942635711141e-05 6.054768473392e-03 0.0 
0.0 0.0 -9.126358703463e-04 
-9.750351070606e-04 8.331650577883e-07 0.0 
8.331650577883e-07 6.501449499714e-03 0.0 
0.0 0.0 -9.772611937912e-04 
-9.426936007589e-04 -8.476577603346e-06 0.0 
-8.476577603346e-06 6.285634427722e-03 0.0 
0.0 0.0 -9.468612964576e-04 
-1.013350986754e-03 -2.420793703441e-06 0.0 
-2.420793703441e-06 6.752430832338e-03 0.0 
0.0 0.0 -1.012955122490e-03 
-9.819905249802e-04 -9.218190891349e-06 0.0 
-9.218190891349e-06 6.546568860747e-03 0.0 
0.0 0.0 -9.835180958883e-04 
-4.033189249179e-04 -7.405594451634e-06 0.0 
-7.405594451634e-06 2.507023825451e-03 0.0 
0.0 0.0 -4.047791634435e-04 
-1.026297749493e-03 -7.873848128133e-06 0.0 
-7.873848128133e-06 6.842470359288e-03 0.0 
0.0 0.0 -1.026687169009e-03 
-1.041976492741e-03 3.297528438812e-06 0.0 
3.297528438812e-06 6.953471480802e-03 0.0 
0.0 0.0 -1.042264213861e-03 
-7.894126093117e-04 1.238093184233e-06 0.0 
1.238093184233e-06 5.169984540206e-03 0.0 
0.0 0.0 -7.861871271282e-04 
-7.083334352114e-04 1.160791963841e-06 0.0 
1.160791963841e-06 4.619009573669e-03 0.0 
0.0 0.0 -7.076088937226e-04 
-8.034448321062e-04 -3.641604808747e-06 0.0 
-3.641604808747e-06 5.283437919380e-03 0.0 
0.0 0.0 -8.027518904046e-04 
-5.699317647335e-04 -5.077104347272e-06 0.0 
-5.077104347272e-06 3.690391390143e-03 0.0 
0.0 0.0 -5.745905038755e-04 
-5.325923514100e-04 1.264931689767e-06 0.0 
1.264931689767e-06 3.434700451156e-03 0.0 
0.0 0.0 -5.371338854166e-04 
-6.021414154153e-04 -1.123287284887e-05 0.0 
-1.123287284887e-05 3.895898666929e-03 0.0 
0.0 0.0 -6.033452624549e-04 
-7.975586205945e-04 7.346724402817e-07 0.0 
7.346724402817e-07 5.250837552225e-03 0.0 
0.0 0.0 -7.980428604176e-04 
-8.260589898796e-04 8.470418803899e-07 0.0 
8.470418803899e-07 5.449813526142e-03 0.0 
0.0 0.0 -8.266132305475e-04 
-8.633840041631e-04 4.108677631334e-07 0.0 
4.108677631334e-07 5.709024598085e-03 0.0 
0.0 0.0 -8.638188500004e-04 
-8.921637692903e-04 4.125221993884e-07 0.0 
4.125221993884e-07 5.908664068470e-03 0.0 
0.0 0.0 -8.924533907576e-04 
-9.293171742377e-04 3.033539280726e-07 0.0 
3.033539280726e-07 6.168083546012e-03 0.0 
0.0 0.0 -9.297164513315e-04 
-9.582709124814e-04 8.513827699178e-07 0.0 
8.513827699178e-07 6.368400937687e-03 0.0 
0.0 0.0 -9.583747859490e-04 
-9.209100768105e-04 -4.256218772022e-07 0.0 
-4.256218772022e-07 6.108351576790e-03 0.0 
0.0 0.0 -9.210728288235e-04 
-9.873571107966e-04 -7.195723232200e-07 0.0 
-7.195723232200e-07 6.568673837727e-03 0.0 
0.0 0.0 -9.870277070005e-04 
-9.496224461858e-04 -1.641275594905e-06 0.0 
-1.641275594905e-06 6.308003890192e-03 0.0 
0.0 0.0 -9.497007337289e-04 
-9.952004913145e-04 1.269240357803e-06 0.0 
1.269240357803e-06 6.627713601016e-03 0.0 
0.0 0.0 -9.956835613869e-04 
-9.665012269537e-04 -8.709086142666e-07 0.0 
-8.709086142666e-07 6.427165842683e-03 0.0 
0.0 0.0 -9.668198671257e-04 
-1.015999965498e-03 -2.659789521343e-06 0.0 
-2.659789521343e-06 6.768164853945e-03 0.0 
0.0 0.0 -1.015681523326e-03 
-9.780689760982e-04 -1.773026811882e-06 0.0 
-1.773026811882e-06 6.507705614272e-03 0.0 
0.0 0.0 -9.783260305705e-04 
-1.043750394909e-03 -2.772279525245e-06 0.0 
-2.772279525245e-06 6.967527210065e-03 0.0 
0.0 0.0 -1.044362401637e-03 
-1.005977853166e-03 -2.262113223733e-06 0.0 
-2.262113223733e-06 6.706658029639e-03 0.0 
0.0 0.0 -1.007007767922e-03 
-9.404749716457e-04 -1.193534276169e-06 0.0 
-1.193534276169e-06 6.246239019973e-03 0.0 
0.0 0.0 -9.408676861799e-04 
-9.684909118554e-04 -8.529271608882e-07 0.0 
-8.529271608882e-07 6.444829778042e-03 0.0 
0.0 0.0 -9.695029660748e-04 
-9.037723104013e-04 -2.350012697831e-06 0.0 
-2.350012697831e-06 5.986848649888e-03 0.0 
0.0 0.0 -9.035672079865e-04 
-8.314464570683e-04 -3.616594317094e-06 0.0 
-3.616594317094e-06 5.479880314984e-03 0.0 
0.0 0.0 -8.309624794500e-04 
-8.682753299778e-04 -4.472916759992e-06 0.0 
-4.472916759992e-06 5.735257211893e-03 0.0 
0.0 0.0 -8.675775700443e-04 
-8.962132157840e-04 -3.994715245399e-06 0.0 
-3.994715245399e-06 5.931796623670e-03 0.0 
0.0 0.0 -8.958500940740e-04 
-9.334915543322e-04 -5.104595478857e-06 0.0 
-5.104595478857e-06 6.188168080628e-03 0.0 
0.0 0.0 -9.325549191312e-04 
-9.611906856984e-04 -4.832422115389e-06 0.0 
-4.832422115389e-06 6.384949120317e-03 0.0 
0.0 0.0 -9.609176734917e-04 
-9.993166695243e-04 -5.921015935411e-06 0.0 
-5.921015935411e-06 6.642197475408e-03 0.0 
0.0 0.0 -9.976363410588e-04 
-1.026869107811e-03 -5.279541534857e-06 0.0 
-5.279541534857e-06 6.837737939095e-03 0.0 
0.0 0.0 -1.026032504441e-03 
-9.888890578615e-04 -3.536873257957e-06 0.0 
-3.536873257957e-06 6.582021445560e-03 0.0 
0.0 0.0 -9.892761093610e-04 
-1.020948249731e-03 -5.775826579251e-06 0.0 
-5.775826579251e-06 6.785097853957e-03 0.0 
0.0 0.0 -1.018102500310e-03 
-6.106564943980e-04 -8.377932010854e-07 0.0 
-8.377932010854e-07 3.937861241286e-03 0.0 
0.0 0.0 -6.095594541484e-04 
-5.829707017920e-04 -8.761996172276e-07 0.0 
-8.761996172276e-07 3.743841342214e-03 0.0 
0.0 0.0 -5.816898710390e-04 
-5.468224651884e-04 3.532374184787e-07 0.0 
3.532374184787e-07 3.491149788400e-03 0.0 
0.0 0.0 -5.454521931755e-04 
-5.191424428683e-04 -2.726566039404e-07 0.0 
-2.726566039404e-07 3.297674531074e-03 0.0 
0.0 0.0 -5.176388733440e-04 
-4.833226440277e-04 2.092058671683e-06 0.0 
2.092058671683e-06 3.045002640289e-03 0.0 
0.0 0.0 -4.814163979944e-04 
-4.557758029647e-04 1.050100037043e-06 0.0 
1.050100037043e-06 2.852852491029e-03 0.0 
0.0 0.0 -4.537165770244e-04 
-4.203756978464e-04 3.745088126668e-06 0.0 
3.745088126668e-06 2.598843361212e-03 0.0 
0.0 0.0 -4.172264234068e-04 
-4.466735727578e-04 5.480427942949e-06 0.0 
5.480427942949e-06 2.790981770740e-03 0.0 
0.0 0.0 -4.450327826477e-04 
-3.836326554130e-04 7.904997896638e-06 0.0 
7.904997896638e-06 2.342835906920e-03 0.0 
0.0 0.0 -3.805252178390e-04 
-4.084193757356e-04 7.242552144164e-06 0.0 
7.242552144164e-06 2.535005811079e-03 0.0 
0.0 0.0 -4.085362445790e-04 
-3.461331758914e-04 8.763341315882e-06 0.0 
8.763341315882e-06 2.084280570054e-03 0.0 
0.0 0.0 -3.437934912881e-04 
-3.698709012629e-04 8.292346557800e-06 0.0 
8.292346557800e-06 2.277114687721e-03 0.0 
0.0 0.0 -3.717096690223e-04 
-8.965032625882e-04 -1.627591660537e-06 0.0 
-1.627591660537e-06 5.934603885101e-03 0.0 
0.0 0.0 -8.963565068603e-04 
-9.708908500796e-04 -5.045480792178e-06 0.0 
-5.045480792178e-06 6.444533853224e-03 0.0 
0.0 0.0 -9.691568884624e-04 
-1.036699855876e-03 -2.770010414120e-06 0.0 
-2.770010414120e-06 6.900219655108e-03 0.0 
0.0 0.0 -1.034312087004e-03 
-1.006639220865e-03 -3.033633605174e-06 0.0 
-3.033633605174e-06 6.698197690662e-03 0.0 
0.0 0.0 -1.005320805676e-03 
-3.491849021404e-04 5.274199756900e-07 0.0 
5.274199756900e-07 2.108115059856e-03 0.0 
0.0 0.0 -3.475522021424e-04 
-1.033063842021e-03 -2.635650059539e-06 0.0 
-2.635650059539e-06 6.905166544597e-03 0.0 
0.0 0.0 -1.035773625862e-03 
-1.032236772368e-03 -1.431372014452e-06 0.0 
-1.431372014452e-06 6.887149851833e-03 0.0 
0.0 0.0 -1.032922975483e-03 
-1.003745583219e-03 -3.564129010567e-06 0.0 
-3.564129010567e-06 6.683661322661e-03 0.0 
0.0 0.0 -1.003739924893e-03 
-1.054629030311e-03 -7.601280977907e-07 0.0 
-7.601280977907e-07 7.036563315422e-03 0.0 
0.0 0.0 -1.054598834243e-03 
-3.382801587767e-04 -2.979708598297e-06 0.0 
-2.979708598297e-06 2.049061231215e-03 0.0 
0.0 0.0 -3.392587823741e-04 
-3.925929468368e-04 -3.827429239248e-07 0.0 
-3.827429239248e-07 2.409736501278e-03 0.0 
0.0 0.0 -3.899405068163e-04 
-4.274717193387e-04 -8.415189167630e-08 0.0 
-8.415189167630e-08 2.658832617141e-03 0.0 
0.0 0.0 -4.261104576107e-04 
-1.049394948444e-03 -6.226283885082e-06 0.0 
-6.226283885082e-06 7.001982288460e-03 0.0 
0.0 0.0 -1.048874596840e-03 
-1.017918189327e-03 -8.563044135185e-06 0.0 
-8.563044135185e-06 6.794247194180e-03 0.0 
0.0 0.0 -1.019458214591e-03 
-1.069216758149e-03 -3.894499857362e-06 0.0 
-3.894499857362e-06 7.146438403505e-03 0.0 
0.0 0.0 -1.070157681403e-03 
-3.646275857636e-04 -4.854414982731e-06 0.0 
-4.854414982731e-06 2.250210390791e-03 0.0 
0.0 0.0 -3.675747464493e-04 
-1.054357939260e-03 -2.436299897804e-06 0.0 
-2.436299897804e-06 7.029823091953e-03 0.0 
0.0 0.0 -1.052997445444e-03 
-3.197645753904e-04 1.264604075083e-05 0.0 
1.264604075083e-05 1.895364248012e-03 0.0 
0.0 0.0 -3.160508651072e-04 
-9.953050425208e-04 1.480628501674e-06 0.0 
1.480628501674e-06 6.643084749548e-03 0.0 
0.0 0.0 -9.982306137915e-04 
-1.060585647238e-03 -1.664106558644e-06 0.0 
-1.664106558644e-06 7.103829563321e-03 0.0 
0.0 0.0 -1.064501221861e-03 
-8.833816014428e-04 -1.312725406789e-06 0.0 
-1.312725406789e-06 5.848632048973e-03 0.0 
0.0 0.0 -8.838659695519e-04 
-1.072126527592e-03 1.342848407724e-06 0.0 
1.342848407724e-06 7.156046509616e-03 0.0 
0.0 0.0 -1.070909199420e-03 
-1.040873144494e-03 -1.559728385194e-06 0.0 
-1.559728385194e-06 6.945723517804e-03 0.0 
0.0 0.0 -1.041442769611e-03 
-4.361432558224e-04 3.964498909280e-06 0.0 
3.964498909280e-06 2.732385665183e-03 0.0 
0.0 0.0 -4.368024751037e-04 
-4.014490958451e-04 -4.456139007885e-06 0.0 
-4.456139007885e-06 2.476345149205e-03 0.0 
0.0 0.0 -4.000028750317e-04 
-3.379276697082e-04 -9.389203743798e-07 0.0 
-9.389203743798e-07 2.030025360652e-03 0.0 
0.0 0.0 -3.362177140684e-04 
-3.635969428549e-04 1.373767669547e-06 0.0 
1.373767669547e-06 2.244616072891e-03 0.0 
0.0 0.0 -3.646174584383e-04 
-4.300938244296e-04 1.567544356461e-06 0.0 
1.567544356461e-06 2.681550340782e-03 0.0 
0.0 0.0 -4.284477484795e-04 
-3.889085083712e-04 9.835552761999e-06 0.0 
9.835552761999e-06 2.418297915731e-03 0.0 
0.0 0.0 -3.914172224959e-04 
-3.204770754165e-04 1.907323267818e-05 0.0 
1.907323267818e-05 1.962571053019e-03 0.0 
0.0 0.0 -3.275549428413e-04 
-3.502907991612e-04 7.488671342929e-06 0.0 
7.488671342929e-06 2.156719423535e-03 0.0 
0.0 0.0 -3.541853722931e-04 
-4.167106155496e-04 6.881429257417e-06 0.0 
6.881429257417e-06 2.610903268491e-03 0.0 
0.0 0.0 -4.192720002935e-04 
-3.788914181042e-04 4.343078442188e-06 0.0 
4.343078442188e-06 2.349536149817e-03 0.0 
0.0 0.0 -3.818909459020e-04 
-3.084459074469e-04 6.289188176421e-07 0.0 
6.289188176421e-07 1.890259859557e-03 0.0 
0.0 0.0 -3.163726278224e-04 
-3.419617535017e-04 -1.002237531258e-06 0.0 
-1.002237531258e-06 2.083935112305e-03 0.0 
0.0 0.0 -3.442135738104e-04 
-1.099071483736e-03 -4.059536723357e-06 0.0 
-4.059536723357e-06 7.365286043721e-03 0.0 
0.0 0.0 -1.101875158976e-03 
-2.778270531889e-04 5.606786558078e-06 0.0 
5.606786558078e-06 1.634146459113e-03 0.0 
0.0 0.0 -2.790856233436e-04 
-8.331232600789e-04 -1.470432704222e-06 0.0 
-1.470432704222e-06 5.468049203594e-03 0.0 
0.0 0.0 -8.288706041983e-04 
-1.097753538925e-03 -6.819421046418e-08 0.0 
-6.819421046418e-08 7.345996197340e-03 0.0 
0.0 0.0 -1.099012274073e-03 
-1.093116720620e-03 -8.666493399366e-07 0.0 
-8.666493399366e-07 7.286837829642e-03 0.0 
0.0 0.0 -1.090660416876e-03 
-1.084365567575e-03 -6.280824779015e-06 0.0 
-6.280824779015e-06 7.252032631151e-03 0.0 
0.0 0.0 -1.085032576515e-03 
-1.054657705810e-03 -6.435631966191e-06 0.0 
-6.435631966191e-06 7.045218181684e-03 0.0 
0.0 0.0 -1.055603631703e-03 
-9.875851288997e-04 -1.413805567774e-06 0.0 
-1.413805567774e-06 6.584177510452e-03 0.0 
0.0 0.0 -9.897378988699e-04 
-1.026769546168e-03 -2.237330550586e-06 0.0 
-2.237330550586e-06 6.840866959104e-03 0.0 
0.0 0.0 -1.026001677571e-03 
-1.092973095107e-03 -7.454569989634e-06 0.0 
-7.454569989634e-06 7.301089234385e-03 0.0 
0.0 0.0 -1.091942449670e-03 
-1.064751991023e-03 -3.501272267722e-06 0.0 
-3.501272267722e-06 7.095620902661e-03 0.0 
0.0 0.0 -1.062342898562e-03 
-9.988564979816e-04 -1.668871402228e-06 0.0 
-1.668871402228e-06 6.635005463114e-03 0.0 
0.0 0.0 -9.962627399151e-04 
-1.034436478479e-03 -1.481002808395e-06 0.0 
-1.481002808395e-06 6.886326563749e-03 0.0 
0.0 0.0 -1.032646955902e-03 
-9.669903561008e-04 -1.588757973808e-06 0.0 
-1.588757973808e-06 6.424013170772e-03 0.0 
0.0 0.0 -9.664557332607e-04 
-1.003700280699e-03 7.299281571933e-07 0.0 
7.299281571933e-07 6.676052297610e-03 0.0 
0.0 0.0 -1.002889032254e-03 
-1.069539961128e-03 -1.406306334207e-06 0.0 
-1.406306334207e-06 7.137459283332e-03 0.0 
0.0 0.0 -1.069134413525e-03 
-1.040251277345e-03 -2.304501535982e-06 0.0 
-2.304501535982e-06 6.929939891367e-03 0.0 
0.0 0.0 -1.039387411609e-03 
-9.757356294361e-04 3.492291009935e-06 0.0 
3.492291009935e-06 6.469291385121e-03 0.0 
0.0 0.0 -9.730575354659e-04 
-1.011311036558e-03 -3.920010342729e-06 0.0 
-3.920010342729e-06 6.721391753202e-03 0.0 
0.0 0.0 -1.009574527126e-03 
-9.473976655285e-04 1.069754497067e-06 0.0 
1.069754497067e-06 6.259448801403e-03 0.0 
0.0 0.0 -9.431603702596e-04 
-9.787243902099e-04 -9.076392670580e-06 0.0 
-9.076392670580e-06 6.505694726987e-03 0.0 
0.0 0.0 -9.796061197752e-04 
-1.045613844249e-03 -1.722974318907e-06 0.0 
-1.722974318907e-06 6.974649094867e-03 0.0 
0.0 0.0 -1.046101832713e-03 
-2.943775444909e-04 -6.928567678538e-07 0.0 
-6.928567678538e-07 1.805789486149e-03 0.0 
0.0 0.0 -3.035957800550e-04 
-1.017758437714e-03 8.339975111556e-07 0.0 
8.339975111556e-07 6.780275813963e-03 0.0 
0.0 0.0 -1.017732614895e-03 
-1.085695951343e-03 9.008470653890e-06 0.0 
9.008470653890e-06 7.238624846316e-03 0.0 
0.0 0.0 -1.083831836677e-03 
-5.709103913775e-04 -2.325431224868e-05 0.0 
-2.325431224868e-05 3.664168357293e-03 0.0 
0.0 0.0 -5.671321338944e-04 
-6.324387949388e-04 -2.542767452305e-05 0.0 
-2.542767452305e-05 4.079572971033e-03 0.0 
0.0 0.0 -6.325382687906e-04 
-6.703304024063e-04 2.057485422877e-06 0.0 
2.057485422877e-06 4.353279279577e-03 0.0 
0.0 0.0 -6.695659616924e-04 
-6.965174910300e-04 -2.385319859374e-06 0.0 
-2.385319859374e-06 4.560833435242e-03 0.0 
0.0 0.0 -6.986863204145e-04 
-1.013217864429e-03 -6.931448216209e-06 0.0 
-6.931448216209e-06 6.760757040862e-03 0.0 
0.0 0.0 -1.015477767897e-03 
-1.085754476307e-03 4.526117246953e-06 0.0 
4.526117246953e-06 7.228792746516e-03 0.0 
0.0 0.0 -1.082739357160e-03 
-3.632786350414e-04 -5.324944036103e-07 0.0 
-5.324944036103e-07 2.218076515491e-03 0.0 
0.0 0.0 -3.630904347118e-04 
-3.989196443092e-04 3.443700858681e-06 0.0 
3.443700858681e-06 2.465366928233e-03 0.0 
0.0 0.0 -3.987635198617e-04 
-1.114604240908e-03 -4.187271034193e-06 0.0 
-4.187271034193e-06 7.457266297093e-03 0.0 
0.0 0.0 -1.114382729655e-03 
-1.023827423401e-03 3.244776890840e-07 0.0 
3.244776890840e-07 6.846372715936e-03 0.0 
0.0 0.0 -1.027045364000e-03 
-9.591711885291e-04 5.195306824484e-06 0.0 
5.195306824484e-06 6.383348184143e-03 0.0 
0.0 0.0 -9.609938998495e-04 
-6.727539858769e-04 1.372459178985e-06 0.0 
1.372459178985e-06 4.373266699251e-03 0.0 
0.0 0.0 -6.721935305596e-04 
-6.457182263887e-04 2.843205903296e-06 0.0 
2.843205903296e-06 4.180265241662e-03 0.0 
0.0 0.0 -6.449639573754e-04 
-6.090109741668e-04 -1.269187225416e-06 0.0 
-1.269187225416e-06 3.932858286179e-03 0.0 
0.0 0.0 -6.093131083769e-04 
-5.816903259702e-04 4.641891431383e-06 0.0 
4.641891431383e-06 3.732340485873e-03 0.0 
0.0 0.0 -5.812298138028e-04 
-6.200283683434e-04 9.586645545116e-06 0.0 
9.586645545116e-06 3.992414838426e-03 0.0 
0.0 0.0 -6.173664885638e-04 
-5.434193891668e-04 -9.403867661907e-06 0.0 
-9.403867661907e-06 3.478668698050e-03 0.0 
0.0 0.0 -5.448148816535e-04 
-9.373928058819e-04 -1.601369738936e-06 0.0 
-1.601369738936e-06 6.221929865538e-03 0.0 
0.0 0.0 -9.373051277721e-04 
-1.105789133782e-03 -5.097961888920e-06 0.0 
-5.097961888920e-06 7.391609738888e-03 0.0 
0.0 0.0 -1.105708206284e-03 
-3.854345613970e-04 8.443027839813e-06 0.0 
8.443027839813e-06 2.371646984252e-03 0.0 
0.0 0.0 -3.852871208612e-04 
-3.201910169614e-04 4.758000015084e-06 0.0 
4.758000015084e-06 1.911169802832e-03 0.0 
0.0 0.0 -3.193625892355e-04 
-1.092402492623e-03 -1.167819157760e-06 0.0 
-1.167819157760e-06 7.309660398486e-03 0.0 
0.0 0.0 -1.093300181677e-03 
-9.522712570359e-04 -2.708707742725e-07 0.0 
-2.708707742725e-07 6.324723503682e-03 0.0 
0.0 0.0 -9.522822042369e-04 
-9.318364452749e-04 -3.558001127041e-06 0.0 
-3.558001127041e-06 6.182417451607e-03 0.0 
0.0 0.0 -9.319735432435e-04 
-9.592391997822e-04 -2.458009781540e-06 0.0 
-2.458009781540e-06 6.375907434676e-03 0.0 
0.0 0.0 -9.598347391831e-04 
-9.950739296232e-04 -4.572796618511e-06 0.0 
-4.572796618511e-06 6.625947379230e-03 0.0 
0.0 0.0 -9.957130113267e-04 
-1.022389104434e-03 -1.719325875491e-06 0.0 
-1.719325875491e-06 6.820013246431e-03 0.0 
0.0 0.0 -1.023751803962e-03 
-1.059370439720e-03 -5.405362556151e-06 0.0 
-5.405362556151e-06 7.072199763533e-03 0.0 
0.0 0.0 -1.059873349132e-03 
-1.087678763415e-03 -2.923161999985e-06 0.0 
-2.923161999985e-06 7.265128234670e-03 0.0 
0.0 0.0 -1.087854580038e-03 
-1.051303081442e-03 5.171402569263e-07 0.0 
5.171402569263e-07 7.018896459243e-03 0.0 
0.0 0.0 -1.051791170495e-03 
-1.103769166383e-03 7.691851827851e-06 0.0 
7.691851827851e-06 7.404894528321e-03 0.0 
0.0 0.0 -1.107463318235e-03 
-1.117712624745e-03 -3.586966882199e-06 0.0 
-3.586966882199e-06 7.467456065743e-03 0.0 
0.0 0.0 -1.115916943430e-03 
-9.389683298366e-04 8.173508751278e-06 0.0 
8.173508751278e-06 6.277342985551e-03 0.0 
0.0 0.0 -9.487150400336e-04 
-9.410739694122e-04 -1.111791304632e-06 0.0 
-1.111791304632e-06 6.241243045591e-03 0.0 
0.0 0.0 -9.398448712237e-04 
-4.457204000865e-04 5.557813324762e-06 0.0 
5.557813324762e-06 2.807268937135e-03 0.0 
0.0 0.0 -4.474652294669e-04 
-2.787239558753e-04 -1.594210911545e-05 0.0 
-1.594210911545e-05 1.590980471387e-03 0.0 
0.0 0.0 -2.752498982733e-04 
-2.801629165477e-04 1.388173637536e-07 0.0 
1.388173637536e-07 1.614413284500e-03 0.0 
0.0 0.0 -2.770275614452e-04 
-3.257086370933e-04 6.463444473954e-06 0.0 
6.463444473954e-06 1.982032803988e-03 0.0 
0.0 0.0 -3.299748606085e-04 
-3.924316838372e-04 3.341960258366e-06 0.0 
3.341960258366e-06 2.447443434601e-03 0.0 
0.0 0.0 -3.961554456411e-04 
-1.134349550786e-03 -1.652632845532e-06 0.0 
-1.652632845532e-06 7.607275251226e-03 0.0 
0.0 0.0 -1.136360603439e-03 
-1.125800754315e-03 -5.253853129255e-06 0.0 
-5.253853129255e-06 7.520991050392e-03 0.0 
0.0 0.0 -1.124065295910e-03 
-1.096791908378e-03 -5.220402544478e-06 0.0 
-5.220402544478e-06 7.320289406060e-03 0.0 
0.0 0.0 -1.095615423988e-03 
-5.557080703907e-04 2.060507655022e-05 0.0 
2.060507655022e-05 3.553838567094e-03 0.0 
0.0 0.0 -5.539799138139e-04 
-5.938414920039e-04 6.065843658374e-06 0.0 
6.065843658374e-06 3.806784454423e-03 0.0 
0.0 0.0 -5.905304635153e-04 
-1.132061157024e-03 2.994999273289e-06 0.0 
2.994999273289e-06 7.609332849678e-03 0.0 
0.0 0.0 -1.136278651916e-03 
-9.052603845710e-04 -1.496793008832e-06 0.0 
-1.496793008832e-06 6.089428360264e-03 0.0 
0.0 0.0 -9.177848451843e-04 
-9.302886435713e-04 -1.143901140747e-06 0.0 
-1.143901140747e-06 6.175006027383e-03 0.0 
0.0 0.0 -9.302130594432e-04 
-8.986318941468e-04 1.808913455717e-06 0.0 
1.808913455717e-06 5.958837749668e-03 0.0 
0.0 0.0 -9.001900590098e-04 
-2.448154097378e-04 -1.421673720980e-05 0.0 
-1.421673720980e-05 1.469020257813e-03 0.0 
0.0 0.0 -2.595221258752e-04 
-2.425141975507e-04 4.798340757492e-06 0.0 
4.798340757492e-06 1.427444744679e-03 0.0 
0.0 0.0 -2.525597767350e-04 
-1.129866785975e-03 -6.589135683459e-06 0.0 
-6.589135683459e-06 7.556758245339e-03 0.0 
0.0 0.0 -1.128363834889e-03 
-4.625030533362e-04 2.152653740832e-06 0.0 
2.152653740832e-06 2.905591162520e-03 0.0 
0.0 0.0 -4.615872697407e-04 
-4.348533942840e-04 3.201452625959e-06 0.0 
3.201452625959e-06 2.712395630356e-03 0.0 
0.0 0.0 -4.342639779644e-04 
-2.556862254962e-04 9.465200077470e-06 0.0 
9.465200077470e-06 1.446637132955e-03 0.0 
0.0 0.0 -2.508181872060e-04 
-2.123142658657e-04 2.153637718006e-06 0.0 
2.153637718006e-06 1.175585796085e-03 0.0 
0.0 0.0 -2.143868084631e-04 
-1.042731456099e-03 1.901936730496e-05 0.0 
1.901936730496e-05 6.995442815012e-03 0.0 
0.0 0.0 -1.051814883004e-03 
-1.110984337992e-03 1.360393105763e-05 0.0 
1.360393105763e-05 7.468547826848e-03 0.0 
0.0 0.0 -1.117859435171e-03 
-7.312716402703e-04 -2.190675999974e-06 0.0 
-2.190675999974e-06 4.814374156657e-03 0.0 
0.0 0.0 -7.356929296387e-04 
-7.645892286358e-04 -1.102166449941e-05 0.0 
-1.102166449941e-05 5.018862629850e-03 0.0 
0.0 0.0 -7.648299719236e-04 
-1.105578814045e-03 -4.864618337802e-06 0.0 
-4.864618337802e-06 7.407304501986e-03 0.0 
0.0 0.0 -1.107558395918e-03 
-3.066920262703e-04 -9.941053824018e-07 0.0 
-9.941053824018e-07 1.825477502809e-03 0.0 
0.0 0.0 -3.060794667268e-04 
-1.146252104278e-03 9.473611415292e-07 0.0 
9.473611415292e-07 7.693660702169e-03 0.0 
0.0 0.0 -1.149181664990e-03 
-9.819770468004e-04 3.151631864564e-06 0.0 
3.151631864564e-06 6.525650668115e-03 0.0 
0.0 0.0 -9.807908033776e-04 
-9.159380280943e-04 1.195442860185e-06 0.0 
1.195442860185e-06 6.068082639928e-03 0.0 
0.0 0.0 -9.152404036620e-04 
-6.511413906152e-04 1.424536279068e-05 0.0 
1.424536279068e-05 4.294241389317e-03 0.0 
0.0 0.0 -6.604623333687e-04 
-3.374810340454e-04 6.844433927067e-06 0.0 
6.844433927067e-06 2.031763814607e-03 0.0 
0.0 0.0 -3.366432492119e-04 
-3.027001806187e-04 4.554754580628e-06 0.0 
4.554754580628e-06 1.781580953441e-03 0.0 
0.0 0.0 -3.009099309908e-04 
-4.837618896287e-04 7.408810593372e-06 0.0 
7.408810593372e-06 3.065907824054e-03 0.0 
0.0 0.0 -4.845585894574e-04 
-3.706525314116e-04 2.979043878704e-06 0.0 
2.979043878704e-06 2.283251894813e-03 0.0 
0.0 0.0 -3.723415964733e-04 
-3.535775650443e-04 1.642795960174e-06 0.0 
1.642795960174e-06 2.183712345689e-03 0.0 
0.0 0.0 -3.583452993329e-04 
-1.171956394673e-03 7.296733533157e-06 0.0 
7.296733533157e-06 7.865937936914e-03 0.0 
0.0 0.0 -1.173829981771e-03 
-1.155496536768e-03 -7.585900876950e-06 0.0 
-7.585900876950e-06 7.757441294242e-03 0.0 
0.0 0.0 -1.157575248917e-03 
-1.081331483118e-03 -1.018192650106e-05 0.0 
-1.018192650106e-05 7.219793718708e-03 0.0 
0.0 0.0 -1.080172819833e-03 
-1.016976595983e-03 3.080934611932e-08 0.0 
3.080934611932e-08 6.767850029250e-03 0.0 
0.0 0.0 -1.015677837919e-03 
-1.139278177336e-03 -7.940019038833e-06 0.0 
-7.940019038833e-06 7.665797132760e-03 0.0 
0.0 0.0 -1.144955025780e-03 
-2.327287223154e-04 -5.619721676041e-06 0.0 
-5.619721676041e-06 1.369838176642e-03 0.0 
0.0 0.0 -2.399185640008e-04 
-1.167065302037e-03 -2.167295117500e-06 0.0 
-2.167295117500e-06 7.816099518397e-03 0.0 
0.0 0.0 -1.165794428787e-03 
-1.057599608467e-03 -1.462585030755e-06 0.0 
-1.462585030755e-06 7.053925433098e-03 0.0 
0.0 0.0 -1.056136825731e-03 
-1.166821884924e-03 8.580756338006e-06 0.0 
8.580756338006e-06 7.754116842770e-03 0.0 
0.0 0.0 -1.157598467365e-03 
-1.133408506306e-03 -8.435792570126e-07 0.0 
-8.435792570126e-07 7.569033753462e-03 0.0 
0.0 0.0 -1.131219827106e-03 
-4.984456519411e-04 4.300557589695e-06 0.0 
4.300557589695e-06 3.150357815837e-03 0.0 
0.0 0.0 -4.968499830348e-04 
-4.727344614058e-04 -4.063132868511e-06 0.0 
-4.063132868511e-06 2.963684111716e-03 0.0 
0.0 0.0 -4.705806478706e-04 
-4.091383170964e-04 2.862069894884e-06 0.0 
2.862069894884e-06 2.529363987017e-03 0.0 
0.0 0.0 -4.078257031896e-04 
-4.471058786427e-04 1.072951437627e-05 0.0 
1.072951437627e-05 2.788633828474e-03 0.0 
0.0 0.0 -4.438024830152e-04 
-8.440631779025e-04 -4.493147098186e-06 0.0 
-4.493147098186e-06 5.518369027804e-03 0.0 
0.0 0.0 -8.361670615231e-04 
-5.357092529257e-04 -9.292843077281e-07 0.0 
-9.292843077281e-07 3.402933662769e-03 0.0 
0.0 0.0 -5.333915535664e-04 
-7.972227851670e-04 -9.360487058620e-07 0.0 
-9.360487058620e-07 5.222669072684e-03 0.0 
0.0 0.0 -7.939299641313e-04 
-7.702508874020e-04 -1.538210288694e-06 0.0 
-1.538210288694e-06 5.031866795854e-03 0.0 
0.0 0.0 -7.665196690739e-04 
-7.355056886190e-04 7.347932434340e-07 0.0 
7.347932434340e-07 4.791036993934e-03 0.0 
0.0 0.0 -7.319524942586e-04 
-6.561872916338e-04 1.268419360779e-06 0.0 
1.268419360779e-06 4.239606973166e-03 0.0 
0.0 0.0 -6.527873785750e-04 
-6.291613184762e-04 -1.439650198949e-06 0.0 
-1.439650198949e-06 4.053875822961e-03 0.0 
0.0 0.0 -6.261871041946e-04 
-5.548406946331e-04 -1.134560045618e-06 0.0 
-1.134560045618e-06 3.546628030902e-03 0.0 
0.0 0.0 -5.534964465553e-04 
-8.399940984115e-04 -3.577201230982e-06 0.0 
-3.577201230982e-06 5.537581821643e-03 0.0 
0.0 0.0 -8.390310526140e-04 
-7.058409553933e-04 5.047899970867e-07 0.0 
5.047899970867e-07 4.614117323526e-03 0.0 
0.0 0.0 -7.069621042110e-04 
-8.747594299032e-04 -2.558061717813e-06 0.0 
-2.558061717813e-06 5.788017369400e-03 0.0 
0.0 0.0 -8.751042800696e-04 
-8.345970192924e-04 7.968047685774e-07 0.0 
7.968047685774e-07 5.508873449258e-03 0.0 
0.0 0.0 -8.350146568664e-04 
-1.135366159085e-03 -3.784163045634e-06 0.0 
-3.784163045634e-06 7.595187475630e-03 0.0 
0.0 0.0 -1.135109731873e-03 
-1.173430748718e-03 -9.063019793227e-06 0.0 
-9.063019793227e-06 7.855172062360e-03 0.0 
0.0 0.0 -1.171938512032e-03 
-9.103494794309e-04 9.134385712292e-06 0.0 
9.134385712292e-06 6.008446285683e-03 0.0 
0.0 0.0 -9.065739516476e-04 
-8.719468559850e-04 9.049287930901e-07 0.0 
9.049287930901e-07 5.790867004059e-03 0.0 
0.0 0.0 -8.764137937918e-04 
-2.822142401262e-04 -1.729015805195e-06 0.0 
-1.729015805195e-06 1.647043850495e-03 0.0 
0.0 0.0 -2.813159824896e-04 
-2.590672524344e-04 7.758668078397e-06 0.0 
7.758668078397e-06 1.453070456664e-03 0.0 
0.0 0.0 -2.532569443854e-04 
-7.885436432884e-04 5.287197584801e-07 0.0 
5.287197584801e-07 5.190389624089e-03 0.0 
0.0 0.0 -7.894497706086e-04 
-1.129157536929e-03 4.394584270073e-06 0.0 
4.394584270073e-06 7.545263270116e-03 0.0 
0.0 0.0 -1.127529358476e-03 
-1.150499129859e-03 -1.601096256606e-07 0.0 
-1.601096256606e-07 7.703368893988e-03 0.0 
0.0 0.0 -1.150095860580e-03 
-1.180515255213e-03 -2.827683268633e-06 0.0 
-2.827683268633e-06 7.908952217123e-03 0.0 
0.0 0.0 -1.179372829571e-03 
-1.142938913333e-03 -3.318694813209e-06 0.0 
-3.318694813209e-06 7.657003561438e-03 0.0 
0.0 0.0 -1.143369325255e-03 
-1.140111309187e-03 8.981293941528e-07 0.0 
8.981293941528e-07 7.659653688633e-03 0.0 
0.0 0.0 -1.144273392007e-03 
-5.742583376343e-04 1.322470560158e-07 0.0 
1.322470560158e-07 3.685291735877e-03 0.0 
0.0 0.0 -5.733740095480e-04 
-8.593234151619e-04 -2.874076436986e-06 0.0 
-2.874076436986e-06 5.675695790787e-03 0.0 
0.0 0.0 -8.590966742019e-04 
-2.435677437140e-04 -1.068446741352e-05 0.0 
-1.068446741352e-05 1.382271228051e-03 0.0 
0.0 0.0 -2.423215009416e-04 
-8.888171571716e-04 7.702896638063e-07 0.0 
7.702896638063e-07 5.879388839658e-03 0.0 
0.0 0.0 -8.884627649733e-04 
-2.162237035634e-04 -3.672272412206e-06 0.0 
-3.672272412206e-06 1.184819371308e-03 0.0 
0.0 0.0 -2.162536877156e-04 
-1.014212058360e-03 -1.424401912202e-06 0.0 
-1.424401912202e-06 6.732806316095e-03 0.0 
0.0 0.0 -1.010319580236e-03 
-1.121146682577e-03 5.393536553208e-07 0.0 
5.393536553208e-07 7.512550218556e-03 0.0 
0.0 0.0 -1.122815839103e-03 
-1.157064342210e-03 3.278319440550e-08 0.0 
3.278319440550e-08 7.769042756358e-03 0.0 
0.0 0.0 -1.159213750608e-03 
-1.166424981014e-03 1.813592645858e-06 0.0 
1.813592645858e-06 7.856112587899e-03 0.0 
0.0 0.0 -1.171959308352e-03 
-7.504080630279e-04 1.142017006433e-05 0.0 
1.142017006433e-05 4.900584458038e-03 0.0 
0.0 0.0 -7.470952864203e-04 
-9.172347539122e-04 2.804117413103e-06 0.0 
2.804117413103e-06 6.075069916316e-03 0.0 
0.0 0.0 -9.162722660995e-04 
-8.822868772853e-04 1.786082975063e-06 0.0 
1.786082975063e-06 5.828052429250e-03 0.0 
0.0 0.0 -8.808726170640e-04 
-7.075025449257e-04 3.734403442010e-06 0.0 
3.734403442010e-06 4.602949033638e-03 0.0 
0.0 0.0 -7.048691535495e-04 
-6.736902723486e-04 3.915004124942e-06 0.0 
3.915004124942e-06 4.364959797177e-03 0.0 
0.0 0.0 -6.707530558731e-04 
-7.003926698376e-04 3.499859416460e-06 0.0 
3.499859416460e-06 4.548937086678e-03 0.0 
0.0 0.0 -6.972958566626e-04 
-6.396081130525e-04 3.801189656200e-06 0.0 
3.801189656200e-06 4.126284090508e-03 0.0 
0.0 0.0 -6.359606378414e-04 
-5.113814833483e-04 4.985013341203e-06 0.0 
4.985013341203e-06 3.258506878652e-03 0.0 
0.0 0.0 -5.122594947013e-04 
-4.735906672379e-04 3.101741148863e-06 0.0 
3.101741148863e-06 2.998270021668e-03 0.0 
0.0 0.0 -4.750188804659e-04 
-1.196527535369e-03 2.030860363372e-06 0.0 
2.030860363372e-06 8.017120294099e-03 0.0 
0.0 0.0 -1.192042136895e-03 
-1.179471908673e-03 2.186350744695e-05 0.0 
2.186350744695e-05 7.917990259976e-03 0.0 
0.0 0.0 -1.178660172201e-03 
-1.197525366512e-03 -5.361254674991e-06 0.0 
-5.361254674991e-06 8.017772106938e-03 0.0 
0.0 0.0 -1.193029175878e-03 
-1.157007599871e-03 -4.254495392408e-07 0.0 
-4.254495392408e-07 7.831852404544e-03 0.0 
0.0 0.0 -1.168165168231e-03 
-1.184219832489e-03 -2.995135238731e-06 0.0 
-2.995135238731e-06 8.054139615854e-03 0.0 
0.0 0.0 -1.200910491468e-03 
-1.156433585434e-03 -1.143666503597e-06 0.0 
-1.143666503597e-06 7.807020133364e-03 0.0 
0.0 0.0 -1.164168769488e-03 
-4.264796299706e-04 -5.762809161309e-06 0.0 
-5.762809161309e-06 2.638842137297e-03 0.0 
0.0 0.0 -4.227350873389e-04 
-5.681760473819e-04 2.318592575124e-06 0.0 
2.318592575124e-06 3.626581176623e-03 0.0 
0.0 0.0 -5.646260317871e-04 
-1.184636686047e-03 -1.016095806200e-05 0.0 
-1.016095806200e-05 8.009054334469e-03 0.0 
0.0 0.0 -1.194151889699e-03 
-7.414862310133e-04 3.192804147242e-06 0.0 
3.192804147242e-06 4.838396811126e-03 0.0 
0.0 0.0 -7.390869131010e-04 
-1.198370689590e-03 -4.208230376649e-06 0.0 
-4.208230376649e-06 8.000236790466e-03 0.0 
0.0 0.0 -1.192835421428e-03 
-1.157965586969e-03 3.621187988980e-06 0.0 
3.621187988980e-06 7.751872966735e-03 0.0 
0.0 0.0 -1.156047193884e-03 
-1.679677723564e-04 -6.471467774982e-06 0.0 
-6.471467774982e-06 9.157850137994e-04 0.0 
0.0 0.0 -1.776502893165e-04 
-2.010012491603e-04 -2.186198543601e-05 0.0 
-2.186198543601e-05 1.109886420371e-03 0.0 
0.0 0.0 -2.034953494974e-04 
-1.179928424182e-03 1.756406795434e-06 0.0 
1.756406795434e-06 7.951460578279e-03 0.0 
0.0 0.0 -1.184588873336e-03 
-3.838885301584e-04 -2.308315346755e-07 0.0 
-2.308315346755e-07 2.344842445821e-03 0.0 
0.0 0.0 -3.811925308841e-04 
-4.219559892701e-04 7.989363516761e-06 0.0 
7.989363516761e-06 2.586701229719e-03 0.0 
0.0 0.0 -4.158690271831e-04 
-3.474814854535e-04 -1.898705035349e-06 0.0 
-1.898705035349e-06 2.092244309525e-03 0.0 
0.0 0.0 -3.459699425273e-04 
-1.258412294817e-03 4.723230244952e-06 0.0 
4.723230244952e-06 8.451854294521e-03 0.0 
0.0 0.0 -1.258310293365e-03 
-7.484881504011e-04 -2.960864060488e-06 0.0 
-2.960864060488e-06 4.893199602045e-03 0.0 
0.0 0.0 -7.479256703001e-04 
-1.180456674817e-03 2.203572108547e-06 0.0 
2.203572108547e-06 7.969948982011e-03 0.0 
0.0 0.0 -1.189418985649e-03 
-6.915459890032e-04 2.639723401422e-07 0.0 
2.639723401422e-07 4.488659587491e-03 0.0 
0.0 0.0 -6.884682336192e-04 
-1.207477073685e-03 3.654066082018e-06 0.0 
3.654066082018e-06 8.169097270233e-03 0.0 
0.0 0.0 -1.216510697198e-03 
-9.459891485395e-04 2.183343284693e-06 0.0 
2.183343284693e-06 6.276634781059e-03 0.0 
0.0 0.0 -9.449116413281e-04 
-6.354655665352e-04 7.994205054124e-06 0.0 
7.994205054124e-06 4.117898953292e-03 0.0 
0.0 0.0 -6.353966017694e-04 
-1.078683645924e-03 -8.754256551645e-06 0.0 
-8.754256551645e-06 7.202760317135e-03 0.0 
0.0 0.0 -1.078177493492e-03 
-1.141578224773e-03 -1.678015124368e-05 0.0 
-1.678015124368e-05 7.703318796330e-03 0.0 
0.0 0.0 -1.149140729088e-03 
-1.226390364052e-03 1.281801736302e-05 0.0 
1.281801736302e-05 8.221773688784e-03 0.0 
0.0 0.0 -1.221625961084e-03 
-8.548571335587e-04 9.585095622167e-06 0.0 
9.585095622167e-06 5.710330831809e-03 0.0 
0.0 0.0 -8.638707813346e-04 
-8.315226367925e-04 -1.796676276346e-05 0.0 
-1.796676276346e-05 5.471080815741e-03 0.0 
0.0 0.0 -8.327709333130e-04 
-8.913153694948e-04 3.187001622880e-06 0.0 
3.187001622880e-06 5.908304703834e-03 0.0 
0.0 0.0 -8.925140200429e-04 
-2.901697666162e-04 2.957652242772e-06 0.0 
2.957652242772e-06 1.700907778148e-03 0.0 
0.0 0.0 -2.887053311254e-04 
-2.259876589124e-04 -1.628476741978e-06 0.0 
-1.628476741978e-06 1.207242233753e-03 0.0 
0.0 0.0 -2.186270541161e-04 
-1.144042553285e-03 -3.972510573142e-06 0.0 
-3.972510573142e-06 7.644643748638e-03 0.0 
0.0 0.0 -1.142090266074e-03 
-5.015691225624e-04 -4.004972649499e-06 0.0 
-4.004972649499e-06 3.172327891301e-03 0.0 
0.0 0.0 -5.006138788623e-04 
-5.490396028458e-04 1.473261204921e-05 0.0 
1.473261204921e-05 3.431798845594e-03 0.0 
0.0 0.0 -5.359218444892e-04 
-3.334097721274e-04 4.182676571656e-07 0.0 
4.182676571656e-07 2.008435002854e-03 0.0 
0.0 0.0 -3.328711069468e-04 
-3.967994371980e-04 3.163349435476e-06 0.0 
3.163349435476e-06 2.463726324997e-03 0.0 
0.0 0.0 -3.985542937016e-04 
-7.704918098594e-04 -2.506920414946e-06 0.0 
-2.506920414946e-06 5.073323433467e-03 0.0 
0.0 0.0 -7.728092966600e-04 
-7.429755971663e-04 -1.604665722884e-06 0.0 
-1.604665722884e-06 4.873825415622e-03 0.0 
0.0 0.0 -7.441750962829e-04 
-1.041105417575e-03 -3.532804275446e-06 0.0 
-3.532804275446e-06 6.930458439110e-03 0.0 
0.0 0.0 -1.038692069610e-03 
-1.077691050121e-03 5.915919111681e-07 0.0 
5.915919111681e-07 7.178307862229e-03 0.0 
0.0 0.0 -1.074129358999e-03 
-9.680145315127e-04 -4.800744221087e-06 0.0 
-4.800744221087e-06 6.431374472253e-03 0.0 
0.0 0.0 -9.675620497173e-04 
-9.449072701309e-04 5.755247327843e-07 0.0 
5.755247327843e-07 6.268683015175e-03 0.0 
0.0 0.0 -9.439558448496e-04 
-8.793469056982e-04 2.651871179316e-07 0.0 
2.651871179316e-07 5.812169911194e-03 0.0 
0.0 0.0 -8.783802297791e-04 
-8.506353188413e-04 -1.205932606215e-06 0.0 
-1.205932606215e-06 5.614865789540e-03 0.0 
0.0 0.0 -8.502765121185e-04 
-1.205371287344e-03 -1.017172525849e-05 0.0 
-1.017172525849e-05 8.044519540676e-03 0.0 
0.0 0.0 -1.199867006878e-03 
-1.246871842620e-03 -1.782584577442e-06 0.0 
-1.782584577442e-06 8.370823131876e-03 0.0 
0.0 0.0 -1.242728214876e-03 
-5.491066158241e-04 3.796504913762e-06 0.0 
3.796504913762e-06 3.515286504074e-03 0.0 
0.0 0.0 -5.488632449009e-04 
-5.218883337207e-04 5.205294616504e-06 0.0 
5.205294616504e-06 3.322312941731e-03 0.0 
0.0 0.0 -5.212126360957e-04 
-5.377854580404e-04 4.143852354848e-06 0.0 
4.143852354848e-06 3.445251353484e-03 0.0 
0.0 0.0 -5.390128571062e-04 
-1.214529256448e-03 -6.301616693034e-06 0.0 
-6.301616693034e-06 8.215301645721e-03 0.0 
0.0 0.0 -1.223056365294e-03 
-1.220614911318e-03 1.691106897423e-05 0.0 
1.691106897423e-05 8.234319209605e-03 0.0 
0.0 0.0 -1.224004481682e-03 
-1.202636442924e-03 -1.450484537664e-05 0.0 
-1.450484537664e-05 8.019827799738e-03 0.0 
0.0 0.0 -1.195820777905e-03 
-1.923031463658e-04 -1.299529721398e-05 0.0 
-1.299529721398e-05 1.005842812599e-03 0.0 
0.0 0.0 -1.880780275778e-04 
-2.380587333974e-04 -7.138126159536e-06 0.0 
-7.138126159536e-06 1.256954979671e-03 0.0 
0.0 0.0 -2.247092568812e-04 
-2.809188805545e-04 -7.804988416384e-07 0.0 
-7.804988416384e-07 1.601881524077e-03 0.0 
0.0 0.0 -2.751197234063e-04 
-2.390831316059e-04 -1.697522519504e-05 0.0 
-1.697522519504e-05 1.345355817379e-03 0.0 
0.0 0.0 -2.407125716443e-04 
-1.208745358061e-03 2.226513834230e-07 0.0 
2.226513834230e-07 8.094728759758e-03 0.0 
0.0 0.0 -1.207258722210e-03 
-1.173002429905e-03 -1.580225171754e-08 0.0 
-1.580225171754e-08 7.865013445176e-03 0.0 
0.0 0.0 -1.172631524865e-03 
-1.245587066994e-03 -1.350830728452e-07 0.0 
-1.350830728452e-07 8.403006214559e-03 0.0 
0.0 0.0 -1.247471551777e-03 
-3.784912276642e-04 1.355145565509e-05 0.0 
1.355145565509e-05 2.351827936340e-03 0.0 
0.0 0.0 -3.801539159394e-04 
-1.045351836581e-03 6.057785964129e-06 0.0 
6.057785964129e-06 6.969505785323e-03 0.0 
0.0 0.0 -1.045322365442e-03 
-1.205298536187e-03 1.211257299849e-05 0.0 
1.211257299849e-05 8.100207033565e-03 0.0 
0.0 0.0 -1.207899217314e-03 
-1.178583019777e-03 1.757022163117e-05 0.0 
1.757022163117e-05 7.916687945301e-03 0.0 
0.0 0.0 -1.178012378629e-03 
-1.242442001561e-03 9.743401619652e-06 0.0 
9.743401619652e-06 8.382783963078e-03 0.0 
0.0 0.0 -1.244624083072e-03 
-1.137070212873e-03 -2.028754131516e-06 0.0 
-2.028754131516e-06 7.646903784891e-03 0.0 
0.0 0.0 -1.142102124289e-03 
-1.209034666392e-03 -7.012965144915e-06 0.0 
-7.012965144915e-06 8.081623741308e-03 0.0 
0.0 0.0 -1.205428683694e-03 
-1.206763234680e-03 6.340388102828e-06 0.0 
6.340388102828e-06 8.101632159503e-03 0.0 
0.0 0.0 -1.209323031234e-03 
-1.526588308959e-04 -1.278274148856e-05 0.0 
-1.278274148856e-05 7.096255753314e-04 0.0 
0.0 0.0 -1.515181680101e-04 
-1.197635794990e-03 -1.679642684386e-05 0.0 
-1.679642684386e-05 8.038463106289e-03 0.0 
0.0 0.0 -1.199992767657e-03 
-8.372255126925e-04 -1.581405743953e-06 0.0 
-1.581405743953e-06 5.516497338344e-03 0.0 
0.0 0.0 -8.371571859873e-04 
-1.098991945020e-04 -3.154449405104e-05 0.0 
-3.154449405104e-05 5.330743413541e-04 0.0 
0.0 0.0 -1.134605161963e-04 
-7.981850025034e-04 -4.161080113950e-07 0.0 
-4.161080113950e-07 5.308479178574e-03 0.0 
0.0 0.0 -8.070151920887e-04 
-8.429634412097e-04 -1.709371110809e-06 0.0 
-1.709371110809e-06 5.581100165216e-03 0.0 
0.0 0.0 -8.451615393777e-04 
-7.696584184700e-04 -4.438777502839e-06 0.0 
-4.438777502839e-06 5.046252634616e-03 0.0 
0.0 0.0 -7.748096441827e-04 
-3.107010397172e-04 9.959927229299e-06 0.0 
9.959927229299e-06 1.894638977858e-03 0.0 
0.0 0.0 -3.155299188714e-04 
-8.095068364426e-04 -1.064416675758e-05 0.0 
-1.064416675758e-05 5.359424365734e-03 0.0 
0.0 0.0 -8.174106193842e-04 
-8.516632903957e-04 -1.548663215885e-05 0.0 
-1.548663215885e-05 5.659882039523e-03 0.0 
0.0 0.0 -8.556612431672e-04 
-1.454483653541e-04 3.285604104460e-06 0.0 
3.285604104460e-06 7.139538730244e-04 0.0 
0.0 0.0 -1.421329337195e-04 
-1.249632985061e-03 3.450770483262e-06 0.0 
3.450770483262e-06 8.450128189206e-03 0.0 
0.0 0.0 -1.259301554906e-03 
-1.652376678941e-04 -1.286666981350e-05 0.0 
-1.286666981350e-05 7.455520390207e-04 0.0 
0.0 0.0 -1.556443337539e-04 
-1.771144640534e-04 -1.673852043284e-05 0.0 
-1.673852043284e-05 9.409763732997e-04 0.0 
0.0 0.0 -1.806578101979e-04 
-1.211541890789e-03 1.467961613667e-05 0.0 
1.467961613667e-05 8.216069586299e-03 0.0 
0.0 0.0 -1.221214701962e-03 
-1.182137557378e-03 -1.347893005093e-06 0.0 
-1.347893005093e-06 7.946617508211e-03 0.0 
0.0 0.0 -1.184344882880e-03 
-1.248636598491e-03 -6.710766209692e-06 0.0 
-6.710766209692e-06 8.399111666310e-03 0.0 
0.0 0.0 -1.247726601234e-03 
-1.216304493113e-03 1.376146948642e-05 0.0 
1.376146948642e-05 8.121468603000e-03 0.0 
0.0 0.0 -1.211018817991e-03 
-1.146160367712e-03 -4.978228076893e-06 0.0 
-4.978228076893e-06 7.680298396241e-03 0.0 
0.0 0.0 -1.147066289601e-03 
-1.174333499691e-03 6.447300312268e-06 0.0 
6.447300312268e-06 7.890872304648e-03 0.0 
0.0 0.0 -1.176490610025e-03 
-8.022613359355e-04 -1.465561338710e-05 0.0 
-1.465561338710e-05 5.265642214057e-03 0.0 
0.0 0.0 -7.985989294648e-04 
-1.243628943204e-03 1.764986030868e-05 0.0 
1.764986030868e-05 8.400828657624e-03 0.0 
0.0 0.0 -1.249018369598e-03 
-1.202560827820e-03 4.472912903621e-06 0.0 
4.472912903621e-06 8.095627160272e-03 0.0 
0.0 0.0 -1.207442871744e-03 
-1.280707394095e-03 9.871433926351e-06 0.0 
9.871433926351e-06 8.646120131381e-03 0.0 
0.0 0.0 -1.277927415301e-03 
-6.139046463498e-04 4.062295408107e-06 0.0 
4.062295408107e-06 3.949909662933e-03 0.0 
0.0 0.0 -6.108003466767e-04 
-4.855763441254e-04 3.057596715552e-06 0.0 
3.057596715552e-06 3.031592722143e-03 0.0 
0.0 0.0 -4.789358348571e-04 
-4.592668061051e-04 2.643196690510e-06 0.0 
2.643196690510e-06 2.831145132009e-03 0.0 
0.0 0.0 -4.527251363391e-04 
-3.939664762502e-04 4.015896243431e-05 0.0 
4.015896243431e-05 2.394779108390e-03 0.0 
0.0 0.0 -3.875663759467e-04 
-1.235451159508e-03 5.414867173210e-06 0.0 
5.414867173210e-06 8.338545045283e-03 0.0 
0.0 0.0 -1.240180566941e-03 
-1.197541601819e-03 2.184484790426e-05 0.0 
2.184484790426e-05 8.058909055166e-03 0.0 
0.0 0.0 -1.200590015451e-03 
-1.087867486780e-03 1.085013592536e-06 0.0 
1.085013592536e-06 7.270465583492e-03 0.0 
0.0 0.0 -1.087555896896e-03 
-1.022984886136e-03 4.510930018279e-06 0.0 
4.510930018279e-06 6.802736585016e-03 0.0 
0.0 0.0 -1.020738973070e-03 
-8.163996236660e-04 7.186741062486e-06 0.0 
7.186741062486e-06 5.339991771102e-03 0.0 
0.0 0.0 -8.108182148135e-04 
-8.104965103200e-04 -8.251273631930e-06 0.0 
-8.251273631930e-06 5.308853861974e-03 0.0 
0.0 0.0 -8.077352941366e-04 
-8.720514006204e-04 3.179792081281e-05 0.0 
3.179792081281e-05 5.733381675574e-03 0.0 
0.0 0.0 -8.678526801547e-04 
-8.648510791426e-04 -7.111218047977e-06 0.0 
-7.111218047977e-06 5.661166370703e-03 0.0 
0.0 0.0 -8.609153521579e-04 
-9.263549734801e-04 3.033239231763e-05 0.0 
3.033239231763e-05 6.105443762298e-03 0.0 
0.0 0.0 -9.200517378055e-04 
-9.083479877114e-04 -1.416522287393e-05 0.0 
-1.416522287393e-05 6.036653926986e-03 0.0 
0.0 0.0 -9.108947733944e-04 
-9.698621139042e-04 -2.949214397537e-05 0.0 
-2.949214397537e-05 6.467199866666e-03 0.0 
0.0 0.0 -9.726914458129e-04 
-1.247222366311e-03 2.606056517105e-05 0.0 
2.606056517105e-05 8.375150940582e-03 0.0 
0.0 0.0 -1.245087786853e-03 
-3.186375953883e-04 9.254464651410e-06 0.0 
9.254464651410e-06 1.904578218722e-03 0.0 
0.0 0.0 -3.180830487989e-04 
-6.795655702328e-04 3.950407328760e-06 0.0 
3.950407328760e-06 4.416747400763e-03 0.0 
0.0 0.0 -6.783069842581e-04 
-1.217523867403e-03 -1.107710803929e-05 0.0 
-1.107710803929e-05 8.250220171501e-03 0.0 
0.0 0.0 -1.228261380050e-03 
-1.189954932966e-03 -3.389414248199e-06 0.0 
-3.389414248199e-06 7.976695802146e-03 0.0 
0.0 0.0 -1.187396807988e-03 
-6.030585832721e-04 2.040094254721e-06 0.0 
2.040094254721e-06 3.869813641297e-03 0.0 
0.0 0.0 -6.000944487132e-04 
-5.459736888774e-04 1.094222006431e-05 0.0 
1.094222006431e-05 3.457763009942e-03 0.0 
0.0 0.0 -5.401620014017e-04 
-1.244604975369e-03 1.395843640125e-05 0.0 
1.395843640125e-05 8.345755076324e-03 0.0 
0.0 0.0 -1.238794375355e-03 
-5.618086059147e-04 1.672788938572e-06 0.0 
1.672788938572e-06 3.593027472553e-03 0.0 
0.0 0.0 -5.600314934590e-04 
-1.295241739404e-03 -3.069672707253e-06 0.0 
-3.069672707253e-06 8.734931616820e-03 0.0 
0.0 0.0 -1.295459716840e-03 
-4.726518995237e-05 -5.619949717465e-06 0.0 
-5.619949717465e-06 2.661811301103e-04 0.0 
0.0 0.0 -5.690003420298e-05 
-1.291194022147e-04 1.153791065658e-05 0.0 
1.153791065658e-05 6.783732708889e-04 0.0 
0.0 0.0 -1.353443326634e-04 
-5.978702258073e-04 2.845759187995e-06 0.0 
2.845759187995e-06 3.846572588730e-03 0.0 
0.0 0.0 -5.969207367497e-04 
-6.645061217588e-04 1.210892726737e-06 0.0 
1.210892726737e-06 4.303380572845e-03 0.0 
0.0 0.0 -6.620222007989e-04 
-5.132181813278e-04 9.130074641215e-06 0.0 
9.130074641215e-06 3.278288147999e-03 0.0 
0.0 0.0 -5.157319100482e-04 
-4.860075133994e-04 2.990028342248e-06 0.0 
2.990028342248e-06 3.124396954495e-03 0.0 
0.0 0.0 -4.917183783407e-04 
-1.011317378684e-03 6.487621353873e-07 0.0 
6.487621353873e-07 6.733904614894e-03 0.0 
0.0 0.0 -1.010552660601e-03 
-1.970258742010e-04 -2.540004491898e-06 0.0 
-2.540004491898e-06 1.065332307301e-03 0.0 
0.0 0.0 -1.995083582888e-04 
-3.139166667020e-04 -2.253789274830e-06 0.0 
-2.253789274830e-06 1.850494599455e-03 0.0 
0.0 0.0 -3.106934562087e-04 
-9.732483420248e-04 2.855591412457e-05 0.0 
2.855591412457e-05 6.524849625929e-03 0.0 
0.0 0.0 -9.796923013958e-04 
-2.492954901946e-04 5.421975703907e-07 0.0 
5.421975703907e-07 1.421478567984e-03 0.0 
0.0 0.0 -2.487700610537e-04 
-1.054075874997e-03 3.591188931398e-06 0.0 
3.591188931398e-06 7.044165573929e-03 0.0 
0.0 0.0 -1.055800198362e-03 
-5.906078188001e-04 -3.257939390685e-06 0.0 
-3.257939390685e-06 3.796619652219e-03 0.0 
0.0 0.0 -5.891999696964e-04 
-7.180999395262e-04 1.178684334055e-07 0.0 
1.178684334055e-07 4.675154024113e-03 0.0 
0.0 0.0 -7.153500975001e-04 
-3.728153202837e-04 5.624284337172e-06 0.0 
5.624284337172e-06 2.280349559801e-03 0.0 
0.0 0.0 -3.721998919698e-04 
-5.103591414383e-04 -9.070033728056e-06 0.0 
-9.070033728056e-06 3.229749929793e-03 0.0 
0.0 0.0 -5.080103017801e-04 
-8.695833745558e-04 -3.060324942152e-06 0.0 
-3.060324942152e-06 5.711345853531e-03 0.0 
0.0 0.0 -8.638580894607e-04 
-8.186088136840e-04 -7.130242765285e-06 0.0 
-7.130242765285e-06 5.325410070609e-03 0.0 
0.0 0.0 -8.086477316853e-04 
-7.808475722582e-04 4.208348100211e-06 0.0 
4.208348100211e-06 5.088284712977e-03 0.0 
0.0 0.0 -7.738406155293e-04 
-6.192436331633e-04 -2.766602775267e-06 0.0 
-2.766602775267e-06 3.995359302638e-03 0.0 
0.0 0.0 -6.178822433291e-04 
-5.311490319336e-04 1.040423507352e-05 0.0 
1.040423507352e-05 3.373878795457e-03 0.0 
0.0 0.0 -5.288330985435e-04 
-4.650941372062e-04 3.123945634320e-06 0.0 
3.123945634320e-06 2.898874049441e-03 0.0 
0.0 0.0 -4.617239487405e-04 
-8.245081772930e-04 8.576273436609e-07 0.0 
8.576273436609e-07 5.414129368543e-03 0.0 
0.0 0.0 -8.213029907542e-04 
-1.107776256753e-03 4.822798209617e-06 0.0 
4.822798209617e-06 7.407183480602e-03 0.0 
0.0 0.0 -1.107475121065e-03 
-1.139123580733e-03 8.505935532769e-06 0.0 
8.505935532769e-06 7.608538315330e-03 0.0 
0.0 0.0 -1.136341617999e-03 
-1.199876040135e-03 -5.928463898269e-08 0.0 
-5.928463898269e-08 8.046533922637e-03 0.0 
0.0 0.0 -1.199268560344e-03 
-1.168168474149e-03 4.195650786352e-06 0.0 
4.195650786352e-06 7.812169121329e-03 0.0 
0.0 0.0 -1.164598082371e-03 
-1.102136352719e-03 2.455120919178e-06 0.0 
2.455120919178e-06 7.358887921961e-03 0.0 
0.0 0.0 -1.100413285504e-03 
-1.128466826395e-03 -6.206260029614e-06 0.0 
-6.206260029614e-06 7.555420673368e-03 0.0 
0.0 0.0 -1.129075729544e-03 
-1.196306272628e-03 1.070052804672e-05 0.0 
1.070052804672e-05 8.004295185816e-03 0.0 
0.0 0.0 -1.193594387005e-03 
-1.153224420722e-03 -4.335162698850e-08 0.0 
-4.335162698850e-08 7.767660328472e-03 0.0 
0.0 0.0 -1.159256375294e-03 
-1.235596637609e-03 -1.164422989244e-05 0.0 
-1.164422989244e-05 8.301735673801e-03 0.0 
0.0 0.0 -1.234286862126e-03 
-1.186419994292e-03 -1.475121185166e-05 0.0 
-1.475121185166e-05 7.963391228364e-03 0.0 
0.0 0.0 -1.187309181180e-03 
-1.120005548931e-03 2.940168057848e-06 0.0 
2.940168057848e-06 7.498615446152e-03 0.0 
0.0 0.0 -1.120864512401e-03 
-1.154875778754e-03 1.588860619796e-06 0.0 
1.588860619796e-06 7.686132635796e-03 0.0 
0.0 0.0 -1.147759711419e-03 
-1.213465252650e-03 -6.064802065588e-06 0.0 
-6.064802065588e-06 8.128624196229e-03 0.0 
0.0 0.0 -1.207767947030e-03 
-1.084932373400e-03 -2.016919157353e-06 0.0 
-2.016919157353e-06 7.235951787837e-03 0.0 
0.0 0.0 -1.082593982084e-03 
-1.254330692315e-03 -4.481726023152e-06 0.0 
-4.481726023152e-06 8.484172233715e-03 0.0 
0.0 0.0 -1.264544343569e-03 
-6.624416308103e-04 2.474610527068e-06 0.0 
2.474610527068e-06 4.298662523578e-03 0.0 
0.0 0.0 -6.621140475474e-04 
-1.785384896329e-04 7.817361308921e-06 0.0 
7.817361308921e-06 9.797346640556e-04 0.0 
0.0 0.0 -1.850918921636e-04 
-1.812548087705e-04 3.762529197936e-05 0.0 
3.762529197936e-05 9.321215546565e-04 0.0 
0.0 0.0 -1.767209935827e-04 
-7.539589003549e-04 1.955358916858e-06 0.0 
1.955358916858e-06 4.924010090496e-03 0.0 
0.0 0.0 -7.509174086159e-04 
-1.304930514548e-03 2.715145444445e-06 0.0 
2.715145444445e-06 8.760435441101e-03 0.0 
0.0 0.0 -1.299806302097e-03 
-1.304281806298e-03 1.236291441076e-07 0.0 
1.236291441076e-07 8.779429009152e-03 0.0 
0.0 0.0 -1.301753673823e-03 
-4.909194379315e-04 2.965411161779e-07 0.0 
2.965411161779e-07 3.101621980483e-03 0.0 
0.0 0.0 -4.895692906686e-04 
-1.302172698065e-03 -1.121402078097e-06 0.0 
-1.121402078097e-06 8.776859442822e-03 0.0 
0.0 0.0 -1.303413959896e-03 
-8.069978020622e-04 -2.494686579793e-06 0.0 
-2.494686579793e-06 5.276076784830e-03 0.0 
0.0 0.0 -8.012154088905e-04 
-3.570511327705e-04 3.379375906477e-06 0.0 
3.379375906477e-06 2.154968683645e-03 0.0 
0.0 0.0 -3.530685601169e-04 
-1.302556100553e-03 -9.155318300837e-06 0.0 
-9.155318300837e-06 8.779430224672e-03 0.0 
0.0 0.0 -1.304286792737e-03 
-1.070880273795e-03 7.212077137724e-06 0.0 
7.212077137724e-06 7.154951258216e-03 0.0 
0.0 0.0 -1.071440646998e-03 
-1.034235002280e-03 -1.284962224456e-06 0.0 
-1.284962224456e-06 6.899499474228e-03 0.0 
0.0 0.0 -1.034857077839e-03 
-1.003722632452e-03 2.735580280874e-06 0.0 
2.735580280874e-06 6.699806917378e-03 0.0 
0.0 0.0 -1.006057961993e-03 
-1.300150248326e-03 -1.392366785442e-05 0.0 
-1.392366785442e-05 8.797329976127e-03 0.0 
0.0 0.0 -1.305867370806e-03 
-9.260727886855e-04 3.160967958324e-07 0.0 
3.160967958324e-07 6.120955206479e-03 0.0 
0.0 0.0 -9.232948652302e-04 
-1.306196713142e-03 -8.296229578561e-06 0.0 
-8.296229578561e-06 8.804073325104e-03 0.0 
0.0 0.0 -1.306016332489e-03 
-9.052728605033e-04 -4.849094365273e-06 0.0 
-4.849094365273e-06 5.990555075409e-03 0.0 
0.0 0.0 -9.039903713831e-04 
-8.761060883680e-04 -1.507187481036e-06 0.0 
-1.507187481036e-06 5.787161046779e-03 0.0 
0.0 0.0 -8.747633066757e-04 
-8.116067085345e-04 -5.312091982632e-07 0.0 
-5.312091982632e-07 5.336659872116e-03 0.0 
0.0 0.0 -8.101682821885e-04 
-1.090435695547e-03 -5.471004820640e-06 0.0 
-5.471004820640e-06 7.297274492399e-03 0.0 
0.0 0.0 -1.092245366321e-03 
-1.304752605298e-03 5.119868144783e-06 0.0 
5.119868144783e-06 8.772978853590e-03 0.0 
0.0 0.0 -1.302677999426e-03 
-1.251945645214e-03 -2.706015879676e-06 0.0 
-2.706015879676e-06 8.407016214184e-03 0.0 
0.0 0.0 -1.248400714067e-03 
-1.246920299523e-03 -1.300681603293e-05 0.0 
-1.300681603293e-05 8.402409073512e-03 0.0 
0.0 0.0 -1.248426544684e-03 
-1.200536970879e-03 5.026882822923e-07 0.0 
5.026882822923e-07 8.002917905198e-03 0.0 
0.0 0.0 -1.189114855724e-03 
-1.300430795451e-03 -3.697458701882e-07 0.0 
-3.697458701882e-07 8.777742711435e-03 0.0 
0.0 0.0 -1.303398793257e-03 
-1.305040401458e-03 -2.477912411246e-06 0.0 
-2.477912411246e-06 8.792831145886e-03 0.0 
0.0 0.0 -1.306665994082e-03 
-1.309321026579e-03 -3.535422289685e-06 0.0 
-3.535422289685e-06 8.803291043654e-03 0.0 
0.0 0.0 -1.308500709484e-03 
-4.563282024571e-04 7.998262252195e-06 0.0 
7.998262252195e-06 2.871636865217e-03 0.0 
0.0 0.0 -4.564773689951e-04 
-4.946429183726e-04 2.495592359639e-06 0.0 
2.495592359639e-06 3.130328514227e-03 0.0 
0.0 0.0 -4.934415926888e-04 
-5.584596756046e-04 8.667542274346e-07 0.0 
8.667542274346e-07 3.577137698620e-03 0.0 
0.0 0.0 -5.576035839405e-04 
-5.302623041630e-04 -1.383760277086e-07 0.0 
-1.383760277086e-07 3.381956619872e-03 0.0 
0.0 0.0 -5.298816096007e-04 
-4.659671190879e-04 -4.163529231501e-07 0.0 
-4.163529231501e-07 2.931155601344e-03 0.0 
0.0 0.0 -4.652367627802e-04 
-5.016537237261e-04 2.063261409926e-06 0.0 
2.063261409926e-06 3.184734037305e-03 0.0 
0.0 0.0 -5.016361848483e-04 
-5.661735479295e-04 -1.745642799837e-06 0.0 
-1.745642799837e-06 3.632429034736e-03 0.0 
0.0 0.0 -5.657331850765e-04 
-4.736975024202e-04 4.166873871235e-06 0.0 
4.166873871235e-06 2.986059562016e-03 0.0 
0.0 0.0 -4.731795164401e-04 
-1.136859235010e-03 -3.377117996041e-07 0.0 
-3.377117996041e-07 7.623291641590e-03 0.0 
0.0 0.0 -1.138512926666e-03 
-1.305247072706e-03 8.619226715452e-06 0.0 
8.619226715452e-06 8.792398553622e-03 0.0 
0.0 0.0 -1.305779161548e-03 
-9.003036646772e-04 5.242872872393e-08 0.0 
5.242872872393e-08 5.967493708530e-03 0.0 
0.0 0.0 -9.007942405787e-04 
-8.714438606503e-04 -2.881495108124e-08 0.0 
-2.881495108124e-08 5.762779516703e-03 0.0 
0.0 0.0 -8.713600568839e-04 
-8.060291522058e-04 2.568870968060e-06 0.0 
2.568870968060e-06 5.307363937555e-03 0.0 
0.0 0.0 -8.059887332522e-04 
-6.767854044607e-04 -2.452778344729e-06 0.0 
-2.452778344729e-06 4.414816973838e-03 0.0 
0.0 0.0 -6.781883600425e-04 
-7.139648610369e-04 -1.142183076086e-06 0.0 
-1.142183076086e-06 4.673969170683e-03 0.0 
0.0 0.0 -7.153987595530e-04 
-7.802120795526e-04 -1.536270118745e-06 0.0 
-1.536270118745e-06 5.133033430624e-03 0.0 
0.0 0.0 -7.812419408864e-04 
-6.404629301344e-04 -4.612028746678e-06 0.0 
-4.612028746678e-06 4.156213633446e-03 0.0 
0.0 0.0 -6.407943132712e-04 
-9.874131908799e-04 -6.712457213218e-07 0.0 
-6.712457213218e-07 6.570776206516e-03 0.0 
0.0 0.0 -9.876394229526e-04 
-1.303361853095e-03 -8.460317239526e-06 0.0 
-8.460317239526e-06 8.788997264875e-03 0.0 
0.0 0.0 -1.305003056577e-03 
-8.872565026320e-04 -1.178797543573e-06 0.0 
-1.178797543573e-06 5.871190587017e-03 0.0 
0.0 0.0 -8.871663004355e-04 
-6.846436599198e-04 7.853769409708e-07 0.0 
7.853769409708e-07 4.472455721995e-03 0.0 
0.0 0.0 -6.865966444657e-04 
-7.539028914794e-04 -4.959050989123e-06 0.0 
-4.959050989123e-06 4.922681506756e-03 0.0 
0.0 0.0 -7.516786372745e-04 
-8.065421024266e-04 1.420005202741e-05 0.0 
1.420005202741e-05 5.322326400601e-03 0.0 
0.0 0.0 -8.094822736869e-04 
-8.086043951130e-04 -1.965516725366e-05 0.0 
-1.965516725366e-05 5.337498560082e-03 0.0 
0.0 0.0 -8.097394517040e-04 
-8.597670883848e-04 -1.890965562487e-05 0.0 
-1.890965562487e-05 5.752558822544e-03 0.0 
0.0 0.0 -8.733121467894e-04 
-8.092120706639e-04 -2.844643670808e-05 0.0 
-2.844643670808e-05 5.361887279047e-03 0.0 
0.0 0.0 -8.155917408702e-04 
-8.008122296240e-04 -3.960466263451e-06 0.0 
-3.960466263451e-06 5.274822743462e-03 0.0 
0.0 0.0 -8.015266587451e-04 
-8.309313177437e-04 -3.374628280102e-06 0.0 
-3.374628280102e-06 5.475720121039e-03 0.0 
0.0 0.0 -8.302790088839e-04 
-7.940624788884e-04 8.919203165534e-07 0.0 
8.919203165534e-07 5.224020544311e-03 0.0 
0.0 0.0 -7.937858958383e-04 
-8.582675862212e-04 -3.216784494388e-06 0.0 
-3.216784494388e-06 5.673950666655e-03 0.0 
0.0 0.0 -8.590670690980e-04 
-8.174868470622e-04 -1.134099850245e-05 0.0 
-1.134099850245e-05 5.408679153658e-03 0.0 
0.0 0.0 -8.213578559547e-04 
-7.534944197864e-04 -1.238974191223e-05 0.0 
-1.238974191223e-05 4.986891128186e-03 0.0 
0.0 0.0 -7.608744282309e-04 
-8.810221771506e-04 -8.901330273928e-06 0.0 
-8.901330273928e-06 5.862708610279e-03 0.0 
0.0 0.0 -8.866101721103e-04 
-8.418977428013e-04 7.461726785173e-06 0.0 
7.461726785173e-06 5.581554122099e-03 0.0 
0.0 0.0 -8.437388122980e-04 
-7.467365547974e-04 -1.323074519904e-05 0.0 
-1.323074519904e-05 4.916042254111e-03 0.0 
0.0 0.0 -7.509531518293e-04 
-6.281984343026e-05 -8.116789961930e-06 0.0 
-8.116789961930e-06 3.039228182762e-04 0.0 
0.0 0.0 -5.875963060191e-05 
-1.355333239518e-04 1.033404853999e-05 0.0 
1.033404853999e-05 6.720001517331e-04 0.0 
0.0 0.0 -1.336704791874e-04 
-1.282422711095e-04 -8.546555161091e-06 0.0 
-8.546555161091e-06 6.602474725937e-04 0.0 
0.0 0.0 -1.318084371690e-04 
-1.928083139696e-04 -4.221005670817e-06 0.0 
-4.221005670817e-06 1.041957248050e-03 0.0 
0.0 0.0 -1.954650243430e-04 
-2.029746956204e-04 1.944205005125e-05 0.0 
1.944205005125e-05 1.074330231207e-03 0.0 
0.0 0.0 -1.996745964068e-04 
-2.516532851573e-04 2.529704688843e-06 0.0 
2.529704688843e-06 1.468491691138e-03 0.0 
0.0 0.0 -2.586654344069e-04 
-2.430663838691e-04 -2.535368885229e-05 0.0 
-2.535368885229e-05 1.426461466079e-03 0.0 
0.0 0.0 -2.494736616194e-04 
-1.355920943443e-04 -1.133959606156e-05 0.0 
-1.133959606156e-05 6.743890404386e-04 0.0 
0.0 0.0 -1.329747880817e-04 
-5.916993316135e-05 -2.320129164534e-06 0.0 
-2.320129164534e-06 2.981065881978e-04 0.0 
0.0 0.0 -5.794854899120e-05 
-1.308876834567e-04 2.474427720982e-06 0.0 
2.474427720982e-06 6.544145800914e-04 0.0 
0.0 0.0 -1.315689628225e-04 
-5.700489183936e-05 1.676517162921e-06 0.0 
1.676517162921e-06 2.920832994483e-04 0.0 
0.0 0.0 -5.719792189481e-05 
-1.267870388794e-04 3.184293719907e-07 0.0 
3.184293719907e-07 6.426508649646e-04 0.0 
0.0 0.0 -1.299421249981e-04 
-1.994525793344e-04 4.316150581238e-06 0.0 
4.316150581238e-06 1.086316860704e-03 0.0 
0.0 0.0 -2.038865569970e-04 
-2.958463202673e-04 -2.325840138199e-07 0.0 
-2.325840138199e-07 1.726726422813e-03 0.0 
0.0 0.0 -2.925150634556e-04 
-1.301927001702e-03 1.803371535176e-05 0.0 
1.803371535176e-05 8.724914391627e-03 0.0 
0.0 0.0 -1.294874803588e-03 
-6.623633125061e-04 4.679424212470e-06 0.0 
4.679424212470e-06 4.281040174428e-03 0.0 
0.0 0.0 -6.595503360071e-04 
-6.354861751500e-04 1.876466608711e-05 0.0 
1.876466608711e-05 4.076331016795e-03 0.0 
0.0 0.0 -6.264797819744e-04 
-5.600446600074e-04 1.786449294601e-05 0.0 
1.786449294601e-05 3.606391450714e-03 0.0 
0.0 0.0 -5.641716646261e-04 
-6.018396249447e-04 -5.225124560815e-06 0.0 
-5.225124560815e-06 3.865969919156e-03 0.0 
0.0 0.0 -5.974662984275e-04 
-6.971605018600e-04 2.093612217768e-05 0.0 
2.093612217768e-05 4.459125829408e-03 0.0 
0.0 0.0 -6.865721209800e-04 
-5.253766316691e-04 1.379974747341e-05 0.0 
1.379974747341e-05 3.365120840458e-03 0.0 
0.0 0.0 -5.286920563404e-04 
-4.997160733495e-04 2.272416899081e-05 0.0 
2.272416899081e-05 3.215754431319e-03 0.0 
0.0 0.0 -5.038291843518e-04 
-6.458044435335e-05 -2.268465343287e-06 0.0 
-2.268465343287e-06 3.061057402813e-04 0.0 
0.0 0.0 -5.826474687103e-05 
-1.365107396446e-04 -1.511681688150e-05 0.0 
-1.511681688150e-05 6.671209083265e-04 0.0 
0.0 0.0 -1.338235891287e-04 
-1.329944671514e-04 1.728312419841e-05 0.0 
1.728312419841e-05 6.296869018316e-04 0.0 
0.0 0.0 -1.329549719063e-04 
-2.100970973320e-04 9.757108246001e-06 0.0 
9.757108246001e-06 1.064616598962e-03 0.0 
0.0 0.0 -1.976702944042e-04 
-1.907673612492e-04 -8.037251829827e-06 0.0 
-8.037251829827e-06 1.054607848416e-03 0.0 
0.0 0.0 -1.960684762570e-04 
-1.291399276806e-04 5.589927262183e-07 0.0 
5.589927262183e-07 6.717799826529e-04 0.0 
0.0 0.0 -1.329856363161e-04 
-1.332115243410e-04 1.116366171220e-05 0.0 
1.116366171220e-05 6.698553752902e-04 0.0 
0.0 0.0 -1.328726424774e-04 
-6.123018265424e-05 -2.226991271334e-06 0.0 
-2.226991271334e-06 2.966407899736e-04 0.0 
0.0 0.0 -5.786540529839e-05 
-1.318562850821e-04 -3.804233771788e-06 0.0 
-3.804233771788e-06 6.638255964620e-04 0.0 
0.0 0.0 -1.308611123410e-04 
-1.930153503724e-04 1.076682971486e-05 0.0 
1.076682971486e-05 1.064256298509e-03 0.0 
0.0 0.0 -1.994574706984e-04 
-5.202007941151e-05 -5.137534308526e-06 0.0 
-5.137534308526e-06 2.737802621695e-04 0.0 
0.0 0.0 -5.534513975842e-05 
-1.060096701056e-03 -2.854203109810e-05 0.0 
-2.854203109810e-05 7.080511066382e-03 0.0 
0.0 0.0 -1.060427308513e-03 
-1.101245431622e-03 -2.265554676241e-05 0.0 
-2.265554676241e-05 7.326835296988e-03 0.0 
0.0 0.0 -1.097082233180e-03 
-1.303771853134e-03 -3.955883839532e-06 0.0 
-3.955883839532e-06 8.773017437093e-03 0.0 
0.0 0.0 -1.300897016293e-03 
-7.525731418622e-04 -2.553654618204e-05 0.0 
-2.553654618204e-05 4.964909214712e-03 0.0 
0.0 0.0 -7.584009903415e-04 
-5.671099606197e-05 2.025225744353e-06 0.0 
2.025225744353e-06 2.971089711715e-04 0.0 
0.0 0.0 -5.884959645353e-05 
-1.296052575560e-03 -1.034030830046e-06 0.0 
-1.034030830046e-06 8.715505616406e-03 0.0 
0.0 0.0 -1.292107529982e-03 
-1.300241625373e-03 -1.196764903617e-05 0.0 
-1.196764903617e-05 8.782711832524e-03 0.0 
0.0 0.0 -1.303172775453e-03 
-1.297505069925e-03 9.380535181792e-06 0.0 
9.380535181792e-06 8.784349503541e-03 0.0 
0.0 0.0 -1.304823151597e-03 
-1.190737660973e-03 8.854859890109e-06 0.0 
8.854859890109e-06 7.990764728896e-03 0.0 
0.0 0.0 -1.191058493115e-03 
-1.217720710694e-03 3.907545697899e-06 0.0 
3.907545697899e-06 8.218811643119e-03 0.0 
0.0 0.0 -1.224322658093e-03 
-1.301588133362e-03 5.941663257033e-06 0.0 
5.941663257033e-06 8.722214772172e-03 0.0 
0.0 0.0 -1.294569364341e-03 
-4.491538872292e-04 3.425462149105e-06 0.0 
3.425462149105e-06 2.829494640627e-03 0.0 
0.0 0.0 -4.512809064328e-04 
-1.219121534789e-03 1.093707084892e-05 0.0 
1.093707084892e-05 8.264877250953e-03 0.0 
0.0 0.0 -1.225740639889e-03 
-1.181600644536e-03 2.602984545223e-06 0.0 
2.602984545223e-06 7.898254142128e-03 0.0 
0.0 0.0 -1.178628832109e-03 
-3.271245572877e-04 -7.559619564852e-07 0.0 
-7.559619564852e-07 1.969290585494e-03 0.0 
0.0 0.0 -3.268383546744e-04 
-4.353641825211e-04 2.390544681031e-06 0.0 
2.390544681031e-06 2.735090082528e-03 0.0 
0.0 0.0 -4.373623857420e-04 
-9.887113880157e-04 2.647202920691e-06 0.0 
2.647202920691e-06 6.590846789922e-03 0.0 
0.0 0.0 -9.899674718230e-04 
-9.119629022756e-04 -1.217041315454e-06 0.0 
-1.217041315454e-06 6.048161892543e-03 0.0 
0.0 0.0 -9.123979313600e-04 
-1.130689760044e-03 -2.404858458419e-06 0.0 
-2.404858458419e-06 7.563292742476e-03 0.0 
0.0 0.0 -1.130390451587e-03 
-9.324694232768e-04 5.707369417901e-08 0.0 
5.707369417901e-08 6.185987888161e-03 0.0 
0.0 0.0 -9.322225209316e-04 
-1.071273223037e-03 -3.400166334340e-06 0.0 
-3.400166334340e-06 7.166794807332e-03 0.0 
0.0 0.0 -1.073123358692e-03 
-1.246132006402e-03 2.306789458163e-05 0.0 
2.306789458163e-05 8.374889379432e-03 0.0 
0.0 0.0 -1.244129926109e-03 
-2.805652380377e-04 -4.717906580370e-06 0.0 
-4.717906580370e-06 1.732830044642e-03 0.0 
0.0 0.0 -2.939217362394e-04 
-9.366102056304e-04 6.334636788504e-06 0.0 
6.334636788504e-06 6.210934504197e-03 0.0 
0.0 0.0 -9.364826870394e-04 
-9.120035044512e-04 6.559904903544e-06 0.0 
6.559904903544e-06 6.042070421320e-03 0.0 
0.0 0.0 -9.130351872960e-04 
-1.076387052139e-03 -3.360138210610e-06 0.0 
-3.360138210610e-06 7.184148688862e-03 0.0 
0.0 0.0 -1.075939795031e-03 
-4.728102684627e-04 -4.847791376242e-06 0.0 
-4.847791376242e-06 2.971951481931e-03 0.0 
0.0 0.0 -4.709579147287e-04 
-7.280869989337e-04 -1.354131871897e-05 0.0 
-1.354131871897e-05 4.780585004203e-03 0.0 
0.0 0.0 -7.304257169629e-04 
-3.156217836785e-04 -5.089469505304e-06 0.0 
-5.089469505304e-06 1.850033331779e-03 0.0 
0.0 0.0 -3.104331955072e-04 
-1.248490279357e-03 4.323593742207e-06 0.0 
4.323593742207e-06 8.417241528006e-03 0.0 
0.0 0.0 -1.251461238623e-03 
-7.622164195474e-04 2.744443297134e-08 0.0 
2.744443297134e-08 4.979735740211e-03 0.0 
0.0 0.0 -7.590395520047e-04 
-7.692339302932e-04 1.865673827942e-06 0.0 
1.865673827942e-06 5.052106796517e-03 0.0 
0.0 0.0 -7.694287042311e-04 
-6.089514047186e-04 -2.827610219257e-06 0.0 
-2.827610219257e-06 3.952389816829e-03 0.0 
0.0 0.0 -6.120242822960e-04 
-4.863994982411e-04 4.620884363832e-06 0.0 
4.620884363832e-06 3.095071946727e-03 0.0 
0.0 0.0 -4.894362539292e-04 
-4.085285658609e-04 2.731393984732e-06 0.0 
2.731393984732e-06 2.545768838986e-03 0.0 
0.0 0.0 -4.100935076628e-04 
-6.992575820324e-04 4.870514854637e-06 0.0 
4.870514854637e-06 4.559959934010e-03 0.0 
0.0 0.0 -6.990242139688e-04 
-7.223263303115e-04 1.302313524923e-06 0.0 
1.302313524923e-06 4.731940689569e-03 0.0 
0.0 0.0 -7.237531747479e-04 
-1.024699739881e-03 1.653915686907e-06 0.0 
1.653915686907e-06 6.828723699735e-03 0.0 
0.0 0.0 -1.024340108609e-03 
-1.114669738223e-03 -2.759101931811e-06 0.0 
-2.759101931811e-06 7.438940293733e-03 0.0 
0.0 0.0 -1.112552678551e-03 
-7.837510010112e-05 1.769113863607e-05 0.0 
1.769113863607e-05 3.475076993490e-04 0.0 
0.0 0.0 -7.176178390651e-05 
-1.061119640742e-03 3.173187948495e-06 0.0 
3.173187948495e-06 7.087064478518e-03 0.0 
0.0 0.0 -1.061672265243e-03 
-8.547259828446e-04 -2.557127369415e-07 0.0 
-2.557127369415e-07 5.648936137093e-03 0.0 
0.0 0.0 -8.552253422611e-04 
-9.623974161653e-04 3.311768495871e-06 0.0 
3.311768495871e-06 6.381924133008e-03 0.0 
0.0 0.0 -9.599091010803e-04 
-1.065648191468e-03 -5.923271574245e-06 0.0 
-5.923271574245e-06 7.096345784584e-03 0.0 
0.0 0.0 -1.062640036239e-03 
-2.783998705011e-04 -2.298480854765e-06 0.0 
-2.298480854765e-06 1.715267207971e-03 0.0 
0.0 0.0 -2.909097700217e-04 
-1.100348444179e-03 -1.047118262863e-06 0.0 
-1.047118262863e-06 7.347575470432e-03 0.0 
0.0 0.0 -1.098747615487e-03 
-1.217488030174e-03 6.848117353235e-06 0.0 
6.848117353235e-06 8.139341092548e-03 0.0 
0.0 0.0 -1.212453547082e-03 
-8.838417845426e-04 -2.547521654431e-05 0.0 
-2.547521654431e-05 5.856172789859e-03 0.0 
0.0 0.0 -8.875094802107e-04 
-2.462642296247e-04 -5.029644419068e-06 0.0 
-5.029644419068e-06 1.395111957816e-03 0.0 
0.0 0.0 -2.442495876194e-04 
-8.759046619095e-04 5.034941322772e-06 0.0 
5.034941322772e-06 5.740576630140e-03 0.0 
0.0 0.0 -8.692469099983e-04 
-1.203793389362e-03 4.534763565553e-06 0.0 
4.534763565553e-06 8.059936526887e-03 0.0 
0.0 0.0 -1.202705989510e-03 
-1.079080060508e-03 -5.136331410959e-07 0.0 
-5.136331410959e-07 7.205755043523e-03 0.0 
0.0 0.0 -1.078220320736e-03 
-4.314372885713e-04 -1.108621221044e-05 0.0 
-1.108621221044e-05 2.708353444584e-03 0.0 
0.0 0.0 -4.336020471383e-04 
-7.948364969142e-04 -2.495821117445e-06 0.0 
-2.495821117445e-06 5.224923007330e-03 0.0 
0.0 0.0 -7.943514531093e-04 
-7.442299034792e-04 7.080946299363e-07 0.0 
7.080946299363e-07 4.865637424934e-03 0.0 
0.0 0.0 -7.428158978947e-04 
-6.789224573102e-04 -9.062719812239e-06 0.0 
-9.062719812239e-06 4.471649261705e-03 0.0 
0.0 0.0 -6.865907729104e-04 
-1.214586438871e-03 8.024689911949e-06 0.0 
8.024689911949e-06 8.094834481891e-03 0.0 
0.0 0.0 -1.206557591227e-03 
-8.183792108392e-04 -4.169826119585e-07 0.0 
-4.169826119585e-07 5.384604412960e-03 0.0 
0.0 0.0 -8.172945450070e-04 
-1.123489439230e-03 6.695635103151e-06 0.0 
6.695635103151e-06 7.497291039553e-03 0.0 
0.0 0.0 -1.120054252910e-03 
-9.239887439884e-04 -3.012520915632e-06 0.0 
-3.012520915632e-06 6.128004255690e-03 0.0 
0.0 0.0 -9.240809108919e-04 
-4.625644487372e-04 -4.132620430702e-06 0.0 
-4.132620430702e-06 2.914638302916e-03 0.0 
0.0 0.0 -4.629711029823e-04 
-1.121328625940e-03 -6.182944165265e-06 0.0 
-6.182944165265e-06 7.491651595506e-03 0.0 
0.0 0.0 -1.118919378802e-03 
-7.755037056980e-04 -1.629710765725e-06 0.0 
-1.629710765725e-06 5.087191610180e-03 0.0 
0.0 0.0 -7.743986277066e-04 
-1.165062879850e-03 -3.169874330988e-06 0.0 
-3.169874330988e-06 7.809274989077e-03 0.0 
0.0 0.0 -1.164614768973e-03 
-1.031438669585e-03 -5.272017896759e-06 0.0 
-5.272017896759e-06 6.875819044251e-03 0.0 
0.0 0.0 -1.031533309622e-03 
-6.383681651354e-04 -1.646563539617e-06 0.0 
-1.646563539617e-06 4.132113027582e-03 0.0 
0.0 0.0 -6.375205594687e-04 
-1.120494149395e-03 -5.362450288203e-06 0.0 
-5.362450288203e-06 7.500323563236e-03 0.0 
0.0 0.0 -1.121170216299e-03 
-7.780649319143e-04 1.815637845543e-06 0.0 
1.815637845543e-06 5.106477756252e-03 0.0 
0.0 0.0 -7.773091661689e-04 
-1.101658644117e-03 9.961254279952e-07 0.0 
9.961254279952e-07 7.356355521752e-03 0.0 
0.0 0.0 -1.099429584637e-03 
-7.271456150642e-04 1.682914491919e-06 0.0 
1.682914491919e-06 4.735785920808e-03 0.0 
0.0 0.0 -7.240542973723e-04 
-9.053111554421e-04 -2.304698340662e-06 0.0 
-2.304698340662e-06 5.989601996014e-03 0.0 
0.0 0.0 -9.041109700986e-04 
-9.863008524358e-04 -3.464876425113e-06 0.0 
-3.464876425113e-06 6.537147458197e-03 0.0 
0.0 0.0 -9.824247929831e-04 
-8.612973840953e-04 -1.473763680947e-07 0.0 
-1.473763680947e-07 5.687311619382e-03 0.0 
0.0 0.0 -8.608216255090e-04 
-9.529955923155e-04 1.728497531751e-05 0.0 
1.728497531751e-05 6.336375010902e-03 0.0 
0.0 0.0 -9.534332399069e-04 
-1.092284604608e-03 2.589702392293e-06 0.0 
2.589702392293e-06 7.290468944473e-03 0.0 
0.0 0.0 -1.090315851396e-03 
-3.119597294079e-04 5.757369509237e-07 0.0 
5.757369509237e-07 1.828570008309e-03 0.0 
0.0 0.0 -3.071334217218e-04 
-5.718786607335e-04 -4.107371137153e-07 0.0 
-4.107371137153e-07 3.675898340669e-03 0.0 
0.0 0.0 -5.719042557127e-04 
-9.488327861295e-04 -5.202841950027e-06 0.0 
-5.202841950027e-06 6.331676782321e-03 0.0 
0.0 0.0 -9.536514739466e-04 
-1.157212024015e-03 -6.515732433124e-06 0.0 
-6.515732433124e-06 7.701144359915e-03 0.0 
0.0 0.0 -1.150585697120e-03 
-1.224312444037e-03 6.690841738719e-06 0.0 
6.690841738719e-06 8.269264616708e-03 0.0 
0.0 0.0 -1.229329624135e-03 
-6.820956806615e-04 3.615386019446e-06 0.0 
3.615386019446e-06 4.429302489243e-03 0.0 
0.0 0.0 -6.801182747099e-04 
-1.081664045678e-03 -5.547367653078e-06 0.0 
-5.547367653078e-06 7.227268260236e-03 0.0 
0.0 0.0 -1.081576975854e-03 
-1.187584404498e-03 2.370146928347e-06 0.0 
2.370146928347e-06 7.946791552093e-03 0.0 
0.0 0.0 -1.185355684152e-03 
-7.511569300737e-04 3.681739321962e-07 0.0 
3.681739321962e-07 4.931952546785e-03 0.0 
0.0 0.0 -7.524367508395e-04 
-3.356805227239e-04 3.379744479997e-06 0.0 
3.379744479997e-06 2.005119320146e-03 0.0 
0.0 0.0 -3.333104686742e-04 
-2.618377986137e-04 -2.555233257220e-06 0.0 
-2.555233257220e-06 1.542022096797e-03 0.0 
0.0 0.0 -2.654833071040e-04 
-5.104550227812e-04 2.453007206903e-06 0.0 
2.453007206903e-06 3.238650363468e-03 0.0 
0.0 0.0 -5.092532232582e-04 
-7.832353398933e-04 -9.887778154034e-09 0.0 
-9.887778154034e-09 5.137653853930e-03 0.0 
0.0 0.0 -7.817448632792e-04 
-8.173389799679e-04 -1.106611203689e-06 0.0 
-1.106611203689e-06 5.390375532825e-03 0.0 
0.0 0.0 -8.181699076276e-04 
-1.246124432281e-03 8.592622963370e-06 0.0 
8.592622963370e-06 8.369587963902e-03 0.0 
0.0 0.0 -1.242275372262e-03 
-1.107849420052e-03 -3.778759467000e-06 0.0 
-3.778759467000e-06 7.425444910215e-03 0.0 
0.0 0.0 -1.110186454522e-03 
-1.040708302916e-03 -6.884984211962e-06 0.0 
-6.884984211962e-06 6.941970815521e-03 0.0 
0.0 0.0 -1.040857148505e-03 
-1.527209700993e-04 7.546329121728e-06 0.0 
7.546329121728e-06 7.439800217049e-04 0.0 
0.0 0.0 -1.519369657486e-04 
-7.102565865705e-04 9.145208254839e-06 0.0 
9.145208254839e-06 4.653234839291e-03 0.0 
0.0 0.0 -7.126371066839e-04 
-1.135597595821e-03 -4.213475059661e-06 0.0 
-4.213475059661e-06 7.626732622695e-03 0.0 
0.0 0.0 -1.139074001596e-03 
-8.226822624900e-04 -1.510040807146e-06 0.0 
-1.510040807146e-06 5.420363658064e-03 0.0 
0.0 0.0 -8.223634564932e-04 
-1.130518051871e-03 1.404153544755e-06 0.0 
1.404153544755e-06 7.542933512680e-03 0.0 
0.0 0.0 -1.126725356868e-03 
-7.730615027956e-04 -9.222257900533e-07 0.0 
-9.222257900533e-07 5.135473060459e-03 0.0 
0.0 0.0 -7.817916451012e-04 
-1.247411460160e-03 -9.243273431591e-06 0.0 
-9.243273431591e-06 8.408376939559e-03 0.0 
0.0 0.0 -1.249754184115e-03 
-5.771690213087e-04 1.052821776229e-05 0.0 
1.052821776229e-05 3.703652171226e-03 0.0 
0.0 0.0 -5.757576642514e-04 
-1.170100609579e-03 -4.592953287663e-06 0.0 
-4.592953287663e-06 7.841109684677e-03 0.0 
0.0 0.0 -1.168790087466e-03 
-1.048740829087e-03 7.093154405142e-06 0.0 
7.093154405142e-06 6.993148920806e-03 0.0 
0.0 0.0 -1.047452346298e-03 
-5.261911269690e-04 1.909166490892e-06 0.0 
1.909166490892e-06 3.348024093927e-03 0.0 
0.0 0.0 -5.248669331578e-04 
-7.497340550746e-04 3.779029275090e-06 0.0 
3.779029275090e-06 4.910648048132e-03 0.0 
0.0 0.0 -7.498068730476e-04 
-1.245763281564e-03 6.672330238115e-06 0.0 
6.672330238115e-06 8.371772027766e-03 0.0 
0.0 0.0 -1.243807156011e-03 
-1.117703748533e-03 2.194090469607e-06 0.0 
2.194090469607e-06 7.455079503703e-03 0.0 
0.0 0.0 -1.114542488500e-03 
-9.240113812816e-04 -1.198482106943e-06 0.0 
-1.198482106943e-06 6.127698402996e-03 0.0 
0.0 0.0 -9.240346875991e-04 
-7.861216138727e-04 -9.318371199111e-07 0.0 
-9.318371199111e-07 5.164682558518e-03 0.0 
0.0 0.0 -7.856950878877e-04 
-6.177367695525e-04 -9.517786211573e-06 0.0 
-9.517786211573e-06 3.998918706787e-03 0.0 
0.0 0.0 -6.191377506773e-04 
-8.459389819467e-04 -1.995047945311e-06 0.0 
-1.995047945311e-06 5.590510800112e-03 0.0 
0.0 0.0 -8.467704336814e-04 
-9.417404110639e-04 -4.713677469948e-06 0.0 
-4.713677469948e-06 6.237570578551e-03 0.0 
0.0 0.0 -9.395224721591e-04 
-1.301810218994e-03 1.765430740839e-06 0.0 
1.765430740839e-06 8.802491938361e-03 0.0 
0.0 0.0 -1.306889097489e-03 
-1.157353199815e-03 -3.220404905638e-06 0.0 
-3.220404905638e-06 7.685679656852e-03 0.0 
0.0 0.0 -1.148622835147e-03 
-9.680073786691e-04 -7.171826150583e-06 0.0 
-7.171826150583e-06 6.444265355765e-03 0.0 
0.0 0.0 -9.696660045843e-04 
-8.086257517038e-04 -2.588621595211e-06 0.0 
-2.588621595211e-06 5.331381971752e-03 0.0 
0.0 0.0 -8.097439408559e-04 
-9.758814597954e-04 -1.266881133521e-06 0.0 
-1.266881133521e-06 6.485358460050e-03 0.0 
0.0 0.0 -9.749840279683e-04 
-1.830817571470e-04 -6.180925807537e-06 0.0 
-6.180925807537e-06 1.047535156777e-03 0.0 
0.0 0.0 -1.970089232863e-04 
-6.448165884168e-04 4.844410112103e-06 0.0 
4.844410112103e-06 4.184395435775e-03 0.0 
0.0 0.0 -6.447622526173e-04 
-8.380376970069e-04 -3.326700526506e-06 0.0 
-3.326700526506e-06 5.530905952602e-03 0.0 
0.0 0.0 -8.382314227178e-04 
-5.380831595537e-04 5.638960694939e-07 0.0 
5.638960694939e-07 3.435054469080e-03 0.0 
0.0 0.0 -5.374563060555e-04 
-8.145911171393e-04 -5.272270294571e-07 0.0 
-5.272270294571e-07 5.360444702331e-03 0.0 
0.0 0.0 -8.136389561866e-04 
-1.227174802196e-03 1.276784792667e-05 0.0 
1.276784792667e-05 8.302917635780e-03 0.0 
0.0 0.0 -1.234277959947e-03 
-8.676280294557e-04 -2.040186177139e-06 0.0 
-2.040186177139e-06 5.731120870230e-03 0.0 
0.0 0.0 -8.668853676281e-04 
-6.021329393958e-04 -1.386838022325e-06 0.0 
-1.386838022325e-06 3.881394728410e-03 0.0 
0.0 0.0 -6.015264011954e-04 
-8.964491756309e-04 6.553805878160e-07 0.0 
6.553805878160e-07 5.929532426753e-03 0.0 
0.0 0.0 -8.955981815692e-04 
-5.512424861372e-04 -5.409275769173e-06 0.0 
-5.409275769173e-06 3.527258760375e-03 0.0 
0.0 0.0 -5.519888345566e-04 
-9.985595773763e-04 -1.015463228060e-05 0.0 
-1.015463228060e-05 6.646851321069e-03 0.0 
0.0 0.0 -9.983267706061e-04 
-9.215064714085e-04 1.407126120723e-07 0.0 
1.407126120723e-07 6.123536504565e-03 0.0 
0.0 0.0 -9.243533921793e-04 
-1.004433427129e-03 -6.175544373061e-06 0.0 
-6.175544373061e-06 6.679704057184e-03 0.0 
0.0 0.0 -1.003151257071e-03 
-2.014979142818e-04 -1.982424414306e-05 0.0 
-1.982424414306e-05 1.118628598720e-03 0.0 
0.0 0.0 -2.040322045631e-04 
-9.524490800155e-04 -1.599154771266e-06 0.0 
-1.599154771266e-06 6.321577882661e-03 0.0 
0.0 0.0 -9.517466134248e-04 
-1.151323095747e-03 8.970357597703e-06 0.0 
8.970357597703e-06 7.737810625971e-03 0.0 
0.0 0.0 -1.155419075730e-03 
-5.642242598448e-04 4.052530886118e-06 0.0 
4.052530886118e-06 3.629354201895e-03 0.0 
0.0 0.0 -5.654343806685e-04 
-8.430123869833e-04 1.789712430457e-06 0.0 
1.789712430457e-06 5.558821852331e-03 0.0 
0.0 0.0 -8.420324705410e-04 
-1.064235786948e-03 -6.087517053101e-06 0.0 
-6.087517053101e-06 7.102031703649e-03 0.0 
0.0 0.0 -1.063653581392e-03 
-4.868392782288e-04 -2.122282903202e-05 0.0 
-2.122282903202e-05 3.049667270729e-03 0.0 
0.0 0.0 -4.839843007303e-04 
-9.081670479201e-04 2.415755652881e-07 0.0 
2.415755652881e-07 6.014517114267e-03 0.0 
0.0 0.0 -9.074658271045e-04 
-1.068096740286e-03 -5.575043742402e-06 0.0 
-5.575043742402e-06 7.125147388201e-03 0.0 
0.0 0.0 -1.067288052377e-03 
-9.808487270250e-04 4.928616331385e-06 0.0 
4.928616331385e-06 6.520553626334e-03 0.0 
0.0 0.0 -9.801762873724e-04 
-8.470889807538e-04 7.350311736950e-07 0.0 
7.350311736950e-07 5.583629027931e-03 0.0 
0.0 0.0 -8.455731917576e-04 
-9.738610544212e-04 -1.605198629589e-06 0.0 
-1.605198629589e-06 6.476533283027e-03 0.0 
0.0 0.0 -9.738262179588e-04 
-5.107285056985e-04 1.726041735434e-05 0.0 
1.726041735434e-05 3.222108758113e-03 0.0 
0.0 0.0 -5.057041985798e-04 
-4.224983753940e-04 8.320492048848e-06 0.0 
8.320492048848e-06 2.639215696168e-03 0.0 
0.0 0.0 -4.238464704258e-04 
-3.592226638991e-04 1.930188485194e-06 0.0 
1.930188485194e-06 2.185168436497e-03 0.0 
0.0 0.0 -3.586180353125e-04 
-6.301304693072e-04 -1.957277653515e-06 0.0 
-1.957277653515e-06 4.076615728565e-03 0.0 
0.0 0.0 -6.294631353604e-04 
-1.103647244802e-03 -2.847244464940e-06 0.0 
-2.847244464940e-06 7.378786394117e-03 0.0 
0.0 0.0 -1.103081964739e-03 
-2.559482480597e-04 -2.299545213333e-05 0.0 
-2.299545213333e-05 1.449439224095e-03 0.0 
0.0 0.0 -2.521214004998e-04 
-1.054932560315e-03 -8.075575040894e-06 0.0 
-8.075575040894e-06 7.041307941420e-03 0.0 
0.0 0.0 -1.054898413167e-03 
-2.650995954687e-04 -9.741906018410e-06 0.0 
-9.741906018410e-06 1.540523614087e-03 0.0 
0.0 0.0 -2.660187670962e-04 
-5.941857965254e-04 -1.478675907496e-06 0.0 
-1.478675907496e-06 3.826673915507e-03 0.0 
0.0 0.0 -5.935709857392e-04 
-1.072876015775e-03 5.343583090757e-06 0.0 
5.343583090757e-06 7.192683716525e-03 0.0 
0.0 0.0 -1.077081564483e-03 
-9.321388457540e-04 -4.809931635802e-05 0.0 
-4.809931635802e-05 6.189086367178e-03 0.0 
0.0 0.0 -9.315431351609e-04 
-6.217808576270e-04 7.207492673146e-07 0.0 
7.207492673146e-07 4.019499781701e-03 0.0 
0.0 0.0 -6.211106552582e-04 
-3.980785928309e-04 9.124267879167e-06 0.0 
9.124267879167e-06 2.462820491612e-03 0.0 
0.0 0.0 -3.989951351066e-04 
-5.857792725331e-04 1.985647166888e-06 0.0 
1.985647166888e-06 3.767357559114e-03 0.0 
0.0 0.0 -5.850331209179e-04 
-9.112445775697e-04 1.341366700759e-06 0.0 
1.341366700759e-06 6.030641515549e-03 0.0 
0.0 0.0 -9.098959706900e-04 
-6.128747489382e-04 2.675469426563e-06 0.0 
2.675469426563e-06 3.959229262623e-03 0.0 
0.0 0.0 -6.124823626799e-04 
-5.756573688349e-04 3.659606376921e-06 0.0 
3.659606376921e-06 3.704306399129e-03 0.0 
0.0 0.0 -5.760838601101e-04 
-1.248717565768e-03 -5.535813130875e-06 0.0 
-5.535813130875e-06 8.366851373818e-03 0.0 
0.0 0.0 -1.242975171717e-03 
-6.019390184711e-04 5.185969946808e-06 0.0 
5.185969946808e-06 3.892334269077e-03 0.0 
0.0 0.0 -6.030381679152e-04 
-1.295271260153e-03 -1.307857609192e-05 0.0 
-1.307857609192e-05 8.801391727423e-03 0.0 
0.0 0.0 -1.305370344976e-03 
-1.297876901994e-03 -6.017750132337e-06 0.0 
-6.017750132337e-06 8.756844234735e-03 0.0 
0.0 0.0 -1.298405437673e-03 
-8.024513087945e-04 -3.501513188686e-05 0.0 
-3.501513188686e-05 5.274019348334e-03 0.0 
0.0 0.0 -7.997855503562e-04 
-4.254874939528e-04 2.211998048864e-05 0.0 
2.211998048864e-05 2.578130903576e-03 0.0 
0.0 0.0 -4.121418992062e-04 
-6.508445551723e-05 3.373963354785e-06 0.0 
3.373963354785e-06 3.129607731290e-04 0.0 
0.0 0.0 -6.767973558354e-05 
-4.292600751844e-04 -1.740584050413e-05 0.0 
-1.740584050413e-05 2.722306669060e-03 0.0 
0.0 0.0 -4.369243393394e-04 
-4.999202719491e-04 4.843301359549e-06 0.0 
4.843301359549e-06 3.182731173832e-03 0.0 
0.0 0.0 -5.013603847490e-04 
-1.049593438910e-03 4.881772467908e-07 0.0 
4.881772467908e-07 6.980157933883e-03 0.0 
0.0 0.0 -1.045752072333e-03 
-8.016418655660e-04 8.516902983695e-06 0.0 
8.516902983695e-06 5.282246051091e-03 0.0 
0.0 0.0 -8.029817139903e-04 
-4.608886666597e-04 1.012378092170e-05 0.0 
1.012378092170e-05 2.916090626050e-03 0.0 
0.0 0.0 -4.630712860745e-04 
-1.246806949158e-03 1.140227857429e-06 0.0 
1.140227857429e-06 8.413894031447e-03 0.0 
0.0 0.0 -1.250093291501e-03 
-1.307722546221e-03 -1.676098542475e-05 0.0 
-1.676098542475e-05 8.791128539895e-03 0.0 
0.0 0.0 -1.306737725957e-03 
-1.028575866269e-03 -1.191239422521e-05 0.0 
-1.191239422521e-05 6.846657277970e-03 0.0 
0.0 0.0 -1.028769680629e-03 
-1.163087821654e-03 1.345534459019e-05 0.0 
1.345534459019e-05 7.719562356736e-03 0.0 
0.0 0.0 -1.152835590205e-03 
-1.010012111677e-03 5.602799068574e-06 0.0 
5.602799068574e-06 6.735304706068e-03 0.0 
0.0 0.0 -1.010595862668e-03 
-1.192917845756e-03 -1.946426676376e-05 0.0 
-1.946426676376e-05 7.943592006894e-03 0.0 
0.0 0.0 -1.185717314024e-03 
-7.402744024553e-04 -5.561571203005e-05 0.0 
-5.561571203005e-05 4.875197844443e-03 0.0 
0.0 0.0 -7.451086181774e-04 
-1.274079564101e-04 8.533594738936e-07 0.0 
8.533594738936e-07 6.386951496409e-04 0.0 
0.0 0.0 -1.305770345747e-04 
-9.879127130266e-04 1.076817561927e-05 0.0 
1.076817561927e-05 6.567110452729e-03 0.0 
0.0 0.0 -9.879584850274e-04 
-3.534515362331e-04 7.236051672545e-06 0.0 
7.236051672545e-06 2.087202708593e-03 0.0 
0.0 0.0 -3.437331075899e-04 
-3.524709716392e-04 5.779652155095e-07 0.0 
5.779652155095e-07 2.140761807693e-03 0.0 
0.0 0.0 -3.524505972177e-04 
-2.862323044565e-04 -1.529779689612e-06 0.0 
-1.529779689612e-06 1.660184670344e-03 0.0 
0.0 0.0 -2.832406441101e-04 
-4.971401695179e-04 3.027225826669e-06 0.0 
3.027225826669e-06 3.086653370969e-03 0.0 
0.0 0.0 -4.856826860430e-04 
-1.849802147030e-04 7.362673378517e-06 0.0 
7.362673378517e-06 1.024898749324e-03 0.0 
0.0 0.0 -1.942844358666e-04 
-2.871589559832e-04 8.860091783220e-06 0.0 
8.860091783220e-06 1.702387296045e-03 0.0 
0.0 0.0 -2.888902821290e-04 
-1.252722980053e-03 -1.832850037119e-05 0.0 
-1.832850037119e-05 8.369674222349e-03 0.0 
0.0 0.0 -1.245112051941e-03 
-7.926742292647e-04 -4.732996368776e-05 0.0 
-4.732996368776e-05 5.282443543312e-03 0.0 
0.0 0.0 -8.050116406322e-04 
-1.106262153398e-03 -9.161465296466e-06 0.0 
-9.161465296466e-06 7.422861484469e-03 0.0 
0.0 0.0 -1.110409235593e-03 
-2.195876704695e-04 6.903728268407e-06 0.0 
6.903728268407e-06 1.223775342103e-03 0.0 
0.0 0.0 -2.210826640180e-04 
-1.251801969841e-03 -1.462670654940e-05 0.0 
-1.462670654940e-05 8.397461752409e-03 0.0 
0.0 0.0 -1.247366155457e-03 
-1.250359073208e-03 6.645071777191e-06 0.0 
6.645071777191e-06 8.395286537502e-03 0.0 
0.0 0.0 -1.246608778627e-03 
-1.310061522223e-03 -1.730900586737e-05 0.0 
-1.730900586737e-05 8.803293803047e-03 0.0 
0.0 0.0 -1.306249356034e-03 
-1.172119357565e-03 -2.987465004677e-06 0.0 
-2.987465004677e-06 7.878008992010e-03 0.0 
0.0 0.0 -1.176371721005e-03 
-2.180388128944e-04 -2.924544915676e-06 0.0 
-2.924544915676e-06 1.180274271759e-03 0.0 
0.0 0.0 -2.130604828246e-04 
-8.442593127821e-04 -4.359073983630e-05 0.0 
-4.359073983630e-05 5.668047935442e-03 0.0 
0.0 0.0 -8.603500797662e-04 
-1.256774464996e-03 -9.387217042970e-06 0.0 
-9.387217042970e-06 8.415646483150e-03 0.0 
0.0 0.0 -1.250827372426e-03 
-1.072962494745e-03 -3.075351322496e-06 0.0 
-3.075351322496e-06 7.220489030587e-03 0.0 
0.0 0.0 -1.080253149739e-03 
-1.299956315864e-03 5.907340655945e-05 0.0 
5.907340655945e-05 8.822006705032e-03 0.0 
0.0 0.0 -1.309985050881e-03 
-7.806106637019e-04 -1.684448248676e-06 0.0 
-1.684448248676e-06 5.212548371629e-03 0.0 
0.0 0.0 -7.979019438933e-04 
-1.254167562389e-03 1.146355027257e-05 0.0 
1.146355027257e-05 8.413941643761e-03 0.0 
0.0 0.0 -1.252774941638e-03 
-2.773224831107e-04 -1.248540399819e-05 0.0 
-1.248540399819e-05 1.578602427722e-03 0.0 
0.0 0.0 -2.737139294578e-04 
-1.253589576776e-03 1.816421682347e-05 0.0 
1.816421682347e-05 8.411285343410e-03 0.0 
0.0 0.0 -1.254166199180e-03 
-1.115104807484e-03 -2.535602796036e-06 0.0 
-2.535602796036e-06 7.430825592014e-03 0.0 
0.0 0.0 -1.110316242656e-03 
-8.788088159188e-04 2.953384655569e-05 0.0 
2.953384655569e-05 5.848517526204e-03 0.0 
0.0 0.0 -8.840149073763e-04 
-8.453655219936e-04 1.276109640112e-05 0.0 
1.276109640112e-05 5.644378390582e-03 0.0 
0.0 0.0 -8.570326279659e-04 
-1.251636506986e-03 8.563362149544e-06 0.0 
8.563362149544e-06 8.428656629745e-03 0.0 
0.0 0.0 -1.256337174517e-03 
-1.259327999631e-03 -2.468624830891e-05 0.0 
-2.468624830891e-05 8.412107540714e-03 0.0 
0.0 0.0 -1.249505442739e-03 
-1.752421740852e-04 1.599785091568e-05 0.0 
1.599785091568e-05 9.248205746742e-04 0.0 
0.0 0.0 -1.769373265848e-04 
-1.014009013286e-03 3.718452203742e-05 0.0 
3.718452203742e-05 6.827048883928e-03 0.0 
0.0 0.0 -1.024357608964e-03 
-6.037112023629e-04 -1.928016981804e-05 0.0 
-1.928016981804e-05 3.870166564208e-03 0.0 
0.0 0.0 -5.984289768806e-04 
-1.136473903534e-04 -2.305801768327e-05 0.0 
-2.305801768327e-05 5.992740239482e-04 0.0 
0.0 0.0 -1.205697443558e-04 
-1.256657915508e-03 3.816415809552e-05 0.0 
3.816415809552e-05 8.403684845898e-03 0.0 
0.0 0.0 -1.249521112489e-03 
-1.181297459508e-03 -1.601502097609e-06 0.0 
-1.601502097609e-06 7.855797415998e-03 0.0 
0.0 0.0 -1.172189067419e-03 
-1.260809781498e-03 3.729628833421e-05 0.0 
3.729628833421e-05 8.413738862441e-03 0.0 
0.0 0.0 -1.251863004148e-03 
-2.027346260532e-04 2.709152210168e-05 0.0 
2.709152210168e-05 1.045860090397e-03 0.0 
0.0 0.0 -1.953152674555e-04 
-1.282550990439e-04 1.596967550411e-05 0.0 
1.596967550411e-05 5.957593377885e-04 0.0 
0.0 0.0 -1.273034037094e-04 
-1.264740521524e-03 1.076136126608e-05 0.0 
1.076136126608e-05 8.488256231164e-03 0.0 
0.0 0.0 -1.258522865334e-03 
-1.257630123801e-03 7.011893020694e-06 0.0 
7.011893020694e-06 8.461160637007e-03 0.0 
0.0 0.0 -1.257106814994e-03 
-2.964921431859e-04 1.458101898901e-05 0.0 
1.458101898901e-05 1.817377003358e-03 0.0 
0.0 0.0 -3.034980657766e-04 
-1.315300675602e-03 -4.616213654092e-06 0.0 
-4.616213654092e-06 8.874722920157e-03 0.0 
0.0 0.0 -1.314710167832e-03 
-1.230668747668e-04 -1.081893831765e-05 0.0 
-1.081893831765e-05 5.709731362741e-04 0.0 
0.0 0.0 -1.229206800733e-04 
-7.274132408296e-04 6.183789390248e-06 0.0 
6.183789390248e-06 4.811004360547e-03 0.0 
0.0 0.0 -7.389643750272e-04 
-1.204537552605e-04 -1.859174322407e-05 0.0 
-1.859174322407e-05 6.217166808925e-04 0.0 
0.0 0.0 -1.247417965529e-04 
-1.299793796178e-03 -5.184403467026e-05 0.0 
-5.184403467026e-05 8.811604799613e-03 0.0 
0.0 0.0 -1.308531455474e-03 
-1.262934174837e-03 2.444499081752e-05 0.0 
2.444499081752e-05 8.445031740868e-03 0.0 
0.0 0.0 -1.254845750201e-03 
-6.580718270352e-04 3.721306501344e-05 0.0 
3.721306501344e-05 4.264446760778e-03 0.0 
0.0 0.0 -6.564513288157e-04 
-7.456337922437e-04 2.770990182635e-05 0.0 
2.770990182635e-05 4.941313475091e-03 0.0 
0.0 0.0 -7.541421605440e-04 
-4.450321519268e-04 1.831097352036e-05 0.0 
1.831097352036e-05 2.791375237210e-03 0.0 
0.0 0.0 -4.426424662127e-04 
-1.211596464916e-03 3.979318020067e-05 0.0 
3.979318020067e-05 8.090084984478e-03 0.0 
0.0 0.0 -1.203498912175e-03 
-1.699334618160e-04 1.120862622914e-05 0.0 
1.120862622914e-05 9.446237105804e-04 0.0 
0.0 0.0 -1.843356288727e-04 
-1.269994123481e-03 -1.450914975509e-05 0.0 
-1.450914975509e-05 8.504040731719e-03 0.0 
0.0 0.0 -1.260296891839e-03 
-1.268600913962e-03 -6.159942340754e-06 0.0 
-6.159942340754e-06 8.509424202183e-03 0.0 
0.0 0.0 -1.261416966621e-03 
-1.266492101745e-03 9.280004247673e-06 0.0 
9.280004247673e-06 8.502341661499e-03 0.0 
0.0 0.0 -1.260618436842e-03 
-1.320646394007e-03 1.164813461385e-06 0.0 
1.164813461385e-06 8.896090470956e-03 0.0 
0.0 0.0 -1.317725628150e-03 
-1.063917710965e-04 3.406664009707e-05 0.0 
3.406664009707e-05 5.707022560972e-04 0.0 
0.0 0.0 -1.219614697575e-04 
-1.271929683323e-03 -9.688594658062e-06 0.0 
-9.688594658062e-06 8.520583266263e-03 0.0 
0.0 0.0 -1.263090216482e-03 
-1.211976787312e-03 3.126546850388e-05 0.0 
3.126546850388e-05 8.084092320638e-03 0.0 
0.0 0.0 -1.202239909569e-03 
-7.453046702514e-04 4.651614229788e-05 0.0 
4.651614229788e-05 4.880400084605e-03 0.0 
0.0 0.0 -7.439744481034e-04 
-1.252851707889e-03 4.006401018330e-05 0.0 
4.006401018330e-05 8.422629498426e-03 0.0 
0.0 0.0 -1.252574368527e-03 
-5.410687361656e-04 2.769520936264e-05 0.0 
2.769520936264e-05 3.454688790362e-03 0.0 
0.0 0.0 -5.383891422301e-04 
-2.371733345551e-04 -4.470106712643e-05 0.0 
-4.470106712643e-05 1.418248240622e-03 0.0 
0.0 0.0 -2.492021827984e-04 
-1.298998890690e-03 -2.770464845181e-05 0.0 
-2.770464845181e-05 8.833071909488e-03 0.0 
0.0 0.0 -1.313490227100e-03 
-4.294380069032e-05 -4.186010349487e-06 0.0 
-4.186010349487e-06 2.320436162997e-04 0.0 
0.0 0.0 -5.297760877488e-05 
-7.470694764219e-04 -2.192265105751e-05 0.0 
-2.192265105751e-05 4.855390412225e-03 0.0 
0.0 0.0 -7.402411036050e-04 
-1.312354484328e-03 4.131093532365e-05 0.0 
4.131093532365e-05 8.846630708308e-03 0.0 
0.0 0.0 -1.313492844077e-03 
-2.211400451138e-04 -3.676306702309e-06 0.0 
-3.676306702309e-06 1.335213202641e-03 0.0 
0.0 0.0 -2.401910970207e-04 
-8.452827785452e-04 -2.606429286923e-05 0.0 
-2.606429286923e-05 5.603903241888e-03 0.0 
0.0 0.0 -8.489638187885e-04 
-1.255507124853e-03 -9.186014831589e-06 0.0 
-9.186014831589e-06 8.480922712531e-03 0.0 
0.0 0.0 -1.260211869575e-03 
-8.025976065576e-04 9.592064473732e-06 0.0 
9.592064473732e-06 5.261098351640e-03 0.0 
0.0 0.0 -7.986629621775e-04 
-1.151240916671e-03 -6.084869299023e-05 0.0 
-6.084869299023e-05 7.669030971500e-03 0.0 
0.0 0.0 -1.148445367820e-03 
-2.192829735373e-04 1.243334644933e-05 0.0 
1.243334644933e-05 1.310510961281e-03 0.0 
0.0 0.0 -2.379222736554e-04 
-3.921137447337e-05 -2.374603163355e-06 0.0 
-2.374603163355e-06 2.327919393127e-04 0.0 
0.0 0.0 -4.855001867800e-05 
-9.645913781641e-04 -4.083102734348e-05 0.0 
-4.083102734348e-05 6.424950689754e-03 0.0 
0.0 0.0 -9.668795991591e-04 
-1.266746155896e-03 3.603621751399e-05 0.0 
3.603621751399e-05 8.474273100537e-03 0.0 
0.0 0.0 -1.258714341260e-03 
-1.271487619191e-03 -1.652780192111e-05 0.0 
-1.652780192111e-05 8.532655002207e-03 0.0 
0.0 0.0 -1.263997700767e-03 
-9.164544161815e-04 3.965640940801e-05 0.0 
3.965640940801e-05 6.111358236627e-03 0.0 
0.0 0.0 -9.199601189493e-04 
-2.093975888614e-04 -4.665649638260e-05 0.0 
-4.665649638260e-05 1.197818786362e-03 0.0 
0.0 0.0 -2.164625706183e-04 
-1.227420417668e-03 9.834631553152e-06 0.0 
9.834631553152e-06 8.219790599597e-03 0.0 
0.0 0.0 -1.221038716794e-03 
-6.921621610821e-04 -2.719005194231e-06 0.0 
-2.719005194231e-06 4.614590635001e-03 0.0 
0.0 0.0 -7.060606045913e-04 
-1.222382248160e-03 -1.550215016824e-05 0.0 
-1.550215016824e-05 8.147929268757e-03 0.0 
0.0 0.0 -1.208939113964e-03 
-1.221146925072e-03 -7.968249279325e-06 0.0 
-7.968249279325e-06 8.100682442682e-03 0.0 
0.0 0.0 -1.203806565432e-03 
-5.670525863277e-05 -1.771698635756e-05 0.0 
-1.771698635756e-05 2.585053466943e-04 0.0 
0.0 0.0 -6.449378323916e-05 
-8.615762060500e-04 1.909652726141e-05 0.0 
1.909652726141e-05 5.665696184107e-03 0.0 
0.0 0.0 -8.562696210230e-04 
-1.225143862683e-04 -2.984290666861e-05 0.0 
-2.984290666861e-05 5.860977302170e-04 0.0 
0.0 0.0 -1.223049983750e-04 
-1.270837356719e-03 -1.933520143368e-05 0.0 
-1.933520143368e-05 8.510135783999e-03 0.0 
0.0 0.0 -1.263714160583e-03 
-7.340830126836e-04 -1.335821332731e-05 0.0 
-1.335821332731e-05 4.821918862365e-03 0.0 
0.0 0.0 -7.344436328926e-04 
-8.661004273956e-05 -2.379630510069e-05 0.0 
-2.379630510069e-05 5.316853023542e-04 0.0 
0.0 0.0 -1.204566680756e-04 
-1.245631801735e-04 7.980772675943e-07 0.0 
7.980772675943e-07 5.409112698627e-04 0.0 
0.0 0.0 -1.266666666667e-04 
-1.533981872306e-04 -2.834012090519e-05 0.0 
-2.834012090519e-05 1.002826480207e-03 0.0 
0.0 0.0 -1.860204081633e-04 
-1.982795993064e-04 3.736020492006e-06 0.0 
3.736020492006e-06 1.084706337289e-03 0.0 
0.0 0.0 -1.933333333333e-04 
-2.171382535679e-04 -2.143449595072e-05 0.0 
-2.143449595072e-05 1.462578214749e-03 0.0 
0.0 0.0 -2.525839566596e-04 
-2.653195259643e-04 -7.998521144444e-07 0.0 
-7.998521144444e-07 1.467192985801e-03 0.0 
0.0 0.0 -2.600000000000e-04 
-2.777260844818e-04 -2.914177909712e-05 0.0 
-2.914177909712e-05 1.926657240018e-03 0.0 
0.0 0.0 -3.193537414966e-04 
-3.309390786781e-04 -1.795373795647e-06 0.0 
-1.795373795647e-06 2.009093472513e-03 0.0 
0.0 0.0 -3.266666666667e-04 
-3.365637611374e-04 -1.953033103199e-05 0.0 
-1.953033103199e-05 2.395340660532e-03 0.0 
0.0 0.0 -3.859030858720e-04 
-3.974252423505e-04 -3.636312148893e-06 0.0 
-3.636312148893e-06 2.393351786518e-03 0.0 
0.0 0.0 -3.933333333333e-04 
-4.176772664277e-04 -3.650619160946e-05 0.0 
-3.650619160946e-05 2.860283649269e-03 0.0 
0.0 0.0 -4.526870748299e-04 
-4.632043610658e-04 -3.909792630531e-06 0.0 
-3.909792630531e-06 2.935876671509e-03 0.0 
0.0 0.0 -4.600000000000e-04 
-4.858491939109e-04 -3.571106393788e-05 0.0 
-3.571106393788e-05 3.331481419020e-03 0.0 
0.0 0.0 -5.192176870747e-04 
-5.307983311465e-04 -4.380846350984e-06 0.0 
-4.380846350984e-06 3.321472726831e-03 0.0 
0.0 0.0 -5.266666666667e-04 
-5.549907469666e-04 -3.829926739680e-05 0.0 
-3.829926739680e-05 3.794910893621e-03 0.0 
0.0 0.0 -5.860204081633e-04 
-5.953475250696e-04 7.629065543884e-06 0.0 
7.629065543884e-06 3.863201785318e-03 0.0 
0.0 0.0 -5.933333333333e-04 
-6.234948668458e-04 -3.482962657316e-05 0.0 
-3.482962657316e-05 4.267925272266e-03 0.0 
0.0 0.0 -6.525251918948e-04 
-6.733326468399e-04 3.722248756973e-05 0.0 
3.722248756973e-05 4.248015244343e-03 0.0 
0.0 0.0 -6.600000000000e-04 

SCALARS node_materi_plasti_kappa_shear float
LOOKUP_TABLE default
1.154246033666e-04
3.030366954187e-03
5.919693902231e-03
5.923852315190e-03
2.859947626271e-04
6.218445993993e-04
8.718334659107e-04
1.197083009525e-03
1.504800919970e-03
1.797006115044e-03
2.096281833338e-03
2.401455262769e-03
2.703248692656e-03
3.016765538726e-03
3.359027883223e-03
3.663996831824e-03
3.908074174929e-03
4.228433772035e-03
4.543227631705e-03
4.848753617487e-03
5.161467818816e-03
5.477271259315e-03
5.779376537800e-03
5.932061195851e-03
5.925336573631e-03
5.920984287690e-03
5.924407700450e-03
5.915528138253e-03
5.915864416856e-03
5.918097125373e-03
5.921994664725e-03
5.927387718192e-03
5.930449677587e-03
5.921712747723e-03
5.924515498722e-03
5.931743115084e-03
5.928847067526e-03
5.919544915052e-03
5.911436947505e-03
5.907167024861e-03
5.916691287179e-03
5.925466264875e-03
5.926352037367e-03
5.927462665333e-03
5.926179788313e-03
5.923807961778e-03
5.921183308973e-03
5.929039143344e-03
5.928617810733e-03
5.930983770204e-03
5.930261081197e-03
5.934897168252e-03
5.940412066917e-03
5.938845524630e-03
5.922011629466e-03
5.913355498151e-03
5.926067531878e-03
5.924785671547e-03
5.926499683681e-03
5.927876554226e-03
5.924703349372e-03
5.915717987273e-03
5.917408892843e-03
5.920280365368e-03
5.931958681328e-03
5.938110150402e-03
5.906803770761e-03
5.928713183382e-03
5.925023434436e-03
5.923453604397e-03
5.939442334279e-03
5.942268996102e-03
3.313640150810e-03
3.643609585951e-03
3.947542440607e-03
4.242858391353e-03
4.550358348146e-03
4.852089997296e-03
5.156894848885e-03
5.448757344777e-03
5.772918013305e-03
9.252120421733e-05
3.026620073330e-03
3.476445638381e-04
5.538783408392e-04
8.579966173550e-04
1.150050340834e-03
1.455650881850e-03
1.761739050222e-03
2.071596637440e-03
2.380436576739e-03
2.688785350789e-03
4.615349011769e-04
6.193205685113e-04
9.082535612245e-04
1.203400472496e-03
1.503243346297e-03
1.805240586308e-03
2.108589051748e-03
2.410886229173e-03
2.706771452633e-03
2.974381815992e-03
2.988250338394e-03
2.992834626340e-03
2.988540146830e-03
3.040036634150e-03
2.993658303481e-03
2.986565369329e-03
2.994325014933e-03
3.003444053817e-03
3.004893136958e-03
3.000286560445e-03
2.997851424533e-03
2.994316307864e-03
3.001824735141e-03
9.621576344536e-05
1.072789967255e-04
9.631852337867e-05
9.634646192605e-05
1.161697218308e-04
1.255618245920e-04
1.234927640208e-04
1.176143698925e-04
1.181040846592e-04
1.155364499888e-04
1.206715439587e-04
1.365993450730e-04
1.279414962217e-04
1.070815165248e-04
1.087456221067e-04
1.225517974272e-04
1.266454771602e-04
1.116507655708e-04
1.010315185056e-04
4.129276988729e-04
3.994557887815e-04
4.243579887286e-04
4.274991076459e-04
4.283437786678e-04
4.286506365168e-04
4.287263931553e-04
4.286853005863e-04
4.285824026200e-04
4.284497300089e-04
4.283129292315e-04
4.282011400151e-04
4.281435929794e-04
4.281615604857e-04
4.282552743239e-04
4.284320442034e-04
4.286534364180e-04
4.289553122516e-04
4.291740715951e-04
4.296138412230e-04
4.295026066772e-04
4.301020223137e-04
4.282337586298e-04
4.302746435489e-04
4.250641466605e-04
4.320064845976e-04
4.312030477239e-04
2.978600481109e-04
4.881740067564e-04
5.705598397605e-04
5.496770030567e-04
5.513121964267e-04
5.532048107727e-04
5.529186954317e-04
5.529140938231e-04
5.524461273711e-04
5.522177989996e-04
5.518995171653e-04
5.516459978478e-04
5.514259830927e-04
5.512881971492e-04
5.512295761408e-04
5.512616439860e-04
5.513616064872e-04
5.514874833064e-04
5.515964532685e-04
5.516554683963e-04
5.516297897224e-04
5.514711385285e-04
5.511068398275e-04
5.504224154813e-04
5.492067354213e-04
5.483054994119e-04
5.891091678189e-04
7.904255727578e-04
8.783000424664e-04
8.670380613553e-04
8.657947099438e-04
8.672635734924e-04
8.658146930652e-04
8.658546933484e-04
8.653242019037e-04
8.649872547731e-04
8.646047193751e-04
8.643408386468e-04
8.641883682695e-04
8.642034570515e-04
8.643474733228e-04
8.645303581457e-04
8.646730498603e-04
8.647307615590e-04
8.646592228385e-04
8.644084069494e-04
8.639276918068e-04
8.632012764269e-04
8.623034044442e-04
8.616810527115e-04
8.652010616203e-04
8.934809853961e-04
1.187992031409e-03
1.170134596188e-03
1.168919802431e-03
1.169232374386e-03
1.169868085339e-03
1.170482980653e-03
1.170912721050e-03
1.171120299723e-03
1.171160922491e-03
1.171078166626e-03
1.170905132217e-03
1.170648727803e-03
1.170479286423e-03
1.170547781896e-03
1.170950149661e-03
1.171291949906e-03
1.171904111755e-03
1.171902869802e-03
1.172775691022e-03
1.171191663991e-03
1.172612854848e-03
1.187833400543e-03
1.100890959270e-03
1.406472201895e-03
1.491080212999e-03
1.478875045824e-03
1.477895659223e-03
1.479619060523e-03
1.478564647702e-03
1.478277220900e-03
1.477332716482e-03
1.477027418563e-03
1.477261296584e-03
1.477705681800e-03
1.477884862686e-03
1.477949264049e-03
1.477971194428e-03
1.477874591721e-03
1.477531872393e-03
1.476939422515e-03
1.476353314810e-03
1.476071760447e-03
1.476543377434e-03
1.479007895978e-03
1.494609376958e-03
1.795031686062e-03
1.783773745531e-03
1.782623055880e-03
1.782626379155e-03
1.783057178786e-03
1.783727354425e-03
1.784306026727e-03
1.784380359053e-03
1.784248010391e-03
1.784368936443e-03
1.784509361012e-03
1.784222028420e-03
1.783208560618e-03
1.783225774654e-03
1.784136159459e-03
1.786530570038e-03
1.785403695648e-03
1.784867355603e-03
1.800532715687e-03
1.713377617146e-03
2.018704063446e-03
2.107896464569e-03
2.095467463099e-03
2.092115637880e-03
2.090444484697e-03
2.089262768386e-03
2.091381496790e-03
2.091935832999e-03
2.091701405459e-03
2.090782435672e-03
2.090851254199e-03
2.091553502457e-03
2.090833695651e-03
2.089930293994e-03
2.089391547646e-03
2.089200621047e-03
2.089561437809e-03
2.092034405906e-03
2.102852006717e-03
2.407656875407e-03
2.395972459848e-03
2.394599199124e-03
2.395531468110e-03
2.394981263883e-03
2.396176998543e-03
2.397491354676e-03
2.397714307114e-03
2.395585196248e-03
2.397789855342e-03
2.399172565538e-03
2.398368259276e-03
2.398547875961e-03
2.393984296182e-03
2.398022086534e-03
2.418470853755e-03
2.331238587604e-03
2.637929620288e-03
2.723228742168e-03
2.707307494023e-03
2.703362484179e-03
2.705380261164e-03
2.706672240760e-03
2.703116806963e-03
2.702772263136e-03
2.703136713816e-03
2.702441216446e-03
2.701188865917e-03
2.700451988879e-03
2.702758821159e-03
2.699325300696e-03
2.707024502910e-03
2.723902039593e-03
2.292941970270e-04
4.158504436415e-04
7.205477140506e-04
1.028419111740e-03
1.324751298754e-03
1.629703414510e-03
1.935057087960e-03
2.241665025770e-03
2.548701800634e-03
2.861688706248e-03
7.103606478164e-04
5.814911313878e-03
2.047918518275e-04
1.970502068753e-04
5.819197632046e-03
1.328946267278e-03
3.191329080053e-03
5.810273490245e-03
1.892382905539e-03
5.822030968611e-03
2.522985579042e-03
5.833950524206e-03
1.864247367510e-04
5.824179591591e-03
3.155514371104e-03
1.957918245127e-03
4.023649944342e-03
5.811714724389e-03
5.825466270030e-03
5.824996473377e-03
5.797525205523e-03
5.833870913861e-03
3.279705906600e-03
3.278932509466e-03
3.299538154266e-03
4.392988308338e-03
5.825782847880e-03
1.875803799628e-04
2.130243859940e-04
4.990941270632e-03
3.266764248665e-03
1.027578116983e-03
5.770593586357e-03
5.837121425949e-03
5.820649096206e-03
5.802522940310e-03
5.827315517430e-03
2.124904197991e-04
3.271394634805e-03
5.775055632193e-03
5.005410343617e-03
2.049450714895e-04
2.556345996281e-03
5.876876022666e-03
1.638575426776e-03
1.018536859922e-03
2.209222523540e-03
2.829980156742e-03
3.757872655430e-04
3.812034731290e-03
5.879774981019e-03
2.000834389720e-04
5.582228690945e-03
3.282968380463e-03
3.405879163641e-03
3.554924991576e-03
3.706761369563e-03
3.858428676321e-03
3.994172834541e-03
3.835090176788e-03
4.124628089981e-03
3.963011153955e-03
4.154617485841e-03
4.253890367715e-03
4.090560016023e-03
4.382096032079e-03
4.218726563058e-03
3.929419603329e-03
4.056695462337e-03
3.767499058174e-03
3.894823734662e-03
4.184913419616e-03
4.022005877425e-03
3.732190171091e-03
3.858313833382e-03
3.569562641982e-03
3.695377336778e-03
3.406514106271e-03
3.532562577704e-03
3.821712444257e-03
3.658737601044e-03
3.369644961438e-03
3.495886750392e-03
3.207187652528e-03
3.332149617847e-03
3.621982769517e-03
3.458496973122e-03
3.166845774337e-03
3.294707675905e-03
3.002130027115e-03
3.131260622861e-03
2.837304896117e-03
2.965670032421e-03
3.259556182238e-03
3.094478366317e-03
2.799648397582e-03
2.927396624230e-03
3.222929756525e-03
3.055408384458e-03
3.351641860097e-03
3.184131490321e-03
2.889094859221e-03
3.017387565719e-03
3.312807633971e-03
3.144807155985e-03
2.850539984923e-03
2.978148191045e-03
3.273453875391e-03
3.105701933788e-03
2.811118638057e-03
2.939152856274e-03
3.235930558971e-03
3.066878938369e-03
2.770729598448e-03
2.897992444106e-03
3.196676201024e-03
3.025458962526e-03
3.326539777395e-03
2.725836099392e-03
2.853445082624e-03
2.552546008883e-03
2.681203652163e-03
3.749361599789e-03
2.379164116958e-03
2.254416588919e-03
2.509143601858e-03
2.813194765712e-03
2.206243071564e-03
2.337199456257e-03
2.035089294135e-03
2.704627779472e-03
4.313057656759e-03
2.166880539926e-03
1.864421071359e-03
1.732868546084e-03
1.561342170473e-03
4.024498791055e-03
4.321449536869e-03
4.179690524695e-03
4.487558501959e-03
4.351378253477e-03
1.692293086120e-03
4.547507496043e-03
4.620310667296e-03
3.444574795783e-03
3.081228819560e-03
3.519317618785e-03
2.468789982299e-03
2.300880945692e-03
2.604574973058e-03
3.497581244636e-03
3.628764160508e-03
3.799698635942e-03
3.931379681523e-03
4.102448612731e-03
4.234588908537e-03
4.063072780301e-03
4.366751221426e-03
4.194735028229e-03
4.405545622725e-03
4.273365102485e-03
4.498318737704e-03
4.326379418243e-03
4.629602997623e-03
4.457503609016e-03
4.153929470569e-03
4.284864263682e-03
3.982884066866e-03
3.648745610141e-03
3.817193794493e-03
3.946719407469e-03
4.115926409861e-03
4.245574739592e-03
4.415539763342e-03
4.544399560802e-03
4.375426891281e-03
4.509920023172e-03
2.632653377112e-03
2.504948411976e-03
2.338614636793e-03
2.211400256375e-03
2.045332097660e-03
1.919061142858e-03
1.752635209565e-03
1.878513981748e-03
1.584910331352e-03
1.710339413602e-03
1.415942396810e-03
1.540924270131e-03
3.948384266438e-03
4.285218450736e-03
4.585788453075e-03
4.452548000313e-03
1.432045145505e-03
4.588120534621e-03
4.576656745919e-03
4.442906503729e-03
4.675416510747e-03
1.391840176144e-03
1.627976054006e-03
1.791438559949e-03
4.652375729059e-03
4.515073750359e-03
4.747734229222e-03
1.522378979602e-03
4.671085369189e-03
1.291851135584e-03
4.415253925120e-03
4.718848314431e-03
3.891705484867e-03
4.754278458359e-03
4.616084921715e-03
1.839848146906e-03
1.672605894671e-03
1.378135101855e-03
1.515420670763e-03
1.805900116599e-03
1.632448232839e-03
1.332653763525e-03
1.460848178870e-03
1.759405537371e-03
1.587950129179e-03
1.285510927899e-03
1.415480434626e-03
4.891516996896e-03
1.121510096864e-03
3.641366942473e-03
4.879243427220e-03
4.841045972056e-03
4.817221487039e-03
4.680859314151e-03
4.376749942027e-03
4.546436710308e-03
4.850021688501e-03
4.714841530376e-03
4.411085338888e-03
4.576823668989e-03
4.271643822444e-03
4.438121527056e-03
4.742306724662e-03
4.605607762388e-03
4.302170490177e-03
4.468415119196e-03
4.164526586705e-03
4.326213013675e-03
4.634793358128e-03
1.226849014185e-03
4.506378239639e-03
4.809738295993e-03
2.453146888506e-03
2.728545033659e-03
2.907124081246e-03
3.043059147020e-03
4.493803980505e-03
4.803851567309e-03
1.501869364537e-03
1.664240495932e-03
4.952759396910e-03
4.548949919362e-03
4.244032685451e-03
2.918967585879e-03
2.792586959038e-03
2.629168594188e-03
2.499093692646e-03
2.668968419875e-03
2.332626947431e-03
4.138292167915e-03
4.909939925648e-03
1.603914124137e-03
1.302913386403e-03
4.855203702972e-03
4.205737706829e-03
4.111791117138e-03
4.239349827017e-03
4.404279031402e-03
4.532163345971e-03
4.698797086860e-03
4.826101189866e-03
4.663500232458e-03
4.917627217648e-03
4.959771601570e-03
4.174662190372e-03
4.151213148999e-03
1.888480938751e-03
1.096487228566e-03
1.112867725487e-03
1.347315636886e-03
1.652113615696e-03
5.051413102721e-03
4.995155339568e-03
4.862932033424e-03
2.379373966366e-03
2.546273267233e-03
5.051913667086e-03
4.046495241742e-03
4.106805891897e-03
3.964719198022e-03
1.001701890259e-03
9.814910827122e-04
5.018736248123e-03
1.953490702354e-03
1.826326942528e-03
1.000603477325e-03
8.270248169059e-04
4.649062039121e-03
4.959360782526e-03
3.209003612840e-03
3.344763241722e-03
4.919412739713e-03
1.246851632543e-03
5.108760944892e-03
4.338688324758e-03
4.036566623443e-03
2.862194265683e-03
1.379647792169e-03
1.216950747748e-03
2.058445277619e-03
1.544704251302e-03
1.478187698947e-03
5.222097844678e-03
5.150166074507e-03
4.796698922503e-03
4.498570299624e-03
5.089656245451e-03
9.457015925928e-04
5.189931181500e-03
4.686738709315e-03
5.150549732461e-03
5.027069730600e-03
2.114316632000e-03
1.991901980435e-03
1.705778784395e-03
1.877221421128e-03
3.675799238899e-03
2.280051155843e-03
3.479503618634e-03
3.353779208918e-03
3.194968393760e-03
2.831556800728e-03
2.708824037533e-03
2.375496384323e-03
3.686936591630e-03
3.078073203987e-03
3.851596386181e-03
3.667740788258e-03
5.044158210038e-03
5.215830386065e-03
3.998289725651e-03
3.853491964182e-03
1.131663708096e-03
1.005870343686e-03
3.457686078413e-03
5.011327749084e-03
5.115127262102e-03
5.250667570774e-03
5.084339547061e-03
5.085185550635e-03
2.466333230067e-03
3.777777636612e-03
9.588302078742e-04
3.912004250684e-03
8.314503266492e-04
4.475699055473e-03
4.989278594651e-03
5.157849786265e-03
5.214381496867e-03
3.266010047436e-03
4.041180497852e-03
3.878621153168e-03
3.070483235828e-03
2.913482248638e-03
3.035157386404e-03
2.755770959431e-03
2.184615498058e-03
2.013559352505e-03
5.319773126116e-03
5.255640298353e-03
5.321605394694e-03
5.197016645099e-03
5.342046142709e-03
5.180952194182e-03
1.777196002727e-03
2.427249311879e-03
5.314454420742e-03
3.225902650504e-03
5.312357786980e-03
5.147322410379e-03
6.540445478406e-04
7.723794913411e-04
5.277227190096e-03
1.587049601255e-03
1.745337399366e-03
1.421339300996e-03
5.610035015994e-03
3.257775872683e-03
5.289370763037e-03
2.995256057925e-03
5.420258365800e-03
4.174507003320e-03
2.750543209626e-03
4.785821545599e-03
5.111095174845e-03
5.457139877325e-03
3.797889722827e-03
3.646479732755e-03
3.931549897695e-03
1.164427047641e-03
8.448239735480e-04
5.077361997568e-03
2.130717764018e-03
2.299994958429e-03
1.365911109574e-03
1.662041853713e-03
3.380077755549e-03
3.249013876935e-03
4.605823304079e-03
4.769919328613e-03
4.276226867883e-03
4.169358572453e-03
3.867935193715e-03
3.737504250769e-03
5.341787835815e-03
5.553309217008e-03
2.353647089942e-03
2.227016294383e-03
2.307076216506e-03
5.450349556697e-03
5.463341176944e-03
5.325739410321e-03
7.148670898350e-04
8.870883348093e-04
1.101873869960e-03
9.316626042025e-04
5.373764850267e-03
5.221517258001e-03
5.572702457976e-03
1.582372335378e-03
4.632172669378e-03
5.375893312072e-03
5.254154539084e-03
5.559534277686e-03
5.076810545238e-03
5.365925183894e-03
5.378240200423e-03
5.392140300883e-04
5.334646512646e-03
3.675752576569e-03
3.994140177194e-04
3.535833562514e-03
3.716995656290e-03
3.370679194070e-03
1.282169154075e-03
3.567296707678e-03
3.765939256375e-03
5.126327859221e-04
5.605887865963e-03
5.560267422025e-04
6.660332016854e-04
5.449756143397e-03
5.274590684749e-03
5.572244234080e-03
5.392478454778e-03
5.099677131758e-03
5.238383322142e-03
3.509567093749e-03
5.572364392840e-03
5.374148307929e-03
5.737141131835e-03
2.638726436383e-03
2.039901378839e-03
1.905448348708e-03
1.617406521166e-03
5.530794330127e-03
5.348359015461e-03
4.829734702657e-03
4.521447046327e-03
3.557349194756e-03
3.532569652196e-03
3.813584889458e-03
3.767894522616e-03
4.058668074403e-03
4.012436085661e-03
4.295379223318e-03
5.556472121404e-03
1.300890945793e-03
2.946721722792e-03
5.471988497703e-03
5.293800497184e-03
2.587723201717e-03
2.314665718403e-03
5.537328889683e-03
2.406283520918e-03
5.792762283983e-03
1.858040090612e-04
4.857765212982e-04
2.573038789786e-03
2.873030274744e-03
2.199216706967e-03
2.091680435174e-03
4.476442988489e-03
7.504877515353e-04
1.263024816417e-03
4.334362747608e-03
9.849535248274e-04
4.679903303412e-03
2.540562741112e-03
3.118474233540e-03
1.542099058054e-03
2.168158947901e-03
3.802386178974e-03
3.549362578402e-03
3.391116114852e-03
2.670946485909e-03
2.260803135557e-03
1.949223813238e-03
3.605674145861e-03
4.919767447334e-03
5.053137848748e-03
5.341032503505e-03
5.187217989567e-03
4.888560595270e-03
5.017653317247e-03
5.314535410036e-03
5.156798542278e-03
5.508315270460e-03
5.286399283860e-03
4.980351695302e-03
5.106165886697e-03
5.394021959470e-03
4.807746362982e-03
5.628111934766e-03
2.871243858978e-03
6.965101933152e-04
6.551789095587e-04
3.282360146456e-03
5.809860564826e-03
5.821157866103e-03
2.082528349660e-03
5.819524766679e-03
3.515099545658e-03
1.460932159611e-03
5.821354656771e-03
4.753391499877e-03
4.585238946775e-03
4.452711673430e-03
5.831503303158e-03
4.073161563167e-03
5.837134571400e-03
3.985700881929e-03
3.851791908228e-03
3.554575317505e-03
4.847344029507e-03
5.817888275316e-03
5.575635814432e-03
5.571525256645e-03
5.311966086722e-03
5.819541179727e-03
5.830698806893e-03
5.838402623042e-03
1.930986719212e-03
2.101024040918e-03
2.394475490464e-03
2.266384359489e-03
1.970817861414e-03
2.136867911929e-03
2.431134490451e-03
2.006483688020e-03
5.062450549600e-03
5.830124137920e-03
3.970119493304e-03
3.835301643933e-03
3.534841884466e-03
2.946573758729e-03
3.117318954907e-03
3.419825569632e-03
2.776365598311e-03
4.367919564161e-03
5.827346570942e-03
3.906600699280e-03
2.984402664609e-03
3.276820545210e-03
3.539493379070e-03
3.549133742473e-03
3.824596042644e-03
3.567726925698e-03
3.513236360802e-03
3.646056828441e-03
3.479442829320e-03
3.776440321699e-03
3.600754084134e-03
3.319682840169e-03
3.899235541114e-03
3.712790048005e-03
3.270946734921e-03
2.113632266739e-04
4.663590485078e-04
4.566049970039e-04
7.156745567247e-04
7.373279452377e-04
1.003154234088e-03
9.722585000682e-04
4.717549759512e-04
2.060508248568e-04
4.540770013058e-04
2.016183866916e-04
4.467968440683e-04
7.550412036772e-04
1.182852220765e-03
5.788845613533e-03
2.859709310104e-03
2.724978007808e-03
2.413348020450e-03
2.580932184492e-03
2.979254934651e-03
2.254988964791e-03
2.151777952318e-03
2.124248935492e-04
4.645380525494e-04
4.620287622045e-04
7.358870940255e-04
7.228556758076e-04
4.637229493946e-04
4.638167508819e-04
2.058552859172e-04
4.611112548755e-04
7.280621305049e-04
1.906731245643e-04
4.704546691336e-03
4.866377932286e-03
5.817051415440e-03
3.306461396406e-03
2.060812032613e-04
5.781234699132e-03
5.822288119502e-03
5.823020880709e-03
5.305314190989e-03
5.454685450902e-03
5.787205338867e-03
1.904164271810e-03
5.481003932717e-03
5.244910374535e-03
1.337919885917e-03
1.840104844977e-03
4.380249884781e-03
4.023192351168e-03
5.022936148851e-03
4.114296708411e-03
4.760794110996e-03
5.555554324813e-03
1.179594138024e-03
4.131571153262e-03
4.020912679793e-03
4.773210184270e-03
1.997971753623e-03
3.186209854797e-03
1.264320056221e-03
5.581499467917e-03
3.319123411055e-03
3.366608306896e-03
2.641689808122e-03
2.077782102881e-03
1.716997042932e-03
3.042088607286e-03
3.155408692379e-03
4.538280633475e-03
4.941818270038e-03
2.600596271960e-04
4.708539861147e-03
3.760089428882e-03
4.244105085551e-03
4.715328609436e-03
1.167410736667e-03
4.880974533881e-03
5.403313920794e-03
3.898336749169e-03
9.671126416541e-04
3.824252090179e-03
5.351558397039e-03
4.786917829570e-03
1.824211420534e-03
3.480609807162e-03
3.243878701939e-03
2.980785244645e-03
5.375575519212e-03
3.585995865997e-03
4.980015277352e-03
4.076017659109e-03
1.959475074490e-03
4.975844888606e-03
3.389984283037e-03
5.185084528177e-03
4.569389381663e-03
2.760527645323e-03
4.981119205121e-03
3.402542523838e-03
4.886475886782e-03
3.158193069385e-03
3.984904577625e-03
4.346595079122e-03
3.785347613028e-03
4.212795144997e-03
4.843183184598e-03
1.250416126476e-03
2.458873987470e-03
4.209667670053e-03
5.115121627223e-03
5.486043343848e-03
2.956453768341e-03
4.801040750307e-03
5.276018678210e-03
3.287319671934e-03
1.360173557846e-03
1.054118268605e-03
2.172491032492e-03
3.423285296841e-03
3.589532674148e-03
5.552240847616e-03
4.931191158355e-03
4.613419327886e-03
5.464000382780e-04
3.101627176124e-03
5.063754079328e-03
3.609293720743e-03
5.009794558602e-03
3.416052821844e-03
5.575482653537e-03
2.475536180774e-03
5.206362114330e-03
4.647615435026e-03
2.244695150429e-03
3.268136202907e-03
5.555008699614e-03
4.952886856145e-03
4.075675641162e-03
3.440761170649e-03
2.670689667684e-03
3.721275175177e-03
4.148714793035e-03
5.835319629331e-03
5.106135759620e-03
4.284472671237e-03
3.550391241370e-03
4.312448323242e-03
7.156855192345e-04
2.792869111198e-03
3.682084945283e-03
2.301558692687e-03
3.569870679035e-03
5.507448749153e-03
3.814302881920e-03
2.595277141504e-03
3.945212643466e-03
2.359824458181e-03
4.418520852231e-03
4.072359630917e-03
4.440337999663e-03
7.757686492746e-04
4.203718467632e-03
5.137853672774e-03
2.428401079217e-03
3.700926420415e-03
4.718919712422e-03
2.045517196664e-03
4.001751556342e-03
4.734200010830e-03
4.335389309684e-03
3.717467635180e-03
4.306468150559e-03
2.158315669710e-03
1.778111948175e-03
1.480789573342e-03
2.723576269686e-03
4.901358873080e-03
9.907929562043e-04
4.678560104240e-03
1.061568277770e-03
2.558752785224e-03
4.777870338073e-03
4.115757970203e-03
2.685651994210e-03
1.661993244650e-03
2.519680303368e-03
4.012449715584e-03
2.645863061595e-03
2.477781824869e-03
5.552773111685e-03
2.601556434606e-03
5.832588277671e-03
5.807498199141e-03
3.510356051034e-03
1.737451315662e-03
2.405479085723e-04
1.829108936978e-03
2.134121346790e-03
4.639057668376e-03
3.513173410346e-03
1.958554503757e-03
5.579740788868e-03
5.830554327362e-03
4.549382429434e-03
5.128190593651e-03
4.477241356342e-03
5.275457844279e-03
3.249070074697e-03
4.477567605621e-04
4.366937944894e-03
1.414652943865e-03
1.454830351756e-03
1.141526190888e-03
2.071482774289e-03
7.048676555722e-04
1.168371653297e-03
5.554008919411e-03
3.515193931760e-03
4.930134979137e-03
8.572356047718e-04
5.572156000341e-03
5.569776879399e-03
5.838339516943e-03
5.230953075188e-03
8.277135440665e-04
3.767849181542e-03
5.583236268412e-03
4.792801184414e-03
5.849741729017e-03
3.467504393821e-03
5.585086652784e-03
1.085481836247e-03
5.581941862217e-03
4.937207249790e-03
3.891365713394e-03
3.752927955089e-03
5.593723576573e-03
5.582903556172e-03
6.530334131599e-04
4.532821262706e-03
2.586505146794e-03
4.309456059287e-04
5.577341518437e-03
5.218037136216e-03
5.584899765061e-03
7.371716874997e-04
4.403063957911e-04
5.630357557198e-03
5.612012503027e-03
1.230585207076e-03
5.884366405666e-03
4.092504687394e-04
3.203199811466e-03
4.370733977465e-04
5.843994283019e-03
5.604234858726e-03
2.845335710462e-03
3.286444788878e-03
1.873211432721e-03
5.369777350956e-03
6.577588307219e-04
5.641946929749e-03
5.644321122624e-03
5.639466704751e-03
5.898898139880e-03
4.211607310232e-04
5.652386425481e-03
5.366048530729e-03
3.253953958084e-03
5.587679770306e-03
2.309938481824e-03
9.687550335973e-04
5.854893632795e-03
1.859115235788e-04
3.234858844656e-03
5.866847427828e-03
9.109470946294e-04
3.727440323860e-03
5.623149802079e-03
3.507013142730e-03
5.092976750137e-03
8.975669244277e-04
1.659950822664e-04
4.270563646727e-03
5.623311015091e-03
5.659663736694e-03
4.061400799491e-03
8.220481444570e-04
5.453937277557e-03
3.071062049363e-03
5.407469273276e-03
5.377966207611e-03
2.102243503153e-04
3.774256867795e-03
4.259532598859e-04
5.646002650816e-03
3.210355763876e-03
3.808881671949e-04
4.582839405489e-04
6.812530931541e-04
7.823421882474e-04
9.833305910442e-04
1.031318664959e-03
1.287275284106e-03
1.374254474633e-03
1.593862915393e-03
1.630621312590e-03
1.904403431918e-03
1.978503866699e-03
2.215256382710e-03
2.237857692827e-03
2.521729557575e-03
2.586604075054e-03
2.833800295395e-03
2.849139881866e-03

SCALARS node_materi_plasti_phimob float
LOOKUP_TABLE default
1.826604477355e+01
1.669950061758e+01
2.051436241695e+01
2.032352459178e+01
-3.175450088894e+01
-6.938799776967e+00
3.032930013390e+00
8.798093214113e+00
1.213732101337e+01
1.418929675853e+01
1.567085913321e+01
1.679029558382e+01
1.762710654979e+01
1.831718189413e+01
1.889793261233e+01
1.925469238655e+01
1.949912992626e+01
1.978506817989e+01
2.000189772120e+01
2.016825897828e+01
2.030946170583e+01
2.042370675911e+01
2.049270287116e+01
2.033183664030e+01
2.032876392513e+01
2.033054561742e+01
2.033241412523e+01
2.032623100929e+01
2.032976273991e+01
2.032591253757e+01
2.033095357860e+01
2.033496287443e+01
2.033744110278e+01
2.033188936725e+01
2.033827538066e+01
2.033660110495e+01
2.034233031713e+01
2.033652757820e+01
2.033915120967e+01
2.034068094150e+01
2.034266653560e+01
2.035473932757e+01
2.036389992089e+01
2.036929451647e+01
2.037068341324e+01
2.037965740629e+01
2.038652933022e+01
2.039621753388e+01
2.040283175148e+01
2.042280783599e+01
2.042121521364e+01
2.044186580911e+01
2.044737217731e+01
2.046988822804e+01
2.046442653733e+01
2.046986936399e+01
2.048149528440e+01
2.048524670494e+01
2.050463913178e+01
2.049462047383e+01
2.051236423215e+01
2.049980327299e+01
2.051884420838e+01
2.052136498359e+01
2.051164926965e+01
2.050552939845e+01
2.052513725198e+01
2.050635689416e+01
2.052594882785e+01
2.052256399439e+01
2.052179974652e+01
2.052728381992e+01
1.738372617125e+01
1.797270516812e+01
1.844602997460e+01
1.884152907418e+01
1.919205803688e+01
1.948652819257e+01
1.975465452354e+01
1.998887679608e+01
2.020114929757e+01
-5.926310635357e+01
1.659520460884e+01
-1.030129317637e+01
-3.274904244426e+01
-8.061896703227e+00
2.110036184074e+00
7.503229557972e+00
1.075304329264e+01
1.292052900611e+01
1.446898389149e+01
1.563170064202e+01
1.874774564528e+01
-3.332073208796e+01
-8.140840416715e+00
2.387523575517e+00
7.738155295545e+00
1.097861149377e+01
1.310922241855e+01
1.463647752227e+01
1.575821222050e+01
1.657014693003e+01
1.660637050029e+01
1.661302550335e+01
1.659933646294e+01
1.668801710650e+01
1.659947976141e+01
1.657711317139e+01
1.658192275317e+01
1.660015825040e+01
1.659204832765e+01
1.657315302161e+01
1.656471064574e+01
1.655285657074e+01
1.655897770633e+01
-6.218976443588e+01
-6.151145201068e+01
-6.254294094192e+01
-6.297365586923e+01
-6.088708624735e+01
-5.974147714099e+01
-5.997588804820e+01
-6.030686507023e+01
-6.034356892003e+01
-6.030275614572e+01
-5.989631918706e+01
-5.809161625616e+01
-5.905278689748e+01
-6.145127861395e+01
-6.095392649271e+01
-6.005915704380e+01
-5.993808627786e+01
-9.613680116969e+00
4.026730640651e+01
-9.644039470156e+00
-5.720155225164e+01
-5.530885441538e+01
-5.515713811593e+01
-5.508034277563e+01
-5.503931014714e+01
-5.501878323765e+01
-5.500822051684e+01
-5.500204203582e+01
-5.499754965777e+01
-5.499343218667e+01
-5.498883499290e+01
-5.498081253284e+01
-5.495635694551e+01
-5.491604239681e+01
-5.486874590054e+01
-5.480707352217e+01
-5.473915848813e+01
-5.467222963850e+01
-5.459359014513e+01
-5.453590791016e+01
-5.444218434494e+01
-5.446172071463e+01
-5.430960282807e+01
-5.444760898302e+01
-5.396620672779e+01
-1.699176740029e+01
8.872024860073e+01
-3.799491059525e+01
-3.267541889375e+01
-3.478415227759e+01
-3.493159210879e+01
-3.487708173899e+01
-3.497602509656e+01
-3.503822251756e+01
-3.513570578799e+01
-3.522290654013e+01
-3.531582939467e+01
-3.540386493855e+01
-3.547567601349e+01
-3.552162269114e+01
-3.555587295903e+01
-3.558070627211e+01
-3.560141392987e+01
-3.561969350879e+01
-3.563632189265e+01
-3.565205040458e+01
-3.566793738917e+01
-3.568577239575e+01
-3.570852053983e+01
-3.573978880955e+01
-3.577691598548e+01
-3.580773418120e+01
-3.537802069811e+01
-9.914085819839e+00
-7.750545479848e+00
-8.427130952323e+00
-8.500757100778e+00
-8.488509158854e+00
-8.542664232447e+00
-8.571547945802e+00
-8.616729639592e+00
-8.657362249580e+00
-8.700340572233e+00
-8.732287800213e+00
-8.755465729613e+00
-8.775860526641e+00
-8.793648934103e+00
-8.809307917130e+00
-8.823624983356e+00
-8.837121410682e+00
-8.850428714862e+00
-8.864508262780e+00
-8.880759920898e+00
-8.900597472656e+00
-8.922729830855e+00
-8.924391058119e+00
-8.696335530877e+00
-8.010775522546e+00
2.114601839536e+00
2.079018208968e+00
2.081311452711e+00
2.088023275676e+00
2.098332814695e+00
2.108572863989e+00
2.117427776208e+00
2.124920773219e+00
2.131622488242e+00
2.137943379525e+00
2.144143881616e+00
2.150300796317e+00
2.157314664030e+00
2.165664298795e+00
2.175516678994e+00
2.184071966170e+00
2.193285416352e+00
2.196538052651e+00
2.204680498757e+00
2.192728207473e+00
2.208903082890e+00
2.545218957638e+00
1.391386616792e+00
7.072297315538e+00
7.776304962566e+00
7.609294417540e+00
7.606887604214e+00
7.620389360254e+00
7.619743529857e+00
7.622173472029e+00
7.620246202683e+00
7.620234691512e+00
7.621570273033e+00
7.623440806935e+00
7.623904451156e+00
7.623573714722e+00
7.622756426010e+00
7.621134671928e+00
7.618174864146e+00
7.613849603162e+00
7.609490098885e+00
7.607325255389e+00
7.612289240636e+00
7.654464577557e+00
7.766547483313e+00
1.091360164412e+01
1.090355924916e+01
1.089975515559e+01
1.089810786096e+01
1.089831622079e+01
1.089931039831e+01
1.089972181330e+01
1.089811630949e+01
1.089534647930e+01
1.089279226582e+01
1.088968509542e+01
1.088459823250e+01
1.087673649922e+01
1.087129442288e+01
1.086806842044e+01
1.086818546541e+01
1.085763112456e+01
1.084815329044e+01
1.095593326021e+01
1.046645394566e+01
1.270487962323e+01
1.306753710044e+01
1.300702144671e+01
1.300891283407e+01
1.301195454768e+01
1.301738977615e+01
1.302968918646e+01
1.303791967955e+01
1.304356803713e+01
1.304672728750e+01
1.305156164848e+01
1.305752047870e+01
1.305934623187e+01
1.306027566191e+01
1.306178595141e+01
1.306414724654e+01
1.306834527686e+01
1.308495919765e+01
1.312041235338e+01
1.461872116663e+01
1.460726790198e+01
1.460259141246e+01
1.460129955278e+01
1.459634017273e+01
1.459480664090e+01
1.459278936557e+01
1.458838181739e+01
1.457870180387e+01
1.457704221056e+01
1.457295290488e+01
1.456377186329e+01
1.455622675352e+01
1.454022366297e+01
1.453743347149e+01
1.459251218410e+01
1.431526766105e+01
1.550896852275e+01
1.572998324395e+01
1.569632075489e+01
1.569715887631e+01
1.570812936668e+01
1.571765231509e+01
1.571946457028e+01
1.572530171148e+01
1.572911019978e+01
1.573485233535e+01
1.573751881005e+01
1.574058223979e+01
1.574851940884e+01
1.574696039047e+01
1.576365463477e+01
1.579321835587e+01
-4.964866739708e+01
5.373880823003e+00
-1.500448051369e+01
-9.035763919014e-01
5.723661308531e+00
9.608799134689e+00
1.212795334675e+01
1.388162108945e+01
1.517809933515e+01
1.618247122797e+01
-1.559011703379e+01
2.043487310443e+01
-4.064529878201e+01
-4.213979432679e+01
2.049505696565e+01
5.206768102639e+00
1.863589104439e+01
2.036260017742e+01
1.172324648890e+01
2.030999606412e+01
1.501519862466e+01
2.049070301865e+01
-4.155267276384e+01
2.027708263175e+01
1.689376340522e+01
1.504989480374e+01
1.962826409666e+01
2.024728807924e+01
2.025005216629e+01
2.024804015083e+01
2.022651578679e+01
2.025380457706e+01
1.721521627894e+01
1.724985598673e+01
1.730578906047e+01
1.902212196320e+01
2.050298900649e+01
-4.246447630530e+01
-3.976018358167e+01
2.023789010068e+01
1.725724351750e+01
6.305269946197e+00
2.021890360854e+01
2.034658669980e+01
2.029330391608e+01
2.040028865849e+01
2.047769495540e+01
-4.001769142862e+01
1.721098201274e+01
2.049785547590e+01
1.962616814618e+01
-3.994046415703e+01
1.725264614527e+01
2.027808451508e+01
9.373976484573e+00
-1.942817549468e+00
1.363270739378e+01
1.605174204106e+01
-3.219344964658e+01
1.824856553705e+01
2.052551998972e+01
-1.565279947392e+01
2.008444431851e+01
1.721198204936e+01
1.746904402064e+01
1.774198684724e+01
1.800177103514e+01
1.825564146388e+01
1.844927315418e+01
1.820853092929e+01
1.862724007382e+01
1.840278983662e+01
1.866760433125e+01
1.879731940875e+01
1.858669414285e+01
1.895857134349e+01
1.876276632484e+01
1.836187884459e+01
1.855442065900e+01
1.811820947153e+01
1.833043120692e+01
1.873840724956e+01
1.853236711703e+01
1.808942562650e+01
1.831205969236e+01
1.782985245337e+01
1.807712635775e+01
1.754875125062e+01
1.782598572574e+01
1.831222161086e+01
1.808778521480e+01
1.755722759711e+01
1.784974629113e+01
1.726978137018e+01
1.759578498050e+01
1.812258039646e+01
1.789877058740e+01
1.732345623681e+01
1.766272961452e+01
1.703329915203e+01
1.745867891477e+01
1.677455585079e+01
1.730712172723e+01
1.789390274218e+01
1.777515593206e+01
1.715905239930e+01
1.764159298298e+01
1.817244936880e+01
1.804520041521e+01
1.850966494389e+01
1.838485206179e+01
1.788668589606e+01
1.822546907372e+01
1.867108342849e+01
1.851078699178e+01
1.801648248419e+01
1.830398650826e+01
1.875556826969e+01
1.855173206408e+01
1.803756604785e+01
1.829696896351e+01
1.877054458084e+01
1.852587435334e+01
1.797742061521e+01
1.822582473979e+01
1.873197130520e+01
1.844969954178e+01
1.891667409172e+01
1.785725939960e+01
1.811177531682e+01
1.741195644487e+01
1.771034014057e+01
1.837674159354e+01
1.688154491266e+01
1.650009001777e+01
1.723909814166e+01
1.798745846325e+01
1.625710984149e+01
1.668721916108e+01
1.552383656350e+01
1.623527228197e+01
1.891442771987e+01
1.604515588524e+01
1.465611011487e+01
1.391566050924e+01
1.267756700324e+01
1.848810054829e+01
1.888051388210e+01
1.870486462164e+01
1.907749972476e+01
1.892206479145e+01
1.359605650038e+01
1.914446173557e+01
1.922167699284e+01
1.757050095791e+01
1.691807386993e+01
1.861271457437e+01
1.707037630333e+01
1.650660519930e+01
1.743032384413e+01
1.913589817887e+01
1.928928258018e+01
1.946095828285e+01
1.958873798229e+01
1.972439266047e+01
1.983111175689e+01
1.970258916406e+01
1.992583825902e+01
1.980445816131e+01
1.993875019001e+01
1.983822448320e+01
2.000899577623e+01
1.989539445014e+01
2.008117191732e+01
1.997610988243e+01
1.976455649134e+01
1.985589792115e+01
1.961692380067e+01
1.889757433041e+01
1.898455495175e+01
1.922565922164e+01
1.930175690075e+01
1.950568083099e+01
1.957504637813e+01
1.974673396918e+01
1.968092277967e+01
1.911298586055e+01
1.699114146083e+01
1.639469684613e+01
1.617760817392e+01
1.542599446938e+01
1.512978024129e+01
1.415833990979e+01
1.372112975874e+01
1.470050202255e+01
1.303924568298e+01
1.403662640453e+01
1.194579171790e+01
1.302921015762e+01
1.853505171475e+01
1.937410014098e+01
1.964078410237e+01
1.944240069329e+01
1.159450570049e+01
2.004758393526e+01
2.002959863270e+01
1.993288600589e+01
1.989471382190e+01
1.116931205208e+01
1.242279613088e+01
1.289404373971e+01
1.925948496818e+01
1.911506691902e+01
2.010554744605e+01
1.231655072070e+01
2.010744571681e+01
1.053339618495e+01
1.993682770930e+01
2.011368691247e+01
1.955132511095e+01
1.970404979825e+01
1.951235578743e+01
1.483646678520e+01
1.394877149717e+01
1.166433609510e+01
1.277124526967e+01
1.471764545856e+01
1.361005473228e+01
1.103056198356e+01
1.218855652326e+01
1.437676767727e+01
1.316549808118e+01
1.028356325701e+01
1.161553596692e+01
2.020355870505e+01
8.529562756926e+00
1.789675186769e+01
2.018517554629e+01
1.995328411908e+01
1.942879994106e+01
1.929590193902e+01
1.896195562891e+01
1.915717554336e+01
1.946645224255e+01
1.933697492413e+01
1.900952812920e+01
1.919774233046e+01
1.884821774256e+01
1.904937324876e+01
1.937191210657e+01
1.923563640441e+01
1.889404929538e+01
1.909074318424e+01
1.872668052677e+01
1.893160024120e+01
1.927168137914e+01
9.308198232531e+00
1.983310739941e+01
2.002662604603e+01
1.697802147847e+01
1.774361889763e+01
1.813773490111e+01
1.837143984314e+01
1.912259286243e+01
1.944335309632e+01
1.065605949443e+01
1.133559425266e+01
1.955526643848e+01
2.001527288488e+01
1.981438573684e+01
1.656314234379e+01
1.613093814727e+01
1.567618025828e+01
1.511571684561e+01
1.566686764141e+01
1.449918635633e+01
1.972091839248e+01
1.953504988167e+01
1.306216661837e+01
1.027329107957e+01
2.018390785778e+01
1.961051888692e+01
1.872622607688e+01
1.891844679386e+01
1.908482411467e+01
1.925156435887e+01
1.939877002135e+01
1.954419329000e+01
1.941078955290e+01
1.976645537168e+01
1.968407025206e+01
1.874975739089e+01
1.914016104639e+01
1.504859138203e+01
7.499558504989e+00
7.782310696245e+00
1.068662249505e+01
1.328345403570e+01
2.024605616206e+01
1.967596406856e+01
1.953904667030e+01
1.454127682227e+01
1.517741690482e+01
1.992019035291e+01
1.852648524161e+01
1.863125029272e+01
1.844223183781e+01
6.051014799461e+00
5.715499830070e+00
1.962431959069e+01
1.334835071458e+01
1.215383359333e+01
6.307163086878e+00
2.327356251146e+00
1.929287221682e+01
1.958756589400e+01
1.866496061060e+01
1.886972981764e+01
2.016863817241e+01
9.652034983142e+00
1.971540346466e+01
1.976616156250e+01
1.952836608246e+01
1.798617514749e+01
8.395322913583e+00
7.305200236239e+00
1.587607977084e+01
1.271551424051e+01
1.192409693233e+01
2.029949920693e+01
1.973630317501e+01
1.956159512393e+01
1.927302032955e+01
1.981138237053e+01
4.554994330518e+00
2.031930374911e+01
2.009896938477e+01
1.979646813944e+01
1.967387839883e+01
1.391724931406e+01
1.301120508918e+01
1.087256008212e+01
1.198567529253e+01
1.794966500657e+01
1.454211745455e+01
1.760934930478e+01
1.735021048896e+01
1.701025559403e+01
1.614071026497e+01
1.572107328912e+01
1.566142014770e+01
1.870391254491e+01
1.846980961804e+01
1.950120821175e+01
1.931646880635e+01
1.965412933987e+01
1.980061089808e+01
1.849747568332e+01
1.829028182834e+01
7.966952422312e+00
5.820367748417e+00
1.908489985113e+01
2.025831195351e+01
1.970389632170e+01
1.981687752523e+01
1.967332411676e+01
2.021866095011e+01
1.677997528468e+01
1.914070619839e+01
5.482076283998e+00
1.856520698397e+01
1.868593879386e+00
1.909241505076e+01
2.024065256684e+01
2.031077969434e+01
1.998595684960e+01
1.715755123001e+01
1.878168576725e+01
1.861605274022e+01
1.670435212468e+01
1.629526947807e+01
1.663314984194e+01
1.583153964665e+01
1.634528011520e+01
1.561467020249e+01
1.993838904184e+01
1.992071326689e+01
1.991705835069e+01
1.980090109237e+01
2.009389185934e+01
2.004894090552e+01
1.410514646298e+01
1.466856550416e+01
1.987155578001e+01
1.707172835645e+01
2.037468627554e+01
2.031744617575e+01
-3.728267131703e+00
3.895991637986e-01
1.985074658734e+01
9.376778954864e+00
1.075574025236e+01
7.688325963653e+00
2.045277833063e+01
1.723857748407e+01
2.034417556041e+01
1.656894487888e+01
1.995953582222e+01
1.898920236179e+01
1.616006393697e+01
2.007990223792e+01
1.971558543692e+01
1.998882990568e+01
1.818335898816e+01
1.795166433516e+01
1.838145946154e+01
8.562393215307e+00
2.240372238561e+00
1.968730717965e+01
1.587296291269e+01
1.651733837126e+01
1.101258341283e+01
1.356281175129e+01
1.893778340605e+01
1.876347227706e+01
1.924807575964e+01
1.940484802072e+01
1.890869193005e+01
1.968305813926e+01
1.942766005459e+01
1.924731830517e+01
1.990360133378e+01
2.005570721765e+01
1.692959582815e+01
1.652756571866e+01
1.674362399604e+01
1.997442951982e+01
2.041178152141e+01
2.038535236569e+01
-2.091347926453e+00
2.932962949872e+00
3.716120238726e+00
1.857125806455e+00
1.991942406733e+01
1.978934300599e+01
2.006280309628e+01
1.276811929153e+01
1.943691958439e+01
2.033516907996e+01
2.027358073522e+01
2.041153005121e+01
1.984701936453e+01
2.007406648042e+01
2.003499844350e+01
-1.021708904421e+01
1.990549826923e+01
1.800055146261e+01
-1.907341163699e+01
1.775886443291e+01
1.807228797447e+01
1.746462057002e+01
9.962337646062e+00
1.780805732259e+01
1.811804986378e+01
-1.134794689600e+01
2.009592774189e+01
-9.135346395712e+00
-3.386161683296e+00
2.039916075526e+01
2.035940297139e+01
2.045148750897e+01
2.040686383648e+01
2.029936772563e+01
2.034706426947e+01
1.769382315838e+01
2.043995457301e+01
2.038444909732e+01
2.049724428233e+01
1.543694864267e+01
1.292081741273e+01
1.196326155051e+01
9.336702585020e+00
2.006642057584e+01
1.991893563463e+01
2.016838108430e+01
2.000186982708e+01
1.780663486189e+01
1.778054923069e+01
1.824573326577e+01
1.818942052544e+01
1.859836787354e+01
1.853437266226e+01
1.890085160664e+01
2.014004261200e+01
5.282508134150e+00
1.638161351164e+01
2.021543537123e+01
2.017266511248e+01
1.527938050401e+01
1.415412230064e+01
2.043746046110e+01
1.521897829354e+01
2.022022073091e+01
-4.325177674565e+01
-1.343351420855e+01
1.569439567982e+01
1.620627245189e+01
1.375330973082e+01
1.308910568079e+01
1.989941034391e+01
-5.747689384640e-01
5.752895188999e+00
1.893641293163e+01
-1.067673434349e+00
2.008549842355e+01
1.590767421712e+01
1.691447249646e+01
9.637667005865e+00
1.381515696695e+01
1.816067495771e+01
1.772735456933e+01
1.741853808599e+01
1.657997665134e+01
1.394502338848e+01
1.212115091797e+01
1.785503060251e+01
1.952221749217e+01
1.964544341404e+01
1.989078723740e+01
1.976157682302e+01
1.949192830129e+01
1.961439851406e+01
1.987313420027e+01
1.973720573365e+01
2.002358900623e+01
1.985401685597e+01
1.958656527229e+01
1.970825024489e+01
1.994296992404e+01
1.942598703645e+01
2.027345701021e+01
1.660608357018e+01
-2.177931853115e+00
-4.742878218272e+00
1.725874714753e+01
2.024596115220e+01
2.024554400739e+01
1.447831929923e+01
2.027993370718e+01
1.766302975622e+01
1.171894353065e+01
2.030001298129e+01
1.935893305865e+01
1.918245905962e+01
1.903436147186e+01
2.025024560719e+01
1.857914330224e+01
2.036088469117e+01
1.906484239345e+01
1.878943940341e+01
1.837952043951e+01
1.945632549341e+01
2.043145910210e+01
2.034795455666e+01
2.036081687555e+01
2.025843690541e+01
2.045439849580e+01
2.027019321964e+01
2.028268574075e+01
1.533415767849e+01
1.606546296066e+01
1.702619878920e+01
1.659799518840e+01
1.550757290290e+01
1.608462240746e+01
1.698879942721e+01
1.546419279974e+01
1.967921402102e+01
2.048378619057e+01
1.960320662215e+01
1.946383238473e+01
1.915238824793e+01
1.824236909718e+01
1.856668044023e+01
1.901845417098e+01
1.786987180346e+01
1.910044649645e+01
2.048759891777e+01
1.934867337347e+01
1.834829252291e+01
1.721876731042e+01
1.773651229078e+01
1.773866804139e+01
1.821008814751e+01
1.778829196578e+01
1.910631351274e+01
1.926079250885e+01
1.904708275042e+01
1.939443912769e+01
1.918565114378e+01
1.880600505336e+01
1.950308766547e+01
1.930738190141e+01
1.722133226068e+01
-4.000894139826e+01
-1.300595797926e+01
-1.350280407832e+01
-1.036507703950e+00
-2.133194465087e-01
6.370792662877e+00
5.918401181018e+00
-1.312165451489e+01
-4.038017975829e+01
-1.362187574520e+01
-4.064171926748e+01
-1.405410667731e+01
-1.591908366127e-01
8.757162185470e+00
2.050850228523e+01
1.799786959083e+01
1.769634902475e+01
1.684894444634e+01
1.733698160172e+01
1.827935573113e+01
1.630555916538e+01
1.589491790051e+01
-3.979093074059e+01
-1.288148386271e+01
-1.473992067660e+01
-5.446740906969e-01
-7.430238677701e-01
-1.274214145000e+01
-1.278662156856e+01
-4.010484593834e+01
-1.308643734821e+01
-4.294445087184e-01
-4.122951626625e+01
1.934706624654e+01
1.951022803161e+01
2.050285965182e+01
1.730340280075e+01
-4.020752396318e+01
2.021430509258e+01
2.024266645116e+01
2.024451329026e+01
2.036243688862e+01
2.040132898729e+01
2.022293153233e+01
1.492772890474e+01
1.998861095226e+01
1.982913424485e+01
9.899183888456e+00
1.470789084547e+01
1.990672376534e+01
1.966335159182e+01
2.026431587868e+01
1.972241512580e+01
2.014511576775e+01
2.038671812690e+01
8.685806288399e+00
1.867590338787e+01
1.853887629076e+01
1.940789810622e+01
1.530820277379e+01
1.861287538253e+01
9.788433432992e+00
2.012834794771e+01
1.729741600749e+01
1.896404648949e+01
1.756616945767e+01
1.577839637524e+01
1.401465070312e+01
1.695631325793e+01
1.865585342435e+01
2.002840600374e+01
1.956928676148e+01
-3.593059412438e+01
2.011325627755e+01
1.942709083363e+01
1.880469142541e+01
1.981110482725e+01
8.840200471348e+00
1.950191863229e+01
1.994293279671e+01
1.833066197864e+01
4.998552499495e+00
1.824003337571e+01
2.036253864768e+01
1.939453498604e+01
1.438370763713e+01
1.879627747788e+01
1.724530184357e+01
1.647777432425e+01
1.993234958008e+01
1.818003141684e+01
2.008280414611e+01
1.943232908500e+01
1.508074483992e+01
2.025371146004e+01
1.828048210854e+01
1.976933840051e+01
1.924415329289e+01
1.748070845723e+01
1.958714111194e+01
1.896686442897e+01
1.986986958248e+01
1.695405061332e+01
1.852410817801e+01
1.893071486912e+01
1.833430118368e+01
1.978275853163e+01
2.019045717261e+01
1.030333516280e+01
1.514999861769e+01
1.875293805599e+01
1.980076966795e+01
2.000218699910e+01
1.654175227465e+01
2.017210656739e+01
1.984250716828e+01
1.884541718843e+01
1.086633909724e+01
6.069755345666e+00
1.588653998508e+01
1.801467504035e+01
1.923776007928e+01
2.004886055024e+01
2.022653276311e+01
2.001143023215e+01
-2.476986550623e+01
1.678298611130e+01
2.027803296536e+01
1.903964057819e+01
2.001025781920e+01
1.893427482338e+01
2.013569770539e+01
1.484007044784e+01
2.033911612083e+01
1.996913442201e+01
1.480117952464e+01
1.725620091345e+01
2.044715589418e+01
2.014081700876e+01
1.874548920672e+01
1.891372087080e+01
1.555292267100e+01
1.937578892425e+01
1.872457692839e+01
2.025309865979e+01
2.019366084587e+01
1.883354408236e+01
1.917294175030e+01
1.921555206267e+01
-7.809560116745e-01
1.593769103260e+01
1.931735057346e+01
1.649275794385e+01
1.912343714940e+01
2.017384038273e+01
1.945074683992e+01
1.727212467358e+01
1.957092584078e+01
1.436078792050e+01
1.899483770085e+01
1.967160613108e+01
1.908233722164e+01
2.170788875372e-01
1.894357069039e+01
2.029589554484e+01
1.709353836822e+01
1.930503988137e+01
1.932449081348e+01
1.274861155972e+01
1.958414397379e+01
1.939671534460e+01
1.913065821335e+01
1.848039477743e+01
1.981715323787e+01
1.337897934345e+01
1.426843798200e+01
1.210757452274e+01
1.767803273466e+01
1.954292706148e+01
5.743591853708e+00
1.928869111423e+01
6.835727933407e+00
1.739848480238e+01
1.959956910369e+01
1.866967289903e+01
1.774321648595e+01
1.336310286874e+01
1.738717376285e+01
1.887510064410e+01
1.770254088615e+01
1.727647503784e+01
2.005898762994e+01
1.758144181151e+01
2.024721479126e+01
2.050100613567e+01
1.772550406916e+01
1.038863052216e+01
-3.932285327890e+01
1.134864617844e+01
1.608762295088e+01
1.926097580141e+01
1.774376020858e+01
1.527464459167e+01
2.008228955535e+01
2.033338654316e+01
1.919220357874e+01
2.013258345377e+01
1.931606252674e+01
1.986070419931e+01
1.719708753383e+01
-1.395804286300e+01
1.989476068217e+01
6.789979866609e+00
7.509786574462e+00
2.408881235272e+00
1.562066083541e+01
-1.325160837160e+00
2.213664165676e+00
2.031886452895e+01
1.771741291000e+01
1.970263809613e+01
-7.783385020782e+00
2.006689125576e+01
2.018395843499e+01
2.051635041676e+01
1.994237057891e+01
-4.849866307123e+00
1.812688598035e+01
2.012053873311e+01
1.943023653783e+01
2.049775911490e+01
1.763191924887e+01
2.008690263639e+01
8.052885172911e+00
2.008982328268e+01
1.955759742669e+01
1.834984521974e+01
1.809500718759e+01
2.044114761268e+01
2.008088269141e+01
-8.320041916479e+00
1.916700767866e+01
1.737818270374e+01
-1.622432488110e+01
2.045620007707e+01
1.981240759908e+01
2.046433098094e+01
-7.639332707994e-01
-1.538601461135e+01
2.045616186664e+01
2.011935739764e+01
9.887435304452e+00
2.028140032272e+01
-1.975174716236e+01
1.710991110389e+01
-1.475925915944e+01
2.049718556994e+01
2.009668545375e+01
1.798271297488e+01
1.722212628541e+01
1.462089721516e+01
1.999731627594e+01
-3.016429281700e+00
2.012001762977e+01
2.043918464066e+01
2.011358473637e+01
2.043031033068e+01
-1.694206914589e+01
2.021790951308e+01
2.031198384205e+01
1.720215754162e+01
2.008166535284e+01
1.651914182164e+01
5.409369463430e+00
2.026638895876e+01
-1.478017414184e+01
1.717873593184e+01
2.051343151393e+01
4.480007770856e+00
1.810842984536e+01
2.012070211682e+01
1.907116471010e+01
1.971651422262e+01
4.345600474423e+00
-4.472281651320e+01
1.887085651662e+01
2.024770155103e+01
2.012678751860e+01
1.859272196784e+01
9.151232786067e-01
1.999630545189e+01
1.837867514489e+01
1.999213543314e+01
2.026764285563e+01
-4.377791914803e+01
1.938957408152e+01
-1.627162392883e+01
2.047862319282e+01
1.864293871287e+01
2.043591909509e+01
-1.567723818531e+01
-1.825836246727e+01
-1.584735774690e+01
-2.375898298858e+00
-1.750228797429e+00
5.022020858360e+00
5.752285872975e+00
9.173971522814e+00
9.533741528383e+00
1.183485512145e+01
1.224552875462e+01
1.367524003176e+01
1.392054014201e+01
1.502262850896e+01
1.529166282780e+01
1.606020931448e+01
1.623829752756e+01

SCALARS node_materi_stress_average_a_sig float
LOOKUP_TABLE default
-5.324232205973e+00
-1.096329056180e+02
-2.364602929558e+02
-2.252243244348e+02
-1.265767567277e+01
-2.427859497243e+01
-3.533032529919e+01
-4.791914806866e+01
-5.998962109371e+01
-7.201049827767e+01
-8.398934967835e+01
-9.594748420211e+01
-1.079449160013e+02
-1.200332599634e+02
-1.324171063120e+02
-1.446067847941e+02
-1.557527260037e+02
-1.679016909939e+02
-1.804417760234e+02
-1.926384509321e+02
-2.049412243990e+02
-2.173679047522e+02
-2.293151333914e+02
-2.259116324117e+02
-2.252178541873e+02
-2.253898773259e+02
-2.253612276382e+02
-2.249824640078e+02
-2.254060164884e+02
-2.256127012744e+02
-2.253624089987e+02
-2.258713040140e+02
-2.258631923096e+02
-2.255354262976e+02
-2.259522261305e+02
-2.263547122281e+02
-2.261631777476e+02
-2.261749197625e+02
-2.258356479465e+02
-2.259190301673e+02
-2.266356848706e+02
-2.270835564055e+02
-2.275690420713e+02
-2.277979486624e+02
-2.280692426331e+02
-2.283849467475e+02
-2.287364712826e+02
-2.292779695647e+02
-2.299164498518e+02
-2.303797150175e+02
-2.309939789637e+02
-2.312993109227e+02
-2.322395830069e+02
-2.325461035345e+02
-2.324342836140e+02
-2.329083695496e+02
-2.335399294105e+02
-2.340522303885e+02
-2.344241121216e+02
-2.349274770757e+02
-2.350128350635e+02
-2.351956852022e+02
-2.351327795365e+02
-2.355793933321e+02
-2.364102986280e+02
-2.367852261978e+02
-2.352491524284e+02
-2.367730081076e+02
-2.362487348861e+02
-2.366441101123e+02
-2.371297368665e+02
-2.370780252632e+02
-1.220119472413e+02
-1.341175568238e+02
-1.461871631734e+02
-1.579884777372e+02
-1.700290437777e+02
-1.821921872635e+02
-1.941025992937e+02
-2.059408049473e+02
-2.181023406832e+02
-5.406474026558e+00
-1.103805859366e+02
-6.545155443730e+00
-1.240244635009e+01
-2.474248719802e+01
-3.666750061385e+01
-4.898835902779e+01
-6.136040184211e+01
-7.347966447716e+01
-8.560145222714e+01
-9.771690954446e+01
-4.816690448063e+00
-1.247069434904e+01
-2.449334681233e+01
-3.658180300792e+01
-4.870996768597e+01
-6.084392450537e+01
-7.298560359518e+01
-8.511620592408e+01
-9.719395911904e+01
-1.081187936639e+02
-1.089074345541e+02
-1.089115226259e+02
-1.087890611371e+02
-1.104806641393e+02
-1.090266241883e+02
-1.089793613173e+02
-1.091001181865e+02
-1.093452218535e+02
-1.093123113810e+02
-1.093550950393e+02
-1.093412423602e+02
-1.094770018390e+02
-1.097358531269e+02
-5.699045620505e+00
-6.318184508453e+00
-6.068876579294e+00
-5.869734372231e+00
-6.162519978805e+00
-6.210731614104e+00
-6.038579776962e+00
-5.866739063622e+00
-5.732462788409e+00
-5.642528844026e+00
-5.595817644542e+00
-5.863883839824e+00
-5.570202585230e+00
-5.028550048449e+00
-5.006244602951e+00
-5.077053448389e+00
-5.035487813976e+00
-4.799841802145e+00
-4.503660000827e+00
-4.680011831057e+00
-5.817608328607e+00
-6.095078087044e+00
-6.141876813900e+00
-6.159583184654e+00
-6.157237286253e+00
-6.140735140297e+00
-6.113873182741e+00
-6.078629219517e+00
-6.035828973213e+00
-5.985620464862e+00
-5.927804575096e+00
-5.862092423211e+00
-5.788323360477e+00
-5.706521852258e+00
-5.617099157367e+00
-5.520607062636e+00
-5.418526989889e+00
-5.311684394573e+00
-5.204426751204e+00
-5.096487166104e+00
-5.000553673616e+00
-4.904281925004e+00
-4.849268851739e+00
-4.796625857966e+00
-4.890844003708e+00
-4.629036768309e+00
-2.323824249114e+00
-1.044108338633e+01
-1.239593293353e+01
-1.157289779367e+01
-1.143819064855e+01
-1.146484674325e+01
-1.147230620764e+01
-1.152415334162e+01
-1.157726817668e+01
-1.164299150807e+01
-1.170955567528e+01
-1.177730432514e+01
-1.184266933522e+01
-1.190478788356e+01
-1.196230978789e+01
-1.201477799986e+01
-1.206191067145e+01
-1.210362570384e+01
-1.213982876451e+01
-1.217042689532e+01
-1.219521204871e+01
-1.221383711680e+01
-1.222600462185e+01
-1.223251773966e+01
-1.223978589122e+01
-1.228010578739e+01
-1.241447942470e+01
-2.302690755784e+01
-2.497342219712e+01
-2.420119802536e+01
-2.403953430875e+01
-2.403028207899e+01
-2.398967340844e+01
-2.399837746287e+01
-2.400637815361e+01
-2.403045822212e+01
-2.405686400135e+01
-2.408819452508e+01
-2.411982945368e+01
-2.415138450292e+01
-2.418146254370e+01
-2.420962977975e+01
-2.423515669620e+01
-2.425762070588e+01
-2.427681252384e+01
-2.429269611429e+01
-2.430560273666e+01
-2.431674431654e+01
-2.432976900688e+01
-2.435384312080e+01
-2.440189205771e+01
-2.447055772928e+01
-3.656712626908e+01
-3.653189361270e+01
-3.650986495032e+01
-3.649637529597e+01
-3.648719994665e+01
-3.647905473193e+01
-3.647025474008e+01
-3.646037786389e+01
-3.644929443800e+01
-3.643716521461e+01
-3.642451033882e+01
-3.641228468084e+01
-3.640230899715e+01
-3.639483905535e+01
-3.639255871722e+01
-3.639433877356e+01
-3.641115982518e+01
-3.643023594043e+01
-3.648914600842e+01
-3.652194880122e+01
-3.669411836397e+01
-3.745853879046e+01
-3.552460924946e+01
-4.785464728434e+01
-4.980448628095e+01
-4.905242155017e+01
-4.887093095863e+01
-4.883324575284e+01
-4.875361988550e+01
-4.872300660504e+01
-4.868896157032e+01
-4.867183021727e+01
-4.865854838149e+01
-4.865290009337e+01
-4.865056342797e+01
-4.865062147003e+01
-4.865175565028e+01
-4.865317988739e+01
-4.865502228285e+01
-4.865737984987e+01
-4.866109600298e+01
-4.866823667574e+01
-4.868059150484e+01
-4.869744142990e+01
-4.870793082790e+01
-6.083960834652e+01
-6.083036946254e+01
-6.082611090263e+01
-6.082489082276e+01
-6.082701960398e+01
-6.083079890236e+01
-6.083503575751e+01
-6.083967260848e+01
-6.084739560945e+01
-6.085651661580e+01
-6.086952824118e+01
-6.088752345446e+01
-6.090979946249e+01
-6.095024399419e+01
-6.099221831178e+01
-6.106985524765e+01
-6.111515097226e+01
-6.128779241720e+01
-6.204145219079e+01
-6.010040248890e+01
-7.224363484222e+01
-7.420272139377e+01
-7.348434870632e+01
-7.329967587171e+01
-7.325852059470e+01
-7.317418014451e+01
-7.314252115640e+01
-7.310947690048e+01
-7.307941856710e+01
-7.305756744435e+01
-7.304276076239e+01
-7.302812438030e+01
-7.301753917898e+01
-7.300443431014e+01
-7.299584065792e+01
-7.298774147589e+01
-7.298697806150e+01
-7.298695114856e+01
-7.298852445095e+01
-8.512384077071e+01
-8.512337587016e+01
-8.512708476980e+01
-8.514065429138e+01
-8.515978213258e+01
-8.517562044155e+01
-8.520278333528e+01
-8.521487252356e+01
-8.522857811070e+01
-8.526029784625e+01
-8.529932417304e+01
-8.534119283468e+01
-8.538622329995e+01
-8.540498524656e+01
-8.557977045900e+01
-8.634806103418e+01
-8.440417823632e+01
-9.646884808531e+01
-9.832650267441e+01
-9.764819732908e+01
-9.758717225818e+01
-9.754204373236e+01
-9.750290027272e+01
-9.742616412593e+01
-9.738970026820e+01
-9.743534389964e+01
-9.736748484534e+01
-9.734121957240e+01
-9.731902486034e+01
-9.730099673864e+01
-9.725672464085e+01
-9.730982077372e+01
-9.730270268810e+01
-6.237054113444e+00
-7.922271851107e+00
-1.991750399128e+01
-3.226011181860e+01
-4.431042406847e+01
-5.661055427468e+01
-6.869672204719e+01
-8.083700031204e+01
-9.293552818883e+01
-1.051120269810e+02
-1.950988661779e+01
-2.281042566672e+02
-1.082405238090e+01
-1.080631296756e+01
-2.299209670021e+02
-4.304102747104e+01
-1.266806075930e+02
-2.258274522710e+02
-6.614496346529e+01
-2.245242864282e+02
-9.081240801309e+01
-2.317334397630e+02
-1.017296343067e+01
-2.229887500907e+02
-1.153084486185e+02
-7.856999522046e+01
-1.598852872115e+02
-2.216636819708e+02
-2.213177368351e+02
-2.204225553004e+02
-2.195858864764e+02
-2.211429751527e+02
-1.206916341216e+02
-1.204384964296e+02
-1.211552326393e+02
-1.641165918265e+02
-2.313300759859e+02
-1.030902617104e+01
-1.052831922876e+01
-1.983455227378e+02
-1.195941449523e+02
-4.156166276003e+01
-2.195044859938e+02
-2.259972606154e+02
-2.236737606946e+02
-2.262225949242e+02
-2.292524143374e+02
-1.129468506091e+01
-1.201543047401e+02
-2.285660458179e+02
-1.878043937402e+02
-1.085623193918e+01
-1.020017279603e+02
-2.220907937625e+02
-5.549901480382e+01
-3.107415777489e+01
-7.848568139233e+01
-1.029345649623e+02
-1.075235161857e+01
-1.411686328742e+02
-2.334542403559e+02
-1.000984493899e+01
-2.113452929202e+02
-1.210523394754e+02
-1.260857372965e+02
-1.317836388112e+02
-1.375952569687e+02
-1.438475445835e+02
-1.491046162924e+02
-1.429151368086e+02
-1.544533932341e+02
-1.481774514416e+02
-1.555477148284e+02
-1.597737311883e+02
-1.534667327558e+02
-1.650875600198e+02
-1.587814141247e+02
-1.472278549419e+02
-1.525319268439e+02
-1.410006978666e+02
-1.463103332884e+02
-1.578659471574e+02
-1.516445847653e+02
-1.400774136149e+02
-1.454150986878e+02
-1.338644480194e+02
-1.392183971722e+02
-1.276372587818e+02
-1.330275180847e+02
-1.446106270521e+02
-1.384277169305e+02
-1.268495038604e+02
-1.322636909343e+02
-1.206895652809e+02
-1.260995526060e+02
-1.376888870490e+02
-1.315398551185e+02
-1.199017863086e+02
-1.253923888784e+02
-1.137102854223e+02
-1.192762750150e+02
-1.075510577810e+02
-1.131308938445e+02
-1.248030583313e+02
-1.186775138727e+02
-1.069909665556e+02
-1.125195610452e+02
-1.242108712501e+02
-1.180164423755e+02
-1.297176874047e+02
-1.234907257967e+02
-1.118696709953e+02
-1.172886210333e+02
-1.289296311284e+02
-1.226541028954e+02
-1.110903127336e+02
-1.164162402380e+02
-1.280249586717e+02
-1.217293596037e+02
-1.101777609941e+02
-1.154428122278e+02
-1.271014965894e+02
-1.207106181444e+02
-1.091092799764e+02
-1.143035182019e+02
-1.260331096409e+02
-1.195235043071e+02
-1.313601152807e+02
-1.077706474554e+02
-1.129544993126e+02
-1.011510978428e+02
-1.063541043547e+02
-1.431363044159e+02
-9.452186897600e+01
-8.948747936324e+01
-9.973566223157e+01
-1.116492514263e+02
-8.786044443758e+01
-9.309136745094e+01
-8.118793838294e+01
-1.017431282745e+02
-1.632349694109e+02
-8.642881961590e+01
-7.449463922468e+01
-6.928699735049e+01
-6.259628069277e+01
-1.502636997727e+02
-1.619526019114e+02
-1.562740808174e+02
-1.683326279157e+02
-1.628760485387e+02
-6.778114761977e+01
-1.715338198958e+02
-1.737689353941e+02
-1.285578636634e+02
-1.152752422660e+02
-1.359570505946e+02
-9.835126814023e+01
-9.170385545640e+01
-1.036275316457e+02
-1.378884858384e+02
-1.432661058186e+02
-1.498168891962e+02
-1.552218422492e+02
-1.617969275428e+02
-1.672230405174e+02
-1.606122867824e+02
-1.726339369650e+02
-1.659915910765e+02
-1.738188262301e+02
-1.683338984313e+02
-1.780294077529e+02
-1.713606656013e+02
-1.834208770146e+02
-1.767229611702e+02
-1.646551159661e+02
-1.699833808858e+02
-1.579682462573e+02
-1.414754935477e+02
-1.477603728568e+02
-1.532841510335e+02
-1.596035340636e+02
-1.651419085297e+02
-1.714769048971e+02
-1.770124001277e+02
-1.706685051446e+02
-1.703637957912e+02
-1.008742010354e+02
-9.532044742779e+01
-8.927346442732e+01
-8.369105519635e+01
-7.772002255307e+01
-7.210690106537e+01
-6.619090800587e+01
-7.176777776491e+01
-6.029832761615e+01
-6.581491104846e+01
-5.439767954390e+01
-5.979389455334e+01
-1.500173721306e+02
-1.659104227157e+02
-1.778175534308e+02
-1.721560790188e+02
-5.740333393528e+01
-1.820868004349e+02
-1.803916201055e+02
-1.748128606392e+02
-1.825837277554e+02
-5.597783632885e+01
-6.058457399859e+01
-6.638872284998e+01
-1.747544896634e+02
-1.692986194390e+02
-1.869510459865e+02
-6.114801925293e+01
-1.846863886700e+02
-4.895519486897e+01
-1.753195367483e+02
-1.874318257578e+02
-1.540041305777e+02
-1.841453409094e+02
-1.783609155576e+02
-7.129713356986e+01
-6.517036785627e+01
-5.392990474603e+01
-5.944474913496e+01
-7.060449908656e+01
-6.433116662302e+01
-5.303732539815e+01
-5.797339421093e+01
-6.948109215188e+01
-6.304215070576e+01
-5.147726274049e+01
-5.647007305141e+01
-1.941769946985e+02
-4.317244401979e+01
-1.357153609537e+02
-1.924670646637e+02
-1.887962020086e+02
-1.812247765113e+02
-1.757747006603e+02
-1.637834339293e+02
-1.703177060477e+02
-1.823100076750e+02
-1.768586819113e+02
-1.648382931493e+02
-1.713865914965e+02
-1.593469828010e+02
-1.659084090370e+02
-1.779536883918e+02
-1.724986848920e+02
-1.604345631949e+02
-1.670283631173e+02
-1.549344796454e+02
-1.615127907221e+02
-1.736470428886e+02
-4.970126556196e+01
-1.761960663134e+02
-1.882313075817e+02
-9.727758871635e+01
-1.087791730170e+02
-1.155484555809e+02
-1.209517681808e+02
-1.680682600683e+02
-1.802389667751e+02
-5.488136367539e+01
-6.059635970819e+01
-1.866563807317e+02
-1.806818078331e+02
-1.685880494190e+02
-1.091123639625e+02
-1.036659992300e+02
-9.745859513051e+01
-9.180411993200e+01
-9.821838091533e+01
-8.544118600633e+01
-1.627139056765e+02
-1.845530571376e+02
-6.413417353840e+01
-5.232329012780e+01
-1.927944217602e+02
-1.642635574535e+02
-1.562164921350e+02
-1.616486971251e+02
-1.678858253978e+02
-1.733406460133e+02
-1.796038325316e+02
-1.850273106563e+02
-1.788354416467e+02
-1.904364266901e+02
-1.905413925055e+02
-1.558356414080e+02
-1.601909866907e+02
-7.468488263334e+01
-4.432161658152e+01
-4.451415030227e+01
-5.434447643986e+01
-6.630642905082e+01
-1.990766063108e+02
-1.913070218259e+02
-1.857791558500e+02
-8.645603569617e+01
-9.291102164010e+01
-1.961199107709e+02
-1.509977177787e+02
-1.528401132429e+02
-1.472691655137e+02
-4.154532571877e+01
-4.008867363643e+01
-1.888720119990e+02
-7.219823917422e+01
-6.645929879709e+01
-3.766936004015e+01
-3.206954875988e+01
-1.745506691487e+02
-1.866425776674e+02
-1.275739188911e+02
-1.329043398374e+02
-1.935361970043e+02
-4.984957593382e+01
-1.923771741156e+02
-1.697889867448e+02
-1.578478169719e+02
-1.141425099315e+02
-4.907431333468e+01
-4.350105769811e+01
-8.107113627514e+01
-6.161008963341e+01
-5.951202792796e+01
-2.056433130951e+02
-1.942490280859e+02
-1.843899383262e+02
-1.725754867067e+02
-1.962336770058e+02
-3.824208437295e+01
-2.047267697126e+02
-1.860611262477e+02
-1.970097814404e+02
-1.919580598895e+02
-7.807098994295e+01
-7.257724574877e+01
-6.087310037881e+01
-6.710564386600e+01
-1.366453208735e+02
-8.426579064129e+01
-1.294932525218e+02
-1.242423543341e+02
-1.180784161511e+02
-1.044662503033e+02
-9.924015095338e+01
-8.964325265337e+01
-1.421763867680e+02
-1.222573865712e+02
-1.526809882032e+02
-1.443720062386e+02
-1.899216026628e+02
-1.965850442275e+02
-1.483485764374e+02
-1.428336689127e+02
-4.555139436029e+01
-4.049745727389e+01
-1.367048224618e+02
-1.979030425116e+02
-1.930138874095e+02
-1.984360775770e+02
-1.920182097473e+02
-1.999518797536e+02
-9.480617363524e+01
-1.469577940569e+02
-3.736919265299e+01
-1.492720419869e+02
-3.385107696701e+01
-1.694149747698e+02
-1.982432491825e+02
-2.048831203718e+02
-2.022605740467e+02
-1.202132626999e+02
-1.547449530961e+02
-1.486343801889e+02
-1.129026874753e+02
-1.067873031166e+02
-1.118961611831e+02
-1.005913998258e+02
-8.622927828963e+01
-7.976274010170e+01
-2.038625562521e+02
-2.021170409749e+02
-2.033434227426e+02
-1.985599292686e+02
-2.080016151958e+02
-2.016570793780e+02
-7.110734978119e+01
-8.780611005298e+01
-2.008568633790e+02
-1.190042034439e+02
-2.098611222742e+02
-2.033994581305e+02
-2.638232614609e+01
-3.110770333390e+01
-1.989000482448e+02
-5.525156792548e+01
-6.126518333830e+01
-4.914734434388e+01
-2.231217155901e+02
-1.193027365988e+02
-2.104617288253e+02
-1.107874239455e+02
-2.047114363503e+02
-1.603699006945e+02
-1.027308544614e+02
-1.878586118792e+02
-1.924655487158e+02
-2.056344621172e+02
-1.408102430846e+02
-1.348297807117e+02
-1.460095502045e+02
-4.334302523497e+01
-3.102109839034e+01
-1.911023296664e+02
-8.504510945884e+01
-9.146939132927e+01
-5.465317790937e+01
-6.636651334849e+01
-1.342045972892e+02
-1.289032582389e+02
-1.748702574192e+02
-1.810701706747e+02
-1.624249262315e+02
-1.633800988903e+02
-1.514556989603e+02
-1.460364555167e+02
-2.016114492090e+02
-2.096083420669e+02
-9.255187910023e+01
-8.734624850664e+01
-9.121433772645e+01
-2.062016490293e+02
-2.168933401765e+02
-2.114272691845e+02
-2.895805641444e+01
-3.534289197846e+01
-3.753639653689e+01
-3.245060831204e+01
-2.035259553394e+02
-1.974904114293e+02
-2.109896095821e+02
-6.357683371818e+01
-1.783064370101e+02
-2.115580846186e+02
-2.059450039456e+02
-2.188117520159e+02
-1.964191389604e+02
-2.078641320145e+02
-2.078312309897e+02
-2.139542391667e+01
-2.014688736746e+02
-1.356691407239e+02
-1.739270700198e+01
-1.302432759533e+02
-1.371684842774e+02
-1.239963112589e+02
-5.188387480467e+01
-1.321518540550e+02
-1.394630940359e+02
-2.203267764023e+01
-2.125505931105e+02
-2.278709103711e+01
-2.754514563072e+01
-2.155403492096e+02
-2.087933580746e+02
-2.205005648533e+02
-2.137129796716e+02
-2.020608634907e+02
-2.076574317490e+02
-1.288069802170e+02
-2.210326704397e+02
-2.134026463107e+02
-2.267707164032e+02
-9.571540413943e+01
-7.317204737636e+01
-6.766651642736e+01
-5.548476089548e+01
-2.116069223592e+02
-2.041095986802e+02
-1.918404462519e+02
-1.795916470783e+02
-1.308150813919e+02
-1.301743531540e+02
-1.411575061202e+02
-1.396732909127e+02
-1.506968706892e+02
-1.490537477435e+02
-1.602999136349e+02
-2.140999131534e+02
-4.327534031285e+01
-1.078342163706e+02
-2.133953932213e+02
-2.062566264569e+02
-9.411892795711e+01
-8.299001992658e+01
-2.182754988922e+02
-8.976018975162e+01
-2.193833173114e+02
-9.388480823494e+00
-1.899111633158e+01
-9.604231534859e+01
-1.056229814956e+02
-7.964178769599e+01
-7.493176721400e+01
-1.755263607598e+02
-3.084405706407e+01
-4.327490205591e+01
-1.617001220040e+02
-3.152410535840e+01
-1.860344373146e+02
-9.565203233193e+01
-1.160481406734e+02
-5.487957245273e+01
-7.906957571145e+01
-1.419209382440e+02
-1.314129899022e+02
-1.252545072755e+02
-1.013970805710e+02
-8.137776708116e+01
-6.872767148443e+01
-1.347654828027e+02
-1.856197496238e+02
-1.909820905757e+02
-2.024249770705e+02
-1.963273232171e+02
-1.846241495190e+02
-1.899971026329e+02
-2.016666027390e+02
-1.957371684008e+02
-2.093800909721e+02
-2.010006376615e+02
-1.888952867330e+02
-1.939340256040e+02
-2.050921216323e+02
-1.821491660724e+02
-2.194897313997e+02
-1.080521588679e+02
-2.669211533156e+01
-2.322894338483e+01
-1.223265439557e+02
-2.210874277874e+02
-2.211039466547e+02
-7.797834055109e+01
-2.231778649063e+02
-1.304375002873e+02
-5.475610604354e+01
-2.240997575449e+02
-1.792021624159e+02
-1.726867336824e+02
-1.673148887165e+02
-2.215406325727e+02
-1.516382879190e+02
-2.263021824675e+02
-1.540230641102e+02
-1.483031026379e+02
-1.365068752091e+02
-1.834786517027e+02
-2.275290502825e+02
-2.179226866759e+02
-2.183340352309e+02
-2.072974506381e+02
-2.285680009973e+02
-2.227485101973e+02
-2.233216271548e+02
-7.583236880740e+01
-8.211014299145e+01
-9.356067301551e+01
-8.825520203751e+01
-7.673173299973e+01
-8.282944058114e+01
-9.430098757686e+01
-7.730460101075e+01
-1.928044645299e+02
-2.297286200350e+02
-1.563198365895e+02
-1.507267297694e+02
-1.388704656830e+02
-1.169684861592e+02
-1.235856877784e+02
-1.355098656812e+02
-1.103082524775e+02
-1.670898554040e+02
-2.299476323411e+02
-1.524091625271e+02
-1.182459124558e+02
-1.204429487235e+02
-1.310695239957e+02
-1.313385162431e+02
-1.427547033990e+02
-1.320917757580e+02
-1.395015052033e+02
-1.447895150927e+02
-1.382400897540e+02
-1.500749625538e+02
-1.432640966913e+02
-1.323044831039e+02
-1.551479941596e+02
-1.474914544515e+02
-1.202006915912e+02
-1.136749867037e+01
-2.091203280214e+01
-2.069238610082e+01
-3.002978280202e+01
-3.057830495070e+01
-4.085904599734e+01
-3.924225115361e+01
-2.086310767866e+01
-1.111135087231e+01
-2.062866464032e+01
-1.092711346457e+01
-2.032044424480e+01
-3.149866007173e+01
-4.748878115409e+01
-2.298141364697e+02
-1.138838415332e+02
-1.080509583390e+02
-9.658096862235e+01
-1.027487492335e+02
-1.186074883598e+02
-9.022435834290e+01
-8.594252115902e+01
-1.046917238832e+01
-2.032851188786e+01
-1.934363942448e+01
-3.039202559526e+01
-3.026695516520e+01
-2.057879879383e+01
-2.059347536061e+01
-1.049205748547e+01
-2.054213672499e+01
-3.078321179931e+01
-1.023309278812e+01
-1.762301535952e+02
-1.827715294711e+02
-2.298326709588e+02
-1.214267763542e+02
-1.090477526636e+01
-2.184867632743e+02
-2.205719303204e+02
-2.207777311833e+02
-2.108319426580e+02
-2.169336895774e+02
-2.187785783299e+02
-7.596829121302e+01
-2.077609918968e+02
-1.976879296561e+02
-4.923630569658e+01
-7.318952938716e+01
-1.739778661352e+02
-1.593452874197e+02
-1.994662586857e+02
-1.632751008519e+02
-1.888109251105e+02
-2.179777245812e+02
-4.795512454230e+01
-1.538110519507e+02
-1.494064523946e+02
-1.791047340102e+02
-7.970211731175e+01
-1.267479440437e+02
-5.074595838315e+01
-2.143925339574e+02
-1.232960667604e+02
-1.324919849789e+02
-1.050184588110e+02
-8.272875633179e+01
-6.819096531931e+01
-1.144640447690e+02
-1.248120395075e+02
-1.792594167502e+02
-1.857079586439e+02
-1.189049291597e+01
-1.858688365543e+02
-1.486366975975e+02
-1.582890564800e+02
-1.833495259301e+02
-4.691662440438e+01
-1.834085419815e+02
-2.042954447786e+02
-1.451142802158e+02
-3.896352504159e+01
-1.414972184554e+02
-2.111426623081e+02
-1.801921422180e+02
-7.301635496753e+01
-1.351965475576e+02
-1.214399352404e+02
-1.091181465088e+02
-2.027575581926e+02
-1.369958727207e+02
-1.945490327374e+02
-1.587836950119e+02
-7.834050643722e+01
-1.967645183773e+02
-1.303965043357e+02
-1.954058646179e+02
-1.741158212114e+02
-1.063870870860e+02
-1.876706704199e+02
-1.333997916637e+02
-1.897393211150e+02
-1.170863245828e+02
-1.507960804453e+02
-1.640650919726e+02
-1.438433465569e+02
-1.673509783211e+02
-1.913263834596e+02
-4.847635761802e+01
-9.097994120516e+01
-1.573064412695e+02
-1.964011462438e+02
-2.072771908990e+02
-1.098541179191e+02
-1.900793067166e+02
-1.992862588512e+02
-1.301539199616e+02
-5.491128469456e+01
-3.828555060542e+01
-8.327006288403e+01
-1.308963904452e+02
-1.420685628478e+02
-2.102732791061e+02
-1.954753276604e+02
-1.813231981152e+02
-1.429331246291e+01
-1.140086456499e+02
-2.009074932101e+02
-1.406375192926e+02
-1.950579888490e+02
-1.361673844521e+02
-2.145172605523e+02
-8.940888585570e+01
-2.064884916839e+02
-1.819720466180e+02
-8.384281860931e+01
-1.196953564630e+02
-2.203332507804e+02
-1.941671257422e+02
-1.554406246707e+02
-1.343197847046e+02
-9.686993173900e+01
-1.474093458687e+02
-1.569965443599e+02
-2.215802180908e+02
-1.999808800154e+02
-1.607981958644e+02
-1.407997214776e+02
-1.662306935247e+02
-3.040698020088e+01
-1.018248071973e+02
-1.460799560247e+02
-8.880861102841e+01
-1.396996335671e+02
-2.137820758292e+02
-1.513761697532e+02
-1.003220647232e+02
-1.566616221800e+02
-8.469409129647e+01
-1.661956270086e+02
-1.619391559153e+02
-1.686372913416e+02
-3.178181148064e+01
-1.608745617375e+02
-2.042614769130e+02
-9.612564658839e+01
-1.451363126725e+02
-1.781024068677e+02
-7.232106679455e+01
-1.570225244888e+02
-1.803386211955e+02
-1.664400609035e+02
-1.425770394806e+02
-1.691052635884e+02
-7.683777147344e+01
-7.096991229699e+01
-5.929134008169e+01
-1.057533269399e+02
-1.866208654248e+02
-4.033673290749e+01
-1.768926460803e+02
-4.275311132167e+01
-9.966530032753e+01
-1.845185546436e+02
-1.528534699568e+02
-1.049479581361e+02
-6.679299678483e+01
-9.876193171502e+01
-1.543234433277e+02
-1.039581087392e+02
-9.765651241706e+01
-2.095241922141e+02
-1.027065577999e+02
-2.209197812837e+02
-2.306799716924e+02
-1.288916189221e+02
-5.936564319345e+01
-1.137014320247e+01
-6.451524854090e+01
-8.463861069620e+01
-1.756492056045e+02
-1.293903380133e+02
-7.792753240400e+01
-2.125697908322e+02
-2.253551152617e+02
-1.703618649448e+02
-2.000882208386e+02
-1.723967116812e+02
-1.988278887109e+02
-1.189168362194e+02
-2.023846952421e+01
-1.735918869779e+02
-4.684389851955e+01
-4.929240436879e+01
-3.723077783118e+01
-8.248329016051e+01
-2.986116528798e+01
-3.717030339480e+01
-2.167506522078e+02
-1.299555011502e+02
-1.902344354456e+02
-2.513742651574e+01
-2.106823698775e+02
-2.152488951279e+02
-2.312475136370e+02
-2.022471963631e+02
-2.600670106782e+01
-1.403608718067e+02
-2.138475012374e+02
-1.799277816325e+02
-2.322928711426e+02
-1.286480428962e+02
-2.111070771124e+02
-4.292037458553e+01
-2.112456294153e+02
-1.874176706726e+02
-1.442205255046e+02
-1.399244081177e+02
-2.226589418634e+02
-2.118872318481e+02
-2.145090984179e+01
-1.697622856649e+02
-1.028484634165e+02
-1.926967953923e+01
-2.203560893400e+02
-1.985688916533e+02
-2.217386368376e+02
-3.002480273758e+01
-1.902659632077e+01
-2.216722667538e+02
-2.143282255538e+02
-4.875902708470e+01
-2.228500155478e+02
-1.500607183249e+01
-1.177283948438e+02
-1.968877014950e+01
-2.322107215946e+02
-2.117214299358e+02
-1.133420955547e+02
-1.211998312141e+02
-7.485538864891e+01
-2.062484790350e+02
-2.812082325132e+01
-2.128069990749e+02
-2.215568753373e+02
-2.134950850014e+02
-2.294702965917e+02
-1.767367981931e+01
-2.178973170691e+02
-2.100035284493e+02
-1.187381780451e+02
-2.121478514448e+02
-9.209249957869e+01
-3.985572848791e+01
-2.222011582825e+02
-8.709961354722e+00
-1.179834933091e+02
-2.333605240925e+02
-3.810944156075e+01
-1.377873476295e+02
-2.146404027620e+02
-1.392067843958e+02
-1.919707985423e+02
-3.736712668359e+01
-1.002600761255e+01
-1.592143534754e+02
-2.177902291070e+02
-2.139247116399e+02
-1.508408720849e+02
-2.941380488469e+01
-2.076864704308e+02
-1.225028329322e+02
-2.066089326993e+02
-2.095253442855e+02
-8.199398622248e+00
-1.496924622626e+02
-1.848184275875e+01
-2.235334449301e+02
-1.276342127729e+02
-4.416781494156e+00
-6.162395246424e+00
-1.746370917954e+01
-1.881930777674e+01
-2.989862775247e+01
-3.017823990255e+01
-4.232838615522e+01
-4.298402087048e+01
-5.468264638931e+01
-5.443107896495e+01
-6.676786719402e+01
-6.725606141863e+01
-7.894288844886e+01
-7.871184402041e+01
-9.103652832826e+01
-9.154268419122e+01
-1.031608822406e+02
-1.028956342751e+02

SCALARS node_materi_stress_size_dev_sd_sig float
LOOKUP_TABLE default
3.893877360922e+00
8.245396375370e+01
1.791167686648e+02
1.703833581116e+02
9.869460939249e+00
1.946504878337e+01
2.814003827986e+01
3.795226316388e+01
4.742808230389e+01
5.663352440322e+01
6.587393349814e+01
7.512256118418e+01
8.432441462436e+01
9.364873654426e+01
1.032151167130e+02
1.122368685793e+02
1.204031624582e+02
1.295032068019e+02
1.387457292855e+02
1.476609775041e+02
1.566256291254e+02
1.656210632273e+02
1.741211763766e+02
1.708741424802e+02
1.704608153665e+02
1.705788086341e+02
1.705926678748e+02
1.702966895990e+02
1.705740842132e+02
1.706205653103e+02
1.705660957378e+02
1.708950468913e+02
1.709277125713e+02
1.706663144767e+02
1.709834525717e+02
1.711639893408e+02
1.711480215444e+02
1.710578080426e+02
1.709151846251e+02
1.709795374598e+02
1.713806734235e+02
1.717971574604e+02
1.721892391170e+02
1.723871520973e+02
1.725425289983e+02
1.728415238255e+02
1.731285236201e+02
1.735626123853e+02
1.739981172416e+02
1.744835670326e+02
1.748564402059e+02
1.752101372464e+02
1.758801409390e+02
1.762077906075e+02
1.761028453270e+02
1.764550722416e+02
1.769475939108e+02
1.773173975894e+02
1.776740476599e+02
1.779650249867e+02
1.781174912263e+02
1.781758233388e+02
1.782338135050e+02
1.785524255736e+02
1.790691658439e+02
1.792927735743e+02
1.783395296806e+02
1.792888330314e+02
1.790348785448e+02
1.792870350775e+02
1.796153917555e+02
1.796094326287e+02
9.156679470324e+01
1.008606104543e+02
1.099723056533e+02
1.189354073344e+02
1.281166929154e+02
1.372567391701e+02
1.464146094618e+02
1.555013765581e+02
1.648152960561e+02
3.546896184681e+00
8.196650577598e+01
6.455777513849e+00
9.425908257465e+00
1.813360687244e+01
2.679902125741e+01
3.577988296714e+01
4.483052985375e+01
5.392056557955e+01
6.303573275209e+01
7.219153673933e+01
3.273610765124e+00
9.006194334574e+00
1.823957486920e+01
2.739046764219e+01
3.648080043538e+01
4.559206017062e+01
5.469295171089e+01
6.379788354296e+01
7.283336311594e+01
8.111489812116e+01
8.161671616878e+01
8.166242566086e+01
8.152244706239e+01
8.268711665500e+01
8.160326327658e+01
8.142869586486e+01
8.150275385298e+01
8.171729193984e+01
8.164661666366e+01
8.152407201019e+01
8.146319658865e+01
8.142242334843e+01
8.154505070263e+01
2.415151095140e+00
2.510720123461e+00
2.416506390531e+00
2.368035909244e+00
2.742556868416e+00
2.975235979160e+00
3.027168639916e+00
3.063481449002e+00
3.159616882849e+00
3.250857427168e+00
3.421986163887e+00
3.758546701296e+00
3.739986098995e+00
3.486363980874e+00
3.687048221042e+00
3.922059497206e+00
4.008683376441e+00
3.811155622984e+00
3.443660012043e+00
2.880189587753e+00
4.122229984646e+00
4.504335338887e+00
4.510581331679e+00
4.519957315415e+00
4.537163033601e+00
4.561708736809e+00
4.593630562495e+00
4.633088112625e+00
4.680424702918e+00
4.736224655096e+00
4.801315824904e+00
4.876611014463e+00
4.962853819434e+00
5.060365296848e+00
5.169185989857e+00
5.288555982219e+00
5.417706301628e+00
5.553402025330e+00
5.695484177155e+00
5.832782661494e+00
5.970932547560e+00
6.071453099951e+00
6.185918203285e+00
6.198725045037e+00
6.255233251160e+00
5.769694833982e+00
2.686488479973e+00
8.452018716097e+00
1.036157808378e+01
1.004161591346e+01
1.006069226671e+01
1.006984219958e+01
1.001409901095e+01
9.948921425590e+00
9.864763542572e+00
9.778616157775e+00
9.689027912528e+00
9.601698722030e+00
9.518009126363e+00
9.440129214023e+00
9.368878024183e+00
9.304970122615e+00
9.248373493762e+00
9.198662778051e+00
9.155301990980e+00
9.117849902052e+00
9.085841802203e+00
9.058584535771e+00
9.034797725231e+00
9.012122748004e+00
8.987833072831e+00
8.964018923663e+00
8.947057865468e+00
1.703482131306e+01
1.895849637455e+01
1.869380484660e+01
1.870427647018e+01
1.873200713020e+01
1.870884018327e+01
1.868869042096e+01
1.865215569057e+01
1.861174807380e+01
1.856715299061e+01
1.852247758316e+01
1.847922916206e+01
1.843932780714e+01
1.840322429555e+01
1.837052908695e+01
1.834072389944e+01
1.831346696979e+01
1.828818710396e+01
1.826393177367e+01
1.823928027968e+01
1.821270204552e+01
1.818400744052e+01
1.816035421971e+01
1.816507341232e+01
1.820881651763e+01
2.733428106275e+01
2.728401588494e+01
2.727951903326e+01
2.729357647007e+01
2.731366644013e+01
2.733366811955e+01
2.735152694367e+01
2.736729956541e+01
2.738202990133e+01
2.739638813907e+01
2.741066076335e+01
2.742459498871e+01
2.743952960745e+01
2.745627713293e+01
2.747481321422e+01
2.748931342883e+01
2.750198019871e+01
2.750123650181e+01
2.750247781243e+01
2.746673596701e+01
2.745610288339e+01
2.780373857614e+01
2.590530844928e+01
3.481632860627e+01
3.668792030784e+01
3.636087214365e+01
3.637069810608e+01
3.641103198112e+01
3.641653225763e+01
3.642603762689e+01
3.642413261253e+01
3.642612175787e+01
3.643161959607e+01
3.643772013061e+01
3.643954838126e+01
3.643908684971e+01
3.643735819597e+01
3.643357019966e+01
3.642624494970e+01
3.641535492830e+01
3.640435236337e+01
3.639839785630e+01
3.640550171365e+01
3.643207785723e+01
3.646694943150e+01
4.556697889401e+01
4.553125218015e+01
4.551178297175e+01
4.550569262629e+01
4.550614123575e+01
4.550939585753e+01
4.551067500520e+01
4.550482973049e+01
4.549510359357e+01
4.548650214792e+01
4.547618908117e+01
4.545907679656e+01
4.543193494145e+01
4.541442557449e+01
4.540465025443e+01
4.540927437005e+01
4.537275203273e+01
4.534526013919e+01
4.571966421631e+01
4.382316405413e+01
5.285405860355e+01
5.477347254576e+01
5.443884476234e+01
5.442427056642e+01
5.443096251624e+01
5.444382667355e+01
5.449335914191e+01
5.452447427717e+01
5.454487563365e+01
5.455526641686e+01
5.457443413245e+01
5.459885699404e+01
5.460526539778e+01
5.460773040730e+01
5.461336179322e+01
5.462244792972e+01
5.463800907771e+01
5.466951800763e+01
5.468910949277e+01
6.382620775477e+01
6.376304571000e+01
6.373644819544e+01
6.373277040381e+01
6.371034774294e+01
6.370579110240e+01
6.370095737985e+01
6.368067102882e+01
6.363254571358e+01
6.363127942765e+01
6.361821709212e+01
6.357878090254e+01
6.355004700077e+01
6.346945426214e+01
6.348975656311e+01
6.391817391635e+01
6.201220213603e+01
7.113643279283e+01
7.302414511776e+01
7.265247583816e+01
7.263979086818e+01
7.269548757993e+01
7.274354305321e+01
7.273441811610e+01
7.276018144585e+01
7.279325731424e+01
7.281196702728e+01
7.282095504238e+01
7.283363719108e+01
7.287809689146e+01
7.285433224776e+01
7.294589472442e+01
7.304268624276e+01
6.413836107966e+00
6.106031701238e+00
1.439803895145e+01
2.331746846340e+01
3.211699545022e+01
4.108519632736e+01
5.016261225796e+01
5.924737899980e+01
6.837060793544e+01
7.759578573179e+01
1.460209029203e+01
1.730017387213e+02
7.307370570837e+00
6.604909079204e+00
1.745512052770e+02
3.135819389483e+01
9.876368559015e+01
1.710811436015e+02
4.845854350935e+01
1.698059448076e+02
6.700173935392e+01
1.757656207708e+02
7.334227157280e+00
1.685001499186e+02
8.559887006059e+01
6.167961799373e+01
1.235983623320e+02
1.673619153205e+02
1.672242778026e+02
1.667304857077e+02
1.659741641905e+02
1.671902885944e+02
8.982361746716e+01
8.999728135853e+01
9.070262654109e+01
1.235566951481e+02
1.755551154666e+02
6.574624624880e+00
8.112973711472e+00
1.518274001852e+02
8.977209889531e+01
3.306427582175e+01
1.658155485398e+02
1.710732574679e+02
1.691033535959e+02
1.715427993254e+02
1.740046703825e+02
7.257174060360e+00
8.959878856024e+01
1.736414249598e+02
1.416844392231e+02
7.600967227007e+00
7.979688462262e+01
1.680532281336e+02
4.059083577019e+01
2.253036919895e+01
5.772553814279e+01
7.615621221056e+01
1.003082609144e+01
1.060850673700e+02
1.771230288322e+02
7.742007741581e+00
1.596179556756e+02
8.987338584248e+01
9.365500326922e+01
9.799862671660e+01
1.024359704232e+02
1.072113197408e+02
1.111936363446e+02
1.063982873348e+02
1.151972690306e+02
1.103632915819e+02
1.160739178565e+02
1.192314911253e+02
1.143717144792e+02
1.232884448018e+02
1.184401065581e+02
1.095813704473e+02
1.136562469047e+02
1.048096071878e+02
1.089086716083e+02
1.177926441702e+02
1.130667803511e+02
1.041864998394e+02
1.083725814390e+02
9.950948490594e+01
1.037411059941e+02
9.486277531150e+01
9.916373516722e+01
1.080510965219e+02
1.035305578753e+02
9.465020544570e+01
9.908255621189e+01
9.021340710548e+01
9.469620725375e+01
1.035570741608e+02
9.923185181601e+01
9.035985437167e+01
9.498110614569e+01
8.611206283728e+01
9.081714317859e+01
8.195741957810e+01
8.668329790644e+01
9.545173288056e+01
9.132066189688e+01
8.258883713243e+01
8.716705338292e+01
9.586894697867e+01
9.163594002724e+01
1.003240902660e+02
9.601281842054e+01
8.739114462303e+01
9.166247950410e+01
1.002958389073e+02
9.583508886542e+01
8.723639727049e+01
9.132263721644e+01
9.996359258773e+01
9.536145337284e+01
8.672131078881e+01
9.069144566461e+01
9.941524522564e+01
9.464300152837e+01
8.590632214748e+01
8.978937073083e+01
9.861990890021e+01
9.368199064798e+01
1.025867774666e+02
8.477940667234e+01
8.864919655645e+01
7.965139276935e+01
8.354635701270e+01
1.080674104527e+02
7.447124562273e+01
7.068904686891e+01
7.839687843889e+01
8.751682046938e+01
6.924723874108e+01
7.320567199192e+01
6.400787594425e+01
7.702167026677e+01
1.219917640927e+02
6.799489563229e+01
5.875750491931e+01
5.475517912792e+01
4.946539881770e+01
1.120533658409e+02
1.210661881103e+02
1.167734921572e+02
1.260541353305e+02
1.219196580739e+02
5.346760411472e+01
1.282551695228e+02
1.301642175443e+02
9.537034583416e+01
8.577583759514e+01
1.046132479934e+02
7.718166832902e+01
7.200236397936e+01
8.120889070215e+01
1.074872982893e+02
1.114858972287e+02
1.163562719822e+02
1.203654997908e+02
1.252127707503e+02
1.292245736709e+02
1.243462777621e+02
1.332060084115e+02
1.283028838045e+02
1.340498589054e+02
1.299926327603e+02
1.371539870381e+02
1.322354518476e+02
1.410742805877e+02
1.361450946651e+02
1.272632049993e+02
1.311621682025e+02
1.222837466602e+02
1.090542296990e+02
1.134037567718e+02
1.178201442368e+02
1.222248104607e+02
1.266170879058e+02
1.310680095798e+02
1.354191030077e+02
1.309422140767e+02
1.273661535011e+02
7.850692277156e+01
7.387912336790e+01
6.989481509902e+01
6.521884336040e+01
6.133571534644e+01
5.661752652807e+01
5.281340461965e+01
5.733322324483e+01
4.881190670537e+01
5.310240345506e+01
4.448655681133e+01
4.855488505098e+01
1.124183706035e+02
1.266298005896e+02
1.355286329608e+02
1.310002236901e+02
4.546611947799e+01
1.400377194300e+02
1.388239026090e+02
1.346921326885e+02
1.397396021621e+02
4.424352171028e+01
4.808683353088e+01
5.165138861781e+01
1.310578878439e+02
1.269126309739e+02
1.435536265271e+02
4.823762505171e+01
1.420362680421e+02
4.030272374745e+01
1.350475259391e+02
1.439130438764e+02
1.194296949289e+02
1.399897886486e+02
1.353637310318e+02
5.730673259099e+01
5.263995118684e+01
4.392179020573e+01
4.802169689395e+01
5.673949880567e+01
5.170269317943e+01
4.273984174985e+01
4.652522313545e+01
5.559138440666e+01
5.039563951177e+01
4.114094330115e+01
4.506354072956e+01
1.488547038078e+02
3.576905649691e+01
1.007878358870e+02
1.476179963060e+02
1.441466072492e+02
1.360907652537e+02
1.319568306529e+02
1.227532402595e+02
1.278518189878e+02
1.370641668535e+02
1.329458558975e+02
1.237411078147e+02
1.288020032782e+02
1.195901202488e+02
1.246578081570e+02
1.338724854406e+02
1.297470409014e+02
1.205507963151e+02
1.256191584041e+02
1.164235484912e+02
1.214250006393e+02
1.306942332353e+02
3.921370999728e+01
1.352201538986e+02
1.440803027869e+02
7.632928026087e+01
8.512262606271e+01
9.033988560718e+01
9.437388956393e+01
1.264462114560e+02
1.358061799980e+02
4.306072517112e+01
4.647493854150e+01
1.402345597331e+02
1.389613320943e+02
1.300715510737e+02
8.133949763659e+01
7.688411954309e+01
7.240084990312e+01
6.781121666589e+01
7.253724745430e+01
6.318771329769e+01
1.258090309948e+02
1.389786217580e+02
5.079539136225e+01
4.149659227725e+01
1.478342975505e+02
1.264277433465e+02
1.169622739074e+02
1.213406703791e+02
1.259350411143e+02
1.303154068363e+02
1.349646372674e+02
1.393165181559e+02
1.347504017689e+02
1.444309835330e+02
1.437515985722e+02
1.170449316481e+02
1.220232979027e+02
5.953076485729e+01
3.515417451901e+01
3.554773116755e+01
4.289951898450e+01
5.222838995356e+01
1.523587415879e+02
1.440190680667e+02
1.396098151257e+02
6.358897041945e+01
6.839410662687e+01
1.489102540495e+02
1.127411998136e+02
1.145635637010e+02
1.103798588708e+02
3.279847040416e+01
3.192878330623e+01
1.421760418510e+02
5.524523401122e+01
5.015052294114e+01
3.165341599232e+01
2.677343180837e+01
1.313583832764e+02
1.406371343756e+02
9.941566475756e+01
1.034430555019e+02
1.482675331791e+02
3.970035623932e+01
1.450537557339e+02
1.306861965892e+02
1.218855781076e+02
8.907790613021e+01
3.778009073243e+01
3.460471672132e+01
6.459251168699e+01
4.903220489263e+01
4.690697074163e+01
1.570555863233e+02
1.462415484398e+02
1.392304950248e+02
1.302140492565e+02
1.482126069727e+02
3.026657672447e+01
1.565254548287e+02
1.429269780737e+02
1.483934722944e+02
1.443053199994e+02
5.901250904245e+01
5.421354536414e+01
4.524598906066e+01
4.956836928175e+01
1.016065533657e+02
6.316226919688e+01
9.602846798304e+01
9.206212534284e+01
8.736375981409e+01
7.716837224964e+01
7.312325779516e+01
6.905392836042e+01
1.088821403445e+02
9.547220322286e+01
1.183823922717e+02
1.122980280368e+02
1.430654593581e+02
1.482466624556e+02
1.113620067192e+02
1.071400215459e+02
3.611248942374e+01
3.215920261807e+01
1.065594015768e+02
1.516194128578e+02
1.452120904190e+02
1.493770021424e+02
1.443285787592e+02
1.528268377826e+02
7.441129659057e+01
1.134044394170e+02
3.085931633435e+01
1.124066773383e+02
2.681439021272e+01
1.267056610329e+02
1.517697903557e+02
1.565908508354e+02
1.533178524367e+02
8.918727996856e+01
1.169053328062e+02
1.126121746286e+02
8.348020295607e+01
7.883631938246e+01
8.266903390789e+01
7.414964227994e+01
6.846935766319e+01
6.336822155318e+01
1.537535387927e+02
1.526241544268e+02
1.531881983255e+02
1.492212575846e+02
1.576873998240e+02
1.532062454804e+02
5.601941696420e+01
6.450953441664e+01
1.513188127418e+02
8.813123066031e+01
1.602732390788e+02
1.556145973699e+02
2.142926463914e+01
2.524007693252e+01
1.500653936551e+02
4.052619057215e+01
4.486131308885e+01
3.628727029402e+01
1.696868891980e+02
8.951714399226e+01
1.605356197295e+02
8.188619666978e+01
1.544721343461e+02
1.214980284612e+02
7.681175366748e+01
1.440559451694e+02
1.451103823294e+02
1.553507028878e+02
1.053376677806e+02
1.009483851507e+02
1.092889587701e+02
3.585672715104e+01
2.652812981125e+01
1.440673583034e+02
6.686574168687e+01
7.191057839186e+01
4.345167191110e+01
5.268491041088e+01
1.044884013282e+02
1.005531480961e+02
1.309755053241e+02
1.357238747393e+02
1.215751505917e+02
1.261113305976e+02
1.173198879796e+02
1.131581906393e+02
1.521362136198e+02
1.583214066191e+02
7.339400569665e+01
6.948272718098e+01
7.220920451686e+01
1.554298830108e+02
1.652397856977e+02
1.613902392625e+02
2.288988093028e+01
2.812458885429e+01
2.915259345459e+01
2.642949456718e+01
1.533110356709e+02
1.485404991696e+02
1.591234989645e+02
5.008557761217e+01
1.348175974277e+02
1.612396082750e+02
1.571385237151e+02
1.665474928318e+02
1.487253360692e+02
1.574810340735e+02
1.571091740269e+02
1.754223258656e+01
1.520934765192e+02
1.017087559451e+02
1.309541866921e+01
9.756318588710e+01
1.029093416824e+02
9.291328880940e+01
4.094817460674e+01
9.872066093605e+01
1.042125171281e+02
1.714914866451e+01
1.603959298845e+02
1.804018238284e+01
2.178247076439e+01
1.642544472526e+02
1.594741516630e+02
1.678960039365e+02
1.630496799861e+02
1.546234598968e+02
1.586452709923e+02
9.649438624837e+01
1.682002339374e+02
1.627286890770e+02
1.724059656163e+02
7.053650164383e+01
5.390765464450e+01
4.952067981407e+01
4.044269023584e+01
1.594987497859e+02
1.535960080603e+02
1.471220524560e+02
1.381746008406e+02
9.820921058638e+01
9.773187786172e+01
1.060580791356e+02
1.049566029249e+02
1.133409211868e+02
1.120252202995e+02
1.205697911569e+02
1.618435925750e+02
3.149004511576e+01
7.971550512653e+01
1.619123072441e+02
1.568798949846e+02
6.925353752821e+01
6.096410650369e+01
1.663108386580e+02
6.791420447377e+01
1.657777639749e+02
6.722680837945e+00
1.619718455062e+01
7.215587788991e+01
7.792091132847e+01
5.851732014255e+01
5.481897842957e+01
1.350367471096e+02
2.435307335838e+01
3.248372441701e+01
1.215717514750e+02
2.359410480723e+01
1.428527083792e+02
7.296868410327e+01
8.599847375468e+01
4.131416063260e+01
5.870415274510e+01
1.055609844977e+02
9.771676628761e+01
9.296052587613e+01
7.787166179105e+01
5.968725348160e+01
5.027777677726e+01
1.000654342155e+02
1.393242119185e+02
1.434650430919e+02
1.523620137554e+02
1.475935249328e+02
1.384734154686e+02
1.425889183700e+02
1.517437050480e+02
1.469851327096e+02
1.577517596345e+02
1.511536173035e+02
1.417048086138e+02
1.457181359474e+02
1.544225486194e+02
1.364901601491e+02
1.663250067988e+02
8.132078763760e+01
2.255552574372e+01
2.046823054055e+01
9.068580128452e+01
1.670420886742e+02
1.670441058282e+02
6.031608459748e+01
1.686422838965e+02
9.682054459199e+01
4.435772104349e+01
1.694297023276e+02
1.342970048448e+02
1.292169109112e+02
1.251161053481e+02
1.673437652319e+02
1.135354784423e+02
1.713545414773e+02
1.177415263773e+02
1.130993532688e+02
1.042422806106e+02
1.374902395274e+02
1.725910313239e+02
1.656296572559e+02
1.659734563120e+02
1.579891420952e+02
1.734176448978e+02
1.682696051723e+02
1.687577343599e+02
6.065760121473e+01
6.553899198774e+01
7.420059874842e+01
7.015602461521e+01
6.146104428915e+01
6.598649830679e+01
7.456199079987e+01
6.170125528206e+01
1.447845283879e+02
1.743612732245e+02
1.211427137543e+02
1.169646303362e+02
1.081774983572e+02
9.151149962205e+01
9.658840049474e+01
1.055791981016e+02
8.638685142523e+01
1.257531553549e+02
1.745310456345e+02
1.176738360796e+02
9.259975734378e+01
8.976624864121e+01
9.768831550739e+01
9.779755944139e+01
1.063823624118e+02
9.852340638854e+01
1.084445679386e+02
1.123899562346e+02
1.074378691076e+02
1.163008907035e+02
1.111477220056e+02
1.028635851401e+02
1.200172595135e+02
1.143174604686e+02
8.969426953597e+01
7.219867411979e+00
1.596658015657e+01
1.568127975256e+01
2.382169602015e+01
2.455678308327e+01
3.287439306413e+01
3.178417513197e+01
1.604412689792e+01
7.224599037146e+00
1.572419963086e+01
7.239783813513e+00
1.551374824703e+01
2.492045382946e+01
3.772470776696e+01
1.745476240055e+02
8.894111415074e+01
8.455697536660e+01
7.562618235939e+01
8.046368327733e+01
9.263664966530e+01
7.072468660959e+01
6.741380108463e+01
8.152128203184e+00
1.631387474711e+01
1.552125677349e+01
2.439667380195e+01
2.410988502843e+01
1.635971337844e+01
1.635273793926e+01
7.980405126015e+00
1.626051797577e+01
2.446835893523e+01
7.602597343029e+00
1.327724701004e+02
1.378203867323e+02
1.745316264119e+02
9.076634389627e+01
7.561240618332e+00
1.652276009329e+02
1.667276442673e+02
1.668623637765e+02
1.608757417984e+02
1.652153517293e+02
1.655037305754e+02
6.002981334479e+01
1.564113671326e+02
1.491728835947e+02
3.968233071155e+01
5.813344497501e+01
1.340319953216e+02
1.233632843333e+02
1.527060055299e+02
1.261885017514e+02
1.449765404839e+02
1.658584028344e+02
3.779914810491e+01
1.154275297801e+02
1.122068253068e+02
1.348439271632e+02
6.277874504718e+01
9.873742103666e+01
4.023066191516e+01
1.618161436762e+02
9.131883658397e+01
1.034592009682e+02
8.237874011712e+01
6.535962105330e+01
5.433470875210e+01
8.579465331598e+01
9.762213620159e+01
1.380586173143e+02
1.399589204071e+02
8.721878629296e+00
1.428572345976e+02
1.154654324956e+02
1.186721327569e+02
1.399050926833e+02
3.755937905248e+01
1.380220967440e+02
1.540231095451e+02
1.084352447069e+02
3.091007129153e+01
1.061370237418e+02
1.610867713243e+02
1.351893256938e+02
5.749817936417e+01
1.046908930061e+02
9.027970253965e+01
8.074677264649e+01
1.531064624219e+02
1.037852295801e+02
1.485751838226e+02
1.221574805287e+02
6.161474244113e+01
1.508274523801e+02
1.000774494553e+02
1.472470791564e+02
1.305842257206e+02
8.300293179866e+01
1.411232788033e+02
1.040537880468e+02
1.444210016850e+02
8.662372055928e+01
1.126326048482e+02
1.225324382157e+02
1.079515237472e+02
1.291283006182e+02
1.468704547399e+02
3.984100384876e+01
6.780676434744e+01
1.177086587047e+02
1.481527476809e+02
1.563632740324e+02
8.141590486748e+01
1.459484868306e+02
1.501435683769e+02
1.015981111305e+02
4.339804427077e+01
3.157285200354e+01
6.586001686574e+01
9.959292290738e+01
1.105365342401e+02
1.585608856480e+02
1.498336687571e+02
1.393751200570e+02
1.190599083295e+01
8.438839930701e+01
1.537439813503e+02
1.089670542189e+02
1.485969032606e+02
1.057436584322e+02
1.619903713714e+02
6.575528160915e+01
1.578144387482e+02
1.396364978712e+02
6.404736222896e+01
8.979108950048e+01
1.677601293952e+02
1.485720599339e+02
1.168300072554e+02
1.044859178952e+02
7.150037981126e+01
1.144870264124e+02
1.172776617565e+02
1.674077941672e+02
1.527348683695e+02
1.200606637227e+02
1.095011133484e+02
1.262396915751e+02
2.411305674307e+01
7.513662803790e+01
1.134209905742e+02
7.026616492051e+01
1.086248989973e+02
1.619714164356e+02
1.173488553407e+02
7.881896137922e+01
1.212553027910e+02
6.230499701801e+01
1.241791027500e+02
1.251141984516e+02
1.262434795732e+02
2.525269322149e+01
1.212714381041e+02
1.560996932598e+02
7.589172536721e+01
1.127603055343e+02
1.333727710645e+02
5.304014653339e+01
1.215393207189e+02
1.352832456502e+02
1.257988330851e+02
1.084092765680e+02
1.304262592487e+02
5.633856215533e+01
5.621328784104e+01
4.705415878924e+01
8.309164099444e+01
1.400604251844e+02
3.203838430384e+01
1.323868659279e+02
3.393952796792e+01
7.870938723451e+01
1.397259873407e+02
1.149533567639e+02
8.275292536906e+01
5.260280049640e+01
7.813580429336e+01
1.172683605164e+02
8.204723123530e+01
7.721831101977e+01
1.583166844475e+02
8.099464393448e+01
1.669776522160e+02
1.750997123542e+02
9.679294618161e+01
4.353790942363e+01
7.282381148646e+00
4.698020547793e+01
6.704406079697e+01
1.314849216731e+02
9.711893386389e+01
6.172482419859e+01
1.602072639333e+02
1.705301658053e+02
1.282842990423e+02
1.525310192623e+02
1.305873935465e+02
1.501654544317e+02
8.904518704235e+01
1.551363587650e+01
1.337260300131e+02
3.420069224552e+01
3.582380301516e+01
2.727881738942e+01
6.491991325287e+01
2.355238433470e+01
2.692439412230e+01
1.646907448110e+02
9.709062946546e+01
1.438426141284e+02
1.824864557108e+01
1.590192689207e+02
1.629537572095e+02
1.755670908731e+02
1.529823264073e+02
2.062892838403e+01
1.046273115981e+02
1.614204801835e+02
1.355012167147e+02
1.761820515403e+02
9.589662401771e+01
1.595292815677e+02
3.519734400476e+01
1.596332500585e+02
1.406259159879e+02
1.082574141846e+02
1.041626791362e+02
1.693153158194e+02
1.598320103582e+02
1.859218701173e+01
1.277004489214e+02
8.059915570996e+01
1.458585891192e+01
1.678205932260e+02
1.493748153970e+02
1.688045175103e+02
2.400940193190e+01
1.474461307871e+01
1.687191399636e+02
1.616466723067e+02
3.948082119989e+01
1.684980579263e+02
1.354477271207e+01
8.798122815964e+01
1.538535363025e+01
1.761211254705e+02
1.599751146147e+02
8.854964392893e+01
9.004655144483e+01
5.889144763024e+01
1.557644998130e+02
2.203088960305e+01
1.608699545649e+02
1.685553962114e+02
1.611299793134e+02
1.739054982415e+02
1.416472797377e+01
1.649121278992e+02
1.600726747341e+02
8.902732153178e+01
1.599746321906e+02
7.224553895045e+01
3.147858089264e+01
1.679325996153e+02
6.607290480024e+00
8.858877301414e+01
1.769954413512e+02
3.007245457667e+01
1.034612651328e+02
1.618250248891e+02
1.081422099680e+02
1.448598598981e+02
2.973393643768e+01
5.693308789791e+00
1.197609436700e+02
1.650437840989e+02
1.615421517427e+02
1.133239992457e+02
2.496142722186e+01
1.564736271088e+02
9.536955726708e+01
1.558726500592e+02
1.595395589836e+02
6.957655149795e+00
1.160259441692e+02
1.437653281908e+01
1.701013696916e+02
9.938199077482e+01
4.301380372093e+00
4.015364110454e+00
1.305933991703e+01
1.385238044890e+01
2.183710684297e+01
2.253474131165e+01
3.074112872314e+01
3.217047856216e+01
3.971574866286e+01
4.076445188607e+01
4.879688670178e+01
5.038448034444e+01
5.790435579012e+01
5.899236479833e+01
6.702048220923e+01
6.861683322870e+01
7.621663341141e+01
7.727277835563e+01

SCALARS node_materi_strain_total_average_a_ept float
LOOKUP_TABLE default
3.381961986680e-05
1.684358987373e-03
2.746730570083e-03
3.047829691108e-03
1.033296078719e-04
2.451011593820e-04
3.802952876230e-04
5.316590116773e-04
6.776186911872e-04
8.226171948562e-04
9.667452912176e-04
1.110311029360e-03
1.253823924494e-03
1.397893072155e-03
1.544815725742e-03
1.688927295303e-03
1.819764151736e-03
1.961905519062e-03
2.107761373158e-03
2.248747151413e-03
2.390233762621e-03
2.532263765459e-03
2.669120553966e-03
3.055978065670e-03
3.047718493859e-03
3.049472773912e-03
3.048653189314e-03
3.043310345268e-03
3.047530923606e-03
3.048278170478e-03
3.043893949094e-03
3.047755921414e-03
3.045593108616e-03
3.038676454854e-03
3.040489842262e-03
3.040475902182e-03
3.034100881341e-03
3.028492172770e-03
3.018729523106e-03
3.012310997183e-03
3.011311757119e-03
3.007179279664e-03
3.002552242470e-03
2.993537158699e-03
2.982926136259e-03
2.972690258335e-03
2.961218895328e-03
2.950625995177e-03
2.940503055440e-03
2.928246200705e-03
2.916439667244e-03
2.901127280547e-03
2.892974814596e-03
2.877967633500e-03
2.857991802309e-03
2.844650584691e-03
2.835039063334e-03
2.824917955516e-03
2.813526905103e-03
2.806294796581e-03
2.793997847876e-03
2.785328869286e-03
2.773946749712e-03
2.769816011878e-03
2.772359634511e-03
2.771306220834e-03
2.746858148261e-03
2.760220535436e-03
2.749767765421e-03
2.751084522648e-03
2.755498404037e-03
2.753801590954e-03
1.829561800748e-03
1.971634876542e-03
2.113455111929e-03
2.252385859327e-03
2.394244399898e-03
2.537600704644e-03
2.678304700973e-03
2.818619400035e-03
2.962053861074e-03
2.531471026739e-05
1.667790493310e-03
3.508572534871e-04
5.290283788629e-04
6.687187441408e-04
8.043980561455e-04
9.442190820974e-04
1.086844373421e-03
1.228922547809e-03
1.372305632844e-03
1.516624071820e-03
4.489875649559e-04
5.422420994564e-04
6.861720077663e-04
8.289690581934e-04
9.712611447782e-04
1.113381741428e-03
1.255405796288e-03
1.397328493174e-03
1.538667891773e-03
1.666594898511e-03
1.675657789425e-03
1.675372485624e-03
1.673348321722e-03
1.692459725566e-03
1.674667999424e-03
1.672864002144e-03
1.673109846610e-03
1.674258148627e-03
1.671876997834e-03
1.670062108972e-03
1.667269537099e-03
1.665657175748e-03
1.665150237442e-03
3.241912563191e-06
-8.986445966943e-06
-1.055580363210e-05
-5.494306066531e-06
2.207615174986e-06
7.877788745830e-06
1.238769000750e-05
1.614741068164e-05
1.972618502899e-05
2.311123514173e-05
2.763810235956e-05
2.841199816313e-05
3.084594803341e-05
3.365687613467e-05
3.540278757866e-05
3.600894907316e-05
3.659541450675e-05
3.645313115056e-05
3.373905423124e-05
4.503022113110e-04
4.708444571668e-04
4.771567063572e-04
4.772627435175e-04
4.771959268718e-04
4.775392071625e-04
4.781829665731e-04
4.790436648589e-04
4.800834198591e-04
4.812903706687e-04
4.826668883743e-04
4.842235954541e-04
4.859736611038e-04
4.879260142001e-04
4.900817872597e-04
4.924358874648e-04
4.949726419306e-04
4.976699402868e-04
5.004760227533e-04
5.033651255505e-04
5.061517817307e-04
5.088329712917e-04
5.108155395553e-04
5.128060430773e-04
5.126340108891e-04
5.134003159455e-04
4.986172984957e-04
4.522275997823e-04
5.397273594225e-04
5.665825839670e-04
5.666482193892e-04
5.669791008823e-04
5.683452695151e-04
5.674994671805e-04
5.665630060777e-04
5.649572328115e-04
5.632910882423e-04
5.614833066502e-04
5.596990350217e-04
5.579574451391e-04
5.563151143229e-04
5.547875859837e-04
5.533932157261e-04
5.521365786165e-04
5.510164900868e-04
5.500282344281e-04
5.491703755888e-04
5.484454980005e-04
5.478601039454e-04
5.474201347878e-04
5.471089707577e-04
5.467902605668e-04
5.459361089153e-04
5.434901272522e-04
6.683482102435e-04
6.946076951895e-04
6.938532093822e-04
6.952731369852e-04
6.973497255174e-04
6.975848387167e-04
6.977445450096e-04
6.973028770185e-04
6.967292203389e-04
6.959611347033e-04
6.951500244055e-04
6.943069779647e-04
6.934832540433e-04
6.926964044287e-04
6.919639758219e-04
6.912902751602e-04
6.906792140133e-04
6.901348799985e-04
6.896607950591e-04
6.892575803524e-04
6.889136724954e-04
6.885816890023e-04
6.881380637135e-04
6.876209817528e-04
6.865534236413e-04
8.291142184248e-04
8.295929215966e-04
8.299532084622e-04
8.302385977252e-04
8.304763765197e-04
8.307049809125e-04
8.309427617685e-04
8.311975003760e-04
8.314671615783e-04
8.317452816329e-04
8.320233924124e-04
8.322915363757e-04
8.325414982599e-04
8.327335602696e-04
8.328410517656e-04
8.327687675254e-04
8.325433835616e-04
8.318566726326e-04
8.309908063461e-04
8.288555552393e-04
8.273070489734e-04
8.293674743647e-04
8.030420928501e-04
9.407144130739e-04
9.667384479184e-04
9.640614536338e-04
9.655652336523e-04
9.679202833897e-04
9.689950764102e-04
9.701171225589e-04
9.707673706023e-04
9.713037648343e-04
9.716456112751e-04
9.719019951042e-04
9.720672118736e-04
9.721663573483e-04
9.722108248543e-04
9.722107597625e-04
9.721780322927e-04
9.721138881718e-04
9.720145383921e-04
9.718750444302e-04
9.716897979851e-04
9.714546149490e-04
9.713132300953e-04
1.113402222132e-03
1.113468522943e-03
1.113554693223e-03
1.113600644892e-03
1.113602124842e-03
1.113539988240e-03
1.113400488431e-03
1.113174267941e-03
1.112880679716e-03
1.112479341205e-03
1.111968946341e-03
1.111324730334e-03
1.110488560238e-03
1.109568779763e-03
1.108282396417e-03
1.106955402186e-03
1.104615323699e-03
1.103128789875e-03
1.106439057771e-03
1.080333776410e-03
1.221269928830e-03
1.247411823724e-03
1.243961798606e-03
1.245186324848e-03
1.247554157814e-03
1.248877113431e-03
1.250419930455e-03
1.251593898833e-03
1.252518046746e-03
1.253301398574e-03
1.253967113542e-03
1.254466059589e-03
1.254866754043e-03
1.255103209242e-03
1.255276334779e-03
1.255347224977e-03
1.255414319328e-03
1.255436340194e-03
1.255437013781e-03
1.397431580768e-03
1.397379079349e-03
1.397256526818e-03
1.397138177939e-03
1.396972665220e-03
1.396627682149e-03
1.396255074916e-03
1.395525690852e-03
1.394605737224e-03
1.393655741266e-03
1.392524272920e-03
1.391100571230e-03
1.389338582986e-03
1.386783616277e-03
1.385626455719e-03
1.390044706992e-03
1.364132954251e-03
1.507066093632e-03
1.531856408644e-03
1.528032722557e-03
1.530317835809e-03
1.532311601874e-03
1.533990956446e-03
1.534893687511e-03
1.536005729277e-03
1.537769201108e-03
1.537976566516e-03
1.538523427098e-03
1.538861684185e-03
1.539163931600e-03
1.539034154982e-03
1.539909749540e-03
1.539909042714e-03
1.390067545506e-04
4.619516703724e-04
6.122693918181e-04
7.519556898510e-04
8.889211241807e-04
1.031223081086e-03
1.171814780759e-03
1.315045557323e-03
1.458799558344e-03
1.604381505843e-03
5.378843791361e-04
2.782807176146e-03
7.259881702836e-05
5.798420495715e-05
2.734192769413e-03
8.538764938134e-04
1.477041006913e-03
2.827322944216e-03
1.129472275586e-03
2.883650196403e-03
1.424372857141e-03
2.719380895963e-03
7.673868120213e-05
2.926528542887e-03
1.719902556361e-03
9.016978605964e-04
1.868437375239e-03
2.943784646164e-03
2.970977907376e-03
2.987141146287e-03
2.972166994984e-03
2.982291109166e-03
1.793191048023e-03
1.802401701884e-03
1.815712927509e-03
2.324583478391e-03
2.699307784061e-03
7.147713431764e-05
8.762157177236e-05
2.314563146362e-03
1.800345036065e-03
4.550918680948e-04
2.936420770596e-03
2.866483167702e-03
2.906620232005e-03
2.798256323871e-03
2.764503318056e-03
6.906911577143e-05
1.793971179078e-03
2.698008413483e-03
2.603824420204e-03
7.917015029962e-05
1.182963588987e-03
3.008496850433e-03
1.000478450202e-03
7.052226434419e-04
1.276763432056e-03
1.570386016909e-03
2.690852042736e-04
2.054438284972e-03
2.717711608905e-03
8.346836515695e-05
2.882561812026e-03
1.788968147050e-03
1.843210767571e-03
1.913806589280e-03
1.975285783277e-03
2.052443081556e-03
2.108083982348e-03
2.030904781918e-03
2.164078665086e-03
2.085234852373e-03
2.187798297382e-03
2.219139413180e-03
2.139150593933e-03
2.273479027881e-03
2.192658417952e-03
2.059690696386e-03
2.112242394563e-03
1.980171745308e-03
2.031870699184e-03
2.164453281572e-03
2.083168412499e-03
1.951144307804e-03
2.001538047032e-03
1.870317848796e-03
1.919869325542e-03
1.788861211300e-03
1.837778183031e-03
1.969312811450e-03
1.886347535243e-03
1.755292266531e-03
1.802992618075e-03
1.672232756055e-03
1.718797323599e-03
1.850603773441e-03
1.765704080418e-03
1.633127747296e-03
1.679885211228e-03
1.546265282748e-03
1.593319632330e-03
1.458324543026e-03
1.505076276618e-03
1.640716821752e-03
1.552524607984e-03
1.415376273786e-03
1.462984544772e-03
1.601124426272e-03
1.511837435245e-03
1.650666365585e-03
1.561857579015e-03
1.422739422862e-03
1.473254828446e-03
1.612680698376e-03
1.524329020921e-03
1.384739744419e-03
1.436754218083e-03
1.576573621180e-03
1.489641631134e-03
1.349647395831e-03
1.403365863270e-03
1.544089300393e-03
1.457811824013e-03
1.317184090052e-03
1.372071001183e-03
1.513555923091e-03
1.427763986193e-03
1.569855453098e-03
1.285516591800e-03
1.341999132956e-03
1.198743272192e-03
1.256635522675e-03
1.898463338203e-03
1.112838131082e-03
1.056058976268e-03
1.171885185379e-03
1.315855713389e-03
1.027435808889e-03
1.087616976327e-03
9.427773644610e-04
1.410102751787e-03
2.216435225458e-03
1.003905018506e-03
8.588037057733e-04
7.972192826491e-04
7.134658554805e-04
2.131083846497e-03
2.267485826648e-03
2.205755713924e-03
2.346709927672e-03
2.286866408110e-03
7.754112919793e-04
2.355702628866e-03
2.405758899262e-03
1.820694359358e-03
1.625374498784e-03
1.739346909702e-03
1.148183021886e-03
1.065380425939e-03
1.209022330006e-03
1.655392101386e-03
1.711665954108e-03
1.796968513856e-03
1.852962371315e-03
1.938030757219e-03
1.993747302127e-03
1.909294774357e-03
2.049783569357e-03
1.965966165719e-03
2.078531255144e-03
2.023194693815e-03
2.106122817146e-03
2.023002393987e-03
2.162958670624e-03
2.080431045006e-03
1.939901132357e-03
1.997848739927e-03
1.857486030678e-03
1.789388299728e-03
1.877716312457e-03
1.927978689882e-03
2.016016973837e-03
2.066501395985e-03
2.154202287777e-03
2.204565907005e-03
2.117375649958e-03
2.326638926308e-03
1.324664603206e-03
1.277972081706e-03
1.185855466664e-03
1.140388035330e-03
1.046219165089e-03
1.002535530511e-03
9.049749024434e-04
9.505703499459e-04
8.055162143780e-04
8.542568511621e-04
7.055229111016e-04
7.575701969526e-04
2.018463929434e-03
2.103831948719e-03
2.242043387721e-03
2.190739188925e-03
6.510932694540e-04
2.138365463013e-03
2.163587145533e-03
2.108106365010e-03
2.255850637223e-03
6.315897450249e-04
8.642728567105e-04
9.617510890996e-04
2.426226817627e-03
2.365882000647e-03
2.248945506937e-03
6.935652649554e-04
2.189616358028e-03
6.577601310150e-04
2.056336435790e-03
2.196516505571e-03
1.825414292641e-03
2.329754677968e-03
2.276984002069e-03
9.059473945535e-04
8.115476945556e-04
6.647681185402e-04
7.226781363827e-04
8.677153833181e-04
7.758292494300e-04
6.285884739011e-04
6.848903350767e-04
8.327062061753e-04
7.429900657052e-04
5.941852278467e-04
6.536348183931e-04
2.277838567361e-03
5.540471892760e-04
1.928029821175e-03
2.303131643248e-03
2.341088178268e-03
2.506168974578e-03
2.445324077308e-03
2.304439827864e-03
2.384013142006e-03
2.525261867888e-03
2.463550390166e-03
2.322119981750e-03
2.401333479137e-03
2.259811174280e-03
2.338782703697e-03
2.480657929024e-03
2.417979443376e-03
2.275995688472e-03
2.354920969161e-03
2.212677217155e-03
2.291124069656e-03
2.434044214519e-03
5.541935769534e-04
2.168718209310e-03
2.308411723972e-03
1.130455403452e-03
1.268735899976e-03
1.351965063138e-03
1.413934209767e-03
2.369192740920e-03
2.512781539643e-03
8.279928801426e-04
9.245082128423e-04
2.566408625271e-03
2.115671486405e-03
1.975124957724e-03
1.542586629367e-03
1.496353256947e-03
1.413396553519e-03
1.366033701906e-03
1.449582219549e-03
1.281836995504e-03
1.966778285150e-03
2.560177487228e-03
7.360395620117e-04
5.896292491709e-04
2.255513407846e-03
2.029644682417e-03
2.102066039172e-03
2.151875628657e-03
2.236345307006e-03
2.286660951231e-03
2.371985430532e-03
2.422138884218e-03
2.336986312274e-03
2.417164777862e-03
2.472839841779e-03
2.225194092305e-03
2.051965514204e-03
8.906899005725e-04
4.895363321407e-04
5.006216995942e-04
6.105740980555e-04
7.553874815490e-04
2.388513193497e-03
2.508313773996e-03
2.456243240947e-03
1.321559893850e-03
1.403783839091e-03
2.468397314348e-03
2.148152188166e-03
2.181345849787e-03
2.118285610968e-03
4.555813373451e-04
4.465222135243e-04
2.605307118703e-03
1.054790451563e-03
1.016030445035e-03
5.043360818899e-04
3.956143632361e-04
2.446404801804e-03
2.589127378790e-03
1.495305427670e-03
1.555903042135e-03
2.335179733236e-03
5.651149120228e-04
2.656097658944e-03
2.081916688575e-03
1.942086214115e-03
1.330655846017e-03
7.971065950996e-04
6.952594850564e-04
9.793890692029e-04
7.140831577209e-04
6.725617899116e-04
2.474433184845e-03
2.666328192566e-03
2.387730933442e-03
2.251111799617e-03
2.525161171662e-03
4.166181659453e-04
2.443714134832e-03
2.175607148037e-03
2.587940928806e-03
2.540203731973e-03
1.144105349105e-03
1.105604347267e-03
9.803655069310e-04
1.067815673038e-03
1.952839812068e-03
1.233389265123e-03
1.849422960358e-03
1.797785310388e-03
1.720626253480e-03
1.530421223076e-03
1.483880774822e-03
1.232035718554e-03
1.827425301445e-03
1.435150112979e-03
1.799558805874e-03
1.741023039069e-03
2.622024138316e-03
2.702449596417e-03
2.134051099770e-03
2.070588958421e-03
5.045970440745e-04
4.421313738110e-04
1.626846692106e-03
2.356712014243e-03
2.645510004467e-03
2.705825510885e-03
2.625493693496e-03
2.420275404197e-03
1.233494327992e-03
1.839844099146e-03
4.524413065185e-04
1.983027710490e-03
3.592160531506e-04
2.297841104340e-03
2.315838173749e-03
2.394289458956e-03
2.553854880589e-03
1.770959336218e-03
2.031885413180e-03
1.947145908716e-03
1.669867375756e-03
1.594304815643e-03
1.643207568487e-03
1.517368964116e-03
1.035336295329e-03
9.474255622051e-04
2.655184548438e-03
2.607463663220e-03
2.673847964172e-03
2.628620439996e-03
2.605593757683e-03
2.517961691116e-03
8.127113894159e-04
1.358880045048e-03
2.747160085641e-03
1.745403778150e-03
2.492946991233e-03
2.411997323642e-03
2.917729409455e-04
3.486774934311e-04
2.733898242631e-03
9.440165927393e-04
1.024966438155e-03
8.586192492680e-04
2.597230828767e-03
1.797570303857e-03
2.455724039743e-03
1.611492173489e-03
2.801899693277e-03
2.082687176738e-03
1.456082463241e-03
2.280461152198e-03
2.658313647981e-03
2.814116368316e-03
2.040683101612e-03
1.972691018347e-03
2.099089650653e-03
6.157364309830e-04
4.507686162298e-04
2.639034048829e-03
9.832305094327e-04
1.059122979026e-03
6.230569785043e-04
7.697511862588e-04
1.577312207903e-03
1.518182978974e-03
2.351148935164e-03
2.433425625482e-03
2.185376640437e-03
1.995346279966e-03
1.855134622898e-03
1.802931681491e-03
2.760523584371e-03
2.856513493459e-03
1.122770522359e-03
1.068082534083e-03
1.089615022418e-03
2.807939759890e-03
2.531879214244e-03
2.471218274654e-03
2.971329666931e-04
3.784790248490e-04
6.727267016663e-04
5.647486429357e-04
2.762040380343e-03
2.685194769077e-03
2.854552330327e-03
7.209440278820e-04
2.304269267635e-03
2.554027773645e-03
2.502007874219e-03
2.626032126556e-03
2.500389217617e-03
2.632740700830e-03
2.660516415832e-03
2.304795615291e-04
2.765514088507e-03
1.985477230293e-03
1.522499466617e-04
1.923131104824e-03
2.005138135270e-03
1.850789103837e-03
5.798366900574e-04
1.937420609663e-03
2.019807735699e-03
2.097353705348e-04
2.886434804077e-03
2.212730600597e-04
2.811502483637e-04
2.550951207168e-03
2.466505960465e-03
2.599887410468e-03
2.515580446452e-03
2.382865542206e-03
2.441545582911e-03
1.903713245355e-03
2.594398318849e-03
2.501943679029e-03
2.655333329292e-03
1.471370406304e-03
1.149874481366e-03
1.107589130045e-03
9.829535776782e-04
2.783527311495e-03
2.704927708011e-03
2.240678061109e-03
2.098945954001e-03
1.931330730541e-03
1.924590614904e-03
2.053284440331e-03
2.036505211414e-03
2.165816178033e-03
2.146920351348e-03
2.279016560831e-03
2.749861886045e-03
8.228308212077e-04
1.619460872695e-03
2.652772960159e-03
2.556832068593e-03
1.437330295163e-03
1.316117027099e-03
2.598119717748e-03
1.274736473909e-03
2.964751192813e-03
9.349686834343e-05
2.510812835302e-04
1.364153839872e-03
1.564234092251e-03
1.234346311683e-03
1.197652357473e-03
2.137367205926e-03
3.222468585467e-04
7.694403149146e-04
2.294769792619e-03
6.517129660856e-04
2.172557007512e-03
1.321727375215e-03
1.658929208848e-03
8.911667187265e-04
1.195770863825e-03
2.006430698232e-03
1.898937124453e-03
1.822673041651e-03
1.368638735690e-03
1.279446069505e-03
1.144919585974e-03
1.900420253893e-03
2.545095801083e-03
2.603101697289e-03
2.738340485119e-03
2.660039786240e-03
2.522117407873e-03
2.578884970942e-03
2.717303277491e-03
2.639213799473e-03
2.801122674547e-03
2.693297090729e-03
2.551095992644e-03
2.602087937783e-03
2.732547250593e-03
2.463776397748e-03
2.737387172097e-03
1.499030743292e-03
3.385128878948e-04
3.722331707245e-04
1.740340712087e-03
2.946312856119e-03
2.962156637051e-03
1.096435997276e-03
2.915000094676e-03
1.875214475492e-03
7.622636008259e-04
2.895509581636e-03
2.464280343148e-03
2.382171759425e-03
2.325031983615e-03
2.978424339136e-03
2.162191898687e-03
2.852426778407e-03
1.965541996724e-03
1.913863226951e-03
1.776786904337e-03
2.495186829593e-03
2.793135183472e-03
2.673533226415e-03
2.662832486372e-03
2.542880350821e-03
2.772062356131e-03
2.947077724405e-03
2.943027940093e-03
9.230710088092e-04
1.013943793401e-03
1.157070424739e-03
1.104278543351e-03
9.595115391047e-04
1.051533724382e-03
1.193835863379e-03
9.996733528900e-04
2.571034159171e-03
2.756294211558e-03
1.882283352903e-03
1.825643820363e-03
1.684953954274e-03
1.375570470205e-03
1.459154671333e-03
1.601331514401e-03
1.292112845836e-03
2.201366420313e-03
2.746068002161e-03
1.890676307361e-03
1.400140688643e-03
1.793951869950e-03
1.915263272386e-03
1.913745991472e-03
2.048476999138e-03
1.930847531376e-03
1.636707770695e-03
1.696382020825e-03
1.616957552003e-03
1.756341815312e-03
1.674588581314e-03
1.545162605627e-03
1.814110938450e-03
1.723251846995e-03
1.796960327598e-03
6.742711117415e-05
1.927890239847e-04
1.880645438936e-04
3.173583361328e-04
3.311811396552e-04
4.671431918767e-04
4.531510825152e-04
1.958305311467e-04
6.978103897465e-05
1.886597350990e-04
7.125319078394e-05
1.855109671512e-04
3.328677213064e-04
5.309456317953e-04
2.678103953167e-03
1.324852637567e-03
1.255766079159e-03
1.118592534548e-03
1.193186055092e-03
1.381760468933e-03
1.041836573265e-03
9.904692546194e-04
8.834750877729e-05
1.986357819592e-04
1.845412554051e-04
3.205150678019e-04
3.189481837131e-04
2.000381161741e-04
1.993843850709e-04
8.608142208322e-05
1.989903084132e-04
3.245931326673e-04
8.193644801427e-05
2.467248346248e-03
2.544478112903e-03
2.723140161659e-03
1.815847384322e-03
7.795592912163e-05
2.965152753989e-03
2.985880248881e-03
2.990102182079e-03
2.457560795116e-03
2.528189656986e-03
2.970071390288e-03
8.818081287269e-04
2.794773098696e-03
2.718128313356e-03
7.263900753097e-04
8.594442228324e-04
2.035583840590e-03
1.882626100142e-03
2.334830798239e-03
1.916060514681e-03
2.220277096393e-03
2.641940543832e-03
5.326714067148e-04
2.196671260477e-03
2.148803956024e-03
2.497271058233e-03
9.202246275974e-04
1.480793856517e-03
5.681887144635e-04
2.787533481577e-03
1.770920197744e-03
1.599425988236e-03
1.231886425003e-03
9.684163614047e-04
8.022329986183e-04
1.587425104440e-03
1.484760717738e-03
2.133901860768e-03
2.576419125196e-03
9.065733703295e-05
2.218285075136e-03
1.768329271233e-03
2.242790682661e-03
2.291889798540e-03
5.401724229261e-04
2.543030411122e-03
2.779451339882e-03
2.083054708183e-03
4.229476241627e-04
2.052310491701e-03
2.526217776284e-03
2.485980583318e-03
8.376572663393e-04
1.700989278593e-03
1.707261501325e-03
1.645156670227e-03
2.777113529786e-03
1.813102297633e-03
2.394675369437e-03
1.978622302486e-03
9.009110724231e-04
2.328761838251e-03
1.689760102187e-03
2.684765935906e-03
2.320482551805e-03
1.372973206978e-03
2.585687452689e-03
1.629800105703e-03
2.380109430440e-03
1.691960711011e-03
2.051867429920e-03
2.245114825344e-03
1.934734742235e-03
1.956711028279e-03
2.273381589124e-03
6.062787762068e-04
1.325840517515e-03
2.225478045722e-03
2.554653142176e-03
2.825351532037e-03
1.577994943011e-03
2.245415882792e-03
2.723325011704e-03
1.542788871902e-03
6.165087951013e-04
5.909743965475e-04
1.092907330724e-03
1.727404520312e-03
1.684477824260e-03
2.836355040131e-03
2.301899809501e-03
2.193865741431e-03
4.333939580449e-04
1.695058844774e-03
2.359326309111e-03
1.751821677633e-03
2.427330013084e-03
1.589742937116e-03
2.773076910092e-03
1.394490192856e-03
2.419038128571e-03
2.223920963360e-03
1.186914936304e-03
1.801907301689e-03
2.576596452424e-03
2.365158785544e-03
2.067430231793e-03
1.663912606643e-03
1.497328997203e-03
1.742237995740e-03
2.134092344806e-03
2.983644689257e-03
2.444177305448e-03
2.243575236682e-03
1.659423649337e-03
2.136371757046e-03
3.201207220622e-04
1.546120464723e-03
1.717758815905e-03
1.142486783807e-03
1.715933525318e-03
2.686893166596e-03
1.776671036091e-03
1.283241987474e-03
1.835819844532e-03
1.351218274067e-03
2.300292158477e-03
1.895177258651e-03
2.268296504042e-03
3.361340559223e-04
2.116232132784e-03
2.383396282153e-03
1.143309086113e-03
1.769574947665e-03
2.439246807166e-03
1.203413497741e-03
1.909956282381e-03
2.404205023755e-03
2.166825890315e-03
1.862436032809e-03
2.051659248082e-03
1.241084948857e-03
8.233849089117e-04
6.784141430277e-04
1.333833155935e-03
2.488344239915e-03
4.405688947555e-04
2.410591075171e-03
4.729299842201e-04
1.245387404067e-03
2.362626709947e-03
2.191716761875e-03
1.297291811797e-03
7.598541719757e-04
1.209817965494e-03
1.998431455148e-03
1.263424862693e-03
1.176906423971e-03
2.858053113335e-03
1.230925492893e-03
2.995475490848e-03
2.684661498590e-03
1.910118371483e-03
1.052951258524e-03
6.966119774298e-05
1.086341711343e-03
1.001820383585e-03
2.379414154978e-03
1.915812062548e-03
9.134673305072e-04
2.828745507188e-03
2.876465331809e-03
2.398003586296e-03
2.471761351465e-03
2.221942311082e-03
2.734512035988e-03
1.790513050142e-03
1.851424901435e-04
2.028185796739e-03
9.051897459926e-04
9.016635927161e-04
7.391443781260e-04
9.498078708631e-04
3.128750609719e-04
7.827638779152e-04
2.675637726037e-03
1.913945721615e-03
2.442438787553e-03
6.275889479927e-04
2.858298619183e-03
2.732493622266e-03
2.720168287900e-03
2.581674357936e-03
5.503133163803e-04
2.024501135984e-03
2.795605279629e-03
2.510144861556e-03
2.720576598102e-03
1.893985589320e-03
2.878721790094e-03
5.155640843230e-04
2.881290578146e-03
2.516794701301e-03
2.088541204633e-03
2.011294323999e-03
2.594231908257e-03
2.839238655886e-03
4.202996151171e-04
2.390251495082e-03
1.196115425023e-03
1.770669527183e-04
2.611563267952e-03
2.648385989612e-03
2.588372176495e-03
3.147345301679e-04
1.718802148531e-04
2.646970227557e-03
2.829069342381e-03
5.819890044596e-04
3.008468950515e-03
2.506072111305e-04
1.774372830318e-03
1.860363912042e-04
2.712086147101e-03
2.880134252505e-03
1.319703518311e-03
1.795052975738e-03
8.569607732983e-04
2.668142404242e-03
2.877973850275e-04
2.895757797721e-03
2.670287031295e-03
2.879617548534e-03
2.852346035063e-03
1.872720244013e-04
2.778851599324e-03
2.559588411418e-03
1.789663741876e-03
2.853299512062e-03
1.065130184896e-03
4.346609007812e-04
3.011222365341e-03
6.449161727711e-05
1.782197119496e-03
2.713720097023e-03
4.138392071035e-04
2.014474422715e-03
2.843564914558e-03
1.625078586472e-03
2.653380007359e-03
4.146750970738e-04
4.605812756939e-05
2.266579451427e-03
2.746119022773e-03
2.893496432219e-03
2.166789723743e-03
4.851962331109e-04
2.755455544239e-03
1.428814747182e-03
2.701417482481e-03
2.582646596528e-03
1.238241741498e-04
1.748700215244e-03
1.670886283382e-04
2.628556191651e-03
1.489028884858e-03
4.842658699471e-04
4.655632677695e-04
6.053236714652e-04
6.180718163922e-04
7.385474747369e-04
7.536492003222e-04
8.754332396338e-04
9.042553525098e-04
1.015348269888e-03
1.038257853435e-03
1.154938821034e-03
1.188506910095e-03
1.297266596218e-03
1.322353402462e-03
1.440212445392e-03
1.472590952761e-03
1.584257012643e-03
1.605455062943e-03

SCALARS node_materi_strain_total_size_dev_sd_ept float
LOOKUP_TABLE default
8.800977815437e-05
4.235959482440e-03
6.708385344534e-03
7.471078553622e-03
2.526563352641e-04
5.760982061782e-04
8.713393624739e-04
1.214690155846e-03
1.548281550232e-03
1.875006264108e-03
2.205439239902e-03
2.539714547868e-03
2.876710505126e-03
3.223357018164e-03
3.585449348637e-03
3.932520497649e-03
4.251487076749e-03
4.613280515323e-03
4.987812908180e-03
5.355670001949e-03
5.732454165891e-03
6.117788306138e-03
6.486629116873e-03
7.487484348585e-03
7.471741084436e-03
7.475550030491e-03
7.474846892880e-03
7.463159286727e-03
7.471433618529e-03
7.470808276235e-03
7.465154476443e-03
7.473137734432e-03
7.469259332936e-03
7.454950268756e-03
7.459043284042e-03
7.456851467058e-03
7.445812067493e-03
7.431500986453e-03
7.412236785425e-03
7.398914951041e-03
7.393723253606e-03
7.385867704467e-03
7.374545173218e-03
7.353394838936e-03
7.328413147214e-03
7.303918672143e-03
7.276191563809e-03
7.250599609477e-03
7.223178736017e-03
7.194381767038e-03
7.160760306977e-03
7.124608307570e-03
7.102138653610e-03
7.062703941293e-03
7.010659698881e-03
6.974536391082e-03
6.948889203840e-03
6.919778457972e-03
6.893971603568e-03
6.868183055503e-03
6.840780473636e-03
6.812264036526e-03
6.787924969471e-03
6.778650472564e-03
6.779882986664e-03
6.772617735224e-03
6.714271297972e-03
6.744743082202e-03
6.725010978251e-03
6.728568306161e-03
6.737110947516e-03
6.733903881450e-03
4.580953650631e-03
4.930725508633e-03
5.271220401776e-03
5.603805216501e-03
5.942094931480e-03
6.276620488906e-03
6.609542077271e-03
6.937663026237e-03
7.272758704436e-03
3.698732370552e-04
4.264332644045e-03
1.030942198179e-03
1.371263396815e-03
1.743115271040e-03
2.104731980148e-03
2.468540610371e-03
2.828231617601e-03
3.186814042862e-03
3.541678037248e-03
3.893346226010e-03
1.247244160572e-03
1.444040914091e-03
1.775769706494e-03
2.121684134662e-03
2.471642899422e-03
2.822634503858e-03
3.173528929662e-03
3.523365679758e-03
3.869507266607e-03
4.185349697151e-03
4.205698061027e-03
4.209297135320e-03
4.206252198258e-03
4.253174190707e-03
4.215247873901e-03
4.212223000116e-03
4.218460056975e-03
4.231017269997e-03
4.232601346435e-03
4.232188028960e-03
4.234110755105e-03
4.236335829499e-03
4.244381312748e-03
2.917224797187e-04
3.129009586141e-04
2.973089460475e-04
2.694042740295e-04
2.564901011571e-04
2.455874709426e-04
2.259130633987e-04
2.044445281220e-04
1.865449997740e-04
1.692925281947e-04
1.562623139864e-04
1.608509524070e-04
1.389856479107e-04
1.115055737013e-04
1.039775219431e-04
1.061492426760e-04
1.029782328799e-04
8.613444626358e-05
7.681016377864e-05
1.216205899580e-03
1.229642229699e-03
1.234033470345e-03
1.238012741852e-03
1.238457865335e-03
1.237326473617e-03
1.235104896483e-03
1.231992779154e-03
1.228093287808e-03
1.223455780063e-03
1.218097458498e-03
1.212020346195e-03
1.205222658334e-03
1.197711437835e-03
1.189505544907e-03
1.180659724034e-03
1.171230261939e-03
1.161366053358e-03
1.151134510316e-03
1.140948769575e-03
1.130645527399e-03
1.121342087707e-03
1.111756812595e-03
1.106036803555e-03
1.098284480467e-03
1.100127848935e-03
1.094064741861e-03
1.043206029244e-03
1.290106388441e-03
1.349684404924e-03
1.322805773322e-03
1.324431656782e-03
1.326753346460e-03
1.331158323852e-03
1.336595935802e-03
1.342939876537e-03
1.349793193518e-03
1.356864025762e-03
1.363902778274e-03
1.370752135645e-03
1.377287344379e-03
1.383421007798e-03
1.389093586765e-03
1.394262468660e-03
1.398893249454e-03
1.402959745306e-03
1.406441015989e-03
1.409315826320e-03
1.411564550423e-03
1.413188548842e-03
1.414241247277e-03
1.414724545032e-03
1.413624684440e-03
1.431122494080e-03
1.680688066711e-03
1.748173261719e-03
1.728498729702e-03
1.726379745415e-03
1.726330560684e-03
1.726528184402e-03
1.728477480131e-03
1.730979534007e-03
1.734051075611e-03
1.737398323141e-03
1.740910683713e-03
1.744452999068e-03
1.747942536519e-03
1.751288361332e-03
1.754399491618e-03
1.757208944573e-03
1.759681162939e-03
1.761800913274e-03
1.763578992272e-03
1.765068890264e-03
1.766388469672e-03
1.767673857586e-03
1.768941926467e-03
1.771378857849e-03
1.775011233547e-03
2.121899052038e-03
2.121220562293e-03
2.120544807806e-03
2.119735447852e-03
2.118873110272e-03
2.118005273525e-03
2.117075040265e-03
2.116022993621e-03
2.114834802951e-03
2.113512612847e-03
2.112076731852e-03
2.110556526818e-03
2.109071746977e-03
2.107754947210e-03
2.106734780692e-03
2.105951031518e-03
2.105670850360e-03
2.105645352344e-03
2.106633038571e-03
2.107312141910e-03
2.109874516565e-03
2.128626136341e-03
2.059569002628e-03
2.426694772126e-03
2.495456641058e-03
2.479746464293e-03
2.477602124591e-03
2.476572739659e-03
2.474612822502e-03
2.473377514300e-03
2.472182007366e-03
2.471532742123e-03
2.471321776104e-03
2.471351167531e-03
2.471377469657e-03
2.471443804821e-03
2.471566812638e-03
2.471710551752e-03
2.471825161520e-03
2.471907524752e-03
2.472019260183e-03
2.472131511353e-03
2.472171109870e-03
2.472008160249e-03
2.471644756087e-03
2.822591265788e-03
2.822932344330e-03
2.823380873155e-03
2.823939680479e-03
2.824539771081e-03
2.825241983615e-03
2.825994522862e-03
2.826663163012e-03
2.827388769410e-03
2.828382827162e-03
2.829557092128e-03
2.830718967360e-03
2.831725762024e-03
2.833346930291e-03
2.835544670875e-03
2.838567922816e-03
2.840185508489e-03
2.841789441128e-03
2.859010584261e-03
2.788391787777e-03
3.144597162678e-03
3.216253439351e-03
3.200577275934e-03
3.197117456640e-03
3.194076686702e-03
3.191198863770e-03
3.189802628336e-03
3.187792611751e-03
3.185602790512e-03
3.183321058670e-03
3.181678144173e-03
3.180485839823e-03
3.178858148222e-03
3.177319730619e-03
3.176028426738e-03
3.174934267134e-03
3.174051680218e-03
3.173835761729e-03
3.173697373619e-03
3.524868882205e-03
3.523881375037e-03
3.524499899457e-03
3.526173053367e-03
3.527384390130e-03
3.529518981286e-03
3.531849015597e-03
3.533983058794e-03
3.535228186985e-03
3.538531494578e-03
3.541717661487e-03
3.544109667034e-03
3.546969859876e-03
3.547587476122e-03
3.551429129582e-03
3.571077693689e-03
3.500807265171e-03
3.850413949533e-03
3.919589827072e-03
3.902342234871e-03
3.897813782258e-03
3.895730494535e-03
3.893259002411e-03
3.888912506394e-03
3.886117120111e-03
3.883682584363e-03
3.881038104607e-03
3.878432401195e-03
3.876220593558e-03
3.875606722310e-03
3.872753573948e-03
3.874734197863e-03
3.877828257179e-03
6.969263395572e-04
1.230639564445e-03
1.600617802440e-03
1.966297468140e-03
2.320656403081e-03
2.681249188802e-03
3.041209373413e-03
3.396141965579e-03
3.748285897343e-03
4.099386754089e-03
1.518747369655e-03
6.802631539207e-03
2.610038837778e-04
2.953955641566e-04
6.664204060037e-03
2.280774397288e-03
3.416176557311e-03
6.938892020325e-03
2.966550060415e-03
7.097404479315e-03
3.692035897499e-03
6.618829231847e-03
2.123664827247e-04
7.211323651091e-03
4.401524876269e-03
2.054979558882e-03
4.378362205059e-03
7.253038868323e-03
7.311327998124e-03
7.337470704628e-03
7.305123193897e-03
7.334327841902e-03
4.556169259295e-03
4.547795227863e-03
4.562483456014e-03
5.774653161831e-03
6.571773667178e-03
2.920940864052e-04
2.103788244586e-04
5.530766222161e-03
4.517500068304e-03
1.042813993932e-03
7.238415734561e-03
7.046010643463e-03
7.160683143692e-03
6.854808358094e-03
6.752588988904e-03
2.988667759405e-04
4.540939412063e-03
6.566767933854e-03
6.438017754987e-03
2.477747763224e-04
2.710188203105e-03
7.386716253120e-03
2.650698880580e-03
1.914775626721e-03
3.332508438598e-03
4.043631077121e-03
8.843838429189e-04
5.126520677190e-03
6.626351987436e-03
1.871253083669e-04
7.085478988378e-03
4.562802490315e-03
4.702023118925e-03
4.864071813598e-03
5.024425411012e-03
5.202631082481e-03
5.342937781709e-03
5.163689934214e-03
5.480012104413e-03
5.297764691404e-03
5.523403060159e-03
5.613220741286e-03
5.428018347969e-03
5.742035869602e-03
5.554560585180e-03
5.242407195013e-03
5.365854032104e-03
5.054411393670e-03
5.174664685216e-03
5.484960841586e-03
5.289744940019e-03
4.980145587524e-03
5.090702145963e-03
4.782686518819e-03
4.888367119946e-03
4.581000898057e-03
4.681625464462e-03
4.989121748566e-03
4.776603165618e-03
4.469987608532e-03
4.558609852297e-03
4.252643010035e-03
4.333488644560e-03
4.643231538691e-03
4.412069039416e-03
4.099253135589e-03
4.173285199510e-03
3.856508609710e-03
3.927083697225e-03
3.604454105347e-03
3.671270468321e-03
4.000483569764e-03
3.744152430519e-03
3.407751343506e-03
3.482510087065e-03
3.825384861541e-03
3.567819253425e-03
3.915517115727e-03
3.663336750713e-03
3.313643576244e-03
3.415701386480e-03
3.767369637130e-03
3.525364074719e-03
3.174656662840e-03
3.291504516471e-03
3.642996995658e-03
3.414752708794e-03
3.066257194090e-03
3.194874244968e-03
3.545065043604e-03
3.327614313558e-03
2.982024496755e-03
3.117338815483e-03
3.465262348894e-03
3.255737203706e-03
3.605777400946e-03
2.910682462623e-03
3.050974158159e-03
2.708365192203e-03
2.851220508248e-03
4.726695373034e-03
2.511724515578e-03
2.373412501153e-03
2.656093634553e-03
2.997931219112e-03
2.319137836769e-03
2.464445641601e-03
2.130582382806e-03
3.535722806760e-03
5.599915104065e-03
2.276027688656e-03
1.944729197407e-03
1.800486665931e-03
1.616445817111e-03
5.380593347784e-03
5.706064681423e-03
5.553013912475e-03
5.887470946384e-03
5.739903517793e-03
1.759343874446e-03
5.930449507554e-03
6.030818021168e-03
4.671717887522e-03
4.165729781200e-03
4.169283850651e-03
2.610930977495e-03
2.422642054853e-03
2.759664960216e-03
3.818794706895e-03
3.960131475715e-03
4.176199857050e-03
4.317951493936e-03
4.536731367747e-03
4.679133291728e-03
4.462194298965e-03
4.824266006870e-03
4.608707518365e-03
4.900148011600e-03
4.759497782317e-03
4.971603473060e-03
4.757301924229e-03
5.121262171694e-03
4.907744967781e-03
4.546012640356e-03
4.696738143522e-03
4.339306054409e-03
4.263791712214e-03
4.514501944780e-03
4.612606534579e-03
4.860542392805e-03
4.962392498723e-03
5.207624308401e-03
5.312780292870e-03
5.070284079165e-03
5.865925993482e-03
3.139818219208e-03
3.071838026657e-03
2.796693727658e-03
2.736873001079e-03
2.452478577727e-03
2.403030712034e-03
2.106193041405e-03
2.169421053893e-03
1.813036870401e-03
1.897577561241e-03
1.538490944436e-03
1.645709178781e-03
5.085519309450e-03
5.106931678682e-03
5.451570001543e-03
5.348292478170e-03
1.474246747294e-03
5.059953991255e-03
5.125145037217e-03
4.985235503246e-03
5.425220773605e-03
1.435714309250e-03
2.070936789063e-03
2.372299105664e-03
6.067913898338e-03
5.919984526987e-03
5.353922047629e-03
1.576658441785e-03
5.189956336735e-03
1.454696866344e-03
4.848950755426e-03
5.213608227838e-03
4.250016550354e-03
5.691790745162e-03
5.583903984238e-03
2.004276904191e-03
1.769967501417e-03
1.428891989902e-03
1.567367983758e-03
1.901986289751e-03
1.693057172092e-03
1.363227837598e-03
1.498428973572e-03
1.829973393725e-03
1.636946904144e-03
1.311613180436e-03
1.450440483400e-03
5.426794562979e-03
1.181749519145e-03
4.929659607189e-03
5.492922729880e-03
5.661991568060e-03
6.248444555357e-03
6.100917182202e-03
5.768581613812e-03
5.951816079691e-03
6.283166338123e-03
6.134235419339e-03
5.800541647809e-03
5.982553544676e-03
5.646274170674e-03
5.829307948252e-03
6.164532115774e-03
6.012645077446e-03
5.676076476566e-03
5.859589523628e-03
5.521247878458e-03
5.703277703171e-03
6.043061458957e-03
1.261537779296e-03
5.184918450025e-03
5.547306633231e-03
2.581234114840e-03
2.904499236922e-03
3.099567435557e-03
3.250906698190e-03
5.885754923683e-03
6.227663785295e-03
2.060782946033e-03
2.355442905701e-03
6.393280796507e-03
5.004508926472e-03
4.642799235419e-03
3.949677166268e-03
3.862889009869e-03
3.647527748181e-03
3.555333178282e-03
3.766992665085e-03
3.339237372762e-03
4.618820903950e-03
6.347313522364e-03
1.658655760910e-03
1.334847284644e-03
5.371735003131e-03
4.827447283881e-03
5.298806585395e-03
5.397326688659e-03
5.611562295606e-03
5.712145752715e-03
5.926896145587e-03
6.028740890219e-03
5.812333737511e-03
5.925880488087e-03
6.132475807671e-03
5.539678176580e-03
5.006308377634e-03
1.970421553303e-03
1.119206678806e-03
1.124994834972e-03
1.389618485813e-03
1.718233818729e-03
5.723564674317e-03
6.243623405434e-03
6.134795736123e-03
3.458794659592e-03
3.663519351894e-03
6.033552510580e-03
5.406045265047e-03
5.464259232587e-03
5.306336991555e-03
1.036181134574e-03
1.000587797856e-03
6.465195633635e-03
2.654671046933e-03
2.623162912888e-03
1.093365049640e-03
8.359476261672e-04
6.064153351085e-03
6.402075170971e-03
3.443203184306e-03
3.595638999077e-03
5.587065306696e-03
1.268740930165e-03
6.562802893634e-03
4.946687477336e-03
4.586885130593e-03
3.052275008714e-03
2.069639501383e-03
1.760640691409e-03
2.169903505168e-03
1.591036511534e-03
1.531101705488e-03
5.957840025839e-03
6.609494405118e-03
5.914235237653e-03
5.589856268271e-03
6.237760619335e-03
9.541867700301e-04
5.869381455761e-03
5.164294047050e-03
6.440020982785e-03
6.337172042862e-03
2.916660777744e-03
2.873625459377e-03
2.585405361875e-03
2.816678132816e-03
4.982776988908e-03
3.167893073793e-03
4.742919223506e-03
4.616183239898e-03
4.432384154474e-03
3.968957351217e-03
3.860068817727e-03
3.013717146439e-03
4.421402867998e-03
3.294658636244e-03
4.190018524995e-03
4.036635044731e-03
6.495665484634e-03
6.680242039313e-03
5.336666504912e-03
5.176750289546e-03
1.150552985988e-03
1.015893506528e-03
3.749345684308e-03
5.634696037055e-03
6.570799541240e-03
6.713263201252e-03
6.533288418618e-03
5.818495148671e-03
2.872637754368e-03
4.364967185653e-03
9.588279961833e-04
4.955360512744e-03
8.342782440492e-04
5.794473003391e-03
5.532929042753e-03
5.740542185487e-03
6.260723151209e-03
4.533304025583e-03
5.044137191115e-03
4.812175616371e-03
4.303908198080e-03
4.122950717786e-03
4.246321887236e-03
3.937829583279e-03
2.306302962599e-03
2.108170383723e-03
6.583972168340e-03
6.448668884593e-03
6.642008149002e-03
6.541596575177e-03
6.370160853111e-03
6.139609351909e-03
1.852865317425e-03
3.553065556021e-03
6.789737678882e-03
4.483494822067e-03
6.004414844620e-03
5.782052795364e-03
6.408558072280e-04
7.642835013705e-04
6.742894188459e-03
2.523600791587e-03
2.728945736773e-03
2.303532261421e-03
6.295607005629e-03
4.504401002782e-03
5.904723546906e-03
4.168373144513e-03
6.901852780093e-03
5.138189363616e-03
3.719272952688e-03
5.451750647646e-03
6.563305687886e-03
6.932680519206e-03
5.122348771522e-03
4.954968979165e-03
5.272317566053e-03
1.405174622439e-03
1.029680427509e-03
6.529399929539e-03
2.238118189593e-03
2.421305722769e-03
1.399425086645e-03
1.721433893177e-03
3.640328900234e-03
3.492009014381e-03
5.911238282890e-03
6.106480433706e-03
5.507457788166e-03
4.710582284235e-03
4.350660322301e-03
4.231282666098e-03
6.818825435430e-03
7.038414330826e-03
2.510581601775e-03
2.378576369303e-03
2.439308484902e-03
6.933020248047e-03
6.110754600137e-03
5.951745892997e-03
7.080165254299e-04
8.821330824751e-04
1.797203338764e-03
1.467482211442e-03
6.843608440961e-03
6.673728099950e-03
7.049433690246e-03
1.643482521658e-03
5.694431261379e-03
6.177612826641e-03
6.044299072121e-03
6.367072033803e-03
6.146646156148e-03
6.470511926918e-03
6.560105186374e-03
5.190859548077e-04
6.815085883501e-03
4.976640366105e-03
4.137793569775e-04
4.817863476798e-03
5.015789454064e-03
4.640094994696e-03
1.321659458929e-03
4.878823692681e-03
5.087224934520e-03
5.202398286757e-04
7.107910040792e-03
5.457227643426e-04
6.622537648711e-04
6.152707453317e-03
5.927214099080e-03
6.292713994092e-03
6.067073717608e-03
5.703533658013e-03
5.861871987310e-03
4.784551902799e-03
6.278013157287e-03
6.026966686214e-03
6.446641162033e-03
3.817284825618e-03
3.029937433207e-03
2.937065184566e-03
2.617965011749e-03
6.891411758006e-03
6.720689999153e-03
5.335813161552e-03
4.966774410894e-03
4.836856539116e-03
4.816378441162e-03
5.129140378584e-03
5.086197722552e-03
5.399208414933e-03
5.348766847658e-03
5.666005394080e-03
6.783614724920e-03
2.223149787239e-03
4.172772753478e-03
6.478978410552e-03
6.228807273530e-03
3.743856127563e-03
3.440555558244e-03
6.290452680146e-03
3.219249766015e-03
7.291649423190e-03
3.427151382713e-04
5.843391366505e-04
3.470132775311e-03
4.055361688928e-03
3.240143369303e-03
3.152406372456e-03
5.077803207199e-03
7.581426122592e-04
2.068257295798e-03
5.704815595806e-03
1.793748841894e-03
5.157292719260e-03
3.280211289886e-03
4.274553761634e-03
2.340589258500e-03
3.115693953407e-03
5.114420651833e-03
4.847690920125e-03
4.667611412993e-03
3.341867243393e-03
3.357635556300e-03
3.016103285542e-03
4.864050820519e-03
6.353423492914e-03
6.490808704786e-03
6.796239976220e-03
6.623622104425e-03
6.308983864761e-03
6.440598134622e-03
6.753059131867e-03
6.576967591415e-03
6.941370366493e-03
6.699804856494e-03
6.378901377068e-03
6.496337863442e-03
6.789511977097e-03
6.180979114637e-03
6.703604997653e-03
3.784531122364e-03
7.282703875441e-04
9.165130102777e-04
4.475587066717e-03
7.261180264784e-03
7.295006344298e-03
2.690288841216e-03
7.183174493606e-03
4.799917577677e-03
1.759003200973e-03
7.130444185102e-03
6.171349254987e-03
5.985307775913e-03
5.846883480632e-03
7.325552438825e-03
5.431622203445e-03
7.008622698122e-03
4.763409838974e-03
4.667421335575e-03
4.332099198143e-03
6.250845672056e-03
6.836311071062e-03
6.519008741739e-03
6.482190495281e-03
6.175254262281e-03
6.771427632363e-03
7.260080405869e-03
7.250086072300e-03
2.033802262875e-03
2.250061673214e-03
2.598124193886e-03
2.477334090008e-03
2.123781444004e-03
2.361986169861e-03
2.715539733355e-03
2.256622507943e-03
6.418996523616e-03
6.725884504630e-03
4.396417179208e-03
4.256759721737e-03
3.899315677912e-03
3.146459730377e-03
3.343816951830e-03
3.692263566498e-03
2.952125199731e-03
5.493385090387e-03
6.697087199070e-03
4.472510277285e-03
3.195990610099e-03
4.551442834806e-03
4.850033322696e-03
4.857023766804e-03
5.173548336971e-03
4.878168194349e-03
3.790559881020e-03
3.941561620696e-03
3.747897916173e-03
4.092644981632e-03
3.890406468312e-03
3.571400427820e-03
4.237290139501e-03
4.013315676229e-03
4.540988666721e-03
3.039069403107e-04
5.029469135551e-04
4.960229485284e-04
7.376560177218e-04
7.509033194942e-04
1.024086774747e-03
9.810947611832e-04
4.982385806715e-04
2.856116326317e-04
4.918655990089e-04
2.707900017656e-04
4.797634465356e-04
7.750484904505e-04
1.205137830879e-03
6.518883172076e-03
3.047684893086e-03
2.885036436016e-03
2.557668634547e-03
2.734501213355e-03
3.184901879790e-03
2.380097806560e-03
2.260493745577e-03
2.037706104982e-04
4.530830676959e-04
4.306054370433e-04
7.374198940057e-04
7.287148742060e-04
4.570540877805e-04
4.610788769841e-04
2.101425206436e-04
4.612094438277e-04
7.440272925542e-04
2.052597995957e-04
6.112991471231e-03
6.297434228555e-03
6.635105835417e-03
4.572199026790e-03
2.527395248535e-04
7.285282759822e-03
7.334376209081e-03
7.340886779586e-03
5.914117407257e-03
6.101898161896e-03
7.296061624646e-03
1.985983892228e-03
6.924347479749e-03
6.711956778659e-03
1.742996901110e-03
1.915073551738e-03
4.799995411441e-03
4.397470394681e-03
5.581291087695e-03
4.490586318307e-03
5.273262414925e-03
6.420012607189e-03
1.211951834151e-03
5.490135287614e-03
5.362661273671e-03
6.196012290763e-03
2.090118887079e-03
3.414730010179e-03
1.294037652579e-03
6.888198249755e-03
4.555012110487e-03
3.680072333026e-03
2.803306589545e-03
2.177166244872e-03
1.778428126317e-03
4.025823055792e-03
3.398299038449e-03
5.043576209676e-03
6.379836726542e-03
2.727597782586e-04
5.266198580922e-03
4.103954970073e-03
5.617774181076e-03
5.555278292153e-03
1.186129315137e-03
6.315642757746e-03
6.878014300688e-03
5.245979790268e-03
9.720418904351e-04
5.145378853858e-03
6.096676187786e-03
6.212411096500e-03
1.903582194120e-03
4.014053318823e-03
4.375611452055e-03
4.218155842371e-03
6.852977649845e-03
4.491021617205e-03
5.785122247402e-03
4.716868735697e-03
2.051664493441e-03
5.559076040815e-03
4.081618234516e-03
6.645630860819e-03
5.820754794404e-03
3.220753026701e-03
6.427829625019e-03
3.767266180130e-03
5.797019341648e-03
4.364292322711e-03
5.196721238686e-03
5.675893330645e-03
4.867367269127e-03
4.599970358328e-03
5.411724852665e-03
1.295420973356e-03
3.416669141165e-03
5.586230040898e-03
6.339134722753e-03
6.968715698286e-03
4.071344059419e-03
5.337319682567e-03
6.745637833445e-03
3.544301847045e-03
1.405842910778e-03
1.428840601624e-03
2.522583530867e-03
4.249421082542e-03
3.895531457285e-03
7.015268199722e-03
5.487588553611e-03
5.216024108567e-03
1.253589895520e-03
4.351406473687e-03
5.641981354606e-03
4.119644787904e-03
5.899206889273e-03
3.681514390209e-03
6.848147315445e-03
3.630146582651e-03
5.805138748148e-03
5.314460224331e-03
2.962502051761e-03
4.516165650935e-03
6.234049009279e-03
5.684819102421e-03
5.178741565055e-03
3.878097473442e-03
3.865575688066e-03
4.042849926020e-03
5.400002068156e-03
7.335420879375e-03
5.905742195309e-03
5.661080395231e-03
3.839584278178e-03
5.240915247889e-03
7.300693197371e-04
3.996434605925e-03
3.988336975455e-03
2.612028215514e-03
3.995915794853e-03
6.588087108971e-03
4.138906379870e-03
2.963907836301e-03
4.290222168400e-03
3.510843635802e-03
5.798925405909e-03
4.441016279316e-03
5.711215148364e-03
7.745412275650e-04
5.270350255987e-03
5.712896199574e-03
2.571749106986e-03
4.121680940301e-03
6.121218106066e-03
3.149231122412e-03
4.480445839215e-03
6.024805517835e-03
5.366035212576e-03
4.575517047564e-03
4.845532126958e-03
3.256211139752e-03
1.848163403862e-03
1.525937271131e-03
3.065576636609e-03
6.225720843847e-03
1.008680337807e-03
6.058703191556e-03
1.076448983405e-03
2.826722515171e-03
5.812875175497e-03
5.456764581482e-03
2.943971478038e-03
1.731731034487e-03
2.722286786531e-03
4.905210930194e-03
2.851049576235e-03
2.642636114234e-03
7.038768097018e-03
2.775480944754e-03
7.349398761252e-03
6.533627924617e-03
4.778394419319e-03
2.771677858676e-03
3.166400746822e-04
2.875055172983e-03
2.240790458618e-03
5.986219828015e-03
4.791748417437e-03
2.045191902407e-03
7.000691424767e-03
7.076658950090e-03
5.949247389755e-03
6.002531411175e-03
5.473709433628e-03
6.745428222732e-03
4.496421919606e-03
4.750531731266e-04
4.784382336064e-03
2.400477685562e-03
2.418252735169e-03
2.017700139870e-03
2.170124219751e-03
7.312274958489e-04
2.097649778093e-03
6.535034718984e-03
4.813620518757e-03
6.024456877423e-03
1.721973491933e-03
7.054303683029e-03
6.723552834008e-03
6.628122743032e-03
6.358191329653e-03
1.526649804777e-03
5.107131436531e-03
6.915918207136e-03
6.214596354187e-03
6.625052231446e-03
4.776991601551e-03
7.082173607192e-03
1.097458541553e-03
7.085996109787e-03
6.301065188137e-03
5.213473055174e-03
5.092582312976e-03
6.284779669071e-03
7.027576289355e-03
1.134294743409e-03
5.929312713699e-03
2.737711826468e-03
4.540623698829e-04
6.328556524733e-03
6.599478915237e-03
6.272142455049e-03
7.265738735868e-04
4.415061238799e-04
6.425642622297e-03
6.999400117580e-03
1.254195083398e-03
7.390043752851e-03
6.847687216306e-04
4.463317657632e-03
4.407619637657e-04
6.604250374859e-03
7.096021864440e-03
3.032282441470e-03
4.566704697851e-03
1.955526775114e-03
6.603127096633e-03
6.825103140831e-04
7.129242118158e-03
6.494362770328e-03
7.110848962583e-03
6.997861449727e-03
4.372347978244e-04
6.846410701800e-03
6.208937364434e-03
4.491670883278e-03
7.053217886713e-03
2.434819690860e-03
9.924277203295e-04
7.383514768533e-03
1.563407386460e-04
4.468710585505e-03
6.614694625268e-03
9.401668109338e-04
5.029330160113e-03
7.031930046743e-03
3.774110277364e-03
6.553311363719e-03
9.242547147348e-04
2.854244088078e-04
5.635397485439e-03
6.747544496554e-03
7.137889497012e-03
5.400499836788e-03
1.194979440183e-03
6.839396435584e-03
3.287791997852e-03
6.702733304966e-03
6.292426223974e-03
5.251686812414e-04
4.080006024455e-03
4.207315512457e-04
6.376604964665e-03
3.439179310937e-03
1.141898536810e-03
1.267893446682e-03
1.525473572461e-03
1.616396136322e-03
1.896724977355e-03
1.937428245205e-03
2.263610173010e-03
2.306143514049e-03
2.625532214422e-03
2.636954780466e-03
2.986952189856e-03
3.007808993814e-03
3.343227342838e-03
3.339020341715e-03
3.695809198009e-03
3.708363830210e-03
4.045714342627e-03
4.039032383548e-03


CELL_DATA 2360

SCALARS element_number int
LOOKUP_TABLE default
407
408
409
410
411
412
413
414
415
416
417
418
419
420
421
422
423
424
425
426
427
428
429
430
431
432
433
434
435
436
437
438
439
440
441
442
443
444
445
446
447
448
449
450
451
452
453
454
455
456
457
458
459
460
461
462
463
464
465
466
467
468
469
470
471
472
473
474
475
476
477
478
479
480
481
482
483
484
485
486
487
488
489
490
491
492
493
494
495
496
497
498
499
500
501
502
503
504
505
506
507
508
509
510
511
512
513
514
515
516
517
518
519
520
521
522
523
524
525
526
527
528
529
530
531
532
533
534
535
536
537
538
539
540
541
542
543
544
545
546
547
548
549
550
551
552
553
554
555
556
557
558
559
560
561
562
563
564
565
566
567
568
569
570
571
572
573
574
575
576
577
578
579
580
581
582
583
584
585
586
587
588
589
590
591
592
593
594
595
596
597
598
599
600
601
602
603
604
605
606
607
608
609
610
611
612
613
614
615
616
617
618
619
620
621
622
623
624
625
626
627
628
629
630
631
632
633
634
635
636
637
638
639
640
641
642
643
644
645
646
647
648
649
650
651
652
653
654
655
656
657
658
659
660
661
662
663
664
665
666
667
668
669
670
671
672
673
674
675
676
677
678
679
680
681
682
683
684
685
686
687
688
689
690
691
692
693
694
695
696
697
698
699
700
701
702
703
704
705
706
707
708
709
710
711
712
713
714
715
716
717
718
719
720
721
722
723
724
725
726
727
728
729
730
731
732
733
734
735
736
737
738
739
740
741
742
743
744
745
746
747
748
749
750
751
752
753
754
755
756
757
758
759
760
761
762
763
764
765
766
767
768
769
770
771
772
773
774
775
776
777
778
779
780
781
782
783
784
785
786
787
788
789
790
791
792
793
794
795
796
797
798
799
800
801
802
803
804
805
806
807
808
809
810
811
812
813
814
815
816
817
818
819
820
821
822
823
824
825
826
827
828
829
830
831
832
833
834
835
836
837
838
839
840
841
842
843
844
845
846
847
848
849
850
851
852
853
854
855
856
857
858
859
860
861
862
863
864
865
866
867
868
869
870
871
872
873
874
875
876
877
878
879
880
881
882
883
884
885
886
887
888
889
890
891
892
893
894
895
896
897
898
899
900
901
902
903
904
905
906
907
908
909
910
911
912
913
914
915
916
917
918
919
920
921
922
923
924
925
926
927
928
929
930
931
932
933
934
935
936
937
938
939
940
941
942
943
944
945
946
947
948
949
950
951
952
953
954
955
956
957
958
959
960
961
962
963
964
965
966
967
968
969
970
971
972
973
974
975
976
977
978
979
980
981
982
983
984
985
986
987
988
989
990
991
992
993
994
995
996
997
998
999
1000
1001
1002
1003
1004
1005
1006
1007
1008
1009
1010
1011
1012
1013
1014
1015
1016
1017
1018
1019
1020
1021
1022
1023
1024
1025
1026
1027
1028
1029
1030
1031
1032
1033
1034
1035
1036
1037
1038
1039
1040
1041
1042
1043
1044
1045
1046
1047
1048
1049
1050
1051
1052
1053
1054
1055
1056
1057
1058
1059
1060
1061
1062
1063
1064
1065
1066
1067
1068
1069
1070
1071
1072
1073
1074
1075
1076
1077
1078
1079
1080
1081
1082
1083
1084
1085
1086
1087
1088
1089
1090
1091
1092
1093
1094
1095
1096
1097
1098
1099
1100
1101
1102
1103
1104
1105
1106
1107
1108
1109
1110
1111
1112
1113
1114
1115
1116
1117
1118
1119
1120
1121
1122
1123
1124
1125
1126
1127
1128
1129
1130
1131
1132
1133
1134
1135
1136
1137
1138
1139
1140
1141
1142
1143
1144
1145
1146
1147
1148
1149
1150
1151
1152
1153
1154
1155
1156
1157
1158
1159
1160
1161
1162
1163
1164
1165
1166
1167
1168
1169
1170
1171
1172
1173
1174
1175
1176
1177
1178
1179
1180
1181
1182
1183
1184
1185
1186
1187
1188
1189
1190
1191
1192
1193
1194
1195
1196
1197
1198
1199
1200
1201
1202
1203
1204
1205
1206
1207
1208
1209
1210
1211
1212
1213
1214
1215
1216
1217
1218
1219
1220
1221
1222
1223
1224
1225
1226
1227
1228
1229
1230
1231
1232
1233
1234
1235
1236
1237
1238
1239
1240
1241
1242
1243
1244
1245
1246
1247
1248
1249
1250
1251
1252
1253
1254
1255
1256
1257
1258
1259
1260
1261
1262
1263
1264
1265
1266
1267
1268
1269
1270
1271
1272
1273
1274
1275
1276
1277
1278
1279
1280
1281
1282
1283
1284
1285
1286
1287
1288
1289
1290
1291
1292
1293
1294
1295
1296
1297
1298
1299
1300
1301
1302
1303
1304
1305
1306
1307
1308
1309
1310
1311
1312
1313
1314
1315
1316
1317
1318
1319
1320
1321
1322
1323
1324
1325
1326
1327
1328
1329
1330
1331
1332
1333
1334
1335
1336
1337
1338
1339
1340
1341
1342
1343
1344
1345
1346
1347
1348
1349
1350
1351
1352
1353
1354
1355
1356
1357
1358
1359
1360
1361
1362
1363
1364
1365
1366
1367
1368
1369
1370
1371
1372
1373
1374
1375
1376
1377
1378
1379
1380
1381
1382
1383
1384
1385
1386
1387
1388
1389
1390
1391
1392
1393
1394
1395
1396
1397
1398
1399
1400
1401
1402
1403
1404
1405
1406
1407
1408
1409
1410
1411
1412
1413
1414
1415
1416
1417
1418
1419
1420
1421
1422
1423
1424
1425
1426
1427
1428
1429
1430
1431
1432
1433
1434
1435
1436
1437
1438
1439
1440
1441
1442
1443
1444
1445
1446
1447
1448
1449
1450
1451
1452
1453
1454
1455
1456
1457
1458
1459
1460
1461
1462
1463
1464
1465
1466
1467
1468
1469
1470
1471
1472
1473
1474
1475
1476
1477
1478
1479
1480
1481
1482
1483
1484
1485
1486
1487
1488
1489
1490
1491
1492
1493
1494
1495
1496
1497
1498
1499
1500
1501
1502
1503
1504
1505
1506
1507
1508
1509
1510
1511
1512
1513
1514
1515
1516
1517
1518
1519
1520
1521
1522
1523
1524
1525
1526
1527
1528
1529
1530
1531
1532
1533
1534
1535
1536
1537
1538
1539
1540
1541
1542
1543
1544
1545
1546
1547
1548
1549
1550
1551
1552
1553
1554
1555
1556
1557
1558
1559
1560
1561
1562
1563
1564
1565
1566
1567
1568
1569
1570
1571
1572
1573
1574
1575
1576
1577
1578
1579
1580
1581
1582
1583
1584
1585
1586
1587
1588
1589
1590
1591
1592
1593
1594
1595
1596
1597
1598
1599
1600
1601
1602
1603
1604
1605
1606
1607
1608
1609
1610
1611
1612
1613
1614
1615
1616
1617
1618
1619
1620
1621
1622
1623
1624
1625
1626
1627
1628
1629
1630
1631
1632
1633
1634
1635
1636
1637
1638
1639
1640
1641
1642
1643
1644
1645
1646
1647
1648
1649
1650
1651
1652
1653
1654
1655
1656
1657
1658
1659
1660
1661
1662
1663
1664
1665
1666
1667
1668
1669
1670
1671
1672
1673
1674
1675
1676
1677
1678
1679
1680
1681
1682
1683
1684
1685
1686
1687
1688
1689
1690
1691
1692
1693
1694
1695
1696
1697
1698
1699
1700
1701
1702
1703
1704
1705
1706
1707
1708
1709
1710
1711
1712
1713
1714
1715
1716
1717
1718
1719
1720
1721
1722
1723
1724
1725
1726
1727
1728
1729
1730
1731
1732
1733
1734
1735
1736
1737
1738
1739
1740
1741
1742
1743
1744
1745
1746
1747
1748
1749
1750
1751
1752
1753
1754
1755
1756
1757
1758
1759
1760
1761
1762
1763
1764
1765
1766
1767
1768
1769
1770
1771
1772
1773
1774
1775
1776
1777
1778
1779
1780
1781
1782
1783
1784
1785
1786
1787
1788
1789
1790
1791
1792
1793
1794
1795
1796
1797
1798
1799
1800
1801
1802
1803
1804
1805
1806
1807
1808
1809
1810
1811
1812
1813
1814
1815
1816
1817
1818
1819
1820
1821
1822
1823
1824
1825
1826
1827
1828
1829
1830
1831
1832
1833
1834
1835
1836
1837
1838
1839
1840
1841
1842
1843
1844
1845
1846
1847
1848
1849
1850
1851
1852
1853
1854
1855
1856
1857
1858
1859
1860
1861
1862
1863
1864
1865
1866
1867
1868
1869
1870
1871
1872
1873
1874
1875
1876
1877
1878
1879
1880
1881
1882
1883
1884
1885
1886
1887
1888
1889
1890
1891
1892
1893
1894
1895
1896
1897
1898
1899
1900
1901
1902
1903
1904
1905
1906
1907
1908
1909
1910
1911
1912
1913
1914
1915
1916
1917
1918
1919
1920
1921
1922
1923
1924
1925
1926
1927
1928
1929
1930
1931
1932
1933
1934
1935
1936
1937
1938
1939
1940
1941
1942
1943
1944
1945
1946
1947
1948
1949
1950
1951
1952
1953
1954
1955
1956
1957
1958
1959
1960
1961
1962
1963
1964
1965
1966
1967
1968
1969
1970
1971
1972
1973
1974
1975
1976
1977
1978
1979
1980
1981
1982
1983
1984
1985
1986
1987
1988
1989
1990
1991
1992
1993
1994
1995
1996
1997
1998
1999
2000
2001
2002
2003
2004
2005
2006
2007
2008
2009
2010
2011
2012
2013
2014
2015
2016
2017
2018
2019
2020
2021
2022
2023
2024
2025
2026
2027
2028
2029
2030
2031
2032
2033
2034
2035
2036
2037
2038
2039
2040
2041
2042
2043
2044
2045
2046
2047
2048
2049
2050
2051
2052
2053
2054
2055
2056
2057
2058
2059
2060
2061
2062
2063
2064
2065
2066
2067
2068
2069
2070
2071
2072
2073
2074
2075
2076
2077
2078
2079
2080
2081
2082
2083
2084
2085
2086
2087
2088
2089
2090
2091
2092
2093
2094
2095
2096
2097
2098
2099
2100
2101
2102
2103
2104
2105
2106
2107
2108
2109
2110
2111
2112
2113
2114
2115
2116
2117
2118
2119
2120
2121
2122
2123
2124
2125
2126
2127
2128
2129
2130
2131
2132
2133
2134
2135
2136
2137
2138
2139
2140
2141
2142
2143
2144
2145
2146
2147
2148
2149
2150
2151
2152
2153
2154
2155
2156
2157
2158
2159
2160
2161
2162
2163
2164
2165
2166
2167
2168
2169
2170
2171
2172
2173
2174
2175
2176
2177
2178
2179
2180
2181
2182
2183
2184
2185
2186
2187
2188
2189
2190
2191
2192
2193
2194
2195
2196
2197
2198
2199
2200
2201
2202
2203
2204
2205
2206
2207
2208
2209
2210
2211
2212
2213
2214
2215
2216
2217
2218
2219
2220
2221
2222
2223
2224
2225
2226
2227
2228
2229
2230
2231
2232
2233
2234
2235
2236
2237
2238
2239
2240
2241
2242
2243
2244
2245
2246
2247
2248
2249
2250
2251
2252
2253
2254
2255
2256
2257
2258
2259
2260
2261
2262
2263
2264
2265
2266
2267
2268
2269
2270
2271
2272
2273
2274
2275
2276
2277
2278
2279
2280
2281
2282
2283
2284
2285
2286
2287
2288
2289
2290
2291
2292
2293
2294
2295
2296
2297
2298
2299
2300
2301
2302
2303
2304
2305
2306
2307
2308
2309
2310
2311
2312
2313
2314
2315
2316
2317
2318
2319
2320
2321
2322
2323
2324
2325
2390
2391
2392
2393
2394
2395
2396
2397
2398
2399
2400
2401
2402
2403
2404
2405
2406
2407
2408
2409
2410
2411
2412
2413
2414
2415
2416
2417
2418
2419
2420
2421
2422
2423
2424
2425
2426
2427
2428
2429
2430
2431
2432
2433
2434
2435
2436
2437
2438
2439
2440
2441
2442
2443
2444
2445
2446
2447
2448
2449
2450
2451
2452
2453
2454
2455
2456
2457
2458
2459
2460
2461
2462
2463
2464
2465
2466
2467
2468
2469
2470
2471
2472
2473
2474
2475
2476
2477
2478
2479
2480
2481
2482
2483
2484
2485
2486
2487
2488
2489
2490
2491
2492
2493
2494
2495
2496
2497
2498
2499
2500
2501
2502
2503
2504
2505
2506
2507
2508
2509
2510
2511
2512
2513
2514
2515
2516
2517
2518
2519
2520
2521
2522
2523
2524
2525
2526
2527
2528
2529
2530
2531
2532
2533
2534
2535
2536
2537
2538
2539
2540
2541
2542
2543
2544
2545
2546
2547
2548
2549
2550
2551
2552
2553
2554
2555
2556
2557
2558
2559
2560
2561
2562
2563
2564
2565
2566
2567
2568
2569
2570
2571
2572
2573
2574
2575
2576
2577
2578
2579
2580
2581
2582
2583
2584
2585
2586
2587
2588
2589
2590
2591
2592
2593
2594
2595
2596
2597
2598
2599
2600
2601
2602
2603
2604
2605
2606
2607
2608
2609
2610
2611
2612
2613
2614
2615
2616
2617
2618
2619
2620
2621
2622
2623
2624
2625
2626
2627
2628
2629
2630
2631
2632
2633
2634
2635
2636
2637
2638
2639
2640
2641
2642
2643
2644
2645
2646
2647
2648
2649
2650
2651
2652
2653
2654
2655
2656
2657
2658
2659
2660
2661
2662
2663
2664
2665
2666
2667
2668
2669
2670
2671
2672
2673
2674
2675
2676
2677
2678
2679
2680
2681
2682
2683
2684
2685
2686
2687
2688
2689
2690
2691
2692
2693
2694
2695
2696
2697
2698
2699
2700
2701
2702
2703
2704
2705
2706
2707
2708
2709
2710
2711
2712
2713
2714
2715
2716
2717
2718
2719
2720
2721
2722
2723
2724
2725
2726
2727
2728
2729
2730
2731
2732
2733
2734
2735
2736
2737
2738
2739
2740
2741
2742
2743
2744
2745
2746
2747
2748
2749
2750
2751
2752
2753
2754
2755
2756
2757
2758
2759
2760
2761
2762
2763
2764
2765
2766
2767
2768
2769
2770
2771
2772
2773
2774
2775
2776
2777
2778
2779
2780
2781
2782
2783
2784
2785
2786
2787
2788
2789
2790
2791
2792
2793
2794
2795
2796
2797
2798
2799
2800
2801
2802
2803
2804
2805
2806
2807
2808
2809
2810
2811
2812
2813
2814
2815
2816
2817
2818
2819
2820
2821
2822
2823
2824
2825
2826
2827
2828
2829
2830

SCALARS element_group int
LOOKUP_TABLE default
0
0
0
0
0
0
0
0
0
0
0
0
0
0
0
0
0
0
0
0
0
0
0
0
0
0
0
0
0
0
0
0
0
0
0
0
0
0
0
0
0
0
0
0
0
0
0
0
0
0
0
0
0
0
0
0
0
0
0
0
0
0
0
0
0
0
0
0
0
0
0
0
0
0
0
0
0
0
0
0
0
0
0
0
0
0
0
0
0
0
0
0
0
0
0
0
0
0
0
0
0
0
0
0
0
0
0
0
0
0
0
0
0
0
0
0
0
0
0
0
0
0
0
0
0
0
0
0
0
0
0
0
0
0
0
0
0
0
0
0
0
0
0
0
0
0
0
0
0
0
0
0
0
0
0
0
0
0
0
0
0
0
0
0
0
0
0
0
0
0
0
0
0
0
0
0
0
0
0
0
0
0
0
0
0
0
0
0
0
0
0
0
0
0
0
0
0
0
0
0
0
0
0
0
0
0
0
0
0
0
0
0
0
0
0
0
0
0
0
0
0
0
0
0
0
0
0
0
0
0
0
0
0
0
0
0
0
0
0
0
0
0
0
0
0
0
0
0
0
0
0
0
0
0
0
0
0
0
0
0
0
0
0
0
0
0
0
0
0
0
0
0
0
0
0
0
0
0
0
0
0
0
0
0
0
0
0
0
0
0
0
0
0
0
0
0
0
0
0
0
0
0
0
0
0
0
0
0
0
0
0
0
0
0
0
0
0
0
0
0
0
0
0
0
0
0
0
0
0
0
0
0
0
0
0
0
0
0
0
0
0
0
0
0
0
0
0
0
0
0
0
0
0
0
0
0
0
0
0
0
0
0
0
0
0
0
0
0
0
0
0
0
0
0
0
0
0
0
0
0
0
0
0
0
0
0
0
0
0
0
0
0
0
0
0
0
0
0
0
0
0
0
0
0
0
0
0
0
0
0
0
0
0
0
0
0
0
0
0
0
0
0
0
0
0
0
0
0
0
0
0
0
0
0
0
0
0
0
0
0
0
0
0
0
0
0
0
0
0
0
0
0
0
0
0
0
0
0
0
0
0
0
0
0
0
0
0
0
0
0
0
0
0
0
0
0
0
0
0
0
0
0
0
0
0
0
0
0
0
0
0
0
0
0
0
0
0
0
0
0
0
0
0
0
0
0
0
0
0
0
0
0
0
0
0
0
0
0
0
0
0
0
0
0
0
0
0
0
0
0
0
0
0
0
0
0
0
0
0
0
0
0
0
0
0
0
0
0
0
0
0
0
0
0
0
0
0
0
0
0
0
0
0
0
0
0
0
0
0
0
0
0
0
0
0
0
0
0
0
0
0
0
0
0
0
0
0
0
0
0
0
0
0
0
0
0
0
0
0
0
0
0
0
0
0
0
0
0
0
0
0
0
0
0
0
0
0
0
0
0
0
0
0
0
0
0
0
0
0
0
0
0
0
0
0
0
0
0
0
0
0
0
0
0
0
0
0
0
0
0
0
0
0
0
0
0
0
0
0
0
0
0
0
0
0
0
0
0
0
0
0
0
0
0
0
0
0
0
0
0
0
0
0
0
0
0
0
0
0
0
0
0
0
0
0
0
0
0
0
0
0
0
0
0
0
0
0
0
0
0
0
0
0
0
0
0
0
0
0
0
0
0
0
0
0
0
0
0
0
0
0
0
0
0
0
0
0
0
0
0
0
0
0
0
0
0
0
0
0
0
0
0
0
0
0
0
0
0
0
0
0
0
0
0
0
0
0
0
0
0
0
0
0
0
0
0
0
0
0
0
0
0
0
0
0
0
0
0
0
0
0
0
0
0
0
0
0
0
0
0
0
0
0
0
0
0
0
0
0
0
0
0
0
0
0
0
0
0
0
0
0
0
0
0
0
0
0
0
0
0
0
0
0
0
0
0
0
0
0
0
0
0
0
0
0
0
0
0
0
0
0
0
0
0
0
0
0
0
0
0
0
0
0
0
0
0
0
0
0
0
0
0
0
0
0
0
0
0
0
0
0
0
0
0
0
0
0
0
0
0
0
0
0
0
0
0
0
0
0
0
0
0
0
0
0
0
0
0
0
0
0
0
0
0
0
0
0
0
0
0
0
0
0
0
0
0
0
0
0
0
0
0
0
0
0
0
0
0
0
0
0
0
0
0
0
0
0
0
0
0
0
0
0
0
0
0
0
0
0
0
0
0
0
0
0
0
0
0
0
0
0
0
0
0
0
0
0
0
0
0
0
0
0
0
0
0
0
0
0
0
0
0
0
0
0
0
0
0
0
0
0
0
0
0
0
0
0
0
0
0
0
0
0
0
0
0
0
0
0
0
0
0
0
0
0
0
0
0
0
0
0
0
0
0
0
0
0
0
0
0
0
0
0
0
0
0
0
0
0
0
0
0
0
0
0
0
0
0
0
0
0
0
0
0
0
0
0
0
0
0
0
0
0
0
0
0
0
0
0
0
0
0
0
0
0
0
0
0
0
0
0
0
0
0
0
0
0
0
0
0
0
0
0
0
0
0
0
0
0
0
0
0
0
0
0
0
0
0
0
0
0
0
0
0
0
0
0
0
0
0
0
0
0
0
0
0
0
0
0
0
0
0
0
0
0
0
0
0
0
0
0
0
0
0
0
0
0
0
0
0
0
0
0
0
0
0
0
0
0
0
0
0
0
0
0
0
0
0
0
0
0
0
0
0
0
0
0
0
0
0
0
0
0
0
0
0
0
0
0
0
0
0
0
0
0
0
0
0
0
0
0
0
0
0
0
0
0
0
0
0
0
0
0
0
0
0
0
0
0
0
0
0
0
0
0
0
0
0
0
0
0
0
0
0
0
0
0
0
0
0
0
0
0
0
0
0
0
0
0
0
0
0
0
0
0
0
0
0
0
0
0
0
0
0
0
0
0
0
0
0
0
0
0
0
0
0
0
0
0
0
0
0
0
0
0
0
0
0
0
0
0
0
0
0
0
0
0
0
0
0
0
0
0
0
0
0
0
0
0
0
0
0
0
0
0
0
0
0
0
0
0
0
0
0
0
0
0
0
0
0
0
0
0
0
0
0
0
0
0
0
0
0
0
0
0
0
0
0
0
0
0
0
0
0
0
0
0
0
0
0
0
0
0
0
0
0
0
0
0
0
0
0
0
0
0
0
0
0
0
0
0
0
0
0
0
0
0
0
0
0
0
0
0
0
0
0
0
0
0
0
0
0
0
0
0
0
0
0
0
0
0
0
0
0
0
0
0
0
0
0
0
0
0
0
0
0
0
0
0
0
0
0
0
0
0
0
0
0
0
0
0
0
0
0
0
0
0
0
0
0
0
0
0
0
0
0
0
0
0
0
0
0
0
0
0
0
0
0
0
0
0
0
0
0
0
0
0
0
0
0
0
0
0
0
0
0
0
0
0
0
0
0
0
0
0
0
0
0
0
0
0
0
0
0
0
0
0
0
0
0
0
0
0
0
0
0
0
0
0
0
0
0
0
0
0
0
0
0
0
0
0
0
0
0
0
0
0
0
0
0
0
0
0
0
0
0
0
0
0
0
0
0
0
0
0
0
0
0
0
0
0
0
0
0
0
0
0
0
0
0
0
0
0
0
0
0
0
0
0
0
0
0
0
0
0
0
0
0
0
0
0
0
0
0
0
0
0
0
0
0
0
0
0
0
0
0
0
0
0
0
0
0
0
0
0
0
0
0
0
0
0
0
0
0
0
0
0
0
0
0
0
0
0
0
0
0
0
0
0
0
0
0
0
0
0
0
0
0
0
0
0
0
0
0
0
0
0
0
0
0
0
0
0
0
0
0
0
0
0
0
0
0
0
0
0
0
0
0
0
0
0
0
0
0
0
0
0
0
0
0
0
0
0
0
0
0
0
0
0
0
0
0
0
0
0
0
0
0
0
0
0
0
0
0
0
0
0
0
0
0
0
0
0
0
0
0
0
0
0
0
0
0
0
0
0
0
0
0
0
0
0
0
0
0
0
0
0
0
0
0
0
0
0
0
0
0
0
0
0
0
0
0
0
0
0
0
0
0
0
0
0
0
0
0
0
0
0
0
0
0
0
0
0
0
0
0
0
0
0
0
0
0
0
0
0
0
0
0
0
0
0
0
0
0
0
0
0
0
0
0
0
0
0
0
0
0
0
0
0
0
0
0
0
0
0
0
0
0
0
0
0
0
0
0
0
0
0
0
0
0
0
0
0
0
0
0
0
0
0
0
0
0
0
0
0
0
0
0
0
0
0
0
0
0
0
0
0
0
0
0
0
0
0
0
0
0
0
0
0
0
0
0
0
0
0
0
0
0
0
0
0
0
0
0
0
0
0
0
0
0
0
0
0
0
0
0
0
0
0
0
0
0
0
0
0
0
0
0
0
0
0
0
0
0
0
0
0
0
0
0
0
0
0
0
0
0
0
0
0
0
0
0
0
0
0
0
0
0
0
0
0
0
0
0
0
0
0
0
0
0
0
0
0
0
0
0
0
0
0
0
0
0
0
0
0
0
0
0
0
0
0
0
0
0
0
0
0
0
0
0
0
0
0
0
0
0
0
0
0
0
0
0
0
0
0
0
0
0
0
0
0
0
0
0
0
0
0
0
0
0
0
0
0
0
0
0
0
0
0
0
0
0
0
0
0
0
0
0
0
0
0
0
0
0
0
0
0
0
0
0
0
0
0
0
0
0
0
0
0
0
0
0
0
0
0
0
0
0
0
0
0
0
0
0
0
0
0
0
0
0
0
0
0
0
0
0
0
0
0
0
0
0
0
0
0
0
0
0
0
0
0
0
0
0
0
0
0
0
0
0
0
0
0
0
0
0
0
0
0
0
0
0
0
0
0
0
0
0
0
0
0
0
0
0
0
0
0
0
0
0
0
0
0
0
0
0
0
0
0
0
0
0
0
0
0
0
0
0
0
0
0
0
0
0
0
0
0
0
0
0
0
0
0
0
0
0
0
0
0
0
0
0
0
0
0
0
0
0
0
0
0
0
0
0
0
0
0
0
0
0
0
0
0
0
0
0
0
0
0
0
0
0
0
0
0
0
0
0
0
0
0
0
0
0
0
0
0
0
0
0
0
0
0
0
0
0
0
0
0
0
0
0
0
0
0
0
0
0
0
0
0
0
0
0
0
0
0
0
0
0
0
0
0
0
0
0
0
0
0
0
0
0
0
0
0
0
0
0
0
0
0
0
0
0
0
0
0
0
0
0
0
0
0
0
0
0
0
0
0
0
0
0
0
0
0
0
0
0
0
0
0
0
0
0
0
0
0
0
0
0
0
0
0
0
0
0
0
0
0
0
0
0
0
0
0
0
0
0
0
0
0
0
0
0
0
0
0
0
0
0


VECTORS element_materi_velocity float
2.190664981531e-03 1.199535864455e-02 0.0 
2.303891373873e-03 1.163690236846e-02 0.0 
4.989293301939e-04 1.055825370003e-03 0.0 
6.753118744579e-05 1.507806936962e-03 0.0 
7.031443259538e-04 8.376642247587e-03 0.0 
6.999277344831e-04 6.209990168041e-03 0.0 
5.268600689539e-04 8.308700625116e-03 0.0 
2.272065025485e-03 1.169736767393e-02 0.0 
5.839527608630e-04 8.357675253305e-03 0.0 
9.845949069739e-05 1.543139231170e-03 0.0 
2.356408001790e-04 -1.835496334196e-04 0.0 
2.107102738346e-03 1.212439303357e-02 0.0 
1.087681754108e-04 5.000616434212e-05 0.0 
1.058549913195e-03 7.458889777992e-03 0.0 
8.992622605784e-05 4.235537674103e-05 0.0 
5.436735878498e-05 1.066085804753e-03 0.0 
9.151170595192e-04 8.694344107636e-03 0.0 
6.824363784021e-04 5.467985321437e-03 0.0 
1.118261349472e-04 -8.404992802297e-04 0.0 
9.453747435383e-05 -8.328211012509e-04 0.0 
1.167600798691e-04 1.580944950467e-03 0.0 
2.237910447262e-03 1.163925540721e-02 0.0 
2.307630189047e-03 1.126821983649e-02 0.0 
1.160473831022e-03 5.216624381828e-04 0.0 
1.206899952579e-03 6.481661613016e-03 0.0 
2.599793887976e-04 -1.395678982434e-04 0.0 
1.471615396272e-03 9.442192647828e-03 0.0 
8.808589295905e-04 9.070638388906e-04 0.0 
1.280155444590e-03 6.482446498821e-03 0.0 
9.582224754646e-04 4.181268393194e-04 0.0 
6.994853658122e-04 1.904435501715e-03 0.0 
-6.847491666646e-06 -2.541246527520e-04 0.0 
5.736532059073e-04 1.289752054905e-03 0.0 
7.483453520455e-05 3.998303430773e-06 0.0 
5.411849802745e-04 1.619552915198e-04 0.0 
1.611146436131e-04 4.641792160814e-05 0.0 
1.483297909370e-04 4.328567930765e-05 0.0 
9.241960725772e-04 5.938493207388e-04 0.0 
4.378348007470e-04 9.271067029214e-03 0.0 
3.975594414621e-04 9.285248214246e-03 0.0 
2.213945196726e-03 1.069833348393e-02 0.0 
5.072078050137e-04 1.743073390420e-04 0.0 
1.939229017091e-03 1.202070285740e-02 0.0 
1.531058617456e-03 9.104928368412e-03 0.0 
3.632549396404e-05 2.134303374081e-03 0.0 
2.007318505641e-03 1.161762914293e-02 0.0 
3.815083132861e-04 1.924279348300e-03 0.0 
4.123308449046e-05 1.813345618735e-03 0.0 
-1.580337518557e-04 1.613411562666e-03 0.0 
1.044715662732e-03 7.919308698747e-03 0.0 
2.271434572144e-03 1.100519936172e-02 0.0 
1.345629044997e-04 -8.009180640568e-04 0.0 
1.438853866649e-03 2.130806742847e-03 0.0 
2.181789150423e-03 1.110760355965e-02 0.0 
3.585170733745e-04 1.057921875737e-03 0.0 
2.769415350199e-04 -6.917116113688e-04 0.0 
1.131877801658e-04 -7.867365537655e-04 0.0 
1.514830091016e-04 5.904492347541e-06 0.0 
1.864457892026e-04 -7.897053605302e-04 0.0 
6.505093917406e-05 1.074921074581e-03 0.0 
-5.588613166347e-04 2.569130527194e-03 0.0 
1.385719373314e-03 1.260265300281e-03 0.0 
2.912043046915e-03 9.383411568938e-03 0.0 
1.193598365372e-03 1.982956702579e-03 0.0 
1.761266046713e-04 5.798621358541e-05 0.0 
2.217303398457e-03 1.141090920798e-02 0.0 
-4.301426902399e-04 2.901583334405e-03 0.0 
6.186333364943e-04 1.258513805650e-03 0.0 
5.960793502328e-04 2.499711346511e-04 0.0 
6.297777335622e-04 8.910247110163e-04 0.0 
3.898880145032e-04 -8.468193671754e-05 0.0 
6.139379797935e-05 3.026294319632e-04 0.0 
1.156280575689e-03 1.234801943820e-03 0.0 
7.079490685448e-06 -9.077669122478e-04 0.0 
2.540394209040e-04 -6.722188225708e-04 0.0 
2.197334818043e-04 1.388605573176e-03 0.0 
4.479235435908e-04 1.283068841213e-03 0.0 
1.601828992050e-03 1.093973721098e-02 0.0 
2.298472970192e-04 -7.614516473060e-04 0.0 
1.548547345366e-03 1.152285459037e-02 0.0 
6.514626588327e-04 4.218082936319e-04 0.0 
8.588038333244e-04 8.428700080660e-03 0.0 
2.317935095293e-03 1.148511567041e-02 0.0 
2.211006730564e-03 1.190461596623e-02 0.0 
6.590764168313e-04 7.805716649977e-03 0.0 
6.030809196003e-04 7.776175529378e-03 0.0 
2.293262565597e-04 -7.045985954147e-05 0.0 
4.026530070579e-05 -1.837470678672e-05 0.0 
1.512166083458e-03 3.582828488476e-03 0.0 
7.571070927983e-04 8.339970278420e-03 0.0 
4.231350392289e-05 -1.590754792743e-04 0.0 
1.460998028669e-03 8.249068450374e-03 0.0 
1.109359347365e-04 4.256542455533e-03 0.0 
1.347170450084e-04 4.600197525763e-03 0.0 
1.219280506386e-04 5.617843131124e-04 0.0 
6.600769602860e-04 4.224557316804e-04 0.0 
9.666237292261e-04 8.457351969672e-03 0.0 
5.874461204354e-04 1.950776035929e-04 0.0 
8.369104357730e-05 6.745741934465e-03 0.0 
2.778750993472e-03 9.956111320177e-03 0.0 
6.840933688662e-04 8.865474491423e-03 0.0 
1.152610439237e-04 4.557541084184e-05 0.0 
2.501298055126e-03 2.436465731000e-03 0.0 
1.403043650508e-03 1.217308642770e-03 0.0 
2.996516025288e-03 8.912551745526e-03 0.0 
1.798462629747e-04 1.597682647323e-03 0.0 
1.260548225086e-04 4.827341700315e-05 0.0 
1.118589358349e-04 3.670039305229e-03 0.0 
-3.838390146319e-04 1.909530676350e-03 0.0 
2.085712036946e-04 6.173239244941e-05 0.0 
1.667511282098e-03 4.035396166246e-03 0.0 
8.788882878030e-06 -9.107092745753e-04 0.0 
3.381413535522e-03 6.867141443494e-03 0.0 
1.842737484272e-03 9.206681509046e-03 0.0 
4.742254967082e-04 -5.246216430675e-04 0.0 
2.705125115747e-03 1.028737116418e-02 0.0 
2.993104321800e-03 9.105119032940e-03 0.0 
3.882340672977e-04 1.178367393389e-04 0.0 
1.063471906401e-04 7.159199278729e-03 0.0 
2.934570707882e-03 9.401042862315e-03 0.0 
4.620030123215e-04 -1.553705128610e-04 0.0 
1.526968322522e-03 8.501818895025e-03 0.0 
8.815535066362e-05 3.366005692178e-03 0.0 
3.010955600458e-03 9.061091077577e-03 0.0 
8.495872529981e-04 9.344457849384e-03 0.0 
2.051318463494e-03 1.001457198489e-02 0.0 
4.092211036192e-04 -5.602700734626e-04 0.0 
2.046077624458e-03 1.043974734888e-02 0.0 
1.661780927738e-04 9.841882254511e-04 0.0 
1.250362806554e-03 8.664698619248e-03 0.0 
3.646534363733e-04 -1.246936462503e-04 0.0 
5.361372777558e-05 1.492629104354e-03 0.0 
2.686789548101e-03 8.926354367085e-03 0.0 
2.134632815977e-03 1.037027236286e-02 0.0 
5.761041052239e-04 1.781447412730e-04 0.0 
7.475008522139e-05 4.717847397986e-05 0.0 
3.228352552130e-04 -6.082626266216e-05 0.0 
2.665466769155e-03 8.546425343472e-03 0.0 
6.895192781421e-04 2.812334909479e-04 0.0 
2.506303307886e-03 9.578685340754e-03 0.0 
1.299583878276e-04 1.100476526392e-03 0.0 
7.221328651633e-04 1.084000126735e-03 0.0 
1.121144591880e-03 7.416669857840e-03 0.0 
2.610477651044e-04 5.570220426104e-03 0.0 
2.601426100246e-03 9.447140873302e-03 0.0 
2.119458133449e-03 1.079062139263e-02 0.0 
2.726770644311e-03 8.035733353672e-03 0.0 
3.197392450082e-03 8.131197225899e-03 0.0 
5.041423791280e-04 8.793021843673e-03 0.0 
3.421229906109e-03 6.545379147441e-03 0.0 
5.945869202516e-05 -3.414270789573e-04 0.0 
1.209090667380e-04 8.063359700085e-03 0.0 
8.295890376866e-05 -8.631361796360e-04 0.0 
1.952902251394e-03 9.624741752167e-03 0.0 
5.657014296645e-04 2.226563915279e-04 0.0 
2.931585515631e-03 9.308242087721e-03 0.0 
1.740360719894e-04 -4.307322728764e-05 0.0 
2.128575096091e-03 1.177499936887e-02 0.0 
2.489027606521e-03 2.553837315684e-03 0.0 
2.831025517546e-04 8.477951683599e-03 0.0 
3.401380583091e-03 6.707736220147e-03 0.0 
1.706803493998e-04 2.609527540180e-05 0.0 
5.104263024806e-04 -3.593387656955e-05 0.0 
1.763422248111e-04 5.212936392043e-05 0.0 
2.026895656865e-03 8.215626354270e-03 0.0 
2.389104998381e-04 6.875508320310e-05 0.0 
1.199288404439e-04 8.562435926293e-03 0.0 
3.132935481390e-03 8.327802372081e-03 0.0 
1.864591449340e-03 9.655488383234e-03 0.0 
1.512631231751e-04 -2.008168075655e-04 0.0 
2.036234545108e-03 1.215728974861e-02 0.0 
3.424186612294e-03 6.329250842949e-03 0.0 
2.272893281846e-04 5.048837822011e-03 0.0 
3.230179820625e-04 8.813120026054e-03 0.0 
3.291818517439e-03 7.590481519279e-03 0.0 
1.961724881145e-03 1.006598902639e-02 0.0 
1.552041464949e-03 2.667138381872e-03 0.0 
4.927857474486e-04 -4.747045047448e-04 0.0 
7.225833092588e-04 6.991945554676e-04 0.0 
7.776267800643e-04 1.066810192084e-03 0.0 
2.558654038011e-03 1.080685810726e-02 0.0 
4.388581306643e-04 -4.634611431622e-04 0.0 
1.648539161880e-03 8.847860210699e-04 0.0 
2.413090263127e-03 1.008790426907e-02 0.0 
2.445285108118e-03 1.114128784566e-02 0.0 
1.894082606097e-03 8.731545198378e-03 0.0 
3.321283784970e-03 7.385607680084e-03 0.0 
9.564351034396e-05 1.163746518880e-03 0.0 
1.436746474943e-03 4.049824392504e-03 0.0 
1.194330626682e-04 3.815194441945e-05 0.0 
1.828686739010e-03 1.136236560973e-02 0.0 
3.380476961934e-03 6.009159591077e-03 0.0 
1.436758264225e-03 3.579613703974e-03 0.0 
-1.909003896029e-03 6.555792576506e-03 0.0 
2.319630177853e-03 1.019440326082e-02 0.0 
1.891197161797e-03 8.872768187547e-04 0.0 
1.469077493786e-04 -7.070300881963e-04 0.0 
5.240956266019e-04 1.374301189438e-03 0.0 
1.332812859022e-03 5.467905659042e-03 0.0 
1.778282802461e-03 3.354363524126e-04 0.0 
1.943926647241e-03 9.675317947841e-04 0.0 
1.447611098833e-03 7.742974105468e-03 0.0 
1.198911390039e-03 6.937687935347e-03 0.0 
9.232275228474e-04 3.836879381969e-04 0.0 
1.179028506649e-03 -1.058736957272e-04 0.0 
2.865507039287e-03 7.387788528277e-03 0.0 
2.154666650921e-03 7.673799355740e-03 0.0 
1.235556274699e-03 4.982555709149e-03 0.0 
1.970322448904e-03 7.766941571936e-03 0.0 
1.984450562470e-03 8.699272986796e-03 0.0 
2.964012062844e-03 2.988701612214e-03 0.0 
1.687050176026e-03 3.093769883459e-03 0.0 
-6.428993165835e-04 5.752692687779e-03 0.0 
2.484353656886e-03 1.104892422297e-02 0.0 
2.699259061735e-03 1.017887663406e-02 0.0 
2.820785098238e-03 7.894376630862e-03 0.0 
1.294147176280e-03 3.579460894967e-03 0.0 
1.672979902713e-03 6.028073957448e-03 0.0 
1.954050869526e-03 8.456500553693e-04 0.0 
3.642180644564e-04 8.686822004075e-03 0.0 
3.379090795233e-03 6.431276100474e-03 0.0 
1.974589084013e-03 7.770862263295e-04 0.0 
8.295413566591e-05 -5.399858533644e-04 0.0 
1.200431258425e-03 4.503223099521e-03 0.0 
2.893467017207e-05 -5.730726141260e-04 0.0 
1.725305978620e-04 -7.376506925244e-04 0.0 
1.774898071185e-03 1.183344558092e-02 0.0 
1.003479303628e-03 -1.509786582762e-04 0.0 
1.087194180674e-03 4.019923550907e-03 0.0 
9.472456179375e-04 -1.139130381076e-04 0.0 
2.431091224495e-03 9.510549476950e-03 0.0 
1.114063070846e-03 1.177781012580e-03 0.0 
5.664038121144e-04 -2.061081146750e-04 0.0 
1.836230124079e-03 9.778417707957e-04 0.0 
2.119799169361e-03 8.165144125651e-03 0.0 
2.088297985699e-04 6.261572869634e-05 0.0 
-1.420236485766e-03 5.743742274820e-03 0.0 
2.804126387845e-03 8.773091114631e-03 0.0 
3.464871398926e-03 5.838012110578e-03 0.0 
2.397050703720e-03 1.048943029425e-02 0.0 
2.018239694857e-03 9.320183097680e-04 0.0 
2.560432738269e-04 7.199070790350e-05 0.0 
1.493202404931e-03 4.518718666124e-03 0.0 
3.080191422628e-03 6.052408891001e-03 0.0 
1.794306799267e-03 9.037378943226e-04 0.0 
1.917049682740e-04 -1.091897855900e-04 0.0 
2.680989468964e-03 7.657890358796e-03 0.0 
1.382469782005e-03 4.999625681921e-03 0.0 
1.146328395086e-03 1.034378121141e-03 0.0 
3.465447809329e-03 5.472492530412e-03 0.0 
2.610548047078e-03 9.404447798108e-03 0.0 
1.922916485899e-03 6.829478467183e-03 0.0 
9.935674352494e-05 5.136336758688e-04 0.0 
2.953665893164e-03 7.229083649559e-03 0.0 
3.379408081342e-03 3.808716296579e-03 0.0 
2.737108624786e-04 7.878794303245e-03 0.0 
5.128299297958e-04 5.353966116564e-04 0.0 
1.881630058368e-03 7.798455206977e-03 0.0 
3.109531254292e-03 6.570894069243e-03 0.0 
2.241497398260e-03 5.673561295575e-03 0.0 
9.482026796598e-04 2.179479234295e-03 0.0 
1.022479998925e-03 4.011045276583e-03 0.0 
2.088392057455e-03 7.236559941200e-03 0.0 
3.140343078808e-03 8.468795589199e-03 0.0 
9.085872160232e-04 3.526287907438e-03 0.0 
1.512191022964e-03 4.047926366078e-03 0.0 
2.529279533336e-03 7.378263980232e-03 0.0 
2.873695995275e-04 8.256519111351e-05 0.0 
3.311985204428e-03 3.470315884637e-03 0.0 
2.366857455862e-03 7.055488464448e-03 0.0 
3.377844214887e-03 6.654920823774e-03 0.0 
3.252666915058e-03 3.378197747608e-03 0.0 
2.655415985514e-03 5.353217297200e-03 0.0 
1.332240738935e-03 8.348775793453e-03 0.0 
3.457415905845e-03 4.689063278848e-03 0.0 
2.512891512508e-03 2.531512126775e-03 0.0 
1.417251547184e-03 4.518104142491e-03 0.0 
-1.698196812161e-03 5.093478999868e-03 0.0 
1.819832005811e-03 7.337647350682e-03 0.0 
3.169112989457e-03 5.577494283307e-03 0.0 
2.831346513287e-03 8.242054695472e-03 0.0 
2.560922314941e-03 4.795123007622e-03 0.0 
1.926400412674e-03 6.348835118408e-03 0.0 
1.911296421330e-04 -1.409881323253e-04 0.0 
2.661003130946e-03 1.002496330711e-02 0.0 
3.157565236047e-03 3.058878501547e-03 0.0 
1.996951367934e-03 7.279219928777e-03 0.0 
1.313392820517e-03 7.732598304414e-03 0.0 
1.120306048683e-03 5.075408935335e-03 0.0 
2.632617182858e-03 2.900357362404e-03 0.0 
2.186186742251e-03 2.053440573239e-03 0.0 
2.551332802884e-03 1.075220259376e-02 0.0 
1.458367005459e-03 5.000180103678e-03 0.0 
2.747060366923e-03 9.833222012214e-03 0.0 
3.422048798758e-03 4.725328078645e-03 0.0 
3.426149189398e-03 5.541614753387e-03 0.0 
1.542158499486e-03 5.323165701726e-03 0.0 
3.404319843328e-03 6.165595388902e-03 0.0 
1.962650995946e-03 9.621432982023e-03 0.0 
1.835388069612e-04 5.209384202712e-04 0.0 
2.400108198636e-04 5.503389289942e-04 0.0 
2.978260262985e-03 6.732416581843e-03 0.0 
2.924059572806e-03 6.005800970172e-03 0.0 
2.659989054266e-03 7.689921866021e-03 0.0 
2.377880220134e-03 6.569841314192e-03 0.0 
2.793089630646e-03 6.517514554563e-03 0.0 
2.311209094083e-03 2.395669756210e-03 0.0 
2.586269300364e-03 7.773374928487e-03 0.0 
1.686230095202e-04 1.337390293350e-03 0.0 
3.305288135411e-03 6.051663371229e-03 0.0 
2.962386232189e-03 3.158208842493e-03 0.0 
2.232384214520e-03 8.957412493228e-03 0.0 
3.262858852018e-04 1.480052878233e-04 0.0 
2.828062579156e-03 7.104230108521e-03 0.0 
2.715112746356e-03 7.159814207243e-03 0.0 
1.806235649735e-03 4.844606743853e-03 0.0 
2.694737305455e-03 1.661597004456e-03 0.0 
3.477914278242e-03 5.035115256332e-03 0.0 
2.265118407866e-03 1.872683928887e-03 0.0 
2.248493999841e-03 7.614050755984e-03 0.0 
2.581848462008e-04 4.282584173321e-04 0.0 
3.332084318342e-03 5.151156320977e-03 0.0 
3.131302689124e-03 2.852584159897e-03 0.0 
2.224649866957e-03 8.285922323179e-03 0.0 
8.675065003293e-04 5.881279408842e-03 0.0 
2.049314624828e-03 8.668014637738e-04 0.0 
2.709773218046e-03 9.725492992276e-03 0.0 
8.686994750482e-04 6.371879661443e-03 0.0 
3.302406101782e-04 4.093106391346e-04 0.0 
1.780280075814e-03 7.377335392935e-04 0.0 
2.578978434207e-04 4.749551886043e-04 0.0 
1.063444399083e-03 6.422851476256e-03 0.0 
1.745830013628e-03 4.022793545900e-03 0.0 
2.334970997260e-03 1.053395944176e-02 0.0 
2.257311871189e-03 8.533916035877e-03 0.0 
2.273324801391e-03 7.124647282928e-03 0.0 
2.194189700308e-03 6.699007340002e-03 0.0 
3.082123788050e-03 7.367088525546e-03 0.0 
3.621785663687e-04 3.726347743575e-04 0.0 
1.352157134913e-03 6.926625330728e-03 0.0 
1.847835309956e-03 8.279412200892e-03 0.0 
3.403248551224e-03 5.140502279103e-03 0.0 
7.987947340570e-04 -1.842279491444e-04 0.0 
2.110238657274e-03 9.094823048017e-03 0.0 
2.890180268569e-03 9.106998494147e-03 0.0 
2.428028357668e-04 8.787016163034e-03 0.0 
2.140019296222e-03 1.581759636889e-03 0.0 
3.279796129994e-03 5.594772575413e-03 0.0 
1.221479204234e-03 4.035007910543e-03 0.0 
2.936937942624e-03 8.651753850765e-03 0.0 
2.304761899929e-03 8.039360421976e-03 0.0 
3.019390640366e-03 2.571145436702e-03 0.0 
2.203259121538e-03 7.494094729312e-04 0.0 
3.631821282007e-04 2.866429006543e-04 0.0 
2.319843343645e-03 9.790090571411e-03 0.0 
2.671309980494e-03 3.591817748739e-03 0.0 
1.782816481157e-03 3.868621999437e-04 0.0 
2.500621943139e-03 1.089188435868e-02 0.0 
2.648589839473e-03 1.014108148450e-02 0.0 
1.276709833545e-03 3.120677842227e-03 0.0 
2.643582881561e-03 6.782987644469e-03 0.0 
2.484813200938e-03 1.035941573890e-02 0.0 
2.290833428953e-03 8.957362709979e-03 0.0 
3.908099233940e-04 2.238390301830e-04 0.0 
9.696596390727e-04 5.948757448958e-04 0.0 
1.209543293620e-03 3.118627006794e-03 0.0 
1.271283970146e-03 4.510535243592e-03 0.0 
2.279913330428e-03 8.304268036670e-04 0.0 
2.948110781627e-03 9.055391682830e-03 0.0 
2.860918947215e-03 5.458831877024e-03 0.0 
3.114136910519e-03 5.093538956188e-03 0.0 
2.805615862751e-03 7.031069099533e-03 0.0 
2.821274170810e-03 1.853420507966e-03 0.0 
1.250912341207e-03 -1.101322869707e-04 0.0 
1.019154166106e-03 3.096996597663e-03 0.0 
2.555840669826e-03 3.164299046847e-03 0.0 
3.189009969729e-03 7.440308498979e-03 0.0 
2.435131797600e-03 7.468224952588e-03 0.0 
3.126366153346e-03 8.247479429352e-03 0.0 
2.501456970375e-04 5.119896443828e-04 0.0 
2.176241782825e-04 5.534672808991e-04 0.0 
5.536332805942e-04 1.377260484879e-03 0.0 
2.222940972932e-03 7.952842500982e-04 0.0 
8.507380931178e-04 3.510354089070e-03 0.0 
2.562952551335e-03 9.901605032371e-03 0.0 
3.282813785644e-03 4.724448764527e-03 0.0 
2.132946085476e-03 5.047613955477e-03 0.0 
2.686565191740e-03 9.664375624269e-03 0.0 
1.201730783978e-03 8.364750114458e-03 0.0 
9.970591022955e-04 6.411590286826e-03 0.0 
8.129678707237e-04 3.884103320508e-04 0.0 
1.416945278868e-03 3.131042279849e-03 0.0 
1.834489514311e-03 6.856392254048e-03 0.0 
2.194120887793e-03 6.218108039182e-03 0.0 
2.305987065368e-03 4.636954652821e-03 0.0 
1.847308015329e-04 3.383073782676e-04 0.0 
3.455367729742e-03 6.045605766867e-03 0.0 
3.190069424514e-03 6.660940229933e-03 0.0 
3.442026987596e-03 5.878042628048e-03 0.0 
8.746466489566e-04 1.025652168866e-02 0.0 
2.272800604943e-04 7.622007542402e-03 0.0 
7.174842295917e-04 -1.422936397715e-04 0.0 
2.988938322122e-03 7.647093498281e-03 0.0 
1.701725038312e-04 8.003513714697e-05 0.0 
2.820321516256e-03 2.515428793520e-03 0.0 
1.764112874432e-03 8.297105062355e-03 0.0 
5.034062345535e-05 -8.785819660264e-04 0.0 
2.999380561678e-03 7.559910454502e-03 0.0 
3.476203193356e-03 5.716724107202e-03 0.0 
2.015127542545e-03 6.313188037320e-03 0.0 
2.846786988752e-04 4.268571327452e-04 0.0 
2.166176489541e-03 8.599951139796e-03 0.0 
2.469344865677e-03 6.490266669867e-03 0.0 
1.360872831644e-03 -4.062013286518e-05 0.0 
1.029673306478e-03 3.549593200788e-03 0.0 
2.124775381615e-03 7.166136546458e-04 0.0 
3.158586193916e-04 4.311270443581e-04 0.0 
1.302020335338e-04 2.522018902576e-04 0.0 
8.598178503863e-05 2.580223142411e-04 0.0 
1.200671563600e-04 2.905511748690e-04 0.0 
2.004061399745e-03 5.835633520595e-03 0.0 
1.093105618317e-03 3.557365416354e-03 0.0 
1.168715973002e-03 2.662861601557e-03 0.0 
3.047158914419e-03 8.501389554882e-03 0.0 
2.862620033372e-03 9.282436812218e-03 0.0 
1.071138741890e-03 -2.353906657120e-04 0.0 
1.080879311107e-03 3.104890117948e-03 0.0 
3.471522351321e-04 3.920253188280e-04 0.0 
8.453743563758e-04 3.060539534333e-03 0.0 
3.066603298916e-03 2.946701074237e-03 0.0 
9.017462650816e-04 3.074966553358e-03 0.0 
2.610826157120e-03 3.742606243074e-03 0.0 
3.232508286057e-03 6.933105240707e-03 0.0 
2.595975552706e-03 9.826345246272e-03 0.0 
2.445577758677e-03 7.655569793972e-03 0.0 
2.360760460317e-04 1.094673556416e-03 0.0 
3.108379295439e-03 8.523189021302e-03 0.0 
1.129891407434e-03 1.333890493224e-03 0.0 
1.177256509431e-03 -1.749746010759e-04 0.0 
1.820788730514e-03 1.193267532043e-03 0.0 
6.442497124192e-04 2.936918838939e-04 0.0 
3.084922965285e-03 8.056226828184e-03 0.0 
1.276958098869e-04 2.227532983467e-04 0.0 
3.930124335375e-04 1.036636560616e-03 0.0 
2.648426212223e-03 6.299637198339e-03 0.0 
-3.372441650171e-05 3.459595597565e-04 0.0 
1.541896625613e-04 2.213520137599e-04 0.0 
7.048324729629e-04 3.767920305865e-04 0.0 
1.940546614138e-03 1.453252566131e-03 0.0 
2.922758672538e-03 2.476224461157e-03 0.0 
3.830565282919e-04 2.776473929102e-04 0.0 
-2.872041113391e-04 2.216366960654e-04 0.0 
3.202779912957e-03 7.710308531674e-03 0.0 
2.463356351399e-03 6.011698869853e-03 0.0 
2.820916417814e-03 6.541761339479e-03 0.0 
2.552469837141e-03 6.885952847768e-03 0.0 
2.662707019254e-03 8.291654657064e-03 0.0 
1.685716533479e-04 1.995356085363e-04 0.0 
3.377927224614e-03 4.350973169008e-03 0.0 
1.012699785440e-03 4.373180533696e-03 0.0 
3.682427484392e-04 1.041440440532e-04 0.0 
-1.099805289516e-04 2.065944709394e-04 0.0 
2.403220881439e-03 9.286031444871e-03 0.0 
7.981283302677e-04 1.570839485396e-03 0.0 
2.021416242699e-03 9.143662666398e-03 0.0 
3.666443631874e-04 1.931305154177e-04 0.0 
1.835979845845e-04 1.801450640659e-04 0.0 
2.103084305291e-03 6.751171398518e-03 0.0 
3.183174351750e-04 1.321887404574e-03 0.0 
5.707396526026e-04 4.114112147946e-03 0.0 
6.186224499419e-04 1.314888089232e-03 0.0 
1.091041944999e-03 2.863447322327e-04 0.0 
1.274367051277e-03 8.667210606209e-03 0.0 
1.711645281035e-03 7.838206154645e-03 0.0 
1.794075330079e-04 1.476976979692e-04 0.0 
1.144038322672e-03 8.680317921824e-03 0.0 
1.606979478163e-04 5.075912386825e-04 0.0 
2.498705735426e-03 3.346922056253e-03 0.0 
9.294590306224e-04 6.898190753042e-03 0.0 
2.688749312557e-03 1.028067869842e-02 0.0 
2.943708784164e-03 2.645485757042e-03 0.0 
2.045608365747e-03 6.175462339673e-03 0.0 
1.992819330992e-04 1.387021902251e-04 0.0 
1.199436635037e-04 2.597877541252e-04 0.0 
9.755702192260e-05 2.629161060301e-04 0.0 
2.021794483937e-03 6.091893601553e-04 0.0 
8.937422378115e-04 -3.498209166374e-04 0.0 
3.298244894944e-03 6.692147173961e-03 0.0 
1.918499102757e-03 5.487555915016e-04 0.0 
2.054167624511e-04 1.224949717459e-04 0.0 
2.988372352979e-03 7.111001702372e-03 0.0 
2.570343637672e-03 2.316070065725e-03 0.0 
2.486747089325e-03 1.824698378940e-03 0.0 
8.068664810582e-04 6.347509071001e-03 0.0 
3.022923185728e-04 1.274059148412e-04 0.0 
1.621205100198e-04 1.088631998942e-03 0.0 
1.812512022445e-04 9.178645698056e-05 0.0 
2.198110332217e-03 1.437856455672e-03 0.0 
1.304890363139e-04 2.055051189853e-04 0.0 
1.233543599093e-03 2.670011254677e-03 0.0 
-4.279783792699e-04 3.808154050863e-04 0.0 
3.323274359515e-03 6.932587821689e-03 0.0 
7.382089884301e-04 3.022147828328e-03 0.0 
1.616689568303e-04 2.097750305983e-04 0.0 
2.091949349977e-03 5.792717580974e-03 0.0 
2.412930269013e-03 2.875868015942e-03 0.0 
1.940918723743e-03 8.219640006309e-03 0.0 
1.142171182380e-03 6.041648301840e-04 0.0 
2.114570527469e-03 1.077305114524e-03 0.0 
2.362363648324e-03 1.554008075803e-03 0.0 
-2.976299599351e-04 1.344340479411e-03 0.0 
1.785805817842e-04 1.924897102916e-04 0.0 
2.509032048726e-03 5.820996282497e-03 0.0 
1.651228247887e-03 6.987324091461e-04 0.0 
9.196500323394e-04 7.441302306066e-03 0.0 
1.448571021428e-03 3.182839373470e-04 0.0 
2.447592884862e-03 1.999471050808e-03 0.0 
2.284278753148e-03 6.158100831851e-03 0.0 
1.837745951927e-04 1.389452026851e-04 0.0 
8.652533907372e-04 -3.359240687667e-04 0.0 
1.956659443264e-03 6.871753429858e-04 0.0 
3.061811466372e-03 6.082390349964e-03 0.0 
2.594694146675e-03 1.368624402312e-03 0.0 
2.727874735300e-03 2.431413231244e-03 0.0 
2.115389718081e-03 7.479486651427e-04 0.0 
3.058230159440e-03 6.561440530801e-03 0.0 
2.419277248402e-03 4.033024710398e-03 0.0 
2.670161322930e-03 2.233572047323e-03 0.0 
3.202272250636e-03 6.177984536701e-03 0.0 
1.506803582434e-03 5.312013774205e-05 0.0 
3.109703219340e-03 7.582602894859e-03 0.0 
9.949085674151e-04 -2.982409656666e-04 0.0 
2.548632633199e-03 3.246303087294e-03 0.0 
3.195924725717e-03 2.928607069595e-03 0.0 
3.514237060756e-04 1.718215941275e-04 0.0 
7.212873826040e-04 2.590583190490e-03 0.0 
1.286931491433e-03 2.260976419717e-04 0.0 
1.853931609429e-04 1.013440584371e-04 0.0 
8.442708516950e-04 4.381365709826e-04 0.0 
3.442839851305e-03 5.421224735943e-03 0.0 
-1.159468702598e-04 1.095356158436e-03 0.0 
2.827325550643e-04 1.114086965797e-04 0.0 
8.783359665462e-04 2.640117262691e-03 0.0 
1.896374083269e-03 1.075318047346e-03 0.0 
1.561133813706e-04 6.797015067631e-05 0.0 
1.902419138890e-03 5.792909030294e-04 0.0 
2.786949892647e-03 9.132009352871e-03 0.0 
1.733569664002e-03 7.359705436888e-03 0.0 
3.281505562010e-03 3.227019548273e-03 0.0 
2.093165358475e-03 6.268186172480e-04 0.0 
2.626873908885e-03 1.511034701710e-03 0.0 
1.408873654607e-03 5.477663487744e-03 0.0 
2.570020773822e-03 8.669651714896e-03 0.0 
2.516780426996e-03 2.206175101675e-03 0.0 
2.144590428011e-04 7.049619148361e-03 0.0 
1.394693444899e-03 -3.160926430779e-05 0.0 
2.784433302116e-03 2.211661242114e-03 0.0 
1.992536200206e-03 8.687755342905e-04 0.0 
1.122089412994e-03 5.839334769415e-05 0.0 
-5.483178393262e-04 7.238981782678e-04 0.0 
3.174584747332e-03 7.926722098121e-03 0.0 
2.074223002888e-03 1.191399900218e-03 0.0 
1.209025724127e-03 -1.092529883071e-04 0.0 
3.364462549556e-03 5.499918154572e-03 0.0 
1.996328856536e-03 6.710596821801e-04 0.0 
8.003633303878e-04 6.833492370565e-03 0.0 
1.778726525143e-03 8.557263108101e-04 0.0 
1.461789372022e-04 5.943576416487e-05 0.0 
2.551324653525e-03 5.924034601625e-03 0.0 
1.052132925061e-03 -1.570578838666e-04 0.0 
2.735256632080e-03 6.187156001059e-03 0.0 
1.100947343300e-03 -1.659869870419e-04 0.0 
-3.795468644251e-04 5.306234350071e-04 0.0 
1.664081856077e-03 6.895009812488e-03 0.0 
3.095568462768e-04 -5.361337795407e-04 0.0 
-2.577311563475e-05 -6.599411968451e-04 0.0 
8.900137325253e-04 -2.608227683957e-04 0.0 
1.818046381921e-03 6.117582011675e-04 0.0 
2.183165662980e-04 3.099237831743e-03 0.0 
2.789590937974e-03 1.694724298040e-03 0.0 
2.676531469909e-03 1.523779713951e-03 0.0 
1.723097649010e-03 8.774419542683e-03 0.0 
1.153229419834e-03 9.305166046779e-03 0.0 
2.800088673261e-04 1.024734087604e-03 0.0 
2.905401964170e-03 6.401813700505e-03 0.0 
-4.331257719720e-05 -6.997377043987e-04 0.0 
5.147716799298e-04 -3.071901848498e-04 0.0 
-7.269422363863e-05 6.818913701241e-04 0.0 
1.142650701749e-03 -7.617166346848e-05 0.0 
1.613382307582e-03 2.637627612005e-03 0.0 
2.489450101412e-04 3.131311934337e-03 0.0 
1.169307668652e-03 2.850330005160e-04 0.0 
1.014929813208e-03 -2.977986789370e-04 0.0 
1.023478096626e-03 1.616269379047e-05 0.0 
1.458806936481e-03 5.936655774286e-04 0.0 
1.680270389481e-03 4.244196128560e-03 0.0 
2.193200626408e-04 -5.489587607985e-04 0.0 
1.509049389958e-04 -6.651989978459e-04 0.0 
2.686892277980e-04 9.910301630026e-05 0.0 
1.365536178621e-04 5.197293241483e-05 0.0 
2.288741391646e-04 -4.686465229407e-04 0.0 
9.459183358358e-04 -2.029402131364e-04 0.0 
2.009866312191e-03 5.652690999245e-04 0.0 
1.344331683251e-03 5.915017648683e-04 0.0 
5.946215410655e-04 -3.436675447996e-04 0.0 
1.546421368453e-03 5.785089375845e-04 0.0 
1.274777948536e-04 -7.731324899162e-04 0.0 
9.319971712895e-04 -2.762358024256e-04 0.0 
1.267694291870e-03 -4.780329423451e-05 0.0 
6.296948563115e-05 -8.305713940820e-04 0.0 
1.823534134285e-04 -5.120962426061e-04 0.0 
6.719711375637e-04 2.568125302853e-03 0.0 
-2.180097268104e-05 -7.749403236562e-04 0.0 
1.277966112342e-03 9.252735733298e-03 0.0 
1.342366872669e-03 9.524315644610e-03 0.0 
2.616726453778e-03 1.622431475970e-03 0.0 
7.489316020636e-05 -6.744423487734e-04 0.0 
1.834541117499e-03 7.632785834490e-04 0.0 
2.456030071229e-03 8.928792755064e-03 0.0 
7.549659514350e-04 1.910625965113e-04 0.0 
6.654074858899e-04 7.745561400041e-04 0.0 
4.485649287127e-04 3.764246729827e-03 0.0 
2.764066380340e-03 9.918277328569e-03 0.0 
3.033308442295e-04 -2.120708576845e-04 0.0 
2.382766373443e-03 8.873915490022e-03 0.0 
8.094420751081e-04 9.313599633043e-03 0.0 
7.574797921585e-04 9.624859447940e-03 0.0 
-6.149263023547e-06 -7.428548140008e-04 0.0 
7.407565118489e-05 -7.769135702716e-04 0.0 
7.312082349370e-05 -8.732066510851e-04 0.0 
7.653243028808e-04 -4.114800282231e-04 0.0 
3.926798126812e-05 -8.538297599646e-04 0.0 
1.876306287916e-04 -4.286112132339e-04 0.0 
-7.578127838768e-04 1.920103644012e-03 0.0 
9.071235619822e-04 -3.621575504804e-04 0.0 
1.897665904465e-04 5.925700570611e-03 0.0 
1.092259405726e-03 9.615226640902e-03 0.0 
1.347459216702e-03 2.283419784301e-03 0.0 
1.780462235144e-03 5.196872425128e-04 0.0 
1.714055809711e-04 6.823726701493e-03 0.0 
4.019717656360e-05 -6.395929490326e-04 0.0 
7.568302117685e-05 -8.634018596886e-04 0.0 
3.597425203762e-05 2.712762517503e-04 0.0 
8.172212697832e-05 5.650263280105e-04 0.0 
8.523873260948e-04 7.400974514030e-03 0.0 
9.200675212533e-04 9.330489719980e-03 0.0 
2.006093823043e-04 -6.239784522680e-04 0.0 
5.395867386419e-05 5.358322626674e-04 0.0 
8.789951853483e-04 -3.510629914456e-04 0.0 
1.214520942205e-03 9.575123366502e-03 0.0 
1.033443328049e-03 9.332220338712e-03 0.0 
2.131318248318e-03 9.524485092286e-03 0.0 
7.471616277770e-05 2.495689244414e-04 0.0 
6.494552332738e-05 5.342715379946e-04 0.0 
4.648354365309e-05 -8.067880389131e-04 0.0 
4.883581143409e-06 -8.070295702854e-04 0.0 
3.857560772980e-04 -3.604974232590e-04 0.0 
1.377526452507e-03 1.658114390742e-05 0.0 
8.209517050802e-05 5.003521190867e-05 0.0 
-1.033285306690e-03 2.251013490048e-03 0.0 
5.931393279481e-05 3.913426229341e-03 0.0 
-6.106703266345e-04 1.365107655608e-03 0.0 
2.490913844209e-03 1.349175598457e-03 0.0 
-6.875804722661e-04 1.138316522573e-03 0.0 
-8.450478878000e-04 1.644751706525e-03 0.0 
2.473180585515e-03 1.226814989847e-03 0.0 
3.227365867760e-04 7.281867418706e-05 0.0 
1.595345449428e-04 6.259853358444e-03 0.0 
2.536604480378e-03 8.274444294787e-03 0.0 
4.785485274205e-05 -8.699079656739e-04 0.0 
8.455666970762e-04 -1.096875327673e-05 0.0 
1.312611978343e-05 3.194300372382e-04 0.0 
2.582154035964e-05 5.412472886592e-04 0.0 
9.757517362877e-04 9.629745096593e-03 0.0 
2.466421831814e-03 1.441250258352e-03 0.0 
2.897127128975e-05 2.629952862443e-04 0.0 
2.449458757407e-03 2.779571991022e-03 0.0 
4.548784640769e-05 -8.897328898902e-04 0.0 
2.802513901745e-05 -8.867058063325e-04 0.0 
2.822033036624e-05 -8.967259391523e-04 0.0 
4.451186564312e-05 -5.606314869876e-04 0.0 
6.573996473086e-05 2.656260635188e-05 0.0 
7.072894804819e-06 1.470218933772e-03 0.0 
7.978513996134e-06 -8.892012130596e-04 0.0 
9.659803741241e-05 -4.307199830508e-04 0.0 
2.234904498613e-05 1.039466814992e-05 0.0 
9.236366360154e-05 3.257567320833e-05 0.0 
2.544678169956e-04 8.836100037781e-05 0.0 
3.342937101027e-05 4.890758680235e-03 0.0 
1.304172636062e-05 3.420821822938e-03 0.0 
4.339091974474e-05 1.616793820196e-05 0.0 
4.897274385680e-05 1.640773500637e-05 0.0 
2.905175089848e-05 3.913938310464e-03 0.0 
-2.627563487922e-07 -9.008218379546e-04 0.0 
5.630206015908e-04 9.639772413210e-03 0.0 
8.657737313244e-04 9.632374156210e-03 0.0 
8.866087033650e-06 -8.554825195995e-04 0.0 
7.822872411223e-05 2.384604687999e-05 0.0 
2.458345363724e-04 8.068269249348e-05 0.0 
1.235023293126e-04 3.945177600110e-05 0.0 
-2.593666513738e-06 -8.740561320358e-04 0.0 
-9.032371113013e-06 -8.324656850893e-04 0.0 
1.321356099358e-04 4.713008388543e-05 0.0 
1.223322070597e-04 4.123091649239e-05 0.0 
1.741934647241e-05 5.393377819392e-03 0.0 
2.910721439110e-04 9.658159836139e-03 0.0 
1.601002453786e-05 4.397074721102e-03 0.0 
2.142263601661e-05 7.371800194179e-03 0.0 
1.239677974134e-04 9.658701554368e-03 0.0 
-7.486558212451e-05 -6.027793640870e-04 0.0 
-1.708820993598e-04 -3.225180793259e-04 0.0 
-2.393907912950e-04 -1.335750462937e-04 0.0 
-3.262723891931e-04 9.917990359387e-05 0.0 
4.916425967349e-05 -3.884688507833e-04 0.0 
4.743377773892e-05 -4.760568731096e-04 0.0 
-1.428293337558e-04 -2.411268640827e-04 0.0 
5.026929912455e-05 -1.465937698152e-04 0.0 
-2.078215363102e-04 -3.241781631761e-05 0.0 
6.053425265926e-05 2.591548811492e-04 0.0 
2.498740257444e-05 2.728369764231e-04 0.0 
4.574787494069e-05 2.937500762602e-04 0.0 
1.943404183655e-05 -8.650919119078e-04 0.0 
3.469598364275e-05 -7.109044681100e-04 0.0 
2.380970017250e-05 3.282653070659e-04 0.0 
3.456923449876e-05 2.231342989461e-05 0.0 
1.269542057622e-05 2.218172514211e-04 0.0 
2.540118716551e-05 4.465864097299e-05 0.0 
1.550298900337e-05 4.433628097402e-05 0.0 
9.194564338203e-05 -5.173978229580e-04 0.0 
4.879710274694e-05 6.011022834891e-04 0.0 
3.650512074872e-05 5.500825584870e-04 0.0 
5.997042166427e-05 3.627628782903e-05 0.0 
4.090417616889e-05 4.829609246893e-05 0.0 
5.078051555173e-04 -2.963520879629e-05 0.0 
-4.876555347697e-04 9.057438375941e-04 0.0 
7.664075860403e-04 -3.766403375695e-04 0.0 
4.812739833270e-05 -7.450695919886e-04 0.0 
7.093644458246e-04 1.705795506168e-04 0.0 
1.036716192839e-03 -2.272823503416e-04 0.0 
5.769414323175e-04 7.479163298148e-05 0.0 
7.190799351690e-04 -3.951696589931e-04 0.0 
1.812561837757e-04 -6.631707044605e-04 0.0 
4.027263302482e-04 7.581020150442e-05 0.0 
7.865739571028e-04 -3.000138598854e-04 0.0 
1.691094691580e-04 -5.929899487835e-04 0.0 
5.086642788344e-04 5.798408740866e-05 0.0 
8.075489994646e-05 2.484959811423e-03 0.0 
8.470904220672e-05 -5.993610946206e-04 0.0 
1.747529731153e-03 6.121893122454e-04 0.0 
1.417936017307e-03 2.128334145892e-04 0.0 
5.962804598619e-04 -1.011118439134e-05 0.0 
4.356079985544e-04 -1.199924120543e-05 0.0 
3.309856444382e-03 4.339439813017e-03 0.0 
2.496220760407e-03 9.181125205962e-03 0.0 
3.369451861371e-03 5.958322224556e-03 0.0 
9.401754726485e-04 2.229151558340e-05 0.0 
3.641901199195e-04 5.027588331933e-05 0.0 
2.873609936712e-04 -6.823039046089e-06 0.0 
1.033399363889e-03 4.795076354469e-06 0.0 
1.523548264135e-04 2.561651963630e-03 0.0 
1.960839776979e-04 3.544349826726e-03 0.0 
3.760399161366e-04 8.158115666986e-03 0.0 
1.034797531067e-03 9.791246535414e-05 0.0 
7.643393620059e-04 4.825540612462e-07 0.0 
1.042881561354e-04 2.536409090593e-03 0.0 
1.338818929828e-04 3.043240379163e-03 0.0 
1.512651340273e-03 2.325993302975e-04 0.0 
2.751472700930e-04 6.440238761974e-05 0.0 
4.077181258875e-04 3.733696079459e-03 0.0 
2.048043620130e-04 -1.430404064517e-05 0.0 
5.293799266819e-04 1.280785815468e-04 0.0 
1.772703358062e-04 2.586456526936e-03 0.0 
3.493270749542e-04 5.114796788532e-03 0.0 
1.735758891447e-03 5.360388798451e-04 0.0 
3.686240623654e-04 -7.099979266913e-04 0.0 
1.034939211299e-03 1.952315210756e-04 0.0 
2.787160413906e-04 -3.161156979077e-04 0.0 
-2.290622994627e-04 8.835506496542e-04 0.0 
1.617038403984e-04 3.041986227820e-03 0.0 
2.928352401339e-04 5.532250822185e-05 0.0 
-1.625164840445e-04 5.108098148032e-04 0.0 
1.048773508120e-03 2.664336728470e-03 0.0 
4.413406659222e-04 7.660906275303e-03 0.0 
6.678542680923e-04 7.206175443707e-05 0.0 
3.707679773921e-04 3.005309330732e-05 0.0 
1.755087698500e-03 5.086389582849e-04 0.0 
3.003729820356e-04 1.918710227492e-05 0.0 
4.251527629530e-04 8.173862941713e-03 0.0 
2.655223220416e-03 2.099065791803e-03 0.0 
4.055740319091e-04 1.044351076139e-04 0.0 
1.937848839554e-04 -7.813985042409e-04 0.0 
6.520460411986e-04 1.773999106308e-04 0.0 
2.689918093143e-04 4.569608810075e-03 0.0 
3.065371686014e-04 -7.249448935659e-04 0.0 
1.190991041992e-03 8.674305703264e-05 0.0 
4.263697176164e-04 -2.743278714823e-04 0.0 
4.794305469015e-04 6.180315015459e-03 0.0 
9.275590254465e-04 -3.668180611181e-04 0.0 
1.984620808313e-04 4.020770063576e-03 0.0 
3.032815249054e-04 5.570836518715e-03 0.0 
8.917375089990e-04 -1.871667415740e-04 0.0 
3.501017023010e-04 -2.595862880925e-05 0.0 
4.432622852811e-04 1.800233959013e-05 0.0 
2.316413905277e-04 4.535032158211e-03 0.0 
3.916695353177e-04 -6.765268375619e-04 0.0 
7.382989361102e-04 -2.785724376864e-04 0.0 
1.913843103619e-03 1.627715909989e-03 0.0 
3.045099475667e-04 4.119604514012e-03 0.0 
7.297115911701e-04 -3.561431627181e-04 0.0 
1.319153921662e-03 1.564115629868e-04 0.0 
8.389192996310e-04 2.345784569352e-04 0.0 
3.068735067721e-04 5.084030566487e-03 0.0 
4.767446873493e-04 3.551925999191e-03 0.0 
2.292560523703e-04 -5.523701386414e-04 0.0 
2.189897750285e-03 4.090354485420e-03 0.0 
4.264918933508e-04 6.234729003459e-05 0.0 
3.902150821596e-04 5.631092928576e-03 0.0 
3.081122183965e-04 -2.137601870479e-04 0.0 
5.089045685730e-04 7.188878659814e-03 0.0 
1.414093516379e-03 5.435212081448e-04 0.0 
7.295993612292e-04 -2.021034877288e-04 0.0 
5.188568132921e-04 3.386192697622e-05 0.0 
3.092373370496e-04 -7.380374705428e-04 0.0 
5.734607809712e-04 1.441732391390e-04 0.0 
7.875578846960e-04 -2.236078746342e-04 0.0 
2.421904740032e-04 -7.471109378838e-04 0.0 
6.375196872558e-04 -3.075918885202e-04 0.0 
8.179774325382e-04 -4.093289502584e-04 0.0 
8.228009537076e-04 -4.290692786255e-04 0.0 
4.054632212730e-04 -1.958495016015e-04 0.0 
-4.756076793668e-05 -5.538686970765e-04 0.0 
-8.569442300233e-05 -4.140513307570e-04 0.0 
6.738885061190e-04 -2.529272553609e-05 0.0 
3.594188624367e-04 -7.156695167657e-04 0.0 
9.445286430389e-04 6.182804942684e-05 0.0 
1.129055677044e-03 1.006065854144e-04 0.0 
1.310206257918e-03 -1.005377701582e-04 0.0 
1.594535241107e-03 7.452645897883e-04 0.0 
3.490018211286e-04 3.226115054620e-03 0.0 
1.103634817119e-03 6.683744358081e-03 0.0 
7.013171415531e-04 -4.330362401318e-04 0.0 
1.303400559633e-03 5.429647923309e-04 0.0 
2.941228632220e-04 -7.496796694415e-04 0.0 
4.705232615595e-04 6.668056348387e-03 0.0 
4.925118633528e-04 7.691110208803e-03 0.0 
5.400323541589e-04 -4.274881925380e-04 0.0 
1.046108069274e-03 3.110344238673e-04 0.0 
5.246389657679e-04 4.754246628964e-03 0.0 
4.145379404984e-04 -6.794055433592e-04 0.0 
3.573909412113e-04 2.795021577113e-03 0.0 
3.235395568021e-04 2.762100832782e-03 0.0 
4.919900027272e-04 -6.376032116927e-04 0.0 
2.779883555271e-03 1.001059524231e-02 0.0 
6.930800104478e-04 -4.798278289374e-04 0.0 
5.996778309100e-04 2.338437058560e-05 0.0 
5.672223954239e-04 -2.042788098921e-04 0.0 
8.243603773610e-04 2.625859433953e-03 0.0 
3.140717070067e-04 3.195030134500e-03 0.0 
7.674516170657e-04 3.705637709402e-05 0.0 
8.530321225265e-04 6.514160359949e-05 0.0 
6.023723229150e-04 -4.508228506775e-04 0.0 
6.803981322271e-04 4.477665247364e-05 0.0 
4.780540446431e-04 4.724720290704e-03 0.0 
4.669711723746e-04 -2.255707417682e-04 0.0 
4.364896986660e-04 5.662683429703e-03 0.0 
4.236717787679e-04 4.212985070894e-03 0.0 
3.408110978270e-03 3.883198307837e-03 0.0 
2.954098694900e-04 3.640681727892e-03 0.0 
5.852000814694e-04 -3.620160091731e-04 0.0 
6.273362459512e-04 -2.304426635319e-04 0.0 
6.520207099263e-04 -5.070517353987e-04 0.0 
1.438778677147e-03 2.294720117870e-05 0.0 
4.373853803861e-04 5.177838415093e-03 0.0 
1.940079667508e-03 4.555366361250e-04 0.0 
6.476135490640e-04 -5.421053609170e-04 0.0 
3.510628537592e-04 -4.456393673021e-04 0.0 
4.838592725639e-04 5.208317413477e-03 0.0 
7.224282846407e-04 -4.863225203051e-04 0.0 
6.835348653343e-04 1.932960858066e-04 0.0 
3.484456089382e-04 4.632185790075e-03 0.0 
7.418252922252e-04 9.462900720124e-05 0.0 
6.762552457507e-04 3.345101929607e-04 0.0 
6.291169643912e-04 -3.891258611720e-04 0.0 
5.569654164929e-04 -5.919498098056e-04 0.0 
4.254892694844e-04 -4.761527766314e-04 0.0 
1.022748109638e-03 1.309175998081e-04 0.0 
3.402601822946e-04 6.088698569189e-03 0.0 
2.484246105230e-04 -4.853392468488e-04 0.0 
8.327030387287e-04 -4.203220915936e-04 0.0 
2.027357905731e-04 -7.929944807616e-04 0.0 
5.297378001387e-04 6.210990292406e-03 0.0 
7.243981409767e-04 -4.518280049500e-04 0.0 
1.223777967387e-03 1.460951403349e-04 0.0 
5.626535061115e-04 -5.404234416475e-04 0.0 
2.277811942048e-04 3.576796867343e-03 0.0 
8.360215125019e-04 -4.303739269208e-04 0.0 
1.274288412787e-03 2.557950039332e-04 0.0 
9.536217803790e-04 5.378182921255e-05 0.0 
1.214134163355e-03 1.814679329095e-04 0.0 
4.838002152781e-04 -3.035597773454e-04 0.0 
9.193967609045e-04 1.251207120246e-04 0.0 
2.841582381100e-03 2.767763023368e-03 0.0 
2.538415490691e-04 -7.717994913814e-04 0.0 
4.093176121140e-04 7.128138968988e-03 0.0 
2.419057844074e-03 1.220111198235e-03 0.0 
3.112315880245e-03 7.669946344189e-03 0.0 
3.847401713667e-04 6.118188757005e-03 0.0 
1.210657244250e-03 2.855993531566e-04 0.0 
6.914884909806e-04 5.808178221381e-03 0.0 
2.479322751702e-04 -7.777701002057e-04 0.0 
8.908917596851e-04 2.204098893109e-04 0.0 
2.408472618814e-03 1.318556683585e-03 0.0 
2.514112769087e-03 2.087815959380e-03 0.0 
2.598080961427e-04 2.242923191496e-03 0.0 
1.901554130842e-03 4.629305827061e-04 0.0 
4.413323337622e-04 -6.310705015069e-04 0.0 
1.613959424820e-03 3.416906591626e-04 0.0 
8.826126215398e-04 2.603804137582e-04 0.0 
1.718383027659e-03 5.790202061767e-04 0.0 
8.399496618208e-04 9.542913174327e-05 0.0 
3.902292978638e-04 4.663636915509e-03 0.0 
1.613544667438e-03 1.069483736852e-03 0.0 
1.411945349941e-03 2.504046452805e-04 0.0 
7.291996629476e-04 7.300968182735e-03 0.0 
3.667085307919e-04 -6.840553340318e-04 0.0 
9.306653245824e-04 -3.696761588571e-04 0.0 
3.132163149045e-03 5.903279795493e-03 0.0 
1.107362451584e-03 1.689845124429e-04 0.0 
2.876947498302e-03 8.941811835717e-03 0.0 
3.264412985594e-03 5.965209385214e-03 0.0 
5.815104702890e-04 5.267079999036e-03 0.0 
4.221075025311e-04 6.637520591060e-03 0.0 
7.406162876606e-04 6.808761310358e-03 0.0 
5.845155205636e-04 -2.809665012711e-04 0.0 
1.262252296739e-03 4.049018510678e-04 0.0 
1.817973108316e-03 4.596937045125e-04 0.0 
5.623809329115e-04 7.224969352200e-03 0.0 
9.679996510133e-04 2.168760526916e-03 0.0 
2.334518996357e-03 2.027027124696e-03 0.0 
1.303519450265e-03 2.293555862526e-04 0.0 
3.823209241664e-04 4.182380694083e-03 0.0 
1.325493556004e-03 -8.965869051754e-05 0.0 
1.123848195809e-03 -2.377205930696e-04 0.0 
5.460126912659e-04 -5.192620561309e-04 0.0 
1.689917994405e-03 4.443202919824e-04 0.0 
1.013999748860e-03 -3.042449688120e-04 0.0 
5.843371206813e-04 5.753073952333e-03 0.0 
6.904601349149e-04 6.297140264106e-03 0.0 
3.265420670426e-03 3.025623442801e-03 0.0 
1.109511700008e-03 -2.179237850701e-04 0.0 
3.175549518358e-03 4.684109691844e-03 0.0 
1.025251017014e-03 -3.040126390185e-04 0.0 
1.226162079992e-03 -1.604214456475e-04 0.0 
5.904760110869e-04 -5.319566651608e-04 0.0 
1.489040672541e-03 5.225326776001e-04 0.0 
1.853779384313e-03 3.666710479937e-04 0.0 
3.314371571640e-04 3.672006782528e-03 0.0 
2.051113709258e-03 5.662370810884e-04 0.0 
1.711348903711e-03 4.148620655099e-04 0.0 
1.870856815305e-03 4.096022838105e-04 0.0 
3.400143395221e-03 5.250373426814e-03 0.0 
5.291761527086e-04 -5.882958054171e-04 0.0 
1.093884970177e-03 3.448816416516e-04 0.0 
9.429016599073e-04 3.093813533710e-04 0.0 
2.572330042738e-03 4.369466125038e-03 0.0 
1.434226199237e-03 -2.511929503893e-07 0.0 
1.812956308147e-03 4.177889559479e-04 0.0 
5.332708440811e-04 5.723837705034e-03 0.0 
1.202729812887e-03 -1.743909528208e-04 0.0 
3.271307693856e-03 7.443545921130e-03 0.0 
7.500011158234e-04 -4.852247339375e-04 0.0 
1.487368338597e-03 5.530573853391e-04 0.0 
1.531049038686e-03 7.359912945880e-05 0.0 
6.619658214524e-04 -5.397029262541e-04 0.0 
4.372348644502e-04 -6.689738875146e-04 0.0 
1.759170556775e-03 3.140832087123e-04 0.0 
1.505601314487e-03 3.099008508583e-04 0.0 
1.741174101247e-03 2.580354422258e-03 0.0 
-1.095606765683e-04 -4.804234290585e-04 0.0 
2.565084403914e-03 1.318250882158e-03 0.0 
2.210990510640e-03 7.832412786958e-04 0.0 
1.645490681690e-03 1.761973838657e-04 0.0 
6.349739591946e-04 6.269658981403e-03 0.0 
1.884511843783e-03 3.918980056901e-04 0.0 
7.497889411862e-04 -4.780309963494e-04 0.0 
1.736121171854e-03 2.512009312856e-04 0.0 
2.675097161248e-04 4.087793756057e-03 0.0 
6.626859039453e-04 -5.222615854628e-04 0.0 
2.920860089909e-04 -5.825135986664e-04 0.0 
4.438644358943e-04 -5.657707375632e-04 0.0 
1.555401532793e-03 4.792607290887e-04 0.0 
1.326030741919e-03 -5.287744847038e-05 0.0 
2.402944134245e-03 1.018012243692e-03 0.0 
1.933413014491e-03 4.394214044236e-04 0.0 
9.266589478519e-04 2.615308886035e-04 0.0 
4.004839367687e-04 -6.212400426829e-04 0.0 
9.953509600192e-04 6.919567576955e-03 0.0 
5.848094129043e-04 -5.847873093725e-04 0.0 
1.591103782344e-03 5.380117736295e-04 0.0 
2.005528796718e-03 2.870128719727e-03 0.0 
1.753092796617e-03 6.398683132045e-03 0.0 
5.481200754208e-04 3.372939781810e-03 0.0 
1.466431305744e-03 2.248831065808e-03 0.0 
3.373554531964e-03 3.600785080895e-03 0.0 
2.319832282428e-03 3.612031131227e-03 0.0 
1.204305698091e-03 5.302811803087e-04 0.0 
1.585314555581e-03 1.227617944025e-04 0.0 
3.482712257442e-03 5.266100107959e-03 0.0 
1.965373796416e-03 1.907568793125e-03 0.0 
8.738278492062e-04 5.166072247164e-04 0.0 
1.115703226790e-03 -2.408110206023e-04 0.0 
2.091556042812e-03 6.319819134515e-04 0.0 
2.286291715121e-03 8.549179419724e-04 0.0 
5.857416700343e-04 -5.745397061692e-04 0.0 
2.054076029329e-03 5.704144523441e-04 0.0 
2.448355088347e-03 1.125867219514e-03 0.0 
2.739698754992e-03 1.584788349232e-03 0.0 
1.222146787997e-03 -1.468385977294e-04 0.0 
2.563228144913e-03 1.697534902026e-03 0.0 
6.331756648680e-04 5.294702985382e-03 0.0 
2.896247191868e-03 1.980673129553e-03 0.0 
1.315637257796e-03 4.488367775954e-04 0.0 
1.504938736157e-03 8.410725311330e-04 0.0 
1.084547754786e-03 4.386865645230e-04 0.0 
2.231952438406e-03 7.710129942137e-04 0.0 
1.162678011507e-03 1.845170244947e-03 0.0 
2.355649284960e-03 5.617561140162e-03 0.0 
1.304263580049e-03 4.515823047824e-04 0.0 
1.830852579466e-03 5.900586838320e-03 0.0 
6.877707717251e-04 3.001147266840e-03 0.0 
2.390758457166e-03 9.762760199652e-04 0.0 
3.332098944974e-03 7.234372355395e-03 0.0 
1.894583717330e-03 5.399944723166e-03 0.0 
3.116379015992e-03 6.865285669562e-03 0.0 
1.002419098845e-03 4.305975962108e-04 0.0 
2.660213207489e-04 1.432499728184e-03 0.0 
7.426843896135e-04 1.757033581283e-04 0.0 
1.486769742395e-03 9.727096021525e-04 0.0 
2.316744005482e-04 2.667495170206e-03 0.0 
2.354719358169e-03 1.383771190350e-03 0.0 
5.743068791352e-04 6.734822317720e-03 0.0 
5.810453242511e-04 3.849139016487e-03 0.0 
2.630324333119e-03 1.382722013648e-03 0.0 
3.152921312621e-03 2.708214690326e-03 0.0 
4.198848880554e-04 2.407468142864e-03 0.0 
1.356870236336e-03 3.049516666858e-04 0.0 
6.748734742139e-04 4.836147157568e-03 0.0 
2.275208973547e-03 1.085647626278e-03 0.0 
1.297813951689e-03 7.275642022102e-04 0.0 
7.080395764819e-04 4.378783136343e-03 0.0 
8.325711886225e-04 9.419614599893e-04 0.0 
9.761689987603e-04 3.376382746239e-04 0.0 
1.700190501995e-03 2.182443335392e-04 0.0 
6.284767615908e-04 6.764254759419e-03 0.0 
6.725463125980e-04 7.283942914498e-03 0.0 
2.116208900371e-03 6.335914985740e-04 0.0 
1.566684439388e-03 3.992564893598e-04 0.0 
1.596586972159e-03 4.768369842721e-04 0.0 
3.856809828689e-04 -5.459961162032e-04 0.0 
2.962074718099e-03 5.021484470734e-03 0.0 
3.038132566639e-03 2.266531964698e-03 0.0 
2.789952620047e-03 1.745709662418e-03 0.0 
3.317946768360e-03 6.207207011700e-03 0.0 
3.329867132080e-04 1.920475036377e-03 0.0 
9.893555849850e-04 2.657787320810e-03 0.0 
2.607738097396e-04 2.699888315732e-03 0.0 
2.781723701467e-03 8.773192468658e-03 0.0 
8.412337774213e-04 3.966365748490e-03 0.0 
1.479757238359e-03 3.380084545830e-04 0.0 
3.201649506278e-04 2.325060539061e-03 0.0 
8.429189660341e-04 4.904882670067e-03 0.0 
1.768947543747e-03 2.861910515138e-04 0.0 
3.176563963208e-03 2.763763700412e-03 0.0 
6.557304365724e-04 4.354166000620e-03 0.0 
4.663973527810e-04 2.872025705306e-03 0.0 
5.111035027179e-04 4.273062059523e-03 0.0 
6.227985458498e-04 4.810324179437e-03 0.0 
1.150100408619e-03 3.235476247182e-04 0.0 
1.709636585936e-03 1.239760715162e-03 0.0 
1.367000442963e-03 4.189647444215e-04 0.0 
1.615018783241e-03 3.019603692932e-04 0.0 
2.229333045044e-03 9.873671764751e-03 0.0 
2.259173956491e-03 1.413484749030e-03 0.0 
1.164804356046e-03 4.975600053981e-03 0.0 
5.054817267501e-04 -6.328431459225e-04 0.0 
2.944665903231e-03 2.027233146744e-03 0.0 
2.806587289437e-03 1.688219309554e-03 0.0 
2.982591664909e-03 2.386620968426e-03 0.0 
2.336053695304e-03 3.017230776793e-03 0.0 
3.090977519539e-03 2.491088824126e-03 0.0 
2.754154257385e-03 2.060961867170e-03 0.0 
2.442349958967e-03 8.373801831003e-03 0.0 
1.712829108943e-03 2.543106068505e-04 0.0 
9.299741981798e-04 5.899613210313e-03 0.0 
6.208973010063e-04 8.876048617740e-03 0.0 
3.765453709628e-04 1.181182485948e-02 0.0 
1.707391461962e-03 3.332270270758e-04 0.0 
2.180027305058e-03 1.212140506064e-03 0.0 
7.863679113134e-04 2.212705553000e-03 0.0 
3.189550826723e-03 2.749243878531e-03 0.0 
1.684303026128e-03 2.828495787358e-04 0.0 
7.481477943968e-04 5.833815968069e-03 0.0 
1.149637570753e-03 1.269586348708e-02 0.0 
2.398406512556e-03 1.497296413530e-03 0.0 
2.998006994656e-03 2.251111044878e-03 0.0 
2.397867043217e-03 7.962693437058e-03 0.0 
1.518056760838e-03 4.154215443173e-04 0.0 
1.844832779947e-03 1.598305078015e-03 0.0 
1.522448513823e-03 4.783787669785e-04 0.0 
1.221612832758e-03 4.557816599970e-04 0.0 
2.601447742558e-03 1.829649927831e-03 0.0 
5.575978882207e-04 4.301516623650e-03 0.0 
2.216521650843e-03 2.600285467968e-03 0.0 
1.180537270087e-03 4.170734894320e-04 0.0 
1.614261685299e-03 1.297624617827e-02 0.0 
7.994356085909e-04 5.369256560533e-03 0.0 
1.681686860464e-03 1.413957026685e-03 0.0 
5.349877042636e-04 3.822312617648e-03 0.0 
2.855680652350e-03 2.141000617936e-03 0.0 
3.201646219019e-03 2.777245189411e-03 0.0 
1.040886290171e-03 -9.062376591634e-05 0.0 
1.308586975989e-03 4.020526684794e-03 0.0 
4.237000083630e-04 3.289586449319e-03 0.0 
4.380195013248e-04 -6.561238718321e-04 0.0 
1.880607901028e-03 1.287808152158e-02 0.0 
2.316742305763e-03 3.051404483102e-03 0.0 
2.319724632021e-04 2.211795594565e-03 0.0 
1.501956292643e-03 1.188368249466e-03 0.0 
2.976535363919e-03 5.777731623547e-03 0.0 
7.847083260659e-04 4.883857143622e-03 0.0 
1.427497697409e-03 7.636240417308e-05 0.0 
2.211147789912e-03 2.617446721786e-03 0.0 
3.279322143560e-03 7.374007788056e-03 0.0 
9.546175123297e-04 7.129792279410e-04 0.0 
1.613486521528e-03 1.457204556541e-03 0.0 
1.272253425239e-03 1.056645462874e-03 0.0 
3.051500300571e-03 2.447667312352e-03 0.0 
1.392689281267e-04 4.947554728448e-04 0.0 
1.993677227066e-03 1.255366742696e-02 0.0 
9.433562837453e-04 2.480295745589e-04 0.0 
3.374172886674e-03 3.989249240391e-03 0.0 
9.837895757964e-04 5.424472794007e-03 0.0 
1.890891510138e-03 3.900603172783e-03 0.0 
1.047473448013e-03 4.016478014729e-04 0.0 
1.176717015566e-03 8.242526213368e-04 0.0 
4.947756508511e-04 -5.908391125790e-04 0.0 
2.490155753309e-03 1.850755659484e-03 0.0 
2.459449984268e-03 1.079956512231e-03 0.0 
1.924046859183e-03 1.555953277189e-03 0.0 
3.179233159870e-03 8.226817362300e-03 0.0 
1.064965158023e-03 4.487389170029e-03 0.0 
1.469050130132e-03 1.006102835359e-03 0.0 
7.419098966483e-04 5.346163710201e-03 0.0 
8.356623847508e-04 2.222482090833e-03 0.0 
7.310453392981e-04 3.924054273140e-03 0.0 
7.418881616873e-04 3.471869164255e-03 0.0 
2.583565068267e-03 6.438324446712e-03 0.0 
9.695817994781e-04 2.201319503473e-04 0.0 
8.184755083038e-04 4.423523500038e-03 0.0 
3.394668167015e-03 4.071134903812e-03 0.0 
2.002992610104e-03 1.202978280804e-02 0.0 
1.207987304151e-03 8.215513312358e-04 0.0 
2.682183507104e-03 4.404425538884e-03 0.0 
5.071986207549e-04 -6.097455270367e-04 0.0 
2.141113770285e-03 1.747657938162e-03 0.0 
4.402917149634e-05 -8.451313816991e-04 0.0 
3.301567617521e-03 5.289877455217e-03 0.0 
2.289207166472e-03 1.516112480150e-03 0.0 
5.811967210763e-04 2.529735706194e-03 0.0 
5.484747152491e-04 2.084538492095e-03 0.0 
2.466659320182e-03 1.732039170456e-03 0.0 
5.935856587047e-04 3.399523065489e-03 0.0 
3.445722330860e-03 4.301278381302e-03 0.0 
2.138880462655e-03 3.272172301529e-03 0.0 
1.930977551616e-03 1.135906336383e-02 0.0 
1.117498718718e-03 2.265526439132e-03 0.0 
1.798286869083e-03 1.058034938402e-02 0.0 
1.715446907757e-03 1.015890229768e-02 0.0 
3.314371992618e-03 3.283006733274e-03 0.0 
1.621028768881e-03 9.722089240279e-03 0.0 
3.143507482404e-03 4.052536803454e-03 0.0 
3.462689657536e-03 5.138163875519e-03 0.0 
3.058846733788e-03 2.288175307260e-03 0.0 
1.963461407876e-03 2.460594605495e-03 0.0 
3.269583936571e-03 3.045467574204e-03 0.0 
4.279632957588e-04 2.845110095347e-03 0.0 
9.152237260556e-04 2.172286489262e-03 0.0 
1.153706546801e-03 2.324847162136e-04 0.0 
1.700824035449e-03 1.296175804893e-03 0.0 
2.570100867575e-03 1.252282619544e-03 0.0 
6.902436482325e-04 3.449375754998e-03 0.0 
3.136773942499e-03 2.526213655686e-03 0.0 
7.822148236991e-04 1.701362010750e-04 0.0 
6.788200474444e-04 3.900339435889e-03 0.0 
8.996454921469e-04 3.983850111818e-03 0.0 
2.669845612490e-03 1.765190896464e-03 0.0 
3.374406977165e-03 3.636732085460e-03 0.0 
1.800725140917e-03 2.538837060839e-03 0.0 
2.268036332252e-03 5.684388457835e-03 0.0 
1.842709766211e-03 2.092945859805e-03 0.0 
2.574280865755e-03 3.912635295022e-03 0.0 
3.265747798675e-03 7.684345159805e-03 0.0 
2.900095758172e-03 5.926178923047e-03 0.0 
6.079885185575e-04 1.316676841176e-04 0.0 
8.770194329722e-04 4.443341566131e-03 0.0 
3.319387703964e-03 3.338797869242e-03 0.0 
2.639475651315e-03 4.807365952624e-03 0.0 
2.068959948724e-03 1.225477254224e-03 0.0 
4.636283984111e-04 3.319197773013e-03 0.0 
1.529786714589e-03 2.235824925819e-03 0.0 
1.060035124354e-03 5.926731305302e-03 0.0 
1.697956508539e-03 7.619074342086e-04 0.0 
3.128841816348e-03 2.518056476210e-03 0.0 
2.033500451678e-03 1.137658234439e-03 0.0 
3.253023146570e-03 5.506283898715e-03 0.0 
4.582428909902e-04 2.445708125755e-03 0.0 
1.220309257917e-03 1.840092296320e-03 0.0 
2.883009311745e-03 2.026408756051e-03 0.0 
2.336930358509e-03 3.756732596359e-03 0.0 
2.046152129755e-03 2.249240636859e-03 0.0 
3.176225711561e-03 4.641230704605e-03 0.0 
3.406600885834e-03 3.975819252482e-03 0.0 
2.809591605101e-03 1.977344673035e-03 0.0 
1.720186616482e-03 6.676544370157e-04 0.0 
2.214172498726e-03 3.288846780023e-03 0.0 
3.038718996331e-03 2.280471020531e-03 0.0 
1.810102026922e-03 5.429250959802e-03 0.0 
5.574382208096e-04 1.152862996489e-04 0.0 
1.859243979531e-03 4.933010620569e-03 0.0 
2.170260585367e-03 2.675202966169e-03 0.0 
1.745971934996e-03 5.923521065093e-03 0.0 
1.582238870028e-03 6.905283873799e-03 0.0 
2.321171027307e-03 5.153874879245e-03 0.0 
1.937107661259e-03 1.414957963765e-03 0.0 
1.100312047191e-03 2.464399038786e-04 0.0 
9.651385200894e-04 4.940557641720e-03 0.0 
5.081385154667e-04 2.067149456923e-03 0.0 
1.668947480190e-03 6.415242604280e-03 0.0 
3.241824029968e-03 3.950892627782e-03 0.0 
1.822640082359e-03 1.973382596765e-03 0.0 
3.508089151273e-04 2.345537733601e-03 0.0 
3.371108696918e-03 4.826306146491e-03 0.0 
3.266444513466e-03 4.858755082622e-03 0.0 
3.312950971953e-03 3.648094101913e-03 0.0 
9.999797741503e-04 4.476127823632e-03 0.0 
2.962157916684e-03 8.407233653861e-03 0.0 
3.056187552572e-03 3.678254154195e-03 0.0 
3.046878584546e-03 8.193856502414e-03 0.0 
2.336099590038e-03 1.824087758707e-03 0.0 
1.355771821338e-03 1.363785088367e-03 0.0 
3.215473674707e-03 3.029918113749e-03 0.0 
1.190236225755e-03 3.483249868049e-03 0.0 
6.320292875033e-04 2.114001220438e-03 0.0 
2.854415376448e-03 8.251906722234e-03 0.0 
2.706316538256e-03 1.478215337588e-03 0.0 
1.615401017347e-03 1.641383044735e-03 0.0 
1.029687146542e-03 4.955859535893e-03 0.0 
1.305283991810e-03 3.202344756036e-04 0.0 
3.483846931924e-03 4.950010837255e-03 0.0 
8.003540699524e-04 3.273717568197e-03 0.0 
4.006918000549e-04 9.071004403499e-05 0.0 
2.949844958252e-03 5.320534308422e-03 0.0 
2.682123684550e-03 2.507477928194e-03 0.0 
1.626550409711e-03 2.148586162229e-03 0.0 
8.410974054935e-05 3.364508773632e-03 0.0 
1.379543315284e-03 3.694563184582e-04 0.0 
3.223944826538e-03 6.552870257366e-03 0.0 
1.128910223304e-03 5.936462352948e-03 0.0 
1.390663922813e-03 1.208042389818e-04 0.0 
3.290359697911e-03 3.336729897786e-03 0.0 
7.249197507213e-04 1.473189921680e-04 0.0 
3.111369748819e-03 4.234501195141e-03 0.0 
3.248672895479e-03 3.621270845296e-03 0.0 
2.837795300114e-03 5.013236342400e-03 0.0 
7.064678098453e-04 2.784325122720e-03 0.0 
2.383559497641e-03 3.530241772409e-03 0.0 
2.327080676773e-03 1.721533714331e-03 0.0 
9.490001013355e-04 1.497866207299e-03 0.0 
2.064000181840e-03 2.810869629204e-03 0.0 
2.855653485892e-03 3.715687513637e-03 0.0 
1.076165872508e-03 1.935618780663e-04 0.0 
3.023447973021e-04 1.885460237073e-03 0.0 
9.157330962856e-04 6.487284284090e-04 0.0 
2.145362021874e-03 1.663077714469e-03 0.0 
3.448084868498e-03 4.244604441222e-03 0.0 
2.640668741233e-03 4.264437363603e-03 0.0 
4.561826663710e-04 8.780201365001e-05 0.0 
3.281093616536e-04 -2.911928526709e-04 0.0 
2.261079062989e-03 3.131123852188e-03 0.0 
9.201139464096e-04 5.408615888448e-03 0.0 
9.065063691026e-04 1.903413080059e-04 0.0 
1.302625455746e-03 3.714577358561e-04 0.0 
2.470219097268e-04 9.369570827838e-03 0.0 
1.646301428683e-04 9.372307152951e-03 0.0 
1.694849849221e-03 4.978061841539e-03 0.0 
2.551343162110e-03 3.846206590145e-03 0.0 
1.205868719453e-03 5.922993603875e-05 0.0 
2.189536017832e-03 4.761588417942e-03 0.0 
3.242223678879e-03 4.245239731949e-03 0.0 
1.452190913369e-03 7.453748020596e-04 0.0 
3.465711097165e-03 4.547284919691e-03 0.0 
1.250870180082e-04 5.043414295526e-04 0.0 
1.624210452265e-03 7.872470453499e-03 0.0 
3.300304747198e-03 4.644728501653e-03 0.0 
1.496322229663e-03 1.852221212662e-04 0.0 
2.877832948561e-03 4.525172422172e-03 0.0 
1.599907473213e-03 1.668982236316e-04 0.0 
2.780223883569e-03 4.576061857719e-03 0.0 
2.720642239011e-03 5.716286380430e-03 0.0 
1.117213301198e-03 5.449505735826e-03 0.0 
2.125090793925e-03 4.312198583627e-03 0.0 
1.969385498857e-03 3.922397817547e-03 0.0 
9.823732970357e-05 -8.604624040984e-04 0.0 
1.541149961602e-03 1.032961291582e-04 0.0 
2.944851986010e-03 8.076145424591e-03 0.0 
2.066095756596e-03 5.324862583345e-03 0.0 
1.942868068566e-03 4.900844420369e-03 0.0 
1.726212584623e-03 1.135342976491e-03 0.0 
2.459512965980e-05 -8.250505586987e-04 0.0 
1.818711047019e-03 2.692689434651e-03 0.0 
3.113458351516e-03 5.444710131638e-03 0.0 
1.428818375201e-03 2.464360394037e-05 0.0 
1.793522078430e-03 1.013351190268e-02 0.0 
1.699253757104e-03 9.706060261077e-03 0.0 
1.187345126830e-03 5.457984907517e-03 0.0 
2.404126721188e-03 6.990687928620e-03 0.0 
1.359893495642e-03 6.812327513119e-05 0.0 
2.132376825433e-03 1.116117942882e-03 0.0 
1.944516232477e-03 3.121157554171e-03 0.0 
6.979139224492e-04 7.395757028790e-04 0.0 
5.946536366738e-04 2.962986824134e-03 0.0 
1.102951577167e-03 -9.923468390169e-05 0.0 
9.596959425224e-04 1.777264233900e-04 0.0 
1.391237576855e-04 -7.976914468954e-04 0.0 
2.187712020412e-03 1.061210395317e-03 0.0 
3.016416263176e-03 5.166623370983e-03 0.0 
1.063342200667e-04 -8.420081423170e-04 0.0 
5.502209389998e-04 2.936848971876e-03 0.0 
1.768267852113e-03 3.399292057870e-03 0.0 
2.152024873516e-03 5.276540667536e-03 0.0 
2.800995818747e-03 5.595256941391e-03 0.0 
2.781256702815e-03 1.632541946705e-03 0.0 
2.210904632747e-03 8.580589439563e-04 0.0 
5.397240994798e-04 2.514068672745e-03 0.0 
2.041500007129e-03 7.788369647461e-04 0.0 
3.130503283129e-03 4.826558564832e-03 0.0 
3.172177614082e-03 5.260489386346e-03 0.0 
-2.086867362438e-04 1.095648711345e-02 0.0 
1.439295981222e-03 3.205608196902e-03 0.0 
1.962028260293e-03 2.381561947940e-03 0.0 
1.507185975766e-03 6.428816602745e-03 0.0 
1.784777278373e-03 2.030786409645e-03 0.0 
3.223550822444e-03 7.028487287073e-03 0.0 
1.224901116903e-03 3.572273413781e-03 0.0 
1.678784983212e-03 2.106517433803e-03 0.0 
1.755474962709e-03 9.231862991888e-03 0.0 
1.911431099540e-03 2.437509241890e-03 0.0 
8.875411728648e-04 1.473521699830e-04 0.0 
2.763091451399e-03 4.032435180226e-03 0.0 
1.537547131713e-03 1.480269586794e-04 0.0 
1.575601236796e-03 2.042057119218e-04 0.0 
6.787303735544e-04 2.134850444876e-03 0.0 
2.326972656382e-03 9.235362789787e-04 0.0 
2.765385766355e-03 5.139511675869e-03 0.0 
3.265852561297e-03 3.601956431259e-03 0.0 
1.819231869380e-03 6.858557156472e-04 0.0 
3.390226022929e-03 4.582080658763e-03 0.0 
2.911343946188e-03 3.409076542819e-03 0.0 
2.866470242305e-03 1.873802789309e-03 0.0 
3.139160042860e-03 3.895926614873e-03 0.0 
2.108002816748e-03 4.817426888560e-03 0.0 
3.049196125778e-03 3.502432859838e-03 0.0 
2.404637755152e-03 5.082023005917e-03 0.0 
1.935964047683e-03 1.343933458300e-03 0.0 
2.135199495034e-03 1.489499164627e-03 0.0 
3.439110527464e-03 4.723087078663e-03 0.0 
1.272297540946e-03 5.945726410443e-03 0.0 
7.770565264673e-04 1.371498456919e-04 0.0 
7.107877449114e-04 1.141182631915e-04 0.0 
1.891424563410e-03 7.473860356986e-03 0.0 
2.349753459687e-03 4.630637027984e-03 0.0 
4.420720660326e-04 1.014349525881e-04 0.0 
2.449523859952e-03 1.073249543488e-02 0.0 
1.076797484998e-03 -3.795187154044e-05 0.0 
3.899798245360e-04 1.102648969082e-02 0.0 
6.081006714176e-04 1.079060251988e-04 0.0 
2.954273812610e-03 4.157251943208e-03 0.0 
2.713598135353e-04 -2.603464084031e-04 0.0 
2.678572616924e-03 2.642259310532e-03 0.0 
1.347013354485e-03 5.948691506800e-03 0.0 
1.428391533085e-03 6.430519690598e-03 0.0 
2.967306320192e-03 4.730923568655e-03 0.0 
1.950799115513e-03 1.092990841157e-02 0.0 
1.878178869743e-03 1.054357313880e-02 0.0 
5.482253829567e-04 9.114664775299e-05 0.0 
2.176684335067e-03 8.728315827540e-04 0.0 
2.715914199038e-03 1.507071069444e-03 0.0 
2.249119665544e-03 1.165055052401e-03 0.0 
2.981112996221e-03 2.075698120299e-03 0.0 
3.099928189987e-03 4.244134727425e-03 0.0 
1.872493943148e-03 1.098231715999e-02 0.0 
1.564291849184e-03 7.404243797052e-03 0.0 
2.070411289859e-04 9.660289785045e-03 0.0 
2.120822417859e-03 1.402794419475e-03 0.0 
3.440997292610e-03 4.448297393538e-03 0.0 
1.205659157212e-03 8.602232204267e-04 0.0 
2.370136906756e-04 3.189688373010e-05 0.0 
2.968917384915e-03 2.076151013047e-03 0.0 
3.688164690076e-04 9.417286312391e-05 0.0 
2.969752268588e-03 2.861997270957e-03 0.0 
1.448976013283e-03 1.147208403273e-03 0.0 
3.022674077579e-03 4.575079507795e-03 0.0 
2.713433259650e-03 3.514951906246e-03 0.0 
1.546466320752e-03 7.053775750285e-04 0.0 
1.659948357988e-03 2.107400603306e-04 0.0 
2.564014945256e-03 4.909602812407e-03 0.0 
2.895662205075e-03 1.866844908075e-03 0.0 
2.609571480560e-03 5.362777974691e-03 0.0 
3.303507964616e-03 6.949396910333e-03 0.0 
2.626170136424e-03 3.027133589245e-03 0.0 
2.879929279234e-03 1.840023277082e-03 0.0 
1.308210937779e-03 1.117595964108e-04 0.0 
2.527084314930e-03 5.458044998606e-03 0.0 
1.416346604329e-04 8.143444690206e-03 0.0 
3.077611873883e-03 3.134370190833e-03 0.0 
1.289420127152e-03 1.030706526419e-02 0.0 
3.118587783805e-04 -6.601860373490e-04 0.0 
1.181090730863e-03 9.582519574258e-06 0.0 
1.881553202598e-03 2.974114725713e-03 0.0 
1.501868592752e-03 5.956746247650e-03 0.0 
2.054232176055e-03 1.162048479667e-02 0.0 
6.455276534897e-05 2.451865484033e-04 0.0 
-9.720109295660e-04 9.649136342008e-03 0.0 
2.011081378033e-03 1.128925133092e-02 0.0 
2.617080524341e-03 1.358420746290e-03 0.0 
9.358868112281e-04 -1.326734943188e-04 0.0 
2.220777638349e-03 9.453059858167e-03 0.0 
2.634995567689e-03 1.762098444631e-03 0.0 
2.324321979729e-03 9.549759623399e-04 0.0 
2.843163598725e-03 4.447660021412e-03 0.0 
2.829616219967e-03 2.670975532095e-03 0.0 
1.370914741287e-03 2.706266176545e-03 0.0 
2.133704669133e-03 6.875260808504e-03 0.0 
1.210434563149e-03 -4.671409300438e-05 0.0 
8.709169180715e-04 -1.176084597399e-04 0.0 
1.082925323103e-03 -2.027460726989e-04 0.0 
1.649184289873e-03 8.784871992922e-03 0.0 
1.581787111128e-03 5.953446310496e-03 0.0 
8.614548457925e-05 -4.523770451242e-05 0.0 
1.022075559949e-04 -8.252558824198e-04 0.0 
-3.433314715701e-04 3.644666490346e-03 0.0 
7.275641777154e-04 -2.845197839976e-04 0.0 
7.688090923756e-04 -1.505973200897e-04 0.0 
3.063028540151e-03 2.683686250511e-03 0.0 
2.630073381106e-03 1.933228143461e-03 0.0 
2.803776953822e-03 3.021265093478e-03 0.0 
1.002964157220e-03 -3.053510897963e-05 0.0 
1.614357370648e-03 4.987428854142e-03 0.0 
7.025558459818e-04 -1.304029783170e-04 0.0 
3.156003856764e-03 2.992739103216e-03 0.0 
2.426643484162e-03 4.553483858389e-03 0.0 
9.717077112734e-04 7.923098050733e-03 0.0 
2.322587692114e-03 2.122536371683e-03 0.0 
6.032322643081e-04 -1.557452923162e-04 0.0 
9.020830692368e-04 -6.814196877661e-05 0.0 
2.080196268089e-03 1.217827016549e-02 0.0 
2.935648250162e-03 2.177073508139e-03 0.0 
5.351836706170e-04 -1.319524185709e-04 0.0 
3.682663746097e-05 5.876518459514e-03 0.0 
4.082992700518e-05 6.848355412180e-03 0.0 
2.076418410785e-03 1.192261141729e-02 0.0 
8.279882330702e-04 -5.470443486664e-05 0.0 
2.261280175553e-03 1.183977541596e-03 0.0 
1.930493117186e-03 1.025299549979e-02 0.0 
1.457909432705e-03 1.101189814281e-03 0.0 
7.861575299626e-04 -2.299197587665e-05 0.0 
2.269672499287e-03 1.071998586790e-03 0.0 
3.181759457254e-03 3.470306301793e-03 0.0 
1.978011466941e-03 1.170984465923e-02 0.0 
4.376658506312e-04 -1.507646959800e-04 0.0 
6.382916216631e-05 -7.412599620464e-04 0.0 
1.602764686525e-03 8.341821811447e-03 0.0 
7.305688355111e-04 -8.397658405723e-05 0.0 
2.604535124888e-03 1.300022346011e-03 0.0 
1.252662522018e-03 9.431216095665e-06 0.0 
2.593294670550e-04 6.661644959632e-03 0.0 
4.529184357769e-05 3.022583050006e-03 0.0 
2.601236958885e-03 1.454418985530e-03 0.0 
1.679434544459e-03 9.509289962498e-04 0.0 
2.754442274480e-03 3.392078433117e-03 0.0 
6.576964436304e-04 -6.601618206465e-05 0.0 
5.616348604099e-04 -8.864970257910e-05 0.0 
2.973589734568e-03 2.616816390800e-03 0.0 
4.327754195848e-04 1.668904310775e-04 0.0 
4.872703050760e-04 7.510411981940e-03 0.0 
4.893516185540e-04 -6.745027045549e-05 0.0 
1.590087126036e-03 7.669530591131e-04 0.0 
1.894905397248e-03 6.041821640384e-04 0.0 
2.349051395886e-03 4.114805583965e-03 0.0 
2.473255128051e-03 1.094159728990e-02 0.0 
2.201841507937e-03 4.253099066997e-03 0.0 
6.171564927110e-04 2.180290030137e-04 0.0 
-1.465120676832e-03 3.924441019579e-03 0.0 
6.590744076368e-06 2.643245166369e-04 0.0 
1.805610187889e-05 1.294790410115e-05 0.0 
2.560910625774e-05 8.390751488821e-03 0.0 
2.242882180885e-03 8.709641246750e-04 0.0 
2.815771656154e-03 3.905399812356e-03 0.0 
3.166611803493e-03 3.272727630634e-03 0.0 
2.616443036282e-04 -6.412342146926e-04 0.0 
-2.618014332056e-04 9.959598321371e-03 0.0 
1.847065971075e-04 2.175841696033e-03 0.0 
1.644728903879e-03 5.461552199178e-03 0.0 
1.603336615349e-03 9.258344421329e-03 0.0 
3.610577203333e-04 3.392167091644e-04 0.0 
5.372830818336e-05 -7.985587679593e-04 0.0 
3.568672687568e-04 3.067693430677e-04 0.0 
1.564689396437e-03 5.474917972347e-03 0.0 
1.881483338622e-03 4.163637926557e-04 0.0 
2.951211560867e-03 4.164780592683e-03 0.0 
2.140874333280e-03 7.878021307275e-04 0.0 
2.126762757534e-03 1.069698446343e-02 0.0 
1.903443637541e-03 5.358870114836e-04 0.0 
1.649139431525e-03 4.507453627094e-03 0.0 
2.360538062466e-04 4.780949966502e-05 0.0 
2.505549834889e-03 1.374260927529e-03 0.0 
2.114862011987e-03 3.817420962797e-03 0.0 
-1.130905182699e-03 3.418314697138e-03 0.0 
2.854170527370e-03 2.110265875907e-03 0.0 
1.291549557818e-03 4.042022387686e-03 0.0 
1.550059192894e-03 1.313402000529e-04 0.0 
1.639491908218e-03 3.540358682171e-04 0.0 
2.994184803675e-03 4.009530140256e-03 0.0 
1.222006263999e-03 1.442589037392e-03 0.0 
2.000515703320e-03 1.258446907539e-02 0.0 
2.044463041510e-03 1.243415296451e-02 0.0 
1.416447186601e-03 8.712274537857e-05 0.0 
2.524209454813e-03 1.204473605267e-03 0.0 
3.337875557401e-03 4.192649245346e-03 0.0 
2.185181875461e-03 3.756280649361e-03 0.0 
8.367477484868e-04 1.743459836155e-03 0.0 
2.009031022202e-03 1.231893680408e-02 0.0 
6.787018969082e-05 4.868168758446e-03 0.0 
1.054645968378e-03 1.487175307183e-03 0.0 
3.069799020901e-03 3.208855658086e-03 0.0 
1.268801870950e-03 1.101089403585e-02 0.0 
2.535124150926e-03 1.056001262509e-02 0.0 
2.418135931726e-03 1.023510718110e-03 0.0 
1.896028229268e-03 3.966204969517e-03 0.0 
2.521261716142e-03 1.174930936843e-03 0.0 
1.472280196359e-03 6.600947589890e-03 0.0 
2.389790502112e-03 1.096630798454e-03 0.0 
2.269315413192e-03 1.098352415007e-02 0.0 
3.340430936340e-03 3.956493175519e-03 0.0 
2.418432993744e-03 1.084493069895e-03 0.0 
2.899753913793e-03 3.627275886801e-03 0.0 
2.587552400669e-04 6.059007853222e-03 0.0 
1.309498837477e-03 -2.709025883939e-05 0.0 
1.654605127014e-03 9.604345921549e-03 0.0 
2.261459190417e-03 9.818863296972e-04 0.0 
2.363462760143e-03 1.115515973723e-02 0.0 
-3.120949614382e-04 4.111741476273e-03 0.0 
1.679366303353e-05 1.980409790154e-03 0.0 
2.276249458933e-05 2.950930438187e-03 0.0 
-3.326353676779e-06 7.163503415653e-05 0.0 
2.201000403294e-03 9.776069491336e-04 0.0 
9.171468450952e-04 -2.494610253670e-04 0.0 
9.602150596689e-04 -2.715264075310e-04 0.0 
1.817116817777e-03 3.018381775472e-03 0.0 
2.929618929105e-03 3.477964292426e-03 0.0 
2.074455908204e-03 3.334640946095e-03 0.0 
2.741547602174e-03 1.847967265109e-03 0.0 
4.735570353744e-04 9.690938782153e-03 0.0 
4.582084617300e-04 1.485830409298e-04 0.0 
7.896826030628e-04 -3.126872400517e-04 0.0 
1.902585003703e-03 1.131803765761e-03 0.0 
3.260677163070e-03 4.037385963370e-03 0.0 
1.608024717106e-04 -8.201922195562e-04 0.0 
1.890994691992e-03 4.446939822216e-03 0.0 
3.036911914426e-03 2.448190384758e-03 0.0 
2.887463139027e-04 4.974456013456e-04 0.0 
2.748450274272e-03 2.223343980847e-03 0.0 
4.588018387346e-05 -7.489554611988e-05 0.0 
1.729051871427e-03 4.491708642761e-03 0.0 
6.835004026444e-04 3.263018551128e-05 0.0 
1.826696549770e-04 -2.787508836023e-04 0.0 
1.870973860790e-03 3.485925647411e-03 0.0 
2.118978710478e-03 1.914929817949e-03 0.0 
1.658682450581e-03 3.005542624306e-04 0.0 
1.304011702185e-04 -7.313219502645e-04 0.0 
3.179139437967e-03 3.669579764078e-03 0.0 
1.940729098857e-05 6.384653153703e-03 0.0 
2.818126607294e-04 8.711144581911e-04 0.0 
7.888656131691e-04 9.792039245399e-04 0.0 
4.449367291109e-04 1.036467504153e-03 0.0 
8.909518032569e-05 7.734277019323e-03 0.0 
2.977020438545e-04 1.485955066202e-03 0.0 
4.975455132248e-04 9.374313783757e-04 0.0 
2.716730753145e-03 1.679811430206e-03 0.0 
2.384636531039e-03 1.162721368417e-03 0.0 
8.814925861942e-04 4.954603889173e-04 0.0 
-1.259741482165e-03 4.473524771994e-03 0.0 
2.913317852356e-05 -7.732461781076e-04 0.0 
1.350443828344e-04 -2.494318363930e-04 0.0 
1.544259606790e-03 1.697285546217e-04 0.0 
2.385185967080e-03 1.414223947421e-03 0.0 
1.794844382357e-03 1.274284080517e-02 0.0 
1.915557826384e-03 1.269247073333e-02 0.0 
8.331331544453e-04 7.861345220134e-03 0.0 
2.865995386051e-03 2.314512892815e-03 0.0 
3.543579982738e-04 -6.665530936526e-04 0.0 
2.288936244611e-03 2.439312264056e-03 0.0 
1.655056616891e-04 5.052011153472e-05 0.0 
2.107792668895e-04 6.612584065583e-05 0.0 
2.363594339468e-03 1.050495763773e-03 0.0 
1.078890763238e-03 8.454131001370e-03 0.0 
-6.825048077895e-04 3.346612807981e-03 0.0 
1.455537243601e-03 1.248624159297e-02 0.0 
1.085432990936e-03 1.621216585278e-03 0.0 
1.666305769050e-03 1.263639861024e-02 0.0 
3.073366023942e-03 3.503150883397e-03 0.0 
2.016195809114e-03 7.800603627717e-04 0.0 
2.514491594663e-03 1.513784551727e-03 0.0 
1.713228469050e-04 2.256662913624e-03 0.0 
5.178194814759e-05 2.671092299719e-03 0.0 
2.146622460110e-03 8.766109881989e-04 0.0 
1.609309762087e-04 2.126877155358e-03 0.0 
1.370497400230e-04 3.540411234971e-03 0.0 
1.971686385980e-05 5.837545538750e-04 0.0 
4.040514686501e-05 2.334257225107e-05 0.0 
4.703174227434e-05 7.844264457058e-03 0.0 
2.018985922576e-03 6.229563527455e-04 0.0 
1.932891715775e-03 1.279999236110e-02 0.0 
2.001559302353e-03 5.548589814487e-04 0.0 
6.466982962397e-05 1.975187114768e-05 0.0 
8.405939391808e-04 1.174568562899e-02 0.0 
1.188859004693e-03 1.220355645567e-02 0.0 
1.729039876972e-03 1.084607463234e-03 0.0 
8.074226388422e-04 8.746071169837e-03 0.0 
9.747015478179e-05 2.037769848375e-03 0.0 
1.939699659909e-03 3.440048309290e-03 0.0 
1.670520632537e-03 1.472611364996e-03 0.0 
1.487240891614e-03 3.136318041988e-03 0.0 
3.026879384036e-04 7.500522017431e-03 0.0 
1.387334848186e-03 1.273529093376e-04 0.0 
1.495956726012e-03 2.634403243672e-04 0.0 
8.507939891056e-05 5.353197630879e-03 0.0 
1.896321525728e-03 1.782890395546e-03 0.0 
1.402872111177e-03 9.171562956593e-03 0.0 
1.625411783601e-04 8.816221514840e-03 0.0 
1.946020045211e-04 7.955798241852e-03 0.0 
3.477857659043e-04 7.615049585028e-03 0.0 
9.902914955043e-04 2.562113533115e-03 0.0 
1.244008694161e-03 4.284193737833e-05 0.0 
1.404000304765e-04 1.301999762486e-03 0.0 
3.331854602575e-04 6.577920987696e-03 0.0 
6.539421309341e-04 4.386629501596e-04 0.0 
9.214191901005e-04 1.833076095251e-03 0.0 
1.970200323253e-03 4.411844206215e-03 0.0 
4.400739500639e-04 2.054393052018e-03 0.0 
5.821251960951e-04 -4.390094305607e-04 0.0 
5.513431739957e-04 -5.145861057362e-04 0.0 
7.746594496570e-04 2.504412142114e-04 0.0 
-2.561444661826e-04 2.226185326330e-03 0.0 
1.551646585582e-04 -7.514859521319e-04 0.0 
1.774597357488e-04 1.590716450985e-04 0.0 
2.869955177637e-05 -8.791010098814e-04 0.0 
2.007330905177e-04 8.521649482130e-03 0.0 
1.231579968313e-03 6.309619940521e-04 0.0 
1.693368667524e-04 -3.659473290125e-04 0.0 
3.916949372413e-05 -6.686566217636e-04 0.0 
8.371082048628e-05 5.047543201658e-04 0.0 
7.058990336376e-04 9.398479513679e-03 0.0 
2.049021024992e-04 1.409080721094e-03 0.0 
1.157272877754e-03 6.605510606908e-04 0.0 
6.099201603681e-04 9.410146167428e-03 0.0 
-6.841996461160e-04 4.526729061478e-03 0.0 
3.434522261492e-05 1.093415237361e-03 0.0 
2.867940267085e-04 -7.014458673821e-04 0.0 
2.303639834215e-04 1.836241587216e-03 0.0 
5.188497694792e-05 1.661962884720e-05 0.0 
7.492500629722e-04 1.770638183889e-03 0.0 
1.536404196511e-03 2.539080048893e-03 0.0 
1.189263260887e-03 7.806308343325e-03 0.0 
3.529037564359e-04 -4.918932403788e-04 0.0 
2.303961893544e-03 2.336428103612e-03 0.0 
3.414943819538e-04 2.292345590053e-04 0.0 
8.071302511474e-05 4.373972718189e-03 0.0 
3.476292113057e-04 2.130273405261e-04 0.0 
3.004291681622e-04 2.640244211157e-03 0.0 
3.055856894044e-04 8.538519469398e-05 0.0 
1.600409075493e-03 1.916767382915e-03 0.0 
1.309101477889e-04 -8.418648548154e-04 0.0 
7.344486749277e-04 3.242067785818e-04 0.0 
3.532150568642e-04 1.236771039684e-03 0.0 
1.818240158125e-04 9.930675811541e-04 0.0 
4.536062705576e-04 8.688388093770e-03 0.0 
1.486524831706e-03 7.368990261549e-03 0.0 
2.175287489025e-03 1.017073173288e-02 0.0 
5.963080598359e-04 1.083199071896e-03 0.0 
2.770827665465e-04 -6.089800004411e-04 0.0 
1.261878318184e-03 7.883370673285e-03 0.0 
2.112623360514e-03 2.011449965194e-03 0.0 
3.733247697482e-04 9.703948746446e-03 0.0 
4.780438551665e-04 1.697250236081e-03 0.0 
2.780359846322e-06 5.545295312272e-04 0.0 
2.780359846322e-06 2.341019487776e-04 0.0 
3.524211843047e-07 -9.132853183155e-04 0.0 
1.709392192582e-06 -9.148116830430e-04 0.0 
2.001991717092e-05 9.359057598027e-03 0.0 
4.757901589001e-05 9.697227831265e-03 0.0 
7.017891666235e-06 9.978995641724e-06 0.0 
7.017891666235e-06 2.182382617677e-05 0.0 
1.316243851556e-05 -9.063013193123e-04 0.0 
-9.620283878975e-04 2.583385723249e-03 0.0 
3.132156621323e-04 8.042422371128e-05 0.0 
1.351841154612e-03 1.432496028616e-03 0.0 
2.833287926182e-04 -7.448450672441e-04 0.0 
4.987530507449e-04 1.351944388330e-04 0.0 
8.004622651763e-05 -1.838349648052e-04 0.0 
8.321481845728e-05 -3.433524625271e-04 0.0 
2.258870390408e-04 6.200266019559e-03 0.0 
8.892939736418e-04 1.034436072402e-03 0.0 
2.650713336604e-03 2.904283074351e-03 0.0 
2.275780685106e-04 -7.339559362795e-04 0.0 
4.928099790569e-04 -3.782132879522e-04 0.0 
8.020673247191e-04 1.493897758266e-03 0.0 
9.720768228711e-06 2.445546103973e-03 0.0 
1.606170179931e-04 -3.298249599585e-04 0.0 
1.470149128009e-04 7.191610902036e-03 0.0 
1.210507812214e-03 1.514504803745e-03 0.0 
1.433887862231e-03 2.709486848904e-03 0.0 
1.731773012112e-03 3.554008669886e-03 0.0 
5.187369568492e-04 9.376099277420e-03 0.0 
2.824439321687e-03 2.975264144713e-03 0.0 
5.966125687993e-04 1.751050080459e-03 0.0 
2.249453729399e-04 -7.313798960660e-04 0.0 
-6.209908318137e-05 -4.492046062896e-05 0.0 
1.423309968904e-03 1.869022326545e-03 0.0 
1.924414262858e-03 1.206493199890e-03 0.0 
6.841909852583e-04 1.086745779235e-03 0.0 
1.178793745872e-04 5.457857593169e-03 0.0 
1.745879366930e-04 5.621799280922e-05 0.0 
1.518212412228e-03 1.787281528071e-03 0.0 
1.270655787360e-03 1.459242841043e-03 0.0 
9.614948299801e-05 -1.114609949436e-04 0.0 
-3.402351937265e-04 6.473207464995e-03 0.0 
1.741261016754e-03 1.302447338280e-02 0.0 
2.436113588694e-03 1.076675823291e-02 0.0 
1.243051609769e-03 7.492591346037e-03 0.0 
2.808850489973e-03 3.119916323848e-03 0.0 
1.813083521851e-04 1.778004424927e-03 0.0 
7.487212388698e-04 4.342938454943e-04 0.0 
1.601133562739e-04 6.761793381553e-04 0.0 
1.556384578405e-04 7.417282937802e-05 0.0 
1.415034430016e-03 1.288612090782e-02 0.0 
1.927003245719e-04 5.007858867864e-03 0.0 
4.132459989029e-04 -6.197152169952e-04 0.0 
4.061365928697e-04 1.664786076132e-03 0.0 
1.646080586174e-04 -8.242315696795e-04 0.0 
1.271170482909e-03 7.891845221861e-04 0.0 
7.696925340253e-04 7.786069949046e-03 0.0 
7.324194075588e-04 5.986866488697e-04 0.0 
2.082038235129e-03 2.184563457867e-03 0.0 
1.364110190255e-03 7.459276398581e-03 0.0 
6.518033872194e-04 2.481732078271e-04 0.0 
3.114805969211e-04 1.217313538868e-03 0.0 
2.829199763631e-05 1.279726465892e-03 0.0 
8.139327196083e-04 1.235523066941e-02 0.0 
4.030254392484e-04 2.012170357286e-03 0.0 
6.322793192416e-04 8.064481339620e-04 0.0 
1.326012374266e-03 7.936932945581e-04 0.0 
1.880762049276e-03 1.853119727775e-03 0.0 
8.727693757683e-05 2.667406465473e-05 0.0 
1.660780427734e-03 3.575501630269e-03 0.0 
-1.518260003847e-03 7.227331460924e-03 0.0 
1.640607202373e-03 8.874043115884e-03 0.0 
1.184574248165e-03 2.296505598861e-03 0.0 
1.124330935492e-03 6.888608846232e-03 0.0 
1.664006630000e-04 5.671884918820e-05 0.0 
1.637636878890e-03 1.585797354736e-03 0.0 
3.110486402247e-04 9.185083562208e-05 0.0 
1.672497905720e-04 4.015577320477e-03 0.0 
7.183795361618e-04 5.375734844215e-04 0.0 
8.278337579096e-04 2.957503674920e-04 0.0 
8.580626444917e-04 3.210517237760e-04 0.0 
3.041379736576e-04 -6.306962631892e-04 0.0 
1.428985537362e-04 4.359791802767e-05 0.0 
1.029265782721e-03 8.795972824135e-03 0.0 
1.177148776443e-04 2.064266872755e-03 0.0 
2.674395006003e-04 2.014800846720e-04 0.0 
7.742499969781e-05 2.863951619200e-03 0.0 
1.773557763931e-04 5.408068769051e-03 0.0 
1.634500062527e-05 -9.000483867381e-04 0.0 
1.333237511078e-03 2.773864307445e-03 0.0 
1.621206596936e-03 3.118045753965e-03 0.0 
1.493580199607e-04 1.064935381213e-03 0.0 
6.001943892266e-05 1.971142736596e-03 0.0 
9.386083551751e-04 6.992261287659e-04 0.0 
3.648755589126e-04 7.098029553439e-03 0.0 
8.664526293472e-06 -4.199625417192e-04 0.0 
2.134316784914e-04 5.045414680164e-03 0.0 
8.230797417096e-05 -4.802750209998e-04 0.0 
4.063063588016e-04 2.405859247379e-05 0.0 
-1.732310486887e-03 8.168128298208e-03 0.0 
4.403861011635e-04 -4.181425140924e-04 0.0 
2.084242743945e-04 6.147886433068e-05 0.0 
7.291066448028e-04 1.827383193120e-03 0.0 
1.425677409869e-03 6.871733426148e-03 0.0 
6.176293783869e-04 -4.624226346691e-04 0.0 
7.621473121926e-04 2.352874923828e-04 0.0 
1.208183544822e-03 5.702309058059e-04 0.0 
8.627856306853e-04 7.429035903644e-04 0.0 
1.036645720682e-03 1.327223555046e-03 0.0 
1.295149193073e-03 2.301492380828e-03 0.0 
2.456818665460e-04 -2.429531845839e-05 0.0 
1.680481469358e-06 2.942219431075e-03 0.0 
2.887167849761e-04 7.452466600893e-05 0.0 
3.798607230425e-05 -8.924344292939e-04 0.0 
9.265509939824e-06 -8.922932828709e-04 0.0 
3.118057316158e-04 9.117537059459e-03 0.0 
1.737386594237e-04 -4.500289339105e-04 0.0 
5.009701225551e-04 1.840555967643e-04 0.0 
5.387027873066e-04 8.296075790620e-04 0.0 
1.631418952819e-04 1.774443671921e-03 0.0 
6.710080870759e-04 5.899314872475e-04 0.0 
1.435662202337e-03 7.016457165760e-04 0.0 
2.939142778308e-04 6.548846364341e-03 0.0 
3.796294554559e-05 2.110042439056e-04 0.0 
1.491726847278e-03 1.590289794761e-03 0.0 
6.594100653843e-04 9.724286387161e-03 0.0 
5.035781212009e-04 8.762275538258e-04 0.0 
7.590669351793e-05 -7.106679073050e-04 0.0 
1.008577208047e-04 3.302736385357e-05 0.0 
1.396345038508e-03 8.581548232526e-03 0.0 
1.364448404688e-04 -8.332153844306e-04 0.0 
3.091876985361e-04 -4.612685019713e-04 0.0 
6.134777048902e-04 1.006225149080e-03 0.0 
2.568694534974e-04 1.885458190450e-03 0.0 
2.984569027034e-04 9.648147391657e-04 0.0 
1.772797704844e-04 -6.917231054006e-04 0.0 
2.093412159345e-04 4.393769908312e-03 0.0 
4.102747165207e-04 1.197156874252e-04 0.0 
9.371103922689e-06 4.984264654145e-04 0.0 
2.507399354512e-05 2.292689974287e-05 0.0 
4.562902342866e-05 8.819056888920e-03 0.0 
1.070392262601e-03 5.188338739408e-04 0.0 
1.796402079141e-04 -8.084770381681e-04 0.0 
3.795446490634e-04 1.667696704676e-03 0.0 
6.657246534311e-05 -6.306987060550e-04 0.0 
5.626637849125e-04 2.379559466760e-04 0.0 
3.987190063390e-04 1.252229270190e-03 0.0 
-3.453178069295e-04 5.155633702312e-03 0.0 
1.573607546635e-03 1.767497797863e-03 0.0 
1.658400966557e-04 4.488860460965e-03 0.0 
1.003745685508e-04 1.008631750512e-03 0.0 
1.422124488546e-04 9.053236878016e-05 0.0 
7.004587121858e-05 5.858928192790e-03 0.0 
4.871494263457e-04 8.262280011099e-04 0.0 
5.122821823803e-04 1.704255076787e-03 0.0 
1.387034329978e-04 5.152487466311e-03 0.0 
8.078447808199e-04 1.367557825502e-03 0.0 
3.358196370361e-04 -5.651665156987e-04 0.0 
3.267685002589e-04 9.410773513790e-03 0.0 
1.138616704653e-03 1.082312219229e-03 0.0 
9.853254651140e-06 1.060270796996e-03 0.0 
4.725976821833e-06 -9.079018113876e-04 0.0 
8.866222764719e-05 9.410679423374e-03 0.0 
2.252088066961e-05 3.800894030448e-05 0.0 
3.257563866522e-04 -7.079562087710e-04 0.0 
1.278513095207e-03 7.079109615614e-04 0.0 
6.502745173731e-04 1.814647359845e-03 0.0 
1.182497048580e-04 1.308280699659e-03 0.0 
2.006321035810e-04 -8.030044397092e-04 0.0 
9.645084120899e-04 7.500308581409e-03 0.0 
3.405055878379e-05 -3.021480237889e-04 0.0 
6.583325724531e-05 3.491962353634e-03 0.0 
-1.281710136412e-03 2.987540419618e-03 0.0 
2.312749103810e-04 9.464898052579e-04 0.0 
1.262996724788e-04 6.047591683742e-03 0.0 
8.253848247991e-04 8.020271293009e-04 0.0 
2.387084553671e-04 6.760311254260e-03 0.0 
8.531261429934e-04 8.022116355815e-04 0.0 
6.382748617688e-05 -2.593014740109e-04 0.0 
-1.012937879766e-03 8.620896529245e-03 0.0 
3.859280884025e-04 -6.033511753298e-04 0.0 
4.444142795578e-04 -3.463824433735e-04 0.0 
2.977692739309e-05 -2.198259578112e-04 0.0 
1.219600996679e-03 9.567395097761e-04 0.0 
2.307642774652e-04 -3.917682697029e-04 0.0 
2.959360707241e-04 -3.308890621126e-04 0.0 
1.552162627659e-04 -5.767706580677e-04 0.0 
5.317368053618e-04 1.479380644303e-04 0.0 
1.386097313451e-03 1.914743728716e-03 0.0 
1.602628553670e-03 7.346935520597e-03 0.0 
1.644399872751e-05 1.004167731184e-03 0.0 
4.057698254850e-05 3.911201387058e-05 0.0 
8.671223518584e-05 8.870499433409e-03 0.0 
9.548764131830e-05 6.264449409264e-03 0.0 
3.178766375700e-04 -3.915015945631e-04 0.0 
3.548104909665e-04 -3.568467469522e-04 0.0 
2.171338856218e-04 -3.511166942010e-04 0.0 
1.544438926101e-03 9.264828612675e-04 0.0 
6.059624326386e-04 7.192434441008e-04 0.0 
1.157078615068e-03 1.574832879568e-03 0.0 
1.573903186577e-04 7.751294048355e-03 0.0 
2.808701404251e-04 1.234192500158e-03 0.0 
1.516662852742e-03 8.674938284132e-04 0.0 
2.805065489852e-04 6.954427362487e-03 0.0 
1.073703161988e-03 1.968416860616e-03 0.0 
1.184834861832e-03 9.681854109620e-04 0.0 
8.883348824208e-04 7.109150424117e-04 0.0 
-4.728994545889e-04 7.957266139357e-03 0.0 
1.121304985951e-03 1.970182970224e-03 0.0 
9.599370994084e-04 1.604806336049e-03 0.0 
1.376580995341e-04 -6.288506078606e-04 0.0 
3.550565482679e-04 -4.209665171246e-04 0.0 
-7.268284707272e-04 7.135795936454e-03 0.0 
8.872757671587e-04 1.598259363902e-03 0.0 
1.150225444623e-04 1.867317771869e-02 0.0 
1.296778107479e-04 1.834440858020e-02 0.0 
1.773773606065e-04 1.868519958017e-02 0.0 
1.908120576020e-04 1.835535352063e-02 0.0 
2.324039978437e-04 1.869181369391e-02 0.0 
2.511494200070e-04 1.835983381615e-02 0.0 
2.892068664534e-04 1.869392596974e-02 0.0 
3.103984757221e-04 1.836199001355e-02 0.0 
3.457111691577e-04 1.869506179038e-02 0.0 
3.678985525631e-04 1.836335670233e-02 0.0 
4.002606098576e-04 1.869536700939e-02 0.0 
4.228129999445e-04 1.836367618689e-02 0.0 
4.515803845353e-04 1.869402422935e-02 0.0 
4.742758458187e-04 1.836200968860e-02 0.0 
4.986133251301e-04 1.868986478270e-02 0.0 
5.214448262294e-04 1.835710014138e-02 0.0 
5.404141683233e-04 1.868149391633e-02 0.0 
5.635028284238e-04 1.834745124747e-02 0.0 
5.760819684815e-04 1.866728865360e-02 0.0 
5.996441567382e-04 1.833131492053e-02 0.0 
6.047183505113e-04 1.864535808015e-02 0.0 
6.290618932586e-04 1.830664598704e-02 0.0 
-1.878242420304e-04 1.310920524130e-02 0.0 
6.254050409601e-04 1.861348634061e-02 0.0 
6.509433480999e-04 1.827103880707e-02 0.0 
6.371985808012e-04 1.856906564413e-02 0.0 
2.770794958828e-05 1.338581907836e-02 0.0 
6.644775226652e-04 1.822165595808e-02 0.0 
6.391418049464e-04 1.850902204180e-02 0.0 
6.688747530732e-04 1.815514859538e-02 0.0 
6.302852768323e-04 1.842974258155e-02 0.0 
6.633961538515e-04 1.806757817305e-02 0.0 
-6.285541553304e-04 1.318774471436e-02 0.0 
6.097185307520e-04 1.832697385772e-02 0.0 
6.473912673174e-04 1.795429483978e-02 0.0 
5.766039059760e-04 1.819572910125e-02 0.0 
6.203513934749e-04 1.780984240755e-02 0.0 
5.302356355235e-04 1.803009438983e-02 0.0 
5.819745589324e-04 1.762770664998e-02 0.0 
4.700949844781e-04 1.782315022157e-02 0.0 
5.322832768924e-04 1.740026930795e-02 0.0 
3.959822595026e-04 1.756647181210e-02 0.0 
4.717260062416e-04 1.711812978775e-02 0.0 
3.081157109971e-04 1.725030457881e-02 0.0 
4.014496705641e-04 1.677050101481e-02 0.0 
-1.531031437195e-05 1.239337996739e-02 0.0 
3.233081835032e-04 1.634295697015e-02 0.0 
2.073708429274e-04 1.686202977105e-02 0.0 
2.408834464159e-04 1.581984669066e-02 0.0 
9.545058712979e-05 1.638766505554e-02 0.0 
1.587527942703e-04 1.517600247343e-02 0.0 
-2.459955724603e-05 1.580633088723e-02 0.0 
8.309311492600e-05 1.438410109644e-02 0.0 
-1.475356036215e-04 1.509442966386e-02 0.0 
-2.658033578897e-04 1.421128274957e-02 0.0 
-4.560402276719e-04 1.247191944046e-02 0.0 
1.480443579046e-05 1.849852641370e-02 0.0 
7.305004205560e-05 1.850065683508e-02 0.0 
3.938021203137e-05 1.816446714069e-02 0.0 
4.847426581470e-05 1.883471610809e-02 0.0 
-6.628511031170e-04 1.182036175518e-02 0.0 
9.254246724288e-05 1.733883745000e-02 0.0 
1.182539177575e-04 1.767710684496e-02 0.0 
1.618579931580e-04 1.735025747539e-02 0.0 
1.867165831438e-04 1.768771315109e-02 0.0 
2.287680867500e-04 1.735770443593e-02 0.0 
2.516089833715e-04 1.769336492771e-02 0.0 
2.931572205850e-04 1.736199390707e-02 0.0 
3.138892664893e-04 1.769652683933e-02 0.0 
3.552636470801e-04 1.736501926245e-02 0.0 
3.739602397184e-04 1.769877734862e-02 0.0 
4.151514563389e-04 1.736713853890e-02 0.0 
4.316421592706e-04 1.770002707011e-02 0.0 
4.726032306458e-04 1.736780134112e-02 0.0 
4.864695326031e-04 1.769943591715e-02 0.0 
5.272315865827e-04 1.736598436526e-02 0.0 
5.378694008975e-04 1.769579349539e-02 0.0 
5.785761503303e-04 1.736036054210e-02 0.0 
5.852402357627e-04 1.768762451923e-02 0.0 
6.261574891143e-04 1.734933763847e-02 0.0 
6.279822700321e-04 1.767319063363e-02 0.0 
7.404085910209e-04 1.372730735208e-02 0.0 
6.695049118183e-04 1.733103863272e-02 0.0 
6.655103412716e-04 1.765045082651e-02 0.0 
7.081745734362e-04 1.730325342170e-02 0.0 
4.847334504211e-04 1.389508921957e-02 0.0 
6.972644325629e-04 1.761700104870e-02 0.0 
7.417672247824e-04 1.726337476463e-02 0.0 
8.578868223758e-04 1.386015011414e-02 0.0 
7.227250821833e-04 1.757000283696e-02 0.0 
7.699507566278e-04 1.720832490126e-02 0.0 
7.414361452365e-04 1.750610457596e-02 0.0 
7.924904187204e-04 1.713447507798e-02 0.0 
7.530399035764e-04 1.742135468889e-02 0.0 
8.092908212496e-04 1.703754875081e-02 0.0 
7.573198080901e-04 1.731109321701e-02 0.0 
8.204475692317e-04 1.691250915767e-02 0.0 
7.542665159579e-04 1.716982408673e-02 0.0 
8.828403136848e-04 1.318398949515e-02 0.0 
8.263172022682e-04 1.675339424815e-02 0.0 
7.441410031940e-04 1.699102482913e-02 0.0 
8.276030984233e-04 1.655313904057e-02 0.0 
7.276249465760e-04 1.676693994780e-02 0.0 
7.058988073658e-04 1.648823311740e-02 0.0 
8.254967303104e-04 1.630324578161e-02 0.0 
6.810133421403e-04 1.614379894745e-02 0.0 
8.218521836976e-04 1.599370584110e-02 0.0 
6.556643415716e-04 1.571969101816e-02 0.0 
8.192906725721e-04 1.561206175171e-02 0.0 
6.345451430902e-04 1.519890880291e-02 0.0 
6.215176251586e-04 1.455925378433e-02 0.0 
8.214684418725e-04 1.514346121581e-02 0.0 
8.318269703165e-04 1.456864431039e-02 0.0 
6.271651730850e-04 1.335177136264e-02 0.0 
1.156692536540e-05 1.749684848147e-02 0.0 
5.875634740146e-05 1.750077852225e-02 0.0 
3.614270160630e-05 1.783162736131e-02 0.0 
3.418057116056e-05 1.716599964241e-02 0.0 
5.190361450679e-04 1.301531956830e-02 0.0 
9.119155223624e-05 1.667218016401e-02 0.0 
1.157218276012e-04 1.634123755045e-02 0.0 
1.606768180083e-04 1.668104546687e-02 0.0 
1.864456704721e-04 1.634923874795e-02 0.0 
2.296783492280e-04 1.668844204132e-02 0.0 
2.562862614286e-04 1.635583934659e-02 0.0 
2.969242361642e-04 1.669373072056e-02 0.0 
3.245442013749e-04 1.636097002063e-02 0.0 
3.621515663865e-04 1.669772563025e-02 0.0 
3.911224367846e-04 1.636500678717e-02 0.0 
4.254257340987e-04 1.670066160964e-02 0.0 
4.560272142790e-04 1.636783062433e-02 0.0 
4.867140078944e-04 1.670208182460e-02 0.0 
5.192008940243e-04 1.636878439251e-02 0.0 
5.458521707552e-04 1.670105235714e-02 0.0 
5.805125549935e-04 1.636679992537e-02 0.0 
6.025987202538e-04 1.669629898020e-02 0.0 
6.397910281147e-04 1.636047900640e-02 0.0 
6.566857115427e-04 1.668625368753e-02 0.0 
1.289689882458e-03 1.385550203024e-02 0.0 
6.968603557684e-04 1.634811338329e-02 0.0 
7.078547751263e-04 1.666904533331e-02 0.0 
7.515702085832e-04 1.632766175949e-02 0.0 
1.353659596487e-03 1.390034703653e-02 0.0 
7.558845774399e-04 1.664245765410e-02 0.0 
8.038230692268e-04 1.629669944554e-02 0.0 
8.006158574426e-04 1.660386892908e-02 0.0 
8.536027849488e-04 1.625235315111e-02 0.0 
8.419798267331e-04 1.655018105097e-02 0.0 
1.118308131557e-03 1.406748013919e-02 0.0 
9.010051763258e-04 1.619122300221e-02 0.0 
8.800303797045e-04 1.647773735452e-02 0.0 
9.462788824917e-04 1.610929521126e-02 0.0 
9.149898391809e-04 1.638222699663e-02 0.0 
9.898666749356e-04 1.600182713597e-02 0.0 
9.472954181459e-04 1.625856483080e-02 0.0 
1.032475474217e-03 1.586323750632e-02 0.0 
9.776783116127e-04 1.610075199461e-02 0.0 
1.075103343257e-03 1.568687857506e-02 0.0 
1.007204329141e-03 1.590163504005e-02 0.0 
1.119182938996e-03 1.546490404570e-02 0.0 
1.413102310289e-03 1.342390797484e-02 0.0 
1.166537383828e-03 1.518766735388e-02 0.0 
1.037453492013e-03 1.565271388003e-02 0.0 
1.219874327033e-03 1.484443544019e-02 0.0 
1.070533998457e-03 1.534367197915e-02 0.0 
1.280746045243e-03 1.442151963981e-02 0.0 
1.109469842705e-03 1.496273210640e-02 0.0 
1.156370975410e-03 1.449461948277e-02 0.0 
1.241720559388e-03 1.363588608379e-02 0.0 
1.128135692786e-05 1.649876970238e-02 0.0 
5.711986395728e-05 1.650136633266e-02 0.0 
3.450621816212e-05 1.616689129623e-02 0.0 
3.389500272301e-05 1.683324473880e-02 0.0 
1.191608595365e-03 1.343794658480e-02 0.0 
9.472739358453e-05 1.533460259951e-02 0.0 
1.180682667463e-04 1.567162908526e-02 0.0 
1.667553078341e-04 1.534106823308e-02 0.0 
1.901777211528e-04 1.567886997935e-02 0.0 
2.392597076687e-04 1.534794082456e-02 0.0 
2.621355691886e-04 1.568570689843e-02 0.0 
3.114547948950e-04 1.535403099085e-02 0.0 
3.332254523456e-04 1.569140273907e-02 0.0 
3.829276013819e-04 1.535916183498e-02 0.0 
4.032172208092e-04 1.569601027346e-02 0.0 
4.536074310580e-04 1.536318097980e-02 0.0 
4.721141272137e-04 1.569934650821e-02 0.0 
5.235552922693e-04 1.536559555881e-02 0.0 
5.399552654645e-04 1.570078224285e-02 0.0 
5.928460755585e-04 1.536554052669e-02 0.0 
6.067520883566e-04 1.569929024459e-02 0.0 
6.615407868927e-04 1.536181371934e-02 0.0 
6.724935613905e-04 1.569350342633e-02 0.0 
1.610224619017e-03 1.368146718825e-02 0.0 
7.296994219494e-04 1.535289742426e-02 0.0 
7.371715328994e-04 1.568173270009e-02 0.0 
7.974046233654e-04 1.533694896600e-02 0.0 
1.493396341500e-03 1.393177398788e-02 0.0 
8.008088796914e-04 1.566194607538e-02 0.0 
1.637766760013e-03 1.365781982221e-02 0.0 
8.647866022033e-04 1.531176484610e-02 0.0 
8.634864228820e-04 1.563172232166e-02 0.0 
9.320466935754e-04 1.527472368747e-02 0.0 
9.253702674264e-04 1.558818503338e-02 0.0 
9.994872282748e-04 1.522272451147e-02 0.0 
9.867450953900e-04 1.552793458044e-02 0.0 
1.067538846255e-03 1.515209984355e-02 0.0 
1.048047429978e-03 1.544694612206e-02 0.0 
1.721672766577e-03 1.331461096536e-02 0.0 
1.136803679906e-03 1.505854480619e-02 0.0 
1.109911968174e-03 1.534049403474e-02 0.0 
1.208069589777e-03 1.493696034170e-02 0.0 
1.173204352609e-03 1.520296611845e-02 0.0 
1.239099353866e-03 1.502785050176e-02 0.0 
1.282403200615e-03 1.478145253344e-02 0.0 
1.309007966922e-03 1.480718556045e-02 0.0 
1.361025367677e-03 1.458488848150e-02 0.0 
1.384846706176e-03 1.453185614111e-02 0.0 
1.467815390336e-03 1.419070153344e-02 0.0 
1.445587842287e-03 1.433918418202e-02 0.0 
1.536784384108e-03 1.403412685964e-02 0.0 
1.604844489060e-03 1.356491776498e-02 0.0 
1.154894696979e-05 1.549825784373e-02 0.0 
5.857685620243e-05 1.549980376015e-02 0.0 
3.477380820405e-05 1.583329782304e-02 0.0 
3.535199496817e-05 1.516476378084e-02 0.0 
1.589482813880e-03 1.346039097067e-02 0.0 
9.674094368963e-05 1.466490424335e-02 0.0 
1.237010647791e-04 1.433105331070e-02 0.0 
1.703745557619e-04 1.467019081468e-02 0.0 
1.992183776807e-04 1.433636070575e-02 0.0 
2.446811162689e-04 1.467630896936e-02 0.0 
2.752881159807e-04 1.434229896574e-02 0.0 
3.191859330868e-04 1.468225491335e-02 0.0 
3.515985177453e-04 1.434800925947e-02 0.0 
3.935695285897e-04 1.468754443287e-02 0.0 
4.280315335562e-04 1.435299191129e-02 0.0 
4.677798165972e-04 1.469178001974e-02 0.0 
5.046475125806e-04 1.435672325565e-02 0.0 
5.419162920971e-04 1.469437326632e-02 0.0 
5.816025741551e-04 1.435846686230e-02 0.0 
6.161323844214e-04 1.469444743864e-02 0.0 
6.590953444669e-04 1.435719753221e-02 0.0 
6.905977341401e-04 1.469081409502e-02 0.0 
1.772123989939e-03 1.326666467906e-02 0.0 
7.373491404326e-04 1.435157836876e-02 0.0 
7.654980537441e-04 1.468197199102e-02 0.0 
1.773152174371e-03 1.319572207640e-02 0.0 
8.166183048274e-04 1.433994842040e-02 0.0 
8.410527634987e-04 1.466609011956e-02 0.0 
8.972028802159e-04 1.432029413579e-02 0.0 
9.175324625944e-04 1.464097175296e-02 0.0 
9.794611969049e-04 1.429020752159e-02 0.0 
1.696060567478e-03 1.353911544788e-02 0.0 
9.952756072072e-04 1.460400198054e-02 0.0 
1.063820225432e-03 1.424681565210e-02 0.0 
1.074708272648e-03 1.455207683711e-02 0.0 
1.150813065263e-03 1.418672487008e-02 0.0 
1.156385771755e-03 1.448153780755e-02 0.0 
1.241082118453e-03 1.410590935921e-02 0.0 
1.240991442882e-03 1.438807007934e-02 0.0 
1.335443064778e-03 1.399970013144e-02 0.0 
1.329412923406e-03 1.426664116526e-02 0.0 
1.434803513578e-03 1.386248381259e-02 0.0 
1.871430715024e-03 1.295737712302e-02 0.0 
1.540339918271e-03 1.368814309771e-02 0.0 
1.422659027955e-03 1.411128940402e-02 0.0 
1.652446796795e-03 1.346905434169e-02 0.0 
1.522010104741e-03 1.391534420687e-02 0.0 
1.628041935095e-03 1.367059723788e-02 0.0 
1.795367292562e-03 1.322982789184e-02 0.0 
1.214309857487e-05 1.449424804466e-02 0.0 
6.118455791261e-05 1.449534379081e-02 0.0 
3.738150991423e-05 1.415958966781e-02 0.0 
3.594614657325e-05 1.483000216766e-02 0.0 
1.806042478869e-03 1.319195759237e-02 0.0 
1.022444175992e-04 1.332090342262e-02 0.0 
1.273605964456e-04 1.365869262799e-02 0.0 
1.794744447854e-04 1.332480093779e-02 0.0 
2.046587350378e-04 1.366333151158e-02 0.0 
2.575782192321e-04 1.332984650151e-02 0.0 
2.827448615869e-04 1.366886569206e-02 0.0 
3.365625742066e-04 1.333518281086e-02 0.0 
3.615184132589e-04 1.367437043065e-02 0.0 
4.164223114503e-04 1.334013932871e-02 0.0 
4.409644209031e-04 1.367922563595e-02 0.0 
4.972601918888e-04 1.334412120357e-02 0.0 
5.211950005253e-04 1.368283071482e-02 0.0 
5.792749993000e-04 1.334643239099e-02 0.0 
6.024137934133e-04 1.368441852780e-02 0.0 
6.627403858224e-04 1.334616875174e-02 0.0 
6.848921266097e-04 1.368296717982e-02 0.0 
1.815116709504e-03 1.268558867972e-02 0.0 
7.479757370500e-04 1.334216163377e-02 0.0 
7.689303611996e-04 1.367715625990e-02 0.0 
1.768770878130e-03 1.298031567980e-02 0.0 
8.353282114563e-04 1.333294328792e-02 0.0 
8.548672417725e-04 1.366534182617e-02 0.0 
1.797854222863e-03 1.257698805757e-02 0.0 
9.251955623389e-04 1.331672668400e-02 0.0 
9.430967421109e-04 1.364553729447e-02 0.0 
1.018024931106e-03 1.329137833471e-02 0.0 
1.034059803521e-03 1.361537094466e-02 0.0 
1.114304119037e-03 1.325437430362e-02 0.0 
1.128250130645e-03 1.357202455211e-02 0.0 
1.906819063580e-03 1.241224469442e-02 0.0 
1.214550844235e-03 1.320267771805e-02 0.0 
1.226225731637e-03 1.351211685102e-02 0.0 
1.319384480120e-03 1.313277016876e-02 0.0 
1.328668160444e-03 1.343174973948e-02 0.0 
1.436308832728e-03 1.332621211901e-02 0.0 
1.429443252822e-03 1.304042244718e-02 0.0 
1.550089894396e-03 1.319030119293e-02 0.0 
1.545565072173e-03 1.292097053317e-02 0.0 
1.670274973329e-03 1.301779600382e-02 0.0 
1.667880463831e-03 1.276875969047e-02 0.0 
1.860473232206e-03 1.270697169450e-02 0.0 
1.250817040655e-05 1.348712307645e-02 0.0 
6.339357198735e-05 1.348796761438e-02 0.0 
3.774658174591e-05 1.382385362940e-02 0.0 
3.815516064799e-05 1.315123706143e-02 0.0 
1.889259390147e-03 1.272083519491e-02 0.0 
1.040083959884e-04 1.264745057872e-02 0.0 
1.325454879225e-04 1.231130709804e-02 0.0 
1.828953578732e-04 1.265086825174e-02 0.0 
2.132314361950e-04 1.231487793254e-02 0.0 
2.627300073016e-04 1.265532560852e-02 0.0 
2.950083336450e-04 1.231932378754e-02 0.0 
3.436742581952e-04 1.266016179932e-02 0.0 
3.780758322480e-04 1.232390223761e-02 0.0 
4.258680464508e-04 1.266469214721e-02 0.0 
4.626796871845e-04 1.232792340983e-02 0.0 
5.095297231697e-04 1.266826615896e-02 0.0 
5.490921096197e-04 1.233071065395e-02 0.0 
5.949025771135e-04 1.267016737473e-02 0.0 
6.376462759745e-04 1.233142276211e-02 0.0 
6.823452905701e-04 1.266943800231e-02 0.0 
1.775376257466e-03 1.197042290207e-02 0.0 
7.287560466251e-04 1.232900815773e-02 0.0 
1.743078193102e-03 1.183408833265e-02 0.0 
7.722347523178e-04 1.266493336111e-02 0.0 
8.228250443384e-04 1.232218654956e-02 0.0 
8.649638793273e-04 1.265520185023e-02 0.0 
9.203098942341e-04 1.230932323754e-02 0.0 
9.610025469295e-04 1.263844953306e-02 0.0 
1.021740658507e-03 1.228846929477e-02 0.0 
1.753685799212e-03 1.227795210662e-02 0.0 
1.060861862912e-03 1.261258748596e-02 0.0 
1.127663884637e-03 1.225735072972e-02 0.0 
1.165071268346e-03 1.257514493742e-02 0.0 
1.238632850681e-03 1.221331249893e-02 0.0 
1.274166414962e-03 1.252319503107e-02 0.0 
1.355141468308e-03 1.215304357549e-02 0.0 
1.388684646064e-03 1.245317958021e-02 0.0 
1.477789828416e-03 1.207293408393e-02 0.0 
1.606696394042e-03 1.196844157116e-02 0.0 
1.509264754850e-03 1.236119738018e-02 0.0 
1.856133726371e-03 1.172965705454e-02 0.0 
1.636131131460e-03 1.224242505232e-02 0.0 
1.834443268116e-03 1.203718625909e-02 0.0 
1.301632892043e-05 1.247718575723e-02 0.0 
6.566570889038e-05 1.247779736542e-02 0.0 
4.001871864895e-05 1.214046346628e-02 0.0 
3.866331916186e-05 1.281451965636e-02 0.0 
1.876217182269e-03 1.208718589669e-02 0.0 
1.072980018939e-04 1.129744960423e-02 0.0 
1.347403057153e-04 1.163608160159e-02 0.0 
1.884353544073e-04 1.129988365800e-02 0.0 
2.165766149364e-04 1.163911883526e-02 0.0 
2.707299327375e-04 1.130327950814e-02 0.0 
2.996630803395e-04 1.164303678444e-02 0.0 
3.545397310591e-04 1.130704063305e-02 0.0 
3.842865584174e-04 1.164706807444e-02 0.0 
4.401829057533e-04 1.131041410883e-02 0.0 
4.707838203177e-04 1.165047953462e-02 0.0 
5.280564712223e-04 1.131283617011e-02 0.0 
5.595147245390e-04 1.165272454031e-02 0.0 
6.185003610300e-04 1.131356009000e-02 0.0 
1.667243256138e-03 1.116034525063e-02 0.0 
6.508214449716e-04 1.165280159102e-02 0.0 
7.119817886376e-04 1.131158299452e-02 0.0 
1.662873858702e-03 1.148022138096e-02 0.0 
7.452173756955e-04 1.164977432103e-02 0.0 
8.089723141859e-04 1.130592673679e-02 0.0 
1.626438707242e-03 1.100446773106e-02 0.0 
8.431012771362e-04 1.164241376193e-02 0.0 
9.098868634595e-04 1.129514264399e-02 0.0 
9.449566455685e-04 1.162903681893e-02 0.0 
1.015252022315e-03 1.127745138691e-02 0.0 
1.051343382559e-03 1.160775756723e-02 0.0 
1.741832345506e-03 1.093920993467e-02 0.0 
1.125645833991e-03 1.125093092877e-02 0.0 
1.162845131665e-03 1.157640590007e-02 0.0 
1.279970656409e-03 1.153243906847e-02 0.0 
1.241590321103e-03 1.121332667732e-02 0.0 
1.403248574592e-03 1.147281872759e-02 0.0 
1.363611326974e-03 1.116209675272e-02 0.0 
1.532562290134e-03 1.139389205863e-02 0.0 
1.491564214065e-03 1.109391270701e-02 0.0 
1.737462948070e-03 1.125908606499e-02 0.0 
1.320856533441e-05 1.146506003850e-02 0.0 
6.695273341717e-05 1.146562483367e-02 0.0 
4.021095506293e-05 1.180306641258e-02 0.0 
3.995034368866e-05 1.112761845960e-02 0.0 
1.788232545052e-03 1.133896953553e-02 0.0 
1.078547108845e-04 1.062161108713e-02 0.0 
1.364384194674e-04 1.028411061310e-02 0.0 
1.895767591689e-04 1.062375118662e-02 0.0 
2.195171232325e-04 1.028632475998e-02 0.0 
2.725290362720e-04 1.062661790425e-02 0.0 
3.041032762096e-04 1.028917193762e-02 0.0 
3.571808233947e-04 1.062983739012e-02 0.0 
3.907059605855e-04 1.029200052130e-02 0.0 
4.439612155858e-04 1.063254979862e-02 0.0 
4.796180552253e-04 1.029399523039e-02 0.0 
5.331123962974e-04 1.063421617608e-02 0.0 
5.713350211880e-04 1.029483286363e-02 0.0 
1.517609141556e-03 1.027997108144e-02 0.0 
6.252647326038e-04 1.063428840734e-02 0.0 
1.468966699190e-03 1.010763245914e-02 0.0 
6.664402180229e-04 1.029336817665e-02 0.0 
7.208361901151e-04 1.063142126281e-02 0.0 
7.653867959974e-04 1.028871940758e-02 0.0 
8.202873330104e-04 1.062503355504e-02 0.0 
8.687119853876e-04 1.027994811857e-02 0.0 
9.241825528865e-04 1.061357018238e-02 0.0 
9.769285138577e-04 1.026525159663e-02 0.0 
1.529103025712e-03 1.060634374018e-02 0.0 
1.032928201177e-03 1.059523862623e-02 0.0 
1.090567501285e-03 1.024273842838e-02 0.0 
1.147193773856e-03 1.056812455059e-02 0.0 
1.210177200668e-03 1.021057008284e-02 0.0 
1.336118952104e-03 1.016643043323e-02 0.0 
1.267374450241e-03 1.053029723826e-02 0.0 
1.393975493530e-03 1.047911755653e-02 0.0 
1.580884314072e-03 1.007678663762e-02 0.0 
1.592378198228e-03 1.040315929636e-02 0.0 
1.337184944698e-05 1.045148679600e-02 0.0 
6.767272652030e-05 1.045184546173e-02 0.0 
4.093094816606e-05 1.011365465297e-02 0.0 
4.011362780122e-05 1.078967760475e-02 0.0 
1.648715803690e-03 1.050130393562e-02 0.0 

VECTORS element_materi_displacement float
0.0 0.0 0.0 
0.0 0.0 0.0 
0.0 0.0 0.0 
0.0 0.0 0.0 
0.0 0.0 0.0 
0.0 0.0 0.0 
0.0 0.0 0.0 
0.0 0.0 0.0 
0.0 0.0 0.0 
0.0 0.0 0.0 
0.0 0.0 0.0 
0.0 0.0 0.0 
0.0 0.0 0.0 
0.0 0.0 0.0 
0.0 0.0 0.0 
0.0 0.0 0.0 
0.0 0.0 0.0 
0.0 0.0 0.0 
0.0 0.0 0.0 
0.0 0.0 0.0 
0.0 0.0 0.0 
0.0 0.0 0.0 
0.0 0.0 0.0 
0.0 0.0 0.0 
0.0 0.0 0.0 
0.0 0.0 0.0 
0.0 0.0 0.0 
0.0 0.0 0.0 
0.0 0.0 0.0 
0.0 0.0 0.0 
0.0 0.0 0.0 
0.0 0.0 0.0 
0.0 0.0 0.0 
0.0 0.0 0.0 
0.0 0.0 0.0 
0.0 0.0 0.0 
0.0 0.0 0.0 
0.0 0.0 0.0 
0.0 0.0 0.0 
0.0 0.0 0.0 
0.0 0.0 0.0 
0.0 0.0 0.0 
0.0 0.0 0.0 
0.0 0.0 0.0 
0.0 0.0 0.0 
0.0 0.0 0.0 
0.0 0.0 0.0 
0.0 0.0 0.0 
0.0 0.0 0.0 
0.0 0.0 0.0 
0.0 0.0 0.0 
0.0 0.0 0.0 
0.0 0.0 0.0 
0.0 0.0 0.0 
0.0 0.0 0.0 
0.0 0.0 0.0 
0.0 0.0 0.0 
0.0 0.0 0.0 
0.0 0.0 0.0 
0.0 0.0 0.0 
0.0 0.0 0.0 
0.0 0.0 0.0 
0.0 0.0 0.0 
0.0 0.0 0.0 
0.0 0.0 0.0 
0.0 0.0 0.0 
0.0 0.0 0.0 
0.0 0.0 0.0 
0.0 0.0 0.0 
0.0 0.0 0.0 
0.0 0.0 0.0 
0.0 0.0 0.0 
0.0 0.0 0.0 
0.0 0.0 0.0 
0.0 0.0 0.0 
0.0 0.0 0.0 
0.0 0.0 0.0 
0.0 0.0 0.0 
0.0 0.0 0.0 
0.0 0.0 0.0 
0.0 0.0 0.0 
0.0 0.0 0.0 
0.0 0.0 0.0 
0.0 0.0 0.0 
0.0 0.0 0.0 
0.0 0.0 0.0 
0.0 0.0 0.0 
0.0 0.0 0.0 
0.0 0.0 0.0 
0.0 0.0 0.0 
0.0 0.0 0.0 
0.0 0.0 0.0 
0.0 0.0 0.0 
0.0 0.0 0.0 
0.0 0.0 0.0 
0.0 0.0 0.0 
0.0 0.0 0.0 
0.0 0.0 0.0 
0.0 0.0 0.0 
0.0 0.0 0.0 
0.0 0.0 0.0 
0.0 0.0 0.0 
0.0 0.0 0.0 
0.0 0.0 0.0 
0.0 0.0 0.0 
0.0 0.0 0.0 
0.0 0.0 0.0 
0.0 0.0 0.0 
0.0 0.0 0.0 
0.0 0.0 0.0 
0.0 0.0 0.0 
0.0 0.0 0.0 
0.0 0.0 0.0 
0.0 0.0 0.0 
0.0 0.0 0.0 
0.0 0.0 0.0 
0.0 0.0 0.0 
0.0 0.0 0.0 
0.0 0.0 0.0 
0.0 0.0 0.0 
0.0 0.0 0.0 
0.0 0.0 0.0 
0.0 0.0 0.0 
0.0 0.0 0.0 
0.0 0.0 0.0 
0.0 0.0 0.0 
0.0 0.0 0.0 
0.0 0.0 0.0 
0.0 0.0 0.0 
0.0 0.0 0.0 
0.0 0.0 0.0 
0.0 0.0 0.0 
0.0 0.0 0.0 
0.0 0.0 0.0 
0.0 0.0 0.0 
0.0 0.0 0.0 
0.0 0.0 0.0 
0.0 0.0 0.0 
0.0 0.0 0.0 
0.0 0.0 0.0 
0.0 0.0 0.0 
0.0 0.0 0.0 
0.0 0.0 0.0 
0.0 0.0 0.0 
0.0 0.0 0.0 
0.0 0.0 0.0 
0.0 0.0 0.0 
0.0 0.0 0.0 
0.0 0.0 0.0 
0.0 0.0 0.0 
0.0 0.0 0.0 
0.0 0.0 0.0 
0.0 0.0 0.0 
0.0 0.0 0.0 
0.0 0.0 0.0 
0.0 0.0 0.0 
0.0 0.0 0.0 
0.0 0.0 0.0 
0.0 0.0 0.0 
0.0 0.0 0.0 
0.0 0.0 0.0 
0.0 0.0 0.0 
0.0 0.0 0.0 
0.0 0.0 0.0 
0.0 0.0 0.0 
0.0 0.0 0.0 
0.0 0.0 0.0 
0.0 0.0 0.0 
0.0 0.0 0.0 
0.0 0.0 0.0 
0.0 0.0 0.0 
0.0 0.0 0.0 
0.0 0.0 0.0 
0.0 0.0 0.0 
0.0 0.0 0.0 
0.0 0.0 0.0 
0.0 0.0 0.0 
0.0 0.0 0.0 
0.0 0.0 0.0 
0.0 0.0 0.0 
0.0 0.0 0.0 
0.0 0.0 0.0 
0.0 0.0 0.0 
0.0 0.0 0.0 
0.0 0.0 0.0 
0.0 0.0 0.0 
0.0 0.0 0.0 
0.0 0.0 0.0 
0.0 0.0 0.0 
0.0 0.0 0.0 
0.0 0.0 0.0 
0.0 0.0 0.0 
0.0 0.0 0.0 
0.0 0.0 0.0 
0.0 0.0 0.0 
0.0 0.0 0.0 
0.0 0.0 0.0 
0.0 0.0 0.0 
0.0 0.0 0.0 
0.0 0.0 0.0 
0.0 0.0 0.0 
0.0 0.0 0.0 
0.0 0.0 0.0 
0.0 0.0 0.0 
0.0 0.0 0.0 
0.0 0.0 0.0 
0.0 0.0 0.0 
0.0 0.0 0.0 
0.0 0.0 0.0 
0.0 0.0 0.0 
0.0 0.0 0.0 
0.0 0.0 0.0 
0.0 0.0 0.0 
0.0 0.0 0.0 
0.0 0.0 0.0 
0.0 0.0 0.0 
0.0 0.0 0.0 
0.0 0.0 0.0 
0.0 0.0 0.0 
0.0 0.0 0.0 
0.0 0.0 0.0 
0.0 0.0 0.0 
0.0 0.0 0.0 
0.0 0.0 0.0 
0.0 0.0 0.0 
0.0 0.0 0.0 
0.0 0.0 0.0 
0.0 0.0 0.0 
0.0 0.0 0.0 
0.0 0.0 0.0 
0.0 0.0 0.0 
0.0 0.0 0.0 
0.0 0.0 0.0 
0.0 0.0 0.0 
0.0 0.0 0.0 
0.0 0.0 0.0 
0.0 0.0 0.0 
0.0 0.0 0.0 
0.0 0.0 0.0 
0.0 0.0 0.0 
0.0 0.0 0.0 
0.0 0.0 0.0 
0.0 0.0 0.0 
0.0 0.0 0.0 
0.0 0.0 0.0 
0.0 0.0 0.0 
0.0 0.0 0.0 
0.0 0.0 0.0 
0.0 0.0 0.0 
0.0 0.0 0.0 
0.0 0.0 0.0 
0.0 0.0 0.0 
0.0 0.0 0.0 
0.0 0.0 0.0 
0.0 0.0 0.0 
0.0 0.0 0.0 
0.0 0.0 0.0 
0.0 0.0 0.0 
0.0 0.0 0.0 
0.0 0.0 0.0 
0.0 0.0 0.0 
0.0 0.0 0.0 
0.0 0.0 0.0 
0.0 0.0 0.0 
0.0 0.0 0.0 
0.0 0.0 0.0 
0.0 0.0 0.0 
0.0 0.0 0.0 
0.0 0.0 0.0 
0.0 0.0 0.0 
0.0 0.0 0.0 
0.0 0.0 0.0 
0.0 0.0 0.0 
0.0 0.0 0.0 
0.0 0.0 0.0 
0.0 0.0 0.0 
0.0 0.0 0.0 
0.0 0.0 0.0 
0.0 0.0 0.0 
0.0 0.0 0.0 
0.0 0.0 0.0 
0.0 0.0 0.0 
0.0 0.0 0.0 
0.0 0.0 0.0 
0.0 0.0 0.0 
0.0 0.0 0.0 
0.0 0.0 0.0 
0.0 0.0 0.0 
0.0 0.0 0.0 
0.0 0.0 0.0 
0.0 0.0 0.0 
0.0 0.0 0.0 
0.0 0.0 0.0 
0.0 0.0 0.0 
0.0 0.0 0.0 
0.0 0.0 0.0 
0.0 0.0 0.0 
0.0 0.0 0.0 
0.0 0.0 0.0 
0.0 0.0 0.0 
0.0 0.0 0.0 
0.0 0.0 0.0 
0.0 0.0 0.0 
0.0 0.0 0.0 
0.0 0.0 0.0 
0.0 0.0 0.0 
0.0 0.0 0.0 
0.0 0.0 0.0 
0.0 0.0 0.0 
0.0 0.0 0.0 
0.0 0.0 0.0 
0.0 0.0 0.0 
0.0 0.0 0.0 
0.0 0.0 0.0 
0.0 0.0 0.0 
0.0 0.0 0.0 
0.0 0.0 0.0 
0.0 0.0 0.0 
0.0 0.0 0.0 
0.0 0.0 0.0 
0.0 0.0 0.0 
0.0 0.0 0.0 
0.0 0.0 0.0 
0.0 0.0 0.0 
0.0 0.0 0.0 
0.0 0.0 0.0 
0.0 0.0 0.0 
0.0 0.0 0.0 
0.0 0.0 0.0 
0.0 0.0 0.0 
0.0 0.0 0.0 
0.0 0.0 0.0 
0.0 0.0 0.0 
0.0 0.0 0.0 
0.0 0.0 0.0 
0.0 0.0 0.0 
0.0 0.0 0.0 
0.0 0.0 0.0 
0.0 0.0 0.0 
0.0 0.0 0.0 
0.0 0.0 0.0 
0.0 0.0 0.0 
0.0 0.0 0.0 
0.0 0.0 0.0 
0.0 0.0 0.0 
0.0 0.0 0.0 
0.0 0.0 0.0 
0.0 0.0 0.0 
0.0 0.0 0.0 
0.0 0.0 0.0 
0.0 0.0 0.0 
0.0 0.0 0.0 
0.0 0.0 0.0 
0.0 0.0 0.0 
0.0 0.0 0.0 
0.0 0.0 0.0 
0.0 0.0 0.0 
0.0 0.0 0.0 
0.0 0.0 0.0 
0.0 0.0 0.0 
0.0 0.0 0.0 
0.0 0.0 0.0 
0.0 0.0 0.0 
0.0 0.0 0.0 
0.0 0.0 0.0 
0.0 0.0 0.0 
0.0 0.0 0.0 
0.0 0.0 0.0 
0.0 0.0 0.0 
0.0 0.0 0.0 
0.0 0.0 0.0 
0.0 0.0 0.0 
0.0 0.0 0.0 
0.0 0.0 0.0 
0.0 0.0 0.0 
0.0 0.0 0.0 
0.0 0.0 0.0 
0.0 0.0 0.0 
0.0 0.0 0.0 
0.0 0.0 0.0 
0.0 0.0 0.0 
0.0 0.0 0.0 
0.0 0.0 0.0 
0.0 0.0 0.0 
0.0 0.0 0.0 
0.0 0.0 0.0 
0.0 0.0 0.0 
0.0 0.0 0.0 
0.0 0.0 0.0 
0.0 0.0 0.0 
0.0 0.0 0.0 
0.0 0.0 0.0 
0.0 0.0 0.0 
0.0 0.0 0.0 
0.0 0.0 0.0 
0.0 0.0 0.0 
0.0 0.0 0.0 
0.0 0.0 0.0 
0.0 0.0 0.0 
0.0 0.0 0.0 
0.0 0.0 0.0 
0.0 0.0 0.0 
0.0 0.0 0.0 
0.0 0.0 0.0 
0.0 0.0 0.0 
0.0 0.0 0.0 
0.0 0.0 0.0 
0.0 0.0 0.0 
0.0 0.0 0.0 
0.0 0.0 0.0 
0.0 0.0 0.0 
0.0 0.0 0.0 
0.0 0.0 0.0 
0.0 0.0 0.0 
0.0 0.0 0.0 
0.0 0.0 0.0 
0.0 0.0 0.0 
0.0 0.0 0.0 
0.0 0.0 0.0 
0.0 0.0 0.0 
0.0 0.0 0.0 
0.0 0.0 0.0 
0.0 0.0 0.0 
0.0 0.0 0.0 
0.0 0.0 0.0 
0.0 0.0 0.0 
0.0 0.0 0.0 
0.0 0.0 0.0 
0.0 0.0 0.0 
0.0 0.0 0.0 
0.0 0.0 0.0 
0.0 0.0 0.0 
0.0 0.0 0.0 
0.0 0.0 0.0 
0.0 0.0 0.0 
0.0 0.0 0.0 
0.0 0.0 0.0 
0.0 0.0 0.0 
0.0 0.0 0.0 
0.0 0.0 0.0 
0.0 0.0 0.0 
0.0 0.0 0.0 
0.0 0.0 0.0 
0.0 0.0 0.0 
0.0 0.0 0.0 
0.0 0.0 0.0 
0.0 0.0 0.0 
0.0 0.0 0.0 
0.0 0.0 0.0 
0.0 0.0 0.0 
0.0 0.0 0.0 
0.0 0.0 0.0 
0.0 0.0 0.0 
0.0 0.0 0.0 
0.0 0.0 0.0 
0.0 0.0 0.0 
0.0 0.0 0.0 
0.0 0.0 0.0 
0.0 0.0 0.0 
0.0 0.0 0.0 
0.0 0.0 0.0 
0.0 0.0 0.0 
0.0 0.0 0.0 
0.0 0.0 0.0 
0.0 0.0 0.0 
0.0 0.0 0.0 
0.0 0.0 0.0 
0.0 0.0 0.0 
0.0 0.0 0.0 
0.0 0.0 0.0 
0.0 0.0 0.0 
0.0 0.0 0.0 
0.0 0.0 0.0 
0.0 0.0 0.0 
0.0 0.0 0.0 
0.0 0.0 0.0 
0.0 0.0 0.0 
0.0 0.0 0.0 
0.0 0.0 0.0 
0.0 0.0 0.0 
0.0 0.0 0.0 
0.0 0.0 0.0 
0.0 0.0 0.0 
0.0 0.0 0.0 
0.0 0.0 0.0 
0.0 0.0 0.0 
0.0 0.0 0.0 
0.0 0.0 0.0 
0.0 0.0 0.0 
0.0 0.0 0.0 
0.0 0.0 0.0 
0.0 0.0 0.0 
0.0 0.0 0.0 
0.0 0.0 0.0 
0.0 0.0 0.0 
0.0 0.0 0.0 
0.0 0.0 0.0 
0.0 0.0 0.0 
0.0 0.0 0.0 
0.0 0.0 0.0 
0.0 0.0 0.0 
0.0 0.0 0.0 
0.0 0.0 0.0 
0.0 0.0 0.0 
0.0 0.0 0.0 
0.0 0.0 0.0 
0.0 0.0 0.0 
0.0 0.0 0.0 
0.0 0.0 0.0 
0.0 0.0 0.0 
0.0 0.0 0.0 
0.0 0.0 0.0 
0.0 0.0 0.0 
0.0 0.0 0.0 
0.0 0.0 0.0 
0.0 0.0 0.0 
0.0 0.0 0.0 
0.0 0.0 0.0 
0.0 0.0 0.0 
0.0 0.0 0.0 
0.0 0.0 0.0 
0.0 0.0 0.0 
0.0 0.0 0.0 
0.0 0.0 0.0 
0.0 0.0 0.0 
0.0 0.0 0.0 
0.0 0.0 0.0 
0.0 0.0 0.0 
0.0 0.0 0.0 
0.0 0.0 0.0 
0.0 0.0 0.0 
0.0 0.0 0.0 
0.0 0.0 0.0 
0.0 0.0 0.0 
0.0 0.0 0.0 
0.0 0.0 0.0 
0.0 0.0 0.0 
0.0 0.0 0.0 
0.0 0.0 0.0 
0.0 0.0 0.0 
0.0 0.0 0.0 
0.0 0.0 0.0 
0.0 0.0 0.0 
0.0 0.0 0.0 
0.0 0.0 0.0 
0.0 0.0 0.0 
0.0 0.0 0.0 
0.0 0.0 0.0 
0.0 0.0 0.0 
0.0 0.0 0.0 
0.0 0.0 0.0 
0.0 0.0 0.0 
0.0 0.0 0.0 
0.0 0.0 0.0 
0.0 0.0 0.0 
0.0 0.0 0.0 
0.0 0.0 0.0 
0.0 0.0 0.0 
0.0 0.0 0.0 
0.0 0.0 0.0 
0.0 0.0 0.0 
0.0 0.0 0.0 
0.0 0.0 0.0 
0.0 0.0 0.0 
0.0 0.0 0.0 
0.0 0.0 0.0 
0.0 0.0 0.0 
0.0 0.0 0.0 
0.0 0.0 0.0 
0.0 0.0 0.0 
0.0 0.0 0.0 
0.0 0.0 0.0 
0.0 0.0 0.0 
0.0 0.0 0.0 
0.0 0.0 0.0 
0.0 0.0 0.0 
0.0 0.0 0.0 
0.0 0.0 0.0 
0.0 0.0 0.0 
0.0 0.0 0.0 
0.0 0.0 0.0 
0.0 0.0 0.0 
0.0 0.0 0.0 
0.0 0.0 0.0 
0.0 0.0 0.0 
0.0 0.0 0.0 
0.0 0.0 0.0 
0.0 0.0 0.0 
0.0 0.0 0.0 
0.0 0.0 0.0 
0.0 0.0 0.0 
0.0 0.0 0.0 
0.0 0.0 0.0 
0.0 0.0 0.0 
0.0 0.0 0.0 
0.0 0.0 0.0 
0.0 0.0 0.0 
0.0 0.0 0.0 
0.0 0.0 0.0 
0.0 0.0 0.0 
0.0 0.0 0.0 
0.0 0.0 0.0 
0.0 0.0 0.0 
0.0 0.0 0.0 
0.0 0.0 0.0 
0.0 0.0 0.0 
0.0 0.0 0.0 
0.0 0.0 0.0 
0.0 0.0 0.0 
0.0 0.0 0.0 
0.0 0.0 0.0 
0.0 0.0 0.0 
0.0 0.0 0.0 
0.0 0.0 0.0 
0.0 0.0 0.0 
0.0 0.0 0.0 
0.0 0.0 0.0 
0.0 0.0 0.0 
0.0 0.0 0.0 
0.0 0.0 0.0 
0.0 0.0 0.0 
0.0 0.0 0.0 
0.0 0.0 0.0 
0.0 0.0 0.0 
0.0 0.0 0.0 
0.0 0.0 0.0 
0.0 0.0 0.0 
0.0 0.0 0.0 
0.0 0.0 0.0 
0.0 0.0 0.0 
0.0 0.0 0.0 
0.0 0.0 0.0 
0.0 0.0 0.0 
0.0 0.0 0.0 
0.0 0.0 0.0 
0.0 0.0 0.0 
0.0 0.0 0.0 
0.0 0.0 0.0 
0.0 0.0 0.0 
0.0 0.0 0.0 
0.0 0.0 0.0 
0.0 0.0 0.0 
0.0 0.0 0.0 
0.0 0.0 0.0 
0.0 0.0 0.0 
0.0 0.0 0.0 
0.0 0.0 0.0 
0.0 0.0 0.0 
0.0 0.0 0.0 
0.0 0.0 0.0 
0.0 0.0 0.0 
0.0 0.0 0.0 
0.0 0.0 0.0 
0.0 0.0 0.0 
0.0 0.0 0.0 
0.0 0.0 0.0 
0.0 0.0 0.0 
0.0 0.0 0.0 
0.0 0.0 0.0 
0.0 0.0 0.0 
0.0 0.0 0.0 
0.0 0.0 0.0 
0.0 0.0 0.0 
0.0 0.0 0.0 
0.0 0.0 0.0 
0.0 0.0 0.0 
0.0 0.0 0.0 
0.0 0.0 0.0 
0.0 0.0 0.0 
0.0 0.0 0.0 
0.0 0.0 0.0 
0.0 0.0 0.0 
0.0 0.0 0.0 
0.0 0.0 0.0 
0.0 0.0 0.0 
0.0 0.0 0.0 
0.0 0.0 0.0 
0.0 0.0 0.0 
0.0 0.0 0.0 
0.0 0.0 0.0 
0.0 0.0 0.0 
0.0 0.0 0.0 
0.0 0.0 0.0 
0.0 0.0 0.0 
0.0 0.0 0.0 
0.0 0.0 0.0 
0.0 0.0 0.0 
0.0 0.0 0.0 
0.0 0.0 0.0 
0.0 0.0 0.0 
0.0 0.0 0.0 
0.0 0.0 0.0 
0.0 0.0 0.0 
0.0 0.0 0.0 
0.0 0.0 0.0 
0.0 0.0 0.0 
0.0 0.0 0.0 
0.0 0.0 0.0 
0.0 0.0 0.0 
0.0 0.0 0.0 
0.0 0.0 0.0 
0.0 0.0 0.0 
0.0 0.0 0.0 
0.0 0.0 0.0 
0.0 0.0 0.0 
0.0 0.0 0.0 
0.0 0.0 0.0 
0.0 0.0 0.0 
0.0 0.0 0.0 
0.0 0.0 0.0 
0.0 0.0 0.0 
0.0 0.0 0.0 
0.0 0.0 0.0 
0.0 0.0 0.0 
0.0 0.0 0.0 
0.0 0.0 0.0 
0.0 0.0 0.0 
0.0 0.0 0.0 
0.0 0.0 0.0 
0.0 0.0 0.0 
0.0 0.0 0.0 
0.0 0.0 0.0 
0.0 0.0 0.0 
0.0 0.0 0.0 
0.0 0.0 0.0 
0.0 0.0 0.0 
0.0 0.0 0.0 
0.0 0.0 0.0 
0.0 0.0 0.0 
0.0 0.0 0.0 
0.0 0.0 0.0 
0.0 0.0 0.0 
0.0 0.0 0.0 
0.0 0.0 0.0 
0.0 0.0 0.0 
0.0 0.0 0.0 
0.0 0.0 0.0 
0.0 0.0 0.0 
0.0 0.0 0.0 
0.0 0.0 0.0 
0.0 0.0 0.0 
0.0 0.0 0.0 
0.0 0.0 0.0 
0.0 0.0 0.0 
0.0 0.0 0.0 
0.0 0.0 0.0 
0.0 0.0 0.0 
0.0 0.0 0.0 
0.0 0.0 0.0 
0.0 0.0 0.0 
0.0 0.0 0.0 
0.0 0.0 0.0 
0.0 0.0 0.0 
0.0 0.0 0.0 
0.0 0.0 0.0 
0.0 0.0 0.0 
0.0 0.0 0.0 
0.0 0.0 0.0 
0.0 0.0 0.0 
0.0 0.0 0.0 
0.0 0.0 0.0 
0.0 0.0 0.0 
0.0 0.0 0.0 
0.0 0.0 0.0 
0.0 0.0 0.0 
0.0 0.0 0.0 
0.0 0.0 0.0 
0.0 0.0 0.0 
0.0 0.0 0.0 
0.0 0.0 0.0 
0.0 0.0 0.0 
0.0 0.0 0.0 
0.0 0.0 0.0 
0.0 0.0 0.0 
0.0 0.0 0.0 
0.0 0.0 0.0 
0.0 0.0 0.0 
0.0 0.0 0.0 
0.0 0.0 0.0 
0.0 0.0 0.0 
0.0 0.0 0.0 
0.0 0.0 0.0 
0.0 0.0 0.0 
0.0 0.0 0.0 
0.0 0.0 0.0 
0.0 0.0 0.0 
0.0 0.0 0.0 
0.0 0.0 0.0 
0.0 0.0 0.0 
0.0 0.0 0.0 
0.0 0.0 0.0 
0.0 0.0 0.0 
0.0 0.0 0.0 
0.0 0.0 0.0 
0.0 0.0 0.0 
0.0 0.0 0.0 
0.0 0.0 0.0 
0.0 0.0 0.0 
0.0 0.0 0.0 
0.0 0.0 0.0 
0.0 0.0 0.0 
0.0 0.0 0.0 
0.0 0.0 0.0 
0.0 0.0 0.0 
0.0 0.0 0.0 
0.0 0.0 0.0 
0.0 0.0 0.0 
0.0 0.0 0.0 
0.0 0.0 0.0 
0.0 0.0 0.0 
0.0 0.0 0.0 
0.0 0.0 0.0 
0.0 0.0 0.0 
0.0 0.0 0.0 
0.0 0.0 0.0 
0.0 0.0 0.0 
0.0 0.0 0.0 
0.0 0.0 0.0 
0.0 0.0 0.0 
0.0 0.0 0.0 
0.0 0.0 0.0 
0.0 0.0 0.0 
0.0 0.0 0.0 
0.0 0.0 0.0 
0.0 0.0 0.0 
0.0 0.0 0.0 
0.0 0.0 0.0 
0.0 0.0 0.0 
0.0 0.0 0.0 
0.0 0.0 0.0 
0.0 0.0 0.0 
0.0 0.0 0.0 
0.0 0.0 0.0 
0.0 0.0 0.0 
0.0 0.0 0.0 
0.0 0.0 0.0 
0.0 0.0 0.0 
0.0 0.0 0.0 
0.0 0.0 0.0 
0.0 0.0 0.0 
0.0 0.0 0.0 
0.0 0.0 0.0 
0.0 0.0 0.0 
0.0 0.0 0.0 
0.0 0.0 0.0 
0.0 0.0 0.0 
0.0 0.0 0.0 
0.0 0.0 0.0 
0.0 0.0 0.0 
0.0 0.0 0.0 
0.0 0.0 0.0 
0.0 0.0 0.0 
0.0 0.0 0.0 
0.0 0.0 0.0 
0.0 0.0 0.0 
0.0 0.0 0.0 
0.0 0.0 0.0 
0.0 0.0 0.0 
0.0 0.0 0.0 
0.0 0.0 0.0 
0.0 0.0 0.0 
0.0 0.0 0.0 
0.0 0.0 0.0 
0.0 0.0 0.0 
0.0 0.0 0.0 
0.0 0.0 0.0 
0.0 0.0 0.0 
0.0 0.0 0.0 
0.0 0.0 0.0 
0.0 0.0 0.0 
0.0 0.0 0.0 
0.0 0.0 0.0 
0.0 0.0 0.0 
0.0 0.0 0.0 
0.0 0.0 0.0 
0.0 0.0 0.0 
0.0 0.0 0.0 
0.0 0.0 0.0 
0.0 0.0 0.0 
0.0 0.0 0.0 
0.0 0.0 0.0 
0.0 0.0 0.0 
0.0 0.0 0.0 
0.0 0.0 0.0 
0.0 0.0 0.0 
0.0 0.0 0.0 
0.0 0.0 0.0 
0.0 0.0 0.0 
0.0 0.0 0.0 
0.0 0.0 0.0 
0.0 0.0 0.0 
0.0 0.0 0.0 
0.0 0.0 0.0 
0.0 0.0 0.0 
0.0 0.0 0.0 
0.0 0.0 0.0 
0.0 0.0 0.0 
0.0 0.0 0.0 
0.0 0.0 0.0 
0.0 0.0 0.0 
0.0 0.0 0.0 
0.0 0.0 0.0 
0.0 0.0 0.0 
0.0 0.0 0.0 
0.0 0.0 0.0 
0.0 0.0 0.0 
0.0 0.0 0.0 
0.0 0.0 0.0 
0.0 0.0 0.0 
0.0 0.0 0.0 
0.0 0.0 0.0 
0.0 0.0 0.0 
0.0 0.0 0.0 
0.0 0.0 0.0 
0.0 0.0 0.0 
0.0 0.0 0.0 
0.0 0.0 0.0 
0.0 0.0 0.0 
0.0 0.0 0.0 
0.0 0.0 0.0 
0.0 0.0 0.0 
0.0 0.0 0.0 
0.0 0.0 0.0 
0.0 0.0 0.0 
0.0 0.0 0.0 
0.0 0.0 0.0 
0.0 0.0 0.0 
0.0 0.0 0.0 
0.0 0.0 0.0 
0.0 0.0 0.0 
0.0 0.0 0.0 
0.0 0.0 0.0 
0.0 0.0 0.0 
0.0 0.0 0.0 
0.0 0.0 0.0 
0.0 0.0 0.0 
0.0 0.0 0.0 
0.0 0.0 0.0 
0.0 0.0 0.0 
0.0 0.0 0.0 
0.0 0.0 0.0 
0.0 0.0 0.0 
0.0 0.0 0.0 
0.0 0.0 0.0 
0.0 0.0 0.0 
0.0 0.0 0.0 
0.0 0.0 0.0 
0.0 0.0 0.0 
0.0 0.0 0.0 
0.0 0.0 0.0 
0.0 0.0 0.0 
0.0 0.0 0.0 
0.0 0.0 0.0 
0.0 0.0 0.0 
0.0 0.0 0.0 
0.0 0.0 0.0 
0.0 0.0 0.0 
0.0 0.0 0.0 
0.0 0.0 0.0 
0.0 0.0 0.0 
0.0 0.0 0.0 
0.0 0.0 0.0 
0.0 0.0 0.0 
0.0 0.0 0.0 
0.0 0.0 0.0 
0.0 0.0 0.0 
0.0 0.0 0.0 
0.0 0.0 0.0 
0.0 0.0 0.0 
0.0 0.0 0.0 
0.0 0.0 0.0 
0.0 0.0 0.0 
0.0 0.0 0.0 
0.0 0.0 0.0 
0.0 0.0 0.0 
0.0 0.0 0.0 
0.0 0.0 0.0 
0.0 0.0 0.0 
0.0 0.0 0.0 
0.0 0.0 0.0 
0.0 0.0 0.0 
0.0 0.0 0.0 
0.0 0.0 0.0 
0.0 0.0 0.0 
0.0 0.0 0.0 
0.0 0.0 0.0 
0.0 0.0 0.0 
0.0 0.0 0.0 
0.0 0.0 0.0 
0.0 0.0 0.0 
0.0 0.0 0.0 
0.0 0.0 0.0 
0.0 0.0 0.0 
0.0 0.0 0.0 
0.0 0.0 0.0 
0.0 0.0 0.0 
0.0 0.0 0.0 
0.0 0.0 0.0 
0.0 0.0 0.0 
0.0 0.0 0.0 
0.0 0.0 0.0 
0.0 0.0 0.0 
0.0 0.0 0.0 
0.0 0.0 0.0 
0.0 0.0 0.0 
0.0 0.0 0.0 
0.0 0.0 0.0 
0.0 0.0 0.0 
0.0 0.0 0.0 
0.0 0.0 0.0 
0.0 0.0 0.0 
0.0 0.0 0.0 
0.0 0.0 0.0 
0.0 0.0 0.0 
0.0 0.0 0.0 
0.0 0.0 0.0 
0.0 0.0 0.0 
0.0 0.0 0.0 
0.0 0.0 0.0 
0.0 0.0 0.0 
0.0 0.0 0.0 
0.0 0.0 0.0 
0.0 0.0 0.0 
0.0 0.0 0.0 
0.0 0.0 0.0 
0.0 0.0 0.0 
0.0 0.0 0.0 
0.0 0.0 0.0 
0.0 0.0 0.0 
0.0 0.0 0.0 
0.0 0.0 0.0 
0.0 0.0 0.0 
0.0 0.0 0.0 
0.0 0.0 0.0 
0.0 0.0 0.0 
0.0 0.0 0.0 
0.0 0.0 0.0 
0.0 0.0 0.0 
0.0 0.0 0.0 
0.0 0.0 0.0 
0.0 0.0 0.0 
0.0 0.0 0.0 
0.0 0.0 0.0 
0.0 0.0 0.0 
0.0 0.0 0.0 
0.0 0.0 0.0 
0.0 0.0 0.0 
0.0 0.0 0.0 
0.0 0.0 0.0 
0.0 0.0 0.0 
0.0 0.0 0.0 
0.0 0.0 0.0 
0.0 0.0 0.0 
0.0 0.0 0.0 
0.0 0.0 0.0 
0.0 0.0 0.0 
0.0 0.0 0.0 
0.0 0.0 0.0 
0.0 0.0 0.0 
0.0 0.0 0.0 
0.0 0.0 0.0 
0.0 0.0 0.0 
0.0 0.0 0.0 
0.0 0.0 0.0 
0.0 0.0 0.0 
0.0 0.0 0.0 
0.0 0.0 0.0 
0.0 0.0 0.0 
0.0 0.0 0.0 
0.0 0.0 0.0 
0.0 0.0 0.0 
0.0 0.0 0.0 
0.0 0.0 0.0 
0.0 0.0 0.0 
0.0 0.0 0.0 
0.0 0.0 0.0 
0.0 0.0 0.0 
0.0 0.0 0.0 
0.0 0.0 0.0 
0.0 0.0 0.0 
0.0 0.0 0.0 
0.0 0.0 0.0 
0.0 0.0 0.0 
0.0 0.0 0.0 
0.0 0.0 0.0 
0.0 0.0 0.0 
0.0 0.0 0.0 
0.0 0.0 0.0 
0.0 0.0 0.0 
0.0 0.0 0.0 
0.0 0.0 0.0 
0.0 0.0 0.0 
0.0 0.0 0.0 
0.0 0.0 0.0 
0.0 0.0 0.0 
0.0 0.0 0.0 
0.0 0.0 0.0 
0.0 0.0 0.0 
0.0 0.0 0.0 
0.0 0.0 0.0 
0.0 0.0 0.0 
0.0 0.0 0.0 
0.0 0.0 0.0 
0.0 0.0 0.0 
0.0 0.0 0.0 
0.0 0.0 0.0 
0.0 0.0 0.0 
0.0 0.0 0.0 
0.0 0.0 0.0 
0.0 0.0 0.0 
0.0 0.0 0.0 
0.0 0.0 0.0 
0.0 0.0 0.0 
0.0 0.0 0.0 
0.0 0.0 0.0 
0.0 0.0 0.0 
0.0 0.0 0.0 
0.0 0.0 0.0 
0.0 0.0 0.0 
0.0 0.0 0.0 
0.0 0.0 0.0 
0.0 0.0 0.0 
0.0 0.0 0.0 
0.0 0.0 0.0 
0.0 0.0 0.0 
0.0 0.0 0.0 
0.0 0.0 0.0 
0.0 0.0 0.0 
0.0 0.0 0.0 
0.0 0.0 0.0 
0.0 0.0 0.0 
0.0 0.0 0.0 
0.0 0.0 0.0 
0.0 0.0 0.0 
0.0 0.0 0.0 
0.0 0.0 0.0 
0.0 0.0 0.0 
0.0 0.0 0.0 
0.0 0.0 0.0 
0.0 0.0 0.0 
0.0 0.0 0.0 
0.0 0.0 0.0 
0.0 0.0 0.0 
0.0 0.0 0.0 
0.0 0.0 0.0 
0.0 0.0 0.0 
0.0 0.0 0.0 
0.0 0.0 0.0 
0.0 0.0 0.0 
0.0 0.0 0.0 
0.0 0.0 0.0 
0.0 0.0 0.0 
0.0 0.0 0.0 
0.0 0.0 0.0 
0.0 0.0 0.0 
0.0 0.0 0.0 
0.0 0.0 0.0 
0.0 0.0 0.0 
0.0 0.0 0.0 
0.0 0.0 0.0 
0.0 0.0 0.0 
0.0 0.0 0.0 
0.0 0.0 0.0 
0.0 0.0 0.0 
0.0 0.0 0.0 
0.0 0.0 0.0 
0.0 0.0 0.0 
0.0 0.0 0.0 
0.0 0.0 0.0 
0.0 0.0 0.0 
0.0 0.0 0.0 
0.0 0.0 0.0 
0.0 0.0 0.0 
0.0 0.0 0.0 
0.0 0.0 0.0 
0.0 0.0 0.0 
0.0 0.0 0.0 
0.0 0.0 0.0 
0.0 0.0 0.0 
0.0 0.0 0.0 
0.0 0.0 0.0 
0.0 0.0 0.0 
0.0 0.0 0.0 
0.0 0.0 0.0 
0.0 0.0 0.0 
0.0 0.0 0.0 
0.0 0.0 0.0 
0.0 0.0 0.0 
0.0 0.0 0.0 
0.0 0.0 0.0 
0.0 0.0 0.0 
0.0 0.0 0.0 
0.0 0.0 0.0 
0.0 0.0 0.0 
0.0 0.0 0.0 
0.0 0.0 0.0 
0.0 0.0 0.0 
0.0 0.0 0.0 
0.0 0.0 0.0 
0.0 0.0 0.0 
0.0 0.0 0.0 
0.0 0.0 0.0 
0.0 0.0 0.0 
0.0 0.0 0.0 
0.0 0.0 0.0 
0.0 0.0 0.0 
0.0 0.0 0.0 
0.0 0.0 0.0 
0.0 0.0 0.0 
0.0 0.0 0.0 
0.0 0.0 0.0 
0.0 0.0 0.0 
0.0 0.0 0.0 
0.0 0.0 0.0 
0.0 0.0 0.0 
0.0 0.0 0.0 
0.0 0.0 0.0 
0.0 0.0 0.0 
0.0 0.0 0.0 
0.0 0.0 0.0 
0.0 0.0 0.0 
0.0 0.0 0.0 
0.0 0.0 0.0 
0.0 0.0 0.0 
0.0 0.0 0.0 
0.0 0.0 0.0 
0.0 0.0 0.0 
0.0 0.0 0.0 
0.0 0.0 0.0 
0.0 0.0 0.0 
0.0 0.0 0.0 
0.0 0.0 0.0 
0.0 0.0 0.0 
0.0 0.0 0.0 
0.0 0.0 0.0 
0.0 0.0 0.0 
0.0 0.0 0.0 
0.0 0.0 0.0 
0.0 0.0 0.0 
0.0 0.0 0.0 
0.0 0.0 0.0 
0.0 0.0 0.0 
0.0 0.0 0.0 
0.0 0.0 0.0 
0.0 0.0 0.0 
0.0 0.0 0.0 
0.0 0.0 0.0 
0.0 0.0 0.0 
0.0 0.0 0.0 
0.0 0.0 0.0 
0.0 0.0 0.0 
0.0 0.0 0.0 
0.0 0.0 0.0 
0.0 0.0 0.0 
0.0 0.0 0.0 
0.0 0.0 0.0 
0.0 0.0 0.0 
0.0 0.0 0.0 
0.0 0.0 0.0 
0.0 0.0 0.0 
0.0 0.0 0.0 
0.0 0.0 0.0 
0.0 0.0 0.0 
0.0 0.0 0.0 
0.0 0.0 0.0 
0.0 0.0 0.0 
0.0 0.0 0.0 
0.0 0.0 0.0 
0.0 0.0 0.0 
0.0 0.0 0.0 
0.0 0.0 0.0 
0.0 0.0 0.0 
0.0 0.0 0.0 
0.0 0.0 0.0 
0.0 0.0 0.0 
0.0 0.0 0.0 
0.0 0.0 0.0 
0.0 0.0 0.0 
0.0 0.0 0.0 
0.0 0.0 0.0 
0.0 0.0 0.0 
0.0 0.0 0.0 
0.0 0.0 0.0 
0.0 0.0 0.0 
0.0 0.0 0.0 
0.0 0.0 0.0 
0.0 0.0 0.0 
0.0 0.0 0.0 
0.0 0.0 0.0 
0.0 0.0 0.0 
0.0 0.0 0.0 
0.0 0.0 0.0 
0.0 0.0 0.0 
0.0 0.0 0.0 
0.0 0.0 0.0 
0.0 0.0 0.0 
0.0 0.0 0.0 
0.0 0.0 0.0 
0.0 0.0 0.0 
0.0 0.0 0.0 
0.0 0.0 0.0 
0.0 0.0 0.0 
0.0 0.0 0.0 
0.0 0.0 0.0 
0.0 0.0 0.0 
0.0 0.0 0.0 
0.0 0.0 0.0 
0.0 0.0 0.0 
0.0 0.0 0.0 
0.0 0.0 0.0 
0.0 0.0 0.0 
0.0 0.0 0.0 
0.0 0.0 0.0 
0.0 0.0 0.0 
0.0 0.0 0.0 
0.0 0.0 0.0 
0.0 0.0 0.0 
0.0 0.0 0.0 
0.0 0.0 0.0 
0.0 0.0 0.0 
0.0 0.0 0.0 
0.0 0.0 0.0 
0.0 0.0 0.0 
0.0 0.0 0.0 
0.0 0.0 0.0 
0.0 0.0 0.0 
0.0 0.0 0.0 
0.0 0.0 0.0 
0.0 0.0 0.0 
0.0 0.0 0.0 
0.0 0.0 0.0 
0.0 0.0 0.0 
0.0 0.0 0.0 
0.0 0.0 0.0 
0.0 0.0 0.0 
0.0 0.0 0.0 
0.0 0.0 0.0 
0.0 0.0 0.0 
0.0 0.0 0.0 
0.0 0.0 0.0 
0.0 0.0 0.0 
0.0 0.0 0.0 
0.0 0.0 0.0 
0.0 0.0 0.0 
0.0 0.0 0.0 
0.0 0.0 0.0 
0.0 0.0 0.0 
0.0 0.0 0.0 
0.0 0.0 0.0 
0.0 0.0 0.0 
0.0 0.0 0.0 
0.0 0.0 0.0 
0.0 0.0 0.0 
0.0 0.0 0.0 
0.0 0.0 0.0 
0.0 0.0 0.0 
0.0 0.0 0.0 
0.0 0.0 0.0 
0.0 0.0 0.0 
0.0 0.0 0.0 
0.0 0.0 0.0 
0.0 0.0 0.0 
0.0 0.0 0.0 
0.0 0.0 0.0 
0.0 0.0 0.0 
0.0 0.0 0.0 
0.0 0.0 0.0 
0.0 0.0 0.0 
0.0 0.0 0.0 
0.0 0.0 0.0 
0.0 0.0 0.0 
0.0 0.0 0.0 
0.0 0.0 0.0 
0.0 0.0 0.0 
0.0 0.0 0.0 
0.0 0.0 0.0 
0.0 0.0 0.0 
0.0 0.0 0.0 
0.0 0.0 0.0 
0.0 0.0 0.0 
0.0 0.0 0.0 
0.0 0.0 0.0 
0.0 0.0 0.0 
0.0 0.0 0.0 
0.0 0.0 0.0 
0.0 0.0 0.0 
0.0 0.0 0.0 
0.0 0.0 0.0 
0.0 0.0 0.0 
0.0 0.0 0.0 
0.0 0.0 0.0 
0.0 0.0 0.0 
0.0 0.0 0.0 
0.0 0.0 0.0 
0.0 0.0 0.0 
0.0 0.0 0.0 
0.0 0.0 0.0 
0.0 0.0 0.0 
0.0 0.0 0.0 
0.0 0.0 0.0 
0.0 0.0 0.0 
0.0 0.0 0.0 
0.0 0.0 0.0 
0.0 0.0 0.0 
0.0 0.0 0.0 
0.0 0.0 0.0 
0.0 0.0 0.0 
0.0 0.0 0.0 
0.0 0.0 0.0 
0.0 0.0 0.0 
0.0 0.0 0.0 
0.0 0.0 0.0 
0.0 0.0 0.0 
0.0 0.0 0.0 
0.0 0.0 0.0 
0.0 0.0 0.0 
0.0 0.0 0.0 
0.0 0.0 0.0 
0.0 0.0 0.0 
0.0 0.0 0.0 
0.0 0.0 0.0 
0.0 0.0 0.0 
0.0 0.0 0.0 
0.0 0.0 0.0 
0.0 0.0 0.0 
0.0 0.0 0.0 
0.0 0.0 0.0 
0.0 0.0 0.0 
0.0 0.0 0.0 
0.0 0.0 0.0 
0.0 0.0 0.0 
0.0 0.0 0.0 
0.0 0.0 0.0 
0.0 0.0 0.0 
0.0 0.0 0.0 
0.0 0.0 0.0 
0.0 0.0 0.0 
0.0 0.0 0.0 
0.0 0.0 0.0 
0.0 0.0 0.0 
0.0 0.0 0.0 
0.0 0.0 0.0 
0.0 0.0 0.0 
0.0 0.0 0.0 
0.0 0.0 0.0 
0.0 0.0 0.0 
0.0 0.0 0.0 
0.0 0.0 0.0 
0.0 0.0 0.0 
0.0 0.0 0.0 
0.0 0.0 0.0 
0.0 0.0 0.0 
0.0 0.0 0.0 
0.0 0.0 0.0 
0.0 0.0 0.0 
0.0 0.0 0.0 
0.0 0.0 0.0 
0.0 0.0 0.0 
0.0 0.0 0.0 
0.0 0.0 0.0 
0.0 0.0 0.0 
0.0 0.0 0.0 
0.0 0.0 0.0 
0.0 0.0 0.0 
0.0 0.0 0.0 
0.0 0.0 0.0 
0.0 0.0 0.0 
0.0 0.0 0.0 
0.0 0.0 0.0 
0.0 0.0 0.0 
0.0 0.0 0.0 
0.0 0.0 0.0 
0.0 0.0 0.0 
0.0 0.0 0.0 
0.0 0.0 0.0 
0.0 0.0 0.0 
0.0 0.0 0.0 
0.0 0.0 0.0 
0.0 0.0 0.0 
0.0 0.0 0.0 
0.0 0.0 0.0 
0.0 0.0 0.0 
0.0 0.0 0.0 
0.0 0.0 0.0 
0.0 0.0 0.0 
0.0 0.0 0.0 
0.0 0.0 0.0 
0.0 0.0 0.0 
0.0 0.0 0.0 
0.0 0.0 0.0 
0.0 0.0 0.0 
0.0 0.0 0.0 
0.0 0.0 0.0 
0.0 0.0 0.0 
0.0 0.0 0.0 
0.0 0.0 0.0 
0.0 0.0 0.0 
0.0 0.0 0.0 
0.0 0.0 0.0 
0.0 0.0 0.0 
0.0 0.0 0.0 
0.0 0.0 0.0 
0.0 0.0 0.0 
0.0 0.0 0.0 
0.0 0.0 0.0 
0.0 0.0 0.0 
0.0 0.0 0.0 
0.0 0.0 0.0 
0.0 0.0 0.0 
0.0 0.0 0.0 
0.0 0.0 0.0 
0.0 0.0 0.0 
0.0 0.0 0.0 
0.0 0.0 0.0 
0.0 0.0 0.0 
0.0 0.0 0.0 
0.0 0.0 0.0 
0.0 0.0 0.0 
0.0 0.0 0.0 
0.0 0.0 0.0 
0.0 0.0 0.0 
0.0 0.0 0.0 
0.0 0.0 0.0 
0.0 0.0 0.0 
0.0 0.0 0.0 
0.0 0.0 0.0 
0.0 0.0 0.0 
0.0 0.0 0.0 
0.0 0.0 0.0 
0.0 0.0 0.0 
0.0 0.0 0.0 
0.0 0.0 0.0 
0.0 0.0 0.0 
0.0 0.0 0.0 
0.0 0.0 0.0 
0.0 0.0 0.0 
0.0 0.0 0.0 
0.0 0.0 0.0 
0.0 0.0 0.0 
0.0 0.0 0.0 
0.0 0.0 0.0 
0.0 0.0 0.0 
0.0 0.0 0.0 
0.0 0.0 0.0 
0.0 0.0 0.0 
0.0 0.0 0.0 
0.0 0.0 0.0 
0.0 0.0 0.0 
0.0 0.0 0.0 
0.0 0.0 0.0 
0.0 0.0 0.0 
0.0 0.0 0.0 
0.0 0.0 0.0 
0.0 0.0 0.0 
0.0 0.0 0.0 
0.0 0.0 0.0 
0.0 0.0 0.0 
0.0 0.0 0.0 
0.0 0.0 0.0 
0.0 0.0 0.0 
0.0 0.0 0.0 
0.0 0.0 0.0 
0.0 0.0 0.0 
0.0 0.0 0.0 
0.0 0.0 0.0 
0.0 0.0 0.0 
0.0 0.0 0.0 
0.0 0.0 0.0 
0.0 0.0 0.0 
0.0 0.0 0.0 
0.0 0.0 0.0 
0.0 0.0 0.0 
0.0 0.0 0.0 
0.0 0.0 0.0 
0.0 0.0 0.0 
0.0 0.0 0.0 
0.0 0.0 0.0 
0.0 0.0 0.0 
0.0 0.0 0.0 
0.0 0.0 0.0 
0.0 0.0 0.0 
0.0 0.0 0.0 
0.0 0.0 0.0 
0.0 0.0 0.0 
0.0 0.0 0.0 
0.0 0.0 0.0 
0.0 0.0 0.0 
0.0 0.0 0.0 
0.0 0.0 0.0 
0.0 0.0 0.0 
0.0 0.0 0.0 
0.0 0.0 0.0 
0.0 0.0 0.0 
0.0 0.0 0.0 
0.0 0.0 0.0 
0.0 0.0 0.0 
0.0 0.0 0.0 
0.0 0.0 0.0 
0.0 0.0 0.0 
0.0 0.0 0.0 
0.0 0.0 0.0 
0.0 0.0 0.0 
0.0 0.0 0.0 
0.0 0.0 0.0 
0.0 0.0 0.0 
0.0 0.0 0.0 
0.0 0.0 0.0 
0.0 0.0 0.0 
0.0 0.0 0.0 
0.0 0.0 0.0 
0.0 0.0 0.0 
0.0 0.0 0.0 
0.0 0.0 0.0 
0.0 0.0 0.0 
0.0 0.0 0.0 
0.0 0.0 0.0 
0.0 0.0 0.0 
0.0 0.0 0.0 
0.0 0.0 0.0 
0.0 0.0 0.0 
0.0 0.0 0.0 
0.0 0.0 0.0 
0.0 0.0 0.0 
0.0 0.0 0.0 
0.0 0.0 0.0 
0.0 0.0 0.0 
0.0 0.0 0.0 
0.0 0.0 0.0 
0.0 0.0 0.0 
0.0 0.0 0.0 
0.0 0.0 0.0 
0.0 0.0 0.0 
0.0 0.0 0.0 
0.0 0.0 0.0 
0.0 0.0 0.0 
0.0 0.0 0.0 
0.0 0.0 0.0 
0.0 0.0 0.0 
0.0 0.0 0.0 
0.0 0.0 0.0 
0.0 0.0 0.0 
0.0 0.0 0.0 
0.0 0.0 0.0 
0.0 0.0 0.0 
0.0 0.0 0.0 
0.0 0.0 0.0 
0.0 0.0 0.0 
0.0 0.0 0.0 
0.0 0.0 0.0 
0.0 0.0 0.0 
0.0 0.0 0.0 
0.0 0.0 0.0 
0.0 0.0 0.0 
0.0 0.0 0.0 
0.0 0.0 0.0 
0.0 0.0 0.0 
0.0 0.0 0.0 
0.0 0.0 0.0 
0.0 0.0 0.0 
0.0 0.0 0.0 
0.0 0.0 0.0 
0.0 0.0 0.0 
0.0 0.0 0.0 
0.0 0.0 0.0 
0.0 0.0 0.0 
0.0 0.0 0.0 
0.0 0.0 0.0 
0.0 0.0 0.0 
0.0 0.0 0.0 
0.0 0.0 0.0 
0.0 0.0 0.0 
0.0 0.0 0.0 
0.0 0.0 0.0 
0.0 0.0 0.0 
0.0 0.0 0.0 
0.0 0.0 0.0 
0.0 0.0 0.0 
0.0 0.0 0.0 
0.0 0.0 0.0 
0.0 0.0 0.0 
0.0 0.0 0.0 
0.0 0.0 0.0 
0.0 0.0 0.0 
0.0 0.0 0.0 
0.0 0.0 0.0 
0.0 0.0 0.0 
0.0 0.0 0.0 
0.0 0.0 0.0 
0.0 0.0 0.0 
0.0 0.0 0.0 
0.0 0.0 0.0 
0.0 0.0 0.0 
0.0 0.0 0.0 
0.0 0.0 0.0 
0.0 0.0 0.0 
0.0 0.0 0.0 
0.0 0.0 0.0 
0.0 0.0 0.0 
0.0 0.0 0.0 
0.0 0.0 0.0 
0.0 0.0 0.0 
0.0 0.0 0.0 
0.0 0.0 0.0 
0.0 0.0 0.0 
0.0 0.0 0.0 
0.0 0.0 0.0 
0.0 0.0 0.0 
0.0 0.0 0.0 
0.0 0.0 0.0 
0.0 0.0 0.0 
0.0 0.0 0.0 
0.0 0.0 0.0 
0.0 0.0 0.0 
0.0 0.0 0.0 
0.0 0.0 0.0 
0.0 0.0 0.0 
0.0 0.0 0.0 
0.0 0.0 0.0 
0.0 0.0 0.0 
0.0 0.0 0.0 
0.0 0.0 0.0 
0.0 0.0 0.0 
0.0 0.0 0.0 
0.0 0.0 0.0 
0.0 0.0 0.0 
0.0 0.0 0.0 
0.0 0.0 0.0 
0.0 0.0 0.0 
0.0 0.0 0.0 
0.0 0.0 0.0 
0.0 0.0 0.0 
0.0 0.0 0.0 
0.0 0.0 0.0 
0.0 0.0 0.0 
0.0 0.0 0.0 
0.0 0.0 0.0 
0.0 0.0 0.0 
0.0 0.0 0.0 
0.0 0.0 0.0 
0.0 0.0 0.0 
0.0 0.0 0.0 
0.0 0.0 0.0 
0.0 0.0 0.0 
0.0 0.0 0.0 
0.0 0.0 0.0 
0.0 0.0 0.0 
0.0 0.0 0.0 
0.0 0.0 0.0 
0.0 0.0 0.0 
0.0 0.0 0.0 
0.0 0.0 0.0 
0.0 0.0 0.0 
0.0 0.0 0.0 
0.0 0.0 0.0 
0.0 0.0 0.0 
0.0 0.0 0.0 
0.0 0.0 0.0 
0.0 0.0 0.0 
0.0 0.0 0.0 
0.0 0.0 0.0 
0.0 0.0 0.0 
0.0 0.0 0.0 
0.0 0.0 0.0 
0.0 0.0 0.0 
0.0 0.0 0.0 
0.0 0.0 0.0 
0.0 0.0 0.0 
0.0 0.0 0.0 
0.0 0.0 0.0 
0.0 0.0 0.0 
0.0 0.0 0.0 
0.0 0.0 0.0 
0.0 0.0 0.0 
0.0 0.0 0.0 
0.0 0.0 0.0 
0.0 0.0 0.0 
0.0 0.0 0.0 
0.0 0.0 0.0 
0.0 0.0 0.0 
0.0 0.0 0.0 
0.0 0.0 0.0 
0.0 0.0 0.0 
0.0 0.0 0.0 
0.0 0.0 0.0 
0.0 0.0 0.0 
0.0 0.0 0.0 
0.0 0.0 0.0 
0.0 0.0 0.0 
0.0 0.0 0.0 
0.0 0.0 0.0 
0.0 0.0 0.0 
0.0 0.0 0.0 
0.0 0.0 0.0 
0.0 0.0 0.0 
0.0 0.0 0.0 
0.0 0.0 0.0 
0.0 0.0 0.0 
0.0 0.0 0.0 
0.0 0.0 0.0 
0.0 0.0 0.0 
0.0 0.0 0.0 
0.0 0.0 0.0 
0.0 0.0 0.0 
0.0 0.0 0.0 
0.0 0.0 0.0 
0.0 0.0 0.0 
0.0 0.0 0.0 
0.0 0.0 0.0 
0.0 0.0 0.0 
0.0 0.0 0.0 
0.0 0.0 0.0 
0.0 0.0 0.0 
0.0 0.0 0.0 
0.0 0.0 0.0 
0.0 0.0 0.0 
0.0 0.0 0.0 
0.0 0.0 0.0 
0.0 0.0 0.0 
0.0 0.0 0.0 
0.0 0.0 0.0 
0.0 0.0 0.0 
0.0 0.0 0.0 
0.0 0.0 0.0 
0.0 0.0 0.0 
0.0 0.0 0.0 
0.0 0.0 0.0 
0.0 0.0 0.0 
0.0 0.0 0.0 
0.0 0.0 0.0 
0.0 0.0 0.0 
0.0 0.0 0.0 
0.0 0.0 0.0 
0.0 0.0 0.0 
0.0 0.0 0.0 
0.0 0.0 0.0 
0.0 0.0 0.0 
0.0 0.0 0.0 
0.0 0.0 0.0 
0.0 0.0 0.0 
0.0 0.0 0.0 
0.0 0.0 0.0 
0.0 0.0 0.0 
0.0 0.0 0.0 
0.0 0.0 0.0 
0.0 0.0 0.0 
0.0 0.0 0.0 
0.0 0.0 0.0 
0.0 0.0 0.0 
0.0 0.0 0.0 
0.0 0.0 0.0 
0.0 0.0 0.0 
0.0 0.0 0.0 
0.0 0.0 0.0 
0.0 0.0 0.0 
0.0 0.0 0.0 
0.0 0.0 0.0 
0.0 0.0 0.0 
0.0 0.0 0.0 
0.0 0.0 0.0 
0.0 0.0 0.0 
0.0 0.0 0.0 
0.0 0.0 0.0 
0.0 0.0 0.0 
0.0 0.0 0.0 
0.0 0.0 0.0 
0.0 0.0 0.0 
0.0 0.0 0.0 
0.0 0.0 0.0 
0.0 0.0 0.0 
0.0 0.0 0.0 
0.0 0.0 0.0 
0.0 0.0 0.0 
0.0 0.0 0.0 
0.0 0.0 0.0 
0.0 0.0 0.0 
0.0 0.0 0.0 
0.0 0.0 0.0 
0.0 0.0 0.0 
0.0 0.0 0.0 
0.0 0.0 0.0 
0.0 0.0 0.0 
0.0 0.0 0.0 
0.0 0.0 0.0 
0.0 0.0 0.0 
0.0 0.0 0.0 
0.0 0.0 0.0 
0.0 0.0 0.0 
0.0 0.0 0.0 
0.0 0.0 0.0 
0.0 0.0 0.0 
0.0 0.0 0.0 
0.0 0.0 0.0 
0.0 0.0 0.0 
0.0 0.0 0.0 
0.0 0.0 0.0 
0.0 0.0 0.0 
0.0 0.0 0.0 
0.0 0.0 0.0 
0.0 0.0 0.0 
0.0 0.0 0.0 
0.0 0.0 0.0 
0.0 0.0 0.0 
0.0 0.0 0.0 
0.0 0.0 0.0 
0.0 0.0 0.0 
0.0 0.0 0.0 
0.0 0.0 0.0 
0.0 0.0 0.0 
0.0 0.0 0.0 
0.0 0.0 0.0 
0.0 0.0 0.0 
0.0 0.0 0.0 
0.0 0.0 0.0 
0.0 0.0 0.0 
0.0 0.0 0.0 
0.0 0.0 0.0 
0.0 0.0 0.0 
0.0 0.0 0.0 
0.0 0.0 0.0 
0.0 0.0 0.0 
0.0 0.0 0.0 
0.0 0.0 0.0 
0.0 0.0 0.0 
0.0 0.0 0.0 
0.0 0.0 0.0 
0.0 0.0 0.0 
0.0 0.0 0.0 
0.0 0.0 0.0 
0.0 0.0 0.0 
0.0 0.0 0.0 
0.0 0.0 0.0 
0.0 0.0 0.0 
0.0 0.0 0.0 
0.0 0.0 0.0 
0.0 0.0 0.0 
0.0 0.0 0.0 
0.0 0.0 0.0 
0.0 0.0 0.0 
0.0 0.0 0.0 
0.0 0.0 0.0 
0.0 0.0 0.0 
0.0 0.0 0.0 
0.0 0.0 0.0 
0.0 0.0 0.0 
0.0 0.0 0.0 
0.0 0.0 0.0 
0.0 0.0 0.0 
0.0 0.0 0.0 
0.0 0.0 0.0 
0.0 0.0 0.0 
0.0 0.0 0.0 
0.0 0.0 0.0 
0.0 0.0 0.0 
0.0 0.0 0.0 
0.0 0.0 0.0 
0.0 0.0 0.0 
0.0 0.0 0.0 
0.0 0.0 0.0 
0.0 0.0 0.0 
0.0 0.0 0.0 
0.0 0.0 0.0 
0.0 0.0 0.0 
0.0 0.0 0.0 
0.0 0.0 0.0 
0.0 0.0 0.0 
0.0 0.0 0.0 
0.0 0.0 0.0 
0.0 0.0 0.0 
0.0 0.0 0.0 
0.0 0.0 0.0 
0.0 0.0 0.0 
0.0 0.0 0.0 
0.0 0.0 0.0 
0.0 0.0 0.0 
0.0 0.0 0.0 
0.0 0.0 0.0 
0.0 0.0 0.0 
0.0 0.0 0.0 
0.0 0.0 0.0 
0.0 0.0 0.0 
0.0 0.0 0.0 
0.0 0.0 0.0 
0.0 0.0 0.0 
0.0 0.0 0.0 
0.0 0.0 0.0 
0.0 0.0 0.0 
0.0 0.0 0.0 
0.0 0.0 0.0 
0.0 0.0 0.0 
0.0 0.0 0.0 
0.0 0.0 0.0 
0.0 0.0 0.0 
0.0 0.0 0.0 
0.0 0.0 0.0 
0.0 0.0 0.0 
0.0 0.0 0.0 
0.0 0.0 0.0 
0.0 0.0 0.0 
0.0 0.0 0.0 
0.0 0.0 0.0 
0.0 0.0 0.0 
0.0 0.0 0.0 
0.0 0.0 0.0 
0.0 0.0 0.0 
0.0 0.0 0.0 
0.0 0.0 0.0 
0.0 0.0 0.0 
0.0 0.0 0.0 
0.0 0.0 0.0 
0.0 0.0 0.0 
0.0 0.0 0.0 
0.0 0.0 0.0 
0.0 0.0 0.0 
0.0 0.0 0.0 
0.0 0.0 0.0 
0.0 0.0 0.0 
0.0 0.0 0.0 
0.0 0.0 0.0 
0.0 0.0 0.0 
0.0 0.0 0.0 
0.0 0.0 0.0 
0.0 0.0 0.0 
0.0 0.0 0.0 
0.0 0.0 0.0 
0.0 0.0 0.0 
0.0 0.0 0.0 
0.0 0.0 0.0 
0.0 0.0 0.0 
0.0 0.0 0.0 
0.0 0.0 0.0 
0.0 0.0 0.0 
0.0 0.0 0.0 
0.0 0.0 0.0 
0.0 0.0 0.0 
0.0 0.0 0.0 
0.0 0.0 0.0 
0.0 0.0 0.0 
0.0 0.0 0.0 
0.0 0.0 0.0 
0.0 0.0 0.0 
0.0 0.0 0.0 
0.0 0.0 0.0 
0.0 0.0 0.0 
0.0 0.0 0.0 
0.0 0.0 0.0 
0.0 0.0 0.0 
0.0 0.0 0.0 
0.0 0.0 0.0 
0.0 0.0 0.0 
0.0 0.0 0.0 
0.0 0.0 0.0 
0.0 0.0 0.0 
0.0 0.0 0.0 
0.0 0.0 0.0 
0.0 0.0 0.0 
0.0 0.0 0.0 
0.0 0.0 0.0 
0.0 0.0 0.0 
0.0 0.0 0.0 
0.0 0.0 0.0 
0.0 0.0 0.0 
0.0 0.0 0.0 
0.0 0.0 0.0 
0.0 0.0 0.0 
0.0 0.0 0.0 
0.0 0.0 0.0 
0.0 0.0 0.0 
0.0 0.0 0.0 
0.0 0.0 0.0 
0.0 0.0 0.0 
0.0 0.0 0.0 
0.0 0.0 0.0 
0.0 0.0 0.0 
0.0 0.0 0.0 
0.0 0.0 0.0 
0.0 0.0 0.0 
0.0 0.0 0.0 
0.0 0.0 0.0 
0.0 0.0 0.0 
0.0 0.0 0.0 
0.0 0.0 0.0 
0.0 0.0 0.0 
0.0 0.0 0.0 
0.0 0.0 0.0 
0.0 0.0 0.0 
0.0 0.0 0.0 
0.0 0.0 0.0 
0.0 0.0 0.0 
0.0 0.0 0.0 
0.0 0.0 0.0 
0.0 0.0 0.0 
0.0 0.0 0.0 
0.0 0.0 0.0 
0.0 0.0 0.0 
0.0 0.0 0.0 
0.0 0.0 0.0 
0.0 0.0 0.0 
0.0 0.0 0.0 
0.0 0.0 0.0 
0.0 0.0 0.0 
0.0 0.0 0.0 
0.0 0.0 0.0 
0.0 0.0 0.0 
0.0 0.0 0.0 
0.0 0.0 0.0 
0.0 0.0 0.0 
0.0 0.0 0.0 
0.0 0.0 0.0 
0.0 0.0 0.0 
0.0 0.0 0.0 
0.0 0.0 0.0 
0.0 0.0 0.0 
0.0 0.0 0.0 
0.0 0.0 0.0 
0.0 0.0 0.0 
0.0 0.0 0.0 
0.0 0.0 0.0 
0.0 0.0 0.0 
0.0 0.0 0.0 
0.0 0.0 0.0 
0.0 0.0 0.0 
0.0 0.0 0.0 
0.0 0.0 0.0 
0.0 0.0 0.0 
0.0 0.0 0.0 
0.0 0.0 0.0 
0.0 0.0 0.0 
0.0 0.0 0.0 
0.0 0.0 0.0 
0.0 0.0 0.0 
0.0 0.0 0.0 
0.0 0.0 0.0 
0.0 0.0 0.0 
0.0 0.0 0.0 
0.0 0.0 0.0 
0.0 0.0 0.0 
0.0 0.0 0.0 
0.0 0.0 0.0 
0.0 0.0 0.0 
0.0 0.0 0.0 
0.0 0.0 0.0 
0.0 0.0 0.0 
0.0 0.0 0.0 
0.0 0.0 0.0 
0.0 0.0 0.0 
0.0 0.0 0.0 
0.0 0.0 0.0 
0.0 0.0 0.0 
0.0 0.0 0.0 
0.0 0.0 0.0 
0.0 0.0 0.0 
0.0 0.0 0.0 
0.0 0.0 0.0 
0.0 0.0 0.0 
0.0 0.0 0.0 
0.0 0.0 0.0 
0.0 0.0 0.0 
0.0 0.0 0.0 
0.0 0.0 0.0 
0.0 0.0 0.0 
0.0 0.0 0.0 
0.0 0.0 0.0 
0.0 0.0 0.0 
0.0 0.0 0.0 
0.0 0.0 0.0 
0.0 0.0 0.0 
0.0 0.0 0.0 
0.0 0.0 0.0 
0.0 0.0 0.0 
0.0 0.0 0.0 
0.0 0.0 0.0 
0.0 0.0 0.0 
0.0 0.0 0.0 
0.0 0.0 0.0 
0.0 0.0 0.0 
0.0 0.0 0.0 
0.0 0.0 0.0 
0.0 0.0 0.0 
0.0 0.0 0.0 
0.0 0.0 0.0 
0.0 0.0 0.0 
0.0 0.0 0.0 
0.0 0.0 0.0 
0.0 0.0 0.0 
0.0 0.0 0.0 
0.0 0.0 0.0 
0.0 0.0 0.0 
0.0 0.0 0.0 
0.0 0.0 0.0 
0.0 0.0 0.0 
0.0 0.0 0.0 
0.0 0.0 0.0 
0.0 0.0 0.0 
0.0 0.0 0.0 
0.0 0.0 0.0 
0.0 0.0 0.0 
0.0 0.0 0.0 
0.0 0.0 0.0 
0.0 0.0 0.0 
0.0 0.0 0.0 
0.0 0.0 0.0 
0.0 0.0 0.0 
0.0 0.0 0.0 
0.0 0.0 0.0 
0.0 0.0 0.0 
0.0 0.0 0.0 
0.0 0.0 0.0 
0.0 0.0 0.0 
0.0 0.0 0.0 
0.0 0.0 0.0 
0.0 0.0 0.0 
0.0 0.0 0.0 
0.0 0.0 0.0 
0.0 0.0 0.0 
0.0 0.0 0.0 
0.0 0.0 0.0 
0.0 0.0 0.0 
0.0 0.0 0.0 
0.0 0.0 0.0 
0.0 0.0 0.0 
0.0 0.0 0.0 
0.0 0.0 0.0 
0.0 0.0 0.0 
0.0 0.0 0.0 
0.0 0.0 0.0 
0.0 0.0 0.0 
0.0 0.0 0.0 
0.0 0.0 0.0 
0.0 0.0 0.0 
0.0 0.0 0.0 
0.0 0.0 0.0 
0.0 0.0 0.0 
0.0 0.0 0.0 
0.0 0.0 0.0 
0.0 0.0 0.0 
0.0 0.0 0.0 
0.0 0.0 0.0 
0.0 0.0 0.0 
0.0 0.0 0.0 
0.0 0.0 0.0 
0.0 0.0 0.0 
0.0 0.0 0.0 
0.0 0.0 0.0 
0.0 0.0 0.0 
0.0 0.0 0.0 
0.0 0.0 0.0 
0.0 0.0 0.0 
0.0 0.0 0.0 
0.0 0.0 0.0 
0.0 0.0 0.0 
0.0 0.0 0.0 
0.0 0.0 0.0 
0.0 0.0 0.0 
0.0 0.0 0.0 
0.0 0.0 0.0 
0.0 0.0 0.0 
0.0 0.0 0.0 
0.0 0.0 0.0 
0.0 0.0 0.0 
0.0 0.0 0.0 
0.0 0.0 0.0 
0.0 0.0 0.0 
0.0 0.0 0.0 
0.0 0.0 0.0 
0.0 0.0 0.0 
0.0 0.0 0.0 
0.0 0.0 0.0 
0.0 0.0 0.0 
0.0 0.0 0.0 
0.0 0.0 0.0 
0.0 0.0 0.0 
0.0 0.0 0.0 
0.0 0.0 0.0 
0.0 0.0 0.0 
0.0 0.0 0.0 
0.0 0.0 0.0 
0.0 0.0 0.0 
0.0 0.0 0.0 
0.0 0.0 0.0 
0.0 0.0 0.0 
0.0 0.0 0.0 
0.0 0.0 0.0 
0.0 0.0 0.0 
0.0 0.0 0.0 
0.0 0.0 0.0 
0.0 0.0 0.0 
0.0 0.0 0.0 
0.0 0.0 0.0 
0.0 0.0 0.0 
0.0 0.0 0.0 
0.0 0.0 0.0 
0.0 0.0 0.0 
0.0 0.0 0.0 
0.0 0.0 0.0 
0.0 0.0 0.0 
0.0 0.0 0.0 
0.0 0.0 0.0 
0.0 0.0 0.0 
0.0 0.0 0.0 
0.0 0.0 0.0 
0.0 0.0 0.0 
0.0 0.0 0.0 
0.0 0.0 0.0 
0.0 0.0 0.0 
0.0 0.0 0.0 
0.0 0.0 0.0 
0.0 0.0 0.0 
0.0 0.0 0.0 
0.0 0.0 0.0 
0.0 0.0 0.0 
0.0 0.0 0.0 
0.0 0.0 0.0 
0.0 0.0 0.0 
0.0 0.0 0.0 
0.0 0.0 0.0 
0.0 0.0 0.0 
0.0 0.0 0.0 
0.0 0.0 0.0 
0.0 0.0 0.0 
0.0 0.0 0.0 
0.0 0.0 0.0 
0.0 0.0 0.0 
0.0 0.0 0.0 
0.0 0.0 0.0 
0.0 0.0 0.0 
0.0 0.0 0.0 
0.0 0.0 0.0 
0.0 0.0 0.0 
0.0 0.0 0.0 
0.0 0.0 0.0 
0.0 0.0 0.0 
0.0 0.0 0.0 
0.0 0.0 0.0 
0.0 0.0 0.0 
0.0 0.0 0.0 
0.0 0.0 0.0 
0.0 0.0 0.0 
0.0 0.0 0.0 
0.0 0.0 0.0 
0.0 0.0 0.0 
0.0 0.0 0.0 
0.0 0.0 0.0 
0.0 0.0 0.0 
0.0 0.0 0.0 
0.0 0.0 0.0 
0.0 0.0 0.0 
0.0 0.0 0.0 
0.0 0.0 0.0 
0.0 0.0 0.0 
0.0 0.0 0.0 
0.0 0.0 0.0 
0.0 0.0 0.0 
0.0 0.0 0.0 
0.0 0.0 0.0 
0.0 0.0 0.0 
0.0 0.0 0.0 
0.0 0.0 0.0 
0.0 0.0 0.0 
0.0 0.0 0.0 
0.0 0.0 0.0 

TENSORS element_materi_stress float
-4.418673682085e+01 8.087935372806e-02 0.0 
8.087935372806e-02 -1.003341179021e+02 0.0 
0.0 0.0 -4.295625641689e+01 
-4.499902232399e+01 2.398363508065e+00 0.0 
2.398363508065e+00 -9.824059052247e+01 0.0 
0.0 0.0 -4.257188385394e+01 
-1.495266562938e+02 2.401284761132e+00 0.0 
2.401284761132e+00 -3.484333859340e+02 0.0 
0.0 0.0 -1.489880126683e+02 
-1.467077197628e+02 9.229618473952e-01 0.0 
9.229618473952e-01 -3.428317556033e+02 0.0 
0.0 0.0 -1.464618426098e+02 
-8.971562349077e+01 -7.769891028161e-01 0.0 
-7.769891028161e-01 -2.069528968312e+02 0.0 
0.0 0.0 -8.860055609658e+01 
-1.481651771073e+01 2.710135241129e+00 0.0 
2.710135241129e+00 -4.226222478369e+01 0.0 
0.0 0.0 -1.672362274833e+01 
-8.989990503270e+01 -9.808501161456e-01 0.0 
-9.808501161456e-01 -2.072797079461e+02 0.0 
0.0 0.0 -8.875388389365e+01 
-4.308918892555e+01 1.433862981795e+00 0.0 
1.433862981795e+00 -9.592428959627e+01 0.0 
0.0 0.0 -4.130404355655e+01 
-8.996521000515e+01 1.270595512679e+00 0.0 
1.270595512679e+00 -2.076510913257e+02 0.0 
0.0 0.0 -8.888489039925e+01 
-1.461409994751e+02 -5.446436123651e-01 0.0 
-5.446436123651e-01 -3.412514034103e+02 0.0 
0.0 0.0 -1.458177208656e+02 
-1.040247837500e+02 -4.707990131943e-01 0.0 
-4.707990131943e-01 -2.503007398312e+02 0.0 
0.0 0.0 -1.058976570744e+02 
-3.687747131046e+01 1.140843825680e+00 0.0 
1.140843825680e+00 -8.144556525713e+01 0.0 
0.0 0.0 -3.509691097028e+01 
-1.537189498088e+02 -5.332524453949e-01 0.0 
-5.332524453949e-01 -3.620663516621e+02 0.0 
0.0 0.0 -1.543355904413e+02 
-9.722825886706e+01 -3.347886550401e-01 0.0 
-3.347886550401e-01 -2.236618901817e+02 0.0 
0.0 0.0 -9.586704471462e+01 
-1.575011442946e+02 1.238448540082e+00 0.0 
1.238448540082e+00 -3.701061111091e+02 0.0 
0.0 0.0 -1.578821766211e+02 
-1.498512195130e+02 -5.313772764172e-01 0.0 
-5.313772764172e-01 -3.508130937368e+02 0.0 
0.0 0.0 -1.497992939749e+02 
-8.793377692091e+01 1.778296266446e-01 0.0 
1.778296266446e-01 -2.026367260614e+02 0.0 
0.0 0.0 -8.677115089470e+01 
-1.621545554544e+01 2.801364952406e+00 0.0 
2.801364952406e+00 -4.281155208345e+01 0.0 
0.0 0.0 -1.730810228867e+01 
-3.077876146356e+01 3.676157708994e-01 0.0 
3.676157708994e-01 -7.644204866744e+01 0.0 
0.0 0.0 -3.176624303930e+01 
-3.207153282932e+01 -4.717142216842e-01 0.0 
-4.717142216842e-01 -7.929826741943e+01 0.0 
0.0 0.0 -3.301094007462e+01 
-1.466038932476e+02 1.295804052118e+00 0.0 
1.295804052118e+00 -3.418908983445e+02 0.0 
0.0 0.0 -1.461484374776e+02 
-5.072922675136e+01 3.770647640617e-01 0.0 
3.770647640617e-01 -1.134455193879e+02 0.0 
0.0 0.0 -4.885242384177e+01 
-5.572215269346e+01 1.432957469143e+00 0.0 
1.432957469143e+00 -1.248498126760e+02 0.0 
0.0 0.0 -5.377158961083e+01 
-1.456094271066e+02 3.616677802796e+00 0.0 
3.616677802796e+00 -3.433827805079e+02 0.0 
0.0 0.0 -1.462976622844e+02 
-1.048444757667e+02 -2.032965744713e-01 0.0 
-2.032965744713e-01 -2.410372837901e+02 0.0 
0.0 0.0 -1.033645278670e+02 
-1.096161838905e+02 7.543771152561e-01 0.0 
7.543771152561e-01 -2.634093649815e+02 0.0 
0.0 0.0 -1.115076646616e+02 
-8.139921659924e+01 4.243191956320e-01 0.0 
4.243191956320e-01 -1.858611464813e+02 0.0 
0.0 0.0 -7.977810892417e+01 
-1.517682119154e+02 3.681597020493e+00 0.0 
3.681597020493e+00 -3.545586952104e+02 0.0 
0.0 0.0 -1.514980721377e+02 
-1.051380264242e+02 1.771512327121e+00 0.0 
1.771512327121e+00 -2.414054421076e+02 0.0 
0.0 0.0 -1.035630405595e+02 
-1.490638030489e+02 2.368368534883e+00 0.0 
2.368368534883e+00 -3.518815371427e+02 0.0 
0.0 0.0 -1.498836020575e+02 
-2.341391665424e+01 1.829557506702e-01 0.0 
1.829557506702e-01 -5.849150999259e+01 0.0 
0.0 0.0 -2.417162799405e+01 
-1.103985267451e+01 -4.043617951413e-01 0.0 
-4.043617951413e-01 -2.578577059602e+01 0.0 
0.0 0.0 -1.064768698116e+01 
-1.495425231649e+02 2.053525497099e+00 0.0 
2.053525497099e+00 -3.490093094817e+02 0.0 
0.0 0.0 -1.491655497940e+02 
-1.312875613930e+02 8.527292168076e-01 0.0 
8.527292168076e-01 -3.122938254601e+02 0.0 
0.0 0.0 -1.326744160559e+02 
-1.529179538316e+02 2.832549297045e+00 0.0 
2.832549297045e+00 -3.597526051228e+02 0.0 
0.0 0.0 -1.534011676863e+02 
-1.607862705551e+02 -1.405741154487e-01 0.0 
-1.405741154487e-01 -3.783610384732e+02 0.0 
0.0 0.0 -1.613441927085e+02 
-1.610524153140e+02 2.924091270453e+00 0.0 
2.924091270453e+00 -3.782047959233e+02 0.0 
0.0 0.0 -1.613771633712e+02 
-1.514449720499e+02 3.001243322503e+00 0.0 
3.001243322503e+00 -3.553313286018e+02 0.0 
0.0 0.0 -1.516328901955e+02 
-8.181754876935e+01 1.299750008823e+00 0.0 
1.299750008823e+00 -1.883927455093e+02 0.0 
0.0 0.0 -8.066308828359e+01 
-8.200045182437e+01 -1.407102948221e+00 0.0 
-1.407102948221e+00 -1.891055967120e+02 0.0 
0.0 0.0 -8.093181456091e+01 
-6.440221800984e+01 1.374684516832e+00 0.0 
1.374684516832e+00 -1.448244109160e+02 0.0 
0.0 0.0 -6.236798867776e+01 
-1.549944785761e+02 2.353830255166e+00 0.0 
2.353830255166e+00 -3.639295636267e+02 0.0 
0.0 0.0 -1.552772126608e+02 
-3.096378235263e+01 6.620404974700e-01 0.0 
6.620404974700e-01 -6.860982447127e+01 0.0 
0.0 0.0 -2.947208204717e+01 
-8.190257747373e+01 1.305969387729e-01 0.0 
1.305969387729e-01 -1.865707736661e+02 0.0 
0.0 0.0 -8.014200534195e+01 
-1.420224175811e+02 4.736027716800e-01 0.0 
4.736027716800e-01 -3.317230817560e+02 0.0 
0.0 0.0 -1.417236498011e+02 
-3.171172013852e+01 3.047714613677e+00 0.0 
3.047714613677e+00 -6.861837740835e+01 0.0 
0.0 0.0 -2.969902926406e+01 
-1.707522193933e+01 -1.107853990212e-01 0.0 
-1.107853990212e-01 -4.343943533343e+01 0.0 
0.0 0.0 -1.775439718183e+01 
-1.429128795335e+02 -1.308069365485e-01 0.0 
-1.308069365485e-01 -3.334999448657e+02 0.0 
0.0 0.0 -1.425238473198e+02 
-1.133407668711e+01 -2.630987015607e-01 0.0 
-2.630987015607e-01 -2.585158499409e+01 0.0 
0.0 0.0 -1.114557193566e+01 
-9.389363455649e+01 1.075242829427e+00 0.0 
1.075242829427e+00 -2.151414540328e+02 0.0 
0.0 0.0 -9.231052657679e+01 
-6.013163755976e+01 1.378983671226e+00 0.0 
1.378983671226e+00 -1.350701771627e+02 0.0 
0.0 0.0 -5.816054441674e+01 
-3.925701714900e+01 1.688812500994e-01 0.0 
1.688812500994e-01 -9.602691965030e+01 0.0 
0.0 0.0 -4.018518103979e+01 
-3.164149535408e+01 1.247288028769e+00 0.0 
1.247288028769e+00 -8.077881018649e+01 0.0 
0.0 0.0 -3.332609166217e+01 
-5.937192279789e+01 7.489161740940e-02 0.0 
7.489161740940e-02 -1.334481930653e+02 0.0 
0.0 0.0 -5.744603475895e+01 
-1.496977087449e+02 1.728881297263e+00 0.0 
1.728881297263e+00 -3.490694436034e+02 0.0 
0.0 0.0 -1.492301457045e+02 
-5.163982638725e+01 4.689288323857e-01 0.0 
4.689288323857e-01 -1.266585378881e+02 0.0 
0.0 0.0 -5.308950928262e+01 
-4.035918016545e+01 -6.046237442297e-01 0.0 
-6.046237442297e-01 -9.919743334944e+01 0.0 
0.0 0.0 -4.146698405446e+01 
-1.311771075417e+02 -5.622367214426e-01 0.0 
-5.622367214426e-01 -3.123021542155e+02 0.0 
0.0 0.0 -1.326437785272e+02 
-2.385536410964e+01 -2.762022215517e-01 0.0 
-2.762022215517e-01 -5.867380574126e+01 0.0 
0.0 0.0 -2.435875095527e+01 
-1.500457535306e+02 1.136195919336e+00 0.0 
1.136195919336e+00 -3.509303735957e+02 0.0 
0.0 0.0 -1.498928381379e+02 
-1.116670945012e+01 2.338652575148e-01 0.0 
2.338652575148e-01 -2.253008391396e+01 0.0 
0.0 0.0 -9.709038009223e+00 
-1.439994831122e+02 2.689519879374e+00 0.0 
2.689519879374e+00 -3.369524391627e+02 0.0 
0.0 0.0 -1.438855766825e+02 
-6.062265526688e+01 1.260695322501e+00 0.0 
1.260695322501e+00 -1.367975083135e+02 0.0 
0.0 0.0 -5.882604907411e+01 
-2.840495521605e+01 2.238005589950e-01 0.0 
2.238005589950e-01 -7.290647795983e+01 0.0 
0.0 0.0 -2.999342995276e+01 
-1.534868127542e+02 1.417001511917e+00 0.0 
1.417001511917e+00 -3.615542170659e+02 0.0 
0.0 0.0 -1.541123089460e+02 
-5.473361077033e+01 2.318361155220e-01 0.0 
2.318361155220e-01 -1.229695299713e+02 0.0 
0.0 0.0 -5.291094222250e+01 
-9.833165146920e+00 -2.788659015691e-01 0.0 
-2.788659015691e-01 -2.126784827090e+01 0.0 
0.0 0.0 -9.632257980101e+00 
-1.499917378532e+02 2.768665832317e+00 0.0 
2.768665832317e+00 -3.490959574159e+02 0.0 
0.0 0.0 -1.493263085807e+02 
-2.564553111801e+01 4.107649504939e-01 0.0 
4.107649504939e-01 -6.338553347409e+01 0.0 
0.0 0.0 -2.630931937763e+01 
-1.506992939408e+02 3.038747591604e+00 0.0 
3.038747591604e+00 -3.516303733852e+02 0.0 
0.0 0.0 -1.502989001978e+02 
-1.142820615621e+02 9.756600714227e-01 0.0 
9.756600714227e-01 -2.739201176630e+02 0.0 
0.0 0.0 -1.160606537675e+02 
-1.556819881854e+02 1.116637031878e+00 0.0 
1.116637031878e+00 -3.645913057659e+02 0.0 
0.0 0.0 -1.556819881854e+02 
-1.454670327718e+02 3.374091122212e+00 0.0 
3.374091122212e+00 -3.395701146306e+02 0.0 
0.0 0.0 -1.451111442207e+02 
-1.198366700229e+01 -9.373103303905e-01 0.0 
-9.373103303905e-01 -2.970103723792e+01 0.0 
0.0 0.0 -1.210541127206e+01 
-5.371425085350e+01 -6.428249599779e-01 0.0 
-6.428249599779e-01 -1.319924409504e+02 0.0 
0.0 0.0 -5.531200754117e+01 
-1.478379237082e+02 1.517301158018e+00 0.0 
1.517301158018e+00 -3.447501572679e+02 0.0 
0.0 0.0 -1.473764242928e+02 
-1.498489192612e+02 1.858124287307e+00 0.0 
1.858124287307e+00 -3.493768361084e+02 0.0 
0.0 0.0 -1.493677266109e+02 
-2.328083093688e+01 4.193128912683e+00 0.0 
4.193128912683e+00 -4.940751908405e+01 0.0 
0.0 0.0 -2.140650500628e+01 
-2.395522576638e+01 -1.884118493413e-01 0.0 
-1.884118493413e-01 -5.889660947139e+01 0.0 
0.0 0.0 -2.445555057133e+01 
-2.227254075660e+01 1.497320232790e+00 0.0 
1.497320232790e+00 -4.913899931393e+01 0.0 
0.0 0.0 -2.102346202116e+01 
-2.497072566416e+01 -1.067395634023e+00 0.0 
-1.067395634023e+00 -6.277358269576e+01 0.0 
0.0 0.0 -2.592329250798e+01 
-8.814049157770e+01 4.735556885785e-02 0.0 
4.735556885785e-02 -2.024362178473e+02 0.0 
0.0 0.0 -8.677301282751e+01 
-5.152720119679e+01 1.558961375245e+00 0.0 
1.558961375245e+00 -1.154347104049e+02 0.0 
0.0 0.0 -4.968857348049e+01 
-4.554051378234e+01 7.025654958368e-01 0.0 
7.025654958368e-01 -1.016782353100e+02 0.0 
0.0 0.0 -4.376562472769e+01 
-9.421041039818e+01 1.168750592493e+00 0.0 
1.168750592493e+00 -2.178222454939e+02 0.0 
0.0 0.0 -9.320979676761e+01 
-9.418756643196e+01 -7.333873147085e-01 0.0 
-7.333873147085e-01 -2.177848201546e+02 0.0 
0.0 0.0 -9.319171597598e+01 
-1.179461131212e+02 9.392768106136e-01 0.0 
9.392768106136e-01 -2.824121836490e+02 0.0 
0.0 0.0 -1.197074890310e+02 
-1.275004522492e+02 -7.484144154716e-01 0.0 
-7.484144154716e-01 -3.039457642129e+02 0.0 
0.0 0.0 -1.290338649386e+02 
-1.279750128474e+02 2.879834528808e+00 0.0 
2.879834528808e+00 -2.952619927504e+02 0.0 
0.0 0.0 -1.265711016793e+02 
-8.961287128495e+01 1.345292010245e+00 0.0 
1.345292010245e+00 -2.062317238390e+02 0.0 
0.0 0.0 -8.835337853718e+01 
-1.115932883610e+01 -4.061780148498e-01 0.0 
-4.061780148498e-01 -2.573596346718e+01 0.0 
0.0 0.0 -1.102470291031e+01 
-8.922651643852e+01 3.909303684799e-01 0.0 
3.909303684799e-01 -2.039883408106e+02 0.0 
0.0 0.0 -8.756445717473e+01 
-1.226301170662e+02 5.402120240790e-01 0.0 
5.402120240790e-01 -2.856612131709e+02 0.0 
0.0 0.0 -1.220873990711e+02 
-1.213557589920e+02 -3.189672039606e-01 0.0 
-3.189672039606e-01 -2.821120631802e+02 0.0 
0.0 0.0 -1.206403466516e+02 
-1.561215962757e+02 1.286702576346e+00 0.0 
1.286702576346e+00 -3.649671308979e+02 0.0 
0.0 0.0 -1.559266181521e+02 
-1.555441013177e+02 4.476386893478e+00 0.0 
4.476386893478e+00 -3.643930068317e+02 0.0 
0.0 0.0 -1.555811324448e+02 
-8.812166357284e+01 6.534370397572e-01 0.0 
6.534370397572e-01 -2.020040387637e+02 0.0 
0.0 0.0 -8.663771070096e+01 
-1.541130646328e+02 2.398571088298e+00 0.0 
2.398571088298e+00 -3.639882512194e+02 0.0 
0.0 0.0 -1.550303947557e+02 
-1.024596126425e+02 6.474363363089e-01 0.0 
6.474363363089e-01 -2.373222594090e+02 0.0 
0.0 0.0 -1.015345616155e+02 
-5.782769146412e+01 2.717132777228e+00 0.0 
2.717132777228e+00 -1.291909811879e+02 0.0 
0.0 0.0 -5.570560179561e+01 
-8.596601439734e+01 8.341456816618e-01 0.0 
8.341456816618e-01 -1.976927749634e+02 0.0 
0.0 0.0 -8.469763680822e+01 
-1.571385313177e+02 -2.091583876876e-01 0.0 
-2.091583876876e-01 -3.698216447022e+02 0.0 
0.0 0.0 -1.576880528060e+02 
-1.235915207181e+02 4.307786158466e+00 0.0 
4.307786158466e+00 -2.891792914061e+02 0.0 
0.0 0.0 -1.234312436373e+02 
-1.443907353764e+02 4.521790195935e+00 0.0 
4.521790195935e+00 -3.375355295917e+02 0.0 
0.0 0.0 -1.441778794904e+02 
-5.203226516627e+01 4.228430016847e+00 0.0 
4.228430016847e+00 -1.174822481620e+02 0.0 
0.0 0.0 -5.045435399849e+01 
-1.801651993282e+01 -3.677391239153e-01 0.0 
-3.677391239153e-01 -4.266937332551e+01 0.0 
0.0 0.0 -1.780576797750e+01 
-1.445002963724e+02 1.093965975540e+00 0.0 
1.093965975540e+00 -3.417240338701e+02 0.0 
0.0 0.0 -1.454672990728e+02 
-1.291339541076e+02 -1.382708048268e-01 0.0 
-1.382708048268e-01 -3.009057131730e+02 0.0 
0.0 0.0 -1.286119001842e+02 
-1.202877408027e+01 -8.378797721478e-02 0.0 
-8.378797721478e-02 -2.552505253023e+01 0.0 
0.0 0.0 -1.086614798315e+01 
-1.566483414002e+02 1.412957394231e+00 0.0 
1.412957394231e+00 -3.673293918027e+02 0.0 
0.0 0.0 -1.567933199609e+02 
-1.227252922855e+02 1.207517725849e+00 0.0 
1.207517725849e+00 -2.833778608800e+02 0.0 
0.0 0.0 -1.214309459497e+02 
-8.881435403729e+00 4.830270546899e-01 0.0 
4.830270546899e-01 -2.201451025449e+01 0.0 
0.0 0.0 -8.868783697467e+00 
-7.116080739916e+01 2.480559353185e+00 0.0 
2.480559353185e+00 -1.641897540498e+02 0.0 
0.0 0.0 -7.020516843469e+01 
-8.111680699231e+01 1.218993020842e+00 0.0 
1.218993020842e+00 -1.841643369267e+02 0.0 
0.0 0.0 -7.918434317569e+01 
-6.542086903918e+01 2.549442014874e-01 0.0 
2.549442014874e-01 -1.602256016147e+02 0.0 
0.0 0.0 -6.729394119616e+01 
-5.237663167362e+01 1.239637391341e+00 0.0 
1.239637391341e+00 -1.168822335664e+02 0.0 
0.0 0.0 -5.037765957199e+01 
-6.104859775849e+01 3.523862128393e+00 0.0 
3.523862128393e+00 -1.372219700428e+02 0.0 
0.0 0.0 -5.908117034040e+01 
-1.556859459041e+02 1.418850595589e+00 0.0 
1.418850595589e+00 -3.666140696484e+02 0.0 
0.0 0.0 -1.562900046657e+02 
-9.982025921249e+01 -7.059583715114e-01 0.0 
-7.059583715114e-01 -2.307777305232e+02 0.0 
0.0 0.0 -9.877939692070e+01 
-5.618954270199e+01 1.550225432533e+00 0.0 
1.550225432533e+00 -1.266989025939e+02 0.0 
0.0 0.0 -5.446653358877e+01 
-2.462798210557e+01 4.710307974384e-01 0.0 
4.710307974384e-01 -6.061761162276e+01 0.0 
0.0 0.0 -2.517367811850e+01 
-8.884949472558e+01 7.312632775973e-03 0.0 
7.312632775973e-03 -2.028549842975e+02 0.0 
0.0 0.0 -8.711134370692e+01 
-1.301677311826e+02 4.900332588179e-01 0.0 
4.900332588179e-01 -3.026584802895e+02 0.0 
0.0 0.0 -1.294478634416e+02 
-5.646620308319e+01 3.982193875106e+00 0.0 
3.982193875106e+00 -1.269842825816e+02 0.0 
0.0 0.0 -5.463514569945e+01 
-1.440914996596e+01 5.768238479455e+00 0.0 
5.768238479455e+00 -3.226525187103e+01 0.0 
0.0 0.0 -1.360232055110e+01 
-7.276390168420e+01 1.305255447796e+00 0.0 
1.305255447796e+00 -1.645171679784e+02 0.0 
0.0 0.0 -7.078432089878e+01 
-6.479402395241e+01 -3.004452337677e-01 0.0 
-3.004452337677e-01 -1.587784396430e+02 0.0 
0.0 0.0 -6.667173907861e+01 
-6.798816001183e+01 -1.151231629014e-01 0.0 
-1.151231629014e-01 -1.537533345114e+02 0.0 
0.0 0.0 -6.612244835698e+01 
-1.508116024933e+02 2.569527859729e-01 0.0 
2.569527859729e-01 -3.525170422728e+02 0.0 
0.0 0.0 -1.505985934298e+02 
-1.803118738263e+01 4.236655086101e+00 0.0 
4.236655086101e+00 -4.452078803209e+01 0.0 
0.0 0.0 -1.836559262441e+01 
-1.092525763342e+02 -4.498847529424e-01 0.0 
-4.498847529424e-01 -2.624107455091e+02 0.0 
0.0 0.0 -1.110989965530e+02 
-1.465617782495e+02 -7.205219036844e-01 0.0 
-7.205219036844e-01 -3.428390998404e+02 0.0 
0.0 0.0 -1.464202634270e+02 
-7.420817632769e+01 8.366224854618e-01 0.0 
8.366224854618e-01 -1.680242051153e+02 0.0 
0.0 0.0 -7.226971443290e+01 
-6.868786051272e+01 1.364343732545e+00 0.0 
1.364343732545e+00 -1.549390488019e+02 0.0 
0.0 0.0 -6.668807279438e+01 
-1.525427176891e+02 1.069253425793e+00 0.0 
1.069253425793e+00 -3.596424454509e+02 0.0 
0.0 0.0 -1.532555489420e+02 
-1.540245514710e+02 1.356632393608e+00 0.0 
1.356632393608e+00 -3.627122868732e+02 0.0 
0.0 0.0 -1.546210515033e+02 
-1.179134321868e+02 -4.549589431538e-01 0.0 
-4.549589431538e-01 -2.824521239068e+02 0.0 
0.0 0.0 -1.197096668281e+02 
-7.903782622053e+01 2.395390305409e+00 0.0 
2.395390305409e+00 -1.787720650835e+02 0.0 
0.0 0.0 -7.694296739122e+01 
-1.544967403560e+02 2.733906835644e+00 0.0 
2.733906835644e+00 -3.640592912191e+02 0.0 
0.0 0.0 -1.551668094725e+02 
-7.068116376421e+01 4.712915562574e-01 0.0 
4.712915562574e-01 -1.597601554354e+02 0.0 
0.0 0.0 -6.873239575990e+01 
-1.493330823615e+02 6.559331132620e-01 0.0 
6.559331132620e-01 -3.483092366869e+02 0.0 
0.0 0.0 -1.488926957145e+02 
-1.510039190402e+02 2.777464968404e+00 0.0 
2.777464968404e+00 -3.521218249266e+02 0.0 
0.0 0.0 -1.505377231901e+02 
-9.707785646282e+01 1.537789701459e+00 0.0 
1.537789701459e+00 -2.230643651376e+02 0.0 
0.0 0.0 -9.564266648012e+01 
-1.127714340443e+02 -6.011261190481e-01 0.0 
-6.011261190481e-01 -2.614915042356e+02 0.0 
0.0 0.0 -1.118788814840e+02 
-7.106021935421e+01 2.234242354059e+00 0.0 
2.234242354059e+00 -1.600283327539e+02 0.0 
0.0 0.0 -6.892656563244e+01 
-6.364451525952e+01 -1.178787378751e-01 0.0 
-1.178787378751e-01 -1.438628587109e+02 0.0 
0.0 0.0 -6.185221219114e+01 
-8.210358965244e+01 1.018511353616e+00 0.0 
1.018511353616e+00 -1.866907992937e+02 0.0 
0.0 0.0 -8.023831668384e+01 
-6.016749433522e+01 4.126915365501e+00 0.0 
4.126915365501e+00 -1.370790730287e+02 0.0 
0.0 0.0 -5.877397020916e+01 
-8.694433117854e+01 8.630769309327e-01 0.0 
8.630769309327e-01 -2.005032196736e+02 0.0 
0.0 0.0 -8.583426525566e+01 
-7.110897879155e+01 4.487094258971e+00 0.0 
4.487094258971e+00 -1.645196801419e+02 0.0 
0.0 0.0 -7.028859768005e+01 
-1.087564332809e+01 -5.098340381941e-02 0.0 
-5.098340381941e-02 -2.515146309352e+01 0.0 
0.0 0.0 -1.082630951858e+01 
-9.304340831831e+01 8.213880709018e-02 0.0 
8.213880709018e-02 -2.154582994944e+02 0.0 
0.0 0.0 -9.215051234383e+01 
-2.366579776957e+01 -8.531337419491e-02 0.0 
-8.531337419491e-02 -5.983959612346e+01 0.0 
0.0 0.0 -2.465161816791e+01 
-7.693834049622e+01 1.277046741684e+00 0.0 
1.277046741684e+00 -1.744409810750e+02 0.0 
0.0 0.0 -7.501379647136e+01 
-1.551154136738e+02 2.789476595255e+00 0.0 
2.789476595255e+00 -3.640456614100e+02 0.0 
0.0 0.0 -1.553483225251e+02 
-5.173650866409e+01 1.966811505549e+00 0.0 
1.966811505549e+00 -1.171169490281e+02 0.0 
0.0 0.0 -5.025603730766e+01 
-1.224931777304e+02 -6.641862216892e-01 0.0 
-6.641862216892e-01 -2.927355288727e+02 0.0 
0.0 0.0 -1.241686119809e+02 
-3.597237429398e+01 2.782778989639e+00 0.0 
2.782778989639e+00 -7.834152251882e+01 0.0 
0.0 0.0 -3.389416904384e+01 
-1.233985265506e+02 2.420340522929e+00 0.0 
2.420340522929e+00 -2.888529110748e+02 0.0 
0.0 0.0 -1.232754312876e+02 
-8.729218574353e+01 8.256243122449e-03 0.0 
8.256243122449e-03 -2.021158298209e+02 0.0 
0.0 0.0 -8.642240466932e+01 
-6.649948168719e+01 2.777011703693e+00 0.0 
2.777011703693e+00 -1.544491567653e+02 0.0 
0.0 0.0 -6.588459153574e+01 
-1.354622081188e+02 1.133363225985e+00 0.0 
1.133363225985e+00 -3.217989030819e+02 0.0 
0.0 0.0 -1.367783333602e+02 
-2.446648601886e+01 -1.001642892159e+00 0.0 
-1.001642892159e+00 -6.015054150311e+01 0.0 
0.0 0.0 -2.498510825659e+01 
-1.443979942917e+02 -5.283998956433e-01 0.0 
-5.283998956433e-01 -3.414352126243e+02 0.0 
0.0 0.0 -1.453499620748e+02 
-8.769006491727e+01 1.931307522675e-01 0.0 
1.931307522675e-01 -2.000212349563e+02 0.0 
0.0 0.0 -8.591338996207e+01 
-1.552103506864e+02 9.482729937054e-01 0.0 
9.482729937054e-01 -3.662661898858e+02 0.0 
0.0 0.0 -1.560429621716e+02 
-8.686605884778e+01 -8.431241277723e-02 0.0 
-8.431241277723e-02 -2.010386856574e+02 0.0 
0.0 0.0 -8.597142335155e+01 
-5.506193178067e+01 2.658935981779e+00 0.0 
2.658935981779e+00 -1.258325224393e+02 0.0 
0.0 0.0 -5.386833626600e+01 
-7.649033552770e+01 -1.335957997009e-01 0.0 
-1.335957997009e-01 -1.734709569290e+02 0.0 
0.0 0.0 -7.458838773702e+01 
-1.040221071759e+02 5.795301824464e-01 0.0 
5.795301824464e-01 -2.513072588362e+02 0.0 
0.0 0.0 -1.061988098036e+02 
-3.536277137189e+01 3.047224794765e-01 0.0 
3.047224794765e-01 -7.908786066761e+01 0.0 
0.0 0.0 -3.393518961185e+01 
-6.638148237365e+01 4.686032153562e+00 0.0 
4.686032153562e+00 -1.547694420037e+02 0.0 
0.0 0.0 -6.594527731321e+01 
-1.170825805715e+02 1.101683676595e+00 0.0 
1.101683676595e+00 -2.720347182326e+02 0.0 
0.0 0.0 -1.163351896412e+02 
-8.674342636548e+01 -5.836181855097e-01 0.0 
-5.836181855097e-01 -2.008487785417e+02 0.0 
0.0 0.0 -8.587766147215e+01 
-6.297549483739e+01 2.640341744856e+00 0.0 
2.640341744856e+00 -1.446658020034e+02 0.0 
0.0 0.0 -6.189238905223e+01 
-7.201075026897e+01 -9.590855226649e-02 0.0 
-9.590855226649e-02 -1.634181969661e+02 0.0 
0.0 0.0 -7.022868417053e+01 
-1.339372912376e+02 1.807282096601e+00 0.0 
1.807282096601e+00 -3.105404316799e+02 0.0 
0.0 0.0 -1.329433168753e+02 
-7.262289209327e+01 2.643497685071e-01 0.0 
2.643497685071e-01 -1.770375914045e+02 0.0 
0.0 0.0 -7.449814504933e+01 
-1.520522732755e+02 3.393544054199e+00 0.0 
3.393544054199e+00 -3.552119373993e+02 0.0 
0.0 0.0 -1.517792632025e+02 
-1.511733642408e+02 3.391376870965e+00 0.0 
3.391376870965e+00 -3.523269450413e+02 0.0 
0.0 0.0 -1.506500927846e+02 
-4.998499183038e+01 2.478498371739e+00 0.0 
2.478498371739e+00 -1.109374848031e+02 0.0 
0.0 0.0 -4.787674299004e+01 
-7.326089956612e+01 -2.583614963666e-01 0.0 
-2.583614963666e-01 -1.781956491462e+02 0.0 
0.0 0.0 -7.503696461369e+01 
-1.378678494110e+02 3.923377307222e+00 0.0 
3.923377307222e+00 -3.256587706626e+02 0.0 
0.0 0.0 -1.386579860221e+02 
-6.763298406625e+01 1.779533056813e+00 0.0 
1.779533056813e+00 -1.521485198318e+02 0.0 
0.0 0.0 -6.553445116940e+01 
-4.387289243879e+01 9.017474098518e-01 0.0 
9.017474098518e-01 -9.776758898097e+01 0.0 
0.0 0.0 -4.209214442593e+01 
-8.413908560455e+01 -2.137893430357e-02 0.0 
-2.137893430357e-02 -1.918536611742e+02 0.0 
0.0 0.0 -8.239782403364e+01 
-6.810661450916e+01 4.116809629406e+00 0.0 
4.116809629406e+00 -1.560575612458e+02 0.0 
0.0 0.0 -6.684925272650e+01 
-1.484720620866e+02 -4.817232718711e-02 0.0 
-4.817232718711e-02 -3.474159733214e+02 0.0 
0.0 0.0 -1.483664106224e+02 
-1.236113230773e+02 8.931474842939e-01 0.0 
8.931474842939e-01 -2.855010404111e+02 0.0 
0.0 0.0 -1.223337090465e+02 
-1.400533842712e+02 -7.287592633450e-01 0.0 
-7.287592633450e-01 -3.319583712583e+02 0.0 
0.0 0.0 -1.412035266588e+02 
-2.754627633512e+01 3.646173677702e+00 0.0 
3.646173677702e+00 -5.907525289168e+01 0.0 
0.0 0.0 -2.558645876804e+01 
-6.176607679424e+01 4.777671822943e+00 0.0 
4.777671822943e+00 -1.455605378138e+02 0.0 
0.0 0.0 -6.179798438240e+01 
-1.273254124055e+02 1.131271834482e+00 0.0 
1.131271834482e+00 -2.943474797263e+02 0.0 
0.0 0.0 -1.261018676395e+02 
-6.202596364690e+00 1.103839851995e+00 0.0 
1.103839851995e+00 -5.454982889149e+00 0.0 
0.0 0.0 -3.097273776152e+00 
-6.722104942364e+01 2.389119576157e-01 0.0 
2.389119576157e-01 -1.519300180387e+02 0.0 
0.0 0.0 -6.534532023870e+01 
-1.288641040911e+02 3.618522153601e+00 0.0 
3.618522153601e+00 -3.060269657693e+02 0.0 
0.0 0.0 -1.300673209581e+02 
-1.693083635920e+01 1.234105838313e-01 0.0 
1.234105838313e-01 -4.231395491042e+01 0.0 
0.0 0.0 -1.737343738089e+01 
-1.481213538739e+02 1.005897690502e+00 0.0 
1.005897690502e+00 -3.446951349126e+02 0.0 
0.0 0.0 -1.474449466359e+02 
-1.127019113026e+02 2.596847134149e-01 0.0 
2.596847134149e-01 -2.595794235842e+02 0.0 
0.0 0.0 -1.112844004660e+02 
-6.774814907750e+01 -1.021508475648e-01 0.0 
-1.021508475648e-01 -1.672333445853e+02 0.0 
0.0 0.0 -7.009444809885e+01 
-1.285573716128e+02 1.820915331008e+00 0.0 
1.820915331008e+00 -3.057211016938e+02 0.0 
0.0 0.0 -1.298835419920e+02 
-9.549923152307e+01 6.838647009167e-01 0.0 
6.838647009167e-01 -2.185906000026e+02 0.0 
0.0 0.0 -9.382694945769e+01 
-1.022681947962e+02 1.261672864007e+00 0.0 
1.261672864007e+00 -2.342743792923e+02 0.0 
0.0 0.0 -1.005627722265e+02 
-1.492969975056e+02 3.461141745463e+00 0.0 
3.461141745463e+00 -3.515672978566e+02 0.0 
0.0 0.0 -1.498592886086e+02 
-5.087545606966e+01 -7.795940263566e-01 0.0 
-7.795940263566e-01 -1.261388231151e+02 0.0 
0.0 0.0 -5.270428375542e+01 
-8.566482993052e+01 1.338644272046e+00 0.0 
1.338644272046e+00 -1.953392518122e+02 0.0 
0.0 0.0 -8.390122452281e+01 
-9.133993290694e+01 4.529386228004e-01 0.0 
4.529386228004e-01 -2.084233539478e+02 0.0 
0.0 0.0 -8.952898605643e+01 
-1.175296906085e+02 1.882166223784e+00 0.0 
1.882166223784e+00 -2.706939435163e+02 0.0 
0.0 0.0 -1.160670902374e+02 
-9.238559318007e+01 1.763940406842e+00 0.0 
1.763940406842e+00 -2.106139972211e+02 0.0 
0.0 0.0 -9.049987712036e+01 
-8.451823603382e+01 1.489264096590e+00 0.0 
1.489264096590e+00 -1.920038976050e+02 0.0 
0.0 0.0 -8.255664009165e+01 
-1.105371169876e+02 4.180774185903e+00 0.0 
4.180774185903e+00 -2.596440671783e+02 0.0 
0.0 0.0 -1.106543552498e+02 
-1.304377160298e+02 3.353146696158e+00 0.0 
3.353146696158e+00 -3.014722803460e+02 0.0 
0.0 0.0 -1.291729989127e+02 
-1.012730796871e+01 1.423838352204e+00 0.0 
1.423838352204e+00 -2.289810318387e+01 0.0 
0.0 0.0 -9.507623345775e+00 
-4.995256128560e+01 1.034804143460e+00 0.0 
1.034804143460e+00 -1.111765647648e+02 0.0 
0.0 0.0 -4.793873781511e+01 
-5.716155389193e+01 9.441671364099e-01 0.0 
9.441671364099e-01 -1.284952061692e+02 0.0 
0.0 0.0 -5.529702801835e+01 
-8.252905686848e+01 2.761204524992e+00 0.0 
2.761204524992e+00 -1.872108044648e+02 0.0 
0.0 0.0 -8.052195839998e+01 
-1.287067532577e+02 2.586354086680e+00 0.0 
2.586354086680e+00 -2.971514862562e+02 0.0 
0.0 0.0 -1.273574718542e+02 
-2.378698520344e+01 3.045482003360e+00 0.0 
3.045482003360e+00 -6.256545203364e+01 0.0 
0.0 0.0 -2.550573117112e+01 
-1.241427669873e+02 3.334577698545e+00 0.0 
3.334577698545e+00 -2.957563854267e+02 0.0 
0.0 0.0 -1.255697457242e+02 
-8.647050792919e+01 9.809441595863e-01 0.0 
9.809441595863e-01 -1.995416005334e+02 0.0 
0.0 0.0 -8.540363253879e+01 
-6.200639877890e+01 3.066317214946e+00 0.0 
3.066317214946e+00 -1.453175646367e+02 0.0 
0.0 0.0 -6.179718902468e+01 
-1.194806514957e+02 3.041608212639e+00 0.0 
3.041608212639e+00 -2.855711797964e+02 0.0 
0.0 0.0 -1.211155493876e+02 
-1.194275668085e+01 5.005829543819e-01 0.0 
5.005829543819e-01 -2.872990309874e+01 0.0 
0.0 0.0 -1.180179793388e+01 
-1.207378224504e+02 4.092978949856e-01 0.0 
4.092978949856e-01 -2.788480806521e+02 0.0 
0.0 0.0 -1.194757709308e+02 
-1.028145368883e+01 -4.184427097365e-01 0.0 
-4.184427097365e-01 -2.390535746819e+01 0.0 
0.0 0.0 -9.856043347108e+00 
-1.729560101778e+01 -2.029161102609e-01 0.0 
-2.029161102609e-01 -4.290356104276e+01 0.0 
0.0 0.0 -1.765974861816e+01 
-2.675996719223e+01 9.437009090609e-01 0.0 
9.437009090609e-01 -5.893404830971e+01 0.0 
0.0 0.0 -2.530820465058e+01 
-4.297480321925e+01 -8.005059800328e-01 0.0 
-8.005059800328e-01 -1.068648000776e+02 0.0 
0.0 0.0 -4.455188098907e+01 
-1.255440032188e+02 2.020963745971e+00 0.0 
2.020963745971e+00 -2.899527482599e+02 0.0 
0.0 0.0 -1.242490254436e+02 
-4.052448005050e+01 5.084212262780e-01 0.0 
5.084212262780e-01 -1.002299297230e+02 0.0 
0.0 0.0 -4.182632293206e+01 
-3.474087806097e+01 2.941701272511e+00 0.0 
2.941701272511e+00 -7.865210374374e+01 0.0 
0.0 0.0 -3.361789454141e+01 
-3.123458032887e+01 7.373615153800e-01 0.0 
7.373615153800e-01 -7.842476851842e+01 0.0 
0.0 0.0 -3.249780465419e+01 
-2.752303419897e+01 -1.039177411825e+00 0.0 
-1.039177411825e+00 -6.824385214974e+01 0.0 
0.0 0.0 -2.833006590461e+01 
-1.329974291642e+02 2.166265023785e+00 0.0 
2.166265023785e+00 -3.152849863088e+02 0.0 
0.0 0.0 -1.340847246419e+02 
-8.811605054020e+01 1.839891054939e+00 0.0 
1.839891054939e+00 -2.002950384381e+02 0.0 
0.0 0.0 -8.612332669350e+01 
-1.533962037718e+02 -2.419622783760e-01 0.0 
-2.419622783760e-01 -3.616461017141e+02 0.0 
0.0 0.0 -1.541126916458e+02 
-5.052937748413e+00 3.398957518329e-01 0.0 
3.398957518329e-01 -8.595064944693e+00 0.0 
0.0 0.0 -4.636100332785e+00 
-4.260638678558e+01 3.001763058308e+00 0.0 
3.001763058308e+00 -9.743387025131e+01 0.0 
0.0 0.0 -4.161207711107e+01 
-7.019161752185e+01 2.891005616484e+00 0.0 
2.891005616484e+00 -1.646166715337e+02 0.0 
0.0 0.0 -7.004248671667e+01 
-6.259342588741e+01 2.047873864479e-01 0.0 
2.047873864479e-01 -1.410407858581e+02 0.0 
0.0 0.0 -6.069026352366e+01 
-1.238546450982e+02 1.648847649214e+00 0.0 
1.648847649214e+00 -2.954678914836e+02 0.0 
0.0 0.0 -1.253967609745e+02 
-1.560537796446e+02 3.677337456285e-01 0.0 
3.677337456285e-01 -3.679307516547e+02 0.0 
0.0 0.0 -1.567953593898e+02 
-1.206164337548e+02 2.383481924587e+00 0.0 
2.383481924587e+00 -2.776270539240e+02 0.0 
0.0 0.0 -1.190730463037e+02 
-4.905403258803e+01 4.949703321206e+00 0.0 
4.949703321206e+00 -1.177028408062e+02 0.0 
0.0 0.0 -4.962706201826e+01 
-1.331359645858e+02 3.681392329042e+00 0.0 
3.681392329042e+00 -3.153592495766e+02 0.0 
0.0 0.0 -1.341485642487e+02 
-1.133328681542e+02 -8.923478452367e-01 0.0 
-8.923478452367e-01 -2.720657750257e+02 0.0 
0.0 0.0 -1.152195929539e+02 
-8.689989372244e+01 2.589544604511e+00 0.0 
2.589544604511e+00 -1.973750461234e+02 0.0 
0.0 0.0 -8.488248195374e+01 
-1.162880066129e+02 4.121030914942e-01 0.0 
4.121030914942e-01 -2.680004248184e+02 0.0 
0.0 0.0 -1.148865294294e+02 
-1.476006487519e+02 4.275917819131e+00 0.0 
4.275917819131e+00 -3.447822594873e+02 0.0 
0.0 0.0 -1.473148724718e+02 
-7.000619709263e+01 4.659616006405e+00 0.0 
4.659616006405e+00 -1.649102163252e+02 0.0 
0.0 0.0 -7.007492402535e+01 
-3.931912343550e+01 4.518201871607e+00 0.0 
4.518201871607e+00 -8.825127236002e+01 0.0 
0.0 0.0 -3.787111873866e+01 
-1.002870575102e+02 1.988913885370e+00 0.0 
1.988913885370e+00 -2.291903029774e+02 0.0 
0.0 0.0 -9.844320814626e+01 
-1.562285745779e+02 6.716382158984e-01 0.0 
6.716382158984e-01 -3.653623465138e+02 0.0 
0.0 0.0 -1.560772763275e+02 
-8.601959033183e+01 3.122963209693e+00 0.0 
3.122963209693e+00 -1.958119176522e+02 0.0 
0.0 0.0 -8.414945239521e+01 
-8.966647888210e+01 4.257505295741e+00 0.0 
4.257505295741e+00 -2.121829208465e+02 0.0 
0.0 0.0 -9.015481991858e+01 
-9.462409903232e+01 2.766153666353e-01 0.0 
2.766153666353e-01 -2.192047375686e+02 0.0 
0.0 0.0 -9.374865098028e+01 
-2.353654273015e+01 7.259222515465e-02 0.0 
7.259222515465e-02 -5.734579994264e+01 0.0 
0.0 0.0 -2.386470280184e+01 
-9.175695161836e+01 1.434589451746e-01 0.0 
1.434589451746e-01 -2.099814238935e+02 0.0 
0.0 0.0 -9.012151265357e+01 
-4.942602282067e+01 3.418689717011e+00 0.0 
3.418689717011e+00 -1.175298109879e+02 0.0 
0.0 0.0 -4.968675014257e+01 
-3.197862133171e+01 3.217763125811e+00 0.0 
3.217763125811e+00 -8.154490369660e+01 0.0 
0.0 0.0 -3.365705750849e+01 
-2.426114281674e+01 9.475679261543e-01 0.0 
9.475679261543e-01 -6.208175965698e+01 0.0 
0.0 0.0 -2.550287074212e+01 
-1.250533564974e+02 4.206204630135e-01 0.0 
4.206204630135e-01 -2.894491644903e+02 0.0 
0.0 0.0 -1.239507562963e+02 
-9.605944980820e+01 2.008890920772e+00 0.0 
2.008890920772e+00 -2.190694818925e+02 0.0 
0.0 0.0 -9.413867951021e+01 
-6.008611017085e+01 2.240275900680e+00 0.0 
2.240275900680e+00 -1.366100752569e+02 0.0 
0.0 0.0 -5.860885562832e+01 
-1.298281532255e+02 2.009848147157e+00 0.0 
2.009848147157e+00 -3.004940113768e+02 0.0 
0.0 0.0 -1.286966493807e+02 
-1.242936370521e+02 2.626365319663e+00 0.0 
2.626365319663e+00 -2.862938415761e+02 0.0 
0.0 0.0 -1.227762435885e+02 
-9.118221118378e+01 2.452214462267e+00 0.0 
2.452214462267e+00 -2.074168793340e+02 0.0 
0.0 0.0 -8.917972715533e+01 
-1.567221130362e+02 1.197856595508e+00 0.0 
1.197856595508e+00 -3.676229522818e+02 0.0 
0.0 0.0 -1.569035195954e+02 
-9.336224776601e+01 2.610025562246e+00 0.0 
2.610025562246e+00 -2.214029888791e+02 0.0 
0.0 0.0 -9.402957099352e+01 
-9.545569244894e+01 2.360003553324e+00 0.0 
2.360003553324e+00 -2.174572634682e+02 0.0 
0.0 0.0 -9.347388677515e+01 
-7.609687805739e+01 4.099188022273e+00 0.0 
4.099188022273e+00 -1.751212056181e+02 0.0 
0.0 0.0 -7.496542510265e+01 
-9.783576676224e+01 4.209873067328e+00 0.0 
4.209873067328e+00 -2.311272217737e+02 0.0 
0.0 0.0 -9.828889656077e+01 
-3.995431160702e+01 3.121507606845e+00 0.0 
3.121507606845e+00 -9.976271299173e+01 0.0 
0.0 0.0 -4.151510737963e+01 
-8.817890937564e+01 1.953037396634e-01 0.0 
1.953037396634e-01 -2.024788567405e+02 0.0 
0.0 0.0 -8.679732983484e+01 
-7.343286341893e+01 4.484650592264e+00 0.0 
4.484650592264e+00 -1.744511534893e+02 0.0 
0.0 0.0 -7.396520507247e+01 
-5.108108641411e+01 2.761631455742e+00 0.0 
2.761631455742e+00 -1.276339741441e+02 0.0 
0.0 0.0 -5.321451816746e+01 
-1.200084206678e+02 6.679136621243e-01 0.0 
6.679136621243e-01 -2.769048166262e+02 0.0 
0.0 0.0 -1.186739711882e+02 
-7.370665015482e+00 1.226127983547e-01 0.0 
1.226127983547e-01 -6.977376929642e+00 0.0 
0.0 0.0 -3.904412583537e+00 
-9.660917785081e+01 1.800418256475e+00 0.0 
1.800418256475e+00 -2.207144399522e+02 0.0 
0.0 0.0 -9.479708534092e+01 
-5.280897315092e+01 3.239762338896e+00 0.0 
3.239762338896e+00 -1.273731344463e+02 0.0 
0.0 0.0 -5.365463227917e+01 
-4.248574016509e+01 4.988659029692e+00 0.0 
4.988659029692e+00 -9.777783146442e+01 0.0 
0.0 0.0 -4.167907148885e+01 
-3.993249077662e+01 4.214240279797e+00 0.0 
4.214240279797e+00 -1.000192141199e+02 0.0 
0.0 0.0 -4.158551146895e+01 
-1.034330211107e+02 5.847518162709e-01 0.0 
5.847518162709e-01 -2.371717979235e+02 0.0 
0.0 0.0 -1.017814457103e+02 
-1.735291917051e+01 -8.038871654278e-03 0.0 
-8.038871654278e-03 -4.129897782362e+01 0.0 
0.0 0.0 -1.719556909824e+01 
-6.179106345789e+01 7.526727530578e-01 0.0 
7.526727530578e-01 -1.390786523769e+02 0.0 
0.0 0.0 -5.986091475045e+01 
-1.015633725319e+02 2.560718032444e+00 0.0 
2.560718032444e+00 -2.404213509477e+02 0.0 
0.0 0.0 -1.021954170439e+02 
-9.547120427599e+01 3.867965739104e-01 0.0 
3.867965739104e-01 -2.184184480473e+02 0.0 
0.0 0.0 -9.376689569698e+01 
-9.546017305633e+01 6.451888989480e-01 0.0 
6.451888989480e-01 -2.194184646930e+02 0.0 
0.0 0.0 -9.406359132479e+01 
-1.939839789362e+01 2.039913486030e+00 0.0 
2.039913486030e+00 -5.405565175368e+01 0.0 
0.0 0.0 -2.163621489419e+01 
-5.061997766752e+01 1.654271113338e+00 0.0 
1.654271113338e+00 -1.271942156092e+02 0.0 
0.0 0.0 -5.294425798303e+01 
-4.683056893744e+01 2.220549601291e+00 0.0 
2.220549601291e+00 -1.177158036532e+02 0.0 
0.0 0.0 -4.896391177720e+01 
-5.429285631394e+01 2.367328516718e+00 0.0 
2.367328516718e+00 -1.210841737045e+02 0.0 
0.0 0.0 -5.221310900552e+01 
-1.168312296328e+02 2.188364931772e+00 0.0 
2.188364931772e+00 -2.687066580558e+02 0.0 
0.0 0.0 -1.152613663066e+02 
-6.230146406746e+01 2.597569904093e+00 0.0 
2.597569904093e+00 -1.396904599055e+02 0.0 
0.0 0.0 -6.019757719188e+01 
-6.896197564662e+01 2.936560037429e+00 0.0 
2.936560037429e+00 -1.647771104457e+02 0.0 
0.0 0.0 -6.972172582769e+01 
-6.552291399872e+01 3.059142364436e+00 0.0 
3.059142364436e+00 -1.552097903383e+02 0.0 
0.0 0.0 -6.581981130110e+01 
-2.415435754250e+01 3.883864101985e+00 0.0 
3.883864101985e+00 -6.313173907548e+01 0.0 
0.0 0.0 -2.578582898539e+01 
-7.941858211722e+01 2.507676727289e+00 0.0 
2.507676727289e+00 -1.838342937532e+02 0.0 
0.0 0.0 -7.857586276113e+01 
-2.687555234911e+01 5.160949466412e+00 0.0 
5.160949466412e+00 -5.994700457254e+01 0.0 
0.0 0.0 -2.564676707650e+01 
-1.569467415284e+02 1.919417748919e+00 0.0 
1.919417748919e+00 -3.660517955610e+02 0.0 
0.0 0.0 -1.564995611268e+02 
-1.563733359656e+02 2.406502909151e+00 0.0 
2.406502909151e+00 -3.655815005572e+02 0.0 
0.0 0.0 -1.561864509569e+02 
-8.926483054508e+01 1.648740939913e+00 0.0 
1.648740939913e+00 -2.042732043041e+02 0.0 
0.0 0.0 -8.766141045476e+01 
-4.474293238958e+01 3.403895528096e+00 0.0 
3.403895528096e+00 -1.087567643336e+02 0.0 
0.0 0.0 -4.564990901694e+01 
-3.778124814054e+01 5.319005927095e+00 0.0 
5.319005927095e+00 -8.886678552408e+01 0.0 
0.0 0.0 -3.759441009938e+01 
-9.858061148519e+01 9.545277825560e-01 0.0 
9.545277825560e-01 -2.255361271693e+02 0.0 
0.0 0.0 -9.683502159635e+01 
-4.105316889792e+01 5.142973112220e+00 0.0 
5.142973112220e+00 -9.905530013664e+01 0.0 
0.0 0.0 -4.163254071037e+01 
-4.621752897051e+01 1.065825322343e+00 0.0 
1.065825322343e+00 -1.171993568511e+02 0.0 
0.0 0.0 -4.862506574649e+01 
-8.641350390190e+01 8.985763389301e-01 0.0 
8.985763389301e-01 -1.967387426035e+02 0.0 
0.0 0.0 -8.454567395162e+01 
-1.491371778837e+02 8.411472764828e-01 0.0 
8.411472764828e-01 -3.486674709529e+02 0.0 
0.0 0.0 -1.489413946510e+02 
-5.744133069546e+01 3.218432038503e+00 0.0 
3.218432038503e+00 -1.363046714974e+02 0.0 
0.0 0.0 -5.772380065787e+01 
-1.104861561494e+02 2.564421162493e+00 0.0 
2.564421162493e+00 -2.593443972745e+02 0.0 
0.0 0.0 -1.105491660272e+02 
-3.026989931274e+01 3.503875805651e+00 0.0 
3.503875805651e+00 -6.994085018049e+01 0.0 
0.0 0.0 -2.966322484797e+01 
-1.613809876667e+02 3.517258485201e+00 0.0 
3.517258485201e+00 -3.786589944063e+02 0.0 
0.0 0.0 -1.616119946219e+02 
-4.146328522709e+01 3.602995021031e+00 0.0 
3.602995021031e+00 -9.887256891487e+01 0.0 
0.0 0.0 -4.170075624259e+01 
-9.001004455144e+01 1.181100219304e+00 0.0 
1.181100219304e+00 -2.054062366543e+02 0.0 
0.0 0.0 -8.822488436173e+01 
-2.729603356893e+01 2.310239865018e+00 0.0 
2.310239865018e+00 -7.237607565247e+01 0.0 
0.0 0.0 -2.950163276642e+01 
-1.076759122974e+02 1.994137367394e+00 0.0 
1.994137367394e+00 -2.577329151611e+02 0.0 
0.0 0.0 -1.092226482375e+02 
-7.363995487344e+01 2.909122695645e+00 0.0 
2.909122695645e+00 -1.741792023420e+02 0.0 
0.0 0.0 -7.394574716464e+01 
-4.995563695908e+01 7.806343629476e-01 0.0 
7.806343629476e-01 -1.260566355117e+02 0.0 
0.0 0.0 -5.240368174124e+01 
-9.181841247256e+01 2.091702244263e+00 0.0 
2.091702244263e+00 -2.089275608811e+02 0.0 
0.0 0.0 -8.982379200611e+01 
-1.577117315050e+02 3.017250833975e+00 0.0 
3.017250833975e+00 -3.682727443027e+02 0.0 
0.0 0.0 -1.573953427423e+02 
-6.087477170971e+01 3.085666665117e+00 0.0 
3.085666665117e+00 -1.460419798223e+02 0.0 
0.0 0.0 -6.167502545960e+01 
-1.015411497714e+02 4.098238462960e+00 0.0 
4.098238462960e+00 -2.407217637975e+02 0.0 
0.0 0.0 -1.022788740707e+02 
-2.994953263486e+01 5.488772539943e+00 0.0 
5.488772539943e+00 -7.019286097583e+01 0.0 
0.0 0.0 -2.964271808321e+01 
-1.099009378712e+02 -2.868034495327e-01 0.0 
-2.868034495327e-01 -2.539747208177e+02 0.0 
0.0 0.0 -1.087626976067e+02 
-1.191723876900e+02 1.464507769118e+00 0.0 
1.464507769118e+00 -2.851550293761e+02 0.0 
0.0 0.0 -1.208982251198e+02 
-4.392340542411e+01 4.028633788826e+00 0.0 
4.028633788826e+00 -9.805840991261e+01 0.0 
0.0 0.0 -4.219454460102e+01 
-1.064294632354e+02 1.226931463185e+00 0.0 
1.226931463185e+00 -2.456385537309e+02 0.0 
0.0 0.0 -1.052204050899e+02 
-1.582151394644e+02 3.493451442887e+00 0.0 
3.493451442887e+00 -3.695904624751e+02 0.0 
0.0 0.0 -1.579416805819e+02 
-1.278725147959e+02 1.642224608770e+00 0.0 
1.642224608770e+00 -3.046949516715e+02 0.0 
0.0 0.0 -1.293702399402e+02 
-1.574442149761e+02 2.788057948992e+00 0.0 
2.788057948992e+00 -3.674904237958e+02 0.0 
0.0 0.0 -1.570803916316e+02 
-1.060487691365e+02 1.445779987000e+00 0.0 
1.445779987000e+00 -2.438079389766e+02 0.0 
0.0 0.0 -1.045570124339e+02 
-1.233286653087e+02 2.831531739224e+00 0.0 
2.831531739224e+00 -2.841021266811e+02 0.0 
0.0 0.0 -1.218292375969e+02 
-3.586758740933e+01 3.895248322299e+00 0.0 
3.895248322299e+00 -7.871027846839e+01 0.0 
0.0 0.0 -3.397335976331e+01 
-8.396091702479e+01 1.878219806485e+00 0.0 
1.878219806485e+00 -1.904264433619e+02 0.0 
0.0 0.0 -8.191620811601e+01 
-9.496341427611e+01 6.881641108639e-01 0.0 
6.881641108639e-01 -2.169069148852e+02 0.0 
0.0 0.0 -9.316109874840e+01 
-9.971085778083e+01 2.284439006088e+00 0.0 
2.284439006088e+00 -2.275750070382e+02 0.0 
0.0 0.0 -9.778575944570e+01 
-8.167434846558e+01 3.330167031040e+00 0.0 
3.330167031040e+00 -1.859165601199e+02 0.0 
0.0 0.0 -7.987727257565e+01 
-1.586983251821e+02 3.920025874870e+00 0.0 
3.920025874870e+00 -3.710008724947e+02 0.0 
0.0 0.0 -1.585097593030e+02 
-1.015889751695e+02 1.369722768156e-01 0.0 
1.369722768156e-01 -2.329777234141e+02 0.0 
0.0 0.0 -9.997000957508e+01 
-8.879135182298e+01 1.506248697691e+00 0.0 
1.506248697691e+00 -2.023838334790e+02 0.0 
0.0 0.0 -8.695255559061e+01 
-6.527043879428e+01 4.631644972739e+00 0.0 
4.631644972739e+00 -1.554439142173e+02 0.0 
0.0 0.0 -6.581430590348e+01 
-3.525447642289e+01 -9.657486241014e-01 0.0 
-9.657486241014e-01 -8.774450830446e+01 0.0 
0.0 0.0 -3.649969541820e+01 
-8.028450911753e+01 1.617788715686e+00 0.0 
1.617788715686e+00 -1.819529176137e+02 0.0 
0.0 0.0 -7.827122801936e+01 
-4.706458253662e+01 2.512831182300e+00 0.0 
2.512831182300e+00 -1.067656119516e+02 0.0 
0.0 0.0 -4.574905834648e+01 
-8.724917964038e+01 1.932691679909e-01 0.0 
1.932691679909e-01 -2.017493289495e+02 0.0 
0.0 0.0 -8.629955257696e+01 
-5.060326161601e+01 1.883142253723e+00 0.0 
1.883142253723e+00 -1.265656058567e+02 0.0 
0.0 0.0 -5.275066024182e+01 
-5.713047104763e+01 4.788661433125e+00 0.0 
4.788661433125e+00 -1.364935246252e+02 0.0 
0.0 0.0 -5.768719870185e+01 
-1.244228918492e+02 5.958552852160e-01 0.0 
5.958552852160e-01 -2.876277936453e+02 0.0 
0.0 0.0 -1.232152056484e+02 
-4.717234813617e+01 4.580696424554e+00 0.0 
4.580696424554e+00 -1.071968071892e+02 0.0 
0.0 0.0 -4.591074659762e+01 
-8.707278129225e+01 4.880144791358e-01 0.0 
4.880144791358e-01 -1.983204643931e+02 0.0 
0.0 0.0 -8.521797370561e+01 
-1.051418977931e+02 2.459765411007e+00 0.0 
2.459765411007e+00 -2.496436978961e+02 0.0 
0.0 0.0 -1.060356787068e+02 
-9.307851404841e+01 7.453508687205e-01 0.0 
7.453508687205e-01 -2.262807658568e+02 0.0 
0.0 0.0 -9.540778397156e+01 
-1.599406596289e+02 4.165179582192e+00 0.0 
4.165179582192e+00 -3.738050793482e+02 0.0 
0.0 0.0 -1.597237216931e+02 
-7.197748802769e+01 1.714065393086e+00 0.0 
1.714065393086e+00 -1.624722865864e+02 0.0 
0.0 0.0 -6.993493238422e+01 
-4.694558157405e+01 2.091710239748e+00 0.0 
2.091710239748e+00 -1.181579222504e+02 0.0 
0.0 0.0 -4.913105114733e+01 
-6.482865907114e+01 1.262941253438e+00 0.0 
1.262941253438e+00 -1.597530853907e+02 0.0 
0.0 0.0 -6.697452333857e+01 
-4.444634696932e+01 2.835615818620e+00 0.0 
2.835615818620e+00 -9.840846065856e+01 0.0 
0.0 0.0 -4.245644228836e+01 
-4.354861347786e+01 1.863492887124e+00 0.0 
1.863492887124e+00 -9.755795764380e+01 0.0 
0.0 0.0 -4.193197133650e+01 
-1.323263908961e+02 2.778222929198e+00 0.0 
2.778222929198e+00 -3.058884499830e+02 0.0 
0.0 0.0 -1.310644522637e+02 
-9.473984905054e+01 2.780006657315e+00 0.0 
2.780006657315e+00 -2.159757065551e+02 0.0 
0.0 0.0 -9.281466668170e+01 
-6.304947846425e+01 2.034067964034e+00 0.0 
2.034067964034e+00 -1.414527972699e+02 0.0 
0.0 0.0 -6.095068272025e+01 
-7.923901805987e+01 2.694736265267e-01 0.0 
2.694736265267e-01 -1.799223627548e+02 0.0 
0.0 0.0 -7.734841424441e+01 
-1.603151106514e+02 3.923496533665e+00 0.0 
3.923496533665e+00 -3.760729247825e+02 0.0 
0.0 0.0 -1.605164106302e+02 
-1.517146708746e+02 4.361403739036e+00 0.0 
4.361403739036e+00 -3.561467004395e+02 0.0 
0.0 0.0 -1.519584113942e+02 
-1.317587880827e+02 1.064193542078e+00 0.0 
1.064193542078e+00 -3.051151900828e+02 0.0 
0.0 0.0 -1.306621934497e+02 
-1.212932098847e+02 2.091460936887e+00 0.0 
2.091460936887e+00 -2.795021710968e+02 0.0 
0.0 0.0 -1.198386142945e+02 
-8.967787089733e+01 2.279400867035e+00 0.0 
2.279400867035e+00 -2.179520910116e+02 0.0 
0.0 0.0 -9.188898857268e+01 
-6.579588999859e+01 3.063897974714e+00 0.0 
3.063897974714e+00 -1.481308589448e+02 0.0 
0.0 0.0 -6.377802468302e+01 
-4.444710825382e+01 4.737157580215e+00 0.0 
4.737157580215e+00 -1.089338451815e+02 0.0 
0.0 0.0 -4.561428603061e+01 
-5.252737657606e+01 4.621425251085e+00 0.0 
4.621425251085e+00 -1.275565756823e+02 0.0 
0.0 0.0 -5.362518567750e+01 
-9.042133156665e+01 2.918059106137e+00 0.0 
2.918059106137e+00 -2.059474162841e+02 0.0 
0.0 0.0 -8.851062435523e+01 
-1.041564299901e+02 3.608753260389e+00 0.0 
3.608753260389e+00 -2.491583366637e+02 0.0 
0.0 0.0 -1.055944299962e+02 
-7.917537097616e+01 1.135313531838e+00 0.0 
1.135313531838e+00 -1.930265824053e+02 0.0 
0.0 0.0 -8.126058601443e+01 
-1.324361691873e+02 7.958707435547e-01 0.0 
7.958707435547e-01 -3.071414215804e+02 0.0 
0.0 0.0 -1.314732772303e+02 
-4.732326394393e+01 3.150073162020e+00 0.0 
3.150073162020e+00 -1.185536720222e+02 0.0 
0.0 0.0 -4.936308078984e+01 
-7.727260586570e+01 3.573054461255e+00 0.0 
3.573054461255e+00 -1.760458376187e+02 0.0 
0.0 0.0 -7.559553304533e+01 
-9.067221844007e+01 7.757193745441e-01 0.0 
7.757193745441e-01 -2.067400242694e+02 0.0 
0.0 0.0 -8.882367281283e+01 
-6.933270978738e+01 3.533061815543e+00 0.0 
3.533061815543e+00 -1.570511516773e+02 0.0 
0.0 0.0 -6.751515843940e+01 
-1.573998803647e+02 2.597032109815e+00 0.0 
2.597032109815e+00 -3.667981374005e+02 0.0 
0.0 0.0 -1.568594053295e+02 
-1.562814273359e+02 1.879691571383e+00 0.0 
1.879691571383e+00 -3.654042936284e+02 0.0 
0.0 0.0 -1.561057162893e+02 
-1.485555738544e+02 2.936612052759e+00 0.0 
2.936612052759e+00 -3.452884222510e+02 0.0 
0.0 0.0 -1.477531988316e+02 
-9.794231808904e+01 2.443480873716e+00 0.0 
2.443480873716e+00 -2.369014283116e+02 0.0 
0.0 0.0 -1.000531239202e+02 
-1.293749633074e+02 4.035030861964e-01 0.0 
4.035030861964e-01 -3.000073964971e+02 0.0 
0.0 0.0 -1.284147079414e+02 
-3.910580019720e+01 2.389130905332e+00 0.0 
2.389130905332e+00 -8.780684860357e+01 0.0 
0.0 0.0 -3.767379464023e+01 
-6.062944217724e+01 4.500730854071e+00 0.0 
4.500730854071e+00 -1.462491349385e+02 0.0 
0.0 0.0 -6.166357313472e+01 
-3.208541327250e+01 4.061094790128e+00 0.0 
4.061094790128e+00 -8.179570241631e+01 0.0 
0.0 0.0 -3.376433470664e+01 
-6.669514670276e+01 2.390327984333e+00 0.0 
2.390327984333e+00 -1.498501342510e+02 0.0 
0.0 0.0 -6.456358428613e+01 
-8.859938106261e+01 3.845227845873e-01 0.0 
3.845227845873e-01 -2.027253863349e+02 0.0 
0.0 0.0 -8.699743021924e+01 
-1.055240712738e+02 -3.117937562723e-01 0.0 
-3.117937562723e-01 -2.433467992594e+02 0.0 
0.0 0.0 -1.042612611600e+02 
-1.534972033125e+02 3.428741358825e+00 0.0 
3.428741358825e+00 -3.615019325825e+02 0.0 
0.0 0.0 -1.540997407685e+02 
-1.307465215220e+02 1.276328272750e+00 0.0 
1.276328272750e+00 -3.027635831375e+02 0.0 
0.0 0.0 -1.296530313978e+02 
-9.980090497798e+01 3.622805936780e-01 0.0 
3.622805936780e-01 -2.286287875123e+02 0.0 
0.0 0.0 -9.812890774709e+01 
-1.028336074601e+02 8.811144878918e-01 0.0 
8.811144878918e-01 -2.356491392111e+02 0.0 
0.0 0.0 -1.011448240014e+02 
-3.531746541380e+01 2.536856364629e+00 0.0 
2.536856364629e+00 -9.067507723240e+01 0.0 
0.0 0.0 -3.739776279386e+01 
-1.747345266630e+01 -5.347574240373e-01 0.0 
-5.347574240373e-01 -4.187881321002e+01 0.0 
0.0 0.0 -1.740567976290e+01 
-7.480325076233e+01 2.712846170459e+00 0.0 
2.712846170459e+00 -1.741233510637e+02 0.0 
0.0 0.0 -7.427798054782e+01 
-8.514510380169e+01 3.629764505517e+00 0.0 
3.629764505517e+00 -1.948713979053e+02 0.0 
0.0 0.0 -8.360495051209e+01 
-7.938468661642e+01 4.324981642088e+00 0.0 
4.324981642088e+00 -1.841915005700e+02 0.0 
0.0 0.0 -7.867285615592e+01 
-1.413535497550e+01 3.038660512588e+00 0.0 
3.038660512588e+00 -3.222645058162e+01 0.0 
0.0 0.0 -1.350854166714e+01 
-9.422607461691e+01 -2.626468671829e-01 0.0 
-2.626468671829e-01 -2.184058468379e+02 0.0 
0.0 0.0 -9.338957643644e+01 
-3.262889668080e+01 4.029288136153e-01 0.0 
4.029288136153e-01 -8.061616760171e+01 0.0 
0.0 0.0 -3.357351928475e+01 
-4.603830896803e+01 3.334673875741e+00 0.0 
3.334673875741e+00 -1.074715830272e+02 0.0 
0.0 0.0 -4.565296759857e+01 
-1.616841857178e+02 3.471030896059e+00 0.0 
3.471030896059e+00 -3.785964333416e+02 0.0 
0.0 0.0 -1.616841857178e+02 
-1.144537851761e+02 4.174446587251e+00 0.0 
4.174446587251e+00 -2.696572111621e+02 0.0 
0.0 0.0 -1.148332989014e+02 
-8.807820036587e+01 -6.047650490601e-02 0.0 
-6.047650490601e-02 -2.018063657697e+02 0.0 
0.0 0.0 -8.656536984068e+01 
-2.379371312796e+01 -6.125572962829e-01 0.0 
-6.125572962829e-01 -5.872774922794e+01 0.0 
0.0 0.0 -2.435643870677e+01 
-8.134861890160e+01 1.518787041685e+00 0.0 
1.518787041685e+00 -1.854224394707e+02 0.0 
0.0 0.0 -7.963131751168e+01 
-7.469220602604e+01 4.527778232322e+00 0.0 
4.527778232322e+00 -1.744418420533e+02 0.0 
0.0 0.0 -7.434021442381e+01 
-1.039318272590e+02 2.242410294566e+00 0.0 
2.242410294566e+00 -2.376851729507e+02 0.0 
0.0 0.0 -1.020851000629e+02 
-1.577929134708e+02 2.985745402148e+00 0.0 
2.985745402148e+00 -3.686391146789e+02 0.0 
0.0 0.0 -1.575296084449e+02 
-8.347326003949e+01 2.175565262558e-01 0.0 
2.175565262558e-01 -1.899506908666e+02 0.0 
0.0 0.0 -8.162718527182e+01 
-9.902838473220e+01 2.661187562234e+00 0.0 
2.661187562234e+00 -2.260403507700e+02 0.0 
0.0 0.0 -9.712062065066e+01 
-7.872385081508e+01 -3.313462241475e-01 0.0 
-3.313462241475e-01 -1.925208325668e+02 0.0 
0.0 0.0 -8.097340501456e+01 
-1.287921488384e+02 6.035287437210e-01 0.0 
6.035287437210e-01 -2.983103049311e+02 0.0 
0.0 0.0 -1.277307361308e+02 
-1.014607363958e+02 8.803793249436e-01 0.0 
8.803793249436e-01 -2.454314997802e+02 0.0 
0.0 0.0 -1.036676708528e+02 
-1.581968045625e+02 3.396714602627e+00 0.0 
3.396714602627e+00 -3.691006977595e+02 0.0 
0.0 0.0 -1.577892506966e+02 
-1.566587094362e+02 2.507956916595e+00 0.0 
2.507956916595e+00 -3.668703220177e+02 0.0 
0.0 0.0 -1.566587094362e+02 
-1.561540237438e+02 1.769908242930e+00 0.0 
1.769908242930e+00 -3.656927220690e+02 0.0 
0.0 0.0 -1.561540237438e+02 
-1.558432271173e+02 2.107724188318e+00 0.0 
2.107724188318e+00 -3.649675299405e+02 0.0 
0.0 0.0 -1.558432271173e+02 
-1.070979800424e+02 8.241169638340e-01 0.0 
8.241169638340e-01 -2.458091488289e+02 0.0 
0.0 0.0 -1.054721386614e+02 
-1.292637372967e+02 2.217445533412e+00 0.0 
2.217445533412e+00 -2.988119520973e+02 0.0 
0.0 0.0 -1.280227068182e+02 
-1.355147708192e+02 1.278167916297e+00 0.0 
1.278167916297e+00 -3.142689686633e+02 0.0 
0.0 0.0 -1.345351218447e+02 
-6.899373270039e+01 1.546544107995e+00 0.0 
1.546544107995e+00 -1.565604231821e+02 0.0 
0.0 0.0 -6.726624676475e+01 
-6.533104502235e+01 1.130022032029e+00 0.0 
1.130022032029e+00 -1.475844107916e+02 0.0 
0.0 0.0 -6.347463674420e+01 
-7.468145635237e+01 9.872031821633e-01 0.0 
9.872031821633e-01 -1.822404175391e+02 0.0 
0.0 0.0 -7.667656216743e+01 
-1.329873510050e+02 2.503737206537e+00 0.0 
2.503737206537e+00 -3.077370634099e+02 0.0 
0.0 0.0 -1.318173243245e+02 
-1.584051211627e+02 3.746960745040e+00 0.0 
3.746960745040e+00 -3.701529482251e+02 0.0 
0.0 0.0 -1.581674208164e+02 
-1.330610976520e+02 5.803105094077e-01 0.0 
5.803105094077e-01 -3.087478585111e+02 0.0 
0.0 0.0 -1.321426868489e+02 
-1.061143960665e+02 4.186640150406e+00 0.0 
4.186640150406e+00 -2.503350064630e+02 0.0 
0.0 0.0 -1.065348207589e+02 
-1.334920844668e+02 2.166675848815e+00 0.0 
2.166675848815e+00 -3.092408325540e+02 0.0 
0.0 0.0 -1.324198751063e+02 
-1.167875245472e+02 3.842842123195e+00 0.0 
3.842842123195e+00 -2.703886312507e+02 0.0 
0.0 0.0 -1.157528467394e+02 
-8.054343946194e+01 2.079446160708e+00 0.0 
2.079446160708e+00 -1.846319344243e+02 0.0 
0.0 0.0 -7.915261216588e+01 
-6.620688726061e+01 6.183217963762e-01 0.0 
6.183217963762e-01 -1.493765602292e+02 0.0 
0.0 0.0 -6.427503424695e+01 
-3.355954350549e+01 3.782591875486e+00 0.0 
3.782591875486e+00 -8.032597512732e+01 0.0 
0.0 0.0 -3.376565558984e+01 
-1.491641472323e+02 7.580875612004e-01 0.0 
7.580875612004e-01 -3.486949596233e+02 0.0 
0.0 0.0 -1.489577320567e+02 
-6.465474782856e+01 1.847456550914e+00 0.0 
1.847456550914e+00 -1.467698766346e+02 0.0 
0.0 0.0 -6.302738733894e+01 
-1.453707952664e+02 3.302199995350e+00 0.0 
3.302199995350e+00 -3.383638288643e+02 0.0 
0.0 0.0 -1.447203872392e+02 
-7.424072002526e+01 -4.943684212431e-01 0.0 
-4.943684212431e-01 -1.817354748139e+02 0.0 
0.0 0.0 -7.639285845175e+01 
-4.644752337504e+01 1.385903667197e+00 0.0 
1.385903667197e+00 -1.162013827247e+02 0.0 
0.0 0.0 -4.839467182993e+01 
-1.544327871461e+02 3.000636894487e+00 0.0 
3.000636894487e+00 -3.625134669614e+02 0.0 
0.0 0.0 -1.546838762323e+02 
-5.050837075312e+01 2.983519845795e+00 0.0 
2.983519845795e+00 -1.163451933552e+02 0.0 
0.0 0.0 -4.965606923249e+01 
-1.569729006975e+02 2.720075471492e+00 0.0 
2.720075471492e+00 -3.676034349607e+02 0.0 
0.0 0.0 -1.569729006975e+02 
-1.494745196049e+02 1.895901469963e+00 0.0 
1.895901469963e+00 -3.492295682349e+02 0.0 
0.0 0.0 -1.492112263519e+02 
-9.788881226724e+01 1.350065841637e+00 0.0 
1.350065841637e+00 -2.241890763684e+02 0.0 
0.0 0.0 -9.622336659068e+01 
-1.100722547814e+01 -3.305400933017e-01 0.0 
-3.305400933017e-01 -2.491424431633e+01 0.0 
0.0 0.0 -1.080348976716e+01 
-1.573140563765e+02 3.083588000178e+00 0.0 
3.083588000178e+00 -3.683994648786e+02 0.0 
0.0 0.0 -1.573140563765e+02 
-1.538829895262e+02 3.573298529238e+00 0.0 
3.573298529238e+00 -3.610241220682e+02 0.0 
0.0 0.0 -1.540721334783e+02 
-4.566500993856e+01 2.336370744356e-01 0.0 
2.336370744356e-01 -1.156210010392e+02 0.0 
0.0 0.0 -4.798580329333e+01 
-1.098324238661e+02 4.079721570585e+00 0.0 
4.079721570585e+00 -2.598471130709e+02 0.0 
0.0 0.0 -1.105038610811e+02 
-1.597034024557e+02 4.158511387703e+00 0.0 
4.158511387703e+00 -3.742527605163e+02 0.0 
0.0 0.0 -1.597868488916e+02 
-5.770182046495e+00 -1.425431659935e-01 0.0 
-1.425431659935e-01 -8.992810193557e+00 0.0 
0.0 0.0 -4.998810814804e+00 
-7.266169682807e+01 2.005993015049e+00 0.0 
2.005993015049e+00 -1.658306692941e+02 0.0 
0.0 0.0 -7.114770983665e+01 
-1.021832932278e+02 1.231186449892e+00 0.0 
1.231186449892e+00 -2.342454622814e+02 0.0 
0.0 0.0 -1.005286266528e+02 
-9.358684788931e+01 1.478446599826e+00 0.0 
1.478446599826e+00 -2.141988663118e+02 0.0 
0.0 0.0 -9.193571426033e+01 
-9.428521308372e+01 1.046038162497e+00 0.0 
1.046038162497e+00 -2.154347854989e+02 0.0 
0.0 0.0 -9.251599957479e+01 
-3.810070919106e+01 3.437789268659e+00 0.0 
3.437789268659e+00 -8.859671528604e+01 0.0 
0.0 0.0 -3.760922734313e+01 
-1.578173196521e+02 3.484246325614e+00 0.0 
3.484246325614e+00 -3.695737458549e+02 0.0 
0.0 0.0 -1.578173196521e+02 
-6.875565886808e+01 4.388404486126e+00 0.0 
4.388404486126e+00 -1.650167326799e+02 0.0 
0.0 0.0 -6.973171746440e+01 
-2.103748231894e+01 2.338227713360e+00 0.0 
2.338227713360e+00 -5.482023470403e+01 0.0 
0.0 0.0 -2.235731510689e+01 
-1.556630718484e+02 1.408366392662e+00 0.0 
1.408366392662e+00 -3.671138467094e+02 0.0 
0.0 0.0 -1.564330755674e+02 
-1.124639753114e+01 -3.301030110426e-01 0.0 
-3.301030110426e-01 -2.500443103535e+01 0.0 
0.0 0.0 -1.047524856995e+01 
-7.498182447946e+01 3.419522007035e-01 0.0 
3.419522007035e-01 -1.698921697506e+02 0.0 
0.0 0.0 -7.306219826903e+01 
-2.294691579086e+01 3.715447937014e-02 0.0 
3.715447937014e-02 -5.873833215117e+01 0.0 
0.0 0.0 -2.410557438261e+01 
-7.983042949750e+01 -3.618916318120e-02 0.0 
-3.618916318120e-02 -1.814603334438e+02 0.0 
0.0 0.0 -7.798722888240e+01 
-1.606430366937e+02 3.906616901627e+00 0.0 
3.906616901627e+00 -3.768285042111e+02 0.0 
0.0 0.0 -1.608414622714e+02 
-1.585996314436e+02 3.741349616988e+00 0.0 
3.741349616988e+00 -3.713991400350e+02 0.0 
0.0 0.0 -1.585996314436e+02 
-9.917190414215e+01 6.213719299141e-01 0.0 
6.213719299141e-01 -2.270156308662e+02 0.0 
0.0 0.0 -9.745626050250e+01 
-1.658731424029e+01 -1.887547306455e-01 0.0 
-1.887547306455e-01 -4.213459731437e+01 0.0 
0.0 0.0 -1.721657346640e+01 
-1.632477971499e+01 7.620949454456e-01 0.0 
7.620949454456e-01 -4.444057866938e+01 0.0 
0.0 0.0 -1.782960751531e+01 
-2.344633816409e+01 -2.037715429420e-01 0.0 
-2.037715429420e-01 -5.827859370943e+01 0.0 
0.0 0.0 -2.411747956206e+01 
-1.350881345159e+02 2.506920389556e+00 0.0 
2.506920389556e+00 -3.211353730968e+02 0.0 
0.0 0.0 -1.364670522838e+02 
-8.833578153241e+01 2.427074608489e-01 0.0 
2.427074608489e-01 -2.024161056763e+02 0.0 
0.0 0.0 -8.682556616262e+01 
-9.283024649519e+01 1.639691333536e+00 0.0 
1.639691333536e+00 -2.120012338683e+02 0.0 
0.0 0.0 -9.104944410906e+01 
-1.593941619657e+02 3.920583426347e+00 0.0 
3.920583426347e+00 -3.732530445867e+02 0.0 
0.0 0.0 -1.593941619657e+02 
-8.804884113494e+01 4.673183942886e-01 0.0 
4.673183942886e-01 -2.025134347286e+02 0.0 
0.0 0.0 -8.676868275905e+01 
-1.565544856029e+02 1.642181240309e+00 0.0 
1.642181240309e+00 -3.659814443370e+02 0.0 
0.0 0.0 -1.563607789820e+02 
-1.200671013238e+02 2.320685821148e+00 0.0 
2.320685821148e+00 -2.789616468484e+02 0.0 
0.0 0.0 -1.193086244517e+02 
-1.015480901893e+02 -3.897588157121e-01 0.0 
-3.897588157121e-01 -2.343122197139e+02 0.0 
0.0 0.0 -1.003580929710e+02 
-4.749707780192e+01 1.543707398916e+00 0.0 
1.543707398916e+00 -1.068715575118e+02 0.0 
0.0 0.0 -4.591059059411e+01 
-1.097913059127e+02 2.528995630891e+00 0.0 
2.528995630891e+00 -2.595197172545e+02 0.0 
0.0 0.0 -1.103933069502e+02 
-2.879186975858e+01 4.807874154846e+00 0.0 
4.807874154846e+00 -7.247319585507e+01 0.0 
0.0 0.0 -2.997951968409e+01 
-1.599651857591e+02 4.000763533060e+00 0.0 
4.000763533060e+00 -3.745854334378e+02 0.0 
0.0 0.0 -1.599651857591e+02 
-1.562636922733e+02 2.213462968089e+00 0.0 
2.213462968089e+00 -3.659486153043e+02 0.0 
0.0 0.0 -1.562636922733e+02 
-1.561712484822e+02 2.005050663510e+00 0.0 
2.005050663510e+00 -3.657329131252e+02 0.0 
0.0 0.0 -1.561712484822e+02 
-1.018217165746e+02 2.307079909041e+00 0.0 
2.307079909041e+00 -2.458876572000e+02 0.0 
0.0 0.0 -1.039128121324e+02 
-7.016727738987e+01 8.749838346229e-01 0.0 
8.749838346229e-01 -1.713433588319e+02 0.0 
0.0 0.0 -7.205319086654e+01 
-8.069408525603e+01 3.850144508244e+00 0.0 
3.850144508244e+00 -1.850844543191e+02 0.0 
0.0 0.0 -7.933356187253e+01 
-1.052640711307e+02 7.429200666756e-01 0.0 
7.429200666756e-01 -2.541816523610e+02 0.0 
0.0 0.0 -1.074337170475e+02 
-1.605308277865e+02 3.862007892565e+00 0.0 
3.862007892565e+00 -3.759052648352e+02 0.0 
0.0 0.0 -1.605308277865e+02 
-4.570580861304e+01 5.121606527934e+00 0.0 
5.121606527934e+00 -1.077120883611e+02 0.0 
0.0 0.0 -4.562536909225e+01 
-5.430030510905e+01 1.288533950615e+00 0.0 
1.288533950615e+00 -1.360478585688e+02 0.0 
0.0 0.0 -5.670444910334e+01 
-5.794228485536e+01 1.007633246941e+00 0.0 
1.007633246941e+00 -1.447267398756e+02 0.0 
0.0 0.0 -6.040070741928e+01 
-1.061313185453e+02 -3.364599921528e-01 0.0 
-3.364599921528e-01 -2.452575918301e+02 0.0 
0.0 0.0 -1.050166731126e+02 
-1.613348930745e+02 3.425026124892e+00 0.0 
3.425026124892e+00 -3.792268732488e+02 0.0 
0.0 0.0 -1.617685298970e+02 
-1.785255607680e+01 -3.588974738986e-01 0.0 
-3.588974738986e-01 -4.167999387512e+01 0.0 
0.0 0.0 -1.745976498558e+01 
-1.611904161654e+02 3.617907398669e+00 0.0 
3.617907398669e+00 -3.774443043859e+02 0.0 
0.0 0.0 -1.611904161654e+02 
-5.358019248449e+01 4.953025918686e-01 0.0 
4.953025918686e-01 -1.344974616499e+02 0.0 
0.0 0.0 -5.602329624033e+01 
-1.573520747082e+02 2.920920334587e+00 0.0 
2.920920334587e+00 -3.684881743192e+02 0.0 
0.0 0.0 -1.573520747082e+02 
-1.360084098016e+02 2.974100314111e+00 0.0 
2.974100314111e+00 -3.148923622128e+02 0.0 
0.0 0.0 -1.348702316043e+02 
-4.866882988043e+00 -1.373421448992e-01 0.0 
-1.373421448992e-01 -7.775587501943e+00 0.0 
0.0 0.0 -3.392741146996e+00 
-7.601700126013e+01 2.309906897463e+00 0.0 
2.309906897463e+00 -1.746991951569e+02 0.0 
0.0 0.0 -7.481485892510e+01 
-1.341591658008e+02 1.998865035557e+00 0.0 
1.998865035557e+00 -3.111097054912e+02 0.0 
0.0 0.0 -1.331806613876e+02 
-1.576558891648e+02 3.321670834250e+00 0.0 
3.321670834250e+00 -3.691970747178e+02 0.0 
0.0 0.0 -1.576558891648e+02 
-1.075787947081e+02 2.486837130993e+00 0.0 
2.486837130993e+00 -2.463266135238e+02 0.0 
0.0 0.0 -1.057716224696e+02 
-1.236104083608e+02 2.438277949356e+00 0.0 
2.438277949356e+00 -2.881058391377e+02 0.0 
0.0 0.0 -1.231148742495e+02 
-2.570630477620e+01 3.906790996463e+00 0.0 
3.906790996463e+00 -6.201025931139e+01 0.0 
0.0 0.0 -2.591496922628e+01 
-1.470789114422e+02 3.231103640169e+00 0.0 
3.231103640169e+00 -3.456039285284e+02 0.0 
0.0 0.0 -1.474048519912e+02 
-5.723712786750e+01 3.063271261192e-01 0.0 
3.063271261192e-01 -1.429764260227e+02 0.0 
0.0 0.0 -5.966406616706e+01 
-5.843355106309e+01 2.117749802855e+00 0.0 
2.117749802855e+00 -1.451476774402e+02 0.0 
0.0 0.0 -6.067436855099e+01 
-1.204433691201e+01 -3.735987490342e-01 0.0 
-3.735987490342e-01 -2.579180294539e+01 0.0 
0.0 0.0 -1.095084195722e+01 
-1.581602383494e+02 3.625986972526e+00 0.0 
3.625986972526e+00 -3.703738894819e+02 0.0 
0.0 0.0 -1.581602383494e+02 
-3.645690909406e+01 4.822726422841e+00 0.0 
4.822726422841e+00 -9.048480018871e+01 0.0 
0.0 0.0 -3.768251278483e+01 
-1.329639032751e+02 3.414649485551e+00 0.0 
3.414649485551e+00 -3.155835478353e+02 0.0 
0.0 0.0 -1.341642353331e+02 
-9.769461955724e+01 1.276123183688e+00 0.0 
1.276123183688e+00 -2.247965092713e+02 0.0 
0.0 0.0 -9.634733864858e+01 
-4.932414754507e+01 8.713612519782e-01 0.0 
8.713612519782e-01 -1.223736432446e+02 0.0 
0.0 0.0 -5.110933723690e+01 
-5.476484340493e+01 2.436066435397e+00 0.0 
2.436066435397e+00 -1.364819353183e+02 0.0 
0.0 0.0 -5.697403361697e+01 
-1.033170681352e+02 2.551263611157e+00 0.0 
2.551263611157e+00 -2.361778055631e+02 0.0 
0.0 0.0 -1.014484621095e+02 
-1.597157649580e+02 4.052669965792e+00 0.0 
4.052669965792e+00 -3.740034515688e+02 0.0 
0.0 0.0 -1.597157649580e+02 
-7.340424613725e+01 -6.100727575581e-01 0.0 
-6.100727575581e-01 -1.794815500330e+02 0.0 
0.0 0.0 -7.546573885109e+01 
-1.148326948643e+02 2.746188899533e+00 0.0 
2.746188899533e+00 -2.753074140215e+02 0.0 
0.0 0.0 -1.166420326658e+02 
-9.280751753584e+01 1.932134243509e+00 0.0 
1.932134243509e+00 -2.132393780671e+02 0.0 
0.0 0.0 -9.141406868087e+01 
-1.031747590354e+02 3.157692471624e+00 0.0 
3.157692471624e+00 -2.480355395700e+02 0.0 
0.0 0.0 -1.049630895816e+02 
-5.900033941425e+01 2.931307937093e+00 0.0 
2.931307937093e+00 -1.461144379094e+02 0.0 
0.0 0.0 -6.113443319710e+01 
-1.063220161099e+02 2.594388214504e+00 0.0 
2.594388214504e+00 -2.560094360555e+02 0.0 
0.0 0.0 -1.082994356496e+02 
-8.955810447697e+01 3.418315000210e+00 0.0 
3.418315000210e+00 -2.047359795693e+02 0.0 
0.0 0.0 -8.788822521387e+01 
-1.176347050902e+02 3.570125849000e+00 0.0 
3.570125849000e+00 -2.713798385097e+02 0.0 
0.0 0.0 -1.163043630800e+02 
-1.180587207338e+02 2.524461260093e+00 0.0 
2.524461260093e+00 -2.786520714050e+02 0.0 
0.0 0.0 -1.186132376417e+02 
-8.842161135520e+01 2.124209631903e+00 0.0 
2.124209631903e+00 -2.034437215744e+02 0.0 
0.0 0.0 -8.715959987887e+01 
-7.500063646329e+01 -2.812152658483e-01 0.0 
-2.812152658483e-01 -1.839470953682e+02 0.0 
0.0 0.0 -7.728431954946e+01 
-5.035052798682e+01 4.860340170669e+00 0.0 
4.860340170669e+00 -1.166648614160e+02 0.0 
0.0 0.0 -4.970461682085e+01 
-6.974311597711e+01 -6.166658463800e-01 0.0 
-6.166658463800e-01 -1.708429855889e+02 0.0 
0.0 0.0 -7.177583046981e+01 
-1.203103006891e+02 3.990793153396e+00 0.0 
3.990793153396e+00 -2.794848868162e+02 0.0 
0.0 0.0 -1.195385562516e+02 
-9.690457536601e+01 2.497164544671e+00 0.0 
2.497164544671e+00 -2.306404476923e+02 0.0 
0.0 0.0 -9.786350691750e+01 
-1.609955937581e+02 3.826588467771e+00 0.0 
3.826588467771e+00 -3.778270394732e+02 0.0 
0.0 0.0 -1.612467899694e+02 
-1.378196421893e+02 2.146832230845e+00 0.0 
2.146832230845e+00 -3.196909257658e+02 0.0 
0.0 0.0 -1.368531703865e+02 
-4.444562129244e+01 -6.529674648356e-01 0.0 
-6.529674648356e-01 -1.110479248415e+02 0.0 
0.0 0.0 -4.624806384019e+01 
-1.607778121661e+02 3.735772856542e+00 0.0 
3.735772856542e+00 -3.764815617209e+02 0.0 
0.0 0.0 -1.607778121661e+02 
-1.537220903113e+02 3.626512740728e+00 0.0 
3.626512740728e+00 -3.611094524341e+02 0.0 
0.0 0.0 -1.540494628236e+02 
-8.290353585444e+01 2.698481852676e+00 0.0 
2.698481852676e+00 -1.932696213377e+02 0.0 
0.0 0.0 -8.245194715764e+01 
-1.131391303751e+01 -2.904906453006e-01 0.0 
-2.904906453006e-01 -2.553080257088e+01 0.0 
0.0 0.0 -1.103119820421e+01 
-1.619763930676e+02 3.098199608457e+00 0.0 
3.098199608457e+00 -3.800739664213e+02 0.0 
0.0 0.0 -1.622151078467e+02 
-1.370634615613e+02 2.310581049456e+00 0.0 
2.310581049456e+00 -3.178638552115e+02 0.0 
0.0 0.0 -1.360781950319e+02 
-4.934114951176e+01 3.560594865288e-02 0.0 
3.560594865288e-02 -1.240951440507e+02 0.0 
0.0 0.0 -5.163088806875e+01 
-1.618892212365e+02 3.332911227775e+00 0.0 
3.332911227775e+00 -3.790748495517e+02 0.0 
0.0 0.0 -1.618892212365e+02 
-1.102572892092e+02 2.458046286712e+00 0.0 
2.458046286712e+00 -2.650923882173e+02 0.0 
0.0 0.0 -1.122049032279e+02 
-6.975142632590e+01 9.934794567623e-01 0.0 
9.934794567623e-01 -1.577332965273e+02 0.0 
0.0 0.0 -6.784541685596e+01 
-9.622882671852e+01 1.778149248369e-01 0.0 
1.778149248369e-01 -2.202285775810e+02 0.0 
0.0 0.0 -9.453722128987e+01 
-9.327735526390e+01 4.145035875671e+00 0.0 
4.145035875671e+00 -2.216440377745e+02 0.0 
0.0 0.0 -9.407641791151e+01 
-9.346555613151e+01 2.159828766873e+00 0.0 
2.159828766873e+00 -2.267380790748e+02 0.0 
0.0 0.0 -9.566109056190e+01 
-1.078325048427e+02 3.415112610267e+00 0.0 
3.415112610267e+00 -2.581304637051e+02 0.0 
0.0 0.0 -1.093888905643e+02 
-1.132057413080e+02 1.924484380484e+00 0.0 
1.924484380484e+00 -2.601334179316e+02 0.0 
0.0 0.0 -1.116017477719e+02 
-7.855991799165e+01 6.745446346002e-01 0.0 
6.745446346002e-01 -1.782336512478e+02 0.0 
0.0 0.0 -7.663807077185e+01 
-1.226768889197e+02 2.558619430385e+00 0.0 
2.558619430385e+00 -2.886017791826e+02 0.0 
0.0 0.0 -1.229836004307e+02 
-1.012531398000e+02 1.729826431452e-01 0.0 
1.729826431452e-01 -2.349094956588e+02 0.0 
0.0 0.0 -1.004487906376e+02 
-7.549102050490e+01 1.148573238809e+00 0.0 
1.148573238809e+00 -1.844624494265e+02 0.0 
0.0 0.0 -7.758604097942e+01 
-1.133974954061e+02 2.456753562124e+00 0.0 
2.456753562124e+00 -2.686990090966e+02 0.0 
0.0 0.0 -1.142289513508e+02 
-5.782950261847e+01 1.482000081132e+00 0.0 
1.482000081132e+00 -1.434422824107e+02 0.0 
0.0 0.0 -5.998153550874e+01 
-1.073140800186e+02 -7.788138515320e-03 0.0 
-7.788138515320e-03 -2.586614521161e+02 0.0 
0.0 0.0 -1.093926596404e+02 
-5.183031869475e+00 -1.116294937423e-01 0.0 
-1.116294937423e-01 -7.882911044208e+00 0.0 
0.0 0.0 -3.519782874105e+00 
-5.505957581318e+01 4.494602805599e+00 0.0 
4.494602805599e+00 -1.262404069303e+02 0.0 
0.0 0.0 -5.398999482303e+01 
-5.421301662748e+01 1.657221421150e+00 0.0 
1.657221421150e+00 -1.350020499969e+02 0.0 
0.0 0.0 -5.636451998733e+01 
-8.245857754520e+01 -3.604031086100e-01 0.0 
-3.604031086100e-01 -2.011302092893e+02 0.0 
0.0 0.0 -8.467663605036e+01 
-8.742745422498e+01 2.515498163362e+00 0.0 
2.515498163362e+00 -2.028630092657e+02 0.0 
0.0 0.0 -8.668713904720e+01 
-1.099095514454e+02 9.970363525568e-01 0.0 
9.970363525568e-01 -2.646366459900e+02 0.0 
0.0 0.0 -1.119638592306e+02 
-1.028094026890e+02 1.109896862328e+00 0.0 
1.109896862328e+00 -2.369372729508e+02 0.0 
0.0 0.0 -1.015240026919e+02 
-5.003688164990e+01 1.267122517478e+00 0.0 
1.267122517478e+00 -1.246640068476e+02 0.0 
0.0 0.0 -5.201026654926e+01 
-1.623000201960e+02 3.067900554959e+00 0.0 
3.067900554959e+00 -3.800333804573e+02 0.0 
0.0 0.0 -1.623000201960e+02 
-1.026079141543e+02 2.939272952226e+00 0.0 
2.939272952226e+00 -2.347607251400e+02 0.0 
0.0 0.0 -1.008105917883e+02 
-8.616680229485e+01 -4.021590164509e-01 0.0 
-4.021590164509e-01 -2.096262529406e+02 0.0 
0.0 0.0 -8.833791657064e+01 
-9.828795208471e+01 3.065872161813e+00 0.0 
3.065872161813e+00 -2.247017560699e+02 0.0 
0.0 0.0 -9.649691244638e+01 
-8.285930233984e+01 1.099061212682e+00 0.0 
1.099061212682e+00 -2.016112044617e+02 0.0 
0.0 0.0 -8.494115204046e+01 
-6.026357342402e+00 -1.435829168721e-01 0.0 
-1.435829168721e-01 -9.054772018046e+00 0.0 
0.0 0.0 -5.098584787384e+00 
-1.008551628908e+02 1.720506969442e+00 0.0 
1.720506969442e+00 -2.308668579199e+02 0.0 
0.0 0.0 -9.911660624321e+01 
-6.855917681622e+01 -8.187757323905e-01 0.0 
-8.187757323905e-01 -1.675229962216e+02 0.0 
0.0 0.0 -7.042465191134e+01 
-4.782162757324e+00 -1.298146700169e-01 0.0 
-1.298146700169e-01 -8.838425737673e+00 0.0 
0.0 0.0 -4.640851337145e+00 
-8.160220174701e+01 -5.716561002937e-01 0.0 
-5.716561002937e-01 -1.987365495444e+02 0.0 
0.0 0.0 -8.370162538744e+01 
-1.184275357427e+02 1.125282843247e+00 0.0 
1.125282843247e+00 -2.838850159736e+02 0.0 
0.0 0.0 -1.202937655149e+02 
-1.328937093570e+02 -4.255883547310e-01 0.0 
-4.255883547310e-01 -3.095982005725e+02 0.0 
0.0 0.0 -1.323475729789e+02 
-9.951245292498e+01 3.357562221403e+00 0.0 
3.357562221403e+00 -2.391859259685e+02 0.0 
0.0 0.0 -1.012095136680e+02 
-1.029750076938e+02 1.769698212771e+00 0.0 
1.769698212771e+00 -2.476091952086e+02 0.0 
0.0 0.0 -1.047752608707e+02 
-8.529619102540e+01 1.212451593300e+00 0.0 
1.212451593300e+00 -1.942292669036e+02 0.0 
0.0 0.0 -8.345763737871e+01 
-8.045148283315e+01 1.906879466097e-01 0.0 
1.906879466097e-01 -1.848110793405e+02 0.0 
0.0 0.0 -7.917876865210e+01 
-1.500414472940e+02 1.499290914793e+00 0.0 
1.499290914793e+00 -3.497439876425e+02 0.0 
0.0 0.0 -1.495356304810e+02 
-9.393048671084e+01 3.237076353958e+00 0.0 
3.237076353958e+00 -2.146727021013e+02 0.0 
0.0 0.0 -9.218095664364e+01 
-3.160096067365e+00 -8.309027001360e-02 0.0 
-8.309027001360e-02 -7.257823427862e+00 0.0 
0.0 0.0 -2.725375848568e+00 
-2.783162597983e+01 3.722245505294e-01 0.0 
3.722245505294e-01 -6.872870733381e+01 0.0 
0.0 0.0 -2.856809999409e+01 
-1.124273811696e+01 -2.861321766940e-01 0.0 
-2.861321766940e-01 -2.524433325346e+01 0.0 
0.0 0.0 -1.093963466852e+01 
-4.825992817699e+01 5.211195307985e-01 0.0 
5.211195307985e-01 -1.192002202338e+02 0.0 
0.0 0.0 -4.983804452323e+01 
-1.341869182092e+02 3.569277693501e+00 0.0 
3.569277693501e+00 -3.107577431927e+02 0.0 
0.0 0.0 -1.330833984206e+02 
-1.331110381092e+02 1.175575739457e+00 0.0 
1.175575739457e+00 -3.099649149685e+02 0.0 
0.0 0.0 -1.325227859233e+02 
-1.299801755716e+02 7.574158259231e-01 0.0 
7.574158259231e-01 -3.100390564329e+02 0.0 
0.0 0.0 -1.316057696013e+02 
-5.489223779499e+01 6.794097877072e-01 0.0 
6.794097877072e-01 -1.349457285737e+02 0.0 
0.0 0.0 -5.655138991059e+01 
-1.076578721960e+02 1.465080171451e+00 0.0 
1.465080171451e+00 -2.591466662691e+02 0.0 
0.0 0.0 -1.096413615395e+02 
-1.365822641443e+02 1.765405412768e+00 0.0 
1.765405412768e+00 -3.239882692357e+02 0.0 
0.0 0.0 -1.377711600140e+02 
-2.824435299102e+01 2.988656862234e+00 0.0 
2.988656862234e+00 -7.293760581494e+01 0.0 
0.0 0.0 -2.995458764179e+01 
-6.870882251886e+01 8.693897507089e-01 0.0 
8.693897507089e-01 -1.676304965735e+02 0.0 
0.0 0.0 -7.050179572770e+01 
-5.658633378845e+01 -7.847998169414e-01 0.0 
-7.847998169414e-01 -1.381644552767e+02 0.0 
0.0 0.0 -5.802523671955e+01 
-1.616832036945e+02 2.806672544942e+00 0.0 
2.806672544942e+00 -3.801733269208e+02 0.0 
0.0 0.0 -1.621569591846e+02 
-1.624880935762e+02 2.922617457442e+00 0.0 
2.922617457442e+00 -3.804722183444e+02 0.0 
0.0 0.0 -1.624880935762e+02 
-7.637007735119e+01 6.824986559876e-01 0.0 
6.824986559876e-01 -1.860938057049e+02 0.0 
0.0 0.0 -7.833916491681e+01 
-8.661348831371e+01 1.073696458596e+00 0.0 
1.073696458596e+00 -2.101381551962e+02 0.0 
0.0 0.0 -8.862549305297e+01 
-9.685106334420e+01 6.132971877398e-01 0.0 
6.132971877398e-01 -2.349838284967e+02 0.0 
0.0 0.0 -9.915046755227e+01 
-1.413477838510e+02 2.087930052696e+00 0.0 
2.087930052696e+00 -3.342338249630e+02 0.0 
0.0 0.0 -1.422744826442e+02 
-3.066010440302e+01 -1.066012911161e+00 0.0 
-1.066012911161e+00 -7.606720107734e+01 0.0 
0.0 0.0 -3.161819164411e+01 
-1.317941155121e+02 1.500479918889e+00 0.0 
1.500479918889e+00 -3.135921584071e+02 0.0 
0.0 0.0 -1.332158821758e+02 
-1.735206670629e+01 -3.273700153508e-01 0.0 
-3.273700153508e-01 -4.264138261094e+01 0.0 
0.0 0.0 -1.759803479517e+01 
-7.826295834785e+01 9.628475524582e-01 0.0 
9.628475524582e-01 -1.907733293437e+02 0.0 
0.0 0.0 -8.031088630746e+01 
-8.739935043163e+01 1.275871106058e+00 0.0 
1.275871106058e+00 -2.123585527079e+02 0.0 
0.0 0.0 -8.952737094186e+01 
-1.051513844936e+01 -1.622762562318e-01 0.0 
-1.622762562318e-01 -2.554616246020e+01 0.0 
0.0 0.0 -1.079898544264e+01 
-7.273478182454e+01 -7.595527452232e-01 0.0 
-7.595527452232e-01 -1.768051725656e+02 0.0 
0.0 0.0 -7.446198631703e+01 
-1.372094798987e+02 6.399307991213e-01 0.0 
6.399307991213e-01 -3.190574275542e+02 0.0 
0.0 0.0 -1.364800722359e+02 
-2.971690773814e+00 -8.260131215263e-02 0.0 
-8.260131215263e-02 -7.743486151450e+00 0.0 
0.0 0.0 -2.814553077579e+00 
-8.088219786343e+01 1.591396972190e-01 0.0 
1.591396972190e-01 -1.850200990339e+02 0.0 
0.0 0.0 -7.937068906919e+01 
-8.107946814158e+01 2.599788027556e-01 0.0 
2.599788027556e-01 -1.852250570023e+02 0.0 
0.0 0.0 -7.949135754317e+01 
-1.125134149574e+02 3.652500766375e+00 0.0 
3.652500766375e+00 -2.681865040774e+02 0.0 
0.0 0.0 -1.138099757104e+02 
-5.648383862583e+01 7.180046134868e-01 0.0 
7.180046134868e-01 -1.380413892130e+02 0.0 
0.0 0.0 -5.795756835165e+01 
-5.298585968549e+01 -1.048398439837e-01 0.0 
-1.048398439837e-01 -1.325461319050e+02 0.0 
0.0 0.0 -5.525959747713e+01 
-3.471683931565e+01 5.064535473537e+00 0.0 
5.064535473537e+00 -7.903568697841e+01 0.0 
0.0 0.0 -3.372575788822e+01 
-1.424293926975e+02 8.155653173306e-01 0.0 
8.155653173306e-01 -3.374693866229e+02 0.0 
0.0 0.0 -1.435696337961e+02 
-1.514566933400e+02 3.390845374366e+00 0.0 
3.390845374366e+00 -3.539052803883e+02 0.0 
0.0 0.0 -1.512085921185e+02 
-1.279756542324e+02 1.333345193484e+00 0.0 
1.333345193484e+00 -2.972309169418e+02 0.0 
0.0 0.0 -1.271619713523e+02 
-4.819333268909e+01 3.512025445799e+00 0.0 
3.512025445799e+00 -1.075213381037e+02 0.0 
0.0 0.0 -4.631440123784e+01 
-1.904847595376e+01 -1.272536523366e+00 0.0 
-1.272536523366e+00 -4.739954580797e+01 0.0 
0.0 0.0 -1.953440652852e+01 
-7.974335297104e+01 1.962562813199e+00 0.0 
1.962562813199e+00 -1.804502282824e+02 0.0 
0.0 0.0 -7.765807437602e+01 
-8.088813371017e+01 7.126946180192e-02 0.0 
7.126946180192e-02 -1.856480490035e+02 0.0 
0.0 0.0 -7.956085481409e+01 
-8.046702656405e+01 1.979948961537e-01 0.0 
1.979948961537e-01 -1.853571542629e+02 0.0 
0.0 0.0 -7.934725424808e+01 
-4.666669970486e+00 -1.192834595554e-01 0.0 
-1.192834595554e-01 -9.036628975116e+00 0.0 
0.0 0.0 -4.679877134321e+00 
-1.055679418465e+01 -1.619259972255e-01 0.0 
-1.619259972255e-01 -2.541868673357e+01 0.0 
0.0 0.0 -1.081397364542e+01 
-1.662397486476e+01 8.718437659072e-02 0.0 
8.718437659072e-02 -4.201120095964e+01 0.0 
0.0 0.0 -1.719055274732e+01 
-4.201592406119e+01 -9.862168457486e-01 0.0 
-9.862168457486e-01 -1.039948699472e+02 0.0 
0.0 0.0 -4.340323820253e+01 
-1.011852034684e+01 -1.005991366258e-01 0.0 
-1.005991366258e-01 -2.568033034424e+01 0.0 
0.0 0.0 -1.033965520732e+01 
-8.048198019594e+01 -7.055221535757e-01 0.0 
-7.055221535757e-01 -1.962877927812e+02 0.0 
0.0 0.0 -8.263093189316e+01 
-6.364893706765e+00 -2.179508926390e-01 0.0 
-2.179508926390e-01 -8.980318637720e+00 0.0 
0.0 0.0 -5.171899068498e+00 
-4.997132804469e+01 -9.010034913948e-01 0.0 
-9.010034913948e-01 -1.234549386931e+02 0.0 
0.0 0.0 -5.162788002133e+01 
-1.086761784124e+02 -1.370885728934e-01 0.0 
-1.370885728934e-01 -2.519713283662e+02 0.0 
0.0 0.0 -1.077942520336e+02 
-8.067806246993e+01 1.082294403810e-01 0.0 
1.082294403810e-01 -1.849961717074e+02 0.0 
0.0 0.0 -7.930227025320e+01 
-1.384775507664e+02 3.489397624703e+00 0.0 
3.489397624703e+00 -3.205387087536e+02 0.0 
0.0 0.0 -1.373048778560e+02 
-1.137449540312e+02 8.678616749717e-01 0.0 
8.678616749717e-01 -2.734080720257e+02 0.0 
0.0 0.0 -1.157459078171e+02 
-1.010645444116e+02 -2.492462609009e-01 0.0 
-2.492462609009e-01 -2.343991185134e+02 0.0 
0.0 0.0 -1.002390988775e+02 
-6.031946832173e+01 -7.921296812633e-01 0.0 
-7.921296812633e-01 -1.474410093439e+02 0.0 
0.0 0.0 -6.192814329968e+01 
-1.718530385213e+01 -8.630646875548e-02 0.0 
-8.630646875548e-02 -4.240731547609e+01 0.0 
0.0 0.0 -1.747778579846e+01 
-1.557167258865e+02 8.096084455462e-01 0.0 
8.096084455462e-01 -3.646723604018e+02 0.0 
0.0 0.0 -1.557167258865e+02 
-1.558779675836e+02 8.071707351114e-01 0.0 
8.071707351114e-01 -3.646823981730e+02 0.0 
0.0 0.0 -1.557681097270e+02 
-9.746583528512e+01 -6.208977703329e-01 0.0 
-6.208977703329e-01 -2.244959719866e+02 0.0 
0.0 0.0 -9.618854218152e+01 
-8.044481712789e+01 1.186833260811e-01 0.0 
1.186833260811e-01 -1.851043893981e+02 0.0 
0.0 0.0 -7.926476195780e+01 
-6.122717428734e+01 4.210598868393e-01 0.0 
4.210598868393e-01 -1.494350058488e+02 0.0 
0.0 0.0 -6.279865404083e+01 
-1.559891105955e+02 6.574281429628e-01 0.0 
6.574281429628e-01 -3.647569688726e+02 0.0 
0.0 0.0 -1.558238238404e+02 
-4.688875387301e+01 5.405072567290e-01 0.0 
5.405072567290e-01 -1.155244847242e+02 0.0 
0.0 0.0 -4.832397157915e+01 
-8.081206146229e+01 2.158575404017e-01 0.0 
2.158575404017e-01 -1.849019005526e+02 0.0 
0.0 0.0 -7.931418860445e+01 
-8.085610322697e+01 9.433043754575e-02 0.0 
9.433043754575e-02 -1.849841787462e+02 0.0 
0.0 0.0 -7.935208459196e+01 
-7.566157091987e+01 2.233828420071e-02 0.0 
2.233828420071e-02 -1.716562045321e+02 0.0 
0.0 0.0 -7.379533263558e+01 
-1.562856433653e+02 1.655544423342e+00 0.0 
1.655544423342e+00 -3.659998345190e+02 0.0 
0.0 0.0 -1.562856433653e+02 
-1.565367327078e+02 6.160976089698e-01 0.0 
6.160976089698e-01 -3.651360736382e+02 0.0 
0.0 0.0 -1.561018419038e+02 
-1.018523212582e+01 -1.396692701828e-01 0.0 
-1.396692701828e-01 -2.549795765142e+01 0.0 
0.0 0.0 -1.030495693317e+01 
-4.714058092333e+00 -6.148395261771e-02 0.0 
-6.148395261771e-02 -9.124122655969e+00 0.0 
0.0 0.0 -4.728709031787e+00 
-2.289858519819e+01 -1.051213410910e+00 0.0 
-1.051213410910e+00 -5.688940190935e+01 0.0 
0.0 0.0 -2.353639613226e+01 
-8.698337938603e+01 -1.933505146906e-01 0.0 
-1.933505146906e-01 -2.118691699812e+02 0.0 
0.0 0.0 -8.925576481018e+01 
-1.491205403010e+02 -7.449261214959e-01 0.0 
-7.449261214959e-01 -3.520765730578e+02 0.0 
0.0 0.0 -1.499591340076e+02 
-6.284518265018e+00 -1.257640123709e-02 0.0 
-1.257640123709e-02 -7.206655916600e+00 0.0 
0.0 0.0 -3.647352254485e+00 
-1.262683473734e+02 9.171411693049e-01 0.0 
9.171411693049e-01 -2.940015504591e+02 0.0 
0.0 0.0 -1.256809693498e+02 
-6.394267584358e+00 -1.761666161763e-01 0.0 
-1.761666161763e-01 -9.122411360006e+00 0.0 
0.0 0.0 -5.235953724045e+00 
-1.113417209414e+02 1.809358189161e+00 0.0 
1.809358189161e+00 -2.666448388365e+02 0.0 
0.0 0.0 -1.129959679334e+02 
-5.560336689642e+00 -2.019746218067e-01 0.0 
-2.019746218067e-01 -8.083440155254e+00 0.0 
0.0 0.0 -3.693133053469e+00 
-5.959282423976e+00 -1.234359118455e-01 0.0 
-1.234359118455e-01 -8.046134468457e+00 0.0 
0.0 0.0 -3.801625067730e+00 
-1.066488976022e+02 1.568945128485e+00 0.0 
1.568945128485e+00 -2.564660336870e+02 0.0 
0.0 0.0 -1.085344793868e+02 
-1.446186573225e+02 -9.985381501018e-02 0.0 
-9.985381501018e-02 -3.421678378620e+02 0.0 
0.0 0.0 -1.456359485554e+02 
-1.080756031084e+02 4.625738418220e-01 0.0 
4.625738418220e-01 -2.506271557753e+02 0.0 
0.0 0.0 -1.072108276651e+02 
-8.334807353424e+01 2.258640319343e+00 0.0 
2.258640319343e+00 -1.888683079258e+02 0.0 
0.0 0.0 -8.126491443800e+01 
-1.042734845280e+01 -4.156622004486e-02 0.0 
-4.156622004486e-02 -2.553469790904e+01 0.0 
0.0 0.0 -1.077110803305e+01 
-1.113893372045e+02 1.396169888073e+00 0.0 
1.396169888073e+00 -2.676233822592e+02 0.0 
0.0 0.0 -1.133038158391e+02 
-1.553076256768e+02 3.283947005907e-01 0.0 
3.283947005907e-01 -3.637177932458e+02 0.0 
0.0 0.0 -1.553076256768e+02 
-1.558401673664e+02 8.508469450302e-01 0.0 
8.508469450302e-01 -3.645487713953e+02 0.0 
0.0 0.0 -1.557166816285e+02 
-8.058016398456e+01 6.341270866692e-02 0.0 
6.341270866692e-02 -1.850129640803e+02 0.0 
0.0 0.0 -7.927793841945e+01 
-1.160457055584e+02 2.036860141662e+00 0.0 
2.036860141662e+00 -2.767788950074e+02 0.0 
0.0 0.0 -1.174473801697e+02 
-1.558385810105e+02 5.505376825291e-01 0.0 
5.505376825291e-01 -3.649566890245e+02 0.0 
0.0 0.0 -1.558385810105e+02 
-1.238686345846e+02 4.174779299193e+00 0.0 
4.174779299193e+00 -2.885764779440e+02 0.0 
0.0 0.0 -1.233335337586e+02 
-1.658501087737e+01 -2.633739048390e-01 0.0 
-2.633739048390e-01 -4.132354141937e+01 0.0 
0.0 0.0 -1.697256568902e+01 
-9.999867833200e+00 -6.503935194894e-02 0.0 
-6.503935194894e-02 -2.547998622054e+01 0.0 
0.0 0.0 -1.024395621612e+01 
-1.013416808982e+01 8.484897842665e-02 0.0 
8.484897842665e-02 -2.512562430906e+01 0.0 
0.0 0.0 -1.041920523369e+01 
-6.852891399119e+01 -7.597190748694e-01 0.0 
-7.597190748694e-01 -1.669997378875e+02 0.0 
0.0 0.0 -7.025859556362e+01 
-1.628287324512e+02 1.180939634546e+00 0.0 
1.180939634546e+00 -3.826821427688e+02 0.0 
0.0 0.0 -1.632532625660e+02 
-1.471431277658e+02 9.478758677740e-01 0.0 
9.478758677740e-01 -3.435344704850e+02 0.0 
0.0 0.0 -1.468032794752e+02 
-4.413561486597e+00 2.291503214854e-02 0.0 
2.291503214854e-02 -9.092919468544e+00 0.0 
0.0 0.0 -4.620622398213e+00 
-8.079529660376e+01 7.429019528449e-01 0.0 
7.429019528449e-01 -1.964250553028e+02 0.0 
0.0 0.0 -8.276610557196e+01 
-1.640812354886e+02 5.427604463356e-01 0.0 
5.427604463356e-01 -3.841895494733e+02 0.0 
0.0 0.0 -1.640812354886e+02 
-1.624433512182e+02 7.580226262395e-01 0.0 
7.580226262395e-01 -3.821537362354e+02 0.0 
0.0 0.0 -1.629791262361e+02 
-1.620799614487e+02 2.627255194242e+00 0.0 
2.627255194242e+00 -3.805015173878e+02 0.0 
0.0 0.0 -1.623744436510e+02 
-1.180577720479e+02 -8.239781377068e-01 0.0 
-8.239781377068e-01 -2.746572285260e+02 0.0 
0.0 0.0 -1.174145001722e+02 
-1.306472594126e+02 8.767555862255e-01 0.0 
8.767555862255e-01 -3.041496885685e+02 0.0 
0.0 0.0 -1.300390843943e+02 
-1.632340383326e+02 7.867056651393e-01 0.0 
7.867056651393e-01 -3.822127561093e+02 0.0 
0.0 0.0 -1.632340383326e+02 
-1.635342078870e+02 1.089645856642e+00 0.0 
1.089645856642e+00 -3.829131517364e+02 0.0 
0.0 0.0 -1.635342078870e+02 
-1.264448109524e+02 -6.584966991424e-01 0.0 
-6.584966991424e-01 -2.941565366072e+02 0.0 
0.0 0.0 -1.257804042679e+02 
-2.541905590889e+00 -2.647416379294e-01 0.0 
-2.647416379294e-01 -6.771940498927e+00 0.0 
0.0 0.0 -2.394153826945e+00 
-8.012023629788e+01 3.389301681104e-02 0.0 
3.389301681104e-02 -1.846231394214e+02 0.0 
0.0 0.0 -7.902301271578e+01 
-8.056416287007e+01 -3.988864009284e-02 0.0 
-3.988864009284e-02 -1.853980660099e+02 0.0 
0.0 0.0 -7.938866866398e+01 
-4.586925942947e+00 -1.514465522940e-02 0.0 
-1.514465522940e-02 -9.092231273728e+00 0.0 
0.0 0.0 -4.679898907354e+00 
-1.635708472644e+02 1.657161077994e+00 0.0 
1.657161077994e+00 -3.829986436169e+02 0.0 
0.0 0.0 -1.635708472644e+02 
-1.616182726621e+02 2.272513030942e+00 0.0 
2.272513030942e+00 -3.803478473031e+02 0.0 
0.0 0.0 -1.621898359895e+02 
-1.625894082655e+02 2.150576481215e+00 0.0 
2.150576481215e+00 -3.807086192861e+02 0.0 
0.0 0.0 -1.625894082655e+02 
-2.721618859611e+00 7.178565242971e-04 0.0 
7.178565242971e-04 -7.865668024380e+00 0.0 
0.0 0.0 -2.776186065198e+00 
-2.800338538505e+00 -9.288215247719e-02 0.0 
-9.288215247719e-02 -7.966477809625e+00 0.0 
0.0 0.0 -2.830044904439e+00 
-1.625354508327e+02 2.643150894880e+00 0.0 
2.643150894880e+00 -3.805827186095e+02 0.0 
0.0 0.0 -1.625354508327e+02 
-1.626503747824e+02 2.479927508742e+00 0.0 
2.479927508742e+00 -3.808508744923e+02 0.0 
0.0 0.0 -1.626503747824e+02 
-1.137054864409e+02 9.339207956146e-01 0.0 
9.339207956146e-01 -2.647714305476e+02 0.0 
0.0 0.0 -1.131430750965e+02 
-7.978994134520e+01 -1.229667675515e-01 0.0 
-1.229667675515e-01 -1.842810894792e+02 0.0 
0.0 0.0 -7.882130924732e+01 
-1.223805344715e+02 9.182441351119e-01 0.0 
9.182441351119e-01 -2.844747741195e+02 0.0 
0.0 0.0 -1.216565925773e+02 
-9.708334156702e+01 9.028103688965e-01 0.0 
9.028103688965e-01 -2.255398592156e+02 0.0 
0.0 0.0 -9.638696023478e+01 
-7.998420054113e+01 -5.295229803032e-02 0.0 
-5.295229803032e-02 -1.843719876536e+02 0.0 
0.0 0.0 -7.890685645842e+01 
-3.474526815780e+00 -2.116169834810e-01 0.0 
-2.116169834810e-01 -7.488715691995e+00 0.0 
0.0 0.0 -2.888972752332e+00 
-4.196213482689e+00 5.314697815665e-02 0.0 
5.314697815665e-02 -8.215314670286e+00 0.0 
0.0 0.0 -3.323458445892e+00 
-4.319303862486e+00 -6.718141801996e-02 0.0 
-6.718141801996e-02 -7.764702682391e+00 0.0 
0.0 0.0 -3.225201963463e+00 
-4.564898107831e+00 -7.534063015456e-02 0.0 
-7.534063015456e-02 -7.892909895125e+00 0.0 
0.0 0.0 -3.337342400887e+00 
-8.492967082109e+01 -9.031975100957e-01 0.0 
-9.031975100957e-01 -2.064291852428e+02 0.0 
0.0 0.0 -8.700765681918e+01 
-7.673426483489e+01 -7.889872330357e-01 0.0 
-7.889872330357e-01 -1.866090961721e+02 0.0 
0.0 0.0 -7.860300830211e+01 
-5.343952006844e+00 -1.007582182689e-01 0.0 
-1.007582182689e-01 -9.072306626031e+00 0.0 
0.0 0.0 -4.901905060798e+00 
-1.100299297988e+02 -8.517633471660e-01 0.0 
-8.517633471660e-01 -2.643218922424e+02 0.0 
0.0 0.0 -1.119055466124e+02 
-5.663279150776e+00 -1.567000629125e-01 0.0 
-1.567000629125e-01 -9.034075857897e+00 0.0 
0.0 0.0 -4.981045675375e+00 
-1.558880482806e+02 1.234177943466e+00 0.0 
1.234177943466e+00 -3.650721126547e+02 0.0 
0.0 0.0 -1.558880482806e+02 
-1.555654755480e+02 4.540285290412e-01 0.0 
4.540285290412e-01 -3.643194429453e+02 0.0 
0.0 0.0 -1.555654755480e+02 
-1.556524753838e+02 8.769493082207e-01 0.0 
8.769493082207e-01 -3.645224425622e+02 0.0 
0.0 0.0 -1.556524753838e+02 
-2.786136364337e+01 -9.398745655126e-01 0.0 
-9.398745655126e-01 -6.851151361198e+01 0.0 
0.0 0.0 -2.851186317661e+01 
-5.228241998112e+01 -8.082706392148e-01 0.0 
-8.082706392148e-01 -1.278196799800e+02 0.0 
0.0 0.0 -5.363062998833e+01 
-1.553063081196e+02 4.189510934010e-01 0.0 
4.189510934010e-01 -3.637147189458e+02 0.0 
0.0 0.0 -1.553063081196e+02 
-1.361853124348e+02 -7.265214363915e-01 0.0 
-7.265214363915e-01 -3.233609753186e+02 0.0 
0.0 0.0 -1.374638863260e+02 
-1.561700532946e+02 3.999364477468e-01 0.0 
3.999364477468e-01 -3.657301243541e+02 0.0 
0.0 0.0 -1.561700532946e+02 
-1.449458199126e+02 -7.756196444908e-01 0.0 
-7.756196444908e-01 -3.429658572049e+02 0.0 
0.0 0.0 -1.459735031353e+02 
-1.538624986964e+02 -8.859619764997e-01 0.0 
-8.859619764997e-01 -3.625798082693e+02 0.0 
0.0 0.0 -1.545326920897e+02 
-7.260964893772e+01 7.972370744525e-01 0.0 
7.972370744525e-01 -1.767523720319e+02 0.0 
0.0 0.0 -7.440860629089e+01 
-1.555382239923e+02 5.879335340087e-01 0.0 
5.879335340087e-01 -3.640498120416e+02 0.0 
0.0 0.0 -1.554764108102e+02 
-1.556919923039e+02 -9.544191251578e-02 0.0 
-9.544191251578e-02 -3.645029943232e+02 0.0 
0.0 0.0 -1.556584959881e+02 
-1.401449405645e+02 9.576363990009e-01 0.0 
9.576363990009e-01 -3.321440327117e+02 0.0 
0.0 0.0 -1.412866919829e+02 
-1.491821145215e+02 9.707551413381e-01 0.0 
9.707551413381e-01 -3.522417035258e+02 0.0 
0.0 0.0 -1.500271454142e+02 
-1.189602680603e+02 1.194101544621e+00 0.0 
1.194101544621e+00 -2.846127785384e+02 0.0 
0.0 0.0 -1.206719139796e+02 
-6.215128343697e+00 -1.674817768892e-01 0.0 
-1.674817768892e-01 -9.052645597556e+00 0.0 
0.0 0.0 -5.156808365255e+00 
-7.355846157410e+01 8.804315863148e-01 0.0 
8.804315863148e-01 -1.798482353679e+02 0.0 
0.0 0.0 -7.562200908259e+01 
-1.016361769787e+01 -3.813641380494e-02 0.0 
-3.813641380494e-02 -2.522071891871e+01 0.0 
0.0 0.0 -1.021530098497e+01 
-1.426197663655e+02 2.176112088662e+00 0.0 
2.176112088662e+00 -3.377474512855e+02 0.0 
0.0 0.0 -1.437101652953e+02 
-7.793533791869e+01 -5.096300414027e-01 0.0 
-5.096300414027e-01 -1.903151546907e+02 0.0 
0.0 0.0 -8.007514778283e+01 
-1.320814181931e+02 -7.043535804087e-03 0.0 
-7.043535804087e-03 -3.143455752109e+02 0.0 
0.0 0.0 -1.335280980212e+02 
-3.892491178038e+01 4.437839576663e-01 0.0 
4.437839576663e-01 -9.606637527813e+01 0.0 
0.0 0.0 -4.009738611755e+01 
-1.693076895068e+01 -6.494365781292e-01 0.0 
-6.494365781292e-01 -4.137061321644e+01 0.0 
0.0 0.0 -1.709041465013e+01 
-1.408633330539e+02 1.522271630703e+00 0.0 
1.522271630703e+00 -3.338468428442e+02 0.0 
0.0 0.0 -1.420130527694e+02 
-8.212274528762e+01 9.603649304982e-01 0.0 
9.603649304982e-01 -1.993092818903e+02 0.0 
0.0 0.0 -8.402960815338e+01 
-6.421255040347e+01 -7.953612820351e-01 0.0 
-7.953612820351e-01 -1.573095139377e+02 0.0 
0.0 0.0 -6.605661930235e+01 
-1.323093169491e+02 1.456051124507e+00 0.0 
1.456051124507e+00 -3.147747660030e+02 0.0 
0.0 0.0 -1.337252248857e+02 
-1.380164079295e+02 -6.078716467674e-01 0.0 
-6.078716467674e-01 -3.217387290813e+02 0.0 
0.0 0.0 -1.375265411033e+02 
-6.449697609117e+01 7.808039364740e-01 0.0 
7.808039364740e-01 -1.573887849945e+02 0.0 
0.0 0.0 -6.616572832570e+01 
-1.234384175341e+02 2.886867381222e+00 0.0 
2.886867381222e+00 -2.946995112782e+02 0.0 
0.0 0.0 -1.250413786437e+02 
-1.082037693667e+02 2.819939061743e-01 0.0 
2.819939061743e-01 -2.608666794789e+02 0.0 
0.0 0.0 -1.103211346537e+02 
-1.186825111101e+02 -3.040632956400e-01 0.0 
-3.040632956400e-01 -2.841643014976e+02 0.0 
0.0 0.0 -1.204540437823e+02 
-1.225464785197e+02 -3.415199441143e-01 0.0 
-3.415199441143e-01 -2.929228483573e+02 0.0 
0.0 0.0 -1.242407980631e+02 
-6.425658881801e+01 2.826848933214e+00 0.0 
2.826848933214e+00 -1.553899854980e+02 0.0 
0.0 0.0 -6.549397229479e+01 
-7.549543259290e+01 2.045203811168e+00 0.0 
2.045203811168e+00 -1.704570594371e+02 0.0 
0.0 0.0 -7.338574760900e+01 
-8.403802387275e+01 4.075521104679e+00 0.0 
4.075521104679e+00 -1.940736920360e+02 0.0 
0.0 0.0 -8.303351477261e+01 
-1.110826494660e+02 -9.955634206994e-02 0.0 
-9.955634206994e-02 -2.671633075998e+02 0.0 
0.0 0.0 -1.130737871197e+02 
-1.361739291721e+02 1.386364168361e+00 0.0 
1.386364168361e+00 -3.234393685807e+02 0.0 
0.0 0.0 -1.374839893259e+02 
-1.264899942266e+02 -4.859720349853e-01 0.0 
-4.859720349853e-01 -3.018464649583e+02 0.0 
0.0 0.0 -1.281009377555e+02 
-3.998707768332e+01 -8.895838318889e-01 0.0 
-8.895838318889e-01 -9.965878814778e+01 0.0 
0.0 0.0 -4.149375974933e+01 
-1.376776965386e+02 -5.674213160125e-01 0.0 
-5.674213160125e-01 -3.205814924584e+02 0.0 
0.0 0.0 -1.370777566991e+02 
-1.291260618839e+02 -5.681039642692e-01 0.0 
-5.681039642692e-01 -3.007584303981e+02 0.0 
0.0 0.0 -1.285653476846e+02 
-9.121990633826e+01 -8.609231663263e-01 0.0 
-8.609231663263e-01 -2.110103017765e+02 0.0 
0.0 0.0 -9.026906243442e+01 
-1.158043654153e+02 9.035766101319e-02 0.0 
9.035766101319e-02 -2.779778685335e+02 0.0 
0.0 0.0 -1.177346701846e+02 
-1.148783623014e+02 -1.942933159409e-01 0.0 
-1.942933159409e-01 -2.756796968455e+02 0.0 
0.0 0.0 -1.167674177441e+02 
-1.381736654300e+02 1.045156902699e+00 0.0 
1.045156902699e+00 -3.224748790057e+02 0.0 
0.0 0.0 -1.377945633307e+02 
-1.336171672172e+02 -5.113352305204e-01 0.0 
-5.113352305204e-01 -3.114191679584e+02 0.0 
0.0 0.0 -1.331109005527e+02 
-1.048020528953e+02 1.834046187863e+00 0.0 
1.834046187863e+00 -2.527606139799e+02 0.0 
0.0 0.0 -1.068688000626e+02 
-1.448292542761e+02 1.399151725792e+00 0.0 
1.399151725792e+00 -3.424504409707e+02 0.0 
0.0 0.0 -1.457839085740e+02 
-1.276535635640e+02 -2.549825041739e-01 0.0 
-2.549825041739e-01 -2.968261259900e+02 0.0 
0.0 0.0 -1.269439068662e+02 
-1.266052180161e+02 9.619729874109e-01 0.0 
9.619729874109e-01 -3.018939002089e+02 0.0 
0.0 0.0 -1.281497354675e+02 
-1.469877209725e+02 2.222989639108e+00 0.0 
2.222989639108e+00 -3.473169810641e+02 0.0 
0.0 0.0 -1.478914106110e+02 
-1.376959280379e+02 1.165195564420e+00 0.0 
1.165195564420e+00 -3.210003231117e+02 0.0 
0.0 0.0 -1.372088753449e+02 
-1.166536440700e+02 1.090780797975e+00 0.0 
1.090780797975e+00 -2.706996547269e+02 0.0 
0.0 0.0 -1.158059896391e+02 
-1.187726295888e+02 2.591813764561e+00 0.0 
2.591813764561e+00 -2.843490179391e+02 0.0 
0.0 0.0 -1.205364942584e+02 
-4.019950684080e+01 -9.143585161358e-01 0.0 
-9.143585161358e-01 -9.893997933488e+01 0.0 
0.0 0.0 -4.134184585270e+01 
-3.673820036623e+01 -8.286248659962e-01 0.0 
-8.286248659962e-01 -9.187741236904e+01 0.0 
0.0 0.0 -3.818468382058e+01 
-1.947565826207e+01 4.911088107707e-01 0.0 
4.911088107707e-01 -4.792479302594e+01 0.0 
0.0 0.0 -1.982013538640e+01 
-1.183334433863e+01 -3.533648199177e-01 0.0 
-3.533648199177e-01 -2.549535611977e+01 0.0 
0.0 0.0 -1.079861013752e+01 
-1.338639473007e+02 1.066261854935e+00 0.0 
1.066261854935e+00 -3.117439030122e+02 0.0 
0.0 0.0 -1.332823550939e+02 
-1.398533934254e+02 -2.873073750873e-01 0.0 
-2.873073750873e-01 -3.315050043994e+02 0.0 
0.0 0.0 -1.410075193474e+02 
-1.153509318220e+01 -3.722495278696e-01 0.0 
-3.722495278696e-01 -2.512665822131e+01 0.0 
0.0 0.0 -1.059852542105e+01 
-1.366558784389e+02 2.693550542142e+00 0.0 
2.693550542142e+00 -3.162686723792e+02 0.0 
0.0 0.0 -1.354773652454e+02 
-9.537556934911e+01 -7.360101255496e-01 0.0 
-7.360101255496e-01 -2.200637862609e+02 0.0 
0.0 0.0 -9.423180668300e+01 
-1.285456703465e+02 1.599352796246e+00 0.0 
1.599352796246e+00 -3.063278205462e+02 0.0 
0.0 0.0 -1.300620472678e+02 
-1.310961004665e+02 -3.230167213126e-01 0.0 
-3.230167213126e-01 -3.121243742392e+02 0.0 
0.0 0.0 -1.325661424117e+02 
-5.647657054655e+01 -1.755223134023e-01 0.0 
-1.755223134023e-01 -1.406489820679e+02 0.0 
0.0 0.0 -5.873766578432e+01 
-1.312901288041e+02 1.192870505984e+00 0.0 
1.192870505984e+00 -3.125187977639e+02 0.0 
0.0 0.0 -1.327426779704e+02 
-9.139475760468e+01 1.172871998791e+00 0.0 
1.172871998791e+00 -2.110207091926e+02 0.0 
0.0 0.0 -9.032464003917e+01 
-1.181416373981e+02 4.089275906591e+00 0.0 
4.089275906591e+00 -2.790169009665e+02 0.0 
0.0 0.0 -1.187475615094e+02 
-1.510385604028e+02 3.653410189973e-01 0.0 
3.653410189973e-01 -3.560971650323e+02 0.0 
0.0 0.0 -1.517407176305e+02 
-3.886696767042e+01 -6.577023406768e-01 0.0 
-6.577023406768e-01 -9.563605225346e+01 0.0 
0.0 0.0 -3.995090597716e+01 
-1.474423189125e+02 2.398892769041e+00 0.0 
2.398892769041e+00 -3.485908440025e+02 0.0 
0.0 0.0 -1.484099488745e+02 
-1.211817136290e+02 9.947714428673e-01 0.0 
9.947714428673e-01 -2.815342101187e+02 0.0 
0.0 0.0 -1.204147771243e+02 
-4.370518794805e+01 -9.169800571847e-01 0.0 
-9.169800571847e-01 -1.073859953813e+02 0.0 
0.0 0.0 -4.492735499880e+01 
-4.505247731342e+01 6.098795464663e-01 0.0 
6.098795464663e-01 -1.115554260982e+02 0.0 
0.0 0.0 -4.658237102348e+01 
-9.274579511660e+01 -6.367786334272e-01 0.0 
-6.367786334272e-01 -2.244861838861e+02 0.0 
0.0 0.0 -9.476959370081e+01 
-1.073491594410e+02 -5.542394427838e-01 0.0 
-5.542394427838e-01 -2.488811819916e+02 0.0 
0.0 0.0 -1.064691024298e+02 
-6.162207959483e+01 -7.384627641387e-01 0.0 
-7.384627641387e-01 -1.513724754866e+02 0.0 
0.0 0.0 -6.349836652443e+01 
-1.256546275854e+02 1.019836516841e+00 0.0 
1.019836516841e+00 -2.922695684322e+02 0.0 
0.0 0.0 -1.249772588053e+02 
-1.127499538966e+02 1.089964526713e+00 0.0 
1.089964526713e+00 -2.613943948883e+02 0.0 
0.0 0.0 -1.118433046355e+02 
-8.989825990236e+01 -4.144283684812e-01 0.0 
-4.144283684812e-01 -2.181851985720e+02 0.0 
0.0 0.0 -9.202503754232e+01 
-1.226143158106e+02 1.086993723699e+00 0.0 
1.086993723699e+00 -2.930972760890e+02 0.0 
0.0 0.0 -1.243134775699e+02 
-1.275040906483e+02 1.309978732519e+00 0.0 
1.309978732519e+00 -3.040262627769e+02 0.0 
0.0 0.0 -1.290591060276e+02 
-1.207832899588e+02 -6.503452041850e-01 0.0 
-6.503452041850e-01 -2.810303262718e+02 0.0 
0.0 0.0 -1.201440848692e+02 
-3.369558737902e+01 4.330172091620e-01 0.0 
4.330172091620e-01 -8.284474753872e+01 0.0 
0.0 0.0 -3.456210047532e+01 
-8.534569844369e+01 -5.280589710390e-01 0.0 
-5.280589710390e-01 -2.073883584446e+02 0.0 
0.0 0.0 -8.742021706647e+01 
-1.355211473747e+02 2.659704372163e+00 0.0 
2.659704372163e+00 -3.178028280014e+02 0.0 
0.0 0.0 -1.355971926128e+02 
-1.249341242248e+02 1.117497896973e+00 0.0 
1.117497896973e+00 -2.903753214442e+02 0.0 
0.0 0.0 -1.241928337007e+02 
-7.699035800008e+01 -7.285148766305e-01 0.0 
-7.285148766305e-01 -1.876579292322e+02 0.0 
0.0 0.0 -7.899448616968e+01 
-1.085829855668e+02 1.747176112868e+00 0.0 
1.747176112868e+00 -2.613638303577e+02 0.0 
0.0 0.0 -1.105840447773e+02 
-1.437794376195e+02 2.656224899565e+00 0.0 
2.656224899565e+00 -3.402941130050e+02 0.0 
0.0 0.0 -1.448220651874e+02 
-1.165175804363e+02 -5.173683384720e-01 0.0 
-5.173683384720e-01 -2.703734331231e+02 0.0 
0.0 0.0 -1.156673040678e+02 
-1.767152116310e+01 1.449762310991e+00 0.0 
1.449762310991e+00 -4.511946225315e+01 0.0 
0.0 0.0 -1.843729502488e+01 
-1.891903948397e+01 4.819067374795e-01 0.0 
4.819067374795e-01 -4.662034934345e+01 0.0 
0.0 0.0 -1.926181664823e+01 
-3.572706155375e+01 3.415681947478e+00 0.0 
3.415681947478e+00 -9.105615692313e+01 0.0 
0.0 0.0 -3.763496554307e+01 
-1.359393177069e+02 -1.764046677787e-01 0.0 
-1.764046677787e-01 -3.230019793799e+02 0.0 
0.0 0.0 -1.372823891260e+02 
-1.118725232784e+02 -5.186136216079e-01 0.0 
-5.186136216079e-01 -2.596208475740e+02 0.0 
0.0 0.0 -1.110480112557e+02 
-1.014117614413e+02 1.003769393476e+00 0.0 
1.003769393476e+00 -2.441502473725e+02 0.0 
0.0 0.0 -1.032686026441e+02 
-9.918462341164e+01 -5.785018754997e-01 0.0 
-5.785018754997e-01 -2.293947659992e+02 0.0 
0.0 0.0 -9.817381682324e+01 
-1.368301410255e+02 3.254952832860e+00 0.0 
3.254952832860e+00 -3.244023933669e+02 0.0 
0.0 0.0 -1.379697603177e+02 
-9.360208624446e+01 -4.572623044078e-01 0.0 
-4.572623044078e-01 -2.267090330109e+02 0.0 
0.0 0.0 -9.569333577661e+01 
-1.273090351131e+02 -2.161843981249e-01 0.0 
-2.161843981249e-01 -3.036088371830e+02 0.0 
0.0 0.0 -1.288753616888e+02 
-4.054978615496e+01 5.339560416357e-01 0.0 
5.339560416357e-01 -9.942404689903e+01 0.0 
0.0 0.0 -4.159214991620e+01 
-1.468176840831e+02 4.602800802591e-01 0.0 
4.602800802591e-01 -3.473487928229e+02 0.0 
0.0 0.0 -1.478499430718e+02 
-9.024780340435e+01 1.062699594785e+00 0.0 
1.062699594785e+00 -2.186665208234e+02 0.0 
0.0 0.0 -9.227429726833e+01 
-4.391081375069e+01 6.356982372793e-01 0.0 
6.356982372793e-01 -1.078188859154e+02 0.0 
0.0 0.0 -4.511890989983e+01 
-8.566254504754e+01 1.013652505173e+00 0.0 
1.013652505173e+00 -2.078833429879e+02 0.0 
0.0 0.0 -8.766376641063e+01 
-6.525143845985e+01 -6.982982954065e-01 0.0 
-6.982982954065e-01 -1.598669096910e+02 0.0 
0.0 0.0 -6.713550444527e+01 
-5.042149373248e+01 5.830751460578e-01 0.0 
5.830751460578e-01 -1.239776469386e+02 0.0 
0.0 0.0 -5.191974220131e+01 
-1.009712272398e+02 -5.525258758622e-01 0.0 
-5.525258758622e-01 -2.435330787248e+02 0.0 
0.0 0.0 -1.029512917894e+02 
-5.337761607519e+00 -7.317858085740e-02 0.0 
-7.317858085740e-02 -9.373098320024e+00 0.0 
0.0 0.0 -5.008927204986e+00 
-5.727856901947e+00 -1.300841094951e-01 0.0 
-1.300841094951e-01 -9.556865675831e+00 0.0 
0.0 0.0 -5.195424507339e+00 
-1.151484602769e+02 1.305829571587e+00 0.0 
1.305829571587e+00 -2.761241151884e+02 0.0 
0.0 0.0 -1.169817726396e+02 
-3.722644351869e+01 4.440225599712e-01 0.0 
4.440225599712e-01 -9.128088092982e+01 0.0 
0.0 0.0 -3.815219733455e+01 
-1.161346301873e+02 1.586750878862e+00 0.0 
1.586750878862e+00 -2.784470191199e+02 0.0 
0.0 0.0 -1.179744947921e+02 
-1.123625868174e+02 1.661170263036e+00 0.0 
1.661170263036e+00 -2.699337233303e+02 0.0 
0.0 0.0 -1.142888930443e+02 
-7.053659375067e+01 -4.737190948835e-01 0.0 
-4.737190948835e-01 -1.731496441789e+02 0.0 
0.0 0.0 -7.270587137886e+01 
-4.513029365255e+01 -3.321039384585e-01 0.0 
-3.321039384585e-01 -1.134760284476e+02 0.0 
0.0 0.0 -4.718189663004e+01 
-1.324413824556e+02 1.335473341456e+00 0.0 
1.335473341456e+00 -3.080361793778e+02 0.0 
0.0 0.0 -1.317432685500e+02 
-1.701691144783e+01 3.747048114554e+00 0.0 
3.747048114554e+00 -4.532384985415e+01 0.0 
0.0 0.0 -1.830222839059e+01 
-6.887736302756e+01 -6.367233080812e-01 0.0 
-6.367233080812e-01 -1.685451932366e+02 0.0 
0.0 0.0 -7.082676687924e+01 
-1.412958559436e+02 3.410990278954e+00 0.0 
3.410990278954e+00 -3.340381853387e+02 0.0 
0.0 0.0 -1.422002123847e+02 
-3.212228222477e+01 -9.377986542359e-01 0.0 
-9.377986542359e-01 -7.888561757142e+01 0.0 
0.0 0.0 -3.290236993886e+01 
-1.038571352619e+02 9.754118613490e-01 0.0 
9.754118613490e-01 -2.404171273962e+02 0.0 
0.0 0.0 -1.028822787974e+02 
-9.552431269287e+01 1.026086053324e+00 0.0 
1.026086053324e+00 -2.204642614893e+02 0.0 
0.0 0.0 -9.439657225466e+01 
-3.111055987799e+01 3.683748707721e-01 0.0 
3.683748707721e-01 -7.660437371838e+01 0.0 
0.0 0.0 -3.191448007891e+01 
-1.397897802628e+02 2.700521094467e+00 0.0 
2.700521094467e+00 -3.314597881671e+02 0.0 
0.0 0.0 -1.409748705290e+02 
-1.197703282623e+02 1.256082981924e+00 0.0 
1.256082981924e+00 -2.776759264735e+02 0.0 
0.0 0.0 -1.188338764208e+02 
-3.678214310461e+01 -9.088402575862e-01 0.0 
-9.088402575862e-01 -9.070396648809e+01 0.0 
0.0 0.0 -3.784583287781e+01 
-1.360565452637e+02 1.370364534880e+00 0.0 
1.370364534880e+00 -3.165680731360e+02 0.0 
0.0 0.0 -1.353873855199e+02 
-1.356413292820e+02 -7.679615077161e-02 0.0 
-7.679615077161e-02 -3.160687010598e+02 0.0 
0.0 0.0 -1.351130091026e+02 
-4.148936695496e+01 5.609501968583e-01 0.0 
5.609501968583e-01 -1.018987911247e+02 0.0 
0.0 0.0 -4.261644742390e+01 
-5.249855846130e+01 3.344391992311e+00 0.0 
3.344391992311e+00 -1.172233258366e+02 0.0 
0.0 0.0 -5.051656528938e+01 
-4.244363486077e+01 4.845156191095e-01 0.0 
4.845156191095e-01 -1.045047433995e+02 0.0 
0.0 0.0 -4.368451347808e+01 
-1.237654106886e+02 1.397234141008e+00 0.0 
1.397234141008e+00 -2.954914398110e+02 0.0 
0.0 0.0 -1.253770551499e+02 
-9.729912759987e+01 -5.093562306349e-01 0.0 
-5.093562306349e-01 -2.352164130972e+02 0.0 
0.0 0.0 -9.935466220911e+01 
-1.365256148072e+02 8.361309461890e-01 0.0 
8.361309461890e-01 -3.172719792851e+02 0.0 
0.0 0.0 -1.357392782277e+02 
-1.321084232877e+02 -2.772537675437e-01 0.0 
-2.772537675437e-01 -3.076235593409e+02 0.0 
0.0 0.0 -1.315195947886e+02 
-1.199378851543e+02 1.495498410237e+00 0.0 
1.495498410237e+00 -2.869784901156e+02 0.0 
0.0 0.0 -1.216749125810e+02 
-1.196288639388e+02 -4.854785244425e-03 0.0 
-4.854785244425e-03 -2.865185726878e+02 0.0 
0.0 0.0 -1.214442309880e+02 
-3.413511576733e+01 -1.046799802636e+00 0.0 
-1.046799802636e+00 -8.454654140389e+01 0.0 
0.0 0.0 -3.520449715137e+01 
-1.234634434965e+02 -1.088696381962e-01 0.0 
-1.088696381962e-01 -2.950333154136e+02 0.0 
0.0 0.0 -1.251490276730e+02 
-1.194363183867e+02 -3.575332925333e-01 0.0 
-3.575332925333e-01 -2.772641437717e+02 0.0 
0.0 0.0 -1.186101386475e+02 
-9.762335709811e+01 9.577810197290e-01 0.0 
9.577810197290e-01 -2.356792943940e+02 0.0 
0.0 0.0 -9.959079544763e+01 
-1.121698479916e+02 1.075797738385e+00 0.0 
1.075797738385e+00 -2.600128766903e+02 0.0 
0.0 0.0 -1.112548174046e+02 
-1.242333805232e+02 1.249024792814e+00 0.0 
1.249024792814e+00 -2.884315105357e+02 0.0 
0.0 0.0 -1.233994673177e+02 
-8.519081212034e+01 2.701831852453e+00 0.0 
2.701831852453e+00 -2.024408904581e+02 0.0 
0.0 0.0 -8.588951077352e+01 
-1.283750665414e+02 -3.929573110047e-01 0.0 
-3.929573110047e-01 -2.988103558597e+02 0.0 
0.0 0.0 -1.277556267203e+02 
-8.103934060418e+01 -7.073971142955e-01 0.0 
-7.073971142955e-01 -1.974164316025e+02 0.0 
0.0 0.0 -8.313673166202e+01 
-9.388314766880e+01 1.036312562741e+00 0.0 
1.036312562741e+00 -2.271644301988e+02 0.0 
0.0 0.0 -9.591427336029e+01 
-6.084867650931e+01 -9.186970778039e-01 0.0 
-9.186970778039e-01 -1.492258937269e+02 0.0 
0.0 0.0 -6.262237107087e+01 
-6.382663755930e+01 9.592872788616e-01 0.0 
9.592872788616e-01 -1.568952224384e+02 0.0 
0.0 0.0 -6.581655799932e+01 
-1.156530535211e+02 -4.513554085092e-01 0.0 
-4.513554085092e-01 -2.684431816086e+02 0.0 
0.0 0.0 -1.148288705389e+02 
-8.895126968609e+01 1.860274915047e+00 0.0 
1.860274915047e+00 -2.163224563158e+02 0.0 
0.0 0.0 -9.118211780056e+01 
-4.597471278843e+01 5.468209770910e-01 0.0 
5.468209770910e-01 -1.129723929887e+02 0.0 
0.0 0.0 -4.728413173314e+01 
-2.332755564545e+01 2.415603898853e-01 0.0 
2.415603898853e-01 -5.730381969575e+01 0.0 
0.0 0.0 -2.378941260236e+01 
-1.159977061049e+02 1.150711060900e+00 0.0 
1.150711060900e+00 -2.688574273150e+02 0.0 
0.0 0.0 -1.150565400260e+02 
-4.554745284754e+01 -9.497490582128e-01 0.0 
-9.497490582128e-01 -1.124593075768e+02 0.0 
0.0 0.0 -4.700202812730e+01 
-1.476114068680e+02 9.661336991357e-01 0.0 
9.661336991357e-01 -3.484576585362e+02 0.0 
0.0 0.0 -1.484207196213e+02 
-1.201835741805e+02 -4.585662462652e-01 0.0 
-4.585662462652e-01 -2.792025905181e+02 0.0 
0.0 0.0 -1.194158494096e+02 
-1.282522829607e+02 9.029877540484e-02 0.0 
9.029877540484e-02 -3.058754920274e+02 0.0 
0.0 0.0 -1.298383324965e+02 
-1.540015750128e+02 3.429725034671e+00 0.0 
3.429725034671e+00 -3.615436605831e+02 0.0 
0.0 0.0 -1.542635706788e+02 
-7.740912526232e+01 9.471975400521e-01 0.0 
9.471975400521e-01 -1.883377872385e+02 0.0 
0.0 0.0 -7.932407375023e+01 
-4.110042325621e+01 -9.773382212001e-01 0.0 
-9.773382212001e-01 -1.013939551508e+02 0.0 
0.0 0.0 -4.234831352210e+01 
-2.626066518534e+01 -1.119397376119e+00 0.0 
-1.119397376119e+00 -6.489757761399e+01 0.0 
0.0 0.0 -2.694747283980e+01 
-1.208687140528e+02 1.793848138389e+00 0.0 
1.793848138389e+00 -2.892070325247e+02 0.0 
0.0 0.0 -1.226227239733e+02 
-1.081387984765e+02 -6.160292171100e-01 0.0 
-6.160292171100e-01 -2.508409402743e+02 0.0 
0.0 0.0 -1.072939216252e+02 
-1.892354722759e+01 -9.479352037804e-01 0.0 
-9.479352037804e-01 -4.612030866198e+01 0.0 
0.0 0.0 -1.911315676687e+01 
-6.212938147716e+01 7.396433025126e-01 0.0 
7.396433025126e-01 -1.519125652510e+02 0.0 
0.0 0.0 -6.381258401845e+01 
-3.630985156909e+01 5.341384088719e-01 0.0 
5.341384088719e-01 -8.868997453123e+01 0.0 
0.0 0.0 -3.709994783010e+01 
-1.077373168271e+02 1.026448968655e+00 0.0 
1.026448968655e+00 -2.493082344483e+02 0.0 
0.0 0.0 -1.067136653826e+02 
-6.587998683869e+01 8.148477457106e-01 0.0 
8.148477457106e-01 -1.604648791216e+02 0.0 
0.0 0.0 -6.750345978808e+01 
-1.120056895658e+02 1.899572402599e-01 0.0 
1.899572402599e-01 -2.694487703715e+02 0.0 
0.0 0.0 -1.140363379812e+02 
-6.100621508405e+01 7.493637711085e-01 0.0 
7.493637711085e-01 -1.495419758853e+02 0.0 
0.0 0.0 -6.276445729079e+01 
-1.294000634911e+02 1.121790112919e+00 0.0 
1.121790112919e+00 -3.011903469763e+02 0.0 
0.0 0.0 -1.287771231402e+02 
-5.356858624560e+01 -8.687031381890e-01 0.0 
-8.687031381890e-01 -1.319651938632e+02 0.0 
0.0 0.0 -5.526013403263e+01 
-1.217546460242e+02 2.119367063459e+00 0.0 
2.119367063459e+00 -2.912659691538e+02 0.0 
0.0 0.0 -1.235061845534e+02 
-3.732551647332e+01 4.880669388901e-01 0.0 
4.880669388901e-01 -9.242158203843e+01 0.0 
0.0 0.0 -3.852412955353e+01 
-1.170472307188e+02 1.887602133014e+00 0.0 
1.887602133014e+00 -2.806115119499e+02 0.0 
0.0 0.0 -1.188976228006e+02 
-8.947980014966e+01 8.022630429448e-01 0.0 
8.022630429448e-01 -2.168550312953e+02 0.0 
0.0 0.0 -9.150044943349e+01 
-1.243869917671e+02 1.943930799344e-01 0.0 
1.943930799344e-01 -2.973192347945e+02 0.0 
0.0 0.0 -1.261118679685e+02 
-5.868760094992e+01 1.804671643630e+00 0.0 
1.804671643630e+00 -1.457568565336e+02 0.0 
0.0 0.0 -6.093333724506e+01 
-3.567894928803e+01 -9.684475428140e-01 0.0 
-9.684475428140e-01 -8.788233687167e+01 0.0 
0.0 0.0 -3.666838584791e+01 
-1.001642885345e+02 9.170695690481e-01 0.0 
9.170695690481e-01 -2.315004737230e+02 0.0 
0.0 0.0 -9.909942867725e+01 
-1.115368046427e+02 3.256262484982e+00 0.0 
3.256262484982e+00 -2.670355461533e+02 0.0 
0.0 0.0 -1.131717052388e+02 
-7.700406393323e+01 1.726626753257e+00 0.0 
1.726626753257e+00 -1.755630149025e+02 0.0 
0.0 0.0 -7.537012365072e+01 
-1.083196000281e+02 1.039506516689e+00 0.0 
1.039506516689e+00 -2.509957315337e+02 0.0 
0.0 0.0 -1.073945994685e+02 
-4.154860249873e+01 6.828460546088e-01 0.0 
6.828460546088e-01 -1.032503042632e+02 0.0 
0.0 0.0 -4.303967202858e+01 
-1.105549493759e+02 -3.344773950116e-01 0.0 
-3.344773950116e-01 -2.559106203626e+02 0.0 
0.0 0.0 -1.095396709215e+02 
-3.233224351839e+01 5.534052584113e-01 0.0 
5.534052584113e-01 -7.978606216868e+01 0.0 
0.0 0.0 -3.323549170612e+01 
-1.389770239596e+02 2.411496437325e+00 0.0 
2.411496437325e+00 -3.297992276207e+02 0.0 
0.0 0.0 -1.402328754741e+02 
-1.162177399646e+02 3.490827669443e+00 0.0 
3.490827669443e+00 -2.771640263149e+02 0.0 
0.0 0.0 -1.176145298838e+02 
-1.227925793189e+02 4.160247344914e+00 0.0 
4.160247344914e+00 -2.889692131990e+02 0.0 
0.0 0.0 -1.231285377554e+02 
-1.406616144884e+02 1.417375579638e+00 0.0 
1.417375579638e+00 -3.279420190719e+02 0.0 
0.0 0.0 -1.401810900681e+02 
-9.724565837263e+01 2.030665323405e+00 0.0 
2.030665323405e+00 -2.354565325845e+02 0.0 
0.0 0.0 -9.941065728713e+01 
-3.325633938164e+01 -1.008061766389e+00 0.0 
-1.008061766389e+00 -8.220951905558e+01 0.0 
0.0 0.0 -3.423975753116e+01 
-1.094317018318e+02 2.074594074573e+00 0.0 
2.074594074573e+00 -2.633416313970e+02 0.0 
0.0 0.0 -1.114319999686e+02 
-1.434367456863e+02 1.085052709706e+00 0.0 
1.085052709706e+00 -3.398004240437e+02 0.0 
0.0 0.0 -1.445711509190e+02 
-5.361578944727e+01 1.154216695186e+00 0.0 
1.154216695186e+00 -1.330764238909e+02 0.0 
0.0 0.0 -5.560766400144e+01 
-1.247035048569e+02 1.702881319281e+00 0.0 
1.702881319281e+00 -2.977826644781e+02 0.0 
0.0 0.0 -1.263458508005e+02 
-1.204487803530e+02 1.158827569499e+00 0.0 
1.158827569499e+00 -2.795859917271e+02 0.0 
0.0 0.0 -1.196104316240e+02 
-4.153980078724e+01 -2.093441997849e-01 0.0 
-2.093441997849e-01 -1.050526462837e+02 0.0 
0.0 0.0 -4.357773412129e+01 
-1.132382432945e+02 1.979360902525e+00 0.0 
1.979360902525e+00 -2.719960076165e+02 0.0 
0.0 0.0 -1.151702752733e+02 
-9.885521115838e+01 1.043661210468e+00 0.0 
1.043661210468e+00 -2.278332258154e+02 0.0 
0.0 0.0 -9.760653109215e+01 
-4.854561479022e+01 5.896532931477e-01 0.0 
5.896532931477e-01 -1.189514533986e+02 0.0 
0.0 0.0 -4.984912045665e+01 
-5.848793145780e+01 7.050802082679e-01 0.0 
7.050802082679e-01 -1.434173942570e+02 0.0 
0.0 0.0 -6.017159771444e+01 
-9.301869947471e+01 3.676034668364e+00 0.0 
3.676034668364e+00 -2.136857994303e+02 0.0 
0.0 0.0 -9.161134967149e+01 
-1.205301580497e+02 3.013015761677e-01 0.0 
3.013015761677e-01 -2.887346416112e+02 0.0 
0.0 0.0 -1.223794398983e+02 
-7.020710693938e+01 2.809328928480e+00 0.0 
2.809328928480e+00 -1.582922471103e+02 0.0 
0.0 0.0 -6.814980621489e+01 
-8.856435175826e+01 3.865438319050e+00 0.0 
3.865438319050e+00 -2.038768263700e+02 0.0 
0.0 0.0 -8.733235343849e+01 
-1.149906558263e+02 -3.483145072907e-01 0.0 
-3.483145072907e-01 -2.665667313388e+02 0.0 
0.0 0.0 -1.140672161495e+02 
-1.035718061039e+02 -6.550598708703e-01 0.0 
-6.550598708703e-01 -2.400249578002e+02 0.0 
0.0 0.0 -1.026790291712e+02 
-1.023416923552e+02 -4.435312812603e-01 0.0 
-4.435312812603e-01 -2.364453956289e+02 0.0 
0.0 0.0 -1.012361263952e+02 
-8.918065003131e+01 -4.826212999516e-01 0.0 
-4.826212999516e-01 -2.163264737510e+02 0.0 
0.0 0.0 -9.125213713469e+01 
-1.359556105192e+02 2.854177051471e+00 0.0 
2.854177051471e+00 -3.228191935097e+02 0.0 
0.0 0.0 -1.372324412087e+02 
-1.056277958149e+02 2.184627259434e+00 0.0 
2.184627259434e+00 -2.546443525976e+02 0.0 
0.0 0.0 -1.076816445238e+02 
-9.931110531828e+01 9.248501024505e-01 0.0 
9.248501024505e-01 -2.296945786775e+02 0.0 
0.0 0.0 -9.830170519873e+01 
-1.409946061802e+02 3.193887453190e+00 0.0 
3.193887453190e+00 -3.265988128487e+02 0.0 
0.0 0.0 -1.398780257087e+02 
-1.273860615248e+02 4.254228179034e+00 0.0 
4.254228179034e+00 -2.988281360251e+02 0.0 
0.0 0.0 -1.274642592650e+02 
-1.166927277712e+02 4.026294023070e-01 0.0 
4.026294023070e-01 -2.801338150005e+02 0.0 
0.0 0.0 -1.186479628315e+02 
-1.239125668572e+02 -3.615655211793e-01 0.0 
-3.615655211793e-01 -2.880254224163e+02 0.0 
0.0 0.0 -1.231813967821e+02 
-6.738154296775e+01 9.842141017773e-01 0.0 
9.842141017773e-01 -1.651763216401e+02 0.0 
0.0 0.0 -6.936735938235e+01 
-6.293121385540e+01 8.267773886778e-01 0.0 
8.267773886778e-01 -1.543207006292e+02 0.0 
0.0 0.0 -6.477557434539e+01 
-3.441800372748e+01 4.367623648877e-01 0.0 
4.367623648877e-01 -8.499321111985e+01 0.0 
0.0 0.0 -3.542336445420e+01 
-1.140875789851e+02 2.326855332183e+00 0.0 
2.326855332183e+00 -2.738699211294e+02 0.0 
0.0 0.0 -1.159872500344e+02 
-6.655642427582e+01 8.489415401913e-01 0.0 
8.489415401913e-01 -1.628249314559e+02 0.0 
0.0 0.0 -6.841440671953e+01 
-1.115432251208e+02 1.162189966551e+00 0.0 
1.162189966551e+00 -2.580992349999e+02 0.0 
0.0 0.0 -1.104927380362e+02 
-1.071016643692e+02 1.176258732763e+00 0.0 
1.176258732763e+00 -2.474010705154e+02 0.0 
0.0 0.0 -1.059508204654e+02 
-8.863064061684e+01 4.005350351542e+00 0.0 
4.005350351542e+00 -2.119779244283e+02 0.0 
0.0 0.0 -8.978256951354e+01 
-5.440532307373e+01 -7.614241587299e-01 0.0 
-7.614241587299e-01 -1.344424367457e+02 0.0 
0.0 0.0 -5.625432794583e+01 
-5.616146730356e+01 2.937014615570e+00 0.0 
2.937014615570e+00 -1.367985281621e+02 0.0 
0.0 0.0 -5.748799863970e+01 
-5.799877581249e+01 -7.576211232647e-01 0.0 
-7.576211232647e-01 -1.428855837348e+02 0.0 
0.0 0.0 -5.986530786419e+01 
-6.243286723250e+01 -6.187444463025e-01 0.0 
-6.187444463025e-01 -1.537902275978e+02 0.0 
0.0 0.0 -6.446692844909e+01 
-3.761209760894e+01 -1.022079746639e+00 0.0 
-1.022079746639e+00 -9.300611784153e+01 0.0 
0.0 0.0 -3.878546463514e+01 
-1.320754914962e+02 3.014291741788e+00 0.0 
3.014291741788e+00 -3.140262265524e+02 0.0 
0.0 0.0 -1.334305154146e+02 
-7.580904827240e+01 5.148192812328e-02 0.0 
5.148192812328e-02 -1.862127687708e+02 0.0 
0.0 0.0 -7.820654511297e+01 
-1.286879217714e+02 1.228045136751e+00 0.0 
1.228045136751e+00 -2.992161396322e+02 0.0 
0.0 0.0 -1.279712184211e+02 
-8.029110993720e+01 3.307957908745e-01 0.0 
3.307957908745e-01 -1.967954669928e+02 0.0 
0.0 0.0 -8.272597307900e+01 
-1.090655248342e+02 6.156540774244e-01 0.0 
6.156540774244e-01 -2.628677041023e+02 0.0 
0.0 0.0 -1.111799686809e+02 
-9.226441425325e+01 3.458625344974e-01 0.0 
3.458625344974e-01 -2.244447049336e+02 0.0 
0.0 0.0 -9.461273575605e+01 
-8.740116502914e+01 4.214894155607e+00 0.0 
4.214894155607e+00 -2.032191688268e+02 0.0 
0.0 0.0 -8.678610015680e+01 
-3.802224132884e+01 4.451312575621e-01 0.0 
4.451312575621e-01 -9.352680686715e+01 0.0 
0.0 0.0 -3.906471445879e+01 
-1.393867197356e+02 1.289097858855e+00 0.0 
1.289097858855e+00 -3.309159871298e+02 0.0 
0.0 0.0 -1.406908120596e+02 
-1.449808027678e+02 3.109533114496e+00 0.0 
3.109533114496e+00 -3.430935159084e+02 0.0 
0.0 0.0 -1.460222956029e+02 
-1.129662768003e+02 1.983303015590e+00 0.0 
1.983303015590e+00 -2.609155458480e+02 0.0 
0.0 0.0 -1.117645467945e+02 
-6.685839277468e+01 -4.530920766164e-01 0.0 
-4.530920766164e-01 -1.646369706349e+02 0.0 
0.0 0.0 -6.904860902288e+01 
-1.006267238949e+02 4.857471682606e-01 0.0 
4.857471682606e-01 -2.436427980367e+02 0.0 
0.0 0.0 -1.028808565795e+02 
-1.111695400553e+02 -4.767340607150e-01 0.0 
-4.767340607150e-01 -2.576682720884e+02 0.0 
0.0 0.0 -1.102513436431e+02 
-7.102178335159e+01 9.810340182755e-01 0.0 
9.810340182755e-01 -1.736745430879e+02 0.0 
0.0 0.0 -7.300889793184e+01 
-7.284190303240e+01 3.830057695433e+00 0.0 
3.830057695433e+00 -1.663099092714e+02 0.0 
0.0 0.0 -7.134554369113e+01 
-5.393978574355e+01 6.297669367385e-01 0.0 
6.297669367385e-01 -1.324537845237e+02 0.0 
0.0 0.0 -5.551807108019e+01 
-4.581530327633e+01 9.236335902968e-01 0.0 
9.236335902968e-01 -1.140436783593e+02 0.0 
0.0 0.0 -4.755769449070e+01 
-7.183101742848e+01 1.178251707055e+00 0.0 
1.178251707055e+00 -1.759697597730e+02 0.0 
0.0 0.0 -7.394023316045e+01 
-4.908825451941e+01 -8.906131670871e-01 0.0 
-8.906131670871e-01 -1.209417774968e+02 0.0 
0.0 0.0 -5.060900960487e+01 
-4.501047235700e+01 5.873871889867e-01 0.0 
5.873871889867e-01 -1.104109438793e+02 0.0 
0.0 0.0 -4.622642487089e+01 
-9.269383434912e+01 1.765413313458e+00 0.0 
1.765413313458e+00 -2.249383201557e+02 0.0 
0.0 0.0 -9.488964635145e+01 
-1.128753277179e+02 5.024198947969e-01 0.0 
5.024198947969e-01 -2.715179502211e+02 0.0 
0.0 0.0 -1.149179833817e+02 
-1.330219559087e+02 2.209705949655e+00 0.0 
2.209705949655e+00 -3.089715942204e+02 0.0 
0.0 0.0 -1.321980650387e+02 
-4.103196985891e+00 -3.088546257167e-01 0.0 
-3.088546257167e-01 -8.942819071365e+00 0.0 
0.0 0.0 -3.513804817177e+00 
-7.741125145251e+01 1.024053866395e+00 0.0 
1.024053866395e+00 -1.899572692888e+02 0.0 
0.0 0.0 -7.981055622239e+01 
-7.660449400281e+01 4.900770482719e-01 0.0 
4.900770482719e-01 -1.882649424469e+02 0.0 
0.0 0.0 -7.906083093491e+01 
-7.131406163020e+01 -2.215561751408e-01 0.0 
-2.215561751408e-01 -1.754611049484e+02 0.0 
0.0 0.0 -7.363254997357e+01 
-1.067408988860e+02 -4.603097243221e-01 0.0 
-4.603097243221e-01 -2.469789719905e+02 0.0 
0.0 0.0 -1.057159612629e+02 
-8.398421772878e+01 1.956441734349e-01 0.0 
1.956441734349e-01 -2.052845169856e+02 0.0 
0.0 0.0 -8.638062041432e+01 
-5.717937231328e+01 -8.612464962904e-01 0.0 
-8.612464962904e-01 -1.405043367756e+02 0.0 
0.0 0.0 -5.890511272666e+01 
-7.630671715159e+01 1.403702456907e+00 0.0 
1.403702456907e+00 -1.867204849557e+02 0.0 
0.0 0.0 -7.850816063220e+01 
-1.245771957439e+02 -4.888495128237e-01 0.0 
-4.888495128237e-01 -2.899567823963e+02 0.0 
0.0 0.0 -1.239601934421e+02 
-5.739293950824e+01 6.716518091123e-01 0.0 
6.716518091123e-01 -1.409354651083e+02 0.0 
0.0 0.0 -5.909852138496e+01 
-2.202500358448e+01 -9.474007788499e-01 0.0 
-9.474007788499e-01 -5.408321532687e+01 0.0 
0.0 0.0 -2.243246567341e+01 
-2.979399864865e+01 -1.007787453806e+00 0.0 
-1.007787453806e+00 -7.372542938225e+01 0.0 
0.0 0.0 -3.065582840927e+01 
-4.870878043829e+01 -4.230256319294e-01 0.0 
-4.230256319294e-01 -1.218453511691e+02 0.0 
0.0 0.0 -5.076623948222e+01 
-5.884353572493e+01 -5.900832449886e-01 0.0 
-5.900832449886e-01 -1.454384854735e+02 0.0 
0.0 0.0 -6.088460635952e+01 
-8.108637923570e+01 7.986470181415e-01 0.0 
7.986470181415e-01 -1.986031136905e+02 0.0 
0.0 0.0 -8.350684787786e+01 
-8.077161862535e+01 1.669853232789e+00 0.0 
1.669853232789e+00 -1.973132566032e+02 0.0 
0.0 0.0 -8.302546256855e+01 
-3.369858140880e+01 5.884258423406e-01 0.0 
5.884258423406e-01 -8.368066606499e+01 0.0 
0.0 0.0 -3.481377424214e+01 
-2.985470799878e+01 4.795768282584e-01 0.0 
4.795768282584e-01 -7.406402772905e+01 0.0 
0.0 0.0 -3.077562071835e+01 
-1.016586058789e+02 1.391287424516e+00 0.0 
1.391287424516e+00 -2.343419502781e+02 0.0 
0.0 0.0 -1.004001668471e+02 
-4.948460768661e+01 6.297875604381e-01 0.0 
6.297875604381e-01 -1.214415284148e+02 0.0 
0.0 0.0 -5.087784083043e+01 
-1.270181500832e+02 1.256133748976e+00 0.0 
1.256133748976e+00 -3.031258438248e+02 0.0 
0.0 0.0 -1.286431981724e+02 
-1.288303635155e+02 2.218480997146e+00 0.0 
2.218480997146e+00 -2.990813963070e+02 0.0 
0.0 0.0 -1.279735279468e+02 
-1.045424242432e+02 1.948615639712e+00 0.0 
1.948615639712e+00 -2.393815697538e+02 0.0 
0.0 0.0 -1.027771981991e+02 
-1.306855179141e+02 3.512088493653e-02 0.0 
3.512088493653e-02 -3.037636218336e+02 0.0 
0.0 0.0 -1.299347419243e+02 
-1.373262067771e+02 2.156119807187e+00 0.0 
2.156119807187e+00 -3.188833539220e+02 0.0 
0.0 0.0 -1.364628682097e+02 
-8.506996705260e+01 4.203219419817e+00 0.0 
4.203219419817e+00 -2.027116448288e+02 0.0 
0.0 0.0 -8.593448356441e+01 
-1.208839776247e+02 2.090015470011e+00 0.0 
2.090015470011e+00 -2.799475082635e+02 0.0 
0.0 0.0 -1.198494457665e+02 
-3.811867677464e+01 6.783894534304e-01 0.0 
6.783894534304e-01 -9.490224001902e+01 0.0 
0.0 0.0 -3.950627503810e+01 
-7.996459110511e+01 1.354929728933e+00 0.0 
1.354929728933e+00 -1.951716891754e+02 0.0 
0.0 0.0 -8.214088408415e+01 
-7.833161195027e+01 2.845638207394e+00 0.0 
2.845638207394e+00 -1.837842535898e+02 0.0 
0.0 0.0 -7.823475966203e+01 
-4.210744520782e+01 5.859789245436e-01 0.0 
5.859789245436e-01 -1.074413479270e+02 0.0 
0.0 0.0 -4.446463794045e+01 
-3.056317395310e+01 4.920384305195e-01 0.0 
4.920384305195e-01 -7.578738333042e+01 0.0 
0.0 0.0 -3.150516718506e+01 
-6.608385259814e+01 -6.247097840079e-01 0.0 
-6.247097840079e-01 -1.623021861626e+02 0.0 
0.0 0.0 -6.811581162823e+01 
-7.708463289030e+01 1.784870045735e+00 0.0 
1.784870045735e+00 -1.887877120919e+02 0.0 
0.0 0.0 -7.936170349466e+01 
-8.150409528612e+01 2.114270264044e+00 0.0 
2.114270264044e+00 -1.990815848484e+02 0.0 
0.0 0.0 -8.377570404035e+01 
-5.261451859004e+01 -8.120899655367e-01 0.0 
-8.120899655367e-01 -1.294375613284e+02 0.0 
0.0 0.0 -5.421562397553e+01 
-8.851411732917e+01 4.740643527989e-01 0.0 
4.740643527989e-01 -2.158336618550e+02 0.0 
0.0 0.0 -9.090433375525e+01 
-7.780175586827e+01 2.285905174758e+00 0.0 
2.285905174758e+00 -1.904350091901e+02 0.0 
0.0 0.0 -8.007102951752e+01 
-8.192376879777e+01 1.362771968057e+00 0.0 
1.362771968057e+00 -2.000512443039e+02 0.0 
0.0 0.0 -8.419250393049e+01 
-5.937187690660e+01 7.998904623207e-01 0.0 
7.998904623207e-01 -1.459584125634e+02 0.0 
0.0 0.0 -6.119908684101e+01 
-1.171900183884e+02 3.851114047420e+00 0.0 
3.851114047420e+00 -2.782012316998e+02 0.0 
0.0 0.0 -1.182173750265e+02 
-1.153240334790e+02 1.275299050450e+00 0.0 
1.275299050450e+00 -2.669769363645e+02 0.0 
0.0 0.0 -1.142902909531e+02 
-7.830748947253e+01 1.621927401110e+00 0.0 
1.621927401110e+00 -1.913016351029e+02 0.0 
0.0 0.0 -8.048273737263e+01 
-1.356644693881e+02 1.382561666898e+00 0.0 
1.382561666898e+00 -3.223765966602e+02 0.0 
0.0 0.0 -1.370123198145e+02 
-4.228102287665e+01 9.980815205705e-01 0.0 
9.980815205705e-01 -1.056261649724e+02 0.0 
0.0 0.0 -4.397215635471e+01 
-1.454842235916e+02 1.890659571942e+00 0.0 
1.890659571942e+00 -3.439102240175e+02 0.0 
0.0 0.0 -1.464183342827e+02 
-8.477253517942e+01 6.174445357213e-01 0.0 
6.174445357213e-01 -2.071790822785e+02 0.0 
0.0 0.0 -8.718548523737e+01 
-1.423627018230e+02 1.910602766990e+00 0.0 
1.910602766990e+00 -3.305456020669e+02 0.0 
0.0 0.0 -1.414724911670e+02 
-1.069145699208e+02 2.825821759464e+00 0.0 
2.825821759464e+00 -2.448659953144e+02 0.0 
0.0 0.0 -1.051341695706e+02 
-4.092820808959e+01 -6.380255468276e-01 0.0 
-6.380255468276e-01 -1.026971855568e+02 0.0 
0.0 0.0 -4.268761809393e+01 
-1.081845795225e+02 2.186232773013e+00 0.0 
2.186232773013e+00 -2.478929567984e+02 0.0 
0.0 0.0 -1.064232608963e+02 
-1.337191610724e+02 3.754446498505e-01 0.0 
3.754446498505e-01 -3.106291103553e+02 0.0 
0.0 0.0 -1.329044814283e+02 
-8.930179183985e+01 9.276959949818e-01 0.0 
9.276959949818e-01 -2.174952927051e+02 0.0 
0.0 0.0 -9.163912536349e+01 
-6.291235625445e+01 4.461748747939e+00 0.0 
4.461748747939e+00 -1.450171402185e+02 0.0 
0.0 0.0 -6.197884894188e+01 
-1.118333234500e+02 2.430785464999e+00 0.0 
2.430785464999e+00 -2.564768634358e+02 0.0 
0.0 0.0 -1.100930560657e+02 
-8.491146505128e+01 1.837450617952e+00 0.0 
1.837450617952e+00 -1.943851213634e+02 0.0 
0.0 0.0 -8.338897592440e+01 
-3.317653688242e+01 -8.530433888734e-01 0.0 
-8.530433888734e-01 -8.312285872603e+01 0.0 
0.0 0.0 -3.448981868253e+01 
-1.471867030522e+02 1.781374780314e-01 0.0 
1.781374780314e-01 -3.432185811220e+02 0.0 
0.0 0.0 -1.467215852523e+02 
-2.895180229815e+01 -1.004425207399e+00 0.0 
-1.004425207399e+00 -7.243955164624e+01 0.0 
0.0 0.0 -3.001740618332e+01 
-1.434166546687e+02 4.355407716427e+00 0.0 
4.355407716427e+00 -3.366051739198e+02 0.0 
0.0 0.0 -1.436065485765e+02 
-1.364583218699e+02 -3.056110668395e-01 0.0 
-3.056110668395e-01 -3.182360794283e+02 0.0 
0.0 0.0 -1.360083203894e+02 
-1.209269941813e+02 3.723764965878e+00 0.0 
3.723764965878e+00 -2.872904458333e+02 0.0 
0.0 0.0 -1.220652320044e+02 
-1.028246296525e+02 -6.355716361060e-01 0.0 
-6.355716361060e-01 -2.379435076310e+02 0.0 
0.0 0.0 -1.018304411851e+02 
-1.273229752363e+02 1.517636694795e+00 0.0 
1.517636694795e+00 -2.954043204632e+02 0.0 
0.0 0.0 -1.264181887098e+02 
-8.223049223441e+01 2.641792975176e+00 0.0 
2.641792975176e+00 -2.004787553647e+02 0.0 
0.0 0.0 -8.441277427973e+01 
-9.687606923828e+01 3.976311839804e+00 0.0 
3.976311839804e+00 -2.309275535453e+02 0.0 
0.0 0.0 -9.794108683508e+01 
-1.389163447768e+02 1.315583187051e-01 0.0 
1.315583187051e-01 -3.231952008922e+02 0.0 
0.0 0.0 -1.382334637007e+02 
-1.214054063382e+02 6.284900800810e-01 0.0 
6.284900800810e-01 -2.907855117721e+02 0.0 
0.0 0.0 -1.232572754331e+02 
-1.191457974606e+02 1.389726111630e+00 0.0 
1.389726111630e+00 -2.758597015018e+02 0.0 
0.0 0.0 -1.181016496887e+02 
-1.151337998812e+02 1.620161809472e+00 0.0 
1.620161809472e+00 -2.757313098490e+02 0.0 
0.0 0.0 -1.168595329190e+02 
-3.739927896374e+01 -5.558738923831e-01 0.0 
-5.558738923831e-01 -9.431939032198e+01 0.0 
0.0 0.0 -3.911560078571e+01 
-1.229581917956e+02 1.533737027291e+00 0.0 
1.533737027291e+00 -2.846939461497e+02 0.0 
0.0 0.0 -1.218956413836e+02 
-1.522225422185e+02 3.611598331091e+00 0.0 
3.611598331091e+00 -3.544120712484e+02 0.0 
0.0 0.0 -1.515903840401e+02 
-1.447114153350e+02 1.430123555365e+00 0.0 
1.430123555365e+00 -3.424454292179e+02 0.0 
0.0 0.0 -1.457470533659e+02 
-7.948387704366e+01 -5.339019349507e-02 0.0 
-5.339019349507e-02 -1.946604939012e+02 0.0 
0.0 0.0 -8.184331128344e+01 
-1.031931960546e+02 1.091536889015e+00 0.0 
1.091536889015e+00 -2.383306146405e+02 0.0 
0.0 0.0 -1.020571432085e+02 
-9.837920032751e+01 -6.275575957895e-01 0.0 
-6.275575957895e-01 -2.273565346024e+02 0.0 
0.0 0.0 -9.732072047898e+01 
-8.519797800335e+01 1.986153925544e+00 0.0 
1.986153925544e+00 -2.076603095808e+02 0.0 
0.0 0.0 -8.745748627526e+01 
-1.175729607190e+02 7.381807073058e-01 0.0 
7.381807073058e-01 -2.821151993130e+02 0.0 
0.0 0.0 -1.195064480096e+02 
-1.222908113600e+02 9.888719078224e-01 0.0 
9.888719078224e-01 -2.926457936479e+02 0.0 
0.0 0.0 -1.240809815024e+02 
-2.665404411407e+01 4.536495331488e-01 0.0 
4.536495331488e-01 -6.541824750639e+01 0.0 
0.0 0.0 -2.722168748614e+01 
-4.806805620666e+01 3.037187707312e+00 0.0 
3.037187707312e+00 -1.182777597517e+02 0.0 
0.0 0.0 -4.950374478752e+01 
-8.292001002365e+01 1.925620885697e+00 0.0 
1.925620885697e+00 -2.012404019156e+02 0.0 
0.0 0.0 -8.484812358178e+01 
-7.855173800145e+01 2.891091339394e+00 0.0 
2.891091339394e+00 -1.917099605065e+02 0.0 
0.0 0.0 -8.067850955238e+01 
-8.397821537484e+01 2.321984613957e+00 0.0 
2.321984613957e+00 -1.936773007496e+02 0.0 
0.0 0.0 -8.289665483732e+01 
-1.436155273419e+02 1.658677742880e+00 0.0 
1.658677742880e+00 -3.340915987371e+02 0.0 
0.0 0.0 -1.429121378237e+02 
-1.360114847059e+02 1.147536043266e+00 0.0 
1.147536043266e+00 -3.157380605883e+02 0.0 
0.0 0.0 -1.351248635883e+02 
-1.367503991998e+02 1.261631760506e+00 0.0 
1.261631760506e+00 -3.185361907564e+02 0.0 
0.0 0.0 -1.361859769869e+02 
-7.459120246536e+01 2.602112341020e+00 0.0 
2.602112341020e+00 -1.684149643489e+02 0.0 
0.0 0.0 -7.250185004428e+01 
-1.256570024274e+02 2.401450544552e-01 0.0 
2.401450544552e-01 -2.911979203035e+02 0.0 
0.0 0.0 -1.246564768193e+02 
-1.179146769766e+02 2.216767286038e+00 0.0 
2.216767286038e+00 -2.825819222445e+02 0.0 
0.0 0.0 -1.197489797663e+02 
-1.394734650849e+02 -8.395584479947e-02 0.0 
-8.395584479947e-02 -3.252171698231e+02 0.0 
0.0 0.0 -1.390071904724e+02 
-1.185815114604e+02 1.551039820208e+00 0.0 
1.551039820208e+00 -2.739911463538e+02 0.0 
0.0 0.0 -1.173717973443e+02 
-8.444816685187e+01 1.595076195084e+00 0.0 
1.595076195084e+00 -2.057918158241e+02 0.0 
0.0 0.0 -8.667199480279e+01 
-7.935620074789e+01 2.197664145006e+00 0.0 
2.197664145006e+00 -1.922863547111e+02 0.0 
0.0 0.0 -8.109276663769e+01 
-1.225219374299e+02 -9.029001039919e-02 0.0 
-9.029001039919e-02 -2.842373888505e+02 0.0 
0.0 0.0 -1.216277978841e+02 
-1.355043741689e+02 1.643399171192e+00 0.0 
1.643399171192e+00 -3.149757315013e+02 0.0 
0.0 0.0 -1.347440317010e+02 
-1.232055209429e+02 -2.533928172436e-01 0.0 
-2.533928172436e-01 -2.861169111850e+02 0.0 
0.0 0.0 -1.223967296384e+02 
-1.187610373212e+02 -2.302029333019e-01 0.0 
-2.302029333019e-01 -2.754262040925e+02 0.0 
0.0 0.0 -1.178561724241e+02 
-1.347496310745e+02 9.658973816085e-01 0.0 
9.658973816085e-01 -3.206326139149e+02 0.0 
0.0 0.0 -1.362146734968e+02 
-1.396613906481e+02 4.348494529403e+00 0.0 
4.348494529403e+00 -3.275136705301e+02 0.0 
0.0 0.0 -1.397525183534e+02 
-1.308985270676e+02 1.107281617533e+00 0.0 
1.107281617533e+00 -3.118910809843e+02 0.0 
0.0 0.0 -1.324368824156e+02 
-1.044100334452e+02 3.766923999313e-01 0.0 
3.766923999313e-01 -2.522645749736e+02 0.0 
0.0 0.0 -1.066023825256e+02 
-7.146198538983e+01 1.208439527529e-01 0.0 
1.208439527529e-01 -1.617126253303e+02 0.0 
0.0 0.0 -6.955238321603e+01 
-1.255194856450e+02 3.889177780241e+00 0.0 
3.889177780241e+00 -2.971997751665e+02 0.0 
0.0 0.0 -1.264157782434e+02 
-1.170200356734e+02 2.604823246527e-01 0.0 
2.604823246527e-01 -2.701443777369e+02 0.0 
0.0 0.0 -1.157493240231e+02 
-4.463610127014e+01 -8.902520751409e-01 0.0 
-8.902520751409e-01 -1.099324400067e+02 0.0 
0.0 0.0 -4.597056238307e+01 
-8.306952773185e+01 3.235501924146e+00 0.0 
3.235501924146e+00 -2.016059562115e+02 0.0 
0.0 0.0 -8.500264518302e+01 
-9.470854842794e+01 1.731558413616e+00 0.0 
1.731558413616e+00 -2.287760204083e+02 0.0 
0.0 0.0 -9.664537065086e+01 
-1.051649324479e+02 3.961469632156e+00 0.0 
3.961469632156e+00 -2.499634633478e+02 0.0 
0.0 0.0 -1.061385187387e+02 
-4.254116695999e+01 1.453830244300e+00 0.0 
1.453830244300e+00 -1.084729669976e+02 0.0 
0.0 0.0 -4.490424018728e+01 
-7.943217962288e+01 3.509632590061e+00 0.0 
3.509632590061e+00 -1.926352300783e+02 0.0 
0.0 0.0 -8.122022291036e+01 
-1.134898993928e+02 3.973219901745e+00 0.0 
3.973219901745e+00 -2.690601767798e+02 0.0 
0.0 0.0 -1.143650228518e+02 
-8.283911144616e+01 5.706734144489e-01 0.0 
5.706734144489e-01 -1.883084867229e+02 0.0 
0.0 0.0 -8.094427945072e+01 
-8.771368028897e+01 9.967413019403e-02 0.0 
9.967413019403e-02 -2.138411218987e+02 0.0 
0.0 0.0 -9.006644065629e+01 
-1.103819455794e+02 1.421905792710e+00 0.0 
1.421905792710e+00 -2.543958595115e+02 0.0 
0.0 0.0 -1.090333415273e+02 
-8.573383764694e+01 -6.095108710060e-01 0.0 
-6.095108710060e-01 -1.976449272502e+02 0.0 
0.0 0.0 -8.461362946914e+01 
-9.013108940407e+00 9.483994631554e-01 0.0 
9.483994631554e-01 -2.040675601829e+01 0.0 
0.0 0.0 -8.425959487608e+00 
-1.010229695549e+02 1.925864916781e+00 0.0 
1.925864916781e+00 -2.441258514285e+02 0.0 
0.0 0.0 -1.031446462950e+02 
-1.244697665050e+02 2.102170520178e+00 0.0 
2.102170520178e+00 -2.958961452131e+02 0.0 
0.0 0.0 -1.257097735154e+02 
-1.402632530480e+02 9.563532448449e-01 0.0 
9.563532448449e-01 -3.259817149425e+02 0.0 
0.0 0.0 -1.394734903971e+02 
-9.221914835974e+01 2.365530005888e+00 0.0 
2.365530005888e+00 -2.208437705566e+02 0.0 
0.0 0.0 -9.351887567490e+01 
-9.602431796998e+01 2.396149248862e-01 0.0 
2.396149248862e-01 -2.330445704155e+02 0.0 
0.0 0.0 -9.832066651565e+01 
-1.108904300103e+02 1.268414944285e+00 0.0 
1.268414944285e+00 -2.563124670387e+02 0.0 
0.0 0.0 -1.097608691147e+02 
-1.743593936078e+01 2.655285761829e-01 0.0 
2.655285761829e-01 -3.943341722172e+01 0.0 
0.0 0.0 -1.666080697475e+01 
-1.207407482561e+02 2.231505349275e+00 0.0 
2.231505349275e+00 -2.868895706740e+02 0.0 
0.0 0.0 -1.218890956791e+02 
-1.005026820158e+02 3.794096673311e+00 0.0 
3.794096673311e+00 -2.400953177919e+02 0.0 
0.0 0.0 -1.017793999423e+02 
-8.759780290710e+01 2.185639039153e+00 0.0 
2.185639039153e+00 -1.988971005682e+02 0.0 
0.0 0.0 -8.554847104258e+01 
-1.226112243470e+02 2.462594906697e+00 0.0 
2.462594906697e+00 -2.931002000994e+02 0.0 
0.0 0.0 -1.243134273339e+02 
-4.292440353029e+01 1.519098242935e+00 0.0 
1.519098242935e+00 -1.079601902521e+02 0.0 
0.0 0.0 -4.486537813472e+01 
-1.273404042776e+02 2.729002588617e+00 0.0 
2.729002588617e+00 -3.035831471345e+02 0.0 
0.0 0.0 -1.288770654236e+02 
-1.404382532388e+02 1.613117374785e+00 0.0 
1.613117374785e+00 -3.329168628066e+02 0.0 
0.0 0.0 -1.416065348136e+02 
-1.170429393992e+02 2.355430591021e+00 0.0 
2.355430591021e+00 -2.778176500922e+02 0.0 
0.0 0.0 -1.180581768474e+02 
-1.235398017787e+02 1.372639093189e+00 0.0 
1.372639093189e+00 -2.865371798106e+02 0.0 
0.0 0.0 -1.226230944768e+02 
-1.284109880813e+02 4.108585738238e+00 0.0 
4.108585738238e+00 -2.986383940270e+02 0.0 
0.0 0.0 -1.277148146325e+02 
-1.408133107343e+02 3.184364987593e+00 0.0 
3.184364987593e+00 -3.333614528071e+02 0.0 
0.0 0.0 -1.418524290624e+02 
-2.621143967670e+01 -1.089169105429e-01 0.0 
-1.089169105429e-01 -5.919216601275e+01 0.0 
0.0 0.0 -2.522108170684e+01 
-1.147731188393e+02 1.384216935469e+00 0.0 
1.384216935469e+00 -2.651718365904e+02 0.0 
0.0 0.0 -1.135834866289e+02 
-1.400964802608e+02 4.360598610011e+00 0.0 
4.360598610011e+00 -3.276888900044e+02 0.0 
0.0 0.0 -1.399356110796e+02 
-1.269386485606e+02 -1.206437505511e-01 0.0 
-1.206437505511e-01 -2.949636801127e+02 0.0 
0.0 0.0 -1.261706986020e+02 
-1.087378856228e+02 2.333560542776e+00 0.0 
2.333560542776e+00 -2.587632461605e+02 0.0 
0.0 0.0 -1.098503395350e+02 
-8.399575919117e+01 3.798096042233e+00 0.0 
3.798096042233e+00 -2.022887328237e+02 0.0 
0.0 0.0 -8.548534760445e+01 
-9.442268239411e+01 -2.674686077989e-01 0.0 
-2.674686077989e-01 -2.288712261707e+02 0.0 
0.0 0.0 -9.658817256943e+01 
-2.328421909011e+01 1.223300667144e+00 0.0 
1.223300667144e+00 -6.268575784258e+01 0.0 
0.0 0.0 -2.539099307981e+01 
-1.313729355187e+02 -1.658621581328e-01 0.0 
-1.658621581328e-01 -3.056584762011e+02 0.0 
0.0 0.0 -1.307094235159e+02 
-4.825775112103e+01 -8.979270971357e-01 0.0 
-8.979270971357e-01 -1.185544333678e+02 0.0 
0.0 0.0 -4.964365534664e+01 
-3.478476588278e+01 -1.423637904825e-01 0.0 
-1.423637904825e-01 -7.826366399967e+01 0.0 
0.0 0.0 -3.351452896474e+01 
-1.247894118791e+02 3.912830256117e+00 0.0 
3.912830256117e+00 -2.894457021345e+02 0.0 
0.0 0.0 -1.238705342041e+02 
-1.404355673814e+02 -2.115091496322e-01 0.0 
-2.115091496322e-01 -3.275475543713e+02 0.0 
0.0 0.0 -1.399949365258e+02 
-3.880329957771e+01 1.076313116924e+00 0.0 
1.076313116924e+00 -9.740811658932e+01 0.0 
0.0 0.0 -4.046342485011e+01 
-9.743876161168e+01 3.499126267058e+00 0.0 
3.499126267058e+00 -2.235746292567e+02 0.0 
0.0 0.0 -9.590401726052e+01 
-1.181365500755e+02 -8.915246357598e-02 0.0 
-8.915246357598e-02 -2.735325022922e+02 0.0 
0.0 0.0 -1.171007157103e+02 
-9.190750566588e+01 1.464389392261e+00 0.0 
1.464389392261e+00 -2.229566413567e+02 0.0 
0.0 0.0 -9.405924410679e+01 
-4.320860469273e+01 2.497166015164e+00 0.0 
2.497166015164e+00 -1.089914197712e+02 0.0 
0.0 0.0 -4.526000733919e+01 
-5.840311735069e+01 2.928019160067e+00 0.0 
2.928019160067e+00 -1.351883400416e+02 0.0 
0.0 0.0 -5.767743721768e+01 
-3.011154765119e+01 -6.531586134617e-01 0.0 
-6.531586134617e-01 -7.532264252269e+01 0.0 
0.0 0.0 -3.123025705216e+01 
-3.806340514539e+01 -2.188784281189e-02 0.0 
-2.188784281189e-02 -9.689860476767e+01 0.0 
0.0 0.0 -4.008860297392e+01 
-3.396963454509e+01 -4.490057502849e-01 0.0 
-4.490057502849e-01 -8.637080997194e+01 0.0 
0.0 0.0 -3.570213335511e+01 
-1.004644177664e+02 2.340787555477e+00 0.0 
2.340787555477e+00 -2.397690401238e+02 0.0 
0.0 0.0 -1.016700373671e+02 
-1.571496375800e+02 1.519570362211e+00 0.0 
1.519570362211e+00 -3.663491700115e+02 0.0 
0.0 0.0 -1.566496422774e+02 
-4.330515294582e+01 -2.331580965879e-01 0.0 
-2.331580965879e-01 -9.757115612872e+01 0.0 
0.0 0.0 -4.186289272236e+01 
-1.386674763830e+02 8.810219182618e-01 0.0 
8.810219182618e-01 -3.293128255753e+02 0.0 
0.0 0.0 -1.399940905875e+02 
-7.237886947026e+01 2.722692772363e+00 0.0 
2.722692772363e+00 -1.740841870779e+02 0.0 
0.0 0.0 -7.353891696446e+01 
-1.142366338442e+02 1.580790679099e+00 0.0 
1.580790679099e+00 -2.634206978103e+02 0.0 
0.0 0.0 -1.128971994964e+02 
-3.094319329564e+01 1.699032312817e+00 0.0 
1.699032312817e+00 -8.123317543551e+01 0.0 
0.0 0.0 -3.325291061935e+01 
-1.455247924877e+02 3.409679847867e+00 0.0 
3.409679847867e+00 -3.438036391973e+02 0.0 
0.0 0.0 -1.463985295055e+02 
-3.487650499324e+01 6.612673814823e-01 0.0 
6.612673814823e-01 -8.690801919142e+01 0.0 
0.0 0.0 -3.613535725540e+01 
-5.663622420460e+01 -8.440393329787e-01 0.0 
-8.440393329787e-01 -1.386928733411e+02 0.0 
0.0 0.0 -5.819872926371e+01 
-1.216807253729e+02 2.479377071246e+00 0.0 
2.479377071246e+00 -2.877958857209e+02 0.0 
0.0 0.0 -1.224429833281e+02 
-8.590951670947e+01 2.452206699180e+00 0.0 
2.452206699180e+00 -2.091496760176e+02 0.0 
0.0 0.0 -8.811775781812e+01 
-1.358165248421e+02 4.306295421620e+00 0.0 
4.306295421620e+00 -3.182350960063e+02 0.0 
0.0 0.0 -1.358154862545e+02 
-6.490987087843e+01 3.847354395368e+00 0.0 
3.847354395368e+00 -1.472377805564e+02 0.0 
0.0 0.0 -6.324429543044e+01 
-1.217717309708e+02 1.855573616152e+00 0.0 
1.855573616152e+00 -2.811326129206e+02 0.0 
0.0 0.0 -1.204713031674e+02 
-1.431669947631e+02 2.753230886490e+00 0.0 
2.753230886490e+00 -3.361484209255e+02 0.0 
0.0 0.0 -1.433946247066e+02 
-1.143325171328e+02 -2.379228673128e-01 0.0 
-2.379228673128e-01 -2.647278263886e+02 0.0 
0.0 0.0 -1.133181030564e+02 
-1.405465162252e+02 2.596041048495e+00 0.0 
2.596041048495e+00 -3.264541238477e+02 0.0 
0.0 0.0 -1.397001920219e+02 
-1.267000614224e+02 1.679751785580e+00 0.0 
1.679751785580e+00 -2.934515647295e+02 0.0 
0.0 0.0 -1.256454878456e+02 
-1.304309063792e+02 1.835396931938e+00 0.0 
1.835396931938e+00 -3.022811622508e+02 0.0 
0.0 0.0 -1.294136205890e+02 
-3.675148570541e+01 3.600159091236e+00 0.0 
3.600159091236e+00 -9.031014735428e+01 0.0 
0.0 0.0 -3.771848991791e+01 
-1.338339668982e+02 6.728618089392e-01 0.0 
6.728618089392e-01 -3.185676892769e+02 0.0 
0.0 0.0 -1.353204968525e+02 
-1.219323169782e+02 8.123391278469e-02 0.0 
8.123391278469e-02 -2.823990482467e+02 0.0 
0.0 0.0 -1.208994095675e+02 
-8.978355707066e+01 2.707903257571e+00 0.0 
2.707903257571e+00 -2.119240673283e+02 0.0 
0.0 0.0 -9.011228731968e+01 
-5.163571605498e+01 -3.825217006189e-01 0.0 
-3.825217006189e-01 -1.169608426972e+02 0.0 
0.0 0.0 -5.017896762566e+01 
-1.480446618104e+02 4.484666831738e+00 0.0 
4.484666831738e+00 -3.464575469349e+02 0.0 
0.0 0.0 -1.479506626236e+02 
-4.339060651892e+01 2.589867975999e+00 0.0 
2.589867975999e+00 -1.090828549043e+02 0.0 
0.0 0.0 -4.534203842696e+01 
-5.310013783478e+01 7.217093540923e-01 0.0 
7.217093540923e-01 -1.299613421554e+02 0.0 
0.0 0.0 -5.451844399705e+01 
-1.309493826991e+02 2.602869633093e+00 0.0 
2.602869633093e+00 -3.078217650623e+02 0.0 
0.0 0.0 -1.312313443284e+02 
-3.231577879854e+01 5.796128169334e-01 0.0 
5.796128169334e-01 -7.962201978468e+01 0.0 
0.0 0.0 -3.318133957497e+01 
-9.196550541606e+01 4.043176928437e+00 0.0 
4.043176928437e+00 -2.129376379941e+02 0.0 
0.0 0.0 -9.107094302304e+01 
-1.253424092426e+02 2.420430887429e+00 0.0 
2.420430887429e+00 -2.968438096383e+02 0.0 
0.0 0.0 -1.262558656643e+02 
-1.382303351904e+02 1.870255965497e+00 0.0 
1.870255965497e+00 -3.211903155889e+02 0.0 
0.0 0.0 -1.374261952338e+02 
-1.420121318395e+02 2.041832017651e+00 0.0 
2.041832017651e+00 -3.303745842730e+02 0.0 
0.0 0.0 -1.413160148337e+02 
-1.218237428294e+02 4.010446616522e+00 0.0 
4.010446616522e+00 -2.881756976590e+02 0.0 
0.0 0.0 -1.225998321465e+02 
-1.310715427181e+02 1.667319745143e+00 0.0 
1.667319745143e+00 -3.042062634704e+02 0.0 
0.0 0.0 -1.301833418566e+02 
-7.706193138076e+01 2.805557401156e+00 0.0 
2.805557401156e+00 -1.835864112331e+02 0.0 
0.0 0.0 -7.779450278415e+01 
-1.255929824935e+02 3.695336941429e+00 0.0 
3.695336941429e+00 -2.904927870998e+02 0.0 
0.0 0.0 -1.244257308780e+02 
-6.006653200599e+01 -4.510091258004e-01 0.0 
-4.510091258004e-01 -1.364970152100e+02 0.0 
0.0 0.0 -5.856906416481e+01 
-1.385076589571e+02 1.608980791584e+00 0.0 
1.608980791584e+00 -3.219993886125e+02 0.0 
0.0 0.0 -1.377521142709e+02 
-6.840532887649e+01 -4.403708952383e-01 0.0 
-4.403708952383e-01 -1.560552360748e+02 0.0 
0.0 0.0 -6.693816948539e+01 
-7.313401801671e+01 -2.856334559348e-01 0.0 
-2.856334559348e-01 -1.659129663635e+02 0.0 
0.0 0.0 -7.131409531405e+01 
-8.868984187057e+01 2.547962126262e+00 0.0 
2.547962126262e+00 -2.116970281361e+02 0.0 
0.0 0.0 -8.971606100199e+01 
-7.689754329212e+01 -4.932052724209e-01 0.0 
-4.932052724209e-01 -1.758591436324e+02 0.0 
0.0 0.0 -7.542700607737e+01 
-1.033306693239e+02 4.117725660067e+00 0.0 
4.117725660067e+00 -2.408992262673e+02 0.0 
0.0 0.0 -1.028689686774e+02 
-8.278947149821e+01 4.360996989278e+00 0.0 
4.360996989278e+00 -1.935809283718e+02 0.0 
0.0 0.0 -8.251111996100e+01 
-8.761130251368e+01 3.547295017682e+00 0.0 
3.547295017682e+00 -2.113625949803e+02 0.0 
0.0 0.0 -8.929216924819e+01 
-3.824628202430e+01 7.894559338311e-01 0.0 
7.894559338311e-01 -9.832721332128e+01 0.0 
0.0 0.0 -4.057204860367e+01 
-8.401004445840e+01 2.406558135827e+00 0.0 
2.406558135827e+00 -2.019923013504e+02 0.0 
0.0 0.0 -8.540070374264e+01 
-1.351043360454e+02 -6.236725759133e-03 0.0 
-6.236725759133e-03 -3.145245658449e+02 0.0 
0.0 0.0 -1.344886705671e+02 
-1.404480713721e+02 1.104174004968e+00 0.0 
1.104174004968e+00 -3.262145011884e+02 0.0 
0.0 0.0 -1.395987717682e+02 
-1.252419889464e+02 5.319313367955e-01 0.0 
5.319313367955e-01 -2.993903146055e+02 0.0 
0.0 0.0 -1.269896910656e+02 
-1.392705995936e+02 2.739137805225e+00 0.0 
2.739137805225e+00 -3.270048998249e+02 0.0 
0.0 0.0 -1.394826498256e+02 
-8.556052615785e+01 1.128433255076e+00 0.0 
1.128433255076e+00 -2.087058493026e+02 0.0 
0.0 0.0 -8.787991263813e+01 
-1.300423824924e+02 2.029939161845e-01 0.0 
2.029939161845e-01 -3.018341899986e+02 0.0 
0.0 0.0 -1.291629717473e+02 
-8.754751681055e+01 2.173220217781e+00 0.0 
2.173220217781e+00 -2.110414583821e+02 0.0 
0.0 0.0 -8.917669255780e+01 
-1.377822618650e+02 5.308069656136e-01 0.0 
5.308069656136e-01 -3.271573144978e+02 0.0 
0.0 0.0 -1.390818729088e+02 
-1.262733127152e+02 7.373075578582e-02 0.0 
7.373075578582e-02 -2.929995492310e+02 0.0 
0.0 0.0 -1.253818585839e+02 
-1.260855726256e+02 1.852224778174e+00 0.0 
1.852224778174e+00 -2.916670513128e+02 0.0 
0.0 0.0 -1.249257871815e+02 
-1.123762830467e+02 2.187705563121e+00 0.0 
2.187705563121e+00 -2.678087210915e+02 0.0 
0.0 0.0 -1.136555012415e+02 
-8.051227006181e+01 2.626251301220e+00 0.0 
2.626251301220e+00 -1.928478656009e+02 0.0 
0.0 0.0 -8.160804069882e+01 
-1.333515011958e+02 3.750829573430e+00 0.0 
3.750829573430e+00 -3.092606292611e+02 0.0 
0.0 0.0 -1.323836391371e+02 
-1.064504454983e+02 1.135938411525e+00 0.0 
1.135938411525e+00 -2.443414237421e+02 0.0 
0.0 0.0 -1.048375607721e+02 
-3.901545600676e+01 1.888587034917e+00 0.0 
1.888587034917e+00 -9.890406603105e+01 0.0 
0.0 0.0 -4.097585661134e+01 
-4.361298042376e+01 3.632200111410e+00 0.0 
3.632200111410e+00 -1.094160914409e+02 0.0 
0.0 0.0 -4.550872155941e+01 
-6.803915825270e+01 2.297224240343e+00 0.0 
2.297224240343e+00 -1.556333816120e+02 0.0 
0.0 0.0 -6.670176195941e+01 
-9.716015277429e+01 1.766786411739e+00 0.0 
1.766786411739e+00 -2.231098880652e+02 0.0 
0.0 0.0 -9.568101225185e+01 
-1.417546422385e+02 3.639121160459e-01 0.0 
3.639121160459e-01 -3.359096204390e+02 0.0 
0.0 0.0 -1.428992788032e+02 
-1.223376365048e+02 1.708227089346e+00 0.0 
1.708227089346e+00 -2.828480984226e+02 0.0 
0.0 0.0 -1.211557204782e+02 
-8.042624300064e+01 4.049033079365e+00 0.0 
4.049033079365e+00 -1.931232151339e+02 0.0 
0.0 0.0 -8.166483744038e+01 
-1.096943075878e+02 3.450863390212e+00 0.0 
3.450863390212e+00 -2.523459818247e+02 0.0 
0.0 0.0 -1.082120868238e+02 
-1.291839176251e+02 2.280909630550e+00 0.0 
2.280909630550e+00 -3.061101345819e+02 0.0 
0.0 0.0 -1.301882156621e+02 
-1.317164558747e+02 1.478752918602e+00 0.0 
1.478752918602e+00 -3.060928616614e+02 0.0 
0.0 0.0 -1.309427952608e+02 
-1.373924255884e+02 3.543836364509e+00 0.0 
3.543836364509e+00 -3.191251706082e+02 0.0 
0.0 0.0 -1.365552788590e+02 
-1.094821843066e+02 -5.598570055665e-02 0.0 
-5.598570055665e-02 -2.525137928652e+02 0.0 
0.0 0.0 -1.081987931515e+02 
-1.326322241304e+02 1.869729586169e+00 0.0 
1.869729586169e+00 -3.151054946864e+02 0.0 
0.0 0.0 -1.339213156450e+02 
-9.223253816840e+01 3.793452017100e+00 0.0 
3.793452017100e+00 -2.211573750734e+02 0.0 
0.0 0.0 -9.361697397255e+01 
-1.293300010317e+02 3.789324266403e+00 0.0 
3.789324266403e+00 -3.063715534379e+02 0.0 
0.0 0.0 -1.303104663409e+02 
-9.189481480135e+01 2.339486279808e+00 0.0 
2.339486279808e+00 -2.125431272963e+02 0.0 
0.0 0.0 -9.093138262930e+01 
-1.390580698599e+02 1.701236951147e+00 0.0 
1.701236951147e+00 -3.234856082201e+02 0.0 
0.0 0.0 -1.383631034240e+02 
-1.427187773838e+02 3.788387531413e+00 0.0 
3.788387531413e+00 -3.308621963688e+02 0.0 
0.0 0.0 -1.416742921258e+02 
-1.040519016441e+02 2.167569513172e+00 0.0 
2.167569513172e+00 -2.487908301912e+02 0.0 
0.0 0.0 -1.054528195506e+02 
-3.888206520336e+01 1.938585453515e+00 0.0 
1.938585453515e+00 -9.963401017428e+01 0.0 
0.0 0.0 -4.115482261329e+01 
-1.316273188848e+02 2.590363539799e+00 0.0 
2.590363539799e+00 -3.072420748871e+02 0.0 
0.0 0.0 -1.312608181316e+02 
-9.988054808790e+01 4.022543766955e+00 0.0 
4.022543766955e+00 -2.317518350180e+02 0.0 
0.0 0.0 -9.908971493176e+01 
-7.690316808098e+01 4.284474068956e+00 0.0 
4.284474068956e+00 -1.838494751325e+02 0.0 
0.0 0.0 -7.782579296406e+01 
-1.088230414133e+02 3.809439920680e+00 0.0 
3.809439920680e+00 -2.591153327082e+02 0.0 
0.0 0.0 -1.099815122365e+02 
-1.281716755782e+02 3.150174836950e+00 0.0 
3.150174836950e+00 -3.051021775192e+02 0.0 
0.0 0.0 -1.295821559292e+02 
-3.948128160052e+01 2.890734987227e+00 0.0 
2.890734987227e+00 -1.001085350030e+02 0.0 
0.0 0.0 -4.147694498105e+01 
-9.577856508896e+01 2.169674267793e+00 0.0 
2.169674267793e+00 -2.298711252395e+02 0.0 
0.0 0.0 -9.729490709854e+01 
-1.113127243943e+02 7.912158364921e-01 0.0 
7.912158364921e-01 -2.559407501330e+02 0.0 
0.0 0.0 -1.097760423582e+02 
-1.420263308275e+02 1.934041470643e+00 0.0 
1.934041470643e+00 -3.363395425954e+02 0.0 
0.0 0.0 -1.431097620268e+02 
-1.149387740527e+02 1.045718296706e+00 0.0 
1.045718296706e+00 -2.645451228878e+02 0.0 
0.0 0.0 -1.134451690821e+02 
-1.280653176797e+02 2.415889057484e+00 0.0 
2.415889057484e+00 -2.981391950540e+02 0.0 
0.0 0.0 -1.274613538201e+02 
-1.076579290588e+02 5.607849225406e-01 0.0 
5.607849225406e-01 -2.473626116489e+02 0.0 
0.0 0.0 -1.061061622123e+02 
-1.000853398525e+02 5.861524858803e-02 0.0 
5.861524858803e-02 -2.301671013707e+02 0.0 
0.0 0.0 -9.867573236695e+01 
-1.100523288736e+02 1.397440260023e+00 0.0 
1.397440260023e+00 -2.530882457250e+02 0.0 
0.0 0.0 -1.085421723796e+02 
-1.346836716485e+02 2.588082541235e+00 0.0 
2.588082541235e+00 -3.170112130907e+02 0.0 
0.0 0.0 -1.351084654218e+02 
-1.303414881719e+02 2.266011373456e+00 0.0 
2.266011373456e+00 -3.105355092594e+02 0.0 
0.0 0.0 -1.318630992294e+02 
-1.175911724786e+02 1.124924975498e-01 0.0 
1.124924975498e-01 -2.718659743491e+02 0.0 
0.0 0.0 -1.164371440483e+02 
-1.417371442398e+02 5.728862732233e-01 0.0 
5.728862732233e-01 -3.299940513000e+02 0.0 
0.0 0.0 -1.411193586619e+02 
-1.039855910170e+02 3.298402216617e-01 0.0 
3.298402216617e-01 -2.388288046244e+02 0.0 
0.0 0.0 -1.024443186924e+02 
-6.412791527816e+01 4.169766825435e+00 0.0 
4.169766825435e+00 -1.556444050230e+02 0.0 
0.0 0.0 -6.553169609033e+01 
-1.363820922591e+02 4.218499542393e+00 0.0 
4.218499542393e+00 -3.176817037115e+02 0.0 
0.0 0.0 -1.358191387912e+02 
-1.399665755146e+02 1.654947155567e+00 0.0 
1.654947155567e+00 -3.257143578173e+02 0.0 
0.0 0.0 -1.393042799996e+02 
-9.084090786517e+01 2.631583356916e+00 0.0 
2.631583356916e+00 -2.120531843834e+02 0.0 
0.0 0.0 -9.046822767457e+01 
-9.535095716430e+01 2.489766531156e+00 0.0 
2.489766531156e+00 -2.216858031088e+02 0.0 
0.0 0.0 -9.471102808194e+01 
-7.226454630735e+01 4.111009612436e+00 0.0 
4.111009612436e+00 -1.743470015465e+02 0.0 
0.0 0.0 -7.358346435615e+01 
-1.213159359621e+02 2.500114194376e-01 0.0 
2.500114194376e-01 -2.806343276780e+02 0.0 
0.0 0.0 -1.201850790920e+02 
-7.339527162884e+01 1.352194146463e+00 0.0 
1.352194146463e+00 -1.665963581916e+02 0.0 
0.0 0.0 -7.159748894613e+01 
-1.067896964601e+02 2.527505945041e+00 0.0 
2.527505945041e+00 -2.497415684287e+02 0.0 
0.0 0.0 -1.065593794666e+02 
-7.378410203327e+01 3.201607927412e+00 0.0 
3.201607927412e+00 -1.671215199768e+02 0.0 
0.0 0.0 -7.187168660301e+01 
-1.263306466257e+02 2.547116437031e+00 0.0 
2.547116437031e+00 -2.978100248435e+02 0.0 
0.0 0.0 -1.268422014407e+02 
-1.440732928518e+02 4.145497463959e+00 0.0 
4.145497463959e+00 -3.360013685391e+02 0.0 
0.0 0.0 -1.436223984173e+02 
-7.582244584955e+01 3.811587688622e+00 0.0 
3.811587688622e+00 -1.835462087203e+02 0.0 
0.0 0.0 -7.741059637095e+01 
-2.468798779199e+01 2.047146333919e+00 0.0 
2.047146333919e+00 -6.347072238738e+01 0.0 
0.0 0.0 -2.604761305381e+01 
-1.411341338353e+02 7.414451836231e-01 0.0 
7.414451836231e-01 -3.283129086633e+02 0.0 
0.0 0.0 -1.404341127496e+02 
-7.772516801567e+01 1.193387493161e+00 0.0 
1.193387493161e+00 -1.765180121588e+02 0.0 
0.0 0.0 -7.587295405234e+01 
-9.010623776668e+01 1.445429201005e+00 0.0 
1.445429201005e+00 -2.187639955802e+02 0.0 
0.0 0.0 -9.226107000406e+01 
-1.399584901113e+02 2.665225715129e+00 0.0 
2.665225715129e+00 -3.265493472561e+02 0.0 
0.0 0.0 -1.395523512102e+02 
-1.180078627116e+02 1.710686937403e+00 0.0 
1.710686937403e+00 -2.723151482561e+02 0.0 
0.0 0.0 -1.166969032903e+02 
-1.264638873557e+02 2.354925887228e+00 0.0 
2.354925887228e+00 -3.018383510296e+02 0.0 
0.0 0.0 -1.280906715156e+02 
-7.816380140974e+01 4.443181220973e+00 0.0 
4.443181220973e+00 -1.840570714803e+02 0.0 
0.0 0.0 -7.826626186702e+01 
-1.973425071249e+01 3.427307248281e-01 0.0 
3.427307248281e-01 -5.260906310410e+01 0.0 
0.0 0.0 -2.130299414498e+01 
-1.461943526589e+02 1.895430273822e+00 0.0 
1.895430273822e+00 -3.461435286596e+02 0.0 
0.0 0.0 -1.473013643956e+02 
-1.006923497547e+02 2.010586302797e+00 0.0 
2.010586302797e+00 -2.320679525610e+02 0.0 
0.0 0.0 -9.942809069469e+01 
-1.188919331252e+02 4.248830008534e+00 0.0 
4.248830008534e+00 -2.790835919539e+02 0.0 
0.0 0.0 -1.189926575237e+02 
-1.368701104450e+02 2.380987721970e+00 0.0 
2.380987721970e+00 -3.185173143882e+02 0.0 
0.0 0.0 -1.362162274500e+02 
-1.343020565845e+01 1.264156089707e-01 0.0 
1.264156089707e-01 -3.502251177947e+01 0.0 
0.0 0.0 -1.413581523138e+01 
-1.261410825191e+02 8.546999662210e-01 0.0 
8.546999662210e-01 -3.013691938277e+02 0.0 
0.0 0.0 -1.278530829040e+02 
-5.369447807387e+01 4.933459536933e+00 0.0 
4.933459536933e+00 -1.265869630447e+02 0.0 
0.0 0.0 -5.368443233557e+01 
-1.099658721624e+02 1.557385274230e+00 0.0 
1.557385274230e+00 -2.529805960002e+02 0.0 
0.0 0.0 -1.084839404488e+02 
-1.002118864894e+02 1.608331416365e+00 0.0 
1.608331416365e+00 -2.421614005007e+02 0.0 
0.0 0.0 -1.023119860970e+02 
-7.583886492020e+01 2.465999094837e+00 0.0 
2.465999094837e+00 -1.832336004459e+02 0.0 
0.0 0.0 -7.732173960984e+01 
-1.380578032113e+02 2.019574674898e+00 0.0 
2.019574674898e+00 -3.276028622954e+02 0.0 
0.0 0.0 -1.392981996520e+02 
-1.032869472664e+02 2.473320743916e+00 0.0 
2.473320743916e+00 -2.405222445409e+02 0.0 
0.0 0.0 -1.027427575422e+02 
-6.770522852643e+01 2.521341969305e+00 0.0 
2.521341969305e+00 -1.645947413963e+02 0.0 
0.0 0.0 -6.928999097681e+01 
-1.053318917746e+02 3.579464160702e+00 0.0 
3.579464160702e+00 -2.424220365483e+02 0.0 
0.0 0.0 -1.039261784969e+02 
-2.126513461766e+01 1.094452234545e+00 0.0 
1.094452234545e+00 -5.344843225751e+01 0.0 
0.0 0.0 -2.201407006255e+01 
-1.212232571229e+02 3.759312949895e+00 0.0 
3.759312949895e+00 -2.804179930066e+02 0.0 
0.0 0.0 -1.200923750389e+02 
-1.264755495453e+02 4.132809132684e+00 0.0 
4.132809132684e+00 -2.982114000654e+02 0.0 
0.0 0.0 -1.270060848832e+02 
-1.454400966915e+02 3.379657683659e+00 0.0 
3.379657683659e+00 -3.381769276569e+02 0.0 
0.0 0.0 -1.446851073045e+02 
-1.291987246768e+02 3.881904001562e+00 0.0 
3.881904001562e+00 -2.995668617956e+02 0.0 
0.0 0.0 -1.282296759417e+02 
-5.158279205704e+01 3.741538114758e+00 0.0 
3.741538114758e+00 -1.278421055325e+02 0.0 
0.0 0.0 -5.342746927687e+01 
-1.255922049657e+02 2.017663517013e+00 0.0 
2.017663517013e+00 -2.998735139352e+02 0.0 
0.0 0.0 -1.272397156702e+02 
-1.434132286867e+02 1.344209381976e-01 0.0 
1.344209381976e-01 -3.339193439210e+02 0.0 
0.0 0.0 -1.427997717823e+02 
-1.519468596313e+02 4.556708069708e+00 0.0 
4.556708069708e+00 -3.555748206827e+02 0.0 
0.0 0.0 -1.518565040942e+02 
-1.311389165854e+02 4.208903711125e+00 0.0 
4.208903711125e+00 -3.082454801435e+02 0.0 
0.0 0.0 -1.314153190187e+02 
-8.155693556937e+01 4.356468105087e+00 0.0 
4.356468105087e+00 -1.933418974873e+02 0.0 
0.0 0.0 -8.206964991699e+01 
-1.132560089115e+02 3.668024832112e+00 0.0 
3.668024832112e+00 -2.613604700225e+02 0.0 
0.0 0.0 -1.119849436802e+02 
-1.405125301646e+02 1.101692158302e-01 0.0 
1.101692158302e-01 -3.333490016828e+02 0.0 
0.0 0.0 -1.417584595542e+02 
-9.295498621027e+01 8.754338922785e-01 0.0 
8.754338922785e-01 -2.249698989205e+02 0.0 
0.0 0.0 -9.497746553923e+01 
-1.244604230723e+02 2.284627360387e+00 0.0 
2.284627360387e+00 -2.889721754597e+02 0.0 
0.0 0.0 -1.236297795596e+02 
-1.138073972120e+02 -7.270333525702e-02 0.0 
-7.270333525702e-02 -2.629692508789e+02 0.0 
0.0 0.0 -1.126329944273e+02 
-1.341875003545e+02 2.144467236566e+00 0.0 
2.144467236566e+00 -3.190409745814e+02 0.0 
0.0 0.0 -1.355685424808e+02 
-1.311972486247e+02 2.588412757583e+00 0.0 
2.588412757583e+00 -3.123459460932e+02 0.0 
0.0 0.0 -1.326629584154e+02 
-7.988666769190e+01 4.317755904560e-02 0.0 
4.317755904560e-02 -1.845776623139e+02 0.0 
0.0 0.0 -7.893929900175e+01 
-7.988026984543e+01 -1.349243764536e-01 0.0 
-1.349243764536e-01 -1.845221127676e+02 0.0 
0.0 0.0 -7.892071478390e+01 
-1.161714645167e+02 2.426124754868e+00 0.0 
2.426124754868e+00 -2.669264688921e+02 0.0 
0.0 0.0 -1.145293800227e+02 
-1.165213914458e+02 2.176939859311e+00 0.0 
2.176939859311e+00 -2.699121482465e+02 0.0 
0.0 0.0 -1.155300619077e+02 
-1.039645852627e+02 1.527221888214e+00 0.0 
1.527221888214e+00 -2.507270067576e+02 0.0 
0.0 0.0 -1.060074776061e+02 
-1.147597498678e+02 2.990352036182e+00 0.0 
2.990352036182e+00 -2.636778756183e+02 0.0 
0.0 0.0 -1.131312876458e+02 
-9.878174104035e+01 2.579602386086e+00 0.0 
2.579602386086e+00 -2.308210425012e+02 0.0 
0.0 0.0 -9.848083506246e+01 
-1.408347385958e+02 2.542634529375e+00 0.0 
2.542634529375e+00 -3.330403442958e+02 0.0 
0.0 0.0 -1.417625248675e+02 
-8.172277067192e+01 2.804088266060e+00 0.0 
2.804088266060e+00 -1.930799214136e+02 0.0 
0.0 0.0 -8.204080762565e+01 
-1.564043542318e+02 1.498092672517e+00 0.0 
1.498092672517e+00 -3.656333280945e+02 0.0 
0.0 0.0 -1.562113046979e+02 
-9.265277908427e+01 6.380518887063e-02 0.0 
6.380518887063e-02 -2.118277133546e+02 0.0 
0.0 0.0 -9.094414773166e+01 
-9.536445081832e+01 4.165832905562e+00 0.0 
4.165832905562e+00 -2.220579806207e+02 0.0 
0.0 0.0 -9.482672943172e+01 
-9.980404204075e+01 1.547400633990e-01 0.0 
1.547400633990e-01 -2.416529701379e+02 0.0 
0.0 0.0 -1.020371036536e+02 
-4.796490364104e+01 4.233418908726e+00 0.0 
4.233418908726e+00 -1.185017853588e+02 0.0 
0.0 0.0 -4.954000669996e+01 
-8.816218772051e+01 1.522730499575e+00 0.0 
1.522730499575e+00 -2.143468708506e+02 0.0 
0.0 0.0 -9.035271757133e+01 
-1.085880876208e+02 2.088364347817e+00 0.0 
2.088364347817e+00 -2.509409664533e+02 0.0 
0.0 0.0 -1.074587162222e+02 
-1.014755091122e+02 1.618144529840e+00 0.0 
1.618144529840e+00 -2.330340205984e+02 0.0 
0.0 0.0 -9.995285891317e+01 
-1.132763857011e+02 1.170336814289e-01 0.0 
1.170336814289e-01 -2.613966592812e+02 0.0 
0.0 0.0 -1.120019134947e+02 
-1.179269618158e+02 1.554871566837e+00 0.0 
1.554871566837e+00 -2.720104571776e+02 0.0 
0.0 0.0 -1.165812256980e+02 
-1.225592413968e+02 3.144539292456e+00 0.0 
3.144539292456e+00 -2.824816679759e+02 0.0 
0.0 0.0 -1.211122728118e+02 
-2.380028259511e+01 2.961004249442e-01 0.0 
2.961004249442e-01 -5.875828127069e+01 0.0 
0.0 0.0 -2.436756915974e+01 
-8.321078607737e+01 -1.300052259729e-01 0.0 
-1.300052259729e-01 -2.032175739813e+02 0.0 
0.0 0.0 -8.552850801760e+01 
-7.809967038409e+01 2.990071942160e+00 0.0 
2.990071942160e+00 -1.769772031800e+02 0.0 
0.0 0.0 -7.612306206922e+01 
-1.106660145139e+02 1.089102353947e+00 0.0 
1.089102353947e+00 -2.543773860397e+02 0.0 
0.0 0.0 -1.091130201661e+02 
-1.154748558830e+02 2.668618364568e+00 0.0 
2.668618364568e+00 -2.652331643604e+02 0.0 
0.0 0.0 -1.138124060730e+02 
-1.381437707213e+02 2.653159466617e+00 0.0 
2.653159466617e+00 -3.253966150047e+02 0.0 
0.0 0.0 -1.386621157178e+02 
-3.579517730080e+01 -8.220434059218e-01 0.0 
-8.220434059218e-01 -8.856517195133e+01 0.0 
0.0 0.0 -3.690810477564e+01 
-3.552182449389e+01 2.084106426332e+00 0.0 
2.084106426332e+00 -9.047925527429e+01 0.0 
0.0 0.0 -3.740032393045e+01 
-9.631444374954e+01 2.166265013989e+00 0.0 
2.166265013989e+00 -2.222746654465e+02 0.0 
0.0 0.0 -9.517673275881e+01 
-8.366518715908e+01 1.311910283796e+00 0.0 
1.311910283796e+00 -2.037215367453e+02 0.0 
0.0 0.0 -8.581601717132e+01 
-7.333973870893e+01 1.305355103846e+00 0.0 
1.305355103846e+00 -1.664692698885e+02 0.0 
0.0 0.0 -7.154270257924e+01 
-7.763983777949e+01 1.125623331111e+00 0.0 
1.125623331111e+00 -1.764961472078e+02 0.0 
0.0 0.0 -7.584079549619e+01 
-1.137348365596e+02 1.689651504861e+00 0.0 
1.689651504861e+00 -2.618557038424e+02 0.0 
0.0 0.0 -1.122771621206e+02 
-3.317064486045e+01 5.309373265479e+00 0.0 
5.309373265479e+00 -8.053180518829e+01 0.0 
0.0 0.0 -3.371073501462e+01 
-9.525990328663e+01 -4.449722331489e-02 0.0 
-4.449722331489e-02 -2.310777287462e+02 0.0 
0.0 0.0 -9.750128960984e+01 
-1.246898684800e+02 3.588029782918e+00 0.0 
3.588029782918e+00 -2.963123596755e+02 0.0 
0.0 0.0 -1.259006684467e+02 
-3.457979850344e+01 1.171443758084e+00 0.0 
1.171443758084e+00 -8.980326825014e+01 0.0 
0.0 0.0 -3.691492002607e+01 
-1.515777869528e+02 3.612109814105e+00 0.0 
3.612109814105e+00 -3.544001046549e+02 0.0 
0.0 0.0 -1.513933674823e+02 
-1.346127128903e+02 1.710138886279e+00 0.0 
1.710138886279e+00 -3.125857433898e+02 0.0 
0.0 0.0 -1.337595368840e+02 
-9.111525974781e+01 1.219414391187e+00 0.0 
1.219414391187e+00 -2.208661660896e+02 0.0 
0.0 0.0 -9.319442775122e+01 
-1.291228705829e+02 4.189515472028e-01 0.0 
4.189515472028e-01 -3.079854560365e+02 0.0 
0.0 0.0 -1.307324979858e+02 
-1.684649238717e+01 -1.784252814706e-01 0.0 
-1.784252814706e-01 -4.230275955756e+01 0.0 
0.0 0.0 -1.734477558342e+01 
-1.200314736897e+02 3.382333706139e+00 0.0 
3.382333706139e+00 -2.862412770492e+02 0.0 
0.0 0.0 -1.214818252216e+02 
-1.009067878591e+02 3.719735781486e+00 0.0 
3.719735781486e+00 -2.325166342906e+02 0.0 
0.0 0.0 -9.962702664490e+01 
-1.708378556283e+01 -1.843371179509e-01 0.0 
-1.843371179509e-01 -4.219072927763e+01 0.0 
0.0 0.0 -1.738235445214e+01 
-1.343156592938e+02 2.273364571252e-01 0.0 
2.273364571252e-01 -3.122701465397e+02 0.0 
0.0 0.0 -1.335757417500e+02 
-3.180165739219e+01 2.542836125441e+00 0.0 
2.542836125441e+00 -8.179459034983e+01 0.0 
0.0 0.0 -3.367887432261e+01 
-1.111625646001e+02 2.725263882633e+00 0.0 
2.725263882633e+00 -2.549458163817e+02 0.0 
0.0 0.0 -1.094325142945e+02 
-1.018163487687e+02 3.340813967669e+00 0.0 
3.340813967669e+00 -2.335109688209e+02 0.0 
0.0 0.0 -1.001981952769e+02 
-8.669915984628e+01 2.996957618592e+00 0.0 
2.996957618592e+00 -2.104081281822e+02 0.0 
0.0 0.0 -8.873218640855e+01 
-1.059709542799e+02 1.138791562639e+00 0.0 
1.138791562639e+00 -2.555582106315e+02 0.0 
0.0 0.0 -1.080587494734e+02 
-1.378802674071e+02 3.838278428675e-01 0.0 
3.838278428675e-01 -3.209098463473e+02 0.0 
0.0 0.0 -1.372370341263e+02 
-1.144918782610e+02 1.235143242708e+00 0.0 
1.235143242708e+00 -2.748422870869e+02 0.0 
0.0 0.0 -1.164002496044e+02 
-9.979337161013e+01 2.352415896163e+00 0.0 
2.352415896163e+00 -2.313525608092e+02 0.0 
0.0 0.0 -9.894377972579e+01 
-9.645528408572e+01 3.881314426384e+00 0.0 
3.881314426384e+00 -2.226962214405e+02 0.0 
0.0 0.0 -9.534545165788e+01 
-4.743257361565e+00 1.418675832863e+00 0.0 
1.418675832863e+00 -1.206396762270e+01 0.0 
0.0 0.0 -4.642167495280e+00 
-2.700847103263e+01 8.564706345622e-01 0.0 
8.564706345622e-01 -7.152672223487e+01 0.0 
0.0 0.0 -2.916055798025e+01 
-1.326615833502e+02 3.973989910888e+00 0.0 
3.973989910888e+00 -3.083656289531e+02 0.0 
0.0 0.0 -1.319081636910e+02 
-1.050865591441e+02 1.819458605386e+00 0.0 
1.819458605386e+00 -2.410523895908e+02 0.0 
0.0 0.0 -1.034416846205e+02 
-1.358577678716e+02 2.600409968602e+00 0.0 
2.600409968602e+00 -3.170395237781e+02 0.0 
0.0 0.0 -1.354691874949e+02 
-5.399385348582e+01 3.208716726486e+00 0.0 
3.208716726486e+00 -1.263397740887e+02 0.0 
0.0 0.0 -5.370008827234e+01 
-1.280556283099e+02 8.552664458436e-01 0.0 
8.552664458436e-01 -2.963889107090e+02 0.0 
0.0 0.0 -1.269333617057e+02 
-1.371384792588e+02 3.989175951484e+00 0.0 
3.989175951484e+00 -3.187994901749e+02 0.0 
0.0 0.0 -1.363813908301e+02 
-8.077335912339e+01 -2.248461860308e-01 0.0 
-2.248461860308e-01 -1.837050243497e+02 0.0 
0.0 0.0 -7.894351504193e+01 
-1.322708555436e+02 2.477707142835e+00 0.0 
2.477707142835e+00 -3.078268833350e+02 0.0 
0.0 0.0 -1.316293216636e+02 
-1.294407977648e+02 1.911335317591e+00 0.0 
1.911335317591e+00 -3.084582195018e+02 0.0 
0.0 0.0 -1.309697051800e+02 
-1.121062156352e+02 2.262639460818e+00 0.0 
2.262639460818e+00 -2.599608716360e+02 0.0 
0.0 0.0 -1.112201261813e+02 
-9.147904668801e+01 1.412285396152e-02 0.0 
1.412285396152e-02 -2.224574677027e+02 0.0 
0.0 0.0 -9.378095431720e+01 
-9.644220225748e+01 1.687435841126e+00 0.0 
1.687435841126e+00 -2.335385368665e+02 0.0 
0.0 0.0 -9.859422173719e+01 
-1.417357130387e+02 2.422958151126e+00 0.0 
2.422958151126e+00 -3.292959828680e+02 0.0 
0.0 0.0 -1.409095087720e+02 
-9.758747900320e+01 1.039611740436e+00 0.0 
1.039611740436e+00 -2.364600937266e+02 0.0 
0.0 0.0 -9.981427181894e+01 
-1.050526164619e+02 1.871771506332e+00 0.0 
1.871771506332e+00 -2.419695474003e+02 0.0 
0.0 0.0 -1.037066491587e+02 
-9.789721727525e+01 2.613178877299e+00 0.0 
2.613178877299e+00 -2.308665929518e+02 0.0 
0.0 0.0 -9.822914306812e+01 
-1.231128973331e+02 1.365513084222e+00 0.0 
1.365513084222e+00 -2.942424331558e+02 0.0 
0.0 0.0 -1.248065991467e+02 
-9.076959495905e+01 4.270077865566e+00 0.0 
4.270077865566e+00 -2.123651538765e+02 0.0 
0.0 0.0 -9.054042465067e+01 
-5.504141010580e+01 2.176255806930e+00 0.0 
2.176255806930e+00 -1.366779328904e+02 0.0 
0.0 0.0 -5.711580289886e+01 
-9.936544991496e+01 1.965627625034e+00 0.0 
1.965627625034e+00 -2.387922713889e+02 0.0 
0.0 0.0 -1.010473163912e+02 
-5.959275698569e+01 2.577041403511e+00 0.0 
2.577041403511e+00 -1.460331844155e+02 0.0 
0.0 0.0 -6.128778242035e+01 
-1.142879123277e+02 1.314069291114e+00 0.0 
1.314069291114e+00 -2.631354173865e+02 0.0 
0.0 0.0 -1.128269989143e+02 
-5.961755856321e+01 3.798412326614e+00 0.0 
3.798412326614e+00 -1.463154244071e+02 0.0 
0.0 0.0 -6.137989489109e+01 
-1.104857035128e+02 3.099786538937e+00 0.0 
3.099786538937e+00 -2.536032372545e+02 0.0 
0.0 0.0 -1.088266822302e+02 
-1.348406932969e+02 4.199502500327e+00 0.0 
4.199502500327e+00 -3.174328298623e+02 0.0 
0.0 0.0 -1.352820569478e+02 
-1.299719911712e+02 2.534636703521e+00 0.0 
2.534636703521e+00 -3.068535677901e+02 0.0 
0.0 0.0 -1.306476676884e+02 
-8.630756622485e+01 2.739268194099e+00 0.0 
2.739268194099e+00 -2.025481631655e+02 0.0 
0.0 0.0 -8.625671881710e+01 
-1.090174714061e+02 9.049573907779e-02 0.0 
9.049573907779e-02 -2.509883659678e+02 0.0 
0.0 0.0 -1.076017512122e+02 
-1.330175979843e+02 3.028060734556e-01 0.0 
3.028060734556e-01 -3.165739550836e+02 0.0 
0.0 0.0 -1.344774659203e+02 
-1.333017445352e+02 1.800246013317e+00 0.0 
1.800246013317e+00 -3.170387850059e+02 0.0 
0.0 0.0 -1.347021588623e+02 
-2.539203761920e+01 5.403888774450e+00 0.0 
5.403888774450e+00 -6.224429290153e+01 0.0 
0.0 0.0 -2.589089915622e+01 
-1.136272962193e+02 1.643101303267e+00 0.0 
1.643101303267e+00 -2.618867651608e+02 0.0 
0.0 0.0 -1.122542184140e+02 
-1.461494426232e+02 4.658769052428e-02 0.0 
4.658769052428e-02 -3.455209409496e+02 0.0 
0.0 0.0 -1.471011150718e+02 
-5.825263558835e+01 3.606280925594e-01 0.0 
3.606280925594e-01 -1.310726935433e+02 0.0 
0.0 0.0 -5.639759873950e+01 
-9.933805220957e+01 1.338471255237e+00 0.0 
1.338471255237e+00 -2.400032353572e+02 0.0 
0.0 0.0 -1.014023862700e+02 
-1.132613693318e+01 4.370556463990e+00 0.0 
4.370556463990e+00 -2.118601738844e+01 0.0 
0.0 0.0 -9.353646296487e+00 
-1.369020681601e+02 1.875177853791e-01 0.0 
1.875177853791e-01 -3.251172613029e+02 0.0 
0.0 0.0 -1.382057988389e+02 
-5.150023723269e+01 2.605451293880e+00 0.0 
2.605451293880e+00 -1.275559850412e+02 0.0 
0.0 0.0 -5.331686668216e+01 
-9.574510232302e+01 -4.586299371091e-01 0.0 
-4.586299371091e-01 -2.312319445378e+02 0.0 
0.0 0.0 -9.769311405825e+01 
-1.187713050467e+02 2.481761667212e+00 0.0 
2.481761667212e+00 -2.787303516833e+02 0.0 
0.0 0.0 -1.188504970190e+02 
-1.095062590346e+02 1.697287470090e+00 0.0 
1.697287470090e+00 -2.514947764637e+02 0.0 
0.0 0.0 -1.079003106495e+02 
-1.048943873403e+02 1.662101995478e-01 0.0 
1.662101995478e-01 -2.406625794027e+02 0.0 
0.0 0.0 -1.032670900229e+02 
-1.042032765463e+02 2.211838932601e+00 0.0 
2.211838932601e+00 -2.411032170531e+02 0.0 
0.0 0.0 -1.031919480798e+02 
-6.494787557446e+01 1.266483408994e+00 0.0 
1.266483408994e+00 -1.467880374157e+02 0.0 
0.0 0.0 -6.312077389704e+01 
-6.928200122400e+01 1.090231154367e+00 0.0 
1.090231154367e+00 -1.567728403658e+02 0.0 
0.0 0.0 -6.741645247694e+01 
-1.371119756456e+02 1.652562579984e+00 0.0 
1.652562579984e+00 -3.255506018909e+02 0.0 
0.0 0.0 -1.383987732610e+02 
-1.108443121144e+02 2.903154099604e+00 0.0 
2.903154099604e+00 -2.660825238916e+02 0.0 
0.0 0.0 -1.126780508018e+02 
-9.491216106149e+01 3.079479212009e+00 0.0 
3.079479212009e+00 -2.291808429948e+02 0.0 
0.0 0.0 -9.682790121688e+01 
-1.198161123133e+02 1.847191700170e+00 0.0 
1.847191700170e+00 -2.858759360621e+02 0.0 
0.0 0.0 -1.213076145126e+02 
-9.112482396695e+01 1.948931516546e+00 0.0 
1.948931516546e+00 -2.199875812543e+02 0.0 
0.0 0.0 -9.293372156639e+01 
-5.602870036638e+01 4.210156880391e+00 0.0 
4.210156880391e+00 -1.370281677200e+02 0.0 
0.0 0.0 -5.751706042590e+01 
-6.470906015606e+01 -3.098457092280e-01 0.0 
-3.098457092280e-01 -1.461708056137e+02 0.0 
0.0 0.0 -6.286395973094e+01 
-9.702375167021e+01 1.478314838437e+00 0.0 
1.478314838437e+00 -2.222436595297e+02 0.0 
0.0 0.0 -9.538022335997e+01 
-7.994460431913e+01 -2.898820902807e-02 0.0 
-2.898820902807e-02 -1.847305085834e+02 0.0 
0.0 0.0 -7.900253387075e+01 
-1.301279437672e+02 4.060422357434e+00 0.0 
4.060422357434e+00 -3.072291746914e+02 0.0 
0.0 0.0 -1.308071355376e+02 
-8.617478848053e+01 4.337503831762e+00 0.0 
4.337503831762e+00 -2.028234596436e+02 0.0 
0.0 0.0 -8.629947443724e+01 
-1.475612398988e+02 2.969911612060e+00 0.0 
2.969911612060e+00 -3.458251606797e+02 0.0 
0.0 0.0 -1.476159201735e+02 
-1.353033295007e+02 -5.683263578677e-01 0.0 
-5.683263578677e-01 -3.214102801288e+02 0.0 
0.0 0.0 -1.366140828889e+02 
-9.586064252218e+01 3.574021137990e+00 0.0 
3.574021137990e+00 -2.302228267972e+02 0.0 
0.0 0.0 -9.742504079581e+01 
-1.511220278996e+02 2.045357110903e+00 0.0 
2.045357110903e+00 -3.563890507955e+02 0.0 
0.0 0.0 -1.518533236085e+02 
-6.328102431685e+01 3.427850432785e+00 0.0 
3.427850432785e+00 -1.555204479968e+02 0.0 
0.0 0.0 -6.524044169410e+01 
-1.433593083273e+02 2.873162587819e+00 0.0 
2.873162587819e+00 -3.363674723866e+02 0.0 
0.0 0.0 -1.435180342142e+02 
-1.043696707286e+02 3.898219020202e+00 0.0 
3.898219020202e+00 -2.415371263988e+02 0.0 
0.0 0.0 -1.033720391382e+02 
-1.155868337671e+02 2.413168336863e+00 0.0 
2.413168336863e+00 -2.689660625493e+02 0.0 
0.0 0.0 -1.149658688949e+02 
-1.374224128386e+02 3.566294294110e+00 0.0 
3.566294294110e+00 -3.252168765006e+02 0.0 
0.0 0.0 -1.383917868018e+02 
-6.827115800708e+01 1.199622989715e+00 0.0 
1.199622989715e+00 -1.677353429602e+02 0.0 
0.0 0.0 -7.040195029018e+01 
-1.093603772209e+02 1.741708241197e+00 0.0 
1.741708241197e+00 -2.519249182942e+02 0.0 
0.0 0.0 -1.079855886545e+02 
-9.125974872041e+01 3.295829687180e+00 0.0 
3.295829687180e+00 -2.203385902181e+02 0.0 
0.0 0.0 -9.307950168156e+01 
-1.061360563364e+02 3.202693957479e+00 0.0 
3.202693957479e+00 -2.434712306626e+02 0.0 
0.0 0.0 -1.044821860997e+02 
-5.824008486828e+01 4.723198195663e+00 0.0 
4.723198195663e+00 -1.354949854281e+02 0.0 
0.0 0.0 -5.772052108891e+01 
-1.192100685489e+02 2.439536642025e+00 0.0 
2.439536642025e+00 -2.783329870142e+02 0.0 
0.0 0.0 -1.188629166690e+02 
-8.648937189299e+01 1.671141951736e+00 0.0 
1.671141951736e+00 -2.100157523485e+02 0.0 
0.0 0.0 -8.855153727243e+01 
-1.035807563471e+02 7.771116061445e-02 0.0 
7.771116061445e-02 -2.502200516073e+02 0.0 
0.0 0.0 -1.057402423863e+02 
-1.057503218873e+02 1.504608384638e+00 0.0 
1.504608384638e+00 -2.429826071500e+02 0.0 
0.0 0.0 -1.042198787112e+02 
-1.009102462770e+01 4.924214503422e+00 0.0 
4.924214503422e+00 -2.634091601456e+01 0.0 
0.0 0.0 -1.052958219268e+01 
-1.061038221802e+02 2.533730967318e+00 0.0 
2.533730967318e+00 -2.500108366377e+02 0.0 
0.0 0.0 -1.064343976454e+02 
-1.908291304497e+01 5.089904165807e+00 0.0 
5.089904165807e+00 -4.057923099537e+01 0.0 
0.0 0.0 -1.749864321210e+01 
-2.541677037339e+01 -1.075724901797e+00 0.0 
-1.075724901797e+00 -6.299930633576e+01 0.0 
0.0 0.0 -2.612482301275e+01 
-9.895794937938e+01 -9.931329528593e-02 0.0 
-9.931329528593e-02 -2.394818173949e+02 0.0 
0.0 0.0 -1.011319300323e+02 
-1.298452553014e+02 3.620331752780e+00 0.0 
3.620331752780e+00 -3.004821709894e+02 0.0 
0.0 0.0 -1.286982278872e+02 
-1.083301350441e+02 3.353911334335e-01 0.0 
3.353911334335e-01 -2.489361636315e+02 0.0 
0.0 0.0 -1.067798896027e+02 
-5.661376405221e+01 1.352732044728e+00 0.0 
1.352732044728e+00 -1.273960820345e+02 0.0 
0.0 0.0 -5.480295382601e+01 
-1.562629628310e+02 1.349638030801e+00 0.0 
1.349638030801e+00 -3.659469132724e+02 0.0 
0.0 0.0 -1.562629628310e+02 
-5.369860937090e+00 3.852815883308e+00 0.0 
3.852815883308e+00 -9.663337676881e+00 0.0 
0.0 0.0 -4.217537600610e+00 
-6.087708609912e+01 1.050992110567e+00 0.0 
1.050992110567e+00 -1.371964022214e+02 0.0 
0.0 0.0 -5.902204649616e+01 
-9.832274645972e+01 1.526919437253e+00 0.0 
1.526919437253e+00 -2.374961843242e+02 0.0 
0.0 0.0 -1.003456792352e+02 
-9.479229228742e+01 1.185759039613e+00 0.0 
1.185759039613e+00 -2.293678708636e+02 0.0 
0.0 0.0 -9.684804894531e+01 
-7.621833887802e+01 1.619364585760e+00 0.0 
1.619364585760e+00 -1.723679011043e+02 0.0 
0.0 0.0 -7.417587199471e+01 
-6.588220188344e+01 1.174979399105e+00 0.0 
1.174979399105e+00 -1.631198234458e+02 0.0 
0.0 0.0 -6.830060759877e+01 
-1.023633961771e+02 2.744239140292e+00 0.0 
2.744239140292e+00 -2.468240744012e+02 0.0 
0.0 0.0 -1.043562411735e+02 
-1.088299879130e+02 3.780723522429e+00 0.0 
3.780723522429e+00 -2.514065795875e+02 0.0 
0.0 0.0 -1.076709702501e+02 
-1.143929385340e+02 2.532716126110e+00 0.0 
2.532716126110e+00 -2.693149967802e+02 0.0 
0.0 0.0 -1.147123805943e+02 
-1.341082662192e+02 1.552303602204e+00 0.0 
1.552303602204e+00 -3.113233380284e+02 0.0 
0.0 0.0 -1.332294812743e+02 
-2.888774321268e+01 3.727222055979e+00 0.0 
3.727222055979e+00 -7.219749109142e+01 0.0 
0.0 0.0 -2.992557029123e+01 
-9.069932809117e+01 -2.275683017682e-01 0.0 
-2.275683017682e-01 -2.203694927526e+02 0.0 
0.0 0.0 -9.292064625312e+01 
-9.815796846266e+01 -3.188817066520e-01 0.0 
-3.188817066520e-01 -2.374072148812e+02 0.0 
0.0 0.0 -1.002695550032e+02 
-5.134067265606e+01 6.983087413487e-01 0.0 
6.983087413487e-01 -1.265320524861e+02 0.0 
0.0 0.0 -5.296181754264e+01 
-8.477431969939e+01 -3.819062814291e-01 0.0 
-3.819062814291e-01 -1.935621190043e+02 0.0 
0.0 0.0 -8.310093161112e+01 
-1.087411951719e+02 1.957810824046e+00 0.0 
1.957810824046e+00 -2.494363099453e+02 0.0 
0.0 0.0 -1.070532515352e+02 
-1.226257091873e+02 8.740891133844e-01 0.0 
8.740891133844e-01 -2.928471944983e+02 0.0 
0.0 0.0 -1.242418711057e+02 
-1.725816626640e+01 -2.024290467109e-01 0.0 
-2.024290467109e-01 -4.224887775219e+01 0.0 
0.0 0.0 -1.745211320558e+01 
-1.151033083425e+01 8.995893530212e-01 0.0 
8.995893530212e-01 -2.658629265661e+01 0.0 
0.0 0.0 -1.102898704726e+01 
-3.578263507007e+01 3.793668133051e-01 0.0 
3.793668133051e-01 -8.830191444935e+01 0.0 
0.0 0.0 -3.682536485583e+01 
-9.848488440990e+01 1.136855718954e+00 0.0 
1.136855718954e+00 -2.378863237983e+02 0.0 
0.0 0.0 -1.005113624625e+02 
-7.133629636542e+01 3.473285042996e+00 0.0 
3.473285042996e+00 -1.740499545549e+02 0.0 
0.0 0.0 -7.321587527610e+01 
-6.266048322118e+01 2.606631880346e+00 0.0 
2.606631880346e+00 -1.549387671604e+02 0.0 
0.0 0.0 -6.487977511448e+01 
-5.526380368217e+01 3.309537517482e+00 0.0 
3.309537517482e+00 -1.370148751213e+02 0.0 
0.0 0.0 -5.728360364104e+01 
-1.026827339699e+02 -1.639236465027e-01 0.0 
-1.639236465027e-01 -2.479551549589e+02 0.0 
0.0 0.0 -1.047913666787e+02 
-1.156112324680e+02 7.253682156828e-01 0.0 
7.253682156828e-01 -2.662153656735e+02 0.0 
0.0 0.0 -1.141479794424e+02 
-1.018843613217e+02 -3.784480041207e-01 0.0 
-3.784480041207e-01 -2.459138316823e+02 0.0 
0.0 0.0 -1.039394579012e+02 
-7.124054585007e+01 2.220023454090e+00 0.0 
2.220023454090e+00 -1.737160507921e+02 0.0 
0.0 0.0 -7.308697899264e+01 
-1.140346684227e+02 3.368428709781e+00 0.0 
3.368428709781e+00 -2.623812782459e+02 0.0 
0.0 0.0 -1.125247840006e+02 
-9.356769646525e+01 -3.535392949571e-01 0.0 
-3.535392949571e-01 -2.150286807358e+02 0.0 
0.0 0.0 -9.217891316033e+01 
-1.272495704755e+02 2.537209984538e+00 0.0 
2.537209984538e+00 -2.984684007366e+02 0.0 
0.0 0.0 -1.273153913636e+02 
-1.021871151680e+02 1.088405768774e+00 0.0 
1.088405768774e+00 -2.463933009290e+02 0.0 
0.0 0.0 -1.041741248291e+02 
-1.030293625013e+02 1.278837076050e+00 0.0 
1.278837076050e+00 -2.484639047475e+02 0.0 
0.0 0.0 -1.050479801746e+02 
-4.812628585310e+01 1.512111598943e+00 0.0 
1.512111598943e+00 -1.076227765811e+02 0.0 
0.0 0.0 -4.632471873026e+01 
-7.495142084373e+01 3.161126908784e+00 0.0 
3.161126908784e+00 -1.829892321997e+02 0.0 
0.0 0.0 -7.698219591303e+01 
-1.056040214158e+02 -4.311283234598e-01 0.0 
-4.311283234598e-01 -2.543317973278e+02 0.0 
0.0 0.0 -1.075807456231e+02 
-1.099785032134e+02 -6.508546694725e-01 0.0 
-6.508546694725e-01 -2.554862701722e+02 0.0 
0.0 0.0 -1.092394320157e+02 
-1.022586955021e+02 -7.033479644186e-01 0.0 
-7.033479644186e-01 -2.373583855704e+02 0.0 
0.0 0.0 -1.014851243217e+02 
-5.247891689275e+01 1.263911314025e+00 0.0 
1.263911314025e+00 -1.177605800657e+02 0.0 
0.0 0.0 -5.067184908753e+01 
-1.064369033068e+02 -2.417063173866e-01 0.0 
-2.417063173866e-01 -2.564675198531e+02 0.0 
0.0 0.0 -1.084713269480e+02 
-6.201121749406e+01 1.888761364304e+00 0.0 
1.888761364304e+00 -1.535387952044e+02 0.0 
0.0 0.0 -6.426500380955e+01 
-2.677946170273e+01 2.684559986433e+00 0.0 
2.684559986433e+00 -5.995439800488e+01 0.0 
0.0 0.0 -2.562015791228e+01 
-1.440537413275e+02 4.421163036857e+00 0.0 
4.421163036857e+00 -3.371601911591e+02 0.0 
0.0 0.0 -1.439641797460e+02 
-3.212279814660e+01 -9.967465911692e-01 0.0 
-9.967465911692e-01 -8.006824208761e+01 0.0 
0.0 0.0 -3.325731207026e+01 
-6.511623023906e+01 5.232675192939e-01 0.0 
5.232675192939e-01 -1.615132661774e+02 0.0 
0.0 0.0 -6.758884892494e+01 
-1.023681125406e+02 4.223232138983e+00 0.0 
4.223232138983e+00 -2.406300327011e+02 0.0 
0.0 0.0 -1.024994435725e+02 
-5.632452800217e+01 -2.525055783845e-01 0.0 
-2.525055783845e-01 -1.265715906284e+02 0.0 
0.0 0.0 -5.446883558917e+01 
-1.059612481214e+02 1.041997999234e+00 0.0 
1.041997999234e+00 -2.550071927054e+02 0.0 
0.0 0.0 -1.078905322481e+02 
-4.843572689534e+01 8.214323916551e-01 0.0 
8.214323916551e-01 -1.186917310418e+02 0.0 
0.0 0.0 -4.973823738114e+01 
-8.874857096338e+01 1.241761924022e+00 0.0 
1.241761924022e+00 -2.018416637247e+02 0.0 
0.0 0.0 -8.677707040641e+01 
-1.067353879212e+02 1.206773145524e+00 0.0 
1.206773145524e+00 -2.569562260048e+02 0.0 
0.0 0.0 -1.087074841778e+02 
-9.037534617359e+01 2.766966506783e+00 0.0 
2.766966506783e+00 -2.191959240525e+02 0.0 
0.0 0.0 -9.247138106783e+01 
-9.567048927428e+01 1.398672559313e+00 0.0 
1.398672559313e+00 -2.315850600595e+02 0.0 
0.0 0.0 -9.777666480013e+01 
-1.273780143936e+01 3.536336332131e+00 0.0 
3.536336332131e+00 -3.297161712908e+01 0.0 
0.0 0.0 -1.331282557053e+01 
-1.337809182034e+02 8.660808326106e-01 0.0 
8.660808326106e-01 -3.126538118326e+02 0.0 
0.0 0.0 -1.335304190108e+02 
-7.419634270758e+01 2.488986129599e+00 0.0 
2.488986129599e+00 -1.819395674252e+02 0.0 
0.0 0.0 -7.644077303985e+01 
-1.377256805603e+02 2.377781623881e+00 0.0 
2.377781623881e+00 -3.257132039919e+02 0.0 
0.0 0.0 -1.386316653657e+02 
-1.158000340817e+02 4.086659608687e+00 0.0 
4.086659608687e+00 -2.695003593683e+02 0.0 
0.0 0.0 -1.151901180350e+02 
-1.101912626807e+02 -3.316700110221e-01 0.0 
-3.316700110221e-01 -2.649476656447e+02 0.0 
0.0 0.0 -1.121416784976e+02 
-1.104529935721e+02 1.091721553936e+00 0.0 
1.091721553936e+00 -2.654091126696e+02 0.0 
0.0 0.0 -1.123586318725e+02 
-6.671482281430e+01 1.877385886018e+00 0.0 
1.877385886018e+00 -1.641459485076e+02 0.0 
0.0 0.0 -6.885823139657e+01 
-2.233911186504e+01 -8.951002190195e-01 0.0 
-8.951002190195e-01 -5.427338404961e+01 0.0 
0.0 0.0 -2.258374877440e+01 
-1.148430632536e+01 3.313507932737e+00 0.0 
3.313507932737e+00 -3.238119762954e+01 0.0 
0.0 0.0 -1.275965118647e+01 
-1.139990211103e+02 -4.149524851697e-01 0.0 
-4.149524851697e-01 -2.734497323754e+02 0.0 
0.0 0.0 -1.158346260457e+02 
-1.371147588418e+02 2.156372782885e+00 0.0 
2.156372782885e+00 -3.251575244112e+02 0.0 
0.0 0.0 -1.382816849759e+02 
-6.137500921973e+01 1.344094703065e+00 0.0 
1.344094703065e+00 -1.517108603109e+02 0.0 
0.0 0.0 -6.352576085918e+01 
-1.172767904236e+02 1.859881627044e+00 0.0 
1.859881627044e+00 -2.708919826302e+02 0.0 
0.0 0.0 -1.160506319161e+02 
-5.368890807870e+01 4.295400446322e-01 0.0 
4.295400446322e-01 -1.202338854146e+02 0.0 
0.0 0.0 -5.177683804798e+01 
-1.183653673185e+02 3.262821560917e+00 0.0 
3.262821560917e+00 -2.725386648376e+02 0.0 
0.0 0.0 -1.168712096468e+02 
-1.542621949102e+02 2.141976920349e+00 0.0 
2.141976920349e+00 -3.639802361935e+02 0.0 
0.0 0.0 -1.550727293311e+02 
-7.322946560832e+00 -2.347898009961e-01 0.0 
-2.347898009961e-01 -7.313838941334e+00 0.0 
0.0 0.0 -3.991035650650e+00 
-1.558742386555e+02 2.749030064599e-01 0.0 
2.749030064599e-01 -3.650398901963e+02 0.0 
0.0 0.0 -1.558742386555e+02 
-1.638282673301e+02 3.340044887105e-01 0.0 
3.340044887105e-01 -3.835992904368e+02 0.0 
0.0 0.0 -1.638282673301e+02 
-8.888607157680e+01 7.905484925404e-01 0.0 
7.905484925404e-01 -2.057845389127e+02 0.0 
0.0 0.0 -8.800118314685e+01 
-7.349439434668e+01 1.906884405822e+00 0.0 
1.906884405822e+00 -1.804555843845e+02 0.0 
0.0 0.0 -7.578499361937e+01 
-1.123267854484e+02 3.939366363550e+00 0.0 
3.939366363550e+00 -2.604511373900e+02 0.0 
0.0 0.0 -1.114333768515e+02 
-6.770025463293e+01 3.815851222848e+00 0.0 
3.815851222848e+00 -1.648886398950e+02 0.0 
0.0 0.0 -6.937666835836e+01 
-2.241705137970e+01 3.676605235318e-01 0.0 
3.676605235318e-01 -5.488931358107e+01 0.0 
0.0 0.0 -2.279190948823e+01 
-7.858639460957e+00 5.378495079129e+00 0.0 
5.378495079129e+00 -1.336765592881e+01 0.0 
0.0 0.0 -5.967888616930e+00 
-1.410042571381e+02 1.067909118321e+00 0.0 
1.067909118321e+00 -3.292239240763e+02 0.0 
0.0 0.0 -1.406684543643e+02 
-1.125218641526e+02 2.215874043758e+00 0.0 
2.215874043758e+00 -2.582998691938e+02 0.0 
0.0 0.0 -1.108465200039e+02 
-8.189591934169e+01 1.187091325399e+00 0.0 
1.187091325399e+00 -1.872958018201e+02 0.0 
0.0 0.0 -8.035751634853e+01 
-1.593284477091e+02 4.044600511366e+00 0.0 
4.044600511366e+00 -3.720485396565e+02 0.0 
0.0 0.0 -1.590130962097e+02 
-4.031365921601e+01 7.797544460449e-01 0.0 
7.797544460449e-01 -9.933409200268e+01 0.0 
0.0 0.0 -4.149432536561e+01 
-1.591717343000e+02 4.139340387587e+00 0.0 
4.139340387587e+00 -3.727640383696e+02 0.0 
0.0 0.0 -1.591807318009e+02 
-1.120079845700e+02 5.099273231182e-01 0.0 
5.099273231182e-01 -2.576654452456e+02 0.0 
0.0 0.0 -1.105020289447e+02 
-7.274701797491e+01 1.457271802771e+00 0.0 
1.457271802771e+00 -1.784959202795e+02 0.0 
0.0 0.0 -7.497288147633e+01 
-1.076804590308e+02 2.379002482652e+00 0.0 
2.379002482652e+00 -2.501256296109e+02 0.0 
0.0 0.0 -1.069418265925e+02 
-6.864325234100e+01 3.566927594985e-01 0.0 
3.566927594985e-01 -1.696861862105e+02 0.0 
0.0 0.0 -7.109883156546e+01 
-3.095405672702e+01 1.967406050516e+00 0.0 
1.967406050516e+00 -6.881546458751e+01 0.0 
0.0 0.0 -2.953085639436e+01 
-6.429816778600e+01 7.835958008121e-03 0.0 
7.835958008121e-03 -1.592637782589e+02 0.0 
0.0 0.0 -6.666858381348e+01 
-1.192299159953e+02 9.285986796525e-01 0.0 
9.285986796525e-01 -2.748320366008e+02 0.0 
0.0 0.0 -1.178185857788e+02 
-1.400792627193e+02 1.251299637086e+00 0.0 
1.251299637086e+00 -3.319587117889e+02 0.0 
0.0 0.0 -1.412113923525e+02 
-6.940778761328e+01 9.156561015033e-01 0.0 
9.156561015033e-01 -1.714644597432e+02 0.0 
0.0 0.0 -7.186167420693e+01 
-1.215513636480e+02 1.783843391007e+00 0.0 
1.783843391007e+00 -2.809321186609e+02 0.0 
0.0 0.0 -1.203450446927e+02 
-6.477076682477e+00 -2.190225903978e-01 0.0 
-2.190225903978e-01 -8.263251978877e+00 0.0 
0.0 0.0 -4.923354121648e+00 
-7.025057680468e+01 1.581946843709e+00 0.0 
1.581946843709e+00 -1.728279813418e+02 0.0 
0.0 0.0 -7.252356744393e+01 
-1.249891345478e+02 2.348648142489e+00 0.0 
2.348648142489e+00 -2.883184781643e+02 0.0 
0.0 0.0 -1.235922838137e+02 
-6.326212364630e+01 -3.684757901299e-01 0.0 
-3.684757901299e-01 -1.563380244836e+02 0.0 
0.0 0.0 -6.548004443896e+01 
-5.706430216636e+01 1.044665540497e+00 0.0 
1.044665540497e+00 -1.411411229663e+02 0.0 
0.0 0.0 -5.906162753980e+01 
-1.078190998752e+02 4.022874496056e+00 0.0 
4.022874496056e+00 -2.505703191491e+02 0.0 
0.0 0.0 -1.071168257073e+02 
-3.059135229727e+01 -3.905202447550e-01 0.0 
-3.905202447550e-01 -7.794701947076e+01 0.0 
0.0 0.0 -3.216151153041e+01 
-3.887053242643e+01 1.352050502723e+00 0.0 
1.352050502723e+00 -8.689663903536e+01 0.0 
0.0 0.0 -3.733015143854e+01 
-4.436788253614e+01 1.542820187799e+00 0.0 
1.542820187799e+00 -9.835083325674e+01 0.0 
0.0 0.0 -4.241561473787e+01 
-5.542110546347e+01 -5.118322536205e-01 0.0 
-5.118322536205e-01 -1.375108702713e+02 0.0 
0.0 0.0 -5.747959272042e+01 
-9.858576551637e+01 2.890141228299e+00 0.0 
2.890141228299e+00 -2.379736401214e+02 0.0 
0.0 0.0 -1.005678216913e+02 
-9.430796812372e+01 2.653094915775e+00 0.0 
2.653094915775e+00 -2.213611054706e+02 0.0 
0.0 0.0 -9.430072207828e+01 
-1.219546453746e+02 3.493988828352e+00 0.0 
3.493988828352e+00 -2.813830930179e+02 0.0 
0.0 0.0 -1.206013215178e+02 
-1.433362970253e+02 1.759651379079e+00 0.0 
1.759651379079e+00 -3.336253041616e+02 0.0 
0.0 0.0 -1.426884803561e+02 
-4.778962632238e+01 -1.386370618237e-01 0.0 
-1.386370618237e-01 -1.069867330362e+02 0.0 
0.0 0.0 -4.603290780756e+01 
-1.183121264523e+02 1.041146646128e+00 0.0 
1.041146646128e+00 -2.749702422141e+02 0.0 
0.0 0.0 -1.175847105999e+02 
-1.444817445124e+02 2.510017796042e+00 0.0 
2.510017796042e+00 -3.368757479545e+02 0.0 
0.0 0.0 -1.440072477401e+02 
-6.314045930693e+01 2.207526843909e+00 0.0 
2.207526843909e+00 -1.551864511347e+02 0.0 
0.0 0.0 -6.509807313250e+01 
-1.830366930223e+01 2.121990221695e+00 0.0 
2.121990221695e+00 -4.039932500036e+01 0.0 
0.0 0.0 -1.721089829078e+01 
-5.898041143647e+01 2.076249569567e+00 0.0 
2.076249569567e+00 -1.318166016913e+02 0.0 
0.0 0.0 -5.683910393833e+01 
-9.408002201423e+01 2.581152263885e+00 0.0 
2.581152263885e+00 -2.279103188768e+02 0.0 
0.0 0.0 -9.619710226730e+01 
-1.220836979397e+02 1.451119183725e+00 0.0 
1.451119183725e+00 -2.819726044942e+02 0.0 
0.0 0.0 -1.208168907302e+02 
-9.375558395840e+01 1.235241625529e+00 0.0 
1.235241625529e+00 -2.274803444588e+02 0.0 
0.0 0.0 -9.597077852515e+01 
-2.159579079293e+01 4.796564794093e+00 0.0 
4.796564794093e+00 -5.612901135408e+01 0.0 
0.0 0.0 -2.291744064410e+01 
-1.069193302107e+02 3.029876247589e+00 0.0 
3.029876247589e+00 -2.568970164808e+02 0.0 
0.0 0.0 -1.087449040075e+02 
-3.537498091428e+01 1.512818363661e+00 0.0 
1.512818363661e+00 -7.867516318041e+01 0.0 
0.0 0.0 -3.381504322841e+01 
-9.423354425660e+01 4.263465293596e+00 0.0 
4.263465293596e+00 -2.216587452574e+02 0.0 
0.0 0.0 -9.436768685419e+01 
-1.020406326880e+02 1.282110215532e+00 0.0 
1.282110215532e+00 -2.463645168311e+02 0.0 
0.0 0.0 -1.041215448557e+02 
-1.111971401420e+02 2.488516881134e+00 0.0 
2.488516881134e+00 -2.593162251832e+02 0.0 
0.0 0.0 -1.107540095976e+02 
-1.083620941991e+02 8.145295001303e-01 0.0 
8.145295001303e-01 -2.507040398138e+02 0.0 
0.0 0.0 -1.073198402039e+02 
-5.597918895832e+01 7.513995509359e-01 0.0 
7.513995509359e-01 -1.379949777440e+02 0.0 
0.0 0.0 -5.779225001071e+01 
-2.236282997932e+01 3.400002991559e+00 0.0 
3.400002991559e+00 -5.136103152848e+01 0.0 
0.0 0.0 -2.171715845234e+01 
-1.105240640322e+02 1.356544209153e+00 0.0 
1.356544209153e+00 -2.656151534909e+02 0.0 
0.0 0.0 -1.124417652569e+02 
-3.971918670145e+01 1.160887606640e+00 0.0 
1.160887606640e+00 -8.813061785153e+01 0.0 
0.0 0.0 -3.795494136589e+01 
-1.013107872334e+01 -1.052428414285e-01 0.0 
-1.052428414285e-01 -2.584815179891e+01 0.0 
0.0 0.0 -1.039376915667e+01 
-1.419718158790e+02 -6.260152248089e-01 0.0 
-6.260152248089e-01 -3.313463882258e+02 0.0 
0.0 0.0 -1.415954612315e+02 
-1.342834610010e+02 -7.176536010019e-01 0.0 
-7.176536010019e-01 -3.129585850022e+02 0.0 
0.0 0.0 -1.337726138010e+02 
-1.090550752592e+01 -2.236996624442e-01 0.0 
-2.236996624442e-01 -2.471186732034e+01 0.0 
0.0 0.0 -1.066726028745e+01 
-1.154136583079e+02 3.161116327619e+00 0.0 
3.161116327619e+00 -2.761105241431e+02 0.0 
0.0 0.0 -1.170572547353e+02 
-4.352803792334e+01 4.532194663942e-01 0.0 
4.532194663942e-01 -1.074748392546e+02 0.0 
0.0 0.0 -4.490086315338e+01 
-4.637786378037e+01 -9.489916562354e-01 0.0 
-9.489916562354e-01 -1.149389809655e+02 0.0 
0.0 0.0 -4.799505342377e+01 
-1.295383005012e+02 1.923812960139e+00 0.0 
1.923812960139e+00 -3.001958878671e+02 0.0 
0.0 0.0 -1.285202565105e+02 
-1.113144856014e+02 4.109067258477e+00 0.0 
4.109067258477e+00 -2.596809590931e+02 0.0 
0.0 0.0 -1.108986334083e+02 
-1.252177420742e+02 2.006803932884e+00 0.0 
2.006803932884e+00 -2.900245487870e+02 0.0 
0.0 0.0 -1.241726872584e+02 
-7.055332825191e+01 2.748824197204e+00 0.0 
2.748824197204e+00 -1.732634159583e+02 0.0 
0.0 0.0 -7.274502326306e+01 
-8.008899706929e+01 -6.421012930150e-02 0.0 
-6.421012930150e-02 -1.846047662055e+02 0.0 
0.0 0.0 -7.900812898245e+01 
-1.548303674772e+02 2.346003432599e+00 0.0 
2.346003432599e+00 -3.642401012054e+02 0.0 
0.0 0.0 -1.553211406048e+02 
-3.852394974626e+01 -1.017841029852e+00 0.0 
-1.017841029852e+00 -9.559879612052e+01 0.0 
0.0 0.0 -3.983682376003e+01 
-1.336548919720e+02 3.910037294830e+00 0.0 
3.910037294830e+00 -3.157035730005e+02 0.0 
0.0 0.0 -1.344075394918e+02 
-9.878348944248e+01 4.214847646366e+00 0.0 
4.214847646366e+00 -2.312054647243e+02 0.0 
0.0 0.0 -9.859668625003e+01 
-3.107233801487e+01 -7.634045344523e-01 0.0 
-7.634045344523e-01 -7.578853530806e+01 0.0 
0.0 0.0 -3.165826199688e+01 
-1.184654368952e+02 1.240153558440e+00 0.0 
1.240153558440e+00 -2.730717173433e+02 0.0 
0.0 0.0 -1.170611462715e+02 
-7.478073960908e+01 1.913396657900e+00 0.0 
1.913396657900e+00 -1.826086222642e+02 0.0 
0.0 0.0 -7.681680856198e+01 
-1.707643231482e+01 -4.187436744181e-01 0.0 
-4.187436744181e-01 -4.203072264401e+01 0.0 
0.0 0.0 -1.733214648765e+01 
-6.230880548866e+01 1.478286260099e+00 0.0 
1.478286260099e+00 -1.545544586550e+02 0.0 
0.0 0.0 -6.465897924310e+01 
-1.188400484263e+02 -7.456944809402e-01 0.0 
-7.456944809402e-01 -2.843762038953e+02 0.0 
0.0 0.0 -1.205648756965e+02 
-1.198153901070e+02 2.638395984626e+00 0.0 
2.638395984626e+00 -2.756510735009e+02 0.0 
0.0 0.0 -1.182399390824e+02 
-2.969069759294e+01 3.416988747948e-01 0.0 
3.416988747948e-01 -7.305600089906e+01 0.0 
0.0 0.0 -3.042400954760e+01 
-9.624955024659e+01 5.394840125755e-01 0.0 
5.394840125755e-01 -2.317523576414e+02 0.0 
0.0 0.0 -9.800057236641e+01 
-1.258694754309e+02 1.677817094558e+00 0.0 
1.677817094558e+00 -2.911740018256e+02 0.0 
0.0 0.0 -1.247130431769e+02 
-1.319513075909e+02 4.208644273538e+00 0.0 
4.208644273538e+00 -3.086279953702e+02 0.0 
0.0 0.0 -1.317737908883e+02 
-5.983512323065e+01 -2.528976741837e-01 0.0 
-2.528976741837e-01 -1.484182459665e+02 0.0 
0.0 0.0 -6.207601075915e+01 
-4.837735542230e+01 -7.925745955811e-01 0.0 
-7.925745955811e-01 -1.187177495467e+02 0.0 
0.0 0.0 -4.972853149070e+01 
-1.023722597484e+02 2.571443831904e+00 0.0 
2.571443831904e+00 -2.403052449314e+02 0.0 
0.0 0.0 -1.024032514040e+02 
-1.057147545179e+02 8.672160755145e-01 0.0 
8.672160755145e-01 -2.450330163659e+02 0.0 
0.0 0.0 -1.048243312651e+02 
-1.683155589038e+01 -2.653085715789e-01 0.0 
-2.653085715789e-01 -4.142531365957e+01 0.0 
0.0 0.0 -1.707706086498e+01 
-1.517064978587e+02 3.428447167138e+00 0.0 
3.428447167138e+00 -3.538290857070e+02 0.0 
0.0 0.0 -1.512606750697e+02 
-1.492440839559e+02 2.037562816346e+00 0.0 
2.037562816346e+00 -3.489355717447e+02 0.0 
0.0 0.0 -1.490538967102e+02 
-9.409820688937e+01 7.865190685539e-01 0.0 
7.865190685539e-01 -2.176349840646e+02 0.0 
0.0 0.0 -9.311995728620e+01 
-1.475789050432e+02 1.967707556016e+00 0.0 
1.967707556016e+00 -3.437493068911e+02 0.0 
0.0 0.0 -1.469984635803e+02 
-1.503187543342e+02 2.135273589796e+00 0.0 
2.135273589796e+00 -3.510074166967e+02 0.0 
0.0 0.0 -1.499978513093e+02 
-7.383707762872e+01 1.284441074151e+00 0.0 
1.284441074151e+00 -1.814758586602e+02 0.0 
0.0 0.0 -7.619388088667e+01 
-6.985472060457e+01 2.096436203867e+00 0.0 
2.096436203867e+00 -1.719624800162e+02 0.0 
0.0 0.0 -7.214516018624e+01 
-1.531358585221e+02 3.883454209278e+00 0.0 
3.883454209278e+00 -3.603060806192e+02 0.0 
0.0 0.0 -1.536325817424e+02 
-6.202302596264e+00 4.934737415033e-02 0.0 
4.934737415033e-02 -8.745984105134e+00 0.0 
0.0 0.0 -5.035098193206e+00 
-4.400593208397e+01 -8.184705945218e-01 0.0 
-8.184705945218e-01 -1.082218057863e+02 0.0 
0.0 0.0 -4.526832136108e+01 
-9.763568301678e+01 -7.892638071612e-01 0.0 
-7.892638071612e-01 -2.362039870015e+02 0.0 
0.0 0.0 -9.975190100548e+01 
-6.041546081222e+01 9.698422629036e-01 0.0 
9.698422629036e-01 -1.489779278387e+02 0.0 
0.0 0.0 -6.241801659529e+01 
-6.150649800625e+01 7.457675856397e-01 0.0 
7.457675856397e-01 -1.531117346964e+02 0.0 
0.0 0.0 -6.398546981079e+01 
-3.042427447544e+01 1.673285540043e+00 0.0 
1.673285540043e+00 -6.698943943635e+01 0.0 
0.0 0.0 -2.882411417354e+01 
-3.566785707300e+01 1.871427053478e+00 0.0 
1.871427053478e+00 -7.909595190868e+01 0.0 
0.0 0.0 -3.402914269450e+01 
-9.472310051654e+01 9.218499594938e-01 0.0 
9.218499594938e-01 -2.178692369416e+02 0.0 
0.0 0.0 -9.337770123744e+01 
-6.694108138801e+01 3.070899663558e+00 0.0 
3.070899663558e+00 -1.645263117052e+02 0.0 
0.0 0.0 -6.904021792795e+01 
-5.137305204337e+01 -7.442500615317e-01 0.0 
-7.442500615317e-01 -1.263701840152e+02 0.0 
0.0 0.0 -5.292297081756e+01 
-1.272889991060e+02 2.536278809673e+00 0.0 
2.536278809673e+00 -2.975419587025e+02 0.0 
0.0 0.0 -1.270492873425e+02 
-1.629216152034e+02 1.898080085201e+00 0.0 
1.898080085201e+00 -3.824435751881e+02 0.0 
0.0 0.0 -1.632095571174e+02 
-1.619278267349e+02 2.433335304550e+00 0.0 
2.433335304550e+00 -3.809564057074e+02 0.0 
0.0 0.0 -1.624652697327e+02 
-7.301994468596e+01 6.882322076121e-01 0.0 
6.882322076121e-01 -1.799337943990e+02 0.0 
0.0 0.0 -7.548612172547e+01 
-8.800636855288e+01 -1.695874963533e-01 0.0 
-1.695874963533e-01 -2.016908196669e+02 0.0 
0.0 0.0 -8.650915646594e+01 
-1.065233308507e+01 -3.387930547536e-02 0.0 
-3.387930547536e-02 -2.117556580541e+01 0.0 
0.0 0.0 -9.148369667143e+00 
-2.313692436176e+01 2.655297395201e+00 0.0 
2.655297395201e+00 -4.946013325202e+01 0.0 
0.0 0.0 -2.137911728413e+01 
-2.940385189196e+01 6.992530295337e-01 0.0 
6.992530295337e-01 -7.368480502658e+01 0.0 
0.0 0.0 -3.052659707556e+01 
-2.733703391886e+01 2.234812732933e+00 0.0 
2.234812732933e+00 -5.930635271041e+01 0.0 
0.0 0.0 -2.559301598878e+01 
-1.068053037777e+02 4.182866373424e+00 0.0 
4.182866373424e+00 -2.500249421232e+02 0.0 
0.0 0.0 -1.066490737703e+02 
-6.081847043374e+01 1.707378403044e-01 0.0 
1.707378403044e-01 -1.512641245507e+02 0.0 
0.0 0.0 -6.322477849532e+01 
-6.627938715920e+01 2.335057260162e+00 0.0 
2.335057260162e+00 -1.635524775617e+02 0.0 
0.0 0.0 -6.854955941626e+01 
-1.716158314759e+01 5.347873237702e-01 0.0 
5.347873237702e-01 -4.187881866091e+01 0.0 
0.0 0.0 -1.731212054255e+01 
-1.353322211381e+02 -8.857445756122e-03 0.0 
-8.857445756122e-03 -3.161036804058e+02 0.0 
0.0 0.0 -1.350307704632e+02 
-6.561357755419e+01 1.723378375554e+00 0.0 
1.723378375554e+00 -1.619726900456e+02 0.0 
0.0 0.0 -6.787588027995e+01 
-1.409845293675e+02 -3.855274185311e-01 0.0 
-3.855274185311e-01 -3.288924153551e+02 0.0 
0.0 0.0 -1.405630834168e+02 
-1.292646396739e+02 7.404445592777e-01 0.0 
7.404445592777e-01 -3.006225941456e+02 0.0 
0.0 0.0 -1.285661701459e+02 
-1.557467050024e+02 -2.097092027322e-02 0.0 
-2.097092027322e-02 -3.644373531355e+02 0.0 
0.0 0.0 -1.556552174414e+02 
-1.633277650295e+02 2.745234327142e-01 0.0 
2.745234327142e-01 -3.835643782408e+02 0.0 
0.0 0.0 -1.636676429811e+02 
-9.405718671987e+01 -6.073229083637e-01 0.0 
-6.073229083637e-01 -2.180782415575e+02 0.0 
0.0 0.0 -9.324062848320e+01 
-6.916677535943e+01 1.561013983636e+00 0.0 
1.561013983636e+00 -1.702003567809e+02 0.0 
0.0 0.0 -7.141013964210e+01 
-3.909903129810e+01 -1.243345329301e-01 0.0 
-1.243345329301e-01 -8.720212986407e+01 0.0 
0.0 0.0 -3.749034834865e+01 
-7.222946722545e+01 1.875332552245e-01 0.0 
1.875332552245e-01 -1.779722323620e+02 0.0 
0.0 0.0 -7.466050987623e+01 
-1.637374679431e+02 1.580300204099e+00 0.0 
1.580300204099e+00 -3.833874252006e+02 0.0 
0.0 0.0 -1.637374679431e+02 
-1.518372165432e+01 3.585707745293e+00 0.0 
3.585707745293e+00 -3.014036064235e+01 0.0 
0.0 0.0 -1.319722468900e+01 
-1.910731948928e+01 2.845311720262e+00 0.0 
2.845311720262e+00 -3.980290455206e+01 0.0 
0.0 0.0 -1.727306721240e+01 
-1.380917172969e+02 3.996391081310e+00 0.0 
3.996391081310e+00 -3.255284756714e+02 0.0 
0.0 0.0 -1.386860578905e+02 
-8.798062955242e+01 1.199436147750e-01 0.0 
1.199436147750e-01 -2.022806443305e+02 0.0 
0.0 0.0 -8.667838216487e+01 
-1.417608267191e+02 -5.614517941038e-01 0.0 
-5.614517941038e-01 -3.309414599368e+02 0.0 
0.0 0.0 -1.414106859968e+02 
-1.262318236139e+02 3.419554621201e+00 0.0 
3.419554621201e+00 -2.914854974868e+02 0.0 
0.0 0.0 -1.249151963302e+02 
-1.395374496122e+02 2.750831214271e+00 0.0 
2.750831214271e+00 -3.268735524167e+02 0.0 
0.0 0.0 -1.395233006087e+02 
-1.314057486954e+02 3.152265827946e+00 0.0 
3.152265827946e+00 -3.036780230566e+02 0.0 
0.0 0.0 -1.301251315256e+02 
-9.590960867892e+01 -6.476314877218e-01 0.0 
-6.476314877218e-01 -2.216731865622e+02 0.0 
0.0 0.0 -9.487483857234e+01 
-5.269458211505e+01 7.670581303245e-01 0.0 
7.670581303245e-01 -1.303084270372e+02 0.0 
0.0 0.0 -5.450090274567e+01 
-5.213572623557e+01 -4.503832563771e-01 0.0 
-4.503832563771e-01 -1.298424847672e+02 0.0 
0.0 0.0 -5.419346330082e+01 
-1.141157649842e+02 -6.787226078406e-01 0.0 
-6.787226078406e-01 -2.646185914896e+02 0.0 
0.0 0.0 -1.132203069421e+02 
-1.359697094617e+02 4.436156779014e+00 0.0 
4.436156779014e+00 -3.174727564317e+02 0.0 
0.0 0.0 -1.356327397680e+02 
-8.130467587354e+01 1.194415739581e-01 0.0 
1.194415739581e-01 -1.855302877116e+02 0.0 
0.0 0.0 -7.965048907553e+01 
-8.701945134670e+01 -2.098892425137e-02 0.0 
-2.098892425137e-02 -2.011799204527e+02 0.0 
0.0 0.0 -8.605981153982e+01 
-9.390511622277e+01 3.022531784189e-01 0.0 
3.022531784189e-01 -2.170611078158e+02 0.0 
0.0 0.0 -9.288986721157e+01 
-9.605553083373e+01 1.056179437054e+00 0.0 
1.056179437054e+00 -2.226108458363e+02 0.0 
0.0 0.0 -9.519991300100e+01 
-2.355422087138e+01 2.108124870193e-01 0.0 
2.108124870193e-01 -6.195772963522e+01 0.0 
0.0 0.0 -2.525358515198e+01 
-4.772415044152e+01 -6.425911378240e-01 0.0 
-6.425911378240e-01 -1.187350267367e+02 0.0 
0.0 0.0 -4.953775315347e+01 
-1.492710656663e+02 2.428937964318e-01 0.0 
2.428937964318e-01 -3.489228696889e+02 0.0 
0.0 0.0 -1.490581806065e+02 
-1.044862994399e+02 1.012133176741e+00 0.0 
1.012133176741e+00 -2.418220628502e+02 0.0 
0.0 0.0 -1.034925086870e+02 
-1.550554439461e+02 3.264795066646e+00 0.0 
3.264795066646e+00 -3.637556000731e+02 0.0 
0.0 0.0 -1.552433132058e+02 
-1.442492354555e+02 3.105730130057e+00 0.0 
3.105730130057e+00 -3.349360913441e+02 0.0 
0.0 0.0 -1.433555980399e+02 
-1.189682805587e+02 2.907538352188e+00 0.0 
2.907538352188e+00 -2.737280917926e+02 0.0 
0.0 0.0 -1.174089117054e+02 
-1.421297270623e+02 1.680046952561e+00 0.0 
1.680046952561e+00 -3.310965086137e+02 0.0 
0.0 0.0 -1.415678707028e+02 
-7.235883741023e+01 -5.401020382849e-01 0.0 
-5.401020382849e-01 -1.762092798320e+02 0.0 
0.0 0.0 -7.417043517267e+01 
-6.541597719007e+01 -6.042970815405e-01 0.0 
-6.042970815405e-01 -1.607337038601e+02 0.0 
0.0 0.0 -6.744490431505e+01 
-1.476673134544e+02 1.560539601085e+00 0.0 
1.560539601085e+00 -3.490689808225e+02 0.0 
0.0 0.0 -1.486208882831e+02 
-1.068248538653e+01 -3.829236357513e-01 0.0 
-3.829236357513e-01 -2.440890483872e+01 0.0 
0.0 0.0 -1.058010173860e+01 
-4.675790236069e+01 1.514751669484e-01 0.0 
1.514751669484e-01 -1.142596953039e+02 0.0 
0.0 0.0 -4.790527929937e+01 
-1.589829758852e+02 3.926295782330e+00 0.0 
3.926295782330e+00 -3.722936103988e+02 0.0 
0.0 0.0 -1.589829758852e+02 
-2.316638776909e+01 6.949177310019e-01 0.0 
6.949177310019e-01 -5.744002204113e+01 0.0 
0.0 0.0 -2.378192294306e+01 
-8.714208194954e+01 -6.718950260686e-02 0.0 
-6.718950260686e-02 -2.012846862424e+02 0.0 
0.0 0.0 -8.612803045758e+01 
-1.465143444909e+02 3.552770574592e+00 0.0 
3.552770574592e+00 -3.460135074185e+02 0.0 
0.0 0.0 -1.473583555728e+02 
-1.631641323457e+01 -8.294827057349e-01 0.0 
-8.294827057349e-01 -3.890591598260e+01 0.0 
0.0 0.0 -1.616669876515e+01 
-9.896570886355e+00 2.427365819393e-03 0.0 
2.427365819393e-03 -2.387833364111e+01 0.0 
0.0 0.0 -9.732471358239e+00 
-1.563742945999e+02 1.360858549454e+00 0.0 
1.360858549454e+00 -3.653711604510e+02 0.0 
0.0 0.0 -1.561236365153e+02 
-8.029943948428e+01 -3.164299874493e-01 0.0 
-3.164299874493e-01 -1.845703286233e+02 0.0 
0.0 0.0 -7.906093043228e+01 
-1.479480024606e+02 -9.194167413140e-02 0.0 
-9.194167413140e-02 -3.451151979648e+02 0.0 
0.0 0.0 -1.475189601276e+02 
-1.466464120827e+02 3.314565555625e+00 0.0 
3.314565555625e+00 -3.452882285631e+02 0.0 
0.0 0.0 -1.471803921937e+02 
-8.009819548914e+01 2.532560631637e-01 0.0 
2.532560631637e-01 -1.842528692517e+02 0.0 
0.0 0.0 -7.890531942225e+01 
-1.123830023314e+01 4.010834958723e-01 0.0 
4.010834958723e-01 -2.293342257204e+01 0.0 
0.0 0.0 -9.851516841554e+00 
-1.488729024107e+02 5.393375325737e-01 0.0 
5.393375325737e-01 -3.481933573142e+02 0.0 
0.0 0.0 -1.487198779175e+02 
-2.555206030376e+01 6.259998707221e-01 0.0 
6.259998707221e-01 -6.318012994472e+01 0.0 
0.0 0.0 -2.621965707454e+01 
-1.430579211190e+02 1.693117241258e-01 0.0 
1.693117241258e-01 -3.342198528282e+02 0.0 
0.0 0.0 -1.427833321842e+02 
-1.637695980867e+02 1.181419033080e+00 0.0 
1.181419033080e+00 -3.834623955357e+02 0.0 
0.0 0.0 -1.637695980867e+02 
-1.435119464792e+02 2.619623084287e+00 0.0 
2.619623084287e+00 -3.341185139971e+02 0.0 
0.0 0.0 -1.428891381429e+02 
-3.060937141546e+01 4.413488136506e-01 0.0 
4.413488136506e-01 -7.992929059889e+01 0.0 
0.0 0.0 -3.276159860431e+01 
-9.538342740238e+01 3.753387491069e-01 0.0 
3.753387491069e-01 -2.189089518158e+02 0.0 
0.0 0.0 -9.388771376546e+01 
-7.306363359201e+01 5.293191905155e-01 0.0 
5.293191905155e-01 -1.788225710854e+02 0.0 
0.0 0.0 -7.516586140322e+01 
-1.275951384650e+02 4.194576431554e+00 0.0 
4.194576431554e+00 -2.978501328270e+02 0.0 
0.0 0.0 -1.272335813876e+02 
-1.604539409890e+02 4.525197175956e+00 0.0 
4.525197175956e+00 -3.756490125908e+02 0.0 
0.0 0.0 -1.604308860739e+02 
-1.226668240864e+02 -4.130490544977e-01 0.0 
-4.130490544977e-01 -2.855652255462e+02 0.0 
0.0 0.0 -1.220696148898e+02 
-1.602498527814e+02 3.643572763629e+00 0.0 
3.643572763629e+00 -3.760896925649e+02 0.0 
0.0 0.0 -1.605018636039e+02 
-1.598839194727e+01 -3.230081248298e-01 0.0 
-3.230081248298e-01 -4.064560247824e+01 0.0 
0.0 0.0 -1.659019832765e+01 
-1.565053373259e+02 1.995895050900e+00 0.0 
1.995895050900e+00 -3.682071879468e+02 0.0 
0.0 0.0 -1.570137575818e+02 
-3.504635478101e+01 5.275248179355e-01 0.0 
5.275248179355e-01 -9.006849238061e+01 0.0 
0.0 0.0 -3.713445414849e+01 
-2.313531520022e+01 -4.889774539158e-01 0.0 
-4.889774539158e-01 -5.742167828898e+01 0.0 
0.0 0.0 -2.376709804676e+01 
-1.542510731099e+02 3.660365431024e+00 0.0 
3.660365431024e+00 -3.633058693709e+02 0.0 
0.0 0.0 -1.548670827442e+02 
-1.503106416452e+02 1.746675266996e+00 0.0 
1.746675266996e+00 -3.502488159325e+02 0.0 
0.0 0.0 -1.497678372733e+02 
-1.509354423191e+02 1.616474538939e+00 0.0 
1.616474538939e+00 -3.525572152238e+02 0.0 
0.0 0.0 -1.506477972629e+02 
-8.667189627958e+01 -7.586568020010e-01 0.0 
-7.586568020010e-01 -2.000721334227e+02 0.0 
0.0 0.0 -8.562320891069e+01 
-9.643084452080e+01 -1.359985737277e-01 0.0 
-1.359985737277e-01 -2.211883224589e+02 0.0 
0.0 0.0 -9.488575009392e+01 
-3.132684927683e+01 4.537078149158e+00 0.0 
4.537078149158e+00 -6.879758189139e+01 0.0 
0.0 0.0 -2.963732935047e+01 
-1.515432889812e+02 2.997340893473e+00 0.0 
2.997340893473e+00 -3.525555850220e+02 0.0 
0.0 0.0 -1.508296622010e+02 
-6.133253406350e+01 -6.978284200144e-01 0.0 
-6.978284200144e-01 -1.495458437333e+02 0.0 
0.0 0.0 -6.286351333903e+01 
-1.811775095964e+01 4.985088048107e+00 0.0 
4.985088048107e+00 -4.428499065707e+01 0.0 
0.0 0.0 -1.832082248501e+01 
-1.317110599159e+02 2.709544880796e+00 0.0 
2.709544880796e+00 -3.082425937800e+02 0.0 
0.0 0.0 -1.315860961088e+02 
-7.979042051433e+01 9.161550100548e-02 0.0 
9.161550100548e-02 -1.838625855757e+02 0.0 
0.0 0.0 -7.869590182701e+01 
-1.445697551754e+02 8.390389860467e-01 0.0 
8.390389860467e-01 -3.369493748184e+02 0.0 
0.0 0.0 -1.440557389981e+02 
-1.553193164728e+02 7.576045631839e-01 0.0 
7.576045631839e-01 -3.630888780683e+02 0.0 
0.0 0.0 -1.551224583623e+02 
-1.561112216243e+02 9.842905522446e-02 0.0 
9.842905522446e-02 -3.655928504566e+02 0.0 
0.0 0.0 -1.561112216243e+02 
-2.631817282941e+00 3.625685224168e-01 0.0 
3.625685224168e-01 -6.584457370060e+00 0.0 
0.0 0.0 -2.364882395900e+00 
-5.065952272060e+00 -2.993340576199e-01 0.0 
-2.993340576199e-01 -1.041691667931e+01 0.0 
0.0 0.0 -4.881367235571e+00 
-8.068463839294e+01 6.778640550354e-01 0.0 
6.778640550354e-01 -1.863188309813e+02 0.0 
0.0 0.0 -7.970104081228e+01 
-7.926708637442e+01 -1.091525016938e-01 0.0 
-1.091525016938e-01 -1.838013002162e+02 0.0 
0.0 0.0 -7.852051597719e+01 
-1.640117875795e+02 1.184124670913e-01 0.0 
1.184124670913e-01 -3.840275043522e+02 0.0 
0.0 0.0 -1.640117875795e+02 
-1.625425623482e+02 -7.031877309993e-01 0.0 
-7.031877309993e-01 -3.813887285931e+02 0.0 
0.0 0.0 -1.627793872824e+02 
-9.458023586382e+00 -6.287352591002e-01 0.0 
-6.287352591002e-01 -2.292314155786e+01 0.0 
0.0 0.0 -9.314349543273e+00 
-6.305636478138e+00 -2.327557625303e-01 0.0 
-2.327557625303e-01 -8.202264513356e+00 0.0 
0.0 0.0 -4.852796644654e+00 
-1.488829113878e+02 3.482845702045e-01 0.0 
3.482845702045e-01 -3.515422217884e+02 0.0 
0.0 0.0 -1.497275399529e+02 
-1.441492261209e+02 2.537540504533e+00 0.0 
2.537540504533e+00 -3.364818403175e+02 0.0 
0.0 0.0 -1.437893199315e+02 
-3.026903733805e+01 3.320642223461e-01 0.0 
3.320642223461e-01 -7.374993736866e+01 0.0 
0.0 0.0 -3.080569241201e+01 
-1.504439457750e+02 2.097410288419e+00 0.0 
2.097410288419e+00 -3.547962401084e+02 0.0 
0.0 0.0 -1.511720557650e+02 
-1.047681030909e+02 2.585732198151e-01 0.0 
2.585732198151e-01 -2.519658464286e+02 0.0 
0.0 0.0 -1.066201848558e+02 
-8.958512107868e+01 7.976257651342e-01 0.0 
7.976257651342e-01 -2.175221354609e+02 0.0 
0.0 0.0 -9.173217696188e+01 
-1.083409293579e+02 -2.766966277395e-01 0.0 
-2.766966277395e-01 -2.516655904007e+02 0.0 
0.0 0.0 -1.076019559276e+02 
-2.761444488773e+01 -4.830883022996e-01 0.0 
-4.830883022996e-01 -6.916758911842e+01 0.0 
0.0 0.0 -2.863461020185e+01 
-1.194384060794e+02 4.176272516642e+00 0.0 
4.176272516642e+00 -2.787502715500e+02 0.0 
0.0 0.0 -1.190566032888e+02 
-2.422262058839e+01 -3.396502472238e-01 0.0 
-3.396502472238e-01 -5.912975129852e+01 0.0 
0.0 0.0 -2.460571156607e+01 
-8.165651669375e+01 8.336929028234e-01 0.0 
8.336929028234e-01 -1.978891149445e+02 0.0 
0.0 0.0 -8.346368949148e+01 
-1.455998397154e+02 2.053321301500e+00 0.0 
2.053321301500e+00 -3.388606727482e+02 0.0 
0.0 0.0 -1.449381537391e+02 
-1.388337680954e+02 8.648933273011e-01 0.0 
8.648933273011e-01 -3.238375407229e+02 0.0 
0.0 0.0 -1.384013926455e+02 
-8.979586819055e+01 -3.921955937253e-01 0.0 
-3.921955937253e-01 -2.166584411950e+02 0.0 
0.0 0.0 -9.153629281566e+01 
-9.981024232817e+01 7.845482887457e-01 0.0 
7.845482887457e-01 -2.313434779803e+02 0.0 
0.0 0.0 -9.894611609254e+01 
-1.453111764582e+02 3.041113009086e+00 0.0 
3.041113009086e+00 -3.388103046457e+02 0.0 
0.0 0.0 -1.448364443312e+02 
-1.348600594646e+02 3.346831644925e+00 0.0 
3.346831644925e+00 -3.120170084150e+02 0.0 
0.0 0.0 -1.336631203639e+02 
-1.268710475828e+02 3.147451722130e+00 0.0 
3.147451722130e+00 -2.927737059365e+02 0.0 
0.0 0.0 -1.254934260558e+02 
-8.004030778406e+01 -1.621882057844e-02 0.0 
-1.621882057844e-02 -1.845198566400e+02 0.0 
0.0 0.0 -7.896804932723e+01 
-1.150349083377e+02 4.241429245972e+00 0.0 
4.241429245972e+00 -2.692701472912e+02 0.0 
0.0 0.0 -1.148915166886e+02 
-1.435661906683e+02 1.220849355846e+00 0.0 
1.220849355846e+00 -3.346402370934e+02 0.0 
0.0 0.0 -1.430619283285e+02 
-4.619386889170e+01 -5.269743416808e-01 0.0 
-5.269743416808e-01 -1.138560380990e+02 0.0 
0.0 0.0 -4.761497209720e+01 
-1.114670291004e+01 -1.019121725215e-01 0.0 
-1.019121725215e-01 -2.499704820013e+01 0.0 
0.0 0.0 -1.044312533305e+01 
-1.402974528708e+02 3.703604238746e+00 0.0 
3.703604238746e+00 -3.263940188963e+02 0.0 
0.0 0.0 -1.396074415301e+02 
-1.335198047588e+02 2.512690544734e+00 0.0 
2.512690544734e+00 -3.155124923379e+02 0.0 
0.0 0.0 -1.343096891290e+02 
-2.309244524503e+01 1.915445441496e-01 0.0 
1.915445441496e-01 -5.761355258727e+01 0.0 
0.0 0.0 -2.381179934969e+01 
-1.143880708217e+02 7.211619278749e-01 0.0 
7.211619278749e-01 -2.657032593423e+02 0.0 
0.0 0.0 -1.136273990492e+02 
-1.557035000757e+02 1.044600932992e+00 0.0 
1.044600932992e+00 -3.662342821472e+02 0.0 
0.0 0.0 -1.561813346669e+02 
-1.395493613143e+02 2.787004582108e+00 0.0 
2.787004582108e+00 -3.255219214214e+02 0.0 
0.0 0.0 -1.391213848207e+02 
-1.453664570325e+02 3.611011849531e+00 0.0 
3.611011849531e+00 -3.390075053434e+02 0.0 
0.0 0.0 -1.449121887128e+02 
-1.135437606771e+02 9.181673777736e-01 0.0 
9.181673777736e-01 -2.722075641486e+02 0.0 
0.0 0.0 -1.153253974477e+02 
-7.769106371179e+00 1.985766097314e+00 0.0 
1.985766097314e+00 -2.280180395582e+01 0.0 
0.0 0.0 -9.048064147324e+00 
-3.007311546891e+01 2.500121548848e-01 0.0 
2.500121548848e-01 -6.702067594840e+01 0.0 
0.0 0.0 -2.872813742519e+01 
-4.008225593955e+01 3.482560805927e+00 0.0 
3.482560805927e+00 -8.815656241251e+01 0.0 
0.0 0.0 -3.807164550562e+01 
-9.574265593470e+01 3.522333407361e-01 0.0 
3.522333407361e-01 -2.190068540079e+02 0.0 
0.0 0.0 -9.402485298279e+01 
-1.149383812569e+02 2.457324220768e+00 0.0 
2.457324220768e+00 -2.689215253607e+02 0.0 
0.0 0.0 -1.147579719853e+02 
-1.441123077267e+02 1.173687157356e+00 0.0 
1.173687157356e+00 -3.365170162385e+02 0.0 
0.0 0.0 -1.437887971896e+02 
-1.531928945471e+02 3.305794714824e+00 0.0 
3.305794714824e+00 -3.595874930185e+02 0.0 
0.0 0.0 -1.534341162697e+02 
-1.774909106309e+01 -2.157342885490e-01 0.0 
-2.157342885490e-01 -4.156381202529e+01 0.0 
0.0 0.0 -1.739387092651e+01 
-1.702312585379e+01 -6.392787387482e-01 0.0 
-6.392787387482e-01 -4.016998146627e+01 0.0 
0.0 0.0 -1.675793219602e+01 
-2.226786558751e+01 1.091776188562e-01 0.0 
1.091776188562e-01 -4.940586345550e+01 0.0 
0.0 0.0 -2.110211871290e+01 
-1.169706313394e+02 -9.694391815372e-01 0.0 
-9.694391815372e-01 -2.714079844192e+02 0.0 
0.0 0.0 -1.161135847276e+02 
-5.679965351649e+01 6.253287242181e-01 0.0 
6.253287242181e-01 -1.393181385729e+02 0.0 
0.0 0.0 -5.843533762683e+01 
-1.452943178854e+02 1.840088382187e+00 0.0 
1.840088382187e+00 -3.385350175219e+02 0.0 
0.0 0.0 -1.447488006222e+02 
-2.894628186864e+01 5.258036527325e-01 0.0 
5.258036527325e-01 -7.070584676382e+01 0.0 
0.0 0.0 -2.949563858974e+01 
-1.455941571815e+02 3.064488566719e+00 0.0 
3.064488566719e+00 -3.424803162788e+02 0.0 
0.0 0.0 -1.460223420381e+02 
-9.444422250472e+01 -4.898196554788e-01 0.0 
-4.898196554788e-01 -2.173058748772e+02 0.0 
0.0 0.0 -9.312502921456e+01 
-1.530412731243e+02 3.740824905480e+00 0.0 
3.740824905480e+00 -3.576705479313e+02 0.0 
0.0 0.0 -1.528135463167e+02 
-1.321058640623e+02 4.369000967495e+00 0.0 
4.369000967495e+00 -3.079206498160e+02 0.0 
0.0 0.0 -1.316079541635e+02 
-9.590122449604e+01 9.252686265181e-01 0.0 
9.252686265181e-01 -2.191274896508e+02 0.0 
0.0 0.0 -9.410861424405e+01 
-1.546528934273e+02 3.040880099041e+00 0.0 
3.040880099041e+00 -3.644106940503e+02 0.0 
0.0 0.0 -1.553190762433e+02 
-1.501586243548e+02 1.070782881303e+00 0.0 
1.070782881303e+00 -3.504776454812e+02 0.0 
0.0 0.0 -1.497908809508e+02 
-1.497059673023e+02 -1.289280219643e-01 0.0 
-1.289280219643e-01 -3.493558713649e+02 0.0 
0.0 0.0 -1.493185516001e+02 
-1.329898055870e+01 4.234107615221e-01 0.0 
4.234107615221e-01 -2.956665738876e+01 0.0 
0.0 0.0 -1.245969138424e+01 
-1.419669577034e+02 3.515240425124e-01 0.0 
3.515240425124e-01 -3.308831059972e+02 0.0 
0.0 0.0 -1.414550191102e+02 
-1.511332222561e+02 3.084941590966e+00 0.0 
3.084941590966e+00 -3.530819393874e+02 0.0 
0.0 0.0 -1.508645484930e+02 
-1.458027706059e+02 3.987542583016e+00 0.0 
3.987542583016e+00 -3.431134478368e+02 0.0 
0.0 0.0 -1.462748655328e+02 
-1.355114997044e+02 2.536117208893e+00 0.0 
2.536117208893e+00 -3.166510515891e+02 0.0 
0.0 0.0 -1.352487653881e+02 
-1.633025235378e+02 1.835820593740e+00 0.0 
1.835820593740e+00 -3.823725549215e+02 0.0 
0.0 0.0 -1.633025235378e+02 
-1.263483681801e+02 1.342384771816e+00 0.0 
1.342384771816e+00 -2.921983348882e+02 0.0 
0.0 0.0 -1.251640109205e+02 
-5.157992963939e+00 1.101119086363e+00 0.0 
1.101119086363e+00 -8.438229521880e+00 0.0 
0.0 0.0 -4.630609646271e+00 
-2.191926797679e+01 5.861034916667e+00 0.0 
5.861034916667e+00 -5.104548152839e+01 0.0 
0.0 0.0 -2.148942485156e+01 
-1.390199505266e+02 3.153701283376e+00 0.0 
3.153701283376e+00 -3.226332575931e+02 0.0 
0.0 0.0 -1.380959624359e+02 
-1.017138500687e+02 -8.747034404944e-02 0.0 
-8.747034404944e-02 -2.336464474663e+02 0.0 
0.0 0.0 -1.002080892605e+02 
-1.487998598019e+02 1.265665935937e+00 0.0 
1.265665935937e+00 -3.509667440146e+02 0.0 
0.0 0.0 -1.495299811450e+02 
-1.402487839852e+02 4.419627382491e+00 0.0 
4.419627382491e+00 -3.270489591984e+02 0.0 
0.0 0.0 -1.397893229551e+02 
-1.567837678162e+02 1.867973159697e+00 0.0 
1.867973159697e+00 -3.681115510242e+02 0.0 
0.0 0.0 -1.570685956521e+02 
-1.257722180611e+02 -7.506883663187e-01 0.0 
-7.506883663187e-01 -2.920156728030e+02 0.0 
0.0 0.0 -1.249363672592e+02 
-1.531802814402e+02 3.814089852834e+00 0.0 
3.814089852834e+00 -3.587539177116e+02 0.0 
0.0 0.0 -1.531802597455e+02 
-1.491283562232e+02 3.166296533447e+00 0.0 
3.166296533447e+00 -3.517790715244e+02 0.0 
0.0 0.0 -1.498722283243e+02 
-1.489160031322e+02 1.879448630616e+00 0.0 
1.879448630616e+00 -3.515213529467e+02 0.0 
0.0 0.0 -1.497312068237e+02 
-5.906519954026e+01 3.868485345480e-01 0.0 
3.868485345480e-01 -1.446185698090e+02 0.0 
0.0 0.0 -6.070513080479e+01 
-1.634029538780e+02 1.721880829825e+00 0.0 
1.721880829825e+00 -3.831080742358e+02 0.0 
0.0 0.0 -1.635533084341e+02 
-8.763992430458e+01 1.779733569900e-01 0.0 
1.779733569900e-01 -2.008446758438e+02 0.0 
0.0 0.0 -8.614538004452e+01 
-1.421899086370e+02 1.021039282967e+00 0.0 
1.021039282967e+00 -3.314027076364e+02 0.0 
0.0 0.0 -1.416777848820e+02 
-1.705149047645e+01 -1.435315192556e-01 0.0 
-1.435315192556e-01 -4.119723215384e+01 0.0 
0.0 0.0 -1.707461678909e+01 
-1.362108173913e+02 6.296858340314e-01 0.0 
6.296858340314e-01 -3.168087634390e+02 0.0 
0.0 0.0 -1.355058742491e+02 
-1.152963529320e+02 2.387959153652e-01 0.0 
2.387959153652e-01 -2.674573737398e+02 0.0 
0.0 0.0 -1.144261180015e+02 
-1.695730494944e+01 2.788746064712e-01 0.0 
2.788746064712e-01 -4.182529869069e+01 0.0 
0.0 0.0 -1.723478109204e+01 
-2.789393101154e+01 1.806758469588e+00 0.0 
1.806758469588e+00 -7.210907876927e+01 0.0 
0.0 0.0 -2.960090293424e+01 
-1.300406122473e+02 1.535214984571e+00 0.0 
1.535214984571e+00 -3.012355427524e+02 0.0 
0.0 0.0 -1.289828464999e+02 
-1.491075833690e+02 8.018380444601e-01 0.0 
8.018380444601e-01 -3.487422255601e+02 0.0 
0.0 0.0 -1.489549426787e+02 
-1.430069593944e+02 8.118735000612e-01 0.0 
8.118735000612e-01 -3.340392714399e+02 0.0 
0.0 0.0 -1.427138692503e+02 
-1.517342383309e+02 2.916988186397e+00 0.0 
2.916988186397e+00 -3.555248698901e+02 0.0 
0.0 0.0 -1.517777324663e+02 
-9.974300006508e+01 -8.580347617119e-01 0.0 
-8.580347617119e-01 -2.309429204808e+02 0.0 
0.0 0.0 -9.880577616375e+01 
-1.080824948100e+01 -3.005801604012e-01 0.0 
-3.005801604012e-01 -2.453955923879e+01 0.0 
0.0 0.0 -1.020434261594e+01 
-1.368284117598e+01 1.322573605026e+00 0.0 
1.322573605026e+00 -3.663674359842e+01 0.0 
0.0 0.0 -1.469587543232e+01 
-1.147624896648e+01 -1.040218726901e+00 0.0 
-1.040218726901e+00 -2.796968775111e+01 0.0 
0.0 0.0 -1.142519587241e+01 
-2.255974719660e+01 2.243786649283e-01 0.0 
2.243786649283e-01 -5.439354980993e+01 0.0 
0.0 0.0 -2.268598910196e+01 
-5.335917983794e+00 3.580626871714e+00 0.0 
3.580626871714e+00 -6.880204537456e+00 0.0 
0.0 0.0 -3.460458555696e+00 
-7.958249444978e+01 -4.293907112924e-01 0.0 
-4.293907112924e-01 -1.929784309525e+02 0.0 
0.0 0.0 -8.136827762068e+01 
-1.487544755438e+02 -2.496022686931e-01 0.0 
-2.496022686931e-01 -3.509012760331e+02 0.0 
0.0 0.0 -1.494967254731e+02 
-1.437137077477e+02 1.302579011889e+00 0.0 
1.302579011889e+00 -3.344714840321e+02 0.0 
0.0 0.0 -1.430555575339e+02 
-1.018092035585e+02 1.510116213811e+00 0.0 
1.510116213811e+00 -2.329372481017e+02 0.0 
0.0 0.0 -1.000239354981e+02 
-6.919176565442e+01 1.097252450200e+00 0.0 
1.097252450200e+00 -1.690349828611e+02 0.0 
0.0 0.0 -7.106802455466e+01 
-1.481538972097e+02 2.764688905414e+00 0.0 
2.764688905414e+00 -3.498615839929e+02 0.0 
0.0 0.0 -1.490046443608e+02 
-1.456431131119e+02 2.202213475145e+00 0.0 
2.202213475145e+00 -3.439032912150e+02 0.0 
0.0 0.0 -1.464639212981e+02 
-1.528962572013e+02 3.562696497958e+00 0.0 
3.562696497958e+00 -3.578706359407e+02 0.0 
0.0 0.0 -1.528300679426e+02 
-1.455420892744e+02 3.302083623354e+00 0.0 
3.302083623354e+00 -3.394277972173e+02 0.0 
0.0 0.0 -1.450909659475e+02 
-1.378006530820e+02 1.789855617588e+00 0.0 
1.789855617588e+00 -3.200885771778e+02 0.0 
0.0 0.0 -1.369667690779e+02 
-1.652601643499e+01 -7.089387447963e-01 0.0 
-7.089387447963e-01 -4.047585974712e+01 0.0 
0.0 0.0 -1.670056285463e+01 
-1.587105998402e+01 7.095012186455e-01 0.0 
7.095012186455e-01 -3.633426452889e+01 0.0 
0.0 0.0 -1.526159735387e+01 
-1.490492142034e+02 1.463404329271e+00 0.0 
1.463404329271e+00 -3.521302186192e+02 0.0 
0.0 0.0 -1.499538298468e+02 
-1.634047341113e+01 -2.069800057849e-01 0.0 
-2.069800057849e-01 -4.118919428742e+01 0.0 
0.0 0.0 -1.685890030956e+01 
-1.959557942995e+01 -1.091911499497e+00 0.0 
-1.091911499497e+00 -4.894277019119e+01 0.0 
0.0 0.0 -2.016150488634e+01 
-1.013160991404e+01 3.783261872730e+00 0.0 
3.783261872730e+00 -2.604006517495e+01 0.0 
0.0 0.0 -1.045150252670e+01 
-1.599874245371e+01 3.228794192045e-01 0.0 
3.228794192045e-01 -3.871911674880e+01 0.0 
0.0 0.0 -1.601535776075e+01 
-1.553452493615e+02 2.656534088094e+00 0.0 
2.656534088094e+00 -3.652993338520e+02 0.0 
0.0 0.0 -1.557933749640e+02 
-1.512404652132e+02 3.181153758988e+00 0.0 
3.181153758988e+00 -3.532437653310e+02 0.0 
0.0 0.0 -1.509452691633e+02 
-1.438946161314e+02 -2.639888244182e-01 0.0 
-2.639888244182e-01 -3.365422637329e+02 0.0 
0.0 0.0 -1.437310639593e+02 
-1.529569482983e+02 3.716712511564e+00 0.0 
3.716712511564e+00 -3.582746124408e+02 0.0 
0.0 0.0 -1.529694682217e+02 
-1.410321903742e+02 3.673616573978e+00 0.0 
3.673616573978e+00 -3.333283786013e+02 0.0 
0.0 0.0 -1.419081706927e+02 
-1.046573907386e+02 -9.279259332228e-01 0.0 
-9.279259332228e-01 -2.421515066378e+02 0.0 
0.0 0.0 -1.036426692129e+02 
-1.564181348993e+02 1.026166488055e+00 0.0 
1.026166488055e+00 -3.663089814318e+02 0.0 
0.0 0.0 -1.564181348993e+02 
-3.602882867255e+01 9.495640331662e-01 0.0 
9.495640331662e-01 -9.046870101248e+01 0.0 
0.0 0.0 -3.754925890551e+01 
-8.003933533999e+01 2.702486249918e-02 0.0 
2.702486249918e-02 -1.836452949823e+02 0.0 
0.0 0.0 -7.870538909670e+01 
-2.296806702804e+01 -4.602832505164e-01 0.0 
-4.602832505164e-01 -5.573281869906e+01 0.0 
0.0 0.0 -2.321026571813e+01 
-1.033235091862e+01 -3.535763226820e-01 0.0 
-3.535763226820e-01 -2.440140720649e+01 0.0 
0.0 0.0 -1.056698731801e+01 
-1.633479464959e+02 9.851670316559e-01 0.0 
9.851670316559e-01 -3.830935256188e+02 0.0 
0.0 0.0 -1.635324416344e+02 
-8.902323104020e+01 6.820886134840e-01 0.0 
6.820886134840e-01 -2.034864178463e+02 0.0 
0.0 0.0 -8.735289466596e+01 
-2.339520401049e+01 -2.779134782064e-01 0.0 
-2.779134782064e-01 -5.691400015959e+01 0.0 
0.0 0.0 -2.369276125102e+01 
-7.600503495555e+01 -8.894618220993e-01 0.0 
-8.894618220993e-01 -1.856197770228e+02 0.0 
0.0 0.0 -7.808744359350e+01 
-1.520329175619e+02 2.818869220605e+00 0.0 
2.818869220605e+00 -3.540820597472e+02 0.0 
0.0 0.0 -1.514344931927e+02 
-1.435347270739e+02 1.356494227189e+00 0.0 
1.356494227189e+00 -3.349478785091e+02 0.0 
0.0 0.0 -1.431447816749e+02 
-1.500090685025e+02 1.590079153715e+00 0.0 
1.590079153715e+00 -3.506576591900e+02 0.0 
0.0 0.0 -1.498000183078e+02 
-5.402413454336e+01 4.916406706164e-01 0.0 
4.916406706164e-01 -1.321135810457e+02 0.0 
0.0 0.0 -5.544131467671e+01 
-1.488527517767e+01 1.348680573961e+00 0.0 
1.348680573961e+00 -3.712029657067e+01 0.0 
0.0 0.0 -1.520167152450e+01 
-1.556372417654e+02 2.327811521900e+00 0.0 
2.327811521900e+00 -3.669777267538e+02 0.0 
0.0 0.0 -1.563844905558e+02 
-1.566521464997e+02 3.273860415874e-03 0.0 
3.273860415874e-03 -3.656563384944e+02 0.0 
0.0 0.0 -1.562925454982e+02 
-1.632078495108e+02 3.153102080812e-01 0.0 
3.153102080812e-01 -3.835577833816e+02 0.0 
0.0 0.0 -1.636296898677e+02 
-8.573126536320e+01 -5.193624015925e-01 0.0 
-5.193624015925e-01 -1.982158279817e+02 0.0 
0.0 0.0 -8.478412800346e+01 
-1.473572254412e+02 3.140251960226e+00 0.0 
3.140251960226e+00 -3.469889639469e+02 0.0 
0.0 0.0 -1.479038568164e+02 
-2.386736213065e+01 1.591003251100e-01 0.0 
1.591003251100e-01 -5.822933274915e+01 0.0 
0.0 0.0 -2.422900846394e+01 
-1.449963485865e+02 5.344435207820e-01 0.0 
5.344435207820e-01 -3.385584325760e+02 0.0 
0.0 0.0 -1.446664343487e+02 
-1.010165851575e+01 -1.796270076821e-01 0.0 
-1.796270076821e-01 -2.345365793799e+01 0.0 
0.0 0.0 -1.017435268366e+01 
-1.551751114008e+02 3.059858781354e+00 0.0 
3.059858781354e+00 -3.648662251897e+02 0.0 
0.0 0.0 -1.556124009772e+02 
-1.498291077827e+02 1.244218393841e+00 0.0 
1.244218393841e+00 -3.496013862826e+02 0.0 
0.0 0.0 -1.494291482196e+02 
-9.128672734299e+00 1.039291808634e+00 0.0 
1.039291808634e+00 -2.346900645792e+01 0.0 
0.0 0.0 -9.888575292289e+00 
-1.399267774528e+02 3.956301460992e+00 0.0 
3.956301460992e+00 -3.262883678443e+02 0.0 
0.0 0.0 -1.394645435891e+02 
-1.216182639725e+02 8.912455105017e-01 0.0 
8.912455105017e-01 -2.820616911808e+02 0.0 
0.0 0.0 -1.207039865460e+02 
-1.496880750435e+02 6.596819133184e-01 0.0 
6.596819133184e-01 -3.500301003186e+02 0.0 
0.0 0.0 -1.495154526086e+02 
-1.610246005659e+02 4.016487586003e+00 0.0 
4.016487586003e+00 -3.770574013205e+02 0.0 
0.0 0.0 -1.610246005659e+02 
-1.100653090617e+02 1.242231272718e+00 0.0 
1.242231272718e+00 -2.554910078329e+02 0.0 
0.0 0.0 -1.092668950684e+02 
-1.514408582993e+02 2.647357170444e+00 0.0 
2.647357170444e+00 -3.536949414676e+02 0.0 
0.0 0.0 -1.511407399301e+02 
-1.449978410456e+02 2.123466067095e+00 0.0 
2.123466067095e+00 -3.377696381023e+02 0.0 
0.0 0.0 -1.444302437444e+02 
-1.149520975138e+02 6.178162656270e-02 0.0 
6.178162656270e-02 -2.671018480950e+02 0.0 
0.0 0.0 -1.142161836826e+02 
-1.465199306546e+02 2.707238394591e+00 0.0 
2.707238394591e+00 -3.410755137296e+02 0.0 
0.0 0.0 -1.458786333153e+02 
-6.515077324936e+01 4.686777258823e-01 0.0 
4.686777258823e-01 -1.584862163482e+02 0.0 
0.0 0.0 -6.669109687926e+01 
-7.945876277777e+01 1.029755400020e-01 0.0 
1.029755400020e-01 -1.837722312853e+02 0.0 
0.0 0.0 -7.856929821892e+01 
-1.473591449529e+02 3.069907381405e+00 0.0 
3.069907381405e+00 -3.449351347561e+02 0.0 
0.0 0.0 -1.472882839127e+02 
-1.503825955891e+02 -3.974902523793e-01 0.0 
-3.974902523793e-01 -3.513939701949e+02 0.0 
0.0 0.0 -1.501329697352e+02 
-4.277128211048e+00 1.441333535842e-01 0.0 
1.441333535842e-01 -8.583282726345e+00 0.0 
0.0 0.0 -4.383372104384e+00 
-7.951198017405e+01 -2.184264848524e-01 0.0 
-2.184264848524e-01 -1.839990784167e+02 0.0 
0.0 0.0 -7.865331757722e+01 
-1.576329370218e+02 6.497540512957e-01 0.0 
6.497540512957e-01 -3.704828500888e+02 0.0 
0.0 0.0 -1.580347361332e+02 
-2.963449785742e+01 -7.415352358014e-01 0.0 
-7.415352358014e-01 -7.282238184629e+01 0.0 
0.0 0.0 -3.033706391111e+01 
-1.461821760094e+02 3.362871740127e+00 0.0 
3.362871740127e+00 -3.452569500204e+02 0.0 
0.0 0.0 -1.470317378089e+02 
-1.446271028336e+02 2.343122591003e+00 0.0 
2.343122591003e+00 -3.358184233104e+02 0.0 
0.0 0.0 -1.437336578432e+02 
-1.492629176545e+02 1.108311832237e+00 0.0 
1.108311832237e+00 -3.487626032779e+02 0.0 
0.0 0.0 -1.490076562797e+02 
-2.861222670416e+01 -6.766518732378e-01 0.0 
-6.766518732378e-01 -7.003553936372e+01 0.0 
0.0 0.0 -2.919432982036e+01 
-1.652675111132e+01 4.746234005267e+00 0.0 
4.746234005267e+00 -4.404355393231e+01 0.0 
0.0 0.0 -1.777109151309e+01 
-9.309956569273e+01 -1.332100303935e+00 0.0 
-1.332100303935e+00 -2.260912115561e+02 0.0 
0.0 0.0 -9.535723317464e+01 
-1.298576509138e+02 -2.127770059426e-01 0.0 
-2.127770059426e-01 -3.030120622309e+02 0.0 
0.0 0.0 -1.294609139434e+02 
-6.823448672833e+00 -2.679119334687e-01 0.0 
-2.679119334687e-01 -6.044540002419e+00 0.0 
0.0 0.0 -3.460396602576e+00 
-1.503113819856e+02 1.398806306714e+00 0.0 
1.398806306714e+00 -3.514004900170e+02 0.0 
0.0 0.0 -1.501135616008e+02 
-1.075352935224e+02 -8.667549226148e-02 0.0 
-8.667549226148e-02 -2.495988579314e+02 0.0 
0.0 0.0 -1.067402454361e+02 
-2.819690182098e+01 4.245690650412e-01 0.0 
4.245690650412e-01 -6.926350974141e+01 0.0 
0.0 0.0 -2.883812346872e+01 
-1.015788915431e+02 -1.726196962956e-01 0.0 
-1.726196962956e-01 -2.358562341946e+02 0.0 
0.0 0.0 -1.008305377213e+02 
-1.525436219986e+02 4.327193860089e+00 0.0 
4.327193860089e+00 -3.565190100457e+02 0.0 
0.0 0.0 -1.523187896133e+02 
-9.797745750177e+01 1.185678524637e+00 0.0 
1.185678524637e+00 -2.367533284363e+02 0.0 
0.0 0.0 -1.000192357814e+02 
-6.322889304082e+00 3.949982466580e+00 0.0 
3.949982466580e+00 -1.031724331503e+01 0.0 
0.0 0.0 -4.566037110358e+00 
-5.843976651532e+01 -6.129345433463e-01 0.0 
-6.129345433463e-01 -1.439328590537e+02 0.0 
0.0 0.0 -6.031178767070e+01 
-8.564983952072e+01 -3.029207674440e-01 0.0 
-3.029207674440e-01 -2.077786001302e+02 0.0 
0.0 0.0 -8.762853189527e+01 
-1.022545877021e+02 -1.376230239442e+00 0.0 
-1.376230239442e+00 -2.458708207626e+02 0.0 
0.0 0.0 -1.040376225394e+02 
-1.474720263367e+02 4.318911493641e+00 0.0 
4.318911493641e+00 -3.453257366770e+02 0.0 
0.0 0.0 -1.474393289041e+02 
-8.317293686833e+01 7.252442444689e-01 0.0 
7.252442444689e-01 -2.024845737002e+02 0.0 
0.0 0.0 -8.529725317055e+01 
-8.891011569665e+01 -2.560395962491e-01 0.0 
-2.560395962491e-01 -2.150076083907e+02 0.0 
0.0 0.0 -9.077531722619e+01 
-1.501877711880e+01 -6.450631257721e-01 0.0 
-6.450631257721e-01 -3.692784847283e+01 0.0 
0.0 0.0 -1.518398767749e+01 
-1.502160256368e+02 1.064456249370e+00 0.0 
1.064456249370e+00 -3.550271009867e+02 0.0 
0.0 0.0 -1.511729379870e+02 
-1.400070907513e+02 2.417250746740e+00 0.0 
2.417250746740e+00 -3.264646327334e+02 0.0 
0.0 0.0 -1.395415170454e+02 
-2.209180766752e+01 4.177220585411e+00 0.0 
4.177220585411e+00 -5.579810012346e+01 0.0 
0.0 0.0 -2.296697233730e+01 
-1.503460325118e+02 4.138394146702e-01 0.0 
4.138394146702e-01 -3.508546302711e+02 0.0 
0.0 0.0 -1.499601988349e+02 
-1.573817728313e+02 -4.088865759743e-01 0.0 
-4.088865759743e-01 -3.699261176673e+02 0.0 
0.0 0.0 -1.577923671496e+02 
-8.612137886511e+01 6.221131718077e-01 0.0 
6.221131718077e-01 -1.992350744927e+02 0.0 
0.0 0.0 -8.520693600733e+01 
-1.075362885453e+02 -6.659098155616e-02 0.0 
-6.659098155616e-02 -2.495747119534e+02 0.0 
0.0 0.0 -1.067333001496e+02 
-8.340764643830e+01 -5.776131147196e-01 0.0 
-5.776131147196e-01 -2.023766789480e+02 0.0 
0.0 0.0 -8.533529761589e+01 
-8.630677377184e+01 5.119299051605e-01 0.0 
5.119299051605e-01 -2.086097483505e+02 0.0 
0.0 0.0 -8.807495663671e+01 
-8.858786641428e+01 2.046317093717e-01 0.0 
2.046317093717e-01 -2.153769680311e+02 0.0 
0.0 0.0 -9.078945033361e+01 
-1.409436088403e+02 2.728122618603e+00 0.0 
2.728122618603e+00 -3.325904275316e+02 0.0 
0.0 0.0 -1.416602109116e+02 
-2.262263808583e+01 -6.927509757453e-01 0.0 
-6.927509757453e-01 -5.642564836608e+01 0.0 
0.0 0.0 -2.331448593558e+01 
-1.452152005597e+02 3.749661784883e+00 0.0 
3.749661784883e+00 -3.380179215845e+02 0.0 
0.0 0.0 -1.445699366433e+02 
-9.331413050595e+01 -2.538988606780e-01 0.0 
-2.538988606780e-01 -2.160917333311e+02 0.0 
0.0 0.0 -9.242175915112e+01 
-1.500687232996e+02 1.800638016178e+00 0.0 
1.800638016178e+00 -3.500995372143e+02 0.0 
0.0 0.0 -1.496504781542e+02 
-1.409251519976e+02 3.812659660076e+00 0.0 
3.812659660076e+00 -3.323894144217e+02 0.0 
0.0 0.0 -1.415943699258e+02 
-1.022306916538e+02 3.405401627166e-01 0.0 
3.405401627166e-01 -2.364626939784e+02 0.0 
0.0 0.0 -1.012080156896e+02 
-1.410857125857e+02 2.058173893768e+00 0.0 
2.058173893768e+00 -3.283068309009e+02 0.0 
0.0 0.0 -1.404177630460e+02 
-1.468451636904e+02 3.149855822829e+00 0.0 
3.149855822829e+00 -3.444725601364e+02 0.0 
0.0 0.0 -1.469953171480e+02 
-1.528611093913e+02 4.053172953432e+00 0.0 
4.053172953432e+00 -3.583327399377e+02 0.0 
0.0 0.0 -1.529581547987e+02 
-6.650055475866e+00 3.301639854670e+00 0.0 
3.301639854670e+00 -1.834417981022e+01 0.0 
0.0 0.0 -7.312303446886e+00 
-1.414023303617e+02 3.153855152865e+00 0.0 
3.153855152865e+00 -3.286155923835e+02 0.0 
0.0 0.0 -1.406053768235e+02 
-1.456007866635e+02 2.055051263735e+00 0.0 
2.055051263735e+00 -3.389295312216e+02 0.0 
0.0 0.0 -1.449590953655e+02 
-1.595638911600e+01 3.612195915468e-01 0.0 
3.612195915468e-01 -3.808210838946e+01 0.0 
0.0 0.0 -1.581154925164e+01 
-7.925028732530e+01 5.060429070388e-01 0.0 
5.060429070388e-01 -1.925530936896e+02 0.0 
0.0 0.0 -8.114101430447e+01 
-8.449547102227e+00 3.271303642874e+00 0.0 
3.271303642874e+00 -1.922342033027e+01 0.0 
0.0 0.0 -7.901890229748e+00 
-1.462598173585e+02 3.078824459380e+00 0.0 
3.078824459380e+00 -3.401247668031e+02 0.0 
0.0 0.0 -1.455153752485e+02 
-4.061893736470e+00 4.686848108889e-01 0.0 
4.686848108889e-01 -7.961266941057e+00 0.0 
0.0 0.0 -3.206948203258e+00 
-5.228060892968e+00 -5.371924662856e-02 0.0 
-5.371924662856e-02 -9.857979718144e+00 0.0 
0.0 0.0 -4.446941546951e+00 
-4.209748998363e+00 2.040479396998e-01 0.0 
2.040479396998e-01 -9.632854015956e+00 0.0 
0.0 0.0 -3.752780904296e+00 
-5.074727400709e+00 5.872795449372e-02 0.0 
5.872795449372e-02 -9.885059283268e+00 0.0 
0.0 0.0 -4.346481118521e+00 
-4.370746253064e+00 1.022874728240e-01 0.0 
1.022874728240e-01 -9.747754564077e+00 0.0 
0.0 0.0 -3.835550245142e+00 
-5.018599105012e+00 2.567980693095e-02 0.0 
2.567980693095e-02 -9.876955166891e+00 0.0 
0.0 0.0 -4.316349301786e+00 
-4.440739116611e+00 4.270367670502e-02 0.0 
4.270367670502e-02 -9.798442951948e+00 0.0 
0.0 0.0 -3.871754620568e+00 
-4.988736346673e+00 -2.925235006188e-03 0.0 
-2.925235006188e-03 -9.879147780390e+00 0.0 
0.0 0.0 -4.304012587366e+00 
-4.449313944735e+00 9.542095280336e-03 0.0 
9.542095280336e-03 -9.822543946289e+00 0.0 
0.0 0.0 -3.881557367307e+00 
-4.958368922795e+00 -2.355388673418e-02 0.0 
-2.355388673418e-02 -9.884096596260e+00 0.0 
0.0 0.0 -4.294393243587e+00 
-4.418482649243e+00 -9.211768315629e-03 0.0 
-9.211768315629e-03 -9.831410854840e+00 0.0 
0.0 0.0 -3.874968051225e+00 
-4.918322462853e+00 -3.924056219802e-02 0.0 
-3.924056219802e-02 -9.889580805352e+00 0.0 
0.0 0.0 -4.283019693251e+00 
-4.360407041516e+00 -2.074324061827e-02 0.0 
-2.074324061827e-02 -9.832540455340e+00 0.0 
0.0 0.0 -3.857884249057e+00 
-4.866127035867e+00 -5.240401780571e-02 0.0 
-5.240401780571e-02 -9.895167220274e+00 0.0 
0.0 0.0 -4.268573284033e+00 
-4.281093840166e+00 -2.888836655383e-02 0.0 
-2.888836655383e-02 -9.829797974127e+00 0.0 
0.0 0.0 -3.833267544288e+00 
-4.801499725963e+00 -6.457845961624e-02 0.0 
-6.457845961624e-02 -9.900875396228e+00 0.0 
0.0 0.0 -4.250747123584e+00 
-4.183021671660e+00 -3.565683715161e-02 0.0 
-3.565683715161e-02 -9.824963998566e+00 0.0 
0.0 0.0 -3.802395701068e+00 
-4.724677233290e+00 -7.672944527017e-02 0.0 
-7.672944527017e-02 -9.906848307043e+00 0.0 
0.0 0.0 -4.229520455047e+00 
-4.066623587909e+00 -4.212488292864e-02 0.0 
-4.212488292864e-02 -9.818786713817e+00 0.0 
0.0 0.0 -3.765623090518e+00 
-4.635902767109e+00 -8.950008091815e-02 0.0 
-8.950008091815e-02 -9.913270401919e+00 0.0 
0.0 0.0 -4.204918734922e+00 
-3.931105690350e+00 -4.886488121209e-02 0.0 
-4.886488121209e-02 -9.811554992392e+00 0.0 
0.0 0.0 -3.722798204822e+00 
-4.535356484853e+00 -1.033041794015e-01 0.0 
-1.033041794015e-01 -9.920335215740e+00 0.0 
0.0 0.0 -4.176946323844e+00 
-2.399012733603e+00 1.250811979483e+00 0.0 
1.250811979483e+00 -1.149780781666e+01 0.0 
0.0 0.0 -3.769046165080e+00 
-3.775063113206e+00 -5.602918612534e-02 0.0 
-5.602918612534e-02 -9.803509397457e+00 0.0 
0.0 0.0 -3.673571753199e+00 
-4.423215948495e+00 -1.181325232604e-01 0.0 
-1.181325232604e-01 -9.928087508974e+00 0.0 
0.0 0.0 -4.145611047876e+00 
-3.597191262048e+00 -6.346660874380e-02 0.0 
-6.346660874380e-02 -9.794941845410e+00 0.0 
0.0 0.0 -3.617639932238e+00 
-5.082590949312e+00 2.925268801519e-01 0.0 
2.925268801519e-01 -1.071951477828e+01 0.0 
0.0 0.0 -4.340631718278e+00 
-4.299968081072e+00 -1.336771064309e-01 0.0 
-1.336771064309e-01 -9.936541079677e+00 0.0 
0.0 0.0 -4.111027561025e+00 
-3.396763670249e+00 -7.084795901423e-02 0.0 
-7.084795901423e-02 -9.786005931924e+00 0.0 
0.0 0.0 -3.554830880652e+00 
-4.166481463709e+00 -1.493579522895e-01 0.0 
-1.493579522895e-01 -9.945545804307e+00 0.0 
0.0 0.0 -4.073484123824e+00 
-3.173813037115e+00 -7.801200149139e-02 0.0 
-7.801200149139e-02 -9.776636805698e+00 0.0 
0.0 0.0 -3.485134952844e+00 
-4.024623196482e+00 -1.650654316277e-01 0.0 
-1.650654316277e-01 -9.955460174985e+00 0.0 
0.0 0.0 -4.033498497358e+00 
9.799418291066e-01 -3.430676375966e-01 0.0 
-3.430676375966e-01 -4.867703719926e+00 0.0 
0.0 0.0 -6.554261716793e-01 
-2.928951414673e+00 -8.434144012099e-02 0.0 
-8.434144012099e-02 -9.766991471346e+00 0.0 
0.0 0.0 -3.408782865806e+00 
-3.876432445151e+00 -1.795382949837e-01 0.0 
-1.795382949837e-01 -9.965688577524e+00 0.0 
0.0 0.0 -3.991856404415e+00 
-2.663999322497e+00 -9.011342988336e-02 0.0 
-9.011342988336e-02 -9.756585588895e+00 0.0 
0.0 0.0 -3.326175473418e+00 
-3.726642914939e+00 -1.936608186904e-01 0.0 
-1.936608186904e-01 -9.977751786003e+00 0.0 
0.0 0.0 -3.949742688358e+00 
-2.381072650917e+00 -9.347413229238e-02 0.0 
-9.347413229238e-02 -9.746500529766e+00 0.0 
0.0 0.0 -3.238271954205e+00 
-3.578504550792e+00 -2.034189218002e-01 0.0 
-2.034189218002e-01 -9.988965829845e+00 0.0 
0.0 0.0 -3.908942735483e+00 
-2.084756296580e+00 -9.751359752514e-02 0.0 
-9.751359752514e-02 -9.732860088149e+00 0.0 
0.0 0.0 -3.145284915419e+00 
-3.444068844102e+00 -2.154806179704e-01 0.0 
-2.154806179704e-01 -1.000585352173e+01 0.0 
0.0 0.0 -3.871544448748e+00 
-1.777938862248e+00 -9.310208097567e-02 0.0 
-9.310208097567e-02 -9.726270865534e+00 0.0 
0.0 0.0 -3.051262918335e+00 
-3.324623003206e+00 -2.109643318848e-01 0.0 
-2.109643318848e-01 -1.001555850452e+01 0.0 
0.0 0.0 -3.841976875379e+00 
-1.475251372703e+00 -9.605282012849e-02 0.0 
-9.605282012849e-02 -9.702251293236e+00 0.0 
0.0 0.0 -2.953250799782e+00 
-3.252373099571e+00 -2.227257088204e-01 0.0 
-2.227257088204e-01 -1.004427069803e+01 0.0 
0.0 0.0 -3.823281366973e+00 
-7.087624030969e+00 1.832589834714e+00 0.0 
1.832589834714e+00 -1.250364181245e+01 0.0 
0.0 0.0 -5.477379753027e+00 
-3.212417114765e+00 -1.799325172995e-01 0.0 
-1.799325172995e-01 -1.004398974897e+01 0.0 
0.0 0.0 -3.827286407078e+00 
-1.174428184097e+00 -7.178698870815e-02 0.0 
-7.178698870815e-02 -9.713498302252e+00 0.0 
0.0 0.0 -2.866377945905e+00 
-3.305500216575e+00 -2.330909066446e-01 0.0 
-2.330909066446e-01 -1.011546408692e+01 0.0 
0.0 0.0 -3.853155036853e+00 
-9.118993773845e-01 -9.444914807413e-02 0.0 
-9.444914807413e-02 -9.626977254899e+00 0.0 
0.0 0.0 -2.761662989685e+00 
-3.442299703347e+00 -7.893839069351e-02 0.0 
-7.893839069351e-02 -1.008681535943e+01 0.0 
0.0 0.0 -3.933285100468e+00 
-6.301935990983e-01 -1.961612573963e-02 0.0 
-1.961612573963e-02 -9.730391557317e+00 0.0 
0.0 0.0 -2.708175546925e+00 
-3.969616060528e+00 -1.885341044626e-01 0.0 
-1.885341044626e-01 -1.025680800305e+01 0.0 
0.0 0.0 -3.956051118698e+00 
-5.147956591007e-01 -5.137083881768e-02 0.0 
-5.137083881768e-02 -9.514798075598e+00 0.0 
0.0 0.0 -2.608878120410e+00 
-4.453599952942e-01 2.642574364140e-01 0.0 
2.642574364140e-01 -1.001360077085e+01 0.0 
0.0 0.0 -2.737688229844e+00 
-2.234488159992e+00 1.416259856872e-01 0.0 
1.416259856872e-01 -2.445872976681e+00 0.0 
0.0 0.0 -1.043316418911e+00 
-4.991483219372e+00 1.505382208118e+00 0.0 
1.505382208118e+00 -1.026391626177e+01 0.0 
0.0 0.0 -4.176619844342e+00 
-5.303541992963e+00 -1.307512033321e+00 0.0 
-1.307512033321e+00 -8.405592034599e+00 0.0 
0.0 0.0 -3.712740208269e+00 
-7.051988113489e+00 2.254867679859e-01 0.0 
2.254867679859e-01 -1.450703191180e+01 0.0 
0.0 0.0 -6.067706007587e+00 
-3.309282987531e+00 -6.515200511894e-02 0.0 
-6.515200511894e-02 -4.281581137776e+00 0.0 
0.0 0.0 -1.877259237592e+00 
-2.734170508338e+00 2.325037918217e+00 0.0 
2.325037918217e+00 -5.763946894694e+00 0.0 
0.0 0.0 -2.149435220909e+00 
-1.397686018259e+01 2.993719178162e-01 0.0 
2.993719178162e-01 -3.125053650542e+01 0.0 
0.0 0.0 -1.316821900640e+01 
-1.319508597391e+01 -2.375393922450e-01 0.0 
-2.375393922450e-01 -2.944968842591e+01 0.0 
0.0 0.0 -1.239343231995e+01 
-1.317611026650e+01 5.635082041716e-02 0.0 
5.635082041716e-02 -2.940926279360e+01 0.0 
0.0 0.0 -1.237561191803e+01 
-1.302375288689e+01 2.950089635992e-03 0.0 
2.950089635992e-03 -2.929015372538e+01 0.0 
0.0 0.0 -1.229417198368e+01 
-1.308588239739e+01 2.847086167216e-02 0.0 
2.847086167216e-02 -2.931239887756e+01 0.0 
0.0 0.0 -1.231948438249e+01 
-1.295276564686e+01 2.163792414238e-03 0.0 
2.163792414238e-03 -2.929191077629e+01 0.0 
0.0 0.0 -1.227340292694e+01 
-1.304054925430e+01 -9.046324974674e-04 0.0 
-9.046324974674e-04 -2.932978331374e+01 0.0 
0.0 0.0 -1.231109977041e+01 
-1.291569988345e+01 -2.511200772007e-02 0.0 
-2.511200772007e-02 -2.930820061513e+01 0.0 
0.0 0.0 -1.226717014957e+01 
-1.300125434983e+01 -3.105039200950e-02 0.0 
-3.105039200950e-02 -2.934585644698e+01 0.0 
0.0 0.0 -1.230413323904e+01 
-1.288237237722e+01 -5.439513371966e-02 0.0 
-5.439513371966e-02 -2.932039514119e+01 0.0 
0.0 0.0 -1.226083025552e+01 
-1.296308357598e+01 -5.787053135832e-02 0.0 
-5.787053135832e-02 -2.935525574181e+01 0.0 
0.0 0.0 -1.229550179534e+01 
-1.284149166539e+01 -8.139422956230e-02 0.0 
-8.139422956230e-02 -2.932695905451e+01 0.0 
0.0 0.0 -1.225053521597e+01 
-1.292327800187e+01 -8.122598541926e-02 0.0 
-8.122598541926e-02 -2.936072579914e+01 0.0 
0.0 0.0 -1.228520114030e+01 
-1.278936371026e+01 -1.062131982437e-01 0.0 
-1.062131982437e-01 -2.932910071436e+01 0.0 
0.0 0.0 -1.223553932739e+01 
-1.287992044046e+01 -1.022539287329e-01 0.0 
-1.022539287329e-01 -2.936438496169e+01 0.0 
0.0 0.0 -1.227329162065e+01 
-1.272494238980e+01 -1.298577584930e-01 0.0 
-1.298577584930e-01 -2.932808391514e+01 0.0 
0.0 0.0 -1.221590789148e+01 
-1.283180408135e+01 -1.221559113973e-01 0.0 
-1.221559113973e-01 -2.936737651210e+01 0.0 
0.0 0.0 -1.225975417803e+01 
-1.264792579874e+01 -1.532902291733e-01 0.0 
-1.532902291733e-01 -2.932476587884e+01 0.0 
0.0 0.0 -1.219180750328e+01 
-1.277842953630e+01 -1.418675091102e-01 0.0 
-1.418675091102e-01 -2.937031545015e+01 0.0 
0.0 0.0 -1.224462349594e+01 
-1.255813319606e+01 -1.772227024278e-01 0.0 
-1.772227024278e-01 -2.931973119959e+01 0.0 
0.0 0.0 -1.216335931870e+01 
-1.266029183558e+01 1.305157434449e+00 0.0 
1.305157434449e+00 -3.137684069524e+01 0.0 
0.0 0.0 -1.281113975925e+01 
-1.271976724544e+01 -1.620214036070e-01 0.0 
-1.620214036070e-01 -2.937361584869e+01 0.0 
0.0 0.0 -1.222801492824e+01 
-1.245533706648e+01 -2.020421400837e-01 0.0 
-2.020421400837e-01 -2.931357180535e+01 0.0 
0.0 0.0 -1.213067266155e+01 
-1.265616841793e+01 -1.829282000745e-01 0.0 
-1.829282000745e-01 -2.937781077322e+01 0.0 
0.0 0.0 -1.221019375735e+01 
-1.020667645561e+01 3.295367236810e-01 0.0 
3.295367236810e-01 -2.480994892492e+01 0.0 
0.0 0.0 -1.010498761416e+01 
-1.233920134327e+01 -2.276836983605e-01 0.0 
-2.276836983605e-01 -2.930737767364e+01 0.0 
0.0 0.0 -1.209397370507e+01 
-1.258766277623e+01 -2.039094856487e-01 0.0 
-2.039094856487e-01 -2.938338668040e+01 0.0 
0.0 0.0 -1.219131483699e+01 
-1.416936877514e+01 3.409630570731e-01 0.0 
3.409630570731e-01 -3.013594507935e+01 0.0 
0.0 0.0 -1.289159415634e+01 
-1.220979384071e+01 -2.533077313532e-01 0.0 
-2.533077313532e-01 -2.930130992826e+01 0.0 
0.0 0.0 -1.205333113069e+01 
-1.251548171033e+01 -2.243240654466e-01 0.0 
-2.243240654466e-01 -2.939064112053e+01 0.0 
0.0 0.0 -1.217183684926e+01 
-1.206769178569e+01 -2.777935439564e-01 0.0 
-2.777935439564e-01 -2.929626108185e+01 0.0 
0.0 0.0 -1.200918586026e+01 
-1.244140308757e+01 -2.420271864871e-01 0.0 
-2.420271864871e-01 -2.939953153626e+01 0.0 
0.0 0.0 -1.215228038715e+01 
-1.191530230198e+01 -2.994787141616e-01 0.0 
-2.994787141616e-01 -2.929009480479e+01 0.0 
0.0 0.0 -1.196161913203e+01 
-1.237142432781e+01 -2.579785704561e-01 0.0 
-2.579785704561e-01 -2.941080674381e+01 0.0 
0.0 0.0 -1.213466932148e+01 
-1.175446415582e+01 -3.172634606495e-01 0.0 
-3.172634606495e-01 -2.928805597722e+01 0.0 
0.0 0.0 -1.191275603991e+01 
-1.230569599608e+01 -2.657689211674e-01 0.0 
-2.657689211674e-01 -2.942348741611e+01 0.0 
0.0 0.0 -1.211875502366e+01 
-1.159208034453e+01 -3.280305377601e-01 0.0 
-3.280305377601e-01 -2.928015992094e+01 0.0 
0.0 0.0 -1.186167207964e+01 
-1.558267285949e+01 1.110478735005e+00 0.0 
1.110478735005e+00 -3.255598972910e+01 0.0 
0.0 0.0 -1.404159877658e+01 
-1.226046262497e+01 -2.733012273479e-01 0.0 
-2.733012273479e-01 -2.944063515799e+01 0.0 
0.0 0.0 -1.211032933489e+01 
-1.142880500455e+01 -3.310092617355e-01 0.0 
-3.310092617355e-01 -2.928820425855e+01 0.0 
0.0 0.0 -1.181510277893e+01 
-1.222073407539e+01 -2.578195286293e-01 0.0 
-2.578195286293e-01 -2.945501259337e+01 0.0 
0.0 0.0 -1.210272400063e+01 
-1.128423839864e+01 -3.197868976502e-01 0.0 
-3.197868976502e-01 -2.926919486131e+01 0.0 
0.0 0.0 -1.176602997799e+01 
-1.114315524788e+01 -2.941831666597e-01 0.0 
-2.941831666597e-01 -2.932032610005e+01 0.0 
0.0 0.0 -1.173904440438e+01 
-1.224721135199e+01 -2.589699727324e-01 0.0 
-2.589699727324e-01 -2.948638350584e+01 0.0 
0.0 0.0 -1.212007845735e+01 
-1.107473873125e+01 -2.384834074453e-01 0.0 
-2.384834074453e-01 -2.925215521768e+01 0.0 
0.0 0.0 -1.169806818468e+01 
-1.223267315831e+01 -1.813380345816e-01 0.0 
-1.813380345816e-01 -2.949131671725e+01 0.0 
0.0 0.0 -1.211719696267e+01 
-1.099988482687e+01 -1.555392169410e-01 0.0 
-1.555392169410e-01 -2.943444149046e+01 0.0 
0.0 0.0 -1.173029789520e+01 
-1.245139752957e+01 -1.922699910511e-01 0.0 
-1.922699910511e-01 -2.956378105864e+01 0.0 
0.0 0.0 -1.220455357646e+01 
-1.116910488607e+01 -2.212680961096e-02 0.0 
-2.212680961096e-02 -2.914572631106e+01 0.0 
0.0 0.0 -1.169444935914e+01 
-1.120965437928e+01 1.601697608573e-01 0.0 
1.601697608573e-01 -2.976300031913e+01 0.0 
0.0 0.0 -1.189179640952e+01 
-1.239927013635e+01 6.261051643654e-02 0.0 
6.261051643654e-02 -2.948932576516e+01 0.0 
0.0 0.0 -1.216657877045e+01 
-1.335528139060e+01 -7.920707179226e-02 0.0 
-7.920707179226e-02 -2.974714046703e+01 0.0 
0.0 0.0 -1.253072655729e+01 
-1.169982850793e+01 6.997687866692e-01 0.0 
6.997687866692e-01 -2.354198957253e+01 0.0 
0.0 0.0 -1.017254542414e+01 
-1.380192802819e+01 1.451609756265e+00 0.0 
1.451609756265e+00 -2.917227019583e+01 0.0 
0.0 0.0 -1.249225946721e+01 
-1.347083647590e+01 -1.419658093531e+00 0.0 
-1.419658093531e+00 -3.112828916425e+01 0.0 
0.0 0.0 -1.297973769204e+01 
-1.155115806102e+01 1.491711154925e-01 0.0 
1.491711154925e-01 -2.500509512272e+01 0.0 
0.0 0.0 -1.056687595512e+01 
-1.565217878355e+01 -1.576510709952e-01 0.0 
-1.576510709952e-01 -3.516570056919e+01 0.0 
0.0 0.0 -1.484536380582e+01 
-1.102234296116e+01 1.432546084222e+00 0.0 
1.432546084222e+00 -2.457893613926e+01 0.0 
0.0 0.0 -1.028038373013e+01 
-2.086557114878e+01 2.225810234203e-01 0.0 
2.225810234203e-01 -4.732419542653e+01 0.0 
0.0 0.0 -2.005692997259e+01 
-2.158838282393e+01 -2.663324240426e-01 0.0 
-2.663324240426e-01 -4.895507950619e+01 0.0 
0.0 0.0 -2.076303869904e+01 
-2.155881805678e+01 -2.561097290299e-02 0.0 
-2.561097290299e-02 -4.896891430427e+01 0.0 
0.0 0.0 -2.075831970832e+01 
-2.162973835633e+01 -5.714564804478e-02 0.0 
-5.714564804478e-02 -4.905337955294e+01 0.0 
0.0 0.0 -2.080493537278e+01 
-2.152983838216e+01 -3.215185349179e-02 0.0 
-3.215185349179e-02 -4.901496284202e+01 0.0 
0.0 0.0 -2.076344036725e+01 
-2.161176421036e+01 -5.730181719277e-02 0.0 
-5.730181719277e-02 -4.906479379650e+01 0.0 
0.0 0.0 -2.080296740206e+01 
-2.147501820177e+01 -4.205129155665e-02 0.0 
-4.205129155665e-02 -4.901021085783e+01 0.0 
0.0 0.0 -2.074556871788e+01 
-2.158598530907e+01 -7.590081670368e-02 0.0 
-7.590081670368e-02 -4.907840414158e+01 0.0 
0.0 0.0 -2.079931683520e+01 
-2.143169340586e+01 -6.345516846659e-02 0.0 
-6.345516846659e-02 -4.901688091106e+01 0.0 
0.0 0.0 -2.073457229508e+01 
-2.155900031080e+01 -1.007494695120e-01 0.0 
-1.007494695120e-01 -4.909090341494e+01 0.0 
0.0 0.0 -2.079497111772e+01 
-2.139315367638e+01 -8.934823866556e-02 0.0 
-8.934823866556e-02 -4.902541930941e+01 0.0 
0.0 0.0 -2.072557189574e+01 
-2.153271927663e+01 -1.280091760885e-01 0.0 
-1.280091760885e-01 -4.910035478260e+01 0.0 
0.0 0.0 -2.078992221777e+01 
-2.135331307119e+01 -1.159704822493e-01 0.0 
-1.159704822493e-01 -4.903080762754e+01 0.0 
0.0 0.0 -2.071523620962e+01 
-2.150758173304e+01 -1.561973542056e-01 0.0 
-1.561973542056e-01 -4.910714605286e+01 0.0 
0.0 0.0 -2.078441833577e+01 
-2.130893266975e+01 -1.422536143327e-01 0.0 
-1.422536143327e-01 -4.903208016337e+01 0.0 
0.0 0.0 -2.070230384993e+01 
-2.148269424712e+01 -1.849540553511e-01 0.0 
-1.849540553511e-01 -4.911205337478e+01 0.0 
0.0 0.0 -2.077842428657e+01 
-2.125863870108e+01 -1.681638190822e-01 0.0 
-1.681638190822e-01 -4.902999062479e+01 0.0 
0.0 0.0 -2.068658879776e+01 
-2.145744521703e+01 -2.142108257987e-01 0.0 
-2.142108257987e-01 -4.911573342705e+01 0.0 
0.0 0.0 -2.077195359322e+01 
-2.120203705636e+01 -1.939850621384e-01 0.0 
-1.939850621384e-01 -4.902539966363e+01 0.0 
0.0 0.0 -2.066823101600e+01 
-2.180293773509e+01 1.211910008249e+00 0.0 
1.211910008249e+00 -5.083999155591e+01 0.0 
0.0 0.0 -2.139287878730e+01 
-2.143164807888e+01 -2.440642927935e-01 0.0 
-2.440642927935e-01 -4.911874860907e+01 0.0 
0.0 0.0 -2.076511900638e+01 
-2.113932825244e+01 -2.198803710940e-01 0.0 
-2.198803710940e-01 -4.901925819834e+01 0.0 
0.0 0.0 -2.064757593524e+01 
-2.140624973876e+01 -2.745336216449e-01 0.0 
-2.745336216449e-01 -4.912184325446e+01 0.0 
0.0 0.0 -2.075842789796e+01 
-2.304002783617e+01 3.239637698341e-01 0.0 
3.239637698341e-01 -4.984488629441e+01 0.0 
0.0 0.0 -2.146547423917e+01 
-2.107101081561e+01 -2.458420478165e-01 0.0 
-2.458420478165e-01 -4.901244303446e+01 0.0 
0.0 0.0 -2.062503615502e+01 
-2.138315756866e+01 -3.057847373834e-01 0.0 
-3.057847373834e-01 -4.912660826030e+01 0.0 
0.0 0.0 -2.075292974869e+01 
-2.099788151747e+01 -2.709830822170e-01 0.0 
-2.709830822170e-01 -4.900723040994e+01 0.0 
0.0 0.0 -2.060153357822e+01 
-2.135985757929e+01 -3.356407918639e-01 0.0 
-3.356407918639e-01 -4.913279689838e+01 0.0 
0.0 0.0 -2.074779634330e+01 
-2.092173908407e+01 -2.935009860458e-01 0.0 
-2.935009860458e-01 -4.900524165925e+01 0.0 
0.0 0.0 -2.057809422299e+01 
-1.962161327978e+01 3.024213260919e-01 0.0 
3.024213260919e-01 -4.436858154180e+01 0.0 
0.0 0.0 -1.879705844648e+01 
-2.134135073385e+01 -3.622349026927e-01 0.0 
-3.622349026927e-01 -4.914204972720e+01 0.0 
0.0 0.0 -2.074502013831e+01 
-2.084520557738e+01 -3.107050528303e-01 0.0 
-3.107050528303e-01 -4.900840401250e+01 0.0 
0.0 0.0 -2.055608287696e+01 
-2.132275528960e+01 -3.800470591473e-01 0.0 
-3.800470591473e-01 -4.915053945081e+01 0.0 
0.0 0.0 -2.074198842212e+01 
-2.077247302601e+01 -3.208718917354e-01 0.0 
-3.208718917354e-01 -4.901325370627e+01 0.0 
0.0 0.0 -2.053571801968e+01 
-2.133060410325e+01 -3.926837222047e-01 0.0 
-3.926837222047e-01 -4.916768469950e+01 0.0 
0.0 0.0 -2.074948664083e+01 
-2.070822854183e+01 -3.196053825222e-01 0.0 
-3.196053825222e-01 -4.902939668951e+01 0.0 
0.0 0.0 -2.052128756940e+01 
-2.132919197454e+01 -3.833638682653e-01 0.0 
-3.833638682653e-01 -4.917602795239e+01 0.0 
0.0 0.0 -2.075156597808e+01 
-2.065917101942e+01 -3.069549677622e-01 0.0 
-3.069549677622e-01 -4.903762141169e+01 0.0 
0.0 0.0 -2.050903772933e+01 
-2.140705826955e+01 -3.759476683198e-01 0.0 
-3.759476683198e-01 -4.921216622671e+01 0.0 
0.0 0.0 -2.078576734888e+01 
-2.063446295864e+01 -2.705738807763e-01 0.0 
-2.705738807763e-01 -4.908704665429e+01 0.0 
0.0 0.0 -2.051645288388e+01 
-2.141212097062e+01 -3.046621620971e-01 0.0 
-3.046621620971e-01 -4.920489271668e+01 0.0 
0.0 0.0 -2.078510410619e+01 
-2.434107179633e+01 7.446478323743e-01 0.0 
7.446478323743e-01 -5.215315876146e+01 0.0 
0.0 0.0 -2.254826916734e+01 
-2.167013873885e+01 -2.969775019716e-01 0.0 
-2.969775019716e-01 -4.930749541607e+01 0.0 
0.0 0.0 -2.089329024648e+01 
-2.064000224211e+01 -2.228181157847e-01 0.0 
-2.228181157847e-01 -4.906956224946e+01 0.0 
0.0 0.0 -2.051286934747e+01 
-2.156152686958e+01 -4.441122885263e-02 0.0 
-4.441122885263e-02 -4.922324851094e+01 0.0 
0.0 0.0 -2.083543261416e+01 
-2.070493772080e+01 -1.132404639884e-01 0.0 
-1.132404639884e-01 -4.925993402972e+01 0.0 
0.0 0.0 -2.058946152516e+01 
-2.243634979308e+01 -1.348419621118e-01 0.0 
-1.348419621118e-01 -4.953290057327e+01 0.0 
0.0 0.0 -2.119077510991e+01 
-2.081250437249e+01 -4.499959195838e-03 0.0 
-4.499959195838e-03 -4.907303035880e+01 0.0 
0.0 0.0 -2.056566041939e+01 
-2.105672508443e+01 2.333838957837e-01 0.0 
2.333838957837e-01 -4.969005397734e+01 0.0 
0.0 0.0 -2.082403371853e+01 
-2.066605284028e+01 5.225949752077e-01 0.0 
5.225949752077e-01 -4.342469481981e+01 0.0 
0.0 0.0 -1.882722429803e+01 
-2.118731326894e+01 1.446731532861e+00 0.0 
1.446731532861e+00 -4.956150946766e+01 0.0 
0.0 0.0 -2.082464682098e+01 
-2.153444456249e+01 -1.457130677646e+00 0.0 
-1.457130677646e+00 -4.751834701701e+01 0.0 
0.0 0.0 -2.031583747385e+01 
-2.354756654114e+01 1.362557914858e-01 0.0 
1.362557914858e-01 -5.366765567351e+01 0.0 
0.0 0.0 -2.276456666440e+01 
-1.924150528710e+01 -1.864391260744e-01 0.0 
-1.864391260744e-01 -4.354079574413e+01 0.0 
0.0 0.0 -1.843469030937e+01 
-2.014345229910e+01 1.056473184375e+00 0.0 
1.056473184375e+00 -4.407547330193e+01 0.0 
0.0 0.0 -1.886567768031e+01 
-3.080460853678e+01 2.417757507703e-01 0.0 
2.417757507703e-01 -7.045520063940e+01 0.0 
0.0 0.0 -2.997794275286e+01 
-3.004039152752e+01 -2.898804208781e-01 0.0 
-2.898804208781e-01 -6.867643314789e+01 0.0 
0.0 0.0 -2.921504740262e+01 
-3.006321884835e+01 -3.174727178298e-02 0.0 
-3.174727178298e-02 -6.865408880149e+01 0.0 
0.0 0.0 -2.921519229495e+01 
-2.996998143552e+01 -8.011221006552e-02 0.0 
-8.011221006552e-02 -6.851394673773e+01 0.0 
0.0 0.0 -2.914517845198e+01 
-3.001717660571e+01 -5.885233161935e-02 0.0 
-5.885233161935e-02 -6.853004037182e+01 0.0 
0.0 0.0 -2.916416509326e+01 
-2.993831837615e+01 -8.011976359537e-02 0.0 
-8.011976359537e-02 -6.849342018335e+01 0.0 
0.0 0.0 -2.912952156785e+01 
-3.000342052388e+01 -7.699628349574e-02 0.0 
-7.699628349574e-02 -6.852013940487e+01 0.0 
0.0 0.0 -2.915706797862e+01 
-2.990640027860e+01 -9.803955521373e-02 0.0 
-9.803955521373e-02 -6.849270573715e+01 0.0 
0.0 0.0 -2.911973180472e+01 
-2.999062650922e+01 -9.879566717785e-02 0.0 
-9.879566717785e-02 -6.852822223553e+01 0.0 
0.0 0.0 -2.915565462343e+01 
-2.987584383379e+01 -1.224589212933e-01 0.0 
-1.224589212933e-01 -6.849687163523e+01 0.0 
0.0 0.0 -2.911181464070e+01 
-2.997949364543e+01 -1.225644212052e-01 0.0 
-1.225644212052e-01 -6.853988249019e+01 0.0 
0.0 0.0 -2.915581284068e+01 
-2.984693169428e+01 -1.497872791536e-01 0.0 
-1.497872791536e-01 -6.850018375711e+01 0.0 
0.0 0.0 -2.910413463542e+01 
-2.997117171657e+01 -1.469855144597e-01 0.0 
-1.469855144597e-01 -6.854982698720e+01 0.0 
0.0 0.0 -2.915629961113e+01 
-2.981882592326e+01 -1.782924874743e-01 0.0 
-1.782924874743e-01 -6.850004916337e+01 0.0 
0.0 0.0 -2.909566252599e+01 
-2.996725808304e+01 -1.723812959667e-01 0.0 
-1.723812959667e-01 -6.855697415470e+01 0.0 
0.0 0.0 -2.915726967132e+01 
-2.979083780250e+01 -2.077813385357e-01 0.0 
-2.077813385357e-01 -6.849772167067e+01 0.0 
0.0 0.0 -2.908656784195e+01 
-2.996582330292e+01 -1.984095834149e-01 0.0 
-1.984095834149e-01 -6.856182991733e+01 0.0 
0.0 0.0 -2.915829596607e+01 
-2.976226880378e+01 -2.376373563159e-01 0.0 
-2.376373563159e-01 -6.849365512945e+01 0.0 
0.0 0.0 -2.907677717997e+01 
-3.081112782701e+01 1.052009514059e+00 0.0 
1.052009514059e+00 -7.052269449125e+01 0.0 
0.0 0.0 -3.000014669548e+01 
-2.996667712075e+01 -2.248089246789e-01 0.0 
-2.248089246789e-01 -6.856507716660e+01 0.0 
0.0 0.0 -2.915952628621e+01 
-2.973314672834e+01 -2.673034047365e-01 0.0 
-2.673034047365e-01 -6.848891212450e+01 0.0 
0.0 0.0 -2.906661765585e+01 
-2.997076594739e+01 -2.506461574849e-01 0.0 
-2.506461574849e-01 -6.856771148651e+01 0.0 
0.0 0.0 -2.916154323017e+01 
-2.865355392376e+01 2.158612062885e-01 0.0 
2.158612062885e-01 -6.403971021153e+01 0.0 
0.0 0.0 -2.740797924059e+01 
-2.970419644566e+01 -2.959693374175e-01 0.0 
-2.959693374175e-01 -6.848371890389e+01 0.0 
0.0 0.0 -2.905637460486e+01 
-3.175961298823e+01 2.318942898273e-01 0.0 
2.318942898273e-01 -6.940020716473e+01 0.0 
0.0 0.0 -2.994794604589e+01 
-2.998154887230e+01 -2.752486359123e-01 0.0 
-2.752486359123e-01 -6.857080551123e+01 0.0 
0.0 0.0 -2.916570631506e+01 
-2.967662792648e+01 -3.233304039959e-01 0.0 
-3.233304039959e-01 -6.847803909521e+01 0.0 
0.0 0.0 -2.904640010650e+01 
-3.000303480398e+01 -3.011705391116e-01 0.0 
-3.011705391116e-01 -6.857736517268e+01 0.0 
0.0 0.0 -2.917411999300e+01 
-2.965271883905e+01 -3.486358195429e-01 0.0 
-3.486358195429e-01 -6.848280650448e+01 0.0 
0.0 0.0 -2.904065760306e+01 
-3.002551568486e+01 -3.205070423150e-01 0.0 
-3.205070423150e-01 -6.858775155890e+01 0.0 
0.0 0.0 -2.918398017313e+01 
-2.963319049850e+01 -3.667425416123e-01 0.0 
-3.667425416123e-01 -6.848967584473e+01 0.0 
0.0 0.0 -2.903685990297e+01 
-3.006027241700e+01 -3.372672129402e-01 0.0 
-3.372672129402e-01 -6.860509654653e+01 0.0 
0.0 0.0 -2.919961068906e+01 
-2.962414104805e+01 -3.736596473421e-01 0.0 
-3.736596473421e-01 -6.852043955386e+01 0.0 
0.0 0.0 -2.904337418057e+01 
-3.323032743706e+01 5.720731354161e-01 0.0 
5.720731354161e-01 -7.180759362340e+01 0.0 
0.0 0.0 -3.111137631814e+01 
-3.009389018243e+01 -3.256846016295e-01 0.0 
-3.256846016295e-01 -6.862254610351e+01 0.0 
0.0 0.0 -2.921493088578e+01 
-2.962594960360e+01 -3.632246764009e-01 0.0 
-3.632246764009e-01 -6.852349086698e+01 0.0 
0.0 0.0 -2.904483214117e+01 
-3.018851284848e+01 -3.281335752309e-01 0.0 
-3.281335752309e-01 -6.865861178572e+01 0.0 
0.0 0.0 -2.925413739026e+01 
-2.965651862747e+01 -3.356000339664e-01 0.0 
-3.356000339664e-01 -6.860645680923e+01 0.0 
0.0 0.0 -2.907889263101e+01 
-2.970214385941e+01 -2.797479848949e-01 0.0 
-2.797479848949e-01 -6.856736593639e+01 0.0 
0.0 0.0 -2.908085293874e+01 
-3.023504058259e+01 -2.512219296972e-01 0.0 
-2.512219296972e-01 -6.867604265967e+01 0.0 
0.0 0.0 -2.927332497268e+01 
-2.981232617716e+01 -1.943756170760e-01 0.0 
-1.943756170760e-01 -6.880537153194e+01 0.0 
0.0 0.0 -2.918530931273e+01 
-3.047463107627e+01 -2.628893916029e-01 0.0 
-2.628893916029e-01 -6.876089681590e+01 0.0 
0.0 0.0 -2.937065836765e+01 
-2.991722891194e+01 -7.520214483881e-02 0.0 
-7.520214483881e-02 -6.855070581994e+01 0.0 
0.0 0.0 -2.914038041956e+01 
-3.015414980687e+01 8.126669922385e-02 0.0 
8.126669922385e-02 -6.927270203127e+01 0.0 
0.0 0.0 -2.942805555144e+01 
-3.041824662928e+01 -1.925292713997e-02 0.0 
-1.925292713997e-02 -6.872658430517e+01 0.0 
0.0 0.0 -2.934344928034e+01 
-3.126832979022e+01 -1.805074086197e-01 0.0 
-1.805074086197e-01 -6.902816431652e+01 0.0 
0.0 0.0 -2.968894823202e+01 
-2.964748110414e+01 4.456878348399e-01 0.0 
4.456878348399e-01 -6.324184512234e+01 0.0 
0.0 0.0 -2.746679786794e+01 
-3.043996558211e+01 1.458081845978e+00 0.0 
1.458081845978e+00 -6.830350836125e+01 0.0 
0.0 0.0 -2.922304218301e+01 
-3.010589372326e+01 -1.460023668162e+00 0.0 
-1.460023668162e+00 -7.026174428400e+01 0.0 
0.0 0.0 -2.971029140218e+01 
-2.804342946106e+01 1.301356371408e-01 0.0 
1.301356371408e-01 -6.415800248665e+01 0.0 
0.0 0.0 -2.726042958431e+01 
-3.242905778840e+01 -1.760231673466e-01 0.0 
-1.760231673466e-01 -7.426474481003e+01 0.0 
0.0 0.0 -3.160814077953e+01 
-2.893710107244e+01 7.612845409061e-01 0.0 
7.612845409061e-01 -6.360472384571e+01 0.0 
0.0 0.0 -2.736254747545e+01 
-3.767822700349e+01 2.486919664008e-01 0.0 
2.486919664008e-01 -8.649364372839e+01 0.0 
0.0 0.0 -3.685156121956e+01 
-3.845529392529e+01 -2.627529666911e-01 0.0 
-2.627529666911e-01 -8.817126487312e+01 0.0 
0.0 0.0 -3.758796763952e+01 
-3.843584118347e+01 -4.357174845201e-02 0.0 
-4.357174845201e-02 -8.819020758345e+01 0.0 
0.0 0.0 -3.758781463008e+01 
-3.852251694220e+01 -7.709584484599e-02 0.0 
-7.709584484599e-02 -8.827165244309e+01 0.0 
0.0 0.0 -3.763825081559e+01 
-3.846794416978e+01 -7.685970394588e-02 0.0 
-7.685970394588e-02 -8.824849802133e+01 0.0 
0.0 0.0 -3.761493265734e+01 
-3.853475401551e+01 -9.275195489217e-02 0.0 
-9.275195489217e-02 -8.827089481778e+01 0.0 
0.0 0.0 -3.764169464999e+01 
-3.845318448204e+01 -9.349927091001e-02 0.0 
-9.349927091001e-02 -8.823625530723e+01 0.0 
0.0 0.0 -3.760683193678e+01 
-3.854039529159e+01 -1.161601790411e-01 0.0 
-1.161601790411e-01 -8.827537641253e+01 0.0 
0.0 0.0 -3.764473151124e+01 
-3.843550665876e+01 -1.113492646520e-01 0.0 
-1.113492646520e-01 -8.823294258446e+01 0.0 
0.0 0.0 -3.760053477297e+01 
-3.854457604374e+01 -1.395937908203e-01 0.0 
-1.395937908203e-01 -8.828390082527e+01 0.0 
0.0 0.0 -3.764854306070e+01 
-3.842043716574e+01 -1.316499706429e-01 0.0 
-1.316499706429e-01 -8.823541737091e+01 0.0 
0.0 0.0 -3.759675636099e+01 
-3.854729400701e+01 -1.628586029843e-01 0.0 
-1.628586029843e-01 -8.829146265998e+01 0.0 
0.0 0.0 -3.765162700010e+01 
-3.840956498586e+01 -1.529627462833e-01 0.0 
-1.529627462833e-01 -8.823941128221e+01 0.0 
0.0 0.0 -3.759469288042e+01 
-3.855623803985e+01 -1.856383026754e-01 0.0 
-1.856383026754e-01 -8.829578979063e+01 0.0 
0.0 0.0 -3.765560834915e+01 
-3.840212567518e+01 -1.762323043807e-01 0.0 
-1.762323043807e-01 -8.823833186968e+01 0.0 
0.0 0.0 -3.759213726346e+01 
-3.857305832049e+01 -2.115519294335e-01 0.0 
-2.115519294335e-01 -8.829898697749e+01 0.0 
0.0 0.0 -3.766161358939e+01 
-3.839739724429e+01 -2.006110405775e-01 0.0 
-2.006110405775e-01 -8.823550244718e+01 0.0 
0.0 0.0 -3.758986990744e+01 
-3.964079044354e+01 9.624024131773e-01 0.0 
9.624024131773e-01 -9.014244863385e+01 0.0 
0.0 0.0 -3.853497172321e+01 
-3.859263502560e+01 -2.382083191288e-01 0.0 
-2.382083191288e-01 -8.830080766039e+01 0.0 
0.0 0.0 -3.766803280580e+01 
-3.839569171842e+01 -2.246118151293e-01 0.0 
-2.246118151293e-01 -8.823277789451e+01 0.0 
0.0 0.0 -3.758854088388e+01 
-4.054739867858e+01 1.099865163272e-01 0.0 
1.099865163272e-01 -8.914072681068e+01 0.0 
0.0 0.0 -3.850643764678e+01 
-3.861431056594e+01 -2.638238701318e-01 0.0 
-2.638238701318e-01 -8.830243435471e+01 0.0 
0.0 0.0 -3.767502347619e+01 
-3.839877311647e+01 -2.457108443062e-01 0.0 
-2.457108443062e-01 -8.823306154770e+01 0.0 
0.0 0.0 -3.758955039925e+01 
-3.864471119277e+01 -2.852912840487e-01 0.0 
-2.852912840487e-01 -8.830439089798e+01 0.0 
0.0 0.0 -3.768473062723e+01 
-3.840844546081e+01 -2.632648938997e-01 0.0 
-2.632648938997e-01 -8.823356421775e+01 0.0 
0.0 0.0 -3.759260290357e+01 
-3.868982396150e+01 -3.026602480456e-01 0.0 
-3.026602480456e-01 -8.830608785249e+01 0.0 
0.0 0.0 -3.769877354420e+01 
-3.756276459649e+01 9.062923630504e-02 0.0 
9.062923630504e-02 -8.371517886448e+01 0.0 
0.0 0.0 -3.598338303829e+01 
-3.842528214870e+01 -2.802890259183e-01 0.0 
-2.802890259183e-01 -8.822927564369e+01 0.0 
0.0 0.0 -3.759636733772e+01 
-3.876126676975e+01 -3.267546971958e-01 0.0 
-3.267546971958e-01 -8.832232862263e+01 0.0 
0.0 0.0 -3.772507861771e+01 
-3.845047268961e+01 -2.909943293179e-01 0.0 
-2.909943293179e-01 -8.824598456998e+01 0.0 
0.0 0.0 -3.760893717788e+01 
-3.880573213548e+01 -3.334831209320e-01 0.0 
-3.334831209320e-01 -8.833628023655e+01 0.0 
0.0 0.0 -3.774260371161e+01 
-3.848897198079e+01 -2.897116882805e-01 0.0 
-2.897116882805e-01 -8.827206219538e+01 0.0 
0.0 0.0 -3.762831025285e+01 
-3.890894395109e+01 -3.379604261214e-01 0.0 
-3.379604261214e-01 -8.838367248424e+01 0.0 
0.0 0.0 -3.778778493060e+01 
-3.854666810179e+01 -2.620659212945e-01 0.0 
-2.620659212945e-01 -8.834569458203e+01 0.0 
0.0 0.0 -3.766770880515e+01 
-3.892583315426e+01 -2.738100103559e-01 0.0 
-2.738100103559e-01 -8.838541525784e+01 0.0 
0.0 0.0 -3.779337452363e+01 
-3.862827431354e+01 -2.218637589801e-01 0.0 
-2.218637589801e-01 -8.835138853753e+01 0.0 
0.0 0.0 -3.769389885532e+01 
-3.920471101354e+01 -2.767829126058e-01 0.0 
-2.767829126058e-01 -8.850471542029e+01 0.0 
0.0 0.0 -3.791282793015e+01 
-4.199068093700e+01 3.760031595409e-01 0.0 
3.760031595409e-01 -9.150987784302e+01 0.0 
0.0 0.0 -3.965016763401e+01 
-3.910889074334e+01 -6.490211580183e-02 0.0 
-6.490211580183e-02 -8.843860992034e+01 0.0 
0.0 0.0 -3.786425019910e+01 
-3.874827003459e+01 -1.346328749296e-01 0.0 
-1.346328749296e-01 -8.854024471435e+01 0.0 
0.0 0.0 -3.778655442468e+01 
-3.995834353512e+01 -1.975958782276e-01 0.0 
-1.975958782276e-01 -8.877939541708e+01 0.0 
0.0 0.0 -3.822132168566e+01 
-3.888450655700e+01 -5.879209252112e-02 0.0 
-5.879209252112e-02 -8.838393960429e+01 0.0 
0.0 0.0 -3.778053384839e+01 
-3.908358360103e+01 9.411278462435e-02 0.0 
9.411278462435e-02 -8.894570390593e+01 0.0 
0.0 0.0 -3.800878625209e+01 
-3.844333335504e+01 2.474548317139e-01 0.0 
2.474548317139e-01 -8.298858430480e+01 0.0 
0.0 0.0 -3.602957529795e+01 
-3.801770223046e+01 1.466621900901e+00 0.0 
1.466621900901e+00 -8.867249534365e+01 0.0 
0.0 0.0 -3.760705927223e+01 
-3.835763801831e+01 -1.448301824153e+00 0.0 
-1.448301824153e+00 -8.667913302265e+01 0.0 
0.0 0.0 -3.711103131229e+01 
-4.040848069465e+01 1.430814239044e-01 0.0 
1.430814239044e-01 -9.280228276593e+01 0.0 
0.0 0.0 -3.956322903818e+01 
-3.604104682756e+01 -1.690444204082e-01 0.0 
-1.690444204082e-01 -8.269271923473e+01 0.0 
0.0 0.0 -3.522012981869e+01 
-3.766844749633e+01 5.171189343253e-01 0.0 
5.171189343253e-01 -8.318748768364e+01 0.0 
0.0 0.0 -3.585678055399e+01 
-4.766624232866e+01 2.697390125959e-01 0.0 
2.697390125959e-01 -1.095969239334e+02 0.0 
0.0 0.0 -4.677894987861e+01 
-4.688854700325e+01 -2.609761701096e-01 0.0 
-2.609761701096e-01 -1.078488553884e+02 0.0 
0.0 0.0 -4.602122071748e+01 
-4.694718983990e+01 -2.068575923106e-02 0.0 
-2.068575923106e-02 -1.078395042049e+02 0.0 
0.0 0.0 -4.603600821344e+01 
-4.684684649334e+01 -7.150622967062e-02 0.0 
-7.150622967062e-02 -1.076950880624e+02 0.0 
0.0 0.0 -4.596258036673e+01 
-4.693289513972e+01 -6.364009746180e-02 0.0 
-6.364009746180e-02 -1.077298803045e+02 0.0 
0.0 0.0 -4.599883263326e+01 
-4.685292122276e+01 -8.817922964533e-02 0.0 
-8.817922964533e-02 -1.076799516347e+02 0.0 
0.0 0.0 -4.595986185723e+01 
-4.694156691720e+01 -8.911175473641e-02 0.0 
-8.911175473641e-02 -1.077174834761e+02 0.0 
0.0 0.0 -4.599771511800e+01 
-4.685591366320e+01 -1.112029432846e-01 0.0 
-1.112029432846e-01 -1.076782526130e+02 0.0 
0.0 0.0 -4.596024988285e+01 
-4.695974411779e+01 -1.101119450505e-01 0.0 
-1.101119450505e-01 -1.077210258138e+02 0.0 
0.0 0.0 -4.600423097948e+01 
-4.685767036157e+01 -1.338094302502e-01 0.0 
-1.338094302502e-01 -1.076811209002e+02 0.0 
0.0 0.0 -4.596163737854e+01 
-4.697739577323e+01 -1.314330293739e-01 0.0 
-1.314330293739e-01 -1.077291829673e+02 0.0 
0.0 0.0 -4.601197362216e+01 
-4.686075579425e+01 -1.558179166081e-01 0.0 
-1.558179166081e-01 -1.076895401635e+02 0.0 
0.0 0.0 -4.596508878734e+01 
-4.699532534010e+01 -1.454644092971e-01 0.0 
-1.454644092971e-01 -1.077385582423e+02 0.0 
0.0 0.0 -4.602016507473e+01 
-4.686667305327e+01 -1.737964568148e-01 0.0 
-1.737964568148e-01 -1.076868048219e+02 0.0 
0.0 0.0 -4.596604336256e+01 
-4.702559509412e+01 -1.602027747556e-01 0.0 
-1.602027747556e-01 -1.077417311625e+02 0.0 
0.0 0.0 -4.603019787698e+01 
-4.687833050940e+01 -1.930334892447e-01 0.0 
-1.930334892447e-01 -1.076779554183e+02 0.0 
0.0 0.0 -4.596688577831e+01 
-4.806976750204e+01 8.496310479205e-01 0.0 
8.496310479205e-01 -1.096999571452e+02 0.0 
0.0 0.0 -4.693091739417e+01 
-4.707320571378e+01 -1.807514105442e-01 0.0 
-1.807514105442e-01 -1.077451705113e+02 0.0 
0.0 0.0 -4.604551286751e+01 
-4.689725364908e+01 -2.154490340487e-01 0.0 
-2.154490340487e-01 -1.076782511152e+02 0.0 
0.0 0.0 -4.597265142927e+01 
-4.614123613415e+01 1.237167801536e-01 0.0 
1.237167801536e-01 -1.032061448148e+02 0.0 
0.0 0.0 -4.440421428469e+01 
-4.710580989934e+01 -2.023778821032e-01 0.0 
-2.023778821032e-01 -1.077471053730e+02 0.0 
0.0 0.0 -4.605587458171e+01 
-4.692161754776e+01 -2.338055224455e-01 0.0 
-2.338055224455e-01 -1.076861506456e+02 0.0 
0.0 0.0 -4.598233045802e+01 
-4.900604462266e+01 6.081636516339e-02 0.0 
6.081636516339e-02 -1.086251090769e+02 0.0 
0.0 0.0 -4.688934610986e+01 
-4.714775439544e+01 -2.148128552779e-01 0.0 
-2.148128552779e-01 -1.077532156533e+02 0.0 
0.0 0.0 -4.607029101462e+01 
-4.695455651513e+01 -2.441251297603e-01 0.0 
-2.441251297603e-01 -1.076940299835e+02 0.0 
0.0 0.0 -4.599457594959e+01 
-4.721110941844e+01 -2.175203326316e-01 0.0 
-2.175203326316e-01 -1.077606572641e+02 0.0 
0.0 0.0 -4.609153000475e+01 
-4.700008866034e+01 -2.471655498429e-01 0.0 
-2.471655498429e-01 -1.076967054831e+02 0.0 
0.0 0.0 -4.600903824303e+01 
-4.728594363568e+01 -2.139091790457e-01 0.0 
-2.139091790457e-01 -1.077610532985e+02 0.0 
0.0 0.0 -4.611409908025e+01 
-4.705661371177e+01 -2.497218362767e-01 0.0 
-2.497218362767e-01 -1.076781381540e+02 0.0 
0.0 0.0 -4.602042555974e+01 
-5.022271242998e+01 2.677337915394e-01 0.0 
2.677337915394e-01 -1.109933685129e+02 0.0 
0.0 0.0 -4.796482428288e+01 
-4.741505278145e+01 -2.471831453107e-01 0.0 
-2.471831453107e-01 -1.077912455600e+02 0.0 
0.0 0.0 -4.616188950244e+01 
-4.713597659961e+01 -2.495185685891e-01 0.0 
-2.495185685891e-01 -1.077735173195e+02 0.0 
0.0 0.0 -4.607284817574e+01 
-4.744760733376e+01 -2.037249663048e-01 0.0 
-2.037249663048e-01 -1.078167938887e+02 0.0 
0.0 0.0 -4.617932036674e+01 
-4.721642918575e+01 -2.186458409288e-01 0.0 
-2.186458409288e-01 -1.077678046984e+02 0.0 
0.0 0.0 -4.609527016525e+01 
-4.734951355420e+01 -1.537308550670e-01 0.0 
-1.537308550670e-01 -1.080406695244e+02 0.0 
0.0 0.0 -4.621705492357e+01 
-4.764400676801e+01 -2.374069497773e-01 0.0 
-2.374069497773e-01 -1.079141137054e+02 0.0 
0.0 0.0 -4.626743614203e+01 
-4.745589943285e+01 -6.171251393472e-02 0.0 
-6.171251393472e-02 -1.077574883987e+02 0.0 
0.0 0.0 -4.616401634947e+01 
-4.756141977940e+01 3.552067302522e-03 0.0 
3.552067302522e-03 -1.078906081524e+02 0.0 
0.0 0.0 -4.623560837955e+01 
-4.766263302387e+01 1.152333100922e-02 0.0 
1.152333100922e-02 -1.083973419082e+02 0.0 
0.0 0.0 -4.641799247963e+01 
-4.844194166299e+01 -1.924188750870e-01 0.0 
-1.924188750870e-01 -1.081856102727e+02 0.0 
0.0 0.0 -4.658826558071e+01 
-4.674406852156e+01 3.531044549253e-01 0.0 
3.531044549253e-01 -1.024722882688e+02 0.0 
0.0 0.0 -4.436490703710e+01 
-4.731292289161e+01 1.471910408828e+00 0.0 
1.471910408828e+00 -1.074423224262e+02 0.0 
0.0 0.0 -4.602657359533e+01 
-4.697380716733e+01 -1.447035641344e+00 0.0 
-1.447035641344e+00 -1.094231790012e+02 0.0 
0.0 0.0 -4.651909585055e+01 
-4.490848838100e+01 1.406266660360e-01 0.0 
1.406266660360e-01 -1.033023007007e+02 0.0 
0.0 0.0 -4.406323672452e+01 
-4.929367439830e+01 -1.664750433162e-01 0.0 
-1.664750433162e-01 -1.133992565903e+02 0.0 
0.0 0.0 -4.840787929658e+01 
-4.633696600246e+01 5.148853724981e-01 0.0 
5.148853724981e-01 -1.026497172331e+02 0.0 
0.0 0.0 -4.429600497066e+01 
-5.456158111545e+01 2.841384124062e-01 0.0 
2.841384124062e-01 -1.256860477692e+02 0.0 
0.0 0.0 -5.367428866540e+01 
-5.531335371633e+01 -2.252250632228e-01 0.0 
-2.252250632228e-01 -1.273596413472e+02 0.0 
0.0 0.0 -5.440189851906e+01 
-5.532922809571e+01 -7.190192070684e-03 0.0 
-7.190192070684e-03 -1.273975934684e+02 0.0 
0.0 0.0 -5.441804646925e+01 
-5.542368217680e+01 -3.893242071530e-02 0.0 
-3.893242071530e-02 -1.274663649471e+02 0.0 
0.0 0.0 -5.446701413717e+01 
-5.538210494206e+01 -5.771392095734e-02 0.0 
-5.771392095734e-02 -1.274447031766e+02 0.0 
0.0 0.0 -5.444804243561e+01 
-5.543428267160e+01 -7.231714913843e-02 0.0 
-7.231714913843e-02 -1.274717367804e+02 0.0 
0.0 0.0 -5.447180583561e+01 
-5.540128928087e+01 -7.591224325839e-02 0.0 
-7.591224325839e-02 -1.274568356580e+02 0.0 
0.0 0.0 -5.445743748167e+01 
-5.547994615165e+01 -9.248788232365e-02 0.0 
-9.248788232365e-02 -1.274790533599e+02 0.0 
0.0 0.0 -5.448769985347e+01 
-5.541551794036e+01 -9.555800625346e-02 0.0 
-9.555800625346e-02 -1.274511647331e+02 0.0 
0.0 0.0 -5.446000480205e+01 
-5.550692178436e+01 -1.166756213851e-01 0.0 
-1.166756213851e-01 -1.274865369107e+02 0.0 
0.0 0.0 -5.449803760853e+01 
-5.543257258705e+01 -1.123381797891e-01 0.0 
-1.123381797891e-01 -1.274579288662e+02 0.0 
0.0 0.0 -5.446715043598e+01 
-5.554616683540e+01 -1.381862073150e-01 0.0 
-1.381862073150e-01 -1.275035246514e+02 0.0 
0.0 0.0 -5.451490744603e+01 
-5.545334533492e+01 -1.227064367835e-01 0.0 
-1.227064367835e-01 -1.274739382302e+02 0.0 
0.0 0.0 -5.447818506955e+01 
-5.555423895063e+01 -1.406862378410e-01 0.0 
-1.406862378410e-01 -1.275011733219e+02 0.0 
0.0 0.0 -5.451662368176e+01 
-5.548562188512e+01 -1.273596263082e-01 0.0 
-1.273596263082e-01 -1.274817936748e+02 0.0 
0.0 0.0 -5.449022466797e+01 
-5.654246441072e+01 8.627940342094e-01 0.0 
8.627940342094e-01 -1.292766167450e+02 0.0 
0.0 0.0 -5.534572434671e+01 
-5.563744588419e+01 -1.442406221749e-01 0.0 
-1.442406221749e-01 -1.274969534501e+02 0.0 
0.0 0.0 -5.454031980029e+01 
-5.745077738987e+01 4.275969670147e-02 0.0 
4.275969670147e-02 -1.283469485795e+02 0.0 
0.0 0.0 -5.533931779082e+01 
-5.551678886819e+01 -1.495299359048e-01 0.0 
-1.495299359048e-01 -1.274468645382e+02 0.0 
0.0 0.0 -5.448909602192e+01 
-5.567915835941e+01 -1.786155731765e-01 0.0 
-1.786155731765e-01 -1.275003352509e+02 0.0 
0.0 0.0 -5.455384808309e+01 
-5.555669402605e+01 -1.628591914186e-01 0.0 
-1.628591914186e-01 -1.274658350020e+02 0.0 
0.0 0.0 -5.450675870842e+01 
-5.571108648343e+01 -1.874154951652e-01 0.0 
-1.874154951652e-01 -1.275121507385e+02 0.0 
0.0 0.0 -5.456697116659e+01 
-5.560974534558e+01 -1.594898328778e-01 0.0 
-1.594898328778e-01 -1.274978612036e+02 0.0 
0.0 0.0 -5.453228196476e+01 
-5.579263021694e+01 -1.765419072315e-01 0.0 
-1.765419072315e-01 -1.275268103078e+02 0.0 
0.0 0.0 -5.459583215743e+01 
-5.471396310954e+01 9.114134716961e-02 0.0 
9.114134716961e-02 -1.228203269813e+02 0.0 
0.0 0.0 -5.286028702727e+01 
-5.567443390915e+01 -1.504884320820e-01 0.0 
-1.504884320820e-01 -1.275084144091e+02 0.0 
0.0 0.0 -5.455485449547e+01 
-5.587680056699e+01 -1.640562443808e-01 0.0 
-1.640562443808e-01 -1.275341270074e+02 0.0 
0.0 0.0 -5.462327827230e+01 
-5.575567080158e+01 -1.325980497429e-01 0.0 
-1.325980497429e-01 -1.275237500189e+02 0.0 
0.0 0.0 -5.458382624615e+01 
-5.593730023192e+01 -1.248472946291e-01 0.0 
-1.248472946291e-01 -1.275075196542e+02 0.0 
0.0 0.0 -5.463344596584e+01 
-5.584760983256e+01 -1.355871163871e-01 0.0 
-1.355871163871e-01 -1.274672120126e+02 0.0 
0.0 0.0 -5.459444655355e+01 
-5.621853214572e+01 -2.064347753490e-01 0.0 
-2.064347753490e-01 -1.276360694027e+02 0.0 
0.0 0.0 -5.475638046451e+01 
-5.596187206666e+01 -9.593432790113e-02 0.0 
-9.593432790113e-02 -1.276834115988e+02 0.0 
0.0 0.0 -5.469358509963e+01 
-5.602892854473e+01 -4.855150805589e-02 0.0 
-4.855150805589e-02 -1.275928023541e+02 0.0 
0.0 0.0 -5.468651926964e+01 
-5.689009552530e+01 -1.919628120180e-01 0.0 
-1.919628120180e-01 -1.279712247840e+02 0.0 
0.0 0.0 -5.505839609279e+01 
-5.608386243439e+01 -4.980002855922e-02 0.0 
-4.980002855922e-02 -1.276071102603e+02 0.0 
0.0 0.0 -5.470729180840e+01 
-5.865913485420e+01 1.958952738908e-01 0.0 
1.958952738908e-01 -1.306457419882e+02 0.0 
0.0 0.0 -5.639146305273e+01 
-5.623654944901e+01 6.407791183186e-02 0.0 
6.407791183186e-02 -1.281325773815e+02 0.0 
0.0 0.0 -5.491073804916e+01 
-5.519225119210e+01 2.803881994437e-01 0.0 
2.803881994437e-01 -1.220838556315e+02 0.0 
0.0 0.0 -5.278283204708e+01 
-5.488370364637e+01 1.475455892910e+00 0.0 
1.475455892910e+00 -1.278242904022e+02 0.0 
0.0 0.0 -5.441239821458e+01 
-5.522211722171e+01 -1.437365802792e+00 0.0 
-1.437365802792e+00 -1.258458000408e+02 0.0 
0.0 0.0 -5.392037517876e+01 
-5.726897350545e+01 1.467899686847e-01 0.0 
1.467899686847e-01 -1.319688894635e+02 0.0 
0.0 0.0 -5.637135889069e+01 
-5.292215395112e+01 -1.596814990691e-01 0.0 
-1.596814990691e-01 -1.218657088802e+02 0.0 
0.0 0.0 -5.203635884940e+01 
-5.482076615131e+01 4.230831914386e-01 0.0 
4.230831914386e-01 -1.221927926437e+02 0.0 
0.0 0.0 -5.270406763851e+01 
-6.439935878741e+01 3.271482035105e-01 0.0 
3.271482035105e-01 -1.488043303704e+02 0.0 
0.0 0.0 -6.356110674735e+01 
-6.373826704927e+01 -1.974179800313e-01 0.0 
-1.974179800313e-01 -1.470177724574e+02 0.0 
0.0 0.0 -6.282681185200e+01 
-6.385291893429e+01 5.968110310650e-02 0.0 
5.968110310650e-02 -1.470233105430e+02 0.0 
0.0 0.0 -6.286286884319e+01 
-6.372328183347e+01 -7.610934858652e-03 0.0 
-7.610934858652e-03 -1.468320974793e+02 0.0 
0.0 0.0 -6.276661379384e+01 
-6.382074733076e+01 -4.388792077732e-02 0.0 
-4.388792077732e-02 -1.468824229684e+02 0.0 
0.0 0.0 -6.281095108975e+01 
-6.375670935704e+01 -5.058160683140e-02 0.0 
-5.058160683140e-02 -1.468907323798e+02 0.0 
0.0 0.0 -6.279423252105e+01 
-6.381421201850e+01 -3.076523767959e-02 0.0 
-3.076523767959e-02 -1.469080220874e+02 0.0 
0.0 0.0 -6.281667023177e+01 
-6.377942589267e+01 -5.296950915422e-02 0.0 
-5.296950915422e-02 -1.468445060890e+02 0.0 
0.0 0.0 -6.278717959449e+01 
-6.392570552589e+01 -6.603738845020e-02 0.0 
-6.603738845020e-02 -1.469101328349e+02 0.0 
0.0 0.0 -6.285075150822e+01 
-6.381969043670e+01 -8.546541372412e-02 0.0 
-8.546541372412e-02 -1.468829970995e+02 0.0 
0.0 0.0 -6.281080626086e+01 
-6.392049368416e+01 -7.652772548426e-02 0.0 
-7.652772548426e-02 -1.469190338575e+02 0.0 
0.0 0.0 -6.285185826250e+01 
-6.384876890190e+01 -9.667113915426e-02 0.0 
-9.667113915426e-02 -1.468762628065e+02 0.0 
0.0 0.0 -6.281750951253e+01 
-6.401601581721e+01 -1.083090936533e-01 0.0 
-1.083090936533e-01 -1.469490184105e+02 0.0 
0.0 0.0 -6.288951026832e+01 
-6.493562820939e+01 8.170028411301e-01 0.0 
8.170028411301e-01 -1.488305895911e+02 0.0 
0.0 0.0 -6.372986534015e+01 
-6.389397929876e+01 -1.130727066513e-01 0.0 
-1.130727066513e-01 -1.469605674675e+02 0.0 
0.0 0.0 -6.285636402989e+01 
-6.400911360365e+01 -4.357742366867e-02 0.0 
-4.357742366867e-02 -1.469567258551e+02 0.0 
0.0 0.0 -6.288975183763e+01 
-6.305072725874e+01 1.117394958098e-01 0.0 
1.117394958098e-01 -1.423460321620e+02 0.0 
0.0 0.0 -6.121902782622e+01 
-6.392715870269e+01 -9.077746802819e-02 0.0 
-9.077746802819e-02 -1.468396166933e+02 0.0 
0.0 0.0 -6.283003261879e+01 
-6.410750467569e+01 -1.031621850757e-01 0.0 
-1.031621850757e-01 -1.469159293619e+02 0.0 
0.0 0.0 -6.290703021128e+01 
-6.571759423147e+01 5.631129588768e-02 0.0 
5.631129588768e-02 -1.477698763231e+02 0.0 
0.0 0.0 -6.364624116638e+01 
-6.398523107769e+01 -1.209416426244e-01 0.0 
-1.209416426244e-01 -1.468811715936e+02 0.0 
0.0 0.0 -6.285992080137e+01 
-6.412975871047e+01 -1.293368268479e-01 0.0 
-1.293368268479e-01 -1.469398394247e+02 0.0 
0.0 0.0 -6.292087944055e+01 
-6.404774355508e+01 -1.203744576640e-01 0.0 
-1.203744576640e-01 -1.469643505724e+02 0.0 
0.0 0.0 -6.290362823824e+01 
-6.420177382017e+01 -8.095493964099e-02 0.0 
-8.095493964099e-02 -1.469784345846e+02 0.0 
0.0 0.0 -6.295406252142e+01 
-6.411813780677e+01 -9.179919486786e-02 0.0 
-9.179919486786e-02 -1.469529946841e+02 0.0 
0.0 0.0 -6.292133974726e+01 
-6.701946889935e+01 1.979417683586e-01 0.0 
1.979417683586e-01 -1.501365752776e+02 0.0 
0.0 0.0 -6.474681325307e+01 
-6.433628348587e+01 -6.525679270621e-02 0.0 
-6.525679270621e-02 -1.469947769777e+02 0.0 
0.0 0.0 -6.299931813907e+01 
-6.420693125800e+01 -7.302959429519e-02 0.0 
-7.302959429519e-02 -1.469710986197e+02 0.0 
0.0 0.0 -6.295340896331e+01 
-6.432016755794e+01 -2.408230571075e-02 0.0 
-2.408230571075e-02 -1.470675434149e+02 0.0 
0.0 0.0 -6.301631329186e+01 
-6.440452447051e+01 -5.662431508337e-02 0.0 
-5.662431508337e-02 -1.470115043972e+02 0.0 
0.0 0.0 -6.302480866032e+01 
-6.440387549020e+01 -9.110591907014e-03 0.0 
-9.110591907014e-03 -1.467352038731e+02 0.0 
0.0 0.0 -6.294172380900e+01 
-6.431958563762e+01 9.516297738908e-02 0.0 
9.516297738908e-02 -1.469160995450e+02 0.0 
0.0 0.0 -6.297070555478e+01 
-6.459720970637e+01 7.865746239129e-03 0.0 
7.865746239129e-03 -1.475854583979e+02 0.0 
0.0 0.0 -6.325480043129e+01 
-6.511395210070e+01 -2.440355222250e-01 0.0 
-2.440355222250e-01 -1.472395060590e+02 0.0 
0.0 0.0 -6.330603744792e+01 
-6.357978485851e+01 3.248783259640e-01 0.0 
3.248783259640e-01 -1.416691475427e+02 0.0 
0.0 0.0 -6.117467972035e+01 
-6.420931603111e+01 1.434899260876e+00 0.0 
1.434899260876e+00 -1.465160559817e+02 0.0 
0.0 0.0 -6.281761160384e+01 
-6.383128376021e+01 -1.484745061703e+00 0.0 
-1.484745061703e+00 -1.487135873553e+02 0.0 
0.0 0.0 -6.336346133464e+01 
-6.177189308001e+01 1.148368157792e-01 0.0 
1.148368157792e-01 -1.424757018042e+02 0.0 
0.0 0.0 -6.087427846525e+01 
-6.616558535817e+01 -2.261788003987e-01 0.0 
-2.261788003987e-01 -1.525567383945e+02 0.0 
0.0 0.0 -6.521669712582e+01 
-6.316511740904e+01 3.837499331661e-01 0.0 
3.837499331661e-01 -1.416804086243e+02 0.0 
0.0 0.0 -6.105365781000e+01 
-7.146679261984e+01 4.506899242140e-01 0.0 
4.506899242140e-01 -1.652950093128e+02 0.0 
0.0 0.0 -7.062854057978e+01 
-7.235101208420e+01 8.228412411637e-03 0.0 
8.228412411637e-03 -1.665612145874e+02 0.0 
0.0 0.0 -7.127366800149e+01 
-7.220092497349e+01 3.600452099529e-02 0.0 
3.600452099529e-02 -1.665019913012e+02 0.0 
0.0 0.0 -7.121087488240e+01 
-7.216599675325e+01 2.202320086166e-02 0.0 
2.202320086166e-02 -1.665804242630e+02 0.0 
0.0 0.0 -7.122392630488e+01 
-7.227787906585e+01 -2.514134845076e-02 0.0 
-2.514134845076e-02 -1.666157303503e+02 0.0 
0.0 0.0 -7.126808282484e+01 
-7.226903637130e+01 -5.472769488226e-02 0.0 
-5.472769488226e-02 -1.667323112068e+02 0.0 
0.0 0.0 -7.130040427342e+01 
-7.233441806795e+01 3.078140821962e-02 0.0 
3.078140821962e-02 -1.667885028694e+02 0.0 
0.0 0.0 -7.133687628121e+01 
-7.241759817797e+01 5.705583865954e-02 0.0 
5.705583865954e-02 -1.666593334575e+02 0.0 
0.0 0.0 -7.132307949066e+01 
-7.236250017735e+01 -3.894729696170e-02 0.0 
-3.894729696170e-02 -1.665959870216e+02 0.0 
0.0 0.0 -7.128754615969e+01 
-7.242375807317e+01 -8.259396242610e-02 0.0 
-8.259396242610e-02 -1.667192085479e+02 0.0 
0.0 0.0 -7.134288998632e+01 
-7.241907992941e+01 -2.047479402513e-02 0.0 
-2.047479402513e-02 -1.667490684297e+02 0.0 
0.0 0.0 -7.135044450775e+01 
-7.243836776784e+01 -6.018344782360e-03 0.0 
-6.018344782360e-03 -1.666987795180e+02 0.0 
0.0 0.0 -7.134114418574e+01 
-7.325538584253e+01 8.972911615552e-01 0.0 
8.972911615552e-01 -1.684317905528e+02 0.0 
0.0 0.0 -7.210615291859e+01 
-7.247943740037e+01 -3.594778831785e-02 0.0 
-3.594778831785e-02 -1.666970021046e+02 0.0 
0.0 0.0 -7.135293185148e+01 
-7.342248281831e+01 6.036712720284e-03 0.0 
6.036712720284e-03 -1.672487676592e+02 0.0 
0.0 0.0 -7.180137514324e+01 
-7.284349598179e+01 -1.161677185095e-01 0.0 
-1.161677185095e-01 -1.668550031465e+02 0.0 
0.0 0.0 -7.150954973850e+01 
-7.250652870026e+01 -3.217221561168e-02 0.0 
-3.217221561168e-02 -1.667840277472e+02 0.0 
0.0 0.0 -7.138716693423e+01 
-7.244843433308e+01 2.100047905135e-02 0.0 
2.100047905135e-02 -1.666471057239e+02 0.0 
0.0 0.0 -7.132866201711e+01 
-7.255350888251e+01 -5.937340255031e-02 0.0 
-5.937340255031e-02 -1.666232725112e+02 0.0 
0.0 0.0 -7.135303441810e+01 
-7.255409543614e+01 -9.239762393480e-02 0.0 
-9.239762393480e-02 -1.667079086640e+02 0.0 
0.0 0.0 -7.137860123006e+01 
-7.263655646089e+01 -3.300381949385e-02 0.0 
-3.300381949385e-02 -1.667890341757e+02 0.0 
0.0 0.0 -7.142767719097e+01 
-7.278494845464e+01 -4.982967818019e-02 0.0 
-4.982967818019e-02 -1.668241278438e+02 0.0 
0.0 0.0 -7.148272288953e+01 
-7.143558725163e+01 1.122604267169e-01 0.0 
1.122604267169e-01 -1.619899880778e+02 0.0 
0.0 0.0 -6.962767259884e+01 
-7.272463445855e+01 1.365020009792e-02 0.0 
1.365020009792e-02 -1.668651094075e+02 0.0 
0.0 0.0 -7.147692315980e+01 
-7.288193998923e+01 4.107366745187e-02 0.0 
4.107366745187e-02 -1.668052192524e+02 0.0 
0.0 0.0 -7.150614777249e+01 
-7.280766335657e+01 2.226593637109e-02 0.0 
2.226593637109e-02 -1.667613300093e+02 0.0 
0.0 0.0 -7.147069800977e+01 
-7.306634475420e+01 -2.701346648505e-03 0.0 
-2.701346648505e-03 -1.668285615670e+02 0.0 
0.0 0.0 -7.156847189636e+01 
-7.324863202809e+01 -5.842996621605e-02 0.0 
-5.842996621605e-02 -1.669531060708e+02 0.0 
0.0 0.0 -7.166052142968e+01 
-7.287895644455e+01 8.511949939840e-03 0.0 
8.511949939840e-03 -1.667851790033e+02 0.0 
0.0 0.0 -7.149924063435e+01 
-7.294672557110e+01 8.133555615351e-02 0.0 
8.133555615351e-02 -1.670460927231e+02 0.0 
0.0 0.0 -7.159784548826e+01 
-7.536394536221e+01 2.088970846929e-01 0.0 
2.088970846929e-01 -1.698203552040e+02 0.0 
0.0 0.0 -7.315529016987e+01 
-7.190803611849e+01 2.854776632840e-01 0.0 
2.854776632840e-01 -1.612799784267e+02 0.0 
0.0 0.0 -6.955640436354e+01 
-7.163908690197e+01 1.298964569592e+00 0.0 
1.298964569592e+00 -1.665892354830e+02 0.0 
0.0 0.0 -7.106849671548e+01 
-7.185931221614e+01 -1.575917505184e+00 0.0 
-1.575917505184e+00 -1.652925884043e+02 0.0 
0.0 0.0 -7.074557018615e+01 
-7.382456321902e+01 -7.604107108254e-02 0.0 
-7.604107108254e-02 -1.711020795203e+02 0.0 
0.0 0.0 -7.307799282178e+01 
-6.976781573226e+01 -2.574890786155e-01 0.0 
-2.574890786155e-01 -1.609619426008e+02 0.0 
0.0 0.0 -6.881892749991e+01 
-7.155079679611e+01 4.250045966230e-01 0.0 
4.250045966230e-01 -1.613806823073e+02 0.0 
0.0 0.0 -6.947944373102e+01 

TENSORS element_materi_strain_total float
-1.587583084918e-04 1.241524593371e-04 0.0 
1.241524593371e-04 3.403599921508e-03 0.0 
0.0 0.0 0.0 
-1.697893207271e-04 7.601162173137e-05 0.0 
7.601162173137e-05 3.372221942251e-03 0.0 
0.0 0.0 0.0 
-2.778725977903e-05 1.926588100374e-04 0.0 
1.926588100374e-04 8.674813143902e-03 0.0 
0.0 0.0 0.0 
-2.717578626832e-05 -7.405736151628e-06 0.0 
-7.405736151628e-06 8.693481341034e-03 0.0 
0.0 0.0 0.0 
-9.878119433959e-05 4.781544582830e-05 0.0 
4.781544582830e-05 5.797226090692e-03 0.0 
0.0 0.0 0.0 
1.386937272230e-04 3.452587378654e-04 0.0 
3.452587378654e-04 9.599330555028e-04 0.0 
0.0 0.0 0.0 
-8.611618960574e-05 4.975543311341e-05 0.0 
4.975543311341e-05 5.801091525949e-03 0.0 
0.0 0.0 0.0 
-1.629710778511e-04 1.446727420950e-04 0.0 
1.446727420950e-04 3.270924438937e-03 0.0 
0.0 0.0 0.0 
-9.878587683765e-05 -3.377004804521e-05 0.0 
-3.377004804521e-05 5.810038285218e-03 0.0 
0.0 0.0 0.0 
-2.354681626371e-05 6.490227396575e-05 0.0 
6.490227396575e-05 8.658136109233e-03 0.0 
0.0 0.0 0.0 
1.705629575546e-04 3.321924119454e-05 0.0 
3.321924119454e-05 5.205814426375e-03 0.0 
0.0 0.0 0.0 
-1.621325141161e-04 9.898268028752e-05 0.0 
9.898268028752e-05 3.019360835102e-03 0.0 
0.0 0.0 0.0 
6.074690380453e-05 6.673746599586e-05 0.0 
6.673746599586e-05 7.746425150718e-03 0.0 
0.0 0.0 0.0 
-1.132698366054e-04 6.399268057008e-05 0.0 
6.399268057008e-05 6.153096220659e-03 0.0 
0.0 0.0 0.0 
3.437224182146e-05 1.568977886999e-05 0.0 
1.568977886999e-05 7.940699468817e-03 0.0 
0.0 0.0 0.0 
-1.969667542490e-05 5.592959352607e-05 0.0 
5.592959352607e-05 8.861988707705e-03 0.0 
0.0 0.0 0.0 
-1.156029901602e-04 1.775657750309e-05 0.0 
1.775657750309e-05 5.704683265502e-03 0.0 
0.0 0.0 0.0 
1.032166175474e-04 1.435555853800e-04 0.0 
1.435555853800e-04 9.104518983636e-04 0.0 
0.0 0.0 0.0 
5.278995901126e-05 -2.758245334545e-05 0.0 
-2.758245334545e-05 1.476590894808e-03 0.0 
0.0 0.0 0.0 
8.279978983450e-05 1.418022743708e-05 0.0 
1.418022743708e-05 1.529819012602e-03 0.0 
0.0 0.0 0.0 
-2.606274804540e-05 -1.364092670417e-06 0.0 
-1.364092670417e-06 8.669305353788e-03 0.0 
0.0 0.0 0.0 
-1.604252986938e-04 7.885780226489e-05 0.0 
7.885780226489e-05 3.729417717439e-03 0.0 
0.0 0.0 0.0 
-1.752411225058e-04 7.417411725794e-05 0.0 
7.417411725794e-05 3.943516016218e-03 0.0 
0.0 0.0 0.0 
6.210561213793e-05 2.373937508740e-04 0.0 
2.373937508740e-04 7.636992849588e-03 0.0 
0.0 0.0 0.0 
-1.156526292476e-04 9.222982995844e-05 0.0 
9.222982995844e-05 6.516158302795e-03 0.0 
0.0 0.0 0.0 
1.644289790832e-04 -7.161218627754e-06 0.0 
-7.161218627754e-06 5.502389854325e-03 0.0 
0.0 0.0 0.0 
-1.387932713740e-04 2.762520408078e-05 0.0 
2.762520408078e-05 5.331862268905e-03 0.0 
0.0 0.0 0.0 
-3.237838335468e-05 3.256728585935e-04 0.0 
3.256728585935e-04 8.485769475478e-03 0.0 
0.0 0.0 0.0 
-1.335858066671e-04 2.689976315917e-05 0.0 
2.689976315917e-05 6.521809437261e-03 0.0 
0.0 0.0 0.0 
6.029192817825e-05 2.802958357125e-04 0.0 
2.802958357125e-04 7.797087780315e-03 0.0 
0.0 0.0 0.0 
6.801556117542e-05 3.263206877609e-05 0.0 
3.263206877609e-05 1.130077197789e-03 0.0 
0.0 0.0 0.0 
-3.828987779764e-05 -1.958237641072e-05 0.0 
-1.958237641072e-05 4.258356873637e-04 0.0 
0.0 0.0 0.0 
-6.265548403883e-05 2.057872844898e-04 0.0 
2.057872844898e-04 8.697390005378e-03 0.0 
0.0 0.0 0.0 
1.242251084721e-04 -1.825457893877e-05 0.0 
-1.825457893877e-05 6.600038140220e-03 0.0 
0.0 0.0 0.0 
6.724116990697e-05 1.413967979102e-04 0.0 
1.413967979102e-04 7.800902193182e-03 0.0 
0.0 0.0 0.0 
2.931147310470e-05 1.813648750130e-04 0.0 
1.813648750130e-04 8.172382015498e-03 0.0 
0.0 0.0 0.0 
2.324888329963e-05 4.928856060571e-05 0.0 
4.928856060571e-05 8.164242908393e-03 0.0 
0.0 0.0 0.0 
2.998131401699e-05 3.478629795949e-04 0.0 
3.478629795949e-04 8.144455007977e-03 0.0 
0.0 0.0 0.0 
-8.814645512278e-05 -4.605736730528e-05 0.0 
-4.605736730528e-05 5.389783568799e-03 0.0 
0.0 0.0 0.0 
-8.485406044023e-05 5.645074890438e-05 0.0 
5.645074890438e-05 5.406558595713e-03 0.0 
0.0 0.0 0.0 
-1.752198360577e-04 5.084692251102e-05 0.0 
5.084692251102e-05 4.403914025669e-03 0.0 
0.0 0.0 0.0 
4.238239185894e-05 2.090970730869e-04 0.0 
2.090970730869e-04 7.951271306540e-03 0.0 
0.0 0.0 0.0 
-1.311053466325e-04 1.663505499847e-04 0.0 
1.663505499847e-04 2.675764296724e-03 0.0 
0.0 0.0 0.0 
-1.404035347976e-04 3.898255554197e-05 0.0 
3.898255554197e-05 5.348734052878e-03 0.0 
0.0 0.0 0.0 
-3.809059174542e-05 -8.037299565534e-06 0.0 
-8.037299565534e-06 8.460129890479e-03 0.0 
0.0 0.0 0.0 
-1.752457555947e-04 1.689214829226e-04 0.0 
1.689214829226e-04 2.676090050302e-03 0.0 
0.0 0.0 0.0 
6.366687292614e-05 -1.179043305002e-05 0.0 
-1.179043305002e-05 7.706373655552e-04 0.0 
0.0 0.0 0.0 
-1.947423270854e-05 2.024813407496e-05 0.0 
2.024813407496e-05 8.495101450300e-03 0.0 
0.0 0.0 0.0 
-1.632474667834e-05 -2.050991325135e-05 0.0 
-2.050991325135e-05 4.206769734276e-04 0.0 
0.0 0.0 0.0 
-1.164638258466e-04 2.587858597858e-06 0.0 
2.587858597858e-06 5.968495624611e-03 0.0 
0.0 0.0 0.0 
-1.757352007105e-04 6.285894080666e-05 0.0 
6.285894080666e-05 4.177929252929e-03 0.0 
0.0 0.0 0.0 
8.597601292393e-05 -2.057801480073e-05 0.0 
-2.057801480073e-05 1.883086372173e-03 0.0 
0.0 0.0 0.0 
1.433721870401e-04 3.470848834075e-05 0.0 
3.470848834075e-05 1.622193132825e-03 0.0 
0.0 0.0 0.0 
-1.601236035821e-04 7.116804044795e-05 0.0 
7.116804044795e-05 4.170198884167e-03 0.0 
0.0 0.0 0.0 
-2.491268754312e-05 1.458897615126e-04 0.0 
1.458897615126e-04 8.753248162720e-03 0.0 
0.0 0.0 0.0 
1.171415326473e-04 -3.196886334738e-05 0.0 
-3.196886334738e-05 2.531980292108e-03 0.0 
0.0 0.0 0.0 
1.042430460143e-04 1.980804913051e-05 0.0 
1.980804913051e-05 1.949192702916e-03 0.0 
0.0 0.0 0.0 
1.267610199065e-04 4.262736502377e-05 0.0 
4.262736502377e-05 6.601713617128e-03 0.0 
0.0 0.0 0.0 
4.102295869512e-05 -1.303912186177e-05 0.0 
-1.303912186177e-05 1.100825342708e-03 0.0 
0.0 0.0 0.0 
-1.949775127985e-05 -4.439805837448e-06 0.0 
-4.439805837448e-06 8.862848161328e-03 0.0 
0.0 0.0 0.0 
-1.250680642828e-04 -4.290195817948e-05 0.0 
-4.290195817948e-05 3.946364252381e-04 0.0 
0.0 0.0 0.0 
-6.155342963443e-06 3.471780923069e-04 0.0 
3.471780923069e-04 7.971579313654e-03 0.0 
0.0 0.0 0.0 
-1.567226938779e-04 2.224449324190e-04 0.0 
2.224449324190e-04 4.059047446965e-03 0.0 
0.0 0.0 0.0 
1.513026998983e-04 7.997816438065e-05 0.0 
7.997816438065e-05 1.406311363777e-03 0.0 
0.0 0.0 0.0 
5.796532373403e-05 3.157273384766e-05 0.0 
3.157273384766e-05 7.745179272066e-03 0.0 
0.0 0.0 0.0 
-1.661061173335e-04 7.239074671655e-05 0.0 
7.239074671655e-05 3.943341153666e-03 0.0 
0.0 0.0 0.0 
-1.548722446054e-05 -1.473951242416e-06 0.0 
-1.473951242416e-06 3.294067000597e-04 0.0 
0.0 0.0 0.0 
-6.098409553856e-05 2.002769216717e-04 0.0 
2.002769216717e-04 8.675170106587e-03 0.0 
0.0 0.0 0.0 
5.326201603562e-05 -6.956898481095e-05 0.0 
-6.956898481095e-05 1.204738672156e-03 0.0 
0.0 0.0 0.0 
-2.585235210117e-05 2.614647849924e-04 0.0 
2.614647849924e-04 8.606494354563e-03 0.0 
0.0 0.0 0.0 
1.606267698235e-04 -1.900817534599e-07 0.0 
-1.900817534599e-07 5.739185417006e-03 0.0 
0.0 0.0 0.0 
0.0 9.438400389622e-05 0.0 
9.438400389622e-05 9.123510110560e-03 0.0 
0.0 0.0 0.0 
-3.542606372742e-05 2.932610931598e-04 0.0 
2.932610931598e-04 8.180341315838e-03 0.0 
0.0 0.0 0.0 
9.453084007349e-06 2.884940037885e-05 0.0 
2.884940037885e-05 5.030739188112e-04 0.0 
0.0 0.0 0.0 
1.299190345443e-04 2.024405568970e-05 0.0 
2.024405568970e-05 2.645335237290e-03 0.0 
0.0 0.0 0.0 
-3.150359240112e-05 4.491621846525e-05 0.0 
4.491621846525e-05 8.719454428873e-03 0.0 
0.0 0.0 0.0 
-5.531783475088e-05 1.583059052594e-04 0.0 
1.583059052594e-04 8.750445256391e-03 0.0 
0.0 0.0 0.0 
-1.614129365585e-04 2.682003087442e-04 0.0 
2.682003087442e-04 2.188574160088e-03 0.0 
0.0 0.0 0.0 
6.663391928341e-05 -2.234343044917e-05 0.0 
-2.234343044917e-05 1.100820361472e-03 0.0 
0.0 0.0 0.0 
-1.175861183640e-04 2.298156041858e-04 0.0 
2.298156041858e-04 2.186927823024e-03 0.0 
0.0 0.0 0.0 
7.043985256705e-05 1.615493708169e-05 0.0 
1.615493708169e-05 1.191435379840e-03 0.0 
0.0 0.0 0.0 
-1.023217964604e-04 2.010378862398e-05 0.0 
2.010378862398e-05 5.698207382303e-03 0.0 
0.0 0.0 0.0 
-1.769287357641e-04 8.543728680327e-05 0.0 
8.543728680327e-05 3.726914832180e-03 0.0 
0.0 0.0 0.0 
-1.645701571338e-04 7.165248443815e-05 0.0 
7.165248443815e-05 3.465861191703e-03 0.0 
0.0 0.0 0.0 
-1.070135365848e-04 -2.204043005119e-05 0.0 
-2.204043005119e-05 6.031742315975e-03 0.0 
0.0 0.0 0.0 
-9.402989540064e-05 4.785236775923e-05 0.0 
4.785236775923e-05 6.031031173139e-03 0.0 
0.0 0.0 0.0 
1.497483633619e-04 -1.095987214362e-05 0.0 
-1.095987214362e-05 5.927289448781e-03 0.0 
0.0 0.0 0.0 
1.358908983904e-04 3.226118017297e-05 0.0 
3.226118017297e-05 6.410592487601e-03 0.0 
0.0 0.0 0.0 
-1.232871284906e-04 1.445918316567e-04 0.0 
1.445918316567e-04 7.562401737061e-03 0.0 
0.0 0.0 0.0 
-1.047038006461e-04 -3.019307317612e-05 0.0 
-3.019307317612e-05 5.779942482408e-03 0.0 
0.0 0.0 0.0 
-1.087149209900e-05 -1.667216587523e-05 0.0 
-1.667216587523e-05 4.146062372923e-04 0.0 
0.0 0.0 0.0 
-1.396541057530e-04 4.429868312804e-05 0.0 
4.429868312804e-05 5.725288708099e-03 0.0 
0.0 0.0 0.0 
-5.801233547487e-05 -8.283168692567e-06 0.0 
-8.283168692567e-06 7.482191239053e-03 0.0 
0.0 0.0 0.0 
-6.144106209172e-05 2.858025259218e-05 0.0 
2.858025259218e-05 7.405147657951e-03 0.0 
0.0 0.0 0.0 
-2.536482441828e-05 1.008653403582e-04 0.0 
1.008653403582e-04 9.124454652509e-03 0.0 
0.0 0.0 0.0 
-3.019746127153e-06 3.135028873908e-04 0.0 
3.135028873908e-04 8.398474702969e-03 0.0 
0.0 0.0 0.0 
-1.108461329463e-04 1.696043166628e-06 0.0 
1.696043166628e-06 5.689085686778e-03 0.0 
0.0 0.0 0.0 
5.789167404013e-05 2.070400391314e-04 0.0 
2.070400391314e-04 7.947755022899e-03 0.0 
0.0 0.0 0.0 
-7.100485414713e-05 -2.120194733029e-05 0.0 
-2.120194733029e-05 6.444062120228e-03 0.0 
0.0 0.0 0.0 
-1.793079499698e-04 1.666270056558e-04 0.0 
1.666270056558e-04 3.950031241100e-03 0.0 
0.0 0.0 0.0 
-9.934367441133e-05 -1.828008757559e-05 0.0 
-1.828008757559e-05 5.593880391992e-03 0.0 
0.0 0.0 0.0 
3.509102942267e-05 7.856370316261e-05 0.0 
7.856370316261e-05 7.936767764305e-03 0.0 
0.0 0.0 0.0 
-1.227765439449e-05 2.624013886690e-04 0.0 
2.624013886690e-04 6.896327104067e-03 0.0 
0.0 0.0 0.0 
-2.182694204944e-05 2.843995502923e-04 0.0 
2.843995502923e-04 7.981663028836e-03 0.0 
0.0 0.0 0.0 
-1.391989654692e-04 2.643639291288e-04 0.0 
2.643639291288e-04 3.538298954412e-03 0.0 
0.0 0.0 0.0 
-1.586610474713e-05 -2.997632839373e-06 0.0 
-2.997632839373e-06 7.986710332055e-04 0.0 
0.0 0.0 0.0 
8.772286091818e-05 -4.923306697426e-06 0.0 
-4.923306697426e-06 7.276970354436e-03 0.0 
0.0 0.0 0.0 
-5.621812709700e-05 2.447634533250e-05 0.0 
2.447634533250e-05 7.806147075688e-03 0.0 
0.0 0.0 0.0 
-1.030293392520e-04 -2.946779394967e-05 0.0 
-2.946779394967e-05 4.430612170614e-04 0.0 
0.0 0.0 0.0 
4.309964698068e-05 7.945462962733e-05 0.0 
7.945462962733e-05 7.890618282469e-03 0.0 
0.0 0.0 0.0 
-1.152955814530e-04 1.961855053520e-04 0.0 
1.961855053520e-04 7.300755230780e-03 0.0 
0.0 0.0 0.0 
-1.237682303534e-06 -4.297223439354e-05 0.0 
-4.297223439354e-05 3.155859420461e-04 0.0 
0.0 0.0 0.0 
-8.199975742451e-05 3.194975327752e-04 0.0 
3.194975327752e-04 4.366257735456e-03 0.0 
0.0 0.0 0.0 
-1.627324384686e-04 3.212594282195e-05 0.0 
3.212594282195e-05 5.280104460630e-03 0.0 
0.0 0.0 0.0 
1.569116563058e-04 -1.358326748136e-05 0.0 
-1.358326748136e-05 3.246207744322e-03 0.0 
0.0 0.0 0.0 
-1.580172522775e-04 1.911848206460e-04 0.0 
1.911848206460e-04 3.669327578701e-03 0.0 
0.0 0.0 0.0 
-1.698179217933e-04 1.932406762674e-04 0.0 
1.932406762674e-04 4.061254117729e-03 0.0 
0.0 0.0 0.0 
4.050033244285e-05 1.782608070835e-04 0.0 
1.782608070835e-04 7.946189940818e-03 0.0 
0.0 0.0 0.0 
-7.051525402602e-05 3.189733570831e-05 0.0 
3.189733570831e-05 6.302505621940e-03 0.0 
0.0 0.0 0.0 
-1.460857344757e-04 2.523269793913e-04 0.0 
2.523269793913e-04 3.797836299622e-03 0.0 
0.0 0.0 0.0 
3.666408580982e-05 -7.553646007008e-05 0.0 
-7.553646007008e-05 1.147055886207e-03 0.0 
0.0 0.0 0.0 
-1.385019423104e-04 6.478556337737e-05 0.0 
6.478556337737e-05 5.690918111185e-03 0.0 
0.0 0.0 0.0 
-3.697063632102e-05 -3.426348932476e-06 0.0 
-3.426348932476e-06 7.839463648395e-03 0.0 
0.0 0.0 0.0 
-1.587385036405e-04 2.196541337483e-04 0.0 
2.196541337483e-04 3.799413182269e-03 0.0 
0.0 0.0 0.0 
-5.969500740721e-05 4.231778932491e-04 0.0 
4.231778932491e-04 1.544603209695e-03 0.0 
0.0 0.0 0.0 
-1.715321888954e-04 3.696760104255e-05 0.0 
3.696760104255e-05 4.842711189686e-03 0.0 
0.0 0.0 0.0 
1.393629657449e-04 1.001349699225e-05 0.0 
1.001349699225e-05 3.220788402170e-03 0.0 
0.0 0.0 0.0 
-1.575097244181e-04 6.792842295306e-05 0.0 
6.792842295306e-05 4.616693990960e-03 0.0 
0.0 0.0 0.0 
-1.944225114381e-05 1.051023427850e-04 0.0 
1.051023427850e-04 8.878075924818e-03 0.0 
0.0 0.0 0.0 
1.447924057274e-05 4.557920039906e-04 0.0 
4.557920039906e-04 1.467439953188e-03 0.0 
0.0 0.0 0.0 
1.675430750414e-04 4.522002227846e-05 0.0 
4.522002227846e-05 5.476660386922e-03 0.0 
0.0 0.0 0.0 
-2.751676359503e-05 5.233430512013e-05 0.0 
5.233430512013e-05 8.695258925554e-03 0.0 
0.0 0.0 0.0 
-1.700524007346e-04 1.606731686764e-04 0.0 
1.606731686764e-04 4.818556977223e-03 0.0 
0.0 0.0 0.0 
-1.741505776646e-04 4.072030348914e-05 0.0 
4.072030348914e-05 4.628953186790e-03 0.0 
0.0 0.0 0.0 
7.499901618102e-05 2.187051912313e-04 0.0 
2.187051912313e-04 7.802455029845e-03 0.0 
0.0 0.0 0.0 
5.670303984440e-05 -1.358102162122e-05 0.0 
-1.358102162122e-05 7.761789604195e-03 0.0 
0.0 0.0 0.0 
1.527240638239e-04 4.930363792838e-05 0.0 
4.930363792838e-05 5.928920846254e-03 0.0 
0.0 0.0 0.0 
-1.841759441498e-04 1.200904835053e-04 0.0 
1.200904835053e-04 5.063888298325e-03 0.0 
0.0 0.0 0.0 
5.637829718097e-05 2.734527064778e-04 0.0 
2.734527064778e-04 8.053635359843e-03 0.0 
0.0 0.0 0.0 
-1.708806603294e-04 1.304327024046e-04 0.0 
1.304327024046e-04 4.680216142044e-03 0.0 
0.0 0.0 0.0 
-9.079051637606e-06 5.285208559645e-05 0.0 
5.285208559645e-05 8.798063782934e-03 0.0 
0.0 0.0 0.0 
-4.924656664052e-05 2.788804946821e-04 0.0 
2.788804946821e-04 8.630761772015e-03 0.0 
0.0 0.0 0.0 
-1.265277738705e-04 -1.489969998789e-06 0.0 
-1.489969998789e-06 6.140204234543e-03 0.0 
0.0 0.0 0.0 
-6.689411497507e-05 4.521953195342e-05 0.0 
4.521953195342e-05 6.964355634497e-03 0.0 
0.0 0.0 0.0 
-1.871260753764e-04 1.022844299018e-04 0.0 
1.022844299018e-04 4.681406263291e-03 0.0 
0.0 0.0 0.0 
-1.625538925304e-04 7.093542502403e-05 0.0 
7.093542502403e-05 4.397550375224e-03 0.0 
0.0 0.0 0.0 
-1.654420209304e-04 1.787354101747e-04 0.0 
1.787354101747e-04 5.197247965499e-03 0.0 
0.0 0.0 0.0 
-1.228567210482e-04 2.731888457967e-04 0.0 
2.731888457967e-04 3.916263950427e-03 0.0 
0.0 0.0 0.0 
-9.291742100059e-05 -2.362483614454e-05 0.0 
-2.362483614454e-05 5.653601736073e-03 0.0 
0.0 0.0 0.0 
-7.301403666982e-05 2.806936288645e-04 0.0 
2.806936288645e-04 4.370981089495e-03 0.0 
0.0 0.0 0.0 
-9.468753232600e-07 -4.104896863354e-05 0.0 
-4.104896863354e-05 3.966016263346e-04 0.0 
0.0 0.0 0.0 
-8.216523765947e-05 3.073713628523e-07 0.0 
3.073713628523e-07 5.974687916484e-03 0.0 
0.0 0.0 0.0 
5.188847744564e-05 -5.826112577975e-06 0.0 
-5.826112577975e-06 1.124546226401e-03 0.0 
0.0 0.0 0.0 
-1.683723740659e-04 3.373013939517e-05 0.0 
3.373013939517e-05 5.063445935553e-03 0.0 
0.0 0.0 0.0 
3.823134128833e-05 2.438547124623e-04 0.0 
2.438547124623e-04 8.026449799090e-03 0.0 
0.0 0.0 0.0 
-1.357007678310e-04 2.846755922305e-04 0.0 
2.846755922305e-04 3.536793310535e-03 0.0 
0.0 0.0 0.0 
1.454239723835e-04 4.463688685941e-05 0.0 
4.463688685941e-05 6.157688626404e-03 0.0 
0.0 0.0 0.0 
-1.750776006660e-04 1.301303320687e-04 0.0 
1.301303320687e-04 2.906475103529e-03 0.0 
0.0 0.0 0.0 
-9.044999457752e-06 3.281708427199e-04 0.0 
3.281708427199e-04 6.890374281733e-03 0.0 
0.0 0.0 0.0 
-8.677851827399e-05 3.910453111540e-06 0.0 
3.910453111540e-06 5.688774174253e-03 0.0 
0.0 0.0 0.0 
-5.491251007395e-05 3.447371784612e-04 0.0 
3.447371784612e-04 4.068941871475e-03 0.0 
0.0 0.0 0.0 
1.132335304981e-04 -9.759446288442e-06 0.0 
-9.759446288442e-06 6.820613594380e-03 0.0 
0.0 0.0 0.0 
6.149347899242e-05 1.016559556516e-06 0.0 
1.016559556516e-06 1.132369742680e-03 0.0 
0.0 0.0 0.0 
9.296353791521e-05 6.424417702365e-05 0.0 
6.424417702365e-05 7.269646502719e-03 0.0 
0.0 0.0 0.0 
-1.599118331447e-04 1.066901592050e-04 0.0 
1.066901592050e-04 5.596615329476e-03 0.0 
0.0 0.0 0.0 
5.808278556940e-05 8.864186562099e-05 0.0 
8.864186562099e-05 7.872931604386e-03 0.0 
0.0 0.0 0.0 
-8.193932823874e-05 4.826116290198e-06 0.0 
4.826116290198e-06 5.663053843612e-03 0.0 
0.0 0.0 0.0 
-1.076688132653e-04 3.116770858852e-04 0.0 
3.116770858852e-04 3.608576774907e-03 0.0 
0.0 0.0 0.0 
-1.487677413008e-04 6.559239929808e-05 0.0 
6.559239929808e-05 5.050392791061e-03 0.0 
0.0 0.0 0.0 
1.601366270676e-04 -1.214938289997e-05 0.0 
-1.214938289997e-05 5.236004729986e-03 0.0 
0.0 0.0 0.0 
-1.379294337155e-04 1.499178409487e-04 0.0 
1.499178409487e-04 2.911280172539e-03 0.0 
0.0 0.0 0.0 
-3.911831646941e-05 3.004584173749e-04 0.0 
3.004584173749e-04 4.074871554145e-03 0.0 
0.0 0.0 0.0 
-6.935315661949e-05 -2.049692723308e-05 0.0 
-2.049692723308e-05 7.190515660204e-03 0.0 
0.0 0.0 0.0 
-9.032560653055e-05 2.654507007036e-05 0.0 
2.654507007036e-05 5.662420233542e-03 0.0 
0.0 0.0 0.0 
-9.491348943480e-05 3.144244316737e-04 0.0 
3.144244316737e-04 3.976444207626e-03 0.0 
0.0 0.0 0.0 
-1.582733407542e-04 6.455913683786e-05 0.0 
6.455913683786e-05 4.831349038807e-03 0.0 
0.0 0.0 0.0 
-8.168990537361e-05 2.600939111871e-04 0.0 
2.600939111871e-04 7.763736522244e-03 0.0 
0.0 0.0 0.0 
1.570706017431e-04 -5.376617132260e-06 0.0 
-5.376617132260e-06 3.611363865575e-03 0.0 
0.0 0.0 0.0 
-8.040997193870e-06 3.208996990343e-04 0.0 
3.208996990343e-04 8.469368421092e-03 0.0 
0.0 0.0 0.0 
-5.344803885587e-05 2.766809671222e-04 0.0 
2.766809671222e-04 8.598107384488e-03 0.0 
0.0 0.0 0.0 
-1.805958496327e-04 1.464572187540e-04 0.0 
1.464572187540e-04 3.590773780624e-03 0.0 
0.0 0.0 0.0 
1.731252571169e-04 1.356093949247e-05 0.0 
1.356093949247e-05 3.628852896055e-03 0.0 
0.0 0.0 0.0 
6.363936848808e-05 2.424356673235e-04 0.0 
2.424356673235e-04 7.330077610454e-03 0.0 
0.0 0.0 0.0 
-1.840113622441e-04 7.579507361119e-05 0.0 
7.579507361119e-05 4.542423129965e-03 0.0 
0.0 0.0 0.0 
-1.701680274915e-04 1.604986933711e-04 0.0 
1.604986933711e-04 3.309198080126e-03 0.0 
0.0 0.0 0.0 
-1.557764197193e-04 8.680436239853e-05 0.0 
8.680436239853e-05 5.437751330441e-03 0.0 
0.0 0.0 0.0 
-1.094373098141e-04 2.721449657406e-04 0.0 
2.721449657406e-04 4.289441005527e-03 0.0 
0.0 0.0 0.0 
-1.886034894316e-05 5.741673560170e-05 0.0 
5.741673560170e-05 8.787755548861e-03 0.0 
0.0 0.0 0.0 
-1.105793233677e-04 1.743232403102e-04 0.0 
1.743232403102e-04 7.388896449066e-03 0.0 
0.0 0.0 0.0 
1.034024442805e-04 5.109561767020e-05 0.0 
5.109561767020e-05 7.050200852410e-03 0.0 
0.0 0.0 0.0 
-1.728548616522e-04 2.073262141937e-04 0.0 
2.073262141937e-04 2.438747201948e-03 0.0 
0.0 0.0 0.0 
1.827912377905e-06 3.157320699224e-04 0.0 
3.157320699224e-04 3.774963480751e-03 0.0 
0.0 0.0 0.0 
-1.025278374077e-04 1.950742369952e-04 0.0 
1.950742369952e-04 7.549119578657e-03 0.0 
0.0 0.0 0.0 
-2.530356791052e-04 8.672162826820e-05 0.0 
8.672162826820e-05 2.577449750498e-04 0.0 
0.0 0.0 0.0 
-1.687053145065e-04 9.847362790406e-05 0.0 
9.847362790406e-05 4.541989088136e-03 0.0 
0.0 0.0 0.0 
1.040864627686e-04 1.977825257234e-04 0.0 
1.977825257234e-04 6.782288324189e-03 0.0 
0.0 0.0 0.0 
2.243647919786e-05 -3.039231065303e-05 0.0 
-3.039231065303e-05 7.592242110788e-04 0.0 
0.0 0.0 0.0 
-3.970033098388e-05 2.049036570078e-04 0.0 
2.049036570078e-04 8.634683549979e-03 0.0 
0.0 0.0 0.0 
-1.192092665714e-04 1.198221967156e-04 0.0 
1.198221967156e-04 6.892709633439e-03 0.0 
0.0 0.0 0.0 
2.046708994301e-04 8.510049899006e-05 0.0 
8.510049899006e-05 3.441270853938e-03 0.0 
0.0 0.0 0.0 
1.127221940704e-04 2.774234056487e-04 0.0 
2.774234056487e-04 6.776863208062e-03 0.0 
0.0 0.0 0.0 
-1.408417021684e-04 5.415399535160e-05 0.0 
5.415399535160e-05 6.030533029917e-03 0.0 
0.0 0.0 0.0 
-1.240355144945e-04 2.860085732523e-05 0.0 
2.860085732523e-05 6.371817970150e-03 0.0 
0.0 0.0 0.0 
5.141257120034e-05 2.288113289776e-04 0.0 
2.288113289776e-04 7.783786949666e-03 0.0 
0.0 0.0 0.0 
1.612357990639e-04 3.425622409296e-05 0.0 
3.425622409296e-05 2.529375558744e-03 0.0 
0.0 0.0 0.0 
-1.556251814970e-04 2.087101548571e-04 0.0 
2.087101548571e-04 5.328896338441e-03 0.0 
0.0 0.0 0.0 
-1.608994308661e-04 1.274984511832e-04 0.0 
1.274984511832e-04 5.754834884881e-03 0.0 
0.0 0.0 0.0 
-1.257402042174e-04 6.700427162187e-05 0.0 
6.700427162187e-05 7.131062674766e-03 0.0 
0.0 0.0 0.0 
-1.710684578357e-04 6.183344122218e-05 0.0 
6.183344122218e-05 5.828631508749e-03 0.0 
0.0 0.0 0.0 
-1.709362827725e-04 4.847199546145e-05 0.0 
4.847199546145e-05 5.437533790801e-03 0.0 
0.0 0.0 0.0 
9.586967252728e-06 2.633244342840e-04 0.0 
2.633244342840e-04 6.196815523940e-03 0.0 
0.0 0.0 0.0 
-1.112636147528e-04 1.869604332743e-04 0.0 
1.869604332743e-04 7.610129900293e-03 0.0 
0.0 0.0 0.0 
-3.983436353217e-05 1.208351503736e-04 0.0 
1.208351503736e-04 4.773194452359e-04 0.0 
0.0 0.0 0.0 
-1.547967642936e-04 1.436090787471e-04 0.0 
1.436090787471e-04 3.590328468200e-03 0.0 
0.0 0.0 0.0 
-1.667676999422e-04 1.745923198621e-04 0.0 
1.745923198621e-04 3.948650016739e-03 0.0 
0.0 0.0 0.0 
-1.772844394715e-04 1.495900965815e-04 0.0 
1.495900965815e-04 5.201266711894e-03 0.0 
0.0 0.0 0.0 
-1.171712133432e-04 1.191844863829e-04 0.0 
1.191844863829e-04 7.642033878368e-03 0.0 
0.0 0.0 0.0 
1.653813409681e-04 3.551553405486e-04 0.0 
3.551553405486e-04 1.439825720787e-03 0.0 
0.0 0.0 0.0 
1.243599855758e-04 1.784136464561e-04 0.0 
1.784136464561e-04 6.501849926118e-03 0.0 
0.0 0.0 0.0 
-8.712567388336e-05 -3.221113987965e-05 0.0 
-3.221113987965e-05 5.631430255142e-03 0.0 
0.0 0.0 0.0 
-2.030160433431e-05 3.639583113336e-04 0.0 
3.639583113336e-04 3.768282253330e-03 0.0 
0.0 0.0 0.0 
1.420255479674e-04 1.584495905769e-04 0.0 
1.584495905769e-04 6.227774673297e-03 0.0 
0.0 0.0 0.0 
-1.996661694248e-05 -5.293663498492e-05 0.0 
-5.293663498492e-05 4.896016619125e-04 0.0 
0.0 0.0 0.0 
-1.071153767727e-04 1.367638050470e-04 0.0 
1.367638050470e-04 7.295473720013e-03 0.0 
0.0 0.0 0.0 
-3.201560936772e-05 -1.950298924763e-06 0.0 
-1.950298924763e-06 3.771644741712e-04 0.0 
0.0 0.0 0.0 
4.212888679245e-05 -2.024976239014e-05 0.0 
-2.024976239014e-05 7.644394349675e-04 0.0 
0.0 0.0 0.0 
-1.180650907774e-04 1.976156830086e-04 0.0 
1.976156830086e-04 2.438220863637e-03 0.0 
0.0 0.0 0.0 
1.376151035610e-04 1.729422941596e-05 0.0 
1.729422941596e-05 2.115771086471e-03 0.0 
0.0 0.0 0.0 
-1.119387751531e-04 8.226546841986e-05 0.0 
8.226546841986e-05 7.533443640849e-03 0.0 
0.0 0.0 0.0 
1.114722763491e-04 -5.237878769411e-05 0.0 
-5.237878769411e-05 1.977930543994e-03 0.0 
0.0 0.0 0.0 
-9.826305974281e-05 3.431973423974e-04 0.0 
3.431973423974e-04 2.589181197827e-03 0.0 
0.0 0.0 0.0 
1.106775365027e-04 -2.656074834336e-05 0.0 
-2.656074834336e-05 1.527867429800e-03 0.0 
0.0 0.0 0.0 
6.913871140690e-05 4.568292033474e-06 0.0 
4.568292033474e-06 1.302499603778e-03 0.0 
0.0 0.0 0.0 
9.135922948622e-05 2.875859245948e-04 0.0 
2.875859245948e-04 7.041980876717e-03 0.0 
0.0 0.0 0.0 
-1.757001652579e-04 6.540524598822e-05 0.0 
6.540524598822e-05 5.598224487531e-03 0.0 
0.0 0.0 0.0 
6.263652607696e-05 1.029562815990e-04 0.0 
1.029562815990e-04 7.749109988543e-03 0.0 
0.0 0.0 0.0 
-3.612590935442e-05 2.945763182552e-05 0.0 
2.945763182552e-05 1.263626551737e-04 0.0 
0.0 0.0 0.0 
-8.664068019848e-05 3.528054132892e-04 0.0 
3.528054132892e-04 2.938528455569e-03 0.0 
0.0 0.0 0.0 
-1.377850086404e-05 3.528718790258e-04 0.0 
3.528718790258e-04 4.173169688314e-03 0.0 
0.0 0.0 0.0 
-1.680878550733e-04 1.102640392224e-04 0.0 
1.102640392224e-04 4.296252262709e-03 0.0 
0.0 0.0 0.0 
1.318170005509e-04 2.544236625983e-04 0.0 
2.544236625983e-04 6.496626704026e-03 0.0 
0.0 0.0 0.0 
5.480112469858e-05 1.297441725587e-04 0.0 
1.297441725587e-04 7.916585442846e-03 0.0 
0.0 0.0 0.0 
-1.339742923916e-04 1.037612716083e-04 0.0 
1.037612716083e-04 7.238825388656e-03 0.0 
0.0 0.0 0.0 
4.819008439516e-05 3.347634191251e-04 0.0 
3.347634191251e-04 3.056422780803e-03 0.0 
0.0 0.0 0.0 
8.309395737349e-05 2.234365878594e-04 0.0 
2.234365878594e-04 7.042422341835e-03 0.0 
0.0 0.0 0.0 
1.574931084243e-04 5.122638445369e-05 0.0 
5.122638445369e-05 5.693788196184e-03 0.0 
0.0 0.0 0.0 
-1.781558669413e-04 1.350457281212e-04 0.0 
1.350457281212e-04 5.443192999068e-03 0.0 
0.0 0.0 0.0 
-1.177606873793e-04 1.379680181279e-04 0.0 
1.379680181279e-04 7.057780094851e-03 0.0 
0.0 0.0 0.0 
-2.754146437411e-05 2.910179038502e-04 0.0 
2.910179038502e-04 8.190044463030e-03 0.0 
0.0 0.0 0.0 
4.344308363713e-06 3.009158222896e-04 0.0 
3.009158222896e-04 4.180707759806e-03 0.0 
0.0 0.0 0.0 
-1.263825477100e-04 3.060166020337e-04 0.0 
3.060166020337e-04 2.886863123854e-03 0.0 
0.0 0.0 0.0 
-1.653654353027e-04 7.721903047211e-05 0.0 
7.721903047211e-05 6.217045145169e-03 0.0 
0.0 0.0 0.0 
-1.935136371622e-05 1.078405184510e-04 0.0 
1.078405184510e-04 9.139887811914e-03 0.0 
0.0 0.0 0.0 
-1.641279205887e-04 1.767422656409e-04 0.0 
1.767422656409e-04 5.332958709253e-03 0.0 
0.0 0.0 0.0 
4.109618055770e-05 2.732377464786e-04 0.0 
2.732377464786e-04 5.095826297854e-03 0.0 
0.0 0.0 0.0 
-8.689615617730e-05 -2.146811379410e-06 0.0 
-2.146811379410e-06 6.057206300290e-03 0.0 
0.0 0.0 0.0 
3.255898203514e-05 -5.247675259396e-05 0.0 
-5.247675259396e-05 1.084760668624e-03 0.0 
0.0 0.0 0.0 
-1.565615807764e-04 1.045898000414e-04 0.0 
1.045898000414e-04 5.821792740931e-03 0.0 
0.0 0.0 0.0 
2.128848079685e-05 3.901851628706e-04 0.0 
3.901851628706e-04 3.048215868545e-03 0.0 
0.0 0.0 0.0 
1.418894031222e-04 3.666079537192e-04 0.0 
3.666079537192e-04 1.916562312650e-03 0.0 
0.0 0.0 0.0 
1.130238757721e-04 -1.388233849669e-05 0.0 
-1.388233849669e-05 1.177968645742e-03 0.0 
0.0 0.0 0.0 
-9.613951262732e-05 1.338551517768e-04 0.0 
1.338551517768e-04 7.526733753122e-03 0.0 
0.0 0.0 0.0 
-1.719069549828e-04 8.304826990723e-05 0.0 
8.304826990723e-05 5.989343149296e-03 0.0 
0.0 0.0 0.0 
-1.259264879326e-04 2.835390746330e-04 0.0 
2.835390746330e-04 3.914619635483e-03 0.0 
0.0 0.0 0.0 
-9.885892894701e-05 7.817274487973e-05 0.0 
7.817274487973e-05 7.762643620175e-03 0.0 
0.0 0.0 0.0 
-1.284324442793e-04 1.232670595755e-04 0.0 
1.232670595755e-04 7.399472430609e-03 0.0 
0.0 0.0 0.0 
-1.772633475841e-04 1.232262836832e-04 0.0 
1.232262836832e-04 5.679467708614e-03 0.0 
0.0 0.0 0.0 
4.623077324872e-05 1.416510811372e-04 0.0 
1.416510811372e-04 7.926967999982e-03 0.0 
0.0 0.0 0.0 
5.661246954825e-05 3.228010336519e-04 0.0 
3.228010336519e-04 5.209606811874e-03 0.0 
0.0 0.0 0.0 
-1.742577257148e-04 1.129294334276e-04 0.0 
1.129294334276e-04 5.913356240821e-03 0.0 
0.0 0.0 0.0 
-9.742230221188e-05 2.657124544142e-04 0.0 
2.657124544142e-04 4.670494174538e-03 0.0 
0.0 0.0 0.0 
3.818862862648e-05 2.655147482656e-04 0.0 
2.655147482656e-04 5.506241895821e-03 0.0 
0.0 0.0 0.0 
1.319022396971e-04 3.662959002230e-04 0.0 
3.662959002230e-04 2.354810592562e-03 0.0 
0.0 0.0 0.0 
-1.389187216538e-04 3.937777422700e-05 0.0 
3.937777422700e-05 5.699484505588e-03 0.0 
0.0 0.0 0.0 
4.456950869192e-05 2.927447175070e-04 0.0 
2.927447175070e-04 4.280529494741e-03 0.0 
0.0 0.0 0.0 
1.853694999625e-04 1.439429425929e-04 0.0 
1.439429425929e-04 2.751255416028e-03 0.0 
0.0 0.0 0.0 
-1.156272705963e-04 1.552356907566e-04 0.0 
1.552356907566e-04 7.228908228060e-03 0.0 
0.0 0.0 0.0 
-3.048273956049e-04 -4.280211750324e-06 0.0 
-4.280211750324e-06 2.390585669096e-04 0.0 
0.0 0.0 0.0 
-1.644486313853e-04 5.628868691844e-05 0.0 
5.628868691844e-05 6.053286249629e-03 0.0 
0.0 0.0 0.0 
7.185676112109e-05 3.760252302606e-04 0.0 
3.760252302606e-04 3.126671087607e-03 0.0 
0.0 0.0 0.0 
-6.949289222724e-05 3.428535138314e-04 0.0 
3.428535138314e-04 2.939828424358e-03 0.0 
0.0 0.0 0.0 
1.385973313210e-04 2.727477437868e-04 0.0 
2.727477437868e-04 2.370637203089e-03 0.0 
0.0 0.0 0.0 
-1.477194260405e-04 1.417100532967e-04 0.0 
1.417100532967e-04 6.370773234683e-03 0.0 
0.0 0.0 0.0 
-6.208230802107e-06 -5.925358050192e-05 0.0 
-5.925358050192e-05 7.473521464427e-04 0.0 
0.0 0.0 0.0 
-1.701292227125e-04 1.566821529264e-04 0.0 
1.566821529264e-04 4.201315327215e-03 0.0 
0.0 0.0 0.0 
5.357736749412e-05 3.173787510892e-04 0.0 
3.173787510892e-04 5.627771642203e-03 0.0 
0.0 0.0 0.0 
-1.564397013338e-04 1.239913614874e-04 0.0 
1.239913614874e-04 5.982137742337e-03 0.0 
0.0 0.0 0.0 
-1.392487458305e-04 4.306636954075e-05 0.0 
4.306636954075e-05 6.057097739352e-03 0.0 
0.0 0.0 0.0 
1.825507034519e-04 2.716193576301e-04 0.0 
2.716193576301e-04 1.111533872217e-03 0.0 
0.0 0.0 0.0 
2.012524843755e-04 2.413435769265e-04 0.0 
2.413435769265e-04 2.736152847133e-03 0.0 
0.0 0.0 0.0 
1.821040569663e-04 9.101099835737e-05 0.0 
9.101099835737e-05 2.467736905532e-03 0.0 
0.0 0.0 0.0 
-1.824912570267e-04 1.209022305594e-04 0.0 
1.209022305594e-04 3.830608122297e-03 0.0 
0.0 0.0 0.0 
-1.369310752407e-04 8.345318383321e-05 0.0 
8.345318383321e-05 7.068164589437e-03 0.0 
0.0 0.0 0.0 
-1.852984877503e-04 1.397252748566e-04 0.0 
1.397252748566e-04 4.203938139321e-03 0.0 
0.0 0.0 0.0 
6.469180510349e-05 3.492228460271e-04 0.0 
3.492228460271e-04 3.960862072325e-03 0.0 
0.0 0.0 0.0 
2.417124393350e-05 3.617377307088e-04 0.0 
3.617377307088e-04 3.861952974508e-03 0.0 
0.0 0.0 0.0 
1.252470477240e-04 2.347671173953e-04 0.0 
2.347671173953e-04 1.482483453114e-03 0.0 
0.0 0.0 0.0 
-7.296887722907e-05 3.163220737611e-04 0.0 
3.163220737611e-04 4.764922019501e-03 0.0 
0.0 0.0 0.0 
-1.137741798525e-04 3.525615300383e-04 0.0 
3.525615300383e-04 2.247625256060e-03 0.0 
0.0 0.0 0.0 
-2.406492841545e-05 1.650442385876e-04 0.0 
1.650442385876e-04 9.092552645223e-03 0.0 
0.0 0.0 0.0 
-3.734183570914e-05 1.937609991242e-04 0.0 
1.937609991242e-04 9.049415981977e-03 0.0 
0.0 0.0 0.0 
-1.409455613480e-04 2.364083886382e-04 0.0 
2.364083886382e-04 5.458810945103e-03 0.0 
0.0 0.0 0.0 
7.672115420476e-05 3.897771478507e-04 0.0 
3.897771478507e-04 2.706385188327e-03 0.0 
0.0 0.0 0.0 
-1.505462949425e-05 3.691125644016e-04 0.0 
3.691125644016e-04 2.613519985862e-03 0.0 
0.0 0.0 0.0 
-1.547403749464e-04 1.756371527029e-04 0.0 
1.756371527029e-04 6.056990173994e-03 0.0 
0.0 0.0 0.0 
4.831244656311e-05 3.513879072504e-04 0.0 
3.513879072504e-04 2.654728197177e-03 0.0 
0.0 0.0 0.0 
2.093913052703e-04 1.913864732977e-04 0.0 
1.913864732977e-04 2.451990815662e-03 0.0 
0.0 0.0 0.0 
-1.651296024613e-04 1.666410142122e-04 0.0 
1.666410142122e-04 5.437471948389e-03 0.0 
0.0 0.0 0.0 
-3.831241996421e-05 5.359908796334e-05 0.0 
5.359908796334e-05 8.807652015485e-03 0.0 
0.0 0.0 0.0 
2.305584127149e-05 3.761789610864e-04 0.0 
3.761789610864e-04 3.453392674932e-03 0.0 
0.0 0.0 0.0 
3.472569293006e-06 3.202963173749e-04 0.0 
3.202963173749e-04 6.189989617718e-03 0.0 
0.0 0.0 0.0 
-5.567229357151e-05 3.948986021265e-04 0.0 
3.948986021265e-04 2.250438562659e-03 0.0 
0.0 0.0 0.0 
3.088904592286e-05 3.085756751874e-04 0.0 
3.085756751874e-04 8.464648700148e-03 0.0 
0.0 0.0 0.0 
1.977774832795e-05 4.056804568432e-04 0.0 
4.056804568432e-04 2.646145650983e-03 0.0 
0.0 0.0 0.0 
-1.573864175699e-04 1.952840206214e-04 0.0 
1.952840206214e-04 5.576191051695e-03 0.0 
0.0 0.0 0.0 
1.827194306625e-04 3.036952665388e-04 0.0 
3.036952665388e-04 1.562850474647e-03 0.0 
0.0 0.0 0.0 
1.342458005507e-04 2.673615326506e-04 0.0 
2.673615326506e-04 5.740101939825e-03 0.0 
0.0 0.0 0.0 
2.542137447659e-05 3.481156530952e-04 0.0 
3.481156530952e-04 4.271827869282e-03 0.0 
0.0 0.0 0.0 
2.103268424207e-04 1.632298690761e-04 0.0 
1.632298690761e-04 2.618874279898e-03 0.0 
0.0 0.0 0.0 
-1.769900340803e-04 8.881222584898e-05 0.0 
8.881222584898e-05 5.759862187468e-03 0.0 
0.0 0.0 0.0 
-2.817310491110e-05 2.516291067625e-04 0.0 
2.516291067625e-04 9.017170821792e-03 0.0 
0.0 0.0 0.0 
6.761771426689e-05 3.618270791268e-04 0.0 
3.618270791268e-04 3.544696569658e-03 0.0 
0.0 0.0 0.0 
6.308713702574e-05 2.566543945639e-04 0.0 
2.566543945639e-04 5.636272524229e-03 0.0 
0.0 0.0 0.0 
-2.764885019413e-05 3.911910182400e-04 0.0 
3.911910182400e-04 2.250814276106e-03 0.0 
0.0 0.0 0.0 
-9.948654613645e-05 8.012246802158e-05 0.0 
8.012246802158e-05 6.802862769591e-03 0.0 
0.0 0.0 0.0 
1.500562552343e-04 2.305018765513e-04 0.0 
2.305018765513e-04 6.218642396350e-03 0.0 
0.0 0.0 0.0 
-1.519963242577e-04 2.598449892561e-04 0.0 
2.598449892561e-04 3.167692883941e-03 0.0 
0.0 0.0 0.0 
-1.118720116863e-04 1.261848955112e-05 0.0 
1.261848955112e-05 6.625411445612e-03 0.0 
0.0 0.0 0.0 
-2.468922394794e-05 3.093815454115e-04 0.0 
3.093815454115e-04 8.926303227881e-03 0.0 
0.0 0.0 0.0 
1.290455611611e-04 2.372270426808e-04 0.0 
2.372270426808e-04 6.664915956728e-03 0.0 
0.0 0.0 0.0 
-3.105517363966e-05 2.330653238860e-04 0.0 
2.330653238860e-04 9.032131835599e-03 0.0 
0.0 0.0 0.0 
-1.175797957893e-04 2.040855920034e-05 0.0 
2.040855920034e-05 6.579731823452e-03 0.0 
0.0 0.0 0.0 
-1.326775246806e-04 1.510836990236e-04 0.0 
1.510836990236e-04 7.310043557715e-03 0.0 
0.0 0.0 0.0 
-1.660999215284e-04 2.398936050403e-04 0.0 
2.398936050403e-04 2.809257004669e-03 0.0 
0.0 0.0 0.0 
-1.803239821404e-04 7.259700304853e-05 0.0 
7.259700304853e-05 5.374838132890e-03 0.0 
0.0 0.0 0.0 
-1.591325895567e-04 1.515184217988e-04 0.0 
1.515184217988e-04 5.907774916387e-03 0.0 
0.0 0.0 0.0 
-1.698993850326e-04 1.046227638204e-04 0.0 
1.046227638204e-04 6.146049050898e-03 0.0 
0.0 0.0 0.0 
-1.566135910629e-04 1.958437907262e-04 0.0 
1.958437907262e-04 5.084132202151e-03 0.0 
0.0 0.0 0.0 
-2.069375029812e-05 3.338769146075e-04 0.0 
3.338769146075e-04 8.859335587289e-03 0.0 
0.0 0.0 0.0 
-1.247813496268e-04 8.380652861289e-05 0.0 
8.380652861289e-05 6.338184171127e-03 0.0 
0.0 0.0 0.0 
-1.672090889719e-04 4.403949620800e-05 0.0 
4.403949620800e-05 5.667253712546e-03 0.0 
0.0 0.0 0.0 
4.593929450314e-05 3.046272666860e-04 0.0 
3.046272666860e-04 3.870479536679e-03 0.0 
0.0 0.0 0.0 
1.064570121907e-04 1.078008347521e-05 0.0 
1.078008347521e-05 1.711422454618e-03 0.0 
0.0 0.0 0.0 
-1.761573452621e-04 4.960549866889e-05 0.0 
4.960549866889e-05 5.212436846950e-03 0.0 
0.0 0.0 0.0 
-1.157531917746e-04 3.113107902685e-04 0.0 
3.113107902685e-04 3.240774688142e-03 0.0 
0.0 0.0 0.0 
-8.505879531728e-05 -3.950316195020e-06 0.0 
-3.950316195020e-06 5.678993961789e-03 0.0 
0.0 0.0 0.0 
1.849799532427e-04 7.058786732940e-05 0.0 
7.058786732940e-05 2.632764959745e-03 0.0 
0.0 0.0 0.0 
4.703986358945e-05 3.184655513941e-04 0.0 
3.184655513941e-04 3.461505827509e-03 0.0 
0.0 0.0 0.0 
-1.038700469583e-04 1.549765355743e-04 0.0 
1.549765355743e-04 7.465343281742e-03 0.0 
0.0 0.0 0.0 
-1.098697708189e-04 3.053120312083e-04 0.0 
3.053120312083e-04 3.241530907545e-03 0.0 
0.0 0.0 0.0 
-1.652449362941e-04 1.339328438180e-04 0.0 
1.339328438180e-04 5.524787418252e-03 0.0 
0.0 0.0 0.0 
7.658480000150e-05 3.071678538529e-04 0.0 
3.071678538529e-04 5.755792137944e-03 0.0 
0.0 0.0 0.0 
2.020401921341e-04 1.635421086228e-04 0.0 
1.635421086228e-04 4.809144212327e-03 0.0 
0.0 0.0 0.0 
1.205297195384e-09 3.599342841271e-04 0.0 
3.599342841271e-04 8.748789991999e-03 0.0 
0.0 0.0 0.0 
-1.825810892444e-04 6.464219537060e-05 0.0 
6.464219537060e-05 4.774008324006e-03 0.0 
0.0 0.0 0.0 
1.881283404734e-04 2.794841496773e-04 0.0 
2.794841496773e-04 2.589275450923e-03 0.0 
0.0 0.0 0.0 
1.870371831154e-04 1.995607619666e-05 0.0 
1.995607619666e-05 3.289902104441e-03 0.0 
0.0 0.0 0.0 
-1.822212038071e-04 1.716310236944e-04 0.0 
1.716310236944e-04 3.307661889719e-03 0.0 
0.0 0.0 0.0 
-1.415387001278e-04 2.591955128554e-04 0.0 
2.591955128554e-04 3.167732693853e-03 0.0 
0.0 0.0 0.0 
-1.095012922392e-04 1.404127421632e-04 0.0 
1.404127421632e-04 7.801976566494e-03 0.0 
0.0 0.0 0.0 
-1.693913555562e-04 1.475662815066e-04 0.0 
1.475662815066e-04 5.822980469361e-03 0.0 
0.0 0.0 0.0 
-1.864365643290e-04 8.233773084602e-05 0.0 
8.233773084602e-05 4.298603304623e-03 0.0 
0.0 0.0 0.0 
-1.673987729091e-04 1.158244065415e-04 0.0 
1.158244065415e-04 5.143931394591e-03 0.0 
0.0 0.0 0.0 
1.545110721457e-05 3.516024792121e-04 0.0 
3.516024792121e-04 8.567016275352e-03 0.0 
0.0 0.0 0.0 
1.794218159223e-05 3.056513051469e-04 0.0 
3.056513051469e-04 8.159988950643e-03 0.0 
0.0 0.0 0.0 
-9.054833193589e-05 1.915533371318e-04 0.0 
1.915533371318e-04 7.790624472054e-03 0.0 
0.0 0.0 0.0 
-1.247447411250e-04 8.367115333548e-05 0.0 
8.367115333548e-05 7.304845543025e-03 0.0 
0.0 0.0 0.0 
1.918678135926e-04 1.031230099384e-04 0.0 
1.031230099384e-04 4.652312205432e-03 0.0 
0.0 0.0 0.0 
-1.768264245328e-04 1.758043435799e-04 0.0 
1.758043435799e-04 4.329459216438e-03 0.0 
0.0 0.0 0.0 
9.790705734569e-05 3.163595792084e-04 0.0 
3.163595792084e-04 2.717875438715e-03 0.0 
0.0 0.0 0.0 
9.341953520936e-05 3.062608795270e-04 0.0 
3.062608795270e-04 3.137219706380e-03 0.0 
0.0 0.0 0.0 
-1.679572119601e-04 1.617795533806e-04 0.0 
1.617795533806e-04 5.581188889336e-03 0.0 
0.0 0.0 0.0 
1.245814527624e-04 2.156159667495e-04 0.0 
2.156159667495e-04 5.609607526385e-03 0.0 
0.0 0.0 0.0 
1.825821405730e-04 -9.063681090355e-07 0.0 
-9.063681090355e-07 3.978368998552e-03 0.0 
0.0 0.0 0.0 
-8.719831968562e-05 1.703136607250e-04 0.0 
1.703136607250e-04 7.868570394769e-03 0.0 
0.0 0.0 0.0 
1.773437760790e-04 1.793542035466e-04 0.0 
1.793542035466e-04 2.604913278576e-03 0.0 
0.0 0.0 0.0 
-1.455236847804e-04 2.166349328375e-04 0.0 
2.166349328375e-04 4.829672031593e-03 0.0 
0.0 0.0 0.0 
-1.626981429772e-04 1.580984817004e-04 0.0 
1.580984817004e-04 5.672630759001e-03 0.0 
0.0 0.0 0.0 
-1.573242392431e-04 2.081159909618e-04 0.0 
2.081159909618e-04 4.452020196548e-03 0.0 
0.0 0.0 0.0 
-2.804174038118e-05 2.148497390318e-04 0.0 
2.148497390318e-04 9.043392714405e-03 0.0 
0.0 0.0 0.0 
-3.332549803670e-05 1.894299439743e-04 0.0 
1.894299439743e-04 9.064920853176e-03 0.0 
0.0 0.0 0.0 
-5.474385838511e-05 1.417936813328e-04 0.0 
1.417936813328e-04 8.644105510048e-03 0.0 
0.0 0.0 0.0 
1.834315366962e-04 1.146649857615e-04 0.0 
1.146649857615e-04 5.082972054097e-03 0.0 
0.0 0.0 0.0 
-8.349892380854e-05 1.313772308383e-04 0.0 
1.313772308383e-04 7.755778590992e-03 0.0 
0.0 0.0 0.0 
-1.261930636237e-04 2.960053436427e-04 0.0 
2.960053436427e-04 2.888024644093e-03 0.0 
0.0 0.0 0.0 
8.846480156888e-05 2.956425354549e-04 0.0 
2.956425354549e-04 3.554733881132e-03 0.0 
0.0 0.0 0.0 
1.412053767675e-04 2.651608011034e-04 0.0 
2.651608011034e-04 1.933831520643e-03 0.0 
0.0 0.0 0.0 
-1.874780338375e-04 1.184651708044e-04 0.0 
1.184651708044e-04 4.443214972457e-03 0.0 
0.0 0.0 0.0 
-1.227795591818e-04 2.438538850956e-05 0.0 
2.438538850956e-05 5.703360819141e-03 0.0 
0.0 0.0 0.0 
-1.071597866125e-04 7.999014153466e-05 0.0 
7.999014153466e-05 6.574084674107e-03 0.0 
0.0 0.0 0.0 
4.531675920738e-05 2.960656879784e-04 0.0 
2.960656879784e-04 8.095666826845e-03 0.0 
0.0 0.0 0.0 
-9.300996584283e-05 2.178552274476e-04 0.0 
2.178552274476e-04 7.696921271593e-03 0.0 
0.0 0.0 0.0 
-1.481211263512e-04 1.212349892229e-04 0.0 
1.212349892229e-04 6.210228163396e-03 0.0 
0.0 0.0 0.0 
-1.505665031445e-04 1.684947249146e-04 0.0 
1.684947249146e-04 6.293636573034e-03 0.0 
0.0 0.0 0.0 
1.761259452318e-04 3.183020175296e-04 0.0 
3.183020175296e-04 2.014498186470e-03 0.0 
0.0 0.0 0.0 
-1.786716124819e-05 -2.734806691914e-05 0.0 
-2.734806691914e-05 7.681699659345e-04 0.0 
0.0 0.0 0.0 
-4.670851236976e-05 3.355179070496e-04 0.0 
3.355179070496e-04 4.473482581203e-03 0.0 
0.0 0.0 0.0 
-1.341156851247e-04 2.215265186644e-04 0.0 
2.215265186644e-04 5.207147118913e-03 0.0 
0.0 0.0 0.0 
-6.208407903030e-05 2.760835698194e-04 0.0 
2.760835698194e-04 4.770613344004e-03 0.0 
0.0 0.0 0.0 
-6.304494231191e-05 3.587209710683e-04 0.0 
3.587209710683e-04 1.543305725686e-03 0.0 
0.0 0.0 0.0 
-8.165771824820e-05 1.699957463831e-05 0.0 
1.699957463831e-05 6.040455941708e-03 0.0 
0.0 0.0 0.0 
7.781392640904e-05 -6.358355920830e-05 0.0 
-6.358355920830e-05 1.563674101297e-03 0.0 
0.0 0.0 0.0 
-3.402047795020e-05 3.852370505284e-04 0.0 
3.852370505284e-04 2.988007926696e-03 0.0 
0.0 0.0 0.0 
0.0 3.007660485665e-04 0.0 
3.007660485665e-04 8.484586594232e-03 0.0 
0.0 0.0 0.0 
3.107672667846e-05 2.601799155596e-04 0.0 
2.601799155596e-04 6.341349746575e-03 0.0 
0.0 0.0 0.0 
-1.559771011174e-04 8.681630218909e-05 0.0 
8.681630218909e-05 5.661983189976e-03 0.0 
0.0 0.0 0.0 
4.006093684872e-05 1.751511323196e-05 0.0 
1.751511323196e-05 1.100144599114e-03 0.0 
0.0 0.0 0.0 
-1.510001933710e-04 2.258971054432e-04 0.0 
2.258971054432e-04 5.079982139473e-03 0.0 
0.0 0.0 0.0 
-3.185519322380e-05 2.901745442151e-04 0.0 
2.901745442151e-04 4.479789817198e-03 0.0 
0.0 0.0 0.0 
-1.640675299759e-04 9.751621814342e-05 0.0 
9.751621814342e-05 6.376451357594e-03 0.0 
0.0 0.0 0.0 
-2.686120719053e-05 2.788268151330e-04 0.0 
2.788268151330e-04 8.988934460362e-03 0.0 
0.0 0.0 0.0 
-1.636985716493e-04 1.110609028498e-04 0.0 
1.110609028498e-04 5.370445596244e-03 0.0 
0.0 0.0 0.0 
-1.685490444906e-04 1.362554850006e-04 0.0 
1.362554850006e-04 6.062107441922e-03 0.0 
0.0 0.0 0.0 
1.968641795458e-04 6.922165302550e-05 0.0 
6.922165302550e-05 3.967794216391e-03 0.0 
0.0 0.0 0.0 
-9.191838143385e-05 1.520061509890e-04 0.0 
1.520061509890e-04 7.699802288347e-03 0.0 
0.0 0.0 0.0 
1.917576890422e-04 1.743507103538e-04 0.0 
1.743507103538e-04 5.243569810716e-03 0.0 
0.0 0.0 0.0 
-2.658958719681e-05 2.900410035669e-04 0.0 
2.900410035669e-04 8.957712266290e-03 0.0 
0.0 0.0 0.0 
0.0 2.185771827181e-04 0.0 
2.185771827181e-04 9.038662548043e-03 0.0 
0.0 0.0 0.0 
0.0 1.500426568805e-04 0.0 
1.500426568805e-04 9.101904021682e-03 0.0 
0.0 0.0 0.0 
0.0 1.821699446712e-04 0.0 
1.821699446712e-04 9.050932536375e-03 0.0 
0.0 0.0 0.0 
-1.443335922714e-04 1.629481309585e-04 0.0 
1.629481309585e-04 6.528039419625e-03 0.0 
0.0 0.0 0.0 
-1.089358095918e-04 9.996097019757e-05 0.0 
9.996097019757e-05 7.706660833731e-03 0.0 
0.0 0.0 0.0 
-7.985414508471e-05 2.149706318374e-04 0.0 
2.149706318374e-04 7.955299372056e-03 0.0 
0.0 0.0 0.0 
-1.514453163047e-04 2.355929860911e-04 0.0 
2.355929860911e-04 4.448648982929e-03 0.0 
0.0 0.0 0.0 
-1.647654744154e-04 1.977900660150e-04 0.0 
1.977900660150e-04 4.326640759232e-03 0.0 
0.0 0.0 0.0 
1.751218082584e-04 -1.476141343159e-05 0.0 
-1.476141343159e-05 3.734956739980e-03 0.0 
0.0 0.0 0.0 
-1.041913492497e-04 1.166557761010e-04 0.0 
1.166557761010e-04 7.876603672420e-03 0.0 
0.0 0.0 0.0 
-2.266140666640e-05 3.222531708928e-04 0.0 
3.222531708928e-04 8.891186506688e-03 0.0 
0.0 0.0 0.0 
-7.864205448549e-05 1.478548157186e-04 0.0 
1.478548157186e-04 7.927092740402e-03 0.0 
0.0 0.0 0.0 
3.475395901864e-05 2.609567835301e-04 0.0 
2.609567835301e-04 5.922306390695e-03 0.0 
0.0 0.0 0.0 
-9.467243481165e-05 9.648284254560e-05 0.0 
9.648284254560e-05 7.934178464054e-03 0.0 
0.0 0.0 0.0 
-8.887621300269e-05 2.375464818601e-04 0.0 
2.375464818601e-04 6.747853193445e-03 0.0 
0.0 0.0 0.0 
-1.211588281932e-04 2.723011925282e-04 0.0 
2.723011925282e-04 4.940879842146e-03 0.0 
0.0 0.0 0.0 
-1.711886545115e-04 1.413341299904e-04 0.0 
1.413341299904e-04 4.440775382159e-03 0.0 
0.0 0.0 0.0 
1.766759240329e-05 4.224709482783e-04 0.0 
4.224709482783e-04 2.246475152674e-03 0.0 
0.0 0.0 0.0 
-2.315821666798e-05 1.127033543393e-04 0.0 
1.127033543393e-04 8.788413129724e-03 0.0 
0.0 0.0 0.0 
-1.399988578914e-04 2.592716296469e-04 0.0 
2.592716296469e-04 4.190312127348e-03 0.0 
0.0 0.0 0.0 
-3.309166864607e-05 2.814348194554e-04 0.0 
2.814348194554e-04 8.208453615970e-03 0.0 
0.0 0.0 0.0 
1.888151066627e-04 5.436504486212e-05 0.0 
5.436504486212e-05 3.724516160076e-03 0.0 
0.0 0.0 0.0 
1.711869351109e-04 2.886351928432e-05 0.0 
2.886351928432e-05 2.369093483612e-03 0.0 
0.0 0.0 0.0 
3.247172516230e-05 2.817369102815e-04 0.0 
2.817369102815e-04 8.081892915861e-03 0.0 
0.0 0.0 0.0 
-7.567032241662e-05 3.519154752125e-04 0.0 
3.519154752125e-04 3.304884238977e-03 0.0 
0.0 0.0 0.0 
0.0 2.366831636937e-04 0.0 
2.366831636937e-04 9.024874306970e-03 0.0 
0.0 0.0 0.0 
-3.657601340101e-05 1.572167131529e-04 0.0 
1.572167131529e-04 8.745811695103e-03 0.0 
0.0 0.0 0.0 
-1.475922433388e-04 2.091610890258e-04 0.0 
2.091610890258e-04 5.957602710283e-03 0.0 
0.0 0.0 0.0 
-1.765408357368e-05 -2.974578468884e-05 0.0 
-2.974578468884e-05 4.047679240420e-04 0.0 
0.0 0.0 0.0 
0.0 2.711621958299e-04 0.0 
2.711621958299e-04 8.970663016742e-03 0.0 
0.0 0.0 0.0 
2.023787298833e-05 2.985355949143e-04 0.0 
2.985355949143e-04 8.163065261455e-03 0.0 
0.0 0.0 0.0 
2.004070123223e-04 1.202351734563e-04 0.0 
1.202351734563e-04 2.355158874655e-03 0.0 
0.0 0.0 0.0 
5.700213711513e-05 2.547254334649e-04 0.0 
2.547254334649e-04 6.055319460909e-03 0.0 
0.0 0.0 0.0 
-2.758112709556e-06 3.625767108362e-04 0.0 
3.625767108362e-04 8.703168293547e-03 0.0 
0.0 0.0 0.0 
-6.685217341329e-05 -1.235374105277e-05 0.0 
-1.235374105277e-05 1.477781109243e-04 0.0 
0.0 0.0 0.0 
-1.314897075648e-04 2.660208381819e-04 0.0 
2.660208381819e-04 4.566448860960e-03 0.0 
0.0 0.0 0.0 
-1.469422473971e-04 1.992962913057e-04 0.0 
1.992962913057e-04 6.201551215432e-03 0.0 
0.0 0.0 0.0 
-1.456238411468e-04 2.218796906666e-04 0.0 
2.218796906666e-04 5.710114902161e-03 0.0 
0.0 0.0 0.0 
-1.571907269470e-04 1.847325899596e-04 0.0 
1.847325899596e-04 5.817711608385e-03 0.0 
0.0 0.0 0.0 
-4.286005500165e-05 3.937824898832e-04 0.0 
3.937824898832e-04 2.609964145937e-03 0.0 
0.0 0.0 0.0 
0.0 3.013732930265e-04 0.0 
3.013732930265e-04 8.908048790583e-03 0.0 
0.0 0.0 0.0 
8.353661310267e-05 2.852104223828e-04 0.0 
2.852104223828e-04 3.970811140429e-03 0.0 
0.0 0.0 0.0 
1.115081121195e-04 1.148775815242e-04 0.0 
1.148775815242e-04 1.138252556669e-03 0.0 
0.0 0.0 0.0 
5.994618863081e-05 1.518801672002e-04 0.0 
1.518801672002e-04 7.934333059425e-03 0.0 
0.0 0.0 0.0 
-6.711633546608e-05 -2.614751750445e-05 0.0 
-2.614751750445e-05 4.179373437565e-04 0.0 
0.0 0.0 0.0 
-1.695437664861e-04 1.223907162742e-04 0.0 
1.223907162742e-04 4.915441771963e-03 0.0 
0.0 0.0 0.0 
1.068851523087e-04 9.281061081773e-06 0.0 
9.281061081773e-06 1.088839944990e-03 0.0 
0.0 0.0 0.0 
-1.588994822229e-04 8.953624875661e-05 0.0 
8.953624875661e-05 5.207315636001e-03 0.0 
0.0 0.0 0.0 
2.105159893850e-05 3.346791934806e-04 0.0 
3.346791934806e-04 8.526596111459e-03 0.0 
0.0 0.0 0.0 
0.0 3.275465044827e-04 0.0 
3.275465044827e-04 8.842595952251e-03 0.0 
0.0 0.0 0.0 
-1.547017842782e-04 1.462058283362e-04 0.0 
1.462058283362e-04 6.140202771008e-03 0.0 
0.0 0.0 0.0 
3.696915530615e-05 -2.957672185054e-05 0.0 
-2.957672185054e-05 7.540050096182e-04 0.0 
0.0 0.0 0.0 
1.315954318803e-04 1.638318298308e-04 0.0 
1.638318298308e-04 8.403606995000e-04 0.0 
0.0 0.0 0.0 
3.991223412614e-05 4.362958940567e-06 0.0 
4.362958940567e-06 1.119447091540e-03 0.0 
0.0 0.0 0.0 
1.161773554519e-04 1.182880813587e-04 0.0 
1.182880813587e-04 6.914639504703e-03 0.0 
0.0 0.0 0.0 
-1.308389700080e-04 3.555470495501e-05 0.0 
3.555470495501e-05 5.692839835144e-03 0.0 
0.0 0.0 0.0 
-1.602186580661e-04 3.640739615502e-05 0.0 
3.640739615502e-05 5.879676078179e-03 0.0 
0.0 0.0 0.0 
0.0 3.426419306310e-04 0.0 
3.426419306310e-04 8.770640884575e-03 0.0 
0.0 0.0 0.0 
-1.295177411165e-04 1.913828688848e-05 0.0 
1.913828688848e-05 5.699486728586e-03 0.0 
0.0 0.0 0.0 
-2.691256241494e-05 1.507343871843e-04 0.0 
1.507343871843e-04 9.110852851566e-03 0.0 
0.0 0.0 0.0 
-6.434947843825e-05 2.970921173096e-04 0.0 
2.970921173096e-04 6.869244947588e-03 0.0 
0.0 0.0 0.0 
-1.066166753355e-04 6.695420229886e-05 0.0 
6.695420229886e-05 6.384024466829e-03 0.0 
0.0 0.0 0.0 
-1.608238270494e-04 2.245886467294e-04 0.0 
2.245886467294e-04 3.420780693337e-03 0.0 
0.0 0.0 0.0 
5.027542933256e-05 3.144563694553e-04 0.0 
3.144563694553e-04 6.047012955074e-03 0.0 
0.0 0.0 0.0 
1.101755470010e-04 3.317673743226e-04 0.0 
3.317673743226e-04 1.881084129608e-03 0.0 
0.0 0.0 0.0 
0.0 3.443568337508e-04 0.0 
3.443568337508e-04 8.681210420764e-03 0.0 
0.0 0.0 0.0 
0.0 2.032978038181e-04 0.0 
2.032978038181e-04 9.047792292008e-03 0.0 
0.0 0.0 0.0 
0.0 1.626968016021e-04 0.0 
1.626968016021e-04 9.086037816444e-03 0.0 
0.0 0.0 0.0 
1.818159471638e-04 1.027825779357e-04 0.0 
1.027825779357e-04 5.254241766661e-03 0.0 
0.0 0.0 0.0 
1.661840349583e-04 -2.581863082591e-05 0.0 
-2.581863082591e-05 3.493254817152e-03 0.0 
0.0 0.0 0.0 
-1.184904615902e-04 2.429228433224e-04 0.0 
2.429228433224e-04 4.945366945858e-03 0.0 
0.0 0.0 0.0 
1.885455593298e-04 1.619718451876e-04 0.0 
1.619718451876e-04 5.413854731180e-03 0.0 
0.0 0.0 0.0 
0.0 3.365134049199e-04 0.0 
3.365134049199e-04 8.595373177557e-03 0.0 
0.0 0.0 0.0 
-7.772305145259e-06 3.500749301015e-04 0.0 
3.500749301015e-04 2.993104308814e-03 0.0 
0.0 0.0 0.0 
2.085001228009e-04 2.083972385034e-04 0.0 
2.083972385034e-04 2.890899213380e-03 0.0 
0.0 0.0 0.0 
2.117292105690e-04 1.799474284999e-04 0.0 
1.799474284999e-04 3.049453339299e-03 0.0 
0.0 0.0 0.0 
-9.845843867518e-05 6.702312416865e-05 0.0 
6.702312416865e-05 6.619190167104e-03 0.0 
0.0 0.0 0.0 
2.204427873331e-05 2.845238401653e-04 0.0 
2.845238401653e-04 8.433263216804e-03 0.0 
0.0 0.0 0.0 
-2.427826797036e-05 -2.140748830617e-05 0.0 
-2.140748830617e-05 7.709761968833e-04 0.0 
0.0 0.0 0.0 
0.0 3.143193091654e-04 0.0 
3.143193091654e-04 8.510121891165e-03 0.0 
0.0 0.0 0.0 
2.104553708453e-04 1.407352143190e-04 0.0 
1.407352143190e-04 2.782863161245e-03 0.0 
0.0 0.0 0.0 
0.0 2.545675643615e-04 0.0 
2.545675643615e-04 9.009098158376e-03 0.0 
0.0 0.0 0.0 
-1.020608781820e-04 1.634694030295e-04 0.0 
1.634694030295e-04 7.964250588985e-03 0.0 
0.0 0.0 0.0 
-1.269388515042e-04 -1.140275159795e-05 0.0 
-1.140275159795e-05 1.693016246960e-04 0.0 
0.0 0.0 0.0 
-1.051027685588e-04 2.938100080920e-04 0.0 
2.938100080920e-04 4.666282039989e-03 0.0 
0.0 0.0 0.0 
-8.462403168530e-05 7.388983081988e-05 0.0 
7.388983081988e-05 7.991298082625e-03 0.0 
0.0 0.0 0.0 
0.0 2.866951714836e-04 0.0 
2.866951714836e-04 8.944549530501e-03 0.0 
0.0 0.0 0.0 
-1.602198219067e-04 1.193685305987e-04 0.0 
1.193685305987e-04 6.533841979406e-03 0.0 
0.0 0.0 0.0 
-4.429673284922e-05 3.098388957156e-04 0.0 
3.098388957156e-04 6.998462704688e-03 0.0 
0.0 0.0 0.0 
1.495296646503e-05 4.351738378343e-04 0.0 
4.351738378343e-04 1.854433099450e-03 0.0 
0.0 0.0 0.0 
4.824661992675e-05 2.831441741462e-04 0.0 
2.831441741462e-04 7.780139606125e-03 0.0 
0.0 0.0 0.0 
2.095044905353e-04 1.220291003705e-04 0.0 
1.220291003705e-04 2.951127111462e-03 0.0 
0.0 0.0 0.0 
1.936861801612e-04 9.336790078571e-05 0.0 
9.336790078571e-05 3.061095737835e-03 0.0 
0.0 0.0 0.0 
-1.006086108003e-04 -2.425662644410e-05 0.0 
-2.425662644410e-05 4.525872109973e-04 0.0 
0.0 0.0 0.0 
0.0 3.148862831843e-04 0.0 
3.148862831843e-04 8.874396167347e-03 0.0 
0.0 0.0 0.0 
1.023974473184e-04 3.254533891619e-04 0.0 
3.254533891619e-04 2.298287255995e-03 0.0 
0.0 0.0 0.0 
1.045442908392e-04 1.933190174276e-04 0.0 
1.933190174276e-04 6.954230267228e-03 0.0 
0.0 0.0 0.0 
-1.137193606972e-04 -5.167594589678e-06 0.0 
-5.167594589678e-06 6.178701176994e-03 0.0 
0.0 0.0 0.0 
1.556557130613e-04 -1.802612039017e-05 0.0 
-1.802612039017e-05 2.464673708814e-03 0.0 
0.0 0.0 0.0 
1.903525323899e-04 1.153976505256e-04 0.0 
1.153976505256e-04 2.904406713574e-03 0.0 
0.0 0.0 0.0 
-1.653761264263e-04 1.274314625157e-04 0.0 
1.274314625157e-04 6.299257165233e-03 0.0 
0.0 0.0 0.0 
0.0 3.426411967643e-04 0.0 
3.426411967643e-04 8.728524923321e-03 0.0 
0.0 0.0 0.0 
1.768719399906e-04 4.143097975283e-05 0.0 
4.143097975283e-05 3.667286299180e-03 0.0 
0.0 0.0 0.0 
1.569690055558e-04 1.370159179567e-04 0.0 
1.370159179567e-04 5.956321688079e-03 0.0 
0.0 0.0 0.0 
-1.218603817048e-04 2.606016460978e-04 0.0 
2.606016460978e-04 5.582505377313e-03 0.0 
0.0 0.0 0.0 
1.542891575834e-04 1.793340181772e-04 0.0 
1.793340181772e-04 5.467233221379e-03 0.0 
0.0 0.0 0.0 
1.855998758833e-04 1.608590785076e-04 0.0 
1.608590785076e-04 3.185189036262e-03 0.0 
0.0 0.0 0.0 
1.718495620715e-04 1.259524231454e-04 0.0 
1.259524231454e-04 5.517371933390e-03 0.0 
0.0 0.0 0.0 
-1.453648278544e-04 2.028296919104e-04 0.0 
2.028296919104e-04 5.463313746111e-03 0.0 
0.0 0.0 0.0 
-1.151945623781e-04 2.112206475363e-04 0.0 
2.112206475363e-04 6.872620966223e-03 0.0 
0.0 0.0 0.0 
4.677943648246e-05 3.143930348046e-04 0.0 
3.143930348046e-04 6.466572304949e-03 0.0 
0.0 0.0 0.0 
-1.103236458815e-04 2.772637255585e-04 0.0 
2.772637255585e-04 5.319496984822e-03 0.0 
0.0 0.0 0.0 
1.998915167600e-04 7.350592487004e-05 0.0 
7.350592487004e-05 3.787963796825e-03 0.0 
0.0 0.0 0.0 
-5.650729623696e-05 3.297840822206e-04 0.0 
3.297840822206e-04 3.307969497328e-03 0.0 
0.0 0.0 0.0 
1.788383078474e-04 4.206989719944e-05 0.0 
4.206989719944e-05 3.482996119925e-03 0.0 
0.0 0.0 0.0 
-6.804195215404e-05 2.507167537480e-04 0.0 
2.507167537480e-04 6.877420832288e-03 0.0 
0.0 0.0 0.0 
8.225206900492e-05 3.101296368852e-04 0.0 
3.101296368852e-04 5.333957054959e-03 0.0 
0.0 0.0 0.0 
2.317952601261e-05 3.185186646315e-04 0.0 
3.185186646315e-04 8.497463558597e-03 0.0 
0.0 0.0 0.0 
-7.895084658227e-05 9.135540192598e-05 0.0 
9.135540192598e-05 8.160498128755e-03 0.0 
0.0 0.0 0.0 
1.577323866093e-04 3.852203084351e-05 0.0 
3.852203084351e-05 2.212344558697e-03 0.0 
0.0 0.0 0.0 
0.0 3.268240294529e-04 0.0 
3.268240294529e-04 8.544085660653e-03 0.0 
0.0 0.0 0.0 
4.834359516370e-05 3.107736881848e-04 0.0 
3.107736881848e-04 8.139462996463e-03 0.0 
0.0 0.0 0.0 
-3.968205731431e-05 3.266292978291e-04 0.0 
3.266292978291e-04 4.870409507341e-03 0.0 
0.0 0.0 0.0 
-2.444835156068e-05 -2.993968846592e-05 0.0 
-2.993968846592e-05 4.178429340431e-04 0.0 
0.0 0.0 0.0 
3.864950661203e-05 2.704373348795e-04 0.0 
2.704373348795e-04 8.405991167630e-03 0.0 
0.0 0.0 0.0 
-8.974129254458e-05 1.163426150665e-04 0.0 
1.163426150665e-04 8.100588195906e-03 0.0 
0.0 0.0 0.0 
1.997984263553e-04 1.037316418093e-04 0.0 
1.037316418093e-04 2.526440718960e-03 0.0 
0.0 0.0 0.0 
0.0 2.822974064737e-04 0.0 
2.822974064737e-04 8.444137259343e-03 0.0 
0.0 0.0 0.0 
1.693119057478e-04 1.149225456947e-04 0.0 
1.149225456947e-04 5.690383337908e-03 0.0 
0.0 0.0 0.0 
-1.690429064433e-04 1.765188262884e-04 0.0 
1.765188262884e-04 4.574185058088e-03 0.0 
0.0 0.0 0.0 
-1.455538224179e-04 1.017544134356e-04 0.0 
1.017544134356e-04 6.046845151627e-03 0.0 
0.0 0.0 0.0 
6.868277666761e-05 2.606146457791e-04 0.0 
2.606146457791e-04 5.217405048559e-03 0.0 
0.0 0.0 0.0 
1.907059891870e-04 8.956196287922e-05 0.0 
8.956196287922e-05 4.819910157378e-03 0.0 
0.0 0.0 0.0 
1.347904390883e-04 2.011517653791e-04 0.0 
2.011517653791e-04 5.750872976849e-03 0.0 
0.0 0.0 0.0 
-1.369442632377e-04 6.784105688583e-05 0.0 
6.784105688583e-05 6.900218578272e-03 0.0 
0.0 0.0 0.0 
-1.697118566437e-04 1.495651951352e-04 0.0 
1.495651951352e-04 5.059807826082e-03 0.0 
0.0 0.0 0.0 
2.598516360797e-05 3.212481136811e-04 0.0 
3.212481136811e-04 6.752358963478e-03 0.0 
0.0 0.0 0.0 
-8.331058945443e-05 2.458909580564e-06 0.0 
2.458909580564e-06 6.395626432032e-03 0.0 
0.0 0.0 0.0 
1.842391047941e-04 2.308041916036e-06 0.0 
2.308041916036e-06 3.798743056579e-03 0.0 
0.0 0.0 0.0 
7.032426649789e-05 3.061989788657e-04 0.0 
3.061989788657e-04 6.178026747405e-03 0.0 
0.0 0.0 0.0 
1.876783319357e-04 3.952525282264e-05 0.0 
3.952525282264e-05 2.961706513425e-03 0.0 
0.0 0.0 0.0 
1.806265975053e-04 9.526473725040e-05 0.0 
9.526473725040e-05 5.426892226289e-03 0.0 
0.0 0.0 0.0 
-1.501427746093e-04 -1.218634570618e-05 0.0 
-1.218634570618e-05 1.787033636289e-04 0.0 
0.0 0.0 0.0 
-9.487311069878e-05 3.030126986203e-04 0.0 
3.030126986203e-04 3.609846861270e-03 0.0 
0.0 0.0 0.0 
1.867067640589e-04 5.304516016727e-05 0.0 
5.304516016727e-05 2.795422498413e-03 0.0 
0.0 0.0 0.0 
1.933843533191e-04 6.520744818310e-05 0.0 
6.520744818310e-05 4.149493448252e-03 0.0 
0.0 0.0 0.0 
-6.429862535862e-05 3.122389998162e-04 0.0 
3.122389998162e-04 5.155306771443e-03 0.0 
0.0 0.0 0.0 
1.784042892481e-04 1.850975305866e-04 0.0 
1.850975305866e-04 5.679993819795e-03 0.0 
0.0 0.0 0.0 
-1.053675267316e-04 2.806970733712e-06 0.0 
2.806970733712e-06 6.438796972734e-03 0.0 
0.0 0.0 0.0 
1.724382219803e-04 1.632927745185e-05 0.0 
1.632927745185e-05 2.540189456288e-03 0.0 
0.0 0.0 0.0 
0.0 2.688253744959e-04 0.0 
2.688253744959e-04 8.422297391042e-03 0.0 
0.0 0.0 0.0 
-1.586787198086e-04 1.600035259365e-04 0.0 
1.600035259365e-04 6.206988432630e-03 0.0 
0.0 0.0 0.0 
1.899780252332e-04 6.213277945879e-05 0.0 
6.213277945879e-05 4.329556259385e-03 0.0 
0.0 0.0 0.0 
-1.571916757185e-04 1.724009484483e-04 0.0 
1.724009484483e-04 5.962786000778e-03 0.0 
0.0 0.0 0.0 
1.804273712573e-04 -2.553322499976e-06 0.0 
-2.553322499976e-06 4.159651047861e-03 0.0 
0.0 0.0 0.0 
-8.040695476830e-05 -1.244385279558e-05 0.0 
-1.244385279558e-05 1.548102886917e-04 0.0 
0.0 0.0 0.0 
-1.561057861301e-04 5.559331255725e-05 0.0 
5.559331255725e-05 6.277231568109e-03 0.0 
0.0 0.0 0.0 
1.558425726047e-04 3.344078266497e-05 0.0 
3.344078266497e-05 3.403471445727e-03 0.0 
0.0 0.0 0.0 
-1.224698974878e-05 -1.125060473479e-05 0.0 
-1.125060473479e-05 1.169283687812e-04 0.0 
0.0 0.0 0.0 
1.846413750495e-04 5.205497248582e-05 0.0 
5.205497248582e-05 4.085705402889e-03 0.0 
0.0 0.0 0.0 
1.614162326389e-04 1.949919171941e-04 0.0 
1.949919171941e-04 6.118291040000e-03 0.0 
0.0 0.0 0.0 
-4.623517110114e-05 6.073933583595e-05 0.0 
6.073933583595e-05 7.989454967389e-03 0.0 
0.0 0.0 0.0 
1.468156979008e-04 1.959511928961e-04 0.0 
1.959511928961e-04 5.322849997790e-03 0.0 
0.0 0.0 0.0 
1.558774187487e-04 2.479607712790e-04 0.0 
2.479607712790e-04 5.455424176831e-03 0.0 
0.0 0.0 0.0 
-1.596850273529e-04 3.005797809357e-05 0.0 
3.005797809357e-05 5.502450083033e-03 0.0 
0.0 0.0 0.0 
-1.289955860769e-04 1.270175613819e-05 0.0 
1.270175613819e-05 5.322129176913e-03 0.0 
0.0 0.0 0.0 
-1.754063808135e-05 1.186788319228e-04 0.0 
1.186788319228e-04 8.790424508094e-03 0.0 
0.0 0.0 0.0 
-1.529982058226e-04 1.860653737541e-04 0.0 
1.860653737541e-04 5.714809941463e-03 0.0 
0.0 0.0 0.0 
-1.833110516913e-05 -1.142287171418e-05 0.0 
-1.142287171418e-05 1.197896650820e-04 0.0 
0.0 0.0 0.0 
5.281152808201e-05 -6.670314242620e-05 0.0 
-6.670314242620e-05 1.315116043160e-03 0.0 
0.0 0.0 0.0 
-2.609833197798e-05 -3.320858696693e-05 0.0 
-3.320858696693e-05 4.133443950896e-04 0.0 
0.0 0.0 0.0 
1.386074692038e-04 -3.423939486198e-05 0.0 
-3.423939486198e-05 2.383309311873e-03 0.0 
0.0 0.0 0.0 
-9.792630140915e-05 2.068107804699e-04 0.0 
2.068107804699e-04 7.766081375294e-03 0.0 
0.0 0.0 0.0 
-5.356481003693e-05 2.459638565558e-06 0.0 
2.459638565558e-06 7.996457043843e-03 0.0 
0.0 0.0 0.0 
1.375914823722e-04 1.619986738762e-04 0.0 
1.619986738762e-04 6.638418033183e-03 0.0 
0.0 0.0 0.0 
1.471549712793e-04 -3.858385593215e-05 0.0 
-3.858385593215e-05 2.714287525633e-03 0.0 
0.0 0.0 0.0 
1.717726101449e-04 2.938889974592e-05 0.0 
2.938889974592e-05 5.437555460603e-03 0.0 
0.0 0.0 0.0 
1.096391041941e-04 2.483914433308e-04 0.0 
2.483914433308e-04 7.104367823380e-03 0.0 
0.0 0.0 0.0 
1.514703593737e-04 1.732634393968e-04 0.0 
1.732634393968e-04 1.584586096134e-03 0.0 
0.0 0.0 0.0 
1.533476597997e-04 -3.680008759395e-05 0.0 
-3.680008759395e-05 3.404734960433e-03 0.0 
0.0 0.0 0.0 
1.406011476590e-04 2.892463906145e-05 0.0 
2.892463906145e-05 2.773479534486e-03 0.0 
0.0 0.0 0.0 
2.849942942573e-05 2.512126438543e-04 0.0 
2.512126438543e-04 8.372251276290e-03 0.0 
0.0 0.0 0.0 
0.0 2.453030770453e-04 0.0 
2.453030770453e-04 8.389715103948e-03 0.0 
0.0 0.0 0.0 
1.607336000660e-04 -2.563791656911e-05 0.0 
-2.563791656911e-05 3.804021606630e-03 0.0 
0.0 0.0 0.0 
1.804356212780e-04 -4.526981572524e-06 0.0 
-4.526981572524e-06 4.339785772910e-03 0.0 
0.0 0.0 0.0 
1.996183198796e-04 1.504375361090e-04 0.0 
1.504375361090e-04 4.979207027967e-03 0.0 
0.0 0.0 0.0 
9.455089159505e-05 2.698925617310e-04 0.0 
2.698925617310e-04 7.380475225741e-03 0.0 
0.0 0.0 0.0 
8.114727410957e-05 7.422239562044e-06 0.0 
7.422239562044e-06 1.463638911835e-03 0.0 
0.0 0.0 0.0 
1.263961318927e-04 2.269193339659e-04 0.0 
2.269193339659e-04 6.829607241981e-03 0.0 
0.0 0.0 0.0 
2.233515731209e-05 -1.187219055394e-05 0.0 
-1.187219055394e-05 7.616740671561e-04 0.0 
0.0 0.0 0.0 
1.727534586100e-04 -1.465143229476e-05 0.0 
-1.465143229476e-05 3.916816410247e-03 0.0 
0.0 0.0 0.0 
1.851266662718e-04 1.183795472942e-05 0.0 
1.183795472942e-05 4.405303625590e-03 0.0 
0.0 0.0 0.0 
2.472139687648e-05 -6.907168789125e-06 0.0 
-6.907168789125e-06 3.941377686782e-04 0.0 
0.0 0.0 0.0 
1.656609000975e-04 3.226987818285e-05 0.0 
3.226987818285e-05 3.599720848336e-03 0.0 
0.0 0.0 0.0 
-6.550408032435e-05 1.415990080958e-04 0.0 
1.415990080958e-04 8.151654185817e-03 0.0 
0.0 0.0 0.0 
-2.151967194730e-05 -9.534513821110e-06 0.0 
-9.534513821110e-06 1.220909483577e-04 0.0 
0.0 0.0 0.0 
-1.299752996455e-04 2.060404015105e-05 0.0 
2.060404015105e-05 5.322740524921e-03 0.0 
0.0 0.0 0.0 
-1.293812101688e-04 2.309345725214e-05 0.0 
2.309345725214e-05 5.319984923772e-03 0.0 
0.0 0.0 0.0 
1.128305430662e-04 2.192817655392e-04 0.0 
2.192817655392e-04 6.036840409629e-03 0.0 
0.0 0.0 0.0 
1.343086066441e-04 -3.323490452294e-05 0.0 
-3.323490452294e-05 2.771189803862e-03 0.0 
0.0 0.0 0.0 
1.984897332399e-04 8.999722753938e-05 0.0 
8.999722753938e-05 2.699500978999e-03 0.0 
0.0 0.0 0.0 
-8.744592135335e-05 3.541138226839e-04 0.0 
3.541138226839e-04 2.587720745766e-03 0.0 
0.0 0.0 0.0 
1.018736400271e-04 1.579581716058e-04 0.0 
1.579581716058e-04 7.247271274817e-03 0.0 
0.0 0.0 0.0 
-2.342097908103e-05 2.899182158451e-04 0.0 
2.899182158451e-04 8.561051921044e-03 0.0 
0.0 0.0 0.0 
-7.046417493284e-05 1.750916369022e-05 0.0 
1.750916369022e-05 7.723995020404e-03 0.0 
0.0 0.0 0.0 
-1.674886555761e-04 2.225238810150e-04 0.0 
2.225238810150e-04 3.421066188833e-03 0.0 
0.0 0.0 0.0 
1.855475390489e-05 9.064501351916e-06 0.0 
9.064501351916e-06 8.717872937622e-04 0.0 
0.0 0.0 0.0 
-1.837065141173e-04 8.022622645768e-05 0.0 
8.022622645768e-05 5.148604637926e-03 0.0 
0.0 0.0 0.0 
-1.019121290523e-04 5.898527218816e-06 0.0 
5.898527218816e-06 5.335366316870e-03 0.0 
0.0 0.0 0.0 
-1.047470116178e-04 -1.360249531003e-07 0.0 
-1.360249531003e-07 5.329241091607e-03 0.0 
0.0 0.0 0.0 
1.144620865645e-06 -1.033789982814e-05 0.0 
-1.033789982814e-05 1.154506310190e-04 0.0 
0.0 0.0 0.0 
2.234263520062e-05 -9.337928631982e-06 0.0 
-9.337928631982e-06 3.938184837895e-04 0.0 
0.0 0.0 0.0 
3.966037435443e-05 -1.804816643069e-05 0.0 
-1.804816643069e-05 7.470618985082e-04 0.0 
0.0 0.0 0.0 
1.209987240494e-04 1.421652941945e-05 0.0 
1.421652941945e-05 2.052820119621e-03 0.0 
0.0 0.0 0.0 
8.005724929205e-06 -7.601852175648e-06 0.0 
-7.601852175648e-06 4.005138280778e-04 0.0 
0.0 0.0 0.0 
1.602874798623e-04 3.265355554973e-05 0.0 
3.265355554973e-05 4.026402064586e-03 0.0 
0.0 0.0 0.0 
-1.033928686498e-04 -1.888907736204e-05 0.0 
-1.888907736204e-05 1.624942871330e-04 0.0 
0.0 0.0 0.0 
1.451260818044e-04 2.320341129088e-05 0.0 
2.320341129088e-05 2.466701507400e-03 0.0 
0.0 0.0 0.0 
-6.663780418281e-05 1.780769745293e-05 0.0 
1.780769745293e-05 6.759879276828e-03 0.0 
0.0 0.0 0.0 
-1.186049748346e-04 1.442037320281e-05 0.0 
1.442037320281e-05 5.320504774749e-03 0.0 
0.0 0.0 0.0 
-8.696814431763e-05 2.014814159749e-04 0.0 
2.014814159749e-04 7.999907437007e-03 0.0 
0.0 0.0 0.0 
1.739258107063e-04 1.728903027428e-04 0.0 
1.728903027428e-04 5.850355828421e-03 0.0 
0.0 0.0 0.0 
-7.515687292725e-05 1.755144746786e-05 0.0 
1.755144746786e-05 6.383956622084e-03 0.0 
0.0 0.0 0.0 
1.414894146463e-04 3.285011534734e-05 0.0 
3.285011534734e-05 2.972162916082e-03 0.0 
0.0 0.0 0.0 
2.985707647229e-05 -1.461288564823e-05 0.0 
-1.461288564823e-05 7.542479707072e-04 0.0 
0.0 0.0 0.0 
0.0 5.978224800725e-05 0.0 
5.978224800725e-05 9.142834358765e-03 0.0 
0.0 0.0 0.0 
-2.096631026338e-05 6.942113782350e-05 0.0 
6.942113782350e-05 9.138768150037e-03 0.0 
0.0 0.0 0.0 
-1.001592334317e-04 6.169817339295e-05 0.0 
6.169817339295e-05 6.173682729034e-03 0.0 
0.0 0.0 0.0 
-1.159215582333e-04 6.532483452794e-06 0.0 
6.532483452794e-06 5.327705121830e-03 0.0 
0.0 0.0 0.0 
1.424917391624e-04 -2.380708044166e-05 0.0 
-2.380708044166e-05 3.013972294461e-03 0.0 
0.0 0.0 0.0 
-1.523954537763e-05 4.555838570441e-05 0.0 
4.555838570441e-05 9.147617975200e-03 0.0 
0.0 0.0 0.0 
1.252987087452e-04 -4.908371598180e-05 0.0 
-4.908371598180e-05 2.299230711655e-03 0.0 
0.0 0.0 0.0 
-1.230214724552e-04 1.662560179979e-05 0.0 
1.662560179979e-05 5.315705202879e-03 0.0 
0.0 0.0 0.0 
-1.122024133663e-04 1.178879053355e-05 0.0 
1.178879053355e-05 5.321371358937e-03 0.0 
0.0 0.0 0.0 
-1.630890631924e-04 9.194799169155e-05 0.0 
9.194799169155e-05 4.989360855902e-03 0.0 
0.0 0.0 0.0 
0.0 1.341535591441e-04 0.0 
1.341535591441e-04 9.121063621237e-03 0.0 
0.0 0.0 0.0 
-8.873707671331e-06 6.143202890690e-05 0.0 
6.143202890690e-05 9.147683840563e-03 0.0 
0.0 0.0 0.0 
1.272758446413e-06 -8.605425713849e-06 0.0 
-8.605425713849e-06 4.000405211122e-04 0.0 
0.0 0.0 0.0 
1.269748086008e-06 -5.328609226868e-06 0.0 
-5.328609226868e-06 1.193516522280e-04 0.0 
0.0 0.0 0.0 
3.835441584954e-05 5.719419718850e-06 0.0 
5.719419718850e-06 1.064778729144e-03 0.0 
0.0 0.0 0.0 
1.982351147012e-04 8.117402813950e-05 0.0 
8.117402813950e-05 4.394916001738e-03 0.0 
0.0 0.0 0.0 
7.349820441171e-05 5.282664637352e-05 0.0 
5.282664637352e-05 7.513397560676e-03 0.0 
0.0 0.0 0.0 
-2.219970863753e-04 -3.488133265191e-05 0.0 
-3.488133265191e-05 1.908168321978e-04 0.0 
0.0 0.0 0.0 
-5.342300492894e-05 -2.727596638347e-05 0.0 
-2.727596638347e-05 7.658306974345e-03 0.0 
0.0 0.0 0.0 
-1.003872012272e-04 -1.526777340195e-05 0.0 
-1.526777340195e-05 1.666637068538e-04 0.0 
0.0 0.0 0.0 
1.429067552954e-04 2.539193738210e-04 0.0 
2.539193738210e-04 5.887885083669e-03 0.0 
0.0 0.0 0.0 
-1.787949814799e-04 -1.415392651757e-05 0.0 
-1.415392651757e-05 1.914712022966e-04 0.0 
0.0 0.0 0.0 
-2.032631207387e-04 -2.325588567746e-05 0.0 
-2.325588567746e-05 1.952104930079e-04 0.0 
0.0 0.0 0.0 
1.620968701539e-04 2.331245160377e-04 0.0 
2.331245160377e-04 5.607968535351e-03 0.0 
0.0 0.0 0.0 
9.008443874903e-05 8.907634035905e-05 0.0 
8.907634035905e-05 7.297692765288e-03 0.0 
0.0 0.0 0.0 
-7.416308250374e-05 -7.098560057938e-06 0.0 
-7.098560057938e-06 6.731074613283e-03 0.0 
0.0 0.0 0.0 
-1.829655338783e-04 1.073555672159e-04 0.0 
1.073555672159e-04 5.299264585847e-03 0.0 
0.0 0.0 0.0 
2.990208986842e-05 -1.039626258115e-05 0.0 
-1.039626258115e-05 3.902982865482e-04 0.0 
0.0 0.0 0.0 
1.654598258578e-04 2.286426126507e-05 0.0 
2.286426126507e-05 5.618003956267e-03 0.0 
0.0 0.0 0.0 
0.0 1.580673629493e-05 0.0 
1.580673629493e-05 9.134322708710e-03 0.0 
0.0 0.0 0.0 
-1.438362950346e-05 9.743166276405e-07 0.0 
9.743166276405e-07 9.149534655448e-03 0.0 
0.0 0.0 0.0 
-1.126268381623e-04 1.136507859250e-05 0.0 
1.136507859250e-05 5.321023614154e-03 0.0 
0.0 0.0 0.0 
1.218338032989e-04 2.715236309413e-04 0.0 
2.715236309413e-04 6.170488085728e-03 0.0 
0.0 0.0 0.0 
0.0 5.449605157336e-05 0.0 
5.449605157336e-05 9.152859042642e-03 0.0 
0.0 0.0 0.0 
-4.797922733002e-05 2.576966068684e-04 0.0 
2.576966068684e-04 7.006054621074e-03 0.0 
0.0 0.0 0.0 
2.504866559416e-05 -2.278593962405e-06 0.0 
-2.278593962405e-06 7.336397638638e-04 0.0 
0.0 0.0 0.0 
1.735960547622e-05 -1.042837295720e-05 0.0 
-1.042837295720e-05 3.945041944384e-04 0.0 
0.0 0.0 0.0 
2.573926326388e-05 -1.422139358098e-05 0.0 
-1.422139358098e-05 3.881248861708e-04 0.0 
0.0 0.0 0.0 
1.560793024558e-04 3.184098962672e-05 0.0 
3.184098962672e-05 3.390014815038e-03 0.0 
0.0 0.0 0.0 
2.594841763881e-05 4.223747645800e-05 0.0 
4.223747645800e-05 8.242035524155e-03 0.0 
0.0 0.0 0.0 
-2.022232938359e-05 -3.411991999481e-05 0.0 
-3.411991999481e-05 8.707044579233e-03 0.0 
0.0 0.0 0.0 
1.794527900678e-05 1.985969452874e-06 0.0 
1.985969452874e-06 1.052552840195e-04 0.0 
0.0 0.0 0.0 
1.657095304484e-04 -2.848962982057e-05 0.0 
-2.848962982057e-05 4.026490243233e-03 0.0 
0.0 0.0 0.0 
0.0 4.978643242473e-05 0.0 
4.978643242473e-05 8.264871007447e-03 0.0 
0.0 0.0 0.0 
2.789614388332e-05 8.408245016084e-05 0.0 
8.408245016084e-05 8.239819089226e-03 0.0 
0.0 0.0 0.0 
4.291790271727e-05 2.284107953933e-04 0.0 
2.284107953933e-04 8.341301895468e-03 0.0 
0.0 0.0 0.0 
-6.305140565888e-05 3.571054606394e-05 0.0 
3.571054606394e-05 7.246590025069e-03 0.0 
0.0 0.0 0.0 
-4.487869344572e-05 -3.215140427136e-05 0.0 
-3.215140427136e-05 7.872802072344e-03 0.0 
0.0 0.0 0.0 
0.0 6.469701755787e-05 0.0 
6.469701755787e-05 8.226905754587e-03 0.0 
0.0 0.0 0.0 
0.0 8.047017399149e-05 0.0 
8.047017399149e-05 8.253288901092e-03 0.0 
0.0 0.0 0.0 
-4.945044112847e-05 3.074172343026e-05 0.0 
3.074172343026e-05 7.660352112557e-03 0.0 
0.0 0.0 0.0 
9.492684203805e-06 1.467946270367e-05 0.0 
1.467946270367e-05 9.390109603236e-05 0.0 
0.0 0.0 0.0 
-9.413181904827e-05 2.174532392732e-06 0.0 
2.174532392732e-06 5.311369670781e-03 0.0 
0.0 0.0 0.0 
-1.099016460113e-04 1.162428602420e-05 0.0 
1.162428602420e-05 5.331416182533e-03 0.0 
0.0 0.0 0.0 
8.057656915250e-06 -1.312536786548e-06 0.0 
-1.312536786548e-06 1.169293716188e-04 0.0 
0.0 0.0 0.0 
0.0 1.488972726877e-04 0.0 
1.488972726877e-04 8.302599571082e-03 0.0 
0.0 0.0 0.0 
3.122964975022e-05 2.096531849250e-04 0.0 
2.096531849250e-04 8.310929941276e-03 0.0 
0.0 0.0 0.0 
0.0 1.867077473537e-04 0.0 
1.867077473537e-04 8.295135952216e-03 0.0 
0.0 0.0 0.0 
-1.832060263307e-05 3.725564502542e-06 0.0 
3.725564502542e-06 1.198044397257e-04 0.0 
0.0 0.0 0.0 
-2.172965348080e-05 -3.248461783860e-06 0.0 
-3.248461783860e-06 1.246175184149e-04 0.0 
0.0 0.0 0.0 
0.0 2.284913719709e-04 0.0 
2.284913719709e-04 8.355514821222e-03 0.0 
0.0 0.0 0.0 
0.0 2.047031587804e-04 0.0 
2.047031587804e-04 8.328225204168e-03 0.0 
0.0 0.0 0.0 
-7.183272715239e-05 -3.472382989443e-05 0.0 
-3.472382989443e-05 7.036912415350e-03 0.0 
0.0 0.0 0.0 
-8.713908296154e-05 5.216032320787e-06 0.0 
5.216032320787e-06 5.301384797268e-03 0.0 
0.0 0.0 0.0 
-5.429077354813e-05 -3.385532913390e-05 0.0 
-3.385532913390e-05 7.453872065021e-03 0.0 
0.0 0.0 0.0 
-8.332845790859e-05 -3.409616232375e-05 0.0 
-3.409616232375e-05 6.194265042428e-03 0.0 
0.0 0.0 0.0 
-7.862470994902e-05 1.989683356806e-06 0.0 
1.989683356806e-06 5.299385693279e-03 0.0 
0.0 0.0 0.0 
-3.655626325316e-05 -1.891110024363e-07 0.0 
-1.891110024363e-07 1.333282095199e-04 0.0 
0.0 0.0 0.0 
-7.831807432446e-05 -1.407997946799e-05 0.0 
-1.407997946799e-05 1.581663293930e-04 0.0 
0.0 0.0 0.0 
-8.078361460839e-05 -1.153357546334e-05 0.0 
-1.153357546334e-05 1.493333436093e-04 0.0 
0.0 0.0 0.0 
-1.081365847009e-04 -1.266000913616e-05 0.0 
-1.266000913616e-05 1.623835392590e-04 0.0 
0.0 0.0 0.0 
1.661279781879e-04 3.759356912858e-05 0.0 
3.759356912858e-05 4.244811948415e-03 0.0 
0.0 0.0 0.0 
1.653110394824e-04 3.319156777062e-05 0.0 
3.319156777062e-05 3.812586909632e-03 0.0 
0.0 0.0 0.0 
-3.831073532401e-05 -8.732378916636e-06 0.0 
-8.732378916636e-06 1.386556724905e-04 0.0 
0.0 0.0 0.0 
1.648550962807e-04 3.655646508666e-05 0.0 
3.655646508666e-05 5.518841586499e-03 0.0 
0.0 0.0 0.0 
-5.912690120147e-05 -1.358067211909e-05 0.0 
-1.358067211909e-05 1.443313339180e-04 0.0 
0.0 0.0 0.0 
0.0 1.096749736164e-04 0.0 
1.096749736164e-04 9.125488155036e-03 0.0 
0.0 0.0 0.0 
0.0 4.559784540252e-05 0.0 
4.559784540252e-05 9.142540839985e-03 0.0 
0.0 0.0 0.0 
0.0 7.263421384274e-05 0.0 
7.263421384274e-05 9.134409343304e-03 0.0 
0.0 0.0 0.0 
6.466884666079e-05 3.742629283095e-05 0.0 
3.742629283095e-05 1.303437764162e-03 0.0 
0.0 0.0 0.0 
1.276293572028e-04 3.318314910934e-05 0.0 
3.318314910934e-05 2.553927522521e-03 0.0 
0.0 0.0 0.0 
0.0 3.391233054293e-05 0.0 
3.391233054293e-05 9.131219415611e-03 0.0 
0.0 0.0 0.0 
1.156061282253e-04 3.130999105472e-05 0.0 
3.130999105472e-05 6.852371599808e-03 0.0 
0.0 0.0 0.0 
0.0 2.413992523550e-05 0.0 
2.413992523550e-05 9.175781230550e-03 0.0 
0.0 0.0 0.0 
8.594612009416e-05 3.321085843225e-05 0.0 
3.321085843225e-05 7.304209416271e-03 0.0 
0.0 0.0 0.0 
5.344817389830e-05 3.900854947485e-05 0.0 
3.900854947485e-05 7.759994279467e-03 0.0 
0.0 0.0 0.0 
1.606782315233e-04 -3.267263468375e-05 0.0 
-3.267263468375e-05 3.599745022316e-03 0.0 
0.0 0.0 0.0 
-2.059212268857e-05 3.450409777132e-05 0.0 
3.450409777132e-05 9.136624974502e-03 0.0 
0.0 0.0 0.0 
-1.721512879194e-05 4.983700410996e-05 0.0 
4.983700410996e-05 9.148093186457e-03 0.0 
0.0 0.0 0.0 
9.943113183875e-05 -2.022300617561e-05 0.0 
-2.022300617561e-05 7.054539467354e-03 0.0 
0.0 0.0 0.0 
6.934193976815e-05 -1.842434776514e-05 0.0 
-1.842434776514e-05 7.517433959629e-03 0.0 
0.0 0.0 0.0 
1.537209978031e-04 1.016139130017e-05 0.0 
1.016139130017e-05 5.984746185950e-03 0.0 
0.0 0.0 0.0 
-9.172106479827e-05 -1.451508733040e-05 0.0 
-1.451508733040e-05 1.619734650296e-04 0.0 
0.0 0.0 0.0 
1.613577451043e-04 -2.481028260624e-05 0.0 
-2.481028260624e-05 3.676714438546e-03 0.0 
0.0 0.0 0.0 
1.241268611007e-06 -1.580529840543e-05 0.0 
-1.580529840543e-05 3.929620017291e-04 0.0 
0.0 0.0 0.0 
9.478760851200e-05 1.019155807839e-04 0.0 
1.019155807839e-04 7.252959824886e-03 0.0 
0.0 0.0 0.0 
1.863423237314e-04 5.224556009825e-05 0.0 
5.224556009825e-05 3.906608965174e-03 0.0 
0.0 0.0 0.0 
1.286143738786e-04 9.257766511373e-05 0.0 
9.257766511373e-05 6.665812088209e-03 0.0 
0.0 0.0 0.0 
9.921895236209e-05 -5.885678203679e-05 0.0 
-5.885678203679e-05 1.886130382588e-03 0.0 
0.0 0.0 0.0 
3.235516504807e-05 4.045444142999e-06 0.0 
4.045444142999e-06 7.302271008465e-04 0.0 
0.0 0.0 0.0 
1.007090956784e-04 3.719466367304e-05 0.0 
3.719466367304e-05 7.111928321531e-03 0.0 
0.0 0.0 0.0 
1.774926516627e-04 -1.552146412857e-05 0.0 
-1.552146412857e-05 4.096601966751e-03 0.0 
0.0 0.0 0.0 
1.447547214055e-04 3.136811333614e-05 0.0 
3.136811333614e-05 3.185555324348e-03 0.0 
0.0 0.0 0.0 
1.253245219008e-04 3.071654486984e-05 0.0 
3.071654486984e-05 6.675652907966e-03 0.0 
0.0 0.0 0.0 
-3.218267837268e-05 4.479770307709e-05 0.0 
4.479770307709e-05 8.245898839185e-03 0.0 
0.0 0.0 0.0 
1.487329903964e-04 -3.391157679155e-05 0.0 
-3.391157679155e-05 3.184319825619e-03 0.0 
0.0 0.0 0.0 
1.391663652361e-04 1.486148766708e-04 0.0 
1.486148766708e-04 6.398252861392e-03 0.0 
0.0 0.0 0.0 
1.836543454685e-04 1.210133073761e-04 0.0 
1.210133073761e-04 5.502833787755e-03 0.0 
0.0 0.0 0.0 
1.570359432062e-04 7.480997484548e-05 0.0 
7.480997484548e-05 5.974760023589e-03 0.0 
0.0 0.0 0.0 
1.466885822412e-04 6.350024400980e-05 0.0 
6.350024400980e-05 6.167945558684e-03 0.0 
0.0 0.0 0.0 
1.058566064023e-04 3.395621003577e-04 0.0 
3.395621003577e-04 3.645807435532e-03 0.0 
0.0 0.0 0.0 
-1.857203918619e-04 9.088561129306e-05 0.0 
9.088561129306e-05 4.920005482639e-03 0.0 
0.0 0.0 0.0 
-8.700630645098e-05 2.608705096470e-04 0.0 
2.608705096470e-04 5.053553292278e-03 0.0 
0.0 0.0 0.0 
1.730029816343e-04 8.860967964639e-05 0.0 
8.860967964639e-05 5.607827377105e-03 0.0 
0.0 0.0 0.0 
1.138960081453e-04 1.790679885260e-05 0.0 
1.790679885260e-05 6.867486125142e-03 0.0 
0.0 0.0 0.0 
1.360955978649e-04 5.549438498032e-05 0.0 
5.549438498032e-05 6.367032129006e-03 0.0 
0.0 0.0 0.0 
1.338564050979e-04 2.270400476851e-05 0.0 
2.270400476851e-05 1.964871027949e-03 0.0 
0.0 0.0 0.0 
-3.306191469998e-05 6.026602653602e-05 0.0 
6.026602653602e-05 8.219647962697e-03 0.0 
0.0 0.0 0.0 
-5.113940118606e-05 5.513173459463e-05 0.0 
5.513173459463e-05 7.802652782338e-03 0.0 
0.0 0.0 0.0 
-8.575396865407e-05 4.244889606092e-05 0.0 
4.244889606092e-05 5.881508468828e-03 0.0 
0.0 0.0 0.0 
1.676900740761e-04 1.047954438105e-04 0.0 
1.047954438105e-04 5.861483761815e-03 0.0 
0.0 0.0 0.0 
1.650539085774e-04 8.169887169455e-05 0.0 
8.169887169455e-05 5.790771565678e-03 0.0 
0.0 0.0 0.0 
-4.238225449649e-05 -1.503279506168e-05 0.0 
-1.503279506168e-05 8.262965428689e-03 0.0 
0.0 0.0 0.0 
-4.414491849314e-05 4.834120902633e-05 0.0 
4.834120902633e-05 8.028563711369e-03 0.0 
0.0 0.0 0.0 
1.795091972667e-04 6.137056943001e-05 0.0 
6.137056943001e-05 5.337056713462e-03 0.0 
0.0 0.0 0.0 
8.983990998646e-05 2.405146998107e-05 0.0 
2.405146998107e-05 7.303539388586e-03 0.0 
0.0 0.0 0.0 
-6.129100986696e-05 7.453318380486e-05 0.0 
7.453318380486e-05 7.717246409289e-03 0.0 
0.0 0.0 0.0 
1.342593330083e-04 -7.032390921829e-06 0.0 
-7.032390921829e-06 6.366973294719e-03 0.0 
0.0 0.0 0.0 
8.103548318950e-05 8.319039744834e-05 0.0 
8.319039744834e-05 7.458498110548e-03 0.0 
0.0 0.0 0.0 
-4.392522683883e-05 -2.225697840010e-06 0.0 
-2.225697840010e-06 8.230071677686e-03 0.0 
0.0 0.0 0.0 
-7.405633577395e-05 -8.677488843528e-06 0.0 
-8.677488843528e-06 7.161792472174e-03 0.0 
0.0 0.0 0.0 
1.535512760000e-04 1.272756445194e-04 0.0 
1.272756445194e-04 6.128580254563e-03 0.0 
0.0 0.0 0.0 
1.015933856114e-04 1.589077228507e-05 0.0 
1.589077228507e-05 1.945901371835e-03 0.0 
0.0 0.0 0.0 
1.271688455757e-04 2.430501367620e-05 0.0 
2.430501367620e-05 1.801575158364e-03 0.0 
0.0 0.0 0.0 
1.268941090227e-05 -7.433579865797e-05 0.0 
-7.433579865797e-05 8.831719852749e-04 0.0 
0.0 0.0 0.0 
-9.179986072483e-05 -2.982996766341e-05 0.0 
-2.982996766341e-05 4.404656352566e-04 0.0 
0.0 0.0 0.0 
-4.606121225226e-05 -9.417349889398e-06 0.0 
-9.417349889398e-06 8.034186632913e-03 0.0 
0.0 0.0 0.0 
1.034925309000e-04 7.157836056131e-05 0.0 
7.157836056131e-05 7.045782225823e-03 0.0 
0.0 0.0 0.0 
-8.055071956792e-05 -2.909474206980e-05 0.0 
-2.909474206980e-05 4.274812602940e-04 0.0 
0.0 0.0 0.0 
-9.474199112158e-05 1.361438423341e-04 0.0 
1.361438423341e-04 8.035524030352e-03 0.0 
0.0 0.0 0.0 
-7.950561922676e-05 4.288178632096e-05 0.0 
4.288178632096e-05 6.075367871401e-03 0.0 
0.0 0.0 0.0 
1.357374445452e-04 3.859291307276e-05 0.0 
3.859291307276e-05 6.492582483907e-03 0.0 
0.0 0.0 0.0 
1.267485398808e-04 6.833477554808e-05 0.0 
6.833477554808e-05 6.603317288647e-03 0.0 
0.0 0.0 0.0 
1.966558947910e-04 7.751447181707e-05 0.0 
7.751447181707e-05 2.866223502049e-03 0.0 
0.0 0.0 0.0 
1.254244070990e-04 4.101607987572e-06 0.0 
4.101607987572e-06 6.612560600647e-03 0.0 
0.0 0.0 0.0 
-8.799958297778e-05 -3.373123248240e-05 0.0 
-3.373123248240e-05 5.879817350561e-03 0.0 
0.0 0.0 0.0 
5.002514247421e-05 2.555598836597e-04 0.0 
2.555598836597e-04 6.475210723453e-03 0.0 
0.0 0.0 0.0 
7.264892496983e-05 1.433992653346e-04 0.0 
1.433992653346e-04 7.649232213889e-03 0.0 
0.0 0.0 0.0 
9.624957358634e-05 1.661978719794e-05 0.0 
1.661978719794e-05 1.875881517845e-03 0.0 
0.0 0.0 0.0 
7.760447644856e-05 1.241861443863e-04 0.0 
1.241861443863e-04 7.524333598674e-03 0.0 
0.0 0.0 0.0 
-6.602990715432e-05 -7.865582615551e-06 0.0 
-7.865582615551e-06 7.392460728262e-03 0.0 
0.0 0.0 0.0 
1.100218204078e-04 2.238687771148e-05 0.0 
2.238687771148e-05 2.123261392164e-03 0.0 
0.0 0.0 0.0 
1.354852278532e-04 -3.692017601342e-05 0.0 
-3.692017601342e-05 2.222875040341e-03 0.0 
0.0 0.0 0.0 
1.767965065718e-04 4.446508530663e-05 0.0 
4.446508530663e-05 4.639636626498e-03 0.0 
0.0 0.0 0.0 
-8.312787167830e-05 5.336702865459e-05 0.0 
5.336702865459e-05 6.698233493518e-03 0.0 
0.0 0.0 0.0 
1.666716061599e-04 3.258203432996e-05 0.0 
3.258203432996e-05 3.062512202303e-03 0.0 
0.0 0.0 0.0 
-5.849165413896e-05 -1.217578670349e-05 0.0 
-1.217578670349e-05 7.621293968432e-03 0.0 
0.0 0.0 0.0 
-7.271697147415e-05 -1.748382233087e-05 0.0 
-1.748382233087e-05 6.962076192649e-03 0.0 
0.0 0.0 0.0 
1.862396106971e-04 5.809166512292e-05 0.0 
5.809166512292e-05 4.512138733983e-03 0.0 
0.0 0.0 0.0 
1.425377114055e-04 1.961091249767e-06 0.0 
1.961091249767e-06 6.172333785013e-03 0.0 
0.0 0.0 0.0 
1.355045130316e-04 1.362911048732e-05 0.0 
1.362911048732e-05 6.424739951152e-03 0.0 
0.0 0.0 0.0 
-6.265895441493e-05 5.242423940908e-05 0.0 
5.242423940908e-05 7.383874111054e-03 0.0 
0.0 0.0 0.0 
7.759796237128e-05 -5.438398884315e-05 0.0 
-5.438398884315e-05 1.608493129136e-03 0.0 
0.0 0.0 0.0 
1.821079694131e-04 4.771621549344e-05 0.0 
4.771621549344e-05 4.270925386674e-03 0.0 
0.0 0.0 0.0 
1.153542949428e-05 3.346515427750e-04 0.0 
3.346515427750e-04 7.448855199319e-03 0.0 
0.0 0.0 0.0 
-6.448124759162e-05 -2.357647371458e-06 0.0 
-2.357647371458e-06 7.580625890272e-03 0.0 
0.0 0.0 0.0 
1.781893663029e-04 4.509771207459e-05 0.0 
4.509771207459e-05 3.840940082155e-03 0.0 
0.0 0.0 0.0 
1.738203481412e-04 5.378389862239e-05 0.0 
5.378389862239e-05 5.513679404845e-03 0.0 
0.0 0.0 0.0 
9.025917901351e-05 1.289119874572e-04 0.0 
1.289119874572e-04 7.355507932559e-03 0.0 
0.0 0.0 0.0 
-6.504840314547e-05 5.026514815582e-05 0.0 
5.026514815582e-05 7.154888517673e-03 0.0 
0.0 0.0 0.0 
5.611163702590e-05 1.892889617358e-05 0.0 
1.892889617358e-05 8.560195659655e-04 0.0 
0.0 0.0 0.0 
1.624623739627e-05 -6.122790652671e-05 0.0 
-6.122790652671e-05 8.546033893837e-04 0.0 
0.0 0.0 0.0 
1.604899557193e-04 2.054279011392e-04 0.0 
2.054279011392e-04 2.033234657631e-03 0.0 
0.0 0.0 0.0 
1.153811045105e-04 8.478992729442e-05 0.0 
8.478992729442e-05 6.857378346862e-03 0.0 
0.0 0.0 0.0 
-7.561412294921e-05 5.174408220774e-05 0.0 
5.174408220774e-05 6.927223828453e-03 0.0 
0.0 0.0 0.0 
1.750741616364e-04 -2.041483906013e-05 0.0 
-2.041483906013e-05 5.072201119131e-03 0.0 
0.0 0.0 0.0 
-8.611219326227e-05 4.467624991343e-05 0.0 
4.467624991343e-05 6.279220133406e-03 0.0 
0.0 0.0 0.0 
1.006339563288e-04 1.850227451656e-04 0.0 
1.850227451656e-04 7.113594934913e-03 0.0 
0.0 0.0 0.0 
1.819599685391e-04 5.499886759285e-05 0.0 
5.499886759285e-05 4.695078816743e-03 0.0 
0.0 0.0 0.0 
1.391014756849e-04 7.897436611587e-05 0.0 
7.897436611587e-05 6.414710558302e-03 0.0 
0.0 0.0 0.0 
9.621434392204e-05 -4.498245351499e-05 0.0 
-4.498245351499e-05 1.955789292384e-03 0.0 
0.0 0.0 0.0 
8.760301924271e-05 1.597884815463e-04 0.0 
1.597884815463e-04 7.461677199845e-03 0.0 
0.0 0.0 0.0 
1.769375603644e-04 -7.226248248696e-06 0.0 
-7.226248248696e-06 4.522485646388e-03 0.0 
0.0 0.0 0.0 
1.008415578239e-04 -4.195656487446e-05 0.0 
-4.195656487446e-05 2.133321421360e-03 0.0 
0.0 0.0 0.0 
1.731225050712e-04 -1.917821621989e-05 0.0 
-1.917821621989e-05 4.281916301112e-03 0.0 
0.0 0.0 0.0 
1.679627782931e-04 3.247980274653e-05 0.0 
3.247980274653e-05 3.242805206112e-03 0.0 
0.0 0.0 0.0 
1.309335952770e-04 -4.681329510898e-05 0.0 
-4.681329510898e-05 2.477724616559e-03 0.0 
0.0 0.0 0.0 
1.739653354893e-04 4.602451046094e-05 0.0 
4.602451046094e-05 5.059361149517e-03 0.0 
0.0 0.0 0.0 
-2.849898155288e-05 -6.342143674308e-06 0.0 
-6.342143674308e-06 1.380184998567e-04 0.0 
0.0 0.0 0.0 
-4.614414086601e-05 -1.127395615624e-05 0.0 
-1.127395615624e-05 1.506818015355e-04 0.0 
0.0 0.0 0.0 
1.590949942196e-04 1.671561366769e-05 0.0 
1.671561366769e-05 5.800786975664e-03 0.0 
0.0 0.0 0.0 
8.771536001873e-05 -4.926645274166e-05 0.0 
-4.926645274166e-05 1.784120313924e-03 0.0 
0.0 0.0 0.0 
1.602312842111e-04 3.876927268374e-05 0.0 
3.876927268374e-05 5.871669975420e-03 0.0 
0.0 0.0 0.0 
1.673385320551e-04 4.657928682853e-05 0.0 
4.657928682853e-05 5.692129501574e-03 0.0 
0.0 0.0 0.0 
1.908227727405e-04 5.686319717364e-05 0.0 
5.686319717364e-05 3.543069812608e-03 0.0 
0.0 0.0 0.0 
1.805537647595e-04 7.031147341863e-05 0.0 
7.031147341863e-05 2.278278366094e-03 0.0 
0.0 0.0 0.0 
-5.949888596346e-05 1.379481336049e-05 0.0 
1.379481336049e-05 7.953126931215e-03 0.0 
0.0 0.0 0.0 
1.005591935443e-04 2.805973889437e-04 0.0 
2.805973889437e-04 1.135345787939e-03 0.0 
0.0 0.0 0.0 
1.672580792584e-04 3.159866748186e-05 0.0 
3.159866748186e-05 3.428157011606e-03 0.0 
0.0 0.0 0.0 
8.177690066358e-05 2.123915243128e-04 0.0 
2.123915243128e-04 7.375229330089e-03 0.0 
0.0 0.0 0.0 
8.308226568543e-05 1.315823885354e-05 0.0 
1.315823885354e-05 1.520918690703e-03 0.0 
0.0 0.0 0.0 
-8.920624164199e-05 -1.153690710304e-05 0.0 
-1.153690710304e-05 6.514700781097e-03 0.0 
0.0 0.0 0.0 
-9.012081567428e-05 -2.247823068115e-05 0.0 
-2.247823068115e-05 6.084155660224e-03 0.0 
0.0 0.0 0.0 
7.097950393553e-05 -6.427298207294e-05 0.0 
-6.427298207294e-05 1.475806232188e-03 0.0 
0.0 0.0 0.0 
1.015034595548e-04 1.443505093877e-04 0.0 
1.443505093877e-04 7.175573675806e-03 0.0 
0.0 0.0 0.0 
-8.185053901655e-05 9.561095957595e-06 0.0 
9.561095957595e-06 7.309594823980e-03 0.0 
0.0 0.0 0.0 
9.270258676497e-05 1.055432658140e-05 0.0 
1.055432658140e-05 1.772045165571e-03 0.0 
0.0 0.0 0.0 
-5.662556865749e-05 2.628558743298e-05 0.0 
2.628558743298e-05 8.131874974696e-03 0.0 
0.0 0.0 0.0 
-4.860455047428e-05 7.839786973852e-05 0.0 
7.839786973852e-05 8.123693153380e-03 0.0 
0.0 0.0 0.0 
1.008223372543e-04 -5.448558302896e-05 0.0 
-5.448558302896e-05 2.008551768804e-03 0.0 
0.0 0.0 0.0 
-1.794412063496e-04 1.833477133841e-04 0.0 
1.833477133841e-04 3.670129684917e-03 0.0 
0.0 0.0 0.0 
1.081681764568e-04 -5.560443773466e-05 0.0 
-5.560443773466e-05 2.063792912311e-03 0.0 
0.0 0.0 0.0 
1.461647927266e-04 2.332573393190e-05 0.0 
2.332573393190e-05 6.236968172926e-03 0.0 
0.0 0.0 0.0 
1.774294225332e-04 5.123344704713e-05 0.0 
5.123344704713e-05 4.879108019113e-03 0.0 
0.0 0.0 0.0 
-7.368499809779e-05 1.643650820542e-04 0.0 
1.643650820542e-04 8.092181610561e-03 0.0 
0.0 0.0 0.0 
-5.223458064652e-05 7.143928883436e-05 0.0 
7.143928883436e-05 7.946334848614e-03 0.0 
0.0 0.0 0.0 
1.530747922525e-04 3.120683404182e-05 0.0 
3.120683404182e-05 6.053716395154e-03 0.0 
0.0 0.0 0.0 
1.587835364727e-04 9.653424279195e-05 0.0 
9.653424279195e-05 6.043681720050e-03 0.0 
0.0 0.0 0.0 
9.148486655319e-05 8.001544958594e-06 0.0 
8.001544958594e-06 1.642053580446e-03 0.0 
0.0 0.0 0.0 
1.495692302913e-04 8.793396632171e-05 0.0 
8.793396632171e-05 6.227059049933e-03 0.0 
0.0 0.0 0.0 
-7.278157531798e-05 6.746900213517e-05 0.0 
6.746900213517e-05 7.302802045136e-03 0.0 
0.0 0.0 0.0 
1.733536023913e-04 -1.206512839014e-05 0.0 
-1.206512839014e-05 4.888938155374e-03 0.0 
0.0 0.0 0.0 
-8.246976448578e-05 -6.562546935713e-06 0.0 
-6.562546935713e-06 6.934031728736e-03 0.0 
0.0 0.0 0.0 
-7.190004262925e-05 7.538502063465e-06 0.0 
7.538502063465e-06 7.538366888484e-03 0.0 
0.0 0.0 0.0 
5.909183486130e-05 3.291675129623e-04 0.0 
3.291675129623e-04 4.792330965455e-03 0.0 
0.0 0.0 0.0 
-5.572784038976e-05 6.360961566976e-05 0.0 
6.360961566976e-05 7.760909380758e-03 0.0 
0.0 0.0 0.0 
1.734741971324e-04 4.386935156930e-05 0.0 
4.386935156930e-05 4.051513247637e-03 0.0 
0.0 0.0 0.0 
1.742638127824e-04 -1.001759232245e-05 0.0 
-1.001759232245e-05 4.705348761300e-03 0.0 
0.0 0.0 0.0 
1.544377753320e-04 3.234115147816e-05 0.0 
3.234115147816e-05 3.013356928964e-03 0.0 
0.0 0.0 0.0 
1.752604991401e-04 -7.675170874545e-06 0.0 
-7.675170874545e-06 3.202414172698e-03 0.0 
0.0 0.0 0.0 
-7.439946335641e-05 5.924396625517e-05 0.0 
5.924396625517e-05 7.115560448555e-03 0.0 
0.0 0.0 0.0 
1.942657052596e-04 6.564353195641e-05 0.0 
6.564353195641e-05 4.557970731863e-03 0.0 
0.0 0.0 0.0 
1.155788804599e-04 -5.233892582278e-05 0.0 
-5.233892582278e-05 2.242652894628e-03 0.0 
0.0 0.0 0.0 
3.504447505009e-05 -6.233390545047e-05 0.0 
-6.233390545047e-05 1.073324521142e-03 0.0 
0.0 0.0 0.0 
-8.182229253084e-05 1.264149700328e-06 0.0 
1.264149700328e-06 7.122352454926e-03 0.0 
0.0 0.0 0.0 
1.271418921494e-04 1.591102531769e-05 0.0 
1.591102531769e-05 2.232010041656e-03 0.0 
0.0 0.0 0.0 
9.206145037277e-05 1.842637894739e-04 0.0 
1.842637894739e-04 7.518277684409e-03 0.0 
0.0 0.0 0.0 
-6.545984353024e-05 5.786364885028e-05 0.0 
5.786364885028e-05 7.344164713827e-03 0.0 
0.0 0.0 0.0 
1.399618131435e-04 1.037940964863e-04 0.0 
1.037940964863e-04 6.482663191515e-03 0.0 
0.0 0.0 0.0 
2.442912965650e-05 2.849728076187e-04 0.0 
2.849728076187e-04 8.116577628721e-03 0.0 
0.0 0.0 0.0 
1.685457358636e-04 -2.617841050791e-05 0.0 
-2.617841050791e-05 3.855986366030e-03 0.0 
0.0 0.0 0.0 
1.093891283870e-04 1.260214797143e-05 0.0 
1.260214797143e-05 1.998146338974e-03 0.0 
0.0 0.0 0.0 
5.816389482760e-05 8.057504696971e-06 0.0 
8.057504696971e-06 1.229199199275e-03 0.0 
0.0 0.0 0.0 
1.526503250695e-04 5.662154123567e-05 0.0 
5.662154123567e-05 6.127985219629e-03 0.0 
0.0 0.0 0.0 
-7.616287140355e-05 4.701156256890e-05 0.0 
4.701156256890e-05 6.738768502585e-03 0.0 
0.0 0.0 0.0 
2.353097017216e-05 3.909841026942e-06 0.0 
3.909841026942e-06 8.385913423705e-04 0.0 
0.0 0.0 0.0 
1.552761795884e-04 -3.490951158396e-05 0.0 
-3.490951158396e-05 3.072944903666e-03 0.0 
0.0 0.0 0.0 
8.659373885855e-05 -4.119266664100e-05 0.0 
-4.119266664100e-05 1.727959456041e-03 0.0 
0.0 0.0 0.0 
-8.922673377754e-05 -4.176314274679e-06 0.0 
-4.176314274679e-06 6.704914776965e-03 0.0 
0.0 0.0 0.0 
1.614728667103e-04 -3.439785861015e-05 0.0 
-3.439785861015e-05 3.253076723188e-03 0.0 
0.0 0.0 0.0 
1.760680685474e-04 1.126662575649e-04 0.0 
1.126662575649e-04 5.681606008826e-03 0.0 
0.0 0.0 0.0 
1.432910031824e-04 -3.931139495009e-05 0.0 
-3.931139495009e-05 3.020863170126e-03 0.0 
0.0 0.0 0.0 
-5.652560084835e-05 -6.333694716634e-06 0.0 
-6.333694716634e-06 7.810692364901e-03 0.0 
0.0 0.0 0.0 
1.489623580466e-04 2.432219293982e-05 0.0 
2.432219293982e-05 2.646904802063e-03 0.0 
0.0 0.0 0.0 
1.513067174053e-04 8.511674864386e-05 0.0 
8.511674864386e-05 6.209256761229e-03 0.0 
0.0 0.0 0.0 
1.042314422119e-04 -5.331833584129e-05 0.0 
-5.331833584129e-05 1.813874642136e-03 0.0 
0.0 0.0 0.0 
1.605030361453e-04 6.494839453631e-05 0.0 
6.494839453631e-05 5.948611715205e-03 0.0 
0.0 0.0 0.0 
1.725190924122e-04 -1.293257180934e-05 0.0 
-1.293257180934e-05 4.475733907019e-03 0.0 
0.0 0.0 0.0 
1.504405601394e-04 1.135148452906e-04 0.0 
1.135148452906e-04 6.299393676252e-03 0.0 
0.0 0.0 0.0 
1.935910116326e-04 2.502290202540e-04 0.0 
2.502290202540e-04 3.172694078684e-03 0.0 
0.0 0.0 0.0 
8.781387215917e-05 2.131084608456e-05 0.0 
2.131084608456e-05 1.712164231858e-03 0.0 
0.0 0.0 0.0 
-8.449201853211e-05 -1.706351028991e-05 0.0 
-1.706351028991e-05 6.321258061073e-03 0.0 
0.0 0.0 0.0 
1.402275100537e-04 1.861085389850e-04 0.0 
1.861085389850e-04 5.897979709073e-03 0.0 
0.0 0.0 0.0 
-1.428789545673e-04 2.454469926714e-04 0.0 
2.454469926714e-04 4.825639151053e-03 0.0 
0.0 0.0 0.0 
-8.168827401300e-05 -1.417446887355e-05 0.0 
-1.417446887355e-05 6.740770719040e-03 0.0 
0.0 0.0 0.0 
1.295093966676e-04 -3.752198643621e-05 0.0 
-3.752198643621e-05 2.049972707473e-03 0.0 
0.0 0.0 0.0 
-9.015773420118e-05 6.779415267467e-05 0.0 
6.779415267467e-05 6.847187435502e-03 0.0 
0.0 0.0 0.0 
7.039129808883e-05 -4.845309148583e-05 0.0 
-4.845309148583e-05 1.544629338810e-03 0.0 
0.0 0.0 0.0 
1.060638161965e-04 1.064188726860e-04 0.0 
1.064188726860e-04 7.091081210820e-03 0.0 
0.0 0.0 0.0 
1.206658164861e-04 2.071783705188e-04 0.0 
2.071783705188e-04 6.180142630017e-03 0.0 
0.0 0.0 0.0 
2.671918740083e-05 2.635553654266e-04 0.0 
2.635553654266e-04 6.760364974262e-03 0.0 
0.0 0.0 0.0 
-4.679217694092e-05 1.963646415766e-05 0.0 
1.963646415766e-05 8.373456036769e-03 0.0 
0.0 0.0 0.0 
1.881823352470e-04 7.909729738099e-05 0.0 
7.909729738099e-05 4.990006516968e-03 0.0 
0.0 0.0 0.0 
8.239638709728e-05 7.980864822392e-06 0.0 
7.980864822392e-06 1.594835329570e-03 0.0 
0.0 0.0 0.0 
1.735328037167e-04 8.252567023754e-05 0.0 
8.252567023754e-05 5.596886674179e-03 0.0 
0.0 0.0 0.0 
9.723596326805e-05 1.974228478330e-04 0.0 
1.974228478330e-04 7.344855928790e-03 0.0 
0.0 0.0 0.0 
1.737327265128e-04 7.737459566544e-06 0.0 
7.737459566544e-06 2.711636404138e-03 0.0 
0.0 0.0 0.0 
1.443036442681e-04 4.780425984340e-05 0.0 
4.780425984340e-05 6.309445032708e-03 0.0 
0.0 0.0 0.0 
-7.326549846276e-05 -9.762206741609e-07 0.0 
-9.762206741609e-07 7.351069281710e-03 0.0 
0.0 0.0 0.0 
1.808898124505e-04 8.156288841900e-05 0.0 
8.156288841900e-05 2.103293540015e-03 0.0 
0.0 0.0 0.0 
1.675331803435e-04 7.345922934443e-05 0.0 
7.345922934443e-05 5.771703071393e-03 0.0 
0.0 0.0 0.0 
-1.005495616976e-04 -6.103292676586e-06 0.0 
-6.103292676586e-06 6.243745983337e-03 0.0 
0.0 0.0 0.0 
1.160455384086e-04 -4.257065190963e-05 0.0 
-4.257065190963e-05 2.368180181865e-03 0.0 
0.0 0.0 0.0 
1.509688338008e-04 -3.677282026410e-05 0.0 
-3.677282026410e-05 2.893398705926e-03 0.0 
0.0 0.0 0.0 
-1.226786018546e-04 2.251249492580e-04 0.0 
2.251249492580e-04 5.587579336837e-03 0.0 
0.0 0.0 0.0 
1.601740403592e-04 1.225038699513e-04 0.0 
1.225038699513e-04 6.117802808470e-03 0.0 
0.0 0.0 0.0 
-1.818794733659e-04 1.540441318430e-04 0.0 
1.540441318430e-04 4.577408445855e-03 0.0 
0.0 0.0 0.0 
-1.072684761095e-04 2.427865803654e-04 0.0 
2.427865803654e-04 5.324631690345e-03 0.0 
0.0 0.0 0.0 
-8.149370580979e-05 6.812036282062e-05 0.0 
6.812036282062e-05 7.074794343580e-03 0.0 
0.0 0.0 0.0 
-8.237774023534e-05 4.848168457511e-05 0.0 
4.848168457511e-05 6.507713372956e-03 0.0 
0.0 0.0 0.0 
-9.591503537243e-05 5.775419841457e-05 0.0 
5.775419841457e-05 6.431512429324e-03 0.0 
0.0 0.0 0.0 
1.787143122205e-04 4.318456110598e-05 0.0 
4.318456110598e-05 4.463393717831e-03 0.0 
0.0 0.0 0.0 
1.109310688949e-04 1.524452637596e-04 0.0 
1.524452637596e-04 7.007546459048e-03 0.0 
0.0 0.0 0.0 
1.783601968353e-04 9.212427077598e-05 0.0 
9.212427077598e-05 5.424348166960e-03 0.0 
0.0 0.0 0.0 
-9.732364619841e-05 -1.028465124295e-05 0.0 
-1.028465124295e-05 6.285541984323e-03 0.0 
0.0 0.0 0.0 
-8.350824664982e-05 1.496025944698e-04 0.0 
1.496025944698e-04 8.225727435837e-03 0.0 
0.0 0.0 0.0 
5.893438688176e-06 2.672504142675e-04 0.0 
2.672504142675e-04 7.039479053608e-03 0.0 
0.0 0.0 0.0 
1.690741895430e-04 1.315607928573e-04 0.0 
1.315607928573e-04 5.938303826730e-03 0.0 
0.0 0.0 0.0 
-6.391092564884e-05 6.551655999805e-05 0.0 
6.551655999805e-05 7.531558659910e-03 0.0 
0.0 0.0 0.0 
1.756605189502e-04 -1.177856955227e-05 0.0 
-1.177856955227e-05 3.375317656079e-03 0.0 
0.0 0.0 0.0 
1.639149017134e-04 -2.610936363096e-05 0.0 
-2.610936363096e-05 3.132685646646e-03 0.0 
0.0 0.0 0.0 
8.016985787362e-05 -6.254777946934e-05 0.0 
-6.254777946934e-05 1.652971420800e-03 0.0 
0.0 0.0 0.0 
1.648618233179e-04 1.047638062319e-04 0.0 
1.047638062319e-04 5.860731397451e-03 0.0 
0.0 0.0 0.0 
1.654339033517e-04 -2.608928471974e-05 0.0 
-2.608928471974e-05 3.312414334587e-03 0.0 
0.0 0.0 0.0 
-9.001208749626e-05 1.801602946139e-06 0.0 
1.801602946139e-06 6.892629583467e-03 0.0 
0.0 0.0 0.0 
-9.827104214422e-05 1.464050961075e-06 0.0 
1.464050961075e-06 6.663822035585e-03 0.0 
0.0 0.0 0.0 
9.940709928058e-05 2.501465679287e-04 0.0 
2.501465679287e-04 4.921349549231e-03 0.0 
0.0 0.0 0.0 
1.636502052444e-04 3.234368957007e-05 0.0 
3.234368957007e-05 2.704001890084e-03 0.0 
0.0 0.0 0.0 
1.132096074750e-04 3.493100547729e-04 0.0 
3.493100547729e-04 3.220549280430e-03 0.0 
0.0 0.0 0.0 
1.652269913506e-04 3.235834599428e-05 0.0 
3.235834599428e-05 2.882602571159e-03 0.0 
0.0 0.0 0.0 
1.799000036635e-04 4.450666411345e-05 0.0 
4.450666411345e-05 3.121698855062e-03 0.0 
0.0 0.0 0.0 
1.010571628910e-04 9.903532165287e-06 0.0 
9.903532165287e-06 1.820812694219e-03 0.0 
0.0 0.0 0.0 
1.182324836935e-04 1.614857048058e-04 0.0 
1.614857048058e-04 6.839150411602e-03 0.0 
0.0 0.0 0.0 
2.088218351262e-04 1.006406989326e-04 0.0 
1.006406989326e-04 3.863012894098e-03 0.0 
0.0 0.0 0.0 
-6.244355046692e-05 4.841361042803e-06 0.0 
4.841361042803e-06 7.767840027807e-03 0.0 
0.0 0.0 0.0 
2.112164094832e-04 1.250664619929e-04 0.0 
1.250664619929e-04 4.118154104047e-03 0.0 
0.0 0.0 0.0 
1.835257349057e-04 1.512208982593e-04 0.0 
1.512208982593e-04 5.586349137177e-03 0.0 
0.0 0.0 0.0 
2.040394059322e-04 1.277621231835e-04 0.0 
1.277621231835e-04 4.719066203746e-03 0.0 
0.0 0.0 0.0 
-5.383773099499e-05 2.716565764671e-04 0.0 
2.716565764671e-04 5.161372193137e-03 0.0 
0.0 0.0 0.0 
9.165562964086e-05 -5.731916370275e-05 0.0 
-5.731916370275e-05 1.831979646877e-03 0.0 
0.0 0.0 0.0 
1.063466397082e-04 2.028044903853e-04 0.0 
2.028044903853e-04 7.164733076791e-03 0.0 
0.0 0.0 0.0 
8.069557608881e-05 1.625617630904e-04 0.0 
1.625617630904e-04 7.474371167017e-03 0.0 
0.0 0.0 0.0 
-1.039025269969e-04 2.639174377422e-04 0.0 
2.639174377422e-04 6.611455341772e-03 0.0 
0.0 0.0 0.0 
1.924459730944e-04 6.058508559502e-05 0.0 
6.058508559502e-05 3.364049914933e-03 0.0 
0.0 0.0 0.0 
1.956243024255e-04 1.397282751617e-04 0.0 
1.397282751617e-04 5.151628378791e-03 0.0 
0.0 0.0 0.0 
-8.188709604617e-05 6.079509047754e-05 0.0 
6.079509047754e-05 6.885762711667e-03 0.0 
0.0 0.0 0.0 
1.756452144979e-04 -1.349962671560e-05 0.0 
-1.349962671560e-05 3.553942077980e-03 0.0 
0.0 0.0 0.0 
-1.304763357478e-04 2.419731332147e-04 0.0 
2.419731332147e-04 4.570151394492e-03 0.0 
0.0 0.0 0.0 
1.350154502364e-04 -4.393400626743e-05 0.0 
-4.393400626743e-05 2.657525045100e-03 0.0 
0.0 0.0 0.0 
1.526726861483e-04 -1.400366864314e-05 0.0 
-1.400366864314e-05 2.291449386416e-03 0.0 
0.0 0.0 0.0 
1.853776878802e-04 6.022472297172e-06 0.0 
6.022472297172e-06 3.621857596906e-03 0.0 
0.0 0.0 0.0 
1.322518499394e-04 1.777704343188e-05 0.0 
1.777704343188e-05 2.411765277805e-03 0.0 
0.0 0.0 0.0 
1.085663175606e-04 -4.934505550605e-05 0.0 
-4.934505550605e-05 2.187747171563e-03 0.0 
0.0 0.0 0.0 
1.912909642470e-04 5.645064122596e-05 0.0 
5.645064122596e-05 4.730072307651e-03 0.0 
0.0 0.0 0.0 
1.769957467446e-04 1.412401569618e-04 0.0 
1.412401569618e-04 5.761256642496e-03 0.0 
0.0 0.0 0.0 
-7.472846101408e-05 2.789763386847e-04 0.0 
2.789763386847e-04 7.649987106568e-03 0.0 
0.0 0.0 0.0 
-7.976768782492e-05 -1.104253781974e-06 0.0 
-1.104253781974e-06 1.510897555550e-04 0.0 
0.0 0.0 0.0 
2.076991739195e-04 1.830089998356e-04 0.0 
1.830089998356e-04 4.048326201592e-03 0.0 
0.0 0.0 0.0 
2.128458126860e-04 1.372943381794e-04 0.0 
1.372943381794e-04 3.948717780812e-03 0.0 
0.0 0.0 0.0 
2.024093071871e-04 7.914056415123e-05 0.0 
7.914056415123e-05 3.611214304524e-03 0.0 
0.0 0.0 0.0 
-8.864678296927e-05 5.974437889171e-05 0.0 
5.974437889171e-05 6.657107829094e-03 0.0 
0.0 0.0 0.0 
2.085825035218e-04 1.149983894794e-04 0.0 
1.149983894794e-04 4.289043376803e-03 0.0 
0.0 0.0 0.0 
1.521724783229e-04 2.699318278795e-05 0.0 
2.699318278795e-05 2.827937767903e-03 0.0 
0.0 0.0 0.0 
1.925456896839e-04 2.778526121452e-05 0.0 
2.778526121452e-05 3.874274882173e-03 0.0 
0.0 0.0 0.0 
-5.987302342936e-05 5.625272235644e-05 0.0 
5.625272235644e-05 7.573812299765e-03 0.0 
0.0 0.0 0.0 
1.368928475316e-04 -4.056055280355e-05 0.0 
-4.056055280355e-05 2.838511211285e-03 0.0 
0.0 0.0 0.0 
4.169197243264e-05 6.932497469446e-06 0.0 
6.932497469446e-06 9.989989529144e-04 0.0 
0.0 0.0 0.0 
7.100479060917e-05 5.205811912479e-06 0.0 
5.205811912479e-06 1.414419445085e-03 0.0 
0.0 0.0 0.0 
1.804208853247e-04 6.166863098546e-05 0.0 
6.166863098546e-05 2.453055600405e-03 0.0 
0.0 0.0 0.0 
1.797465968270e-04 4.614709705363e-05 0.0 
4.614709705363e-05 2.945871170859e-03 0.0 
0.0 0.0 0.0 
2.093720352199e-04 1.660965027443e-04 0.0 
1.660965027443e-04 4.211231085949e-03 0.0 
0.0 0.0 0.0 
1.963217131824e-04 5.174449875839e-05 0.0 
5.174449875839e-05 4.130274097117e-03 0.0 
0.0 0.0 0.0 
9.481701204606e-05 -5.734066644454e-05 0.0 
-5.734066644454e-05 1.632460057581e-03 0.0 
0.0 0.0 0.0 
6.148930728500e-05 -6.378474564162e-05 0.0 
-6.378474564162e-05 1.424605188394e-03 0.0 
0.0 0.0 0.0 
-1.235042249302e-04 4.676296582323e-06 0.0 
4.676296582323e-06 6.383593089295e-03 0.0 
0.0 0.0 0.0 
1.218116597108e-04 -4.915487828796e-05 0.0 
-4.915487828796e-05 2.422024129375e-03 0.0 
0.0 0.0 0.0 
1.421227518550e-04 2.050310840427e-04 0.0 
2.050310840427e-04 6.557177833898e-03 0.0 
0.0 0.0 0.0 
-7.430885798787e-05 2.852448343367e-04 0.0 
2.852448343367e-04 7.396964219236e-03 0.0 
0.0 0.0 0.0 
-1.571787310659e-04 7.338758228516e-05 0.0 
7.338758228516e-05 6.444101260510e-03 0.0 
0.0 0.0 0.0 
-6.637661644537e-05 9.788817849057e-05 0.0 
9.788817849057e-05 7.856777565503e-03 0.0 
0.0 0.0 0.0 
-6.597493498639e-05 2.740653812271e-04 0.0 
2.740653812271e-04 7.895583753643e-03 0.0 
0.0 0.0 0.0 
7.374103071989e-05 2.674625998680e-04 0.0 
2.674625998680e-04 4.801489916520e-03 0.0 
0.0 0.0 0.0 
-8.956331412813e-05 2.740965488159e-04 0.0 
2.740965488159e-04 7.002506565041e-03 0.0 
0.0 0.0 0.0 
1.232553030843e-04 -3.565770304337e-05 0.0 
-3.565770304337e-05 1.874298100252e-03 0.0 
0.0 0.0 0.0 
1.905937851956e-04 2.111927183597e-05 0.0 
2.111927183597e-05 4.047453412477e-03 0.0 
0.0 0.0 0.0 
-1.023191409022e-05 3.394975318379e-04 0.0 
3.394975318379e-04 4.577652952884e-03 0.0 
0.0 0.0 0.0 
1.998025366559e-04 1.397212572592e-04 0.0 
1.397212572592e-04 2.192621280202e-03 0.0 
0.0 0.0 0.0 
8.211549151005e-05 -5.508497822545e-05 0.0 
-5.508497822545e-05 1.466347827327e-03 0.0 
0.0 0.0 0.0 
1.795242064986e-04 4.315689186086e-05 0.0 
4.315689186086e-05 3.301751670384e-03 0.0 
0.0 0.0 0.0 
1.978425001212e-04 6.228116999618e-05 0.0 
6.228116999618e-05 3.961761937820e-03 0.0 
0.0 0.0 0.0 
1.969841123397e-04 9.000899967803e-05 0.0 
9.000899967803e-05 4.223488388251e-03 0.0 
0.0 0.0 0.0 
1.362156994515e-04 1.949808238286e-05 0.0 
1.949808238286e-05 2.591919880093e-03 0.0 
0.0 0.0 0.0 
2.073017284463e-04 1.383142994430e-04 0.0 
1.383142994430e-04 4.546783703078e-03 0.0 
0.0 0.0 0.0 
1.963749117515e-04 1.059640164804e-04 0.0 
1.059640164804e-04 4.061735924848e-03 0.0 
0.0 0.0 0.0 
1.957222971705e-04 2.124156278799e-04 0.0 
2.124156278799e-04 4.320848016502e-03 0.0 
0.0 0.0 0.0 
1.621508850225e-04 -2.517005421908e-05 0.0 
-2.517005421908e-05 2.956570113142e-03 0.0 
0.0 0.0 0.0 
8.946367362728e-05 2.351114965646e-04 0.0 
2.351114965646e-04 6.323259429214e-03 0.0 
0.0 0.0 0.0 
-9.184958769271e-05 1.043184178978e-05 0.0 
1.043184178978e-05 7.081490850117e-03 0.0 
0.0 0.0 0.0 
1.878853668522e-04 2.340316300210e-04 0.0 
2.340316300210e-04 4.169490828465e-03 0.0 
0.0 0.0 0.0 
1.192339937657e-04 2.163397170765e-04 0.0 
2.163397170765e-04 6.997821744504e-03 0.0 
0.0 0.0 0.0 
1.497160952137e-04 -7.564834587357e-06 0.0 
-7.564834587357e-06 2.116832890316e-03 0.0 
0.0 0.0 0.0 
8.454208826802e-05 2.666526095711e-04 0.0 
2.666526095711e-04 7.564247798162e-03 0.0 
0.0 0.0 0.0 
2.090722232897e-04 1.510760203774e-04 0.0 
1.510760203774e-04 4.376437020546e-03 0.0 
0.0 0.0 0.0 
-5.358638588471e-05 2.818953686839e-04 0.0 
2.818953686839e-04 8.172617035633e-03 0.0 
0.0 0.0 0.0 
-1.573826352472e-04 1.498927250752e-04 0.0 
1.498927250752e-04 6.448266663044e-03 0.0 
0.0 0.0 0.0 
1.553552924443e-04 4.375322421332e-05 0.0 
4.375322421332e-05 2.037351653068e-03 0.0 
0.0 0.0 0.0 
-1.563059149207e-04 9.272566365732e-05 0.0 
9.272566365732e-05 6.606460054013e-03 0.0 
0.0 0.0 0.0 
-7.055234030062e-05 1.281088432818e-04 0.0 
1.281088432818e-04 7.984393062479e-03 0.0 
0.0 0.0 0.0 
2.021466731690e-04 1.771773030790e-04 0.0 
1.771773030790e-04 4.640873621997e-03 0.0 
0.0 0.0 0.0 
-8.237654027221e-05 2.938818780131e-04 0.0 
2.938818780131e-04 3.979356851799e-03 0.0 
0.0 0.0 0.0 
-1.528229437624e-04 1.129885956286e-04 0.0 
1.129885956286e-04 6.765627266179e-03 0.0 
0.0 0.0 0.0 
-1.327249263351e-04 2.536931077069e-04 0.0 
2.536931077069e-04 5.202286302323e-03 0.0 
0.0 0.0 0.0 
1.212015154393e-04 2.738592632665e-05 0.0 
2.738592632665e-05 1.618461689079e-03 0.0 
0.0 0.0 0.0 
-2.853651586820e-05 1.181531705210e-04 0.0 
1.181531705210e-04 8.679418248145e-03 0.0 
0.0 0.0 0.0 
8.389564246780e-05 1.462185089568e-05 0.0 
1.462185089568e-05 1.392015436647e-03 0.0 
0.0 0.0 0.0 
3.015830313147e-05 2.795044417744e-04 0.0 
2.795044417744e-04 7.734821956922e-03 0.0 
0.0 0.0 0.0 
-4.406272259982e-05 6.779884139622e-05 0.0 
6.779884139622e-05 8.172031848318e-03 0.0 
0.0 0.0 0.0 
9.938985254432e-05 2.243258144388e-04 0.0 
2.243258144388e-04 6.465245910531e-03 0.0 
0.0 0.0 0.0 
-8.837968842201e-05 5.575224262183e-05 0.0 
5.575224262183e-05 6.463685001526e-03 0.0 
0.0 0.0 0.0 
-8.034599605244e-05 2.946081917336e-05 0.0 
2.946081917336e-05 7.681581672186e-03 0.0 
0.0 0.0 0.0 
1.888092352058e-04 1.364642805744e-04 0.0 
1.364642805744e-04 4.333233974377e-03 0.0 
0.0 0.0 0.0 
9.178547129030e-05 2.465959561158e-04 0.0 
2.465959561158e-04 5.342886478700e-03 0.0 
0.0 0.0 0.0 
-4.664948667366e-05 1.071573991226e-04 0.0 
1.071573991226e-04 8.261705169688e-03 0.0 
0.0 0.0 0.0 
1.596036822455e-04 1.518643108556e-04 0.0 
1.518643108556e-04 6.198812664048e-03 0.0 
0.0 0.0 0.0 
-9.207115790422e-05 2.067564730826e-05 0.0 
2.067564730826e-05 7.268514452708e-03 0.0 
0.0 0.0 0.0 
1.475708705798e-04 2.420945273773e-04 0.0 
2.420945273773e-04 6.046749067205e-03 0.0 
0.0 0.0 0.0 
1.533103643090e-04 4.927951347630e-05 0.0 
4.927951347630e-05 1.860747280587e-03 0.0 
0.0 0.0 0.0 
-9.122449965426e-05 3.172030198682e-05 0.0 
3.172030198682e-05 7.452778607378e-03 0.0 
0.0 0.0 0.0 
-3.191766931687e-05 3.115307439918e-04 0.0 
3.115307439918e-04 8.536709540768e-03 0.0 
0.0 0.0 0.0 
9.198261206711e-05 2.331664189080e-04 0.0 
2.331664189080e-04 7.458560286923e-03 0.0 
0.0 0.0 0.0 
2.059968920869e-04 9.300522423466e-05 0.0 
9.300522423466e-05 4.036405521511e-03 0.0 
0.0 0.0 0.0 
-9.539725891494e-05 -6.924522030260e-06 0.0 
-6.924522030260e-06 6.469532433497e-03 0.0 
0.0 0.0 0.0 
-9.466655118606e-05 5.376364014903e-05 0.0 
5.376364014903e-05 6.236866518871e-03 0.0 
0.0 0.0 0.0 
1.960590849959e-04 7.604070766969e-05 0.0 
7.604070766969e-05 4.388033457845e-03 0.0 
0.0 0.0 0.0 
1.678232950624e-04 1.624080899884e-04 0.0 
1.624080899884e-04 6.023230416991e-03 0.0 
0.0 0.0 0.0 
1.562327122178e-04 1.837478178629e-04 0.0 
1.837478178629e-04 6.288263512428e-03 0.0 
0.0 0.0 0.0 
5.570260894627e-05 -6.561496229988e-05 0.0 
-6.561496229988e-05 1.240791392801e-03 0.0 
0.0 0.0 0.0 
1.218329079753e-04 3.590221271296e-04 0.0 
3.590221271296e-04 2.791137847119e-03 0.0 
0.0 0.0 0.0 
1.664174017271e-04 2.612569657665e-04 0.0 
2.612569657665e-04 4.455710701371e-03 0.0 
0.0 0.0 0.0 
1.833662059829e-04 1.564882376317e-04 0.0 
1.564882376317e-04 4.182530032465e-03 0.0 
0.0 0.0 0.0 
-9.439482348461e-05 2.958902177322e-04 0.0 
2.958902177322e-04 5.048418947285e-03 0.0 
0.0 0.0 0.0 
-4.294805194738e-05 4.767069784941e-05 0.0 
4.767069784941e-05 8.491537705422e-03 0.0 
0.0 0.0 0.0 
-8.006557895313e-05 1.858664713221e-04 0.0 
1.858664713221e-04 8.029714957671e-03 0.0 
0.0 0.0 0.0 
-4.940967343248e-05 1.101769868676e-05 0.0 
1.101769868676e-05 8.176482907163e-03 0.0 
0.0 0.0 0.0 
-1.843012694011e-04 1.349145466362e-04 0.0 
1.349145466362e-04 4.820904633881e-03 0.0 
0.0 0.0 0.0 
-8.674612861548e-05 1.153643280339e-04 0.0 
1.153643280339e-04 7.579139426024e-03 0.0 
0.0 0.0 0.0 
1.587049310665e-04 9.484971223190e-05 0.0 
9.484971223190e-05 6.033552835182e-03 0.0 
0.0 0.0 0.0 
-4.589610227901e-05 9.280601138920e-05 0.0 
9.280601138920e-05 8.313253230938e-03 0.0 
0.0 0.0 0.0 
-1.021279247615e-04 3.295544475767e-05 0.0 
3.295544475767e-05 7.223727193982e-03 0.0 
0.0 0.0 0.0 
1.940805193463e-04 4.236136275610e-05 0.0 
4.236136275610e-05 4.300391826823e-03 0.0 
0.0 0.0 0.0 
1.498295466276e-04 2.841716929135e-04 0.0 
2.841716929135e-04 4.317427645663e-03 0.0 
0.0 0.0 0.0 
-8.008225500988e-05 8.816953800706e-05 0.0 
8.816953800706e-05 7.446161420263e-03 0.0 
0.0 0.0 0.0 
-6.484849035371e-05 3.740739583637e-05 0.0 
3.740739583637e-05 8.092876280143e-03 0.0 
0.0 0.0 0.0 
-7.129783513493e-05 7.679064404959e-05 0.0 
7.679064404959e-05 7.489422712041e-03 0.0 
0.0 0.0 0.0 
-8.131606454709e-05 7.767638710136e-05 0.0 
7.767638710136e-05 7.261845560941e-03 0.0 
0.0 0.0 0.0 
1.237687245099e-04 1.854190731053e-04 0.0 
1.854190731053e-04 6.903657076863e-03 0.0 
0.0 0.0 0.0 
1.975033324464e-05 2.776762183915e-04 0.0 
2.776762183915e-04 7.595090643895e-03 0.0 
0.0 0.0 0.0 
1.349565716067e-04 1.947903730229e-04 0.0 
1.947903730229e-04 6.727682480235e-03 0.0 
0.0 0.0 0.0 
1.902100057591e-04 1.300368393934e-04 0.0 
1.300368393934e-04 5.326133769844e-03 0.0 
0.0 0.0 0.0 
-1.654463718554e-04 9.346588255505e-05 0.0 
9.346588255505e-05 4.766909395514e-03 0.0 
0.0 0.0 0.0 
7.688087231505e-05 2.412929274465e-04 0.0 
2.412929274465e-04 6.746144105819e-03 0.0 
0.0 0.0 0.0 
-1.097297166480e-04 1.188140087091e-04 0.0 
1.188140087091e-04 7.123543058571e-03 0.0 
0.0 0.0 0.0 
1.164202906208e-04 1.492753586464e-05 0.0 
1.492753586464e-05 2.177988699669e-03 0.0 
0.0 0.0 0.0 
1.670528286382e-04 1.863795185270e-04 0.0 
1.863795185270e-04 4.467768101349e-03 0.0 
0.0 0.0 0.0 
1.674209362277e-04 2.432649576435e-04 0.0 
2.432649576435e-04 5.027256281256e-03 0.0 
0.0 0.0 0.0 
8.383439652593e-05 2.449756070129e-04 0.0 
2.449756070129e-04 5.764721133951e-03 0.0 
0.0 0.0 0.0 
2.055010708717e-04 2.257292949709e-04 0.0 
2.257292949709e-04 2.293841112664e-03 0.0 
0.0 0.0 0.0 
1.543974344325e-04 2.097540804841e-04 0.0 
2.097540804841e-04 4.329933860274e-03 0.0 
0.0 0.0 0.0 
7.521977892999e-05 2.453105174177e-04 0.0 
2.453105174177e-04 6.187028161036e-03 0.0 
0.0 0.0 0.0 
-1.681832514682e-04 1.407196186401e-04 0.0 
1.407196186401e-04 5.294443242768e-03 0.0 
0.0 0.0 0.0 
2.048554830518e-04 1.060368173299e-04 0.0 
1.060368173299e-04 4.463739127528e-03 0.0 
0.0 0.0 0.0 
-1.099811943066e-04 2.107330950315e-05 0.0 
2.107330950315e-05 6.808098169943e-03 0.0 
0.0 0.0 0.0 
-9.432478855875e-05 3.443496844274e-05 0.0 
3.443496844274e-05 5.595199125512e-03 0.0 
0.0 0.0 0.0 
-7.683122605173e-05 1.863294096946e-04 0.0 
1.863294096946e-04 1.597565342313e-03 0.0 
0.0 0.0 0.0 
1.843362822880e-04 6.974387045879e-05 0.0 
6.974387045879e-05 5.162387230784e-03 0.0 
0.0 0.0 0.0 
1.081082311127e-04 2.774579139790e-04 0.0 
2.774579139790e-04 6.602016791509e-03 0.0 
0.0 0.0 0.0 
-6.579791585548e-05 1.840263298593e-04 0.0 
1.840263298593e-04 8.253886404608e-03 0.0 
0.0 0.0 0.0 
1.118192745515e-04 2.993148495782e-04 0.0 
2.993148495782e-04 5.038901045651e-03 0.0 
0.0 0.0 0.0 
1.995639876684e-04 1.185001606086e-04 0.0 
1.185001606086e-04 4.893789258195e-03 0.0 
0.0 0.0 0.0 
-1.017292634153e-04 1.120129510747e-05 0.0 
1.120129510747e-05 6.853615296449e-03 0.0 
0.0 0.0 0.0 
-9.861061209415e-05 1.329466735885e-04 0.0 
1.329466735885e-04 2.077113315137e-03 0.0 
0.0 0.0 0.0 
9.975266692286e-05 2.877635022852e-04 0.0 
2.877635022852e-04 6.455687505419e-03 0.0 
0.0 0.0 0.0 
1.103782866845e-04 2.312647730098e-04 0.0 
2.312647730098e-04 5.473485718108e-03 0.0 
0.0 0.0 0.0 
-1.808238156084e-04 9.630149006668e-05 0.0 
9.630149006668e-05 5.530349008750e-03 0.0 
0.0 0.0 0.0 
1.476671632621e-04 1.173241785015e-04 0.0 
1.173241785015e-04 6.298339102171e-03 0.0 
0.0 0.0 0.0 
1.693078774545e-04 4.591430744686e-05 0.0 
4.591430744686e-05 2.204792320631e-03 0.0 
0.0 0.0 0.0 
1.343222412593e-04 1.394688039854e-04 0.0 
1.394688039854e-04 6.567191538102e-03 0.0 
0.0 0.0 0.0 
1.013601362920e-04 2.397530306604e-04 0.0 
2.397530306604e-04 7.272574645794e-03 0.0 
0.0 0.0 0.0 
8.709176341126e-05 2.971783149265e-04 0.0 
2.971783149265e-04 6.313964289292e-03 0.0 
0.0 0.0 0.0 
-8.167585739960e-05 1.922626839221e-05 0.0 
1.922626839221e-05 7.496337923405e-03 0.0 
0.0 0.0 0.0 
-5.854217409451e-05 2.556050162084e-04 0.0 
2.556050162084e-04 7.275908627627e-03 0.0 
0.0 0.0 0.0 
9.375349825413e-05 1.745015084330e-04 0.0 
1.745015084330e-04 7.280878303918e-03 0.0 
0.0 0.0 0.0 
-1.240043948642e-04 1.064097038539e-04 0.0 
1.064097038539e-04 2.525082744864e-03 0.0 
0.0 0.0 0.0 
-1.015852316273e-04 2.200934417116e-05 0.0 
2.200934417116e-05 7.039654217129e-03 0.0 
0.0 0.0 0.0 
-8.765980033298e-06 2.824242311369e-04 0.0 
2.824242311369e-04 7.716237313215e-03 0.0 
0.0 0.0 0.0 
-6.978821066594e-05 8.698917434596e-05 0.0 
8.698917434596e-05 7.674745535063e-03 0.0 
0.0 0.0 0.0 
9.576074679085e-05 2.958970100500e-04 0.0 
2.958970100500e-04 5.888691761958e-03 0.0 
0.0 0.0 0.0 
1.285479340476e-04 2.330150793420e-04 0.0 
2.330150793420e-04 4.624117916659e-03 0.0 
0.0 0.0 0.0 
1.885514177775e-04 7.036257588302e-05 0.0 
7.036257588302e-05 4.754184114316e-03 0.0 
0.0 0.0 0.0 
1.889793029388e-04 2.114704047142e-04 0.0 
2.114704047142e-04 1.255868064966e-03 0.0 
0.0 0.0 0.0 
-5.886630886520e-05 8.506055508694e-05 0.0 
8.506055508694e-05 7.901848499458e-03 0.0 
0.0 0.0 0.0 
1.236279581649e-04 2.039639899643e-05 0.0 
2.039639899643e-05 2.360025893996e-03 0.0 
0.0 0.0 0.0 
-1.400004340151e-04 7.931958880244e-05 0.0 
7.931958880244e-05 2.950320061760e-03 0.0 
0.0 0.0 0.0 
-7.715575960565e-05 2.449387449334e-04 0.0 
2.449387449334e-04 7.141156413480e-03 0.0 
0.0 0.0 0.0 
-3.848635898007e-05 7.743134569236e-05 0.0 
7.743134569236e-05 8.366025084800e-03 0.0 
0.0 0.0 0.0 
1.464153092081e-04 2.887041849855e-06 0.0 
2.887041849855e-06 1.947499472043e-03 0.0 
0.0 0.0 0.0 
-1.337950138561e-04 2.089831970304e-04 0.0 
2.089831970304e-04 5.845156460052e-03 0.0 
0.0 0.0 0.0 
-8.976017264639e-05 8.932052633473e-05 0.0 
8.932052633473e-05 7.217221291917e-03 0.0 
0.0 0.0 0.0 
1.875829106539e-04 2.919908228712e-05 0.0 
2.919908228712e-05 4.652479753417e-03 0.0 
0.0 0.0 0.0 
1.794574480523e-04 1.206461058451e-04 0.0 
1.206461058451e-04 2.310584047289e-03 0.0 
0.0 0.0 0.0 
-6.579698944298e-05 3.479427369187e-04 0.0 
3.479427369187e-04 3.679003790348e-03 0.0 
0.0 0.0 0.0 
1.191940263492e-04 2.569805089859e-05 0.0 
2.569805089859e-05 1.452612276436e-03 0.0 
0.0 0.0 0.0 
1.809669851216e-04 9.529946626722e-05 0.0 
9.529946626722e-05 1.935914867117e-03 0.0 
0.0 0.0 0.0 
1.490949465446e-04 5.785975435428e-05 0.0 
5.785975435428e-05 1.696436093826e-03 0.0 
0.0 0.0 0.0 
1.039401217831e-04 2.966483799494e-04 0.0 
2.966483799494e-04 5.463780298814e-03 0.0 
0.0 0.0 0.0 
-1.701412067245e-05 1.340886542419e-04 0.0 
1.340886542419e-04 9.126976248580e-03 0.0 
0.0 0.0 0.0 
-1.472765213660e-04 6.612166497072e-05 0.0 
6.612166497072e-05 3.384499309691e-03 0.0 
0.0 0.0 0.0 
1.123787396811e-04 1.720930588993e-04 0.0 
1.720930588993e-04 7.080394285360e-03 0.0 
0.0 0.0 0.0 
9.939635294498e-05 3.303923483131e-04 0.0 
3.303923483131e-04 4.068983388120e-03 0.0 
0.0 0.0 0.0 
-1.131676962419e-04 3.329807313853e-05 0.0 
3.329807313853e-05 6.996832780963e-03 0.0 
0.0 0.0 0.0 
1.964050817536e-04 2.464240822112e-04 0.0 
2.464240822112e-04 1.702265273237e-03 0.0 
0.0 0.0 0.0 
7.140274702988e-05 1.995619752206e-04 0.0 
1.995619752206e-04 7.560427862095e-03 0.0 
0.0 0.0 0.0 
1.190025425493e-04 -2.970037418457e-05 0.0 
-2.970037418457e-05 1.704787684319e-03 0.0 
0.0 0.0 0.0 
1.445255544230e-04 2.546976069048e-05 0.0 
2.546976069048e-05 2.786652005499e-03 0.0 
0.0 0.0 0.0 
6.362722791509e-05 3.081045590492e-04 0.0 
3.081045590492e-04 6.600522741024e-03 0.0 
0.0 0.0 0.0 
1.912033884772e-04 1.178870433767e-04 0.0 
1.178870433767e-04 4.488618838819e-03 0.0 
0.0 0.0 0.0 
6.112262706859e-06 2.765142635345e-04 0.0 
2.765142635345e-04 7.456444624012e-03 0.0 
0.0 0.0 0.0 
-1.430055202633e-04 2.363411545203e-04 0.0 
2.363411545203e-04 4.193203582618e-03 0.0 
0.0 0.0 0.0 
-1.143687623217e-04 6.477891635031e-05 0.0 
6.477891635031e-05 7.358435687130e-03 0.0 
0.0 0.0 0.0 
3.915932092524e-05 3.364458089999e-04 0.0 
3.364458089999e-04 7.726060245645e-03 0.0 
0.0 0.0 0.0 
-9.074615447469e-05 7.855326074248e-05 0.0 
7.855326074248e-05 7.033376038022e-03 0.0 
0.0 0.0 0.0 
-8.330529973610e-05 1.329257750852e-04 0.0 
1.329257750852e-04 8.261652282972e-03 0.0 
0.0 0.0 0.0 
-9.006197605421e-05 4.435249550681e-05 0.0 
4.435249550681e-05 7.633884240778e-03 0.0 
0.0 0.0 0.0 
-8.828894354485e-05 5.825497083054e-05 0.0 
5.825497083054e-05 7.814215737053e-03 0.0 
0.0 0.0 0.0 
8.211227209576e-05 4.013741904598e-04 0.0 
4.013741904598e-04 2.285472130788e-03 0.0 
0.0 0.0 0.0 
1.272223047455e-04 1.496585690707e-04 0.0 
1.496585690707e-04 6.813768904954e-03 0.0 
0.0 0.0 0.0 
-8.852733200659e-05 1.012748486853e-04 0.0 
1.012748486853e-04 7.400093616466e-03 0.0 
0.0 0.0 0.0 
2.661989282360e-05 3.297845615203e-04 0.0 
3.297845615203e-04 5.088030688868e-03 0.0 
0.0 0.0 0.0 
-1.562624428436e-04 5.906217229365e-05 0.0 
5.906217229365e-05 3.819067268186e-03 0.0 
0.0 0.0 0.0 
1.688283895063e-05 2.917314625294e-04 0.0 
2.917314625294e-04 8.003499281575e-03 0.0 
0.0 0.0 0.0 
1.661560757042e-04 3.235693818352e-04 0.0 
3.235693818352e-04 2.459912487683e-03 0.0 
0.0 0.0 0.0 
1.299233797076e-04 -4.690075638690e-05 0.0 
-4.690075638690e-05 2.601559714195e-03 0.0 
0.0 0.0 0.0 
2.512711529046e-05 3.261933778639e-04 0.0 
3.261933778639e-04 7.170121319424e-03 0.0 
0.0 0.0 0.0 
7.215267288951e-05 -3.186977652189e-05 0.0 
-3.186977652189e-05 1.536610362955e-03 0.0 
0.0 0.0 0.0 
-7.752887296097e-05 2.579956057717e-04 0.0 
2.579956057717e-04 5.438403017744e-03 0.0 
0.0 0.0 0.0 
7.708815979579e-05 3.003759098616e-04 0.0 
3.003759098616e-04 6.738253521712e-03 0.0 
0.0 0.0 0.0 
-7.001849763733e-05 7.161879864139e-05 0.0 
7.161879864139e-05 8.208879130243e-03 0.0 
0.0 0.0 0.0 
-6.590599055090e-05 8.869039579547e-05 0.0 
8.869039579547e-05 8.391927908443e-03 0.0 
0.0 0.0 0.0 
6.535749706527e-05 2.481416812098e-04 0.0 
2.481416812098e-04 6.609242841490e-03 0.0 
0.0 0.0 0.0 
-7.795433202262e-05 4.126053469801e-05 0.0 
4.126053469801e-05 7.863567709685e-03 0.0 
0.0 0.0 0.0 
6.158164994075e-05 3.382172881387e-04 0.0 
3.382172881387e-04 4.376796491485e-03 0.0 
0.0 0.0 0.0 
-1.010608712101e-04 2.209757348440e-04 0.0 
2.209757348440e-04 7.265460826963e-03 0.0 
0.0 0.0 0.0 
-1.579477016453e-04 5.466617818863e-05 0.0 
5.466617818863e-05 4.252009130012e-03 0.0 
0.0 0.0 0.0 
-7.519145315482e-05 2.290121634687e-04 0.0 
2.290121634687e-04 8.089730043152e-03 0.0 
0.0 0.0 0.0 
-1.564742182824e-04 5.383549649305e-05 0.0 
5.383549649305e-05 4.683655010916e-03 0.0 
0.0 0.0 0.0 
-1.397420237504e-04 4.872145592394e-05 0.0 
4.872145592394e-05 4.894730351522e-03 0.0 
0.0 0.0 0.0 
8.797254439141e-05 3.155109404193e-04 0.0 
3.155109404193e-04 4.911825962357e-03 0.0 
0.0 0.0 0.0 
-1.482921666918e-04 5.891689370062e-05 0.0 
5.891689370062e-05 5.117128966402e-03 0.0 
0.0 0.0 0.0 
-4.146507368452e-05 2.638332390247e-04 0.0 
2.638332390247e-04 5.943933359233e-03 0.0 
0.0 0.0 0.0 
-2.546317644736e-05 2.834460172186e-04 0.0 
2.834460172186e-04 4.876851819304e-03 0.0 
0.0 0.0 0.0 
1.451735658415e-04 2.111808664515e-04 0.0 
2.111808664515e-04 4.756078924482e-03 0.0 
0.0 0.0 0.0 
2.024198559862e-04 1.667029441726e-04 0.0 
1.667029441726e-04 2.014728753354e-03 0.0 
0.0 0.0 0.0 
1.197830138213e-04 3.032552177658e-04 0.0 
3.032552177658e-04 4.613506839629e-03 0.0 
0.0 0.0 0.0 
-5.531514551460e-05 9.548071399208e-05 0.0 
9.548071399208e-05 8.085931445968e-03 0.0 
0.0 0.0 0.0 
-6.747747631308e-05 2.169104841316e-04 0.0 
2.169104841316e-04 8.222327997066e-03 0.0 
0.0 0.0 0.0 
1.501342244277e-04 1.411430306062e-04 0.0 
1.411430306062e-04 6.375853032561e-03 0.0 
0.0 0.0 0.0 
2.482887876032e-05 3.343599055751e-04 0.0 
3.343599055751e-04 7.586624460978e-03 0.0 
0.0 0.0 0.0 
2.001894185646e-04 1.935302571601e-04 0.0 
1.935302571601e-04 4.476755171695e-03 0.0 
0.0 0.0 0.0 
-7.407054034125e-05 1.138504443233e-04 0.0 
1.138504443233e-04 7.807460720554e-03 0.0 
0.0 0.0 0.0 
1.404457172962e-04 2.831027781844e-04 0.0 
2.831027781844e-04 4.745355773855e-03 0.0 
0.0 0.0 0.0 
1.168786870409e-04 1.407387850890e-04 0.0 
1.407387850890e-04 6.994300378485e-03 0.0 
0.0 0.0 0.0 
-7.749882056940e-05 9.969902612984e-05 0.0 
9.969902612984e-05 7.627329166715e-03 0.0 
0.0 0.0 0.0 
-1.016418425877e-04 6.159320956109e-05 0.0 
6.159320956109e-05 7.585882566255e-03 0.0 
0.0 0.0 0.0 
1.109727079485e-04 2.839489093803e-04 0.0 
2.839489093803e-04 6.026997111324e-03 0.0 
0.0 0.0 0.0 
9.334246994119e-05 3.222948598064e-04 0.0 
3.222948598064e-04 4.490529842534e-03 0.0 
0.0 0.0 0.0 
-8.550752752623e-05 2.336107763880e-04 0.0 
2.336107763880e-04 7.653049626585e-03 0.0 
0.0 0.0 0.0 
-1.440905262775e-04 1.914501540191e-04 0.0 
1.914501540191e-04 6.442580880466e-03 0.0 
0.0 0.0 0.0 
1.652364610165e-04 6.128591615865e-05 0.0 
6.128591615865e-05 2.031785036015e-03 0.0 
0.0 0.0 0.0 
1.637278816395e-04 2.229084293296e-04 0.0 
2.229084293296e-04 2.476047062714e-03 0.0 
0.0 0.0 0.0 
-1.156057930320e-04 2.891024935612e-04 0.0 
2.891024935612e-04 4.286902255122e-03 0.0 
0.0 0.0 0.0 
-1.296342137702e-04 2.456842646849e-04 0.0 
2.456842646849e-04 5.840009028880e-03 0.0 
0.0 0.0 0.0 
1.035197442034e-04 1.308939682685e-04 0.0 
1.308939682685e-04 7.181585442757e-03 0.0 
0.0 0.0 0.0 
-1.027433527818e-04 4.619865810807e-05 0.0 
4.619865810807e-05 7.406686074868e-03 0.0 
0.0 0.0 0.0 
1.065482166482e-04 2.550453125811e-04 0.0 
2.550453125811e-04 4.500743187823e-03 0.0 
0.0 0.0 0.0 
-1.283198711413e-04 2.026241867966e-04 0.0 
2.026241867966e-04 6.482733072704e-03 0.0 
0.0 0.0 0.0 
8.743574761549e-05 2.958535306799e-04 0.0 
2.958535306799e-04 6.887606079728e-03 0.0 
0.0 0.0 0.0 
-6.868560383988e-05 2.716884118998e-05 0.0 
2.716884118998e-05 7.908975700658e-03 0.0 
0.0 0.0 0.0 
-8.694878254811e-05 2.355267513659e-04 0.0 
2.355267513659e-04 7.899791558274e-03 0.0 
0.0 0.0 0.0 
-1.087346075836e-04 8.796639871231e-05 0.0 
8.796639871231e-05 6.765186126588e-03 0.0 
0.0 0.0 0.0 
1.102630016114e-04 2.583791045524e-04 0.0 
2.583791045524e-04 6.944273258767e-03 0.0 
0.0 0.0 0.0 
1.197004176805e-04 2.315556445242e-04 0.0 
2.315556445242e-04 5.049059998827e-03 0.0 
0.0 0.0 0.0 
8.358096384509e-05 2.324864779627e-04 0.0 
2.324864779627e-04 6.893462742644e-03 0.0 
0.0 0.0 0.0 
-8.414683614344e-05 2.965306101925e-04 0.0 
2.965306101925e-04 5.432682046199e-03 0.0 
0.0 0.0 0.0 
-6.155306383226e-05 5.298578635904e-05 0.0 
5.298578635904e-05 8.267293659171e-03 0.0 
0.0 0.0 0.0 
-7.281971825424e-05 2.235359789402e-04 0.0 
2.235359789402e-04 8.176207186332e-03 0.0 
0.0 0.0 0.0 
1.212463138871e-04 2.821995490640e-04 0.0 
2.821995490640e-04 5.599201935181e-03 0.0 
0.0 0.0 0.0 
1.955580696014e-04 2.691369715813e-04 0.0 
2.691369715813e-04 2.144307002000e-03 0.0 
0.0 0.0 0.0 
-3.469943312417e-05 3.161736262116e-04 0.0 
3.161736262116e-04 7.400926818291e-03 0.0 
0.0 0.0 0.0 
-6.900524295861e-05 2.560881839352e-04 0.0 
2.560881839352e-04 5.825336567970e-03 0.0 
0.0 0.0 0.0 
7.860395385451e-05 2.759009427148e-04 0.0 
2.759009427148e-04 4.386410457403e-03 0.0 
0.0 0.0 0.0 
1.004011639214e-04 2.322972677674e-04 0.0 
2.322972677674e-04 5.898174540269e-03 0.0 
0.0 0.0 0.0 
1.227161263320e-04 1.709434440508e-04 0.0 
1.709434440508e-04 6.673543803275e-03 0.0 
0.0 0.0 0.0 
1.756606106864e-04 1.587329045058e-04 0.0 
1.587329045058e-04 2.162319664688e-03 0.0 
0.0 0.0 0.0 
1.309537842134e-04 2.818911516836e-04 0.0 
2.818911516836e-04 5.172298498799e-03 0.0 
0.0 0.0 0.0 
-1.368693110867e-04 1.582774145560e-04 0.0 
1.582774145560e-04 6.759478076753e-03 0.0 
0.0 0.0 0.0 
9.891452819466e-05 6.423298318068e-05 0.0 
6.423298318068e-05 7.190937155214e-03 0.0 
0.0 0.0 0.0 
-1.313066579149e-04 1.786018205823e-04 0.0 
1.786018205823e-04 6.914168333032e-03 0.0 
0.0 0.0 0.0 
-5.256547024701e-05 3.062385974198e-04 0.0 
3.062385974198e-04 7.268511662655e-03 0.0 
0.0 0.0 0.0 
-1.400824845045e-04 1.382433902365e-04 0.0 
1.382433902365e-04 6.600392603126e-03 0.0 
0.0 0.0 0.0 
-1.441034915768e-04 1.044315345323e-04 0.0 
1.044315345323e-04 6.269490227027e-03 0.0 
0.0 0.0 0.0 
-1.343726225121e-04 2.137104267519e-04 0.0 
2.137104267519e-04 6.586673011779e-03 0.0 
0.0 0.0 0.0 
3.942166965221e-05 3.267620683023e-04 0.0 
3.267620683023e-04 7.307583449754e-03 0.0 
0.0 0.0 0.0 
1.310210911876e-04 9.595698357980e-05 0.0 
9.595698357980e-05 6.648956359865e-03 0.0 
0.0 0.0 0.0 
-9.970242659141e-05 1.015297239179e-04 0.0 
1.015297239179e-04 7.173510749272e-03 0.0 
0.0 0.0 0.0 
-5.243791590648e-05 1.375420177712e-04 0.0 
1.375420177712e-04 8.385749682726e-03 0.0 
0.0 0.0 0.0 
-1.417022816648e-04 1.197327544032e-04 0.0 
1.197327544032e-04 6.437704060262e-03 0.0 
0.0 0.0 0.0 
1.205518677103e-04 2.661088893235e-04 0.0 
2.661088893235e-04 3.657506609568e-03 0.0 
0.0 0.0 0.0 
-4.891358686387e-05 2.650020530220e-04 0.0 
2.650020530220e-04 7.672537011820e-03 0.0 
0.0 0.0 0.0 
-5.101582651734e-05 3.184952421351e-05 0.0 
3.184952421351e-05 8.320307550270e-03 0.0 
0.0 0.0 0.0 
-3.308727054252e-05 3.215570746961e-04 0.0 
3.215570746961e-04 5.262970715981e-03 0.0 
0.0 0.0 0.0 
-5.571512042779e-05 3.102709327442e-04 0.0 
3.102709327442e-04 5.544858726361e-03 0.0 
0.0 0.0 0.0 
1.135476454477e-04 2.603637976835e-04 0.0 
2.603637976835e-04 4.079857324794e-03 0.0 
0.0 0.0 0.0 
-9.872102756237e-05 1.173029113818e-04 0.0 
1.173029113818e-04 7.351405279899e-03 0.0 
0.0 0.0 0.0 
-1.593806935214e-04 2.135918086439e-04 0.0 
2.135918086439e-04 4.704028625140e-03 0.0 
0.0 0.0 0.0 
-2.155756469469e-05 3.172445327020e-04 0.0 
3.172445327020e-04 6.057651985077e-03 0.0 
0.0 0.0 0.0 
-1.670096216631e-04 1.875815106105e-04 0.0 
1.875815106105e-04 4.707600926087e-03 0.0 
0.0 0.0 0.0 
4.271549586243e-05 3.182795379678e-04 0.0 
3.182795379678e-04 6.886772591254e-03 0.0 
0.0 0.0 0.0 
-3.743957907532e-05 2.817721519697e-04 0.0 
2.817721519697e-04 8.056660846310e-03 0.0 
0.0 0.0 0.0 
1.367215364925e-04 2.345830126502e-04 0.0 
2.345830126502e-04 4.200089030624e-03 0.0 
0.0 0.0 0.0 
1.278753971929e-04 7.584464665230e-05 0.0 
7.584464665230e-05 1.278200494866e-03 0.0 
0.0 0.0 0.0 
-5.790494949165e-05 1.623220022027e-04 0.0 
1.623220022027e-04 8.330859814107e-03 0.0 
0.0 0.0 0.0 
-1.639728649023e-04 1.934146817635e-04 0.0 
1.934146817635e-04 4.950223475567e-03 0.0 
0.0 0.0 0.0 
1.860383804255e-04 2.192435781101e-04 0.0 
2.192435781101e-04 4.748817042297e-03 0.0 
0.0 0.0 0.0 
-1.768128433011e-05 3.312631911085e-04 0.0 
3.312631911085e-04 7.802331477128e-03 0.0 
0.0 0.0 0.0 
-1.148668875202e-04 4.839392462699e-05 0.0 
4.839392462699e-05 7.179880286626e-03 0.0 
0.0 0.0 0.0 
1.396884186260e-04 1.069836218798e-04 0.0 
1.069836218798e-04 6.472451977356e-03 0.0 
0.0 0.0 0.0 
8.106792648510e-06 2.920246983320e-04 0.0 
2.920246983320e-04 4.584686819668e-03 0.0 
0.0 0.0 0.0 
1.439153927112e-04 1.289903212187e-04 0.0 
1.289903212187e-04 9.923718824139e-04 0.0 
0.0 0.0 0.0 
8.006011637729e-05 4.802917455199e-05 0.0 
4.802917455199e-05 7.408139473575e-03 0.0 
0.0 0.0 0.0 
-1.100980043954e-04 2.671729019768e-04 0.0 
2.671729019768e-04 5.965131829210e-03 0.0 
0.0 0.0 0.0 
7.312556089545e-06 2.611942286075e-04 0.0 
2.611942286075e-04 6.614320673169e-03 0.0 
0.0 0.0 0.0 
-5.930654053798e-05 2.991984188495e-04 0.0 
2.991984188495e-04 7.798729671753e-03 0.0 
0.0 0.0 0.0 
4.972914900758e-05 8.213648834269e-05 0.0 
8.213648834269e-05 6.196540857364e-04 0.0 
0.0 0.0 0.0 
1.482774367123e-04 1.736889325129e-04 0.0 
1.736889325129e-04 6.462081571101e-03 0.0 
0.0 0.0 0.0 
-2.122708997021e-06 3.328260253702e-04 0.0 
3.328260253702e-04 3.380331389391e-03 0.0 
0.0 0.0 0.0 
-1.237617526427e-04 3.433836617274e-05 0.0 
3.433836617274e-05 6.771293340714e-03 0.0 
0.0 0.0 0.0 
1.828693072485e-04 4.186555165473e-05 0.0 
4.186555165473e-05 5.082010761742e-03 0.0 
0.0 0.0 0.0 
1.277419954135e-04 3.077889642433e-04 0.0 
3.077889642433e-04 4.188016970966e-03 0.0 
0.0 0.0 0.0 
1.107373923570e-04 7.653323673162e-05 0.0 
7.653323673162e-05 7.004237601338e-03 0.0 
0.0 0.0 0.0 
-4.758572822028e-05 3.096921453783e-04 0.0 
3.096921453783e-04 5.936988682273e-03 0.0 
0.0 0.0 0.0 
1.362110823784e-04 3.133213275724e-04 0.0 
3.133213275724e-04 3.761896791274e-03 0.0 
0.0 0.0 0.0 
-1.217207784250e-04 2.149393593237e-04 0.0 
2.149393593237e-04 6.229209049460e-03 0.0 
0.0 0.0 0.0 
7.772654816129e-05 -4.026193142426e-07 0.0 
-4.026193142426e-07 1.016123652764e-03 0.0 
0.0 0.0 0.0 
-9.658070085106e-05 2.290475394504e-04 0.0 
2.290475394504e-04 7.008692417250e-03 0.0 
0.0 0.0 0.0 
4.187168549796e-05 2.593491410715e-04 0.0 
2.593491410715e-04 6.895599468403e-03 0.0 
0.0 0.0 0.0 
-6.157567254461e-05 2.196883980375e-04 0.0 
2.196883980375e-04 8.364240326721e-03 0.0 
0.0 0.0 0.0 
-8.341789515853e-05 2.378689806073e-04 0.0 
2.378689806073e-04 7.403554135019e-03 0.0 
0.0 0.0 0.0 
1.589884703050e-04 2.317202178566e-04 0.0 
2.317202178566e-04 2.913915774957e-03 0.0 
0.0 0.0 0.0 
1.430410355363e-04 7.599069733310e-05 0.0 
7.599069733310e-05 6.386149321007e-03 0.0 
0.0 0.0 0.0 
-3.209446026620e-05 1.020711668679e-04 0.0 
1.020711668679e-04 8.489394851312e-03 0.0 
0.0 0.0 0.0 
-1.353832706275e-06 3.032883787009e-04 0.0 
3.032883787009e-04 8.260498730012e-03 0.0 
0.0 0.0 0.0 
2.145713244506e-05 2.696070797667e-04 0.0 
2.696070797667e-04 7.178589768109e-03 0.0 
0.0 0.0 0.0 
4.308653874374e-05 2.821180582247e-04 0.0 
2.821180582247e-04 4.688437792246e-03 0.0 
0.0 0.0 0.0 
-1.094098317386e-04 2.212798870024e-04 0.0 
2.212798870024e-04 6.617170095025e-03 0.0 
0.0 0.0 0.0 
9.943355811215e-05 9.536651730443e-05 0.0 
9.536651730443e-05 7.101887614483e-03 0.0 
0.0 0.0 0.0 
1.710590810489e-04 -2.021457869174e-05 0.0 
-2.021457869174e-05 4.651483065100e-03 0.0 
0.0 0.0 0.0 
-7.111432996487e-05 2.904556767144e-04 0.0 
2.904556767144e-04 7.134605555375e-03 0.0 
0.0 0.0 0.0 
-9.916605277471e-05 8.901444317691e-05 0.0 
8.901444317691e-05 6.990460381246e-03 0.0 
0.0 0.0 0.0 
1.219279459805e-04 8.682219058510e-05 0.0 
8.682219058510e-05 6.823444163239e-03 0.0 
0.0 0.0 0.0 
1.264349378642e-04 1.305076491475e-04 0.0 
1.305076491475e-04 6.737682085489e-03 0.0 
0.0 0.0 0.0 
-8.507162212901e-05 -9.905234050117e-07 0.0 
-9.905234050117e-07 5.307281829273e-03 0.0 
0.0 0.0 0.0 
-8.266300425341e-05 5.319949024454e-06 0.0 
5.319949024454e-06 5.304665962254e-03 0.0 
0.0 0.0 0.0 
-1.447567955291e-04 1.072135993783e-04 0.0 
1.072135993783e-04 7.000671166584e-03 0.0 
0.0 0.0 0.0 
-8.470423676143e-05 2.815221208436e-04 0.0 
2.815221208436e-04 6.741125313649e-03 0.0 
0.0 0.0 0.0 
1.777378689887e-04 3.601553069596e-05 0.0 
3.601553069596e-05 5.260355538254e-03 0.0 
0.0 0.0 0.0 
-1.441154192522e-04 1.629356550881e-04 0.0 
1.629356550881e-04 6.834054426590e-03 0.0 
0.0 0.0 0.0 
-2.704398352749e-05 3.178312659487e-04 0.0 
3.178312659487e-04 5.657808257493e-03 0.0 
0.0 0.0 0.0 
6.715541244784e-05 2.860270585632e-04 0.0 
2.860270585632e-04 7.448697400478e-03 0.0 
0.0 0.0 0.0 
2.613174448651e-05 3.378828408401e-04 0.0 
3.378828408401e-04 4.680196902709e-03 0.0 
0.0 0.0 0.0 
-2.352345276757e-05 1.131246689281e-04 0.0 
1.131246689281e-04 9.129186507597e-03 0.0 
0.0 0.0 0.0 
-1.403748651714e-04 8.244371047051e-05 0.0 
8.244371047051e-05 5.877672752421e-03 0.0 
0.0 0.0 0.0 
-4.725320770704e-05 2.665587013203e-04 0.0 
2.665587013203e-04 5.551482850857e-03 0.0 
0.0 0.0 0.0 
1.940676637477e-04 1.100636927415e-04 0.0 
1.100636927415e-04 5.070940030341e-03 0.0 
0.0 0.0 0.0 
1.344542830788e-04 2.741334706346e-04 0.0 
2.741334706346e-04 2.804324779691e-03 0.0 
0.0 0.0 0.0 
1.911151242280e-04 3.524927837205e-05 0.0 
3.524927837205e-05 4.474787239094e-03 0.0 
0.0 0.0 0.0 
-9.774779198735e-05 2.740246872597e-04 0.0 
2.740246872597e-04 6.351184642463e-03 0.0 
0.0 0.0 0.0 
-1.341008001028e-04 2.333428894662e-04 0.0 
2.333428894662e-04 6.092641778053e-03 0.0 
0.0 0.0 0.0 
-1.104333677587e-04 1.020938994174e-04 0.0 
1.020938994174e-04 6.947558800147e-03 0.0 
0.0 0.0 0.0 
-1.194755289395e-04 2.282970136108e-04 0.0 
2.282970136108e-04 6.973775864794e-03 0.0 
0.0 0.0 0.0 
-1.289905883823e-04 1.761950375833e-04 0.0 
1.761950375833e-04 7.219548148148e-03 0.0 
0.0 0.0 0.0 
3.963920914329e-05 -2.584332772572e-05 0.0 
-2.584332772572e-05 1.101571771482e-03 0.0 
0.0 0.0 0.0 
2.023684311467e-04 8.651629768694e-05 0.0 
8.651629768694e-05 4.213905556788e-03 0.0 
0.0 0.0 0.0 
-1.740254606751e-04 1.661710362713e-04 0.0 
1.661710362713e-04 4.953434445151e-03 0.0 
0.0 0.0 0.0 
-1.389955078340e-04 1.839312022725e-04 0.0 
1.839312022725e-04 6.678743724299e-03 0.0 
0.0 0.0 0.0 
-1.478566296239e-04 1.351481568725e-04 0.0 
1.351481568725e-04 6.922965953917e-03 0.0 
0.0 0.0 0.0 
4.928373822999e-05 3.198213427920e-04 0.0 
3.198213427920e-04 7.432529997168e-03 0.0 
0.0 0.0 0.0 
8.076068313945e-05 3.372953704683e-05 0.0 
3.372953704683e-05 1.727300775289e-03 0.0 
0.0 0.0 0.0 
1.673105040108e-04 9.228345526288e-05 0.0 
9.228345526288e-05 1.872956014557e-03 0.0 
0.0 0.0 0.0 
-9.923158372105e-05 2.813119951692e-04 0.0 
2.813119951692e-04 5.702126484282e-03 0.0 
0.0 0.0 0.0 
1.880964564458e-04 1.599830790440e-05 0.0 
1.599830790440e-05 4.224618882619e-03 0.0 
0.0 0.0 0.0 
-1.615232011470e-04 5.831532442593e-06 0.0 
5.831532442593e-06 4.903788532557e-03 0.0 
0.0 0.0 0.0 
-1.562253850841e-04 1.194912331499e-05 0.0 
1.194912331499e-05 5.123689367150e-03 0.0 
0.0 0.0 0.0 
-1.254976309440e-04 5.125204701167e-05 0.0 
5.125204701167e-05 6.953572978474e-03 0.0 
0.0 0.0 0.0 
4.913367540382e-05 3.673249682434e-04 0.0 
3.673249682434e-04 2.255581619784e-03 0.0 
0.0 0.0 0.0 
1.950601985174e-04 9.168191228498e-05 0.0 
9.168191228498e-05 4.821563244777e-03 0.0 
0.0 0.0 0.0 
1.042533459652e-04 2.148035305393e-04 0.0 
2.148035305393e-04 6.611547148883e-03 0.0 
0.0 0.0 0.0 
2.029754389958e-04 2.042995732107e-04 0.0 
2.042995732107e-04 1.848509023991e-03 0.0 
0.0 0.0 0.0 
-2.013728317585e-05 2.987210662824e-04 0.0 
2.987210662824e-04 8.515323834851e-03 0.0 
0.0 0.0 0.0 
-7.464839426830e-05 5.766648049500e-05 0.0 
5.766648049500e-05 8.035297302594e-03 0.0 
0.0 0.0 0.0 
1.827194297948e-04 8.866914321810e-06 0.0 
8.866914321810e-06 4.584242144014e-03 0.0 
0.0 0.0 0.0 
1.402796707899e-04 1.316166169301e-04 0.0 
1.316166169301e-04 6.555687835967e-03 0.0 
0.0 0.0 0.0 
4.111068194756e-05 -1.812399909221e-05 0.0 
-1.812399909221e-05 7.510521673366e-04 0.0 
0.0 0.0 0.0 
1.237086780630e-04 1.931065536323e-04 0.0 
1.931065536323e-04 6.333428122408e-03 0.0 
0.0 0.0 0.0 
-1.113692279753e-04 2.285172896382e-04 0.0 
2.285172896382e-04 5.970788960191e-03 0.0 
0.0 0.0 0.0 
4.741899396987e-05 -1.294547673767e-05 0.0 
-1.294547673767e-05 7.451696615841e-04 0.0 
0.0 0.0 0.0 
-6.162638360518e-05 1.090605353109e-04 0.0 
1.090605353109e-04 8.030695454930e-03 0.0 
0.0 0.0 0.0 
1.553990505230e-04 1.259891886282e-04 0.0 
1.259891886282e-04 1.722288571002e-03 0.0 
0.0 0.0 0.0 
-1.536953700202e-04 1.419281919704e-04 0.0 
1.419281919704e-04 6.685246635309e-03 0.0 
0.0 0.0 0.0 
-1.410448659290e-04 1.946903249713e-04 0.0 
1.946903249713e-04 6.097879810907e-03 0.0 
0.0 0.0 0.0 
1.754676515178e-04 1.645290546192e-04 0.0 
1.645290546192e-04 4.610747015887e-03 0.0 
0.0 0.0 0.0 
1.801105108681e-04 1.980075654115e-04 0.0 
1.980075654115e-04 5.506877610408e-03 0.0 
0.0 0.0 0.0 
-5.920776957791e-05 1.227851769110e-04 0.0 
1.227851769110e-04 8.205720613149e-03 0.0 
0.0 0.0 0.0 
1.652754263153e-04 2.079323094766e-04 0.0 
2.079323094766e-04 5.945768615985e-03 0.0 
0.0 0.0 0.0 
-7.412302892440e-05 2.974053215184e-04 0.0 
2.974053215184e-04 5.819106938494e-03 0.0 
0.0 0.0 0.0 
-9.677415905118e-05 2.428909823866e-04 0.0 
2.428909823866e-04 5.707773885633e-03 0.0 
0.0 0.0 0.0 
-4.008445326775e-07 2.014315517826e-04 0.0 
2.014315517826e-04 1.278758947259e-03 0.0 
0.0 0.0 0.0 
1.854456714954e-04 1.681403192018e-04 0.0 
1.681403192018e-04 1.424066043486e-03 0.0 
0.0 0.0 0.0 
-6.584412743160e-05 2.556436484778e-04 0.0 
2.556436484778e-04 7.532968057040e-03 0.0 
0.0 0.0 0.0 
-1.474880051319e-04 5.013286764434e-05 0.0 
5.013286764434e-05 6.501029609665e-03 0.0 
0.0 0.0 0.0 
-4.241389846427e-05 3.159134303221e-04 0.0 
3.159134303221e-04 7.663243664821e-03 0.0 
0.0 0.0 0.0 
-2.644095350146e-05 3.743995448783e-04 0.0 
3.743995448783e-04 3.374174398402e-03 0.0 
0.0 0.0 0.0 
-9.924776465386e-05 1.723659217399e-04 0.0 
1.723659217399e-04 7.631394695350e-03 0.0 
0.0 0.0 0.0 
-7.018398790770e-05 2.507491617100e-04 0.0 
2.507491617100e-04 7.802273413685e-03 0.0 
0.0 0.0 0.0 
-1.452882396968e-04 6.910237465327e-05 0.0 
6.910237465327e-05 5.274393590621e-03 0.0 
0.0 0.0 0.0 
-5.769641905196e-05 2.981536690510e-04 0.0 
2.981536690510e-04 7.525498093812e-03 0.0 
0.0 0.0 0.0 
1.336515778794e-04 6.668499929602e-05 0.0 
6.668499929602e-05 6.566000000126e-03 0.0 
0.0 0.0 0.0 
-7.637339616107e-05 2.903606924080e-04 0.0 
2.903606924080e-04 6.476266453787e-03 0.0 
0.0 0.0 0.0 
2.003240398729e-04 9.874995911386e-05 0.0 
9.874995911386e-05 4.641770183536e-03 0.0 
0.0 0.0 0.0 
1.873665806902e-04 4.844523810249e-05 0.0 
4.844523810249e-05 4.904566162141e-03 0.0 
0.0 0.0 0.0 
-7.507348462699e-05 1.084163641982e-04 0.0 
1.084163641982e-04 8.347623853596e-03 0.0 
0.0 0.0 0.0 
1.925067459454e-04 1.878715958024e-04 0.0 
1.878715958024e-04 5.072334212634e-03 0.0 
0.0 0.0 0.0 
-1.172025035586e-04 2.548290137340e-04 0.0 
2.548290137340e-04 6.223739807522e-03 0.0 
0.0 0.0 0.0 
2.719910705951e-05 3.246168454988e-04 0.0 
3.246168454988e-04 5.498867382673e-03 0.0 
0.0 0.0 0.0 
1.464567824456e-04 2.170219852694e-04 0.0 
2.170219852694e-04 6.388196331269e-03 0.0 
0.0 0.0 0.0 
-2.097369308562e-05 2.756279816161e-04 0.0 
2.756279816161e-04 5.269606006895e-03 0.0 
0.0 0.0 0.0 
1.785996266992e-04 2.848780153139e-04 0.0 
2.848780153139e-04 3.028446849763e-03 0.0 
0.0 0.0 0.0 
1.455741566534e-04 2.646996241772e-04 0.0 
2.646996241772e-04 5.311431949112e-03 0.0 
0.0 0.0 0.0 
1.453085485936e-04 3.183400528693e-04 0.0 
3.183400528693e-04 3.332948429153e-03 0.0 
0.0 0.0 0.0 
-1.307241470216e-04 2.068951745473e-04 0.0 
2.068951745473e-04 6.827718171443e-03 0.0 
0.0 0.0 0.0 
1.524923410328e-04 2.351018596203e-04 0.0 
2.351018596203e-04 3.345834888284e-03 0.0 
0.0 0.0 0.0 
-1.461798331688e-04 1.716101860013e-04 0.0 
1.716101860013e-04 6.592444391364e-03 0.0 
0.0 0.0 0.0 
3.271108384184e-05 2.675085157390e-04 0.0 
2.675085157390e-04 7.316739697680e-03 0.0 
0.0 0.0 0.0 
5.634354152972e-05 3.131064556835e-04 0.0 
3.131064556835e-04 7.022164163890e-03 0.0 
0.0 0.0 0.0 
-5.737801149430e-06 3.316267641641e-04 0.0 
3.316267641641e-04 4.975505288983e-03 0.0 
0.0 0.0 0.0 
-1.187394393780e-04 1.030641306652e-04 0.0 
1.030641306652e-04 6.720880617877e-03 0.0 
0.0 0.0 0.0 
1.288994710782e-04 1.213561836289e-04 0.0 
1.213561836289e-04 6.738151846729e-03 0.0 
0.0 0.0 0.0 
1.235237318891e-04 5.681503329719e-05 0.0 
5.681503329719e-05 6.748553189344e-03 0.0 
0.0 0.0 0.0 
3.674990334135e-05 3.772044401949e-04 0.0 
3.772044401949e-04 1.864185733773e-03 0.0 
0.0 0.0 0.0 
-1.217642937201e-04 2.354684084598e-04 0.0 
2.354684084598e-04 6.726760068740e-03 0.0 
0.0 0.0 0.0 
8.941607070101e-05 1.261765820500e-04 0.0 
1.261765820500e-04 7.390251901564e-03 0.0 
0.0 0.0 0.0 
-1.687109748432e-04 1.198836792509e-04 0.0 
1.198836792509e-04 4.070782332432e-03 0.0 
0.0 0.0 0.0 
1.791515904070e-04 1.962491059206e-05 0.0 
1.962491059206e-05 5.009694444932e-03 0.0 
0.0 0.0 0.0 
-1.799266362872e-04 2.921678619070e-04 0.0 
2.921678619070e-04 1.602183845221e-03 0.0 
0.0 0.0 0.0 
1.167449196584e-04 1.102300079715e-04 0.0 
1.102300079715e-04 6.922068541235e-03 0.0 
0.0 0.0 0.0 
1.553514113874e-04 3.221218103541e-04 0.0 
3.221218103541e-04 2.899984280470e-03 0.0 
0.0 0.0 0.0 
1.755256245752e-04 3.123294265451e-05 0.0 
3.123294265451e-05 4.785200036319e-03 0.0 
0.0 0.0 0.0 
7.351212679696e-06 3.237846886430e-04 0.0 
3.237846886430e-04 6.606846701314e-03 0.0 
0.0 0.0 0.0 
-1.356749311066e-04 5.212273169291e-05 0.0 
5.212273169291e-05 6.727567105406e-03 0.0 
0.0 0.0 0.0 
-1.265822963096e-04 1.014731150983e-04 0.0 
1.014731150983e-04 6.494255326081e-03 0.0 
0.0 0.0 0.0 
-8.804743653157e-05 2.854063903914e-04 0.0 
2.854063903914e-04 6.087746400708e-03 0.0 
0.0 0.0 0.0 
-1.662609739937e-04 1.129838813818e-05 0.0 
1.129838813818e-05 4.469603668209e-03 0.0 
0.0 0.0 0.0 
-1.620169573628e-04 1.550678923566e-05 0.0 
1.550678923566e-05 4.689744828375e-03 0.0 
0.0 0.0 0.0 
1.123773402174e-04 4.713265648081e-05 0.0 
4.713265648081e-05 6.932455094953e-03 0.0 
0.0 0.0 0.0 
1.583492343398e-04 1.477976830736e-04 0.0 
1.477976830736e-04 5.784717436639e-03 0.0 
0.0 0.0 0.0 
1.659174397373e-04 1.720572791300e-04 0.0 
1.720572791300e-04 5.039017295712e-03 0.0 
0.0 0.0 0.0 
1.284416796170e-04 2.622459464044e-04 0.0 
2.622459464044e-04 6.324794471884e-03 0.0 
0.0 0.0 0.0 
1.560864015142e-04 2.627358702233e-04 0.0 
2.627358702233e-04 4.884219769325e-03 0.0 
0.0 0.0 0.0 
1.277719828245e-04 2.712979038671e-04 0.0 
2.712979038671e-04 3.232689349556e-03 0.0 
0.0 0.0 0.0 
-1.436437414800e-04 4.741432734394e-05 0.0 
4.741432734394e-05 4.461056160518e-03 0.0 
0.0 0.0 0.0 
-1.544731439882e-04 4.039501395865e-05 0.0 
4.039501395865e-05 6.105058088982e-03 0.0 
0.0 0.0 0.0 
-8.551143110158e-05 1.280540796415e-06 0.0 
1.280540796415e-06 5.310202632747e-03 0.0 
0.0 0.0 0.0 
5.355425784570e-05 2.551230783676e-04 0.0 
2.551230783676e-04 7.030391267551e-03 0.0 
0.0 0.0 0.0 
9.362776106858e-06 2.814950790016e-04 0.0 
2.814950790016e-04 4.982691176829e-03 0.0 
0.0 0.0 0.0 
2.812849520684e-05 3.456882237560e-04 0.0 
3.456882237560e-04 7.992735746309e-03 0.0 
0.0 0.0 0.0 
1.164917516643e-04 6.270172577021e-05 0.0 
6.270172577021e-05 6.811046224037e-03 0.0 
0.0 0.0 0.0 
1.353532518984e-04 2.132843874046e-04 0.0 
2.132843874046e-04 5.183080910946e-03 0.0 
0.0 0.0 0.0 
6.188735390178e-05 7.030539310120e-05 0.0 
7.030539310120e-05 7.657059293387e-03 0.0 
0.0 0.0 0.0 
1.693491038519e-04 2.013243636998e-04 0.0 
2.013243636998e-04 3.475528154425e-03 0.0 
0.0 0.0 0.0 
1.019808666647e-05 3.414774779841e-04 0.0 
3.414774779841e-04 7.849390182681e-03 0.0 
0.0 0.0 0.0 
-8.675001839287e-05 2.439409445967e-04 0.0 
2.439409445967e-04 6.093978145517e-03 0.0 
0.0 0.0 0.0 
-5.426780894868e-05 3.027198761948e-04 0.0 
3.027198761948e-04 6.599222361630e-03 0.0 
0.0 0.0 0.0 
8.568985680624e-05 2.169539930492e-04 0.0 
2.169539930492e-04 7.219917324637e-03 0.0 
0.0 0.0 0.0 
1.861259396909e-04 1.235735984591e-05 0.0 
1.235735984591e-05 3.452312148023e-03 0.0 
0.0 0.0 0.0 
-1.211836053880e-04 2.447540113764e-04 0.0 
2.447540113764e-04 6.477905320560e-03 0.0 
0.0 0.0 0.0 
1.575992371134e-04 1.912398307205e-04 0.0 
1.912398307205e-04 4.895101607648e-03 0.0 
0.0 0.0 0.0 
-1.451458479034e-04 1.824317633366e-04 0.0 
1.824317633366e-04 6.345711442836e-03 0.0 
0.0 0.0 0.0 
-4.620825070045e-05 3.163748666229e-04 0.0 
3.163748666229e-04 3.683514420558e-03 0.0 
0.0 0.0 0.0 
-3.146335465953e-05 3.166222942335e-04 0.0 
3.166222942335e-04 6.731779219027e-03 0.0 
0.0 0.0 0.0 
1.782666240109e-04 2.393041157090e-04 0.0 
2.393041157090e-04 4.598777407744e-03 0.0 
0.0 0.0 0.0 
1.877296535651e-04 1.023113707195e-04 0.0 
1.023113707195e-04 5.249286053961e-03 0.0 
0.0 0.0 0.0 
-1.356970855888e-04 2.221650145550e-04 0.0 
2.221650145550e-04 6.340360854463e-03 0.0 
0.0 0.0 0.0 
-6.674643585614e-07 3.752228428181e-04 0.0 
3.752228428181e-04 1.006846913958e-03 0.0 
0.0 0.0 0.0 
2.765100092583e-05 3.220438660033e-04 0.0 
3.220438660033e-04 5.914084888212e-03 0.0 
0.0 0.0 0.0 
-1.339478000659e-04 3.360346661175e-04 0.0 
3.360346661175e-04 1.904587522618e-03 0.0 
0.0 0.0 0.0 
5.034574659368e-05 9.765825275426e-06 0.0 
9.765825275426e-06 1.192491816895e-03 0.0 
0.0 0.0 0.0 
1.891974091848e-04 8.490140741031e-05 0.0 
8.490140741031e-05 4.998185394086e-03 0.0 
0.0 0.0 0.0 
-1.016722626125e-04 2.140021002265e-04 0.0 
2.140021002265e-04 7.515292814742e-03 0.0 
0.0 0.0 0.0 
-1.292780244230e-04 1.176981616057e-04 0.0 
1.176981616057e-04 6.659765886793e-03 0.0 
0.0 0.0 0.0 
-1.670880105940e-04 1.968072430195e-05 0.0 
1.968072430195e-05 4.037569864239e-03 0.0 
0.0 0.0 0.0 
0.0 1.237440047928e-04 0.0 
1.237440047928e-04 9.133257370497e-03 0.0 
0.0 0.0 0.0 
-8.674719863766e-05 4.009879694087e-04 0.0 
4.009879694087e-04 6.856303281717e-04 0.0 
0.0 0.0 0.0 
-1.647106032763e-04 2.461507723138e-05 0.0 
2.461507723138e-05 4.257034550865e-03 0.0 
0.0 0.0 0.0 
1.748252765323e-04 2.251328470074e-04 0.0 
2.251328470074e-04 5.175843367137e-03 0.0 
0.0 0.0 0.0 
1.788744786306e-04 5.102823252073e-06 0.0 
5.102823252073e-06 4.764914134236e-03 0.0 
0.0 0.0 0.0 
-1.794250054383e-04 5.764500808500e-05 0.0 
5.764500808500e-05 4.996692677619e-03 0.0 
0.0 0.0 0.0 
2.090060342210e-04 1.929851383282e-04 0.0 
1.929851383282e-04 3.473143653071e-03 0.0 
0.0 0.0 0.0 
1.720658450135e-04 1.386101489048e-04 0.0 
1.386101489048e-04 5.346741255650e-03 0.0 
0.0 0.0 0.0 
-1.001830553009e-04 2.322517272407e-04 0.0 
2.322517272407e-04 6.357456142401e-03 0.0 
0.0 0.0 0.0 
2.727824870430e-05 3.209362400699e-04 0.0 
3.209362400699e-04 6.333187419259e-03 0.0 
0.0 0.0 0.0 
-8.703381869313e-05 2.361026488231e-04 0.0 
2.361026488231e-04 7.846863202810e-03 0.0 
0.0 0.0 0.0 
8.774741336448e-05 4.139144749604e-04 0.0 
4.139144749604e-04 1.864578148445e-03 0.0 
0.0 0.0 0.0 
1.935203424424e-04 7.539297317330e-05 0.0 
7.539297317330e-05 4.573890908119e-03 0.0 
0.0 0.0 0.0 
1.831267443477e-04 6.578494915997e-05 0.0 
6.578494915997e-05 4.936650695101e-03 0.0 
0.0 0.0 0.0 
1.432104457351e-04 -4.108757130002e-05 0.0 
-4.108757130002e-05 2.536354044200e-03 0.0 
0.0 0.0 0.0 
-1.446972139036e-04 7.626371331119e-05 0.0 
7.626371331119e-05 5.493263885598e-03 0.0 
0.0 0.0 0.0 
-1.476700120083e-04 6.932630597648e-05 0.0 
6.932630597648e-05 6.666637931340e-03 0.0 
0.0 0.0 0.0 
1.431167777399e-04 -2.158888562141e-05 0.0 
-2.158888562141e-05 6.159342859240e-03 0.0 
0.0 0.0 0.0 
2.475970113003e-05 -1.324394390390e-05 0.0 
-1.324394390390e-05 7.516535922911e-04 0.0 
0.0 0.0 0.0 
-5.013829053424e-05 -4.858568057908e-05 0.0 
-4.858568057908e-05 4.551133273722e-04 0.0 
0.0 0.0 0.0 
8.960491691945e-05 -5.927129217962e-05 0.0 
-5.927129217962e-05 1.723696888510e-03 0.0 
0.0 0.0 0.0 
1.751378770254e-04 1.577515394221e-06 0.0 
1.577515394221e-06 4.947195606464e-03 0.0 
0.0 0.0 0.0 
1.625766137401e-04 2.069519453940e-04 0.0 
2.069519453940e-04 3.904164621470e-03 0.0 
0.0 0.0 0.0 
1.921883821026e-04 1.340887872782e-04 0.0 
1.340887872782e-04 3.333958969128e-03 0.0 
0.0 0.0 0.0 
1.749105674131e-04 1.930805743300e-04 0.0 
1.930805743300e-04 3.042192885323e-03 0.0 
0.0 0.0 0.0 
1.827484481067e-04 7.897517615040e-05 0.0 
7.897517615040e-05 5.178140917224e-03 0.0 
0.0 0.0 0.0 
-1.262975445649e-04 1.560641252501e-04 0.0 
1.560641252501e-04 6.990977203681e-03 0.0 
0.0 0.0 0.0 
1.773575808355e-04 6.097297018137e-05 0.0 
6.097297018137e-05 5.119995755537e-03 0.0 
0.0 0.0 0.0 
1.590575798083e-04 2.855007923347e-04 0.0 
2.855007923347e-04 3.891353023951e-03 0.0 
0.0 0.0 0.0 
-1.320977100521e-04 1.913246022535e-04 0.0 
1.913246022535e-04 6.732548504369e-03 0.0 
0.0 0.0 0.0 
-1.069363182651e-04 5.142577163057e-05 0.0 
5.142577163057e-05 5.969138905865e-03 0.0 
0.0 0.0 0.0 
9.918384577867e-06 3.264397180842e-04 0.0 
3.264397180842e-04 7.032196440351e-03 0.0 
0.0 0.0 0.0 
1.713003093835e-04 -2.791775086834e-06 0.0 
-2.791775086834e-06 5.130700444587e-03 0.0 
0.0 0.0 0.0 
1.741592190720e-04 1.474489224496e-05 0.0 
1.474489224496e-05 5.189462482148e-03 0.0 
0.0 0.0 0.0 
-1.658432565567e-04 3.195338916175e-05 0.0 
3.195338916175e-05 3.598652096169e-03 0.0 
0.0 0.0 0.0 
1.750403042453e-04 1.807597418615e-04 0.0 
1.807597418615e-04 4.041131366236e-03 0.0 
0.0 0.0 0.0 
1.717826800451e-04 5.478772217736e-05 0.0 
5.478772217736e-05 5.302218110150e-03 0.0 
0.0 0.0 0.0 
-7.044425791902e-05 2.844002320392e-05 0.0 
2.844002320392e-05 6.836212959277e-03 0.0 
0.0 0.0 0.0 
-7.772991781074e-05 2.934495996779e-05 0.0 
2.934495996779e-05 6.447264996266e-03 0.0 
0.0 0.0 0.0 
-1.652811521382e-04 3.205345449548e-05 0.0 
3.205345449548e-05 3.824231881015e-03 0.0 
0.0 0.0 0.0 
1.760272041456e-04 7.339179142038e-05 0.0 
7.339179142038e-05 5.360588069891e-03 0.0 
0.0 0.0 0.0 
1.952713046871e-04 7.452409105842e-05 0.0 
7.452409105842e-05 3.218447294519e-03 0.0 
0.0 0.0 0.0 
-1.038917795816e-04 3.315422466421e-04 0.0 
3.315422466421e-04 2.247336208377e-03 0.0 
0.0 0.0 0.0 
6.227793675651e-06 2.872187158521e-04 0.0 
2.872187158521e-04 7.861699599123e-03 0.0 
0.0 0.0 0.0 
9.833305438511e-05 1.115401821222e-05 0.0 
1.115401821222e-05 1.551088726439e-03 0.0 
0.0 0.0 0.0 
2.136519093812e-04 1.383754986220e-04 0.0 
1.383754986220e-04 3.369960668940e-03 0.0 
0.0 0.0 0.0 
9.857292093463e-06 2.666731234307e-04 0.0 
2.666731234307e-04 5.789038530293e-03 0.0 
0.0 0.0 0.0 
-1.429027291779e-04 4.837870086016e-05 0.0 
4.837870086016e-05 4.028259908265e-03 0.0 
0.0 0.0 0.0 
1.679570243700e-04 -8.590685350677e-06 0.0 
-8.590685350677e-06 5.318038422662e-03 0.0 
0.0 0.0 0.0 
1.152976293177e-04 -3.775397941930e-05 0.0 
-3.775397941930e-05 2.361410363494e-03 0.0 
0.0 0.0 0.0 
-1.463894790793e-04 2.490434664450e-05 0.0 
2.490434664450e-05 5.670090171759e-03 0.0 
0.0 0.0 0.0 
1.686546280626e-04 9.971248806323e-06 0.0 
9.971248806323e-06 5.371722787000e-03 0.0 
0.0 0.0 0.0 
1.806071886896e-04 1.464242679640e-04 0.0 
1.464242679640e-04 4.761089788910e-03 0.0 
0.0 0.0 0.0 
1.838093822293e-04 2.447671391042e-05 0.0 
2.447671391042e-05 4.832479110764e-03 0.0 
0.0 0.0 0.0 
5.314409086221e-05 2.488182720995e-04 0.0 
2.488182720995e-04 8.680084670512e-04 0.0 
0.0 0.0 0.0 
-5.276213868788e-05 -2.473500128031e-05 0.0 
-2.473500128031e-05 8.058264000372e-03 0.0 
0.0 0.0 0.0 
1.941126270844e-04 1.256188950202e-04 0.0 
1.256188950202e-04 3.908818151917e-03 0.0 
0.0 0.0 0.0 
7.060064927389e-05 3.093642555554e-04 0.0 
3.093642555554e-04 7.333566324046e-03 0.0 
0.0 0.0 0.0 
-5.471252748868e-05 2.562433003697e-04 0.0 
2.562433003697e-04 6.607834257827e-03 0.0 
0.0 0.0 0.0 
1.690224784774e-04 6.775835750091e-05 0.0 
6.775835750091e-05 5.543902870416e-03 0.0 
0.0 0.0 0.0 
1.635146967209e-04 5.890976085801e-06 0.0 
5.890976085801e-06 5.554584860365e-03 0.0 
0.0 0.0 0.0 
1.851014738983e-04 2.553095712774e-04 0.0 
2.553095712774e-04 3.601077857517e-03 0.0 
0.0 0.0 0.0 
3.706056339503e-05 1.630132832016e-06 0.0 
1.630132832016e-06 1.015319462785e-03 0.0 
0.0 0.0 0.0 
1.159372913955e-04 3.468401254559e-04 0.0 
3.468401254559e-04 8.479922167899e-04 0.0 
0.0 0.0 0.0 
1.625868247710e-04 6.046673652720e-05 0.0 
6.046673652720e-05 5.728492387842e-03 0.0 
0.0 0.0 0.0 
8.901643900194e-05 2.810862825663e-04 0.0 
2.810862825663e-04 7.222221770669e-03 0.0 
0.0 0.0 0.0 
1.877831715023e-04 2.944339500881e-05 0.0 
2.944339500881e-05 3.127146982728e-03 0.0 
0.0 0.0 0.0 
-1.061940520687e-04 2.561971538099e-04 0.0 
2.561971538099e-04 6.866408650258e-03 0.0 
0.0 0.0 0.0 
-1.669107352205e-04 1.321136593699e-04 0.0 
1.321136593699e-04 3.828022105971e-03 0.0 
0.0 0.0 0.0 
-1.321375120832e-04 1.830255736700e-04 0.0 
1.830255736700e-04 6.980171504648e-03 0.0 
0.0 0.0 0.0 
6.099446514307e-05 2.400735945329e-04 0.0 
2.400735945329e-04 7.973142652863e-03 0.0 
0.0 0.0 0.0 
-2.976879836046e-04 -1.252594968775e-05 0.0 
-1.252594968775e-05 2.281494008147e-04 0.0 
0.0 0.0 0.0 
0.0 6.707079998401e-06 0.0 
6.707079998401e-06 9.162507366504e-03 0.0 
0.0 0.0 0.0 
0.0 3.065673156233e-05 0.0 
3.065673156233e-05 8.248725948921e-03 0.0 
0.0 0.0 0.0 
-8.152060711308e-05 -3.015811391735e-05 0.0 
-3.015811391735e-05 5.765452147988e-03 0.0 
0.0 0.0 0.0 
1.986242062793e-04 7.668212086351e-05 0.0 
7.668212086351e-05 3.801011209332e-03 0.0 
0.0 0.0 0.0 
-7.706513569194e-05 2.462399304261e-04 0.0 
2.462399304261e-04 6.483561761293e-03 0.0 
0.0 0.0 0.0 
1.447557499064e-04 2.354728785490e-04 0.0 
2.354728785490e-04 3.774268994549e-03 0.0 
0.0 0.0 0.0 
4.054347515425e-05 -5.752896826427e-05 0.0 
-5.752896826427e-05 1.020972537818e-03 0.0 
0.0 0.0 0.0 
-1.795941242877e-04 3.835143925580e-04 0.0 
3.835143925580e-04 1.279772822761e-03 0.0 
0.0 0.0 0.0 
-4.372022450894e-05 1.247111542044e-05 0.0 
1.247111542044e-05 8.404768773254e-03 0.0 
0.0 0.0 0.0 
-1.474095822243e-04 8.693756603773e-05 0.0 
8.693756603773e-05 6.838251965906e-03 0.0 
0.0 0.0 0.0 
-1.614287055836e-04 1.127784937832e-05 0.0 
1.127784937832e-05 5.362936859999e-03 0.0 
0.0 0.0 0.0 
-1.177543521225e-05 3.457498711305e-04 0.0 
3.457498711305e-04 8.826336113524e-03 0.0 
0.0 0.0 0.0 
9.150668781843e-05 -3.720896994419e-05 0.0 
-3.720896994419e-05 1.953710193268e-03 0.0 
0.0 0.0 0.0 
-1.289910002855e-05 3.529888345292e-04 0.0 
3.529888345292e-04 8.789103153400e-03 0.0 
0.0 0.0 0.0 
-1.291523405040e-04 1.372982077626e-04 0.0 
1.372982077626e-04 6.829523582369e-03 0.0 
0.0 0.0 0.0 
1.942624793627e-04 3.716338441607e-05 0.0 
3.716338441607e-05 3.708377419168e-03 0.0 
0.0 0.0 0.0 
-6.423716477666e-05 2.990933164113e-04 0.0 
2.990933164113e-04 6.207391475422e-03 0.0 
0.0 0.0 0.0 
2.127757695589e-04 1.217750455828e-04 0.0 
1.217750455828e-04 3.530182629268e-03 0.0 
0.0 0.0 0.0 
-1.235100534531e-04 2.764583263617e-04 0.0 
2.764583263617e-04 2.535598230565e-03 0.0 
0.0 0.0 0.0 
2.068206359549e-04 9.495441973901e-05 0.0 
9.495441973901e-05 3.278765521609e-03 0.0 
0.0 0.0 0.0 
-1.210618485153e-04 1.769499789847e-04 0.0 
1.769499789847e-04 7.148906929637e-03 0.0 
0.0 0.0 0.0 
1.025322528856e-04 6.824726533690e-06 0.0 
6.824726533690e-06 7.056309172619e-03 0.0 
0.0 0.0 0.0 
2.121552319256e-04 1.702676258238e-04 0.0 
1.702676258238e-04 3.626012467202e-03 0.0 
0.0 0.0 0.0 
-1.057566962052e-04 2.490676082482e-04 0.0 
2.490676082482e-04 7.116598608367e-03 0.0 
0.0 0.0 0.0 
-1.346559552718e-04 -1.898195783447e-05 0.0 
-1.898195783447e-05 1.449636391830e-04 0.0 
0.0 0.0 0.0 
1.959546152872e-04 2.267368062853e-04 0.0 
2.267368062853e-04 3.744012672249e-03 0.0 
0.0 0.0 0.0 
-1.222936766174e-04 1.005505226976e-04 0.0 
1.005505226976e-04 7.475277430451e-03 0.0 
0.0 0.0 0.0 
1.935791798322e-04 6.372789466169e-05 0.0 
6.372789466169e-05 3.190332175545e-03 0.0 
0.0 0.0 0.0 
1.749578985828e-04 2.221860395550e-06 0.0 
2.221860395550e-06 2.876784211732e-03 0.0 
0.0 0.0 0.0 
-6.109842656155e-05 2.556169123332e-04 0.0 
2.556169123332e-04 6.214496588971e-03 0.0 
0.0 0.0 0.0 
1.541929483146e-04 6.738304282198e-05 0.0 
6.738304282198e-05 1.515808861467e-03 0.0 
0.0 0.0 0.0 
-1.705495172802e-04 5.749247818277e-05 0.0 
5.749247818277e-05 3.152988680062e-03 0.0 
0.0 0.0 0.0 
-1.471808075900e-04 4.378065193066e-05 0.0 
4.378065193066e-05 3.387380590466e-03 0.0 
0.0 0.0 0.0 
1.794340216208e-04 4.809579989124e-05 0.0 
4.809579989124e-05 2.779756190936e-03 0.0 
0.0 0.0 0.0 
1.702576036502e-04 1.551216155420e-04 0.0 
1.551216155420e-04 5.189014169214e-03 0.0 
0.0 0.0 0.0 
-2.152994910798e-06 3.257958871044e-04 0.0 
3.257958871044e-04 5.376455101897e-03 0.0 
0.0 0.0 0.0 
-1.171959285096e-04 2.021023568714e-04 0.0 
2.021023568714e-04 7.121995929010e-03 0.0 
0.0 0.0 0.0 
-5.351712712998e-05 2.188793904779e-04 0.0 
2.188793904779e-04 8.350429415803e-03 0.0 
0.0 0.0 0.0 
-1.388998762832e-04 5.243650032946e-05 0.0 
5.243650032946e-05 3.594080918346e-03 0.0 
0.0 0.0 0.0 
-6.070402998448e-05 -3.324955253752e-05 0.0 
-3.324955253752e-05 7.251871075528e-03 0.0 
0.0 0.0 0.0 
-4.504915099224e-05 2.791481607678e-04 0.0 
2.791481607678e-04 8.267223366909e-03 0.0 
0.0 0.0 0.0 
1.689685984543e-04 2.865132511741e-04 0.0 
2.865132511741e-04 3.462154002957e-03 0.0 
0.0 0.0 0.0 
-8.904331391435e-05 2.890155787289e-04 0.0 
2.890155787289e-04 1.902866873371e-03 0.0 
0.0 0.0 0.0 
-1.850443431579e-04 1.017161544342e-04 0.0 
1.017161544342e-04 4.074137285364e-03 0.0 
0.0 0.0 0.0 
1.832391933236e-04 1.294409691271e-04 0.0 
1.294409691271e-04 4.916302715586e-03 0.0 
0.0 0.0 0.0 
-1.146903639644e-04 2.235835558723e-04 0.0 
2.235835558723e-04 7.213490994272e-03 0.0 
0.0 0.0 0.0 
1.901630149446e-04 2.022674227674e-04 0.0 
2.022674227674e-04 4.905212888471e-03 0.0 
0.0 0.0 0.0 
1.030390614125e-04 3.587924370815e-04 0.0 
3.587924370815e-04 1.507879461029e-03 0.0 
0.0 0.0 0.0 
1.576201482592e-04 1.619015173919e-04 0.0 
1.619015173919e-04 5.618763449361e-03 0.0 
0.0 0.0 0.0 
-1.403601060008e-04 2.386801169600e-04 0.0 
2.386801169600e-04 2.809177219624e-03 0.0 
0.0 0.0 0.0 
9.964530815587e-06 2.731538876511e-04 0.0 
2.731538876511e-04 5.383910391553e-03 0.0 
0.0 0.0 0.0 
1.791777829365e-04 2.123403903586e-04 0.0 
2.123403903586e-04 5.335333630602e-03 0.0 
0.0 0.0 0.0 
-4.022204717158e-05 3.105201745925e-04 0.0 
3.105201745925e-04 6.331275055604e-03 0.0 
0.0 0.0 0.0 
-6.834127302824e-05 -1.479395662551e-05 0.0 
-1.479395662551e-05 6.731190126134e-03 0.0 
0.0 0.0 0.0 
1.598542546077e-04 -2.235696398011e-05 0.0 
-2.235696398011e-05 2.789473541754e-03 0.0 
0.0 0.0 0.0 
-5.846026983514e-05 3.873186936380e-04 0.0 
3.873186936380e-04 1.900373648833e-03 0.0 
0.0 0.0 0.0 
1.658115461201e-04 2.214760960390e-04 0.0 
2.214760960390e-04 5.773644632669e-03 0.0 
0.0 0.0 0.0 
-1.468547093690e-04 1.999628457355e-04 0.0 
1.999628457355e-04 3.054479178307e-03 0.0 
0.0 0.0 0.0 
3.529319618667e-05 9.561378515996e-05 0.0 
9.561378515996e-05 4.398190583681e-04 0.0 
0.0 0.0 0.0 
-2.623141722879e-05 3.154411823490e-05 0.0 
3.154411823490e-05 8.451069956699e-03 0.0 
0.0 0.0 0.0 
-3.966016285206e-05 3.354076221715e-05 0.0 
3.354076221715e-05 8.060565281708e-03 0.0 
0.0 0.0 0.0 
-2.048708235458e-05 -2.748872265870e-05 0.0 
-2.748872265870e-05 3.982403852429e-04 0.0 
0.0 0.0 0.0 
1.424986983223e-04 1.697399163334e-04 0.0 
1.697399163334e-04 6.055302002241e-03 0.0 
0.0 0.0 0.0 
1.180311482007e-04 -4.889480830477e-05 0.0 
-4.889480830477e-05 2.129888168054e-03 0.0 
0.0 0.0 0.0 
1.409710064537e-04 2.340765701717e-05 0.0 
2.340765701717e-05 2.286559218850e-03 0.0 
0.0 0.0 0.0 
-8.793850385258e-05 2.634219026616e-04 0.0 
2.634219026616e-04 7.512119813423e-03 0.0 
0.0 0.0 0.0 
-3.629298990426e-05 2.622196335485e-04 0.0 
2.622196335485e-04 6.337813596310e-03 0.0 
0.0 0.0 0.0 
-9.046752904107e-05 2.683247339880e-04 0.0 
2.683247339880e-04 7.259369252335e-03 0.0 
0.0 0.0 0.0 
1.891554385862e-04 1.475466256636e-04 0.0 
1.475466256636e-04 3.758638559884e-03 0.0 
0.0 0.0 0.0 
-8.975677853473e-05 4.832111902819e-06 0.0 
4.832111902819e-06 5.309475270846e-03 0.0 
0.0 0.0 0.0 
2.992587554207e-05 1.839968080299e-04 0.0 
1.839968080299e-04 7.932692045606e-03 0.0 
0.0 0.0 0.0 
1.137477232029e-04 1.319350298212e-05 0.0 
1.319350298212e-05 1.875817252427e-03 0.0 
0.0 0.0 0.0 
6.124466256563e-05 2.511612952379e-04 0.0 
2.511612952379e-04 7.159602395008e-03 0.0 
0.0 0.0 0.0 
-1.765586067082e-05 2.693481947553e-04 0.0 
2.693481947553e-04 5.665685434720e-03 0.0 
0.0 0.0 0.0 
8.519851004918e-05 1.717681070503e-05 0.0 
1.717681070503e-05 1.454115583299e-03 0.0 
0.0 0.0 0.0 
-1.239828302642e-04 2.010111478006e-04 0.0 
2.010111478006e-04 7.062098535545e-03 0.0 
0.0 0.0 0.0 
1.760790825633e-04 2.586856567856e-04 0.0 
2.586856567856e-04 4.027679635874e-03 0.0 
0.0 0.0 0.0 
3.278551577268e-05 -2.607225709501e-05 0.0 
-2.607225709501e-05 7.514468419201e-04 0.0 
0.0 0.0 0.0 
2.032064462865e-04 2.190945301781e-04 0.0 
2.190945301781e-04 3.321529938635e-03 0.0 
0.0 0.0 0.0 
1.526057208006e-04 3.216876040728e-05 0.0 
3.216876040728e-05 5.968303614654e-03 0.0 
0.0 0.0 0.0 
-1.398513805499e-04 1.287432819801e-04 0.0 
1.287432819801e-04 7.160439667035e-03 0.0 
0.0 0.0 0.0 
6.800097077164e-05 -6.474329738548e-05 0.0 
-6.474329738548e-05 1.404607427785e-03 0.0 
0.0 0.0 0.0 
1.807328401919e-04 -1.224920638196e-05 0.0 
-1.224920638196e-05 4.794516499190e-03 0.0 
0.0 0.0 0.0 
-1.025517493497e-04 2.447032308041e-04 0.0 
2.447032308041e-04 7.366153852020e-03 0.0 
0.0 0.0 0.0 
-8.387635146656e-06 2.746687338372e-04 0.0 
2.746687338372e-04 7.311670369194e-03 0.0 
0.0 0.0 0.0 
1.951924168666e-04 6.837151441739e-05 0.0 
6.837151441739e-05 3.025800880153e-03 0.0 
0.0 0.0 0.0 
1.199908237941e-04 2.789306397424e-05 0.0 
2.789306397424e-05 2.362862576742e-03 0.0 
0.0 0.0 0.0 
1.336151102649e-06 3.226865894208e-04 0.0 
3.226865894208e-04 5.781343523935e-03 0.0 
0.0 0.0 0.0 
-6.925469691954e-05 -3.255036442636e-05 0.0 
-3.255036442636e-05 6.609879041305e-03 0.0 
0.0 0.0 0.0 
3.014369628040e-05 -3.050012354284e-05 0.0 
-3.050012354284e-05 7.389641196678e-04 0.0 
0.0 0.0 0.0 
-4.357471025795e-05 2.979699254568e-04 0.0 
2.979699254568e-04 8.579505907309e-03 0.0 
0.0 0.0 0.0 
-3.379319291363e-05 1.859362918402e-04 0.0 
1.859362918402e-04 8.710446785293e-03 0.0 
0.0 0.0 0.0 
-7.530093398933e-05 -2.769377220912e-05 0.0 
-2.769377220912e-05 6.019825003024e-03 0.0 
0.0 0.0 0.0 
-4.022029760231e-05 5.643413707443e-05 0.0 
5.643413707443e-05 8.688252128059e-03 0.0 
0.0 0.0 0.0 
-2.790714343504e-05 2.288483575080e-04 0.0 
2.288483575080e-04 8.699728695197e-03 0.0 
0.0 0.0 0.0 
2.034683289103e-04 2.036227951375e-04 0.0 
2.036227951375e-04 3.894641680370e-03 0.0 
0.0 0.0 0.0 
1.977864394274e-04 9.206304604854e-05 0.0 
9.206304604854e-05 3.640431923899e-03 0.0 
0.0 0.0 0.0 
2.555166744522e-05 3.181743463052e-04 0.0 
3.181743463052e-04 8.187144015836e-03 0.0 
0.0 0.0 0.0 
-1.011577149317e-04 4.276772426362e-06 0.0 
4.276772426362e-06 1.555871127144e-04 0.0 
0.0 0.0 0.0 
1.044711739671e-04 3.354836001394e-05 0.0 
3.354836001394e-05 2.140818707202e-03 0.0 
0.0 0.0 0.0 
1.648921858397e-04 3.776763020478e-05 0.0 
3.776763020478e-05 4.897872038036e-03 0.0 
0.0 0.0 0.0 
1.746294779381e-04 -2.585961291201e-06 0.0 
-2.585961291201e-06 3.038710291061e-03 0.0 
0.0 0.0 0.0 
2.132321926371e-04 1.568790077830e-04 0.0 
1.568790077830e-04 3.207673507092e-03 0.0 
0.0 0.0 0.0 
-1.605855417414e-04 7.961533304047e-05 0.0 
7.961533304047e-05 2.710112996960e-03 0.0 
0.0 0.0 0.0 
-1.467834346647e-04 7.143244922265e-05 0.0 
7.143244922265e-05 2.951616181766e-03 0.0 
0.0 0.0 0.0 
-1.073982553113e-04 -2.580289572599e-06 0.0 
-2.580289572599e-06 6.029317743727e-03 0.0 
0.0 0.0 0.0 
1.812803267618e-04 1.724479990260e-04 0.0 
1.724479990260e-04 3.614898236991e-03 0.0 
0.0 0.0 0.0 
1.269988097721e-04 2.042655573896e-05 0.0 
2.042655573896e-05 2.526683356727e-03 0.0 
0.0 0.0 0.0 
-2.493385514790e-05 3.208266544740e-04 0.0 
3.208266544740e-04 7.138886544066e-03 0.0 
0.0 0.0 0.0 
3.629552631845e-05 1.629618237351e-04 0.0 
1.629618237351e-04 8.305108994892e-03 0.0 
0.0 0.0 0.0 
2.610782604107e-05 1.755630747998e-04 0.0 
1.755630747998e-04 8.299867710343e-03 0.0 
0.0 0.0 0.0 
2.132610729639e-04 1.524282402585e-04 0.0 
1.524282402585e-04 3.786938998424e-03 0.0 
0.0 0.0 0.0 
-1.128789282239e-04 3.739160955770e-05 0.0 
3.739160955770e-05 5.681572045401e-03 0.0 
0.0 0.0 0.0 
-1.258876379733e-04 2.795457679460e-05 0.0 
2.795457679460e-05 3.794069141780e-04 0.0 
0.0 0.0 0.0 
-1.591369947705e-04 1.199706879778e-04 0.0 
1.199706879778e-04 2.299935755960e-03 0.0 
0.0 0.0 0.0 
1.014833069590e-04 9.803573336802e-06 0.0 
9.803573336802e-06 1.453358489316e-03 0.0 
0.0 0.0 0.0 
-1.546029265972e-04 9.900869697520e-05 0.0 
9.900869697520e-05 2.524366818243e-03 0.0 
0.0 0.0 0.0 
-1.519621057389e-05 2.645603867906e-04 0.0 
2.645603867906e-04 6.063786338476e-03 0.0 
0.0 0.0 0.0 
2.080308919601e-04 1.061967873354e-04 0.0 
1.061967873354e-04 3.117468184632e-03 0.0 
0.0 0.0 0.0 
1.958151995678e-04 1.109429951782e-04 0.0 
1.109429951782e-04 3.486285239611e-03 0.0 
0.0 0.0 0.0 
-1.023368228981e-05 -2.625025254366e-05 0.0 
-2.625025254366e-05 7.849985186623e-04 0.0 
0.0 0.0 0.0 
-3.909845004768e-05 1.473916236744e-05 0.0 
1.473916236744e-05 8.131116468083e-03 0.0 
0.0 0.0 0.0 
1.954817174357e-04 5.892638444701e-05 0.0 
5.892638444701e-05 3.381540983557e-03 0.0 
0.0 0.0 0.0 
-3.147597952469e-05 6.520169737248e-05 0.0 
6.520169737248e-05 8.396509464528e-03 0.0 
0.0 0.0 0.0 
-4.595814161845e-05 -7.497311395770e-06 0.0 
-7.497311395770e-06 7.797441005487e-03 0.0 
0.0 0.0 0.0 
-1.556326406493e-05 2.337760261585e-05 0.0 
2.337760261585e-05 9.148199633580e-03 0.0 
0.0 0.0 0.0 
3.114528379156e-05 4.435807742234e-05 0.0 
4.435807742234e-05 8.254743396174e-03 0.0 
0.0 0.0 0.0 
-8.217591821691e-05 2.496228402172e-05 0.0 
2.496228402172e-05 6.032021681701e-03 0.0 
0.0 0.0 0.0 
1.953559978933e-04 4.720810075691e-05 0.0 
4.720810075691e-05 3.542963145386e-03 0.0 
0.0 0.0 0.0 
-1.282499534035e-04 6.623356461987e-05 0.0 
6.623356461987e-05 3.153747238026e-03 0.0 
0.0 0.0 0.0 
2.112280126714e-04 1.102940315529e-04 0.0 
1.102940315529e-04 3.696004619102e-03 0.0 
0.0 0.0 0.0 
0.0 1.257481908754e-04 0.0 
1.257481908754e-04 8.295392057607e-03 0.0 
0.0 0.0 0.0 
-1.769501121445e-04 2.067528384131e-04 0.0 
2.067528384131e-04 1.851153546016e-03 0.0 
0.0 0.0 0.0 
-1.606347480150e-04 1.619444499160e-04 0.0 
1.619444499160e-04 2.079951047922e-03 0.0 
0.0 0.0 0.0 
4.042210017574e-05 2.715980514217e-04 0.0 
2.715980514217e-04 7.436414248729e-03 0.0 
0.0 0.0 0.0 
-1.017581690235e-04 1.586519329604e-05 0.0 
1.586519329604e-05 5.693270653818e-03 0.0 
0.0 0.0 0.0 
-2.991671629349e-05 5.427307833145e-05 0.0 
5.427307833145e-05 8.441775051499e-03 0.0 
0.0 0.0 0.0 
-1.159755546667e-04 1.945452422619e-04 0.0 
1.945452422619e-04 7.369320484608e-03 0.0 
0.0 0.0 0.0 
4.939283435590e-07 3.367714977622e-04 0.0 
3.367714977622e-04 7.702405429749e-03 0.0 
0.0 0.0 0.0 
-1.158683177291e-04 1.628324734019e-04 0.0 
1.628324734019e-04 7.710294178718e-03 0.0 
0.0 0.0 0.0 
-7.661223639877e-05 3.500169329662e-05 0.0 
3.500169329662e-05 6.108805382180e-03 0.0 
0.0 0.0 0.0 
1.583755322199e-04 -1.918339022856e-05 0.0 
-1.918339022856e-05 2.629262409140e-03 0.0 
0.0 0.0 0.0 
1.802051781825e-04 5.336931918799e-05 0.0 
5.336931918799e-05 2.619658396099e-03 0.0 
0.0 0.0 0.0 
-5.899948013999e-05 3.427539870822e-05 0.0 
3.427539870822e-05 7.029539254320e-03 0.0 
0.0 0.0 0.0 
-2.404684359136e-05 2.685436790882e-04 0.0 
2.685436790882e-04 7.556994692627e-03 0.0 
0.0 0.0 0.0 
-1.321747005320e-04 3.011382587990e-05 0.0 
3.011382587990e-05 5.329522395521e-03 0.0 
0.0 0.0 0.0 
-8.266121977996e-05 2.890487411169e-06 0.0 
2.890487411169e-06 5.665662003976e-03 0.0 
0.0 0.0 0.0 
-7.923542312305e-05 -5.949509052093e-06 0.0 
-5.949509052093e-06 6.008336188431e-03 0.0 
0.0 0.0 0.0 
-9.056647731909e-05 -2.847662910220e-05 0.0 
-2.847662910220e-05 6.131859164356e-03 0.0 
0.0 0.0 0.0 
1.349124223540e-04 1.018578441298e-04 0.0 
1.018578441298e-04 1.197001536746e-03 0.0 
0.0 0.0 0.0 
1.601179990451e-04 3.294758335388e-05 0.0 
3.294758335388e-05 2.373609860920e-03 0.0 
0.0 0.0 0.0 
-3.173099345644e-05 6.508408793476e-05 0.0 
6.508408793476e-05 8.814990745513e-03 0.0 
0.0 0.0 0.0 
-7.905752557613e-05 -2.052398276846e-05 0.0 
-2.052398276846e-05 6.542745797192e-03 0.0 
0.0 0.0 0.0 
1.520199206406e-05 3.564692456234e-04 0.0 
3.564692456234e-04 8.387484567492e-03 0.0 
0.0 0.0 0.0 
-7.992158438508e-05 1.862570731360e-04 0.0 
1.862570731360e-04 8.367964211880e-03 0.0 
0.0 0.0 0.0 
-1.400743759435e-04 1.559028001784e-04 0.0 
1.559028001784e-04 7.070622696381e-03 0.0 
0.0 0.0 0.0 
-5.915740200735e-05 7.157515312531e-05 0.0 
7.157515312531e-05 8.422420010659e-03 0.0 
0.0 0.0 0.0 
1.748453571180e-04 2.818769828156e-05 0.0 
2.818769828156e-05 3.589048446502e-03 0.0 
0.0 0.0 0.0 
1.476134637191e-04 2.530935213587e-05 0.0 
2.530935213587e-05 3.262466668978e-03 0.0 
0.0 0.0 0.0 
6.924294897459e-05 2.053100937743e-04 0.0 
2.053100937743e-04 7.585161224697e-03 0.0 
0.0 0.0 0.0 
-6.244834778957e-06 -1.376880404001e-06 0.0 
-1.376880404001e-06 3.949362875484e-04 0.0 
0.0 0.0 0.0 
1.071565361563e-04 -1.904098735700e-05 0.0 
-1.904098735700e-05 2.266714654872e-03 0.0 
0.0 0.0 0.0 
0.0 3.344525175882e-04 0.0 
3.344525175882e-04 8.807370868398e-03 0.0 
0.0 0.0 0.0 
5.170828025447e-05 -3.636945899261e-05 0.0 
-3.636945899261e-05 1.069711407003e-03 0.0 
0.0 0.0 0.0 
-7.886410831448e-05 5.431112133634e-06 0.0 
5.431112133634e-06 5.667355221263e-03 0.0 
0.0 0.0 0.0 
5.130832219047e-05 2.849204446916e-04 0.0 
2.849204446916e-04 7.777570055088e-03 0.0 
0.0 0.0 0.0 
-2.710173735432e-06 -1.646280569188e-06 0.0 
-1.646280569188e-06 6.928702897100e-04 0.0 
0.0 0.0 0.0 
-1.192638408110e-05 -2.212387377479e-05 0.0 
-2.212387377479e-05 3.706210615662e-04 0.0 
0.0 0.0 0.0 
-1.709791510518e-05 6.300950598450e-05 0.0 
6.300950598450e-05 9.146200445739e-03 0.0 
0.0 0.0 0.0 
-9.595701472132e-05 1.750507750341e-05 0.0 
1.750507750341e-05 5.311071037195e-03 0.0 
0.0 0.0 0.0 
-2.780857478335e-05 1.021399259964e-04 0.0 
1.021399259964e-04 8.727343423981e-03 0.0 
0.0 0.0 0.0 
2.975352295720e-05 2.928269743892e-04 0.0 
2.928269743892e-04 7.828076417406e-03 0.0 
0.0 0.0 0.0 
-9.537739077092e-05 -5.604415577932e-06 0.0 
-5.604415577932e-06 5.303654160005e-03 0.0 
0.0 0.0 0.0 
-1.016592833004e-04 2.967141814013e-05 0.0 
2.967141814013e-05 4.357393694014e-04 0.0 
0.0 0.0 0.0 
-1.476259078093e-05 -1.602849781411e-06 0.0 
-1.602849781411e-06 8.807811933654e-03 0.0 
0.0 0.0 0.0 
5.692440761318e-05 -6.155310772781e-05 0.0 
-6.155310772781e-05 1.196092502022e-03 0.0 
0.0 0.0 0.0 
-3.500817754298e-05 7.708164944144e-05 0.0 
7.708164944144e-05 8.505181051247e-03 0.0 
0.0 0.0 0.0 
0.0 1.021123539737e-04 0.0 
1.021123539737e-04 8.277720441227e-03 0.0 
0.0 0.0 0.0 
-7.075985592464e-05 1.532000844779e-04 0.0 
1.532000844779e-04 8.404407606294e-03 0.0 
0.0 0.0 0.0 
1.856854211590e-04 1.380300117551e-04 0.0 
1.380300117551e-04 1.582077757359e-03 0.0 
0.0 0.0 0.0 
-1.226320554014e-04 4.353743071137e-05 0.0 
4.353743071137e-05 6.045652206194e-03 0.0 
0.0 0.0 0.0 
1.495706854968e-04 -2.019376585340e-05 0.0 
-2.019376585340e-05 3.651044143310e-03 0.0 
0.0 0.0 0.0 
-2.674508346368e-05 2.627232635319e-04 0.0 
2.627232635319e-04 7.143235557651e-03 0.0 
0.0 0.0 0.0 
2.195427222906e-06 3.460547227197e-04 0.0 
3.460547227197e-04 8.678518058383e-03 0.0 
0.0 0.0 0.0 
-5.887740569133e-05 2.732318373019e-05 0.0 
2.732318373019e-05 7.479275040889e-03 0.0 
0.0 0.0 0.0 
1.035270971728e-05 3.709837715128e-04 0.0 
3.709837715128e-04 8.621133389237e-03 0.0 
0.0 0.0 0.0 
7.988279833282e-05 6.117323865938e-05 0.0 
6.117323865938e-05 7.184260483615e-04 0.0 
0.0 0.0 0.0 
5.048637345118e-05 1.105251888901e-04 0.0 
1.105251888901e-04 7.944113919814e-03 0.0 
0.0 0.0 0.0 
1.734802589761e-04 1.089593813246e-04 0.0 
1.089593813246e-04 1.804580751425e-03 0.0 
0.0 0.0 0.0 
5.783366713330e-05 1.377888200258e-06 0.0 
1.377888200258e-06 1.071375250259e-03 0.0 
0.0 0.0 0.0 
4.282109624087e-05 2.667468730579e-04 0.0 
2.667468730579e-04 8.092536036984e-03 0.0 
0.0 0.0 0.0 
-4.565231456422e-05 1.228613625137e-04 0.0 
1.228613625137e-04 8.794928036628e-03 0.0 
0.0 0.0 0.0 
-2.528724829343e-05 5.714231727131e-05 0.0 
5.714231727131e-05 8.877757434727e-03 0.0 
0.0 0.0 0.0 
-8.638014272666e-05 3.678031058335e-05 0.0 
3.678031058335e-05 5.645365513827e-03 0.0 
0.0 0.0 0.0 
-1.371688516814e-04 8.834544913721e-05 0.0 
8.834544913721e-05 6.087781602659e-03 0.0 
0.0 0.0 0.0 
-1.494822236273e-04 2.876257682749e-04 0.0 
2.876257682749e-04 2.536153155503e-03 0.0 
0.0 0.0 0.0 
-5.126142957812e-05 2.193080265324e-04 0.0 
2.193080265324e-04 8.713637522484e-03 0.0 
0.0 0.0 0.0 
1.512035893945e-04 2.552055929539e-05 0.0 
2.552055929539e-05 3.015996393768e-03 0.0 
0.0 0.0 0.0 
5.083470678691e-05 3.474422622818e-04 0.0 
3.474422622818e-04 1.439508877267e-03 0.0 
0.0 0.0 0.0 
-4.634103569656e-06 3.277289975879e-04 0.0 
3.277289975879e-04 7.304648117513e-03 0.0 
0.0 0.0 0.0 
-8.587378766345e-05 -2.146270599237e-06 0.0 
-2.146270599237e-06 5.290996893999e-03 0.0 
0.0 0.0 0.0 
-4.356884457146e-05 1.488521029440e-04 0.0 
1.488521029440e-04 8.518749411349e-03 0.0 
0.0 0.0 0.0 
-8.871450062675e-06 -2.743313258072e-05 0.0 
-2.743313258072e-05 9.120491665774e-03 0.0 
0.0 0.0 0.0 
0.0 4.435725031305e-06 0.0 
4.435725031305e-06 9.175357930935e-03 0.0 
0.0 0.0 0.0 
-1.339665519406e-06 8.397832495771e-07 0.0 
8.397832495771e-07 1.011661764341e-04 0.0 
0.0 0.0 0.0 
-6.970201098411e-06 2.472131935369e-06 0.0 
2.472131935369e-06 1.100614093845e-04 0.0 
0.0 0.0 0.0 
-8.036548136992e-05 -2.607426659897e-05 0.0 
-2.607426659897e-05 5.342352787257e-03 0.0 
0.0 0.0 0.0 
-9.029562439666e-05 4.196437317687e-06 0.0 
4.196437317687e-06 5.291741522450e-03 0.0 
0.0 0.0 0.0 
0.0 1.616189575021e-05 0.0 
1.616189575021e-05 8.254618490728e-03 0.0 
0.0 0.0 0.0 
3.232379150031e-05 3.058867622795e-05 0.0 
3.058867622795e-05 8.193441138272e-03 0.0 
0.0 0.0 0.0 
7.036631026081e-06 2.204756923503e-05 0.0 
2.204756923503e-05 3.426404522568e-04 0.0 
0.0 0.0 0.0 
-1.259127855686e-04 -2.017216608596e-05 0.0 
-2.017216608596e-05 1.434156189575e-04 0.0 
0.0 0.0 0.0 
6.295413793778e-05 9.326873250475e-05 0.0 
9.326873250475e-05 7.522638266512e-03 0.0 
0.0 0.0 0.0 
-2.890331064653e-05 3.429379046859e-04 0.0 
3.429379046859e-04 8.068474692535e-03 0.0 
0.0 0.0 0.0 
6.608059026525e-05 -4.429250614800e-05 0.0 
-4.429250614800e-05 1.416346119167e-03 0.0 
0.0 0.0 0.0 
5.803257487313e-05 1.161786485644e-04 0.0 
1.161786485644e-04 7.651558854727e-03 0.0 
0.0 0.0 0.0 
1.678353806212e-04 -3.663588208619e-06 0.0 
-3.663588208619e-06 5.242490284292e-03 0.0 
0.0 0.0 0.0 
1.641486592119e-04 -2.827576678839e-05 0.0 
-2.827576678839e-05 4.489179270946e-03 0.0 
0.0 0.0 0.0 
-8.007094520313e-05 2.501364072783e-05 0.0 
2.501364072783e-05 6.756035213336e-03 0.0 
0.0 0.0 0.0 
1.029251091604e-04 3.295043600840e-05 0.0 
3.295043600840e-05 1.332955193258e-03 0.0 
0.0 0.0 0.0 
-3.234000547114e-05 2.604216619729e-04 0.0 
2.604216619729e-04 6.739023119415e-03 0.0 
0.0 0.0 0.0 
4.167191578608e-05 -1.319556935877e-05 0.0 
-1.319556935877e-05 1.108961494555e-03 0.0 
0.0 0.0 0.0 
1.770993212271e-04 -2.237834076142e-05 0.0 
-2.237834076142e-05 4.057797594047e-03 0.0 
0.0 0.0 0.0 
-4.495915790859e-05 2.342494518523e-04 0.0 
2.342494518523e-04 8.429039715400e-03 0.0 
0.0 0.0 0.0 
-3.545265839855e-05 -3.160015172947e-05 0.0 
-3.160015172947e-05 8.291366469398e-03 0.0 
0.0 0.0 0.0 
1.822593344345e-04 2.120077532606e-05 0.0 
2.120077532606e-05 4.461323088855e-03 0.0 
0.0 0.0 0.0 
-7.982184887689e-05 -2.398675510003e-05 0.0 
-2.398675510003e-05 6.317513804607e-03 0.0 
0.0 0.0 0.0 
-5.732553718918e-05 3.043633185198e-04 0.0 
3.043633185198e-04 8.240001575267e-03 0.0 
0.0 0.0 0.0 
-1.043642993813e-04 1.817577740534e-04 0.0 
1.817577740534e-04 7.854881295496e-03 0.0 
0.0 0.0 0.0 
-1.241606376017e-04 1.684435831838e-04 0.0 
1.684435831838e-04 7.461087036355e-03 0.0 
0.0 0.0 0.0 
-9.237761851011e-05 3.754737171008e-06 0.0 
3.754737171008e-06 5.309048078483e-03 0.0 
0.0 0.0 0.0 
-1.391418506524e-05 2.616575886261e-04 0.0 
2.616575886261e-04 6.472444322477e-03 0.0 
0.0 0.0 0.0 
-4.977624272939e-05 1.670156767143e-04 0.0 
1.670156767143e-04 8.448969489980e-03 0.0 
0.0 0.0 0.0 
1.132045427370e-04 1.358746407311e-05 0.0 
1.358746407311e-05 2.261124563467e-03 0.0 
0.0 0.0 0.0 
-5.867757472555e-05 -3.103776639713e-05 0.0 
-3.103776639713e-05 4.165046452715e-04 0.0 
0.0 0.0 0.0 
-7.034655929183e-05 2.484074133043e-04 0.0 
2.484074133043e-04 8.008472009185e-03 0.0 
0.0 0.0 0.0 
6.549193958016e-05 3.066445799723e-04 0.0 
3.066445799723e-04 7.155894199293e-03 0.0 
0.0 0.0 0.0 
8.521426375663e-05 -3.741212263733e-05 0.0 
-3.741212263733e-05 1.070439467911e-03 0.0 
0.0 0.0 0.0 
-7.006408684362e-05 -1.746461424609e-05 0.0 
-1.746461424609e-05 7.054930793088e-03 0.0 
0.0 0.0 0.0 
2.966642986379e-05 6.947464869191e-05 0.0 
6.947464869191e-05 7.861161753016e-03 0.0 
0.0 0.0 0.0 
-4.344497634556e-05 3.019210132198e-04 0.0 
3.019210132198e-04 7.892906834301e-03 0.0 
0.0 0.0 0.0 
-5.375705617017e-05 2.983423030635e-04 0.0 
2.983423030635e-04 8.195494723133e-03 0.0 
0.0 0.0 0.0 
1.572206356435e-04 -2.597233509240e-05 0.0 
-2.597233509240e-05 5.695323017683e-03 0.0 
0.0 0.0 0.0 
1.180654181594e-04 1.972590417141e-04 0.0 
1.972590417141e-04 3.988948193716e-04 0.0 
0.0 0.0 0.0 
-1.164674370879e-04 7.230038365738e-05 0.0 
7.230038365738e-05 2.709374364848e-03 0.0 
0.0 0.0 0.0 
-1.776525183353e-04 1.939179773163e-04 0.0 
1.939179773163e-04 3.054254857002e-03 0.0 
0.0 0.0 0.0 
-1.169407401375e-04 4.693738587571e-05 0.0 
4.693738587571e-05 6.047662589735e-03 0.0 
0.0 0.0 0.0 
-1.511981617797e-05 3.210648020139e-04 0.0 
3.210648020139e-04 6.465291518357e-03 0.0 
0.0 0.0 0.0 
-3.484972191203e-05 1.977565632385e-05 0.0 
1.977565632385e-05 8.555673546335e-03 0.0 
0.0 0.0 0.0 
2.025070397838e-05 3.206748856511e-04 0.0 
3.206748856511e-04 8.185983027175e-03 0.0 
0.0 0.0 0.0 
-2.612031147886e-05 -3.414756845270e-05 0.0 
-3.414756845270e-05 7.661699365764e-04 0.0 
0.0 0.0 0.0 
-2.075285395486e-05 -2.866619864208e-05 0.0 
-2.866619864208e-05 7.278479187254e-04 0.0 
0.0 0.0 0.0 
-8.551214775565e-05 1.112843009712e-04 0.0 
1.112843009712e-04 2.299040279736e-03 0.0 
0.0 0.0 0.0 
-5.870693046739e-05 5.592957511874e-05 0.0 
5.592957511874e-05 7.175503192299e-03 0.0 
0.0 0.0 0.0 
1.288234314833e-04 -3.684467883774e-05 0.0 
-3.684467883774e-05 2.803353479374e-03 0.0 
0.0 0.0 0.0 
-4.832940766886e-05 8.407135887705e-05 0.0 
8.407135887705e-05 8.568728297890e-03 0.0 
0.0 0.0 0.0 
6.301893951544e-05 -4.113103953501e-05 0.0 
-4.113103953501e-05 1.351671617053e-03 0.0 
0.0 0.0 0.0 
3.285969341094e-05 3.140109032891e-04 0.0 
3.140109032891e-04 7.814104188077e-03 0.0 
0.0 0.0 0.0 
-9.359458113478e-05 4.701333475999e-05 0.0 
4.701333475999e-05 6.018224164546e-03 0.0 
0.0 0.0 0.0 
-7.486756956609e-07 3.248945478335e-04 0.0 
3.248945478335e-04 8.410211757565e-03 0.0 
0.0 0.0 0.0 
-4.184789329353e-05 2.614782340110e-04 0.0 
2.614782340110e-04 7.411216802047e-03 0.0 
0.0 0.0 0.0 
-1.290872666880e-04 3.603662334591e-05 0.0 
3.603662334591e-05 6.048618824161e-03 0.0 
0.0 0.0 0.0 
5.599889394148e-05 2.392823272766e-04 0.0 
2.392823272766e-04 8.026243812780e-03 0.0 
0.0 0.0 0.0 
-4.182288164023e-05 1.317493486783e-04 0.0 
1.317493486783e-04 8.810349084724e-03 0.0 
0.0 0.0 0.0 
-1.953983483316e-05 1.994675215723e-05 0.0 
1.994675215723e-05 8.828590541843e-03 0.0 
0.0 0.0 0.0 
-5.467469787213e-05 1.361111029852e-04 0.0 
1.361111029852e-04 1.847429540314e-03 0.0 
0.0 0.0 0.0 
-4.428695447378e-05 1.177269400665e-04 0.0 
1.177269400665e-04 8.418903137933e-03 0.0 
0.0 0.0 0.0 
-2.433037516081e-05 2.820372420749e-04 0.0 
2.820372420749e-04 8.591744517705e-03 0.0 
0.0 0.0 0.0 
3.735859288234e-05 2.931710293748e-04 0.0 
2.931710293748e-04 7.822466107272e-03 0.0 
0.0 0.0 0.0 
-1.097642935610e-05 3.322932821280e-04 0.0 
3.322932821280e-04 7.542100670465e-03 0.0 
0.0 0.0 0.0 
0.0 1.714175826492e-04 0.0 
1.714175826492e-04 8.307232618306e-03 0.0 
0.0 0.0 0.0 
-1.060914763661e-04 2.211886207335e-04 0.0 
2.211886207335e-04 7.453789178165e-03 0.0 
0.0 0.0 0.0 
-4.570655419789e-05 9.543032081810e-05 0.0 
9.543032081810e-05 1.481834579027e-04 0.0 
0.0 0.0 0.0 
-5.498310513652e-05 4.043718037116e-04 0.0 
4.043718037116e-04 1.900981519010e-03 0.0 
0.0 0.0 0.0 
-9.565091553732e-05 1.843602736595e-04 0.0 
1.843602736595e-04 8.098338943972e-03 0.0 
0.0 0.0 0.0 
-1.106005434541e-04 7.153302013827e-05 0.0 
7.153302013827e-05 6.362916666497e-03 0.0 
0.0 0.0 0.0 
7.538207464086e-05 1.192478237376e-05 0.0 
1.192478237376e-05 7.492168031463e-03 0.0 
0.0 0.0 0.0 
-3.331414088115e-05 2.725352006066e-04 0.0 
2.725352006066e-04 7.811221078020e-03 0.0 
0.0 0.0 0.0 
3.556227368473e-05 1.374777197314e-04 0.0 
1.374777197314e-04 7.958047381255e-03 0.0 
0.0 0.0 0.0 
-4.751014488991e-05 5.278529626923e-05 0.0 
5.278529626923e-05 7.613460190262e-03 0.0 
0.0 0.0 0.0 
-6.452552000158e-06 3.238301856917e-04 0.0 
3.238301856917e-04 8.380313690408e-03 0.0 
0.0 0.0 0.0 
5.751808849497e-05 1.922143707917e-04 0.0 
1.922143707917e-04 7.709544655109e-03 0.0 
0.0 0.0 0.0 
6.936558324466e-05 2.469363339212e-04 0.0 
2.469363339212e-04 7.704551553888e-03 0.0 
0.0 0.0 0.0 
1.325830961971e-04 -2.481101022304e-05 0.0 
-2.481101022304e-05 2.913000391176e-03 0.0 
0.0 0.0 0.0 
4.528402741677e-05 1.391919227729e-04 0.0 
1.391919227729e-04 8.298480331401e-03 0.0 
0.0 0.0 0.0 
-1.118771040652e-04 2.259322078041e-05 0.0 
2.259322078041e-05 5.660493886499e-03 0.0 
0.0 0.0 0.0 
-3.033128041596e-05 -3.832641226156e-06 0.0 
-3.832641226156e-06 8.448927876839e-03 0.0 
0.0 0.0 0.0 
3.081711284714e-05 -5.048066036936e-05 0.0 
-5.048066036936e-05 7.352942747707e-04 0.0 
0.0 0.0 0.0 
-3.765510687326e-05 -7.576282430530e-06 0.0 
-7.576282430530e-06 8.139618762066e-03 0.0 
0.0 0.0 0.0 
-6.752089249029e-05 6.056549250611e-06 0.0 
6.056549250611e-06 7.090211658662e-03 0.0 
0.0 0.0 0.0 
1.782057246880e-05 -2.976101220189e-05 0.0 
-2.976101220189e-05 7.424315686233e-04 0.0 
0.0 0.0 0.0 
1.230768099283e-04 4.457489585773e-05 0.0 
4.457489585773e-05 1.443227665214e-03 0.0 
0.0 0.0 0.0 
-9.580693747879e-05 2.420273127275e-04 0.0 
2.420273127275e-04 7.608715219124e-03 0.0 
0.0 0.0 0.0 
-2.075674330726e-05 5.976605065953e-05 0.0 
5.976605065953e-05 8.808830564920e-03 0.0 
0.0 0.0 0.0 
-3.404350528824e-05 -1.336643807428e-05 0.0 
-1.336643807428e-05 8.507932748046e-03 0.0 
0.0 0.0 0.0 
1.408720439144e-05 3.699006685822e-04 0.0 
3.699006685822e-04 8.261667941661e-03 0.0 
0.0 0.0 0.0 
-8.043730726581e-05 4.871249860667e-05 0.0 
4.871249860667e-05 6.311430492614e-03 0.0 
0.0 0.0 0.0 
-4.468172315275e-05 -3.066229307250e-05 0.0 
-3.066229307250e-05 4.018130150640e-04 0.0 
0.0 0.0 0.0 
1.221367123432e-04 2.112427344785e-04 0.0 
2.112427344785e-04 7.265511309997e-04 0.0 
0.0 0.0 0.0 
-2.679074817435e-05 1.272131606470e-05 0.0 
1.272131606470e-05 4.733003774779e-04 0.0 
0.0 0.0 0.0 
2.995082494728e-05 -6.659033124047e-05 0.0 
-6.659033124047e-05 1.016412748351e-03 0.0 
0.0 0.0 0.0 
-1.430124923728e-04 3.678772728911e-04 0.0 
3.678772728911e-04 2.636586851299e-04 0.0 
0.0 0.0 0.0 
1.736644400456e-04 2.770651592471e-05 0.0 
2.770651592471e-05 3.951385440255e-03 0.0 
0.0 0.0 0.0 
8.055179741273e-05 7.505720566608e-05 0.0 
7.505720566608e-05 7.490825290429e-03 0.0 
0.0 0.0 0.0 
-5.686988961762e-05 2.005585838267e-04 0.0 
2.005585838267e-04 8.411052212154e-03 0.0 
0.0 0.0 0.0 
-1.390177345606e-04 3.997949239746e-05 0.0 
3.997949239746e-05 6.335194136846e-03 0.0 
0.0 0.0 0.0 
1.574572317633e-04 -4.181815765021e-05 0.0 
-4.181815765021e-05 3.438746339313e-03 0.0 
0.0 0.0 0.0 
7.244536537376e-05 1.590764890148e-04 0.0 
1.590764890148e-04 7.600880816127e-03 0.0 
0.0 0.0 0.0 
7.609245011575e-05 3.047688366918e-04 0.0 
3.047688366918e-04 7.653552224524e-03 0.0 
0.0 0.0 0.0 
-1.250985225099e-05 3.525971247931e-04 0.0 
3.525971247931e-04 8.436277776410e-03 0.0 
0.0 0.0 0.0 
-4.438030465492e-05 2.676986746577e-04 0.0 
2.676986746577e-04 8.283590977177e-03 0.0 
0.0 0.0 0.0 
-7.504756306753e-05 2.545491683113e-04 0.0 
2.545491683113e-04 7.996384955287e-03 0.0 
0.0 0.0 0.0 
2.122620511491e-05 -1.528549193782e-05 0.0 
-1.528549193782e-05 7.237845184300e-04 0.0 
0.0 0.0 0.0 
-2.154856474401e-05 -1.558671739868e-05 0.0 
-1.558671739868e-05 6.635007412832e-04 0.0 
0.0 0.0 0.0 
6.919500757330e-05 4.765790656124e-05 0.0 
4.765790656124e-05 7.537206147949e-03 0.0 
0.0 0.0 0.0 
4.013550403115e-05 -4.275702026294e-06 0.0 
-4.275702026294e-06 7.258737936473e-04 0.0 
0.0 0.0 0.0 
3.331898176073e-05 3.935630502175e-05 0.0 
3.935630502175e-05 8.998123087669e-04 0.0 
0.0 0.0 0.0 
3.785713573246e-05 4.226432976656e-04 0.0 
4.226432976656e-04 9.972711132802e-04 0.0 
0.0 0.0 0.0 
-2.203010307844e-06 -6.396633509235e-05 0.0 
-6.396633509235e-05 6.909504449033e-04 0.0 
0.0 0.0 0.0 
2.697430300125e-05 2.251085868436e-04 0.0 
2.251085868436e-04 8.020219404897e-03 0.0 
0.0 0.0 0.0 
-3.166612751215e-05 2.377938609835e-04 0.0 
2.377938609835e-04 8.683163742635e-03 0.0 
0.0 0.0 0.0 
-3.506412053167e-05 7.149639180829e-05 0.0 
7.149639180829e-05 8.558654198236e-03 0.0 
0.0 0.0 0.0 
-1.262486648734e-05 3.221601248716e-04 0.0 
3.221601248716e-04 8.480454743852e-03 0.0 
0.0 0.0 0.0 
6.128285977036e-05 2.422176717207e-04 0.0 
2.422176717207e-04 7.454244231348e-03 0.0 
0.0 0.0 0.0 
-7.190021106274e-05 5.195850775401e-05 0.0 
5.195850775401e-05 6.549430375945e-03 0.0 
0.0 0.0 0.0 
0.0 8.281263149401e-05 0.0 
8.281263149401e-05 9.166291418790e-03 0.0 
0.0 0.0 0.0 
1.479945730616e-04 2.517595947814e-05 0.0 
2.517595947814e-05 1.801723507213e-03 0.0 
0.0 0.0 0.0 
-9.058094507219e-05 3.739362251674e-06 0.0 
3.739362251674e-06 5.287371553599e-03 0.0 
0.0 0.0 0.0 
3.125034693396e-05 -9.537008486892e-06 0.0 
-9.537008486892e-06 1.059406736337e-03 0.0 
0.0 0.0 0.0 
2.188324415120e-05 -6.999781223540e-06 0.0 
-6.999781223540e-06 3.773396814506e-04 0.0 
0.0 0.0 0.0 
4.350810496501e-05 1.053087977297e-04 0.0 
1.053087977297e-04 8.267467371640e-03 0.0 
0.0 0.0 0.0 
-1.353113847652e-04 2.939694813990e-05 0.0 
2.939694813990e-05 5.709466966234e-03 0.0 
0.0 0.0 0.0 
4.743283436559e-05 -1.074142931288e-05 0.0 
-1.074142931288e-05 1.059798598857e-03 0.0 
0.0 0.0 0.0 
1.608855465245e-04 3.971127321323e-05 0.0 
3.971127321323e-05 3.794755455833e-03 0.0 
0.0 0.0 0.0 
-4.544813585805e-05 2.532589719301e-04 0.0 
2.532589719301e-04 8.710031605162e-03 0.0 
0.0 0.0 0.0 
-4.352959202703e-05 3.518606148741e-05 0.0 
3.518606148741e-05 8.518422239569e-03 0.0 
0.0 0.0 0.0 
-2.769664900293e-05 1.343351194151e-04 0.0 
1.343351194151e-04 8.802209123075e-03 0.0 
0.0 0.0 0.0 
1.248866630148e-04 -2.947701217000e-05 0.0 
-2.947701217000e-05 2.644977461997e-03 0.0 
0.0 0.0 0.0 
3.697426556304e-05 3.810578568967e-05 0.0 
3.810578568967e-05 6.780999814517e-04 0.0 
0.0 0.0 0.0 
5.199280369061e-05 1.434874836576e-04 0.0 
1.434874836576e-04 7.956123774410e-03 0.0 
0.0 0.0 0.0 
-4.628340415924e-06 1.182916946625e-05 0.0 
1.182916946625e-05 9.170565634004e-03 0.0 
0.0 0.0 0.0 
2.836147027296e-05 1.846997935079e-05 0.0 
1.846997935079e-05 8.252508408663e-03 0.0 
0.0 0.0 0.0 
-8.079215042212e-05 2.066571738429e-05 0.0 
2.066571738429e-05 5.600929510393e-03 0.0 
0.0 0.0 0.0 
4.346206032690e-05 2.698918760797e-04 0.0 
2.698918760797e-04 7.760461154976e-03 0.0 
0.0 0.0 0.0 
6.844491189084e-05 -3.366673098181e-05 0.0 
-3.366673098181e-05 1.083483552344e-03 0.0 
0.0 0.0 0.0 
-4.460128431583e-05 1.293527546174e-04 0.0 
1.293527546174e-04 8.572378660328e-03 0.0 
0.0 0.0 0.0 
6.382501571256e-06 -2.096914912118e-05 0.0 
-2.096914912118e-05 3.600973741755e-04 0.0 
0.0 0.0 0.0 
2.231610186398e-05 2.598756483809e-04 0.0 
2.598756483809e-04 8.094039347951e-03 0.0 
0.0 0.0 0.0 
-4.721444909628e-05 1.635832064471e-04 0.0 
1.635832064471e-04 8.767636804969e-03 0.0 
0.0 0.0 0.0 
6.875775343151e-05 5.775305242003e-05 0.0 
5.775305242003e-05 3.673681815746e-04 0.0 
0.0 0.0 0.0 
-5.751338632476e-05 2.727362613853e-04 0.0 
2.727362613853e-04 7.903963291044e-03 0.0 
0.0 0.0 0.0 
-5.361070018262e-05 -1.574290578118e-05 0.0 
-1.574290578118e-05 7.400970850926e-03 0.0 
0.0 0.0 0.0 
-1.476109255205e-05 4.187522814391e-05 0.0 
4.187522814391e-05 8.840308281265e-03 0.0 
0.0 0.0 0.0 
0.0 3.428594951684e-04 0.0 
3.428594951684e-04 8.674849424991e-03 0.0 
0.0 0.0 0.0 
-6.895595756651e-05 -4.222109968925e-05 0.0 
-4.222109968925e-05 6.835364739910e-03 0.0 
0.0 0.0 0.0 
-2.647081709906e-05 2.361631297586e-04 0.0 
2.361631297586e-04 8.724723525913e-03 0.0 
0.0 0.0 0.0 
-5.879979332946e-05 1.073363011661e-04 0.0 
1.073363011661e-04 8.533671902555e-03 0.0 
0.0 0.0 0.0 
-6.169414853441e-05 9.767278380647e-06 0.0 
9.767278380647e-06 7.084912800156e-03 0.0 
0.0 0.0 0.0 
-4.765532769102e-05 2.274589914026e-04 0.0 
2.274589914026e-04 8.450261028655e-03 0.0 
0.0 0.0 0.0 
1.563810666982e-04 -2.404144124366e-05 0.0 
-2.404144124366e-05 3.206913854066e-03 0.0 
0.0 0.0 0.0 
-9.052791764641e-05 -2.997500289718e-06 0.0 
-2.997500289718e-06 5.292257195900e-03 0.0 
0.0 0.0 0.0 
-1.738604574675e-05 3.382815800622e-04 0.0 
3.382815800622e-04 8.196976164213e-03 0.0 
0.0 0.0 0.0 
-1.306027119063e-05 2.356425301923e-05 0.0 
2.356425301923e-05 8.873102555295e-03 0.0 
0.0 0.0 0.0 
9.207804089195e-06 1.249155731063e-05 0.0 
1.249155731063e-05 9.122339284118e-05 0.0 
0.0 0.0 0.0 
-8.512805343264e-05 8.369930648443e-06 0.0 
8.369930648443e-06 5.294104408380e-03 0.0 
0.0 0.0 0.0 
4.036539566443e-05 -4.349469912025e-06 0.0 
-4.349469912025e-06 7.942512206889e-03 0.0 
0.0 0.0 0.0 
7.065366062808e-05 2.632398461817e-06 0.0 
2.632398461817e-06 1.395728540927e-03 0.0 
0.0 0.0 0.0 
4.256638714573e-05 3.077170637355e-04 0.0 
3.077170637355e-04 7.811010112563e-03 0.0 
0.0 0.0 0.0 
-6.429498247307e-05 1.341223408575e-04 0.0 
1.341223408575e-04 8.465248093810e-03 0.0 
0.0 0.0 0.0 
-2.982563323783e-05 1.861320389496e-05 0.0 
1.861320389496e-05 8.812971756154e-03 0.0 
0.0 0.0 0.0 
6.847024896017e-05 9.221846488824e-06 0.0 
9.221846488824e-06 1.336058486175e-03 0.0 
0.0 0.0 0.0 
1.138813401518e-04 4.371647131548e-04 0.0 
4.371647131548e-04 1.250002390408e-03 0.0 
0.0 0.0 0.0 
1.609788894068e-04 5.369888456618e-05 0.0 
5.369888456618e-05 4.678094785506e-03 0.0 
0.0 0.0 0.0 
-5.319454815911e-05 2.177107885960e-05 0.0 
2.177107885960e-05 7.851918111551e-03 0.0 
0.0 0.0 0.0 
-2.430766963664e-04 -2.075777338928e-05 0.0 
-2.075777338928e-05 2.073053625562e-04 0.0 
0.0 0.0 0.0 
-2.254250719513e-05 1.063798182481e-04 0.0 
1.063798182481e-04 8.837854287497e-03 0.0 
0.0 0.0 0.0 
-6.835343234579e-05 1.170281865445e-05 0.0 
1.170281865445e-05 6.709722399849e-03 0.0 
0.0 0.0 0.0 
8.383678857826e-05 -4.652063565665e-05 0.0 
-4.652063565665e-05 1.323713985346e-03 0.0 
0.0 0.0 0.0 
-8.001151323334e-05 1.792250346690e-05 0.0 
1.792250346690e-05 6.417469854538e-03 0.0 
0.0 0.0 0.0 
-2.918048889988e-05 3.142655458571e-04 0.0 
3.142655458571e-04 8.478263560114e-03 0.0 
0.0 0.0 0.0 
1.680746440960e-04 -4.256631171993e-05 0.0 
-4.256631171993e-05 4.909342320781e-03 0.0 
0.0 0.0 0.0 
-1.547053631620e-04 2.485620125552e-04 0.0 
2.485620125552e-04 6.862368318266e-04 0.0 
0.0 0.0 0.0 
1.403554180881e-04 1.706398407181e-05 0.0 
1.706398407181e-05 2.900367596130e-03 0.0 
0.0 0.0 0.0 
1.770760917490e-04 2.705592996016e-05 0.0 
2.705592996016e-05 4.271929129855e-03 0.0 
0.0 0.0 0.0 
1.765789137640e-04 5.607125373621e-05 0.0 
5.607125373621e-05 5.107276104171e-03 0.0 
0.0 0.0 0.0 
-1.083070274943e-05 3.023233110664e-04 0.0 
3.023233110664e-04 8.091627754462e-03 0.0 
0.0 0.0 0.0 
1.639918500025e-04 -2.350754996148e-05 0.0 
-2.350754996148e-05 4.160723602421e-03 0.0 
0.0 0.0 0.0 
1.793909123968e-04 2.134277253355e-05 0.0 
2.134277253355e-05 4.427476291415e-03 0.0 
0.0 0.0 0.0 
-3.119440538213e-06 7.819554804923e-06 0.0 
7.819554804923e-06 6.481704734207e-04 0.0 
0.0 0.0 0.0 
6.106574451681e-05 1.623595036397e-04 0.0 
1.623595036397e-04 7.661680219559e-03 0.0 
0.0 0.0 0.0 
-6.316116841421e-05 2.905611686593e-04 0.0 
2.905611686593e-04 8.012905785480e-03 0.0 
0.0 0.0 0.0 
9.423770076245e-05 4.052154383591e-04 0.0 
4.052154383591e-04 1.482654977363e-03 0.0 
0.0 0.0 0.0 
-4.282871982952e-06 -5.767393835615e-06 0.0 
-5.767393835615e-06 8.859660627761e-03 0.0 
0.0 0.0 0.0 
3.213289710713e-05 3.992779991507e-05 0.0 
3.992779991507e-05 7.929537656253e-03 0.0 
0.0 0.0 0.0 
-8.326282312332e-05 -2.270134037416e-05 0.0 
-2.270134037416e-05 5.623672696704e-03 0.0 
0.0 0.0 0.0 
-7.340956325441e-05 9.684951854926e-06 0.0 
9.684951854926e-06 6.708917104389e-03 0.0 
0.0 0.0 0.0 
1.731003203371e-04 3.187149415051e-05 0.0 
3.187149415051e-05 4.154518004509e-03 0.0 
0.0 0.0 0.0 
1.796187102048e-04 -1.074891661977e-05 0.0 
-1.074891661977e-05 4.290207487021e-03 0.0 
0.0 0.0 0.0 
1.625690768794e-04 3.532727417394e-07 0.0 
3.532727417394e-07 4.443837017690e-03 0.0 
0.0 0.0 0.0 
4.758880620126e-05 3.131023647699e-04 0.0 
3.131023647699e-04 7.544969502477e-03 0.0 
0.0 0.0 0.0 
7.725158471139e-05 3.201923883688e-06 0.0 
3.201923883688e-06 1.053132980114e-03 0.0 
0.0 0.0 0.0 
-6.831648423233e-05 2.554025443484e-04 0.0 
2.554025443484e-04 8.279821943888e-03 0.0 
0.0 0.0 0.0 
-7.839533075726e-05 1.440532885562e-05 0.0 
1.440532885562e-05 5.988782599975e-03 0.0 
0.0 0.0 0.0 
-4.128768235212e-05 8.300633739731e-05 0.0 
8.300633739731e-05 8.811719916019e-03 0.0 
0.0 0.0 0.0 
3.695715181973e-05 2.644279981776e-04 0.0 
2.644279981776e-04 7.538952347196e-03 0.0 
0.0 0.0 0.0 
-7.795236752017e-05 -2.146299854838e-07 0.0 
-2.146299854838e-07 6.425996596244e-03 0.0 
0.0 0.0 0.0 
-6.808064164110e-05 2.380908840290e-04 0.0 
2.380908840290e-04 8.192311416324e-03 0.0 
0.0 0.0 0.0 
-5.842734649431e-07 3.360780297805e-04 0.0 
3.360780297805e-04 8.079324789291e-03 0.0 
0.0 0.0 0.0 
-1.402101368764e-05 3.398866021223e-04 0.0 
3.398866021223e-04 8.396652503284e-03 0.0 
0.0 0.0 0.0 
5.863222324454e-05 3.085736754271e-04 0.0 
3.085736754271e-04 5.130004583973e-04 0.0 
0.0 0.0 0.0 
-8.367637980244e-05 2.050772483738e-04 0.0 
2.050772483738e-04 8.196021617251e-03 0.0 
0.0 0.0 0.0 
-6.202352803830e-05 2.703060204915e-04 0.0 
2.703060204915e-04 8.382405045960e-03 0.0 
0.0 0.0 0.0 
6.652526183704e-06 -3.961936420831e-05 0.0 
-3.961936420831e-05 6.733620804869e-04 0.0 
0.0 0.0 0.0 
1.698765891081e-04 -1.471280103443e-05 0.0 
-1.471280103443e-05 3.942392320923e-03 0.0 
0.0 0.0 0.0 
-2.684085669535e-05 2.530024856720e-04 0.0 
2.530024856720e-04 5.579162221736e-04 0.0 
0.0 0.0 0.0 
-7.314155871452e-05 2.149258421622e-04 0.0 
2.149258421622e-04 8.445411491284e-03 0.0 
0.0 0.0 0.0 
-7.485630301529e-05 1.294239463887e-05 0.0 
1.294239463887e-05 1.464880269338e-03 0.0 
0.0 0.0 0.0 
-6.605832268058e-05 2.404362710343e-05 0.0 
2.404362710343e-05 1.478115447626e-03 0.0 
0.0 0.0 0.0 
-4.368188076653e-05 7.918708951999e-06 0.0 
7.918708951999e-06 1.479200904000e-03 0.0 
0.0 0.0 0.0 
-6.310375210150e-05 2.700849902038e-06 0.0 
2.700849902038e-06 1.486769637665e-03 0.0 
0.0 0.0 0.0 
-5.160889326117e-05 1.778096933009e-06 0.0 
1.778096933009e-06 1.486834341679e-03 0.0 
0.0 0.0 0.0 
-6.082925022854e-05 -1.900469778660e-06 0.0 
-1.900469778660e-06 1.487977034615e-03 0.0 
0.0 0.0 0.0 
-5.494389796334e-05 -1.801248924590e-06 0.0 
-1.801248924590e-06 1.487935356817e-03 0.0 
0.0 0.0 0.0 
-5.931852112917e-05 -3.823787597520e-06 0.0 
-3.823787597520e-06 1.487891881404e-03 0.0 
0.0 0.0 0.0 
-5.456793036551e-05 -3.301070180608e-06 0.0 
-3.301070180608e-06 1.487766453083e-03 0.0 
0.0 0.0 0.0 
-5.752865879682e-05 -4.936622049708e-06 0.0 
-4.936622049708e-06 1.487213587686e-03 0.0 
0.0 0.0 0.0 
-5.197351276531e-05 -3.915757208410e-06 0.0 
-3.915757208410e-06 1.486942925621e-03 0.0 
0.0 0.0 0.0 
-5.504887277674e-05 -5.776689728645e-06 0.0 
-5.776689728645e-06 1.486048078594e-03 0.0 
0.0 0.0 0.0 
-4.789153440143e-05 -4.226391293252e-06 0.0 
-4.226391293252e-06 1.485569614887e-03 0.0 
0.0 0.0 0.0 
-5.178032784725e-05 -6.552612024925e-06 0.0 
-6.552612024925e-06 1.484448896507e-03 0.0 
0.0 0.0 0.0 
-4.264966114098e-05 -4.453047845233e-06 0.0 
-4.453047845233e-06 1.483695995726e-03 0.0 
0.0 0.0 0.0 
-4.772618563653e-05 -7.332106243838e-06 0.0 
-7.332106243838e-06 1.482454666170e-03 0.0 
0.0 0.0 0.0 
-3.637536401024e-05 -4.657571453220e-06 0.0 
-4.657571453220e-06 1.481351327623e-03 0.0 
0.0 0.0 0.0 
-4.290947554320e-05 -8.122901118714e-06 0.0 
-8.122901118714e-06 1.480090815553e-03 0.0 
0.0 0.0 0.0 
-2.909291620001e-05 -4.842569647564e-06 0.0 
-4.842569647564e-06 1.478548948596e-03 0.0 
0.0 0.0 0.0 
-3.734941508193e-05 -8.913077654193e-06 0.0 
-8.913077654193e-06 1.477373620528e-03 0.0 
0.0 0.0 0.0 
-2.077009130408e-05 -4.996947705379e-06 0.0 
-4.996947705379e-06 1.475291848830e-03 0.0 
0.0 0.0 0.0 
-3.106117899454e-05 -9.692000831567e-06 0.0 
-9.692000831567e-06 1.474317751943e-03 0.0 
0.0 0.0 0.0 
5.362569804968e-05 3.915875494214e-05 0.0 
3.915875494214e-05 1.447594288000e-03 0.0 
0.0 0.0 0.0 
-1.134639237621e-05 -5.116245042563e-06 0.0 
-5.116245042563e-06 1.471580420988e-03 0.0 
0.0 0.0 0.0 
-2.405899573421e-05 -1.046280786753e-05 0.0 
-1.046280786753e-05 1.470936533906e-03 0.0 
0.0 0.0 0.0 
-7.617010829852e-07 -5.213708465016e-06 0.0 
-5.213708465016e-06 1.467413084234e-03 0.0 
0.0 0.0 0.0 
-1.464071448831e-05 3.752946187000e-05 0.0 
3.752946187000e-05 1.463904977846e-03 0.0 
0.0 0.0 0.0 
-1.637462470083e-05 -1.124434309831e-05 0.0 
-1.124434309831e-05 1.467248476908e-03 0.0 
0.0 0.0 0.0 
1.102035415279e-05 -5.312189368732e-06 0.0 
-5.312189368732e-06 1.462788538290e-03 0.0 
0.0 0.0 0.0 
-8.058285508650e-06 -1.205940621635e-05 0.0 
-1.205940621635e-05 1.463270490459e-03 0.0 
0.0 0.0 0.0 
2.400780429479e-05 -5.450156845621e-06 0.0 
-5.450156845621e-06 1.457707183649e-03 0.0 
0.0 0.0 0.0 
7.727844277827e-07 -1.292876153620e-05 0.0 
-1.292876153620e-05 1.459059981803e-03 0.0 
0.0 0.0 0.0 
1.969419826331e-04 -1.175988309507e-05 0.0 
-1.175988309507e-05 1.252114943012e-03 0.0 
0.0 0.0 0.0 
3.818235116237e-05 -5.642083102065e-06 0.0 
-5.642083102065e-06 1.452192881846e-03 0.0 
0.0 0.0 0.0 
1.000880722568e-05 -1.387196099762e-05 0.0 
-1.387196099762e-05 1.454635934190e-03 0.0 
0.0 0.0 0.0 
5.347940420553e-05 -5.944738530920e-06 0.0 
-5.944738530920e-06 1.446254398747e-03 0.0 
0.0 0.0 0.0 
1.934219100264e-05 -1.487808785622e-05 0.0 
-1.487808785622e-05 1.450169024269e-03 0.0 
0.0 0.0 0.0 
6.980823383063e-05 -6.287270064797e-06 0.0 
-6.287270064797e-06 1.439976210527e-03 0.0 
0.0 0.0 0.0 
2.864326541263e-05 -1.595835439409e-05 0.0 
-1.595835439409e-05 1.445582611080e-03 0.0 
0.0 0.0 0.0 
8.694452997116e-05 -6.805359634418e-06 0.0 
-6.805359634418e-06 1.433329353958e-03 0.0 
0.0 0.0 0.0 
3.705372344909e-05 -1.691818950014e-05 0.0 
-1.691818950014e-05 1.441493732844e-03 0.0 
0.0 0.0 0.0 
1.048006461375e-04 -7.095789000800e-06 0.0 
-7.095789000800e-06 1.426664143594e-03 0.0 
0.0 0.0 0.0 
4.483746563588e-05 -1.802160322406e-05 0.0 
-1.802160322406e-05 1.437126688024e-03 0.0 
0.0 0.0 0.0 
1.224871233065e-04 -7.668161445130e-06 0.0 
-7.668161445130e-06 1.419449968878e-03 0.0 
0.0 0.0 0.0 
4.948151287398e-05 -1.808623582567e-05 0.0 
-1.808623582567e-05 1.434643010646e-03 0.0 
0.0 0.0 0.0 
-7.519611881301e-05 1.710290544190e-04 0.0 
1.710290544190e-04 1.547985285199e-03 0.0 
0.0 0.0 0.0 
5.330596425690e-05 -1.860631239248e-05 0.0 
-1.860631239248e-05 1.430355754629e-03 0.0 
0.0 0.0 0.0 
1.405008586555e-04 -6.732454721468e-06 0.0 
-6.732454721468e-06 1.412934267265e-03 0.0 
0.0 0.0 0.0 
4.753875150709e-05 -1.387396405319e-05 0.0 
-1.387396405319e-05 1.433133703494e-03 0.0 
0.0 0.0 0.0 
1.555794202517e-04 -6.490202786198e-06 0.0 
-6.490202786198e-06 1.404663590940e-03 0.0 
0.0 0.0 0.0 
4.264706933044e-05 -1.385384621429e-05 0.0 
-1.385384621429e-05 1.428765911653e-03 0.0 
0.0 0.0 0.0 
1.733381357840e-04 -1.074147225444e-06 0.0 
-1.074147225444e-06 1.401000785720e-03 0.0 
0.0 0.0 0.0 
2.657962659747e-05 9.646108238514e-06 0.0 
9.646108238514e-06 1.442202614501e-03 0.0 
0.0 0.0 0.0 
1.793145598319e-04 3.238433370598e-06 0.0 
3.238433370598e-06 1.388639635684e-03 0.0 
0.0 0.0 0.0 
1.898506620082e-04 2.679776919456e-05 0.0 
2.679776919456e-05 1.394015744887e-03 0.0 
0.0 0.0 0.0 
-2.230632471134e-05 3.749344264242e-06 0.0 
3.749344264242e-06 1.410430685995e-03 0.0 
0.0 0.0 0.0 
-1.221936423446e-04 -4.986605370748e-05 0.0 
-4.986605370748e-05 1.533866814272e-03 0.0 
0.0 0.0 0.0 
-8.262497158118e-05 6.554518848834e-05 0.0 
6.554518848834e-05 1.463068689249e-03 0.0 
0.0 0.0 0.0 
-9.100506266269e-05 8.334440224500e-07 0.0 
8.334440224500e-07 1.603395168494e-03 0.0 
0.0 0.0 0.0 
-1.136665321212e-04 1.612800366273e-05 0.0 
1.612800366273e-05 1.395918749929e-03 0.0 
0.0 0.0 0.0 
-6.685243892024e-06 1.836493881779e-04 0.0 
1.836493881779e-04 1.239552355004e-03 0.0 
0.0 0.0 0.0 
-7.332111578429e-05 -5.363649839137e-06 0.0 
-5.363649839137e-06 1.962252611905e-03 0.0 
0.0 0.0 0.0 
-6.605832268058e-05 1.352200143355e-05 0.0 
1.352200143355e-05 1.919219191276e-03 0.0 
0.0 0.0 0.0 
-6.855323183130e-05 4.860780474308e-07 0.0 
4.860780474308e-07 1.918220118633e-03 0.0 
0.0 0.0 0.0 
-6.310375210150e-05 -8.418515100468e-07 0.0 
-8.418515100468e-07 1.915883923438e-03 0.0 
0.0 0.0 0.0 
-6.652539246776e-05 -1.436283670342e-06 0.0 
-1.436283670342e-06 1.915826723708e-03 0.0 
0.0 0.0 0.0 
-6.082925022854e-05 -3.581345108979e-06 0.0 
-3.581345108979e-06 1.914933319485e-03 0.0 
0.0 0.0 0.0 
-6.463393370482e-05 -3.853502937963e-06 0.0 
-3.853502937963e-06 1.914913961970e-03 0.0 
0.0 0.0 0.0 
-5.931852112917e-05 -5.851461092990e-06 0.0 
-5.851461092990e-06 1.914183293731e-03 0.0 
0.0 0.0 0.0 
-6.281203500813e-05 -6.039600613026e-06 0.0 
-6.039600613026e-06 1.914179412553e-03 0.0 
0.0 0.0 0.0 
-5.752865879682e-05 -7.937140949730e-06 0.0 
-7.937140949730e-06 1.913402122948e-03 0.0 
0.0 0.0 0.0 
-6.086513116677e-05 -7.925217564643e-06 0.0 
-7.925217564643e-06 1.913449294989e-03 0.0 
0.0 0.0 0.0 
-5.504887277674e-05 -9.846914608717e-06 0.0 
-9.846914608717e-06 1.912419568260e-03 0.0 
0.0 0.0 0.0 
-5.861922403239e-05 -9.586366064836e-06 0.0 
-9.586366064836e-06 1.912554415357e-03 0.0 
0.0 0.0 0.0 
-5.178032784725e-05 -1.164841574248e-05 0.0 
-1.164841574248e-05 1.911147550087e-03 0.0 
0.0 0.0 0.0 
-5.598779908433e-05 -1.110225625563e-05 0.0 
-1.110225625563e-05 1.911415184277e-03 0.0 
0.0 0.0 0.0 
-4.772618563653e-05 -1.339332588147e-05 0.0 
-1.339332588147e-05 1.909554955024e-03 0.0 
0.0 0.0 0.0 
-5.294712313475e-05 -1.252210087650e-05 0.0 
-1.252210087650e-05 1.910012929337e-03 0.0 
0.0 0.0 0.0 
-4.290947554320e-05 -1.510516054444e-05 0.0 
-1.510516054444e-05 1.907637335504e-03 0.0 
0.0 0.0 0.0 
-4.950499144296e-05 -1.386623357381e-05 0.0 
-1.386623357381e-05 1.908357762884e-03 0.0 
0.0 0.0 0.0 
-3.734941508193e-05 -1.678523523719e-05 0.0 
-1.678523523719e-05 1.905404027391e-03 0.0 
0.0 0.0 0.0 
-3.982538473035e-05 4.234808356298e-05 0.0 
4.234808356298e-05 1.904857032525e-03 0.0 
0.0 0.0 0.0 
-4.569091100859e-05 -1.513289658491e-05 0.0 
-1.513289658491e-05 1.906476363347e-03 0.0 
0.0 0.0 0.0 
-3.106117899454e-05 -1.842012620627e-05 0.0 
-1.842012620627e-05 1.902876993523e-03 0.0 
0.0 0.0 0.0 
-4.155685555629e-05 -1.630638750340e-05 0.0 
-1.630638750340e-05 1.904411506586e-03 0.0 
0.0 0.0 0.0 
2.657962659747e-05 3.839160255144e-05 0.0 
3.839160255144e-05 1.740627723609e-03 0.0 
0.0 0.0 0.0 
-2.405899573421e-05 -1.999259622299e-05 0.0 
-1.999259622299e-05 1.900098273514e-03 0.0 
0.0 0.0 0.0 
-3.719970214644e-05 -1.739336210569e-05 0.0 
-1.739336210569e-05 1.902219184722e-03 0.0 
0.0 0.0 0.0 
-5.686757704415e-05 4.477095845168e-05 0.0 
4.477095845168e-05 1.906694705715e-03 0.0 
0.0 0.0 0.0 
-1.637462470083e-05 -2.149283551620e-05 0.0 
-2.149283551620e-05 1.897089638524e-03 0.0 
0.0 0.0 0.0 
-3.272712514590e-05 -1.838301435610e-05 0.0 
-1.838301435610e-05 1.899949471989e-03 0.0 
0.0 0.0 0.0 
-8.058285508650e-06 -2.290706596446e-05 0.0 
-2.290706596446e-05 1.893898033054e-03 0.0 
0.0 0.0 0.0 
-2.829394795245e-05 -1.930783270624e-05 0.0 
-1.930783270624e-05 1.897658324448e-03 0.0 
0.0 0.0 0.0 
7.727844277827e-07 -2.419743091649e-05 0.0 
-2.419743091649e-05 1.890497144909e-03 0.0 
0.0 0.0 0.0 
-2.401961877607e-05 -2.003402543152e-05 0.0 
-2.003402543152e-05 1.895406450362e-03 0.0 
0.0 0.0 0.0 
1.000880722568e-05 -2.528888962214e-05 0.0 
-2.528888962214e-05 1.887064321588e-03 0.0 
0.0 0.0 0.0 
-2.027618940492e-05 -2.069937730263e-05 0.0 
-2.069937730263e-05 1.893301977580e-03 0.0 
0.0 0.0 0.0 
1.934219100264e-05 -2.605546768245e-05 0.0 
-2.605546768245e-05 1.883368652073e-03 0.0 
0.0 0.0 0.0 
-6.980518965549e-05 1.135490316863e-04 0.0 
1.135490316863e-04 1.954108188944e-03 0.0 
0.0 0.0 0.0 
-1.711353994327e-05 -2.073127221610e-05 0.0 
-2.073127221610e-05 1.891422849830e-03 0.0 
0.0 0.0 0.0 
2.864326541263e-05 -2.629348231722e-05 0.0 
-2.629348231722e-05 1.880054633865e-03 0.0 
0.0 0.0 0.0 
-1.556465639230e-05 -2.078546048141e-05 0.0 
-2.078546048141e-05 1.889981745890e-03 0.0 
0.0 0.0 0.0 
3.705372344909e-05 -2.562715027195e-05 0.0 
-2.562715027195e-05 1.876014261668e-03 0.0 
0.0 0.0 0.0 
4.483746563588e-05 -2.372789974207e-05 0.0 
-2.372789974207e-05 1.874037986441e-03 0.0 
0.0 0.0 0.0 
-1.491338934712e-05 -1.857340554683e-05 0.0 
-1.857340554683e-05 1.889127661868e-03 0.0 
0.0 0.0 0.0 
4.948151287398e-05 -1.979063535362e-05 0.0 
-1.979063535362e-05 1.868553476490e-03 0.0 
0.0 0.0 0.0 
-1.913814087817e-05 -1.788351891693e-05 0.0 
-1.788351891693e-05 1.889192339322e-03 0.0 
0.0 0.0 0.0 
5.330596425690e-05 -1.296851789762e-05 0.0 
-1.296851789762e-05 1.869988517777e-03 0.0 
0.0 0.0 0.0 
-2.222234034055e-05 -9.747178131889e-06 0.0 
-9.747178131889e-06 1.889886351888e-03 0.0 
0.0 0.0 0.0 
4.753875150709e-05 4.482704453338e-08 0.0 
4.482704453338e-08 1.857315138467e-03 0.0 
0.0 0.0 0.0 
4.264706933044e-05 2.571677019731e-05 0.0 
2.571677019731e-05 1.865371649707e-03 0.0 
0.0 0.0 0.0 
-3.890158736897e-05 -8.704288318087e-06 0.0 
-8.704288318087e-06 1.891799846165e-03 0.0 
0.0 0.0 0.0 
-3.163368446601e-05 1.935458744590e-05 0.0 
1.935458744590e-05 1.892004666973e-03 0.0 
0.0 0.0 0.0 
-4.812400247078e-05 4.759265263861e-05 0.0 
4.759265263861e-05 1.795466062764e-03 0.0 
0.0 0.0 0.0 
-6.756745403191e-05 -5.505585477664e-05 0.0 
-5.505585477664e-05 1.910491017693e-03 0.0 
0.0 0.0 0.0 
-9.790489110439e-05 5.913221222232e-05 0.0 
5.913221222232e-05 1.964742313616e-03 0.0 
0.0 0.0 0.0 
-9.100506266269e-05 -2.998536058202e-06 0.0 
-2.998536058202e-06 1.830923414721e-03 0.0 
0.0 0.0 0.0 
-7.460257322733e-05 8.428434223224e-06 0.0 
8.428434223224e-06 2.041785031704e-03 0.0 
0.0 0.0 0.0 
-1.464071448831e-05 1.214170311654e-04 0.0 
1.214170311654e-04 1.713270862241e-03 0.0 
0.0 0.0 0.0 
-7.332111578429e-05 -1.294106481027e-05 0.0 
-1.294106481027e-05 2.309007612083e-03 0.0 
0.0 0.0 0.0 
-7.325151196569e-05 6.017265193639e-06 0.0 
6.017265193639e-06 2.345401586371e-03 0.0 
0.0 0.0 0.0 
-6.855323183130e-05 -3.608518614442e-06 0.0 
-3.608518614442e-06 2.346135081160e-03 0.0 
0.0 0.0 0.0 
-7.191871759604e-05 -4.315151452341e-06 0.0 
-4.315151452341e-06 2.347791712218e-03 0.0 
0.0 0.0 0.0 
-6.652539246776e-05 -4.605874082155e-06 0.0 
-4.605874082155e-06 2.347807305981e-03 0.0 
0.0 0.0 0.0 
-7.063065007540e-05 -6.706496013168e-06 0.0 
-6.706496013168e-06 2.347427205703e-03 0.0 
0.0 0.0 0.0 
-6.463393370482e-05 -6.373147861837e-06 0.0 
-6.373147861837e-06 2.347340437843e-03 0.0 
0.0 0.0 0.0 
-6.937245680594e-05 -8.828463605025e-06 0.0 
-8.828463605025e-06 2.346773061430e-03 0.0 
0.0 0.0 0.0 
-6.281203500813e-05 -8.445983366544e-06 0.0 
-8.445983366544e-06 2.346638852750e-03 0.0 
0.0 0.0 0.0 
-6.817055378783e-05 -1.111027943605e-05 0.0 
-1.111027943605e-05 2.346118376916e-03 0.0 
0.0 0.0 0.0 
-6.086513116677e-05 -1.059381435318e-05 0.0 
-1.059381435318e-05 2.345901931122e-03 0.0 
0.0 0.0 0.0 
-6.695864995632e-05 -1.348869105131e-05 0.0 
-1.348869105131e-05 2.345454946138e-03 0.0 
0.0 0.0 0.0 
-5.861922403239e-05 -1.269592670562e-05 0.0 
-1.269592670562e-05 2.345090388330e-03 0.0 
0.0 0.0 0.0 
-6.565096204347e-05 -1.588531444547e-05 0.0 
-1.588531444547e-05 2.344727520908e-03 0.0 
0.0 0.0 0.0 
-5.598779908433e-05 -1.471307241652e-05 0.0 
-1.471307241652e-05 2.344138117137e-03 0.0 
0.0 0.0 0.0 
-6.421163026338e-05 -1.825469087838e-05 0.0 
-1.825469087838e-05 2.343904295425e-03 0.0 
0.0 0.0 0.0 
-5.294712313475e-05 -1.664029674010e-05 0.0 
-1.664029674010e-05 2.343008031376e-03 0.0 
0.0 0.0 0.0 
-6.263587237931e-05 -2.057285043517e-05 0.0 
-2.057285043517e-05 2.342976063598e-03 0.0 
0.0 0.0 0.0 
-4.950499144296e-05 -1.847192866577e-05 0.0 
-1.847192866577e-05 2.341682407263e-03 0.0 
0.0 0.0 0.0 
-8.547689069838e-05 3.128142081120e-05 0.0 
3.128142081120e-05 2.350447777564e-03 0.0 
0.0 0.0 0.0 
-6.094936552914e-05 -2.280987899804e-05 0.0 
-2.280987899804e-05 2.341956435600e-03 0.0 
0.0 0.0 0.0 
-4.569091100859e-05 -2.018981524629e-05 0.0 
-2.018981524629e-05 2.340165153823e-03 0.0 
0.0 0.0 0.0 
-5.919160208034e-05 -2.491959071292e-05 0.0 
-2.491959071292e-05 2.340877150782e-03 0.0 
0.0 0.0 0.0 
-8.559598344116e-05 3.502559042756e-05 0.0 
3.502559042756e-05 2.347016989863e-03 0.0 
0.0 0.0 0.0 
-4.155685555629e-05 -2.175279848983e-05 0.0 
-2.175279848983e-05 2.338476425860e-03 0.0 
0.0 0.0 0.0 
-5.742753720972e-05 -2.681898002765e-05 0.0 
-2.681898002765e-05 2.339804411985e-03 0.0 
0.0 0.0 0.0 
-3.719970214644e-05 -2.311547235973e-05 0.0 
-2.311547235973e-05 2.336688418462e-03 0.0 
0.0 0.0 0.0 
-5.586799242441e-05 -2.847826999092e-05 0.0 
-2.847826999092e-05 2.338819792326e-03 0.0 
0.0 0.0 0.0 
-3.272712514590e-05 -2.423088637221e-05 0.0 
-2.423088637221e-05 2.334855369053e-03 0.0 
0.0 0.0 0.0 
-3.163368446601e-05 4.030709491059e-05 0.0 
4.030709491059e-05 2.189502705743e-03 0.0 
0.0 0.0 0.0 
-5.459322676737e-05 -2.980872081018e-05 0.0 
-2.980872081018e-05 2.337988204189e-03 0.0 
0.0 0.0 0.0 
-2.829394795245e-05 -2.503313682757e-05 0.0 
-2.503313682757e-05 2.333044695039e-03 0.0 
0.0 0.0 0.0 
-5.396148340198e-05 -3.081214489639e-05 0.0 
-3.081214489639e-05 2.337345183108e-03 0.0 
0.0 0.0 0.0 
-2.401961877607e-05 -2.537490929524e-05 0.0 
-2.537490929524e-05 2.331164459225e-03 0.0 
0.0 0.0 0.0 
-5.369548064915e-05 -3.105025899394e-05 0.0 
-3.105025899394e-05 2.336968696613e-03 0.0 
0.0 0.0 0.0 
-2.027618940492e-05 -2.508779255001e-05 0.0 
-2.508779255001e-05 2.329498350519e-03 0.0 
0.0 0.0 0.0 
-5.501882972681e-05 -3.081292137536e-05 0.0 
-3.081292137536e-05 2.336864636277e-03 0.0 
0.0 0.0 0.0 
-1.711353994327e-05 -2.377658069566e-05 0.0 
-2.377658069566e-05 2.327451417476e-03 0.0 
0.0 0.0 0.0 
-5.638575063560e-05 -2.854206091211e-05 0.0 
-2.854206091211e-05 2.337219283357e-03 0.0 
0.0 0.0 0.0 
-1.556465639230e-05 -2.115440984965e-05 0.0 
-2.115440984965e-05 2.326370757648e-03 0.0 
0.0 0.0 0.0 
-6.186285712118e-05 -2.614541607982e-05 0.0 
-2.614541607982e-05 2.337761027180e-03 0.0 
0.0 0.0 0.0 
-9.007407946682e-05 8.573792220286e-05 0.0 
8.573792220286e-05 2.386724190267e-03 0.0 
0.0 0.0 0.0 
-6.482310216671e-05 -1.703522288082e-05 0.0 
-1.703522288082e-05 2.339579497276e-03 0.0 
0.0 0.0 0.0 
-1.491338934712e-05 -1.603275268389e-05 0.0 
-1.603275268389e-05 2.323036867798e-03 0.0 
0.0 0.0 0.0 
-8.039366522394e-05 -1.333615040507e-05 0.0 
-1.333615040507e-05 2.340466931709e-03 0.0 
0.0 0.0 0.0 
-1.913814087817e-05 -8.716145315652e-06 0.0 
-8.716145315652e-06 2.325409403590e-03 0.0 
0.0 0.0 0.0 
-7.229563084576e-05 1.335958543224e-05 0.0 
1.335958543224e-05 2.340600357029e-03 0.0 
0.0 0.0 0.0 
-2.222234034055e-05 4.407113791226e-06 0.0 
4.407113791226e-06 2.315041077522e-03 0.0 
0.0 0.0 0.0 
-3.890158736897e-05 2.555486991344e-05 0.0 
2.555486991344e-05 2.323279140507e-03 0.0 
0.0 0.0 0.0 
-7.277376220538e-05 4.087432914060e-05 0.0 
4.087432914060e-05 2.215853440106e-03 0.0 
0.0 0.0 0.0 
-8.964950867141e-05 -5.753881184856e-05 0.0 
-5.753881184856e-05 2.362187291382e-03 0.0 
0.0 0.0 0.0 
-5.854805560845e-05 5.337529640451e-05 0.0 
5.337529640451e-05 2.306451519397e-03 0.0 
0.0 0.0 0.0 
-7.330562690955e-05 -7.186233124030e-06 0.0 
-7.186233124030e-06 2.445234495928e-03 0.0 
0.0 0.0 0.0 
-7.460257322733e-05 4.499562793521e-06 0.0 
4.499562793521e-06 2.226022861576e-03 0.0 
0.0 0.0 0.0 
-5.686757704415e-05 8.907757977094e-05 0.0 
8.907757977094e-05 2.167969832035e-03 0.0 
0.0 0.0 0.0 
-7.486918412880e-05 -1.459177294281e-05 0.0 
-1.459177294281e-05 2.813550696990e-03 0.0 
0.0 0.0 0.0 
-7.325151196569e-05 3.823825548894e-06 0.0 
3.823825548894e-06 2.776840793397e-03 0.0 
0.0 0.0 0.0 
-7.478383085924e-05 -5.842257821678e-06 0.0 
-5.842257821678e-06 2.776003161041e-03 0.0 
0.0 0.0 0.0 
-7.191871759604e-05 -6.205018299282e-06 0.0 
-6.205018299282e-06 2.774177776365e-03 0.0 
0.0 0.0 0.0 
-7.444244788946e-05 -6.746346881922e-06 0.0 
-6.746346881922e-06 2.774117902492e-03 0.0 
0.0 0.0 0.0 
-7.063065007540e-05 -8.368516013583e-06 0.0 
-8.368516013583e-06 2.773902425262e-03 0.0 
0.0 0.0 0.0 
-7.406845900559e-05 -8.423518531579e-06 0.0 
-8.423518531579e-06 2.773918854381e-03 0.0 
0.0 0.0 0.0 
-6.937245680594e-05 -1.036064627065e-05 0.0 
-1.036064627065e-05 2.773641380909e-03 0.0 
0.0 0.0 0.0 
-7.373546649747e-05 -1.038802538864e-05 0.0 
-1.038802538864e-05 2.773686976773e-03 0.0 
0.0 0.0 0.0 
-6.817055378783e-05 -1.261359048891e-05 0.0 
-1.261359048891e-05 2.773349651269e-03 0.0 
0.0 0.0 0.0 
-7.348581935684e-05 -1.254204557793e-05 0.0 
-1.254204557793e-05 2.773458745008e-03 0.0 
0.0 0.0 0.0 
-6.695864995632e-05 -1.504751670790e-05 0.0 
-1.504751670790e-05 2.773015363985e-03 0.0 
0.0 0.0 0.0 
-7.330617495183e-05 -1.478816095466e-05 0.0 
-1.478816095466e-05 2.773241287345e-03 0.0 
0.0 0.0 0.0 
-6.565096204347e-05 -1.755276613121e-05 0.0 
-1.755276613121e-05 2.772584828110e-03 0.0 
0.0 0.0 0.0 
-7.315043625444e-05 -1.701231078470e-05 0.0 
-1.701231078470e-05 2.772999639775e-03 0.0 
0.0 0.0 0.0 
-6.421163026338e-05 -2.002566722086e-05 0.0 
-2.002566722086e-05 2.772064025365e-03 0.0 
0.0 0.0 0.0 
-7.308240578574e-05 -1.915795145607e-05 0.0 
-1.915795145607e-05 2.772743137591e-03 0.0 
0.0 0.0 0.0 
-6.263587237931e-05 -2.241181674211e-05 0.0 
-2.241181674211e-05 2.771437889260e-03 0.0 
0.0 0.0 0.0 
-1.144188704066e-04 1.701676550470e-05 0.0 
1.701676550470e-05 2.790852402185e-03 0.0 
0.0 0.0 0.0 
-7.314428908201e-05 -2.117497043496e-05 0.0 
-2.117497043496e-05 2.772472265571e-03 0.0 
0.0 0.0 0.0 
-6.094936552914e-05 -2.465612849782e-05 0.0 
-2.465612849782e-05 2.770709764441e-03 0.0 
0.0 0.0 0.0 
-7.338188771500e-05 -2.302498967125e-05 0.0 
-2.302498967125e-05 2.772200807767e-03 0.0 
0.0 0.0 0.0 
-7.229563084576e-05 3.052670705769e-05 0.0 
3.052670705769e-05 2.634344484017e-03 0.0 
0.0 0.0 0.0 
-5.919160208034e-05 -2.669012493951e-05 0.0 
-2.669012493951e-05 2.769866484953e-03 0.0 
0.0 0.0 0.0 
-1.083019331735e-04 2.601940199926e-05 0.0 
2.601940199926e-05 2.780320531382e-03 0.0 
0.0 0.0 0.0 
-7.380684727742e-05 -2.463176024022e-05 0.0 
-2.463176024022e-05 2.771935024620e-03 0.0 
0.0 0.0 0.0 
-5.742753720972e-05 -2.838475382609e-05 0.0 
-2.838475382609e-05 2.768890137977e-03 0.0 
0.0 0.0 0.0 
-7.446843730430e-05 -2.574750949024e-05 0.0 
-2.574750949024e-05 2.771741771409e-03 0.0 
0.0 0.0 0.0 
-5.586799242441e-05 -2.957213157598e-05 0.0 
-2.957213157598e-05 2.768061635239e-03 0.0 
0.0 0.0 0.0 
-7.580457042755e-05 -2.648542802419e-05 0.0 
-2.648542802419e-05 2.771787175628e-03 0.0 
0.0 0.0 0.0 
-5.459322676737e-05 -3.018930716123e-05 0.0 
-3.018930716123e-05 2.767146042377e-03 0.0 
0.0 0.0 0.0 
-7.774981697084e-05 -2.641174497932e-05 0.0 
-2.641174497932e-05 2.772071972720e-03 0.0 
0.0 0.0 0.0 
-5.396148340198e-05 -3.004724622252e-05 0.0 
-3.004724622252e-05 2.766696019610e-03 0.0 
0.0 0.0 0.0 
-1.049396082388e-04 6.179352371343e-05 0.0 
6.179352371343e-05 2.818855008496e-03 0.0 
0.0 0.0 0.0 
-8.087373769727e-05 -2.621425103161e-05 0.0 
-2.621425103161e-05 2.772618375953e-03 0.0 
0.0 0.0 0.0 
-5.369548064915e-05 -2.893930204734e-05 0.0 
-2.893930204734e-05 2.765252365524e-03 0.0 
0.0 0.0 0.0 
-8.396186949966e-05 -2.372741965510e-05 0.0 
-2.372741965510e-05 2.773238362896e-03 0.0 
0.0 0.0 0.0 
-5.501882972681e-05 -2.628247831632e-05 0.0 
-2.628247831632e-05 2.765625171936e-03 0.0 
0.0 0.0 0.0 
-5.638575063560e-05 -2.171446764053e-05 0.0 
-2.171446764053e-05 2.762029049161e-03 0.0 
0.0 0.0 0.0 
-9.003181524392e-05 -2.219520379487e-05 0.0 
-2.219520379487e-05 2.774185065091e-03 0.0 
0.0 0.0 0.0 
-6.186285712118e-05 -1.419730314661e-05 0.0 
-1.419730314661e-05 2.765128613486e-03 0.0 
0.0 0.0 0.0 
-9.345287445983e-05 -1.386100010423e-05 0.0 
-1.386100010423e-05 2.774840529764e-03 0.0 
0.0 0.0 0.0 
-6.482310216671e-05 -2.145831554243e-06 0.0 
-2.145831554243e-06 2.752902709154e-03 0.0 
0.0 0.0 0.0 
-8.039366522394e-05 1.710788176310e-05 0.0 
1.710788176310e-05 2.765412913875e-03 0.0 
0.0 0.0 0.0 
-1.063679868468e-04 -1.177897654497e-05 0.0 
-1.177897654497e-05 2.775644574184e-03 0.0 
0.0 0.0 0.0 
-9.631154537670e-05 1.337737803673e-05 0.0 
1.337737803673e-05 2.773638646954e-03 0.0 
0.0 0.0 0.0 
-9.270507716752e-05 3.046752538223e-05 0.0 
3.046752538223e-05 2.645506167566e-03 0.0 
0.0 0.0 0.0 
-5.767820023739e-05 -5.751450943438e-05 0.0 
-5.751450943438e-05 2.758466566570e-03 0.0 
0.0 0.0 0.0 
-9.005964758513e-05 5.278985210104e-05 0.0 
5.278985210104e-05 2.816487511719e-03 0.0 
0.0 0.0 0.0 
-7.330562690955e-05 -7.557171293137e-06 0.0 
-7.557171293137e-06 2.675679307169e-03 0.0 
0.0 0.0 0.0 
-7.480453248354e-05 4.545870494700e-06 0.0 
4.545870494700e-06 2.896278851875e-03 0.0 
0.0 0.0 0.0 
-8.559598344116e-05 6.279599408644e-05 0.0 
6.279599408644e-05 2.611400425430e-03 0.0 
0.0 0.0 0.0 
-7.486918412880e-05 -1.504117562813e-05 0.0 
-1.504117562813e-05 3.164399624981e-03 0.0 
0.0 0.0 0.0 
-7.744992063996e-05 3.511715896548e-06 0.0 
3.511715896548e-06 3.202253316275e-03 0.0 
0.0 0.0 0.0 
-7.478383085924e-05 -6.776903692757e-06 0.0 
-6.776903692757e-06 3.203142938980e-03 0.0 
0.0 0.0 0.0 
-7.761588754052e-05 -6.874773306802e-06 0.0 
-6.874773306802e-06 3.205434668947e-03 0.0 
0.0 0.0 0.0 
-7.444244788946e-05 -7.686728568705e-06 0.0 
-7.686728568705e-06 3.205527078539e-03 0.0 
0.0 0.0 0.0 
-7.790141973862e-05 -9.051188319647e-06 0.0 
-9.051188319647e-06 3.205919022709e-03 0.0 
0.0 0.0 0.0 
-7.406845900559e-05 -9.220008008378e-06 0.0 
-9.220008008378e-06 3.205919399965e-03 0.0 
0.0 0.0 0.0 
-7.831175099726e-05 -1.094507759649e-05 0.0 
-1.094507759649e-05 3.206215246540e-03 0.0 
0.0 0.0 0.0 
-7.373546649747e-05 -1.099435459920e-05 0.0 
-1.099435459920e-05 3.206171891298e-03 0.0 
0.0 0.0 0.0 
-7.887182691668e-05 -1.304473550417e-05 0.0 
-1.304473550417e-05 3.206489837868e-03 0.0 
0.0 0.0 0.0 
-7.348581935684e-05 -1.296666131372e-05 0.0 
-1.296666131372e-05 3.206377837289e-03 0.0 
0.0 0.0 0.0 
-7.966923639058e-05 -1.535165468673e-05 0.0 
-1.535165468673e-05 3.206778414362e-03 0.0 
0.0 0.0 0.0 
-7.330617495183e-05 -1.506823769904e-05 0.0 
-1.506823769904e-05 3.206544808242e-03 0.0 
0.0 0.0 0.0 
-8.056810544443e-05 -1.778877378406e-05 0.0 
-1.778877378406e-05 3.207005693630e-03 0.0 
0.0 0.0 0.0 
-7.315043625444e-05 -1.712283131203e-05 0.0 
-1.712283131203e-05 3.206549708523e-03 0.0 
0.0 0.0 0.0 
-8.160697009019e-05 -2.009988108221e-05 0.0 
-2.009988108221e-05 3.207231711077e-03 0.0 
0.0 0.0 0.0 
-7.308240578574e-05 -1.904064621471e-05 0.0 
-1.904064621471e-05 3.206490909481e-03 0.0 
0.0 0.0 0.0 
-1.330011298413e-04 6.492849850863e-06 0.0 
6.492849850863e-06 3.228173532853e-03 0.0 
0.0 0.0 0.0 
-8.296725307055e-05 -2.225737318852e-05 0.0 
-2.225737318852e-05 3.207510267867e-03 0.0 
0.0 0.0 0.0 
-7.314428908201e-05 -2.076336924223e-05 0.0 
-2.076336924223e-05 3.206396477685e-03 0.0 
0.0 0.0 0.0 
-1.189169710676e-04 1.820329403591e-05 0.0 
1.820329403591e-05 3.214546079079e-03 0.0 
0.0 0.0 0.0 
-8.474902658639e-05 -2.420333849449e-05 0.0 
-2.420333849449e-05 3.207879985460e-03 0.0 
0.0 0.0 0.0 
-7.338188771500e-05 -2.226147838995e-05 0.0 
-2.226147838995e-05 3.206301258510e-03 0.0 
0.0 0.0 0.0 
-8.686231562660e-05 -2.590545847477e-05 0.0 
-2.590545847477e-05 3.208279049136e-03 0.0 
0.0 0.0 0.0 
-7.380684727742e-05 -2.340246108130e-05 0.0 
-2.340246108130e-05 3.206084674580e-03 0.0 
0.0 0.0 0.0 
-8.923217569801e-05 -2.717073002087e-05 0.0 
-2.717073002087e-05 3.208616677488e-03 0.0 
0.0 0.0 0.0 
-9.631154537670e-05 2.717453611780e-05 0.0 
2.717453611780e-05 3.074199895944e-03 0.0 
0.0 0.0 0.0 
-7.446843730430e-05 -2.385424841343e-05 0.0 
-2.385424841343e-05 3.205562998949e-03 0.0 
0.0 0.0 0.0 
-9.181385028112e-05 -2.730682196512e-05 0.0 
-2.730682196512e-05 3.209153417832e-03 0.0 
0.0 0.0 0.0 
-7.580457042755e-05 -2.355800178470e-05 0.0 
-2.355800178470e-05 3.205388626130e-03 0.0 
0.0 0.0 0.0 
-9.603603258157e-05 -2.692474380446e-05 0.0 
-2.692474380446e-05 3.210039139785e-03 0.0 
0.0 0.0 0.0 
-7.774981697084e-05 -2.236005846201e-05 0.0 
-2.236005846201e-05 3.205117748347e-03 0.0 
0.0 0.0 0.0 
-1.001114237825e-04 -2.496771264581e-05 0.0 
-2.496771264581e-05 3.211227540685e-03 0.0 
0.0 0.0 0.0 
-8.087373769727e-05 -2.036262001376e-05 0.0 
-2.036262001376e-05 3.205696565264e-03 0.0 
0.0 0.0 0.0 
-1.073920134930e-04 -2.357722031306e-05 0.0 
-2.357722031306e-05 3.212183009663e-03 0.0 
0.0 0.0 0.0 
-8.396186949966e-05 -1.640453191048e-05 0.0 
-1.640453191048e-05 3.203681404619e-03 0.0 
0.0 0.0 0.0 
-1.102656312264e-04 -1.657815007797e-05 0.0 
-1.657815007797e-05 3.213215860572e-03 0.0 
0.0 0.0 0.0 
-1.142882709696e-04 4.695566232844e-05 0.0 
4.695566232844e-05 3.252777738372e-03 0.0 
0.0 0.0 0.0 
-1.230872045482e-04 -1.481206066880e-05 0.0 
-1.481206066880e-05 3.213012560942e-03 0.0 
0.0 0.0 0.0 
-9.003181524392e-05 -1.117748086670e-05 0.0 
-1.117748086670e-05 3.205891066341e-03 0.0 
0.0 0.0 0.0 
-1.134216685101e-04 6.137067900106e-06 0.0 
6.137067900106e-06 3.211258191544e-03 0.0 
0.0 0.0 0.0 
-9.345287445983e-05 -1.134893326203e-06 0.0 
-1.134893326203e-06 3.196658269034e-03 0.0 
0.0 0.0 0.0 
-1.063679868468e-04 1.237300813241e-05 0.0 
1.237300813241e-05 3.204502235641e-03 0.0 
0.0 0.0 0.0 
-1.037959635527e-04 2.561205850280e-05 0.0 
2.561205850280e-05 3.076424981228e-03 0.0 
0.0 0.0 0.0 
-9.219487521950e-05 -5.747112181739e-05 0.0 
-5.747112181739e-05 3.218798927903e-03 0.0 
0.0 0.0 0.0 
-6.019276256208e-05 5.264600616927e-05 0.0 
5.264600616927e-05 3.161449768108e-03 0.0 
0.0 0.0 0.0 
-7.720505436926e-05 -7.526629957532e-06 0.0 
-7.526629957532e-06 3.302171238432e-03 0.0 
0.0 0.0 0.0 
-7.480453248354e-05 4.416734929011e-06 0.0 
4.416734929011e-06 3.081071531414e-03 0.0 
0.0 0.0 0.0 
-1.083019331735e-04 4.870518439222e-05 0.0 
4.870518439222e-05 3.056279051826e-03 0.0 
0.0 0.0 0.0 
-8.009183380053e-05 -1.492272081037e-05 0.0 
-1.492272081037e-05 3.670518285799e-03 0.0 
0.0 0.0 0.0 
-7.744992063996e-05 3.348469207168e-06 0.0 
3.348469207168e-06 3.633418698138e-03 0.0 
0.0 0.0 0.0 
-8.032133180680e-05 -6.516390674315e-06 0.0 
-6.516390674315e-06 3.632439390678e-03 0.0 
0.0 0.0 0.0 
-7.761588754052e-05 -6.979436108760e-06 0.0 
-6.979436108760e-06 3.630981178981e-03 0.0 
0.0 0.0 0.0 
-8.082569163870e-05 -7.302652542630e-06 0.0 
-7.302652542630e-06 3.630950751664e-03 0.0 
0.0 0.0 0.0 
-7.790141973862e-05 -8.909563558365e-06 0.0 
-8.909563558365e-06 3.631474531254e-03 0.0 
0.0 0.0 0.0 
-8.191833735516e-05 -8.629422684669e-06 0.0 
-8.629422684669e-06 3.631570728604e-03 0.0 
0.0 0.0 0.0 
-7.831175099726e-05 -1.052449748033e-05 0.0 
-1.052449748033e-05 3.632125816816e-03 0.0 
0.0 0.0 0.0 
-8.313698177875e-05 -1.015641264924e-05 0.0 
-1.015641264924e-05 3.632293232255e-03 0.0 
0.0 0.0 0.0 
-7.887182691668e-05 -1.225651183184e-05 0.0 
-1.225651183184e-05 3.632781826477e-03 0.0 
0.0 0.0 0.0 
-8.472972859630e-05 -1.175181449979e-05 0.0 
-1.175181449979e-05 3.633065038464e-03 0.0 
0.0 0.0 0.0 
-7.966923639058e-05 -1.411773417870e-05 0.0 
-1.411773417870e-05 3.633524508427e-03 0.0 
0.0 0.0 0.0 
-8.671398906623e-05 -1.365778925507e-05 0.0 
-1.365778925507e-05 3.633901234700e-03 0.0 
0.0 0.0 0.0 
-8.056810544443e-05 -1.614598357516e-05 0.0 
-1.614598357516e-05 3.633948980094e-03 0.0 
0.0 0.0 0.0 
-8.879900057546e-05 -1.548334558123e-05 0.0 
-1.548334558123e-05 3.634543271096e-03 0.0 
0.0 0.0 0.0 
-8.160697009019e-05 -1.802108018368e-05 0.0 
-1.802108018368e-05 3.634157046419e-03 0.0 
0.0 0.0 0.0 
-1.498826732179e-04 -6.577604140314e-07 0.0 
-6.577604140314e-07 3.665760850391e-03 0.0 
0.0 0.0 0.0 
-9.094733059023e-05 -1.692894804187e-05 0.0 
-1.692894804187e-05 3.635121361632e-03 0.0 
0.0 0.0 0.0 
-8.296725307055e-05 -1.951998342684e-05 0.0 
-1.951998342684e-05 3.634519121104e-03 0.0 
0.0 0.0 0.0 
-1.134216685101e-04 1.715333524767e-05 0.0 
1.715333524767e-05 3.510308079780e-03 0.0 
0.0 0.0 0.0 
-9.406303760962e-05 -1.802859134115e-05 0.0 
-1.802859134115e-05 3.635958303679e-03 0.0 
0.0 0.0 0.0 
-8.474902658639e-05 -2.074669152905e-05 0.0 
-2.074669152905e-05 3.635003871906e-03 0.0 
0.0 0.0 0.0 
-1.268135029403e-04 1.535930643914e-05 0.0 
1.535930643914e-05 3.643976490968e-03 0.0 
0.0 0.0 0.0 
-9.766859793003e-05 -1.902843507274e-05 0.0 
-1.902843507274e-05 3.636925955538e-03 0.0 
0.0 0.0 0.0 
-8.686231562660e-05 -2.166643967293e-05 0.0 
-2.166643967293e-05 3.635324083648e-03 0.0 
0.0 0.0 0.0 
-1.014560023517e-04 -1.977523586851e-05 0.0 
-1.977523586851e-05 3.637772237735e-03 0.0 
0.0 0.0 0.0 
-8.923217569801e-05 -2.201042030929e-05 0.0 
-2.201042030929e-05 3.635220255709e-03 0.0 
0.0 0.0 0.0 
-1.056489539465e-04 -1.991356047005e-05 0.0 
-1.991356047005e-05 3.638317236805e-03 0.0 
0.0 0.0 0.0 
-9.181385028112e-05 -2.119127986230e-05 0.0 
-2.119127986230e-05 3.634132940715e-03 0.0 
0.0 0.0 0.0 
-1.288410759587e-04 3.562205774902e-05 0.0 
3.562205774902e-05 3.687048849061e-03 0.0 
0.0 0.0 0.0 
-1.095205181051e-04 -1.737404893895e-05 0.0 
-1.737404893895e-05 3.638974069167e-03 0.0 
0.0 0.0 0.0 
-9.603603258157e-05 -1.886845241910e-05 0.0 
-1.886845241910e-05 3.635574696358e-03 0.0 
0.0 0.0 0.0 
-1.169569523792e-04 -1.625309936248e-05 0.0 
-1.625309936248e-05 3.640478215496e-03 0.0 
0.0 0.0 0.0 
-1.001114237825e-04 -1.561447579570e-05 0.0 
-1.561447579570e-05 3.633647476919e-03 0.0 
0.0 0.0 0.0 
-1.073920134930e-04 -1.092030742427e-05 0.0 
-1.092030742427e-05 3.638248090704e-03 0.0 
0.0 0.0 0.0 
-1.216379873893e-04 -9.837689971198e-06 0.0 
-9.837689971198e-06 3.641713155754e-03 0.0 
0.0 0.0 0.0 
-1.102656312264e-04 -3.722980117405e-06 0.0 
-3.722980117405e-06 3.626525020332e-03 0.0 
0.0 0.0 0.0 
-1.339088619724e-04 -1.166058372557e-05 0.0 
-1.166058372557e-05 3.642408461604e-03 0.0 
0.0 0.0 0.0 
-1.230872045482e-04 9.334908927476e-06 0.0 
9.334908927476e-06 3.637412567258e-03 0.0 
0.0 0.0 0.0 
-1.220270499145e-04 7.520321430636e-06 0.0 
7.520321430636e-06 3.639025679008e-03 0.0 
0.0 0.0 0.0 
-1.189352197417e-04 1.303277732510e-05 0.0 
1.303277732510e-05 3.507228710603e-03 0.0 
0.0 0.0 0.0 
-6.208161062426e-05 -5.750633272680e-05 0.0 
-5.750633272680e-05 3.615730194742e-03 0.0 
0.0 0.0 0.0 
-9.456256540252e-05 5.256197324926e-05 0.0 
5.256197324926e-05 3.673901564707e-03 0.0 
0.0 0.0 0.0 
-7.720505436926e-05 -7.485928721616e-06 0.0 
-7.485928721616e-06 3.532567130642e-03 0.0 
0.0 0.0 0.0 
-7.988418604277e-05 4.526323422415e-06 0.0 
4.526323422415e-06 3.753617447491e-03 0.0 
0.0 0.0 0.0 
-1.189169710676e-04 3.211176128409e-05 0.0 
3.211176128409e-05 3.488145164475e-03 0.0 
0.0 0.0 0.0 
-8.009183380053e-05 -1.477346064584e-05 0.0 
-1.477346064584e-05 4.022209752323e-03 0.0 
0.0 0.0 0.0 
-8.251224757427e-05 3.720507877708e-06 0.0 
3.720507877708e-06 4.059532715948e-03 0.0 
0.0 0.0 0.0 
-8.032133180680e-05 -6.244905916105e-06 0.0 
-6.244905916105e-06 4.060523780038e-03 0.0 
0.0 0.0 0.0 
-8.217333673544e-05 -6.144013077336e-06 0.0 
-6.144013077336e-06 4.062295053507e-03 0.0 
0.0 0.0 0.0 
-8.082569163870e-05 -6.566621128282e-06 0.0 
-6.566621128282e-06 4.062350864211e-03 0.0 
0.0 0.0 0.0 
-8.374620135965e-05 -7.255817837529e-06 0.0 
-7.255817837529e-06 4.063475923008e-03 0.0 
0.0 0.0 0.0 
-8.191833735516e-05 -7.782245609219e-06 0.0 
-7.782245609219e-06 4.063562929923e-03 0.0 
0.0 0.0 0.0 
-8.482601170623e-05 -8.619159357163e-06 0.0 
-8.619159357163e-06 4.064324519039e-03 0.0 
0.0 0.0 0.0 
-8.313698177875e-05 -8.807449017485e-06 0.0 
-8.807449017485e-06 4.064345200361e-03 0.0 
0.0 0.0 0.0 
-8.691881689304e-05 -9.765236478720e-06 0.0 
-9.765236478720e-06 4.065449337547e-03 0.0 
0.0 0.0 0.0 
-8.472972859630e-05 -9.922278971609e-06 0.0 
-9.922278971609e-06 4.065447195809e-03 0.0 
0.0 0.0 0.0 
-8.918062056096e-05 -1.099505026950e-05 0.0 
-1.099505026950e-05 4.066706511511e-03 0.0 
0.0 0.0 0.0 
-8.671398906623e-05 -1.117620802428e-05 0.0 
-1.117620802428e-05 4.066694376135e-03 0.0 
0.0 0.0 0.0 
-9.272102318802e-05 -1.279848809741e-05 0.0 
-1.279848809741e-05 4.067943229856e-03 0.0 
0.0 0.0 0.0 
-8.879900057546e-05 -1.251533729877e-05 0.0 
-1.251533729877e-05 4.067673088632e-03 0.0 
0.0 0.0 0.0 
-1.582322224729e-04 -5.187901405506e-06 0.0 
-5.187901405506e-06 4.100633929370e-03 0.0 
0.0 0.0 0.0 
-9.485068533199e-05 -1.441139009395e-05 0.0 
-1.441139009395e-05 4.068368999957e-03 0.0 
0.0 0.0 0.0 
-1.307302406285e-04 1.356146208639e-05 0.0 
1.356146208639e-05 4.078190350906e-03 0.0 
0.0 0.0 0.0 
-9.094733059023e-05 -1.290739264197e-05 0.0 
-1.290739264197e-05 4.067494593770e-03 0.0 
0.0 0.0 0.0 
-9.877966096994e-05 -1.448732039868e-05 0.0 
-1.448732039868e-05 4.069530387973e-03 0.0 
0.0 0.0 0.0 
-9.406303760962e-05 -1.315423561679e-05 0.0 
-1.315423561679e-05 4.068569056622e-03 0.0 
0.0 0.0 0.0 
-1.038571181140e-04 -1.494138234972e-05 0.0 
-1.494138234972e-05 4.071125707425e-03 0.0 
0.0 0.0 0.0 
-9.766859793003e-05 -1.340258500116e-05 0.0 
-1.340258500116e-05 4.069811362044e-03 0.0 
0.0 0.0 0.0 
-1.084843696629e-04 -1.543387793169e-05 0.0 
-1.543387793169e-05 4.072267280091e-03 0.0 
0.0 0.0 0.0 
-1.220270499145e-04 1.687791790451e-05 0.0 
1.687791790451e-05 3.945227728479e-03 0.0 
0.0 0.0 0.0 
-1.014560023517e-04 -1.301790918541e-05 0.0 
-1.301790918541e-05 4.070185145785e-03 0.0 
0.0 0.0 0.0 
-1.137922000510e-04 -1.501612751539e-05 0.0 
-1.501612751539e-05 4.073108231117e-03 0.0 
0.0 0.0 0.0 
-1.056489539465e-04 -1.184971004164e-05 0.0 
-1.184971004164e-05 4.070189929389e-03 0.0 
0.0 0.0 0.0 
-1.201715408246e-04 -1.438392863392e-05 0.0 
-1.438392863392e-05 4.073031238175e-03 0.0 
0.0 0.0 0.0 
-1.095205181051e-04 -8.298892661459e-06 0.0 
-8.298892661459e-06 4.067466962712e-03 0.0 
0.0 0.0 0.0 
-1.230412026806e-04 -7.132632574355e-06 0.0 
-7.132632574355e-06 4.074206305233e-03 0.0 
0.0 0.0 0.0 
-1.169569523792e-04 -4.407379758408e-06 0.0 
-4.407379758408e-06 4.071306767923e-03 0.0 
0.0 0.0 0.0 
-1.375256370038e-04 -7.127628830459e-06 0.0 
-7.127628830459e-06 4.075447195502e-03 0.0 
0.0 0.0 0.0 
-1.276102010653e-04 8.237142463482e-06 0.0 
8.237142463482e-06 4.074713557515e-03 0.0 
0.0 0.0 0.0 
-1.216379873893e-04 2.018865622940e-06 0.0 
2.018865622940e-06 4.065587976001e-03 0.0 
0.0 0.0 0.0 
-1.329810470913e-04 2.968394687588e-05 0.0 
2.968394687588e-05 4.120887463327e-03 0.0 
0.0 0.0 0.0 
-1.339088619724e-04 9.547973676195e-06 0.0 
9.547973676195e-06 4.074737046611e-03 0.0 
0.0 0.0 0.0 
-1.230029892406e-04 1.115620949120e-05 0.0 
1.115620949120e-05 3.936693342161e-03 0.0 
0.0 0.0 0.0 
-9.725283360307e-05 -5.720826069716e-05 0.0 
-5.720826069716e-05 4.075965370916e-03 0.0 
0.0 0.0 0.0 
-6.534074840370e-05 5.293334499312e-05 0.0 
5.293334499312e-05 4.018815192612e-03 0.0 
0.0 0.0 0.0 
-8.227517977499e-05 -7.040765074344e-06 0.0 
-7.040765074344e-06 4.159553855210e-03 0.0 
0.0 0.0 0.0 
-7.988418604277e-05 4.737863253261e-06 0.0 
4.737863253261e-06 3.938659358625e-03 0.0 
0.0 0.0 0.0 
-1.268135029403e-04 2.579038796857e-05 0.0 
2.579038796857e-05 3.924294210556e-03 0.0 
0.0 0.0 0.0 
-8.713320795140e-05 -1.516448969580e-05 0.0 
-1.516448969580e-05 4.528803166393e-03 0.0 
0.0 0.0 0.0 
-8.251224757427e-05 3.651697386235e-06 0.0 
3.651697386235e-06 4.489291153834e-03 0.0 
0.0 0.0 0.0 
-8.282750921085e-05 -6.658598201249e-06 0.0 
-6.658598201249e-06 4.488079268754e-03 0.0 
0.0 0.0 0.0 
-8.217333673544e-05 -5.608996483543e-06 0.0 
-5.608996483543e-06 4.485621465838e-03 0.0 
0.0 0.0 0.0 
-8.427696270352e-05 -4.275986447364e-06 0.0 
-4.275986447364e-06 4.485873080614e-03 0.0 
0.0 0.0 0.0 
-8.374620135965e-05 -5.683001622495e-06 0.0 
-5.683001622495e-06 4.487942826071e-03 0.0 
0.0 0.0 0.0 
-8.738455328694e-05 -6.015130473878e-06 0.0 
-6.015130473878e-06 4.487915035918e-03 0.0 
0.0 0.0 0.0 
-8.482601170623e-05 -6.988005847826e-06 0.0 
-6.988005847826e-06 4.487713285717e-03 0.0 
0.0 0.0 0.0 
-8.764975541864e-05 -5.648207665017e-06 0.0 
-5.648207665017e-06 4.488168411128e-03 0.0 
0.0 0.0 0.0 
-8.691881689304e-05 -6.929841576366e-06 0.0 
-6.929841576366e-06 4.489783614556e-03 0.0 
0.0 0.0 0.0 
-9.178299201718e-05 -6.365405368090e-06 0.0 
-6.365405368090e-06 4.490134306837e-03 0.0 
0.0 0.0 0.0 
-8.918062056096e-05 -7.621967280830e-06 0.0 
-7.621967280830e-06 4.490488907945e-03 0.0 
0.0 0.0 0.0 
-9.390105119234e-05 -5.793505180368e-06 0.0 
-5.793505180368e-06 4.491441891560e-03 0.0 
0.0 0.0 0.0 
-1.602892740504e-04 -4.381871161608e-06 0.0 
-4.381871161608e-06 4.532322766993e-03 0.0 
0.0 0.0 0.0 
-9.272102318802e-05 -7.743875064754e-06 0.0 
-7.743875064754e-06 4.493734759229e-03 0.0 
0.0 0.0 0.0 
-9.943935041035e-05 -8.821180508511e-06 0.0 
-8.821180508511e-06 4.493599740873e-03 0.0 
0.0 0.0 0.0 
-1.276102010653e-04 1.620598464005e-05 0.0 
1.620598464005e-05 4.377888600000e-03 0.0 
0.0 0.0 0.0 
-9.485068533199e-05 -9.096947614546e-06 0.0 
-9.096947614546e-06 4.491524384822e-03 0.0 
0.0 0.0 0.0 
-1.021260136818e-04 -6.850320465716e-06 0.0 
-6.850320465716e-06 4.493223552132e-03 0.0 
0.0 0.0 0.0 
-1.302648855169e-04 1.620630301029e-05 0.0 
1.620630301029e-05 4.504228495688e-03 0.0 
0.0 0.0 0.0 
-9.877966096994e-05 -7.940603386190e-06 0.0 
-7.940603386190e-06 4.493095388260e-03 0.0 
0.0 0.0 0.0 
-1.082845493062e-04 -5.424452667570e-06 0.0 
-5.424452667570e-06 4.495397699090e-03 0.0 
0.0 0.0 0.0 
-1.038571181140e-04 -7.150024421908e-06 0.0 
-7.150024421908e-06 4.495706248505e-03 0.0 
0.0 0.0 0.0 
-1.141125735289e-04 -6.127354021654e-06 0.0 
-6.127354021654e-06 4.497441428058e-03 0.0 
0.0 0.0 0.0 
-1.084843696629e-04 -6.485938586602e-06 0.0 
-6.485938586602e-06 4.495549033453e-03 0.0 
0.0 0.0 0.0 
-1.325190036938e-04 2.720585212764e-05 0.0 
2.720585212764e-05 4.549866844996e-03 0.0 
0.0 0.0 0.0 
-1.189262789306e-04 -4.739961999581e-06 0.0 
-4.739961999581e-06 4.498082209775e-03 0.0 
0.0 0.0 0.0 
-1.137922000510e-04 -4.278680580346e-06 0.0 
-4.278680580346e-06 4.495553802636e-03 0.0 
0.0 0.0 0.0 
-1.201715408246e-04 -1.701984148756e-06 0.0 
-1.701984148756e-06 4.496766554637e-03 0.0 
0.0 0.0 0.0 
-1.261041097949e-04 -1.962030266793e-06 0.0 
-1.962030266793e-06 4.499125283278e-03 0.0 
0.0 0.0 0.0 
-1.230412026806e-04 4.263767576241e-06 0.0 
4.263767576241e-06 4.485351089700e-03 0.0 
0.0 0.0 0.0 
-1.370200956010e-04 -3.370639508531e-06 0.0 
-3.370639508531e-06 4.498249043247e-03 0.0 
0.0 0.0 0.0 
-1.375256370038e-04 1.342007234806e-05 0.0 
1.342007234806e-05 4.503214078231e-03 0.0 
0.0 0.0 0.0 
-1.271504967904e-04 1.655021819077e-05 0.0 
1.655021819077e-05 4.496991894891e-03 0.0 
0.0 0.0 0.0 
-1.241155438741e-04 1.017357697640e-05 0.0 
1.017357697640e-05 4.367005155398e-03 0.0 
0.0 0.0 0.0 
-6.438016195920e-05 -5.553024875778e-05 0.0 
-5.553024875778e-05 4.469279492819e-03 0.0 
0.0 0.0 0.0 
-9.997466778389e-05 5.498746515146e-05 0.0 
5.498746515146e-05 4.532940860499e-03 0.0 
0.0 0.0 0.0 
-8.227517977499e-05 -5.658024434123e-06 0.0 
-5.658024434123e-06 4.389326554252e-03 0.0 
0.0 0.0 0.0 
-8.261599808923e-05 7.489331056195e-06 0.0 
7.489331056195e-06 4.608790533175e-03 0.0 
0.0 0.0 0.0 
-1.307302406285e-04 2.226865124811e-05 0.0 
2.226865124811e-05 4.356563755315e-03 0.0 
0.0 0.0 0.0 
-8.713320795140e-05 -1.870103457898e-05 0.0 
-1.870103457898e-05 4.888099179770e-03 0.0 
0.0 0.0 0.0 
-7.862470994902e-05 -1.761485418116e-06 0.0 
-1.761485418116e-06 4.912448450549e-03 0.0 
0.0 0.0 0.0 
-8.282750921085e-05 -3.883690291002e-06 0.0 
-3.883690291002e-06 4.912712664269e-03 0.0 
0.0 0.0 0.0 
-8.551143110158e-05 -3.201631841276e-06 0.0 
-3.201631841276e-06 4.916187602114e-03 0.0 
0.0 0.0 0.0 
-8.427696270352e-05 -2.388060289611e-06 0.0 
-2.388060289611e-06 4.916034419751e-03 0.0 
0.0 0.0 0.0 
-8.713908296154e-05 -1.254523537642e-06 0.0 
-1.254523537642e-06 4.920263073044e-03 0.0 
0.0 0.0 0.0 
-8.738455328694e-05 -4.927284881321e-06 0.0 
-4.927284881321e-06 4.921130649696e-03 0.0 
0.0 0.0 0.0 
-8.587378766345e-05 -6.015379471492e-06 0.0 
-6.015379471492e-06 4.918175393276e-03 0.0 
0.0 0.0 0.0 
-8.764975541864e-05 -2.486708156941e-06 0.0 
-2.486708156941e-06 4.917175956380e-03 0.0 
0.0 0.0 0.0 
-8.975677853473e-05 -7.897315206779e-07 0.0 
-7.897315206779e-07 4.921399961258e-03 0.0 
0.0 0.0 0.0 
-9.178299201718e-05 -3.162553461983e-06 0.0 
-3.162553461983e-06 4.922300527899e-03 0.0 
0.0 0.0 0.0 
-9.413181904827e-05 -4.052513410149e-06 0.0 
-4.052513410149e-06 4.922368286066e-03 0.0 
0.0 0.0 0.0 
-1.592890275544e-04 -4.059961780707e-06 0.0 
-4.059961780707e-06 4.962398846306e-03 0.0 
0.0 0.0 0.0 
-9.390105119234e-05 -2.027810055363e-06 0.0 
-2.027810055363e-06 4.921524803003e-03 0.0 
0.0 0.0 0.0 
-1.387932713740e-04 2.141112360876e-05 0.0 
2.141112360876e-05 4.935935133301e-03 0.0 
0.0 0.0 0.0 
-9.058094507219e-05 8.388134347103e-07 0.0 
8.388134347103e-07 4.923967535350e-03 0.0 
0.0 0.0 0.0 
-9.943935041035e-05 -1.502289094433e-06 0.0 
-1.502289094433e-06 4.925559661402e-03 0.0 
0.0 0.0 0.0 
-1.047470116178e-04 -3.957530807626e-06 0.0 
-3.957530807626e-06 4.924818638342e-03 0.0 
0.0 0.0 0.0 
-1.021260136818e-04 8.202484551864e-07 0.0 
8.202484551864e-07 4.922105574553e-03 0.0 
0.0 0.0 0.0 
-1.099016460113e-04 1.567108956893e-06 0.0 
1.567108956893e-06 4.927034329365e-03 0.0 
0.0 0.0 0.0 
-1.082845493062e-04 1.842810450803e-06 0.0 
1.842810450803e-06 4.926732264758e-03 0.0 
0.0 0.0 0.0 
-1.126268381623e-04 2.151895600354e-06 0.0 
2.151895600354e-06 4.929137524256e-03 0.0 
0.0 0.0 0.0 
-1.271504967904e-04 2.126488334081e-05 0.0 
2.126488334081e-05 4.808872946129e-03 0.0 
0.0 0.0 0.0 
-1.141125735289e-04 3.068017512578e-06 0.0 
3.068017512578e-06 4.928700253312e-03 0.0 
0.0 0.0 0.0 
-1.186049748346e-04 1.969117478638e-06 0.0 
1.969117478638e-06 4.929159048971e-03 0.0 
0.0 0.0 0.0 
-1.189262789306e-04 6.722265661916e-06 0.0 
6.722265661916e-06 4.925843909588e-03 0.0 
0.0 0.0 0.0 
-1.230214724552e-04 7.756948765136e-06 0.0 
7.756948765136e-06 4.928684314274e-03 0.0 
0.0 0.0 0.0 
-1.293812101688e-04 1.603922077789e-05 0.0 
1.603922077789e-05 4.930292997341e-03 0.0 
0.0 0.0 0.0 
-1.261041097949e-04 1.276410481386e-05 0.0 
1.276410481386e-05 4.925305974969e-03 0.0 
0.0 0.0 0.0 
-1.370200956010e-04 1.717804755451e-05 0.0 
1.717804755451e-05 4.930650314342e-03 0.0 
0.0 0.0 0.0 
-1.286611002829e-04 2.801897449881e-05 0.0 
2.801897449881e-05 4.980265309376e-03 0.0 
0.0 0.0 0.0 
-1.202890672577e-04 1.545713326968e-05 0.0 
1.545713326968e-05 4.794936741791e-03 0.0 
0.0 0.0 0.0 
-9.698266569647e-05 -4.981217962009e-05 0.0 
-4.981217962009e-05 4.920475379105e-03 0.0 
0.0 0.0 0.0 
-7.635150583640e-05 5.950505730897e-05 0.0 
5.950505730897e-05 4.883489494695e-03 0.0 
0.0 0.0 0.0 
-9.029562439666e-05 2.476547611548e-06 0.0 
2.476547611548e-06 5.015677555519e-03 0.0 
0.0 0.0 0.0 
-8.261599808923e-05 9.367015780514e-06 0.0 
9.367015780514e-06 4.792064120017e-03 0.0 
0.0 0.0 0.0 
-1.302648855169e-04 2.144952492966e-05 0.0 
2.144952492966e-05 4.791590997514e-03 0.0 
0.0 0.0 0.0 

TENSORS element_materi_strain_plasti float
-4.741889373871e-04 2.342858306946e-04 0.0 
2.342858306946e-04 2.814002888893e-03 0.0 
0.0 0.0 -4.220722639049e-04 
-3.897703972720e-04 -2.636930979351e-04 0.0 
-2.636930979351e-04 2.518846771568e-03 0.0 
0.0 0.0 -4.303330772826e-04 
-1.259341393326e-03 -3.090507185476e-05 0.0 
-3.090507185476e-05 8.411433358411e-03 0.0 
0.0 0.0 -1.278236581085e-03 
-1.261464826866e-03 -1.747915258517e-04 0.0 
-1.747915258517e-04 8.480496286503e-03 0.0 
0.0 0.0 -1.255598393855e-03 
-7.983281552709e-04 2.303090028114e-04 0.0 
2.303090028114e-04 5.254489729699e-03 0.0 
0.0 0.0 -7.961861350945e-04 
-2.059346616286e-04 2.207607006016e-04 0.0 
2.207607006016e-04 1.009101900264e-03 0.0 
0.0 0.0 -1.793459522598e-04 
-7.878967474187e-04 2.695248863587e-04 0.0 
2.695248863587e-04 5.204562819075e-03 0.0 
0.0 0.0 -8.011023898636e-04 
-4.128254064944e-04 4.080923401226e-05 0.0 
4.080923401226e-05 2.687408780313e-03 0.0 
0.0 0.0 -4.045669272905e-04 
-8.029485881418e-04 -2.877766516214e-04 0.0 
-2.877766516214e-04 5.280709952101e-03 0.0 
0.0 0.0 -7.977904104816e-04 
-1.248589478216e-03 2.242094407414e-04 0.0 
2.242094407414e-04 8.399546616313e-03 0.0 
0.0 0.0 -1.253060141438e-03 
-8.734037686267e-04 1.480436446761e-04 0.0 
1.480436446761e-04 5.724300399011e-03 0.0 
0.0 0.0 -8.816510380685e-04 
-3.813204680075e-04 2.190974571174e-07 0.0 
2.190974571174e-07 2.153866306060e-03 0.0 
0.0 0.0 -3.735031833740e-04 
-1.251882997596e-03 2.259053558602e-04 0.0 
2.259053558602e-04 8.467796470942e-03 0.0 
0.0 0.0 -1.259187713256e-03 
-8.479147549375e-04 1.860153946804e-04 0.0 
1.860153946804e-04 5.638680799524e-03 0.0 
0.0 0.0 -8.526168115438e-04 
-1.288189434839e-03 -1.832848558743e-04 0.0 
-1.832848558743e-04 8.626562874010e-03 0.0 
0.0 0.0 -1.289538875031e-03 
-1.301181403367e-03 2.039645816311e-04 0.0 
2.039645816311e-04 8.626062176419e-03 0.0 
0.0 0.0 -1.285984941237e-03 
-7.889097476292e-04 4.689353054445e-06 0.0 
4.689353054445e-06 5.256085596916e-03 0.0 
0.0 0.0 -7.740676797406e-04 
-1.741032192830e-04 -1.984587543236e-04 0.0 
-1.984587543236e-04 9.106845467383e-04 0.0 
0.0 0.0 -1.826237857505e-04 
-3.103934600629e-04 -1.188849736468e-04 0.0 
-1.188849736468e-04 1.808737160777e-03 0.0 
0.0 0.0 -2.776016825098e-04 
-3.017260514233e-04 1.101242532994e-04 0.0 
1.101242532994e-04 1.644506395847e-03 0.0 
0.0 0.0 -3.031105466646e-04 
-1.236978180346e-03 -2.273342210413e-04 0.0 
-2.273342210413e-04 8.474882909105e-03 0.0 
0.0 0.0 -1.250388265701e-03 
-4.788832533263e-04 9.235771209242e-05 0.0 
9.235771209242e-05 2.938553769607e-03 0.0 
0.0 0.0 -4.811142067971e-04 
-5.153479436012e-04 -1.000310601356e-04 0.0 
-1.000310601356e-04 3.322116646267e-03 0.0 
0.0 0.0 -5.091556215902e-04 
-1.207914407075e-03 -1.521033174033e-04 0.0 
-1.521033174033e-04 8.119148175608e-03 0.0 
0.0 0.0 -1.210372970477e-03 
-9.004893154001e-04 2.196977328252e-04 0.0 
2.196977328252e-04 6.011080091783e-03 0.0 
0.0 0.0 -9.130988374533e-04 
-9.174590915307e-04 -1.450811372332e-04 0.0 
-1.450811372332e-04 6.162434229051e-03 0.0 
0.0 0.0 -9.179597371190e-04 
-7.131055436641e-04 -1.829825241466e-05 0.0 
-1.829825241466e-05 4.865076399380e-03 0.0 
0.0 0.0 -7.148082707961e-04 
-1.275014108034e-03 1.320223363480e-05 0.0 
1.320223363480e-05 8.706353732723e-03 0.0 
0.0 0.0 -1.266047838742e-03 
-9.084778585211e-04 -2.532626103826e-04 0.0 
-2.532626103826e-04 6.055345996359e-03 0.0 
0.0 0.0 -9.113908267906e-04 
-1.248671644075e-03 1.500744587119e-04 0.0 
1.500744587119e-04 8.319441606585e-03 0.0 
0.0 0.0 -1.237914324842e-03 
-2.162503473685e-04 3.355180743600e-05 0.0 
3.355180743600e-05 1.390767343688e-03 0.0 
0.0 0.0 -2.185975924268e-04 
-1.102777646678e-04 3.092462500305e-05 0.0 
3.092462500305e-05 6.008114765358e-04 0.0 
0.0 0.0 -1.059755802940e-04 
-1.291285801941e-03 5.563014948237e-05 0.0 
5.563014948237e-05 8.705630370944e-03 0.0 
0.0 0.0 -1.261301343383e-03 
-1.086169392383e-03 -1.843155554575e-04 0.0 
-1.843155554575e-04 7.250914267634e-03 0.0 
0.0 0.0 -1.090200430068e-03 
-1.229627234356e-03 -2.081816156674e-04 0.0 
-2.081816156674e-04 8.461501921680e-03 0.0 
0.0 0.0 -1.254989870190e-03 
-1.333928130876e-03 3.870959300371e-04 0.0 
3.870959300371e-04 8.918766405510e-03 0.0 
0.0 0.0 -1.314886350686e-03 
-1.319549054242e-03 -4.082653656671e-04 0.0 
-4.082653656671e-04 8.897494246722e-03 0.0 
0.0 0.0 -1.314653105918e-03 
-1.251043943053e-03 1.755104499558e-04 0.0 
1.755104499558e-04 8.438640087517e-03 0.0 
0.0 0.0 -1.264739017786e-03 
-7.261695585194e-04 -3.174047361399e-04 0.0 
-3.174047361399e-04 4.739951691414e-03 0.0 
0.0 0.0 -7.380763454961e-04 
-7.293562810949e-04 3.567993421671e-04 0.0 
3.567993421671e-04 4.808642079977e-03 0.0 
0.0 0.0 -7.371174501546e-04 
-5.783756129442e-04 -1.365848045621e-04 0.0 
-1.365848045621e-04 3.784424820314e-03 0.0 
0.0 0.0 -5.794556523337e-04 
-1.262877717034e-03 1.019690194505e-05 0.0 
1.019690194505e-05 8.450550888573e-03 0.0 
0.0 0.0 -1.280756488215e-03 
-3.226099019571e-04 2.179474137412e-04 0.0 
2.179474137412e-04 1.923375161646e-03 0.0 
0.0 0.0 -3.207852484642e-04 
-7.228265239814e-04 5.532830836330e-05 0.0 
5.532830836330e-05 4.629144605835e-03 0.0 
0.0 0.0 -7.350059072715e-04 
-1.225055898073e-03 -9.816574622226e-05 0.0 
-9.816574622226e-05 8.293394798268e-03 0.0 
0.0 0.0 -1.212858513926e-03 
-3.206551623609e-04 -1.904275671922e-04 0.0 
-1.904275671922e-04 1.917970267075e-03 0.0 
0.0 0.0 -3.198426158856e-04 
-1.782809379457e-04 -4.378063603026e-06 0.0 
-4.378063603026e-06 7.801372807212e-04 0.0 
0.0 0.0 -1.830859565219e-04 
-1.220501464306e-03 6.316947048498e-05 0.0 
6.316947048498e-05 8.106622909265e-03 0.0 
0.0 0.0 -1.234743356787e-03 
-9.829459878545e-05 4.583948434498e-06 0.0 
4.583948434498e-06 3.276774367732e-04 0.0 
0.0 0.0 -9.830693056618e-05 
-8.022047642295e-04 -1.811997065716e-04 0.0 
-1.811997065716e-04 5.439298518069e-03 0.0 
0.0 0.0 -8.229436299569e-04 
-5.489987759976e-04 -1.133059547326e-04 0.0 
-1.133059547326e-04 3.572814356686e-03 0.0 
0.0 0.0 -5.440916476828e-04 
-3.388458973029e-04 -7.042877961868e-05 0.0 
-7.042877961868e-05 2.248035829402e-03 0.0 
0.0 0.0 -3.443810396916e-04 
-3.074157494333e-04 -1.467796149718e-04 0.0 
-1.467796149718e-04 1.814374481458e-03 0.0 
0.0 0.0 -3.047895897720e-04 
-5.421593945536e-04 1.293548672116e-04 0.0 
1.293548672116e-04 3.418474043213e-03 0.0 
0.0 0.0 -5.489460876789e-04 
-1.266579725590e-03 -7.893235167067e-06 0.0 
-7.893235167067e-06 8.468672292321e-03 0.0 
0.0 0.0 -1.282189168212e-03 
-4.597210026089e-04 -1.452187243083e-04 0.0 
-1.452187243083e-04 2.937502524048e-03 0.0 
0.0 0.0 -4.512233509908e-04 
-3.611878323951e-04 1.444175472608e-04 0.0 
1.444175472608e-04 2.127268062759e-03 0.0 
0.0 0.0 -3.694212080277e-04 
-1.088084509005e-03 1.827090950976e-04 0.0 
1.827090950976e-04 7.290496234404e-03 0.0 
0.0 0.0 -1.087734043503e-03 
-2.215722591699e-04 2.179680801208e-05 0.0 
2.179680801208e-05 1.355906413413e-03 0.0 
0.0 0.0 -2.189683579105e-04 
-1.291565119731e-03 -2.058202376931e-04 0.0 
-2.058202376931e-04 8.638287399565e-03 0.0 
0.0 0.0 -1.285320035817e-03 
-9.406322495136e-05 -1.263405609949e-04 0.0 
-1.263405609949e-04 5.178868060054e-04 0.0 
0.0 0.0 -9.532668554595e-05 
-1.207108165930e-03 2.281727388556e-04 0.0 
2.281727388556e-04 8.099161405669e-03 0.0 
0.0 0.0 -1.210824713543e-03 
-5.507253245741e-04 2.263693422713e-04 0.0 
2.263693422713e-04 3.467321570737e-03 0.0 
0.0 0.0 -5.497085007362e-04 
-2.633068753573e-04 1.211642318688e-04 0.0 
1.211642318688e-04 1.594924151360e-03 0.0 
0.0 0.0 -2.769417647402e-04 
-1.253722868311e-03 -1.824681277037e-04 0.0 
-1.824681277037e-04 8.465445333241e-03 0.0 
0.0 0.0 -1.257478522087e-03 
-5.218987792326e-04 1.045965667426e-04 0.0 
1.045965667426e-04 3.169150320614e-03 0.0 
0.0 0.0 -5.137572693775e-04 
-6.027079853017e-05 4.538885378714e-05 0.0 
4.538885378714e-05 2.053936984272e-04 0.0 
0.0 0.0 -6.219552852730e-05 
-1.264974411680e-03 -7.934823425827e-05 0.0 
-7.934823425827e-05 8.671954395754e-03 0.0 
0.0 0.0 -1.261660853087e-03 
-2.446973118894e-04 -2.103372277075e-04 0.0 
-2.103372277075e-04 1.398643057908e-03 0.0 
0.0 0.0 -2.404310120911e-04 
-1.273528016320e-03 -3.786679226458e-06 0.0 
-3.786679226458e-06 8.448618323595e-03 0.0 
0.0 0.0 -1.282376455277e-03 
-9.491469453000e-04 -1.694945758869e-04 0.0 
-1.694945758869e-04 6.388198818832e-03 0.0 
0.0 0.0 -9.556290573178e-04 
-1.338499280800e-03 -4.782411066394e-06 0.0 
-4.782411066394e-06 8.836661036334e-03 0.0 
0.0 0.0 -1.338499280800e-03 
-1.237491500558e-03 1.679725136184e-06 0.0 
1.679725136184e-06 8.119391193773e-03 0.0 
0.0 0.0 -1.232909111256e-03 
-1.306267830690e-04 2.201659246920e-04 0.0 
2.201659246920e-04 5.612930774448e-04 0.0 
0.0 0.0 -1.295286970291e-04 
-4.862904107144e-04 1.519111044422e-04 0.0 
1.519111044422e-04 2.949318680169e-03 0.0 
0.0 0.0 -4.777371989943e-04 
-1.254133957623e-03 -1.731664304592e-04 0.0 
-1.731664304592e-04 8.495066883004e-03 0.0 
0.0 0.0 -1.262626981217e-03 
-1.278966520388e-03 -5.463065947674e-06 0.0 
-5.463065947674e-06 8.716306064884e-03 0.0 
0.0 0.0 -1.265352048664e-03 
-2.500278062252e-04 -1.904083940434e-04 0.0 
-1.904083940434e-04 1.447205075698e-03 0.0 
0.0 0.0 -2.510564503189e-04 
-2.134033531635e-04 -1.202880701251e-05 0.0 
-1.202880701251e-05 1.118917748560e-03 0.0 
0.0 0.0 -2.366757893512e-04 
-2.618885880878e-04 2.000957013546e-04 0.0 
2.000957013546e-04 1.434490946595e-03 0.0 
0.0 0.0 -2.525559601288e-04 
-2.561151872774e-04 2.173251173940e-04 0.0 
2.173251173940e-04 1.315804408785e-03 0.0 
0.0 0.0 -2.439992467140e-04 
-7.756433689863e-04 3.199927864594e-05 0.0 
3.199927864594e-05 4.983308918424e-03 0.0 
0.0 0.0 -7.918363975426e-04 
-4.925212314280e-04 -9.934539810266e-05 0.0 
-9.934539810266e-05 3.122416797223e-03 0.0 
0.0 0.0 -4.749402310763e-04 
-4.545793902690e-04 2.152694959791e-05 0.0 
2.152694959791e-05 2.617959458629e-03 0.0 
0.0 0.0 -4.438329512050e-04 
-8.539707940099e-04 -2.466642961344e-04 0.0 
-2.466642961344e-04 5.506675063211e-03 0.0 
0.0 0.0 -8.336771054075e-04 
-8.435305426984e-04 2.228252034013e-04 0.0 
2.228252034013e-04 5.474459253188e-03 0.0 
0.0 0.0 -8.358076868167e-04 
-9.896151407778e-04 -1.847277247936e-04 0.0 
-1.847277247936e-04 6.561076695027e-03 0.0 
0.0 0.0 -9.867109252839e-04 
-1.055581697673e-03 1.942475256944e-04 0.0 
1.942475256944e-04 7.096214809641e-03 0.0 
0.0 0.0 -1.058576829647e-03 
-1.087556198862e-03 -2.099876550133e-04 0.0 
-2.099876550133e-04 7.325766427452e-03 0.0 
0.0 0.0 -1.085941371602e-03 
-7.938707313230e-04 -2.935700947946e-04 0.0 
-2.935700947946e-04 5.166210845136e-03 0.0 
0.0 0.0 -7.983229688164e-04 
-9.891997245649e-05 3.705985749017e-05 0.0 
3.705985749017e-05 3.315907805063e-04 0.0 
0.0 0.0 -9.971606059277e-05 
-7.885073175136e-04 2.083610238624e-05 0.0 
2.083610238624e-05 5.061448418496e-03 0.0 
0.0 0.0 -7.928983479555e-04 
-1.080416093341e-03 -1.102030882255e-04 0.0 
-1.102030882255e-04 7.033104683541e-03 0.0 
0.0 0.0 -1.069439317440e-03 
-1.045886068578e-03 1.124481538708e-04 0.0 
1.124481538708e-04 7.095766026652e-03 0.0 
0.0 0.0 -1.046447409317e-03 
-1.328437641777e-03 -2.129776585032e-05 0.0 
-2.129776585032e-05 9.108372857470e-03 0.0 
0.0 0.0 -1.319970921405e-03 
-1.300424073257e-03 -1.489012867546e-04 0.0 
-1.489012867546e-04 8.723441004214e-03 0.0 
0.0 0.0 -1.294194962782e-03 
-7.712114504191e-04 -1.098703338913e-04 0.0 
-1.098703338913e-04 4.988523523052e-03 0.0 
0.0 0.0 -7.889745663688e-04 
-1.284794183645e-03 -1.672243708689e-06 0.0 
-1.672243708689e-06 8.719527791253e-03 0.0 
0.0 0.0 -1.263183913703e-03 
-8.948346215206e-04 -1.546261929541e-04 0.0 
-1.546261929541e-04 5.902983939671e-03 0.0 
0.0 0.0 -9.040008563810e-04 
-5.152734121650e-04 -1.377156700746e-04 0.0 
-1.377156700746e-04 3.387112186572e-03 0.0 
0.0 0.0 -5.198799001330e-04 
-7.537468891923e-04 -1.811454266392e-04 0.0 
-1.811454266392e-04 5.032849217033e-03 0.0 
0.0 0.0 -7.643292725053e-04 
-1.300051982580e-03 1.933815268577e-04 0.0 
1.933815268577e-04 8.643096299671e-03 0.0 
0.0 0.0 -1.287517816355e-03 
-1.042138929644e-03 -2.218801567962e-04 0.0 
-2.218801567962e-04 6.995297199161e-03 0.0 
0.0 0.0 -1.043751955586e-03 
-1.212978672895e-03 -2.149778667109e-04 0.0 
-2.149778667109e-04 8.151603330808e-03 0.0 
0.0 0.0 -1.209599240962e-03 
-4.772009659134e-04 -2.042000113292e-04 0.0 
-2.042000113292e-04 3.047489558792e-03 0.0 
0.0 0.0 -4.747543016519e-04 
-1.600906628411e-04 5.774618246658e-05 0.0 
5.774618246658e-05 1.025327310925e-03 0.0 
0.0 0.0 -1.624897275554e-04 
-1.185986913304e-03 -1.994673824885e-04 0.0 
-1.994673824885e-04 7.973913807476e-03 0.0 
0.0 0.0 -1.189902873528e-03 
-1.119764034804e-03 7.291963016832e-05 0.0 
7.291963016832e-05 7.561876066394e-03 0.0 
0.0 0.0 -1.108790581071e-03 
-1.060815689674e-04 -4.441233851545e-05 0.0 
-4.441233851545e-05 6.067820639570e-04 0.0 
0.0 0.0 -1.038131581323e-04 
-1.254593141611e-03 -8.600335574532e-05 0.0 
-8.600335574532e-05 8.491952788715e-03 0.0 
0.0 0.0 -1.285127980003e-03 
-1.054610615232e-03 1.830679382237e-04 0.0 
1.830679382237e-04 6.961937164299e-03 0.0 
0.0 0.0 -1.051491716222e-03 
-1.014932494026e-04 -1.696691582667e-04 0.0 
-1.696691582667e-04 3.826202340035e-04 0.0 
0.0 0.0 -1.013520483084e-04 
-6.301709070232e-04 2.090314443316e-04 0.0 
2.090314443316e-04 4.024350450833e-03 0.0 
0.0 0.0 -6.309931931857e-04 
-7.106440805021e-04 -1.470402379688e-04 0.0 
-1.470402379688e-04 4.709551499753e-03 0.0 
0.0 0.0 -7.153918394734e-04 
-5.826588176687e-04 -7.135686322053e-05 0.0 
-7.135686322053e-05 3.565625895428e-03 0.0 
0.0 0.0 -5.772375537024e-04 
-4.700128970004e-04 1.674991601261e-04 0.0 
1.674991601261e-04 2.986365482112e-03 0.0 
0.0 0.0 -4.852398935310e-04 
-5.464898507642e-04 -2.243214163867e-04 0.0 
-2.243214163867e-04 3.519571152392e-03 0.0 
0.0 0.0 -5.471823052058e-04 
-1.295684493703e-03 1.105875109316e-04 0.0 
1.105875109316e-04 8.547279304038e-03 0.0 
0.0 0.0 -1.283833066805e-03 
-8.570047827625e-04 1.861607891453e-04 0.0 
1.861607891453e-04 5.815261551137e-03 0.0 
0.0 0.0 -8.766975940251e-04 
-5.090056138741e-04 2.359482171435e-04 0.0 
2.359482171435e-04 3.233178911117e-03 0.0 
0.0 0.0 -5.122473358773e-04 
-2.401563577846e-04 -2.327182583628e-04 0.0 
-2.327182583628e-04 1.352155075276e-03 0.0 
0.0 0.0 -2.295267891405e-04 
-7.623542819020e-04 1.283036037402e-04 0.0 
1.283036037402e-04 5.225810972112e-03 0.0 
0.0 0.0 -7.744920945421e-04 
-1.103870852233e-03 -9.179179606005e-05 0.0 
-9.179179606005e-05 7.387674560017e-03 0.0 
0.0 0.0 -1.129288753466e-03 
-5.110192863144e-04 -2.509386708551e-04 0.0 
-2.509386708551e-04 3.262724462356e-03 0.0 
0.0 0.0 -5.109724225979e-04 
-1.701414425471e-04 -1.534722166073e-04 0.0 
-1.534722166073e-04 9.835208087659e-04 0.0 
0.0 0.0 -1.803716510945e-04 
-6.470086521654e-04 -1.523090755330e-04 0.0 
-1.523090755330e-04 4.254329431163e-03 0.0 
0.0 0.0 -6.470401313398e-04 
-5.812575166427e-04 7.210416783757e-05 0.0 
7.210416783757e-05 3.739643384109e-03 0.0 
0.0 0.0 -5.578851714504e-04 
-6.125337073479e-04 1.558115274757e-04 0.0 
1.558115274757e-04 3.923971555451e-03 0.0 
0.0 0.0 -6.167189930164e-04 
-1.291653437089e-03 1.656662026679e-04 0.0 
1.656662026679e-04 8.654933890924e-03 0.0 
0.0 0.0 -1.290671971449e-03 
-2.237296866695e-04 1.772304597236e-04 0.0 
1.772304597236e-04 1.151710267161e-03 0.0 
0.0 0.0 -2.092271396208e-04 
-9.141643905242e-04 1.684200684003e-04 0.0 
1.684200684003e-04 6.033430644026e-03 0.0 
0.0 0.0 -9.216843799351e-04 
-1.271942419784e-03 2.295590735455e-04 0.0 
2.295590735455e-04 8.471227576744e-03 0.0 
0.0 0.0 -1.256690274141e-03 
-6.609256603744e-04 1.763317732060e-04 0.0 
1.763317732060e-04 4.239720102404e-03 0.0 
0.0 0.0 -6.588732905211e-04 
-6.147586220519e-04 -1.550456399962e-04 0.0 
-1.550456399962e-04 4.029116054442e-03 0.0 
0.0 0.0 -6.139229799761e-04 
-1.241743830704e-03 2.520731219919e-04 0.0 
2.520731219919e-04 8.466488124430e-03 0.0 
0.0 0.0 -1.254964138299e-03 
-1.256064603940e-03 -2.623116581344e-04 0.0 
-2.623116581344e-04 8.488036362469e-03 0.0 
0.0 0.0 -1.261070974318e-03 
-9.903209289541e-04 1.774668260034e-04 0.0 
1.774668260034e-04 6.556735258886e-03 0.0 
0.0 0.0 -9.873713238705e-04 
-6.942353831373e-04 -1.750200192602e-04 0.0 
-1.750200192602e-04 4.553149239605e-03 0.0 
0.0 0.0 -6.916138708610e-04 
-1.272024970549e-03 7.302822811058e-05 0.0 
7.302822811058e-05 8.719688557752e-03 0.0 
0.0 0.0 -1.270330610962e-03 
-6.345922402826e-04 1.791748683913e-04 0.0 
1.791748683913e-04 4.059488016013e-03 0.0 
0.0 0.0 -6.326048069937e-04 
-1.254086704545e-03 -7.990901772509e-06 0.0 
-7.990901772509e-06 8.463054394801e-03 0.0 
0.0 0.0 -1.283174495648e-03 
-1.276280299661e-03 7.633372817423e-05 0.0 
7.633372817423e-05 8.703927362015e-03 0.0 
0.0 0.0 -1.267437373369e-03 
-8.565153591280e-04 -2.695301549171e-04 0.0 
-2.695301549171e-04 5.568894745570e-03 0.0 
0.0 0.0 -8.543707170918e-04 
-9.713226980400e-04 1.946342578752e-04 0.0 
1.946342578752e-04 6.532485670191e-03 0.0 
0.0 0.0 -9.817831382938e-04 
-6.315283379598e-04 -1.826998149001e-04 0.0 
-1.826998149001e-04 4.113094555246e-03 0.0 
0.0 0.0 -6.293189184696e-04 
-5.902450977429e-04 1.623031646131e-04 0.0 
1.623031646131e-04 3.689468477665e-03 0.0 
0.0 0.0 -5.830241378053e-04 
-7.249782629771e-04 1.809288523893e-04 0.0 
1.809288523893e-04 4.673091201127e-03 0.0 
0.0 0.0 -7.211932326589e-04 
-5.403888112139e-04 -1.689543050934e-04 0.0 
-1.689543050934e-04 3.513114326182e-03 0.0 
0.0 0.0 -5.383041810906e-04 
-7.661110268238e-04 -1.968496736507e-04 0.0 
-1.968496736507e-04 5.166653984338e-03 0.0 
0.0 0.0 -7.693993191400e-04 
-6.294182824657e-04 -2.163757471592e-04 0.0 
-2.163757471592e-04 4.099286379753e-03 0.0 
0.0 0.0 -6.275039421266e-04 
-9.046107145188e-05 -7.326081393839e-05 0.0 
-7.326081393839e-05 3.093039216748e-04 0.0 
0.0 0.0 -9.378979295270e-05 
-8.218888591145e-04 -1.362265050326e-05 0.0 
-1.362265050326e-05 5.568518320124e-03 0.0 
0.0 0.0 -8.171079392438e-04 
-2.708662158631e-04 3.135426371168e-06 0.0 
3.135426371168e-06 1.198400692882e-03 0.0 
0.0 0.0 -2.373169254524e-04 
-6.825469564227e-04 -1.538944897682e-04 0.0 
-1.538944897682e-04 4.493577698030e-03 0.0 
0.0 0.0 -6.809683978454e-04 
-1.266750237588e-03 4.200148413727e-06 0.0 
4.200148413727e-06 8.473073137795e-03 0.0 
0.0 0.0 -1.284796145094e-03 
-4.841925383156e-04 2.284371901658e-04 0.0 
2.284371901658e-04 3.002882293729e-03 0.0 
0.0 0.0 -4.767992880414e-04 
-1.020870051269e-03 2.043993854783e-04 0.0 
2.043993854783e-04 6.818231983257e-03 0.0 
0.0 0.0 -1.021089721936e-03 
-3.490407114895e-04 -2.220876940666e-04 0.0 
-2.220876940666e-04 2.148206482994e-03 0.0 
0.0 0.0 -3.540742325023e-04 
-1.043282338519e-03 2.368159947987e-04 0.0 
2.368159947987e-04 6.958410863996e-03 0.0 
0.0 0.0 -1.044905595188e-03 
-8.013630412540e-04 6.389824081856e-06 0.0 
6.389824081856e-06 5.002686662292e-03 0.0 
0.0 0.0 -7.899655494116e-04 
-5.947683694498e-04 2.081256616156e-04 0.0 
2.081256616156e-04 3.787155443009e-03 0.0 
0.0 0.0 -5.931463391684e-04 
-1.121794229525e-03 -2.159685184143e-04 0.0 
-2.159685184143e-04 7.508906289541e-03 0.0 
0.0 0.0 -1.120963572432e-03 
-2.180914166738e-04 1.756512204206e-04 0.0 
1.756512204206e-04 1.241780399830e-03 0.0 
0.0 0.0 -2.346376350630e-04 
-1.178651579784e-03 2.200776692921e-04 0.0 
2.200776692921e-04 7.962810812677e-03 0.0 
0.0 0.0 -1.189111243166e-03 
-7.770557330009e-04 1.799043213504e-04 0.0 
1.799043213504e-04 5.036915018676e-03 0.0 
0.0 0.0 -7.711223959738e-04 
-1.280064085681e-03 1.291641233303e-05 0.0 
1.291641233303e-05 8.715123744243e-03 0.0 
0.0 0.0 -1.265987209193e-03 
-7.886647595985e-04 2.426638412845e-05 0.0 
2.426638412845e-05 5.002569468986e-03 0.0 
0.0 0.0 -7.842605076999e-04 
-5.085061027866e-04 1.624719349288e-04 0.0 
1.624719349288e-04 3.132188298831e-03 0.0 
0.0 0.0 -5.042822341261e-04 
-6.680122214844e-04 1.543414038776e-04 0.0 
1.543414038776e-04 4.389762745766e-03 0.0 
0.0 0.0 -6.840799553763e-04 
-9.007934225225e-04 -1.247506640907e-04 0.0 
-1.247506640907e-04 5.946782140169e-03 0.0 
0.0 0.0 -8.722824885218e-04 
-3.656654935953e-04 2.470171187882e-04 0.0 
2.470171187882e-04 2.250740956869e-03 0.0 
0.0 0.0 -3.514598124168e-04 
-5.924594186081e-04 -2.113287385343e-04 0.0 
-2.113287385343e-04 3.843594924053e-03 0.0 
0.0 0.0 -5.911455407098e-04 
-1.021044424836e-03 -2.319523584093e-04 0.0 
-2.319523584093e-04 6.800629387681e-03 0.0 
0.0 0.0 -1.016465148841e-03 
-7.832948860764e-04 1.542506256291e-04 0.0 
1.542506256291e-04 5.221219062028e-03 0.0 
0.0 0.0 -7.680022369673e-04 
-5.676669992827e-04 1.711896275723e-04 0.0 
1.711896275723e-04 3.564089172862e-03 0.0 
0.0 0.0 -5.666226778950e-04 
-6.536822883720e-04 1.457424227352e-04 0.0 
1.457424227352e-04 4.156474681676e-03 0.0 
0.0 0.0 -6.498546761489e-04 
-1.132270982308e-03 2.069255922966e-04 0.0 
2.069255922966e-04 7.587995835191e-03 0.0 
0.0 0.0 -1.136725521675e-03 
-6.243703934397e-04 -5.657386080576e-05 0.0 
-5.657386080576e-05 4.179915537147e-03 0.0 
0.0 0.0 -6.189190723244e-04 
-1.269582323065e-03 5.358509534069e-05 0.0 
5.358509534069e-05 8.454036067307e-03 0.0 
0.0 0.0 -1.285202198870e-03 
-1.273584082277e-03 -3.447672338951e-05 0.0 
-3.447672338951e-05 8.706627272042e-03 0.0 
0.0 0.0 -1.265486236287e-03 
-4.574522532321e-04 -1.366919469267e-04 0.0 
-1.366919469267e-04 2.968706494426e-03 0.0 
0.0 0.0 -4.595713030950e-04 
-6.193411254739e-04 7.190453835515e-05 0.0 
7.190453835515e-05 3.976368456989e-03 0.0 
0.0 0.0 -6.385407451345e-04 
-1.157661612575e-03 -1.951807319381e-04 0.0 
-1.951807319381e-04 7.743964299132e-03 0.0 
0.0 0.0 -1.152822474774e-03 
-6.058642039217e-04 -1.568622492918e-04 0.0 
-1.568622492918e-04 3.943482715706e-03 0.0 
0.0 0.0 -6.037256927378e-04 
-4.410111678775e-04 1.646945023678e-04 0.0 
1.646945023678e-04 2.528625053889e-03 0.0 
0.0 0.0 -4.251746348339e-04 
-7.492101616993e-04 1.773144067430e-04 0.0 
1.773144067430e-04 4.849787455535e-03 0.0 
0.0 0.0 -7.443430781256e-04 
-6.015846242072e-04 -1.692904042825e-04 0.0 
-1.692904042825e-04 3.951833046067e-03 0.0 
0.0 0.0 -6.011186688906e-04 
-1.288763796550e-03 1.231833412492e-04 0.0 
1.231833412492e-04 8.478545606423e-03 0.0 
0.0 0.0 -1.279059907835e-03 
-1.060544670799e-03 1.938342500095e-04 0.0 
1.938342500095e-04 7.027045279308e-03 0.0 
0.0 0.0 -1.060691896764e-03 
-1.152244772895e-03 2.285095076535e-04 0.0 
2.285095076535e-04 7.745399107629e-03 0.0 
0.0 0.0 -1.155968210243e-03 
-2.882194771885e-04 -2.173510090809e-04 0.0 
-2.173510090809e-04 1.694759427097e-03 0.0 
0.0 0.0 -2.852154713500e-04 
-5.567709701176e-04 -1.966656427986e-04 0.0 
-1.966656427986e-04 3.599381630168e-03 0.0 
0.0 0.0 -5.558335581882e-04 
-1.085941057106e-03 1.940613560135e-04 0.0 
1.940613560135e-04 7.224719901000e-03 0.0 
0.0 0.0 -1.089453766084e-03 
-2.843827826560e-05 -1.788898447614e-05 0.0 
-1.788898447614e-05 1.853186358372e-04 0.0 
0.0 0.0 -4.453055683374e-05 
-6.135292459430e-04 1.555358498214e-04 0.0 
1.555358498214e-04 3.889243112960e-03 0.0 
0.0 0.0 -6.073871274648e-04 
-1.080867878280e-03 -2.316454551773e-04 0.0 
-2.316454551773e-04 7.249333231753e-03 0.0 
0.0 0.0 -1.080675545910e-03 
-1.764831160191e-04 -8.217578917015e-05 0.0 
-8.217578917015e-05 1.019550636912e-03 0.0 
0.0 0.0 -1.605608400042e-04 
-1.238595889810e-03 2.354517143286e-04 0.0 
2.354517143286e-04 8.471121261651e-03 0.0 
0.0 0.0 -1.257517519450e-03 
-9.713207705103e-04 1.946323764392e-04 0.0 
1.946323764392e-04 6.442137433534e-03 0.0 
0.0 0.0 -9.749624431058e-04 
-5.981973631964e-04 1.879071448913e-04 0.0 
1.879071448913e-04 3.813329018576e-03 0.0 
0.0 0.0 -5.995223474422e-04 
-1.084348145166e-03 2.392214872560e-04 0.0 
2.392214872560e-04 7.212887026288e-03 0.0 
0.0 0.0 -1.082135573042e-03 
-8.219004318722e-04 -1.022855745570e-05 0.0 
-1.022855745570e-05 5.626191621956e-03 0.0 
0.0 0.0 -8.259898420369e-04 
-8.600931526372e-04 -1.614882484442e-04 0.0 
-1.614882484442e-04 5.932770930688e-03 0.0 
0.0 0.0 -8.838609275114e-04 
-1.235110349403e-03 -1.423085779250e-04 0.0 
-1.423085779250e-04 8.282740067778e-03 0.0 
0.0 0.0 -1.237791025003e-03 
-4.556209105529e-04 2.036420794211e-04 0.0 
2.036420794211e-04 2.823352627341e-03 0.0 
0.0 0.0 -4.583583101839e-04 
-7.508195319224e-04 1.853886358928e-04 0.0 
1.853886358928e-04 4.860963236206e-03 0.0 
0.0 0.0 -7.480401524272e-04 
-8.027906713221e-04 1.764875410810e-04 0.0 
1.764875410810e-04 5.221920557136e-03 0.0 
0.0 0.0 -7.988399675000e-04 
-1.007530328557e-03 -1.922336022122e-04 0.0 
-1.922336022122e-04 6.759039767951e-03 0.0 
0.0 0.0 -1.008548823165e-03 
-8.112396533280e-04 -1.820827880749e-04 0.0 
-1.820827880749e-04 5.334789694812e-03 0.0 
0.0 0.0 -8.035999206669e-04 
-7.424823838501e-04 -1.611951191526e-04 0.0 
-1.611951191526e-04 4.887914283700e-03 0.0 
0.0 0.0 -7.415510827328e-04 
-9.420049562243e-04 -1.980186569884e-04 0.0 
-1.980186569884e-04 6.275886053793e-03 0.0 
0.0 0.0 -9.414312740916e-04 
-1.106765657790e-03 -2.072912274522e-04 0.0 
-2.072912274522e-04 7.417848919971e-03 0.0 
0.0 0.0 -1.105110859848e-03 
-8.771550322174e-05 -5.128346968192e-06 0.0 
-5.128346968192e-06 5.622743997178e-04 0.0 
0.0 0.0 -1.015871403443e-04 
-4.452411510459e-04 1.078521059611e-04 0.0 
1.078521059611e-04 2.907946245103e-03 0.0 
0.0 0.0 -4.649757541953e-04 
-5.301149448616e-04 1.855290027466e-04 0.0 
1.855290027466e-04 3.290005967673e-03 0.0 
0.0 0.0 -5.249394872960e-04 
-7.215069587739e-04 -1.794285911688e-04 0.0 
-1.794285911688e-04 4.739905292165e-03 0.0 
0.0 0.0 -7.181710532390e-04 
-1.095309768585e-03 -2.099324022586e-04 0.0 
-2.099324022586e-04 7.373113916822e-03 0.0 
0.0 0.0 -1.095076276885e-03 
-2.412241836646e-04 1.824271338482e-04 0.0 
1.824271338482e-04 1.391269291466e-03 0.0 
0.0 0.0 -2.576475407671e-04 
-1.042666947128e-03 -2.211661748355e-04 0.0 
-2.211661748355e-04 6.991049176526e-03 0.0 
0.0 0.0 -1.043355442177e-03 
-7.709980970027e-04 -2.344526007543e-04 0.0 
-2.344526007543e-04 5.001364750652e-03 0.0 
0.0 0.0 -7.763349569542e-04 
-5.598484848317e-04 1.964216387432e-04 0.0 
1.964216387432e-04 3.545883977613e-03 0.0 
0.0 0.0 -5.576783925304e-04 
-1.005904581142e-03 -2.103129090371e-04 0.0 
-2.103129090371e-04 6.739916943409e-03 0.0 
0.0 0.0 -1.006238978475e-03 
-1.328137378895e-04 -1.926409820627e-04 0.0 
-1.926409820627e-04 5.524811366157e-04 0.0 
0.0 0.0 -1.250635456846e-04 
-1.037748486931e-03 2.025826416298e-04 0.0 
2.025826416298e-04 6.894254509779e-03 0.0 
0.0 0.0 -1.040010908530e-03 
-9.586550230840e-05 6.862947183813e-05 0.0 
6.862947183813e-05 5.313753155375e-04 0.0 
0.0 0.0 -1.007187892234e-04 
-1.713724236673e-04 -5.327399001740e-06 0.0 
-5.327399001740e-06 7.517172537926e-04 0.0 
0.0 0.0 -1.819418517600e-04 
-2.796122854916e-04 2.316565417801e-04 0.0 
2.316565417801e-04 1.675994704223e-03 0.0 
0.0 0.0 -2.873666149908e-04 
-3.926605428350e-04 1.733428287043e-04 0.0 
1.733428287043e-04 2.352552718651e-03 0.0 
0.0 0.0 -3.935955730116e-04 
-1.073504857728e-03 -1.857694457952e-04 0.0 
-1.857694457952e-04 7.207934761623e-03 0.0 
0.0 0.0 -1.073797489760e-03 
-3.651136453237e-04 -1.928839212764e-04 0.0 
-1.928839212764e-04 2.293609592088e-03 0.0 
0.0 0.0 -3.637595386041e-04 
-3.442210319021e-04 1.764997975595e-04 0.0 
1.764997975595e-04 2.032847714738e-03 0.0 
0.0 0.0 -3.432832105208e-04 
-2.910729329918e-04 -1.809308260193e-04 0.0 
-1.809308260193e-04 1.763076573158e-03 0.0 
0.0 0.0 -2.922710279673e-04 
-2.622356291375e-04 1.892606687832e-04 0.0 
1.892606687832e-04 1.448318780246e-03 0.0 
0.0 0.0 -2.614315927221e-04 
-1.120397219207e-03 1.996859117335e-04 0.0 
1.996859117335e-04 7.447331785752e-03 0.0 
0.0 0.0 -1.117524173959e-03 
-7.717946648580e-04 -1.881039575464e-04 0.0 
-1.881039575464e-04 5.076611576995e-03 0.0 
0.0 0.0 -7.687972329812e-04 
-1.256202704630e-03 2.478526914498e-04 0.0 
2.478526914498e-04 8.487594918351e-03 0.0 
0.0 0.0 -1.256743614961e-03 
0.0 0.0 0.0 
0.0 0.0 0.0 
0.0 0.0 0.0 
-4.048716956913e-04 1.853052298050e-04 0.0 
1.853052298050e-04 2.461420572415e-03 0.0 
0.0 0.0 -4.044045206172e-04 
-6.239445424560e-04 2.046361178611e-04 0.0 
2.046361178611e-04 3.992995746549e-03 0.0 
0.0 0.0 -6.230907113744e-04 
-5.740868944919e-04 1.850315981272e-04 0.0 
1.850315981272e-04 3.613473978480e-03 0.0 
0.0 0.0 -5.709397776106e-04 
-1.047068133195e-03 2.230470659994e-04 0.0 
2.230470659994e-04 6.949500072304e-03 0.0 
0.0 0.0 -1.045235091131e-03 
-1.285400109254e-03 1.957478292084e-04 0.0 
1.957478292084e-04 8.698618921316e-03 0.0 
0.0 0.0 -1.275930989368e-03 
-1.029713153133e-03 -2.056143237118e-04 0.0 
-2.056143237118e-04 6.913851891301e-03 0.0 
0.0 0.0 -1.029499106509e-03 
-4.579566149125e-04 -1.884217374257e-04 0.0 
-1.884217374257e-04 2.912212194121e-03 0.0 
0.0 0.0 -4.564841486881e-04 
-1.120831572504e-03 -1.912348279818e-04 0.0 
-1.912348279818e-04 7.467678576310e-03 0.0 
0.0 0.0 -1.116166892424e-03 
-9.572670568062e-04 2.571263954151e-04 0.0 
2.571263954151e-04 6.316374419588e-03 0.0 
0.0 0.0 -9.512440159151e-04 
-7.570218913511e-04 -1.787629418728e-04 0.0 
-1.787629418728e-04 4.987297939344e-03 0.0 
0.0 0.0 -7.537083776970e-04 
-9.994998658216e-04 2.045048337302e-04 0.0 
2.045048337302e-04 6.629510214408e-03 0.0 
0.0 0.0 -1.003200534345e-03 
-1.242505065463e-03 -1.591232809489e-04 0.0 
-1.591232809489e-04 8.294319035880e-03 0.0 
0.0 0.0 -1.239730878702e-03 
-6.222328359965e-04 -2.058351298643e-04 0.0 
-2.058351298643e-04 4.057741749781e-03 0.0 
0.0 0.0 -6.206208101913e-04 
-3.761575650769e-04 -1.711217870112e-04 0.0 
-1.711217870112e-04 2.346047162404e-03 0.0 
0.0 0.0 -3.752687577596e-04 
-8.718273414275e-04 -1.903070125199e-04 0.0 
-1.903070125199e-04 5.767456116596e-03 0.0 
0.0 0.0 -8.662621843288e-04 
-1.329807574370e-03 9.926374614624e-05 0.0 
9.926374614624e-05 9.094631735092e-03 0.0 
0.0 0.0 -1.323568725688e-03 
-7.473763321356e-04 -1.878290917317e-04 0.0 
-1.878290917317e-04 4.922460573442e-03 0.0 
0.0 0.0 -7.453270327203e-04 
-7.780710127091e-04 -1.914920916378e-04 0.0 
-1.914920916378e-04 5.142441463468e-03 0.0 
0.0 0.0 -7.768443034385e-04 
-8.403853568470e-04 -5.224028630894e-05 0.0 
-5.224028630894e-05 5.665674692091e-03 0.0 
0.0 0.0 -8.293613651800e-04 
-2.119957057011e-04 -1.175361575481e-04 0.0 
-1.175361575481e-04 1.307524346165e-03 0.0 
0.0 0.0 -2.161141481901e-04 
-8.208799096498e-04 1.843133829192e-04 0.0 
1.843133829192e-04 5.271529166893e-03 0.0 
0.0 0.0 -8.060563724883e-04 
-4.603670611930e-04 1.877974414593e-04 0.0 
1.877974414593e-04 2.847786037855e-03 0.0 
0.0 0.0 -4.590591740919e-04 
-3.265147701176e-04 1.754702989644e-04 0.0 
1.754702989644e-04 1.892353118097e-03 0.0 
0.0 0.0 -3.229397045850e-04 
-2.372523115321e-04 -1.920097841935e-04 0.0 
-1.920097841935e-04 1.297568945568e-03 0.0 
0.0 0.0 -2.426597671045e-04 
-1.076566808285e-03 1.948027566312e-04 0.0 
1.948027566312e-04 7.152792080089e-03 0.0 
0.0 0.0 -1.075985979751e-03 
-8.366892688468e-04 -1.821112197860e-04 0.0 
-1.821112197860e-04 5.525859000099e-03 0.0 
0.0 0.0 -8.312490730234e-04 
-5.408471440859e-04 1.787636598149e-04 0.0 
1.787636598149e-04 3.420100638870e-03 0.0 
0.0 0.0 -5.429493831729e-04 
-1.110558394075e-03 -1.920281890811e-04 0.0 
-1.920281890811e-04 7.461731149687e-03 0.0 
0.0 0.0 -1.109763131677e-03 
-1.054698518121e-03 -2.087025362573e-04 0.0 
-2.087025362573e-04 7.108835153234e-03 0.0 
0.0 0.0 -1.057773507355e-03 
-7.924197653506e-04 -1.785979394266e-04 0.0 
-1.785979394266e-04 5.231483760846e-03 0.0 
0.0 0.0 -7.887050335656e-04 
-1.257903229921e-03 7.567368571964e-05 0.0 
7.567368571964e-05 8.498216080292e-03 0.0 
0.0 0.0 -1.288412101370e-03 
-8.091181034430e-04 1.931976365146e-04 0.0 
1.931976365146e-04 5.284760522789e-03 0.0 
0.0 0.0 -8.078958932737e-04 
-8.263277637736e-04 -1.832084157210e-04 0.0 
-1.832084157210e-04 5.471677470530e-03 0.0 
0.0 0.0 -8.238265297874e-04 
-6.650106902351e-04 -1.791010150322e-04 0.0 
-1.791010150322e-04 4.378261468460e-03 0.0 
0.0 0.0 -6.656476441012e-04 
-8.423857986255e-04 -1.986818351390e-04 0.0 
-1.986818351390e-04 5.587318921638e-03 0.0 
0.0 0.0 -8.413031780454e-04 
-3.899474951329e-04 1.915304819262e-04 0.0 
1.915304819262e-04 2.337472328750e-03 0.0 
0.0 0.0 -3.865807678710e-04 
-8.089876515703e-04 4.490290024569e-05 0.0 
4.490290024569e-05 5.014601975749e-03 0.0 
0.0 0.0 -7.898058234521e-04 
-6.502027287348e-04 -1.918500009786e-04 0.0 
-1.918500009786e-04 4.255074906530e-03 0.0 
0.0 0.0 -6.486359607860e-04 
-4.676332506753e-04 -1.907969004762e-04 0.0 
-1.907969004762e-04 2.994133619140e-03 0.0 
0.0 0.0 -4.681053320140e-04 
-1.032293230965e-03 1.946996800783e-04 0.0 
1.946996800783e-04 6.836459352288e-03 0.0 
0.0 0.0 -1.032318248600e-03 
-4.933492965949e-05 -2.981330854880e-05 0.0 
-2.981330854880e-05 2.232237160484e-04 0.0 
0.0 0.0 -4.491607815645e-05 
-8.460396934351e-04 -1.994951239521e-04 0.0 
-1.994951239521e-04 5.571843201912e-03 0.0 
0.0 0.0 -8.386390795737e-04 
-4.884576987714e-04 1.904916551126e-04 0.0 
1.904916551126e-04 3.043938579203e-03 0.0 
0.0 0.0 -4.870240021111e-04 
-4.011070509712e-04 -1.789938708172e-04 0.0 
-1.789938708172e-04 2.527031405991e-03 0.0 
0.0 0.0 -4.015254440178e-04 
-3.881231226590e-04 -1.849728275912e-04 0.0 
-1.849728275912e-04 2.413136850469e-03 0.0 
0.0 0.0 -3.834586606452e-04 
-9.010939454830e-04 1.820631251065e-04 0.0 
1.820631251065e-04 5.900115668490e-03 0.0 
0.0 0.0 -8.965110541436e-04 
-1.535639171870e-04 -1.171137565838e-04 0.0 
-1.171137565838e-04 9.290832055632e-04 0.0 
0.0 0.0 -1.609926926485e-04 
-5.642000446768e-04 1.829010286562e-04 0.0 
1.829010286562e-04 3.554613982315e-03 0.0 
0.0 0.0 -5.613503766092e-04 
-8.738800955345e-04 1.908997098881e-04 0.0 
1.908997098881e-04 5.736495439307e-03 0.0 
0.0 0.0 -8.726802719924e-04 
-8.424168210172e-04 1.809379834970e-04 0.0 
1.809379834970e-04 5.460364861261e-03 0.0 
0.0 0.0 -8.336838631977e-04 
-8.483140592107e-04 -2.570000340280e-05 0.0 
-2.570000340280e-05 5.646419876325e-03 0.0 
0.0 0.0 -8.301023967811e-04 
-2.301022018194e-04 1.896537110150e-04 0.0 
1.896537110150e-04 1.205962353600e-03 0.0 
0.0 0.0 -2.187087652219e-04 
-4.708793642351e-04 1.959468275412e-04 0.0 
1.959468275412e-04 2.928096743676e-03 0.0 
0.0 0.0 -4.706942212664e-04 
-4.339228685620e-04 -2.028732675090e-04 0.0 
-2.028732675090e-04 2.736979889631e-03 0.0 
0.0 0.0 -4.311372127493e-04 
-4.979504220915e-04 -1.685324817791e-04 0.0 
-1.685324817791e-04 3.206245351086e-03 0.0 
0.0 0.0 -4.957039317942e-04 
-1.001539925556e-03 -2.124102205074e-04 0.0 
-2.124102205074e-04 6.704131800771e-03 0.0 
0.0 0.0 -1.000663671924e-03 
-5.607402459633e-04 -1.707949003296e-04 0.0 
-1.707949003296e-04 3.631087283813e-03 0.0 
0.0 0.0 -5.577786207633e-04 
-6.163072057110e-04 1.894419522333e-04 0.0 
1.894419522333e-04 3.933506140839e-03 0.0 
0.0 0.0 -6.151539951222e-04 
-5.883906607910e-04 1.932241182488e-04 0.0 
1.932241182488e-04 3.740119885148e-03 0.0 
0.0 0.0 -5.868308051845e-04 
-2.691521273047e-04 -2.036688762201e-04 0.0 
-2.036688762201e-04 1.523725894567e-03 0.0 
0.0 0.0 -2.530049833111e-04 
-6.958714508921e-04 1.979801814588e-04 0.0 
1.979801814588e-04 4.490850522134e-03 0.0 
0.0 0.0 -6.959382511914e-04 
-2.861043400586e-04 -1.894415141014e-04 0.0 
-1.894415141014e-04 1.663430798726e-03 0.0 
0.0 0.0 -2.788248838327e-04 
-1.306755613337e-03 -2.610599304158e-06 0.0 
-2.610599304158e-06 9.100164486650e-03 0.0 
0.0 0.0 -1.321446319728e-03 
-1.339174511630e-03 -2.960517267119e-05 0.0 
-2.960517267119e-05 9.091242340448e-03 0.0 
0.0 0.0 -1.318029376683e-03 
-7.775136936643e-04 1.870350143581e-04 0.0 
1.870350143581e-04 5.054396183358e-03 0.0 
0.0 0.0 -7.755312068111e-04 
-4.251819947504e-04 1.895457374981e-04 0.0 
1.895457374981e-04 2.596133538266e-03 0.0 
0.0 0.0 -4.232985079168e-04 
-3.648329347482e-04 -1.837358985601e-04 0.0 
-1.837358985601e-04 2.280199425849e-03 0.0 
0.0 0.0 -3.659709354871e-04 
-8.573750887322e-04 1.858228230961e-04 0.0 
1.858228230961e-04 5.602884265534e-03 0.0 
0.0 0.0 -8.539191708179e-04 
-3.949528212466e-04 -1.886728582840e-04 0.0 
-1.886728582840e-04 2.475291397225e-03 0.0 
0.0 0.0 -3.930530440640e-04 
-4.332493895502e-04 1.980298907227e-04 0.0 
1.980298907227e-04 2.665937605433e-03 0.0 
0.0 0.0 -4.339875075689e-04 
-7.596321613464e-04 1.775287963431e-04 0.0 
1.775287963431e-04 4.918201734153e-03 0.0 
0.0 0.0 -7.563811545761e-04 
-1.287984799363e-03 -3.860068533034e-05 0.0 
-3.860068533034e-05 8.730948327736e-03 0.0 
0.0 0.0 -1.266640259566e-03 
-5.240495846064e-04 1.944963688322e-04 0.0 
1.944963688322e-04 3.293655739786e-03 0.0 
0.0 0.0 -5.226246958029e-04 
-9.447998235248e-04 1.960929665842e-04 0.0 
1.960929665842e-04 6.232881478096e-03 0.0 
0.0 0.0 -9.428115367422e-04 
-3.107562741713e-04 1.824587312734e-04 0.0 
1.824587312734e-04 1.780558679157e-03 0.0 
0.0 0.0 -3.076624342134e-04 
-1.311994729519e-03 7.493212939932e-06 0.0 
7.493212939932e-06 9.101970930917e-03 0.0 
0.0 0.0 -1.322863172658e-03 
-3.967767638388e-04 1.868417767076e-04 0.0 
1.868417767076e-04 2.404071077719e-03 0.0 
0.0 0.0 -3.959736908235e-04 
-7.861913752228e-04 1.858440032300e-04 0.0 
1.858440032300e-04 5.109311146391e-03 0.0 
0.0 0.0 -7.835188407615e-04 
-2.939612478103e-04 2.069489564745e-04 0.0 
2.069489564745e-04 1.627899719100e-03 0.0 
0.0 0.0 -2.855287480241e-04 
-9.209672284179e-04 1.890725882863e-04 0.0 
1.890725882863e-04 6.061382275032e-03 0.0 
0.0 0.0 -9.211625808215e-04 
-6.527425537756e-04 1.919833722786e-04 0.0 
1.919833722786e-04 4.182126969127e-03 0.0 
0.0 0.0 -6.516619296807e-04 
-4.643737788932e-04 1.911497819079e-04 0.0 
1.911497819079e-04 2.873282577301e-03 0.0 
0.0 0.0 -4.625367401933e-04 
-8.005133107045e-04 -1.849372706410e-04 0.0 
-1.849372706410e-04 5.279390117932e-03 0.0 
0.0 0.0 -7.963903837170e-04 
-1.325618080026e-03 -1.973193103071e-05 0.0 
-1.973193103071e-05 9.091764273344e-03 0.0 
0.0 0.0 -1.324865334549e-03 
-5.527714494018e-04 1.888052696333e-04 0.0 
1.888052696333e-04 3.488692206257e-03 0.0 
0.0 0.0 -5.510338386786e-04 
-8.711724193672e-04 -1.970525444520e-04 0.0 
-1.970525444520e-04 5.796794660819e-03 0.0 
0.0 0.0 -8.703234504572e-04 
-3.052115937338e-04 -1.690052037768e-04 0.0 
-1.690052037768e-04 1.853679927901e-03 0.0 
0.0 0.0 -3.041533380166e-04 
-9.585285003453e-04 2.099575339622e-04 0.0 
2.099575339622e-04 6.326919234623e-03 0.0 
0.0 0.0 -9.576894438039e-04 
-1.007861502229e-03 2.071557397888e-04 0.0 
2.071557397888e-04 6.684066242240e-03 0.0 
0.0 0.0 -1.008345180213e-03 
-4.131133098155e-04 -1.786065448845e-04 0.0 
-1.786065448845e-04 2.602572281114e-03 0.0 
0.0 0.0 -4.109515902261e-04 
-9.327998617517e-04 -1.874311411832e-04 0.0 
-1.874311411832e-04 6.181670543660e-03 0.0 
0.0 0.0 -9.257128893455e-04 
-1.323570257858e-03 1.323150738931e-05 0.0 
1.323150738931e-05 9.099733073090e-03 0.0 
0.0 0.0 -1.322580803729e-03 
-1.076618962997e-03 1.898018198415e-04 0.0 
1.898018198415e-04 7.144327477010e-03 0.0 
0.0 0.0 -1.075861678316e-03 
-1.321614991336e-03 -1.713273005328e-05 0.0 
-1.713273005328e-05 9.105058184061e-03 0.0 
0.0 0.0 -1.322091174222e-03 
-9.079440508185e-04 -2.097847460126e-04 0.0 
-2.097847460126e-04 6.119714420928e-03 0.0 
0.0 0.0 -9.196498359204e-04 
-1.050990778737e-03 -1.886314367516e-04 0.0 
-1.886314367516e-04 7.044669431277e-03 0.0 
0.0 0.0 -1.048263655743e-03 
-3.511245847016e-04 -1.953891657847e-04 0.0 
-1.953891657847e-04 2.144448464187e-03 0.0 
0.0 0.0 -3.491910591611e-04 
-7.374872672360e-04 -1.803640936936e-04 0.0 
-1.803640936936e-04 4.844525720206e-03 0.0 
0.0 0.0 -7.343713905235e-04 
-8.293244045422e-04 1.837550643811e-04 0.0 
1.837550643811e-04 5.409584064822e-03 0.0 
0.0 0.0 -8.263924940540e-04 
-8.620298851759e-04 -1.867239000812e-04 0.0 
-1.867239000812e-04 5.715504193618e-03 0.0 
0.0 0.0 -8.589723558544e-04 
-7.110415388042e-04 -1.855413705945e-04 0.0 
-1.855413705945e-04 4.678427107823e-03 0.0 
0.0 0.0 -7.101745248689e-04 
-1.326686360805e-03 -1.171732242917e-05 0.0 
-1.171732242917e-05 9.109208916885e-03 0.0 
0.0 0.0 -1.322334986692e-03 
-8.655458594579e-04 1.438711959111e-04 0.0 
1.438711959111e-04 5.877137978370e-03 0.0 
0.0 0.0 -8.810748613436e-04 
-7.842175920213e-04 -1.730041151838e-04 0.0 
-1.730041151838e-04 5.148772658244e-03 0.0 
0.0 0.0 -7.763708431881e-04 
-5.855858139709e-04 -1.935639285694e-04 0.0 
-1.935639285694e-04 3.803586164403e-03 0.0 
0.0 0.0 -5.843899590101e-04 
-3.295388154563e-04 1.889565951280e-04 0.0 
1.889565951280e-04 1.906230365352e-03 0.0 
0.0 0.0 -3.280768480529e-04 
-7.085854070096e-04 -1.812057133811e-04 0.0 
-1.812057133811e-04 4.648076014877e-03 0.0 
0.0 0.0 -7.069124235890e-04 
-4.422183154956e-04 1.870641756049e-04 0.0 
1.870641756049e-04 2.708861584455e-03 0.0 
0.0 0.0 -4.404772202000e-04 
-7.723719974628e-04 -4.140062150847e-05 0.0 
-4.140062150847e-05 5.256708913763e-03 0.0 
0.0 0.0 -7.696142143080e-04 
-4.606920221105e-04 -1.852355893198e-04 0.0 
-1.852355893198e-04 2.942829590752e-03 0.0 
0.0 0.0 -4.595640944490e-04 
-5.214756889107e-04 -1.931035456200e-04 0.0 
-1.931035456200e-04 3.354332559651e-03 0.0 
0.0 0.0 -5.202658224677e-04 
-1.068256360121e-03 2.066714883779e-04 0.0 
2.066714883779e-04 7.094366600133e-03 0.0 
0.0 0.0 -1.069052450572e-03 
-4.377877323945e-04 -1.833633178395e-04 0.0 
-1.833633178395e-04 2.778061496653e-03 0.0 
0.0 0.0 -4.372567615832e-04 
-7.685639283948e-04 1.832765112525e-04 0.0 
1.832765112525e-04 4.976704183313e-03 0.0 
0.0 0.0 -7.640689829422e-04 
-9.023009032283e-04 1.879763697979e-04 0.0 
1.879763697979e-04 5.928541464362e-03 0.0 
0.0 0.0 -9.014246907137e-04 
-8.033627654917e-04 1.978900666673e-04 0.0 
1.978900666673e-04 5.248675409053e-03 0.0 
0.0 0.0 -8.035328976187e-04 
-1.305960172853e-03 -2.095892658959e-06 0.0 
-2.095892658959e-06 9.102496999303e-03 0.0 
0.0 0.0 -1.324762665914e-03 
-6.445820078637e-04 -1.678202773937e-04 0.0 
-1.678202773937e-04 4.194265313441e-03 0.0 
0.0 0.0 -6.390224077203e-04 
-4.435428954873e-04 1.964051911317e-04 0.0 
1.964051911317e-04 2.726576725320e-03 0.0 
0.0 0.0 -4.422638729430e-04 
-5.680634224624e-04 -1.789976648693e-04 0.0 
-1.789976648693e-04 3.709617648682e-03 0.0 
0.0 0.0 -5.691257024010e-04 
-4.282333792407e-04 -1.482446945053e-04 0.0 
-1.482446945053e-04 2.644915346169e-03 0.0 
0.0 0.0 -4.184705811166e-04 
-4.155606553471e-04 1.953855919425e-04 0.0 
1.953855919425e-04 2.537485002560e-03 0.0 
0.0 0.0 -4.141309408042e-04 
-1.124019592153e-03 -2.007331567345e-04 0.0 
-2.007331567345e-04 7.565647962713e-03 0.0 
0.0 0.0 -1.123886314723e-03 
-8.186901870458e-04 -1.867352575881e-04 0.0 
-1.867352575881e-04 5.417532343351e-03 0.0 
0.0 0.0 -8.161479701220e-04 
-5.717796681143e-04 -1.878963187406e-04 0.0 
-1.878963187406e-04 3.680777609877e-03 0.0 
0.0 0.0 -5.672387349321e-04 
-7.059258560287e-04 1.849400511517e-04 0.0 
1.849400511517e-04 4.547028472385e-03 0.0 
0.0 0.0 -7.023794137935e-04 
-1.322670125945e-03 2.313222592220e-05 0.0 
2.313222592220e-05 9.105794211902e-03 0.0 
0.0 0.0 -1.320675234999e-03 
-1.261246667212e-03 -1.446740378059e-04 0.0 
-1.446740378059e-04 8.590068615086e-03 0.0 
0.0 0.0 -1.258064670439e-03 
-1.122100566517e-03 1.986464603035e-04 0.0 
1.986464603035e-04 7.484284741315e-03 0.0 
0.0 0.0 -1.126590436115e-03 
-1.036201990782e-03 -1.951775890561e-04 0.0 
-1.951775890561e-04 6.963709654535e-03 0.0 
0.0 0.0 -1.037522200811e-03 
-7.719052834795e-04 -1.888501304091e-04 0.0 
-1.888501304091e-04 5.114447170550e-03 0.0 
0.0 0.0 -7.721428985420e-04 
-5.862259843954e-04 -1.794669617907e-04 0.0 
-1.794669617907e-04 3.806767764826e-03 0.0 
0.0 0.0 -5.842812205453e-04 
-4.235649518209e-04 -1.883881554872e-04 0.0 
-1.883881554872e-04 2.667804805964e-03 0.0 
0.0 0.0 -4.203166018451e-04 
-4.860729007889e-04 -1.885252844673e-04 0.0 
-1.885252844673e-04 3.110387779237e-03 0.0 
0.0 0.0 -4.843489805398e-04 
-7.832353818819e-04 -1.822378049693e-04 0.0 
-1.822378049693e-04 5.173491727743e-03 0.0 
0.0 0.0 -7.808727949117e-04 
-8.901416230107e-04 -1.942852983017e-04 0.0 
-1.942852983017e-04 5.937129717394e-03 0.0 
0.0 0.0 -8.900964085843e-04 
-6.791455967190e-04 -1.986004150700e-04 0.0 
-1.986004150700e-04 4.477294610112e-03 0.0 
0.0 0.0 -6.810091006415e-04 
-1.137984490542e-03 2.026763925672e-04 0.0 
2.026763925672e-04 7.560494271962e-03 0.0 
0.0 0.0 -1.134236807130e-03 
-4.390058928460e-04 -1.873042743236e-04 0.0 
-1.873042743236e-04 2.794180260139e-03 0.0 
0.0 0.0 -4.395655422792e-04 
-6.752152374307e-04 -1.860595742758e-04 0.0 
-1.860595742758e-04 4.431501668800e-03 0.0 
0.0 0.0 -6.750378637491e-04 
-7.938192706807e-04 1.817389384797e-04 0.0 
1.817389384797e-04 5.160116736331e-03 0.0 
0.0 0.0 -7.913284153978e-04 
-6.120290380758e-04 -1.961653994372e-04 0.0 
-1.961653994372e-04 3.987310124629e-03 0.0 
0.0 0.0 -6.122259156574e-04 
-1.301288756895e-03 -2.045275430418e-05 0.0 
-2.045275430418e-05 9.103514886723e-03 0.0 
0.0 0.0 -1.320088186226e-03 
-1.336559860406e-03 5.304668224227e-05 0.0 
5.304668224227e-05 9.092320412842e-03 0.0 
0.0 0.0 -1.318462653075e-03 
-1.241699233935e-03 -2.254253931460e-04 0.0 
-2.254253931460e-04 8.519567921102e-03 0.0 
0.0 0.0 -1.256494544188e-03 
-8.370305663977e-04 -1.942067132543e-04 0.0 
-1.942067132543e-04 5.564466733165e-03 0.0 
0.0 0.0 -8.375255977276e-04 
-1.112341827327e-03 1.928139267360e-04 0.0 
1.928139267360e-04 7.404901105712e-03 0.0 
0.0 0.0 -1.112065035246e-03 
-3.806812841048e-04 1.778946636946e-04 0.0 
1.778946636946e-04 2.279220825059e-03 0.0 
0.0 0.0 -3.785953687517e-04 
-5.494616984378e-04 -1.888416104626e-04 0.0 
-1.888416104626e-04 3.555923799118e-03 0.0 
0.0 0.0 -5.483018170244e-04 
-3.235962926905e-04 -1.736014947489e-04 0.0 
-1.736014947489e-04 1.973084689826e-03 0.0 
0.0 0.0 -3.192951451658e-04 
-5.963652417524e-04 -1.773931756756e-04 0.0 
-1.773931756756e-04 3.870665993091e-03 0.0 
0.0 0.0 -5.936226173563e-04 
-7.754418230907e-04 -1.787983897600e-05 0.0 
-1.787983897600e-05 4.998811631156e-03 0.0 
0.0 0.0 -7.914980036671e-04 
-9.191665137011e-04 2.140245341565e-04 0.0 
2.140245341565e-04 6.074527525348e-03 0.0 
0.0 0.0 -9.214502702889e-04 
-1.272306740568e-03 -2.183792906187e-06 0.0 
-2.183792906187e-06 8.701539900471e-03 0.0 
0.0 0.0 -1.265403586923e-03 
-1.115465796476e-03 2.144802209519e-04 0.0 
2.144802209519e-04 7.405352776166e-03 0.0 
0.0 0.0 -1.117224974728e-03 
-8.719756485576e-04 1.796746755415e-04 0.0 
1.796746755415e-04 5.704231125349e-03 0.0 
0.0 0.0 -8.687609488834e-04 
-8.934000445298e-04 1.842629385947e-04 0.0 
1.842629385947e-04 5.848617048582e-03 0.0 
0.0 0.0 -8.891947744737e-04 
-3.538517022684e-04 1.968822651903e-04 0.0 
1.968822651903e-04 2.082939193951e-03 0.0 
0.0 0.0 -3.496852078947e-04 
-1.730179310378e-04 3.799515299484e-05 0.0 
3.799515299484e-05 9.814996314958e-04 0.0 
0.0 0.0 -1.610244214183e-04 
-6.605957920443e-04 2.008091445531e-04 0.0 
2.008091445531e-04 4.241664916870e-03 0.0 
0.0 0.0 -6.594106982652e-04 
-7.382500259091e-04 -1.861061436275e-04 0.0 
-1.861061436275e-04 4.870305797290e-03 0.0 
0.0 0.0 -7.376142925499e-04 
-6.935826622016e-04 -1.974963449897e-04 0.0 
-1.974963449897e-04 4.557561403420e-03 0.0 
0.0 0.0 -6.931905564144e-04 
-1.927200046455e-04 1.907407866213e-04 0.0 
1.907407866213e-04 9.362068114562e-04 0.0 
0.0 0.0 -1.839988823918e-04 
-8.553897316391e-04 7.952460625499e-05 0.0 
7.952460625499e-05 5.374666730048e-03 0.0 
0.0 0.0 -8.462285223656e-04 
-3.012637912477e-04 -1.970081127766e-04 0.0 
-1.970081127766e-04 1.826424334369e-03 0.0 
0.0 0.0 -2.972104253142e-04 
-4.320291499202e-04 1.924639625951e-04 0.0 
1.924639625951e-04 2.652618994648e-03 0.0 
0.0 0.0 -4.314049239902e-04 
-1.341153861134e-03 -1.132581839008e-07 0.0 
-1.132581839008e-07 8.854160665758e-03 0.0 
0.0 0.0 -1.341153861134e-03 
-9.735832254612e-04 -2.032109106710e-04 0.0 
-2.032109106710e-04 6.501326132665e-03 0.0 
0.0 0.0 -9.717687626070e-04 
-8.038658590280e-04 1.841151985619e-04 0.0 
1.841151985619e-04 5.090192522503e-03 0.0 
0.0 0.0 -7.790007367612e-04 
-2.263569738136e-04 1.412068244863e-04 0.0 
1.412068244863e-04 1.378581130634e-03 0.0 
0.0 0.0 -2.176483604987e-04 
-7.148393686400e-04 1.885377903276e-04 0.0 
1.885377903276e-04 4.617805235716e-03 0.0 
0.0 0.0 -7.126719623954e-04 
-6.583475203356e-04 -2.044658051722e-04 0.0 
-2.044658051722e-04 4.303955154821e-03 0.0 
0.0 0.0 -6.569982659716e-04 
-8.980808506785e-04 -1.936520147712e-04 0.0 
-1.936520147712e-04 5.958242186783e-03 0.0 
0.0 0.0 -8.940630110299e-04 
-1.327874025612e-03 4.012442722696e-05 0.0 
4.012442722696e-05 9.098102111315e-03 0.0 
0.0 0.0 -1.323832587333e-03 
-7.403554818969e-04 1.844120078152e-04 0.0 
1.844120078152e-04 4.792048619543e-03 0.0 
0.0 0.0 -7.366500567795e-04 
-8.545868996671e-04 -1.887615407860e-04 0.0 
-1.887615407860e-04 5.662533660862e-03 0.0 
0.0 0.0 -8.513774089097e-04 
-6.818667097911e-04 1.958766515699e-04 0.0 
1.958766515699e-04 4.409131248910e-03 0.0 
0.0 0.0 -6.837695253815e-04 
-1.105187862003e-03 1.994006530663e-04 0.0 
1.994006530663e-04 7.356411437885e-03 0.0 
0.0 0.0 -1.105258581891e-03 
-8.686753316719e-04 1.961023377173e-04 0.0 
1.961023377173e-04 5.708119835605e-03 0.0 
0.0 0.0 -8.691653677727e-04 
-1.313443091824e-03 -8.681857321598e-06 0.0 
-8.681857321598e-06 9.107589922997e-03 0.0 
0.0 0.0 -1.322174839672e-03 
-1.340103718614e-03 2.441833226493e-06 0.0 
2.441833226493e-06 8.842216911178e-03 0.0 
0.0 0.0 -1.340103718614e-03 
-1.341028575724e-03 -6.698781680324e-06 0.0 
-6.698781680324e-06 8.834191149721e-03 0.0 
0.0 0.0 -1.341028575724e-03 
-1.338044909071e-03 -9.989699658944e-07 0.0 
-9.989699658944e-07 8.789076720715e-03 0.0 
0.0 0.0 -1.338044909071e-03 
-9.278953530001e-04 1.830493215192e-04 0.0 
1.830493215192e-04 6.094694774967e-03 0.0 
0.0 0.0 -9.244680137507e-04 
-1.104382085207e-03 -1.844352853963e-04 0.0 
-1.844352853963e-04 7.413030585339e-03 0.0 
0.0 0.0 -1.103002250422e-03 
-1.150866030357e-03 2.083921581833e-04 0.0 
2.083921581833e-04 7.696092280171e-03 0.0 
0.0 0.0 -1.155914796392e-03 
-6.164628833105e-04 2.031183267964e-04 0.0 
2.031183267964e-04 3.927882065764e-03 0.0 
0.0 0.0 -6.147330147620e-04 
-5.911685103850e-04 1.997096464783e-04 0.0 
1.997096464783e-04 3.740736628945e-03 0.0 
0.0 0.0 -5.872917534094e-04 
-6.414807696813e-04 -2.006380451048e-04 0.0 
-2.006380451048e-04 4.218783169969e-03 0.0 
0.0 0.0 -6.436934073013e-04 
-1.134641282245e-03 -2.006695635977e-04 0.0 
-2.006695635977e-04 7.623716292157e-03 0.0 
0.0 0.0 -1.131852245309e-03 
-1.324500994006e-03 -4.966854021232e-06 0.0 
-4.966854021232e-06 9.095768239117e-03 0.0 
0.0 0.0 -1.322440284024e-03 
-1.140227253108e-03 1.951224764733e-04 0.0 
1.951224764733e-04 7.603009729401e-03 0.0 
0.0 0.0 -1.141180801552e-03 
-9.080174246261e-04 -2.037707256769e-04 0.0 
-2.037707256769e-04 6.042971740774e-03 0.0 
0.0 0.0 -9.063345769726e-04 
-1.140612365318e-03 -1.825914620367e-04 0.0 
-1.825914620367e-04 7.661221724928e-03 0.0 
0.0 0.0 -1.138864741757e-03 
-9.895587303989e-04 -1.909996709669e-04 0.0 
-1.909996709669e-04 6.631323534056e-03 0.0 
0.0 0.0 -9.903545940741e-04 
-7.055944550106e-04 1.841650505337e-04 0.0 
1.841650505337e-04 4.559451876543e-03 0.0 
0.0 0.0 -7.049739924763e-04 
-6.005001548623e-04 1.754924819423e-04 0.0 
1.754924819423e-04 3.808564972462e-03 0.0 
0.0 0.0 -5.967387615352e-04 
-3.335508235583e-04 1.892926381390e-04 0.0 
1.892926381390e-04 1.961394351476e-03 0.0 
0.0 0.0 -3.333553686509e-04 
-1.287482303742e-03 9.400486473721e-05 0.0 
9.400486473721e-05 8.494651886701e-03 0.0 
0.0 0.0 -1.282213402295e-03 
-5.782088747012e-04 1.983174571352e-04 0.0 
1.983174571352e-04 3.685190236892e-03 0.0 
0.0 0.0 -5.792479259103e-04 
-1.207490032650e-03 -9.511693616601e-06 0.0 
-9.511693616601e-06 8.106813054446e-03 0.0 
0.0 0.0 -1.230767059693e-03 
-6.442432414831e-04 1.944206160730e-04 0.0 
1.944206160730e-04 4.149320661563e-03 0.0 
0.0 0.0 -6.465396845166e-04 
-4.198574354174e-04 -1.824962637456e-04 0.0 
-1.824962637456e-04 2.680260699037e-03 0.0 
0.0 0.0 -4.222915044375e-04 
-1.273602229187e-03 4.336342551855e-05 0.0 
4.336342551855e-05 8.460076842639e-03 0.0 
0.0 0.0 -1.284312900220e-03 
-4.687866799152e-04 1.866875104872e-04 0.0 
1.866875104872e-04 2.893520146276e-03 0.0 
0.0 0.0 -4.669824892858e-04 
-1.341987455608e-03 1.886578995433e-06 0.0 
1.886578995433e-06 8.838362897947e-03 0.0 
0.0 0.0 -1.341987455608e-03 
-1.296411374061e-03 -1.418949515449e-05 0.0 
-1.418949515449e-05 8.470243795444e-03 0.0 
0.0 0.0 -1.282654109251e-03 
-8.495078228820e-04 1.843107655011e-04 0.0 
1.843107655011e-04 5.547072023185e-03 0.0 
0.0 0.0 -8.462542048450e-04 
-9.255048927816e-05 -2.197953205394e-06 0.0 
-2.197953205394e-06 3.085086574748e-04 0.0 
0.0 0.0 -9.255350065570e-05 
-1.340954708391e-03 7.835804962273e-06 0.0 
7.835804962273e-06 8.838032502772e-03 0.0 
0.0 0.0 -1.340954708391e-03 
-1.280816053348e-03 -2.230055523915e-05 0.0 
-2.230055523915e-05 8.460310632468e-03 0.0 
0.0 0.0 -1.284661450484e-03 
-4.260944399251e-04 1.999732540104e-04 0.0 
1.999732540104e-04 2.608418284960e-03 0.0 
0.0 0.0 -4.253660281670e-04 
-9.365021749047e-04 -1.977008719716e-04 0.0 
-1.977008719716e-04 6.250684752616e-03 0.0 
0.0 0.0 -9.353130867196e-04 
-1.333005063589e-03 4.344781137131e-06 0.0 
4.344781137131e-06 9.114671664273e-03 0.0 
0.0 0.0 -1.323014926434e-03 
0.0 0.0 0.0 
0.0 0.0 0.0 
0.0 0.0 0.0 
-6.428281947913e-04 1.843362204219e-04 0.0 
1.843362204219e-04 4.123262309836e-03 0.0 
0.0 0.0 -6.425506931502e-04 
-8.851411761515e-04 1.851869312967e-04 0.0 
1.851869312967e-04 5.794563189636e-03 0.0 
0.0 0.0 -8.816033652580e-04 
-8.134395165507e-04 1.874953040299e-04 0.0 
1.874953040299e-04 5.300126487808e-03 0.0 
0.0 0.0 -8.109139232486e-04 
-8.225202755535e-04 1.881518984197e-04 0.0 
1.881518984197e-04 5.356080317152e-03 0.0 
0.0 0.0 -8.186613860469e-04 
-3.691769062860e-04 1.916815065321e-04 0.0 
1.916815065321e-04 2.210779207524e-03 0.0 
0.0 0.0 -3.689119447714e-04 
-1.341360672448e-03 -1.189443720157e-06 0.0 
-1.189443720157e-06 8.827889647213e-03 0.0 
0.0 0.0 -1.341360672448e-03 
-6.134329689946e-04 -1.902359328296e-04 0.0 
-1.902359328296e-04 4.002222739952e-03 0.0 
0.0 0.0 -6.123778370825e-04 
-2.202070906779e-04 -1.755376406008e-04 0.0 
-1.755376406008e-04 1.255756531969e-03 0.0 
0.0 0.0 -2.173296945085e-04 
-1.279142293538e-03 5.964349300567e-05 0.0 
5.964349300567e-05 8.727032320364e-03 0.0 
0.0 0.0 -1.272354826527e-03 
-1.022272037248e-04 4.922820238480e-06 0.0 
4.922820238480e-06 5.965869288915e-04 0.0 
0.0 0.0 -1.019437782286e-04 
-6.710661406479e-04 1.855097177597e-04 0.0 
1.855097177597e-04 4.303579593448e-03 0.0 
0.0 0.0 -6.678899790657e-04 
-2.300720776572e-04 1.212201240606e-05 0.0 
1.212201240606e-05 1.125450156733e-03 0.0 
0.0 0.0 -2.365401520142e-04 
-7.086437154644e-04 1.853452857980e-04 0.0 
1.853452857980e-04 4.588815352963e-03 0.0 
0.0 0.0 -7.094882865497e-04 
-1.317968381893e-03 -7.788542654235e-06 0.0 
-7.788542654235e-06 9.086616382280e-03 0.0 
0.0 0.0 -1.321823097425e-03 
-1.341255375116e-03 6.592408687492e-06 0.0 
6.592408687492e-06 8.854311445215e-03 0.0 
0.0 0.0 -1.341255375116e-03 
-8.673920198820e-04 1.847071888206e-04 0.0 
1.847071888206e-04 5.656037287956e-03 0.0 
0.0 0.0 -8.613793510407e-04 
-1.969643249741e-04 -2.643595705587e-05 0.0 
-2.643595705587e-05 7.486662135304e-04 0.0 
0.0 0.0 -1.793976806842e-04 
-1.826266447966e-04 1.955672024509e-04 0.0 
1.955672024509e-04 9.200601904339e-04 0.0 
0.0 0.0 -1.838036673156e-04 
-2.361898229358e-04 4.404631865774e-05 0.0 
4.404631865774e-05 1.375633081646e-03 0.0 
0.0 0.0 -2.179364692381e-04 
-1.125162068454e-03 -1.979567048055e-04 0.0 
-1.979567048055e-04 7.560228932207e-03 0.0 
0.0 0.0 -1.121833217354e-03 
-7.703836607526e-04 2.904011669621e-05 0.0 
2.904011669621e-05 5.271332940567e-03 0.0 
0.0 0.0 -7.704300227928e-04 
-8.168157235620e-04 -2.113983721696e-04 0.0 
-2.113983721696e-04 5.355765378531e-03 0.0 
0.0 0.0 -8.109332722942e-04 
-1.342502730507e-03 5.716067361741e-06 0.0 
5.716067361741e-06 8.856705817959e-03 0.0 
0.0 0.0 -1.342502730507e-03 
-7.906151483404e-04 -4.272528123306e-05 0.0 
-4.272528123306e-05 5.268742702063e-03 0.0 
0.0 0.0 -7.720444664677e-04 
-1.332977220355e-03 1.682402604841e-05 0.0 
1.682402604841e-05 9.104707937730e-03 0.0 
0.0 0.0 -1.322852565091e-03 
-1.019613459442e-03 1.919320256201e-04 0.0 
1.919320256201e-04 6.758525883042e-03 0.0 
0.0 0.0 -1.020998643257e-03 
-8.942284646778e-04 2.014665993212e-04 0.0 
2.014665993212e-04 5.869620442183e-03 0.0 
0.0 0.0 -8.907448815977e-04 
-4.710891496910e-04 1.816013443134e-04 0.0 
1.816013443134e-04 2.782078830397e-03 0.0 
0.0 0.0 -4.477608806526e-04 
-9.397641453592e-04 1.905534962229e-04 0.0 
1.905534962229e-04 6.187842394577e-03 0.0 
0.0 0.0 -9.378661514434e-04 
-2.865699781096e-04 -1.698301048615e-04 0.0 
-1.698301048615e-04 1.797113955835e-03 0.0 
0.0 0.0 -2.938158648993e-04 
-1.340754991027e-03 -4.752011562200e-06 0.0 
-4.752011562200e-06 8.857728678543e-03 0.0 
0.0 0.0 -1.340754991027e-03 
-1.339984467612e-03 2.292869316744e-05 0.0 
2.292869316744e-05 8.807369741469e-03 0.0 
0.0 0.0 -1.339984467612e-03 
-1.340417744004e-03 -2.214851180424e-05 0.0 
-2.214851180424e-05 8.828867002772e-03 0.0 
0.0 0.0 -1.340417744004e-03 
-8.660623943402e-04 -1.943286950290e-04 0.0 
-1.943286950290e-04 5.772294168294e-03 0.0 
0.0 0.0 -8.666500598261e-04 
-6.034856013850e-04 -2.033011263198e-04 0.0 
-2.033011263198e-04 3.957936150372e-03 0.0 
0.0 0.0 -6.062238016986e-04 
-7.026976706329e-04 -1.815126947841e-04 0.0 
-1.815126947841e-04 4.627441659305e-03 0.0 
0.0 0.0 -7.021192356133e-04 
-8.976477462119e-04 1.951708788181e-04 0.0 
1.951708788181e-04 5.904473226514e-03 0.0 
0.0 0.0 -8.981573260837e-04 
-1.339627896631e-03 3.612108462023e-06 0.0 
3.612108462023e-06 8.853033835610e-03 0.0 
0.0 0.0 -1.339627896631e-03 
-4.295950600907e-04 -1.875952713055e-04 0.0 
-1.875952713055e-04 2.717501457664e-03 0.0 
0.0 0.0 -4.287941800800e-04 
-4.990450639494e-04 1.934485922333e-04 0.0 
1.934485922333e-04 3.125390132284e-03 0.0 
0.0 0.0 -4.991860405784e-04 
-5.285799076226e-04 1.852384275300e-04 0.0 
1.852384275300e-04 3.322934541718e-03 0.0 
0.0 0.0 -5.272458293186e-04 
-9.298142287186e-04 1.923659803105e-04 0.0 
1.923659803105e-04 6.128652270364e-03 0.0 
0.0 0.0 -9.279583942085e-04 
-1.339074735525e-03 -2.462351465068e-05 0.0 
-2.462351465068e-05 9.096799452257e-03 0.0 
0.0 0.0 -1.323537156312e-03 
-1.500618556416e-04 1.939391886343e-05 0.0 
1.939391886343e-05 9.791726158994e-04 0.0 
0.0 0.0 -1.598254822437e-04 
-1.340775759057e-03 1.534669228242e-06 0.0 
1.534669228242e-06 8.827931576809e-03 0.0 
0.0 0.0 -1.340775759057e-03 
-4.918224965486e-04 1.956179793808e-04 0.0 
1.956179793808e-04 3.063033243647e-03 0.0 
0.0 0.0 -4.905422085546e-04 
-1.342877878941e-03 2.842270727739e-06 0.0 
2.842270727739e-06 8.853936486152e-03 0.0 
0.0 0.0 -1.342877878941e-03 
-1.156184618631e-03 -1.885719150537e-04 0.0 
-1.885719150537e-04 7.774113329411e-03 0.0 
0.0 0.0 -1.152765850879e-03 
-4.494164570379e-05 1.000468586638e-06 0.0 
1.000468586638e-06 2.551504228595e-04 0.0 
0.0 0.0 -4.576175375704e-05 
-6.699730055747e-04 1.872361539571e-04 0.0 
1.872361539571e-04 4.302808495342e-03 0.0 
0.0 0.0 -6.690559060524e-04 
-1.145839910847e-03 -1.986902778567e-04 0.0 
-1.986902778567e-04 7.714207575352e-03 0.0 
0.0 0.0 -1.146019594970e-03 
-1.341220131281e-03 -2.365934969506e-06 0.0 
-2.365934969506e-06 8.847703773833e-03 0.0 
0.0 0.0 -1.341220131281e-03 
-9.256050002818e-04 -1.923147081747e-04 0.0 
-1.923147081747e-04 6.153846390776e-03 0.0 
0.0 0.0 -9.220067723808e-04 
-1.050351148173e-03 1.970429468761e-04 0.0 
1.970429468761e-04 6.958336458839e-03 0.0 
0.0 0.0 -1.049000704964e-03 
-2.748725954193e-04 1.931705696150e-04 0.0 
1.931705696150e-04 1.524979906539e-03 0.0 
0.0 0.0 -2.717413095444e-04 
-1.208683908170e-03 6.230383996374e-06 0.0 
6.230383996374e-06 8.102506712124e-03 0.0 
0.0 0.0 -1.228682347183e-03 
-5.192327213783e-04 1.909614988804e-04 0.0 
1.909614988804e-04 3.260562468968e-03 0.0 
0.0 0.0 -5.184025592846e-04 
-5.248109421634e-04 -1.803408309234e-04 0.0 
-1.803408309234e-04 3.388681347671e-03 0.0 
0.0 0.0 -5.242929400402e-04 
-1.101238409147e-04 1.624386361106e-05 0.0 
1.624386361106e-05 6.254833965552e-04 0.0 
0.0 0.0 -1.042847928631e-04 
-1.341079611575e-03 1.268157797412e-06 0.0 
1.268157797412e-06 8.837798036775e-03 0.0 
0.0 0.0 -1.341079611575e-03 
-3.602734137550e-04 -1.850324683020e-04 0.0 
-1.850324683020e-04 2.230825920775e-03 0.0 
0.0 0.0 -3.564518745397e-04 
-1.109985979917e-03 -2.052345426402e-04 0.0 
-2.052345426402e-04 7.476883123942e-03 0.0 
0.0 0.0 -1.110501492391e-03 
-8.524872272040e-04 -2.315298743520e-04 0.0 
-2.315298743520e-04 5.680178330686e-03 0.0 
0.0 0.0 -8.555322119248e-04 
-4.402194268268e-04 -1.870881911232e-04 0.0 
-1.870881911232e-04 2.811358430466e-03 0.0 
0.0 0.0 -4.411586999297e-04 
-4.975783628974e-04 -1.914562144177e-04 0.0 
-1.914562144177e-04 3.191209784275e-03 0.0 
0.0 0.0 -4.964677435772e-04 
-8.901378245668e-04 -1.873561009025e-04 0.0 
-1.873561009025e-04 5.908561179355e-03 0.0 
0.0 0.0 -8.867075537039e-04 
-1.342259935407e-03 -1.718040054209e-05 0.0 
-1.718040054209e-05 8.855152000548e-03 0.0 
0.0 0.0 -1.342259935407e-03 
-6.396775884645e-04 1.886079041491e-04 0.0 
1.886079041491e-04 4.098241029371e-03 0.0 
0.0 0.0 -6.378868265889e-04 
-9.691742763952e-04 -2.019742400055e-04 0.0 
-2.019742400055e-04 6.483311990656e-03 0.0 
0.0 0.0 -9.693340058278e-04 
-8.041747505048e-04 1.863000233206e-04 0.0 
1.863000233206e-04 5.244246416890e-03 0.0 
0.0 0.0 -8.030799362305e-04 
-8.818155169255e-04 -1.886653253937e-04 0.0 
-1.886653253937e-04 5.877887840043e-03 0.0 
0.0 0.0 -8.811160271665e-04 
-5.320000478192e-04 -1.863752187475e-04 0.0 
-1.863752187475e-04 3.439757636019e-03 0.0 
0.0 0.0 -5.326451291888e-04 
-9.026994633866e-04 -1.977891108899e-04 0.0 
-1.977891108899e-04 6.021154653626e-03 0.0 
0.0 0.0 -9.031726653527e-04 
-7.735880944808e-04 -1.868485495488e-04 0.0 
-1.868485495488e-04 5.115539884918e-03 0.0 
0.0 0.0 -7.729461360948e-04 
-9.981479559481e-04 -1.963805187541e-04 0.0 
-1.963805187541e-04 6.683666354433e-03 0.0 
0.0 0.0 -9.982497011217e-04 
-1.004413229733e-03 1.912127845263e-04 0.0 
1.912127845263e-04 6.639387752267e-03 0.0 
0.0 0.0 -1.003134534203e-03 
-7.686187780918e-04 1.863311149204e-04 0.0 
1.863311149204e-04 4.996748422870e-03 0.0 
0.0 0.0 -7.676694601592e-04 
-6.531466934911e-04 1.957558291538e-04 0.0 
1.957558291538e-04 4.207071568820e-03 0.0 
0.0 0.0 -6.551190094499e-04 
-4.645380568116e-04 -1.828907984748e-04 0.0 
-1.828907984748e-04 2.961721166152e-03 0.0 
0.0 0.0 -4.640097282922e-04 
-6.064572421459e-04 1.910285411047e-04 0.0 
1.910285411047e-04 3.887705448155e-03 0.0 
0.0 0.0 -6.091269606258e-04 
-1.019361563877e-03 -1.903039724258e-04 0.0 
-1.903039724258e-04 6.831244999586e-03 0.0 
0.0 0.0 -1.018204129641e-03 
-8.373723247003e-04 1.874174193606e-04 0.0 
1.874174193606e-04 5.476720692713e-03 0.0 
0.0 0.0 -8.365169925761e-04 
-1.320520432489e-03 -2.623800515076e-05 0.0 
-2.623800515076e-05 9.107403832922e-03 0.0 
0.0 0.0 -1.321929620191e-03 
-1.169515206127e-03 -1.894067828278e-04 0.0 
-1.894067828278e-04 7.912550107300e-03 0.0 
0.0 0.0 -1.174325249119e-03 
-4.054788487746e-04 1.902250889252e-04 0.0 
1.902250889252e-04 2.477005508034e-03 0.0 
0.0 0.0 -4.069995479128e-04 
-1.341047338368e-03 6.114097105095e-06 0.0 
6.114097105095e-06 8.810414551587e-03 0.0 
0.0 0.0 -1.341047338368e-03 
-1.246442799579e-03 -7.048165356567e-06 0.0 
-7.048165356567e-06 8.701531217890e-03 0.0 
0.0 0.0 -1.266414110344e-03 
-7.243231333997e-04 1.855217411942e-04 0.0 
1.855217411942e-04 4.688371918965e-03 0.0 
0.0 0.0 -7.237787631415e-04 
-9.766466055395e-05 -9.527665079749e-06 0.0 
-9.527665079749e-06 3.256739367155e-04 0.0 
0.0 0.0 -9.771826121210e-05 
-1.305508824941e-03 3.853404293042e-06 0.0 
3.853404293042e-06 9.105182867572e-03 0.0 
0.0 0.0 -1.323469717371e-03 
-1.171509388478e-03 -1.678154851062e-04 0.0 
-1.678154851062e-04 7.861802012676e-03 0.0 
0.0 0.0 -1.167157861819e-03 
-4.521694521811e-04 2.012915858521e-04 0.0 
2.012915858521e-04 2.804008720375e-03 0.0 
0.0 0.0 -4.535238702637e-04 
-1.341709311524e-03 -1.310979986681e-05 0.0 
-1.310979986681e-05 8.829628018658e-03 0.0 
0.0 0.0 -1.341709311524e-03 
-9.320413057689e-04 -1.962162649741e-04 0.0 
-1.962162649741e-04 6.231458751848e-03 0.0 
0.0 0.0 -9.325599965574e-04 
-6.268046795761e-04 1.808345467381e-04 0.0 
1.808345467381e-04 3.989844982223e-03 0.0 
0.0 0.0 -6.229492605273e-04 
-8.398341044078e-04 1.726875732327e-04 0.0 
1.726875732327e-04 5.514357495571e-03 0.0 
0.0 0.0 -8.408860858065e-04 
-8.060358487985e-04 -1.972435935582e-04 0.0 
-1.972435935582e-04 5.343400692596e-03 0.0 
0.0 0.0 -8.054665293395e-04 
-8.004419744920e-04 -1.952463938328e-04 0.0 
-1.952463938328e-04 5.314426112526e-03 0.0 
0.0 0.0 -8.008683130455e-04 
-9.182717976000e-04 -1.896493216882e-04 0.0 
-1.896493216882e-04 6.134019344384e-03 0.0 
0.0 0.0 -9.181754741429e-04 
-9.700343521080e-04 -1.978951788456e-04 0.0 
-1.978951788456e-04 6.510189924062e-03 0.0 
0.0 0.0 -9.721028620036e-04 
-6.977402691426e-04 1.822093202730e-04 0.0 
1.822093202730e-04 4.487185732323e-03 0.0 
0.0 0.0 -6.945885048819e-04 
-1.040005538332e-03 1.990021927622e-04 0.0 
1.990021927622e-04 6.900874594821e-03 0.0 
0.0 0.0 -1.039409037654e-03 
-8.975501320031e-04 -2.506583898403e-05 0.0 
-2.506583898403e-05 6.020256954512e-03 0.0 
0.0 0.0 -8.839498032872e-04 
-6.495260709226e-04 -1.944699442281e-04 0.0 
-1.944699442281e-04 4.277277504375e-03 0.0 
0.0 0.0 -6.521967345917e-04 
-9.682052284533e-04 1.865606736300e-04 0.0 
1.865606736300e-04 6.381518702333e-03 0.0 
0.0 0.0 -9.664699797409e-04 
-5.143750252184e-04 -1.778295084177e-04 0.0 
-1.778295084177e-04 3.324024151635e-03 0.0 
0.0 0.0 -5.155438399970e-04 
-9.088890292892e-04 1.918794185101e-04 0.0 
1.918794185101e-04 5.978978740211e-03 0.0 
0.0 0.0 -9.093720595694e-04 
-5.184917320349e-05 -5.023579163687e-06 0.0 
-5.023579163687e-06 2.615427770040e-04 0.0 
0.0 0.0 -4.585464485956e-05 
-5.019069719293e-04 -1.730390890633e-04 0.0 
-1.730390890633e-04 3.221983585288e-03 0.0 
0.0 0.0 -4.997308803768e-04 
-4.873333685601e-04 -1.811613926647e-04 0.0 
-1.811613926647e-04 3.131270652529e-03 0.0 
0.0 0.0 -4.875765080988e-04 
-7.115036268068e-04 1.928847685253e-04 0.0 
1.928847685253e-04 4.611615726792e-03 0.0 
0.0 0.0 -7.126562430122e-04 
-7.596608402965e-04 1.884583179830e-04 0.0 
1.884583179830e-04 4.937228765552e-03 0.0 
0.0 0.0 -7.595228636782e-04 
-9.346957466835e-04 1.973754267299e-04 0.0 
1.973754267299e-04 6.167461615292e-03 0.0 
0.0 0.0 -9.350600278798e-04 
-8.902631525084e-04 -1.867681813361e-04 0.0 
-1.867681813361e-04 5.973122971149e-03 0.0 
0.0 0.0 -8.962969588583e-04 
-4.491438895741e-04 -1.869760147925e-04 0.0 
-1.869760147925e-04 2.875737731611e-03 0.0 
0.0 0.0 -4.505554202764e-04 
-1.341827844788e-03 5.881319465549e-06 0.0 
5.881319465549e-06 8.853598786661e-03 0.0 
0.0 0.0 -1.341827844788e-03 
-8.819043585380e-04 -1.894669265129e-04 0.0 
-1.894669265129e-04 5.856756576790e-03 0.0 
0.0 0.0 -8.789935771182e-04 
-7.395748600622e-04 1.939731217691e-04 0.0 
1.939731217691e-04 4.808423671935e-03 0.0 
0.0 0.0 -7.413896480605e-04 
-8.456344442179e-04 -1.866159444843e-04 0.0 
-1.866159444843e-04 5.609212261315e-03 0.0 
0.0 0.0 -8.436662038215e-04 
-7.098621749807e-04 -1.956105885315e-04 0.0 
-1.956105885315e-04 4.679646247114e-03 0.0 
0.0 0.0 -7.098625721847e-04 
0.0 0.0 0.0 
0.0 0.0 0.0 
0.0 0.0 0.0 
-8.787853985480e-04 -1.870345829221e-04 0.0 
-1.870345829221e-04 5.815290073788e-03 0.0 
0.0 0.0 -8.733545218784e-04 
-6.014622352257e-04 2.088026922776e-04 0.0 
2.088026922776e-04 3.826503758406e-03 0.0 
0.0 0.0 -5.956302995864e-04 
0.0 0.0 0.0 
0.0 0.0 0.0 
0.0 0.0 0.0 
-7.014361857610e-04 2.031970023559e-04 0.0 
2.031970023559e-04 4.544280328863e-03 0.0 
0.0 0.0 -7.041275119738e-04 
-1.001578329479e-03 1.949348082253e-04 0.0 
1.949348082253e-04 6.625301000394e-03 0.0 
0.0 0.0 -1.001254648526e-03 
-1.145850176714e-03 1.952473198253e-04 0.0 
1.952473198253e-04 7.640587141445e-03 0.0 
0.0 0.0 -1.146946825052e-03 
-8.534899184109e-04 -1.900750659177e-04 0.0 
-1.900750659177e-04 5.682294137051e-03 0.0 
0.0 0.0 -8.532270185794e-04 
-8.843005196868e-04 1.891738523445e-04 0.0 
1.891738523445e-04 5.802847869315e-03 0.0 
0.0 0.0 -8.841559964380e-04 
-7.498668879057e-04 -1.500423199849e-04 0.0 
-1.500423199849e-04 4.956000169468e-03 0.0 
0.0 0.0 -7.495231765994e-04 
-7.499562203702e-04 -7.649065135971e-06 0.0 
-7.649065135971e-06 4.585920683461e-03 0.0 
0.0 0.0 -7.312625299844e-04 
-1.259814766287e-03 -2.251942805194e-05 0.0 
-2.251942805194e-05 8.482919934012e-03 0.0 
0.0 0.0 -1.286111585339e-03 
-8.096577215198e-04 -1.889624871779e-04 0.0 
-1.889624871779e-04 5.361431513159e-03 0.0 
0.0 0.0 -8.082854548548e-04 
-2.601123029567e-05 -8.443429959340e-06 0.0 
-8.443429959340e-06 2.242861713756e-04 0.0 
0.0 0.0 -4.535587742227e-05 
-2.679801948708e-04 -1.979252069442e-04 0.0 
-1.979252069442e-04 1.544873028567e-03 0.0 
0.0 0.0 -2.569639750501e-04 
-9.553383276929e-05 -1.682092997355e-05 0.0 
-1.682092997355e-05 3.188442541892e-04 0.0 
0.0 0.0 -9.570446632282e-05 
-4.265759374031e-04 -1.588061750624e-04 0.0 
-1.588061750624e-04 2.743578014402e-03 0.0 
0.0 0.0 -4.284133232656e-04 
-1.136810990824e-03 -2.050532392671e-04 0.0 
-2.050532392671e-04 7.627868260152e-03 0.0 
0.0 0.0 -1.134523071099e-03 
-1.147232605264e-03 -1.988471843747e-04 0.0 
-1.988471843747e-04 7.696346442353e-03 0.0 
0.0 0.0 -1.144649651339e-03 
-1.090721102207e-03 1.927119379258e-04 0.0 
1.927119379258e-04 7.225314130525e-03 0.0 
0.0 0.0 -1.087427768671e-03 
-4.794185500659e-04 -1.949320750669e-04 0.0 
-1.949320750669e-04 3.096205477872e-03 0.0 
0.0 0.0 -4.827803379924e-04 
-9.064466102036e-04 -1.951694302264e-04 0.0 
-1.951694302264e-04 6.052913189119e-03 0.0 
0.0 0.0 -9.063168105749e-04 
-1.135504702689e-03 1.907792817820e-04 0.0 
1.907792817820e-04 7.600364314815e-03 0.0 
0.0 0.0 -1.142106164841e-03 
-2.788698608245e-04 -1.715069773271e-04 0.0 
-1.715069773271e-04 1.706769297964e-03 0.0 
0.0 0.0 -2.821198837983e-04 
-5.962549057611e-04 -2.242943986441e-04 0.0 
-2.242943986441e-04 3.850260609285e-03 0.0 
0.0 0.0 -5.942115541274e-04 
-4.821057558984e-04 1.938812463927e-04 0.0 
1.938812463927e-04 3.093517382699e-03 0.0 
0.0 0.0 -4.980019828625e-04 
-1.334956243324e-03 1.593537991863e-05 0.0 
1.593537991863e-05 9.100113722888e-03 0.0 
0.0 0.0 -1.322396863610e-03 
-1.341641872583e-03 -1.598087186618e-05 0.0 
-1.598087186618e-05 8.845353034364e-03 0.0 
0.0 0.0 -1.341641872583e-03 
-6.679494605951e-04 -1.695756001761e-04 0.0 
-1.695756001761e-04 4.277020538631e-03 0.0 
0.0 0.0 -6.580288049735e-04 
-7.324961324261e-04 -1.951613493016e-04 0.0 
-1.951613493016e-04 4.877737690436e-03 0.0 
0.0 0.0 -7.385580096348e-04 
-8.320090833607e-04 1.945702263430e-04 0.0 
1.945702263430e-04 5.445258436908e-03 0.0 
0.0 0.0 -8.323457052078e-04 
-1.163041303964e-03 1.778772476614e-04 0.0 
1.778772476614e-04 7.881722024609e-03 0.0 
0.0 0.0 -1.177278300149e-03 
-2.899237030429e-04 1.996200503921e-04 0.0 
1.996200503921e-04 1.630038568431e-03 0.0 
0.0 0.0 -2.880367495917e-04 
-1.101530990218e-03 1.937554819911e-04 0.0 
1.937554819911e-04 7.342981690998e-03 0.0 
0.0 0.0 -1.104707344597e-03 
-1.602377275385e-04 3.299975488627e-05 0.0 
3.299975488627e-05 1.021185104458e-03 0.0 
0.0 0.0 -1.612556504808e-04 
-6.771993620365e-04 -1.961964403489e-04 0.0 
-1.961964403489e-04 4.422374575330e-03 0.0 
0.0 0.0 -6.724657308136e-04 
-7.463531003114e-04 -1.974750822578e-04 0.0 
-1.974750822578e-04 4.938620865557e-03 0.0 
0.0 0.0 -7.470513223636e-04 
-9.733051936618e-05 1.431354683527e-05 0.0 
1.431354683527e-05 3.247181541799e-04 0.0 
0.0 0.0 -9.745184349161e-05 
-6.107893375519e-04 1.961955655377e-04 0.0 
1.961955655377e-04 4.041501780347e-03 0.0 
0.0 0.0 -6.267591816330e-04 
-1.179150888516e-03 1.722766776771e-04 0.0 
1.722766776771e-04 7.845621701176e-03 0.0 
0.0 0.0 -1.176862138969e-03 
-5.380435756070e-05 -4.751466869097e-06 0.0 
-4.751466869097e-06 2.532858114077e-04 0.0 
0.0 0.0 -4.590328595372e-05 
-7.312532489837e-04 1.362386611746e-05 0.0 
1.362386611746e-05 4.573834094121e-03 0.0 
0.0 0.0 -7.322753781719e-04 
-7.047922472484e-04 1.123922026654e-06 0.0 
1.123922026654e-06 4.847576831705e-03 0.0 
0.0 0.0 -7.130472889423e-04 
-9.547380700052e-04 -1.945366017599e-04 0.0 
-1.945366017599e-04 6.390005998802e-03 0.0 
0.0 0.0 -9.552000144736e-04 
-4.877659469443e-04 -1.909239420502e-04 0.0 
-1.909239420502e-04 3.137535928941e-03 0.0 
0.0 0.0 -4.943513106837e-04 
-4.803168808599e-04 1.981666947026e-04 0.0 
1.981666947026e-04 2.999843219209e-03 0.0 
0.0 0.0 -4.817493388239e-04 
-3.413576717745e-04 -1.696251700452e-04 0.0 
-1.696251700452e-04 2.103971295735e-03 0.0 
0.0 0.0 -3.398054741319e-04 
-1.177842708252e-03 1.745516882077e-04 0.0 
1.745516882077e-04 7.866046843566e-03 0.0 
0.0 0.0 -1.180895453064e-03 
-1.288113258455e-03 -7.910099866472e-06 0.0 
-7.910099866472e-06 8.468043511099e-03 0.0 
0.0 0.0 -1.286194385238e-03 
-1.101033919243e-03 -1.960948394901e-04 0.0 
-1.960948394901e-04 7.394725323298e-03 0.0 
0.0 0.0 -1.101088927253e-03 
-4.503494869687e-04 -1.637033152419e-04 0.0 
-1.637033152419e-04 2.832512250195e-03 0.0 
0.0 0.0 -4.457015571677e-04 
-2.141424004699e-04 2.387020000873e-04 0.0 
2.387020000873e-04 9.652683007765e-04 0.0 
0.0 0.0 -1.905831712289e-04 
-7.028954825783e-04 -1.797251013725e-04 0.0 
-1.797251013725e-04 4.605141056062e-03 0.0 
0.0 0.0 -6.999131133628e-04 
-7.213924053115e-04 -5.563189413669e-07 0.0 
-5.563189413669e-07 4.593100885078e-03 0.0 
0.0 0.0 -7.345111139194e-04 
-7.221802994753e-04 -3.459116523951e-05 0.0 
-3.459116523951e-05 4.860709319501e-03 0.0 
0.0 0.0 -7.144802219086e-04 
0.0 0.0 0.0 
0.0 0.0 0.0 
0.0 0.0 0.0 
-9.462674636508e-05 9.391315588449e-06 0.0 
9.391315588449e-06 3.155479012844e-04 0.0 
0.0 0.0 -9.468049496542e-05 
-1.889846684321e-04 -5.120829147043e-05 0.0 
-5.120829147043e-05 7.312686420689e-04 0.0 
0.0 0.0 -1.795416262981e-04 
-3.813293178289e-04 1.993773121020e-04 0.0 
1.993773121020e-04 2.301443442694e-03 0.0 
0.0 0.0 -3.820941496288e-04 
-1.147287239146e-04 2.233479330516e-06 0.0 
2.233479330516e-06 6.267336868547e-04 0.0 
0.0 0.0 -1.035694276016e-04 
-7.177698882456e-04 1.875976177193e-04 0.0 
1.875976177193e-04 4.537921580666e-03 0.0 
0.0 0.0 -6.918148876825e-04 
0.0 0.0 0.0 
0.0 0.0 0.0 
0.0 0.0 0.0 
-4.466789787722e-04 2.025807610902e-04 0.0 
2.025807610902e-04 2.763058809203e-03 0.0 
0.0 0.0 -4.482372226011e-04 
-9.484602570363e-04 5.937741420738e-05 0.0 
5.937741420738e-05 6.186307546056e-03 0.0 
0.0 0.0 -9.582560723523e-04 
-7.114040901391e-04 1.008097673958e-05 0.0 
1.008097673958e-05 4.858827396879e-03 0.0 
0.0 0.0 -7.120344407548e-04 
-1.154819602250e-03 -2.018660896654e-04 0.0 
-2.018660896654e-04 7.854075905782e-03 0.0 
0.0 0.0 -1.169483110168e-03 
-9.636351090388e-04 1.953512484906e-04 0.0 
1.953512484906e-04 6.363047776900e-03 0.0 
0.0 0.0 -9.641449249716e-04 
-9.024629704430e-04 7.830558015855e-05 0.0 
7.830558015855e-05 5.773999043953e-03 0.0 
0.0 0.0 -8.988447104697e-04 
-5.248669465082e-04 2.030027087803e-04 0.0 
2.030027087803e-04 3.352814556998e-03 0.0 
0.0 0.0 -5.269378630653e-04 
-1.557908844091e-04 -1.426598337885e-05 0.0 
-1.426598337885e-05 1.017280518651e-03 0.0 
0.0 0.0 -1.602995255322e-04 
-1.340974968048e-03 -2.076763454684e-05 0.0 
-2.076763454684e-05 8.825339797415e-03 0.0 
0.0 0.0 -1.340974968048e-03 
-1.331740677566e-03 -1.067318438994e-06 0.0 
-1.067318438994e-06 9.107204473734e-03 0.0 
0.0 0.0 -1.320295381545e-03 
-8.482992821085e-04 2.310186269769e-04 0.0 
2.310186269769e-04 5.616583664962e-03 0.0 
0.0 0.0 -8.588387843224e-04 
-7.462574470129e-04 -7.506809615133e-06 0.0 
-7.506809615133e-06 4.590636784032e-03 0.0 
0.0 0.0 -7.326073368542e-04 
-5.251543525855e-04 -1.205978746021e-04 0.0 
-1.205978746021e-04 3.428806267579e-03 0.0 
0.0 0.0 -5.314511797787e-04 
-1.323491096028e-03 -2.283744003806e-05 0.0 
-2.283744003806e-05 9.085754239402e-03 0.0 
0.0 0.0 -1.322576402756e-03 
-4.157468964118e-04 -1.918553564633e-04 0.0 
-1.918553564633e-04 2.636700862140e-03 0.0 
0.0 0.0 -4.166600706249e-04 
-7.057672473389e-04 -4.164103403377e-06 0.0 
-4.164103403377e-06 4.837446989167e-03 0.0 
0.0 0.0 -7.125614225629e-04 
-7.131316839303e-04 7.226971892511e-06 0.0 
7.226971892511e-06 4.584933787265e-03 0.0 
0.0 0.0 -7.312775522649e-04 
-6.769264019625e-04 1.800240141216e-04 0.0 
1.800240141216e-04 4.359211225871e-03 0.0 
0.0 0.0 -6.755779900756e-04 
-1.341823989366e-03 -1.865391509118e-05 0.0 
-1.865391509118e-05 8.857424336763e-03 0.0 
0.0 0.0 -1.341823989366e-03 
-1.293765856573e-03 1.607380559237e-05 0.0 
1.607380559237e-05 9.094492997413e-03 0.0 
0.0 0.0 -1.322582685247e-03 
-1.126722208426e-04 6.998488737317e-06 0.0 
6.998488737317e-06 6.134703062311e-04 0.0 
0.0 0.0 -1.035688293187e-04 
0.0 0.0 0.0 
0.0 0.0 0.0 
0.0 0.0 0.0 
-2.390355384623e-04 1.936491639954e-04 0.0 
1.936491639954e-04 1.192457136132e-03 0.0 
0.0 0.0 -2.221130066924e-04 
-7.484754656573e-04 1.958621454920e-04 0.0 
1.958621454920e-04 4.871290639516e-03 0.0 
0.0 0.0 -7.497705102653e-04 
-1.223848934685e-03 2.347738204730e-04 0.0 
2.347738204730e-04 8.231542695031e-03 0.0 
0.0 0.0 -1.224669017856e-03 
-3.851215442265e-05 -6.758275575605e-05 0.0 
-6.758275575605e-05 2.149841041377e-04 0.0 
0.0 0.0 -4.506945562690e-05 
-1.095035538177e-03 -2.135230687798e-04 0.0 
-2.135230687798e-04 7.297496536284e-03 0.0 
0.0 0.0 -1.092518628633e-03 
0.0 0.0 0.0 
0.0 0.0 0.0 
0.0 0.0 0.0 
-9.497696422961e-04 1.942166615207e-04 0.0 
1.942166615207e-04 6.260470679264e-03 0.0 
0.0 0.0 -9.493083249531e-04 
-6.288110034395e-05 6.701081411356e-06 0.0 
6.701081411356e-06 2.758850751309e-04 0.0 
0.0 0.0 -4.591043399908e-05 
-6.241905191399e-05 -2.511621330169e-05 0.0 
-2.511621330169e-05 2.635940123717e-04 0.0 
0.0 0.0 -4.615290204994e-05 
-9.135771074388e-04 1.942985431381e-04 0.0 
1.942985431381e-04 6.003773453710e-03 0.0 
0.0 0.0 -9.122568895951e-04 
-1.191044637578e-03 1.954606753199e-04 0.0 
1.954606753199e-04 7.975629465802e-03 0.0 
0.0 0.0 -1.192963836147e-03 
-9.353430265021e-04 -9.437658603170e-05 0.0 
-9.437658603170e-05 6.401376295666e-03 0.0 
0.0 0.0 -9.361271490834e-04 
-7.292657224304e-04 -1.767865209209e-04 0.0 
-1.767865209209e-04 4.795789678295e-03 0.0 
0.0 0.0 -7.268406435589e-04 
-9.710718174901e-05 -1.358771368786e-05 0.0 
-1.358771368786e-05 3.239463226278e-04 0.0 
0.0 0.0 -9.721677466234e-05 
-9.353638871596e-04 -1.962742580693e-04 0.0 
-1.962742580693e-04 6.250401807132e-03 0.0 
0.0 0.0 -9.349022313484e-04 
-1.337797817327e-03 -2.530827551252e-05 0.0 
-2.530827551252e-05 8.814034455446e-03 0.0 
0.0 0.0 -1.337797817327e-03 
-1.326036287352e-03 -1.455315038833e-04 0.0 
-1.455315038833e-04 9.082015863418e-03 0.0 
0.0 0.0 -1.322354755130e-03 
-7.123437340294e-04 1.173862101606e-05 0.0 
1.173862101606e-05 4.855322276952e-03 0.0 
0.0 0.0 -7.125764448434e-04 
-9.860203699540e-04 1.899915039945e-04 0.0 
1.899915039945e-04 6.516626141221e-03 0.0 
0.0 0.0 -9.863757069361e-04 
-1.341607717199e-03 1.356557150833e-05 0.0 
1.356557150833e-05 8.840587029738e-03 0.0 
0.0 0.0 -1.341607717199e-03 
-1.048314093038e-03 -2.082351981234e-04 0.0 
-2.082351981234e-04 7.019832661667e-03 0.0 
0.0 0.0 -1.046710270629e-03 
-1.675301838823e-04 4.109428891396e-05 0.0 
4.109428891396e-05 9.648536059596e-04 0.0 
0.0 0.0 -1.589907658001e-04 
-1.067672517152e-04 -9.583258243249e-06 0.0 
-9.583258243249e-06 6.200113654204e-04 0.0 
0.0 0.0 -1.029725306715e-04 
-1.028842676796e-04 -4.314994342259e-05 0.0 
-4.314994342259e-05 3.453649952318e-04 0.0 
0.0 0.0 -1.039203118081e-04 
-5.871622493136e-04 1.953666188975e-04 0.0 
1.953666188975e-04 3.814212399552e-03 0.0 
0.0 0.0 -5.933358154923e-04 
-1.333672766825e-03 -1.202212504052e-04 0.0 
-1.202212504052e-04 9.086271765214e-03 0.0 
0.0 0.0 -1.322828574513e-03 
-1.249098589656e-03 -2.325383237371e-04 0.0 
-2.325383237371e-04 8.487130897030e-03 0.0 
0.0 0.0 -1.258329778789e-03 
0.0 0.0 0.0 
0.0 0.0 0.0 
0.0 0.0 0.0 
-6.989700289776e-04 -1.857489314676e-04 0.0 
-1.857489314676e-04 4.509333602690e-03 0.0 
0.0 0.0 -6.938761155152e-04 
-1.344798314369e-03 5.494387484637e-06 0.0 
5.494387484637e-06 8.860415151620e-03 0.0 
0.0 0.0 -1.344798314369e-03 
-1.337322942170e-03 3.677431177350e-05 0.0 
3.677431177350e-05 9.118625106116e-03 0.0 
0.0 0.0 -1.318785251170e-03 
-1.303755075695e-03 1.430690451440e-06 0.0 
1.430690451440e-06 9.096198326928e-03 0.0 
0.0 0.0 -1.321151187552e-03 
-1.034449558172e-03 2.142439693304e-04 0.0 
2.142439693304e-04 6.840882471351e-03 0.0 
0.0 0.0 -1.027148381742e-03 
-1.117879717661e-03 -2.162737768218e-04 0.0 
-2.162737768218e-04 7.549121072969e-03 0.0 
0.0 0.0 -1.125709525796e-03 
-1.338030260144e-03 -6.968280175079e-06 0.0 
-6.968280175079e-06 8.819304319896e-03 0.0 
0.0 0.0 -1.338030260144e-03 
-1.340754991027e-03 -2.793160050154e-05 0.0 
-2.793160050154e-05 8.842227493663e-03 0.0 
0.0 0.0 -1.340754991027e-03 
-1.084387157107e-03 1.756228747119e-04 0.0 
1.756228747119e-04 7.304356114432e-03 0.0 
0.0 0.0 -1.092518628634e-03 
-2.311762207506e-05 7.524747598176e-05 0.0 
7.524747598176e-05 1.841595127811e-04 0.0 
0.0 0.0 -4.541545915403e-05 
-7.129930244863e-04 -1.525724795116e-06 0.0 
-1.525724795116e-06 4.814692496190e-03 0.0 
0.0 0.0 -7.139539158865e-04 
-7.213897068280e-04 3.016260299782e-05 0.0 
3.016260299782e-05 4.878464797693e-03 0.0 
0.0 0.0 -7.133642253441e-04 
0.0 0.0 0.0 
0.0 0.0 0.0 
0.0 0.0 0.0 
-1.342313591240e-03 1.055329185638e-05 0.0 
1.055329185638e-05 8.873951644270e-03 0.0 
0.0 0.0 -1.342313591240e-03 
-1.336661786254e-03 2.540411115353e-05 0.0 
2.540411115353e-05 9.107640988403e-03 0.0 
0.0 0.0 -1.318355947622e-03 
-1.337959751097e-03 6.489046299871e-07 0.0 
6.489046299871e-07 8.814031058647e-03 0.0 
0.0 0.0 -1.337959751097e-03 
-6.887950874124e-05 7.326700540873e-06 0.0 
7.326700540873e-06 2.659430667850e-04 0.0 
0.0 0.0 -4.582974829071e-05 
-7.021790639444e-05 9.602649528326e-06 0.0 
9.602649528326e-06 2.736498867396e-04 0.0 
0.0 0.0 -4.591370119938e-05 
-1.340754991027e-03 -1.163411170854e-06 0.0 
-1.163411170854e-06 8.829041487509e-03 0.0 
0.0 0.0 -1.340754991027e-03 
-1.340396196526e-03 -2.044778395459e-05 0.0 
-2.044778395459e-05 8.820055094331e-03 0.0 
0.0 0.0 -1.340396196526e-03 
-1.016763022878e-03 -2.313272643621e-04 0.0 
-2.313272643621e-04 6.613286649783e-03 0.0 
0.0 0.0 -9.936726122374e-04 
-7.156761650400e-04 3.174630435051e-05 0.0 
3.174630435051e-05 4.813106322843e-03 0.0 
0.0 0.0 -7.124851972278e-04 
-1.051691578887e-03 -2.268729750205e-04 0.0 
-2.268729750205e-04 7.069453692283e-03 0.0 
0.0 0.0 -1.060142436171e-03 
-8.856361613045e-04 -2.246794552562e-04 0.0 
-2.246794552562e-04 5.656932423438e-03 0.0 
0.0 0.0 -8.626607521899e-04 
-6.974461573379e-04 1.315776503887e-05 0.0 
1.315776503887e-05 4.815685979733e-03 0.0 
0.0 0.0 -7.121912678902e-04 
-3.076401957522e-05 3.630205513184e-05 0.0 
3.630205513184e-05 2.492584121326e-04 0.0 
0.0 0.0 -4.495577515415e-05 
-4.859098010839e-05 -3.737210181647e-05 0.0 
-3.737210181647e-05 2.860304098853e-04 0.0 
0.0 0.0 -4.591167563965e-05 
-3.185160578243e-05 -1.142237180323e-05 0.0 
-1.142237180323e-05 2.469612253318e-04 0.0 
0.0 0.0 -4.589015575604e-05 
-4.731421252786e-05 -1.226097571219e-05 0.0 
-1.226097571219e-05 2.659450080895e-04 0.0 
0.0 0.0 -4.556578909549e-05 
-7.410966517880e-04 2.317413733404e-04 0.0 
2.317413733404e-04 4.761489269815e-03 0.0 
0.0 0.0 -7.271325101417e-04 
-6.567236663823e-04 2.031409226008e-04 0.0 
2.031409226008e-04 4.278704049819e-03 0.0 
0.0 0.0 -6.600769387058e-04 
0.0 0.0 0.0 
0.0 0.0 0.0 
0.0 0.0 0.0 
-9.198692932468e-04 2.207519103488e-04 0.0 
2.207519103488e-04 6.164531821473e-03 0.0 
0.0 0.0 -9.221709323543e-04 
0.0 0.0 0.0 
0.0 0.0 0.0 
0.0 0.0 0.0 
-1.341471640605e-03 5.425770365487e-06 0.0 
5.425770365487e-06 8.820837432317e-03 0.0 
0.0 0.0 -1.341471640605e-03 
-1.340968685557e-03 1.249741243790e-05 0.0 
1.249741243790e-05 8.807656416615e-03 0.0 
0.0 0.0 -1.340968685557e-03 
-1.339320413496e-03 -6.736119072763e-06 0.0 
-6.736119072763e-06 8.832654043149e-03 0.0 
0.0 0.0 -1.339320413496e-03 
-2.516213945074e-04 2.377641770174e-04 0.0 
2.377641770174e-04 1.477950192533e-03 0.0 
0.0 0.0 -2.599136149544e-04 
-4.499622910390e-04 2.064665423492e-04 0.0 
2.064665423492e-04 2.879856921820e-03 0.0 
0.0 0.0 -4.607467809507e-04 
-1.337132911908e-03 -4.793528436990e-06 0.0 
-4.793528436990e-06 8.820087587172e-03 0.0 
0.0 0.0 -1.337132911908e-03 
-1.120160542764e-03 1.885503644173e-04 0.0 
1.885503644173e-04 7.560722239950e-03 0.0 
0.0 0.0 -1.124956933753e-03 
-1.344556937803e-03 -2.104246713846e-05 0.0 
-2.104246713846e-05 8.860523593132e-03 0.0 
0.0 0.0 -1.344556937803e-03 
-1.195658010449e-03 2.008624552429e-04 0.0 
2.008624552429e-04 8.028011251528e-03 0.0 
0.0 0.0 -1.192538251246e-03 
-1.264541089761e-03 2.315838415430e-04 0.0 
2.315838415430e-04 8.498729307699e-03 0.0 
0.0 0.0 -1.259905836238e-03 
-6.219774932840e-04 -2.035330289393e-04 0.0 
-2.035330289393e-04 4.041759494414e-03 0.0 
0.0 0.0 -6.267460875326e-04 
-1.333336577702e-03 -3.290028368553e-05 0.0 
-3.290028368553e-05 9.106230716714e-03 0.0 
0.0 0.0 -1.318101597465e-03 
-1.336001964470e-03 1.162172730560e-04 0.0 
1.162172730560e-04 9.090958479552e-03 0.0 
0.0 0.0 -1.321689849711e-03 
-1.157015842751e-03 -2.064363215114e-04 0.0 
-2.064363215114e-04 7.737243073859e-03 0.0 
0.0 0.0 -1.157495185000e-03 
-1.229671491752e-03 -2.051129200289e-04 0.0 
-2.051129200289e-04 8.228478437854e-03 0.0 
0.0 0.0 -1.225777420818e-03 
-9.871372975694e-04 -1.866548184674e-04 0.0 
-1.866548184674e-04 6.644402027939e-03 0.0 
0.0 0.0 -9.925156490314e-04 
0.0 0.0 0.0 
0.0 0.0 0.0 
0.0 0.0 0.0 
-6.525071487266e-04 -2.022287068404e-04 0.0 
-2.022287068404e-04 4.165983179946e-03 0.0 
0.0 0.0 -6.350241097613e-04 
-1.062777711571e-04 -2.500028508467e-05 0.0 
-2.500028508467e-05 5.975407209184e-04 0.0 
0.0 0.0 -1.030398215525e-04 
-1.177532662352e-03 -1.733616004670e-04 0.0 
-1.733616004670e-04 7.926724853394e-03 0.0 
0.0 0.0 -1.177819030284e-03 
-6.744770170931e-04 1.928269940396e-04 0.0 
1.928269940396e-04 4.352241427477e-03 0.0 
0.0 0.0 -6.753691525988e-04 
-1.095781442937e-03 1.863762097668e-04 0.0 
1.863762097668e-04 7.297090200674e-03 0.0 
0.0 0.0 -1.099016898379e-03 
-3.528730048209e-04 -1.946361167357e-04 0.0 
-1.946361167357e-04 2.176757571714e-03 0.0 
0.0 0.0 -3.504775146279e-04 
-1.550760112035e-04 1.206598951617e-04 0.0 
1.206598951617e-04 7.508446244134e-04 0.0 
0.0 0.0 -1.735952156319e-04 
-1.160601579575e-03 -1.894710886425e-04 0.0 
-1.894710886425e-04 7.820833929289e-03 0.0 
0.0 0.0 -1.161668299909e-03 
-6.889768412053e-04 -1.975061828768e-04 0.0 
-1.975061828768e-04 4.617261067584e-03 0.0 
0.0 0.0 -7.012080445024e-04 
-5.762009062567e-04 2.005988488917e-04 0.0 
2.005988488917e-04 3.584897669436e-03 0.0 
0.0 0.0 -5.611363230934e-04 
-1.093490207039e-03 -1.909491051748e-04 0.0 
-1.909491051748e-04 7.367841895943e-03 0.0 
0.0 0.0 -1.096102707776e-03 
-1.178635420303e-03 1.949598249272e-04 0.0 
1.949598249272e-04 7.912911661083e-03 0.0 
0.0 0.0 -1.188907866872e-03 
-5.561658818215e-04 -2.031625025719e-04 0.0 
-2.031625025719e-04 3.593153237093e-03 0.0 
0.0 0.0 -5.602736785587e-04 
-1.035403721303e-03 -2.031605927371e-04 0.0 
-2.031605927371e-04 6.949569291118e-03 0.0 
0.0 0.0 -1.035646790376e-03 
-9.180249208977e-04 1.931476710154e-04 0.0 
1.931476710154e-04 6.042341158293e-03 0.0 
0.0 0.0 -9.181742748318e-04 
-9.917755747799e-04 2.023242542686e-04 0.0 
2.023242542686e-04 6.575747416083e-03 0.0 
0.0 0.0 -9.952786863929e-04 
-1.024377024952e-03 1.861972783327e-04 0.0 
1.861972783327e-04 6.794579129447e-03 0.0 
0.0 0.0 -1.024224580100e-03 
-5.802650742356e-04 1.891370522917e-04 0.0 
1.891370522917e-04 3.679117002713e-03 0.0 
0.0 0.0 -5.788817793163e-04 
-6.680148396563e-04 -1.727307713496e-04 0.0 
-1.727307713496e-04 4.367645791481e-03 0.0 
0.0 0.0 -6.651338130661e-04 
-7.292546132973e-04 -1.846826388503e-04 0.0 
-1.846826388503e-04 4.813421317749e-03 0.0 
0.0 0.0 -7.293057621918e-04 
-9.374184943370e-04 1.944757919182e-04 0.0 
1.944757919182e-04 6.178932175002e-03 0.0 
0.0 0.0 -9.378562126457e-04 
-1.124743441142e-03 -2.044895248107e-04 0.0 
-2.044895248107e-04 7.578873023721e-03 0.0 
0.0 0.0 -1.125100902632e-03 
-1.057275381377e-03 1.952239226914e-04 0.0 
1.952239226914e-04 7.019062258926e-03 0.0 
0.0 0.0 -1.053755873404e-03 
-3.652721065736e-04 1.996025403978e-04 0.0 
1.996025403978e-04 2.192815232503e-03 0.0 
0.0 0.0 -3.685493992842e-04 
-1.164581229115e-03 2.188850811809e-04 0.0 
2.188850811809e-04 7.900774321480e-03 0.0 
0.0 0.0 -1.183514100502e-03 
-1.119628239997e-03 2.087348229959e-04 0.0 
2.087348229959e-04 7.433542979004e-03 0.0 
0.0 0.0 -1.117084069417e-03 
-8.143956589139e-04 2.341244742851e-04 0.0 
2.341244742851e-04 5.337741611520e-03 0.0 
0.0 0.0 -8.110481619253e-04 
-9.749777922597e-04 1.939288930454e-04 0.0 
1.939288930454e-04 6.440647276838e-03 0.0 
0.0 0.0 -9.753747863247e-04 
-9.652234430735e-04 1.970752514855e-04 0.0 
1.970752514855e-04 6.378006768513e-03 0.0 
0.0 0.0 -9.665592132828e-04 
-1.194888926874e-03 -2.112261199246e-04 0.0 
-2.112261199246e-04 8.020188826812e-03 0.0 
0.0 0.0 -1.185362187646e-03 
-1.151241251503e-03 1.853138580095e-04 0.0 
1.853138580095e-04 7.714994671460e-03 0.0 
0.0 0.0 -1.150972777267e-03 
-8.863019395197e-04 -1.951602003696e-04 0.0 
-1.951602003696e-04 5.913977900844e-03 0.0 
0.0 0.0 -8.866930489607e-04 
-1.183768845123e-03 -1.944166925085e-04 0.0 
-1.944166925085e-04 8.022430172970e-03 0.0 
0.0 0.0 -1.190872049285e-03 
-1.103203670140e-03 1.932633349999e-04 0.0 
1.932633349999e-04 7.339211362922e-03 0.0 
0.0 0.0 -1.103416240745e-03 
-1.053347130920e-03 -1.808067663282e-04 0.0 
-1.808067663282e-04 7.018991585010e-03 0.0 
0.0 0.0 -1.053748284807e-03 
-1.207301516059e-03 -2.189374092153e-04 0.0 
-2.189374092153e-04 8.148472988394e-03 0.0 
0.0 0.0 -1.210017230578e-03 
-1.183451424094e-03 -2.064186268461e-04 0.0 
-2.064186268461e-04 7.961006455012e-03 0.0 
0.0 0.0 -1.181737430652e-03 
-1.012410866899e-03 -2.064236493361e-04 0.0 
-2.064236493361e-04 6.767125967856e-03 0.0 
0.0 0.0 -1.011817915138e-03 
-9.978825943571e-04 -1.946964301518e-04 0.0 
-1.946964301518e-04 6.692413921007e-03 0.0 
0.0 0.0 -9.985655989919e-04 
-3.618458064176e-04 1.902703540337e-04 0.0 
1.902703540337e-04 2.182295586331e-03 0.0 
0.0 0.0 -3.644364776638e-04 
-3.396688960242e-04 1.922383374584e-04 0.0 
1.922383374584e-04 2.020949841441e-03 0.0 
0.0 0.0 -3.414758422231e-04 
-2.048022796594e-04 -2.337971245162e-04 0.0 
-2.337971245162e-04 1.038657557028e-03 0.0 
0.0 0.0 -1.876370064529e-04 
-1.053265806659e-04 1.589966792234e-06 0.0 
1.589966792234e-06 6.159987105294e-04 0.0 
0.0 0.0 -1.032036840373e-04 
-1.146654591444e-03 -2.036534213009e-04 0.0 
-2.036534213009e-04 7.733548266154e-03 0.0 
0.0 0.0 -1.150998037120e-03 
-1.153371435519e-03 1.929566661378e-04 0.0 
1.929566661378e-04 7.706474852566e-03 0.0 
0.0 0.0 -1.156839719840e-03 
-1.023100123294e-04 6.333767357802e-06 0.0 
6.333767357802e-06 5.922537874641e-04 0.0 
0.0 0.0 -1.029284987275e-04 
-1.152902847458e-03 -1.945944093032e-04 0.0 
-1.945944093032e-04 7.806589318492e-03 0.0 
0.0 0.0 -1.160298666437e-03 
-8.240593874314e-04 2.133386610705e-04 0.0 
2.133386610705e-04 5.515954645069e-03 0.0 
0.0 0.0 -8.436798659344e-04 
-1.063159338098e-03 -2.000353252038e-04 0.0 
-2.000353252038e-04 7.170931875512e-03 0.0 
0.0 0.0 -1.067477449466e-03 
-1.091085119062e-03 1.926591161237e-04 0.0 
1.926591161237e-04 7.245677048731e-03 0.0 
0.0 0.0 -1.090430023688e-03 
-5.083685843408e-04 1.854528112905e-04 0.0 
1.854528112905e-04 3.184990427277e-03 0.0 
0.0 0.0 -5.090628918580e-04 
-1.088419020765e-03 -1.985610050621e-04 0.0 
-1.985610050621e-04 7.308442647816e-03 0.0 
0.0 0.0 -1.087955833448e-03 
-8.052736907314e-04 -2.707602780886e-04 0.0 
-2.707602780886e-04 5.346563189152e-03 0.0 
0.0 0.0 -8.100176300978e-04 
-1.002877096566e-03 -1.976880564897e-04 0.0 
-1.976880564897e-04 6.706443384887e-03 0.0 
0.0 0.0 -1.000388816061e-03 
-1.231169607282e-03 2.234727540429e-04 0.0 
2.234727540429e-04 8.305282306820e-03 0.0 
0.0 0.0 -1.242964905849e-03 
-3.519355017218e-04 1.472413134465e-04 0.0 
1.472413134465e-04 2.089181619658e-03 0.0 
0.0 0.0 -3.542437553904e-04 
-1.221302329282e-03 -1.674357911946e-04 0.0 
-1.674357911946e-04 8.209373583472e-03 0.0 
0.0 0.0 -1.215045542354e-03 
-1.047850802636e-03 -1.881582153281e-04 0.0 
-1.881582153281e-04 7.026769425363e-03 0.0 
0.0 0.0 -1.048288725887e-03 
-3.889604497647e-04 2.037169653350e-04 0.0 
2.037169653350e-04 2.380154464468e-03 0.0 
0.0 0.0 -3.930611257745e-04 
-4.005955795872e-04 -1.795528067477e-04 0.0 
-1.795528067477e-04 2.551679544192e-03 0.0 
0.0 0.0 -4.034900192350e-04 
-7.895600060851e-04 1.993051337406e-04 0.0 
1.993051337406e-04 5.154958880860e-03 0.0 
0.0 0.0 -7.909606353592e-04 
-9.478370252282e-04 2.028022273917e-04 0.0 
2.028022273917e-04 6.213549732246e-03 0.0 
0.0 0.0 -9.409807611877e-04 
-5.389171118930e-04 1.931642811106e-04 0.0 
1.931642811106e-04 3.423254400861e-03 0.0 
0.0 0.0 -5.429771841545e-04 
-1.084906178257e-03 -2.011232363261e-04 0.0 
-2.011232363261e-04 7.274950011924e-03 0.0 
0.0 0.0 -1.085119818393e-03 
-9.758201311387e-04 -2.238948292920e-04 0.0 
-2.238948292920e-04 6.526325342415e-03 0.0 
0.0 0.0 -9.816794289629e-04 
-7.681741524081e-04 1.880175807826e-04 0.0 
1.880175807826e-04 5.011383542904e-03 0.0 
0.0 0.0 -7.700930343086e-04 
-1.026480683520e-03 -1.844900629416e-04 0.0 
-1.844900629416e-04 6.842321728991e-03 0.0 
0.0 0.0 -1.021757709120e-03 
-1.057960421125e-03 -1.998047593286e-04 0.0 
-1.998047593286e-04 7.113469784678e-03 0.0 
0.0 0.0 -1.058696934625e-03 
-1.057942238941e-03 2.175749808769e-04 0.0 
2.175749808769e-04 6.964480207197e-03 0.0 
0.0 0.0 -1.050681058959e-03 
-3.033747618520e-04 -1.838242939411e-04 0.0 
-1.838242939411e-04 1.857406959021e-03 0.0 
0.0 0.0 -3.058749225436e-04 
-7.305418871957e-04 1.869626526336e-04 0.0 
1.869626526336e-04 4.754815575901e-03 0.0 
0.0 0.0 -7.328582426338e-04 
-1.136183616218e-03 2.082876610418e-04 0.0 
2.082876610418e-04 7.610878515336e-03 0.0 
0.0 0.0 -1.141128458404e-03 
-1.078434925953e-03 -1.984149302182e-04 0.0 
-1.984149302182e-04 7.234990828440e-03 0.0 
0.0 0.0 -1.078198857115e-03 
-6.621852882438e-04 2.164713360985e-04 0.0 
2.164713360985e-04 4.271535496369e-03 0.0 
0.0 0.0 -6.666835465145e-04 
-9.149083998473e-04 -1.952760623190e-04 0.0 
-1.952760623190e-04 6.113676858771e-03 0.0 
0.0 0.0 -9.153036164073e-04 
-1.187688204395e-03 -2.025883410102e-04 0.0 
-2.025883410102e-04 8.016876824675e-03 0.0 
0.0 0.0 -1.187586327529e-03 
-1.005326890981e-03 1.902074749801e-04 0.0 
1.902074749801e-04 6.713852212323e-03 0.0 
0.0 0.0 -1.013969106439e-03 
-1.909283182059e-04 -2.134343415579e-04 0.0 
-2.134343415579e-04 9.857203047885e-04 0.0 
0.0 0.0 -1.806728872115e-04 
-1.970147197369e-04 -2.059863142165e-04 0.0 
-2.059863142165e-04 1.002592449070e-03 0.0 
0.0 0.0 -1.835536028976e-04 
-3.515992897123e-04 -1.811957352846e-04 0.0 
-1.811957352846e-04 2.155411981566e-03 0.0 
0.0 0.0 -3.467375663575e-04 
-1.128856114321e-03 2.001566636705e-04 0.0 
2.001566636705e-04 7.510015093798e-03 0.0 
0.0 0.0 -1.127837695838e-03 
-9.816567297486e-04 1.933811921609e-04 0.0 
1.933811921609e-04 6.465198559992e-03 0.0 
0.0 0.0 -9.775003154318e-04 
-8.371572204409e-04 -2.148163729895e-04 0.0 
-2.148163729895e-04 5.710338305933e-03 0.0 
0.0 0.0 -8.513051444990e-04 
-8.730704368828e-04 1.896261582468e-04 0.0 
1.896261582468e-04 5.754508324044e-03 0.0 
0.0 0.0 -8.745614812816e-04 
-1.137329719499e-03 -1.941463340313e-04 0.0 
-1.941463340313e-04 7.669003078820e-03 0.0 
0.0 0.0 -1.139196670502e-03 
-7.981531024245e-04 1.892565346164e-04 0.0 
1.892565346164e-04 5.212239015909e-03 0.0 
0.0 0.0 -7.988714448434e-04 
-1.058279653052e-03 1.954206945734e-04 0.0 
1.954206945734e-04 7.042085544045e-03 0.0 
0.0 0.0 -1.061632825506e-03 
-3.556360797851e-04 -1.825172875802e-04 0.0 
-1.825172875802e-04 2.253382462632e-03 0.0 
0.0 0.0 -3.615122310665e-04 
-1.213390557451e-03 2.397950825143e-04 0.0 
2.397950825143e-04 8.136808344214e-03 0.0 
0.0 0.0 -1.211531131004e-03 
-7.660046426258e-04 -1.986537595935e-04 0.0 
-1.986537595935e-04 5.080766734255e-03 0.0 
0.0 0.0 -7.673127347790e-04 
-3.927767409548e-04 -1.941008242107e-04 0.0 
-1.941008242107e-04 2.469153154105e-03 0.0 
0.0 0.0 -3.889166325194e-04 
-7.314298842456e-04 -2.140562000031e-04 0.0 
-2.140562000031e-04 4.812028074598e-03 0.0 
0.0 0.0 -7.311132045151e-04 
-5.669903072896e-04 1.859979766969e-04 0.0 
1.859979766969e-04 3.622850524897e-03 0.0 
0.0 0.0 -5.716673668464e-04 
-4.441913073698e-04 -1.946929488680e-04 0.0 
-1.946929488680e-04 2.835535865589e-03 0.0 
0.0 0.0 -4.452767020142e-04 
-8.541353571324e-04 1.878201727380e-04 0.0 
1.878201727380e-04 5.598851307335e-03 0.0 
0.0 0.0 -8.564950983273e-04 
0.0 0.0 0.0 
0.0 0.0 0.0 
0.0 0.0 0.0 
0.0 0.0 0.0 
0.0 0.0 0.0 
0.0 0.0 0.0 
-9.633926432213e-04 -1.929125650731e-04 0.0 
-1.929125650731e-04 6.449382072422e-03 0.0 
0.0 0.0 -9.636005660098e-04 
-3.261615758852e-04 -1.754968158783e-04 0.0 
-1.754968158783e-04 2.064243752771e-03 0.0 
0.0 0.0 -3.336449385292e-04 
-9.716625480636e-04 -1.974982736353e-04 0.0 
-1.974982736353e-04 6.511810819199e-03 0.0 
0.0 0.0 -9.724388998541e-04 
-9.434553557208e-04 -1.947776052692e-04 0.0 
-1.947776052692e-04 6.314151919472e-03 0.0 
0.0 0.0 -9.438473481109e-04 
-6.149570530546e-04 1.958377041271e-04 0.0 
1.958377041271e-04 3.946002749694e-03 0.0 
0.0 0.0 -6.177757646845e-04 
-4.134741271646e-04 1.981876295034e-04 0.0 
1.981876295034e-04 2.543324249367e-03 0.0 
0.0 0.0 -4.162223005415e-04 
-1.136715502842e-03 -2.038924191314e-04 0.0 
-2.038924191314e-04 7.650435027918e-03 0.0 
0.0 0.0 -1.137719822027e-03 
-2.155883669569e-04 -8.829356196857e-05 0.0 
-8.829356196857e-05 9.573383583193e-04 0.0 
0.0 0.0 -2.047534254615e-04 
-6.021718484836e-04 1.735627083645e-04 0.0 
1.735627083645e-04 3.837011647565e-03 0.0 
0.0 0.0 -6.004815939294e-04 
-1.172134314024e-03 -1.664552663931e-04 0.0 
-1.664552663931e-04 7.890382462293e-03 0.0 
0.0 0.0 -1.175533656463e-03 
-2.822824235296e-04 1.888682444413e-04 0.0 
1.888682444413e-04 1.684200929602e-03 0.0 
0.0 0.0 -2.977570873278e-04 
-9.136045934539e-04 -1.921452035066e-04 0.0 
-1.921452035066e-04 6.056651557430e-03 0.0 
0.0 0.0 -9.088859120638e-04 
-8.340119380580e-04 -2.228113772718e-04 0.0 
-2.228113772718e-04 5.573887948832e-03 0.0 
0.0 0.0 -8.416286270284e-04 
-2.829330432205e-04 -1.923976084131e-04 0.0 
-1.923976084131e-04 1.716244531209e-03 0.0 
0.0 0.0 -2.842394630762e-04 
-1.159926400282e-03 -1.793893042656e-04 0.0 
-1.793893042656e-04 7.808824689671e-03 0.0 
0.0 0.0 -1.158722036769e-03 
-1.035589941137e-03 -1.985988582850e-04 0.0 
-1.985988582850e-04 6.933992631060e-03 0.0 
0.0 0.0 -1.034898561726e-03 
-3.359494272766e-04 1.786409644777e-04 0.0 
1.786409644777e-04 1.989232140030e-03 0.0 
0.0 0.0 -3.364655670308e-04 
-1.165152170532e-03 -1.849586778465e-04 0.0 
-1.849586778465e-04 7.849581652679e-03 0.0 
0.0 0.0 -1.166520446339e-03 
-1.171818434168e-03 1.701070722775e-04 0.0 
1.701070722775e-04 7.787163600185e-03 0.0 
0.0 0.0 -1.169001632583e-03 
-3.670484435220e-04 -2.062025335134e-04 0.0 
-2.062025335134e-04 2.310354927649e-03 0.0 
0.0 0.0 -3.701904734684e-04 
-4.878019895888e-04 -2.129991852323e-04 0.0 
-2.129991852323e-04 3.076179585064e-03 0.0 
0.0 0.0 -4.801335248058e-04 
-3.784853096696e-04 -1.951915827816e-04 0.0 
-1.951915827816e-04 2.373996755405e-03 0.0 
0.0 0.0 -3.791106726259e-04 
-1.023434568927e-03 -1.955357832442e-04 0.0 
-1.955357832442e-04 6.907952393425e-03 0.0 
0.0 0.0 -1.029923508343e-03 
-8.283537341299e-04 1.907553074043e-04 0.0 
1.907553074043e-04 5.413544228672e-03 0.0 
0.0 0.0 -8.276368238623e-04 
-1.175065292852e-03 1.838008001023e-04 0.0 
1.838008001023e-04 7.798269859187e-03 0.0 
0.0 0.0 -1.169529464977e-03 
-1.141233486497e-03 1.909358973763e-04 0.0 
1.909358973763e-04 7.594915182305e-03 0.0 
0.0 0.0 -1.140030709108e-03 
-9.986353517479e-04 -1.968060563575e-04 0.0 
-1.968060563575e-04 6.710344376515e-03 0.0 
0.0 0.0 -1.001167767022e-03 
-1.002641746751e-03 1.939099816929e-04 0.0 
1.939099816929e-04 6.639482721891e-03 0.0 
0.0 0.0 -1.004093472296e-03 
-3.170641866385e-04 1.974483890407e-04 0.0 
1.974483890407e-04 1.842860083610e-03 0.0 
0.0 0.0 -3.158693332420e-04 
-1.029368673375e-03 1.947386699307e-04 0.0 
1.947386699307e-04 6.837075470330e-03 0.0 
0.0 0.0 -1.032853941699e-03 
-1.038324079738e-03 1.969104416428e-04 0.0 
1.969104416428e-04 6.879456010501e-03 0.0 
0.0 0.0 -1.037144748481e-03 
-8.220289990508e-04 -1.901456335333e-04 0.0 
-1.901456335333e-04 5.481743507948e-03 0.0 
0.0 0.0 -8.248712778174e-04 
-9.784412971014e-04 -1.995967018581e-04 0.0 
-1.995967018581e-04 6.519224964638e-03 0.0 
0.0 0.0 -9.752741834902e-04 
-1.071043316413e-03 -2.014206266275e-04 0.0 
-2.014206266275e-04 7.187990111684e-03 0.0 
0.0 0.0 -1.071415751597e-03 
-7.449992410114e-04 1.900175048327e-04 0.0 
1.900175048327e-04 4.830596508428e-03 0.0 
0.0 0.0 -7.435371925968e-04 
-1.112301323396e-03 1.953318319137e-04 0.0 
1.953318319137e-04 7.388703494557e-03 0.0 
0.0 0.0 -1.110258267496e-03 
-7.048168666415e-04 2.103542029498e-04 0.0 
2.103542029498e-04 4.551180166485e-03 0.0 
0.0 0.0 -6.965171720950e-04 
-7.978310569569e-04 -1.996626955201e-04 0.0 
-1.996626955201e-04 5.282133349968e-03 0.0 
0.0 0.0 -7.960639764766e-04 
-5.335116196932e-04 2.239231297757e-04 0.0 
2.239231297757e-04 3.386453430155e-03 0.0 
0.0 0.0 -5.342291996904e-04 
-5.553576446558e-04 -1.816268034184e-04 0.0 
-1.816268034184e-04 3.628347878161e-03 0.0 
0.0 0.0 -5.581583723280e-04 
-1.010310088917e-03 1.967228699853e-04 0.0 
1.967228699853e-04 6.672709965049e-03 0.0 
0.0 0.0 -1.007339817349e-03 
-7.628577911211e-04 -1.911605880287e-04 0.0 
-1.911605880287e-04 5.057166832743e-03 0.0 
0.0 0.0 -7.637833264599e-04 
-4.056535220845e-04 -1.994601543413e-04 0.0 
-1.994601543413e-04 2.573810220736e-03 0.0 
0.0 0.0 -4.077494273363e-04 
-2.235505229120e-04 -1.665382784811e-04 0.0 
-1.665382784811e-04 1.264629605483e-03 0.0 
0.0 0.0 -2.185673950299e-04 
-1.005369566171e-03 -1.969282844887e-04 0.0 
-1.969282844887e-04 6.726819346583e-03 0.0 
0.0 0.0 -1.005115000480e-03 
-4.096373717980e-04 1.964452207256e-04 0.0 
1.964452207256e-04 2.501615904785e-03 0.0 
0.0 0.0 -4.107160730352e-04 
-1.196795855234e-03 2.010644044310e-04 0.0 
2.010644044310e-04 8.139442919111e-03 0.0 
0.0 0.0 -1.218716866995e-03 
-1.042807145316e-03 1.952121137199e-04 0.0 
1.952121137199e-04 6.924647329534e-03 0.0 
0.0 0.0 -1.043883448597e-03 
-1.067869276876e-03 1.919364052357e-04 0.0 
1.919364052357e-04 7.100655193935e-03 0.0 
0.0 0.0 -1.070373463590e-03 
-1.283006779812e-03 -2.454005743876e-05 0.0 
-2.454005743876e-05 8.441304095904e-03 0.0 
0.0 0.0 -1.284729618418e-03 
-6.611541786482e-04 -2.165377279582e-04 0.0 
-2.165377279582e-04 4.358180230514e-03 0.0 
0.0 0.0 -6.637377122259e-04 
-3.719232158050e-04 1.946095876175e-04 0.0 
1.946095876175e-04 2.237835984063e-03 0.0 
0.0 0.0 -3.731618544808e-04 
-2.509805120977e-04 2.101438879212e-04 0.0 
2.101438879212e-04 1.370179870162e-03 0.0 
0.0 0.0 -2.496210768721e-04 
-1.009272610852e-03 -1.976905948494e-04 0.0 
-1.976905948494e-04 6.773236228030e-03 0.0 
0.0 0.0 -1.009908742814e-03 
-9.502891484141e-04 2.008015227702e-04 0.0 
2.008015227702e-04 6.263291661127e-03 0.0 
0.0 0.0 -9.473489374553e-04 
-1.787867007396e-04 1.721284507092e-04 0.0 
1.721284507092e-04 9.234900215081e-04 0.0 
0.0 0.0 -1.858848441742e-04 
-5.306487836806e-04 -1.980238622701e-04 0.0 
-1.980238622701e-04 3.494279541485e-03 0.0 
0.0 0.0 -5.400474096907e-04 
-3.064883048416e-04 -1.749693241531e-04 0.0 
-1.749693241531e-04 2.001263288359e-03 0.0 
0.0 0.0 -3.246070344129e-04 
-9.392936976826e-04 -1.862704497829e-04 0.0 
-1.862704497829e-04 6.266809515345e-03 0.0 
0.0 0.0 -9.387834224271e-04 
-5.480159981423e-04 -2.100359931435e-04 0.0 
-2.100359931435e-04 3.693369469425e-03 0.0 
0.0 0.0 -5.687878759048e-04 
-9.467150260524e-04 1.924065934847e-04 0.0 
1.924065934847e-04 6.242240235616e-03 0.0 
0.0 0.0 -9.467935652645e-04 
-5.428455294622e-04 -2.085125102257e-04 0.0 
-2.085125102257e-04 3.415670535467e-03 0.0 
0.0 0.0 -5.337555413937e-04 
-1.117346964304e-03 -2.071110090059e-04 0.0 
-2.071110090059e-04 7.492505049919e-03 0.0 
0.0 0.0 -1.114809527198e-03 
-4.745048492879e-04 1.992195964991e-04 0.0 
1.992195964991e-04 2.965213732964e-03 0.0 
0.0 0.0 -4.768663991247e-04 
-1.019084130149e-03 -1.971234603784e-04 0.0 
-1.971234603784e-04 6.834832976306e-03 0.0 
0.0 0.0 -1.018590841688e-03 
-3.372917149944e-04 -1.912349410902e-04 0.0 
-1.912349410902e-04 2.104646860584e-03 0.0 
0.0 0.0 -3.376433569222e-04 
-9.810862783946e-04 -1.972875806497e-04 0.0 
-1.972875806497e-04 6.573374097127e-03 0.0 
0.0 0.0 -9.812220007866e-04 
-7.630262787412e-04 -1.649240710624e-04 0.0 
-1.649240710624e-04 5.040550269950e-03 0.0 
0.0 0.0 -7.604224332210e-04 
-1.040603755793e-03 1.933348900592e-04 0.0 
1.933348900592e-04 6.902261502476e-03 0.0 
0.0 0.0 -1.041555045145e-03 
-5.360677599799e-04 1.876482889456e-04 0.0 
1.876482889456e-04 3.380336319223e-03 0.0 
0.0 0.0 -5.350282927002e-04 
-3.256683131977e-04 2.104859329235e-04 0.0 
2.104859329235e-04 1.909139084910e-03 0.0 
0.0 0.0 -3.277310168338e-04 
-8.709310065231e-04 -1.930857458815e-04 0.0 
-1.930857458815e-04 5.840506173077e-03 0.0 
0.0 0.0 -8.787268422831e-04 
-9.478935846188e-04 -1.922017527602e-04 0.0 
-1.922017527602e-04 6.329496652854e-03 0.0 
0.0 0.0 -9.464297096767e-04 
-6.788789609641e-04 1.916120147783e-04 0.0 
1.916120147783e-04 4.369175427210e-03 0.0 
0.0 0.0 -6.776081642141e-04 
-9.468425740780e-04 -2.085300673065e-04 0.0 
-2.085300673065e-04 6.298374618209e-03 0.0 
0.0 0.0 -9.453210152248e-04 
-3.756080425156e-04 -1.934039556713e-04 0.0 
-1.934039556713e-04 2.352414382127e-03 0.0 
0.0 0.0 -3.758914132629e-04 
-9.664473934007e-04 1.935643871513e-04 0.0 
1.935643871513e-04 6.379409966944e-03 0.0 
0.0 0.0 -9.642804585795e-04 
-3.026576237446e-04 -1.928297610963e-04 0.0 
-1.928297610963e-04 1.798935007683e-03 0.0 
0.0 0.0 -2.947674122297e-04 
-1.153179427147e-03 -2.051549704311e-04 0.0 
-2.051549704311e-04 7.761192827607e-03 0.0 
0.0 0.0 -1.150402778756e-03 
-9.838604339424e-04 -1.907200549991e-04 0.0 
-1.907200549991e-04 6.585836583388e-03 0.0 
0.0 0.0 -9.834711240942e-04 
-1.039448222436e-03 -1.939988089318e-04 0.0 
-1.939988089318e-04 6.961176011231e-03 0.0 
0.0 0.0 -1.037051012011e-03 
-1.209610339595e-03 -2.064055054886e-04 0.0 
-2.064055054886e-04 8.130245976668e-03 0.0 
0.0 0.0 -1.204463612412e-03 
-8.289278457567e-04 -1.937873946282e-04 0.0 
-1.937873946282e-04 5.514638524943e-03 0.0 
0.0 0.0 -8.294769417472e-04 
-3.109821114722e-04 1.906924358190e-04 0.0 
1.906924358190e-04 1.784796369805e-03 0.0 
0.0 0.0 -3.081489256106e-04 
-9.237752216618e-04 -1.945449657843e-04 0.0 
-1.945449657843e-04 6.173770782065e-03 0.0 
0.0 0.0 -9.239488535170e-04 
-1.191042257491e-03 2.067698926502e-04 0.0 
2.067698926502e-04 7.951909524645e-03 0.0 
0.0 0.0 -1.189963100592e-03 
-4.775062598439e-04 -1.845893080325e-04 0.0 
-1.845893080325e-04 3.071724244623e-03 0.0 
0.0 0.0 -4.786098583285e-04 
-1.036708665275e-03 -1.995575756553e-04 0.0 
-1.995575756553e-04 6.972509629402e-03 0.0 
0.0 0.0 -1.038675661098e-03 
-1.042240091366e-03 -2.028158867282e-04 0.0 
-2.028158867282e-04 6.979443732142e-03 0.0 
0.0 0.0 -1.041631482750e-03 
-3.838009065759e-04 1.994121048007e-04 0.0 
1.994121048007e-04 2.344808306372e-03 0.0 
0.0 0.0 -3.880698300753e-04 
-9.524861751469e-04 -1.961707644155e-04 0.0 
-1.961707644155e-04 6.373861031903e-03 0.0 
0.0 0.0 -9.525765839929e-04 
-8.586433483391e-04 -1.931078618343e-04 0.0 
-1.931078618343e-04 5.748348032680e-03 0.0 
0.0 0.0 -8.663127257150e-04 
-4.249902311886e-04 -1.873478746315e-04 0.0 
-1.873478746315e-04 2.710801804411e-03 0.0 
0.0 0.0 -4.280652785065e-04 
-5.063403877371e-04 -1.957595432946e-04 0.0 
-1.957595432946e-04 3.295220362808e-03 0.0 
0.0 0.0 -5.113914792957e-04 
-8.011417777980e-04 -1.869294440003e-04 0.0 
-1.869294440003e-04 5.307962758149e-03 0.0 
0.0 0.0 -8.004334922225e-04 
-1.012906793309e-03 1.927821333669e-04 0.0 
1.927821333669e-04 6.702583928550e-03 0.0 
0.0 0.0 -1.012809740122e-03 
-6.237702296699e-04 -1.788620839171e-04 0.0 
-1.788620839171e-04 4.053757856152e-03 0.0 
0.0 0.0 -6.201901524263e-04 
-7.654836975308e-04 -1.844361479045e-04 0.0 
-1.844361479045e-04 5.061981616524e-03 0.0 
0.0 0.0 -7.649884091348e-04 
-1.002132587578e-03 1.966152402383e-04 0.0 
1.966152402383e-04 6.628701174112e-03 0.0 
0.0 0.0 -1.000670320419e-03 
-9.160037735611e-04 2.105070801011e-04 0.0 
2.105070801011e-04 6.003693375901e-03 0.0 
0.0 0.0 -9.110000341593e-04 
-8.984996443820e-04 1.923871522476e-04 0.0 
1.923871522476e-04 5.918711205323e-03 0.0 
0.0 0.0 -8.984003255416e-04 
-7.635747983664e-04 1.700234808702e-04 0.0 
1.700234808702e-04 4.971193028469e-03 0.0 
0.0 0.0 -7.627602282935e-04 
-1.130358647028e-03 -1.898334947356e-04 0.0 
-1.898334947356e-04 7.609563538777e-03 0.0 
0.0 0.0 -1.130631056169e-03 
-8.949695730274e-04 -1.944201834166e-04 0.0 
-1.944201834166e-04 5.973169188704e-03 0.0 
0.0 0.0 -8.953295484280e-04 
-8.818948229553e-04 -1.808766535773e-04 0.0 
-1.808766535773e-04 5.810855732820e-03 0.0 
0.0 0.0 -8.720525204519e-04 
-1.180322083838e-03 -2.544019696132e-04 0.0 
-2.544019696132e-04 8.044684295215e-03 0.0 
0.0 0.0 -1.193584144721e-03 
-1.074317409630e-03 -2.028987224977e-04 0.0 
-2.028987224977e-04 7.209609754449e-03 0.0 
0.0 0.0 -1.073433710836e-03 
-9.845138767756e-04 1.933324893147e-04 0.0 
1.933324893147e-04 6.502529959442e-03 0.0 
0.0 0.0 -9.841343610905e-04 
-1.074220521467e-03 1.937044770005e-04 0.0 
1.937044770005e-04 7.133220182241e-03 0.0 
0.0 0.0 -1.073677668998e-03 
-5.827062234069e-04 -1.941542500793e-04 0.0 
-1.941542500793e-04 3.817750575136e-03 0.0 
0.0 0.0 -5.862626530914e-04 
-5.447661780291e-04 -1.955268079661e-04 0.0 
-1.955268079661e-04 3.556218869368e-03 0.0 
0.0 0.0 -5.488365039436e-04 
-3.200298242820e-04 -2.008010355192e-04 0.0 
-2.008010355192e-04 1.912733596730e-03 0.0 
0.0 0.0 -3.130684191733e-04 
-9.610361432964e-04 -1.937939784478e-04 0.0 
-1.937939784478e-04 6.432925566233e-03 0.0 
0.0 0.0 -9.612598090090e-04 
-5.730915420071e-04 -1.993284364060e-04 0.0 
-1.993284364060e-04 3.756322275087e-03 0.0 
0.0 0.0 -5.775003002374e-04 
-9.676234080517e-04 -1.978430549766e-04 0.0 
-1.978430549766e-04 6.470709836540e-03 0.0 
0.0 0.0 -9.686535345556e-04 
-9.307775843259e-04 -2.009567450900e-04 0.0 
-2.009567450900e-04 6.218061512745e-03 0.0 
0.0 0.0 -9.322463471790e-04 
-7.694630900908e-04 -1.939675917432e-04 0.0 
-1.939675917432e-04 5.091771385307e-03 0.0 
0.0 0.0 -7.690363516573e-04 
-4.826168522867e-04 1.966675666533e-04 0.0 
1.966675666533e-04 3.022691758795e-03 0.0 
0.0 0.0 -4.860199686152e-04 
-5.166152208990e-04 1.895375761803e-04 0.0 
1.895375761803e-04 3.232772262981e-03 0.0 
0.0 0.0 -5.148587792422e-04 
-5.108840173734e-04 1.960376866878e-04 0.0 
1.960376866878e-04 3.223531247209e-03 0.0 
0.0 0.0 -5.143448975765e-04 
-5.481816317278e-04 1.962623655860e-04 0.0 
1.962623655860e-04 3.484569495256e-03 0.0 
0.0 0.0 -5.517963299543e-04 
-3.453277696027e-04 1.969675537480e-04 0.0 
1.969675537480e-04 2.040898908983e-03 0.0 
0.0 0.0 -3.446931235564e-04 
-1.101052151537e-03 -1.995058256317e-04 0.0 
-1.995058256317e-04 7.411556171306e-03 0.0 
0.0 0.0 -1.101849228970e-03 
-6.632570071373e-04 1.923578636572e-04 0.0 
1.923578636572e-04 4.270077985980e-03 0.0 
0.0 0.0 -6.642957827475e-04 
-1.108318305334e-03 -2.031784349513e-04 0.0 
-2.031784349513e-04 7.443886566257e-03 0.0 
0.0 0.0 -1.107989045227e-03 
-7.011090036509e-04 1.927949869008e-04 0.0 
1.927949869008e-04 4.532588404756e-03 0.0 
0.0 0.0 -7.013039408444e-04 
-9.265731680826e-04 1.957284230983e-04 0.0 
1.957284230983e-04 6.103426765876e-03 0.0 
0.0 0.0 -9.268471029391e-04 
-7.946469523286e-04 1.955747403875e-04 0.0 
1.955747403875e-04 5.185524606882e-03 0.0 
0.0 0.0 -7.951651613512e-04 
-7.572756681299e-04 -1.872685007042e-04 0.0 
-1.872685007042e-04 5.004494979540e-03 0.0 
0.0 0.0 -7.567435594048e-04 
-3.404029927324e-04 -1.917944120496e-04 0.0 
-1.917944120496e-04 2.114741006724e-03 0.0 
0.0 0.0 -3.417109511102e-04 
-1.168366620594e-03 1.821653519024e-04 0.0 
1.821653519024e-04 7.733894625141e-03 0.0 
0.0 0.0 -1.161691925552e-03 
-1.208283455631e-03 -2.138622136652e-04 0.0 
-2.138622136652e-04 8.118515122607e-03 0.0 
0.0 0.0 -1.198716319349e-03 
-9.647894746907e-04 1.840623527821e-04 0.0 
1.840623527821e-04 6.374025584992e-03 0.0 
0.0 0.0 -9.650368815299e-04 
-5.866113351029e-04 1.997061311369e-04 0.0 
1.997061311369e-04 3.745701321029e-03 0.0 
0.0 0.0 -5.892385666867e-04 
-8.606873822814e-04 1.952603744915e-04 0.0 
1.952603744915e-04 5.644314043148e-03 0.0 
0.0 0.0 -8.609535187098e-04 
-9.731621015165e-04 2.042240848123e-04 0.0 
2.042240848123e-04 6.416634786867e-03 0.0 
0.0 0.0 -9.708520278613e-04 
-6.114505218060e-04 -1.970451499323e-04 0.0 
-1.970451499323e-04 4.016656707276e-03 0.0 
0.0 0.0 -6.148791393494e-04 
-6.402153518211e-04 -1.799304007789e-04 0.0 
-1.799304007789e-04 4.195134185684e-03 0.0 
0.0 0.0 -6.394234923164e-04 
-4.756790629449e-04 -1.970276149029e-04 0.0 
-1.970276149029e-04 3.037216567460e-03 0.0 
0.0 0.0 -4.739097840058e-04 
-4.115649622254e-04 -1.881038262711e-04 0.0 
-1.881038262711e-04 2.615008917890e-03 0.0 
0.0 0.0 -4.132304097957e-04 
-6.210949620284e-04 -1.921853512952e-04 0.0 
-1.921853512952e-04 4.079647892730e-03 0.0 
0.0 0.0 -6.236739531379e-04 
-4.389003653302e-04 1.899270358255e-04 0.0 
1.899270358255e-04 2.702990318359e-03 0.0 
0.0 0.0 -4.393534411964e-04 
-3.957050609942e-04 -2.005038904365e-04 0.0 
-2.005038904365e-04 2.512628569390e-03 0.0 
0.0 0.0 -3.988888273503e-04 
-7.912937221892e-04 -1.931036918808e-04 0.0 
-1.931036918808e-04 5.255690323409e-03 0.0 
0.0 0.0 -7.922809795675e-04 
-9.555190717992e-04 1.953941988256e-04 0.0 
1.953941988256e-04 6.303135181036e-03 0.0 
0.0 0.0 -9.554846610150e-04 
-1.131935364223e-03 1.749369794292e-04 0.0 
1.749369794292e-04 7.516475401832e-03 0.0 
0.0 0.0 -1.128610778606e-03 
-7.677587316374e-05 5.132629422694e-05 0.0 
5.132629422694e-05 2.950272314679e-04 0.0 
0.0 0.0 -4.808883996072e-05 
-6.821273879061e-04 1.885153294961e-04 0.0 
1.885153294961e-04 4.394625922574e-03 0.0 
0.0 0.0 -6.818868151028e-04 
-6.732798359077e-04 1.896419879917e-04 0.0 
1.896419879917e-04 4.334337175818e-03 0.0 
0.0 0.0 -6.732431144785e-04 
-6.253359345237e-04 1.966841986602e-04 0.0 
1.966841986602e-04 4.007688208335e-03 0.0 
0.0 0.0 -6.268095852860e-04 
-9.342352764228e-04 1.992757766659e-04 0.0 
1.992757766659e-04 6.164738867849e-03 0.0 
0.0 0.0 -9.344164207832e-04 
-7.286499736728e-04 1.960851222300e-04 0.0 
1.960851222300e-04 4.727094990713e-03 0.0 
0.0 0.0 -7.295442444478e-04 
-5.028967805497e-04 2.032690915996e-04 0.0 
2.032690915996e-04 3.169465929495e-03 0.0 
0.0 0.0 -5.055050897130e-04 
-6.594115462037e-04 -1.877379034349e-04 0.0 
-1.877379034349e-04 4.343026444268e-03 0.0 
0.0 0.0 -6.611654675676e-04 
-1.086852433707e-03 1.972393602690e-04 0.0 
1.972393602690e-04 7.180508805687e-03 0.0 
0.0 0.0 -1.080452943103e-03 
-5.134906191046e-04 -1.975407525199e-04 0.0 
-1.975407525199e-04 3.241783811479e-03 0.0 
0.0 0.0 -5.025663706543e-04 
-2.068765507079e-04 1.780811299395e-04 0.0 
1.780811299395e-04 1.103158600140e-03 0.0 
0.0 0.0 -2.132551421006e-04 
-2.821446593325e-04 1.850947824847e-04 0.0 
1.850947824847e-04 1.595379339776e-03 0.0 
0.0 0.0 -2.784575373548e-04 
-4.423162808512e-04 1.966617048387e-04 0.0 
1.966617048387e-04 2.737975260110e-03 0.0 
0.0 0.0 -4.444240490352e-04 
-5.210766744923e-04 1.945752899053e-04 0.0 
1.945752899053e-04 3.285513932229e-03 0.0 
0.0 0.0 -5.239304829885e-04 
-7.103179674583e-04 1.937608556774e-04 0.0 
1.937608556774e-04 4.594082704701e-03 0.0 
0.0 0.0 -7.099160536912e-04 
-6.974191009825e-04 -1.859522295000e-04 0.0 
-1.859522295000e-04 4.604175499566e-03 0.0 
0.0 0.0 -6.984076724203e-04 
-3.111089899344e-04 -2.166751455615e-04 0.0 
-2.166751455615e-04 1.884393958953e-03 0.0 
0.0 0.0 -3.092759564244e-04 
-2.948433446492e-04 -2.106961415147e-04 0.0 
-2.106961415147e-04 1.651650768654e-03 0.0 
0.0 0.0 -2.765202162382e-04 
-9.029473964606e-04 -2.318038937515e-04 0.0 
-2.318038937515e-04 5.899437226641e-03 0.0 
0.0 0.0 -8.885078876198e-04 
-4.353328022797e-04 -2.074729337185e-04 0.0 
-2.074729337185e-04 2.774644133327e-03 0.0 
0.0 0.0 -4.363975895258e-04 
-1.066115861838e-03 1.923323182630e-04 0.0 
1.923323182630e-04 7.082058213666e-03 0.0 
0.0 0.0 -1.067401112627e-03 
-1.093430528172e-03 1.859529625015e-04 0.0 
1.859529625015e-04 7.265648937776e-03 0.0 
0.0 0.0 -1.093380752811e-03 
-9.055761456836e-04 -1.909848796464e-04 0.0 
-1.909848796464e-04 6.010442057108e-03 0.0 
0.0 0.0 -9.013836717722e-04 
-1.127393681638e-03 1.896887369255e-04 0.0 
1.896887369255e-04 7.503433377312e-03 0.0 
0.0 0.0 -1.126084317643e-03 
-1.155463123535e-03 1.744033292086e-04 0.0 
1.744033292086e-04 7.751673747269e-03 0.0 
0.0 0.0 -1.164310864388e-03 
-7.420687839784e-04 -1.936328330323e-04 0.0 
-1.936328330323e-04 4.896453187980e-03 0.0 
0.0 0.0 -7.408850503417e-04 
-1.028946225618e-03 1.859237494967e-04 0.0 
1.859237494967e-04 6.817745899264e-03 0.0 
0.0 0.0 -1.029042339204e-03 
-3.444765648257e-04 -1.889029113480e-04 0.0 
-1.889029113480e-04 2.157321474184e-03 0.0 
0.0 0.0 -3.474733517438e-04 
-6.874756161392e-04 -1.926159426764e-04 0.0 
-1.926159426764e-04 4.537720382930e-03 0.0 
0.0 0.0 -6.894573431515e-04 
-6.898061862195e-04 1.857511077276e-04 0.0 
1.857511077276e-04 4.440388507088e-03 0.0 
0.0 0.0 -6.879681371099e-04 
-4.019279772504e-04 1.778728342642e-04 0.0 
1.778728342642e-04 2.433102799940e-03 0.0 
0.0 0.0 -3.974404770784e-04 
-2.808996377463e-04 -1.954566177410e-04 0.0 
-1.954566177410e-04 1.711546538442e-03 0.0 
0.0 0.0 -2.813757158202e-04 
-5.769851111882e-04 1.945968129497e-04 0.0 
1.945968129497e-04 3.685550638925e-03 0.0 
0.0 0.0 -5.804062017457e-04 
-6.698465200997e-04 -1.848151346018e-04 0.0 
-1.848151346018e-04 4.407215399786e-03 0.0 
0.0 0.0 -6.703429011759e-04 
-7.069533997817e-04 -1.864555130782e-04 0.0 
-1.864555130782e-04 4.664424843705e-03 0.0 
0.0 0.0 -7.070647534220e-04 
-4.705619805672e-04 1.797584254588e-04 0.0 
1.797584254588e-04 2.905608131468e-03 0.0 
0.0 0.0 -4.680152132766e-04 
-7.664680765081e-04 1.944574444008e-04 0.0 
1.944574444008e-04 4.988010799345e-03 0.0 
0.0 0.0 -7.666177146937e-04 
-6.793079833929e-04 -1.842955306639e-04 0.0 
-1.842955306639e-04 4.467105658874e-03 0.0 
0.0 0.0 -6.790125122095e-04 
-7.192535587873e-04 1.886174479633e-04 0.0 
1.886174479633e-04 4.651675493154e-03 0.0 
0.0 0.0 -7.183521444552e-04 
-5.167516635029e-04 -1.889877885737e-04 0.0 
-1.889877885737e-04 3.361424050145e-03 0.0 
0.0 0.0 -5.205443542100e-04 
-9.916854113118e-04 -1.973034417569e-04 0.0 
-1.973034417569e-04 6.645632539252e-03 0.0 
0.0 0.0 -9.921115096417e-04 
-1.000725886826e-03 -2.001881518318e-04 0.0 
-2.001881518318e-04 6.682457666445e-03 0.0 
0.0 0.0 -9.984673180475e-04 
-6.910740697019e-04 1.869291771831e-04 0.0 
1.869291771831e-04 4.454330638785e-03 0.0 
0.0 0.0 -6.904379518788e-04 
-1.131075422052e-03 1.930354118908e-04 0.0 
1.930354118908e-04 7.540452433703e-03 0.0 
0.0 0.0 -1.133495712197e-03 
-3.818178823842e-04 -1.881304660736e-04 0.0 
-1.881304660736e-04 2.417279904182e-03 0.0 
0.0 0.0 -3.849690761666e-04 
-1.204919198583e-03 2.055908933390e-04 0.0 
2.055908933390e-04 8.107807864514e-03 0.0 
0.0 0.0 -1.208505026952e-03 
-7.381856154466e-04 1.951283212297e-04 0.0 
1.951283212297e-04 4.788651758778e-03 0.0 
0.0 0.0 -7.381355003807e-04 
-1.179893914325e-03 2.326195910896e-04 0.0 
2.326195910896e-04 8.057192319457e-03 0.0 
0.0 0.0 -1.203459118631e-03 
-9.174882615910e-04 -1.900236548233e-04 0.0 
-1.900236548233e-04 6.103327033778e-03 0.0 
0.0 0.0 -9.144069900286e-04 
-3.759838339719e-04 1.980975432101e-04 0.0 
1.980975432101e-04 2.280850535288e-03 0.0 
0.0 0.0 -3.788569260404e-04 
-9.329446838714e-04 -1.934956866743e-04 0.0 
-1.934956866743e-04 6.203824333692e-03 0.0 
0.0 0.0 -9.292863832265e-04 
-1.148316362968e-03 1.911406139228e-04 0.0 
1.911406139228e-04 7.656686617329e-03 0.0 
0.0 0.0 -1.148369591821e-03 
-7.751955477395e-04 1.935539670278e-04 0.0 
1.935539670278e-04 5.048248374235e-03 0.0 
0.0 0.0 -7.747733155264e-04 
-5.636121724150e-04 -1.856060269499e-04 0.0 
-1.856060269499e-04 3.652721039859e-03 0.0 
0.0 0.0 -5.621395992319e-04 
-9.592421645063e-04 -1.953589560094e-04 0.0 
-1.953589560094e-04 6.397497054977e-03 0.0 
0.0 0.0 -9.572423940436e-04 
-7.410203931499e-04 1.888947749689e-04 0.0 
1.888947749689e-04 4.805195564350e-03 0.0 
0.0 0.0 -7.402445244775e-04 
-3.049241937385e-04 2.026327067247e-04 0.0 
2.026327067247e-04 1.807680481835e-03 0.0 
0.0 0.0 -3.123079531677e-04 
-1.247303547099e-03 2.054291781831e-04 0.0 
2.054291781831e-04 8.428743189038e-03 0.0 
0.0 0.0 -1.259077240559e-03 
-2.832321787004e-04 2.033440710738e-04 0.0 
2.033440710738e-04 1.568411261078e-03 0.0 
0.0 0.0 -2.747754844540e-04 
-1.180725818141e-03 -1.959284539652e-04 0.0 
-1.959284539652e-04 8.086063063664e-03 0.0 
0.0 0.0 -1.194426649262e-03 
-1.181044415914e-03 1.885702677113e-04 0.0 
1.885702677113e-04 7.848025462359e-03 0.0 
0.0 0.0 -1.175981821618e-03 
-1.019774229424e-03 -1.968009652079e-04 0.0 
-1.968009652079e-04 6.844195853493e-03 0.0 
0.0 0.0 -1.020516803968e-03 
-9.063963003823e-04 2.216702355020e-04 0.0 
2.216702355020e-04 5.948302852210e-03 0.0 
0.0 0.0 -9.041796124736e-04 
-1.096159842107e-03 -2.041353887510e-04 0.0 
-2.041353887510e-04 7.354511593932e-03 0.0 
0.0 0.0 -1.094228678348e-03 
-7.158215028594e-04 -1.849822212150e-04 0.0 
-1.849822212150e-04 4.721957550486e-03 0.0 
0.0 0.0 -7.154996274706e-04 
-8.342688439829e-04 -1.960354733344e-04 0.0 
-1.960354733344e-04 5.542507863884e-03 0.0 
0.0 0.0 -8.337527902170e-04 
-1.179248762261e-03 1.915113563363e-04 0.0 
1.915113563363e-04 7.953436829066e-03 0.0 
0.0 0.0 -1.191782302182e-03 
-1.022355738208e-03 1.947903411638e-04 0.0 
1.947903411638e-04 6.764095762217e-03 0.0 
0.0 0.0 -1.021464098896e-03 
-1.029803380413e-03 -1.995345647328e-04 0.0 
-1.995345647328e-04 6.892395198165e-03 0.0 
0.0 0.0 -1.028225029406e-03 
-9.800703698298e-04 2.033610077795e-04 0.0 
2.033610077795e-04 6.469215121367e-03 0.0 
0.0 0.0 -9.780777104595e-04 
-3.460311380533e-04 1.949105016323e-04 0.0 
1.949105016323e-04 2.083431817991e-03 0.0 
0.0 0.0 -3.505936111242e-04 
-1.056998258985e-03 -2.024071474235e-04 0.0 
-2.024071474235e-04 7.098571223248e-03 0.0 
0.0 0.0 -1.057861461704e-03 
-1.245215734681e-03 -2.948889405528e-06 0.0 
-2.948889405528e-06 8.708064260567e-03 0.0 
0.0 0.0 -1.268085107495e-03 
-1.199968332554e-03 2.184447548861e-04 0.0 
2.184447548861e-04 8.021680446852e-03 0.0 
0.0 0.0 -1.202195648613e-03 
-6.908555778157e-04 1.952647486751e-04 0.0 
1.952647486751e-04 4.467406980685e-03 0.0 
0.0 0.0 -6.923681691211e-04 
-8.989504497264e-04 -2.030487714898e-04 0.0 
-2.030487714898e-04 5.998411166372e-03 0.0 
0.0 0.0 -9.020111041354e-04 
-8.706850616848e-04 2.163039302349e-04 0.0 
2.163039302349e-04 5.704755713039e-03 0.0 
0.0 0.0 -8.677534307045e-04 
-7.350398663415e-04 -1.921852650882e-04 0.0 
-1.921852650882e-04 4.858429528850e-03 0.0 
0.0 0.0 -7.352749011056e-04 
-9.925381973484e-04 1.968648573772e-04 0.0 
1.968648573772e-04 6.563559215451e-03 0.0 
0.0 0.0 -9.927925938929e-04 
-1.029028532084e-03 1.960911717032e-04 0.0 
1.960911717032e-04 6.822296250893e-03 0.0 
0.0 0.0 -1.030113165296e-03 
-2.401332151859e-04 -2.098625103456e-04 0.0 
-2.098625103456e-04 1.444865681486e-03 0.0 
0.0 0.0 -2.466400652194e-04 
-4.534206567438e-04 1.915983849917e-04 0.0 
1.915983849917e-04 2.786638049385e-03 0.0 
0.0 0.0 -4.508272210452e-04 
-7.276651503282e-04 1.887396446789e-04 0.0 
1.887396446789e-04 4.711996878728e-03 0.0 
0.0 0.0 -7.269793770173e-04 
-6.885109501690e-04 -1.881460235650e-04 0.0 
-1.881460235650e-04 4.526125077483e-03 0.0 
0.0 0.0 -6.875569550716e-04 
-7.327380615622e-04 1.893031023786e-04 0.0 
1.893031023786e-04 4.746976141071e-03 0.0 
0.0 0.0 -7.320784846625e-04 
-1.207414471784e-03 -1.921627464004e-04 0.0 
-1.921627464004e-04 8.251115158096e-03 0.0 
0.0 0.0 -1.225426844749e-03 
-1.165911235799e-03 1.728266951447e-04 0.0 
1.728266951447e-04 7.751919212480e-03 0.0 
0.0 0.0 -1.162686153705e-03 
-1.174125183305e-03 -1.966474411141e-04 0.0 
-1.966474411141e-04 7.895985343999e-03 0.0 
0.0 0.0 -1.173632101657e-03 
-6.588438363323e-04 -1.812037125044e-04 0.0 
-1.812037125044e-04 4.301364332342e-03 0.0 
0.0 0.0 -6.556197767577e-04 
-1.082747471146e-03 1.891035132956e-04 0.0 
1.891035132956e-04 7.201407994730e-03 0.0 
0.0 0.0 -1.082713561900e-03 
-9.901836726999e-04 -1.945402384494e-04 0.0 
-1.945402384494e-04 6.633588115461e-03 0.0 
0.0 0.0 -9.899156953211e-04 
-1.203900706285e-03 2.001643692103e-04 0.0 
2.001643692103e-04 8.020307122063e-03 0.0 
0.0 0.0 -1.198415070424e-03 
-1.018917370980e-03 -2.029360126540e-04 0.0 
-2.029360126540e-04 6.841232066874e-03 0.0 
0.0 0.0 -1.021631336281e-03 
-7.252862927281e-04 -1.917571483024e-04 0.0 
-1.917571483024e-04 4.797885526736e-03 0.0 
0.0 0.0 -7.266350563285e-04 
-6.996186826148e-04 1.874149340260e-04 0.0 
1.874149340260e-04 4.515630015583e-03 0.0 
0.0 0.0 -6.989458521267e-04 
-1.062701287971e-03 1.919893444833e-04 0.0 
1.919893444833e-04 7.044103527011e-03 0.0 
0.0 0.0 -1.060111126929e-03 
-1.159236038185e-03 -2.100410646673e-04 0.0 
-2.100410646673e-04 7.815649065545e-03 0.0 
0.0 0.0 -1.160283895044e-03 
-1.068044840095e-03 1.975027097547e-04 0.0 
1.975027097547e-04 7.089380260529e-03 0.0 
0.0 0.0 -1.066842251349e-03 
-1.033322736071e-03 1.952546159750e-04 0.0 
1.952546159750e-04 6.838585495745e-03 0.0 
0.0 0.0 -1.030428295937e-03 
-1.127957771235e-03 2.034159333984e-04 0.0 
2.034159333984e-04 7.486625778373e-03 0.0 
0.0 0.0 -1.124756152480e-03 
-1.155677614868e-03 -1.983866149801e-04 0.0 
-1.983866149801e-04 7.868967508162e-03 0.0 
0.0 0.0 -1.167530213646e-03 
-1.094507555949e-03 1.976519323402e-04 0.0 
1.976519323402e-04 7.281086392671e-03 0.0 
0.0 0.0 -1.096139997395e-03 
-8.893531318376e-04 1.947803294653e-04 0.0 
1.947803294653e-04 5.843023406601e-03 0.0 
0.0 0.0 -8.895595506238e-04 
-6.419372915529e-04 1.659854799663e-04 0.0 
1.659854799663e-04 4.112940198776e-03 0.0 
0.0 0.0 -6.419897747600e-04 
-1.057958817333e-03 -1.915382936822e-04 0.0 
-1.915382936822e-04 7.093836536897e-03 0.0 
0.0 0.0 -1.057160997780e-03 
-1.010397126926e-03 1.924777478118e-04 0.0 
1.924777478118e-04 6.699973834187e-03 0.0 
0.0 0.0 -1.010795753303e-03 
-4.010552004860e-04 1.841654314204e-04 0.0 
1.841654314204e-04 2.442507368575e-03 0.0 
0.0 0.0 -4.018221946533e-04 
-7.246063133898e-04 -1.880612964647e-04 0.0 
-1.880612964647e-04 4.782342909510e-03 0.0 
0.0 0.0 -7.241222962603e-04 
-8.198364604858e-04 1.863931235936e-04 0.0 
1.863931235936e-04 5.353653336719e-03 0.0 
0.0 0.0 -8.193994707270e-04 
-8.991995514688e-04 -1.967035222147e-04 0.0 
-1.967035222147e-04 5.995025760983e-03 0.0 
0.0 0.0 -8.986564694586e-04 
-4.050243053020e-04 1.994613475965e-04 0.0 
1.994613475965e-04 2.469637685563e-03 0.0 
0.0 0.0 -4.057256964758e-04 
-6.967689891126e-04 -1.888281546422e-04 0.0 
-1.888281546422e-04 4.585730407348e-03 0.0 
0.0 0.0 -6.962026719631e-04 
-9.643194553962e-04 -1.980704148003e-04 0.0 
-1.980704148003e-04 6.448875351116e-03 0.0 
0.0 0.0 -9.636952012155e-04 
-7.333735645701e-04 1.825225121090e-04 0.0 
1.825225121090e-04 4.734280668460e-03 0.0 
0.0 0.0 -7.294090860402e-04 
-7.570403720066e-04 1.947967854262e-04 0.0 
1.947967854262e-04 4.925685443404e-03 0.0 
0.0 0.0 -7.579899565570e-04 
-9.487659951765e-04 -2.043170517302e-04 0.0 
-2.043170517302e-04 6.373556266418e-03 0.0 
0.0 0.0 -9.556638187253e-04 
-7.610430462996e-04 1.745184878598e-04 0.0 
1.745184878598e-04 5.044670069107e-03 0.0 
0.0 0.0 -7.638029664831e-04 
-1.838096952562e-04 2.082695791090e-04 0.0 
2.082695791090e-04 7.724611367138e-04 0.0 
0.0 0.0 -1.578647551136e-04 
-8.576241388509e-04 -1.943288446579e-04 0.0 
-1.943288446579e-04 5.714280224429e-03 0.0 
0.0 0.0 -8.580817703278e-04 
-1.051194806149e-03 1.905396044606e-04 0.0 
1.905396044606e-04 6.972468322912e-03 0.0 
0.0 0.0 -1.051835763028e-03 
-1.194223105728e-03 2.022847639454e-04 0.0 
2.022847639454e-04 8.008401190618e-03 0.0 
0.0 0.0 -1.196871286280e-03 
-8.007996408172e-04 1.886044981360e-04 0.0 
1.886044981360e-04 5.220729595959e-03 0.0 
0.0 0.0 -7.999758813884e-04 
-8.231738978705e-04 1.954670675702e-04 0.0 
1.954670675702e-04 5.384433434041e-03 0.0 
0.0 0.0 -8.237210115815e-04 
-9.659298580920e-04 -1.974560001277e-04 0.0 
-1.974560001277e-04 6.432078237772e-03 0.0 
0.0 0.0 -9.620958722924e-04 
-2.561485936919e-04 2.198683939719e-04 0.0 
2.198683939719e-04 1.251380499119e-03 0.0 
0.0 0.0 -2.247161217206e-04 
-1.023132414130e-03 1.887327440294e-04 0.0 
1.887327440294e-04 6.775332410064e-03 0.0 
0.0 0.0 -1.023361637732e-03 
-8.622181034216e-04 -1.951138773543e-04 0.0 
-1.951138773543e-04 5.740266887697e-03 0.0 
0.0 0.0 -8.619475031456e-04 
-7.647880329061e-04 -1.862411199866e-04 0.0 
-1.862411199866e-04 5.038541863179e-03 0.0 
0.0 0.0 -7.615729788896e-04 
-1.027082371763e-03 -1.922014268245e-04 0.0 
-1.922014268245e-04 6.892038875610e-03 0.0 
0.0 0.0 -1.027225276160e-03 
-3.935518598364e-04 -1.714817472150e-04 0.0 
-1.714817472150e-04 2.494688902106e-03 0.0 
0.0 0.0 -3.946419382404e-04 
-1.063411595146e-03 -1.940895073894e-04 0.0 
-1.940895073894e-04 7.151260433919e-03 0.0 
0.0 0.0 -1.064556537081e-03 
-1.170769687049e-03 1.998990496914e-04 0.0 
1.998990496914e-04 7.807167189230e-03 0.0 
0.0 0.0 -1.170878753521e-03 
-9.957874322238e-04 1.860819940760e-04 0.0 
1.860819940760e-04 6.577964668805e-03 0.0 
0.0 0.0 -9.948919501216e-04 
-1.066802879167e-03 -1.994715727017e-04 0.0 
-1.994715727017e-04 7.144842154603e-03 0.0 
0.0 0.0 -1.064574987933e-03 
-1.080893362265e-03 -2.009448288778e-04 0.0 
-2.009448288778e-04 7.278345089593e-03 0.0 
0.0 0.0 -1.082686220397e-03 
-1.164339334361e-03 -2.029535809834e-04 0.0 
-2.029535809834e-04 7.872490943299e-03 0.0 
0.0 0.0 -1.168035910845e-03 
-3.299141803929e-04 2.316983388686e-04 0.0 
2.316983388686e-04 1.731538717207e-03 0.0 
0.0 0.0 -2.917408095836e-04 
-9.904023149971e-04 -1.959122471390e-04 0.0 
-1.959122471390e-04 6.637118298013e-03 0.0 
0.0 0.0 -9.919185416031e-04 
-1.168730602385e-03 -1.909886301280e-04 0.0 
-1.909886301280e-04 7.900162167174e-03 0.0 
0.0 0.0 -1.173906618061e-03 
-1.099721820410e-03 1.948899321208e-04 0.0 
1.948899321208e-04 7.299287446510e-03 0.0 
0.0 0.0 -1.096489272820e-03 
-9.304220125416e-04 1.873101926856e-04 0.0 
1.873101926856e-04 6.124362452359e-03 0.0 
0.0 0.0 -9.297700869391e-04 
-7.330744366569e-04 -1.923064886364e-04 0.0 
-1.923064886364e-04 4.838398720579e-03 0.0 
0.0 0.0 -7.325247082200e-04 
-8.060696050279e-04 1.870863771178e-04 0.0 
1.870863771178e-04 5.268149186535e-03 0.0 
0.0 0.0 -8.069452076110e-04 
-2.418248245405e-04 2.109020271233e-04 0.0 
2.109020271233e-04 1.359709000534e-03 0.0 
0.0 0.0 -2.482170483719e-04 
-1.134273257583e-03 1.988705509169e-04 0.0 
1.988705509169e-04 7.550007886780e-03 0.0 
0.0 0.0 -1.132911322290e-03 
-4.274524748729e-04 1.964334948297e-04 0.0 
1.964334948297e-04 2.645397720372e-03 0.0 
0.0 0.0 -4.309687334850e-04 
-3.881418594362e-04 1.833155679552e-04 0.0 
1.833155679552e-04 2.160044348329e-03 0.0 
0.0 0.0 -3.582286249851e-04 
-1.052002855886e-03 -1.883464211935e-04 0.0 
-1.883464211935e-04 7.074906707182e-03 0.0 
0.0 0.0 -1.054483161448e-03 
-1.207081545900e-03 1.915242773210e-04 0.0 
1.915242773210e-04 8.072287243083e-03 0.0 
0.0 0.0 -1.206783194404e-03 
-3.547804392097e-04 -1.807868565671e-04 0.0 
-1.807868565671e-04 2.226917608771e-03 0.0 
0.0 0.0 -3.573182248098e-04 
-8.366419951608e-04 -1.885488255626e-04 0.0 
-1.885488255626e-04 5.554595282055e-03 0.0 
0.0 0.0 -8.358581584049e-04 
-1.023802301552e-03 1.940941463560e-04 0.0 
1.940941463560e-04 6.787907294573e-03 0.0 
0.0 0.0 -1.023814440555e-03 
-7.829083596588e-04 -1.954293300843e-04 0.0 
-1.954293300843e-04 5.194152372337e-03 0.0 
0.0 0.0 -7.840072721007e-04 
-4.010673323255e-04 -1.915498976049e-04 0.0 
-1.915498976049e-04 2.542328077149e-03 0.0 
0.0 0.0 -4.027365510179e-04 
-5.321744599270e-04 1.883621527591e-04 0.0 
1.883621527591e-04 3.333505553591e-03 0.0 
0.0 0.0 -5.292697486782e-04 
-2.639771075772e-04 1.646102614639e-04 0.0 
1.646102614639e-04 1.613590548762e-03 0.0 
0.0 0.0 -2.862163191752e-04 
-3.553659692627e-04 1.943928252885e-04 0.0 
1.943928252885e-04 2.154693693140e-03 0.0 
0.0 0.0 -3.608158092454e-04 
-3.249476260035e-04 1.935471720913e-04 0.0 
1.935471720913e-04 1.899890607766e-03 0.0 
0.0 0.0 -3.238926756799e-04 
-8.653379371193e-04 1.875602502826e-04 0.0 
1.875602502826e-04 5.671952828596e-03 0.0 
0.0 0.0 -8.647910268431e-04 
-1.297827382279e-03 4.785112367208e-06 0.0 
4.785112367208e-06 9.109555355960e-03 0.0 
0.0 0.0 -1.324146187826e-03 
-4.467143920628e-04 1.726574000167e-04 0.0 
1.726574000167e-04 2.617142877359e-03 0.0 
0.0 0.0 -4.244337567297e-04 
-1.156016819955e-03 1.914756519666e-04 0.0 
1.914756519666e-04 7.686772050836e-03 0.0 
0.0 0.0 -1.153422328581e-03 
-6.441918423607e-04 1.888512827500e-04 0.0 
1.888512827500e-04 4.126863023303e-03 0.0 
0.0 0.0 -6.430507458085e-04 
-9.827241532880e-04 -2.074075714334e-04 0.0 
-2.074075714334e-04 6.589898560790e-03 0.0 
0.0 0.0 -9.856407671940e-04 
-3.167090590366e-04 1.983492302007e-04 0.0 
1.983492302007e-04 1.826080605665e-03 0.0 
0.0 0.0 -3.129386394028e-04 
-1.211080746195e-03 -1.918872231890e-04 0.0 
-1.918872231890e-04 8.120902711811e-03 0.0 
0.0 0.0 -1.206759618350e-03 
-3.103668027405e-04 -1.740204278261e-04 0.0 
-1.740204278261e-04 1.967988296131e-03 0.0 
0.0 0.0 -3.202688159031e-04 
-4.904887743195e-04 1.972396724306e-04 0.0 
1.972396724306e-04 3.115116694861e-03 0.0 
0.0 0.0 -4.995972236199e-04 
-1.033982221523e-03 1.864504257491e-04 0.0 
1.864504257491e-04 6.836114975340e-03 0.0 
0.0 0.0 -1.031547093314e-03 
-7.437947252401e-04 -1.892750744378e-04 0.0 
-1.892750744378e-04 4.914077369227e-03 0.0 
0.0 0.0 -7.436172176343e-04 
-1.132860593058e-03 -1.933960126785e-04 0.0 
-1.933960126785e-04 7.665930668868e-03 0.0 
0.0 0.0 -1.139062866688e-03 
-5.749455652610e-04 -1.941924528231e-04 0.0 
-1.941924528231e-04 3.751246786669e-03 0.0 
0.0 0.0 -5.762899171568e-04 
-1.046111348023e-03 -1.920749274324e-04 0.0 
-1.920749274324e-04 7.006833931181e-03 0.0 
0.0 0.0 -1.044446328659e-03 
-1.179461128015e-03 1.956649310083e-04 0.0 
1.956649310083e-04 7.993560630903e-03 0.0 
0.0 0.0 -1.198892520503e-03 
-9.969097330870e-04 1.983464851525e-04 0.0 
1.983464851525e-04 6.585106213614e-03 0.0 
0.0 0.0 -9.940794652285e-04 
-1.204741342101e-03 -1.841288982353e-04 0.0 
-1.841288982353e-04 8.066681748081e-03 0.0 
0.0 0.0 -1.194784139986e-03 
-1.085983696521e-03 -2.024519851536e-04 0.0 
-2.024519851536e-04 7.301290877674e-03 0.0 
0.0 0.0 -1.087318097122e-03 
-1.116801267184e-03 -2.016255265415e-04 0.0 
-2.016255265415e-04 7.509256724676e-03 0.0 
0.0 0.0 -1.116677092124e-03 
-3.616370043147e-04 1.787208051053e-04 0.0 
1.787208051053e-04 2.150891016686e-03 0.0 
0.0 0.0 -3.599422446610e-04 
-1.117518330453e-03 1.826877579253e-04 0.0 
1.826877579253e-04 7.419146366892e-03 0.0 
0.0 0.0 -1.115908039155e-03 
-1.052373239860e-03 1.884691524879e-04 0.0 
1.884691524879e-04 6.996291933739e-03 0.0 
0.0 0.0 -1.053364550114e-03 
-7.811189844041e-04 1.901992250616e-04 0.0 
1.901992250616e-04 5.082233377235e-03 0.0 
0.0 0.0 -7.792489223127e-04 
-5.208782508076e-04 1.844281060279e-04 0.0 
1.844281060279e-04 3.081353701983e-03 0.0 
0.0 0.0 -4.908673385051e-04 
-1.207263385308e-03 -1.938793257757e-04 0.0 
-1.938793257757e-04 8.301996435605e-03 0.0 
0.0 0.0 -1.232292820449e-03 
-4.172393042969e-04 1.982283144972e-04 0.0 
1.982283144972e-04 2.530985310794e-03 0.0 
0.0 0.0 -4.142712813041e-04 
-4.585162122278e-04 -2.188978008165e-04 0.0 
-2.188978008165e-04 2.969334744374e-03 0.0 
0.0 0.0 -4.655197245388e-04 
-1.104373486365e-03 2.012226859918e-04 0.0 
2.012226859918e-04 7.350396136819e-03 0.0 
0.0 0.0 -1.105063927110e-03 
-2.968425273524e-04 -1.642057746456e-04 0.0 
-1.642057746456e-04 1.792416919805e-03 0.0 
0.0 0.0 -2.939799329518e-04 
-7.924236500379e-04 -1.848261227190e-04 0.0 
-1.848261227190e-04 5.252920665959e-03 0.0 
0.0 0.0 -7.924235178053e-04 
-1.061921988885e-03 1.812104659022e-04 0.0 
1.812104659022e-04 7.031393709582e-03 0.0 
0.0 0.0 -1.059843925468e-03 
-1.181481514864e-03 -1.809401034033e-04 0.0 
-1.809401034033e-04 7.945597505832e-03 0.0 
0.0 0.0 -1.181155146799e-03 
-1.216519596998e-03 -1.765367581353e-04 0.0 
-1.765367581353e-04 8.170458135963e-03 0.0 
0.0 0.0 -1.210943746944e-03 
-1.030728582983e-03 -1.988607177777e-04 0.0 
-1.988607177777e-04 6.902267769970e-03 0.0 
0.0 0.0 -1.028825005900e-03 
-1.124714132978e-03 -2.064810197621e-04 0.0 
-2.064810197621e-04 7.559899990810e-03 0.0 
0.0 0.0 -1.123737208958e-03 
-6.812903531147e-04 1.901379600770e-04 0.0 
1.901379600770e-04 4.380740483724e-03 0.0 
0.0 0.0 -6.793824814286e-04 
-1.062351922354e-03 -1.985736001596e-04 0.0 
-1.985736001596e-04 7.130265690032e-03 0.0 
0.0 0.0 -1.062452857821e-03 
-5.858181118698e-04 1.875072715160e-04 0.0 
1.875072715160e-04 3.545318163494e-03 0.0 
0.0 0.0 -5.576509564599e-04 
-1.191462796189e-03 1.791343230628e-04 0.0 
1.791343230628e-04 7.859967464318e-03 0.0 
0.0 0.0 -1.181751882508e-03 
-6.536967362184e-04 1.840019481607e-04 0.0 
1.840019481607e-04 4.012532136349e-03 0.0 
0.0 0.0 -6.243763318321e-04 
-6.397657085008e-04 1.469527108766e-04 0.0 
1.469527108766e-04 4.231461376740e-03 0.0 
0.0 0.0 -6.577503189808e-04 
-7.727292442473e-04 1.893751122866e-04 0.0 
1.893751122866e-04 5.025497285819e-03 0.0 
0.0 0.0 -7.717627972493e-04 
-7.120157842108e-04 2.033227012875e-04 0.0 
2.033227012875e-04 4.491531755345e-03 0.0 
0.0 0.0 -6.911701761307e-04 
-8.847543506960e-04 -1.860726363622e-04 0.0 
-1.860726363622e-04 5.886975687793e-03 0.0 
0.0 0.0 -8.833033330409e-04 
-7.223081526863e-04 -1.890141103708e-04 0.0 
-1.890141103708e-04 4.756005682412e-03 0.0 
0.0 0.0 -7.209687761305e-04 
-7.611226546140e-04 -1.925027368286e-04 0.0 
-1.925027368286e-04 5.033487039423e-03 0.0 
0.0 0.0 -7.606211034647e-04 
-3.677272213406e-04 1.965668598146e-04 0.0 
1.965668598146e-04 2.206714062611e-03 0.0 
0.0 0.0 -3.685806404478e-04 
-7.360898597851e-04 1.893736919884e-04 0.0 
1.893736919884e-04 4.769891666686e-03 0.0 
0.0 0.0 -7.353490689725e-04 
-1.164475384932e-03 1.920424604491e-04 0.0 
1.920424604491e-04 7.760458237861e-03 0.0 
0.0 0.0 -1.162517914204e-03 
-1.189135404011e-03 2.424308074021e-04 0.0 
2.424308074021e-04 8.008663372928e-03 0.0 
0.0 0.0 -1.195263893373e-03 
-1.051433761328e-03 1.900846295013e-04 0.0 
1.900846295013e-04 6.962500509983e-03 0.0 
0.0 0.0 -1.050100468764e-03 
-1.163815806160e-03 1.939359249112e-04 0.0 
1.939359249112e-04 7.801481486737e-03 0.0 
0.0 0.0 -1.170266998156e-03 
-7.471505649133e-04 1.914654167736e-04 0.0 
1.914654167736e-04 4.846432176661e-03 0.0 
0.0 0.0 -7.463264885205e-04 
-1.116874559966e-03 1.925152765080e-04 0.0 
1.925152765080e-04 7.452691656896e-03 0.0 
0.0 0.0 -1.119019617531e-03 
-7.641727686351e-04 1.895140519535e-04 0.0 
1.895140519535e-04 4.965709915575e-03 0.0 
0.0 0.0 -7.634232545038e-04 
-1.140149646673e-03 1.894710294716e-04 0.0 
1.894710294716e-04 7.619303377370e-03 0.0 
0.0 0.0 -1.144395376583e-03 
-1.089871366961e-03 1.866180545901e-04 0.0 
1.866180545901e-04 7.246015693997e-03 0.0 
0.0 0.0 -1.089631904438e-03 
-1.081578605974e-03 -1.978658757613e-04 0.0 
-1.978658757613e-04 7.257137764756e-03 0.0 
0.0 0.0 -1.080451501872e-03 
-9.579838523443e-04 1.886955211530e-04 0.0 
1.886955211530e-04 6.320335730528e-03 0.0 
0.0 0.0 -9.580909834143e-04 
-7.089543903964e-04 1.893728274012e-04 0.0 
1.893728274012e-04 4.575360328887e-03 0.0 
0.0 0.0 -7.073300717972e-04 
-1.127664739308e-03 -1.829222399518e-04 0.0 
-1.829222399518e-04 7.564515174457e-03 0.0 
0.0 0.0 -1.126038590206e-03 
-9.212765999104e-04 1.860043167072e-04 0.0 
1.860043167072e-04 6.042010505937e-03 0.0 
0.0 0.0 -9.169694165663e-04 
-3.707997860418e-04 -2.047832537349e-04 0.0 
-2.047832537349e-04 2.273008460466e-03 0.0 
0.0 0.0 -3.661348613279e-04 
-4.119491099640e-04 -1.837644939852e-04 0.0 
-1.837644939852e-04 2.602040481245e-03 0.0 
0.0 0.0 -4.113794265144e-04 
-6.058388203502e-04 1.800194521296e-04 0.0 
1.800194521296e-04 3.855006073365e-03 0.0 
0.0 0.0 -6.061407060701e-04 
-8.399206414718e-04 1.851255513351e-04 0.0 
1.851255513351e-04 5.491811110990e-03 0.0 
0.0 0.0 -8.384786063130e-04 
-1.169227413895e-03 1.987098364224e-04 0.0 
1.987098364224e-04 7.826180536376e-03 0.0 
0.0 0.0 -1.173545322487e-03 
-1.051413170775e-03 -2.036953792705e-04 0.0 
-2.036953792705e-04 7.051256599190e-03 0.0 
0.0 0.0 -1.051102540299e-03 
-7.053171708153e-04 -1.917417752611e-04 0.0 
-1.917417752611e-04 4.643848416984e-03 0.0 
0.0 0.0 -7.045205360201e-04 
-9.343548124899e-04 -1.929012807103e-04 0.0 
-1.929012807103e-04 6.238086933522e-03 0.0 
0.0 0.0 -9.344940742331e-04 
-1.088202517562e-03 1.963493920645e-04 0.0 
1.963493920645e-04 7.240451625201e-03 0.0 
0.0 0.0 -1.088599101970e-03 
-1.132213948578e-03 -2.019794901778e-04 0.0 
-2.019794901778e-04 7.607209750872e-03 0.0 
0.0 0.0 -1.130578931274e-03 
-1.175177652279e-03 -1.432114671164e-04 0.0 
-1.432114671164e-04 7.818239968608e-03 0.0 
0.0 0.0 -1.160781586281e-03 
-9.493017134461e-04 1.856369855211e-04 0.0 
1.856369855211e-04 6.294032018234e-03 0.0 
0.0 0.0 -9.517943393003e-04 
-1.114893974024e-03 1.926717475022e-04 0.0 
1.926717475022e-04 7.405468821271e-03 0.0 
0.0 0.0 -1.113435711030e-03 
-7.974711636665e-04 -1.944203939155e-04 0.0 
-1.944203939155e-04 5.288608064412e-03 0.0 
0.0 0.0 -7.971871449874e-04 
-1.087511397267e-03 -1.918432502511e-04 0.0 
-1.918432502511e-04 7.293095143965e-03 0.0 
0.0 0.0 -1.086118700983e-03 
-7.957657220237e-04 1.875502652183e-04 0.0 
1.875502652183e-04 5.187404479596e-03 0.0 
0.0 0.0 -7.951163407912e-04 
-1.190027282138e-03 -1.889094988141e-04 0.0 
-1.889094988141e-04 8.016045742998e-03 0.0 
0.0 0.0 -1.188704642750e-03 
-1.182786985987e-03 -2.095818808978e-04 0.0 
-2.095818808978e-04 8.112308359412e-03 0.0 
0.0 0.0 -1.200489323427e-03 
-8.931557397796e-04 1.886870491782e-04 0.0 
1.886870491782e-04 5.866647832542e-03 0.0 
0.0 0.0 -8.929891684399e-04 
-3.790334035775e-04 2.022524645534e-04 0.0 
2.022524645534e-04 2.272501623496e-03 0.0 
0.0 0.0 -3.776191643183e-04 
-1.116621675417e-03 1.833509055247e-04 0.0 
1.833509055247e-04 7.407703431036e-03 0.0 
0.0 0.0 -1.113685640909e-03 
-8.560269120279e-04 -1.850645517351e-04 0.0 
-1.850645517351e-04 5.691539379015e-03 0.0 
0.0 0.0 -8.555605426019e-04 
-6.779302938366e-04 -1.908402865227e-04 0.0 
-1.908402865227e-04 4.449768302467e-03 0.0 
0.0 0.0 -6.765734244908e-04 
-9.269459503729e-04 -1.957083840497e-04 0.0 
-1.957083840497e-04 6.192523979842e-03 0.0 
0.0 0.0 -9.269463096178e-04 
-1.072502528949e-03 -2.041434169698e-04 0.0 
-2.041434169698e-04 7.210267326329e-03 0.0 
0.0 0.0 -1.072977024862e-03 
-3.719606472365e-04 -1.835949221077e-04 0.0 
-1.835949221077e-04 2.345098090713e-03 0.0 
0.0 0.0 -3.746637649435e-04 
-8.285830534024e-04 1.877054302830e-04 0.0 
1.877054302830e-04 5.415216649357e-03 0.0 
0.0 0.0 -8.281205301186e-04 
-9.633029216945e-04 1.794107507867e-04 0.0 
1.794107507867e-04 6.339174664891e-03 0.0 
0.0 0.0 -9.596127204057e-04 
-1.165821597608e-03 -2.067678885501e-04 0.0 
-2.067678885501e-04 7.892442231831e-03 0.0 
0.0 0.0 -1.170838755190e-03 
-9.895100639472e-04 1.759458030689e-04 0.0 
1.759458030689e-04 6.529075947432e-03 0.0 
0.0 0.0 -9.876491701490e-04 
-1.085596099012e-03 1.937230915424e-04 0.0 
1.937230915424e-04 7.212019617214e-03 0.0 
0.0 0.0 -1.085374163265e-03 
-9.372562607785e-04 1.792840605659e-04 0.0 
1.792840605659e-04 6.146041579427e-03 0.0 
0.0 0.0 -9.316602363005e-04 
-8.975747507543e-04 1.987030926427e-04 0.0 
1.987030926427e-04 5.753154163109e-03 0.0 
0.0 0.0 -8.756372412555e-04 
-9.482059618595e-04 1.851978750998e-04 0.0 
1.851978750998e-04 6.234676071384e-03 0.0 
0.0 0.0 -9.447135688329e-04 
-1.130898821175e-03 2.049231627904e-04 0.0 
2.049231627904e-04 7.550084487667e-03 0.0 
0.0 0.0 -1.133505030480e-03 
-1.085374007423e-03 -2.008613375728e-04 0.0 
-2.008613375728e-04 7.297255264970e-03 0.0 
0.0 0.0 -1.084522140297e-03 
-1.016986910713e-03 1.835607482604e-04 0.0 
1.835607482604e-04 6.748472102274e-03 0.0 
0.0 0.0 -1.017300281410e-03 
-1.211783257084e-03 1.757837481836e-04 0.0 
1.757837481836e-04 8.121141767086e-03 0.0 
0.0 0.0 -1.212886757924e-03 
-9.118555854046e-04 1.822932037183e-04 0.0 
1.822932037183e-04 5.952136168219e-03 0.0 
0.0 0.0 -9.037302385344e-04 
-5.771676927997e-04 -1.905418044285e-04 0.0 
-1.905418044285e-04 3.749121588691e-03 0.0 
0.0 0.0 -5.760585567884e-04 
-1.146857850750e-03 -2.012024813042e-04 0.0 
-2.012024813042e-04 7.726356069459e-03 0.0 
0.0 0.0 -1.146733564437e-03 
-1.190361811188e-03 -2.231584585379e-04 0.0 
-2.231584585379e-04 8.068085284209e-03 0.0 
0.0 0.0 -1.196744929305e-03 
-7.877111731868e-04 1.869730341935e-04 0.0 
1.869730341935e-04 5.130080362463e-03 0.0 
0.0 0.0 -7.869228524964e-04 
-8.229073892259e-04 1.889823334213e-04 0.0 
1.889823334213e-04 5.378866845597e-03 0.0 
0.0 0.0 -8.226527892688e-04 
-6.410005540226e-04 -1.918474041219e-04 0.0 
-1.918474041219e-04 4.195976321250e-03 0.0 
0.0 0.0 -6.402419685743e-04 
-1.047323379365e-03 1.912705100611e-04 0.0 
1.912705100611e-04 6.951134229714e-03 0.0 
0.0 0.0 -1.046609947212e-03 
-6.536475585395e-04 1.928032985675e-04 0.0 
1.928032985675e-04 4.182884861133e-03 0.0 
0.0 0.0 -6.500746975200e-04 
-9.153598550126e-04 1.963880349301e-04 0.0 
1.963880349301e-04 6.020758345298e-03 0.0 
0.0 0.0 -9.137630964162e-04 
-6.488950437602e-04 -1.797823528638e-04 0.0 
-1.797823528638e-04 4.242459853736e-03 0.0 
0.0 0.0 -6.476280927198e-04 
-1.069873888271e-03 1.950588935170e-04 0.0 
1.950588935170e-04 7.095085750561e-03 0.0 
0.0 0.0 -1.068254633495e-03 
-1.209590731991e-03 -1.550085898134e-04 0.0 
-1.550085898134e-04 8.118970202182e-03 0.0 
0.0 0.0 -1.211228670573e-03 
-6.691229637013e-04 -1.915091740607e-04 0.0 
-1.915091740607e-04 4.390308397494e-03 0.0 
0.0 0.0 -6.682047883386e-04 
-2.351166358341e-04 -2.031494045747e-04 0.0 
-2.031494045747e-04 1.435993492405e-03 0.0 
0.0 0.0 -2.451578436693e-04 
-1.204420763458e-03 1.961268392442e-04 0.0 
1.961268392442e-04 8.059775147050e-03 0.0 
0.0 0.0 -1.207184308065e-03 
-6.887858324241e-04 1.799755313790e-04 0.0 
1.799755313790e-04 4.424727357305e-03 0.0 
0.0 0.0 -6.853381776776e-04 
-7.835288517238e-04 1.879460947128e-04 0.0 
1.879460947128e-04 5.099659123499e-03 0.0 
0.0 0.0 -7.828151049093e-04 
-1.160407951921e-03 2.005539249279e-04 0.0 
2.005539249279e-04 7.864449254895e-03 0.0 
0.0 0.0 -1.177925372349e-03 
-1.016320152694e-03 -1.997312198958e-04 0.0 
-1.997312198958e-04 6.802485040097e-03 0.0 
0.0 0.0 -1.015069748350e-03 
-1.057178896244e-03 -1.942199100265e-04 0.0 
-1.942199100265e-04 7.094939907719e-03 0.0 
0.0 0.0 -1.055879354346e-03 
-6.858748156510e-04 -1.861020149713e-04 0.0 
-1.861020149713e-04 4.508466491458e-03 0.0 
0.0 0.0 -6.851017020021e-04 
-2.031820811394e-04 1.985739834671e-04 0.0 
1.985739834671e-04 1.096275256380e-03 0.0 
0.0 0.0 -2.111397097017e-04 
-1.218012060933e-03 -2.324828983585e-04 0.0 
-2.324828983585e-04 8.157957467951e-03 0.0 
0.0 0.0 -1.202131160132e-03 
-8.665795831994e-04 1.858441781354e-04 0.0 
1.858441781354e-04 5.682543428283e-03 0.0 
0.0 0.0 -8.660506973337e-04 
-1.008559534197e-03 -2.140754109307e-04 0.0 
-2.140754109307e-04 6.735537996686e-03 0.0 
0.0 0.0 -1.007142642412e-03 
-1.160459194418e-03 1.856922992241e-04 0.0 
1.856922992241e-04 7.735308684736e-03 0.0 
0.0 0.0 -1.157822513452e-03 
-1.616552956258e-04 1.423609377971e-04 0.0 
1.423609377971e-04 6.732585101887e-04 0.0 
0.0 0.0 -1.502316149797e-04 
-1.058859563023e-03 1.992298708808e-04 0.0 
1.992298708808e-04 7.024120321951e-03 0.0 
0.0 0.0 -1.058763633038e-03 
-4.932099791949e-04 -1.894809356614e-04 0.0 
-1.894809356614e-04 3.157806772283e-03 0.0 
0.0 0.0 -4.919579008500e-04 
-9.451714429142e-04 -2.012700485210e-04 0.0 
-2.012700485210e-04 6.343190678808e-03 0.0 
0.0 0.0 -9.498437721210e-04 
-8.487405687036e-04 -1.950463421938e-04 0.0 
-1.950463421938e-04 5.654542604036e-03 0.0 
0.0 0.0 -8.496012432876e-04 
-6.717289225013e-04 1.881380853815e-04 0.0 
1.881380853815e-04 4.320340016049e-03 0.0 
0.0 0.0 -6.709551114794e-04 
-1.138399201716e-03 -1.969931368524e-04 0.0 
-1.969931368524e-04 7.687743728139e-03 0.0 
0.0 0.0 -1.141635569211e-03 
-8.863371368954e-04 1.906753618110e-04 0.0 
1.906753618110e-04 5.821740968712e-03 0.0 
0.0 0.0 -8.859145181037e-04 
-6.078808339747e-04 1.896100471318e-04 0.0 
1.896100471318e-04 3.873866771808e-03 0.0 
0.0 0.0 -6.067458373204e-04 
-8.988471733596e-04 -1.905617358742e-04 0.0 
-1.905617358742e-04 5.993481774552e-03 0.0 
0.0 0.0 -8.989548790023e-04 
-1.952954180545e-04 -1.905102926162e-04 0.0 
-1.905102926162e-04 1.173502522438e-03 0.0 
0.0 0.0 -2.081142276587e-04 
-1.024988576596e-03 -1.935191657476e-04 0.0 
-1.935191657476e-04 6.880398785368e-03 0.0 
0.0 0.0 -1.026417656363e-03 
-1.069604476726e-03 -1.976553008556e-04 0.0 
-1.976553008556e-04 7.163110056360e-03 0.0 
0.0 0.0 -1.065496432940e-03 
-1.229744167387e-03 -1.464305357593e-04 0.0 
-1.464305357593e-04 8.209785373221e-03 0.0 
0.0 0.0 -1.233600908384e-03 
-1.090183204667e-03 -1.971253990561e-04 0.0 
-1.971253990561e-04 7.328950110722e-03 0.0 
0.0 0.0 -1.090749533212e-03 
-4.766984691118e-04 -1.850928375115e-04 0.0 
-1.850928375115e-04 3.048442125330e-03 0.0 
0.0 0.0 -4.758149136988e-04 
-1.046974953030e-03 -1.977469482828e-04 0.0 
-1.977469482828e-04 7.033167652259e-03 0.0 
0.0 0.0 -1.047231727503e-03 
-1.207083647933e-03 1.808427044482e-04 0.0 
1.808427044482e-04 8.205581432035e-03 0.0 
0.0 0.0 -1.228155452712e-03 
-1.260668266969e-03 -1.832526413476e-04 0.0 
-1.832526413476e-04 8.522719369677e-03 0.0 
0.0 0.0 -1.267145247477e-03 
-1.104740620517e-03 -1.903291503951e-04 0.0 
-1.903291503951e-04 7.419136809817e-03 0.0 
0.0 0.0 -1.102242875413e-03 
-7.141399757063e-04 -1.908850217657e-04 0.0 
-1.908850217657e-04 4.699621454475e-03 0.0 
0.0 0.0 -7.127912709901e-04 
-9.617225215176e-04 -1.932311968947e-04 0.0 
-1.932311968947e-04 6.435112240426e-03 0.0 
0.0 0.0 -9.624716764950e-04 
-1.172863749534e-03 1.716370371983e-04 0.0 
1.716370371983e-04 7.752633284680e-03 0.0 
0.0 0.0 -1.164316760544e-03 
-7.921196063416e-04 -1.921710320451e-04 0.0 
-1.921710320451e-04 5.233600587143e-03 0.0 
0.0 0.0 -7.878971455476e-04 
-1.056322180914e-03 1.849092776283e-04 0.0 
1.849092776283e-04 7.010189158039e-03 0.0 
0.0 0.0 -1.057196955382e-03 
-9.850942903468e-04 1.906307977984e-04 0.0 
1.906307977984e-04 6.538331902211e-03 0.0 
0.0 0.0 -9.877098122506e-04 
-1.110739431393e-03 -1.980632731679e-04 0.0 
-1.980632731679e-04 7.489376108620e-03 0.0 
0.0 0.0 -1.112977059762e-03 
-1.093828226484e-03 -1.876429130193e-04 0.0 
-1.876429130193e-04 7.351584596061e-03 0.0 
0.0 0.0 -1.093234982489e-03 
-7.343177045735e-04 -9.465157044594e-06 0.0 
-9.465157044594e-06 4.570354151395e-03 0.0 
0.0 0.0 -7.313513689239e-04 
-7.305590051735e-04 3.402678996754e-05 0.0 
3.402678996754e-05 4.568649633296e-03 0.0 
0.0 0.0 -7.310574395863e-04 
-9.952316992060e-04 -2.061010920873e-04 0.0 
-2.061010920873e-04 6.656041030992e-03 0.0 
0.0 0.0 -9.927888931629e-04 
-9.918488233690e-04 1.857079994067e-04 0.0 
1.857079994067e-04 6.564735410895e-03 0.0 
0.0 0.0 -9.930598132463e-04 
-8.773556303313e-04 -1.926873992318e-04 0.0 
-1.926873992318e-04 5.856781784187e-03 0.0 
0.0 0.0 -8.780428295617e-04 
-9.805249871409e-04 -1.924563760953e-04 0.0 
-1.924563760953e-04 6.542490604406e-03 0.0 
0.0 0.0 -9.775429604617e-04 
-8.511934619470e-04 1.885314516425e-04 0.0 
1.885314516425e-04 5.570767617800e-03 0.0 
0.0 0.0 -8.502279965035e-04 
-1.193540881150e-03 1.313307987015e-04 0.0 
1.313307987015e-04 7.848740983510e-03 0.0 
0.0 0.0 -1.180288150054e-03 
-7.169159808387e-04 1.897237155632e-04 0.0 
1.897237155632e-04 4.633470113633e-03 0.0 
0.0 0.0 -7.154845226688e-04 
-1.330586332229e-03 -3.342005871351e-05 0.0 
-3.342005871351e-05 9.092648121720e-03 0.0 
0.0 0.0 -1.323793839065e-03 
-8.042874267729e-04 1.538278548701e-04 0.0 
1.538278548701e-04 5.332999869485e-03 0.0 
0.0 0.0 -8.119939454945e-04 
-8.205821157683e-04 -1.889603009902e-04 0.0 
-1.889603009902e-04 5.445817958641e-03 0.0 
0.0 0.0 -8.199314282332e-04 
-8.518598072760e-04 1.933057744939e-04 0.0 
1.933057744939e-04 5.584111954891e-03 0.0 
0.0 0.0 -8.523954645778e-04 
-4.499586564247e-04 -1.855256695767e-04 0.0 
-1.855256695767e-04 2.857022821909e-03 0.0 
0.0 0.0 -4.479040077299e-04 
-7.538979209402e-04 -1.934413965156e-04 0.0 
-1.934413965156e-04 4.995274109938e-03 0.0 
0.0 0.0 -7.551671247638e-04 
-9.291971374279e-04 1.860662208978e-04 0.0 
1.860662208978e-04 6.122384862718e-03 0.0 
0.0 0.0 -9.293281999836e-04 
-8.759687264253e-04 1.862073937601e-04 0.0 
1.862073937601e-04 5.739375914108e-03 0.0 
0.0 0.0 -8.738309435711e-04 
-9.814387768265e-04 1.839019607205e-04 0.0 
1.839019607205e-04 6.501334764278e-03 0.0 
0.0 0.0 -9.814596669550e-04 
-1.010867161751e-03 1.870829556364e-04 0.0 
1.870829556364e-04 6.678666577386e-03 0.0 
0.0 0.0 -1.008022096355e-03 
-1.044436862417e-03 -1.926634021925e-04 0.0 
-1.926634021925e-04 6.979659342720e-03 0.0 
0.0 0.0 -1.040850218070e-03 
-2.258973833718e-04 -1.030107291084e-04 0.0 
-1.030107291084e-04 1.399562224303e-03 0.0 
0.0 0.0 -2.163717569139e-04 
-7.194022022389e-04 1.955668345425e-04 0.0 
1.955668345425e-04 4.667671693721e-03 0.0 
0.0 0.0 -7.209013985657e-04 
-6.852716132609e-04 -1.859370640984e-04 0.0 
-1.859370640984e-04 4.485062449844e-03 0.0 
0.0 0.0 -6.825522065409e-04 
-9.565981315294e-04 1.790846631941e-04 0.0 
1.790846631941e-04 6.284252226282e-03 0.0 
0.0 0.0 -9.521954671713e-04 
-9.888411307371e-04 -1.922642027800e-04 0.0 
-1.922642027800e-04 6.601876220435e-03 0.0 
0.0 0.0 -9.850634846466e-04 
-1.155748252282e-03 1.797617113704e-04 0.0 
1.797617113704e-04 7.721330663973e-03 0.0 
0.0 0.0 -1.160108757481e-03 
-3.430926826769e-04 2.099465977868e-04 0.0 
2.099465977868e-04 1.967318145224e-03 0.0 
0.0 0.0 -3.273996513303e-04 
-3.332214715971e-04 -1.766782033718e-04 0.0 
-1.766782033718e-04 2.091595055548e-03 0.0 
0.0 0.0 -3.377286911054e-04 
-8.312276761858e-04 1.871380545802e-04 0.0 
1.871380545802e-04 5.435579353952e-03 0.0 
0.0 0.0 -8.305977116616e-04 
-7.164446669360e-04 -1.954011667159e-04 0.0 
-1.954011667159e-04 4.735861933211e-03 0.0 
0.0 0.0 -7.181358556540e-04 
-6.612400540538e-04 -2.145984864481e-04 0.0 
-2.145984864481e-04 4.300984587983e-03 0.0 
0.0 0.0 -6.554599841463e-04 
-6.892288823092e-04 -1.712097974293e-04 0.0 
-1.712097974293e-04 4.548932917262e-03 0.0 
0.0 0.0 -6.889204951115e-04 
-9.785151366904e-04 -1.903688334859e-04 0.0 
-1.903688334859e-04 6.552823194572e-03 0.0 
0.0 0.0 -9.793492904611e-04 
-3.279214625417e-04 -1.856414295295e-04 0.0 
-1.856414295295e-04 2.036611823989e-03 0.0 
0.0 0.0 -3.302473245842e-04 
-8.146691974455e-04 1.910766766112e-04 0.0 
1.910766766112e-04 5.328191831945e-03 0.0 
0.0 0.0 -8.154759146177e-04 
-1.049892567768e-03 -1.923181012939e-04 0.0 
-1.923181012939e-04 7.038288222671e-03 0.0 
0.0 0.0 -1.049209916622e-03 
-3.402244297759e-04 2.055488950202e-04 0.0 
2.055488950202e-04 2.007315154740e-03 0.0 
0.0 0.0 -3.408226701431e-04 
-1.289740643797e-03 -2.865690188003e-05 0.0 
-2.865690188003e-05 8.457698383589e-03 0.0 
0.0 0.0 -1.285586381397e-03 
-1.153161816539e-03 -1.810911126316e-04 0.0 
-1.810911126316e-04 7.745860400322e-03 0.0 
0.0 0.0 -1.152455342817e-03 
-7.730865248008e-04 -1.936313324954e-04 0.0 
-1.936313324954e-04 5.137233279798e-03 0.0 
0.0 0.0 -7.756113943005e-04 
-1.077943790440e-03 1.906149656784e-04 0.0 
1.906149656784e-04 7.162163658694e-03 0.0 
0.0 0.0 -1.078722419643e-03 
-1.818286327115e-04 -5.320949396193e-06 0.0 
-5.320949396193e-06 7.441773179857e-04 0.0 
0.0 0.0 -1.797547709840e-04 
-1.014460031072e-03 -2.000580684662e-04 0.0 
-2.000580684662e-04 6.784645211728e-03 0.0 
0.0 0.0 -1.012471576362e-03 
-8.638932840094e-04 -1.877196228479e-04 0.0 
-1.877196228479e-04 5.746441231772e-03 0.0 
0.0 0.0 -8.634366945984e-04 
-1.573089574220e-04 6.060813636144e-06 0.0 
6.060813636144e-06 7.379677460024e-04 0.0 
0.0 0.0 -1.788519809851e-04 
-1.152359323407e-03 1.787160847200e-04 0.0 
1.787160847200e-04 7.696182759720e-03 0.0 
0.0 0.0 -1.154859126927e-03 
-3.172722260094e-04 -1.887798844867e-04 0.0 
-1.887798844867e-04 1.899275964143e-03 0.0 
0.0 0.0 -3.099791425632e-04 
-9.534030089957e-04 -1.885226890489e-04 0.0 
-1.885226890489e-04 6.348031499756e-03 0.0 
0.0 0.0 -9.496453321265e-04 
-8.720767110960e-04 -1.896937711200e-04 0.0 
-1.896937711200e-04 5.800514782335e-03 0.0 
0.0 0.0 -8.712718144564e-04 
-7.527095169076e-04 -1.904145446510e-04 0.0 
-1.904145446510e-04 4.974920507200e-03 0.0 
0.0 0.0 -7.519815330289e-04 
-9.060865555047e-04 1.986245932988e-04 0.0 
1.986245932988e-04 5.963263483029e-03 0.0 
0.0 0.0 -9.052548162676e-04 
-1.186359257630e-03 1.790401943916e-04 0.0 
1.790401943916e-04 7.910120458871e-03 0.0 
0.0 0.0 -1.182898372388e-03 
-9.717172959483e-04 2.017731235506e-04 0.0 
2.017731235506e-04 6.421670982773e-03 0.0 
0.0 0.0 -9.716005391689e-04 
-8.586682738841e-04 1.870585543686e-04 0.0 
1.870585543686e-04 5.626729716629e-03 0.0 
0.0 0.0 -8.581765416018e-04 
-8.285502932263e-04 -1.869792024667e-04 0.0 
-1.869792024667e-04 5.500044709232e-03 0.0 
0.0 0.0 -8.279616112547e-04 
-1.157597014143e-04 1.569592925356e-04 0.0 
1.569592925356e-04 5.309685908672e-04 0.0 
0.0 0.0 -1.241199786263e-04 
-2.771697128881e-04 1.878257284128e-04 0.0 
1.878257284128e-04 1.577050393967e-03 0.0 
0.0 0.0 -2.761011822561e-04 
-1.118878802421e-03 -1.775376209316e-04 0.0 
-1.775376209316e-04 7.515980410063e-03 0.0 
0.0 0.0 -1.118331045454e-03 
-9.134689604251e-04 -2.151070896449e-04 0.0 
-2.151070896449e-04 6.054442910930e-03 0.0 
0.0 0.0 -9.085367473448e-04 
-1.157427958602e-03 1.810891327533e-04 0.0 
1.810891327533e-04 7.664331777096e-03 0.0 
0.0 0.0 -1.148691026115e-03 
-4.952790128068e-04 1.926215238323e-04 0.0 
1.926215238323e-04 3.096112546519e-03 0.0 
0.0 0.0 -4.942977111402e-04 
-1.099935257767e-03 1.964856595336e-04 0.0 
1.964856595336e-04 7.292900558944e-03 0.0 
0.0 0.0 -1.097950598811e-03 
-1.159977421736e-03 -1.899588415038e-04 0.0 
-1.899588415038e-04 7.782799989863e-03 0.0 
0.0 0.0 -1.155407764312e-03 
-7.046437970110e-04 1.771780882186e-04 0.0 
1.771780882186e-04 4.649202442724e-03 0.0 
0.0 0.0 -7.179420443741e-04 
-1.123089437587e-03 1.668381000105e-04 0.0 
1.668381000105e-04 7.448723404798e-03 0.0 
0.0 0.0 -1.120992621467e-03 
-1.074800466033e-03 -1.979281231238e-04 0.0 
-1.979281231238e-04 7.231750290380e-03 0.0 
0.0 0.0 -1.075946734593e-03 
-9.566951811484e-04 1.885305449409e-04 0.0 
1.885305449409e-04 6.314170866049e-03 0.0 
0.0 0.0 -9.571162043194e-04 
-7.858129650109e-04 1.950519568744e-04 0.0 
1.950519568744e-04 5.127464531984e-03 0.0 
0.0 0.0 -7.866383436874e-04 
-8.200429817129e-04 -1.955984029236e-04 0.0 
-1.955984029236e-04 5.453789901756e-03 0.0 
0.0 0.0 -8.209012074946e-04 
-1.208173698565e-03 -2.031466844655e-04 0.0 
-2.031466844655e-04 8.155254103189e-03 0.0 
0.0 0.0 -1.204704583718e-03 
-8.401419513637e-04 1.955438232626e-04 0.0 
1.955438232626e-04 5.506398965405e-03 0.0 
0.0 0.0 -8.396599866114e-04 
-9.021075521636e-04 1.852176330370e-04 0.0 
1.852176330370e-04 5.931413313431e-03 0.0 
0.0 0.0 -9.015555482168e-04 
-8.449278259680e-04 1.962826855989e-04 0.0 
1.962826855989e-04 5.533739272216e-03 0.0 
0.0 0.0 -8.433600309793e-04 
-1.038695295048e-03 1.973550359404e-04 0.0 
1.973550359404e-04 6.882197727615e-03 0.0 
0.0 0.0 -1.038364586984e-03 
-7.853544279650e-04 -1.888908667993e-04 0.0 
-1.888908667993e-04 5.195025610649e-03 0.0 
0.0 0.0 -7.842421616061e-04 
-5.077615371431e-04 1.925383574265e-04 0.0 
1.925383574265e-04 3.178371744144e-03 0.0 
0.0 0.0 -5.065804551108e-04 
-8.563679286654e-04 1.886904600153e-04 0.0 
1.886904600153e-04 5.609470178926e-03 0.0 
0.0 0.0 -8.561803240471e-04 
-5.442096767108e-04 1.899929291301e-04 0.0 
1.899929291301e-04 3.427592308512e-03 0.0 
0.0 0.0 -5.426160209679e-04 
-9.840239484115e-04 1.860183386348e-04 0.0 
1.860183386348e-04 6.482342277994e-03 0.0 
0.0 0.0 -9.799122972177e-04 
-5.401920244119e-04 -1.881877507058e-04 0.0 
-1.881877507058e-04 3.494301074598e-03 0.0 
0.0 0.0 -5.399485503623e-04 
-9.444560097486e-04 -1.940759614132e-04 0.0 
-1.940759614132e-04 6.297600198433e-03 0.0 
0.0 0.0 -9.420580210740e-04 
-1.136089878121e-03 -1.928967352453e-04 0.0 
-1.928967352453e-04 7.622114445815e-03 0.0 
0.0 0.0 -1.130549445556e-03 
-1.098744179893e-03 1.868758827566e-04 0.0 
1.868758827566e-04 7.288601580292e-03 0.0 
0.0 0.0 -1.096529089934e-03 
-7.525839073148e-04 1.884470413511e-04 0.0 
1.884470413511e-04 4.883223458127e-03 0.0 
0.0 0.0 -7.512528815035e-04 
-9.420690742010e-04 1.904423332236e-04 0.0 
1.904423332236e-04 6.250031840530e-03 0.0 
0.0 0.0 -9.460253849645e-04 
-1.105063984059e-03 1.902259811921e-04 0.0 
1.902259811921e-04 7.362332298090e-03 0.0 
0.0 0.0 -1.107441567342e-03 
-1.102593190183e-03 -1.984125757140e-04 0.0 
-1.984125757140e-04 7.431259929710e-03 0.0 
0.0 0.0 -1.104747680386e-03 
-2.748138935717e-04 -1.822651738482e-04 0.0 
-1.822651738482e-04 1.604872033163e-03 0.0 
0.0 0.0 -2.683291303717e-04 
-9.752435611011e-04 1.861325910200e-04 0.0 
1.861325910200e-04 6.426869973039e-03 0.0 
0.0 0.0 -9.724793438395e-04 
-1.198880595075e-03 2.442779644092e-04 0.0 
2.442779644092e-04 8.051846061103e-03 0.0 
0.0 0.0 -1.205818386895e-03 
-5.437300718268e-04 1.772584891249e-04 0.0 
1.772584891249e-04 3.388245147726e-03 0.0 
0.0 0.0 -5.357889572170e-04 
-8.407105615714e-04 -1.927518630569e-04 0.0 
-1.927518630569e-04 5.595089898141e-03 0.0 
0.0 0.0 -8.409532000723e-04 
-1.642955148473e-04 -1.732273966109e-04 0.0 
-1.732273966109e-04 7.998697341648e-04 0.0 
0.0 0.0 -1.553180670733e-04 
-1.132480187466e-03 1.879569331440e-04 0.0 
1.879569331440e-04 7.560437012022e-03 0.0 
0.0 0.0 -1.136235114959e-03 
-4.806530012621e-04 1.926320631023e-04 0.0 
1.926320631023e-04 2.980823159841e-03 0.0 
0.0 0.0 -4.785631936959e-04 
-8.099198933223e-04 1.419617410746e-04 0.0 
1.419617410746e-04 5.272582332729e-03 0.0 
0.0 0.0 -8.166178341775e-04 
-1.008233793579e-03 2.173973549694e-04 0.0 
2.173973549694e-04 6.687663611020e-03 0.0 
0.0 0.0 -1.008721701990e-03 
-9.403782054792e-04 -1.899510314298e-04 0.0 
-1.899510314298e-04 6.304690927512e-03 0.0 
0.0 0.0 -9.438854677472e-04 
-8.963572268651e-04 1.741364622750e-04 0.0 
1.741364622750e-04 5.997227966098e-03 0.0 
0.0 0.0 -9.108073647308e-04 
-8.940895927012e-04 1.874273657986e-04 0.0 
1.874273657986e-04 5.875054319372e-03 0.0 
0.0 0.0 -8.936906232635e-04 
-5.964027012772e-04 -1.969270146159e-04 0.0 
-1.969270146159e-04 3.828565622584e-03 0.0 
0.0 0.0 -5.884905393267e-04 
-6.222186473160e-04 -1.579598216189e-04 0.0 
-1.579598216189e-04 4.074275639624e-03 0.0 
0.0 0.0 -6.218825813656e-04 
-1.132545466856e-03 -1.921788675689e-04 0.0 
-1.921788675689e-04 7.631342050474e-03 0.0 
0.0 0.0 -1.133400347077e-03 
-9.399834973731e-04 -2.076180111175e-04 0.0 
-2.076180111175e-04 6.274716467853e-03 0.0 
0.0 0.0 -9.394087121358e-04 
-8.165998643397e-04 -1.896618384883e-04 0.0 
-1.896618384883e-04 5.425461381261e-03 0.0 
0.0 0.0 -8.164864906097e-04 
-1.015808219044e-03 2.043119981128e-04 0.0 
2.043119981128e-04 6.724239760090e-03 0.0 
0.0 0.0 -1.014986374720e-03 
-7.921952984754e-04 1.876569442452e-04 0.0 
1.876569442452e-04 5.161072896404e-03 0.0 
0.0 0.0 -7.915105747055e-04 
-5.132154280477e-04 -1.871647182002e-04 0.0 
-1.871647182002e-04 3.302371768383e-03 0.0 
0.0 0.0 -5.119962057136e-04 
-5.745746208365e-04 1.485352442874e-04 0.0 
1.485352442874e-04 3.755895310226e-03 0.0 
0.0 0.0 -5.908395828668e-04 
-8.562635021511e-04 -1.754512107451e-04 0.0 
-1.754512107451e-04 5.627343192984e-03 0.0 
0.0 0.0 -8.442294783838e-04 
-7.160648306051e-04 7.585704491028e-06 0.0 
7.585704491028e-06 4.849167370762e-03 0.0 
0.0 0.0 -7.121995050294e-04 
-1.098907698796e-03 -1.935603852202e-04 0.0 
-1.935603852202e-04 7.356586615962e-03 0.0 
0.0 0.0 -1.093598669875e-03 
-7.500784032912e-04 -1.888438395023e-04 0.0 
-1.888438395023e-04 4.947212343952e-03 0.0 
0.0 0.0 -7.486350631497e-04 
-1.210182417684e-03 1.765917680882e-04 0.0 
1.765917680882e-04 8.247529209770e-03 0.0 
0.0 0.0 -1.233571955743e-03 
-1.118284649088e-03 2.239133535708e-04 0.0 
2.239133535708e-04 7.476894485256e-03 0.0 
0.0 0.0 -1.121177773779e-03 
-8.254740426917e-04 -1.929282224424e-04 0.0 
-1.929282224424e-04 5.485443478807e-03 0.0 
0.0 0.0 -8.252461108756e-04 
-1.242964237003e-03 -2.139177796874e-04 0.0 
-2.139177796874e-04 8.349538837109e-03 0.0 
0.0 0.0 -1.241472629463e-03 
-5.687293433060e-04 -1.915120142832e-04 0.0 
-1.915120142832e-04 3.690790191525e-03 0.0 
0.0 0.0 -5.682622744621e-04 
-1.208040625364e-03 1.849401074129e-04 0.0 
1.849401074129e-04 8.046920265334e-03 0.0 
0.0 0.0 -1.204482468497e-03 
-8.913551845653e-04 -1.878094076415e-04 0.0 
-1.878094076415e-04 5.940020385334e-03 0.0 
0.0 0.0 -8.910665706739e-04 
-9.852542746409e-04 1.871572406668e-04 0.0 
1.871572406668e-04 6.505324580404e-03 0.0 
0.0 0.0 -9.848034212814e-04 
-1.145107580505e-03 -1.842496915474e-04 0.0 
-1.842496915474e-04 7.703101384869e-03 0.0 
0.0 0.0 -1.146785027167e-03 
-5.943655314035e-04 -1.832199318588e-04 0.0 
-1.832199318588e-04 3.893020220943e-03 0.0 
0.0 0.0 -5.958228065582e-04 
-9.389816814797e-04 1.876119276121e-04 0.0 
1.876119276121e-04 6.182064030220e-03 0.0 
0.0 0.0 -9.369464185080e-04 
-7.887299262109e-04 -1.887974843369e-04 0.0 
-1.887974843369e-04 5.230247920474e-03 0.0 
0.0 0.0 -7.886172400246e-04 
-9.083774489982e-04 -1.902700926230e-04 0.0 
-1.902700926230e-04 6.046157002466e-03 0.0 
0.0 0.0 -9.065670216064e-04 
-5.279887302568e-04 -1.859379540024e-04 0.0 
-1.859379540024e-04 3.395303897193e-03 0.0 
0.0 0.0 -5.268093404353e-04 
-1.014606245907e-03 2.103915705159e-04 0.0 
2.103915705159e-04 6.713973890446e-03 0.0 
0.0 0.0 -1.013229387512e-03 
-7.553250635679e-04 1.889436264504e-04 0.0 
1.889436264504e-04 4.904153081957e-03 0.0 
0.0 0.0 -7.548706880268e-04 
-8.804539724126e-04 1.911528069324e-04 0.0 
1.911528069324e-04 5.783141817002e-03 0.0 
0.0 0.0 -8.810281692460e-04 
-9.122003311207e-04 1.835312424396e-04 0.0 
1.835312424396e-04 5.985147494673e-03 0.0 
0.0 0.0 -9.091416541300e-04 
-1.779440610295e-04 -1.030848282903e-04 0.0 
-1.030848282903e-04 7.740733373014e-04 0.0 
0.0 0.0 -1.392682743729e-04 
-9.092484897749e-04 2.049076976716e-04 0.0 
2.049076976716e-04 5.988548295435e-03 0.0 
0.0 0.0 -9.082496170556e-04 
-2.130732635602e-04 -2.101807231717e-04 0.0 
-2.101807231717e-04 1.221567911035e-03 0.0 
0.0 0.0 -2.164288490095e-04 
-2.520548988868e-04 2.059906335290e-04 0.0 
2.059906335290e-04 1.360441870585e-03 0.0 
0.0 0.0 -2.410360834028e-04 
-8.430214645806e-04 1.870171193368e-04 0.0 
1.870171193368e-04 5.521874591652e-03 0.0 
0.0 0.0 -8.438072171805e-04 
-1.100618043992e-03 -1.995199700288e-04 0.0 
-1.995199700288e-04 7.372933681793e-03 0.0 
0.0 0.0 -1.098354823938e-03 
-9.336786887582e-04 1.772618600830e-04 0.0 
1.772618600830e-04 6.184069199665e-03 0.0 
0.0 0.0 -9.387552692591e-04 
-5.316814076804e-04 -1.951121058157e-04 0.0 
-1.951121058157e-04 3.374217008638e-03 0.0 
0.0 0.0 -5.215302833573e-04 
-1.342322198460e-03 1.355075091339e-05 0.0 
1.355075091339e-05 8.860022296973e-03 0.0 
0.0 0.0 -1.342322198460e-03 
-6.904184216633e-05 1.341545190441e-04 0.0 
1.341545190441e-04 2.607547295548e-04 0.0 
0.0 0.0 -8.216266602363e-05 
-5.589210723321e-04 -1.329418113689e-04 0.0 
-1.329418113689e-04 3.609084095351e-03 0.0 
0.0 0.0 -5.549805679787e-04 
-8.477696331988e-04 1.855996582244e-04 0.0 
1.855996582244e-04 5.547050172852e-03 0.0 
0.0 0.0 -8.472740691906e-04 
-8.035495844310e-04 -1.953259203622e-04 0.0 
-1.953259203622e-04 5.337013229194e-03 0.0 
0.0 0.0 -8.042584860449e-04 
-6.757348554203e-04 -1.653998453618e-04 0.0 
-1.653998453618e-04 4.426804148949e-03 0.0 
0.0 0.0 -6.733236465360e-04 
-5.914609098286e-04 1.823071808114e-04 0.0 
1.823071808114e-04 3.765270744377e-03 0.0 
0.0 0.0 -5.908717820549e-04 
-8.740292955770e-04 -1.984478198409e-04 0.0 
-1.984478198409e-04 5.813273429386e-03 0.0 
0.0 0.0 -8.733819075714e-04 
-9.264128048314e-04 -1.908219560730e-04 0.0 
-1.908219560730e-04 6.187717693912e-03 0.0 
0.0 0.0 -9.266779469803e-04 
-9.738255750276e-04 2.028683516141e-04 0.0 
2.028683516141e-04 6.450883656299e-03 0.0 
0.0 0.0 -9.734188451722e-04 
-1.155174733819e-03 2.031393399309e-04 0.0 
2.031393399309e-04 7.608098909852e-03 0.0 
0.0 0.0 -1.144302277022e-03 
-2.998307148874e-04 1.817771268844e-04 0.0 
1.817771268844e-04 1.707947677580e-03 0.0 
0.0 0.0 -2.976331147772e-04 
-7.774732960360e-04 1.902311186531e-04 0.0 
1.902311186531e-04 5.067412702539e-03 0.0 
0.0 0.0 -7.784793977761e-04 
-8.354929195800e-04 1.868427274729e-04 0.0 
1.868427274729e-04 5.469964258699e-03 0.0 
0.0 0.0 -8.356154970834e-04 
-4.516910884494e-04 -2.032153244338e-04 0.0 
-2.032153244338e-04 2.897475389763e-03 0.0 
0.0 0.0 -4.544023106810e-04 
-7.514806211766e-04 2.187245154034e-04 0.0 
2.187245154034e-04 4.887888210751e-03 0.0 
0.0 0.0 -7.518103749233e-04 
-9.376130433125e-04 -2.007012642150e-04 0.0 
-2.007012642150e-04 6.245928942655e-03 0.0 
0.0 0.0 -9.362314798257e-04 
-1.020402468730e-03 -1.946865508961e-04 0.0 
-1.946865508961e-04 6.790144563629e-03 0.0 
0.0 0.0 -1.023451880212e-03 
-1.525732992224e-04 8.599813622089e-06 0.0 
8.599813622089e-06 1.000033467602e-03 0.0 
0.0 0.0 -1.605242656235e-04 
-1.269812495822e-04 -2.531001823485e-04 0.0 
-2.531001823485e-04 4.902479252968e-04 0.0 
0.0 0.0 -1.185594205871e-04 
-3.241357878483e-04 -1.842994986655e-04 0.0 
-1.842994986655e-04 2.004473459914e-03 0.0 
0.0 0.0 -3.233707900025e-04 
-8.334989762748e-04 -1.938999604970e-04 0.0 
-1.938999604970e-04 5.537569679809e-03 0.0 
0.0 0.0 -8.330087554115e-04 
-6.325222328163e-04 -1.881321833313e-04 0.0 
-1.881321833313e-04 4.138956718805e-03 0.0 
0.0 0.0 -6.322020076307e-04 
-5.606822046862e-04 -1.836386180369e-04 0.0 
-1.836386180369e-04 3.638290895272e-03 0.0 
0.0 0.0 -5.605319560360e-04 
-5.042968556975e-04 -1.874920210369e-04 0.0 
-1.874920210369e-04 3.240689773487e-03 0.0 
0.0 0.0 -5.041580933422e-04 
-8.721332834429e-04 1.863637843613e-04 0.0 
1.863637843613e-04 5.722466013089e-03 0.0 
0.0 0.0 -8.721335634590e-04 
-9.951021354220e-04 1.863977597818e-04 0.0 
1.863977597818e-04 6.578139400737e-03 0.0 
0.0 0.0 -9.956198530692e-04 
-8.650795473339e-04 1.875435944103e-04 0.0 
1.875435944103e-04 5.670505538654e-03 0.0 
0.0 0.0 -8.643287579461e-04 
-6.358273554876e-04 1.861975192938e-04 0.0 
1.861975192938e-04 4.071155698746e-03 0.0 
0.0 0.0 -6.348607296063e-04 
-9.711834339353e-04 -2.012117718551e-04 0.0 
-2.012117718551e-04 6.487584772475e-03 0.0 
0.0 0.0 -9.699423737970e-04 
-8.101971348646e-04 1.641316877204e-04 0.0 
1.641316877204e-04 5.432076920036e-03 0.0 
0.0 0.0 -8.236220363599e-04 
-1.071983661584e-03 2.130963721818e-04 0.0 
2.130963721818e-04 7.145357950686e-03 0.0 
0.0 0.0 -1.076197569190e-03 
-8.626714893424e-04 -1.942405500946e-04 0.0 
-1.942405500946e-04 5.738328913224e-03 0.0 
0.0 0.0 -8.617642947636e-04 
-8.702702279883e-04 -1.921753086920e-04 0.0 
-1.921753086920e-04 5.792753129953e-03 0.0 
0.0 0.0 -8.694825820363e-04 
-4.645559553230e-04 -1.981925654933e-04 0.0 
-1.981925654933e-04 2.889937884797e-03 0.0 
0.0 0.0 -4.548485160793e-04 
-6.608554486332e-04 -1.864091804663e-04 0.0 
-1.864091804663e-04 4.336541054873e-03 0.0 
0.0 0.0 -6.598952468721e-04 
-8.926027030231e-04 1.843043537544e-04 0.0 
1.843043537544e-04 5.864339266433e-03 0.0 
0.0 0.0 -8.930692851043e-04 
-9.679615503638e-04 1.696948557831e-04 0.0 
1.696948557831e-04 6.395623785343e-03 0.0 
0.0 0.0 -9.615701295831e-04 
-9.079120183865e-04 1.806035671015e-04 0.0 
1.806035671015e-04 6.008465197654e-03 0.0 
0.0 0.0 -8.972249362023e-04 
-4.966173735405e-04 -1.549710521066e-04 0.0 
-1.549710521066e-04 3.153972529156e-03 0.0 
0.0 0.0 -4.879487645214e-04 
-9.010013592764e-04 1.886793445211e-04 0.0 
1.886793445211e-04 5.923625585035e-03 0.0 
0.0 0.0 -9.007118478548e-04 
-5.518253028034e-04 -1.783371210292e-04 0.0 
-1.783371210292e-04 3.577417440001e-03 0.0 
0.0 0.0 -5.517684601482e-04 
-2.845535083016e-04 1.977607623024e-04 0.0 
1.977607623024e-04 1.633750881917e-03 0.0 
0.0 0.0 -2.811347238918e-04 
-1.188918642902e-03 -1.918974946843e-04 0.0 
-1.918974946843e-04 8.111302423947e-03 0.0 
0.0 0.0 -1.202908440308e-03 
-3.019785591688e-04 1.950774455604e-04 0.0 
1.950774455604e-04 1.726883632229e-03 0.0 
0.0 0.0 -3.019870735033e-04 
-5.828626320578e-04 1.860512938998e-04 0.0 
1.860512938998e-04 3.705650589538e-03 0.0 
0.0 0.0 -5.822209219963e-04 
-8.781768956791e-04 -1.986806572289e-04 0.0 
-1.986806572289e-04 5.833892611308e-03 0.0 
0.0 0.0 -8.766521650092e-04 
-5.060723315699e-04 1.405250353070e-04 0.0 
1.405250353070e-04 3.287884117068e-03 0.0 
0.0 0.0 -5.239962781855e-04 
-8.898132346488e-04 -1.977943572352e-04 0.0 
-1.977943572352e-04 5.946896776319e-03 0.0 
0.0 0.0 -8.905656347129e-04 
-4.258375091185e-04 -2.178895733922e-04 0.0 
-2.178895733922e-04 2.688533932087e-03 0.0 
0.0 0.0 -4.282508963332e-04 
-7.578747057611e-04 -1.654300402082e-04 0.0 
-1.654300402082e-04 5.036141076678e-03 0.0 
0.0 0.0 -7.823486082854e-04 
-9.004251462807e-04 -1.892315142782e-04 0.0 
-1.892315142782e-04 5.992307029229e-03 0.0 
0.0 0.0 -8.981647654366e-04 
-7.810617461964e-04 -1.867589919143e-04 0.0 
-1.867589919143e-04 5.170374097518e-03 0.0 
0.0 0.0 -7.800125773855e-04 
-8.113930582064e-04 -1.934831491267e-04 0.0 
-1.934831491267e-04 5.398532171848e-03 0.0 
0.0 0.0 -8.126672281948e-04 
-1.456223754451e-04 -1.153284200369e-04 0.0 
-1.153284200369e-04 8.334024863152e-04 0.0 
0.0 0.0 -1.489310416055e-04 
-1.183619524390e-03 -1.995906802131e-04 0.0 
-1.995906802131e-04 7.793015624772e-03 0.0 
0.0 0.0 -1.152567315725e-03 
-6.518619288047e-04 -1.801864724235e-04 0.0 
-1.801864724235e-04 4.278312019353e-03 0.0 
0.0 0.0 -6.514572604261e-04 
-1.161957516655e-03 2.065796963047e-04 0.0 
2.065796963047e-04 7.737413579119e-03 0.0 
0.0 0.0 -1.154039482800e-03 
-9.839722502603e-04 -1.958677314329e-04 0.0 
-1.958677314329e-04 6.578387584555e-03 0.0 
0.0 0.0 -9.821191134873e-04 
-9.294100606495e-04 1.930061835790e-04 0.0 
1.930061835790e-04 6.122204066633e-03 0.0 
0.0 0.0 -9.293965016571e-04 
-9.285061071557e-04 -1.774497838441e-04 0.0 
-1.774497838441e-04 6.189509746344e-03 0.0 
0.0 0.0 -9.268654845074e-04 
-5.996189068561e-04 1.852055889783e-04 0.0 
1.852055889783e-04 3.820597089734e-03 0.0 
0.0 0.0 -5.989583036242e-04 
-1.944838745677e-04 1.584109702941e-04 0.0 
1.584109702941e-04 1.163625171840e-03 0.0 
0.0 0.0 -2.103425724855e-04 
-1.545095455239e-04 1.193388759039e-04 0.0 
1.193388759039e-04 6.563556231282e-04 0.0 
0.0 0.0 -1.599169489567e-04 
-9.548054477989e-04 1.928585704838e-04 0.0 
1.928585704838e-04 6.318843775437e-03 0.0 
0.0 0.0 -9.583065114986e-04 
-1.160173340718e-03 1.884012827659e-04 0.0 
1.884012827659e-04 7.692007981726e-03 0.0 
0.0 0.0 -1.148056181429e-03 
-5.412400896945e-04 -1.740896251804e-04 0.0 
-1.740896251804e-04 3.519775267643e-03 0.0 
0.0 0.0 -5.426247857783e-04 
-1.000629830532e-03 1.900148255988e-04 0.0 
1.900148255988e-04 6.622819157878e-03 0.0 
0.0 0.0 -1.000702849114e-03 
-5.014074309498e-04 1.897737110035e-04 0.0 
1.897737110035e-04 3.104700833587e-03 0.0 
0.0 0.0 -5.002094317253e-04 
-1.008257874699e-03 -1.995045898856e-04 0.0 
-1.995045898856e-04 6.739421236299e-03 0.0 
0.0 0.0 -1.005614027492e-03 
-1.275786431468e-03 1.088711895385e-04 0.0 
1.088711895385e-04 8.693642459064e-03 0.0 
0.0 0.0 -1.266534580134e-03 
-5.404710541813e-05 1.564499946383e-05 0.0 
1.564499946383e-05 2.310460762638e-04 0.0 
0.0 0.0 -4.512473402930e-05 
-1.341620833825e-03 -3.423569445624e-05 0.0 
-3.423569445624e-05 8.854172159816e-03 0.0 
0.0 0.0 -1.341620833825e-03 
-1.340051318819e-03 3.419351748173e-06 0.0 
3.419351748173e-06 8.881496154702e-03 0.0 
0.0 0.0 -1.340051318819e-03 
-8.003500561082e-04 -1.973446332084e-04 0.0 
-1.973446332084e-04 5.182732733425e-03 0.0 
0.0 0.0 -7.955197795907e-04 
-6.427190039752e-04 -1.771623886154e-04 0.0 
-1.771623886154e-04 4.219584582941e-03 0.0 
0.0 0.0 -6.428246066219e-04 
-9.539959357727e-04 -1.903436421630e-04 0.0 
-1.903436421630e-04 6.384067375959e-03 0.0 
0.0 0.0 -9.543595451430e-04 
-6.046483611249e-04 -1.904684548623e-04 0.0 
-1.904684548623e-04 3.941030960147e-03 0.0 
0.0 0.0 -6.041149214933e-04 
-2.015327089857e-04 -1.787857606074e-04 0.0 
-1.787857606074e-04 1.215175486256e-03 0.0 
0.0 0.0 -2.095884814006e-04 
-1.358502302165e-04 -1.652436952664e-04 0.0 
-1.652436952664e-04 5.860561493669e-04 0.0 
0.0 0.0 -1.201211790779e-04 
-1.224116731780e-03 -1.601620163348e-04 0.0 
-1.601620163348e-04 8.159917680932e-03 0.0 
0.0 0.0 -1.209499414335e-03 
-9.670306227229e-04 -2.102097021758e-04 0.0 
-2.102097021758e-04 6.456763428288e-03 0.0 
0.0 0.0 -9.648175333861e-04 
-7.505793698934e-04 -1.832067976458e-04 0.0 
-1.832067976458e-04 4.862883335491e-03 0.0 
0.0 0.0 -7.224789237173e-04 
-1.308106101880e-03 -9.564346375706e-06 0.0 
-9.564346375706e-06 9.104818726286e-03 0.0 
0.0 0.0 -1.323661129950e-03 
-3.723881451927e-04 -2.095753772028e-04 0.0 
-2.095753772028e-04 2.251170567837e-03 0.0 
0.0 0.0 -3.615704333793e-04 
-1.338587368780e-03 -1.150799812328e-05 0.0 
-1.150799812328e-05 9.097604261257e-03 0.0 
0.0 0.0 -1.324908485340e-03 
-9.656783964584e-04 1.862090128514e-04 0.0 
1.862090128514e-04 6.391762053029e-03 0.0 
0.0 0.0 -9.670422101491e-04 
-6.322851321103e-04 -1.782670103149e-04 0.0 
-1.782670103149e-04 4.156088603212e-03 0.0 
0.0 0.0 -6.336394413500e-04 
-9.215195886709e-04 1.858262024963e-04 0.0 
1.858262024963e-04 6.065159777351e-03 0.0 
0.0 0.0 -9.212972352143e-04 
-6.095245585206e-04 1.817233461859e-04 0.0 
1.817233461859e-04 3.888318231073e-03 0.0 
0.0 0.0 -6.094834619596e-04 
-3.161972729321e-04 2.118996039673e-04 0.0 
2.118996039673e-04 1.862493464303e-03 0.0 
0.0 0.0 -3.160312483096e-04 
-5.714172847083e-04 1.885506067566e-04 0.0 
1.885506067566e-04 3.631122930928e-03 0.0 
0.0 0.0 -5.728018649490e-04 
-1.022496320278e-03 1.929428534963e-04 0.0 
1.929428534963e-04 6.770909400157e-03 0.0 
0.0 0.0 -1.023749757194e-03 
-1.150976429886e-03 -2.032424840275e-04 0.0 
-2.032424840275e-04 7.758939253249e-03 0.0 
0.0 0.0 -1.155390781228e-03 
-6.187002398340e-04 1.818215273870e-04 0.0 
1.818215273870e-04 3.950326342677e-03 0.0 
0.0 0.0 -6.181853003094e-04 
-1.037480631671e-03 1.889356953884e-04 0.0 
1.889356953884e-04 6.873009589990e-03 0.0 
0.0 0.0 -1.036271578259e-03 
0.0 0.0 0.0 
0.0 0.0 0.0 
0.0 0.0 0.0 
-6.276661230387e-04 1.792694929943e-04 0.0 
1.792694929943e-04 4.010933515785e-03 0.0 
0.0 0.0 -6.266282162577e-04 
-1.067618640436e-03 -2.059979659696e-04 0.0 
-2.059979659696e-04 7.168819223232e-03 0.0 
0.0 0.0 -1.066385360782e-03 
-5.602476022505e-04 1.913249262792e-04 0.0 
1.913249262792e-04 3.548859392025e-03 0.0 
0.0 0.0 -5.616069800515e-04 
-5.034317169211e-04 -1.766316395617e-04 0.0 
-1.766316395617e-04 3.262973984744e-03 0.0 
0.0 0.0 -5.052880831394e-04 
-9.189958469858e-04 -1.860644213166e-04 0.0 
-1.860644213166e-04 6.131142810909e-03 0.0 
0.0 0.0 -9.187611816440e-04 
-2.798438621560e-04 2.024562614015e-04 0.0 
2.024562614015e-04 1.659164072585e-03 0.0 
0.0 0.0 -2.979563435985e-04 
-4.237702008278e-04 -1.193704641065e-04 0.0 
-1.193704641065e-04 2.381332436810e-03 0.0 
0.0 0.0 -3.867203691650e-04 
-3.975764326489e-04 -1.798608620238e-04 0.0 
-1.798608620238e-04 2.707475849368e-03 0.0 
0.0 0.0 -4.195921675762e-04 
-4.963058465455e-04 1.849091904100e-04 0.0 
1.849091904100e-04 3.099739962777e-03 0.0 
0.0 0.0 -4.973376392308e-04 
-8.459383987433e-04 -1.907145818211e-04 0.0 
-1.907145818211e-04 5.622335891913e-03 0.0 
0.0 0.0 -8.444178005646e-04 
-8.162577903273e-04 1.917219888078e-04 0.0 
1.917219888078e-04 5.328762658263e-03 0.0 
0.0 0.0 -8.147327860212e-04 
-1.033805230838e-03 -2.014200165049e-04 0.0 
-2.014200165049e-04 6.928519613423e-03 0.0 
0.0 0.0 -1.033897369924e-03 
-1.221633880436e-03 1.327525419154e-04 0.0 
1.327525419154e-04 8.105302040654e-03 0.0 
0.0 0.0 -1.224260864640e-03 
-4.437323643489e-04 1.289034247084e-04 0.0 
1.289034247084e-04 2.824272473931e-03 0.0 
0.0 0.0 -4.570814260163e-04 
-1.026282183515e-03 -2.469645237372e-04 0.0 
-2.469645237372e-04 6.837925098464e-03 0.0 
0.0 0.0 -1.028620860735e-03 
-1.232340650598e-03 1.232265702216e-04 0.0 
1.232265702216e-04 8.131356307241e-03 0.0 
0.0 0.0 -1.228414553209e-03 
-5.714514367839e-04 1.903885160707e-04 0.0 
1.903885160707e-04 3.625837711505e-03 0.0 
0.0 0.0 -5.707601703556e-04 
-2.135565257302e-04 2.102195190307e-04 0.0 
2.102195190307e-04 1.190116728888e-03 0.0 
0.0 0.0 -2.192200328082e-04 
-5.324811030586e-04 -1.564509498564e-04 0.0 
-1.564509498564e-04 3.456619354267e-03 0.0 
0.0 0.0 -5.330167430730e-04 
-8.085387987626e-04 -1.885177874859e-04 0.0 
-1.885177874859e-04 5.361946972923e-03 0.0 
0.0 0.0 -8.082977034869e-04 
-1.047924752938e-03 1.956397865657e-04 0.0 
1.956397865657e-04 6.924645327261e-03 0.0 
0.0 0.0 -1.043024347135e-03 
-8.126482086337e-04 1.904262971098e-04 0.0 
1.904262971098e-04 5.297787546946e-03 0.0 
0.0 0.0 -8.108276944599e-04 
-2.458088517300e-04 -1.138196901464e-04 0.0 
-1.138196901464e-04 1.452613291321e-03 0.0 
0.0 0.0 -2.343049260409e-04 
-9.102031090636e-04 -2.013755147983e-04 0.0 
-2.013755147983e-04 6.070783801232e-03 0.0 
0.0 0.0 -9.096068616062e-04 
-3.560167896549e-04 2.151383842188e-04 0.0 
2.151383842188e-04 2.131802985450e-03 0.0 
0.0 0.0 -3.508512830963e-04 
-8.140185260576e-04 -1.926928755879e-04 0.0 
-1.926928755879e-04 5.389465675351e-03 0.0 
0.0 0.0 -8.123573650817e-04 
-8.767776688193e-04 2.024483433582e-04 0.0 
2.024483433582e-04 5.751188307413e-03 0.0 
0.0 0.0 -8.756097305517e-04 
-9.509565837624e-04 1.896974231218e-04 0.0 
1.896974231218e-04 6.265385166788e-03 0.0 
0.0 0.0 -9.491391837787e-04 
-9.274205801970e-04 -1.707730266069e-04 0.0 
-1.707730266069e-04 6.212775611049e-03 0.0 
0.0 0.0 -9.494079867578e-04 
-4.906398001625e-04 -1.749565167891e-04 0.0 
-1.749565167891e-04 3.179973922092e-03 0.0 
0.0 0.0 -4.933620968966e-04 
-2.484574972914e-04 1.853035354058e-04 0.0 
1.853035354058e-04 1.372800011643e-03 0.0 
0.0 0.0 -2.459554264611e-04 
-9.419221611826e-04 2.078178624914e-04 0.0 
2.078178624914e-04 6.213877196692e-03 0.0 
0.0 0.0 -9.415329344942e-04 
-3.796687070467e-04 1.987051729866e-04 0.0 
1.987051729866e-04 2.349690832434e-03 0.0 
0.0 0.0 -3.857152600925e-04 
-1.079925297708e-04 2.094696628342e-04 0.0 
2.094696628342e-04 4.385964497386e-04 0.0 
0.0 0.0 -1.205192217350e-04 
-1.217003238982e-03 1.715975421034e-04 0.0 
1.715975421034e-04 8.115367819263e-03 0.0 
0.0 0.0 -1.223389224544e-03 
-1.152822377069e-03 1.914748152746e-04 0.0 
1.914748152746e-04 7.732583850779e-03 0.0 
0.0 0.0 -1.157435638217e-03 
-9.394432781389e-05 -1.620283716041e-05 0.0 
-1.620283716041e-05 3.135234532211e-04 0.0 
0.0 0.0 -9.410533946025e-05 
-9.757772886518e-04 -2.084469974537e-04 0.0 
-2.084469974537e-04 6.524951865197e-03 0.0 
0.0 0.0 -9.758309632659e-04 
-3.896708157340e-04 -1.763476574512e-04 0.0 
-1.763476574512e-04 2.457499880861e-03 0.0 
0.0 0.0 -3.887237773309e-04 
-4.187709573894e-04 2.113072011151e-04 0.0 
2.113072011151e-04 2.560835545987e-03 0.0 
0.0 0.0 -4.195855280820e-04 
-1.100445862982e-03 1.933828922324e-04 0.0 
1.933828922324e-04 7.327011461119e-03 0.0 
0.0 0.0 -1.100737838324e-03 
-9.470047501209e-04 -1.877990577056e-04 0.0 
-1.877990577056e-04 6.324416518396e-03 0.0 
0.0 0.0 -9.467522836136e-04 
-1.064750852218e-03 1.888034529426e-04 0.0 
1.888034529426e-04 7.071897550473e-03 0.0 
0.0 0.0 -1.064854740548e-03 
-6.246803119834e-04 -1.813696095216e-04 0.0 
-1.813696095216e-04 4.082455365693e-03 0.0 
0.0 0.0 -6.238888496032e-04 
-7.066733059563e-04 2.079397955123e-05 0.0 
2.079397955123e-05 4.859565834242e-03 0.0 
0.0 0.0 -7.105917616147e-04 
-1.294146159652e-03 -3.864697892392e-05 0.0 
-3.864697892392e-05 8.444131533072e-03 0.0 
0.0 0.0 -1.281538364137e-03 
-3.542163761972e-04 2.028127844720e-04 0.0 
2.028127844720e-04 2.096644602115e-03 0.0 
0.0 0.0 -3.541816848729e-04 
-1.125206372116e-03 -1.754172072946e-04 0.0 
-1.754172072946e-04 7.521489804146e-03 0.0 
0.0 0.0 -1.121221582973e-03 
-8.491762958406e-04 -1.918772025260e-04 0.0 
-1.918772025260e-04 5.637172269943e-03 0.0 
0.0 0.0 -8.477100451819e-04 
-2.548170229509e-04 1.666770740485e-04 0.0 
1.666770740485e-04 1.576109573106e-03 0.0 
0.0 0.0 -2.892354545592e-04 
-1.017444257442e-03 1.870623454717e-04 0.0 
1.870623454717e-04 6.717348757916e-03 0.0 
0.0 0.0 -1.015166614560e-03 
-6.631831128869e-04 1.857158928685e-04 0.0 
1.857158928685e-04 4.263729749941e-03 0.0 
0.0 0.0 -6.628028861993e-04 
-1.684732311542e-04 2.043772270911e-05 0.0 
2.043772270911e-05 7.313008481942e-04 0.0 
0.0 0.0 -1.790968519484e-04 
-5.636882380034e-04 1.819527752724e-04 0.0 
1.819527752724e-04 3.574156729662e-03 0.0 
0.0 0.0 -5.632129589051e-04 
-9.884210265131e-04 1.935912308442e-04 0.0 
1.935912308442e-04 6.630368017319e-03 0.0 
0.0 0.0 -9.915417172310e-04 
-1.024292652289e-03 -1.998354067082e-04 0.0 
-1.998354067082e-04 6.855679602380e-03 0.0 
0.0 0.0 -1.020980360542e-03 
-2.668718187996e-04 -1.887143997354e-04 0.0 
-1.887143997354e-04 1.647579462571e-03 0.0 
0.0 0.0 -2.713190868338e-04 
-7.786512140660e-04 -1.180089749437e-04 0.0 
-1.180089749437e-04 5.426201302135e-03 0.0 
0.0 0.0 -8.076288038732e-04 
-1.074110154891e-03 1.985848318848e-04 0.0 
1.985848318848e-04 7.134481455861e-03 0.0 
0.0 0.0 -1.071782534217e-03 
-1.102896231441e-03 -1.801608730722e-04 0.0 
-1.801608730722e-04 7.447194143767e-03 0.0 
0.0 0.0 -1.109893377180e-03 
-5.341916501155e-04 1.805786256933e-04 0.0 
1.805786256933e-04 3.363027861628e-03 0.0 
0.0 0.0 -5.351738145117e-04 
-4.305045173777e-04 1.931657245159e-04 0.0 
1.931657245159e-04 2.621086994850e-03 0.0 
0.0 0.0 -4.333934152438e-04 
-8.799765506503e-04 1.996562479782e-04 0.0 
1.996562479782e-04 5.778741680504e-03 0.0 
0.0 0.0 -8.786267582723e-04 
-9.199821990293e-04 -2.154181819419e-04 0.0 
-2.154181819419e-04 6.117399840533e-03 0.0 
0.0 0.0 -9.278975173457e-04 
-1.674260928547e-04 -1.501342801200e-05 0.0 
-1.501342801200e-05 7.277150164987e-04 0.0 
0.0 0.0 -1.762926913357e-04 
-1.274115998275e-03 1.675675276397e-06 0.0 
1.675675276397e-06 8.713591812970e-03 0.0 
0.0 0.0 -1.269179263065e-03 
-1.298508155882e-03 1.869502884699e-05 0.0 
1.869502884699e-05 8.443421948614e-03 0.0 
0.0 0.0 -1.281197857596e-03 
-8.292940884850e-04 -1.917175163009e-04 0.0 
-1.917175163009e-04 5.414946975703e-03 0.0 
0.0 0.0 -8.387747867703e-04 
-1.244952979202e-03 -2.282010355606e-04 0.0 
-2.282010355606e-04 8.516132030964e-03 0.0 
0.0 0.0 -1.255037608383e-03 
-1.285595461777e-03 8.758262611811e-05 0.0 
8.758262611811e-05 8.470225568410e-03 0.0 
0.0 0.0 -1.285499913836e-03 
-6.550628368553e-04 1.846091374222e-04 0.0 
1.846091374222e-04 4.205898052995e-03 0.0 
0.0 0.0 -6.542748834104e-04 
-6.160633711768e-04 -1.792561832398e-04 0.0 
-1.792561832398e-04 4.023102319788e-03 0.0 
0.0 0.0 -6.153450468602e-04 
-1.283033344166e-03 -3.678337033116e-05 0.0 
-3.678337033116e-05 8.728014596535e-03 0.0 
0.0 0.0 -1.265535665854e-03 
0.0 0.0 0.0 
0.0 0.0 0.0 
0.0 0.0 0.0 
-3.991066787644e-04 2.089649564117e-04 0.0 
2.089649564117e-04 2.425063075378e-03 0.0 
0.0 0.0 -3.941707820484e-04 
-8.514609378297e-04 2.123409869842e-04 0.0 
2.123409869842e-04 5.409120252618e-03 0.0 
0.0 0.0 -8.329475646481e-04 
-5.302799896406e-04 -1.732779148190e-04 0.0 
-1.732779148190e-04 3.448271069514e-03 0.0 
0.0 0.0 -5.313546330462e-04 
-5.563051708704e-04 1.844916340552e-04 0.0 
1.844916340552e-04 3.512912497570e-03 0.0 
0.0 0.0 -5.546931404481e-04 
-3.415568276899e-04 -1.308054941932e-04 0.0 
-1.308054941932e-04 1.889315350148e-03 0.0 
0.0 0.0 -3.196518454468e-04 
-3.575678493769e-04 -1.815157908242e-04 0.0 
-1.815157908242e-04 2.264784395116e-03 0.0 
0.0 0.0 -3.528063275151e-04 
-8.197996438865e-04 -1.649479054575e-04 0.0 
-1.649479054575e-04 5.559213606059e-03 0.0 
0.0 0.0 -8.290026594306e-04 
-5.969369916123e-04 -1.873932769646e-04 0.0 
-1.873932769646e-04 3.888936242251e-03 0.0 
0.0 0.0 -5.962921515785e-04 
-4.656748358331e-04 1.698564554768e-04 0.0 
1.698564554768e-04 2.821912241396e-03 0.0 
0.0 0.0 -4.583473518421e-04 
-1.081990949278e-03 2.020316486046e-04 0.0 
2.020316486046e-04 7.171935137813e-03 0.0 
0.0 0.0 -1.077832113627e-03 
-1.313638198111e-03 -3.076900631363e-06 0.0 
-3.076900631363e-06 9.102354608081e-03 0.0 
0.0 0.0 -1.324978758543e-03 
-1.341095485501e-03 -7.065196985573e-05 0.0 
-7.065196985573e-05 9.093683970561e-03 0.0 
0.0 0.0 -1.320624918399e-03 
-6.462169745443e-04 1.855628978642e-04 0.0 
1.855628978642e-04 4.145339439620e-03 0.0 
0.0 0.0 -6.457427040837e-04 
-7.708747032324e-04 1.041783851500e-04 0.0 
1.041783851500e-04 4.982091340538e-03 0.0 
0.0 0.0 -7.877541558771e-04 
-8.769640556113e-05 6.178156653826e-05 0.0 
6.178156653826e-05 4.782988861832e-04 0.0 
0.0 0.0 -9.215226380795e-05 
-2.633621526955e-04 -2.203101725458e-04 0.0 
-2.203101725458e-04 1.488332341374e-03 0.0 
0.0 0.0 -2.565684379859e-04 
-2.684503074307e-04 -1.015967117789e-04 0.0 
-1.015967117789e-04 1.723596733048e-03 0.0 
0.0 0.0 -2.726290318112e-04 
-2.937144985059e-04 -1.893501464246e-04 0.0 
-1.893501464246e-04 1.729218905568e-03 0.0 
0.0 0.0 -2.902597925154e-04 
-9.132607495649e-04 -1.959093978122e-04 0.0 
-1.959093978122e-04 6.073898974161e-03 0.0 
0.0 0.0 -9.116044729693e-04 
-5.464820601322e-04 1.827990156846e-04 0.0 
1.827990156846e-04 3.450683961523e-03 0.0 
0.0 0.0 -5.459662534218e-04 
-5.889189184563e-04 -1.828572680717e-04 0.0 
-1.828572680717e-04 3.834736165112e-03 0.0 
0.0 0.0 -5.879858557453e-04 
-1.839870051548e-04 -1.451969745408e-04 0.0 
-1.451969745408e-04 1.010884541365e-03 0.0 
0.0 0.0 -1.607067486349e-04 
-1.189299804196e-03 3.101361533260e-05 0.0 
3.101361533260e-05 7.702189552740e-03 0.0 
0.0 0.0 -1.176327079312e-03 
-5.798619533544e-04 -1.808661495354e-04 0.0 
-1.808661495354e-04 3.773380412779e-03 0.0 
0.0 0.0 -5.792774345575e-04 
-1.207908513450e-03 1.972281472903e-04 0.0 
1.972281472903e-04 8.083641670665e-03 0.0 
0.0 0.0 -1.212957849656e-03 
-1.102884565855e-03 -1.433383463997e-04 0.0 
-1.433383463997e-04 7.411218118786e-03 0.0 
0.0 0.0 -1.117460450001e-03 
-1.327052993259e-03 5.039016474573e-05 0.0 
5.039016474573e-05 9.117456944273e-03 0.0 
0.0 0.0 -1.319418651152e-03 
-1.323160438534e-03 4.113209317422e-05 0.0 
4.113209317422e-05 9.111232254039e-03 0.0 
0.0 0.0 -1.324849633189e-03 
-8.429214028196e-04 1.551938721598e-04 0.0 
1.551938721598e-04 5.556754036542e-03 0.0 
0.0 0.0 -8.315138651140e-04 
-6.054182665991e-04 -1.761595556498e-04 0.0 
-1.761595556498e-04 3.962557590826e-03 0.0 
0.0 0.0 -6.063493599946e-04 
-3.773225086312e-04 1.540184482810e-04 0.0 
1.540184482810e-04 2.369883884178e-03 0.0 
0.0 0.0 -3.884917441798e-04 
-6.362526417499e-04 1.880822988669e-04 0.0 
1.880822988669e-04 4.081289822239e-03 0.0 
0.0 0.0 -6.367902913543e-04 
-1.343328350294e-03 -2.242232029301e-05 0.0 
-2.242232029301e-05 8.871791449146e-03 0.0 
0.0 0.0 -1.343328350294e-03 
-1.941237960476e-04 -2.080169990244e-04 0.0 
-2.080169990244e-04 1.015510769409e-03 0.0 
0.0 0.0 -1.893367542308e-04 
-2.245210048569e-04 -1.692984650134e-04 0.0 
-1.692984650134e-04 1.259236592297e-03 0.0 
0.0 0.0 -2.228547875044e-04 
-1.167115373107e-03 -1.495116845836e-04 0.0 
-1.495116845836e-04 7.791699083978e-03 0.0 
0.0 0.0 -1.156027955174e-03 
-7.604196719999e-04 1.094016003107e-05 0.0 
1.094016003107e-05 5.257478836262e-03 0.0 
0.0 0.0 -7.715229432315e-04 
-1.218850929264e-03 2.058644676409e-04 0.0 
2.058644676409e-04 8.144525734943e-03 0.0 
0.0 0.0 -1.219279742240e-03 
-1.071479820018e-03 -2.036323164842e-04 0.0 
-2.036323164842e-04 7.177512432405e-03 0.0 
0.0 0.0 -1.069611963270e-03 
-1.173316210076e-03 1.967322517176e-04 0.0 
1.967322517176e-04 7.835584524311e-03 0.0 
0.0 0.0 -1.175036385391e-03 
-1.118458415257e-03 -2.207277967069e-04 0.0 
-2.207277967069e-04 7.508134580034e-03 0.0 
0.0 0.0 -1.113576918908e-03 
-8.412072480000e-04 1.822595111317e-04 0.0 
1.822595111317e-04 5.484810982913e-03 0.0 
0.0 0.0 -8.542750875041e-04 
-4.656106938285e-04 -1.713235230467e-04 0.0 
-1.713235230467e-04 3.001776381545e-03 0.0 
0.0 0.0 -4.674384380614e-04 
-4.697017346435e-04 1.848050694814e-04 0.0 
1.848050694814e-04 2.920597782787e-03 0.0 
0.0 0.0 -4.715697005044e-04 
-9.776991098987e-04 1.861960494421e-04 0.0 
1.861960494421e-04 6.549106674112e-03 0.0 
0.0 0.0 -9.963059934037e-04 
-1.137349181097e-03 -2.318464835195e-04 0.0 
-2.318464835195e-04 7.668040183404e-03 0.0 
0.0 0.0 -1.142506377625e-03 
-7.233340711098e-04 3.952444560705e-05 0.0 
3.952444560705e-05 4.569127107640e-03 0.0 
0.0 0.0 -7.345222264051e-04 
-7.670993363221e-04 9.419055025908e-06 0.0 
9.419055025908e-06 5.242908179151e-03 0.0 
0.0 0.0 -7.676068998053e-04 
-8.154774784067e-04 -6.428956903013e-05 0.0 
-6.428956903013e-05 5.577286133227e-03 0.0 
0.0 0.0 -8.242303029217e-04 
-8.631530775678e-04 -2.400243606271e-04 0.0 
-2.400243606271e-04 5.666444636217e-03 0.0 
0.0 0.0 -8.467401457521e-04 
-2.520894261651e-04 1.671748571762e-04 0.0 
1.671748571762e-04 1.368563506488e-03 0.0 
0.0 0.0 -2.397236108670e-04 
-4.305788114656e-04 1.772776305973e-04 0.0 
1.772776305973e-04 2.648122848143e-03 0.0 
0.0 0.0 -4.335179088089e-04 
-1.282591321733e-03 8.806658448800e-05 0.0 
8.806658448800e-05 8.712918664304e-03 0.0 
0.0 0.0 -1.269310366786e-03 
-9.079866980401e-04 -2.164843828387e-04 0.0 
-2.164843828387e-04 6.067165963345e-03 0.0 
0.0 0.0 -9.150577043801e-04 
-1.296402067617e-03 1.470406796949e-04 0.0 
1.470406796949e-04 8.670707295504e-03 0.0 
0.0 0.0 -1.295322057178e-03 
-1.218050556302e-03 -1.658124096046e-04 0.0 
-1.658124096046e-04 8.300187960416e-03 0.0 
0.0 0.0 -1.215577547940e-03 
-1.017494637499e-03 -1.921677140224e-04 0.0 
-1.921677140224e-04 6.789033766802e-03 0.0 
0.0 0.0 -1.012565562176e-03 
-1.225370251071e-03 -1.480578321934e-04 0.0 
-1.480578321934e-04 8.186203026488e-03 0.0 
0.0 0.0 -1.214907066889e-03 
-6.126094482220e-04 1.499930831992e-04 0.0 
1.499930831992e-04 3.952786327319e-03 0.0 
0.0 0.0 -6.304496659280e-04 
-5.949124951754e-04 1.553635317388e-04 0.0 
1.553635317388e-04 3.760564116659e-03 0.0 
0.0 0.0 -5.666856080635e-04 
-1.240251440986e-03 1.401266566937e-04 0.0 
1.401266566937e-04 8.128078577480e-03 0.0 
0.0 0.0 -1.226851238141e-03 
-8.681779237144e-05 6.361966938889e-05 0.0 
6.361966938889e-05 2.955256088903e-04 0.0 
0.0 0.0 -8.944620707951e-05 
-3.994468741372e-04 -6.433767031839e-05 0.0 
-6.433767031839e-05 2.663800316761e-03 0.0 
0.0 0.0 -4.071640756073e-04 
-1.342405754833e-03 -1.165290042752e-05 0.0 
-1.165290042752e-05 8.847278625245e-03 0.0 
0.0 0.0 -1.342405754833e-03 
-2.282183831112e-04 -1.931913246922e-04 0.0 
-1.931913246922e-04 1.161289386138e-03 0.0 
0.0 0.0 -2.265802816212e-04 
-7.779914563104e-04 2.250840471912e-05 0.0 
2.250840471912e-05 4.976100040424e-03 0.0 
0.0 0.0 -7.870118106326e-04 
-1.235301241696e-03 -4.597267687941e-05 0.0 
-4.597267687941e-05 8.352549433382e-03 0.0 
0.0 0.0 -1.213461936786e-03 
-1.459711515859e-04 1.404844411890e-04 0.0 
1.404844411890e-04 8.229618690863e-04 0.0 
0.0 0.0 -1.562362318669e-04 
-9.769154927044e-05 -4.466849095827e-05 0.0 
-4.466849095827e-05 5.434427193165e-04 0.0 
0.0 0.0 -9.998712429274e-05 
-1.319764072821e-03 -1.098631366031e-04 0.0 
-1.098631366031e-04 9.086194502793e-03 0.0 
0.0 0.0 -1.324389858384e-03 
-7.180738404627e-04 8.985801949804e-05 0.0 
8.985801949804e-05 4.589525670273e-03 0.0 
0.0 0.0 -7.294542769151e-04 
-1.252043255197e-03 2.202164088422e-04 0.0 
2.202164088422e-04 8.539160480101e-03 0.0 
0.0 0.0 -1.261418349269e-03 
-1.248383097869e-03 1.112925247003e-05 0.0 
1.112925247003e-05 8.098072079257e-03 0.0 
0.0 0.0 -1.231858344535e-03 
-7.209227692000e-04 -5.510654877091e-05 0.0 
-5.510654877091e-05 4.575450219389e-03 0.0 
0.0 0.0 -7.289279708929e-04 
-7.887389828835e-05 -1.017830300428e-05 0.0 
-1.017830300428e-05 5.525360744204e-04 0.0 
0.0 0.0 -9.740250892546e-05 
-1.285641185581e-03 -9.669087187560e-05 0.0 
-9.669087187560e-05 8.464210102403e-03 0.0 
0.0 0.0 -1.284140717545e-03 
-2.442885352264e-04 -2.316128597141e-04 0.0 
-2.316128597141e-04 1.339036366237e-03 0.0 
0.0 0.0 -2.433545560381e-04 
-1.243394787484e-03 1.248159333677e-04 0.0 
1.248159333677e-04 8.192432393622e-03 0.0 
0.0 0.0 -1.232184317627e-03 
-1.343095105526e-03 -5.545911197424e-07 0.0 
-5.545911197424e-07 8.861098076103e-03 0.0 
0.0 0.0 -1.343095105526e-03 
-1.242483488035e-03 -1.476678323207e-04 0.0 
-1.476678323207e-04 8.164481882699e-03 0.0 
0.0 0.0 -1.225700354592e-03 
-3.053173479735e-04 1.995595624775e-04 0.0 
1.995595624775e-04 1.753941284829e-03 0.0 
0.0 0.0 -3.044764127662e-04 
-8.209179416884e-04 2.201614491088e-05 0.0 
2.201614491088e-05 5.636691216410e-03 0.0 
0.0 0.0 -8.279144014868e-04 
-6.598213782971e-04 -1.321361913962e-04 0.0 
-1.321361913962e-04 4.200506500251e-03 0.0 
0.0 0.0 -6.271989868224e-04 
-1.073009497438e-03 -2.016133877389e-04 0.0 
-2.016133877389e-04 7.190278966189e-03 0.0 
0.0 0.0 -1.077599360682e-03 
-1.322804215539e-03 -9.225806505956e-05 0.0 
-9.225806505956e-05 9.099454060859e-03 0.0 
0.0 0.0 -1.326997735404e-03 
-1.068734190482e-03 1.262415369066e-04 0.0 
1.262415369066e-04 7.132952485478e-03 0.0 
0.0 0.0 -1.061614915164e-03 
-1.337358869243e-03 1.104149306633e-04 0.0 
1.104149306633e-04 9.089889591754e-03 0.0 
0.0 0.0 -1.325870641008e-03 
-1.438532979018e-04 1.783345522893e-04 0.0 
1.783345522893e-04 7.477808023263e-04 0.0 
0.0 0.0 -1.715795432680e-04 
-1.271233225915e-03 -1.249047643759e-04 0.0 
-1.249047643759e-04 8.707020070809e-03 0.0 
0.0 0.0 -1.277656510522e-03 
-3.430844418630e-04 1.264811275403e-04 0.0 
1.264811275403e-04 2.040518818998e-03 0.0 
0.0 0.0 -3.355960889912e-04 
-2.267326677211e-04 8.751186841259e-05 0.0 
8.751186841259e-05 1.117406703756e-03 0.0 
0.0 0.0 -2.298118214877e-04 
-1.280901782935e-03 -1.009695952617e-04 0.0 
-1.009695952617e-04 8.719202259105e-03 0.0 
0.0 0.0 -1.270335377537e-03 
-1.269212628500e-03 -5.703432125200e-05 0.0 
-5.703432125200e-05 8.728165820739e-03 0.0 
0.0 0.0 -1.270603359501e-03 
-1.290208848840e-03 -1.659042855401e-04 0.0 
-1.659042855401e-04 8.665328582140e-03 0.0 
0.0 0.0 -1.289850838753e-03 
-7.717572245574e-04 2.050611335135e-04 0.0 
2.050611335135e-04 5.043252484980e-03 0.0 
0.0 0.0 -7.762633204683e-04 
-8.522136042616e-04 2.002639843872e-04 0.0 
2.002639843872e-04 5.495330100218e-03 0.0 
0.0 0.0 -8.489529362435e-04 
-3.165071740037e-04 -2.111753426377e-04 0.0 
-2.111753426377e-04 1.888408226457e-03 0.0 
0.0 0.0 -3.134500106614e-04 
-1.262455248765e-03 -8.092303513728e-05 0.0 
-8.092303513728e-05 8.720636871640e-03 0.0 
0.0 0.0 -1.273041473476e-03 
-5.172296523503e-04 1.719980447266e-04 0.0 
1.719980447266e-04 3.374654497821e-03 0.0 
0.0 0.0 -5.357483711987e-04 
-1.781924616035e-04 -1.691974037750e-04 0.0 
-1.691974037750e-04 1.076416545498e-03 0.0 
0.0 0.0 -2.114276361914e-04 
-1.103945436021e-03 1.858035491712e-04 0.0 
1.858035491712e-04 7.419563175353e-03 0.0 
0.0 0.0 -1.110141529071e-03 
-7.006483677025e-04 -2.017256137276e-05 0.0 
-2.017256137276e-05 4.817249357728e-03 0.0 
0.0 0.0 -7.096328662732e-04 
-1.236750495474e-03 1.522707816399e-04 0.0 
1.522707816399e-04 8.254648441428e-03 0.0 
0.0 0.0 -1.237729719596e-03 
-1.313320395878e-03 -1.861843894467e-04 0.0 
-1.861843894467e-04 8.989774958204e-03 0.0 
0.0 0.0 -1.321509982054e-03 
-1.343732204276e-03 -8.189586176297e-06 0.0 
-8.189586176297e-06 8.864848236539e-03 0.0 
0.0 0.0 -1.343732204276e-03 
-2.113977103298e-05 -6.116564405309e-05 0.0 
-6.116564405309e-05 2.124468673954e-04 0.0 
0.0 0.0 -4.293446239042e-05 
-1.369574587125e-05 5.682883385819e-05 0.0 
5.682883385819e-05 6.671587994242e-05 0.0 
0.0 0.0 -2.272291460193e-05 
-7.269437089926e-04 -1.696449694041e-04 0.0 
-1.696449694041e-04 4.683701017331e-03 0.0 
0.0 0.0 -7.318233512793e-04 
-7.351939856936e-04 2.731264159563e-05 0.0 
2.731264159563e-05 4.828327016366e-03 0.0 
0.0 0.0 -7.096011290571e-04 
-1.343732204276e-03 1.179896387127e-05 0.0 
1.179896387127e-05 8.857063084495e-03 0.0 
0.0 0.0 -1.343732204276e-03 
-1.309711018183e-03 1.830632258291e-04 0.0 
1.830632258291e-04 8.985110969777e-03 0.0 
0.0 0.0 -1.321509982054e-03 
-7.839023714476e-05 1.530759167141e-04 0.0 
1.530759167141e-04 4.984351001574e-04 0.0 
0.0 0.0 -9.787861857360e-05 
0.0 0.0 0.0 
0.0 0.0 0.0 
0.0 0.0 0.0 
-1.240428741391e-03 1.261681395074e-04 0.0 
1.261681395074e-04 8.137366373926e-03 0.0 
0.0 0.0 -1.230181737024e-03 
-1.207075559038e-03 2.460354552527e-04 0.0 
2.460354552527e-04 8.184062138694e-03 0.0 
0.0 0.0 -1.209364118140e-03 
-2.516969952369e-04 -1.461428108360e-04 0.0 
-1.461428108360e-04 1.687102641450e-03 0.0 
0.0 0.0 -2.712674790923e-04 
-1.245262172265e-03 -1.311938195306e-04 0.0 
-1.311938195306e-04 8.282968492479e-03 0.0 
0.0 0.0 -1.240191881334e-03 
-8.815159713633e-04 -5.214653451851e-05 0.0 
-5.214653451851e-05 5.742054567636e-03 0.0 
0.0 0.0 -8.888375990210e-04 
-7.830091470663e-04 -1.948066662000e-04 0.0 
-1.948066662000e-04 5.082527524584e-03 0.0 
0.0 0.0 -7.610796297342e-04 
-9.561048422875e-04 9.798803026384e-05 0.0 
9.798803026384e-05 6.427121213030e-03 0.0 
0.0 0.0 -9.400782610458e-04 
-2.481095332731e-04 1.496361777487e-04 0.0 
1.496361777487e-04 1.515795619755e-03 0.0 
0.0 0.0 -2.626203152100e-04 
-1.010907895305e-03 -2.030439122722e-04 0.0 
-2.030439122722e-04 6.762603191825e-03 0.0 
0.0 0.0 -1.011657465016e-03 
-2.096777059838e-04 3.248157080125e-05 0.0 
3.248157080125e-05 1.393633952846e-03 0.0 
0.0 0.0 -2.181484037039e-04 
-6.792638343957e-04 -1.892634513455e-04 0.0 
-1.892634513455e-04 4.524953282507e-03 0.0 
0.0 0.0 -6.997415131527e-04 
-1.228132135990e-03 1.125898781112e-04 0.0 
1.125898781112e-04 8.215057351811e-03 0.0 
0.0 0.0 -1.240519096027e-03 
-1.189706231828e-03 -2.131151468578e-04 0.0 
-2.131151468578e-04 8.025000395541e-03 0.0 
0.0 0.0 -1.191726112421e-03 
-7.376716687014e-04 1.103821202312e-04 0.0 
1.103821202312e-04 4.884590449631e-03 0.0 
0.0 0.0 -7.690942022927e-04 
-8.794968587203e-04 -1.839618802493e-04 0.0 
-1.839618802493e-04 5.894695197839e-03 0.0 
0.0 0.0 -8.745659502648e-04 
-1.233301431487e-03 8.160038213140e-05 0.0 
8.160038213140e-05 8.358065301524e-03 0.0 
0.0 0.0 -1.217119345309e-03 
-1.141574387304e-03 -2.166019370135e-04 0.0 
-2.166019370135e-04 7.685657586840e-03 0.0 
0.0 0.0 -1.140944809983e-03 
-1.081193771009e-03 -2.086711321349e-04 0.0 
-2.086711321349e-04 7.235399972245e-03 0.0 
0.0 0.0 -1.076426999079e-03 
-7.306608964195e-04 1.032073657561e-05 0.0 
1.032073657561e-05 4.566565227243e-03 0.0 
0.0 0.0 -7.312123441678e-04 
-9.778650762194e-04 -2.118658920496e-04 0.0 
-2.118658920496e-04 6.529297964408e-03 0.0 
0.0 0.0 -9.763781674015e-04 
-1.237478436388e-03 1.224174650821e-04 0.0 
1.224174650821e-04 8.159420566097e-03 0.0 
0.0 0.0 -1.231404929774e-03 
-4.267545194733e-04 1.185171473709e-04 0.0 
1.185171473709e-04 2.513528635352e-03 0.0 
0.0 0.0 -4.167967844001e-04 
-9.921663346510e-05 -4.441075622388e-05 0.0 
-4.441075622388e-05 6.032903446548e-04 0.0 
0.0 0.0 -1.015157820784e-04 
-1.196520802042e-03 -1.451432414407e-04 0.0 
-1.451432414407e-04 7.939655555732e-03 0.0 
0.0 0.0 -1.185975225609e-03 
-1.126502929027e-03 1.777561321906e-04 0.0 
1.777561321906e-04 7.477268686063e-03 0.0 
0.0 0.0 -1.123538223191e-03 
-2.078344596567e-04 -1.080252995939e-04 0.0 
-1.080252995939e-04 1.116725601039e-03 0.0 
0.0 0.0 -2.307047010092e-04 
-9.934730169900e-04 -1.599306293238e-04 0.0 
-1.599306293238e-04 6.730831912440e-03 0.0 
0.0 0.0 -9.893338170986e-04 
-1.294485487258e-03 -4.211486433477e-05 0.0 
-4.211486433477e-05 8.454062998903e-03 0.0 
0.0 0.0 -1.282739585886e-03 
-1.188427124013e-03 1.207612322075e-04 0.0 
1.207612322075e-04 7.845258460139e-03 0.0 
0.0 0.0 -1.182073443778e-03 
-1.229516741237e-03 -2.922411445837e-05 0.0 
-2.922411445837e-05 8.351941012254e-03 0.0 
0.0 0.0 -1.215129606110e-03 
-9.509005340637e-04 -2.110936823322e-04 0.0 
-2.110936823322e-04 6.286467037558e-03 0.0 
0.0 0.0 -9.537126495859e-04 
-9.113657589530e-05 5.031862656042e-05 0.0 
5.031862656042e-05 3.206408784026e-04 0.0 
0.0 0.0 -9.835898678883e-05 
-3.211470424961e-04 1.012653271347e-04 0.0 
1.012653271347e-04 1.877306534774e-03 0.0 
0.0 0.0 -3.212443691966e-04 
-3.868345573263e-04 -2.158079183948e-04 0.0 
-2.158079183948e-04 2.373525116556e-03 0.0 
0.0 0.0 -3.834349432650e-04 
-8.152074782469e-04 3.282099269049e-05 0.0 
3.282099269049e-05 5.366100763401e-03 0.0 
0.0 0.0 -8.471429939415e-04 
-9.776446367943e-04 2.161934057613e-04 0.0 
2.161934057613e-04 6.478555405996e-03 0.0 
0.0 0.0 -9.781602908260e-04 
-1.243353399719e-03 -1.638877946274e-04 0.0 
-1.638877946274e-04 8.293874922919e-03 0.0 
0.0 0.0 -1.236541257690e-03 
-1.282980388071e-03 6.834535406594e-05 0.0 
6.834535406594e-05 8.446722746771e-03 0.0 
0.0 0.0 -1.282325209426e-03 
-1.534406041715e-04 -3.090119355691e-05 0.0 
-3.090119355691e-05 9.940803017302e-04 0.0 
0.0 0.0 -1.581060378624e-04 
-1.515974677088e-04 5.347591743218e-05 0.0 
5.347591743218e-05 9.499659581657e-04 0.0 
0.0 0.0 -1.538280640939e-04 
-2.429997348883e-04 2.036444813406e-04 0.0 
2.036444813406e-04 1.479432396382e-03 0.0 
0.0 0.0 -2.585189829319e-04 
-1.003671688667e-03 2.798952750373e-04 0.0 
2.798952750373e-04 6.711627995117e-03 0.0 
0.0 0.0 -1.019242131223e-03 
-5.082641639815e-04 -1.820796698733e-04 0.0 
-1.820796698733e-04 3.225266612081e-03 0.0 
0.0 0.0 -4.953283059016e-04 
-1.242349672414e-03 -1.508059351583e-04 0.0 
-1.508059351583e-04 8.332022443394e-03 0.0 
0.0 0.0 -1.241298427557e-03 
-2.469827383887e-04 -1.734013788770e-04 0.0 
-1.734013788770e-04 1.596418989747e-03 0.0 
0.0 0.0 -2.623907620756e-04 
-1.225402262687e-03 9.684378834699e-05 0.0 
9.684378834699e-05 8.090992196229e-03 0.0 
0.0 0.0 -1.221152601860e-03 
-8.136377301276e-04 1.789287431363e-04 0.0 
1.789287431363e-04 5.446005510680e-03 0.0 
0.0 0.0 -8.343732341398e-04 
-1.267827958096e-03 1.379445383926e-06 0.0 
1.379445383926e-06 8.495733417342e-03 0.0 
0.0 0.0 -1.286815605725e-03 
-1.109817670536e-03 -2.343370330106e-04 0.0 
-2.343370330106e-04 7.482609533299e-03 0.0 
0.0 0.0 -1.111121968474e-03 
-8.202418952196e-04 -8.830664857131e-05 0.0 
-8.830664857131e-05 5.379056120884e-03 0.0 
0.0 0.0 -8.465141837044e-04 
-1.270879538861e-03 -4.852122928062e-05 0.0 
-4.852122928062e-05 8.726187780208e-03 0.0 
0.0 0.0 -1.269142588751e-03 
-1.282679052200e-03 7.789633126418e-05 0.0 
7.789633126418e-05 8.731686959293e-03 0.0 
0.0 0.0 -1.272727265576e-03 
-1.257303152988e-03 6.224102812160e-05 0.0 
6.224102812160e-05 8.713074082016e-03 0.0 
0.0 0.0 -1.271339345674e-03 
-1.734083018693e-04 1.988310073065e-04 0.0 
1.988310073065e-04 9.960919397328e-04 0.0 
0.0 0.0 -1.914719991171e-04 
-1.218228496203e-03 1.745230460975e-04 0.0 
1.745230460975e-04 8.126336924162e-03 0.0 
0.0 0.0 -1.218309553141e-03 
-1.287690608828e-03 2.935127504918e-05 0.0 
2.935127504918e-05 8.450884291377e-03 0.0 
0.0 0.0 -1.286645293131e-03 
-1.215292120313e-03 -1.048319889731e-04 0.0 
-1.048319889731e-04 8.264175100215e-03 0.0 
0.0 0.0 -1.211735819529e-03 
-1.131460186021e-03 2.249929147144e-04 0.0 
2.249929147144e-04 7.604741910755e-03 0.0 
0.0 0.0 -1.143254064081e-03 
-1.342665167303e-03 2.462626238341e-05 0.0 
2.462626238341e-05 8.842656329326e-03 0.0 
0.0 0.0 -1.342665167303e-03 
-1.082512435834e-03 2.096972143521e-04 0.0 
2.096972143521e-04 7.169850347795e-03 0.0 
0.0 0.0 -1.079065255302e-03 
0.0 0.0 0.0 
0.0 0.0 0.0 
0.0 0.0 0.0 
-2.601109826526e-04 -2.071691114658e-04 0.0 
-2.071691114658e-04 1.415839820494e-03 0.0 
0.0 0.0 -2.423809483696e-04 
-1.192508312149e-03 -1.779210084662e-04 0.0 
-1.779210084662e-04 7.961128754995e-03 0.0 
0.0 0.0 -1.176936364471e-03 
-8.685626322098e-04 1.582275665785e-04 0.0 
1.582275665785e-04 5.835782021141e-03 0.0 
0.0 0.0 -8.884613587993e-04 
-1.209889234857e-03 -1.955325308149e-04 0.0 
-1.955325308149e-04 8.188769710119e-03 0.0 
0.0 0.0 -1.221994126432e-03 
-1.170503729369e-03 -2.209983450853e-04 0.0 
-2.209983450853e-04 7.908922597115e-03 0.0 
0.0 0.0 -1.177009544428e-03 
-1.281372639421e-03 -4.882657488475e-05 0.0 
-4.882657488475e-05 8.503605837596e-03 0.0 
0.0 0.0 -1.292249833993e-03 
-1.060591200894e-03 2.356899093670e-04 0.0 
2.356899093670e-04 7.243032913762e-03 0.0 
0.0 0.0 -1.085521458831e-03 
-1.295424128128e-03 -1.344853644109e-05 0.0 
-1.344853644109e-05 8.497735658802e-03 0.0 
0.0 0.0 -1.288973456333e-03 
-1.240273266268e-03 -1.643959908807e-04 0.0 
-1.643959908807e-04 8.288290248441e-03 0.0 
0.0 0.0 -1.233322439334e-03 
-1.236328969747e-03 1.681015718690e-04 0.0 
1.681015718690e-04 8.249087621686e-03 0.0 
0.0 0.0 -1.235043566395e-03 
-5.200406812990e-04 -1.166757664344e-04 0.0 
-1.166757664344e-04 3.385215487565e-03 0.0 
0.0 0.0 -5.104964012366e-04 
-1.293388642315e-03 -2.007549829059e-05 0.0 
-2.007549829059e-05 9.114239519402e-03 0.0 
0.0 0.0 -1.325641941534e-03 
-7.485652657637e-04 1.433772634922e-05 0.0 
1.433772634922e-05 5.220751556451e-03 0.0 
0.0 0.0 -7.662153309038e-04 
-1.203353616892e-03 -1.846454248332e-04 0.0 
-1.846454248332e-04 8.194731648824e-03 0.0 
0.0 0.0 -1.217406395243e-03 
-1.473848137131e-04 -7.608252406775e-05 0.0 
-7.608252406775e-05 7.058205605385e-04 0.0 
0.0 0.0 -1.761976461317e-04 
-1.139762521842e-03 -1.242981094265e-04 0.0 
-1.242981094265e-04 7.914367669760e-03 0.0 
0.0 0.0 -1.163202487293e-03 
-9.847139031094e-04 -2.927819349541e-05 0.0 
-2.927819349541e-05 6.802999958382e-03 0.0 
0.0 0.0 -9.926133712568e-04 
-1.690893902524e-04 -1.078602895255e-04 0.0 
-1.078602895255e-04 9.402080020995e-04 0.0 
0.0 0.0 -1.628620303624e-04 
-2.985531882031e-04 -2.240216763464e-04 0.0 
-2.240216763464e-04 1.642242196626e-03 0.0 
0.0 0.0 -2.736924314970e-04 
-1.111715101681e-03 2.179506947961e-04 0.0 
2.179506947961e-04 7.377812155317e-03 0.0 
0.0 0.0 -1.107581195644e-03 
-1.292896746142e-03 -1.945315972070e-05 0.0 
-1.945315972070e-05 8.475231004044e-03 0.0 
0.0 0.0 -1.285368862661e-03 
-1.232559661219e-03 -1.674576161592e-04 0.0 
-1.674576161592e-04 8.301292046622e-03 0.0 
0.0 0.0 -1.223917301752e-03 
-1.254461742942e-03 2.341900515224e-04 0.0 
2.341900515224e-04 8.559507473306e-03 0.0 
0.0 0.0 -1.264779455601e-03 
-8.799678260909e-04 2.461510225767e-04 0.0 
2.461510225767e-04 5.779390736261e-03 0.0 
0.0 0.0 -8.807565902733e-04 
-9.459318500255e-05 -9.224025008795e-06 0.0 
-9.224025008795e-06 5.593643268762e-04 0.0 
0.0 0.0 -1.022500568216e-04 
-1.184228338263e-04 1.932393774192e-04 0.0 
1.932393774192e-04 8.360742900508e-04 0.0 
0.0 0.0 -1.527632439532e-04 
-1.485774023436e-04 2.057472114589e-04 0.0 
2.057472114589e-04 4.943058849458e-04 0.0 
0.0 0.0 -1.262112556552e-04 
-1.889957332613e-04 -1.720729644019e-04 0.0 
-1.720729644019e-04 1.198989706623e-03 0.0 
0.0 0.0 -2.080055930776e-04 
-2.412796962869e-05 1.151125546851e-04 0.0 
1.151125546851e-04 1.259903231300e-04 0.0 
0.0 0.0 -4.365529435769e-05 
-6.564338874857e-04 1.298407551401e-04 0.0 
1.298407551401e-04 4.516305724261e-03 0.0 
0.0 0.0 -6.753304527203e-04 
-1.206082523732e-03 1.933788045723e-04 0.0 
1.933788045723e-04 8.180269090487e-03 0.0 
0.0 0.0 -1.222305993939e-03 
-1.222663318362e-03 1.753368055928e-04 0.0 
1.753368055928e-04 8.227435580213e-03 0.0 
0.0 0.0 -1.222833113937e-03 
-8.669258191564e-04 -1.817944922657e-04 0.0 
-1.817944922657e-04 5.844176131481e-03 0.0 
0.0 0.0 -8.826313165011e-04 
-6.040048573085e-04 -2.738267400018e-04 0.0 
-2.738267400018e-04 3.891940944486e-03 0.0 
0.0 0.0 -5.988529843847e-04 
-1.222353962553e-03 -1.610597655754e-04 0.0 
-1.610597655754e-04 8.260198203253e-03 0.0 
0.0 0.0 -1.221067908166e-03 
-1.203746913663e-03 2.278206710252e-04 0.0 
2.278206710252e-04 8.189793790316e-03 0.0 
0.0 0.0 -1.208702654310e-03 
-1.279025858978e-03 8.766018994025e-05 0.0 
8.766018994025e-05 8.741593274881e-03 0.0 
0.0 0.0 -1.272252409145e-03 
-1.242705220595e-03 -3.696381206596e-05 0.0 
-3.696381206596e-05 8.148871227430e-03 0.0 
0.0 0.0 -1.237422270938e-03 
-1.174009678725e-03 1.988566962408e-04 0.0 
1.988566962408e-04 7.816359446438e-03 0.0 
0.0 0.0 -1.171232062679e-03 
-1.672054198290e-04 9.231173188905e-05 0.0 
9.231173188905e-05 7.047171557344e-04 0.0 
0.0 0.0 -1.733042685746e-04 
-1.128922232108e-04 -1.541536460293e-04 0.0 
-1.541536460293e-04 8.181726866748e-04 0.0 
0.0 0.0 -1.441637530793e-04 
-1.232867888531e-03 -1.583409372844e-04 0.0 
-1.583409372844e-04 8.274546276781e-03 0.0 
0.0 0.0 -1.223662873675e-03 
-1.809471586289e-04 2.732513028346e-05 0.0 
2.732513028346e-05 7.150332979249e-04 0.0 
0.0 0.0 -1.761523314621e-04 
-2.090612244599e-04 2.679772699564e-04 0.0 
2.679772699564e-04 1.034188635190e-03 0.0 
0.0 0.0 -1.933333333332e-04 
-1.375589269253e-04 1.895212040581e-04 0.0 
1.895212040581e-04 6.272580356086e-04 0.0 
0.0 0.0 -1.476920362276e-04 
-1.616726848356e-04 -1.838984361801e-04 0.0 
-1.838984361801e-04 7.928606863592e-04 0.0 
0.0 0.0 -1.580296812506e-04 
-1.300434401275e-03 -1.024873491577e-05 0.0 
-1.024873491577e-05 8.484073046421e-03 0.0 
0.0 0.0 -1.288571152055e-03 
-1.296196106557e-03 -7.581226292431e-05 0.0 
-7.581226292431e-05 8.500775829958e-03 0.0 
0.0 0.0 -1.290113636706e-03 
-1.257797356609e-03 1.887508465157e-04 0.0 
1.887508465157e-04 8.298916238051e-03 0.0 
0.0 0.0 -1.236907757659e-03 
-1.306315150684e-03 9.008107202756e-08 0.0 
9.008107202756e-08 8.523760771155e-03 0.0 
0.0 0.0 -1.292605224168e-03 
-1.191514572737e-03 -1.523248627148e-04 0.0 
-1.523248627148e-04 7.914354314681e-03 0.0 
0.0 0.0 -1.176879138244e-03 
-9.009707231897e-04 2.647575106000e-04 0.0 
2.647575106000e-04 6.062013665177e-03 0.0 
0.0 0.0 -9.170130443517e-04 
-1.345069444888e-03 -1.224359494152e-05 0.0 
-1.224359494152e-05 8.872525889838e-03 0.0 
0.0 0.0 -1.345069444888e-03 
-3.168516228751e-04 -1.142391801259e-04 0.0 
-1.142391801259e-04 2.071683762697e-03 0.0 
0.0 0.0 -3.330755757467e-04 
-6.832796589934e-04 2.794415003490e-06 0.0 
2.794415003490e-06 4.812526626932e-03 0.0 
0.0 0.0 -7.083073883397e-04 
-1.983733277546e-04 6.070841311573e-05 0.0 
6.070841311573e-05 1.303830959687e-03 0.0 
0.0 0.0 -2.086331215474e-04 
-8.213992574579e-05 4.728700015112e-05 0.0 
4.728700015112e-05 2.774119614063e-04 0.0 
0.0 0.0 -8.368801528307e-05 
-1.296331570259e-03 3.985530997243e-05 0.0 
3.985530997243e-05 9.108859965209e-03 0.0 
0.0 0.0 -1.323850096553e-03 
-7.636750152913e-04 -5.943479672408e-05 0.0 
-5.943479672408e-05 5.297273347084e-03 0.0 
0.0 0.0 -7.731261162940e-04 
-1.898896061389e-04 2.668881093002e-05 0.0 
2.668881093002e-05 1.324161255717e-03 0.0 
0.0 0.0 -2.115341463249e-04 
-6.766397334689e-04 2.335959289237e-04 0.0 
2.335959289237e-04 4.262192913851e-03 0.0 
0.0 0.0 -6.570498647039e-04 
-1.270388897102e-03 1.791394562197e-05 0.0 
1.791394562197e-05 8.744228481245e-03 0.0 
0.0 0.0 -1.276804206569e-03 
-1.238351285998e-03 -1.647535430713e-04 0.0 
-1.647535430713e-04 8.287386498838e-03 0.0 
0.0 0.0 -1.228616961883e-03 
-1.299245503170e-03 -6.943481147044e-06 0.0 
-6.943481147044e-06 8.501206471558e-03 0.0 
0.0 0.0 -1.289666537713e-03 
-4.674755872492e-04 -1.441717405802e-04 0.0 
-1.441717405802e-04 3.063014272079e-03 0.0 
0.0 0.0 -4.695399720401e-04 
-1.457689473942e-04 -1.575597281072e-04 0.0 
-1.575597281072e-04 7.498700715420e-04 0.0 
0.0 0.0 -1.553221962317e-04 
-1.285913149297e-03 -1.165123631474e-04 0.0 
-1.165123631474e-04 8.730182768681e-03 0.0 
0.0 0.0 -1.273144391159e-03 
-1.298815958390e-03 2.309086979375e-05 0.0 
2.309086979375e-05 9.107151826923e-03 0.0 
0.0 0.0 -1.325353038101e-03 
-1.331981550421e-03 -1.771381069916e-05 0.0 
-1.771381069916e-05 9.126640523195e-03 0.0 
0.0 0.0 -1.323783523096e-03 
-7.660500434482e-04 1.313542510446e-04 0.0 
1.313542510446e-04 5.035539676325e-03 0.0 
0.0 0.0 -7.673431308700e-04 
-1.235780327313e-03 -4.526587613016e-06 0.0 
-4.526587613016e-06 8.115023081303e-03 0.0 
0.0 0.0 -1.231867668451e-03 
-1.953177882174e-04 -9.491085164936e-05 0.0 
-9.491085164936e-05 1.122964739939e-03 0.0 
0.0 0.0 -2.324200178898e-04 
-1.257584227981e-03 1.660686322992e-04 0.0 
1.660686322992e-04 8.340961353616e-03 0.0 
0.0 0.0 -1.241575510934e-03 
-8.170589745739e-05 -1.080295024412e-05 0.0 
-1.080295024412e-05 2.725451190137e-04 0.0 
0.0 0.0 -8.178823780987e-05 
-1.306295822847e-03 -1.062422533950e-05 0.0 
-1.062422533950e-05 8.506048519693e-03 0.0 
0.0 0.0 -1.290713494763e-03 
-1.281136683791e-03 1.115018912951e-04 0.0 
1.115018912951e-04 8.702368548138e-03 0.0 
0.0 0.0 -1.268585396830e-03 
-8.090064620293e-05 -6.463780865650e-05 0.0 
-6.463780865650e-05 2.764343947342e-04 0.0 
0.0 0.0 -8.380017794198e-05 
-1.195471399734e-03 -1.402863971347e-04 0.0 
-1.402863971347e-04 7.949772117529e-03 0.0 
0.0 0.0 -1.178018281593e-03 
-1.028233004996e-03 -1.859683667160e-04 0.0 
-1.859683667160e-04 6.977936374389e-03 0.0 
0.0 0.0 -1.053859681778e-03 
-1.289487723471e-03 -3.059440868738e-05 0.0 
-3.059440868738e-05 8.509289695588e-03 0.0 
0.0 0.0 -1.289687241943e-03 
-1.346242744377e-03 -1.047219123709e-05 0.0 
-1.047219123709e-05 8.896960402449e-03 0.0 
0.0 0.0 -1.346242744377e-03 
-9.624911099008e-04 -2.997622866496e-04 0.0 
-2.997622866496e-04 6.376553401582e-03 0.0 
0.0 0.0 -9.627310317561e-04 
-1.292971171235e-03 1.345101664025e-05 0.0 
1.345101664025e-05 8.530939079912e-03 0.0 
0.0 0.0 -1.292510612804e-03 
-1.246115197789e-03 -1.533948492975e-04 0.0 
-1.533948492975e-04 8.325319025632e-03 0.0 
0.0 0.0 -1.236507170568e-03 
-1.007540401079e-03 8.825741490426e-06 0.0 
8.825741490426e-06 6.546914065101e-03 0.0 
0.0 0.0 -1.009625451247e-03 
-1.239682124839e-03 -1.433667225738e-05 0.0 
-1.433667225738e-05 8.247508066060e-03 0.0 
0.0 0.0 -1.247605899893e-03 
-5.439659078653e-04 -1.293203549736e-04 0.0 
-1.293203549736e-04 3.573225901759e-03 0.0 
0.0 0.0 -5.668522599723e-04 
-7.422257193806e-04 -2.384409417979e-05 0.0 
-2.384409417979e-05 4.553525172640e-03 0.0 
0.0 0.0 -7.287847301676e-04 
-1.250463763405e-03 1.444458806810e-04 0.0 
1.444458806810e-04 8.323970461278e-03 0.0 
0.0 0.0 -1.239219007812e-03 
-1.277932458032e-03 1.160268164509e-04 0.0 
1.160268164509e-04 8.651299276670e-03 0.0 
0.0 0.0 -1.286506427510e-03 
0.0 0.0 0.0 
0.0 0.0 0.0 
0.0 0.0 0.0 
-7.391696919876e-04 5.460045200464e-05 0.0 
5.460045200464e-05 4.572310123870e-03 0.0 
0.0 0.0 -7.284590636140e-04 
-1.282539678950e-03 -1.213229753820e-04 0.0 
-1.213229753820e-04 8.668193960288e-03 0.0 
0.0 0.0 -1.288082484959e-03 
-2.668000831652e-04 1.337975711292e-04 0.0 
1.337975711292e-04 1.552550494018e-03 0.0 
0.0 0.0 -2.765646858065e-04 
-1.244314668154e-03 3.253635918241e-05 0.0 
3.253635918241e-05 8.351662046828e-03 0.0 
0.0 0.0 -1.213252366005e-03 
-1.212806318798e-03 -1.378965673920e-04 0.0 
-1.378965673920e-04 8.296055804055e-03 0.0 
0.0 0.0 -1.225943235494e-03 
-1.276740815873e-03 -1.548809764644e-04 0.0 
-1.548809764644e-04 8.705204137735e-03 0.0 
0.0 0.0 -1.269037835114e-03 
-2.467774251027e-04 1.357300176722e-04 0.0 
1.357300176722e-04 1.515114324046e-03 0.0 
0.0 0.0 -2.647987373252e-04 
-1.846190942978e-04 5.164886539677e-05 0.0 
5.164886539677e-05 1.204409405256e-03 0.0 
0.0 0.0 -1.906575996298e-04 
-8.286327452832e-04 3.382951551478e-04 0.0 
3.382951551478e-04 5.239779904281e-03 0.0 
0.0 0.0 -7.939471195916e-04 
-1.139651880695e-03 8.042350541591e-05 0.0 
8.042350541591e-05 7.547907450212e-03 0.0 
0.0 0.0 -1.120841203304e-03 
6.762182202457e-06 4.922521689337e-06 0.0 
4.922521689337e-06 1.951722452606e-04 0.0 
0.0 0.0 -4.162563418682e-05 
-1.297631582513e-03 -2.970012333429e-05 0.0 
-2.970012333429e-05 8.538118962210e-03 0.0 
0.0 0.0 -1.292233508669e-03 
-9.496420787081e-04 3.842938930090e-05 0.0 
3.842938930090e-05 6.134769422349e-03 0.0 
0.0 0.0 -9.501928138396e-04 
-2.319252204202e-04 -1.666332425871e-04 0.0 
-1.666332425871e-04 1.531261602253e-03 0.0 
0.0 0.0 -2.601894661948e-04 
-9.182086126089e-04 6.576575429171e-05 0.0 
6.576575429171e-05 5.823601520570e-03 0.0 
0.0 0.0 -9.030544305944e-04 
-1.281338578084e-03 -1.215158440347e-04 0.0 
-1.215158440347e-04 8.719272788120e-03 0.0 
0.0 0.0 -1.271643562581e-03 
-8.361599263990e-04 -2.906502343770e-04 0.0 
-2.906502343770e-04 5.524370676589e-03 0.0 
0.0 0.0 -8.272804529250e-04 
-9.020963282829e-05 -1.875396024300e-04 0.0 
-1.875396024300e-04 3.251699178446e-04 0.0 
0.0 0.0 -8.776479312233e-05 
-5.428499226707e-04 1.403699556570e-04 0.0 
1.403699556570e-04 3.200704680556e-03 0.0 
0.0 0.0 -5.209635072927e-04 
-7.264103312116e-04 1.066181262773e-04 0.0 
1.066181262773e-04 4.783605203211e-03 0.0 
0.0 0.0 -7.319997505002e-04 
-8.379507721355e-04 3.506890823091e-04 0.0 
3.506890823091e-04 5.706153283525e-03 0.0 
0.0 0.0 -8.599999999992e-04 
-1.240777117315e-03 -1.439647034317e-04 0.0 
-1.439647034317e-04 8.329527072644e-03 0.0 
0.0 0.0 -1.232780192057e-03 
-7.376665261260e-04 -1.727241022976e-04 0.0 
-1.727241022976e-04 4.617911229220e-03 0.0 
0.0 0.0 -7.175509632692e-04 
-7.419227856638e-04 8.706574175028e-05 0.0 
8.706574175028e-05 4.905660942002e-03 0.0 
0.0 0.0 -7.596628988333e-04 
-1.725607618193e-04 1.274500514103e-04 0.0 
1.274500514103e-04 7.075820556251e-04 0.0 
0.0 0.0 -1.551230728613e-04 
-1.262496529076e-03 1.402132573887e-04 0.0 
1.402132573887e-04 8.306889500876e-03 0.0 
0.0 0.0 -1.240629869904e-03 
-1.209173557273e-03 1.621322078836e-04 0.0 
1.621322078836e-04 7.950506271258e-03 0.0 
0.0 0.0 -1.186362110037e-03 
-2.227791697187e-04 8.637930858019e-05 0.0 
8.637930858019e-05 1.298316331418e-03 0.0 
0.0 0.0 -2.411692657676e-04 
-1.261193436875e-03 -8.326695288074e-05 0.0 
-8.326695288074e-05 8.552285249105e-03 0.0 
0.0 0.0 -1.290349483557e-03 
-1.293807969811e-03 1.507292729990e-04 0.0 
1.507292729990e-04 8.596145003785e-03 0.0 
0.0 0.0 -1.290356026000e-03 
-7.679899519872e-04 -1.532356305283e-04 0.0 
-1.532356305283e-04 5.157074227234e-03 0.0 
0.0 0.0 -7.639788432047e-04 
-9.396515753231e-04 3.091234051292e-05 0.0 
3.091234051292e-05 6.333492038285e-03 0.0 
0.0 0.0 -9.358343396975e-04 
-7.048143922741e-04 1.638625948524e-04 0.0 
1.638625948524e-04 4.692848505541e-03 0.0 
0.0 0.0 -7.108516105536e-04 
-7.079275106751e-04 -1.102323501340e-04 0.0 
-1.102323501340e-04 4.802970885948e-03 0.0 
0.0 0.0 -7.343037059241e-04 
-7.780838486789e-04 -3.476295080762e-05 0.0 
-3.476295080762e-05 5.090202749114e-03 0.0 
0.0 0.0 -7.498489858827e-04 
-1.195445771267e-03 1.533301423154e-04 0.0 
1.533301423154e-04 7.905914704818e-03 0.0 
0.0 0.0 -1.180929064624e-03 
-2.101723265820e-04 1.264806835632e-04 0.0 
1.264806835632e-04 1.084941023669e-03 0.0 
0.0 0.0 -2.274637643159e-04 
-1.230210229403e-03 -1.391362873496e-04 0.0 
-1.391362873496e-04 8.342547987840e-03 0.0 
0.0 0.0 -1.217816617926e-03 
-8.387293036436e-04 7.281979356209e-05 0.0 
7.281979356209e-05 5.326094164637e-03 0.0 
0.0 0.0 -8.376728236383e-04 
-1.277193560845e-03 -1.460979146763e-04 0.0 
-1.460979146763e-04 8.720485292524e-03 0.0 
0.0 0.0 -1.272153791098e-03 
-1.202298967755e-03 -1.320050113914e-04 0.0 
-1.320050113914e-04 7.883588282290e-03 0.0 
0.0 0.0 -1.181257232468e-03 
-8.795673226242e-04 -5.945622150851e-05 0.0 
-5.945622150851e-05 6.031279173310e-03 0.0 
0.0 0.0 -8.902468719969e-04 
-1.211224544084e-03 1.194316264715e-04 0.0 
1.194316264715e-04 8.008237221313e-03 0.0 
0.0 0.0 -1.201032862555e-03 
-1.250364770317e-03 1.261810502707e-04 0.0 
1.261810502707e-04 8.225945087577e-03 0.0 
0.0 0.0 -1.236767197193e-03 
-1.292703020779e-03 -2.277677435028e-05 0.0 
-2.277677435028e-05 8.758650210356e-03 0.0 
0.0 0.0 -1.270271405117e-03 
-9.288790837527e-05 4.486310937793e-05 0.0 
4.486310937793e-05 3.125136257930e-04 0.0 
0.0 0.0 -9.412530746476e-05 
-1.213293100967e-03 -1.365137297491e-04 0.0 
-1.365137297491e-04 8.055302576551e-03 0.0 
0.0 0.0 -1.198686027802e-03 
-1.233489147260e-03 1.844031552690e-04 0.0 
1.844031552690e-04 8.360738709544e-03 0.0 
0.0 0.0 -1.227078865044e-03 
-1.296260318671e-04 -1.418501242847e-04 0.0 
-1.418501242847e-04 8.665050242929e-04 0.0 
0.0 0.0 -1.488313462956e-04 
-6.781230104505e-04 -1.171397059556e-04 0.0 
-1.171397059556e-04 4.366860208538e-03 0.0 
0.0 0.0 -6.841365946973e-04 
-7.630078233159e-05 -6.102099342087e-05 0.0 
-6.102099342087e-05 5.288528667040e-04 0.0 
0.0 0.0 -9.692352125104e-05 
-1.239413171189e-03 -1.038112219682e-04 0.0 
-1.038112219682e-04 8.427166424518e-03 0.0 
0.0 0.0 -1.230789928679e-03 
-1.163165790258e-04 -5.535391127633e-05 0.0 
-5.535391127633e-05 6.058101155025e-04 0.0 
0.0 0.0 -1.155555555556e-04 
-1.147304662290e-04 5.739859028914e-05 0.0 
5.739859028914e-05 3.862584911479e-04 0.0 
0.0 0.0 -1.163691535367e-04 
-1.196335348363e-04 -1.953089164396e-05 0.0 
-1.953089164396e-05 7.176961292327e-04 0.0 
0.0 0.0 -1.155555555556e-04 
-1.205305112011e-04 -4.777812308168e-06 0.0 
-4.777812308168e-06 4.017938639427e-04 0.0 
0.0 0.0 -1.205414368893e-04 
-1.207807947968e-04 -1.417363475680e-05 0.0 
-1.417363475680e-05 7.281142715424e-04 0.0 
0.0 0.0 -1.155555555556e-04 
-1.212331770457e-04 -8.252106092019e-06 0.0 
-8.252106092019e-06 4.041861887160e-04 0.0 
0.0 0.0 -1.212655764301e-04 
-1.211874638618e-04 -1.100446847805e-05 0.0 
-1.100446847805e-05 7.304705677585e-04 0.0 
0.0 0.0 -1.155555555556e-04 
-1.215104164839e-04 -7.140534460634e-06 0.0 
-7.140534460634e-06 4.050911991935e-04 0.0 
0.0 0.0 -1.215346211613e-04 
-1.209179158773e-04 -8.256103543141e-06 0.0 
-8.256103543141e-06 7.315408454839e-04 0.0 
0.0 0.0 -1.155555555556e-04 
-1.216516385185e-04 -5.790570398826e-06 0.0 
-5.790570398826e-06 4.055425618868e-04 0.0 
0.0 0.0 -1.216675385864e-04 
-1.204244698260e-04 -6.234807908777e-06 0.0 
-6.234807908777e-06 7.320568574899e-04 0.0 
0.0 0.0 -1.155555555556e-04 
-1.217238296697e-04 -4.751682009632e-06 0.0 
-4.751682009632e-06 4.057710669395e-04 0.0 
0.0 0.0 -1.217345302585e-04 
-1.198951146105e-04 -4.857287546005e-06 0.0 
-4.857287546005e-06 7.322620416536e-04 0.0 
0.0 0.0 -1.155555555556e-04 
-1.217577799867e-04 -4.021860963527e-06 0.0 
-4.021860963527e-06 4.058771492385e-04 0.0 
0.0 0.0 -1.217654439650e-04 
-1.193936043871e-04 -3.898778821136e-06 0.0 
-3.898778821136e-06 7.322841885341e-04 0.0 
0.0 0.0 -1.155555555556e-04 
-1.217697654130e-04 -3.470612820860e-06 0.0 
-3.470612820860e-06 4.059125333725e-04 0.0 
0.0 0.0 -1.217754719826e-04 
-1.189433354478e-04 -3.134624466828e-06 0.0 
-3.134624466828e-06 7.321961356287e-04 0.0 
0.0 0.0 -1.155555555556e-04 
-1.217694796768e-04 -2.946031723931e-06 0.0 
-2.946031723931e-06 4.059078600331e-04 0.0 
0.0 0.0 -1.217735915813e-04 
-1.185617619817e-04 -2.383492920831e-06 0.0 
-2.383492920831e-06 7.320453515044e-04 0.0 
0.0 0.0 -1.155555555556e-04 
-1.217641244559e-04 -2.312807949239e-06 0.0 
-2.312807949239e-06 4.058863283931e-04 0.0 
0.0 0.0 -1.217666588302e-04 
-1.182723314473e-04 -1.523982667330e-06 0.0 
-1.523982667330e-06 7.318729926417e-04 0.0 
0.0 0.0 -1.155555555556e-04 
-1.217608219071e-04 -1.477943900216e-06 0.0 
-1.477943900216e-06 4.058718212628e-04 0.0 
0.0 0.0 -1.217618568667e-04 
-1.899278510152e-04 -1.384898998928e-04 0.0 
-1.384898998928e-04 7.166445077542e-04 0.0 
0.0 0.0 -1.248173183369e-04 
-1.181060300645e-04 -5.207644900673e-07 0.0 
-5.207644900673e-07 7.317305723796e-04 0.0 
0.0 0.0 -1.155555555556e-04 
-1.217630147493e-04 -4.493117032420e-07 0.0 
-4.493117032420e-07 4.058769390209e-04 0.0 
0.0 0.0 -1.217631104021e-04 
-1.180894747216e-04 5.734619188931e-07 0.0 
5.734619188931e-07 7.316681389312e-04 0.0 
0.0 0.0 -1.155555555556e-04 
-8.811535890983e-05 2.435426451367e-05 0.0 
2.435426451367e-05 4.345192874910e-04 0.0 
0.0 0.0 -1.377777777778e-04 
-1.217725698879e-04 6.820122514011e-07 0.0 
6.820122514011e-07 4.059090804892e-04 0.0 
0.0 0.0 -1.217727902577e-04 
-1.182343596377e-04 1.655934158335e-06 0.0 
1.655934158335e-06 7.317125982890e-04 0.0 
0.0 0.0 -1.155555555556e-04 
-1.217845642684e-04 1.769899297483e-06 0.0 
1.769899297483e-06 4.059520101069e-04 0.0 
0.0 0.0 -1.217860482165e-04 
-1.185289839573e-04 2.621766567265e-06 0.0 
2.621766567265e-06 7.318595664517e-04 0.0 
0.0 0.0 -1.155555555556e-04 
-1.218092870314e-04 2.753818409724e-06 0.0 
2.753818409724e-06 4.060393373700e-04 0.0 
0.0 0.0 -1.218128787166e-04 
-5.477849992080e-05 3.594529099326e-05 0.0 
3.594529099326e-05 5.201208252171e-04 0.0 
0.0 0.0 -1.099885891524e-04 
-1.189585968247e-04 3.335016750175e-06 0.0 
3.335016750175e-06 7.321265165480e-04 0.0 
0.0 0.0 -1.155555555556e-04 
-1.218243738475e-04 3.376049135273e-06 0.0 
3.376049135273e-06 4.060938401448e-04 0.0 
0.0 0.0 -1.218297712703e-04 
-1.194647510965e-04 3.730184117943e-06 0.0 
3.730184117943e-06 7.324454976435e-04 0.0 
0.0 0.0 -1.155555555556e-04 
-1.218759485998e-04 3.811699527241e-06 0.0 
3.811699527241e-06 4.062692090472e-04 0.0 
0.0 0.0 -1.218828259061e-04 
-1.200379280099e-04 3.627642801087e-06 0.0 
3.627642801087e-06 7.329115759650e-04 0.0 
0.0 0.0 -1.155555555556e-04 
-1.218590469522e-04 3.342570990521e-06 0.0 
3.342570990521e-06 4.062091651217e-04 0.0 
0.0 0.0 -1.218643363583e-04 
-1.205235058838e-04 3.291637635522e-06 0.0 
3.291637635522e-06 7.331414244839e-04 0.0 
0.0 0.0 -1.155555555556e-04 
-1.220007574647e-04 3.513594781255e-06 0.0 
3.513594781255e-06 4.066828128796e-04 0.0 
0.0 0.0 -1.220065951778e-04 
-1.211096609456e-04 1.946116034183e-06 0.0 
1.946116034183e-06 7.340537212407e-04 0.0 
0.0 0.0 -1.155555555556e-04 
-1.217828195261e-04 5.239444118994e-07 0.0 
5.239444118994e-07 4.059430351978e-04 0.0 
0.0 0.0 -1.217829495736e-04 
-1.211617159292e-04 1.312832598678e-06 0.0 
1.312832598678e-06 7.332522338664e-04 0.0 
0.0 0.0 -1.155555555556e-04 
-1.221557662324e-04 2.433317877533e-06 0.0 
2.433317877533e-06 4.071924122950e-04 0.0 
0.0 0.0 -1.221585625982e-04 
-7.157004417271e-05 2.440920415409e-05 0.0 
2.440920415409e-05 6.005966514103e-04 0.0 
0.0 0.0 -1.359284294480e-04 
-1.210695289909e-04 -6.024321786376e-06 0.0 
-6.024321786376e-06 4.036054452348e-04 0.0 
0.0 0.0 -1.210868212474e-04 
-1.216903429234e-04 -1.021831400192e-06 0.0 
-1.021831400192e-06 7.352402537036e-04 0.0 
0.0 0.0 -1.155555555556e-04 
-1.225780609744e-04 1.265449571202e-05 0.0 
1.265449571202e-05 4.087693153307e-04 0.0 
0.0 0.0 -1.226533947241e-04 
-1.202889817033e-04 3.390780093785e-06 0.0 
3.390780093785e-06 7.285463828138e-04 0.0 
0.0 0.0 -1.155555555556e-04 
-1.193794040888e-04 -1.402503804170e-05 0.0 
-1.402503804170e-05 3.981530173159e-04 0.0 
0.0 0.0 -1.194744056688e-04 
-1.223091885832e-04 1.251834010648e-06 0.0 
1.251834010648e-06 7.384817288426e-04 0.0 
0.0 0.0 -1.155555555556e-04 
-1.041475962467e-04 5.197146125055e-05 0.0 
5.197146125055e-05 4.119209155643e-04 0.0 
0.0 0.0 -1.319028511361e-04 
-1.177281423705e-04 1.538114546959e-05 0.0 
1.538114546959e-05 7.160415873556e-04 0.0 
0.0 0.0 -1.155555555556e-04 
-1.243733405417e-04 7.790916077359e-06 0.0 
7.790916077359e-06 7.534837206636e-04 0.0 
0.0 0.0 -1.155555555556e-04 
-3.016377584951e-05 -1.704981565730e-05 0.0 
-1.704981565730e-05 2.893792250349e-04 0.0 
0.0 0.0 -1.110923353652e-04 
-1.782388165086e-04 -3.606650234887e-04 0.0 
-3.606650234887e-04 6.347658371153e-04 0.0 
0.0 0.0 -1.266666666667e-04 
-7.142215024098e-05 3.577257960857e-04 0.0 
3.577257960857e-04 4.431158475311e-04 0.0 
0.0 0.0 -1.266666666667e-04 
-1.545895023734e-04 -3.741748507265e-05 0.0 
-3.741748507265e-05 5.970256357480e-04 0.0 
0.0 0.0 -1.488888888889e-04 
-9.400225157095e-05 4.354902154608e-05 0.0 
4.354902154608e-05 4.887377590563e-04 0.0 
0.0 0.0 -1.044444444444e-04 
-6.045263009267e-05 -3.570779613511e-05 0.0 
-3.570779613511e-05 4.372544778428e-04 0.0 
0.0 0.0 -1.044444444444e-04 
-2.076833249592e-04 -6.261843209975e-05 0.0 
-6.261843209975e-05 1.013831239598e-03 0.0 
0.0 0.0 -2.044444444444e-04 
-1.788038948926e-04 6.821749752289e-05 0.0 
6.821749752289e-05 1.192983609349e-03 0.0 
0.0 0.0 -1.822222222222e-04 
-2.036211527419e-04 -8.795319444114e-06 0.0 
-8.795319444114e-06 8.789143056272e-04 0.0 
0.0 0.0 -2.044444444444e-04 
-1.820956293793e-04 -2.195051890332e-06 0.0 
-2.195051890332e-06 1.184424563275e-03 0.0 
0.0 0.0 -1.822222222222e-04 
-2.045486756204e-04 -7.807516697192e-06 0.0 
-7.807516697192e-06 8.729904243925e-04 0.0 
0.0 0.0 -2.044444444444e-04 
-1.841733700579e-04 -7.537747569759e-06 0.0 
-7.537747569759e-06 1.185426221984e-03 0.0 
0.0 0.0 -1.822222222222e-04 
-2.058594228788e-04 -7.550202909698e-06 0.0 
-7.550202909698e-06 8.743109801695e-04 0.0 
0.0 0.0 -2.044444444444e-04 
-1.853348330819e-04 -7.350174181167e-06 0.0 
-7.350174181167e-06 1.186628156301e-03 0.0 
0.0 0.0 -1.822222222222e-04 
-2.068393165181e-04 -6.697133277738e-06 0.0 
-6.697133277738e-06 8.755732016861e-04 0.0 
0.0 0.0 -2.044444444444e-04 
-1.858838971389e-04 -6.445792054719e-06 0.0 
-6.445792054719e-06 1.187453301928e-03 0.0 
0.0 0.0 -1.822222222222e-04 
-2.074524879553e-04 -5.819543027177e-06 0.0 
-5.819543027177e-06 8.764057481272e-04 0.0 
0.0 0.0 -2.044444444444e-04 
-1.860548693828e-04 -5.585496093302e-06 0.0 
-5.585496093302e-06 1.187931856489e-03 0.0 
0.0 0.0 -1.822222222222e-04 
-2.077636738075e-04 -5.093561323668e-06 0.0 
-5.093561323668e-06 8.768776635671e-04 0.0 
0.0 0.0 -2.044444444444e-04 
-1.860044368873e-04 -4.886543789399e-06 0.0 
-4.886543789399e-06 1.188145092514e-03 0.0 
0.0 0.0 -1.822222222222e-04 
-2.078577458117e-04 -4.480498197547e-06 0.0 
-4.480498197547e-06 8.770877182794e-04 0.0 
0.0 0.0 -2.044444444444e-04 
-1.858320846713e-04 -4.277973624153e-06 0.0 
-4.277973624153e-06 1.188165765964e-03 0.0 
0.0 0.0 -1.822222222222e-04 
-2.078139092917e-04 -3.870510444148e-06 0.0 
-3.870510444148e-06 8.771179760665e-04 0.0 
0.0 0.0 -2.044444444444e-04 
-1.856014454919e-04 -3.640014698847e-06 0.0 
-3.640014698847e-06 1.188049283609e-03 0.0 
0.0 0.0 -1.822222222222e-04 
-2.076862457224e-04 -3.142098901856e-06 0.0 
-3.142098901856e-06 8.770288433611e-04 0.0 
0.0 0.0 -2.044444444444e-04 
-1.853579012658e-04 -2.851868720225e-06 0.0 
-2.851868720225e-06 1.187845145957e-03 0.0 
0.0 0.0 -1.822222222222e-04 
-2.444748351667e-04 -1.415311215118e-04 0.0 
-1.415311215118e-04 1.178487621581e-03 0.0 
0.0 0.0 -1.915759637188e-04 
-2.075168212954e-04 -2.182083211282e-06 0.0 
-2.182083211282e-06 8.768728875630e-04 0.0 
0.0 0.0 -2.044444444444e-04 
-1.851458194563e-04 -1.819614798031e-06 0.0 
-1.819614798031e-06 1.187617141541e-03 0.0 
0.0 0.0 -1.822222222222e-04 
-2.073501627497e-04 -9.052203272062e-07 0.0 
-9.052203272062e-07 8.767160924066e-04 0.0 
0.0 0.0 -2.044444444444e-04 
-1.339610819730e-04 1.966350633149e-05 0.0 
1.966350633149e-05 9.907719895893e-04 0.0 
0.0 0.0 -1.693537414966e-04 
-1.850281559792e-04 -5.200180634800e-07 0.0 
-5.200180634800e-07 1.187482173011e-03 0.0 
0.0 0.0 -1.822222222222e-04 
-2.072939918564e-04 5.575866343823e-07 0.0 
5.575866343823e-07 8.766431889280e-04 0.0 
0.0 0.0 -2.044444444444e-04 
-1.505715545267e-04 3.044165367736e-05 0.0 
3.044165367736e-05 8.856495634862e-04 0.0 
0.0 0.0 -2.044444444444e-04 
-1.850367453881e-04 9.210024021461e-07 0.0 
9.210024021461e-07 1.187470023202e-03 0.0 
0.0 0.0 -1.822222222222e-04 
-2.073890149641e-04 2.116809298554e-06 0.0 
2.116809298554e-06 8.766902866105e-04 0.0 
0.0 0.0 -2.044444444444e-04 
-1.852099941938e-04 2.336749023525e-06 0.0 
2.336749023525e-06 1.187666774481e-03 0.0 
0.0 0.0 -1.822222222222e-04 
-2.076810916939e-04 3.335713578613e-06 0.0 
3.335713578613e-06 8.768645351485e-04 0.0 
0.0 0.0 -2.044444444444e-04 
-1.854635630655e-04 3.514781955042e-06 0.0 
3.514781955042e-06 1.187853925438e-03 0.0 
0.0 0.0 -1.822222222222e-04 
-2.079452960058e-04 4.648234682695e-06 0.0 
4.648234682695e-06 8.771161380739e-04 0.0 
0.0 0.0 -2.044444444444e-04 
-1.859320449512e-04 4.414553934975e-06 0.0 
4.414553934975e-06 1.188479205043e-03 0.0 
0.0 0.0 -1.822222222222e-04 
-2.085190829059e-04 4.667858397105e-06 0.0 
4.667858397105e-06 8.774898960371e-04 0.0 
0.0 0.0 -2.044444444444e-04 
-1.862446482625e-04 4.747691180170e-06 0.0 
4.747691180170e-06 1.188526487208e-03 0.0 
0.0 0.0 -1.822222222222e-04 
-1.389325106329e-04 3.461508263837e-05 0.0 
3.461508263837e-05 1.067736357210e-03 0.0 
0.0 0.0 -2.026870748299e-04 
-2.085464325804e-04 5.909668308108e-06 0.0 
5.909668308108e-06 8.778271322765e-04 0.0 
0.0 0.0 -2.044444444444e-04 
-1.870580972560e-04 4.787974066385e-06 0.0 
4.787974066385e-06 1.189945650988e-03 0.0 
0.0 0.0 -1.822222222222e-04 
-2.097815610239e-04 3.117797332926e-06 0.0 
3.117797332926e-06 8.782912017054e-04 0.0 
0.0 0.0 -2.044444444444e-04 
-1.869237689829e-04 4.175428382134e-06 0.0 
4.175428382134e-06 1.188510773778e-03 0.0 
0.0 0.0 -1.822222222222e-04 
-1.890284834827e-04 3.535949403535e-06 0.0 
3.535949403535e-06 1.193304622288e-03 0.0 
0.0 0.0 -1.822222222222e-04 
-2.083396495894e-04 7.741317513289e-06 0.0 
7.741317513289e-06 8.786518771822e-04 0.0 
0.0 0.0 -2.044444444444e-04 
-1.867625953124e-04 1.755853249957e-06 0.0 
1.755853249957e-06 1.185463241573e-03 0.0 
0.0 0.0 -1.822222222222e-04 
-2.135746483668e-04 -4.335111839701e-06 0.0 
-4.335111839701e-06 8.793938291634e-04 0.0 
0.0 0.0 -2.044444444444e-04 
-1.922187238870e-04 1.023095141202e-06 0.0 
1.023095141202e-06 1.199903184922e-03 0.0 
0.0 0.0 -1.822222222222e-04 
-2.052736421826e-04 1.383244218507e-05 0.0 
1.383244218507e-05 8.787971781211e-04 0.0 
0.0 0.0 -2.044444444444e-04 
-1.802133250476e-04 3.924967754967e-06 0.0 
3.924967754967e-06 1.165314696522e-03 0.0 
0.0 0.0 -1.822222222222e-04 
-1.986941288462e-04 2.367078184603e-05 0.0 
2.367078184603e-05 1.209764877429e-03 0.0 
0.0 0.0 -1.822222222222e-04 
-2.231794467689e-04 -2.826106615184e-05 0.0 
-2.826106615184e-05 8.775490301507e-04 0.0 
0.0 0.0 -2.044444444444e-04 
-1.646167100238e-04 5.243840066912e-05 0.0 
5.243840066912e-05 8.685383169281e-04 0.0 
0.0 0.0 -2.044444444444e-04 
-9.622432114965e-05 -2.610795107878e-05 0.0 
-2.610795107878e-05 7.743099524498e-04 0.0 
0.0 0.0 -1.804648526077e-04 
-1.473961787464e-04 -3.617240673058e-04 0.0 
-3.617240673058e-04 9.960919475066e-04 0.0 
0.0 0.0 -1.933333333333e-04 
-2.486763298369e-04 3.643384939900e-04 0.0 
3.643384939900e-04 1.177616774540e-03 0.0 
0.0 0.0 -1.933333333333e-04 
-1.768117245956e-04 -3.185339880178e-05 0.0 
-3.185339880178e-05 1.033346853690e-03 0.0 
0.0 0.0 -1.711111111111e-04 
-2.202341640465e-04 4.418305408562e-05 0.0 
4.418305408562e-05 1.131769773418e-03 0.0 
0.0 0.0 -2.155555555556e-04 
-1.214486922432e-04 -5.473925600928e-06 0.0 
-5.473925600928e-06 9.035898488109e-04 0.0 
0.0 0.0 -1.711111111111e-04 
-2.521277694037e-04 -6.446284034674e-05 0.0 
-6.446284034674e-05 1.534392840313e-03 0.0 
0.0 0.0 -2.488888888889e-04 
-2.728327989193e-04 5.819881722132e-05 0.0 
5.819881722132e-05 1.339822900769e-03 0.0 
0.0 0.0 -2.711111111111e-04 
-2.480655971863e-04 -2.777801925699e-06 0.0 
-2.777801925699e-06 1.653275501699e-03 0.0 
0.0 0.0 -2.488888888889e-04 
-2.715469034664e-04 1.274942756413e-06 0.0 
1.274942756413e-06 1.347101318943e-03 0.0 
0.0 0.0 -2.711111111111e-04 
-2.489931200648e-04 -3.638760225734e-06 0.0 
-3.638760225734e-06 1.658494809349e-03 0.0 
0.0 0.0 -2.488888888889e-04 
-2.716460378005e-04 -3.480677046255e-06 0.0 
-3.480677046255e-06 1.347896604332e-03 0.0 
0.0 0.0 -2.711111111111e-04 
-2.503038673232e-04 -5.457405187188e-06 0.0 
-5.457405187188e-06 1.659164978861e-03 0.0 
0.0 0.0 -2.488888888889e-04 
-2.723056335147e-04 -4.500785648077e-06 0.0 
-4.500785648077e-06 1.348738405761e-03 0.0 
0.0 0.0 -2.711111111111e-04 
-2.512837609625e-04 -5.893070865546e-06 0.0 
-5.893070865546e-06 1.659994488358e-03 0.0 
0.0 0.0 -2.488888888889e-04 
-2.730658014986e-04 -4.757317490025e-06 0.0 
-4.757317490025e-06 1.349543620452e-03 0.0 
0.0 0.0 -2.711111111111e-04 
-2.518969323997e-04 -5.700600670993e-06 0.0 
-5.700600670993e-06 1.660777595862e-03 0.0 
0.0 0.0 -2.488888888889e-04 
-2.736940159659e-04 -4.789124913958e-06 0.0 
-4.789124913958e-06 1.350136879534e-03 0.0 
0.0 0.0 -2.711111111111e-04 
-2.522081182519e-04 -5.290303154696e-06 0.0 
-5.290303154696e-06 1.661328800105e-03 0.0 
0.0 0.0 -2.488888888889e-04 
-2.740879120576e-04 -4.696420828638e-06 0.0 
-4.696420828638e-06 1.350475034167e-03 0.0 
0.0 0.0 -2.711111111111e-04 
-2.523021902561e-04 -4.768851682041e-06 0.0 
-4.768851682041e-06 1.661607619857e-03 0.0 
0.0 0.0 -2.488888888889e-04 
-2.742860114604e-04 -4.450678829233e-06 0.0 
-4.450678829233e-06 1.350596594181e-03 0.0 
0.0 0.0 -2.711111111111e-04 
-2.522583537361e-04 -4.132198172627e-06 0.0 
-4.132198172627e-06 1.661658411941e-03 0.0 
0.0 0.0 -2.488888888889e-04 
-2.743377094271e-04 -4.015824398562e-06 0.0 
-4.015824398562e-06 1.350548093641e-03 0.0 
0.0 0.0 -2.711111111111e-04 
-2.521306901669e-04 -3.319779894205e-06 0.0 
-3.319779894205e-06 1.661525912280e-03 0.0 
0.0 0.0 -2.488888888889e-04 
-3.080779607716e-04 -1.475015598075e-04 0.0 
-1.475015598075e-04 1.635244379832e-03 0.0 
0.0 0.0 -2.581395122151e-04 
-2.742946236910e-04 -3.315280578534e-06 0.0 
-3.315280578534e-06 1.350382112278e-03 0.0 
0.0 0.0 -2.711111111111e-04 
-2.519612657398e-04 -2.267032836284e-06 0.0 
-2.267032836284e-06 1.661266505515e-03 0.0 
0.0 0.0 -2.488888888889e-04 
-2.741581536561e-04 -2.253353674045e-06 0.0 
-2.253353674045e-06 1.350150926122e-03 0.0 
0.0 0.0 -2.711111111111e-04 
-2.202457828127e-04 1.389746075053e-05 0.0 
1.389746075053e-05 1.357677145761e-03 0.0 
0.0 0.0 -2.711111111111e-04 
-2.517946071942e-04 -8.929753581381e-07 0.0 
-8.929753581381e-07 1.660940577633e-03 0.0 
0.0 0.0 -2.488888888889e-04 
-2.739189039234e-04 -6.352722421678e-07 0.0 
-6.352722421678e-07 1.349967660769e-03 0.0 
0.0 0.0 -2.711111111111e-04 
-2.517384363008e-04 7.394561981538e-07 0.0 
7.394561981538e-07 1.660737699433e-03 0.0 
0.0 0.0 -2.488888888889e-04 
-2.739337964166e-04 1.221197274564e-06 0.0 
1.221197274564e-06 1.349964284877e-03 0.0 
0.0 0.0 -2.711111111111e-04 
-2.518334594085e-04 2.411731503521e-06 0.0 
2.411731503521e-06 1.660763702417e-03 0.0 
0.0 0.0 -2.488888888889e-04 
-1.960895555722e-04 2.819449329859e-05 0.0 
2.819449329859e-05 1.449525980771e-03 0.0 
0.0 0.0 -2.359172899929e-04 
-2.740223529325e-04 3.169941513043e-06 0.0 
3.169941513043e-06 1.350175213004e-03 0.0 
0.0 0.0 -2.711111111111e-04 
-2.521255361383e-04 3.789268835446e-06 0.0 
3.789268835446e-06 1.661134749008e-03 0.0 
0.0 0.0 -2.488888888889e-04 
-2.747394659981e-04 4.250533792761e-06 0.0 
4.250533792761e-06 1.350530716705e-03 0.0 
0.0 0.0 -2.711111111111e-04 
-2.523897404502e-04 4.867975976982e-06 0.0 
4.867975976982e-06 1.661439774285e-03 0.0 
0.0 0.0 -2.488888888889e-04 
-2.744430783500e-04 5.964660527608e-06 0.0 
5.964660527608e-06 1.350990306142e-03 0.0 
0.0 0.0 -2.711111111111e-04 
-2.529635273503e-04 5.222681203829e-06 0.0 
5.222681203829e-06 1.662423363150e-03 0.0 
0.0 0.0 -2.488888888889e-04 
-2.760690211444e-04 4.823894415256e-06 0.0 
4.823894415256e-06 1.351429118495e-03 0.0 
0.0 0.0 -2.711111111111e-04 
-2.529908770248e-04 5.652366354121e-06 0.0 
5.652366354121e-06 1.662150892169e-03 0.0 
0.0 0.0 -2.488888888889e-04 
-2.736516486221e-04 8.080140684546e-06 0.0 
8.080140684546e-06 1.351951630548e-03 0.0 
0.0 0.0 -2.711111111111e-04 
-2.542260054684e-04 4.590652968587e-06 0.0 
4.590652968587e-06 1.664711106639e-03 0.0 
0.0 0.0 -2.488888888889e-04 
-2.786325066483e-04 5.172759371912e-07 0.0 
5.172759371912e-07 1.351920484534e-03 0.0 
0.0 0.0 -2.711111111111e-04 
-2.039484749468e-04 4.240355346084e-05 0.0 
4.240355346084e-05 1.529639228524e-03 0.0 
0.0 0.0 -2.692506233262e-04 
-2.686073439389e-04 1.740565458011e-05 0.0 
1.740565458011e-05 1.353255056419e-03 0.0 
0.0 0.0 -2.711111111111e-04 
-2.527840940339e-04 6.556301368232e-06 0.0 
6.556301368232e-06 1.660172474859e-03 0.0 
0.0 0.0 -2.488888888889e-04 
-2.885766075313e-04 -1.897435447569e-05 0.0 
-1.897435447569e-05 1.351855420541e-03 0.0 
0.0 0.0 -2.711111111111e-04 
-2.580190928112e-04 2.196056460017e-06 0.0 
2.196056460017e-06 1.672405909541e-03 0.0 
0.0 0.0 -2.488888888889e-04 
-2.354569360816e-04 5.009177763054e-05 0.0 
5.009177763054e-05 1.348029008298e-03 0.0 
0.0 0.0 -2.711111111111e-04 
-2.497180866270e-04 9.594220509731e-06 0.0 
9.594220509731e-06 1.647902027827e-03 0.0 
0.0 0.0 -2.488888888889e-04 
-2.676238912133e-04 1.065653122438e-05 0.0 
1.065653122438e-05 1.687223118492e-03 0.0 
0.0 0.0 -2.488888888889e-04 
-1.604370229811e-04 -8.834470754811e-06 0.0 
-8.834470754811e-06 1.235903269871e-03 0.0 
0.0 0.0 -2.470284011040e-04 
-3.182184165148e-04 -3.658444227264e-04 0.0 
-3.658444227264e-04 1.559382054094e-03 0.0 
0.0 0.0 -2.600000000000e-04 
-2.129354412600e-04 3.593199102676e-04 0.0 
3.593199102676e-04 1.370669013137e-03 0.0 
0.0 0.0 -2.600000000000e-04 
-2.876678598137e-04 -3.799013677227e-05 0.0 
-3.799013677227e-05 1.519057765608e-03 0.0 
0.0 0.0 -2.822222222222e-04 
-2.424563862687e-04 4.131524077327e-05 0.0 
4.131524077327e-05 1.419663110366e-03 0.0 
0.0 0.0 -2.377777777778e-04 
-1.839048878600e-04 -4.966859083090e-06 0.0 
-4.966859083090e-06 1.370596563687e-03 0.0 
0.0 0.0 -2.377777777778e-04 
-3.410025939663e-04 -7.109134268580e-05 0.0 
-7.109134268580e-05 1.939357491602e-03 0.0 
0.0 0.0 -3.377777777778e-04 
-3.172772433638e-04 5.789359071666e-05 0.0 
5.789359071666e-05 2.125716446876e-03 0.0 
0.0 0.0 -3.155555555556e-04 
-3.390659740094e-04 -6.181655200973e-06 0.0 
-6.181655200973e-06 1.811818636053e-03 0.0 
0.0 0.0 -3.377777777778e-04 
-3.159913479109e-04 1.476079812793e-06 0.0 
1.476079812793e-06 2.115026583353e-03 0.0 
0.0 0.0 -3.155555555556e-04 
-3.382925612550e-04 -3.291622949823e-06 0.0 
-3.291622949823e-06 1.803604871078e-03 0.0 
0.0 0.0 -3.377777777778e-04 
-3.160904822449e-04 -2.849606337303e-06 0.0 
-2.849606337303e-06 2.114329194161e-03 0.0 
0.0 0.0 -3.155555555556e-04 
-3.384956828612e-04 -3.501014590563e-06 0.0 
-3.501014590563e-06 1.803162822433e-03 0.0 
0.0 0.0 -3.377777777778e-04 
-3.167500779591e-04 -3.727769637594e-06 0.0 
-3.727769637594e-06 2.114854677275e-03 0.0 
0.0 0.0 -3.155555555556e-04 
-3.391490141729e-04 -3.651468466448e-06 0.0 
-3.651468466448e-06 1.803753947600e-03 0.0 
0.0 0.0 -3.377777777778e-04 
-3.175102459430e-04 -4.000967953647e-06 0.0 
-4.000967953647e-06 2.115610146350e-03 0.0 
0.0 0.0 -3.155555555556e-04 
-3.398779273901e-04 -3.839591480293e-06 0.0 
-3.839591480293e-06 1.804522559076e-03 0.0 
0.0 0.0 -3.377777777778e-04 
-3.181384604103e-04 -4.131905029174e-06 0.0 
-4.131905029174e-06 2.116228510088e-03 0.0 
0.0 0.0 -3.155555555556e-04 
-3.404617035917e-04 -4.098832736299e-06 0.0 
-4.098832736299e-06 1.805124771049e-03 0.0 
0.0 0.0 -3.377777777778e-04 
-3.185323565021e-04 -4.201501100217e-06 0.0 
-4.201501100217e-06 2.116520558905e-03 0.0 
0.0 0.0 -3.155555555556e-04 
-3.407292183498e-04 -4.145196935167e-06 0.0 
-4.145196935167e-06 1.805418472779e-03 0.0 
0.0 0.0 -3.377777777778e-04 
-3.187304559048e-04 -4.035902428874e-06 0.0 
-4.035902428874e-06 2.116586246076e-03 0.0 
0.0 0.0 -3.155555555556e-04 
-3.408744810369e-04 -3.924908453558e-06 0.0 
-3.924908453558e-06 1.805493857811e-03 0.0 
0.0 0.0 -3.377777777778e-04 
-3.187821538715e-04 -3.633158389462e-06 0.0 
-3.633158389462e-06 2.116456200438e-03 0.0 
0.0 0.0 -3.155555555556e-04 
-3.690431360596e-04 -1.483147847608e-04 0.0 
-1.483147847608e-04 2.100743052422e-03 0.0 
0.0 0.0 -3.249092970522e-04 
-3.409689945327e-04 -3.383060592233e-06 0.0 
-3.383060592233e-06 1.805397786316e-03 0.0 
0.0 0.0 -3.377777777778e-04 
-3.187390681354e-04 -2.979666841310e-06 0.0 
-2.979666841310e-06 2.116197507279e-03 0.0 
0.0 0.0 -3.155555555556e-04 
-3.410270300007e-04 -2.604645378448e-06 0.0 
-2.604645378448e-06 1.805179834428e-03 0.0 
0.0 0.0 -3.377777777778e-04 
-2.670328998004e-04 2.363747169204e-05 0.0 
2.363747169204e-05 1.918142120546e-03 0.0 
0.0 0.0 -3.026870748299e-04 
-3.186025981005e-04 -2.078898059982e-06 0.0 
-2.078898059982e-06 2.115791879757e-03 0.0 
0.0 0.0 -3.155555555556e-04 
-2.890685759485e-04 1.184379376180e-05 0.0 
1.184379376180e-05 1.817294272793e-03 0.0 
0.0 0.0 -3.377777777778e-04 
-3.408782700942e-04 -1.553756922301e-06 0.0 
-1.553756922301e-06 1.804821399400e-03 0.0 
0.0 0.0 -3.377777777778e-04 
-3.183633483678e-04 -7.255709595618e-07 0.0 
-7.255709595618e-07 2.115187739220e-03 0.0 
0.0 0.0 -3.155555555556e-04 
-3.404069314638e-04 7.078744655288e-07 0.0 
7.078744655288e-07 1.804467464759e-03 0.0 
0.0 0.0 -3.377777777778e-04 
-3.183782408610e-04 1.285945568806e-06 0.0 
1.285945568806e-06 2.115270095584e-03 0.0 
0.0 0.0 -3.155555555556e-04 
-3.406492705220e-04 2.583697952876e-06 0.0 
2.583697952876e-06 1.804558473506e-03 0.0 
0.0 0.0 -3.377777777778e-04 
-3.184667973769e-04 3.190092890347e-06 0.0 
3.190092890347e-06 2.115278979552e-03 0.0 
0.0 0.0 -3.155555555556e-04 
-3.409369116605e-04 5.636160284329e-06 0.0 
5.636160284329e-06 1.804991858146e-03 0.0 
0.0 0.0 -3.377777777778e-04 
-3.191839104425e-04 4.673179760941e-06 0.0 
4.673179760941e-06 2.116930574184e-03 0.0 
0.0 0.0 -3.155555555556e-04 
-2.573175860954e-04 2.442770395473e-05 0.0 
2.442770395473e-05 1.988241460667e-03 0.0 
0.0 0.0 -3.360204081633e-04 
-3.424750430989e-04 4.023495552553e-06 0.0 
4.023495552553e-06 1.805722805934e-03 0.0 
0.0 0.0 -3.377777777778e-04 
-3.188875227944e-04 5.080339814793e-06 0.0 
5.080339814793e-06 2.115625010649e-03 0.0 
0.0 0.0 -3.155555555556e-04 
-3.407604408985e-04 9.421647063138e-06 0.0 
9.421647063138e-06 1.806070588280e-03 0.0 
0.0 0.0 -3.377777777778e-04 
-3.205134655889e-04 5.605715921528e-06 0.0 
5.605715921528e-06 2.120236289604e-03 0.0 
0.0 0.0 -3.155555555556e-04 
-3.180960930666e-04 5.060715434054e-06 0.0 
5.060715434054e-06 2.113082397847e-03 0.0 
0.0 0.0 -3.155555555556e-04 
-3.444609068295e-04 -8.452731088944e-07 0.0 
-8.452731088944e-07 1.806865042408e-03 0.0 
0.0 0.0 -3.377777777778e-04 
-3.230769510927e-04 5.297167333293e-06 0.0 
5.297167333293e-06 2.127756228039e-03 0.0 
0.0 0.0 -3.155555555556e-04 
-3.355530174909e-04 1.784549433605e-05 0.0 
1.784549433605e-05 1.806438973057e-03 0.0 
0.0 0.0 -3.377777777778e-04 
-3.130517883833e-04 8.743375330241e-06 0.0 
8.743375330241e-06 2.097353132742e-03 0.0 
0.0 0.0 -3.155555555556e-04 
-3.330210519758e-04 2.012953566073e-05 0.0 
2.012953566073e-05 2.147504497682e-03 0.0 
0.0 0.0 -3.155555555556e-04 
-3.509966610494e-04 -2.022077905235e-05 0.0 
-2.022077905235e-05 1.806627387448e-03 0.0 
0.0 0.0 -3.377777777778e-04 
-2.972095881106e-04 5.804270690087e-05 0.0 
5.804270690087e-05 1.800815152055e-03 0.0 
0.0 0.0 -3.377777777778e-04 
-2.175107159718e-04 -1.631750727446e-05 0.0 
-1.631750727446e-05 1.699502326439e-03 0.0 
0.0 0.0 -3.137981859410e-04 
-2.788781723149e-04 -3.677632055049e-04 0.0 
-3.677632055049e-04 1.918773635351e-03 0.0 
0.0 0.0 -3.266666666667e-04 
-3.824407797580e-04 3.586504733502e-04 0.0 
3.586504733502e-04 2.104280094811e-03 0.0 
0.0 0.0 -3.266666666667e-04 
-3.098900820360e-04 -3.767118635735e-05 0.0 
-3.767118635735e-05 1.957913403149e-03 0.0 
0.0 0.0 -3.044444444444e-04 
-3.525472806036e-04 3.960242332949e-05 0.0 
3.960242332949e-05 2.055406756741e-03 0.0 
0.0 0.0 -3.488888888889e-04 
-2.535791161460e-04 -6.363998917511e-06 0.0 
-6.363998917511e-06 1.836833488631e-03 0.0 
0.0 0.0 -3.044444444444e-04 
-3.854470384108e-04 -7.318895876573e-05 0.0 
-7.318895876573e-05 2.462268997968e-03 0.0 
0.0 0.0 -3.822222222222e-04 
-4.067260869842e-04 5.256727935290e-05 0.0 
5.256727935290e-05 2.270583520964e-03 0.0 
0.0 0.0 -4.044444444444e-04 
-3.835104184538e-04 -6.001370987165e-06 0.0 
-6.001370987165e-06 2.584239217162e-03 0.0 
0.0 0.0 -3.822222222222e-04 
-4.054239343453e-04 -3.862668403001e-07 0.0 
-3.862668403001e-07 2.278107254442e-03 0.0 
0.0 0.0 -4.044444444444e-04 
-3.827370056994e-04 -2.051108453458e-06 0.0 
-2.051108453458e-06 2.589324965641e-03 0.0 
0.0 0.0 -3.822222222222e-04 
-4.049473858376e-04 -2.025371124652e-06 0.0 
-2.025371124652e-06 2.278227481696e-03 0.0 
0.0 0.0 -4.044444444444e-04 
-3.829401273056e-04 -2.233475725688e-06 0.0 
-2.233475725688e-06 2.589358314293e-03 0.0 
0.0 0.0 -3.822222222222e-04 
-4.051320011441e-04 -1.755724159203e-06 0.0 
-1.755724159203e-06 2.278648915763e-03 0.0 
0.0 0.0 -4.044444444444e-04 
-3.835934586173e-04 -2.688169992058e-06 0.0 
-2.688169992058e-06 2.589869457183e-03 0.0 
0.0 0.0 -3.822222222222e-04 
-4.056600794981e-04 -1.893213932825e-06 0.0 
-1.893213932825e-06 2.279331955242e-03 0.0 
0.0 0.0 -4.044444444444e-04 
-3.843223718345e-04 -3.113994382666e-06 0.0 
-3.113994382666e-06 2.590617347037e-03 0.0 
0.0 0.0 -3.822222222222e-04 
-4.064892069025e-04 -2.474484856184e-06 0.0 
-2.474484856184e-06 2.280008615996e-03 0.0 
0.0 0.0 -4.044444444444e-04 
-3.849061480361e-04 -3.622932708983e-06 0.0 
-3.622932708983e-06 2.591309291953e-03 0.0 
0.0 0.0 -3.822222222222e-04 
-4.069579766942e-04 -3.400241771046e-06 0.0 
-3.400241771046e-06 2.280265863003e-03 0.0 
0.0 0.0 -4.044444444444e-04 
-3.851736627943e-04 -3.698729864734e-06 0.0 
-3.698729864734e-06 2.591442129951e-03 0.0 
0.0 0.0 -3.822222222222e-04 
-4.070595378396e-04 -3.530761062622e-06 0.0 
-3.530761062622e-06 2.280248515823e-03 0.0 
0.0 0.0 -4.044444444444e-04 
-3.853189254814e-04 -3.308712062649e-06 0.0 
-3.308712062649e-06 2.591334618481e-03 0.0 
0.0 0.0 -3.822222222222e-04 
-4.286221488410e-04 -1.538307185823e-04 0.0 
-1.538307185823e-04 2.567067218455e-03 0.0 
0.0 0.0 -3.914586414276e-04 
-4.072795051317e-04 -3.225304394731e-06 0.0 
-3.225304394731e-06 2.280128533043e-03 0.0 
0.0 0.0 -4.044444444444e-04 
-3.854134389772e-04 -2.594023862037e-06 0.0 
-2.594023862037e-06 2.591119240828e-03 0.0 
0.0 0.0 -3.822222222222e-04 
-3.464781260891e-04 1.734225857512e-05 0.0 
1.734225857512e-05 2.287295584395e-03 0.0 
0.0 0.0 -4.044444444444e-04 
-4.077885899199e-04 -2.677206166133e-06 0.0 
-2.677206166133e-06 2.280033372710e-03 0.0 
0.0 0.0 -4.044444444444e-04 
-3.854714744452e-04 -1.933077100150e-06 0.0 
-1.933077100150e-06 2.590961113598e-03 0.0 
0.0 0.0 -3.822222222222e-04 
-4.081084443904e-04 -2.360427714429e-06 0.0 
-2.360427714429e-06 2.279760717046e-03 0.0 
0.0 0.0 -4.044444444444e-04 
-3.853227145387e-04 -1.172340553323e-06 0.0 
-1.172340553323e-06 2.590523544031e-03 0.0 
0.0 0.0 -3.822222222222e-04 
-4.077855839762e-04 -1.880350380513e-06 0.0 
-1.880350380513e-06 2.279028361984e-03 0.0 
0.0 0.0 -4.044444444444e-04 
-3.286682295382e-04 3.864000460938e-05 0.0 
3.864000460938e-05 2.388312332005e-03 0.0 
0.0 0.0 -3.692364192054e-04 
-3.848513759082e-04 8.749343323248e-07 0.0 
8.749343323248e-07 2.589303941023e-03 0.0 
0.0 0.0 -3.822222222222e-04 
-4.064553215493e-04 2.023836917044e-06 0.0 
2.023836917044e-06 2.278692862703e-03 0.0 
0.0 0.0 -4.044444444444e-04 
-3.850937149665e-04 3.323013512367e-06 0.0 
3.323013512367e-06 2.589488289002e-03 0.0 
0.0 0.0 -3.822222222222e-04 
-4.083426802909e-04 3.954253352632e-06 0.0 
3.954253352632e-06 2.279268883058e-03 0.0 
0.0 0.0 -4.044444444444e-04 
-3.853813561049e-04 5.496575711278e-06 0.0 
5.496575711278e-06 2.589798472255e-03 0.0 
0.0 0.0 -3.822222222222e-04 
-4.073887531176e-04 8.644381902742e-06 0.0 
8.644381902742e-06 2.280648906445e-03 0.0 
0.0 0.0 -4.044444444444e-04 
-3.869194875434e-04 4.699519663536e-06 0.0 
4.699519663536e-06 2.593344221483e-03 0.0 
0.0 0.0 -3.822222222222e-04 
-4.136900432831e-04 3.059611688979e-07 0.0 
3.059611688979e-07 2.281270984406e-03 0.0 
0.0 0.0 -4.044444444444e-04 
-3.852048853429e-04 5.647321068923e-06 0.0 
5.647321068923e-06 2.589552732633e-03 0.0 
0.0 0.0 -3.822222222222e-04 
-4.027468751107e-04 1.481940469573e-05 0.0 
1.481940469573e-05 2.282290554162e-03 0.0 
0.0 0.0 -4.044444444444e-04 
-3.140135372488e-04 2.873744366980e-05 0.0 
2.873744366980e-05 2.457976087611e-03 0.0 
0.0 0.0 -4.025697525387e-04 
-4.196628018255e-04 -1.837442126529e-05 0.0 
-1.837442126529e-05 2.280568181227e-03 0.0 
0.0 0.0 -4.044444444444e-04 
-3.889053512739e-04 9.814032543957e-07 0.0 
9.814032543957e-07 2.600099780335e-03 0.0 
0.0 0.0 -3.822222222222e-04 
-3.673242193347e-04 4.652408802632e-05 0.0 
4.652408802632e-05 2.277402359379e-03 0.0 
0.0 0.0 -4.044444444444e-04 
-3.799974619353e-04 7.920842717921e-06 0.0 
7.920842717921e-06 2.577842323435e-03 0.0 
0.0 0.0 -3.822222222222e-04 
-3.954411054939e-04 8.433133596591e-06 0.0 
8.433133596591e-06 2.614590654529e-03 0.0 
0.0 0.0 -3.822222222222e-04 
-2.749511289216e-04 8.331946175198e-06 0.0 
8.331946175198e-06 2.168007004057e-03 0.0 
0.0 0.0 -3.803475303165e-04 
-4.499391521729e-04 -3.691567064575e-04 0.0 
-3.691567064575e-04 2.484470054093e-03 0.0 
0.0 0.0 -3.933333333333e-04 
-3.454868480400e-04 3.563309951917e-04 0.0 
3.563309951917e-04 2.297351916339e-03 0.0 
0.0 0.0 -3.933333333333e-04 
-4.195054663633e-04 -3.985404005849e-05 0.0 
-3.985404005849e-05 2.445111450393e-03 0.0 
0.0 0.0 -4.155555555556e-04 
-3.747695028258e-04 3.813450272878e-05 0.0 
3.813450272878e-05 2.346473725249e-03 0.0 
0.0 0.0 -3.711111111111e-04 
-3.224019092818e-04 7.776420168041e-06 0.0 
7.776420168041e-06 2.309384780840e-03 0.0 
0.0 0.0 -3.711111111111e-04 
-4.743042659077e-04 -7.660020380402e-05 0.0 
-7.660020380402e-05 2.865853814990e-03 0.0 
0.0 0.0 -4.711111111111e-04 
-4.511705314287e-04 5.193280790000e-05 0.0 
5.193280790000e-05 3.054035925169e-03 0.0 
0.0 0.0 -4.488888888889e-04 
-4.724633686242e-04 -9.447249748580e-06 0.0 
-9.447249748580e-06 2.739853487715e-03 0.0 
0.0 0.0 -4.711111111111e-04 
-4.498683787897e-04 -1.564459074611e-06 0.0 
-1.564459074611e-06 3.043354068164e-03 0.0 
0.0 0.0 -4.488888888889e-04 
-4.709847188569e-04 -3.574354858548e-06 0.0 
-3.574354858548e-06 2.732085994282e-03 0.0 
0.0 0.0 -4.711111111111e-04 
-4.493918302821e-04 -2.534727311539e-06 0.0 
-2.534727311539e-06 3.042771200855e-03 0.0 
0.0 0.0 -4.488888888889e-04 
-4.712289592024e-04 -1.812807881693e-06 0.0 
-1.812807881693e-06 2.731728430754e-03 0.0 
0.0 0.0 -4.711111111111e-04 
-4.495764455886e-04 -1.773818124670e-06 0.0 
-1.773818124670e-06 3.043241608981e-03 0.0 
0.0 0.0 -4.488888888889e-04 
-4.714369542363e-04 -1.226754823058e-06 0.0 
-1.226754823058e-06 2.732193229008e-03 0.0 
0.0 0.0 -4.711111111111e-04 
-4.501045239425e-04 -1.319389086982e-06 0.0 
-1.319389086982e-06 3.044025953912e-03 0.0 
0.0 0.0 -4.488888888889e-04 
-4.721709199479e-04 -7.219039080997e-07 0.0 
-7.219039080997e-07 2.733000959488e-03 0.0 
0.0 0.0 -4.711111111111e-04 
-4.509336513469e-04 -1.227029478674e-06 0.0 
-1.227029478674e-06 3.045199183253e-03 0.0 
0.0 0.0 -4.488888888889e-04 
-4.733112105119e-04 -2.101747565311e-06 0.0 
-2.101747565311e-06 2.733939753671e-03 0.0 
0.0 0.0 -4.711111111111e-04 
-4.514024211387e-04 -2.167247969086e-06 0.0 
-2.167247969086e-06 3.045303862128e-03 0.0 
0.0 0.0 -4.488888888889e-04 
-4.736423528676e-04 -3.198210204819e-06 0.0 
-3.198210204819e-06 2.733987266950e-03 0.0 
0.0 0.0 -4.711111111111e-04 
-4.515039822840e-04 -2.583022231608e-06 0.0 
-2.583022231608e-06 3.044671970773e-03 0.0 
0.0 0.0 -4.488888888889e-04 
-5.094249609212e-04 -1.485849024676e-04 0.0 
-1.485849024676e-04 3.037014136749e-03 0.0 
0.0 0.0 -4.582426303855e-04 
-4.729917283578e-04 -2.527651589425e-06 0.0 
-2.527651589425e-06 2.733536135201e-03 0.0 
0.0 0.0 -4.711111111111e-04 
-4.517239495761e-04 -1.695467618580e-06 0.0 
-1.695467618580e-06 3.044559982769e-03 0.0 
0.0 0.0 -4.488888888889e-04 
-3.989001830536e-04 1.286242860206e-05 0.0 
1.286242860206e-05 2.848856344771e-03 0.0 
0.0 0.0 -4.360204081633e-04 
-4.741797545259e-04 -9.783497844147e-07 0.0 
-9.783497844147e-07 2.733642750037e-03 0.0 
0.0 0.0 -4.711111111111e-04 
-4.522330343643e-04 -9.670925008782e-07 0.0 
-9.670925008782e-07 3.044890510388e-03 0.0 
0.0 0.0 -4.488888888889e-04 
-4.144774096089e-04 2.017710958328e-05 0.0 
2.017710958328e-05 2.745520392554e-03 0.0 
0.0 0.0 -4.711111111111e-04 
-4.753995493701e-04 -8.226418973050e-07 0.0 
-8.226418973050e-07 2.733890535335e-03 0.0 
0.0 0.0 -4.711111111111e-04 
-4.525528888349e-04 -1.017856854085e-06 0.0 
-1.017856854085e-06 3.044832322142e-03 0.0 
0.0 0.0 -4.488888888889e-04 
-4.755368976101e-04 -1.846947414207e-06 0.0 
-1.846947414207e-06 2.733541044653e-03 0.0 
0.0 0.0 -4.711111111111e-04 
-4.522300284206e-04 -1.178811979142e-06 0.0 
-1.178811979142e-06 3.043706972071e-03 0.0 
0.0 0.0 -4.488888888889e-04 
-4.752002035872e-04 -2.749529905503e-06 0.0 
-2.749529905503e-06 2.732164380164e-03 0.0 
0.0 0.0 -4.711111111111e-04 
-4.508997659937e-04 9.025585633480e-07 0.0 
9.025585633480e-07 3.040023587775e-03 0.0 
0.0 0.0 -4.488888888889e-04 
-4.025111780395e-04 2.483692496455e-05 0.0 
2.483692496455e-05 2.925236968048e-03 0.0 
0.0 0.0 -4.693537414966e-04 
-4.720241450351e-04 8.096980642635e-06 0.0 
8.096980642635e-06 2.731296038601e-03 0.0 
0.0 0.0 -4.711111111111e-04 
-4.527871247353e-04 5.512980383908e-06 0.0 
5.512980383908e-06 3.045188244375e-03 0.0 
0.0 0.0 -4.488888888889e-04 
-4.781498596818e-04 2.806128767874e-06 0.0 
2.806128767874e-06 2.733503698510e-03 0.0 
0.0 0.0 -4.711111111111e-04 
-4.518331975621e-04 6.669660836263e-06 0.0 
6.669660836263e-06 3.040822692016e-03 0.0 
0.0 0.0 -4.488888888889e-04 
-4.581344877275e-04 4.806066696417e-06 0.0 
4.806066696417e-06 3.058516911663e-03 0.0 
0.0 0.0 -4.488888888889e-04 
-4.734463109153e-04 2.147515801901e-05 0.0 
2.147515801901e-05 2.735536322359e-03 0.0 
0.0 0.0 -4.711111111111e-04 
-4.471913195551e-04 3.250875513875e-06 0.0 
3.250875513875e-06 3.026848153488e-03 0.0 
0.0 0.0 -4.488888888889e-04 
-4.901163184293e-04 -2.393685911691e-05 0.0 
-2.393685911691e-05 2.736952886364e-03 0.0 
0.0 0.0 -4.711111111111e-04 
-4.641072462699e-04 1.667244048002e-05 0.0 
1.667244048002e-05 3.071178406626e-03 0.0 
0.0 0.0 -4.488888888889e-04 
-4.324862338949e-04 4.839324787635e-05 0.0 
4.839324787635e-05 2.728573330093e-03 0.0 
0.0 0.0 -4.711111111111e-04 
-3.598727436964e-04 -3.513921753685e-05 0.0 
-3.513921753685e-05 2.630027147507e-03 0.0 
0.0 0.0 -4.471315192744e-04 
-4.105980049468e-04 -3.701438029837e-04 0.0 
-3.701438029837e-04 2.845095093414e-03 0.0 
0.0 0.0 -4.600000000000e-04 
-5.151542512817e-04 3.559434576648e-04 0.0 
3.559434576648e-04 3.032255437761e-03 0.0 
0.0 0.0 -4.600000000000e-04 
-4.417276885855e-04 -3.934714622280e-05 0.0 
-3.934714622280e-05 2.884397119692e-03 0.0 
0.0 0.0 -4.377777777778e-04 
-4.853374994491e-04 3.790832101965e-05 0.0 
3.790832101965e-05 2.981759035168e-03 0.0 
0.0 0.0 -4.822222222222e-04 
-3.798114594225e-04 -2.502327533149e-05 0.0 
-2.502327533149e-05 2.763244671662e-03 0.0 
0.0 0.0 -4.377777777778e-04 
-5.187487103521e-04 -7.879757944209e-05 0.0 
-7.879757944209e-05 3.392117763543e-03 0.0 
0.0 0.0 -5.155555555556e-04 
-5.412972415894e-04 4.648002671404e-05 0.0 
4.648002671404e-05 3.200314872166e-03 0.0 
0.0 0.0 -5.377777777778e-04 
-5.169078130686e-04 -1.124351187329e-05 0.0 
-1.124351187329e-05 3.514306742191e-03 0.0 
0.0 0.0 -5.155555555556e-04 
-5.370398844120e-04 -5.539739897353e-06 0.0 
-5.539739897353e-06 3.206683234812e-03 0.0 
0.0 0.0 -5.377777777778e-04 
-5.154291633013e-04 -3.129495957291e-06 0.0 
-3.129495957291e-06 3.517617017321e-03 0.0 
0.0 0.0 -5.155555555556e-04 
-5.381093200183e-04 -1.976663157730e-06 0.0 
-1.976663157730e-06 3.207914382671e-03 0.0 
0.0 0.0 -5.377777777778e-04 
-5.156734036468e-04 -2.406369053650e-06 0.0 
-2.406369053650e-06 3.519066327430e-03 0.0 
0.0 0.0 -5.155555555556e-04 
-5.366091103083e-04 -1.207085778227e-06 0.0 
-1.207085778227e-06 3.208019600709e-03 0.0 
0.0 0.0 -5.377777777778e-04 
-5.158813986807e-04 -1.051510284371e-06 0.0 
-1.051510284371e-06 3.519134616611e-03 0.0 
0.0 0.0 -5.155555555556e-04 
-5.372599660982e-04 6.933014159799e-07 0.0 
6.933014159799e-07 3.208897054849e-03 0.0 
0.0 0.0 -5.377777777778e-04 
-5.166153643924e-04 -3.726067797674e-07 0.0 
-3.726067797674e-07 3.520203548651e-03 0.0 
0.0 0.0 -5.155555555556e-04 
-5.375825845931e-04 1.962175395587e-06 0.0 
1.962175395587e-06 3.210164447084e-03 0.0 
0.0 0.0 -5.377777777778e-04 
-5.177556549563e-04 -1.083300339435e-06 0.0 
-1.083300339435e-06 3.521881872284e-03 0.0 
0.0 0.0 -5.155555555556e-04 
-5.405721443304e-04 -1.211361635702e-06 0.0 
-1.211361635702e-06 3.211048643113e-03 0.0 
0.0 0.0 -5.377777777778e-04 
-5.180867973121e-04 -2.955006037441e-06 0.0 
-2.955006037441e-06 3.522497958112e-03 0.0 
0.0 0.0 -5.155555555556e-04 
-5.792879928890e-04 -1.599267687406e-04 0.0 
-1.599267687406e-04 3.507819207063e-03 0.0 
0.0 0.0 -5.247732426303e-04 
-5.375442025049e-04 -3.821072344249e-06 0.0 
-3.821072344249e-06 3.209055027385e-03 0.0 
0.0 0.0 -5.377777777778e-04 
-4.855148531560e-04 1.971124341118e-05 0.0 
1.971124341118e-05 3.223296130373e-03 0.0 
0.0 0.0 -5.377777777778e-04 
-5.174361728023e-04 1.037369395506e-07 0.0 
1.037369395506e-07 3.519390087404e-03 0.0 
0.0 0.0 -5.155555555556e-04 
-5.390305481333e-04 1.985391886553e-06 0.0 
1.985391886553e-06 3.209337053627e-03 0.0 
0.0 0.0 -5.377777777778e-04 
-5.186241989704e-04 1.920455278980e-06 0.0 
1.920455278980e-06 3.520577890956e-03 0.0 
0.0 0.0 -5.155555555556e-04 
-5.424782350989e-04 2.602587795864e-06 0.0 
2.602587795864e-06 3.210819048104e-03 0.0 
0.0 0.0 -5.377777777778e-04 
-5.198439938145e-04 8.397343631672e-07 0.0 
8.397343631672e-07 3.522383784968e-03 0.0 
0.0 0.0 -5.155555555556e-04 
-5.425396489499e-04 -2.671586099258e-07 0.0 
-2.671586099258e-07 3.210729830903e-03 0.0 
0.0 0.0 -5.377777777778e-04 
-4.639261431919e-04 1.795800229962e-05 0.0 
1.795800229962e-05 3.319383572120e-03 0.0 
0.0 0.0 -5.025510204081e-04 
-5.199813420545e-04 4.884319006210e-08 0.0 
4.884319006210e-08 3.521715893853e-03 0.0 
0.0 0.0 -5.155555555556e-04 
-5.429313789558e-04 -1.595839338101e-06 0.0 
-1.595839338101e-06 3.209826232599e-03 0.0 
0.0 0.0 -5.377777777778e-04 
-5.196446480316e-04 -7.157581278471e-07 0.0 
-7.157581278471e-07 3.520538878585e-03 0.0 
0.0 0.0 -5.155555555556e-04 
-5.449486155419e-04 -7.127659532130e-06 0.0 
-7.127659532130e-06 3.206562068945e-03 0.0 
0.0 0.0 -5.377777777778e-04 
-5.164685894796e-04 6.903981517509e-06 0.0 
6.903981517509e-06 3.511995524719e-03 0.0 
0.0 0.0 -5.155555555556e-04 
-5.340991680871e-04 2.151676257844e-05 0.0 
2.151676257844e-05 3.208223790984e-03 0.0 
0.0 0.0 -5.377777777778e-04 
-5.225943041262e-04 7.813857319380e-06 0.0 
7.813857319380e-06 3.525980620072e-03 0.0 
0.0 0.0 -5.155555555556e-04 
-5.589612776076e-04 -5.839662931230e-06 0.0 
-5.839662931230e-06 3.211769507264e-03 0.0 
0.0 0.0 -5.377777777778e-04 
-5.066406946919e-04 4.974783901009e-05 0.0 
4.974783901009e-05 3.211603155197e-03 0.0 
0.0 0.0 -5.377777777778e-04 
-5.178907553597e-04 1.266973619615e-05 0.0 
1.266973619615e-05 3.512461130721e-03 0.0 
0.0 0.0 -5.155555555556e-04 
-4.723338447053e-04 2.541271294402e-05 0.0 
2.541271294402e-05 3.400544018691e-03 0.0 
0.0 0.0 -5.358843537414e-04 
-5.345607628738e-04 7.989109301534e-06 0.0 
7.989109301534e-06 3.549518677637e-03 0.0 
0.0 0.0 -5.155555555556e-04 
-4.278487948575e-04 -2.628820225451e-05 0.0 
-2.628820225451e-05 3.098178878207e-03 0.0 
0.0 0.0 -5.136621315192e-04 
-5.830730295150e-04 -3.701622094986e-04 0.0 
-3.701622094986e-04 3.411662693846e-03 0.0 
0.0 0.0 -5.266666666667e-04 
-4.791897713482e-04 3.550100958036e-04 0.0 
3.550100958036e-04 3.225685347325e-03 0.0 
0.0 0.0 -5.266666666667e-04 
-5.533708020514e-04 -3.952512472071e-05 0.0 
-3.952512472071e-05 3.373562060411e-03 0.0 
0.0 0.0 -5.488888888889e-04 
-5.075597216713e-04 3.715385301184e-05 0.0 
3.715385301184e-05 3.274980805740e-03 0.0 
0.0 0.0 -5.044444444444e-04 
-4.478107429422e-04 -2.175364391221e-05 0.0 
-2.175364391221e-05 3.231094822119e-03 0.0 
0.0 0.0 -5.044444444444e-04 
-6.189291422576e-04 -8.703466800009e-05 0.0 
-8.703466800009e-05 3.800993658171e-03 0.0 
0.0 0.0 -6.044444444444e-04 
-5.857416860338e-04 4.152251131124e-05 0.0 
4.152251131124e-05 3.981396628525e-03 0.0 
0.0 0.0 -5.822222222222e-04 
-6.014676124269e-04 -2.366192094096e-05 0.0 
-2.366192094096e-05 3.666428660516e-03 0.0 
0.0 0.0 -6.044444444444e-04 
-5.814843288565e-04 -9.898764258253e-06 0.0 
-9.898764258253e-06 3.966852274136e-03 0.0 
0.0 0.0 -5.822222222222e-04 
-6.012057329272e-04 -9.447332933257e-07 0.0 
-9.447332933257e-07 3.656511754543e-03 0.0 
0.0 0.0 -6.044444444444e-04 
-5.825537644628e-04 -2.598524727547e-06 0.0 
-2.598524727547e-06 3.971861702718e-03 0.0 
0.0 0.0 -5.822222222222e-04 
-6.053753762140e-04 -6.697619749961e-06 0.0 
-6.697619749961e-06 3.660276641183e-03 0.0 
0.0 0.0 -6.044444444444e-04 
-5.810535547528e-04 -4.794630108920e-06 0.0 
-4.794630108920e-06 3.968237137461e-03 0.0 
0.0 0.0 -5.822222222222e-04 
-5.989315183322e-04 1.500653346668e-07 0.0 
1.500653346668e-07 3.657759237214e-03 0.0 
0.0 0.0 -6.044444444444e-04 
-5.817044105427e-04 9.543218927829e-07 0.0 
9.543218927829e-07 3.971595709461e-03 0.0 
0.0 0.0 -5.822222222222e-04 
-6.036123665843e-04 5.339950144235e-07 0.0 
5.339950144235e-07 3.660400636182e-03 0.0 
0.0 0.0 -6.044444444444e-04 
-5.820270290375e-04 1.512396225080e-06 0.0 
1.512396225080e-06 3.971136415647e-03 0.0 
0.0 0.0 -5.822222222222e-04 
-6.007150147334e-04 7.186565872499e-06 0.0 
7.186565872499e-06 3.661043708330e-03 0.0 
0.0 0.0 -6.044444444444e-04 
-6.473657891011e-04 -1.503775681191e-04 0.0 
-1.503775681191e-04 3.972322043345e-03 0.0 
0.0 0.0 -5.915759637188e-04 
-5.850165887748e-04 4.111519023383e-06 0.0 
4.111519023383e-06 3.978321279381e-03 0.0 
0.0 0.0 -5.822222222222e-04 
-6.068724417993e-04 -1.008894091445e-05 0.0 
-1.008894091445e-05 3.663848600166e-03 0.0 
0.0 0.0 -6.044444444444e-04 
-5.382166584107e-04 1.304379000640e-05 0.0 
1.304379000640e-05 3.784609928149e-03 0.0 
0.0 0.0 -5.693537414966e-04 
-5.819886469493e-04 -2.459134104207e-06 0.0 
-2.459134104207e-06 3.967910560167e-03 0.0 
0.0 0.0 -5.822222222222e-04 
-6.025293378773e-04 4.180804481685e-06 0.0 
4.180804481685e-06 3.658439256297e-03 0.0 
0.0 0.0 -6.044444444444e-04 
-5.551920643199e-04 2.265198140005e-05 0.0 
2.265198140005e-05 3.679387987050e-03 0.0 
0.0 0.0 -6.044444444444e-04 
-5.834749925778e-04 5.082011282514e-06 0.0 
5.082011282514e-06 3.970492679137e-03 0.0 
0.0 0.0 -5.822222222222e-04 
-6.079594570241e-04 1.156947798517e-05 0.0 
1.156947798517e-05 3.661485342161e-03 0.0 
0.0 0.0 -6.044444444444e-04 
-5.869226795434e-04 6.564857151272e-06 0.0 
6.564857151272e-06 3.976524406353e-03 0.0 
0.0 0.0 -5.822222222222e-04 
-6.104220387485e-04 1.777481494462e-06 0.0 
1.777481494462e-06 3.663998117975e-03 0.0 
0.0 0.0 -6.044444444444e-04 
-5.869840933944e-04 2.939983270558e-06 0.0 
2.939983270558e-06 3.973848016868e-03 0.0 
0.0 0.0 -5.822222222222e-04 
-5.382425891796e-04 2.010179773979e-05 0.0 
2.010179773979e-05 3.859360506165e-03 0.0 
0.0 0.0 -6.026870748299e-04 
-6.075003933196e-04 1.831253403248e-06 0.0 
1.831253403248e-06 3.662133086902e-03 0.0 
0.0 0.0 -6.044444444444e-04 
-5.873758234003e-04 4.101101850473e-06 0.0 
4.101101850473e-06 3.972642461745e-03 0.0 
0.0 0.0 -5.822222222222e-04 
-5.893930599864e-04 7.702980256847e-07 0.0 
7.702980256847e-07 3.976762054191e-03 0.0 
0.0 0.0 -5.822222222222e-04 
-6.109731840224e-04 5.890820747531e-06 0.0 
5.890820747531e-06 3.662416691587e-03 0.0 
0.0 0.0 -6.044444444444e-04 
-5.785436125316e-04 1.010670441636e-05 0.0 
1.010670441636e-05 3.943008250813e-03 0.0 
0.0 0.0 -5.822222222222e-04 
-6.245615995330e-04 -2.323619509784e-05 0.0 
-2.323619509784e-05 3.657960966842e-03 0.0 
0.0 0.0 -6.044444444444e-04 
-6.034057220520e-04 2.547674868134e-05 0.0 
2.547674868134e-05 4.007426657562e-03 0.0 
0.0 0.0 -5.822222222222e-04 
-5.749090046599e-04 7.539992690053e-05 0.0 
7.539992690053e-05 3.655670285631e-03 0.0 
0.0 0.0 -6.044444444444e-04 
-4.961379511751e-04 -3.596508921430e-05 0.0 
-3.596508921430e-05 3.563351096824e-03 0.0 
0.0 0.0 -5.804648526077e-04 
-5.370991115957e-04 -3.597763694007e-04 0.0 
-3.597763694007e-04 3.763144672232e-03 0.0 
0.0 0.0 -5.933333333333e-04 
-6.527633909015e-04 3.673307409981e-04 0.0 
3.673307409981e-04 3.969951782286e-03 0.0 
0.0 0.0 -5.933333333333e-04 
-5.755930242736e-04 -3.122109693664e-05 0.0 
-3.122109693664e-05 3.812561021402e-03 0.0 
0.0 0.0 -5.711111111111e-04 
-6.159345735075e-04 5.418298751483e-05 0.0 
5.418298751483e-05 3.907149665354e-03 0.0 
0.0 0.0 -6.155555555556e-04 
-5.188481864893e-04 -2.197935258590e-05 0.0 
-2.197935258590e-05 3.695326603665e-03 0.0 
0.0 0.0 -5.711111111111e-04 
-6.633735867021e-04 -1.155216560217e-04 0.0 
-1.155216560217e-04 4.354748692185e-03 0.0 
0.0 0.0 -6.488888888889e-04 
-6.563660005588e-04 -4.949228987583e-06 0.0 
-4.949228987583e-06 4.121813599109e-03 0.0 
0.0 0.0 -6.711111111111e-04 
-6.459120568713e-04 -1.400816422119e-05 0.0 
-1.400816422119e-05 4.433498309450e-03 0.0 
0.0 0.0 -6.488888888889e-04 
-6.749764366867e-04 -1.022061849857e-05 0.0 
-1.022061849857e-05 4.131528536263e-03 0.0 
0.0 0.0 -6.711111111111e-04 
-6.456501773717e-04 -4.182868477560e-07 0.0 
-4.182868477560e-07 4.441719427511e-03 0.0 
0.0 0.0 -6.488888888889e-04 
-6.743020789233e-04 6.977086704307e-06 0.0 
6.977086704307e-06 4.142139451712e-03 0.0 
0.0 0.0 -6.711111111111e-04 
-6.498198206585e-04 -1.519001385404e-05 0.0 
-1.519001385404e-05 4.455827176230e-03 0.0 
0.0 0.0 -6.488888888889e-04 
-6.621266125404e-04 -2.192043764397e-05 0.0 
-2.192043764397e-05 4.131761848184e-03 0.0 
0.0 0.0 -6.711111111111e-04 
-6.433759627766e-04 1.777448492813e-06 0.0 
1.777448492813e-06 4.439463053302e-03 0.0 
0.0 0.0 -6.488888888889e-04 
-6.671926554527e-04 1.273682377917e-05 0.0 
1.273682377917e-05 4.138458681040e-03 0.0 
0.0 0.0 -6.711111111111e-04 
-6.480568110287e-04 -2.776142626278e-06 0.0 
-2.776142626278e-06 4.452403490028e-03 0.0 
0.0 0.0 -6.488888888889e-04 
-6.701502197109e-04 -7.061847058022e-06 0.0 
-7.061847058022e-06 4.137807792637e-03 0.0 
0.0 0.0 -6.711111111111e-04 
-7.177695882629e-04 -1.636503915643e-04 0.0 
-1.636503915643e-04 4.444156976963e-03 0.0 
0.0 0.0 -6.580807474504e-04 
-6.451594591778e-04 2.175329864368e-06 0.0 
2.175329864368e-06 4.446899780492e-03 0.0 
0.0 0.0 -6.488888888889e-04 
-6.694083839792e-04 4.177588367935e-05 0.0 
4.177588367935e-05 4.159153595791e-03 0.0 
0.0 0.0 -6.711111111111e-04 
-6.460833817648e-04 2.181336474440e-05 0.0 
2.181336474440e-05 4.138351275158e-03 0.0 
0.0 0.0 -6.711111111111e-04 
-6.513168862437e-04 2.571939183827e-06 0.0 
2.571939183827e-06 4.455509820746e-03 0.0 
0.0 0.0 -6.488888888889e-04 
-6.788111886778e-04 -1.155514465082e-05 0.0 
-1.155514465082e-05 4.136861537379e-03 0.0 
0.0 0.0 -6.711111111111e-04 
-6.469737823218e-04 1.193188668576e-05 0.0 
1.193188668576e-05 4.441081764841e-03 0.0 
0.0 0.0 -6.488888888889e-04 
-6.791365925950e-04 1.914980606248e-05 0.0 
1.914980606248e-05 4.140018751422e-03 0.0 
0.0 0.0 -6.711111111111e-04 
-6.524039014686e-04 9.406282947205e-06 0.0 
9.406282947205e-06 4.453605425654e-03 0.0 
0.0 0.0 -6.488888888889e-04 
-6.708784002972e-04 1.294093541861e-05 0.0 
1.294093541861e-05 4.143170398070e-03 0.0 
0.0 0.0 -6.711111111111e-04 
-6.063230854436e-04 2.307129271736e-05 0.0 
2.307129271736e-05 4.258254267782e-03 0.0 
0.0 0.0 -6.358585252281e-04 
-6.548664831930e-04 3.770000341516e-06 0.0 
3.770000341516e-06 4.457898616998e-03 0.0 
0.0 0.0 -6.488888888889e-04 
-6.704807604954e-04 -3.181200734381e-06 0.0 
-3.181200734381e-06 4.139523021675e-03 0.0 
0.0 0.0 -6.711111111111e-04 
-6.519448377641e-04 9.585102352842e-06 0.0 
9.585102352842e-06 4.446587571773e-03 0.0 
0.0 0.0 -6.488888888889e-04 
-6.643169358871e-04 1.598213094935e-05 0.0 
1.598213094935e-05 4.135669863508e-03 0.0 
0.0 0.0 -6.711111111111e-04 
-6.628560694171e-04 4.220630236656e-05 0.0 
4.220630236656e-05 4.140094777352e-03 0.0 
0.0 0.0 -6.711111111111e-04 
-6.554176284669e-04 2.405280497148e-05 0.0 
2.405280497148e-05 4.445642855833e-03 0.0 
0.0 0.0 -6.488888888889e-04 
-6.690060439774e-04 2.025793204241e-05 0.0 
2.025793204241e-05 4.465053963584e-03 0.0 
0.0 0.0 -6.488888888889e-04 
-6.064361755080e-04 1.982912098417e-05 0.0 
1.982912098417e-05 4.335884925808e-03 0.0 
0.0 0.0 -6.691918585615e-04 
-5.634506181685e-04 -1.856852842986e-05 0.0 
-1.856852842986e-05 4.033404918511e-03 0.0 
0.0 0.0 -6.469696363393e-04 
-7.075315162008e-04 -3.247782179694e-04 0.0 
-3.247782179694e-04 4.305606072287e-03 0.0 
0.0 0.0 -6.600000000000e-04 
-6.398271965705e-04 3.921691488498e-04 0.0 
3.921691488498e-04 4.184231073606e-03 0.0 
0.0 0.0 -6.600000000000e-04 
-7.078150788587e-04 1.813354754407e-05 0.0 
1.813354754407e-05 4.306653958276e-03 0.0 
0.0 0.0 -6.822222222222e-04 
-6.381567957297e-04 6.336547185439e-05 0.0 
6.336547185439e-05 4.195569873202e-03 0.0 
0.0 0.0 -6.377777777778e-04 
-5.885253976532e-04 -3.076841355533e-05 0.0 
-3.076841355533e-05 4.174142785234e-03 0.0 
0.0 0.0 -6.377777777778e-04 

SCALARS element_materi_plasti_kappa_shear float
LOOKUP_TABLE default
1.898088649643e-03
1.711557051641e-03
5.588972410085e-03
5.625547274701e-03
3.501560146999e-03
7.282216725179e-04
3.474037579751e-03
1.788007566792e-03
3.522688057585e-03
5.576154387883e-03
3.814443258077e-03
1.461439354055e-03
5.618312958953e-03
3.751010953381e-03
5.727607835366e-03
5.730745783213e-03
3.485806207147e-03
6.593526459412e-04
1.219931793149e-03
1.129439279568e-03
5.615624188563e-03
1.975862239362e-03
2.216034645177e-03
5.387839390641e-03
4.000079313324e-03
4.090296639934e-03
3.221108468051e-03
5.760173945043e-03
4.029373913921e-03
5.523089313000e-03
9.290964436138e-04
4.104778426902e-04
5.763354464700e-03
4.818108341585e-03
5.606378478043e-03
5.926561905728e-03
5.911514681661e-03
5.601049808397e-03
3.175213616511e-03
3.219440155070e-03
2.522875806809e-03
5.613228156909e-03
1.314389251867e-03
3.093978597461e-03
5.492839635271e-03
1.306192107028e-03
5.547525844144e-04
5.389503964808e-03
2.459813448032e-04
3.614080566478e-03
2.381012112028e-03
1.496795143349e-03
1.233026261794e-03
2.292287135613e-03
5.625167383412e-03
1.964314716114e-03
1.446321564822e-03
4.840724010361e-03
9.102679910466e-04
5.734895616735e-03
3.755633206833e-04
5.378892164199e-03
2.330546822697e-03
1.083603178692e-03
5.615414212048e-03
2.131250052149e-03
1.604920622128e-04
5.736681007187e-03
9.706183660792e-04
5.615641150241e-03
4.241478972054e-03
5.874633494773e-03
5.400876667698e-03
4.558558305771e-04
1.986901141796e-03
5.633818988721e-03
5.766849763577e-03
9.985176399267e-04
7.761145875021e-04
9.970078257235e-04
9.298249562963e-04
3.329770783062e-03
2.084397622031e-03
1.770967893658e-03
3.674764228873e-03
3.652269385491e-03
4.362468712188e-03
4.711312884167e-03
4.861505206044e-03
3.454836133152e-03
2.515307574217e-04
3.378806059228e-03
4.682474906469e-03
4.702091845048e-03
6.023290360785e-03
5.787399672559e-03
3.332335907633e-03
5.769769997493e-03
3.930413862469e-03
2.258576815211e-03
3.348854702644e-03
5.740322727268e-03
4.646182631344e-03
5.409941681963e-03
2.044498184613e-03
6.875243722321e-04
5.293361504948e-03
5.009713215505e-03
4.133118292856e-04
5.636662395566e-03
4.631075715070e-03
3.269354662114e-04
2.695643369684e-03
3.134173944672e-03
2.394513305480e-03
2.006953041182e-03
2.358433690428e-03
5.680496234390e-03
3.862421047183e-03
2.174327584433e-03
9.453599785676e-04
3.463155550842e-03
4.910807945138e-03
2.193161772477e-03
6.864169327037e-04
2.833893873667e-03
2.488998346477e-03
2.624989890950e-03
5.744770783808e-03
8.095945313105e-04
4.016900758618e-03
5.625509815893e-03
2.834287320742e-03
2.685380764041e-03
5.614532063030e-03
5.633315586868e-03
4.360056895282e-03
3.033874980370e-03
5.768691703590e-03
2.715472649556e-03
5.618615457511e-03
5.760030365689e-03
3.718873437018e-03
4.339715431150e-03
2.744759010980e-03
2.474141180373e-03
3.120734003300e-03
2.345781934128e-03
3.431883328348e-03
2.738129196427e-03
2.430742527302e-04
3.688149105754e-03
8.387704164436e-04
2.991941880911e-03
5.628507851818e-03
2.024064835673e-03
4.530584219247e-03
1.460229167458e-03
4.626313542846e-03
3.347690434935e-03
2.537984777281e-03
4.987375735797e-03
8.656817948044e-04
5.285431651825e-03
3.359806122999e-03
5.766679500674e-03
3.342388058739e-03
2.107011085319e-03
2.928826646772e-03
3.947216798782e-03
1.526615979923e-03
2.569483147169e-03
4.520478967461e-03
3.465735922799e-03
2.391304591019e-03
2.779864257648e-03
5.040184275248e-03
2.772760665208e-03
5.618703717082e-03
5.759844672988e-03
1.983421498389e-03
2.659866027685e-03
5.141665672041e-03
2.630630496975e-03
1.717879912429e-03
3.236040194099e-03
2.634227826825e-03
5.637705462983e-03
4.673436176070e-03
5.143211062278e-03
1.164471534235e-03
2.407331954242e-03
4.803098661724e-03
1.296887470609e-04
2.602557350130e-03
4.814963733127e-03
6.908847608838e-04
5.616315559470e-03
4.285635638516e-03
2.554299594861e-03
4.795742518615e-03
3.724002802598e-03
3.932058578281e-03
5.497749636997e-03
1.904823798155e-03
3.244463136207e-03
3.481704692684e-03
4.488443812894e-03
3.550879868320e-03
3.254436741122e-03
4.171787960097e-03
4.925574717127e-03
3.793743182903e-04
1.944678655638e-03
2.211850110251e-03
3.157287865959e-03
4.893684273428e-03
9.647028340037e-04
4.643736636012e-03
3.342449784473e-03
2.377945774863e-03
4.477091166639e-03
4.380675775183e-04
4.584675247436e-03
3.699679224086e-04
5.360497299544e-04
1.154789664667e-03
1.594668909351e-03
4.784983334352e-03
1.546697935713e-03
1.383435816543e-03
1.200027858935e-03
1.005332530085e-03
4.949781021208e-03
3.380950736680e-03
5.631197498489e-03
0.0
1.665063222897e-03
2.673189362063e-03
2.423854183086e-03
4.621677125615e-03
5.764868817004e-03
4.590764537563e-03
1.954446704586e-03
4.960919873089e-03
4.205568891908e-03
3.320344157998e-03
4.410423547979e-03
5.507586445396e-03
2.709349539675e-03
1.580698985764e-03
3.836309747163e-03
6.017571415290e-03
3.278275707600e-03
3.423215564413e-03
3.753460771055e-03
8.863145511104e-04
3.518014179913e-03
1.918797851399e-03
1.292004175147e-03
9.082232253615e-04
4.755046881876e-03
3.676362788182e-03
2.294435875197e-03
4.952708212389e-03
4.718723855838e-03
3.481414558201e-03
5.642033395162e-03
3.523250685796e-03
3.640046674313e-03
2.917421140027e-03
3.717192777981e-03
1.585318004735e-03
3.357027743210e-03
2.838102944494e-03
2.007874057392e-03
4.547203828395e-03
1.589585432752e-04
3.708601455527e-03
2.047895045112e-03
1.700131027140e-03
1.626515464048e-03
3.929577795643e-03
6.380620704985e-04
2.384202047897e-03
3.820927590901e-03
3.640893065081e-03
3.744578397567e-03
8.473399745815e-04
1.972105034185e-03
1.841129336947e-03
2.144602490372e-03
4.453686851147e-03
2.425319558498e-03
2.633326203696e-03
2.506076668662e-03
1.050423010888e-03
3.001112002867e-03
1.139329181863e-03
6.012684016247e-03
6.015982038197e-03
3.371674230462e-03
1.754085065341e-03
1.538449888003e-03
3.733462517399e-03
1.667297713938e-03
1.800453244169e-03
3.281965826456e-03
5.778410886410e-03
2.212308197419e-03
4.148099921920e-03
1.220247403596e-03
6.015650448016e-03
1.627598388192e-03
3.408069598847e-03
1.126335977517e-03
4.035749165321e-03
2.797696233239e-03
1.935926706622e-03
3.513914298156e-03
6.014293587579e-03
2.340466570169e-03
3.854547700326e-03
1.257539573865e-03
4.211250131042e-03
4.445904991403e-03
1.749623395989e-03
4.109773335894e-03
6.017625920184e-03
4.749940685194e-03
6.020004411071e-03
4.066219120171e-03
4.677049970116e-03
1.453454976364e-03
3.226922138058e-03
3.605874528002e-03
3.801247617448e-03
3.116888250637e-03
6.023922603081e-03
3.900035487013e-03
3.427519582657e-03
2.541127325687e-03
1.304161433012e-03
3.097491959287e-03
1.828369059598e-03
3.480341907346e-03
1.973411461228e-03
2.245667589757e-03
4.717451703464e-03
1.865551334307e-03
3.320796694163e-03
3.948013352555e-03
3.499794145216e-03
6.014761074790e-03
2.797145162977e-03
1.840410315570e-03
2.476504328130e-03
1.777663760712e-03
1.715690849975e-03
5.020957594454e-03
3.604591250536e-03
2.461088412607e-03
3.037406839291e-03
6.020345341033e-03
5.688581187916e-03
4.974163615527e-03
4.623253995230e-03
3.403798714710e-03
2.542077870463e-03
1.793786123597e-03
2.084462978973e-03
3.443262116423e-03
3.946499106711e-03
2.984226002412e-03
5.025076478443e-03
1.876215262827e-03
2.954178187483e-03
3.441589599409e-03
2.662722220518e-03
6.012685245852e-03
6.016133295997e-03
5.644449372993e-03
3.701147822208e-03
4.921131353075e-03
1.545366707812e-03
2.377422492958e-03
1.336075859690e-03
2.584345771663e-03
3.338459339121e-03
4.044137853151e-03
5.756411723275e-03
4.924677558882e-03
3.800097117390e-03
3.895652219981e-03
1.419401544672e-03
6.642135258918e-04
2.837095037860e-03
3.243261720868e-03
3.038062407003e-03
6.767206337307e-04
3.595162726105e-03
1.242964933884e-03
1.791112892290e-03
5.886267587663e-03
4.319899469577e-03
3.400768600181e-03
9.348339381144e-04
3.083946857624e-03
2.871885156030e-03
3.962075947404e-03
6.018407561000e-03
3.198386693765e-03
3.766468143187e-03
2.946356736400e-03
4.889394747190e-03
3.802316230935e-03
6.019114699465e-03
5.878766063712e-03
5.874669666802e-03
5.846896484413e-03
4.057636266581e-03
4.920589971590e-03
5.113499940864e-03
2.631031740165e-03
2.507872621076e-03
2.813875816799e-03
5.059815959048e-03
6.015552509770e-03
5.051955043481e-03
4.017840351881e-03
5.084516464713e-03
4.404291654299e-03
3.045170865042e-03
2.550534457101e-03
1.338384591573e-03
5.646979922163e-03
2.469749811605e-03
5.384355873580e-03
2.775047533559e-03
1.799833226776e-03
5.623003894310e-03
1.949666713895e-03
5.877628319843e-03
5.634831675280e-03
3.696725743160e-03
2.315629071755e-04
5.876846230322e-03
5.625196717779e-03
1.763143550620e-03
4.153888461443e-03
6.029088701749e-03
0.0
2.757791127203e-03
3.859953108443e-03
3.533917503000e-03
3.571063382657e-03
1.501745143730e-03
5.871219529997e-03
2.671327868409e-03
8.692276940891e-04
5.775417212412e-03
4.034087724254e-04
2.877183319107e-03
7.845786155791e-04
3.064343649170e-03
6.008207932275e-03
5.886416939797e-03
3.769097730369e-03
5.416058611576e-04
6.663225248163e-04
9.264097944291e-04
5.017458723071e-03
3.488320970718e-03
3.568311924561e-03
5.888518575312e-03
3.493284622980e-03
6.023303222970e-03
4.495210095570e-03
3.909299515792e-03
1.880309591682e-03
4.118987834466e-03
1.217020428601e-03
5.888099209517e-03
5.858622551973e-03
5.871281062106e-03
3.837749785842e-03
2.642161995129e-03
3.082539161524e-03
3.932200029967e-03
5.884737103442e-03
1.826405636236e-03
2.101531865548e-03
2.230991329468e-03
4.079210194315e-03
6.020724823755e-03
6.550876827097e-04
5.870906118256e-03
2.061330388785e-03
5.887134204678e-03
5.158371209842e-03
1.735033884423e-04
2.876871465871e-03
5.119259939334e-03
5.882578435152e-03
4.090807838191e-03
4.627625074894e-03
1.056059908013e-03
5.381604359168e-03
2.190366286690e-03
2.266492401597e-03
4.233392830062e-04
5.876777887152e-03
1.506277909376e-03
4.962026184372e-03
3.779613678589e-03
1.886868617372e-03
2.137991957806e-03
3.928710791902e-03
5.887503593489e-03
2.741417539434e-03
4.307478873942e-03
3.496708023987e-03
3.907072451988e-03
2.300842511533e-03
4.002515627125e-03
3.405034769092e-03
4.439472514518e-03
4.416922306321e-03
3.333573885478e-03
2.813436354788e-03
1.986436464636e-03
2.602497471918e-03
4.536209320527e-03
3.650011259562e-03
6.021028889714e-03
5.248340798342e-03
1.675475904991e-03
5.860952443922e-03
5.749243689854e-03
3.130366137552e-03
2.446157471384e-04
6.015808451350e-03
5.216828897001e-03
1.891089920309e-03
5.872438978963e-03
4.140650168509e-03
2.670441489397e-03
3.672959727573e-03
3.555689535213e-03
3.535938459604e-03
4.076028772190e-03
4.323837798527e-03
2.998150908977e-03
4.588814172264e-03
3.990156233101e-03
2.851900776380e-03
4.246963853771e-03
2.223560657060e-03
3.981478068334e-03
1.793397212350e-04
2.156315504880e-03
2.097111767555e-03
3.079683430517e-03
3.294455684710e-03
4.105285117446e-03
3.968717882503e-03
1.929111457824e-03
5.886335248325e-03
3.894339398565e-03
3.209529361218e-03
3.730809639925e-03
3.117776647955e-03
0.0
3.867784336933e-03
2.563323944442e-03
0.0
3.036200146822e-03
4.407600196631e-03
5.076924335597e-03
3.778145075046e-03
3.865417070565e-03
3.297599931106e-03
3.075297279978e-03
5.632622103086e-03
3.567491943935e-03
1.510039486835e-04
1.062090790195e-03
2.398810579768e-04
1.837694429977e-03
5.063783013299e-03
5.108968424711e-03
4.804181478442e-03
2.074537259418e-03
4.022688107491e-03
5.049168604237e-03
1.160096365863e-03
2.576389109967e-03
2.078055360937e-03
6.021089235366e-03
5.881485963002e-03
2.857156921414e-03
3.246692301346e-03
3.629498285744e-03
5.229137518708e-03
1.125785695799e-03
4.880206649917e-03
6.831862832841e-04
2.949407645451e-03
3.288357648769e-03
2.441249237015e-04
2.697767110358e-03
5.212641935745e-03
1.752329176366e-04
3.063219008196e-03
3.208047659791e-03
4.245083115866e-03
2.103654506232e-03
2.019431576275e-03
1.421520152248e-03
5.225289819944e-03
5.632171442564e-03
4.908962959162e-03
1.901082200918e-03
7.152422822499e-04
3.069002747989e-03
3.072118229683e-03
3.221248037221e-03
0.0
2.370160903131e-04
5.310782124112e-04
1.561897998935e-03
4.249046179325e-04
3.032717901044e-03
0.0
1.864630217503e-03
4.122518464148e-03
3.216172429738e-03
5.209439031162e-03
4.234717777356e-03
3.854408568460e-03
2.248560931312e-03
6.787283102328e-04
5.869561306561e-03
6.023626633703e-03
3.742684779077e-03
3.077333598062e-03
2.287820883481e-03
6.009559958077e-03
1.773006016400e-03
3.202342050267e-03
3.064099742472e-03
2.912794716067e-03
5.888568312805e-03
6.006021539653e-03
4.166942996850e-04
0.0
8.441431879688e-04
3.250853044044e-03
5.464355466467e-03
1.629622625436e-04
4.849407318230e-03
0.0
4.167229288684e-03
1.911385708273e-04
1.855469029487e-04
3.998077199970e-03
5.296543687334e-03
4.237134437895e-03
3.194088539209e-03
2.435063913799e-04
4.153210895561e-03
5.861217735276e-03
6.009791560538e-03
3.214582083037e-03
4.335922088801e-03
5.878708529905e-03
4.662336340161e-03
6.526260522665e-04
4.186243951470e-04
2.626649538589e-04
2.550412609599e-03
6.014031515604e-03
5.628686910939e-03
0.0
3.011280459441e-03
5.891985303537e-03
6.031512279974e-03
6.009444186578e-03
4.549765932770e-03
5.010826545378e-03
5.864343994050e-03
5.879214029285e-03
4.848773824588e-03
1.474383398765e-04
3.191688509645e-03
3.230904037540e-03
0.0
5.898372924748e-03
6.024797090299e-03
5.861254662737e-03
1.875139568358e-04
1.924224746449e-04
5.871534849748e-03
5.866174925494e-03
4.404639489746e-03
3.191281210692e-03
4.696669621923e-03
3.777426634559e-03
3.187300555971e-03
1.702406008908e-04
1.962141474448e-04
1.658004844312e-04
1.808088655353e-04
3.181347729344e-03
2.857668427393e-03
0.0
4.096797302130e-03
0.0
5.867214387610e-03
5.859324762587e-03
5.872796053912e-03
1.028821985916e-03
1.936630062470e-03
5.864275948506e-03
5.016839626708e-03
5.891943567254e-03
5.328174982673e-03
5.640245512770e-03
2.701665040976e-03
6.022983703665e-03
6.017003585591e-03
5.139388847066e-03
5.463393282501e-03
4.411575174768e-03
0.0
2.784277416710e-03
4.061884078683e-04
5.259286228377e-03
2.908833121132e-03
4.850143225763e-03
1.472710261241e-03
5.420604269259e-04
5.189202363176e-03
3.073447472489e-03
2.406449859391e-03
4.889636581614e-03
5.255592395656e-03
2.405392247394e-03
4.614670723085e-03
4.023251322217e-03
4.374804059547e-03
4.518070815714e-03
2.466020010935e-03
2.911636777842e-03
3.205404967252e-03
4.113353234629e-03
5.029297459228e-03
4.665945937406e-03
1.491277829959e-03
5.243929663885e-03
4.941851688277e-03
3.558682000750e-03
4.285917425276e-03
4.244579152953e-03
5.321773155122e-03
5.122199489663e-03
3.931103671375e-03
5.320806263415e-03
4.878121851522e-03
4.664188533065e-03
5.406777608810e-03
5.283094587084e-03
4.496087669439e-03
4.444458481023e-03
1.481875117849e-03
1.376911560334e-03
7.503612397896e-04
4.158489178225e-04
5.132283977735e-03
5.119873486994e-03
4.012352521064e-04
5.178558947058e-03
3.672287986049e-03
4.759407346754e-03
4.816897172186e-03
2.140610803278e-03
4.851861367702e-03
3.563436395175e-03
4.454648778840e-03
5.513811741196e-03
1.417713283077e-03
5.445572691693e-03
4.665806061983e-03
1.612851643597e-03
1.714759419245e-03
3.438255392646e-03
4.137623841864e-03
2.296870595819e-03
4.830815432738e-03
4.338838747336e-03
3.342675223842e-03
4.545437980776e-03
4.722218982109e-03
4.634762812797e-03
1.261713162161e-03
3.173154214210e-03
5.055839016286e-03
4.803789849080e-03
2.857994266569e-03
4.062765352511e-03
5.318088809597e-03
4.463221862301e-03
7.092725784376e-04
7.188837629254e-04
1.457330486298e-03
4.991375457445e-03
4.302592537165e-03
3.790381226361e-03
3.831560113468e-03
5.088582652342e-03
3.475465703060e-03
4.681796565250e-03
1.519021719428e-03
5.403126934034e-03
3.381852318330e-03
1.662591917742e-03
3.207575975263e-03
2.427493216678e-03
1.903845874229e-03
3.731045389275e-03
0.0
0.0
4.284173046855e-03
1.393362755241e-03
4.325320826384e-03
4.194819161297e-03
2.641355429632e-03
1.719362769164e-03
5.077648961166e-03
6.798414436796e-04
2.568347176664e-03
5.235874665598e-03
1.155384575714e-03
4.027503858662e-03
3.708502873320e-03
1.170523382264e-03
5.180869859233e-03
4.605325228012e-03
1.354425768675e-03
5.208339196432e-03
5.174454579939e-03
1.560392004205e-03
2.066462287853e-03
1.601268088310e-03
4.585233918786e-03
3.608599847270e-03
5.182420533551e-03
5.047083544607e-03
4.455861124158e-03
4.416860348409e-03
1.262227011679e-03
4.546872248422e-03
4.575231375888e-03
3.645268122884e-03
4.332465809534e-03
4.772714813264e-03
3.224253829144e-03
4.911353602778e-03
3.039446067918e-03
3.515433690721e-03
2.274449684327e-03
2.423089078890e-03
4.439297428605e-03
3.365892711140e-03
1.732320824868e-03
8.737837506730e-04
4.468449371054e-03
1.692563081125e-03
5.400363428095e-03
4.604462714681e-03
4.720726376404e-03
5.614884535387e-03
2.906736885668e-03
1.519615723243e-03
9.588952552172e-04
4.497763875840e-03
4.168753252709e-03
6.612546370245e-04
2.334923660638e-03
1.349036943465e-03
4.164466221195e-03
2.463752493733e-03
4.155025201166e-03
2.292333716336e-03
4.974481416777e-03
1.996568548932e-03
4.538601579327e-03
1.422865093935e-03
4.366068561899e-03
3.354002373652e-03
4.590163414602e-03
2.268610930300e-03
1.307910686375e-03
3.881907493683e-03
4.205574957263e-03
2.920421497113e-03
4.187784013099e-03
1.586935699350e-03
4.244922793799e-03
1.226338966711e-03
5.150001748039e-03
4.374413810112e-03
4.622543358684e-03
5.394833408084e-03
3.667741289077e-03
1.224125341458e-03
4.102435654437e-03
5.282422523208e-03
2.057763750215e-03
4.628995763582e-03
4.635584555752e-03
1.589158083945e-03
4.234441115403e-03
3.821646127754e-03
1.821001696294e-03
2.204998645608e-03
3.531838972984e-03
4.458682283978e-03
2.705458114869e-03
3.369397376081e-03
4.409627360569e-03
3.999189459908e-03
3.940589006345e-03
3.315097548747e-03
5.049644574621e-03
3.970188919273e-03
3.865457449799e-03
5.335960465199e-03
4.786774600188e-03
4.326858616178e-03
4.742369029763e-03
2.549037087326e-03
2.376936366428e-03
1.302651264701e-03
4.273366818875e-03
2.508792953611e-03
4.299375558000e-03
4.132696996014e-03
3.389416804487e-03
2.034302780513e-03
2.172486861284e-03
2.165955219120e-03
2.337607654919e-03
1.391516248166e-03
4.919034255652e-03
2.855049591196e-03
4.941701353565e-03
3.027877065094e-03
4.063567962409e-03
3.458337729904e-03
3.331673446639e-03
1.430769057123e-03
5.141025598269e-03
5.386317345378e-03
4.241134245443e-03
2.509978051558e-03
3.760813505748e-03
4.270720268813e-03
2.680282115890e-03
2.797254708148e-03
2.037210772217e-03
1.757966815576e-03
2.721514213298e-03
1.824017326780e-03
1.691969220267e-03
3.496848774705e-03
4.195328690588e-03
4.995266969494e-03
2.135838877743e-04
2.937051639141e-03
2.897351463058e-03
2.682523461315e-03
4.103488450026e-03
3.156230924954e-03
2.130711016344e-03
2.894759596741e-03
4.775391991284e-03
2.173955602432e-03
7.788298120351e-04
1.098630592693e-03
1.847249263452e-03
2.207153680070e-03
3.068504768790e-03
3.066805177260e-03
1.285438509384e-03
1.138227833186e-03
3.930039062681e-03
1.865163626252e-03
4.708651258612e-03
4.829683528524e-03
3.996321467093e-03
4.986241804288e-03
5.148048922335e-03
3.260814721479e-03
4.534131096749e-03
1.457572490377e-03
3.023482251318e-03
2.967208668201e-03
1.645155887212e-03
1.166961927378e-03
2.469642956954e-03
2.937206611966e-03
3.106798960592e-03
1.956772177711e-03
3.328078992345e-03
2.976908204584e-03
3.106378807451e-03
2.248119148986e-03
4.413942525391e-03
4.439751776256e-03
2.976392922480e-03
5.010927287276e-03
1.627877766205e-03
5.381669347488e-03
3.196867194148e-03
5.344914307263e-03
4.057033022443e-03
1.547485956853e-03
4.123901821043e-03
5.087178339347e-03
3.367611906554e-03
2.440942977478e-03
4.251329185006e-03
3.207452396219e-03
1.238538391459e-03
5.593643574323e-03
1.085824202323e-03
5.357726211726e-03
5.214885560155e-03
4.544742657186e-03
3.963126868919e-03
4.882709138368e-03
3.144855381723e-03
3.686700440280e-03
5.279854728997e-03
4.499470890681e-03
4.577778607108e-03
4.305077680676e-03
1.417434976899e-03
4.713217591497e-03
5.753142823153e-03
5.329243380658e-03
2.984954618286e-03
3.988249552619e-03
3.801645055376e-03
3.235172335353e-03
4.367027888534e-03
4.537516687745e-03
9.970547420201e-04
1.879690939538e-03
3.146058965649e-03
3.016269873665e-03
3.169182906176e-03
5.469468509572e-03
5.150681403781e-03
5.240179499594e-03
2.868576175316e-03
4.786586511308e-03
4.405806436379e-03
5.327777423767e-03
4.543377517499e-03
3.194953866718e-03
3.016658390278e-03
4.683655011930e-03
5.186209915555e-03
4.713484120124e-03
4.548206090170e-03
4.976866936040e-03
5.217579174467e-03
4.840160058744e-03
3.891876227783e-03
2.750258353967e-03
4.710107048531e-03
4.455858956637e-03
1.652249011372e-03
3.184856128294e-03
3.569010409292e-03
3.985083673359e-03
1.671830613806e-03
3.055529241679e-03
4.284410717115e-03
3.160882025297e-03
3.286974656951e-03
4.234469480443e-03
3.357266040902e-03
5.832224582000e-04
3.799395819488e-03
4.636565872287e-03
5.317751045333e-03
3.481406310990e-03
3.589447844127e-03
4.274698478407e-03
8.890581030904e-04
4.506465777264e-03
3.816858646074e-03
3.354799917759e-03
4.576186082816e-03
1.676633756965e-03
4.747043128416e-03
5.187298868340e-03
4.376407166304e-03
4.744547438801e-03
4.830907234008e-03
5.222428902797e-03
1.201860364893e-03
4.408544086062e-03
5.240903661220e-03
4.852152895878e-03
4.077198400922e-03
3.222276421180e-03
3.512191017662e-03
9.501978410135e-04
5.017421712005e-03
1.785962296740e-03
1.474080171039e-03
4.696567737555e-03
5.360782323002e-03
1.502195583133e-03
3.694570648950e-03
4.514270677664e-03
3.456703744762e-03
1.710610669055e-03
2.238950842234e-03
1.102844825228e-03
1.463725195595e-03
1.298709706981e-03
3.778806340878e-03
6.016319104850e-03
1.770958764898e-03
5.108227611126e-03
2.760707398476e-03
4.377813891094e-03
1.251866579467e-03
5.389992930062e-03
1.329712956055e-03
2.093643212440e-03
4.546924323321e-03
3.272001809033e-03
5.085454575005e-03
2.505652950449e-03
4.652855770583e-03
5.305274251484e-03
4.381154287587e-03
5.353154153797e-03
4.847010383273e-03
4.984300817298e-03
1.461091507052e-03
4.931565832531e-03
4.651005362573e-03
3.390008201393e-03
2.079335679828e-03
5.500831082514e-03
1.712811546916e-03
1.993152190864e-03
4.885708378640e-03
1.216541976104e-03
3.495171392387e-03
4.675591106622e-03
5.272532937545e-03
5.420840566733e-03
4.583883740699e-03
5.018032232522e-03
2.928193951873e-03
4.734205484298e-03
2.384407325898e-03
5.226115629599e-03
2.691920380854e-03
2.821439891355e-03
3.352681362175e-03
3.005156168196e-03
3.913667205993e-03
3.168162756046e-03
3.350908701417e-03
1.499540076307e-03
3.184302201097e-03
5.155825657334e-03
5.317650690563e-03
4.630365567379e-03
5.181610671434e-03
3.234889799458e-03
4.952004252636e-03
3.313357221721e-03
5.062045811440e-03
4.816274352400e-03
4.818099421099e-03
4.206405183177e-03
3.056304276052e-03
5.021296019776e-03
4.023314824600e-03
1.538746154334e-03
1.749640413363e-03
2.581840747201e-03
3.659895849796e-03
5.198547264466e-03
4.682421595145e-03
3.094059173860e-03
4.145541869622e-03
4.812672239436e-03
5.049278077315e-03
5.190177469339e-03
4.186777916003e-03
4.922584909275e-03
3.519092201106e-03
4.841945469779e-03
3.459285380478e-03
5.318103245047e-03
5.375730321285e-03
3.907284938938e-03
1.543762532817e-03
4.924088818986e-03
3.784631978290e-03
2.966232018542e-03
4.115084444643e-03
4.786551662215e-03
1.580177343230e-03
3.609609721518e-03
4.218839080460e-03
5.235324707913e-03
4.343885302361e-03
4.794481932196e-03
4.091858975395e-03
3.838629298260e-03
4.150165290363e-03
5.016907512540e-03
4.843633938430e-03
4.487236376390e-03
5.391551705940e-03
3.964776956212e-03
2.504722224904e-03
5.126866157334e-03
5.351865102208e-03
3.421523486689e-03
3.585506366848e-03
2.798993443276e-03
4.621665338398e-03
2.797993190934e-03
4.008922037687e-03
2.829376981743e-03
4.717608549950e-03
5.388550033297e-03
2.927070685157e-03
9.888206599125e-04
5.353078015974e-03
2.956776001860e-03
3.401650254318e-03
5.219422455657e-03
4.518245132016e-03
4.710258760873e-03
3.004500417496e-03
7.783076031666e-04
5.413634110948e-03
3.785549847173e-03
4.475770357229e-03
5.138569278830e-03
4.994909691429e-04
4.670933741567e-03
2.116054709690e-03
4.214096454066e-03
3.759983120660e-03
2.888083435173e-03
5.100516085727e-03
3.877479781614e-03
2.594149316670e-03
3.983879265493e-03
8.165376085930e-04
4.568690469439e-03
4.756083401336e-03
5.452995028680e-03
4.864947734128e-03
2.043386112127e-03
4.669335817464e-03
5.443502610785e-03
5.653283028556e-03
4.924221690428e-03
3.131071400812e-03
4.275149951314e-03
5.153531541623e-03
3.483038301481e-03
4.661124208018e-03
4.348587759454e-03
4.969873350217e-03
4.879399467596e-03
3.061812406022e-03
3.059832632554e-03
4.421565437881e-03
4.367095910945e-03
3.892926071110e-03
4.346817112173e-03
3.712232804534e-03
5.218395199065e-03
3.094455246611e-03
6.015990180958e-03
3.548926640244e-03
3.622651461457e-03
3.720989189851e-03
1.917689178557e-03
3.325283759535e-03
4.075520205487e-03
3.823291195348e-03
4.324099751295e-03
4.442674123027e-03
4.635684442584e-03
9.413748427402e-04
3.116803001466e-03
2.990095831993e-03
4.183071766205e-03
4.385629020003e-03
5.129593891229e-03
1.345885066556e-03
1.412365657132e-03
3.622797484364e-03
3.154436867303e-03
2.871305297426e-03
3.029007655749e-03
4.352626062824e-03
1.378394098464e-03
3.551958554456e-03
4.673475020981e-03
1.371021261255e-03
5.626560674904e-03
5.140839489265e-03
3.418542020247e-03
4.761469995819e-03
5.340586268803e-04
4.506684223349e-03
3.820960628806e-03
5.232531716935e-04
5.112554520633e-03
1.291496177795e-03
4.218615333140e-03
3.856857888662e-03
3.312116629244e-03
3.970751915482e-03
5.253907736522e-03
4.273307236225e-03
3.748874096129e-03
3.658427402968e-03
4.072848571604e-04
1.086582957134e-03
4.988340503471e-03
4.027251590836e-03
5.093944963423e-03
2.082136659873e-03
4.849015704641e-03
5.165290452317e-03
3.099958031898e-03
4.951145023831e-03
4.800202598035e-03
4.202189340322e-03
3.419837614494e-03
3.627723820665e-03
5.408792691943e-03
3.669252203194e-03
3.949521165470e-03
3.687500356751e-03
4.577290825851e-03
3.457616430748e-03
2.136542330794e-03
3.737765005846e-03
2.300519927022e-03
4.313534934977e-03
2.336835197399e-03
4.185013498204e-03
5.058632123647e-03
4.845402042790e-03
3.258903797757e-03
4.157867652743e-03
4.893039108893e-03
4.931637404463e-03
1.098595117713e-03
4.276866742040e-03
5.348494697504e-03
2.274754905370e-03
3.720777205155e-03
5.805350037142e-04
5.023459904507e-03
2.007146323956e-03
3.516536072154e-03
4.448684330717e-03
4.188265097600e-03
3.987994876210e-03
3.912543751932e-03
2.560060998670e-03
2.716022476841e-03
5.063727723484e-03
4.170414237267e-03
3.608810319198e-03
4.473149988466e-03
3.442042596625e-03
2.210516303654e-03
2.509306508328e-03
3.743956289805e-03
3.211982025181e-03
4.884087041847e-03
3.294332851053e-03
5.470028085312e-03
4.968312631613e-03
3.648648400585e-03
5.541933827682e-03
2.466546029825e-03
5.345527466215e-03
3.948482313971e-03
4.328605554235e-03
5.112321421619e-03
2.597683647667e-03
4.115029269880e-03
3.480150837066e-03
4.019186076767e-03
2.272393606486e-03
4.466658165346e-03
3.272828574776e-03
3.852140252587e-03
3.985530946530e-03
5.486019707335e-04
3.987424940170e-03
8.554820142324e-04
9.504026979452e-04
3.679756779392e-03
4.895621551102e-03
4.114719913355e-03
2.260582699587e-03
5.890341927598e-03
2.361196323927e-04
2.408933314321e-03
3.696570178526e-03
3.550836608979e-03
2.949897068498e-03
2.521788525811e-03
3.865826064652e-03
4.111851899735e-03
4.291338337804e-03
5.060421643315e-03
1.172731196860e-03
3.380194152908e-03
3.645284340248e-03
1.945070109137e-03
3.263324571413e-03
4.151874911649e-03
4.514501832048e-03
6.678202814272e-04
4.351335771455e-04
1.356777941614e-03
3.683303970356e-03
2.761138937455e-03
2.431180347952e-03
2.170243072617e-03
3.811952085602e-03
4.376533666742e-03
3.777763179950e-03
2.723670872440e-03
4.310662224790e-03
3.611591761329e-03
4.750283438547e-03
3.815774579287e-03
3.851468414051e-03
1.944050795949e-03
2.890987107893e-03
3.905608017060e-03
4.252910968047e-03
3.994175970999e-03
2.110867462038e-03
3.944631663858e-03
2.390664015242e-03
1.124080825948e-03
5.376953591042e-03
1.187499430943e-03
2.482769913719e-03
3.879865431681e-03
2.200126612380e-03
3.952345974418e-03
1.811928905985e-03
3.356343314340e-03
3.983365723056e-03
3.440832380153e-03
3.590886272854e-03
5.778240294564e-04
5.177570466669e-03
2.852018100216e-03
5.139923105349e-03
4.369987342579e-03
4.075819768185e-03
4.112944593259e-03
2.558534294897e-03
8.044732495801e-04
4.846447285547e-04
4.204879470093e-03
5.110788681143e-03
2.351481271792e-03
4.405521083047e-03
2.090274329685e-03
4.476809174747e-03
5.754213561495e-03
1.628784469014e-04
5.886643384746e-03
5.901414175979e-03
3.458575707159e-03
2.812867409509e-03
4.241011420016e-03
2.631198119222e-03
8.395301720450e-04
4.442063176975e-04
5.416028733597e-03
4.290643224770e-03
3.238039868260e-03
6.016407931761e-03
1.526058316679e-03
6.021404174662e-03
4.252293004766e-03
2.770700704573e-03
4.037975120995e-03
2.603169544957e-03
1.275543801189e-03
2.434051418874e-03
4.504021302162e-03
5.149429450184e-03
2.644039120232e-03
4.570681309337e-03
0.0
2.683791218028e-03
4.759413754436e-03
2.380487600569e-03
2.182231533104e-03
4.074582213105e-03
1.142827734401e-03
1.613360141681e-03
1.808060117334e-03
2.084692713343e-03
3.738888209100e-03
3.552566181395e-03
4.601487464017e-03
5.387303345294e-03
1.895037985309e-03
4.547788030597e-03
5.406404464741e-03
2.430574595185e-03
8.388200309560e-04
2.308570276636e-03
3.567446514914e-03
4.605708546548e-03
3.532472732913e-03
9.838862332244e-04
4.035330324992e-03
1.450893591273e-03
3.586284318698e-03
3.831672797715e-03
4.170149154859e-03
4.132286282917e-03
2.127223100425e-03
9.534914560384e-04
4.136513997941e-03
1.590009906794e-03
3.818359164413e-04
5.392622240487e-03
5.134895118372e-03
2.358553379798e-04
4.335577273877e-03
1.652975194542e-03
1.733439247887e-03
4.869520458032e-03
4.202282593856e-03
4.701518647351e-03
2.723483443401e-03
3.214868672807e-03
5.618894135867e-03
1.429456025818e-03
4.994104156300e-03
3.749384831161e-03
1.080098481844e-03
4.468944246879e-03
2.850501028317e-03
5.229780796343e-04
2.395768144624e-03
4.403868178899e-03
4.552935884602e-03
1.122570998337e-03
3.592706244326e-03
4.742720139637e-03
4.941703297220e-03
2.257577943858e-03
1.773224354185e-03
3.849204691396e-03
4.071024716265e-03
5.196053913262e-04
5.764981452673e-03
5.619546678147e-03
3.612944456398e-03
5.643094491975e-03
5.633179208426e-03
2.812315344072e-03
2.684208433063e-03
5.774953852408e-03
0.0
1.642459376677e-03
3.615456688328e-03
2.303853360214e-03
2.356132906425e-03
1.288375400597e-03
1.523495052580e-03
3.689273836909e-03
2.596505031526e-03
1.903570888892e-03
4.768488117706e-03
6.016953446853e-03
6.019036760985e-03
2.772486331110e-03
3.327990862488e-03
3.338379874678e-04
1.033148740315e-03
1.155791037094e-03
1.182207438934e-03
4.038315348238e-03
2.314844929729e-03
2.560267431529e-03
6.984958962330e-04
5.129856721972e-03
2.519676737210e-03
5.369560606069e-03
4.921920194395e-03
6.028148600870e-03
6.024927523322e-03
3.694826416134e-03
2.643467046654e-03
1.596779775992e-03
2.730315514544e-03
5.897744789275e-03
7.273837460651e-04
8.727452914998e-04
5.171338012505e-03
3.477662201300e-03
5.409990092851e-03
4.766370635139e-03
5.205506796535e-03
4.984047288898e-03
3.660646591583e-03
2.009740382611e-03
1.966632147612e-03
4.354966851432e-03
5.090565716970e-03
3.059094088471e-03
3.470038770667e-03
3.693952598066e-03
3.772778857696e-03
9.470076460962e-04
1.787152598033e-03
5.767752696873e-03
4.034960654971e-03
5.756079931259e-03
5.497145112359e-03
4.509775173530e-03
5.432774287522e-03
2.645253503307e-03
2.511337306943e-03
5.406759837386e-03
2.304638287390e-04
1.771966949554e-03
5.883028560639e-03
8.247074295860e-04
3.324809475671e-03
5.529445601793e-03
5.796810560745e-04
3.735041338850e-04
6.010222977965e-03
3.068950323843e-03
5.659948107382e-03
5.391425944959e-03
3.060672020253e-03
3.701494320501e-04
5.629476601577e-03
9.427571928057e-04
5.445974576444e-03
5.891393706380e-03
5.428284510192e-03
1.205305933195e-03
3.730388698424e-03
2.799861645862e-03
4.776394335280e-03
6.019211625132e-03
4.734875419906e-03
6.017874104347e-03
5.525430350757e-04
5.764155817737e-03
1.379826528368e-03
7.818426790371e-04
5.771398210854e-03
5.772672408195e-03
5.750122728571e-03
3.364853212441e-03
3.669284283972e-03
1.289535518306e-03
5.767367083341e-03
2.258902969131e-03
7.533765705703e-04
4.926344783199e-03
3.188420317882e-03
5.482259513434e-03
5.953772275136e-03
5.893932355244e-03
1.556562156404e-04
7.519299109284e-05
3.129847729158e-03
3.204854259840e-03
5.889443725006e-03
5.949944079456e-03
3.717729449495e-04
0.0
5.412787547919e-03
5.428215329942e-03
1.134510679474e-03
5.501228040530e-03
3.826590884489e-03
3.385765392231e-03
4.259215926484e-03
1.033495775153e-03
4.492845514927e-03
9.286955643621e-04
3.016528213224e-03
5.456768976603e-03
5.324962882905e-03
3.256994374191e-03
3.913984556786e-03
5.533514411026e-03
5.100824001865e-03
4.804745634301e-03
3.058531543379e-03
4.339009031687e-03
5.424931143324e-03
1.698845153725e-03
4.086781350245e-04
5.273729960381e-03
4.969714239598e-03
7.789488230218e-04
4.461302677928e-03
5.625097067298e-03
5.215165969830e-03
5.527785936845e-03
4.184635835076e-03
2.450732908034e-04
1.273338932172e-03
1.607268086116e-03
3.578185125380e-03
4.310413086534e-03
5.506795170732e-03
5.617673364480e-03
6.645911850499e-04
6.388748237895e-04
1.019502716968e-03
4.467708076661e-03
2.159520161712e-03
5.529519713859e-03
1.082739524012e-03
5.378468444182e-03
3.624426704377e-03
5.642484205688e-03
4.966747949266e-03
3.587861483021e-03
5.771512121934e-03
5.779451194585e-03
5.760792399076e-03
7.089390944599e-04
5.397932790268e-03
5.622343722044e-03
5.472950722519e-03
5.052268972403e-03
5.880549672383e-03
4.768122438881e-03
0.0
9.845756963830e-04
5.283361989644e-03
3.879740068610e-03
5.433335536349e-03
5.248543119057e-03
5.652713428879e-03
4.807093912347e-03
5.652238210163e-03
5.501769948461e-03
5.478616351915e-03
2.254971077609e-03
6.018212737185e-03
3.451522871175e-03
5.433186761320e-03
5.068656971481e-04
5.235659828438e-03
4.498616084438e-03
6.477069853908e-04
1.135724772343e-03
4.905082491478e-03
5.637492893173e-03
5.504426529729e-03
5.673913725339e-03
3.852881204388e-03
3.799041860717e-04
5.935897059171e-04
4.188938165996e-04
8.250409444333e-04
1.478748655910e-04
2.994768496768e-03
5.427348189453e-03
5.458882754827e-03
3.883455718842e-03
2.608660953034e-03
5.476751558409e-03
5.429576111220e-03
5.784117117048e-03
5.420830804507e-03
5.193598780718e-03
5.135394386583e-04
5.681154926280e-04
5.488737210922e-03
5.166391021770e-04
7.619709822299e-04
4.832364846616e-04
5.799786674798e-04
5.645675802182e-03
5.655037542831e-03
5.514781828190e-03
5.671443408193e-03
5.255264111174e-03
4.033418773149e-03
5.899144122698e-03
1.388436502105e-03
3.180255969687e-03
8.723897877040e-04
2.133422569490e-04
6.015531814482e-03
3.502525969212e-03
8.808568387309e-04
2.855369314806e-03
5.783822611068e-03
5.499347830224e-03
5.655534667043e-03
2.044016280955e-03
5.432286145459e-04
5.780287558168e-03
6.015607847563e-03
6.035949087319e-03
3.352497016114e-03
5.397561630392e-03
7.778562056283e-04
5.539597143374e-03
2.048357633213e-04
5.660676748681e-03
5.761438663708e-03
2.169999861615e-04
5.276842850465e-03
4.633513032721e-03
5.657467102238e-03
5.913925366103e-03
4.247858577438e-03
5.671720231098e-03
5.525428271373e-03
4.362177274661e-03
5.479739394228e-03
2.387201356291e-03
3.053723610195e-03
5.526446984933e-03
5.736294853841e-03
0.0
3.063983621229e-03
5.747940021174e-03
1.061697143843e-03
5.531390322422e-03
5.495470709881e-03
5.762937850711e-03
1.031440225739e-03
8.053626735849e-04
3.509970528096e-03
5.010988788466e-03
1.260771232346e-04
5.677193264911e-03
4.090526400836e-03
1.039673297651e-03
3.888574816327e-03
5.772338171833e-03
3.681185629207e-03
3.038880930972e-04
2.159618659612e-03
3.184608949978e-03
3.800834338169e-03
5.524986598456e-03
3.091083311451e-03
3.266927546244e-03
5.190819916672e-04
5.520367014093e-03
5.284258696945e-03
8.877738012256e-04
5.674860832192e-03
5.710960226183e-03
3.423111596940e-03
4.198163726001e-03
3.122389092001e-03
3.191264477013e-03
3.380114392671e-03
5.252725700940e-03
7.633269386085e-04
5.525012493520e-03
3.559702453178e-03
5.772557366742e-03
5.241338347213e-03
3.993508198578e-03
5.321259532480e-03
5.468684898978e-03
5.796731642521e-03
2.386710946756e-04
5.348756869277e-03
5.540450075665e-03
5.978130445139e-04
2.916813067191e-03
3.606876982128e-04
5.579480516134e-03
4.203610167562e-04
2.953514174996e-04
4.826549320888e-04
3.016051183327e-04
4.888139157643e-04
3.034725830538e-04
4.902108241195e-04
3.041244099264e-04
4.906961019575e-04
3.044353788759e-04
4.908204287169e-04
3.045894756417e-04
4.907692751073e-04
3.046589286818e-04
4.906276979696e-04
3.046789322111e-04
4.904405776792e-04
3.046700849158e-04
4.902385274316e-04
3.046486418285e-04
4.900516184342e-04
3.046327325226e-04
5.242848370484e-04
4.899190690885e-04
3.046334283079e-04
4.898782815419e-04
3.179874320319e-04
3.046579698897e-04
4.899484300255e-04
3.046944221675e-04
4.901229707787e-04
3.047670239757e-04
3.781749370587e-04
4.904061378559e-04
3.048139778154e-04
4.907401935828e-04
3.049505571778e-04
4.911751859941e-04
3.049001739043e-04
4.914468548867e-04
3.052575087441e-04
4.921371600382e-04
3.046831523221e-04
4.916875076712e-04
3.056298073797e-04
4.086551355002e-04
3.029861267731e-04
4.929887518901e-04
3.070561713850e-04
4.887263972263e-04
2.991538554570e-04
4.950413620353e-04
3.106572465468e-04
4.809972224893e-04
5.043649847567e-04
2.124377591722e-04
5.807884391466e-04
4.761407166554e-04
4.339252431865e-04
3.422813632071e-04
3.029674481017e-04
7.070867900915e-04
7.959193303710e-04
6.253017969558e-04
7.890004012234e-04
6.221363949339e-04
7.902119992200e-04
6.232743378459e-04
7.912403387225e-04
6.242768910902e-04
7.918679183924e-04
6.249264044027e-04
7.921872251415e-04
6.252827381142e-04
7.922910956479e-04
6.254265982603e-04
7.922495576071e-04
6.254272811085e-04
7.921122860893e-04
6.253347160669e-04
7.919206435063e-04
8.190320528747e-04
6.251914668857e-04
7.917245357460e-04
6.250494796087e-04
6.601122070564e-04
7.916106186425e-04
6.249907023649e-04
6.151587336455e-04
7.916064560976e-04
6.250487707079e-04
7.917731340070e-04
6.252393626774e-04
7.919589849500e-04
6.254696238108e-04
7.924602386790e-04
6.258520532773e-04
7.925800824591e-04
7.166216251072e-04
6.260651802570e-04
7.936356142050e-04
6.266718473028e-04
7.927647651834e-04
7.961407180996e-04
6.265012585514e-04
7.909494704049e-04
6.284215167125e-04
8.008724680462e-04
6.258022401422e-04
7.774314409330e-04
8.088075602537e-04
6.308005741966e-04
6.105716282763e-04
5.292464875779e-04
7.647955740985e-04
8.863158103774e-04
6.977730176136e-04
7.804843509002e-04
6.066756825686e-04
1.032528680127e-03
9.323887220942e-04
1.097981050082e-03
9.344020797173e-04
1.101264593357e-03
9.348954780416e-04
1.102037623267e-03
9.355764002203e-04
1.102802067415e-03
9.362623126358e-04
1.103430556904e-03
9.367867162142e-04
1.103836800920e-03
9.370954764910e-04
1.104022627597e-03
9.372218071483e-04
1.104036697632e-03
9.372068093879e-04
1.103920508877e-03
1.117619374062e-03
9.370957662869e-04
1.103719047252e-03
9.369196274770e-04
9.261513620317e-04
1.103480682968e-03
9.367420727141e-04
1.103347186011e-03
9.367450145225e-04
1.103392079913e-03
9.622131899568e-04
9.368969922443e-04
1.103694692331e-03
9.373141550632e-04
1.103951497419e-03
9.375030009138e-04
1.104687114539e-03
9.382209398496e-04
1.104539841040e-03
9.378447695807e-04
1.106370907704e-03
9.392366398973e-04
1.021141825227e-03
9.372679358670e-04
1.103342739752e-03
9.422935496188e-04
1.111907271972e-03
9.260461471264e-04
1.095394210812e-03
1.123312727808e-03
8.323479749310e-04
1.128566703084e-03
9.953026640652e-04
1.042237675871e-03
9.591676168155e-04
9.134543494838e-04
1.317555908262e-03
1.411154381567e-03
1.241457495901e-03
1.403423847767e-03
1.236480862040e-03
1.403051953662e-03
1.236284882551e-03
1.403547908576e-03
1.236815340164e-03
1.404204483020e-03
1.237470339378e-03
1.404743475764e-03
1.237987658795e-03
1.405026198117e-03
1.238234757460e-03
1.405120931524e-03
1.238319585092e-03
1.405059704162e-03
1.421124237200e-03
1.238289863139e-03
1.404896347905e-03
1.238178938020e-03
1.272248389347e-03
1.404621066361e-03
1.230468354784e-03
1.237927192509e-03
1.404201724790e-03
1.237585739367e-03
1.404253981136e-03
1.237710869377e-03
1.404287754182e-03
1.238054426352e-03
1.405452877794e-03
1.320006507428e-03
1.238915382257e-03
1.404614785989e-03
1.238649182603e-03
1.407749646635e-03
1.402917868988e-03
1.240144152721e-03
1.412832891455e-03
1.237451068507e-03
1.392398719858e-03
1.427258914911e-03
1.242071057120e-03
1.224550736858e-03
1.135722002447e-03
1.334507275476e-03
1.464477983734e-03
1.308290235552e-03
1.389742403768e-03
1.221865126859e-03
1.644828616560e-03
1.545981159414e-03
1.713069814165e-03
1.549054825424e-03
1.715773419310e-03
1.548987889924e-03
1.715851555195e-03
1.549284187277e-03
1.716336015095e-03
1.549831225943e-03
1.716979131492e-03
1.550462280830e-03
1.717548348098e-03
1.550748049988e-03
1.717702537870e-03
1.550767686370e-03
1.717681668252e-03
1.725803895536e-03
1.550761344641e-03
1.717583419006e-03
1.537714373053e-03
1.550852574204e-03
1.717508033845e-03
1.550787156715e-03
1.717211703352e-03
1.550270291517e-03
1.580962922022e-03
1.716371127971e-03
1.549692184463e-03
1.716550609062e-03
1.550574202923e-03
1.716818436997e-03
1.551114104077e-03
1.719308097921e-03
1.553274409557e-03
1.716626027886e-03
1.550768170919e-03
1.626829546040e-03
1.554713128758e-03
1.723777182374e-03
1.538464917325e-03
1.708370553989e-03
1.734059786548e-03
1.441855297972e-03
1.718205167646e-03
1.580532811126e-03
1.653228733294e-03
1.570518538296e-03
1.533736984822e-03
1.929041500633e-03
2.023740013829e-03
1.854265828309e-03
2.016530832047e-03
1.849333680069e-03
2.016057688508e-03
1.849195180988e-03
2.016381773036e-03
1.849523099890e-03
2.016986771475e-03
1.850201123651e-03
2.017903593159e-03
1.851073613590e-03
2.018100274694e-03
1.851198313231e-03
2.017765292166e-03
2.038346331878e-03
1.850748802689e-03
2.017763268230e-03
1.885943985980e-03
1.851152239863e-03
2.018100772715e-03
1.841102677324e-03
1.851647953070e-03
2.018159675524e-03
1.851486642937e-03
2.017416700478e-03
1.850595558474e-03
2.014905500803e-03
1.941018760619e-03
1.849191983526e-03
2.018440167145e-03
1.852222603884e-03
2.015647441730e-03
2.027681622993e-03
1.852157743951e-03
2.006230484387e-03
1.857841458147e-03
2.036787414556e-03
1.836927752623e-03
1.752304649195e-03
1.929925313480e-03
2.063297522828e-03
1.919603130811e-03
2.001189499676e-03
1.831777990773e-03
2.258393672976e-03
2.159705713490e-03
2.327059706199e-03
2.161659692035e-03
2.328518888195e-03
2.162672994817e-03
2.329425293706e-03
2.162300175437e-03
2.329523762820e-03
2.162994370433e-03
2.330352635693e-03
2.163819996874e-03
2.331651210941e-03
2.165193397044e-03
2.332104205239e-03
2.349563023748e-03
2.163170879264e-03
2.156618435812e-03
2.330120032603e-03
2.163760401776e-03
2.331149868869e-03
2.165613130817e-03
2.332544467419e-03
2.165577836067e-03
2.195603305539e-03
2.332198422978e-03
2.165170022173e-03
2.331421633703e-03
2.163880370449e-03
2.325581563359e-03
2.161800956061e-03
2.335429634205e-03
2.170950976162e-03
2.156347734429e-03
2.326285427350e-03
2.254719671384e-03
2.352490791724e-03
2.061139530170e-03
2.319973192991e-03
2.181921643346e-03
2.266267734125e-03
2.183268200846e-03
2.140663700466e-03
2.549158764665e-03
2.636150175904e-03
2.465044416633e-03
2.626215054828e-03
2.459129987657e-03
2.629398577210e-03
2.462515755855e-03
2.626876011636e-03
2.459194547671e-03
2.628998715299e-03
2.462069348223e-03
2.628826924734e-03
2.461615336322e-03
2.655480925391e-03
2.633841262142e-03
2.465021985990e-03
2.504855940460e-03
2.626954113001e-03
2.460627946581e-03
2.459281500191e-03
2.628877804265e-03
2.463978196257e-03
2.633359730070e-03
2.466114496976e-03
2.631825731881e-03
2.557842814581e-03
2.464193016864e-03
2.631244525693e-03
2.634203394462e-03
2.465367309286e-03
2.611601312478e-03
2.466838180282e-03
2.656093472301e-03
2.452256167998e-03
2.368738549867e-03
2.524902431015e-03
2.677255740190e-03
2.532401558562e-03
2.611856570448e-03
2.448380073333e-03
2.895347462543e-03
2.762954093961e-03
2.933492103758e-03
2.773940618942e-03
2.938129622360e-03
2.779861874844e-03
2.947517109028e-03
2.770436758339e-03
2.936171750745e-03
2.775705167697e-03
2.944993665868e-03
2.776162261490e-03
2.967674935110e-03
2.940979762038e-03
2.788576165275e-03
2.769633692862e-03
2.947728243539e-03
2.778133822446e-03
2.938167467260e-03
2.780092728751e-03
2.946956698666e-03
2.779489675693e-03
2.817224370005e-03
2.950134646900e-03
2.777240784832e-03
2.942772889533e-03
2.773283112852e-03
2.775691965232e-03
2.943314050847e-03
2.958430064026e-03
2.871806310958e-03
2.678495565508e-03
2.898963514100e-03
2.818430404747e-03
2.887802313650e-03
2.791363294968e-03
2.764226645725e-03

SCALARS element_materi_plasti_phimob float
LOOKUP_TABLE default
1.124992835355e+01
1.075776015425e+01
2.014363772140e+01
2.010630741416e+01
1.768276884821e+01
-2.013700485700e+00
1.768901698807e+01
1.056484053249e+01
1.770820730027e+01
2.008408797514e+01
1.945110311125e+01
8.229945181554e+00
2.045371561800e+01
1.810192207234e+01
2.047006651596e+01
2.019992182335e+01
1.754885829222e+01
-2.705995254725e+00
8.584884669047e+00
9.099842267290e+00
2.008156325028e+01
1.256723920972e+01
1.357960213470e+01
2.031535187393e+01
1.848969264139e+01
1.966830905874e+01
1.693687323062e+01
2.022578578384e+01
1.849067590487e+01
2.041735407940e+01
3.596997959267e+00
-2.074092602324e+01
2.016039561278e+01
2.015648621456e+01
2.041110869540e+01
2.057665857948e+01
2.053233496207e+01
2.030237384827e+01
1.708933989332e+01
1.712554843183e+01
1.496150459633e+01
2.039846367517e+01
5.430878804619e+00
1.694428829042e+01
1.998432856106e+01
5.415909310649e+00
-3.393684537770e+00
1.999680818639e+01
-2.104594891764e+01
1.785800886041e+01
1.434156734656e+01
1.168203107044e+01
1.007321818027e+01
1.422937326257e+01
2.015394793600e+01
1.496509140152e+01
1.221604829874e+01
2.017757683522e+01
3.386582284954e+00
2.019421639431e+01
-2.600428988524e+01
2.005767745206e+01
1.448816949332e+01
8.415378368182e+00
2.045331007304e+01
1.344049272257e+01
-2.846494597445e+01
2.014186434326e+01
5.068933012177e+00
2.018650672764e+01
1.978786011605e+01
2.033398614838e+01
2.006899478829e+01
-1.544397660985e+01
1.541686008359e+01
2.011071615278e+01
2.015620203643e+01
-1.072107894059e+00
3.458478269931e+00
-1.461404362551e+00
5.223053012806e+00
1.751821574199e+01
1.277715465849e+01
1.130086973372e+01
1.799484165191e+01
1.799347661418e+01
1.989912047073e+01
2.010118380966e+01
1.944590084058e+01
1.764634942718e+01
-2.113587056602e+01
1.753017820924e+01
1.937554588237e+01
1.930660003901e+01
2.032305855794e+01
2.036236326556e+01
1.749164970361e+01
2.054670246912e+01
1.846679544325e+01
1.390831946223e+01
1.738373423749e+01
2.050450892489e+01
1.947146134302e+01
2.006226936602e+01
1.308392982836e+01
-4.767877983029e+00
2.035281073116e+01
1.959271140041e+01
-2.139201908296e+01
2.039255611023e+01
1.927595787205e+01
-2.635161560725e+01
1.615489983620e+01
1.683637025925e+01
1.703994924121e+01
1.287781298782e+01
1.452130543643e+01
2.049206804310e+01
1.830750086388e+01
1.376954658332e+01
4.088864831381e+00
1.748663129948e+01
1.959986536488e+01
1.382147149851e+01
-1.020210482409e+01
1.601329392553e+01
1.698070048471e+01
1.548955614234e+01
2.020483245922e+01
-1.988188537386e+00
1.963775360854e+01
2.011390795057e+01
1.617712194670e+01
1.553640544742e+01
2.045599906722e+01
2.045646462645e+01
1.990881037425e+01
1.661591068113e+01
2.049174791461e+01
1.578620440684e+01
2.014729807502e+01
2.018596699513e+01
1.808134736736e+01
1.894846632180e+01
1.578275658305e+01
1.493700667807e+01
1.693675536273e+01
1.462215074139e+01
1.749103727879e+01
1.621790328096e+01
-2.201618849199e+01
1.794333577988e+01
4.298245263198e+00
1.645668498474e+01
2.039052072653e+01
1.300912109309e+01
2.000605856512e+01
7.613287262419e+00
1.946224550379e+01
1.756821316204e+01
1.573518161328e+01
2.024163358648e+01
3.937884423302e+00
2.034511413846e+01
1.739451785939e+01
2.054067665697e+01
1.753251346855e+01
1.381418440474e+01
1.641643983949e+01
1.957039092369e+01
7.849433195862e+00
1.581167409617e+01
1.914407963835e+01
1.753063913238e+01
1.511881253520e+01
1.598673826369e+01
1.968157759886e+01
1.768275450453e+01
2.023100068291e+01
2.018541052043e+01
1.229857622227e+01
1.767639912511e+01
2.016561131387e+01
1.537494001025e+01
1.080521048045e+01
1.713190901144e+01
1.574135029662e+01
2.016247590572e+01
1.930937337375e+01
2.030214027215e+01
2.652393080634e+00
1.550686385424e+01
1.944403929870e+01
-6.433582777192e+01
1.538963221745e+01
2.005442056954e+01
-4.383251595817e+00
2.009391742667e+01
1.886364768103e+01
1.755691303210e+01
2.006891737043e+01
1.793875911666e+01
1.831871792003e+01
2.036043067187e+01
1.517109895991e+01
1.724833544968e+01
1.764336482342e+01
1.905793177175e+01
1.770082816731e+01
1.711268809478e+01
1.907688677338e+01
1.954507356753e+01
-2.483751399630e+01
1.231684350272e+01
1.387795838565e+01
1.694759191281e+01
1.947609857986e+01
6.271719232356e+00
1.999081804663e+01
1.746679826185e+01
1.530436265984e+01
1.991884296487e+01
-1.686912677015e+01
1.920724233335e+01
-2.347624653997e+01
-4.107334873992e+00
2.504321535216e+00
1.340072780909e+01
1.937621080473e+01
1.248267026342e+01
7.930583018786e+00
9.236930170665e+00
6.578420714427e+00
2.011529362701e+01
1.738155226874e+01
2.047313200474e+01
-5.915987370527e+01
1.098877557584e+01
1.629540982671e+01
1.474340525391e+01
2.000558300531e+01
2.053278963761e+01
1.916632476190e+01
1.396585606949e+01
2.010968045262e+01
1.979469756149e+01
1.729034248280e+01
1.901517529704e+01
2.013061513810e+01
1.646722718936e+01
9.653451403099e+00
1.818816667835e+01
2.032918888012e+01
1.726199328649e+01
1.820717140275e+01
1.804310309322e+01
2.723671680659e+00
1.770806822632e+01
1.361069563246e+01
1.039029666774e+01
5.314312423172e+00
1.938297083240e+01
1.792759117522e+01
1.454008423558e+01
1.953878992533e+01
1.930434321038e+01
1.759908395734e+01
2.040285327373e+01
1.846449874945e+01
1.788009839194e+01
1.661988815804e+01
1.863759305156e+01
1.276674745672e+01
1.751786940941e+01
1.706333467705e+01
1.552912052765e+01
1.916988249629e+01
-6.307359183046e+01
1.798134030364e+01
1.473592462988e+01
1.117495431690e+01
1.298302582448e+01
1.838817209857e+01
-5.642483634413e+00
1.461405676937e+01
1.886258271670e+01
1.793032424327e+01
1.799091926368e+01
3.875906200065e+00
1.557649457958e+01
1.479502279051e+01
1.325512352402e+01
1.901512061691e+01
1.464348070289e+01
1.672473131073e+01
1.606050767637e+01
6.538257134701e+00
1.697412001315e+01
3.411404216614e+00
2.031617032194e+01
2.033069266626e+01
1.754900140490e+01
1.324648116989e+01
1.030956640488e+01
1.810722479385e+01
1.218957791121e+01
1.490103208028e+01
1.727980335956e+01
2.016865641814e+01
1.500085112435e+01
1.902966354453e+01
6.182023805684e+00
2.051916772157e+01
1.171079774131e+01
1.755956776772e+01
9.057099450016e+00
1.947512263397e+01
1.689033682534e+01
1.556059806685e+01
1.764170907866e+01
2.034701347308e+01
1.585541491811e+01
1.893179447427e+01
6.840321360557e+00
1.878542541105e+01
1.992711273008e+01
1.095442666857e+01
1.861467699435e+01
2.036271482374e+01
2.010348882553e+01
2.033631461026e+01
1.854889332814e+01
1.927330483267e+01
7.813358908101e+00
1.704991710397e+01
1.787980020375e+01
1.814202259533e+01
1.693344784801e+01
2.038198199828e+01
1.829663187588e+01
1.746321715669e+01
1.627372222921e+01
1.080458972653e+01
1.674457934389e+01
1.201849421238e+01
1.754756382395e+01
1.542974071006e+01
1.527116108392e+01
1.934709135460e+01
1.215305137083e+01
1.733151156522e+01
1.912550506519e+01
1.917107087335e+01
2.040497227831e+01
1.591026548873e+01
1.485861438293e+01
1.716909365733e+01
1.089000966110e+01
1.083127460268e+01
1.960218034032e+01
1.784940725543e+01
1.474930723727e+01
1.667839495413e+01
2.049455459964e+01
2.033519508156e+01
1.960191815745e+01
1.920326866584e+01
1.896639928225e+01
1.517848857887e+01
1.358138258692e+01
1.500325390167e+01
1.756988990943e+01
1.931625386590e+01
1.828199164350e+01
1.963906720894e+01
1.484924261823e+01
1.657582916719e+01
1.759047814960e+01
1.569755759869e+01
2.031759492389e+01
2.032902978948e+01
2.009400496175e+01
1.931128909293e+01
1.954421090842e+01
9.467161262007e+00
1.606923640563e+01
1.056383459298e+01
1.524885592688e+01
1.749914737880e+01
1.856062568921e+01
2.045885380769e+01
1.957120273933e+01
1.818926242052e+01
1.835074240156e+01
1.202443183722e+01
-5.216248620565e+00
1.664573815877e+01
1.727682904470e+01
1.702395197398e+01
-1.257527238410e+01
1.802690376196e+01
9.346919005689e+00
1.231162719556e+01
2.046680783903e+01
1.932593281927e+01
1.748157569978e+01
3.481257136407e+00
1.691186725062e+01
1.670572671593e+01
1.838377222103e+01
2.035382441475e+01
1.705320809379e+01
1.810849739776e+01
1.833403537501e+01
1.951263252642e+01
1.948324106819e+01
2.034898912002e+01
2.036008601269e+01
2.034602006116e+01
2.034103148802e+01
1.857570245108e+01
1.950715266699e+01
1.972862906632e+01
1.566291315189e+01
1.515124431066e+01
1.791524903974e+01
1.963299290814e+01
2.037075603243e+01
1.966325057175e+01
1.900863957249e+01
1.965945029237e+01
1.909992834484e+01
1.692859620125e+01
1.523966953272e+01
8.961788189811e+00
2.016810509632e+01
1.514586681446e+01
2.003425936083e+01
1.796736845724e+01
1.451545476079e+01
2.038256464540e+01
1.308144190298e+01
2.036781735976e+01
2.017052160900e+01
1.808362070678e+01
-2.240491250805e+01
2.037719020482e+01
2.035919576323e+01
1.470459955333e+01
1.925572255043e+01
2.045495000425e+01
-5.804599906558e+01
1.614523891738e+01
1.832329795003e+01
1.782596834965e+01
1.784480092459e+01
9.865765943400e+00
2.039038648025e+01
1.689941713549e+01
3.135944856277e+00
2.053456560229e+01
-2.197991910179e+01
1.626113114800e+01
4.120212286987e+00
1.674382447809e+01
2.049999364381e+01
2.040822512540e+01
1.814602332979e+01
-4.264742888357e+00
-1.725130063358e+00
3.429178483851e+00
2.025854827074e+01
1.750058918353e+01
1.775128389985e+01
2.042557970765e+01
1.753129880041e+01
2.033265667429e+01
1.925736807099e+01
1.837215726459e+01
1.195325552965e+01
1.920480998161e+01
8.553152214052e+00
2.043755376811e+01
2.035031867023e+01
2.034739235151e+01
1.946264292558e+01
1.748862397391e+01
1.696569477366e+01
1.961510943169e+01
2.044746772494e+01
1.264085391391e+01
1.615858700478e+01
1.664876872534e+01
1.861513877070e+01
2.056828227377e+01
-5.469784433211e+00
2.045835716073e+01
1.608114516887e+01
2.037686892984e+01
1.972743934848e+01
-6.168946959989e+01
1.657267068145e+01
1.969041601015e+01
2.038587091489e+01
1.857301006878e+01
1.941923623623e+01
4.732910149553e+00
2.024473655842e+01
1.653535217450e+01
1.657144814552e+01
-2.098128852605e+01
2.039844547796e+01
1.158532480476e+01
2.015952218282e+01
1.813305332099e+01
1.487460354752e+01
1.610107694734e+01
1.834936844277e+01
2.043309365495e+01
1.785305934907e+01
1.983002452295e+01
1.783096671836e+01
1.940771956361e+01
1.658859110260e+01
1.959497521229e+01
1.756646931966e+01
1.908803750512e+01
1.949506773970e+01
1.756709031966e+01
1.809600360320e+01
1.321315119788e+01
1.753905957574e+01
1.927129965536e+01
1.877579735592e+01
2.051932085343e+01
1.979717082429e+01
1.395570093831e+01
2.045125728742e+01
2.039269509769e+01
1.735147788424e+01
-2.150610512727e+01
2.052943106998e+01
1.977408355975e+01
1.531874691930e+01
2.046976455423e+01
1.972343850136e+01
1.569276705129e+01
1.797864212973e+01
1.855120892155e+01
1.914260946989e+01
1.950220374951e+01
1.885890308218e+01
1.660857648499e+01
1.956629696227e+01
1.842580843860e+01
1.803224520083e+01
1.942696936466e+01
1.641777991888e+01
1.965454738644e+01
-6.135964511312e+01
1.391612881579e+01
1.595525895860e+01
1.855303407563e+01
1.761440678023e+01
1.973983259377e+01
1.842174738657e+01
1.516969004775e+01
2.047587056736e+01
1.832692952439e+01
1.874462018498e+01
1.809066073123e+01
1.851292781248e+01
-5.787148049768e+01
1.823794544060e+01
1.733431541699e+01
-5.845911402047e+01
1.844132305232e+01
1.995062764091e+01
1.970414460723e+01
1.922161046521e+01
1.938755983984e+01
1.720190581373e+01
1.694364184255e+01
2.015756633916e+01
1.783731910360e+01
-6.334619841483e+01
6.602666698106e+00
-2.193351098678e+01
1.449067898667e+01
1.968051413581e+01
1.970601702703e+01
2.019610257775e+01
1.563900155995e+01
1.963591197867e+01
2.023399717012e+01
8.778938878697e+00
1.730337212647e+01
1.570409431439e+01
2.058070552069e+01
2.047855978415e+01
1.802258273067e+01
1.869674777618e+01
1.932795940817e+01
2.027348183032e+01
8.506428987704e+00
2.018270430806e+01
-4.410287106526e+00
1.819959532781e+01
1.879667363213e+01
-2.106406058199e+01
1.760811136491e+01
1.980610646062e+01
-6.169071954319e+01
1.692022037531e+01
1.691783202266e+01
1.957966580204e+01
1.571625622548e+01
1.585965060605e+01
8.212471777166e+00
2.035424053647e+01
2.022028374347e+01
1.951930940373e+01
1.201680535006e+01
-1.316795191095e+00
1.667949467113e+01
1.696689408435e+01
1.698334052887e+01
-5.782486152012e+01
-2.132215870269e+01
-4.423876494265e+00
1.297207377635e+01
-2.050004337438e+01
1.839683505566e+01
-5.809399599402e+01
1.487163486630e+01
1.877188054280e+01
1.693694951481e+01
1.979491050452e+01
1.984899095532e+01
1.841224364130e+01
1.630910096168e+01
-4.508659322701e+00
2.033403617906e+01
2.032600734676e+01
1.813198303204e+01
1.696631904037e+01
1.638631908253e+01
2.032275915402e+01
1.409305040546e+01
1.691770628193e+01
1.691985459301e+01
1.634456007391e+01
2.034831421593e+01
2.030751294628e+01
-2.087568296321e+01
-5.756336307461e+01
2.942142644276e+00
1.883711784838e+01
2.041743261387e+01
-6.370367912316e+01
1.949283426657e+01
-5.767681224403e+01
1.964759180595e+01
-6.068403555405e+01
-6.086358362487e+01
1.956217732481e+01
2.036795741289e+01
1.874759696482e+01
1.699291530871e+01
-2.101575632009e+01
1.974156608146e+01
2.032479216760e+01
2.032388445790e+01
1.694710645296e+01
1.971933440704e+01
2.033618848736e+01
1.942971994053e+01
-5.089891857870e+00
-2.075418141915e+01
-2.149653776218e+01
1.724679369255e+01
2.058291409937e+01
2.010662422898e+01
-5.758473300997e+01
1.832516243692e+01
2.050026757351e+01
2.060251263058e+01
2.054243299969e+01
1.919603073347e+01
1.962908676547e+01
2.048451031028e+01
2.049082354269e+01
1.948823641100e+01
8.999999999681e+01
1.695958490559e+01
1.697752769421e+01
-5.763456298222e+01
2.049314337865e+01
2.060100939278e+01
2.047637380469e+01
-6.125630733774e+01
-6.092338851361e+01
2.047782739160e+01
2.047914942767e+01
1.903788197593e+01
1.696391549043e+01
1.934226140123e+01
1.822108986935e+01
1.695302254653e+01
-6.254852340655e+01
-6.020559375919e+01
-6.170782830876e+01
-6.129523809463e+01
1.863187256812e+01
1.799451067736e+01
-5.777553549323e+01
1.967741127829e+01
-5.790520203378e+01
2.033862339544e+01
2.033034057835e+01
2.033281720998e+01
6.485554506470e+00
1.498722021246e+01
2.032484247586e+01
2.024710691060e+01
2.034296022675e+01
2.037888142183e+01
2.047127934786e+01
1.764001527947e+01
2.032350997367e+01
2.032943967309e+01
2.030239678506e+01
2.042095950764e+01
1.991444161394e+01
-5.788398347742e+01
1.786796200019e+01
-2.135228982620e+01
2.034987350564e+01
1.822364355447e+01
2.019424125051e+01
1.188057815169e+01
-5.311372671041e+00
2.032332162600e+01
1.837825749652e+01
1.690259231096e+01
2.019391901322e+01
1.985657182149e+01
1.681499209724e+01
2.002336275374e+01
1.970134804524e+01
1.992385554178e+01
2.001327615459e+01
1.654565907765e+01
1.626706460861e+01
1.732207596117e+01
1.975494881083e+01
2.025819978828e+01
2.009771367571e+01
1.258141941285e+01
1.983433685823e+01
1.958769163540e+01
1.781691303988e+01
1.988878827523e+01
1.984467565361e+01
1.987414305981e+01
1.973032751653e+01
1.956447202754e+01
2.035769667580e+01
1.952146460188e+01
2.008079088244e+01
2.039485411869e+01
1.984861119050e+01
1.911270833840e+01
1.993643268488e+01
1.221892854602e+01
1.155945211816e+01
-1.297521997861e+00
-2.137392364288e+01
1.972878987806e+01
2.029797874314e+01
-2.185853483187e+01
1.974036893101e+01
1.803573111038e+01
2.012729302161e+01
2.017618608282e+01
1.631660988062e+01
2.017787624597e+01
1.780419004349e+01
1.953609839018e+01
2.042072115499e+01
1.176027898598e+01
2.042319700580e+01
1.929373637440e+01
1.319919930062e+01
1.380944117775e+01
1.901981689242e+01
1.871179846260e+01
1.664771091170e+01
1.946074853762e+01
1.894601432548e+01
1.892307390292e+01
2.001872499424e+01
2.011003915530e+01
1.929690196552e+01
9.673852043188e+00
1.865218379665e+01
1.987912752595e+01
1.942818255631e+01
1.808621218076e+01
1.967786957545e+01
2.036555660327e+01
1.910635854906e+01
-2.170238922253e+00
-1.979645849639e+00
1.202193549016e+01
2.025952391993e+01
1.892107478534e+01
1.934083803396e+01
1.827832178126e+01
2.023629850279e+01
1.909023582775e+01
2.010557918714e+01
1.219188790495e+01
2.042052225467e+01
1.889817763903e+01
1.322674170738e+01
1.863740678410e+01
1.703285411067e+01
1.480397795001e+01
1.937062864063e+01
-5.684503545921e+01
-5.630445318260e+01
1.983706702791e+01
1.104404812681e+01
1.987256927340e+01
1.978057322349e+01
1.768687500880e+01
1.434030475311e+01
1.967276323506e+01
-6.579549228009e-01
1.741309472800e+01
2.027579287988e+01
8.893488151027e+00
1.852889974780e+01
1.804827742697e+01
8.448393684267e+00
2.031542059023e+01
1.921864141328e+01
1.108549741026e+01
1.978160012508e+01
1.978574913217e+01
1.254124509724e+01
1.295470442176e+01
1.290822274462e+01
2.002444565652e+01
1.924455648287e+01
1.978027422979e+01
1.967543536407e+01
1.995427903013e+01
1.996734867748e+01
1.015494061743e+01
2.003664334584e+01
1.922100180770e+01
1.922364415676e+01
1.892025278511e+01
1.939204748332e+01
1.799127443989e+01
1.955633631336e+01
1.840564845953e+01
1.907978428360e+01
1.649029431464e+01
1.696216535478e+01
1.907614203464e+01
1.893274307351e+01
1.378379918753e+01
2.855583356560e+00
1.907317468485e+01
1.384500331270e+01
2.037747149578e+01
1.925690901028e+01
2.013724184101e+01
2.037967610768e+01
1.806893034126e+01
1.258422836461e+01
5.566991119587e+00
1.998955220543e+01
1.875386757231e+01
-2.388902088940e+00
1.656980295250e+01
1.055560978961e+01
1.870665821172e+01
1.692634890292e+01
1.980066139374e+01
1.649553630163e+01
1.958884661858e+01
1.547490505954e+01
2.001700892656e+01
1.142415257831e+01
1.990697821516e+01
1.885410411216e+01
2.007570316755e+01
1.659601015511e+01
1.061086390545e+01
1.832198140048e+01
1.966294421106e+01
1.654470900670e+01
1.874957787660e+01
1.296291921766e+01
1.883406317297e+01
9.160518336029e+00
2.031485453554e+01
1.973919492299e+01
1.959953667743e+01
1.992929645343e+01
1.929880192390e+01
9.683566737081e+00
1.971035676434e+01
2.037594818069e+01
1.573152513793e+01
2.006269769547e+01
1.925737215168e+01
1.355149921263e+01
1.981418923836e+01
1.821665489672e+01
1.429024707765e+01
1.613903988196e+01
1.785297822852e+01
2.000581338779e+01
1.571409666782e+01
1.759704792171e+01
1.903473024824e+01
1.852847950318e+01
1.842859030005e+01
1.886059057469e+01
2.025207717602e+01
1.959391385791e+01
1.828600866492e+01
1.986914135878e+01
1.966106824233e+01
1.992570249989e+01
1.939408026424e+01
1.730400519745e+01
1.676899953039e+01
1.015455316297e+01
1.983354917219e+01
1.714420629544e+01
1.887242174512e+01
1.865619859878e+01
1.845279388917e+01
1.572261876149e+01
1.562097587708e+01
1.621446006325e+01
1.684357573549e+01
1.149666574989e+01
2.018002891353e+01
1.821579792522e+01
1.955450834146e+01
1.853069701580e+01
1.973135404432e+01
1.913974130525e+01
1.765470480813e+01
1.144748266008e+01
2.033262088647e+01
2.039522909335e+01
1.891150268779e+01
1.738080930256e+01
1.946732214987e+01
1.887626959338e+01
1.762223509410e+01
1.619082432181e+01
1.543446403504e+01
1.418270102679e+01
1.776210253056e+01
1.459451114443e+01
1.348311144116e+01
1.910162200526e+01
1.983436557595e+01
1.967619465230e+01
-5.776480182669e+01
1.833052123372e+01
1.830354616638e+01
1.783707782167e+01
1.865924113969e+01
1.873062766155e+01
1.600501247070e+01
1.815181660767e+01
1.943219344638e+01
1.601531844436e+01
1.600601151312e+00
7.919900362180e+00
1.500767672053e+01
1.644471048735e+01
1.857420832901e+01
1.847794544170e+01
1.003582577709e+01
8.028431925754e+00
1.836736730967e+01
1.454608150578e+01
2.011886987518e+01
1.954291845437e+01
1.842822582017e+01
1.961184258053e+01
1.979561132472e+01
1.810416644574e+01
1.924758099844e+01
1.190694677155e+01
1.838319082985e+01
1.707291065654e+01
1.402345022999e+01
8.411782426589e+00
1.720889828375e+01
1.825177591210e+01
1.853856160688e+01
1.525382904243e+01
1.897353389251e+01
1.830441915760e+01
1.855271575877e+01
1.635400339833e+01
1.964727744652e+01
1.903265155053e+01
1.827739157584e+01
2.025697320897e+01
1.336491037006e+01
2.036860314436e+01
1.878438467277e+01
1.992800807197e+01
1.854708450785e+01
1.310430276791e+01
1.860833827162e+01
1.969549613951e+01
1.899141746911e+01
1.519822651666e+01
1.877946946337e+01
1.724903195176e+01
1.012376914916e+01
2.009383308785e+01
7.830500799647e+00
2.013223979327e+01
1.981811060908e+01
1.980381836131e+01
1.847316723162e+01
1.948651553829e+01
1.854688910236e+01
1.884723927513e+01
1.985839019326e+01
2.003288509950e+01
1.918011412577e+01
1.980047085196e+01
1.209382279768e+01
1.931690637710e+01
2.019844394009e+01
2.037778220209e+01
1.844046050799e+01
1.846766240569e+01
1.822504368596e+01
1.874628074614e+01
1.994616677067e+01
2.003909432818e+01
5.556935587438e+00
1.441714110090e+01
1.844885912335e+01
1.829141358473e+01
1.728342996013e+01
1.998081066657e+01
1.975396276592e+01
1.981343542289e+01
1.618526869412e+01
1.941713672028e+01
1.993087821389e+01
1.989850564663e+01
1.913507050818e+01
1.868154910657e+01
1.812469177948e+01
1.932323579031e+01
1.975534708850e+01
1.935900792953e+01
1.918439275353e+01
2.026810575807e+01
2.001061581473e+01
2.019389959075e+01
1.959080333294e+01
1.588687742802e+01
1.986490697561e+01
1.906376387150e+01
1.352647370272e+01
1.848556049352e+01
1.908330470525e+01
1.918133501945e+01
1.414547011090e+01
1.818738292979e+01
1.946666734207e+01
1.698971683021e+01
1.891376139821e+01
1.877460714460e+01
1.739991029823e+01
-2.923432870231e+01
1.943867774436e+01
1.992757910310e+01
1.988276310259e+01
1.868467531261e+01
1.928953035244e+01
1.883176352725e+01
-7.158290692079e+00
1.978503640923e+01
1.910009177091e+01
1.733249843951e+01
2.002826722882e+01
1.379246140064e+01
2.010920451332e+01
2.031919211125e+01
1.961985130052e+01
1.935703008764e+01
1.955712632475e+01
2.030113992774e+01
2.719574560025e+00
1.898696020394e+01
1.995891707047e+01
1.949056124925e+01
1.935434206270e+01
1.833552908160e+01
1.916078044858e+01
6.456832001513e+00
1.964388954129e+01
1.431734994379e+01
7.723246917232e+00
1.940798634724e+01
1.992698578086e+01
1.244289902949e+01
1.809367891604e+01
1.914165311788e+01
1.904110912532e+01
1.401744079455e+01
1.458320171353e+01
8.485838742277e+00
1.265341443682e+01
1.099898807493e+01
1.904565852055e+01
2.031469527344e+01
1.084935704003e+01
2.032109765148e+01
1.727880463726e+01
1.894241514536e+01
1.075413686066e+01
2.036311143318e+01
1.067921965478e+01
1.580739918615e+01
1.968663302336e+01
1.876829612503e+01
1.988119858617e+01
1.519684356964e+01
1.924194234329e+01
2.012159494719e+01
1.899418364518e+01
1.988659139278e+01
1.944653810323e+01
1.957200064601e+01
1.116726285578e+01
2.025123902736e+01
1.928295273993e+01
1.810239594546e+01
1.298320336862e+01
2.016338456098e+01
1.395952468960e+01
1.517540018691e+01
1.981339369709e+01
9.096838019071e+00
1.789454209796e+01
1.984927283521e+01
1.982713525951e+01
1.994108599786e+01
1.971405884798e+01
1.960792238129e+01
1.742401075324e+01
1.940087843251e+01
1.451417779550e+01
1.984000684875e+01
1.567110338719e+01
1.609728441629e+01
1.836457269185e+01
1.657402120232e+01
1.860597748814e+01
1.739998952271e+01
1.863368221747e+01
1.306724572256e+01
1.825520813035e+01
1.975993750529e+01
1.988099654800e+01
2.010733657481e+01
2.001979511868e+01
1.878605843676e+01
1.957554491640e+01
1.857896723903e+01
2.029155308712e+01
1.945229078781e+01
1.941233820652e+01
1.955040425190e+01
1.787521360071e+01
1.967312798547e+01
1.854711414926e+01
1.288843736511e+01
1.402958832635e+01
1.568075032772e+01
1.807847889187e+01
2.033940607532e+01
1.927862652052e+01
1.798274145495e+01
1.873014853076e+01
1.998777436289e+01
1.964171358230e+01
1.980450286438e+01
1.874306964079e+01
2.016558079771e+01
1.875081601055e+01
1.999916771929e+01
1.786320716184e+01
1.986222315814e+01
1.992478491833e+01
1.927698537396e+01
1.321696793005e+01
1.969220700038e+01
1.837176966592e+01
1.756401588201e+01
1.939554258226e+01
2.009581804517e+01
1.311987505872e+01
1.895696509271e+01
1.878471035142e+01
2.033306335065e+01
1.894689479441e+01
1.955172068285e+01
1.861457373050e+01
1.825354474128e+01
1.873367085407e+01
1.996147680713e+01
2.018042669736e+01
1.910331921230e+01
1.994102528371e+01
1.843576946107e+01
1.670201942169e+01
1.981142632207e+01
1.989038400245e+01
1.791947356687e+01
1.813854969183e+01
1.740984945045e+01
1.924695770026e+01
1.613508209743e+01
1.879814926792e+01
1.615938104179e+01
1.974934111673e+01
2.002680743918e+01
1.783409917240e+01
5.964425031650e+00
1.991599527757e+01
1.655102067577e+01
1.895258562787e+01
1.992167999813e+01
1.909853144918e+01
2.011091442489e+01
1.721572389089e+01
2.302304603046e+00
2.043194529451e+01
1.831706643666e+01
1.938874356502e+01
1.980820317191e+01
-9.497584636710e+00
2.012132428470e+01
1.428542725528e+01
1.873472181420e+01
1.939380809436e+01
1.773893287249e+01
2.028617657537e+01
1.857990224886e+01
1.711109904243e+01
1.853808218979e+01
1.742233024615e+00
1.925278445275e+01
1.977802766685e+01
2.002473769657e+01
1.954595460166e+01
1.541921540237e+01
2.009113505318e+01
1.998446522396e+01
2.025297019942e+01
1.983466209367e+01
1.769225447075e+01
1.892022329487e+01
2.033967157148e+01
1.903048940782e+01
1.940250318835e+01
1.894801738784e+01
2.023444566165e+01
2.018774771954e+01
1.697746583180e+01
1.697388303394e+01
1.897844798808e+01
1.908881574907e+01
1.952057727067e+01
1.892470865797e+01
1.839330388708e+01
2.026463168365e+01
1.755706974613e+01
2.032940892108e+01
1.775151527832e+01
1.817094657939e+01
1.942457222196e+01
1.461895689380e+01
1.886910864162e+01
1.873112000271e+01
1.831058759467e+01
1.891033148690e+01
1.908992709724e+01
1.925416879660e+01
3.484989939596e+00
1.864705006184e+01
1.656602640336e+01
1.875375061028e+01
1.894777056111e+01
2.008045864323e+01
1.081188711680e+01
1.179145844291e+01
1.809676108188e+01
1.859723006670e+01
1.612917564579e+01
1.655704634551e+01
1.890347149745e+01
9.597363863613e+00
1.923169432482e+01
1.993911800372e+01
1.203377081607e+01
2.023016669547e+01
1.971845683454e+01
1.896727017314e+01
2.016805638998e+01
-4.320443991261e+00
1.987716798475e+01
1.833525990732e+01
-4.637233035124e+00
1.972209364836e+01
1.052806415178e+01
1.875253828132e+01
1.831974347545e+01
1.873822901308e+01
1.961167488194e+01
1.983474413423e+01
1.984195737227e+01
1.834602072801e+01
1.812139303320e+01
-4.754243163019e+01
8.694979617262e+00
1.967998489298e+01
1.847616600326e+01
1.981195628935e+01
1.402834909239e+01
1.948104974198e+01
1.980857017101e+01
1.683032943916e+01
1.967701002692e+01
2.015677129997e+01
1.892510270067e+01
1.908088738668e+01
1.925448932256e+01
1.991991684018e+01
1.933126746437e+01
1.852627975536e+01
1.855764862090e+01
2.003250078060e+01
1.795760268089e+01
1.602265874031e+01
1.918928968636e+01
1.632651702740e+01
1.892532704688e+01
1.643249506612e+01
1.873538692065e+01
1.998725942758e+01
1.990845038291e+01
1.769312922425e+01
1.870029438505e+01
2.022219356457e+01
2.021608703792e+01
5.597114929118e+00
1.891190248729e+01
2.038352742906e+01
1.407035910880e+01
1.934051894161e+01
-2.512449789623e+01
2.027127118833e+01
1.531711244023e+01
1.912848973111e+01
1.935365845653e+01
1.869397408585e+01
1.846660672716e+01
1.854329108103e+01
1.511040391225e+01
1.565031012547e+01
2.027521789092e+01
1.970704577166e+01
1.910239004901e+01
1.986959959829e+01
1.885258290704e+01
1.580124123406e+01
1.506723365670e+01
1.803769472105e+01
1.698370426719e+01
1.993018620717e+01
1.781325044809e+01
2.017882032497e+01
2.023469527997e+01
1.900465140049e+01
2.043512245523e+01
1.695237811545e+01
2.010756240687e+01
1.856308127067e+01
1.910776869087e+01
2.020359083983e+01
1.747695401894e+01
1.872516305994e+01
1.888640430482e+01
1.853272665191e+01
1.468122316177e+01
1.928463475324e+01
1.871941152476e+01
1.954588070116e+01
1.852783294520e+01
-1.572775360984e+01
1.894587073550e+01
-5.463693997110e+00
5.035037691652e+00
1.936495084326e+01
1.954247331373e+01
1.864632840802e+01
1.380614520836e+01
2.034679382547e+01
-4.814346128572e+01
1.450364177238e+01
1.928132520813e+01
1.913420795048e+01
1.635545317839e+01
1.744316874770e+01
1.945054658864e+01
1.874549067101e+01
1.927882639606e+01
1.970029542369e+01
8.101702924781e+00
1.900630778402e+01
1.930514633002e+01
1.506628181560e+01
1.719827040584e+01
1.864588487085e+01
1.999089423432e+01
-4.727096065695e+00
-1.961871765709e+01
1.070394798037e+01
1.928703942622e+01
1.763954650409e+01
1.703347072182e+01
1.605893107504e+01
1.949074284988e+01
1.897871176971e+01
1.943778500422e+01
1.757662356620e+01
1.891444950536e+01
1.787579035467e+01
1.963290615542e+01
1.942535402844e+01
1.947270692017e+01
1.199070120454e+01
1.799584889543e+01
1.955255791776e+01
1.885306382738e+01
1.848335863524e+01
1.299546245401e+01
1.960566616301e+01
1.696970404006e+01
3.069005397684e+00
2.006914038946e+01
9.435749490192e+00
1.740111741206e+01
1.872430172333e+01
1.372705600531e+01
1.954989353970e+01
1.427198195091e+01
1.742971302633e+01
1.959613719588e+01
1.895693167934e+01
1.919782231122e+01
-1.019670746019e+01
1.976646784639e+01
1.804306938085e+01
2.018222341029e+01
1.912546270107e+01
1.970937863293e+01
1.970434226547e+01
1.735647870527e+01
1.491844442727e+00
-1.000536846977e+01
1.979722933899e+01
2.024271202244e+01
1.681984995936e+01
1.908285029136e+01
1.319037649904e+01
1.909097030199e+01
2.052042671614e+01
-6.259036681123e+01
2.033667519762e+01
2.049528883119e+01
1.767601833791e+01
1.800557673640e+01
1.894121151594e+01
1.721364663938e+01
1.850408278636e+00
-3.551927978636e+01
1.995431198639e+01
1.881913434114e+01
1.700100722475e+01
2.038281609882e+01
1.229138781108e+01
2.042538977010e+01
1.881985221917e+01
1.790499699197e+01
1.875475800099e+01
1.770146680858e+01
5.553518271865e+00
1.725548911987e+01
1.912956930958e+01
2.029897926085e+01
1.776765839015e+01
1.924696539739e+01
-6.033533331639e+01
1.773668902246e+01
1.934421592708e+01
1.705262964072e+01
1.619887139773e+01
1.877570998936e+01
9.421202225291e+00
9.259717691248e+00
1.085415708693e+01
1.602555989610e+01
1.929179277408e+01
1.821385707652e+01
1.924688534648e+01
1.998006749325e+01
1.191817163277e+01
1.919375283388e+01
2.002952910081e+01
1.689407451107e+01
-6.379649234432e+00
1.408914444994e+01
1.914288530559e+01
1.925710693969e+01
1.915559755800e+01
4.374373766030e+00
1.956479585937e+01
7.755547698432e+00
1.830781486692e+01
1.945814959756e+01
1.895651324411e+01
1.873198960292e+01
1.591166482874e+01
2.900090520720e-02
1.971265114357e+01
9.404191781261e+00
-2.021654796306e+01
1.997438349945e+01
1.974925414534e+01
-2.266565304218e+01
1.979530944476e+01
1.330805430107e+01
1.417378601964e+01
1.954397410204e+01
1.897386236508e+01
1.939868718344e+01
1.773824183749e+01
1.696105183790e+01
2.044939994648e+01
1.194545705598e+01
2.004675444331e+01
1.842500471031e+01
8.091379094005e+00
1.910165094899e+01
1.795777142440e+01
-4.781792944413e+00
1.705747662852e+01
1.991361511963e+01
1.913233615408e+01
7.626529135451e+00
1.906765361279e+01
1.940511624008e+01
1.973103802311e+01
1.670182996132e+01
1.430573125263e+01
1.865374166659e+01
1.863364141922e+01
-5.197245700267e+00
2.020557228020e+01
2.017312731863e+01
1.799164111349e+01
2.009246448479e+01
2.018423086396e+01
1.805930998916e+01
1.772422634003e+01
2.042748299105e+01
-5.887039739037e+01
1.330868811222e+01
1.928581599565e+01
1.660380989893e+01
1.705248582443e+01
4.999097093781e+00
7.832396561685e+00
1.795685081263e+01
1.738186185631e+01
1.501076339090e+01
1.957447410593e+01
2.055311266586e+01
2.059902938163e+01
1.805550178477e+01
1.747994184376e+01
-2.831504141856e+01
-1.326276764879e+00
8.145104867482e+00
2.628337699130e+00
1.882013942128e+01
1.692626518834e+01
1.740785057036e+01
-4.999780478998e+00
1.980416848383e+01
1.732735623505e+01
1.994361004887e+01
1.957453891963e+01
2.032482441017e+01
2.056984283487e+01
1.802100729710e+01
1.762842291585e+01
9.278479745358e+00
1.797373515195e+01
2.049604547133e+01
-1.476325998855e+01
-6.867648093146e+00
2.011438236404e+01
1.752132106725e+01
1.997187660111e+01
1.940130672453e+01
1.996040103039e+01
1.957262929310e+01
1.808843877275e+01
1.543693202059e+01
1.555873453063e+01
1.900370645339e+01
1.982770185815e+01
1.692031278825e+01
1.752897282208e+01
1.797189584121e+01
1.813233857112e+01
5.742664117063e+00
1.461193285798e+01
2.016967917440e+01
1.855677771050e+01
2.038082986204e+01
1.997881702024e+01
1.910325176616e+01
1.995866970616e+01
1.762535514931e+01
1.714269563738e+01
2.042001841334e+01
-2.313061608898e+01
1.378477978689e+01
2.041745403023e+01
3.090267761893e+00
1.752561570176e+01
2.037787501538e+01
-7.285842367392e+00
-2.345133183183e+01
2.032292313349e+01
1.693941141191e+01
2.011582646357e+01
2.029314804366e+01
1.693369174296e+01
-2.531356839561e+01
2.016688250255e+01
5.019727018740e+00
2.001323214013e+01
2.049550999505e+01
1.998901996612e+01
1.032588663843e+01
1.796637743738e+01
1.784967136561e+01
1.957483291771e+01
2.044616156663e+01
1.936928183307e+01
2.050379576199e+01
-5.275548360758e+00
2.048583890457e+01
1.183977022130e+01
3.091117511905e+00
2.047952594626e+01
2.016021983385e+01
2.020090886097e+01
1.748493374976e+01
1.801941627961e+01
5.711882918061e+00
2.017301892043e+01
1.637198666724e+01
-1.820611704954e+00
1.972493067908e+01
1.693213821763e+01
2.002488324017e+01
2.030548950376e+01
2.034155967980e+01
8.999999999681e+01
-5.346791044972e+01
1.703617028172e+01
1.697544645003e+01
2.049866378081e+01
2.053006105308e+01
-2.488326387496e+01
-6.051416578638e+01
2.041347367564e+01
2.003395430010e+01
7.595568050372e+00
2.042032670210e+01
1.947175860137e+01
1.891775299613e+01
1.878004589590e+01
6.995800939744e+00
1.929561028516e+01
3.416338364583e+00
1.829699486686e+01
2.003573869098e+01
1.988562265981e+01
1.873990839551e+01
1.833944383157e+01
2.005128664225e+01
1.968811062194e+01
1.941361367995e+01
1.695907490936e+01
1.916553364049e+01
2.000116246013e+01
1.393883589978e+01
-2.197978135407e+01
1.990122690811e+01
2.004080989028e+01
3.247119666118e+00
1.903525228359e+01
2.045862795371e+01
1.990864137493e+01
2.005653566384e+01
1.976417814176e+01
-2.317476791496e+01
5.039027300161e+00
9.438904589390e+00
1.794417107185e+01
1.914786593144e+01
2.003480248162e+01
2.035627032745e+01
-5.536254579497e+00
-6.434110351587e+00
-1.371185590677e+00
1.912348017393e+01
1.588330925412e+01
2.004055727445e+01
6.910934644497e+00
2.023782399611e+01
1.794432750095e+01
2.025840130509e+01
1.969680713575e+01
1.793980835486e+01
2.049589091463e+01
2.017428370476e+01
2.016134518696e+01
-1.615624055195e+01
1.995885552829e+01
2.021011013638e+01
2.026326673387e+01
1.981708188013e+01
2.048869176445e+01
1.941692664098e+01
-5.868116931521e+01
1.101060994742e+00
1.983792781597e+01
1.832381610512e+01
2.038243619579e+01
1.992909188673e+01
2.043314384597e+01
1.944329887677e+01
2.029636799948e+01
2.040360065852e+01
2.041040555331e+01
1.617616238873e+01
2.052739934538e+01
1.745420548192e+01
1.996500561029e+01
-5.623796439680e+00
1.978093997566e+01
1.905494834570e+01
-4.895390492859e+00
8.445851310353e+00
1.955400890047e+01
2.017248774171e+01
2.001017258694e+01
2.026936784197e+01
1.832257368149e+01
-2.260008799195e+01
-7.574001834162e+00
-1.765440710006e+01
1.374274169804e+00
-5.477232197357e+01
1.814714358581e+01
2.038284834839e+01
1.998786559776e+01
1.828042031093e+01
1.740015898628e+01
2.040888048918e+01
2.034231186917e+01
2.027115500362e+01
2.006024171944e+01
1.981160293278e+01
-5.890358229763e+00
-9.470768498156e+00
2.043574461360e+01
-5.018768531247e+00
-4.770322281909e-01
-1.765560651641e+01
-7.373547105359e+00
2.045048549061e+01
2.021001832816e+01
2.004645119962e+01
2.029402213404e+01
2.026403597562e+01
1.856142881233e+01
2.034914827983e+01
1.142993796419e+01
1.689280782888e+01
2.036428648168e+00
-2.294330198404e+01
2.053273714473e+01
1.751447389448e+01
2.535518193968e+00
1.806004114386e+01
2.019562520829e+01
2.001322450523e+01
2.018802130646e+01
1.531408486658e+01
-8.074315022788e+00
2.053205679953e+01
2.031727504348e+01
2.058789884777e+01
1.743898989412e+01
2.031106466644e+01
3.076936543110e+00
2.005546512221e+01
-2.453578532499e+01
2.044686459115e+01
2.016349669790e+01
-2.353191251381e+01
1.991845525252e+01
1.928872410876e+01
2.018364190447e+01
2.045840119718e+01
1.884829595515e+01
2.021276409037e+01
2.003130260349e+01
1.906128572589e+01
2.006184348920e+01
1.679508107388e+01
1.695566366440e+01
2.014411874679e+01
2.019133415998e+01
-5.919808077409e+01
1.696805044030e+01
2.047676821255e+01
7.556735613522e+00
2.037046888589e+01
1.998652323198e+01
2.016551338878e+01
6.785531960800e+00
-8.406597529009e-01
1.914417227275e+01
1.963112944232e+01
-6.470312269815e+01
2.019584389482e+01
1.873414577705e+01
6.644425245694e+00
1.845263175784e+01
2.024963654287e+01
1.927168498778e+01
-4.603021893194e+01
1.627177849362e+01
1.862250749787e+01
1.934821989912e+01
2.016518113370e+01
1.855049050652e+01
1.874989244120e+01
-8.546449460131e+00
2.047302301421e+01
1.991555325450e+01
3.520469007660e+00
2.017628640675e+01
2.047376567543e+01
1.747502259306e+01
1.873288211394e+01
1.846587529604e+01
1.855921996872e+01
1.888921535184e+01
2.020781914434e+01
2.804227872394e+00
2.003236864138e+01
1.796022763798e+01
2.016778759677e+01
2.020351147037e+01
1.843751377023e+01
1.992010686663e+01
2.019006787510e+01
2.031752290492e+01
-3.008437774920e+01
1.991640193344e+01
2.003795266850e+01
-7.930511548915e+00
1.818030965403e+01
-2.932150777020e+01
2.004522230167e+01
-6.085150107107e+01
-5.513493845732e+01
-5.561821722654e+01
-5.501682784502e+01
-5.529151817460e+01
-5.503496512511e+01
-5.514493104808e+01
-5.502450445907e+01
-5.507159281973e+01
-5.500533574551e+01
-5.504100187618e+01
-5.498362554776e+01
-5.503172228900e+01
-5.496048304681e+01
-5.503245621469e+01
-5.493575577874e+01
-5.503791411402e+01
-5.490894045327e+01
-5.504579440602e+01
-5.487939633400e+01
-5.505510582000e+01
-5.484644025108e+01
-4.856161259817e+01
-5.506495890761e+01
-5.480989947151e+01
-5.506757921939e+01
-5.234149121382e+01
-5.476978028461e+01
-5.503171133252e+01
-5.472673076658e+01
-5.498968509132e+01
-5.467543421628e+01
8.616074580858e+01
-5.494111839402e+01
-5.459206597055e+01
-5.488803620193e+01
-5.450182526925e+01
-5.482761399320e+01
-5.441527752661e+01
-5.477379739569e+01
-5.431397053468e+01
-5.469300250501e+01
-5.424415307350e+01
-5.467056815198e+01
-5.412471432029e+01
-4.585545682687e+01
-5.412122944669e+01
-5.453127056256e+01
-5.391066800135e+01
-5.473266213464e+01
-5.407446207718e+01
-5.428547834821e+01
-5.369102206195e+01
-5.498288652368e+01
-5.322471159774e+01
8.999999999681e+01
-5.250450870626e+01
-5.808061733620e+01
-4.212382669559e+01
8.999999999681e+01
8.999999999681e+01
-1.431169281231e+01
-1.628760155753e+01
-1.633852766508e+01
-1.645029233575e+01
-1.643791094750e+01
-1.642998148489e+01
-1.640448263476e+01
-1.639986810540e+01
-1.637408846940e+01
-1.637573363990e+01
-1.635227401897e+01
-1.635666354617e+01
-1.633491763649e+01
-1.634021226877e+01
-1.631887873321e+01
-1.632451638526e+01
-1.630240554230e+01
-1.630839908232e+01
-1.628458105739e+01
-1.629104971972e+01
-1.349210682910e+01
-1.626485693558e+01
-1.627163451880e+01
-1.624263379455e+01
-2.202754652316e+01
-1.624867068909e+01
-1.621732089150e+01
-1.568136133791e+01
-1.622198719805e+01
-1.618888257723e+01
-1.619064398785e+01
-1.615792784685e+01
-1.611363417204e+01
-1.612503574927e+01
-1.597590112915e+01
-1.609180430189e+01
-1.584534349525e+01
-1.316001157009e+01
-1.605822128754e+01
-1.568915766896e+01
-1.603062733951e+01
-1.559140426249e+01
-1.538883555837e+01
-1.599796917129e+01
-1.543685355786e+01
-1.599102591738e+01
-1.509226322623e+01
-1.595615932029e+01
-1.569373073793e+01
-1.477854690326e+01
-1.603899910589e+01
-1.596202759759e+01
-2.435378494671e+01
-1.659043310131e+01
-1.416982780621e+01
-2.206415984869e+01
-1.056501023139e+01
-2.233090722814e+01
-2.302084726762e+00
-1.475620172868e+00
-1.462486250717e+00
-1.428971706002e+00
-1.428157443676e+00
-1.417918370018e+00
-1.417928104284e+00
-1.403634443376e+00
-1.403583078716e+00
-1.389668758559e+00
-1.389211559846e+00
-1.377625851195e+00
-1.376356964009e+00
-1.367380582951e+00
-1.364826103748e+00
-1.358258465387e+00
-1.353843234189e+00
-1.349722010922e+00
-1.342798973016e+00
-3.976556126969e-01
-1.341389025427e+00
-1.331171791648e+00
-1.333039825388e+00
-1.292851925836e+00
-1.318556738643e+00
-1.324179036364e+00
-1.303802009694e+00
-1.314395399724e+00
-1.286406301476e+00
-3.951796700699e+00
-1.303955866971e+00
-1.265910220890e+00
-1.294108776768e+00
-1.245426667577e+00
-1.285536049646e+00
-1.220469599951e+00
-1.280478884521e+00
-1.204060268395e+00
-1.277794833486e+00
-1.169426276928e+00
-1.284744480478e+00
-2.874026403120e-01
-1.285560440013e+00
-1.181813863991e+00
-1.312107198666e+00
-1.085850002077e+00
-1.336060774840e+00
-1.222546608394e+00
-9.167566782881e-01
-4.866738241724e+00
-9.639107645699e-01
-2.272029989017e+00
6.790331334597e-01
-4.444007569590e+00
-4.244044137851e+00
6.085778676762e+00
5.632739733271e+00
5.619244433919e+00
5.589203216207e+00
5.585327912025e+00
5.588385107728e+00
5.584664560112e+00
5.594570903892e+00
5.590094538980e+00
5.602217725951e+00
5.596457855731e+00
5.609267771854e+00
5.601678906547e+00
5.614983376999e+00
5.605065106051e+00
5.619941308347e+00
5.607179288459e+00
5.624438043145e+00
6.120916702157e+00
5.608297267219e+00
5.628834976151e+00
5.608570601941e+00
4.210334172568e+00
5.633058354064e+00
5.541519435486e+00
5.607674453495e+00
5.636847570737e+00
5.605872782813e+00
5.643544076410e+00
5.605162678998e+00
5.650036605529e+00
5.604405773823e+00
5.662632559240e+00
6.063642164962e+00
5.603647674524e+00
5.663223057248e+00
5.597313441160e+00
5.685660533822e+00
5.662449523035e+00
5.593452245452e+00
5.722342427846e+00
5.575256632552e+00
5.612551309987e+00
5.814476975155e+00
5.573594291488e+00
5.509907852954e+00
3.693190393753e+00
5.452453368178e+00
6.186479496443e+00
4.382518565000e+00
6.987692062280e+00
3.990464513394e+00
9.351197170947e+00
9.615342920392e+00
9.622484530053e+00
9.626828652157e+00
9.630646699455e+00
9.624613211014e+00
9.630314042002e+00
9.624742870961e+00
9.632553677362e+00
9.626065664245e+00
9.635708156703e+00
9.627419521822e+00
9.638516972217e+00
9.626981593584e+00
9.639582076170e+00
9.624974570563e+00
9.639796206469e+00
9.874556277640e+00
9.622198232578e+00
9.639533250462e+00
9.489611476605e+00
9.619031190278e+00
9.639159420885e+00
9.614464582825e+00
9.637717428399e+00
9.607351389460e+00
8.685613127158e+00
9.633958013296e+00
9.599229389966e+00
9.633641207588e+00
9.595029237443e+00
9.633201712718e+00
9.588711603010e+00
9.640441508862e+00
9.585963014882e+00
9.627872482468e+00
9.566868440734e+00
9.788534433344e+00
9.567016035422e+00
9.651169017887e+00
9.504290580288e+00
9.591982170934e+00
9.688300402132e+00
8.347182253111e+00
9.821324924586e+00
9.296986666313e+00
1.032550369550e+01
8.691150827136e+00
8.535084249362e+00
1.237622944758e+01
1.219581452494e+01
1.218540979240e+01
1.217547507504e+01
1.216892443786e+01
1.217204285801e+01
1.216558872943e+01
1.217134545436e+01
1.216358318940e+01
1.217160646840e+01
1.216244152841e+01
1.217262105027e+01
1.216145998097e+01
1.217133176096e+01
1.215764703420e+01
1.216818082146e+01
1.233897723633e+01
1.215138787990e+01
1.216554116482e+01
1.148993160798e+01
1.214704942708e+01
1.216340032972e+01
1.202282567290e+01
1.214205539015e+01
1.215999965869e+01
1.213417735983e+01
1.215387897580e+01
1.212343674338e+01
1.214256448343e+01
1.224429301812e+01
1.211001956900e+01
1.214728264982e+01
1.210956068267e+01
1.213462463695e+01
1.216151178164e+01
1.209786024710e+01
1.209810102072e+01
1.210547000694e+01
1.217650951762e+01
1.202925571028e+01
1.126621862337e+01
1.207640877104e+01
1.245653014329e+01
1.169120858397e+01
1.275796752020e+01
1.136037098357e+01
1.383264470951e+01
1.395843657010e+01
1.396122014136e+01
1.395831441634e+01
1.396072779817e+01
1.395769442730e+01
1.395990522845e+01
1.395291048305e+01
1.395738262377e+01
1.395050950362e+01
1.395613065788e+01
1.394780847079e+01
1.395561570290e+01
1.394648714582e+01
1.395258124736e+01
1.405520756504e+01
1.393546433498e+01
1.381951017707e+01
1.394410857300e+01
1.393069691605e+01
1.394157976416e+01
1.392823701357e+01
1.393908629814e+01
1.391988399850e+01
1.342210413157e+01
1.393231537199e+01
1.391024328911e+01
1.392408337865e+01
1.389911390826e+01
1.390512057418e+01
1.388072794940e+01
1.391901586099e+01
1.389872032879e+01
1.384048030519e+01
1.389369524794e+01
1.396626825653e+01
1.394311109149e+01
1.325738017388e+01
1.408063008053e+01
1.377721899730e+01
1.430242818776e+01
1.352188330243e+01
1.332120253310e+01
1.537855729867e+01
1.526531684923e+01
1.525301399271e+01
1.524730544215e+01
1.524173866970e+01
1.524976772111e+01
1.524516771040e+01
1.524235174634e+01
1.523295533775e+01
1.524193134187e+01
1.523448055432e+01
1.523797931689e+01
1.522700509342e+01
1.532351194361e+01
1.524184046357e+01
1.522856283382e+01
1.483713912805e+01
1.522535487876e+01
1.521330463638e+01
1.512470467446e+01
1.522328148406e+01
1.521336542424e+01
1.522509266129e+01
1.520938863941e+01
1.521602881840e+01
1.522858357703e+01
1.519612391148e+01
1.520803579029e+01
1.520559437265e+01
1.519028978217e+01
1.516110590829e+01
1.518967926503e+01
1.522933366068e+01
1.513569712076e+01
1.470127938714e+01
1.516500143665e+01
1.543731633637e+01
1.499785038414e+01
1.556648315405e+01
1.475008587736e+01
1.621014897452e+01
1.623253427991e+01
1.624235641358e+01
1.625272246057e+01
1.624462536413e+01
1.625571960601e+01
1.625409738171e+01
1.623448441743e+01
1.623443684511e+01
1.623912010231e+01
1.624218867895e+01
1.623585813436e+01
1.630684361570e+01
1.623160223416e+01
1.618593988671e+01
1.620913418241e+01
1.623651639128e+01
1.623032617569e+01
1.621774535297e+01
1.622511566630e+01
1.622397485771e+01
1.621224625434e+01
1.591505908830e+01
1.622184605356e+01
1.620091526097e+01
1.620447351623e+01
1.618457745795e+01
1.617735048688e+01
1.619945279973e+01
1.621555782287e+01
1.621745881139e+01
1.580147574253e+01
1.630958352917e+01
1.617502360951e+01
1.647680220942e+01
1.599178076213e+01
1.584754084979e+01


